    1C
    1UUSER                                                              
    1UDATE              27.october.2022                                 
    1UTIME              00:18:31                                        
    1UHOST                                                              
    1UPGM               CalculiX                                        
    1UVERSION           Version 2.17                             
    1UCOMPILETIME       Thu Jul 23 21:43:50 CEST 2020                    
    1UDIR                                                               
    1UDBN                                                               
    1UMAT    1SOLIDMATERIAL                                             
    2C                          4313                                     1
 -1         1 8.29198E+01 4.04561E+01 0.00000E+00
 -1         2 8.59424E+01 3.46959E+01 0.00000E+00
 -1         3 1.50000E+02 0.00000E+00 0.00000E+00
 -1         4 1.50000E+02 5.00000E+01 0.00000E+00
 -1         5 0.00000E+00 0.00000E+00 0.00000E+00
 -1         6 0.00000E+00 5.00000E+01 0.00000E+00
 -1         7 0.00000E+00 4.70500E+01 0.00000E+00
 -1         8 0.00000E+00 4.41000E+01 0.00000E+00
 -1         9 0.00000E+00 4.11500E+01 0.00000E+00
 -1        10 0.00000E+00 3.82000E+01 0.00000E+00
 -1        11 0.00000E+00 3.52500E+01 0.00000E+00
 -1        12 0.00000E+00 3.23500E+01 0.00000E+00
 -1        13 0.00000E+00 2.94000E+01 0.00000E+00
 -1        14 0.00000E+00 2.64500E+01 0.00000E+00
 -1        15 0.00000E+00 2.35000E+01 0.00000E+00
 -1        16 0.00000E+00 2.05500E+01 0.00000E+00
 -1        17 0.00000E+00 1.76000E+01 0.00000E+00
 -1        18 0.00000E+00 1.47000E+01 0.00000E+00
 -1        19 0.00000E+00 1.17500E+01 0.00000E+00
 -1        20 0.00000E+00 8.80000E+00 0.00000E+00
 -1        21 0.00000E+00 5.85000E+00 0.00000E+00
 -1        22 0.00000E+00 2.90000E+00 0.00000E+00
 -1        23 3.15000E+00 5.00000E+01 0.00000E+00
 -1        24 6.15000E+00 5.00000E+01 0.00000E+00
 -1        25 9.15000E+00 5.00000E+01 0.00000E+00
 -1        26 1.21500E+01 5.00000E+01 0.00000E+00
 -1        27 1.51500E+01 5.00000E+01 0.00000E+00
 -1        28 1.81500E+01 5.00000E+01 0.00000E+00
 -1        29 2.11500E+01 5.00000E+01 0.00000E+00
 -1        30 2.43000E+01 5.00000E+01 0.00000E+00
 -1        31 2.73000E+01 5.00000E+01 0.00000E+00
 -1        32 3.03000E+01 5.00000E+01 0.00000E+00
 -1        33 3.33000E+01 5.00000E+01 0.00000E+00
 -1        34 3.63000E+01 5.00000E+01 0.00000E+00
 -1        35 3.93000E+01 5.00000E+01 0.00000E+00
 -1        36 4.23000E+01 5.00000E+01 0.00000E+00
 -1        37 4.54500E+01 5.00000E+01 0.00000E+00
 -1        38 4.84500E+01 5.00000E+01 0.00000E+00
 -1        39 5.14500E+01 5.00000E+01 0.00000E+00
 -1        40 5.44500E+01 5.00000E+01 0.00000E+00
 -1        41 5.74500E+01 5.00000E+01 0.00000E+00
 -1        42 6.04500E+01 5.00000E+01 0.00000E+00
 -1        43 6.34500E+01 5.00000E+01 0.00000E+00
 -1        44 6.64500E+01 5.00000E+01 0.00000E+00
 -1        45 6.96000E+01 5.00000E+01 0.00000E+00
 -1        46 7.26000E+01 5.00000E+01 0.00000E+00
 -1        47 7.53000E+01 5.00000E+01 0.00000E+00
 -1        48 7.81500E+01 5.00000E+01 0.00000E+00
 -1        49 8.08500E+01 5.00000E+01 0.00000E+00
 -1        50 8.38500E+01 5.00000E+01 0.00000E+00
 -1        51 8.67000E+01 5.00000E+01 0.00000E+00
 -1        52 8.97000E+01 5.00000E+01 0.00000E+00
 -1        53 9.27000E+01 5.00000E+01 0.00000E+00
 -1        54 9.57000E+01 5.00000E+01 0.00000E+00
 -1        55 9.87000E+01 5.00000E+01 0.00000E+00
 -1        56 1.01700E+02 5.00000E+01 0.00000E+00
 -1        57 1.04700E+02 5.00000E+01 0.00000E+00
 -1        58 1.07850E+02 5.00000E+01 0.00000E+00
 -1        59 1.10850E+02 5.00000E+01 0.00000E+00
 -1        60 1.13850E+02 5.00000E+01 0.00000E+00
 -1        61 1.16850E+02 5.00000E+01 0.00000E+00
 -1        62 1.19850E+02 5.00000E+01 0.00000E+00
 -1        63 1.22850E+02 5.00000E+01 0.00000E+00
 -1        64 1.25850E+02 5.00000E+01 0.00000E+00
 -1        65 1.29000E+02 5.00000E+01 0.00000E+00
 -1        66 1.32000E+02 5.00000E+01 0.00000E+00
 -1        67 1.35000E+02 5.00000E+01 0.00000E+00
 -1        68 1.38000E+02 5.00000E+01 0.00000E+00
 -1        69 1.41000E+02 5.00000E+01 0.00000E+00
 -1        70 1.44000E+02 5.00000E+01 0.00000E+00
 -1        71 1.47000E+02 5.00000E+01 0.00000E+00
 -1        72 3.15000E+00 0.00000E+00 0.00000E+00
 -1        73 6.15000E+00 0.00000E+00 0.00000E+00
 -1        74 9.15000E+00 0.00000E+00 0.00000E+00
 -1        75 1.21500E+01 0.00000E+00 0.00000E+00
 -1        76 1.51500E+01 0.00000E+00 0.00000E+00
 -1        77 1.81500E+01 0.00000E+00 0.00000E+00
 -1        78 2.11500E+01 0.00000E+00 0.00000E+00
 -1        79 2.41500E+01 0.00000E+00 0.00000E+00
 -1        80 2.71500E+01 0.00000E+00 0.00000E+00
 -1        81 3.01500E+01 0.00000E+00 0.00000E+00
 -1        82 3.31500E+01 0.00000E+00 0.00000E+00
 -1        83 3.61500E+01 0.00000E+00 0.00000E+00
 -1        84 3.91500E+01 0.00000E+00 0.00000E+00
 -1        85 4.21500E+01 0.00000E+00 0.00000E+00
 -1        86 4.51500E+01 0.00000E+00 0.00000E+00
 -1        87 4.81500E+01 0.00000E+00 0.00000E+00
 -1        88 5.11500E+01 0.00000E+00 0.00000E+00
 -1        89 5.41500E+01 0.00000E+00 0.00000E+00
 -1        90 5.71500E+01 0.00000E+00 0.00000E+00
 -1        91 6.01500E+01 0.00000E+00 0.00000E+00
 -1        92 6.31500E+01 0.00000E+00 0.00000E+00
 -1        93 6.61500E+01 0.00000E+00 0.00000E+00
 -1        94 6.91500E+01 0.00000E+00 0.00000E+00
 -1        95 7.21500E+01 0.00000E+00 0.00000E+00
 -1        96 7.51500E+01 0.00000E+00 0.00000E+00
 -1        97 7.81500E+01 0.00000E+00 0.00000E+00
 -1        98 8.11500E+01 0.00000E+00 0.00000E+00
 -1        99 8.41500E+01 0.00000E+00 0.00000E+00
 -1       100 8.71500E+01 0.00000E+00 0.00000E+00
 -1       101 9.01500E+01 0.00000E+00 0.00000E+00
 -1       102 9.31500E+01 0.00000E+00 0.00000E+00
 -1       103 9.61500E+01 0.00000E+00 0.00000E+00
 -1       104 9.91500E+01 0.00000E+00 0.00000E+00
 -1       105 1.02150E+02 0.00000E+00 0.00000E+00
 -1       106 1.05150E+02 0.00000E+00 0.00000E+00
 -1       107 1.08150E+02 0.00000E+00 0.00000E+00
 -1       108 1.11150E+02 0.00000E+00 0.00000E+00
 -1       109 1.14150E+02 0.00000E+00 0.00000E+00
 -1       110 1.17150E+02 0.00000E+00 0.00000E+00
 -1       111 1.20150E+02 0.00000E+00 0.00000E+00
 -1       112 1.23150E+02 0.00000E+00 0.00000E+00
 -1       113 1.26150E+02 0.00000E+00 0.00000E+00
 -1       114 1.29150E+02 0.00000E+00 0.00000E+00
 -1       115 1.32150E+02 0.00000E+00 0.00000E+00
 -1       116 1.35150E+02 0.00000E+00 0.00000E+00
 -1       117 1.38150E+02 0.00000E+00 0.00000E+00
 -1       118 1.41150E+02 0.00000E+00 0.00000E+00
 -1       119 1.44150E+02 0.00000E+00 0.00000E+00
 -1       120 1.47150E+02 0.00000E+00 0.00000E+00
 -1       121 1.50000E+02 2.95000E+00 0.00000E+00
 -1       122 1.50000E+02 5.90000E+00 0.00000E+00
 -1       123 1.50000E+02 8.85000E+00 0.00000E+00
 -1       124 1.50000E+02 1.18000E+01 0.00000E+00
 -1       125 1.50000E+02 1.47500E+01 0.00000E+00
 -1       126 1.50000E+02 1.76500E+01 0.00000E+00
 -1       127 1.50000E+02 2.06000E+01 0.00000E+00
 -1       128 1.50000E+02 2.35500E+01 0.00000E+00
 -1       129 1.50000E+02 2.65000E+01 0.00000E+00
 -1       130 1.50000E+02 2.94500E+01 0.00000E+00
 -1       131 1.50000E+02 3.24000E+01 0.00000E+00
 -1       132 1.50000E+02 3.53000E+01 0.00000E+00
 -1       133 1.50000E+02 3.82500E+01 0.00000E+00
 -1       134 1.50000E+02 4.12000E+01 0.00000E+00
 -1       135 1.50000E+02 4.41500E+01 0.00000E+00
 -1       136 1.50000E+02 4.71000E+01 0.00000E+00
 -1       137 8.57707E+01 3.31552E+01 0.00000E+00
 -1       138 8.52184E+01 3.15958E+01 0.00000E+00
 -1       139 8.44369E+01 3.03589E+01 0.00000E+00
 -1       140 8.33988E+01 2.92978E+01 0.00000E+00
 -1       141 8.20933E+01 2.84452E+01 0.00000E+00
 -1       142 8.05992E+01 2.78948E+01 0.00000E+00
 -1       143 7.89850E+01 2.76961E+01 0.00000E+00
 -1       144 7.74937E+01 2.78475E+01 0.00000E+00
 -1       145 7.58978E+01 2.83927E+01 0.00000E+00
 -1       146 7.46305E+01 2.91816E+01 0.00000E+00
 -1       147 7.34895E+01 3.03065E+01 0.00000E+00
 -1       148 7.27095E+01 3.15097E+01 0.00000E+00
 -1       149 7.21740E+01 3.29099E+01 0.00000E+00
 -1       150 7.19468E+01 3.44471E+01 0.00000E+00
 -1       151 7.20752E+01 3.60532E+01 0.00000E+00
 -1       152 7.25156E+01 3.74701E+01 0.00000E+00
 -1       153 7.32620E+01 3.87865E+01 0.00000E+00
 -1       154 7.42640E+01 3.99029E+01 0.00000E+00
 -1       155 7.54778E+01 4.07784E+01 0.00000E+00
 -1       156 7.68780E+01 4.13846E+01 0.00000E+00
 -1       157 7.84187E+01 4.16763E+01 0.00000E+00
 -1       158 7.99671E+01 4.16205E+01 0.00000E+00
 -1       159 8.14233E+01 4.12415E+01 0.00000E+00
 -1       160 8.39528E+01 3.95843E+01 0.00000E+00
 -1       161 8.47700E+01 3.85739E+01 0.00000E+00
 -1       162 8.54056E+01 3.73842E+01 0.00000E+00
 -1       163 8.58082E+01 3.60600E+01 0.00000E+00
 -1       164 2.59800E+00 4.55750E+01 0.00000E+00
 -1       165 2.59800E+00 4.26250E+01 0.00000E+00
 -1       166 2.59800E+00 3.96750E+01 0.00000E+00
 -1       167 2.59800E+00 3.67250E+01 0.00000E+00
 -1       168 2.59800E+00 3.38250E+01 0.00000E+00
 -1       169 2.59800E+00 3.08750E+01 0.00000E+00
 -1       170 2.59800E+00 2.79250E+01 0.00000E+00
 -1       171 2.59800E+00 2.49750E+01 0.00000E+00
 -1       172 2.59800E+00 2.20250E+01 0.00000E+00
 -1       173 2.59800E+00 1.90750E+01 0.00000E+00
 -1       174 2.59800E+00 1.61750E+01 0.00000E+00
 -1       175 2.59800E+00 1.32250E+01 0.00000E+00
 -1       176 2.59800E+00 1.02750E+01 0.00000E+00
 -1       177 2.59800E+00 7.32500E+00 0.00000E+00
 -1       178 2.59800E+00 4.37500E+00 0.00000E+00
 -1       179 2.87400E+00 2.18750E+00 0.00000E+00
 -1       180 4.65000E+00 4.74020E+01 0.00000E+00
 -1       181 7.65000E+00 4.74020E+01 0.00000E+00
 -1       182 1.06500E+01 4.74020E+01 0.00000E+00
 -1       183 1.36500E+01 4.74020E+01 0.00000E+00
 -1       184 1.66500E+01 4.74020E+01 0.00000E+00
 -1       185 1.96500E+01 4.74020E+01 0.00000E+00
 -1       186 2.28000E+01 4.74020E+01 0.00000E+00
 -1       187 2.58000E+01 4.74020E+01 0.00000E+00
 -1       188 2.88000E+01 4.74020E+01 0.00000E+00
 -1       189 3.18000E+01 4.74020E+01 0.00000E+00
 -1       190 3.48000E+01 4.74020E+01 0.00000E+00
 -1       191 3.78000E+01 4.74020E+01 0.00000E+00
 -1       192 4.08000E+01 4.74020E+01 0.00000E+00
 -1       193 4.39500E+01 4.74020E+01 0.00000E+00
 -1       194 4.69500E+01 4.74020E+01 0.00000E+00
 -1       195 4.99500E+01 4.74020E+01 0.00000E+00
 -1       196 5.29500E+01 4.74020E+01 0.00000E+00
 -1       197 5.59500E+01 4.74020E+01 0.00000E+00
 -1       198 5.89500E+01 4.74020E+01 0.00000E+00
 -1       199 6.19500E+01 4.74020E+01 0.00000E+00
 -1       200 6.49500E+01 4.74020E+01 0.00000E+00
 -1       201 6.81000E+01 4.74020E+01 0.00000E+00
 -1       202 7.11000E+01 4.74020E+01 0.00000E+00
 -1       203 7.38000E+01 4.74020E+01 0.00000E+00
 -1       204 7.66500E+01 4.74020E+01 0.00000E+00
 -1       205 7.93500E+01 4.74020E+01 0.00000E+00
 -1       206 8.23500E+01 4.74020E+01 0.00000E+00
 -1       207 8.52000E+01 4.74020E+01 0.00000E+00
 -1       208 8.82000E+01 4.74020E+01 0.00000E+00
 -1       209 9.12000E+01 4.74020E+01 0.00000E+00
 -1       210 9.42000E+01 4.74020E+01 0.00000E+00
 -1       211 9.72000E+01 4.74020E+01 0.00000E+00
 -1       212 1.00200E+02 4.74020E+01 0.00000E+00
 -1       213 1.03200E+02 4.74020E+01 0.00000E+00
 -1       214 1.06350E+02 4.74020E+01 0.00000E+00
 -1       215 1.09350E+02 4.74020E+01 0.00000E+00
 -1       216 1.12350E+02 4.74020E+01 0.00000E+00
 -1       217 1.15350E+02 4.74020E+01 0.00000E+00
 -1       218 1.18350E+02 4.74020E+01 0.00000E+00
 -1       219 1.21350E+02 4.74020E+01 0.00000E+00
 -1       220 1.24350E+02 4.74020E+01 0.00000E+00
 -1       221 1.27500E+02 4.74020E+01 0.00000E+00
 -1       222 1.30500E+02 4.74020E+01 0.00000E+00
 -1       223 1.33500E+02 4.74020E+01 0.00000E+00
 -1       224 1.36500E+02 4.74020E+01 0.00000E+00
 -1       225 1.39500E+02 4.74020E+01 0.00000E+00
 -1       226 1.42500E+02 4.74020E+01 0.00000E+00
 -1       227 1.45500E+02 4.74020E+01 0.00000E+00
 -1       228 1.47750E+02 4.72510E+01 0.00000E+00
 -1       229 5.87400E+00 2.18750E+00 0.00000E+00
 -1       230 8.87400E+00 2.18750E+00 0.00000E+00
 -1       231 1.18740E+01 2.18750E+00 0.00000E+00
 -1       232 1.48740E+01 2.18750E+00 0.00000E+00
 -1       233 1.78740E+01 2.18750E+00 0.00000E+00
 -1       234 2.08740E+01 2.18750E+00 0.00000E+00
 -1       235 2.38740E+01 2.18750E+00 0.00000E+00
 -1       236 2.68740E+01 2.18750E+00 0.00000E+00
 -1       237 2.98740E+01 2.18750E+00 0.00000E+00
 -1       238 3.28740E+01 2.18750E+00 0.00000E+00
 -1       239 3.58740E+01 2.18750E+00 0.00000E+00
 -1       240 3.88740E+01 2.18750E+00 0.00000E+00
 -1       241 4.18740E+01 2.18750E+00 0.00000E+00
 -1       242 4.48740E+01 2.18750E+00 0.00000E+00
 -1       243 4.78740E+01 2.18750E+00 0.00000E+00
 -1       244 5.08740E+01 2.18750E+00 0.00000E+00
 -1       245 5.38740E+01 2.18750E+00 0.00000E+00
 -1       246 5.68740E+01 2.18750E+00 0.00000E+00
 -1       247 5.98740E+01 2.18750E+00 0.00000E+00
 -1       248 6.28740E+01 2.18750E+00 0.00000E+00
 -1       249 6.58740E+01 2.18750E+00 0.00000E+00
 -1       250 6.88740E+01 2.18750E+00 0.00000E+00
 -1       251 7.18740E+01 2.18750E+00 0.00000E+00
 -1       252 7.48740E+01 2.18750E+00 0.00000E+00
 -1       253 7.78740E+01 2.18750E+00 0.00000E+00
 -1       254 8.08740E+01 2.18750E+00 0.00000E+00
 -1       255 8.38740E+01 2.18750E+00 0.00000E+00
 -1       256 8.68740E+01 2.18750E+00 0.00000E+00
 -1       257 8.98740E+01 2.18750E+00 0.00000E+00
 -1       258 9.28740E+01 2.18750E+00 0.00000E+00
 -1       259 9.58740E+01 2.18750E+00 0.00000E+00
 -1       260 9.88740E+01 2.18750E+00 0.00000E+00
 -1       261 1.01874E+02 2.18750E+00 0.00000E+00
 -1       262 1.04874E+02 2.18750E+00 0.00000E+00
 -1       263 1.07874E+02 2.18750E+00 0.00000E+00
 -1       264 1.10874E+02 2.18750E+00 0.00000E+00
 -1       265 1.13874E+02 2.18750E+00 0.00000E+00
 -1       266 1.16874E+02 2.18750E+00 0.00000E+00
 -1       267 1.19874E+02 2.18750E+00 0.00000E+00
 -1       268 1.22874E+02 2.18750E+00 0.00000E+00
 -1       269 1.25874E+02 2.18750E+00 0.00000E+00
 -1       270 1.28874E+02 2.18750E+00 0.00000E+00
 -1       271 1.31874E+02 2.18750E+00 0.00000E+00
 -1       272 1.34874E+02 2.18750E+00 0.00000E+00
 -1       273 1.37874E+02 2.18750E+00 0.00000E+00
 -1       274 1.40874E+02 2.18750E+00 0.00000E+00
 -1       275 1.43874E+02 2.18750E+00 0.00000E+00
 -1       276 1.46874E+02 2.18750E+00 0.00000E+00
 -1       277 1.47402E+02 4.42500E+00 0.00000E+00
 -1       278 1.47402E+02 7.37500E+00 0.00000E+00
 -1       279 1.47402E+02 1.03250E+01 0.00000E+00
 -1       280 1.47402E+02 1.32750E+01 0.00000E+00
 -1       281 1.47402E+02 1.61750E+01 0.00000E+00
 -1       282 1.47402E+02 1.91250E+01 0.00000E+00
 -1       283 1.47402E+02 2.20750E+01 0.00000E+00
 -1       284 1.47402E+02 2.50250E+01 0.00000E+00
 -1       285 1.47402E+02 2.79750E+01 0.00000E+00
 -1       286 1.47402E+02 3.09250E+01 0.00000E+00
 -1       287 1.47402E+02 3.38250E+01 0.00000E+00
 -1       288 1.47402E+02 3.67750E+01 0.00000E+00
 -1       289 1.47402E+02 3.97250E+01 0.00000E+00
 -1       290 1.47402E+02 4.26750E+01 0.00000E+00
 -1       291 1.47576E+02 4.49630E+01 0.00000E+00
 -1       292 8.72280E+01 3.37728E+01 0.00000E+00
 -1       293 8.69533E+01 3.18589E+01 0.00000E+00
 -1       294 8.58526E+01 3.03297E+01 0.00000E+00
 -1       295 8.48444E+01 2.89219E+01 0.00000E+00
 -1       296 8.34090E+01 2.78564E+01 0.00000E+00
 -1       297 8.18232E+01 2.68751E+01 0.00000E+00
 -1       298 7.99812E+01 2.62595E+01 0.00000E+00
 -1       299 7.81084E+01 2.64822E+01 0.00000E+00
 -1       300 7.63038E+01 2.69728E+01 0.00000E+00
 -1       301 7.46234E+01 2.77579E+01 0.00000E+00
 -1       302 7.30911E+01 2.87614E+01 0.00000E+00
 -1       303 7.20822E+01 3.02486E+01 0.00000E+00
 -1       304 7.12311E+01 3.17468E+01 0.00000E+00
 -1       305 7.06953E+01 3.34767E+01 0.00000E+00
 -1       306 7.04684E+01 3.53735E+01 0.00000E+00
 -1       307 7.10576E+01 3.71463E+01 0.00000E+00
 -1       308 7.17612E+01 3.87677E+01 0.00000E+00
 -1       309 7.27984E+01 4.02105E+01 0.00000E+00
 -1       310 7.41616E+01 4.13240E+01 0.00000E+00
 -1       311 7.56629E+01 4.22710E+01 0.00000E+00
 -1       312 7.74073E+01 4.28040E+01 0.00000E+00
 -1       313 7.92366E+01 4.28600E+01 0.00000E+00
 -1       314 8.10006E+01 4.26043E+01 0.00000E+00
 -1       315 8.28907E+01 4.22191E+01 0.00000E+00
 -1       316 8.42723E+01 4.10107E+01 0.00000E+00
 -1       317 8.53040E+01 3.98415E+01 0.00000E+00
 -1       318 8.61572E+01 3.85503E+01 0.00000E+00
 -1       319 8.67669E+01 3.70747E+01 0.00000E+00
 -1       320 8.71652E+01 3.55049E+01 0.00000E+00
 -1       321 5.19600E+00 4.11500E+01 0.00000E+00
 -1       322 5.19600E+00 4.41000E+01 0.00000E+00
 -1       323 5.19600E+00 3.52750E+01 0.00000E+00
 -1       324 5.19600E+00 3.23250E+01 0.00000E+00
 -1       325 5.19600E+00 2.93750E+01 0.00000E+00
 -1       326 5.19600E+00 2.64250E+01 0.00000E+00
 -1       327 5.19600E+00 2.34750E+01 0.00000E+00
 -1       328 5.19600E+00 2.05250E+01 0.00000E+00
 -1       329 5.19600E+00 1.76250E+01 0.00000E+00
 -1       330 5.19600E+00 1.46750E+01 0.00000E+00
 -1       331 5.19600E+00 1.17250E+01 0.00000E+00
 -1       332 5.19600E+00 8.77500E+00 0.00000E+00
 -1       333 5.19600E+00 5.82500E+00 0.00000E+00
 -1       334 5.53500E+00 4.00625E+00 0.00000E+00
 -1       335 8.53500E+00 4.00625E+00 0.00000E+00
 -1       336 9.15000E+00 4.48040E+01 0.00000E+00
 -1       337 1.21500E+01 4.48040E+01 0.00000E+00
 -1       338 1.51500E+01 4.48040E+01 0.00000E+00
 -1       339 1.81500E+01 4.48040E+01 0.00000E+00
 -1       340 2.13000E+01 4.48040E+01 0.00000E+00
 -1       341 2.43000E+01 4.48040E+01 0.00000E+00
 -1       342 2.73000E+01 4.48040E+01 0.00000E+00
 -1       343 3.03000E+01 4.48040E+01 0.00000E+00
 -1       344 3.33000E+01 4.48040E+01 0.00000E+00
 -1       345 3.63000E+01 4.48040E+01 0.00000E+00
 -1       346 3.93000E+01 4.48040E+01 0.00000E+00
 -1       347 4.24500E+01 4.48040E+01 0.00000E+00
 -1       348 4.54500E+01 4.48040E+01 0.00000E+00
 -1       349 4.84500E+01 4.48040E+01 0.00000E+00
 -1       350 5.14500E+01 4.48040E+01 0.00000E+00
 -1       351 5.44500E+01 4.48040E+01 0.00000E+00
 -1       352 5.74500E+01 4.48040E+01 0.00000E+00
 -1       353 6.04500E+01 4.48040E+01 0.00000E+00
 -1       354 6.34500E+01 4.48040E+01 0.00000E+00
 -1       355 6.66000E+01 4.48040E+01 0.00000E+00
 -1       356 6.96000E+01 4.48040E+01 0.00000E+00
 -1       357 7.23000E+01 4.48040E+01 0.00000E+00
 -1       358 7.52250E+01 4.53517E+01 0.00000E+00
 -1       359 7.80000E+01 4.53517E+01 0.00000E+00
 -1       360 8.08500E+01 4.53517E+01 0.00000E+00
 -1       361 8.37750E+01 4.51842E+01 0.00000E+00
 -1       362 8.67750E+01 4.51842E+01 0.00000E+00
 -1       363 8.97750E+01 4.51842E+01 0.00000E+00
 -1       364 9.27750E+01 4.51842E+01 0.00000E+00
 -1       365 9.57750E+01 4.51842E+01 0.00000E+00
 -1       366 9.87750E+01 4.51842E+01 0.00000E+00
 -1       367 1.01775E+02 4.51842E+01 0.00000E+00
 -1       368 1.04925E+02 4.51842E+01 0.00000E+00
 -1       369 1.07925E+02 4.51842E+01 0.00000E+00
 -1       370 1.10925E+02 4.51842E+01 0.00000E+00
 -1       371 1.13925E+02 4.51842E+01 0.00000E+00
 -1       372 1.16925E+02 4.51842E+01 0.00000E+00
 -1       373 1.19925E+02 4.51842E+01 0.00000E+00
 -1       374 1.22925E+02 4.51842E+01 0.00000E+00
 -1       375 1.26075E+02 4.51842E+01 0.00000E+00
 -1       376 1.29075E+02 4.51842E+01 0.00000E+00
 -1       377 1.32075E+02 4.51842E+01 0.00000E+00
 -1       378 1.35075E+02 4.51842E+01 0.00000E+00
 -1       379 1.38075E+02 4.51842E+01 0.00000E+00
 -1       380 1.41075E+02 4.51842E+01 0.00000E+00
 -1       381 1.44075E+02 4.51842E+01 0.00000E+00
 -1       382 1.33740E+01 4.78550E+00 0.00000E+00
 -1       383 1.63740E+01 4.78550E+00 0.00000E+00
 -1       384 1.93740E+01 4.78550E+00 0.00000E+00
 -1       385 2.23740E+01 4.78550E+00 0.00000E+00
 -1       386 2.53740E+01 4.78550E+00 0.00000E+00
 -1       387 2.83740E+01 4.78550E+00 0.00000E+00
 -1       388 3.13740E+01 4.78550E+00 0.00000E+00
 -1       389 3.43740E+01 4.78550E+00 0.00000E+00
 -1       390 3.73740E+01 4.78550E+00 0.00000E+00
 -1       391 4.03740E+01 4.78550E+00 0.00000E+00
 -1       392 4.33740E+01 4.78550E+00 0.00000E+00
 -1       393 4.63740E+01 4.78550E+00 0.00000E+00
 -1       394 4.93740E+01 4.78550E+00 0.00000E+00
 -1       395 5.23740E+01 4.78550E+00 0.00000E+00
 -1       396 5.53740E+01 4.78550E+00 0.00000E+00
 -1       397 5.83740E+01 4.78550E+00 0.00000E+00
 -1       398 6.13740E+01 4.78550E+00 0.00000E+00
 -1       399 6.43740E+01 4.78550E+00 0.00000E+00
 -1       400 6.73740E+01 4.78550E+00 0.00000E+00
 -1       401 7.03740E+01 4.78550E+00 0.00000E+00
 -1       402 7.33740E+01 4.78550E+00 0.00000E+00
 -1       403 7.63740E+01 4.78550E+00 0.00000E+00
 -1       404 7.93740E+01 4.78550E+00 0.00000E+00
 -1       405 8.23740E+01 4.78550E+00 0.00000E+00
 -1       406 8.53740E+01 4.78550E+00 0.00000E+00
 -1       407 8.83740E+01 4.78550E+00 0.00000E+00
 -1       408 9.13740E+01 4.78550E+00 0.00000E+00
 -1       409 9.43740E+01 4.78550E+00 0.00000E+00
 -1       410 9.73740E+01 4.78550E+00 0.00000E+00
 -1       411 1.00374E+02 4.78550E+00 0.00000E+00
 -1       412 1.03374E+02 4.78550E+00 0.00000E+00
 -1       413 1.06374E+02 4.78550E+00 0.00000E+00
 -1       414 1.09374E+02 4.78550E+00 0.00000E+00
 -1       415 1.12374E+02 4.78550E+00 0.00000E+00
 -1       416 1.15374E+02 4.78550E+00 0.00000E+00
 -1       417 1.18374E+02 4.78550E+00 0.00000E+00
 -1       418 1.21374E+02 4.78550E+00 0.00000E+00
 -1       419 1.24374E+02 4.78550E+00 0.00000E+00
 -1       420 1.27374E+02 4.78550E+00 0.00000E+00
 -1       421 1.30374E+02 4.78550E+00 0.00000E+00
 -1       422 1.33374E+02 4.78550E+00 0.00000E+00
 -1       423 1.36374E+02 4.78550E+00 0.00000E+00
 -1       424 1.39374E+02 4.78550E+00 0.00000E+00
 -1       425 1.42374E+02 4.78550E+00 0.00000E+00
 -1       426 1.44888E+02 4.60525E+00 0.00000E+00
 -1       427 1.44804E+02 1.18000E+01 0.00000E+00
 -1       428 1.44804E+02 8.85000E+00 0.00000E+00
 -1       429 1.44804E+02 1.47000E+01 0.00000E+00
 -1       430 1.44804E+02 1.76500E+01 0.00000E+00
 -1       431 1.44804E+02 2.06000E+01 0.00000E+00
 -1       432 1.44804E+02 2.35500E+01 0.00000E+00
 -1       433 1.44804E+02 2.65000E+01 0.00000E+00
 -1       434 1.44804E+02 2.94500E+01 0.00000E+00
 -1       435 1.44804E+02 3.23500E+01 0.00000E+00
 -1       436 1.44804E+02 3.53000E+01 0.00000E+00
 -1       437 1.44804E+02 3.82500E+01 0.00000E+00
 -1       438 1.44804E+02 4.12000E+01 0.00000E+00
 -1       439 1.09545E+01 4.39587E+00 0.00000E+00
 -1       440 8.75910E+01 3.02392E+01 0.00000E+00
 -1       441 8.49492E+01 2.72811E+01 0.00000E+00
 -1       442 8.86594E+01 3.46919E+01 0.00000E+00
 -1       443 8.65827E+01 2.88313E+01 0.00000E+00
 -1       444 5.19600E+00 3.82125E+01 0.00000E+00
 -1       445 8.32981E+01 2.62635E+01 0.00000E+00
 -1       446 8.13927E+01 2.50996E+01 0.00000E+00
 -1       447 7.88720E+01 2.49173E+01 0.00000E+00
 -1       448 7.67562E+01 2.50725E+01 0.00000E+00
 -1       449 7.48085E+01 2.59633E+01 0.00000E+00
 -1       450 7.31471E+01 2.71753E+01 0.00000E+00
 -1       451 7.13060E+01 2.86362E+01 0.00000E+00
 -1       452 7.04549E+01 3.01344E+01 0.00000E+00
 -1       453 6.96450E+01 3.22034E+01 0.00000E+00
 -1       454 6.89620E+01 3.42313E+01 0.00000E+00
 -1       455 6.94534E+01 3.66952E+01 0.00000E+00
 -1       456 6.99129E+01 3.86065E+01 0.00000E+00
 -1       457 7.10912E+01 4.03434E+01 0.00000E+00
 -1       458 7.26071E+01 4.18360E+01 0.00000E+00
 -1       459 7.40419E+01 4.31772E+01 0.00000E+00
 -1       460 7.60584E+01 4.40976E+01 0.00000E+00
 -1       461 8.45452E+01 4.27167E+01 0.00000E+00
 -1       462 8.58229E+01 4.13392E+01 0.00000E+00
 -1       463 8.66760E+01 4.00480E+01 0.00000E+00
 -1       464 8.77374E+01 3.83395E+01 0.00000E+00
 -1       465 8.82224E+01 3.66086E+01 0.00000E+00
 -1       466 8.84566E+01 3.26198E+01 0.00000E+00
 -1       467 1.44439E+02 4.31921E+01 0.00000E+00
 -1       468 8.90943E+01 3.10001E+01 0.00000E+00
 -1       469 8.02835E+01 2.37574E+01 0.00000E+00
 -1       470 8.32963E+01 4.38696E+01 0.00000E+00
 -1       471 8.22714E+01 4.40102E+01 0.00000E+00
 -1       472 7.79400E+00 3.08500E+01 0.00000E+00
 -1       473 7.79400E+00 3.38000E+01 0.00000E+00
 -1       474 7.79400E+00 2.49500E+01 0.00000E+00
 -1       475 7.79400E+00 2.20000E+01 0.00000E+00
 -1       476 7.79400E+00 1.91000E+01 0.00000E+00
 -1       477 7.79400E+00 1.61500E+01 0.00000E+00
 -1       478 7.79400E+00 1.32000E+01 0.00000E+00
 -1       479 7.79400E+00 1.02500E+01 0.00000E+00
 -1       480 7.79400E+00 7.30000E+00 0.00000E+00
 -1       481 8.16450E+00 5.65312E+00 0.00000E+00
 -1       482 1.06500E+01 4.22060E+01 0.00000E+00
 -1       483 1.36500E+01 4.22060E+01 0.00000E+00
 -1       484 1.66500E+01 4.22060E+01 0.00000E+00
 -1       485 1.98000E+01 4.22060E+01 0.00000E+00
 -1       486 2.28000E+01 4.22060E+01 0.00000E+00
 -1       487 2.58000E+01 4.22060E+01 0.00000E+00
 -1       488 2.88000E+01 4.22060E+01 0.00000E+00
 -1       489 3.18000E+01 4.22060E+01 0.00000E+00
 -1       490 3.48000E+01 4.22060E+01 0.00000E+00
 -1       491 3.78000E+01 4.22060E+01 0.00000E+00
 -1       492 4.09500E+01 4.22060E+01 0.00000E+00
 -1       493 4.39500E+01 4.22060E+01 0.00000E+00
 -1       494 4.69500E+01 4.22060E+01 0.00000E+00
 -1       495 4.99500E+01 4.22060E+01 0.00000E+00
 -1       496 5.29500E+01 4.22060E+01 0.00000E+00
 -1       497 5.59500E+01 4.22060E+01 0.00000E+00
 -1       498 5.89500E+01 4.22060E+01 0.00000E+00
 -1       499 6.19500E+01 4.22060E+01 0.00000E+00
 -1       500 6.51000E+01 4.22060E+01 0.00000E+00
 -1       501 6.81000E+01 4.22060E+01 0.00000E+00
 -1       502 8.50235E+01 2.53122E+01 0.00000E+00
 -1       503 8.82750E+01 4.31339E+01 0.00000E+00
 -1       504 9.12750E+01 4.26312E+01 0.00000E+00
 -1       505 9.42750E+01 4.26312E+01 0.00000E+00
 -1       506 9.72750E+01 4.26312E+01 0.00000E+00
 -1       507 1.00275E+02 4.26312E+01 0.00000E+00
 -1       508 1.03425E+02 4.26312E+01 0.00000E+00
 -1       509 1.06425E+02 4.26312E+01 0.00000E+00
 -1       510 1.09425E+02 4.26312E+01 0.00000E+00
 -1       511 1.12425E+02 4.26312E+01 0.00000E+00
 -1       512 1.15425E+02 4.26312E+01 0.00000E+00
 -1       513 1.18425E+02 4.26312E+01 0.00000E+00
 -1       514 1.21425E+02 4.26312E+01 0.00000E+00
 -1       515 1.24575E+02 4.26312E+01 0.00000E+00
 -1       516 1.27575E+02 4.26312E+01 0.00000E+00
 -1       517 1.30575E+02 4.26312E+01 0.00000E+00
 -1       518 1.33575E+02 4.26312E+01 0.00000E+00
 -1       519 1.36575E+02 4.26312E+01 0.00000E+00
 -1       520 1.39575E+02 4.26312E+01 0.00000E+00
 -1       521 1.42007E+02 4.29117E+01 0.00000E+00
 -1       522 2.08740E+01 7.38350E+00 0.00000E+00
 -1       523 1.78740E+01 7.38350E+00 0.00000E+00
 -1       524 1.48740E+01 7.38350E+00 0.00000E+00
 -1       525 2.38740E+01 7.38350E+00 0.00000E+00
 -1       526 2.68740E+01 7.38350E+00 0.00000E+00
 -1       527 2.98740E+01 7.38350E+00 0.00000E+00
 -1       528 3.28740E+01 7.38350E+00 0.00000E+00
 -1       529 3.58740E+01 7.38350E+00 0.00000E+00
 -1       530 3.88740E+01 7.38350E+00 0.00000E+00
 -1       531 4.18740E+01 7.38350E+00 0.00000E+00
 -1       532 4.48740E+01 7.38350E+00 0.00000E+00
 -1       533 4.78740E+01 7.38350E+00 0.00000E+00
 -1       534 5.08740E+01 7.38350E+00 0.00000E+00
 -1       535 5.38740E+01 7.38350E+00 0.00000E+00
 -1       536 5.68740E+01 7.38350E+00 0.00000E+00
 -1       537 5.98740E+01 7.38350E+00 0.00000E+00
 -1       538 6.28740E+01 7.38350E+00 0.00000E+00
 -1       539 6.58740E+01 7.38350E+00 0.00000E+00
 -1       540 6.88740E+01 7.38350E+00 0.00000E+00
 -1       541 7.18740E+01 7.38350E+00 0.00000E+00
 -1       542 7.48740E+01 7.38350E+00 0.00000E+00
 -1       543 7.78740E+01 7.38350E+00 0.00000E+00
 -1       544 8.08740E+01 7.38350E+00 0.00000E+00
 -1       545 8.38740E+01 7.38350E+00 0.00000E+00
 -1       546 8.68740E+01 7.38350E+00 0.00000E+00
 -1       547 8.98740E+01 7.38350E+00 0.00000E+00
 -1       548 9.28740E+01 7.38350E+00 0.00000E+00
 -1       549 9.58740E+01 7.38350E+00 0.00000E+00
 -1       550 9.88740E+01 7.38350E+00 0.00000E+00
 -1       551 1.01874E+02 7.38350E+00 0.00000E+00
 -1       552 1.04874E+02 7.38350E+00 0.00000E+00
 -1       553 1.07874E+02 7.38350E+00 0.00000E+00
 -1       554 1.10874E+02 7.38350E+00 0.00000E+00
 -1       555 1.13874E+02 7.38350E+00 0.00000E+00
 -1       556 1.16874E+02 7.38350E+00 0.00000E+00
 -1       557 1.19874E+02 7.38350E+00 0.00000E+00
 -1       558 1.22874E+02 7.38350E+00 0.00000E+00
 -1       559 1.25874E+02 7.38350E+00 0.00000E+00
 -1       560 1.28874E+02 7.38350E+00 0.00000E+00
 -1       561 1.31874E+02 7.38350E+00 0.00000E+00
 -1       562 1.34874E+02 7.38350E+00 0.00000E+00
 -1       563 1.37874E+02 7.38350E+00 0.00000E+00
 -1       564 1.40874E+02 7.38350E+00 0.00000E+00
 -1       565 1.42206E+02 1.61750E+01 0.00000E+00
 -1       566 1.42206E+02 1.32750E+01 0.00000E+00
 -1       567 1.42206E+02 1.03250E+01 0.00000E+00
 -1       568 9.05985E+01 3.34562E+01 0.00000E+00
 -1       569 1.42206E+02 1.91250E+01 0.00000E+00
 -1       570 1.42206E+02 2.20750E+01 0.00000E+00
 -1       571 1.42206E+02 2.50250E+01 0.00000E+00
 -1       572 1.42206E+02 2.79750E+01 0.00000E+00
 -1       573 1.42206E+02 3.08750E+01 0.00000E+00
 -1       574 1.42206E+02 3.38250E+01 0.00000E+00
 -1       575 1.42206E+02 3.67750E+01 0.00000E+00
 -1       576 1.42206E+02 3.97250E+01 0.00000E+00
 -1       577 7.92300E+00 4.16780E+01 0.00000E+00
 -1       578 8.84131E+01 2.85854E+01 0.00000E+00
 -1       579 8.68312E+01 2.69337E+01 0.00000E+00
 -1       580 8.84501E+01 3.99662E+01 0.00000E+00
 -1       581 8.64415E+01 4.31943E+01 0.00000E+00
 -1       582 7.11605E+01 2.65622E+01 0.00000E+00
 -1       583 8.99497E+01 3.59942E+01 0.00000E+00
 -1       584 7.79400E+00 2.79000E+01 0.00000E+00
 -1       585 6.75193E+01 3.26165E+01 0.00000E+00
 -1       586 8.31181E+01 2.41482E+01 0.00000E+00
 -1       587 7.77009E+01 2.34515E+01 0.00000E+00
 -1       588 7.51038E+01 2.40344E+01 0.00000E+00
 -1       589 7.30164E+01 2.52514E+01 0.00000E+00
 -1       590 6.96078E+01 2.86623E+01 0.00000E+00
 -1       591 6.83292E+01 3.05474E+01 0.00000E+00
 -1       592 6.75258E+01 3.57987E+01 0.00000E+00
 -1       593 6.81785E+01 3.80125E+01 0.00000E+00
 -1       594 6.91521E+01 4.03908E+01 0.00000E+00
 -1       595 7.06458E+01 4.23118E+01 0.00000E+00
 -1       596 7.23250E+01 4.35760E+01 0.00000E+00
 -1       597 8.94647E+01 3.77251E+01 0.00000E+00
 -1       598 8.74458E+01 4.15802E+01 0.00000E+00
 -1       599 7.79400E+00 3.67375E+01 0.00000E+00
 -1       600 1.05840E+01 6.04275E+00 0.00000E+00
 -1       601 7.85850E+00 3.92077E+01 0.00000E+00
 -1       602 8.99165E+01 2.93463E+01 0.00000E+00
 -1       603 1.27290E+01 6.71313E+00 0.00000E+00
 -1       604 8.20089E+01 2.28061E+01 0.00000E+00
 -1       605 6.60830E+01 3.41839E+01 0.00000E+00
 -1       606 8.49705E+01 4.44302E+01 0.00000E+00
 -1       607 1.03920E+01 2.05500E+01 0.00000E+00
 -1       608 1.03920E+01 2.35000E+01 0.00000E+00
 -1       609 1.03920E+01 1.46750E+01 0.00000E+00
 -1       610 1.03920E+01 1.17250E+01 0.00000E+00
 -1       611 1.02135E+01 7.68962E+00 0.00000E+00
 -1       612 1.21500E+01 3.96080E+01 0.00000E+00
 -1       613 7.91939E+01 2.19012E+01 0.00000E+00
 -1       614 1.51500E+01 3.96080E+01 0.00000E+00
 -1       615 1.83000E+01 3.96080E+01 0.00000E+00
 -1       616 2.13000E+01 3.96080E+01 0.00000E+00
 -1       617 2.43000E+01 3.96080E+01 0.00000E+00
 -1       618 2.73000E+01 3.96080E+01 0.00000E+00
 -1       619 3.03000E+01 3.96080E+01 0.00000E+00
 -1       620 3.33000E+01 3.96080E+01 0.00000E+00
 -1       621 3.63000E+01 3.96080E+01 0.00000E+00
 -1       622 3.94500E+01 3.96080E+01 0.00000E+00
 -1       623 4.24500E+01 3.96080E+01 0.00000E+00
 -1       624 4.54500E+01 3.96080E+01 0.00000E+00
 -1       625 4.84500E+01 3.96080E+01 0.00000E+00
 -1       626 5.14500E+01 3.96080E+01 0.00000E+00
 -1       627 5.44500E+01 3.96080E+01 0.00000E+00
 -1       628 5.74500E+01 3.96080E+01 0.00000E+00
 -1       629 6.04500E+01 3.96080E+01 0.00000E+00
 -1       630 6.36000E+01 3.96080E+01 0.00000E+00
 -1       631 1.39206E+02 1.03250E+01 0.00000E+00
 -1       632 8.72964E+01 2.45967E+01 0.00000E+00
 -1       633 9.57750E+01 4.00332E+01 0.00000E+00
 -1       634 9.87750E+01 4.00332E+01 0.00000E+00
 -1       635 1.01925E+02 4.00332E+01 0.00000E+00
 -1       636 1.04925E+02 4.00332E+01 0.00000E+00
 -1       637 1.07925E+02 4.00332E+01 0.00000E+00
 -1       638 1.10925E+02 4.00332E+01 0.00000E+00
 -1       639 1.13925E+02 4.00332E+01 0.00000E+00
 -1       640 1.16925E+02 4.00332E+01 0.00000E+00
 -1       641 1.19925E+02 4.00332E+01 0.00000E+00
 -1       642 1.23075E+02 4.00332E+01 0.00000E+00
 -1       643 1.26075E+02 4.00332E+01 0.00000E+00
 -1       644 1.29075E+02 4.00332E+01 0.00000E+00
 -1       645 1.32075E+02 4.00332E+01 0.00000E+00
 -1       646 1.35075E+02 4.00332E+01 0.00000E+00
 -1       647 1.38075E+02 4.00332E+01 0.00000E+00
 -1       648 1.93740E+01 9.98150E+00 0.00000E+00
 -1       649 2.23740E+01 9.98150E+00 0.00000E+00
 -1       650 1.63740E+01 9.98150E+00 0.00000E+00
 -1       651 2.83740E+01 9.98150E+00 0.00000E+00
 -1       652 3.13740E+01 9.98150E+00 0.00000E+00
 -1       653 3.43740E+01 9.98150E+00 0.00000E+00
 -1       654 3.73740E+01 9.98150E+00 0.00000E+00
 -1       655 4.03740E+01 9.98150E+00 0.00000E+00
 -1       656 4.33740E+01 9.98150E+00 0.00000E+00
 -1       657 4.63740E+01 9.98150E+00 0.00000E+00
 -1       658 4.93740E+01 9.98150E+00 0.00000E+00
 -1       659 5.23740E+01 9.98150E+00 0.00000E+00
 -1       660 5.53740E+01 9.98150E+00 0.00000E+00
 -1       661 5.83740E+01 9.98150E+00 0.00000E+00
 -1       662 6.13740E+01 9.98150E+00 0.00000E+00
 -1       663 6.43740E+01 9.98150E+00 0.00000E+00
 -1       664 6.73740E+01 9.98150E+00 0.00000E+00
 -1       665 7.03740E+01 9.98150E+00 0.00000E+00
 -1       666 7.33740E+01 9.98150E+00 0.00000E+00
 -1       667 7.63740E+01 9.98150E+00 0.00000E+00
 -1       668 7.93740E+01 9.98150E+00 0.00000E+00
 -1       669 8.23740E+01 9.98150E+00 0.00000E+00
 -1       670 8.53740E+01 9.98150E+00 0.00000E+00
 -1       671 8.83740E+01 9.98150E+00 0.00000E+00
 -1       672 9.13740E+01 9.98150E+00 0.00000E+00
 -1       673 9.43740E+01 9.98150E+00 0.00000E+00
 -1       674 9.73740E+01 9.98150E+00 0.00000E+00
 -1       675 1.00374E+02 9.98150E+00 0.00000E+00
 -1       676 1.03374E+02 9.98150E+00 0.00000E+00
 -1       677 1.06374E+02 9.98150E+00 0.00000E+00
 -1       678 1.09374E+02 9.98150E+00 0.00000E+00
 -1       679 1.12374E+02 9.98150E+00 0.00000E+00
 -1       680 1.15374E+02 9.98150E+00 0.00000E+00
 -1       681 1.18374E+02 9.98150E+00 0.00000E+00
 -1       682 1.21374E+02 9.98150E+00 0.00000E+00
 -1       683 1.24374E+02 9.98150E+00 0.00000E+00
 -1       684 1.27374E+02 9.98150E+00 0.00000E+00
 -1       685 1.30374E+02 9.98150E+00 0.00000E+00
 -1       686 1.33374E+02 9.98150E+00 0.00000E+00
 -1       687 1.36290E+02 1.01532E+01 0.00000E+00
 -1       688 1.39608E+02 2.06000E+01 0.00000E+00
 -1       689 1.39608E+02 1.76500E+01 0.00000E+00
 -1       690 2.53740E+01 9.98150E+00 0.00000E+00
 -1       691 1.39608E+02 2.65000E+01 0.00000E+00
 -1       692 1.39608E+02 2.94000E+01 0.00000E+00
 -1       693 1.39608E+02 3.23500E+01 0.00000E+00
 -1       694 1.39608E+02 3.53000E+01 0.00000E+00
 -1       695 1.00042E+01 3.94079E+01 0.00000E+00
 -1       696 6.66393E+01 4.01093E+01 0.00000E+00
 -1       697 9.15948E+01 3.11573E+01 0.00000E+00
 -1       698 1.39608E+02 2.35500E+01 0.00000E+00
 -1       699 1.39608E+02 1.47500E+01 0.00000E+00
 -1       700 9.27750E+01 4.00332E+01 0.00000E+00
 -1       701 9.22605E+01 3.52330E+01 0.00000E+00
 -1       702 1.03920E+01 1.76125E+01 0.00000E+00
 -1       703 8.88609E+01 2.65733E+01 0.00000E+00
 -1       704 8.49649E+01 2.32666E+01 0.00000E+00
 -1       705 9.06725E+01 3.96222E+01 0.00000E+00
 -1       706 6.76184E+01 2.86892E+01 0.00000E+00
 -1       707 7.09056E+01 2.42322E+01 0.00000E+00
 -1       708 6.62070E+01 3.73907E+01 0.00000E+00
 -1       709 7.59167E+01 2.15789E+01 0.00000E+00
 -1       710 6.90050E+01 2.65926E+01 0.00000E+00
 -1       711 7.29930E+01 2.30151E+01 0.00000E+00
 -1       712 6.63272E+01 3.09568E+01 0.00000E+00
 -1       713 9.14665E+01 3.74276E+01 0.00000E+00
 -1       714 1.03920E+01 3.23250E+01 0.00000E+00
 -1       715 9.01104E+01 4.08067E+01 0.00000E+00
 -1       716 1.03920E+01 2.64500E+01 0.00000E+00
 -1       717 8.09193E+01 2.09499E+01 0.00000E+00
 -1       718 9.32568E+01 3.29341E+01 0.00000E+00
 -1       719 1.33741E+01 9.98153E+00 0.00000E+00
 -1       720 9.03642E+01 2.73342E+01 0.00000E+00
 -1       721 1.39608E+02 3.82500E+01 0.00000E+00
 -1       722 8.38557E+01 2.19244E+01 0.00000E+00
 -1       723 1.03920E+01 2.93875E+01 0.00000E+00
 -1       724 6.47643E+01 3.57758E+01 0.00000E+00
 -1       725 6.48909E+01 3.25242E+01 0.00000E+00
 -1       726 1.03920E+01 3.52625E+01 0.00000E+00
 -1       727 1.29900E+01 1.32000E+01 0.00000E+00
 -1       728 6.84889E+01 2.42317E+01 0.00000E+00
 -1       729 1.01981E+01 3.73352E+01 0.00000E+00
 -1       730 1.36500E+01 3.70100E+01 0.00000E+00
 -1       731 1.68000E+01 3.70100E+01 0.00000E+00
 -1       732 1.98000E+01 3.70100E+01 0.00000E+00
 -1       733 2.28000E+01 3.70100E+01 0.00000E+00
 -1       734 2.58000E+01 3.70100E+01 0.00000E+00
 -1       735 2.88000E+01 3.70100E+01 0.00000E+00
 -1       736 3.18000E+01 3.70100E+01 0.00000E+00
 -1       737 3.48000E+01 3.70100E+01 0.00000E+00
 -1       738 3.79500E+01 3.70100E+01 0.00000E+00
 -1       739 4.09500E+01 3.70100E+01 0.00000E+00
 -1       740 4.39500E+01 3.70100E+01 0.00000E+00
 -1       741 4.69500E+01 3.70100E+01 0.00000E+00
 -1       742 4.99500E+01 3.70100E+01 0.00000E+00
 -1       743 5.29500E+01 3.70100E+01 0.00000E+00
 -1       744 5.59500E+01 3.70100E+01 0.00000E+00
 -1       745 5.89500E+01 3.70100E+01 0.00000E+00
 -1       746 6.21000E+01 3.70100E+01 0.00000E+00
 -1       747 9.42750E+01 3.78154E+01 0.00000E+00
 -1       748 8.73957E+01 2.17142E+01 0.00000E+00
 -1       749 1.48741E+01 1.25795E+01 0.00000E+00
 -1       750 1.00350E+02 3.74352E+01 0.00000E+00
 -1       751 1.03350E+02 3.74352E+01 0.00000E+00
 -1       752 1.06350E+02 3.74352E+01 0.00000E+00
 -1       753 1.09350E+02 3.74352E+01 0.00000E+00
 -1       754 1.12350E+02 3.74352E+01 0.00000E+00
 -1       755 1.15350E+02 3.74352E+01 0.00000E+00
 -1       756 1.18350E+02 3.74352E+01 0.00000E+00
 -1       757 1.21500E+02 3.74352E+01 0.00000E+00
 -1       758 1.24500E+02 3.74352E+01 0.00000E+00
 -1       759 1.27500E+02 3.74352E+01 0.00000E+00
 -1       760 1.30500E+02 3.74352E+01 0.00000E+00
 -1       761 1.33500E+02 3.74352E+01 0.00000E+00
 -1       762 1.36500E+02 3.74352E+01 0.00000E+00
 -1       763 1.37010E+02 3.08750E+01 0.00000E+00
 -1       764 1.37010E+02 2.20750E+01 0.00000E+00
 -1       765 2.08740E+01 1.25795E+01 0.00000E+00
 -1       766 1.78740E+01 1.25795E+01 0.00000E+00
 -1       767 3.28740E+01 1.25795E+01 0.00000E+00
 -1       768 2.98740E+01 1.25795E+01 0.00000E+00
 -1       769 3.88740E+01 1.25795E+01 0.00000E+00
 -1       770 4.18740E+01 1.25795E+01 0.00000E+00
 -1       771 4.48740E+01 1.25795E+01 0.00000E+00
 -1       772 4.78740E+01 1.25795E+01 0.00000E+00
 -1       773 5.08740E+01 1.25795E+01 0.00000E+00
 -1       774 5.38740E+01 1.25795E+01 0.00000E+00
 -1       775 5.68740E+01 1.25795E+01 0.00000E+00
 -1       776 5.98740E+01 1.25795E+01 0.00000E+00
 -1       777 6.28740E+01 1.25795E+01 0.00000E+00
 -1       778 6.58740E+01 1.25795E+01 0.00000E+00
 -1       779 6.88740E+01 1.25795E+01 0.00000E+00
 -1       780 7.18740E+01 1.25795E+01 0.00000E+00
 -1       781 7.48740E+01 1.25795E+01 0.00000E+00
 -1       782 7.78740E+01 1.25795E+01 0.00000E+00
 -1       783 8.08740E+01 1.25795E+01 0.00000E+00
 -1       784 8.38740E+01 1.25795E+01 0.00000E+00
 -1       785 8.68740E+01 1.25795E+01 0.00000E+00
 -1       786 8.98740E+01 1.25795E+01 0.00000E+00
 -1       787 9.28740E+01 1.25795E+01 0.00000E+00
 -1       788 9.58740E+01 1.25795E+01 0.00000E+00
 -1       789 9.88740E+01 1.25795E+01 0.00000E+00
 -1       790 1.01874E+02 1.25795E+01 0.00000E+00
 -1       791 1.04874E+02 1.25795E+01 0.00000E+00
 -1       792 1.07874E+02 1.25795E+01 0.00000E+00
 -1       793 1.10874E+02 1.25795E+01 0.00000E+00
 -1       794 1.13874E+02 1.25795E+01 0.00000E+00
 -1       795 1.16874E+02 1.25795E+01 0.00000E+00
 -1       796 1.19874E+02 1.25795E+01 0.00000E+00
 -1       797 1.22874E+02 1.25795E+01 0.00000E+00
 -1       798 1.25874E+02 1.25795E+01 0.00000E+00
 -1       799 1.28874E+02 1.25795E+01 0.00000E+00
 -1       800 1.31874E+02 1.25795E+01 0.00000E+00
 -1       801 1.37010E+02 1.91250E+01 0.00000E+00
 -1       802 1.37010E+02 3.38250E+01 0.00000E+00
 -1       803 1.37010E+02 2.79750E+01 0.00000E+00
 -1       804 6.54824E+01 2.89743E+01 0.00000E+00
 -1       805 7.36248E+01 2.06072E+01 0.00000E+00
 -1       806 7.09167E+01 2.18524E+01 0.00000E+00
 -1       807 3.58740E+01 1.25795E+01 0.00000E+00
 -1       808 1.37010E+02 1.62250E+01 0.00000E+00
 -1       809 9.21365E+01 2.89721E+01 0.00000E+00
 -1       810 9.73500E+01 3.74352E+01 0.00000E+00
 -1       811 1.29900E+01 2.20250E+01 0.00000E+00
 -1       812 7.82932E+01 2.11009E+01 0.00000E+00
 -1       813 8.95548E+01 2.44165E+01 0.00000E+00
 -1       814 6.67414E+01 2.66024E+01 0.00000E+00
 -1       815 1.36650E+02 1.31891E+01 0.00000E+00
 -1       816 1.37010E+02 2.50250E+01 0.00000E+00
 -1       817 7.66676E+01 1.91657E+01 0.00000E+00
 -1       818 8.00185E+01 2.01496E+01 0.00000E+00
 -1       819 7.83930E+01 1.82144E+01 0.00000E+00
 -1       820 8.62865E+01 2.03720E+01 0.00000E+00
 -1       821 1.29900E+01 1.61375E+01 0.00000E+00
 -1       822 9.37985E+01 3.07489E+01 0.00000E+00
 -1       823 2.68740E+01 1.25795E+01 0.00000E+00
 -1       824 1.34262E+02 1.28843E+01 0.00000E+00
 -1       825 9.10582E+01 2.51774E+01 0.00000E+00
 -1       826 6.40461E+01 3.05417E+01 0.00000E+00
 -1       827 2.38740E+01 1.25795E+01 0.00000E+00
 -1       828 6.85000E+01 2.18519E+01 0.00000E+00
 -1       829 8.27661E+01 2.00683E+01 0.00000E+00
 -1       830 6.35722E+01 3.41161E+01 0.00000E+00
 -1       831 9.53034E+01 3.51847E+01 0.00000E+00
 -1       832 1.29900E+01 2.49750E+01 0.00000E+00
 -1       833 1.29900E+01 1.90812E+01 0.00000E+00
 -1       834 1.29900E+01 3.37938E+01 0.00000E+00
 -1       835 1.29900E+01 3.08563E+01 0.00000E+00
 -1       836 7.41249E+01 1.77307E+01 0.00000E+00
 -1       837 6.59648E+01 2.42005E+01 0.00000E+00
 -1       838 1.52250E+01 3.44120E+01 0.00000E+00
 -1       839 1.01850E+02 3.48372E+01 0.00000E+00
 -1       840 1.82250E+01 3.44120E+01 0.00000E+00
 -1       841 2.12250E+01 3.44120E+01 0.00000E+00
 -1       842 2.42250E+01 3.44120E+01 0.00000E+00
 -1       843 2.72250E+01 3.44120E+01 0.00000E+00
 -1       844 3.02250E+01 3.44120E+01 0.00000E+00
 -1       845 3.32250E+01 3.44120E+01 0.00000E+00
 -1       846 3.63750E+01 3.44120E+01 0.00000E+00
 -1       847 3.93750E+01 3.44120E+01 0.00000E+00
 -1       848 4.23750E+01 3.44120E+01 0.00000E+00
 -1       849 4.53750E+01 3.44120E+01 0.00000E+00
 -1       850 4.83750E+01 3.44120E+01 0.00000E+00
 -1       851 5.13750E+01 3.44120E+01 0.00000E+00
 -1       852 5.43750E+01 3.44120E+01 0.00000E+00
 -1       853 5.73750E+01 3.44120E+01 0.00000E+00
 -1       854 6.05250E+01 3.44120E+01 0.00000E+00
 -1       855 1.48741E+01 1.55170E+01 0.00000E+00
 -1       856 6.43009E+01 2.68271E+01 0.00000E+00
 -1       857 1.04850E+02 3.48372E+01 0.00000E+00
 -1       858 1.07850E+02 3.48372E+01 0.00000E+00
 -1       859 1.10850E+02 3.48372E+01 0.00000E+00
 -1       860 1.13850E+02 3.48372E+01 0.00000E+00
 -1       861 1.16850E+02 3.48372E+01 0.00000E+00
 -1       862 1.20000E+02 3.48372E+01 0.00000E+00
 -1       863 1.23000E+02 3.48372E+01 0.00000E+00
 -1       864 1.26000E+02 3.48372E+01 0.00000E+00
 -1       865 1.29000E+02 3.48372E+01 0.00000E+00
 -1       866 1.32000E+02 3.48372E+01 0.00000E+00
 -1       867 1.34505E+02 3.43311E+01 0.00000E+00
 -1       868 1.34505E+02 3.13811E+01 0.00000E+00
 -1       869 3.13740E+01 1.51775E+01 0.00000E+00
 -1       870 4.33740E+01 1.51775E+01 0.00000E+00
 -1       871 4.03740E+01 1.51775E+01 0.00000E+00
 -1       872 4.93740E+01 1.51775E+01 0.00000E+00
 -1       873 5.23740E+01 1.51775E+01 0.00000E+00
 -1       874 5.53740E+01 1.51775E+01 0.00000E+00
 -1       875 5.83740E+01 1.51775E+01 0.00000E+00
 -1       876 6.13740E+01 1.51775E+01 0.00000E+00
 -1       877 6.43740E+01 1.51775E+01 0.00000E+00
 -1       878 6.73740E+01 1.51775E+01 0.00000E+00
 -1       879 7.03740E+01 1.51775E+01 0.00000E+00
 -1       880 7.63740E+01 1.51775E+01 0.00000E+00
 -1       881 7.93740E+01 1.51775E+01 0.00000E+00
 -1       882 8.23740E+01 1.51775E+01 0.00000E+00
 -1       883 8.53740E+01 1.51775E+01 0.00000E+00
 -1       884 8.83740E+01 1.51775E+01 0.00000E+00
 -1       885 9.13740E+01 1.51775E+01 0.00000E+00
 -1       886 9.43740E+01 1.51775E+01 0.00000E+00
 -1       887 9.73740E+01 1.51775E+01 0.00000E+00
 -1       888 1.00374E+02 1.51775E+01 0.00000E+00
 -1       889 1.03374E+02 1.51775E+01 0.00000E+00
 -1       890 1.06374E+02 1.51775E+01 0.00000E+00
 -1       891 1.09374E+02 1.51775E+01 0.00000E+00
 -1       892 1.12374E+02 1.51775E+01 0.00000E+00
 -1       893 1.15374E+02 1.51775E+01 0.00000E+00
 -1       894 1.18374E+02 1.51775E+01 0.00000E+00
 -1       895 1.21374E+02 1.51775E+01 0.00000E+00
 -1       896 1.24374E+02 1.51775E+01 0.00000E+00
 -1       897 1.27374E+02 1.51775E+01 0.00000E+00
 -1       898 1.30374E+02 1.51775E+01 0.00000E+00
 -1       899 1.34412E+02 2.06000E+01 0.00000E+00
 -1       900 1.34505E+02 2.84811E+01 0.00000E+00
 -1       901 4.63740E+01 1.51775E+01 0.00000E+00
 -1       902 1.29900E+01 2.79188E+01 0.00000E+00
 -1       903 9.28305E+01 2.68154E+01 0.00000E+00
 -1       904 8.18653E+01 1.92680E+01 0.00000E+00
 -1       905 7.12742E+01 1.90626E+01 0.00000E+00
 -1       906 9.88500E+01 3.48372E+01 0.00000E+00
 -1       907 9.02080E+01 2.16810E+01 0.00000E+00
 -1       908 1.34412E+02 1.77000E+01 0.00000E+00
 -1       909 1.55880E+01 2.35000E+01 0.00000E+00
 -1       910 1.55880E+01 2.05562E+01 0.00000E+00
 -1       911 9.44924E+01 2.85922E+01 0.00000E+00
 -1       912 6.28647E+01 2.83945E+01 0.00000E+00
 -1       913 2.83740E+01 1.51775E+01 0.00000E+00
 -1       914 3.43740E+01 1.51775E+01 0.00000E+00
 -1       915 1.34412E+02 2.35500E+01 0.00000E+00
 -1       916 7.33740E+01 1.51775E+01 0.00000E+00
 -1       917 1.32762E+02 1.54823E+01 0.00000E+00
 -1       918 9.17113E+01 2.24419E+01 0.00000E+00
 -1       919 1.34458E+02 2.60156E+01 0.00000E+00
 -1       920 6.27274E+01 3.21337E+01 0.00000E+00
 -1       921 3.73740E+01 1.51775E+01 0.00000E+00
 -1       922 2.23740E+01 1.51775E+01 0.00000E+00
 -1       923 1.93740E+01 1.51775E+01 0.00000E+00
 -1       924 9.58451E+01 3.29995E+01 0.00000E+00
 -1       925 1.52250E+01 3.14745E+01 0.00000E+00
 -1       926 6.88575E+01 1.90621E+01 0.00000E+00
 -1       927 8.90987E+01 2.03388E+01 0.00000E+00
 -1       928 6.57252E+01 2.13992E+01 0.00000E+00
 -1       929 1.97250E+01 3.18140E+01 0.00000E+00
 -1       930 2.27250E+01 3.18140E+01 0.00000E+00
 -1       931 2.57250E+01 3.18140E+01 0.00000E+00
 -1       932 2.87250E+01 3.18140E+01 0.00000E+00
 -1       933 3.17250E+01 3.18140E+01 0.00000E+00
 -1       934 3.48750E+01 3.18140E+01 0.00000E+00
 -1       935 3.78750E+01 3.18140E+01 0.00000E+00
 -1       936 4.08750E+01 3.18140E+01 0.00000E+00
 -1       937 4.38750E+01 3.18140E+01 0.00000E+00
 -1       938 4.68750E+01 3.18140E+01 0.00000E+00
 -1       939 4.98750E+01 3.18140E+01 0.00000E+00
 -1       940 5.28750E+01 3.18140E+01 0.00000E+00
 -1       941 5.58750E+01 3.18140E+01 0.00000E+00
 -1       942 5.90250E+01 3.18140E+01 0.00000E+00
 -1       943 8.09040E+01 1.77555E+01 0.00000E+00
 -1       944 1.06350E+02 3.22392E+01 0.00000E+00
 -1       945 1.09350E+02 3.22392E+01 0.00000E+00
 -1       946 1.12350E+02 3.22392E+01 0.00000E+00
 -1       947 1.15350E+02 3.22392E+01 0.00000E+00
 -1       948 1.18500E+02 3.22392E+01 0.00000E+00
 -1       949 1.21500E+02 3.22392E+01 0.00000E+00
 -1       950 1.24500E+02 3.22392E+01 0.00000E+00
 -1       951 1.27500E+02 3.22392E+01 0.00000E+00
 -1       952 1.30500E+02 3.22392E+01 0.00000E+00
 -1       953 1.32503E+02 3.18102E+01 0.00000E+00
 -1       954 8.31149E+01 1.74119E+01 0.00000E+00
 -1       955 1.52250E+01 2.85370E+01 0.00000E+00
 -1       956 5.38740E+01 1.77755E+01 0.00000E+00
 -1       957 5.08740E+01 1.77755E+01 0.00000E+00
 -1       958 5.98740E+01 1.77755E+01 0.00000E+00
 -1       959 6.28740E+01 1.77755E+01 0.00000E+00
 -1       960 6.58740E+01 1.77755E+01 0.00000E+00
 -1       961 1.31239E+02 1.79070E+01 0.00000E+00
 -1       962 8.68740E+01 1.77755E+01 0.00000E+00
 -1       963 9.28740E+01 1.77755E+01 0.00000E+00
 -1       964 9.58740E+01 1.77755E+01 0.00000E+00
 -1       965 9.88740E+01 1.77755E+01 0.00000E+00
 -1       966 1.01874E+02 1.77755E+01 0.00000E+00
 -1       967 1.04874E+02 1.77755E+01 0.00000E+00
 -1       968 1.07874E+02 1.77755E+01 0.00000E+00
 -1       969 1.10874E+02 1.77755E+01 0.00000E+00
 -1       970 1.13874E+02 1.77755E+01 0.00000E+00
 -1       971 1.16874E+02 1.77755E+01 0.00000E+00
 -1       972 1.19874E+02 1.77755E+01 0.00000E+00
 -1       973 1.22874E+02 1.77755E+01 0.00000E+00
 -1       974 1.25874E+02 1.77755E+01 0.00000E+00
 -1       975 1.28557E+02 1.78412E+01 0.00000E+00
 -1       976 1.32503E+02 2.89102E+01 0.00000E+00
 -1       977 5.68740E+01 1.77755E+01 0.00000E+00
 -1       978 4.18740E+01 1.77755E+01 0.00000E+00
 -1       979 1.03350E+02 3.22392E+01 0.00000E+00
 -1       980 2.53740E+01 1.51775E+01 0.00000E+00
 -1       981 1.74750E+01 3.16443E+01 0.00000E+00
 -1       982 1.54065E+01 2.60185E+01 0.00000E+00
 -1       983 6.32593E+01 2.43270E+01 0.00000E+00
 -1       984 1.52310E+01 1.80366E+01 0.00000E+00
 -1       985 9.34836E+01 2.40798E+01 0.00000E+00
 -1       986 1.00350E+02 3.22392E+01 0.00000E+00
 -1       987 1.80885E+01 2.49460E+01 0.00000E+00
 -1       988 9.51456E+01 2.58566E+01 0.00000E+00
 -1       989 4.48740E+01 1.77755E+01 0.00000E+00
 -1       990 1.80885E+01 2.20022E+01 0.00000E+00
 -1       991 6.15459E+01 2.99865E+01 0.00000E+00
 -1       992 2.98740E+01 1.77755E+01 0.00000E+00
 -1       993 8.47458E+01 1.76766E+01 0.00000E+00
 -1       994 3.88740E+01 1.77755E+01 0.00000E+00
 -1       995 4.78740E+01 1.77755E+01 0.00000E+00
 -1       996 6.18230E+01 2.58943E+01 0.00000E+00
 -1       997 8.98740E+01 1.77755E+01 0.00000E+00
 -1       998 9.21329E+01 1.97434E+01 0.00000E+00
 -1       999 1.32456E+02 2.64446E+01 0.00000E+00
 -1      1000 2.08740E+01 1.77755E+01 0.00000E+00
 -1      1001 1.31814E+02 2.20750E+01 0.00000E+00
 -1      1002 9.65390E+01 3.08427E+01 0.00000E+00
 -1      1003 3.28740E+01 1.77755E+01 0.00000E+00
 -1      1004 2.38740E+01 1.77755E+01 0.00000E+00
 -1      1005 1.79070E+01 2.74645E+01 0.00000E+00
 -1      1006 2.42250E+01 2.92160E+01 0.00000E+00
 -1      1007 2.72250E+01 2.92160E+01 0.00000E+00
 -1      1008 3.02250E+01 2.92160E+01 0.00000E+00
 -1      1009 3.33750E+01 2.92160E+01 0.00000E+00
 -1      1010 3.63750E+01 2.92160E+01 0.00000E+00
 -1      1011 3.93750E+01 2.92160E+01 0.00000E+00
 -1      1012 4.23750E+01 2.92160E+01 0.00000E+00
 -1      1013 4.53750E+01 2.92160E+01 0.00000E+00
 -1      1014 4.83750E+01 2.92160E+01 0.00000E+00
 -1      1015 5.13750E+01 2.92160E+01 0.00000E+00
 -1      1016 5.43750E+01 2.92160E+01 0.00000E+00
 -1      1017 5.75250E+01 2.92160E+01 0.00000E+00
 -1      1018 1.29131E+02 2.20093E+01 0.00000E+00
 -1      1019 5.53740E+01 2.03735E+01 0.00000E+00
 -1      1020 1.10850E+02 2.96412E+01 0.00000E+00
 -1      1021 1.13850E+02 2.96412E+01 0.00000E+00
 -1      1022 1.17000E+02 2.96412E+01 0.00000E+00
 -1      1023 1.20000E+02 2.96412E+01 0.00000E+00
 -1      1024 1.23000E+02 2.96412E+01 0.00000E+00
 -1      1025 1.26000E+02 2.96412E+01 0.00000E+00
 -1      1026 1.29000E+02 2.96412E+01 0.00000E+00
 -1      1027 1.30751E+02 2.92757E+01 0.00000E+00
 -1      1028 9.73740E+01 2.03735E+01 0.00000E+00
 -1      1029 2.12250E+01 2.92160E+01 0.00000E+00
 -1      1030 5.23740E+01 2.03735E+01 0.00000E+00
 -1      1031 6.13740E+01 2.03735E+01 0.00000E+00
 -1      1032 1.76910E+01 2.95544E+01 0.00000E+00
 -1      1033 9.39052E+01 2.13814E+01 0.00000E+00
 -1      1034 9.47534E+01 2.00585E+01 0.00000E+00
 -1      1035 1.03374E+02 2.03735E+01 0.00000E+00
 -1      1036 1.06374E+02 2.03735E+01 0.00000E+00
 -1      1037 1.09374E+02 2.03735E+01 0.00000E+00
 -1      1038 1.12374E+02 2.03735E+01 0.00000E+00
 -1      1039 1.15374E+02 2.03735E+01 0.00000E+00
 -1      1040 1.18374E+02 2.03735E+01 0.00000E+00
 -1      1041 1.21374E+02 2.03735E+01 0.00000E+00
 -1      1042 1.24374E+02 2.03735E+01 0.00000E+00
 -1      1043 1.73195E+01 1.79379E+01 0.00000E+00
 -1      1044 5.83740E+01 2.03735E+01 0.00000E+00
 -1      1045 1.31795E+02 2.40124E+01 0.00000E+00
 -1      1046 1.04850E+02 2.96412E+01 0.00000E+00
 -1      1047 2.68740E+01 1.77755E+01 0.00000E+00
 -1      1048 1.07850E+02 2.96412E+01 0.00000E+00
 -1      1049 3.58740E+01 1.77755E+01 0.00000E+00
 -1      1050 1.01850E+02 2.96412E+01 0.00000E+00
 -1      1051 1.00374E+02 2.03735E+01 0.00000E+00
 -1      1052 9.55672E+01 2.31582E+01 0.00000E+00
 -1      1053 6.05043E+01 2.74863E+01 0.00000E+00
 -1      1054 9.71922E+01 2.81072E+01 0.00000E+00
 -1      1055 2.16506E+01 2.13185E+01 0.00000E+00
 -1      1056 4.93740E+01 2.03735E+01 0.00000E+00
 -1      1057 4.33740E+01 2.03735E+01 0.00000E+00
 -1      1058 1.30705E+02 2.68101E+01 0.00000E+00
 -1      1059 6.06590E+01 2.33859E+01 0.00000E+00
 -1      1060 2.05891E+01 2.63920E+01 0.00000E+00
 -1      1061 4.03740E+01 2.03735E+01 0.00000E+00
 -1      1062 1.26753E+02 2.11914E+01 0.00000E+00
 -1      1063 2.83740E+01 2.03735E+01 0.00000E+00
 -1      1064 2.11198E+01 2.38552E+01 0.00000E+00
 -1      1065 3.13740E+01 2.03735E+01 0.00000E+00
 -1      1066 9.95211E+01 2.88742E+01 0.00000E+00
 -1      1067 4.63740E+01 2.03735E+01 0.00000E+00
 -1      1068 2.87250E+01 2.66180E+01 0.00000E+00
 -1      1069 3.18750E+01 2.66180E+01 0.00000E+00
 -1      1070 3.48750E+01 2.66180E+01 0.00000E+00
 -1      1071 3.78750E+01 2.66180E+01 0.00000E+00
 -1      1072 4.08750E+01 2.66180E+01 0.00000E+00
 -1      1073 4.38750E+01 2.66180E+01 0.00000E+00
 -1      1074 4.68750E+01 2.66180E+01 0.00000E+00
 -1      1075 4.98750E+01 2.66180E+01 0.00000E+00
 -1      1076 5.28750E+01 2.66180E+01 0.00000E+00
 -1      1077 5.60250E+01 2.66180E+01 0.00000E+00
 -1      1078 1.07874E+02 2.29715E+01 0.00000E+00
 -1      1079 5.68740E+01 2.29715E+01 0.00000E+00
 -1      1080 1.15425E+02 2.70432E+01 0.00000E+00
 -1      1081 1.18425E+02 2.70432E+01 0.00000E+00
 -1      1082 1.21425E+02 2.70432E+01 0.00000E+00
 -1      1083 1.24425E+02 2.70432E+01 0.00000E+00
 -1      1084 1.27425E+02 2.70432E+01 0.00000E+00
 -1      1085 1.29065E+02 2.69267E+01 0.00000E+00
 -1      1086 5.93403E+01 2.49778E+01 0.00000E+00
 -1      1087 5.38740E+01 2.29715E+01 0.00000E+00
 -1      1088 1.03350E+02 2.70432E+01 0.00000E+00
 -1      1089 2.57250E+01 2.66180E+01 0.00000E+00
 -1      1090 9.65258E+01 2.16964E+01 0.00000E+00
 -1      1091 1.10874E+02 2.29715E+01 0.00000E+00
 -1      1092 1.04874E+02 2.29715E+01 0.00000E+00
 -1      1093 1.13874E+02 2.29715E+01 0.00000E+00
 -1      1094 1.16874E+02 2.29715E+01 0.00000E+00
 -1      1095 1.19874E+02 2.29715E+01 0.00000E+00
 -1      1096 1.22874E+02 2.29715E+01 0.00000E+00
 -1      1097 1.28729E+02 2.40008E+01 0.00000E+00
 -1      1098 2.49629E+01 2.09280E+01 0.00000E+00
 -1      1099 3.73740E+01 2.03735E+01 0.00000E+00
 -1      1100 1.12425E+02 2.70432E+01 0.00000E+00
 -1      1101 1.06350E+02 2.70432E+01 0.00000E+00
 -1      1102 3.43740E+01 2.03735E+01 0.00000E+00
 -1      1103 1.09350E+02 2.70432E+01 0.00000E+00
 -1      1104 2.31570E+01 2.65050E+01 0.00000E+00
 -1      1105 9.80910E+01 2.52340E+01 0.00000E+00
 -1      1106 5.08740E+01 2.29715E+01 0.00000E+00
 -1      1107 1.01874E+02 2.29715E+01 0.00000E+00
 -1      1108 2.44321E+01 2.34647E+01 0.00000E+00
 -1      1109 9.91999E+01 2.23339E+01 0.00000E+00
 -1      1110 1.01021E+02 2.62762E+01 0.00000E+00
 -1      1111 4.18740E+01 2.29715E+01 0.00000E+00
 -1      1112 2.98740E+01 2.29715E+01 0.00000E+00
 -1      1113 4.48740E+01 2.29715E+01 0.00000E+00
 -1      1114 2.71531E+01 2.32181E+01 0.00000E+00
 -1      1115 1.25801E+02 2.34861E+01 0.00000E+00
 -1      1116 3.33750E+01 2.40200E+01 0.00000E+00
 -1      1117 3.63750E+01 2.40200E+01 0.00000E+00
 -1      1118 3.93750E+01 2.40200E+01 0.00000E+00
 -1      1119 4.78740E+01 2.29715E+01 0.00000E+00
 -1      1120 0.00000E+00 4.85250E+01 0.00000E+00
 -1      1121 0.00000E+00 4.55750E+01 0.00000E+00
 -1      1122 0.00000E+00 4.26250E+01 0.00000E+00
 -1      1123 0.00000E+00 3.96750E+01 0.00000E+00
 -1      1124 0.00000E+00 3.67250E+01 0.00000E+00
 -1      1125 0.00000E+00 3.38000E+01 0.00000E+00
 -1      1126 0.00000E+00 3.08750E+01 0.00000E+00
 -1      1127 0.00000E+00 2.79250E+01 0.00000E+00
 -1      1128 0.00000E+00 2.49750E+01 0.00000E+00
 -1      1129 0.00000E+00 2.20250E+01 0.00000E+00
 -1      1130 0.00000E+00 1.90750E+01 0.00000E+00
 -1      1131 0.00000E+00 1.61500E+01 0.00000E+00
 -1      1132 0.00000E+00 1.32250E+01 0.00000E+00
 -1      1133 0.00000E+00 1.02750E+01 0.00000E+00
 -1      1134 0.00000E+00 7.32500E+00 0.00000E+00
 -1      1135 0.00000E+00 4.37500E+00 0.00000E+00
 -1      1136 0.00000E+00 1.45000E+00 0.00000E+00
 -1      1137 1.57500E+00 5.00000E+01 0.00000E+00
 -1      1138 4.65000E+00 5.00000E+01 0.00000E+00
 -1      1139 7.65000E+00 5.00000E+01 0.00000E+00
 -1      1140 1.06500E+01 5.00000E+01 0.00000E+00
 -1      1141 1.36500E+01 5.00000E+01 0.00000E+00
 -1      1142 1.66500E+01 5.00000E+01 0.00000E+00
 -1      1143 1.96500E+01 5.00000E+01 0.00000E+00
 -1      1144 2.27250E+01 5.00000E+01 0.00000E+00
 -1      1145 2.58000E+01 5.00000E+01 0.00000E+00
 -1      1146 2.88000E+01 5.00000E+01 0.00000E+00
 -1      1147 3.18000E+01 5.00000E+01 0.00000E+00
 -1      1148 3.48000E+01 5.00000E+01 0.00000E+00
 -1      1149 3.78000E+01 5.00000E+01 0.00000E+00
 -1      1150 4.08000E+01 5.00000E+01 0.00000E+00
 -1      1151 4.38750E+01 5.00000E+01 0.00000E+00
 -1      1152 4.69500E+01 5.00000E+01 0.00000E+00
 -1      1153 4.99500E+01 5.00000E+01 0.00000E+00
 -1      1154 5.29500E+01 5.00000E+01 0.00000E+00
 -1      1155 5.59500E+01 5.00000E+01 0.00000E+00
 -1      1156 5.89500E+01 5.00000E+01 0.00000E+00
 -1      1157 6.19500E+01 5.00000E+01 0.00000E+00
 -1      1158 6.49500E+01 5.00000E+01 0.00000E+00
 -1      1159 6.80250E+01 5.00000E+01 0.00000E+00
 -1      1160 7.11000E+01 5.00000E+01 0.00000E+00
 -1      1161 7.39500E+01 5.00000E+01 0.00000E+00
 -1      1162 7.67250E+01 5.00000E+01 0.00000E+00
 -1      1163 7.95000E+01 5.00000E+01 0.00000E+00
 -1      1164 8.23500E+01 5.00000E+01 0.00000E+00
 -1      1165 8.52750E+01 5.00000E+01 0.00000E+00
 -1      1166 8.82000E+01 5.00000E+01 0.00000E+00
 -1      1167 9.12000E+01 5.00000E+01 0.00000E+00
 -1      1168 9.42000E+01 5.00000E+01 0.00000E+00
 -1      1169 9.72000E+01 5.00000E+01 0.00000E+00
 -1      1170 1.00200E+02 5.00000E+01 0.00000E+00
 -1      1171 1.03200E+02 5.00000E+01 0.00000E+00
 -1      1172 1.06275E+02 5.00000E+01 0.00000E+00
 -1      1173 1.09350E+02 5.00000E+01 0.00000E+00
 -1      1174 1.12350E+02 5.00000E+01 0.00000E+00
 -1      1175 1.15350E+02 5.00000E+01 0.00000E+00
 -1      1176 1.18350E+02 5.00000E+01 0.00000E+00
 -1      1177 1.21350E+02 5.00000E+01 0.00000E+00
 -1      1178 1.24350E+02 5.00000E+01 0.00000E+00
 -1      1179 1.27425E+02 5.00000E+01 0.00000E+00
 -1      1180 1.30500E+02 5.00000E+01 0.00000E+00
 -1      1181 1.33500E+02 5.00000E+01 0.00000E+00
 -1      1182 1.36500E+02 5.00000E+01 0.00000E+00
 -1      1183 1.39500E+02 5.00000E+01 0.00000E+00
 -1      1184 1.42500E+02 5.00000E+01 0.00000E+00
 -1      1185 1.45500E+02 5.00000E+01 0.00000E+00
 -1      1186 1.48500E+02 5.00000E+01 0.00000E+00
 -1      1187 1.57500E+00 0.00000E+00 0.00000E+00
 -1      1188 4.65000E+00 0.00000E+00 0.00000E+00
 -1      1189 7.65000E+00 0.00000E+00 0.00000E+00
 -1      1190 1.06500E+01 0.00000E+00 0.00000E+00
 -1      1191 1.36500E+01 0.00000E+00 0.00000E+00
 -1      1192 1.66500E+01 0.00000E+00 0.00000E+00
 -1      1193 1.96500E+01 0.00000E+00 0.00000E+00
 -1      1194 2.26500E+01 0.00000E+00 0.00000E+00
 -1      1195 2.56500E+01 0.00000E+00 0.00000E+00
 -1      1196 2.86500E+01 0.00000E+00 0.00000E+00
 -1      1197 3.16500E+01 0.00000E+00 0.00000E+00
 -1      1198 3.46500E+01 0.00000E+00 0.00000E+00
 -1      1199 3.76500E+01 0.00000E+00 0.00000E+00
 -1      1200 4.06500E+01 0.00000E+00 0.00000E+00
 -1      1201 4.36500E+01 0.00000E+00 0.00000E+00
 -1      1202 4.66500E+01 0.00000E+00 0.00000E+00
 -1      1203 4.96500E+01 0.00000E+00 0.00000E+00
 -1      1204 5.26500E+01 0.00000E+00 0.00000E+00
 -1      1205 5.56500E+01 0.00000E+00 0.00000E+00
 -1      1206 5.86500E+01 0.00000E+00 0.00000E+00
 -1      1207 6.16500E+01 0.00000E+00 0.00000E+00
 -1      1208 6.46500E+01 0.00000E+00 0.00000E+00
 -1      1209 6.76500E+01 0.00000E+00 0.00000E+00
 -1      1210 7.06500E+01 0.00000E+00 0.00000E+00
 -1      1211 7.36500E+01 0.00000E+00 0.00000E+00
 -1      1212 7.66500E+01 0.00000E+00 0.00000E+00
 -1      1213 7.96500E+01 0.00000E+00 0.00000E+00
 -1      1214 8.26500E+01 0.00000E+00 0.00000E+00
 -1      1215 8.56500E+01 0.00000E+00 0.00000E+00
 -1      1216 8.86500E+01 0.00000E+00 0.00000E+00
 -1      1217 9.16500E+01 0.00000E+00 0.00000E+00
 -1      1218 9.46500E+01 0.00000E+00 0.00000E+00
 -1      1219 9.76500E+01 0.00000E+00 0.00000E+00
 -1      1220 1.00650E+02 0.00000E+00 0.00000E+00
 -1      1221 1.03650E+02 0.00000E+00 0.00000E+00
 -1      1222 1.06650E+02 0.00000E+00 0.00000E+00
 -1      1223 1.09650E+02 0.00000E+00 0.00000E+00
 -1      1224 1.12650E+02 0.00000E+00 0.00000E+00
 -1      1225 1.15650E+02 0.00000E+00 0.00000E+00
 -1      1226 1.18650E+02 0.00000E+00 0.00000E+00
 -1      1227 1.21650E+02 0.00000E+00 0.00000E+00
 -1      1228 1.24650E+02 0.00000E+00 0.00000E+00
 -1      1229 1.27650E+02 0.00000E+00 0.00000E+00
 -1      1230 1.30650E+02 0.00000E+00 0.00000E+00
 -1      1231 1.33650E+02 0.00000E+00 0.00000E+00
 -1      1232 1.36650E+02 0.00000E+00 0.00000E+00
 -1      1233 1.39650E+02 0.00000E+00 0.00000E+00
 -1      1234 1.42650E+02 0.00000E+00 0.00000E+00
 -1      1235 1.45650E+02 0.00000E+00 0.00000E+00
 -1      1236 1.48575E+02 0.00000E+00 0.00000E+00
 -1      1237 1.50000E+02 1.47500E+00 0.00000E+00
 -1      1238 1.50000E+02 4.42500E+00 0.00000E+00
 -1      1239 1.50000E+02 7.37500E+00 0.00000E+00
 -1      1240 1.50000E+02 1.03250E+01 0.00000E+00
 -1      1241 1.50000E+02 1.32750E+01 0.00000E+00
 -1      1242 1.50000E+02 1.62000E+01 0.00000E+00
 -1      1243 1.50000E+02 1.91250E+01 0.00000E+00
 -1      1244 1.50000E+02 2.20750E+01 0.00000E+00
 -1      1245 1.50000E+02 2.50250E+01 0.00000E+00
 -1      1246 1.50000E+02 2.79750E+01 0.00000E+00
 -1      1247 1.50000E+02 3.09250E+01 0.00000E+00
 -1      1248 1.50000E+02 3.38500E+01 0.00000E+00
 -1      1249 1.50000E+02 3.67750E+01 0.00000E+00
 -1      1250 1.50000E+02 3.97250E+01 0.00000E+00
 -1      1251 1.50000E+02 4.26750E+01 0.00000E+00
 -1      1252 1.50000E+02 4.56250E+01 0.00000E+00
 -1      1253 1.50000E+02 4.85500E+01 0.00000E+00
 -1      1254 8.58993E+01 3.39208E+01 0.00000E+00
 -1      1255 8.55408E+01 3.23591E+01 0.00000E+00
 -1      1256 8.48601E+01 3.09569E+01 0.00000E+00
 -1      1257 8.39461E+01 2.98007E+01 0.00000E+00
 -1      1258 8.27699E+01 2.88350E+01 0.00000E+00
 -1      1259 8.13619E+01 2.81274E+01 0.00000E+00
 -1      1260 7.97979E+01 2.77484E+01 0.00000E+00
 -1      1261 7.82353E+01 2.77317E+01 0.00000E+00
 -1      1262 7.66792E+01 2.80719E+01 0.00000E+00
 -1      1263 7.52431E+01 2.87533E+01 0.00000E+00
 -1      1264 7.40277E+01 2.97113E+01 0.00000E+00
 -1      1265 7.30686E+01 3.08881E+01 0.00000E+00
 -1      1266 7.24042E+01 3.21954E+01 0.00000E+00
 -1      1267 7.20176E+01 3.36722E+01 0.00000E+00
 -1      1268 7.19646E+01 3.52539E+01 0.00000E+00
 -1      1269 7.22577E+01 3.67734E+01 0.00000E+00
 -1      1270 7.28531E+01 3.81486E+01 0.00000E+00
 -1      1271 7.37330E+01 3.93717E+01 0.00000E+00
 -1      1272 7.48474E+01 4.03732E+01 0.00000E+00
 -1      1273 7.61613E+01 4.11198E+01 0.00000E+00
 -1      1274 7.76402E+01 4.15737E+01 0.00000E+00
 -1      1275 7.91945E+01 4.16914E+01 0.00000E+00
 -1      1276 8.07054E+01 4.14703E+01 0.00000E+00
 -1      1277 8.21953E+01 4.08942E+01 0.00000E+00
 -1      1278 8.34574E+01 4.00452E+01 0.00000E+00
 -1      1279 8.43849E+01 3.90981E+01 0.00000E+00
 -1      1280 8.51165E+01 3.79944E+01 0.00000E+00
 -1      1281 8.56397E+01 3.67321E+01 0.00000E+00
 -1      1282 8.59087E+01 3.53813E+01 0.00000E+00
 -1      1283 1.57500E+00 4.85250E+01 0.00000E+00
 -1      1284 1.29900E+00 4.48375E+01 0.00000E+00
 -1      1285 1.29900E+00 4.63125E+01 0.00000E+00
 -1      1286 1.29900E+00 4.18875E+01 0.00000E+00
 -1      1287 1.29900E+00 4.33625E+01 0.00000E+00
 -1      1288 2.59800E+00 4.41000E+01 0.00000E+00
 -1      1289 1.29900E+00 3.89375E+01 0.00000E+00
 -1      1290 1.29900E+00 4.04125E+01 0.00000E+00
 -1      1291 2.59800E+00 4.11500E+01 0.00000E+00
 -1      1292 1.29900E+00 3.59875E+01 0.00000E+00
 -1      1293 1.29900E+00 3.74625E+01 0.00000E+00
 -1      1294 2.59800E+00 3.82000E+01 0.00000E+00
 -1      1295 1.29900E+00 3.30875E+01 0.00000E+00
 -1      1296 1.29900E+00 3.45375E+01 0.00000E+00
 -1      1297 2.59800E+00 3.52750E+01 0.00000E+00
 -1      1298 1.29900E+00 3.01375E+01 0.00000E+00
 -1      1299 1.29900E+00 3.16125E+01 0.00000E+00
 -1      1300 2.59800E+00 3.23500E+01 0.00000E+00
 -1      1301 1.29900E+00 2.71875E+01 0.00000E+00
 -1      1302 1.29900E+00 2.86625E+01 0.00000E+00
 -1      1303 2.59800E+00 2.94000E+01 0.00000E+00
 -1      1304 1.29900E+00 2.42375E+01 0.00000E+00
 -1      1305 1.29900E+00 2.57125E+01 0.00000E+00
 -1      1306 2.59800E+00 2.64500E+01 0.00000E+00
 -1      1307 1.29900E+00 2.12875E+01 0.00000E+00
 -1      1308 1.29900E+00 2.27625E+01 0.00000E+00
 -1      1309 2.59800E+00 2.35000E+01 0.00000E+00
 -1      1310 1.29900E+00 1.83375E+01 0.00000E+00
 -1      1311 1.29900E+00 1.98125E+01 0.00000E+00
 -1      1312 2.59800E+00 2.05500E+01 0.00000E+00
 -1      1313 1.29900E+00 1.54375E+01 0.00000E+00
 -1      1314 1.29900E+00 1.68875E+01 0.00000E+00
 -1      1315 2.59800E+00 1.76250E+01 0.00000E+00
 -1      1316 1.29900E+00 1.24875E+01 0.00000E+00
 -1      1317 1.29900E+00 1.39625E+01 0.00000E+00
 -1      1318 2.59800E+00 1.47000E+01 0.00000E+00
 -1      1319 1.29900E+00 9.53750E+00 0.00000E+00
 -1      1320 1.29900E+00 1.10125E+01 0.00000E+00
 -1      1321 2.59800E+00 1.17500E+01 0.00000E+00
 -1      1322 1.29900E+00 6.58750E+00 0.00000E+00
 -1      1323 1.29900E+00 8.06250E+00 0.00000E+00
 -1      1324 2.59800E+00 8.80000E+00 0.00000E+00
 -1      1325 1.29900E+00 3.63750E+00 0.00000E+00
 -1      1326 1.29900E+00 5.11250E+00 0.00000E+00
 -1      1327 2.59800E+00 5.85000E+00 0.00000E+00
 -1      1328 1.43700E+00 1.09375E+00 0.00000E+00
 -1      1329 1.43700E+00 2.54375E+00 0.00000E+00
 -1      1330 2.73600E+00 3.28125E+00 0.00000E+00
 -1      1331 3.01200E+00 1.09375E+00 0.00000E+00
 -1      1332 3.90000E+00 4.87010E+01 0.00000E+00
 -1      1333 5.40000E+00 4.87010E+01 0.00000E+00
 -1      1334 6.90000E+00 4.87010E+01 0.00000E+00
 -1      1335 8.40000E+00 4.87010E+01 0.00000E+00
 -1      1336 6.15000E+00 4.74020E+01 0.00000E+00
 -1      1337 9.90000E+00 4.87010E+01 0.00000E+00
 -1      1338 1.14000E+01 4.87010E+01 0.00000E+00
 -1      1339 9.15000E+00 4.74020E+01 0.00000E+00
 -1      1340 1.29000E+01 4.87010E+01 0.00000E+00
 -1      1341 1.44000E+01 4.87010E+01 0.00000E+00
 -1      1342 1.21500E+01 4.74020E+01 0.00000E+00
 -1      1343 1.59000E+01 4.87010E+01 0.00000E+00
 -1      1344 1.74000E+01 4.87010E+01 0.00000E+00
 -1      1345 1.51500E+01 4.74020E+01 0.00000E+00
 -1      1346 1.89000E+01 4.87010E+01 0.00000E+00
 -1      1347 2.04000E+01 4.87010E+01 0.00000E+00
 -1      1348 1.81500E+01 4.74020E+01 0.00000E+00
 -1      1349 2.19750E+01 4.87010E+01 0.00000E+00
 -1      1350 2.35500E+01 4.87010E+01 0.00000E+00
 -1      1351 2.12250E+01 4.74020E+01 0.00000E+00
 -1      1352 2.50500E+01 4.87010E+01 0.00000E+00
 -1      1353 2.65500E+01 4.87010E+01 0.00000E+00
 -1      1354 2.43000E+01 4.74020E+01 0.00000E+00
 -1      1355 2.80500E+01 4.87010E+01 0.00000E+00
 -1      1356 2.95500E+01 4.87010E+01 0.00000E+00
 -1      1357 2.73000E+01 4.74020E+01 0.00000E+00
 -1      1358 3.10500E+01 4.87010E+01 0.00000E+00
 -1      1359 3.25500E+01 4.87010E+01 0.00000E+00
 -1      1360 3.03000E+01 4.74020E+01 0.00000E+00
 -1      1361 3.40500E+01 4.87010E+01 0.00000E+00
 -1      1362 3.55500E+01 4.87010E+01 0.00000E+00
 -1      1363 3.33000E+01 4.74020E+01 0.00000E+00
 -1      1364 3.70500E+01 4.87010E+01 0.00000E+00
 -1      1365 3.85500E+01 4.87010E+01 0.00000E+00
 -1      1366 3.63000E+01 4.74020E+01 0.00000E+00
 -1      1367 4.00500E+01 4.87010E+01 0.00000E+00
 -1      1368 4.15500E+01 4.87010E+01 0.00000E+00
 -1      1369 3.93000E+01 4.74020E+01 0.00000E+00
 -1      1370 4.31250E+01 4.87010E+01 0.00000E+00
 -1      1371 4.47000E+01 4.87010E+01 0.00000E+00
 -1      1372 4.23750E+01 4.74020E+01 0.00000E+00
 -1      1373 4.62000E+01 4.87010E+01 0.00000E+00
 -1      1374 4.77000E+01 4.87010E+01 0.00000E+00
 -1      1375 4.54500E+01 4.74020E+01 0.00000E+00
 -1      1376 4.92000E+01 4.87010E+01 0.00000E+00
 -1      1377 5.07000E+01 4.87010E+01 0.00000E+00
 -1      1378 4.84500E+01 4.74020E+01 0.00000E+00
 -1      1379 5.22000E+01 4.87010E+01 0.00000E+00
 -1      1380 5.37000E+01 4.87010E+01 0.00000E+00
 -1      1381 5.14500E+01 4.74020E+01 0.00000E+00
 -1      1382 5.52000E+01 4.87010E+01 0.00000E+00
 -1      1383 5.67000E+01 4.87010E+01 0.00000E+00
 -1      1384 5.44500E+01 4.74020E+01 0.00000E+00
 -1      1385 5.82000E+01 4.87010E+01 0.00000E+00
 -1      1386 5.97000E+01 4.87010E+01 0.00000E+00
 -1      1387 5.74500E+01 4.74020E+01 0.00000E+00
 -1      1388 6.12000E+01 4.87010E+01 0.00000E+00
 -1      1389 6.27000E+01 4.87010E+01 0.00000E+00
 -1      1390 6.04500E+01 4.74020E+01 0.00000E+00
 -1      1391 6.42000E+01 4.87010E+01 0.00000E+00
 -1      1392 6.57000E+01 4.87010E+01 0.00000E+00
 -1      1393 6.34500E+01 4.74020E+01 0.00000E+00
 -1      1394 6.72750E+01 4.87010E+01 0.00000E+00
 -1      1395 6.88500E+01 4.87010E+01 0.00000E+00
 -1      1396 6.65250E+01 4.74020E+01 0.00000E+00
 -1      1397 7.03500E+01 4.87010E+01 0.00000E+00
 -1      1398 7.18500E+01 4.87010E+01 0.00000E+00
 -1      1399 6.96000E+01 4.74020E+01 0.00000E+00
 -1      1400 7.32000E+01 4.87010E+01 0.00000E+00
 -1      1401 7.45500E+01 4.87010E+01 0.00000E+00
 -1      1402 7.24500E+01 4.74020E+01 0.00000E+00
 -1      1403 7.59750E+01 4.87010E+01 0.00000E+00
 -1      1404 7.74000E+01 4.87010E+01 0.00000E+00
 -1      1405 7.52250E+01 4.74020E+01 0.00000E+00
 -1      1406 7.87500E+01 4.87010E+01 0.00000E+00
 -1      1407 8.01000E+01 4.87010E+01 0.00000E+00
 -1      1408 7.80000E+01 4.74020E+01 0.00000E+00
 -1      1409 8.16000E+01 4.87010E+01 0.00000E+00
 -1      1410 8.31000E+01 4.87010E+01 0.00000E+00
 -1      1411 8.08500E+01 4.74020E+01 0.00000E+00
 -1      1412 8.45250E+01 4.87010E+01 0.00000E+00
 -1      1413 8.59500E+01 4.87010E+01 0.00000E+00
 -1      1414 8.37750E+01 4.74020E+01 0.00000E+00
 -1      1415 8.74500E+01 4.87010E+01 0.00000E+00
 -1      1416 8.89500E+01 4.87010E+01 0.00000E+00
 -1      1417 8.67000E+01 4.74020E+01 0.00000E+00
 -1      1418 9.04500E+01 4.87010E+01 0.00000E+00
 -1      1419 9.19500E+01 4.87010E+01 0.00000E+00
 -1      1420 8.97000E+01 4.74020E+01 0.00000E+00
 -1      1421 9.34500E+01 4.87010E+01 0.00000E+00
 -1      1422 9.49500E+01 4.87010E+01 0.00000E+00
 -1      1423 9.27000E+01 4.74020E+01 0.00000E+00
 -1      1424 9.64500E+01 4.87010E+01 0.00000E+00
 -1      1425 9.79500E+01 4.87010E+01 0.00000E+00
 -1      1426 9.57000E+01 4.74020E+01 0.00000E+00
 -1      1427 9.94500E+01 4.87010E+01 0.00000E+00
 -1      1428 1.00950E+02 4.87010E+01 0.00000E+00
 -1      1429 9.87000E+01 4.74020E+01 0.00000E+00
 -1      1430 1.02450E+02 4.87010E+01 0.00000E+00
 -1      1431 1.03950E+02 4.87010E+01 0.00000E+00
 -1      1432 1.01700E+02 4.74020E+01 0.00000E+00
 -1      1433 1.05525E+02 4.87010E+01 0.00000E+00
 -1      1434 1.07100E+02 4.87010E+01 0.00000E+00
 -1      1435 1.04775E+02 4.74020E+01 0.00000E+00
 -1      1436 1.08600E+02 4.87010E+01 0.00000E+00
 -1      1437 1.10100E+02 4.87010E+01 0.00000E+00
 -1      1438 1.07850E+02 4.74020E+01 0.00000E+00
 -1      1439 1.11600E+02 4.87010E+01 0.00000E+00
 -1      1440 1.13100E+02 4.87010E+01 0.00000E+00
 -1      1441 1.10850E+02 4.74020E+01 0.00000E+00
 -1      1442 1.14600E+02 4.87010E+01 0.00000E+00
 -1      1443 1.16100E+02 4.87010E+01 0.00000E+00
 -1      1444 1.13850E+02 4.74020E+01 0.00000E+00
 -1      1445 1.17600E+02 4.87010E+01 0.00000E+00
 -1      1446 1.19100E+02 4.87010E+01 0.00000E+00
 -1      1447 1.16850E+02 4.74020E+01 0.00000E+00
 -1      1448 1.20600E+02 4.87010E+01 0.00000E+00
 -1      1449 1.22100E+02 4.87010E+01 0.00000E+00
 -1      1450 1.19850E+02 4.74020E+01 0.00000E+00
 -1      1451 1.23600E+02 4.87010E+01 0.00000E+00
 -1      1452 1.25100E+02 4.87010E+01 0.00000E+00
 -1      1453 1.22850E+02 4.74020E+01 0.00000E+00
 -1      1454 1.26675E+02 4.87010E+01 0.00000E+00
 -1      1455 1.28250E+02 4.87010E+01 0.00000E+00
 -1      1456 1.25925E+02 4.74020E+01 0.00000E+00
 -1      1457 1.29750E+02 4.87010E+01 0.00000E+00
 -1      1458 1.31250E+02 4.87010E+01 0.00000E+00
 -1      1459 1.29000E+02 4.74020E+01 0.00000E+00
 -1      1460 1.32750E+02 4.87010E+01 0.00000E+00
 -1      1461 1.34250E+02 4.87010E+01 0.00000E+00
 -1      1462 1.32000E+02 4.74020E+01 0.00000E+00
 -1      1463 1.35750E+02 4.87010E+01 0.00000E+00
 -1      1464 1.37250E+02 4.87010E+01 0.00000E+00
 -1      1465 1.35000E+02 4.74020E+01 0.00000E+00
 -1      1466 1.38750E+02 4.87010E+01 0.00000E+00
 -1      1467 1.40250E+02 4.87010E+01 0.00000E+00
 -1      1468 1.38000E+02 4.74020E+01 0.00000E+00
 -1      1469 1.41750E+02 4.87010E+01 0.00000E+00
 -1      1470 1.43250E+02 4.87010E+01 0.00000E+00
 -1      1471 1.41000E+02 4.74020E+01 0.00000E+00
 -1      1472 1.44750E+02 4.87010E+01 0.00000E+00
 -1      1473 1.46250E+02 4.87010E+01 0.00000E+00
 -1      1474 1.44000E+02 4.74020E+01 0.00000E+00
 -1      1475 1.47375E+02 4.86255E+01 0.00000E+00
 -1      1476 1.48875E+02 4.86255E+01 0.00000E+00
 -1      1477 1.48875E+02 4.71755E+01 0.00000E+00
 -1      1478 1.46625E+02 4.73265E+01 0.00000E+00
 -1      1479 6.01200E+00 1.09375E+00 0.00000E+00
 -1      1480 4.51200E+00 1.09375E+00 0.00000E+00
 -1      1481 4.37400E+00 2.18750E+00 0.00000E+00
 -1      1482 9.01200E+00 1.09375E+00 0.00000E+00
 -1      1483 7.51200E+00 1.09375E+00 0.00000E+00
 -1      1484 7.37400E+00 2.18750E+00 0.00000E+00
 -1      1485 1.20120E+01 1.09375E+00 0.00000E+00
 -1      1486 1.05120E+01 1.09375E+00 0.00000E+00
 -1      1487 1.03740E+01 2.18750E+00 0.00000E+00
 -1      1488 1.50120E+01 1.09375E+00 0.00000E+00
 -1      1489 1.35120E+01 1.09375E+00 0.00000E+00
 -1      1490 1.33740E+01 2.18750E+00 0.00000E+00
 -1      1491 1.80120E+01 1.09375E+00 0.00000E+00
 -1      1492 1.65120E+01 1.09375E+00 0.00000E+00
 -1      1493 1.63740E+01 2.18750E+00 0.00000E+00
 -1      1494 2.10120E+01 1.09375E+00 0.00000E+00
 -1      1495 1.95120E+01 1.09375E+00 0.00000E+00
 -1      1496 1.93740E+01 2.18750E+00 0.00000E+00
 -1      1497 2.40120E+01 1.09375E+00 0.00000E+00
 -1      1498 2.25120E+01 1.09375E+00 0.00000E+00
 -1      1499 2.23740E+01 2.18750E+00 0.00000E+00
 -1      1500 2.70120E+01 1.09375E+00 0.00000E+00
 -1      1501 2.55120E+01 1.09375E+00 0.00000E+00
 -1      1502 2.53740E+01 2.18750E+00 0.00000E+00
 -1      1503 3.00120E+01 1.09375E+00 0.00000E+00
 -1      1504 2.85120E+01 1.09375E+00 0.00000E+00
 -1      1505 2.83740E+01 2.18750E+00 0.00000E+00
 -1      1506 3.30120E+01 1.09375E+00 0.00000E+00
 -1      1507 3.15120E+01 1.09375E+00 0.00000E+00
 -1      1508 3.13740E+01 2.18750E+00 0.00000E+00
 -1      1509 3.60120E+01 1.09375E+00 0.00000E+00
 -1      1510 3.45120E+01 1.09375E+00 0.00000E+00
 -1      1511 3.43740E+01 2.18750E+00 0.00000E+00
 -1      1512 3.90120E+01 1.09375E+00 0.00000E+00
 -1      1513 3.75120E+01 1.09375E+00 0.00000E+00
 -1      1514 3.73740E+01 2.18750E+00 0.00000E+00
 -1      1515 4.20120E+01 1.09375E+00 0.00000E+00
 -1      1516 4.05120E+01 1.09375E+00 0.00000E+00
 -1      1517 4.03740E+01 2.18750E+00 0.00000E+00
 -1      1518 4.50120E+01 1.09375E+00 0.00000E+00
 -1      1519 4.35120E+01 1.09375E+00 0.00000E+00
 -1      1520 4.33740E+01 2.18750E+00 0.00000E+00
 -1      1521 4.80120E+01 1.09375E+00 0.00000E+00
 -1      1522 4.65120E+01 1.09375E+00 0.00000E+00
 -1      1523 4.63740E+01 2.18750E+00 0.00000E+00
 -1      1524 5.10120E+01 1.09375E+00 0.00000E+00
 -1      1525 4.95120E+01 1.09375E+00 0.00000E+00
 -1      1526 4.93740E+01 2.18750E+00 0.00000E+00
 -1      1527 5.40120E+01 1.09375E+00 0.00000E+00
 -1      1528 5.25120E+01 1.09375E+00 0.00000E+00
 -1      1529 5.23740E+01 2.18750E+00 0.00000E+00
 -1      1530 5.70120E+01 1.09375E+00 0.00000E+00
 -1      1531 5.55120E+01 1.09375E+00 0.00000E+00
 -1      1532 5.53740E+01 2.18750E+00 0.00000E+00
 -1      1533 6.00120E+01 1.09375E+00 0.00000E+00
 -1      1534 5.85120E+01 1.09375E+00 0.00000E+00
 -1      1535 5.83740E+01 2.18750E+00 0.00000E+00
 -1      1536 6.30120E+01 1.09375E+00 0.00000E+00
 -1      1537 6.15120E+01 1.09375E+00 0.00000E+00
 -1      1538 6.13740E+01 2.18750E+00 0.00000E+00
 -1      1539 6.60120E+01 1.09375E+00 0.00000E+00
 -1      1540 6.45120E+01 1.09375E+00 0.00000E+00
 -1      1541 6.43740E+01 2.18750E+00 0.00000E+00
 -1      1542 6.90120E+01 1.09375E+00 0.00000E+00
 -1      1543 6.75120E+01 1.09375E+00 0.00000E+00
 -1      1544 6.73740E+01 2.18750E+00 0.00000E+00
 -1      1545 7.20120E+01 1.09375E+00 0.00000E+00
 -1      1546 7.05120E+01 1.09375E+00 0.00000E+00
 -1      1547 7.03740E+01 2.18750E+00 0.00000E+00
 -1      1548 7.50120E+01 1.09375E+00 0.00000E+00
 -1      1549 7.35120E+01 1.09375E+00 0.00000E+00
 -1      1550 7.33740E+01 2.18750E+00 0.00000E+00
 -1      1551 7.80120E+01 1.09375E+00 0.00000E+00
 -1      1552 7.65120E+01 1.09375E+00 0.00000E+00
 -1      1553 7.63740E+01 2.18750E+00 0.00000E+00
 -1      1554 8.10120E+01 1.09375E+00 0.00000E+00
 -1      1555 7.95120E+01 1.09375E+00 0.00000E+00
 -1      1556 7.93740E+01 2.18750E+00 0.00000E+00
 -1      1557 8.40120E+01 1.09375E+00 0.00000E+00
 -1      1558 8.25120E+01 1.09375E+00 0.00000E+00
 -1      1559 8.23740E+01 2.18750E+00 0.00000E+00
 -1      1560 8.70120E+01 1.09375E+00 0.00000E+00
 -1      1561 8.55120E+01 1.09375E+00 0.00000E+00
 -1      1562 8.53740E+01 2.18750E+00 0.00000E+00
 -1      1563 9.00120E+01 1.09375E+00 0.00000E+00
 -1      1564 8.85120E+01 1.09375E+00 0.00000E+00
 -1      1565 8.83740E+01 2.18750E+00 0.00000E+00
 -1      1566 9.30120E+01 1.09375E+00 0.00000E+00
 -1      1567 9.15120E+01 1.09375E+00 0.00000E+00
 -1      1568 9.13740E+01 2.18750E+00 0.00000E+00
 -1      1569 9.60120E+01 1.09375E+00 0.00000E+00
 -1      1570 9.45120E+01 1.09375E+00 0.00000E+00
 -1      1571 9.43740E+01 2.18750E+00 0.00000E+00
 -1      1572 9.90120E+01 1.09375E+00 0.00000E+00
 -1      1573 9.75120E+01 1.09375E+00 0.00000E+00
 -1      1574 9.73740E+01 2.18750E+00 0.00000E+00
 -1      1575 1.02012E+02 1.09375E+00 0.00000E+00
 -1      1576 1.00512E+02 1.09375E+00 0.00000E+00
 -1      1577 1.00374E+02 2.18750E+00 0.00000E+00
 -1      1578 1.05012E+02 1.09375E+00 0.00000E+00
 -1      1579 1.03512E+02 1.09375E+00 0.00000E+00
 -1      1580 1.03374E+02 2.18750E+00 0.00000E+00
 -1      1581 1.08012E+02 1.09375E+00 0.00000E+00
 -1      1582 1.06512E+02 1.09375E+00 0.00000E+00
 -1      1583 1.06374E+02 2.18750E+00 0.00000E+00
 -1      1584 1.11012E+02 1.09375E+00 0.00000E+00
 -1      1585 1.09512E+02 1.09375E+00 0.00000E+00
 -1      1586 1.09374E+02 2.18750E+00 0.00000E+00
 -1      1587 1.14012E+02 1.09375E+00 0.00000E+00
 -1      1588 1.12512E+02 1.09375E+00 0.00000E+00
 -1      1589 1.12374E+02 2.18750E+00 0.00000E+00
 -1      1590 1.17012E+02 1.09375E+00 0.00000E+00
 -1      1591 1.15512E+02 1.09375E+00 0.00000E+00
 -1      1592 1.15374E+02 2.18750E+00 0.00000E+00
 -1      1593 1.20012E+02 1.09375E+00 0.00000E+00
 -1      1594 1.18512E+02 1.09375E+00 0.00000E+00
 -1      1595 1.18374E+02 2.18750E+00 0.00000E+00
 -1      1596 1.23012E+02 1.09375E+00 0.00000E+00
 -1      1597 1.21512E+02 1.09375E+00 0.00000E+00
 -1      1598 1.21374E+02 2.18750E+00 0.00000E+00
 -1      1599 1.26012E+02 1.09375E+00 0.00000E+00
 -1      1600 1.24512E+02 1.09375E+00 0.00000E+00
 -1      1601 1.24374E+02 2.18750E+00 0.00000E+00
 -1      1602 1.29012E+02 1.09375E+00 0.00000E+00
 -1      1603 1.27512E+02 1.09375E+00 0.00000E+00
 -1      1604 1.27374E+02 2.18750E+00 0.00000E+00
 -1      1605 1.32012E+02 1.09375E+00 0.00000E+00
 -1      1606 1.30512E+02 1.09375E+00 0.00000E+00
 -1      1607 1.30374E+02 2.18750E+00 0.00000E+00
 -1      1608 1.35012E+02 1.09375E+00 0.00000E+00
 -1      1609 1.33512E+02 1.09375E+00 0.00000E+00
 -1      1610 1.33374E+02 2.18750E+00 0.00000E+00
 -1      1611 1.38012E+02 1.09375E+00 0.00000E+00
 -1      1612 1.36512E+02 1.09375E+00 0.00000E+00
 -1      1613 1.36374E+02 2.18750E+00 0.00000E+00
 -1      1614 1.41012E+02 1.09375E+00 0.00000E+00
 -1      1615 1.39512E+02 1.09375E+00 0.00000E+00
 -1      1616 1.39374E+02 2.18750E+00 0.00000E+00
 -1      1617 1.44012E+02 1.09375E+00 0.00000E+00
 -1      1618 1.42512E+02 1.09375E+00 0.00000E+00
 -1      1619 1.42374E+02 2.18750E+00 0.00000E+00
 -1      1620 1.47012E+02 1.09375E+00 0.00000E+00
 -1      1621 1.45512E+02 1.09375E+00 0.00000E+00
 -1      1622 1.45374E+02 2.18750E+00 0.00000E+00
 -1      1623 1.48575E+02 1.47500E+00 0.00000E+00
 -1      1624 1.48701E+02 5.16250E+00 0.00000E+00
 -1      1625 1.48701E+02 3.68750E+00 0.00000E+00
 -1      1626 1.48701E+02 8.11250E+00 0.00000E+00
 -1      1627 1.48701E+02 6.63750E+00 0.00000E+00
 -1      1628 1.47402E+02 5.90000E+00 0.00000E+00
 -1      1629 1.48701E+02 1.10625E+01 0.00000E+00
 -1      1630 1.48701E+02 9.58750E+00 0.00000E+00
 -1      1631 1.47402E+02 8.85000E+00 0.00000E+00
 -1      1632 1.48701E+02 1.40125E+01 0.00000E+00
 -1      1633 1.48701E+02 1.25375E+01 0.00000E+00
 -1      1634 1.47402E+02 1.18000E+01 0.00000E+00
 -1      1635 1.48701E+02 1.69125E+01 0.00000E+00
 -1      1636 1.48701E+02 1.54625E+01 0.00000E+00
 -1      1637 1.47402E+02 1.47250E+01 0.00000E+00
 -1      1638 1.48701E+02 1.98625E+01 0.00000E+00
 -1      1639 1.48701E+02 1.83875E+01 0.00000E+00
 -1      1640 1.47402E+02 1.76500E+01 0.00000E+00
 -1      1641 1.48701E+02 2.28125E+01 0.00000E+00
 -1      1642 1.48701E+02 2.13375E+01 0.00000E+00
 -1      1643 1.47402E+02 2.06000E+01 0.00000E+00
 -1      1644 1.48701E+02 2.57625E+01 0.00000E+00
 -1      1645 1.48701E+02 2.42875E+01 0.00000E+00
 -1      1646 1.47402E+02 2.35500E+01 0.00000E+00
 -1      1647 1.48701E+02 2.87125E+01 0.00000E+00
 -1      1648 1.48701E+02 2.72375E+01 0.00000E+00
 -1      1649 1.47402E+02 2.65000E+01 0.00000E+00
 -1      1650 1.48701E+02 3.16625E+01 0.00000E+00
 -1      1651 1.48701E+02 3.01875E+01 0.00000E+00
 -1      1652 1.47402E+02 2.94500E+01 0.00000E+00
 -1      1653 1.48701E+02 3.45625E+01 0.00000E+00
 -1      1654 1.48701E+02 3.31125E+01 0.00000E+00
 -1      1655 1.47402E+02 3.23750E+01 0.00000E+00
 -1      1656 1.48701E+02 3.75125E+01 0.00000E+00
 -1      1657 1.48701E+02 3.60375E+01 0.00000E+00
 -1      1658 1.47402E+02 3.53000E+01 0.00000E+00
 -1      1659 1.48701E+02 4.04625E+01 0.00000E+00
 -1      1660 1.48701E+02 3.89875E+01 0.00000E+00
 -1      1661 1.47402E+02 3.82500E+01 0.00000E+00
 -1      1662 1.48701E+02 4.34125E+01 0.00000E+00
 -1      1663 1.48701E+02 4.19375E+01 0.00000E+00
 -1      1664 1.47402E+02 4.12000E+01 0.00000E+00
 -1      1665 1.48788E+02 4.60315E+01 0.00000E+00
 -1      1666 1.48788E+02 4.45565E+01 0.00000E+00
 -1      1667 1.47489E+02 4.38190E+01 0.00000E+00
 -1      1668 1.47663E+02 4.61070E+01 0.00000E+00
 -1      1669 8.64994E+01 3.34640E+01 0.00000E+00
 -1      1670 8.65852E+01 3.42344E+01 0.00000E+00
 -1      1671 8.60859E+01 3.17274E+01 0.00000E+00
 -1      1672 8.63620E+01 3.25071E+01 0.00000E+00
 -1      1673 8.51448E+01 3.03443E+01 0.00000E+00
 -1      1674 8.55355E+01 3.09628E+01 0.00000E+00
 -1      1675 8.41216E+01 2.91098E+01 0.00000E+00
 -1      1676 8.46406E+01 2.96404E+01 0.00000E+00
 -1      1677 8.27511E+01 2.81508E+01 0.00000E+00
 -1      1678 8.34039E+01 2.85771E+01 0.00000E+00
 -1      1679 8.12112E+01 2.73850E+01 0.00000E+00
 -1      1680 8.19582E+01 2.76601E+01 0.00000E+00
 -1      1681 7.94831E+01 2.69778E+01 0.00000E+00
 -1      1682 8.02902E+01 2.70772E+01 0.00000E+00
 -1      1683 7.78010E+01 2.71648E+01 0.00000E+00
 -1      1684 7.85467E+01 2.70891E+01 0.00000E+00
 -1      1685 7.61008E+01 2.76828E+01 0.00000E+00
 -1      1686 7.68987E+01 2.74101E+01 0.00000E+00
 -1      1687 7.46270E+01 2.84697E+01 0.00000E+00
 -1      1688 7.52606E+01 2.80753E+01 0.00000E+00
 -1      1689 7.32903E+01 2.95340E+01 0.00000E+00
 -1      1690 7.38608E+01 2.89715E+01 0.00000E+00
 -1      1691 7.23959E+01 3.08792E+01 0.00000E+00
 -1      1692 7.27859E+01 3.02776E+01 0.00000E+00
 -1      1693 7.17026E+01 3.23284E+01 0.00000E+00
 -1      1694 7.19703E+01 3.16283E+01 0.00000E+00
 -1      1695 7.13210E+01 3.39619E+01 0.00000E+00
 -1      1696 7.14347E+01 3.31933E+01 0.00000E+00
 -1      1697 7.12718E+01 3.57134E+01 0.00000E+00
 -1      1698 7.12076E+01 3.49103E+01 0.00000E+00
 -1      1699 7.17866E+01 3.73082E+01 0.00000E+00
 -1      1700 7.15664E+01 3.65998E+01 0.00000E+00
 -1      1701 7.25116E+01 3.87771E+01 0.00000E+00
 -1      1702 7.21384E+01 3.81189E+01 0.00000E+00
 -1      1703 7.35312E+01 4.00567E+01 0.00000E+00
 -1      1704 7.30302E+01 3.94985E+01 0.00000E+00
 -1      1705 7.48197E+01 4.10512E+01 0.00000E+00
 -1      1706 7.42128E+01 4.06135E+01 0.00000E+00
 -1      1707 7.62705E+01 4.18278E+01 0.00000E+00
 -1      1708 7.55703E+01 4.15247E+01 0.00000E+00
 -1      1709 7.79130E+01 4.22402E+01 0.00000E+00
 -1      1710 7.71426E+01 4.20943E+01 0.00000E+00
 -1      1711 7.96019E+01 4.22403E+01 0.00000E+00
 -1      1712 7.88277E+01 4.22682E+01 0.00000E+00
 -1      1713 8.12119E+01 4.19229E+01 0.00000E+00
 -1      1714 8.04838E+01 4.21124E+01 0.00000E+00
 -1      1715 8.29053E+01 4.13376E+01 0.00000E+00
 -1      1716 8.21570E+01 4.17303E+01 0.00000E+00
 -1      1717 8.41125E+01 4.02975E+01 0.00000E+00
 -1      1718 8.35961E+01 4.07334E+01 0.00000E+00
 -1      1719 8.50370E+01 3.92077E+01 0.00000E+00
 -1      1720 8.46284E+01 3.97129E+01 0.00000E+00
 -1      1721 8.57814E+01 3.79672E+01 0.00000E+00
 -1      1722 8.54636E+01 3.85621E+01 0.00000E+00
 -1      1723 8.62875E+01 3.65674E+01 0.00000E+00
 -1      1724 8.60862E+01 3.72295E+01 0.00000E+00
 -1      1725 8.65538E+01 3.51004E+01 0.00000E+00
 -1      1726 8.64867E+01 3.57825E+01 0.00000E+00
 -1      1727 8.53485E+01 2.96258E+01 0.00000E+00
 -1      1728 8.71966E+01 3.46388E+01 0.00000E+00
 -1      1729 1.48437E+02 2.56875E+00 0.00000E+00
 -1      1730 1.47138E+02 3.30625E+00 0.00000E+00
 -1      1731 8.70907E+01 3.28158E+01 0.00000E+00
 -1      1732 8.64030E+01 3.10943E+01 0.00000E+00
 -1      1733 8.41267E+01 2.83891E+01 0.00000E+00
 -1      1734 8.26161E+01 2.73657E+01 0.00000E+00
 -1      1735 8.09022E+01 2.65673E+01 0.00000E+00
 -1      1736 7.90448E+01 2.63709E+01 0.00000E+00
 -1      1737 7.72061E+01 2.67275E+01 0.00000E+00
 -1      1738 7.54636E+01 2.73653E+01 0.00000E+00
 -1      1739 7.38573E+01 2.82596E+01 0.00000E+00
 -1      1740 7.25867E+01 2.95050E+01 0.00000E+00
 -1      1741 7.16567E+01 3.09977E+01 0.00000E+00
 -1      1742 7.09632E+01 3.26117E+01 0.00000E+00
 -1      1743 7.05818E+01 3.44251E+01 0.00000E+00
 -1      1744 7.07630E+01 3.62599E+01 0.00000E+00
 -1      1745 7.14094E+01 3.79570E+01 0.00000E+00
 -1      1746 7.22798E+01 3.94891E+01 0.00000E+00
 -1      1747 7.34800E+01 4.07673E+01 0.00000E+00
 -1      1748 7.49123E+01 4.17975E+01 0.00000E+00
 -1      1749 7.65351E+01 4.25375E+01 0.00000E+00
 -1      1750 7.83219E+01 4.28320E+01 0.00000E+00
 -1      1751 8.01186E+01 4.27322E+01 0.00000E+00
 -1      1752 8.19456E+01 4.24117E+01 0.00000E+00
 -1      1753 8.35815E+01 4.16149E+01 0.00000E+00
 -1      1754 8.47882E+01 4.04261E+01 0.00000E+00
 -1      1755 8.57306E+01 3.91959E+01 0.00000E+00
 -1      1756 8.64620E+01 3.78125E+01 0.00000E+00
 -1      1757 8.69660E+01 3.62898E+01 0.00000E+00
 -1      1758 2.87400E+00 4.77875E+01 0.00000E+00
 -1      1759 3.89700E+00 4.04125E+01 0.00000E+00
 -1      1760 3.89700E+00 4.18875E+01 0.00000E+00
 -1      1761 3.89700E+00 4.33625E+01 0.00000E+00
 -1      1762 3.89700E+00 4.48375E+01 0.00000E+00
 -1      1763 5.19600E+00 4.26250E+01 0.00000E+00
 -1      1764 3.89700E+00 3.45500E+01 0.00000E+00
 -1      1765 3.89700E+00 3.60000E+01 0.00000E+00
 -1      1766 3.89700E+00 3.16000E+01 0.00000E+00
 -1      1767 3.89700E+00 3.30750E+01 0.00000E+00
 -1      1768 5.19600E+00 3.38000E+01 0.00000E+00
 -1      1769 3.89700E+00 2.86500E+01 0.00000E+00
 -1      1770 3.89700E+00 3.01250E+01 0.00000E+00
 -1      1771 5.19600E+00 3.08500E+01 0.00000E+00
 -1      1772 3.89700E+00 2.57000E+01 0.00000E+00
 -1      1773 3.89700E+00 2.71750E+01 0.00000E+00
 -1      1774 5.19600E+00 2.79000E+01 0.00000E+00
 -1      1775 3.89700E+00 2.27500E+01 0.00000E+00
 -1      1776 3.89700E+00 2.42250E+01 0.00000E+00
 -1      1777 5.19600E+00 2.49500E+01 0.00000E+00
 -1      1778 3.89700E+00 1.98000E+01 0.00000E+00
 -1      1779 3.89700E+00 2.12750E+01 0.00000E+00
 -1      1780 5.19600E+00 2.20000E+01 0.00000E+00
 -1      1781 3.89700E+00 1.69000E+01 0.00000E+00
 -1      1782 3.89700E+00 1.83500E+01 0.00000E+00
 -1      1783 5.19600E+00 1.90750E+01 0.00000E+00
 -1      1784 3.89700E+00 1.39500E+01 0.00000E+00
 -1      1785 3.89700E+00 1.54250E+01 0.00000E+00
 -1      1786 5.19600E+00 1.61500E+01 0.00000E+00
 -1      1787 3.89700E+00 1.10000E+01 0.00000E+00
 -1      1788 3.89700E+00 1.24750E+01 0.00000E+00
 -1      1789 5.19600E+00 1.32000E+01 0.00000E+00
 -1      1790 3.89700E+00 8.05000E+00 0.00000E+00
 -1      1791 3.89700E+00 9.52500E+00 0.00000E+00
 -1      1792 5.19600E+00 1.02500E+01 0.00000E+00
 -1      1793 3.89700E+00 5.10000E+00 0.00000E+00
 -1      1794 3.89700E+00 6.57500E+00 0.00000E+00
 -1      1795 5.19600E+00 7.30000E+00 0.00000E+00
 -1      1796 4.20450E+00 3.09687E+00 0.00000E+00
 -1      1797 4.06650E+00 4.19063E+00 0.00000E+00
 -1      1798 5.36550E+00 4.91563E+00 0.00000E+00
 -1      1799 5.70450E+00 3.09687E+00 0.00000E+00
 -1      1800 3.62400E+00 4.64885E+01 0.00000E+00
 -1      1801 8.70450E+00 3.09687E+00 0.00000E+00
 -1      1802 7.20450E+00 3.09687E+00 0.00000E+00
 -1      1803 7.03500E+00 4.00625E+00 0.00000E+00
 -1      1804 4.92300E+00 4.57510E+01 0.00000E+00
 -1      1805 8.40000E+00 4.61030E+01 0.00000E+00
 -1      1806 9.90000E+00 4.61030E+01 0.00000E+00
 -1      1807 1.14000E+01 4.61030E+01 0.00000E+00
 -1      1808 1.29000E+01 4.61030E+01 0.00000E+00
 -1      1809 1.06500E+01 4.48040E+01 0.00000E+00
 -1      1810 1.44000E+01 4.61030E+01 0.00000E+00
 -1      1811 1.59000E+01 4.61030E+01 0.00000E+00
 -1      1812 1.36500E+01 4.48040E+01 0.00000E+00
 -1      1813 1.74000E+01 4.61030E+01 0.00000E+00
 -1      1814 1.89000E+01 4.61030E+01 0.00000E+00
 -1      1815 1.66500E+01 4.48040E+01 0.00000E+00
 -1      1816 2.04750E+01 4.61030E+01 0.00000E+00
 -1      1817 2.20500E+01 4.61030E+01 0.00000E+00
 -1      1818 1.97250E+01 4.48040E+01 0.00000E+00
 -1      1819 2.35500E+01 4.61030E+01 0.00000E+00
 -1      1820 2.50500E+01 4.61030E+01 0.00000E+00
 -1      1821 2.28000E+01 4.48040E+01 0.00000E+00
 -1      1822 2.65500E+01 4.61030E+01 0.00000E+00
 -1      1823 2.80500E+01 4.61030E+01 0.00000E+00
 -1      1824 2.58000E+01 4.48040E+01 0.00000E+00
 -1      1825 2.95500E+01 4.61030E+01 0.00000E+00
 -1      1826 3.10500E+01 4.61030E+01 0.00000E+00
 -1      1827 2.88000E+01 4.48040E+01 0.00000E+00
 -1      1828 3.25500E+01 4.61030E+01 0.00000E+00
 -1      1829 3.40500E+01 4.61030E+01 0.00000E+00
 -1      1830 3.18000E+01 4.48040E+01 0.00000E+00
 -1      1831 3.55500E+01 4.61030E+01 0.00000E+00
 -1      1832 3.70500E+01 4.61030E+01 0.00000E+00
 -1      1833 3.48000E+01 4.48040E+01 0.00000E+00
 -1      1834 3.85500E+01 4.61030E+01 0.00000E+00
 -1      1835 4.00500E+01 4.61030E+01 0.00000E+00
 -1      1836 3.78000E+01 4.48040E+01 0.00000E+00
 -1      1837 4.16250E+01 4.61030E+01 0.00000E+00
 -1      1838 4.32000E+01 4.61030E+01 0.00000E+00
 -1      1839 4.08750E+01 4.48040E+01 0.00000E+00
 -1      1840 4.47000E+01 4.61030E+01 0.00000E+00
 -1      1841 4.62000E+01 4.61030E+01 0.00000E+00
 -1      1842 4.39500E+01 4.48040E+01 0.00000E+00
 -1      1843 4.77000E+01 4.61030E+01 0.00000E+00
 -1      1844 4.92000E+01 4.61030E+01 0.00000E+00
 -1      1845 4.69500E+01 4.48040E+01 0.00000E+00
 -1      1846 5.07000E+01 4.61030E+01 0.00000E+00
 -1      1847 5.22000E+01 4.61030E+01 0.00000E+00
 -1      1848 4.99500E+01 4.48040E+01 0.00000E+00
 -1      1849 5.37000E+01 4.61030E+01 0.00000E+00
 -1      1850 5.52000E+01 4.61030E+01 0.00000E+00
 -1      1851 5.29500E+01 4.48040E+01 0.00000E+00
 -1      1852 5.67000E+01 4.61030E+01 0.00000E+00
 -1      1853 5.82000E+01 4.61030E+01 0.00000E+00
 -1      1854 5.59500E+01 4.48040E+01 0.00000E+00
 -1      1855 5.97000E+01 4.61030E+01 0.00000E+00
 -1      1856 6.12000E+01 4.61030E+01 0.00000E+00
 -1      1857 5.89500E+01 4.48040E+01 0.00000E+00
 -1      1858 6.27000E+01 4.61030E+01 0.00000E+00
 -1      1859 6.42000E+01 4.61030E+01 0.00000E+00
 -1      1860 6.19500E+01 4.48040E+01 0.00000E+00
 -1      1861 6.57750E+01 4.61030E+01 0.00000E+00
 -1      1862 6.73500E+01 4.61030E+01 0.00000E+00
 -1      1863 6.50250E+01 4.48040E+01 0.00000E+00
 -1      1864 6.88500E+01 4.61030E+01 0.00000E+00
 -1      1865 7.03500E+01 4.61030E+01 0.00000E+00
 -1      1866 6.81000E+01 4.48040E+01 0.00000E+00
 -1      1867 7.17000E+01 4.61030E+01 0.00000E+00
 -1      1868 7.30500E+01 4.61030E+01 0.00000E+00
 -1      1869 7.09500E+01 4.48040E+01 0.00000E+00
 -1      1870 7.45125E+01 4.63769E+01 0.00000E+00
 -1      1871 7.59375E+01 4.63769E+01 0.00000E+00
 -1      1872 7.73250E+01 4.63769E+01 0.00000E+00
 -1      1873 7.86750E+01 4.63769E+01 0.00000E+00
 -1      1874 8.01000E+01 4.63769E+01 0.00000E+00
 -1      1875 8.16000E+01 4.63769E+01 0.00000E+00
 -1      1876 8.30625E+01 4.62931E+01 0.00000E+00
 -1      1877 8.44875E+01 4.62931E+01 0.00000E+00
 -1      1878 8.59875E+01 4.62931E+01 0.00000E+00
 -1      1879 8.74875E+01 4.62931E+01 0.00000E+00
 -1      1880 8.52750E+01 4.51842E+01 0.00000E+00
 -1      1881 8.89875E+01 4.62931E+01 0.00000E+00
 -1      1882 9.04875E+01 4.62931E+01 0.00000E+00
 -1      1883 8.82750E+01 4.51842E+01 0.00000E+00
 -1      1884 9.19875E+01 4.62931E+01 0.00000E+00
 -1      1885 9.34875E+01 4.62931E+01 0.00000E+00
 -1      1886 9.12750E+01 4.51842E+01 0.00000E+00
 -1      1887 9.49875E+01 4.62931E+01 0.00000E+00
 -1      1888 9.64875E+01 4.62931E+01 0.00000E+00
 -1      1889 9.42750E+01 4.51842E+01 0.00000E+00
 -1      1890 9.79875E+01 4.62931E+01 0.00000E+00
 -1      1891 9.94875E+01 4.62931E+01 0.00000E+00
 -1      1892 9.72750E+01 4.51842E+01 0.00000E+00
 -1      1893 1.00988E+02 4.62931E+01 0.00000E+00
 -1      1894 1.02488E+02 4.62931E+01 0.00000E+00
 -1      1895 1.00275E+02 4.51842E+01 0.00000E+00
 -1      1896 1.04063E+02 4.62931E+01 0.00000E+00
 -1      1897 1.05637E+02 4.62931E+01 0.00000E+00
 -1      1898 1.03350E+02 4.51842E+01 0.00000E+00
 -1      1899 1.07137E+02 4.62931E+01 0.00000E+00
 -1      1900 1.08637E+02 4.62931E+01 0.00000E+00
 -1      1901 1.06425E+02 4.51842E+01 0.00000E+00
 -1      1902 1.10137E+02 4.62931E+01 0.00000E+00
 -1      1903 1.11637E+02 4.62931E+01 0.00000E+00
 -1      1904 1.09425E+02 4.51842E+01 0.00000E+00
 -1      1905 1.13137E+02 4.62931E+01 0.00000E+00
 -1      1906 1.14637E+02 4.62931E+01 0.00000E+00
 -1      1907 1.12425E+02 4.51842E+01 0.00000E+00
 -1      1908 1.16137E+02 4.62931E+01 0.00000E+00
 -1      1909 1.17637E+02 4.62931E+01 0.00000E+00
 -1      1910 1.15425E+02 4.51842E+01 0.00000E+00
 -1      1911 1.19137E+02 4.62931E+01 0.00000E+00
 -1      1912 1.20637E+02 4.62931E+01 0.00000E+00
 -1      1913 1.18425E+02 4.51842E+01 0.00000E+00
 -1      1914 1.22137E+02 4.62931E+01 0.00000E+00
 -1      1915 1.23637E+02 4.62931E+01 0.00000E+00
 -1      1916 1.21425E+02 4.51842E+01 0.00000E+00
 -1      1917 1.25213E+02 4.62931E+01 0.00000E+00
 -1      1918 1.26787E+02 4.62931E+01 0.00000E+00
 -1      1919 1.24500E+02 4.51842E+01 0.00000E+00
 -1      1920 1.28288E+02 4.62931E+01 0.00000E+00
 -1      1921 1.29788E+02 4.62931E+01 0.00000E+00
 -1      1922 1.27575E+02 4.51842E+01 0.00000E+00
 -1      1923 1.31288E+02 4.62931E+01 0.00000E+00
 -1      1924 1.32788E+02 4.62931E+01 0.00000E+00
 -1      1925 1.30575E+02 4.51842E+01 0.00000E+00
 -1      1926 1.34288E+02 4.62931E+01 0.00000E+00
 -1      1927 1.35788E+02 4.62931E+01 0.00000E+00
 -1      1928 1.33575E+02 4.51842E+01 0.00000E+00
 -1      1929 1.37288E+02 4.62931E+01 0.00000E+00
 -1      1930 1.38788E+02 4.62931E+01 0.00000E+00
 -1      1931 1.36575E+02 4.51842E+01 0.00000E+00
 -1      1932 1.40288E+02 4.62931E+01 0.00000E+00
 -1      1933 1.41788E+02 4.62931E+01 0.00000E+00
 -1      1934 1.39575E+02 4.51842E+01 0.00000E+00
 -1      1935 1.43288E+02 4.62931E+01 0.00000E+00
 -1      1936 1.44788E+02 4.62931E+01 0.00000E+00
 -1      1937 1.42575E+02 4.51842E+01 0.00000E+00
 -1      1938 1.46538E+02 4.61825E+01 0.00000E+00
 -1      1939 1.41240E+01 3.48650E+00 0.00000E+00
 -1      1940 1.26240E+01 3.48650E+00 0.00000E+00
 -1      1941 1.71240E+01 3.48650E+00 0.00000E+00
 -1      1942 1.56240E+01 3.48650E+00 0.00000E+00
 -1      1943 1.48740E+01 4.78550E+00 0.00000E+00
 -1      1944 2.01240E+01 3.48650E+00 0.00000E+00
 -1      1945 1.86240E+01 3.48650E+00 0.00000E+00
 -1      1946 1.78740E+01 4.78550E+00 0.00000E+00
 -1      1947 2.31240E+01 3.48650E+00 0.00000E+00
 -1      1948 2.16240E+01 3.48650E+00 0.00000E+00
 -1      1949 2.08740E+01 4.78550E+00 0.00000E+00
 -1      1950 2.61240E+01 3.48650E+00 0.00000E+00
 -1      1951 2.46240E+01 3.48650E+00 0.00000E+00
 -1      1952 2.38740E+01 4.78550E+00 0.00000E+00
 -1      1953 2.91240E+01 3.48650E+00 0.00000E+00
 -1      1954 2.76240E+01 3.48650E+00 0.00000E+00
 -1      1955 2.68740E+01 4.78550E+00 0.00000E+00
 -1      1956 3.21240E+01 3.48650E+00 0.00000E+00
 -1      1957 3.06240E+01 3.48650E+00 0.00000E+00
 -1      1958 2.98740E+01 4.78550E+00 0.00000E+00
 -1      1959 3.51240E+01 3.48650E+00 0.00000E+00
 -1      1960 3.36240E+01 3.48650E+00 0.00000E+00
 -1      1961 3.28740E+01 4.78550E+00 0.00000E+00
 -1      1962 3.81240E+01 3.48650E+00 0.00000E+00
 -1      1963 3.66240E+01 3.48650E+00 0.00000E+00
 -1      1964 3.58740E+01 4.78550E+00 0.00000E+00
 -1      1965 4.11240E+01 3.48650E+00 0.00000E+00
 -1      1966 3.96240E+01 3.48650E+00 0.00000E+00
 -1      1967 3.88740E+01 4.78550E+00 0.00000E+00
 -1      1968 4.41240E+01 3.48650E+00 0.00000E+00
 -1      1969 4.26240E+01 3.48650E+00 0.00000E+00
 -1      1970 4.18740E+01 4.78550E+00 0.00000E+00
 -1      1971 4.71240E+01 3.48650E+00 0.00000E+00
 -1      1972 4.56240E+01 3.48650E+00 0.00000E+00
 -1      1973 4.48740E+01 4.78550E+00 0.00000E+00
 -1      1974 5.01240E+01 3.48650E+00 0.00000E+00
 -1      1975 4.86240E+01 3.48650E+00 0.00000E+00
 -1      1976 4.78740E+01 4.78550E+00 0.00000E+00
 -1      1977 5.31240E+01 3.48650E+00 0.00000E+00
 -1      1978 5.16240E+01 3.48650E+00 0.00000E+00
 -1      1979 5.08740E+01 4.78550E+00 0.00000E+00
 -1      1980 5.61240E+01 3.48650E+00 0.00000E+00
 -1      1981 5.46240E+01 3.48650E+00 0.00000E+00
 -1      1982 5.38740E+01 4.78550E+00 0.00000E+00
 -1      1983 5.91240E+01 3.48650E+00 0.00000E+00
 -1      1984 5.76240E+01 3.48650E+00 0.00000E+00
 -1      1985 5.68740E+01 4.78550E+00 0.00000E+00
 -1      1986 6.21240E+01 3.48650E+00 0.00000E+00
 -1      1987 6.06240E+01 3.48650E+00 0.00000E+00
 -1      1988 5.98740E+01 4.78550E+00 0.00000E+00
 -1      1989 6.51240E+01 3.48650E+00 0.00000E+00
 -1      1990 6.36240E+01 3.48650E+00 0.00000E+00
 -1      1991 6.28740E+01 4.78550E+00 0.00000E+00
 -1      1992 6.81240E+01 3.48650E+00 0.00000E+00
 -1      1993 6.66240E+01 3.48650E+00 0.00000E+00
 -1      1994 6.58740E+01 4.78550E+00 0.00000E+00
 -1      1995 7.11240E+01 3.48650E+00 0.00000E+00
 -1      1996 6.96240E+01 3.48650E+00 0.00000E+00
 -1      1997 6.88740E+01 4.78550E+00 0.00000E+00
 -1      1998 7.41240E+01 3.48650E+00 0.00000E+00
 -1      1999 7.26240E+01 3.48650E+00 0.00000E+00
 -1      2000 7.18740E+01 4.78550E+00 0.00000E+00
 -1      2001 7.71240E+01 3.48650E+00 0.00000E+00
 -1      2002 7.56240E+01 3.48650E+00 0.00000E+00
 -1      2003 7.48740E+01 4.78550E+00 0.00000E+00
 -1      2004 8.01240E+01 3.48650E+00 0.00000E+00
 -1      2005 7.86240E+01 3.48650E+00 0.00000E+00
 -1      2006 7.78740E+01 4.78550E+00 0.00000E+00
 -1      2007 8.31240E+01 3.48650E+00 0.00000E+00
 -1      2008 8.16240E+01 3.48650E+00 0.00000E+00
 -1      2009 8.08740E+01 4.78550E+00 0.00000E+00
 -1      2010 8.61240E+01 3.48650E+00 0.00000E+00
 -1      2011 8.46240E+01 3.48650E+00 0.00000E+00
 -1      2012 8.38740E+01 4.78550E+00 0.00000E+00
 -1      2013 8.91240E+01 3.48650E+00 0.00000E+00
 -1      2014 8.76240E+01 3.48650E+00 0.00000E+00
 -1      2015 8.68740E+01 4.78550E+00 0.00000E+00
 -1      2016 9.21240E+01 3.48650E+00 0.00000E+00
 -1      2017 9.06240E+01 3.48650E+00 0.00000E+00
 -1      2018 8.98740E+01 4.78550E+00 0.00000E+00
 -1      2019 9.51240E+01 3.48650E+00 0.00000E+00
 -1      2020 9.36240E+01 3.48650E+00 0.00000E+00
 -1      2021 9.28740E+01 4.78550E+00 0.00000E+00
 -1      2022 9.81240E+01 3.48650E+00 0.00000E+00
 -1      2023 9.66240E+01 3.48650E+00 0.00000E+00
 -1      2024 9.58740E+01 4.78550E+00 0.00000E+00
 -1      2025 1.01124E+02 3.48650E+00 0.00000E+00
 -1      2026 9.96240E+01 3.48650E+00 0.00000E+00
 -1      2027 9.88740E+01 4.78550E+00 0.00000E+00
 -1      2028 1.04124E+02 3.48650E+00 0.00000E+00
 -1      2029 1.02624E+02 3.48650E+00 0.00000E+00
 -1      2030 1.01874E+02 4.78550E+00 0.00000E+00
 -1      2031 1.07124E+02 3.48650E+00 0.00000E+00
 -1      2032 1.05624E+02 3.48650E+00 0.00000E+00
 -1      2033 1.04874E+02 4.78550E+00 0.00000E+00
 -1      2034 1.10124E+02 3.48650E+00 0.00000E+00
 -1      2035 1.08624E+02 3.48650E+00 0.00000E+00
 -1      2036 1.07874E+02 4.78550E+00 0.00000E+00
 -1      2037 1.13124E+02 3.48650E+00 0.00000E+00
 -1      2038 1.11624E+02 3.48650E+00 0.00000E+00
 -1      2039 1.10874E+02 4.78550E+00 0.00000E+00
 -1      2040 1.16124E+02 3.48650E+00 0.00000E+00
 -1      2041 1.14624E+02 3.48650E+00 0.00000E+00
 -1      2042 1.13874E+02 4.78550E+00 0.00000E+00
 -1      2043 1.19124E+02 3.48650E+00 0.00000E+00
 -1      2044 1.17624E+02 3.48650E+00 0.00000E+00
 -1      2045 1.16874E+02 4.78550E+00 0.00000E+00
 -1      2046 1.22124E+02 3.48650E+00 0.00000E+00
 -1      2047 1.20624E+02 3.48650E+00 0.00000E+00
 -1      2048 1.19874E+02 4.78550E+00 0.00000E+00
 -1      2049 1.25124E+02 3.48650E+00 0.00000E+00
 -1      2050 1.23624E+02 3.48650E+00 0.00000E+00
 -1      2051 1.22874E+02 4.78550E+00 0.00000E+00
 -1      2052 1.28124E+02 3.48650E+00 0.00000E+00
 -1      2053 1.26624E+02 3.48650E+00 0.00000E+00
 -1      2054 1.25874E+02 4.78550E+00 0.00000E+00
 -1      2055 1.31124E+02 3.48650E+00 0.00000E+00
 -1      2056 1.29624E+02 3.48650E+00 0.00000E+00
 -1      2057 1.28874E+02 4.78550E+00 0.00000E+00
 -1      2058 1.34124E+02 3.48650E+00 0.00000E+00
 -1      2059 1.32624E+02 3.48650E+00 0.00000E+00
 -1      2060 1.31874E+02 4.78550E+00 0.00000E+00
 -1      2061 1.37124E+02 3.48650E+00 0.00000E+00
 -1      2062 1.35624E+02 3.48650E+00 0.00000E+00
 -1      2063 1.34874E+02 4.78550E+00 0.00000E+00
 -1      2064 1.40124E+02 3.48650E+00 0.00000E+00
 -1      2065 1.38624E+02 3.48650E+00 0.00000E+00
 -1      2066 1.37874E+02 4.78550E+00 0.00000E+00
 -1      2067 1.43124E+02 3.48650E+00 0.00000E+00
 -1      2068 1.41624E+02 3.48650E+00 0.00000E+00
 -1      2069 1.40874E+02 4.78550E+00 0.00000E+00
 -1      2070 1.45881E+02 3.39637E+00 0.00000E+00
 -1      2071 1.44381E+02 3.39637E+00 0.00000E+00
 -1      2072 1.43631E+02 4.69537E+00 0.00000E+00
 -1      2073 1.46145E+02 4.51512E+00 0.00000E+00
 -1      2074 1.46103E+02 1.25375E+01 0.00000E+00
 -1      2075 1.46103E+02 1.10625E+01 0.00000E+00
 -1      2076 1.46103E+02 9.58750E+00 0.00000E+00
 -1      2077 1.46103E+02 8.11250E+00 0.00000E+00
 -1      2078 1.44804E+02 1.03250E+01 0.00000E+00
 -1      2079 1.46145E+02 5.99013E+00 0.00000E+00
 -1      2080 1.46103E+02 1.54375E+01 0.00000E+00
 -1      2081 1.46103E+02 1.39875E+01 0.00000E+00
 -1      2082 1.44804E+02 1.32500E+01 0.00000E+00
 -1      2083 1.46103E+02 1.83875E+01 0.00000E+00
 -1      2084 1.46103E+02 1.69125E+01 0.00000E+00
 -1      2085 1.44804E+02 1.61750E+01 0.00000E+00
 -1      2086 1.46103E+02 2.13375E+01 0.00000E+00
 -1      2087 1.46103E+02 1.98625E+01 0.00000E+00
 -1      2088 1.44804E+02 1.91250E+01 0.00000E+00
 -1      2089 1.46103E+02 2.42875E+01 0.00000E+00
 -1      2090 1.46103E+02 2.28125E+01 0.00000E+00
 -1      2091 1.44804E+02 2.20750E+01 0.00000E+00
 -1      2092 1.46103E+02 2.72375E+01 0.00000E+00
 -1      2093 1.46103E+02 2.57625E+01 0.00000E+00
 -1      2094 1.44804E+02 2.50250E+01 0.00000E+00
 -1      2095 1.46103E+02 3.01875E+01 0.00000E+00
 -1      2096 1.46103E+02 2.87125E+01 0.00000E+00
 -1      2097 1.44804E+02 2.79750E+01 0.00000E+00
 -1      2098 1.46103E+02 3.30875E+01 0.00000E+00
 -1      2099 1.46103E+02 3.16375E+01 0.00000E+00
 -1      2100 1.44804E+02 3.09000E+01 0.00000E+00
 -1      2101 1.46103E+02 3.60375E+01 0.00000E+00
 -1      2102 1.46103E+02 3.45625E+01 0.00000E+00
 -1      2103 1.44804E+02 3.38250E+01 0.00000E+00
 -1      2104 1.46103E+02 3.89875E+01 0.00000E+00
 -1      2105 1.46103E+02 3.75125E+01 0.00000E+00
 -1      2106 1.44804E+02 3.67750E+01 0.00000E+00
 -1      2107 1.46103E+02 4.19375E+01 0.00000E+00
 -1      2108 1.46103E+02 4.04625E+01 0.00000E+00
 -1      2109 1.44804E+02 3.97250E+01 0.00000E+00
 -1      2110 1.14143E+01 3.29169E+00 0.00000E+00
 -1      2111 9.91425E+00 3.29169E+00 0.00000E+00
 -1      2112 9.74475E+00 4.20106E+00 0.00000E+00
 -1      2113 1.21643E+01 4.59069E+00 0.00000E+00
 -1      2114 8.67218E+01 3.02845E+01 0.00000E+00
 -1      2115 8.72722E+01 3.10491E+01 0.00000E+00
 -1      2116 8.41791E+01 2.75687E+01 0.00000E+00
 -1      2117 8.48968E+01 2.81015E+01 0.00000E+00
 -1      2118 8.79437E+01 3.42323E+01 0.00000E+00
 -1      2119 8.79123E+01 3.50984E+01 0.00000E+00
 -1      2120 8.57136E+01 2.88766E+01 0.00000E+00
 -1      2121 8.62177E+01 2.95805E+01 0.00000E+00
 -1      2122 8.70869E+01 2.95353E+01 0.00000E+00
 -1      2123 3.89700E+00 3.74688E+01 0.00000E+00
 -1      2124 3.89700E+00 3.89437E+01 0.00000E+00
 -1      2125 5.19600E+00 3.96813E+01 0.00000E+00
 -1      2126 5.19600E+00 3.67438E+01 0.00000E+00
 -1      2127 8.25607E+01 2.65693E+01 0.00000E+00
 -1      2128 8.33535E+01 2.70599E+01 0.00000E+00
 -1      2129 8.06870E+01 2.56795E+01 0.00000E+00
 -1      2130 8.16080E+01 2.59873E+01 0.00000E+00
 -1      2131 7.84902E+01 2.56998E+01 0.00000E+00
 -1      2132 7.94266E+01 2.55884E+01 0.00000E+00
 -1      2133 7.65300E+01 2.60226E+01 0.00000E+00
 -1      2134 7.74323E+01 2.57773E+01 0.00000E+00
 -1      2135 7.47160E+01 2.68606E+01 0.00000E+00
 -1      2136 7.55561E+01 2.64680E+01 0.00000E+00
 -1      2137 7.31191E+01 2.79684E+01 0.00000E+00
 -1      2138 7.38853E+01 2.74666E+01 0.00000E+00
 -1      2139 7.16941E+01 2.94424E+01 0.00000E+00
 -1      2140 7.21986E+01 2.86988E+01 0.00000E+00
 -1      2141 7.08430E+01 3.09406E+01 0.00000E+00
 -1      2142 7.12686E+01 3.01915E+01 0.00000E+00
 -1      2143 7.08805E+01 2.93853E+01 0.00000E+00
 -1      2144 7.01701E+01 3.28401E+01 0.00000E+00
 -1      2145 7.04381E+01 3.19751E+01 0.00000E+00
 -1      2146 6.97152E+01 3.48024E+01 0.00000E+00
 -1      2147 6.98287E+01 3.38540E+01 0.00000E+00
 -1      2148 7.02555E+01 3.69208E+01 0.00000E+00
 -1      2149 6.99609E+01 3.60343E+01 0.00000E+00
 -1      2150 7.08371E+01 3.86871E+01 0.00000E+00
 -1      2151 7.04853E+01 3.78764E+01 0.00000E+00
 -1      2152 7.19448E+01 4.02770E+01 0.00000E+00
 -1      2153 7.14262E+01 3.95556E+01 0.00000E+00
 -1      2154 7.33844E+01 4.15800E+01 0.00000E+00
 -1      2155 7.27027E+01 4.10233E+01 0.00000E+00
 -1      2156 7.48524E+01 4.27241E+01 0.00000E+00
 -1      2157 7.41018E+01 4.22506E+01 0.00000E+00
 -1      2158 7.67328E+01 4.34508E+01 0.00000E+00
 -1      2159 7.58606E+01 4.31843E+01 0.00000E+00
 -1      2160 7.86183E+01 4.41059E+01 0.00000E+00
 -1      2161 7.77036E+01 4.40779E+01 0.00000E+00
 -1      2162 8.09253E+01 4.39780E+01 0.00000E+00
 -1      2163 8.00433E+01 4.41059E+01 0.00000E+00
 -1      2164 8.44087E+01 4.18637E+01 0.00000E+00
 -1      2165 8.37179E+01 4.24679E+01 0.00000E+00
 -1      2166 8.55634E+01 4.05904E+01 0.00000E+00
 -1      2167 8.50476E+01 4.11749E+01 0.00000E+00
 -1      2168 8.64166E+01 3.92991E+01 0.00000E+00
 -1      2169 8.59900E+01 3.99448E+01 0.00000E+00
 -1      2170 8.62495E+01 4.06936E+01 0.00000E+00
 -1      2171 8.72521E+01 3.77071E+01 0.00000E+00
 -1      2172 8.69473E+01 3.84449E+01 0.00000E+00
 -1      2173 8.76938E+01 3.60568E+01 0.00000E+00
 -1      2174 8.74946E+01 3.68417E+01 0.00000E+00
 -1      2175 8.77050E+01 3.22394E+01 0.00000E+00
 -1      2176 8.78423E+01 3.31963E+01 0.00000E+00
 -1      2177 7.66125E+01 4.53517E+01 0.00000E+00
 -1      2178 6.42300E+00 4.57510E+01 0.00000E+00
 -1      2179 7.94250E+01 4.53517E+01 0.00000E+00
 -1      2180 8.41237E+01 2.67723E+01 0.00000E+00
 -1      2181 7.17300E+00 4.44520E+01 0.00000E+00
 -1      2182 7.37625E+01 4.50779E+01 0.00000E+00
 -1      2183 8.23125E+01 4.52680E+01 0.00000E+00
 -1      2184 1.45826E+02 4.50736E+01 0.00000E+00
 -1      2185 1.44846E+02 6.72762E+00 0.00000E+00
 -1      2186 8.85580E+01 3.36558E+01 0.00000E+00
 -1      2187 1.46008E+02 4.40775E+01 0.00000E+00
 -1      2188 1.45921E+02 4.29335E+01 0.00000E+00
 -1      2189 1.44622E+02 4.21960E+01 0.00000E+00
 -1      2190 1.44257E+02 4.41881E+01 0.00000E+00
 -1      2191 8.83426E+01 3.06196E+01 0.00000E+00
 -1      2192 8.80238E+01 3.14295E+01 0.00000E+00
 -1      2193 8.87755E+01 3.18099E+01 0.00000E+00
 -1      2194 8.57660E+01 2.80562E+01 0.00000E+00
 -1      2195 8.84409E+01 3.56502E+01 0.00000E+00
 -1      2196 8.72067E+01 3.91937E+01 0.00000E+00
 -1      2197 8.51840E+01 4.20279E+01 0.00000E+00
 -1      2198 7.50501E+01 4.36374E+01 0.00000E+00
 -1      2199 7.33245E+01 4.25066E+01 0.00000E+00
 -1      2200 7.18492E+01 4.10897E+01 0.00000E+00
 -1      2201 7.05021E+01 3.94750E+01 0.00000E+00
 -1      2202 6.96832E+01 3.76508E+01 0.00000E+00
 -1      2203 6.92077E+01 3.54633E+01 0.00000E+00
 -1      2204 7.00500E+01 3.11689E+01 0.00000E+00
 -1      2205 7.22266E+01 2.79058E+01 0.00000E+00
 -1      2206 7.39778E+01 2.65693E+01 0.00000E+00
 -1      2207 7.57823E+01 2.55179E+01 0.00000E+00
 -1      2208 7.78141E+01 2.49949E+01 0.00000E+00
 -1      2209 8.23454E+01 2.56815E+01 0.00000E+00
 -1      2210 8.01324E+01 2.50084E+01 0.00000E+00
 -1      2211 8.08381E+01 2.44285E+01 0.00000E+00
 -1      2212 7.95777E+01 2.43374E+01 0.00000E+00
 -1      2213 6.93035E+01 3.32174E+01 0.00000E+00
 -1      2214 8.39208E+01 4.32932E+01 0.00000E+00
 -1      2215 8.30935E+01 4.30444E+01 0.00000E+00
 -1      2216 8.25810E+01 4.31147E+01 0.00000E+00
 -1      2217 8.16360E+01 4.33073E+01 0.00000E+00
 -1      2218 8.79799E+01 3.74741E+01 0.00000E+00
 -1      2219 8.27839E+01 4.39399E+01 0.00000E+00
 -1      2220 6.49500E+00 3.01125E+01 0.00000E+00
 -1      2221 6.49500E+00 3.15875E+01 0.00000E+00
 -1      2222 6.49500E+00 3.30625E+01 0.00000E+00
 -1      2223 6.49500E+00 3.45375E+01 0.00000E+00
 -1      2224 7.79400E+00 3.23250E+01 0.00000E+00
 -1      2225 6.49500E+00 2.42125E+01 0.00000E+00
 -1      2226 6.49500E+00 2.56875E+01 0.00000E+00
 -1      2227 6.49500E+00 2.12625E+01 0.00000E+00
 -1      2228 6.49500E+00 2.27375E+01 0.00000E+00
 -1      2229 7.79400E+00 2.34750E+01 0.00000E+00
 -1      2230 6.49500E+00 1.83625E+01 0.00000E+00
 -1      2231 6.49500E+00 1.98125E+01 0.00000E+00
 -1      2232 7.79400E+00 2.05500E+01 0.00000E+00
 -1      2233 6.49500E+00 1.54125E+01 0.00000E+00
 -1      2234 6.49500E+00 1.68875E+01 0.00000E+00
 -1      2235 7.79400E+00 1.76250E+01 0.00000E+00
 -1      2236 6.49500E+00 1.24625E+01 0.00000E+00
 -1      2237 6.49500E+00 1.39375E+01 0.00000E+00
 -1      2238 7.79400E+00 1.46750E+01 0.00000E+00
 -1      2239 6.49500E+00 9.51250E+00 0.00000E+00
 -1      2240 6.49500E+00 1.09875E+01 0.00000E+00
 -1      2241 7.79400E+00 1.17250E+01 0.00000E+00
 -1      2242 6.49500E+00 6.56250E+00 0.00000E+00
 -1      2243 6.49500E+00 8.03750E+00 0.00000E+00
 -1      2244 7.79400E+00 8.77500E+00 0.00000E+00
 -1      2245 6.84975E+00 4.82969E+00 0.00000E+00
 -1      2246 6.68025E+00 5.73906E+00 0.00000E+00
 -1      2247 7.97925E+00 6.47656E+00 0.00000E+00
 -1      2248 8.34975E+00 4.82969E+00 0.00000E+00
 -1      2249 9.90000E+00 4.35050E+01 0.00000E+00
 -1      2250 1.14000E+01 4.35050E+01 0.00000E+00
 -1      2251 1.29000E+01 4.35050E+01 0.00000E+00
 -1      2252 1.44000E+01 4.35050E+01 0.00000E+00
 -1      2253 1.21500E+01 4.22060E+01 0.00000E+00
 -1      2254 1.59000E+01 4.35050E+01 0.00000E+00
 -1      2255 1.74000E+01 4.35050E+01 0.00000E+00
 -1      2256 1.51500E+01 4.22060E+01 0.00000E+00
 -1      2257 1.89750E+01 4.35050E+01 0.00000E+00
 -1      2258 2.05500E+01 4.35050E+01 0.00000E+00
 -1      2259 1.82250E+01 4.22060E+01 0.00000E+00
 -1      2260 2.20500E+01 4.35050E+01 0.00000E+00
 -1      2261 2.35500E+01 4.35050E+01 0.00000E+00
 -1      2262 2.13000E+01 4.22060E+01 0.00000E+00
 -1      2263 2.50500E+01 4.35050E+01 0.00000E+00
 -1      2264 2.65500E+01 4.35050E+01 0.00000E+00
 -1      2265 2.43000E+01 4.22060E+01 0.00000E+00
 -1      2266 2.80500E+01 4.35050E+01 0.00000E+00
 -1      2267 2.95500E+01 4.35050E+01 0.00000E+00
 -1      2268 2.73000E+01 4.22060E+01 0.00000E+00
 -1      2269 3.10500E+01 4.35050E+01 0.00000E+00
 -1      2270 3.25500E+01 4.35050E+01 0.00000E+00
 -1      2271 3.03000E+01 4.22060E+01 0.00000E+00
 -1      2272 3.40500E+01 4.35050E+01 0.00000E+00
 -1      2273 3.55500E+01 4.35050E+01 0.00000E+00
 -1      2274 3.33000E+01 4.22060E+01 0.00000E+00
 -1      2275 3.70500E+01 4.35050E+01 0.00000E+00
 -1      2276 3.85500E+01 4.35050E+01 0.00000E+00
 -1      2277 3.63000E+01 4.22060E+01 0.00000E+00
 -1      2278 4.01250E+01 4.35050E+01 0.00000E+00
 -1      2279 4.17000E+01 4.35050E+01 0.00000E+00
 -1      2280 3.93750E+01 4.22060E+01 0.00000E+00
 -1      2281 4.32000E+01 4.35050E+01 0.00000E+00
 -1      2282 4.47000E+01 4.35050E+01 0.00000E+00
 -1      2283 4.24500E+01 4.22060E+01 0.00000E+00
 -1      2284 4.62000E+01 4.35050E+01 0.00000E+00
 -1      2285 4.77000E+01 4.35050E+01 0.00000E+00
 -1      2286 4.54500E+01 4.22060E+01 0.00000E+00
 -1      2287 4.92000E+01 4.35050E+01 0.00000E+00
 -1      2288 5.07000E+01 4.35050E+01 0.00000E+00
 -1      2289 4.84500E+01 4.22060E+01 0.00000E+00
 -1      2290 5.22000E+01 4.35050E+01 0.00000E+00
 -1      2291 5.37000E+01 4.35050E+01 0.00000E+00
 -1      2292 5.14500E+01 4.22060E+01 0.00000E+00
 -1      2293 5.52000E+01 4.35050E+01 0.00000E+00
 -1      2294 5.67000E+01 4.35050E+01 0.00000E+00
 -1      2295 5.44500E+01 4.22060E+01 0.00000E+00
 -1      2296 5.82000E+01 4.35050E+01 0.00000E+00
 -1      2297 5.97000E+01 4.35050E+01 0.00000E+00
 -1      2298 5.74500E+01 4.22060E+01 0.00000E+00
 -1      2299 6.12000E+01 4.35050E+01 0.00000E+00
 -1      2300 6.27000E+01 4.35050E+01 0.00000E+00
 -1      2301 6.04500E+01 4.22060E+01 0.00000E+00
 -1      2302 6.42750E+01 4.35050E+01 0.00000E+00
 -1      2303 6.58500E+01 4.35050E+01 0.00000E+00
 -1      2304 6.35250E+01 4.22060E+01 0.00000E+00
 -1      2305 6.73500E+01 4.35050E+01 0.00000E+00
 -1      2306 6.88500E+01 4.35050E+01 0.00000E+00
 -1      2307 6.66000E+01 4.22060E+01 0.00000E+00
 -1      2308 8.41608E+01 2.57879E+01 0.00000E+00
 -1      2309 8.49864E+01 2.62966E+01 0.00000E+00
 -1      2310 1.43589E+02 6.81775E+00 0.00000E+00
 -1      2311 8.75250E+01 4.41591E+01 0.00000E+00
 -1      2312 8.90250E+01 4.41591E+01 0.00000E+00
 -1      2313 9.05250E+01 4.39077E+01 0.00000E+00
 -1      2314 9.20250E+01 4.39077E+01 0.00000E+00
 -1      2315 9.35250E+01 4.39077E+01 0.00000E+00
 -1      2316 9.50250E+01 4.39077E+01 0.00000E+00
 -1      2317 9.27750E+01 4.26312E+01 0.00000E+00
 -1      2318 9.65250E+01 4.39077E+01 0.00000E+00
 -1      2319 9.80250E+01 4.39077E+01 0.00000E+00
 -1      2320 9.57750E+01 4.26312E+01 0.00000E+00
 -1      2321 9.95250E+01 4.39077E+01 0.00000E+00
 -1      2322 1.01025E+02 4.39077E+01 0.00000E+00
 -1      2323 9.87750E+01 4.26312E+01 0.00000E+00
 -1      2324 1.02600E+02 4.39077E+01 0.00000E+00
 -1      2325 1.04175E+02 4.39077E+01 0.00000E+00
 -1      2326 1.01850E+02 4.26312E+01 0.00000E+00
 -1      2327 1.05675E+02 4.39077E+01 0.00000E+00
 -1      2328 1.07175E+02 4.39077E+01 0.00000E+00
 -1      2329 1.04925E+02 4.26312E+01 0.00000E+00
 -1      2330 1.08675E+02 4.39077E+01 0.00000E+00
 -1      2331 1.10175E+02 4.39077E+01 0.00000E+00
 -1      2332 1.07925E+02 4.26312E+01 0.00000E+00
 -1      2333 1.11675E+02 4.39077E+01 0.00000E+00
 -1      2334 1.13175E+02 4.39077E+01 0.00000E+00
 -1      2335 1.10925E+02 4.26312E+01 0.00000E+00
 -1      2336 1.14675E+02 4.39077E+01 0.00000E+00
 -1      2337 1.16175E+02 4.39077E+01 0.00000E+00
 -1      2338 1.13925E+02 4.26312E+01 0.00000E+00
 -1      2339 1.17675E+02 4.39077E+01 0.00000E+00
 -1      2340 1.19175E+02 4.39077E+01 0.00000E+00
 -1      2341 1.16925E+02 4.26312E+01 0.00000E+00
 -1      2342 1.20675E+02 4.39077E+01 0.00000E+00
 -1      2343 1.22175E+02 4.39077E+01 0.00000E+00
 -1      2344 1.19925E+02 4.26312E+01 0.00000E+00
 -1      2345 1.23750E+02 4.39077E+01 0.00000E+00
 -1      2346 1.25325E+02 4.39077E+01 0.00000E+00
 -1      2347 1.23000E+02 4.26312E+01 0.00000E+00
 -1      2348 1.26825E+02 4.39077E+01 0.00000E+00
 -1      2349 1.28325E+02 4.39077E+01 0.00000E+00
 -1      2350 1.26075E+02 4.26312E+01 0.00000E+00
 -1      2351 1.29825E+02 4.39077E+01 0.00000E+00
 -1      2352 1.31325E+02 4.39077E+01 0.00000E+00
 -1      2353 1.29075E+02 4.26312E+01 0.00000E+00
 -1      2354 1.32825E+02 4.39077E+01 0.00000E+00
 -1      2355 1.34325E+02 4.39077E+01 0.00000E+00
 -1      2356 1.32075E+02 4.26312E+01 0.00000E+00
 -1      2357 1.35825E+02 4.39077E+01 0.00000E+00
 -1      2358 1.37325E+02 4.39077E+01 0.00000E+00
 -1      2359 1.35075E+02 4.26312E+01 0.00000E+00
 -1      2360 1.38825E+02 4.39077E+01 0.00000E+00
 -1      2361 1.40325E+02 4.39077E+01 0.00000E+00
 -1      2362 1.38075E+02 4.26312E+01 0.00000E+00
 -1      2363 1.41541E+02 4.40479E+01 0.00000E+00
 -1      2364 1.43041E+02 4.40479E+01 0.00000E+00
 -1      2365 1.43223E+02 4.30519E+01 0.00000E+00
 -1      2366 1.40791E+02 4.27714E+01 0.00000E+00
 -1      2367 2.16240E+01 6.08450E+00 0.00000E+00
 -1      2368 2.01240E+01 6.08450E+00 0.00000E+00
 -1      2369 1.86240E+01 6.08450E+00 0.00000E+00
 -1      2370 1.71240E+01 6.08450E+00 0.00000E+00
 -1      2371 1.93740E+01 7.38350E+00 0.00000E+00
 -1      2372 1.56240E+01 6.08450E+00 0.00000E+00
 -1      2373 1.41240E+01 6.08450E+00 0.00000E+00
 -1      2374 1.63740E+01 7.38350E+00 0.00000E+00
 -1      2375 2.46240E+01 6.08450E+00 0.00000E+00
 -1      2376 2.31240E+01 6.08450E+00 0.00000E+00
 -1      2377 2.23740E+01 7.38350E+00 0.00000E+00
 -1      2378 2.76240E+01 6.08450E+00 0.00000E+00
 -1      2379 2.61240E+01 6.08450E+00 0.00000E+00
 -1      2380 2.53740E+01 7.38350E+00 0.00000E+00
 -1      2381 3.06240E+01 6.08450E+00 0.00000E+00
 -1      2382 2.91240E+01 6.08450E+00 0.00000E+00
 -1      2383 2.83740E+01 7.38350E+00 0.00000E+00
 -1      2384 3.36240E+01 6.08450E+00 0.00000E+00
 -1      2385 3.21240E+01 6.08450E+00 0.00000E+00
 -1      2386 3.13740E+01 7.38350E+00 0.00000E+00
 -1      2387 3.66240E+01 6.08450E+00 0.00000E+00
 -1      2388 3.51240E+01 6.08450E+00 0.00000E+00
 -1      2389 3.43740E+01 7.38350E+00 0.00000E+00
 -1      2390 3.96240E+01 6.08450E+00 0.00000E+00
 -1      2391 3.81240E+01 6.08450E+00 0.00000E+00
 -1      2392 3.73740E+01 7.38350E+00 0.00000E+00
 -1      2393 4.26240E+01 6.08450E+00 0.00000E+00
 -1      2394 4.11240E+01 6.08450E+00 0.00000E+00
 -1      2395 4.03740E+01 7.38350E+00 0.00000E+00
 -1      2396 4.56240E+01 6.08450E+00 0.00000E+00
 -1      2397 4.41240E+01 6.08450E+00 0.00000E+00
 -1      2398 4.33740E+01 7.38350E+00 0.00000E+00
 -1      2399 4.86240E+01 6.08450E+00 0.00000E+00
 -1      2400 4.71240E+01 6.08450E+00 0.00000E+00
 -1      2401 4.63740E+01 7.38350E+00 0.00000E+00
 -1      2402 5.16240E+01 6.08450E+00 0.00000E+00
 -1      2403 5.01240E+01 6.08450E+00 0.00000E+00
 -1      2404 4.93740E+01 7.38350E+00 0.00000E+00
 -1      2405 5.46240E+01 6.08450E+00 0.00000E+00
 -1      2406 5.31240E+01 6.08450E+00 0.00000E+00
 -1      2407 5.23740E+01 7.38350E+00 0.00000E+00
 -1      2408 5.76240E+01 6.08450E+00 0.00000E+00
 -1      2409 5.61240E+01 6.08450E+00 0.00000E+00
 -1      2410 5.53740E+01 7.38350E+00 0.00000E+00
 -1      2411 6.06240E+01 6.08450E+00 0.00000E+00
 -1      2412 5.91240E+01 6.08450E+00 0.00000E+00
 -1      2413 5.83740E+01 7.38350E+00 0.00000E+00
 -1      2414 6.36240E+01 6.08450E+00 0.00000E+00
 -1      2415 6.21240E+01 6.08450E+00 0.00000E+00
 -1      2416 6.13740E+01 7.38350E+00 0.00000E+00
 -1      2417 6.66240E+01 6.08450E+00 0.00000E+00
 -1      2418 6.51240E+01 6.08450E+00 0.00000E+00
 -1      2419 6.43740E+01 7.38350E+00 0.00000E+00
 -1      2420 6.96240E+01 6.08450E+00 0.00000E+00
 -1      2421 6.81240E+01 6.08450E+00 0.00000E+00
 -1      2422 6.73740E+01 7.38350E+00 0.00000E+00
 -1      2423 7.26240E+01 6.08450E+00 0.00000E+00
 -1      2424 7.11240E+01 6.08450E+00 0.00000E+00
 -1      2425 7.03740E+01 7.38350E+00 0.00000E+00
 -1      2426 7.56240E+01 6.08450E+00 0.00000E+00
 -1      2427 7.41240E+01 6.08450E+00 0.00000E+00
 -1      2428 7.33740E+01 7.38350E+00 0.00000E+00
 -1      2429 7.86240E+01 6.08450E+00 0.00000E+00
 -1      2430 7.71240E+01 6.08450E+00 0.00000E+00
 -1      2431 7.63740E+01 7.38350E+00 0.00000E+00
 -1      2432 8.16240E+01 6.08450E+00 0.00000E+00
 -1      2433 8.01240E+01 6.08450E+00 0.00000E+00
 -1      2434 7.93740E+01 7.38350E+00 0.00000E+00
 -1      2435 8.46240E+01 6.08450E+00 0.00000E+00
 -1      2436 8.31240E+01 6.08450E+00 0.00000E+00
 -1      2437 8.23740E+01 7.38350E+00 0.00000E+00
 -1      2438 8.76240E+01 6.08450E+00 0.00000E+00
 -1      2439 8.61240E+01 6.08450E+00 0.00000E+00
 -1      2440 8.53740E+01 7.38350E+00 0.00000E+00
 -1      2441 9.06240E+01 6.08450E+00 0.00000E+00
 -1      2442 8.91240E+01 6.08450E+00 0.00000E+00
 -1      2443 8.83740E+01 7.38350E+00 0.00000E+00
 -1      2444 9.36240E+01 6.08450E+00 0.00000E+00
 -1      2445 9.21240E+01 6.08450E+00 0.00000E+00
 -1      2446 9.13740E+01 7.38350E+00 0.00000E+00
 -1      2447 9.66240E+01 6.08450E+00 0.00000E+00
 -1      2448 9.51240E+01 6.08450E+00 0.00000E+00
 -1      2449 9.43740E+01 7.38350E+00 0.00000E+00
 -1      2450 9.96240E+01 6.08450E+00 0.00000E+00
 -1      2451 9.81240E+01 6.08450E+00 0.00000E+00
 -1      2452 9.73740E+01 7.38350E+00 0.00000E+00
 -1      2453 1.02624E+02 6.08450E+00 0.00000E+00
 -1      2454 1.01124E+02 6.08450E+00 0.00000E+00
 -1      2455 1.00374E+02 7.38350E+00 0.00000E+00
 -1      2456 1.05624E+02 6.08450E+00 0.00000E+00
 -1      2457 1.04124E+02 6.08450E+00 0.00000E+00
 -1      2458 1.03374E+02 7.38350E+00 0.00000E+00
 -1      2459 1.08624E+02 6.08450E+00 0.00000E+00
 -1      2460 1.07124E+02 6.08450E+00 0.00000E+00
 -1      2461 1.06374E+02 7.38350E+00 0.00000E+00
 -1      2462 1.11624E+02 6.08450E+00 0.00000E+00
 -1      2463 1.10124E+02 6.08450E+00 0.00000E+00
 -1      2464 1.09374E+02 7.38350E+00 0.00000E+00
 -1      2465 1.14624E+02 6.08450E+00 0.00000E+00
 -1      2466 1.13124E+02 6.08450E+00 0.00000E+00
 -1      2467 1.12374E+02 7.38350E+00 0.00000E+00
 -1      2468 1.17624E+02 6.08450E+00 0.00000E+00
 -1      2469 1.16124E+02 6.08450E+00 0.00000E+00
 -1      2470 1.15374E+02 7.38350E+00 0.00000E+00
 -1      2471 1.20624E+02 6.08450E+00 0.00000E+00
 -1      2472 1.19124E+02 6.08450E+00 0.00000E+00
 -1      2473 1.18374E+02 7.38350E+00 0.00000E+00
 -1      2474 1.23624E+02 6.08450E+00 0.00000E+00
 -1      2475 1.22124E+02 6.08450E+00 0.00000E+00
 -1      2476 1.21374E+02 7.38350E+00 0.00000E+00
 -1      2477 1.26624E+02 6.08450E+00 0.00000E+00
 -1      2478 1.25124E+02 6.08450E+00 0.00000E+00
 -1      2479 1.24374E+02 7.38350E+00 0.00000E+00
 -1      2480 1.29624E+02 6.08450E+00 0.00000E+00
 -1      2481 1.28124E+02 6.08450E+00 0.00000E+00
 -1      2482 1.27374E+02 7.38350E+00 0.00000E+00
 -1      2483 1.32624E+02 6.08450E+00 0.00000E+00
 -1      2484 1.31124E+02 6.08450E+00 0.00000E+00
 -1      2485 1.30374E+02 7.38350E+00 0.00000E+00
 -1      2486 1.35624E+02 6.08450E+00 0.00000E+00
 -1      2487 1.34124E+02 6.08450E+00 0.00000E+00
 -1      2488 1.33374E+02 7.38350E+00 0.00000E+00
 -1      2489 1.38624E+02 6.08450E+00 0.00000E+00
 -1      2490 1.37124E+02 6.08450E+00 0.00000E+00
 -1      2491 1.36374E+02 7.38350E+00 0.00000E+00
 -1      2492 1.41624E+02 6.08450E+00 0.00000E+00
 -1      2493 1.40124E+02 6.08450E+00 0.00000E+00
 -1      2494 1.39374E+02 7.38350E+00 0.00000E+00
 -1      2495 1.43505E+02 1.69125E+01 0.00000E+00
 -1      2496 1.43505E+02 1.54375E+01 0.00000E+00
 -1      2497 1.43505E+02 1.39875E+01 0.00000E+00
 -1      2498 1.43505E+02 1.25375E+01 0.00000E+00
 -1      2499 1.42206E+02 1.47250E+01 0.00000E+00
 -1      2500 1.43505E+02 1.10625E+01 0.00000E+00
 -1      2501 1.43505E+02 9.58750E+00 0.00000E+00
 -1      2502 1.42206E+02 1.18000E+01 0.00000E+00
 -1      2503 8.95276E+01 3.30380E+01 0.00000E+00
 -1      2504 8.96290E+01 3.40740E+01 0.00000E+00
 -1      2505 1.43505E+02 1.98625E+01 0.00000E+00
 -1      2506 1.43505E+02 1.83875E+01 0.00000E+00
 -1      2507 1.42206E+02 1.76500E+01 0.00000E+00
 -1      2508 1.43505E+02 2.28125E+01 0.00000E+00
 -1      2509 1.43505E+02 2.13375E+01 0.00000E+00
 -1      2510 1.42206E+02 2.06000E+01 0.00000E+00
 -1      2511 1.43505E+02 2.57625E+01 0.00000E+00
 -1      2512 1.43505E+02 2.42875E+01 0.00000E+00
 -1      2513 1.42206E+02 2.35500E+01 0.00000E+00
 -1      2514 1.43505E+02 2.87125E+01 0.00000E+00
 -1      2515 1.43505E+02 2.72375E+01 0.00000E+00
 -1      2516 1.42206E+02 2.65000E+01 0.00000E+00
 -1      2517 1.43505E+02 3.16125E+01 0.00000E+00
 -1      2518 1.43505E+02 3.01625E+01 0.00000E+00
 -1      2519 1.42206E+02 2.94250E+01 0.00000E+00
 -1      2520 1.43505E+02 3.45625E+01 0.00000E+00
 -1      2521 1.43505E+02 3.30875E+01 0.00000E+00
 -1      2522 1.42206E+02 3.23500E+01 0.00000E+00
 -1      2523 1.43505E+02 3.75125E+01 0.00000E+00
 -1      2524 1.43505E+02 3.60375E+01 0.00000E+00
 -1      2525 1.42206E+02 3.53000E+01 0.00000E+00
 -1      2526 1.43505E+02 4.04625E+01 0.00000E+00
 -1      2527 1.43505E+02 3.89875E+01 0.00000E+00
 -1      2528 1.42206E+02 3.82500E+01 0.00000E+00
 -1      2529 6.55950E+00 4.28890E+01 0.00000E+00
 -1      2530 8.53650E+00 4.32410E+01 0.00000E+00
 -1      2531 9.28650E+00 4.19420E+01 0.00000E+00
 -1      2532 6.55950E+00 4.14140E+01 0.00000E+00
 -1      2533 8.74979E+01 2.87084E+01 0.00000E+00
 -1      2534 8.80021E+01 2.94123E+01 0.00000E+00
 -1      2535 8.58902E+01 2.71074E+01 0.00000E+00
 -1      2536 8.67070E+01 2.78825E+01 0.00000E+00
 -1      2537 8.80937E+01 3.91528E+01 0.00000E+00
 -1      2538 8.75631E+01 4.00071E+01 0.00000E+00
 -1      2539 8.61322E+01 4.22667E+01 0.00000E+00
 -1      2540 8.54933E+01 4.29555E+01 0.00000E+00
 -1      2541 8.15607E+01 4.46810E+01 0.00000E+00
 -1      2542 7.70292E+01 4.47247E+01 0.00000E+00
 -1      2543 7.12333E+01 2.75992E+01 0.00000E+00
 -1      2544 7.21538E+01 2.68688E+01 0.00000E+00
 -1      2545 8.93046E+01 3.53431E+01 0.00000E+00
 -1      2546 8.90861E+01 3.63014E+01 0.00000E+00
 -1      2547 6.49500E+00 2.71625E+01 0.00000E+00
 -1      2548 6.49500E+00 2.86375E+01 0.00000E+00
 -1      2549 7.79400E+00 2.93750E+01 0.00000E+00
 -1      2550 7.79400E+00 2.64250E+01 0.00000E+00
 -1      2551 6.82407E+01 3.34239E+01 0.00000E+00
 -1      2552 6.85822E+01 3.24100E+01 0.00000E+00
 -1      2553 8.22554E+01 2.46239E+01 0.00000E+00
 -1      2554 8.32081E+01 2.52059E+01 0.00000E+00
 -1      2555 8.40708E+01 2.47302E+01 0.00000E+00
 -1      2556 7.72285E+01 2.42620E+01 0.00000E+00
 -1      2557 7.82864E+01 2.41844E+01 0.00000E+00
 -1      2558 7.49562E+01 2.49988E+01 0.00000E+00
 -1      2559 7.59300E+01 2.45534E+01 0.00000E+00
 -1      2560 7.30818E+01 2.62134E+01 0.00000E+00
 -1      2561 7.39125E+01 2.56073E+01 0.00000E+00
 -1      2562 7.00313E+01 2.93983E+01 0.00000E+00
 -1      2563 7.04569E+01 2.86493E+01 0.00000E+00
 -1      2564 6.89871E+01 3.13754E+01 0.00000E+00
 -1      2565 6.93921E+01 3.03409E+01 0.00000E+00
 -1      2566 6.79243E+01 3.15820E+01 0.00000E+00
 -1      2567 6.84896E+01 3.62469E+01 0.00000E+00
 -1      2568 6.82439E+01 3.50150E+01 0.00000E+00
 -1      2569 6.90457E+01 3.83095E+01 0.00000E+00
 -1      2570 6.88160E+01 3.73539E+01 0.00000E+00
 -1      2571 7.01217E+01 4.03671E+01 0.00000E+00
 -1      2572 6.95325E+01 3.94986E+01 0.00000E+00
 -1      2573 7.16264E+01 4.20739E+01 0.00000E+00
 -1      2574 7.08685E+01 4.13276E+01 0.00000E+00
 -1      2575 7.31834E+01 4.33766E+01 0.00000E+00
 -1      2576 7.24660E+01 4.27060E+01 0.00000E+00
 -1      2577 7.56417E+01 4.47247E+01 0.00000E+00
 -1      2578 8.88436E+01 3.71669E+01 0.00000E+00
 -1      2579 8.86011E+01 3.80323E+01 0.00000E+00
 -1      2580 8.97072E+01 3.68597E+01 0.00000E+00
 -1      2581 8.70609E+01 4.08141E+01 0.00000E+00
 -1      2582 8.66343E+01 4.14597E+01 0.00000E+00
 -1      2583 8.69436E+01 4.23873E+01 0.00000E+00
 -1      2584 8.79479E+01 4.07732E+01 0.00000E+00
 -1      2585 1.42839E+02 8.11675E+00 0.00000E+00
 -1      2586 8.30232E+01 4.45972E+01 0.00000E+00
 -1      2587 7.46335E+01 4.42645E+01 0.00000E+00
 -1      2588 7.79400E+00 3.52687E+01 0.00000E+00
 -1      2589 6.49500E+00 3.60062E+01 0.00000E+00
 -1      2590 6.49500E+00 3.74750E+01 0.00000E+00
 -1      2591 8.76222E+01 2.77596E+01 0.00000E+00
 -1      2592 9.55950E+00 5.02450E+00 0.00000E+00
 -1      2593 9.37425E+00 5.84794E+00 0.00000E+00
 -1      2594 1.07692E+01 5.21931E+00 0.00000E+00
 -1      2595 7.31710E+01 4.39906E+01 0.00000E+00
 -1      2596 6.52725E+00 3.87101E+01 0.00000E+00
 -1      2597 6.52725E+00 4.01789E+01 0.00000E+00
 -1      2598 7.89075E+00 4.04429E+01 0.00000E+00
 -1      2599 7.82625E+00 3.79726E+01 0.00000E+00
 -1      2600 6.93729E+01 4.22589E+01 0.00000E+00
 -1      2601 7.01229E+01 4.35579E+01 0.00000E+00
 -1      2602 7.89922E+01 2.36045E+01 0.00000E+00
 -1      2603 7.14729E+01 4.35579E+01 0.00000E+00
 -1      2604 8.66082E+01 4.41892E+01 0.00000E+00
 -1      2605 8.73582E+01 4.31641E+01 0.00000E+00
 -1      2606 1.41540E+02 8.85425E+00 0.00000E+00
 -1      2607 8.35357E+01 4.45269E+01 0.00000E+00
 -1      2608 8.97750E+01 4.28826E+01 0.00000E+00
 -1      2609 9.02741E+01 3.47252E+01 0.00000E+00
 -1      2610 8.98464E+01 3.22281E+01 0.00000E+00
 -1      2611 8.87537E+01 2.97928E+01 0.00000E+00
 -1      2612 8.95054E+01 3.01732E+01 0.00000E+00
 -1      2613 8.91648E+01 2.89659E+01 0.00000E+00
 -1      2614 1.30515E+01 5.74931E+00 0.00000E+00
 -1      2615 1.18418E+01 5.55450E+00 0.00000E+00
 -1      2616 1.16565E+01 6.37794E+00 0.00000E+00
 -1      2617 1.38015E+01 7.04831E+00 0.00000E+00
 -1      2618 8.59274E+01 2.61229E+01 0.00000E+00
 -1      2619 6.86653E+01 3.92016E+01 0.00000E+00
 -1      2620 7.03841E+01 2.76123E+01 0.00000E+00
 -1      2621 6.89685E+01 2.96049E+01 0.00000E+00
 -1      2622 7.20884E+01 2.59068E+01 0.00000E+00
 -1      2623 7.40601E+01 2.46429E+01 0.00000E+00
 -1      2624 8.89574E+01 3.88457E+01 0.00000E+00
 -1      2625 8.17008E+01 2.39528E+01 0.00000E+00
 -1      2626 8.25635E+01 2.34772E+01 0.00000E+00
 -1      2627 8.11462E+01 2.32817E+01 0.00000E+00
 -1      2628 6.75225E+01 3.42076E+01 0.00000E+00
 -1      2629 6.68012E+01 3.34002E+01 0.00000E+00
 -1      2630 6.68044E+01 3.49913E+01 0.00000E+00
 -1      2631 7.64024E+01 2.37429E+01 0.00000E+00
 -1      2632 8.47578E+01 4.35735E+01 0.00000E+00
 -1      2633 8.41334E+01 4.41499E+01 0.00000E+00
 -1      2634 6.78521E+01 3.69056E+01 0.00000E+00
 -1      2635 6.98989E+01 4.13513E+01 0.00000E+00
 -1      2636 1.43406E+02 4.20558E+01 0.00000E+00
 -1      2637 8.57060E+01 4.38123E+01 0.00000E+00
 -1      2638 1.42107E+02 4.13183E+01 0.00000E+00
 -1      2639 9.09300E+00 1.98250E+01 0.00000E+00
 -1      2640 9.09300E+00 2.12750E+01 0.00000E+00
 -1      2641 9.09300E+00 2.27500E+01 0.00000E+00
 -1      2642 9.09300E+00 2.42250E+01 0.00000E+00
 -1      2643 1.03920E+01 2.20250E+01 0.00000E+00
 -1      2644 9.09300E+00 1.39375E+01 0.00000E+00
 -1      2645 9.09300E+00 1.54125E+01 0.00000E+00
 -1      2646 9.09300E+00 1.09875E+01 0.00000E+00
 -1      2647 9.09300E+00 1.24625E+01 0.00000E+00
 -1      2648 1.03920E+01 1.32000E+01 0.00000E+00
 -1      2649 9.18900E+00 6.67137E+00 0.00000E+00
 -1      2650 9.00375E+00 7.49481E+00 0.00000E+00
 -1      2651 1.03988E+01 6.86619E+00 0.00000E+00
 -1      2652 1.14000E+01 4.09070E+01 0.00000E+00
 -1      2653 1.29000E+01 4.09070E+01 0.00000E+00
 -1      2654 7.84474E+01 2.26764E+01 0.00000E+00
 -1      2655 7.97387E+01 2.28293E+01 0.00000E+00
 -1      2656 8.78604E+01 4.23571E+01 0.00000E+00
 -1      2657 1.44000E+01 4.09070E+01 0.00000E+00
 -1      2658 1.59000E+01 4.09070E+01 0.00000E+00
 -1      2659 1.36500E+01 3.96080E+01 0.00000E+00
 -1      2660 1.74750E+01 4.09070E+01 0.00000E+00
 -1      2661 1.90500E+01 4.09070E+01 0.00000E+00
 -1      2662 1.67250E+01 3.96080E+01 0.00000E+00
 -1      2663 2.05500E+01 4.09070E+01 0.00000E+00
 -1      2664 2.20500E+01 4.09070E+01 0.00000E+00
 -1      2665 1.98000E+01 3.96080E+01 0.00000E+00
 -1      2666 2.35500E+01 4.09070E+01 0.00000E+00
 -1      2667 2.50500E+01 4.09070E+01 0.00000E+00
 -1      2668 2.28000E+01 3.96080E+01 0.00000E+00
 -1      2669 2.65500E+01 4.09070E+01 0.00000E+00
 -1      2670 2.80500E+01 4.09070E+01 0.00000E+00
 -1      2671 2.58000E+01 3.96080E+01 0.00000E+00
 -1      2672 2.95500E+01 4.09070E+01 0.00000E+00
 -1      2673 3.10500E+01 4.09070E+01 0.00000E+00
 -1      2674 2.88000E+01 3.96080E+01 0.00000E+00
 -1      2675 3.25500E+01 4.09070E+01 0.00000E+00
 -1      2676 3.40500E+01 4.09070E+01 0.00000E+00
 -1      2677 3.18000E+01 3.96080E+01 0.00000E+00
 -1      2678 3.55500E+01 4.09070E+01 0.00000E+00
 -1      2679 3.70500E+01 4.09070E+01 0.00000E+00
 -1      2680 3.48000E+01 3.96080E+01 0.00000E+00
 -1      2681 3.86250E+01 4.09070E+01 0.00000E+00
 -1      2682 4.02000E+01 4.09070E+01 0.00000E+00
 -1      2683 3.78750E+01 3.96080E+01 0.00000E+00
 -1      2684 4.17000E+01 4.09070E+01 0.00000E+00
 -1      2685 4.32000E+01 4.09070E+01 0.00000E+00
 -1      2686 4.09500E+01 3.96080E+01 0.00000E+00
 -1      2687 4.47000E+01 4.09070E+01 0.00000E+00
 -1      2688 4.62000E+01 4.09070E+01 0.00000E+00
 -1      2689 4.39500E+01 3.96080E+01 0.00000E+00
 -1      2690 4.77000E+01 4.09070E+01 0.00000E+00
 -1      2691 4.92000E+01 4.09070E+01 0.00000E+00
 -1      2692 4.69500E+01 3.96080E+01 0.00000E+00
 -1      2693 5.07000E+01 4.09070E+01 0.00000E+00
 -1      2694 5.22000E+01 4.09070E+01 0.00000E+00
 -1      2695 4.99500E+01 3.96080E+01 0.00000E+00
 -1      2696 5.37000E+01 4.09070E+01 0.00000E+00
 -1      2697 5.52000E+01 4.09070E+01 0.00000E+00
 -1      2698 5.29500E+01 3.96080E+01 0.00000E+00
 -1      2699 5.67000E+01 4.09070E+01 0.00000E+00
 -1      2700 5.82000E+01 4.09070E+01 0.00000E+00
 -1      2701 5.59500E+01 3.96080E+01 0.00000E+00
 -1      2702 5.97000E+01 4.09070E+01 0.00000E+00
 -1      2703 6.12000E+01 4.09070E+01 0.00000E+00
 -1      2704 5.89500E+01 3.96080E+01 0.00000E+00
 -1      2705 6.27750E+01 4.09070E+01 0.00000E+00
 -1      2706 6.43500E+01 4.09070E+01 0.00000E+00
 -1      2707 6.20250E+01 3.96080E+01 0.00000E+00
 -1      2708 1.40706E+02 1.03250E+01 0.00000E+00
 -1      2709 1.40040E+02 8.85425E+00 0.00000E+00
 -1      2710 1.38540E+02 8.85425E+00 0.00000E+00
 -1      2711 8.61600E+01 2.49545E+01 0.00000E+00
 -1      2712 8.70638E+01 2.57652E+01 0.00000E+00
 -1      2713 9.50250E+01 4.13322E+01 0.00000E+00
 -1      2714 9.65250E+01 4.13322E+01 0.00000E+00
 -1      2715 9.80250E+01 4.13322E+01 0.00000E+00
 -1      2716 9.95250E+01 4.13322E+01 0.00000E+00
 -1      2717 9.72750E+01 4.00332E+01 0.00000E+00
 -1      2718 1.01100E+02 4.13322E+01 0.00000E+00
 -1      2719 1.02675E+02 4.13322E+01 0.00000E+00
 -1      2720 1.00350E+02 4.00332E+01 0.00000E+00
 -1      2721 1.04175E+02 4.13322E+01 0.00000E+00
 -1      2722 1.05675E+02 4.13322E+01 0.00000E+00
 -1      2723 1.03425E+02 4.00332E+01 0.00000E+00
 -1      2724 1.07175E+02 4.13322E+01 0.00000E+00
 -1      2725 1.08675E+02 4.13322E+01 0.00000E+00
 -1      2726 1.06425E+02 4.00332E+01 0.00000E+00
 -1      2727 1.10175E+02 4.13322E+01 0.00000E+00
 -1      2728 1.11675E+02 4.13322E+01 0.00000E+00
 -1      2729 1.09425E+02 4.00332E+01 0.00000E+00
 -1      2730 1.13175E+02 4.13322E+01 0.00000E+00
 -1      2731 1.14675E+02 4.13322E+01 0.00000E+00
 -1      2732 1.12425E+02 4.00332E+01 0.00000E+00
 -1      2733 1.16175E+02 4.13322E+01 0.00000E+00
 -1      2734 1.17675E+02 4.13322E+01 0.00000E+00
 -1      2735 1.15425E+02 4.00332E+01 0.00000E+00
 -1      2736 1.19175E+02 4.13322E+01 0.00000E+00
 -1      2737 1.20675E+02 4.13322E+01 0.00000E+00
 -1      2738 1.18425E+02 4.00332E+01 0.00000E+00
 -1      2739 1.22250E+02 4.13322E+01 0.00000E+00
 -1      2740 1.23825E+02 4.13322E+01 0.00000E+00
 -1      2741 1.21500E+02 4.00332E+01 0.00000E+00
 -1      2742 1.25325E+02 4.13322E+01 0.00000E+00
 -1      2743 1.26825E+02 4.13322E+01 0.00000E+00
 -1      2744 1.24575E+02 4.00332E+01 0.00000E+00
 -1      2745 1.28325E+02 4.13322E+01 0.00000E+00
 -1      2746 1.29825E+02 4.13322E+01 0.00000E+00
 -1      2747 1.27575E+02 4.00332E+01 0.00000E+00
 -1      2748 1.31325E+02 4.13322E+01 0.00000E+00
 -1      2749 1.32825E+02 4.13322E+01 0.00000E+00
 -1      2750 1.30575E+02 4.00332E+01 0.00000E+00
 -1      2751 1.34325E+02 4.13322E+01 0.00000E+00
 -1      2752 1.35825E+02 4.13322E+01 0.00000E+00
 -1      2753 1.33575E+02 4.00332E+01 0.00000E+00
 -1      2754 1.37325E+02 4.13322E+01 0.00000E+00
 -1      2755 1.38825E+02 4.13322E+01 0.00000E+00
 -1      2756 1.36575E+02 4.00332E+01 0.00000E+00
 -1      2757 1.40891E+02 4.11781E+01 0.00000E+00
 -1      2758 2.01240E+01 8.68250E+00 0.00000E+00
 -1      2759 1.86240E+01 8.68250E+00 0.00000E+00
 -1      2760 2.31240E+01 8.68250E+00 0.00000E+00
 -1      2761 2.16240E+01 8.68250E+00 0.00000E+00
 -1      2762 2.08740E+01 9.98150E+00 0.00000E+00
 -1      2763 1.71240E+01 8.68250E+00 0.00000E+00
 -1      2764 1.56240E+01 8.68250E+00 0.00000E+00
 -1      2765 1.78740E+01 9.98150E+00 0.00000E+00
 -1      2766 2.91240E+01 8.68250E+00 0.00000E+00
 -1      2767 2.76240E+01 8.68250E+00 0.00000E+00
 -1      2768 3.21240E+01 8.68250E+00 0.00000E+00
 -1      2769 3.06240E+01 8.68250E+00 0.00000E+00
 -1      2770 2.98740E+01 9.98150E+00 0.00000E+00
 -1      2771 3.51240E+01 8.68250E+00 0.00000E+00
 -1      2772 3.36240E+01 8.68250E+00 0.00000E+00
 -1      2773 3.28740E+01 9.98150E+00 0.00000E+00
 -1      2774 3.81240E+01 8.68250E+00 0.00000E+00
 -1      2775 3.66240E+01 8.68250E+00 0.00000E+00
 -1      2776 3.58740E+01 9.98150E+00 0.00000E+00
 -1      2777 4.11240E+01 8.68250E+00 0.00000E+00
 -1      2778 3.96240E+01 8.68250E+00 0.00000E+00
 -1      2779 3.88740E+01 9.98150E+00 0.00000E+00
 -1      2780 4.41240E+01 8.68250E+00 0.00000E+00
 -1      2781 4.26240E+01 8.68250E+00 0.00000E+00
 -1      2782 4.18740E+01 9.98150E+00 0.00000E+00
 -1      2783 4.71240E+01 8.68250E+00 0.00000E+00
 -1      2784 4.56240E+01 8.68250E+00 0.00000E+00
 -1      2785 4.48740E+01 9.98150E+00 0.00000E+00
 -1      2786 5.01240E+01 8.68250E+00 0.00000E+00
 -1      2787 4.86240E+01 8.68250E+00 0.00000E+00
 -1      2788 4.78740E+01 9.98150E+00 0.00000E+00
 -1      2789 5.31240E+01 8.68250E+00 0.00000E+00
 -1      2790 5.16240E+01 8.68250E+00 0.00000E+00
 -1      2791 5.08740E+01 9.98150E+00 0.00000E+00
 -1      2792 5.61240E+01 8.68250E+00 0.00000E+00
 -1      2793 5.46240E+01 8.68250E+00 0.00000E+00
 -1      2794 5.38740E+01 9.98150E+00 0.00000E+00
 -1      2795 5.91240E+01 8.68250E+00 0.00000E+00
 -1      2796 5.76240E+01 8.68250E+00 0.00000E+00
 -1      2797 5.68740E+01 9.98150E+00 0.00000E+00
 -1      2798 6.21240E+01 8.68250E+00 0.00000E+00
 -1      2799 6.06240E+01 8.68250E+00 0.00000E+00
 -1      2800 5.98740E+01 9.98150E+00 0.00000E+00
 -1      2801 6.51240E+01 8.68250E+00 0.00000E+00
 -1      2802 6.36240E+01 8.68250E+00 0.00000E+00
 -1      2803 6.28740E+01 9.98150E+00 0.00000E+00
 -1      2804 6.81240E+01 8.68250E+00 0.00000E+00
 -1      2805 6.66240E+01 8.68250E+00 0.00000E+00
 -1      2806 6.58740E+01 9.98150E+00 0.00000E+00
 -1      2807 7.11240E+01 8.68250E+00 0.00000E+00
 -1      2808 6.96240E+01 8.68250E+00 0.00000E+00
 -1      2809 6.88740E+01 9.98150E+00 0.00000E+00
 -1      2810 7.41240E+01 8.68250E+00 0.00000E+00
 -1      2811 7.26240E+01 8.68250E+00 0.00000E+00
 -1      2812 7.18740E+01 9.98150E+00 0.00000E+00
 -1      2813 7.71240E+01 8.68250E+00 0.00000E+00
 -1      2814 7.56240E+01 8.68250E+00 0.00000E+00
 -1      2815 7.48740E+01 9.98150E+00 0.00000E+00
 -1      2816 8.01240E+01 8.68250E+00 0.00000E+00
 -1      2817 7.86240E+01 8.68250E+00 0.00000E+00
 -1      2818 7.78740E+01 9.98150E+00 0.00000E+00
 -1      2819 8.31240E+01 8.68250E+00 0.00000E+00
 -1      2820 8.16240E+01 8.68250E+00 0.00000E+00
 -1      2821 8.08740E+01 9.98150E+00 0.00000E+00
 -1      2822 8.61240E+01 8.68250E+00 0.00000E+00
 -1      2823 8.46240E+01 8.68250E+00 0.00000E+00
 -1      2824 8.38740E+01 9.98150E+00 0.00000E+00
 -1      2825 8.91240E+01 8.68250E+00 0.00000E+00
 -1      2826 8.76240E+01 8.68250E+00 0.00000E+00
 -1      2827 8.68740E+01 9.98150E+00 0.00000E+00
 -1      2828 9.21240E+01 8.68250E+00 0.00000E+00
 -1      2829 9.06240E+01 8.68250E+00 0.00000E+00
 -1      2830 8.98740E+01 9.98150E+00 0.00000E+00
 -1      2831 9.51240E+01 8.68250E+00 0.00000E+00
 -1      2832 9.36240E+01 8.68250E+00 0.00000E+00
 -1      2833 9.28740E+01 9.98150E+00 0.00000E+00
 -1      2834 9.81240E+01 8.68250E+00 0.00000E+00
 -1      2835 9.66240E+01 8.68250E+00 0.00000E+00
 -1      2836 9.58740E+01 9.98150E+00 0.00000E+00
 -1      2837 1.01124E+02 8.68250E+00 0.00000E+00
 -1      2838 9.96240E+01 8.68250E+00 0.00000E+00
 -1      2839 9.88740E+01 9.98150E+00 0.00000E+00
 -1      2840 1.04124E+02 8.68250E+00 0.00000E+00
 -1      2841 1.02624E+02 8.68250E+00 0.00000E+00
 -1      2842 1.01874E+02 9.98150E+00 0.00000E+00
 -1      2843 1.07124E+02 8.68250E+00 0.00000E+00
 -1      2844 1.05624E+02 8.68250E+00 0.00000E+00
 -1      2845 1.04874E+02 9.98150E+00 0.00000E+00
 -1      2846 1.10124E+02 8.68250E+00 0.00000E+00
 -1      2847 1.08624E+02 8.68250E+00 0.00000E+00
 -1      2848 1.07874E+02 9.98150E+00 0.00000E+00
 -1      2849 1.13124E+02 8.68250E+00 0.00000E+00
 -1      2850 1.11624E+02 8.68250E+00 0.00000E+00
 -1      2851 1.10874E+02 9.98150E+00 0.00000E+00
 -1      2852 1.16124E+02 8.68250E+00 0.00000E+00
 -1      2853 1.14624E+02 8.68250E+00 0.00000E+00
 -1      2854 1.13874E+02 9.98150E+00 0.00000E+00
 -1      2855 1.19124E+02 8.68250E+00 0.00000E+00
 -1      2856 1.17624E+02 8.68250E+00 0.00000E+00
 -1      2857 1.16874E+02 9.98150E+00 0.00000E+00
 -1      2858 1.22124E+02 8.68250E+00 0.00000E+00
 -1      2859 1.20624E+02 8.68250E+00 0.00000E+00
 -1      2860 1.19874E+02 9.98150E+00 0.00000E+00
 -1      2861 1.25124E+02 8.68250E+00 0.00000E+00
 -1      2862 1.23624E+02 8.68250E+00 0.00000E+00
 -1      2863 1.22874E+02 9.98150E+00 0.00000E+00
 -1      2864 1.28124E+02 8.68250E+00 0.00000E+00
 -1      2865 1.26624E+02 8.68250E+00 0.00000E+00
 -1      2866 1.25874E+02 9.98150E+00 0.00000E+00
 -1      2867 1.31124E+02 8.68250E+00 0.00000E+00
 -1      2868 1.29624E+02 8.68250E+00 0.00000E+00
 -1      2869 1.28874E+02 9.98150E+00 0.00000E+00
 -1      2870 1.34124E+02 8.68250E+00 0.00000E+00
 -1      2871 1.32624E+02 8.68250E+00 0.00000E+00
 -1      2872 1.31874E+02 9.98150E+00 0.00000E+00
 -1      2873 1.37082E+02 8.76838E+00 0.00000E+00
 -1      2874 1.35582E+02 8.76838E+00 0.00000E+00
 -1      2875 1.34832E+02 1.00674E+01 0.00000E+00
 -1      2876 1.37748E+02 1.02391E+01 0.00000E+00
 -1      2877 1.40907E+02 2.13375E+01 0.00000E+00
 -1      2878 1.40907E+02 1.98625E+01 0.00000E+00
 -1      2879 1.40706E+02 1.18000E+01 0.00000E+00
 -1      2880 1.40907E+02 1.83875E+01 0.00000E+00
 -1      2881 1.40907E+02 1.69125E+01 0.00000E+00
 -1      2882 1.39608E+02 1.91250E+01 0.00000E+00
 -1      2883 2.61240E+01 8.68250E+00 0.00000E+00
 -1      2884 2.46240E+01 8.68250E+00 0.00000E+00
 -1      2885 2.38740E+01 9.98150E+00 0.00000E+00
 -1      2886 2.68740E+01 9.98150E+00 0.00000E+00
 -1      2887 1.40907E+02 2.72375E+01 0.00000E+00
 -1      2888 1.40907E+02 2.57625E+01 0.00000E+00
 -1      2889 1.40907E+02 3.01375E+01 0.00000E+00
 -1      2890 1.40907E+02 2.86875E+01 0.00000E+00
 -1      2891 1.39608E+02 2.79500E+01 0.00000E+00
 -1      2892 1.40907E+02 3.30875E+01 0.00000E+00
 -1      2893 1.40907E+02 3.16125E+01 0.00000E+00
 -1      2894 1.39608E+02 3.08750E+01 0.00000E+00
 -1      2895 1.40907E+02 3.60375E+01 0.00000E+00
 -1      2896 1.40907E+02 3.45625E+01 0.00000E+00
 -1      2897 1.39608E+02 3.38250E+01 0.00000E+00
 -1      2898 8.96362E+00 4.05429E+01 0.00000E+00
 -1      2899 1.03271E+01 4.08069E+01 0.00000E+00
 -1      2900 1.10771E+01 3.95079E+01 0.00000E+00
 -1      2901 8.93137E+00 3.93078E+01 0.00000E+00
 -1      2902 6.86260E+01 4.12984E+01 0.00000E+00
 -1      2903 7.23125E+01 4.41900E+01 0.00000E+00
 -1      2904 8.43728E+01 4.48072E+01 0.00000E+00
 -1      2905 6.73696E+01 4.11576E+01 0.00000E+00
 -1      2906 6.78957E+01 4.02500E+01 0.00000E+00
 -1      2907 6.74089E+01 3.90609E+01 0.00000E+00
 -1      2908 6.58696E+01 4.11576E+01 0.00000E+00
 -1      2909 1.40141E+02 3.98791E+01 0.00000E+00
 -1      2910 9.03446E+01 3.10787E+01 0.00000E+00
 -1      2911 9.10967E+01 3.23067E+01 0.00000E+00
 -1      2912 1.40907E+02 2.42875E+01 0.00000E+00
 -1      2913 1.40907E+02 2.28125E+01 0.00000E+00
 -1      2914 1.39608E+02 2.50250E+01 0.00000E+00
 -1      2915 1.40907E+02 1.54625E+01 0.00000E+00
 -1      2916 1.40907E+02 1.40125E+01 0.00000E+00
 -1      2917 1.39608E+02 1.62000E+01 0.00000E+00
 -1      2918 9.20250E+01 4.13322E+01 0.00000E+00
 -1      2919 9.35250E+01 4.13322E+01 0.00000E+00
 -1      2920 9.42750E+01 4.00332E+01 0.00000E+00
 -1      2921 9.14295E+01 3.43446E+01 0.00000E+00
 -1      2922 9.11051E+01 3.56136E+01 0.00000E+00
 -1      2923 9.09300E+00 1.68813E+01 0.00000E+00
 -1      2924 9.09300E+00 1.83563E+01 0.00000E+00
 -1      2925 1.03920E+01 1.90812E+01 0.00000E+00
 -1      2926 1.03920E+01 1.61437E+01 0.00000E+00
 -1      2927 8.78461E+01 2.67535E+01 0.00000E+00
 -1      2928 8.86370E+01 2.75794E+01 0.00000E+00
 -1      2929 8.40415E+01 2.37074E+01 0.00000E+00
 -1      2930 8.49942E+01 2.42894E+01 0.00000E+00
 -1      2931 9.00686E+01 3.86737E+01 0.00000E+00
 -1      2932 8.95613E+01 3.97942E+01 0.00000E+00
 -1      2933 6.79738E+01 2.96183E+01 0.00000E+00
 -1      2934 6.86131E+01 2.86758E+01 0.00000E+00
 -1      2935 7.10331E+01 2.53972E+01 0.00000E+00
 -1      2936 7.19610E+01 2.47418E+01 0.00000E+00
 -1      2937 6.71928E+01 3.77016E+01 0.00000E+00
 -1      2938 6.68664E+01 3.65947E+01 0.00000E+00
 -1      2939 7.55103E+01 2.28067E+01 0.00000E+00
 -1      2940 7.68088E+01 2.25152E+01 0.00000E+00
 -1      2941 6.93064E+01 2.76274E+01 0.00000E+00
 -1      2942 7.00828E+01 2.65774E+01 0.00000E+00
 -1      2943 7.30047E+01 2.41333E+01 0.00000E+00
 -1      2944 7.40484E+01 2.35247E+01 0.00000E+00
 -1      2945 7.19493E+01 2.36236E+01 0.00000E+00
 -1      2946 6.69233E+01 3.17866E+01 0.00000E+00
 -1      2947 6.73282E+01 3.07521E+01 0.00000E+00
 -1      2948 9.07081E+01 3.67109E+01 0.00000E+00
 -1      2949 9.04656E+01 3.75764E+01 0.00000E+00
 -1      2950 9.10695E+01 3.85249E+01 0.00000E+00
 -1      2951 9.18635E+01 3.63303E+01 0.00000E+00
 -1      2952 9.09300E+00 3.15875E+01 0.00000E+00
 -1      2953 9.09300E+00 3.30625E+01 0.00000E+00
 -1      2954 8.91927E+01 4.19703E+01 0.00000E+00
 -1      2955 9.06927E+01 4.17190E+01 0.00000E+00
 -1      2956 9.14427E+01 4.04200E+01 0.00000E+00
 -1      2957 8.87781E+01 4.11935E+01 0.00000E+00
 -1      2958 1.03920E+01 2.49750E+01 0.00000E+00
 -1      2959 9.09300E+00 2.57000E+01 0.00000E+00
 -1      2960 9.09300E+00 2.71750E+01 0.00000E+00
 -1      2961 9.00375E+00 8.96981E+00 0.00000E+00
 -1      2962 6.99553E+01 2.54124E+01 0.00000E+00
 -1      2963 8.00566E+01 2.14256E+01 0.00000E+00
 -1      2964 8.06014E+01 2.23537E+01 0.00000E+00
 -1      2965 8.14641E+01 2.18780E+01 0.00000E+00
 -1      2966 8.58728E+01 4.48072E+01 0.00000E+00
 -1      2967 8.61307E+01 2.39317E+01 0.00000E+00
 -1      2968 9.24258E+01 3.20457E+01 0.00000E+00
 -1      2969 9.19277E+01 3.31951E+01 0.00000E+00
 -1      2970 9.27586E+01 3.40836E+01 0.00000E+00
 -1      2971 9.07556E+01 3.02518E+01 0.00000E+00
 -1      2972 1.48740E+01 9.98151E+00 0.00000E+00
 -1      2973 1.41240E+01 8.68251E+00 0.00000E+00
 -1      2974 1.39608E+02 2.20750E+01 0.00000E+00
 -1      2975 7.44549E+01 2.22970E+01 0.00000E+00
 -1      2976 8.80786E+01 2.55850E+01 0.00000E+00
 -1      2977 1.39407E+02 1.25375E+01 0.00000E+00
 -1      2978 8.93887E+01 2.79598E+01 0.00000E+00
 -1      2979 9.01403E+01 2.83402E+01 0.00000E+00
 -1      2980 8.96125E+01 2.69537E+01 0.00000E+00
 -1      2981 1.40907E+02 3.89875E+01 0.00000E+00
 -1      2982 1.40907E+02 3.75125E+01 0.00000E+00
 -1      2983 6.64231E+01 3.87500E+01 0.00000E+00
 -1      2984 1.39608E+02 3.67750E+01 0.00000E+00
 -1      2985 6.69728E+01 2.98230E+01 0.00000E+00
 -1      2986 1.30515E+01 8.34733E+00 0.00000E+00
 -1      2987 6.51196E+01 3.98586E+01 0.00000E+00
 -1      2988 7.14854E+01 4.29439E+01 0.00000E+00
 -1      2989 6.83117E+01 2.76409E+01 0.00000E+00
 -1      2990 1.03027E+01 9.70731E+00 0.00000E+00
 -1      2991 8.34869E+01 2.30363E+01 0.00000E+00
 -1      2992 8.44103E+01 2.25955E+01 0.00000E+00
 -1      2993 8.29323E+01 2.23653E+01 0.00000E+00
 -1      2994 9.09300E+00 2.86437E+01 0.00000E+00
 -1      2995 9.09300E+00 3.01187E+01 0.00000E+00
 -1      2996 1.03920E+01 3.08563E+01 0.00000E+00
 -1      2997 1.03920E+01 2.79188E+01 0.00000E+00
 -1      2998 6.61450E+01 3.57873E+01 0.00000E+00
 -1      2999 6.54237E+01 3.49799E+01 0.00000E+00
 -1      3000 6.54857E+01 3.65833E+01 0.00000E+00
 -1      3001 6.54870E+01 3.33540E+01 0.00000E+00
 -1      3002 6.62051E+01 3.25703E+01 0.00000E+00
 -1      3003 6.56090E+01 3.17405E+01 0.00000E+00
 -1      3004 9.03914E+01 4.02145E+01 0.00000E+00
 -1      3005 8.92802E+01 4.03864E+01 0.00000E+00
 -1      3006 1.03920E+01 3.37938E+01 0.00000E+00
 -1      3007 9.09300E+00 3.45313E+01 0.00000E+00
 -1      3008 9.09300E+00 3.60000E+01 0.00000E+00
 -1      3009 1.16910E+01 1.24625E+01 0.00000E+00
 -1      3010 1.16910E+01 1.39375E+01 0.00000E+00
 -1      3011 1.14712E+01 7.20138E+00 0.00000E+00
 -1      3012 6.87470E+01 2.54121E+01 0.00000E+00
 -1      3013 6.96973E+01 2.42319E+01 0.00000E+00
 -1      3014 8.99606E+00 3.70363E+01 0.00000E+00
 -1      3015 9.02831E+00 3.82715E+01 0.00000E+00
 -1      3016 1.01012E+01 3.83715E+01 0.00000E+00
 -1      3017 1.02951E+01 3.62988E+01 0.00000E+00
 -1      3018 1.29000E+01 3.83090E+01 0.00000E+00
 -1      3019 1.44000E+01 3.83090E+01 0.00000E+00
 -1      3020 1.59750E+01 3.83090E+01 0.00000E+00
 -1      3021 1.75500E+01 3.83090E+01 0.00000E+00
 -1      3022 1.52250E+01 3.70100E+01 0.00000E+00
 -1      3023 1.90500E+01 3.83090E+01 0.00000E+00
 -1      3024 2.05500E+01 3.83090E+01 0.00000E+00
 -1      3025 1.83000E+01 3.70100E+01 0.00000E+00
 -1      3026 2.20500E+01 3.83090E+01 0.00000E+00
 -1      3027 2.35500E+01 3.83090E+01 0.00000E+00
 -1      3028 2.13000E+01 3.70100E+01 0.00000E+00
 -1      3029 2.50500E+01 3.83090E+01 0.00000E+00
 -1      3030 2.65500E+01 3.83090E+01 0.00000E+00
 -1      3031 2.43000E+01 3.70100E+01 0.00000E+00
 -1      3032 2.80500E+01 3.83090E+01 0.00000E+00
 -1      3033 2.95500E+01 3.83090E+01 0.00000E+00
 -1      3034 2.73000E+01 3.70100E+01 0.00000E+00
 -1      3035 3.10500E+01 3.83090E+01 0.00000E+00
 -1      3036 3.25500E+01 3.83090E+01 0.00000E+00
 -1      3037 3.03000E+01 3.70100E+01 0.00000E+00
 -1      3038 3.40500E+01 3.83090E+01 0.00000E+00
 -1      3039 3.55500E+01 3.83090E+01 0.00000E+00
 -1      3040 3.33000E+01 3.70100E+01 0.00000E+00
 -1      3041 3.71250E+01 3.83090E+01 0.00000E+00
 -1      3042 3.87000E+01 3.83090E+01 0.00000E+00
 -1      3043 3.63750E+01 3.70100E+01 0.00000E+00
 -1      3044 4.02000E+01 3.83090E+01 0.00000E+00
 -1      3045 4.17000E+01 3.83090E+01 0.00000E+00
 -1      3046 3.94500E+01 3.70100E+01 0.00000E+00
 -1      3047 4.32000E+01 3.83090E+01 0.00000E+00
 -1      3048 4.47000E+01 3.83090E+01 0.00000E+00
 -1      3049 4.24500E+01 3.70100E+01 0.00000E+00
 -1      3050 4.62000E+01 3.83090E+01 0.00000E+00
 -1      3051 4.77000E+01 3.83090E+01 0.00000E+00
 -1      3052 4.54500E+01 3.70100E+01 0.00000E+00
 -1      3053 4.92000E+01 3.83090E+01 0.00000E+00
 -1      3054 5.07000E+01 3.83090E+01 0.00000E+00
 -1      3055 4.84500E+01 3.70100E+01 0.00000E+00
 -1      3056 5.22000E+01 3.83090E+01 0.00000E+00
 -1      3057 5.37000E+01 3.83090E+01 0.00000E+00
 -1      3058 5.14500E+01 3.70100E+01 0.00000E+00
 -1      3059 5.52000E+01 3.83090E+01 0.00000E+00
 -1      3060 5.67000E+01 3.83090E+01 0.00000E+00
 -1      3061 5.44500E+01 3.70100E+01 0.00000E+00
 -1      3062 5.82000E+01 3.83090E+01 0.00000E+00
 -1      3063 5.97000E+01 3.83090E+01 0.00000E+00
 -1      3064 5.74500E+01 3.70100E+01 0.00000E+00
 -1      3065 6.12750E+01 3.83090E+01 0.00000E+00
 -1      3066 6.28500E+01 3.83090E+01 0.00000E+00
 -1      3067 6.05250E+01 3.70100E+01 0.00000E+00
 -1      3068 9.35250E+01 3.89243E+01 0.00000E+00
 -1      3069 9.50250E+01 3.89243E+01 0.00000E+00
 -1      3070 1.38842E+02 3.91416E+01 0.00000E+00
 -1      3071 8.61803E+01 2.24904E+01 0.00000E+00
 -1      3072 8.73461E+01 2.31554E+01 0.00000E+00
 -1      3073 1.56240E+01 1.12805E+01 0.00000E+00
 -1      3074 1.41241E+01 1.12805E+01 0.00000E+00
 -1      3075 9.95625E+01 3.87342E+01 0.00000E+00
 -1      3076 1.01137E+02 3.87342E+01 0.00000E+00
 -1      3077 1.02637E+02 3.87342E+01 0.00000E+00
 -1      3078 1.04137E+02 3.87342E+01 0.00000E+00
 -1      3079 1.01850E+02 3.74352E+01 0.00000E+00
 -1      3080 1.05637E+02 3.87342E+01 0.00000E+00
 -1      3081 1.07137E+02 3.87342E+01 0.00000E+00
 -1      3082 1.04850E+02 3.74352E+01 0.00000E+00
 -1      3083 1.08637E+02 3.87342E+01 0.00000E+00
 -1      3084 1.10137E+02 3.87342E+01 0.00000E+00
 -1      3085 1.07850E+02 3.74352E+01 0.00000E+00
 -1      3086 1.11637E+02 3.87342E+01 0.00000E+00
 -1      3087 1.13137E+02 3.87342E+01 0.00000E+00
 -1      3088 1.10850E+02 3.74352E+01 0.00000E+00
 -1      3089 1.14637E+02 3.87342E+01 0.00000E+00
 -1      3090 1.16137E+02 3.87342E+01 0.00000E+00
 -1      3091 1.13850E+02 3.74352E+01 0.00000E+00
 -1      3092 1.17637E+02 3.87342E+01 0.00000E+00
 -1      3093 1.19137E+02 3.87342E+01 0.00000E+00
 -1      3094 1.16850E+02 3.74352E+01 0.00000E+00
 -1      3095 1.20713E+02 3.87342E+01 0.00000E+00
 -1      3096 1.22287E+02 3.87342E+01 0.00000E+00
 -1      3097 1.19925E+02 3.74352E+01 0.00000E+00
 -1      3098 1.23787E+02 3.87342E+01 0.00000E+00
 -1      3099 1.25287E+02 3.87342E+01 0.00000E+00
 -1      3100 1.23000E+02 3.74352E+01 0.00000E+00
 -1      3101 1.26787E+02 3.87342E+01 0.00000E+00
 -1      3102 1.28288E+02 3.87342E+01 0.00000E+00
 -1      3103 1.26000E+02 3.74352E+01 0.00000E+00
 -1      3104 1.29788E+02 3.87342E+01 0.00000E+00
 -1      3105 1.31288E+02 3.87342E+01 0.00000E+00
 -1      3106 1.29000E+02 3.74352E+01 0.00000E+00
 -1      3107 1.32788E+02 3.87342E+01 0.00000E+00
 -1      3108 1.34288E+02 3.87342E+01 0.00000E+00
 -1      3109 1.32000E+02 3.74352E+01 0.00000E+00
 -1      3110 1.35788E+02 3.87342E+01 0.00000E+00
 -1      3111 1.37288E+02 3.87342E+01 0.00000E+00
 -1      3112 1.35000E+02 3.74352E+01 0.00000E+00
 -1      3113 1.38309E+02 3.16125E+01 0.00000E+00
 -1      3114 1.38309E+02 3.01375E+01 0.00000E+00
 -1      3115 1.38309E+02 2.28125E+01 0.00000E+00
 -1      3116 1.38309E+02 2.13375E+01 0.00000E+00
 -1      3117 2.16240E+01 1.12805E+01 0.00000E+00
 -1      3118 2.01240E+01 1.12805E+01 0.00000E+00
 -1      3119 1.86240E+01 1.12805E+01 0.00000E+00
 -1      3120 1.71240E+01 1.12805E+01 0.00000E+00
 -1      3121 1.63741E+01 1.25795E+01 0.00000E+00
 -1      3122 1.93740E+01 1.25795E+01 0.00000E+00
 -1      3123 3.36240E+01 1.12805E+01 0.00000E+00
 -1      3124 3.21240E+01 1.12805E+01 0.00000E+00
 -1      3125 3.06240E+01 1.12805E+01 0.00000E+00
 -1      3126 2.91240E+01 1.12805E+01 0.00000E+00
 -1      3127 3.13740E+01 1.25795E+01 0.00000E+00
 -1      3128 3.96240E+01 1.12805E+01 0.00000E+00
 -1      3129 3.81240E+01 1.12805E+01 0.00000E+00
 -1      3130 4.26240E+01 1.12805E+01 0.00000E+00
 -1      3131 4.11240E+01 1.12805E+01 0.00000E+00
 -1      3132 4.03740E+01 1.25795E+01 0.00000E+00
 -1      3133 4.56240E+01 1.12805E+01 0.00000E+00
 -1      3134 4.41240E+01 1.12805E+01 0.00000E+00
 -1      3135 4.33740E+01 1.25795E+01 0.00000E+00
 -1      3136 4.86240E+01 1.12805E+01 0.00000E+00
 -1      3137 4.71240E+01 1.12805E+01 0.00000E+00
 -1      3138 4.63740E+01 1.25795E+01 0.00000E+00
 -1      3139 5.16240E+01 1.12805E+01 0.00000E+00
 -1      3140 5.01240E+01 1.12805E+01 0.00000E+00
 -1      3141 4.93740E+01 1.25795E+01 0.00000E+00
 -1      3142 5.46240E+01 1.12805E+01 0.00000E+00
 -1      3143 5.31240E+01 1.12805E+01 0.00000E+00
 -1      3144 5.23740E+01 1.25795E+01 0.00000E+00
 -1      3145 5.76240E+01 1.12805E+01 0.00000E+00
 -1      3146 5.61240E+01 1.12805E+01 0.00000E+00
 -1      3147 5.53740E+01 1.25795E+01 0.00000E+00
 -1      3148 6.06240E+01 1.12805E+01 0.00000E+00
 -1      3149 5.91240E+01 1.12805E+01 0.00000E+00
 -1      3150 5.83740E+01 1.25795E+01 0.00000E+00
 -1      3151 6.36240E+01 1.12805E+01 0.00000E+00
 -1      3152 6.21240E+01 1.12805E+01 0.00000E+00
 -1      3153 6.13740E+01 1.25795E+01 0.00000E+00
 -1      3154 6.66240E+01 1.12805E+01 0.00000E+00
 -1      3155 6.51240E+01 1.12805E+01 0.00000E+00
 -1      3156 6.43740E+01 1.25795E+01 0.00000E+00
 -1      3157 6.96240E+01 1.12805E+01 0.00000E+00
 -1      3158 6.81240E+01 1.12805E+01 0.00000E+00
 -1      3159 6.73740E+01 1.25795E+01 0.00000E+00
 -1      3160 7.26240E+01 1.12805E+01 0.00000E+00
 -1      3161 7.11240E+01 1.12805E+01 0.00000E+00
 -1      3162 7.03740E+01 1.25795E+01 0.00000E+00
 -1      3163 7.56240E+01 1.12805E+01 0.00000E+00
 -1      3164 7.41240E+01 1.12805E+01 0.00000E+00
 -1      3165 7.33740E+01 1.25795E+01 0.00000E+00
 -1      3166 7.86240E+01 1.12805E+01 0.00000E+00
 -1      3167 7.71240E+01 1.12805E+01 0.00000E+00
 -1      3168 7.63740E+01 1.25795E+01 0.00000E+00
 -1      3169 8.16240E+01 1.12805E+01 0.00000E+00
 -1      3170 8.01240E+01 1.12805E+01 0.00000E+00
 -1      3171 7.93740E+01 1.25795E+01 0.00000E+00
 -1      3172 8.46240E+01 1.12805E+01 0.00000E+00
 -1      3173 8.31240E+01 1.12805E+01 0.00000E+00
 -1      3174 8.23740E+01 1.25795E+01 0.00000E+00
 -1      3175 8.76240E+01 1.12805E+01 0.00000E+00
 -1      3176 8.61240E+01 1.12805E+01 0.00000E+00
 -1      3177 8.53740E+01 1.25795E+01 0.00000E+00
 -1      3178 9.06240E+01 1.12805E+01 0.00000E+00
 -1      3179 8.91240E+01 1.12805E+01 0.00000E+00
 -1      3180 8.83740E+01 1.25795E+01 0.00000E+00
 -1      3181 9.36240E+01 1.12805E+01 0.00000E+00
 -1      3182 9.21240E+01 1.12805E+01 0.00000E+00
 -1      3183 9.13740E+01 1.25795E+01 0.00000E+00
 -1      3184 9.66240E+01 1.12805E+01 0.00000E+00
 -1      3185 9.51240E+01 1.12805E+01 0.00000E+00
 -1      3186 9.43740E+01 1.25795E+01 0.00000E+00
 -1      3187 9.96240E+01 1.12805E+01 0.00000E+00
 -1      3188 9.81240E+01 1.12805E+01 0.00000E+00
 -1      3189 9.73740E+01 1.25795E+01 0.00000E+00
 -1      3190 1.02624E+02 1.12805E+01 0.00000E+00
 -1      3191 1.01124E+02 1.12805E+01 0.00000E+00
 -1      3192 1.00374E+02 1.25795E+01 0.00000E+00
 -1      3193 1.05624E+02 1.12805E+01 0.00000E+00
 -1      3194 1.04124E+02 1.12805E+01 0.00000E+00
 -1      3195 1.03374E+02 1.25795E+01 0.00000E+00
 -1      3196 1.08624E+02 1.12805E+01 0.00000E+00
 -1      3197 1.07124E+02 1.12805E+01 0.00000E+00
 -1      3198 1.06374E+02 1.25795E+01 0.00000E+00
 -1      3199 1.11624E+02 1.12805E+01 0.00000E+00
 -1      3200 1.10124E+02 1.12805E+01 0.00000E+00
 -1      3201 1.09374E+02 1.25795E+01 0.00000E+00
 -1      3202 1.14624E+02 1.12805E+01 0.00000E+00
 -1      3203 1.13124E+02 1.12805E+01 0.00000E+00
 -1      3204 1.12374E+02 1.25795E+01 0.00000E+00
 -1      3205 1.17624E+02 1.12805E+01 0.00000E+00
 -1      3206 1.16124E+02 1.12805E+01 0.00000E+00
 -1      3207 1.15374E+02 1.25795E+01 0.00000E+00
 -1      3208 1.20624E+02 1.12805E+01 0.00000E+00
 -1      3209 1.19124E+02 1.12805E+01 0.00000E+00
 -1      3210 1.18374E+02 1.25795E+01 0.00000E+00
 -1      3211 1.23624E+02 1.12805E+01 0.00000E+00
 -1      3212 1.22124E+02 1.12805E+01 0.00000E+00
 -1      3213 1.21374E+02 1.25795E+01 0.00000E+00
 -1      3214 1.26624E+02 1.12805E+01 0.00000E+00
 -1      3215 1.25124E+02 1.12805E+01 0.00000E+00
 -1      3216 1.24374E+02 1.25795E+01 0.00000E+00
 -1      3217 1.29624E+02 1.12805E+01 0.00000E+00
 -1      3218 1.28124E+02 1.12805E+01 0.00000E+00
 -1      3219 1.27374E+02 1.25795E+01 0.00000E+00
 -1      3220 1.32624E+02 1.12805E+01 0.00000E+00
 -1      3221 1.31124E+02 1.12805E+01 0.00000E+00
 -1      3222 1.30374E+02 1.25795E+01 0.00000E+00
 -1      3223 1.38309E+02 1.98625E+01 0.00000E+00
 -1      3224 1.38309E+02 1.83875E+01 0.00000E+00
 -1      3225 1.37010E+02 2.06000E+01 0.00000E+00
 -1      3226 1.38309E+02 3.45625E+01 0.00000E+00
 -1      3227 1.38309E+02 3.30875E+01 0.00000E+00
 -1      3228 1.37010E+02 3.23500E+01 0.00000E+00
 -1      3229 1.38309E+02 2.86875E+01 0.00000E+00
 -1      3230 1.38309E+02 2.72375E+01 0.00000E+00
 -1      3231 1.37010E+02 2.94250E+01 0.00000E+00
 -1      3232 6.59048E+01 2.99656E+01 0.00000E+00
 -1      3233 6.65504E+01 2.88318E+01 0.00000E+00
 -1      3234 6.49035E+01 3.84993E+01 0.00000E+00
 -1      3235 7.33089E+01 2.18112E+01 0.00000E+00
 -1      3236 7.47708E+01 2.10931E+01 0.00000E+00
 -1      3237 7.09111E+01 2.30423E+01 0.00000E+00
 -1      3238 7.19548E+01 2.24338E+01 0.00000E+00
 -1      3239 3.66240E+01 1.12805E+01 0.00000E+00
 -1      3240 3.51240E+01 1.12805E+01 0.00000E+00
 -1      3241 3.43740E+01 1.25795E+01 0.00000E+00
 -1      3242 3.73740E+01 1.25795E+01 0.00000E+00
 -1      3243 1.38309E+02 1.69375E+01 0.00000E+00
 -1      3244 1.38309E+02 1.54875E+01 0.00000E+00
 -1      3245 1.37010E+02 1.76750E+01 0.00000E+00
 -1      3246 9.10265E+01 2.91592E+01 0.00000E+00
 -1      3247 9.18657E+01 3.00647E+01 0.00000E+00
 -1      3248 9.65625E+01 3.87342E+01 0.00000E+00
 -1      3249 9.80625E+01 3.87342E+01 0.00000E+00
 -1      3250 9.88500E+01 3.74352E+01 0.00000E+00
 -1      3251 1.16910E+01 2.12875E+01 0.00000E+00
 -1      3252 1.16910E+01 2.27625E+01 0.00000E+00
 -1      3253 1.17938E+01 8.83558E+00 0.00000E+00
 -1      3254 1.18830E+01 1.08533E+01 0.00000E+00
 -1      3255 7.71049E+01 2.13399E+01 0.00000E+00
 -1      3256 7.79970E+01 2.22762E+01 0.00000E+00
 -1      3257 8.84256E+01 2.45066E+01 0.00000E+00
 -1      3258 8.92079E+01 2.54949E+01 0.00000E+00
 -1      3259 7.87436E+01 2.15011E+01 0.00000E+00
 -1      3260 6.71799E+01 2.76458E+01 0.00000E+00
 -1      3261 6.78732E+01 2.65975E+01 0.00000E+00
 -1      3262 1.38129E+02 1.39696E+01 0.00000E+00
 -1      3263 1.37928E+02 1.17571E+01 0.00000E+00
 -1      3264 1.36470E+02 1.16712E+01 0.00000E+00
 -1      3265 1.36830E+02 1.47071E+01 0.00000E+00
 -1      3266 1.38309E+02 2.57625E+01 0.00000E+00
 -1      3267 1.38309E+02 2.42875E+01 0.00000E+00
 -1      3268 1.37010E+02 2.35500E+01 0.00000E+00
 -1      3269 1.37010E+02 2.65000E+01 0.00000E+00
 -1      3270 1.38054E+02 3.78426E+01 0.00000E+00
 -1      3271 6.41535E+01 3.72003E+01 0.00000E+00
 -1      3272 7.62921E+01 2.03723E+01 0.00000E+00
 -1      3273 7.74804E+01 2.01333E+01 0.00000E+00
 -1      3274 7.91559E+01 2.06253E+01 0.00000E+00
 -1      3275 7.96062E+01 2.10254E+01 0.00000E+00
 -1      3276 8.04689E+01 2.05498E+01 0.00000E+00
 -1      3277 6.76152E+01 2.54170E+01 0.00000E+00
 -1      3278 9.58125E+01 3.76253E+01 0.00000E+00
 -1      3279 9.21207E+01 3.87304E+01 0.00000E+00
 -1      3280 9.28707E+01 3.76215E+01 0.00000E+00
 -1      3281 7.83431E+01 1.96576E+01 0.00000E+00
 -1      3282 7.92058E+01 1.91820E+01 0.00000E+00
 -1      3283 7.75303E+01 1.86900E+01 0.00000E+00
 -1      3284 8.56257E+01 2.18193E+01 0.00000E+00
 -1      3285 8.68411E+01 2.10431E+01 0.00000E+00
 -1      3286 8.50711E+01 2.11482E+01 0.00000E+00
 -1      3287 1.16910E+01 1.54063E+01 0.00000E+00
 -1      3288 1.16910E+01 1.68750E+01 0.00000E+00
 -1      3289 1.29900E+01 1.46687E+01 0.00000E+00
 -1      3290 9.26966E+01 3.09531E+01 0.00000E+00
 -1      3291 9.35276E+01 3.18415E+01 0.00000E+00
 -1      3292 9.29675E+01 2.98605E+01 0.00000E+00
 -1      3293 1.39320E+01 1.28898E+01 0.00000E+00
 -1      3294 1.31820E+01 1.15908E+01 0.00000E+00
 -1      3295 6.61119E+01 2.77883E+01 0.00000E+00
 -1      3296 1.38054E+02 3.63676E+01 0.00000E+00
 -1      3297 2.83740E+01 1.25795E+01 0.00000E+00
 -1      3298 2.76240E+01 1.12805E+01 0.00000E+00
 -1      3299 2.61240E+01 1.12805E+01 0.00000E+00
 -1      3300 1.35276E+02 1.15188E+01 0.00000E+00
 -1      3301 1.33818E+02 1.14329E+01 0.00000E+00
 -1      3302 1.33068E+02 1.27319E+01 0.00000E+00
 -1      3303 1.35456E+02 1.30367E+01 0.00000E+00
 -1      3304 8.99595E+01 2.58753E+01 0.00000E+00
 -1      3305 9.07112E+01 2.62558E+01 0.00000E+00
 -1      3306 9.03065E+01 2.47970E+01 0.00000E+00
 -1      3307 1.36755E+02 3.56301E+01 0.00000E+00
 -1      3308 8.84753E+01 2.30654E+01 0.00000E+00
 -1      3309 6.51866E+01 3.07492E+01 0.00000E+00
 -1      3310 6.47642E+01 2.97580E+01 0.00000E+00
 -1      3311 6.44685E+01 3.15329E+01 0.00000E+00
 -1      3312 1.11741E+01 3.84716E+01 0.00000E+00
 -1      3313 7.51462E+01 1.98864E+01 0.00000E+00
 -1      3314 1.19241E+01 3.71726E+01 0.00000E+00
 -1      3315 7.22707E+01 2.12298E+01 0.00000E+00
 -1      3316 2.46240E+01 1.12805E+01 0.00000E+00
 -1      3317 2.31240E+01 1.12805E+01 0.00000E+00
 -1      3318 2.23740E+01 1.25795E+01 0.00000E+00
 -1      3319 2.53740E+01 1.25795E+01 0.00000E+00
 -1      3320 6.97028E+01 2.30420E+01 0.00000E+00
 -1      3321 6.97083E+01 2.18522E+01 0.00000E+00
 -1      3322 6.84944E+01 2.30418E+01 0.00000E+00
 -1      3323 9.12503E+01 2.81531E+01 0.00000E+00
 -1      3324 9.32678E+01 3.65242E+01 0.00000E+00
 -1      3325 8.23875E+01 2.14372E+01 0.00000E+00
 -1      3326 8.33109E+01 2.09964E+01 0.00000E+00
 -1      3327 8.18427E+01 2.05091E+01 0.00000E+00
 -1      3328 6.41683E+01 3.49460E+01 0.00000E+00
 -1      3329 6.48276E+01 3.41500E+01 0.00000E+00
 -1      3330 6.42315E+01 3.33202E+01 0.00000E+00
 -1      3331 9.37820E+01 3.52088E+01 0.00000E+00
 -1      3332 9.47892E+01 3.65000E+01 0.00000E+00
 -1      3333 9.63267E+01 3.63100E+01 0.00000E+00
 -1      3334 9.42801E+01 3.40594E+01 0.00000E+00
 -1      3335 1.16910E+01 2.42375E+01 0.00000E+00
 -1      3336 1.16910E+01 2.57125E+01 0.00000E+00
 -1      3337 1.29900E+01 2.35000E+01 0.00000E+00
 -1      3338 1.16910E+01 1.83469E+01 0.00000E+00
 -1      3339 1.16910E+01 1.98156E+01 0.00000E+00
 -1      3340 1.29900E+01 2.05531E+01 0.00000E+00
 -1      3341 1.29900E+01 1.76094E+01 0.00000E+00
 -1      3342 1.16910E+01 3.30594E+01 0.00000E+00
 -1      3343 1.16910E+01 3.45281E+01 0.00000E+00
 -1      3344 1.16910E+01 3.15906E+01 0.00000E+00
 -1      3345 1.29900E+01 3.23250E+01 0.00000E+00
 -1      3346 1.16910E+01 3.01219E+01 0.00000E+00
 -1      3347 7.38748E+01 1.91690E+01 0.00000E+00
 -1      3348 7.53962E+01 1.84482E+01 0.00000E+00
 -1      3349 6.63531E+01 2.54014E+01 0.00000E+00
 -1      3350 6.72269E+01 2.42161E+01 0.00000E+00
 -1      3351 1.44375E+01 3.57110E+01 0.00000E+00
 -1      3352 1.60125E+01 3.57110E+01 0.00000E+00
 -1      3353 1.01100E+02 3.61362E+01 0.00000E+00
 -1      3354 1.02600E+02 3.61362E+01 0.00000E+00
 -1      3355 1.75125E+01 3.57110E+01 0.00000E+00
 -1      3356 1.90125E+01 3.57110E+01 0.00000E+00
 -1      3357 1.67250E+01 3.44120E+01 0.00000E+00
 -1      3358 2.05125E+01 3.57110E+01 0.00000E+00
 -1      3359 2.20125E+01 3.57110E+01 0.00000E+00
 -1      3360 1.97250E+01 3.44120E+01 0.00000E+00
 -1      3361 2.35125E+01 3.57110E+01 0.00000E+00
 -1      3362 2.50125E+01 3.57110E+01 0.00000E+00
 -1      3363 2.27250E+01 3.44120E+01 0.00000E+00
 -1      3364 2.65125E+01 3.57110E+01 0.00000E+00
 -1      3365 2.80125E+01 3.57110E+01 0.00000E+00
 -1      3366 2.57250E+01 3.44120E+01 0.00000E+00
 -1      3367 2.95125E+01 3.57110E+01 0.00000E+00
 -1      3368 3.10125E+01 3.57110E+01 0.00000E+00
 -1      3369 2.87250E+01 3.44120E+01 0.00000E+00
 -1      3370 3.25125E+01 3.57110E+01 0.00000E+00
 -1      3371 3.40125E+01 3.57110E+01 0.00000E+00
 -1      3372 3.17250E+01 3.44120E+01 0.00000E+00
 -1      3373 3.55875E+01 3.57110E+01 0.00000E+00
 -1      3374 3.71625E+01 3.57110E+01 0.00000E+00
 -1      3375 3.48000E+01 3.44120E+01 0.00000E+00
 -1      3376 3.86625E+01 3.57110E+01 0.00000E+00
 -1      3377 4.01625E+01 3.57110E+01 0.00000E+00
 -1      3378 3.78750E+01 3.44120E+01 0.00000E+00
 -1      3379 4.16625E+01 3.57110E+01 0.00000E+00
 -1      3380 4.31625E+01 3.57110E+01 0.00000E+00
 -1      3381 4.08750E+01 3.44120E+01 0.00000E+00
 -1      3382 4.46625E+01 3.57110E+01 0.00000E+00
 -1      3383 4.61625E+01 3.57110E+01 0.00000E+00
 -1      3384 4.38750E+01 3.44120E+01 0.00000E+00
 -1      3385 4.76625E+01 3.57110E+01 0.00000E+00
 -1      3386 4.91625E+01 3.57110E+01 0.00000E+00
 -1      3387 4.68750E+01 3.44120E+01 0.00000E+00
 -1      3388 5.06625E+01 3.57110E+01 0.00000E+00
 -1      3389 5.21625E+01 3.57110E+01 0.00000E+00
 -1      3390 4.98750E+01 3.44120E+01 0.00000E+00
 -1      3391 5.36625E+01 3.57110E+01 0.00000E+00
 -1      3392 5.51625E+01 3.57110E+01 0.00000E+00
 -1      3393 5.28750E+01 3.44120E+01 0.00000E+00
 -1      3394 5.66625E+01 3.57110E+01 0.00000E+00
 -1      3395 5.81625E+01 3.57110E+01 0.00000E+00
 -1      3396 5.58750E+01 3.44120E+01 0.00000E+00
 -1      3397 5.97375E+01 3.57110E+01 0.00000E+00
 -1      3398 6.13125E+01 3.57110E+01 0.00000E+00
 -1      3399 5.89500E+01 3.44120E+01 0.00000E+00
 -1      3400 1.48741E+01 1.40483E+01 0.00000E+00
 -1      3401 1.39320E+01 1.43585E+01 0.00000E+00
 -1      3402 1.39320E+01 1.58273E+01 0.00000E+00
 -1      3403 6.48917E+01 2.79007E+01 0.00000E+00
 -1      3404 6.55212E+01 2.67147E+01 0.00000E+00
 -1      3405 1.04100E+02 3.61362E+01 0.00000E+00
 -1      3406 1.05600E+02 3.61362E+01 0.00000E+00
 -1      3407 1.03350E+02 3.48372E+01 0.00000E+00
 -1      3408 1.07100E+02 3.61362E+01 0.00000E+00
 -1      3409 1.08600E+02 3.61362E+01 0.00000E+00
 -1      3410 1.06350E+02 3.48372E+01 0.00000E+00
 -1      3411 1.10100E+02 3.61362E+01 0.00000E+00
 -1      3412 1.11600E+02 3.61362E+01 0.00000E+00
 -1      3413 1.09350E+02 3.48372E+01 0.00000E+00
 -1      3414 1.13100E+02 3.61362E+01 0.00000E+00
 -1      3415 1.14600E+02 3.61362E+01 0.00000E+00
 -1      3416 1.12350E+02 3.48372E+01 0.00000E+00
 -1      3417 1.16100E+02 3.61362E+01 0.00000E+00
 -1      3418 1.17600E+02 3.61362E+01 0.00000E+00
 -1      3419 1.15350E+02 3.48372E+01 0.00000E+00
 -1      3420 1.19175E+02 3.61362E+01 0.00000E+00
 -1      3421 1.20750E+02 3.61362E+01 0.00000E+00
 -1      3422 1.18425E+02 3.48372E+01 0.00000E+00
 -1      3423 1.22250E+02 3.61362E+01 0.00000E+00
 -1      3424 1.23750E+02 3.61362E+01 0.00000E+00
 -1      3425 1.21500E+02 3.48372E+01 0.00000E+00
 -1      3426 1.25250E+02 3.61362E+01 0.00000E+00
 -1      3427 1.26750E+02 3.61362E+01 0.00000E+00
 -1      3428 1.24500E+02 3.48372E+01 0.00000E+00
 -1      3429 1.28250E+02 3.61362E+01 0.00000E+00
 -1      3430 1.29750E+02 3.61362E+01 0.00000E+00
 -1      3431 1.27500E+02 3.48372E+01 0.00000E+00
 -1      3432 1.31250E+02 3.61362E+01 0.00000E+00
 -1      3433 1.32750E+02 3.61362E+01 0.00000E+00
 -1      3434 1.30500E+02 3.48372E+01 0.00000E+00
 -1      3435 1.34003E+02 3.58832E+01 0.00000E+00
 -1      3436 1.35503E+02 3.58832E+01 0.00000E+00
 -1      3437 1.35758E+02 3.40781E+01 0.00000E+00
 -1      3438 1.33253E+02 3.45842E+01 0.00000E+00
 -1      3439 1.35758E+02 3.26031E+01 0.00000E+00
 -1      3440 1.35758E+02 3.11281E+01 0.00000E+00
 -1      3441 1.34505E+02 3.28561E+01 0.00000E+00
 -1      3442 3.21240E+01 1.38785E+01 0.00000E+00
 -1      3443 3.06240E+01 1.38785E+01 0.00000E+00
 -1      3444 4.41240E+01 1.38785E+01 0.00000E+00
 -1      3445 4.26240E+01 1.38785E+01 0.00000E+00
 -1      3446 4.11240E+01 1.38785E+01 0.00000E+00
 -1      3447 3.96240E+01 1.38785E+01 0.00000E+00
 -1      3448 4.18740E+01 1.51775E+01 0.00000E+00
 -1      3449 5.01240E+01 1.38785E+01 0.00000E+00
 -1      3450 4.86240E+01 1.38785E+01 0.00000E+00
 -1      3451 5.31240E+01 1.38785E+01 0.00000E+00
 -1      3452 5.16240E+01 1.38785E+01 0.00000E+00
 -1      3453 5.08740E+01 1.51775E+01 0.00000E+00
 -1      3454 5.61240E+01 1.38785E+01 0.00000E+00
 -1      3455 5.46240E+01 1.38785E+01 0.00000E+00
 -1      3456 5.38740E+01 1.51775E+01 0.00000E+00
 -1      3457 5.91240E+01 1.38785E+01 0.00000E+00
 -1      3458 5.76240E+01 1.38785E+01 0.00000E+00
 -1      3459 5.68740E+01 1.51775E+01 0.00000E+00
 -1      3460 6.21240E+01 1.38785E+01 0.00000E+00
 -1      3461 6.06240E+01 1.38785E+01 0.00000E+00
 -1      3462 5.98740E+01 1.51775E+01 0.00000E+00
 -1      3463 6.51240E+01 1.38785E+01 0.00000E+00
 -1      3464 6.36240E+01 1.38785E+01 0.00000E+00
 -1      3465 6.28740E+01 1.51775E+01 0.00000E+00
 -1      3466 6.81240E+01 1.38785E+01 0.00000E+00
 -1      3467 6.66240E+01 1.38785E+01 0.00000E+00
 -1      3468 6.58740E+01 1.51775E+01 0.00000E+00
 -1      3469 7.11240E+01 1.38785E+01 0.00000E+00
 -1      3470 6.96240E+01 1.38785E+01 0.00000E+00
 -1      3471 6.88740E+01 1.51775E+01 0.00000E+00
 -1      3472 7.71240E+01 1.38785E+01 0.00000E+00
 -1      3473 7.56240E+01 1.38785E+01 0.00000E+00
 -1      3474 8.01240E+01 1.38785E+01 0.00000E+00
 -1      3475 7.86240E+01 1.38785E+01 0.00000E+00
 -1      3476 7.78740E+01 1.51775E+01 0.00000E+00
 -1      3477 8.31240E+01 1.38785E+01 0.00000E+00
 -1      3478 8.16240E+01 1.38785E+01 0.00000E+00
 -1      3479 8.08740E+01 1.51775E+01 0.00000E+00
 -1      3480 8.61240E+01 1.38785E+01 0.00000E+00
 -1      3481 8.46240E+01 1.38785E+01 0.00000E+00
 -1      3482 8.38740E+01 1.51775E+01 0.00000E+00
 -1      3483 8.91240E+01 1.38785E+01 0.00000E+00
 -1      3484 8.76240E+01 1.38785E+01 0.00000E+00
 -1      3485 8.68740E+01 1.51775E+01 0.00000E+00
 -1      3486 9.21240E+01 1.38785E+01 0.00000E+00
 -1      3487 9.06240E+01 1.38785E+01 0.00000E+00
 -1      3488 8.98740E+01 1.51775E+01 0.00000E+00
 -1      3489 9.51240E+01 1.38785E+01 0.00000E+00
 -1      3490 9.36240E+01 1.38785E+01 0.00000E+00
 -1      3491 9.28740E+01 1.51775E+01 0.00000E+00
 -1      3492 9.81240E+01 1.38785E+01 0.00000E+00
 -1      3493 9.66240E+01 1.38785E+01 0.00000E+00
 -1      3494 9.58740E+01 1.51775E+01 0.00000E+00
 -1      3495 1.01124E+02 1.38785E+01 0.00000E+00
 -1      3496 9.96240E+01 1.38785E+01 0.00000E+00
 -1      3497 9.88740E+01 1.51775E+01 0.00000E+00
 -1      3498 1.04124E+02 1.38785E+01 0.00000E+00
 -1      3499 1.02624E+02 1.38785E+01 0.00000E+00
 -1      3500 1.01874E+02 1.51775E+01 0.00000E+00
 -1      3501 1.07124E+02 1.38785E+01 0.00000E+00
 -1      3502 1.05624E+02 1.38785E+01 0.00000E+00
 -1      3503 1.04874E+02 1.51775E+01 0.00000E+00
 -1      3504 1.10124E+02 1.38785E+01 0.00000E+00
 -1      3505 1.08624E+02 1.38785E+01 0.00000E+00
 -1      3506 1.07874E+02 1.51775E+01 0.00000E+00
 -1      3507 1.13124E+02 1.38785E+01 0.00000E+00
 -1      3508 1.11624E+02 1.38785E+01 0.00000E+00
 -1      3509 1.10874E+02 1.51775E+01 0.00000E+00
 -1      3510 1.16124E+02 1.38785E+01 0.00000E+00
 -1      3511 1.14624E+02 1.38785E+01 0.00000E+00
 -1      3512 1.13874E+02 1.51775E+01 0.00000E+00
 -1      3513 1.19124E+02 1.38785E+01 0.00000E+00
 -1      3514 1.17624E+02 1.38785E+01 0.00000E+00
 -1      3515 1.16874E+02 1.51775E+01 0.00000E+00
 -1      3516 1.22124E+02 1.38785E+01 0.00000E+00
 -1      3517 1.20624E+02 1.38785E+01 0.00000E+00
 -1      3518 1.19874E+02 1.51775E+01 0.00000E+00
 -1      3519 1.25124E+02 1.38785E+01 0.00000E+00
 -1      3520 1.23624E+02 1.38785E+01 0.00000E+00
 -1      3521 1.22874E+02 1.51775E+01 0.00000E+00
 -1      3522 1.28124E+02 1.38785E+01 0.00000E+00
 -1      3523 1.26624E+02 1.38785E+01 0.00000E+00
 -1      3524 1.25874E+02 1.51775E+01 0.00000E+00
 -1      3525 1.31124E+02 1.38785E+01 0.00000E+00
 -1      3526 1.29624E+02 1.38785E+01 0.00000E+00
 -1      3527 1.28874E+02 1.51775E+01 0.00000E+00
 -1      3528 1.35711E+02 2.13375E+01 0.00000E+00
 -1      3529 1.35711E+02 1.98625E+01 0.00000E+00
 -1      3530 1.35758E+02 2.96781E+01 0.00000E+00
 -1      3531 1.35758E+02 2.82281E+01 0.00000E+00
 -1      3532 1.34505E+02 2.99311E+01 0.00000E+00
 -1      3533 4.71240E+01 1.38785E+01 0.00000E+00
 -1      3534 4.56240E+01 1.38785E+01 0.00000E+00
 -1      3535 4.48740E+01 1.51775E+01 0.00000E+00
 -1      3536 4.78740E+01 1.51775E+01 0.00000E+00
 -1      3537 1.16910E+01 2.71844E+01 0.00000E+00
 -1      3538 1.16910E+01 2.86531E+01 0.00000E+00
 -1      3539 1.29900E+01 2.93875E+01 0.00000E+00
 -1      3540 1.20210E+01 3.61362E+01 0.00000E+00
 -1      3541 9.15973E+01 2.70748E+01 0.00000E+00
 -1      3542 9.24835E+01 2.78937E+01 0.00000E+00
 -1      3543 9.19443E+01 2.59964E+01 0.00000E+00
 -1      3544 8.09419E+01 1.97088E+01 0.00000E+00
 -1      3545 8.13923E+01 2.01090E+01 0.00000E+00
 -1      3546 8.23157E+01 1.96681E+01 0.00000E+00
 -1      3547 9.17237E+01 3.98277E+01 0.00000E+00
 -1      3548 7.10954E+01 2.04575E+01 0.00000E+00
 -1      3549 7.24495E+01 1.98349E+01 0.00000E+00
 -1      3550 9.81000E+01 3.61362E+01 0.00000E+00
 -1      3551 9.96000E+01 3.61362E+01 0.00000E+00
 -1      3552 1.00350E+02 3.48372E+01 0.00000E+00
 -1      3553 8.88019E+01 2.16976E+01 0.00000E+00
 -1      3554 8.98814E+01 2.30488E+01 0.00000E+00
 -1      3555 1.35711E+02 1.84125E+01 0.00000E+00
 -1      3556 1.35711E+02 1.69625E+01 0.00000E+00
 -1      3557 1.34412E+02 1.91500E+01 0.00000E+00
 -1      3558 1.42890E+01 2.27625E+01 0.00000E+00
 -1      3559 1.42890E+01 2.42375E+01 0.00000E+00
 -1      3560 6.72324E+01 2.30262E+01 0.00000E+00
 -1      3561 6.20486E+01 3.42641E+01 0.00000E+00
 -1      3562 6.28361E+01 3.55631E+01 0.00000E+00
 -1      3563 1.42890E+01 2.12906E+01 0.00000E+00
 -1      3564 1.55880E+01 2.20281E+01 0.00000E+00
 -1      3565 1.42890E+01 1.98188E+01 0.00000E+00
 -1      3566 1.63741E+01 1.40483E+01 0.00000E+00
 -1      3567 8.45263E+01 2.02202E+01 0.00000E+00
 -1      3568 6.51329E+01 2.55138E+01 0.00000E+00
 -1      3569 9.33145E+01 2.87821E+01 0.00000E+00
 -1      3570 9.41455E+01 2.96705E+01 0.00000E+00
 -1      3571 9.36615E+01 2.77038E+01 0.00000E+00
 -1      3572 6.41735E+01 2.86844E+01 0.00000E+00
 -1      3573 6.35828E+01 2.76108E+01 0.00000E+00
 -1      3574 6.34554E+01 2.94681E+01 0.00000E+00
 -1      3575 2.98740E+01 1.51775E+01 0.00000E+00
 -1      3576 2.91240E+01 1.38785E+01 0.00000E+00
 -1      3577 2.76240E+01 1.38785E+01 0.00000E+00
 -1      3578 6.34322E+01 3.63929E+01 0.00000E+00
 -1      3579 1.29900E+01 2.64469E+01 0.00000E+00
 -1      3580 3.36240E+01 1.38785E+01 0.00000E+00
 -1      3581 3.28740E+01 1.51775E+01 0.00000E+00
 -1      3582 3.51240E+01 1.38785E+01 0.00000E+00
 -1      3583 1.35711E+02 2.42875E+01 0.00000E+00
 -1      3584 1.35711E+02 2.28125E+01 0.00000E+00
 -1      3585 1.34412E+02 2.20750E+01 0.00000E+00
 -1      3586 7.41240E+01 1.38785E+01 0.00000E+00
 -1      3587 7.26240E+01 1.38785E+01 0.00000E+00
 -1      3588 1.32318E+02 1.40309E+01 0.00000E+00
 -1      3589 1.31568E+02 1.53299E+01 0.00000E+00
 -1      3590 1.33512E+02 1.41833E+01 0.00000E+00
 -1      3591 7.18740E+01 1.51775E+01 0.00000E+00
 -1      3592 9.06331E+01 2.34292E+01 0.00000E+00
 -1      3593 9.13847E+01 2.38096E+01 0.00000E+00
 -1      3594 9.09596E+01 2.20614E+01 0.00000E+00
 -1      3595 1.35734E+02 2.69953E+01 0.00000E+00
 -1      3596 1.35734E+02 2.55203E+01 0.00000E+00
 -1      3597 1.34435E+02 2.47828E+01 0.00000E+00
 -1      3598 1.34482E+02 2.72483E+01 0.00000E+00
 -1      3599 6.38091E+01 3.23289E+01 0.00000E+00
 -1      3600 6.33867E+01 3.13377E+01 0.00000E+00
 -1      3601 6.31498E+01 3.31249E+01 0.00000E+00
 -1      3602 3.81240E+01 1.38785E+01 0.00000E+00
 -1      3603 3.66240E+01 1.38785E+01 0.00000E+00
 -1      3604 3.58740E+01 1.51775E+01 0.00000E+00
 -1      3605 3.88740E+01 1.51775E+01 0.00000E+00
 -1      3606 1.33200E+01 3.54019E+01 0.00000E+00
 -1      3607 1.41075E+01 3.41029E+01 0.00000E+00
 -1      3608 2.31240E+01 1.38785E+01 0.00000E+00
 -1      3609 2.16240E+01 1.38785E+01 0.00000E+00
 -1      3610 2.01240E+01 1.38785E+01 0.00000E+00
 -1      3611 1.86240E+01 1.38785E+01 0.00000E+00
 -1      3612 2.08740E+01 1.51775E+01 0.00000E+00
 -1      3613 9.45509E+01 3.29668E+01 0.00000E+00
 -1      3614 9.55742E+01 3.40921E+01 0.00000E+00
 -1      3615 9.48218E+01 3.18742E+01 0.00000E+00
 -1      3616 1.41075E+01 3.11654E+01 0.00000E+00
 -1      3617 1.41075E+01 3.26341E+01 0.00000E+00
 -1      3618 1.52250E+01 3.29432E+01 0.00000E+00
 -1      3619 9.70767E+01 3.50110E+01 0.00000E+00
 -1      3620 7.26995E+01 1.83967E+01 0.00000E+00
 -1      3621 6.98871E+01 2.04573E+01 0.00000E+00
 -1      3622 7.00658E+01 1.90623E+01 0.00000E+00
 -1      3623 6.86787E+01 2.04570E+01 0.00000E+00
 -1      3624 8.76926E+01 2.03554E+01 0.00000E+00
 -1      3625 8.82472E+01 2.10265E+01 0.00000E+00
 -1      3626 8.96534E+01 2.10099E+01 0.00000E+00
 -1      3627 1.33587E+02 1.65912E+01 0.00000E+00
 -1      3628 1.34886E+02 1.58537E+01 0.00000E+00
 -1      3629 7.52495E+01 1.64541E+01 0.00000E+00
 -1      3630 7.65208E+01 1.71716E+01 0.00000E+00
 -1      3631 7.48740E+01 1.51775E+01 0.00000E+00
 -1      3632 7.73835E+01 1.66959E+01 0.00000E+00
 -1      3633 6.58450E+01 2.27999E+01 0.00000E+00
 -1      3634 6.71126E+01 2.16256E+01 0.00000E+00
 -1      3635 6.16262E+01 3.32728E+01 0.00000E+00
 -1      3636 1.89750E+01 3.31130E+01 0.00000E+00
 -1      3637 2.04750E+01 3.31130E+01 0.00000E+00
 -1      3638 2.19750E+01 3.31130E+01 0.00000E+00
 -1      3639 2.34750E+01 3.31130E+01 0.00000E+00
 -1      3640 2.12250E+01 3.18140E+01 0.00000E+00
 -1      3641 2.49750E+01 3.31130E+01 0.00000E+00
 -1      3642 2.64750E+01 3.31130E+01 0.00000E+00
 -1      3643 2.42250E+01 3.18140E+01 0.00000E+00
 -1      3644 2.79750E+01 3.31130E+01 0.00000E+00
 -1      3645 2.94750E+01 3.31130E+01 0.00000E+00
 -1      3646 2.72250E+01 3.18140E+01 0.00000E+00
 -1      3647 3.09750E+01 3.31130E+01 0.00000E+00
 -1      3648 3.24750E+01 3.31130E+01 0.00000E+00
 -1      3649 3.02250E+01 3.18140E+01 0.00000E+00
 -1      3650 3.40500E+01 3.31130E+01 0.00000E+00
 -1      3651 3.56250E+01 3.31130E+01 0.00000E+00
 -1      3652 3.33000E+01 3.18140E+01 0.00000E+00
 -1      3653 3.71250E+01 3.31130E+01 0.00000E+00
 -1      3654 3.86250E+01 3.31130E+01 0.00000E+00
 -1      3655 3.63750E+01 3.18140E+01 0.00000E+00
 -1      3656 4.01250E+01 3.31130E+01 0.00000E+00
 -1      3657 4.16250E+01 3.31130E+01 0.00000E+00
 -1      3658 3.93750E+01 3.18140E+01 0.00000E+00
 -1      3659 4.31250E+01 3.31130E+01 0.00000E+00
 -1      3660 4.46250E+01 3.31130E+01 0.00000E+00
 -1      3661 4.23750E+01 3.18140E+01 0.00000E+00
 -1      3662 4.61250E+01 3.31130E+01 0.00000E+00
 -1      3663 4.76250E+01 3.31130E+01 0.00000E+00
 -1      3664 4.53750E+01 3.18140E+01 0.00000E+00
 -1      3665 4.91250E+01 3.31130E+01 0.00000E+00
 -1      3666 5.06250E+01 3.31130E+01 0.00000E+00
 -1      3667 4.83750E+01 3.18140E+01 0.00000E+00
 -1      3668 5.21250E+01 3.31130E+01 0.00000E+00
 -1      3669 5.36250E+01 3.31130E+01 0.00000E+00
 -1      3670 5.13750E+01 3.18140E+01 0.00000E+00
 -1      3671 5.51250E+01 3.31130E+01 0.00000E+00
 -1      3672 5.66250E+01 3.31130E+01 0.00000E+00
 -1      3673 5.43750E+01 3.18140E+01 0.00000E+00
 -1      3674 5.82000E+01 3.31130E+01 0.00000E+00
 -1      3675 5.97750E+01 3.31130E+01 0.00000E+00
 -1      3676 5.74500E+01 3.18140E+01 0.00000E+00
 -1      3677 7.96485E+01 1.79849E+01 0.00000E+00
 -1      3678 8.04613E+01 1.89526E+01 0.00000E+00
 -1      3679 1.05600E+02 3.35382E+01 0.00000E+00
 -1      3680 1.07100E+02 3.35382E+01 0.00000E+00
 -1      3681 1.08600E+02 3.35382E+01 0.00000E+00
 -1      3682 1.10100E+02 3.35382E+01 0.00000E+00
 -1      3683 1.07850E+02 3.22392E+01 0.00000E+00
 -1      3684 1.11600E+02 3.35382E+01 0.00000E+00
 -1      3685 1.13100E+02 3.35382E+01 0.00000E+00
 -1      3686 1.10850E+02 3.22392E+01 0.00000E+00
 -1      3687 1.14600E+02 3.35382E+01 0.00000E+00
 -1      3688 1.16100E+02 3.35382E+01 0.00000E+00
 -1      3689 1.13850E+02 3.22392E+01 0.00000E+00
 -1      3690 1.17675E+02 3.35382E+01 0.00000E+00
 -1      3691 1.19250E+02 3.35382E+01 0.00000E+00
 -1      3692 1.16925E+02 3.22392E+01 0.00000E+00
 -1      3693 1.20750E+02 3.35382E+01 0.00000E+00
 -1      3694 1.22250E+02 3.35382E+01 0.00000E+00
 -1      3695 1.20000E+02 3.22392E+01 0.00000E+00
 -1      3696 1.23750E+02 3.35382E+01 0.00000E+00
 -1      3697 1.25250E+02 3.35382E+01 0.00000E+00
 -1      3698 1.23000E+02 3.22392E+01 0.00000E+00
 -1      3699 1.26750E+02 3.35382E+01 0.00000E+00
 -1      3700 1.28250E+02 3.35382E+01 0.00000E+00
 -1      3701 1.26000E+02 3.22392E+01 0.00000E+00
 -1      3702 1.29750E+02 3.35382E+01 0.00000E+00
 -1      3703 1.31250E+02 3.35382E+01 0.00000E+00
 -1      3704 1.29000E+02 3.22392E+01 0.00000E+00
 -1      3705 1.32251E+02 3.33237E+01 0.00000E+00
 -1      3706 1.33504E+02 3.30706E+01 0.00000E+00
 -1      3707 1.33504E+02 3.15956E+01 0.00000E+00
 -1      3708 1.31501E+02 3.20247E+01 0.00000E+00
 -1      3709 8.13847E+01 1.85117E+01 0.00000E+00
 -1      3710 7.88835E+01 1.66959E+01 0.00000E+00
 -1      3711 8.01390E+01 1.64665E+01 0.00000E+00
 -1      3712 8.20095E+01 1.75837E+01 0.00000E+00
 -1      3713 8.24901E+01 1.83399E+01 0.00000E+00
 -1      3714 1.41075E+01 2.82279E+01 0.00000E+00
 -1      3715 1.41075E+01 2.96966E+01 0.00000E+00
 -1      3716 1.52250E+01 3.00058E+01 0.00000E+00
 -1      3717 9.73475E+01 3.39183E+01 0.00000E+00
 -1      3718 5.46240E+01 1.64765E+01 0.00000E+00
 -1      3719 5.31240E+01 1.64765E+01 0.00000E+00
 -1      3720 5.16240E+01 1.64765E+01 0.00000E+00
 -1      3721 5.01240E+01 1.64765E+01 0.00000E+00
 -1      3722 5.23740E+01 1.77755E+01 0.00000E+00
 -1      3723 6.06240E+01 1.64765E+01 0.00000E+00
 -1      3724 5.91240E+01 1.64765E+01 0.00000E+00
 -1      3725 6.36240E+01 1.64765E+01 0.00000E+00
 -1      3726 6.21240E+01 1.64765E+01 0.00000E+00
 -1      3727 6.13740E+01 1.77755E+01 0.00000E+00
 -1      3728 6.66240E+01 1.64765E+01 0.00000E+00
 -1      3729 6.51240E+01 1.64765E+01 0.00000E+00
 -1      3730 6.43740E+01 1.77755E+01 0.00000E+00
 -1      3731 6.96158E+01 1.71198E+01 0.00000E+00
 -1      3732 6.81158E+01 1.71198E+01 0.00000E+00
 -1      3733 8.16390E+01 1.64665E+01 0.00000E+00
 -1      3734 1.32001E+02 1.66947E+01 0.00000E+00
 -1      3735 1.30807E+02 1.65422E+01 0.00000E+00
 -1      3736 8.76240E+01 1.64765E+01 0.00000E+00
 -1      3737 8.61240E+01 1.64765E+01 0.00000E+00
 -1      3738 9.36240E+01 1.64765E+01 0.00000E+00
 -1      3739 9.21240E+01 1.64765E+01 0.00000E+00
 -1      3740 9.66240E+01 1.64765E+01 0.00000E+00
 -1      3741 9.51240E+01 1.64765E+01 0.00000E+00
 -1      3742 9.43740E+01 1.77755E+01 0.00000E+00
 -1      3743 9.96240E+01 1.64765E+01 0.00000E+00
 -1      3744 9.81240E+01 1.64765E+01 0.00000E+00
 -1      3745 9.73740E+01 1.77755E+01 0.00000E+00
 -1      3746 1.02624E+02 1.64765E+01 0.00000E+00
 -1      3747 1.01124E+02 1.64765E+01 0.00000E+00
 -1      3748 1.00374E+02 1.77755E+01 0.00000E+00
 -1      3749 1.05624E+02 1.64765E+01 0.00000E+00
 -1      3750 1.04124E+02 1.64765E+01 0.00000E+00
 -1      3751 1.03374E+02 1.77755E+01 0.00000E+00
 -1      3752 1.08624E+02 1.64765E+01 0.00000E+00
 -1      3753 1.07124E+02 1.64765E+01 0.00000E+00
 -1      3754 1.06374E+02 1.77755E+01 0.00000E+00
 -1      3755 1.11624E+02 1.64765E+01 0.00000E+00
 -1      3756 1.10124E+02 1.64765E+01 0.00000E+00
 -1      3757 1.09374E+02 1.77755E+01 0.00000E+00
 -1      3758 1.14624E+02 1.64765E+01 0.00000E+00
 -1      3759 1.13124E+02 1.64765E+01 0.00000E+00
 -1      3760 1.12374E+02 1.77755E+01 0.00000E+00
 -1      3761 1.17624E+02 1.64765E+01 0.00000E+00
 -1      3762 1.16124E+02 1.64765E+01 0.00000E+00
 -1      3763 1.15374E+02 1.77755E+01 0.00000E+00
 -1      3764 1.20624E+02 1.64765E+01 0.00000E+00
 -1      3765 1.19124E+02 1.64765E+01 0.00000E+00
 -1      3766 1.18374E+02 1.77755E+01 0.00000E+00
 -1      3767 1.23624E+02 1.64765E+01 0.00000E+00
 -1      3768 1.22124E+02 1.64765E+01 0.00000E+00
 -1      3769 1.21374E+02 1.77755E+01 0.00000E+00
 -1      3770 1.26624E+02 1.64765E+01 0.00000E+00
 -1      3771 1.25124E+02 1.64765E+01 0.00000E+00
 -1      3772 1.24374E+02 1.77755E+01 0.00000E+00
 -1      3773 1.29465E+02 1.65094E+01 0.00000E+00
 -1      3774 1.27965E+02 1.65094E+01 0.00000E+00
 -1      3775 1.27215E+02 1.78084E+01 0.00000E+00
 -1      3776 1.29898E+02 1.78741E+01 0.00000E+00
 -1      3777 1.33504E+02 3.01456E+01 0.00000E+00
 -1      3778 1.33504E+02 2.86956E+01 0.00000E+00
 -1      3779 1.32503E+02 3.03602E+01 0.00000E+00
 -1      3780 5.76240E+01 1.64765E+01 0.00000E+00
 -1      3781 5.61240E+01 1.64765E+01 0.00000E+00
 -1      3782 5.53740E+01 1.77755E+01 0.00000E+00
 -1      3783 4.26240E+01 1.64765E+01 0.00000E+00
 -1      3784 4.11240E+01 1.64765E+01 0.00000E+00
 -1      3785 1.02600E+02 3.35382E+01 0.00000E+00
 -1      3786 1.04100E+02 3.35382E+01 0.00000E+00
 -1      3787 1.04850E+02 3.22392E+01 0.00000E+00
 -1      3788 2.61240E+01 1.38785E+01 0.00000E+00
 -1      3789 2.46240E+01 1.38785E+01 0.00000E+00
 -1      3790 2.38740E+01 1.51775E+01 0.00000E+00
 -1      3791 2.68740E+01 1.51775E+01 0.00000E+00
 -1      3792 1.63500E+01 3.30281E+01 0.00000E+00
 -1      3793 1.78500E+01 3.30281E+01 0.00000E+00
 -1      3794 1.86000E+01 3.17291E+01 0.00000E+00
 -1      3795 1.63500E+01 3.15594E+01 0.00000E+00
 -1      3796 1.41982E+01 2.54967E+01 0.00000E+00
 -1      3797 1.41982E+01 2.69686E+01 0.00000E+00
 -1      3798 1.53158E+01 2.72778E+01 0.00000E+00
 -1      3799 1.54972E+01 2.47593E+01 0.00000E+00
 -1      3800 6.37801E+01 2.55770E+01 0.00000E+00
 -1      3801 6.46121E+01 2.42637E+01 0.00000E+00
 -1      3802 1.41105E+01 1.70871E+01 0.00000E+00
 -1      3803 1.41105E+01 1.85589E+01 0.00000E+00
 -1      3804 1.54095E+01 1.92964E+01 0.00000E+00
 -1      3805 1.50525E+01 1.67768E+01 0.00000E+00
 -1      3806 9.22709E+01 2.46286E+01 0.00000E+00
 -1      3807 9.31570E+01 2.54476E+01 0.00000E+00
 -1      3808 9.25975E+01 2.32608E+01 0.00000E+00
 -1      3809 7.37495E+01 1.64541E+01 0.00000E+00
 -1      3810 7.23241E+01 1.71200E+01 0.00000E+00
 -1      3811 1.32826E+02 1.78035E+01 0.00000E+00
 -1      3812 7.08241E+01 1.71200E+01 0.00000E+00
 -1      3813 1.34706E+02 1.43357E+01 0.00000E+00
 -1      3814 9.96000E+01 3.35382E+01 0.00000E+00
 -1      3815 1.01100E+02 3.35382E+01 0.00000E+00
 -1      3816 1.01850E+02 3.22392E+01 0.00000E+00
 -1      3817 1.71241E+01 1.53473E+01 0.00000E+00
 -1      3818 8.27445E+01 1.62947E+01 0.00000E+00
 -1      3819 6.44922E+01 2.28631E+01 0.00000E+00
 -1      3820 6.08762E+01 3.19738E+01 0.00000E+00
 -1      3821 1.68383E+01 2.42230E+01 0.00000E+00
 -1      3822 1.67475E+01 2.54822E+01 0.00000E+00
 -1      3823 9.43146E+01 2.49682E+01 0.00000E+00
 -1      3824 9.39880E+01 2.63360E+01 0.00000E+00
 -1      3825 9.48190E+01 2.72244E+01 0.00000E+00
 -1      3826 4.56240E+01 1.64765E+01 0.00000E+00
 -1      3827 4.41240E+01 1.64765E+01 0.00000E+00
 -1      3828 4.33740E+01 1.77755E+01 0.00000E+00
 -1      3829 1.68383E+01 2.12792E+01 0.00000E+00
 -1      3830 1.68383E+01 2.27511E+01 0.00000E+00
 -1      3831 1.80885E+01 2.34741E+01 0.00000E+00
 -1      3832 6.27960E+01 3.02641E+01 0.00000E+00
 -1      3833 6.22053E+01 2.91905E+01 0.00000E+00
 -1      3834 6.21367E+01 3.10601E+01 0.00000E+00
 -1      3835 3.06240E+01 1.64765E+01 0.00000E+00
 -1      3836 2.91240E+01 1.64765E+01 0.00000E+00
 -1      3837 6.73658E+01 1.84188E+01 0.00000E+00
 -1      3838 8.37559E+01 1.88725E+01 0.00000E+00
 -1      3839 8.55161E+01 1.90243E+01 0.00000E+00
 -1      3840 4.03740E+01 1.77755E+01 0.00000E+00
 -1      3841 3.96240E+01 1.64765E+01 0.00000E+00
 -1      3842 3.81240E+01 1.64765E+01 0.00000E+00
 -1      3843 4.93740E+01 1.77755E+01 0.00000E+00
 -1      3844 4.86240E+01 1.64765E+01 0.00000E+00
 -1      3845 4.71240E+01 1.64765E+01 0.00000E+00
 -1      3846 8.58099E+01 1.77261E+01 0.00000E+00
 -1      3847 8.65802E+01 1.90738E+01 0.00000E+00
 -1      3848 6.30620E+01 2.63607E+01 0.00000E+00
 -1      3849 6.25412E+01 2.51107E+01 0.00000E+00
 -1      3850 6.23438E+01 2.71444E+01 0.00000E+00
 -1      3851 1.32826E+02 1.92535E+01 0.00000E+00
 -1      3852 8.50599E+01 1.64271E+01 0.00000E+00
 -1      3853 9.06240E+01 1.64765E+01 0.00000E+00
 -1      3854 8.91240E+01 1.64765E+01 0.00000E+00
 -1      3855 9.11704E+01 2.07122E+01 0.00000E+00
 -1      3856 9.19221E+01 2.10927E+01 0.00000E+00
 -1      3857 1.33480E+02 2.74629E+01 0.00000E+00
 -1      3858 1.33457E+02 2.62301E+01 0.00000E+00
 -1      3859 1.32479E+02 2.76774E+01 0.00000E+00
 -1      3860 2.16240E+01 1.64765E+01 0.00000E+00
 -1      3861 2.01240E+01 1.64765E+01 0.00000E+00
 -1      3862 5.83740E+01 1.77755E+01 0.00000E+00
 -1      3863 8.79864E+01 1.90572E+01 0.00000E+00
 -1      3864 8.35599E+01 1.64271E+01 0.00000E+00
 -1      3865 1.33113E+02 2.28125E+01 0.00000E+00
 -1      3866 1.33113E+02 2.13375E+01 0.00000E+00
 -1      3867 9.51688E+01 3.07958E+01 0.00000E+00
 -1      3868 9.61921E+01 3.19211E+01 0.00000E+00
 -1      3869 9.55157E+01 2.97174E+01 0.00000E+00
 -1      3870 3.36240E+01 1.64765E+01 0.00000E+00
 -1      3871 3.21240E+01 1.64765E+01 0.00000E+00
 -1      3872 3.13740E+01 1.77755E+01 0.00000E+00
 -1      3873 1.31527E+02 1.99910E+01 0.00000E+00
 -1      3874 2.46240E+01 1.64765E+01 0.00000E+00
 -1      3875 2.31240E+01 1.64765E+01 0.00000E+00
 -1      3876 2.23740E+01 1.77755E+01 0.00000E+00
 -1      3877 6.72913E+01 2.02307E+01 0.00000E+00
 -1      3878 9.06158E+01 2.00411E+01 0.00000E+00
 -1      3879 9.80975E+01 3.26193E+01 0.00000E+00
 -1      3880 8.83740E+01 1.77755E+01 0.00000E+00
 -1      3881 9.13740E+01 1.77755E+01 0.00000E+00
 -1      3882 1.79978E+01 2.62052E+01 0.00000E+00
 -1      3883 1.66568E+01 2.67415E+01 0.00000E+00
 -1      3884 1.65660E+01 2.80007E+01 0.00000E+00
 -1      3885 2.34750E+01 3.05150E+01 0.00000E+00
 -1      3886 2.49750E+01 3.05150E+01 0.00000E+00
 -1      3887 2.64750E+01 3.05150E+01 0.00000E+00
 -1      3888 2.79750E+01 3.05150E+01 0.00000E+00
 -1      3889 2.57250E+01 2.92160E+01 0.00000E+00
 -1      3890 2.94750E+01 3.05150E+01 0.00000E+00
 -1      3891 3.09750E+01 3.05150E+01 0.00000E+00
 -1      3892 2.87250E+01 2.92160E+01 0.00000E+00
 -1      3893 3.25500E+01 3.05150E+01 0.00000E+00
 -1      3894 3.41250E+01 3.05150E+01 0.00000E+00
 -1      3895 3.18000E+01 2.92160E+01 0.00000E+00
 -1      3896 3.56250E+01 3.05150E+01 0.00000E+00
 -1      3897 3.71250E+01 3.05150E+01 0.00000E+00
 -1      3898 3.48750E+01 2.92160E+01 0.00000E+00
 -1      3899 3.86250E+01 3.05150E+01 0.00000E+00
 -1      3900 4.01250E+01 3.05150E+01 0.00000E+00
 -1      3901 3.78750E+01 2.92160E+01 0.00000E+00
 -1      3902 4.16250E+01 3.05150E+01 0.00000E+00
 -1      3903 4.31250E+01 3.05150E+01 0.00000E+00
 -1      3904 4.08750E+01 2.92160E+01 0.00000E+00
 -1      3905 4.46250E+01 3.05150E+01 0.00000E+00
 -1      3906 4.61250E+01 3.05150E+01 0.00000E+00
 -1      3907 4.38750E+01 2.92160E+01 0.00000E+00
 -1      3908 4.76250E+01 3.05150E+01 0.00000E+00
 -1      3909 4.91250E+01 3.05150E+01 0.00000E+00
 -1      3910 4.68750E+01 2.92160E+01 0.00000E+00
 -1      3911 5.06250E+01 3.05150E+01 0.00000E+00
 -1      3912 5.21250E+01 3.05150E+01 0.00000E+00
 -1      3913 4.98750E+01 2.92160E+01 0.00000E+00
 -1      3914 5.36250E+01 3.05150E+01 0.00000E+00
 -1      3915 5.51250E+01 3.05150E+01 0.00000E+00
 -1      3916 5.28750E+01 2.92160E+01 0.00000E+00
 -1      3917 5.67000E+01 3.05150E+01 0.00000E+00
 -1      3918 5.82750E+01 3.05150E+01 0.00000E+00
 -1      3919 5.59500E+01 2.92160E+01 0.00000E+00
 -1      3920 9.25034E+01 1.87595E+01 0.00000E+00
 -1      3921 9.10034E+01 1.87595E+01 0.00000E+00
 -1      3922 1.30473E+02 2.20421E+01 0.00000E+00
 -1      3923 1.30185E+02 1.99581E+01 0.00000E+00
 -1      3924 1.28844E+02 1.99252E+01 0.00000E+00
 -1      3925 6.57996E+01 1.95874E+01 0.00000E+00
 -1      3926 5.61240E+01 1.90745E+01 0.00000E+00
 -1      3927 5.46240E+01 1.90745E+01 0.00000E+00
 -1      3928 1.10100E+02 3.09402E+01 0.00000E+00
 -1      3929 1.11600E+02 3.09402E+01 0.00000E+00
 -1      3930 1.13100E+02 3.09402E+01 0.00000E+00
 -1      3931 1.14600E+02 3.09402E+01 0.00000E+00
 -1      3932 1.12350E+02 2.96412E+01 0.00000E+00
 -1      3933 1.16175E+02 3.09402E+01 0.00000E+00
 -1      3934 1.17750E+02 3.09402E+01 0.00000E+00
 -1      3935 1.15425E+02 2.96412E+01 0.00000E+00
 -1      3936 1.19250E+02 3.09402E+01 0.00000E+00
 -1      3937 1.20750E+02 3.09402E+01 0.00000E+00
 -1      3938 1.18500E+02 2.96412E+01 0.00000E+00
 -1      3939 1.22250E+02 3.09402E+01 0.00000E+00
 -1      3940 1.23750E+02 3.09402E+01 0.00000E+00
 -1      3941 1.21500E+02 2.96412E+01 0.00000E+00
 -1      3942 1.25250E+02 3.09402E+01 0.00000E+00
 -1      3943 1.26750E+02 3.09402E+01 0.00000E+00
 -1      3944 1.24500E+02 2.96412E+01 0.00000E+00
 -1      3945 1.28250E+02 3.09402E+01 0.00000E+00
 -1      3946 1.29750E+02 3.09402E+01 0.00000E+00
 -1      3947 1.27500E+02 2.96412E+01 0.00000E+00
 -1      3948 1.30626E+02 3.07575E+01 0.00000E+00
 -1      3949 1.31627E+02 3.05429E+01 0.00000E+00
 -1      3950 1.31627E+02 2.90929E+01 0.00000E+00
 -1      3951 1.29876E+02 2.94585E+01 0.00000E+00
 -1      3952 9.81240E+01 1.90745E+01 0.00000E+00
 -1      3953 9.66240E+01 1.90745E+01 0.00000E+00
 -1      3954 2.04750E+01 3.05150E+01 0.00000E+00
 -1      3955 2.19750E+01 3.05150E+01 0.00000E+00
 -1      3956 2.27250E+01 2.92160E+01 0.00000E+00
 -1      3957 5.31240E+01 1.90745E+01 0.00000E+00
 -1      3958 5.16240E+01 1.90745E+01 0.00000E+00
 -1      3959 5.38740E+01 2.03735E+01 0.00000E+00
 -1      3960 6.42996E+01 1.95874E+01 0.00000E+00
 -1      3961 6.21240E+01 1.90745E+01 0.00000E+00
 -1      3962 6.06240E+01 1.90745E+01 0.00000E+00
 -1      3963 1.64580E+01 2.90457E+01 0.00000E+00
 -1      3964 1.64580E+01 3.05144E+01 0.00000E+00
 -1      3965 1.75830E+01 3.05993E+01 0.00000E+00
 -1      3966 1.77990E+01 2.85094E+01 0.00000E+00
 -1      3967 9.30190E+01 2.05624E+01 0.00000E+00
 -1      3968 9.28083E+01 2.19116E+01 0.00000E+00
 -1      3969 9.36944E+01 2.27306E+01 0.00000E+00
 -1      3970 9.53137E+01 1.89170E+01 0.00000E+00
 -1      3971 9.38137E+01 1.89170E+01 0.00000E+00
 -1      3972 9.34432E+01 1.99009E+01 0.00000E+00
 -1      3973 9.60637E+01 2.02160E+01 0.00000E+00
 -1      3974 1.04124E+02 1.90745E+01 0.00000E+00
 -1      3975 1.02624E+02 1.90745E+01 0.00000E+00
 -1      3976 1.07124E+02 1.90745E+01 0.00000E+00
 -1      3977 1.05624E+02 1.90745E+01 0.00000E+00
 -1      3978 1.04874E+02 2.03735E+01 0.00000E+00
 -1      3979 1.10124E+02 1.90745E+01 0.00000E+00
 -1      3980 1.08624E+02 1.90745E+01 0.00000E+00
 -1      3981 1.07874E+02 2.03735E+01 0.00000E+00
 -1      3982 1.13124E+02 1.90745E+01 0.00000E+00
 -1      3983 1.11624E+02 1.90745E+01 0.00000E+00
 -1      3984 1.10874E+02 2.03735E+01 0.00000E+00
 -1      3985 1.16124E+02 1.90745E+01 0.00000E+00
 -1      3986 1.14624E+02 1.90745E+01 0.00000E+00
 -1      3987 1.13874E+02 2.03735E+01 0.00000E+00
 -1      3988 1.19124E+02 1.90745E+01 0.00000E+00
 -1      3989 1.17624E+02 1.90745E+01 0.00000E+00
 -1      3990 1.16874E+02 2.03735E+01 0.00000E+00
 -1      3991 1.22124E+02 1.90745E+01 0.00000E+00
 -1      3992 1.20624E+02 1.90745E+01 0.00000E+00
 -1      3993 1.19874E+02 2.03735E+01 0.00000E+00
 -1      3994 1.25124E+02 1.90745E+01 0.00000E+00
 -1      3995 1.23624E+02 1.90745E+01 0.00000E+00
 -1      3996 1.22874E+02 2.03735E+01 0.00000E+00
 -1      3997 1.83468E+01 1.65577E+01 0.00000E+00
 -1      3998 1.60968E+01 1.67275E+01 0.00000E+00
 -1      3999 6.35496E+01 2.08864E+01 0.00000E+00
 -1      4000 5.91240E+01 1.90745E+01 0.00000E+00
 -1      4001 5.76240E+01 1.90745E+01 0.00000E+00
 -1      4002 5.98740E+01 2.03735E+01 0.00000E+00
 -1      4003 1.33104E+02 2.37812E+01 0.00000E+00
 -1      4004 1.31804E+02 2.30437E+01 0.00000E+00
 -1      4005 1.30463E+02 2.30108E+01 0.00000E+00
 -1      4006 1.33127E+02 2.50140E+01 0.00000E+00
 -1      4007 1.04100E+02 3.09402E+01 0.00000E+00
 -1      4008 1.05600E+02 3.09402E+01 0.00000E+00
 -1      4009 2.76240E+01 1.64765E+01 0.00000E+00
 -1      4010 2.61240E+01 1.64765E+01 0.00000E+00
 -1      4011 2.53740E+01 1.77755E+01 0.00000E+00
 -1      4012 2.83740E+01 1.77755E+01 0.00000E+00
 -1      4013 8.94864E+01 1.90572E+01 0.00000E+00
 -1      4014 1.62753E+01 1.79873E+01 0.00000E+00
 -1      4015 6.02855E+01 3.09002E+01 0.00000E+00
 -1      4016 1.64538E+01 1.92471E+01 0.00000E+00
 -1      4017 1.07100E+02 3.09402E+01 0.00000E+00
 -1      4018 1.08600E+02 3.09402E+01 0.00000E+00
 -1      4019 1.09350E+02 2.96412E+01 0.00000E+00
 -1      4020 1.90968E+01 1.78567E+01 0.00000E+00
 -1      4021 3.66240E+01 1.64765E+01 0.00000E+00
 -1      4022 3.51240E+01 1.64765E+01 0.00000E+00
 -1      4023 3.73740E+01 1.77755E+01 0.00000E+00
 -1      4024 1.01100E+02 3.09402E+01 0.00000E+00
 -1      4025 1.02600E+02 3.09402E+01 0.00000E+00
 -1      4026 1.03350E+02 2.96412E+01 0.00000E+00
 -1      4027 8.29405E+01 1.87401E+01 0.00000E+00
 -1      4028 1.01124E+02 1.90745E+01 0.00000E+00
 -1      4029 9.96240E+01 1.90745E+01 0.00000E+00
 -1      4030 9.88740E+01 2.03735E+01 0.00000E+00
 -1      4031 1.01874E+02 2.03735E+01 0.00000E+00
 -1      4032 1.77040E+01 1.99701E+01 0.00000E+00
 -1      4033 1.94813E+01 1.98889E+01 0.00000E+00
 -1      4034 9.45254E+01 2.36190E+01 0.00000E+00
 -1      4035 9.53564E+01 2.45074E+01 0.00000E+00
 -1      4036 9.47362E+01 2.22698E+01 0.00000E+00
 -1      4037 6.10251E+01 2.87364E+01 0.00000E+00
 -1      4038 6.16845E+01 2.79404E+01 0.00000E+00
 -1      4039 6.11637E+01 2.66903E+01 0.00000E+00
 -1      4040 9.61689E+01 2.69819E+01 0.00000E+00
 -1      4041 9.58423E+01 2.83497E+01 0.00000E+00
 -1      4042 9.68656E+01 2.94749E+01 0.00000E+00
 -1      4043 4.63740E+01 1.77755E+01 0.00000E+00
 -1      4044 2.12623E+01 1.95470E+01 0.00000E+00
 -1      4045 1.98696E+01 2.16604E+01 0.00000E+00
 -1      4046 5.08740E+01 2.03735E+01 0.00000E+00
 -1      4047 5.01240E+01 1.90745E+01 0.00000E+00
 -1      4048 4.86240E+01 1.90745E+01 0.00000E+00
 -1      4049 5.95355E+01 2.96012E+01 0.00000E+00
 -1      4050 4.41240E+01 1.90745E+01 0.00000E+00
 -1      4051 4.26240E+01 1.90745E+01 0.00000E+00
 -1      4052 5.68740E+01 2.03735E+01 0.00000E+00
 -1      4053 1.30728E+02 2.80429E+01 0.00000E+00
 -1      4054 1.31604E+02 2.78602E+01 0.00000E+00
 -1      4055 1.31580E+02 2.66274E+01 0.00000E+00
 -1      4056 8.39304E+01 1.75443E+01 0.00000E+00
 -1      4057 6.12410E+01 2.46401E+01 0.00000E+00
 -1      4058 6.19592E+01 2.38564E+01 0.00000E+00
 -1      4059 6.23167E+01 2.23502E+01 0.00000E+00
 -1      4060 2.27623E+01 1.95470E+01 0.00000E+00
 -1      4061 6.10165E+01 2.18797E+01 0.00000E+00
 -1      4062 9.84445E+01 3.15410E+01 0.00000E+00
 -1      4063 1.93388E+01 2.56690E+01 0.00000E+00
 -1      4064 1.92480E+01 2.69282E+01 0.00000E+00
 -1      4065 4.18740E+01 2.03735E+01 0.00000E+00
 -1      4066 4.11240E+01 1.90745E+01 0.00000E+00
 -1      4067 3.96240E+01 1.90745E+01 0.00000E+00
 -1      4068 3.43740E+01 1.77755E+01 0.00000E+00
 -1      4069 1.27655E+02 1.95163E+01 0.00000E+00
 -1      4070 1.26313E+02 1.94834E+01 0.00000E+00
 -1      4071 1.25563E+02 2.07824E+01 0.00000E+00
 -1      4072 1.27942E+02 2.16003E+01 0.00000E+00
 -1      4073 1.32125E+02 2.52285E+01 0.00000E+00
 -1      4074 2.91240E+01 1.90745E+01 0.00000E+00
 -1      4075 2.76240E+01 1.90745E+01 0.00000E+00
 -1      4076 1.96042E+01 2.29287E+01 0.00000E+00
 -1      4077 1.96042E+01 2.44006E+01 0.00000E+00
 -1      4078 2.08544E+01 2.51236E+01 0.00000E+00
 -1      4079 2.13852E+01 2.25869E+01 0.00000E+00
 -1      4080 9.43293E+01 2.07199E+01 0.00000E+00
 -1      4081 1.06350E+02 2.96412E+01 0.00000E+00
 -1      4082 3.21240E+01 1.90745E+01 0.00000E+00
 -1      4083 3.06240E+01 1.90745E+01 0.00000E+00
 -1      4084 2.98740E+01 2.03735E+01 0.00000E+00
 -1      4085 9.80301E+01 2.98585E+01 0.00000E+00
 -1      4086 9.99355E+01 3.05567E+01 0.00000E+00
 -1      4087 1.00686E+02 2.92577E+01 0.00000E+00
 -1      4088 9.83566E+01 2.84907E+01 0.00000E+00
 -1      4089 1.87080E+01 3.06842E+01 0.00000E+00
 -1      4090 1.94580E+01 2.93852E+01 0.00000E+00
 -1      4091 4.56240E+01 1.90745E+01 0.00000E+00
 -1      4092 4.48740E+01 2.03735E+01 0.00000E+00
 -1      4093 4.71240E+01 1.90745E+01 0.00000E+00
 -1      4094 2.79750E+01 2.79170E+01 0.00000E+00
 -1      4095 2.94750E+01 2.79170E+01 0.00000E+00
 -1      4096 3.10500E+01 2.79170E+01 0.00000E+00
 -1      4097 3.26250E+01 2.79170E+01 0.00000E+00
 -1      4098 3.03000E+01 2.66180E+01 0.00000E+00
 -1      4099 3.41250E+01 2.79170E+01 0.00000E+00
 -1      4100 3.56250E+01 2.79170E+01 0.00000E+00
 -1      4101 3.33750E+01 2.66180E+01 0.00000E+00
 -1      4102 3.71250E+01 2.79170E+01 0.00000E+00
 -1      4103 3.86250E+01 2.79170E+01 0.00000E+00
 -1      4104 3.63750E+01 2.66180E+01 0.00000E+00
 -1      4105 4.01250E+01 2.79170E+01 0.00000E+00
 -1      4106 4.16250E+01 2.79170E+01 0.00000E+00
 -1      4107 3.93750E+01 2.66180E+01 0.00000E+00
 -1      4108 4.31250E+01 2.79170E+01 0.00000E+00
 -1      4109 4.46250E+01 2.79170E+01 0.00000E+00
 -1      4110 4.23750E+01 2.66180E+01 0.00000E+00
 -1      4111 4.61250E+01 2.79170E+01 0.00000E+00
 -1      4112 4.76250E+01 2.79170E+01 0.00000E+00
 -1      4113 4.53750E+01 2.66180E+01 0.00000E+00
 -1      4114 4.91250E+01 2.79170E+01 0.00000E+00
 -1      4115 5.06250E+01 2.79170E+01 0.00000E+00
 -1      4116 4.83750E+01 2.66180E+01 0.00000E+00
 -1      4117 5.21250E+01 2.79170E+01 0.00000E+00
 -1      4118 5.36250E+01 2.79170E+01 0.00000E+00
 -1      4119 5.13750E+01 2.66180E+01 0.00000E+00
 -1      4120 5.52000E+01 2.79170E+01 0.00000E+00
 -1      4121 5.67750E+01 2.79170E+01 0.00000E+00
 -1      4122 5.44500E+01 2.66180E+01 0.00000E+00
 -1      4123 1.08624E+02 2.16725E+01 0.00000E+00
 -1      4124 1.07124E+02 2.16725E+01 0.00000E+00
 -1      4125 1.31250E+02 2.54113E+01 0.00000E+00
 -1      4126 5.76240E+01 2.16725E+01 0.00000E+00
 -1      4127 5.61240E+01 2.16725E+01 0.00000E+00
 -1      4128 1.14637E+02 2.83422E+01 0.00000E+00
 -1      4129 1.16213E+02 2.83422E+01 0.00000E+00
 -1      4130 1.17713E+02 2.83422E+01 0.00000E+00
 -1      4131 1.19213E+02 2.83422E+01 0.00000E+00
 -1      4132 1.16925E+02 2.70432E+01 0.00000E+00
 -1      4133 1.20713E+02 2.83422E+01 0.00000E+00
 -1      4134 1.22213E+02 2.83422E+01 0.00000E+00
 -1      4135 1.19925E+02 2.70432E+01 0.00000E+00
 -1      4136 1.23713E+02 2.83422E+01 0.00000E+00
 -1      4137 1.25213E+02 2.83422E+01 0.00000E+00
 -1      4138 1.22925E+02 2.70432E+01 0.00000E+00
 -1      4139 1.26713E+02 2.83422E+01 0.00000E+00
 -1      4140 1.28212E+02 2.83422E+01 0.00000E+00
 -1      4141 1.25925E+02 2.70432E+01 0.00000E+00
 -1      4142 1.29032E+02 2.82840E+01 0.00000E+00
 -1      4143 1.29908E+02 2.81012E+01 0.00000E+00
 -1      4144 1.29885E+02 2.68684E+01 0.00000E+00
 -1      4145 1.28245E+02 2.69850E+01 0.00000E+00
 -1      4146 6.05817E+01 2.54361E+01 0.00000E+00
 -1      4147 5.99996E+01 2.41819E+01 0.00000E+00
 -1      4148 5.99223E+01 2.62321E+01 0.00000E+00
 -1      4149 5.46240E+01 2.16725E+01 0.00000E+00
 -1      4150 5.31240E+01 2.16725E+01 0.00000E+00
 -1      4151 5.53740E+01 2.29715E+01 0.00000E+00
 -1      4152 1.02600E+02 2.83422E+01 0.00000E+00
 -1      4153 1.04100E+02 2.83422E+01 0.00000E+00
 -1      4154 1.95660E+01 2.83402E+01 0.00000E+00
 -1      4155 5.90147E+01 2.83512E+01 0.00000E+00
 -1      4156 2.49750E+01 2.79170E+01 0.00000E+00
 -1      4157 2.64750E+01 2.79170E+01 0.00000E+00
 -1      4158 2.72250E+01 2.66180E+01 0.00000E+00
 -1      4159 9.69499E+01 2.10349E+01 0.00000E+00
 -1      4160 9.56396E+01 2.08774E+01 0.00000E+00
 -1      4161 9.52155E+01 2.15389E+01 0.00000E+00
 -1      4162 1.11624E+02 2.16725E+01 0.00000E+00
 -1      4163 1.10124E+02 2.16725E+01 0.00000E+00
 -1      4164 1.09374E+02 2.29715E+01 0.00000E+00
 -1      4165 1.05624E+02 2.16725E+01 0.00000E+00
 -1      4166 1.04124E+02 2.16725E+01 0.00000E+00
 -1      4167 1.06374E+02 2.29715E+01 0.00000E+00
 -1      4168 1.14624E+02 2.16725E+01 0.00000E+00
 -1      4169 1.13124E+02 2.16725E+01 0.00000E+00
 -1      4170 1.12374E+02 2.29715E+01 0.00000E+00
 -1      4171 1.17624E+02 2.16725E+01 0.00000E+00
 -1      4172 1.16124E+02 2.16725E+01 0.00000E+00
 -1      4173 1.15374E+02 2.29715E+01 0.00000E+00
 -1      4174 1.20624E+02 2.16725E+01 0.00000E+00
 -1      4175 1.19124E+02 2.16725E+01 0.00000E+00
 -1      4176 1.18374E+02 2.29715E+01 0.00000E+00
 -1      4177 1.23624E+02 2.16725E+01 0.00000E+00
 -1      4178 1.22124E+02 2.16725E+01 0.00000E+00
 -1      4179 1.21374E+02 2.29715E+01 0.00000E+00
 -1      4180 1.30262E+02 2.40066E+01 0.00000E+00
 -1      4181 1.28930E+02 2.30050E+01 0.00000E+00
 -1      4182 1.27741E+02 2.25961E+01 0.00000E+00
 -1      4183 1.29717E+02 2.54055E+01 0.00000E+00
 -1      4184 2.44184E+01 1.93517E+01 0.00000E+00
 -1      4185 2.33067E+01 2.11232E+01 0.00000E+00
 -1      4186 5.95165E+01 2.18797E+01 0.00000E+00
 -1      4187 2.66684E+01 2.06507E+01 0.00000E+00
 -1      4188 2.59184E+01 1.93517E+01 0.00000E+00
 -1      4189 2.09070E+01 2.78040E+01 0.00000E+00
 -1      4190 3.81240E+01 1.90745E+01 0.00000E+00
 -1      4191 3.66240E+01 1.90745E+01 0.00000E+00
 -1      4192 3.88740E+01 2.03735E+01 0.00000E+00
 -1      4193 1.11637E+02 2.83422E+01 0.00000E+00
 -1      4194 1.13137E+02 2.83422E+01 0.00000E+00
 -1      4195 1.13925E+02 2.70432E+01 0.00000E+00
 -1      4196 1.05600E+02 2.83422E+01 0.00000E+00
 -1      4197 1.07100E+02 2.83422E+01 0.00000E+00
 -1      4198 1.04850E+02 2.70432E+01 0.00000E+00
 -1      4199 3.51240E+01 1.90745E+01 0.00000E+00
 -1      4200 3.36240E+01 1.90745E+01 0.00000E+00
 -1      4201 3.28740E+01 2.03735E+01 0.00000E+00
 -1      4202 3.58740E+01 2.03735E+01 0.00000E+00
 -1      4203 1.08600E+02 2.83422E+01 0.00000E+00
 -1      4204 1.10100E+02 2.83422E+01 0.00000E+00
 -1      4205 1.07850E+02 2.70432E+01 0.00000E+00
 -1      4206 2.21910E+01 2.78605E+01 0.00000E+00
 -1      4207 2.36910E+01 2.78605E+01 0.00000E+00
 -1      4208 2.44410E+01 2.65615E+01 0.00000E+00
 -1      4209 2.18730E+01 2.64485E+01 0.00000E+00
 -1      4210 5.87665E+01 2.31787E+01 0.00000E+00
 -1      4211 9.66183E+01 2.55453E+01 0.00000E+00
 -1      4212 9.76416E+01 2.66706E+01 0.00000E+00
 -1      4213 5.16240E+01 2.16725E+01 0.00000E+00
 -1      4214 5.01240E+01 2.16725E+01 0.00000E+00
 -1      4215 5.23740E+01 2.29715E+01 0.00000E+00
 -1      4216 4.78740E+01 2.03735E+01 0.00000E+00
 -1      4217 9.60465E+01 2.24273E+01 0.00000E+00
 -1      4218 5.76826E+01 2.57979E+01 0.00000E+00
 -1      4219 5.84326E+01 2.70969E+01 0.00000E+00
 -1      4220 1.03374E+02 2.29715E+01 0.00000E+00
 -1      4221 1.02624E+02 2.16725E+01 0.00000E+00
 -1      4222 1.01124E+02 2.16725E+01 0.00000E+00
 -1      4223 2.46975E+01 2.21964E+01 0.00000E+00
 -1      4224 2.30413E+01 2.23916E+01 0.00000E+00
 -1      4225 2.27760E+01 2.36600E+01 0.00000E+00
 -1      4226 9.97869E+01 2.13537E+01 0.00000E+00
 -1      4227 9.82869E+01 2.13537E+01 0.00000E+00
 -1      4228 9.78628E+01 2.20152E+01 0.00000E+00
 -1      4229 1.00537E+02 2.26527E+01 0.00000E+00
 -1      4230 5.81071E+01 2.39747E+01 0.00000E+00
 -1      4231 9.68291E+01 2.41961E+01 0.00000E+00
 -1      4232 1.01436E+02 2.79587E+01 0.00000E+00
 -1      4233 1.02186E+02 2.66597E+01 0.00000E+00
 -1      4234 1.00271E+02 2.75752E+01 0.00000E+00
 -1      4235 1.10887E+02 2.70432E+01 0.00000E+00
 -1      4236 4.26240E+01 2.16725E+01 0.00000E+00
 -1      4237 4.11240E+01 2.16725E+01 0.00000E+00
 -1      4238 3.06240E+01 2.16725E+01 0.00000E+00
 -1      4239 2.91240E+01 2.16725E+01 0.00000E+00
 -1      4240 4.56240E+01 2.16725E+01 0.00000E+00
 -1      4241 4.41240E+01 2.16725E+01 0.00000E+00
 -1      4242 4.33740E+01 2.29715E+01 0.00000E+00
 -1      4243 2.77635E+01 2.17958E+01 0.00000E+00
 -1      4244 2.60580E+01 2.20731E+01 0.00000E+00
 -1      4245 2.57926E+01 2.33414E+01 0.00000E+00
 -1      4246 2.85135E+01 2.30948E+01 0.00000E+00
 -1      4247 2.21384E+01 2.51801E+01 0.00000E+00
 -1      4248 1.26277E+02 2.23388E+01 0.00000E+00
 -1      4249 1.25088E+02 2.19298E+01 0.00000E+00
 -1      4250 1.24338E+02 2.32288E+01 0.00000E+00
 -1      4251 1.27265E+02 2.37434E+01 0.00000E+00
 -1      4252 2.64390E+01 2.49181E+01 0.00000E+00
 -1      4253 2.79390E+01 2.49181E+01 0.00000E+00
 -1      4254 5.64495E+01 2.47948E+01 0.00000E+00
 -1      4255 3.26250E+01 2.53190E+01 0.00000E+00
 -1      4256 3.41250E+01 2.53190E+01 0.00000E+00
 -1      4257 3.56250E+01 2.53190E+01 0.00000E+00
 -1      4258 3.71250E+01 2.53190E+01 0.00000E+00
 -1      4259 3.48750E+01 2.40200E+01 0.00000E+00
 -1      4260 3.86250E+01 2.53190E+01 0.00000E+00
 -1      4261 4.01250E+01 2.53190E+01 0.00000E+00
 -1      4262 3.78750E+01 2.40200E+01 0.00000E+00
 -1      4263 4.13745E+01 2.47948E+01 0.00000E+00
 -1      4264 4.28745E+01 2.47948E+01 0.00000E+00
 -1      4265 4.43745E+01 2.47948E+01 0.00000E+00
 -1      4266 4.58745E+01 2.47948E+01 0.00000E+00
 -1      4267 5.03745E+01 2.47948E+01 0.00000E+00
 -1      4268 5.18745E+01 2.47948E+01 0.00000E+00
 -1      4269 5.33745E+01 2.47948E+01 0.00000E+00
 -1      4270 5.49495E+01 2.47948E+01 0.00000E+00
 -1      4271 9.95560E+01 2.57551E+01 0.00000E+00
 -1      4272 9.91066E+01 2.71917E+01 0.00000E+00
 -1      4273 4.06245E+01 2.34958E+01 0.00000E+00
 -1      4274 3.98745E+01 2.21968E+01 0.00000E+00
 -1      4275 1.19149E+02 2.50074E+01 0.00000E+00
 -1      4276 1.20649E+02 2.50074E+01 0.00000E+00
 -1      4277 1.22149E+02 2.50074E+01 0.00000E+00
 -1      4278 1.23649E+02 2.50074E+01 0.00000E+00
 -1      4279 1.25113E+02 2.52647E+01 0.00000E+00
 -1      4280 1.26613E+02 2.52647E+01 0.00000E+00
 -1      4281 1.17649E+02 2.50074E+01 0.00000E+00
 -1      4282 3.23745E+01 2.21968E+01 0.00000E+00
 -1      4283 3.16245E+01 2.34958E+01 0.00000E+00
 -1      4284 2.37946E+01 2.49849E+01 0.00000E+00
 -1      4285 1.13149E+02 2.50074E+01 0.00000E+00
 -1      4286 1.14649E+02 2.50074E+01 0.00000E+00
 -1      4287 4.86240E+01 2.16725E+01 0.00000E+00
 -1      4288 4.71240E+01 2.16725E+01 0.00000E+00
 -1      4289 4.63740E+01 2.29715E+01 0.00000E+00
 -1      4290 4.93740E+01 2.29715E+01 0.00000E+00
 -1      4291 1.16149E+02 2.50074E+01 0.00000E+00
 -1      4292 1.07112E+02 2.50074E+01 0.00000E+00
 -1      4293 1.05612E+02 2.50074E+01 0.00000E+00
 -1      4294 1.10112E+02 2.50074E+01 0.00000E+00
 -1      4295 1.11649E+02 2.50074E+01 0.00000E+00
 -1      4296 1.08612E+02 2.50074E+01 0.00000E+00
 -1      4297 3.83745E+01 2.21968E+01 0.00000E+00
 -1      4298 1.04112E+02 2.50074E+01 0.00000E+00
 -1      4299 2.92995E+01 2.47948E+01 0.00000E+00
 -1      4300 3.08745E+01 2.47948E+01 0.00000E+00
 -1      4301 2.50785E+01 2.50414E+01 0.00000E+00
 -1      4302 1.02612E+02 2.50074E+01 0.00000E+00
 -1      4303 1.01448E+02 2.46238E+01 0.00000E+00
 -1      4304 4.73745E+01 2.47948E+01 0.00000E+00
 -1      4305 4.88745E+01 2.47948E+01 0.00000E+00
 -1      4306 3.68745E+01 2.21968E+01 0.00000E+00
 -1      4307 1.28077E+02 2.55220E+01 0.00000E+00
 -1      4308 9.99825E+01 2.41027E+01 0.00000E+00
 -1      4309 3.38745E+01 2.21968E+01 0.00000E+00
 -1      4310 9.73835E+01 2.27461E+01 0.00000E+00
 -1      4311 9.86454E+01 2.37840E+01 0.00000E+00
 -1      4312 3.53745E+01 2.21968E+01 0.00000E+00
 -1      4313 1.28897E+02 2.54637E+01 0.00000E+00
 -3
    3C                          2075                                     1
 -1       164    8    0    1
 -2         6         7        23      1120      1283      1137
 -1       165    8    0    1
 -2         7         8       164      1121      1284      1285
 -1       166    8    0    1
 -2         8         9       165      1122      1286      1287
 -1       167    8    0    1
 -2         8       165       164      1287      1288      1284
 -1       168    8    0    1
 -2         9        10       166      1123      1289      1290
 -1       169    8    0    1
 -2         9       166       165      1290      1291      1286
 -1       170    8    0    1
 -2        10        11       167      1124      1292      1293
 -1       171    8    0    1
 -2        10       167       166      1293      1294      1289
 -1       172    8    0    1
 -2        11        12       168      1125      1295      1296
 -1       173    8    0    1
 -2        11       168       167      1296      1297      1292
 -1       174    8    0    1
 -2        12        13       169      1126      1298      1299
 -1       175    8    0    1
 -2        12       169       168      1299      1300      1295
 -1       176    8    0    1
 -2        13        14       170      1127      1301      1302
 -1       177    8    0    1
 -2        13       170       169      1302      1303      1298
 -1       178    8    0    1
 -2        14        15       171      1128      1304      1305
 -1       179    8    0    1
 -2        14       171       170      1305      1306      1301
 -1       180    8    0    1
 -2        15        16       172      1129      1307      1308
 -1       181    8    0    1
 -2        15       172       171      1308      1309      1304
 -1       182    8    0    1
 -2        16        17       173      1130      1310      1311
 -1       183    8    0    1
 -2        16       173       172      1311      1312      1307
 -1       184    8    0    1
 -2        17        18       174      1131      1313      1314
 -1       185    8    0    1
 -2        17       174       173      1314      1315      1310
 -1       186    8    0    1
 -2        18        19       175      1132      1316      1317
 -1       187    8    0    1
 -2        18       175       174      1317      1318      1313
 -1       188    8    0    1
 -2        19        20       176      1133      1319      1320
 -1       189    8    0    1
 -2        19       176       175      1320      1321      1316
 -1       190    8    0    1
 -2        20        21       177      1134      1322      1323
 -1       191    8    0    1
 -2        20       177       176      1323      1324      1319
 -1       192    8    0    1
 -2        21        22       178      1135      1325      1326
 -1       193    8    0    1
 -2        21       178       177      1326      1327      1322
 -1       194    8    0    1
 -2        22         5       179      1136      1328      1329
 -1       195    8    0    1
 -2       178        22       179      1325      1329      1330
 -1       196    8    0    1
 -2         5        72       179      1187      1331      1328
 -1       197    8    0    1
 -2        24        23       180      1138      1332      1333
 -1       198    8    0    1
 -2        25        24       181      1139      1334      1335
 -1       199    8    0    1
 -2        24       180       181      1333      1336      1334
 -1       200    8    0    1
 -2        26        25       182      1140      1337      1338
 -1       201    8    0    1
 -2        25       181       182      1335      1339      1337
 -1       202    8    0    1
 -2        27        26       183      1141      1340      1341
 -1       203    8    0    1
 -2        26       182       183      1338      1342      1340
 -1       204    8    0    1
 -2        28        27       184      1142      1343      1344
 -1       205    8    0    1
 -2        27       183       184      1341      1345      1343
 -1       206    8    0    1
 -2        29        28       185      1143      1346      1347
 -1       207    8    0    1
 -2        28       184       185      1344      1348      1346
 -1       208    8    0    1
 -2        30        29       186      1144      1349      1350
 -1       209    8    0    1
 -2        29       185       186      1347      1351      1349
 -1       210    8    0    1
 -2        31        30       187      1145      1352      1353
 -1       211    8    0    1
 -2        30       186       187      1350      1354      1352
 -1       212    8    0    1
 -2        32        31       188      1146      1355      1356
 -1       213    8    0    1
 -2        31       187       188      1353      1357      1355
 -1       214    8    0    1
 -2        33        32       189      1147      1358      1359
 -1       215    8    0    1
 -2        32       188       189      1356      1360      1358
 -1       216    8    0    1
 -2        34        33       190      1148      1361      1362
 -1       217    8    0    1
 -2        33       189       190      1359      1363      1361
 -1       218    8    0    1
 -2        35        34       191      1149      1364      1365
 -1       219    8    0    1
 -2        34       190       191      1362      1366      1364
 -1       220    8    0    1
 -2        36        35       192      1150      1367      1368
 -1       221    8    0    1
 -2        35       191       192      1365      1369      1367
 -1       222    8    0    1
 -2        37        36       193      1151      1370      1371
 -1       223    8    0    1
 -2        36       192       193      1368      1372      1370
 -1       224    8    0    1
 -2        38        37       194      1152      1373      1374
 -1       225    8    0    1
 -2        37       193       194      1371      1375      1373
 -1       226    8    0    1
 -2        39        38       195      1153      1376      1377
 -1       227    8    0    1
 -2        38       194       195      1374      1378      1376
 -1       228    8    0    1
 -2        40        39       196      1154      1379      1380
 -1       229    8    0    1
 -2        39       195       196      1377      1381      1379
 -1       230    8    0    1
 -2        41        40       197      1155      1382      1383
 -1       231    8    0    1
 -2        40       196       197      1380      1384      1382
 -1       232    8    0    1
 -2        42        41       198      1156      1385      1386
 -1       233    8    0    1
 -2        41       197       198      1383      1387      1385
 -1       234    8    0    1
 -2        43        42       199      1157      1388      1389
 -1       235    8    0    1
 -2        42       198       199      1386      1390      1388
 -1       236    8    0    1
 -2        44        43       200      1158      1391      1392
 -1       237    8    0    1
 -2        43       199       200      1389      1393      1391
 -1       238    8    0    1
 -2        45        44       201      1159      1394      1395
 -1       239    8    0    1
 -2        44       200       201      1392      1396      1394
 -1       240    8    0    1
 -2        46        45       202      1160      1397      1398
 -1       241    8    0    1
 -2        45       201       202      1395      1399      1397
 -1       242    8    0    1
 -2        47        46       203      1161      1400      1401
 -1       243    8    0    1
 -2        46       202       203      1398      1402      1400
 -1       244    8    0    1
 -2        48        47       204      1162      1403      1404
 -1       245    8    0    1
 -2        47       203       204      1401      1405      1403
 -1       246    8    0    1
 -2        49        48       205      1163      1406      1407
 -1       247    8    0    1
 -2        48       204       205      1404      1408      1406
 -1       248    8    0    1
 -2        50        49       206      1164      1409      1410
 -1       249    8    0    1
 -2        49       205       206      1407      1411      1409
 -1       250    8    0    1
 -2        51        50       207      1165      1412      1413
 -1       251    8    0    1
 -2        50       206       207      1410      1414      1412
 -1       252    8    0    1
 -2        52        51       208      1166      1415      1416
 -1       253    8    0    1
 -2        51       207       208      1413      1417      1415
 -1       254    8    0    1
 -2        53        52       209      1167      1418      1419
 -1       255    8    0    1
 -2        52       208       209      1416      1420      1418
 -1       256    8    0    1
 -2        54        53       210      1168      1421      1422
 -1       257    8    0    1
 -2        53       209       210      1419      1423      1421
 -1       258    8    0    1
 -2        55        54       211      1169      1424      1425
 -1       259    8    0    1
 -2        54       210       211      1422      1426      1424
 -1       260    8    0    1
 -2        56        55       212      1170      1427      1428
 -1       261    8    0    1
 -2        55       211       212      1425      1429      1427
 -1       262    8    0    1
 -2        57        56       213      1171      1430      1431
 -1       263    8    0    1
 -2        56       212       213      1428      1432      1430
 -1       264    8    0    1
 -2        58        57       214      1172      1433      1434
 -1       265    8    0    1
 -2        57       213       214      1431      1435      1433
 -1       266    8    0    1
 -2        59        58       215      1173      1436      1437
 -1       267    8    0    1
 -2        58       214       215      1434      1438      1436
 -1       268    8    0    1
 -2        60        59       216      1174      1439      1440
 -1       269    8    0    1
 -2        59       215       216      1437      1441      1439
 -1       270    8    0    1
 -2        61        60       217      1175      1442      1443
 -1       271    8    0    1
 -2        60       216       217      1440      1444      1442
 -1       272    8    0    1
 -2        62        61       218      1176      1445      1446
 -1       273    8    0    1
 -2        61       217       218      1443      1447      1445
 -1       274    8    0    1
 -2        63        62       219      1177      1448      1449
 -1       275    8    0    1
 -2        62       218       219      1446      1450      1448
 -1       276    8    0    1
 -2        64        63       220      1178      1451      1452
 -1       277    8    0    1
 -2        63       219       220      1449      1453      1451
 -1       278    8    0    1
 -2        65        64       221      1179      1454      1455
 -1       279    8    0    1
 -2        64       220       221      1452      1456      1454
 -1       280    8    0    1
 -2        66        65       222      1180      1457      1458
 -1       281    8    0    1
 -2        65       221       222      1455      1459      1457
 -1       282    8    0    1
 -2        67        66       223      1181      1460      1461
 -1       283    8    0    1
 -2        66       222       223      1458      1462      1460
 -1       284    8    0    1
 -2        68        67       224      1182      1463      1464
 -1       285    8    0    1
 -2        67       223       224      1461      1465      1463
 -1       286    8    0    1
 -2        69        68       225      1183      1466      1467
 -1       287    8    0    1
 -2        68       224       225      1464      1468      1466
 -1       288    8    0    1
 -2        70        69       226      1184      1469      1470
 -1       289    8    0    1
 -2        69       225       226      1467      1471      1469
 -1       290    8    0    1
 -2        71        70       227      1185      1472      1473
 -1       291    8    0    1
 -2        70       226       227      1470      1474      1472
 -1       292    8    0    1
 -2         4        71       228      1186      1475      1476
 -1       293    8    0    1
 -2       136         4       228      1253      1476      1477
 -1       294    8    0    1
 -2        71       227       228      1473      1478      1475
 -1       295    8    0    1
 -2        72        73       229      1188      1479      1480
 -1       296    8    0    1
 -2        72       229       179      1480      1481      1331
 -1       297    8    0    1
 -2        73        74       230      1189      1482      1483
 -1       298    8    0    1
 -2        73       230       229      1483      1484      1479
 -1       299    8    0    1
 -2        74        75       231      1190      1485      1486
 -1       300    8    0    1
 -2        74       231       230      1486      1487      1482
 -1       301    8    0    1
 -2        75        76       232      1191      1488      1489
 -1       302    8    0    1
 -2        75       232       231      1489      1490      1485
 -1       303    8    0    1
 -2        76        77       233      1192      1491      1492
 -1       304    8    0    1
 -2        76       233       232      1492      1493      1488
 -1       305    8    0    1
 -2        77        78       234      1193      1494      1495
 -1       306    8    0    1
 -2        77       234       233      1495      1496      1491
 -1       307    8    0    1
 -2        78        79       235      1194      1497      1498
 -1       308    8    0    1
 -2        78       235       234      1498      1499      1494
 -1       309    8    0    1
 -2        79        80       236      1195      1500      1501
 -1       310    8    0    1
 -2        79       236       235      1501      1502      1497
 -1       311    8    0    1
 -2        80        81       237      1196      1503      1504
 -1       312    8    0    1
 -2        80       237       236      1504      1505      1500
 -1       313    8    0    1
 -2        81        82       238      1197      1506      1507
 -1       314    8    0    1
 -2        81       238       237      1507      1508      1503
 -1       315    8    0    1
 -2        82        83       239      1198      1509      1510
 -1       316    8    0    1
 -2        82       239       238      1510      1511      1506
 -1       317    8    0    1
 -2        83        84       240      1199      1512      1513
 -1       318    8    0    1
 -2        83       240       239      1513      1514      1509
 -1       319    8    0    1
 -2        84        85       241      1200      1515      1516
 -1       320    8    0    1
 -2        84       241       240      1516      1517      1512
 -1       321    8    0    1
 -2        85        86       242      1201      1518      1519
 -1       322    8    0    1
 -2        85       242       241      1519      1520      1515
 -1       323    8    0    1
 -2        86        87       243      1202      1521      1522
 -1       324    8    0    1
 -2        86       243       242      1522      1523      1518
 -1       325    8    0    1
 -2        87        88       244      1203      1524      1525
 -1       326    8    0    1
 -2        87       244       243      1525      1526      1521
 -1       327    8    0    1
 -2        88        89       245      1204      1527      1528
 -1       328    8    0    1
 -2        88       245       244      1528      1529      1524
 -1       329    8    0    1
 -2        89        90       246      1205      1530      1531
 -1       330    8    0    1
 -2        89       246       245      1531      1532      1527
 -1       331    8    0    1
 -2        90        91       247      1206      1533      1534
 -1       332    8    0    1
 -2        90       247       246      1534      1535      1530
 -1       333    8    0    1
 -2        91        92       248      1207      1536      1537
 -1       334    8    0    1
 -2        91       248       247      1537      1538      1533
 -1       335    8    0    1
 -2        92        93       249      1208      1539      1540
 -1       336    8    0    1
 -2        92       249       248      1540      1541      1536
 -1       337    8    0    1
 -2        93        94       250      1209      1542      1543
 -1       338    8    0    1
 -2        93       250       249      1543      1544      1539
 -1       339    8    0    1
 -2        94        95       251      1210      1545      1546
 -1       340    8    0    1
 -2        94       251       250      1546      1547      1542
 -1       341    8    0    1
 -2        95        96       252      1211      1548      1549
 -1       342    8    0    1
 -2        95       252       251      1549      1550      1545
 -1       343    8    0    1
 -2        96        97       253      1212      1551      1552
 -1       344    8    0    1
 -2        96       253       252      1552      1553      1548
 -1       345    8    0    1
 -2        97        98       254      1213      1554      1555
 -1       346    8    0    1
 -2        97       254       253      1555      1556      1551
 -1       347    8    0    1
 -2        98        99       255      1214      1557      1558
 -1       348    8    0    1
 -2        98       255       254      1558      1559      1554
 -1       349    8    0    1
 -2        99       100       256      1215      1560      1561
 -1       350    8    0    1
 -2        99       256       255      1561      1562      1557
 -1       351    8    0    1
 -2       100       101       257      1216      1563      1564
 -1       352    8    0    1
 -2       100       257       256      1564      1565      1560
 -1       353    8    0    1
 -2       101       102       258      1217      1566      1567
 -1       354    8    0    1
 -2       101       258       257      1567      1568      1563
 -1       355    8    0    1
 -2       102       103       259      1218      1569      1570
 -1       356    8    0    1
 -2       102       259       258      1570      1571      1566
 -1       357    8    0    1
 -2       103       104       260      1219      1572      1573
 -1       358    8    0    1
 -2       103       260       259      1573      1574      1569
 -1       359    8    0    1
 -2       104       105       261      1220      1575      1576
 -1       360    8    0    1
 -2       104       261       260      1576      1577      1572
 -1       361    8    0    1
 -2       105       106       262      1221      1578      1579
 -1       362    8    0    1
 -2       105       262       261      1579      1580      1575
 -1       363    8    0    1
 -2       106       107       263      1222      1581      1582
 -1       364    8    0    1
 -2       106       263       262      1582      1583      1578
 -1       365    8    0    1
 -2       107       108       264      1223      1584      1585
 -1       366    8    0    1
 -2       107       264       263      1585      1586      1581
 -1       367    8    0    1
 -2       108       109       265      1224      1587      1588
 -1       368    8    0    1
 -2       108       265       264      1588      1589      1584
 -1       369    8    0    1
 -2       109       110       266      1225      1590      1591
 -1       370    8    0    1
 -2       109       266       265      1591      1592      1587
 -1       371    8    0    1
 -2       110       111       267      1226      1593      1594
 -1       372    8    0    1
 -2       110       267       266      1594      1595      1590
 -1       373    8    0    1
 -2       111       112       268      1227      1596      1597
 -1       374    8    0    1
 -2       111       268       267      1597      1598      1593
 -1       375    8    0    1
 -2       112       113       269      1228      1599      1600
 -1       376    8    0    1
 -2       112       269       268      1600      1601      1596
 -1       377    8    0    1
 -2       113       114       270      1229      1602      1603
 -1       378    8    0    1
 -2       113       270       269      1603      1604      1599
 -1       379    8    0    1
 -2       114       115       271      1230      1605      1606
 -1       380    8    0    1
 -2       114       271       270      1606      1607      1602
 -1       381    8    0    1
 -2       115       116       272      1231      1608      1609
 -1       382    8    0    1
 -2       115       272       271      1609      1610      1605
 -1       383    8    0    1
 -2       116       117       273      1232      1611      1612
 -1       384    8    0    1
 -2       116       273       272      1612      1613      1608
 -1       385    8    0    1
 -2       117       118       274      1233      1614      1615
 -1       386    8    0    1
 -2       117       274       273      1615      1616      1611
 -1       387    8    0    1
 -2       118       119       275      1234      1617      1618
 -1       388    8    0    1
 -2       118       275       274      1618      1619      1614
 -1       389    8    0    1
 -2       119       120       276      1235      1620      1621
 -1       390    8    0    1
 -2       119       276       275      1621      1622      1617
 -1       391    8    0    1
 -2       120         3       121      1236      1237      1623
 -1       392    8    0    1
 -2       121       122       277      1238      1624      1625
 -1       393    8    0    1
 -2       122       123       278      1239      1626      1627
 -1       394    8    0    1
 -2       122       278       277      1627      1628      1624
 -1       395    8    0    1
 -2       123       124       279      1240      1629      1630
 -1       396    8    0    1
 -2       123       279       278      1630      1631      1626
 -1       397    8    0    1
 -2       124       125       280      1241      1632      1633
 -1       398    8    0    1
 -2       124       280       279      1633      1634      1629
 -1       399    8    0    1
 -2       125       126       281      1242      1635      1636
 -1       400    8    0    1
 -2       125       281       280      1636      1637      1632
 -1       401    8    0    1
 -2       126       127       282      1243      1638      1639
 -1       402    8    0    1
 -2       126       282       281      1639      1640      1635
 -1       403    8    0    1
 -2       127       128       283      1244      1641      1642
 -1       404    8    0    1
 -2       127       283       282      1642      1643      1638
 -1       405    8    0    1
 -2       128       129       284      1245      1644      1645
 -1       406    8    0    1
 -2       128       284       283      1645      1646      1641
 -1       407    8    0    1
 -2       129       130       285      1246      1647      1648
 -1       408    8    0    1
 -2       129       285       284      1648      1649      1644
 -1       409    8    0    1
 -2       130       131       286      1247      1650      1651
 -1       410    8    0    1
 -2       130       286       285      1651      1652      1647
 -1       411    8    0    1
 -2       131       132       287      1248      1653      1654
 -1       412    8    0    1
 -2       131       287       286      1654      1655      1650
 -1       413    8    0    1
 -2       132       133       288      1249      1656      1657
 -1       414    8    0    1
 -2       132       288       287      1657      1658      1653
 -1       415    8    0    1
 -2       133       134       289      1250      1659      1660
 -1       416    8    0    1
 -2       133       289       288      1660      1661      1656
 -1       417    8    0    1
 -2       134       135       290      1251      1662      1663
 -1       418    8    0    1
 -2       134       290       289      1663      1664      1659
 -1       419    8    0    1
 -2       135       136       291      1252      1665      1666
 -1       420    8    0    1
 -2       290       135       291      1662      1666      1667
 -1       421    8    0    1
 -2       136       228       291      1477      1668      1665
 -1       422    8    0    1
 -2         2       137       292      1254      1669      1670
 -1       423    8    0    1
 -2       137       138       293      1255      1671      1672
 -1       424    8    0    1
 -2       138       139       294      1256      1673      1674
 -1       425    8    0    1
 -2       139       140       295      1257      1675      1676
 -1       426    8    0    1
 -2       140       141       296      1258      1677      1678
 -1       427    8    0    1
 -2       141       142       297      1259      1679      1680
 -1       428    8    0    1
 -2       142       143       298      1260      1681      1682
 -1       429    8    0    1
 -2       143       144       299      1261      1683      1684
 -1       430    8    0    1
 -2       144       145       300      1262      1685      1686
 -1       431    8    0    1
 -2       145       146       301      1263      1687      1688
 -1       432    8    0    1
 -2       146       147       302      1264      1689      1690
 -1       433    8    0    1
 -2       147       148       303      1265      1691      1692
 -1       434    8    0    1
 -2       148       149       304      1266      1693      1694
 -1       435    8    0    1
 -2       149       150       305      1267      1695      1696
 -1       436    8    0    1
 -2       150       151       306      1268      1697      1698
 -1       437    8    0    1
 -2       151       152       307      1269      1699      1700
 -1       438    8    0    1
 -2       152       153       308      1270      1701      1702
 -1       439    8    0    1
 -2       153       154       309      1271      1703      1704
 -1       440    8    0    1
 -2       154       155       310      1272      1705      1706
 -1       441    8    0    1
 -2       155       156       311      1273      1707      1708
 -1       442    8    0    1
 -2       156       157       312      1274      1709      1710
 -1       443    8    0    1
 -2       157       158       313      1275      1711      1712
 -1       444    8    0    1
 -2       158       159       314      1276      1713      1714
 -1       445    8    0    1
 -2       159         1       315      1277      1715      1716
 -1       446    8    0    1
 -2         1       160       316      1278      1717      1718
 -1       447    8    0    1
 -2       160       161       317      1279      1719      1720
 -1       448    8    0    1
 -2       161       162       318      1280      1721      1722
 -1       449    8    0    1
 -2       162       163       319      1281      1723      1724
 -1       450    8    0    1
 -2       163         2       320      1282      1725      1726
 -1       451    8    0    1
 -2       294       139       295      1673      1676      1727
 -1       452    8    0    1
 -2         2       292       320      1670      1728      1725
 -1       453    8    0    1
 -2       120       121       276      1623      1729      1620
 -1       454    8    0    1
 -2       121       277       276      1625      1730      1729
 -1       455    8    0    1
 -2       292       137       293      1669      1672      1731
 -1       456    8    0    1
 -2       293       138       294      1671      1674      1732
 -1       457    8    0    1
 -2       140       296       295      1678      1733      1675
 -1       458    8    0    1
 -2       141       297       296      1680      1734      1677
 -1       459    8    0    1
 -2       142       298       297      1682      1735      1679
 -1       460    8    0    1
 -2       143       299       298      1684      1736      1681
 -1       461    8    0    1
 -2       144       300       299      1686      1737      1683
 -1       462    8    0    1
 -2       145       301       300      1688      1738      1685
 -1       463    8    0    1
 -2       146       302       301      1690      1739      1687
 -1       464    8    0    1
 -2       147       303       302      1692      1740      1689
 -1       465    8    0    1
 -2       148       304       303      1694      1741      1691
 -1       466    8    0    1
 -2       149       305       304      1696      1742      1693
 -1       467    8    0    1
 -2       150       306       305      1698      1743      1695
 -1       468    8    0    1
 -2       151       307       306      1700      1744      1697
 -1       469    8    0    1
 -2       152       308       307      1702      1745      1699
 -1       470    8    0    1
 -2       153       309       308      1704      1746      1701
 -1       471    8    0    1
 -2       154       310       309      1706      1747      1703
 -1       472    8    0    1
 -2       155       311       310      1708      1748      1705
 -1       473    8    0    1
 -2       156       312       311      1710      1749      1707
 -1       474    8    0    1
 -2       157       313       312      1712      1750      1709
 -1       475    8    0    1
 -2       158       314       313      1714      1751      1711
 -1       476    8    0    1
 -2       159       315       314      1716      1752      1713
 -1       477    8    0    1
 -2         1       316       315      1718      1753      1715
 -1       478    8    0    1
 -2       160       317       316      1720      1754      1717
 -1       479    8    0    1
 -2       161       318       317      1722      1755      1719
 -1       480    8    0    1
 -2       162       319       318      1724      1756      1721
 -1       481    8    0    1
 -2       163       320       319      1726      1757      1723
 -1       482    8    0    1
 -2        23         7       164      1283      1285      1758
 -1       483    8    0    1
 -2       165       166       321      1291      1759      1760
 -1       484    8    0    1
 -2       164       165       322      1288      1761      1762
 -1       485    8    0    1
 -2       165       321       322      1760      1763      1761
 -1       486    8    0    1
 -2       167       168       323      1297      1764      1765
 -1       487    8    0    1
 -2       168       169       324      1300      1766      1767
 -1       488    8    0    1
 -2       168       324       323      1767      1768      1764
 -1       489    8    0    1
 -2       169       170       325      1303      1769      1770
 -1       490    8    0    1
 -2       169       325       324      1770      1771      1766
 -1       491    8    0    1
 -2       170       171       326      1306      1772      1773
 -1       492    8    0    1
 -2       170       326       325      1773      1774      1769
 -1       493    8    0    1
 -2       171       172       327      1309      1775      1776
 -1       494    8    0    1
 -2       171       327       326      1776      1777      1772
 -1       495    8    0    1
 -2       172       173       328      1312      1778      1779
 -1       496    8    0    1
 -2       172       328       327      1779      1780      1775
 -1       497    8    0    1
 -2       173       174       329      1315      1781      1782
 -1       498    8    0    1
 -2       173       329       328      1782      1783      1778
 -1       499    8    0    1
 -2       174       175       330      1318      1784      1785
 -1       500    8    0    1
 -2       174       330       329      1785      1786      1781
 -1       501    8    0    1
 -2       175       176       331      1321      1787      1788
 -1       502    8    0    1
 -2       175       331       330      1788      1789      1784
 -1       503    8    0    1
 -2       176       177       332      1324      1790      1791
 -1       504    8    0    1
 -2       176       332       331      1791      1792      1787
 -1       505    8    0    1
 -2       177       178       333      1327      1793      1794
 -1       506    8    0    1
 -2       177       333       332      1794      1795      1790
 -1       507    8    0    1
 -2       178       179       334      1330      1796      1797
 -1       508    8    0    1
 -2       333       178       334      1793      1797      1798
 -1       509    8    0    1
 -2       179       229       334      1481      1799      1796
 -1       510    8    0    1
 -2       180        23       164      1332      1758      1800
 -1       511    8    0    1
 -2       229       230       335      1484      1801      1802
 -1       512    8    0    1
 -2       229       335       334      1802      1803      1799
 -1       513    8    0    1
 -2       180       164       322      1800      1762      1804
 -1       514    8    0    1
 -2       182       181       336      1339      1805      1806
 -1       515    8    0    1
 -2       183       182       337      1342      1807      1808
 -1       516    8    0    1
 -2       182       336       337      1806      1809      1807
 -1       517    8    0    1
 -2       184       183       338      1345      1810      1811
 -1       518    8    0    1
 -2       183       337       338      1808      1812      1810
 -1       519    8    0    1
 -2       185       184       339      1348      1813      1814
 -1       520    8    0    1
 -2       184       338       339      1811      1815      1813
 -1       521    8    0    1
 -2       186       185       340      1351      1816      1817
 -1       522    8    0    1
 -2       185       339       340      1814      1818      1816
 -1       523    8    0    1
 -2       187       186       341      1354      1819      1820
 -1       524    8    0    1
 -2       186       340       341      1817      1821      1819
 -1       525    8    0    1
 -2       188       187       342      1357      1822      1823
 -1       526    8    0    1
 -2       187       341       342      1820      1824      1822
 -1       527    8    0    1
 -2       189       188       343      1360      1825      1826
 -1       528    8    0    1
 -2       188       342       343      1823      1827      1825
 -1       529    8    0    1
 -2       190       189       344      1363      1828      1829
 -1       530    8    0    1
 -2       189       343       344      1826      1830      1828
 -1       531    8    0    1
 -2       191       190       345      1366      1831      1832
 -1       532    8    0    1
 -2       190       344       345      1829      1833      1831
 -1       533    8    0    1
 -2       192       191       346      1369      1834      1835
 -1       534    8    0    1
 -2       191       345       346      1832      1836      1834
 -1       535    8    0    1
 -2       193       192       347      1372      1837      1838
 -1       536    8    0    1
 -2       192       346       347      1835      1839      1837
 -1       537    8    0    1
 -2       194       193       348      1375      1840      1841
 -1       538    8    0    1
 -2       193       347       348      1838      1842      1840
 -1       539    8    0    1
 -2       195       194       349      1378      1843      1844
 -1       540    8    0    1
 -2       194       348       349      1841      1845      1843
 -1       541    8    0    1
 -2       196       195       350      1381      1846      1847
 -1       542    8    0    1
 -2       195       349       350      1844      1848      1846
 -1       543    8    0    1
 -2       197       196       351      1384      1849      1850
 -1       544    8    0    1
 -2       196       350       351      1847      1851      1849
 -1       545    8    0    1
 -2       198       197       352      1387      1852      1853
 -1       546    8    0    1
 -2       197       351       352      1850      1854      1852
 -1       547    8    0    1
 -2       199       198       353      1390      1855      1856
 -1       548    8    0    1
 -2       198       352       353      1853      1857      1855
 -1       549    8    0    1
 -2       200       199       354      1393      1858      1859
 -1       550    8    0    1
 -2       199       353       354      1856      1860      1858
 -1       551    8    0    1
 -2       201       200       355      1396      1861      1862
 -1       552    8    0    1
 -2       200       354       355      1859      1863      1861
 -1       553    8    0    1
 -2       202       201       356      1399      1864      1865
 -1       554    8    0    1
 -2       201       355       356      1862      1866      1864
 -1       555    8    0    1
 -2       203       202       357      1402      1867      1868
 -1       556    8    0    1
 -2       202       356       357      1865      1869      1867
 -1       557    8    0    1
 -2       204       203       358      1405      1870      1871
 -1       558    8    0    1
 -2       205       204       359      1408      1872      1873
 -1       559    8    0    1
 -2       206       205       360      1411      1874      1875
 -1       560    8    0    1
 -2       207       206       361      1414      1876      1877
 -1       561    8    0    1
 -2       208       207       362      1417      1878      1879
 -1       562    8    0    1
 -2       207       361       362      1877      1880      1878
 -1       563    8    0    1
 -2       209       208       363      1420      1881      1882
 -1       564    8    0    1
 -2       208       362       363      1879      1883      1881
 -1       565    8    0    1
 -2       210       209       364      1423      1884      1885
 -1       566    8    0    1
 -2       209       363       364      1882      1886      1884
 -1       567    8    0    1
 -2       211       210       365      1426      1887      1888
 -1       568    8    0    1
 -2       210       364       365      1885      1889      1887
 -1       569    8    0    1
 -2       212       211       366      1429      1890      1891
 -1       570    8    0    1
 -2       211       365       366      1888      1892      1890
 -1       571    8    0    1
 -2       213       212       367      1432      1893      1894
 -1       572    8    0    1
 -2       212       366       367      1891      1895      1893
 -1       573    8    0    1
 -2       214       213       368      1435      1896      1897
 -1       574    8    0    1
 -2       213       367       368      1894      1898      1896
 -1       575    8    0    1
 -2       215       214       369      1438      1899      1900
 -1       576    8    0    1
 -2       214       368       369      1897      1901      1899
 -1       577    8    0    1
 -2       216       215       370      1441      1902      1903
 -1       578    8    0    1
 -2       215       369       370      1900      1904      1902
 -1       579    8    0    1
 -2       217       216       371      1444      1905      1906
 -1       580    8    0    1
 -2       216       370       371      1903      1907      1905
 -1       581    8    0    1
 -2       218       217       372      1447      1908      1909
 -1       582    8    0    1
 -2       217       371       372      1906      1910      1908
 -1       583    8    0    1
 -2       219       218       373      1450      1911      1912
 -1       584    8    0    1
 -2       218       372       373      1909      1913      1911
 -1       585    8    0    1
 -2       220       219       374      1453      1914      1915
 -1       586    8    0    1
 -2       219       373       374      1912      1916      1914
 -1       587    8    0    1
 -2       221       220       375      1456      1917      1918
 -1       588    8    0    1
 -2       220       374       375      1915      1919      1917
 -1       589    8    0    1
 -2       222       221       376      1459      1920      1921
 -1       590    8    0    1
 -2       221       375       376      1918      1922      1920
 -1       591    8    0    1
 -2       223       222       377      1462      1923      1924
 -1       592    8    0    1
 -2       222       376       377      1921      1925      1923
 -1       593    8    0    1
 -2       224       223       378      1465      1926      1927
 -1       594    8    0    1
 -2       223       377       378      1924      1928      1926
 -1       595    8    0    1
 -2       225       224       379      1468      1929      1930
 -1       596    8    0    1
 -2       224       378       379      1927      1931      1929
 -1       597    8    0    1
 -2       226       225       380      1471      1932      1933
 -1       598    8    0    1
 -2       225       379       380      1930      1934      1932
 -1       599    8    0    1
 -2       227       226       381      1474      1935      1936
 -1       600    8    0    1
 -2       226       380       381      1933      1937      1935
 -1       601    8    0    1
 -2       228       227       291      1478      1938      1668
 -1       602    8    0    1
 -2       231       232       382      1490      1939      1940
 -1       603    8    0    1
 -2       232       233       383      1493      1941      1942
 -1       604    8    0    1
 -2       232       383       382      1942      1943      1939
 -1       605    8    0    1
 -2       233       234       384      1496      1944      1945
 -1       606    8    0    1
 -2       233       384       383      1945      1946      1941
 -1       607    8    0    1
 -2       234       235       385      1499      1947      1948
 -1       608    8    0    1
 -2       234       385       384      1948      1949      1944
 -1       609    8    0    1
 -2       235       236       386      1502      1950      1951
 -1       610    8    0    1
 -2       235       386       385      1951      1952      1947
 -1       611    8    0    1
 -2       236       237       387      1505      1953      1954
 -1       612    8    0    1
 -2       236       387       386      1954      1955      1950
 -1       613    8    0    1
 -2       237       238       388      1508      1956      1957
 -1       614    8    0    1
 -2       237       388       387      1957      1958      1953
 -1       615    8    0    1
 -2       238       239       389      1511      1959      1960
 -1       616    8    0    1
 -2       238       389       388      1960      1961      1956
 -1       617    8    0    1
 -2       239       240       390      1514      1962      1963
 -1       618    8    0    1
 -2       239       390       389      1963      1964      1959
 -1       619    8    0    1
 -2       240       241       391      1517      1965      1966
 -1       620    8    0    1
 -2       240       391       390      1966      1967      1962
 -1       621    8    0    1
 -2       241       242       392      1520      1968      1969
 -1       622    8    0    1
 -2       241       392       391      1969      1970      1965
 -1       623    8    0    1
 -2       242       243       393      1523      1971      1972
 -1       624    8    0    1
 -2       242       393       392      1972      1973      1968
 -1       625    8    0    1
 -2       243       244       394      1526      1974      1975
 -1       626    8    0    1
 -2       243       394       393      1975      1976      1971
 -1       627    8    0    1
 -2       244       245       395      1529      1977      1978
 -1       628    8    0    1
 -2       244       395       394      1978      1979      1974
 -1       629    8    0    1
 -2       245       246       396      1532      1980      1981
 -1       630    8    0    1
 -2       245       396       395      1981      1982      1977
 -1       631    8    0    1
 -2       246       247       397      1535      1983      1984
 -1       632    8    0    1
 -2       246       397       396      1984      1985      1980
 -1       633    8    0    1
 -2       247       248       398      1538      1986      1987
 -1       634    8    0    1
 -2       247       398       397      1987      1988      1983
 -1       635    8    0    1
 -2       248       249       399      1541      1989      1990
 -1       636    8    0    1
 -2       248       399       398      1990      1991      1986
 -1       637    8    0    1
 -2       249       250       400      1544      1992      1993
 -1       638    8    0    1
 -2       249       400       399      1993      1994      1989
 -1       639    8    0    1
 -2       250       251       401      1547      1995      1996
 -1       640    8    0    1
 -2       250       401       400      1996      1997      1992
 -1       641    8    0    1
 -2       251       252       402      1550      1998      1999
 -1       642    8    0    1
 -2       251       402       401      1999      2000      1995
 -1       643    8    0    1
 -2       252       253       403      1553      2001      2002
 -1       644    8    0    1
 -2       252       403       402      2002      2003      1998
 -1       645    8    0    1
 -2       253       254       404      1556      2004      2005
 -1       646    8    0    1
 -2       253       404       403      2005      2006      2001
 -1       647    8    0    1
 -2       254       255       405      1559      2007      2008
 -1       648    8    0    1
 -2       254       405       404      2008      2009      2004
 -1       649    8    0    1
 -2       255       256       406      1562      2010      2011
 -1       650    8    0    1
 -2       255       406       405      2011      2012      2007
 -1       651    8    0    1
 -2       256       257       407      1565      2013      2014
 -1       652    8    0    1
 -2       256       407       406      2014      2015      2010
 -1       653    8    0    1
 -2       257       258       408      1568      2016      2017
 -1       654    8    0    1
 -2       257       408       407      2017      2018      2013
 -1       655    8    0    1
 -2       258       259       409      1571      2019      2020
 -1       656    8    0    1
 -2       258       409       408      2020      2021      2016
 -1       657    8    0    1
 -2       259       260       410      1574      2022      2023
 -1       658    8    0    1
 -2       259       410       409      2023      2024      2019
 -1       659    8    0    1
 -2       260       261       411      1577      2025      2026
 -1       660    8    0    1
 -2       260       411       410      2026      2027      2022
 -1       661    8    0    1
 -2       261       262       412      1580      2028      2029
 -1       662    8    0    1
 -2       261       412       411      2029      2030      2025
 -1       663    8    0    1
 -2       262       263       413      1583      2031      2032
 -1       664    8    0    1
 -2       262       413       412      2032      2033      2028
 -1       665    8    0    1
 -2       263       264       414      1586      2034      2035
 -1       666    8    0    1
 -2       263       414       413      2035      2036      2031
 -1       667    8    0    1
 -2       264       265       415      1589      2037      2038
 -1       668    8    0    1
 -2       264       415       414      2038      2039      2034
 -1       669    8    0    1
 -2       265       266       416      1592      2040      2041
 -1       670    8    0    1
 -2       265       416       415      2041      2042      2037
 -1       671    8    0    1
 -2       266       267       417      1595      2043      2044
 -1       672    8    0    1
 -2       266       417       416      2044      2045      2040
 -1       673    8    0    1
 -2       267       268       418      1598      2046      2047
 -1       674    8    0    1
 -2       267       418       417      2047      2048      2043
 -1       675    8    0    1
 -2       268       269       419      1601      2049      2050
 -1       676    8    0    1
 -2       268       419       418      2050      2051      2046
 -1       677    8    0    1
 -2       269       270       420      1604      2052      2053
 -1       678    8    0    1
 -2       269       420       419      2053      2054      2049
 -1       679    8    0    1
 -2       270       271       421      1607      2055      2056
 -1       680    8    0    1
 -2       270       421       420      2056      2057      2052
 -1       681    8    0    1
 -2       271       272       422      1610      2058      2059
 -1       682    8    0    1
 -2       271       422       421      2059      2060      2055
 -1       683    8    0    1
 -2       272       273       423      1613      2061      2062
 -1       684    8    0    1
 -2       272       423       422      2062      2063      2058
 -1       685    8    0    1
 -2       273       274       424      1616      2064      2065
 -1       686    8    0    1
 -2       273       424       423      2065      2066      2061
 -1       687    8    0    1
 -2       274       275       425      1619      2067      2068
 -1       688    8    0    1
 -2       274       425       424      2068      2069      2064
 -1       689    8    0    1
 -2       275       276       426      1622      2070      2071
 -1       690    8    0    1
 -2       425       275       426      2067      2071      2072
 -1       691    8    0    1
 -2       276       277       426      1730      2073      2070
 -1       692    8    0    1
 -2       279       280       427      1634      2074      2075
 -1       693    8    0    1
 -2       278       279       428      1631      2076      2077
 -1       694    8    0    1
 -2       279       427       428      2075      2078      2076
 -1       695    8    0    1
 -2       277       278       426      1628      2079      2073
 -1       696    8    0    1
 -2       280       281       429      1637      2080      2081
 -1       697    8    0    1
 -2       280       429       427      2081      2082      2074
 -1       698    8    0    1
 -2       281       282       430      1640      2083      2084
 -1       699    8    0    1
 -2       281       430       429      2084      2085      2080
 -1       700    8    0    1
 -2       282       283       431      1643      2086      2087
 -1       701    8    0    1
 -2       282       431       430      2087      2088      2083
 -1       702    8    0    1
 -2       283       284       432      1646      2089      2090
 -1       703    8    0    1
 -2       283       432       431      2090      2091      2086
 -1       704    8    0    1
 -2       284       285       433      1649      2092      2093
 -1       705    8    0    1
 -2       284       433       432      2093      2094      2089
 -1       706    8    0    1
 -2       285       286       434      1652      2095      2096
 -1       707    8    0    1
 -2       285       434       433      2096      2097      2092
 -1       708    8    0    1
 -2       286       287       435      1655      2098      2099
 -1       709    8    0    1
 -2       286       435       434      2099      2100      2095
 -1       710    8    0    1
 -2       287       288       436      1658      2101      2102
 -1       711    8    0    1
 -2       287       436       435      2102      2103      2098
 -1       712    8    0    1
 -2       288       289       437      1661      2104      2105
 -1       713    8    0    1
 -2       288       437       436      2105      2106      2101
 -1       714    8    0    1
 -2       289       290       438      1664      2107      2108
 -1       715    8    0    1
 -2       289       438       437      2108      2109      2104
 -1       716    8    0    1
 -2       230       231       439      1487      2110      2111
 -1       717    8    0    1
 -2       335       230       439      1801      2111      2112
 -1       718    8    0    1
 -2       231       382       439      1940      2113      2110
 -1       719    8    0    1
 -2       293       294       440      1732      2114      2115
 -1       720    8    0    1
 -2       295       296       441      1733      2116      2117
 -1       721    8    0    1
 -2       320       292       442      1728      2118      2119
 -1       722    8    0    1
 -2       294       295       443      1727      2120      2121
 -1       723    8    0    1
 -2       294       443       440      2121      2122      2114
 -1       724    8    0    1
 -2       166       167       444      1294      2123      2124
 -1       725    8    0    1
 -2       321       166       444      1759      2124      2125
 -1       726    8    0    1
 -2       167       323       444      1765      2126      2123
 -1       727    8    0    1
 -2       296       297       445      1734      2127      2128
 -1       728    8    0    1
 -2       297       298       446      1735      2129      2130
 -1       729    8    0    1
 -2       298       299       447      1736      2131      2132
 -1       730    8    0    1
 -2       299       300       448      1737      2133      2134
 -1       731    8    0    1
 -2       300       301       449      1738      2135      2136
 -1       732    8    0    1
 -2       301       302       450      1739      2137      2138
 -1       733    8    0    1
 -2       302       303       451      1740      2139      2140
 -1       734    8    0    1
 -2       303       304       452      1741      2141      2142
 -1       735    8    0    1
 -2       303       452       451      2142      2143      2139
 -1       736    8    0    1
 -2       304       305       453      1742      2144      2145
 -1       737    8    0    1
 -2       305       306       454      1743      2146      2147
 -1       738    8    0    1
 -2       306       307       455      1744      2148      2149
 -1       739    8    0    1
 -2       307       308       456      1745      2150      2151
 -1       740    8    0    1
 -2       308       309       457      1746      2152      2153
 -1       741    8    0    1
 -2       309       310       458      1747      2154      2155
 -1       742    8    0    1
 -2       310       311       459      1748      2156      2157
 -1       743    8    0    1
 -2       311       312       460      1749      2158      2159
 -1       744    8    0    1
 -2       312       313       359      1750      2160      2161
 -1       745    8    0    1
 -2       313       314       360      1751      2162      2163
 -1       746    8    0    1
 -2       315       316       461      1753      2164      2165
 -1       747    8    0    1
 -2       316       317       462      1754      2166      2167
 -1       748    8    0    1
 -2       317       318       463      1755      2168      2169
 -1       749    8    0    1
 -2       317       463       462      2169      2170      2166
 -1       750    8    0    1
 -2       318       319       464      1756      2171      2172
 -1       751    8    0    1
 -2       319       320       465      1757      2173      2174
 -1       752    8    0    1
 -2       292       293       466      1731      2175      2176
 -1       753    8    0    1
 -2       204       358       359      1871      2177      1872
 -1       754    8    0    1
 -2       180       322       181      1804      2178      1336
 -1       755    8    0    1
 -2       360       205       359      1874      1873      2179
 -1       756    8    0    1
 -2       296       445       441      2128      2180      2116
 -1       757    8    0    1
 -2       336       181       322      1805      2178      2181
 -1       758    8    0    1
 -2       203       357       358      1868      2182      1870
 -1       759    8    0    1
 -2       206       360       361      1875      2183      1876
 -1       760    8    0    1
 -2       227       381       291      1936      2184      1938
 -1       761    8    0    1
 -2       426       278       428      2079      2077      2185
 -1       762    8    0    1
 -2       442       292       466      2118      2176      2186
 -1       763    8    0    1
 -2       290       291       467      1667      2187      2188
 -1       764    8    0    1
 -2       438       290       467      2107      2188      2189
 -1       765    8    0    1
 -2       291       381       467      2184      2190      2187
 -1       766    8    0    1
 -2       293       440       468      2115      2191      2192
 -1       767    8    0    1
 -2       293       468       466      2192      2193      2175
 -1       768    8    0    1
 -2       295       441       443      2117      2194      2120
 -1       769    8    0    1
 -2       320       442       465      2119      2195      2173
 -1       770    8    0    1
 -2       463       318       464      2168      2172      2196
 -1       771    8    0    1
 -2       461       316       462      2164      2167      2197
 -1       772    8    0    1
 -2       359       313       360      2160      2163      2179
 -1       773    8    0    1
 -2       459       311       460      2156      2159      2198
 -1       774    8    0    1
 -2       458       310       459      2154      2157      2199
 -1       775    8    0    1
 -2       457       309       458      2152      2155      2200
 -1       776    8    0    1
 -2       456       308       457      2150      2153      2201
 -1       777    8    0    1
 -2       455       307       456      2148      2151      2202
 -1       778    8    0    1
 -2       454       306       455      2146      2149      2203
 -1       779    8    0    1
 -2       452       304       453      2141      2145      2204
 -1       780    8    0    1
 -2       450       302       451      2137      2140      2205
 -1       781    8    0    1
 -2       449       301       450      2135      2138      2206
 -1       782    8    0    1
 -2       448       300       449      2133      2136      2207
 -1       783    8    0    1
 -2       447       299       448      2131      2134      2208
 -1       784    8    0    1
 -2       445       297       446      2127      2130      2209
 -1       785    8    0    1
 -2       446       298       469      2129      2210      2211
 -1       786    8    0    1
 -2       298       447       469      2132      2212      2210
 -1       787    8    0    1
 -2       453       305       454      2144      2147      2213
 -1       788    8    0    1
 -2       315       461       470      2165      2214      2215
 -1       789    8    0    1
 -2       314       315       471      1752      2216      2217
 -1       790    8    0    1
 -2       464       319       465      2171      2174      2218
 -1       791    8    0    1
 -2       471       315       470      2216      2215      2219
 -1       792    8    0    1
 -2       324       325       472      1771      2220      2221
 -1       793    8    0    1
 -2       323       324       473      1768      2222      2223
 -1       794    8    0    1
 -2       324       472       473      2221      2224      2222
 -1       795    8    0    1
 -2       326       327       474      1777      2225      2226
 -1       796    8    0    1
 -2       327       328       475      1780      2227      2228
 -1       797    8    0    1
 -2       327       475       474      2228      2229      2225
 -1       798    8    0    1
 -2       328       329       476      1783      2230      2231
 -1       799    8    0    1
 -2       328       476       475      2231      2232      2227
 -1       800    8    0    1
 -2       329       330       477      1786      2233      2234
 -1       801    8    0    1
 -2       329       477       476      2234      2235      2230
 -1       802    8    0    1
 -2       330       331       478      1789      2236      2237
 -1       803    8    0    1
 -2       330       478       477      2237      2238      2233
 -1       804    8    0    1
 -2       331       332       479      1792      2239      2240
 -1       805    8    0    1
 -2       331       479       478      2240      2241      2236
 -1       806    8    0    1
 -2       332       333       480      1795      2242      2243
 -1       807    8    0    1
 -2       332       480       479      2243      2244      2239
 -1       808    8    0    1
 -2       333       334       481      1798      2245      2246
 -1       809    8    0    1
 -2       480       333       481      2242      2246      2247
 -1       810    8    0    1
 -2       334       335       481      1803      2248      2245
 -1       811    8    0    1
 -2       337       336       482      1809      2249      2250
 -1       812    8    0    1
 -2       338       337       483      1812      2251      2252
 -1       813    8    0    1
 -2       337       482       483      2250      2253      2251
 -1       814    8    0    1
 -2       339       338       484      1815      2254      2255
 -1       815    8    0    1
 -2       338       483       484      2252      2256      2254
 -1       816    8    0    1
 -2       340       339       485      1818      2257      2258
 -1       817    8    0    1
 -2       339       484       485      2255      2259      2257
 -1       818    8    0    1
 -2       341       340       486      1821      2260      2261
 -1       819    8    0    1
 -2       340       485       486      2258      2262      2260
 -1       820    8    0    1
 -2       342       341       487      1824      2263      2264
 -1       821    8    0    1
 -2       341       486       487      2261      2265      2263
 -1       822    8    0    1
 -2       343       342       488      1827      2266      2267
 -1       823    8    0    1
 -2       342       487       488      2264      2268      2266
 -1       824    8    0    1
 -2       344       343       489      1830      2269      2270
 -1       825    8    0    1
 -2       343       488       489      2267      2271      2269
 -1       826    8    0    1
 -2       345       344       490      1833      2272      2273
 -1       827    8    0    1
 -2       344       489       490      2270      2274      2272
 -1       828    8    0    1
 -2       346       345       491      1836      2275      2276
 -1       829    8    0    1
 -2       345       490       491      2273      2277      2275
 -1       830    8    0    1
 -2       347       346       492      1839      2278      2279
 -1       831    8    0    1
 -2       346       491       492      2276      2280      2278
 -1       832    8    0    1
 -2       348       347       493      1842      2281      2282
 -1       833    8    0    1
 -2       347       492       493      2279      2283      2281
 -1       834    8    0    1
 -2       349       348       494      1845      2284      2285
 -1       835    8    0    1
 -2       348       493       494      2282      2286      2284
 -1       836    8    0    1
 -2       350       349       495      1848      2287      2288
 -1       837    8    0    1
 -2       349       494       495      2285      2289      2287
 -1       838    8    0    1
 -2       351       350       496      1851      2290      2291
 -1       839    8    0    1
 -2       350       495       496      2288      2292      2290
 -1       840    8    0    1
 -2       352       351       497      1854      2293      2294
 -1       841    8    0    1
 -2       351       496       497      2291      2295      2293
 -1       842    8    0    1
 -2       353       352       498      1857      2296      2297
 -1       843    8    0    1
 -2       352       497       498      2294      2298      2296
 -1       844    8    0    1
 -2       354       353       499      1860      2299      2300
 -1       845    8    0    1
 -2       353       498       499      2297      2301      2299
 -1       846    8    0    1
 -2       355       354       500      1863      2302      2303
 -1       847    8    0    1
 -2       354       499       500      2300      2304      2302
 -1       848    8    0    1
 -2       356       355       501      1866      2305      2306
 -1       849    8    0    1
 -2       355       500       501      2303      2307      2305
 -1       850    8    0    1
 -2       441       445       502      2180      2308      2309
 -1       851    8    0    1
 -2       426       428       425      2185      2310      2072
 -1       852    8    0    1
 -2       363       362       503      1883      2311      2312
 -1       853    8    0    1
 -2       364       363       504      1886      2313      2314
 -1       854    8    0    1
 -2       365       364       505      1889      2315      2316
 -1       855    8    0    1
 -2       364       504       505      2314      2317      2315
 -1       856    8    0    1
 -2       366       365       506      1892      2318      2319
 -1       857    8    0    1
 -2       365       505       506      2316      2320      2318
 -1       858    8    0    1
 -2       367       366       507      1895      2321      2322
 -1       859    8    0    1
 -2       366       506       507      2319      2323      2321
 -1       860    8    0    1
 -2       368       367       508      1898      2324      2325
 -1       861    8    0    1
 -2       367       507       508      2322      2326      2324
 -1       862    8    0    1
 -2       369       368       509      1901      2327      2328
 -1       863    8    0    1
 -2       368       508       509      2325      2329      2327
 -1       864    8    0    1
 -2       370       369       510      1904      2330      2331
 -1       865    8    0    1
 -2       369       509       510      2328      2332      2330
 -1       866    8    0    1
 -2       371       370       511      1907      2333      2334
 -1       867    8    0    1
 -2       370       510       511      2331      2335      2333
 -1       868    8    0    1
 -2       372       371       512      1910      2336      2337
 -1       869    8    0    1
 -2       371       511       512      2334      2338      2336
 -1       870    8    0    1
 -2       373       372       513      1913      2339      2340
 -1       871    8    0    1
 -2       372       512       513      2337      2341      2339
 -1       872    8    0    1
 -2       374       373       514      1916      2342      2343
 -1       873    8    0    1
 -2       373       513       514      2340      2344      2342
 -1       874    8    0    1
 -2       375       374       515      1919      2345      2346
 -1       875    8    0    1
 -2       374       514       515      2343      2347      2345
 -1       876    8    0    1
 -2       376       375       516      1922      2348      2349
 -1       877    8    0    1
 -2       375       515       516      2346      2350      2348
 -1       878    8    0    1
 -2       377       376       517      1925      2351      2352
 -1       879    8    0    1
 -2       376       516       517      2349      2353      2351
 -1       880    8    0    1
 -2       378       377       518      1928      2354      2355
 -1       881    8    0    1
 -2       377       517       518      2352      2356      2354
 -1       882    8    0    1
 -2       379       378       519      1931      2357      2358
 -1       883    8    0    1
 -2       378       518       519      2355      2359      2357
 -1       884    8    0    1
 -2       380       379       520      1934      2360      2361
 -1       885    8    0    1
 -2       379       519       520      2358      2362      2360
 -1       886    8    0    1
 -2       381       380       521      1937      2363      2364
 -1       887    8    0    1
 -2       467       381       521      2190      2364      2365
 -1       888    8    0    1
 -2       380       520       521      2361      2366      2363
 -1       889    8    0    1
 -2       384       385       522      1949      2367      2368
 -1       890    8    0    1
 -2       383       384       523      1946      2369      2370
 -1       891    8    0    1
 -2       384       522       523      2368      2371      2369
 -1       892    8    0    1
 -2       382       383       524      1943      2372      2373
 -1       893    8    0    1
 -2       383       523       524      2370      2374      2372
 -1       894    8    0    1
 -2       385       386       525      1952      2375      2376
 -1       895    8    0    1
 -2       385       525       522      2376      2377      2367
 -1       896    8    0    1
 -2       386       387       526      1955      2378      2379
 -1       897    8    0    1
 -2       386       526       525      2379      2380      2375
 -1       898    8    0    1
 -2       387       388       527      1958      2381      2382
 -1       899    8    0    1
 -2       387       527       526      2382      2383      2378
 -1       900    8    0    1
 -2       388       389       528      1961      2384      2385
 -1       901    8    0    1
 -2       388       528       527      2385      2386      2381
 -1       902    8    0    1
 -2       389       390       529      1964      2387      2388
 -1       903    8    0    1
 -2       389       529       528      2388      2389      2384
 -1       904    8    0    1
 -2       390       391       530      1967      2390      2391
 -1       905    8    0    1
 -2       390       530       529      2391      2392      2387
 -1       906    8    0    1
 -2       391       392       531      1970      2393      2394
 -1       907    8    0    1
 -2       391       531       530      2394      2395      2390
 -1       908    8    0    1
 -2       392       393       532      1973      2396      2397
 -1       909    8    0    1
 -2       392       532       531      2397      2398      2393
 -1       910    8    0    1
 -2       393       394       533      1976      2399      2400
 -1       911    8    0    1
 -2       393       533       532      2400      2401      2396
 -1       912    8    0    1
 -2       394       395       534      1979      2402      2403
 -1       913    8    0    1
 -2       394       534       533      2403      2404      2399
 -1       914    8    0    1
 -2       395       396       535      1982      2405      2406
 -1       915    8    0    1
 -2       395       535       534      2406      2407      2402
 -1       916    8    0    1
 -2       396       397       536      1985      2408      2409
 -1       917    8    0    1
 -2       396       536       535      2409      2410      2405
 -1       918    8    0    1
 -2       397       398       537      1988      2411      2412
 -1       919    8    0    1
 -2       397       537       536      2412      2413      2408
 -1       920    8    0    1
 -2       398       399       538      1991      2414      2415
 -1       921    8    0    1
 -2       398       538       537      2415      2416      2411
 -1       922    8    0    1
 -2       399       400       539      1994      2417      2418
 -1       923    8    0    1
 -2       399       539       538      2418      2419      2414
 -1       924    8    0    1
 -2       400       401       540      1997      2420      2421
 -1       925    8    0    1
 -2       400       540       539      2421      2422      2417
 -1       926    8    0    1
 -2       401       402       541      2000      2423      2424
 -1       927    8    0    1
 -2       401       541       540      2424      2425      2420
 -1       928    8    0    1
 -2       402       403       542      2003      2426      2427
 -1       929    8    0    1
 -2       402       542       541      2427      2428      2423
 -1       930    8    0    1
 -2       403       404       543      2006      2429      2430
 -1       931    8    0    1
 -2       403       543       542      2430      2431      2426
 -1       932    8    0    1
 -2       404       405       544      2009      2432      2433
 -1       933    8    0    1
 -2       404       544       543      2433      2434      2429
 -1       934    8    0    1
 -2       405       406       545      2012      2435      2436
 -1       935    8    0    1
 -2       405       545       544      2436      2437      2432
 -1       936    8    0    1
 -2       406       407       546      2015      2438      2439
 -1       937    8    0    1
 -2       406       546       545      2439      2440      2435
 -1       938    8    0    1
 -2       407       408       547      2018      2441      2442
 -1       939    8    0    1
 -2       407       547       546      2442      2443      2438
 -1       940    8    0    1
 -2       408       409       548      2021      2444      2445
 -1       941    8    0    1
 -2       408       548       547      2445      2446      2441
 -1       942    8    0    1
 -2       409       410       549      2024      2447      2448
 -1       943    8    0    1
 -2       409       549       548      2448      2449      2444
 -1       944    8    0    1
 -2       410       411       550      2027      2450      2451
 -1       945    8    0    1
 -2       410       550       549      2451      2452      2447
 -1       946    8    0    1
 -2       411       412       551      2030      2453      2454
 -1       947    8    0    1
 -2       411       551       550      2454      2455      2450
 -1       948    8    0    1
 -2       412       413       552      2033      2456      2457
 -1       949    8    0    1
 -2       412       552       551      2457      2458      2453
 -1       950    8    0    1
 -2       413       414       553      2036      2459      2460
 -1       951    8    0    1
 -2       413       553       552      2460      2461      2456
 -1       952    8    0    1
 -2       414       415       554      2039      2462      2463
 -1       953    8    0    1
 -2       414       554       553      2463      2464      2459
 -1       954    8    0    1
 -2       415       416       555      2042      2465      2466
 -1       955    8    0    1
 -2       415       555       554      2466      2467      2462
 -1       956    8    0    1
 -2       416       417       556      2045      2468      2469
 -1       957    8    0    1
 -2       416       556       555      2469      2470      2465
 -1       958    8    0    1
 -2       417       418       557      2048      2471      2472
 -1       959    8    0    1
 -2       417       557       556      2472      2473      2468
 -1       960    8    0    1
 -2       418       419       558      2051      2474      2475
 -1       961    8    0    1
 -2       418       558       557      2475      2476      2471
 -1       962    8    0    1
 -2       419       420       559      2054      2477      2478
 -1       963    8    0    1
 -2       419       559       558      2478      2479      2474
 -1       964    8    0    1
 -2       420       421       560      2057      2480      2481
 -1       965    8    0    1
 -2       420       560       559      2481      2482      2477
 -1       966    8    0    1
 -2       421       422       561      2060      2483      2484
 -1       967    8    0    1
 -2       421       561       560      2484      2485      2480
 -1       968    8    0    1
 -2       422       423       562      2063      2486      2487
 -1       969    8    0    1
 -2       422       562       561      2487      2488      2483
 -1       970    8    0    1
 -2       423       424       563      2066      2489      2490
 -1       971    8    0    1
 -2       423       563       562      2490      2491      2486
 -1       972    8    0    1
 -2       424       425       564      2069      2492      2493
 -1       973    8    0    1
 -2       424       564       563      2493      2494      2489
 -1       974    8    0    1
 -2       429       430       565      2085      2495      2496
 -1       975    8    0    1
 -2       427       429       566      2082      2497      2498
 -1       976    8    0    1
 -2       429       565       566      2496      2499      2497
 -1       977    8    0    1
 -2       428       427       567      2078      2500      2501
 -1       978    8    0    1
 -2       427       566       567      2498      2502      2500
 -1       979    8    0    1
 -2       442       466       568      2186      2503      2504
 -1       980    8    0    1
 -2       430       431       569      2088      2505      2506
 -1       981    8    0    1
 -2       430       569       565      2506      2507      2495
 -1       982    8    0    1
 -2       431       432       570      2091      2508      2509
 -1       983    8    0    1
 -2       431       570       569      2509      2510      2505
 -1       984    8    0    1
 -2       432       433       571      2094      2511      2512
 -1       985    8    0    1
 -2       432       571       570      2512      2513      2508
 -1       986    8    0    1
 -2       433       434       572      2097      2514      2515
 -1       987    8    0    1
 -2       433       572       571      2515      2516      2511
 -1       988    8    0    1
 -2       434       435       573      2100      2517      2518
 -1       989    8    0    1
 -2       434       573       572      2518      2519      2514
 -1       990    8    0    1
 -2       435       436       574      2103      2520      2521
 -1       991    8    0    1
 -2       435       574       573      2521      2522      2517
 -1       992    8    0    1
 -2       436       437       575      2106      2523      2524
 -1       993    8    0    1
 -2       436       575       574      2524      2525      2520
 -1       994    8    0    1
 -2       437       438       576      2109      2526      2527
 -1       995    8    0    1
 -2       437       576       575      2527      2528      2523
 -1       996    8    0    1
 -2       336       322       577      2181      2529      2530
 -1       997    8    0    1
 -2       482       336       577      2249      2530      2531
 -1       998    8    0    1
 -2       322       321       577      1763      2532      2529
 -1       999    8    0    1
 -2       440       443       578      2122      2533      2534
 -1      1000    8    0    1
 -2       443       441       579      2194      2535      2536
 -1      1001    8    0    1
 -2       463       464       580      2196      2537      2538
 -1      1002    8    0    1
 -2       461       462       581      2197      2539      2540
 -1      1003    8    0    1
 -2       360       314       471      2162      2217      2541
 -1      1004    8    0    1
 -2       460       312       359      2158      2161      2542
 -1      1005    8    0    1
 -2       450       451       582      2205      2543      2544
 -1      1006    8    0    1
 -2       465       442       583      2195      2545      2546
 -1      1007    8    0    1
 -2       325       326       584      1774      2547      2548
 -1      1008    8    0    1
 -2       472       325       584      2220      2548      2549
 -1      1009    8    0    1
 -2       326       474       584      2226      2550      2547
 -1      1010    8    0    1
 -2       453       454       585      2213      2551      2552
 -1      1011    8    0    1
 -2       445       446       586      2209      2553      2554
 -1      1012    8    0    1
 -2       445       586       502      2554      2555      2308
 -1      1013    8    0    1
 -2       447       448       587      2208      2556      2557
 -1      1014    8    0    1
 -2       448       449       588      2207      2558      2559
 -1      1015    8    0    1
 -2       449       450       589      2206      2560      2561
 -1      1016    8    0    1
 -2       451       452       590      2143      2562      2563
 -1      1017    8    0    1
 -2       452       453       591      2204      2564      2565
 -1      1018    8    0    1
 -2       453       585       591      2552      2566      2564
 -1      1019    8    0    1
 -2       454       455       592      2203      2567      2568
 -1      1020    8    0    1
 -2       455       456       593      2202      2569      2570
 -1      1021    8    0    1
 -2       456       457       594      2201      2571      2572
 -1      1022    8    0    1
 -2       457       458       595      2200      2573      2574
 -1      1023    8    0    1
 -2       458       459       596      2199      2575      2576
 -1      1024    8    0    1
 -2       460       359       358      2542      2177      2577
 -1      1025    8    0    1
 -2       464       465       597      2218      2578      2579
 -1      1026    8    0    1
 -2       465       583       597      2546      2580      2578
 -1      1027    8    0    1
 -2       462       463       598      2170      2581      2582
 -1      1028    8    0    1
 -2       581       462       598      2539      2582      2583
 -1      1029    8    0    1
 -2       463       580       598      2538      2584      2581
 -1      1030    8    0    1
 -2       425       428       564      2310      2585      2492
 -1      1031    8    0    1
 -2       360       471       361      2541      2586      2183
 -1      1032    8    0    1
 -2       460       358       459      2577      2587      2198
 -1      1033    8    0    1
 -2       323       473       599      2223      2588      2589
 -1      1034    8    0    1
 -2       323       599       444      2589      2590      2126
 -1      1035    8    0    1
 -2       578       443       579      2533      2536      2591
 -1      1036    8    0    1
 -2       481       335       600      2248      2592      2593
 -1      1037    8    0    1
 -2       335       439       600      2112      2594      2592
 -1      1038    8    0    1
 -2       358       357       459      2182      2595      2587
 -1      1039    8    0    1
 -2       321       444       601      2125      2596      2597
 -1      1040    8    0    1
 -2       577       321       601      2532      2597      2598
 -1      1041    8    0    1
 -2       444       599       601      2590      2599      2596
 -1      1042    8    0    1
 -2       356       501       595      2306      2600      2601
 -1      1043    8    0    1
 -2       447       587       469      2557      2602      2212
 -1      1044    8    0    1
 -2       357       356       595      1869      2601      2603
 -1      1045    8    0    1
 -2       503       362       581      2311      2604      2605
 -1      1046    8    0    1
 -2       428       567       564      2501      2606      2585
 -1      1047    8    0    1
 -2       361       471       470      2586      2219      2607
 -1      1048    8    0    1
 -2       363       503       504      2312      2608      2313
 -1      1049    8    0    1
 -2       442       568       583      2504      2609      2545
 -1      1050    8    0    1
 -2       568       466       468      2503      2193      2610
 -1      1051    8    0    1
 -2       468       440       602      2191      2611      2612
 -1      1052    8    0    1
 -2       440       578       602      2534      2613      2611
 -1      1053    8    0    1
 -2       439       382       603      2113      2614      2615
 -1      1054    8    0    1
 -2       600       439       603      2594      2615      2616
 -1      1055    8    0    1
 -2       382       524       603      2373      2617      2614
 -1      1056    8    0    1
 -2       579       441       502      2535      2309      2618
 -1      1057    8    0    1
 -2       593       456       594      2569      2572      2619
 -1      1058    8    0    1
 -2       582       451       590      2543      2563      2620
 -1      1059    8    0    1
 -2       590       452       591      2562      2565      2621
 -1      1060    8    0    1
 -2       589       450       582      2560      2544      2622
 -1      1061    8    0    1
 -2       588       449       589      2558      2561      2623
 -1      1062    8    0    1
 -2       580       464       597      2537      2579      2624
 -1      1063    8    0    1
 -2       586       446       604      2553      2625      2626
 -1      1064    8    0    1
 -2       446       469       604      2211      2627      2625
 -1      1065    8    0    1
 -2       585       454       605      2551      2628      2629
 -1      1066    8    0    1
 -2       454       592       605      2568      2630      2628
 -1      1067    8    0    1
 -2       587       448       588      2556      2559      2631
 -1      1068    8    0    1
 -2       470       461       606      2214      2632      2633
 -1      1069    8    0    1
 -2       592       455       593      2567      2570      2634
 -1      1070    8    0    1
 -2       457       595       594      2574      2635      2571
 -1      1071    8    0    1
 -2       438       467       521      2189      2365      2636
 -1      1072    8    0    1
 -2       606       461       581      2632      2540      2637
 -1      1073    8    0    1
 -2       438       521       576      2636      2638      2526
 -1      1074    8    0    1
 -2       475       476       607      2232      2639      2640
 -1      1075    8    0    1
 -2       474       475       608      2229      2641      2642
 -1      1076    8    0    1
 -2       475       607       608      2640      2643      2641
 -1      1077    8    0    1
 -2       477       478       609      2238      2644      2645
 -1      1078    8    0    1
 -2       478       479       610      2241      2646      2647
 -1      1079    8    0    1
 -2       478       610       609      2647      2648      2644
 -1      1080    8    0    1
 -2       480       481       611      2247      2649      2650
 -1      1081    8    0    1
 -2       481       600       611      2593      2651      2649
 -1      1082    8    0    1
 -2       483       482       612      2253      2652      2653
 -1      1083    8    0    1
 -2       469       587       613      2602      2654      2655
 -1      1084    8    0    1
 -2       503       581       598      2605      2583      2656
 -1      1085    8    0    1
 -2       484       483       614      2256      2657      2658
 -1      1086    8    0    1
 -2       483       612       614      2653      2659      2657
 -1      1087    8    0    1
 -2       485       484       615      2259      2660      2661
 -1      1088    8    0    1
 -2       484       614       615      2658      2662      2660
 -1      1089    8    0    1
 -2       486       485       616      2262      2663      2664
 -1      1090    8    0    1
 -2       485       615       616      2661      2665      2663
 -1      1091    8    0    1
 -2       487       486       617      2265      2666      2667
 -1      1092    8    0    1
 -2       486       616       617      2664      2668      2666
 -1      1093    8    0    1
 -2       488       487       618      2268      2669      2670
 -1      1094    8    0    1
 -2       487       617       618      2667      2671      2669
 -1      1095    8    0    1
 -2       489       488       619      2271      2672      2673
 -1      1096    8    0    1
 -2       488       618       619      2670      2674      2672
 -1      1097    8    0    1
 -2       490       489       620      2274      2675      2676
 -1      1098    8    0    1
 -2       489       619       620      2673      2677      2675
 -1      1099    8    0    1
 -2       491       490       621      2277      2678      2679
 -1      1100    8    0    1
 -2       490       620       621      2676      2680      2678
 -1      1101    8    0    1
 -2       492       491       622      2280      2681      2682
 -1      1102    8    0    1
 -2       491       621       622      2679      2683      2681
 -1      1103    8    0    1
 -2       493       492       623      2283      2684      2685
 -1      1104    8    0    1
 -2       492       622       623      2682      2686      2684
 -1      1105    8    0    1
 -2       494       493       624      2286      2687      2688
 -1      1106    8    0    1
 -2       493       623       624      2685      2689      2687
 -1      1107    8    0    1
 -2       495       494       625      2289      2690      2691
 -1      1108    8    0    1
 -2       494       624       625      2688      2692      2690
 -1      1109    8    0    1
 -2       496       495       626      2292      2693      2694
 -1      1110    8    0    1
 -2       495       625       626      2691      2695      2693
 -1      1111    8    0    1
 -2       497       496       627      2295      2696      2697
 -1      1112    8    0    1
 -2       496       626       627      2694      2698      2696
 -1      1113    8    0    1
 -2       498       497       628      2298      2699      2700
 -1      1114    8    0    1
 -2       497       627       628      2697      2701      2699
 -1      1115    8    0    1
 -2       499       498       629      2301      2702      2703
 -1      1116    8    0    1
 -2       498       628       629      2700      2704      2702
 -1      1117    8    0    1
 -2       500       499       630      2304      2705      2706
 -1      1118    8    0    1
 -2       499       629       630      2703      2707      2705
 -1      1119    8    0    1
 -2       564       567       631      2606      2708      2709
 -1      1120    8    0    1
 -2       564       631       563      2709      2710      2494
 -1      1121    8    0    1
 -2       579       502       632      2618      2711      2712
 -1      1122    8    0    1
 -2       506       505       633      2320      2713      2714
 -1      1123    8    0    1
 -2       507       506       634      2323      2715      2716
 -1      1124    8    0    1
 -2       506       633       634      2714      2717      2715
 -1      1125    8    0    1
 -2       508       507       635      2326      2718      2719
 -1      1126    8    0    1
 -2       507       634       635      2716      2720      2718
 -1      1127    8    0    1
 -2       509       508       636      2329      2721      2722
 -1      1128    8    0    1
 -2       508       635       636      2719      2723      2721
 -1      1129    8    0    1
 -2       510       509       637      2332      2724      2725
 -1      1130    8    0    1
 -2       509       636       637      2722      2726      2724
 -1      1131    8    0    1
 -2       511       510       638      2335      2727      2728
 -1      1132    8    0    1
 -2       510       637       638      2725      2729      2727
 -1      1133    8    0    1
 -2       512       511       639      2338      2730      2731
 -1      1134    8    0    1
 -2       511       638       639      2728      2732      2730
 -1      1135    8    0    1
 -2       513       512       640      2341      2733      2734
 -1      1136    8    0    1
 -2       512       639       640      2731      2735      2733
 -1      1137    8    0    1
 -2       514       513       641      2344      2736      2737
 -1      1138    8    0    1
 -2       513       640       641      2734      2738      2736
 -1      1139    8    0    1
 -2       515       514       642      2347      2739      2740
 -1      1140    8    0    1
 -2       514       641       642      2737      2741      2739
 -1      1141    8    0    1
 -2       516       515       643      2350      2742      2743
 -1      1142    8    0    1
 -2       515       642       643      2740      2744      2742
 -1      1143    8    0    1
 -2       517       516       644      2353      2745      2746
 -1      1144    8    0    1
 -2       516       643       644      2743      2747      2745
 -1      1145    8    0    1
 -2       518       517       645      2356      2748      2749
 -1      1146    8    0    1
 -2       517       644       645      2746      2750      2748
 -1      1147    8    0    1
 -2       519       518       646      2359      2751      2752
 -1      1148    8    0    1
 -2       518       645       646      2749      2753      2751
 -1      1149    8    0    1
 -2       520       519       647      2362      2754      2755
 -1      1150    8    0    1
 -2       519       646       647      2752      2756      2754
 -1      1151    8    0    1
 -2       521       520       576      2366      2757      2638
 -1      1152    8    0    1
 -2       523       522       648      2371      2758      2759
 -1      1153    8    0    1
 -2       522       525       649      2377      2760      2761
 -1      1154    8    0    1
 -2       522       649       648      2761      2762      2758
 -1      1155    8    0    1
 -2       524       523       650      2374      2763      2764
 -1      1156    8    0    1
 -2       523       648       650      2759      2765      2763
 -1      1157    8    0    1
 -2       526       527       651      2383      2766      2767
 -1      1158    8    0    1
 -2       527       528       652      2386      2768      2769
 -1      1159    8    0    1
 -2       527       652       651      2769      2770      2766
 -1      1160    8    0    1
 -2       528       529       653      2389      2771      2772
 -1      1161    8    0    1
 -2       528       653       652      2772      2773      2768
 -1      1162    8    0    1
 -2       529       530       654      2392      2774      2775
 -1      1163    8    0    1
 -2       529       654       653      2775      2776      2771
 -1      1164    8    0    1
 -2       530       531       655      2395      2777      2778
 -1      1165    8    0    1
 -2       530       655       654      2778      2779      2774
 -1      1166    8    0    1
 -2       531       532       656      2398      2780      2781
 -1      1167    8    0    1
 -2       531       656       655      2781      2782      2777
 -1      1168    8    0    1
 -2       532       533       657      2401      2783      2784
 -1      1169    8    0    1
 -2       532       657       656      2784      2785      2780
 -1      1170    8    0    1
 -2       533       534       658      2404      2786      2787
 -1      1171    8    0    1
 -2       533       658       657      2787      2788      2783
 -1      1172    8    0    1
 -2       534       535       659      2407      2789      2790
 -1      1173    8    0    1
 -2       534       659       658      2790      2791      2786
 -1      1174    8    0    1
 -2       535       536       660      2410      2792      2793
 -1      1175    8    0    1
 -2       535       660       659      2793      2794      2789
 -1      1176    8    0    1
 -2       536       537       661      2413      2795      2796
 -1      1177    8    0    1
 -2       536       661       660      2796      2797      2792
 -1      1178    8    0    1
 -2       537       538       662      2416      2798      2799
 -1      1179    8    0    1
 -2       537       662       661      2799      2800      2795
 -1      1180    8    0    1
 -2       538       539       663      2419      2801      2802
 -1      1181    8    0    1
 -2       538       663       662      2802      2803      2798
 -1      1182    8    0    1
 -2       539       540       664      2422      2804      2805
 -1      1183    8    0    1
 -2       539       664       663      2805      2806      2801
 -1      1184    8    0    1
 -2       540       541       665      2425      2807      2808
 -1      1185    8    0    1
 -2       540       665       664      2808      2809      2804
 -1      1186    8    0    1
 -2       541       542       666      2428      2810      2811
 -1      1187    8    0    1
 -2       541       666       665      2811      2812      2807
 -1      1188    8    0    1
 -2       542       543       667      2431      2813      2814
 -1      1189    8    0    1
 -2       542       667       666      2814      2815      2810
 -1      1190    8    0    1
 -2       543       544       668      2434      2816      2817
 -1      1191    8    0    1
 -2       543       668       667      2817      2818      2813
 -1      1192    8    0    1
 -2       544       545       669      2437      2819      2820
 -1      1193    8    0    1
 -2       544       669       668      2820      2821      2816
 -1      1194    8    0    1
 -2       545       546       670      2440      2822      2823
 -1      1195    8    0    1
 -2       545       670       669      2823      2824      2819
 -1      1196    8    0    1
 -2       546       547       671      2443      2825      2826
 -1      1197    8    0    1
 -2       546       671       670      2826      2827      2822
 -1      1198    8    0    1
 -2       547       548       672      2446      2828      2829
 -1      1199    8    0    1
 -2       547       672       671      2829      2830      2825
 -1      1200    8    0    1
 -2       548       549       673      2449      2831      2832
 -1      1201    8    0    1
 -2       548       673       672      2832      2833      2828
 -1      1202    8    0    1
 -2       549       550       674      2452      2834      2835
 -1      1203    8    0    1
 -2       549       674       673      2835      2836      2831
 -1      1204    8    0    1
 -2       550       551       675      2455      2837      2838
 -1      1205    8    0    1
 -2       550       675       674      2838      2839      2834
 -1      1206    8    0    1
 -2       551       552       676      2458      2840      2841
 -1      1207    8    0    1
 -2       551       676       675      2841      2842      2837
 -1      1208    8    0    1
 -2       552       553       677      2461      2843      2844
 -1      1209    8    0    1
 -2       552       677       676      2844      2845      2840
 -1      1210    8    0    1
 -2       553       554       678      2464      2846      2847
 -1      1211    8    0    1
 -2       553       678       677      2847      2848      2843
 -1      1212    8    0    1
 -2       554       555       679      2467      2849      2850
 -1      1213    8    0    1
 -2       554       679       678      2850      2851      2846
 -1      1214    8    0    1
 -2       555       556       680      2470      2852      2853
 -1      1215    8    0    1
 -2       555       680       679      2853      2854      2849
 -1      1216    8    0    1
 -2       556       557       681      2473      2855      2856
 -1      1217    8    0    1
 -2       556       681       680      2856      2857      2852
 -1      1218    8    0    1
 -2       557       558       682      2476      2858      2859
 -1      1219    8    0    1
 -2       557       682       681      2859      2860      2855
 -1      1220    8    0    1
 -2       558       559       683      2479      2861      2862
 -1      1221    8    0    1
 -2       558       683       682      2862      2863      2858
 -1      1222    8    0    1
 -2       559       560       684      2482      2864      2865
 -1      1223    8    0    1
 -2       559       684       683      2865      2866      2861
 -1      1224    8    0    1
 -2       560       561       685      2485      2867      2868
 -1      1225    8    0    1
 -2       560       685       684      2868      2869      2864
 -1      1226    8    0    1
 -2       561       562       686      2488      2870      2871
 -1      1227    8    0    1
 -2       561       686       685      2871      2872      2867
 -1      1228    8    0    1
 -2       562       563       687      2491      2873      2874
 -1      1229    8    0    1
 -2       686       562       687      2870      2874      2875
 -1      1230    8    0    1
 -2       563       631       687      2710      2876      2873
 -1      1231    8    0    1
 -2       569       570       688      2510      2877      2878
 -1      1232    8    0    1
 -2       567       566       631      2502      2879      2708
 -1      1233    8    0    1
 -2       565       569       689      2507      2880      2881
 -1      1234    8    0    1
 -2       569       688       689      2878      2882      2880
 -1      1235    8    0    1
 -2       525       526       690      2380      2883      2884
 -1      1236    8    0    1
 -2       649       525       690      2760      2884      2885
 -1      1237    8    0    1
 -2       526       651       690      2767      2886      2883
 -1      1238    8    0    1
 -2       571       572       691      2516      2887      2888
 -1      1239    8    0    1
 -2       572       573       692      2519      2889      2890
 -1      1240    8    0    1
 -2       572       692       691      2890      2891      2887
 -1      1241    8    0    1
 -2       573       574       693      2522      2892      2893
 -1      1242    8    0    1
 -2       573       693       692      2893      2894      2889
 -1      1243    8    0    1
 -2       574       575       694      2525      2895      2896
 -1      1244    8    0    1
 -2       574       694       693      2896      2897      2892
 -1      1245    8    0    1
 -2       482       577       695      2531      2898      2899
 -1      1246    8    0    1
 -2       612       482       695      2652      2899      2900
 -1      1247    8    0    1
 -2       577       601       695      2598      2901      2898
 -1      1248    8    0    1
 -2       595       501       594      2600      2902      2635
 -1      1249    8    0    1
 -2       459       357       596      2595      2903      2575
 -1      1250    8    0    1
 -2       361       470       606      2607      2633      2904
 -1      1251    8    0    1
 -2       594       501       696      2902      2905      2906
 -1      1252    8    0    1
 -2       593       594       696      2619      2906      2907
 -1      1253    8    0    1
 -2       501       500       696      2307      2908      2905
 -1      1254    8    0    1
 -2       576       520       647      2757      2755      2909
 -1      1255    8    0    1
 -2       568       468       697      2610      2910      2911
 -1      1256    8    0    1
 -2       570       571       698      2513      2912      2913
 -1      1257    8    0    1
 -2       571       691       698      2888      2914      2912
 -1      1258    8    0    1
 -2       566       565       699      2499      2915      2916
 -1      1259    8    0    1
 -2       565       689       699      2881      2917      2915
 -1      1260    8    0    1
 -2       505       504       700      2317      2918      2919
 -1      1261    8    0    1
 -2       505       700       633      2919      2920      2713
 -1      1262    8    0    1
 -2       583       568       701      2609      2921      2922
 -1      1263    8    0    1
 -2       476       477       702      2235      2923      2924
 -1      1264    8    0    1
 -2       607       476       702      2639      2924      2925
 -1      1265    8    0    1
 -2       477       609       702      2645      2926      2923
 -1      1266    8    0    1
 -2       578       579       703      2591      2927      2928
 -1      1267    8    0    1
 -2       502       586       704      2555      2929      2930
 -1      1268    8    0    1
 -2       580       597       705      2624      2931      2932
 -1      1269    8    0    1
 -2       590       591       706      2621      2933      2934
 -1      1270    8    0    1
 -2       589       582       707      2622      2935      2936
 -1      1271    8    0    1
 -2       592       593       708      2634      2937      2938
 -1      1272    8    0    1
 -2       587       588       709      2631      2939      2940
 -1      1273    8    0    1
 -2       582       590       710      2620      2941      2942
 -1      1274    8    0    1
 -2       588       589       711      2623      2943      2944
 -1      1275    8    0    1
 -2       589       707       711      2936      2945      2943
 -1      1276    8    0    1
 -2       591       585       712      2566      2946      2947
 -1      1277    8    0    1
 -2       597       583       713      2580      2948      2949
 -1      1278    8    0    1
 -2       705       597       713      2931      2949      2950
 -1      1279    8    0    1
 -2       583       701       713      2922      2951      2948
 -1      1280    8    0    1
 -2       473       472       714      2224      2952      2953
 -1      1281    8    0    1
 -2       504       503       715      2608      2954      2955
 -1      1282    8    0    1
 -2       700       504       715      2918      2955      2956
 -1      1283    8    0    1
 -2       503       598       715      2656      2957      2954
 -1      1284    8    0    1
 -2       474       608       716      2642      2958      2959
 -1      1285    8    0    1
 -2       474       716       584      2959      2960      2550
 -1      1286    8    0    1
 -2       480       611       479      2650      2961      2244
 -1      1287    8    0    1
 -2       707       582       710      2935      2942      2962
 -1      1288    8    0    1
 -2       469       613       717      2655      2963      2964
 -1      1289    8    0    1
 -2       469       717       604      2964      2965      2627
 -1      1290    8    0    1
 -2       581       362       606      2604      2966      2637
 -1      1291    8    0    1
 -2       632       502       704      2711      2930      2967
 -1      1292    8    0    1
 -2       568       697       718      2911      2968      2969
 -1      1293    8    0    1
 -2       568       718       701      2969      2970      2921
 -1      1294    8    0    1
 -2       697       468       602      2910      2612      2971
 -1      1295    8    0    1
 -2       524       650       719      2764      2972      2973
 -1      1296    8    0    1
 -2       688       570       698      2877      2913      2974
 -1      1297    8    0    1
 -2       709       588       711      2939      2944      2975
 -1      1298    8    0    1
 -2       579       632       703      2712      2976      2927
 -1      1299    8    0    1
 -2       631       566       699      2879      2916      2977
 -1      1300    8    0    1
 -2       602       578       720      2613      2978      2979
 -1      1301    8    0    1
 -2       578       703       720      2928      2980      2978
 -1      1302    8    0    1
 -2       575       576       721      2528      2981      2982
 -1      1303    8    0    1
 -2       708       593       696      2937      2907      2983
 -1      1304    8    0    1
 -2       575       721       694      2982      2984      2895
 -1      1305    8    0    1
 -2       706       591       712      2933      2947      2985
 -1      1306    8    0    1
 -2       603       524       719      2617      2973      2986
 -1      1307    8    0    1
 -2       696       500       630      2908      2706      2987
 -1      1308    8    0    1
 -2       595       458       596      2573      2576      2988
 -1      1309    8    0    1
 -2       710       590       706      2941      2934      2989
 -1      1310    8    0    1
 -2       479       611       610      2961      2990      2646
 -1      1311    8    0    1
 -2       704       586       722      2929      2991      2992
 -1      1312    8    0    1
 -2       586       604       722      2626      2993      2991
 -1      1313    8    0    1
 -2       472       584       723      2549      2994      2995
 -1      1314    8    0    1
 -2       714       472       723      2952      2995      2996
 -1      1315    8    0    1
 -2       584       716       723      2960      2997      2994
 -1      1316    8    0    1
 -2       362       361       606      1880      2904      2966
 -1      1317    8    0    1
 -2       605       592       724      2630      2998      2999
 -1      1318    8    0    1
 -2       592       708       724      2938      3000      2998
 -1      1319    8    0    1
 -2       585       605       725      2629      3001      3002
 -1      1320    8    0    1
 -2       585       725       712      3002      3003      2946
 -1      1321    8    0    1
 -2       580       705       715      2932      3004      3005
 -1      1322    8    0    1
 -2       473       714       726      2953      3006      3007
 -1      1323    8    0    1
 -2       473       726       599      3007      3008      2588
 -1      1324    8    0    1
 -2       580       715       598      3005      2957      2584
 -1      1325    8    0    1
 -2       609       610       727      2648      3009      3010
 -1      1326    8    0    1
 -2       611       600       603      2651      2616      3011
 -1      1327    8    0    1
 -2       707       710       728      2962      3012      3013
 -1      1328    8    0    1
 -2       601       599       729      2599      3014      3015
 -1      1329    8    0    1
 -2       695       601       729      2901      3015      3016
 -1      1330    8    0    1
 -2       599       726       729      3008      3017      3014
 -1      1331    8    0    1
 -2       614       612       730      2659      3018      3019
 -1      1332    8    0    1
 -2       615       614       731      2662      3020      3021
 -1      1333    8    0    1
 -2       614       730       731      3019      3022      3020
 -1      1334    8    0    1
 -2       616       615       732      2665      3023      3024
 -1      1335    8    0    1
 -2       615       731       732      3021      3025      3023
 -1      1336    8    0    1
 -2       617       616       733      2668      3026      3027
 -1      1337    8    0    1
 -2       616       732       733      3024      3028      3026
 -1      1338    8    0    1
 -2       618       617       734      2671      3029      3030
 -1      1339    8    0    1
 -2       617       733       734      3027      3031      3029
 -1      1340    8    0    1
 -2       619       618       735      2674      3032      3033
 -1      1341    8    0    1
 -2       618       734       735      3030      3034      3032
 -1      1342    8    0    1
 -2       620       619       736      2677      3035      3036
 -1      1343    8    0    1
 -2       619       735       736      3033      3037      3035
 -1      1344    8    0    1
 -2       621       620       737      2680      3038      3039
 -1      1345    8    0    1
 -2       620       736       737      3036      3040      3038
 -1      1346    8    0    1
 -2       622       621       738      2683      3041      3042
 -1      1347    8    0    1
 -2       621       737       738      3039      3043      3041
 -1      1348    8    0    1
 -2       623       622       739      2686      3044      3045
 -1      1349    8    0    1
 -2       622       738       739      3042      3046      3044
 -1      1350    8    0    1
 -2       624       623       740      2689      3047      3048
 -1      1351    8    0    1
 -2       623       739       740      3045      3049      3047
 -1      1352    8    0    1
 -2       625       624       741      2692      3050      3051
 -1      1353    8    0    1
 -2       624       740       741      3048      3052      3050
 -1      1354    8    0    1
 -2       626       625       742      2695      3053      3054
 -1      1355    8    0    1
 -2       625       741       742      3051      3055      3053
 -1      1356    8    0    1
 -2       627       626       743      2698      3056      3057
 -1      1357    8    0    1
 -2       626       742       743      3054      3058      3056
 -1      1358    8    0    1
 -2       628       627       744      2701      3059      3060
 -1      1359    8    0    1
 -2       627       743       744      3057      3061      3059
 -1      1360    8    0    1
 -2       629       628       745      2704      3062      3063
 -1      1361    8    0    1
 -2       628       744       745      3060      3064      3062
 -1      1362    8    0    1
 -2       630       629       746      2707      3065      3066
 -1      1363    8    0    1
 -2       629       745       746      3063      3067      3065
 -1      1364    8    0    1
 -2       633       700       747      2920      3068      3069
 -1      1365    8    0    1
 -2       576       647       721      2909      3070      2981
 -1      1366    8    0    1
 -2       632       704       748      2967      3071      3072
 -1      1367    8    0    1
 -2       719       650       749      2972      3073      3074
 -1      1368    8    0    1
 -2       635       634       750      2720      3075      3076
 -1      1369    8    0    1
 -2       636       635       751      2723      3077      3078
 -1      1370    8    0    1
 -2       635       750       751      3076      3079      3077
 -1      1371    8    0    1
 -2       637       636       752      2726      3080      3081
 -1      1372    8    0    1
 -2       636       751       752      3078      3082      3080
 -1      1373    8    0    1
 -2       638       637       753      2729      3083      3084
 -1      1374    8    0    1
 -2       637       752       753      3081      3085      3083
 -1      1375    8    0    1
 -2       639       638       754      2732      3086      3087
 -1      1376    8    0    1
 -2       638       753       754      3084      3088      3086
 -1      1377    8    0    1
 -2       640       639       755      2735      3089      3090
 -1      1378    8    0    1
 -2       639       754       755      3087      3091      3089
 -1      1379    8    0    1
 -2       641       640       756      2738      3092      3093
 -1      1380    8    0    1
 -2       640       755       756      3090      3094      3092
 -1      1381    8    0    1
 -2       642       641       757      2741      3095      3096
 -1      1382    8    0    1
 -2       641       756       757      3093      3097      3095
 -1      1383    8    0    1
 -2       643       642       758      2744      3098      3099
 -1      1384    8    0    1
 -2       642       757       758      3096      3100      3098
 -1      1385    8    0    1
 -2       644       643       759      2747      3101      3102
 -1      1386    8    0    1
 -2       643       758       759      3099      3103      3101
 -1      1387    8    0    1
 -2       645       644       760      2750      3104      3105
 -1      1388    8    0    1
 -2       644       759       760      3102      3106      3104
 -1      1389    8    0    1
 -2       646       645       761      2753      3107      3108
 -1      1390    8    0    1
 -2       645       760       761      3105      3109      3107
 -1      1391    8    0    1
 -2       647       646       762      2756      3110      3111
 -1      1392    8    0    1
 -2       646       761       762      3108      3112      3110
 -1      1393    8    0    1
 -2       692       693       763      2894      3113      3114
 -1      1394    8    0    1
 -2       688       698       764      2974      3115      3116
 -1      1395    8    0    1
 -2       648       649       765      2762      3117      3118
 -1      1396    8    0    1
 -2       650       648       766      2765      3119      3120
 -1      1397    8    0    1
 -2       749       650       766      3073      3120      3121
 -1      1398    8    0    1
 -2       648       765       766      3118      3122      3119
 -1      1399    8    0    1
 -2       652       653       767      2773      3123      3124
 -1      1400    8    0    1
 -2       651       652       768      2770      3125      3126
 -1      1401    8    0    1
 -2       652       767       768      3124      3127      3125
 -1      1402    8    0    1
 -2       654       655       769      2779      3128      3129
 -1      1403    8    0    1
 -2       655       656       770      2782      3130      3131
 -1      1404    8    0    1
 -2       655       770       769      3131      3132      3128
 -1      1405    8    0    1
 -2       656       657       771      2785      3133      3134
 -1      1406    8    0    1
 -2       656       771       770      3134      3135      3130
 -1      1407    8    0    1
 -2       657       658       772      2788      3136      3137
 -1      1408    8    0    1
 -2       657       772       771      3137      3138      3133
 -1      1409    8    0    1
 -2       658       659       773      2791      3139      3140
 -1      1410    8    0    1
 -2       658       773       772      3140      3141      3136
 -1      1411    8    0    1
 -2       659       660       774      2794      3142      3143
 -1      1412    8    0    1
 -2       659       774       773      3143      3144      3139
 -1      1413    8    0    1
 -2       660       661       775      2797      3145      3146
 -1      1414    8    0    1
 -2       660       775       774      3146      3147      3142
 -1      1415    8    0    1
 -2       661       662       776      2800      3148      3149
 -1      1416    8    0    1
 -2       661       776       775      3149      3150      3145
 -1      1417    8    0    1
 -2       662       663       777      2803      3151      3152
 -1      1418    8    0    1
 -2       662       777       776      3152      3153      3148
 -1      1419    8    0    1
 -2       663       664       778      2806      3154      3155
 -1      1420    8    0    1
 -2       663       778       777      3155      3156      3151
 -1      1421    8    0    1
 -2       664       665       779      2809      3157      3158
 -1      1422    8    0    1
 -2       664       779       778      3158      3159      3154
 -1      1423    8    0    1
 -2       665       666       780      2812      3160      3161
 -1      1424    8    0    1
 -2       665       780       779      3161      3162      3157
 -1      1425    8    0    1
 -2       666       667       781      2815      3163      3164
 -1      1426    8    0    1
 -2       666       781       780      3164      3165      3160
 -1      1427    8    0    1
 -2       667       668       782      2818      3166      3167
 -1      1428    8    0    1
 -2       667       782       781      3167      3168      3163
 -1      1429    8    0    1
 -2       668       669       783      2821      3169      3170
 -1      1430    8    0    1
 -2       668       783       782      3170      3171      3166
 -1      1431    8    0    1
 -2       669       670       784      2824      3172      3173
 -1      1432    8    0    1
 -2       669       784       783      3173      3174      3169
 -1      1433    8    0    1
 -2       670       671       785      2827      3175      3176
 -1      1434    8    0    1
 -2       670       785       784      3176      3177      3172
 -1      1435    8    0    1
 -2       671       672       786      2830      3178      3179
 -1      1436    8    0    1
 -2       671       786       785      3179      3180      3175
 -1      1437    8    0    1
 -2       672       673       787      2833      3181      3182
 -1      1438    8    0    1
 -2       672       787       786      3182      3183      3178
 -1      1439    8    0    1
 -2       673       674       788      2836      3184      3185
 -1      1440    8    0    1
 -2       673       788       787      3185      3186      3181
 -1      1441    8    0    1
 -2       674       675       789      2839      3187      3188
 -1      1442    8    0    1
 -2       674       789       788      3188      3189      3184
 -1      1443    8    0    1
 -2       675       676       790      2842      3190      3191
 -1      1444    8    0    1
 -2       675       790       789      3191      3192      3187
 -1      1445    8    0    1
 -2       676       677       791      2845      3193      3194
 -1      1446    8    0    1
 -2       676       791       790      3194      3195      3190
 -1      1447    8    0    1
 -2       677       678       792      2848      3196      3197
 -1      1448    8    0    1
 -2       677       792       791      3197      3198      3193
 -1      1449    8    0    1
 -2       678       679       793      2851      3199      3200
 -1      1450    8    0    1
 -2       678       793       792      3200      3201      3196
 -1      1451    8    0    1
 -2       679       680       794      2854      3202      3203
 -1      1452    8    0    1
 -2       679       794       793      3203      3204      3199
 -1      1453    8    0    1
 -2       680       681       795      2857      3205      3206
 -1      1454    8    0    1
 -2       680       795       794      3206      3207      3202
 -1      1455    8    0    1
 -2       681       682       796      2860      3208      3209
 -1      1456    8    0    1
 -2       681       796       795      3209      3210      3205
 -1      1457    8    0    1
 -2       682       683       797      2863      3211      3212
 -1      1458    8    0    1
 -2       682       797       796      3212      3213      3208
 -1      1459    8    0    1
 -2       683       684       798      2866      3214      3215
 -1      1460    8    0    1
 -2       683       798       797      3215      3216      3211
 -1      1461    8    0    1
 -2       684       685       799      2869      3217      3218
 -1      1462    8    0    1
 -2       684       799       798      3218      3219      3214
 -1      1463    8    0    1
 -2       685       686       800      2872      3220      3221
 -1      1464    8    0    1
 -2       685       800       799      3221      3222      3217
 -1      1465    8    0    1
 -2       689       688       801      2882      3223      3224
 -1      1466    8    0    1
 -2       688       764       801      3116      3225      3223
 -1      1467    8    0    1
 -2       693       694       802      2897      3226      3227
 -1      1468    8    0    1
 -2       693       802       763      3227      3228      3113
 -1      1469    8    0    1
 -2       691       692       803      2891      3229      3230
 -1      1470    8    0    1
 -2       692       763       803      3114      3231      3229
 -1      1471    8    0    1
 -2       706       712       804      2985      3232      3233
 -1      1472    8    0    1
 -2       708       696       630      2983      2987      3234
 -1      1473    8    0    1
 -2       709       711       805      2975      3235      3236
 -1      1474    8    0    1
 -2       711       707       806      2945      3237      3238
 -1      1475    8    0    1
 -2       653       654       807      2776      3239      3240
 -1      1476    8    0    1
 -2       767       653       807      3123      3240      3241
 -1      1477    8    0    1
 -2       654       769       807      3129      3242      3239
 -1      1478    8    0    1
 -2       699       689       808      2917      3243      3244
 -1      1479    8    0    1
 -2       689       801       808      3224      3245      3243
 -1      1480    8    0    1
 -2       697       602       809      2971      3246      3247
 -1      1481    8    0    1
 -2       357       595       596      2603      2988      2903
 -1      1482    8    0    1
 -2       634       633       810      2717      3248      3249
 -1      1483    8    0    1
 -2       634       810       750      3249      3250      3075
 -1      1484    8    0    1
 -2       608       607       811      2643      3251      3252
 -1      1485    8    0    1
 -2       610       611       719      2990      3253      3254
 -1      1486    8    0    1
 -2       603       719       611      2986      3253      3011
 -1      1487    8    0    1
 -2       587       709       812      2940      3255      3256
 -1      1488    8    0    1
 -2       703       632       813      2976      3257      3258
 -1      1489    8    0    1
 -2       613       587       812      2654      3256      3259
 -1      1490    8    0    1
 -2       710       706       814      2989      3260      3261
 -1      1491    8    0    1
 -2       631       699       815      2977      3262      3263
 -1      1492    8    0    1
 -2       687       631       815      2876      3263      3264
 -1      1493    8    0    1
 -2       699       808       815      3244      3265      3262
 -1      1494    8    0    1
 -2       698       691       816      2914      3266      3267
 -1      1495    8    0    1
 -2       764       698       816      3115      3267      3268
 -1      1496    8    0    1
 -2       691       803       816      3230      3269      3266
 -1      1497    8    0    1
 -2       721       647       762      3070      3111      3270
 -1      1498    8    0    1
 -2       708       630       746      3234      3066      3271
 -1      1499    8    0    1
 -2       812       709       817      3255      3272      3273
 -1      1500    8    0    1
 -2       613       812       818      3259      3274      3275
 -1      1501    8    0    1
 -2       613       818       717      3275      3276      2963
 -1      1502    8    0    1
 -2       710       814       728      3261      3277      3012
 -1      1503    8    0    1
 -2       633       747       810      3069      3278      3248
 -1      1504    8    0    1
 -2       747       700       713      3068      3279      3280
 -1      1505    8    0    1
 -2       818       812       819      3274      3281      3282
 -1      1506    8    0    1
 -2       812       817       819      3273      3283      3281
 -1      1507    8    0    1
 -2       748       704       820      3071      3284      3285
 -1      1508    8    0    1
 -2       704       722       820      2992      3286      3284
 -1      1509    8    0    1
 -2       702       609       821      2926      3287      3288
 -1      1510    8    0    1
 -2       609       727       821      3010      3289      3287
 -1      1511    8    0    1
 -2       718       697       822      2968      3290      3291
 -1      1512    8    0    1
 -2       697       809       822      3247      3292      3290
 -1      1513    8    0    1
 -2       719       749       727      3074      3293      3294
 -1      1514    8    0    1
 -2       706       804       814      3233      3295      3260
 -1      1515    8    0    1
 -2       721       762       694      3270      3296      2984
 -1      1516    8    0    1
 -2       651       768       823      3126      3297      3298
 -1      1517    8    0    1
 -2       651       823       690      3298      3299      2886
 -1      1518    8    0    1
 -2       719       727       610      3294      3009      3254
 -1      1519    8    0    1
 -2       686       687       824      2875      3300      3301
 -1      1520    8    0    1
 -2       800       686       824      3220      3301      3302
 -1      1521    8    0    1
 -2       687       815       824      3264      3303      3300
 -1      1522    8    0    1
 -2       720       703       825      2980      3304      3305
 -1      1523    8    0    1
 -2       703       813       825      3258      3306      3304
 -1      1524    8    0    1
 -2       802       694       762      3226      3296      3307
 -1      1525    8    0    1
 -2       632       748       813      3072      3308      3257
 -1      1526    8    0    1
 -2       804       712       826      3232      3309      3310
 -1      1527    8    0    1
 -2       712       725       826      3003      3311      3309
 -1      1528    8    0    1
 -2       612       695       729      2900      3016      3312
 -1      1529    8    0    1
 -2       817       709       805      3272      3236      3313
 -1      1530    8    0    1
 -2       730       612       729      3018      3312      3314
 -1      1531    8    0    1
 -2       805       711       806      3235      3238      3315
 -1      1532    8    0    1
 -2       649       690       827      2885      3316      3317
 -1      1533    8    0    1
 -2       765       649       827      3117      3317      3318
 -1      1534    8    0    1
 -2       690       823       827      3299      3319      3316
 -1      1535    8    0    1
 -2       806       707       828      3237      3320      3321
 -1      1536    8    0    1
 -2       707       728       828      3013      3322      3320
 -1      1537    8    0    1
 -2       602       720       809      2979      3323      3246
 -1      1538    8    0    1
 -2       713       701       747      2951      3324      3280
 -1      1539    8    0    1
 -2       722       604       829      2993      3325      3326
 -1      1540    8    0    1
 -2       604       717       829      2965      3327      3325
 -1      1541    8    0    1
 -2       605       724       830      2999      3328      3329
 -1      1542    8    0    1
 -2       605       830       725      3329      3330      3001
 -1      1543    8    0    1
 -2       747       701       831      3324      3331      3332
 -1      1544    8    0    1
 -2       810       747       831      3278      3332      3333
 -1      1545    8    0    1
 -2       701       718       831      2970      3334      3331
 -1      1546    8    0    1
 -2       716       608       832      2958      3335      3336
 -1      1547    8    0    1
 -2       608       811       832      3252      3337      3335
 -1      1548    8    0    1
 -2       607       702       833      2925      3338      3339
 -1      1549    8    0    1
 -2       811       607       833      3251      3339      3340
 -1      1550    8    0    1
 -2       702       821       833      3288      3341      3338
 -1      1551    8    0    1
 -2       726       714       834      3006      3342      3343
 -1      1552    8    0    1
 -2       834       714       835      3342      3344      3345
 -1      1553    8    0    1
 -2       714       723       835      2996      3346      3344
 -1      1554    8    0    1
 -2       817       805       836      3313      3347      3348
 -1      1555    8    0    1
 -2       728       814       837      3277      3349      3350
 -1      1556    8    0    1
 -2       731       730       838      3022      3351      3352
 -1      1557    8    0    1
 -2       751       750       839      3079      3353      3354
 -1      1558    8    0    1
 -2       732       731       840      3025      3355      3356
 -1      1559    8    0    1
 -2       731       838       840      3352      3357      3355
 -1      1560    8    0    1
 -2       733       732       841      3028      3358      3359
 -1      1561    8    0    1
 -2       732       840       841      3356      3360      3358
 -1      1562    8    0    1
 -2       734       733       842      3031      3361      3362
 -1      1563    8    0    1
 -2       733       841       842      3359      3363      3361
 -1      1564    8    0    1
 -2       735       734       843      3034      3364      3365
 -1      1565    8    0    1
 -2       734       842       843      3362      3366      3364
 -1      1566    8    0    1
 -2       736       735       844      3037      3367      3368
 -1      1567    8    0    1
 -2       735       843       844      3365      3369      3367
 -1      1568    8    0    1
 -2       737       736       845      3040      3370      3371
 -1      1569    8    0    1
 -2       736       844       845      3368      3372      3370
 -1      1570    8    0    1
 -2       738       737       846      3043      3373      3374
 -1      1571    8    0    1
 -2       737       845       846      3371      3375      3373
 -1      1572    8    0    1
 -2       739       738       847      3046      3376      3377
 -1      1573    8    0    1
 -2       738       846       847      3374      3378      3376
 -1      1574    8    0    1
 -2       740       739       848      3049      3379      3380
 -1      1575    8    0    1
 -2       739       847       848      3377      3381      3379
 -1      1576    8    0    1
 -2       741       740       849      3052      3382      3383
 -1      1577    8    0    1
 -2       740       848       849      3380      3384      3382
 -1      1578    8    0    1
 -2       742       741       850      3055      3385      3386
 -1      1579    8    0    1
 -2       741       849       850      3383      3387      3385
 -1      1580    8    0    1
 -2       743       742       851      3058      3388      3389
 -1      1581    8    0    1
 -2       742       850       851      3386      3390      3388
 -1      1582    8    0    1
 -2       744       743       852      3061      3391      3392
 -1      1583    8    0    1
 -2       743       851       852      3389      3393      3391
 -1      1584    8    0    1
 -2       745       744       853      3064      3394      3395
 -1      1585    8    0    1
 -2       744       852       853      3392      3396      3394
 -1      1586    8    0    1
 -2       746       745       854      3067      3397      3398
 -1      1587    8    0    1
 -2       745       853       854      3395      3399      3397
 -1      1588    8    0    1
 -2       727       749       855      3293      3400      3401
 -1      1589    8    0    1
 -2       727       855       821      3401      3402      3289
 -1      1590    8    0    1
 -2       814       804       856      3295      3403      3404
 -1      1591    8    0    1
 -2       752       751       857      3082      3405      3406
 -1      1592    8    0    1
 -2       751       839       857      3354      3407      3405
 -1      1593    8    0    1
 -2       753       752       858      3085      3408      3409
 -1      1594    8    0    1
 -2       752       857       858      3406      3410      3408
 -1      1595    8    0    1
 -2       754       753       859      3088      3411      3412
 -1      1596    8    0    1
 -2       753       858       859      3409      3413      3411
 -1      1597    8    0    1
 -2       755       754       860      3091      3414      3415
 -1      1598    8    0    1
 -2       754       859       860      3412      3416      3414
 -1      1599    8    0    1
 -2       756       755       861      3094      3417      3418
 -1      1600    8    0    1
 -2       755       860       861      3415      3419      3417
 -1      1601    8    0    1
 -2       757       756       862      3097      3420      3421
 -1      1602    8    0    1
 -2       756       861       862      3418      3422      3420
 -1      1603    8    0    1
 -2       758       757       863      3100      3423      3424
 -1      1604    8    0    1
 -2       757       862       863      3421      3425      3423
 -1      1605    8    0    1
 -2       759       758       864      3103      3426      3427
 -1      1606    8    0    1
 -2       758       863       864      3424      3428      3426
 -1      1607    8    0    1
 -2       760       759       865      3106      3429      3430
 -1      1608    8    0    1
 -2       759       864       865      3427      3431      3429
 -1      1609    8    0    1
 -2       761       760       866      3109      3432      3433
 -1      1610    8    0    1
 -2       760       865       866      3430      3434      3432
 -1      1611    8    0    1
 -2       762       761       867      3112      3435      3436
 -1      1612    8    0    1
 -2       802       762       867      3307      3436      3437
 -1      1613    8    0    1
 -2       761       866       867      3433      3438      3435
 -1      1614    8    0    1
 -2       763       802       868      3228      3439      3440
 -1      1615    8    0    1
 -2       802       867       868      3437      3441      3439
 -1      1616    8    0    1
 -2       768       767       869      3127      3442      3443
 -1      1617    8    0    1
 -2       770       771       870      3135      3444      3445
 -1      1618    8    0    1
 -2       769       770       871      3132      3446      3447
 -1      1619    8    0    1
 -2       770       870       871      3445      3448      3446
 -1      1620    8    0    1
 -2       772       773       872      3141      3449      3450
 -1      1621    8    0    1
 -2       773       774       873      3144      3451      3452
 -1      1622    8    0    1
 -2       773       873       872      3452      3453      3449
 -1      1623    8    0    1
 -2       774       775       874      3147      3454      3455
 -1      1624    8    0    1
 -2       774       874       873      3455      3456      3451
 -1      1625    8    0    1
 -2       775       776       875      3150      3457      3458
 -1      1626    8    0    1
 -2       775       875       874      3458      3459      3454
 -1      1627    8    0    1
 -2       776       777       876      3153      3460      3461
 -1      1628    8    0    1
 -2       776       876       875      3461      3462      3457
 -1      1629    8    0    1
 -2       777       778       877      3156      3463      3464
 -1      1630    8    0    1
 -2       777       877       876      3464      3465      3460
 -1      1631    8    0    1
 -2       778       779       878      3159      3466      3467
 -1      1632    8    0    1
 -2       778       878       877      3467      3468      3463
 -1      1633    8    0    1
 -2       779       780       879      3162      3469      3470
 -1      1634    8    0    1
 -2       779       879       878      3470      3471      3466
 -1      1635    8    0    1
 -2       781       782       880      3168      3472      3473
 -1      1636    8    0    1
 -2       782       783       881      3171      3474      3475
 -1      1637    8    0    1
 -2       782       881       880      3475      3476      3472
 -1      1638    8    0    1
 -2       783       784       882      3174      3477      3478
 -1      1639    8    0    1
 -2       783       882       881      3478      3479      3474
 -1      1640    8    0    1
 -2       784       785       883      3177      3480      3481
 -1      1641    8    0    1
 -2       784       883       882      3481      3482      3477
 -1      1642    8    0    1
 -2       785       786       884      3180      3483      3484
 -1      1643    8    0    1
 -2       785       884       883      3484      3485      3480
 -1      1644    8    0    1
 -2       786       787       885      3183      3486      3487
 -1      1645    8    0    1
 -2       786       885       884      3487      3488      3483
 -1      1646    8    0    1
 -2       787       788       886      3186      3489      3490
 -1      1647    8    0    1
 -2       787       886       885      3490      3491      3486
 -1      1648    8    0    1
 -2       788       789       887      3189      3492      3493
 -1      1649    8    0    1
 -2       788       887       886      3493      3494      3489
 -1      1650    8    0    1
 -2       789       790       888      3192      3495      3496
 -1      1651    8    0    1
 -2       789       888       887      3496      3497      3492
 -1      1652    8    0    1
 -2       790       791       889      3195      3498      3499
 -1      1653    8    0    1
 -2       790       889       888      3499      3500      3495
 -1      1654    8    0    1
 -2       791       792       890      3198      3501      3502
 -1      1655    8    0    1
 -2       791       890       889      3502      3503      3498
 -1      1656    8    0    1
 -2       792       793       891      3201      3504      3505
 -1      1657    8    0    1
 -2       792       891       890      3505      3506      3501
 -1      1658    8    0    1
 -2       793       794       892      3204      3507      3508
 -1      1659    8    0    1
 -2       793       892       891      3508      3509      3504
 -1      1660    8    0    1
 -2       794       795       893      3207      3510      3511
 -1      1661    8    0    1
 -2       794       893       892      3511      3512      3507
 -1      1662    8    0    1
 -2       795       796       894      3210      3513      3514
 -1      1663    8    0    1
 -2       795       894       893      3514      3515      3510
 -1      1664    8    0    1
 -2       796       797       895      3213      3516      3517
 -1      1665    8    0    1
 -2       796       895       894      3517      3518      3513
 -1      1666    8    0    1
 -2       797       798       896      3216      3519      3520
 -1      1667    8    0    1
 -2       797       896       895      3520      3521      3516
 -1      1668    8    0    1
 -2       798       799       897      3219      3522      3523
 -1      1669    8    0    1
 -2       798       897       896      3523      3524      3519
 -1      1670    8    0    1
 -2       799       800       898      3222      3525      3526
 -1      1671    8    0    1
 -2       799       898       897      3526      3527      3522
 -1      1672    8    0    1
 -2       801       764       899      3225      3528      3529
 -1      1673    8    0    1
 -2       803       763       900      3231      3530      3531
 -1      1674    8    0    1
 -2       763       868       900      3440      3532      3530
 -1      1675    8    0    1
 -2       771       772       901      3138      3533      3534
 -1      1676    8    0    1
 -2       870       771       901      3444      3534      3535
 -1      1677    8    0    1
 -2       772       872       901      3450      3536      3533
 -1      1678    8    0    1
 -2       723       716       902      2997      3537      3538
 -1      1679    8    0    1
 -2       723       902       835      3538      3539      3346
 -1      1680    8    0    1
 -2       730       729       726      3314      3017      3540
 -1      1681    8    0    1
 -2       809       720       903      3323      3541      3542
 -1      1682    8    0    1
 -2       720       825       903      3305      3543      3541
 -1      1683    8    0    1
 -2       717       818       904      3276      3544      3545
 -1      1684    8    0    1
 -2       717       904       829      3545      3546      3327
 -1      1685    8    0    1
 -2       715       705       700      3004      3547      2956
 -1      1686    8    0    1
 -2       805       806       905      3315      3548      3549
 -1      1687    8    0    1
 -2       750       810       906      3250      3550      3551
 -1      1688    8    0    1
 -2       750       906       839      3551      3552      3353
 -1      1689    8    0    1
 -2       813       748       907      3308      3553      3554
 -1      1690    8    0    1
 -2       808       801       908      3245      3555      3556
 -1      1691    8    0    1
 -2       801       899       908      3529      3557      3555
 -1      1692    8    0    1
 -2       705       713       700      2950      3279      3547
 -1      1693    8    0    1
 -2       832       811       909      3337      3558      3559
 -1      1694    8    0    1
 -2       728       837       828      3350      3560      3322
 -1      1695    8    0    1
 -2       746       854       830      3398      3561      3562
 -1      1696    8    0    1
 -2       909       811       910      3558      3563      3564
 -1      1697    8    0    1
 -2       811       833       910      3340      3565      3563
 -1      1698    8    0    1
 -2       855       749       766      3400      3121      3566
 -1      1699    8    0    1
 -2       820       722       829      3286      3326      3567
 -1      1700    8    0    1
 -2       814       856       837      3404      3568      3349
 -1      1701    8    0    1
 -2       822       809       911      3292      3569      3570
 -1      1702    8    0    1
 -2       809       903       911      3542      3571      3569
 -1      1703    8    0    1
 -2       856       804       912      3403      3572      3573
 -1      1704    8    0    1
 -2       804       826       912      3310      3574      3572
 -1      1705    8    0    1
 -2       768       869       913      3443      3575      3576
 -1      1706    8    0    1
 -2       768       913       823      3576      3577      3297
 -1      1707    8    0    1
 -2       708       746       724      3271      3578      3000
 -1      1708    8    0    1
 -2       902       716       832      3537      3336      3579
 -1      1709    8    0    1
 -2       724       746       830      3578      3562      3328
 -1      1710    8    0    1
 -2       869       767       914      3442      3580      3581
 -1      1711    8    0    1
 -2       767       807       914      3241      3582      3580
 -1      1712    8    0    1
 -2       764       816       915      3268      3583      3584
 -1      1713    8    0    1
 -2       764       915       899      3584      3585      3528
 -1      1714    8    0    1
 -2       780       781       916      3165      3586      3587
 -1      1715    8    0    1
 -2       898       800       917      3525      3588      3589
 -1      1716    8    0    1
 -2       800       824       917      3302      3590      3588
 -1      1717    8    0    1
 -2       780       916       879      3587      3591      3469
 -1      1718    8    0    1
 -2       825       813       918      3306      3592      3593
 -1      1719    8    0    1
 -2       813       907       918      3554      3594      3592
 -1      1720    8    0    1
 -2       816       803       919      3269      3595      3596
 -1      1721    8    0    1
 -2       915       816       919      3583      3596      3597
 -1      1722    8    0    1
 -2       803       900       919      3531      3598      3595
 -1      1723    8    0    1
 -2       826       725       920      3311      3599      3600
 -1      1724    8    0    1
 -2       725       830       920      3330      3601      3599
 -1      1725    8    0    1
 -2       807       769       921      3242      3602      3603
 -1      1726    8    0    1
 -2       914       807       921      3582      3603      3604
 -1      1727    8    0    1
 -2       769       871       921      3447      3605      3602
 -1      1728    8    0    1
 -2       838       730       834      3351      3606      3607
 -1      1729    8    0    1
 -2       765       827       922      3318      3608      3609
 -1      1730    8    0    1
 -2       766       765       923      3122      3610      3611
 -1      1731    8    0    1
 -2       765       922       923      3609      3612      3610
 -1      1732    8    0    1
 -2       831       718       924      3334      3613      3614
 -1      1733    8    0    1
 -2       718       822       924      3291      3615      3613
 -1      1734    8    0    1
 -2       730       726       834      3540      3343      3606
 -1      1735    8    0    1
 -2       834       835       925      3345      3616      3617
 -1      1736    8    0    1
 -2       834       925       838      3617      3618      3607
 -1      1737    8    0    1
 -2       810       831       906      3333      3619      3550
 -1      1738    8    0    1
 -2       836       805       905      3347      3549      3620
 -1      1739    8    0    1
 -2       905       806       926      3548      3621      3622
 -1      1740    8    0    1
 -2       806       828       926      3321      3623      3621
 -1      1741    8    0    1
 -2       748       820       927      3285      3624      3625
 -1      1742    8    0    1
 -2       748       927       907      3625      3626      3553
 -1      1743    8    0    1
 -2       808       908       917      3556      3627      3628
 -1      1744    8    0    1
 -2       817       836       880      3348      3629      3630
 -1      1745    8    0    1
 -2       916       781       880      3586      3473      3631
 -1      1746    8    0    1
 -2       819       817       880      3283      3630      3632
 -1      1747    8    0    1
 -2       828       837       928      3560      3633      3634
 -1      1748    8    0    1
 -2       830       854       920      3561      3635      3601
 -1      1749    8    0    1
 -2       841       840       929      3360      3636      3637
 -1      1750    8    0    1
 -2       842       841       930      3363      3638      3639
 -1      1751    8    0    1
 -2       841       929       930      3637      3640      3638
 -1      1752    8    0    1
 -2       843       842       931      3366      3641      3642
 -1      1753    8    0    1
 -2       842       930       931      3639      3643      3641
 -1      1754    8    0    1
 -2       844       843       932      3369      3644      3645
 -1      1755    8    0    1
 -2       843       931       932      3642      3646      3644
 -1      1756    8    0    1
 -2       845       844       933      3372      3647      3648
 -1      1757    8    0    1
 -2       844       932       933      3645      3649      3647
 -1      1758    8    0    1
 -2       846       845       934      3375      3650      3651
 -1      1759    8    0    1
 -2       845       933       934      3648      3652      3650
 -1      1760    8    0    1
 -2       847       846       935      3378      3653      3654
 -1      1761    8    0    1
 -2       846       934       935      3651      3655      3653
 -1      1762    8    0    1
 -2       848       847       936      3381      3656      3657
 -1      1763    8    0    1
 -2       847       935       936      3654      3658      3656
 -1      1764    8    0    1
 -2       849       848       937      3384      3659      3660
 -1      1765    8    0    1
 -2       848       936       937      3657      3661      3659
 -1      1766    8    0    1
 -2       850       849       938      3387      3662      3663
 -1      1767    8    0    1
 -2       849       937       938      3660      3664      3662
 -1      1768    8    0    1
 -2       851       850       939      3390      3665      3666
 -1      1769    8    0    1
 -2       850       938       939      3663      3667      3665
 -1      1770    8    0    1
 -2       852       851       940      3393      3668      3669
 -1      1771    8    0    1
 -2       851       939       940      3666      3670      3668
 -1      1772    8    0    1
 -2       853       852       941      3396      3671      3672
 -1      1773    8    0    1
 -2       852       940       941      3669      3673      3671
 -1      1774    8    0    1
 -2       854       853       942      3399      3674      3675
 -1      1775    8    0    1
 -2       853       941       942      3672      3676      3674
 -1      1776    8    0    1
 -2       818       819       943      3282      3677      3678
 -1      1777    8    0    1
 -2       858       857       944      3410      3679      3680
 -1      1778    8    0    1
 -2       859       858       945      3413      3681      3682
 -1      1779    8    0    1
 -2       858       944       945      3680      3683      3681
 -1      1780    8    0    1
 -2       860       859       946      3416      3684      3685
 -1      1781    8    0    1
 -2       859       945       946      3682      3686      3684
 -1      1782    8    0    1
 -2       861       860       947      3419      3687      3688
 -1      1783    8    0    1
 -2       860       946       947      3685      3689      3687
 -1      1784    8    0    1
 -2       862       861       948      3422      3690      3691
 -1      1785    8    0    1
 -2       861       947       948      3688      3692      3690
 -1      1786    8    0    1
 -2       863       862       949      3425      3693      3694
 -1      1787    8    0    1
 -2       862       948       949      3691      3695      3693
 -1      1788    8    0    1
 -2       864       863       950      3428      3696      3697
 -1      1789    8    0    1
 -2       863       949       950      3694      3698      3696
 -1      1790    8    0    1
 -2       865       864       951      3431      3699      3700
 -1      1791    8    0    1
 -2       864       950       951      3697      3701      3699
 -1      1792    8    0    1
 -2       866       865       952      3434      3702      3703
 -1      1793    8    0    1
 -2       865       951       952      3700      3704      3702
 -1      1794    8    0    1
 -2       867       866       953      3438      3705      3706
 -1      1795    8    0    1
 -2       868       867       953      3441      3706      3707
 -1      1796    8    0    1
 -2       866       952       953      3703      3708      3705
 -1      1797    8    0    1
 -2       818       943       904      3678      3709      3544
 -1      1798    8    0    1
 -2       943       819       881      3677      3710      3711
 -1      1799    8    0    1
 -2       904       943       954      3709      3712      3713
 -1      1800    8    0    1
 -2       881       819       880      3710      3632      3476
 -1      1801    8    0    1
 -2       835       902       955      3539      3714      3715
 -1      1802    8    0    1
 -2       835       955       925      3715      3716      3616
 -1      1803    8    0    1
 -2       906       831       924      3619      3614      3717
 -1      1804    8    0    1
 -2       873       874       956      3456      3718      3719
 -1      1805    8    0    1
 -2       872       873       957      3453      3720      3721
 -1      1806    8    0    1
 -2       873       956       957      3719      3722      3720
 -1      1807    8    0    1
 -2       875       876       958      3462      3723      3724
 -1      1808    8    0    1
 -2       876       877       959      3465      3725      3726
 -1      1809    8    0    1
 -2       876       959       958      3726      3727      3723
 -1      1810    8    0    1
 -2       877       878       960      3468      3728      3729
 -1      1811    8    0    1
 -2       877       960       959      3729      3730      3725
 -1      1812    8    0    1
 -2       878       879       926      3471      3731      3732
 -1      1813    8    0    1
 -2       881       882       943      3479      3733      3711
 -1      1814    8    0    1
 -2       898       917       961      3589      3734      3735
 -1      1815    8    0    1
 -2       883       884       962      3485      3736      3737
 -1      1816    8    0    1
 -2       885       886       963      3491      3738      3739
 -1      1817    8    0    1
 -2       886       887       964      3494      3740      3741
 -1      1818    8    0    1
 -2       886       964       963      3741      3742      3738
 -1      1819    8    0    1
 -2       887       888       965      3497      3743      3744
 -1      1820    8    0    1
 -2       887       965       964      3744      3745      3740
 -1      1821    8    0    1
 -2       888       889       966      3500      3746      3747
 -1      1822    8    0    1
 -2       888       966       965      3747      3748      3743
 -1      1823    8    0    1
 -2       889       890       967      3503      3749      3750
 -1      1824    8    0    1
 -2       889       967       966      3750      3751      3746
 -1      1825    8    0    1
 -2       890       891       968      3506      3752      3753
 -1      1826    8    0    1
 -2       890       968       967      3753      3754      3749
 -1      1827    8    0    1
 -2       891       892       969      3509      3755      3756
 -1      1828    8    0    1
 -2       891       969       968      3756      3757      3752
 -1      1829    8    0    1
 -2       892       893       970      3512      3758      3759
 -1      1830    8    0    1
 -2       892       970       969      3759      3760      3755
 -1      1831    8    0    1
 -2       893       894       971      3515      3761      3762
 -1      1832    8    0    1
 -2       893       971       970      3762      3763      3758
 -1      1833    8    0    1
 -2       894       895       972      3518      3764      3765
 -1      1834    8    0    1
 -2       894       972       971      3765      3766      3761
 -1      1835    8    0    1
 -2       895       896       973      3521      3767      3768
 -1      1836    8    0    1
 -2       895       973       972      3768      3769      3764
 -1      1837    8    0    1
 -2       896       897       974      3524      3770      3771
 -1      1838    8    0    1
 -2       896       974       973      3771      3772      3767
 -1      1839    8    0    1
 -2       897       898       975      3527      3773      3774
 -1      1840    8    0    1
 -2       974       897       975      3770      3774      3775
 -1      1841    8    0    1
 -2       898       961       975      3735      3776      3773
 -1      1842    8    0    1
 -2       900       868       976      3532      3777      3778
 -1      1843    8    0    1
 -2       868       953       976      3707      3779      3777
 -1      1844    8    0    1
 -2       874       875       977      3459      3780      3781
 -1      1845    8    0    1
 -2       874       977       956      3781      3782      3718
 -1      1846    8    0    1
 -2       871       870       978      3448      3783      3784
 -1      1847    8    0    1
 -2       857       839       979      3407      3785      3786
 -1      1848    8    0    1
 -2       857       979       944      3786      3787      3679
 -1      1849    8    0    1
 -2       827       823       980      3319      3788      3789
 -1      1850    8    0    1
 -2       922       827       980      3608      3789      3790
 -1      1851    8    0    1
 -2       823       913       980      3577      3791      3788
 -1      1852    8    0    1
 -2       840       838       981      3357      3792      3793
 -1      1853    8    0    1
 -2       929       840       981      3636      3793      3794
 -1      1854    8    0    1
 -2       838       925       981      3618      3795      3792
 -1      1855    8    0    1
 -2       902       832       982      3579      3796      3797
 -1      1856    8    0    1
 -2       955       902       982      3714      3797      3798
 -1      1857    8    0    1
 -2       832       909       982      3559      3799      3796
 -1      1858    8    0    1
 -2       837       856       983      3568      3800      3801
 -1      1859    8    0    1
 -2       833       821       984      3341      3802      3803
 -1      1860    8    0    1
 -2       910       833       984      3565      3803      3804
 -1      1861    8    0    1
 -2       821       855       984      3402      3805      3802
 -1      1862    8    0    1
 -2       903       825       985      3543      3806      3807
 -1      1863    8    0    1
 -2       825       918       985      3593      3808      3806
 -1      1864    8    0    1
 -2       880       836       916      3629      3809      3631
 -1      1865    8    0    1
 -2       836       905       916      3620      3810      3809
 -1      1866    8    0    1
 -2       917       908       961      3627      3811      3734
 -1      1867    8    0    1
 -2       879       916       905      3591      3810      3812
 -1      1868    8    0    1
 -2       815       808       917      3265      3628      3813
 -1      1869    8    0    1
 -2       839       906       986      3552      3814      3815
 -1      1870    8    0    1
 -2       839       986       979      3815      3816      3785
 -1      1871    8    0    1
 -2       855       766       923      3566      3611      3817
 -1      1872    8    0    1
 -2       943       882       954      3733      3818      3712
 -1      1873    8    0    1
 -2       879       905       926      3812      3622      3731
 -1      1874    8    0    1
 -2       928       837       983      3633      3801      3819
 -1      1875    8    0    1
 -2       920       854       942      3635      3675      3820
 -1      1876    8    0    1
 -2       982       909       987      3799      3821      3822
 -1      1877    8    0    1
 -2       903       985       988      3807      3823      3824
 -1      1878    8    0    1
 -2       903       988       911      3824      3825      3571
 -1      1879    8    0    1
 -2       870       901       989      3535      3826      3827
 -1      1880    8    0    1
 -2       870       989       978      3827      3828      3783
 -1      1881    8    0    1
 -2       909       910       990      3564      3829      3830
 -1      1882    8    0    1
 -2       909       990       987      3830      3831      3821
 -1      1883    8    0    1
 -2       912       826       991      3574      3832      3833
 -1      1884    8    0    1
 -2       826       920       991      3600      3834      3832
 -1      1885    8    0    1
 -2       913       869       992      3575      3835      3836
 -1      1886    8    0    1
 -2       878       926       960      3732      3837      3728
 -1      1887    8    0    1
 -2       820       829       993      3567      3838      3839
 -1      1888    8    0    1
 -2       871       978       994      3784      3840      3841
 -1      1889    8    0    1
 -2       871       994       921      3841      3842      3605
 -1      1890    8    0    1
 -2       872       957       995      3721      3843      3844
 -1      1891    8    0    1
 -2       872       995       901      3844      3845      3536
 -1      1892    8    0    1
 -2       820       993       962      3839      3846      3847
 -1      1893    8    0    1
 -2       983       856       996      3800      3848      3849
 -1      1894    8    0    1
 -2       856       912       996      3573      3850      3848
 -1      1895    8    0    1
 -2       961       908       899      3811      3557      3851
 -1      1896    8    0    1
 -2       883       962       993      3737      3846      3852
 -1      1897    8    0    1
 -2       884       885       997      3488      3853      3854
 -1      1898    8    0    1
 -2       918       907       998      3594      3855      3856
 -1      1899    8    0    1
 -2       919       900       999      3598      3857      3858
 -1      1900    8    0    1
 -2       900       976       999      3778      3859      3857
 -1      1901    8    0    1
 -2       923       922      1000      3612      3860      3861
 -1      1902    8    0    1
 -2       977       875       958      3780      3724      3862
 -1      1903    8    0    1
 -2       820       962       927      3847      3863      3624
 -1      1904    8    0    1
 -2       882       883       993      3482      3852      3864
 -1      1905    8    0    1
 -2       899       915      1001      3585      3865      3866
 -1      1906    8    0    1
 -2       924       822      1002      3615      3867      3868
 -1      1907    8    0    1
 -2       822       911      1002      3570      3869      3867
 -1      1908    8    0    1
 -2       869       914      1003      3581      3870      3871
 -1      1909    8    0    1
 -2       869      1003       992      3871      3872      3835
 -1      1910    8    0    1
 -2       899      1001       961      3866      3873      3851
 -1      1911    8    0    1
 -2       922       980      1004      3790      3874      3875
 -1      1912    8    0    1
 -2       922      1004      1000      3875      3876      3860
 -1      1913    8    0    1
 -2       926       828       928      3623      3634      3877
 -1      1914    8    0    1
 -2       907       927       998      3626      3878      3855
 -1      1915    8    0    1
 -2       986       906       924      3814      3717      3879
 -1      1916    8    0    1
 -2       884       997       962      3854      3880      3736
 -1      1917    8    0    1
 -2       997       885       963      3853      3739      3881
 -1      1918    8    0    1
 -2       982       987      1005      3822      3882      3883
 -1      1919    8    0    1
 -2       982      1005       955      3883      3884      3798
 -1      1920    8    0    1
 -2       931       930      1006      3643      3885      3886
 -1      1921    8    0    1
 -2       932       931      1007      3646      3887      3888
 -1      1922    8    0    1
 -2       931      1006      1007      3886      3889      3887
 -1      1923    8    0    1
 -2       933       932      1008      3649      3890      3891
 -1      1924    8    0    1
 -2       932      1007      1008      3888      3892      3890
 -1      1925    8    0    1
 -2       934       933      1009      3652      3893      3894
 -1      1926    8    0    1
 -2       933      1008      1009      3891      3895      3893
 -1      1927    8    0    1
 -2       935       934      1010      3655      3896      3897
 -1      1928    8    0    1
 -2       934      1009      1010      3894      3898      3896
 -1      1929    8    0    1
 -2       936       935      1011      3658      3899      3900
 -1      1930    8    0    1
 -2       935      1010      1011      3897      3901      3899
 -1      1931    8    0    1
 -2       937       936      1012      3661      3902      3903
 -1      1932    8    0    1
 -2       936      1011      1012      3900      3904      3902
 -1      1933    8    0    1
 -2       938       937      1013      3664      3905      3906
 -1      1934    8    0    1
 -2       937      1012      1013      3903      3907      3905
 -1      1935    8    0    1
 -2       939       938      1014      3667      3908      3909
 -1      1936    8    0    1
 -2       938      1013      1014      3906      3910      3908
 -1      1937    8    0    1
 -2       940       939      1015      3670      3911      3912
 -1      1938    8    0    1
 -2       939      1014      1015      3909      3913      3911
 -1      1939    8    0    1
 -2       941       940      1016      3673      3914      3915
 -1      1940    8    0    1
 -2       940      1015      1016      3912      3916      3914
 -1      1941    8    0    1
 -2       942       941      1017      3676      3917      3918
 -1      1942    8    0    1
 -2       941      1016      1017      3915      3919      3917
 -1      1943    8    0    1
 -2       997       963       998      3881      3920      3921
 -1      1944    8    0    1
 -2       961      1001      1018      3873      3922      3923
 -1      1945    8    0    1
 -2       961      1018       975      3923      3924      3776
 -1      1946    8    0    1
 -2       960       926       928      3837      3877      3925
 -1      1947    8    0    1
 -2       956       977      1019      3782      3926      3927
 -1      1948    8    0    1
 -2       946       945      1020      3686      3928      3929
 -1      1949    8    0    1
 -2       947       946      1021      3689      3930      3931
 -1      1950    8    0    1
 -2       946      1020      1021      3929      3932      3930
 -1      1951    8    0    1
 -2       948       947      1022      3692      3933      3934
 -1      1952    8    0    1
 -2       947      1021      1022      3931      3935      3933
 -1      1953    8    0    1
 -2       949       948      1023      3695      3936      3937
 -1      1954    8    0    1
 -2       948      1022      1023      3934      3938      3936
 -1      1955    8    0    1
 -2       950       949      1024      3698      3939      3940
 -1      1956    8    0    1
 -2       949      1023      1024      3937      3941      3939
 -1      1957    8    0    1
 -2       951       950      1025      3701      3942      3943
 -1      1958    8    0    1
 -2       950      1024      1025      3940      3944      3942
 -1      1959    8    0    1
 -2       952       951      1026      3704      3945      3946
 -1      1960    8    0    1
 -2       951      1025      1026      3943      3947      3945
 -1      1961    8    0    1
 -2       953       952      1027      3708      3948      3949
 -1      1962    8    0    1
 -2       976       953      1027      3779      3949      3950
 -1      1963    8    0    1
 -2       952      1026      1027      3946      3951      3948
 -1      1964    8    0    1
 -2       964       965      1028      3745      3952      3953
 -1      1965    8    0    1
 -2       917       824       815      3590      3303      3813
 -1      1966    8    0    1
 -2       930       929      1029      3640      3954      3955
 -1      1967    8    0    1
 -2       930      1029      1006      3955      3956      3885
 -1      1968    8    0    1
 -2       957       956      1030      3722      3957      3958
 -1      1969    8    0    1
 -2       956      1019      1030      3927      3959      3957
 -1      1970    8    0    1
 -2       959       960       928      3730      3925      3960
 -1      1971    8    0    1
 -2       958       959      1031      3727      3961      3962
 -1      1972    8    0    1
 -2       925       955      1032      3716      3963      3964
 -1      1973    8    0    1
 -2       981       925      1032      3795      3964      3965
 -1      1974    8    0    1
 -2       955      1005      1032      3884      3966      3963
 -1      1975    8    0    1
 -2       918       998      1033      3856      3967      3968
 -1      1976    8    0    1
 -2       918      1033       985      3968      3969      3808
 -1      1977    8    0    1
 -2       963       964      1034      3742      3970      3971
 -1      1978    8    0    1
 -2       998       963      1034      3920      3971      3972
 -1      1979    8    0    1
 -2       964      1028      1034      3953      3973      3970
 -1      1980    8    0    1
 -2       966       967      1035      3751      3974      3975
 -1      1981    8    0    1
 -2       967       968      1036      3754      3976      3977
 -1      1982    8    0    1
 -2       967      1036      1035      3977      3978      3974
 -1      1983    8    0    1
 -2       968       969      1037      3757      3979      3980
 -1      1984    8    0    1
 -2       968      1037      1036      3980      3981      3976
 -1      1985    8    0    1
 -2       969       970      1038      3760      3982      3983
 -1      1986    8    0    1
 -2       969      1038      1037      3983      3984      3979
 -1      1987    8    0    1
 -2       970       971      1039      3763      3985      3986
 -1      1988    8    0    1
 -2       970      1039      1038      3986      3987      3982
 -1      1989    8    0    1
 -2       971       972      1040      3766      3988      3989
 -1      1990    8    0    1
 -2       971      1040      1039      3989      3990      3985
 -1      1991    8    0    1
 -2       972       973      1041      3769      3991      3992
 -1      1992    8    0    1
 -2       972      1041      1040      3992      3993      3988
 -1      1993    8    0    1
 -2       973       974      1042      3772      3994      3995
 -1      1994    8    0    1
 -2       973      1042      1041      3995      3996      3991
 -1      1995    8    0    1
 -2       855       923      1043      3817      3997      3998
 -1      1996    8    0    1
 -2       959       928      1031      3960      3999      3961
 -1      1997    8    0    1
 -2       977       958      1044      3862      4000      4001
 -1      1998    8    0    1
 -2       958      1031      1044      3962      4002      4000
 -1      1999    8    0    1
 -2      1001       915      1045      3865      4003      4004
 -1      2000    8    0    1
 -2      1018      1001      1045      3922      4004      4005
 -1      2001    8    0    1
 -2       915       919      1045      3597      4006      4003
 -1      2002    8    0    1
 -2       944       979      1046      3787      4007      4008
 -1      2003    8    0    1
 -2       980       913      1047      3791      4009      4010
 -1      2004    8    0    1
 -2      1004       980      1047      3874      4010      4011
 -1      2005    8    0    1
 -2       913       992      1047      3836      4012      4009
 -1      2006    8    0    1
 -2       927       962       997      3863      3880      4013
 -1      2007    8    0    1
 -2       984       855      1043      3805      3998      4014
 -1      2008    8    0    1
 -2       920       942       991      3820      4015      3834
 -1      2009    8    0    1
 -2       910       984      1043      3804      4014      4016
 -1      2010    8    0    1
 -2       945       944      1048      3683      4017      4018
 -1      2011    8    0    1
 -2       945      1048      1020      4018      4019      3928
 -1      2012    8    0    1
 -2       997       998       927      3921      3878      4013
 -1      2013    8    0    1
 -2       923      1000      1043      3861      4020      3997
 -1      2014    8    0    1
 -2       914       921      1049      3604      4021      4022
 -1      2015    8    0    1
 -2       921       994      1049      3842      4023      4021
 -1      2016    8    0    1
 -2       979       986      1050      3816      4024      4025
 -1      2017    8    0    1
 -2       979      1050      1046      4025      4026      4007
 -1      2018    8    0    1
 -2       829       904       954      3546      3713      4027
 -1      2019    8    0    1
 -2       965       966      1051      3748      4028      4029
 -1      2020    8    0    1
 -2      1028       965      1051      3952      4029      4030
 -1      2021    8    0    1
 -2       966      1035      1051      3975      4031      4028
 -1      2022    8    0    1
 -2       910      1043       990      4016      4032      3829
 -1      2023    8    0    1
 -2      1043      1000       990      4020      4033      4032
 -1      2024    8    0    1
 -2       988       985      1052      3823      4034      4035
 -1      2025    8    0    1
 -2       985      1033      1052      3969      4036      4034
 -1      2026    8    0    1
 -2       912       991      1053      3833      4037      4038
 -1      2027    8    0    1
 -2       912      1053       996      4038      4039      3850
 -1      2028    8    0    1
 -2       911       988      1054      3825      4040      4041
 -1      2029    8    0    1
 -2       911      1054      1002      4041      4042      3869
 -1      2030    8    0    1
 -2       989       901       995      3826      3845      4043
 -1      2031    8    0    1
 -2       990      1000      1055      4033      4044      4045
 -1      2032    8    0    1
 -2       957      1030      1056      3958      4046      4047
 -1      2033    8    0    1
 -2       957      1056       995      4047      4048      3843
 -1      2034    8    0    1
 -2       942      1017       991      3918      4049      4015
 -1      2035    8    0    1
 -2       978       989      1057      3828      4050      4051
 -1      2036    8    0    1
 -2      1019       977      1044      3926      4001      4052
 -1      2037    8    0    1
 -2       976      1027      1058      3950      4053      4054
 -1      2038    8    0    1
 -2       976      1058       999      4054      4055      3859
 -1      2039    8    0    1
 -2       993       829       954      3838      4027      4056
 -1      2040    8    0    1
 -2       983       996      1059      3849      4057      4058
 -1      2041    8    0    1
 -2       928       983      1031      3819      4059      3999
 -1      2042    8    0    1
 -2      1055      1000      1004      4044      3876      4060
 -1      2043    8    0    1
 -2      1031       983      1059      4059      4058      4061
 -1      2044    8    0    1
 -2       986       924      1002      3879      3868      4062
 -1      2045    8    0    1
 -2      1005       987      1060      3882      4063      4064
 -1      2046    8    0    1
 -2       978      1057      1061      4051      4065      4066
 -1      2047    8    0    1
 -2       978      1061       994      4066      4067      3840
 -1      2048    8    0    1
 -2       914      1049      1003      4022      4068      3870
 -1      2049    8    0    1
 -2       974       975      1062      3775      4069      4070
 -1      2050    8    0    1
 -2      1042       974      1062      3994      4070      4071
 -1      2051    8    0    1
 -2       975      1018      1062      3924      4072      4069
 -1      2052    8    0    1
 -2       919       999      1045      3858      4073      4006
 -1      2053    8    0    1
 -2      1047       992      1063      4012      4074      4075
 -1      2054    8    0    1
 -2       987       990      1064      3831      4076      4077
 -1      2055    8    0    1
 -2      1060       987      1064      4063      4077      4078
 -1      2056    8    0    1
 -2       990      1055      1064      4045      4079      4076
 -1      2057    8    0    1
 -2      1033       998      1034      3967      3972      4080
 -1      2058    8    0    1
 -2       944      1046      1048      4008      4081      4017
 -1      2059    8    0    1
 -2       954       882       993      3818      3864      4056
 -1      2060    8    0    1
 -2       992      1003      1065      3872      4082      4083
 -1      2061    8    0    1
 -2       992      1065      1063      4083      4084      4074
 -1      2062    8    0    1
 -2       986      1002      1066      4062      4085      4086
 -1      2063    8    0    1
 -2      1050       986      1066      4024      4086      4087
 -1      2064    8    0    1
 -2      1002      1054      1066      4042      4088      4085
 -1      2065    8    0    1
 -2       929       981      1032      3794      3965      4089
 -1      2066    8    0    1
 -2      1029       929      1032      3954      4089      4090
 -1      2067    8    0    1
 -2      1057       989      1067      4050      4091      4092
 -1      2068    8    0    1
 -2       989       995      1067      4043      4093      4091
 -1      2069    8    0    1
 -2      1008      1007      1068      3892      4094      4095
 -1      2070    8    0    1
 -2      1009      1008      1069      3895      4096      4097
 -1      2071    8    0    1
 -2      1008      1068      1069      4095      4098      4096
 -1      2072    8    0    1
 -2      1010      1009      1070      3898      4099      4100
 -1      2073    8    0    1
 -2      1009      1069      1070      4097      4101      4099
 -1      2074    8    0    1
 -2      1011      1010      1071      3901      4102      4103
 -1      2075    8    0    1
 -2      1010      1070      1071      4100      4104      4102
 -1      2076    8    0    1
 -2      1012      1011      1072      3904      4105      4106
 -1      2077    8    0    1
 -2      1011      1071      1072      4103      4107      4105
 -1      2078    8    0    1
 -2      1013      1012      1073      3907      4108      4109
 -1      2079    8    0    1
 -2      1012      1072      1073      4106      4110      4108
 -1      2080    8    0    1
 -2      1014      1013      1074      3910      4111      4112
 -1      2081    8    0    1
 -2      1013      1073      1074      4109      4113      4111
 -1      2082    8    0    1
 -2      1015      1014      1075      3913      4114      4115
 -1      2083    8    0    1
 -2      1014      1074      1075      4112      4116      4114
 -1      2084    8    0    1
 -2      1016      1015      1076      3916      4117      4118
 -1      2085    8    0    1
 -2      1015      1075      1076      4115      4119      4117
 -1      2086    8    0    1
 -2      1017      1016      1077      3919      4120      4121
 -1      2087    8    0    1
 -2      1016      1076      1077      4118      4122      4120
 -1      2088    8    0    1
 -2      1036      1037      1078      3981      4123      4124
 -1      2089    8    0    1
 -2      1045       999      1058      4073      4055      4125
 -1      2090    8    0    1
 -2      1019      1044      1079      4052      4126      4127
 -1      2091    8    0    1
 -2      1022      1021      1080      3935      4128      4129
 -1      2092    8    0    1
 -2      1023      1022      1081      3938      4130      4131
 -1      2093    8    0    1
 -2      1022      1080      1081      4129      4132      4130
 -1      2094    8    0    1
 -2      1024      1023      1082      3941      4133      4134
 -1      2095    8    0    1
 -2      1023      1081      1082      4131      4135      4133
 -1      2096    8    0    1
 -2      1025      1024      1083      3944      4136      4137
 -1      2097    8    0    1
 -2      1024      1082      1083      4134      4138      4136
 -1      2098    8    0    1
 -2      1026      1025      1084      3947      4139      4140
 -1      2099    8    0    1
 -2      1025      1083      1084      4137      4141      4139
 -1      2100    8    0    1
 -2      1027      1026      1085      3951      4142      4143
 -1      2101    8    0    1
 -2      1058      1027      1085      4053      4143      4144
 -1      2102    8    0    1
 -2      1026      1084      1085      4140      4145      4142
 -1      2103    8    0    1
 -2      1059       996      1086      4057      4146      4147
 -1      2104    8    0    1
 -2       996      1053      1086      4039      4148      4146
 -1      2105    8    0    1
 -2      1030      1019      1087      3959      4149      4150
 -1      2106    8    0    1
 -2      1019      1079      1087      4127      4151      4149
 -1      2107    8    0    1
 -2      1046      1050      1088      4026      4152      4153
 -1      2108    8    0    1
 -2      1032      1005      1029      3966      4154      4090
 -1      2109    8    0    1
 -2       991      1017      1053      4049      4155      4037
 -1      2110    8    0    1
 -2      1007      1006      1089      3889      4156      4157
 -1      2111    8    0    1
 -2      1007      1089      1068      4157      4158      4094
 -1      2112    8    0    1
 -2      1034      1028      1090      3973      4159      4160
 -1      2113    8    0    1
 -2      1034      1090      1033      4160      4161      4080
 -1      2114    8    0    1
 -2      1037      1038      1091      3984      4162      4163
 -1      2115    8    0    1
 -2      1037      1091      1078      4163      4164      4123
 -1      2116    8    0    1
 -2      1035      1036      1092      3978      4165      4166
 -1      2117    8    0    1
 -2      1036      1078      1092      4124      4167      4165
 -1      2118    8    0    1
 -2      1038      1039      1093      3987      4168      4169
 -1      2119    8    0    1
 -2      1038      1093      1091      4169      4170      4162
 -1      2120    8    0    1
 -2      1039      1040      1094      3990      4171      4172
 -1      2121    8    0    1
 -2      1039      1094      1093      4172      4173      4168
 -1      2122    8    0    1
 -2      1040      1041      1095      3993      4174      4175
 -1      2123    8    0    1
 -2      1040      1095      1094      4175      4176      4171
 -1      2124    8    0    1
 -2      1041      1042      1096      3996      4177      4178
 -1      2125    8    0    1
 -2      1041      1096      1095      4178      4179      4174
 -1      2126    8    0    1
 -2      1018      1045      1097      4005      4180      4181
 -1      2127    8    0    1
 -2      1062      1018      1097      4072      4181      4182
 -1      2128    8    0    1
 -2      1045      1058      1097      4125      4183      4180
 -1      2129    8    0    1
 -2      1055      1004      1098      4060      4184      4185
 -1      2130    8    0    1
 -2      1044      1031      1059      4002      4061      4186
 -1      2131    8    0    1
 -2      1047      1063      1098      4075      4187      4188
 -1      2132    8    0    1
 -2      1004      1047      1098      4011      4188      4184
 -1      2133    8    0    1
 -2      1005      1060      1029      4064      4189      4154
 -1      2134    8    0    1
 -2      1049       994      1099      4023      4190      4191
 -1      2135    8    0    1
 -2       994      1061      1099      4067      4192      4190
 -1      2136    8    0    1
 -2      1021      1020      1100      3932      4193      4194
 -1      2137    8    0    1
 -2      1021      1100      1080      4194      4195      4128
 -1      2138    8    0    1
 -2      1048      1046      1101      4081      4196      4197
 -1      2139    8    0    1
 -2      1046      1088      1101      4153      4198      4196
 -1      2140    8    0    1
 -2      1003      1049      1102      4068      4199      4200
 -1      2141    8    0    1
 -2      1065      1003      1102      4082      4200      4201
 -1      2142    8    0    1
 -2      1049      1099      1102      4191      4202      4199
 -1      2143    8    0    1
 -2      1020      1048      1103      4019      4203      4204
 -1      2144    8    0    1
 -2      1048      1101      1103      4197      4205      4203
 -1      2145    8    0    1
 -2      1006      1029      1104      3956      4206      4207
 -1      2146    8    0    1
 -2      1089      1006      1104      4156      4207      4208
 -1      2147    8    0    1
 -2      1029      1060      1104      4189      4209      4206
 -1      2148    8    0    1
 -2      1044      1059      1079      4186      4210      4126
 -1      2149    8    0    1
 -2      1054       988      1105      4040      4211      4212
 -1      2150    8    0    1
 -2      1056      1030      1106      4046      4213      4214
 -1      2151    8    0    1
 -2      1030      1087      1106      4150      4215      4213
 -1      2152    8    0    1
 -2       995      1056      1067      4048      4216      4093
 -1      2153    8    0    1
 -2      1033      1090      1052      4161      4217      4036
 -1      2154    8    0    1
 -2      1017      1077      1086      4121      4218      4219
 -1      2155    8    0    1
 -2      1035      1092      1107      4166      4220      4221
 -1      2156    8    0    1
 -2      1035      1107      1051      4221      4222      4031
 -1      2157    8    0    1
 -2      1055      1098      1108      4185      4223      4224
 -1      2158    8    0    1
 -2      1055      1108      1064      4224      4225      4079
 -1      2159    8    0    1
 -2      1028      1051      1109      4030      4226      4227
 -1      2160    8    0    1
 -2      1090      1028      1109      4159      4227      4228
 -1      2161    8    0    1
 -2      1051      1107      1109      4222      4229      4226
 -1      2162    8    0    1
 -2      1059      1086      1079      4147      4230      4210
 -1      2163    8    0    1
 -2       988      1052      1105      4035      4231      4211
 -1      2164    8    0    1
 -2      1088      1050      1110      4152      4232      4233
 -1      2165    8    0    1
 -2      1050      1066      1110      4087      4234      4232
 -1      2166    8    0    1
 -2      1020      1103      1100      4204      4235      4193
 -1      2167    8    0    1
 -2      1053      1017      1086      4155      4219      4148
 -1      2168    8    0    1
 -2      1061      1057      1111      4065      4236      4237
 -1      2169    8    0    1
 -2      1063      1065      1112      4084      4238      4239
 -1      2170    8    0    1
 -2      1057      1067      1113      4092      4240      4241
 -1      2171    8    0    1
 -2      1057      1113      1111      4241      4242      4236
 -1      2172    8    0    1
 -2      1098      1063      1114      4187      4243      4244
 -1      2173    8    0    1
 -2      1108      1098      1114      4223      4244      4245
 -1      2174    8    0    1
 -2      1063      1112      1114      4239      4246      4243
 -1      2175    8    0    1
 -2      1060      1064      1104      4078      4247      4209
 -1      2176    8    0    1
 -2      1042      1062      1115      4071      4248      4249
 -1      2177    8    0    1
 -2      1096      1042      1115      4177      4249      4250
 -1      2178    8    0    1
 -2      1062      1097      1115      4182      4251      4248
 -1      2179    8    0    1
 -2      1068      1089      1114      4158      4252      4253
 -1      2180    8    0    1
 -2      1086      1077      1079      4218      4254      4230
 -1      2181    8    0    1
 -2      1070      1069      1116      4101      4255      4256
 -1      2182    8    0    1
 -2      1071      1070      1117      4104      4257      4258
 -1      2183    8    0    1
 -2      1070      1116      1117      4256      4259      4257
 -1      2184    8    0    1
 -2      1072      1071      1118      4107      4260      4261
 -1      2185    8    0    1
 -2      1071      1117      1118      4258      4262      4260
 -1      2186    8    0    1
 -2      1073      1072      1111      4110      4263      4264
 -1      2187    8    0    1
 -2      1074      1073      1113      4113      4265      4266
 -1      2188    8    0    1
 -2      1076      1075      1106      4119      4267      4268
 -1      2189    8    0    1
 -2      1077      1076      1087      4122      4269      4270
 -1      2190    8    0    1
 -2      1054      1105      1110      4212      4271      4272
 -1      2191    8    0    1
 -2      1061      1111      1118      4237      4273      4274
 -1      2192    8    0    1
 -2      1082      1081      1095      4135      4275      4276
 -1      2193    8    0    1
 -2      1083      1082      1096      4138      4277      4278
 -1      2194    8    0    1
 -2      1084      1083      1115      4141      4279      4280
 -1      2195    8    0    1
 -2      1087      1079      1077      4151      4254      4270
 -1      2196    8    0    1
 -2      1087      1076      1106      4269      4268      4215
 -1      2197    8    0    1
 -2      1095      1081      1094      4275      4281      4176
 -1      2198    8    0    1
 -2      1112      1065      1116      4238      4282      4283
 -1      2199    8    0    1
 -2      1104      1064      1108      4247      4225      4284
 -1      2200    8    0    1
 -2      1080      1100      1093      4195      4285      4286
 -1      2201    8    0    1
 -2      1067      1056      1119      4216      4287      4288
 -1      2202    8    0    1
 -2      1113      1067      1119      4240      4288      4289
 -1      2203    8    0    1
 -2      1056      1106      1119      4214      4290      4287
 -1      2204    8    0    1
 -2      1093      1094      1080      4173      4291      4286
 -1      2205    8    0    1
 -2      1092      1078      1101      4167      4292      4293
 -1      2206    8    0    1
 -2      1095      1096      1082      4179      4277      4276
 -1      2207    8    0    1
 -2      1100      1103      1091      4235      4294      4295
 -1      2208    8    0    1
 -2      1078      1091      1103      4164      4294      4296
 -1      2209    8    0    1
 -2      1091      1093      1100      4170      4285      4295
 -1      2210    8    0    1
 -2      1099      1061      1118      4192      4274      4297
 -1      2211    8    0    1
 -2      1103      1101      1078      4205      4292      4296
 -1      2212    8    0    1
 -2      1101      1088      1092      4198      4298      4293
 -1      2213    8    0    1
 -2      1081      1080      1094      4132      4291      4281
 -1      2214    8    0    1
 -2      1069      1068      1112      4098      4299      4300
 -1      2215    8    0    1
 -2      1089      1104      1108      4208      4284      4301
 -1      2216    8    0    1
 -2      1112      1068      1114      4299      4253      4246
 -1      2217    8    0    1
 -2      1073      1111      1113      4264      4242      4265
 -1      2218    8    0    1
 -2      1111      1072      1118      4263      4261      4273
 -1      2219    8    0    1
 -2      1083      1096      1115      4278      4250      4279
 -1      2220    8    0    1
 -2      1069      1112      1116      4300      4283      4255
 -1      2221    8    0    1
 -2      1092      1088      1107      4298      4302      4220
 -1      2222    8    0    1
 -2      1107      1088      1110      4302      4233      4303
 -1      2223    8    0    1
 -2      1074      1113      1119      4266      4289      4304
 -1      2224    8    0    1
 -2      1075      1074      1119      4116      4304      4305
 -1      2225    8    0    1
 -2      1099      1118      1117      4297      4262      4306
 -1      2226    8    0    1
 -2      1084      1115      1097      4280      4251      4307
 -1      2227    8    0    1
 -2      1110      1105      1107      4271      4308      4303
 -1      2228    8    0    1
 -2      1116      1065      1102      4282      4201      4309
 -1      2229    8    0    1
 -2      1075      1119      1106      4305      4290      4267
 -1      2230    8    0    1
 -2      1114      1089      1108      4252      4301      4245
 -1      2231    8    0    1
 -2      1105      1052      1109      4231      4310      4311
 -1      2232    8    0    1
 -2      1099      1117      1102      4306      4312      4202
 -1      2233    8    0    1
 -2      1105      1109      1107      4311      4229      4308
 -1      2234    8    0    1
 -2      1066      1054      1110      4088      4272      4234
 -1      2235    8    0    1
 -2      1116      1102      1117      4309      4312      4259
 -1      2236    8    0    1
 -2      1084      1097      1085      4307      4313      4145
 -1      2237    8    0    1
 -2      1058      1085      1097      4144      4313      4183
 -1      2238    8    0    1
 -2      1052      1090      1109      4217      4228      4310
 -3
    1PSTEP                         1           1           1          
  100CL  101 1.000000000        4313                     0    1           1
 -4  DISP        4    1
 -5  D1          1    2    1    0
 -5  D2          1    2    2    0
 -5  D3          1    2    3    0
 -5  ALL         1    2    0    0    1ALL
 -1         1 9.80622E-03-1.71275E-03-1.04165E-15
 -1         2 1.05920E-02-9.09502E-04-5.02904E-16
 -1         3 1.40441E-02-2.78948E-03 4.19975E-15
 -1         4 1.65100E-02-4.21279E-03-9.43256E-17
 -1         5 0.00000E+00 0.00000E+00 0.00000E+00
 -1         6 0.00000E+00 0.00000E+00 0.00000E+00
 -1         7 0.00000E+00 0.00000E+00 0.00000E+00
 -1         8 0.00000E+00 0.00000E+00 0.00000E+00
 -1         9 0.00000E+00 0.00000E+00 0.00000E+00
 -1        10 0.00000E+00 0.00000E+00 0.00000E+00
 -1        11 0.00000E+00 0.00000E+00 0.00000E+00
 -1        12 0.00000E+00 0.00000E+00 0.00000E+00
 -1        13 0.00000E+00 0.00000E+00 0.00000E+00
 -1        14 0.00000E+00 0.00000E+00 0.00000E+00
 -1        15 0.00000E+00 0.00000E+00 0.00000E+00
 -1        16 0.00000E+00 0.00000E+00 0.00000E+00
 -1        17 0.00000E+00 0.00000E+00 0.00000E+00
 -1        18 0.00000E+00 0.00000E+00 0.00000E+00
 -1        19 0.00000E+00 0.00000E+00 0.00000E+00
 -1        20 0.00000E+00 0.00000E+00 0.00000E+00
 -1        21 0.00000E+00 0.00000E+00 0.00000E+00
 -1        22 0.00000E+00 0.00000E+00 0.00000E+00
 -1        23 4.10699E-04-2.60227E-04-1.75573E-17
 -1        24 7.02197E-04-3.99883E-04-4.63801E-17
 -1        25 9.71862E-04-4.96474E-04-8.35242E-17
 -1        26 1.23603E-03-5.64197E-04-1.25950E-16
 -1        27 1.49934E-03-6.12146E-04-1.73350E-16
 -1        28 1.76394E-03-6.45641E-04-2.25910E-16
 -1        29 2.03089E-03-6.68323E-04-2.83163E-16
 -1        30 2.31424E-03-6.83346E-04-3.50116E-16
 -1        31 2.58728E-03-6.91290E-04-4.18973E-16
 -1        32 2.86357E-03-6.94479E-04-4.92716E-16
 -1        33 3.14330E-03-6.93990E-04-5.73092E-16
 -1        34 3.42680E-03-6.90651E-04-6.57237E-16
 -1        35 3.71466E-03-6.85151E-04-7.43631E-16
 -1        36 4.00786E-03-6.78169E-04-8.35784E-16
 -1        37 4.32317E-03-6.70151E-04-9.36327E-16
 -1        38 4.63309E-03-6.63238E-04-1.03639E-15
 -1        39 4.95603E-03-6.59334E-04-1.14598E-15
 -1        40 5.29707E-03-6.62516E-04-1.26721E-15
 -1        41 5.66294E-03-6.80015E-04-1.39344E-15
 -1        42 6.06143E-03-7.24195E-04-1.51947E-15
 -1        43 6.49889E-03-8.14643E-04-1.63565E-15
 -1        44 6.97367E-03-9.77780E-04-1.73862E-15
 -1        45 7.48890E-03-1.25328E-03-1.83896E-15
 -1        46 7.94413E-03-1.60590E-03-1.91556E-15
 -1        47 8.27481E-03-1.93088E-03-1.95029E-15
 -1        48 8.53530E-03-2.16013E-03-1.94928E-15
 -1        49 8.75646E-03-2.18584E-03-1.91566E-15
 -1        50 9.06718E-03-2.02475E-03-1.83777E-15
 -1        51 9.46069E-03-1.81215E-03-1.75159E-15
 -1        52 9.94055E-03-1.64330E-03-1.66894E-15
 -1        53 1.04293E-02-1.57341E-03-1.59919E-15
 -1        54 1.08898E-02-1.59166E-03-1.53786E-15
 -1        55 1.13108E-02-1.67086E-03-1.48391E-15
 -1        56 1.16952E-02-1.78700E-03-1.44840E-15
 -1        57 1.20506E-02-1.92376E-03-1.42873E-15
 -1        58 1.24009E-02-2.07879E-03-1.39400E-15
 -1        59 1.27192E-02-2.23157E-03-1.35838E-15
 -1        60 1.30270E-02-2.38632E-03-1.32801E-15
 -1        61 1.33276E-02-2.54147E-03-1.29955E-15
 -1        62 1.36232E-02-2.69624E-03-1.27475E-15
 -1        63 1.39154E-02-2.85030E-03-1.24668E-15
 -1        64 1.42053E-02-3.00351E-03-1.19991E-15
 -1        65 1.45079E-02-3.16346E-03-1.13746E-15
 -1        66 1.47950E-02-3.31499E-03-1.05960E-15
 -1        67 1.50814E-02-3.46580E-03-9.61335E-16
 -1        68 1.53674E-02-3.61600E-03-8.27646E-16
 -1        69 1.56531E-02-3.76567E-03-6.73550E-16
 -1        70 1.59387E-02-3.91493E-03-4.99780E-16
 -1        71 1.62243E-02-4.06391E-03-3.11078E-16
 -1        72 4.13169E-04 2.60922E-04 2.62716E-17
 -1        73 7.02093E-04 4.02583E-04 7.63346E-17
 -1        74 9.72518E-04 4.98262E-04 1.46239E-16
 -1        75 1.23705E-03 5.65968E-04 2.31043E-16
 -1        76 1.50060E-03 6.14070E-04 3.26419E-16
 -1        77 1.76541E-03 6.47838E-04 4.29436E-16
 -1        78 2.03256E-03 6.70939E-04 5.37778E-16
 -1        79 2.30255E-03 6.86055E-04 6.47801E-16
 -1        80 2.57560E-03 6.95229E-04 7.59304E-16
 -1        81 2.85177E-03 7.00059E-04 8.69622E-16
 -1        82 3.13106E-03 7.01844E-04 9.76995E-16
 -1        83 3.41345E-03 7.01687E-04 1.08473E-15
 -1        84 3.69888E-03 7.00585E-04 1.19020E-15
 -1        85 3.98727E-03 6.99495E-04 1.28716E-15
 -1        86 4.27844E-03 6.99379E-04 1.37450E-15
 -1        87 4.57199E-03 7.01198E-04 1.45498E-15
 -1        88 4.86721E-03 7.05851E-04 1.53306E-15
 -1        89 5.16293E-03 7.14021E-04 1.61257E-15
 -1        90 5.45742E-03 7.25912E-04 1.69233E-15
 -1        91 5.74837E-03 7.40886E-04 1.77150E-15
 -1        92 6.03306E-03 7.57047E-04 1.84157E-15
 -1        93 6.30877E-03 7.70916E-04 1.89437E-15
 -1        94 6.57344E-03 7.77379E-04 1.94572E-15
 -1        95 6.82644E-03 7.70139E-04 1.99672E-15
 -1        96 7.06920E-03 7.42734E-04 2.04842E-15
 -1        97 7.30532E-03 6.89971E-04 2.09784E-15
 -1        98 7.53995E-03 6.09283E-04 2.13573E-15
 -1        99 7.77863E-03 5.01460E-04 2.18066E-15
 -1       100 8.02590E-03 3.70422E-04 2.22218E-15
 -1       101 8.28441E-03 2.22120E-04 2.25713E-15
 -1       102 8.55460E-03 6.30833E-05 2.29871E-15
 -1       103 8.83511E-03-1.00864E-04 2.34013E-15
 -1       104 9.12353E-03-2.65357E-04 2.38743E-15
 -1       105 9.41715E-03-4.27679E-04 2.45150E-15
 -1       106 9.71349E-03-5.86546E-04 2.52445E-15
 -1       107 1.00106E-02-7.41717E-04 2.59682E-15
 -1       108 1.03072E-02-8.93573E-04 2.67449E-15
 -1       109 1.06025E-02-1.04279E-03 2.76026E-15
 -1       110 1.08962E-02-1.19011E-03 2.85349E-15
 -1       111 1.11882E-02-1.33622E-03 2.95666E-15
 -1       112 1.14786E-02-1.48165E-03 3.05949E-15
 -1       113 1.17677E-02-1.62684E-03 3.16976E-15
 -1       114 1.20557E-02-1.77206E-03 3.29044E-15
 -1       115 1.23429E-02-1.91750E-03 3.40749E-15
 -1       116 1.26294E-02-2.06325E-03 3.54440E-15
 -1       117 1.29155E-02-2.20937E-03 3.68805E-15
 -1       118 1.32013E-02-2.35584E-03 3.82820E-15
 -1       119 1.34870E-02-2.50265E-03 3.96734E-15
 -1       120 1.37727E-02-2.64970E-03 4.09018E-15
 -1       121 1.41888E-02-2.87379E-03 3.93949E-15
 -1       122 1.43335E-02-2.95814E-03 3.67302E-15
 -1       123 1.44785E-02-3.04244E-03 3.41589E-15
 -1       124 1.46238E-02-3.12662E-03 3.15770E-15
 -1       125 1.47692E-02-3.21060E-03 2.91634E-15
 -1       126 1.49123E-02-3.29294E-03 2.68238E-15
 -1       127 1.50578E-02-3.37652E-03 2.43536E-15
 -1       128 1.52033E-02-3.45996E-03 2.19018E-15
 -1       129 1.53487E-02-3.54337E-03 1.92685E-15
 -1       130 1.54941E-02-3.62684E-03 1.66010E-15
 -1       131 1.56394E-02-3.71046E-03 1.40759E-15
 -1       132 1.57823E-02-3.79287E-03 1.12440E-15
 -1       133 1.59279E-02-3.87693E-03 8.41778E-16
 -1       134 1.60737E-02-3.96118E-03 6.00330E-16
 -1       135 1.62198E-02-4.04554E-03 3.87162E-16
 -1       136 1.63661E-02-4.12991E-03 1.54533E-16
 -1       137 1.04696E-02-7.15952E-04-3.70797E-16
 -1       138 1.02253E-02-5.17325E-04-2.47046E-16
 -1       139 9.92335E-03-3.50782E-04-1.57758E-16
 -1       140 9.54786E-03-1.99477E-04-8.70276E-17
 -1       141 9.09462E-03-6.57541E-05-4.29141E-17
 -1       142 8.59225E-03 3.68592E-05-2.37576E-17
 -1       143 8.06491E-03 1.00619E-04-3.67816E-17
 -1       144 7.58287E-03 1.18981E-04-7.40917E-17
 -1       145 7.07449E-03 9.26956E-05-1.43291E-16
 -1       146 6.67562E-03 2.96751E-05-2.26497E-16
 -1       147 6.32045E-03-7.56459E-05-3.34744E-16
 -1       148 6.07962E-03-1.99260E-04-4.45160E-16
 -1       149 5.91685E-03-3.53652E-04-5.63970E-16
 -1       150 5.85259E-03-5.36544E-04-6.88069E-16
 -1       151 5.90343E-03-7.43843E-04-8.10157E-16
 -1       152 6.05661E-03-9.51762E-04-9.14157E-16
 -1       153 6.31613E-03-1.17231E-03-1.00995E-15
 -1       154 6.67019E-03-1.39236E-03-1.09489E-15
 -1       155 7.10946E-03-1.59863E-03-1.16540E-15
 -1       156 7.62638E-03-1.77167E-03-1.21231E-15
 -1       157 8.20006E-03-1.88296E-03-1.22701E-15
 -1       158 8.77350E-03-1.90631E-03-1.20352E-15
 -1       159 9.29779E-03-1.84879E-03-1.14061E-15
 -1       160 1.01342E-02-1.57094E-03-9.49903E-16
 -1       161 1.03717E-02-1.41961E-03-8.50210E-16
 -1       162 1.05336E-02-1.25494E-03-7.38299E-16
 -1       163 1.06082E-02-1.08180E-03-6.22183E-16
 -1       164 2.40239E-04-1.25226E-04-1.05608E-17
 -1       165 2.25239E-04-9.43264E-05-7.69784E-18
 -1       166 2.19581E-04-7.24849E-05-5.05509E-18
 -1       167 2.16815E-04-5.48156E-05-2.70373E-18
 -1       168 2.15341E-04-3.97100E-05-7.69106E-19
 -1       169 2.14511E-04-2.57201E-05 1.04693E-18
 -1       170 2.14089E-04-1.25343E-05 2.70034E-18
 -1       171 2.13962E-04 2.83240E-07 3.92684E-18
 -1       172 2.14099E-04 1.31116E-05 5.53621E-18
 -1       173 2.14536E-04 2.63326E-05 7.02021E-18
 -1       174 2.15371E-04 4.01450E-05 8.89385E-18
 -1       175 2.16899E-04 5.56218E-05 1.11537E-17
 -1       176 2.19719E-04 7.35074E-05 1.38676E-17
 -1       177 2.25408E-04 9.57149E-05 1.67475E-17
 -1       178 2.39179E-04 1.27284E-04 1.95665E-17
 -1       179 2.97375E-04 1.85113E-04 2.38253E-17
 -1       180 4.68122E-04-2.62867E-04-2.70508E-17
 -1       181 7.65996E-04-3.80759E-04-5.50470E-17
 -1       182 1.04966E-03-4.62719E-04-8.89486E-17
 -1       183 1.32698E-03-5.20304E-04-1.27668E-16
 -1       184 1.60167E-03-5.60473E-04-1.71148E-16
 -1       185 1.87587E-03-5.87837E-04-2.18867E-16
 -1       186 2.16461E-03-6.06286E-04-2.73148E-16
 -1       187 2.44116E-03-6.16481E-04-3.30417E-16
 -1       188 2.71970E-03-6.21190E-04-3.92346E-16
 -1       189 3.00060E-03-6.21655E-04-4.60003E-16
 -1       190 3.28423E-03-6.18790E-04-5.32726E-16
 -1       191 3.57105E-03-6.13290E-04-6.08688E-16
 -1       192 3.86172E-03-6.05739E-04-6.87137E-16
 -1       193 4.17210E-03-5.96267E-04-7.74337E-16
 -1       194 4.47409E-03-5.86696E-04-8.62395E-16
 -1       195 4.78424E-03-5.78091E-04-9.55504E-16
 -1       196 5.10517E-03-5.73217E-04-1.05740E-15
 -1       197 5.44020E-03-5.77185E-04-1.16638E-15
 -1       198 5.79327E-03-5.99218E-04-1.27962E-15
 -1       199 6.16845E-03-6.55082E-04-1.38848E-15
 -1       200 6.56866E-03-7.69142E-04-1.48986E-15
 -1       201 7.01487E-03-9.84813E-04-1.58531E-15
 -1       202 7.45530E-03-1.30134E-03-1.66241E-15
 -1       203 7.84707E-03-1.65039E-03-1.70599E-15
 -1       204 8.23806E-03-1.98057E-03-1.72200E-15
 -1       205 8.58782E-03-2.12380E-03-1.70489E-15
 -1       206 8.98223E-03-2.03265E-03-1.64931E-15
 -1       207 9.38384E-03-1.81024E-03-1.57634E-15
 -1       208 9.82437E-03-1.59275E-03-1.49896E-15
 -1       209 1.02598E-02-1.47500E-03-1.42992E-15
 -1       210 1.06747E-02-1.46070E-03-1.36902E-15
 -1       211 1.10645E-02-1.52195E-03-1.31398E-15
 -1       212 1.14304E-02-1.62993E-03-1.26781E-15
 -1       213 1.17761E-02-1.76401E-03-1.23315E-15
 -1       214 1.21220E-02-1.91912E-03-1.20256E-15
 -1       215 1.24389E-02-2.07313E-03-1.16862E-15
 -1       216 1.27470E-02-2.22943E-03-1.13275E-15
 -1       217 1.30485E-02-2.38613E-03-1.09834E-15
 -1       218 1.33453E-02-2.54229E-03-1.07043E-15
 -1       219 1.36386E-02-2.69753E-03-1.03681E-15
 -1       220 1.39296E-02-2.85173E-03-9.90873E-16
 -1       221 1.42332E-02-3.01252E-03-9.32566E-16
 -1       222 1.45211E-02-3.16470E-03-8.54541E-16
 -1       223 1.48082E-02-3.31603E-03-7.58050E-16
 -1       224 1.50947E-02-3.46664E-03-6.39754E-16
 -1       225 1.53808E-02-3.61663E-03-4.98804E-16
 -1       226 1.56667E-02-3.76612E-03-3.38047E-16
 -1       227 1.59525E-02-3.91523E-03-1.61675E-16
 -1       228 1.61593E-02-4.02259E-03-1.00729E-17
 -1       229 6.03929E-04 3.30070E-04 6.87283E-17
 -1       230 8.92804E-04 4.30938E-04 1.31371E-16
 -1       231 1.17155E-03 5.01694E-04 2.08014E-16
 -1       232 1.44592E-03 5.51561E-04 2.94967E-16
 -1       233 1.71893E-03 5.86297E-04 3.89310E-16
 -1       234 1.99230E-03 6.09864E-04 4.88775E-16
 -1       235 2.26695E-03 6.25120E-04 5.90602E-16
 -1       236 2.54344E-03 6.34211E-04 6.93432E-16
 -1       237 2.82204E-03 6.38800E-04 7.96780E-16
 -1       238 3.10291E-03 6.40225E-04 8.96984E-16
 -1       239 3.38613E-03 6.39609E-04 9.95355E-16
 -1       240 3.67173E-03 6.37963E-04 1.09135E-15
 -1       241 3.95967E-03 6.36261E-04 1.18160E-15
 -1       242 4.24980E-03 6.35489E-04 1.26296E-15
 -1       243 4.54185E-03 6.36659E-04 1.33884E-15
 -1       244 4.83528E-03 6.40751E-04 1.41259E-15
 -1       245 5.12925E-03 6.48574E-04 1.48483E-15
 -1       246 5.42253E-03 6.60504E-04 1.55795E-15
 -1       247 5.71353E-03 6.76103E-04 1.62877E-15
 -1       248 6.00036E-03 6.93666E-04 1.69030E-15
 -1       249 6.28115E-03 7.09831E-04 1.74173E-15
 -1       250 6.55446E-03 7.19442E-04 1.78848E-15
 -1       251 6.81979E-03 7.15939E-04 1.83793E-15
 -1       252 7.07800E-03 6.92388E-04 1.88417E-15
 -1       253 7.33144E-03 6.43009E-04 1.92786E-15
 -1       254 7.58353E-03 5.64720E-04 1.96694E-15
 -1       255 7.83805E-03 4.58043E-04 2.00618E-15
 -1       256 8.09820E-03 3.26946E-04 2.04580E-15
 -1       257 8.36590E-03 1.77686E-04 2.07968E-15
 -1       258 8.64165E-03 1.72126E-05 2.11860E-15
 -1       259 8.92464E-03-1.48259E-04 2.16286E-15
 -1       260 9.21331E-03-3.14087E-04 2.20845E-15
 -1       261 9.50580E-03-4.77412E-04 2.26592E-15
 -1       262 9.80037E-03-6.36924E-04 2.33434E-15
 -1       263 1.00956E-02-7.92416E-04 2.40752E-15
 -1       264 1.03905E-02-9.44347E-04 2.48792E-15
 -1       265 1.06845E-02-1.09347E-03 2.57033E-15
 -1       266 1.09772E-02-1.24060E-03 2.66395E-15
 -1       267 1.12685E-02-1.38646E-03 2.76489E-15
 -1       268 1.15587E-02-1.53164E-03 2.86927E-15
 -1       269 1.18476E-02-1.67659E-03 2.97829E-15
 -1       270 1.21357E-02-1.82160E-03 3.09407E-15
 -1       271 1.24230E-02-1.96686E-03 3.21431E-15
 -1       272 1.27097E-02-2.11247E-03 3.34736E-15
 -1       273 1.29960E-02-2.25847E-03 3.49276E-15
 -1       274 1.32821E-02-2.40487E-03 3.62884E-15
 -1       275 1.35679E-02-2.55163E-03 3.76042E-15
 -1       276 1.38536E-02-2.69866E-03 3.88300E-15
 -1       277 1.40137E-02-2.78847E-03 3.70723E-15
 -1       278 1.41586E-02-2.87269E-03 3.45003E-15
 -1       279 1.43037E-02-2.95679E-03 3.19636E-15
 -1       280 1.44491E-02-3.04074E-03 2.93980E-15
 -1       281 1.45922E-02-3.12310E-03 2.69140E-15
 -1       282 1.47378E-02-3.20671E-03 2.43974E-15
 -1       283 1.48834E-02-3.29019E-03 2.17943E-15
 -1       284 1.50288E-02-3.37359E-03 1.91695E-15
 -1       285 1.51742E-02-3.45701E-03 1.65262E-15
 -1       286 1.53195E-02-3.54050E-03 1.39024E-15
 -1       287 1.54623E-02-3.62271E-03 1.12850E-15
 -1       288 1.56077E-02-3.70651E-03 8.65217E-16
 -1       289 1.57533E-02-3.79049E-03 6.10379E-16
 -1       290 1.58992E-02-3.87463E-03 3.63404E-16
 -1       291 1.60292E-02-3.94859E-03 1.77345E-16
 -1       292 1.05616E-02-9.08476E-04-4.04612E-16
 -1       293 1.03143E-02-7.97197E-04-2.54970E-16
 -1       294 9.97117E-03-6.02443E-04-1.47174E-16
 -1       295 9.56467E-03-4.17885E-04-5.07407E-17
 -1       296 9.13554E-03-1.99286E-04 1.48061E-17
 -1       297 8.67017E-03-1.03837E-06 6.61567E-17
 -1       298 8.23000E-03 1.48952E-04 8.67294E-17
 -1       299 7.83634E-03 1.92218E-04 4.31445E-17
 -1       300 7.42338E-03 1.47074E-04-1.70626E-17
 -1       301 7.01138E-03 3.36562E-05-9.82694E-17
 -1       302 6.63051E-03-1.18792E-04-1.91219E-16
 -1       303 6.27486E-03-2.55689E-04-3.17515E-16
 -1       304 6.01339E-03-3.81186E-04-4.37552E-16
 -1       305 5.85070E-03-4.86523E-04-5.71701E-16
 -1       306 5.83464E-03-5.79066E-04-7.14506E-16
 -1       307 5.98427E-03-7.11207E-04-8.61116E-16
 -1       308 6.26604E-03-8.78181E-04-9.91353E-16
 -1       309 6.65599E-03-1.10633E-03-1.11053E-15
 -1       310 7.09648E-03-1.38768E-03-1.20558E-15
 -1       311 7.57860E-03-1.66864E-03-1.28585E-15
 -1       312 8.04937E-03-1.89926E-03-1.32842E-15
 -1       313 8.49696E-03-1.99598E-03-1.31827E-15
 -1       314 8.93280E-03-1.93848E-03-1.26615E-15
 -1       315 9.37392E-03-1.75801E-03-1.19129E-15
 -1       316 9.81321E-03-1.54080E-03-1.05891E-15
 -1       317 1.01499E-02-1.36600E-03-9.39837E-16
 -1       318 1.04124E-02-1.21706E-03-8.17203E-16
 -1       319 1.05855E-02-1.09706E-03-6.85415E-16
 -1       320 1.06418E-02-9.99724E-04-5.49236E-16
 -1       321 4.55337E-04-1.64004E-04-1.71643E-17
 -1       322 4.74092E-04-2.12228E-04-2.39846E-17
 -1       323 4.40653E-04-9.33787E-05-4.98733E-18
 -1       324 4.37694E-04-6.44008E-05 3.15096E-19
 -1       325 4.36057E-04-3.75703E-05 5.11269E-18
 -1       326 4.35329E-04-1.18920E-05 9.66634E-18
 -1       327 4.35350E-04 1.34378E-05 1.40845E-17
 -1       328 4.36127E-04 3.91700E-05 1.85975E-17
 -1       329 4.37795E-04 6.56477E-05 2.36187E-17
 -1       330 4.40840E-04 9.47888E-05 2.93683E-17
 -1       331 4.46182E-04 1.27618E-04 3.58837E-17
 -1       332 4.56008E-04 1.66562E-04 4.30428E-17
 -1       333 4.75711E-04 2.16204E-04 5.01105E-17
 -1       334 5.31624E-04 2.69092E-04 5.92212E-17
 -1       335 8.23979E-04 3.71854E-04 1.16142E-16
 -1       336 8.62927E-04-3.55628E-04-5.83741E-17
 -1       337 1.14928E-03-4.23318E-04-8.90028E-17
 -1       338 1.43218E-03-4.71121E-04-1.23816E-16
 -1       339 1.71319E-03-5.04107E-04-1.62061E-16
 -1       340 2.00750E-03-5.26836E-04-2.06178E-16
 -1       341 2.28798E-03-5.39971E-04-2.51582E-16
 -1       342 2.56923E-03-5.46811E-04-3.01252E-16
 -1       343 2.85168E-03-5.48813E-04-3.57041E-16
 -1       344 3.13566E-03-5.47040E-04-4.18282E-16
 -1       345 3.42150E-03-5.42274E-04-4.83605E-16
 -1       346 3.70953E-03-5.35123E-04-5.50592E-16
 -1       347 4.01476E-03-5.25648E-04-6.23860E-16
 -1       348 4.30867E-03-5.15452E-04-6.97952E-16
 -1       349 4.60634E-03-5.05178E-04-7.77732E-16
 -1       350 4.90854E-03-4.96713E-04-8.62493E-16
 -1       351 5.21625E-03-4.93503E-04-9.55318E-16
 -1       352 5.53085E-03-5.01745E-04-1.05360E-15
 -1       353 5.85477E-03-5.32185E-04-1.15366E-15
 -1       354 6.19281E-03-6.02488E-04-1.24802E-15
 -1       355 6.57309E-03-7.48188E-04-1.34155E-15
 -1       356 6.97410E-03-9.90364E-04-1.41748E-15
 -1       357 7.37624E-03-1.31179E-03-1.46695E-15
 -1       358 7.89458E-03-1.74697E-03-1.54166E-15
 -1       359 8.33570E-03-2.02400E-03-1.54157E-15
 -1       360 8.78753E-03-2.04468E-03-1.50325E-15
 -1       361 9.25989E-03-1.82330E-03-1.42313E-15
 -1       362 9.72616E-03-1.56517E-03-1.35026E-15
 -1       363 1.01541E-02-1.40628E-03-1.28411E-15
 -1       364 1.05418E-02-1.36204E-03-1.22552E-15
 -1       365 1.08994E-02-1.40362E-03-1.16877E-15
 -1       366 1.12375E-02-1.49974E-03-1.12031E-15
 -1       367 1.15626E-02-1.62742E-03-1.07683E-15
 -1       368 1.18941E-02-1.77953E-03-1.04024E-15
 -1       369 1.22025E-02-1.93269E-03-1.00796E-15
 -1       370 1.25054E-02-2.08919E-03-9.69029E-16
 -1       371 1.28040E-02-2.24655E-03-9.28660E-16
 -1       372 1.30993E-02-2.40355E-03-8.96378E-16
 -1       373 1.33919E-02-2.55964E-03-8.61656E-16
 -1       374 1.36826E-02-2.71462E-03-8.15767E-16
 -1       375 1.39863E-02-2.87615E-03-7.62011E-16
 -1       376 1.42743E-02-3.02891E-03-6.89326E-16
 -1       377 1.45616E-02-3.18074E-03-5.93099E-16
 -1       378 1.48484E-02-3.33175E-03-4.85773E-16
 -1       379 1.51347E-02-3.48207E-03-3.55734E-16
 -1       380 1.54208E-02-3.63182E-03-2.09038E-16
 -1       381 1.57067E-02-3.78110E-03-3.89432E-17
 -1       382 1.27131E-03 4.57893E-04 2.26876E-16
 -1       383 1.55241E-03 4.99389E-04 3.08882E-16
 -1       384 1.83214E-03 5.27845E-04 3.97150E-16
 -1       385 2.11163E-03 5.46578E-04 4.89033E-16
 -1       386 2.39161E-03 5.58080E-04 5.82294E-16
 -1       387 2.67256E-03 5.64260E-04 6.76044E-16
 -1       388 2.95479E-03 5.66613E-04 7.68215E-16
 -1       389 3.23851E-03 5.66360E-04 8.57943E-16
 -1       390 3.52386E-03 5.64556E-04 9.45861E-16
 -1       391 3.81091E-03 5.62182E-04 1.02890E-15
 -1       392 4.09971E-03 5.60220E-04 1.10582E-15
 -1       393 4.39022E-03 5.59688E-04 1.17694E-15
 -1       394 4.68230E-03 5.61637E-04 1.24397E-15
 -1       395 4.97564E-03 5.67063E-04 1.31048E-15
 -1       396 5.26968E-03 5.76721E-04 1.37512E-15
 -1       397 5.56358E-03 5.90797E-04 1.43854E-15
 -1       398 5.85617E-03 6.08456E-04 1.49462E-15
 -1       399 6.14601E-03 6.27343E-04 1.54383E-15
 -1       400 6.43163E-03 6.43180E-04 1.58715E-15
 -1       401 6.71189E-03 6.49774E-04 1.63093E-15
 -1       402 6.98648E-03 6.39683E-04 1.67404E-15
 -1       403 7.25635E-03 6.05663E-04 1.71392E-15
 -1       404 7.52372E-03 5.42546E-04 1.75211E-15
 -1       405 7.79154E-03 4.48821E-04 1.78650E-15
 -1       406 8.06263E-03 3.27130E-04 1.82311E-15
 -1       407 8.33889E-03 1.83402E-04 1.85717E-15
 -1       408 8.62090E-03 2.50993E-05 1.89140E-15
 -1       409 8.90809E-03-1.40599E-04 1.93188E-15
 -1       410 9.19920E-03-3.08029E-04 1.97715E-15
 -1       411 9.49276E-03-4.73495E-04 2.02586E-15
 -1       412 9.78746E-03-6.35117E-04 2.08578E-15
 -1       413 1.00823E-02-7.92379E-04 2.15545E-15
 -1       414 1.03765E-02-9.45616E-04 2.23142E-15
 -1       415 1.06697E-02-1.09558E-03 2.31551E-15
 -1       416 1.09618E-02-1.24316E-03 2.40217E-15
 -1       417 1.12528E-02-1.38916E-03 2.49765E-15
 -1       418 1.15426E-02-1.53428E-03 2.60072E-15
 -1       419 1.18315E-02-1.67902E-03 2.70484E-15
 -1       420 1.21195E-02-1.82375E-03 2.81510E-15
 -1       421 1.24069E-02-1.96870E-03 2.93345E-15
 -1       422 1.26938E-02-2.11401E-03 3.06202E-15
 -1       423 1.29803E-02-2.25973E-03 3.19938E-15
 -1       424 1.32664E-02-2.40588E-03 3.33853E-15
 -1       425 1.35524E-02-2.55242E-03 3.46877E-15
 -1       426 1.37831E-02-2.67035E-03 3.59134E-15
 -1       427 1.41291E-02-2.87125E-03 2.96226E-15
 -1       428 1.39837E-02-2.78730E-03 3.22159E-15
 -1       429 1.42722E-02-2.95358E-03 2.70545E-15
 -1       430 1.44178E-02-3.03716E-03 2.44603E-15
 -1       431 1.45634E-02-3.12058E-03 2.18294E-15
 -1       432 1.47090E-02-3.20388E-03 1.91672E-15
 -1       433 1.48544E-02-3.28715E-03 1.65150E-15
 -1       434 1.49997E-02-3.37044E-03 1.38576E-15
 -1       435 1.51425E-02-3.45243E-03 1.12573E-15
 -1       436 1.52877E-02-3.53598E-03 8.66203E-16
 -1       437 1.54331E-02-3.61973E-03 6.12171E-16
 -1       438 1.55788E-02-3.70368E-03 3.56889E-16
 -1       439 1.04846E-03 4.22352E-04 1.69105E-16
 -1       440 1.00690E-02-7.87342E-04-1.25295E-16
 -1       441 9.23504E-03-3.67040E-04 7.03918E-17
 -1       442 1.06399E-02-9.96563E-04-4.61974E-16
 -1       443 9.72242E-03-6.27118E-04-2.98901E-17
 -1       444 4.45840E-04-1.25779E-04-1.07776E-17
 -1       445 8.82571E-03-1.33272E-04 1.28498E-16
 -1       446 8.38954E-03 8.32621E-05 1.90474E-16
 -1       447 7.96922E-03 2.17395E-04 1.75207E-16
 -1       448 7.62559E-03 2.11550E-04 1.41353E-16
 -1       449 7.26458E-03 1.04775E-04 5.53350E-17
 -1       450 6.88652E-03-5.23199E-05-5.29023E-17
 -1       451 6.46057E-03-2.41279E-04-1.68722E-16
 -1       452 6.18055E-03-3.52271E-04-2.84942E-16
 -1       453 5.91165E-03-4.51964E-04-4.42904E-16
 -1       454 5.80106E-03-5.03248E-04-5.88989E-16
 -1       455 5.90027E-03-5.80530E-04-7.89451E-16
 -1       456 6.14061E-03-6.75765E-04-9.43923E-16
 -1       457 6.52067E-03-8.73044E-04-1.09721E-15
 -1       458 6.98884E-03-1.16401E-03-1.23350E-15
 -1       459 7.44905E-03-1.46578E-03-1.35453E-15
 -1       460 7.92021E-03-1.80216E-03-1.43894E-15
 -1       461 9.58212E-03-1.60427E-03-1.19594E-15
 -1       462 9.95310E-03-1.39216E-03-1.05214E-15
 -1       463 1.02328E-02-1.24927E-03-9.29087E-16
 -1       464 1.05109E-02-1.11424E-03-7.71917E-16
 -1       465 1.06417E-02-1.04373E-03-6.24019E-16
 -1       466 1.04682E-02-9.33498E-04-2.99117E-16
 -1       467 1.56427E-02-3.74236E-03 1.64473E-16
 -1       468 1.02849E-02-9.14218E-04-1.69596E-16
 -1       469 8.14241E-03 1.75550E-04 2.81215E-16
 -1       470 9.25959E-03-1.80109E-03-1.32197E-15
 -1       471 9.07139E-03-1.90266E-03-1.35833E-15
 -1       472 6.66062E-04-7.44148E-05 4.71967E-18
 -1       473 6.70059E-04-1.14900E-04-4.52993E-18
 -1       474 6.63319E-04 1.11727E-06 2.26869E-17
 -1       475 6.64036E-04 3.84079E-05 3.16519E-17
 -1       476 6.66194E-04 7.61285E-05 4.08609E-17
 -1       477 6.70307E-04 1.16761E-04 5.10490E-17
 -1       478 6.77303E-04 1.61178E-04 6.24467E-17
 -1       479 6.89071E-04 2.11425E-04 7.50268E-17
 -1       480 7.09703E-04 2.70401E-04 8.76001E-17
 -1       481 7.63255E-04 3.19015E-04 1.01505E-16
 -1       482 9.76336E-04-3.26412E-04-5.71239E-17
 -1       483 1.26234E-03-3.80098E-04-8.34565E-17
 -1       484 1.54755E-03-4.18317E-04-1.12825E-16
 -1       485 1.84620E-03-4.45461E-04-1.47099E-16
 -1       486 2.13021E-03-4.61865E-04-1.82614E-16
 -1       487 2.41418E-03-4.71250E-04-2.20716E-16
 -1       488 2.69842E-03-4.75258E-04-2.64698E-16
 -1       489 2.98315E-03-4.75114E-04-3.14036E-16
 -1       490 3.26852E-03-4.71733E-04-3.68127E-16
 -1       491 3.55461E-03-4.65815E-04-4.23855E-16
 -1       492 3.85580E-03-4.57525E-04-4.83812E-16
 -1       493 4.14328E-03-4.48318E-04-5.45716E-16
 -1       494 4.43112E-03-4.38710E-04-6.10345E-16
 -1       495 4.71885E-03-4.30097E-04-6.81319E-16
 -1       496 5.00576E-03-4.24823E-04-7.58813E-16
 -1       497 5.29103E-03-4.26822E-04-8.41388E-16
 -1       498 5.57435E-03-4.42515E-04-9.28267E-16
 -1       499 5.85739E-03-4.82139E-04-1.01492E-15
 -1       500 6.16204E-03-5.67341E-04-1.10188E-15
 -1       501 6.47705E-03-7.18962E-04-1.17969E-15
 -1       502 8.96222E-03-2.79433E-04 2.16922E-16
 -1       503 1.00832E-02-1.34969E-03-1.15054E-15
 -1       504 1.04762E-02-1.25587E-03-1.05315E-15
 -1       505 1.07881E-02-1.28537E-03-9.96521E-16
 -1       506 1.10826E-02-1.37111E-03-9.48328E-16
 -1       507 1.13724E-02-1.49024E-03-9.02615E-16
 -1       508 1.16764E-02-1.63600E-03-8.60809E-16
 -1       509 1.19666E-02-1.78543E-03-8.23248E-16
 -1       510 1.22572E-02-1.93988E-03-7.81374E-16
 -1       511 1.25477E-02-2.09634E-03-7.35855E-16
 -1       512 1.28376E-02-2.25313E-03-6.98775E-16
 -1       513 1.31270E-02-2.40939E-03-6.61146E-16
 -1       514 1.34156E-02-2.56473E-03-6.18226E-16
 -1       515 1.37180E-02-2.72671E-03-5.62027E-16
 -1       516 1.40054E-02-2.87992E-03-4.97544E-16
 -1       517 1.42924E-02-3.03215E-03-4.11099E-16
 -1       518 1.45790E-02-3.18354E-03-3.01662E-16
 -1       519 1.48653E-02-3.33418E-03-1.85402E-16
 -1       520 1.51513E-02-3.48419E-03-4.95243E-17
 -1       521 1.53970E-02-3.61341E-03 5.39357E-17
 -1       522 1.95162E-03 4.66124E-04 3.97018E-16
 -1       523 1.66795E-03 4.43586E-04 3.15445E-16
 -1       524 1.38357E-03 4.10209E-04 2.39053E-16
 -1       525 2.23504E-03 4.80458E-04 4.81227E-16
 -1       526 2.51860E-03 4.88667E-04 5.65893E-16
 -1       527 2.80263E-03 4.92384E-04 6.49380E-16
 -1       528 3.08736E-03 4.92913E-04 7.30912E-16
 -1       529 3.37300E-03 4.91344E-04 8.10655E-16
 -1       530 3.65973E-03 4.88648E-04 8.86772E-16
 -1       531 3.94774E-03 4.85759E-04 9.56897E-16
 -1       532 4.23722E-03 4.83644E-04 1.02274E-15
 -1       533 4.52835E-03 4.83330E-04 1.08412E-15
 -1       534 4.82129E-03 4.85893E-04 1.14175E-15
 -1       535 5.11608E-03 4.92349E-04 1.19977E-15
 -1       536 5.41257E-03 5.03434E-04 1.25476E-15
 -1       537 5.71022E-03 5.19224E-04 1.30464E-15
 -1       538 6.00806E-03 5.38593E-04 1.34937E-15
 -1       539 6.30457E-03 5.58586E-04 1.38936E-15
 -1       540 6.59795E-03 5.73948E-04 1.42752E-15
 -1       541 6.88670E-03 5.77191E-04 1.46558E-15
 -1       542 7.17037E-03 5.59652E-04 1.50069E-15
 -1       543 7.45019E-03 5.13602E-04 1.53651E-15
 -1       544 7.72885E-03 4.34744E-04 1.57039E-15
 -1       545 8.00957E-03 3.23815E-04 1.60284E-15
 -1       546 8.29470E-03 1.86299E-04 1.63425E-15
 -1       547 8.58497E-03 3.04287E-05 1.66691E-15
 -1       548 8.87954E-03-1.35317E-04 1.70323E-15
 -1       549 9.17678E-03-3.04051E-04 1.74479E-15
 -1       550 9.47495E-03-4.71218E-04 1.78949E-15
 -1       551 9.77270E-03-6.34450E-04 1.84268E-15
 -1       552 1.00692E-02-7.93015E-04 1.90611E-15
 -1       553 1.03641E-02-9.47186E-04 1.97685E-15
 -1       554 1.06574E-02-1.09774E-03 2.05857E-15
 -1       555 1.09491E-02-1.24562E-03 2.14564E-15
 -1       556 1.12395E-02-1.39171E-03 2.23692E-15
 -1       557 1.15287E-02-1.53674E-03 2.33301E-15
 -1       558 1.18171E-02-1.68131E-03 2.43189E-15
 -1       559 1.21048E-02-1.82580E-03 2.53790E-15
 -1       560 1.23919E-02-1.97048E-03 2.64999E-15
 -1       561 1.26786E-02-2.11552E-03 2.77278E-15
 -1       562 1.29650E-02-2.26098E-03 2.90720E-15
 -1       563 1.32512E-02-2.40689E-03 3.04716E-15
 -1       564 1.35371E-02-2.55322E-03 3.18050E-15
 -1       565 1.40978E-02-2.86794E-03 2.46011E-15
 -1       566 1.39545E-02-2.78583E-03 2.72229E-15
 -1       567 1.38090E-02-2.70207E-03 2.98385E-15
 -1       568 1.06099E-02-1.02947E-03-3.43794E-16
 -1       569 1.42436E-02-2.95126E-03 2.19376E-15
 -1       570 1.43892E-02-3.03440E-03 1.92394E-15
 -1       571 1.45347E-02-3.11745E-03 1.65276E-15
 -1       572 1.46801E-02-3.20048E-03 1.38949E-15
 -1       573 1.48228E-02-3.28216E-03 1.13173E-15
 -1       574 1.49679E-02-3.36541E-03 8.70950E-16
 -1       575 1.51131E-02-3.44888E-03 6.12452E-16
 -1       576 1.52585E-02-3.53259E-03 3.53250E-16
 -1       577 7.12728E-04-2.50498E-04-3.43218E-17
 -1       578 9.86613E-03-7.68492E-04 5.81403E-18
 -1       579 9.42957E-03-5.47234E-04 1.11930E-16
 -1       580 1.03970E-02-1.16713E-03-8.90836E-16
 -1       581 9.82252E-03-1.46419E-03-1.19250E-15
 -1       582 6.68204E-03-1.33212E-04 3.42879E-18
 -1       583 1.06911E-02-1.04803E-03-5.49892E-16
 -1       584 6.63955E-04-3.61384E-05 1.38032E-17
 -1       585 5.80976E-03-4.47098E-04-4.31258E-16
 -1       586 8.57185E-03-4.41838E-05 2.83444E-16
 -1       587 7.77459E-03 2.44669E-04 2.78532E-16
 -1       588 7.40484E-03 1.78563E-04 2.13832E-16
 -1       589 7.04607E-03 3.10713E-05 1.07444E-16
 -1       590 6.28230E-03-3.03929E-04-1.52930E-16
 -1       591 5.98945E-03-3.99094E-04-2.84937E-16
 -1       592 5.79835E-03-4.92756E-04-6.76228E-16
 -1       593 5.98025E-03-5.57218E-04-8.60080E-16
 -1       594 6.34529E-03-7.00505E-04-1.06353E-15
 -1       595 6.80093E-03-9.44848E-04-1.24092E-15
 -1       596 7.22734E-03-1.23745E-03-1.36742E-15
 -1       597 1.06324E-02-1.07667E-03-6.93756E-16
 -1       598 1.01232E-02-1.29384E-03-1.04024E-15
 -1       599 6.76848E-04-1.58889E-04-1.47689E-17
 -1       600 9.90235E-04 3.70687E-04 1.49661E-16
 -1       601 6.92009E-04-2.01602E-04-2.42285E-17
 -1       602 1.01135E-02-8.90980E-04-3.75269E-17
 -1       603 1.18673E-03 3.95372E-04 1.93727E-16
 -1       604 8.33169E-03 7.90819E-05 3.71888E-16
 -1       605 5.72407E-03-4.39296E-04-5.20927E-16
 -1       606 9.49477E-03-1.66972E-03-1.32931E-15
 -1       607 8.99834E-04 7.32958E-05 5.77304E-17
 -1       608 8.97714E-04 2.49036E-05 4.29310E-17
 -1       609 9.12021E-04 1.76567E-04 9.04530E-17
 -1       610 9.24390E-04 2.34812E-04 1.08881E-16
 -1       611 9.36632E-04 3.21478E-04 1.31480E-16
 -1       612 1.09802E-03-2.91986E-04-5.07508E-17
 -1       613 7.93809E-03 2.32633E-04 4.14484E-16
 -1       614 1.38365E-03-3.33138E-04-7.18284E-17
 -1       615 1.68427E-03-3.63614E-04-9.61450E-17
 -1       616 1.97060E-03-3.82904E-04-1.22430E-16
 -1       617 2.25676E-03-3.94789E-04-1.50413E-16
 -1       618 2.54272E-03-4.00955E-04-1.83261E-16
 -1       619 2.82849E-03-4.02730E-04-2.20564E-16
 -1       620 3.11400E-03-4.01140E-04-2.61913E-16
 -1       621 3.39914E-03-3.96995E-04-3.05958E-16
 -1       622 3.69784E-03-3.90651E-04-3.53426E-16
 -1       623 3.98118E-03-3.83433E-04-4.02229E-16
 -1       624 4.26266E-03-3.75925E-04-4.55578E-16
 -1       625 4.54111E-03-3.69322E-04-5.13407E-16
 -1       626 4.81487E-03-3.65416E-04-5.74400E-16
 -1       627 5.08169E-03-3.66895E-04-6.41699E-16
 -1       628 5.33881E-03-3.77645E-04-7.13771E-16
 -1       629 5.58351E-03-4.03032E-04-7.89032E-16
 -1       630 5.82568E-03-4.53971E-04-8.68920E-16
 -1       631 1.35232E-02-2.55551E-03 2.85124E-15
 -1       632 9.19988E-03-4.55767E-04 2.89302E-16
 -1       633 1.09710E-02-1.26032E-03-7.72535E-16
 -1       634 1.12151E-02-1.37058E-03-7.26836E-16
 -1       635 1.14837E-02-1.50688E-03-6.82404E-16
 -1       636 1.17495E-02-1.64899E-03-6.38419E-16
 -1       637 1.20227E-02-1.79817E-03-5.94339E-16
 -1       638 1.23010E-02-1.95114E-03-5.47515E-16
 -1       639 1.25826E-02-2.10578E-03-5.00024E-16
 -1       640 1.28662E-02-2.26082E-03-4.59349E-16
 -1       641 1.31510E-02-2.41556E-03-4.17628E-16
 -1       642 1.34508E-02-2.57730E-03-3.61260E-16
 -1       643 1.37366E-02-2.73049E-03-3.00724E-16
 -1       644 1.40225E-02-2.88283E-03-2.27459E-16
 -1       645 1.43084E-02-3.03438E-03-1.28370E-16
 -1       646 1.45943E-02-3.18521E-03-9.18523E-18
 -1       647 1.48802E-02-3.33540E-03 1.18859E-16
 -1       648 1.79013E-03 3.84840E-04 3.15557E-16
 -1       649 2.07612E-03 4.01862E-04 3.89483E-16
 -1       650 1.50401E-03 3.59085E-04 2.44477E-16
 -1       651 2.64781E-03 4.17512E-04 5.40177E-16
 -1       652 2.93378E-03 4.19136E-04 6.13682E-16
 -1       653 3.22003E-03 4.18163E-04 6.85256E-16
 -1       654 3.50677E-03 4.15520E-04 7.53124E-16
 -1       655 3.79427E-03 4.12060E-04 8.17001E-16
 -1       656 4.08285E-03 4.08636E-04 8.77411E-16
 -1       657 4.37292E-03 4.06166E-04 9.31713E-16
 -1       658 4.66501E-03 4.05668E-04 9.82653E-16
 -1       659 4.95967E-03 4.08259E-04 1.03145E-15
 -1       660 5.25741E-03 4.15054E-04 1.07984E-15
 -1       661 5.55847E-03 4.26941E-04 1.12376E-15
 -1       662 5.86256E-03 4.44128E-04 1.16036E-15
 -1       663 6.16851E-03 4.65431E-04 1.19463E-15
 -1       664 6.47422E-03 4.87355E-04 1.22767E-15
 -1       665 6.77697E-03 5.03313E-04 1.25854E-15
 -1       666 7.07449E-03 5.03722E-04 1.29160E-15
 -1       667 7.36640E-03 4.77833E-04 1.32233E-15
 -1       668 7.65490E-03 4.17171E-04 1.35502E-15
 -1       669 7.94401E-03 3.19150E-04 1.38441E-15
 -1       670 8.23742E-03 1.88286E-04 1.41260E-15
 -1       671 8.53661E-03 3.40840E-05 1.44126E-15
 -1       672 8.84051E-03-1.32754E-04 1.47461E-15
 -1       673 9.14660E-03-3.03433E-04 1.51435E-15
 -1       674 9.45225E-03-4.72318E-04 1.55841E-15
 -1       675 9.75562E-03-6.36680E-04 1.60398E-15
 -1       676 1.00558E-02-7.95817E-04 1.66285E-15
 -1       677 1.03528E-02-9.50168E-04 1.72984E-15
 -1       678 1.06469E-02-1.10067E-03 1.80569E-15
 -1       679 1.09386E-02-1.24837E-03 1.88963E-15
 -1       680 1.12285E-02-1.39422E-03 1.97591E-15
 -1       681 1.15170E-02-1.53901E-03 2.07008E-15
 -1       682 1.18047E-02-1.68332E-03 2.16245E-15
 -1       683 1.20916E-02-1.82756E-03 2.25905E-15
 -1       684 1.23782E-02-1.97201E-03 2.36591E-15
 -1       685 1.26645E-02-2.11682E-03 2.48276E-15
 -1       686 1.29505E-02-2.26207E-03 2.61255E-15
 -1       687 1.32369E-02-2.40857E-03 2.73289E-15
 -1       688 1.40696E-02-2.86528E-03 1.93238E-15
 -1       689 1.39237E-02-2.78231E-03 2.20565E-15
 -1       690 2.36198E-03 4.12199E-04 4.65262E-16
 -1       691 1.43607E-02-3.03075E-03 1.39646E-15
 -1       692 1.45034E-02-3.11206E-03 1.14065E-15
 -1       693 1.46484E-02-3.19490E-03 8.79650E-16
 -1       694 1.47933E-02-3.27798E-03 6.15010E-16
 -1       695 8.93725E-04-2.49908E-04-3.63140E-17
 -1       696 6.09918E-03-5.55353E-04-9.83436E-16
 -1       697 1.04476E-02-1.01664E-03-1.56069E-16
 -1       698 1.42152E-02-2.94806E-03 1.65970E-15
 -1       699 1.37802E-02-2.70050E-03 2.47095E-15
 -1       700 1.07359E-02-1.17999E-03-8.22445E-16
 -1       701 1.07537E-02-1.09289E-03-4.60910E-16
 -1       702 9.04347E-04 1.23330E-04 7.34073E-17
 -1       703 9.63144E-03-6.89366E-04 1.58588E-16
 -1       704 8.76048E-03-1.83064E-04 3.67362E-16
 -1       705 1.05965E-02-1.13909E-03-8.23789E-16
 -1       706 6.09158E-03-3.23045E-04-1.31531E-16
 -1       707 6.80833E-03-1.33197E-05 1.89474E-16
 -1       708 5.83621E-03-4.77630E-04-7.66194E-16
 -1       709 7.52972E-03 2.52164E-04 4.17065E-16
 -1       710 6.40889E-03-2.02667E-04 1.49112E-17
 -1       711 7.13716E-03 1.26001E-04 2.88147E-16
 -1       712 5.83512E-03-3.90296E-04-2.83648E-16
 -1       713 1.07311E-02-1.09913E-03-6.41819E-16
 -1       714 9.04063E-04-1.20896E-04-5.08220E-19
 -1       715 1.04727E-02-1.18174E-03-9.27935E-16
 -1       716 8.97673E-04-2.28655E-05 2.82909E-17
 -1       717 8.11696E-03 1.72208E-04 5.02867E-16
 -1       718 1.06851E-02-1.09680E-03-2.73183E-16
 -1       719 1.21804E-03 3.22286E-04 1.78700E-16
 -1       720 9.89435E-03-8.20908E-04 1.16870E-16
 -1       721 1.49384E-02-3.36137E-03 3.52024E-16
 -1       722 8.52452E-03-4.23297E-05 4.57215E-16
 -1       723 8.99687E-04-7.09916E-05 1.41251E-17
 -1       724 5.69491E-03-4.24420E-04-6.11453E-16
 -1       725 5.69389E-03-3.93295E-04-3.73804E-16
 -1       726 9.11522E-04-1.73913E-04-1.57514E-17
 -1       727 1.16175E-03 2.41039E-04 1.42525E-16
 -1       728 6.49353E-03-8.08203E-05 1.97030E-16
 -1       729 9.01276E-04-2.11011E-04-2.61123E-17
 -1       730 1.22486E-03-2.52084E-04-3.92481E-17
 -1       731 1.52479E-03-2.83556E-04-5.49081E-17
 -1       732 1.81176E-03-3.04478E-04-7.14049E-17
 -1       733 2.09913E-03-3.18189E-04-9.04801E-17
 -1       734 2.38640E-03-3.26203E-04-1.12334E-16
 -1       735 2.67323E-03-3.29815E-04-1.37900E-16
 -1       736 2.95933E-03-3.30090E-04-1.66727E-16
 -1       737 3.24440E-03-3.27906E-04-1.98236E-16
 -1       738 3.54213E-03-3.23811E-04-2.33568E-16
 -1       739 3.82353E-03-3.18985E-04-2.70641E-16
 -1       740 4.10190E-03-3.14149E-04-3.12220E-16
 -1       741 4.37587E-03-3.10449E-04-3.57763E-16
 -1       742 4.64353E-03-3.09459E-04-4.05183E-16
 -1       743 4.90218E-03-3.13345E-04-4.57083E-16
 -1       744 5.14817E-03-3.24947E-04-5.13966E-16
 -1       745 5.37663E-03-3.47662E-04-5.75129E-16
 -1       746 5.59065E-03-3.87596E-04-6.43206E-16
 -1       747 1.08797E-02-1.17664E-03-6.28675E-16
 -1       748 8.96804E-03-3.18582E-04 5.08501E-16
 -1       749 1.34380E-03 2.77348E-04 1.83250E-16
 -1       750 1.12980E-02-1.39260E-03-5.09307E-16
 -1       751 1.15377E-02-1.52372E-03-4.62876E-16
 -1       752 1.17917E-02-1.66416E-03-4.18062E-16
 -1       753 1.20560E-02-1.81069E-03-3.65705E-16
 -1       754 1.23275E-02-1.96085E-03-3.13853E-16
 -1       755 1.26039E-02-2.11291E-03-2.67486E-16
 -1       756 1.28836E-02-2.26573E-03-2.23623E-16
 -1       757 1.31796E-02-2.42625E-03-1.70172E-16
 -1       758 1.34629E-02-2.57878E-03-1.10846E-16
 -1       759 1.37472E-02-2.73078E-03-3.93836E-17
 -1       760 1.40320E-02-2.88217E-03 4.58177E-17
 -1       761 1.43171E-02-3.03297E-03 1.57321E-16
 -1       762 1.46025E-02-3.18319E-03 2.85569E-16
 -1       763 1.43293E-02-3.02460E-03 8.87724E-16
 -1       764 1.38959E-02-2.77911E-03 1.67195E-15
 -1       765 1.91729E-03 3.23418E-04 3.08235E-16
 -1       766 1.63018E-03 3.04618E-04 2.44088E-16
 -1       767 3.06600E-03 3.44967E-04 5.69074E-16
 -1       768 2.77904E-03 3.45096E-04 5.05658E-16
 -1       769 3.64006E-03 3.39136E-04 6.84616E-16
 -1       770 3.92772E-03 3.34859E-04 7.38704E-16
 -1       771 4.21645E-03 3.30631E-04 7.88168E-16
 -1       772 4.50696E-03 3.27285E-04 8.31329E-16
 -1       773 4.80017E-03 3.25834E-04 8.72180E-16
 -1       774 5.09716E-03 3.27501E-04 9.12627E-16
 -1       775 5.39899E-03 3.33687E-04 9.49812E-16
 -1       776 5.70635E-03 3.45751E-04 9.80031E-16
 -1       777 6.01910E-03 3.64468E-04 1.00634E-15
 -1       778 6.33564E-03 3.88951E-04 1.03130E-15
 -1       779 6.65264E-03 4.15063E-04 1.05620E-15
 -1       780 6.96582E-03 4.33931E-04 1.08233E-15
 -1       781 7.27204E-03 4.32175E-04 1.11134E-15
 -1       782 7.57164E-03 3.95468E-04 1.13841E-15
 -1       783 7.86907E-03 3.14965E-04 1.16497E-15
 -1       784 8.17025E-03 1.92264E-04 1.19190E-15
 -1       785 8.47860E-03 3.84223E-05 1.21898E-15
 -1       786 8.79326E-03-1.31948E-04 1.24913E-15
 -1       787 9.11047E-03-3.06572E-04 1.28481E-15
 -1       788 9.42608E-03-4.78055E-04 1.32689E-15
 -1       789 9.73725E-03-6.43381E-04 1.37008E-15
 -1       790 1.00428E-02-8.02285E-04 1.42162E-15
 -1       791 1.03429E-02-9.55774E-04 1.48360E-15
 -1       792 1.06384E-02-1.10522E-03 1.55845E-15
 -1       793 1.09303E-02-1.25194E-03 1.63923E-15
 -1       794 1.12197E-02-1.39698E-03 1.72163E-15
 -1       795 1.15074E-02-1.54114E-03 1.80704E-15
 -1       796 1.17941E-02-1.68499E-03 1.89579E-15
 -1       797 1.20801E-02-1.82890E-03 1.98710E-15
 -1       798 1.23658E-02-1.97311E-03 2.08478E-15
 -1       799 1.26513E-02-2.11774E-03 2.18968E-15
 -1       800 1.29368E-02-2.26284E-03 2.31282E-15
 -1       801 1.37499E-02-2.69660E-03 1.94388E-15
 -1       802 1.44740E-02-3.10715E-03 6.26906E-16
 -1       803 1.41868E-02-2.94367E-03 1.14466E-15
 -1       804 5.88854E-03-3.17950E-04-1.24168E-16
 -1       805 7.24377E-03 2.27377E-04 4.81806E-16
 -1       806 6.88856E-03 1.03564E-04 3.73592E-16
 -1       807 3.35294E-03 3.42736E-04 6.28878E-16
 -1       808 1.36062E-02-2.61520E-03 2.21671E-15
 -1       809 1.02511E-02-9.69981E-04 1.36508E-17
 -1       810 1.10781E-02-1.27457E-03-5.53024E-16
 -1       811 1.13806E-03 5.82436E-05 7.22113E-17
 -1       812 7.81051E-03 2.58571E-04 4.71174E-16
 -1       813 9.47348E-03-6.16668E-04 3.27100E-16
 -1       814 6.15416E-03-2.25101E-04 3.43658E-17
 -1       815 1.34215E-02-2.51207E-03 2.47886E-15
 -1       816 1.40415E-02-2.86143E-03 1.40654E-15
 -1       817 7.58684E-03 2.94178E-04 6.13604E-16
 -1       818 7.98679E-03 2.20582E-04 5.59143E-16
 -1       819 7.75694E-03 2.88122E-04 7.01337E-16
 -1       820 8.74480E-03-1.78210E-04 5.98812E-16
 -1       821 1.14987E-03 1.76972E-04 1.17748E-16
 -1       822 1.05478E-02-1.07524E-03-1.02884E-16
 -1       823 2.49192E-03 3.42274E-04 4.40759E-16
 -1       824 1.31792E-02-2.38730E-03 2.39421E-15
 -1       825 9.72923E-03-7.49408E-04 2.86009E-16
 -1       826 5.70656E-03-3.39478E-04-2.17176E-16
 -1       827 2.20463E-03 3.35469E-04 3.74477E-16
 -1       828 6.58189E-03 4.33321E-05 3.74294E-16
 -1       829 8.30278E-03 8.11249E-05 5.87760E-16
 -1       830 5.61124E-03-3.84908E-04-4.64687E-16
 -1       831 1.08987E-02-1.18020E-03-4.14714E-16
 -1       832 1.13668E-03 1.18211E-06 5.06966E-17
 -1       833 1.14230E-03 1.16400E-04 9.44950E-17
 -1       834 1.14942E-03-1.73951E-04-1.24141E-17
 -1       835 1.14204E-03-1.13656E-04 8.92434E-18
 -1       836 7.28051E-03 3.11119E-04 7.10274E-16
 -1       837 6.19334E-03-1.09002E-04 2.14299E-16
 -1       838 1.36262E-03-2.07238E-04-2.26192E-17
 -1       839 1.13298E-02-1.41612E-03-2.90404E-16
 -1       840 1.64853E-03-2.27973E-04-3.02526E-17
 -1       841 1.93594E-03-2.42341E-04-3.98614E-17
 -1       842 2.22383E-03-2.51491E-04-5.15098E-17
 -1       843 2.51151E-03-2.56529E-04-6.53401E-17
 -1       844 2.79841E-03-2.58448E-04-8.18776E-17
 -1       845 3.08405E-03-2.58112E-04-1.01654E-16
 -1       846 3.38202E-03-2.56197E-04-1.24507E-16
 -1       847 3.66327E-03-2.53699E-04-1.49434E-16
 -1       848 3.94115E-03-2.51446E-04-1.79039E-16
 -1       849 4.21443E-03-2.50543E-04-2.12704E-16
 -1       850 4.48144E-03-2.52442E-04-2.48889E-16
 -1       851 4.73987E-03-2.59055E-04-2.86646E-16
 -1       852 4.98658E-03-2.72801E-04-3.29669E-16
 -1       853 5.21726E-03-2.96495E-04-3.75395E-16
 -1       854 5.43544E-03-3.35114E-04-4.29276E-16
 -1       855 1.32989E-03 2.07677E-04 1.53194E-16
 -1       856 5.89550E-03-2.24860E-04 4.23008E-17
 -1       857 1.15681E-02-1.54544E-03-2.40750E-16
 -1       858 1.18203E-02-1.68325E-03-1.90111E-16
 -1       859 1.20825E-02-1.82689E-03-1.31917E-16
 -1       860 1.23517E-02-1.97425E-03-7.76390E-17
 -1       861 1.26260E-02-2.12378E-03-3.13707E-17
 -1       862 1.29179E-02-2.28197E-03 1.84890E-17
 -1       863 1.31984E-02-2.43303E-03 7.92247E-17
 -1       864 1.34805E-02-2.58407E-03 1.46117E-16
 -1       865 1.37639E-02-2.73485E-03 2.24437E-16
 -1       866 1.40480E-02-2.88526E-03 3.25322E-16
 -1       867 1.42609E-02-2.99642E-03 4.71696E-16
 -1       868 1.41166E-02-2.91429E-03 7.31098E-16
 -1       869 2.91206E-03 2.71833E-04 4.62043E-16
 -1       870 4.06002E-03 2.57094E-04 6.51158E-16
 -1       871 3.77286E-03 2.62412E-04 6.08390E-16
 -1       872 4.63878E-03 2.46529E-04 7.21655E-16
 -1       873 4.93284E-03 2.43022E-04 7.52829E-16
 -1       874 5.23221E-03 2.42493E-04 7.82716E-16
 -1       875 5.53867E-03 2.46920E-04 8.06968E-16
 -1       876 5.85358E-03 2.58648E-04 8.25637E-16
 -1       877 6.17702E-03 2.79723E-04 8.42761E-16
 -1       878 6.50670E-03 3.10093E-04 8.59207E-16
 -1       879 6.83735E-03 3.44589E-04 8.76859E-16
 -1       880 7.47747E-03 3.65016E-04 9.24028E-16
 -1       881 7.78575E-03 3.11177E-04 9.47372E-16
 -1       882 8.09528E-03 2.01435E-04 9.71621E-16
 -1       883 8.41329E-03 4.71542E-05 9.96724E-16
 -1       884 8.74041E-03-1.30692E-04 1.02575E-15
 -1       885 9.07126E-03-3.13079E-04 1.06069E-15
 -1       886 9.39931E-03-4.89264E-04 1.09844E-15
 -1       887 9.72013E-03-6.55900E-04 1.13968E-15
 -1       888 1.00322E-02-8.13780E-04 1.18683E-15
 -1       889 1.03359E-02-9.65135E-04 1.24420E-15
 -1       890 1.06329E-02-1.11223E-03 1.31297E-15
 -1       891 1.09249E-02-1.25685E-03 1.39201E-15
 -1       892 1.12135E-02-1.40025E-03 1.47175E-15
 -1       893 1.15000E-02-1.54323E-03 1.55163E-15
 -1       894 1.17853E-02-1.68629E-03 1.63304E-15
 -1       895 1.20701E-02-1.82971E-03 1.71971E-15
 -1       896 1.23546E-02-1.97363E-03 1.80931E-15
 -1       897 1.26391E-02-2.11811E-03 1.90410E-15
 -1       898 1.29239E-02-2.26313E-03 2.01336E-15
 -1       899 1.35766E-02-2.61072E-03 1.69204E-15
 -1       900 1.39744E-02-2.83385E-03 9.83839E-16
 -1       901 4.34831E-03 2.51560E-04 6.88607E-16
 -1       902 1.13796E-03-5.57227E-05 2.98291E-17
 -1       903 1.00860E-02-9.13562E-04 1.82641E-16
 -1       904 8.16920E-03 1.48004E-04 6.41380E-16
 -1       905 6.95888E-03 2.25269E-04 5.89803E-16
 -1       906 1.11106E-02-1.29806E-03-3.37038E-16
 -1       907 9.31838E-03-5.18228E-04 5.41268E-16
 -1       908 1.34327E-02-2.52985E-03 1.96085E-15
 -1       909 1.38037E-03 3.34992E-05 8.21283E-17
 -1       910 1.38365E-03 9.83226E-05 1.11832E-16
 -1       911 1.04075E-02-1.04110E-03 6.71121E-17
 -1       912 5.69948E-03-2.62392E-04-5.12387E-17
 -1       913 2.62444E-03 2.71067E-04 4.07057E-16
 -1       914 3.19925E-03 2.70272E-04 5.13990E-16
 -1       915 1.37226E-02-2.69266E-03 1.42264E-15
 -1       916 7.16206E-03 3.69551E-04 9.00274E-16
 -1       917 1.31658E-02-2.38749E-03 2.09027E-15
 -1       918 9.55787E-03-6.49522E-04 5.00126E-16
 -1       919 1.38487E-02-2.76326E-03 1.20317E-15
 -1       920 5.57844E-03-3.43986E-04-3.08716E-16
 -1       921 3.48610E-03 2.66965E-04 5.62494E-16
 -1       922 2.04836E-03 2.59489E-04 2.93622E-16
 -1       923 1.76058E-03 2.46690E-04 2.36881E-16
 -1       924 1.08334E-02-1.17373E-03-2.43678E-16
 -1       925 1.35342E-03-1.40234E-04 5.00088E-18
 -1       926 6.67018E-03 1.78120E-04 5.79533E-16
 -1       927 9.08961E-03-3.80237E-04 6.30494E-16
 -1       928 6.25833E-03 2.54956E-05 4.12874E-16
 -1       929 1.78289E-03-1.69254E-04 1.17568E-18
 -1       930 2.07063E-03-1.78115E-04-5.92923E-19
 -1       931 2.35871E-03-1.83566E-04-4.14369E-18
 -1       932 2.64631E-03-1.86409E-04-9.49693E-18
 -1       933 2.93276E-03-1.87395E-04-1.71202E-17
 -1       934 3.23162E-03-1.87215E-04-2.71965E-17
 -1       935 3.51375E-03-1.86649E-04-3.95903E-17
 -1       936 3.79267E-03-1.86540E-04-5.76796E-17
 -1       937 4.06743E-03-1.87907E-04-8.05596E-17
 -1       938 4.33678E-03-1.92053E-04-1.04795E-16
 -1       939 4.59916E-03-2.00655E-04-1.32239E-16
 -1       940 4.85254E-03-2.15790E-04-1.62088E-16
 -1       941 5.09436E-03-2.39855E-04-1.95065E-16
 -1       942 5.33217E-03-2.77218E-04-2.32887E-16
 -1       943 8.01551E-03 2.17329E-04 7.54855E-16
 -1       944 1.15787E-02-1.56328E-03-1.21871E-17
 -1       945 1.18349E-02-1.69929E-03 4.37747E-17
 -1       946 1.20989E-02-1.84081E-03 1.05412E-16
 -1       947 1.23689E-02-1.98599E-03 1.58331E-16
 -1       948 1.26570E-02-2.14089E-03 2.12158E-16
 -1       949 1.29348E-02-2.28973E-03 2.67269E-16
 -1       950 1.32148E-02-2.43921E-03 3.30882E-16
 -1       951 1.34966E-02-2.58891E-03 4.07020E-16
 -1       952 1.37795E-02-2.73859E-03 4.98137E-16
 -1       953 1.39480E-02-2.82655E-03 6.10775E-16
 -1       954 8.24569E-03 1.16858E-04 8.00344E-16
 -1       955 1.34796E-03-7.55550E-05 3.23126E-17
 -1       956 5.06098E-03 1.56657E-04 6.22878E-16
 -1       957 4.76709E-03 1.63624E-04 6.02254E-16
 -1       958 5.67260E-03 1.53592E-04 6.52568E-16
 -1       959 5.99566E-03 1.64556E-04 6.61966E-16
 -1       960 6.33151E-03 1.89661E-04 6.68570E-16
 -1       961 1.31422E-02-2.38118E-03 1.80211E-15
 -1       962 8.68494E-03-1.25118E-04 8.05959E-16
 -1       963 9.37656E-03-5.06495E-04 8.75388E-16
 -1       964 9.70865E-03-6.75454E-04 9.11723E-16
 -1       965 1.00275E-02-8.31487E-04 9.54870E-16
 -1       966 1.03345E-02-9.79156E-04 1.00813E-15
 -1       967 1.06322E-02-1.12228E-03 1.07371E-15
 -1       968 1.09234E-02-1.26344E-03 1.14578E-15
 -1       969 1.12105E-02-1.40417E-03 1.22511E-15
 -1       970 1.14951E-02-1.54528E-03 1.30049E-15
 -1       971 1.17786E-02-1.68713E-03 1.37590E-15
 -1       972 1.20616E-02-1.82985E-03 1.45463E-15
 -1       973 1.23446E-02-1.97342E-03 1.53860E-15
 -1       974 1.26279E-02-2.11776E-03 1.62917E-15
 -1       975 1.28849E-02-2.24922E-03 1.70805E-15
 -1       976 1.38060E-02-2.74659E-03 8.63455E-16
 -1       977 5.36187E-03 1.52327E-04 6.40204E-16
 -1       978 3.90501E-03 1.85618E-04 5.21494E-16
 -1       979 1.13331E-02-1.43505E-03-6.53503E-17
 -1       980 2.33646E-03 2.67250E-04 3.50807E-16
 -1       981 1.56744E-03-1.55814E-04 3.82181E-18
 -1       982 1.36301E-03-2.13074E-05 5.66462E-17
 -1       983 5.89296E-03-1.15395E-04 2.23274E-16
 -1       984 1.35545E-03 1.52865E-04 1.33160E-16
 -1       985 9.89680E-03-8.23015E-04 3.94131E-16
 -1       986 1.11013E-02-1.31703E-03-1.16115E-16
 -1       987 1.61689E-03 2.04178E-06 8.60789E-17
 -1       988 1.02224E-02-9.71231E-04 2.80971E-16
 -1       989 4.19079E-03 1.78909E-04 5.52384E-16
 -1       990 1.61877E-03 7.20987E-05 1.23006E-16
 -1       991 5.54461E-03-2.82564E-04-1.43281E-16
 -1       992 2.75924E-03 1.98952E-04 3.63719E-16
 -1       993 8.43735E-03 1.50965E-05 7.92498E-16
 -1       994 3.61940E-03 1.91203E-04 4.88233E-16
 -1       995 4.47768E-03 1.71390E-04 5.79282E-16
 -1       996 5.69597E-03-1.66510E-04 1.27438E-16
 -1       997 9.03307E-03-3.21743E-04 8.38149E-16
 -1       998 9.41265E-03-5.47980E-04 7.12843E-16
 -1       999 1.36805E-02-2.67643E-03 1.08321E-15
 -1      1000 1.89458E-03 1.85526E-04 2.22251E-16
 -1      1001 1.34039E-02-2.52458E-03 1.45221E-15
 -1      1002 1.07431E-02-1.16200E-03-7.25568E-17
 -1      1003 3.04670E-03 1.98128E-04 4.07843E-16
 -1      1004 2.18276E-03 1.93263E-04 2.70061E-16
 -1      1005 1.60080E-03-5.74881E-05 5.41288E-17
 -1      1006 2.20841E-03-1.11649E-04 4.81115E-17
 -1      1007 2.49647E-03-1.14472E-04 5.28176E-17
 -1      1008 2.78374E-03-1.16046E-04 5.64971E-17
 -1      1009 3.08376E-03-1.16965E-04 5.90924E-17
 -1      1010 3.36732E-03-1.17756E-04 5.87909E-17
 -1      1011 3.64810E-03-1.19172E-04 5.30243E-17
 -1      1012 3.92545E-03-1.22061E-04 4.20128E-17
 -1      1013 4.19858E-03-1.27507E-04 2.72914E-17
 -1      1014 4.46667E-03-1.36865E-04 1.13231E-17
 -1      1015 4.72880E-03-1.51779E-04-6.07831E-18
 -1      1016 4.98414E-03-1.74081E-04-2.66951E-17
 -1      1017 5.24411E-03-2.07223E-04-5.16351E-17
 -1      1018 1.31474E-02-2.39182E-03 1.36194E-15
 -1      1019 5.18150E-03 6.65865E-05 4.80630E-16
 -1      1020 1.18413E-02-1.71110E-03 2.81693E-16
 -1      1021 1.21091E-02-1.85159E-03 3.41371E-16
 -1      1022 1.23950E-02-2.00269E-03 4.02639E-16
 -1      1023 1.26708E-02-2.14882E-03 4.56727E-16
 -1      1024 1.29492E-02-2.29627E-03 5.18625E-16
 -1      1025 1.32295E-02-2.44448E-03 5.93408E-16
 -1      1026 1.35114E-02-2.59308E-03 6.75793E-16
 -1      1027 1.36586E-02-2.66989E-03 7.67324E-16
 -1      1028 1.00345E-02-8.56373E-04 7.26002E-16
 -1      1029 1.92040E-03-1.07033E-04 4.14335E-17
 -1      1030 4.88996E-03 7.86878E-05 4.71381E-16
 -1      1031 5.79448E-03 5.26688E-05 4.89409E-16
 -1      1032 1.58322E-03-1.06638E-04 2.86771E-17
 -1      1033 9.72881E-03-7.22698E-04 6.06079E-16
 -1      1034 9.73064E-03-7.10064E-04 7.19626E-16
 -1      1035 1.06389E-02-1.13553E-03 8.38949E-16
 -1      1036 1.09274E-02-1.27165E-03 9.07857E-16
 -1      1037 1.12114E-02-1.40858E-03 9.81454E-16
 -1      1038 1.14931E-02-1.54708E-03 1.05406E-15
 -1      1039 1.17738E-02-1.68730E-03 1.12536E-15
 -1      1040 1.20545E-02-1.82910E-03 1.19773E-15
 -1      1041 1.23357E-02-1.97226E-03 1.27384E-15
 -1      1042 1.26175E-02-2.11650E-03 1.35898E-15
 -1      1043 1.55405E-03 1.66878E-04 1.64768E-16
 -1      1044 5.48157E-03 5.64928E-05 4.86502E-16
 -1      1045 1.34980E-02-2.57702E-03 1.27863E-15
 -1      1046 1.13230E-02-1.44643E-03 1.62176E-16
 -1      1047 2.47116E-03 1.97510E-04 3.17397E-16
 -1      1048 1.15788E-02-1.57544E-03 2.20896E-16
 -1      1049 3.33339E-03 1.95448E-04 4.49300E-16
 -1      1050 1.10749E-02-1.32592E-03 1.07726E-16
 -1      1051 1.03426E-02-9.98349E-04 7.77065E-16
 -1      1052 1.00439E-02-8.82374E-04 4.88592E-16
 -1      1053 5.52790E-03-2.02736E-04 3.34205E-17
 -1      1054 1.05915E-02-1.12066E-03 1.42288E-16
 -1      1055 1.96050E-03 9.54490E-05 1.73831E-16
 -1      1056 4.60344E-03 9.03998E-05 4.59773E-16
 -1      1057 4.03620E-03 1.09174E-04 4.24208E-16
 -1      1058 1.35332E-02-2.60015E-03 9.86377E-16
 -1      1059 5.65404E-03-6.49463E-05 2.97353E-16
 -1      1060 1.85610E-03-3.43557E-05 8.25281E-17
 -1      1061 3.75271E-03 1.15897E-04 4.02801E-16
 -1      1062 1.28824E-02-2.25382E-03 1.35672E-15
 -1      1063 2.60845E-03 1.26611E-04 2.74662E-16
 -1      1064 1.90687E-03 2.98206E-05 1.26357E-16
 -1      1065 2.89614E-03 1.26339E-04 3.10732E-16
 -1      1066 1.08380E-02-1.22215E-03 1.23020E-16
 -1      1067 4.31943E-03 1.00674E-04 4.43605E-16
 -1      1068 2.63717E-03-4.45163E-05 1.20285E-16
 -1      1069 2.93833E-03-4.57286E-05 1.34732E-16
 -1      1070 3.22341E-03-4.72079E-05 1.45646E-16
 -1      1071 3.50628E-03-4.94902E-05 1.52557E-16
 -1      1072 3.78649E-03-5.31957E-05 1.53970E-16
 -1      1073 4.06365E-03-5.91105E-05 1.51012E-16
 -1      1074 4.33746E-03-6.82217E-05 1.45520E-16
 -1      1075 4.60785E-03-8.16816E-05 1.39046E-16
 -1      1076 4.87509E-03-1.00668E-04 1.28918E-16
 -1      1077 5.15342E-03-1.27370E-04 1.15901E-16
 -1      1078 1.12173E-02-1.41286E-03 7.44095E-16
 -1      1079 5.29049E-03-2.65909E-05 3.29743E-16
 -1      1080 1.21230E-02-1.86283E-03 5.84002E-16
 -1      1081 1.23980E-02-2.00612E-03 6.45022E-16
 -1      1082 1.26755E-02-2.15132E-03 7.07123E-16
 -1      1083 1.29549E-02-2.29778E-03 7.78223E-16
 -1      1084 1.32360E-02-2.44503E-03 8.60941E-16
 -1      1085 1.33844E-02-2.52256E-03 9.19664E-16
 -1      1086 5.48634E-03-1.11519E-04 2.01194E-16
 -1      1087 5.00497E-03-7.50140E-06 3.29496E-16
 -1      1088 1.10469E-02-1.32605E-03 3.30045E-16
 -1      1089 2.34926E-03-4.32749E-05 1.05757E-16
 -1      1090 1.00362E-02-8.67979E-04 6.13282E-16
 -1      1091 1.14942E-02-1.54810E-03 8.13362E-16
 -1      1092 1.09389E-02-1.28082E-03 6.74977E-16
 -1      1093 1.17711E-02-1.68635E-03 8.80396E-16
 -1      1094 1.20487E-02-1.82713E-03 9.45909E-16
 -1      1095 1.23275E-02-1.96988E-03 1.01480E-15
 -1      1096 1.26075E-02-2.11413E-03 1.09225E-15
 -1      1097 1.32083E-02-2.42653E-03 1.17247E-15
 -1      1098 2.27948E-03 1.09670E-04 2.20578E-16
 -1      1099 3.46834E-03 1.20951E-04 3.76011E-16
 -1      1100 1.18508E-02-1.72233E-03 5.22399E-16
 -1      1101 1.13095E-02-1.45104E-03 3.95104E-16
 -1      1102 3.18283E-03 1.24426E-04 3.44600E-16
 -1      1103 1.15751E-02-1.58236E-03 4.58001E-16
 -1      1104 2.10248E-03-3.89292E-05 9.49456E-17
 -1      1105 1.04536E-02-1.06736E-03 3.68802E-16
 -1      1106 4.72430E-03 9.38758E-06 3.30167E-16
 -1      1107 1.06564E-02-1.15142E-03 6.07170E-16
 -1      1108 2.22516E-03 4.13424E-05 1.62563E-16
 -1      1109 1.03544E-02-1.01439E-03 6.03528E-16
 -1      1110 1.07938E-02-1.21342E-03 3.42459E-16
 -1      1111 3.88595E-03 4.16282E-05 3.04620E-16
 -1      1112 2.74818E-03 5.49899E-05 2.22980E-16
 -1      1113 4.16619E-03 3.37403E-05 3.15242E-16
 -1      1114 2.48686E-03 4.84814E-05 1.91941E-16
 -1      1115 1.29076E-02-2.26981E-03 1.12594E-15
 -1      1116 3.08168E-03 2.45640E-05 2.20811E-16
 -1      1117 3.36646E-03 2.20494E-05 2.39866E-16
 -1      1118 3.64926E-03 1.81449E-05 2.53812E-16
 -1      1119 4.44531E-03 2.31278E-05 3.23499E-16
 -1      1120 0.00000E+00 0.00000E+00 0.00000E+00
 -1      1121 0.00000E+00 0.00000E+00 0.00000E+00
 -1      1122 0.00000E+00 0.00000E+00 0.00000E+00
 -1      1123 0.00000E+00 0.00000E+00 0.00000E+00
 -1      1124 0.00000E+00 0.00000E+00 0.00000E+00
 -1      1125 0.00000E+00 0.00000E+00 0.00000E+00
 -1      1126 0.00000E+00 0.00000E+00 0.00000E+00
 -1      1127 0.00000E+00 0.00000E+00 0.00000E+00
 -1      1128 0.00000E+00 0.00000E+00 0.00000E+00
 -1      1129 0.00000E+00 0.00000E+00 0.00000E+00
 -1      1130 0.00000E+00 0.00000E+00 0.00000E+00
 -1      1131 0.00000E+00 0.00000E+00 0.00000E+00
 -1      1132 0.00000E+00 0.00000E+00 0.00000E+00
 -1      1133 0.00000E+00 0.00000E+00 0.00000E+00
 -1      1134 0.00000E+00 0.00000E+00 0.00000E+00
 -1      1135 0.00000E+00 0.00000E+00 0.00000E+00
 -1      1136 0.00000E+00 0.00000E+00 0.00000E+00
 -1      1137 2.11318E-04-1.48110E-04-8.83625E-18
 -1      1138 5.50715E-04-3.36785E-04-3.33528E-17
 -1      1139 8.32090E-04-4.57586E-04-6.58653E-17
 -1      1140 1.10130E-03-5.38367E-04-1.05615E-16
 -1      1141 1.36645E-03-5.94459E-04-1.50650E-16
 -1      1142 1.63114E-03-6.33698E-04-2.00577E-16
 -1      1143 1.89728E-03-6.60661E-04-2.54950E-16
 -1      1144 2.17261E-03-6.78736E-04-3.16330E-16
 -1      1145 2.45097E-03-6.89464E-04-3.84838E-16
 -1      1146 2.72573E-03-6.94525E-04-4.55934E-16
 -1      1147 3.00384E-03-6.95463E-04-5.34281E-16
 -1      1148 3.28555E-03-6.93189E-04-6.16315E-16
 -1      1149 3.57136E-03-6.88411E-04-7.01086E-16
 -1      1150 3.86205E-03-6.81738E-04-7.90722E-16
 -1      1151 4.16644E-03-6.73611E-04-8.86091E-16
 -1      1152 4.47944E-03-6.65171E-04-9.85838E-16
 -1      1153 4.79618E-03-6.58186E-04-1.09068E-15
 -1      1154 5.12843E-03-6.55251E-04-1.20619E-15
 -1      1155 5.48192E-03-6.61522E-04-1.33028E-15
 -1      1156 5.86368E-03-6.86396E-04-1.45733E-15
 -1      1157 6.28070E-03-7.46188E-04-1.57677E-15
 -1      1158 6.73597E-03-8.66422E-04-1.68360E-15
 -1      1159 7.23237E-03-1.08532E-03-1.78351E-15
 -1      1160 7.72289E-03-1.41783E-03-1.87169E-15
 -1      1161 8.11855E-03-1.78858E-03-1.92558E-15
 -1      1162 8.41290E-03-2.09846E-03-1.94555E-15
 -1      1163 8.64393E-03-2.23259E-03-1.93063E-15
 -1      1164 8.90061E-03-2.14716E-03-1.87640E-15
 -1      1165 9.25539E-03-1.92298E-03-1.79320E-15
 -1      1166 9.69716E-03-1.70545E-03-1.71178E-15
 -1      1167 1.01849E-02-1.57734E-03-1.63648E-15
 -1      1168 1.06596E-02-1.55508E-03-1.56982E-15
 -1      1169 1.10993E-02-1.61133E-03-1.51290E-15
 -1      1170 1.15013E-02-1.71600E-03-1.46590E-15
 -1      1171 1.18710E-02-1.84756E-03-1.43753E-15
 -1      1172 1.22243E-02-1.99676E-03-1.40961E-15
 -1      1173 1.25587E-02-2.15284E-03-1.37337E-15
 -1      1174 1.28720E-02-2.30777E-03-1.34017E-15
 -1      1175 1.31765E-02-2.46339E-03-1.30970E-15
 -1      1176 1.34748E-02-2.61873E-03-1.28578E-15
 -1      1177 1.37689E-02-2.77335E-03-1.26028E-15
 -1      1178 1.40601E-02-2.92707E-03-1.22078E-15
 -1      1179 1.43564E-02-3.08371E-03-1.16236E-15
 -1      1180 1.46513E-02-3.23944E-03-1.09518E-15
 -1      1181 1.49381E-02-3.39060E-03-1.00763E-15
 -1      1182 1.52243E-02-3.54108E-03-8.94304E-16
 -1      1183 1.55102E-02-3.69099E-03-7.53995E-16
 -1      1184 1.57959E-02-3.84042E-03-5.84548E-16
 -1      1185 1.60815E-02-3.98949E-03-3.97550E-16
 -1      1186 1.63671E-02-4.13837E-03-1.98030E-16
 -1      1187 2.28064E-04 1.60463E-04 1.26039E-17
 -1      1188 5.52938E-04 3.41403E-04 5.41017E-17
 -1      1189 8.33120E-04 4.59768E-04 1.13597E-16
 -1      1190 1.10236E-03 5.40087E-04 1.90454E-16
 -1      1191 1.36760E-03 5.96227E-04 2.79697E-16
 -1      1192 1.63246E-03 6.35682E-04 3.78874E-16
 -1      1193 1.89880E-03 6.62978E-04 4.84449E-16
 -1      1194 2.16758E-03 6.81209E-04 5.93858E-16
 -1      1195 2.43922E-03 6.92662E-04 7.04365E-16
 -1      1196 2.71390E-03 6.99102E-04 8.14764E-16
 -1      1197 2.99167E-03 7.01938E-04 9.22805E-16
 -1      1198 3.27252E-03 7.02338E-04 1.03013E-15
 -1      1199 3.55643E-03 7.01329E-04 1.13670E-15
 -1      1200 3.84332E-03 6.99871E-04 1.23832E-15
 -1      1201 4.13306E-03 6.98924E-04 1.33099E-15
 -1      1202 4.42534E-03 6.99468E-04 1.41404E-15
 -1      1203 4.71963E-03 7.02478E-04 1.49388E-15
 -1      1204 5.01498E-03 7.08823E-04 1.57361E-15
 -1      1205 5.30994E-03 7.19053E-04 1.65239E-15
 -1      1206 5.60253E-03 7.33075E-04 1.73077E-15
 -1      1207 5.89025E-03 7.49724E-04 1.80680E-15
 -1      1208 6.17041E-03 7.66347E-04 1.86746E-15
 -1      1209 6.44062E-03 7.78548E-04 1.92015E-15
 -1      1210 6.69954E-03 7.80357E-04 1.97168E-15
 -1      1211 6.94755E-03 7.64991E-04 2.02213E-15
 -1      1212 7.18715E-03 7.26181E-04 2.07457E-15
 -1      1213 7.42268E-03 6.59725E-04 2.11814E-15
 -1      1214 7.65949E-03 5.64660E-04 2.15785E-15
 -1      1215 7.90260E-03 4.43551E-04 2.20216E-15
 -1      1216 8.15561E-03 3.01739E-04 2.24011E-15
 -1      1217 8.42002E-03 1.45906E-04 2.27879E-15
 -1      1218 8.69537E-03-1.74275E-05 2.31774E-15
 -1      1219 8.97977E-03-1.82990E-04 2.36470E-15
 -1      1220 9.27068E-03-3.47220E-04 2.42241E-15
 -1      1221 9.56554E-03-5.08199E-04 2.49230E-15
 -1      1222 9.86215E-03-6.65290E-04 2.56415E-15
 -1      1223 1.01589E-02-8.18686E-04 2.63771E-15
 -1      1224 1.04548E-02-9.69016E-04 2.72034E-15
 -1      1225 1.07492E-02-1.11706E-03 2.80906E-15
 -1      1226 1.10420E-02-1.26356E-03 2.90855E-15
 -1      1227 1.13333E-02-1.40915E-03 3.01064E-15
 -1      1228 1.16230E-02-1.55433E-03 3.11345E-15
 -1      1229 1.19116E-02-1.69944E-03 3.22950E-15
 -1      1230 1.21992E-02-1.84471E-03 3.35168E-15
 -1      1231 1.24861E-02-1.99027E-03 3.47950E-15
 -1      1232 1.27724E-02-2.13619E-03 3.61712E-15
 -1      1233 1.30584E-02-2.28249E-03 3.75707E-15
 -1      1234 1.33441E-02-2.42915E-03 3.89513E-15
 -1      1235 1.36298E-02-2.57611E-03 4.03086E-15
 -1      1236 1.39083E-02-2.71957E-03 4.14393E-15
 -1      1237 1.41164E-02-2.83161E-03 4.07137E-15
 -1      1238 1.42611E-02-2.91594E-03 3.80321E-15
 -1      1239 1.44060E-02-3.00027E-03 3.53886E-15
 -1      1240 1.45511E-02-3.08451E-03 3.28284E-15
 -1      1241 1.46964E-02-3.16859E-03 3.03139E-15
 -1      1242 1.48407E-02-3.25176E-03 2.80020E-15
 -1      1243 1.49850E-02-3.33472E-03 2.55815E-15
 -1      1244 1.51306E-02-3.41824E-03 2.31229E-15
 -1      1245 1.52760E-02-3.50167E-03 2.05614E-15
 -1      1246 1.54214E-02-3.58511E-03 1.78826E-15
 -1      1247 1.55667E-02-3.66866E-03 1.53884E-15
 -1      1248 1.57108E-02-3.75168E-03 1.27200E-15
 -1      1249 1.58550E-02-3.83492E-03 9.75945E-16
 -1      1250 1.60007E-02-3.91907E-03 7.14896E-16
 -1      1251 1.61466E-02-4.00338E-03 4.87850E-16
 -1      1252 1.62929E-02-4.08775E-03 2.69939E-16
 -1      1253 1.64380E-02-4.17138E-03 3.75676E-17
 -1      1254 1.05852E-02-8.29189E-04-4.41921E-16
 -1      1255 1.03816E-02-6.54084E-04-3.08655E-16
 -1      1256 1.00769E-02-4.75483E-04-2.01045E-16
 -1      1257 9.71211E-03-3.03650E-04-1.19994E-16
 -1      1258 9.28426E-03-1.35161E-04-6.31548E-17
 -1      1259 8.80988E-03 1.14175E-05-2.76201E-17
 -1      1260 8.31350E-03 1.13457E-04-2.06269E-17
 -1      1261 7.83371E-03 1.55554E-04-4.84367E-17
 -1      1262 7.35835E-03 1.35349E-04-1.02078E-16
 -1      1263 6.91188E-03 6.18665E-05-1.77538E-16
 -1      1264 6.52064E-03-4.78944E-05-2.73219E-16
 -1      1265 6.19889E-03-1.77215E-04-3.85695E-16
 -1      1266 5.96809E-03-3.13152E-04-5.04506E-16
 -1      1267 5.83208E-03-4.62680E-04-6.26899E-16
 -1      1268 5.81853E-03-6.29070E-04-7.49699E-16
 -1      1269 5.93405E-03-8.10963E-04-8.60314E-16
 -1      1270 6.16600E-03-1.01276E-03-9.57233E-16
 -1      1271 6.50302E-03-1.24087E-03-1.04575E-15
 -1      1272 6.92146E-03-1.48144E-03-1.12691E-15
 -1      1273 7.40439E-03-1.70879E-03-1.18362E-15
 -1      1274 7.93582E-03-1.88233E-03-1.21214E-15
 -1      1275 8.48343E-03-1.95969E-03-1.20791E-15
 -1      1276 9.00798E-03-1.92487E-03-1.16793E-15
 -1      1277 9.51849E-03-1.79257E-03-1.09133E-15
 -1      1278 9.94396E-03-1.61659E-03-9.99797E-16
 -1      1279 1.02485E-02-1.45052E-03-9.07464E-16
 -1      1280 1.04753E-02-1.28971E-03-8.01387E-16
 -1      1281 1.06170E-02-1.13376E-03-6.85907E-16
 -1      1282 1.06569E-02-9.84559E-04-5.68386E-16
 -1      1283 1.66472E-04-1.10184E-04-8.76849E-18
 -1      1284 1.12482E-04-5.68791E-05-5.90890E-18
 -1      1285 1.17523E-04-6.74838E-05-6.58653E-18
 -1      1286 1.08416E-04-4.33863E-05-4.51299E-18
 -1      1287 1.10252E-04-4.95029E-05-5.09575E-18
 -1      1288 2.26242E-04-1.07378E-04-1.25632E-17
 -1      1289 1.06886E-04-3.35020E-05-3.02221E-18
 -1      1290 1.07712E-04-3.82304E-05-3.56431E-18
 -1      1291 2.19124E-04-8.22130E-05-9.22927E-18
 -1      1292 1.06128E-04-2.52284E-05-1.62630E-18
 -1      1293 1.06551E-04-2.92580E-05-2.05998E-18
 -1      1294 2.15973E-04-6.30143E-05-5.93601E-18
 -1      1295 1.05730E-04-1.79829E-05-4.74338E-19
 -1      1296 1.05956E-04-2.15408E-05-7.72494E-19
 -1      1297 2.14337E-04-4.69293E-05-2.94090E-18
 -1      1298 1.05514E-04-1.11586E-05 7.18284E-19
 -1      1299 1.05636E-04-1.45267E-05 4.06576E-19
 -1      1300 2.13430E-04-3.25360E-05-1.08420E-19
 -1      1301 1.05414E-04-4.64842E-06 1.80249E-18
 -1      1302 1.05467E-04-7.87941E-06 1.55854E-18
 -1      1303 2.12935E-04-1.90412E-05 2.64274E-18
 -1      1304 1.05400E-04 1.73736E-06 2.58853E-18
 -1      1305 1.05400E-04-1.45156E-06 2.31748E-18
 -1      1306 2.12717E-04-6.10006E-06 4.90601E-18
 -1      1307 1.05470E-04 8.17340E-06 3.87602E-18
 -1      1308 1.05415E-04 4.93684E-06 3.61852E-18
 -1      1309 2.12720E-04 6.67156E-06 7.31836E-18
 -1      1310 1.05644E-04 1.48425E-05 4.96022E-18
 -1      1311 1.05518E-04 1.14614E-05 4.64852E-18
 -1      1312 2.12947E-04 1.96350E-05 1.00289E-17
 -1      1313 1.05969E-04 2.18360E-05 6.26127E-18
 -1      1314 1.05738E-04 1.82571E-05 5.88180E-18
 -1      1315 2.13452E-04 3.30629E-05 1.27529E-17
 -1      1316 1.06578E-04 2.96912E-05 7.72494E-18
 -1      1317 1.06146E-04 2.56200E-05 7.19639E-18
 -1      1318 2.14377E-04 4.75414E-05 1.57751E-17
 -1      1319 1.07749E-04 3.87922E-05 9.35124E-18
 -1      1320 1.06911E-04 3.39961E-05 8.75493E-18
 -1      1321 2.16056E-04 6.39294E-05 1.91768E-17
 -1      1322 1.10241E-04 5.02399E-05 1.09504E-17
 -1      1323 1.08431E-04 4.40537E-05 1.02593E-17
 -1      1324 2.19241E-04 8.34396E-05 2.27818E-17
 -1      1325 1.16837E-04 6.75087E-05 1.22921E-17
 -1      1326 1.12124E-04 5.76660E-05 1.17771E-17
 -1      1327 2.26230E-04 1.09186E-04 2.61699E-17
 -1      1328 1.57362E-04 1.09696E-04 1.32137E-17
 -1      1329 1.35520E-04 8.59568E-05 1.33357E-17
 -1      1330 2.55812E-04 1.51793E-04 2.96394E-17
 -1      1331 3.34628E-04 2.20334E-04 3.23092E-17
 -1      1332 4.20957E-04-2.61210E-04-2.56278E-17
 -1      1333 5.73855E-04-3.35965E-04-3.81775E-17
 -1      1334 7.20865E-04-3.96217E-04-5.33292E-17
 -1      1335 8.63876E-04-4.45112E-04-7.02292E-17
 -1      1336 6.11445E-04-3.29929E-04-4.24194E-17
 -1      1337 1.00377E-03-4.85729E-04-8.85387E-17
 -1      1338 1.14150E-03-5.19201E-04-1.08176E-16
 -1      1339 9.04453E-04-4.29816E-04-7.31159E-17
 -1      1340 1.27792E-03-5.47388E-04-1.29047E-16
 -1      1341 1.41352E-03-5.70764E-04-1.51395E-16
 -1      1342 1.18676E-03-4.98188E-04-1.09410E-16
 -1      1343 1.54877E-03-5.90381E-04-1.74733E-16
 -1      1344 1.68391E-03-6.06568E-04-1.99222E-16
 -1      1345 1.46371E-03-5.45615E-04-1.50501E-16
 -1      1346 1.81922E-03-6.19939E-04-2.24755E-16
 -1      1347 1.95480E-03-6.30780E-04-2.50925E-16
 -1      1348 1.73861E-03-5.78205E-04-1.95983E-16
 -1      1349 2.09762E-03-6.39861E-04-2.80253E-16
 -1      1350 2.24098E-03-6.46860E-04-3.11803E-16
 -1      1351 2.02030E-03-6.00283E-04-2.46751E-16
 -1      1352 2.37810E-03-6.51856E-04-3.42811E-16
 -1      1353 2.51582E-03-6.55432E-04-3.74456E-16
 -1      1354 2.30311E-03-6.13773E-04-3.02696E-16
 -1      1355 2.65421E-03-6.57750E-04-4.07823E-16
 -1      1356 2.79328E-03-6.58977E-04-4.42910E-16
 -1      1357 2.58075E-03-6.20669E-04-3.62069E-16
 -1      1358 2.93310E-03-6.59218E-04-4.79244E-16
 -1      1359 3.07368E-03-6.58615E-04-5.17286E-16
 -1      1360 2.86055E-03-6.22810E-04-4.27027E-16
 -1      1361 3.21510E-03-6.57225E-04-5.55532E-16
 -1      1362 3.35741E-03-6.55179E-04-5.94780E-16
 -1      1363 3.14290E-03-6.21231E-04-4.97174E-16
 -1      1364 3.50069E-03-6.52496E-04-6.35166E-16
 -1      1365 3.64502E-03-6.49310E-04-6.75932E-16
 -1      1366 3.42824E-03-6.16695E-04-5.71415E-16
 -1      1367 3.79054E-03-6.45614E-04-7.18419E-16
 -1      1368 3.93738E-03-6.41566E-04-7.62181E-16
 -1      1369 3.71714E-03-6.09781E-04-6.49207E-16
 -1      1370 4.09319E-03-6.36915E-04-8.08734E-16
 -1      1371 4.25089E-03-6.32103E-04-8.55178E-16
 -1      1372 4.01782E-03-6.00764E-04-7.32433E-16
 -1      1373 4.40312E-03-6.27352E-04-9.01202E-16
 -1      1374 4.55767E-03-6.22777E-04-9.49612E-16
 -1      1375 4.32437E-03-5.90459E-04-8.19969E-16
 -1      1376 4.71490E-03-6.18429E-04-9.99011E-16
 -1      1377 4.87523E-03-6.14820E-04-1.05063E-15
 -1      1378 4.63081E-03-5.80163E-04-9.09673E-16
 -1      1379 5.03915E-03-6.12181E-04-1.10541E-15
 -1      1380 5.20723E-03-6.11319E-04-1.16217E-15
 -1      1381 4.94677E-03-5.71469E-04-1.00733E-15
 -1      1382 5.38005E-03-6.12861E-04-1.22003E-15
 -1      1383 5.55829E-03-6.18086E-04-1.27959E-15
 -1      1384 5.27511E-03-5.67886E-04-1.11369E-15
 -1      1385 5.74257E-03-6.28394E-04-1.33827E-15
 -1      1386 5.93351E-03-6.45799E-04-1.39750E-15
 -1      1387 5.61923E-03-5.76076E-04-1.22397E-15
 -1      1388 6.13160E-03-6.72969E-04-1.45405E-15
 -1      1389 6.33707E-03-7.12957E-04-1.50775E-15
 -1      1390 5.98282E-03-6.08240E-04-1.33360E-15
 -1      1391 6.54993E-03-7.69960E-04-1.56036E-15
 -1      1392 6.76929E-03-8.47996E-04-1.61005E-15
 -1      1393 6.36920E-03-6.85174E-04-1.43832E-15
 -1      1394 7.00550E-03-9.57672E-04-1.65921E-15
 -1      1395 7.24432E-03-1.09886E-03-1.70601E-15
 -1      1396 6.79082E-03-8.43005E-04-1.53546E-15
 -1      1397 7.47145E-03-1.26357E-03-1.74456E-15
 -1      1398 7.69229E-03-1.45305E-03-1.77679E-15
 -1      1399 7.23553E-03-1.11573E-03-1.61989E-15
 -1      1400 7.88336E-03-1.63630E-03-1.80079E-15
 -1      1401 8.06241E-03-1.81752E-03-1.81750E-15
 -1      1402 7.65588E-03-1.47432E-03-1.67756E-15
 -1      1403 8.23754E-03-1.98913E-03-1.82539E-15
 -1      1404 8.40063E-03-2.11825E-03-1.82660E-15
 -1      1405 8.05065E-03-1.85329E-03-1.70801E-15
 -1      1406 8.54610E-03-2.18866E-03-1.81819E-15
 -1      1407 8.69259E-03-2.20044E-03-1.80120E-15
 -1      1408 8.41596E-03-2.11722E-03-1.70687E-15
 -1      1409 8.86037E-03-2.15076E-03-1.77478E-15
 -1      1410 9.04240E-03-2.05183E-03-1.73990E-15
 -1      1411 8.77905E-03-2.14116E-03-1.67244E-15
 -1      1412 9.22975E-03-1.93152E-03-1.70479E-15
 -1      1413 9.42966E-03-1.80800E-03-1.66683E-15
 -1      1414 9.17572E-03-1.94242E-03-1.61098E-15
 -1      1415 9.65105E-03-1.69092E-03-1.62594E-15
 -1      1416 9.87738E-03-1.59817E-03-1.58894E-15
 -1      1417 9.60123E-03-1.68539E-03-1.53878E-15
 -1      1418 1.01055E-02-1.53490E-03-1.55327E-15
 -1      1419 1.03307E-02-1.50068E-03-1.51780E-15
 -1      1420 1.00424E-02-1.50191E-03-1.46613E-15
 -1      1421 1.05514E-02-1.49244E-03-1.48549E-15
 -1      1422 1.07654E-02-1.50626E-03-1.45565E-15
 -1      1423 1.04673E-02-1.43689E-03-1.40128E-15
 -1      1424 1.09723E-02-1.53739E-03-1.42746E-15
 -1      1425 1.11718E-02-1.58215E-03-1.40185E-15
 -1      1426 1.08683E-02-1.46780E-03-1.34186E-15
 -1      1427 1.13641E-02-1.63693E-03-1.38056E-15
 -1      1428 1.15497E-02-1.69920E-03-1.36096E-15
 -1      1429 1.12452E-02-1.56015E-03-1.29246E-15
 -1      1430 1.17293E-02-1.76684E-03-1.34474E-15
 -1      1431 1.19034E-02-1.83824E-03-1.33038E-15
 -1      1432 1.16008E-02-1.68713E-03-1.25362E-15
 -1      1433 1.20811E-02-1.91609E-03-1.31409E-15
 -1      1434 1.22543E-02-1.99579E-03-1.29741E-15
 -1      1435 1.19470E-02-1.83570E-03-1.22004E-15
 -1      1436 1.24156E-02-2.07291E-03-1.27861E-15
 -1      1437 1.25740E-02-2.15062E-03-1.26047E-15
 -1      1438 1.22787E-02-1.99294E-03-1.18509E-15
 -1      1439 1.27298E-02-2.22877E-03-1.24488E-15
 -1      1440 1.28834E-02-2.30700E-03-1.22836E-15
 -1      1441 1.25916E-02-2.14958E-03-1.14897E-15
 -1      1442 1.30353E-02-2.38529E-03-1.21341E-15
 -1      1443 1.31856E-02-2.46342E-03-1.19899E-15
 -1      1444 1.28967E-02-2.30696E-03-1.11475E-15
 -1      1445 1.33346E-02-2.54142E-03-1.18375E-15
 -1      1446 1.34826E-02-2.61917E-03-1.16998E-15
 -1      1447 1.31962E-02-2.46389E-03-1.08400E-15
 -1      1448 1.36296E-02-2.69671E-03-1.15503E-15
 -1      1449 1.37759E-02-2.77397E-03-1.13790E-15
 -1      1450 1.34914E-02-2.61987E-03-1.05146E-15
 -1      1451 1.39215E-02-2.85099E-03-1.11693E-15
 -1      1452 1.40666E-02-2.92774E-03-1.09037E-15
 -1      1453 1.37837E-02-2.77473E-03-1.01187E-15
 -1      1454 1.42185E-02-3.00809E-03-1.06128E-15
 -1      1455 1.43700E-02-3.08815E-03-1.02762E-15
 -1      1456 1.40811E-02-2.93231E-03-9.59329E-16
 -1      1457 1.45140E-02-3.16419E-03-9.91232E-16
 -1      1458 1.46577E-02-3.24001E-03-9.51415E-16
 -1      1459 1.43770E-02-3.08881E-03-8.90225E-16
 -1      1460 1.48012E-02-3.31563E-03-9.04523E-16
 -1      1461 1.49446E-02-3.39107E-03-8.51126E-16
 -1      1462 1.46645E-02-3.24057E-03-8.01469E-16
 -1      1463 1.50878E-02-3.46634E-03-7.94761E-16
 -1      1464 1.52309E-02-3.54146E-03-7.33612E-16
 -1      1465 1.49513E-02-3.39153E-03-6.97250E-16
 -1      1466 1.53739E-02-3.61643E-03-6.61756E-16
 -1      1467 1.55169E-02-3.69126E-03-5.83152E-16
 -1      1468 1.52377E-02-3.54180E-03-5.68000E-16
 -1      1469 1.56598E-02-3.76599E-03-5.02528E-16
 -1      1470 1.58027E-02-3.84060E-03-4.14870E-16
 -1      1471 1.55237E-02-3.69151E-03-4.18312E-16
 -1      1472 1.59455E-02-3.91514E-03-3.26345E-16
 -1      1473 1.60884E-02-3.98961E-03-2.31830E-16
 -1      1474 1.58096E-02-3.84077E-03-2.48919E-16
 -1      1475 1.61918E-02-4.04328E-03-1.49755E-16
 -1      1476 1.63346E-02-4.11771E-03-4.88298E-17
 -1      1477 1.62627E-02-4.07627E-03 7.48235E-17
 -1      1478 1.60559E-02-3.96895E-03-8.30634E-17
 -1      1479 6.42241E-04 3.71027E-04 7.77915E-17
 -1      1480 4.92293E-04 3.03013E-04 5.22179E-17
 -1      1481 4.44396E-04 2.65275E-04 5.02392E-17
 -1      1482 9.27546E-04 4.70241E-04 1.43020E-16
 -1      1483 7.86822E-04 4.25151E-04 1.08325E-16
 -1      1484 7.44002E-04 3.89434E-04 1.02715E-16
 -1      1485 1.20225E-03 5.38652E-04 2.22316E-16
 -1      1486 1.06566E-03 5.07492E-04 1.81238E-16
 -1      1487 1.02986E-03 4.73988E-04 1.71751E-16
 -1      1488 1.47277E-03 5.86625E-04 3.12508E-16
 -1      1489 1.33772E-03 5.64798E-04 2.66090E-16
 -1      1490 1.30772E-03 5.32689E-04 2.52728E-16
 -1      1491 1.74248E-03 6.20021E-04 4.10913E-16
 -1      1492 1.60755E-03 6.04900E-04 3.61026E-16
 -1      1493 1.58208E-03 5.73625E-04 3.43096E-16
 -1      1494 2.01314E-03 6.42672E-04 5.14061E-16
 -1      1495 1.87760E-03 6.32514E-04 4.62060E-16
 -1      1496 1.85559E-03 6.01692E-04 4.40010E-16
 -1      1497 2.28567E-03 6.57311E-04 6.20204E-16
 -1      1498 2.14912E-03 6.50859E-04 5.66984E-16
 -1      1499 2.12977E-03 6.20248E-04 5.40692E-16
 -1      1500 2.56054E-03 6.65997E-04 7.26863E-16
 -1      1501 2.42279E-03 6.62292E-04 6.73506E-16
 -1      1502 2.40544E-03 6.31736E-04 6.43040E-16
 -1      1503 2.83797E-03 6.70334E-04 8.32017E-16
 -1      1504 2.69892E-03 6.68623E-04 7.79745E-16
 -1      1505 2.68303E-03 6.38016E-04 7.45389E-16
 -1      1506 3.11806E-03 6.71617E-04 9.36344E-16
 -1      1507 2.97768E-03 6.71285E-04 8.84343E-16
 -1      1508 2.96279E-03 6.40552E-04 8.46450E-16
 -1      1509 3.40085E-03 6.70943E-04 1.03906E-15
 -1      1510 3.25912E-03 6.71460E-04 9.88033E-16
 -1      1511 3.24485E-03 6.40545E-04 9.45926E-16
 -1      1512 3.68632E-03 6.69304E-04 1.13871E-15
 -1      1513 3.54325E-03 6.70184E-04 1.08966E-15
 -1      1514 3.52925E-03 6.39037E-04 1.04346E-15
 -1      1515 3.97440E-03 6.67661E-04 1.23224E-15
 -1      1516 3.83004E-03 6.68424E-04 1.18644E-15
 -1      1517 3.81600E-03 6.37006E-04 1.13620E-15
 -1      1518 4.26488E-03 6.66997E-04 1.31751E-15
 -1      1519 4.11935E-03 6.67151E-04 1.27601E-15
 -1      1520 4.10498E-03 6.35430E-04 1.22196E-15
 -1      1521 4.55741E-03 6.68322E-04 1.39572E-15
 -1      1522 4.41092E-03 6.67362E-04 1.35706E-15
 -1      1523 4.39600E-03 6.35323E-04 1.30050E-15
 -1      1524 4.85133E-03 6.72619E-04 1.47302E-15
 -1      1525 4.70424E-03 6.70067E-04 1.43430E-15
 -1      1526 4.68862E-03 6.37721E-04 1.37531E-15
 -1      1527 5.14562E-03 6.80695E-04 1.54935E-15
 -1      1528 4.99850E-03 6.76184E-04 1.51113E-15
 -1      1529 4.98216E-03 6.43591E-04 1.44890E-15
 -1      1530 5.43881E-03 6.92915E-04 1.62328E-15
 -1      1531 5.29246E-03 6.86341E-04 1.58626E-15
 -1      1532 5.27561E-03 6.53625E-04 1.52059E-15
 -1      1533 5.72903E-03 7.08812E-04 1.69831E-15
 -1      1534 5.58443E-03 7.00535E-04 1.66132E-15
 -1      1535 5.56755E-03 6.67911E-04 1.59162E-15
 -1      1536 6.01410E-03 7.26624E-04 1.76218E-15
 -1      1537 5.87236E-03 7.17708E-04 1.73207E-15
 -1      1538 5.85630E-03 6.85489E-04 1.65849E-15
 -1      1539 6.29190E-03 7.42900E-04 1.81708E-15
 -1      1540 6.15404E-03 7.35285E-04 1.79083E-15
 -1      1541 6.14000E-03 7.03872E-04 1.71505E-15
 -1      1542 6.56087E-03 7.52379E-04 1.86799E-15
 -1      1543 6.42757E-03 7.48895E-04 1.84220E-15
 -1      1544 6.41703E-03 7.18725E-04 1.76435E-15
 -1      1545 6.82056E-03 7.48411E-04 1.91551E-15
 -1      1546 6.69186E-03 7.52496E-04 1.89192E-15
 -1      1547 6.68644E-03 7.23955E-04 1.81235E-15
 -1      1548 7.07211E-03 7.24025E-04 1.96535E-15
 -1      1549 6.94723E-03 7.39113E-04 1.94056E-15
 -1      1550 6.94840E-03 7.12425E-04 1.85943E-15
 -1      1551 7.31832E-03 6.73490E-04 2.01178E-15
 -1      1552 7.19566E-03 7.02201E-04 1.98986E-15
 -1      1553 7.20448E-03 6.77335E-04 1.90519E-15
 -1      1554 7.56318E-03 5.93852E-04 2.05245E-15
 -1      1555 7.44064E-03 6.37260E-04 2.03230E-15
 -1      1556 7.45752E-03 6.13907E-04 1.94747E-15
 -1      1557 7.81101E-03 4.85804E-04 2.09309E-15
 -1      1558 7.68645E-03 5.43117E-04 2.07224E-15
 -1      1559 7.71111E-03 5.20756E-04 1.98585E-15
 -1      1560 8.06544E-03 3.53478E-04 2.13233E-15
 -1      1561 7.93720E-03 4.22270E-04 2.11349E-15
 -1      1562 7.96869E-03 4.00303E-04 2.02608E-15
 -1      1563 8.32870E-03 2.03246E-04 2.17103E-15
 -1      1564 8.19588E-03 2.80151E-04 2.15119E-15
 -1      1565 8.23278E-03 2.58048E-04 2.06252E-15
 -1      1566 8.60131E-03 4.21051E-05 2.20852E-15
 -1      1567 8.46385E-03 1.23639E-04 2.18929E-15
 -1      1568 8.50457E-03 1.01035E-04 2.09983E-15
 -1      1569 8.88239E-03-1.23742E-04 2.25060E-15
 -1      1570 8.74088E-03-4.05274E-05 2.22978E-15
 -1      1571 8.78390E-03-6.38013E-05 2.14031E-15
 -1      1572 9.17013E-03-2.89710E-04 2.30321E-15
 -1      1573 9.02556E-03-2.06892E-04 2.27510E-15
 -1      1574 9.06961E-03-2.30840E-04 2.18686E-15
 -1      1575 9.46243E-03-4.53017E-04 2.36380E-15
 -1      1576 9.31585E-03-3.71777E-04 2.33228E-15
 -1      1577 9.36001E-03-3.96296E-04 2.24031E-15
 -1      1578 9.75726E-03-6.12424E-04 2.43203E-15
 -1      1579 9.60965E-03-5.33218E-04 2.39699E-15
 -1      1580 9.65336E-03-5.58154E-04 2.30375E-15
 -1      1581 1.00530E-02-7.67789E-04 2.50639E-15
 -1      1582 9.90510E-03-6.90580E-04 2.46935E-15
 -1      1583 9.94810E-03-7.15774E-04 2.37383E-15
 -1      1584 1.03485E-02-9.19604E-04 2.58326E-15
 -1      1585 1.02008E-02-8.44090E-04 2.54376E-15
 -1      1586 1.02431E-02-8.69403E-04 2.44969E-15
 -1      1587 1.06430E-02-1.06864E-03 2.67043E-15
 -1      1588 1.04959E-02-9.94418E-04 2.62591E-15
 -1      1589 1.05374E-02-1.01975E-03 2.53218E-15
 -1      1590 1.09361E-02-1.21573E-03 2.76190E-15
 -1      1591 1.07897E-02-1.14238E-03 2.71498E-15
 -1      1592 1.08307E-02-1.16765E-03 2.61976E-15
 -1      1593 1.12278E-02-1.36158E-03 2.86452E-15
 -1      1594 1.10821E-02-1.28877E-03 2.81185E-15
 -1      1595 1.11227E-02-1.31394E-03 2.71655E-15
 -1      1596 1.15181E-02-1.50678E-03 2.96437E-15
 -1      1597 1.13731E-02-1.43423E-03 2.91404E-15
 -1      1598 1.14134E-02-1.45929E-03 2.81725E-15
 -1      1599 1.18073E-02-1.65177E-03 3.07493E-15
 -1      1600 1.16628E-02-1.57928E-03 3.01975E-15
 -1      1601 1.17030E-02-1.60422E-03 2.92310E-15
 -1      1602 1.20954E-02-1.79682E-03 3.19136E-15
 -1      1603 1.19514E-02-1.72427E-03 3.13324E-15
 -1      1604 1.19915E-02-1.74911E-03 3.03578E-15
 -1      1605 1.23827E-02-1.94213E-03 3.31748E-15
 -1      1606 1.22391E-02-1.86944E-03 3.25181E-15
 -1      1607 1.22792E-02-1.89418E-03 3.15506E-15
 -1      1608 1.26694E-02-2.08780E-03 3.44622E-15
 -1      1609 1.25261E-02-2.01492E-03 3.38092E-15
 -1      1610 1.25663E-02-2.03958E-03 3.28076E-15
 -1      1611 1.29556E-02-2.23385E-03 3.58871E-15
 -1      1612 1.28126E-02-2.16077E-03 3.51796E-15
 -1      1613 1.28528E-02-2.18537E-03 3.41839E-15
 -1      1614 1.32416E-02-2.38029E-03 3.72619E-15
 -1      1615 1.30987E-02-2.30702E-03 3.65864E-15
 -1      1616 1.31390E-02-2.33157E-03 3.55896E-15
 -1      1617 1.35274E-02-2.52709E-03 3.86117E-15
 -1      1618 1.33845E-02-2.45365E-03 3.79509E-15
 -1      1619 1.34249E-02-2.47816E-03 3.69404E-15
 -1      1620 1.38131E-02-2.67415E-03 3.98753E-15
 -1      1621 1.36703E-02-2.60059E-03 3.92495E-15
 -1      1622 1.37107E-02-2.62508E-03 3.82313E-15
 -1      1623 1.39807E-02-2.76171E-03 4.01472E-15
 -1      1624 1.41736E-02-2.87325E-03 3.68768E-15
 -1      1625 1.41012E-02-2.83111E-03 3.82074E-15
 -1      1626 1.43185E-02-2.95749E-03 3.43084E-15
 -1      1627 1.42460E-02-2.91538E-03 3.55839E-15
 -1      1628 1.40861E-02-2.83056E-03 3.57499E-15
 -1      1629 1.44637E-02-3.04162E-03 3.17529E-15
 -1      1630 1.43911E-02-2.99957E-03 3.30305E-15
 -1      1631 1.42311E-02-2.91472E-03 3.31926E-15
 -1      1632 1.46091E-02-3.12558E-03 2.92430E-15
 -1      1633 1.45364E-02-3.08362E-03 3.04791E-15
 -1      1634 1.43764E-02-2.99875E-03 3.06316E-15
 -1      1635 1.47522E-02-3.20794E-03 2.68672E-15
 -1      1636 1.46807E-02-3.16678E-03 2.80537E-15
 -1      1637 1.45206E-02-3.08190E-03 2.81230E-15
 -1      1638 1.48978E-02-3.29156E-03 2.43416E-15
 -1      1639 1.48250E-02-3.24977E-03 2.56206E-15
 -1      1640 1.46650E-02-3.16489E-03 2.56387E-15
 -1      1641 1.50433E-02-3.37505E-03 2.18253E-15
 -1      1642 1.49706E-02-3.33332E-03 2.31039E-15
 -1      1643 1.48106E-02-3.24843E-03 2.30982E-15
 -1      1644 1.51888E-02-3.45849E-03 1.92179E-15
 -1      1645 1.51161E-02-3.41677E-03 2.05332E-15
 -1      1646 1.49561E-02-3.33189E-03 2.05146E-15
 -1      1647 1.53341E-02-3.54196E-03 1.65684E-15
 -1      1648 1.52614E-02-3.50022E-03 1.78925E-15
 -1      1649 1.51015E-02-3.41531E-03 1.78731E-15
 -1      1650 1.54794E-02-3.62554E-03 1.40206E-15
 -1      1651 1.54068E-02-3.58373E-03 1.52721E-15
 -1      1652 1.52468E-02-3.49876E-03 1.52523E-15
 -1      1653 1.56223E-02-3.70785E-03 1.13334E-15
 -1      1654 1.55508E-02-3.66667E-03 1.27094E-15
 -1      1655 1.53909E-02-3.58162E-03 1.26543E-15
 -1      1656 1.57677E-02-3.79177E-03 8.54609E-16
 -1      1657 1.56950E-02-3.74979E-03 9.92248E-16
 -1      1658 1.55349E-02-3.66463E-03 9.98496E-16
 -1      1659 1.59134E-02-3.87587E-03 6.02789E-16
 -1      1660 1.58405E-02-3.83380E-03 7.24559E-16
 -1      1661 1.56804E-02-3.74852E-03 7.34100E-16
 -1      1662 1.60594E-02-3.96010E-03 3.64156E-16
 -1      1663 1.59864E-02-3.91798E-03 4.83703E-16
 -1      1664 1.58262E-02-3.83258E-03 4.83093E-16
 -1      1665 1.61976E-02-4.03926E-03 1.60299E-16
 -1      1666 1.61244E-02-3.99711E-03 2.76702E-16
 -1      1667 1.59641E-02-3.91163E-03 2.67947E-16
 -1      1668 1.60942E-02-3.98561E-03 8.57197E-17
 -1      1669 1.05565E-02-8.58113E-04-3.94663E-16
 -1      1670 1.06290E-02-9.08746E-04-4.59742E-16
 -1      1671 1.02778E-02-7.26453E-04-2.54401E-16
 -1      1672 1.04249E-02-7.95520E-04-3.16231E-16
 -1      1673 9.92384E-03-5.33264E-04-1.53198E-16
 -1      1674 1.00954E-02-6.14445E-04-1.97423E-16
 -1      1675 9.50793E-03-3.41693E-04-6.88062E-17
 -1      1676 9.70282E-03-4.35758E-04-1.03324E-16
 -1      1677 9.06650E-03-1.26842E-04-1.58294E-17
 -1      1678 9.27688E-03-2.24243E-04-3.92346E-17
 -1      1679 8.60345E-03 5.83442E-05 2.40964E-17
 -1      1680 8.80857E-03-2.31037E-05 1.16281E-17
 -1      1681 8.15909E-03 1.82696E-04 3.04661E-17
 -1      1682 8.35468E-03 1.37553E-04 3.48029E-17
 -1      1683 7.75612E-03 2.00309E-04-1.18449E-17
 -1      1684 7.93772E-03 2.01418E-04 6.80337E-18
 -1      1685 7.31805E-03 1.33212E-04-7.62736E-17
 -1      1686 7.52555E-03 1.74857E-04-4.44794E-17
 -1      1687 6.90996E-03 1.02713E-05-1.57453E-16
 -1      1688 7.09179E-03 7.10544E-05-1.17907E-16
 -1      1689 6.52047E-03-1.48703E-04-2.55492E-16
 -1      1690 6.70360E-03-7.44319E-05-2.04589E-16
 -1      1691 6.18315E-03-2.82862E-04-3.77543E-16
 -1      1692 6.32291E-03-2.21505E-04-3.23133E-16
 -1      1693 5.93651E-03-4.08093E-04-4.99688E-16
 -1      1694 6.04078E-03-3.54360E-04-4.41388E-16
 -1      1695 5.80049E-03-5.17134E-04-6.29054E-16
 -1      1696 5.84618E-03-4.69904E-04-5.68603E-16
 -1      1697 5.81940E-03-6.23888E-04-7.62540E-16
 -1      1698 5.78931E-03-5.74257E-04-7.01215E-16
 -1      1699 5.99408E-03-7.67374E-04-8.86301E-16
 -1      1700 5.89736E-03-7.01239E-04-8.32769E-16
 -1      1701 6.30050E-03-9.53737E-04-9.94479E-16
 -1      1702 6.14385E-03-8.60555E-04-9.46316E-16
 -1      1703 6.70553E-03-1.19691E-03-1.09653E-15
 -1      1704 6.50964E-03-1.07811E-03-1.04997E-15
 -1      1705 7.15792E-03-1.48261E-03-1.18010E-15
 -1      1706 6.94170E-03-1.35034E-03-1.14351E-15
 -1      1707 7.64563E-03-1.75627E-03-1.24073E-15
 -1      1708 7.42366E-03-1.63265E-03-1.21886E-15
 -1      1709 8.12625E-03-1.95782E-03-1.26524E-15
 -1      1710 7.90543E-03-1.87966E-03-1.25865E-15
 -1      1711 8.59162E-03-2.01367E-03-1.24737E-15
 -1      1712 8.37760E-03-2.00659E-03-1.25819E-15
 -1      1713 9.04379E-03-1.92630E-03-1.19517E-15
 -1      1714 8.83667E-03-1.98241E-03-1.22265E-15
 -1      1715 9.50489E-03-1.71446E-03-1.11676E-15
 -1      1716 9.28147E-03-1.82555E-03-1.16481E-15
 -1      1717 9.92331E-03-1.50503E-03-1.00858E-15
 -1      1718 9.75442E-03-1.59759E-03-1.05286E-15
 -1      1719 1.02463E-02-1.33118E-03-9.02348E-16
 -1      1720 1.01085E-02-1.40929E-03-9.51591E-16
 -1      1721 1.04930E-02-1.18322E-03-7.85474E-16
 -1      1722 1.03885E-02-1.24829E-03-8.41517E-16
 -1      1723 1.06429E-02-1.06283E-03-6.59466E-16
 -1      1724 1.05874E-02-1.11525E-03-7.17610E-16
 -1      1725 1.06705E-02-9.62762E-04-5.33292E-16
 -1      1726 1.06737E-02-1.00608E-03-5.90795E-16
 -1      1727 9.75255E-03-5.51564E-04-9.77069E-17
 -1      1728 1.06588E-02-9.55655E-04-4.84164E-16
 -1      1729 1.40212E-02-2.78619E-03 3.91085E-15
 -1      1730 1.39336E-02-2.74354E-03 3.79259E-15
 -1      1731 1.04842E-02-8.81765E-04-3.34480E-16
 -1      1732 1.01596E-02-7.48752E-04-2.02741E-16
 -1      1733 9.31440E-03-3.28491E-04-1.82553E-17
 -1      1734 8.85809E-03-9.05480E-05 3.98444E-17
 -1      1735 8.41816E-03 1.11419E-04 7.85776E-17
 -1      1736 8.03811E-03 2.19466E-04 6.86300E-17
 -1      1737 7.65826E-03 2.08046E-04 1.51246E-17
 -1      1738 7.25794E-03 1.03579E-04-5.57280E-17
 -1      1739 6.85688E-03-5.96019E-05-1.41285E-16
 -1      1740 6.47019E-03-2.27483E-04-2.50329E-16
 -1      1741 6.13171E-03-3.65266E-04-3.77165E-16
 -1      1742 5.89044E-03-4.68787E-04-5.06309E-16
 -1      1743 5.78359E-03-5.41938E-04-6.45717E-16
 -1      1744 5.85453E-03-6.15796E-04-7.89079E-16
 -1      1745 6.09182E-03-7.45849E-04-9.22541E-16
 -1      1746 6.45859E-03-9.38782E-04-1.04330E-15
 -1      1747 6.90239E-03-1.21107E-03-1.15000E-15
 -1      1748 7.38116E-03-1.52731E-03-1.23913E-15
 -1      1749 7.84907E-03-1.82463E-03-1.29833E-15
 -1      1750 8.28091E-03-2.01218E-03-1.31148E-15
 -1      1751 8.69499E-03-2.02647E-03-1.27990E-15
 -1      1752 9.11990E-03-1.87926E-03-1.22363E-15
 -1      1753 9.55066E-03-1.63382E-03-1.12733E-15
 -1      1754 9.95973E-03-1.40957E-03-1.00549E-15
 -1      1755 1.02863E-02-1.23757E-03-8.87335E-16
 -1      1756 1.05316E-02-1.10999E-03-7.59716E-16
 -1      1757 1.06652E-02-1.02117E-03-6.24446E-16
 -1      1758 2.84906E-04-1.75915E-04-1.79164E-17
 -1      1759 3.32220E-04-1.16324E-04-1.24006E-17
 -1      1760 3.36260E-04-1.32531E-04-1.49891E-17
 -1      1761 3.42132E-04-1.51539E-04-1.74421E-17
 -1      1762 3.51594E-04-1.73548E-04-1.99764E-17
 -1      1763 4.58269E-04-1.87354E-04-2.25921E-17
 -1      1764 3.24743E-04-6.49655E-05-3.26616E-18
 -1      1765 3.25878E-04-7.62321E-05-5.39391E-18
 -1      1766 3.23264E-04-4.35587E-05 1.07065E-18
 -1      1767 3.23914E-04-5.39987E-05-1.13841E-18
 -1      1768 4.36738E-04-7.87171E-05-2.96800E-18
 -1      1769 3.22475E-04-2.35663E-05 4.93312E-18
 -1      1770 3.22810E-04-3.34124E-05 2.95445E-18
 -1      1771 4.34740E-04-5.08905E-05 2.77827E-18
 -1      1772 3.22172E-04-4.28295E-06 8.32125E-18
 -1      1773 3.22273E-04-1.38574E-05 6.74916E-18
 -1      1774 4.33705E-04-2.46893E-05 8.21283E-18
 -1      1775 3.22288E-04 1.48768E-05 1.21295E-17
 -1      1776 3.22177E-04 5.29336E-06 1.00560E-17
 -1      1777 4.33394E-04 7.72961E-07 1.34170E-17
 -1      1778 3.22849E-04 3.44799E-05 1.59784E-17
 -1      1779 3.22500E-04 2.46044E-05 1.39862E-17
 -1      1780 4.33744E-04 2.62618E-05 1.86618E-17
 -1      1781 3.23969E-04 5.48018E-05 2.03152E-17
 -1      1782 3.23312E-04 4.44928E-05 1.80926E-17
 -1      1783 4.34819E-04 5.23196E-05 2.44081E-17
 -1      1784 3.26001E-04 7.73744E-05 2.48282E-17
 -1      1785 3.24820E-04 6.58280E-05 2.23210E-17
 -1      1786 4.36868E-04 8.00431E-05 3.03983E-17
 -1      1787 3.29643E-04 1.03170E-04 3.00866E-17
 -1      1788 3.27518E-04 8.98395E-05 2.72948E-17
 -1      1789 4.40481E-04 1.10911E-04 3.70662E-17
 -1      1790 3.36629E-04 1.34647E-04 3.55754E-17
 -1      1791 3.32513E-04 1.18120E-04 3.28242E-17
 -1      1792 4.46915E-04 1.46631E-04 4.45878E-17
 -1      1793 3.52094E-04 1.77088E-04 4.04814E-17
 -1      1794 3.42715E-04 1.54252E-04 3.79471E-17
 -1      1795 4.59242E-04 1.90704E-04 5.21230E-17
 -1      1796 4.07316E-04 2.33112E-04 4.68511E-17
 -1      1797 3.77822E-04 2.02139E-04 4.38153E-17
 -1      1798 4.95604E-04 2.43230E-04 5.99293E-17
 -1      1799 5.58052E-04 3.01626E-04 6.92263E-17
 -1      1800 3.39734E-04-1.90486E-04-2.08980E-17
 -1      1801 8.52950E-04 4.05465E-04 1.28071E-16
 -1      1802 7.06595E-04 3.58114E-04 9.67379E-17
 -1      1803 6.73002E-04 3.27612E-04 9.06529E-17
 -1      1804 4.58655E-04-2.36053E-04-2.81215E-17
 -1      1805 8.06696E-04-3.72575E-04-5.92245E-17
 -1      1806 9.51912E-04-4.13291E-04-7.46202E-17
 -1      1807 1.09473E-03-4.47444E-04-9.13440E-17
 -1      1808 1.23640E-03-4.75737E-04-1.09139E-16
 -1      1809 1.00360E-03-3.95664E-04-7.49455E-17
 -1      1810 1.37685E-03-4.99536E-04-1.27977E-16
 -1      1811 1.51663E-03-5.19136E-04-1.47966E-16
 -1      1812 1.28936E-03-4.52409E-04-1.07404E-16
 -1      1813 1.65594E-03-5.35441E-04-1.68959E-16
 -1      1814 1.79498E-03-5.48682E-04-1.90779E-16
 -1      1815 1.57198E-03-4.91794E-04-1.43589E-16
 -1      1816 1.94093E-03-5.59931E-04-2.14686E-16
 -1      1817 2.08692E-03-5.68692E-04-2.39826E-16
 -1      1818 1.86004E-03-5.18883E-04-1.84640E-16
 -1      1819 2.22616E-03-5.75128E-04-2.65020E-16
 -1      1820 2.36564E-03-5.79878E-04-2.91068E-16
 -1      1821 2.14768E-03-5.35961E-04-2.29553E-16
 -1      1822 2.50547E-03-5.83203E-04-3.18918E-16
 -1      1823 2.64566E-03-5.85244E-04-3.47568E-16
 -1      1824 2.42871E-03-5.45369E-04-2.77651E-16
 -1      1825 2.78631E-03-5.86174E-04-3.77790E-16
 -1      1826 2.92743E-03-5.86111E-04-4.09463E-16
 -1      1827 2.71068E-03-5.49316E-04-3.31075E-16
 -1      1828 3.06909E-03-5.85166E-04-4.41623E-16
 -1      1829 3.21134E-03-5.83440E-04-4.75490E-16
 -1      1830 2.99400E-03-5.49027E-04-3.89093E-16
 -1      1831 3.35421E-03-5.80996E-04-5.10009E-16
 -1      1832 3.49780E-03-5.77928E-04-5.45435E-16
 -1      1833 3.27902E-03-5.45387E-04-4.51475E-16
 -1      1834 3.64213E-03-5.74268E-04-5.81769E-16
 -1      1835 3.78734E-03-5.70113E-04-6.18957E-16
 -1      1836 3.56608E-03-5.39045E-04-5.17151E-16
 -1      1837 3.94076E-03-5.65240E-04-6.59222E-16
 -1      1838 4.09542E-03-5.59978E-04-6.99717E-16
 -1      1839 3.86283E-03-5.30275E-04-5.88085E-16
 -1      1840 4.24381E-03-5.54642E-04-7.39629E-16
 -1      1841 4.39366E-03-5.49158E-04-7.80639E-16
 -1      1842 4.16263E-03-5.19760E-04-6.61919E-16
 -1      1843 4.54483E-03-5.43631E-04-8.23668E-16
 -1      1844 4.69787E-03-5.38309E-04-8.67172E-16
 -1      1845 4.45864E-03-5.08553E-04-7.39643E-16
 -1      1846 4.85253E-03-5.33467E-04-9.12749E-16
 -1      1847 5.00960E-03-5.29501E-04-9.60657E-16
 -1      1848 4.75877E-03-4.97674E-04-8.21785E-16
 -1      1849 5.16867E-03-5.27024E-04-1.01042E-15
 -1      1850 5.33078E-03-5.26706E-04-1.06145E-15
 -1      1851 5.06382E-03-4.89477E-04-9.10933E-16
 -1      1852 5.49542E-03-5.29763E-04-1.11322E-15
 -1      1853 5.66377E-03-5.37381E-04-1.16542E-15
 -1      1854 5.37479E-03-4.88385E-04-1.00543E-15
 -1      1855 5.83549E-03-5.51683E-04-1.21671E-15
 -1      1856 6.01163E-03-5.74890E-04-1.26728E-15
 -1      1857 5.69330E-03-5.02429E-04-1.10342E-15
 -1      1858 6.19272E-03-6.10144E-04-1.31740E-15
 -1      1859 6.37893E-03-6.61470E-04-1.36523E-15
 -1      1860 6.02283E-03-5.45563E-04-1.19905E-15
 -1      1861 6.58294E-03-7.36633E-04-1.41407E-15
 -1      1862 6.79331E-03-8.40703E-04-1.45942E-15
 -1      1863 6.38017E-03-6.43947E-04-1.29358E-15
 -1      1864 7.00589E-03-9.68267E-04-1.49766E-15
 -1      1865 7.22287E-03-1.12987E-03-1.53047E-15
 -1      1866 6.77280E-03-8.33080E-04-1.37681E-15
 -1      1867 7.42950E-03-1.29931E-03-1.55702E-15
 -1      1868 7.63497E-03-1.48897E-03-1.57726E-15
 -1      1869 7.18377E-03-1.12392E-03-1.43772E-15
 -1      1870 7.88022E-03-1.71446E-03-1.61397E-15
 -1      1871 8.09079E-03-1.90061E-03-1.62144E-15
 -1      1872 8.28573E-03-2.04447E-03-1.61928E-15
 -1      1873 8.47638E-03-2.12352E-03-1.61102E-15
 -1      1874 8.66677E-03-2.13378E-03-1.59375E-15
 -1      1875 8.88139E-03-2.07264E-03-1.56667E-15
 -1      1876 9.09590E-03-1.95429E-03-1.53322E-15
 -1      1877 9.31101E-03-1.82164E-03-1.50216E-15
 -1      1878 9.54147E-03-1.68313E-03-1.46469E-15
 -1      1879 9.76565E-03-1.56417E-03-1.42854E-15
 -1      1880 9.47961E-03-1.68376E-03-1.38875E-15
 -1      1881 9.98772E-03-1.47696E-03-1.39268E-15
 -1      1882 1.01979E-02-1.41925E-03-1.36012E-15
 -1      1883 9.93740E-03-1.45246E-03-1.31938E-15
 -1      1884 1.04029E-02-1.39263E-03-1.32968E-15
 -1      1885 1.05983E-02-1.39077E-03-1.29862E-15
 -1      1886 1.03500E-02-1.35038E-03-1.25529E-15
 -1      1887 1.07882E-02-1.41048E-03-1.27075E-15
 -1      1888 1.09716E-02-1.44647E-03-1.24350E-15
 -1      1889 1.07221E-02-1.35632E-03-1.19739E-15
 -1      1890 1.11502E-02-1.49507E-03-1.21775E-15
 -1      1891 1.13245E-02-1.55319E-03-1.19636E-15
 -1      1892 1.10683E-02-1.43319E-03-1.14569E-15
 -1      1893 1.14945E-02-1.61805E-03-1.17992E-15
 -1      1894 1.16615E-02-1.68795E-03-1.16049E-15
 -1      1895 1.13989E-02-1.55151E-03-1.10205E-15
 -1      1896 1.18330E-02-1.76492E-03-1.13832E-15
 -1      1897 1.20019E-02-1.84450E-03-1.12128E-15
 -1      1898 1.17269E-02-1.69589E-03-1.06226E-15
 -1      1899 1.21599E-02-1.92177E-03-1.10469E-15
 -1      1900 1.23161E-02-1.99996E-03-1.08485E-15
 -1      1901 1.20468E-02-1.85172E-03-1.02381E-15
 -1      1902 1.24702E-02-2.07866E-03-1.06770E-15
 -1      1903 1.26228E-02-2.15757E-03-1.04982E-15
 -1      1904 1.23527E-02-2.00841E-03-9.86990E-16
 -1      1905 1.27739E-02-2.23653E-03-1.03179E-15
 -1      1906 1.29238E-02-2.31536E-03-1.01544E-15
 -1      1907 1.26537E-02-2.16648E-03-9.48907E-16
 -1      1908 1.30726E-02-2.39402E-03-9.97723E-16
 -1      1909 1.32205E-02-2.47241E-03-9.81000E-16
 -1      1910 1.29509E-02-2.32435E-03-9.12288E-16
 -1      1911 1.33676E-02-2.55054E-03-9.63178E-16
 -1      1912 1.35140E-02-2.62835E-03-9.44828E-16
 -1      1913 1.32450E-02-2.48131E-03-8.76550E-16
 -1      1914 1.36599E-02-2.70589E-03-9.23998E-16
 -1      1915 1.38052E-02-2.78311E-03-8.98980E-16
 -1      1916 1.35368E-02-2.63708E-03-8.35866E-16
 -1      1917 1.39574E-02-2.86389E-03-8.71034E-16
 -1      1918 1.41091E-02-2.94437E-03-8.39877E-16
 -1      1919 1.38341E-02-2.79547E-03-7.82645E-16
 -1      1920 1.42533E-02-3.02075E-03-8.06186E-16
 -1      1921 1.43973E-02-3.09688E-03-7.65311E-16
 -1      1922 1.41301E-02-2.95266E-03-7.20900E-16
 -1      1923 1.45411E-02-3.17279E-03-7.20927E-16
 -1      1924 1.46846E-02-3.24848E-03-6.70457E-16
 -1      1925 1.44178E-02-3.10498E-03-6.40276E-16
 -1      1926 1.48281E-02-3.32398E-03-6.16532E-16
 -1      1927 1.49714E-02-3.39930E-03-5.60099E-16
 -1      1928 1.47049E-02-3.25641E-03-5.38998E-16
 -1      1929 1.51145E-02-3.47445E-03-4.95006E-16
 -1      1930 1.52577E-02-3.54944E-03-4.24614E-16
 -1      1931 1.49915E-02-3.40706E-03-4.20589E-16
 -1      1932 1.54007E-02-3.62431E-03-3.47460E-16
 -1      1933 1.55437E-02-3.69904E-03-2.68245E-16
 -1      1934 1.52777E-02-3.55708E-03-2.79128E-16
 -1      1935 1.56866E-02-3.77367E-03-1.89546E-16
 -1      1936 1.58295E-02-3.84821E-03-1.02782E-16
 -1      1937 1.55637E-02-3.70656E-03-1.24046E-16
 -1      1938 1.59908E-02-3.93195E-03 9.18861E-18
 -1      1939 1.35781E-03 5.08542E-04 2.62025E-16
 -1      1940 1.21773E-03 4.84099E-04 2.21204E-16
 -1      1941 1.63589E-03 5.45968E-04 3.49886E-16
 -1      1942 1.49708E-03 5.29071E-04 3.05094E-16
 -1      1943 1.41088E-03 4.83450E-04 2.69736E-16
 -1      1944 1.91296E-03 5.71336E-04 4.43100E-16
 -1      1945 1.77447E-03 5.59982E-04 3.96032E-16
 -1      1946 1.69180E-03 5.17428E-04 3.54358E-16
 -1      1947 2.19028E-03 5.87771E-04 5.39689E-16
 -1      1948 2.05155E-03 5.80533E-04 4.90981E-16
 -1      1949 1.97171E-03 5.40179E-04 4.44076E-16
 -1      1950 2.46862E-03 5.97592E-04 6.37633E-16
 -1      1951 2.32930E-03 5.93401E-04 5.88437E-16
 -1      1952 2.25162E-03 5.54601E-04 5.36531E-16
 -1      1953 2.74841E-03 6.02569E-04 7.34601E-16
 -1      1954 2.60832E-03 6.00600E-04 6.86246E-16
 -1      1955 2.53220E-03 5.62868E-04 6.29772E-16
 -1      1956 3.02994E-03 6.04102E-04 8.30851E-16
 -1      1957 2.88896E-03 6.03695E-04 7.83065E-16
 -1      1958 2.81385E-03 5.66652E-04 7.22119E-16
 -1      1959 3.31335E-03 6.03348E-04 9.25217E-16
 -1      1960 3.17141E-03 6.03949E-04 8.78258E-16
 -1      1961 3.09687E-03 5.67285E-04 8.12975E-16
 -1      1962 3.59874E-03 6.01333E-04 1.01620E-15
 -1      1963 3.45580E-03 6.02442E-04 9.71215E-16
 -1      1964 3.38141E-03 5.65881E-04 9.01758E-16
 -1      1965 3.88611E-03 5.99032E-04 1.10251E-15
 -1      1966 3.74218E-03 6.00163E-04 1.06002E-15
 -1      1967 3.66760E-03 5.63444E-04 9.86841E-16
 -1      1968 4.17541E-03 5.97437E-04 1.18231E-15
 -1      1969 4.03053E-03 5.98090E-04 1.14320E-15
 -1      1970 3.95549E-03 5.60946E-04 1.06672E-15
 -1      1971 4.46647E-03 5.97589E-04 1.25598E-15
 -1      1972 4.32075E-03 5.97238E-04 1.21988E-15
 -1      1973 4.24509E-03 5.59393E-04 1.14069E-15
 -1      1974 4.75895E-03 6.00549E-04 1.32746E-15
 -1      1975 4.61258E-03 5.98665E-04 1.29172E-15
 -1      1976 4.53631E-03 5.59845E-04 1.20997E-15
 -1      1977 5.05226E-03 6.07280E-04 1.39689E-15
 -1      1978 4.90557E-03 6.03404E-04 1.36212E-15
 -1      1979 4.82891E-03 5.63378E-04 1.27716E-15
 -1      1980 5.34555E-03 6.18423E-04 1.46304E-15
 -1      1981 5.19901E-03 6.12292E-04 1.43027E-15
 -1      1982 5.12249E-03 5.70949E-04 1.34154E-15
 -1      1983 5.63764E-03 6.33918E-04 1.53036E-15
 -1      1984 5.49188E-03 6.25673E-04 1.49701E-15
 -1      1985 5.41637E-03 5.83135E-04 1.40442E-15
 -1      1986 5.92708E-03 6.52533E-04 1.58863E-15
 -1      1987 5.78284E-03 6.42966E-04 1.56091E-15
 -1      1988 5.70956E-03 5.99728E-04 1.46440E-15
 -1      1989 6.21232E-03 6.71372E-04 1.64003E-15
 -1      1990 6.07037E-03 6.62163E-04 1.61511E-15
 -1      1991 6.00080E-03 6.19224E-04 1.51703E-15
 -1      1992 6.49198E-03 6.85584E-04 1.68786E-15
 -1      1993 6.35295E-03 6.79405E-04 1.66449E-15
 -1      1994 6.28862E-03 6.38312E-04 1.56475E-15
 -1      1995 6.76529E-03 6.88563E-04 1.73207E-15
 -1      1996 6.62944E-03 6.88903E-04 1.71011E-15
 -1      1997 6.57168E-03 6.51618E-04 1.60854E-15
 -1      1998 7.03252E-03 6.72849E-04 1.77674E-15
 -1      1999 6.89955E-03 6.83469E-04 1.75463E-15
 -1      2000 6.84921E-03 6.52013E-04 1.65112E-15
 -1      2001 7.29520E-03 6.31696E-04 1.81958E-15
 -1      2002 7.16419E-03 6.55772E-04 1.79831E-15
 -1      2003 7.12148E-03 6.31712E-04 1.69240E-15
 -1      2004 7.55598E-03 5.60871E-04 1.85831E-15
 -1      2005 7.42552E-03 6.00113E-04 1.83924E-15
 -1      2006 7.39006E-03 5.84069E-04 1.73204E-15
 -1      2007 7.81801E-03 4.59927E-04 1.89645E-15
 -1      2008 7.68654E-03 5.14046E-04 1.87801E-15
 -1      2009 7.65759E-03 5.05491E-04 1.76874E-15
 -1      2010 8.08412E-03 3.32346E-04 1.93171E-15
 -1      2011 7.95033E-03 3.99149E-04 1.91351E-15
 -1      2012 7.92703E-03 3.96587E-04 1.80349E-15
 -1      2013 8.35614E-03 1.84459E-04 1.96841E-15
 -1      2014 8.21929E-03 2.60516E-04 1.95024E-15
 -1      2015 8.20077E-03 2.61967E-04 1.83768E-15
 -1      2016 8.63462E-03 2.36986E-05 2.00545E-15
 -1      2017 8.49459E-03 1.05261E-04 1.98730E-15
 -1      2018 8.48003E-03 1.08785E-04 1.87346E-15
 -1      2019 8.91903E-03-1.43067E-04 2.04822E-15
 -1      2020 8.77619E-03-5.92839E-05 2.02704E-15
 -1      2021 8.76475E-03-5.52251E-05 1.91256E-15
 -1      2022 9.20810E-03-3.10594E-04 2.09549E-15
 -1      2023 9.06312E-03-2.26976E-04 2.07042E-15
 -1      2024 9.05398E-03-2.23379E-04 1.95601E-15
 -1      2025 9.50034E-03-4.75588E-04 2.14835E-15
 -1      2026 9.35397E-03-3.93541E-04 2.12010E-15
 -1      2027 9.34632E-03-3.90909E-04 2.00240E-15
 -1      2028 9.79431E-03-6.36489E-04 2.21357E-15
 -1      2029 9.64723E-03-5.56600E-04 2.18154E-15
 -1      2030 9.64039E-03-5.55065E-04 2.05643E-15
 -1      2031 1.00888E-02-7.92998E-04 2.28561E-15
 -1      2032 9.94160E-03-7.15287E-04 2.24794E-15
 -1      2033 9.93505E-03-7.14757E-04 2.12420E-15
 -1      2034 1.03831E-02-9.45579E-04 2.36214E-15
 -1      2035 1.02361E-02-8.69745E-04 2.32334E-15
 -1      2036 1.02295E-02-8.70013E-04 2.19592E-15
 -1      2037 1.06765E-02-1.09504E-03 2.44658E-15
 -1      2038 1.05299E-02-1.02065E-03 2.40294E-15
 -1      2039 1.05231E-02-1.02148E-03 2.27613E-15
 -1      2040 1.09689E-02-1.24228E-03 2.53495E-15
 -1      2041 1.08229E-02-1.16889E-03 2.48964E-15
 -1      2042 1.08157E-02-1.17006E-03 2.36067E-15
 -1      2043 1.12600E-02-1.38809E-03 2.63437E-15
 -1      2044 1.11146E-02-1.31533E-03 2.58449E-15
 -1      2045 1.11072E-02-1.31666E-03 2.45348E-15
 -1      2046 1.15501E-02-1.53314E-03 2.73497E-15
 -1      2047 1.14052E-02-1.46068E-03 2.68458E-15
 -1      2048 1.13976E-02-1.46204E-03 2.55125E-15
 -1      2049 1.18391E-02-1.67790E-03 2.84266E-15
 -1      2050 1.16947E-02-1.60553E-03 2.78716E-15
 -1      2051 1.16869E-02-1.60682E-03 2.65296E-15
 -1      2052 1.21272E-02-1.82270E-03 2.95574E-15
 -1      2053 1.19833E-02-1.75028E-03 2.89884E-15
 -1      2054 1.19754E-02-1.75145E-03 2.76106E-15
 -1      2055 1.24147E-02-1.96776E-03 3.07827E-15
 -1      2056 1.22710E-02-1.89519E-03 3.01517E-15
 -1      2057 1.22631E-02-1.89622E-03 2.87553E-15
 -1      2058 1.27015E-02-2.11319E-03 3.20487E-15
 -1      2059 1.25582E-02-2.04043E-03 3.14087E-15
 -1      2060 1.25503E-02-2.04130E-03 2.99908E-15
 -1      2061 1.29880E-02-2.25904E-03 3.34461E-15
 -1      2062 1.28448E-02-2.18606E-03 3.27318E-15
 -1      2063 1.28370E-02-2.18678E-03 3.12872E-15
 -1      2064 1.32741E-02-2.40531E-03 3.48051E-15
 -1      2065 1.31311E-02-2.33213E-03 3.41188E-15
 -1      2066 1.31233E-02-2.33271E-03 3.26624E-15
 -1      2067 1.35601E-02-2.55197E-03 3.61450E-15
 -1      2068 1.34171E-02-2.47860E-03 3.54889E-15
 -1      2069 1.34094E-02-2.47906E-03 3.40179E-15
 -1      2070 1.38183E-02-2.68447E-03 3.73574E-15
 -1      2071 1.36754E-02-2.61095E-03 3.67440E-15
 -1      2072 1.36677E-02-2.61132E-03 3.53014E-15
 -1      2073 1.38984E-02-2.72936E-03 3.64704E-15
 -1      2074 1.42891E-02-2.95591E-03 2.94467E-15
 -1      2075 1.42163E-02-2.91397E-03 3.07446E-15
 -1      2076 1.41437E-02-2.87197E-03 3.20379E-15
 -1      2077 1.40711E-02-2.82995E-03 3.33064E-15
 -1      2078 1.40563E-02-2.82926E-03 3.08468E-15
 -1      2079 1.39708E-02-2.77146E-03 3.51937E-15
 -1      2080 1.44321E-02-3.03826E-03 2.69592E-15
 -1      2081 1.43606E-02-2.99711E-03 2.82195E-15
 -1      2082 1.42006E-02-2.91241E-03 2.82940E-15
 -1      2083 1.45778E-02-3.12187E-03 2.44016E-15
 -1      2084 1.45050E-02-3.08008E-03 2.56868E-15
 -1      2085 1.43449E-02-2.99536E-03 2.57579E-15
 -1      2086 1.47234E-02-3.20533E-03 2.18018E-15
 -1      2087 1.46506E-02-3.16361E-03 2.30974E-15
 -1      2088 1.44906E-02-3.07886E-03 2.31394E-15
 -1      2089 1.48689E-02-3.28872E-03 1.91622E-15
 -1      2090 1.47962E-02-3.24703E-03 2.04897E-15
 -1      2091 1.46362E-02-3.16223E-03 2.04975E-15
 -1      2092 1.50143E-02-3.37208E-03 1.65250E-15
 -1      2093 1.49416E-02-3.33039E-03 1.78430E-15
 -1      2094 1.47817E-02-3.24552E-03 1.78408E-15
 -1      2095 1.51595E-02-3.45549E-03 1.39096E-15
 -1      2096 1.50869E-02-3.41378E-03 1.52137E-15
 -1      2097 1.49270E-02-3.32880E-03 1.52119E-15
 -1      2098 1.53023E-02-3.53761E-03 1.13066E-15
 -1      2099 1.52309E-02-3.49653E-03 1.26155E-15
 -1      2100 1.50710E-02-3.41144E-03 1.25883E-15
 -1      2101 1.54476E-02-3.62129E-03 8.65627E-16
 -1      2102 1.53750E-02-3.57943E-03 9.99011E-16
 -1      2103 1.52150E-02-3.49421E-03 9.98360E-16
 -1      2104 1.55932E-02-3.70516E-03 6.09742E-16
 -1      2105 1.55204E-02-3.66321E-03 7.37515E-16
 -1      2106 1.53603E-02-3.57787E-03 7.39317E-16
 -1      2107 1.57390E-02-3.78920E-03 3.53735E-16
 -1      2108 1.56660E-02-3.74716E-03 4.79556E-16
 -1      2109 1.55059E-02-3.66172E-03 4.80058E-16
 -1      2110 1.10733E-03 4.66133E-04 1.91280E-16
 -1      2111 9.64984E-04 4.32260E-04 1.54689E-16
 -1      2112 9.32930E-04 4.02876E-04 1.45907E-16
 -1      2113 1.15782E-03 4.45157E-04 2.00645E-16
 -1      2114 1.00109E-02-7.52348E-04-1.38270E-16
 -1      2115 1.01997E-02-8.35235E-04-1.93057E-16
 -1      2116 9.13867E-03-3.01492E-04 4.03188E-17
 -1      2117 9.34873E-03-4.25619E-04 1.05574E-17
 -1      2118 1.06421E-02-9.71147E-04-4.40193E-16
 -1      2119 1.06830E-02-9.86418E-04-5.11340E-16
 -1      2120 9.61321E-03-5.68259E-04-3.76083E-17
 -1      2121 9.82084E-03-6.65003E-04-8.69462E-17
 -1      2122 9.89170E-03-7.49928E-04-7.70868E-17
 -1      2123 3.27355E-04-8.85187E-05-7.50810E-18
 -1      2124 3.29430E-04-1.01688E-04-1.01373E-17
 -1      2125 4.46468E-04-1.44427E-04-1.57209E-17
 -1      2126 4.40246E-04-1.09293E-04-9.06664E-18
 -1      2127 8.70996E-03-5.37216E-05 9.71174E-17
 -1      2128 8.91769E-03-1.72291E-04 6.83589E-17
 -1      2129 8.29622E-03 1.53451E-04 1.43060E-16
 -1      2130 8.47615E-03 6.48919E-05 1.30728E-16
 -1      2131 7.92496E-03 2.46942E-04 1.12405E-16
 -1      2132 8.07872E-03 2.25325E-04 1.33682E-16
 -1      2133 7.57982E-03 2.06364E-04 6.64074E-17
 -1      2134 7.74101E-03 2.41707E-04 9.51930E-17
 -1      2135 7.20375E-03 6.67643E-05-1.75370E-17
 -1      2136 7.38179E-03 1.43092E-04 2.01933E-17
 -1      2137 6.80960E-03-1.15298E-04-1.15779E-16
 -1      2138 6.99557E-03-2.40153E-05-7.23705E-17
 -1      2139 6.39720E-03-2.99013E-04-2.38816E-16
 -1      2140 6.57744E-03-2.24285E-04-1.77159E-16
 -1      2141 6.09355E-03-4.13015E-04-3.59603E-16
 -1      2142 6.23887E-03-3.60235E-04-2.99951E-16
 -1      2143 6.32779E-03-3.38515E-04-2.26219E-16
 -1      2144 5.84948E-03-4.94415E-04-5.07388E-16
 -1      2145 5.94270E-03-4.65561E-04-4.40998E-16
 -1      2146 5.77500E-03-5.33218E-04-6.52863E-16
 -1      2147 5.78723E-03-5.19949E-04-5.80882E-16
 -1      2148 5.90971E-03-6.03319E-04-8.24858E-16
 -1      2149 5.82534E-03-5.68086E-04-7.52636E-16
 -1      2150 6.19523E-03-7.13833E-04-9.64000E-16
 -1      2151 6.04089E-03-6.51663E-04-8.99727E-16
 -1      2152 6.60932E-03-9.29991E-04-1.09688E-15
 -1      2153 6.40275E-03-8.20778E-04-1.03620E-15
 -1      2154 7.08658E-03-1.24156E-03-1.21359E-15
 -1      2155 6.86382E-03-1.08923E-03-1.16300E-15
 -1      2156 7.55931E-03-1.57135E-03-1.31373E-15
 -1      2157 7.34054E-03-1.40841E-03-1.27178E-15
 -1      2158 8.00660E-03-1.89357E-03-1.37377E-15
 -1      2159 7.81469E-03-1.75686E-03-1.35336E-15
 -1      2160 8.39416E-03-2.07112E-03-1.41537E-15
 -1      2161 8.23597E-03-2.01489E-03-1.42087E-15
 -1      2162 8.80508E-03-2.03641E-03-1.37222E-15
 -1      2163 8.65084E-03-2.07982E-03-1.39816E-15
 -1      2164 9.63870E-03-1.54169E-03-1.13150E-15
 -1      2165 9.43465E-03-1.66977E-03-1.19611E-15
 -1      2166 1.00176E-02-1.32707E-03-1.00359E-15
 -1      2167 9.84654E-03-1.42186E-03-1.06097E-15
 -1      2168 1.03194E-02-1.17917E-03-8.81331E-16
 -1      2169 1.01743E-02-1.24832E-03-9.41765E-16
 -1      2170 1.00809E-02-1.27328E-03-9.97005E-16
 -1      2171 1.05723E-02-1.06530E-03-7.33582E-16
 -1      2172 1.04729E-02-1.10596E-03-8.00403E-16
 -1      2173 1.06834E-02-1.00810E-03-5.92832E-16
 -1      2174 1.06472E-02-1.02940E-03-6.60323E-16
 -1      2175 1.04170E-02-9.08653E-04-2.81920E-16
 -1      2176 1.05479E-02-9.40480E-04-3.57810E-16
 -1      2177 8.13025E-03-1.94234E-03-1.53249E-15
 -1      2178 6.07496E-04-2.97125E-04-3.98444E-17
 -1      2179 8.55830E-03-2.11233E-03-1.51360E-15
 -1      2180 8.98984E-03-2.56653E-04 9.83913E-17
 -1      2181 6.63373E-04-2.91240E-04-4.15114E-17
 -1      2182 7.65609E-03-1.53737E-03-1.49902E-15
 -1      2183 9.00397E-03-1.97543E-03-1.46045E-15
 -1      2184 1.58679E-02-3.86492E-03 6.48353E-17
 -1      2185 1.38833E-02-2.72883E-03 3.40167E-15
 -1      2186 1.06031E-02-9.80511E-04-3.85854E-16
 -1      2187 1.58359E-02-3.84553E-03 1.63620E-16
 -1      2188 1.57709E-02-3.80857E-03 2.60439E-16
 -1      2189 1.56107E-02-3.72306E-03 2.53473E-16
 -1      2190 1.56746E-02-3.76177E-03 5.74221E-17
 -1      2191 1.01887E-02-8.92362E-04-1.50758E-16
 -1      2192 1.03053E-02-9.03672E-04-2.15309E-16
 -1      2193 1.03966E-02-9.52279E-04-2.38774E-16
 -1      2194 9.45372E-03-5.28848E-04 2.16840E-17
 -1      2195 1.06931E-02-1.00617E-03-5.48340E-16
 -1      2196 1.03914E-02-1.12936E-03-8.55402E-16
 -1      2197 9.73659E-03-1.46708E-03-1.12912E-15
 -1      2198 7.72391E-03-1.65361E-03-1.38862E-15
 -1      2199 7.25659E-03-1.29541E-03-1.28604E-15
 -1      2200 6.76657E-03-9.71156E-04-1.15824E-15
 -1      2201 6.31332E-03-7.21788E-04-1.01571E-15
 -1      2202 5.98153E-03-5.91966E-04-8.65940E-16
 -1      2203 5.78915E-03-5.29476E-04-6.90657E-16
 -1      2204 6.02018E-03-4.43516E-04-3.65652E-16
 -1      2205 6.69887E-03-1.77261E-04-1.10006E-16
 -1      2206 7.11880E-03 2.41415E-05 4.16063E-18
 -1      2207 7.48273E-03 1.83416E-04 1.01021E-16
 -1      2208 7.81041E-03 2.56348E-04 1.61221E-16
 -1      2209 8.56467E-03-2.34990E-06 1.61004E-16
 -1      2210 8.16524E-03 2.00468E-04 1.85941E-16
 -1      2211 8.23778E-03 1.60117E-04 2.38362E-16
 -1      2212 8.05753E-03 2.31702E-04 2.30772E-16
 -1      2213 5.80888E-03-5.01402E-04-5.18258E-16
 -1      2214 9.37976E-03-1.69874E-03-1.26144E-15
 -1      2215 9.25690E-03-1.77980E-03-1.25770E-15
 -1      2216 9.15773E-03-1.84238E-03-1.27209E-15
 -1      2217 8.97015E-03-1.95512E-03-1.30324E-15
 -1      2218 1.06153E-02-1.04303E-03-7.02256E-16
 -1      2219 9.13109E-03-1.86591E-03-1.33812E-15
 -1      2220 5.48026E-04-5.47996E-05 5.39391E-18
 -1      2221 5.49076E-04-7.13999E-05 1.61275E-18
 -1      2222 5.50504E-04-8.86224E-05-1.95156E-18
 -1      2223 5.52371E-04-1.06516E-04-6.00377E-18
 -1      2224 6.65560E-04-9.46345E-05-3.52366E-19
 -1      2225 5.46597E-04 8.79909E-06 2.02610E-17
 -1      2226 5.46584E-04-6.89175E-06 1.66018E-17
 -1      2227 5.47352E-04 4.05249E-05 2.77149E-17
 -1      2228 5.46850E-04 2.45905E-05 2.39338E-17
 -1      2229 6.61511E-04 1.97583E-05 2.90024E-17
 -1      2230 5.49189E-04 7.28993E-05 3.55618E-17
 -1      2231 5.48120E-04 5.65249E-05 3.15232E-17
 -1      2232 6.62847E-04 5.72597E-05 3.87873E-17
 -1      2233 5.52585E-04 1.08176E-04 4.38695E-17
 -1      2234 5.50662E-04 9.01906E-05 3.96547E-17
 -1      2235 6.65734E-04 9.64212E-05 4.91821E-17
 -1      2236 5.58429E-04 1.47386E-04 5.33834E-17
 -1      2237 5.55138E-04 1.27212E-04 4.84638E-17
 -1      2238 6.70840E-04 1.38952E-04 6.04985E-17
 -1      2239 5.68692E-04 1.92897E-04 6.35207E-17
 -1      2240 5.62857E-04 1.69229E-04 5.83165E-17
 -1      2241 6.79436E-04 1.86345E-04 7.29261E-17
 -1      2242 5.87924E-04 2.48479E-04 7.31565E-17
 -1      2243 5.76901E-04 2.19234E-04 6.83861E-17
 -1      2244 6.94300E-04 2.41184E-04 8.57604E-17
 -1      2245 6.41859E-04 3.00175E-04 8.47304E-17
 -1      2246 6.14243E-04 2.72727E-04 7.90248E-17
 -1      2247 7.31405E-04 2.96404E-04 9.89470E-17
 -1      2248 7.88262E-04 3.48170E-04 1.13231E-16
 -1      2249 9.15066E-04-3.44407E-04-6.01868E-17
 -1      2250 1.05919E-03-3.77191E-04-7.39832E-17
 -1      2251 1.20249E-03-4.04964E-04-8.84438E-17
 -1      2252 1.34538E-03-4.28150E-04-1.03975E-16
 -1      2253 1.11708E-03-3.57742E-04-7.13541E-17
 -1      2254 1.48766E-03-4.47588E-04-1.20468E-16
 -1      2255 1.62959E-03-4.63543E-04-1.37734E-16
 -1      2256 1.40357E-03-4.03140E-04-9.90825E-17
 -1      2257 1.77828E-03-4.77266E-04-1.56884E-16
 -1      2258 1.92678E-03-4.88127E-04-1.76711E-16
 -1      2259 1.69608E-03-4.35264E-04-1.30782E-16
 -1      2260 2.06811E-03-4.96299E-04-1.96376E-16
 -1      2261 2.20942E-03-5.02530E-04-2.17125E-16
 -1      2262 1.98778E-03-4.56253E-04-1.65571E-16
 -1      2263 2.35080E-03-5.07149E-04-2.39189E-16
 -1      2264 2.49228E-03-5.10293E-04-2.62296E-16
 -1      2265 2.27202E-03-4.68596E-04-2.02786E-16
 -1      2266 2.63394E-03-5.12194E-04-2.86243E-16
 -1      2267 2.77578E-03-5.12964E-04-3.12006E-16
 -1      2268 2.55631E-03-4.74822E-04-2.44460E-16
 -1      2269 2.91788E-03-5.12760E-04-3.38637E-16
 -1      2270 3.06024E-03-5.11674E-04-3.66352E-16
 -1      2271 2.84094E-03-4.76346E-04-2.90553E-16
 -1      2272 3.20290E-03-5.09811E-04-3.95246E-16
 -1      2273 3.34591E-03-5.07247E-04-4.24912E-16
 -1      2274 3.12612E-03-4.74211E-04-3.41429E-16
 -1      2275 3.48925E-03-5.04053E-04-4.54823E-16
 -1      2276 3.63301E-03-5.00297E-04-4.86034E-16
 -1      2277 3.41197E-03-4.69187E-04-3.95436E-16
 -1      2278 3.78435E-03-4.95812E-04-5.19794E-16
 -1      2279 3.93622E-03-4.90850E-04-5.54353E-16
 -1      2280 3.70573E-03-4.61669E-04-4.53562E-16
 -1      2281 4.08125E-03-4.85759E-04-5.87272E-16
 -1      2282 4.22684E-03-4.80394E-04-6.21627E-16
 -1      2283 4.00020E-03-4.52338E-04-5.14928E-16
 -1      2284 4.37278E-03-4.74892E-04-6.58138E-16
 -1      2285 4.51937E-03-4.69362E-04-6.95299E-16
 -1      2286 4.28798E-03-4.42160E-04-5.78978E-16
 -1      2287 4.66624E-03-4.64078E-04-7.33531E-16
 -1      2288 4.81382E-03-4.59207E-04-7.73307E-16
 -1      2289 4.57583E-03-4.31918E-04-6.47906E-16
 -1      2290 4.96159E-03-4.55274E-04-8.14304E-16
 -1      2291 5.11014E-03-4.52569E-04-8.57997E-16
 -1      2292 4.86307E-03-4.23283E-04-7.21577E-16
 -1      2293 5.25880E-03-4.52021E-04-9.02503E-16
 -1      2294 5.40840E-03-4.54188E-04-9.46888E-16
 -1      2295 5.14877E-03-4.19133E-04-8.01320E-16
 -1      2296 5.55826E-03-4.60560E-04-9.92492E-16
 -1      2297 5.70959E-03-4.72283E-04-1.03827E-15
 -1      2298 5.43210E-03-4.24302E-04-8.84723E-16
 -1      2299 5.86206E-03-4.91394E-04-1.08294E-15
 -1      2300 6.01758E-03-5.20503E-04-1.12764E-15
 -1      2301 5.71344E-03-4.46561E-04-9.70063E-16
 -1      2302 6.18528E-03-5.64313E-04-1.17495E-15
 -1      2303 6.36036E-03-6.28183E-04-1.22009E-15
 -1      2304 6.00453E-03-5.00164E-04-1.05738E-15
 -1      2305 6.53821E-03-7.08999E-04-1.25761E-15
 -1      2306 6.72856E-03-8.21477E-04-1.29145E-15
 -1      2307 6.31355E-03-6.07622E-04-1.13931E-15
 -1      2308 8.85669E-03-2.11197E-04 1.70071E-16
 -1      2309 9.04854E-03-3.36884E-04 1.41326E-16
 -1      2310 1.37680E-02-2.66983E-03 3.34323E-15
 -1      2311 9.89219E-03-1.43151E-03-1.25170E-15
 -1      2312 1.01048E-02-1.35365E-03-1.21955E-15
 -1      2313 1.03182E-02-1.29970E-03-1.16868E-15
 -1      2314 1.04996E-02-1.28639E-03-1.14020E-15
 -1      2315 1.06718E-02-1.29807E-03-1.11372E-15
 -1      2316 1.08366E-02-1.32620E-03-1.08657E-15
 -1      2317 1.06377E-02-1.24070E-03-1.02746E-15
 -1      2318 1.09965E-02-1.36875E-03-1.06053E-15
 -1      2319 1.11535E-02-1.42153E-03-1.03675E-15
 -1      2320 1.09387E-02-1.30804E-03-9.74942E-16
 -1      2321 1.13080E-02-1.48222E-03-1.01297E-15
 -1      2322 1.14615E-02-1.54885E-03-9.95704E-16
 -1      2323 1.12287E-02-1.41724E-03-9.28972E-16
 -1      2324 1.16210E-02-1.62322E-03-9.75552E-16
 -1      2325 1.17801E-02-1.70102E-03-9.52173E-16
 -1      2326 1.15243E-02-1.55427E-03-8.84980E-16
 -1      2327 1.19304E-02-1.77709E-03-9.31696E-16
 -1      2328 1.20803E-02-1.85458E-03-9.12587E-16
 -1      2329 1.18208E-02-1.70528E-03-8.43523E-16
 -1      2330 1.22293E-02-1.93285E-03-8.92800E-16
 -1      2331 1.23780E-02-2.01164E-03-8.72756E-16
 -1      2332 1.21111E-02-1.85930E-03-8.00751E-16
 -1      2333 1.25258E-02-2.09061E-03-8.54514E-16
 -1      2334 1.26733E-02-2.16962E-03-8.34998E-16
 -1      2335 1.24016E-02-2.01611E-03-7.59551E-16
 -1      2336 1.28201E-02-2.24852E-03-8.14114E-16
 -1      2337 1.29665E-02-2.32722E-03-7.95303E-16
 -1      2338 1.26919E-02-2.17359E-03-7.17430E-16
 -1      2339 1.31124E-02-2.40568E-03-7.76628E-16
 -1      2340 1.32580E-02-2.48385E-03-7.57383E-16
 -1      2341 1.29817E-02-2.33066E-03-6.78006E-16
 -1      2342 1.34032E-02-2.56174E-03-7.37434E-16
 -1      2343 1.35481E-02-2.63931E-03-7.13541E-16
 -1      2344 1.32708E-02-2.48679E-03-6.38175E-16
 -1      2345 1.36998E-02-2.72045E-03-6.85555E-16
 -1      2346 1.38514E-02-2.80125E-03-6.55034E-16
 -1      2347 1.35665E-02-2.64566E-03-5.88153E-16
 -1      2348 1.39954E-02-2.87794E-03-6.22671E-16
 -1      2349 1.41393E-02-2.95434E-03-5.86567E-16
 -1      2350 1.38615E-02-2.80335E-03-5.26096E-16
 -1      2351 1.42831E-02-3.03051E-03-5.43849E-16
 -1      2352 1.44266E-02-3.10644E-03-4.97473E-16
 -1      2353 1.41487E-02-2.95613E-03-4.51828E-16
 -1      2354 1.45701E-02-3.18216E-03-4.47111E-16
 -1      2355 1.47134E-02-3.25768E-03-3.91776E-16
 -1      2356 1.44355E-02-3.10796E-03-3.55279E-16
 -1      2357 1.48566E-02-3.33301E-03-3.31129E-16
 -1      2358 1.49998E-02-3.40817E-03-2.67202E-16
 -1      2359 1.47220E-02-3.25898E-03-2.42509E-16
 -1      2360 1.51429E-02-3.48319E-03-1.99358E-16
 -1      2361 1.52859E-02-3.55805E-03-1.22068E-16
 -1      2362 1.50082E-02-3.40930E-03-1.15210E-16
 -1      2363 1.54088E-02-3.62266E-03-7.19639E-17
 -1      2364 1.55518E-02-3.69732E-03 4.11997E-18
 -1      2365 1.55198E-02-3.67797E-03 1.06049E-16
 -1      2366 1.52741E-02-3.54889E-03 3.30682E-18
 -1      2367 2.03177E-03 5.08217E-04 4.43005E-16
 -1      2368 1.89078E-03 4.99242E-04 3.99515E-16
 -1      2369 1.74968E-03 4.87978E-04 3.56865E-16
 -1      2370 1.60836E-03 4.74222E-04 3.15381E-16
 -1      2371 1.80916E-03 4.57865E-04 3.57556E-16
 -1      2372 1.46674E-03 4.57385E-04 2.75008E-16
 -1      2373 1.32463E-03 4.37225E-04 2.36343E-16
 -1      2374 1.52469E-03 4.30604E-04 2.78803E-16
 -1      2375 2.31377E-03 5.20748E-04 5.31164E-16
 -1      2376 2.17276E-03 5.15330E-04 4.86753E-16
 -1      2377 2.09300E-03 4.75662E-04 4.39820E-16
 -1      2378 2.59619E-03 5.27584E-04 6.19283E-16
 -1      2379 2.45491E-03 5.24786E-04 5.75549E-16
 -1      2380 2.37668E-03 4.86384E-04 5.23453E-16
 -1      2381 2.87939E-03 5.30290E-04 7.07333E-16
 -1      2382 2.73768E-03 5.29379E-04 6.63762E-16
 -1      2383 2.66060E-03 4.91877E-04 6.07682E-16
 -1      2384 3.16363E-03 5.30126E-04 7.93528E-16
 -1      2385 3.02137E-03 5.30505E-04 7.50620E-16
 -1      2386 2.94505E-03 4.93593E-04 6.90732E-16
 -1      2387 3.44909E-03 5.28161E-04 8.75683E-16
 -1      2388 3.30620E-03 5.29313E-04 8.34592E-16
 -1      2389 3.23027E-03 4.92711E-04 7.70759E-16
 -1      2390 3.73593E-03 5.25368E-04 9.55169E-16
 -1      2391 3.59234E-03 5.26814E-04 9.16490E-16
 -1      2392 3.51647E-03 4.90246E-04 8.47995E-16
 -1      2393 4.02426E-03 5.22715E-04 1.02858E-15
 -1      2394 3.87991E-03 5.23969E-04 9.92140E-16
 -1      2395 3.80382E-03 4.87140E-04 9.20867E-16
 -1      2396 4.31416E-03 5.21211E-04 1.09778E-15
 -1      2397 4.16902E-03 5.21759E-04 1.06391E-15
 -1      2398 4.09252E-03 4.84341E-04 9.89077E-16
 -1      2399 4.60566E-03 5.21931E-04 1.16217E-15
 -1      2400 4.45973E-03 5.21230E-04 1.13024E-15
 -1      2401 4.38276E-03 4.82860E-04 1.05307E-15
 -1      2402 4.89870E-03 5.25964E-04 1.22518E-15
 -1      2403 4.75203E-03 5.23473E-04 1.19402E-15
 -1      2404 4.67472E-03 4.83779E-04 1.11277E-15
 -1      2405 5.19304E-03 5.34261E-04 1.28459E-15
 -1      2406 5.04577E-03 5.29533E-04 1.25536E-15
 -1      2407 4.96852E-03 4.88201E-04 1.17033E-15
 -1      2408 5.48821E-03 5.47355E-04 1.34268E-15
 -1      2409 5.34062E-03 5.40199E-04 1.31381E-15
 -1      2410 5.26414E-03 4.97091E-04 1.22592E-15
 -1      2411 5.78338E-03 5.64920E-04 1.39580E-15
 -1      2412 5.63592E-03 5.55640E-04 1.37043E-15
 -1      2413 5.56128E-03 5.10966E-04 1.27794E-15
 -1      2414 6.07734E-03 5.85214E-04 1.44386E-15
 -1      2415 5.93066E-03 5.74896E-04 1.42090E-15
 -1      2416 5.85922E-03 5.29427E-04 1.32569E-15
 -1      2417 6.36859E-03 6.04531E-04 1.48808E-15
 -1      2418 6.22344E-03 5.95304E-04 1.46516E-15
 -1      2419 6.15668E-03 5.50525E-04 1.36857E-15
 -1      2420 6.65563E-03 6.16942E-04 1.52691E-15
 -1      2421 6.51272E-03 6.12045E-04 1.50738E-15
 -1      2422 6.45196E-03 5.70146E-04 1.40667E-15
 -1      2423 6.93754E-03 6.14708E-04 1.56728E-15
 -1      2424 6.79720E-03 6.18178E-04 1.54756E-15
 -1      2425 6.74325E-03 5.81722E-04 1.44427E-15
 -1      2426 7.21456E-03 5.89619E-04 1.60606E-15
 -1      2427 7.07650E-03 6.05498E-04 1.58662E-15
 -1      2428 7.02942E-03 5.76762E-04 1.48158E-15
 -1      2429 7.48843E-03 5.35093E-04 1.64250E-15
 -1      2430 7.35161E-03 5.66322E-04 1.62499E-15
 -1      2431 7.31078E-03 5.46522E-04 1.51764E-15
 -1      2432 7.76196E-03 4.48268E-04 1.67886E-15
 -1      2433 7.62491E-03 4.95712E-04 1.66051E-15
 -1      2434 7.58944E-03 4.84521E-04 1.55316E-15
 -1      2435 8.03811E-03 3.30999E-04 1.71037E-15
 -1      2436 7.89945E-03 3.93144E-04 1.69553E-15
 -1      2437 7.86858E-03 3.88831E-04 1.58567E-15
 -1      2438 8.31893E-03 1.89200E-04 1.74452E-15
 -1      2439 8.17781E-03 2.62687E-04 1.72749E-15
 -1      2440 8.15122E-03 2.62820E-04 1.61836E-15
 -1      2441 8.60499E-03 3.09048E-05 1.77918E-15
 -1      2442 8.46132E-03 1.11598E-04 1.76112E-15
 -1      2443 8.43896E-03 1.13863E-04 1.64951E-15
 -1      2444 8.89561E-03-1.35921E-04 1.81989E-15
 -1      2445 8.74985E-03-5.18788E-05 1.79904E-15
 -1      2446 8.73166E-03-4.91544E-05 1.68527E-15
 -1      2447 9.18937E-03-3.04918E-04 1.86258E-15
 -1      2448 9.04225E-03-2.20450E-04 1.84064E-15
 -1      2449 9.02791E-03-2.18198E-04 1.72558E-15
 -1      2450 9.48476E-03-4.71923E-04 1.91051E-15
 -1      2451 9.33701E-03-3.88837E-04 1.88615E-15
 -1      2452 9.32589E-03-3.87413E-04 1.76947E-15
 -1      2453 9.78053E-03-6.34816E-04 1.96794E-15
 -1      2454 9.63271E-03-5.53946E-04 1.93735E-15
 -1      2455 9.62400E-03-5.53368E-04 1.81912E-15
 -1      2456 1.00758E-02-7.93002E-04 2.03461E-15
 -1      2457 9.92831E-03-7.14493E-04 2.00056E-15
 -1      2458 9.92118E-03-7.14622E-04 1.87841E-15
 -1      2459 1.03701E-02-9.46829E-04 2.10948E-15
 -1      2460 1.02231E-02-8.70420E-04 2.07137E-15
 -1      2461 1.02169E-02-8.71072E-04 1.94706E-15
 -1      2462 1.06632E-02-1.09711E-03 2.19052E-15
 -1      2463 1.05168E-02-1.02236E-03 2.14779E-15
 -1      2464 1.05109E-02-1.02336E-03 2.02183E-15
 -1      2465 1.09550E-02-1.24479E-03 2.27558E-15
 -1      2466 1.08092E-02-1.17122E-03 2.23226E-15
 -1      2467 1.08033E-02-1.17242E-03 2.10457E-15
 -1      2468 1.12456E-02-1.39076E-03 2.37026E-15
 -1      2469 1.11004E-02-1.31795E-03 2.32167E-15
 -1      2470 1.10943E-02-1.31921E-03 2.19124E-15
 -1      2471 1.15352E-02-1.53575E-03 2.46702E-15
 -1      2472 1.13905E-02-1.46334E-03 2.41871E-15
 -1      2473 1.13841E-02-1.46460E-03 2.28611E-15
 -1      2474 1.18239E-02-1.68033E-03 2.56929E-15
 -1      2475 1.16796E-02-1.60807E-03 2.51799E-15
 -1      2476 1.16729E-02-1.60926E-03 2.38285E-15
 -1      2477 1.21118E-02-1.82487E-03 2.67864E-15
 -1      2478 1.19679E-02-1.75259E-03 2.62325E-15
 -1      2479 1.19609E-02-1.75367E-03 2.48590E-15
 -1      2480 1.23991E-02-1.96964E-03 2.79583E-15
 -1      2481 1.22555E-02-1.89722E-03 2.73560E-15
 -1      2482 1.22483E-02-1.89817E-03 2.59513E-15
 -1      2483 1.26860E-02-2.11477E-03 2.91867E-15
 -1      2484 1.25426E-02-2.04215E-03 2.85557E-15
 -1      2485 1.25352E-02-2.04298E-03 2.71221E-15
 -1      2486 1.29725E-02-2.26034E-03 3.05248E-15
 -1      2487 1.28293E-02-2.18750E-03 2.98561E-15
 -1      2488 1.28218E-02-2.18819E-03 2.83920E-15
 -1      2489 1.32587E-02-2.40635E-03 3.18791E-15
 -1      2490 1.31156E-02-2.33329E-03 3.12069E-15
 -1      2491 1.31080E-02-2.33385E-03 2.97558E-15
 -1      2492 1.35447E-02-2.55279E-03 3.32484E-15
 -1      2493 1.34017E-02-2.47952E-03 3.25557E-15
 -1      2494 1.33941E-02-2.47997E-03 3.11211E-15
 -1      2495 1.42578E-02-2.95248E-03 2.45061E-15
 -1      2496 1.41849E-02-2.91073E-03 2.58159E-15
 -1      2497 1.41133E-02-2.86964E-03 2.71194E-15
 -1      2498 1.40417E-02-2.82849E-03 2.83776E-15
 -1      2499 1.40261E-02-2.82689E-03 2.58810E-15
 -1      2500 1.39690E-02-2.78659E-03 2.96808E-15
 -1      2501 1.38963E-02-2.74463E-03 3.09743E-15
 -1      2502 1.38817E-02-2.74395E-03 2.84985E-15
 -1      2503 1.05673E-02-1.00570E-03-3.25183E-16
 -1      2504 1.06550E-02-1.01696E-03-4.05527E-16
 -1      2505 1.44035E-02-3.03586E-03 2.18591E-15
 -1      2506 1.43306E-02-2.99419E-03 2.32050E-15
 -1      2507 1.41707E-02-2.90960E-03 2.32454E-15
 -1      2508 1.45491E-02-3.11910E-03 1.92011E-15
 -1      2509 1.44763E-02-3.07749E-03 2.05319E-15
 -1      2510 1.43164E-02-2.99283E-03 2.05745E-15
 -1      2511 1.46945E-02-3.20227E-03 1.65414E-15
 -1      2512 1.46218E-02-3.16069E-03 1.78746E-15
 -1      2513 1.44620E-02-3.07593E-03 1.78920E-15
 -1      2514 1.48398E-02-3.28545E-03 1.38968E-15
 -1      2515 1.47672E-02-3.24385E-03 1.52188E-15
 -1      2516 1.46074E-02-3.15896E-03 1.52405E-15
 -1      2517 1.49826E-02-3.36730E-03 1.13221E-15
 -1      2518 1.49112E-02-3.32636E-03 1.26040E-15
 -1      2519 1.47514E-02-3.24131E-03 1.26484E-15
 -1      2520 1.51277E-02-3.45072E-03 8.68907E-16
 -1      2521 1.50551E-02-3.40899E-03 1.00023E-15
 -1      2522 1.48953E-02-3.32378E-03 1.00346E-15
 -1      2523 1.52730E-02-3.53435E-03 6.11449E-16
 -1      2524 1.52004E-02-3.49251E-03 7.40537E-16
 -1      2525 1.50404E-02-3.40714E-03 7.41879E-16
 -1      2526 1.54186E-02-3.61819E-03 3.51336E-16
 -1      2527 1.53458E-02-3.57624E-03 4.83717E-16
 -1      2528 1.51857E-02-3.49073E-03 4.82917E-16
 -1      2529 5.88473E-04-2.36984E-04-3.15096E-17
 -1      2530 7.81221E-04-3.03306E-04-4.72441E-17
 -1      2531 8.40829E-04-2.91866E-04-4.67156E-17
 -1      2532 5.79027E-04-2.09164E-04-2.67798E-17
 -1      2533 9.77960E-03-7.39383E-04-1.02796E-17
 -1      2534 9.95624E-03-8.15441E-04-6.09322E-17
 -1      2535 9.30145E-03-4.85317E-04 9.20894E-17
 -1      2536 9.54279E-03-6.19808E-04 4.37882E-17
 -1      2537 1.04619E-02-1.09940E-03-8.33528E-16
 -1      2538 1.03150E-02-1.15562E-03-9.14213E-16
 -1      2539 9.85100E-03-1.39395E-03-1.13038E-15
 -1      2540 9.67454E-03-1.50583E-03-1.20004E-15
 -1      2541 8.89118E-03-2.01128E-03-1.42236E-15
 -1      2542 8.16321E-03-1.96612E-03-1.47966E-15
 -1      2543 6.60687E-03-2.17780E-04-7.82658E-17
 -1      2544 6.81758E-03-1.19151E-04-2.11962E-17
 -1      2545 1.07017E-02-1.02032E-03-5.09369E-16
 -1      2546 1.06984E-02-1.02310E-03-5.89211E-16
 -1      2547 5.46809E-04-2.26675E-05 1.29833E-17
 -1      2548 5.47280E-04-3.85701E-05 9.33769E-18
 -1      2549 6.62744E-04-5.52599E-05 9.43256E-18
 -1      2550 6.61474E-04-1.75039E-05 1.92717E-17
 -1      2551 5.77492E-03-4.85236E-04-5.11040E-16
 -1      2552 5.83812E-03-4.79348E-04-4.38953E-16
 -1      2553 8.45682E-03 3.80827E-05 2.38552E-16
 -1      2554 8.64728E-03-8.00625E-05 2.03586E-16
 -1      2555 8.73191E-03-1.54075E-04 2.47876E-16
 -1      2556 7.72692E-03 2.58363E-04 2.14943E-16
 -1      2557 7.87159E-03 2.64257E-04 2.30257E-16
 -1      2558 7.38115E-03 1.53717E-04 1.38534E-16
 -1      2559 7.53694E-03 2.16304E-04 1.81279E-16
 -1      2560 7.01716E-03-2.22598E-05 3.15638E-17
 -1      2561 7.18990E-03 6.67807E-05 8.27111E-17
 -1      2562 6.24350E-03-3.66954E-04-2.17965E-16
 -1      2563 6.38510E-03-3.13032E-04-1.60204E-16
 -1      2564 5.93947E-03-4.56791E-04-3.63960E-16
 -1      2565 6.07747E-03-4.20535E-04-2.86619E-16
 -1      2566 5.87032E-03-4.50235E-04-3.60792E-16
 -1      2567 5.81677E-03-5.14278E-04-7.33498E-16
 -1      2568 5.76196E-03-5.00200E-04-6.33326E-16
 -1      2569 6.03870E-03-5.74709E-04-9.00084E-16
 -1      2570 5.91572E-03-5.43315E-04-8.23746E-16
 -1      2571 6.43513E-03-7.35554E-04-1.07519E-15
 -1      2572 6.23813E-03-6.47615E-04-9.99899E-16
 -1      2573 6.91900E-03-1.01262E-03-1.23232E-15
 -1      2574 6.68386E-03-8.67592E-04-1.16180E-15
 -1      2575 7.36829E-03-1.33603E-03-1.35449E-15
 -1      2576 7.14971E-03-1.17409E-03-1.29241E-15
 -1      2577 7.93460E-03-1.79751E-03-1.48010E-15
 -1      2578 1.06632E-02-1.03497E-03-6.62780E-16
 -1      2579 1.05956E-02-1.05315E-03-7.34472E-16
 -1      2580 1.06992E-02-1.04055E-03-6.22712E-16
 -1      2581 1.01597E-02-1.22635E-03-9.88596E-16
 -1      2582 1.00201E-02-1.29767E-03-1.04985E-15
 -1      2583 9.95699E-03-1.34438E-03-1.12069E-15
 -1      2584 1.02632E-02-1.18714E-03-9.65977E-16
 -1      2585 1.37604E-02-2.67015E-03 3.19761E-15
 -1      2586 9.13883E-03-1.87717E-03-1.38949E-15
 -1      2587 7.72238E-03-1.62131E-03-1.43773E-15
 -1      2588 6.70502E-04-1.36889E-04-1.04761E-17
 -1      2589 5.54838E-04-1.25354E-04-1.00695E-17
 -1      2590 5.58022E-04-1.45279E-04-1.43386E-17
 -1      2591 9.63615E-03-6.90463E-04 5.98344E-17
 -1      2592 9.02293E-04 3.76064E-04 1.37314E-16
 -1      2593 8.73278E-04 3.49746E-04 1.29047E-16
 -1      2594 1.01595E-03 3.99515E-04 1.62847E-16
 -1      2595 7.44649E-03-1.37722E-03-1.40487E-15
 -1      2596 5.64481E-04-1.64005E-04-1.82281E-17
 -1      2597 5.69852E-04-1.87049E-04-2.28225E-17
 -1      2598 6.97975E-04-2.26445E-04-3.06965E-17
 -1      2599 6.80955E-04-1.80450E-04-2.06541E-17
 -1      2600 6.64049E-03-7.88832E-04-1.20664E-15
 -1      2601 6.91283E-03-9.42543E-04-1.32247E-15
 -1      2602 7.95519E-03 2.53204E-04 2.82408E-16
 -1      2603 7.11270E-03-1.10356E-03-1.34708E-15
 -1      2604 9.74986E-03-1.49643E-03-1.27760E-15
 -1      2605 9.94187E-03-1.37387E-03-1.17618E-15
 -1      2606 1.36730E-02-2.62763E-03 3.08052E-15
 -1      2607 9.22760E-03-1.81891E-03-1.37480E-15
 -1      2608 1.02865E-02-1.25987E-03-1.10110E-15
 -1      2609 1.06990E-02-1.03675E-03-4.47189E-16
 -1      2610 1.04911E-02-1.00183E-03-2.58514E-16
 -1      2611 1.00847E-02-8.80831E-04-8.34836E-17
 -1      2612 1.02030E-02-9.31993E-04-1.06055E-16
 -1      2613 9.99227E-03-8.62480E-04-1.64528E-17
 -1      2614 1.22676E-03 4.29396E-04 2.12910E-16
 -1      2615 1.11392E-03 4.12792E-04 1.85385E-16
 -1      2616 1.08595E-03 3.87146E-04 1.74855E-16
 -1      2617 1.28330E-03 4.06344E-04 2.18955E-16
 -1      2618 9.16457E-03-4.28175E-04 1.63891E-16
 -1      2619 6.13332E-03-5.87371E-04-9.58387E-16
 -1      2620 6.49666E-03-2.50205E-04-7.41594E-17
 -1      2621 6.12498E-03-3.88697E-04-2.21231E-16
 -1      2622 6.89409E-03-6.39777E-05 5.70290E-17
 -1      2623 7.26094E-03 1.16351E-04 1.63172E-16
 -1      2624 1.05472E-02-1.07997E-03-7.92159E-16
 -1      2625 8.33229E-03 1.01400E-04 2.84657E-16
 -1      2626 8.42309E-03 3.62635E-05 3.27402E-16
 -1      2627 8.22539E-03 1.52893E-04 3.28161E-16
 -1      2628 5.74214E-03-4.76658E-04-5.56031E-16
 -1      2629 5.73611E-03-4.54532E-04-4.79231E-16
 -1      2630 5.73007E-03-4.61233E-04-5.99791E-16
 -1      2631 7.61193E-03 2.45525E-04 2.50044E-16
 -1      2632 9.49674E-03-1.62484E-03-1.26648E-15
 -1      2633 9.34954E-03-1.73273E-03-1.32876E-15
 -1      2634 5.84715E-03-5.02405E-04-7.67232E-16
 -1      2635 6.56964E-03-7.78123E-04-1.14744E-15
 -1      2636 1.54879E-02-3.65863E-03 2.05660E-16
 -1      2637 9.63533E-03-1.54933E-03-1.26663E-15
 -1      2638 1.53277E-02-3.57301E-03 2.05619E-16
 -1      2639 7.80354E-04 7.65717E-05 5.21637E-17
 -1      2640 7.79077E-04 5.49165E-05 4.57533E-17
 -1      2641 7.78220E-04 3.32272E-05 3.96005E-17
 -1      2642 7.77797E-04 1.17933E-05 3.32850E-17
 -1      2643 8.96563E-04 4.91307E-05 5.22314E-17
 -1      2644 7.91765E-04 1.71719E-04 8.04207E-17
 -1      2645 7.87749E-04 1.46436E-04 7.28448E-17
 -1      2646 8.03560E-04 2.26745E-04 9.58435E-17
 -1      2647 7.97005E-04 1.98423E-04 8.79017E-17
 -1      2648 9.15069E-04 2.06010E-04 1.03189E-16
 -1      2649 8.45664E-04 3.24382E-04 1.20875E-16
 -1      2650 8.19574E-04 2.99870E-04 1.12906E-16
 -1      2651 9.59874E-04 3.48287E-04 1.44077E-16
 -1      2652 1.03389E-03-3.11818E-04-5.62023E-17
 -1      2653 1.17720E-03-3.37343E-04-6.74645E-17
 -1      2654 7.86669E-03 2.68118E-04 3.50523E-16
 -1      2655 8.02789E-03 2.32321E-04 3.48652E-16
 -1      2656 1.00865E-02-1.28928E-03-1.09649E-15
 -1      2657 1.32046E-03-3.59098E-04-7.96075E-17
 -1      2658 1.46377E-03-3.77324E-04-9.24960E-17
 -1      2659 1.23876E-03-3.15852E-04-6.23010E-17
 -1      2660 1.61406E-03-3.93235E-04-1.06916E-16
 -1      2661 1.76426E-03-4.06105E-04-1.21878E-16
 -1      2662 1.53260E-03-3.51444E-04-8.50557E-17
 -1      2663 1.90716E-03-4.15999E-04-1.36745E-16
 -1      2664 2.04998E-03-4.23778E-04-1.52208E-16
 -1      2665 1.82658E-03-3.75713E-04-1.10196E-16
 -1      2666 2.19272E-03-4.29791E-04-1.68864E-16
 -1      2667 2.33542E-03-4.34183E-04-1.86767E-16
 -1      2668 2.11317E-03-3.90834E-04-1.37748E-16
 -1      2669 2.47809E-03-4.37220E-04-2.05199E-16
 -1      2670 2.62075E-03-4.39016E-04-2.24986E-16
 -1      2671 2.39949E-03-3.99432E-04-1.68295E-16
 -1      2672 2.76343E-03-4.39767E-04-2.45545E-16
 -1      2673 2.90614E-03-4.39561E-04-2.67242E-16
 -1      2674 2.68555E-03-4.03017E-04-2.03017E-16
 -1      2675 3.04887E-03-4.38543E-04-2.90417E-16
 -1      2676 3.19164E-03-4.36781E-04-3.14148E-16
 -1      2677 2.97135E-03-4.02753E-04-2.41804E-16
 -1      2678 3.33442E-03-4.34386E-04-3.38569E-16
 -1      2679 3.47724E-03-4.31411E-04-3.62964E-16
 -1      2680 3.25681E-03-3.99534E-04-2.84007E-16
 -1      2681 3.62716E-03-4.27771E-04-3.90191E-16
 -1      2682 3.77708E-03-4.23652E-04-4.18461E-16
 -1      2683 3.54886E-03-3.93919E-04-3.29692E-16
 -1      2684 3.91970E-03-4.19406E-04-4.45634E-16
 -1      2685 4.06224E-03-4.14882E-04-4.73742E-16
 -1      2686 3.83998E-03-3.86647E-04-3.78387E-16
 -1      2687 4.20446E-03-4.10252E-04-5.03056E-16
 -1      2688 4.34644E-03-4.05553E-04-5.33726E-16
 -1      2689 4.12246E-03-3.78681E-04-4.30320E-16
 -1      2690 4.48782E-03-4.01071E-04-5.65384E-16
 -1      2691 4.62872E-03-3.96843E-04-5.98209E-16
 -1      2692 4.40243E-03-3.70796E-04-4.85736E-16
 -1      2693 4.76862E-03-3.93353E-04-6.32537E-16
 -1      2694 4.90769E-03-3.90648E-04-6.67381E-16
 -1      2695 4.67839E-03-3.64376E-04-5.46018E-16
 -1      2696 5.04523E-03-3.89508E-04-7.03742E-16
 -1      2697 5.18154E-03-3.90009E-04-7.41757E-16
 -1      2698 4.94824E-03-3.61524E-04-6.10081E-16
 -1      2699 5.31571E-03-3.93330E-04-7.81208E-16
 -1      2700 5.44839E-03-3.99652E-04-8.20023E-16
 -1      2701 5.20925E-03-3.65346E-04-6.79402E-16
 -1      2702 5.57853E-03-4.10592E-04-8.59501E-16
 -1      2703 5.70756E-03-4.26564E-04-8.99400E-16
 -1      2704 5.45834E-03-3.80204E-04-7.51881E-16
 -1      2705 5.84082E-03-4.50810E-04-9.41724E-16
 -1      2706 5.97536E-03-4.84908E-04-9.84320E-16
 -1      2707 5.69879E-03-4.12520E-04-8.28886E-16
 -1      2708 1.36660E-02-2.62871E-03 2.91303E-15
 -1      2709 1.35301E-02-2.55436E-03 3.01323E-15
 -1      2710 1.33871E-02-2.48119E-03 2.94526E-15
 -1      2711 9.05698E-03-3.81332E-04 2.52782E-16
 -1      2712 9.27929E-03-5.17627E-04 2.03423E-16
 -1      2713 1.08941E-02-1.25190E-03-8.87447E-16
 -1      2714 1.10267E-02-1.30081E-03-8.62767E-16
 -1      2715 1.11588E-02-1.35714E-03-8.39010E-16
 -1      2716 1.12927E-02-1.41950E-03-8.17272E-16
 -1      2717 1.10972E-02-1.30218E-03-7.51189E-16
 -1      2718 1.14344E-02-1.48953E-03-7.94639E-16
 -1      2719 1.15782E-02-1.56367E-03-7.73050E-16
 -1      2720 1.13510E-02-1.42966E-03-7.06019E-16
 -1      2721 1.17163E-02-1.63665E-03-7.53737E-16
 -1      2722 1.18560E-02-1.71173E-03-7.29736E-16
 -1      2723 1.16170E-02-1.57202E-03-6.61621E-16
 -1      2724 1.19964E-02-1.78796E-03-7.07103E-16
 -1      2725 1.21379E-02-1.86524E-03-6.85609E-16
 -1      2726 1.18858E-02-1.71967E-03-6.17263E-16
 -1      2727 1.22799E-02-1.94300E-03-6.64304E-16
 -1      2728 1.24225E-02-2.02118E-03-6.43664E-16
 -1      2729 1.21613E-02-1.87214E-03-5.71415E-16
 -1      2730 1.25654E-02-2.09944E-03-6.22427E-16
 -1      2731 1.27086E-02-2.17776E-03-5.99347E-16
 -1      2732 1.24412E-02-2.02689E-03-5.25689E-16
 -1      2733 1.28519E-02-2.25595E-03-5.79723E-16
 -1      2734 1.29954E-02-2.33401E-03-5.59231E-16
 -1      2735 1.27239E-02-2.18237E-03-4.81738E-16
 -1      2736 1.31388E-02-2.41184E-03-5.37656E-16
 -1      2737 1.32824E-02-2.48945E-03-5.15023E-16
 -1      2738 1.30082E-02-2.33767E-03-4.39888E-16
 -1      2739 1.34330E-02-2.57066E-03-4.88352E-16
 -1      2740 1.35836E-02-2.65159E-03-4.58265E-16
 -1      2741 1.33005E-02-2.49618E-03-3.89513E-16
 -1      2742 1.37271E-02-2.72840E-03-4.28368E-16
 -1      2743 1.38704E-02-2.80496E-03-3.95246E-16
 -1      2744 1.35934E-02-2.65380E-03-3.30817E-16
 -1      2745 1.40137E-02-2.88128E-03-3.54792E-16
 -1      2746 1.41570E-02-2.95737E-03-3.11749E-16
 -1      2747 1.38793E-02-2.80666E-03-2.60344E-16
 -1      2748 1.43002E-02-3.03324E-03-2.63976E-16
 -1      2749 1.44434E-02-3.10890E-03-2.11772E-16
 -1      2750 1.41653E-02-2.95867E-03-1.73079E-16
 -1      2751 1.45865E-02-3.18438E-03-1.54811E-16
 -1      2752 1.47296E-02-3.25968E-03-9.37970E-17
 -1      2753 1.44512E-02-3.10988E-03-6.63532E-17
 -1      2754 1.48726E-02-3.33482E-03-2.72541E-17
 -1      2755 1.50156E-02-3.40981E-03 4.07796E-17
 -1      2756 1.47372E-02-3.26040E-03 5.71103E-17
 -1      2757 1.52048E-02-3.50847E-03 1.54119E-16
 -1      2758 1.87017E-03 4.27053E-04 3.56337E-16
 -1      2759 1.72743E-03 4.16305E-04 3.18159E-16
 -1      2760 2.15533E-03 4.42504E-04 4.34697E-16
 -1      2761 2.01279E-03 4.35728E-04 3.95327E-16
 -1      2762 1.93241E-03 3.95669E-04 3.53247E-16
 -1      2763 1.58458E-03 4.03046E-04 2.81256E-16
 -1      2764 1.44151E-03 3.87067E-04 2.44989E-16
 -1      2765 1.64595E-03 3.74789E-04 2.81662E-16
 -1      2766 2.72544E-03 4.55768E-04 5.93628E-16
 -1      2767 2.58286E-03 4.54162E-04 5.53688E-16
 -1      2768 3.01088E-03 4.56584E-04 6.71568E-16
 -1      2769 2.86811E-03 4.56542E-04 6.32917E-16
 -1      2770 2.79068E-03 4.19362E-04 5.77026E-16
 -1      2771 3.29686E-03 4.55058E-04 7.45050E-16
 -1      2772 3.15379E-03 4.56060E-04 7.08472E-16
 -1      2773 3.07686E-03 4.19351E-04 6.48963E-16
 -1      2774 3.58360E-03 4.52143E-04 8.17841E-16
 -1      2775 3.44012E-03 4.53724E-04 7.82130E-16
 -1      2776 3.36339E-03 4.17236E-04 7.18162E-16
 -1      2777 3.87133E-03 4.48738E-04 8.84560E-16
 -1      2778 3.72733E-03 4.50450E-04 8.51736E-16
 -1      2779 3.65051E-03 4.13896E-04 7.84258E-16
 -1      2780 4.16034E-03 4.45764E-04 9.47972E-16
 -1      2781 4.01566E-03 4.47140E-04 9.16720E-16
 -1      2782 3.93851E-03 4.10178E-04 8.46477E-16
 -1      2783 4.45094E-03 4.44221E-04 1.00564E-15
 -1      2784 4.30543E-03 4.44749E-04 9.77327E-16
 -1      2785 4.22777E-03 4.06965E-04 9.03899E-16
 -1      2786 4.74351E-03 4.45199E-04 1.06100E-15
 -1      2787 4.59698E-03 4.44322E-04 1.03364E-15
 -1      2788 4.51878E-03 4.05240E-04 9.56375E-16
 -1      2789 5.03836E-03 4.49825E-04 1.11392E-15
 -1      2790 4.89066E-03 4.46982E-04 1.08782E-15
 -1      2791 4.81210E-03 4.06103E-04 1.00713E-15
 -1      2792 5.33571E-03 4.59107E-04 1.16438E-15
 -1      2793 5.18676E-03 4.53823E-04 1.13951E-15
 -1      2794 5.10830E-03 4.10727E-04 1.05519E-15
 -1      2795 5.63543E-03 4.73606E-04 1.21015E-15
 -1      2796 5.48535E-03 4.65686E-04 1.18758E-15
 -1      2797 5.40783E-03 4.20211E-04 1.09977E-15
 -1      2798 5.93683E-03 4.92921E-04 1.25244E-15
 -1      2799 5.78605E-03 4.82733E-04 1.23192E-15
 -1      2800 5.71070E-03 4.35239E-04 1.14027E-15
 -1      2801 6.23852E-03 5.14958E-04 1.29035E-15
 -1      2802 6.08782E-03 5.03817E-04 1.27207E-15
 -1      2803 6.01622E-03 4.55491E-04 1.17671E-15
 -1      2804 6.53839E-03 5.35189E-04 1.32537E-15
 -1      2805 6.38887E-03 5.25713E-04 1.30812E-15
 -1      2806 6.32270E-03 4.78775E-04 1.20959E-15
 -1      2807 6.83419E-03 5.46266E-04 1.36092E-15
 -1      2808 6.68692E-03 5.42470E-04 1.34392E-15
 -1      2809 6.62751E-03 5.00054E-04 1.24325E-15
 -1      2810 7.12453E-03 5.38703E-04 1.39411E-15
 -1      2811 6.98000E-03 5.45487E-04 1.37694E-15
 -1      2812 6.92783E-03 5.10946E-04 1.27432E-15
 -1      2813 7.40989E-03 5.03000E-04 1.42850E-15
 -1      2814 7.26759E-03 5.24909E-04 1.41162E-15
 -1      2815 7.22206E-03 5.00640E-04 1.30560E-15
 -1      2816 7.69296E-03 4.32780E-04 1.46198E-15
 -1      2817 7.55134E-03 4.72403E-04 1.44508E-15
 -1      2818 7.51114E-03 4.58726E-04 1.33824E-15
 -1      2819 7.97753E-03 3.27345E-04 1.49163E-15
 -1      2820 7.83470E-03 3.84232E-04 1.47648E-15
 -1      2821 7.79861E-03 3.79149E-04 1.36778E-15
 -1      2822 8.26665E-03 1.91979E-04 1.52310E-15
 -1      2823 8.12132E-03 2.62844E-04 1.50827E-15
 -1      2824 8.08890E-03 2.62966E-04 1.39728E-15
 -1      2825 8.56135E-03 3.57649E-05 1.55420E-15
 -1      2826 8.41331E-03 1.15809E-04 1.53821E-15
 -1      2827 8.38493E-03 1.17837E-04 1.42730E-15
 -1      2828 8.86057E-03-1.31584E-04 1.59222E-15
 -1      2829 8.71055E-03-4.70932E-05 1.57245E-15
 -1      2830 8.68681E-03-4.53347E-05 1.46052E-15
 -1      2831 9.16216E-03-3.02182E-04 1.63197E-15
 -1      2832 9.01127E-03-2.16867E-04 1.61111E-15
 -1      2833 8.99244E-03-2.16251E-04 1.49715E-15
 -1      2834 9.46393E-03-4.70915E-04 1.67540E-15
 -1      2835 9.31320E-03-3.86985E-04 1.65348E-15
 -1      2836 9.29893E-03-3.87509E-04 1.53805E-15
 -1      2837 9.76431E-03-6.35236E-04 1.72876E-15
 -1      2838 9.61441E-03-5.53692E-04 1.70151E-15
 -1      2839 9.60389E-03-5.54985E-04 1.58406E-15
 -1      2840 1.00625E-02-7.94442E-04 1.78834E-15
 -1      2841 9.91375E-03-7.15461E-04 1.75652E-15
 -1      2842 9.90593E-03-7.17126E-04 1.63735E-15
 -1      2843 1.03583E-02-9.48915E-04 1.85992E-15
 -1      2844 1.02107E-02-8.72214E-04 1.82326E-15
 -1      2845 1.02046E-02-8.73966E-04 1.69999E-15
 -1      2846 1.06518E-02-1.09955E-03 1.93506E-15
 -1      2847 1.05053E-02-1.02464E-03 1.89605E-15
 -1      2848 1.05001E-02-1.02632E-03 1.77176E-15
 -1      2849 1.09435E-02-1.24736E-03 2.01880E-15
 -1      2850 1.07979E-02-1.17374E-03 1.97672E-15
 -1      2851 1.07929E-02-1.17527E-03 1.84991E-15
 -1      2852 1.12336E-02-1.39330E-03 2.10957E-15
 -1      2853 1.10887E-02-1.32051E-03 2.06347E-15
 -1      2854 1.10836E-02-1.32188E-03 1.93521E-15
 -1      2855 1.15225E-02-1.53816E-03 2.20238E-15
 -1      2856 1.13782E-02-1.46582E-03 2.15526E-15
 -1      2857 1.13728E-02-1.46703E-03 2.02553E-15
 -1      2858 1.18105E-02-1.68253E-03 2.29710E-15
 -1      2859 1.16666E-02-1.61038E-03 2.24884E-15
 -1      2860 1.16608E-02-1.61143E-03 2.11678E-15
 -1      2861 1.20979E-02-1.82684E-03 2.40177E-15
 -1      2862 1.19543E-02-1.75467E-03 2.34880E-15
 -1      2863 1.19481E-02-1.75559E-03 2.21210E-15
 -1      2864 1.23848E-02-1.97135E-03 2.51195E-15
 -1      2865 1.22414E-02-1.89906E-03 2.45560E-15
 -1      2866 1.22349E-02-1.89985E-03 2.31685E-15
 -1      2867 1.26713E-02-2.11623E-03 2.63080E-15
 -1      2868 1.25281E-02-2.04374E-03 2.57047E-15
 -1      2869 1.25213E-02-2.04442E-03 2.42747E-15
 -1      2870 1.29576E-02-2.26155E-03 2.76122E-15
 -1      2871 1.28145E-02-2.18883E-03 2.69363E-15
 -1      2872 1.28074E-02-2.18941E-03 2.54876E-15
 -1      2873 1.32439E-02-2.40774E-03 2.88651E-15
 -1      2874 1.31009E-02-2.33479E-03 2.81887E-15
 -1      2875 1.30937E-02-2.33527E-03 2.67085E-15
 -1      2876 1.33800E-02-2.48197E-03 2.78828E-15
 -1      2877 1.42294E-02-2.94978E-03 1.92829E-15
 -1      2878 1.41565E-02-2.90827E-03 2.06447E-15
 -1      2879 1.37389E-02-2.67060E-03 2.78313E-15
 -1      2880 1.40836E-02-2.86672E-03 2.19794E-15
 -1      2881 1.40107E-02-2.82511E-03 2.33173E-15
 -1      2882 1.39966E-02-2.82381E-03 2.07037E-15
 -1      2883 2.44034E-03 4.51518E-04 5.14413E-16
 -1      2884 2.29784E-03 4.47720E-04 4.74596E-16
 -1      2885 2.21861E-03 4.08872E-04 4.27907E-16
 -1      2886 2.50465E-03 4.16270E-04 5.02826E-16
 -1      2887 1.45203E-02-3.11557E-03 1.39614E-15
 -1      2888 1.44477E-02-3.07414E-03 1.52657E-15
 -1      2889 1.46630E-02-3.19708E-03 1.13935E-15
 -1      2890 1.45917E-02-3.15631E-03 1.26682E-15
 -1      2891 1.44320E-02-3.07139E-03 1.27031E-15
 -1      2892 1.48081E-02-3.28015E-03 8.75615E-16
 -1      2893 1.47355E-02-3.23859E-03 1.00809E-15
 -1      2894 1.45759E-02-3.15345E-03 1.01126E-15
 -1      2895 1.49531E-02-3.36344E-03 6.15583E-16
 -1      2896 1.48806E-02-3.32176E-03 7.46934E-16
 -1      2897 1.47208E-02-3.23641E-03 7.50363E-16
 -1      2898 7.99592E-04-2.53596E-04-3.73779E-17
 -1      2899 9.30910E-04-2.88744E-04-4.77862E-17
 -1      2900 9.93117E-04-2.73229E-04-4.47098E-17
 -1      2901 7.89498E-04-2.27687E-04-3.13605E-17
 -1      2902 6.41805E-03-6.76752E-04-1.11670E-15
 -1      2903 7.32731E-03-1.26076E-03-1.40958E-15
 -1      2904 9.35291E-03-1.74781E-03-1.37913E-15
 -1      2905 6.27288E-03-6.01190E-04-1.07736E-15
 -1      2906 6.21091E-03-5.87603E-04-1.02088E-15
 -1      2907 6.03066E-03-5.28409E-04-9.19180E-16
 -1      2908 6.13109E-03-5.37541E-04-1.04184E-15
 -1      2909 1.50693E-02-3.43415E-03 2.36112E-16
 -1      2910 1.03789E-02-9.93399E-04-1.66469E-16
 -1      2911 1.05529E-02-1.03767E-03-2.51203E-16
 -1      2912 1.43750E-02-3.03270E-03 1.65902E-15
 -1      2913 1.43022E-02-2.99125E-03 1.79229E-15
 -1      2914 1.42880E-02-2.98940E-03 1.53058E-15
 -1      2915 1.39390E-02-2.78416E-03 2.46169E-15
 -1      2916 1.38673E-02-2.74314E-03 2.59405E-15
 -1      2917 1.38519E-02-2.74143E-03 2.33602E-15
 -1      2918 1.06240E-02-1.18585E-03-9.36791E-16
 -1      2919 1.07614E-02-1.21215E-03-9.12058E-16
 -1      2920 1.08610E-02-1.19958E-03-7.98657E-16
 -1      2921 1.07127E-02-1.06582E-03-4.05021E-16
 -1      2922 1.07454E-02-1.06058E-03-5.06366E-16
 -1      2923 7.84587E-04 1.22332E-04 6.57569E-17
 -1      2924 7.82180E-04 9.90693E-05 5.89535E-17
 -1      2925 8.99728E-04 9.83890E-05 6.82099E-17
 -1      2926 9.05533E-04 1.50106E-04 8.52454E-17
 -1      2927 9.51357E-03-6.45391E-04 1.36853E-16
 -1      2928 9.73032E-03-7.54527E-04 8.30567E-17
 -1      2929 8.64266E-03-1.08850E-04 3.24976E-16
 -1      2930 8.82439E-03-2.30866E-04 2.90146E-16
 -1      2931 1.06282E-02-1.07967E-03-7.59789E-16
 -1      2932 1.05093E-02-1.11155E-03-8.57963E-16
 -1      2933 6.03942E-03-3.87977E-04-2.08526E-16
 -1      2934 6.18863E-03-3.45838E-04-1.42871E-16
 -1      2935 6.78026E-03-8.60554E-05 1.01102E-16
 -1      2936 6.95291E-03-2.19480E-06 1.50623E-16
 -1      2937 5.88596E-03-4.92039E-04-8.11922E-16
 -1      2938 5.79265E-03-4.72935E-04-7.21858E-16
 -1      2939 7.49798E-03 2.35542E-04 3.19298E-16
 -1      2940 7.66008E-03 2.70884E-04 3.51119E-16
 -1      2941 6.36535E-03-2.80137E-04-6.80134E-17
 -1      2942 6.56063E-03-1.94638E-04 1.07336E-17
 -1      2943 7.12987E-03 8.06384E-05 1.99168E-16
 -1      2944 7.29312E-03 1.59539E-04 2.52890E-16
 -1      2945 6.99766E-03 5.64121E-05 2.39039E-16
 -1      2946 5.80652E-03-4.35528E-04-3.58962E-16
 -1      2947 5.89897E-03-4.20466E-04-2.86758E-16
 -1      2948 1.07349E-02-1.05930E-03-5.96125E-16
 -1      2949 1.07030E-02-1.06250E-03-6.67360E-16
 -1      2950 1.06926E-02-1.09188E-03-7.32304E-16
 -1      2951 1.07762E-02-1.08352E-03-5.51229E-16
 -1      2952 7.81988E-04-9.69861E-05 2.29038E-18
 -1      2953 7.84328E-04-1.20169E-04-3.75405E-18
 -1      2954 1.02879E-02-1.22305E-03-1.03982E-15
 -1      2955 1.04716E-02-1.19142E-03-9.91584E-16
 -1      2956 1.06200E-02-1.14683E-03-8.75324E-16
 -1      2957 1.03076E-02-1.18769E-03-9.84327E-16
 -1      2958 8.95533E-04 1.02114E-06 3.68493E-17
 -1      2959 7.77778E-04-9.59078E-06 2.71457E-17
 -1      2960 7.78161E-04-3.10081E-05 2.10064E-17
 -1      2961 8.07609E-04 2.66691E-04 1.05276E-16
 -1      2962 6.62986E-03-1.24730E-04 1.01996E-16
 -1      2963 8.02513E-03 2.26350E-04 4.63198E-16
 -1      2964 8.11893E-03 1.95217E-04 3.95815E-16
 -1      2965 8.20590E-03 1.47724E-04 4.41243E-16
 -1      2966 9.59362E-03-1.60345E-03-1.34343E-15
 -1      2967 8.95549E-03-3.22418E-04 3.29896E-16
 -1      2968 1.05911E-02-1.07015E-03-2.16088E-16
 -1      2969 1.06617E-02-1.07043E-03-3.09496E-16
 -1      2970 1.07473E-02-1.09641E-03-3.66772E-16
 -1      2971 1.03010E-02-9.81589E-04-9.87098E-17
 -1      2972 1.35930E-03 3.43943E-04 2.13601E-16
 -1      2973 1.29834E-03 3.67834E-04 2.10254E-16
 -1      2974 1.41424E-02-2.90668E-03 1.79861E-15
 -1      2975 7.36063E-03 2.12463E-04 3.52867E-16
 -1      2976 9.39630E-03-5.89609E-04 2.25975E-16
 -1      2977 1.36516E-02-2.62806E-03 2.65875E-15
 -1      2978 9.86817E-03-8.22705E-04 6.18334E-17
 -1      2979 9.99887E-03-8.79874E-04 3.98919E-17
 -1      2980 9.75774E-03-7.77879E-04 1.39537E-16
 -1      2981 1.50983E-02-3.44703E-03 3.53328E-16
 -1      2982 1.50257E-02-3.40520E-03 4.84638E-16
 -1      2983 5.93921E-03-4.90492E-04-8.73271E-16
 -1      2984 1.48658E-02-3.31965E-03 4.88989E-16
 -1      2985 5.94500E-03-3.83895E-04-2.10464E-16
 -1      2986 1.19891E-03 3.60609E-04 1.89762E-16
 -1      2987 5.94886E-03-4.77295E-04-9.24425E-16
 -1      2988 7.03221E-03-1.06001E-03-1.29797E-15
 -1      2989 6.25201E-03-2.90624E-04-5.96989E-17
 -1      2990 9.25480E-04 2.78321E-04 1.23938E-16
 -1      2991 8.52061E-03-3.44539E-05 3.69076E-16
 -1      2992 8.61793E-03-1.03425E-04 4.11875E-16
 -1      2993 8.41182E-03 3.20842E-05 4.15859E-16
 -1      2994 7.78967E-04-5.25717E-05 1.50433E-17
 -1      2995 7.80217E-04-7.45514E-05 8.67362E-18
 -1      2996 8.99526E-04-9.60134E-05 6.62719E-18
 -1      2997 8.96478E-04-4.69559E-05 2.18602E-17
 -1      2998 5.73031E-03-4.48990E-04-6.45459E-16
 -1      2999 5.68458E-03-4.29654E-04-5.69796E-16
 -1      3000 5.73926E-03-4.38213E-04-6.89912E-16
 -1      3001 5.68727E-03-4.21385E-04-4.49503E-16
 -1      3002 5.73769E-03-4.32328E-04-4.04767E-16
 -1      3003 5.74251E-03-4.06328E-04-3.32579E-16
 -1      3004 1.05461E-02-1.13024E-03-8.76855E-16
 -1      3005 1.04353E-02-1.13753E-03-9.10513E-16
 -1      3006 9.05163E-04-1.47552E-04-9.02598E-18
 -1      3007 7.87396E-04-1.44169E-04-1.02457E-17
 -1      3008 7.91270E-04-1.69220E-04-1.69271E-17
 -1      3009 1.04051E-03 2.41049E-04 1.29223E-16
 -1      3010 1.03386E-03 2.09454E-04 1.18354E-16
 -1      3011 1.05906E-03 3.62014E-04 1.64582E-16
 -1      3012 6.47270E-03-1.56379E-04 1.07783E-16
 -1      3013 6.66373E-03-6.15572E-05 1.94926E-16
 -1      3014 7.85734E-04-1.86047E-04-2.11826E-17
 -1      3015 7.93558E-04-2.09513E-04-2.71186E-17
 -1      3016 8.94477E-04-2.31404E-04-3.25396E-17
 -1      3017 9.03743E-04-1.93174E-04-2.22397E-17
 -1      3018 1.15884E-03-2.74143E-04-4.70408E-17
 -1      3019 1.30175E-03-2.93315E-04-5.57009E-17
 -1      3020 1.45214E-03-3.10383E-04-6.53909E-17
 -1      3021 1.60285E-03-3.24556E-04-7.57044E-17
 -1      3022 1.37293E-03-2.70334E-04-4.80708E-17
 -1      3023 1.74644E-03-3.35695E-04-8.60179E-17
 -1      3024 1.89010E-03-3.44707E-04-9.69006E-17
 -1      3025 1.66698E-03-2.96161E-04-6.41712E-17
 -1      3026 2.03372E-03-3.51904E-04-1.08285E-16
 -1      3027 2.17731E-03-3.57431E-04-1.20902E-16
 -1      3028 1.95458E-03-3.13144E-04-8.19115E-17
 -1      3029 2.32081E-03-3.61551E-04-1.34143E-16
 -1      3030 2.46423E-03-3.64381E-04-1.48210E-16
 -1      3031 2.24223E-03-3.23658E-04-1.02335E-16
 -1      3032 2.60753E-03-3.66132E-04-1.63606E-16
 -1      3033 2.75072E-03-3.66894E-04-1.79422E-16
 -1      3034 2.52953E-03-3.29136E-04-1.26093E-16
 -1      3035 2.89375E-03-3.66835E-04-1.95915E-16
 -1      3036 3.03662E-03-3.66023E-04-2.13669E-16
 -1      3037 2.81620E-03-3.30761E-04-1.53049E-16
 -1      3038 3.17928E-03-3.64599E-04-2.32141E-16
 -1      3039 3.32171E-03-3.62611E-04-2.50708E-16
 -1      3040 3.10194E-03-3.29493E-04-1.82837E-16
 -1      3041 3.47094E-03-3.60060E-04-2.71173E-16
 -1      3042 3.61981E-03-3.57075E-04-2.93006E-16
 -1      3043 3.39349E-03-3.26031E-04-2.16081E-16
 -1      3044 3.76111E-03-3.53985E-04-3.14581E-16
 -1      3045 3.90192E-03-3.50677E-04-3.36835E-16
 -1      3046 3.68313E-03-3.21166E-04-2.53012E-16
 -1      3047 4.04201E-03-3.47349E-04-3.60484E-16
 -1      3048 4.18135E-03-3.44014E-04-3.84810E-16
 -1      3049 3.96307E-03-3.15870E-04-2.92884E-16
 -1      3050 4.31962E-03-3.40966E-04-4.09110E-16
 -1      3051 4.45675E-03-3.38200E-04-4.35321E-16
 -1      3052 4.23922E-03-3.11003E-04-3.36211E-16
 -1      3053 4.59228E-03-3.36171E-04-4.63076E-16
 -1      3054 4.72612E-03-3.34836E-04-4.91238E-16
 -1      3055 4.50988E-03-3.07875E-04-3.82669E-16
 -1      3056 4.85764E-03-3.34891E-04-5.20715E-16
 -1      3057 4.98670E-03-3.36212E-04-5.50571E-16
 -1      3058 4.77264E-03-3.08305E-04-4.33857E-16
 -1      3059 5.11246E-03-3.39833E-04-5.82067E-16
 -1      3060 5.23483E-03-3.45451E-04-6.14810E-16
 -1      3061 5.02413E-03-3.14758E-04-4.88935E-16
 -1      3062 5.35261E-03-3.54541E-04-6.48272E-16
 -1      3063 5.46602E-03-3.66486E-04-6.81489E-16
 -1      3064 5.25977E-03-3.30325E-04-5.47116E-16
 -1      3065 5.57844E-03-3.84354E-04-7.18487E-16
 -1      3066 5.68516E-03-4.05765E-04-7.56197E-16
 -1      3067 5.47846E-03-3.59386E-04-6.11558E-16
 -1      3068 1.08316E-02-1.15782E-03-7.26056E-16
 -1      3069 1.09340E-02-1.20444E-03-7.03166E-16
 -1      3070 1.49092E-02-3.34842E-03 2.42102E-16
 -1      3071 8.84708E-03-2.55094E-04 4.37909E-16
 -1      3072 9.05510E-03-3.89290E-04 4.00735E-16
 -1      3073 1.42175E-03 3.19147E-04 2.15187E-16
 -1      3074 1.27850E-03 3.01887E-04 1.84165E-16
 -1      3075 1.12677E-02-1.37357E-03-6.18781E-16
 -1      3076 1.13936E-02-1.44217E-03-5.95390E-16
 -1      3077 1.15173E-02-1.51005E-03-5.73529E-16
 -1      3078 1.16446E-02-1.58073E-03-5.51886E-16
 -1      3079 1.14195E-02-1.45264E-03-4.86319E-16
 -1      3080 1.17745E-02-1.65301E-03-5.29877E-16
 -1      3081 1.19072E-02-1.72705E-03-5.03476E-16
 -1      3082 1.16652E-02-1.58999E-03-4.41216E-16
 -1      3083 1.20417E-02-1.80201E-03-4.78784E-16
 -1      3084 1.21780E-02-1.87796E-03-4.55988E-16
 -1      3085 1.19238E-02-1.73468E-03-3.91898E-16
 -1      3086 1.23155E-02-1.95436E-03-4.31336E-16
 -1      3087 1.24543E-02-2.03123E-03-4.08554E-16
 -1      3088 1.21915E-02-1.88392E-03-3.40141E-16
 -1      3089 1.25939E-02-2.10825E-03-3.87087E-16
 -1      3090 1.27343E-02-2.18542E-03-3.63845E-16
 -1      3091 1.24653E-02-2.03568E-03-2.92233E-16
 -1      3092 1.28752E-02-2.26256E-03-3.41022E-16
 -1      3093 1.30166E-02-2.33966E-03-3.18308E-16
 -1      3094 1.27434E-02-2.18857E-03-2.44799E-16
 -1      3095 1.31654E-02-2.42047E-03-2.92843E-16
 -1      3096 1.33146E-02-2.50114E-03-2.63800E-16
 -1      3097 1.30312E-02-2.34556E-03-1.97338E-16
 -1      3098 1.34568E-02-2.57777E-03-2.34486E-16
 -1      3099 1.35993E-02-2.65422E-03-2.03559E-16
 -1      3100 1.33210E-02-2.50229E-03-1.39076E-16
 -1      3101 1.37418E-02-2.73048E-03-1.69081E-16
 -1      3102 1.38844E-02-2.80655E-03-1.26987E-16
 -1      3103 1.36048E-02-2.65469E-03-7.47693E-17
 -1      3104 1.40271E-02-2.88243E-03-8.11796E-17
 -1      3105 1.41699E-02-2.95812E-03-3.54941E-17
 -1      3106 1.38894E-02-2.80646E-03 5.66496E-18
 -1      3107 1.43127E-02-3.03365E-03 1.97596E-17
 -1      3108 1.44555E-02-3.10900E-03 7.81303E-17
 -1      3109 1.41744E-02-2.95760E-03 1.06157E-16
 -1      3110 1.45983E-02-3.18420E-03 1.39306E-16
 -1      3111 1.47412E-02-3.25926E-03 2.07150E-16
 -1      3112 1.44597E-02-3.10813E-03 2.24972E-16
 -1      3113 1.44887E-02-3.10971E-03 8.87176E-16
 -1      3114 1.44163E-02-3.06838E-03 1.01826E-15
 -1      3115 1.40555E-02-2.86352E-03 1.67044E-15
 -1      3116 1.39827E-02-2.82222E-03 1.80731E-15
 -1      3117 1.99582E-03 3.63690E-04 3.48517E-16
 -1      3118 1.85227E-03 3.55735E-04 3.14120E-16
 -1      3119 1.70872E-03 3.45803E-04 2.80212E-16
 -1      3120 1.56518E-03 3.33723E-04 2.47428E-16
 -1      3121 1.48535E-03 2.93346E-04 2.15295E-16
 -1      3122 1.77260E-03 3.16116E-04 2.77407E-16
 -1      3123 3.14303E-03 3.81916E-04 6.24229E-16
 -1      3124 2.99967E-03 3.82595E-04 5.92110E-16
 -1      3125 2.85632E-03 3.82677E-04 5.58527E-16
 -1      3126 2.71298E-03 3.82085E-04 5.23466E-16
 -1      3127 2.92233E-03 3.45798E-04 5.36721E-16
 -1      3128 3.71723E-03 3.75504E-04 7.48764E-16
 -1      3129 3.57350E-03 3.77475E-04 7.19504E-16
 -1      3130 4.00536E-03 3.71431E-04 8.06240E-16
 -1      3131 3.86117E-03 3.73459E-04 7.77929E-16
 -1      3132 3.78376E-03 3.36997E-04 7.11603E-16
 -1      3133 4.29481E-03 3.67876E-04 8.57062E-16
 -1      3134 4.14989E-03 3.69531E-04 8.31935E-16
 -1      3135 4.07190E-03 3.32498E-04 7.62425E-16
 -1      3136 4.58621E-03 3.65796E-04 9.05214E-16
 -1      3137 4.44023E-03 3.66579E-04 8.81768E-16
 -1      3138 4.36144E-03 3.28462E-04 8.08544E-16
 -1      3139 4.88037E-03 3.66306E-04 9.50818E-16
 -1      3140 4.73292E-03 3.65639E-04 9.28335E-16
 -1      3141 4.65322E-03 3.25817E-04 8.51085E-16
 -1      3142 5.17813E-03 3.70656E-04 9.93400E-16
 -1      3143 5.02878E-03 3.67901E-04 9.72394E-16
 -1      3144 4.94829E-03 3.25707E-04 8.91607E-16
 -1      3145 5.48017E-03 3.80097E-04 1.03250E-15
 -1      3146 5.32863E-03 3.74645E-04 1.01373E-15
 -1      3147 5.24779E-03 3.29501E-04 9.29595E-16
 -1      3148 5.78669E-03 3.95537E-04 1.06748E-15
 -1      3149 5.63295E-03 3.87017E-04 1.05075E-15
 -1      3150 5.55269E-03 3.38694E-04 9.62975E-16
 -1      3151 6.09696E-03 4.16860E-04 1.09857E-15
 -1      3152 5.94153E-03 4.05529E-04 1.08357E-15
 -1      3153 5.86336E-03 3.54550E-04 9.92099E-16
 -1      3154 6.40888E-03 4.41841E-04 1.12790E-15
 -1      3155 6.25297E-03 4.29171E-04 1.11365E-15
 -1      3156 6.17893E-03 3.77294E-04 1.01840E-15
 -1      3157 6.71914E-03 4.64868E-04 1.15781E-15
 -1      3158 6.56450E-03 4.54185E-04 1.14252E-15
 -1      3159 6.49681E-03 4.04712E-04 1.04413E-15
 -1      3160 7.02415E-03 4.76185E-04 1.18654E-15
 -1      3161 6.87245E-03 4.72856E-04 1.17250E-15
 -1      3162 6.81273E-03 4.30356E-04 1.06963E-15
 -1      3163 7.32213E-03 4.63166E-04 1.21616E-15
 -1      3164 7.17390E-03 4.73633E-04 1.20079E-15
 -1      3165 7.12234E-03 4.42494E-04 1.09739E-15
 -1      3166 7.61467E-03 4.14193E-04 1.24538E-15
 -1      3167 7.46864E-03 4.43765E-04 1.23095E-15
 -1      3168 7.42383E-03 4.26153E-04 1.12372E-15
 -1      3169 7.90658E-03 3.23806E-04 1.27335E-15
 -1      3170 7.76015E-03 3.74139E-04 1.26005E-15
 -1      3171 7.72000E-03 3.68457E-04 1.15118E-15
 -1      3172 8.20304E-03 1.95545E-04 1.30253E-15
 -1      3173 8.05386E-03 2.63756E-04 1.28722E-15
 -1      3174 8.01714E-03 2.65302E-04 1.17824E-15
 -1      3175 8.50652E-03 4.00894E-05 1.33175E-15
 -1      3176 8.35386E-03 1.20282E-04 1.31756E-15
 -1      3177 8.32087E-03 1.23781E-04 1.20627E-15
 -1      3178 8.81586E-03-1.29690E-04 1.36551E-15
 -1      3179 8.66068E-03-4.38340E-05 1.34701E-15
 -1      3180 8.63261E-03-4.19046E-05 1.23648E-15
 -1      3181 9.12771E-03-3.03268E-04 1.40250E-15
 -1      3182 8.97178E-03-2.16541E-04 1.38335E-15
 -1      3183 8.94953E-03-2.17265E-04 1.26979E-15
 -1      3184 9.43853E-03-4.74154E-04 1.44437E-15
 -1      3185 9.28351E-03-3.89291E-04 1.42327E-15
 -1      3186 9.26704E-03-3.92140E-04 1.30874E-15
 -1      3187 9.74594E-03-6.39523E-04 1.49293E-15
 -1      3188 9.59282E-03-5.57575E-04 1.46786E-15
 -1      3189 9.58127E-03-5.61470E-04 1.35246E-15
 -1      3190 1.00489E-02-7.98917E-04 1.54657E-15
 -1      3191 9.89805E-03-7.19912E-04 1.51851E-15
 -1      3192 9.89015E-03-7.23922E-04 1.39958E-15
 -1      3193 1.03475E-02-9.53083E-04 1.61335E-15
 -1      3194 1.01988E-02-8.76562E-04 1.57869E-15
 -1      3195 1.01932E-02-8.80133E-04 1.45836E-15
 -1      3196 1.06423E-02-1.10320E-03 1.68635E-15
 -1      3197 1.04953E-02-1.02856E-03 1.64929E-15
 -1      3198 1.04911E-02-1.03147E-03 1.52520E-15
 -1      3199 1.09341E-02-1.25047E-03 1.76537E-15
 -1      3200 1.07885E-02-1.17712E-03 1.72474E-15
 -1      3201 1.07847E-02-1.17936E-03 1.60196E-15
 -1      3202 1.12238E-02-1.39593E-03 1.85129E-15
 -1      3203 1.10792E-02-1.32337E-03 1.80739E-15
 -1      3204 1.10753E-02-1.32505E-03 1.68146E-15
 -1      3205 1.15119E-02-1.54038E-03 1.93941E-15
 -1      3206 1.13680E-02-1.46823E-03 1.89512E-15
 -1      3207 1.13637E-02-1.46948E-03 1.76503E-15
 -1      3208 1.17991E-02-1.68441E-03 2.02991E-15
 -1      3209 1.16556E-02-1.61242E-03 1.98485E-15
 -1      3210 1.16508E-02-1.61334E-03 1.85302E-15
 -1      3211 1.20856E-02-1.82844E-03 2.12565E-15
 -1      3212 1.19424E-02-1.75641E-03 2.07659E-15
 -1      3213 1.19371E-02-1.75711E-03 1.94305E-15
 -1      3214 1.23717E-02-1.97271E-03 2.22936E-15
 -1      3215 1.22287E-02-1.90053E-03 2.17696E-15
 -1      3216 1.22229E-02-1.90109E-03 2.03853E-15
 -1      3217 1.26577E-02-2.11739E-03 2.34235E-15
 -1      3218 1.25147E-02-2.04499E-03 2.28551E-15
 -1      3219 1.25085E-02-2.04545E-03 2.14228E-15
 -1      3220 1.29435E-02-2.26253E-03 2.46675E-15
 -1      3221 1.28006E-02-2.18990E-03 2.40269E-15
 -1      3222 1.27940E-02-2.19027E-03 2.25603E-15
 -1      3223 1.39097E-02-2.78087E-03 1.94290E-15
 -1      3224 1.38367E-02-2.73946E-03 2.07752E-15
 -1      3225 1.38229E-02-2.73789E-03 1.81476E-15
 -1      3226 1.46335E-02-3.19255E-03 6.25124E-16
 -1      3227 1.45611E-02-3.15109E-03 7.54347E-16
 -1      3228 1.44016E-02-3.06583E-03 7.61354E-16
 -1      3229 1.43450E-02-3.02781E-03 1.14473E-15
 -1      3230 1.42737E-02-2.98726E-03 1.27418E-15
 -1      3231 1.42580E-02-2.98410E-03 1.02072E-15
 -1      3232 5.85516E-03-3.71226E-04-2.05436E-16
 -1      3233 5.98423E-03-3.42286E-04-1.29488E-16
 -1      3234 5.82537E-03-4.47329E-04-8.18390E-16
 -1      3235 7.21644E-03 1.87252E-04 3.84932E-16
 -1      3236 7.39882E-03 2.53016E-04 4.50689E-16
 -1      3237 6.87466E-03 4.42023E-05 2.84603E-16
 -1      3238 7.03030E-03 1.13635E-04 3.32227E-16
 -1      3239 3.42991E-03 3.79259E-04 6.88455E-16
 -1      3240 3.28643E-03 3.80780E-04 6.56579E-16
 -1      3241 3.20935E-03 3.44349E-04 5.97856E-16
 -1      3242 3.49640E-03 3.41181E-04 6.56132E-16
 -1      3243 1.37649E-02-2.69869E-03 2.21046E-15
 -1      3244 1.36931E-02-2.65784E-03 2.34250E-15
 -1      3245 1.36781E-02-2.65594E-03 2.08426E-15
 -1      3246 1.01851E-02-9.53418E-04-1.28478E-17
 -1      3247 1.03587E-02-1.01128E-03-7.30075E-17
 -1      3248 1.10422E-02-1.25486E-03-6.63803E-16
 -1      3249 1.11528E-02-1.31249E-03-6.40601E-16
 -1      3250 1.11918E-02-1.32596E-03-5.30947E-16
 -1      3251 1.01654E-03 6.73730E-05 6.74509E-17
 -1      3252 1.01535E-03 4.07173E-05 5.79913E-17
 -1      3253 1.07430E-03 3.26982E-04 1.58930E-16
 -1      3254 1.06791E-03 2.80243E-04 1.44877E-16
 -1      3255 7.68037E-03 2.83449E-04 4.45810E-16
 -1      3256 7.80367E-03 2.75838E-04 3.78224E-16
 -1      3257 9.32371E-03-5.50969E-04 3.10068E-16
 -1      3258 9.53195E-03-6.67403E-04 2.44230E-16
 -1      3259 7.87413E-03 2.67971E-04 4.44279E-16
 -1      3260 6.13112E-03-2.93828E-04-4.85248E-17
 -1      3261 6.28623E-03-2.36293E-04 2.33781E-17
 -1      3262 1.36009E-02-2.60621E-03 2.47255E-15
 -1      3263 1.34722E-02-2.53380E-03 2.66374E-15
 -1      3264 1.33291E-02-2.46036E-03 2.60416E-15
 -1      3265 1.35138E-02-2.56367E-03 2.34920E-15
 -1      3266 1.42011E-02-2.94602E-03 1.40591E-15
 -1      3267 1.41283E-02-2.90478E-03 1.53649E-15
 -1      3268 1.39687E-02-2.82028E-03 1.54533E-15
 -1      3269 1.41142E-02-2.90254E-03 1.27993E-15
 -1      3270 1.47703E-02-3.27233E-03 3.19962E-16
 -1      3271 5.70423E-03-4.15784E-04-7.05145E-16
 -1      3272 7.57188E-03 2.90695E-04 5.18181E-16
 -1      3273 7.70070E-03 2.94789E-04 5.43904E-16
 -1      3274 7.89987E-03 2.62657E-04 5.17666E-16
 -1      3275 7.96160E-03 2.46185E-04 4.89639E-16
 -1      3276 8.04509E-03 2.15434E-04 5.35664E-16
 -1      3277 6.33199E-03-1.71400E-04 1.14600E-16
 -1      3278 1.09875E-02-1.21403E-03-5.91222E-16
 -1      3279 1.07482E-02-1.11864E-03-7.31904E-16
 -1      3280 1.08164E-02-1.12120E-03-6.36250E-16
 -1      3281 7.78651E-03 2.88788E-04 5.86526E-16
 -1      3282 7.86816E-03 2.72712E-04 6.31195E-16
 -1      3283 7.67694E-03 3.09096E-04 6.57840E-16
 -1      3284 8.72972E-03-1.79106E-04 4.84178E-16
 -1      3285 8.84009E-03-2.45379E-04 5.56860E-16
 -1      3286 8.62100E-03-1.06784E-04 5.29308E-16
 -1      3287 1.02849E-03 1.79267E-04 1.07743E-16
 -1      3288 1.02426E-03 1.50159E-04 9.72394E-17
 -1      3289 1.15321E-03 2.09416E-04 1.33113E-16
 -1      3290 1.05065E-02-1.05836E-03-1.29691E-16
 -1      3291 1.06342E-02-1.09533E-03-1.86246E-16
 -1      3292 1.04157E-02-1.03921E-03-4.40593E-17
 -1      3293 1.25072E-03 2.60635E-04 1.65124E-16
 -1      3294 1.18677E-03 2.82084E-04 1.63281E-16
 -1      3295 6.01560E-03-2.92828E-04-4.70747E-17
 -1      3296 1.46979E-02-3.23068E-03 4.53400E-16
 -1      3297 2.63517E-03 3.44746E-04 4.73132E-16
 -1      3298 2.56962E-03 3.80649E-04 4.89002E-16
 -1      3299 2.42624E-03 3.78278E-04 4.54240E-16
 -1      3300 1.32079E-02-2.39798E-03 2.56171E-15
 -1      3301 1.30648E-02-2.32474E-03 2.50459E-15
 -1      3302 1.30579E-02-2.32505E-03 2.35566E-15
 -1      3303 1.33003E-02-2.44965E-03 2.43592E-15
 -1      3304 9.66752E-03-7.37521E-04 2.22966E-16
 -1      3305 9.80017E-03-8.00858E-04 2.02258E-16
 -1      3306 9.59392E-03-6.96611E-04 3.08320E-16
 -1      3307 1.45382E-02-3.14511E-03 4.60352E-16
 -1      3308 9.19854E-03-4.72996E-04 4.18597E-16
 -1      3309 5.76272E-03-3.78008E-04-2.52043E-16
 -1      3310 5.78391E-03-3.43851E-04-1.72917E-16
 -1      3311 5.68573E-03-3.76223E-04-2.97356E-16
 -1      3312 9.96170E-04-2.51825E-04-3.88551E-17
 -1      3313 7.43197E-03 2.84600E-04 5.47847E-16
 -1      3314 1.06030E-03-2.34707E-04-3.38271E-17
 -1      3315 7.08582E-03 1.74189E-04 4.27311E-16
 -1      3316 2.28281E-03 3.74761E-04 4.19044E-16
 -1      3317 2.13933E-03 3.69985E-04 3.83618E-16
 -1      3318 2.06020E-03 3.31183E-04 3.42106E-16
 -1      3319 2.34778E-03 3.40258E-04 4.08067E-16
 -1      3320 6.71378E-03 5.57602E-06 2.86419E-16
 -1      3321 6.74664E-03 6.85052E-05 3.75676E-16
 -1      3322 6.55515E-03-2.48143E-05 2.88547E-16
 -1      3323 1.00809E-02-9.18980E-04 6.58992E-17
 -1      3324 1.08379E-02-1.12490E-03-5.47041E-16
 -1      3325 8.30062E-03 9.31063E-05 4.83392E-16
 -1      3326 8.39454E-03 3.40915E-05 5.24361E-16
 -1      3327 8.20164E-03 1.43726E-04 5.51141E-16
 -1      3328 5.63207E-03-4.01421E-04-5.41207E-16
 -1      3329 5.65356E-03-4.12107E-04-4.96192E-16
 -1      3330 5.63182E-03-3.93156E-04-4.23754E-16
 -1      3331 1.08370E-02-1.13121E-03-4.39244E-16
 -1      3332 1.09149E-02-1.16978E-03-5.21827E-16
 -1      3333 1.10005E-02-1.22021E-03-4.84042E-16
 -1      3334 1.08149E-02-1.13943E-03-3.44634E-16
 -1      3335 1.01474E-03 1.42799E-05 4.88027E-17
 -1      3336 1.01472E-03-1.20549E-05 3.96140E-17
 -1      3337 1.13528E-03 2.97490E-05 6.28973E-17
 -1      3338 1.02091E-03 1.21874E-04 8.68717E-17
 -1      3339 1.01839E-03 9.43847E-05 7.69241E-17
 -1      3340 1.13801E-03 8.74357E-05 8.51234E-17
 -1      3341 1.14375E-03 1.46911E-04 1.08583E-16
 -1      3342 1.02390E-03-1.47403E-04-6.24772E-18
 -1      3343 1.02801E-03-1.76418E-04-1.56667E-17
 -1      3344 1.02064E-03-1.19261E-04 3.08998E-18
 -1      3345 1.14340E-03-1.44019E-04-2.07354E-18
 -1      3346 1.01819E-03-9.18356E-05 1.24412E-17
 -1      3347 7.27715E-03 2.80220E-04 5.95566E-16
 -1      3348 7.43902E-03 3.15729E-04 6.62149E-16
 -1      3349 6.18509E-03-1.78986E-04 1.24697E-16
 -1      3350 6.34874E-03-1.09076E-04 2.05592E-16
 -1      3351 1.29157E-03-2.31405E-04-3.25803E-17
 -1      3352 1.44156E-03-2.45712E-04-3.85298E-17
 -1      3353 1.13231E-02-1.40101E-03-4.00193E-16
 -1      3354 1.14387E-02-1.46555E-03-3.76814E-16
 -1      3355 1.58488E-03-2.57206E-04-4.43981E-17
 -1      3356 1.72856E-03-2.66772E-04-5.07678E-17
 -1      3357 1.50388E-03-2.19305E-04-2.69831E-17
 -1      3358 1.87243E-03-2.74622E-04-5.75305E-17
 -1      3359 2.01641E-03-2.80893E-04-6.47946E-17
 -1      3360 1.79101E-03-2.36677E-04-3.54534E-17
 -1      3361 2.16040E-03-2.85803E-04-7.31023E-17
 -1      3362 2.30434E-03-2.89461E-04-8.19386E-17
 -1      3363 2.07904E-03-2.48193E-04-4.63767E-17
 -1      3364 2.44816E-03-2.92068E-04-9.11814E-17
 -1      3365 2.59183E-03-2.93710E-04-1.01454E-16
 -1      3366 2.36713E-03-2.55024E-04-5.90213E-17
 -1      3367 2.73528E-03-2.94561E-04-1.12323E-16
 -1      3368 2.87847E-03-2.94687E-04-1.23613E-16
 -1      3369 2.65466E-03-2.58238E-04-7.41052E-17
 -1      3370 3.02135E-03-2.94242E-04-1.36040E-16
 -1      3371 3.16386E-03-2.93275E-04-1.49051E-16
 -1      3372 2.94112E-03-2.58765E-04-9.21707E-17
 -1      3373 3.31302E-03-2.91858E-04-1.63945E-16
 -1      3374 3.46164E-03-2.90072E-04-1.78812E-16
 -1      3375 3.23310E-03-2.57373E-04-1.13895E-16
 -1      3376 3.60254E-03-2.88200E-04-1.93517E-16
 -1      3377 3.74275E-03-2.86185E-04-2.10200E-16
 -1      3378 3.52279E-03-2.54844E-04-1.37775E-16
 -1      3379 3.88210E-03-2.84236E-04-2.27520E-16
 -1      3380 4.02048E-03-2.82367E-04-2.46019E-16
 -1      3381 3.80240E-03-2.52118E-04-1.64961E-16
 -1      3382 4.15765E-03-2.80865E-04-2.65657E-16
 -1      3383 4.29345E-03-2.79730E-04-2.85023E-16
 -1      3384 4.07796E-03-2.50118E-04-1.97176E-16
 -1      3385 4.42756E-03-2.79376E-04-3.05040E-16
 -1      3386 4.55973E-03-2.79770E-04-3.26941E-16
 -1      3387 4.34798E-03-2.50105E-04-2.31762E-16
 -1      3388 4.68953E-03-2.81517E-04-3.49479E-16
 -1      3389 4.81660E-03-2.84503E-04-3.73169E-16
 -1      3390 4.61038E-03-2.53759E-04-2.68909E-16
 -1      3391 4.94037E-03-2.89607E-04-3.98024E-16
 -1      3392 5.06029E-03-2.96530E-04-4.22798E-16
 -1      3393 4.86232E-03-2.63279E-04-3.10516E-16
 -1      3394 5.17563E-03-3.06541E-04-4.48887E-16
 -1      3395 5.28558E-03-3.18907E-04-4.76209E-16
 -1      3396 5.09984E-03-2.81400E-04-3.54859E-16
 -1      3397 5.39406E-03-3.36407E-04-5.06912E-16
 -1      3398 5.49420E-03-3.56863E-04-5.37927E-16
 -1      3399 5.32250E-03-3.12094E-04-4.05763E-16
 -1      3400 1.33456E-03 2.43128E-04 1.70382E-16
 -1      3401 1.24363E-03 2.26426E-04 1.51165E-16
 -1      3402 1.23783E-03 1.93210E-04 1.37572E-16
 -1      3403 5.89427E-03-2.84607E-04-4.17757E-17
 -1      3404 6.02282E-03-2.41106E-04 3.67070E-17
 -1      3405 1.15587E-02-1.53215E-03-3.50943E-16
 -1      3406 1.16826E-02-1.60130E-03-3.28296E-16
 -1      3407 1.14504E-02-1.47751E-03-2.64125E-16
 -1      3408 1.18096E-02-1.67193E-03-3.04024E-16
 -1      3409 1.19394E-02-1.74425E-03-2.76295E-16
 -1      3410 1.16948E-02-1.61181E-03-2.14523E-16
 -1      3411 1.20715E-02-1.81751E-03-2.51928E-16
 -1      3412 1.22054E-02-1.89181E-03-2.25351E-16
 -1      3413 1.19514E-02-1.75320E-03-1.62834E-16
 -1      3414 1.23410E-02-1.96665E-03-1.98734E-16
 -1      3415 1.24778E-02-2.04206E-03-1.75126E-16
 -1      3416 1.22169E-02-1.89925E-03-1.07770E-16
 -1      3417 1.26158E-02-2.11772E-03-1.51477E-16
 -1      3418 1.27546E-02-2.19366E-03-1.27340E-16
 -1      3419 1.24886E-02-2.04812E-03-5.68800E-17
 -1      3420 1.29012E-02-2.27346E-03-1.00871E-16
 -1      3421 1.30485E-02-2.35334E-03-7.36580E-17
 -1      3422 1.27717E-02-2.20230E-03-6.93889E-18
 -1      3423 1.31892E-02-2.42938E-03-4.36798E-17
 -1      3424 1.33304E-02-2.50537E-03-1.29833E-17
 -1      3425 1.30579E-02-2.35716E-03 5.10659E-17
 -1      3426 1.34718E-02-2.58127E-03 1.87838E-17
 -1      3427 1.36136E-02-2.65706E-03 5.51723E-17
 -1      3428 1.33392E-02-2.50836E-03 1.13299E-16
 -1      3429 1.37555E-02-2.73273E-03 9.88115E-17
 -1      3430 1.38977E-02-2.80827E-03 1.45053E-16
 -1      3431 1.36220E-02-2.65937E-03 1.89695E-16
 -1      3432 1.40400E-02-2.88368E-03 1.92744E-16
 -1      3433 1.41824E-02-2.95896E-03 2.48201E-16
 -1      3434 1.39058E-02-2.81003E-03 2.81540E-16
 -1      3435 1.42890E-02-3.01464E-03 3.18349E-16
 -1      3436 1.44315E-02-3.08967E-03 3.82114E-16
 -1      3437 1.43674E-02-3.05181E-03 5.51601E-16
 -1      3438 1.41544E-02-2.94085E-03 4.02808E-16
 -1      3439 1.42951E-02-3.01059E-03 6.83725E-16
 -1      3440 1.42229E-02-2.96946E-03 8.15618E-16
 -1      3441 1.41887E-02-2.95527E-03 6.07993E-16
 -1      3442 2.98871E-03 3.08747E-04 5.13072E-16
 -1      3443 2.84504E-03 3.08997E-04 4.84408E-16
 -1      3444 4.13808E-03 2.93367E-04 7.15994E-16
 -1      3445 3.99396E-03 2.95879E-04 6.94431E-16
 -1      3446 3.85010E-03 2.98382E-04 6.71745E-16
 -1      3447 3.70643E-03 3.00790E-04 6.47120E-16
 -1      3448 3.91621E-03 2.59685E-04 6.28227E-16
 -1      3449 4.71961E-03 2.85219E-04 7.95506E-16
 -1      3450 4.57320E-03 2.86715E-04 7.77170E-16
 -1      3451 5.01555E-03 2.84166E-04 8.30350E-16
 -1      3452 4.86702E-03 2.84278E-04 8.12718E-16
 -1      3453 4.78529E-03 2.43920E-04 7.36702E-16
 -1      3454 5.31683E-03 2.87056E-04 8.62469E-16
 -1      3455 5.16546E-03 2.84971E-04 8.47087E-16
 -1      3456 5.08200E-03 2.41565E-04 7.66246E-16
 -1      3457 5.62479E-03 2.95721E-04 8.90320E-16
 -1      3458 5.46997E-03 2.90501E-04 8.77160E-16
 -1      3459 5.38510E-03 2.43193E-04 7.92891E-16
 -1      3460 5.94002E-03 3.11944E-04 9.14823E-16
 -1      3461 5.78159E-03 3.02763E-04 9.02937E-16
 -1      3462 5.69632E-03 2.51120E-04 8.15605E-16
 -1      3463 6.26155E-03 3.36486E-04 9.35843E-16
 -1      3464 6.10024E-03 3.23215E-04 9.24526E-16
 -1      3465 6.01652E-03 2.67870E-04 8.34416E-16
 -1      3466 6.58613E-03 3.67174E-04 9.57540E-16
 -1      3467 6.42387E-03 3.51428E-04 9.47078E-16
 -1      3468 6.34460E-03 2.94900E-04 8.50814E-16
 -1      3469 6.90839E-03 3.96630E-04 9.80607E-16
 -1      3470 6.74805E-03 3.82999E-04 9.68396E-16
 -1      3471 6.67651E-03 3.30242E-04 8.68378E-16
 -1      3472 7.52780E-03 3.90224E-04 1.03060E-15
 -1      3473 7.37614E-03 4.05865E-04 1.01771E-15
 -1      3474 7.82765E-03 3.21840E-04 1.05529E-15
 -1      3475 7.67749E-03 3.62588E-04 1.04264E-15
 -1      3476 7.63296E-03 3.54644E-04 9.35111E-16
 -1      3477 8.13078E-03 2.03474E-04 1.08172E-15
 -1      3478 7.97805E-03 2.68246E-04 1.06912E-15
 -1      3479 7.93781E-03 2.72204E-04 9.59261E-16
 -1      3480 8.44297E-03 4.72110E-05 1.11068E-15
 -1      3481 8.28555E-03 1.28702E-04 1.09538E-15
 -1      3482 8.24903E-03 1.35948E-04 9.85513E-16
 -1      3483 8.76377E-03-1.28529E-04 1.14108E-15
 -1      3484 8.60259E-03-3.95193E-05 1.12533E-15
 -1      3485 8.57136E-03-3.55111E-05 1.01484E-15
 -1      3486 9.08825E-03-3.08186E-04 1.17555E-15
 -1      3487 8.92606E-03-2.18688E-04 1.15714E-15
 -1      3488 8.90171E-03-2.19909E-04 1.04573E-15
 -1      3489 9.41067E-03-4.82756E-04 1.21423E-15
 -1      3490 9.25014E-03-3.96405E-04 1.19513E-15
 -1      3491 9.23298E-03-4.01694E-04 1.08194E-15
 -1      3492 9.72721E-03-6.49223E-04 1.25992E-15
 -1      3493 9.56990E-03-5.66992E-04 1.23629E-15
 -1      3494 9.55886E-03-5.74097E-04 1.12157E-15
 -1      3495 1.00364E-02-8.07947E-04 1.30903E-15
 -1      3496 9.88281E-03-7.29418E-04 1.28363E-15
 -1      3497 9.87617E-03-7.36503E-04 1.16779E-15
 -1      3498 1.03387E-02-9.60583E-04 1.37077E-15
 -1      3499 1.01884E-02-8.84866E-04 1.33838E-15
 -1      3500 1.01845E-02-8.90909E-04 1.22045E-15
 -1      3501 1.06351E-02-1.10899E-03 1.44146E-15
 -1      3502 1.04876E-02-1.03518E-03 1.40483E-15
 -1      3503 1.04850E-02-1.03982E-03 1.28523E-15
 -1      3504 1.09272E-02-1.25472E-03 1.51512E-15
 -1      3505 1.07817E-02-1.18208E-03 1.47803E-15
 -1      3506 1.07794E-02-1.18538E-03 1.35571E-15
 -1      3507 1.12163E-02-1.39895E-03 1.59833E-15
 -1      3508 1.10721E-02-1.32695E-03 1.55720E-15
 -1      3509 1.10696E-02-1.32914E-03 1.43277E-15
 -1      3510 1.15035E-02-1.54250E-03 1.68035E-15
 -1      3511 1.13601E-02-1.47077E-03 1.63793E-15
 -1      3512 1.13571E-02-1.47214E-03 1.51304E-15
 -1      3513 1.17895E-02-1.68592E-03 1.76496E-15
 -1      3514 1.16466E-02-1.61420E-03 1.72238E-15
 -1      3515 1.16429E-02-1.61501E-03 1.59382E-15
 -1      3516 1.20748E-02-1.82955E-03 1.85445E-15
 -1      3517 1.19322E-02-1.75769E-03 1.80915E-15
 -1      3518 1.19278E-02-1.75815E-03 1.67685E-15
 -1      3519 1.23600E-02-1.97356E-03 1.95033E-15
 -1      3520 1.22174E-02-1.90150E-03 1.90074E-15
 -1      3521 1.22123E-02-1.90175E-03 1.76538E-15
 -1      3522 1.26450E-02-2.11807E-03 2.05391E-15
 -1      3523 1.25025E-02-2.04575E-03 2.00096E-15
 -1      3524 1.24968E-02-2.04589E-03 1.86079E-15
 -1      3525 1.29302E-02-2.26309E-03 2.16934E-15
 -1      3526 1.27876E-02-2.19052E-03 2.10961E-15
 -1      3527 1.27814E-02-2.19061E-03 1.96349E-15
 -1      3528 1.37362E-02-2.69484E-03 1.68839E-15
 -1      3529 1.36632E-02-2.65369E-03 1.82375E-15
 -1      3530 1.41517E-02-2.92909E-03 9.42280E-16
 -1      3531 1.40805E-02-2.88876E-03 1.06944E-15
 -1      3532 1.40455E-02-2.87401E-03 8.65586E-16
 -1      3533 4.42756E-03 2.88681E-04 7.57654E-16
 -1      3534 4.28258E-03 2.90925E-04 7.37163E-16
 -1      3535 4.20384E-03 2.54033E-04 6.68153E-16
 -1      3536 4.49311E-03 2.48490E-04 7.04311E-16
 -1      3537 1.01528E-03-3.84193E-05 3.04390E-17
 -1      3538 1.01641E-03-6.49318E-05 2.13452E-17
 -1      3539 1.13783E-03-8.47969E-05 1.95292E-17
 -1      3540 1.06487E-03-2.13685E-04-2.72135E-17
 -1      3541 9.98861E-03-8.85261E-04 1.51456E-16
 -1      3542 1.01674E-02-9.56615E-04 9.85336E-17
 -1      3543 9.90817E-03-8.48162E-04 2.35746E-16
 -1      3544 8.07333E-03 2.02294E-04 6.05053E-16
 -1      3545 8.13613E-03 1.74978E-04 5.78828E-16
 -1      3546 8.22626E-03 1.28877E-04 6.20096E-16
 -1      3547 1.06744E-02-1.13347E-03-8.24258E-16
 -1      3548 6.94360E-03 1.69979E-04 4.82890E-16
 -1      3549 7.11170E-03 2.29969E-04 5.36463E-16
 -1      3550 1.11091E-02-1.28161E-03-4.45221E-16
 -1      3551 1.12131E-02-1.34002E-03-4.22459E-16
 -1      3552 1.12232E-02-1.35321E-03-3.13809E-16
 -1      3553 9.13415E-03-4.25430E-04 5.25310E-16
 -1      3554 9.37726E-03-5.73107E-04 4.35714E-16
 -1      3555 1.35913E-02-2.61316E-03 1.95747E-15
 -1      3556 1.35194E-02-2.57253E-03 2.09045E-15
 -1      3557 1.35047E-02-2.57034E-03 1.83194E-15
 -1      3558 1.25709E-03 4.71135E-05 7.94585E-17
 -1      3559 1.25633E-03 1.65221E-05 6.67191E-17
 -1      3560 6.39680E-03-4.40561E-05 2.93263E-16
 -1      3561 5.51565E-03-3.57049E-04-4.50838E-16
 -1      3562 5.57810E-03-3.81377E-04-5.58134E-16
 -1      3563 1.25859E-03 7.78723E-05 9.25231E-17
 -1      3564 1.38004E-03 6.60142E-05 9.85675E-17
 -1      3565 1.26088E-03 1.08989E-04 1.05737E-16
 -1      3566 1.47757E-03 2.56453E-04 1.97853E-16
 -1      3567 8.50939E-03-3.48763E-05 5.97504E-16
 -1      3568 6.04461E-03-1.82672E-04 1.25984E-16
 -1      3569 1.03334E-02-1.01829E-03 4.28802E-17
 -1      3570 1.04852E-02-1.06919E-03-1.29562E-17
 -1      3571 1.02548E-02-9.92068E-04 1.29183E-16
 -1      3572 5.79112E-03-3.01718E-04-8.92908E-17
 -1      3573 5.79090E-03-2.55849E-04-8.03665E-18
 -1      3574 5.69802E-03-3.10928E-04-1.35634E-16
 -1      3575 2.76790E-03 2.72213E-04 4.33681E-16
 -1      3576 2.70128E-03 3.08575E-04 4.54525E-16
 -1      3577 2.55744E-03 3.07418E-04 4.24696E-16
 -1      3578 5.63213E-03-3.97217E-04-6.30558E-16
 -1      3579 1.13522E-03-2.73006E-05 4.10235E-17
 -1      3580 3.13231E-03 3.07955E-04 5.41789E-16
 -1      3581 3.05542E-03 2.71596E-04 4.87633E-16
 -1      3582 3.27585E-03 3.06675E-04 5.69301E-16
 -1      3583 1.38820E-02-2.77695E-03 1.41991E-15
 -1      3584 1.38092E-02-2.73592E-03 1.55388E-15
 -1      3585 1.36497E-02-2.65172E-03 1.56486E-15
 -1      3586 7.22288E-03 4.10373E-04 1.00450E-15
 -1      3587 7.06678E-03 4.06748E-04 9.92533E-16
 -1      3588 1.30513E-02-2.32524E-03 2.20576E-15
 -1      3589 1.30448E-02-2.32530E-03 2.05496E-15
 -1      3590 1.31724E-02-2.38747E-03 2.24319E-15
 -1      3591 7.00535E-03 3.64860E-04 8.88409E-16
 -1      3592 9.50370E-03-6.42154E-04 4.15127E-16
 -1      3593 9.62976E-03-7.07362E-04 3.93565E-16
 -1      3594 9.43098E-03-5.90269E-04 5.21908E-16
 -1      3595 1.40177E-02-2.85336E-03 1.17766E-15
 -1      3596 1.39450E-02-2.81236E-03 1.31132E-15
 -1      3597 1.37857E-02-2.72796E-03 1.32054E-15
 -1      3598 1.39116E-02-2.79853E-03 1.10255E-15
 -1      3599 5.62570E-03-3.73550E-04-3.44715E-16
 -1      3600 5.62669E-03-3.49922E-04-2.66660E-16
 -1      3601 5.57789E-03-3.67531E-04-3.90252E-16
 -1      3602 3.56287E-03 3.03021E-04 6.22020E-16
 -1      3603 3.41936E-03 3.05013E-04 5.95606E-16
 -1      3604 3.34249E-03 2.68957E-04 5.38049E-16
 -1      3605 3.62929E-03 2.64827E-04 5.85035E-16
 -1      3606 1.18435E-03-2.12892E-04-2.61564E-17
 -1      3607 1.25393E-03-1.91541E-04-1.78893E-17
 -1      3608 2.12553E-03 2.98145E-04 3.33433E-16
 -1      3609 1.98150E-03 2.92677E-04 3.02913E-16
 -1      3610 1.83755E-03 2.85709E-04 2.72690E-16
 -1      3611 1.69369E-03 2.77138E-04 2.42956E-16
 -1      3612 1.90339E-03 2.54617E-04 2.66145E-16
 -1      3613 1.07699E-02-1.13756E-03-2.57471E-16
 -1      3614 1.08846E-02-1.17696E-03-3.27266E-16
 -1      3615 1.07117E-02-1.13210E-03-1.70972E-16
 -1      3616 1.24566E-03-1.27417E-04 7.30481E-18
 -1      3617 1.24928E-03-1.59119E-04-5.28549E-18
 -1      3618 1.35589E-03-1.74074E-04-9.05309E-18
 -1      3619 1.10096E-02-1.23400E-03-3.75486E-16
 -1      3620 7.13278E-03 2.80118E-04 6.48990E-16
 -1      3621 6.79275E-03 1.39183E-04 4.80993E-16
 -1      3622 6.82342E-03 2.03145E-04 5.85442E-16
 -1      3623 6.64145E-03 1.11527E-04 4.80559E-16
 -1      3624 8.90682E-03-2.79670E-04 6.18239E-16
 -1      3625 9.01720E-03-3.51848E-04 5.71239E-16
 -1      3626 9.19317E-03-4.51668E-04 5.88058E-16
 -1      3627 1.32993E-02-2.45866E-03 2.02872E-15
 -1      3628 1.33860E-02-2.50122E-03 2.15480E-15
 -1      3629 7.38863E-03 3.53377E-04 8.15903E-16
 -1      3630 7.53756E-03 3.38830E-04 7.70542E-16
 -1      3631 7.32450E-03 3.80478E-04 9.11950E-16
 -1      3632 7.61713E-03 3.38281E-04 8.12704E-16
 -1      3633 6.23745E-03-4.75192E-05 3.14527E-16
 -1      3634 6.42549E-03 2.68442E-05 3.96059E-16
 -1      3635 5.49016E-03-3.40417E-04-3.74077E-16
 -1      3636 1.71409E-03-1.99752E-04-1.60326E-17
 -1      3637 1.85793E-03-2.06044E-04-1.87838E-17
 -1      3638 2.00195E-03-2.11144E-04-2.19686E-17
 -1      3639 2.14609E-03-2.15145E-04-2.56143E-17
 -1      3640 1.92562E-03-1.74678E-04 6.77626E-20
 -1      3641 2.29021E-03-2.18207E-04-2.98562E-17
 -1      3642 2.43423E-03-2.20411E-04-3.45047E-17
 -1      3643 2.21388E-03-1.81652E-04-2.69695E-18
 -1      3644 2.57807E-03-2.21908E-04-3.92888E-17
 -1      3645 2.72167E-03-2.22762E-04-4.50350E-17
 -1      3646 2.50200E-03-1.85605E-04-7.33192E-18
 -1      3647 2.86493E-03-2.23117E-04-5.16893E-17
 -1      3648 3.00781E-03-2.23022E-04-5.87502E-17
 -1      3649 2.78925E-03-1.87318E-04-1.37423E-17
 -1      3650 3.15731E-03-2.22594E-04-6.66649E-17
 -1      3651 3.30622E-03-2.21876E-04-7.56909E-17
 -1      3652 3.08210E-03-1.87515E-04-2.27547E-17
 -1      3653 3.44737E-03-2.21088E-04-8.53945E-17
 -1      3654 3.58779E-03-2.20232E-04-9.50845E-17
 -1      3655 3.37269E-03-1.86899E-04-3.46809E-17
 -1      3656 3.72735E-03-2.19502E-04-1.06252E-16
 -1      3657 3.86593E-03-2.18926E-04-1.18883E-16
 -1      3658 3.65327E-03-1.86306E-04-5.05509E-17
 -1      3659 4.00337E-03-2.18761E-04-1.32029E-16
 -1      3660 4.13951E-03-2.19030E-04-1.46665E-16
 -1      3661 3.93009E-03-1.86645E-04-7.04731E-17
 -1      3662 4.27413E-03-2.20086E-04-1.61546E-16
 -1      3663 4.40699E-03-2.21942E-04-1.76711E-16
 -1      3664 4.20204E-03-1.89077E-04-9.39732E-17
 -1      3665 4.53784E-03-2.25085E-04-1.92595E-16
 -1      3666 4.66631E-03-2.29492E-04-2.09929E-16
 -1      3667 4.46765E-03-1.95112E-04-1.19845E-16
 -1      3668 4.79213E-03-2.35842E-04-2.27466E-16
 -1      3669 4.91471E-03-2.44005E-04-2.45938E-16
 -1      3670 4.72505E-03-2.06692E-04-1.48197E-16
 -1      3671 5.03377E-03-2.54923E-04-2.65941E-16
 -1      3672 5.14841E-03-2.68248E-04-2.85755E-16
 -1      3673 4.97180E-03-2.26198E-04-1.79761E-16
 -1      3674 5.26377E-03-2.86211E-04-3.08849E-16
 -1      3675 5.37237E-03-3.07362E-04-3.33270E-16
 -1      3676 5.21041E-03-2.57304E-04-2.15960E-16
 -1      3677 7.88552E-03 2.72327E-04 7.27947E-16
 -1      3678 7.99844E-03 2.32518E-04 6.58992E-16
 -1      3679 1.15776E-02-1.55371E-03-1.24832E-16
 -1      3680 1.17026E-02-1.62143E-03-9.92723E-17
 -1      3681 1.18303E-02-1.69067E-03-7.23976E-17
 -1      3682 1.19604E-02-1.76150E-03-4.52925E-17
 -1      3683 1.17073E-02-1.62971E-03 1.67374E-17
 -1      3684 1.20924E-02-1.83334E-03-1.84450E-17
 -1      3685 1.22262E-02-1.90622E-03 1.02457E-17
 -1      3686 1.19670E-02-1.76881E-03 7.28719E-17
 -1      3687 1.23614E-02-1.97973E-03 3.79877E-17
 -1      3688 1.24979E-02-2.05387E-03 6.23281E-17
 -1      3689 1.22338E-02-1.91249E-03 1.29386E-16
 -1      3690 1.26422E-02-2.13208E-03 8.86335E-17
 -1      3691 1.27876E-02-2.21066E-03 1.16701E-16
 -1      3692 1.25127E-02-2.06278E-03 1.84423E-16
 -1      3693 1.29268E-02-2.28566E-03 1.46964E-16
 -1      3694 1.30665E-02-2.36081E-03 1.77281E-16
 -1      3695 1.27957E-02-2.21489E-03 2.41072E-16
 -1      3696 1.32068E-02-2.43600E-03 2.08343E-16
 -1      3697 1.33476E-02-2.51123E-03 2.42577E-16
 -1      3698 1.30746E-02-2.36421E-03 3.02858E-16
 -1      3699 1.34887E-02-2.58642E-03 2.79616E-16
 -1      3700 1.36301E-02-2.66159E-03 3.24285E-16
 -1      3701 1.33555E-02-2.51391E-03 3.74009E-16
 -1      3702 1.37718E-02-2.73669E-03 3.71732E-16
 -1      3703 1.39136E-02-2.81172E-03 4.21578E-16
 -1      3704 1.36379E-02-2.66367E-03 4.59729E-16
 -1      3705 1.39980E-02-2.85582E-03 4.75545E-16
 -1      3706 1.41043E-02-2.91132E-03 5.45571E-16
 -1      3707 1.40322E-02-2.87041E-03 6.78290E-16
 -1      3708 1.38637E-02-2.78254E-03 5.63162E-16
 -1      3709 8.08548E-03 1.97073E-04 7.01980E-16
 -1      3710 7.77311E-03 3.10749E-04 8.22909E-16
 -1      3711 7.89640E-03 2.77312E-04 8.51532E-16
 -1      3712 8.12566E-03 1.81590E-04 7.79758E-16
 -1      3713 8.20145E-03 1.43029E-04 7.25738E-16
 -1      3714 1.24092E-03-6.56904E-05 3.17265E-17
 -1      3715 1.24287E-03-9.63279E-05 1.95156E-17
 -1      3716 1.34866E-03-1.08069E-04 1.90277E-17
 -1      3717 1.09823E-02-1.23319E-03-2.88140E-16
 -1      3718 5.14712E-03 1.97848E-04 6.99934E-16
 -1      3719 4.99774E-03 1.99483E-04 6.88306E-16
 -1      3720 4.84991E-03 2.01909E-04 6.74835E-16
 -1      3721 4.70339E-03 2.04735E-04 6.62353E-16
 -1      3722 4.91329E-03 1.59096E-04 6.11680E-16
 -1      3723 5.76630E-03 2.04620E-04 7.37745E-16
 -1      3724 5.60780E-03 2.00043E-04 7.29275E-16
 -1      3725 6.09181E-03 2.21919E-04 7.49970E-16
 -1      3726 5.92780E-03 2.11695E-04 7.44671E-16
 -1      3727 5.83447E-03 1.56174E-04 6.56579E-16
 -1      3728 6.42748E-03 2.51960E-04 7.62763E-16
 -1      3729 6.25888E-03 2.35203E-04 7.56082E-16
 -1      3730 6.16584E-03 1.74224E-04 6.63938E-16
 -1      3731 6.76938E-03 2.69613E-04 7.29817E-16
 -1      3732 6.59708E-03 2.46401E-04 7.22960E-16
 -1      3733 8.05295E-03 2.18895E-04 8.64502E-16
 -1      3734 1.31539E-02-2.38443E-03 1.94961E-15
 -1      3735 1.30331E-02-2.32223E-03 1.91630E-15
 -1      3736 8.70670E-03-1.24965E-04 9.18753E-16
 -1      3737 8.53848E-03-3.00365E-05 9.03303E-16
 -1      3738 9.38385E-03-4.97572E-04 9.87478E-16
 -1      3739 9.21649E-03-4.08549E-04 9.69223E-16
 -1      3740 9.71147E-03-6.65749E-04 1.02933E-15
 -1      3741 9.54918E-03-5.83165E-04 1.00808E-15
 -1      3742 9.54109E-03-5.94112E-04 8.95266E-16
 -1      3743 1.00279E-02-8.22908E-04 1.07599E-15
 -1      3744 9.87116E-03-7.45406E-04 1.05100E-15
 -1      3745 9.86802E-03-7.56275E-04 9.36087E-16
 -1      3746 1.03339E-02-9.72514E-04 1.13229E-15
 -1      3747 1.01821E-02-8.98372E-04 1.10263E-15
 -1      3748 1.01816E-02-9.07444E-04 9.84998E-16
 -1      3749 1.06318E-02-1.11766E-03 1.19939E-15
 -1      3750 1.04837E-02-1.04544E-03 1.16523E-15
 -1      3751 1.04841E-02-1.05218E-03 1.04605E-15
 -1      3752 1.09237E-02-1.26056E-03 1.26971E-15
 -1      3753 1.07783E-02-1.18926E-03 1.23419E-15
 -1      3754 1.07785E-02-1.19381E-03 1.11265E-15
 -1      3755 1.12117E-02-1.40260E-03 1.34810E-15
 -1      3756 1.10681E-02-1.33160E-03 1.30749E-15
 -1      3757 1.10675E-02-1.33440E-03 1.18582E-15
 -1      3758 1.14974E-02-1.54461E-03 1.42518E-15
 -1      3759 1.13548E-02-1.47357E-03 1.38702E-15
 -1      3760 1.13532E-02-1.47508E-03 1.26188E-15
 -1      3761 1.17818E-02-1.68703E-03 1.50608E-15
 -1      3762 1.16397E-02-1.61575E-03 1.46682E-15
 -1      3763 1.16371E-02-1.61640E-03 1.33927E-15
 -1      3764 1.20657E-02-1.83005E-03 1.58773E-15
 -1      3765 1.19238E-02-1.75845E-03 1.54590E-15
 -1      3766 1.19202E-02-1.75859E-03 1.41712E-15
 -1      3767 1.23495E-02-1.97374E-03 1.67689E-15
 -1      3768 1.22076E-02-1.90181E-03 1.63191E-15
 -1      3769 1.22031E-02-1.90167E-03 1.49862E-15
 -1      3770 1.26334E-02-2.11810E-03 1.77103E-15
 -1      3771 1.24914E-02-2.04584E-03 1.72276E-15
 -1      3772 1.24863E-02-2.04559E-03 1.58762E-15
 -1      3773 1.29043E-02-2.25632E-03 1.86822E-15
 -1      3774 1.27621E-02-2.18376E-03 1.81521E-15
 -1      3775 1.27564E-02-2.18348E-03 1.67546E-15
 -1      3776 1.30135E-02-2.31518E-03 1.76229E-15
 -1      3777 1.39612E-02-2.83028E-03 8.05671E-16
 -1      3778 1.38901E-02-2.79020E-03 9.32129E-16
 -1      3779 1.38770E-02-2.78649E-03 7.44982E-16
 -1      3780 5.45184E-03 1.97778E-04 7.20900E-16
 -1      3781 5.29842E-03 1.97087E-04 7.10708E-16
 -1      3782 5.21067E-03 1.52870E-04 6.30626E-16
 -1      3783 3.98205E-03 2.20939E-04 5.83206E-16
 -1      3784 3.83882E-03 2.23902E-04 5.65750E-16
 -1      3785 1.13378E-02-1.42504E-03-1.77592E-16
 -1      3786 1.14558E-02-1.48834E-03-1.51233E-16
 -1      3787 1.14571E-02-1.49734E-03-3.72694E-17
 -1      3788 2.41352E-03 3.05367E-04 3.94582E-16
 -1      3789 2.26954E-03 3.02340E-04 3.63899E-16
 -1      3790 2.19165E-03 2.64626E-04 3.22374E-16
 -1      3791 2.47994E-03 2.70160E-04 3.78671E-16
 -1      3792 1.46305E-03-1.83446E-04-1.14248E-17
 -1      3793 1.60615E-03-1.92067E-04-1.33357E-17
 -1      3794 1.67374E-03-1.63324E-04 2.18196E-18
 -1      3795 1.45872E-03-1.48821E-04 4.35036E-18
 -1      3796 1.24775E-03-9.48959E-06 5.52130E-17
 -1      3797 1.24834E-03-3.98545E-05 4.25685E-17
 -1      3798 1.35362E-03-4.86276E-05 4.50350E-17
 -1      3799 1.36984E-03 6.01326E-06 7.05274E-17
 -1      3800 5.89988E-03-1.78784E-04 1.31460E-16
 -1      3801 6.04316E-03-1.22974E-04 2.17491E-16
 -1      3802 1.25058E-03 1.66858E-04 1.28790E-16
 -1      3803 1.24671E-03 1.34904E-04 1.15007E-16
 -1      3804 1.36763E-03 1.26082E-04 1.24602E-16
 -1      3805 1.34066E-03 1.80926E-04 1.45473E-16
 -1      3806 9.80811E-03-7.97097E-04 3.42106E-16
 -1      3807 9.98405E-03-8.78386E-04 2.90864E-16
 -1      3808 9.72355E-03-7.45795E-04 4.49456E-16
 -1      3809 7.22753E-03 3.47071E-04 8.04830E-16
 -1      3810 7.07857E-03 3.12076E-04 7.44129E-16
 -1      3811 1.32874E-02-2.45547E-03 1.88564E-15
 -1      3812 6.90845E-03 2.89417E-04 7.35319E-16
 -1      3813 1.32935E-02-2.44979E-03 2.28479E-15
 -1      3814 1.11157E-02-1.30755E-03-2.26964E-16
 -1      3815 1.12241E-02-1.36497E-03-2.03844E-16
 -1      3816 1.12195E-02-1.37428E-03-9.05173E-17
 -1      3817 1.54328E-03 2.29798E-04 1.95536E-16
 -1      3818 8.16414E-03 1.69528E-04 8.88165E-16
 -1      3819 6.07911E-03-5.61159E-05 3.15245E-16
 -1      3820 5.45186E-03-3.10770E-04-2.73239E-16
 -1      3821 1.49681E-03 1.85796E-05 8.61128E-17
 -1      3822 1.48811E-03-1.02427E-05 7.12727E-17
 -1      3823 1.00611E-02-9.07818E-04 3.42554E-16
 -1      3824 1.01532E-02-9.51931E-04 2.35462E-16
 -1      3825 1.03152E-02-1.01634E-03 1.81184E-16
 -1      3826 4.26910E-03 2.14522E-04 6.17860E-16
 -1      3827 4.12543E-03 2.17787E-04 6.00784E-16
 -1      3828 4.04756E-03 1.82173E-04 5.36070E-16
 -1      3829 1.49944E-03 8.63849E-05 1.19737E-16
 -1      3830 1.49769E-03 5.23848E-05 1.02660E-16
 -1      3831 1.61604E-03 3.71368E-05 1.05303E-16
 -1      3832 5.62013E-03-3.17507E-04-1.83257E-16
 -1      3833 5.61237E-03-2.80999E-04-1.02193E-16
 -1      3834 5.55203E-03-3.19258E-04-2.30095E-16
 -1      3835 2.83504E-03 2.35685E-04 4.10479E-16
 -1      3836 2.69109E-03 2.35507E-04 3.85678E-16
 -1      3837 6.50521E-03 1.81240E-04 6.26181E-16
 -1      3838 8.36204E-03 5.52641E-05 6.94567E-16
 -1      3839 8.57342E-03-6.97957E-05 6.98226E-16
 -1      3840 3.76195E-03 1.88493E-04 5.04317E-16
 -1      3841 3.69567E-03 2.26634E-04 5.45760E-16
 -1      3842 3.55250E-03 2.29095E-04 5.25242E-16
 -1      3843 4.62177E-03 1.66888E-04 5.89115E-16
 -1      3844 4.55789E-03 2.07906E-04 6.48610E-16
 -1      3845 4.41320E-03 2.11183E-04 6.32917E-16
 -1      3846 8.55279E-03-4.81270E-05 8.01266E-16
 -1      3847 8.70240E-03-1.47237E-04 7.04880E-16
 -1      3848 5.79612E-03-2.03910E-04 8.37682E-17
 -1      3849 5.79264E-03-1.49667E-04 1.72104E-16
 -1      3850 5.69795E-03-2.22655E-04 3.65579E-17
 -1      3851 1.33595E-02-2.49583E-03 1.75458E-15
 -1      3852 8.41869E-03 3.71957E-05 8.97977E-16
 -1      3853 9.04692E-03-3.16225E-04 9.52783E-16
 -1      3854 8.87694E-03-2.21476E-04 9.35260E-16
 -1      3855 9.35755E-03-5.36923E-04 6.28810E-16
 -1      3856 9.47442E-03-6.01442E-04 6.07993E-16
 -1      3857 1.38274E-02-2.75501E-03 1.04085E-15
 -1      3858 1.37645E-02-2.71983E-03 1.14954E-15
 -1      3859 1.37433E-02-2.71147E-03 9.80891E-16
 -1      3860 1.97012E-03 2.22840E-04 2.57335E-16
 -1      3861 1.82605E-03 2.17241E-04 2.31518E-16
 -1      3862 5.51676E-03 1.50644E-04 6.45602E-16
 -1      3863 8.87103E-03-2.46696E-04 7.20615E-16
 -1      3864 8.25537E-03 1.23182E-04 8.83679E-16
 -1      3865 1.35632E-02-2.60852E-03 1.44352E-15
 -1      3866 1.34902E-02-2.56769E-03 1.57629E-15
 -1      3867 1.06533E-02-1.12437E-03-8.66955E-17
 -1      3868 1.08009E-02-1.17205E-03-1.55637E-16
 -1      3869 1.05907E-02-1.11178E-03 1.18585E-18
 -1      3870 3.12246E-03 2.34378E-04 4.59512E-16
 -1      3871 2.97882E-03 2.35298E-04 4.35551E-16
 -1      3872 2.90262E-03 1.99062E-04 3.85542E-16
 -1      3873 1.32732E-02-2.45297E-03 1.63400E-15
 -1      3874 2.25859E-03 2.30639E-04 3.09242E-16
 -1      3875 2.11432E-03 2.27280E-04 2.83383E-16
 -1      3876 2.03763E-03 1.90409E-04 2.46548E-16
 -1      3877 6.47497E-03 9.79953E-05 4.96375E-16
 -1      3878 9.24601E-03-4.68949E-04 6.74685E-16
 -1      3879 1.09677E-02-1.24288E-03-1.80045E-16
 -1      3880 8.85225E-03-2.21821E-04 8.24766E-16
 -1      3881 9.20095E-03-4.16269E-04 8.58214E-16
 -1      3882 1.60717E-03-2.78582E-05 7.05545E-17
 -1      3883 1.48003E-03-3.89119E-05 5.69477E-17
 -1      3884 1.47255E-03-6.75066E-05 4.29209E-17
 -1      3885 2.13825E-03-1.45509E-04 2.22532E-17
 -1      3886 2.28243E-03-1.47748E-04 2.24159E-17
 -1      3887 2.42654E-03-1.49439E-04 2.27411E-17
 -1      3888 2.57047E-03-1.50633E-04 2.26463E-17
 -1      3889 2.35172E-03-1.13477E-04 5.06458E-17
 -1      3890 2.71414E-03-1.51449E-04 2.17247E-17
 -1      3891 2.85747E-03-1.51926E-04 2.07354E-17
 -1      3892 2.63963E-03-1.15545E-04 5.48877E-17
 -1      3893 3.00750E-03-1.52200E-04 1.87567E-17
 -1      3894 3.15698E-03-1.52280E-04 1.64528E-17
 -1      3895 2.93350E-03-1.16650E-04 5.77202E-17
 -1      3896 3.29872E-03-1.52323E-04 1.29020E-17
 -1      3897 3.43979E-03-1.52365E-04 8.49743E-18
 -1      3898 3.22540E-03-1.17341E-04 5.75034E-17
 -1      3899 3.58009E-03-1.52576E-04 3.22550E-18
 -1      3900 3.71952E-03-1.52990E-04-3.49655E-18
 -1      3901 3.50764E-03-1.18275E-04 5.43998E-17
 -1      3902 3.85797E-03-1.53822E-04-1.06116E-17
 -1      3903 3.99532E-03-1.55111E-04-1.93530E-17
 -1      3904 3.78671E-03-1.20241E-04 4.63090E-17
 -1      3905 4.13145E-03-1.57137E-04-2.89211E-17
 -1      3906 4.26617E-03-1.59946E-04-3.86789E-17
 -1      3907 4.06186E-03-1.24218E-04 3.37051E-17
 -1      3908 4.39939E-03-1.63909E-04-4.90737E-17
 -1      3909 4.53083E-03-1.69067E-04-6.02952E-17
 -1      3910 4.33227E-03-1.31450E-04 1.90413E-17
 -1      3911 4.66042E-03-1.75904E-04-7.15980E-17
 -1      3912 4.78776E-03-1.84431E-04-8.38766E-17
 -1      3913 4.59701E-03-1.43506E-04 1.87025E-18
 -1      3914 4.91290E-03-1.95268E-04-9.69006E-17
 -1      3915 5.03519E-03-2.08317E-04-1.10643E-16
 -1      3916 4.85514E-03-1.62260E-04-1.70626E-17
 -1      3917 5.16082E-03-2.25208E-04-1.27014E-16
 -1      3918 5.28263E-03-2.45233E-04-1.43792E-16
 -1      3919 5.11192E-03-1.90557E-04-4.07660E-17
 -1      3920 9.38842E-03-5.28242E-04 7.95289E-16
 -1      3921 9.21408E-03-4.35753E-04 7.78552E-16
 -1      3922 1.32756E-02-2.45815E-03 1.41238E-15
 -1      3923 1.31447E-02-2.38676E-03 1.58600E-15
 -1      3924 1.30163E-02-2.32067E-03 1.54331E-15
 -1      3925 6.30802E-03 1.07821E-04 5.40922E-16
 -1      3926 5.27191E-03 1.06718E-04 5.58378E-16
 -1      3927 5.12243E-03 1.10815E-04 5.52333E-16
 -1      3928 1.18399E-02-1.70523E-03 1.62712E-16
 -1      3929 1.19718E-02-1.77519E-03 1.90237E-16
 -1      3930 1.21053E-02-1.84615E-03 2.19022E-16
 -1      3931 1.22400E-02-1.91807E-03 2.49055E-16
 -1      3932 1.19754E-02-1.78056E-03 3.09851E-16
 -1      3933 1.23828E-02-1.99429E-03 2.78193E-16
 -1      3934 1.25266E-02-2.07117E-03 3.07100E-16
 -1      3935 1.22520E-02-1.92650E-03 3.70404E-16
 -1      3936 1.26645E-02-2.14480E-03 3.36469E-16
 -1      3937 1.28031E-02-2.21877E-03 3.66745E-16
 -1      3938 1.25328E-02-2.07532E-03 4.31187E-16
 -1      3939 1.29423E-02-2.29297E-03 3.98173E-16
 -1      3940 1.30821E-02-2.36735E-03 4.30767E-16
 -1      3941 1.28098E-02-2.22224E-03 4.91984E-16
 -1      3942 1.32224E-02-2.44183E-03 4.66275E-16
 -1      3943 1.33631E-02-2.51640E-03 5.05279E-16
 -1      3944 1.30892E-02-2.37018E-03 5.60614E-16
 -1      3945 1.35041E-02-2.59099E-03 5.48593E-16
 -1      3946 1.36454E-02-2.66561E-03 5.97517E-16
 -1      3947 1.33703E-02-2.51866E-03 6.39408E-16
 -1      3948 1.37191E-02-2.70415E-03 6.43962E-16
 -1      3949 1.38032E-02-2.74803E-03 6.96898E-16
 -1      3950 1.37323E-02-2.70820E-03 8.24671E-16
 -1      3951 1.35849E-02-2.63143E-03 7.31159E-16
 -1      3952 1.00279E-02-8.45062E-04 8.45678E-16
 -1      3953 9.86824E-03-7.69270E-04 8.24739E-16
 -1      3954 1.85013E-03-1.38992E-04 2.00035E-17
 -1      3955 1.99411E-03-1.42611E-04 2.13317E-17
 -1      3956 2.06338E-03-1.09874E-04 4.47098E-17
 -1      3957 4.97498E-03 1.15598E-04 5.44568E-16
 -1      3958 4.82910E-03 1.20516E-04 5.36355E-16
 -1      3959 5.03468E-03 7.13149E-05 4.74799E-16
 -1      3960 6.13486E-03 9.39899E-05 5.41166E-16
 -1      3961 5.89938E-03 1.05424E-04 5.72825E-16
 -1      3962 5.73720E-03 1.01978E-04 5.69857E-16
 -1      3963 1.46373E-03-9.11332E-05 3.12792E-17
 -1      3964 1.46647E-03-1.25008E-04 1.55312E-17
 -1      3965 1.57371E-03-1.31647E-04 1.57209E-17
 -1      3966 1.59042E-03-8.23448E-05 4.13623E-17
 -1      3967 9.56532E-03-6.39896E-04 6.63545E-16
 -1      3968 9.63894E-03-6.91902E-04 5.55857E-16
 -1      3969 9.80472E-03-7.78083E-04 5.03232E-16
 -1      3970 9.71526E-03-6.94089E-04 8.18640E-16
 -1      3971 9.54796E-03-6.11190E-04 7.98678E-16
 -1      3972 9.56903E-03-6.33763E-04 7.19504E-16
 -1      3973 9.88213E-03-7.87651E-04 7.27838E-16
 -1      3974 1.06345E-02-1.12968E-03 9.61511E-16
 -1      3975 1.04867E-02-1.05995E-03 9.28389E-16
 -1      3976 1.09249E-02-1.26818E-03 1.02854E-15
 -1      3977 1.07804E-02-1.19893E-03 9.94444E-16
 -1      3978 1.07842E-02-1.20472E-03 8.75846E-16
 -1      3979 1.12107E-02-1.40690E-03 1.10114E-15
 -1      3980 1.10682E-02-1.33742E-03 1.06546E-15
 -1      3981 1.10702E-02-1.34071E-03 9.46400E-16
 -1      3982 1.14940E-02-1.54661E-03 1.17540E-15
 -1      3983 1.13525E-02-1.47659E-03 1.13749E-15
 -1      3984 1.13528E-02-1.47811E-03 1.01712E-15
 -1      3985 1.17761E-02-1.68757E-03 1.25223E-15
 -1      3986 1.16351E-02-1.61692E-03 1.21374E-15
 -1      3987 1.16338E-02-1.61729E-03 1.09017E-15
 -1      3988 1.20580E-02-1.82977E-03 1.32857E-15
 -1      3989 1.19171E-02-1.75852E-03 1.29039E-15
 -1      3990 1.19144E-02-1.75821E-03 1.16431E-15
 -1      3991 1.23401E-02-1.97307E-03 1.40885E-15
 -1      3992 1.21990E-02-1.90129E-03 1.36745E-15
 -1      3993 1.21952E-02-1.90065E-03 1.23943E-15
 -1      3994 1.26227E-02-2.11732E-03 1.49639E-15
 -1      3995 1.24813E-02-2.04509E-03 1.45119E-15
 -1      3996 1.24766E-02-2.04433E-03 1.31843E-15
 -1      3997 1.65541E-03 2.06816E-04 2.00483E-16
 -1      3998 1.44000E-03 1.89343E-04 1.62020E-16
 -1      3999 6.02566E-03 3.17042E-05 4.53075E-16
 -1      4000 5.57873E-03 1.01778E-04 5.67580E-16
 -1      4001 5.42387E-03 1.03414E-04 5.63406E-16
 -1      4002 5.63732E-03 5.09094E-05 4.86238E-16
 -1      4003 1.36103E-02-2.63482E-03 1.35571E-15
 -1      4004 1.34510E-02-2.55081E-03 1.37103E-15
 -1      4005 1.33227E-02-2.48428E-03 1.32583E-15
 -1      4006 1.36733E-02-2.67000E-03 1.24514E-15
 -1      4007 1.13318E-02-1.44148E-03 4.83148E-17
 -1      4008 1.14553E-02-1.50457E-03 7.63956E-17
 -1      4009 2.54702E-03 2.34653E-04 3.60619E-16
 -1      4010 2.40283E-03 2.33075E-04 3.35018E-16
 -1      4011 2.32623E-03 1.96236E-04 2.93602E-16
 -1      4012 2.61470E-03 1.98913E-04 3.39830E-16
 -1      4013 9.05088E-03-3.50050E-04 7.37407E-16
 -1      4014 1.45304E-03 1.60731E-04 1.50460E-16
 -1      4015 5.42685E-03-2.83348E-04-1.93571E-16
 -1      4016 1.46676E-03 1.32191E-04 1.38507E-16
 -1      4017 1.15814E-02-1.56962E-03 1.05642E-16
 -1      4018 1.17096E-02-1.63670E-03 1.34062E-16
 -1      4019 1.17106E-02-1.64235E-03 2.51386E-16
 -1      4020 1.72275E-03 1.77497E-04 1.94004E-16
 -1      4021 3.40927E-03 2.31230E-04 5.04046E-16
 -1      4022 3.26593E-03 2.33014E-04 4.81969E-16
 -1      4023 3.47617E-03 1.93557E-04 4.67765E-16
 -1      4024 1.10932E-02-1.32325E-03-5.47522E-18
 -1      4025 1.12108E-02-1.38111E-03 2.13181E-17
 -1      4026 1.12007E-02-1.38562E-03 1.33506E-16
 -1      4027 8.26466E-03 1.09120E-04 6.97589E-16
 -1      4028 1.03367E-02-9.89671E-04 8.98004E-16
 -1      4029 1.01839E-02-9.18079E-04 8.69679E-16
 -1      4030 1.01895E-02-9.30597E-04 7.56746E-16
 -1      4031 1.04919E-02-1.06891E-03 8.12379E-16
 -1      4032 1.58416E-03 1.20070E-04 1.45744E-16
 -1      4033 1.75418E-03 1.27660E-04 1.69732E-16
 -1      4034 9.96818E-03-8.58985E-04 4.45905E-16
 -1      4035 1.01295E-02-9.33716E-04 3.91397E-16
 -1      4036 9.88422E-03-8.09180E-04 5.52442E-16
 -1      4037 5.53213E-03-2.49261E-04-5.86215E-17
 -1      4038 5.61189E-03-2.38375E-04-1.12147E-17
 -1      4039 5.60706E-03-1.92109E-04 7.63414E-17
 -1      4040 1.04156E-02-1.05635E-03 2.16081E-16
 -1      4041 1.05028E-02-1.08721E-03 1.08563E-16
 -1      4042 1.06748E-02-1.14816E-03 3.82452E-17
 -1      4043 4.33377E-03 1.74836E-04 5.64571E-16
 -1      4044 1.92579E-03 1.41016E-04 1.98965E-16
 -1      4045 1.78811E-03 8.41037E-05 1.48156E-16
 -1      4046 4.74586E-03 8.38585E-05 4.63767E-16
 -1      4047 4.68449E-03 1.25549E-04 5.27695E-16
 -1      4048 4.54076E-03 1.30400E-04 5.18425E-16
 -1      4049 5.39349E-03-2.45968E-04-9.93671E-17
 -1      4050 4.11270E-03 1.43466E-04 4.85994E-16
 -1      4051 3.97041E-03 1.47148E-04 4.73580E-16
 -1      4052 5.33043E-03 5.92095E-05 4.83364E-16
 -1      4053 1.35959E-02-2.63497E-03 8.85563E-16
 -1      4054 1.36696E-02-2.67323E-03 9.32333E-16
 -1      4055 1.36068E-02-2.63827E-03 1.04167E-15
 -1      4056 8.33412E-03 7.60443E-05 7.99708E-16
 -1      4057 5.67789E-03-1.20765E-04 2.10986E-16
 -1      4058 5.77424E-03-9.53995E-05 2.58284E-16
 -1      4059 5.85434E-03-3.41126E-05 3.56431E-16
 -1      4060 2.06995E-03 1.44116E-04 2.19822E-16
 -1      4061 5.72764E-03-1.11613E-05 3.89554E-16
 -1      4062 1.09301E-02-1.23920E-03-9.35124E-17
 -1      4063 1.73494E-03-1.56918E-05 8.57875E-17
 -1      4064 1.72693E-03-4.66012E-05 6.78982E-17
 -1      4065 3.89414E-03 1.12620E-04 4.12268E-16
 -1      4066 3.82813E-03 1.50468E-04 4.59309E-16
 -1      4067 3.68573E-03 1.53419E-04 4.44970E-16
 -1      4068 3.18979E-03 1.97162E-04 4.28544E-16
 -1      4069 1.28836E-02-2.25175E-03 1.54062E-15
 -1      4070 1.27554E-02-2.18594E-03 1.49940E-15
 -1      4071 1.27500E-02-2.18511E-03 1.36181E-15
 -1      4072 1.30149E-02-2.32275E-03 1.36511E-15
 -1      4073 1.35893E-02-2.62668E-03 1.18785E-15
 -1      4074 2.68299E-03 1.62973E-04 3.17387E-16
 -1      4075 2.53885E-03 1.62508E-04 2.96895E-16
 -1      4076 1.76118E-03 5.20720E-05 1.26594E-16
 -1      4077 1.76032E-03 1.55904E-05 1.05344E-16
 -1      4078 1.87997E-03-2.43355E-06 1.03989E-16
 -1      4079 1.93224E-03 6.26309E-05 1.49579E-16
 -1      4080 9.72555E-03-7.19514E-04 6.66256E-16
 -1      4081 1.14519E-02-1.51001E-03 1.91795E-16
 -1      4082 2.97068E-03 1.62383E-04 3.57827E-16
 -1      4083 2.82694E-03 1.62927E-04 3.37526E-16
 -1      4084 2.75183E-03 1.26901E-04 2.92735E-16
 -1      4085 1.07918E-02-1.19493E-03 2.67459E-17
 -1      4086 1.09813E-02-1.27392E-03 5.02799E-18
 -1      4087 1.09609E-02-1.27555E-03 1.15508E-16
 -1      4088 1.07205E-02-1.17548E-03 1.34821E-16
 -1      4089 1.68132E-03-1.37826E-04 1.58836E-17
 -1      4090 1.75027E-03-1.07772E-04 3.45860E-17
 -1      4091 4.25507E-03 1.39423E-04 4.97757E-16
 -1      4092 4.17738E-03 1.04862E-04 4.33139E-16
 -1      4093 4.39772E-03 1.35070E-04 5.08952E-16
 -1      4094 2.56578E-03-7.97066E-05 8.54622E-17
 -1      4095 2.70954E-03-8.03574E-05 8.99075E-17
 -1      4096 2.86012E-03-8.09506E-05 9.33769E-17
 -1      4097 3.01025E-03-8.14762E-05 9.69819E-17
 -1      4098 2.78734E-03-4.51333E-05 1.27001E-16
 -1      4099 3.15272E-03-8.20271E-05 9.93807E-17
 -1      4100 3.29462E-03-8.26479E-05 1.01061E-16
 -1      4101 3.08061E-03-4.64032E-05 1.38276E-16
 -1      4102 3.43588E-03-8.34741E-05 1.02159E-16
 -1      4103 3.57642E-03-8.45323E-05 1.01793E-16
 -1      4104 3.36467E-03-4.81921E-05 1.47099E-16
 -1      4105 3.71620E-03-8.59875E-05 1.00140E-16
 -1      4106 3.85510E-03-8.78786E-05 9.79848E-17
 -1      4107 3.64623E-03-5.10866E-05 1.51287E-16
 -1      4108 3.99311E-03-9.04226E-05 9.41494E-17
 -1      4109 4.13008E-03-9.36575E-05 8.90943E-17
 -1      4110 3.92484E-03-5.57948E-05 1.51233E-16
 -1      4111 4.26604E-03-9.78611E-05 8.44593E-17
 -1      4112 4.40080E-03-1.03081E-04 7.91197E-17
 -1      4113 4.20017E-03-6.32466E-05 1.47248E-16
 -1      4114 4.53446E-03-1.09652E-04 7.26415E-17
 -1      4115 4.66677E-03-1.17621E-04 6.62990E-17
 -1      4116 4.47200E-03-7.45605E-05 1.41095E-16
 -1      4117 4.79800E-03-1.27360E-04 5.94956E-17
 -1      4118 4.92779E-03-1.38898E-04 5.16487E-17
 -1      4119 4.74039E-03-9.10115E-05 1.33059E-16
 -1      4120 5.06318E-03-1.53324E-04 4.21077E-17
 -1      4121 5.19713E-03-1.70137E-04 3.11302E-17
 -1      4122 5.01260E-03-1.14486E-04 1.21390E-16
 -1      4123 1.12142E-02-1.41146E-03 8.61575E-16
 -1      4124 1.10738E-02-1.34402E-03 8.27043E-16
 -1      4125 1.35157E-02-2.58865E-03 1.13948E-15
 -1      4126 5.38529E-03 1.06705E-05 4.05532E-16
 -1      4127 5.23736E-03 1.84237E-05 4.04814E-16
 -1      4128 1.21168E-02-1.85739E-03 4.61545E-16
 -1      4129 1.22599E-02-1.93243E-03 4.92878E-16
 -1      4130 1.23971E-02-2.00451E-03 5.21854E-16
 -1      4131 1.25350E-02-2.07713E-03 5.53973E-16
 -1      4132 1.22606E-02-1.93410E-03 6.14160E-16
 -1      4133 1.26735E-02-2.15014E-03 5.85686E-16
 -1      4134 1.28127E-02-2.22349E-03 6.19215E-16
 -1      4135 1.25367E-02-2.07844E-03 6.77816E-16
 -1      4136 1.29523E-02-2.29708E-03 6.54546E-16
 -1      4137 1.30924E-02-2.37087E-03 6.90447E-16
 -1      4138 1.28151E-02-2.22435E-03 7.45633E-16
 -1      4139 1.32329E-02-2.44480E-03 7.29790E-16
 -1      4140 1.33738E-02-2.51884E-03 7.74012E-16
 -1      4141 1.30954E-02-2.37126E-03 8.22828E-16
 -1      4142 1.34480E-02-2.55776E-03 8.04099E-16
 -1      4143 1.35215E-02-2.59605E-03 8.50367E-16
 -1      4144 1.34588E-02-2.56131E-03 9.58570E-16
 -1      4145 1.33102E-02-2.48374E-03 8.95050E-16
 -1      4146 5.59067E-03-1.43384E-04 1.62969E-16
 -1      4147 5.56834E-03-9.36286E-05 2.45816E-16
 -1      4148 5.50674E-03-1.62203E-04 1.14654E-16
 -1      4149 5.09187E-03 2.65799E-05 4.03391E-16
 -1      4150 4.94805E-03 3.44585E-05 4.00287E-16
 -1      4151 5.14619E-03-1.87640E-05 3.28473E-16
 -1      4152 1.10630E-02-1.32807E-03 2.18169E-16
 -1      4153 1.11898E-02-1.38791E-03 2.47361E-16
 -1      4154 1.75891E-03-8.19937E-05 4.96429E-17
 -1      4155 5.37751E-03-2.09279E-04-1.37016E-17
 -1      4156 2.27762E-03-7.78380E-05 7.55824E-17
 -1      4157 2.42178E-03-7.88726E-05 8.06240E-17
 -1      4158 2.49258E-03-4.39809E-05 1.13150E-16
 -1      4159 1.00332E-02-8.65089E-04 6.76989E-16
 -1      4160 9.88150E-03-7.94081E-04 6.70552E-16
 -1      4161 9.88215E-03-8.01201E-04 6.14743E-16
 -1      4162 1.14937E-02-1.54813E-03 9.30367E-16
 -1      4163 1.13540E-02-1.47945E-03 8.97584E-16
 -1      4164 1.13564E-02-1.48061E-03 7.76872E-16
 -1      4165 1.09327E-02-1.27726E-03 7.92525E-16
 -1      4166 1.07903E-02-1.21085E-03 7.58806E-16
 -1      4167 1.10791E-02-1.34738E-03 7.08973E-16
 -1      4168 1.17725E-02-1.68723E-03 1.00363E-15
 -1      4169 1.16331E-02-1.61738E-03 9.66742E-16
 -1      4170 1.16330E-02-1.61716E-03 8.45935E-16
 -1      4171 1.20517E-02-1.82843E-03 1.07411E-15
 -1      4172 1.19120E-02-1.75759E-03 1.03825E-15
 -1      4173 1.19101E-02-1.75660E-03 9.13698E-16
 -1      4174 1.23317E-02-1.97131E-03 1.14837E-15
 -1      4175 1.21916E-02-1.89968E-03 1.11235E-15
 -1      4176 1.21882E-02-1.89836E-03 9.84320E-16
 -1      4177 1.26126E-02-2.11551E-03 1.22779E-15
 -1      4178 1.24720E-02-2.04327E-03 1.18701E-15
 -1      4179 1.24675E-02-2.04187E-03 1.05683E-15
 -1      4180 1.33531E-02-2.50170E-03 1.22854E-15
 -1      4181 1.31779E-02-2.40922E-03 1.27284E-15
 -1      4182 1.30456E-02-2.34009E-03 1.26967E-15
 -1      4183 1.33709E-02-2.51318E-03 1.08514E-15
 -1      4184 2.22976E-03 1.51981E-04 2.46656E-16
 -1      4185 2.11898E-03 1.03056E-04 1.97081E-16
 -1      4186 5.57218E-03-6.02970E-06 3.91654E-16
 -1      4187 2.44328E-03 1.18628E-04 2.47212E-16
 -1      4188 2.37410E-03 1.53665E-04 2.66903E-16
 -1      4189 1.88666E-03-7.06188E-05 6.25043E-17
 -1      4190 3.54318E-03 1.55993E-04 4.29181E-16
 -1      4191 3.40042E-03 1.58192E-04 4.12227E-16
 -1      4192 3.61028E-03 1.18599E-04 3.87914E-16
 -1      4193 1.18471E-02-1.71703E-03 4.00843E-16
 -1      4194 1.19814E-02-1.78677E-03 4.31485E-16
 -1      4195 1.19871E-02-1.79213E-03 5.53512E-16
 -1      4196 1.13181E-02-1.44982E-03 2.77515E-16
 -1      4197 1.14475E-02-1.51384E-03 3.08943E-16
 -1      4198 1.11797E-02-1.38862E-03 3.62367E-16
 -1      4199 3.25743E-03 1.59995E-04 3.95029E-16
 -1      4200 3.11418E-03 1.61406E-04 3.76909E-16
 -1      4201 3.03916E-03 1.25719E-04 3.27144E-16
 -1      4202 3.32533E-03 1.22943E-04 3.59277E-16
 -1      4203 1.15784E-02-1.57950E-03 3.39545E-16
 -1      4204 1.17105E-02-1.64679E-03 3.68940E-16
 -1      4205 1.14432E-02-1.51634E-03 4.25861E-16
 -1      4206 2.00997E-03-7.36799E-05 6.64209E-17
 -1      4207 2.15412E-03-7.52288E-05 7.20859E-17
 -1      4208 2.22498E-03-4.12080E-05 1.00384E-16
 -1      4209 1.97812E-03-3.67597E-05 8.88233E-17
 -1      4210 5.47032E-03-4.89963E-05 3.12020E-16
 -1      4211 1.03392E-02-1.02473E-03 3.30722E-16
 -1      4212 1.05233E-02-1.09990E-03 2.60371E-16
 -1      4213 4.80561E-03 4.20858E-05 3.97130E-16
 -1      4214 4.66398E-03 4.90927E-05 3.93457E-16
 -1      4215 4.86353E-03 1.97987E-07 3.28486E-16
 -1      4216 4.46082E-03 9.52428E-05 4.49863E-16
 -1      4217 1.00374E-02-8.79176E-04 5.57537E-16
 -1      4218 5.31370E-03-1.23981E-04 1.55610E-16
 -1      4219 5.35411E-03-1.68746E-04 7.03512E-17
 -1      4220 1.07991E-02-1.21743E-03 6.43244E-16
 -1      4221 1.06465E-02-1.14488E-03 7.28340E-16
 -1      4222 1.05006E-02-1.07871E-03 6.97643E-16
 -1      4223 2.25111E-03 7.55652E-05 1.91077E-16
 -1      4224 2.09156E-03 6.92224E-05 1.70233E-16
 -1      4225 2.06489E-03 3.57073E-05 1.44212E-16
 -1      4226 1.03470E-02-1.00835E-03 6.97061E-16
 -1      4227 1.01946E-02-9.40085E-04 6.71772E-16
 -1      4228 1.01967E-02-9.45942E-04 6.14404E-16
 -1      4229 1.05074E-02-1.08592E-03 6.11720E-16
 -1      4230 5.38958E-03-7.11002E-05 2.64640E-16
 -1      4231 1.02530E-02-9.83463E-04 4.33450E-16
 -1      4232 1.09411E-02-1.27424E-03 2.25650E-16
 -1      4233 1.09234E-02-1.27154E-03 3.36984E-16
 -1      4234 1.08175E-02-1.22136E-03 2.33795E-16
 -1      4235 1.17134E-02-1.65185E-03 4.89910E-16
 -1      4236 3.96003E-03 7.50447E-05 3.62910E-16
 -1      4237 3.81889E-03 7.85079E-05 3.53965E-16
 -1      4238 2.82125E-03 9.07453E-05 2.65440E-16
 -1      4239 2.67740E-03 9.10292E-05 2.49773E-16
 -1      4240 4.24158E-03 6.65084E-05 3.77058E-16
 -1      4241 4.10088E-03 7.10594E-05 3.70241E-16
 -1      4242 4.02574E-03 3.78285E-05 3.09607E-16
 -1      4243 2.54654E-03 8.75727E-05 2.32453E-16
 -1      4244 2.38214E-03 7.95557E-05 2.08221E-16
 -1      4245 2.35521E-03 4.50904E-05 1.77389E-16
 -1      4246 2.61693E-03 5.19317E-05 2.07571E-16
 -1      4247 2.00319E-03-4.01928E-06 1.12039E-16
 -1      4248 1.28951E-02-2.26193E-03 1.24769E-15
 -1      4249 1.27628E-02-2.19319E-03 1.24686E-15
 -1      4250 1.27575E-02-2.19183E-03 1.11368E-15
 -1      4251 1.30579E-02-2.34805E-03 1.15154E-15
 -1      4252 2.41663E-03 2.39532E-06 1.47451E-16
 -1      4253 2.56074E-03 2.12511E-06 1.57955E-16
 -1      4254 5.21860E-03-8.23616E-05 2.20025E-16
 -1      4255 3.00909E-03-1.05597E-05 1.75207E-16
 -1      4256 3.15180E-03-1.14118E-05 1.82647E-16
 -1      4257 3.29402E-03-1.25195E-05 1.89356E-16
 -1      4258 3.43568E-03-1.38852E-05 1.95102E-16
 -1      4259 3.22381E-03 2.35039E-05 2.29173E-16
 -1      4260 3.57677E-03-1.56313E-05 1.99344E-16
 -1      4261 3.71721E-03-1.77803E-05 2.02976E-16
 -1      4262 3.50764E-03 2.03130E-05 2.45070E-16
 -1      4263 3.83457E-03-6.12324E-06 2.27167E-16
 -1      4264 3.97404E-03-9.38722E-06 2.29675E-16
 -1      4265 4.11295E-03-1.33661E-05 2.30772E-16
 -1      4266 4.25120E-03-1.81103E-05 2.31897E-16
 -1      4267 4.66319E-03-3.82452E-05 2.31558E-16
 -1      4268 4.79983E-03-4.72614E-05 2.29498E-16
 -1      4269 4.93670E-03-5.74968E-05 2.28238E-16
 -1      4270 5.08057E-03-6.97064E-05 2.24308E-16
 -1      4271 1.06284E-02-1.14460E-03 3.58329E-16
 -1      4272 1.06910E-02-1.16874E-03 2.43010E-16
 -1      4273 3.76706E-03 3.00292E-05 2.77515E-16
 -1      4274 3.69970E-03 6.66694E-05 3.24664E-16
 -1      4275 1.23634E-02-1.98850E-03 8.31339E-16
 -1      4276 1.25025E-02-2.06063E-03 8.66942E-16
 -1      4277 1.26420E-02-2.13309E-03 9.01501E-16
 -1      4278 1.27819E-02-2.20588E-03 9.39583E-16
 -1      4279 1.29315E-02-2.28400E-03 9.56849E-16
 -1      4280 1.30721E-02-2.35728E-03 9.98320E-16
 -1      4281 1.22247E-02-1.91684E-03 7.97282E-16
 -1      4282 2.98791E-03 7.54814E-05 2.67093E-16
 -1      4283 2.91460E-03 4.00201E-05 2.22926E-16
 -1      4284 2.16235E-03 9.11596E-07 1.27489E-16
 -1      4285 1.18118E-02-1.70531E-03 7.01235E-16
 -1      4286 1.19489E-02-1.77515E-03 7.33083E-16
 -1      4287 4.52297E-03 5.55526E-05 3.88714E-16
 -1      4288 4.38220E-03 6.13333E-05 3.83455E-16
 -1      4289 4.30524E-03 2.84605E-05 3.18484E-16
 -1      4290 4.58404E-03 1.60285E-05 3.25464E-16
 -1      4291 1.20866E-02-1.84567E-03 7.65474E-16
 -1      4292 1.12640E-02-1.43387E-03 5.68515E-16
 -1      4293 1.11283E-02-1.36935E-03 5.36734E-16
 -1      4294 1.15354E-02-1.56659E-03 6.34326E-16
 -1      4295 1.16750E-02-1.63634E-03 6.67991E-16
 -1      4296 1.13995E-02-1.49965E-03 6.01542E-16
 -1      4297 3.55814E-03 6.92285E-05 3.15096E-16
 -1      4298 1.09928E-02-1.30620E-03 5.01565E-16
 -1      4299 2.69128E-03 5.14653E-06 1.70409E-16
 -1      4300 2.84209E-03 4.62795E-06 1.80276E-16
 -1      4301 2.28582E-03-7.27556E-07 1.35173E-16
 -1      4302 1.08566E-02-1.24421E-03 4.72902E-16
 -1      4303 1.07252E-02-1.18597E-03 4.78093E-16
 -1      4304 4.38899E-03-2.37811E-05 2.32372E-16
 -1      4305 4.52620E-03-3.04525E-05 2.32738E-16
 -1      4306 3.41619E-03 7.13391E-05 3.04634E-16
 -1      4307 1.32223E-02-2.43589E-03 1.01937E-15
 -1      4308 1.05527E-02-1.11037E-03 4.91618E-16
 -1      4309 3.13106E-03 7.44393E-05 2.80388E-16
 -1      4310 1.01998E-02-9.52527E-04 5.51479E-16
 -1      4311 1.04016E-02-1.04446E-03 4.92458E-16
 -1      4312 3.27382E-03 7.30838E-05 2.93114E-16
 -1      4313 1.32965E-02-2.47452E-03 1.05071E-15
 -3
    1PSTEP                         2           1           1          
  100CL  101 1.000000000        4313                     0    1           1
 -4  STRESS      6    1
 -5  SXX         1    4    1    1
 -5  SYY         1    4    2    2
 -5  SZZ         1    4    3    3
 -5  SXY         1    4    1    2
 -5  SYZ         1    4    2    3
 -5  SZX         1    4    3    1
 -1         1 2.55179E+01 1.01471E+01 7.53818E-01-1.59061E+01 1.99452E-13-2.97318E-13
 -1         2-7.77843E-01-2.62594E+01-3.46445E+00 1.29633E-02-8.57259E-13 7.20812E-14
 -1         3 1.99998E+01-5.09738E-05 1.81902E-03-7.31905E-05-4.15409E-13-4.45328E-13
 -1         4 1.99996E+01-1.68742E-04 1.82363E-03-9.37923E-05 2.56034E-14-3.18277E-13
 -1         5 3.27141E+01 6.13244E+00 2.73599E+00 6.21565E+00-7.89646E-15 3.69524E-13
 -1         6 3.56916E+01 1.22420E+01 5.11490E+00-8.63381E+00-2.28706E-14-2.89158E-13
 -1         7 2.07973E+01 6.09338E+00-1.28090E-01-4.71906E+00-4.80171E-15-2.72702E-13
 -1         8 1.96633E+01 5.93223E+00 5.11986E-02-3.26874E+00 6.33521E-15-1.97913E-13
 -1         9 1.91382E+01 5.77213E+00 4.94125E-02-2.52001E+00 4.06619E-15-1.32974E-13
 -1        10 1.89035E+01 5.69436E+00 5.15283E-02-1.94375E+00 8.49581E-15-7.06796E-14
 -1        11 1.87850E+01 5.65454E+00 5.05085E-02-1.44855E+00 4.02673E-15-2.25573E-14
 -1        12 1.87233E+01 5.63336E+00 4.87081E-02-1.00868E+00 7.89841E-15 5.79961E-15
 -1        13 1.86904E+01 5.62212E+00 4.71971E-02-5.90836E-01 5.94479E-15 3.80178E-14
 -1        14 1.86763E+01 5.61728E+00 4.63828E-02-1.89330E-01 6.08503E-15 5.97033E-14
 -1        15 1.86764E+01 5.61733E+00 4.64093E-02 2.07140E-01 6.77621E-15 8.84752E-14
 -1        16 1.86909E+01 5.62231E+00 4.72930E-02 6.09339E-01 6.62643E-15 1.12889E-13
 -1        17 1.87246E+01 5.63368E+00 4.89363E-02 1.02890E+00 6.86820E-15 1.43696E-13
 -1        18 1.87874E+01 5.65512E+00 5.08310E-02 1.47161E+00 7.41031E-15 1.87412E-13
 -1        19 1.89073E+01 5.69557E+00 5.18580E-02 1.97223E+00 9.99461E-15 2.40563E-13
 -1        20 1.91439E+01 5.77464E+00 4.94914E-02 2.55654E+00 5.46438E-15 3.03930E-13
 -1        21 1.96588E+01 5.94689E+00 4.62370E-02 3.30226E+00 4.77396E-15 3.83471E-13
 -1        22 2.11800E+01 6.37493E+00 1.39539E-01 4.51633E+00-1.85962E-15 4.35225E-13
 -1        23 2.29897E+01-1.37744E+00-9.37656E-01-7.09956E-01-1.75311E-14-3.57325E-13
 -1        24 1.93350E+01-9.94583E-02-3.09536E-01 6.30536E-02 3.01495E-15-4.10328E-13
 -1        25 1.86519E+01-5.64424E-02-6.87493E-02 6.05064E-02-4.26742E-16-4.25243E-13
 -1        26 1.84558E+01-2.23470E-02-6.58552E-03 3.26834E-02 1.64286E-14-4.19767E-13
 -1        27 1.84762E+01-1.22180E-02 1.29974E-03 2.22491E-02-1.54637E-14-4.20254E-13
 -1        28 1.86044E+01-6.81318E-03 1.29367E-03 1.59169E-02 3.65441E-15-3.97553E-13
 -1        29 1.87867E+01-4.06269E-03 9.84340E-04 1.15378E-02-1.35232E-14-4.19303E-13
 -1        30 1.90046E+01-2.49665E-03 7.47411E-04 8.73387E-03-1.20834E-15-4.98848E-13
 -1        31 1.92268E+01-1.92392E-03 4.01364E-04 6.52270E-03 2.89693E-15-5.20459E-13
 -1        32 1.94601E+01-2.05288E-03-3.53136E-04 4.99384E-03-3.12675E-14-6.38533E-13
 -1        33 1.97108E+01-2.75980E-03-1.59272E-03 3.99796E-03-2.10546E-14-6.11574E-13
 -1        34 1.99926E+01-4.05845E-03-3.47749E-03 3.59820E-03 2.30041E-14-5.21498E-13
 -1        35 2.03281E+01-5.94043E-03-6.25642E-03 4.01809E-03 9.26467E-15-5.44600E-13
 -1        36 2.07508E+01-9.30609E-03-1.05236E-02 4.86067E-03-2.74899E-15-5.55936E-13
 -1        37 2.13412E+01-1.24675E-02-1.68635E-02 9.51039E-03-1.96163E-14-5.21857E-13
 -1        38 2.21154E+01-1.72449E-02-2.59253E-02 1.62581E-02 4.24411E-15-5.87700E-13
 -1        39 2.31882E+01-2.20595E-02-3.80571E-02 2.87262E-02 7.97973E-16-7.08109E-13
 -1        40 2.46719E+01-2.52501E-02-5.12851E-02 4.97446E-02-2.32145E-14-9.50941E-13
 -1        41 2.66718E+01-2.24556E-02-5.67381E-02 8.19054E-02 3.25683E-14-9.40432E-13
 -1        42 2.92035E+01-5.89349E-03-3.06390E-02 1.21741E-01-3.10597E-14-8.45025E-13
 -1        43 3.19942E+01 3.21251E-02 6.75373E-02 1.43680E-01 7.98016E-15-5.73736E-13
 -1        44 3.41539E+01 9.63726E-02 2.62806E-01 8.80227E-02 1.54789E-14-7.70636E-13
 -1        45 3.37850E+01 1.20913E-01 4.18065E-01-2.08836E-01 2.03570E-14-1.01930E-12
 -1        46 2.91600E+01 6.37248E-02 1.78662E-01-6.54393E-01-2.65994E-14-9.56318E-13
 -1        47 2.21785E+01-7.72150E-02-5.06556E-01-7.72418E-01 2.39895E-14-1.04752E-12
 -1        48 1.69974E+01-1.61458E-01-1.12472E+00-2.06387E-01 3.37889E-14-8.02122E-13
 -1        49 1.83796E+01-1.62487E-01-9.68170E-01 5.25949E-01 5.37452E-14-1.98036E-13
 -1        50 2.54846E+01-2.37108E-02-1.54444E-01 7.80251E-01-5.49285E-14-1.14825E-13
 -1        51 3.18902E+01 1.07519E-01 3.64517E-01 4.37593E-01 5.32629E-14-4.39274E-13
 -1        52 3.44485E+01 1.13908E-01 3.68784E-01 4.58859E-02 3.26475E-15-2.25334E-13
 -1        53 3.34319E+01 6.41607E-02 1.69273E-01-1.24169E-01-1.00578E-13-2.24560E-13
 -1        54 3.08500E+01 1.26913E-02 1.47144E-02-1.40128E-01 3.48715E-14-2.83468E-13
 -1        55 2.81146E+01-1.55854E-02-4.78281E-02-1.04572E-01-4.08393E-14-2.17770E-13
 -1        56 2.58152E+01-2.48925E-02-5.66550E-02-6.65874E-02 1.81795E-14-3.79113E-13
 -1        57 2.40643E+01-2.54717E-02-4.71318E-02-4.05154E-02-4.64010E-14-5.31682E-13
 -1        58 2.27549E+01-1.92148E-02-3.22578E-02-2.11621E-02 1.08859E-13-4.76892E-13
 -1        59 2.18824E+01-1.55024E-02-2.22819E-02-1.15733E-02 3.82920E-14-3.07173E-13
 -1        60 2.12752E+01-1.14489E-02-1.49169E-02-6.06075E-03-8.56281E-14-4.14334E-13
 -1        61 2.08550E+01-8.31044E-03-9.95662E-03-2.97519E-03 4.73140E-14-8.43920E-13
 -1        62 2.05650E+01-5.97649E-03-6.67323E-03-1.28670E-03 7.19710E-14-7.41798E-13
 -1        63 2.03653E+01-4.26338E-03-4.50145E-03-3.71008E-04-9.35817E-14-8.23478E-13
 -1        64 2.02282E+01-3.16487E-03-3.12125E-03-6.27161E-05 8.69449E-14-6.46074E-13
 -1        65 2.01316E+01-2.10970E-03-2.03546E-03 3.69871E-04-1.09070E-13-7.57896E-13
 -1        66 2.00707E+01-1.57166E-03-1.44354E-03 4.32013E-04 5.03267E-14-1.09950E-12
 -1        67 2.00313E+01-1.14679E-03-1.04655E-03 4.73794E-04 2.82139E-14-1.20111E-12
 -1        68 2.00074E+01-8.48919E-04-8.13851E-04 5.10622E-04 7.37725E-14-6.95417E-13
 -1        69 1.99951E+01-6.24521E-04-6.73656E-04 5.99288E-04 4.97581E-14 1.66954E-13
 -1        70 1.99921E+01-4.10019E-04-4.26251E-04 7.96462E-04-9.43690E-14 1.33412E-13
 -1        71 1.99958E+01-1.28241E-04 4.26278E-04 1.07831E-03 9.16806E-14-2.45620E-13
 -1        72 2.10075E+01-4.04574E-01-9.79869E-01-3.11122E-01-8.01095E-15 4.64156E-13
 -1        73 1.93031E+01-6.66069E-02-2.90554E-01-5.37164E-02-3.48679E-16 5.48381E-13
 -1        74 1.86656E+01-2.13633E-02-6.37400E-02-2.08061E-02 9.34680E-15 6.17163E-13
 -1        75 1.84713E+01-1.06914E-02-9.28826E-03-1.57600E-02-2.56316E-15 6.50049E-13
 -1        76 1.84934E+01-5.68311E-03 2.18453E-04-1.23451E-02-1.25718E-14 7.09094E-13
 -1        77 1.86228E+01-3.01747E-03 1.14118E-03-9.78336E-03 1.13100E-14 7.30941E-13
 -1        78 1.88052E+01-1.56476E-03 1.14727E-03-7.91862E-03 1.18909E-14 7.50130E-13
 -1        79 1.90119E+01-7.63117E-04 1.12635E-03-6.48734E-03-9.07985E-15 6.88038E-13
 -1        80 1.92278E+01-3.25505E-04 1.02632E-03-5.38208E-03 1.23042E-14 6.23571E-13
 -1        81 1.94457E+01-7.68340E-05 8.25873E-04-4.58853E-03-1.30800E-14 5.89783E-13
 -1        82 1.96626E+01 1.12785E-04 6.05446E-04-4.12829E-03 1.38258E-14 5.54088E-13
 -1        83 1.98773E+01 3.55045E-04 5.05057E-04-4.02991E-03-1.40277E-14 6.36354E-13
 -1        84 2.00881E+01 7.53237E-04 7.05121E-04-4.30503E-03 3.76927E-15 6.45626E-13
 -1        85 2.02900E+01 1.39882E-03 1.41797E-03-4.91681E-03 5.21400E-15 5.52049E-13
 -1        86 2.04727E+01 2.35352E-03 2.86544E-03-5.73503E-03-4.85926E-15 4.34383E-13
 -1        87 2.06181E+01 3.61438E-03 5.22033E-03-6.47947E-03-2.05733E-14 3.74340E-13
 -1        88 2.06985E+01 5.06286E-03 8.49298E-03-6.66730E-03-2.40347E-14 5.04722E-13
 -1        89 2.06774E+01 6.41004E-03 1.23595E-02-5.60354E-03 1.13456E-14 3.62351E-13
 -1        90 2.05134E+01 7.17078E-03 1.59735E-02-2.48272E-03-6.62911E-14 4.90922E-13
 -1        91 2.01696E+01 6.72321E-03 1.78841E-02 3.32027E-03 2.04797E-14 5.67937E-13
 -1        92 1.96290E+01 4.51007E-03 1.62605E-02 1.17502E-02 4.70599E-14 2.18401E-13
 -1        93 1.89131E+01 3.79955E-04 9.59964E-03 2.15221E-02-3.56230E-14 1.57974E-13
 -1        94 1.80965E+01-5.07235E-03-2.16864E-03 2.99290E-02-1.13951E-14 1.87184E-13
 -1        95 1.73064E+01-1.04445E-02-1.67684E-02 3.34972E-02-1.34436E-14 2.33268E-13
 -1        96 1.66982E+01-1.39644E-02-2.97624E-02 2.95699E-02 5.20723E-14 5.19351E-13
 -1        97 1.64100E+01-1.43207E-02-3.63028E-02 1.80594E-02 1.83964E-14 2.51122E-13
 -1        98 1.65124E+01-1.13737E-02-3.36958E-02 2.04475E-03-4.25459E-14 2.04316E-13
 -1        99 1.69805E+01-6.22194E-03-2.30029E-02-1.35400E-02-1.97802E-14 9.96885E-14
 -1       100 1.77041E+01-5.92151E-04-8.40961E-03-2.43406E-02-3.37857E-14 1.61385E-13
 -1       101 1.85302E+01 3.98359E-03 5.12998E-03-2.84331E-02 2.22353E-14 1.10427E-13
 -1       102 1.93140E+01 6.69577E-03 1.42090E-02-2.65434E-02-2.18381E-14 3.74284E-14
 -1       103 1.99551E+01 7.51014E-03 1.78881E-02-2.09555E-02-5.16862E-14 4.03215E-13
 -1       104 2.04087E+01 6.89630E-03 1.71676E-02-1.41396E-02 1.98888E-14 5.00323E-13
 -1       105 2.06766E+01 5.48707E-03 1.38689E-02-7.88453E-03 1.44822E-14 4.62798E-13
 -1       106 2.07897E+01 3.83444E-03 9.69618E-03-3.07875E-03-8.99533E-14 2.82845E-13
 -1       107 2.07904E+01 2.30588E-03 5.79506E-03 1.00325E-04-2.70856E-14 1.27049E-13
 -1       108 2.07203E+01 1.08409E-03 2.71965E-03 1.87883E-03 4.99693E-14 4.96626E-13
 -1       109 2.06136E+01 2.15499E-04 5.94167E-04 2.63108E-03-5.35443E-14 2.02256E-13
 -1       110 2.04951E+01-3.32974E-04-6.93708E-04 2.72529E-03 1.47081E-16 2.96428E-13
 -1       111 2.03807E+01-6.28936E-04-1.34611E-03 2.45560E-03 8.56944E-14-1.18357E-13
 -1       112 2.02793E+01-7.45933E-04-1.56892E-03 2.02763E-03-6.47817E-14-3.32197E-13
 -1       113 2.01948E+01-7.48762E-04-1.53332E-03 1.56970E-03 4.16330E-14 8.12845E-14
 -1       114 2.01277E+01-6.87923E-04-1.36620E-03 1.15188E-03-6.91380E-14 2.24396E-13
 -1       115 2.00768E+01-5.99357E-04-1.15546E-03 8.04404E-04 3.83532E-14-3.57273E-14
 -1       116 2.00401E+01-5.06513E-04-9.61703E-04 5.31559E-04-4.96880E-14-9.11036E-14
 -1       117 2.00154E+01-4.19052E-04-8.24080E-04 3.13308E-04 4.69818E-14-3.85007E-13
 -1       118 2.00010E+01-3.26807E-04-7.40154E-04 1.04831E-04-4.31712E-14-3.22991E-13
 -1       119 1.99954E+01-1.73995E-04-5.26263E-04-2.19205E-04-6.29564E-14-3.40489E-13
 -1       120 1.99971E+01 2.49912E-04 3.51687E-04-7.54679E-04 2.10883E-13-4.84564E-13
 -1       121 1.99999E+01-2.62871E-03 2.52769E-04-9.67118E-04-6.65969E-13 4.45362E-14
 -1       122 1.99995E+01-3.87396E-03-6.00304E-04-3.80278E-04-1.53134E-13 1.79977E-13
 -1       123 1.99995E+01 2.28350E-03-6.14685E-04 1.21919E-04 3.12836E-13 2.06058E-13
 -1       124 1.99997E+01 1.43708E-02-3.28175E-04 3.73425E-04 3.54755E-13 1.22155E-13
 -1       125 1.99998E+01 2.94882E-02-1.16591E-05 4.72382E-04 1.15000E-12-7.81729E-14
 -1       126 2.00000E+01 4.41668E-02 2.71858E-04 4.35503E-04 5.67781E-13-9.36675E-15
 -1       127 2.00002E+01 5.58595E-02 4.86779E-04 2.88269E-04 5.65174E-13 1.95521E-13
 -1       128 2.00002E+01 6.19511E-02 6.03850E-04 7.09813E-05 1.51821E-15-1.50271E-13
 -1       129 2.00002E+01 6.11407E-02 6.03205E-04-1.71947E-04-3.51854E-13 2.36452E-13
 -1       130 2.00002E+01 5.34240E-02 4.76387E-04-3.89348E-04 4.46886E-13-1.04958E-13
 -1       131 2.00000E+01 4.01839E-02 2.30021E-04-5.29648E-04-2.74555E-13-4.21012E-13
 -1       132 1.99998E+01 2.43131E-02-9.96856E-05-5.32010E-04-1.13392E-12 1.57418E-13
 -1       133 1.99996E+01 8.74138E-03-4.64836E-04-3.65062E-04-2.07317E-13-4.37529E-14
 -1       134 1.99995E+01-2.56128E-03-7.28761E-04-3.83473E-06 6.66824E-13 1.71694E-13
 -1       135 1.99996E+01-6.85827E-03-5.82129E-04 6.20316E-04 1.00069E-12-1.74456E-13
 -1       136 1.99996E+01-3.95360E-03 3.19443E-04 1.00898E-03 9.69873E-13-2.54090E-15
 -1       137-1.49816E+00-1.90866E+01-2.94551E+00-3.68357E+00-1.01341E-12-2.67016E-13
 -1       138-6.56348E-01-5.24501E+00-1.90031E+00-1.37152E+00-4.00402E-13-7.59670E-14
 -1       139 5.45273E+00 6.71121E+00-6.10081E-01 6.18857E+00-2.98150E-13-2.15605E-13
 -1       140 1.95757E+01 1.21187E+01 7.62767E-01 1.52698E+01 3.59879E-13 5.01377E-13
 -1       141 4.06296E+01 9.91277E+00 2.14240E+00 1.93832E+01 2.51049E-13 2.39475E-13
 -1       142 5.98656E+01 4.13262E+00 3.11530E+00 1.36817E+01 1.21840E-13 6.40987E-13
 -1       143 6.81152E+01 9.98487E-01 3.49711E+00 6.98585E-01-6.74391E-14 1.34352E-12
 -1       144 6.18576E+01 3.36662E+00 3.24127E+00-1.26296E+01-3.08382E-13 1.59711E-12
 -1       145 4.22008E+01 9.57651E+00 2.24970E+00-1.95648E+01-5.77677E-13 1.20698E-12
 -1       146 2.17890E+01 1.22254E+01 9.37977E-01-1.60883E+01-1.21542E-12 1.29158E-12
 -1       147 5.97162E+00 7.09589E+00-5.52642E-01-6.66649E+00-1.51018E-12 1.16079E-12
 -1       148-5.91331E-01-4.16415E+00-1.82537E+00 1.19666E+00-1.53821E-12 8.12406E-13
 -1       149-1.50272E+00-1.74421E+01-2.83303E+00 3.82441E+00-8.30169E-13 2.16077E-13
 -1       150-9.14595E-01-2.57328E+01-3.41904E+00 5.40427E-01-2.26485E-14 1.76630E-13
 -1       151-1.60108E+00-2.41829E+01-3.47278E+00-4.15475E+00 1.10595E-12 2.07999E-13
 -1       152-2.69516E+00-1.41158E+01-3.01794E+00-5.28481E+00 1.18910E-12 5.64271E-13
 -1       153 4.93124E-01-9.78829E-01-2.02667E+00 4.27283E-01 1.02329E-12 6.61082E-13
 -1       154 1.26793E+01 8.42207E+00-4.79029E-01 1.04767E+01 3.57214E-13 4.56968E-13
 -1       155 3.48230E+01 1.02722E+01 1.59758E+00 1.84851E+01 2.93043E-13 4.49085E-13
 -1       156 6.04628E+01 6.02644E+00 3.73516E+00 1.74507E+01 1.74583E-13 3.16414E-13
 -1       157 7.70147E+01 1.59210E+00 5.11219E+00 5.49877E+00-2.23502E-14 1.13770E-13
 -1       158 7.36744E+01 2.45141E+00 4.82162E+00-1.02195E+01-4.40018E-14 1.92013E-13
 -1       159 5.30621E+01 7.70486E+00 3.11947E+00-1.90114E+01-6.78901E-14 2.28928E-13
 -1       160 7.94110E+00 6.17535E+00-1.00069E+00-7.21721E+00 1.73195E-13-9.85878E-14
 -1       161-6.07255E-01-3.13357E+00-2.23297E+00 1.07119E+00-2.39253E-14-6.34492E-14
 -1       162-2.65409E+00-1.49339E+01-3.06056E+00 5.49766E+00-1.33615E-13 1.40860E-13
 -1       163-1.51995E+00-2.41713E+01-3.46901E+00 4.41135E+00-4.40037E-13 2.39305E-15
 -1       164 2.09992E+01 3.69010E+00-5.72477E-02-3.60215E+00 1.19696E-14-1.96843E-13
 -1       165 1.99876E+01 4.20680E+00-4.58093E-02-2.79977E+00 4.49155E-14-1.43698E-13
 -1       166 1.95154E+01 4.47765E+00-3.12358E-02-2.18660E+00 6.64256E-14-8.15632E-14
 -1       167 1.92771E+01 4.61923E+00-2.34056E-02-1.66535E+00 8.06980E-14-4.06307E-14
 -1       168 1.91484E+01 4.70351E+00-1.94386E-02-1.21069E+00 9.04046E-14-5.13218E-15
 -1       169 1.90750E+01 4.75658E+00-1.73283E-02-7.85619E-01 8.74740E-14 2.07438E-14
 -1       170 1.90375E+01 4.78578E+00-1.63063E-02-3.83220E-01 9.03346E-14 5.33245E-14
 -1       171 1.90261E+01 4.79477E+00-1.60113E-02 8.64017E-03 9.43126E-14 7.95111E-14
 -1       172 1.90384E+01 4.78450E+00-1.63472E-02 4.00778E-01 9.76771E-14 9.11632E-14
 -1       173 1.90772E+01 4.75362E+00-1.74085E-02 8.04073E-01 9.36020E-14 1.09090E-13
 -1       174 1.91510E+01 4.69919E+00-1.95848E-02 1.22343E+00 8.88612E-14 1.42831E-13
 -1       175 1.92846E+01 4.60965E+00-2.38925E-02 1.68883E+00 7.97799E-14 1.90917E-13
 -1       176 1.95282E+01 4.46098E+00-3.25166E-02 2.21599E+00 6.40447E-14 2.35870E-13
 -1       177 2.00099E+01 4.18266E+00-4.70357E-02 2.83861E+00 3.15616E-14 3.06307E-13
 -1       178 2.11211E+01 3.46041E+00-5.99269E-02 3.52782E+00-4.02109E-15 3.69350E-13
 -1       179 2.23944E+01 1.14245E+00-3.36116E-01 3.00845E+00-3.51837E-14 4.05523E-13
 -1       180 2.19492E+01 8.57340E-01 7.03062E-04-1.95385E+00-4.37844E-15-2.11792E-13
 -1       181 2.04305E+01 1.90448E-01-9.87254E-03-7.59271E-01 2.87270E-15-2.04419E-13
 -1       182 1.96620E+01 1.02261E-01 1.36689E-02-2.79631E-01 4.48253E-15-1.71813E-13
 -1       183 1.93317E+01 4.83908E-02 1.01191E-02-5.93424E-02-9.51539E-15-2.03114E-13
 -1       184 1.92157E+01 2.45182E-02 5.30148E-03 5.23884E-02 6.09896E-15-1.79968E-13
 -1       185 1.92223E+01 1.24840E-02 2.64252E-03 1.11672E-01-8.17629E-15-1.65749E-13
 -1       186 1.93055E+01 6.28339E-03 1.44742E-03 1.45174E-01-1.40134E-14-1.48160E-13
 -1       187 1.94284E+01 4.03929E-03 9.35724E-04 1.63972E-01-1.68369E-14-1.24034E-13
 -1       188 1.95811E+01 4.50081E-03 7.99321E-04 1.78974E-01-6.17766E-14-1.49705E-13
 -1       189 1.97596E+01 7.28402E-03 8.71436E-04 1.97269E-01-2.40303E-14-1.54654E-13
 -1       190 1.99677E+01 1.24819E-02 1.12084E-03 2.25191E-01 6.33602E-14-1.77741E-13
 -1       191 2.02156E+01 2.05411E-02 1.53374E-03 2.69631E-01-2.38809E-14-1.70764E-13
 -1       192 2.05206E+01 3.22181E-02 2.15955E-03 3.38581E-01-1.68680E-14-1.64208E-13
 -1       193 2.09293E+01 5.00178E-02 2.87427E-03 4.49262E-01-5.84248E-14-2.10718E-13
 -1       194 2.14383E+01 7.31734E-02 3.60417E-03 6.05548E-01-2.61637E-14-2.58174E-13
 -1       195 2.21063E+01 1.03105E-01 3.96185E-03 8.25101E-01-7.44613E-14-3.04007E-13
 -1       196 2.29807E+01 1.36644E-01 3.24890E-03 1.11924E+00-9.75023E-14-3.47355E-13
 -1       197 2.41041E+01 1.60907E-01 6.69101E-04 1.47905E+00-4.02269E-14-3.24138E-13
 -1       198 2.54918E+01 1.40406E-01-3.80322E-03 1.84046E+00 1.08973E-13-3.47389E-13
 -1       199 2.70928E+01 6.11502E-04-7.11337E-03 2.01904E+00 7.37231E-14-2.13539E-13
 -1       200 2.87393E+01-3.63622E-01-2.32740E-03 1.63815E+00-1.45783E-13-3.27292E-13
 -1       201 3.01322E+01-9.94604E-01 8.11073E-03 9.48003E-02-5.82156E-14-2.87991E-13
 -1       202 3.05616E+01-1.29986E+00-1.42626E-02-2.49815E+00-6.49823E-14-3.41560E-13
 -1       203 2.97473E+01-4.70553E-01-1.05012E-01-4.34600E+00-1.20959E-13-4.41928E-13
 -1       204 2.81649E+01 1.50125E+00-2.03850E-01-3.27817E+00 8.05467E-14-4.45106E-13
 -1       205 2.75308E+01 2.37280E+00-2.45821E-01 7.06739E-01 3.60614E-13-3.30261E-13
 -1       206 2.87443E+01 7.06780E-01-1.70123E-01 4.18368E+00 1.12410E-15-2.96079E-13
 -1       207 3.01930E+01-1.00908E+00-5.96369E-02 3.76862E+00-1.67616E-13-1.75632E-13
 -1       208 3.05120E+01-1.26632E+00 4.09707E-03 1.17939E+00 4.01710E-14-5.16297E-13
 -1       209 2.95992E+01-6.94502E-01 7.57039E-03-9.60142E-01 2.74225E-14-3.55080E-13
 -1       210 2.80794E+01-1.75386E-01-3.88664E-03-1.89049E+00-5.74501E-14-2.35130E-13
 -1       211 2.64291E+01 8.35801E-02-5.44817E-03-1.96811E+00 4.14622E-14-2.04730E-13
 -1       212 2.49177E+01 1.61437E-01-1.65603E-03-1.67344E+00 6.94891E-14-5.24494E-15
 -1       213 2.36569E+01 1.57330E-01 1.86869E-03-1.29460E+00-1.53858E-13 2.63071E-15
 -1       214 2.26256E+01 1.25180E-01 3.84713E-03-9.39148E-01 2.34491E-15 3.16654E-14
 -1       215 2.18896E+01 9.27273E-02 3.88894E-03-6.73207E-01 7.47228E-14-1.36336E-13
 -1       216 2.13442E+01 6.63927E-02 3.38509E-03-4.76698E-01-1.67284E-13-4.81401E-13
 -1       217 2.09466E+01 4.67328E-02 2.68504E-03-3.35317E-01-2.01933E-13-5.42294E-13
 -1       218 2.06594E+01 3.26882E-02 2.03060E-03-2.34958E-01 3.85396E-14-5.62425E-13
 -1       219 2.04531E+01 2.28538E-02 1.49746E-03-1.64073E-01 5.33032E-14-3.52447E-13
 -1       220 2.03058E+01 1.60387E-02 1.07894E-03-1.14046E-01-9.72362E-14-3.96267E-13
 -1       221 2.01973E+01 1.11056E-02 7.99628E-04-7.71917E-02-1.74399E-13-5.85888E-13
 -1       222 2.01255E+01 7.85459E-03 5.63323E-04-5.23757E-02-1.58443E-13-4.70813E-13
 -1       223 2.00759E+01 5.64159E-03 4.09985E-04-3.46472E-02-1.75723E-14-3.89380E-13
 -1       224 2.00426E+01 4.14860E-03 2.92584E-04-2.17476E-02 1.91023E-13-6.93348E-13
 -1       225 2.00212E+01 3.17870E-03 1.97745E-04-1.21385E-02 3.10176E-13-6.35209E-13
 -1       226 2.00086E+01 2.50436E-03 1.25363E-04-4.81374E-03 2.00374E-13-5.31128E-13
 -1       227 2.00022E+01 1.65602E-03 1.23473E-04 3.03363E-04-8.38171E-14-1.92085E-13
 -1       228 2.00001E+01-2.77174E-04 6.54292E-05 2.17120E-03-4.40243E-14-1.51609E-13
 -1       229 2.09445E+01 2.77855E-01-5.07060E-02 1.16048E+00-1.88183E-14 3.85606E-13
 -1       230 1.98614E+01 1.30847E-01 1.00699E-02 4.42024E-01-1.65493E-14 3.83533E-13
 -1       231 1.93647E+01 5.69875E-02 1.34708E-02 1.42343E-01-3.34832E-14 3.83773E-13
 -1       232 1.91638E+01 2.36589E-02 7.39507E-03-2.49502E-03-2.12389E-14 4.15246E-13
 -1       233 1.91272E+01 1.13767E-02 3.65827E-03-7.52342E-02-1.27861E-14 4.24118E-13
 -1       234 1.91836E+01 5.21106E-03 1.81993E-03-1.12591E-01 4.34087E-15 4.12866E-13
 -1       235 1.92921E+01 1.99435E-03 9.68419E-04-1.31145E-01 1.91007E-14 4.00870E-13
 -1       236 1.94296E+01 4.32690E-04 5.34942E-04-1.39601E-01 4.44065E-14 3.41265E-13
 -1       237 1.95829E+01-1.92869E-04 2.78079E-04-1.42926E-01 1.12595E-14 3.33705E-13
 -1       238 1.97446E+01-4.10691E-04 1.00415E-04-1.43755E-01-2.42386E-15 3.30019E-13
 -1       239 1.99099E+01-6.95159E-04-4.28745E-05-1.42935E-01 6.08413E-15 3.58105E-13
 -1       240 2.00748E+01-1.53046E-03-1.75488E-04-1.39679E-01 3.35761E-14 3.01545E-13
 -1       241 2.02336E+01-3.42793E-03-3.07424E-04-1.31578E-01 7.19179E-14 3.10203E-13
 -1       242 2.03775E+01-6.88898E-03-4.34442E-04-1.14620E-01 2.10258E-14 2.83628E-13
 -1       243 2.04926E+01-1.22880E-02-5.36411E-04-8.34630E-02 1.88724E-14 3.04630E-13
 -1       244 2.05598E+01-1.96456E-02-5.79379E-04-3.22258E-02-5.17216E-14 3.20290E-13
 -1       245 2.05543E+01-2.82877E-02-5.26246E-04 4.38640E-02 2.26156E-14 2.54194E-13
 -1       246 2.04495E+01-3.64627E-02-3.59136E-04 1.45750E-01-6.78843E-14 3.31439E-13
 -1       247 2.02225E+01-4.11411E-02-1.07312E-04 2.66997E-01 6.06691E-14 1.99277E-13
 -1       248 1.98636E+01-3.83902E-02 1.40803E-04 3.90555E-01 7.99276E-14 2.66699E-13
 -1       249 1.93881E+01-2.47374E-02 2.60008E-04 4.88173E-01-1.92961E-14 3.78602E-13
 -1       250 1.88443E+01 5.26622E-04 1.69269E-04 5.25330E-01 2.15587E-14 2.73920E-13
 -1       251 1.83138E+01 3.31548E-02-7.43096E-05 4.72953E-01 1.54311E-14 2.92394E-13
 -1       252 1.78970E+01 6.38226E-02-2.56739E-04 3.22695E-01-4.13096E-14 2.38114E-13
 -1       253 1.76851E+01 8.14651E-02-1.37559E-04 9.74462E-02 1.22595E-13 2.29434E-13
 -1       254 1.77281E+01 7.89717E-02 3.41191E-04-1.51848E-01-2.89092E-15 1.79468E-13
 -1       255 1.80161E+01 5.74231E-02 9.63248E-04-3.64676E-01 1.93617E-15 2.15097E-13
 -1       256 1.84829E+01 2.54191E-02 1.37405E-03-4.95133E-01-3.74417E-14 2.71243E-13
 -1       257 1.90317E+01-5.91189E-03 1.33577E-03-5.27540E-01-4.97166E-15 1.46977E-13
 -1       258 1.95666E+01-2.83144E-02 8.71765E-04-4.76128E-01-3.96259E-14 3.50998E-13
 -1       259 2.00168E+01-3.88831E-02 2.06239E-04-3.72571E-01-7.87944E-14 4.49495E-13
 -1       260 2.03463E+01-3.92304E-02-4.05932E-04-2.50890E-01 1.34155E-14 3.82672E-13
 -1       261 2.05502E+01-3.31049E-02-8.00974E-04-1.37162E-01-1.10307E-15 3.54144E-13
 -1       262 2.06444E+01-2.42827E-02-9.41615E-04-4.60358E-02 1.93357E-15 3.03778E-13
 -1       263 2.06548E+01-1.54791E-02-8.79208E-04 1.78561E-02 2.89474E-14 3.60268E-13
 -1       264 2.06092E+01-8.15910E-03-6.98684E-04 5.64645E-02-9.42077E-14 2.83493E-13
 -1       265 2.05318E+01-2.81345E-03-4.78445E-04 7.49357E-02 6.96176E-14 2.44515E-13
 -1       266 2.04412E+01 6.54391E-04-2.71935E-04 7.91815E-02 2.74299E-14 9.18319E-14
 -1       267 2.03504E+01 2.60817E-03-1.06354E-04 7.45099E-02 1.35396E-13-1.22445E-14
 -1       268 2.02672E+01 3.47439E-03 1.08356E-05 6.50614E-02-4.24081E-14 1.64084E-13
 -1       269 2.01955E+01 3.63718E-03 8.38114E-05 5.37360E-02-1.08910E-13 1.27431E-13
 -1       270 2.01367E+01 3.39929E-03 1.21737E-04 4.23600E-02-6.82229E-14 2.34980E-13
 -1       271 2.00906E+01 2.97863E-03 1.33950E-04 3.19313E-02 2.82319E-13 2.07839E-13
 -1       272 2.00559E+01 2.52307E-03 1.26483E-04 2.28605E-02 7.90747E-14 2.94365E-14
 -1       273 2.00312E+01 2.13145E-03 1.00920E-04 1.51651E-02 6.06979E-14 5.09890E-14
 -1       274 2.00149E+01 1.82607E-03 6.06492E-05 8.65911E-03-9.02405E-15 7.02547E-14
 -1       275 2.00053E+01 1.60411E-03 5.37422E-05 3.14064E-03 6.16212E-14-3.70435E-14
 -1       276 2.00010E+01 7.98370E-04 1.79090E-04-8.05313E-04 9.12138E-14-2.05730E-13
 -1       277 2.00017E+01 3.04410E-03 7.34911E-05 1.31210E-03 1.13911E-13 3.62176E-13
 -1       278 2.00019E+01 9.14956E-03 1.19271E-05 6.10959E-03 1.45674E-13 4.48978E-13
 -1       279 2.00012E+01 1.85992E-02 1.13883E-05 1.01370E-02 2.65027E-13 1.61158E-13
 -1       280 2.00002E+01 3.02644E-02-1.60410E-06 1.22424E-02 1.72610E-13 4.74034E-13
 -1       281 1.99992E+01 4.21157E-02-2.82593E-05 1.19394E-02 8.51063E-14-1.55492E-13
 -1       282 1.99984E+01 5.25808E-02-5.33207E-05 9.33009E-03-3.69100E-14-3.57595E-14
 -1       283 1.99978E+01 5.96214E-02-7.24742E-05 4.91237E-03-6.93339E-14-1.66001E-13
 -1       284 1.99976E+01 6.19744E-02-7.91200E-05-5.11384E-04-7.98177E-15-2.32510E-13
 -1       285 1.99978E+01 5.91498E-02-7.17008E-05-5.95155E-03-2.92701E-14 3.40082E-13
 -1       286 1.99984E+01 5.15606E-02-5.20517E-05-1.03567E-02-9.36356E-14-4.89158E-13
 -1       287 1.99994E+01 4.07141E-02-2.52330E-05-1.27585E-02 8.25791E-14-2.91252E-13
 -1       288 2.00005E+01 2.81665E-02-4.14991E-06-1.26046E-02 7.57445E-14 3.57749E-13
 -1       289 2.00016E+01 1.63387E-02 7.00241E-06-9.73028E-03 3.98129E-14 3.27269E-13
 -1       290 2.00021E+01 7.19905E-03 1.10039E-05-4.74800E-03 1.23422E-13 1.57824E-13
 -1       291 2.00016E+01 2.20222E-03 1.61365E-05-3.70692E-04 4.66181E-14-4.70052E-13
 -1       292-5.51214E-01-1.02113E+01-7.99003E-01 2.49373E+00-4.66252E-13-5.55112E-17
 -1       293 4.91682E+00-7.29472E+00-4.63182E-01 5.57895E+00-2.96985E-13 3.15026E-14
 -1       294 1.14097E+01-3.62822E+00-3.77365E-01 6.59536E+00-1.72196E-13 9.59371E-14
 -1       295 2.14017E+01 2.02506E-01 1.56063E-02 8.04923E+00-1.26010E-13 4.41619E-13
 -1       296 3.19180E+01 3.96900E+00 4.46417E-01 8.49330E+00 2.86562E-13 1.89793E-13
 -1       297 4.09777E+01 5.82180E+00 6.56321E-01 5.56098E+00 6.23876E-14 6.44346E-13
 -1       298 4.43651E+01 7.56283E+00 6.28524E-01 1.60453E+00-3.04451E-13 6.92724E-13
 -1       299 4.71836E+01 7.12292E+00 9.19140E-01-1.95420E+00-2.54435E-13 8.93577E-13
 -1       300 4.28269E+01 6.14002E+00 8.71475E-01-6.26551E+00-2.08646E-13 9.51322E-13
 -1       301 3.29924E+01 4.13909E+00 4.80483E-01-8.34579E+00-8.23550E-13 8.04912E-13
 -1       302 2.25706E+01 1.56025E-01 4.09769E-02-7.92524E+00-7.66304E-13 7.51954E-13
 -1       303 1.19439E+01-3.36623E+00-3.51769E-01-6.74337E+00-7.21478E-13 6.16895E-13
 -1       304 4.66218E+00-7.50029E+00-6.46624E-01-4.90595E+00-5.25247E-13 6.49092E-13
 -1       305-6.49871E-02-9.97622E+00-7.62373E-01-2.86960E+00-2.00465E-13 4.78298E-13
 -1       306-1.21239E+00-9.75393E+00-6.87057E-01-6.26465E-02 7.20327E-14 6.34798E-13
 -1       307 1.34741E+00-1.01793E+01-8.94391E-01 2.15019E+00 3.48999E-13 1.81730E-13
 -1       308 8.03236E+00-7.42413E+00-7.37796E-01 4.46958E+00 4.47975E-13 1.20209E-13
 -1       309 1.83567E+01-3.89687E+00-3.98952E-01 6.09427E+00 4.48253E-13 2.01228E-14
 -1       310 3.05443E+01 1.02051E-01 1.41856E-01 6.61691E+00 1.67477E-13 2.52742E-13
 -1       311 4.24986E+01 3.23508E+00 7.50168E-01 4.53218E+00 2.18521E-13 2.52021E-13
 -1       312 5.03705E+01 6.30527E+00 1.30420E+00 1.91964E+00 1.12632E-13 2.47996E-13
 -1       313 5.29539E+01 7.46541E+00 1.57090E+00-4.22961E-01-3.44724E-14 1.58137E-13
 -1       314 4.90187E+01 5.52028E+00 1.21594E+00-3.10113E+00 1.62773E-13-1.30396E-13
 -1       315 3.84771E+01 1.12091E+00 3.68484E-01-3.54285E+00 2.34271E-13 2.49800E-15
 -1       316 2.64815E+01-1.65182E+00-6.36590E-02-6.37800E+00-7.77156E-16-1.13021E-13
 -1       317 1.52069E+01-4.48407E+00-5.13270E-01-5.76571E+00-1.76359E-13-1.00669E-13
 -1       318 6.58949E+00-7.83867E+00-8.42520E-01-3.90190E+00-1.89182E-13-8.67362E-16
 -1       319 9.99129E-01-1.07164E+01-1.01099E+00-1.76323E+00-4.26492E-13-9.57706E-14
 -1       320-1.33776E+00-1.14215E+01-9.48560E-01 8.50250E-02-4.27419E-13-1.98730E-13
 -1       321 2.01392E+01 3.00259E+00-2.19772E-02-2.08536E+00 6.61647E-14-8.82835E-14
 -1       322 2.07504E+01 2.20755E+00-1.76153E-02-2.35473E+00 2.89781E-14-1.38381E-13
 -1       323 1.95931E+01 3.70131E+00-1.55761E-02-1.30516E+00 1.04750E-13 1.06725E-14
 -1       324 1.94699E+01 3.86208E+00-1.36546E-02-9.13634E-01 1.08123E-13 8.97633E-15
 -1       325 1.94000E+01 3.95585E+00-1.26414E-02-5.37136E-01 1.14497E-13 3.36844E-14
 -1       326 1.93685E+01 3.99872E+00-1.22113E-02-1.70666E-01 1.21697E-13 7.15777E-14
 -1       327 1.93694E+01 3.99711E+00-1.22282E-02 1.92486E-01 1.28416E-13 9.71085E-14
 -1       328 1.94028E+01 3.95067E+00-1.26826E-02 5.59207E-01 1.23847E-13 9.27327E-14
 -1       329 1.94740E+01 3.85456E+00-1.37077E-02 9.29744E-01 1.17073E-13 1.02405E-13
 -1       330 1.96008E+01 3.68837E+00-1.56371E-02 1.32169E+00 9.44357E-14 1.54050E-13
 -1       331 1.98140E+01 3.41575E+00-1.90192E-02 1.72692E+00 7.21715E-14 1.95067E-13
 -1       332 2.01771E+01 2.95316E+00-2.32346E-02 2.11165E+00 3.94077E-14 2.22810E-13
 -1       333 2.07534E+01 2.10583E+00-2.94203E-02 2.29699E+00 1.54416E-14 3.03790E-13
 -1       334 2.10805E+01 1.18574E+00-2.40491E-02 1.90667E+00-1.18898E-14 3.28040E-13
 -1       335 2.03748E+01 4.94749E-01 7.85567E-03 9.16314E-01-1.63428E-14 3.05656E-13
 -1       336 2.04557E+01 6.77426E-01 1.26271E-02-1.01374E+00 2.67403E-14-1.13472E-13
 -1       337 2.00416E+01 3.41193E-01 7.22896E-03-4.42553E-01-3.08998E-16-7.67729E-14
 -1       338 1.97981E+01 1.83663E-01 4.18215E-03-1.26588E-01 3.37664E-15-4.03809E-14
 -1       339 1.96778E+01 1.01311E-01 1.99719E-03 5.51716E-02-8.91014E-15-4.98084E-14
 -1       340 1.96441E+01 5.55201E-02 9.87386E-04 1.65684E-01-1.74171E-14-5.37165E-14
 -1       341 1.96709E+01 3.41063E-02 5.37299E-04 2.29220E-01 7.70624E-15-7.47277E-14
 -1       342 1.97377E+01 2.69999E-02 4.22466E-04 2.73264E-01-2.82503E-14-4.52985E-14
 -1       343 1.98345E+01 3.09080E-02 4.65002E-04 3.12600E-01-3.54295E-14 3.03693E-14
 -1       344 1.99573E+01 4.47938E-02 6.44730E-04 3.59159E-01 2.20273E-14 6.84025E-14
 -1       345 2.01063E+01 6.91712E-02 9.59669E-04 4.24094E-01 1.36174E-14 3.26873E-14
 -1       346 2.02856E+01 1.05818E-01 1.44770E-03 5.19002E-01-4.27480E-14 5.01978E-14
 -1       347 2.05132E+01 1.60964E-01 2.14725E-03 6.66091E-01-4.77780E-14 3.28764E-14
 -1       348 2.07761E+01 2.33212E-01 2.97805E-03 8.68352E-01-8.37713E-14 1.42579E-13
 -1       349 2.10933E+01 3.26462E-01 3.93292E-03 1.14870E+00-6.99892E-14 1.24370E-13
 -1       350 2.14732E+01 4.35759E-01 4.67276E-03 1.52315E+00-5.72142E-14 1.48357E-13
 -1       351 2.19255E+01 5.36217E-01 4.64724E-03 1.99519E+00-1.04043E-13 1.25268E-13
 -1       352 2.24713E+01 5.57479E-01 3.21833E-03 2.53342E+00-3.47652E-14 1.57617E-13
 -1       353 2.31743E+01 3.42825E-01 1.09135E-04 3.02896E+00 1.28490E-13-1.24673E-13
 -1       354 2.42092E+01-3.69883E-01-2.05466E-04 3.22474E+00-5.19723E-14-1.99010E-13
 -1       355 2.60369E+01-1.92961E+00 4.71532E-03 2.58749E+00-4.16039E-14-2.12170E-13
 -1       356 2.88628E+01-3.68412E+00-5.60712E-03 5.58094E-01-1.88655E-13-1.67728E-13
 -1       357 3.20962E+01-3.53476E+00-4.08699E-02-2.28375E+00-8.24737E-14-2.38379E-13
 -1       358 3.37584E+01 9.84307E-01-1.43520E-01-4.45949E+00 2.83107E-15-1.82590E-13
 -1       359 3.40657E+01 5.57958E+00-2.12924E-01-1.73951E+00 2.17493E-13-2.67925E-13
 -1       360 3.38449E+01 4.43077E+00-2.10594E-01 3.31203E+00 3.78975E-13-5.23880E-13
 -1       361 3.32522E+01-1.09084E+00-1.16776E-01 4.16202E+00 1.26288E-15-5.04624E-13
 -1       362 3.06139E+01-3.62308E+00-5.45864E-02 1.40351E+00-2.46075E-13-3.32163E-13
 -1       363 2.77905E+01-2.62958E+00 8.45546E-03-1.44168E+00 1.10452E-13-2.90564E-13
 -1       364 2.56263E+01-1.00306E+00-1.40902E-03-2.81389E+00 1.09272E-13-1.21318E-13
 -1       365 2.42263E+01 1.58743E-02-2.06263E-03-3.03749E+00-7.71922E-14-2.67687E-14
 -1       366 2.32719E+01 4.30250E-01 9.60065E-04-2.69579E+00 1.30841E-13-1.46894E-13
 -1       367 2.25523E+01 5.07849E-01 3.72012E-03-2.17398E+00 6.08636E-14 1.01352E-14
 -1       368 2.19532E+01 4.42246E-01 4.89688E-03-1.63940E+00-2.95237E-14 3.77256E-13
 -1       369 2.14946E+01 3.46246E-01 4.59163E-03-1.21495E+00-9.18246E-14 3.74712E-13
 -1       370 2.11266E+01 2.56939E-01 3.74974E-03-8.84817E-01-3.16573E-13 1.02007E-13
 -1       371 2.08374E+01 1.85691E-01 2.85620E-03-6.37871E-01-2.69842E-13 2.09444E-13
 -1       372 2.06139E+01 1.32519E-01 2.08974E-03-4.56915E-01-8.68323E-14 1.89616E-13
 -1       373 2.04437E+01 9.41168E-02 1.49875E-03-3.25700E-01 5.70534E-15 3.68016E-15
 -1       374 2.03155E+01 6.68507E-02 1.05141E-03-2.30976E-01-1.14309E-13-1.23329E-13
 -1       375 2.02164E+01 4.67000E-02 7.52935E-04-1.59855E-01-2.01014E-13-3.41986E-13
 -1       376 2.01478E+01 3.33710E-02 5.25101E-04-1.11397E-01-1.14681E-14-2.06545E-13
 -1       377 2.00980E+01 2.40016E-02 3.76238E-04-7.62955E-02 6.72836E-14 1.48000E-13
 -1       378 2.00624E+01 1.74913E-02 2.70652E-04-5.07241E-02-1.12782E-13 9.77579E-14
 -1       379 2.00376E+01 1.30177E-02 1.89911E-04-3.18922E-02 2.46820E-13 1.78826E-13
 -1       380 2.00207E+01 9.94462E-03 1.49192E-04-1.78415E-02 3.57514E-13-3.60453E-14
 -1       381 2.00093E+01 7.18115E-03 9.37801E-05-7.45066E-03 5.17949E-14-1.75157E-13
 -1       382 1.98491E+01 2.29749E-01 6.94741E-03 2.58176E-01-2.73228E-14 2.83906E-13
 -1       383 1.96667E+01 1.19282E-01 3.40055E-03 2.35539E-02-1.30826E-14 2.70360E-13
 -1       384 1.95924E+01 6.42708E-02 1.62105E-03-1.08233E-01 2.03437E-14 2.43741E-13
 -1       385 1.95913E+01 3.35908E-02 7.66093E-04-1.82662E-01 1.18559E-14 2.31985E-13
 -1       386 1.96373E+01 1.66635E-02 3.64322E-04-2.24040E-01 4.57622E-14 2.11873E-13
 -1       387 1.97134E+01 7.71709E-03 1.60600E-04-2.46608E-01 1.19804E-14 2.29409E-13
 -1       388 1.98088E+01 3.07996E-03 4.30931E-05-2.58639E-01-3.75455E-15 2.41890E-13
 -1       389 1.99164E+01-7.31560E-05-4.75209E-05-2.64280E-01 1.71454E-15 2.10700E-13
 -1       390 2.00316E+01-4.29364E-03-1.53203E-04-2.64317E-01 4.67017E-14 1.95665E-13
 -1       391 2.01501E+01-1.20958E-02-3.08927E-04-2.56444E-01 2.83553E-14 1.44710E-13
 -1       392 2.02670E+01-2.59262E-02-5.42242E-04-2.35387E-01 5.04039E-15 2.15198E-13
 -1       393 2.03756E+01-4.78108E-02-8.66643E-04-1.93227E-01-8.88189E-15 2.46222E-13
 -1       394 2.04661E+01-7.85697E-02-1.27007E-03-1.20322E-01 3.51455E-15 2.63916E-13
 -1       395 2.05251E+01-1.16537E-01-1.70084E-03-7.37811E-03-7.58979E-15 1.86988E-13
 -1       396 2.05360E+01-1.55939E-01-2.05650E-03 1.50864E-01 3.07156E-14 1.41464E-13
 -1       397 2.04800E+01-1.85581E-01-2.18933E-03 3.50208E-01 1.53869E-14 1.62544E-13
 -1       398 2.03404E+01-1.89215E-01-1.93821E-03 5.70802E-01-9.20862E-14 2.38657E-13
 -1       399 2.01097E+01-1.49430E-01-1.18344E-03 7.72957E-01-4.64932E-14 3.89217E-13
 -1       400 1.97987E+01-5.61591E-02 4.57675E-05 8.99775E-01 1.47226E-13 3.36045E-13
 -1       401 1.94452E+01 8.24813E-02 1.52797E-03 8.91352E-01 4.30482E-14 3.22263E-13
 -1       402 1.91145E+01 2.34080E-01 2.90109E-03 7.10310E-01-1.69661E-14 3.46920E-13
 -1       403 1.88850E+01 3.49245E-01 3.82127E-03 3.68258E-01 8.74524E-14 2.40190E-13
 -1       404 1.88199E+01 3.83681E-01 4.06400E-03-6.50273E-02 8.59725E-14 3.32148E-13
 -1       405 1.89387E+01 3.23257E-01 3.57404E-03-4.82700E-01-1.03452E-14 1.52997E-13
 -1       406 1.92076E+01 1.92748E-01 2.45732E-03-7.84654E-01-3.30572E-14 8.83723E-14
 -1       407 1.95563E+01 4.08031E-02 9.87554E-04-9.17045E-01-3.66507E-14 2.65906E-13
 -1       408 1.99080E+01-8.62037E-02-4.55355E-04-8.84505E-01-1.21640E-13 4.65490E-13
 -1       409 2.02051E+01-1.62808E-01-1.53431E-03-7.34069E-01-4.59559E-14 3.78723E-13
 -1       410 2.04187E+01-1.87191E-01-2.09789E-03-5.27171E-01-7.57368E-14 3.43723E-13
 -1       411 2.05448E+01-1.72664E-01-2.17106E-03-3.16829E-01-3.29301E-14 6.54059E-13
 -1       412 2.05954E+01-1.36991E-01-1.89886E-03-1.37097E-01 2.56836E-14 5.61122E-13
 -1       413 2.05888E+01-9.52009E-02-1.45300E-03-2.93792E-03-7.73567E-15 4.66995E-13
 -1       414 2.05441E+01-5.69115E-02-9.73469E-04 8.46471E-02-7.42025E-14 3.29868E-13
 -1       415 2.04778E+01-2.66501E-02-5.49365E-04 1.32521E-01 1.60669E-13 3.04659E-13
 -1       416 2.04026E+01-5.38371E-03-2.21071E-04 1.50539E-01 1.95683E-13 1.90174E-13
 -1       417 2.03273E+01 7.88822E-03 5.18043E-06 1.48481E-01 2.18046E-13-9.95027E-14
 -1       418 2.02575E+01 1.49534E-02 1.42470E-04 1.34532E-01 1.49190E-14-1.55323E-13
 -1       419 2.01963E+01 1.76797E-02 2.11587E-04 1.14800E-01-1.65849E-13-2.19423E-14
 -1       420 2.01449E+01 1.76747E-02 2.33949E-04 9.34144E-02-2.28750E-14-7.25380E-14
 -1       421 2.01032E+01 1.61756E-02 2.27984E-04 7.28774E-02 8.18537E-14-1.89614E-13
 -1       422 2.00705E+01 1.40534E-02 2.06780E-04 5.44762E-02 1.99265E-13 1.84749E-13
 -1       423 2.00457E+01 1.18847E-02 1.77524E-04 3.86771E-02 1.11898E-13 3.80585E-13
 -1       424 2.00275E+01 9.99240E-03 1.48217E-04 2.54329E-02-9.09380E-14 3.46001E-13
 -1       425 2.00147E+01 8.30377E-03 1.07046E-04 1.46287E-02 1.64279E-14 2.53934E-13
 -1       426 2.00069E+01 6.16923E-03 7.56385E-05 6.81873E-03 2.23989E-13 1.31739E-13
 -1       427 2.00029E+01 3.18265E-02 2.08520E-05 2.19348E-02-1.41372E-13 1.27276E-13
 -1       428 2.00062E+01 1.99395E-02 5.80527E-05 1.74604E-02 4.31194E-14 3.11816E-13
 -1       429 1.99992E+01 4.39316E-02-7.34201E-06 2.29197E-02-2.79974E-13-8.42149E-14
 -1       430 1.99955E+01 5.52324E-02-3.73007E-05 1.99245E-02-2.08217E-13 4.08826E-14
 -1       431 1.99926E+01 6.39961E-02-6.32106E-05 1.34313E-02-1.20223E-13-9.54169E-14
 -1       432 1.99910E+01 6.89823E-02-7.74036E-05 4.49521E-03-1.78422E-13-3.14246E-13
 -1       433 1.99909E+01 6.93965E-02-7.70287E-05-5.39786E-03-1.65703E-14 4.13448E-14
 -1       434 1.99926E+01 6.50654E-02-6.12224E-05-1.45214E-02-1.79053E-13-1.14882E-13
 -1       435 1.99956E+01 5.67012E-02-3.32806E-05-2.10813E-02-1.43659E-13-4.14208E-13
 -1       436 1.99998E+01 4.51774E-02-5.51174E-07-2.39506E-02-2.73931E-14 2.03667E-13
 -1       437 2.00041E+01 3.22324E-02 2.72176E-05-2.23208E-02 1.05696E-13 1.77869E-13
 -1       438 2.00074E+01 1.98109E-02 5.07278E-05-1.65354E-02-9.30483E-16 2.87834E-13
 -1       439 2.00399E+01 3.31390E-01 1.05423E-02 5.24941E-01-1.95781E-14 3.01321E-13
 -1       440 1.35999E+01-5.35630E+00 1.92424E-02 7.99862E+00-2.16660E-13 1.36485E-13
 -1       441 2.88249E+01-1.76494E+00 3.04670E-02 4.64569E+00-4.93078E-14 2.85869E-13
 -1       442 1.11934E+00-4.11345E+00-2.12751E-02 1.37674E+00-3.01977E-13-1.18239E-13
 -1       443 2.05588E+01-4.90495E+00-2.66936E-02 7.22286E+00-2.57766E-13 3.77975E-13
 -1       444 1.97983E+01 3.43879E+00-1.86847E-02-1.70733E+00 7.57394E-14-3.41307E-14
 -1       445 3.39139E+01 2.35939E+00 5.78859E-02 2.21104E+00 6.09443E-14 3.92991E-13
 -1       446 3.50332E+01 6.42394E+00-5.95212E-02-2.76995E-01-1.03334E-13 1.54154E-13
 -1       447 3.60782E+01 8.70834E+00-4.63365E-02 9.89849E-02-2.81108E-13 4.05865E-14
 -1       448 3.53747E+01 6.99295E+00-2.60225E-02 2.58008E-01-2.08070E-13 1.70960E-13
 -1       449 3.41411E+01 2.86663E+00 2.09887E-02-1.45078E+00-4.08007E-13 4.42160E-13
 -1       450 2.95384E+01-1.27745E+00 3.65284E-02-4.42815E+00-5.56132E-13 3.53023E-13
 -1       451 2.13866E+01-4.90599E+00-2.68498E-02-7.01701E+00-2.14578E-13 4.77292E-13
 -1       452 1.39677E+01-5.40107E+00 6.22061E-03-7.99840E+00-2.45026E-13 4.02416E-13
 -1       453 5.50858E+00-4.99343E+00-2.26726E-02-6.36002E+00-2.40308E-13 6.39613E-13
 -1       454 1.99660E+00-3.31629E+00 8.08125E-02-2.46069E+00-1.14669E-13 7.71105E-13
 -1       455 2.99559E+00-4.71605E+00-2.95058E-02 3.12790E+00-8.27879E-14 2.58946E-13
 -1       456 9.67601E+00-5.62472E+00-1.63408E-02 6.11517E+00-5.42066E-14 6.14508E-14
 -1       457 1.88552E+01-6.69255E+00-7.53848E-02 6.14415E+00 1.42053E-13-2.13562E-13
 -1       458 2.86692E+01-5.31141E+00-5.18235E-02 3.56241E+00 1.34948E-13-3.19189E-15
 -1       459 3.53299E+01-2.10549E+00-1.53869E-02-6.46255E-01 7.52506E-14-1.79023E-14
 -1       460 3.80421E+01 3.07758E+00-4.74459E-02-2.56399E+00 8.41271E-14 6.16174E-15
 -1       461 3.29513E+01-3.74588E+00-2.55394E-02-9.57037E-01-4.42840E-14-9.99201E-14
 -1       462 2.53984E+01-6.08013E+00-7.18633E-02-4.63675E+00-3.32623E-13 4.37983E-14
 -1       463 1.71743E+01-6.59353E+00-1.10088E-01-6.24938E+00-1.58124E-13-5.50358E-14
 -1       464 8.13300E+00-6.11118E+00-1.20416E-01-5.68933E+00-4.31155E-13-1.07275E-14
 -1       465 2.46968E+00-5.37636E+00-1.05316E-01-2.84835E+00-5.06845E-13-6.12149E-14
 -1       466 4.31893E+00-4.43769E+00-5.27730E-03 5.68078E+00-2.24723E-13 1.51407E-13
 -1       467 2.00091E+01 1.32800E-02 8.78316E-05-1.23382E-02-2.29430E-13-4.74090E-13
 -1       468 1.08150E+01-3.85059E+00 1.34223E-01 7.57595E+00-1.24518E-13 1.65909E-13
 -1       469 3.13691E+01 7.70289E+00-1.68683E-01-8.63270E-01-1.85338E-13-6.05557E-14
 -1       470 3.60539E+01-6.69949E-01-2.43580E-02 2.33121E+00 7.81528E-14-5.06470E-13
 -1       471 3.71937E+01 2.08319E+00-8.96982E-02 2.31555E+00 1.34587E-13-6.75654E-13
 -1       472 1.97386E+01 3.12767E+00-5.36855E-03-6.22396E-01 1.22352E-13 2.70206E-14
 -1       473 1.98367E+01 2.94947E+00-5.97521E-03-9.35332E-01 1.15583E-13 7.65707E-15
 -1       474 1.96680E+01 3.25440E+00-4.99051E-03 9.12377E-03 1.14936E-13 9.69314E-14
 -1       475 1.96866E+01 3.22023E+00-5.07393E-03 3.24697E-01 1.29074E-13 8.53090E-14
 -1       476 1.97414E+01 3.12034E+00-5.39197E-03 6.34907E-01 1.11090E-13 7.75608E-14
 -1       477 1.98414E+01 2.93795E+00-5.92219E-03 9.46496E-01 1.11764E-13 1.09167E-13
 -1       478 1.99983E+01 2.64638E+00-6.54944E-03 1.23949E+00 5.97874E-14 1.48526E-13
 -1       479 2.02275E+01 2.20168E+00-5.79451E-03 1.47352E+00 2.76340E-14 1.78659E-13
 -1       480 2.04789E+01 1.54952E+00-3.22878E-03 1.52835E+00 1.22203E-14 2.45603E-13
 -1       481 2.05307E+01 9.92666E-01 3.22870E-03 1.28602E+00-2.74867E-15 2.82617E-13
 -1       482 2.03503E+01 9.80988E-01 2.68085E-03-9.22804E-01 3.54202E-14-7.58744E-14
 -1       483 2.01855E+01 5.56751E-01 1.92846E-03-4.40924E-01 1.66999E-14-3.85181E-14
 -1       484 2.00474E+01 3.23266E-01 1.07364E-03-1.27693E-01 1.03080E-14 6.64724E-16
 -1       485 1.99566E+01 1.85281E-01 5.24252E-04 7.84740E-02-1.62093E-14 3.78271E-14
 -1       486 1.99170E+01 1.13448E-01 2.41616E-04 2.02321E-01-2.97701E-14 6.70341E-14
 -1       487 1.99136E+01 7.86401E-02 1.63028E-04 2.85468E-01-5.56602E-15 5.53574E-14
 -1       488 1.99373E+01 7.06714E-02 1.59528E-04 3.49132E-01 2.08595E-14 9.10668E-14
 -1       489 1.99812E+01 8.47043E-02 2.13556E-04 4.09709E-01 2.61382E-14 1.57001E-13
 -1       490 2.00399E+01 1.19430E-01 3.21177E-04 4.81023E-01-1.49602E-14 1.53741E-13
 -1       491 2.01090E+01 1.76114E-01 4.88654E-04 5.75801E-01-7.61020E-14 7.06537E-14
 -1       492 2.01864E+01 2.63371E-01 7.76539E-04 7.14970E-01-7.00205E-14 1.16899E-16
 -1       493 2.02564E+01 3.78372E-01 1.09692E-03 9.00039E-01-2.35074E-14 5.53026E-14
 -1       494 2.03109E+01 5.28411E-01 1.52776E-03 1.15121E+00-5.97550E-14 1.30270E-13
 -1       495 2.03315E+01 7.11938E-01 1.97650E-03 1.48362E+00-2.31725E-14 2.91921E-13
 -1       496 2.02964E+01 9.08944E-01 2.35410E-03 1.90968E+00-1.01144E-13 3.08768E-13
 -1       497 2.01914E+01 1.05657E+00 2.80340E-03 2.43495E+00-1.30516E-13 2.31788E-13
 -1       498 2.00454E+01 1.00540E+00 4.69845E-03 3.05291E+00-1.57117E-13 1.50522E-13
 -1       499 2.00131E+01 4.62839E-01 1.12657E-02 3.73029E+00-1.06023E-13-1.33541E-13
 -1       500 2.05796E+01-1.13880E+00 4.06563E-02 4.37915E+00-1.44304E-13-3.01851E-13
 -1       501 2.25644E+01-3.94079E+00 6.59384E-02 4.51668E+00-5.48658E-14-3.44726E-13
 -1       502 3.02018E+01-1.32366E+00-6.76163E-02 7.96357E-01-5.06869E-14 2.30857E-13
 -1       503 2.64911E+01-5.01798E+00 1.64983E-02-2.83554E+00-4.56787E-14-1.53821E-13
 -1       504 2.22343E+01-2.42540E+00 5.23224E-02-4.27311E+00 1.13640E-13-1.99590E-13
 -1       505 2.09014E+01-2.88530E-01 1.71757E-02-3.99318E+00 2.91672E-14-4.08224E-13
 -1       506 2.05411E+01 7.11106E-01 5.76388E-03-3.38880E+00-9.50521E-14-2.43267E-13
 -1       507 2.05212E+01 9.96181E-01 3.02538E-03-2.74051E+00 5.49826E-14-3.23361E-13
 -1       508 2.05589E+01 9.40245E-01 2.82387E-03-2.12009E+00 1.82899E-13-1.98622E-13
 -1       509 2.05609E+01 7.73333E-01 2.63394E-03-1.62197E+00 7.58502E-15 1.29958E-14
 -1       510 2.05202E+01 5.95872E-01 2.16236E-03-1.22067E+00-2.81311E-13-5.91319E-14
 -1       511 2.04538E+01 4.43467E-01 1.65513E-03-9.07908E-01-1.15601E-13 1.98570E-13
 -1       512 2.03776E+01 3.24047E-01 1.21168E-03-6.69400E-01-4.21859E-14 3.32369E-13
 -1       513 2.03029E+01 2.34649E-01 8.68869E-04-4.90070E-01-1.57444E-13 2.95119E-13
 -1       514 2.02355E+01 1.69307E-01 6.02281E-04-3.56323E-01-1.00111E-13 2.84728E-13
 -1       515 2.01759E+01 1.20059E-01 4.30762E-04-2.53081E-01-2.31794E-13 1.40176E-13
 -1       516 2.01299E+01 8.66962E-02 2.97234E-04-1.80977E-01-1.67456E-13-9.89150E-14
 -1       517 2.00934E+01 6.27994E-02 2.11185E-04-1.27728E-01 2.34098E-13-2.47555E-13
 -1       518 2.00652E+01 4.57737E-02 1.51999E-04-8.84147E-02 1.24152E-13-1.14083E-13
 -1       519 2.00438E+01 3.37536E-02 1.16021E-04-5.93552E-02 1.88597E-13 3.56847E-13
 -1       520 2.00275E+01 2.51782E-02 5.36891E-05-3.78651E-02 9.75552E-14 2.86447E-13
 -1       521 2.00175E+01 1.87694E-02 8.85143E-05-2.34402E-02-3.55781E-14-1.01615E-13
 -1       522 1.98912E+01 1.30686E-01 4.58678E-04-1.29215E-01 4.19534E-14 1.99028E-13
 -1       523 1.99589E+01 2.29804E-01 1.04105E-03 2.45805E-02 2.27939E-14 2.03295E-13
 -1       524 2.00819E+01 4.00282E-01 1.17320E-03 2.75606E-01 2.38037E-16 2.20544E-13
 -1       525 1.98682E+01 7.29083E-02 2.14917E-04-2.22724E-01 3.32801E-14 1.91171E-13
 -1       526 1.98785E+01 3.99198E-02 9.93949E-05-2.79147E-01 4.61344E-14 2.14291E-13
 -1       527 1.99130E+01 2.15827E-02 3.91746E-05-3.13329E-01-1.75040E-14 2.12791E-13
 -1       528 1.99654E+01 1.06747E-02 6.07892E-07-3.34181E-01 1.18852E-14 1.70095E-13
 -1       529 2.00319E+01 1.19186E-03-3.69146E-05-3.45926E-01 4.77076E-14 1.41450E-13
 -1       530 2.01099E+01-1.24812E-02-9.05410E-05-3.48652E-01 2.95596E-14 1.73177E-13
 -1       531 2.01982E+01-3.58257E-02-1.75556E-04-3.38523E-01 5.82185E-14 2.77366E-13
 -1       532 2.02956E+01-7.38634E-02-3.03744E-04-3.07951E-01 3.00078E-14 1.90850E-13
 -1       533 2.04001E+01-1.30069E-01-4.78881E-04-2.46108E-01 2.42577E-14 7.51076E-14
 -1       534 2.05073E+01-2.04302E-01-6.89840E-04-1.40341E-01 1.27052E-14 8.26511E-14
 -1       535 2.06091E+01-2.89735E-01-9.01589E-04 2.08277E-02 7.96980E-14-6.96016E-15
 -1       536 2.06914E+01-3.69393E-01-1.04667E-03 2.42383E-01 4.45304E-14 3.12121E-14
 -1       537 2.07330E+01-4.14181E-01-1.03792E-03 5.14947E-01-5.08967E-14 4.14094E-14
 -1       538 2.07084E+01-3.85955E-01-7.95327E-04 8.05717E-01-6.27867E-14-1.31466E-13
 -1       539 2.05955E+01-2.49834E-01-2.44247E-04 1.05279E+00-3.63896E-14-9.74564E-14
 -1       540 2.03918E+01 3.27737E-03 5.09756E-04 1.17117E+00-2.45619E-14 1.08211E-13
 -1       541 2.01313E+01 3.32827E-01 1.21159E-03 1.07905E+00-3.96971E-14 3.02151E-13
 -1       542 1.98878E+01 6.44358E-01 1.65360E-03 7.41918E-01-1.54808E-14 3.44928E-13
 -1       543 1.97500E+01 8.22302E-01 1.84280E-03 2.10550E-01 1.49233E-14 3.63970E-13
 -1       544 1.97754E+01 7.91745E-01 1.86115E-03-3.80318E-01 1.39035E-13 3.78629E-13
 -1       545 1.99537E+01 5.66382E-01 1.63634E-03-8.68044E-01 5.82110E-14 3.64707E-13
 -1       546 2.02137E+01 2.39278E-01 1.08197E-03-1.13840E+00-1.15435E-13 3.19555E-13
 -1       547 2.04670E+01-7.41379E-02 3.19188E-04-1.16721E+00-1.48376E-13 3.83190E-13
 -1       548 2.06503E+01-2.93115E-01-3.80440E-04-1.00777E+00-6.36437E-14 5.20010E-13
 -1       549 2.07417E+01-3.93241E-01-8.54070E-04-7.46975E-01 1.85500E-14 3.73584E-13
 -1       550 2.07517E+01-3.93674E-01-1.03001E-03-4.65015E-01-2.28329E-13 1.02358E-13
 -1       551 2.07049E+01-3.32094E-01-9.75163E-04-2.15553E-01 6.32254E-14 2.32671E-13
 -1       552 2.06263E+01-2.44818E-01-7.91067E-04-2.40185E-02 6.15629E-14 2.28212E-13
 -1       553 2.05354E+01-1.57547E-01-5.61504E-04 1.05087E-01 4.96299E-14 1.98550E-13
 -1       554 2.04446E+01-8.42359E-02-3.44739E-04 1.79289E-01 1.13297E-13-1.08429E-13
 -1       555 2.03606E+01-2.97988E-02-1.68883E-04 2.11065E-01 2.07332E-13-8.86089E-14
 -1       556 2.02867E+01 6.35449E-03-4.23631E-05 2.13394E-01 3.07596E-13-7.37988E-14
 -1       557 2.02238E+01 2.74374E-02 3.86384E-05 1.97488E-01 1.31800E-13 5.87065E-14
 -1       558 2.01714E+01 3.74040E-02 8.32889E-05 1.71973E-01-1.92206E-13 1.15146E-14
 -1       559 2.01288E+01 3.99349E-02 1.01794E-04 1.42897E-01-1.74387E-13-1.28880E-13
 -1       560 2.00947E+01 3.80186E-02 1.03773E-04 1.14118E-01 1.36543E-14-5.03955E-14
 -1       561 2.00679E+01 3.38617E-02 9.92180E-05 8.78043E-02-3.05680E-14-1.48547E-13
 -1       562 2.00471E+01 2.89400E-02 8.65835E-05 6.49688E-02-4.95803E-15 1.96446E-14
 -1       563 2.00312E+01 2.41952E-02 7.44152E-05 4.57783E-02 1.68692E-13 1.99663E-13
 -1       564 2.00189E+01 2.01510E-02 7.10919E-05 2.99899E-02 6.88089E-14 2.34936E-13
 -1       565 1.99939E+01 5.99049E-02-1.06457E-05 3.25389E-02-2.22788E-13 7.07163E-14
 -1       566 2.00017E+01 4.63274E-02 3.52566E-05 3.46213E-02-2.28358E-13-1.07007E-13
 -1       567 2.00091E+01 3.18902E-02 2.32333E-05 3.16574E-02 7.35920E-15-1.81448E-13
 -1       568 6.21599E+00-6.43941E-01 2.20292E-01 3.71740E+00-7.91381E-15 2.70908E-13
 -1       569 1.99869E+01 7.17084E-02-2.41903E-05 2.53838E-02-3.78827E-13 5.46292E-14
 -1       570 1.99820E+01 8.00739E-02-3.27650E-05 1.40790E-02-3.36814E-13-3.75458E-13
 -1       571 1.99801E+01 8.38825E-02-3.62686E-05 2.87571E-04-2.85796E-13 1.62541E-15
 -1       572 1.99816E+01 8.24764E-02-3.24486E-05-1.38536E-02 1.32069E-14 2.00948E-13
 -1       573 1.99864E+01 7.59708E-02-2.20462E-05-2.58065E-02 5.05534E-14-3.65954E-13
 -1       574 1.99940E+01 6.47842E-02-7.44120E-06-3.38396E-02 1.49026E-13-1.01299E-13
 -1       575 2.00031E+01 5.02851E-02-2.45664E-06-3.61265E-02 1.74350E-13 4.04222E-13
 -1       576 2.00114E+01 3.44327E-02 1.27094E-05-3.22254E-02-1.88484E-14 1.93240E-13
 -1       577 2.03944E+01 1.76157E+00-5.25817E-03-1.50934E+00 4.70622E-14-7.40732E-14
 -1       578 1.96996E+01-5.23916E+00 6.06576E-02 7.09758E+00-2.21684E-13 3.72599E-13
 -1       579 2.60744E+01-4.69821E+00-8.12785E-03 4.51668E+00-1.26281E-13 4.00451E-13
 -1       580 1.60860E+01-5.21585E+00 9.60343E-02-6.37021E+00-3.04812E-13-1.19606E-13
 -1       581 2.96458E+01-5.47708E+00-2.46549E-02-1.20153E+00-2.23245E-13-1.96732E-13
 -1       582 2.68847E+01-4.45092E+00-3.38316E-03-3.88087E+00-5.47132E-14 7.89993E-14
 -1       583 4.69240E+00-1.28759E+00 1.79632E-01-1.46952E+00-1.91595E-13-1.36002E-13
 -1       584 1.96847E+01 3.22479E+00-5.07878E-03-3.06563E-01 1.31069E-13 5.20580E-14
 -1       585 7.46489E+00-1.40397E+00 1.92031E-01-5.15020E+00-1.96922E-13 6.62789E-13
 -1       586 3.09726E+01 3.00365E+00-1.44218E-01-1.34901E+00 1.93387E-14 3.39312E-15
 -1       587 3.07468E+01 7.61634E+00-1.78913E-01 8.69735E-01-3.67692E-13-2.34150E-13
 -1       588 3.10583E+01 3.77913E+00-1.47594E-01 1.48918E+00-3.11119E-13 7.82360E-14
 -1       589 3.03696E+01-1.04876E+00-9.39741E-02-5.84231E-01-2.56944E-13 1.07275E-13
 -1       590 1.95633E+01-5.36022E+00 5.27284E-02-7.24036E+00-4.79755E-14 2.87830E-13
 -1       591 1.25532E+01-3.68412E+00 1.32077E-01-7.54937E+00-1.20050E-13 3.47125E-13
 -1       592 5.32780E+00-6.72420E-01 2.05698E-01 1.08842E+00-2.18369E-13 4.73468E-13
 -1       593 9.00745E+00-2.52175E+00 1.49418E-01 5.03390E+00-1.21750E-13 7.48845E-14
 -1       594 1.77461E+01-4.98717E+00 1.09033E-01 6.20716E+00-6.28803E-14-1.59765E-13
 -1       595 2.64141E+01-6.17396E+00-9.38031E-03 3.48921E+00-3.28348E-14-2.33317E-13
 -1       596 3.16293E+01-4.41968E+00 7.06779E-03-4.72018E-01-4.02456E-14 2.22045E-14
 -1       597 7.85333E+00-2.75279E+00 1.46264E-01-4.75035E+00-6.63497E-14-1.64951E-13
 -1       598 2.35768E+01-6.16969E+00 3.15461E-02-4.76797E+00-1.81355E-13 3.69670E-15
 -1       599 1.99869E+01 2.66659E+00-6.74809E-03-1.22709E+00 1.04655E-13-1.31123E-15
 -1       600 2.02694E+01 6.59056E-01 6.27875E-03 7.80487E-01-2.53309E-14 2.51434E-13
 -1       601 2.01704E+01 2.29113E+00-6.09863E-03-1.41910E+00 7.63589E-14-4.04334E-14
 -1       602 1.63543E+01-3.94002E+00 1.10246E-01 7.27346E+00-1.80193E-13 2.53464E-13
 -1       603 2.01483E+01 5.09087E-01 3.56670E-03 4.96325E-01-1.80940E-14 2.49317E-13
 -1       604 2.89894E+01 4.96698E+00-1.58796E-01-1.86890E+00 2.44735E-14-3.76435E-15
 -1       605 7.79600E+00 5.58392E-01 1.76755E-01-1.94057E+00-2.29914E-13 6.62019E-13
 -1       606 3.27120E+01-3.25296E+00-8.29776E-02 2.12309E+00-1.51973E-13-5.01842E-13
 -1       607 1.99582E+01 2.48551E+00-1.60320E-03 3.82418E-01 1.07942E-13 5.99517E-14
 -1       608 1.99249E+01 2.56347E+00-1.51861E-03 1.31828E-01 1.15882E-13 9.53431E-14
 -1       609 2.01234E+01 2.07050E+00-1.78983E-03 8.29166E-01 5.08392E-14 6.72956E-14
 -1       610 2.02469E+01 1.69945E+00-2.00915E-03 9.79488E-01 1.44400E-14 1.37934E-13
 -1       611 2.03684E+01 1.03295E+00 3.47963E-03 9.92001E-01-1.84314E-14 2.16316E-13
 -1       612 2.03032E+01 1.13364E+00-4.02525E-04-7.36493E-01 5.76284E-14-2.02690E-14
 -1       613 2.75513E+01 6.94135E+00-1.84163E-01-2.22403E-01-2.32522E-13-7.13180E-14
 -1       614 2.02549E+01 7.00243E-01 4.24001E-04-3.54703E-01 4.84398E-14 1.51971E-14
 -1       615 2.01842E+01 4.20749E-01 1.93939E-04-7.42621E-02 8.25308E-15 2.90765E-14
 -1       616 2.01257E+01 2.62469E-01 6.78702E-05 1.06412E-01 9.36456E-16 3.67621E-14
 -1       617 2.00832E+01 1.73282E-01 3.69396E-05 2.29912E-01 1.39171E-14 7.37580E-14
 -1       618 2.00557E+01 1.33484E-01 3.45174E-05 3.18801E-01 1.67449E-14 1.42014E-13
 -1       619 2.00389E+01 1.31972E-01 4.73757E-05 3.91417E-01 1.85043E-14 7.57180E-14
 -1       620 2.00268E+01 1.63408E-01 7.26524E-05 4.62639E-01-7.28939E-16 1.54863E-14
 -1       621 2.00115E+01 2.26497E-01 1.01937E-04 5.44893E-01-1.06271E-13 3.37756E-15
 -1       622 1.99799E+01 3.29297E-01 1.97735E-04 6.54989E-01-1.23472E-13-1.73611E-14
 -1       623 1.99184E+01 4.66971E-01 2.63619E-04 7.92728E-01 2.97729E-14 3.97985E-14
 -1       624 1.98037E+01 6.48240E-01 3.76507E-04 9.71397E-01 1.58516E-14 1.15002E-13
 -1       625 1.96030E+01 8.75339E-01 4.92980E-04 1.19901E+00 2.50944E-14 1.16034E-13
 -1       626 1.92723E+01 1.13897E+00 6.01986E-04 1.48330E+00-4.84693E-14 1.35284E-13
 -1       627 1.87583E+01 1.40266E+00 9.68763E-04 1.83530E+00-1.46328E-13 1.86600E-13
 -1       628 1.80092E+01 1.57425E+00 3.37137E-03 2.28087E+00-1.93655E-13 2.20875E-13
 -1       629 1.70014E+01 1.46444E+00 1.42862E-02 2.89310E+00-2.60672E-13 1.32406E-13
 -1       630 1.57789E+01 6.40518E-01 5.04398E-02 3.83474E+00-2.46677E-13 7.77937E-14
 -1       631 2.00154E+01 3.91074E-02 7.19627E-06 4.81192E-02-1.21434E-14-1.34567E-13
 -1       632 2.73582E+01-3.60569E+00-3.98255E-02 1.44218E+00 2.00320E-14 4.19140E-13
 -1       633 1.69353E+01 1.03396E+00 2.35222E-02-3.46011E+00 7.18934E-14-2.75306E-13
 -1       634 1.78792E+01 1.49634E+00 5.71206E-03-2.68551E+00 6.03921E-14 2.59834E-14
 -1       635 1.86929E+01 1.47322E+00 1.49821E-03-2.09558E+00 2.01992E-13-2.21817E-14
 -1       636 1.92487E+01 1.25714E+00 9.58192E-04-1.65622E+00 1.50934E-13-1.77118E-14
 -1       637 1.96143E+01 1.00201E+00 7.58654E-04-1.29832E+00-1.87119E-13 1.71770E-13
 -1       638 1.98383E+01 7.68412E-01 6.02979E-04-1.00676E+00-2.75764E-14 2.16952E-13
 -1       639 1.99655E+01 5.76319E-01 4.49708E-04-7.72062E-01 2.78383E-14 2.71369E-13
 -1       640 2.00310E+01 4.26847E-01 3.29081E-04-5.85933E-01-2.33449E-13 1.73713E-13
 -1       641 2.00591E+01 3.14001E-01 2.24286E-04-4.40157E-01-1.46159E-13 1.03896E-13
 -1       642 2.00662E+01 2.26660E-01 1.57360E-04-3.22644E-01-9.93883E-14 2.87593E-14
 -1       643 2.00621E+01 1.66036E-01 1.11010E-04-2.37475E-01-2.61237E-13 2.59950E-13
 -1       644 2.00533E+01 1.21639E-01 7.81718E-05-1.72574E-01-2.07122E-13 2.67079E-13
 -1       645 2.00429E+01 8.93110E-02 5.55717E-05-1.23454E-01 4.18381E-13 1.50447E-13
 -1       646 2.00328E+01 6.58148E-02 3.50305E-05-8.64570E-02 3.44915E-13 2.63413E-13
 -1       647 2.00234E+01 4.89179E-02 2.29115E-05-5.85278E-02 5.68068E-15-6.16125E-14
 -1       648 2.01315E+01 3.20405E-01 2.03145E-04-3.28587E-03 6.04643E-14 8.08624E-14
 -1       649 2.00785E+01 1.90453E-01 8.48391E-05-1.52083E-01 2.52053E-14 7.98476E-14
 -1       650 2.02039E+01 5.30482E-01 4.18964E-04 2.23839E-01 2.92828E-14 1.03054E-13
 -1       651 2.00347E+01 6.60837E-02 1.49907E-05-3.11013E-01 1.75192E-14 9.36324E-14
 -1       652 2.00396E+01 3.94240E-02 2.98214E-06-3.52737E-01 4.60441E-14-7.55687E-15
 -1       653 2.00602E+01 2.14395E-02-6.40781E-06-3.81670E-01 2.38391E-14 1.05713E-14
 -1       654 2.00965E+01 2.67811E-03-1.86187E-05-4.01381E-01-1.40446E-14 5.70837E-14
 -1       655 2.01503E+01-2.59978E-02-3.92741E-05-4.11147E-01-4.38386E-14 6.54021E-15
 -1       656 2.02249E+01-7.34630E-02-7.42539E-05-4.05932E-01 4.75612E-14 3.83184E-14
 -1       657 2.03247E+01-1.47441E-01-1.28523E-04-3.76330E-01 1.23447E-13 5.04389E-14
 -1       658 2.04540E+01-2.52275E-01-2.03965E-04-3.08876E-01 4.93281E-14 4.18255E-14
 -1       659 2.06146E+01-3.84999E-01-2.94560E-04-1.87341E-01 4.61786E-14 8.23048E-14
 -1       660 2.08014E+01-5.29728E-01-3.79470E-04 3.93000E-03 8.64569E-14 2.82512E-14
 -1       661 2.09978E+01-6.51665E-01-4.06097E-04 2.73214E-01 7.07245E-15 9.54402E-14
 -1       662 2.11704E+01-6.94582E-01-3.40541E-04 6.09909E-01 3.10182E-14 8.96158E-14
 -1       663 2.12712E+01-5.89103E-01-1.88612E-04 9.69315E-01-5.13840E-14 1.38638E-13
 -1       664 2.12521E+01-2.80546E-01 2.14118E-04 1.26147E+00-1.32129E-13 1.37709E-13
 -1       665 2.10962E+01 2.23803E-01 6.00301E-04 1.36048E+00-1.12817E-13 1.18533E-13
 -1       666 2.08527E+01 8.10739E-01 5.77625E-04 1.15378E+00-1.90122E-16 4.29447E-14
 -1       667 2.06354E+01 1.27712E+00 3.24991E-04 6.20910E-01 2.89308E-14-4.14771E-14
 -1       668 2.05668E+01 1.42013E+00 4.34890E-04-1.11510E-01 5.48514E-15-5.14882E-14
 -1       669 2.06886E+01 1.17217E+00 7.63077E-04-8.08651E-01-2.79436E-14 1.72507E-13
 -1       670 2.09284E+01 6.50530E-01 8.52152E-04-1.25640E+00-1.98030E-14 3.71878E-13
 -1       671 2.11578E+01 7.15670E-02 5.33997E-04-1.37109E+00-1.64888E-13 3.45424E-13
 -1       672 2.12777E+01-3.79441E-01 1.39876E-04-1.20805E+00-8.10328E-14 2.81103E-13
 -1       673 2.12607E+01-6.22862E-01-2.39740E-04-8.91541E-01 6.09884E-15 2.07472E-13
 -1       674 2.11368E+01-6.74470E-01-4.05755E-04-5.40199E-01 4.94485E-14 3.31296E-13
 -1       675 2.09564E+01-5.97275E-01-4.12647E-04-2.30761E-01-1.25570E-13 1.01143E-13
 -1       676 2.07642E+01-4.58638E-01-3.45661E-04 3.25705E-03-4.08014E-14 3.28585E-13
 -1       677 2.05883E+01-3.08918E-01-2.48379E-04 1.57919E-01 3.50707E-14 4.94401E-13
 -1       678 2.04415E+01-1.77271E-01-1.57185E-04 2.44552E-01 2.77686E-13 3.84306E-13
 -1       679 2.03259E+01-7.57620E-02-8.26164E-05 2.79732E-01 2.29130E-13 1.71245E-13
 -1       680 2.02384E+01-5.60296E-03-2.90389E-05 2.79766E-01 1.48665E-13 1.63009E-13
 -1       681 2.01737E+01 3.75533E-02 5.40537E-06 2.58273E-01 8.41753E-14 2.37777E-13
 -1       682 2.01264E+01 6.00372E-02 2.50411E-05 2.25533E-01 1.19664E-13 3.58574E-13
 -1       683 2.00921E+01 6.81333E-02 3.38171E-05 1.88690E-01 1.12855E-15 8.13305E-14
 -1       684 2.00671E+01 6.71471E-02 3.45190E-05 1.52320E-01-3.66697E-14-3.97929E-13
 -1       685 2.00487E+01 6.11454E-02 3.46312E-05 1.19057E-01-1.77561E-13-2.06934E-13
 -1       686 2.00351E+01 5.29870E-02 5.25362E-05 9.01586E-02 1.69978E-14-2.40140E-13
 -1       687 2.00239E+01 4.59621E-02 5.25905E-05 6.71322E-02-5.66505E-15-3.52522E-13
 -1       688 1.99725E+01 9.31481E-02-9.61417E-06 2.85756E-02-2.96093E-13-6.54666E-14
 -1       689 1.99827E+01 8.01686E-02-9.74455E-06 4.12526E-02-2.81465E-13-1.66579E-13
 -1       690 2.00468E+01 1.11985E-01 3.69661E-05-2.48458E-01 2.58351E-14 8.06437E-14
 -1       691 1.99656E+01 1.03943E-01-1.77672E-05-7.84392E-03 3.25658E-13 2.29872E-13
 -1       692 1.99706E+01 1.00026E-01-1.53318E-05-2.61701E-02 1.35360E-13 2.00792E-14
 -1       693 1.99811E+01 8.96664E-02-6.72228E-06-4.12127E-02 5.72025E-14-3.69462E-13
 -1       694 1.99953E+01 7.39169E-02 1.19845E-05-4.99264E-02 1.42840E-13 3.66539E-14
 -1       695 2.02785E+01 1.64017E+00 6.95080E-04-1.06779E+00 5.57042E-14-3.11583E-14
 -1       696 1.61250E+01-1.79841E+00 1.20849E-01 5.33548E+00-1.86486E-13-4.85965E-14
 -1       697 1.18421E+01-1.32195E+00 1.34382E-01 5.91333E+00 8.66321E-14 1.25955E-13
 -1       698 1.99664E+01 1.01465E-01-1.45372E-05 1.14515E-02 1.18741E-13-1.63199E-13
 -1       699 1.99951E+01 6.44640E-02-6.73837E-06 4.79174E-02-1.51899E-13-2.75388E-13
 -1       700 1.60907E+01-4.07855E-01 8.37348E-02-4.59217E+00 4.39128E-14-3.34559E-13
 -1       701 8.32277E+00 1.00016E+00 1.51403E-01 1.04795E-01 2.49853E-13-4.89955E-14
 -1       702 2.00248E+01 2.32568E+00-1.70307E-03 6.20146E-01 9.82742E-14 7.97503E-14
 -1       703 2.37414E+01-4.93408E+00 1.46286E-02 4.78374E+00-3.13603E-14 7.06137E-13
 -1       704 2.87134E+01-5.20074E-02-9.31067E-02-1.24745E+00 2.03570E-13 2.57034E-13
 -1       705 1.47168E+01-2.18833E+00 1.42802E-01-5.50576E+00 1.35954E-13-2.32182E-13
 -1       706 1.79191E+01-4.05374E+00 8.19198E-02-6.83573E+00-4.21121E-14 2.92776E-13
 -1       707 2.77476E+01-3.18271E+00-3.96911E-02-8.59052E-01-7.57983E-14-2.07959E-14
 -1       708 9.92316E+00 6.09538E-02 1.43559E-01 3.26406E+00-2.08202E-13 1.79252E-13
 -1       709 2.72789E+01 4.76281E+00-1.28508E-01 1.95919E+00-3.75394E-13-9.48738E-14
 -1       710 2.37520E+01-5.02712E+00 1.80646E-02-4.85685E+00-6.71720E-14 1.65442E-13
 -1       711 2.85589E+01 2.40681E-01-9.98438E-02 1.48914E+00-2.48822E-13 3.82576E-14
 -1       712 1.23030E+01-1.55274E+00 1.22336E-01-6.00823E+00-8.49668E-14 2.68931E-13
 -1       713 9.70324E+00-1.34807E-01 1.58888E-01-3.40216E+00 1.00382E-13-2.91107E-13
 -1       714 2.00217E+01 2.33686E+00-1.62890E-03-6.11147E-01 1.16160E-13 2.79913E-14
 -1       715 1.83285E+01-3.43726E+00 9.31928E-02-5.55450E+00 1.37480E-13-3.66977E-13
 -1       716 1.99244E+01 2.56546E+00-1.51477E-03-1.22153E-01 1.21749E-13 3.87884E-14
 -1       717 2.63492E+01 5.43131E+00-1.24722E-01-1.34411E+00-2.83905E-14 1.28429E-13
 -1       718 1.06538E+01 7.66334E-01 1.00912E-01 3.12640E+00 1.70965E-13 1.07209E-13
 -1       719 2.02840E+01 8.74262E-01 1.77446E-03 5.55459E-01-9.78926E-16 1.31543E-13
 -1       720 2.07996E+01-4.29056E+00 5.22343E-02 5.72903E+00-4.85011E-14 6.76396E-13
 -1       721 2.00109E+01 5.46841E-02 9.56549E-05-5.07755E-02 1.27367E-13 2.52431E-13
 -1       722 2.75846E+01 2.15776E+00-9.48555E-02-2.03395E+00 1.64764E-13 1.36280E-14
 -1       723 1.99565E+01 2.49196E+00-1.56923E-03-3.72204E-01 1.18586E-13 6.43402E-14
 -1       724 9.93661E+00 1.30583E+00 1.17057E-01 6.05771E-01-2.38911E-13 5.36571E-13
 -1       725 1.08731E+01 3.90136E-01 1.11010E-01-3.70144E+00-6.82267E-14 6.01220E-13
 -1       726 2.01238E+01 2.08291E+00-6.65727E-04-8.21932E-01 8.95048E-14 2.57674E-14
 -1       727 2.02705E+01 1.33693E+00-5.01099E-04 6.01355E-01 1.31039E-14 6.12061E-14
 -1       728 2.52098E+01-4.00948E+00 4.06719E-03-2.34658E+00-8.30373E-14-1.79362E-14
 -1       729 2.01981E+01 1.88978E+00-6.89640E-07-9.62424E-01 6.48203E-14 1.49102E-14
 -1       730 2.02904E+01 1.19469E+00-4.69148E-04-5.34130E-01 8.36530E-14 4.73708E-14
 -1       731 2.02956E+01 7.59575E-01-3.40505E-06-2.31460E-01 4.35509E-14 6.92330E-14
 -1       732 2.02655E+01 4.88621E-01-1.21431E-06-1.86485E-02 2.29021E-14 7.96330E-14
 -1       733 2.02206E+01 3.20252E-01-1.49087E-05 1.33571E-01 3.67273E-14 1.09593E-13
 -1       734 2.01706E+01 2.27298E-01-9.79441E-06 2.42419E-01 3.08968E-14 7.68085E-14
 -1       735 2.01176E+01 1.91978E-01-2.82770E-06 3.24180E-01-3.50329E-14 8.75667E-14
 -1       736 2.00589E+01 2.03604E-01 2.25737E-06 3.92686E-01-1.38840E-14 1.16578E-13
 -1       737 1.99879E+01 2.56650E-01-7.24725E-06 4.58955E-01-5.13273E-14 7.11661E-14
 -1       738 1.98878E+01 3.55659E-01 2.98885E-05 5.34904E-01-8.66030E-14 1.16196E-13
 -1       739 1.97503E+01 4.93248E-01 1.92004E-05 6.18877E-01-1.62156E-14 1.25365E-13
 -1       740 1.95475E+01 6.76103E-01 2.14914E-05 7.16466E-01-1.13867E-14 6.74067E-14
 -1       741 1.92441E+01 9.06869E-01-1.76708E-06 8.26411E-01-2.62346E-14-5.02265E-14
 -1       742 1.87913E+01 1.18228E+00-9.06651E-05 9.44295E-01-1.59266E-14-3.78723E-15
 -1       743 1.81217E+01 1.48497E+00-1.91307E-04 1.06502E+00-8.08817E-14 2.03121E-14
 -1       744 1.71432E+01 1.77003E+00 6.73559E-04 1.19148E+00-1.50548E-13 4.34863E-14
 -1       745 1.57297E+01 1.94348E+00 6.57194E-03 1.35916E+00-1.76230E-13 1.45671E-13
 -1       746 1.35868E+01 1.86776E+00 4.68507E-02 1.70183E+00-2.97237E-13 2.14525E-13
 -1       747 1.31258E+01 1.32176E+00 7.54948E-02-2.69849E+00 2.91427E-13-1.42379E-13
 -1       748 2.64961E+01-1.84484E+00-2.65906E-02-6.85899E-01-9.80635E-14-1.47125E-13
 -1       749 2.02927E+01 9.63943E-01 9.56861E-04 4.08834E-01 5.44203E-14 9.84038E-14
 -1       750 1.66527E+01 1.89371E+00 3.83140E-03-1.42404E+00 1.63694E-14-1.23339E-13
 -1       751 1.77897E+01 1.66315E+00 2.85595E-04-1.21151E+00 1.32373E-13-1.95114E-13
 -1       752 1.85700E+01 1.37101E+00 2.91851E-06-1.03070E+00 2.05132E-13-1.64675E-14
 -1       753 1.90955E+01 1.08654E+00 5.15112E-05-8.63261E-01 1.02184E-14 1.68530E-13
 -1       754 1.94421E+01 8.39929E-01 7.22879E-05-7.08484E-01-4.86468E-14 1.01141E-13
 -1       755 1.96659E+01 6.39149E-01 7.34466E-05-5.69973E-01-1.96340E-13-6.71543E-14
 -1       756 1.98074E+01 4.81501E-01 5.47550E-05-4.50052E-01-2.21284E-13 2.06725E-14
 -1       757 1.98980E+01 3.55321E-01 2.89408E-05-3.45110E-01-1.15838E-13 1.39608E-13
 -1       758 1.99492E+01 2.65051E-01 3.01923E-05-2.63801E-01-6.72876E-14 1.71271E-13
 -1       759 1.99790E+01 1.97179E-01 1.91438E-05-1.98450E-01-9.35719E-14 4.91073E-13
 -1       760 1.99953E+01 1.46487E-01 1.53110E-05-1.46864E-01-1.84768E-14 8.98210E-13
 -1       761 2.00035E+01 1.08922E-01 2.11461E-05-1.06858E-01 2.94291E-13 4.06009E-13
 -1       762 2.00067E+01 8.10680E-02 1.60949E-05-7.59444E-02 6.93236E-14 2.73155E-13
 -1       763 1.99593E+01 1.21019E-01-8.97467E-06-4.44541E-02-1.25313E-14-4.07483E-13
 -1       764 1.99515E+01 1.20345E-01-5.62583E-06 2.91313E-02-3.33817E-13 2.61447E-13
 -1       765 2.02340E+01 3.80511E-01 5.81973E-05-4.29220E-02 8.25803E-14 3.80940E-14
 -1       766 2.02761E+01 6.04162E-01-3.59887E-04 1.46129E-01 4.95719E-14 4.70414E-14
 -1       767 2.01050E+01 6.05439E-02-1.13558E-06-3.71857E-01-1.91749E-15 4.81988E-14
 -1       768 2.01233E+01 9.23917E-02 1.56322E-07-3.24902E-01 2.32683E-14-2.97309E-14
 -1       769 2.01150E+01 6.72451E-03-4.15052E-06-4.42014E-01 2.14517E-14 9.61587E-14
 -1       770 2.01544E+01-4.08944E-02-9.14527E-06-4.67133E-01 1.63297E-14 4.21114E-14
 -1       771 2.02281E+01-1.19110E-01-2.19181E-05-4.79623E-01 3.09121E-14 2.33137E-14
 -1       772 2.03478E+01-2.38547E-01-4.77234E-05-4.68596E-01 1.53808E-14 1.09680E-13
 -1       773 2.05253E+01-4.04267E-01-8.84561E-05-4.17323E-01 8.08667E-15 1.31971E-13
 -1       774 2.07695E+01-6.09407E-01-1.42495E-04-3.03454E-01 1.27402E-13 1.13363E-13
 -1       775 2.10782E+01-8.25784E-01-1.89415E-04-1.01844E-01 2.45113E-14 1.43450E-13
 -1       776 2.14288E+01-9.93617E-01-1.42721E-04 2.06924E-01-7.85888E-14 2.10806E-13
 -1       777 2.17666E+01-1.01673E+00-8.27245E-05 6.18483E-01-4.04496E-14 2.26200E-13
 -1       778 2.20057E+01-7.78759E-01-4.10101E-04 1.07524E+00-3.05299E-14 1.41122E-13
 -1       779 2.20578E+01-1.99927E-01-5.60477E-04 1.44111E+00-1.06582E-13 7.07477E-14
 -1       780 2.18954E+01 6.69648E-01-8.33296E-04 1.51256E+00-6.08694E-14 9.25659E-15
 -1       781 2.16108E+01 1.57837E+00-1.26163E-03 1.13689E+00-5.67822E-14 2.77096E-14
 -1       782 2.14117E+01 2.12301E+00-1.25423E-03 3.36835E-01 4.02970E-14 1.04132E-13
 -1       783 2.14503E+01 2.02576E+00-5.55178E-04-6.03027E-01-1.29100E-13 8.49193E-14
 -1       784 2.16960E+01 1.34078E+00-4.09728E-05-1.30212E+00-1.77771E-13 1.64487E-13
 -1       785 2.19610E+01 4.12650E-01 6.83328E-06-1.54548E+00-1.91815E-13 3.56040E-13
 -1       786 2.20660E+01-3.86424E-01 8.60175E-05-1.37044E+00-1.15318E-13 3.68009E-13
 -1       787 2.19527E+01-8.60392E-01-2.49394E-04-9.66273E-01-6.96790E-14 3.90597E-13
 -1       788 2.16748E+01-1.00643E+00-2.97096E-04-5.20356E-01-1.85905E-13 5.51679E-13
 -1       789 2.13252E+01-9.23931E-01-2.31522E-04-1.45128E-01 3.11894E-14 5.96990E-13
 -1       790 2.09813E+01-7.27009E-01-1.77244E-04 1.20297E-01-1.73714E-13 4.83887E-13
 -1       791 2.06875E+01-5.01683E-01-1.11587E-04 2.80514E-01-1.75280E-14 4.06324E-13
 -1       792 2.04592E+01-2.98168E-01-6.83727E-05 3.57908E-01 3.53808E-13 8.11020E-14
 -1       793 2.02941E+01-1.38066E-01-3.32794E-05 3.77588E-01 2.84059E-13-1.06204E-14
 -1       794 2.01814E+01-2.50309E-02-1.03786E-05 3.60978E-01 1.96197E-13 1.09571E-13
 -1       795 2.01084E+01 4.65224E-02 2.16275E-06 3.24188E-01 6.02067E-14-1.92284E-14
 -1       796 2.00633E+01 8.56822E-02 8.28874E-06 2.78395E-01-2.99804E-14-1.06351E-13
 -1       797 2.00367E+01 1.01792E-01 1.11492E-05 2.30826E-01 6.72217E-14-5.66997E-14
 -1       798 2.00218E+01 1.02904E-01 1.00605E-05 1.85797E-01 1.21891E-13 2.09710E-13
 -1       799 2.00139E+01 9.52538E-02 5.57737E-06 1.45628E-01-1.76254E-13-5.46897E-14
 -1       800 2.00098E+01 8.34892E-02 2.50340E-05 1.11401E-01-1.16010E-13-2.50343E-13
 -1       801 1.99643E+01 1.06004E-01-1.76859E-05 4.85906E-02-3.52305E-13 1.65451E-14
 -1       802 1.99781E+01 1.05125E-01-1.89775E-05-6.23197E-02 1.84757E-13 2.02598E-13
 -1       803 1.99482E+01 1.28825E-01-1.58290E-05-2.10715E-02 2.23131E-13 4.83549E-14
 -1       804 1.65696E+01-2.30091E+00 5.96460E-02-5.80695E+00-8.65939E-14 2.25825E-13
 -1       805 2.63304E+01 1.83816E+00-6.10806E-02 2.16635E+00-3.56963E-13-5.86718E-14
 -1       806 2.66818E+01-1.55350E+00-4.34211E-02 8.93784E-01-6.72457E-14 2.58855E-14
 -1       807 2.01008E+01 3.62700E-02-2.62950E-06-4.09893E-01-4.99774E-14 1.16675E-13
 -1       808 1.99818E+01 8.76760E-02 5.44880E-07 6.09932E-02-8.09283E-14-2.08014E-13
 -1       809 1.65888E+01-2.43710E+00 7.02266E-02 5.97602E+00-1.59230E-14 3.61459E-13
 -1       810 1.50186E+01 1.92037E+00 1.73895E-02-1.73941E+00 1.45423E-13 2.63518E-14
 -1       811 2.01281E+01 1.94101E+00-3.40558E-04 1.88034E-01 8.30670E-14 6.98887E-14
 -1       812 2.65082E+01 6.25787E+00-1.27091E-01 5.02741E-01-3.42205E-13 2.25125E-13
 -1       813 2.50081E+01-4.10165E+00-9.80465E-03 2.52811E+00-1.95437E-13 2.59597E-13
 -1       814 2.13342E+01-4.03000E+00 3.18653E-02-5.03500E+00-1.70645E-14 1.62673E-13
 -1       815 2.00026E+01 6.73269E-02-8.49035E-06 6.84902E-02 8.14093E-15-2.51653E-13
 -1       816 1.99455E+01 1.28456E-01-2.15387E-05 4.85924E-03 2.13727E-13 2.30114E-13
 -1       817 2.47231E+01 4.37760E+00-6.34881E-02 1.33741E+00-1.24971E-13 2.76691E-13
 -1       818 2.54884E+01 5.49476E+00-9.25491E-02-7.18823E-01-1.55251E-13 5.90081E-13
 -1       819 2.38894E+01 4.48858E+00-4.38123E-02 3.01151E-01-5.19845E-14 2.33009E-13
 -1       820 2.59338E+01-2.95016E-01-4.18556E-02-1.71229E+00 2.80245E-15-3.60083E-13
 -1       821 2.02153E+01 1.62203E+00-7.47818E-04 5.06290E-01 5.81252E-14 1.91182E-14
 -1       822 1.37841E+01-3.05001E-01 6.18661E-02 4.59978E+00 3.36614E-14 2.47065E-13
 -1       823 2.01528E+01 1.45301E-01 2.08340E-06-2.62162E-01 6.36866E-14-4.60459E-14
 -1       824 2.00048E+01 7.54631E-02-1.62345E-04 8.80260E-02 4.85562E-14-1.70721E-13
 -1       825 2.30269E+01-3.95551E+00 2.09420E-02 3.71804E+00-2.71057E-13 2.59910E-13
 -1       826 1.41917E+01-4.73158E-01 6.37842E-02-4.64597E+00 6.35256E-15 2.97427E-13
 -1       827 2.01909E+01 2.34777E-01 2.99163E-06-1.72948E-01 4.42742E-14-2.78531E-15
 -1       828 2.54484E+01-2.93471E+00-6.20240E-04-4.56535E-01-7.41218E-14-6.74304E-14
 -1       829 2.57184E+01 3.36970E+00-6.19380E-02-2.01922E+00 1.18950E-14 1.03804E-13
 -1       830 1.11988E+01 1.43970E+00 6.56224E-02-1.31979E+00-1.36713E-13 5.72719E-13
 -1       831 1.22278E+01 1.85494E+00 5.26767E-02 2.62815E-02 2.58311E-13 1.04547E-13
 -1       832 2.01146E+01 1.98185E+00-4.96334E-04 3.67219E-03 1.02233E-13 7.41625E-14
 -1       833 2.01634E+01 1.82230E+00-5.36663E-04 3.60018E-01 8.68507E-14 7.19194E-14
 -1       834 2.02155E+01 1.63439E+00-6.38422E-04-5.00534E-01 1.00274E-13 5.15488E-14
 -1       835 2.01624E+01 1.83213E+00-3.63833E-04-3.53821E-01 1.09004E-13 3.39648E-14
 -1       836 2.40860E+01 2.20256E+00-2.70694E-02 1.87087E+00-1.67560E-13 2.61328E-13
 -1       837 2.30703E+01-3.63962E+00 1.02413E-03-3.06690E+00 4.75275E-14-2.84810E-15
 -1       838 2.02952E+01 1.18600E+00 1.36462E-04-3.41819E-01 6.98742E-14 5.51374E-14
 -1       839 1.65703E+01 1.80373E+00 1.13912E-03-2.31381E-01-4.31283E-15 6.48640E-14
 -1       840 2.03250E+01 7.90805E-01 8.24050E-05-1.32885E-01 3.05907E-14 7.68726E-14
 -1       841 2.03097E+01 5.24420E-01-2.73360E-05 2.64591E-02 5.73356E-14 6.67686E-14
 -1       842 2.02658E+01 3.59199E-01-1.05214E-05 1.43752E-01 4.48269E-15 5.39595E-14
 -1       843 2.02022E+01 2.71878E-01-4.08731E-06 2.28922E-01 1.47891E-14 8.53404E-14
 -1       844 2.01218E+01 2.46692E-01-1.28275E-06 2.92779E-01 1.01432E-14 8.09794E-14
 -1       845 2.00222E+01 2.73117E-01-1.67710E-05 3.43922E-01-4.25003E-14 8.72016E-14
 -1       846 1.98884E+01 3.50051E-01 4.60260E-06 3.89711E-01-3.87885E-14 1.18618E-13
 -1       847 1.97193E+01 4.67498E-01-1.14088E-05 4.27611E-01-6.36727E-14 1.42360E-13
 -1       848 1.94899E+01 6.26995E-01-1.98765E-05 4.57228E-01-4.15833E-14 9.48320E-14
 -1       849 1.91714E+01 8.27994E-01-4.43754E-05 4.70169E-01-2.99252E-14 1.43851E-13
 -1       850 1.87241E+01 1.06660E+00-1.22800E-04 4.51584E-01 2.77825E-15 1.69306E-13
 -1       851 1.80926E+01 1.33089E+00-2.77943E-04 3.79559E-01 2.48910E-14 1.62902E-13
 -1       852 1.71983E+01 1.59391E+00-1.96870E-04 2.25943E-01-1.45383E-13 2.15426E-13
 -1       853 1.59247E+01 1.80605E+00 2.66432E-03-3.82778E-02-1.29222E-13 2.58690E-13
 -1       854 1.39671E+01 1.88819E+00 2.28180E-02-4.50881E-01-1.53868E-13 2.61543E-13
 -1       855 2.02903E+01 1.22307E+00 3.47951E-04 3.70144E-01 5.06551E-14-1.78430E-15
 -1       856 1.94871E+01-2.56872E+00 1.93353E-02-4.58460E+00-2.64979E-14 2.50563E-14
 -1       857 1.76504E+01 1.55610E+00-1.74322E-04-3.77617E-01 1.36942E-13 4.44353E-14
 -1       858 1.84022E+01 1.28669E+00-1.41610E-04-4.38803E-01 1.84424E-13-1.07162E-13
 -1       859 1.89233E+01 1.03364E+00-6.81722E-05-4.41475E-01-1.32164E-13-2.59961E-14
 -1       860 1.92822E+01 8.13973E-01-2.24380E-05-4.08388E-01-1.92628E-13-4.33133E-14
 -1       861 1.95272E+01 6.31997E-01-7.94284E-06-3.56982E-01-5.63125E-14 4.93295E-14
 -1       862 1.96993E+01 4.79534E-01-2.62644E-05-2.96805E-01-2.30320E-13 2.04329E-13
 -1       863 1.98079E+01 3.66031E-01-1.62308E-06-2.41082E-01 8.62707E-14 2.19653E-13
 -1       864 1.98800E+01 2.77763E-01-5.88649E-06-1.90628E-01-8.57512E-15 3.28651E-13
 -1       865 1.99273E+01 2.09836E-01-7.97861E-06-1.47264E-01-3.21245E-14 1.10191E-13
 -1       866 1.99577E+01 1.58149E-01-2.08349E-05-1.11501E-01 7.04093E-15-2.85928E-14
 -1       867 1.99691E+01 1.29036E-01-1.72189E-06-8.41607E-02 1.48316E-13 1.73028E-13
 -1       868 1.99416E+01 1.49392E-01-9.13193E-06-6.05849E-02 4.23925E-13 8.84516E-14
 -1       869 2.01567E+01 1.19138E-01-6.92577E-08-3.22549E-01-3.78876E-14 7.09337E-14
 -1       870 2.01161E+01-4.79302E-02 4.50706E-06-5.30221E-01-1.64644E-14 5.78245E-14
 -1       871 2.00868E+01 1.95473E-02 2.61859E-06-4.77455E-01 2.57713E-14 1.38484E-14
 -1       872 2.03431E+01-3.31644E-01-3.01963E-05-6.10378E-01 8.52767E-14 4.38472E-14
 -1       873 2.05834E+01-5.69397E-01-7.31347E-05-6.04654E-01 4.87781E-14-3.67725E-14
 -1       874 2.09350E+01-8.63686E-01-1.30100E-04-5.28695E-01-7.09377E-15 1.63684E-13
 -1       875 2.14024E+01-1.17210E+00-1.64645E-04-3.39233E-01-1.00084E-13 1.59553E-13
 -1       876 2.19577E+01-1.40184E+00 3.25343E-05 7.58013E-03 1.14986E-14 9.59522E-14
 -1       877 2.25178E+01-1.39468E+00 1.25900E-04 5.26029E-01 6.99798E-16 6.73338E-14
 -1       878 2.29360E+01-9.52287E-01-8.62364E-04 1.15050E+00-1.17771E-13 6.93571E-14
 -1       879 2.30478E+01 6.36757E-02-4.20200E-03 1.65399E+00-1.07826E-13 1.52654E-13
 -1       880 2.24526E+01 2.69034E+00-8.32206E-03 1.00133E+00-1.42336E-13 2.04017E-13
 -1       881 2.23504E+01 3.08913E+00-8.51434E-03-1.76920E-01-1.34580E-13 2.90806E-13
 -1       882 2.25575E+01 2.41253E+00-1.15340E-02-1.26322E+00-2.07294E-13 3.81313E-13
 -1       883 2.29131E+01 1.04197E+00-6.44630E-03-1.72516E+00-2.91409E-13 4.57066E-13
 -1       884 2.30431E+01-2.81094E-01-2.29775E-03-1.53564E+00-1.91749E-13 4.71254E-13
 -1       885 2.28299E+01-1.11309E+00-1.61884E-03-9.82922E-01-1.33653E-13 4.47266E-13
 -1       886 2.23542E+01-1.40340E+00-8.27142E-04-3.85579E-01-1.63422E-13 4.78048E-13
 -1       887 2.17810E+01-1.31565E+00-1.99228E-04 7.86493E-02-1.13414E-13 3.67655E-13
 -1       888 2.12402E+01-1.04227E+00-1.06991E-04 3.67531E-01-1.08789E-13 5.93367E-13
 -1       889 2.07976E+01-7.21698E-01-4.06223E-05 5.08430E-01 3.68378E-14 3.21848E-13
 -1       890 2.04698E+01-4.31491E-01-4.17681E-05 5.47023E-01 1.93219E-13 1.89868E-13
 -1       891 2.02457E+01-2.03263E-01-2.14114E-05 5.24245E-01 4.05232E-13 3.02451E-13
 -1       892 2.01038E+01-4.17863E-02-3.69037E-06 4.69699E-01 2.85187E-13 1.92224E-13
 -1       893 2.00214E+01 6.11443E-02 3.19677E-06 4.02461E-01 2.00817E-13-9.13051E-16
 -1       894 1.99791E+01 1.18379E-01 4.97310E-06 3.33825E-01 6.49271E-14-6.58684E-14
 -1       895 1.99621E+01 1.42949E-01 4.79988E-06 2.69885E-01-3.14467E-14-6.21501E-14
 -1       896 1.99595E+01 1.46046E-01 4.50219E-06 2.13476E-01-2.65086E-14-1.28780E-13
 -1       897 1.99644E+01 1.36322E-01-3.21985E-07 1.65538E-01-5.61413E-14-1.58830E-13
 -1       898 1.99723E+01 1.20101E-01-3.83048E-06 1.25937E-01-1.33207E-14-2.26666E-13
 -1       899 1.99375E+01 1.38377E-01 5.32400E-06 5.41724E-02-1.49671E-13 2.41359E-13
 -1       900 1.99250E+01 1.59335E-01-2.31227E-06-2.99909E-02 1.10122E-13-1.27549E-13
 -1       901 2.01948E+01-1.60191E-01-6.70645E-06-5.78526E-01 1.91561E-15 1.74357E-13
 -1       902 2.01264E+01 1.94617E+00-5.13531E-04-1.80241E-01 1.02165E-13 4.74588E-14
 -1       903 1.98458E+01-2.93645E+00 3.00260E-02 4.81425E+00-1.38139E-13 4.38997E-13
 -1       904 2.49187E+01 3.94354E+00-5.78895E-02-1.55767E+00-1.05083E-13 2.97980E-13
 -1       905 2.50368E+01-4.88805E-02-1.47491E-02 1.75077E+00-1.44173E-13-5.76401E-14
 -1       906 1.50171E+01 1.96987E+00 5.49358E-03 1.01896E-03-4.53547E-14 1.39084E-14
 -1       907 2.48411E+01-2.91134E+00-8.51463E-03 6.81584E-01-3.22421E-13-7.60039E-14
 -1       908 1.99601E+01 1.16816E-01 6.41120E-05 7.42318E-02-6.93532E-14-3.89965E-13
 -1       909 2.02528E+01 1.47832E+00 1.93727E-04 6.10176E-02 9.90158E-14 3.59752E-14
 -1       910 2.02664E+01 1.40543E+00 6.44095E-05 1.75352E-01 5.75226E-14 7.60785E-14
 -1       911 1.69508E+01-1.26127E+00 2.92574E-02 4.65461E+00-8.47915E-14 2.38816E-13
 -1       912 1.72450E+01-1.15332E+00 2.83358E-02-4.34653E+00 3.16804E-14 2.34261E-13
 -1       913 2.02030E+01 1.71924E-01 1.26588E-06-2.62103E-01 2.74091E-14 5.71956E-14
 -1       914 2.01172E+01 8.68058E-02-1.32746E-06-3.74953E-01-6.17466E-14 4.97376E-14
 -1       915 1.99232E+01 1.53929E-01-1.13733E-05 2.60209E-02-5.40006E-14 7.17353E-13
 -1       916 2.28068E+01 1.46733E+00-1.62827E-02 1.67979E+00-1.64862E-14 1.66247E-13
 -1       917 1.99758E+01 1.08359E-01 6.57467E-05 9.87478E-02-1.25198E-13-3.80709E-13
 -1       918 2.38897E+01-3.19165E+00 4.03568E-03 1.71693E+00-3.33509E-13 3.56028E-14
 -1       919 1.99197E+01 1.60199E-01-1.49921E-05-1.75537E-03 5.98636E-15 3.42244E-13
 -1       920 1.31575E+01 8.87233E-01 4.22797E-02-2.91024E+00 4.86460E-14 4.00605E-13
 -1       921 2.00911E+01 5.89598E-02-4.53187E-07-4.25544E-01 1.39848E-14 6.20892E-14
 -1       922 2.02923E+01 4.09178E-01-5.64641E-05-7.98913E-02 6.21935E-14 5.06258E-14
 -1       923 2.03203E+01 6.33677E-01 2.10691E-04 6.53876E-02 7.21713E-14 3.58324E-14
 -1       924 1.31241E+01 1.43420E+00 4.06989E-02 1.96740E+00 2.09113E-13-3.53580E-14
 -1       925 2.02686E+01 1.38126E+00-5.18091E-05-2.59366E-01 7.78225E-14 5.09888E-14
 -1       926 2.46854E+01-1.54287E+00 4.11346E-03 9.30544E-01-9.44050E-14-2.16473E-14
 -1       927 2.51047E+01-2.07959E+00-1.65011E-02-4.64749E-01-1.85087E-13-3.10098E-13
 -1       928 2.38030E+01-2.94523E+00 2.15452E-03-1.23382E+00-1.23876E-14-3.04587E-14
 -1       929 2.03448E+01 7.64567E-01-3.41533E-04-5.30188E-02 5.79467E-14 7.32334E-14
 -1       930 2.03275E+01 5.21486E-01-7.25548E-06 5.47343E-02 1.36815E-14 8.19421E-14
 -1       931 2.02741E+01 3.72442E-01-1.72074E-05 1.32155E-01 3.37867E-14 6.52848E-14
 -1       932 2.01928E+01 2.99742E-01-1.40361E-06 1.86663E-01 1.37067E-14 6.41947E-14
 -1       933 2.00860E+01 2.88741E-01-1.20482E-05 2.23429E-01-3.28552E-14 6.93078E-14
 -1       934 1.99434E+01 3.32163E-01 5.00945E-06 2.45698E-01-5.38387E-14-6.37592E-15
 -1       935 1.97706E+01 4.18007E-01-1.28297E-05 2.50417E-01-3.46100E-14-2.45539E-15
 -1       936 1.95494E+01 5.41039E-01-1.74039E-05 2.33403E-01 2.59685E-14 8.57336E-14
 -1       937 1.92611E+01 6.95657E-01-2.01264E-05 1.82625E-01-3.54468E-15 1.82933E-13
 -1       938 1.88807E+01 8.73274E-01-5.50874E-05 7.84521E-02-2.80653E-14 1.91815E-13
 -1       939 1.83752E+01 1.05879E+00-1.46905E-04-1.08558E-01 4.71068E-14 1.65520E-13
 -1       940 1.77006E+01 1.22500E+00-2.96122E-04-4.19795E-01-2.28829E-14 1.53208E-13
 -1       941 1.68012E+01 1.32395E+00 3.03359E-04-9.12896E-01-8.48229E-14 2.11839E-13
 -1       942 1.55343E+01 1.28145E+00 7.00695E-03-1.69437E+00-5.72275E-14 2.54913E-13
 -1       943 2.37320E+01 3.87413E+00-3.35285E-02-9.95741E-01-2.78133E-13 1.48120E-13
 -1       944 1.79498E+01 1.27193E+00-3.12670E-05 2.16320E-01 3.40863E-14 3.46488E-14
 -1       945 1.85398E+01 1.08614E+00-4.00677E-05 3.29880E-03 3.13140E-15-2.01212E-13
 -1       946 1.89687E+01 8.99102E-01-3.05310E-05-1.11251E-01-3.45158E-14 2.32481E-13
 -1       947 1.92785E+01 7.28038E-01-1.00927E-05-1.62093E-01-2.23847E-13 4.43802E-13
 -1       948 1.95093E+01 5.73330E-01-3.55976E-05-1.74255E-01-1.88573E-13 4.48810E-13
 -1       949 1.96641E+01 4.50962E-01-5.76676E-06-1.64074E-01-4.24617E-14 4.70578E-13
 -1       950 1.97733E+01 3.51119E-01-1.08246E-05-1.43556E-01-1.15033E-13 1.24212E-13
 -1       951 1.98498E+01 2.71066E-01-1.76284E-05-1.19512E-01-1.21185E-13-1.14867E-13
 -1       952 1.99025E+01 2.07968E-01-4.67040E-05-9.60525E-02-1.14630E-13-7.72661E-14
 -1       953 1.99239E+01 1.76602E-01 3.28399E-06-7.67499E-02 2.45316E-13 1.63699E-15
 -1       954 2.38224E+01 2.53955E+00-1.83486E-02-1.73718E+00-2.82082E-13 2.24875E-13
 -1       955 2.02451E+01 1.50194E+00-1.46588E-04-1.50019E-01 1.05618E-13 4.66709E-14
 -1       956 2.05758E+01-7.24028E-01-9.62728E-05-9.00096E-01-7.33477E-14 2.75956E-13
 -1       957 2.02717E+01-4.03482E-01-3.34259E-05-8.21418E-01 7.29225E-14 2.34749E-13
 -1       958 2.17188E+01-1.57002E+00 1.81799E-04-7.59696E-01-1.87848E-14 1.46712E-13
 -1       959 2.25574E+01-1.90599E+00 1.17103E-04-3.63898E-01 1.03446E-14 8.32796E-14
 -1       960 2.33927E+01-1.84418E+00-7.02881E-03 2.96827E-01-8.74602E-14 1.70981E-13
 -1       961 1.99379E+01 1.45168E-01-4.93550E-06 1.03242E-01-5.42530E-15-3.03959E-13
 -1       962 2.43293E+01 1.75873E-02-8.31449E-03-1.74426E+00-1.76689E-13 7.57250E-15
 -1       963 2.31764E+01-1.90135E+00 2.33187E-04-8.86867E-02-2.42692E-13-2.82118E-14
 -1       964 2.22827E+01-1.78989E+00 8.38993E-04 4.97153E-01-2.06916E-13 3.27385E-13
 -1       965 2.14804E+01-1.39894E+00 1.92649E-04 7.92902E-01-2.69310E-13 4.61199E-13
 -1       966 2.08589E+01-9.49587E-01 2.33629E-04 8.76935E-01 8.49861E-14 3.18427E-13
 -1       967 2.04238E+01-5.53830E-01 9.44635E-06 8.35364E-01 1.97749E-13 2.24968E-13
 -1       968 2.01444E+01-2.49778E-01-2.83274E-05 7.34021E-01 4.75888E-13-1.49006E-13
 -1       969 1.99813E+01-3.87025E-02-7.16729E-06 6.13899E-01 2.32101E-13-1.55341E-14
 -1       970 1.98982E+01 9.37094E-02-1.10244E-08 4.96827E-01 2.77691E-13 3.12502E-13
 -1       971 1.98664E+01 1.66136E-01 6.05637E-07 3.92826E-01 3.18390E-14 3.02113E-13
 -1       972 1.98649E+01 1.96307E-01-8.63115E-07 3.05151E-01 7.93620E-14 2.83341E-13
 -1       973 1.98795E+01 1.98898E-01 7.79676E-06 2.33663E-01-2.91280E-14 3.83056E-14
 -1       974 1.99007E+01 1.85219E-01 1.80492E-05 1.76931E-01 1.02413E-13 1.83848E-13
 -1       975 1.99199E+01 1.66642E-01 6.40636E-05 1.36235E-01 2.12179E-13-2.12544E-13
 -1       976 1.99015E+01 1.88542E-01 1.94834E-06-3.89177E-02 2.51159E-13 5.80121E-14
 -1       977 2.10500E+01-1.13124E+00-1.91911E-04-9.03832E-01-3.97422E-14 1.82518E-13
 -1       978 2.00055E+01 5.16707E-02 1.67685E-05-5.13541E-01-9.15047E-15 2.38555E-14
 -1       979 1.71435E+01 1.42275E+00 6.12176E-04 5.76910E-01 7.55791E-14 2.36468E-13
 -1       980 2.02505E+01 2.62078E-01-1.39745E-05-1.84844E-01 6.63548E-14 3.35691E-14
 -1       981 2.03241E+01 1.03767E+00 5.40305E-04-1.49879E-01 4.78107E-14 6.42071E-14
 -1       982 2.02441E+01 1.51546E+00 1.15324E-04-4.23972E-02 1.03303E-13 6.52997E-14
 -1       983 2.12732E+01-2.59698E+00-2.13420E-03-3.14143E+00 7.32035E-14-4.77418E-15
 -1       984 2.02735E+01 1.34886E+00 1.07351E-03 2.77408E-01 3.65921E-14 4.09731E-14
 -1       985 2.20354E+01-2.97808E+00 7.73840E-03 3.06767E+00-2.83653E-13 4.38709E-14
 -1       986 1.60447E+01 1.49848E+00-3.45350E-04 1.13767E+00-2.66023E-14 3.29472E-13
 -1       987 2.03273E+01 1.10630E+00-6.90108E-05-7.39061E-04 8.47600E-14 2.52706E-14
 -1       988 1.98161E+01-2.02807E+00 9.69706E-03 3.76196E+00-2.96144E-13 1.79760E-13
 -1       989 2.00205E+01-3.23420E-02 7.35347E-06-6.09170E-01-1.11180E-13 7.15752E-14
 -1       990 2.03330E+01 1.06985E+00-2.04205E-04 6.19394E-02 7.10836E-14 3.47588E-14
 -1       991 1.57116E+01 1.26109E-01 1.67482E-02-3.45664E+00 1.66466E-14 3.02862E-13
 -1       992 2.02080E+01 1.94478E-01 1.33683E-05-2.45508E-01-3.92664E-15 1.24236E-13
 -1       993 2.41563E+01 1.50887E+00-1.43740E-02-1.91551E+00-1.80527E-13 1.18881E-13
 -1       994 2.00311E+01 9.64919E-02-1.21712E-05-4.32403E-01 8.46293E-14 5.75081E-14
 -1       995 2.00990E+01-1.77206E-01 1.35187E-06-7.15769E-01 1.02799E-13 1.15812E-13
 -1       996 1.95508E+01-1.68209E+00 1.28144E-02-3.50188E+00 6.02502E-15-5.17625E-14
 -1       997 2.39537E+01-1.40204E+00-3.85659E-03-9.38306E-01-1.15554E-13-6.43660E-14
 -1       998 2.37058E+01-2.40699E+00-3.71503E-03 4.04364E-01-3.22455E-13-1.60556E-13
 -1       999 1.98947E+01 1.89313E-01 1.50759E-04-3.99694E-03-1.77724E-13 4.43832E-13
 -1      1000 2.03459E+01 6.25467E-01-4.72718E-05 5.21931E-03 2.54555E-14 6.02296E-14
 -1      1001 1.99014E+01 1.77739E-01 8.34410E-05 5.77179E-02 8.21097E-14 4.17664E-13
 -1      1002 1.50018E+01 6.34528E-01 2.23222E-02 3.07394E+00 8.57118E-14 1.35264E-13
 -1      1003 2.01427E+01 1.49406E-01-1.11492E-05-3.03822E-01-3.85490E-14 1.24909E-13
 -1      1004 2.03187E+01 4.12174E-01-5.48052E-05-1.00421E-01 7.06268E-14 6.91308E-14
 -1      1005 2.03269E+01 1.10962E+00 3.52450E-04-5.69002E-02 7.98244E-14 6.57869E-14
 -1      1006 2.03255E+01 4.91178E-01 4.77988E-06 5.19812E-02 1.53318E-14 6.32916E-14
 -1      1007 2.02584E+01 3.64054E-01-3.87205E-05 8.99495E-02 1.97973E-14 8.74556E-14
 -1      1008 2.01601E+01 3.08536E-01-3.09715E-05 1.11236E-01-2.05569E-14 5.64254E-14
 -1      1009 2.00258E+01 3.11504E-01 1.01065E-05 1.15021E-01-8.28570E-14 6.54703E-14
 -1      1010 1.98669E+01 3.59614E-01-6.03686E-07 9.82603E-02-1.97256E-14 5.10851E-14
 -1      1011 1.96726E+01 4.41092E-01-4.06395E-05 5.48283E-02 2.93649E-14 1.37463E-13
 -1      1012 1.94346E+01 5.44857E-01-3.53048E-05-2.79039E-02-1.69549E-14 5.47791E-14
 -1      1013 1.91421E+01 6.57652E-01-2.98165E-05-1.69113E-01 1.61134E-14 5.38220E-14
 -1      1014 1.87831E+01 7.59495E-01-4.48212E-05-3.96807E-01-1.66685E-14 1.63088E-13
 -1      1015 1.83471E+01 8.19064E-01-9.71999E-05-7.49417E-01-3.68886E-15 1.62156E-13
 -1      1016 1.78304E+01 7.87817E-01 4.02092E-04-1.28108E+00-5.06474E-14 1.50297E-13
 -1      1017 1.72007E+01 5.73370E-01 1.32681E-03-2.11168E+00-5.51899E-14 1.69442E-13
 -1      1018 1.98662E+01 2.11191E-01-1.15395E-04 8.26618E-02 2.57278E-13 2.74730E-13
 -1      1019 2.04193E+01-8.33507E-01-1.69266E-04-1.32546E+00 1.56829E-14 1.85603E-13
 -1      1020 1.88156E+01 8.47965E-01 6.55637E-05 2.77415E-01 5.66553E-14 3.96140E-13
 -1      1021 1.91252E+01 7.32911E-01-5.09816E-05 1.10953E-01-2.47849E-15 4.44757E-13
 -1      1022 1.93722E+01 6.09331E-01-5.47973E-05 1.15111E-02-4.82333E-15 7.35104E-13
 -1      1023 1.95485E+01 4.99512E-01-2.92628E-05-3.69043E-02-1.76331E-13 7.66167E-13
 -1      1024 1.96800E+01 4.02389E-01-3.18302E-05-5.76193E-02-3.44083E-13 4.60369E-13
 -1      1025 1.97770E+01 3.19612E-01-2.88378E-05-6.21334E-02-3.52534E-13 3.87258E-13
 -1      1026 1.98473E+01 2.50975E-01-9.24708E-05-5.83030E-02-1.49417E-13 5.39170E-14
 -1      1027 1.98768E+01 2.17925E-01 1.80964E-05-4.80529E-02 2.62102E-13 6.39684E-14
 -1      1028 2.15884E+01-1.78257E+00 1.99158E-03 1.46310E+00-2.86437E-13-2.28614E-13
 -1      1029 2.03559E+01 7.02755E-01-2.01386E-04-5.01340E-03 4.08184E-14 6.46452E-14
 -1      1030 2.00745E+01-4.22225E-01 2.36672E-05-1.11052E+00-9.72950E-14 1.45897E-13
 -1      1031 2.19286E+01-2.00683E+00 4.00377E-03-1.42837E+00 5.03572E-14 8.37874E-14
 -1      1032 2.03266E+01 1.08841E+00 7.12922E-04-1.04556E-01 6.56356E-14 7.88941E-14
 -1      1033 2.28083E+01-2.61439E+00-3.28985E-04 1.59463E+00-4.58856E-13-1.08777E-13
 -1      1034 2.26062E+01-2.27162E+00 4.73673E-04 1.12390E+00-3.90380E-13-1.03276E-13
 -1      1035 2.02424E+01-6.29899E-01 1.38908E-04 1.23865E+00 2.06174E-13-2.96905E-13
 -1      1036 1.99356E+01-2.46904E-01 6.49829E-05 1.01067E+00 4.84474E-13-3.35481E-13
 -1      1037 1.97781E+01 8.31454E-03 6.16750E-05 7.91988E-01 2.42603E-13 8.39748E-15
 -1      1038 1.97171E+01 1.61520E-01 5.27498E-05 6.03540E-01 3.68661E-14 1.06685E-13
 -1      1039 1.97132E+01 2.40390E-01 2.99183E-05 4.51147E-01 1.17807E-13 2.62030E-13
 -1      1040 1.97398E+01 2.68826E-01 8.77515E-06 3.32586E-01 6.89483E-14 3.47359E-13
 -1      1041 1.97801E+01 2.65349E-01 6.99199E-06 2.42667E-01 8.98129E-14 3.66968E-13
 -1      1042 1.98230E+01 2.43953E-01 9.08794E-06 1.75820E-01-4.03824E-14 2.63720E-13
 -1      1043 2.03251E+01 1.02136E+00-5.57602E-04 1.66266E-01 2.71075E-14 1.60929E-14
 -1      1044 2.10151E+01-1.38566E+00-9.92068E-04-1.46562E+00-7.76305E-15 6.38226E-14
 -1      1045 1.98894E+01 1.90243E-01-8.71397E-05 3.23675E-02-2.27314E-13 5.91797E-13
 -1      1046 1.79209E+01 9.69070E-01 9.99872E-04 9.72181E-01-8.71706E-14 4.13952E-13
 -1      1047 2.02695E+01 2.75282E-01-4.64654E-05-1.80857E-01 1.90149E-14 7.70770E-14
 -1      1048 1.84184E+01 9.38329E-01 1.54357E-04 5.48364E-01-7.93926E-14 5.12693E-13
 -1      1049 2.00807E+01 1.22767E-01-1.34812E-05-3.63977E-01-3.29739E-14 7.52032E-14
 -1      1050 1.72991E+01 8.72962E-01-9.86009E-04 1.61785E+00-4.63038E-14 4.20174E-13
 -1      1051 2.07708E+01-1.15245E+00 2.33837E-03 1.42556E+00 1.83338E-14-1.91290E-13
 -1      1052 2.14031E+01-2.25519E+00 1.39661E-03 2.55359E+00-3.14897E-13-1.73863E-13
 -1      1053 1.79876E+01-6.61133E-01 1.18218E-03-3.30688E+00 9.67212E-14 1.75135E-13
 -1      1054 1.75031E+01-4.38944E-01 1.18548E-02 3.39900E+00 2.22273E-13-1.01887E-13
 -1      1055 2.03615E+01 6.67351E-01 5.30188E-04-1.15668E-02 3.70755E-14 1.76903E-15
 -1      1056 1.99017E+01-1.43983E-01 3.09219E-05-8.93840E-01 4.43504E-14-2.94633E-14
 -1      1057 1.98603E+01 1.16624E-01 5.85287E-05-5.49668E-01-4.72215E-14 3.23975E-14
 -1      1058 1.98671E+01 2.18410E-01 9.08902E-07-6.22643E-03-3.91128E-13 7.60555E-13
 -1      1059 2.07015E+01-1.74762E+00-2.38659E-03-2.48434E+00 5.04076E-14 3.90612E-14
 -1      1060 2.03575E+01 8.08761E-01-5.72250E-05-1.10676E-02 3.78145E-14 7.14842E-14
 -1      1061 1.99175E+01 1.58644E-01 8.55256E-05-4.30530E-01 3.28138E-14 6.17913E-14
 -1      1062 1.98418E+01 2.31921E-01-1.08388E-05 1.24083E-01 2.52810E-14 1.99621E-13
 -1      1063 2.02542E+01 2.80761E-01 2.28603E-05-1.56003E-01-3.18083E-14 6.36343E-14
 -1      1064 2.03629E+01 7.51944E-01 8.58145E-05-5.59044E-03 4.32746E-14 1.85158E-14
 -1      1065 2.01749E+01 2.17524E-01 2.45847E-05-2.09723E-01-1.34618E-14 4.41703E-14
 -1      1066 1.71853E+01 4.00017E-01-3.09597E-03 2.44220E+00 2.55150E-13 1.64018E-13
 -1      1067 1.98447E+01 2.54455E-02 2.21349E-05-7.03737E-01-2.95530E-14-5.44099E-14
 -1      1068 2.02289E+01 3.36507E-01 4.43989E-06 1.73704E-02 9.73996E-15 1.91653E-14
 -1      1069 2.01132E+01 2.95594E-01-2.70710E-05 4.93833E-03-5.93741E-14 2.13477E-14
 -1      1070 1.99762E+01 3.05415E-01-2.22763E-05-2.45847E-02-5.85826E-14 1.00505E-13
 -1      1071 1.98160E+01 3.46374E-01 1.41873E-05-7.96171E-02 7.13817E-14 7.12134E-14
 -1      1072 1.96299E+01 4.04656E-01-5.75350E-05-1.71834E-01-1.22471E-14 7.10895E-14
 -1      1073 1.94208E+01 4.60783E-01-1.17954E-04-3.16903E-01 6.59507E-16 1.38861E-13
 -1      1074 1.91892E+01 4.94251E-01-2.20992E-04-5.35574E-01 2.07997E-14 1.48807E-13
 -1      1075 1.89463E+01 4.71924E-01-2.60521E-04-8.56364E-01-6.76842E-14 4.10957E-14
 -1      1076 1.87157E+01 3.48319E-01 1.69471E-04-1.31182E+00-3.50994E-14-2.04792E-14
 -1      1077 1.85265E+01 3.25382E-02-1.97381E-04-1.97251E+00 2.35025E-14 2.74015E-14
 -1      1078 1.94478E+01 1.26114E-01 1.72303E-04 9.93662E-01 1.23472E-13 4.88098E-14
 -1      1079 1.99910E+01-8.39911E-01 2.36958E-03-1.88803E+00 1.11302E-14 2.84155E-14
 -1      1080 1.93209E+01 5.69570E-01-1.61704E-04 2.39016E-01 6.01953E-14 1.89754E-13
 -1      1081 1.94853E+01 4.97378E-01-1.17501E-04 1.28246E-01-9.27562E-14 2.60371E-13
 -1      1082 1.96175E+01 4.20816E-01-5.80268E-05 6.06543E-02-2.04177E-13 4.03894E-13
 -1      1083 1.97217E+01 3.47407E-01-8.01285E-06 2.13210E-02-2.70331E-13 4.25737E-13
 -1      1084 1.98017E+01 2.81235E-01 2.69337E-05 4.73253E-04-1.74519E-13 8.59959E-13
 -1      1085 1.98384E+01 2.48601E-01 4.84893E-04-4.14507E-03-2.73086E-13 1.15556E-12
 -1      1086 1.95301E+01-1.06691E+00 5.20574E-03-2.69695E+00 5.37589E-14-4.01580E-14
 -1      1087 1.96742E+01-3.49508E-01-4.65385E-04-1.47420E+00 3.51569E-14-3.55347E-15
 -1      1088 1.84057E+01 3.69192E-01-7.36359E-04 1.62980E+00 1.47266E-13 1.10021E-13
 -1      1089 2.03094E+01 4.38611E-01 2.52293E-05 1.60769E-02 3.28449E-14 5.79705E-14
 -1      1090 2.15507E+01-1.99451E+00 2.39179E-03 1.91401E+00-2.12243E-13-2.30414E-13
 -1      1091 1.94503E+01 2.83466E-01 2.11454E-04 7.11979E-01 1.13177E-13 1.81743E-13
 -1      1092 1.95470E+01-1.60333E-01-1.43685E-04 1.35015E+00 2.62701E-13-4.85139E-13
 -1      1093 1.95041E+01 3.53633E-01 1.54057E-04 4.99774E-01-4.12662E-14 2.06014E-13
 -1      1094 1.95793E+01 3.68217E-01 1.03432E-04 3.45150E-01 1.39688E-13 1.35476E-13
 -1      1095 1.96586E+01 3.49671E-01 6.41166E-05 2.35295E-01 2.14225E-14-3.33558E-14
 -1      1096 1.97328E+01 3.13643E-01 7.39020E-05 1.58706E-01-8.80510E-15 1.78500E-14
 -1      1097 1.98403E+01 2.36546E-01-2.15893E-04 5.37326E-02-1.21589E-13 5.80889E-14
 -1      1098 2.03268E+01 4.29065E-01 2.27564E-04-8.26002E-02 1.26765E-14 2.68297E-14
 -1      1099 1.99982E+01 1.74988E-01 8.89985E-05-3.39181E-01-2.13352E-15 1.87796E-14
 -1      1100 1.91225E+01 6.23521E-01-3.28780E-04 4.13258E-01 1.72103E-13 2.44900E-13
 -1      1101 1.86388E+01 5.71984E-01-5.74707E-04 1.07640E+00-7.92975E-14 3.23848E-13
 -1      1102 2.00867E+01 1.88866E-01 7.74218E-05-2.68216E-01-1.28794E-14-2.16278E-15
 -1      1103 1.88873E+01 6.36672E-01-4.62855E-04 6.85324E-01-1.39249E-13 1.87561E-13
 -1      1104 2.03507E+01 5.88047E-01-4.65124E-05 4.22068E-03 8.35787E-15 5.09462E-14
 -1      1105 1.94571E+01-1.09085E+00 3.49979E-03 2.81719E+00 1.50791E-13-6.14382E-14
 -1      1106 1.95557E+01-3.01482E-02 2.28354E-04-1.10122E+00-9.91925E-14 1.62917E-14
 -1      1107 1.98310E+01-6.14984E-01 2.13691E-03 1.75569E+00 5.22334E-14-5.22882E-13
 -1      1108 2.03390E+01 4.95237E-01-9.14818E-05-3.67686E-02 7.46532E-15 4.69367E-14
 -1      1109 2.05043E+01-1.27716E+00-2.35813E-03 1.96878E+00 2.67605E-14-4.70907E-13
 -1      1110 1.86274E+01-1.18408E-01-3.06913E-03 2.18496E+00 2.69178E-13-2.00375E-13
 -1      1111 1.97456E+01 2.55219E-01 7.12394E-05-4.11714E-01 3.46093E-14-1.44390E-14
 -1      1112 2.02106E+01 2.84349E-01 4.51008E-05-1.07992E-01 1.93213E-14 4.44574E-15
 -1      1113 1.96375E+01 2.29827E-01 2.16107E-04-5.77002E-01 4.97895E-16-9.02475E-14
 -1      1114 2.02854E+01 3.63080E-01-8.02524E-05-6.88175E-02-2.08171E-14 5.73081E-15
 -1      1115 1.97889E+01 2.78142E-01-7.88432E-06 9.64206E-02-1.68036E-15 1.01104E-13
 -1      1116 2.00777E+01 2.61612E-01-6.50670E-05-1.20046E-01-2.02456E-14 2.07229E-14
 -1      1117 1.99494E+01 2.68227E-01-1.20445E-05-1.77916E-01 2.24991E-15 4.65704E-14
 -1      1118 1.98094E+01 2.88854E-01-1.25574E-04-2.64018E-01 3.80255E-14 3.38003E-14
 -1      1119 1.95627E+01 1.46962E-01 2.68098E-04-8.03188E-01-6.28287E-14-6.27327E-14
 -1      1120 2.79233E+01 9.07334E+00 2.32097E+00-6.68886E+00-1.05471E-14-2.78305E-13
 -1      1121 2.05318E+01 6.22245E+00 2.09688E-01-3.89810E+00 1.11022E-16-2.37789E-13
 -1      1122 1.94308E+01 5.85192E+00 7.55924E-02-2.88184E+00 5.55112E-17-1.66216E-13
 -1      1123 1.90306E+01 5.72740E+00 6.07713E-02-2.22826E+00 2.59168E-15-1.02328E-13
 -1      1124 1.88497E+01 5.67233E+00 5.80797E-02-1.69399E+00 3.28557E-15-4.69911E-14
 -1      1125 1.87583E+01 5.64417E+00 5.56312E-02-1.22720E+00 1.76421E-15-6.21812E-15
 -1      1126 1.87106E+01 5.62928E+00 5.36695E-02-7.98873E-01 3.02319E-15 2.03101E-14
 -1      1127 1.86869E+01 5.62176E+00 5.22938E-02-3.89659E-01 3.04466E-15 5.03026E-14
 -1      1128 1.86798E+01 5.61951E+00 5.18382E-02 8.89032E-03 3.09247E-15 7.16684E-14
 -1      1129 1.86872E+01 5.62188E+00 5.23750E-02 4.07778E-01 3.64249E-15 1.00120E-13
 -1      1130 1.87115E+01 5.62961E+00 5.38641E-02 8.18141E-01 2.42861E-15 1.27755E-13
 -1      1131 1.87606E+01 5.64505E+00 5.62207E-02 1.24880E+00 3.11556E-15 1.65837E-13
 -1      1132 1.88531E+01 5.67354E+00 5.86480E-02 1.71968E+00 3.90486E-15 2.13917E-13
 -1      1133 1.90355E+01 5.72896E+00 6.10166E-02 2.26080E+00 2.54657E-15 2.71570E-13
 -1      1134 1.94277E+01 5.84929E+00 6.98777E-02 2.92188E+00 2.16493E-15 3.43246E-13
 -1      1135 2.04384E+01 6.17747E+00 1.53141E-01 3.87219E+00-2.16493E-15 4.11626E-13
 -1      1136 2.51827E+01 7.98299E+00 1.42721E+00 5.83819E+00-1.75970E-14 4.22107E-13
 -1      1137 2.87631E+01 3.60951E+00 1.26742E+00-4.21063E+00-2.47025E-14-3.26295E-13
 -1      1138 2.01928E+01-1.77657E-01-6.15939E-01-1.09728E-01-6.09929E-15-3.91909E-13
 -1      1139 1.88042E+01-9.65017E-02-2.36256E-01 6.23483E-02 6.24500E-17-4.22511E-13
 -1      1140 1.84757E+01-4.83706E-02-5.97885E-02 4.02744E-02 3.55618E-15-4.32251E-13
 -1      1141 1.84279E+01-2.51634E-02-1.56830E-02 2.64871E-02 4.23489E-16-4.24907E-13
 -1      1142 1.85207E+01-1.39163E-02-5.82945E-03 1.87077E-02-5.94403E-15-4.13725E-13
 -1      1143 1.86849E+01-8.07907E-03-2.84058E-03 1.37483E-02-4.96727E-15-4.01398E-13
 -1      1144 1.88897E+01-4.40796E-03-1.37234E-03 1.02401E-02-1.40781E-14-4.76527E-13
 -1      1145 1.91122E+01-3.07174E-03-8.41862E-04 7.71038E-03 4.51977E-15-5.04095E-13
 -1      1146 1.93397E+01-2.87776E-03-1.37470E-03 5.96726E-03-5.77549E-15-5.76766E-13
 -1      1147 1.95800E+01-3.65289E-03-2.84518E-03 4.76180E-03-6.80039E-15-6.52658E-13
 -1      1148 1.98429E+01-5.38118E-03-5.40160E-03 4.14035E-03-1.56293E-14-5.61262E-13
 -1      1149 2.01463E+01-8.16580E-03-9.33091E-03 4.23531E-03-4.28574E-15-5.19077E-13
 -1      1150 2.05177E+01-1.25283E-02-1.52155E-02 5.29170E-03 1.72746E-15-6.08111E-13
 -1      1151 2.10121E+01-1.77203E-02-2.37377E-02 7.77382E-03 1.72583E-14-5.32142E-13
 -1      1152 2.16810E+01-2.55015E-02-3.58105E-02 1.38904E-02-2.16836E-14-5.42249E-13
 -1      1153 2.25861E+01-3.44963E-02-5.17039E-02 2.38976E-02-3.85369E-15-6.62012E-13
 -1      1154 2.38453E+01-4.36667E-02-6.99446E-02 4.08315E-02-1.78447E-14-8.44019E-13
 -1      1155 2.55765E+01-4.87561E-02-8.27029E-02 6.72577E-02 1.17688E-14-9.47659E-13
 -1      1156 2.78630E+01-3.99553E-02-6.77816E-02 1.02463E-01-9.30679E-16-8.89358E-13
 -1      1157 3.06201E+01 5.69154E-04 1.87702E-02 1.32438E-01-7.76961E-15-7.13707E-13
 -1      1158 3.33131E+01 9.65692E-02 2.24615E-01 1.12804E-01 2.97713E-14-6.40384E-13
 -1      1159 3.45503E+01 2.36561E-01 4.96883E-01-5.43289E-02 1.23131E-14-8.82863E-13
 -1      1160 3.20933E+01 2.82119E-01 4.92781E-01-4.30862E-01 3.94303E-14-1.02846E-12
 -1      1161 2.57202E+01 1.09328E-01-1.23114E-01-7.23830E-01-1.11699E-14-1.02246E-12
 -1      1162 1.87718E+01-3.48749E-01-1.06707E+00-5.25651E-01 1.61537E-14-9.88765E-13
 -1      1163 1.66001E+01-5.92548E-01-1.42001E+00 1.84996E-01 5.75304E-14-5.12840E-13
 -1      1164 2.15001E+01-1.67162E-01-6.80055E-01 6.98839E-01-1.21569E-14-1.65423E-14
 -1      1165 2.91442E+01 2.26484E-01 2.60465E-01 6.14102E-01-3.22208E-14-3.31235E-13
 -1      1166 3.38357E+01 2.99783E-01 5.62167E-01 2.44567E-01 5.33566E-14-2.68702E-13
 -1      1167 3.43601E+01 1.74995E-01 3.81770E-01-3.93996E-02-9.03860E-14-2.81976E-13
 -1      1168 3.22707E+01 4.69822E-02 1.21219E-01-1.31429E-01-1.65215E-14-1.26191E-13
 -1      1169 2.94487E+01-2.23543E-02-3.03972E-02-1.22756E-01-2.25297E-16-2.74100E-13
 -1      1170 2.68741E+01-4.68299E-02-8.02098E-02-8.71315E-02-1.74470E-14-2.87353E-13
 -1      1171 2.48477E+01-4.84847E-02-7.99058E-02-5.50455E-02-1.67453E-14-5.27321E-13
 -1      1172 2.33314E+01-3.82654E-02-6.16799E-02-3.42710E-02 5.76592E-14-4.56205E-13
 -1      1173 2.22599E+01-3.10631E-02-4.52379E-02-1.77844E-02 2.89911E-14-3.66412E-13
 -1      1174 2.15363E+01-2.29450E-02-3.15822E-02-9.84569E-03 1.49219E-14-3.01736E-13
 -1      1175 2.10349E+01-1.66125E-02-2.17615E-02-5.23585E-03 2.76537E-15-5.99965E-13
 -1      1176 2.06887E+01-1.19083E-02-1.49498E-02-2.62515E-03 6.85276E-14-7.71223E-13
 -1      1177 2.04502E+01-8.50610E-03-1.02987E-02-1.16928E-03-6.28693E-14-9.03601E-13
 -1      1178 2.02863E+01-6.15759E-03-7.15847E-03-3.84331E-04 6.81070E-14-7.38128E-13
 -1      1179 2.01724E+01-4.08608E-03-4.83509E-03-1.20122E-04-4.25318E-14-5.89764E-13
 -1      1180 2.00960E+01-3.07013E-03-3.42323E-03 2.85072E-04 4.20842E-14-1.03552E-12
 -1      1181 2.00473E+01-2.22727E-03-2.45378E-03 3.92114E-04 3.96542E-14-1.16822E-12
 -1      1182 2.00166E+01-1.63854E-03-1.81854E-03 4.55524E-04 5.93012E-14-9.43451E-13
 -1      1183 1.99992E+01-1.22852E-03-1.41404E-03 5.32413E-04 2.98135E-14-2.88540E-13
 -1      1184 1.99920E+01-9.13876E-04-1.05895E-03 6.82475E-04 3.19206E-14 3.47383E-13
 -1      1185 1.99931E+01-5.01155E-04-3.18207E-04 9.05210E-04-2.75737E-14-8.11929E-14
 -1      1186 1.99984E+01-1.92254E-04 1.20874E-03 5.35008E-04 1.03184E-13-3.50406E-13
 -1      1187 2.77467E+01 5.24821E-01 3.74783E-01 1.96406E+00-5.71765E-15 3.90243E-13
 -1      1188 2.00535E+01-6.67052E-02-5.73327E-01 1.29412E-01-5.25621E-15 5.00516E-13
 -1      1189 1.88817E+01-4.21304E-02-1.93170E-01 1.94568E-02-5.35509E-15 5.92094E-13
 -1      1190 1.85096E+01-2.29550E-02-5.06959E-02 1.45118E-03 4.86590E-15 6.35256E-13
 -1      1191 1.84478E+01-1.41809E-02-1.42398E-02-3.98997E-03-1.09860E-14 6.98833E-13
 -1      1192 1.85365E+01-8.56209E-03-5.70629E-03-5.13340E-03-2.96703E-15 7.18470E-13
 -1      1193 1.86999E+01-5.31534E-03-3.11931E-03-5.16640E-03 1.08997E-14 7.49852E-13
 -1      1194 1.88990E+01-3.38097E-03-1.79449E-03-4.79003E-03 9.98930E-16 7.38383E-13
 -1      1195 1.91130E+01-2.24418E-03-1.03616E-03-4.28119E-03-6.16485E-15 6.60569E-13
 -1      1196 1.93315E+01-1.58193E-03-6.92766E-04-3.78439E-03 6.55480E-15 6.00606E-13
 -1      1197 1.95498E+01-1.15128E-03-5.94762E-04-3.41667E-03 5.37789E-15 5.74129E-13
 -1      1198 1.97663E+01-7.35533E-04-5.07760E-04-3.28404E-03 7.95377E-16 5.71350E-13
 -1      1199 1.99799E+01-1.18078E-04-1.44469E-04-3.47975E-03-4.84445E-15 6.43870E-13
 -1      1200 2.01875E+01 9.22979E-04 8.30184E-04-4.06971E-03-2.06491E-14 6.23949E-13
 -1      1201 2.03823E+01 2.59605E-03 2.77957E-03-5.06068E-03 3.13914E-15 5.09199E-13
 -1      1202 2.05503E+01 5.04363E-03 6.03239E-03-6.34813E-03 6.92014E-15 4.17865E-13
 -1      1203 2.06690E+01 8.24738E-03 1.07483E-02-7.64765E-03-3.64612E-14 4.04669E-13
 -1      1204 2.07064E+01 1.18956E-02 1.66974E-02-8.43042E-03 1.31986E-14 4.86917E-13
 -1      1205 2.06226E+01 1.52505E-02 2.29846E-02-7.91243E-03-2.41664E-14 3.93777E-13
 -1      1206 2.03766E+01 1.71106E-02 2.78438E-02-5.17823E-03-2.52084E-14 6.20197E-13
 -1      1207 1.99387E+01 1.60109E-02 2.87449E-02 4.79546E-04 2.51372E-14 4.16632E-13
 -1      1208 1.93079E+01 1.07762E-02 2.30938E-02 9.00862E-03 2.56396E-14 1.26760E-13
 -1      1209 1.85297E+01 1.34859E-03 9.59737E-03 1.90508E-02-1.44930E-14 2.33206E-13
 -1      1210 1.77057E+01-1.05453E-02-1.02141E-02 2.78422E-02-7.34005E-17 1.38736E-13
 -1      1211 1.69815E+01-2.15402E-02-3.14199E-02 3.19902E-02-2.88116E-15 3.78288E-13
 -1      1212 1.65112E+01-2.79242E-02-4.71255E-02 2.90502E-02 3.80620E-14 4.26026E-13
 -1      1213 1.64062E+01-2.75206E-02-5.16485E-02 1.90549E-02-1.92520E-14 1.68549E-13
 -1      1214 1.66927E+01-2.08741E-02-4.35898E-02 4.83820E-03-1.74947E-15 2.23193E-13
 -1      1215 1.73010E+01-1.08191E-02-2.65402E-02-9.26299E-03-4.74432E-14 1.00440E-13
 -1      1216 1.80940E+01-8.35521E-04-6.92015E-03-1.94763E-02 4.97361E-15 1.43541E-13
 -1      1217 1.89166E+01 6.55194E-03 9.34448E-03-2.40587E-02-8.45049E-15 6.21725E-14
 -1      1218 1.96421E+01 1.04278E-02 1.90857E-02-2.34441E-02-3.76322E-14 1.18152E-13
 -1      1219 2.01965E+01 1.11953E-02 2.21643E-02-1.93894E-02 1.18421E-14 5.47116E-13
 -1      1220 2.05590E+01 9.89183E-03 2.03545E-02-1.39027E-02-4.35321E-14 4.77451E-13
 -1      1221 2.07480E+01 7.59699E-03 1.59629E-02-8.53462E-03-3.97165E-15 3.87986E-13
 -1      1222 2.08017E+01 5.12335E-03 1.09014E-02-4.15188E-03-2.67127E-14 2.24261E-13
 -1      1223 2.07634E+01 2.94740E-03 6.35515E-03-1.03726E-03-1.90267E-14 2.31138E-13
 -1      1224 2.06717E+01 1.26925E-03 2.84566E-03 8.93732E-04 1.32194E-14 4.05080E-13
 -1      1225 2.05566E+01 1.09862E-04 4.47685E-04 1.89279E-03-1.20885E-14 2.07503E-13
 -1      1226 2.04384E+01-6.02850E-04-9.96288E-04 2.24471E-03 2.55126E-14 1.81027E-13
 -1      1227 2.03294E+01-9.74675E-04-1.72442E-03 2.19816E-03 3.20246E-14-2.89838E-13
 -1      1228 2.02358E+01-1.11114E-03-1.97054E-03 1.94130E-03 1.74308E-14-9.24586E-14
 -1      1229 2.01598E+01-1.10185E-03-1.92769E-03 1.60201E-03-4.05386E-14 1.21169E-13
 -1      1230 2.01007E+01-1.01584E-03-1.74063E-03 1.25852E-03-2.39018E-15 7.01361E-14
 -1      1231 2.00570E+01-9.03124E-04-1.51301E-03 9.52177E-04-3.47022E-14-6.47330E-14
 -1      1232 2.00264E+01-7.96027E-04-1.31684E-03 6.95097E-04 2.34747E-14-1.67751E-13
 -1      1233 2.00068E+01-7.02145E-04-1.18238E-03 4.71254E-04 2.54634E-15-3.74392E-13
 -1      1234 1.99969E+01-5.69256E-04-1.01498E-03 2.05910E-04-3.44359E-14-2.37776E-13
 -1      1235 1.99952E+01-1.70007E-04-3.62177E-04-2.42357E-04 7.26066E-14-4.46542E-13
 -1      1236 1.99987E+01 3.99548E-04 1.16566E-03-4.01754E-04-2.33412E-14-4.95772E-13
 -1      1237 2.00002E+01-1.21138E-03 1.07446E-03-4.30452E-04-5.82885E-13-2.58539E-15
 -1      1238 1.99994E+01-4.40714E-03-5.03805E-04-6.45364E-04-5.80260E-13 9.76699E-14
 -1      1239 1.99991E+01-2.01467E-03-9.98399E-04-1.26328E-04 1.85431E-13 7.70804E-14
 -1      1240 1.99994E+01 7.50655E-03-7.18652E-04 2.36406E-04 3.01566E-13 6.28029E-14
 -1      1241 1.99997E+01 2.16904E-02-2.35835E-04 4.12799E-04 8.60794E-13 2.89660E-14
 -1      1242 2.00000E+01 3.71986E-02 2.56673E-04 4.40980E-04 8.57291E-13-9.63332E-14
 -1      1243 2.00003E+01 5.09120E-02 6.71811E-04 3.53839E-04 5.51104E-13 1.36829E-13
 -1      1244 2.00005E+01 6.01687E-02 9.54263E-04 1.74090E-04 4.07798E-13-1.93284E-13
 -1      1245 2.00006E+01 6.29411E-02 1.05535E-03-5.22455E-05-2.43274E-13-6.42448E-15
 -1      1246 2.00005E+01 5.85458E-02 9.51098E-04-2.78502E-04-2.17634E-14 5.76001E-14
 -1      1247 2.00003E+01 4.76746E-02 6.41263E-04-4.51638E-04 4.00729E-13-2.40434E-13
 -1      1248 2.00000E+01 3.25239E-02 1.69270E-04-5.20899E-04-9.35789E-13-1.53661E-13
 -1      1249 1.99996E+01 1.61175E-02-3.96246E-04-4.38599E-04-7.59835E-13 1.21223E-14
 -1      1250 1.99993E+01 2.04398E-03-9.09862E-04-1.69776E-04 2.18639E-13-4.52053E-14
 -1      1251 1.99992E+01-6.01346E-03-1.06890E-03 2.80084E-04 1.10340E-12-1.19775E-14
 -1      1252 1.99993E+01-6.18327E-03-4.31150E-04 8.54117E-04 1.00561E-12 2.85229E-15
 -1      1253 1.99995E+01-1.29205E-03 1.19098E-03 3.32404E-04 5.58303E-13-1.99045E-13
 -1      1254-1.18927E+00-2.46588E+01-3.74975E+00-2.21960E+00-1.05294E-12-1.54099E-13
 -1      1255-1.52789E+00-1.31701E+01-2.80542E+00-3.24765E+00-7.37632E-13-1.47882E-13
 -1      1256 1.76504E+00 6.91996E-01-1.44800E+00 1.87390E+00-3.52163E-13-1.79190E-13
 -1      1257 1.21799E+01 1.00764E+01 1.76176E-01 1.08011E+01-4.84057E-14 2.19380E-13
 -1      1258 3.05302E+01 1.18510E+01 1.80829E+00 1.81378E+01 4.29656E-13 4.56524E-13
 -1      1259 5.20931E+01 7.61576E+00 3.31221E+00 1.75089E+01 1.03528E-13 3.99236E-13
 -1      1260 6.65313E+01 2.90128E+00 4.09051E+00 7.59701E+00 1.09059E-13 9.82103E-13
 -1      1261 6.76641E+01 2.33678E+00 4.16693E+00-6.26542E+00-2.13170E-13 1.49014E-12
 -1      1262 5.37266E+01 6.76810E+00 3.27806E+00-1.70807E+01-4.68681E-13 1.40465E-12
 -1      1263 3.24354E+01 1.16986E+01 1.94031E+00-1.85509E+01-8.34666E-13 1.30385E-12
 -1      1264 1.35453E+01 1.03997E+01 3.11079E-01-1.15335E+01-1.35691E-12 1.24900E-12
 -1      1265 2.14083E+00 1.53973E+00-1.30969E+00-2.27044E+00-1.61471E-12 1.03673E-12
 -1      1266-1.47463E+00-1.16756E+01-2.68461E+00 3.21473E+00-1.19060E-12 4.95270E-13
 -1      1267-1.31315E+00-2.35367E+01-3.68570E+00 2.67129E+00-4.70957E-13 1.61281E-13
 -1      1268-1.39230E+00-2.69959E+01-4.02328E+00-1.98901E+00 6.00603E-13 2.07799E-13
 -1      1269-2.44726E+00-2.08721E+01-3.80163E+00-5.50822E+00 1.17772E-12 3.64264E-13
 -1      1270-1.79026E+00-8.18771E+00-2.87394E+00-3.23359E+00 1.26010E-12 7.12652E-13
 -1      1271 5.78852E+00 3.96576E+00-1.39665E+00 5.10081E+00 6.53477E-13 5.57332E-13
 -1      1272 2.35326E+01 1.01403E+01 7.27207E-01 1.49321E+01 2.96430E-13 4.06342E-13
 -1      1273 4.88676E+01 8.93549E+00 3.22591E+00 1.90228E+01 2.02283E-13 3.93463E-13
 -1      1274 7.16140E+01 4.12272E+00 5.28966E+00 1.23337E+01 9.49518E-14 3.00093E-13
 -1      1275 7.88802E+01 2.11095E+00 5.96481E+00-2.56725E+00-7.56339E-15 1.38473E-13
 -1      1276 6.58862E+01 5.41602E+00 4.74837E+00-1.56990E+01-4.67404E-14 2.03171E-13
 -1      1277 3.98223E+01 9.85952E+00 2.32940E+00-1.83650E+01 5.09592E-14 9.14824E-14
 -1      1278 1.63097E+01 8.90661E+00 6.88106E-03-1.16715E+01 1.78302E-13-3.87690E-13
 -1      1279 2.96435E+00 1.58651E+00-1.78403E+00-2.65212E+00 1.53433E-13-5.88418E-14
 -1      1280-2.22615E+00-9.69670E+00-2.99041E+00 3.96304E+00-1.47660E-13 8.22675E-14
 -1      1281-2.36604E+00-2.09942E+01-3.73398E+00 5.58733E+00-1.33782E-13 1.23512E-13
 -1      1282-1.28349E+00-2.70691E+01-4.01975E+00 2.42665E+00-7.41573E-13 1.17080E-13
 -1      1283 2.22358E+01 1.83675E+00-7.24927E-01-2.78667E+00-1.29619E-14-3.08253E-13
 -1      1284 2.03479E+01 4.68701E+00-4.84364E-02-3.30034E+00 1.39055E-14-2.03504E-13
 -1      1285 2.08487E+01 4.80548E+00-1.13189E-01-4.15405E+00-3.60822E-16-2.40662E-13
 -1      1286 1.95305E+01 4.99300E+00-1.95071E-02-2.64705E+00 2.93793E-14-1.40634E-13
 -1      1287 1.98238E+01 5.08796E+00 2.47300E-04-3.03819E+00 2.83176E-14-1.75304E-13
 -1      1288 2.05175E+01 3.95030E+00-2.58777E-02-3.06643E+00 2.86889E-14-1.75471E-13
 -1      1289 1.91913E+01 5.08554E+00-3.29274E-03-2.06262E+00 4.09204E-14-8.00124E-14
 -1      1290 1.93364E+01 5.13980E+00 1.07430E-02-2.35619E+00 3.81015E-14-1.09680E-13
 -1      1291 1.97564E+01 4.36705E+00-2.37138E-02-2.48155E+00 5.25673E-14-1.10766E-13
 -1      1292 1.90194E+01 5.13442E+00 3.47982E-03-1.55636E+00 4.60673E-14-3.50640E-14
 -1      1293 1.90958E+01 5.16362E+00 1.30002E-02-1.80619E+00 4.72192E-14-5.81445E-14
 -1      1294 1.94004E+01 4.55786E+00-1.93446E-02-1.92210E+00 6.73055E-14-6.33937E-14
 -1      1295 1.89276E+01 5.16570E+00 6.50761E-03-1.10977E+00 5.49998E-14-1.27849E-15
 -1      1296 1.89693E+01 5.18186E+00 1.29015E-02-1.33061E+00 5.20972E-14-1.52343E-14
 -1      1297 1.92161E+01 4.66696E+00-1.58946E-02-1.43588E+00 8.09877E-14-2.36582E-14
 -1      1298 1.88768E+01 5.18667E+00 8.09398E-03-6.88448E-01 5.11444E-14 3.14956E-14
 -1      1299 1.88996E+01 5.19549E+00 1.20620E-02-8.97595E-01 5.15603E-14 1.25924E-14
 -1      1300 1.91144E+01 4.73463E+00-1.38381E-02-9.96842E-01 8.35484E-14 6.79318E-15
 -1      1301 1.88527E+01 5.19930E+00 9.18351E-03-2.86462E-01 5.52256E-14 5.87759E-14
 -1      1302 1.88627E+01 5.20316E+00 1.10562E-02-4.87178E-01 5.14805E-14 4.62685E-14
 -1      1303 1.90587E+01 4.77528E+00-1.27576E-02-5.83714E-01 8.15487E-14 3.82576E-14
 -1      1304 1.88487E+01 5.20445E+00 1.01404E-02 1.07835E-01 5.11150E-14 8.40439E-14
 -1      1305 1.88485E+01 5.20437E+00 1.00805E-02-9.02941E-02 5.48418E-14 6.71095E-14
 -1      1306 1.90342E+01 4.79417E+00-1.23057E-02-1.87074E-01 9.55319E-14 6.52325E-14
 -1      1307 1.88635E+01 5.20266E+00 1.11299E-02 5.05212E-01 5.72862E-14 1.07860E-13
 -1      1308 1.88531E+01 5.19861E+00 9.12162E-03 3.04135E-01 5.47461E-14 9.50785E-14
 -1      1309 1.90346E+01 4.79353E+00-1.23255E-02 2.04463E-01 8.46349E-14 8.85750E-14
 -1      1310 1.89014E+01 5.19414E+00 1.21317E-02 9.16908E-01 5.43489E-14 1.28035E-13
 -1      1311 1.88780E+01 5.18522E+00 8.02731E-03 7.06909E-01 5.67190E-14 1.13616E-13
 -1      1312 1.90602E+01 4.77319E+00-1.28185E-02 6.01678E-01 9.45183E-14 1.00260E-13
 -1      1313 1.89719E+01 5.17983E+00 1.29959E-02 1.34839E+00 5.15950E-14 1.70468E-13
 -1      1314 1.89294E+01 5.16331E+00 6.37539E-03 1.12626E+00 5.27109E-14 1.47311E-13
 -1      1315 1.91171E+01 4.73109E+00-1.38495E-02 1.01243E+00 8.49097E-14 1.24165E-13
 -1      1316 1.91019E+01 5.15965E+00 1.30602E-02 1.83215E+00 4.82062E-14 2.20605E-13
 -1      1317 1.90238E+01 5.12970E+00 3.13185E-03 1.57969E+00 4.70596E-14 1.94466E-13
 -1      1318 1.92211E+01 4.66051E+00-1.60125E-02 1.45386E+00 7.83874E-14 1.69351E-13
 -1      1319 1.93467E+01 5.13380E+00 1.06493E-02 2.38918E+00 3.79002E-14 2.78569E-13
 -1      1320 1.91987E+01 5.07773E+00-4.11356E-03 2.09177E+00 4.12621E-14 2.46046E-13
 -1      1321 1.94110E+01 4.54543E+00-1.97824E-02 1.94846E+00 6.54008E-14 2.12406E-13
 -1      1322 1.98491E+01 5.09725E+00 6.24117E-03 3.07642E+00 1.59872E-14 3.53752E-13
 -1      1323 1.95424E+01 4.98368E+00-2.00700E-02 2.68896E+00 2.24543E-14 3.11959E-13
 -1      1324 1.97746E+01 4.34586E+00-2.46400E-02 2.51885E+00 4.73944E-14 2.72206E-13
 -1      1325 2.10851E+01 4.90170E+00 8.05092E-03 4.04633E+00-3.71925E-15 4.12337E-13
 -1      1326 2.03226E+01 4.73087E+00-4.78205E-02 3.40881E+00 1.95677E-15 3.84970E-13
 -1      1327 2.05546E+01 3.91369E+00-2.27371E-02 3.17008E+00 8.21218E-15 3.38160E-13
 -1      1328 2.71637E+01 3.20052E+00 9.26521E-01 4.57497E+00-2.73670E-14 4.03400E-13
 -1      1329 2.19961E+01 3.51879E+00-1.81743E-01 3.87848E+00-1.61260E-14 4.24466E-13
 -1      1330 2.20930E+01 2.55921E+00-3.25058E-02 3.44924E+00-1.62006E-14 3.83971E-13
 -1      1331 2.13971E+01 3.59318E-01-7.62937E-01 1.18107E+00-2.86091E-14 4.39759E-13
 -1      1332 2.19705E+01 1.31197E-01-4.00547E-01-1.28272E+00-7.28584E-15-2.89796E-13
 -1      1333 2.06510E+01 3.06453E-01-1.64567E-01-8.03412E-01 1.29063E-15-3.08628E-13
 -1      1334 2.00559E+01 1.53521E-01-7.33894E-02-3.99799E-01 5.62397E-15-3.05750E-13
 -1      1335 1.95889E+01 9.13665E-02-1.47856E-02-3.27615E-01 4.75314E-15-3.05825E-13
 -1      1336 2.09524E+01 3.69030E-01-1.04120E-01-1.26912E+00-5.07927E-15-2.12698E-13
 -1      1337 1.92349E+01 6.47536E-02 3.14727E-03-1.32518E-01 1.78590E-15-2.98390E-13
 -1      1338 1.90840E+01 4.16631E-02 1.33511E-02-1.14570E-01 1.08507E-14-2.92714E-13
 -1      1339 1.99076E+01 1.34093E-01-3.51992E-02-4.98630E-01 6.90767E-15-1.93396E-13
 -1      1340 1.89282E+01 3.20426E-02 1.33522E-02-2.39973E-02 4.80302E-15-3.04253E-13
 -1      1341 1.89136E+01 2.00963E-02 1.12011E-02-1.43292E-02-1.45361E-14-3.14471E-13
 -1      1342 1.94382E+01 5.60977E-02-8.65553E-03-1.62820E-01-4.55365E-15-1.83614E-13
 -1      1343 1.88642E+01 1.68743E-02 8.90177E-03 3.11323E-02 7.98623E-16-2.96813E-13
 -1      1344 1.89139E+01 1.01354E-02 6.58590E-03 3.62481E-02 5.36745E-15-2.92290E-13
 -1      1345 1.92404E+01 2.55564E-02-3.77078E-03-5.14614E-04-5.88939E-16-2.06532E-13
 -1      1346 1.89238E+01 9.37655E-03 4.89881E-03 6.01356E-02-1.61579E-15-2.79134E-13
 -1      1347 1.90057E+01 4.96071E-03 3.87059E-03 6.28211E-02-1.87224E-14-2.85133E-13
 -1      1348 1.91999E+01 1.18675E-02-2.64375E-03 8.37085E-02 6.35776E-16-1.73398E-13
 -1      1349 1.90527E+01 5.20883E-03 2.72555E-03 7.60103E-02-9.01482E-15-2.82115E-13
 -1      1350 1.91556E+01 2.37451E-03 2.48186E-03 7.74889E-02-1.65856E-14-3.21034E-13
 -1      1351 1.92520E+01 5.81645E-03-1.83543E-03 1.29409E-01-1.17816E-14-1.51481E-13
 -1      1352 1.92206E+01 3.26661E-03 1.58846E-03 8.48841E-02 5.79940E-16-3.00679E-13
 -1      1353 1.93279E+01 1.86626E-03 1.88588E-03 8.56763E-02-8.74626E-15-3.12391E-13
 -1      1354 1.93597E+01 2.53028E-03-1.31296E-03 1.55021E-01-2.17644E-14-1.44640E-13
 -1      1355 1.94071E+01 2.85226E-03 1.05977E-03 9.16408E-02-2.74732E-14-3.41699E-13
 -1      1356 1.95217E+01 2.35857E-03 1.59540E-03 9.26026E-02-4.98510E-14-3.96051E-13
 -1      1357 1.94992E+01 2.33667E-03-1.04880E-03 1.71588E-01-3.54062E-14-1.33238E-13
 -1      1358 1.96132E+01 3.75101E-03 7.97838E-04 1.00008E-01-2.27417E-14-3.99704E-13
 -1      1359 1.97377E+01 3.95850E-03 1.49856E-03 1.01665E-01-1.09803E-14-4.08314E-13
 -1      1360 1.96647E+01 3.90831E-03-1.11543E-03 1.87971E-01-5.04628E-14-1.52516E-13
 -1      1361 1.98437E+01 5.84983E-03 6.51979E-04 1.13155E-01 1.20795E-14-3.77116E-13
 -1      1362 1.99848E+01 6.72680E-03 1.53975E-03 1.16089E-01 3.79009E-14-3.44036E-13
 -1      1363 1.98566E+01 7.32692E-03-1.49447E-03 2.10801E-01 2.04312E-14-1.73808E-13
 -1      1364 2.01107E+01 9.31186E-03 5.34562E-04 1.34539E-01 4.60569E-16-3.25178E-13
 -1      1365 2.02795E+01 1.08531E-02 1.64348E-03 1.39458E-01-1.85511E-14-3.26998E-13
 -1      1366 2.00818E+01 1.28606E-02-2.20315E-03 2.46663E-01 2.01924E-14-1.83344E-13
 -1      1367 2.04344E+01 1.47394E-02 4.18790E-04 1.68351E-01 4.98516E-16-3.39146E-13
 -1      1368 2.06478E+01 1.65707E-02 1.80377E-03 1.76115E-01-2.32724E-14-3.62415E-13
 -1      1369 2.03539E+01 2.09975E-02-3.32258E-03 3.03065E-01-2.62065E-14-1.66715E-13
 -1      1370 2.08554E+01 2.23164E-02-5.75322E-05 2.21962E-01-7.88779E-15-3.48502E-13
 -1      1371 2.11529E+01 2.53065E-02 1.62214E-03 2.35179E-01-2.27839E-14-3.74747E-13
 -1      1372 2.07037E+01 3.33642E-02-5.00609E-03 3.92034E-01-3.36671E-14-1.84806E-13
 -1      1373 2.14127E+01 3.29592E-02-1.18446E-03 3.00744E-01-2.91720E-14-3.72103E-13
 -1      1374 2.18010E+01 3.65523E-02 1.01418E-03 3.18682E-01-1.90238E-14-4.17505E-13
 -1      1375 2.11556E+01 5.03245E-02-7.24226E-03 5.25362E-01-4.66172E-14-2.51680E-13
 -1      1376 2.21435E+01 4.65327E-02-3.51077E-03 4.11143E-01-2.99231E-14-4.20447E-13
 -1      1377 2.26782E+01 5.00020E-02-8.91712E-04 4.36939E-01-4.26586E-14-5.21730E-13
 -1      1378 2.17346E+01 7.31870E-02-1.02114E-02 7.12562E-01-4.50005E-14-2.58091E-13
 -1      1379 2.31293E+01 6.27118E-02-7.63444E-03 5.61013E-01-5.46481E-14-5.18106E-13
 -1      1380 2.38609E+01 6.33282E-02-4.56653E-03 5.96091E-01-7.24455E-14-6.36744E-13
 -1      1381 2.24964E+01 1.00395E-01-1.42073E-02 9.69280E-01-8.67405E-14-3.63583E-13
 -1      1382 2.44444E+01 7.68244E-02-1.36611E-02 7.47954E-01-3.27143E-14-6.25690E-13
 -1      1383 2.54153E+01 6.84792E-02-9.30877E-03 7.91142E-01 8.85316E-15-6.65232E-13
 -1      1384 2.34892E+01 1.25244E-01-1.87048E-02 1.29756E+00-8.88343E-14-3.01479E-13
 -1      1385 2.61408E+01 7.55473E-02-1.87825E-02 9.43049E-01 4.39501E-14-6.32362E-13
 -1      1386 2.73422E+01 4.61012E-02-1.01657E-02 9.84643E-01 1.04769E-14-5.69669E-13
 -1      1387 2.47492E+01 1.26135E-01-2.14954E-02 1.66334E+00 5.59735E-14-3.81740E-13
 -1      1388 2.81820E+01 2.90469E-02-1.28667E-02 1.05654E+00 2.58864E-14-5.10827E-13
 -1      1389 2.94618E+01-3.95692E-02 4.92978E-03 1.06677E+00 3.80720E-14-4.09089E-13
 -1      1390 2.62696E+01 5.31069E-02-1.65881E-02 1.94654E+00 9.14332E-14-2.44315E-13
 -1      1391 3.03178E+01-1.11393E-01 2.25144E-02 8.93018E-01-6.12219E-14-4.59098E-13
 -1      1392 3.12429E+01-2.21737E-01 4.88037E-02 8.11494E-01-7.14290E-14-5.92540E-13
 -1      1393 2.79516E+01-1.78462E-01 6.24387E-03 1.87086E+00-3.15720E-14-2.66863E-13
 -1      1394 3.19385E+01-3.79398E-01 9.47378E-02 1.42601E-01-5.65485E-14-5.77724E-13
 -1      1395 3.16948E+01-4.80315E-01 9.33962E-02-1.39610E-01-5.65034E-14-6.77639E-13
 -1      1396 2.95636E+01-6.22986E-01 5.37721E-02 9.44818E-01-1.12275E-13-3.22858E-13
 -1      1397 3.18057E+01-5.77832E-01 1.35403E-01-1.25836E+00-1.17129E-14-6.31051E-13
 -1      1398 2.97528E+01-5.03689E-01 2.29499E-02-1.62696E+00-2.89352E-14-6.22252E-13
 -1      1399 3.05388E+01-1.06139E+00 8.30989E-02-1.16927E+00-3.37161E-14-3.27002E-13
 -1      1400 2.92005E+01-3.38618E-01-4.68954E-03-2.41642E+00-9.53890E-14-6.76903E-13
 -1      1401 2.62773E+01-1.98996E-03-1.98685E-01-2.52706E+00-4.65877E-14-7.08544E-13
 -1      1402 3.02632E+01-7.66474E-01 9.15460E-03-3.51347E+00-9.80049E-14-4.13843E-13
 -1      1403 2.52596E+01 4.60402E-01-3.11248E-01-2.05819E+00 1.55292E-14-7.10237E-13
 -1      1404 2.31111E+01 8.39218E-01-4.63304E-01-1.60757E+00 4.95437E-14-6.00769E-13
 -1      1405 2.88941E+01 4.67049E-01-1.83218E-01-4.06462E+00-4.45755E-14-4.49146E-13
 -1      1406 2.27551E+01 1.02414E+00-5.14622E-01 1.14575E-01 2.13607E-13-5.15116E-13
 -1      1407 2.33004E+01 9.24030E-01-4.79873E-01 7.37479E-01 2.18769E-13-2.98400E-13
 -1      1408 2.75873E+01 1.77015E+00-3.63643E-01-1.40202E+00 2.42140E-13-3.98759E-13
 -1      1409 2.40359E+01 5.28553E-01-3.90466E-01 2.24696E+00 2.60625E-14-2.72005E-13
 -1      1410 2.69955E+01 7.94239E-02-1.77722E-01 2.44732E+00-6.51978E-14-2.23599E-13
 -1      1411 2.79218E+01 1.44048E+00-3.11792E-01 2.67150E+00 2.18797E-13-3.02698E-13
 -1      1412 2.79272E+01-2.70508E-01-8.04989E-02 2.29607E+00-6.41362E-14-2.42084E-13
 -1      1413 3.06541E+01-5.38446E-01 7.14323E-02 2.00503E+00-5.91029E-14-3.40644E-13
 -1      1414 2.95421E+01-1.22276E-01-8.37217E-02 4.19234E+00-8.73190E-14-2.31842E-13
 -1      1415 3.10076E+01-5.36393E-01 8.72085E-02 9.05362E-01 7.85205E-14-4.52194E-13
 -1      1416 3.21699E+01-5.34058E-01 1.21319E-01 5.49421E-01 2.65690E-14-4.01498E-13
 -1      1417 3.05656E+01-1.01857E+00 7.07843E-02 2.50818E+00-8.96180E-14-2.76053E-13
 -1      1418 3.17804E+01-3.64583E-01 8.23418E-02-3.83754E-01-1.21118E-14-3.06775E-13
 -1      1419 3.13816E+01-2.50588E-01 5.99396E-02-5.61804E-01-2.64719E-14-2.85022E-13
 -1      1420 3.02292E+01-8.85785E-01 8.48873E-02 4.23642E-02-1.38015E-14-5.19374E-13
 -1      1421 3.06114E+01-1.32143E-01 2.81719E-02-9.76519E-01-4.75557E-14-2.25181E-13
 -1      1422 2.94608E+01-3.61325E-02 3.85985E-03-1.01058E+00-1.79787E-14-2.80068E-13
 -1      1423 2.89218E+01-4.02440E-01 3.41179E-02-1.48307E+00 1.86205E-14-2.20851E-13
 -1      1424 2.85957E+01 7.20510E-03-4.64856E-03-1.05238E+00-9.45598E-15-3.22964E-13
 -1      1425 2.73255E+01 5.91519E-02-1.61688E-02-1.02290E+00-4.56695E-14-2.92558E-13
 -1      1426 2.72606E+01-4.99568E-02-4.41843E-03-1.95753E+00-2.15652E-14-2.02276E-13
 -1      1427 2.65281E+01 6.02923E-02-1.19330E-02-9.00178E-01 5.69718E-14-1.28460E-13
 -1      1428 2.54314E+01 8.15864E-02-1.57894E-02-8.55761E-01 4.45373E-14-1.32096E-13
 -1      1429 2.56383E+01 1.01791E-01-1.91242E-02-1.83012E+00 9.78115E-14-1.41380E-13
 -1      1430 2.47692E+01 6.81549E-02-8.50752E-03-6.94704E-01-5.31493E-14-1.48812E-13
 -1      1431 2.39181E+01 7.32989E-02-1.06100E-02-6.54719E-01-9.24642E-14-2.13739E-13
 -1      1432 2.42390E+01 1.35305E-01-1.99200E-02-1.48512E+00-7.65612E-14 2.48274E-14
 -1      1433 2.33763E+01 5.66037E-02-4.36084E-03-5.03264E-01-2.39088E-14-2.65211E-13
 -1      1434 2.27323E+01 5.67193E-02-4.92822E-03-4.70598E-01 6.76247E-14-2.78885E-13
 -1      1435 2.30941E+01 1.21369E-01-1.47256E-02-1.11563E+00-9.98862E-14 1.98622E-14
 -1      1436 2.23513E+01 4.44669E-02-4.76842E-04-3.57452E-01 9.11406E-14-3.31915E-13
 -1      1437 2.19172E+01 4.15710E-02-1.82233E-03-3.35500E-01 4.88143E-14-3.07492E-13
 -1      1438 2.22184E+01 9.17435E-02-1.15534E-02-8.03763E-01 2.89005E-14 2.62185E-14
 -1      1439 2.16357E+01 3.23976E-02 8.32228E-04-2.51897E-01-1.19028E-14-3.63660E-13
 -1      1440 2.13317E+01 2.95557E-02-3.61465E-04-2.36379E-01-1.05829E-13-4.68987E-13
 -1      1441 2.15856E+01 6.68362E-02-8.09808E-03-5.73034E-01-3.32789E-14-3.25448E-13
 -1      1442 2.11276E+01 2.31644E-02 1.28154E-03-1.76353E-01-1.71113E-13-5.21630E-13
 -1      1443 2.09160E+01 2.07215E-02 2.75318E-04-1.65557E-01-9.14060E-14-7.17568E-13
 -1      1444 2.11218E+01 4.71843E-02-5.70158E-03-4.04541E-01-1.97301E-13-5.47680E-13
 -1      1445 2.07693E+01 1.63954E-02 1.27986E-03-1.23042E-01 6.25363E-14-7.39557E-13
 -1      1446 2.06227E+01 1.44625E-02 4.91550E-04-1.15556E-01 7.41642E-14-6.49537E-13
 -1      1447 2.07856E+01 3.28863E-02-4.03438E-03-2.84072E-01-6.96864E-14-5.60648E-13
 -1      1448 2.05178E+01 1.15730E-02 1.10518E-03-8.55948E-02 7.52590E-14-6.29562E-13
 -1      1449 2.04165E+01 1.00880E-02 5.10474E-04-8.03880E-02-1.09932E-14-5.99307E-13
 -1      1450 2.05436E+01 2.28312E-02-2.87313E-03-1.98760E-01 4.66641E-16-5.04578E-13
 -1      1451 2.03419E+01 8.24486E-03 9.09342E-04-5.92791E-02-9.31746E-14-5.53341E-13
 -1      1452 2.02720E+01 6.98639E-03 4.07227E-04-5.56454E-02 4.35507E-14-6.01011E-13
 -1      1453 2.03703E+01 1.58268E-02-2.07393E-03-1.38528E-01-5.12110E-14-2.50551E-13
 -1      1454 2.02171E+01 5.68230E-03 6.68098E-04-4.01722E-02-9.71369E-15-6.07625E-13
 -1      1455 2.01678E+01 4.80978E-03 3.70643E-04-3.74660E-02-1.65783E-13-6.21360E-13
 -1      1456 2.02448E+01 1.12106E-02-1.37033E-03-9.52736E-02-5.47304E-14-5.73549E-13
 -1      1457 2.01318E+01 4.10544E-03 5.35845E-04-2.70588E-02-1.76112E-13-5.89063E-13
 -1      1458 2.01005E+01 3.45977E-03 3.14389E-04-2.53030E-02-9.81608E-14-8.00346E-13
 -1      1459 2.01567E+01 7.57597E-03-1.06802E-03-6.45143E-02-2.16469E-13-4.59902E-13
 -1      1460 2.00757E+01 2.93279E-03 3.86077E-04-1.78620E-02 2.44431E-14-6.94274E-13
 -1      1461 2.00553E+01 2.48401E-03 2.41523E-04-1.65908E-02-1.03725E-14-7.68310E-13
 -1      1462 2.00973E+01 5.41022E-03-7.68365E-04-4.33306E-02-5.17421E-14-4.92049E-13
 -1      1463 2.00387E+01 2.15897E-03 2.70542E-04-1.11859E-02 1.13009E-13-1.02891E-12
 -1      1464 2.00262E+01 1.82477E-03 1.67011E-04-1.02472E-02 1.66417E-13-7.72424E-13
 -1      1465 2.00567E+01 3.91093E-03-5.69289E-04-2.80679E-02 1.02185E-14-5.63273E-13
 -1      1466 2.00157E+01 1.64830E-03 1.63008E-04-6.22097E-03 1.50334E-13-7.14857E-13
 -1      1467 2.00090E+01 1.38523E-03 9.33608E-05-5.48762E-03 1.74518E-13-4.06206E-13
 -1      1468 2.00301E+01 2.93085E-03-4.35764E-04-1.68560E-02 2.53590E-13-6.11334E-13
 -1      1469 2.00029E+01 1.30604E-03 7.06212E-05-2.41357E-03 1.39594E-13-1.43422E-13
 -1      1470 2.00008E+01 1.03841E-03 7.00287E-05-1.80710E-03-5.54298E-16-1.84395E-13
 -1      1471 2.00135E+01 2.29180E-03-3.39827E-04-8.41128E-03 3.25765E-13-6.11188E-13
 -1      1472 1.99979E+01 8.79537E-04 6.50149E-05 3.67239E-04-1.41519E-13-6.88050E-14
 -1      1473 1.99990E+01 5.92600E-04 2.99145E-04 7.32990E-04-4.81288E-14-1.67286E-13
 -1      1474 2.00045E+01 1.66223E-03-2.24239E-04-2.11006E-03 3.98357E-14-3.71225E-13
 -1      1475 1.99982E+01 4.92945E-05 3.22510E-04 1.58932E-03 1.65479E-14-2.50163E-13
 -1      1476 1.99998E+01-3.72197E-04 8.82418E-04 9.76760E-04 2.81025E-16-3.07164E-13
 -1      1477 2.00000E+01-1.96728E-03 2.48269E-04 1.52709E-03 4.62232E-13-1.23753E-13
 -1      1478 2.00009E+01 8.66582E-04 6.07050E-05 1.31691E-03-9.67102E-14-1.15222E-13
 -1      1479 2.02349E+01 7.58180E-02-1.51576E-01 4.81404E-01-7.03604E-15 4.64587E-13
 -1      1480 2.15020E+01 2.15966E-01-2.29140E-01 7.18671E-01-7.45237E-15 4.27255E-13
 -1      1481 2.17059E+01 8.81244E-01-8.52636E-02 2.05992E+00-2.39184E-14 3.83152E-13
 -1      1482 1.93113E+01 3.42800E-02-2.07361E-02 1.82960E-01-2.53617E-15 4.90764E-13
 -1      1483 1.97312E+01 1.14224E-01-6.18558E-02 2.36703E-01-1.26565E-14 4.62994E-13
 -1      1484 2.02863E+01 1.86236E-01-5.54914E-02 7.83629E-01-2.43416E-14 3.88184E-13
 -1      1485 1.89387E+01 1.68963E-02 6.05296E-03 4.94436E-02-1.81678E-14 5.11487E-13
 -1      1486 1.90750E+01 5.16823E-02 1.73451E-03 7.70335E-02-8.31540E-15 4.95402E-13
 -1      1487 1.95446E+01 6.71361E-02-1.54138E-02 2.91861E-01-1.96579E-14 3.85303E-13
 -1      1488 1.88397E+01 8.97185E-03 7.11909E-03-1.34994E-02-1.24371E-14 5.64713E-13
 -1      1489 1.88508E+01 2.59074E-02 1.15588E-02 1.86133E-03-1.54139E-14 5.32081E-13
 -1      1490 1.92189E+01 2.17411E-02-7.06758E-03 6.89454E-02-3.68334E-14 4.02425E-13
 -1      1491 1.88820E+01 4.38792E-03 4.71759E-03-4.59755E-02 1.99753E-15 5.71041E-13
 -1      1492 1.88308E+01 1.42889E-02 8.56834E-03-3.71993E-02-1.24926E-14 5.56367E-13
 -1      1493 1.91158E+01 7.90739E-03-4.90620E-03-3.90289E-02-1.29514E-14 4.24992E-13
 -1      1494 1.89991E+01 1.94778E-03 3.13262E-03-6.23273E-02 1.03227E-14 5.71426E-13
 -1      1495 1.89168E+01 8.24873E-03 5.33974E-03-5.71756E-02 7.70759E-15 5.62741E-13
 -1      1496 1.91371E+01 2.22365E-03-3.55182E-03-9.37449E-02 7.89516E-16 4.33355E-13
 -1      1497 1.91553E+01 6.57080E-04 2.25642E-03-7.00959E-02 1.22105E-14 5.43094E-13
 -1      1498 1.90583E+01 4.90296E-03 3.42008E-03-6.70437E-02 1.67425E-14 5.65490E-13
 -1      1499 1.92263E+01-3.13099E-04-2.53346E-03-1.21606E-01 9.39407E-15 4.13757E-13
 -1      1500 1.93312E+01 2.24940E-05 1.70561E-03-7.33213E-02 2.24304E-14 4.77801E-13
 -1      1501 1.92278E+01 3.01580E-03 2.31787E-03-7.14497E-02 1.23261E-14 4.98724E-13
 -1      1502 1.93533E+01-1.38255E-03-1.78304E-03-1.35064E-01 2.75111E-14 3.80570E-13
 -1      1503 1.95163E+01-2.46049E-04 1.28966E-03-7.43327E-02-1.33525E-15 4.60102E-13
 -1      1504 1.94109E+01 1.99341E-03 1.63062E-03-7.30722E-02 1.91514E-14 4.78850E-13
 -1      1505 1.95012E+01-1.67105E-03-1.29053E-03-1.40938E-01 2.67754E-14 3.47964E-13
 -1      1506 1.97052E+01-3.63425E-04 9.51542E-04-7.43536E-02 2.07616E-14 4.63249E-13
 -1      1507 1.95996E+01 1.44178E-03 1.15424E-03-7.33825E-02 1.10500E-15 4.63208E-13
 -1      1508 1.96602E+01-1.60564E-03-9.94298E-04-1.43029E-01-8.37627E-16 3.09006E-13
 -1      1509 1.98949E+01-5.20271E-04 6.92984E-04-7.37281E-02-8.00422E-16 4.82285E-13
 -1      1510 1.97902E+01 1.03568E-03 7.99709E-04-7.29396E-02 8.50169E-15 4.45020E-13
 -1      1511 1.98248E+01-1.54060E-03-8.06945E-04-1.43091E-01 7.70144E-15 3.55429E-13
 -1      1512 2.00822E+01-9.05907E-04 5.44286E-04-7.19763E-02 3.56552E-14 4.60076E-13
 -1      1513 1.99796E+01 4.57614E-04 5.28943E-04-7.14810E-02 9.55327E-15 4.46950E-13
 -1      1514 1.99909E+01-1.82485E-03-6.29819E-04-1.41176E-01 9.79089E-15 3.23625E-13
 -1      1515 2.02617E+01-1.71260E-03 5.55710E-04-6.77786E-02 4.79454E-14 4.15503E-13
 -1      1516 2.01639E+01-6.27086E-04 3.29337E-04-6.79256E-02 2.67964E-14 4.78276E-13
 -1      1517 2.01540E+01-2.82590E-03-3.53279E-04-1.35715E-01 3.64912E-14 3.55975E-13
 -1      1518 2.04235E+01-3.11791E-03 7.91668E-04-5.89758E-02 1.22656E-15 3.47334E-13
 -1      1519 2.03359E+01-2.56266E-03 2.06055E-04-6.03735E-02 1.40969E-14 4.00110E-13
 -1      1520 2.03073E+01-4.91408E-03 1.44236E-04-1.23525E-01 5.12300E-14 2.82487E-13
 -1      1521 2.05517E+01-5.23618E-03 1.31559E-03-4.26972E-02 1.02414E-15 3.44816E-13
 -1      1522 2.04833E+01-5.65030E-03 1.78146E-04-4.62027E-02 2.06272E-14 3.37799E-13
 -1      1523 2.04397E+01-8.39225E-03 9.87841E-04-9.99412E-02 3.64591E-14 2.90465E-13
 -1      1524 2.06227E+01-8.02968E-03 2.15532E-03-1.57741E-02-3.91193E-14 4.00485E-13
 -1      1525 2.05870E+01-1.00321E-02 2.69868E-04-2.24039E-02-5.15555E-14 3.49463E-13
 -1      1526 2.05349E+01-1.33497E-02 2.27888E-03-5.93280E-02-3.86076E-14 3.31202E-13
 -1      1527 2.06062E+01-1.11814E-02 3.24268E-03 2.43814E-02 1.22320E-14 3.01690E-13
 -1      1528 2.06204E+01-1.55016E-02 4.90302E-04 1.36811E-02 1.11413E-14 3.54300E-13
 -1      1529 2.05707E+01-1.94315E-02 4.03982E-03 3.73114E-03 1.19089E-14 2.74488E-13
 -1      1530 2.04687E+01-1.39624E-02 4.33508E-03 7.83082E-02-8.72507E-14 3.79527E-13
 -1      1531 2.05521E+01-2.12664E-02 7.97854E-04 6.30849E-02-4.37523E-14 3.20825E-13
 -1      1532 2.05211E+01-2.55603E-02 6.12958E-03 9.22742E-02-2.75379E-14 2.92184E-13
 -1      1533 2.01814E+01-1.51838E-02 4.95944E-03 1.42562E-01 5.74994E-14 3.56168E-13
 -1      1534 2.03503E+01-2.57692E-02 1.05861E-03 1.23463E-01-9.85583E-15 3.62751E-13
 -1      1535 2.03599E+01-2.97463E-02 8.14938E-03 2.03821E-01-1.40487E-14 3.01105E-13
 -1      1536 1.97321E+01-1.33803E-02 4.45727E-03 2.07945E-01 6.48713E-14 2.21998E-13
 -1      1537 1.99930E+01-2.67693E-02 1.03016E-03 1.87337E-01 5.76466E-14 3.38146E-13
 -1      1538 2.00691E+01-2.92399E-02 9.40029E-03 3.26905E-01 7.28159E-14 1.74793E-13
 -1      1539 1.91401E+01-7.37013E-03 2.21743E-03 2.59199E-01-3.25959E-14 2.25958E-13
 -1      1540 1.94812E+01-2.19414E-02 4.16094E-04 2.41398E-01 1.86793E-14 2.69965E-13
 -1      1541 1.96496E+01-2.13178E-02 8.99212E-03 4.39002E-01 3.74136E-14 3.59493E-13
 -1      1542 1.84668E+01 2.86507E-03-1.89326E-03 2.77746E-01-1.78972E-15 2.58727E-13
 -1      1543 1.88521E+01-1.00638E-02-9.68385E-04 2.68330E-01-2.72214E-14 2.25146E-13
 -1      1544 1.91316E+01-4.77791E-03 6.18743E-03 5.08492E-01-1.94603E-15 2.68946E-13
 -1      1545 1.78154E+01 1.54125E-02-7.10630E-03 2.48144E-01 1.25696E-14 2.48666E-13
 -1      1546 1.81852E+01 7.61737E-03-2.96588E-03 2.52070E-01 7.96238E-16 2.19318E-13
 -1      1547 1.85803E+01 1.84284E-02 9.44410E-04 5.02892E-01 2.97750E-14 3.30526E-13
 -1      1548 1.73114E+01 2.65266E-02-1.17251E-02 1.66405E-01 1.18755E-14 3.52893E-13
 -1      1549 1.75942E+01 2.68272E-02-4.94865E-03 1.85463E-01-5.58390E-14 2.22111E-13
 -1      1550 1.80896E+01 4.25987E-02-5.65826E-03 4.02589E-01-2.60642E-14 2.49373E-13
 -1      1551 1.70667E+01 3.20501E-02-1.37791E-02 4.55095E-02 7.52488E-14 2.51957E-13
 -1      1552 1.71997E+01 4.14502E-02-5.99634E-03 7.65631E-02 7.15244E-14 3.71515E-13
 -1      1553 1.77599E+01 5.98382E-02-1.15659E-02 2.14254E-01 3.23118E-14 2.84094E-13
 -1      1554 1.71402E+01 2.96185E-02-1.21290E-02-8.67060E-02-3.33453E-14 2.02446E-13
 -1      1555 1.70915E+01 4.63362E-02-5.39108E-03-5.11810E-02 5.08621E-15 2.34979E-13
 -1      1556 1.76667E+01 6.35875E-02-1.46513E-02-2.49992E-02 7.55715E-14 1.88796E-13
 -1      1557 1.75148E+01 2.01233E-02-7.24225E-03-1.97870E-01 1.79223E-14 1.95184E-13
 -1      1558 1.72958E+01 4.00618E-02-3.12292E-03-1.66807E-01-1.26184E-14 1.91945E-13
 -1      1559 1.78327E+01 5.21416E-02-1.38961E-02-2.58488E-01-1.87090E-14 1.59415E-13
 -1      1560 1.81041E+01 7.20635E-03-9.73033E-04-2.64112E-01-4.75702E-14 1.94463E-13
 -1      1561 1.77648E+01 2.56046E-02 2.30802E-05-2.44156E-01-4.30940E-14 1.42657E-13
 -1      1562 1.82191E+01 2.96881E-02-9.94575E-03-4.31920E-01-1.83213E-14 3.03234E-13
 -1      1563 1.87852E+01-4.80396E-03 4.50589E-03-2.78088E-01-8.76314E-15 1.52219E-13
 -1      1564 1.83959E+01 8.48042E-03 2.90407E-03-2.71427E-01-3.25190E-14 1.32144E-13
 -1      1565 1.87405E+01 4.06376E-03-4.59245E-03-5.13951E-01-5.48216E-15 1.63784E-13
 -1      1566 1.94394E+01-1.29267E-02 7.78105E-03-2.48305E-01-4.72864E-14 2.16539E-13
 -1      1567 1.90673E+01-6.13145E-03 4.64211E-03-2.52936E-01-1.14236E-14 1.69007E-13
 -1      1568 1.92961E+01-1.71742E-02 3.00350E-04-5.04009E-01-1.85854E-14 2.41934E-13
 -1      1569 1.99818E+01-1.63218E-02 8.60294E-03-1.92104E-01-7.23584E-14 3.68587E-13
 -1      1570 1.96747E+01-1.53465E-02 4.98253E-03-2.03745E-01-4.41374E-14 2.19259E-13
 -1      1571 1.97992E+01-2.97465E-02 3.60897E-03-4.25587E-01-3.84701E-14 4.45271E-13
 -1      1572 2.03721E+01-1.58302E-02 7.58586E-03-1.27556E-01 3.06409E-14 4.44526E-13
 -1      1573 2.01522E+01-1.88456E-02 4.23080E-03-1.41742E-01-1.34667E-14 4.23453E-13
 -1      1574 2.01952E+01-3.33073E-02 5.10488E-03-3.12047E-01-5.44595E-14 4.12061E-13
 -1      1575 2.06080E+01-1.30036E-02 5.64743E-03-6.81561E-02 1.70653E-15 3.61456E-13
 -1      1576 2.04758E+01-1.79781E-02 2.93938E-03-8.15527E-02-2.17014E-14 4.08396E-13
 -1      1577 2.04637E+01-3.01670E-02 5.16103E-03-1.93710E-01-2.04723E-14 4.03119E-13
 -1      1578 2.07125E+01-9.31196E-03 3.56721E-03-2.12105E-02-7.84910E-14 2.99074E-13
 -1      1579 2.06544E+01-1.46260E-02 1.61112E-03-3.19863E-02 2.74483E-14 3.42586E-13
 -1      1580 2.06115E+01-2.34767E-02 4.35698E-03-9.09831E-02 5.34035E-14 2.98286E-13
 -1      1581 2.07193E+01-5.76832E-03 1.81090E-03 1.12282E-02 1.75696E-14 2.61752E-13
 -1      1582 2.07158E+01-1.04237E-02 5.49950E-04 3.64490E-03-1.76276E-14 2.87075E-13
 -1      1583 2.06609E+01-1.59143E-02 3.20977E-03-1.34250E-02-1.43197E-14 3.33486E-13
 -1      1584 2.06626E+01-2.89143E-03 5.52465E-04 3.04578E-02 5.39076E-15 3.57915E-13
 -1      1585 2.06941E+01-6.44808E-03-1.42319E-04 2.58379E-02-5.00509E-14 2.37851E-13
 -1      1586 2.06400E+01-9.16607E-03 2.06799E-03 3.77344E-02-2.55928E-14 3.75705E-13
 -1      1587 2.05715E+01-8.30779E-04-2.23386E-04 3.93277E-02-5.00652E-15 2.67320E-13
 -1      1588 2.06217E+01-3.23357E-03-4.97945E-04 3.70653E-02 8.28823E-14 4.20089E-13
 -1      1589 2.05753E+01-3.98018E-03 1.11271E-03 6.61317E-02 3.24697E-15 1.82270E-13
 -1      1590 2.04677E+01 4.78736E-04-6.18878E-04 4.09874E-02 3.65654E-14 1.78095E-13
 -1      1591 2.05244E+01-9.25281E-04-6.07807E-04 4.03917E-02-3.60144E-14 1.62610E-13
 -1      1592 2.04888E+01-4.58883E-04 4.03883E-04 7.73496E-02-8.96136E-15 1.65986E-13
 -1      1593 2.03656E+01 1.19451E-03-7.54595E-04 3.82053E-02 1.14663E-13-1.02186E-13
 -1      1594 2.04209E+01 5.53960E-04-5.68797E-04 3.86598E-02 7.87396E-14 1.07636E-13
 -1      1595 2.03963E+01 1.63660E-03-6.89799E-05 7.70222E-02 1.07942E-13 3.97140E-14
 -1      1596 2.02736E+01 1.49035E-03-7.34941E-04 3.31071E-02-4.35485E-14-1.18437E-13
 -1      1597 2.03230E+01 1.37641E-03-4.58412E-04 3.41320E-02 6.03538E-14-4.02350E-14
 -1      1598 2.03081E+01 2.66500E-03-3.48348E-04 6.98799E-02 5.50425E-14 6.64325E-14
 -1      1599 2.01956E+01 1.51886E-03-6.37007E-04 2.71593E-02-2.82376E-14 1.11687E-13
 -1      1600 2.02372E+01 1.73150E-03-3.28355E-04 2.84191E-02-1.24804E-13-6.35479E-14
 -1      1601 2.02299E+01 2.97835E-03-4.84936E-04 5.94401E-02-1.12273E-13 1.85333E-13
 -1      1602 2.01328E+01 1.39829E-03-5.11887E-04 2.12700E-02-4.56013E-14 2.01333E-13
 -1      1603 2.01659E+01 1.78704E-03-2.07958E-04 2.25529E-02-4.16198E-14 1.73647E-13
 -1      1604 2.01644E+01 2.86627E-03-5.25618E-04 4.80597E-02-1.10025E-13 1.83334E-13
 -1      1605 2.00843E+01 1.21248E-03-3.91207E-04 1.59225E-02 1.38158E-13 7.18167E-14
 -1      1606 2.01096E+01 1.67537E-03-1.11067E-04 1.71129E-02 9.40517E-14 2.56601E-13
 -1      1607 2.01119E+01 2.54260E-03-5.08985E-04 3.71449E-02 1.28291E-13 2.68515E-13
 -1      1608 2.00486E+01 1.01709E-03-2.95059E-04 1.13021E-02-5.95323E-14-5.65304E-14
 -1      1609 2.00669E+01 1.49382E-03-4.33106E-05 1.23537E-02-5.40770E-15-1.38936E-14
 -1      1610 2.00716E+01 2.15401E-03-4.65221E-04 2.73952E-02 1.59291E-13 7.27146E-14
 -1      1611 2.00238E+01 8.46952E-04-2.37301E-04 7.39265E-03 8.69230E-14-2.03815E-13
 -1      1612 2.00363E+01 1.31204E-03-8.06218E-06 8.31135E-03 2.27064E-14-1.03042E-14
 -1      1613 2.00421E+01 1.79718E-03-4.17956E-04 1.90230E-02 4.79204E-14 1.40326E-13
 -1      1614 2.00084E+01 7.11939E-04-2.12414E-04 4.07839E-03-2.57347E-14-2.23989E-13
 -1      1615 2.00158E+01 1.16480E-03-5.63361E-06 4.89627E-03 2.36925E-14-1.75669E-13
 -1      1616 2.00217E+01 1.51414E-03-3.83773E-04 1.19339E-02 6.22657E-14 9.64163E-14
 -1      1617 2.00008E+01 5.73681E-04-1.38861E-04 1.23827E-03 3.11462E-14-2.53577E-13
 -1      1618 2.00039E+01 1.04259E-03-1.37659E-05 2.00413E-03-4.19322E-15-2.15262E-13
 -1      1619 2.00090E+01 1.32033E-03-3.37300E-04 5.95012E-03-4.35565E-15-3.98183E-14
 -1      1620 1.99992E+01 2.92917E-04 2.61138E-04-7.77462E-04 8.65375E-14-3.42699E-13
 -1      1621 1.99989E+01 7.22916E-04 8.27200E-05-1.89389E-04 2.10187E-14-3.35225E-13
 -1      1622 2.00023E+01 9.43608E-04-1.86522E-04 1.14802E-03 1.09549E-13-1.56562E-13
 -1      1623 1.99991E+01-5.44292E-04 4.99753E-04-8.00571E-04-1.85072E-13-1.36753E-13
 -1      1624 2.00007E+01 1.47261E-04-1.11432E-04 6.40234E-04-4.38411E-14 3.85123E-13
 -1      1625 2.00006E+01 6.93540E-05 1.82784E-04 1.66225E-04-3.01581E-13 1.15443E-13
 -1      1626 2.00007E+01 6.23546E-03-1.34037E-04 3.26019E-03 2.90609E-13 3.23033E-13
 -1      1627 2.00008E+01 3.10450E-03-8.90845E-05 2.65222E-03 9.16715E-15 2.95171E-13
 -1      1628 2.00017E+01 5.44052E-03-1.92534E-04 3.63967E-03 4.69467E-14 4.76312E-13
 -1      1629 2.00003E+01 1.67052E-02-9.09041E-05 5.32042E-03 3.39340E-13 2.32324E-14
 -1      1630 2.00005E+01 1.09663E-02-1.01021E-04 4.95428E-03 2.92785E-13 2.12582E-13
 -1      1631 2.00012E+01 1.32866E-02-2.43447E-04 8.18634E-03 3.15543E-13 3.56607E-13
 -1      1632 1.99999E+01 2.97689E-02-4.43537E-05 6.31861E-03 6.42634E-13 1.98970E-13
 -1      1633 2.00001E+01 2.26470E-02-4.98672E-05 6.21337E-03 2.44727E-13 3.78069E-13
 -1      1634 2.00006E+01 2.41490E-02-1.10158E-04 1.13126E-02 2.26441E-13 2.19594E-13
 -1      1635 1.99994E+01 4.27474E-02-1.58715E-05 6.05436E-03 3.93506E-13-4.02834E-14
 -1      1636 1.99996E+01 3.58445E-02-1.75775E-05 6.20164E-03 5.91957E-13-9.57726E-14
 -1      1637 1.99998E+01 3.63180E-02 3.12286E-05 1.22084E-02 1.02781E-13 1.11607E-13
 -1      1638 1.99990E+01 5.36280E-02 1.91641E-06 4.60696E-03 2.30103E-13 2.97257E-14
 -1      1639 1.99992E+01 4.81301E-02 4.32592E-06 4.97751E-03 2.72081E-13 5.67241E-15
 -1      1640 1.99990E+01 4.78916E-02 1.68201E-04 1.07406E-02 7.88066E-14-4.88659E-14
 -1      1641 1.99988E+01 6.01068E-02 1.02522E-05 2.25655E-03-9.35268E-15-2.09532E-13
 -1      1642 1.99989E+01 5.72465E-02 1.58702E-05 2.77638E-03 1.73975E-13-2.75211E-16
 -1      1643 1.99985E+01 5.69774E-02 2.75911E-04 7.19224E-03-1.14067E-13-1.52781E-13
 -1      1644 1.99987E+01 6.09202E-02 1.21657E-05-5.67529E-04-1.73881E-13-1.59752E-14
 -1      1645 1.99987E+01 6.13068E-02 2.00374E-05 8.23153E-06-7.04057E-14-1.15685E-13
 -1      1646 1.99982E+01 6.18655E-02 3.37734E-04 2.22589E-03-1.70362E-14-2.08810E-13
 -1      1647 1.99989E+01 5.58181E-02 6.55023E-06-3.34446E-03 9.10058E-14 1.07789E-13
 -1      1648 1.99988E+01 5.94476E-02 1.63725E-05-2.82070E-03-2.02463E-13 3.91093E-13
 -1      1649 1.99982E+01 6.16391E-02 3.42579E-04-3.25846E-03-3.02062E-14 9.28674E-14
 -1      1650 1.99992E+01 4.56734E-02-9.63794E-06-5.52729E-03-1.27547E-13-4.77516E-13
 -1      1651 1.99990E+01 5.18915E-02 3.34855E-06-5.16477E-03 1.78406E-13-2.47659E-13
 -1      1652 1.99985E+01 5.62506E-02 2.85038E-04-8.23274E-03-4.38048E-14-7.44573E-14
 -1      1653 1.99997E+01 3.26402E-02-3.66846E-05-6.62582E-03-4.37137E-13-2.49355E-14
 -1      1654 1.99994E+01 4.00759E-02-2.60122E-05-6.51098E-03-1.09863E-13-4.28184E-13
 -1      1655 1.99991E+01 4.66745E-02 1.74234E-04-1.16735E-02-8.06141E-14-5.29822E-13
 -1      1656 2.00003E+01 1.88809E-02-8.11129E-05-6.35994E-03-7.79081E-14 2.05745E-13
 -1      1657 2.00000E+01 2.61900E-02-7.28617E-05-6.54117E-03-4.65171E-13 3.13192E-13
 -1      1658 2.00000E+01 3.45295E-02 1.74489E-05-1.28221E-02 3.94944E-14 1.89049E-13
 -1      1659 2.00007E+01 7.49846E-03-1.13282E-04-4.66950E-03 2.16940E-13 1.83415E-13
 -1      1660 2.00005E+01 1.28566E-02-1.35827E-04-5.13612E-03-1.42111E-13 1.14003E-13
 -1      1661 2.00009E+01 2.18835E-02-1.49547E-04-1.12931E-02 2.11170E-14 2.26275E-13
 -1      1662 2.00009E+01 6.91335E-04-6.88518E-05-1.94604E-03 5.02107E-13-1.13277E-13
 -1      1663 2.00008E+01 2.92766E-03-1.97283E-04-2.57955E-03 3.36962E-13 2.26029E-13
 -1      1664 2.00016E+01 1.10679E-02-2.64391E-04-7.30988E-03 9.62568E-14 3.39340E-13
 -1      1665 2.00005E+01-1.15210E-03 1.57878E-04 3.74365E-04 4.81604E-13-7.78389E-14
 -1      1666 2.00007E+01-1.84234E-03-1.57547E-04-6.65512E-05 4.45235E-13-1.71069E-13
 -1      1667 2.00015E+01 4.15397E-03-2.22526E-04-2.47788E-03 9.10061E-14-2.20185E-13
 -1      1668 2.00011E+01 6.75651E-04 3.19271E-05 8.43550E-04 7.86871E-14-1.82992E-13
 -1      1669-4.53177E-01-1.40883E+01-1.50184E+00-2.57629E-01-7.06324E-13-1.47049E-13
 -1      1670-5.62352E-01-1.72638E+01-1.81588E+00 9.94987E-01-6.98830E-13-4.35763E-15
 -1      1671 2.86379E+00-6.23653E+00-8.78909E-01 2.18674E+00-3.59157E-13-6.12288E-14
 -1      1672 1.57550E+00-1.21018E+01-1.44853E+00 1.07679E+00-5.73541E-13-1.06654E-13
 -1      1673 8.73347E+00 1.70564E+00-3.09979E-01 6.11325E+00-2.14717E-13-1.08580E-13
 -1      1674 5.09566E+00-3.83227E+00-1.08795E+00 2.89252E+00-2.99316E-13-5.39568E-14
 -1      1675 2.03934E+01 6.18288E+00 4.24838E-01 1.11728E+01 7.27196E-14 4.18332E-13
 -1      1676 1.33698E+01 3.25441E+00-4.33315E-01 7.53888E+00-1.94400E-13 1.43330E-13
 -1      1677 3.53893E+01 7.13483E+00 1.13103E+00 1.36455E+01 2.93321E-13 1.85851E-13
 -1      1678 2.55556E+01 7.45527E+00 3.23033E-01 1.20690E+01 2.99094E-13 2.97762E-13
 -1      1679 4.89215E+01 4.95713E+00 1.46741E+00 9.64662E+00 5.22013E-14 6.02629E-13
 -1      1680 4.05025E+01 6.94386E+00 9.87990E-01 1.22273E+01 8.17402E-14 4.06897E-13
 -1      1681 5.49400E+01 4.04150E+00 1.58879E+00 1.58126E+00-1.99368E-13 1.00217E-12
 -1      1682 5.13744E+01 5.07027E+00 1.36950E+00 7.05289E+00-8.92342E-14 6.62692E-13
 -1      1683 5.37657E+01 4.58453E+00 1.63672E+00-6.71525E+00-2.49190E-13 1.23479E-12
 -1      1684 5.63832E+01 3.63052E+00 1.70594E+00-1.02440E+00-1.90292E-13 1.13445E-12
 -1      1685 4.22849E+01 6.98197E+00 1.18462E+00-1.27831E+01-4.14502E-13 1.05616E-12
 -1      1686 5.12021E+01 4.82475E+00 1.75561E+00-9.68796E+00-2.58626E-13 1.21358E-12
 -1      1687 2.72288E+01 7.54367E+00 4.24170E-01-1.24096E+01-1.01075E-12 1.09246E-12
 -1      1688 3.67854E+01 7.16848E+00 1.26148E+00-1.37130E+01-6.85341E-13 1.03384E-12
 -1      1689 1.42942E+01 3.34560E+00-3.98853E-01-7.74122E+00-1.05926E-12 9.77107E-13
 -1      1690 2.20337E+01 6.15388E+00 4.96602E-01-1.14654E+01-1.00486E-12 9.77218E-13
 -1      1691 5.35587E+00-3.36091E+00-1.10188E+00-3.04703E+00-1.10645E-12 7.38853E-13
 -1      1692 9.21802E+00 1.94339E+00-2.97253E-01-6.38220E+00-1.13687E-12 8.64198E-13
 -1      1693 1.44875E+00-1.15887E+01-1.55036E+00-6.31306E-01-6.44818E-13 4.61589E-13
 -1      1694 2.72013E+00-5.70588E+00-9.47384E-01-1.88769E+00-1.00830E-12 6.93834E-13
 -1      1695-3.59521E-01-1.67644E+01-1.74078E+00-8.96386E-01-1.13076E-13 3.38535E-13
 -1      1696-1.73511E-01-1.32196E+01-1.43604E+00 1.68595E-01-5.07150E-13 3.23630E-13
 -1      1697-9.00577E-01-1.60927E+01-1.65284E+00-1.68593E+00 5.37875E-13 3.84248E-13
 -1      1698-7.60048E-01-1.67251E+01-1.64942E+00-1.34557E-01 3.53328E-14 4.24938E-13
 -1      1699 8.34987E-02-1.17269E+01-1.56959E+00-1.30700E+00 7.48401E-13 3.47902E-13
 -1      1700-1.31674E-01-1.61246E+01-1.88490E+00-1.07944E+00 6.88893E-13 1.88988E-13
 -1      1701 4.97552E+00-4.05678E+00-1.07032E+00 2.33915E+00 7.24976E-13 3.60489E-13
 -1      1702 2.45544E+00-9.98643E+00-1.74568E+00-1.44596E-01 7.84151E-13 3.60822E-13
 -1      1703 1.58167E+01 2.33555E+00-2.60704E-01 7.86385E+00 4.33875E-13 2.33147E-13
 -1      1704 9.34257E+00-2.19053E+00-1.22266E+00 3.78643E+00 6.83009E-13 3.24518E-13
 -1      1705 3.20165E+01 5.45551E+00 8.14565E-01 1.21799E+01 2.10942E-13 3.68150E-13
 -1      1706 2.14715E+01 3.93931E+00-3.64587E-01 8.99544E+00 2.51132E-13 3.68372E-13
 -1      1707 5.00392E+01 4.76300E+00 1.90375E+00 1.09232E+01 2.00034E-13 2.88436E-13
 -1      1708 3.85761E+01 5.79115E+00 7.93790E-01 1.15099E+01 2.65843E-13 4.01013E-13
 -1      1709 6.21136E+01 3.80307E+00 2.69900E+00 4.43853E+00 3.42504E-14 1.57430E-13
 -1      1710 5.49153E+01 5.13010E+00 2.00322E+00 9.33587E+00 1.63189E-13 2.82441E-13
 -1      1711 6.25102E+01 3.97406E+00 2.61969E+00-4.60005E+00-3.44724E-14 1.59206E-13
 -1      1712 6.39517E+01 3.67105E+00 2.74565E+00 1.78464E+00-2.86993E-14 1.06720E-13
 -1      1713 5.06829E+01 5.68931E+00 1.72413E+00-1.10771E+01 6.81122E-14 6.86118E-14
 -1      1714 5.98588E+01 4.13423E+00 2.62914E+00-7.32179E+00 6.19366E-14 1.21236E-13
 -1      1715 3.23077E+01 4.71335E+00 2.86875E-01-9.88995E+00 2.27485E-13-9.32587E-15
 -1      1716 4.45440E+01 4.50031E+00 1.48129E+00-1.08140E+01 5.98965E-14 8.88178E-14
 -1      1717 1.71005E+01 2.01005E+00-6.90235E-01-7.22459E+00 5.50671E-14-1.87850E-13
 -1      1718 2.55332E+01 4.28898E+00 2.93335E-01-1.06289E+01 1.14353E-13-2.48246E-13
 -1      1719 7.14459E+00-3.50135E+00-1.36715E+00-2.77040E+00-7.83817E-14-1.11799E-13
 -1      1720 1.19021E+01 9.25248E-01-5.77901E-01-6.19277E+00 3.04201E-14-3.71925E-14
 -1      1721 1.82998E+00-1.06606E+01-1.80792E+00 5.66632E-01-1.58540E-13-2.49800E-15
 -1      1722 3.68390E+00-5.33337E+00-1.24122E+00-1.38677E+00-1.09468E-13 9.15934E-15
 -1      1723-2.81002E-01-1.65339E+01-1.98671E+00 1.37825E+00-3.66318E-13-1.12368E-13
 -1      1724-1.59552E-01-1.24487E+01-1.69319E+00 1.62923E+00-2.78333E-13 5.20139E-14
 -1      1725-7.98448E-01-1.79285E+01-1.85475E+00 3.49993E-01-5.85115E-13-2.72005E-14
 -1      1726-9.79271E-01-1.70837E+01-1.85182E+00 1.90217E+00-4.73899E-13-8.51541E-14
 -1      1727 1.64041E+01-1.67305E+00-1.76896E-01 7.42350E+00-1.33560E-13 3.54106E-13
 -1      1728-1.49099E+00-1.17757E+01-1.28156E+00 1.26863E+00-5.04652E-13-1.10967E-13
 -1      1729 2.00002E+01-6.73887E-04 1.71338E-04-1.01258E-03-2.28257E-13-1.12305E-13
 -1      1730 2.00014E+01 1.97683E-03 1.43065E-04 1.29317E-04 1.23260E-13 4.64133E-14
 -1      1731 1.65592E+00-9.39035E+00-9.31464E-01 3.99554E+00-3.19578E-13 7.94920E-14
 -1      1732 7.72568E+00-6.30795E+00-7.27642E-01 5.80115E+00-3.47278E-13 3.19189E-14
 -1      1733 2.69266E+01 2.35969E+00 3.95493E-01 8.31809E+00-9.32587E-15 3.41172E-13
 -1      1734 3.75308E+01 5.43651E+00 9.87400E-01 7.32759E+00 2.15453E-13 4.11893E-13
 -1      1735 4.41635E+01 7.35739E+00 1.21663E+00 3.70552E+00-8.65419E-14 6.30329E-13
 -1      1736 4.72371E+01 8.02355E+00 1.34958E+00-1.01783E-01-3.11584E-13 8.14390E-13
 -1      1737 4.64541E+01 7.37683E+00 1.49256E+00-4.24745E+00-2.16605E-13 8.81628E-13
 -1      1738 3.88577E+01 5.68484E+00 1.08442E+00-7.52111E+00-4.95382E-13 9.07385E-13
 -1      1739 2.80403E+01 2.42319E+00 4.31948E-01-8.13847E+00-8.52207E-13 7.57838E-13
 -1      1740 1.73635E+01-1.51121E+00-1.08911E-01-7.51560E+00-7.47735E-13 6.99663E-13
 -1      1741 7.96818E+00-5.90524E+00-7.06117E-01-5.67034E+00-6.44818E-13 6.43707E-13
 -1      1742 1.83472E+00-9.63151E+00-1.06428E+00-3.78848E+00-3.81806E-13 5.38680E-13
 -1      1743-1.21607E+00-1.08848E+01-1.15176E+00-1.48068E+00-1.18794E-14 6.29718E-13
 -1      1744-5.01889E-01-1.10400E+01-1.22383E+00 9.35650E-01 1.89515E-13 3.74090E-13
 -1      1745 4.14542E+00-9.53051E+00-1.15832E+00 3.18575E+00 4.53637E-13 2.32842E-13
 -1      1746 1.28917E+01-6.00099E+00-7.37579E-01 5.22863E+00 4.71512E-13 8.51541E-14
 -1      1747 2.44700E+01-1.87198E+00-9.62577E-02 6.36674E+00 3.21743E-13 1.21902E-13
 -1      1748 3.74554E+01 2.11401E+00 8.25262E-01 5.79494E+00 1.75526E-13 2.63567E-13
 -1      1749 4.81866E+01 5.54794E+00 1.72627E+00 3.37283E+00 1.75138E-13 2.79887E-13
 -1      1750 5.37464E+01 8.10045E+00 2.34532E+00 7.50345E-01 5.17364E-14 2.05613E-13
 -1      1751 5.30061E+01 7.63527E+00 2.26859E+00-1.79052E+00 3.24185E-14 8.06577E-14
 -1      1752 4.48162E+01 3.88905E+00 1.26656E+00-3.41215E+00 1.77566E-13-1.98730E-13
 -1      1753 3.33134E+01 6.46122E-02 4.54405E-01-5.33210E+00 1.45328E-13 4.31877E-14
 -1      1754 2.08468E+01-2.98569E+00-2.52556E-01-6.18102E+00-9.23706E-14-1.86740E-13
 -1      1755 1.05303E+01-6.50504E+00-8.68526E-01-4.70926E+00-1.75193E-13-7.04992E-15
 -1      1756 3.32641E+00-9.95985E+00-1.23708E+00-2.69823E+00-3.00648E-13-3.09058E-14
 -1      1757-6.84215E-01-1.20330E+01-1.38100E+00-7.26586E-01-4.34264E-13-2.08111E-13
 -1      1758 2.28319E+01 1.98259E+00-2.37573E-02-2.71706E+00-7.08114E-15-2.64400E-13
 -1      1759 1.98259E+01 3.71986E+00-3.49068E-02-2.14462E+00 6.71225E-14-8.11642E-14
 -1      1760 2.00516E+01 3.56070E+00-4.28092E-02-2.43135E+00 5.19949E-14-1.12493E-13
 -1      1761 2.03607E+01 3.18115E+00-4.51151E-02-2.57599E+00 3.95513E-14-1.36627E-13
 -1      1762 2.05742E+01 2.80721E+00-1.42386E-01-2.84467E+00 2.12851E-14-1.67054E-13
 -1      1763 2.04283E+01 2.69164E+00-3.01664E-03-2.21070E+00 4.93778E-14-1.16848E-13
 -1      1764 1.93650E+01 4.19695E+00-2.02410E-02-1.26035E+00 9.56511E-14 4.55018E-15
 -1      1765 1.94377E+01 4.15609E+00-1.70796E-02-1.48418E+00 9.54831E-14-1.21136E-14
 -1      1766 1.92686E+01 4.30560E+00-1.68382E-02-8.51468E-01 9.86607E-14 1.25212E-14
 -1      1767 1.93113E+01 4.28075E+00-1.42605E-02-1.06114E+00 9.81138E-14 5.93275E-15
 -1      1768 1.95362E+01 3.79480E+00-9.18049E-03-1.10847E+00 1.01904E-13 1.39853E-14
 -1      1769 1.92165E+01 4.36816E+00-1.48081E-02-4.61638E-01 9.81798E-14 4.39371E-14
 -1      1770 1.92388E+01 4.35474E+00-1.32353E-02-6.60402E-01 1.02084E-13 2.37622E-14
 -1      1771 1.94387E+01 3.91854E+00-9.05680E-03-7.24740E-01 1.11686E-13 1.73021E-14
 -1      1772 1.91964E+01 4.39481E+00-1.36363E-02-8.22123E-02 1.11844E-13 7.68257E-14
 -1      1773 1.92032E+01 4.39069E+00-1.31512E-02-2.75874E-01 1.09742E-13 5.69024E-14
 -1      1774 1.93875E+01 3.98526E+00-8.97638E-03-3.53585E-01 1.16798E-13 5.50272E-14
 -1      1775 1.92042E+01 4.38932E+00-1.31046E-02 2.95609E-01 1.13892E-13 9.11233E-14
 -1      1776 1.91967E+01 4.39398E+00-1.37145E-02 1.01811E-01 1.12158E-13 8.79748E-14
 -1      1777 1.93720E+01 4.00544E+00-8.95341E-03 1.09000E-02 1.20595E-13 8.56745E-14
 -1      1778 1.92414E+01 4.35073E+00-1.32382E-02 6.80731E-01 1.08679E-13 9.94864E-14
 -1      1779 1.92182E+01 4.36501E+00-1.49098E-02 4.81533E-01 1.13287E-13 8.27151E-14
 -1      1780 1.93893E+01 3.98194E+00-9.00566E-03 3.75528E-01 1.23761E-13 9.74498E-14
 -1      1781 1.93149E+01 4.27497E+00-1.42949E-02 1.07560E+00 1.04778E-13 1.15987E-13
 -1      1782 1.92715E+01 4.30029E+00-1.69953E-02 8.68834E-01 1.02573E-13 1.01747E-13
 -1      1783 1.94423E+01 3.91225E+00-9.03549E-03 7.43824E-01 1.16764E-13 1.00774E-13
 -1      1784 1.94455E+01 4.14467E+00-1.73033E-02 1.50394E+00 8.90464E-14 1.65975E-13
 -1      1785 1.93697E+01 4.18830E+00-2.05385E-02 1.27513E+00 9.05437E-14 1.42740E-13
 -1      1786 1.95422E+01 3.78496E+00-9.12315E-03 1.12476E+00 1.03962E-13 1.28985E-13
 -1      1787 1.96712E+01 3.92508E+00-2.52063E-02 1.96843E+00 6.76776E-14 2.05905E-13
 -1      1788 1.95406E+01 4.00299E+00-2.69350E-02 1.71137E+00 7.57320E-14 1.83187E-13
 -1      1789 1.97144E+01 3.57381E+00-8.76195E-03 1.52318E+00 8.15216E-14 1.72697E-13
 -1      1790 2.00785E+01 3.52291E+00-4.41649E-02 2.46523E+00 3.88040E-14 2.55330E-13
 -1      1791 1.98438E+01 3.68549E+00-3.79360E-02 2.17017E+00 5.21553E-14 2.16615E-13
 -1      1792 2.00066E+01 3.22572E+00-6.22286E-03 1.91932E+00 5.29780E-14 2.12174E-13
 -1      1793 2.09090E+01 2.66808E+00-6.19564E-02 2.84607E+00 4.64082E-15 3.26510E-13
 -1      1794 2.04081E+01 3.09947E+00-4.95762E-02 2.60353E+00 2.43408E-14 2.95805E-13
 -1      1795 2.04961E+01 2.60965E+00-6.62018E-04 2.22732E+00 2.82122E-14 2.65232E-13
 -1      1796 2.17109E+01 1.21059E+00-1.23190E-01 2.32180E+00-2.04350E-14 3.48568E-13
 -1      1797 2.12636E+01 2.27072E+00 3.29826E-03 2.73339E+00-2.61249E-15 3.32179E-13
 -1      1798 2.09494E+01 1.68870E+00-1.36309E-02 2.13622E+00 9.08128E-15 3.17770E-13
 -1      1799 2.09436E+01 7.78377E-01-6.04661E-02 1.51700E+00-2.51327E-14 3.58777E-13
 -1      1800 2.17790E+01 2.45553E+00 9.08207E-02-3.04110E+00 3.21791E-15-1.93137E-13
 -1      1801 2.01098E+01 3.00342E-01-4.78778E-03 6.55671E-01-1.57201E-14 3.54463E-13
 -1      1802 2.06370E+01 4.38719E-01-1.41973E-02 1.02635E+00-1.60288E-14 3.45641E-13
 -1      1803 2.07380E+01 8.47212E-01 5.36052E-03 1.40036E+00-1.64382E-14 3.21129E-13
 -1      1804 2.14939E+01 1.74125E+00 7.94533E-02-2.32967E+00 5.65520E-15-1.73098E-13
 -1      1805 2.05120E+01 5.01770E-01 3.25605E-02-9.13563E-01 8.47933E-15-1.52584E-13
 -1      1806 2.00842E+01 3.53724E-01 7.88383E-03-6.20882E-01 1.95208E-14-1.43458E-13
 -1      1807 1.98934E+01 2.59614E-01 2.75270E-02-3.80725E-01-3.16240E-15-1.25789E-13
 -1      1808 1.97074E+01 1.81231E-01 1.07236E-02-2.41249E-01-3.09648E-15-1.33935E-13
 -1      1809 2.02001E+01 4.86343E-01-6.06532E-03-7.09460E-01 1.60705E-14-1.04635E-13
 -1      1810 1.95907E+01 1.36722E-01 1.67985E-02-1.04690E-01-9.32414E-17-1.20573E-13
 -1      1811 1.95197E+01 9.81191E-02 7.36650E-03-3.11593E-02 1.13009E-14-1.05102E-13
 -1      1812 1.98832E+01 2.49274E-01-6.01851E-03-2.77060E-01-6.46662E-15-6.71537E-14
 -1      1813 1.94623E+01 7.47476E-02 8.97236E-03 4.69042E-02-6.20923E-15-1.08899E-13
 -1      1814 1.94581E+01 5.40068E-02 4.62554E-03 8.73460E-02-5.00750E-15-1.07240E-13
 -1      1815 1.97133E+01 1.33553E-01-4.96372E-03-3.16184E-02 2.80982E-15-3.97664E-14
 -1      1816 1.94428E+01 4.07519E-02 4.57313E-03 1.34390E-01-7.36336E-15-1.14595E-13
 -1      1817 1.94800E+01 2.97953E-02 3.21604E-03 1.58047E-01-6.79556E-15-9.88748E-14
 -1      1818 1.96442E+01 7.32094E-02-3.65612E-03 1.12809E-01-1.69988E-14-5.29329E-14
 -1      1819 1.94939E+01 2.38216E-02 2.26219E-03 1.84689E-01-2.94502E-15-1.12140E-13
 -1      1820 1.95536E+01 1.94085E-02 2.69599E-03 1.98429E-01-5.35444E-15-8.93915E-14
 -1      1821 1.96466E+01 4.08524E-02-2.83558E-03 1.98599E-01-7.78652E-15-6.83185E-14
 -1      1822 1.95869E+01 1.70665E-02 1.06816E-03 2.16946E-01-2.96095E-14-8.72766E-14
 -1      1823 1.96630E+01 1.71345E-02 2.65248E-03 2.27758E-01-4.36151E-14-6.79308E-14
 -1      1824 1.96964E+01 2.78015E-02-2.08188E-03 2.51714E-01-7.18371E-15-6.46591E-14
 -1      1825 1.97107E+01 1.79301E-02 5.29485E-04 2.44483E-01-5.26945E-14-6.38996E-14
 -1      1826 1.98009E+01 2.15540E-02 3.00413E-03 2.56722E-01-2.54858E-14-4.50634E-14
 -1      1827 1.97798E+01 2.67109E-02-1.63440E-03 2.92874E-01-3.96167E-14-2.05290E-14
 -1      1828 1.98612E+01 2.52428E-02 3.49937E-04 2.76921E-01-5.87811E-15-3.70577E-14
 -1      1829 1.99673E+01 3.23951E-02 3.78798E-03 2.94430E-01 4.69241E-14-4.66938E-14
 -1      1830 1.98899E+01 3.56787E-02-1.43281E-03 3.35344E-01-3.90909E-15 5.54152E-14
 -1      1831 2.00401E+01 3.91118E-02 3.96459E-04 3.23078E-01 3.80973E-14-7.23389E-14
 -1      1832 2.01674E+01 5.02655E-02 5.05450E-03 3.49899E-01 1.36805E-15-6.55210E-14
 -1      1833 2.00252E+01 5.45244E-02-1.41259E-03 3.90605E-01 1.77720E-14 4.25356E-14
 -1      1834 2.02546E+01 6.06558E-02 6.09100E-04 3.92339E-01-3.19740E-14-5.50124E-14
 -1      1835 2.04122E+01 7.67405E-02 7.06567E-03 4.33128E-01-3.38557E-14-5.33284E-14
 -1      1836 2.01880E+01 8.44603E-02-1.52270E-03 4.70058E-01 4.73796E-16 4.02097E-14
 -1      1837 2.05228E+01 9.24330E-02 8.21249E-04 4.98876E-01-2.10342E-14-9.61562E-14
 -1      1838 2.07332E+01 1.16162E-01 9.69556E-03 5.63772E-01-6.05956E-14-8.35029E-14
 -1      1839 2.03888E+01 1.29020E-01-1.90169E-03 5.90036E-01-5.49788E-14 1.61218E-14
 -1      1840 2.08600E+01 1.36589E-01 9.96031E-04 6.55134E-01-1.03013E-13-6.22453E-14
 -1      1841 2.11223E+01 1.66759E-01 1.27106E-02 7.44536E-01-5.88756E-14-7.04268E-14
 -1      1842 2.06324E+01 1.92035E-01-1.79710E-03 7.64331E-01-6.44222E-14 8.48900E-14
 -1      1843 2.12748E+01 1.93260E-01 7.18729E-04 8.72203E-01-1.92342E-14-8.21282E-14
 -1      1844 2.16184E+01 2.31483E-01 1.62114E-02 9.96399E-01-4.95229E-14-7.55643E-14
 -1      1845 2.09205E+01 2.73745E-01-1.74143E-03 1.00467E+00-6.48752E-14 1.38005E-13
 -1      1846 2.18004E+01 2.62414E-01-7.59829E-05 1.16811E+00-7.49765E-14-9.36241E-14
 -1      1847 2.22479E+01 3.04119E-01 1.90009E-02 1.33218E+00-6.05523E-14-8.55355E-14
 -1      1848 2.12677E+01 3.74164E-01-1.65720E-03 1.33143E+00-7.23241E-14 1.15386E-13
 -1      1849 2.24651E+01 3.32058E-01-1.56876E-03 1.55021E+00-8.54429E-14-9.93909E-14
 -1      1850 2.30356E+01 3.61932E-01 1.92224E-02 1.74813E+00-7.83679E-14-7.44968E-14
 -1      1851 2.16835E+01 4.78804E-01-1.84508E-03 1.75490E+00-7.99942E-14 1.50627E-13
 -1      1852 2.33012E+01 3.65392E-01-2.79958E-03 1.99827E+00-4.82166E-14-9.10335E-14
 -1      1853 2.39977E+01 3.44444E-01 1.40016E-02 2.19517E+00 7.24698E-14-1.36144E-13
 -1      1854 2.21824E+01 5.40380E-01-3.23189E-03 2.26254E+00-7.77408E-14 1.48089E-13
 -1      1855 2.43509E+01 2.74682E-01 2.95057E-05 2.42450E+00 1.35469E-13-2.07935E-13
 -1      1856 2.51402E+01 1.24511E-01 3.11170E-04 2.52599E+00 1.01128E-13-1.45679E-13
 -1      1857 2.28009E+01 4.44894E-01-7.85136E-03 2.78674E+00 5.98502E-14 1.41866E-14
 -1      1858 2.56818E+01-9.88386E-02 1.70177E-02 2.60393E+00-2.62637E-15-1.83385E-13
 -1      1859 2.64639E+01-4.91788E-01-2.31424E-02 2.42898E+00-1.06408E-13-1.68513E-13
 -1      1860 2.36441E+01-2.65873E-02-1.88027E-02 3.14873E+00 4.07382E-14-1.79290E-13
 -1      1861 2.74377E+01-9.84541E-01 5.19389E-02 2.08255E+00-1.02796E-13-2.62387E-13
 -1      1862 2.80782E+01-1.64930E+00-4.74533E-02 1.32853E+00 2.93515E-15-1.79349E-13
 -1      1863 2.49973E+01-1.16622E+00-3.42631E-02 2.96992E+00-8.61637E-14-2.20955E-13
 -1      1864 2.95462E+01-2.20400E+00 6.72738E-02 2.75039E-01-9.12673E-14-1.83770E-13
 -1      1865 2.97401E+01-2.58991E+00-7.11824E-02-9.98726E-01-1.34157E-13-2.74836E-13
 -1      1866 2.72289E+01-2.88955E+00-5.88073E-02 1.66114E+00-6.21725E-14-1.96083E-13
 -1      1867 3.13417E+01-2.48645E+00-9.99293E-03-2.48640E+00-1.25767E-13-3.63216E-13
 -1      1868 3.09687E+01-1.67695E+00-8.11127E-02-3.46049E+00-7.21506E-14-4.19949E-13
 -1      1869 3.02106E+01-3.75219E+00-9.73016E-02-8.04260E-01-2.11935E-13-2.03268E-13
 -1      1870 3.15969E+01-2.09014E-01-2.07953E-01-4.30480E+00-9.71306E-14-3.44863E-13
 -1      1871 3.08955E+01 1.74784E+00-1.10566E-01-3.84112E+00 2.22045E-15-3.48624E-13
 -1      1872 3.11144E+01 3.11748E+00-2.54804E-01-2.44445E+00 1.92735E-13-3.64375E-13
 -1      1873 3.08667E+01 3.95814E+00-2.11779E-01-5.34449E-01 2.92599E-13-3.38007E-13
 -1      1874 3.07821E+01 3.65012E+00-1.75825E-01 1.93428E+00 3.24185E-13-3.60864E-13
 -1      1875 3.13158E+01 1.97943E+00-2.68250E-01 3.60779E+00 1.78080E-13-3.80265E-13
 -1      1876 3.10949E+01 3.43698E-01-8.07909E-02 4.22040E+00 4.40203E-14-3.25767E-13
 -1      1877 3.16877E+01-1.42108E+00-1.45169E-01 3.92174E+00-1.34323E-13-2.36935E-13
 -1      1878 3.04924E+01-2.18673E+00-6.22981E-02 2.60846E+00-2.48079E-13-2.37954E-13
 -1      1879 3.06188E+01-2.45594E+00 1.00597E-02 1.27669E+00-1.09582E-13-3.42081E-13
 -1      1880 3.19287E+01-2.51766E+00-6.11957E-02 2.79844E+00-2.04149E-13-3.99708E-13
 -1      1881 2.91370E+01-2.08228E+00-5.16535E-02-1.22924E-01 7.25808E-14-3.67090E-13
 -1      1882 2.87664E+01-1.51621E+00 6.83739E-02-1.17877E+00 3.54439E-14-3.23661E-13
 -1      1883 2.90574E+01-3.15662E+00-4.08617E-02-9.76479E-02-4.25875E-14-2.71244E-13
 -1      1884 2.75888E+01-1.00840E+00-3.84091E-02-1.88456E+00 1.00083E-13-2.63246E-13
 -1      1885 2.68960E+01-4.67722E-01 3.63077E-02-2.33593E+00 3.72601E-14-1.74166E-13
 -1      1886 2.65877E+01-1.86390E+00-3.88211E-02-2.20666E+00 9.46049E-14-2.21753E-13
 -1      1887 2.61441E+01-1.67057E-01-1.54194E-02-2.45696E+00-8.08659E-14-1.03837E-13
 -1      1888 2.53448E+01 1.13990E-01 8.91242E-03-2.48673E+00 1.64322E-14-7.15244E-14
 -1      1889 2.48635E+01-5.10291E-01-2.51270E-02-2.96371E+00 4.20428E-14 1.97045E-14
 -1      1890 2.48559E+01 2.27783E-01 3.21319E-03-2.32919E+00 1.73626E-13-1.12204E-13
 -1      1891 2.41005E+01 3.20672E-01-1.25517E-03-2.16896E+00 1.10769E-13-1.50871E-13
 -1      1892 2.37219E+01 2.15426E-01-1.21798E-02-2.88159E+00 2.69719E-14-1.08054E-13
 -1      1893 2.37497E+01 3.36155E-01 1.37536E-02-1.92614E+00 3.11747E-14-6.12279E-14
 -1      1894 2.31066E+01 3.37850E-01-2.77199E-03-1.72042E+00-5.11527E-14-8.83842E-15
 -1      1895 2.28963E+01 4.62526E-01-4.99173E-03-2.43783E+00 8.66590E-14-1.68355E-13
 -1      1896 2.28184E+01 3.12676E-01 1.66470E-02-1.47215E+00-1.34782E-13 1.57121E-13
 -1      1897 2.22906E+01 2.82000E-01-1.11648E-03-1.27712E+00-4.22258E-14 2.03428E-13
 -1      1898 2.22386E+01 4.69814E-01-9.27364E-04-1.90479E+00 8.20177E-15 2.85943E-13
 -1      1899 2.20767E+01 2.51878E-01 1.61644E-02-1.08316E+00-4.34652E-14 2.07653E-13
 -1      1900 2.16944E+01 2.15499E-01 2.16568E-04-9.34714E-01-3.90174E-14 1.88875E-13
 -1      1901 2.17083E+01 3.87571E-01-1.22480E-03-1.42351E+00-4.71125E-14 2.80726E-13
 -1      1902 2.15213E+01 1.89040E-01 1.32571E-02-7.84984E-01-1.08620E-13-4.81172E-14
 -1      1903 2.12378E+01 1.57984E-01 8.45123E-04-6.73641E-01-2.47202E-13-1.60159E-13
 -1      1904 2.12954E+01 2.95550E-01-1.16209E-03-1.04640E+00-2.41393E-13 2.28364E-13
 -1      1905 2.11012E+01 1.37386E-01 1.02349E-02-5.62347E-01-2.40525E-13-1.77029E-13
 -1      1906 2.08942E+01 1.13354E-01 1.05595E-03-4.81295E-01-1.96508E-13-2.30670E-13
 -1      1907 2.09686E+01 2.16172E-01-1.28602E-03-7.58495E-01-2.53503E-13 1.71434E-13
 -1      1908 2.07883E+01 9.82532E-02 7.60309E-03-4.00186E-01-1.43956E-13-8.36348E-14
 -1      1909 2.06385E+01 8.05524E-02 1.03789E-03-3.42044E-01-3.09867E-14-1.74634E-13
 -1      1910 2.07144E+01 1.54890E-01-1.32223E-03-5.45213E-01-1.74645E-13 1.99542E-13
 -1      1911 2.05575E+01 6.97975E-02 5.52924E-03-2.83505E-01-2.75019E-14-1.96646E-13
 -1      1912 2.04500E+01 5.70627E-02 9.19288E-04-2.42052E-01-1.37184E-14-1.76181E-13
 -1      1913 2.05197E+01 1.09960E-01-1.25068E-03-3.89699E-01-4.48361E-14 7.82085E-14
 -1      1914 2.03889E+01 4.95617E-02 3.99339E-03-1.99975E-01-1.10568E-13-2.57600E-13
 -1      1915 2.03119E+01 4.03859E-02 7.03947E-04-1.70438E-01-2.30763E-13-2.93399E-13
 -1      1916 2.03726E+01 7.78145E-02-1.11607E-03-2.77190E-01-4.85100E-14-7.70359E-14
 -1      1917 2.02642E+01 3.47265E-02 2.80896E-03-1.38806E-01-1.05833E-13-4.63139E-13
 -1      1918 2.02078E+01 2.82107E-02 5.86499E-04-1.16983E-01-1.33299E-13-4.84552E-13
 -1      1919 2.02605E+01 5.50079E-02-7.98046E-04-1.94584E-01-1.65998E-13-2.43304E-13
 -1      1920 2.01749E+01 2.47295E-02 2.02130E-03-9.56597E-02-1.54613E-13-4.31222E-13
 -1      1921 2.01375E+01 2.01882E-02 5.05043E-04-8.08230E-02-4.38609E-14-3.00045E-13
 -1      1922 2.01780E+01 3.84692E-02-7.79109E-04-1.35037E-01-1.39258E-13-3.08113E-13
 -1      1923 2.01135E+01 1.76818E-02 1.41653E-03-6.53733E-02-1.63301E-14-1.72701E-13
 -1      1924 2.00876E+01 1.45613E-02 4.14476E-04-5.47033E-02 7.53412E-16-1.47694E-13
 -1      1925 2.01197E+01 2.75187E-02-6.13368E-04-9.34202E-02 1.56620E-14 9.56711E-15
 -1      1926 2.00704E+01 1.28262E-02 1.00144E-03-4.34660E-02-6.13107E-14-2.48499E-13
 -1      1927 2.00530E+01 1.06613E-02 3.34952E-04-3.56817E-02 1.92094E-14-2.06401E-13
 -1      1928 2.00778E+01 1.98681E-02-4.78176E-04-6.32063E-02-3.92803E-14-4.20482E-15
 -1      1929 2.00410E+01 9.48650E-03 6.95317E-04-2.74134E-02 2.17749E-13-1.92621E-13
 -1      1930 2.00298E+01 8.00030E-03 2.65045E-04-2.16336E-02 2.48759E-13-1.62905E-13
 -1      1931 2.00483E+01 1.45984E-02-3.67425E-04-4.10926E-02 1.32159E-13 1.70313E-13
 -1      1932 2.00216E+01 7.20756E-03 4.65088E-04-1.54570E-02 3.59524E-13-2.75018E-13
 -1      1933 2.00149E+01 6.10427E-03 1.98275E-04-1.11106E-02 3.10235E-13-3.04642E-13
 -1      1934 2.00279E+01 1.10478E-02-2.52450E-04-2.47239E-02 2.76201E-13 6.84988E-14
 -1      1935 2.00094E+01 5.42141E-03 3.14897E-04-6.49293E-03 1.66560E-13-2.90177E-13
 -1      1936 2.00059E+01 4.19820E-03 1.27853E-04-3.46033E-03 5.85809E-14-1.67641E-13
 -1      1937 2.00141E+01 8.26566E-03-1.84601E-04-1.25141E-02 2.43373E-13-1.01909E-13
 -1      1938 2.00023E+01 2.52599E-03 1.93217E-04-3.45391E-04 3.07460E-14-3.79733E-13
 -1      1939 1.95216E+01 1.15539E-01 9.89945E-03 1.13853E-01-2.63522E-14 3.36437E-13
 -1      1940 1.96316E+01 1.61438E-01 1.72468E-02 2.09354E-01-3.62965E-14 3.33586E-13
 -1      1941 1.94055E+01 6.19990E-02 6.47918E-03-3.29026E-02-2.04966E-14 3.46987E-13
 -1      1942 1.94334E+01 8.62051E-02 1.21280E-02 1.63333E-02-2.20067E-14 3.38158E-13
 -1      1943 1.97291E+01 1.59495E-01-4.84103E-03 1.33728E-01-2.29764E-14 2.72108E-13
 -1      1944 1.93928E+01 3.33852E-02 4.14123E-03-1.14941E-01 2.13874E-14 3.18330E-13
 -1      1945 1.93703E+01 4.65597E-02 6.44614E-03-8.83410E-02 5.15733E-15 3.25348E-13
 -1      1946 1.96086E+01 8.45625E-02-4.32483E-03-4.54713E-02 4.14924E-15 2.64219E-13
 -1      1947 1.94443E+01 1.73910E-02 2.80669E-03-1.59897E-01 1.53270E-14 3.05408E-13
 -1      1948 1.93932E+01 2.45840E-02 3.22337E-03-1.45641E-01 2.86967E-15 3.08562E-13
 -1      1949 1.95784E+01 4.42408E-02-3.21555E-03-1.47245E-01 1.61789E-14 2.43681E-13
 -1      1950 1.95348E+01 8.62798E-03 2.02503E-03-1.83861E-01 5.16001E-14 2.80996E-13
 -1      1951 1.94677E+01 1.23794E-02 1.49458E-03-1.76440E-01 2.97479E-14 3.04135E-13
 -1      1952 1.96058E+01 2.21302E-02-2.26010E-03-2.04394E-01 3.42804E-14 2.20906E-13
 -1      1953 1.96487E+01 4.05302E-03 1.51682E-03-1.96212E-01 9.15956E-15 2.96293E-13
 -1      1954 1.95729E+01 5.84682E-03 5.48369E-04-1.92459E-01 3.87546E-14 3.00156E-13
 -1      1955 1.96699E+01 1.02648E-02-1.55321E-03-2.35920E-01 3.09480E-14 2.11228E-13
 -1      1956 1.97767E+01 1.61918E-03 1.12566E-03-2.02242E-01-1.79773E-14 2.72081E-13
 -1      1957 1.96963E+01 2.49199E-03 1.94134E-05-2.00445E-01 1.10694E-14 2.91208E-13
 -1      1958 1.97576E+01 4.14875E-03-1.07210E-03-2.52969E-01 8.26025E-15 2.44809E-13
 -1      1959 1.99127E+01-3.37042E-04 7.38286E-04-2.04315E-01 9.18543E-15 2.86507E-13
 -1      1960 1.98303E+01 4.81790E-04-2.85008E-04-2.03874E-01-1.12174E-14 2.78232E-13
 -1      1961 1.98604E+01 6.95803E-04-7.51165E-04-2.61705E-01-7.18770E-15 2.36783E-13
 -1      1962 2.00520E+01-3.37618E-03 2.53455E-04-2.02309E-01 4.55721E-14 2.37855E-13
 -1      1963 1.99701E+01-1.78331E-03-4.81065E-04-2.03619E-01 3.03343E-14 2.71977E-13
 -1      1964 1.99729E+01-2.64942E-03-5.19216E-04-2.64580E-01 2.10941E-14 1.97057E-13
 -1      1965 2.01896E+01-9.05550E-03-4.22720E-04-1.93743E-01 4.16847E-14 2.42798E-13
 -1      1966 2.01112E+01-5.86060E-03-6.47657E-04-1.98186E-01 2.55065E-14 2.36828E-13
 -1      1967 2.00908E+01-8.30153E-03-3.08160E-04-2.60829E-01 5.05671E-14 1.77099E-13
 -1      1968 2.03185E+01-1.88609E-02-1.36445E-03-1.73866E-01 7.10315E-16 2.61357E-13
 -1      1969 2.02482E+01-1.32904E-02-8.40497E-04-1.83771E-01 4.45772E-14 2.67196E-13
 -1      1970 2.02099E+01-1.86318E-02-5.23747E-05-2.46659E-01 2.20653E-14 1.69422E-13
 -1      1971 2.04284E+01-3.39219E-02-2.59859E-03-1.35964E-01 8.93686E-15 3.02361E-13
 -1      1972 2.03732E+01-2.54350E-02-1.09533E-03-1.54442E-01 1.91539E-14 2.89343E-13
 -1      1973 2.03245E+01-3.57787E-02 3.12587E-04-2.15453E-01-1.65494E-14 2.31434E-13
 -1      1974 2.05049E+01-5.44400E-02-4.06251E-03-7.22678E-02-5.37001E-14 2.85087E-13
 -1      1975 2.04744E+01-4.30663E-02-1.42637E-03-1.02733E-01-2.33862E-15 3.13280E-13
 -1      1976 2.04265E+01-6.10926E-02 8.47333E-04-1.58370E-01 1.20775E-14 2.65342E-13
 -1      1977 2.05296E+01-7.88159E-02-5.55532E-03 2.41300E-02 2.83250E-14 2.53354E-13
 -1      1978 2.05355E+01-6.56475E-02-1.82296E-03-2.10639E-02-8.21695E-15 2.50059E-13
 -1      1979 2.05043E+01-9.41291E-02 1.59725E-03-6.58219E-02-2.11875E-14 2.16377E-13
 -1      1980 2.04813E+01-1.02635E-01-6.70583E-03 1.56006E-01-1.75923E-14 2.58551E-13
 -1      1981 2.05362E+01-9.03551E-02-2.24496E-03 9.55969E-02 8.87398E-15 2.39346E-13
 -1      1982 2.05426E+01-1.31243E-01 2.56586E-03 6.96778E-02 1.40229E-14 1.58762E-13
 -1      1983 2.03403E+01-1.18031E-01-7.00063E-03 3.17481E-01 5.70932E-14 2.13159E-13
 -1      1984 2.04543E+01-1.11152E-01-2.61629E-03 2.45685E-01 1.96674E-14 2.97051E-13
 -1      1985 2.05231E+01-1.64179E-01 3.66488E-03 2.48947E-01 2.22413E-14 1.57740E-13
 -1      1986 2.00943E+01-1.14399E-01-5.92162E-03 4.89356E-01-8.73693E-15 2.65229E-13
 -1      1987 2.02708E+01-1.18645E-01-2.80917E-03 4.16192E-01-1.33248E-14 2.36522E-13
 -1      1988 2.04271E+01-1.79665E-01 4.64289E-03 4.60254E-01-3.82437E-14 2.00399E-13
 -1      1989 1.97476E+01-8.15698E-02-3.21676E-03 6.36962E-01-3.77923E-14 4.40061E-13
 -1      1990 1.99780E+01-1.01857E-01-2.61482E-03 5.78990E-01-4.47125E-15 3.91055E-13
 -1      1991 2.02410E+01-1.61568E-01 5.03593E-03 6.73944E-01-9.12883E-14 2.94941E-13
 -1      1992 1.93291E+01-1.56902E-02 7.78430E-04 7.14367E-01 7.35009E-14 3.01905E-13
 -1      1993 1.95896E+01-5.28061E-02-1.75225E-03 6.91827E-01 6.51493E-14 3.74094E-13
 -1      1994 1.99651E+01-9.69572E-02 4.22887E-03 8.41398E-01 8.31445E-14 3.60850E-13
 -1      1995 1.88964E+01 7.43976E-02 5.02606E-03 6.77793E-01 4.12819E-14 3.01902E-13
 -1      1996 1.91486E+01 2.68781E-02 5.21985E-05 7.07762E-01 4.65121E-14 2.77527E-13
 -1      1997 1.96230E+01 1.46032E-02 1.73092E-03 9.03241E-01 7.52914E-14 3.44078E-13
 -1      1998 1.85293E+01 1.65213E-01 8.12299E-03 5.06128E-01-1.01997E-14 3.10606E-13
 -1      1999 1.87273E+01 1.20961E-01 2.84083E-03 5.93498E-01 4.34375E-15 3.27437E-13
 -1      2000 1.92678E+01 1.53289E-01-2.27965E-03 8.09406E-01 8.84232E-15 3.44156E-13
 -1      2001 1.83099E+01 2.25736E-01 9.03183E-03 2.18777E-01 1.24653E-13 2.19201E-13
 -1      2002 1.84124E+01 2.00731E-01 6.14775E-03 3.50028E-01 3.62280E-14 2.41458E-13
 -1      2003 1.89750E+01 2.80053E-01-6.57998E-03 5.45904E-01 2.99196E-14 3.02858E-13
 -1      2004 1.82941E+01 2.32341E-01 7.70202E-03-1.22510E-01 4.25250E-14 2.05204E-13
 -1      2005 1.82782E+01 2.36641E-01 8.90559E-03 2.26069E-02 1.26312E-13 2.44539E-13
 -1      2006 1.88202E+01 3.50821E-01-9.25850E-03 1.53618E-01 8.85000E-14 2.88289E-13
 -1      2007 1.84884E+01 1.82468E-01 5.03865E-03-4.34331E-01-2.84191E-14 1.56508E-13
 -1      2008 1.83574E+01 2.14222E-01 9.84117E-03-3.10777E-01-1.16773E-14 1.66675E-13
 -1      2009 1.88481E+01 3.38392E-01-8.92271E-03-2.77343E-01 5.56413E-14 2.69024E-13
 -1      2010 1.88462E+01 9.62013E-02 2.22736E-03-6.45356E-01-6.22466E-14 2.12239E-13
 -1      2011 1.86285E+01 1.42792E-01 8.25432E-03-5.69886E-01-3.58593E-14 1.84701E-13
 -1      2012 1.90510E+01 2.47741E-01-5.81141E-03-6.41128E-01-3.65393E-14 7.21903E-14
 -1      2013 1.92866E+01 4.42480E-03 7.15652E-05-7.22773E-01 1.46024E-14 2.02943E-13
 -1      2014 1.90258E+01 4.97486E-02 4.55558E-03-7.04061E-01 3.60638E-15 2.59397E-13
 -1      2015 1.93729E+01 1.13201E-01-1.57058E-03-8.59380E-01-3.38828E-14 1.39173E-13
 -1      2016 1.97250E+01-6.68916E-02-1.20393E-03-6.77263E-01-8.62038E-14 4.12091E-13
 -1      2017 1.94657E+01-3.46908E-02 4.73844E-05-7.06711E-01-7.46452E-14 3.13364E-13
 -1      2018 1.97353E+01-2.03529E-02 2.00767E-03-9.07750E-01-8.82884E-14 3.81480E-13
 -1      2019 2.00973E+01-1.05831E-01-1.75058E-03-5.48493E-01-7.03656E-14 4.27790E-13
 -1      2020 1.98743E+01-9.08913E-02-3.83887E-03-6.07711E-01-5.13222E-14 4.00056E-13
 -1      2021 2.00681E+01-1.18467E-01 4.00720E-03-8.13384E-01-6.83579E-14 4.35374E-13
 -1      2022 2.03700E+01-1.14120E-01-1.82974E-03-3.83874E-01-1.19739E-14 3.59538E-13
 -1      2023 2.02027E+01-1.14100E-01-6.22130E-03-4.53388E-01-6.94197E-14 4.17057E-13
 -1      2024 2.03272E+01-1.67621E-01 4.47067E-03-6.31867E-01-6.47945E-14 3.29735E-13
 -1      2025 2.05376E+01-1.01131E-01-1.64728E-03-2.22425E-01-3.31835E-14 5.33827E-13
 -1      2026 2.04305E+01-1.10612E-01-6.95011E-03-2.87417E-01 1.66004E-14 5.06317E-13
 -1      2027 2.04972E+01-1.72917E-01 3.93837E-03-4.21200E-01-3.87516E-14 4.98682E-13
 -1      2028 2.06129E+01-7.76527E-02-1.33577E-03-8.80148E-02 1.49861E-14 4.17622E-13
 -1      2029 2.05599E+01-9.11451E-02-6.39220E-03-1.40178E-01-2.63244E-15 4.39783E-13
 -1      2030 2.05833E+01-1.49114E-01 2.97623E-03-2.25090E-01-5.28397E-15 5.82401E-13
 -1      2031 2.06176E+01-5.21716E-02-9.76797E-04 9.90347E-03-2.62290E-14 4.13900E-13
 -1      2032 2.06070E+01-6.56782E-02-5.10179E-03-2.67805E-02 8.55175E-15 4.00178E-13
 -1      2033 2.06020E+01-1.11990E-01 1.96699E-03-6.78558E-02 1.05953E-14 5.52607E-13
 -1      2034 2.05746E+01-2.97706E-02-6.23951E-04 7.20055E-02-6.09781E-14 3.73035E-13
 -1      2035 2.05932E+01-4.10875E-02-3.57708E-03 4.97373E-02 1.93530E-16 3.79901E-13
 -1      2036 2.05730E+01-7.34822E-02 1.10292E-03 4.28210E-02-3.40874E-14 3.31702E-13
 -1      2037 2.05043E+01-1.25986E-02-3.13359E-04 1.04387E-01 1.38041E-13 2.28807E-13
 -1      2038 2.05401E+01-2.09460E-02-2.15607E-03 9.36545E-02 4.70799E-15 2.97804E-13
 -1      2039 2.05146E+01-4.04735E-02 4.46116E-04 1.10135E-01 3.05513E-14 3.65724E-13
 -1      2040 2.04225E+01-8.69005E-04-6.51639E-05 1.14950E-01 1.13021E-13 1.74825E-13
 -1      2041 2.04659E+01-6.34796E-03-1.01121E-03 1.12418E-01 1.18720E-13 2.42310E-13
 -1      2042 2.04416E+01-1.56504E-02-9.17063E-06 1.42622E-01 1.60928E-13 2.00889E-13
 -1      2043 2.03400E+01 6.20767E-03 1.14544E-04 1.11217E-01 1.40511E-13 4.60717E-14
 -1      2044 2.03845E+01 3.07705E-03-1.90573E-04 1.13871E-01 1.02021E-13 5.34930E-14
 -1      2045 2.03647E+01 9.87421E-04-2.96079E-04 1.50195E-01 2.10885E-13 7.26750E-14
 -1      2046 2.02637E+01 9.77143E-03 2.30482E-04 9.93101E-02-2.33227E-14 6.06012E-14
 -1      2047 2.03050E+01 8.35462E-03 3.32063E-04 1.04780E-01 7.59137E-14 6.04302E-15
 -1      2048 2.02912E+01 1.07818E-02-4.54139E-04 1.41876E-01 1.17786E-13-8.44652E-14
 -1      2049 2.01973E+01 1.09415E-02 2.93930E-04 8.36912E-02-1.12765E-13 3.65020E-14
 -1      2050 2.02332E+01 1.06530E-02 6.16540E-04 9.03012E-02-1.16640E-13 5.85091E-14
 -1      2051 2.02252E+01 1.54973E-02-5.19969E-04 1.24813E-01-7.32400E-14-1.32707E-13
 -1      2052 2.01421E+01 1.06504E-02 3.18848E-04 6.72982E-02-5.82132E-14 1.45621E-14
 -1      2053 2.01718E+01 1.10196E-02 7.29790E-04 7.39823E-02-3.65379E-14-1.61835E-14
 -1      2054 2.01687E+01 1.68117E-02-5.23883E-04 1.04113E-01-1.06966E-13-5.37989E-15
 -1      2055 2.00981E+01 9.59884E-03 3.18389E-04 5.18483E-02 2.05496E-13-6.52953E-14
 -1      2056 2.01215E+01 1.02819E-02 7.31587E-04 5.80140E-02-5.52057E-15-1.36689E-14
 -1      2057 2.01221E+01 1.60975E-02-4.89325E-04 8.30735E-02 2.90744E-14-1.47553E-13
 -1      2058 2.00642E+01 8.27267E-03 3.01992E-04 3.81669E-02 2.44554E-13 1.38558E-14
 -1      2059 2.00819E+01 9.03675E-03 6.67923E-04 4.35598E-02 3.14857E-13 6.66683E-14
 -1      2060 2.00851E+01 1.43708E-02-4.33868E-04 6.35694E-02 1.33340E-13 5.19239E-15
 -1      2061 2.00393E+01 6.98912E-03 2.73950E-04 2.64813E-02 2.03616E-14 2.25551E-13
 -1      2062 2.00520E+01 7.68644E-03 5.68946E-04 3.10710E-02 1.12971E-13 1.51870E-13
 -1      2063 2.00566E+01 1.23269E-02-3.70173E-04 4.64629E-02 1.17421E-13 3.01673E-13
 -1      2064 2.00218E+01 5.89208E-03 2.35179E-04 1.66585E-02-4.90511E-14 3.17893E-13
 -1      2065 2.00303E+01 6.48046E-03 4.53084E-04 2.05388E-02-4.05898E-14 1.92946E-13
 -1      2066 2.00354E+01 1.04028E-02-3.05227E-04 3.19509E-02 1.82939E-14 3.27190E-13
 -1      2067 2.00103E+01 4.93236E-03 1.89560E-04 8.52154E-03-2.19660E-14 1.85621E-13
 -1      2068 2.00154E+01 5.42044E-03 3.16950E-04 1.17563E-02-5.97707E-14 2.29644E-13
 -1      2069 2.00200E+01 8.68214E-03-2.78835E-04 1.99143E-02-1.21212E-14 3.36637E-13
 -1      2070 2.00038E+01 3.31003E-03 1.58936E-04 2.75094E-03 1.65520E-13-3.55650E-14
 -1      2071 2.00065E+01 4.12408E-03 2.19718E-04 4.96884E-03 1.24289E-13 9.05737E-14
 -1      2072 2.00103E+01 7.00034E-03-1.07214E-04 1.05590E-02 9.94673E-14 1.40612E-13
 -1      2073 2.00041E+01 4.63380E-03 3.54329E-05 3.89648E-03 1.87567E-13 1.97280E-13
 -1      2074 2.00012E+01 3.09571E-02-9.08127E-05 1.70584E-02 1.18526E-13 2.33109E-13
 -1      2075 2.00025E+01 2.54392E-02 1.67971E-04 1.59324E-02-2.67745E-15 1.84985E-13
 -1      2076 2.00035E+01 1.93409E-02 9.92973E-07 1.38025E-02 1.56777E-13 2.31487E-13
 -1      2077 2.00043E+01 1.46528E-02 1.16186E-04 1.15591E-02 1.14731E-13 3.89274E-13
 -1      2078 2.00044E+01 2.57389E-02-3.48423E-05 1.97885E-02-9.27804E-14 1.51310E-13
 -1      2079 2.00046E+01 7.95780E-03 1.07040E-04 6.74407E-03 1.19567E-13 3.46614E-13
 -1      2080 1.99988E+01 4.27681E-02-1.70623E-04 1.72987E-02-1.25525E-13-1.08806E-13
 -1      2081 2.00001E+01 3.71770E-02 9.47692E-05 1.75335E-02-1.08192E-13 3.06134E-13
 -1      2082 2.00010E+01 3.79293E-02 1.48479E-05 2.26072E-02-1.68690E-13 3.72518E-14
 -1      2083 1.99965E+01 5.35065E-02-2.36604E-04 1.44177E-02-7.86999E-14 8.04574E-14
 -1      2084 1.99976E+01 4.85860E-02-2.47763E-06 1.59951E-02-1.58390E-13-4.51542E-14
 -1      2085 1.99975E+01 4.99416E-02 1.13451E-04 2.16019E-02-2.32330E-13-8.41857E-14
 -1      2086 1.99948E+01 6.13209E-02-2.71958E-04 8.90743E-03-6.96675E-14-1.32293E-13
 -1      2087 1.99956E+01 5.80213E-02-1.03077E-04 1.15401E-02-1.71401E-13 5.41444E-14
 -1      2088 1.99943E+01 6.02544E-02 1.96885E-04 1.68207E-02-1.79552E-13-4.08712E-14
 -1      2089 1.99940E+01 6.49769E-02-2.65971E-04 1.71257E-03-6.48778E-14-2.96004E-13
 -1      2090 1.99943E+01 6.38938E-02-1.87159E-04 4.93917E-03-1.24124E-13-1.48535E-13
 -1      2091 1.99922E+01 6.73386E-02 2.60303E-04 9.04532E-03-1.39173E-13-1.98582E-13
 -1      2092 1.99943E+01 6.38400E-02-2.14411E-04-5.92328E-03 2.89001E-14 1.20463E-13
 -1      2093 1.99940E+01 6.51969E-02-2.41907E-04-2.67837E-03 4.20791E-14-1.25274E-13
 -1      2094 1.99914E+01 7.01360E-02 2.92476E-04-4.46486E-04-6.99920E-14-1.65017E-13
 -1      2095 1.99956E+01 5.80209E-02-1.23780E-04-1.26111E-02-9.39113E-14-2.85518E-13
 -1      2096 1.99948E+01 6.16169E-02-2.58111E-04-9.96347E-03-1.15138E-13 1.20150E-13
 -1      2097 1.99922E+01 6.81413E-02 2.84961E-04-1.00382E-02-1.36100E-13 4.82060E-14
 -1      2098 1.99978E+01 4.86067E-02-5.78764E-06-1.69874E-02-4.16165E-14-3.01498E-13
 -1      2099 1.99966E+01 5.37102E-02-2.38281E-04-1.54941E-02-1.52523E-13-3.85677E-13
 -1      2100 1.99944E+01 6.16114E-02 2.42118E-04-1.79508E-02-1.40338E-13-3.45046E-13
 -1      2101 2.00006E+01 3.67729E-02 1.11957E-04-1.82304E-02 8.51950E-14 3.24816E-13
 -1      2102 1.99991E+01 4.26612E-02-1.85036E-04-1.82131E-02 1.63805E-14 6.09637E-14
 -1      2103 1.99979E+01 5.13944E-02 1.55354E-04-2.27216E-02-1.26168E-13-8.05621E-14
 -1      2104 2.00033E+01 2.45333E-02 1.87646E-04-1.58773E-02 1.57757E-13 2.22924E-13
 -1      2105 2.00019E+01 3.01015E-02-1.10642E-04-1.74286E-02 1.27653E-13 1.67161E-13
 -1      2106 2.00020E+01 3.88336E-02 4.96271E-05-2.33558E-02 6.60000E-14 2.12896E-13
 -1      2107 2.00051E+01 1.37328E-02 2.05833E-04-1.04650E-02 1.82873E-13 2.43530E-13
 -1      2108 2.00043E+01 1.81123E-02-2.89119E-05-1.32380E-02 7.24315E-14 4.29214E-13
 -1      2109 2.00056E+01 2.58245E-02-5.26108E-05-1.95947E-02 2.20347E-14 3.40004E-13
 -1      2110 1.97234E+01 1.80421E-01 1.28150E-02 3.17481E-01-1.80828E-14 3.40224E-13
 -1      2111 1.99738E+01 2.57445E-01 1.70643E-02 4.96612E-01-8.43076E-15 3.44974E-13
 -1      2112 2.01736E+01 4.16822E-01-5.04592E-04 7.21709E-01-1.72241E-14 3.05484E-13
 -1      2113 1.99111E+01 2.67049E-01-3.92035E-03 3.88531E-01-2.62117E-14 2.97146E-13
 -1      2114 1.27587E+01-4.55742E+00-7.35850E-02 7.45184E+00-1.88738E-13 1.38708E-13
 -1      2115 9.25688E+00-5.89614E+00-1.54498E-01 6.84212E+00-2.48135E-13 1.60802E-13
 -1      2116 3.01599E+01 1.09742E+00 2.38880E-01 6.53045E+00 1.33504E-13 2.63900E-13
 -1      2117 2.50467E+01-9.79563E-01-1.08815E-01 6.28793E+00-8.39329E-14 3.89688E-13
 -1      2118 4.24872E-01-6.91602E+00-3.06882E-01 2.15103E+00-3.79363E-13-7.03326E-14
 -1      2119 3.98187E-02-7.52508E+00-3.95727E-01 5.05843E-01-3.64056E-13-1.76581E-13
 -1      2120 2.09426E+01-2.33327E+00 5.32508E-02 7.62746E+00-1.79523E-13 4.48253E-13
 -1      2121 1.60475E+01-4.32621E+00-2.66148E-01 6.95531E+00-2.08722E-13 2.64927E-13
 -1      2122 1.69862E+01-5.33564E+00-6.69882E-02 7.61718E+00-2.90323E-13 1.62537E-13
 -1      2123 1.95312E+01 4.02058E+00-2.56979E-02-1.68991E+00 7.77113E-14-3.82507E-14
 -1      2124 1.96577E+01 3.94577E+00-2.42300E-02-1.94495E+00 6.90368E-14-5.50671E-14
 -1      2125 1.99784E+01 3.25683E+00-7.97827E-03-1.89691E+00 7.12915E-14-6.15098E-14
 -1      2126 1.97022E+01 3.59083E+00-9.20743E-03-1.50520E+00 9.03411E-14-1.62613E-14
 -1      2127 3.68585E+01 4.03756E+00 2.17369E-01 4.01129E+00 1.24054E-13 5.95135E-13
 -1      2128 3.29056E+01 2.78640E+00 1.05360E-01 5.13038E+00 2.30621E-13 3.70703E-13
 -1      2129 3.90504E+01 6.92240E+00 1.15414E-01 8.81472E-01-1.73916E-13 4.56024E-13
 -1      2130 3.80551E+01 5.93751E+00 2.29039E-01 2.20402E+00 3.33344E-14 4.54581E-13
 -1      2131 4.13712E+01 7.89208E+00 3.72564E-01-5.33798E-01-2.82219E-13 4.39787E-13
 -1      2132 3.98881E+01 8.00091E+00 1.70885E-01 6.07094E-01-2.88936E-13 3.83471E-13
 -1      2133 3.87242E+01 6.17891E+00 1.90665E-01-2.44964E+00-1.90792E-13 5.72542E-13
 -1      2134 4.04943E+01 6.94765E+00 2.31940E-01-1.08595E+00-2.31926E-13 4.79949E-13
 -1      2135 3.34983E+01 3.04921E+00 4.92043E-02-4.60902E+00-5.99056E-13 6.45262E-13
 -1      2136 3.77624E+01 4.45287E+00 2.85229E-01-3.82284E+00-3.07629E-13 7.44738E-13
 -1      2137 2.58616E+01-6.79562E-01-9.84288E-02-6.09596E+00-6.50480E-13 5.69156E-13
 -1      2138 3.10360E+01 1.47083E+00 2.53593E-01-6.35294E+00-7.02660E-13 5.84310E-13
 -1      2139 1.67987E+01-4.25600E+00-2.53993E-01-6.95665E+00-4.44200E-13 5.43121E-13
 -1      2140 2.19061E+01-2.38703E+00 5.16374E-02-7.47970E+00-4.94327E-13 6.33882E-13
 -1      2141 9.27342E+00-6.20949E+00-3.29266E-01-6.47056E+00-3.80473E-13 5.35540E-13
 -1      2142 1.32531E+01-4.37536E+00-5.95938E-02-7.47002E+00-4.81393E-13 4.73122E-13
 -1      2143 1.77710E+01-5.22664E+00-1.32685E-02-7.54854E+00-2.50522E-13 4.16583E-13
 -1      2144 2.72596E+00-7.15857E+00-3.39413E-01-4.46199E+00-2.12830E-13 5.49893E-13
 -1      2145 5.29006E+00-6.11616E+00-2.15593E-01-5.84672E+00-3.86358E-13 6.42653E-13
 -1      2146 5.17774E-01-6.24926E+00-1.96491E-01-1.04855E+00 1.03285E-14 6.93945E-13
 -1      2147 1.11162E+00-6.43568E+00-2.41476E-01-2.95490E+00-1.56736E-13 6.09901E-13
 -1      2148 2.47432E+00-7.32686E+00-3.53427E-01 2.89058E+00 1.26565E-13 1.42941E-13
 -1      2149 8.62367E-01-6.95098E+00-3.04095E-01 1.40052E+00-7.41074E-15 4.29268E-13
 -1      2150 9.20812E+00-6.44219E+00-2.19790E-01 5.49817E+00 1.96954E-13 6.81261E-14
 -1      2151 5.51923E+00-7.55046E+00-4.17562E-01 4.14977E+00 1.31173E-13 1.49547E-13
 -1      2152 1.87931E+01-5.24858E+00-1.16735E-01 6.18046E+00 2.69007E-13-1.53710E-13
 -1      2153 1.34148E+01-6.92254E+00-4.41549E-01 5.35518E+00 2.88436E-13-6.48231E-14
 -1      2154 2.94798E+01-2.67970E+00 5.07362E-02 4.99566E+00 1.84130E-13 1.01696E-13
 -1      2155 2.34007E+01-4.68391E+00-3.48851E-01 4.78723E+00 2.64788E-13 3.79141E-14
 -1      2156 3.81799E+01 3.93199E-01 1.99310E-01 1.92912E+00 1.16691E-13 6.70575E-14
 -1      2157 3.30114E+01-1.44048E+00-1.13471E-01 2.72795E+00 9.63951E-14 1.30007E-13
 -1      2158 4.30621E+01 4.54713E+00 3.33266E-01-4.02214E-01 9.42579E-14 1.45051E-13
 -1      2159 3.98507E+01 2.90682E+00 1.17729E-01 3.86952E-01 1.45883E-13 6.26166E-14
 -1      2160 4.17758E+01 6.47267E+00 2.13304E-01-5.58082E-01 9.04832E-14-5.73985E-14
 -1      2161 4.06840E+01 5.66272E+00 2.78691E-02-6.23067E-01 1.21070E-13-2.12608E-14
 -1      2162 4.00918E+01 4.53807E+00-7.99027E-03 9.87727E-01 2.79332E-13-3.84914E-13
 -1      2163 4.14445E+01 5.84630E+00 1.67017E-01 1.09487E+00 2.01617E-13-2.09444E-13
 -1      2164 2.98483E+01-3.00260E+00-1.61244E-01-3.45040E+00-5.31797E-14-3.99680E-14
 -1      2165 3.50645E+01-1.29399E+00 8.35912E-02-2.34677E+00 1.13742E-13-7.06102E-14
 -1      2166 2.02406E+01-5.43984E+00-4.13595E-01-5.19881E+00-2.36033E-13-1.13187E-13
 -1      2167 2.57807E+01-3.91658E+00-5.87857E-02-5.45864E+00-1.25899E-13-2.73670E-14
 -1      2168 1.17717E+01-7.06533E+00-5.18190E-01-5.12899E+00-1.86295E-13 1.06998E-14
 -1      2169 1.64501E+01-5.42739E+00-1.83894E-01-6.03887E+00-1.45217E-13-3.93574E-14
 -1      2170 2.13811E+01-6.33427E+00-7.07243E-02-5.48573E+00-2.39864E-13-3.84970E-14
 -1      2171 4.55216E+00-8.09888E+00-5.30627E-01-3.69891E+00-4.22218E-13-2.08444E-14
 -1      2172 7.69626E+00-6.87775E+00-3.33765E-01-4.96554E+00-3.23741E-13 3.85525E-14
 -1      2173 5.66714E-01-8.06826E+00-4.52958E-01-1.24572E+00-4.83835E-13-1.36280E-13
 -1      2174 2.00044E+00-7.86288E+00-4.30439E-01-2.53474E+00-4.86278E-13-1.00919E-13
 -1      2175 4.64809E+00-5.85974E+00-2.10195E-01 5.66732E+00-2.51799E-13 2.18714E-14
 -1      2176 1.91559E+00-7.28297E+00-4.23726E-01 3.88388E+00-3.27405E-13 1.02696E-13
 -1      2177 3.42801E+01 3.37192E+00-7.21939E-02-3.31848E+00 1.39777E-13-2.31454E-13
 -1      2178 2.07250E+01 1.10869E+00-2.04261E-02-1.60848E+00 9.57914E-15-1.69491E-13
 -1      2179 3.48441E+01 5.62251E+00 1.54870E-01 8.10360E-01 3.18856E-13-3.82055E-13
 -1      2180 3.17760E+01 5.10889E-01 2.20785E-01 3.42731E+00-3.01842E-15 3.28071E-13
 -1      2181 2.06213E+01 1.33012E+00-1.89329E-02-1.66719E+00 2.32557E-14-1.23139E-13
 -1      2182 3.30547E+01-1.37888E+00-7.69477E-02-3.61495E+00 1.22402E-14-1.83076E-13
 -1      2183 3.40368E+01 1.63215E+00-7.15566E-02 3.96777E+00 2.13385E-13-5.54001E-13
 -1      2184 2.00050E+01 4.82384E-03-6.68911E-05-3.71287E-03-1.50717E-14-4.79392E-13
 -1      2185 2.00069E+01 1.26057E-02-7.69817E-06 1.22776E-02 1.37232E-13 3.42063E-13
 -1      2186 2.59208E+00-4.65798E+00-1.19197E-01 3.58484E+00-2.34923E-13 9.89209E-14
 -1      2187 2.00054E+01 7.76636E-03 1.51538E-04-6.01784E-03-1.68241E-13-5.70838E-13
 -1      2188 2.00056E+01 1.03066E-02 3.08164E-05-8.53272E-03 2.95145E-14-1.31167E-13
 -1      2189 2.00080E+01 1.64016E-02-6.71200E-05-1.44600E-02-2.37935E-14-1.07826E-13
 -1      2190 2.00095E+01 1.03340E-02 1.77286E-04-9.94164E-03-2.02118E-13-3.30132E-13
 -1      2191 1.19961E+01-4.88508E+00-5.89855E-02 7.69873E+00-1.69587E-13 1.13118E-13
 -1      2192 8.28603E+00-5.42167E+00-9.06551E-02 6.75136E+00-1.78191E-13 8.99281E-14
 -1      2193 7.67305E+00-3.99289E+00 1.17467E-01 6.73248E+00-1.54599E-13 2.00839E-13
 -1      2194 2.48966E+01-3.38245E+00 5.94669E-02 6.01591E+00-1.63924E-13 4.53415E-13
 -1      2195 1.49281E+00-5.11511E+00-2.11945E-01-6.98415E-01-4.05953E-13-1.01696E-13
 -1      2196 1.24875E+01-6.65867E+00-2.03536E-01-5.97031E+00-3.07476E-13-6.24500E-15
 -1      2197 2.96251E+01-4.80114E+00 9.61821E-02-2.89054E+00-2.45137E-13 1.13798E-14
 -1      2198 3.74865E+01 9.10512E-01 2.68461E-01-1.78587E+00 5.87863E-14-5.60663E-15
 -1      2199 3.25759E+01-3.53589E+00 1.44866E-01 1.59009E+00 9.25926E-14-1.09357E-14
 -1      2200 2.38491E+01-6.15742E+00-5.95150E-02 4.87395E+00 1.22624E-13-1.21597E-13
 -1      2201 1.41665E+01-6.43879E+00-1.12909E-01 6.13124E+00 6.80012E-14-4.34652E-14
 -1      2202 6.16181E+00-5.44825E+00-1.42045E-01 4.67840E+00-5.98410E-14 1.51879E-13
 -1      2203 2.03900E+00-4.36262E+00-1.03853E-01 3.22175E-01-8.05328E-14 5.55611E-13
 -1      2204 9.53233E+00-5.52335E+00-1.20506E-01-7.26844E+00-2.58793E-13 5.59941E-13
 -1      2205 2.56516E+01-3.17158E+00 6.79401E-02-5.71713E+00-3.96461E-13 4.08062E-13
 -1      2206 3.23846E+01 1.01377E+00 2.12980E-01-3.01743E+00-5.02463E-13 4.22107E-13
 -1      2207 3.54806E+01 5.30051E+00 2.78184E-01-6.08781E-01-3.04395E-13 2.99483E-13
 -1      2208 3.64275E+01 8.28653E+00 2.54331E-01 1.31806E-01-2.56184E-13 8.15598E-14
 -1      2209 3.52642E+01 4.77824E+00 2.58294E-01 1.02166E+00 4.27158E-14 2.60292E-13
 -1      2210 3.71191E+01 7.70173E+00 1.35312E-01 2.01225E-01-2.78000E-13 3.32401E-13
 -1      2211 3.32906E+01 7.22935E+00-3.35640E-02-5.86070E-01-2.32703E-13 1.03750E-13
 -1      2212 3.36056E+01 8.22743E+00-1.31266E-01-3.80078E-01-2.32925E-13-3.44863E-15
 -1      2213 3.42472E+00-4.58700E+00-1.33498E-01-4.40320E+00-1.67366E-13 6.82121E-13
 -1      2214 3.49316E+01-1.94382E+00 1.39048E-01 6.59702E-01 9.93788E-14-2.70450E-13
 -1      2215 3.72468E+01 1.15824E-01 1.34865E-01-3.82271E-01 1.76015E-13-2.46470E-13
 -1      2216 3.76471E+01 1.57850E+00-2.21875E-02-3.02119E-01 1.70003E-13-3.70037E-13
 -1      2217 4.23002E+01 3.72326E+00 3.73736E-01-5.34700E-02 1.52545E-13-4.45310E-13
 -1      2218 5.08638E+00-6.06478E+00-2.45591E-01-4.29567E+00-4.47087E-13-1.31339E-13
 -1      2219 3.68382E+01 5.70807E-01-3.18182E-02 2.30152E+00 7.24421E-14-6.55642E-13
 -1      2220 1.95669E+01 3.53593E+00-1.12024E-02-5.82520E-01 1.18088E-13 2.58396E-14
 -1      2221 1.96032E+01 3.48875E+00-1.04555E-02-7.65091E-01 1.17902E-13 1.33114E-14
 -1      2222 1.96504E+01 3.39816E+00-1.29012E-02-9.27926E-01 1.13466E-13 1.30625E-14
 -1      2223 1.97117E+01 3.31588E+00-1.27931E-02-1.11604E+00 1.09670E-13 1.49030E-14
 -1      2224 1.97936E+01 3.05496E+00 3.26953E-04-7.78850E-01 1.24525E-13 1.68810E-14
 -1      2225 1.95175E+01 3.62131E+00-9.62173E-03 9.85740E-02 1.24325E-13 9.89807E-14
 -1      2226 1.95171E+01 3.62213E+00-9.63059E-03-7.85263E-02 1.14995E-13 8.38218E-14
 -1      2227 1.95438E+01 3.58060E+00-9.68813E-03 4.39576E-01 1.29525E-13 9.28667E-14
 -1      2228 1.95262E+01 3.60385E+00-1.01776E-02 2.60991E-01 1.27720E-13 9.49275E-14
 -1      2229 1.96817E+01 3.24890E+00-7.20110E-04 1.66885E-01 1.20350E-13 9.55286E-14
 -1      2230 1.96065E+01 3.48116E+00-1.05550E-02 7.79346E-01 1.17539E-13 9.46803E-14
 -1      2231 1.95697E+01 3.52943E+00-1.12798E-02 5.99708E-01 1.18081E-13 8.64048E-14
 -1      2232 1.97191E+01 3.18321E+00-3.45491E-04 4.79744E-01 1.16416E-13 7.79940E-14
 -1      2233 1.97180E+01 3.30319E+00-1.28591E-02 1.12967E+00 1.02605E-13 1.33390E-13
 -1      2234 1.96549E+01 3.38828E+00-1.29764E-02 9.41597E-01 1.13868E-13 1.03410E-13
 -1      2235 1.97974E+01 3.04567E+00 3.88834E-04 7.90896E-01 1.10875E-13 9.35233E-14
 -1      2236 1.98972E+01 3.01267E+00-1.80414E-02 1.47530E+00 6.71106E-14 1.73421E-13
 -1      2237 1.97978E+01 3.15559E+00-1.53541E-02 1.28554E+00 7.87309E-14 1.50116E-13
 -1      2238 1.99281E+01 2.81532E+00 2.09414E-03 1.09403E+00 8.41948E-14 1.27638E-13
 -1      2239 2.01710E+01 2.54225E+00-2.85933E-02 1.77226E+00 3.61598E-14 2.02434E-13
 -1      2240 2.00199E+01 2.79020E+00-1.81513E-02 1.60751E+00 5.13801E-14 1.89227E-13
 -1      2241 2.01230E+01 2.45856E+00 5.84806E-03 1.36117E+00 3.83859E-14 1.66957E-13
 -1      2242 2.05823E+01 1.79656E+00-2.64676E-02 1.87888E+00 1.44173E-14 2.73611E-13
 -1      2243 2.03648E+01 2.22786E+00-1.08351E-02 1.84005E+00 2.92687E-14 2.33379E-13
 -1      2244 2.03909E+01 1.91740E+00 1.39849E-02 1.51709E+00 2.12773E-14 2.12570E-13
 -1      2245 2.07842E+01 1.06783E+00-1.77399E-02 1.58094E+00 1.01308E-15 3.08465E-13
 -1      2246 2.06735E+01 1.53658E+00 8.43007E-04 1.78109E+00 3.05658E-15 2.92343E-13
 -1      2247 2.05031E+01 1.28280E+00 5.52890E-04 1.40764E+00 7.66748E-16 2.65933E-13
 -1      2248 2.04445E+01 7.45166E-01-1.70101E-03 1.10102E+00-8.08555E-15 2.93199E-13
 -1      2249 2.04042E+01 8.59224E-01 1.32471E-02-9.85689E-01 3.56598E-14-1.02643E-13
 -1      2250 2.01958E+01 6.33705E-01-4.23406E-03-6.74138E-01 2.22513E-14-7.64400E-14
 -1      2251 2.01342E+01 4.77847E-01 1.62002E-02-4.54389E-01 8.07340E-15-5.46628E-14
 -1      2252 1.99985E+01 3.55190E-01 3.28344E-04-2.78889E-01 6.74374E-15-4.46851E-14
 -1      2253 2.02531E+01 7.55770E-01-2.37320E-03-6.70646E-01 2.41005E-14-5.64480E-14
 -1      2254 1.99397E+01 2.72679E-01 1.08860E-02-1.35924E-01 2.91325E-15-1.21642E-14
 -1      2255 1.98688E+01 2.03556E-01 1.01039E-03-3.27218E-02 2.32019E-17-2.56730E-14
 -1      2256 2.00980E+01 4.32352E-01-3.94979E-03-2.78022E-01 1.33313E-14-2.38387E-14
 -1      2257 1.98289E+01 1.55253E-01 6.36080E-03 6.09730E-02-1.27085E-14-1.10667E-14
 -1      2258 1.98052E+01 1.15845E-01 1.28338E-03 1.24788E-01-1.04747E-14-7.64533E-15
 -1      2259 1.99866E+01 2.48935E-01-3.57157E-03-2.06184E-02-9.45435E-15 1.34491E-14
 -1      2260 1.97884E+01 9.16657E-02 3.54838E-03 1.80095E-01-1.86123E-14 7.75102E-15
 -1      2261 1.97981E+01 7.20995E-02 1.62205E-03 2.17680E-01-1.69954E-15-7.01922E-15
 -1      2262 1.99253E+01 1.45001E-01-3.23949E-03 1.42593E-01-2.24051E-14 4.56957E-14
 -1      2263 1.97974E+01 6.01219E-02 1.75873E-03 2.54751E-01-2.76121E-15-6.36683E-15
 -1      2264 1.98293E+01 5.29725E-02 1.91118E-03 2.80963E-01-7.56171E-15 1.42076E-14
 -1      2265 1.99067E+01 9.29148E-02-2.47649E-03 2.45102E-01-1.42990E-14 7.18877E-14
 -1      2266 1.98409E+01 5.02736E-02 6.60508E-04 3.09424E-01-5.98336E-15 1.94043E-14
 -1      2267 1.98894E+01 5.24459E-02 2.31396E-03 3.32368E-01-1.26341E-14 6.01661E-14
 -1      2268 1.99190E+01 7.23142E-02-1.84692E-03 3.17750E-01 8.35333E-15 6.26464E-14
 -1      2269 1.99101E+01 5.74306E-02-8.84760E-05 3.59881E-01-4.25370E-15 9.15810E-14
 -1      2270 1.99729E+01 6.78589E-02 2.91513E-03 3.86022E-01 2.25704E-14 1.17200E-13
 -1      2271 1.99543E+01 7.58541E-02-1.35858E-03 3.79247E-01 2.80840E-14 1.17665E-13
 -1      2272 2.00000E+01 8.01385E-02-6.62749E-04 4.19113E-01 5.86515E-15 1.01950E-13
 -1      2273 2.00773E+01 9.89783E-02 3.77223E-03 4.54367E-01 4.29181E-16 1.02187E-13
 -1      2274 2.00065E+01 1.00553E-01-9.54135E-04 4.44640E-01 3.39681E-15 1.57454E-13
 -1      2275 2.01083E+01 1.19146E-01-1.19784E-03 4.99210E-01-1.25456E-14 5.48991E-14
 -1      2276 2.02025E+01 1.47639E-01 5.10698E-03 5.49613E-01-4.09298E-14 5.98981E-14
 -1      2277 2.00711E+01 1.46561E-01-5.42637E-04 5.27190E-01-3.72521E-14 1.21935E-13
 -1      2278 2.02366E+01 1.78879E-01-1.84195E-03 6.15917E-01-5.67168E-14 1.90170E-14
 -1      2279 2.03557E+01 2.21131E-01 6.75797E-03 6.93223E-01-5.75077E-14 5.36661E-14
 -1      2280 2.01449E+01 2.18170E-01-2.42646E-04 6.43340E-01-8.92847E-14 1.57516E-14
 -1      2281 2.03839E+01 2.62266E-01-2.68042E-03 7.82799E-01-1.95976E-14 5.45225E-14
 -1      2282 2.05225E+01 3.16703E-01 8.49983E-03 8.86869E-01-2.09019E-14 1.04797E-13
 -1      2283 2.02206E+01 3.20411E-01 8.76531E-04 8.05083E-01-4.30661E-14 8.95414E-15
 -1      2284 2.05411E+01 3.70840E-01-3.91819E-03 1.00988E+00-7.99033E-14 1.42241E-13
 -1      2285 2.07085E+01 4.40543E-01 1.07363E-02 1.15246E+00-9.34957E-14 1.52171E-13
 -1      2286 2.02859E+01 4.53799E-01 2.22560E-03 1.02243E+00-3.93956E-14 9.58562E-14
 -1      2287 2.07078E+01 5.06888E-01-5.53378E-03 1.31711E+00-7.14105E-14 2.18647E-13
 -1      2288 2.09082E+01 5.88305E-01 1.29799E-02 1.50507E+00-3.76288E-14 2.19304E-13
 -1      2289 2.03282E+01 6.22269E-01 4.17241E-03 1.31358E+00-3.77140E-14 2.24517E-13
 -1      2290 2.08778E+01 6.58800E-01-7.35838E-03 1.71860E+00-5.53784E-14 1.96457E-13
 -1      2291 2.11159E+01 7.36190E-01 1.48741E-02 1.95245E+00-9.93129E-14 2.00101E-13
 -1      2292 2.03277E+01 8.15260E-01 6.61831E-03 1.69237E+00-5.99579E-14 2.88721E-13
 -1      2293 2.10514E+01 7.85000E-01-8.29705E-03 2.21830E+00-1.04016E-13 1.92455E-13
 -1      2294 2.13376E+01 8.15314E-01 1.64241E-02 2.48220E+00-4.01012E-14 2.10903E-13
 -1      2295 2.02645E+01 9.91297E-01 8.89904E-03 2.16800E+00-1.38178E-13 3.01531E-13
 -1      2296 2.12601E+01 7.80371E-01-4.75985E-03 2.79473E+00-1.07653E-13 1.50816E-13
 -1      2297 2.16262E+01 6.68162E-01 1.84148E-02 3.03959E+00-2.24803E-14 5.00392E-15
 -1      2298 2.01390E+01 1.04298E+00 9.38712E-03 2.73988E+00-1.18043E-13 1.76256E-13
 -1      2299 2.16278E+01 4.30729E-01 1.23136E-02 3.37067E+00 1.27329E-15-1.62682E-13
 -1      2300 2.21562E+01 2.73512E-03 2.23479E-02 3.49013E+00-6.28785E-14-2.05461E-13
 -1      2301 2.00246E+01 7.41340E-01 4.15661E-03 3.38849E+00-1.29139E-13 1.67284E-14
 -1      2302 2.25140E+01-6.53534E-01 6.14145E-02 3.75229E+00-1.04427E-13-3.38458E-13
 -1      2303 2.34153E+01-1.63904E+00 3.58071E-02 3.53556E+00-1.18038E-13-2.64808E-13
 -1      2304 2.01948E+01-3.53220E-01-1.37320E-02 4.06729E+00-1.20268E-13-2.22225E-13
 -1      2305 2.45618E+01-2.78033E+00 1.21209E-01 3.44381E+00-4.25771E-14-2.61289E-13
 -1      2306 2.59715E+01-3.96650E+00 4.57093E-02 2.63253E+00-7.29972E-14-2.78857E-13
 -1      2307 2.12959E+01-2.59616E+00-3.17076E-02 4.49778E+00-1.07692E-13-2.73184E-13
 -1      2308 3.16699E+01 3.30065E-01-1.11202E-01 1.55656E+00-7.76254E-14 2.31482E-13
 -1      2309 2.95990E+01-1.52305E+00-3.01057E-02 2.53479E+00-8.33431E-14 2.30593E-13
 -1      2310 2.00108E+01 1.45098E-02 2.18711E-04 1.65345E-02 5.54700E-14 3.57447E-13
 -1      2311 2.87609E+01-4.32796E+00-1.12985E-02-7.62814E-01-1.04472E-13-2.48773E-13
 -1      2312 2.73723E+01-3.65782E+00 1.19003E-01-2.01096E+00 4.72331E-14-3.04583E-13
 -1      2313 2.50821E+01-2.69349E+00 4.24973E-03-2.93243E+00 1.56951E-13-2.65614E-13
 -1      2314 2.40870E+01-1.56365E+00 8.50067E-02-3.44662E+00 1.20102E-13-2.07666E-13
 -1      2315 2.33283E+01-7.23101E-01 1.86493E-02-3.42653E+00 4.95229E-14-2.48078E-13
 -1      2316 2.26323E+01-7.32448E-02 3.08310E-02-3.48921E+00-1.48354E-14-1.90427E-13
 -1      2317 2.14077E+01-1.39878E+00-2.76297E-02-4.15518E+00 5.93414E-14-3.00929E-13
 -1      2318 2.24111E+01 3.36317E-01 1.62948E-02-3.21835E+00-4.91447E-14-1.32152E-13
 -1      2319 2.19281E+01 5.87838E-01 3.72521E-03-3.04019E+00 6.90836E-14-1.25303E-13
 -1      2320 2.06717E+01 2.10387E-01-7.30296E-03-3.69421E+00-2.12217E-14-2.98452E-13
 -1      2321 2.19084E+01 7.09843E-01 1.51612E-02-2.71951E+00 6.09027E-14-2.12255E-13
 -1      2322 2.15403E+01 7.47765E-01-5.27196E-03-2.46143E+00 7.98157E-14-1.55528E-13
 -1      2323 2.05356E+01 8.62698E-01 4.13670E-03-3.06351E+00-7.75463E-14-2.64006E-13
 -1      2324 2.15600E+01 7.32541E-01 1.47461E-02-2.14834E+00 1.59682E-13-8.29171E-14
 -1      2325 2.12550E+01 6.80232E-01-5.79151E-03-1.88325E+00 1.53413E-13 1.23061E-13
 -1      2326 2.05580E+01 9.78175E-01 8.22821E-03-2.42670E+00 1.37181E-13-2.49528E-13
 -1      2327 2.12657E+01 6.20125E-01 1.39490E-02-1.63403E+00 1.07748E-14 2.03310E-13
 -1      2328 2.10278E+01 5.47919E-01-4.24909E-03-1.42026E+00-2.77816E-15 2.07545E-13
 -1      2329 2.05724E+01 8.61361E-01 6.43531E-03-1.86703E+00 9.69049E-14-7.47177E-14
 -1      2330 2.10159E+01 4.83591E-01 1.19853E-02-1.22177E+00-1.88856E-13 2.64202E-13
 -1      2331 2.08244E+01 4.16157E-01-2.86771E-03-1.05334E+00-3.48453E-13 1.50855E-13
 -1      2332 2.05465E+01 6.86449E-01 4.37130E-03-1.41737E+00-9.48790E-14-7.26621E-14
 -1      2333 2.07984E+01 3.61159E-01 9.68320E-03-9.00235E-01-2.12353E-13 1.67080E-13
 -1      2334 2.06472E+01 3.06572E-01-1.76519E-03-7.72713E-01-1.87958E-13 2.96581E-13
 -1      2335 2.04883E+01 5.19731E-01 2.43866E-03-1.06089E+00-2.38871E-13 4.89379E-14
 -1      2336 2.06148E+01 2.63793E-01 7.52118E-03-6.57054E-01-1.37005E-13 3.24401E-13
 -1      2337 2.04977E+01 2.22342E-01-1.01038E-03-5.62600E-01-2.05766E-14 3.25312E-13
 -1      2338 2.04142E+01 3.82862E-01 1.04451E-03-7.85896E-01-6.62317E-14 2.51586E-13
 -1      2339 2.04646E+01 1.90565E-01 5.69272E-03-4.76344E-01-1.48373E-13 2.43727E-13
 -1      2340 2.03752E+01 1.60100E-01-5.26369E-04-4.07196E-01-6.70974E-14 1.64061E-13
 -1      2341 2.03373E+01 2.78055E-01 1.85008E-04-5.77587E-01-1.00231E-13 3.62800E-13
 -1      2342 2.03447E+01 1.37048E-01 4.24291E-03-3.43347E-01-4.04682E-14 1.06521E-13
 -1      2343 2.02771E+01 1.14883E-01-3.32791E-04-2.92978E-01-5.32819E-14 1.18515E-13
 -1      2344 2.02660E+01 2.00620E-01-2.69990E-04-4.21615E-01-1.32426E-13 3.22233E-13
 -1      2345 2.02494E+01 9.74451E-02 3.08238E-03-2.43748E-01-3.06635E-14 8.36680E-14
 -1      2346 2.01975E+01 8.11690E-02-1.34985E-04-2.05805E-01-2.26686E-13-8.04846E-14
 -1      2347 2.02027E+01 1.43648E-01-3.15783E-04-3.03447E-01-1.50413E-13 2.72012E-13
 -1      2348 2.01763E+01 6.97021E-02 2.27352E-03-1.71800E-01-2.48103E-13-1.96846E-13
 -1      2349 2.01400E+01 5.85522E-02 2.45539E-05-1.45653E-01-2.47875E-14-1.66267E-13
 -1      2350 2.01501E+01 1.02249E-01-5.47348E-04-2.16154E-01-2.80853E-13 3.43630E-15
 -1      2351 2.01230E+01 5.02740E-02 1.64416E-03-1.20609E-01 1.30125E-13-1.36368E-13
 -1      2352 2.00966E+01 4.23684E-02 7.41733E-05-1.01572E-01 1.70839E-13-2.62210E-14
 -1      2353 2.01093E+01 7.38201E-02-5.16837E-04-1.53691E-01 6.31515E-14-1.68240E-13
 -1      2354 2.00834E+01 3.64977E-02 1.19069E-03-8.31446E-02 8.69798E-14 1.60608E-14
 -1      2355 2.00646E+01 3.09151E-02 9.51086E-05-6.92204E-02-1.42390E-13 5.41022E-14
 -1      2356 2.00774E+01 5.35348E-02-4.50010E-04-1.07582E-01 2.12864E-13-2.32086E-13
 -1      2357 2.00544E+01 2.68005E-02 8.54912E-04-5.56188E-02 4.50024E-14 2.86510E-13
 -1      2358 2.00412E+01 2.28897E-02 9.58670E-05-4.53472E-02 2.44755E-13 3.20892E-13
 -1      2359 2.00530E+01 3.91815E-02-3.63399E-04-7.35243E-02 1.43639E-13 6.71018E-14
 -1      2360 2.00335E+01 1.98913E-02 5.62909E-04-3.52670E-02 2.26290E-13 2.26622E-13
 -1      2361 2.00245E+01 1.72514E-02 9.98609E-05-2.77245E-02 2.68147E-13 1.47282E-13
 -1      2362 2.00345E+01 2.90322E-02-2.81857E-04-4.82944E-02 1.49295E-13 3.30322E-13
 -1      2363 2.00197E+01 1.47934E-02 3.83407E-04-2.07745E-02 2.07431E-13-6.04778E-14
 -1      2364 2.00137E+01 1.27366E-02 1.63960E-04-1.52810E-02 2.37879E-14-1.91712E-13
 -1      2365 2.00132E+01 1.58546E-02 3.55713E-05-1.78047E-02-1.41973E-13-3.89970E-13
 -1      2366 2.00220E+01 2.20386E-02-2.53307E-05-3.05667E-02 3.38434E-14 1.66468E-13
 -1      2367 1.97457E+01 7.88485E-02 1.52144E-03-1.58025E-01 2.44671E-14 2.23572E-13
 -1      2368 1.97518E+01 1.07166E-01 5.08905E-03-1.13864E-01 2.95927E-14 2.27754E-13
 -1      2369 1.97816E+01 1.40918E-01 1.73195E-03-4.49296E-02 1.27355E-14 2.34629E-13
 -1      2370 1.98276E+01 1.89929E-01 8.88708E-03 3.14923E-02 8.07373E-15 2.35424E-13
 -1      2371 1.99109E+01 1.74914E-01-3.68427E-03-5.55786E-02 3.04419E-14 2.01972E-13
 -1      2372 1.98812E+01 2.50073E-01 2.04771E-03 1.44055E-01-4.42354E-16 2.44542E-13
 -1      2373 1.99789E+01 3.33425E-01 1.09932E-02 2.77581E-01-1.05042E-14 2.57902E-13
 -1      2374 2.00012E+01 3.07524E-01-4.37745E-03 1.43095E-01 1.21641E-14 2.00875E-13
 -1      2375 1.97560E+01 4.31390E-02 1.36105E-03-2.24812E-01 3.55477E-14 2.05706E-13
 -1      2376 1.97363E+01 5.92085E-02 2.77469E-03-1.99525E-01 2.18961E-14 2.04633E-13
 -1      2377 1.98695E+01 9.80801E-02-2.88081E-03-1.77942E-01 3.57867E-14 1.88373E-13
 -1      2378 1.97982E+01 2.31132E-02 1.21444E-03-2.63861E-01 2.07639E-14 1.99931E-13
 -1      2379 1.97620E+01 3.18788E-02 1.39186E-03-2.49540E-01 4.01943E-14 2.14747E-13
 -1      2380 1.98662E+01 5.38118E-02-2.13603E-03-2.52128E-01 4.61541E-14 2.03561E-13
 -1      2381 1.98625E+01 1.20867E-02 1.05173E-03-2.86655E-01-7.78944E-15 2.18679E-13
 -1      2382 1.98158E+01 1.67879E-02 5.77691E-04-2.78635E-01 4.11258E-15 2.16088E-13
 -1      2383 1.98907E+01 2.89223E-02-1.56587E-03-2.96944E-01 1.14739E-14 2.11112E-13
 -1      2384 1.99420E+01 5.11311E-03 8.28189E-04-2.99650E-01 1.27555E-14 1.84144E-13
 -1      2385 1.98887E+01 8.24116E-03 1.30881E-04-2.95530E-01 5.18425E-15 2.19917E-13
 -1      2386 1.99356E+01 1.48181E-02-1.17113E-03-3.24193E-01-7.69382E-15 2.06828E-13
 -1      2387 2.00323E+01-2.08224E-03 4.83601E-04-3.05290E-01 4.34753E-14 1.73447E-13
 -1      2388 1.99752E+01 1.69095E-03-6.45525E-05-3.04499E-01 4.28481E-14 1.67545E-13
 -1      2389 1.99961E+01 4.96743E-03-9.18012E-04-3.40407E-01 3.85818E-14 1.46411E-13
 -1      2390 2.01298E+01-1.35909E-02-5.23039E-05-3.02411E-01 5.03288E-14 1.59041E-13
 -1      2391 2.00715E+01-7.01925E-03-8.04271E-05-3.06048E-01 5.38920E-14 1.94403E-13
 -1      2392 2.00691E+01-6.36965E-03-7.67059E-04-3.47728E-01 3.97015E-14 1.56075E-13
 -1      2393 2.02315E+01-3.33929E-02-8.47377E-04-2.86415E-01 1.78792E-14 2.14149E-13
 -1      2394 2.01747E+01-2.19430E-02 3.30595E-05-2.97161E-01 3.03675E-14 1.98126E-13
 -1      2395 2.01529E+01-2.46797E-02-6.78894E-04-3.44281E-01 4.24321E-14 2.16888E-13
 -1      2396 2.03333E+01-6.49656E-02-1.94439E-03-2.49519E-01-3.36585E-15 1.74689E-13
 -1      2397 2.02817E+01-4.68984E-02 2.30571E-04-2.71461E-01 1.21280E-14 1.95998E-13
 -1      2398 2.02463E+01-5.51565E-02-6.10059E-04-3.24345E-01 3.55991E-14 2.47605E-13
 -1      2399 2.04293E+01-1.10274E-01-3.32379E-03-1.81489E-01 4.60508E-14 1.69921E-13
 -1      2400 2.03880E+01-8.48068E-02 4.53959E-04-2.19631E-01 2.03276E-14 1.51706E-13
 -1      2401 2.03480E+01-1.01988E-01-5.03168E-04-2.78677E-01 3.08756E-14 1.11407E-13
 -1      2402 2.05108E+01-1.68010E-01-4.85102E-03-7.13988E-02-3.15776E-14 1.18178E-13
 -1      2403 2.04865E+01-1.36336E-01 6.12331E-04-1.30598E-01 1.76435E-14 1.51186E-13
 -1      2404 2.04550E+01-1.66773E-01-2.75593E-04-1.95453E-01 3.13283E-14 6.88631E-14
 -1      2405 2.05656E+01-2.31168E-01-6.21642E-03 8.90096E-02 7.39799E-14 3.69841E-14
 -1      2406 2.05661E+01-1.97787E-01 5.65850E-04 5.93714E-03 2.56413E-14 5.62112E-14
 -1      2407 2.05611E+01-2.45946E-01 1.86784E-04-6.24323E-02 3.11268E-14 5.62127E-14
 -1      2408 2.05779E+01-2.84672E-01-6.90128E-03 2.99926E-01-5.44183E-15 8.29319E-14
 -1      2409 2.06114E+01-2.58554E-01 1.32001E-04 1.95001E-01 4.11073E-14 5.34699E-14
 -1      2410 2.06553E+01-3.27525E-01 1.01074E-03 1.28912E-01 7.38480E-14 5.32988E-15
 -1      2411 2.05295E+01-3.04811E-01-6.23958E-03 5.46421E-01-8.41610E-14 1.07174E-13
 -1      2412 2.06023E+01-2.99310E-01-8.59367E-04 4.29765E-01-5.10486E-14 5.27136E-14
 -1      2413 2.07200E+01-3.88451E-01 2.25772E-03 3.76797E-01-1.38479E-14 2.69842E-14
 -1      2414 2.04046E+01-2.63339E-01-3.65512E-03 7.91858E-01-7.25613E-14 8.13249E-14
 -1      2415 2.05179E+01-2.93264E-01-2.41862E-03 6.84042E-01-9.76814E-14 5.56908E-14
 -1      2416 2.07312E+01-3.95286E-01 3.75495E-03 6.60564E-01-5.46970E-14-9.09724E-15
 -1      2417 2.01978E+01-1.38821E-01 8.69071E-04 9.76506E-01 5.59934E-14 1.32555E-13
 -1      2418 2.03442E+01-2.13515E-01-4.14912E-03 9.07524E-01-2.05363E-14 1.28924E-13
 -1      2419 2.06637E+01-3.12146E-01 4.91756E-03 9.33005E-01-4.00251E-14-1.60472E-13
 -1      2420 1.99259E+01 6.59860E-02 6.25821E-03 1.02802E+00-2.74520E-15 2.46445E-13
 -1      2421 2.00866E+01-4.79052E-02-5.16916E-03 1.03014E+00 7.50789E-14 2.10830E-13
 -1      2422 2.05033E+01-1.18092E-01 4.75716E-03 1.12005E+00-2.72269E-14 1.07023E-14
 -1      2423 1.96364E+01 3.09876E-01 1.04026E-02 8.87792E-01-1.29660E-14 3.47016E-13
 -1      2424 1.97824E+01 1.83327E-01-4.32085E-03 9.81936E-01 1.68232E-14 3.65317E-13
 -1      2425 2.02641E+01 1.70004E-01 2.29107E-03 1.13654E+00-5.42391E-14 2.52391E-13
 -1      2426 1.94022E+01 5.17419E-01 1.12156E-02 5.46055E-01 1.73832E-14 3.19884E-13
 -1      2427 1.95015E+01 4.20246E-01-9.14381E-04 7.26970E-01-1.98897E-14 3.19453E-13
 -1      2428 2.00015E+01 4.84990E-01-2.19233E-03 9.21936E-01-1.97151E-15 2.96633E-13
 -1      2429 1.92978E+01 6.09587E-01 8.14907E-03 6.46282E-02 3.07792E-14 4.26853E-13
 -1      2430 1.93257E+01 5.80306E-01 4.40027E-03 2.95055E-01 2.25067E-14 3.59044E-13
 -1      2431 1.98010E+01 7.24187E-01-6.63862E-03 4.83004E-01-2.98401E-14 3.62695E-13
 -1      2432 1.93630E+01 5.47816E-01 2.84581E-03-4.35809E-01 8.20472E-14 3.03197E-13
 -1      2433 1.93119E+01 5.98842E-01 9.38701E-03-2.13905E-01 1.33065E-13 3.63815E-13
 -1      2434 1.97417E+01 7.96049E-01-8.08395E-03-8.60742E-02 9.59176E-14 3.47593E-13
 -1      2435 1.95789E+01 3.58550E-01-2.04902E-03-8.25832E-01 2.20475E-14 1.98616E-13
 -1      2436 1.94618E+01 4.68201E-01 1.14463E-02-6.66673E-01 2.32011E-14 2.23057E-13
 -1      2437 1.98490E+01 6.71281E-01-5.49054E-03-6.32707E-01 1.01729E-13 4.19226E-13
 -1      2438 1.98780E+01 1.16349E-01-4.69145E-03-1.02361E+00-1.17527E-13 2.73848E-13
 -1      2439 1.97226E+01 2.42565E-01 9.51807E-03-9.55609E-01-4.01040E-14 2.18733E-13
 -1      2440 2.00787E+01 4.00906E-01-7.58202E-04-1.01509E+00-2.20642E-14 3.17229E-13
 -1      2441 2.01787E+01-9.91317E-02-4.85545E-03-1.02038E+00-1.16883E-13 4.14468E-13
 -1      2442 2.00170E+01 4.51478E-03 4.74785E-03-1.03999E+00-1.04772E-13 3.46438E-13
 -1      2443 2.03453E+01 8.56835E-02 3.24751E-03-1.16346E+00-1.43208E-13 3.34327E-13
 -1      2444 2.04199E+01-2.38779E-01-3.46102E-03-8.65913E-01-2.00202E-14 4.53130E-13
 -1      2445 2.02780E+01-1.78142E-01-5.81191E-04-9.47173E-01-3.90687E-14 4.91260E-13
 -1      2446 2.05691E+01-1.78145E-01 4.97052E-03-1.09425E+00-1.16906E-13 4.00663E-13
 -1      2447 2.05747E+01-2.93242E-01-1.66729E-03-6.33399E-01-8.94560E-14 3.21532E-13
 -1      2448 2.04679E+01-2.75945E-01-4.60795E-03-7.43453E-01-1.27873E-14 3.55989E-13
 -1      2449 2.07074E+01-3.37732E-01 4.60844E-03-8.79910E-01 7.01045E-16 4.57210E-13
 -1      2450 2.06451E+01-2.80753E-01-2.03954E-04-3.88668E-01-1.71202E-13 3.89889E-13
 -1      2451 2.05777E+01-2.94955E-01-6.60906E-03-4.99709E-01-1.83852E-13 2.88826E-13
 -1      2452 2.07561E+01-3.89242E-01 3.22287E-03-6.05390E-01-1.20507E-13 2.20748E-13
 -1      2453 2.06488E+01-2.29351E-01 6.80575E-04-1.75203E-01 9.81110E-14 4.85150E-13
 -1      2454 2.06173E+01-2.60144E-01-6.81222E-03-2.69655E-01 2.85505E-14 4.77426E-13
 -1      2455 2.07348E+01-3.60134E-01 1.73765E-03-3.37972E-01-1.05024E-13 1.23416E-13
 -1      2456 2.06074E+01-1.64114E-01 1.05257E-03-1.31272E-02 2.40205E-14 4.07896E-13
 -1      2457 2.06045E+01-1.99249E-01-5.86397E-03-8.34193E-02 4.87071E-14 4.60881E-13
 -1      2458 2.06694E+01-2.86942E-01 5.95488E-04-1.16929E-01 7.85622E-14 2.73375E-13
 -1      2459 2.05403E+01-1.01879E-01 1.09096E-03 9.47481E-02-5.37911E-14 2.73623E-13
 -1      2460 2.05574E+01-1.33694E-01-4.40789E-03 4.89809E-02 5.83639E-14 3.35920E-13
 -1      2461 2.05826E+01-2.00564E-01-1.20402E-04 4.32161E-02 1.02051E-13 2.09438E-13
 -1      2462 2.04620E+01-5.11905E-02 9.60982E-04 1.55527E-01 1.15502E-13 1.00957E-13
 -1      2463 2.04913E+01-7.61753E-02-2.90564E-03 1.30626E-01-4.38568E-14 9.72749E-14
 -1      2464 2.04903E+01-1.20871E-01-4.96941E-04 1.44356E-01 6.10570E-14 4.71088E-14
 -1      2465 2.03826E+01-1.45357E-02 7.75347E-04 1.80300E-01 1.91805E-13-7.01345E-14
 -1      2466 2.04176E+01-3.20237E-02-1.61434E-03 1.71091E-01 2.07535E-13 2.14081E-14
 -1      2467 2.04020E+01-5.73710E-02-6.54373E-04 1.96745E-01 1.58987E-13-9.70948E-14
 -1      2468 2.03080E+01 9.12049E-03 5.94749E-04 1.80396E-01 3.12034E-13-1.74360E-13
 -1      2469 2.03441E+01-1.75259E-03-6.33406E-04 1.81754E-01 2.46669E-13-1.73796E-14
 -1      2470 2.03225E+01-1.22928E-02-6.88699E-04 2.13249E-01 2.38612E-13-6.11967E-14
 -1      2471 2.02416E+01 2.23703E-02 4.44470E-04 1.65479E-01 7.55112E-14-1.45881E-13
 -1      2472 2.02757E+01 1.66214E-02 3.54022E-05 1.73112E-01 2.17209E-13-1.17457E-13
 -1      2473 2.02538E+01 1.62182E-02-6.61125E-04 2.06022E-01 2.36713E-13 3.85987E-14
 -1      2474 2.01847E+01 2.81307E-02 3.29916E-04 1.42894E-01-2.00072E-13-1.22769E-14
 -1      2475 2.02151E+01 2.59657E-02 4.39215E-04 1.53589E-01-1.07645E-13-1.48388E-13
 -1      2476 2.01960E+01 3.17117E-02-6.05535E-04 1.84994E-01-3.64323E-14 4.64082E-14
 -1      2477 2.01376E+01 2.90125E-02 2.47707E-04 1.17718E-01-8.30021E-14-6.41616E-14
 -1      2478 2.01635E+01 2.91086E-02 6.41455E-04 1.29292E-01-1.25337E-13-4.90803E-14
 -1      2479 2.01485E+01 3.79803E-02-5.39009E-04 1.57488E-01-1.70037E-13-5.59861E-14
 -1      2480 2.00996E+01 2.70818E-02 1.91926E-04 9.31192E-02 5.15788E-14-8.06491E-14
 -1      2481 2.01208E+01 2.84209E-02 7.03790E-04 1.04243E-01 2.44402E-14-1.47651E-14
 -1      2482 2.01102E+01 3.83405E-02-4.69151E-04 1.28435E-01-7.93527E-14-9.60804E-14
 -1      2483 2.00697E+01 2.38320E-02 1.56269E-04 7.08193E-02 1.12837E-14 9.31998E-14
 -1      2484 2.00865E+01 2.56986E-02 6.78659E-04 8.08010E-02 4.12319E-15-7.97110E-14
 -1      2485 2.00799E+01 3.53763E-02-3.99103E-04 1.00824E-01-9.01537E-15-1.24708E-13
 -1      2486 2.00468E+01 2.02489E-02 1.27682E-04 5.15367E-02 1.32985E-13 2.64342E-13
 -1      2487 2.00596E+01 2.21819E-02 6.02862E-04 6.01173E-02 4.14349E-14 2.31374E-13
 -1      2488 2.00563E+01 3.09095E-02-3.39993E-04 7.62242E-02-7.31466E-14-3.39603E-14
 -1      2489 2.00297E+01 1.69463E-02 1.14863E-04 3.53784E-02 4.98595E-14 3.02925E-13
 -1      2490 2.00392E+01 1.86794E-02 5.10052E-04 4.25604E-02 2.15852E-13 3.76391E-13
 -1      2491 2.00381E+01 2.61053E-02-3.05074E-04 5.52046E-02 1.11821E-13 3.73942E-14
 -1      2492 2.00172E+01 1.41271E-02 1.63705E-04 2.21970E-02 7.88092E-14 2.17392E-13
 -1      2493 2.00239E+01 1.55923E-02 4.40355E-04 2.79521E-02-2.42502E-14 3.43344E-13
 -1      2494 2.00242E+01 2.17556E-02-2.44855E-04 3.77209E-02 9.12678E-14 2.26570E-13
 -1      2495 1.99941E+01 5.71577E-02-2.90765E-04 2.60437E-02-1.65645E-13 1.13456E-13
 -1      2496 1.99970E+01 5.19888E-02 1.32511E-04 2.77211E-02-2.48898E-13-2.49826E-14
 -1      2497 1.99999E+01 4.47712E-02-2.13091E-04 2.86405E-02-3.03610E-13-9.98643E-14
 -1      2498 2.00029E+01 3.92119E-02 2.16529E-04 2.81075E-02-2.32720E-13 1.30971E-14
 -1      2499 1.99980E+01 5.33376E-02 1.11505E-04 3.38760E-02-2.94912E-13 6.54308E-14
 -1      2500 2.00055E+01 3.16615E-02-1.56007E-04 2.67778E-02-8.98492E-14-1.38070E-14
 -1      2501 2.00081E+01 2.59662E-02 1.88219E-04 2.43498E-02 3.75969E-14 1.81400E-14
 -1      2502 2.00049E+01 3.90693E-02-1.25469E-04 3.32327E-02-9.20411E-14-2.18931E-13
 -1      2503 5.30065E+00-2.46947E+00 1.47239E-01 4.83588E+00-9.63674E-14 1.70086E-13
 -1      2504 3.84786E+00-2.15845E+00 1.65343E-01 2.48946E+00-1.38348E-13 8.14349E-14
 -1      2505 1.99892E+01 6.73738E-02-3.11595E-04 1.91663E-02-2.33378E-13-5.09062E-14
 -1      2506 1.99916E+01 6.33822E-02 3.66549E-05 2.27183E-02-2.57678E-13 2.83893E-14
 -1      2507 1.99906E+01 6.63112E-02 1.77720E-04 2.91840E-02-2.26503E-13-1.33086E-14
 -1      2508 1.99861E+01 7.40396E-02-2.90572E-04 9.03201E-03-2.63548E-13-3.60244E-13
 -1      2509 1.99875E+01 7.17895E-02-7.18711E-05 1.39016E-02-1.89494E-13-2.79032E-13
 -1      2510 1.99848E+01 7.66042E-02 2.55545E-04 1.98876E-02-3.70408E-13-1.55844E-13
 -1      2511 1.99854E+01 7.62053E-02-2.26401E-04-2.79068E-03-1.92376E-13 3.36237E-14
 -1      2512 1.99855E+01 7.60472E-02-1.76575E-04 2.60842E-03-2.78870E-13-1.99690E-13
 -1      2513 1.99815E+01 8.28444E-02 3.13277E-04 7.25013E-03-3.55956E-13-2.35147E-13
 -1      2514 1.99872E+01 7.34479E-02-1.25686E-04-1.43675E-02-9.76962E-14-1.05055E-14
 -1      2515 1.99859E+01 7.54547E-02-2.60128E-04-9.36100E-03-1.01309E-13 1.20138E-13
 -1      2516 1.99813E+01 8.41137E-02 3.39174E-04-6.82102E-03-7.54738E-14 9.89301E-14
 -1      2517 1.99914E+01 6.61717E-02 2.23877E-06-2.35483E-02-8.23422E-14-4.54347E-13
 -1      2518 1.99889E+01 6.99874E-02-3.13829E-04-1.98879E-02-5.56917E-14-2.58402E-13
 -1      2519 1.99844E+01 8.01008E-02 3.31104E-04-1.99702E-02 6.62196E-14-6.95610E-14
 -1      2520 1.99975E+01 5.49925E-02 1.34234E-04-2.89094E-02 2.44018E-14-7.43522E-15
 -1      2521 1.99941E+01 6.02387E-02-3.24039E-04-2.72034E-02-1.88273E-14-2.69763E-13
 -1      2522 1.99905E+01 7.11114E-02 2.73181E-04-3.00564E-02 5.86514E-14-2.20886E-13
 -1      2523 2.00042E+01 4.14116E-02 2.13783E-04-2.91637E-02 1.00043E-13 3.37927E-13
 -1      2524 2.00007E+01 4.73385E-02-2.87619E-04-2.98472E-02 4.92053E-14 2.93117E-13
 -1      2525 1.99988E+01 5.80245E-02 1.77483E-04-3.52774E-02 1.69130E-13 1.32340E-13
 -1      2526 2.00100E+01 2.71746E-02 2.06065E-04-2.43193E-02-2.26095E-14 2.43189E-13
 -1      2527 2.00073E+01 3.31342E-02-1.65198E-04-2.72592E-02 6.43552E-14 2.26147E-13
 -1      2528 2.00073E+01 4.26802E-02 8.19007E-05-3.44475E-02 1.64771E-13 3.80739E-13
 -1      2529 2.05463E+01 1.95730E+00-1.35805E-02-1.88988E+00 4.02959E-14-1.09945E-13
 -1      2530 2.04114E+01 1.22024E+00-6.20107E-03-1.27455E+00 3.51715E-14-1.02183E-13
 -1      2531 2.03789E+01 1.38196E+00 3.76902E-03-1.21529E+00 3.83825E-14-8.28335E-14
 -1      2532 2.02902E+01 2.36790E+00-7.87142E-03-1.81320E+00 5.97721E-14-7.57693E-14
 -1      2533 2.00272E+01-5.08592E+00 1.63251E-02 7.29340E+00-2.00340E-13 3.30340E-13
 -1      2534 1.67305E+01-5.11595E+00 7.33464E-02 7.52112E+00-2.44804E-13 1.87374E-13
 -1      2535 2.71752E+01-3.38980E+00-6.38085E-02 4.65871E+00-8.53206E-14 3.02591E-13
 -1      2536 2.34277E+01-4.66912E+00 3.29917E-03 5.81745E+00-1.84242E-13 4.51195E-13
 -1      2537 1.21901E+01-5.55414E+00 3.11379E-03-5.98966E+00-4.01013E-13-4.54914E-14
 -1      2538 1.65894E+01-6.03444E+00-3.23431E-02-6.38681E+00-2.66287E-13-9.66727E-14
 -1      2539 2.77318E+01-5.77131E+00-2.88779E-02-2.79406E+00-2.91989E-13-5.71487E-14
 -1      2540 3.08924E+01-4.82014E+00-1.36395E-01-1.13725E+00-1.43913E-13-1.17573E-13
 -1      2541 3.65305E+01 4.00971E+00 3.20816E-01 2.99585E+00 2.66120E-13-6.20920E-13
 -1      2542 3.69310E+01 5.14700E+00 3.05245E-01-2.21012E+00 1.46383E-13-1.01474E-13
 -1      2543 2.43243E+01-4.52455E+00 2.79427E-02-5.37738E+00-1.26149E-13 2.18381E-13
 -1      2544 2.79350E+01-3.09668E+00-6.65172E-02-4.20326E+00-3.17940E-13 1.60927E-13
 -1      2545 2.79124E+00-2.61235E+00 6.53661E-02-1.58451E-02-2.65914E-13-1.06803E-13
 -1      2546 3.71292E+00-3.25964E+00 8.00607E-02-2.25327E+00-3.69232E-13 8.93730E-15
 -1      2547 1.95248E+01 3.60696E+00-1.01386E-02-2.40969E-01 1.25626E-13 6.48110E-14
 -1      2548 1.95415E+01 3.58558E+00-9.64229E-03-4.19473E-01 1.20112E-13 4.61471E-14
 -1      2549 1.97165E+01 3.18916E+00-4.16913E-04-4.64438E-01 1.19475E-13 4.17275E-14
 -1      2550 1.96808E+01 3.25111E+00-7.31434E-04-1.48694E-01 1.18537E-13 7.11870E-14
 -1      2551 4.74170E+00-2.18668E+00 1.49014E-01-3.85676E+00-1.70655E-13 7.15261E-13
 -1      2552 6.51289E+00-3.11567E+00 1.14311E-01-5.87521E+00-2.30538E-13 6.18172E-13
 -1      2553 3.26462E+01 4.60654E+00-2.12139E-01-7.30333E-01-3.89966E-14 4.56857E-14
 -1      2554 3.25561E+01 2.67861E+00-4.49540E-02 2.07793E-01 9.49241E-15 1.14408E-13
 -1      2555 3.09260E+01 9.91523E-01-9.28860E-04-3.24650E-01-4.52416E-14 6.26166E-14
 -1      2556 3.30214E+01 7.28778E+00-1.20765E-01 7.06219E-01-2.84606E-13-1.99840E-14
 -1      2557 3.33760E+01 8.06950E+00-1.44072E-01 2.27593E-01-2.93932E-13-7.41941E-14
 -1      2558 3.26440E+01 3.30789E+00-6.07425E-02 2.01210E-01-3.36647E-13 2.76390E-13
 -1      2559 3.29171E+01 5.22100E+00-1.84964E-01 7.15460E-01-2.70367E-13 1.81827E-13
 -1      2560 3.00578E+01-1.15652E+00-3.43211E-02-2.31787E+00-3.85008E-13 2.06390E-13
 -1      2561 3.18865E+01 7.41651E-01-1.43728E-01-1.11215E+00-3.46834E-13 2.70284E-13
 -1      2562 1.68836E+01-5.27399E+00 5.70465E-02-7.47566E+00-1.74027E-13 3.45455E-13
 -1      2563 2.02339E+01-5.19744E+00-5.58941E-02-7.22542E+00-1.41387E-13 3.62571E-13
 -1      2564 9.16449E+00-4.16004E+00 8.03929E-02-6.93670E+00-2.07084E-13 4.87277E-13
 -1      2565 1.31038E+01-4.61019E+00 4.66204E-02-7.86121E+00-1.67810E-13 3.99875E-13
 -1      2566 9.93395E+00-2.67359E+00 1.38715E-01-6.38569E+00-1.93040E-13 4.87055E-13
 -1      2567 4.16212E+00-2.63691E+00 1.10321E-01 2.16328E+00-1.55417E-13 3.78142E-13
 -1      2568 3.52583E+00-1.95217E+00 1.20848E-01-6.24703E-01-1.88132E-13 6.32827E-13
 -1      2569 9.21457E+00-4.09171E+00 3.14781E-02 5.62792E+00-6.03406E-14 4.52971E-14
 -1      2570 6.07392E+00-3.49007E+00 6.92110E-02 3.98995E+00-1.01641E-13 1.94234E-13
 -1      2571 1.82011E+01-5.94964E+00-2.52092E-02 6.25719E+00 7.26086E-14-1.44655E-13
 -1      2572 1.38306E+01-5.17929E+00 7.38688E-02 6.07363E+00-6.78346E-14-4.37150E-14
 -1      2573 2.73104E+01-5.90141E+00-6.91334E-02 3.60459E+00 3.81917E-14-9.72555E-14
 -1      2574 2.27689E+01-6.23016E+00 4.00363E-03 4.74226E+00 4.74065E-14-2.21267E-13
 -1      2575 3.31809E+01-3.49909E+00-6.57573E-02-5.00144E-01 4.40897E-14-4.70735E-14
 -1      2576 3.02331E+01-4.88218E+00-4.91968E-02 1.38242E+00 5.57054E-14-2.77556E-14
 -1      2577 3.59214E+01 1.64704E+00-1.83489E-01-3.30570E+00 8.14626E-14-8.11018E-14
 -1      2578 5.23847E+00-3.93192E+00 4.03148E-02-3.70418E+00-2.59098E-13-1.28564E-13
 -1      2579 7.91986E+00-4.40925E+00 1.40828E-02-5.30218E+00-2.69396E-13-9.29812E-14
 -1      2580 6.26703E+00-2.14110E+00 1.39711E-01-3.08952E+00-1.39694E-13-1.78135E-13
 -1      2581 2.05275E+01-6.30602E+00-2.74481E-02-5.37955E+00-1.88627E-13-1.98591E-14
 -1      2582 2.43150E+01-6.21314E+00-7.34992E-02-4.69128E+00-2.83440E-13 6.02157E-14
 -1      2583 2.69188E+01-5.83802E+00 5.79770E-02-3.05242E+00-1.84242E-13-1.32200E-13
 -1      2584 1.97801E+01-5.83715E+00 1.42415E-02-5.70992E+00-2.28539E-13-3.12111E-14
 -1      2585 2.00117E+01 2.00947E-02-1.47135E-04 2.35934E-02 6.88932E-14 2.76988E-13
 -1      2586 3.52361E+01 6.58441E-03-1.84313E-01 3.15081E+00 6.89726E-14-6.89560E-13
 -1      2587 3.48708E+01-1.38109E-01 1.88597E-02-2.69737E+00 7.34413E-14-4.86278E-14
 -1      2588 1.99199E+01 2.82970E+00 1.22068E-03-1.08292E+00 1.05177E-13 3.51282E-15
 -1      2589 1.97905E+01 3.17289E+00-1.48330E-02-1.27233E+00 1.06282E-13 1.60982E-15
 -1      2590 1.98864E+01 3.03514E+00-1.70640E-02-1.46155E+00 9.21746E-14-1.54338E-14
 -1      2591 2.29592E+01-5.09192E+00 4.00260E-02 5.89504E+00-1.48603E-13 4.97075E-13
 -1      2592 2.03297E+01 5.92674E-01 9.17113E-03 8.59232E-01-1.94289E-14 2.73065E-13
 -1      2593 2.03928E+01 8.38969E-01 6.73131E-03 1.03396E+00-1.35638E-14 2.64646E-13
 -1      2594 2.01632E+01 4.92416E-01 8.08606E-03 6.48740E-01-2.61163E-14 2.82829E-13
 -1      2595 3.33738E+01-3.25162E+00-1.43536E-01-1.46216E+00 6.78554E-14-8.64309E-14
 -1      2596 1.99933E+01 2.84626E+00-1.51559E-02-1.57196E+00 7.84417E-14-3.53450E-14
 -1      2597 2.01368E+01 2.61896E+00-2.19186E-02-1.73889E+00 7.59330E-14-6.54893E-14
 -1      2598 2.02856E+01 2.05713E+00 1.43612E-03-1.46989E+00 6.27807E-14-5.39868E-14
 -1      2599 2.00903E+01 2.50417E+00 2.65335E-03-1.32494E+00 8.74454E-14-1.93639E-14
 -1      2600 2.40579E+01-5.19156E+00-7.45609E-02 4.09786E+00-9.15934E-15-3.56395E-13
 -1      2601 2.80222E+01-4.77793E+00 1.10209E-01 1.82663E+00-1.18780E-13-2.10054E-13
 -1      2602 3.13994E+01 7.84236E+00-1.13897E-01 3.44012E-02-1.97287E-13-1.50827E-13
 -1      2603 2.96801E+01-4.88147E+00-5.32166E-03 6.68369E-01-9.78939E-14-1.65479E-13
 -1      2604 3.03514E+01-4.32002E+00 6.07124E-02 2.28916E-01-2.10287E-13-3.05297E-13
 -1      2605 2.77449E+01-5.38809E+00-1.30544E-01-2.06412E+00-1.43260E-13-1.53932E-13
 -1      2606 2.00142E+01 2.63078E-02 1.77949E-04 3.09911E-02 6.87844E-14 4.29701E-14
 -1      2607 3.43973E+01-8.79260E-01-1.12585E-01 3.25346E+00 1.63758E-14-6.11178E-13
 -1      2608 2.40273E+01-3.84537E+00-4.87633E-02-3.66906E+00 6.97081E-14-1.71377E-13
 -1      2609 5.21710E+00-1.03641E+00 1.59261E-01 1.20326E+00-4.89157E-14 5.02931E-14
 -1      2610 8.17423E+00-2.46068E+00 1.22492E-01 5.66306E+00-6.35603E-15 2.14578E-13
 -1      2611 1.51834E+01-4.73709E+00 7.21776E-02 7.63052E+00-2.08278E-13 1.66922E-13
 -1      2612 1.36429E+01-3.72478E+00 1.53019E-01 7.47280E+00-2.28040E-13 2.15827E-13
 -1      2613 1.78825E+01-4.68622E+00 3.09807E-02 7.13156E+00-2.34590E-13 2.44506E-13
 -1      2614 2.00115E+01 3.71461E-01 8.49949E-03 3.74128E-01-1.72536E-14 2.68335E-13
 -1      2615 2.01016E+01 4.37994E-01 1.17623E-02 5.19171E-01-2.43460E-14 2.78417E-13
 -1      2616 2.01907E+01 5.71530E-01-3.13063E-03 6.34893E-01-2.52628E-14 2.56038E-13
 -1      2617 2.00962E+01 4.47229E-01-5.47066E-03 3.83014E-01-5.32864E-15 2.34525E-13
 -1      2618 2.84435E+01-3.04309E+00 2.44532E-02 2.68571E+00-7.08253E-14 3.17080E-13
 -1      2619 1.33464E+01-3.81786E+00 1.42710E-01 5.75756E+00-1.01141E-13-6.39766E-14
 -1      2620 2.34393E+01-4.99675E+00 5.32901E-02-5.67993E+00-3.23630E-14 1.88696E-13
 -1      2621 1.60554E+01-4.60830E+00 1.11566E-01-7.45839E+00-8.51819E-14 3.27322E-13
 -1      2622 2.88710E+01-2.75684E+00 2.30615E-02-2.18739E+00-1.70051E-13 9.65061E-14
 -1      2623 3.10446E+01 1.43041E+00-3.64883E-02 4.44755E-01-2.96665E-13 1.10939E-13
 -1      2624 1.18150E+01-4.08454E+00 1.03378E-01-5.67766E+00-2.29178E-13-1.11966E-13
 -1      2625 3.19678E+01 5.64410E+00-7.94703E-02-1.09954E+00-8.70137E-14 4.49918E-14
 -1      2626 3.01278E+01 4.11928E+00-8.58493E-02-1.54823E+00 1.41553E-14 1.21014E-14
 -1      2627 3.00558E+01 6.23782E+00-2.18915E-01-1.45025E+00-7.59670E-14 2.51743E-14
 -1      2628 5.26548E+00-1.16078E+00 1.94825E-01-2.21304E+00-1.62946E-13 7.23310E-13
 -1      2629 7.49576E+00-4.71195E-01 1.43854E-01-3.41676E+00-1.80030E-13 6.88893E-13
 -1      2630 6.49740E+00-1.91731E-02 1.73146E-01-5.88167E-01-2.43890E-13 5.77316E-13
 -1      2631 3.11913E+01 5.88683E+00-7.43988E-02 1.24667E+00-3.58380E-13-5.85365E-14
 -1      2632 3.29058E+01-3.51750E+00-6.05124E-02 7.67553E-01-6.32966E-14-3.02425E-13
 -1      2633 3.39758E+01-1.93645E+00-1.24400E-01 2.26274E+00-3.06213E-14-4.70846E-13
 -1      2634 7.04094E+00-1.67037E+00 1.77826E-01 3.06777E+00-1.55084E-13 3.02203E-13
 -1      2635 2.21324E+01-5.65022E+00 7.55179E-02 4.97066E+00 8.04912E-16-2.52512E-13
 -1      2636 2.00122E+01 1.92938E-02-1.51139E-05-2.00720E-02-7.35345E-14-4.02226E-14
 -1      2637 3.14897E+01-4.39121E+00 1.13557E-02 4.90950E-01-1.87975E-13-3.53939E-13
 -1      2638 2.00144E+01 2.64966E-02-5.99167E-05-2.80640E-02-5.84587E-14 1.58822E-13
 -1      2639 1.98462E+01 2.79474E+00-6.27263E-03 5.04901E-01 1.05314E-13 6.69525E-14
 -1      2640 1.98205E+01 2.84587E+00-5.82795E-03 3.56807E-01 1.19908E-13 6.49311E-14
 -1      2641 1.98030E+01 2.88501E+00-5.64229E-03 2.24946E-01 1.22435E-13 8.62411E-14
 -1      2642 1.97943E+01 2.90241E+00-5.51921E-03 7.35398E-02 1.17093E-13 1.01197E-13
 -1      2643 1.99472E+01 2.53915E+00 3.80231E-03 2.57366E-01 1.14183E-13 6.82815E-14
 -1      2644 2.00489E+01 2.34235E+00-1.08369E-02 1.02671E+00 5.84253E-14 1.09858E-13
 -1      2645 1.99835E+01 2.49446E+00-6.51579E-03 8.92395E-01 8.47850E-14 9.03314E-14
 -1      2646 2.02122E+01 1.92642E+00-1.63641E-02 1.21489E+00 1.83091E-14 1.59472E-13
 -1      2647 2.01306E+01 2.16133E+00-4.91629E-03 1.11269E+00 3.82837E-14 1.42419E-13
 -1      2648 2.01951E+01 1.91145E+00 7.79262E-03 9.05671E-01 3.49309E-14 1.00270E-13
 -1      2649 2.04447E+01 1.01751E+00 2.24551E-03 1.13941E+00-9.93129E-15 2.52532E-13
 -1      2650 2.04031E+01 1.28009E+00-7.15305E-03 1.25078E+00 2.47198E-16 2.34398E-13
 -1      2651 2.03175E+01 8.52423E-01 6.22717E-03 8.82016E-01-2.12911E-14 2.37839E-13
 -1      2652 2.03304E+01 1.07302E+00 5.88393E-03-8.33862E-01 4.25072E-14-4.03111E-14
 -1      2653 2.02404E+01 8.31244E-01-5.41739E-03-5.87617E-01 3.40439E-14-3.16194E-14
 -1      2654 2.91014E+01 7.32854E+00-1.90200E-01 3.14009E-01-2.98511E-13-2.20785E-13
 -1      2655 2.94626E+01 7.32679E+00-1.80309E-01-5.59705E-01-1.44273E-13-1.36238E-13
 -1      2656 2.53340E+01-5.44605E+00 1.34760E-01-3.69752E+00-1.28980E-13-1.16761E-13
 -1      2657 2.02313E+01 6.47560E-01 8.46670E-03-4.04469E-01 3.02316E-14-9.85627E-15
 -1      2658 2.01517E+01 4.99010E-01-3.21322E-03-2.39499E-01 3.45124E-14 3.11302E-16
 -1      2659 2.02734E+01 9.15484E-01 1.87839E-05-5.39359E-01 5.27727E-14-8.64429E-15
 -1      2660 2.01260E+01 3.86146E-01 6.33808E-03-1.06303E-01 7.74742E-15 2.07588E-14
 -1      2661 2.00723E+01 2.94952E-01-1.40888E-03 4.04811E-03-8.30455E-15 3.02569E-14
 -1      2662 2.02112E+01 5.56819E-01-1.41914E-03-2.09965E-01 2.49241E-14 2.81668E-14
 -1      2663 2.00493E+01 2.33698E-01 4.22816E-03 8.81374E-02-2.48442E-15 4.74977E-14
 -1      2664 2.00240E+01 1.83578E-01-1.08233E-04 1.55907E-01-1.70233E-14 4.86363E-14
 -1      2665 2.01464E+01 3.38228E-01-2.21180E-03 1.90408E-02 6.44836E-15 2.82540E-14
 -1      2666 2.00059E+01 1.49337E-01 2.44785E-03 2.13126E-01-1.68602E-14 7.44147E-14
 -1      2667 2.00010E+01 1.24070E-01 6.66085E-04 2.59025E-01-3.60367E-15 6.26499E-14
 -1      2668 2.00971E+01 2.15095E-01-1.99349E-03 1.70085E-01 8.96618E-15 5.17817E-14
 -1      2669 1.99885E+01 1.09189E-01 1.12352E-03 3.00097E-01 1.20967E-14 8.49188E-14
 -1      2670 1.99991E+01 1.02060E-01 1.23972E-03 3.35150E-01 2.83017E-14 1.05249E-13
 -1      2671 2.00638E+01 1.51278E-01-1.55041E-03 2.75407E-01 1.52213E-14 1.19371E-13
 -1      2672 1.99904E+01 1.02164E-01 6.80027E-05 3.68978E-01 2.15912E-14 9.47465E-14
 -1      2673 2.00125E+01 1.09854E-01 1.74548E-03 4.01637E-01 3.14114E-14 1.19608E-13
 -1      2674 2.00433E+01 1.31239E-01-1.04444E-03 3.55461E-01 1.01224E-14 1.05949E-13
 -1      2675 2.00048E+01 1.22944E-01-8.54463E-04 4.35492E-01 1.73327E-14 9.52201E-14
 -1      2676 2.00356E+01 1.44282E-01 2.24907E-03 4.72798E-01-4.24400E-15 7.66871E-14
 -1      2677 2.00305E+01 1.46799E-01-4.86906E-04 4.26811E-01 1.74726E-14 4.71211E-14
 -1      2678 2.00250E+01 1.70051E-01-1.78838E-03 5.12872E-01-5.31723E-14 8.12533E-14
 -1      2679 2.00625E+01 2.05578E-01 2.90244E-03 5.61179E-01-8.88389E-14 4.20254E-14
 -1      2680 2.00186E+01 1.94816E-01 1.92985E-04 5.03078E-01-5.24186E-14 1.33820E-14
 -1      2681 2.00426E+01 2.47600E-01-2.84408E-03 6.15746E-01-1.19075E-13-1.54025E-15
 -1      2682 2.00847E+01 3.01899E-01 3.53926E-03 6.85556E-01-1.02060E-13-2.19445E-14
 -1      2683 1.99975E+01 2.78027E-01 9.07105E-04 5.98704E-01-1.31441E-13-2.96641E-14
 -1      2684 2.00477E+01 3.58248E-01-4.19235E-03 7.55422E-01-2.76811E-14 8.75230E-15
 -1      2685 2.00874E+01 4.28949E-01 3.94797E-03 8.46143E-01-1.58254E-14 3.53440E-14
 -1      2686 1.99547E+01 4.00177E-01 2.47264E-03 7.22344E-01-4.11636E-14 2.51898E-14
 -1      2687 2.00224E+01 5.03832E-01-5.93567E-03 9.38541E-01-4.36780E-14 1.04130E-13
 -1      2688 2.00551E+01 5.95310E-01 4.48529E-03 1.05980E+00-2.00242E-14 9.54395E-14
 -1      2689 1.98721E+01 5.61442E-01 4.42012E-03 8.80146E-01 1.53558E-14 6.82722E-14
 -1      2690 1.99449E+01 6.89537E-01-8.24191E-03 1.17990E+00 1.42249E-14 1.37970E-13
 -1      2691 1.99615E+01 8.00899E-01 4.93898E-03 1.33772E+00 2.13974E-14 2.03027E-13
 -1      2692 1.97224E+01 7.68540E-01 7.24828E-03 1.08298E+00 2.86784E-14 1.14418E-13
 -1      2693 1.97842E+01 9.09752E-01-1.12105E-02 1.49108E+00-4.54135E-14 2.18058E-13
 -1      2694 1.97740E+01 1.03120E+00 5.53532E-03 1.68980E+00-8.82825E-14 2.33528E-13
 -1      2695 1.94682E+01 1.01821E+00 1.11519E-02 1.33863E+00-2.51737E-14 1.37953E-13
 -1      2696 1.95033E+01 1.13599E+00-1.46446E-02 1.88384E+00-1.50376E-13 2.85686E-13
 -1      2697 1.94605E+01 1.23755E+00 7.46966E-03 2.12465E+00-1.76391E-13 2.08054E-13
 -1      2698 1.90613E+01 1.28788E+00 1.62638E-02 1.65622E+00-9.58324E-14 1.67265E-13
 -1      2699 1.90719E+01 1.29009E+00-1.71198E-02 2.37325E+00-1.72455E-13 2.25463E-13
 -1      2700 1.90149E+01 1.30200E+00 1.50448E-02 2.65318E+00-1.53961E-13 1.84111E-13
 -1      2701 1.84479E+01 1.51314E+00 2.29611E-02 2.05340E+00-1.59264E-13 2.11160E-13
 -1      2702 1.85022E+01 1.20232E+00-1.21801E-02 2.98847E+00-2.21326E-13 1.55594E-13
 -1      2703 1.85160E+01 9.76255E-01 3.49466E-02 3.30157E+00-1.96981E-13 9.61037E-15
 -1      2704 1.75854E+01 1.55023E+00 3.32583E-02 2.57443E+00-2.23477E-13 1.77054E-13
 -1      2705 1.79192E+01 5.45443E-01 2.44021E-02 3.79429E+00-1.82764E-13-3.03785E-14
 -1      2706 1.81833E+01-2.51771E-01 7.85094E-02 4.16808E+00-1.82434E-13-1.02956E-13
 -1      2707 1.64520E+01 1.06412E+00 4.30173E-02 3.34980E+00-2.54662E-13 9.67039E-14
 -1      2708 2.00122E+01 3.55670E-02 5.57469E-05 3.96157E-02-2.24525E-14-1.75301E-13
 -1      2709 2.00175E+01 2.93850E-02 1.48141E-05 3.89468E-02-1.78371E-14-1.68797E-14
 -1      2710 2.00239E+01 3.22878E-02 3.90535E-04 4.71607E-02 3.79427E-14 4.66641E-15
 -1      2711 2.84672E+01-2.67531E+00-1.53532E-01 1.21998E+00 5.17338E-14 3.60989E-13
 -1      2712 2.69047E+01-3.99306E+00 3.60422E-02 2.85458E+00-3.37785E-14 4.19623E-13
 -1      2713 1.89498E+01 3.87119E-01 5.30193E-02-3.73803E+00 1.22147E-13-3.98048E-13
 -1      2714 1.87410E+01 8.50765E-01-3.18663E-04-3.43856E+00-8.84015E-15-3.79922E-13
 -1      2715 1.92103E+01 1.11797E+00 2.34041E-02-3.02793E+00-1.26086E-13-2.58771E-13
 -1      2716 1.91785E+01 1.22253E+00-1.49913E-02-2.72841E+00 2.36059E-14-1.94846E-13
 -1      2717 1.74679E+01 1.29474E+00 3.11889E-02-3.05764E+00 4.29145E-14-1.75343E-13
 -1      2718 1.95928E+01 1.24498E+00 1.09048E-02-2.40640E+00 1.64080E-13-1.85216E-13
 -1      2719 1.96019E+01 1.18614E+00-1.50694E-02-2.12006E+00 1.64563E-13-5.48764E-14
 -1      2720 1.83520E+01 1.51286E+00 2.38936E-02-2.38383E+00 9.75674E-14 2.32195E-14
 -1      2721 1.98942E+01 1.10624E+00 7.32746E-03-1.88129E+00 1.02828E-13-5.45218E-14
 -1      2722 1.98865E+01 9.98436E-01-1.17131E-02-1.64725E+00 5.98758E-14 7.16764E-14
 -1      2723 1.90199E+01 1.38351E+00 1.74347E-02-1.87253E+00 2.14442E-13-5.10627E-14
 -1      2724 2.00814E+01 8.95817E-01 6.25897E-03-1.45639E+00-1.10178E-13 8.33119E-14
 -1      2725 2.00543E+01 7.85396E-01-8.72549E-03-1.26471E+00-2.28304E-13-4.84911E-14
 -1      2726 1.94652E+01 1.14183E+00 1.23646E-02-1.47441E+00-1.57319E-14 1.01203E-13
 -1      2727 2.01768E+01 6.90045E-01 5.49432E-03-1.11224E+00-1.63745E-13-3.66663E-14
 -1      2728 2.01376E+01 5.95377E-01-6.23223E-03-9.60432E-01-6.53494E-14 1.55411E-13
 -1      2729 1.97477E+01 8.92782E-01 8.23926E-03-1.15005E+00-1.51175E-13 1.37696E-13
 -1      2730 2.02096E+01 5.17094E-01 4.71879E-03-8.39877E-01-3.52903E-14 2.29998E-13
 -1      2731 2.01664E+01 4.42151E-01-4.34650E-03-7.22438E-01-3.73521E-14 2.33130E-13
 -1      2732 1.99146E+01 6.76717E-01 5.15288E-03-8.87210E-01 1.60661E-14 2.60588E-13
 -1      2733 2.02056E+01 3.81659E-01 3.92531E-03-6.28271E-01-1.97841E-13 2.45902E-13
 -1      2734 2.01639E+01 3.24772E-01-2.96982E-03-5.38861E-01-1.81222E-13 1.95406E-13
 -1      2735 2.00052E+01 5.03874E-01 3.02431E-03-6.77113E-01-1.06595E-13 2.30789E-13
 -1      2736 2.01829E+01 2.79438E-01 3.15667E-03-4.66076E-01-1.27572E-13 1.89708E-13
 -1      2737 2.01456E+01 2.37104E-01-2.10699E-03-3.98672E-01-8.78949E-14 1.90123E-13
 -1      2738 2.00484E+01 3.71543E-01 1.66836E-03-5.11559E-01-2.17337E-13 1.42758E-13
 -1      2739 2.01526E+01 2.02092E-01 2.46448E-03-3.40240E-01-8.10740E-14 2.38005E-13
 -1      2740 2.01201E+01 1.70108E-01-1.40659E-03-2.87920E-01-2.11881E-13 1.61796E-13
 -1      2741 2.00642E+01 2.70782E-01 9.47586E-04-3.80090E-01-7.76442E-14 1.07670E-13
 -1      2742 2.01209E+01 1.46302E-01 1.93718E-03-2.46203E-01-2.82995E-13 1.77491E-13
 -1      2743 2.00957E+01 1.24062E-01-8.81928E-04-2.09162E-01-2.47866E-13 1.51951E-13
 -1      2744 2.00643E+01 1.96297E-01 2.87603E-04-2.79112E-01-1.89510E-13 7.24280E-14
 -1      2745 2.00932E+01 1.06684E-01 1.48050E-03-1.77549E-01-1.49528E-13 1.14748E-13
 -1      2746 2.00733E+01 9.05566E-02-5.78711E-04-1.50035E-01 3.82183E-14 3.12063E-14
 -1      2747 2.00572E+01 1.43581E-01 2.02138E-05-2.04260E-01-2.83102E-13 3.34903E-13
 -1      2748 2.00695E+01 7.79857E-02 1.12187E-03-1.26231E-01 3.48971E-13-5.17435E-14
 -1      2749 2.00541E+01 6.63313E-02-3.81098E-04-1.05800E-01 3.27916E-13 6.90338E-14
 -1      2750 2.00474E+01 1.05159E-01-1.04216E-04-1.47428E-01 1.43219E-13 1.64177E-13
 -1      2751 2.00501E+01 5.72741E-02 8.38860E-04-8.79481E-02 3.14739E-13 9.52721E-14
 -1      2752 2.00384E+01 4.89344E-02-2.35744E-04-7.28027E-02 2.21008E-13 3.48771E-13
 -1      2753 2.00371E+01 7.72309E-02-1.63077E-04-1.04482E-01 4.02575E-13 2.45463E-13
 -1      2754 2.00344E+01 4.25176E-02 6.36300E-04-5.93883E-02 6.88567E-14 1.94341E-13
 -1      2755 2.00255E+01 3.64789E-02-1.51213E-04-4.80480E-02 1.69702E-14 1.64210E-13
 -1      2756 2.00275E+01 5.72425E-02-1.30327E-04-7.22412E-02 1.20785E-13 1.50432E-13
 -1      2757 2.00196E+01 3.04778E-02 2.55638E-04-3.53349E-02-4.93334E-14 1.47248E-13
 -1      2758 2.00140E+01 2.19077E-01-5.91097E-04-6.78806E-02 4.95136E-14 1.33283E-13
 -1      2759 2.00552E+01 2.87876E-01 5.84797E-03 1.58040E-02 5.11762E-14 1.50550E-13
 -1      2760 1.99759E+01 1.27810E-01 1.15217E-04-1.88769E-01 2.34373E-14 1.56463E-13
 -1      2761 1.99923E+01 1.69167E-01 3.72665E-03-1.36864E-01 2.47182E-14 1.44386E-13
 -1      2762 2.00962E+01 2.52111E-01-2.36778E-03-8.03734E-02 3.95322E-14 6.05657E-14
 -1      2763 2.00839E+01 3.70205E-01-1.54775E-03 1.22083E-01 3.04162E-14 1.52631E-13
 -1      2764 2.01560E+01 4.80684E-01 7.93414E-03 2.54460E-01 8.81299E-15 1.63032E-13
 -1      2765 2.01574E+01 4.21380E-01-2.48616E-03 1.05985E-01 4.83827E-14 1.00169E-13
 -1      2766 1.99757E+01 4.28004E-02 7.37623E-04-3.13016E-01-1.29062E-14 1.74178E-13
 -1      2767 1.99602E+01 5.65221E-02 1.25355E-03-2.93210E-01 3.85289E-14 1.81048E-13
 -1      2768 2.00041E+01 2.45709E-02 7.98736E-04-3.44121E-01 2.14717E-14 7.79210E-14
 -1      2769 1.99788E+01 3.27306E-02 6.42569E-04-3.31711E-01-3.71822E-15 1.20324E-13
 -1      2770 2.00328E+01 5.11579E-02-1.36466E-03-3.32545E-01 1.60634E-14 6.69011E-14
 -1      2771 2.00473E+01 1.09191E-02 7.17292E-04-3.64304E-01 2.27151E-14 8.72891E-14
 -1      2772 2.00147E+01 1.76475E-02 3.41734E-04-3.56936E-01 1.93570E-14 7.65184E-14
 -1      2773 2.00464E+01 2.91269E-02-1.18163E-03-3.67632E-01 4.50793E-14-2.07166E-14
 -1      2774 2.01041E+01-5.68269E-03 4.72376E-04-3.75369E-01-2.23905E-15 1.12543E-13
 -1      2775 2.00658E+01 3.48274E-03 3.09739E-04-3.72817E-01 1.35221E-14 9.40525E-14
 -1      2776 2.00753E+01 1.08929E-02-1.12851E-03-3.91895E-01 4.97510E-15 4.29279E-14
 -1      2777 2.01748E+01-3.25593E-02 2.52670E-05-3.75019E-01 2.11808E-14 1.59073E-13
 -1      2778 2.01317E+01-1.71689E-02 5.24831E-04-3.79062E-01-2.58586E-14 9.66956E-14
 -1      2779 2.01204E+01-1.28282E-02-1.20571E-03-4.06759E-01-3.24933E-14 2.73185E-14
 -1      2780 2.02602E+01-7.66614E-02-6.69085E-04-3.56924E-01 5.30505E-14 1.77354E-13
 -1      2781 2.02135E+01-5.15123E-02 9.70885E-04-3.71254E-01 7.46227E-14 2.17964E-13
 -1      2782 2.01843E+01-5.10341E-02-1.40527E-03-4.09346E-01-3.62178E-15 3.24847E-14
 -1      2783 2.03615E+01-1.43523E-01-1.64252E-03-3.10953E-01 4.80104E-14 9.01795E-14
 -1      2784 2.03127E+01-1.05996E-01 1.61509E-03-3.40928E-01 8.23596E-14 1.39844E-13
 -1      2785 2.02710E+01-1.12002E-01-1.69658E-03-3.92440E-01 8.80361E-14 1.86334E-14
 -1      2786 2.04788E+01-2.35028E-01-2.88004E-03-2.24029E-01 4.76733E-14 7.21980E-14
 -1      2787 2.04302E+01-1.84736E-01 2.37377E-03-2.76005E-01 2.61742E-14 6.89570E-14
 -1      2788 2.03849E+01-2.01712E-01-2.00254E-03-3.44580E-01 7.87706E-14 4.52118E-14
 -1      2789 2.06087E+01-3.45795E-01-4.26093E-03-8.22853E-02 6.08959E-14 4.87638E-14
 -1      2790 2.05646E+01-2.86621E-01 3.06769E-03-1.62177E-01 3.65310E-14 8.20525E-14
 -1      2791 2.05295E+01-3.20725E-01-2.16544E-03-2.50841E-01 4.67419E-14 3.84126E-14
 -1      2792 2.07420E+01-4.58502E-01-5.47141E-03 1.24598E-01 6.95632E-14 3.92284E-14
 -1      2793 2.07087E+01-4.01103E-01 3.37903E-03 1.38844E-02 7.97868E-14 1.46218E-14
 -1      2794 2.07037E+01-4.59378E-01-1.91812E-03-9.50852E-02 7.77141E-14 5.36830E-14
 -1      2795 2.08600E+01-5.39861E-01-5.92375E-03 3.95999E-01-9.04409E-15 7.78438E-14
 -1      2796 2.08465E+01-5.03511E-01 2.85483E-03 2.58471E-01 4.35903E-14 8.26856E-14
 -1      2797 2.08973E+01-5.91976E-01-9.05024E-04 1.35041E-01 3.87731E-14 6.79966E-14
 -1      2798 2.09343E+01-5.41172E-01-4.80059E-03 7.09967E-01-1.11930E-14 1.12692E-14
 -1      2799 2.09503E+01-5.52600E-01 1.00077E-03 5.61260E-01-2.23411E-14 1.25184E-13
 -1      2800 2.10860E+01-6.72597E-01 1.16338E-03 4.39011E-01-7.38049E-15 6.25767E-14
 -1      2801 2.09309E+01-4.09670E-01-1.36452E-03 1.01268E+00-6.49133E-14-1.97902E-14
 -1      2802 2.09834E+01-4.95435E-01-2.38353E-03 8.83504E-01-3.43461E-14 5.48127E-15
 -1      2803 2.12288E+01-6.38359E-01 4.09462E-03 7.89971E-01 2.94399E-14 1.36757E-13
 -1      2804 2.08249E+01-1.15420E-01 4.25155E-03 1.21601E+00-6.70610E-14 8.22237E-14
 -1      2805 2.09120E+01-2.85958E-01-6.53581E-03 1.15008E+00-6.19370E-14-2.87574E-15
 -1      2806 2.12754E+01-4.28209E-01 6.83371E-03 1.12095E+00-9.65847E-14 1.17212E-13
 -1      2807 2.06235E+01 3.11661E-01 9.95128E-03 1.21599E+00-1.11987E-13 1.95966E-13
 -1      2808 2.07292E+01 8.13992E-02-9.66289E-03 1.25736E+00-7.91779E-14 1.42936E-13
 -1      2809 2.11891E+01-2.04411E-02 7.41709E-03 1.32303E+00-1.35170E-13 1.29933E-13
 -1      2810 2.03844E+01 7.60242E-01 1.23606E-02 9.40735E-01 6.52972E-15 1.97004E-13
 -1      2811 2.04797E+01 5.37256E-01-9.36262E-03 1.10996E+00-2.24652E-14 1.39615E-13
 -1      2812 2.09830E+01 5.22091E-01 3.86165E-03 1.27338E+00-5.35628E-14 8.69937E-14
 -1      2813 2.02049E+01 1.06689E+00 9.12178E-03 4.08127E-01 2.14937E-14 1.24865E-13
 -1      2814 2.02576E+01 9.37701E-01-4.31312E-03 6.80589E-01-8.88233E-15 1.61752E-13
 -1      2815 2.07407E+01 1.04157E+00-2.88443E-03 9.01651E-01 2.01291E-14-2.62018E-14
 -1      2816 2.01748E+01 1.09875E+00 1.58956E-03-2.49615E-01 5.79150E-14 1.40683E-13
 -1      2817 2.01650E+01 1.12108E+00 3.92614E-03 5.47472E-02 5.47281E-14 1.43229E-13
 -1      2818 2.05889E+01 1.34082E+00-7.75725E-03 2.59249E-01 2.45003E-14-1.05166E-14
 -1      2819 2.03144E+01 8.41593E-01-5.95373E-03-8.35721E-01 5.19995E-14 3.61644E-13
 -1      2820 2.02455E+01 1.00475E+00 1.07596E-02-5.86589E-01 5.84623E-14 2.97871E-13
 -1      2821 2.06172E+01 1.28955E+00-6.55510E-03-4.67996E-01-3.63541E-14-2.25112E-14
 -1      2822 2.05575E+01 4.09840E-01-9.71524E-03-1.19004E+00-7.97737E-14 3.66949E-13
 -1      2823 2.04544E+01 6.42623E-01 1.22969E-02-1.05591E+00 6.20836E-15 3.87738E-13
 -1      2824 2.08087E+01 9.11334E-01-4.96541E-04-1.04812E+00 5.25936E-15 3.13001E-13
 -1      2825 2.07982E+01-3.05006E-02-8.86843E-03-1.26085E+00-1.89929E-13 4.12689E-13
 -1      2826 2.06936E+01 1.86538E-01 8.50432E-03-1.25208E+00-1.45719E-13 3.68005E-13
 -1      2827 2.10542E+01 3.67130E-01 5.39450E-03-1.32928E+00-7.92809E-14 3.27583E-13
 -1      2828 2.09538E+01-3.52969E-01-5.16307E-03-1.10175E+00-1.11880E-13 4.13617E-13
 -1      2829 2.08734E+01-2.07621E-01 2.46984E-03-1.18800E+00-9.60930E-14 4.08020E-13
 -1      2830 2.12329E+01-1.46095E-01 7.60883E-03-1.29969E+00-1.42843E-13 3.53750E-13
 -1      2831 2.09966E+01-5.12448E-01-1.09310E-03-8.16242E-01 4.16648E-14 3.28548E-13
 -1      2832 2.09520E+01-4.51884E-01-2.64519E-03-9.51520E-01-4.37014E-14 4.22699E-13
 -1      2833 2.12814E+01-4.95416E-01 6.14515E-03-1.05357E+00-5.90435E-14 2.32895E-13
 -1      2834 2.09443E+01-5.30031E-01 1.88014E-03-5.02196E-01-6.47657E-14 1.87516E-13
 -1      2835 2.09339E+01-5.37182E-01-5.41307E-03-6.45685E-01 3.88601E-14 3.56138E-13
 -1      2836 2.12048E+01-6.46203E-01 3.12503E-03-7.15073E-01 3.28967E-14 2.38081E-13
 -1      2837 2.08335E+01-4.56540E-01 3.36236E-03-2.24281E-01-8.28716E-14 7.49635E-14
 -1      2838 2.08489E+01-5.03563E-01-6.00936E-03-3.49637E-01-1.46156E-13 7.01338E-14
 -1      2839 2.10469E+01-6.36050E-01 3.85878E-04-3.82402E-01-1.97829E-14 2.13709E-13
 -1      2840 2.06992E+01-3.42716E-01 3.64299E-03-1.21129E-02 1.63110E-14 2.00233E-13
 -1      2841 2.07305E+01-4.04603E-01-5.27683E-03-1.07406E-01 2.97228E-14 1.86390E-13
 -1      2842 2.08571E+01-5.29603E-01-1.34086E-03-1.10085E-01-1.08233E-13 2.24283E-13
 -1      2843 2.05657E+01-2.25201E-01 3.21954E-03 1.29744E-01 8.98282E-14 3.13562E-13
 -1      2844 2.06046E+01-2.85152E-01-3.99291E-03 6.61422E-02 7.24345E-14 3.29976E-13
 -1      2845 2.06716E+01-3.85925E-01-2.07918E-03 8.39141E-02 2.37669E-15 4.28363E-13
 -1      2846 2.04463E+01-1.24460E-01 2.50669E-03 2.10407E-01 2.11100E-13 1.62016E-13
 -1      2847 2.04868E+01-1.73852E-01-2.65755E-03 1.74374E-01 1.28237E-13 2.76307E-13
 -1      2848 2.05101E+01-2.45175E-01-2.15302E-03 2.03850E-01 1.52586E-13 4.54988E-13
 -1      2849 2.03458E+01-4.83162E-02 1.77144E-03 2.44207E-01 1.64628E-13 9.85052E-14
 -1      2850 2.03845E+01-8.44660E-02-1.51655E-03 2.29345E-01 1.36428E-13 6.39035E-14
 -1      2851 2.03795E+01-1.28285E-01-1.88959E-03 2.63995E-01 2.54212E-13 3.07655E-13
 -1      2852 2.02644E+01 3.25367E-03 1.14461E-03 2.45689E-01 1.86492E-13 1.39837E-13
 -1      2853 2.02994E+01-2.04353E-02-6.50447E-04 2.45459E-01 1.60245E-13 9.45265E-14
 -1      2854 2.02788E+01-4.20897E-02-1.51547E-03 2.80939E-01 1.93584E-13 9.60787E-14
 -1      2855 2.02000E+01 3.41459E-02 6.68951E-04 2.27232E-01 1.39211E-13 2.32290E-13
 -1      2856 2.02306E+01 2.05689E-02-5.34938E-05 2.36027E-01 2.13318E-13 1.57153E-13
 -1      2857 2.02034E+01 1.48898E-02-1.15382E-03 2.69693E-01 1.07842E-13 2.37981E-13
 -1      2858 2.01498E+01 4.95008E-02 3.39057E-04 1.98284E-01-2.08477E-14 2.20690E-13
 -1      2859 2.01757E+01 4.33100E-02 3.17707E-04 2.11800E-01 1.16176E-13 2.56607E-13
 -1      2860 2.01480E+01 4.79648E-02-8.54561E-04 2.42206E-01 1.01557E-13 3.08715E-13
 -1      2861 2.01110E+01 5.42456E-02 1.28309E-04 1.65454E-01-1.26500E-13-5.01683E-14
 -1      2862 2.01325E+01 5.29606E-02 5.16496E-04 1.80675E-01-8.90630E-14 6.28356E-14
 -1      2863 2.01077E+01 6.34451E-02-6.26974E-04 2.07169E-01 7.39488E-14 2.82655E-13
 -1      2864 2.00813E+01 5.24575E-02 5.82093E-06 1.32970E-01 2.96260E-15-2.55128E-13
 -1      2865 2.00987E+01 5.40872E-02 5.92628E-04 1.47970E-01-1.00365E-13-2.73044E-13
 -1      2866 2.00784E+01 6.71382E-02-4.62337E-04 1.70415E-01-4.42935E-14-2.19814E-13
 -1      2867 2.00585E+01 4.72179E-02-4.72617E-05 1.03244E-01-1.95804E-14-2.50067E-13
 -1      2868 2.00725E+01 5.02920E-02 5.89007E-04 1.16935E-01-3.28775E-14-1.50728E-13
 -1      2869 2.00569E+01 6.37488E-02-3.43605E-04 1.35517E-01-1.17107E-13-3.03419E-13
 -1      2870 2.00413E+01 4.06226E-02-4.48659E-05 7.73604E-02 1.28176E-15-1.56358E-13
 -1      2871 2.00521E+01 4.41785E-02 5.44892E-04 8.92443E-02-3.50792E-15-2.19700E-13
 -1      2872 2.00410E+01 5.67486E-02-2.72566E-04 1.04402E-01-9.51523E-14-2.06989E-13
 -1      2873 2.00277E+01 3.47815E-02-2.42523E-05 5.62820E-02 9.65970E-14-2.03063E-13
 -1      2874 2.00361E+01 3.82037E-02 4.84591E-04 6.63471E-02 2.33082E-14-2.04844E-13
 -1      2875 2.00285E+01 4.89756E-02-3.51233E-04 7.84134E-02 2.72410E-14-2.07891E-13
 -1      2876 2.00186E+01 4.18573E-02-4.47917E-04 5.72663E-02-1.46361E-14-2.12331E-13
 -1      2877 1.99767E+01 8.60576E-02-3.41366E-04 2.10602E-02-3.71712E-13-1.48490E-13
 -1      2878 1.99801E+01 8.23168E-02 6.02358E-05 2.70570E-02-3.87427E-13-3.08822E-14
 -1      2879 2.00076E+01 4.26933E-02-1.97021E-04 4.13958E-02-1.54568E-14-1.71771E-13
 -1      2880 1.99841E+01 7.54096E-02-3.65494E-04 3.30621E-02-3.46923E-13-8.25166E-14
 -1      2881 1.99889E+01 7.00738E-02 1.62910E-04 3.68972E-02-2.60369E-13-1.46593E-13
 -1      2882 1.99779E+01 8.72915E-02 2.45454E-04 3.51531E-02-2.63397E-13-1.55256E-13
 -1      2883 1.99649E+01 7.38358E-02 5.26137E-04-2.64878E-01 3.43229E-14 1.64389E-13
 -1      2884 1.99628E+01 9.80320E-02 2.24572E-03-2.32914E-01 3.26478E-14 1.63122E-13
 -1      2885 2.00556E+01 1.48557E-01-2.04292E-03-2.02054E-01 3.21262E-14 8.76384E-14
 -1      2886 2.00352E+01 8.69877E-02-1.66556E-03-2.80847E-01 2.47546E-14 8.39178E-14
 -1      2887 1.99736E+01 9.27882E-02-1.71916E-04-1.10711E-02 1.71232E-13 2.60035E-13
 -1      2888 1.99727E+01 9.34626E-02-1.96172E-04-3.52773E-03 9.00198E-14 1.91267E-13
 -1      2889 1.99788E+01 8.77278E-02-3.29412E-05-2.61513E-02 1.40200E-13-2.02449E-13
 -1      2890 1.99756E+01 9.06621E-02-3.13547E-04-1.97142E-02 1.18239E-13 2.07800E-13
 -1      2891 1.99686E+01 1.02995E-01 4.07110E-04-1.70950E-02 2.22275E-13 1.51964E-13
 -1      2892 1.99881E+01 7.71487E-02 1.18839E-04-3.76089E-02 1.05816E-13-2.28075E-13
 -1      2893 1.99829E+01 8.21669E-02-3.98683E-04-3.31797E-02 1.11212E-13-4.13388E-13
 -1      2894 1.99763E+01 9.58387E-02 3.91133E-04-3.39186E-02 1.01617E-13-2.71097E-13
 -1      2895 2.00000E+01 6.21747E-02 2.35587E-04-4.30137E-02 1.59411E-13 1.89783E-13
 -1      2896 1.99937E+01 6.86742E-02-4.25592E-04-4.15967E-02 1.57362E-13-2.62591E-14
 -1      2897 1.99886E+01 8.25952E-02 3.41991E-04-4.59338E-02 4.85579E-14-9.20552E-14
 -1      2898 2.03221E+01 1.69750E+00-6.72333E-03-1.27741E+00 5.48329E-14-4.84572E-14
 -1      2899 2.03061E+01 1.31311E+00-2.87846E-03-1.00035E+00 4.30866E-14-5.32461E-14
 -1      2900 2.02899E+01 1.38894E+00 5.34665E-04-8.99884E-01 5.53727E-14-2.79041E-14
 -1      2901 2.02307E+01 1.96338E+00-6.00125E-04-1.24735E+00 6.66804E-14-3.02783E-14
 -1      2902 2.03308E+01-4.33168E+00 1.45749E-01 5.21880E+00-8.49598E-14-2.67314E-13
 -1      2903 3.21189E+01-3.79532E+00 1.21658E-01-1.21302E+00-5.79120E-14-4.67126E-14
 -1      2904 3.31063E+01-1.86974E+00 3.26093E-02 2.99560E+00-9.23567E-14-5.26523E-13
 -1      2905 1.93949E+01-2.90652E+00 1.28100E-01 4.99012E+00-1.22582E-13-1.58956E-13
 -1      2906 1.66590E+01-3.46228E+00 2.82397E-02 5.81473E+00-1.51490E-13-7.91311E-14
 -1      2907 1.27607E+01-2.07271E+00 1.68147E-01 5.18339E+00-1.84894E-13-2.41474E-14
 -1      2908 1.84511E+01-1.39582E+00 1.06785E-01 4.76425E+00-1.56923E-13-1.56458E-13
 -1      2909 2.00168E+01 4.14998E-02-7.77170E-05-4.49399E-02-2.74183E-14-1.03939E-13
 -1      2910 1.13562E+01-2.50829E+00 1.73871E-01 6.76831E+00 2.37588E-14 1.34726E-13
 -1      2911 8.97368E+00-1.01561E+00 1.37590E-01 4.94610E+00 6.93889E-16 2.49384E-13
 -1      2912 1.99729E+01 9.21585E-02-2.75481E-04 5.60948E-03-8.59530E-14-1.05029E-13
 -1      2913 1.99743E+01 9.04850E-02-6.51618E-05 1.29310E-02-1.11915E-13-3.05886E-13
 -1      2914 1.99664E+01 1.03673E-01 3.85909E-04 1.84592E-03 2.76634E-13 6.32369E-14
 -1      2915 1.99936E+01 6.16674E-02-3.99898E-04 3.99357E-02-2.28552E-13 8.97362E-15
 -1      2916 1.99992E+01 5.57201E-02 2.98617E-04 4.13869E-02-1.59836E-13-1.86622E-13
 -1      2917 1.99892E+01 7.27111E-02 1.72857E-04 4.47301E-02-2.11869E-13-6.34113E-14
 -1      2918 1.91880E+01-1.47215E+00 8.72270E-02-4.51639E+00 2.84980E-14-2.75849E-13
 -1      2919 1.85876E+01-3.41319E-01 5.51179E-02-4.27833E+00 5.61010E-14-4.15307E-13
 -1      2920 1.65476E+01 3.22803E-01 4.81603E-02-4.01078E+00 1.04250E-13-3.17850E-13
 -1      2921 7.05431E+00 1.22807E-01 1.12544E-01 1.82524E+00 1.22784E-13 1.24262E-13
 -1      2922 6.70419E+00-2.28096E-02 2.33611E-01-6.74340E-01 7.30110E-14-1.40887E-13
 -1      2923 1.99269E+01 2.62088E+00-7.80144E-03 7.78201E-01 1.08850E-13 9.70474E-14
 -1      2924 1.98819E+01 2.71500E+00-6.27525E-03 6.31345E-01 1.07053E-13 7.80073E-14
 -1      2925 1.99979E+01 2.42224E+00 4.40952E-03 5.01985E-01 1.00348E-13 6.73085E-14
 -1      2926 2.00821E+01 2.21834E+00 5.57175E-03 7.26206E-01 7.17067E-14 7.43270E-14
 -1      2927 2.46881E+01-4.94486E+00-6.11448E-02 4.73769E+00-1.00600E-13 5.21978E-13
 -1      2928 2.18232E+01-5.00422E+00 5.99705E-02 5.90689E+00-1.70197E-13 5.92119E-13
 -1      2929 2.96195E+01 1.37962E+00-1.91033E-01-1.22321E+00 9.04277E-14 9.62286E-14
 -1      2930 2.95554E+01-5.33661E-01-3.45845E-02-3.50140E-01 1.22194E-13 2.14051E-13
 -1      2931 1.13296E+01-2.41964E+00 1.40104E-01-5.15035E+00 4.29656E-14-2.03587E-13
 -1      2932 1.52588E+01-3.66250E+00 1.05582E-01-5.93756E+00-6.72795E-14-1.70752E-13
 -1      2933 1.53331E+01-3.77023E+00 1.33510E-01-7.13258E+00-5.85226E-14 3.10613E-13
 -1      2934 1.85009E+01-4.81952E+00-1.83614E-02-7.11501E+00-4.51583E-14 2.96652E-13
 -1      2935 2.75143E+01-3.61344E+00 5.46332E-02-2.19484E+00-6.83273E-14 7.17898E-14
 -1      2936 2.87593E+01-2.29065E+00-1.57877E-01-8.33580E-01-1.82489E-13 2.06918E-14
 -1      2937 9.33154E+00-1.27585E+00 1.04941E-01 4.17404E+00-1.66644E-13 1.76831E-13
 -1      2938 7.56067E+00-3.20845E-01 1.56157E-01 2.19402E+00-1.83221E-13 3.52579E-13
 -1      2939 2.91492E+01 4.42536E+00-1.04131E-01 1.84180E+00-3.55466E-13-2.05391E-14
 -1      2940 2.87854E+01 6.08536E+00-1.99126E-01 1.35809E+00-4.14779E-13-1.46202E-13
 -1      2941 2.19076E+01-5.01803E+00 1.17661E-01-5.94343E+00-3.37091E-14 2.34961E-13
 -1      2942 2.49622E+01-4.94578E+00-1.21887E-01-4.46521E+00-6.22835E-14 1.49880E-13
 -1      2943 2.95218E+01-2.58266E-01-4.70296E-02 5.56917E-01-2.41661E-13 8.72913E-14
 -1      2944 2.95618E+01 1.82457E+00-2.08391E-01 1.42612E+00-2.94390E-13-4.63518E-15
 -1      2945 2.82686E+01-1.49617E+00-4.39951E-02 3.21054E-01-1.69628E-13 2.85882E-15
 -1      2946 9.90065E+00-1.46545E+00 1.44250E-01-5.56517E+00-1.23665E-13 4.83169E-13
 -1      2947 1.23250E+01-2.63468E+00 9.80357E-02-6.80689E+00-1.17767E-13 3.31624E-13
 -1      2948 7.12306E+00-7.00442E-01 1.22287E-01-2.41057E+00-3.11140E-14-2.90601E-13
 -1      2949 8.83497E+00-1.39148E+00 1.63289E-01-4.09887E+00 4.81420E-14-2.77139E-13
 -1      2950 1.21508E+01-1.18814E+00 1.55561E-01-4.47672E+00 1.19502E-13-3.27308E-13
 -1      2951 8.90162E+00 4.09846E-01 1.44901E-01-1.56220E+00 1.48163E-13-1.21902E-13
 -1      2952 1.98789E+01 2.72418E+00-6.24606E-03-6.20545E-01 1.22804E-13 2.95885E-14
 -1      2953 1.99234E+01 2.63238E+00-7.67114E-03-7.67882E-01 1.19164E-13 1.57680E-14
 -1      2954 2.24678E+01-4.38271E+00 6.39875E-02-4.39040E+00 4.15501E-14-2.43527E-13
 -1      2955 2.05232E+01-2.76885E+00 1.64866E-01-4.85963E+00 1.07421E-13-2.85702E-13
 -1      2956 1.69550E+01-1.92970E+00 1.75634E-02-5.06226E+00 8.80615E-14-3.15706E-13
 -1      2957 2.05754E+01-4.97845E+00-2.30272E-02-5.28373E+00-3.74145E-14-1.79537E-13
 -1      2958 1.99301E+01 2.57841E+00 3.60300E-03 4.82184E-03 1.14019E-13 8.49583E-14
 -1      2959 1.97939E+01 2.90341E+00-5.56084E-03-5.96801E-02 1.14213E-13 6.82523E-14
 -1      2960 1.98021E+01 2.88831E+00-5.57980E-03-2.11159E-01 1.29754E-13 3.72629E-14
 -1      2961 2.03282E+01 1.61088E+00 1.57171E-03 1.25310E+00 7.45411E-15 2.01096E-13
 -1      2962 2.60119E+01-4.17551E+00 1.92044E-02-2.87826E+00-7.26502E-14 9.41261E-14
 -1      2963 2.69919E+01 6.20641E+00-1.36044E-01-8.08728E-01-1.04583E-13 9.37028E-14
 -1      2964 2.87336E+01 6.43952E+00-1.50711E-01-1.10839E+00-5.87308E-14-3.68872E-14
 -1      2965 2.76589E+01 5.28624E+00-1.28088E-01-1.55023E+00 4.49363E-14 2.23467E-14
 -1      2966 3.14395E+01-3.76348E+00-1.84056E-01 1.71115E+00-2.27839E-13-4.68250E-13
 -1      2967 2.82709E+01-1.85852E+00-1.73316E-02 3.61675E-02 1.31999E-13 2.87909E-13
 -1      2968 1.10764E+01-2.88911E-01 7.76083E-02 4.45204E+00 5.74263E-14 2.17548E-13
 -1      2969 8.86056E+00 1.37371E-01 2.32852E-01 3.39227E+00 3.44863E-14 2.60944E-13
 -1      2970 9.36477E+00 8.43748E-01 8.78516E-02 1.78466E+00 2.26274E-13 1.29480E-14
 -1      2971 1.39977E+01-2.73694E+00 1.06773E-01 6.56839E+00 9.96425E-15 1.70919E-13
 -1      2972 2.02307E+01 6.96136E-01-2.30983E-03 3.83180E-01 8.83243E-15 1.13411E-13
 -1      2973 2.01911E+01 6.32821E-01 1.64857E-03 4.16657E-01-2.09121E-15 1.70991E-13
 -1      2974 1.99698E+01 9.81250E-02 3.28405E-04 2.01704E-02-1.52944E-13-6.91871E-14
 -1      2975 2.81019E+01 2.58891E+00-9.25577E-02 1.81091E+00-3.31374E-13-4.16889E-14
 -1      2976 2.57442E+01-4.36104E+00 8.39071E-03 3.19408E+00 8.41688E-15 5.42365E-13
 -1      2977 2.00054E+01 5.21632E-02 1.05887E-04 4.87472E-02-5.81465E-14-2.83759E-13
 -1      2978 2.03576E+01-4.80484E+00 5.55648E-02 6.39648E+00-1.78774E-13 4.82876E-13
 -1      2979 1.86004E+01-4.07703E+00 7.57411E-02 6.53910E+00-9.57151E-14 4.03289E-13
 -1      2980 2.22191E+01-4.60121E+00 3.26660E-02 5.20259E+00-8.94840E-14 7.53580E-13
 -1      2981 2.00114E+01 4.40926E-02 1.28330E-05-4.11289E-02 7.07111E-14 1.42258E-13
 -1      2982 2.00061E+01 5.18021E-02-3.68129E-04-4.33590E-02 1.78190E-13 3.50896E-13
 -1      2983 1.30627E+01-8.81615E-01 1.76833E-01 4.41983E+00-1.99202E-13 3.36953E-14
 -1      2984 2.00028E+01 6.47165E-02 6.92850E-05-5.07664E-02 1.56216E-13 2.82788E-13
 -1      2985 1.50700E+01-2.82215E+00 1.25394E-01-6.51812E+00-8.15459E-14 2.75530E-13
 -1      2986 2.02198E+01 7.10814E-01 6.59276E-03 5.32859E-01-8.79104E-15 1.83811E-13
 -1      2987 1.57534E+01-5.94607E-01 1.84846E-02 4.59132E+00-2.07778E-13 6.32827E-15
 -1      2988 2.90813E+01-5.47481E+00-4.91804E-02 1.57182E+00-7.27196E-14-2.08722E-14
 -1      2989 2.09773E+01-4.57411E+00 9.21947E-02-5.90338E+00-4.18415E-14 2.35503E-13
 -1      2990 2.03226E+01 1.40189E+00 8.87905E-03 1.00334E+00-5.90391E-15 1.78114E-13
 -1      2991 2.92887E+01 2.53351E+00-9.93256E-02-1.70233E+00 9.26481E-14 4.33820E-14
 -1      2992 2.82243E+01 1.11326E+00-6.73674E-02-1.58292E+00 1.77899E-13 1.67595E-13
 -1      2993 2.82062E+01 3.53234E+00-1.55813E-01-1.99717E+00 5.52891E-14-2.88103E-14
 -1      2994 1.98186E+01 2.85142E+00-5.82180E-03-3.42696E-01 1.29484E-13 5.93661E-14
 -1      2995 1.98441E+01 2.80176E+00-6.17769E-03-4.93507E-01 1.19252E-13 5.16449E-14
 -1      2996 1.99956E+01 2.43084E+00 4.41224E-03-4.92381E-01 1.13919E-13 4.21696E-14
 -1      2997 1.99461E+01 2.54321E+00 3.78371E-03-2.47433E-01 1.20385E-13 4.24865E-14
 -1      2998 7.91190E+00 3.72575E-01 1.97265E-01 8.20303E-01-2.12974E-13 5.16726E-13
 -1      2999 8.74039E+00 8.88207E-01 1.12813E-01-5.52681E-01-2.45488E-13 5.91929E-13
 -1      3000 9.94419E+00 6.93373E-01 1.43630E-01 1.80635E+00-2.16079E-13 3.89230E-13
 -1      3001 9.23819E+00 4.42354E-01 1.11408E-01-2.88784E+00-1.55230E-13 6.58154E-13
 -1      3002 9.37771E+00-4.70366E-01 1.82922E-01-4.39340E+00-1.21278E-13 6.50091E-13
 -1      3003 1.15109E+01-5.75709E-01 1.08211E-01-4.77717E+00-5.37972E-14 4.17957E-13
 -1      3004 1.64606E+01-2.83143E+00 8.38592E-02-5.56065E+00 1.31631E-13-2.88117E-13
 -1      3005 1.74149E+01-4.13989E+00 1.81412E-01-5.76920E+00-3.62488E-14-2.62373E-13
 -1      3006 2.00789E+01 2.23331E+00 6.21419E-03-7.19331E-01 1.01522E-13 2.70603E-14
 -1      3007 1.99792E+01 2.50910E+00-6.17939E-03-8.83759E-01 1.01405E-13 1.21014E-14
 -1      3008 2.00449E+01 2.36242E+00-8.90494E-03-1.01559E+00 9.87029E-14 9.02837E-15
 -1      3009 2.02420E+01 1.49833E+00-9.78926E-03 7.81573E-01 1.58575E-14 1.02485E-13
 -1      3010 2.02047E+01 1.69206E+00-1.63691E-03 7.19149E-01 3.12541E-14 6.02910E-14
 -1      3011 2.02652E+01 7.62662E-01 6.64131E-03 7.35752E-01-2.37670E-14 2.32860E-13
 -1      3012 2.47238E+01-4.37866E+00 8.97731E-02-3.49382E+00-7.95475E-14 8.29059E-14
 -1      3013 2.62923E+01-3.71618E+00-7.87270E-02-1.63949E+00-7.45810E-14 1.72709E-14
 -1      3014 2.00930E+01 2.26639E+00-6.22238E-03-1.09833E+00 8.80271E-14 8.11417E-15
 -1      3015 2.01713E+01 2.08113E+00-8.23248E-03-1.18083E+00 7.26621E-14-8.19310E-15
 -1      3016 2.02430E+01 1.78202E+00 5.84342E-03-1.01696E+00 6.05043E-14-2.79507E-15
 -1      3017 2.01745E+01 2.00219E+00 8.04346E-03-8.93188E-01 8.18347E-14 1.64054E-14
 -1      3018 2.03028E+01 1.17951E+00 5.59282E-03-6.36985E-01 7.05087E-14 1.73002E-14
 -1      3019 2.02680E+01 9.39373E-01-4.71882E-03-4.44277E-01 6.57782E-14 2.75789E-14
 -1      3020 2.02810E+01 7.41163E-01 4.31099E-03-2.96199E-01 4.05765E-14 4.34052E-14
 -1      3021 2.02383E+01 5.80950E-01-3.42747E-03-1.52332E-01 2.86946E-14 4.68370E-14
 -1      3022 2.02915E+01 9.76908E-01 6.90756E-04-3.78211E-01 6.36092E-14 5.54771E-14
 -1      3023 2.02311E+01 4.64783E-01 3.80304E-03-5.00299E-02 1.44219E-14 5.82063E-14
 -1      3024 2.01957E+01 3.69207E-01-1.82613E-03 4.45745E-02 1.39699E-16 5.63646E-14
 -1      3025 2.02770E+01 6.22556E-01-3.52457E-04-1.21914E-01 3.80428E-14 8.01938E-14
 -1      3026 2.01784E+01 2.98539E-01 2.65398E-03 1.17221E-01 2.60252E-15 6.95030E-14
 -1      3027 2.01528E+01 2.42935E-01-7.21064E-04 1.82519E-01 1.81409E-14 8.65653E-14
 -1      3028 2.02388E+01 4.02626E-01-8.23713E-04 5.98053E-02 2.98386E-14 9.39977E-14
 -1      3029 2.01307E+01 2.04827E-01 1.51371E-03 2.34145E-01 3.90601E-14 7.02815E-14
 -1      3030 2.01143E+01 1.78550E-01 5.87321E-05 2.81334E-01 2.62850E-14 9.82350E-14
 -1      3031 2.01918E+01 2.72275E-01-8.13031E-04 1.89562E-01 3.31522E-14 9.57233E-14
 -1      3032 2.00889E+01 1.64962E-01 4.67866E-04 3.20199E-01-1.95588E-14 1.03232E-13
 -1      3033 2.00794E+01 1.61666E-01 5.93351E-04 3.58381E-01-1.37303E-14 7.54289E-14
 -1      3034 2.01414E+01 2.08592E-01-5.22983E-04 2.84188E-01-2.38633E-15 6.64097E-14
 -1      3035 2.00497E+01 1.68042E-01-5.03080E-04 3.91468E-01 7.88229E-16 7.57792E-14
 -1      3036 2.00436E+01 1.84336E-01 9.37342E-04 4.28000E-01-4.98618E-15 4.09682E-14
 -1      3037 2.00872E+01 1.97346E-01-3.32845E-05 3.58778E-01-2.37736E-14 1.16522E-13
 -1      3038 2.00064E+01 2.08543E-01-1.48886E-03 4.60928E-01-4.23398E-14 4.77568E-14
 -1      3039 1.99998E+01 2.43264E-01 1.16999E-03 5.01857E-01-8.56611E-14 3.63989E-14
 -1      3040 2.00243E+01 2.30552E-01 6.77339E-04 4.25736E-01-3.57031E-14 9.60426E-14
 -1      3041 1.99472E+01 2.87792E-01-2.53039E-03 5.40874E-01-1.18355E-13 4.35386E-14
 -1      3042 1.99325E+01 3.44610E-01 1.17495E-03 5.94250E-01-1.12650E-13 6.20480E-14
 -1      3043 1.99417E+01 3.07146E-01 1.54433E-03 4.96537E-01-6.15715E-14 7.50391E-14
 -1      3044 1.98596E+01 4.06563E-01-3.81663E-03 6.39137E-01-5.77253E-14 6.88427E-14
 -1      3045 1.98307E+01 4.81915E-01 7.45045E-04 7.03950E-01 1.45738E-14 8.17500E-14
 -1      3046 1.98269E+01 4.27467E-01 3.13007E-03 5.76326E-01-5.86266E-14 1.32506E-13
 -1      3047 1.97242E+01 5.65075E-01-5.36848E-03 7.58340E-01 5.30384E-15 6.27578E-14
 -1      3048 1.96684E+01 6.63190E-01 5.86085E-05 8.40345E-01 1.93107E-14 9.85783E-14
 -1      3049 1.96627E+01 5.89668E-01 5.14179E-03 6.67059E-01-5.19292E-15 9.96218E-14
 -1      3050 1.95104E+01 7.69130E-01-7.44204E-03 9.04900E-01 2.65643E-14 6.58073E-14
 -1      3051 1.94110E+01 8.90621E-01-1.11059E-03 1.00648E+00-5.01606E-15 2.27073E-14
 -1      3052 1.94182E+01 7.99557E-01 8.04150E-03 7.70933E-01-7.64341E-15 3.27331E-15
 -1      3053 1.91768E+01 1.01776E+00-1.03082E-02 1.08094E+00-2.33095E-14 1.97116E-14
 -1      3054 1.90116E+01 1.15817E+00-2.75168E-03 1.20369E+00-2.76684E-14 3.83933E-14
 -1      3055 1.90526E+01 1.05710E+00 1.21320E-02 8.85083E-01-2.48653E-14-3.46228E-14
 -1      3056 1.86669E+01 1.29664E+00-1.44218E-02 1.28828E+00-5.95088E-14 3.02905E-14
 -1      3057 1.84094E+01 1.44009E+00-4.27368E-03 1.43469E+00-9.58411E-14 6.38743E-14
 -1      3058 1.85094E+01 1.35253E+00 1.78933E-02 1.00457E+00-5.32739E-14 1.26032E-14
 -1      3059 1.79067E+01 1.56261E+00-2.01667E-02 1.53467E+00-1.34182E-13 9.36759E-14
 -1      3060 1.75324E+01 1.67119E+00-2.98064E-03 1.71369E+00-1.75097E-13 1.34322E-13
 -1      3061 1.77118E+01 1.65542E+00 2.65247E-02 1.12775E+00-1.09974E-13 4.60547E-14
 -1      3062 1.68043E+01 1.71655E+00-2.65242E-02 1.85099E+00-2.09817E-13 1.74281E-13
 -1      3063 1.63088E+01 1.71304E+00 9.21511E-03 2.08927E+00-2.09221E-13 1.73092E-13
 -1      3064 1.65542E+01 1.89811E+00 4.20990E-02 1.27138E+00-1.63484E-13 7.13075E-14
 -1      3065 1.52069E+01 1.58945E+00-1.12273E-02 2.33950E+00-2.58821E-13 1.43715E-13
 -1      3066 1.46567E+01 1.25901E+00 6.12904E-02 2.71785E+00-2.68685E-13 1.39343E-13
 -1      3067 1.48374E+01 1.92913E+00 7.58289E-02 1.51056E+00-2.30261E-13 2.12163E-13
 -1      3068 1.45333E+01 4.70214E-01 8.14604E-02-3.60409E+00 2.00796E-13-2.59348E-13
 -1      3069 1.49403E+01 1.10216E+00-4.40177E-03-3.07788E+00 1.63414E-13-1.12632E-13
 -1      3070 2.00174E+01 5.22701E-02 2.82506E-04-5.45535E-02 1.13620E-13-5.24411E-14
 -1      3071 2.73953E+01-1.07090E+00-1.15963E-01-9.15460E-01 6.42056E-14 7.27196E-14
 -1      3072 2.70595E+01-2.52553E+00 3.23603E-02 2.39226E-01-7.55021E-14 7.31359E-14
 -1      3073 2.02457E+01 7.35136E-01-3.84804E-03 3.13249E-01 3.87981E-14 9.83649E-14
 -1      3074 2.02866E+01 9.24380E-01 1.36312E-03 4.83987E-01 2.49522E-14 1.15746E-13
 -1      3075 1.72210E+01 1.70356E+00 4.78284E-03-2.02853E+00 4.43042E-14 2.88346E-14
 -1      3076 1.76242E+01 1.65219E+00-2.29510E-02-1.78501E+00 4.78326E-14-7.04042E-14
 -1      3077 1.82102E+01 1.56602E+00-2.14936E-03-1.63615E+00 1.67610E-13-6.77135E-14
 -1      3078 1.84859E+01 1.44063E+00-1.67305E-02-1.45030E+00 1.75548E-13-1.52191E-13
 -1      3079 1.73145E+01 1.81073E+00 3.22148E-02-1.31666E+00 5.74946E-14-1.26005E-13
 -1      3080 1.88876E+01 1.31263E+00-1.91051E-03-1.33170E+00 2.03915E-13-2.96437E-14
 -1      3081 1.90692E+01 1.17272E+00-1.20672E-02-1.17554E+00 1.16126E-13 1.37701E-13
 -1      3082 1.82426E+01 1.53951E+00 2.12506E-02-1.12075E+00 1.87472E-13-1.97346E-13
 -1      3083 1.93410E+01 1.04433E+00-7.27521E-04-1.07343E+00-9.83174E-14 2.12134E-13
 -1      3084 1.94514E+01 9.17065E-01-8.66700E-03-9.42237E-01-3.81946E-14 2.94062E-13
 -1      3085 1.88745E+01 1.24375E+00 1.44525E-02-9.46718E-01 1.15494E-13 7.72329E-14
 -1      3086 1.96320E+01 8.05686E-01 2.98470E-04-8.53306E-01-2.89380E-14 2.51650E-13
 -1      3087 1.96936E+01 7.00042E-01-6.23176E-03-7.44926E-01 1.15880E-14 1.73608E-13
 -1      3088 1.92961E+01 9.72985E-01 9.70525E-03-7.85336E-01-2.52185E-14 1.94021E-13
 -1      3089 1.98114E+01 6.10127E-01 9.21629E-04-6.68678E-01-6.68160E-14 8.07680E-14
 -1      3090 1.98418E+01 5.26725E-01-4.45037E-03-5.80902E-01-1.62512E-13 7.54783E-14
 -1      3091 1.95714E+01 7.45730E-01 6.37187E-03-6.38477E-01-1.11219E-13-4.10923E-14
 -1      3092 1.99172E+01 4.56824E-01 1.15921E-03-5.16943E-01-2.13559E-13 1.69738E-14
 -1      3093 1.99289E+01 3.92787E-01-3.24641E-03-4.47047E-01-1.82009E-13 3.13334E-14
 -1      3094 1.97475E+01 5.64310E-01 4.11956E-03-5.09251E-01-2.14178E-13-4.26829E-14
 -1      3095 1.99778E+01 3.37291E-01 1.20725E-03-3.91940E-01-9.00588E-14 8.34451E-14
 -1      3096 1.99793E+01 2.87258E-01-2.29098E-03-3.34995E-01-8.99073E-14 3.69171E-14
 -1      3097 1.98597E+01 4.20614E-01 2.62319E-03-3.96697E-01-1.31441E-13 1.04385E-13
 -1      3098 2.00080E+01 2.48255E-01 1.14913E-03-2.93277E-01-5.39566E-14 4.93053E-14
 -1      3099 2.00041E+01 2.12728E-01-1.56693E-03-2.51284E-01-8.26250E-14 2.08278E-13
 -1      3100 1.99274E+01 3.11552E-01 1.52390E-03-3.03745E-01-1.21622E-13 1.70561E-13
 -1      3101 2.00211E+01 1.83704E-01 1.01748E-03-2.18147E-01-2.22219E-13 3.50216E-13
 -1      3102 2.00151E+01 1.57271E-01-1.10708E-03-1.85892E-01-2.43796E-13 4.15539E-13
 -1      3103 1.99662E+01 2.31805E-01 8.81887E-04-2.30479E-01-6.24485E-14 2.43135E-13
 -1      3104 2.00250E+01 1.35820E-01 8.54747E-04-1.59976E-01-9.42867E-14 5.93759E-13
 -1      3105 2.00185E+01 1.16275E-01-7.87748E-04-1.35370E-01 2.06271E-13 4.10137E-13
 -1      3106 1.99882E+01 1.72169E-01 4.92119E-04-1.72118E-01-5.43233E-14 8.71153E-13
 -1      3107 2.00239E+01 1.00623E-01 7.30502E-04-1.15362E-01 3.37010E-13 2.71997E-13
 -1      3108 2.00176E+01 8.61299E-02-5.94626E-04-9.66195E-02 3.57677E-13 2.33477E-13
 -1      3109 1.99999E+01 1.27702E-01 2.24287E-04-1.26391E-01 6.55105E-14 5.98736E-13
 -1      3110 2.00204E+01 7.45240E-02 5.47420E-04-8.14238E-02 1.35669E-13 1.58724E-13
 -1      3111 2.00151E+01 6.40526E-02-3.27642E-04-6.73246E-02-1.45083E-14 4.40468E-14
 -1      3112 2.00050E+01 9.46762E-02-5.36625E-05-9.10150E-02 2.21916E-13 2.97092E-13
 -1      3113 1.99707E+01 1.04960E-01 6.57545E-06-4.28888E-02-9.74583E-15-4.29499E-13
 -1      3114 1.99642E+01 1.09872E-01-3.76952E-04-3.48500E-02 7.86747E-14-2.29284E-13
 -1      3115 1.99583E+01 1.10269E-01-3.80117E-04 1.99943E-02-1.57993E-13 1.07116E-13
 -1      3116 1.99624E+01 1.06601E-01 6.60380E-05 2.89474E-02-3.10926E-13 6.84345E-14
 -1      3117 2.01570E+01 2.79695E-01-1.32589E-03-9.83573E-02 6.09749E-14 5.46804E-14
 -1      3118 2.01895E+01 3.59979E-01 3.85088E-03-1.97790E-02 6.56821E-14 5.90655E-14
 -1      3119 2.02019E+01 4.57122E-01-2.47603E-03 7.06315E-02 5.09845E-14 6.93028E-14
 -1      3120 2.02483E+01 5.82314E-01 5.63729E-03 1.89820E-01 3.85355E-14 6.68360E-14
 -1      3121 2.02798E+01 7.72128E-01-3.04679E-03 2.71513E-01 5.06128E-14 6.91179E-14
 -1      3122 2.02483E+01 4.94281E-01-6.23371E-04 4.76599E-02 6.71100E-14 4.29492E-14
 -1      3123 2.00842E+01 4.07027E-02 7.59308E-04-3.77446E-01 8.46086E-15 2.30854E-14
 -1      3124 2.00745E+01 5.19024E-02 5.70634E-04-3.61130E-01 2.81391E-14-2.37551E-15
 -1      3125 2.00830E+01 6.50321E-02 5.50057E-04-3.39539E-01 3.43317E-14-2.52547E-14
 -1      3126 2.00819E+01 8.21778E-02 9.81355E-04-3.16444E-01 2.23372E-14-2.02385E-15
 -1      3127 2.01106E+01 7.51439E-02-1.11699E-03-3.48870E-01 6.04578E-15 1.33163E-14
 -1      3128 2.01343E+01-1.01129E-02 7.33036E-04-4.27275E-01-1.76771E-14 5.16434E-14
 -1      3129 2.01078E+01 6.35452E-03 5.75301E-04-4.20662E-01-7.73046E-15 7.22947E-14
 -1      3130 2.01913E+01-5.84775E-02 4.59284E-04-4.37292E-01 2.10165E-14-8.07445E-15
 -1      3131 2.01550E+01-3.09889E-02 1.02321E-03-4.37862E-01-8.98547E-15 4.86516E-15
 -1      3132 2.01302E+01-1.88175E-02-1.78814E-03-4.54944E-01 2.42472E-14 9.23928E-14
 -1      3133 2.02781E+01-1.35946E-01-5.75446E-05-4.28836E-01 6.97116E-14 9.73668E-16
 -1      3134 2.02301E+01-9.23481E-02 1.79383E-03-4.41028E-01 3.47189E-14-3.81027E-14
 -1      3135 2.01854E+01-8.23161E-02-2.39490E-03-4.74091E-01 2.85217E-14 2.15709E-14
 -1      3136 2.04023E+01-2.50016E-01-8.93093E-04-3.89701E-01 2.70605E-14 9.80029E-14
 -1      3137 2.03413E+01-1.86907E-01 2.87542E-03-4.20028E-01 7.64009E-14 8.11735E-14
 -1      3138 2.02801E+01-1.81980E-01-3.19315E-03-4.75409E-01 2.93134E-15 5.87526E-14
 -1      3139 2.05708E+01-4.01614E-01-2.11106E-03-3.03333E-01 9.90589E-15 1.18219E-13
 -1      3140 2.04964E+01-3.19531E-01 4.17604E-03-3.59842E-01 1.74467E-14 9.15866E-14
 -1      3141 2.04263E+01-3.25595E-01-4.07702E-03-4.45112E-01 1.61947E-14 1.10595E-13
 -1      3142 2.07851E+01-5.78900E-01-3.68030E-03-1.50592E-01 1.14109E-13 8.42137E-14
 -1      3143 2.07001E+01-4.85802E-01 5.44289E-03-2.41402E-01 9.08930E-14 1.15067E-13
 -1      3144 2.06351E+01-5.12059E-01-4.78206E-03-3.63642E-01 7.20408E-14 1.16390E-13
 -1      3145 2.10358E+01-7.49269E-01-5.30351E-03 8.54049E-02 1.88190E-14 1.07136E-13
 -1      3146 2.09481E+01-6.64793E-01 6.16641E-03-4.47511E-02 7.20661E-14 9.02558E-14
 -1      3147 2.09109E+01-7.23380E-01-4.80786E-03-2.07065E-01 7.09270E-14 1.19458E-13
 -1      3148 2.12953E+01-8.52631E-01-6.20141E-03 4.09179E-01-2.50352E-14 1.10486E-13
 -1      3149 2.12194E+01-8.11162E-01 5.55264E-03 2.43262E-01-4.43981E-14 1.24943E-13
 -1      3150 2.12429E+01-9.14870E-01-3.43152E-03 4.74067E-02-2.36862E-14 1.75228E-13
 -1      3151 2.15135E+01-8.03376E-01-5.11470E-03 7.95871E-01-5.13406E-14 2.30270E-13
 -1      3152 2.14690E+01-8.51366E-01 2.55785E-03 6.14316E-01 1.50497E-14 1.70917E-13
 -1      3153 2.15944E+01-1.00743E+00 6.06819E-05 4.08397E-01-6.16622E-14 2.08688E-13
 -1      3154 2.16259E+01-5.14476E-01-7.05838E-04 1.17073E+00-9.91371E-14 1.86826E-13
 -1      3155 2.16300E+01-6.94448E-01-3.44485E-03 1.01707E+00-2.90046E-14 1.57516E-13
 -1      3156 2.18948E+01-8.94487E-01 5.21110E-03 8.46606E-01-2.04676E-14 1.90846E-13
 -1      3157 2.15806E+01 4.72833E-02 6.85105E-03 1.40136E+00-1.09079E-13 6.69676E-14
 -1      3158 2.16366E+01-2.70774E-01-1.08914E-02 1.34003E+00-1.17544E-13 1.38334E-13
 -1      3159 2.20525E+01-4.80101E-01 9.61113E-03 1.26573E+00-7.41355E-14 8.13072E-14
 -1      3160 2.13860E+01 7.86938E-01 1.33194E-02 1.32965E+00-4.84616E-14 2.44798E-14
 -1      3161 2.14715E+01 3.99731E-01-1.64206E-02 1.42339E+00-7.05963E-14 5.92289E-14
 -1      3162 2.20003E+01 2.48763E-01 1.00916E-02 1.49539E+00-8.89587E-14 4.09939E-14
 -1      3163 2.11382E+01 1.46287E+00 1.27537E-02 8.70654E-01 5.97807E-15 3.71243E-14
 -1      3164 2.12135E+01 1.14551E+00-1.52660E-02 1.13613E+00-1.80465E-15 5.43305E-14
 -1      3165 2.17712E+01 1.13276E+00 4.50733E-03 1.35057E+00-6.90201E-14 1.45632E-14
 -1      3166 2.09951E+01 1.77519E+00 3.79499E-03 1.06801E-01 5.30869E-15 6.18248E-14
 -1      3167 2.10191E+01 1.67663E+00-5.34102E-03 4.78696E-01 2.31884E-14 6.54165E-14
 -1      3168 2.15147E+01 1.84848E+00-5.00123E-03 7.52326E-01-2.57486E-14 8.61126E-14
 -1      3169 2.10599E+01 1.56687E+00-8.24349E-03-7.02839E-01-1.34494E-13 6.43683E-14
 -1      3170 2.10179E+01 1.73778E+00 7.55085E-03-3.50184E-01-7.56450E-14-1.95290E-14
 -1      3171 2.14266E+01 2.06967E+00-8.33634E-03-1.36733E-01-1.65762E-14 8.96635E-14
 -1      3172 2.12909E+01 9.45907E-01-1.56180E-02-1.26794E+00-7.74331E-14 2.26919E-13
 -1      3173 2.12067E+01 1.29824E+00 1.44982E-02-1.04824E+00-9.45919E-14 1.38634E-13
 -1      3174 2.15785E+01 1.68496E+00-1.89621E-03-9.72585E-01-1.62794E-13 1.07816E-13
 -1      3175 2.15365E+01 1.98051E-01-1.49260E-02-1.44476E+00-1.44790E-13 2.92460E-13
 -1      3176 2.14545E+01 5.76070E-01 1.22154E-02-1.39830E+00-9.71238E-14 3.21076E-13
 -1      3177 2.18489E+01 8.87089E-01 7.29656E-03-1.44714E+00-1.89594E-13 2.42173E-13
 -1      3178 2.16561E+01-4.07561E-01-8.47540E-03-1.27982E+00-1.33939E-13 2.84705E-13
 -1      3179 2.16132E+01-1.28382E-01 4.66344E-03-1.37205E+00-1.33969E-13 3.38962E-13
 -1      3180 2.20391E+01 2.60281E-02 1.17344E-02-1.47361E+00-1.57240E-13 3.88853E-13
 -1      3181 2.16011E+01-7.46851E-01-1.33281E-03-9.25509E-01-5.97715E-14 2.89080E-13
 -1      3182 2.16110E+01-6.10090E-01-2.34573E-03-1.08964E+00-6.70219E-14 2.53998E-13
 -1      3183 2.20271E+01-6.15256E-01 9.10813E-03-1.17358E+00-9.30537E-14 3.59773E-13
 -1      3184 2.14085E+01-8.33095E-01 3.74242E-03-5.31572E-01-7.46222E-14 4.49900E-13
 -1      3185 2.14625E+01-8.18379E-01-5.88925E-03-7.07628E-01-7.31635E-14 3.42409E-13
 -1      3186 2.18185E+01-9.31957E-01 3.50818E-03-7.41411E-01-1.18621E-13 4.63349E-13
 -1      3187 2.11481E+01-7.47959E-01 6.04616E-03-1.91639E-01-3.16140E-14 3.95919E-13
 -1      3188 2.12272E+01-8.09036E-01-6.27173E-03-3.43105E-01 3.55127E-14 5.10351E-13
 -1      3189 2.14941E+01-9.68498E-01-1.26759E-03-3.27885E-01-1.00983E-13 5.69516E-13
 -1      3190 2.08813E+01-5.79795E-01 6.23880E-03 5.75017E-02-1.40031E-13 4.32059E-13
 -1      3191 2.09672E+01-6.72846E-01-5.04064E-03-5.47911E-02-1.37112E-13 3.41575E-13
 -1      3192 2.11417E+01-8.30931E-01-3.98536E-03-7.30743E-03-5.32738E-14 5.65681E-13
 -1      3193 2.06457E+01-3.94310E-01 5.31375E-03 2.15381E-01-3.98610E-14 4.32421E-13
 -1      3194 2.07258E+01-4.89193E-01-3.39980E-03 1.42741E-01-5.31213E-14 3.75696E-13
 -1      3195 2.08216E+01-6.19987E-01-4.82755E-03 2.04600E-01-1.37072E-13 3.74213E-13
 -1      3196 2.04566E+01-2.29507E-01 3.99838E-03 2.98226E-01 3.34022E-13 1.96578E-13
 -1      3197 2.05246E+01-3.10148E-01-1.95126E-03 2.58843E-01 1.19840E-13 2.68105E-13
 -1      3198 2.05619E+01-4.04767E-01-4.51054E-03 3.22221E-01 1.44354E-13 3.18661E-13
 -1      3199 2.03146E+01-1.01337E-01 2.72663E-03 3.26511E-01 2.89969E-13 4.81251E-14
 -1      3200 2.03690E+01-1.61981E-01-8.79970E-04 3.11906E-01 3.12616E-13 1.35918E-13
 -1      3201 2.03676E+01-2.21836E-01-3.67551E-03 3.69705E-01 3.53534E-13 1.27315E-14
 -1      3202 2.02130E+01-1.18821E-02 1.68163E-03 3.18939E-01 1.78517E-13 7.98392E-14
 -1      3203 2.02550E+01-5.28709E-02-1.68319E-04 3.21048E-01 2.95968E-13 1.01671E-13
 -1      3204 2.02312E+01-8.42007E-02-2.73864E-03 3.70430E-01 2.61610E-13 4.38424E-14
 -1      3205 2.01429E+01 4.38899E-02 9.07902E-04 2.90334E-01 3.57684E-14 4.37261E-14
 -1      3206 2.01746E+01 1.93255E-02 2.62115E-04 3.02537E-01 1.07464E-13 5.70905E-14
 -1      3207 2.01404E+01 8.95851E-03-1.91052E-03 3.43158E-01 7.95142E-14 8.30301E-14
 -1      3208 2.00959E+01 7.36289E-02 3.82041E-04 2.51437E-01 3.71124E-14 1.50190E-13
 -1      3209 2.01196E+01 6.13894E-02 4.93876E-04 2.68789E-01-5.91426E-16 2.45248E-14
 -1      3210 2.00829E+01 6.49514E-02-1.26374E-03 3.01488E-01 2.92596E-14-5.03551E-14
 -1      3211 2.00649E+01 8.50457E-02 5.39245E-05 2.09471E-01 7.49645E-14 1.06920E-13
 -1      3212 2.00825E+01 8.12510E-02 5.93703E-04 2.28557E-01 1.02718E-13 1.42457E-13
 -1      3213 2.00481E+01 9.30225E-02-7.98029E-04 2.54573E-01 1.19682E-14-2.21465E-14
 -1      3214 2.00447E+01 8.47103E-02-1.33507E-04 1.68914E-01 3.29103E-14-8.11262E-14
 -1      3215 2.00578E+01 8.61701E-02 6.09443E-04 1.87565E-01 1.02929E-13 1.26470E-13
 -1      3216 2.00281E+01 1.01915E-01-4.84182E-04 2.08143E-01 9.41713E-14 1.55037E-13
 -1      3217 2.00313E+01 7.77116E-02-2.12854E-04 1.32281E-01-2.62526E-13-1.56281E-13
 -1      3218 2.00412E+01 8.20008E-02 5.73344E-04 1.49247E-01-1.01891E-13-2.42305E-13
 -1      3219 2.00172E+01 9.88092E-02-2.91123E-04 1.65467E-01-1.15487E-14 6.45090E-14
 -1      3220 2.00226E+01 6.78743E-02-9.18956E-05 1.00736E-01-1.51134E-14-2.26694E-13
 -1      3221 2.00298E+01 7.31108E-02 5.11779E-04 1.15348E-01-1.87109E-13-2.08740E-13
 -1      3222 2.00113E+01 8.91883E-02-1.94835E-04 1.28205E-01-2.05279E-13-1.42538E-13
 -1      3223 1.99676E+01 9.89657E-02-4.24411E-04 3.82969E-02-2.61455E-13 2.30220E-14
 -1      3224 1.99742E+01 9.31277E-02 1.68638E-04 4.49208E-02-2.76392E-13-4.44091E-14
 -1      3225 1.99582E+01 1.13909E-01 3.06637E-04 3.91349E-02-3.41992E-13 8.29412E-14
 -1      3226 1.99875E+01 8.93976E-02 1.82719E-04-5.61569E-02 1.10054E-13 1.08475E-13
 -1      3227 1.99783E+01 9.66264E-02-5.20713E-04-5.12332E-02 6.41023E-14-6.66333E-14
 -1      3228 1.99693E+01 1.14287E-01 5.23526E-04-5.36244E-02 4.30427E-14-2.10679E-13
 -1      3229 1.99595E+01 1.13886E-01-1.54132E-04-2.37164E-02 1.80431E-13 1.46902E-14
 -1      3230 1.99566E+01 1.15861E-01-2.33052E-04-1.41130E-02 2.96042E-13 7.26106E-14
 -1      3231 1.99541E+01 1.26067E-01 4.31259E-04-3.28646E-02 1.35324E-13-1.68698E-13
 -1      3232 1.44727E+01-1.92945E+00 8.78321E-02-5.91863E+00-9.43551E-14 2.23502E-13
 -1      3233 1.70630E+01-3.23158E+00 1.60798E-02-6.35488E+00-7.65360E-14 2.45255E-13
 -1      3234 1.29716E+01 4.00909E-01 9.84227E-02 3.56550E+00-2.48804E-13 6.78485E-14
 -1      3235 2.75435E+01 1.21381E+00-1.75314E-02 1.88657E+00-2.90927E-13-3.27724E-14
 -1      3236 2.67226E+01 3.20283E+00-1.39340E-01 2.03401E+00-3.65763E-13-6.79526E-14
 -1      3237 2.72171E+01-2.17983E+00-4.19677E-03 7.17137E-02-4.91378E-14 1.36662E-14
 -1      3238 2.74716E+01-8.30983E-01-1.36001E-01 1.08203E+00-1.63675E-13 8.94146E-14
 -1      3239 2.01003E+01 1.93212E-02 8.22061E-04-4.06308E-01-4.09467E-14 1.06695E-13
 -1      3240 2.00824E+01 3.03396E-02 4.31101E-04-3.94778E-01-1.34036E-14 7.11919E-14
 -1      3241 2.00995E+01 4.71279E-02-1.18210E-03-3.91154E-01-1.97031E-14 9.17438E-14
 -1      3242 2.01042E+01 2.00952E-02-1.39291E-03-4.26189E-01-1.57521E-14 9.67066E-14
 -1      3243 1.99813E+01 8.33711E-02-4.18008E-04 5.10110E-02-2.02128E-13-1.40619E-13
 -1      3244 1.99895E+01 7.62117E-02 3.32193E-04 5.43902E-02-7.87079E-14-2.59706E-13
 -1      3245 1.99732E+01 9.74763E-02 2.28358E-04 5.51394E-02-2.81236E-13-1.23194E-13
 -1      3246 1.64871E+01-3.15402E+00 1.07095E-01 6.60394E+00-7.25392E-14 3.41248E-13
 -1      3247 1.41855E+01-1.95276E+00 5.88197E-02 5.99896E+00 3.50275E-14 1.74721E-13
 -1      3248 1.59313E+01 1.50345E+00 3.37119E-02-2.57298E+00 4.85885E-14 2.34934E-14
 -1      3249 1.63774E+01 1.65035E+00-2.58601E-02-2.25544E+00 1.46223E-13 9.53335E-14
 -1      3250 1.59681E+01 1.95160E+00 5.22361E-02-1.57241E+00 1.01370E-13-5.19506E-14
 -1      3251 2.00387E+01 2.20468E+00-4.32125E-03 2.81201E-01 9.84517E-14 6.59638E-14
 -1      3252 2.00244E+01 2.24479E+00-3.50647E-03 1.63463E-01 1.02284E-13 7.22105E-14
 -1      3253 2.02976E+01 9.42215E-01-7.14247E-03 7.58042E-01-1.43553E-14 1.71338E-13
 -1      3254 2.02833E+01 1.27712E+00 3.36699E-03 7.73898E-01 6.55400E-15 1.42199E-13
 -1      3255 2.69682E+01 5.56606E+00-1.08907E-01 1.20407E+00-3.49165E-13 3.06560E-14
 -1      3256 2.84949E+01 6.88975E+00-1.54568E-01 7.15056E-01-3.92270E-13-1.16226E-14
 -1      3257 2.59858E+01-4.00300E+00-1.02092E-01 2.07165E+00-1.23479E-13 3.92127E-13
 -1      3258 2.44977E+01-4.41287E+00 5.05115E-02 3.59004E+00-8.74370E-14 4.45166E-13
 -1      3259 2.70303E+01 6.60970E+00-1.53752E-01 1.61319E-01-3.31596E-13 9.82265E-14
 -1      3260 1.98078E+01-3.92729E+00 1.12186E-01-5.84915E+00-1.75970E-14 2.16240E-13
 -1      3261 2.22162E+01-4.67171E+00-8.85603E-02-5.02321E+00-4.24799E-14 1.50423E-13
 -1      3262 1.99975E+01 6.51980E-02-5.41265E-04 5.80444E-02-8.19784E-14-4.53902E-13
 -1      3263 2.00100E+01 5.32912E-02 2.30571E-04 5.82917E-02 3.64695E-15-2.38199E-13
 -1      3264 2.00143E+01 5.75392E-02 5.59819E-04 6.82579E-02-2.41181E-14-3.15821E-13
 -1      3265 1.99925E+01 7.79690E-02 2.45250E-04 6.52023E-02 2.96638E-14-2.58660E-13
 -1      3266 1.99553E+01 1.15606E-01-2.87051E-04-1.71467E-03 2.97064E-13 1.56130E-13
 -1      3267 1.99561E+01 1.14610E-01-8.24040E-05 8.37781E-03 2.22475E-13 5.21912E-14
 -1      3268 1.99489E+01 1.25358E-01 3.87087E-04 1.71519E-02-5.13311E-14 3.35525E-13
 -1      3269 1.99471E+01 1.29745E-01 3.95360E-04-8.10348E-03 2.34804E-13 1.55401E-13
 -1      3270 2.00094E+01 6.77134E-02 2.15796E-04-6.29303E-02 3.40322E-14 2.12843E-13
 -1      3271 1.18805E+01 1.07168E+00 9.28079E-02 2.42167E+00-2.72848E-13 1.78524E-13
 -1      3272 2.60045E+01 4.62873E+00-7.09284E-02 1.66266E+00-2.23710E-13 6.28941E-14
 -1      3273 2.55412E+01 5.32234E+00-1.05573E-01 8.94233E-01-2.18991E-13 2.08911E-13
 -1      3274 2.60378E+01 5.91291E+00-9.77311E-02-1.57526E-01-2.47302E-13 4.74591E-13
 -1      3275 2.65808E+01 6.12909E+00-1.35219E-01-4.46506E-01-2.13329E-13 3.36967E-13
 -1      3276 2.59671E+01 5.51541E+00-9.50778E-02-1.00567E+00-1.40429E-13 4.04923E-13
 -1      3277 2.34613E+01-4.12405E+00 4.16166E-02-3.73137E+00-5.45536E-14 4.51410E-14
 -1      3278 1.42035E+01 1.66873E+00 8.50414E-02-2.20174E+00 1.89959E-13-4.48738E-14
 -1      3279 1.28870E+01-3.30976E-01 8.13050E-02-4.12363E+00 5.04041E-14-3.18426E-13
 -1      3280 1.16655E+01 6.76176E-01 1.77817E-01-3.05261E+00 2.04808E-13-1.87989E-13
 -1      3281 2.51507E+01 5.28796E+00-9.43549E-02 4.06405E-01-1.63924E-13 2.82765E-13
 -1      3282 2.46631E+01 5.05669E+00-5.87476E-02-1.86220E-01-6.70644E-14 4.32434E-13
 -1      3283 2.43377E+01 4.42760E+00-4.28036E-02 7.63655E-01-1.03841E-13 2.84866E-13
 -1      3284 2.72464E+01-1.58230E-01-5.36058E-02-1.49980E+00 6.43097E-14-2.78944E-15
 -1      3285 2.61999E+01-9.90153E-01-9.56739E-03-1.13824E+00-2.96811E-14-2.39801E-13
 -1      3286 2.66480E+01 7.73452E-01-1.22637E-01-1.85661E+00 8.73537E-14-1.69472E-13
 -1      3287 2.01605E+01 1.83299E+00-6.64545E-03 6.62283E-01 5.06293E-14 4.42482E-14
 -1      3288 2.01231E+01 1.96438E+00-2.84549E-03 5.67536E-01 7.53032E-14 5.30410E-14
 -1      3289 2.02498E+01 1.49341E+00 4.40927E-03 5.55625E-01 3.05439E-14 3.86910E-14
 -1      3290 1.30351E+01-7.40575E-01 1.59632E-01 5.20003E+00 1.67505E-14 1.65395E-13
 -1      3291 1.20662E+01 1.14030E-01 1.06344E-02 3.95420E+00 9.46847E-14 2.13635E-13
 -1      3292 1.51352E+01-1.34949E+00 7.49511E-02 5.27643E+00-3.42538E-14 2.04642E-13
 -1      3293 2.02819E+01 1.15918E+00 2.67924E-03 5.10552E-01 3.73513E-14 7.87780E-14
 -1      3294 2.02881E+01 1.11876E+00 5.38688E-03 5.85917E-01 1.50039E-14 1.05078E-13
 -1      3295 1.90198E+01-3.17797E+00 7.76116E-02-5.50552E+00-5.01266E-14 2.00659E-13
 -1      3296 1.99995E+01 7.72504E-02-3.48363E-04-6.22581E-02 1.50705E-13 1.43271E-13
 -1      3297 2.01340E+01 1.17354E-01-1.14756E-03-2.94397E-01 5.05811E-14-4.81512E-14
 -1      3298 2.00952E+01 1.03756E-01 1.73339E-04-2.87357E-01 4.05299E-14-1.20035E-16
 -1      3299 2.01037E+01 1.33203E-01 1.66064E-03-2.53281E-01 4.61100E-14 1.05621E-14
 -1      3300 2.00151E+01 6.03926E-02-8.17548E-06 7.76697E-02-2.00107E-14-2.67148E-13
 -1      3301 2.00208E+01 6.49795E-02 4.37668E-04 8.94692E-02 1.94919E-14-2.62621E-13
 -1      3302 2.00066E+01 7.93878E-02-2.88125E-04 9.95634E-02 2.94227E-15-2.08190E-13
 -1      3303 2.00029E+01 7.07361E-02-5.28196E-04 7.79484E-02 4.89187E-14-8.14908E-14
 -1      3304 2.33424E+01-4.46443E+00 2.97864E-03 4.26693E+00-1.22582E-13 4.58811E-13
 -1      3305 2.19234E+01-4.08710E+00 3.27337E-02 4.70259E+00-1.81417E-13 5.43255E-13
 -1      3306 2.40041E+01-3.98487E+00 2.60339E-02 3.09957E+00-2.37950E-13 1.70789E-13
 -1      3307 1.99925E+01 9.44497E-02 3.97843E-04-6.98293E-02 2.04654E-13 3.99463E-13
 -1      3308 2.59722E+01-3.05189E+00-9.91087E-03 8.83017E-01-1.72203E-13 8.63198E-14
 -1      3309 1.33648E+01-9.75512E-01 1.17242E-01-5.30345E+00-5.41234E-14 2.51021E-13
 -1      3310 1.53452E+01-1.34754E+00 7.63571E-02-5.18536E+00-5.27182E-14 2.88367E-13
 -1      3311 1.24546E+01-9.55171E-02 5.29805E-02-4.23443E+00-1.00996E-14 3.79113E-13
 -1      3312 2.02481E+01 1.50173E+00-5.20532E-03-8.53384E-01 6.03528E-14-3.58372E-15
 -1      3313 2.55596E+01 3.19024E+00-7.13619E-02 1.78793E+00-2.42459E-13 1.42639E-13
 -1      3314 2.02410E+01 1.52857E+00-2.75628E-03-7.42486E-01 6.90405E-14 3.02763E-14
 -1      3315 2.66536E+01 8.08929E-02-4.15644E-02 1.57705E+00-2.35111E-13-3.91631E-14
 -1      3316 2.01202E+01 1.69845E-01-4.24238E-04-2.11517E-01 3.92634E-14 1.97445E-14
 -1      3317 2.01399E+01 2.19366E-01 2.58978E-03-1.59832E-01 4.50665E-14 3.98853E-14
 -1      3318 2.02075E+01 3.05691E-01-1.13655E-03-1.10061E-01 6.55487E-14 2.77743E-14
 -1      3319 2.01673E+01 1.88321E-01-1.19876E-03-2.18969E-01 4.87242E-14-2.10279E-14
 -1      3320 2.64860E+01-3.09705E+00-3.42494E-02-6.57175E-01-5.11544E-14-2.57711E-14
 -1      3321 2.60194E+01-2.22393E+00-1.23656E-02 2.49522E-01-3.98119E-14-3.15754E-14
 -1      3322 2.54091E+01-3.35912E+00 4.92755E-02-1.36810E+00-8.67119E-14-4.89409E-14
 -1      3323 1.86785E+01-3.40363E+00 7.33081E-02 5.87830E+00 3.19397E-14 5.04735E-13
 -1      3324 1.06122E+01 1.10812E+00 5.66591E-02-1.45804E+00 2.59594E-13-9.68808E-14
 -1      3325 2.72933E+01 4.06587E+00-1.27337E-01-1.90621E+00 5.55389E-14 2.61249E-14
 -1      3326 2.67094E+01 2.89218E+00-4.18127E-02-2.04925E+00 8.03246E-14 3.70329E-14
 -1      3327 2.60324E+01 4.38716E+00-1.04881E-01-1.69273E+00 4.54914E-14 1.35787E-13
 -1      3328 1.03885E+01 1.32205E+00 3.80561E-02-3.67765E-01-1.83051E-13 5.33212E-13
 -1      3329 9.73012E+00 1.03127E+00 1.75970E-01-1.62186E+00-2.03780E-13 5.92623E-13
 -1      3330 1.09443E+01 8.86104E-01 6.44754E-02-2.47301E+00-1.33150E-13 5.98993E-13
 -1      3331 1.05696E+01 1.54015E+00 1.79817E-01 5.48748E-02 2.58273E-13 2.13718E-15
 -1      3332 1.25514E+01 1.58924E+00 5.38728E-02-1.26987E+00 2.67188E-13-3.24393E-14
 -1      3333 1.35142E+01 1.83529E+00-1.38469E-02-8.88865E-01 2.08075E-13 2.41196E-14
 -1      3334 1.12719E+01 1.29487E+00 3.61981E-02 1.47961E+00 2.15758E-13 8.23647E-14
 -1      3335 2.00172E+01 2.26496E+00-3.69436E-03 6.38384E-02 1.05675E-13 9.30855E-14
 -1      3336 2.00168E+01 2.26604E+00-3.69748E-03-5.61211E-02 1.15328E-13 5.87886E-14
 -1      3337 2.01272E+01 1.97616E+00 4.96272E-03 9.60088E-02 8.90992E-14 8.34207E-14
 -1      3338 2.00881E+01 2.06370E+00-5.17813E-03 4.85985E-01 9.57684E-14 7.24467E-14
 -1      3339 2.00609E+01 2.14587E+00-3.24298E-03 3.75398E-01 9.92636E-14 6.59272E-14
 -1      3340 2.01521E+01 1.89675E+00 5.12250E-03 2.74796E-01 8.26970E-14 6.65552E-14
 -1      3341 2.01958E+01 1.73705E+00 4.66020E-03 4.34306E-01 7.69437E-14 4.47715E-14
 -1      3342 2.01216E+01 1.97567E+00-2.78972E-03-5.60421E-01 1.06723E-13 4.19117E-14
 -1      3343 2.01617E+01 1.84372E+00-6.42785E-03-6.57905E-01 9.25388E-14 4.22149E-14
 -1      3344 2.00864E+01 2.07342E+00-5.11616E-03-4.78846E-01 1.11495E-13 3.22656E-14
 -1      3345 2.01942E+01 1.74705E+00 4.28982E-03-4.28275E-01 9.81733E-14 3.94986E-14
 -1      3346 2.00596E+01 2.15360E+00-3.13883E-03-3.66990E-01 1.16146E-13 5.11561E-14
 -1      3347 2.52289E+01 2.09091E+00-1.36832E-02 2.04823E+00-2.76196E-13 6.85667E-14
 -1      3348 2.43878E+01 3.27676E+00-4.89090E-02 1.62722E+00-1.44659E-13 2.48719E-13
 -1      3349 2.23832E+01-3.68822E+00 9.17017E-02-3.97239E+00 3.65541E-14 4.86972E-14
 -1      3350 2.39236E+01-3.99410E+00-9.34127E-02-2.77380E+00-1.15958E-14-3.42677E-14
 -1      3351 2.02901E+01 1.19491E+00-5.62222E-04-4.38209E-01 8.66051E-14 4.16081E-14
 -1      3352 2.02935E+01 9.64979E-01-3.08078E-03-2.88016E-01 6.10779E-14 6.11006E-14
 -1      3353 1.65478E+01 1.82962E+00-1.50979E-02-7.97508E-01 5.57969E-14-7.03710E-14
 -1      3354 1.71281E+01 1.71938E+00-1.72262E-02-7.44646E-01 7.06156E-14-6.15106E-14
 -1      3355 2.03130E+01 7.82438E-01 2.20629E-03-1.84418E-01 3.70225E-14 6.38623E-14
 -1      3356 2.02938E+01 6.32301E-01-2.69133E-03-7.62345E-02 3.30208E-14 6.71279E-14
 -1      3357 2.03122E+01 9.85884E-01 1.30333E-03-2.34710E-01 4.63313E-14 7.22808E-14
 -1      3358 2.02911E+01 5.13270E-01 2.19547E-03 1.89591E-03 3.74741E-14 7.16144E-14
 -1      3359 2.02644E+01 4.16966E-01-1.85505E-03 7.98956E-02 5.41151E-14 9.02726E-14
 -1      3360 2.03173E+01 6.55921E-01 5.72176E-04-5.09278E-02 4.18338E-14 7.89979E-14
 -1      3361 2.02461E+01 3.44901E-01 1.58658E-03 1.37012E-01 2.87099E-14 8.17909E-14
 -1      3362 2.02179E+01 2.89674E-01-1.01466E-03 1.93117E-01 8.40436E-15 8.25233E-14
 -1      3363 2.02866E+01 4.41284E-01 2.71357E-04 8.68636E-02 3.74926E-14 4.36382E-14
 -1      3364 2.01883E+01 2.52902E-01 7.84710E-04 2.34501E-01 1.67235E-14 8.46171E-14
 -1      3365 2.01597E+01 2.29810E-01-4.40588E-04 2.76568E-01-1.87471E-15 8.12511E-14
 -1      3366 2.02330E+01 3.15071E-01 1.90510E-04 1.87509E-01 1.11676E-14 8.05887E-14
 -1      3367 2.01203E+01 2.20973E-01-2.40776E-05 3.07881E-01-2.27352E-14 1.13033E-13
 -1      3368 2.00898E+01 2.24015E-01-1.44948E-04 3.42532E-01-1.41118E-14 1.20206E-13
 -1      3369 2.01619E+01 2.59213E-01 4.22720E-04 2.61586E-01 3.62902E-15 9.37458E-14
 -1      3370 2.00396E+01 2.38570E-01-8.53828E-04 3.68307E-01-4.26448E-14 1.13680E-13
 -1      3371 2.00037E+01 2.64225E-01-1.23250E-04 4.00766E-01-5.18002E-14 8.41616E-14
 -1      3372 2.00735E+01 2.60576E-01 9.50210E-04 3.18736E-01-1.10143E-14 6.69294E-14
 -1      3373 1.99358E+01 3.02294E-01-1.66502E-03 4.25235E-01-4.33640E-14 9.21549E-14
 -1      3374 1.98851E+01 3.52054E-01-4.30313E-04 4.60871E-01-4.60399E-14 1.21453E-13
 -1      3375 1.99595E+01 3.12840E-01 1.72124E-03 3.67097E-01-5.70318E-14 1.10441E-13
 -1      3376 1.97985E+01 4.09692E-01-2.59556E-03 4.83084E-01-7.22268E-14 1.38662E-13
 -1      3377 1.97292E+01 4.78552E-01-1.24515E-03 5.20575E-01-5.18439E-14 1.44818E-13
 -1      3378 1.98115E+01 4.11773E-01 3.02613E-03 4.08883E-01-3.67453E-14 1.24901E-13
 -1      3379 1.96123E+01 5.57499E-01-3.59100E-03 5.41210E-01-2.24760E-14 1.09902E-13
 -1      3380 1.95094E+01 6.47833E-01-2.55560E-03 5.82340E-01-2.02604E-14 7.12732E-14
 -1      3381 1.96173E+01 5.51979E-01 4.72917E-03 4.42877E-01-5.31271E-14 1.20423E-13
 -1      3382 1.93477E+01 7.48879E-01-4.84378E-03 5.98313E-01-2.79148E-14 8.58048E-14
 -1      3383 1.91929E+01 8.60669E-01-4.61070E-03 6.41067E-01-3.67382E-14 4.77413E-14
 -1      3384 1.93505E+01 7.34843E-01 7.15302E-03 4.64623E-01-3.82943E-14 9.88569E-14
 -1      3385 1.89667E+01 9.82976E-01-6.53575E-03 6.46644E-01-2.05629E-14 5.83186E-14
 -1      3386 1.87347E+01 1.11335E+00-7.65408E-03 6.86785E-01 1.57747E-14 1.05177E-13
 -1      3387 1.89778E+01 9.58325E-01 1.05333E-02 4.62572E-01-1.94994E-14 1.51749E-13
 -1      3388 1.84161E+01 1.25163E+00-9.07550E-03 6.73502E-01-1.17377E-14 1.05505E-13
 -1      3389 1.80722E+01 1.39143E+00-1.18931E-02 7.05515E-01-4.26709E-14 1.24577E-13
 -1      3390 1.84533E+01 1.21496E+00 1.52794E-02 4.18341E-01 2.42807E-14 1.61037E-13
 -1      3391 1.76204E+01 1.53122E+00-1.31723E-02 6.63159E-01-1.06575E-13 1.53721E-13
 -1      3392 1.71175E+01 1.66002E+00-1.68531E-02 6.83713E-01-1.40269E-13 1.62406E-13
 -1      3393 1.77125E+01 1.48604E+00 2.23098E-02 3.06881E-01-5.80325E-14 1.73911E-13
 -1      3394 1.64692E+01 1.76974E+00-1.95057E-02 6.03669E-01-1.62952E-13 1.42464E-13
 -1      3395 1.57444E+01 1.85015E+00-1.90660E-02 6.19951E-01-1.40997E-13 1.62544E-13
 -1      3396 1.66628E+01 1.73469E+00 3.48377E-02 9.90707E-02-1.46467E-13 2.63246E-13
 -1      3397 1.47361E+01 1.87307E+00-2.44826E-02 5.01213E-01-1.43391E-13 1.89026E-13
 -1      3398 1.36138E+01 1.80846E+00-9.38180E-03 5.48305E-01-2.26212E-13 2.40863E-13
 -1      3399 1.51068E+01 1.89585E+00 6.16979E-02-2.42270E-01-1.17920E-13 2.52579E-13
 -1      3400 2.02977E+01 1.10723E+00 5.18406E-03 3.95111E-01 5.83644E-14 5.23062E-14
 -1      3401 2.02706E+01 1.28000E+00-3.65842E-03 4.81608E-01 3.02666E-14 2.60786E-14
 -1      3402 2.02499E+01 1.42485E+00-5.79460E-04 4.41424E-01 5.68709E-14-1.37436E-16
 -1      3403 1.81197E+01-2.39782E+00 5.82251E-02-5.16409E+00-5.21007E-14 1.66565E-13
 -1      3404 2.01914E+01-3.38243E+00-4.75383E-02-4.86095E+00-9.19056E-15 1.19217E-13
 -1      3405 1.76770E+01 1.59280E+00-1.29902E-02-7.74346E-01 1.52814E-13-6.74016E-14
 -1      3406 1.80773E+01 1.45543E+00-1.18543E-02-7.18761E-01 1.21005E-13-8.55418E-14
 -1      3407 1.71953E+01 1.70929E+00 2.86376E-02-3.09843E-01 9.41118E-14 1.57988E-13
 -1      3408 1.84578E+01 1.31692E+00-8.76050E-03-7.21262E-01 1.57090E-13-9.81336E-14
 -1      3409 1.87268E+01 1.18098E+00-8.36502E-03-6.60719E-01 1.60326E-13-1.07493E-13
 -1      3410 1.80831E+01 1.44172E+00 1.91924E-02-4.11345E-01 1.34675E-13-1.05750E-13
 -1      3411 1.89909E+01 1.05259E+00-5.48302E-03-6.43520E-01-6.80324E-14-7.02129E-16
 -1      3412 1.91678E+01 9.32227E-01-6.11936E-03-5.81441E-01-1.06223E-13 1.80541E-15
 -1      3413 1.87010E+01 1.17409E+00 1.32356E-02-4.42154E-01 2.09349E-14-6.07681E-14
 -1      3414 1.93503E+01 8.22837E-01-3.17572E-03-5.52781E-01-1.63670E-13-8.29588E-14
 -1      3415 1.94638E+01 7.22661E-01-4.54521E-03-4.93490E-01-2.29349E-13-1.60762E-13
 -1      3416 1.91286E+01 9.33293E-01 9.13662E-03-4.26016E-01-1.60724E-13 1.04251E-14
 -1      3417 1.95890E+01 6.33662E-01-1.71671E-03-4.60027E-01-8.57256E-14-5.62746E-14
 -1      3418 1.96603E+01 5.53383E-01-3.42093E-03-4.06515E-01-1.01131E-13 8.71109E-14
 -1      3419 1.94218E+01 7.29584E-01 6.29134E-03-3.83179E-01-9.60332E-14-8.84713E-14
 -1      3420 1.97488E+01 4.80056E-01-7.35778E-04-3.71025E-01-2.09736E-13 1.14027E-13
 -1      3421 1.97939E+01 4.14622E-01-2.54870E-03-3.22899E-01-1.46769E-13 1.60952E-13
 -1      3422 1.96251E+01 5.59651E-01 4.17865E-03-3.26892E-01-1.80996E-13 1.29017E-13
 -1      3423 1.98505E+01 3.61055E-01-1.66077E-04-2.92004E-01-5.26987E-14 2.30337E-13
 -1      3424 1.98754E+01 3.13143E-01-1.88117E-03-2.53660E-01-4.29703E-14 1.84292E-13
 -1      3425 1.97609E+01 4.25663E-01 2.79709E-03-2.68778E-01-7.14882E-14 2.86204E-13
 -1      3426 1.99134E+01 2.72251E-01 1.63579E-04-2.26608E-01-1.06334E-13 2.34864E-13
 -1      3427 1.99273E+01 2.35496E-01-1.40597E-03-1.95344E-01 3.17834E-14 3.68811E-13
 -1      3428 1.98487E+01 3.23661E-01 1.82776E-03-2.15557E-01-2.09361E-15 2.64068E-13
 -1      3429 1.99526E+01 2.04488E-01 2.99328E-04-1.72573E-01 2.19067E-14 3.40045E-13
 -1      3430 1.99599E+01 1.76557E-01-1.04366E-03-1.47574E-01 1.16109E-14 4.80195E-13
 -1      3431 1.99067E+01 2.44909E-01 1.18583E-03-1.68627E-01 3.99385E-14 2.52567E-13
 -1      3432 1.99765E+01 1.53363E-01 4.10647E-04-1.28916E-01-7.06329E-14 4.56804E-13
 -1      3433 1.99797E+01 1.32241E-01-7.36010E-04-1.09282E-01 1.18553E-13 3.84714E-13
 -1      3434 1.99443E+01 1.84397E-01 6.52090E-04-1.29018E-01-4.31389E-14-3.01361E-14
 -1      3435 1.99867E+01 1.20316E-01 5.61844E-04-9.57992E-02 2.18234E-13 4.14570E-13
 -1      3436 1.99879E+01 1.04272E-01-3.52632E-04-8.06168E-02 1.73479E-13 3.95857E-13
 -1      3437 1.99732E+01 1.16110E-01-3.93277E-04-7.28465E-02 2.17874E-13 2.35188E-13
 -1      3438 1.99633E+01 1.43526E-01-7.56581E-06-9.72731E-02 5.27709E-14 1.08634E-13
 -1      3439 1.99600E+01 1.26556E-01-2.50265E-04-6.17378E-02 2.70911E-13-4.42252E-14
 -1      3440 1.99503E+01 1.34392E-01-2.78358E-04-5.22200E-02 1.79259E-13-1.89234E-13
 -1      3441 1.99562E+01 1.40516E-01 6.35848E-04-7.26648E-02 2.53205E-13-1.41485E-14
 -1      3442 2.01323E+01 8.95338E-02 6.02055E-04-3.47861E-01-1.74574E-14 4.96049E-14
 -1      3443 2.01421E+01 1.07743E-01 5.96068E-04-3.22608E-01-8.88800E-15 3.62027E-14
 -1      3444 2.01755E+01-8.36844E-02 1.29625E-03-5.06471E-01 2.61263E-14 8.55511E-14
 -1      3445 2.01387E+01-4.21635E-02 1.26687E-03-4.96980E-01 6.02711E-16 7.82237E-14
 -1      3446 2.01234E+01-1.01864E-02 1.31545E-03-4.73475E-01 1.76782E-14 6.52396E-14
 -1      3447 2.01033E+01 1.43644E-02 6.22541E-04-4.58556E-01 2.54805E-14 6.20875E-14
 -1      3448 2.00953E+01-1.65090E-02-2.42490E-03-5.03849E-01 9.22766E-15 2.28288E-14
 -1      3449 2.04388E+01-3.71715E-01 3.04260E-04-5.16423E-01 5.29199E-14 1.12652E-13
 -1      3450 2.03532E+01-2.77999E-01 3.89019E-03-5.35687E-01 4.95197E-14 9.06522E-14
 -1      3451 2.06809E+01-5.96478E-01-1.07328E-03-4.57077E-01 7.96771E-14 5.89977E-14
 -1      3452 2.05651E+01-4.75725E-01 5.87347E-03-5.05629E-01 4.29649E-14 6.25411E-14
 -1      3453 2.04461E+01-4.57440E-01-6.66361E-03-6.09664E-01 6.70357E-14-3.46667E-14
 -1      3454 2.10097E+01-8.55838E-01-3.25915E-03-3.18324E-01 6.83037E-15 1.45605E-13
 -1      3455 2.08657E+01-7.20773E-01 8.01164E-03-4.09135E-01 7.11946E-14 1.31836E-13
 -1      3456 2.07374E+01-7.25646E-01-8.24060E-03-5.70554E-01 2.02075E-14 6.24542E-14
 -1      3457 2.14156E+01-1.09733E+00-6.01569E-03-6.84311E-02-7.21383E-14 2.19088E-13
 -1      3458 2.12550E+01-9.79363E-01 9.58284E-03-2.12713E-01-4.10910E-14 1.98122E-13
 -1      3459 2.11442E+01-1.02866E+00-8.87337E-03-4.40013E-01-5.26886E-14 1.69825E-13
 -1      3460 2.18579E+01-1.22264E+00-8.13481E-03 3.12931E-01-1.09706E-14 1.28474E-13
 -1      3461 2.17053E+01-1.17830E+00 9.26650E-03 1.13965E-01-2.34960E-14 1.85134E-13
 -1      3462 2.16579E+01-1.29768E+00-7.25268E-03-1.74040E-01-4.30996E-14 1.10530E-13
 -1      3463 2.22530E+01-1.08900E+00-8.00405E-03 8.02764E-01-3.39388E-15 1.12418E-13
 -1      3464 2.21442E+01-1.19505E+00 4.84089E-03 5.74055E-01 7.44148E-15 1.38856E-13
 -1      3465 2.22258E+01-1.40356E+00-1.57293E-03 2.58958E-01 6.20706E-16 7.93379E-14
 -1      3466 2.24852E+01-5.54699E-01-3.38560E-03 1.29485E+00-1.18132E-13 6.77919E-14
 -1      3467 2.24571E+01-8.77013E-01-4.90379E-03 1.10281E+00-4.94379E-14 9.83957E-14
 -1      3468 2.27339E+01-1.17646E+00 4.16544E-03 8.36496E-01-3.03367E-14 5.51365E-14
 -1      3469 2.24714E+01 4.19236E-01 9.11140E-03 1.57674E+00-6.69994E-14 7.25771E-14
 -1      3470 2.25253E+01-1.19299E-01-1.72019E-02 1.52440E+00-9.98331E-14 1.13515E-13
 -1      3471 2.30238E+01-4.35318E-01 1.13743E-02 1.41548E+00-1.46281E-13 6.07769E-14
 -1      3472 2.19509E+01 2.43598E+00 4.10673E-03 6.57711E-01-5.77437E-14 9.29350E-14
 -1      3473 2.20205E+01 2.07177E+00-2.50065E-02 1.04638E+00-1.16498E-13 2.78816E-14
 -1      3474 2.18916E+01 2.53310E+00-1.08183E-02-3.89075E-01-1.15002E-13 2.51066E-13
 -1      3475 2.18845E+01 2.60312E+00-2.63786E-03 7.79452E-02-3.10706E-14 1.72279E-13
 -1      3476 2.24273E+01 2.90600E+00-7.64022E-03 4.16193E-01-1.34722E-13 2.07561E-13
 -1      3477 2.21062E+01 1.80117E+00-2.43739E-02-1.26215E+00-2.15910E-13 2.92763E-13
 -1      3478 2.20235E+01 2.25931E+00 1.22804E-02-9.22545E-01-1.55930E-13 2.47751E-13
 -1      3479 2.24758E+01 2.76696E+00-7.00655E-03-7.39175E-01-1.62417E-13 3.56946E-13
 -1      3480 2.24031E+01 6.58927E-01-2.47231E-02-1.61444E+00-2.37594E-13 4.23016E-13
 -1      3481 2.23129E+01 1.25529E+00 1.42895E-02-1.51167E+00-2.51441E-13 3.59308E-13
 -1      3482 2.27797E+01 1.75619E+00 6.17979E-03-1.53395E+00-2.36418E-13 3.86897E-13
 -1      3483 2.25303E+01-3.70458E-01-1.44288E-02-1.43745E+00-1.73805E-13 4.24657E-13
 -1      3484 2.25021E+01 1.11029E-01 5.76310E-03-1.54372E+00-2.18994E-13 4.56767E-13
 -1      3485 2.30209E+01 3.93968E-01 1.34548E-02-1.65458E+00-2.48392E-13 4.58874E-13
 -1      3486 2.23836E+01-9.91392E-01-2.19502E-03-9.69724E-01-1.01575E-13 4.42231E-13
 -1      3487 2.24408E+01-7.34646E-01-3.91735E-03-1.18121E+00-1.10187E-13 4.36926E-13
 -1      3488 2.29633E+01-6.86362E-01 1.14464E-02-1.26701E+00-1.62338E-13 4.61780E-13
 -1      3489 2.20207E+01-1.19060E+00 6.26677E-03-4.56416E-01-2.01884E-13 5.45190E-13
 -1      3490 2.21461E+01-1.13850E+00-8.64207E-03-6.77778E-01-1.15311E-13 4.90152E-13
 -1      3491 2.25950E+01-1.25894E+00 2.81430E-03-6.79391E-01-1.21622E-13 4.49871E-13
 -1      3492 2.15664E+01-1.09944E+00 9.63767E-03-4.05409E-02-3.41364E-14 4.81960E-13
 -1      3493 2.17246E+01-1.17570E+00-8.04629E-03-2.19973E-01-1.42869E-13 5.46793E-13
 -1      3494 2.20526E+01-1.36748E+00-4.17052E-03-1.44847E-01-1.38463E-13 4.07599E-13
 -1      3495 2.11253E+01-8.65684E-01 9.37605E-03 2.36232E-01-8.56088E-14 5.60178E-13
 -1      3496 2.12836E+01-9.97114E-01-5.40477E-03 1.13695E-01 1.67193E-14 5.76075E-13
 -1      3497 2.14874E+01-1.18975E+00-7.90713E-03 2.30763E-01-1.23044E-13 4.87664E-13
 -1      3498 2.07553E+01-5.97057E-01 7.55963E-03 3.88008E-01 6.22755E-15 3.26228E-13
 -1      3499 2.08929E+01-7.34637E-01-2.74677E-03 3.17365E-01-8.21444E-14 4.25790E-13
 -1      3500 2.09953E+01-8.92205E-01-8.63423E-03 4.43487E-01-1.81270E-14 5.00602E-13
 -1      3501 2.04743E+01-3.54801E-01 5.38055E-03 4.47671E-01 3.32752E-13 1.58007E-13
 -1      3502 2.05829E+01-4.72959E-01-8.38558E-04 4.16537E-01 1.75379E-13 3.02392E-13
 -1      3503 2.06137E+01-5.84881E-01-7.60730E-03 5.31119E-01 1.01879E-13 1.64601E-13
 -1      3504 2.02767E+01-1.64442E-01 3.47471E-03 4.47665E-01 3.37671E-13 1.79480E-13
 -1      3505 2.03565E+01-2.54075E-01 2.76758E-04 4.43312E-01 3.89740E-13 2.11465E-13
 -1      3506 2.03427E+01-3.23430E-01-5.92289E-03 5.37471E-01 2.97986E-13 2.43482E-13
 -1      3507 2.01469E+01-2.99718E-02 2.01321E-03 4.13303E-01 2.35291E-13 1.11488E-13
 -1      3508 2.02024E+01-9.12723E-02 8.16692E-04 4.25304E-01 3.04662E-13 1.64445E-13
 -1      3509 2.01643E+01-1.26635E-01-4.22370E-03 4.97799E-01 3.62819E-13 3.20719E-13
 -1      3510 2.00674E+01 5.53885E-02 9.85838E-04 3.62161E-01 1.69456E-13-6.53016E-14
 -1      3511 2.01040E+01 1.79364E-02 1.00011E-03 3.82884E-01 2.12712E-13 6.70275E-14
 -1      3512 2.00558E+01 7.07342E-03-2.80346E-03 4.36301E-01 2.22885E-13 1.11023E-13
 -1      3513 2.00225E+01 1.02401E-01 3.17516E-04 3.05524E-01 1.64731E-14-1.56628E-13
 -1      3514 2.00457E+01 8.30132E-02 9.92924E-04 3.29794E-01 5.93042E-14-8.58439E-14
 -1      3515 1.99962E+01 8.82282E-02-1.73583E-03 3.68027E-01 1.11561E-13-7.29228E-14
 -1      3516 1.99999E+01 1.22054E-01-8.08486E-05 2.50128E-01 2.02357E-14-1.57834E-13
 -1      3517 2.00140E+01 1.15212E-01 8.98983E-04 2.74662E-01-1.84359E-15-1.41237E-13
 -1      3518 1.99684E+01 1.29842E-01-9.90967E-04 3.01571E-01 3.10657E-14-4.35728E-14
 -1      3519 1.99907E+01 1.23804E-01-2.92984E-04 1.99609E-01-1.94704E-14-1.50869E-14
 -1      3520 1.99991E+01 1.24940E-01 7.75979E-04 2.22498E-01-2.16460E-14-1.64170E-13
 -1      3521 1.99597E+01 1.44123E-01-5.02546E-04 2.41332E-01-1.44446E-14-6.76644E-14
 -1      3522 1.99889E+01 1.14998E-01-3.81602E-04 1.55600E-01-9.73678E-14-1.02976E-13
 -1      3523 1.99938E+01 1.20684E-01 6.58426E-04 1.75887E-01 4.29745E-14-2.39170E-14
 -1      3524 1.99615E+01 1.41064E-01-2.19008E-04 1.89146E-01-4.07258E-14-1.74288E-13
 -1      3525 1.99910E+01 1.01215E-01-2.46691E-04 1.18738E-01-1.22710E-13-2.04320E-13
 -1      3526 1.99936E+01 1.08662E-01 5.45110E-04 1.35901E-01-1.21009E-13-9.58590E-14
 -1      3527 1.99680E+01 1.28024E-01-1.75693E-04 1.45344E-01-9.11478E-14-1.42997E-13
 -1      3528 1.99437E+01 1.28476E-01-4.93314E-04 4.13683E-02-2.66955E-13 2.31057E-13
 -1      3529 1.99518E+01 1.22246E-01 2.52975E-04 5.13282E-02-2.83827E-13 6.08368E-14
 -1      3530 1.99419E+01 1.39560E-01-3.41033E-04-3.76409E-02 4.80013E-14-1.78206E-13
 -1      3531 1.99368E+01 1.43518E-01-1.08333E-04-2.54013E-02 1.17811E-13-3.20371E-14
 -1      3532 1.99335E+01 1.55550E-01 4.39140E-04-4.53713E-02 3.60273E-13 2.47443E-14
 -1      3533 2.02754E+01-2.00875E-01 1.01652E-03-5.25593E-01-4.55545E-15 1.45119E-13
 -1      3534 2.02168E+01-1.35497E-01 2.34040E-03-5.26518E-01 1.27375E-14 1.22339E-13
 -1      3535 2.01466E+01-1.07458E-01-3.51753E-03-5.54725E-01 2.86856E-15 1.23582E-13
 -1      3536 2.02564E+01-2.50866E-01-4.97009E-03-5.95470E-01 3.70198E-14 1.23738E-13
 -1      3537 2.00242E+01 2.24806E+00-3.37730E-03-1.55210E-01 1.14766E-13 4.02322E-14
 -1      3538 2.00378E+01 2.21019E+00-4.19468E-03-2.73210E-01 1.05418E-13 5.30992E-14
 -1      3539 2.01491E+01 1.90275E+00 4.18883E-03-2.67063E-01 1.02746E-13 3.81416E-14
 -1      3540 2.02116E+01 1.62334E+00-2.86641E-03-6.83485E-01 8.42600E-14 4.17281E-14
 -1      3541 2.02435E+01-3.61481E+00 3.01640E-02 5.29000E+00-8.31488E-14 5.85275E-13
 -1      3542 1.82005E+01-2.70960E+00 2.37843E-02 5.38762E+00-8.32112E-14 3.90410E-13
 -1      3543 2.14920E+01-3.46722E+00 5.12093E-02 4.30023E+00-1.90129E-13 4.76113E-13
 -1      3544 2.52228E+01 4.70792E+00-7.70555E-02-1.18854E+00-1.52725E-13 4.27131E-13
 -1      3545 2.56730E+01 4.60107E+00-1.02540E-01-1.45503E+00-6.09304E-14 2.55532E-13
 -1      3546 2.53442E+01 3.72231E+00-4.14587E-02-1.72608E+00 2.73948E-14 2.54186E-13
 -1      3547 1.55435E+01-1.18020E+00 1.74999E-01-4.96502E+00 3.68455E-14-2.54463E-13
 -1      3548 2.58973E+01-7.33641E-01-9.49511E-03 1.33842E+00-1.21386E-13-8.54160E-14
 -1      3549 2.55771E+01 7.40845E-01-8.21249E-02 1.89548E+00-2.58092E-13-9.55121E-14
 -1      3550 1.49501E+01 1.92686E+00-2.00024E-03-8.08238E-01 6.22453E-14 2.37449E-14
 -1      3551 1.57441E+01 1.88898E+00-2.55295E-02-7.50078E-01-2.99153E-15-4.81559E-15
 -1      3552 1.59105E+01 1.93139E+00 4.66252E-02-1.16716E-01-3.81691E-14 5.11774E-14
 -1      3553 2.56154E+01-2.50429E+00-5.39118E-02 3.18242E-02-2.17111E-13-7.94616E-14
 -1      3554 2.50310E+01-3.44925E+00 1.45380E-02 1.55567E+00-2.61521E-13 8.77545E-14
 -1      3555 1.99611E+01 1.10535E-01-5.28251E-04 6.14122E-02-2.54805E-13-2.29715E-13
 -1      3556 1.99713E+01 1.01709E-01-4.45217E-05 6.72704E-02-9.70452E-14-3.36267E-13
 -1      3557 1.99480E+01 1.27943E-01-4.62320E-05 6.47200E-02-1.31040E-13-7.67422E-14
 -1      3558 2.01866E+01 1.70208E+00-3.08072E-03 1.20310E-01 8.46890E-14 6.07710E-14
 -1      3559 2.01812E+01 1.72309E+00-2.61049E-03 3.60841E-02 1.03288E-13 6.24286E-14
 -1      3560 2.43702E+01-3.38742E+00-2.39787E-05-1.78218E+00-4.18242E-14 1.63411E-15
 -1      3561 1.27782E+01 1.77321E+00 1.15373E-01-8.59074E-01-1.52303E-13 4.16295E-13
 -1      3562 1.22491E+01 1.62848E+00 3.44627E-02 2.90419E-01-2.15194E-13 4.02844E-13
 -1      3563 2.01962E+01 1.66564E+00-2.26468E-03 1.85716E-01 6.39225E-14 6.39467E-14
 -1      3564 2.02658E+01 1.45532E+00 5.23167E-03 1.18591E-01 6.52173E-14 5.75170E-14
 -1      3565 2.02093E+01 1.60591E+00-3.52050E-03 2.63220E-01 6.77357E-14 7.24625E-14
 -1      3566 2.02870E+01 8.96404E-01-3.30226E-03 2.62521E-01 5.78052E-14 3.71010E-14
 -1      3567 2.59544E+01 1.54219E+00-3.72953E-02-1.95819E+00-6.28525E-14-1.56875E-13
 -1      3568 2.13539E+01-3.13265E+00 3.35674E-02-3.91505E+00 2.34292E-14-2.64328E-15
 -1      3569 1.68255E+01-1.81533E+00 6.76189E-02 5.28996E+00-6.27762E-14 3.52184E-13
 -1      3570 1.52830E+01-8.66635E-01-9.66448E-03 4.65986E+00-1.51545E-14 1.62682E-13
 -1      3571 1.84190E+01-2.06789E+00 5.68517E-02 4.73794E+00-1.21396E-13 3.67383E-13
 -1      3572 1.69145E+01-1.70023E+00 4.27088E-02-5.06122E+00-3.01599E-14 2.35485E-13
 -1      3573 1.83740E+01-1.81487E+00 4.82967E-02-4.44165E+00-2.78423E-16 1.22463E-13
 -1      3574 1.56926E+01-8.50515E-01 1.87172E-02-4.51519E+00 1.11872E-14 3.16903E-13
 -1      3575 2.01770E+01 1.44518E-01-7.16543E-04-2.92837E-01-6.55104E-15 6.99373E-14
 -1      3576 2.01642E+01 1.30845E-01 1.37783E-04-2.94072E-01 2.08283E-14 2.04363E-14
 -1      3577 2.01805E+01 1.61814E-01 1.04207E-03-2.60722E-01 4.35912E-14-5.45888E-15
 -1      3578 1.18616E+01 1.64583E+00 1.03955E-01 1.17143E+00-2.80950E-13 3.55348E-13
 -1      3579 2.01257E+01 1.97814E+00 4.50613E-03-8.81952E-02 1.08846E-13 4.83242E-14
 -1      3580 2.01129E+01 7.48685E-02 3.44865E-04-3.72457E-01-2.55327E-14 5.72917E-14
 -1      3581 2.01340E+01 1.01911E-01-8.98608E-04-3.48936E-01-4.77114E-14 6.87100E-14
 -1      3582 2.01108E+01 6.18772E-02 9.41937E-04-3.93190E-01-5.29136E-14 8.01038E-14
 -1      3583 1.99337E+01 1.40425E-01-4.54433E-04 1.52339E-02 8.82283E-14 4.62973E-13
 -1      3584 1.99379E+01 1.37001E-01 9.72974E-05 2.77952E-02-1.42432E-13 4.94771E-13
 -1      3585 1.99308E+01 1.46864E-01 3.67836E-04 4.04970E-02-9.99242E-14 6.01142E-13
 -1      3586 2.22341E+01 1.57379E+00 1.40900E-02 1.39422E+00-4.86616E-14 3.25559E-14
 -1      3587 2.23187E+01 9.76508E-01-3.28259E-02 1.55818E+00-4.50887E-14 5.18277E-14
 -1      3588 1.99931E+01 9.66425E-02 4.05809E-04 1.05661E-01-1.25620E-13-3.19593E-13
 -1      3589 1.99733E+01 1.14064E-01-2.25157E-04 1.12187E-01-3.48517E-14-3.34634E-13
 -1      3590 1.99913E+01 9.19909E-02 2.09988E-04 9.38202E-02 2.14355E-15-1.88149E-13
 -1      3591 2.29737E+01 8.06097E-01 1.50398E-02 1.69824E+00-5.78149E-14 1.64132E-13
 -1      3592 2.43600E+01-3.65426E+00-2.58278E-02 2.15234E+00-2.48331E-13 7.36551E-14
 -1      3593 2.34727E+01-3.54267E+00 8.64473E-03 2.68464E+00-3.12961E-13 8.53310E-14
 -1      3594 2.44091E+01-3.02850E+00 1.66615E-02 1.16627E+00-3.34924E-13-2.90323E-14
 -1      3595 1.99335E+01 1.43871E-01-3.74586E-04-1.16868E-02 1.02625E-13 1.74920E-13
 -1      3596 1.99329E+01 1.43958E-01-3.11480E-05 1.73770E-03 1.04441E-13 2.83372E-13
 -1      3597 1.99217E+01 1.57807E-01 2.95196E-04 1.23154E-02-8.55673E-15 5.63942E-13
 -1      3598 1.99226E+01 1.60587E-01 3.45705E-04-1.57439E-02 6.92979E-14 8.33373E-14
 -1      3599 1.21788E+01 6.90788E-01 1.31541E-01-3.28676E+00-1.61607E-14 4.80851E-13
 -1      3600 1.35979E+01 1.98841E-01 4.37120E-02-3.76265E+00 2.47614E-14 3.38743E-13
 -1      3601 1.20440E+01 1.09818E+00 4.43510E-03-2.20211E+00-2.41352E-14 4.86014E-13
 -1      3602 2.01053E+01 3.34558E-02 1.18061E-03-4.34709E-01 2.58467E-14 7.96398E-14
 -1      3603 2.00978E+01 4.85300E-02 3.36130E-04-4.16766E-01-1.80596E-14 8.38520E-14
 -1      3604 2.01008E+01 7.16474E-02-1.18948E-03-4.00227E-01-2.83243E-14 4.83349E-14
 -1      3605 2.00846E+01 3.76294E-02-1.67043E-03-4.51415E-01 2.15178E-14 3.72096E-14
 -1      3606 2.02585E+01 1.42889E+00 3.19862E-03-5.23165E-01 9.54023E-14 4.61634E-14
 -1      3607 2.02572E+01 1.41595E+00 2.12658E-03-4.25258E-01 8.95566E-14 5.22208E-14
 -1      3608 2.02412E+01 3.17620E-01-1.38846E-03-1.26544E-01 5.93396E-14 2.24546E-14
 -1      3609 2.02668E+01 4.01674E-01 2.29614E-03-5.93844E-02 8.02314E-14 4.14527E-14
 -1      3610 2.02744E+01 5.00429E-01-3.17231E-03 1.13551E-02 7.59675E-14 2.38380E-14
 -1      3611 2.03042E+01 6.28696E-01 3.91335E-03 1.06495E-01 5.91340E-14 3.60090E-14
 -1      3612 2.03036E+01 5.22967E-01 2.11717E-04-8.74463E-03 6.80319E-14 5.10570E-14
 -1      3613 1.20770E+01 1.20466E+00 1.47528E-01 2.49642E+00 1.82940E-13 2.45359E-14
 -1      3614 1.25528E+01 1.57875E+00 6.59516E-03 1.07107E+00 2.26385E-13 3.00107E-14
 -1      3615 1.33134E+01 5.87152E-01 4.27521E-02 3.25252E+00 1.51771E-13 2.00458E-13
 -1      3616 2.02176E+01 1.60465E+00 1.49171E-04-3.10082E-01 9.31912E-14 4.46907E-14
 -1      3617 2.02350E+01 1.50339E+00-3.58278E-03-3.75200E-01 8.53961E-14 5.36152E-14
 -1      3618 2.02814E+01 1.29257E+00 1.52663E-03-3.00739E-01 6.68971E-14 5.81508E-14
 -1      3619 1.38276E+01 1.96314E+00 7.87439E-02-9.77272E-03 1.15569E-13 8.54481E-14
 -1      3620 2.46825E+01 1.08880E+00 4.35670E-03 1.87173E+00-1.47913E-13 8.97112E-14
 -1      3621 2.56184E+01-1.63370E+00-4.17884E-02 8.50703E-01-5.88370E-14-7.71440E-14
 -1      3622 2.48731E+01-7.76492E-01 1.37277E-02 1.35428E+00-1.44521E-13-5.45779E-14
 -1      3623 2.51248E+01-2.11007E+00 4.33067E-02 2.80985E-01-5.32950E-14-1.07451E-13
 -1      3624 2.55474E+01-1.20299E+00-2.03202E-02-1.07190E+00-7.85483E-14-3.83409E-13
 -1      3625 2.58021E+01-1.98155E+00-7.62387E-03-5.40566E-01-1.35114E-13-2.40298E-13
 -1      3626 2.49304E+01-2.50693E+00-2.23025E-02 1.77867E-01-2.38156E-13-1.64838E-13
 -1      3627 1.99680E+01 1.13525E-01 4.00457E-04 8.62671E-02-1.01663E-13-3.94888E-13
 -1      3628 1.99779E+01 9.77455E-02-2.74499E-04 7.90371E-02-6.02281E-14-3.07486E-13
 -1      3629 2.32362E+01 2.51487E+00-1.43687E-02 1.39564E+00-1.44796E-13 3.32437E-13
 -1      3630 2.35343E+01 3.42421E+00-4.43613E-02 1.16436E+00-1.11352E-13 2.74917E-13
 -1      3631 2.27061E+01 2.12367E+00 1.24684E-02 1.37688E+00-8.50257E-14 1.95169E-13
 -1      3632 2.31319E+01 3.57969E+00-2.15488E-02 6.70440E-01-1.01334E-13 2.10565E-13
 -1      3633 2.35958E+01-3.14968E+00 7.57630E-02-2.08533E+00 3.12350E-14 4.19135E-14
 -1      3634 2.44578E+01-3.08243E+00-8.13076E-02-9.09150E-01-5.17654E-14-4.43187E-14
 -1      3635 1.34742E+01 1.41079E+00 2.05616E-02-1.60814E+00-5.79935E-14 3.29910E-13
 -1      3636 2.03357E+01 7.81559E-01 5.16549E-04-9.35335E-02 5.45267E-14 7.72075E-14
 -1      3637 2.03246E+01 6.40645E-01-2.31926E-03-1.39036E-02 6.01384E-14 8.12435E-14
 -1      3638 2.03201E+01 5.27402E-01 1.07401E-03 3.97994E-02 3.57830E-14 6.11073E-14
 -1      3639 2.02950E+01 4.36455E-01-1.72407E-03 9.88111E-02 1.06714E-14 5.15190E-14
 -1      3640 2.03373E+01 6.44817E-01 1.46599E-03 2.75491E-03 2.56463E-14 8.48422E-14
 -1      3641 2.02712E+01 3.69064E-01 6.61258E-04 1.37165E-01 2.64269E-14 4.61844E-14
 -1      3642 2.02370E+01 3.19290E-01-1.16018E-03 1.80244E-01 2.98674E-14 8.22638E-14
 -1      3643 2.03015E+01 4.47230E-01 9.49357E-04 9.44811E-02 3.05149E-14 6.64569E-14
 -1      3644 2.01981E+01 2.87967E-01 2.05079E-04 2.07336E-01 6.09349E-15 7.16158E-14
 -1      3645 2.01561E+01 2.71068E-01-8.50326E-04 2.39316E-01 1.51167E-14 6.43548E-14
 -1      3646 2.02343E+01 3.36438E-01 8.73261E-04 1.60271E-01 1.75282E-14 6.58066E-14
 -1      3647 2.01035E+01 2.68901E-01-3.31360E-04 2.58057E-01 5.53439E-15 4.84213E-14
 -1      3648 2.00523E+01 2.78984E-01-8.65600E-04 2.82893E-01-2.19073E-14 6.57690E-14
 -1      3649 2.01411E+01 2.95037E-01 1.10053E-03 2.05676E-01-9.48635E-15 8.89790E-14
 -1      3650 1.99814E+01 3.03053E-01-8.27454E-04 2.95577E-01-4.24562E-14 3.97973E-14
 -1      3651 1.99127E+01 3.38737E-01-1.22347E-03 3.16271E-01-5.27081E-14 6.56652E-14
 -1      3652 2.00182E+01 3.11581E-01 1.59449E-03 2.35233E-01-4.64903E-14 1.89498E-14
 -1      3653 1.98263E+01 3.84150E-01-1.35438E-03 3.21428E-01-3.64083E-14 4.51504E-14
 -1      3654 1.97397E+01 4.39127E-01-2.06327E-03 3.36580E-01-4.36003E-14 4.54557E-14
 -1      3655 1.98629E+01 3.77498E-01 2.44947E-03 2.48758E-01-4.87255E-14 1.40853E-14
 -1      3656 1.96293E+01 5.04460E-01-1.79121E-03 3.32897E-01-1.92876E-14 1.04859E-13
 -1      3657 1.95112E+01 5.78122E-01-3.45455E-03 3.41388E-01-9.62243E-15 1.16901E-13
 -1      3658 1.96696E+01 4.83151E-01 3.61484E-03 2.43011E-01-1.81699E-16 1.52453E-14
 -1      3659 1.93679E+01 6.62106E-01-2.22382E-03 3.23626E-01-1.82740E-14 1.55230E-13
 -1      3660 1.92032E+01 7.52364E-01-5.59679E-03 3.20331E-01-1.48818E-15 1.76243E-13
 -1      3661 1.94198E+01 6.23841E-01 5.27586E-03 2.09765E-01 1.98700E-14 1.43300E-13
 -1      3662 1.90150E+01 8.52600E-01-2.65882E-03 2.79798E-01-2.05971E-14 1.61638E-13
 -1      3663 1.87828E+01 9.55268E-01-8.77721E-03 2.55924E-01-2.22639E-14 1.77655E-13
 -1      3664 1.90922E+01 7.92465E-01 7.49239E-03 1.33331E-01-2.67622E-14 1.87788E-13
 -1      3665 1.85336E+01 1.06643E+00-3.19592E-03 1.79533E-01 2.54605E-14 1.84665E-13
 -1      3666 1.82048E+01 1.17294E+00-1.33751E-02 1.22133E-01 5.82407E-14 1.81603E-13
 -1      3667 1.86585E+01 9.77380E-01 1.04174E-02-1.07357E-02 1.65607E-14 1.77568E-13
 -1      3668 1.78729E+01 1.28382E+00-4.02834E-03-8.34903E-03 1.76627E-14 1.58917E-13
 -1      3669 1.74064E+01 1.37760E+00-1.99107E-02-1.16334E-01-7.72076E-14 1.70485E-13
 -1      3670 1.80814E+01 1.15774E+00 1.43509E-02-2.57766E-01-3.91776E-15 1.58872E-13
 -1      3671 1.69617E+01 1.46626E+00-5.45476E-03-3.25810E-01-9.90538E-14 2.05407E-13
 -1      3672 1.62974E+01 1.52130E+00-2.72819E-02-5.05561E-01-7.51634E-14 2.91534E-13
 -1      3673 1.73120E+01 1.29667E+00 2.02739E-02-6.56174E-01-4.20309E-14 1.70812E-13
 -1      3674 1.56591E+01 1.54079E+00-6.46595E-03-8.38636E-01-8.48336E-14 2.63061E-13
 -1      3675 1.46681E+01 1.51206E+00-2.71030E-02-1.14092E+00-1.03809E-13 2.99253E-13
 -1      3676 1.62493E+01 1.33709E+00 3.34774E-02-1.29342E+00-8.33396E-14 2.37032E-13
 -1      3677 2.38429E+01 4.22809E+00-3.72827E-02-3.81243E-01-1.50532E-13 1.77688E-13
 -1      3678 2.45679E+01 4.61523E+00-7.91691E-02-8.49983E-01-1.90688E-13 3.64704E-13
 -1      3679 1.77629E+01 1.38801E+00-1.63482E-02-6.34420E-02 4.24667E-14 5.76963E-14
 -1      3680 1.81543E+01 1.28265E+00-4.50228E-03-1.21637E-01 7.17018E-14-2.52261E-14
 -1      3681 1.84458E+01 1.16870E+00-1.09416E-02-2.05950E-01 5.59808E-14-1.05189E-13
 -1      3682 1.87166E+01 1.06162E+00-3.60969E-03-2.26258E-01-5.59066E-14-3.56027E-14
 -1      3683 1.82848E+01 1.19368E+00 1.35633E-02 1.04678E-01 2.49717E-14-1.96355E-13
 -1      3684 1.89289E+01 9.54761E-01-7.17179E-03-2.68319E-01-8.27356E-14 1.50455E-13
 -1      3685 1.91148E+01 8.57001E-01-2.97362E-03-2.64831E-01-1.39984E-13 2.37799E-13
 -1      3686 1.87825E+01 1.00314E+00 9.80194E-03-5.73089E-02 3.95644E-14 5.24910E-14
 -1      3687 1.92687E+01 7.63607E-01-4.64094E-03-2.79865E-01-1.52694E-13 2.49086E-13
 -1      3688 1.93953E+01 6.79710E-01-2.41573E-03-2.63164E-01-1.34037E-13 1.69624E-13
 -1      3689 1.91434E+01 8.21301E-01 7.10890E-03-1.38770E-01-1.66292E-13 4.17260E-13
 -1      3690 1.95108E+01 5.98255E-01-2.81867E-03-2.61809E-01-1.80726E-13 2.69226E-13
 -1      3691 1.95990E+01 5.25583E-01-1.99373E-03-2.38070E-01-2.31157E-13 3.17520E-13
 -1      3692 1.94082E+01 6.55409E-01 4.90123E-03-1.69375E-01-2.03573E-13 4.16281E-13
 -1      3693 1.96769E+01 4.62881E-01-1.65698E-03-2.28234E-01-2.16590E-13 4.48440E-13
 -1      3694 1.97322E+01 4.07257E-01-1.64968E-03-2.04267E-01 1.24785E-14 3.19507E-13
 -1      3695 1.95963E+01 5.15989E-01 3.58249E-03-1.69760E-01-1.38303E-13 5.24076E-13
 -1      3696 1.97876E+01 3.57561E-01-8.64317E-04-1.90894E-01 2.13953E-14 1.99457E-13
 -1      3697 1.98240E+01 3.13150E-01-1.33399E-03-1.68277E-01-4.39810E-14 2.36664E-13
 -1      3698 1.97254E+01 4.03578E-01 2.49571E-03-1.54049E-01-4.80388E-14 2.93422E-13
 -1      3699 1.98631E+01 2.74144E-01-4.08699E-04-1.54192E-01-9.02575E-14 1.14464E-13
 -1      3700 1.98866E+01 2.39211E-01-1.06638E-03-1.34199E-01-1.41192E-13 8.63215E-14
 -1      3701 1.98161E+01 3.12816E-01 1.72845E-03-1.31576E-01-1.12269E-13-6.78134E-14
 -1      3702 1.99142E+01 2.09184E-01-2.17191E-05-1.20974E-01-1.17591E-13-7.64508E-15
 -1      3703 1.99290E+01 1.82017E-01-7.74936E-04-1.04220E-01 9.81122E-15-1.94467E-13
 -1      3704 1.98793E+01 2.40272E-01 1.05605E-03-1.07646E-01-1.47185E-13-3.59141E-14
 -1      3705 1.99410E+01 1.68471E-01 4.25937E-04-9.44076E-02 1.34703E-13-2.26935E-13
 -1      3706 1.99462E+01 1.51935E-01-4.34452E-04-8.08104E-02 2.18629E-13-1.20445E-13
 -1      3707 1.99329E+01 1.62536E-01-8.78262E-05-6.82836E-02 3.23823E-13 1.99133E-13
 -1      3708 1.99139E+01 1.92610E-01 3.14039E-04-8.59356E-02 3.65827E-14 7.54669E-15
 -1      3709 2.43308E+01 3.96155E+00-3.16530E-02-1.27456E+00-2.41959E-13 2.15387E-13
 -1      3710 2.30928E+01 3.76033E+00-3.23779E-02 7.46123E-02-1.01768E-13 1.94250E-13
 -1      3711 2.30266E+01 3.53883E+00-7.45227E-03-5.84263E-01-1.94539E-13 2.13471E-13
 -1      3712 2.38179E+01 3.20032E+00-2.48037E-02-1.38098E+00-2.80843E-13 2.23828E-13
 -1      3713 2.43307E+01 3.21552E+00-4.79923E-02-1.64243E+00-2.32172E-13 1.96470E-13
 -1      3714 2.01856E+01 1.71960E+00-1.43924E-03-1.67592E-01 1.03207E-13 5.18898E-14
 -1      3715 2.01982E+01 1.66239E+00-3.37310E-03-2.47266E-01 1.02431E-13 3.93429E-14
 -1      3716 2.02598E+01 1.45329E+00 3.37292E-03-2.04752E-01 8.64634E-14 4.39230E-14
 -1      3717 1.40128E+01 1.69479E+00-7.89758E-03 9.30224E-01 8.75706E-14-1.23939E-13
 -1      3718 2.07649E+01-8.00892E-01 5.28785E-04-7.20064E-01-5.08105E-14 2.01528E-13
 -1      3719 2.05952E+01-6.33242E-01 7.51405E-03-7.44546E-01-5.09250E-15 1.17968E-13
 -1      3720 2.04363E+01-4.88504E-01 2.14904E-03-7.17577E-01 4.94885E-14 6.51709E-14
 -1      3721 2.03180E+01-3.60157E-01 4.54440E-03-7.10713E-01 8.75292E-14 7.33334E-14
 -1      3722 2.03986E+01-5.73645E-01-9.68415E-03-8.62548E-01-2.36823E-14 2.84960E-13
 -1      3723 2.18405E+01-1.50726E+00-7.38549E-03-3.81889E-01 9.31048E-15 1.16898E-13
 -1      3724 2.15840E+01-1.34006E+00 1.47442E-02-5.36386E-01-5.43244E-14 1.25617E-13
 -1      3725 2.25361E+01-1.66687E+00-8.83012E-03 7.49743E-02-2.53959E-14 5.35275E-14
 -1      3726 2.22762E+01-1.61843E+00 1.52462E-02-1.71263E-01 2.57053E-15 6.64302E-14
 -1      3727 2.20903E+01-1.76083E+00-1.65924E-02-5.77604E-01-7.73817E-15 1.17435E-13
 -1      3728 2.31776E+01-1.43075E+00-1.32937E-02 7.14396E-01-9.45715E-14 1.54867E-13
 -1      3729 2.29793E+01-1.60755E+00 8.40452E-03 4.10558E-01-4.47826E-14 9.90555E-14
 -1      3730 2.29683E+01-1.85653E+00 3.16603E-03-2.35737E-02-4.40308E-14 9.95445E-14
 -1      3731 2.38329E+01-6.70200E-01-1.10864E-02 1.32198E+00-1.63772E-13 1.40795E-13
 -1      3732 2.37487E+01-1.20239E+00-1.70694E-03 1.06229E+00-1.37704E-13 7.06811E-14
 -1      3733 2.31160E+01 3.08900E+00-3.13481E-02-1.11222E+00-2.48444E-13 2.48816E-13
 -1      3734 1.99566E+01 1.25911E-01-3.62753E-04 1.01122E-01-1.24314E-13-3.44973E-13
 -1      3735 1.99561E+01 1.33378E-01 5.55576E-04 1.14677E-01-9.67411E-15-4.14949E-13
 -1      3736 2.36447E+01-1.84584E-01-2.10210E-02-1.61891E+00-1.86626E-13 2.33881E-13
 -1      3737 2.35961E+01 5.89624E-01-3.63948E-03-1.72838E+00-2.78546E-13 2.79329E-13
 -1      3738 2.27768E+01-1.62356E+00 1.12078E-02-2.49675E-01-1.65046E-13 2.28495E-13
 -1      3739 2.29928E+01-1.52107E+00-1.40205E-02-5.38405E-01-1.79006E-13 1.75406E-13
 -1      3740 2.20549E+01-1.51946E+00 1.56254E-02 2.72804E-01-1.58988E-13 3.45073E-13
 -1      3741 2.23171E+01-1.62181E+00-1.12327E-02 5.75239E-02-1.43748E-13 3.63229E-13
 -1      3742 2.26950E+01-1.86613E+00-9.79538E-03 2.19247E-01-2.22729E-13 1.22574E-13
 -1      3743 2.13838E+01-1.19273E+00 1.38900E-02 5.67316E-01-2.36046E-13 4.72121E-13
 -1      3744 2.16361E+01-1.37737E+00-5.89139E-03 4.41108E-01-2.02728E-13 4.05948E-13
 -1      3745 2.18402E+01-1.61215E+00-1.33070E-02 6.55927E-01-2.40083E-13 4.95878E-13
 -1      3746 2.08475E+01-8.16458E-01 1.03090E-02 6.82761E-01 7.79394E-14 4.04410E-13
 -1      3747 2.10581E+01-1.00822E+00-1.57445E-03 6.28191E-01-5.92103E-14 5.01952E-13
 -1      3748 2.11304E+01-1.19048E+00-1.38131E-02 8.42202E-01-1.35568E-13 3.76246E-13
 -1      3749 2.04605E+01-4.81072E-01 6.63571E-03 6.84334E-01 1.76678E-13 2.93719E-13
 -1      3750 2.06198E+01-6.43421E-01 9.89113E-04 6.77055E-01 1.49796E-13 3.55233E-13
 -1      3751 2.06105E+01-7.64281E-01-1.14916E-02 8.59749E-01 1.47764E-13 2.99123E-13
 -1      3752 2.02041E+01-2.20429E-01 3.84825E-03 6.24786E-01 3.77549E-13 6.80342E-14
 -1      3753 2.03150E+01-3.42069E-01 2.10828E-03 6.44499E-01 2.54807E-13 6.31534E-14
 -1      3754 2.02621E+01-4.10339E-01-8.49201E-03 7.86026E-01 3.72790E-13-5.61535E-15
 -1      3755 2.00479E+01-3.76784E-02 1.93849E-03 5.39273E-01 2.88622E-13 1.23908E-13
 -1      3756 2.01197E+01-1.20185E-01 2.36333E-03 5.71913E-01 3.62555E-13 1.16427E-13
 -1      3757 2.00484E+01-1.49738E-01-5.75858E-03 6.74072E-01 3.18238E-13-1.06540E-13
 -1      3758 1.99626E+01 7.79124E-02 7.15092E-04 4.48345E-01 2.50842E-13 2.27478E-13
 -1      3759 2.00054E+01 2.77348E-02 2.17049E-03 4.85166E-01 3.19485E-13 1.82356E-13
 -1      3760 1.99310E+01 2.42282E-02-3.61996E-03 5.54888E-01 2.37720E-13 1.77535E-13
 -1      3761 1.99240E+01 1.41626E-01-8.97620E-06 3.62795E-01 5.85146E-14 1.22094E-13
 -1      3762 1.99469E+01 1.15675E-01 1.80287E-03 3.98847E-01 1.10811E-13 7.24898E-14
 -1      3763 1.98774E+01 1.28159E-01-2.09538E-03 4.44135E-01 2.03019E-13 3.31814E-13
 -1      3764 1.99137E+01 1.68475E-01-3.98077E-04 2.87435E-01-2.73568E-14 1.41730E-13
 -1      3765 1.99240E+01 1.59290E-01 1.41552E-03 3.20208E-01 9.72389E-14 7.58564E-14
 -1      3766 1.98633E+01 1.80420E-01-1.07851E-03 3.48273E-01 5.18106E-14 3.14683E-13
 -1      3767 1.99192E+01 1.71171E-01-5.62631E-04 2.23721E-01-5.93348E-15 1.21042E-14
 -1      3768 1.99220E+01 1.72653E-01 1.07775E-03 2.52174E-01-7.52170E-14 2.50387E-14
 -1      3769 1.98714E+01 1.97374E-01-4.40592E-04 2.68741E-01-1.76708E-14 1.36605E-13
 -1      3770 1.99320E+01 1.59521E-01-6.09961E-04 1.71306E-01 3.63694E-14-6.81400E-14
 -1      3771 1.99309E+01 1.67120E-01 8.09411E-04 1.95252E-01 1.08177E-13-6.35580E-14
 -1      3772 1.98901E+01 1.92101E-01-1.00007E-04 2.04681E-01 5.50817E-14 5.94493E-14
 -1      3773 1.99457E+01 1.42348E-01-5.07039E-04 1.30975E-01 1.06533E-13-3.78778E-13
 -1      3774 1.99430E+01 1.52686E-01 7.07161E-04 1.50799E-01 6.52874E-14-2.88611E-13
 -1      3775 1.99104E+01 1.75548E-01-1.14989E-04 1.56076E-01 1.19642E-13 5.53077E-14
 -1      3776 1.99292E+01 1.55432E-01-9.36482E-05 1.19281E-01 1.08455E-13-3.67879E-13
 -1      3777 1.99209E+01 1.68348E-01-4.33710E-04-5.01054E-02 4.14044E-13 1.69416E-13
 -1      3778 1.99138E+01 1.73781E-01 1.13915E-04-3.42261E-02 2.19443E-13-8.05452E-14
 -1      3779 1.99127E+01 1.83490E-01 3.09653E-04-5.79379E-02 2.82941E-13 1.78289E-13
 -1      3780 2.12343E+01-1.16567E+00-2.68875E-03-6.27790E-01-7.97854E-14 1.88947E-13
 -1      3781 2.10133E+01-9.75686E-01 1.11857E-02-7.05496E-01-3.90833E-14 2.06276E-13
 -1      3782 2.07787E+01-9.41661E-01-1.28691E-02-9.06602E-01-4.65823E-14 2.11572E-13
 -1      3783 2.00649E+01 4.06391E-03 2.23447E-03-5.23611E-01-2.72340E-14 1.84195E-14
 -1      3784 2.00486E+01 3.56996E-02 3.37784E-04-4.94303E-01 8.18892E-15-9.45197E-15
 -1      3785 1.68015E+01 1.57780E+00-2.26921E-02 1.96553E-01 2.35953E-14 1.39158E-13
 -1      3786 1.73632E+01 1.49472E+00-5.86891E-03 8.35467E-02 1.03587E-13 1.59750E-13
 -1      3787 1.76027E+01 1.36763E+00 1.89283E-02 3.88302E-01 4.46533E-14 1.94966E-13
 -1      3788 2.02022E+01 2.01021E-01-4.98824E-04-2.23931E-01 6.44035E-14-7.06730E-15
 -1      3789 2.02240E+01 2.53253E-01 1.62451E-03-1.77128E-01 4.96009E-14 1.73134E-14
 -1      3790 2.02687E+01 3.34767E-01-3.47166E-04-1.33715E-01 5.81558E-14 3.25331E-14
 -1      3791 2.02240E+01 2.16032E-01-5.55172E-04-2.24399E-01 5.10340E-14 3.55537E-14
 -1      3792 2.03073E+01 1.10994E+00-1.13213E-03-2.42370E-01 5.50748E-14 6.22768E-14
 -1      3793 2.03212E+01 9.13808E-01-1.53890E-03-1.41478E-01 4.17145E-14 8.31039E-14
 -1      3794 2.03350E+01 9.01482E-01 7.66133E-04-1.00448E-01 5.54420E-14 6.58863E-14
 -1      3795 2.02979E+01 1.20593E+00 2.62466E-04-2.06198E-01 6.58246E-14 5.52515E-14
 -1      3796 2.01768E+01 1.74203E+00-2.62497E-03-2.22209E-02 1.07131E-13 6.08697E-14
 -1      3797 2.01811E+01 1.72551E+00-2.90167E-03-1.06923E-01 1.05383E-13 6.21177E-14
 -1      3798 2.02498E+01 1.52102E+00 4.66356E-03-9.62107E-02 1.06744E-13 6.16268E-14
 -1      3799 2.02547E+01 1.50979E+00 5.33477E-03 9.64997E-03 1.08067E-13 5.24326E-14
 -1      3800 2.04664E+01-2.51813E+00 4.07370E-02-3.83698E+00 8.83755E-15-5.36984E-14
 -1      3801 2.19665E+01-3.23139E+00-7.98335E-02-3.16684E+00 7.50199E-14-3.02414E-14
 -1      3802 2.02388E+01 1.47828E+00-3.29565E-03 3.87075E-01 5.50784E-14 2.56042E-14
 -1      3803 2.02195E+01 1.57830E+00-1.25465E-03 3.21034E-01 5.95987E-14 6.61702E-14
 -1      3804 2.02729E+01 1.38567E+00 3.47554E-03 2.27824E-01 4.48862E-14 7.15611E-14
 -1      3805 2.02780E+01 1.29737E+00 1.91106E-03 3.22228E-01 4.61535E-14 4.40538E-15
 -1      3806 2.24505E+01-3.48772E+00-9.32477E-03 3.40087E+00-2.56798E-13 1.35828E-13
 -1      3807 2.09656E+01-2.97499E+00 4.03536E-03 3.92653E+00-1.97829E-13 2.67369E-13
 -1      3808 2.30314E+01-3.09440E+00 2.98000E-02 2.40764E+00-3.30161E-13 1.18490E-14
 -1      3809 2.33586E+01 1.75176E+00-6.82480E-02 1.75211E+00-8.34098E-14 2.96491E-13
 -1      3810 2.39212E+01 8.09718E-01-1.43639E-02 1.74346E+00-8.34367E-14 1.55420E-13
 -1      3811 1.99499E+01 1.31394E-01 3.60351E-04 8.80123E-02-3.59217E-14-2.55353E-13
 -1      3812 2.39869E+01-4.08514E-02-3.32293E-02 1.68673E+00-1.35445E-13 1.20635E-13
 -1      3813 1.99903E+01 8.71613E-02 1.51175E-05 8.31764E-02-2.49378E-14-2.12277E-13
 -1      3814 1.54940E+01 1.69128E+00-1.83506E-02 6.25617E-01-2.47571E-14 1.01422E-13
 -1      3815 1.62502E+01 1.63713E+00-1.04800E-02 4.30762E-01-5.94360E-14 1.80883E-13
 -1      3816 1.66633E+01 1.47764E+00 2.51609E-02 8.51508E-01 9.83892E-15 2.92388E-13
 -1      3817 2.03086E+01 9.11984E-01-3.08152E-04 2.12654E-01 5.86604E-14 2.51383E-14
 -1      3818 2.31624E+01 2.49104E+00-2.45012E-02-1.47832E+00-2.04736E-13 3.75371E-13
 -1      3819 2.26435E+01-2.82817E+00 2.09830E-02-2.25657E+00 7.60000E-14 3.48298E-14
 -1      3820 1.45126E+01 1.15422E+00 6.89256E-02-2.26878E+00-1.42486E-14 3.46437E-13
 -1      3821 2.02863E+01 1.28499E+00-2.96515E-03 2.66177E-02 9.35646E-14 2.93777E-14
 -1      3822 2.02838E+01 1.30461E+00-1.96569E-03-1.90075E-02 9.27039E-14 6.26135E-14
 -1      3823 2.09772E+01-2.47202E+00 3.87122E-02 3.41523E+00-2.52204E-13 2.06296E-13
 -1      3824 1.98347E+01-2.48044E+00 1.48045E-02 4.26715E+00-2.28977E-13 3.37889E-13
 -1      3825 1.83727E+01-1.71896E+00-1.64525E-02 4.23420E+00-2.51112E-13 2.75896E-13
 -1      3826 2.01132E+01-9.43961E-02 2.57748E-03-5.96304E-01-5.21006E-14 1.15575E-13
 -1      3827 2.00723E+01-3.89356E-02 1.10706E-03-5.67752E-01-7.77181E-14 3.39871E-14
 -1      3828 2.00057E+01 7.00462E-03-2.91210E-03-5.60735E-01-5.31481E-14 3.61279E-14
 -1      3829 2.02956E+01 1.23711E+00-1.34485E-03 1.13441E-01 6.84132E-14 4.87932E-14
 -1      3830 2.02892E+01 1.26973E+00-2.02211E-03 6.44963E-02 8.64590E-14 2.13237E-14
 -1      3831 2.03344E+01 1.10243E+00 4.72568E-03 2.99842E-02 8.16210E-14 1.71903E-14
 -1      3832 1.50484E+01-1.43472E-01 6.78897E-02-4.03930E+00 2.52871E-14 3.38313E-13
 -1      3833 1.64452E+01-5.05543E-01 2.74867E-02-3.89526E+00 2.33398E-14 3.06241E-13
 -1      3834 1.43749E+01 4.39590E-01-9.88365E-03-3.24501E+00 1.26444E-14 3.47458E-13
 -1      3835 2.01833E+01 1.56424E-01 3.07467E-04-2.84489E-01-1.07116E-14 1.16223E-13
 -1      3836 2.02070E+01 1.84924E-01 4.24377E-04-2.52953E-01 1.09801E-14 9.65560E-14
 -1      3837 2.39848E+01-1.75920E+00-2.26524E-02 5.87463E-01-7.14450E-14 6.57148E-14
 -1      3838 2.48670E+01 2.30641E+00-7.30390E-02-1.94974E+00-1.26149E-13 2.16632E-14
 -1      3839 2.50747E+01 7.17205E-01-1.63132E-02-1.84469E+00-6.97394E-14-1.30155E-13
 -1      3840 2.00136E+01 7.22662E-02-1.86849E-03-4.72333E-01 3.74223E-14 2.12800E-14
 -1      3841 2.00620E+01 5.99813E-02 1.79361E-03-4.56143E-01 6.32101E-14 3.22999E-14
 -1      3842 2.00626E+01 7.75402E-02-1.70849E-05-4.28188E-01 5.78709E-14 5.48251E-14
 -1      3843 2.01680E+01-2.97027E-01-6.81755E-03-7.68944E-01 1.03996E-13 1.73281E-13
 -1      3844 2.02283E+01-2.53779E-01 2.65768E-03-6.66492E-01 1.01329E-13 8.04999E-14
 -1      3845 2.01536E+01-1.65233E-01 2.44515E-03-6.43904E-01 6.21943E-14 1.24953E-13
 -1      3846 2.42822E+01 8.40944E-01 1.93861E-02-1.86543E+00-1.92997E-13 1.17626E-13
 -1      3847 2.51034E+01-1.51104E-01-4.30842E-02-1.69046E+00-6.30173E-14-1.99308E-13
 -1      3848 1.94775E+01-2.11937E+00 5.85930E-05-4.03356E+00-6.98313E-15-3.99698E-14
 -1      3849 2.04525E+01-2.07623E+00 4.19998E-02-3.32158E+00 3.24501E-14-7.56915E-14
 -1      3850 1.83962E+01-1.44661E+00 4.56966E-03-3.93275E+00 3.44325E-14 9.58088E-14
 -1      3851 1.99358E+01 1.42158E-01-3.43525E-04 7.78853E-02-3.13756E-14-4.30706E-14
 -1      3852 2.34819E+01 1.20952E+00-4.18237E-02-1.79954E+00-2.42721E-13 3.17661E-13
 -1      3853 2.33796E+01-1.25549E+00-2.38781E-03-9.58610E-01-1.52867E-13 1.54565E-13
 -1      3854 2.34790E+01-8.17220E-01-1.00198E-02-1.24091E+00-1.11920E-13 1.94964E-13
 -1      3855 2.42530E+01-2.64722E+00-4.23319E-03 5.46303E-01-3.14593E-13-1.03268E-13
 -1      3856 2.37895E+01-2.73589E+00 6.27817E-03 1.03169E+00-3.45114E-13 8.36874E-15
 -1      3857 1.99089E+01 1.73669E-01-4.19864E-04-1.71403E-02 2.63949E-15 1.57968E-13
 -1      3858 1.99075E+01 1.74410E-01 4.16821E-05-2.98310E-03-7.31444E-14 3.95248E-13
 -1      3859 1.98978E+01 1.89501E-01 2.04407E-04-2.12043E-02 2.41505E-14 2.55289E-13
 -1      3860 2.03154E+01 5.13206E-01-2.37883E-03-3.85062E-02 4.57178E-14 7.38754E-14
 -1      3861 2.03360E+01 6.38534E-01 2.83641E-03 3.71153E-02 5.54829E-14 5.89909E-14
 -1      3862 2.13415E+01-1.36871E+00-1.52596E-02-8.40634E-01-1.81660E-14 1.46395E-13
 -1      3863 2.47678E+01-1.03329E+00-2.20037E-02-1.16095E+00-1.36956E-13-2.04697E-13
 -1      3864 2.33706E+01 2.03625E+00-6.24155E-03-1.60144E+00-2.03393E-13 2.92720E-13
 -1      3865 1.99112E+01 1.65009E-01-5.63611E-04 4.15526E-02-4.77103E-14 5.55201E-13
 -1      3866 1.99204E+01 1.58051E-01 3.13093E-04 5.61448E-02 2.18892E-14 3.86689E-13
 -1      3867 1.44919E+01 2.54338E-01 9.11235E-02 3.79915E+00 8.88178E-14 2.58581E-13
 -1      3868 1.39822E+01 9.77091E-01-4.28281E-03 2.58124E+00 1.71085E-13 1.53931E-13
 -1      3869 1.59032E+01-2.74350E-01 3.91037E-02 3.85768E+00 2.59714E-14 2.86299E-14
 -1      3870 2.01315E+01 1.18774E-01 8.43134E-04-3.40046E-01-3.97784E-14 8.15632E-14
 -1      3871 2.01509E+01 1.35043E-01 1.04427E-04-3.12508E-01-3.48757E-14 9.40704E-14
 -1      3872 2.01736E+01 1.71377E-01-3.63536E-04-2.74767E-01-1.42695E-14 1.51819E-13
 -1      3873 1.99187E+01 1.62567E-01 2.43919E-04 8.12928E-02 1.38542E-13 1.65734E-13
 -1      3874 2.02834E+01 3.34460E-01-1.11361E-03-1.43049E-01 6.31091E-14 6.42306E-14
 -1      3875 2.03081E+01 4.15338E-01 1.53186E-03-8.88500E-02 5.85101E-14 6.94829E-14
 -1      3876 2.03302E+01 5.19203E-01 1.79939E-04-5.05656E-02 4.92494E-14 7.61591E-14
 -1      3877 2.43530E+01-2.34545E+00-1.07913E-03-1.46350E-01-4.10505E-14-9.58626E-14
 -1      3878 2.43514E+01-2.27136E+00-1.75350E-02 5.83205E-03-2.39386E-13-1.51921E-13
 -1      3879 1.47855E+01 1.49920E+00 4.62520E-02 1.48853E+00 1.07353E-13 1.08533E-13
 -1      3880 2.41704E+01-7.04232E-01 3.46490E-03-1.35211E+00-1.07473E-13-3.32581E-14
 -1      3881 2.35520E+01-1.68026E+00-6.33783E-03-4.99426E-01-2.10936E-13-6.07888E-14
 -1      3882 2.03321E+01 1.12319E+00 5.36164E-03-2.92465E-02 8.22078E-14 4.45109E-14
 -1      3883 2.02818E+01 1.30594E+00-2.65321E-03-5.25571E-02 9.77014E-14 5.77038E-14
 -1      3884 2.02827E+01 1.29850E+00-2.51925E-03-1.00129E-01 1.03165E-13 5.78880E-14
 -1      3885 2.03264E+01 5.08500E-01 1.50702E-04 5.28409E-02 1.50850E-14 8.57911E-14
 -1      3886 2.02981E+01 4.28821E-01-1.43709E-03 9.14752E-02 1.45849E-14 7.64800E-14
 -1      3887 2.02664E+01 3.70233E-01 1.05306E-04 1.10829E-01 1.07548E-14 7.43471E-14
 -1      3888 2.02240E+01 3.29360E-01-1.25749E-03 1.37721E-01 2.01233E-14 6.01235E-14
 -1      3889 2.02938E+01 4.27764E-01 1.17170E-03 7.17657E-02 7.44745E-15 7.09005E-14
 -1      3890 2.01761E+01 3.05811E-01-6.50235E-05 1.48860E-01 1.16242E-14 6.44146E-14
 -1      3891 2.01210E+01 2.96128E-01-1.26838E-03 1.66468E-01-2.32994E-14 6.02948E-14
 -1      3892 2.02110E+01 3.37139E-01 1.15240E-03 1.01311E-01 7.16277E-15 7.98121E-14
 -1      3893 2.00551E+01 3.01433E-01-2.44094E-04 1.69718E-01-7.27379E-14 6.94077E-14
 -1      3894 1.99816E+01 3.18731E-01-1.57286E-03 1.79057E-01-7.38129E-14 2.71712E-14
 -1      3895 2.00958E+01 3.10982E-01 1.40787E-03 1.13869E-01-5.87242E-14 5.51177E-14
 -1      3896 1.99033E+01 3.47412E-01-3.88270E-04 1.72707E-01-3.45559E-14 2.91725E-14
 -1      3897 1.98143E+01 3.84482E-01-2.28190E-03 1.72285E-01-3.17476E-14 3.48865E-14
 -1      3898 1.99505E+01 3.37303E-01 1.82338E-03 1.07541E-01-5.62372E-14 4.14273E-14
 -1      3899 1.97188E+01 4.31683E-01-3.92126E-04 1.53985E-01 2.33450E-15 6.44164E-14
 -1      3900 1.96042E+01 4.84518E-01-3.50411E-03 1.40979E-01 2.60262E-14 9.60247E-14
 -1      3901 1.97761E+01 4.02848E-01 2.45336E-03 7.78488E-02 1.57813E-14 8.42396E-14
 -1      3902 1.94880E+01 5.46402E-01-1.87855E-04 1.04828E-01 1.95349E-14 5.36956E-14
 -1      3903 1.93377E+01 6.10437E-01-5.30428E-03 7.26670E-02-3.50159E-15 9.03569E-14
 -1      3904 1.95627E+01 4.96333E-01 3.24855E-03 1.55067E-02 6.62027E-16 9.99055E-14
 -1      3905 1.91961E+01 6.82286E-01 3.05595E-04 9.72040E-03-4.71492E-15 7.35366E-14
 -1      3906 1.89969E+01 7.50900E-01-7.88501E-03-5.20900E-02 1.01915E-16 1.38190E-13
 -1      3907 1.93009E+01 6.06062E-01 4.34609E-03-9.54365E-02-1.25961E-14 2.85622E-14
 -1      3908 1.88247E+01 8.25276E-01 1.20004E-03-1.55112E-01-1.26696E-14 1.80962E-13
 -1      3909 1.85589E+01 8.88039E-01-1.14925E-02-2.62126E-01 1.84282E-14 1.71898E-13
 -1      3910 1.89793E+01 7.14955E-01 5.55633E-03-2.78446E-01 8.98804E-15 1.12018E-13
 -1      3911 1.83518E+01 9.52588E-01 2.69669E-03-4.23563E-01-1.90299E-15 1.30688E-13
 -1      3912 1.79958E+01 9.91890E-01-1.66081E-02-5.97500E-01-3.84499E-14 1.34691E-13
 -1      3913 1.85861E+01 7.97467E-01 6.75203E-03-5.66639E-01-1.37374E-14 1.61999E-13
 -1      3914 1.77523E+01 1.02681E+00 5.25595E-03-8.42871E-01-4.67929E-14 1.46037E-13
 -1      3915 1.72763E+01 1.01447E+00-2.28809E-02-1.11308E+00-8.19824E-14 1.63625E-13
 -1      3916 1.81137E+01 8.11865E-01 7.57057E-03-1.00552E+00-3.09821E-14 1.66049E-13
 -1      3917 1.69808E+01 9.71433E-01 6.69523E-03-1.49024E+00-9.33612E-14 1.42645E-13
 -1      3918 1.63328E+01 8.66893E-01-2.66874E-02-1.92419E+00-2.77885E-14 1.66666E-13
 -1      3919 1.75305E+01 6.88893E-01 3.11816E-03-1.68297E+00-6.51321E-14 1.37571E-13
 -1      3920 2.34865E+01-2.10602E+00 2.27192E-02 1.50869E-01-2.88262E-13-1.22101E-13
 -1      3921 2.38604E+01-1.95642E+00-1.33388E-02-2.61115E-01-1.95542E-13-1.10772E-13
 -1      3922 1.98849E+01 1.94325E-01 1.76885E-04 6.96560E-02 1.56647E-13 2.99667E-13
 -1      3923 1.99020E+01 1.77300E-01-3.29982E-04 9.50667E-02 2.07677E-13 1.25919E-13
 -1      3924 1.98929E+01 1.90531E-01 6.06502E-04 1.10636E-01 3.06627E-13 2.15409E-13
 -1      3925 2.36613E+01-2.34249E+00 1.19720E-02-4.02529E-01-8.03593E-14 2.23569E-14
 -1      3926 2.07517E+01-9.89299E-01 3.19260E-03-1.12417E+00-4.88476E-15 1.88706E-13
 -1      3927 2.05192E+01-7.63713E-01 8.97391E-03-1.10217E+00-2.46240E-14 2.32738E-13
 -1      3928 1.86588E+01 9.48855E-01-1.00341E-02 1.49125E-01 3.61304E-14 1.03203E-13
 -1      3929 1.88843E+01 8.79729E-01 1.27393E-04 7.89738E-02 7.38804E-14 1.96575E-13
 -1      3930 1.90333E+01 8.03551E-01-6.96499E-03 6.06677E-03 3.27926E-14 2.99212E-13
 -1      3931 1.91959E+01 7.34535E-01-3.23605E-04-2.88284E-02-1.09219E-13 4.62950E-13
 -1      3932 1.89878E+01 7.96790E-01 5.89468E-03 1.90596E-01 5.64042E-14 3.63088E-13
 -1      3933 1.93162E+01 6.60250E-01-4.65795E-03-7.06578E-02-2.10916E-13 5.73168E-13
 -1      3934 1.94364E+01 5.93249E-01-6.99777E-04-8.38237E-02-1.22527E-13 5.65533E-13
 -1      3935 1.92625E+01 6.75874E-01 4.54818E-03 5.86899E-02-5.80352E-14 6.06052E-13
 -1      3936 1.95224E+01 5.31090E-01-3.07382E-03-1.02496E-01-2.10894E-13 6.19123E-13
 -1      3937 1.96028E+01 4.75795E-01-9.06143E-04-1.02217E-01-7.98042E-14 6.24177E-13
 -1      3938 1.94705E+01 5.58537E-01 3.68361E-03-1.42019E-02-6.15667E-14 8.03299E-13
 -1      3939 1.96677E+01 4.23533E-01-1.91541E-03-1.08731E-01-1.34166E-13 4.86348E-13
 -1      3940 1.97240E+01 3.76662E-01-8.98950E-04-1.01871E-01-2.84562E-13 2.87890E-13
 -1      3941 1.96218E+01 4.53863E-01 2.73199E-03-4.81652E-02-2.20608E-13 6.16252E-13
 -1      3942 1.97723E+01 3.33561E-01-1.17697E-03-1.01437E-01-3.04517E-13 1.82669E-13
 -1      3943 1.98113E+01 2.94838E-01-8.34091E-04-9.17571E-02-2.17596E-13 7.00517E-14
 -1      3944 1.97340E+01 3.63103E-01 2.00863E-03-6.04237E-02-3.75171E-13 3.98674E-13
 -1      3945 1.98471E+01 2.60346E-01-5.32280E-04-8.78540E-02-6.08145E-14-1.00024E-13
 -1      3946 1.98735E+01 2.28849E-01-7.22785E-04-7.77070E-02-7.68217E-14-7.39050E-14
 -1      3947 1.98163E+01 2.86336E-01 1.33722E-03-6.04827E-02-2.70510E-13 2.31600E-13
 -1      3948 1.98891E+01 2.13574E-01 8.94646E-05-7.21778E-02 6.39952E-14-3.47612E-14
 -1      3949 1.98994E+01 1.96547E-01-5.32285E-04-6.28119E-02 2.37743E-13 4.08958E-14
 -1      3950 1.98902E+01 2.03353E-01 3.49881E-04-4.33191E-02 2.52743E-13 6.26784E-14
 -1      3951 1.98636E+01 2.35267E-01 6.73046E-04-5.28400E-02 5.12232E-14 1.02877E-13
 -1      3952 2.15733E+01-1.55518E+00 1.89614E-02 1.10495E+00-2.79754E-13 1.30974E-13
 -1      3953 2.19560E+01-1.81702E+00-4.74070E-03 9.84863E-01-2.92945E-13 8.61081E-14
 -1      3954 2.03522E+01 7.39409E-01 1.51596E-03-2.87943E-02 4.57592E-14 7.07774E-14
 -1      3955 2.03391E+01 6.10238E-01-1.82796E-03 2.41236E-02 2.55463E-14 7.98075E-14
 -1      3956 2.03418E+01 5.98651E-01 1.23534E-03 2.46661E-02 2.56624E-14 6.43157E-14
 -1      3957 2.03394E+01-5.71814E-01 5.09072E-03-1.01213E+00-1.05202E-13 2.41574E-13
 -1      3958 2.01859E+01-4.06333E-01 4.54824E-03-9.59688E-01-1.40337E-14 2.05598E-13
 -1      3959 2.02133E+01-6.41343E-01-1.30959E-02-1.21816E+00-5.55950E-14 1.82731E-13
 -1      3960 2.31516E+01-2.36411E+00 8.65325E-03-7.54745E-01-9.54857E-15 3.23324E-14
 -1      3961 2.22588E+01-1.99795E+00-2.82874E-03-9.26677E-01 3.37109E-14 1.20917E-13
 -1      3962 2.18623E+01-1.74399E+00 2.48978E-02-1.08422E+00-7.21970E-16 1.16842E-13
 -1      3963 2.02850E+01 1.28811E+00-1.71960E-03-1.30269E-01 8.97012E-14 6.10676E-14
 -1      3964 2.02933E+01 1.22975E+00-2.24136E-03-1.78789E-01 6.92262E-14 5.57108E-14
 -1      3965 2.03267E+01 1.07135E+00 3.11427E-03-1.27952E-01 4.71647E-14 6.57219E-14
 -1      3966 2.03337E+01 1.10850E+00 5.12573E-03-8.06392E-02 7.92970E-14 8.34017E-14
 -1      3967 2.32864E+01-2.52980E+00-1.22294E-03 1.00364E+00-4.22228E-13-1.14812E-13
 -1      3968 2.32851E+01-2.93766E+00-2.14560E-02 1.66337E+00-3.91650E-13-4.22386E-14
 -1      3969 2.24407E+01-2.77588E+00 4.65391E-03 2.30054E+00-3.94624E-13-9.22059E-14
 -1      3970 2.24901E+01-1.98403E+00 2.40600E-02 7.89515E-01-2.83821E-13 8.14727E-14
 -1      3971 2.29122E+01-2.12607E+00-9.03603E-03 5.19522E-01-2.88563E-13-5.10553E-14
 -1      3972 2.31136E+01-2.36152E+00-1.56867E-02 7.86746E-01-3.54431E-13-2.00369E-13
 -1      3973 2.20483E+01-2.05057E+00-1.63778E-02 1.31090E+00-3.60412E-13-2.01422E-13
 -1      3974 2.03517E+01-5.80367E-01 7.43486E-03 1.02778E+00 1.43912E-13-1.29520E-13
 -1      3975 2.05673E+01-7.94098E-01 4.24959E-03 1.06580E+00 1.69161E-13-7.41202E-14
 -1      3976 2.00505E+01-2.43972E-01 3.47696E-03 8.67185E-01 5.58808E-13-2.41592E-13
 -1      3977 2.01927E+01-3.98276E-01 5.08150E-03 9.28970E-01 2.99339E-13-1.95580E-13
 -1      3978 2.00608E+01-4.48865E-01-1.07410E-02 1.12414E+00 3.17617E-13-3.63479E-13
 -1      3979 1.98852E+01-1.49964E-02 1.14410E-03 7.00285E-01 2.15713E-13-1.28164E-14
 -1      3980 1.99708E+01-1.16522E-01 4.64522E-03 7.67094E-01 3.91173E-13-8.56939E-14
 -1      3981 1.98395E+01-1.25413E-01-6.75006E-03 8.99971E-01 3.83568E-13-1.56524E-13
 -1      3982 1.98100E+01 1.25802E-01-1.48431E-04 5.49073E-01 1.04663E-13 2.04071E-13
 -1      3983 1.98558E+01 6.60400E-02 3.82590E-03 6.11338E-01 1.19853E-13 3.06130E-14
 -1      3984 1.97381E+01 8.17338E-02-3.82860E-03 6.95997E-01 1.39553E-13 1.02741E-13
 -1      3985 1.97902E+01 2.00718E-01-7.79538E-04 4.21762E-01 9.53168E-14 3.41201E-13
 -1      3986 1.98100E+01 1.71241E-01 2.91486E-03 4.75550E-01 1.89807E-13 3.47820E-13
 -1      3987 1.97106E+01 1.99590E-01-1.92091E-03 5.25645E-01 9.41961E-14 2.22478E-13
 -1      3988 1.98018E+01 2.29948E-01-1.02179E-03 3.19110E-01 1.45839E-13 3.03107E-13
 -1      3989 1.98057E+01 2.20932E-01 2.10879E-03 3.63565E-01 7.40217E-14 3.44323E-13
 -1      3990 1.97250E+01 2.54293E-01-7.57969E-04 3.90424E-01 8.23202E-14 3.20330E-13
 -1      3991 1.98288E+01 2.29781E-01-1.01590E-03 2.38592E-01 3.98610E-14 2.45249E-13
 -1      3992 1.98240E+01 2.33537E-01 1.47657E-03 2.74306E-01 7.52943E-14 3.82010E-13
 -1      3993 1.97601E+01 2.67330E-01-8.87954E-05 2.86458E-01 6.26201E-14 2.92611E-13
 -1      3994 1.98613E+01 2.12812E-01-7.39800E-04 1.76815E-01-1.18211E-14 2.88169E-13
 -1      3995 1.98524E+01 2.23216E-01 1.01784E-03 2.04589E-01 2.04172E-14 1.73750E-13
 -1      3996 1.98025E+01 2.54873E-01 1.69816E-04 2.08243E-01 4.84949E-14 3.06812E-13
 -1      3997 2.03186E+01 8.19068E-01-3.38870E-03 1.15046E-01 5.40381E-14 3.00703E-14
 -1      3998 2.03081E+01 1.12529E+00 1.49125E-03 2.63758E-01 3.42936E-14 8.09739E-15
 -1      3999 2.26933E+01-2.51052E+00-3.48886E-02-1.38073E+00 1.87263E-14 3.62514E-14
 -1      4000 2.13845E+01-1.49170E+00 9.95193E-04-1.12871E+00-4.43825E-14 1.36019E-13
 -1      4001 2.10626E+01-1.22663E+00 1.59300E-02-1.17172E+00-3.68163E-14 1.12110E-13
 -1      4002 2.13849E+01-1.72846E+00-2.99008E-02-1.45254E+00 2.38221E-14 5.59977E-14
 -1      4003 1.99074E+01 1.72014E-01 2.10349E-04 2.89191E-02-1.62843E-13 6.66423E-13
 -1      4004 1.98949E+01 1.84051E-01-1.29033E-04 4.49625E-02-8.90837E-14 4.87113E-13
 -1      4005 1.98778E+01 2.00842E-01-1.32111E-04 5.61100E-02-1.55790E-14 3.43336E-13
 -1      4006 1.99039E+01 1.75084E-01-3.00152E-04 1.48348E-02-1.46377E-13 4.93911E-13
 -1      4007 1.74985E+01 1.16065E+00-1.86249E-02 7.90382E-01 2.57475E-14 3.82038E-13
 -1      4008 1.79217E+01 1.13608E+00 3.24961E-03 5.86247E-01-1.03121E-14 2.40197E-13
 -1      4009 2.02364E+01 2.22206E-01-3.22590E-04-2.21723E-01 1.66412E-14 9.50239E-14
 -1      4010 2.02620E+01 2.71778E-01 8.78856E-04-1.81752E-01 3.81852E-14 7.79341E-14
 -1      4011 2.02924E+01 3.43817E-01 6.44764E-05-1.42163E-01 5.24890E-14 6.17690E-14
 -1      4012 2.02371E+01 2.34637E-01-9.34169E-05-2.13670E-01-9.11403E-15 8.63877E-14
 -1      4013 2.45450E+01-1.69535E+00 1.15274E-03-7.23607E-01-1.43522E-13-1.57287E-13
 -1      4014 2.02991E+01 1.18595E+00 7.65439E-04 2.23201E-01 3.05469E-14 2.80835E-14
 -1      4015 1.55722E+01 7.45323E-01 1.38524E-02-2.52623E+00-3.23535E-14 2.40963E-13
 -1      4016 2.02949E+01 1.21097E+00-2.04568E-03 1.75454E-01 5.03301E-14 5.39787E-14
 -1      4017 1.81580E+01 1.07891E+00-1.43894E-02 3.94452E-01-5.14614E-14 2.27376E-13
 -1      4018 1.84691E+01 1.02232E+00 1.22570E-03 2.70263E-01-5.98477E-14 7.54795E-14
 -1      4019 1.86397E+01 9.01816E-01 7.68734E-03 4.07284E-01-1.49324E-14 4.74384E-13
 -1      4020 2.03366E+01 8.20097E-01 3.43455E-04 8.14486E-02 2.50060E-14 2.75481E-14
 -1      4021 2.00881E+01 9.23279E-02 1.33406E-03-3.95636E-01-1.79672E-14 6.36688E-14
 -1      4022 2.01001E+01 1.04889E-01-6.35028E-05-3.68818E-01-4.69019E-14 4.99802E-14
 -1      4023 2.00528E+01 1.08505E-01-1.16507E-03-3.97661E-01 2.02476E-14 7.05038E-14
 -1      4024 1.66438E+01 1.15957E+00-9.07812E-03 1.40815E+00-6.55366E-14 3.87055E-13
 -1      4025 1.72111E+01 1.17248E+00 6.98617E-03 1.07534E+00-7.44413E-15 2.70563E-13
 -1      4026 1.76381E+01 9.36527E-01 8.19272E-03 1.27996E+00-7.16634E-14 4.38209E-13
 -1      4027 2.47218E+01 2.97327E+00-3.27790E-02-1.85085E+00-1.76827E-13 1.25761E-13
 -1      4028 2.08442E+01-1.02846E+00 1.38255E-02 1.13411E+00 4.24908E-14 1.64040E-16
 -1      4029 2.11432E+01-1.29148E+00 1.10116E-03 1.11644E+00-1.13447E-13 9.88913E-14
 -1      4030 2.11270E+01-1.48274E+00-1.49425E-02 1.45330E+00-1.03535E-13-1.72457E-13
 -1      4031 2.04662E+01-9.08611E-01-1.45690E-02 1.33495E+00 8.16798E-14-1.87188E-13
 -1      4032 2.03314E+01 1.06013E+00 2.58735E-03 1.16742E-01 4.82252E-14 2.51868E-14
 -1      4033 2.03425E+01 8.42395E-01-1.64384E-03 4.14906E-02 3.69200E-14 3.66751E-14
 -1      4034 2.16910E+01-2.64329E+00-1.18369E-02 2.80208E+00-3.21864E-13-7.07880E-14
 -1      4035 2.06128E+01-2.16711E+00-9.46576E-03 3.14259E+00-2.51319E-13-3.65732E-14
 -1      4036 2.21460E+01-2.43983E+00 1.08786E-02 2.07563E+00-3.91765E-13-1.78763E-13
 -1      4037 1.68246E+01-3.18468E-01-1.63176E-02-3.42566E+00 7.21914E-14 2.31610E-13
 -1      4038 1.76660E+01-8.96297E-01 2.68039E-02-3.80721E+00 7.02164E-14 1.85067E-13
 -1      4039 1.87969E+01-1.15291E+00 2.58527E-02-3.38625E+00 4.89535E-14 7.18705E-14
 -1      4040 1.86347E+01-1.20325E+00 2.90119E-02 3.60479E+00-8.50804E-14 6.94948E-14
 -1      4041 1.72575E+01-7.89330E-01 4.46955E-02 4.01604E+00 3.62470E-14 9.49536E-14
 -1      4042 1.62360E+01 3.65150E-02-6.85364E-04 3.29213E+00 1.30625E-13-3.22173E-14
 -1      4043 2.00483E+01-1.09082E-01-4.54982E-03-6.62095E-01-1.63734E-14 1.00619E-13
 -1      4044 2.03538E+01 6.53556E-01 9.95926E-04 1.95165E-04 2.55238E-14 3.24752E-14
 -1      4045 2.03478E+01 8.61998E-01-3.25709E-04 2.49315E-02 4.48158E-14 3.48020E-14
 -1      4046 1.99664E+01-2.91057E-01-8.45066E-03-1.00123E+00-2.63572E-14 4.12805E-14
 -1      4047 2.00976E+01-2.69497E-01 5.06241E-03-8.62507E-01 6.17925E-14 1.13955E-13
 -1      4048 2.00076E+01-1.59151E-01 1.84013E-03-8.01293E-01 6.65046E-14 4.31851E-14
 -1      4049 1.65764E+01 3.91179E-01 3.70855E-02-2.72494E+00-1.17679E-15 2.10174E-13
 -1      4050 1.99458E+01 4.69292E-02 3.47441E-03-5.81597E-01-7.30505E-14 7.20855E-14
 -1      4051 1.99346E+01 8.24042E-02-3.60634E-04-5.30769E-01-1.72835E-14 8.02296E-14
 -1      4052 2.06631E+01-1.13381E+00-2.08277E-02-1.40277E+00 2.35985E-14 1.05260E-13
 -1      4053 1.98715E+01 2.17984E-01-1.31874E-04-2.68383E-02 2.43988E-15 4.94220E-13
 -1      4054 1.98835E+01 2.02668E-01-5.13681E-04-2.28824E-02-5.17541E-14 3.36009E-13
 -1      4055 1.98821E+01 2.04253E-01 5.48325E-04-5.07518E-03-2.98426E-13 4.87281E-13
 -1      4056 2.40400E+01 2.04074E+00 3.40478E-03-1.81709E+00-2.13289E-13 1.35526E-13
 -1      4057 2.01204E+01-1.71897E+00-7.69130E-04-2.97236E+00-3.70981E-15-7.35913E-14
 -1      4058 2.09003E+01-2.19506E+00-3.49486E-02-2.80661E+00 3.74362E-14 5.07450E-15
 -1      4059 2.17117E+01-2.25122E+00 2.97867E-02-2.23423E+00 5.08846E-14 1.06045E-13
 -1      4060 2.03411E+01 5.35871E-01-1.12967E-03-5.37278E-02 5.43937E-14 2.61024E-14
 -1      4061 2.14213E+01-1.89248E+00 1.92482E-02-1.95131E+00 5.58121E-14 9.09680E-14
 -1      4062 1.54513E+01 1.09309E+00-1.64512E-02 2.04251E+00 5.23644E-14 2.06024E-13
 -1      4063 2.03401E+01 9.47617E-01-3.25362E-03-7.34420E-03 6.72449E-14 4.28615E-14
 -1      4064 2.03405E+01 9.50319E-01-2.53769E-03-3.22231E-02 5.79413E-14 6.27092E-14
 -1      4065 1.98842E+01 1.36322E-01-1.81138E-03-4.88759E-01 5.51256E-15 5.31958E-14
 -1      4066 1.99650E+01 1.09153E-01 2.58952E-03-4.72912E-01 2.21412E-14 6.95514E-14
 -1      4067 1.99745E+01 1.25466E-01-8.28106E-04-4.30255E-01 5.13970E-14 8.26471E-14
 -1      4068 2.01094E+01 1.35283E-01-7.26990E-04-3.33650E-01-3.34442E-14 1.01853E-13
 -1      4069 1.98805E+01 1.97894E-01-5.07534E-04 1.31443E-01 1.31886E-13 2.02208E-13
 -1      4070 1.98719E+01 2.09834E-01 7.56161E-04 1.51110E-01 3.66891E-14 3.74810E-13
 -1      4071 1.98325E+01 2.38329E-01 1.22142E-04 1.49208E-01-7.56438E-14 1.94136E-13
 -1      4072 1.98545E+01 2.22513E-01 3.32014E-04 1.02568E-01 1.84173E-13 1.85304E-13
 -1      4073 1.98910E+01 1.89979E-01-1.41232E-04 1.45583E-02-2.20815E-13 4.88257E-13
 -1      4074 2.02315E+01 2.37323E-01 2.44319E-05-2.01075E-01-1.33543E-14 7.42223E-14
 -1      4075 2.02622E+01 2.78688E-01-9.87907E-05-1.67745E-01-8.77824E-16 6.29527E-14
 -1      4076 2.03463E+01 9.01341E-01-2.48869E-03 2.30474E-02 5.97870E-14 3.48394E-14
 -1      4077 2.03448E+01 9.22221E-01-1.49911E-03-3.51842E-04 6.40335E-14 1.21350E-14
 -1      4078 2.03627E+01 7.89384E-01 2.79696E-03-8.44623E-03 3.49662E-14 4.73352E-14
 -1      4079 2.03633E+01 7.17428E-01 2.73520E-03-8.98862E-03 4.47270E-14 9.33789E-15
 -1      4080 2.27416E+01-2.39466E+00 2.53729E-02 1.34958E+00-4.77003E-13-7.94543E-14
 -1      4081 1.81978E+01 9.63718E-01 9.41927E-03 7.51671E-01-9.02322E-14 4.35886E-13
 -1      4082 2.01599E+01 1.84319E-01 7.18476E-04-2.57120E-01-3.76856E-14 9.71908E-14
 -1      4083 2.01916E+01 2.06222E-01-2.24355E-04-2.27130E-01-1.60913E-14 9.47399E-14
 -1      4084 2.02139E+01 2.49169E-01 2.55235E-04-1.82941E-01-2.21739E-14 5.17919E-14
 -1      4085 1.61926E+01 5.22433E-01 2.02295E-02 2.73478E+00 1.57498E-13 1.87810E-13
 -1      4086 1.65838E+01 9.61023E-01 1.06047E-02 1.83457E+00 1.14452E-13 2.99397E-13
 -1      4087 1.72190E+01 6.16031E-01-9.80184E-03 2.03064E+00 1.27974E-13 3.20003E-13
 -1      4088 1.72959E+01-7.94537E-03-9.84941E-03 2.89800E+00 2.46443E-13-6.94080E-14
 -1      4089 2.03328E+01 9.20870E-01-2.31347E-03-8.08490E-02 5.51780E-14 7.53716E-14
 -1      4090 2.03413E+01 8.88009E-01-6.69584E-04-5.25397E-02 5.85853E-14 8.09749E-14
 -1      4091 1.99363E+01-4.48711E-03 3.01947E-04-6.54653E-01-6.25321E-14 4.53267E-14
 -1      4092 1.98450E+01 6.84134E-02-3.04821E-03-6.24968E-01-4.32238E-14-6.04594E-15
 -1      4093 1.99798E+01-7.08060E-02 4.37524E-03-7.13076E-01 2.44161E-14 1.84698E-14
 -1      4094 2.02434E+01 3.51546E-01 4.77586E-05 5.37508E-02 1.95862E-14 6.30082E-14
 -1      4095 2.01922E+01 3.19837E-01-1.41395E-03 6.40801E-02-1.11264E-14 4.20066E-14
 -1      4096 2.01363E+01 3.03572E-01 9.28760E-05 5.85999E-02-5.49502E-14 5.40581E-14
 -1      4097 2.00669E+01 3.00694E-01-1.53948E-03 5.92166E-02-7.04891E-14 6.54754E-14
 -1      4098 2.01728E+01 3.16553E-01 1.03295E-03 1.22697E-02-2.27770E-14 7.21618E-16
 -1      4099 2.00003E+01 3.10558E-01 1.97973E-04 4.55257E-02-7.90572E-14 7.49570E-14
 -1      4100 1.99182E+01 3.28394E-01-2.10961E-03 3.53703E-02-4.83864E-14 7.75110E-14
 -1      4101 2.00472E+01 3.01924E-01 1.33590E-03-8.88635E-03-6.91533E-14 5.07888E-14
 -1      4102 1.98404E+01 3.56089E-01 5.18663E-04 9.91345E-03 2.92152E-14 1.01733E-13
 -1      4103 1.97393E+01 3.87933E-01-3.00104E-03-1.46072E-02 4.91161E-14 1.15175E-13
 -1      4104 1.98994E+01 3.27238E-01 1.37806E-03-5.07539E-02 1.80595E-14 1.05986E-13
 -1      4105 1.96500E+01 4.27685E-01 1.04845E-03-5.71007E-02 1.38919E-15 1.20264E-13
 -1      4106 1.95248E+01 4.65954E-01-4.62802E-03-1.02047E-01-2.57924E-14 8.40862E-14
 -1      4107 1.97274E+01 3.77323E-01 1.55452E-03-1.23836E-01 2.77091E-14 3.57235E-14
 -1      4108 1.94271E+01 5.10991E-01 2.42232E-03-1.70154E-01-3.26853E-14 9.80935E-14
 -1      4109 1.92708E+01 5.47463E-01-6.46068E-03-2.45415E-01-1.78229E-14 1.04344E-13
 -1      4110 1.95301E+01 4.32989E-01 9.02279E-04-2.41310E-01-8.93518E-15 9.40497E-14
 -1      4111 1.91654E+01 5.88128E-01 4.07812E-03-3.49416E-01 2.32333E-14 1.39830E-13
 -1      4112 1.89722E+01 6.10814E-01-8.81425E-03-4.69052E-01 1.15817E-14 1.26288E-13
 -1      4113 1.93088E+01 4.77992E-01 3.31231E-04-4.21582E-01 1.30886E-14 1.69776E-13
 -1      4114 1.88654E+01 6.33567E-01 6.68351E-03-6.23094E-01-5.91063E-14 1.27952E-13
 -1      4115 1.86294E+01 6.24508E-01-1.14784E-02-8.05956E-01-2.53681E-14 1.11739E-13
 -1      4116 1.90688E+01 4.82382E-01-1.17178E-03-6.89663E-01-2.62418E-14 9.44448E-14
 -1      4117 1.85347E+01 6.09056E-01 1.10465E-02-1.02667E+00-1.01872E-14 1.33276E-13
 -1      4118 1.82553E+01 5.41285E-01-1.32035E-02-1.29851E+00-4.91178E-14 8.25348E-14
 -1      4119 1.88250E+01 4.06235E-01-4.17181E-03-1.07578E+00-2.91451E-14 1.14934E-14
 -1      4120 1.82067E+01 4.41927E-01 2.03348E-02-1.61444E+00-2.43171E-14 1.05404E-13
 -1      4121 1.78913E+01 2.95078E-01 6.90876E-03-2.05860E+00-4.96839E-14 1.33649E-13
 -1      4122 1.86043E+01 1.83397E-01-9.95528E-03-1.62397E+00-1.53013E-14-1.15485E-14
 -1      4123 1.96143E+01 6.25769E-02-2.01850E-03 8.87564E-01 1.48387E-13 3.42237E-14
 -1      4124 1.97084E+01-4.86630E-02 9.14087E-03 1.00296E+00 3.09126E-13-1.49996E-13
 -1      4125 1.98772E+01 2.03969E-01-3.65433E-04 1.41060E-02-3.41454E-13 5.55297E-13
 -1      4126 2.05292E+01-1.11781E+00 7.97020E-03-1.68608E+00 2.07202E-14 3.12953E-14
 -1      4127 2.02376E+01-8.21511E-01 1.24851E-02-1.58830E+00 2.45230E-14 1.04263E-13
 -1      4128 1.92134E+01 6.39320E-01-6.46846E-03 1.77851E-01-6.18667E-15 4.03508E-13
 -1      4129 1.93465E+01 5.94590E-01 1.35911E-03 1.21351E-01 6.86477E-14 4.99308E-13
 -1      4130 1.94213E+01 5.44872E-01-4.67394E-03 7.22582E-02-2.37965E-14 5.76435E-13
 -1      4131 1.95162E+01 5.01076E-01 3.89438E-04 4.29688E-02-1.69297E-13 5.23949E-13
 -1      4132 1.94144E+01 5.37857E-01 3.73975E-03 1.80073E-01-9.21867E-15 2.74988E-13
 -1      4133 1.95779E+01 4.54472E-01-3.15001E-03 1.37692E-02-2.55613E-13 5.76639E-13
 -1      4134 1.96480E+01 4.12782E-01-7.54507E-05-3.74864E-04-3.10657E-13 4.59543E-13
 -1      4135 1.95610E+01 4.62724E-01 3.27215E-03 9.21120E-02-1.37402E-13 3.32420E-13
 -1      4136 1.96972E+01 3.71124E-01-2.13070E-03-1.64618E-02-2.90141E-13 4.43859E-13
 -1      4137 1.97485E+01 3.33852E-01-2.82685E-04-2.15235E-02-2.92834E-13 4.57653E-13
 -1      4138 1.96769E+01 3.86919E-01 2.58527E-03 3.94802E-02-2.18477E-13 3.70433E-13
 -1      4139 1.97871E+01 2.98259E-01-1.22859E-03-2.94953E-02-3.15498E-13 6.34657E-13
 -1      4140 1.98235E+01 2.65670E-01-5.41159E-04-2.96829E-02-3.18373E-13 5.70388E-13
 -1      4141 1.97674E+01 3.16134E-01 1.96648E-03 9.86484E-03-2.37754E-13 6.06181E-13
 -1      4142 1.98412E+01 2.49666E-01-2.67540E-04-3.10104E-02-2.15016E-13 6.56938E-13
 -1      4143 1.98559E+01 2.32603E-01-4.88084E-04-2.62510E-02 1.66317E-14 6.92635E-13
 -1      4144 1.98541E+01 2.33939E-01 7.39620E-04-5.24449E-03-3.73497E-13 1.10141E-12
 -1      4145 1.98226E+01 2.65767E-01 1.23533E-03-1.82628E-03-2.24901E-13 1.04704E-12
 -1      4146 1.95289E+01-1.40407E+00-8.06778E-03-3.07965E+00 2.98481E-15-2.72317E-14
 -1      4147 2.01299E+01-1.40125E+00 8.07582E-03-2.57470E+00 3.28600E-14-3.45064E-14
 -1      4148 1.88134E+01-8.65728E-01 1.62885E-02-3.00867E+00 6.25111E-14 1.08113E-13
 -1      4149 2.00659E+01-5.81601E-01 1.00862E-02-1.40724E+00-6.34670E-15 1.12863E-13
 -1      4150 1.98835E+01-3.79802E-01 3.14926E-03-1.28202E+00-3.73921E-14 8.16428E-14
 -1      4151 1.97914E+01-6.32050E-01-2.14922E-02-1.68325E+00 3.07705E-14 2.58851E-14
 -1      4152 1.78602E+01 6.05798E-01-5.70306E-03 1.62808E+00 9.98840E-14 3.32411E-13
 -1      4153 1.81763E+01 6.98965E-01 1.51252E-02 1.28740E+00 2.53716E-14 3.78821E-13
 -1      4154 2.03406E+01 8.96962E-01-1.89828E-03-3.48775E-02 5.33054E-14 7.12469E-14
 -1      4155 1.75030E+01-3.64139E-02-1.57900E-02-2.71537E+00 2.21843E-14 2.01555E-13
 -1      4156 2.03168E+01 4.65455E-01-3.14376E-04 3.40976E-02 2.79241E-14 4.64110E-14
 -1      4157 2.02820E+01 3.98775E-01-1.28755E-03 5.25073E-02 3.12318E-14 6.95722E-14
 -1      4158 2.02712E+01 3.87744E-01 1.29234E-03 1.74129E-02 2.46726E-14 4.88686E-14
 -1      4159 2.16066E+01-1.85050E+00 2.30853E-02 1.68146E+00-2.24383E-13-2.60807E-13
 -1      4160 2.20698E+01-2.16602E+00-9.28245E-03 1.54177E+00-3.28329E-13-1.15719E-13
 -1      4161 2.21230E+01-2.32713E+00-1.50072E-02 1.77929E+00-3.28075E-13-1.46439E-13
 -1      4162 1.95828E+01 2.16010E-01-2.82796E-03 6.55332E-01 7.40676E-14 9.74570E-14
 -1      4163 1.96261E+01 1.55674E-01 6.91084E-03 7.51790E-01 1.57367E-13 5.50096E-14
 -1      4164 1.94422E+01 2.03798E-01-2.66410E-03 8.47129E-01 1.02266E-13 1.81860E-13
 -1      4165 1.97467E+01-2.02965E-01 8.92545E-05 1.17016E+00 3.85283E-13-3.55446E-13
 -1      4166 1.99158E+01-3.83525E-01 1.05913E-02 1.29603E+00 2.67151E-13-3.96190E-13
 -1      4167 1.94768E+01-2.22552E-02-7.70598E-03 1.16547E+00 2.19279E-13-1.92703E-13
 -1      4168 1.96069E+01 2.90488E-01-2.87880E-03 4.74552E-01-6.36112E-15 1.96250E-13
 -1      4169 1.96187E+01 2.65111E-01 4.91892E-03 5.50892E-01 1.98577E-14 1.59997E-13
 -1      4170 1.94776E+01 3.20420E-01 2.41998E-04 6.01256E-01 6.99784E-14 2.58554E-13
 -1      4171 1.96576E+01 3.12792E-01-2.57418E-03 3.38795E-01 3.08727E-14 2.86670E-13
 -1      4172 1.96515E+01 3.09771E-01 3.34403E-03 3.97242E-01 7.47088E-14 1.54121E-13
 -1      4173 1.95455E+01 3.63638E-01 1.48495E-03 4.18986E-01 4.27418E-14 1.78033E-13
 -1      4174 1.97175E+01 3.02826E-01-2.12559E-03 2.39284E-01 4.12217E-14 1.58806E-13
 -1      4175 1.97025E+01 3.13058E-01 2.18710E-03 2.83023E-01-8.61080E-15 1.99898E-13
 -1      4176 1.96240E+01 3.61778E-01 1.92745E-03 2.87680E-01 6.81977E-14 1.40976E-13
 -1      4177 1.97764E+01 2.75174E-01-1.63618E-03 1.67681E-01 2.62895E-14 1.91297E-13
 -1      4178 1.97585E+01 2.91985E-01 1.41561E-03 1.99709E-01 8.78952E-14 2.53628E-13
 -1      4179 1.97005E+01 3.34084E-01 1.84163E-03 1.95240E-01-1.00022E-14-4.56245E-14
 -1      4180 1.98678E+01 2.13841E-01 7.30358E-04 4.23229E-02-2.02300E-13 3.21405E-13
 -1      4181 1.98522E+01 2.22579E-01-8.68811E-04 6.79608E-02 4.56480E-14 9.86230E-14
 -1      4182 1.98417E+01 2.35689E-01 5.49683E-04 8.81226E-02 1.19089E-14 3.41388E-14
 -1      4183 1.98525E+01 2.28257E-01-2.11910E-04 2.29952E-02-3.48614E-13 4.45150E-13
 -1      4184 2.03232E+01 4.23905E-01 3.33685E-04-8.99871E-02 5.23126E-14 3.35447E-14
 -1      4185 2.03445E+01 5.43921E-01 7.57943E-05-4.77804E-02 2.90958E-14-7.81069E-16
 -1      4186 2.09283E+01-1.53061E+00 2.20737E-02-1.95056E+00 6.07214E-14 8.60555E-14
 -1      4187 2.02907E+01 3.52337E-01 2.62261E-04-1.19215E-01-7.43413E-15 6.24903E-14
 -1      4188 2.02987E+01 3.50209E-01-5.10938E-04-1.31231E-01 3.57046E-14 3.56852E-14
 -1      4189 2.03585E+01 7.63853E-01 2.02396E-03-9.28667E-03 3.96199E-14 6.02106E-14
 -1      4190 2.00174E+01 1.39176E-01 2.15088E-03-3.86423E-01 3.71125E-14 6.57127E-14
 -1      4191 2.00389E+01 1.47564E-01-7.92215E-04-3.50619E-01-6.29087E-15 5.65903E-14
 -1      4192 1.99549E+01 1.64463E-01-1.42845E-03-3.83627E-01 6.82438E-15 5.20824E-14
 -1      4193 1.89557E+01 7.19298E-01-8.99768E-03 3.48395E-01 9.12800E-14 3.97248E-13
 -1      4194 1.91249E+01 6.86938E-01 2.92944E-03 2.57306E-01 3.68468E-14 4.31318E-13
 -1      4195 1.92339E+01 6.00755E-01 3.58367E-03 3.21251E-01 1.06882E-13 2.56659E-13
 -1      4196 1.82582E+01 7.43266E-01-1.47089E-02 1.02594E+00-9.43416E-14 4.00816E-13
 -1      4197 1.85322E+01 7.76546E-01 8.66687E-03 8.03526E-01-4.52490E-14 4.94616E-13
 -1      4198 1.85159E+01 4.69483E-01-5.20689E-03 1.33936E+00 8.43807E-15 3.44255E-13
 -1      4199 2.00856E+01 1.57947E-01 1.46712E-03-3.16544E-01-1.93886E-14 3.92937E-14
 -1      4200 2.01143E+01 1.68413E-01-5.75334E-04-2.85176E-01-3.23104E-14 7.10390E-14
 -1      4201 2.01292E+01 2.02812E-01-2.58012E-04-2.38151E-01-5.96164E-15 3.53929E-14
 -1      4202 2.00400E+01 1.80645E-01-8.35514E-04-3.02542E-01-8.24229E-15 7.44776E-15
 -1      4203 1.86344E+01 7.65860E-01-1.21350E-02 6.19875E-01-1.08999E-13 3.95581E-13
 -1      4204 1.88532E+01 7.56449E-01 5.16750E-03 4.74568E-01-3.77947E-14 3.48726E-13
 -1      4205 1.87703E+01 6.06393E-01 5.16082E-04 8.71659E-01-1.21788E-13 2.16532E-13
 -1      4206 2.03526E+01 6.46225E-01-7.21639E-04 2.21114E-03 2.97138E-14 5.03698E-14
 -1      4207 2.03362E+01 5.39468E-01-9.64043E-04 2.79762E-02 2.84869E-14 4.48503E-14
 -1      4208 2.03313E+01 5.16483E-01 1.70740E-03 1.03145E-02 2.34130E-14 4.06177E-14
 -1      4209 2.03551E+01 7.00645E-01 1.17099E-03-3.36117E-03 1.69763E-14 6.59487E-14
 -1      4210 2.02623E+01-1.28268E+00-1.76356E-02-2.18650E+00 3.23447E-14 6.71060E-14
 -1      4211 1.96163E+01-1.53873E+00 1.02421E-02 3.29232E+00-7.75551E-14 1.23443E-14
 -1      4212 1.84665E+01-8.10377E-01-1.30810E-02 3.12766E+00 1.59752E-13-2.20271E-14
 -1      4213 1.98302E+01-2.13692E-01 9.48851E-03-1.11072E+00-8.52678E-14 5.21057E-14
 -1      4214 1.97316E+01-8.84653E-02-2.48086E-04-9.92085E-01-3.46131E-15 2.92344E-14
 -1      4215 1.95810E+01-2.02918E-01-1.34212E-02-1.28241E+00-3.88736E-14-2.50580E-14
 -1      4216 1.98602E+01-6.38826E-02-5.17887E-03-7.97159E-01-3.04498E-16-6.55326E-14
 -1      4217 2.14756E+01-2.09599E+00 7.63645E-03 2.21317E+00-2.89530E-13-1.86628E-13
 -1      4218 1.89235E+01-5.30440E-01-2.19263E-02-2.35579E+00 4.50852E-14-9.81376E-15
 -1      4219 1.82920E+01-2.44599E-01 3.57315E-03-2.49445E+00-1.65926E-15 1.19138E-13
 -1      4220 1.96498E+01-4.03499E-01-1.36572E-02 1.55265E+00 1.71472E-13-5.63087E-13
 -1      4221 2.00446E+01-6.13619E-01 4.73305E-03 1.48065E+00 9.79843E-14-3.97148E-13
 -1      4222 2.03009E+01-8.85629E-01 4.48186E-03 1.59695E+00-6.47030E-15-4.09675E-13
 -1      4223 2.03329E+01 4.66521E-01 1.13706E-03-6.06603E-02 6.79812E-16 3.22281E-14
 -1      4224 2.03492E+01 5.74581E-01-1.63376E-03-2.73978E-02 2.62751E-14 9.95456E-15
 -1      4225 2.03517E+01 6.21555E-01 3.71417E-04-1.95859E-02 2.97724E-14 3.26850E-14
 -1      4226 2.06748E+01-1.18743E+00 1.71206E-02 1.68850E+00-1.76598E-14-3.77929E-13
 -1      4227 2.10544E+01-1.54738E+00-1.29011E-04 1.73213E+00-1.39459E-13-3.59038E-13
 -1      4228 2.10071E+01-1.63801E+00-2.53920E-03 1.94674E+00-8.09697E-14-3.59258E-13
 -1      4229 2.01321E+01-9.29359E-01-6.96337E-03 1.84665E+00 3.31690E-14-5.18840E-13
 -1      4230 1.98108E+01-9.14110E-01 2.45580E-02-2.24938E+00 2.97423E-14-2.05717E-14
 -1      4231 2.04369E+01-1.66484E+00 1.79427E-02 2.71645E+00-4.73050E-14-9.05663E-14
 -1      4232 1.79686E+01 3.81186E-01 9.69780E-03 1.93733E+00 1.31258E-13 1.07890E-13
 -1      4233 1.84685E+01 1.09720E-01-1.54756E-02 1.90791E+00 2.02515E-13-9.94604E-14
 -1      4234 1.79351E+01 1.22883E-01-4.10551E-03 2.32627E+00 2.64036E-13-9.61204E-14
 -1      4235 1.90164E+01 6.34092E-01 2.72044E-03 5.42241E-01 5.98979E-14 2.39789E-13
 -1      4236 1.98089E+01 1.92218E-01 3.96009E-03-4.80593E-01-2.40255E-14-4.08082E-14
 -1      4237 1.98329E+01 2.04222E-01-6.25791E-04-4.20674E-01 1.23935E-14-2.18134E-14
 -1      4238 2.01928E+01 2.51174E-01 2.18553E-04-1.58742E-01 8.01416E-15 4.29603E-15
 -1      4239 2.02311E+01 2.81458E-01-9.39342E-04-1.31509E-01-8.75604E-15 2.43729E-14
 -1      4240 1.97485E+01 1.36786E-01 5.52839E-03-6.41751E-01-1.44823E-14-9.11836E-14
 -1      4241 1.97477E+01 1.68657E-01-1.95428E-03-5.61679E-01-2.89988E-14-8.25819E-14
 -1      4242 1.96876E+01 2.40278E-01-1.97079E-03-4.90872E-01 1.33307E-14-4.67796E-14
 -1      4243 2.02702E+01 3.23307E-01 4.28482E-04-1.12674E-01-2.73223E-14 3.62371E-14
 -1      4244 2.03055E+01 3.92771E-01-1.03669E-03-7.67920E-02-1.58124E-14 2.46554E-14
 -1      4245 2.03124E+01 4.30776E-01 8.10917E-04-5.17867E-02-1.41654E-14 2.35142E-14
 -1      4246 2.02481E+01 3.25505E-01 9.28815E-04-8.74001E-02 9.80742E-16 1.27547E-14
 -1      4247 2.03546E+01 6.67535E-01-1.66567E-03-2.71356E-03 1.24896E-14 4.81209E-14
 -1      4248 1.98136E+01 2.52447E-01-1.31812E-03 1.10591E-01-4.90816E-14 1.17826E-13
 -1      4249 1.98068E+01 2.63098E-01 9.82689E-04 1.36068E-01-4.45675E-14 1.82060E-13
 -1      4250 1.97642E+01 2.97891E-01 1.39397E-03 1.26324E-01-3.43092E-15-2.86207E-15
 -1      4251 1.98180E+01 2.58886E-01 1.16147E-03 7.41792E-02 1.27678E-15 8.93535E-14
 -1      4252 2.02975E+01 4.02510E-01-7.71327E-05-2.60309E-02 8.73731E-15 4.45612E-14
 -1      4253 2.02560E+01 3.48567E-01-1.22931E-03-2.68977E-02-3.36897E-15 2.96431E-14
 -1      4254 1.92737E+01-4.23773E-01 2.78972E-03-1.97046E+00 3.33405E-14 1.02723E-14
 -1      4255 2.00946E+01 2.80205E-01 1.43417E-04-5.72315E-02-3.93522E-14 2.10248E-14
 -1      4256 2.00236E+01 2.80384E-01-1.91163E-03-7.21281E-02-3.73753E-14 7.09553E-14
 -1      4257 1.99631E+01 2.90210E-01 1.11141E-03-1.00721E-01-2.80046E-14 8.48226E-14
 -1      4258 1.98791E+01 3.02906E-01-2.27508E-03-1.29112E-01 2.87249E-14 5.55372E-14
 -1      4259 2.00139E+01 2.64935E-01 2.29092E-04-1.47353E-01-4.77424E-15 4.54759E-14
 -1      4260 1.98144E+01 3.22292E-01 1.90930E-03-1.70473E-01 4.72085E-14 3.47414E-14
 -1      4261 1.97184E+01 3.42678E-01-1.58387E-03-2.19152E-01 1.19902E-14 5.80904E-14
 -1      4262 1.98792E+01 2.78025E-01-3.66288E-04-2.18618E-01 1.49523E-14 4.58467E-14
 -1      4263 1.96885E+01 3.36252E-01 2.64479E-03-2.95134E-01 3.33422E-14 5.19801E-14
 -1      4264 1.95837E+01 3.50332E-01-2.21897E-03-3.69771E-01 4.40770E-14 8.96290E-14
 -1      4265 1.95334E+01 3.53977E-01 4.71607E-03-4.51415E-01 1.99960E-14 5.80521E-14
 -1      4266 1.94166E+01 3.52080E-01-2.36069E-03-5.62741E-01 1.26922E-15 6.31055E-14
 -1      4267 1.92688E+01 2.34690E-01 1.08798E-02-9.88916E-01-7.88731E-14-5.04582E-15
 -1      4268 1.91572E+01 1.47364E-01 5.96710E-04-1.21351E+00-6.84700E-14-3.34464E-14
 -1      4269 1.92270E+01 1.49001E-02 1.56841E-02-1.40842E+00 1.09455E-14-6.41947E-14
 -1      4270 1.91471E+01-1.58285E-01 6.24758E-03-1.72217E+00 6.19133E-14-7.89202E-15
 -1      4271 1.89955E+01-5.66101E-01-1.05956E-03 2.47611E+00 2.15555E-13-1.52997E-13
 -1      4272 1.81524E+01-2.72551E-01 1.33413E-02 2.74366E+00 2.90063E-13-1.88772E-13
 -1      4273 1.97719E+01 2.71315E-01-1.75349E-03-3.36406E-01 4.20284E-14 6.00629E-15
 -1      4274 1.98662E+01 2.27972E-01 2.33371E-03-3.50820E-01 3.12798E-14 9.24179E-15
 -1      4275 1.95642E+01 4.16782E-01-3.59263E-03 1.86864E-01 2.99694E-15 1.15835E-13
 -1      4276 1.96319E+01 3.89014E-01 1.49489E-05 1.49601E-01-1.57018E-14 2.03134E-13
 -1      4277 1.96688E+01 3.62550E-01-2.68514E-03 1.13530E-01-1.07418E-13 1.77819E-13
 -1      4278 1.97225E+01 3.33249E-01-7.87997E-05 9.07500E-02-1.74247E-13 1.75367E-13
 -1      4279 1.97505E+01 3.09626E-01-2.01380E-03 6.08893E-02-1.40590E-13 2.28705E-13
 -1      4280 1.97928E+01 2.81232E-01-1.14564E-04 4.79163E-02 4.46036E-14 3.85816E-13
 -1      4281 1.95253E+01 4.38495E-01 6.80902E-04 2.39718E-01 8.22499E-14 1.52185E-13
 -1      4282 2.01276E+01 2.37983E-01-6.06609E-04-1.66527E-01-7.72987E-15 2.24611E-15
 -1      4283 2.01468E+01 2.71762E-01 8.22288E-04-1.14194E-01-4.26545E-15 1.58775E-14
 -1      4284 2.03453E+01 5.44691E-01 4.22456E-04-1.59086E-02 6.75776E-15 6.43346E-14
 -1      4285 1.93059E+01 4.76046E-01-5.16362E-03 4.65744E-01 7.20523E-14 1.19062E-13
 -1      4286 1.94057E+01 4.69837E-01 1.93637E-03 3.74709E-01 7.63429E-15 1.16386E-13
 -1      4287 1.97428E+01 1.28138E-02 7.43903E-03-8.51197E-01-1.07129E-15-5.84878E-14
 -1      4288 1.97036E+01 8.21514E-02-1.65484E-03-7.50531E-01-4.92875E-14-7.99269E-14
 -1      4289 1.95918E+01 1.84397E-01-3.65486E-03-6.86194E-01-2.99007E-14-9.14936E-14
 -1      4290 1.95418E+01 5.08407E-02-7.22221E-03-9.47574E-01-7.28841E-14 1.97213E-14
 -1      4291 1.94417E+01 4.59477E-01-4.45189E-03 2.99059E-01 1.28255E-13 5.33830E-14
 -1      4292 1.90503E+01 3.29750E-01-4.43178E-03 1.04973E+00 3.21290E-14 5.53349E-14
 -1      4293 1.91061E+01 2.25677E-01 1.28506E-02 1.23443E+00 5.83906E-14-5.89340E-14
 -1      4294 1.91661E+01 4.43964E-01-5.29746E-03 7.10497E-01-3.04005E-15 1.40464E-13
 -1      4295 1.92820E+01 4.65583E-01 4.24494E-03 5.71091E-01 1.69054E-13 1.45038E-13
 -1      4296 1.91695E+01 3.97272E-01 7.81602E-03 8.52986E-01-1.19358E-14 1.02585E-13
 -1      4297 1.99061E+01 2.28348E-01-8.60579E-04-3.04109E-01 1.25256E-14 2.75084E-15
 -1      4298 1.89977E+01 8.54654E-02-2.67479E-03 1.50612E+00 1.59204E-13-2.57947E-13
 -1      4299 2.02197E+01 3.13204E-01 2.31902E-04-4.60169E-02 6.95002E-15 2.54503E-15
 -1      4300 2.01614E+01 2.87501E-01-1.24450E-03-5.35735E-02-1.31436E-14 2.99503E-15
 -1      4301 2.03223E+01 4.66962E-01-1.29317E-03-1.06296E-02 1.85290E-14 6.86307E-14
 -1      4302 1.91251E+01-1.16766E-01 1.10801E-02 1.74100E+00 1.11315E-13-2.75740E-13
 -1      4303 1.92397E+01-3.87992E-01-3.87634E-03 1.97960E+00 1.59575E-13-2.59391E-13
 -1      4304 1.93850E+01 3.31765E-01 7.18901E-03-6.76082E-01-3.69771E-14 4.01335E-14
 -1      4305 1.92640E+01 2.97988E-01-1.63932E-03-8.37035E-01-7.17725E-14 1.13388E-14
 -1      4306 1.99766E+01 2.25520E-01 2.03194E-03-2.60744E-01 7.01660E-15 8.88238E-15
 -1      4307 1.98185E+01 2.57282E-01-1.13624E-03 2.86573E-02-2.43647E-14 4.12961E-13
 -1      4308 1.96934E+01-8.41426E-01 9.73393E-03 2.24565E+00 1.23120E-13-3.03899E-13
 -1      4309 2.00839E+01 2.28381E-01 1.20711E-03-1.95772E-01-9.20394E-15-3.12207E-15
 -1      4310 2.09108E+01-1.74133E+00-1.29126E-03 2.26726E+00-9.79005E-14-2.61149E-13
 -1      4311 2.00061E+01-1.20223E+00-3.82482E-03 2.38667E+00 1.45922E-13-2.08434E-13
 -1      4312 2.00195E+01 2.25619E-01-8.59245E-04-2.25153E-01-1.15762E-15 1.32444E-14
 -1      4313 1.98370E+01 2.42306E-01-5.00618E-04 2.52875E-02-2.66585E-13 5.31311E-13
 -3
    1PSTEP                         3           1           1          
  100CL  101 1.000000000        4313                     0    1           1
 -4  TOSTRAIN    6    1
 -5  EXX         1    4    1    1
 -5  EYY         1    4    2    2
 -5  EZZ         1    4    3    3
 -5  EXY         1    4    1    2
 -5  EYZ         1    4    2    3
 -5  EZX         1    4    3    1
 -1         1 1.05941E-04 1.07888E-05-4.73604E-05-9.84665E-05 1.23497E-18-1.84187E-18
 -1         2 3.87587E-05-1.18984E-04 2.21273E-05 8.02488E-08-5.30687E-18 4.46280E-19
 -1         3 9.52344E-05-2.85739E-05-2.85623E-05-4.53084E-10-2.57158E-18-2.75679E-18
 -1         4 9.52339E-05-2.85743E-05-2.85620E-05-5.80619E-10 1.58498E-19-1.97029E-18
 -1         5 1.43112E-04-2.14410E-05-4.24666E-05 3.84779E-05-4.88103E-20 2.28741E-18
 -1         6 1.45165E-04 2.57128E-10-4.41200E-05-5.34474E-05-1.42302E-19-1.78946E-18
 -1         7 9.05127E-05-5.11311E-07-3.90251E-05-2.92132E-05-3.00697E-20-1.68819E-18
 -1         8 8.50868E-05 8.51806E-08-3.63212E-05-2.02350E-05 3.92017E-20-1.22517E-18
 -1         9 8.28179E-05 7.54312E-08-3.53509E-05-1.56001E-05 2.51728E-20-8.23174E-19
 -1        10 8.18082E-05 3.73912E-08-3.48944E-05-1.20327E-05 5.25756E-20-4.37537E-19
 -1        11 8.13025E-05 1.84479E-08-3.46732E-05-8.96723E-06 2.49378E-20-1.39648E-19
 -1        12 8.10411E-05 8.41860E-09-3.45632E-05-6.24418E-06 4.88930E-20 3.58963E-20
 -1        13 8.09028E-05 4.01690E-09-3.45074E-05-3.65756E-06 3.68013E-20 2.35349E-19
 -1        14 8.08437E-05 2.29767E-09-3.44842E-05-1.17204E-06 3.76679E-20 3.69586E-19
 -1        15 8.08442E-05 2.32490E-09-3.44843E-05 1.28230E-06 4.19492E-20 5.47706E-19
 -1        16 8.09048E-05 4.04646E-09-3.45079E-05 3.77210E-06 4.10232E-20 6.98849E-19
 -1        17 8.10465E-05 7.78185E-09-3.45645E-05 6.36936E-06 4.25187E-20 8.89537E-19
 -1        18 8.13125E-05 1.73919E-08-3.46758E-05 9.10998E-06 4.58655E-20 1.16017E-18
 -1        19 8.18243E-05 3.72066E-08-3.49001E-05 1.22091E-05 6.18996E-20 1.48920E-18
 -1        20 8.28412E-05 7.91864E-08-3.53622E-05 1.58262E-05 3.38681E-20 1.88148E-18
 -1        21 8.50518E-05 1.68438E-07-3.63594E-05 2.04426E-05 2.94079E-20 2.37388E-18
 -1        22 9.15508E-05-9.96828E-08-3.86997E-05 2.79582E-05-1.15408E-20 2.69433E-18
 -1        23 1.12782E-04-3.80622E-05-3.53397E-05-4.39496E-06-1.08553E-19-2.21203E-18
 -1        24 9.26558E-05-2.76529E-05-2.89534E-05 3.90332E-07 1.86844E-20-2.54009E-18
 -1        25 8.89974E-05-2.68161E-05-2.68923E-05 3.74564E-07-2.64036E-21-2.63243E-18
 -1        26 8.79259E-05-2.64624E-05-2.63648E-05 2.02326E-07 1.01694E-19-2.59855E-18
 -1        27 8.79975E-05-2.64546E-05-2.63709E-05 1.37732E-07-9.57280E-20-2.60163E-18
 -1        28 8.86002E-05-2.66120E-05-2.65618E-05 9.85330E-08 2.26221E-20-2.46107E-18
 -1        29 8.94647E-05-2.68588E-05-2.68276E-05 7.14245E-08-8.37154E-20-2.59570E-18
 -1        30 9.05007E-05-2.71624E-05-2.71423E-05 5.40668E-08-7.48061E-21-3.08810E-18
 -1        31 9.15583E-05-2.74766E-05-2.74622E-05 4.03786E-08 1.79336E-20-3.22189E-18
 -1        32 9.26705E-05-2.78094E-05-2.77989E-05 3.09142E-08-1.93561E-19-3.95283E-18
 -1        33 9.38670E-05-2.81691E-05-2.81619E-05 2.47493E-08-1.30338E-19-3.78593E-18
 -1        34 9.52136E-05-2.85752E-05-2.85716E-05 2.22746E-08 1.42407E-19-3.22832E-18
 -1        35 9.68177E-05-2.90594E-05-2.90614E-05 2.48739E-08 5.73546E-20-3.37134E-18
 -1        36 9.88419E-05-2.96733E-05-2.96809E-05 3.00899E-08-1.70168E-20-3.44151E-18
 -1        37 1.01666E-04-3.05227E-05-3.05499E-05 5.88738E-08-1.21432E-19-3.23055E-18
 -1        38 1.05373E-04-3.16385E-05-3.16922E-05 1.00645E-07 2.62746E-20-3.63813E-18
 -1        39 1.10506E-04-3.31767E-05-3.32758E-05 1.77829E-07 4.93744E-21-4.38354E-18
 -1        40 1.17595E-04-3.52926E-05-3.54537E-05 3.07943E-07-1.43707E-19-5.88677E-18
 -1        41 1.27122E-04-3.81284E-05-3.83407E-05 5.07034E-07 2.01612E-19-5.82166E-18
 -1        42 1.39116E-04-4.17036E-05-4.18568E-05 7.53632E-07-1.92277E-19-5.23120E-18
 -1        43 1.52211E-04-4.56496E-05-4.54303E-05 8.89445E-07 4.93976E-20-3.55182E-18
 -1        44 1.62124E-04-4.87078E-05-4.76775E-05 5.44902E-07 9.58007E-20-4.77056E-18
 -1        45 1.60111E-04-4.82857E-05-4.64462E-05-1.29279E-06 1.26029E-19-6.31034E-18
 -1        46 1.38511E-04-4.16089E-05-4.08974E-05-4.05100E-06-1.64662E-19-5.91970E-18
 -1        47 1.06446E-04-3.13275E-05-3.39854E-05-4.78164E-06 1.48522E-19-6.48531E-18
 -1        48 8.27773E-05-2.34441E-05-2.94071E-05-1.27764E-06 2.09005E-19-4.96568E-18
 -1        49 8.91370E-05-2.56472E-05-3.06347E-05 3.25587E-06 3.32725E-19-1.22523E-18
 -1        50 1.21610E-04-3.62989E-05-3.71082E-05 4.83013E-06-3.40049E-19-7.11719E-19
 -1        51 1.51184E-04-4.55662E-05-4.39753E-05 2.70891E-06 3.29721E-19-2.71898E-18
 -1        52 1.63351E-04-4.91965E-05-4.76187E-05 2.84056E-07 2.02229E-20-1.39488E-18
 -1        53 1.58866E-04-4.76962E-05-4.70455E-05-7.68668E-07-6.22655E-19-1.39014E-18
 -1        54 1.46866E-04-4.40320E-05-4.40195E-05-8.67456E-07 2.15874E-19-1.75489E-18
 -1        55 1.33970E-04-4.01696E-05-4.03692E-05-6.47353E-07-2.52815E-19-1.34808E-18
 -1        56 1.23046E-04-3.69164E-05-3.71130E-05-4.12208E-07 1.12541E-19-2.34686E-18
 -1        57 1.14696E-04-3.44316E-05-3.45657E-05-2.50810E-07-2.87234E-19-3.29144E-18
 -1        58 1.08430E-04-3.25524E-05-3.26332E-05-1.31003E-07 6.73878E-19-2.95218E-18
 -1        59 1.04256E-04-3.13025E-05-3.13445E-05-7.16445E-08 2.37043E-19-1.90154E-18
 -1        60 1.01348E-04-3.04264E-05-3.04479E-05-3.75189E-08-5.30082E-19-2.56493E-18
 -1        61 9.93356E-05-2.98182E-05-2.98284E-05-1.84179E-08 2.92896E-19-5.22427E-18
 -1        62 9.79464E-05-2.93974E-05-2.94017E-05-7.96527E-09 4.45535E-19-4.59208E-18
 -1        63 9.69900E-05-2.91071E-05-2.91086E-05-2.29672E-09-5.79316E-19-5.09772E-18
 -1        64 9.63336E-05-2.89080E-05-2.89077E-05-3.88242E-10 5.38229E-19-3.99950E-18
 -1        65 9.58706E-05-2.87666E-05-2.87661E-05 2.28967E-09-6.75195E-19-4.69174E-18
 -1        66 9.55792E-05-2.86779E-05-2.86771E-05 2.67437E-09 3.11546E-19-6.80646E-18
 -1        67 9.53901E-05-2.86201E-05-2.86194E-05 2.93301E-09 1.74658E-19-7.43541E-18
 -1        68 9.52755E-05-2.85848E-05-2.85846E-05 3.16099E-09 4.56687E-19-4.30496E-18
 -1        69 9.52168E-05-2.85665E-05-2.85668E-05 3.70987E-09 3.08026E-19 1.03353E-18
 -1        70 9.52017E-05-2.85615E-05-2.85616E-05 4.93048E-09-5.84189E-19 8.25883E-19
 -1        71 9.52176E-05-2.85666E-05-2.85632E-05 6.67527E-09 5.67546E-19-1.52050E-18
 -1        72 1.02014E-04-3.05375E-05-3.40988E-05-1.92599E-06-4.95514E-20 2.87335E-18
 -1        73 9.24296E-05-2.74779E-05-2.88643E-05-3.32530E-07-2.15729E-21 3.39475E-18
 -1        74 8.90052E-05-2.66758E-05-2.69381E-05-1.28799E-07 5.78646E-20 3.82050E-18
 -1        75 8.79872E-05-2.64253E-05-2.64166E-05-9.75620E-08-1.58670E-20 4.02407E-18
 -1        76 8.80714E-05-2.64465E-05-2.64099E-05-7.64223E-08-7.78245E-20 4.38959E-18
 -1        77 8.86824E-05-2.66199E-05-2.65942E-05-6.05637E-08 7.00155E-20 4.52490E-18
 -1        78 8.95491E-05-2.68736E-05-2.68568E-05-4.90200E-08 7.36109E-20 4.64366E-18
 -1        79 9.05322E-05-2.71650E-05-2.71534E-05-4.01597E-08-5.62085E-20 4.25928E-18
 -1        80 9.15598E-05-2.74713E-05-2.74629E-05-3.33176E-08 7.61688E-20 3.86020E-18
 -1        81 9.25973E-05-2.77811E-05-2.77755E-05-2.84052E-08-8.09711E-20 3.65104E-18
 -1        82 9.36303E-05-2.80897E-05-2.80867E-05-2.55561E-08 8.55882E-20 3.43007E-18
 -1        83 9.46527E-05-2.83952E-05-2.83943E-05-2.49470E-08-8.68384E-20 3.93933E-18
 -1        84 9.56555E-05-2.86947E-05-2.86950E-05-2.66502E-08 2.33336E-20 3.99673E-18
 -1        85 9.66150E-05-2.89811E-05-2.89810E-05-3.04374E-08 3.22772E-20 3.41745E-18
 -1        86 9.74817E-05-2.92396E-05-2.92365E-05-3.55025E-08-3.00809E-20 2.68904E-18
 -1        87 9.81687E-05-2.94447E-05-2.94347E-05-4.01110E-08-1.27359E-19 2.31734E-18
 -1        88 9.85449E-05-2.95573E-05-2.95361E-05-4.12738E-08-1.48787E-19 3.12447E-18
 -1        89 9.84371E-05-2.95263E-05-2.94895E-05-3.46886E-08 7.02330E-20 2.24313E-18
 -1        90 9.76499E-05-2.92936E-05-2.92391E-05-1.53692E-08-4.10374E-19 3.03904E-18
 -1        91 9.60106E-05-2.88073E-05-2.87382E-05 2.05540E-08 1.26778E-19 3.51581E-18
 -1        92 9.34418E-05-2.80432E-05-2.79705E-05 7.27396E-08 2.91323E-19 1.35202E-18
 -1        93 9.00484E-05-2.70307E-05-2.69736E-05 1.33232E-07-2.20525E-19 9.77926E-19
 -1        94 8.61844E-05-2.58733E-05-2.58553E-05 1.85275E-07-7.05402E-20 1.15874E-18
 -1        95 8.24502E-05-2.47492E-05-2.47883E-05 2.07363E-07-8.32243E-20 1.44401E-18
 -1        96 7.95777E-05-2.38785E-05-2.39763E-05 1.83052E-07 3.22352E-19 3.21500E-18
 -1        97 7.82153E-05-2.34592E-05-2.35953E-05 1.11796E-07 1.13884E-19 1.55457E-18
 -1        98 7.86950E-05-2.35952E-05-2.37334E-05 1.26580E-08-2.63381E-19 1.26481E-18
 -1        99 8.09013E-05-2.42546E-05-2.43585E-05-8.38192E-08-1.22453E-19 6.17123E-19
 -1       100 8.43180E-05-2.52823E-05-2.53307E-05-1.50680E-07-2.09148E-19 9.99036E-19
 -1       101 8.82258E-05-2.64600E-05-2.64529E-05-1.76014E-07 1.37647E-19 6.83609E-19
 -1       102 9.19415E-05-2.75798E-05-2.75333E-05-1.64316E-07-1.35189E-19 2.31690E-19
 -1       103 9.49882E-05-2.84971E-05-2.84329E-05-1.29724E-07-3.19961E-19 2.49611E-18
 -1       104 9.71499E-05-2.91470E-05-2.90834E-05-8.75308E-08 1.23120E-19 3.09724E-18
 -1       105 9.84324E-05-2.95317E-05-2.94798E-05-4.88090E-08 8.96515E-20 2.86494E-18
 -1       106 9.89793E-05-2.96952E-05-2.96589E-05-1.90589E-08-5.56853E-19 1.75094E-18
 -1       107 9.89905E-05-2.96979E-05-2.96763E-05 6.21057E-10-1.67673E-19 7.86492E-19
 -1       108 9.86628E-05-2.95992E-05-2.95891E-05 1.16308E-08 3.09334E-19 3.07435E-18
 -1       109 9.81590E-05-2.94479E-05-2.94455E-05 1.62876E-08-3.31465E-19 1.25207E-18
 -1       110 9.75972E-05-2.92793E-05-2.92815E-05 1.68709E-08 9.10519E-22 1.83503E-18
 -1       111 9.70538E-05-2.91164E-05-2.91208E-05 1.52013E-08 5.30489E-19-7.32681E-19
 -1       112 9.65715E-05-2.89718E-05-2.89769E-05 1.25520E-08-4.01030E-19-2.05645E-18
 -1       113 9.61689E-05-2.88511E-05-2.88559E-05 9.71720E-09 2.57728E-19 5.03190E-19
 -1       114 9.58491E-05-2.87552E-05-2.87594E-05 7.13066E-09-4.27997E-19 1.38912E-18
 -1       115 9.56063E-05-2.86824E-05-2.86858E-05 4.97964E-09 2.37425E-19-2.21169E-19
 -1       116 9.54311E-05-2.86297E-05-2.86326E-05 3.29061E-09-3.07592E-19-5.63975E-19
 -1       117 9.53133E-05-2.85943E-05-2.85968E-05 1.93952E-09 2.90839E-19-2.38337E-18
 -1       118 9.52442E-05-2.85733E-05-2.85759E-05 6.48956E-10-2.67250E-19-1.99947E-18
 -1       119 9.52172E-05-2.85649E-05-2.85671E-05-1.35699E-09-3.89730E-19-2.10779E-18
 -1       120 9.52236E-05-2.85667E-05-2.85660E-05-4.67182E-09 1.30546E-18-2.99968E-18
 -1       121 9.52409E-05-2.85841E-05-2.85663E-05-5.98692E-09-4.12267E-18 2.75700E-19
 -1       122 9.52421E-05-2.85883E-05-2.85680E-05-2.35410E-09-9.47974E-19 1.11415E-18
 -1       123 9.52334E-05-2.85590E-05-2.85769E-05 7.54736E-10 1.93660E-18 1.27560E-18
 -1       124 9.52164E-05-2.85020E-05-2.85930E-05 2.31168E-09 2.19610E-18 7.56198E-19
 -1       125 9.51952E-05-2.84308E-05-2.86134E-05 2.92427E-09 7.11903E-18-4.83927E-19
 -1       126 9.51747E-05-2.83615E-05-2.86333E-05 2.69597E-09 3.51484E-18-5.79846E-20
 -1       127 9.51583E-05-2.83063E-05-2.86491E-05 1.78452E-09 3.49870E-18 1.21037E-18
 -1       128 9.51499E-05-2.82776E-05-2.86574E-05 4.39408E-10 9.39843E-21-9.30250E-19
 -1       129 9.51510E-05-2.82815E-05-2.86562E-05-1.06444E-09-2.17814E-18 1.46375E-18
 -1       130 9.51618E-05-2.83179E-05-2.86457E-05-2.41025E-09 2.76644E-18-6.49739E-19
 -1       131 9.51804E-05-2.83804E-05-2.86277E-05-3.27877E-09-1.69962E-18-2.60626E-18
 -1       132 9.52026E-05-2.84552E-05-2.86064E-05-3.29340E-09-7.01949E-18 9.74490E-19
 -1       133 9.52244E-05-2.85286E-05-2.85856E-05-2.25991E-09-1.28339E-18-2.70851E-19
 -1       134 9.52402E-05-2.85818E-05-2.85705E-05-2.37388E-11 4.12796E-18 1.06287E-18
 -1       135 9.52468E-05-2.86027E-05-2.85638E-05 3.84005E-09 6.19476E-18-1.07996E-18
 -1       136 9.52412E-05-2.85901E-05-2.85636E-05 6.24608E-09 6.00398E-18-1.57294E-20
 -1       137 2.43404E-05-8.45405E-05 1.53806E-05-2.28031E-05-6.27482E-18-1.65293E-18
 -1       138 7.08213E-06-2.13239E-05-6.18562E-07-8.49033E-06-2.48054E-18-4.70739E-19
 -1       139 1.72495E-05 2.50401E-05-2.02822E-05 3.83102E-05-1.84441E-18-1.33450E-18
 -1       140 7.48154E-05 2.86531E-05-4.16454E-05 9.45274E-05 2.22685E-18 3.10311E-18
 -1       141 1.76253E-04-1.38992E-05-6.20015E-05 1.19991E-04 1.55409E-18 1.48315E-18
 -1       142 2.74720E-04-7.02936E-05-7.65913E-05 8.46963E-05 7.54309E-19 3.96623E-18
 -1       143 3.17936E-04-9.75486E-05-8.20809E-05 4.32458E-06-4.17561E-19 8.31718E-18
 -1       144 2.85120E-04-7.69668E-05-7.77428E-05-7.81832E-05-1.90897E-18 9.88763E-18
 -1       145 1.84062E-04-1.78983E-05-6.32547E-05-1.21116E-04-3.57554E-18 7.47252E-18
 -1       146 8.49521E-05 2.57492E-05-4.41254E-05-9.95945E-05-7.52292E-18 7.99641E-18
 -1       147 1.90888E-05 2.60486E-05-2.12995E-05-4.12688E-05-9.35040E-18 7.18453E-18
 -1       148 5.74059E-06-1.63769E-05-1.89867E-06 7.40787E-06-9.52319E-18 5.03053E-18
 -1       149 2.18087E-05-7.68637E-05 1.35734E-05 2.36749E-05-5.13895E-18 1.33736E-18
 -1       150 3.72902E-05-1.16346E-04 2.17865E-05 3.34550E-06-1.39972E-19 1.09336E-18
 -1       151 3.18839E-05-1.07908E-04 2.02971E-05-2.57199E-05 6.84530E-18 1.28758E-18
 -1       152 1.16426E-05-5.90565E-05 9.64451E-06-3.27155E-05 7.36199E-18 3.49316E-18
 -1       153 6.64178E-06-2.47031E-06-8.95695E-06 2.64508E-06 6.33454E-18 4.09244E-18
 -1       154 4.90305E-05 2.26761E-05-3.24259E-05 6.48559E-05 2.21118E-18 2.82655E-18
 -1       155 1.48867E-04-3.11436E-06-5.68142E-05 1.14432E-04 1.81307E-18 2.78081E-18
 -1       156 2.73973E-04-6.30140E-05-7.71982E-05 1.08028E-04 1.08050E-18 1.96046E-18
 -1       157 3.57159E-04-1.09743E-04-8.79517E-05 3.40400E-05-1.38596E-19 7.04520E-19
 -1       158 3.40440E-04-1.00464E-04-8.57910E-05-6.32634E-05-2.72488E-19 1.18839E-18
 -1       159 2.37213E-04-4.35695E-05-7.19553E-05-1.17690E-04-4.20128E-19 1.41878E-18
 -1       160 3.04224E-05 1.94916E-05-2.49315E-05-4.46780E-05 1.07107E-18-6.12828E-19
 -1       161 4.77480E-06-1.08643E-05-5.28914E-06 6.63118E-06-1.47807E-19-3.93023E-19
 -1       162 1.30678E-05-6.29498E-05 1.05516E-05 3.40332E-05-8.26704E-19 8.72762E-19
 -1       163 3.22484E-05-1.07974E-04 2.01827E-05 2.73083E-05-2.72406E-18 1.47106E-20
 -1       164 9.48065E-05-1.23452E-05-3.55431E-05-2.22990E-05 7.41021E-20-1.21856E-18
 -1       165 8.92349E-05-8.45594E-06-3.47816E-05-1.73319E-05 2.78065E-19-8.89596E-19
 -1       166 8.65787E-05-6.51244E-06-3.44246E-05-1.35361E-05 4.11208E-19-5.04898E-19
 -1       167 8.52304E-05-5.50898E-06-3.42491E-05-1.03093E-05 4.99554E-19-2.51536E-19
 -1       168 8.44912E-05-4.92937E-06-3.41667E-05-7.49472E-06 5.59646E-19-3.17704E-20
 -1       169 8.40629E-05-4.57486E-06-3.41276E-05-4.86336E-06 5.41507E-19 1.28431E-19
 -1       170 8.38412E-05-4.38370E-06-3.41109E-05-2.37232E-06 5.59213E-19 3.30105E-19
 -1       171 8.37739E-05-4.32510E-06-3.41061E-05 5.34868E-08 5.83839E-19 4.92219E-19
 -1       172 8.38472E-05-4.39097E-06-3.41105E-05 2.48101E-06 6.04668E-19 5.64349E-19
 -1       173 8.40778E-05-4.59197E-06-3.41269E-05 4.97760E-06 5.79440E-19 6.75337E-19
 -1       174 8.45100E-05-4.95346E-06-3.41649E-05 7.57360E-06 5.50095E-19 8.84190E-19
 -1       175 8.52802E-05-5.56453E-06-3.42484E-05 1.04546E-05 4.93878E-19 1.18184E-18
 -1       176 8.66648E-05-6.60817E-06-3.44250E-05 1.37181E-05 3.96471E-19 1.46018E-18
 -1       177 8.93774E-05-8.60101E-06-3.47848E-05 1.75724E-05 1.95367E-19 1.89616E-18
 -1       178 9.57188E-05-1.36092E-05-3.54018E-05 2.18389E-05-2.48816E-20 2.28638E-18
 -1       179 1.05488E-04-2.60715E-05-3.52246E-05 1.86237E-05-2.17826E-19 2.51013E-18
 -1       180 1.03294E-04-2.72744E-05-3.25774E-05-1.20953E-05-2.71051E-20-1.31100E-18
 -1       181 9.70299E-05-2.82654E-05-2.95054E-05-4.70025E-06 1.77480E-20-1.26544E-18
 -1       182 9.34629E-05-2.76211E-05-2.81696E-05-1.73105E-06 2.77469E-20-1.06361E-18
 -1       183 9.19724E-05-2.74008E-05-2.76377E-05-3.67358E-07-5.89019E-20-1.25738E-18
 -1       184 9.14608E-05-2.73418E-05-2.74608E-05 3.24309E-07 3.77534E-20-1.11409E-18
 -1       185 9.15133E-05-2.74048E-05-2.74657E-05 6.91300E-07-5.06160E-20-1.02607E-18
 -1       186 9.19199E-05-2.75514E-05-2.75814E-05 8.98697E-07-8.67502E-20-9.17181E-19
 -1       187 9.25092E-05-2.77370E-05-2.77562E-05 1.01506E-06-1.04228E-19-7.67830E-19
 -1       188 9.32357E-05-2.79527E-05-2.79756E-05 1.10793E-06-3.82426E-19-9.26745E-19
 -1       189 9.40817E-05-2.81946E-05-2.82343E-05 1.22119E-06-1.48760E-19-9.57382E-19
 -1       190 9.50647E-05-2.84674E-05-2.85377E-05 1.39404E-06 3.92230E-19-1.10030E-18
 -1       191 9.62332E-05-2.87838E-05-2.89014E-05 1.66914E-06-1.47832E-19-1.05711E-18
 -1       192 9.76683E-05-2.91649E-05-2.93510E-05 2.09598E-06-1.04419E-19-1.01653E-18
 -1       193 9.95877E-05-2.96649E-05-2.99568E-05 2.78114E-06-3.61674E-19-1.30444E-18
 -1       194 1.01977E-04-3.02828E-05-3.07135E-05 3.74863E-06-1.61965E-19-1.59822E-18
 -1       195 1.05115E-04-3.10951E-05-3.17088E-05 5.10777E-06-4.60951E-19-1.88195E-18
 -1       196 1.09232E-04-3.21836E-05-3.30093E-05 6.92860E-06-6.03590E-19-2.15030E-18
 -1       197 1.14551E-04-3.36691E-05-3.46611E-05 9.15602E-06-2.49019E-19-2.00656E-18
 -1       198 1.21194E-04-3.57428E-05-3.66355E-05 1.13933E-05 6.74596E-19-2.15050E-18
 -1       199 1.29022E-04-3.86909E-05-3.87387E-05 1.24988E-05 4.56381E-19-1.32189E-18
 -1       200 1.37377E-04-4.27843E-05-4.05478E-05 1.01410E-05-9.02474E-19-2.02607E-18
 -1       201 1.44896E-04-4.77938E-05-4.15865E-05 5.86859E-07-3.60360E-19-1.78281E-18
 -1       202 1.47409E-04-4.98289E-05-4.18704E-05-1.54647E-05-4.02278E-19-2.11445E-18
 -1       203 1.42476E-04-4.45869E-05-4.23240E-05-2.69038E-05-7.48909E-19-2.73578E-18
 -1       204 1.32265E-04-3.27956E-05-4.33510E-05-2.02934E-05 4.98744E-19-2.75548E-18
 -1       205 1.28061E-04-2.76796E-05-4.38901E-05 4.37505E-06 2.23246E-18-2.04451E-18
 -1       206 1.36111E-04-3.74547E-05-4.28831E-05 2.58989E-05 6.82920E-21-1.83290E-18
 -1       207 1.45303E-04-4.78528E-05-4.19753E-05 2.33296E-05-1.03764E-18-1.08723E-18
 -1       208 1.47098E-04-4.96245E-05-4.17600E-05 7.30097E-06 2.48670E-19-3.19610E-18
 -1       209 1.41930E-04-4.56026E-05-4.12564E-05-5.94373E-06 1.69751E-19-2.19812E-18
 -1       210 1.33967E-04-4.09430E-05-3.98813E-05-1.17030E-05-3.55631E-19-1.45557E-18
 -1       211 1.25741E-04-3.73501E-05-3.79013E-05-1.21836E-05 2.56669E-19-1.26740E-18
 -1       212 1.18428E-04-3.48257E-05-3.58353E-05-1.03594E-05 4.30175E-19-3.24652E-20
 -1       213 1.12424E-04-3.30491E-05-3.40114E-05-8.01420E-06-9.52452E-19 1.62855E-20
 -1       214 1.07556E-04-3.17316E-05-3.24827E-05-5.81377E-06 1.45154E-20 1.96025E-19
 -1       215 1.04098E-04-3.08349E-05-3.13848E-05-4.16747E-06 4.62574E-19-8.43983E-19
 -1       216 1.01539E-04-3.01804E-05-3.05705E-05-2.95099E-06-1.03557E-18-2.98010E-18
 -1       217 9.96752E-05-2.97051E-05-2.99777E-05-2.07577E-06-1.25006E-18-3.35706E-18
 -1       218 9.83283E-05-2.93606E-05-2.95504E-05-1.45450E-06 2.38580E-19-3.48168E-18
 -1       219 9.73611E-05-2.91121E-05-2.92443E-05-1.01569E-06 3.29971E-19-2.18182E-18
 -1       220 9.66698E-05-2.89334E-05-2.90260E-05-7.05998E-07-6.01939E-19-2.45308E-18
 -1       221 9.61605E-05-2.88015E-05-2.88653E-05-4.77853E-07-1.07961E-18-3.62693E-18
 -1       222 9.58238E-05-2.87141E-05-2.87593E-05-3.24231E-07-9.80839E-19-2.91456E-18
 -1       223 9.55911E-05-2.86536E-05-2.86860E-05-2.14483E-07-1.08781E-19-2.41045E-18
 -1       224 9.54347E-05-2.86130E-05-2.86369E-05-1.34628E-07 1.18252E-18-4.29216E-18
 -1       225 9.53344E-05-2.85869E-05-2.86054E-05-7.51431E-08 1.92013E-18-3.93225E-18
 -1       226 9.52752E-05-2.85719E-05-2.85867E-05-2.97993E-08 1.24041E-18-3.28793E-18
 -1       227 9.52460E-05-2.85669E-05-2.85763E-05 1.87796E-09-5.18868E-19-1.18910E-18
 -1       228 9.52389E-05-2.85730E-05-2.85709E-05 1.34407E-08-2.72532E-19-9.38533E-19
 -1       229 9.94110E-05-2.85251E-05-3.05591E-05 7.18394E-06-1.16573E-19 2.38709E-18
 -1       230 9.43768E-05-2.77647E-05-2.85124E-05 2.73634E-06-1.02438E-19 2.37427E-18
 -1       231 9.21124E-05-2.74118E-05-2.76812E-05 8.81169E-07-2.07275E-19 2.37574E-18
 -1       232 9.12116E-05-2.72747E-05-2.73754E-05-1.54454E-08-1.31479E-19 2.57057E-18
 -1       233 9.10604E-05-2.72756E-05-2.73234E-05-4.65736E-07-7.91488E-20 2.62549E-18
 -1       234 9.13403E-05-2.73829E-05-2.74039E-05-6.96990E-07 2.68722E-20 2.55584E-18
 -1       235 9.18630E-05-2.75521E-05-2.75584E-05-8.11851E-07 1.18243E-19 2.48158E-18
 -1       236 9.25206E-05-2.77553E-05-2.77547E-05-8.64195E-07 2.74898E-19 2.11259E-18
 -1       237 9.32519E-05-2.79769E-05-2.79740E-05-8.84777E-07 6.97013E-20 2.06579E-18
 -1       238 9.40223E-05-2.82087E-05-2.82055E-05-8.89912E-07-1.50048E-20 2.04297E-18
 -1       239 9.48103E-05-2.84460E-05-2.84420E-05-8.84834E-07 3.76637E-20 2.21684E-18
 -1       240 9.55968E-05-2.86853E-05-2.86769E-05-8.64682E-07 2.07852E-19 1.86671E-18
 -1       241 9.63558E-05-2.89210E-05-2.89017E-05-8.14528E-07 4.45206E-19 1.92030E-18
 -1       242 9.70460E-05-2.91428E-05-2.91029E-05-7.09550E-07 1.30159E-19 1.75579E-18
 -1       243 9.76023E-05-2.93330E-05-2.92602E-05-5.16676E-07 1.16828E-19 1.88581E-18
 -1       244 9.79326E-05-2.94638E-05-2.93458E-05-1.99493E-07-3.20180E-19 1.98275E-18
 -1       245 9.79189E-05-2.94973E-05-2.93254E-05 2.71539E-07 1.40000E-19 1.57358E-18
 -1       246 9.74313E-05-2.93867E-05-2.91632E-05 9.02264E-07-4.20235E-19 2.05176E-18
 -1       247 9.63564E-05-2.90850E-05-2.88310E-05 1.65284E-06 3.75569E-19 1.23362E-18
 -1       248 9.46434E-05-2.85596E-05-2.83211E-05 2.41772E-06 4.94792E-19 1.65100E-18
 -1       249 9.23593E-05-2.78155E-05-2.76607E-05 3.02202E-06-1.19451E-19 2.34373E-18
 -1       250 8.97337E-05-2.69181E-05-2.69204E-05 3.25204E-06 1.33459E-19 1.69569E-18
 -1       251 8.71614E-05-2.60046E-05-2.62103E-05 2.92780E-06 9.55236E-20 1.81006E-18
 -1       252 8.51332E-05-2.52629E-05-2.56596E-05 1.99763E-06-2.55726E-19 1.47405E-18
 -1       253 8.40985E-05-2.48763E-05-2.53814E-05 6.03238E-07 7.58927E-19 1.42031E-18
 -1       254 8.43062E-05-2.49503E-05-2.54370E-05-9.40010E-07-1.78969E-20 1.11099E-18
 -1       255 8.57074E-05-2.54652E-05-2.58147E-05-2.25752E-06 1.19892E-20 1.33155E-18
 -1       256 8.79757E-05-2.62851E-05-2.64340E-05-3.06511E-06-2.31780E-19 1.67912E-18
 -1       257 9.06338E-05-2.72182E-05-2.71734E-05-3.26572E-06-3.07767E-20 9.09854E-19
 -1       258 9.32133E-05-2.80883E-05-2.79076E-05-2.94746E-06-2.45305E-19 2.17284E-18
 -1       259 9.53733E-05-2.87809E-05-2.85389E-05-2.30639E-06-4.87772E-19 2.78259E-18
 -1       260 9.69440E-05-2.92524E-05-2.90121E-05-1.55313E-06 8.30522E-20 2.36892E-18
 -1       261 9.79067E-05-2.95140E-05-2.93140E-05-8.49095E-07-6.83003E-21 2.19232E-18
 -1       262 9.83426E-05-2.96063E-05-2.94618E-05-2.84983E-07 1.19710E-20 1.88053E-18
 -1       263 9.83797E-05-2.95793E-05-2.94890E-05 1.10538E-07 1.79197E-19 2.23023E-18
 -1       264 9.81518E-05-2.94796E-05-2.94334E-05 3.49542E-07-5.83190E-19 1.75496E-18
 -1       265 9.77752E-05-2.93439E-05-2.93294E-05 4.63887E-07 4.30966E-19 1.51366E-18
 -1       266 9.73387E-05-2.91983E-05-2.92040E-05 4.90171E-07 1.69804E-19 5.68482E-19
 -1       267 9.69032E-05-2.90595E-05-2.90763E-05 4.61252E-07 8.38163E-19-7.57991E-20
 -1       268 9.65053E-05-2.89366E-05-2.89580E-05 4.02761E-07-2.62526E-19 1.01576E-18
 -1       269 9.61637E-05-2.88335E-05-2.88555E-05 3.32652E-07-6.74202E-19 7.88857E-19
 -1       270 9.58841E-05-2.87507E-05-2.87710E-05 2.62228E-07-4.22333E-19 1.45464E-18
 -1       271 9.56651E-05-2.86869E-05-2.87045E-05 1.97670E-07 1.74769E-18 1.28662E-18
 -1       272 9.55007E-05-2.86395E-05-2.86543E-05 1.41518E-07 4.89510E-19 1.82226E-19
 -1       273 9.53835E-05-2.86060E-05-2.86186E-05 9.38792E-08 3.75749E-19 3.15646E-19
 -1       274 9.53061E-05-2.85840E-05-2.85950E-05 5.36040E-08-5.58629E-20 4.34910E-19
 -1       275 9.52609E-05-2.85714E-05-2.85810E-05 1.94421E-08 3.81465E-19-2.29317E-19
 -1       276 9.52414E-05-2.85693E-05-2.85731E-05-4.98527E-09 5.64657E-19-1.27357E-18
 -1       277 9.52416E-05-2.85594E-05-2.85778E-05 8.12255E-09 7.05165E-19 2.24204E-18
 -1       278 9.52342E-05-2.85306E-05-2.85872E-05 3.78213E-08 9.01792E-19 2.77939E-18
 -1       279 9.52172E-05-2.84846E-05-2.85996E-05 6.27526E-08 1.64064E-18 9.97646E-19
 -1       280 9.51959E-05-2.84276E-05-2.86150E-05 7.57864E-08 1.06854E-18 2.93450E-18
 -1       281 9.51743E-05-2.83697E-05-2.86306E-05 7.39109E-08 5.26849E-19-9.62572E-19
 -1       282 9.51553E-05-2.83186E-05-2.86445E-05 5.77577E-08-2.28491E-19-2.21368E-19
 -1       283 9.51425E-05-2.82842E-05-2.86538E-05 3.04099E-08-4.29210E-19-1.02762E-18
 -1       284 9.51381E-05-2.82727E-05-2.86569E-05-3.16571E-09-4.94110E-20-1.43935E-18
 -1       285 9.51431E-05-2.82865E-05-2.86531E-05-3.68429E-08-1.81196E-19 2.10527E-18
 -1       286 9.51569E-05-2.83236E-05-2.86431E-05-6.41129E-08-5.79649E-19-3.02812E-18
 -1       287 9.51769E-05-2.83766E-05-2.86288E-05-7.89812E-08 5.11204E-19-1.80299E-18
 -1       288 9.52003E-05-2.84380E-05-2.86124E-05-7.80286E-08 4.68895E-19 2.21464E-18
 -1       289 9.52223E-05-2.84959E-05-2.85970E-05-6.02351E-08 2.46461E-19 2.02595E-18
 -1       290 9.52379E-05-2.85402E-05-2.85847E-05-2.93924E-08 7.64040E-19 9.77005E-19
 -1       291 9.52426E-05-2.85633E-05-2.85768E-05-2.29476E-09 2.88589E-19-2.90985E-18
 -1       292 1.31042E-05-4.66965E-05 1.15703E-05 1.54374E-05-2.88637E-18-7.41154E-22
 -1       293 3.44961E-05-4.10991E-05 1.19137E-06 3.45364E-05-1.83870E-18 1.94976E-19
 -1       294 6.00540E-05-3.30377E-05-1.29133E-05 4.08284E-05-1.06599E-18 5.94088E-19
 -1       295 1.01601E-04-2.96318E-05-3.07888E-05 4.98286E-05-7.80329E-19 2.73422E-18
 -1       296 1.45683E-04-2.73349E-05-4.91414E-05 5.25776E-05 1.77390E-18 1.17399E-18
 -1       297 1.85877E-04-3.17543E-05-6.37311E-05 3.44251E-05 3.86300E-19 3.98910E-18
 -1       298 1.99561E-04-2.82631E-05-7.11898E-05 9.93279E-06-1.88475E-18 4.28832E-18
 -1       299 2.13195E-04-3.47995E-05-7.32038E-05-1.20974E-05-1.57506E-18 5.53165E-18
 -1       300 1.93921E-04-3.31881E-05-6.58029E-05-3.87865E-05-1.29157E-18 5.88878E-18
 -1       301 1.50507E-04-2.81084E-05-5.07570E-05-5.16644E-05-5.09797E-18 4.98373E-18
 -1       302 1.07197E-04-3.15592E-05-3.22714E-05-4.90610E-05-4.74423E-18 4.65550E-18
 -1       303 6.21870E-05-3.25898E-05-1.39289E-05-4.17447E-05-4.46619E-18 3.81885E-18
 -1       304 3.38393E-05-4.14522E-05 9.75276E-07-3.03701E-05-3.25091E-18 4.01814E-18
 -1       305 1.50314E-05-4.63239E-05 1.07142E-05-1.77642E-05-1.24112E-18 2.96049E-18
 -1       306 9.14239E-06-4.37338E-05 1.23945E-05-3.87811E-07 4.45883E-19 3.92981E-18
 -1       307 2.22358E-05-4.91199E-05 8.35792E-06 1.33107E-05 2.16015E-18 1.12518E-18
 -1       308 4.99092E-05-4.57738E-05-4.38222E-06 2.76688E-05 2.77276E-18 7.44198E-19
 -1       309 9.35499E-05-4.42105E-05-2.25567E-05 3.77264E-05 2.77446E-18 1.24937E-19
 -1       310 1.45100E-04-4.33513E-05-4.31049E-05 4.09618E-05 1.03698E-18 1.56405E-18
 -1       311 1.96681E-04-4.63788E-05-6.17616E-05 2.80564E-05 1.35269E-18 1.55939E-18
 -1       312 2.28989E-04-4.37959E-05-7.47549E-05 1.18835E-05 6.97426E-19 1.53652E-18
 -1       313 2.39252E-04-4.23430E-05-7.88328E-05-2.61833E-06-2.13664E-19 9.79011E-19
 -1       314 2.23799E-04-4.54767E-05-7.21226E-05-1.91975E-05 1.00760E-18-8.06164E-19
 -1       315 1.81096E-04-5.01560E-05-5.48139E-05-2.19319E-05 1.45044E-18 1.58819E-20
 -1       316 1.28553E-04-4.56056E-05-3.57741E-05-3.94828E-05-4.23516E-21-6.99861E-19
 -1       317 7.95529E-05-4.23436E-05-1.77625E-05-3.56925E-05-1.09288E-18-6.23840E-19
 -1       318 4.37802E-05-4.55370E-05-2.22745E-06-2.41546E-05-1.17018E-18-5.34690E-21
 -1       319 2.15112E-05-5.10135E-05 9.06758E-06-1.09153E-05-2.63957E-18-5.93029E-19
 -1       320 1.13013E-05-5.11220E-05 1.37106E-05 5.26346E-07-2.64592E-18-1.23042E-18
 -1       321 9.16429E-05-1.44408E-05-3.31643E-05-1.29094E-05 4.09592E-19-5.46528E-19
 -1       322 9.56830E-05-1.91061E-05-3.28810E-05-1.45769E-05 1.79386E-19-8.56661E-19
 -1       323 8.80349E-05-1.03425E-05-3.33518E-05-8.07954E-06 6.48453E-19 6.60785E-20
 -1       324 8.72159E-05-9.40373E-06-3.33964E-05-5.65583E-06 6.69330E-19 5.55700E-20
 -1       325 8.67477E-05-8.85884E-06-3.34257E-05-3.32512E-06 7.08789E-19 2.08529E-19
 -1       326 8.65360E-05-8.61035E-06-3.34399E-05-1.05651E-06 7.53359E-19 4.43091E-19
 -1       327 8.65424E-05-8.61920E-06-3.34389E-05 1.19158E-06 7.94958E-19 6.01145E-19
 -1       328 8.67688E-05-8.88751E-06-3.34226E-05 3.46176E-06 7.66669E-19 5.74073E-19
 -1       329 8.72463E-05-9.44533E-06-3.33918E-05 5.75556E-06 7.24738E-19 6.33941E-19
 -1       330 8.80902E-05-1.04151E-05-3.33447E-05 8.18191E-06 5.84603E-19 9.53657E-19
 -1       331 8.94997E-05-1.20130E-05-3.32759E-05 1.06905E-05 4.46778E-19 1.20758E-18
 -1       332 9.18958E-05-1.47286E-05-3.31539E-05 1.30721E-05 2.43960E-19 1.37930E-18
 -1       333 9.58592E-05-1.95779E-05-3.27961E-05 1.42195E-05 9.55890E-20 1.88061E-18
 -1       334 9.87235E-05-2.44342E-05-3.19234E-05 1.18032E-05-7.35860E-20 2.03071E-18
 -1       335 9.63046E-05-2.67621E-05-2.97762E-05 5.67242E-06-1.01194E-19 1.89216E-18
 -1       336 9.64221E-05-2.60146E-05-3.01300E-05-6.27553E-06 1.65535E-19-7.02451E-19
 -1       337 9.49382E-05-2.70164E-05-2.90838E-05-2.73962E-06-1.91410E-21-4.75260E-19
 -1       338 9.40084E-05-2.74144E-05-2.85255E-05-7.83640E-07 2.09029E-20-2.49976E-19
 -1       339 9.35561E-05-2.76315E-05-2.82463E-05 3.41538E-07-5.51566E-20-3.08337E-19
 -1       340 9.34625E-05-2.78000E-05-2.81376E-05 1.02566E-06-1.07819E-19-3.32530E-19
 -1       341 9.36214E-05-2.79396E-05-2.81474E-05 1.41898E-06 4.77057E-20-4.62600E-19
 -1       342 9.39498E-05-2.80687E-05-2.82333E-05 1.69164E-06-1.74882E-19-2.80419E-19
 -1       343 9.44053E-05-2.81885E-05-2.83770E-05 1.93514E-06-2.19325E-19 1.88001E-19
 -1       344 9.49698E-05-2.82980E-05-2.85713E-05 2.22337E-06 1.36360E-19 4.23444E-19
 -1       345 9.56443E-05-2.83953E-05-2.88176E-05 2.62534E-06 8.42976E-20 2.02350E-19
 -1       346 9.64450E-05-2.84777E-05-2.91238E-05 3.21287E-06-2.64631E-19 3.10749E-19
 -1       347 9.74491E-05-2.85412E-05-2.95244E-05 4.12342E-06-2.95768E-19 2.03521E-19
 -1       348 9.85966E-05-2.85739E-05-2.99992E-05 5.37551E-06-5.18581E-19 8.82634E-19
 -1       349 9.99724E-05-2.85844E-05-3.05810E-05 7.11103E-06-4.33268E-19 7.69911E-19
 -1       350 1.01624E-04-2.86076E-05-3.12763E-05 9.42902E-06-3.54182E-19 9.18397E-19
 -1       351 1.03634E-04-2.87754E-05-3.20660E-05 1.23512E-05-6.44074E-19 7.75467E-19
 -1       352 1.06205E-04-2.94517E-05-3.28829E-05 1.56831E-05-2.15210E-19 9.75721E-19
 -1       353 1.09864E-04-3.14738E-05-3.35954E-05 1.87507E-05 7.95412E-19-7.71788E-19
 -1       354 1.15810E-04-3.63456E-05-3.40571E-05 1.99627E-05-3.21742E-19-1.23197E-18
 -1       355 1.26735E-04-4.63910E-05-3.44166E-05 1.60178E-05-2.57491E-19-1.31346E-18
 -1       356 1.42713E-04-5.87680E-05-3.59962E-05 3.45487E-06-1.16786E-18-1.03828E-18
 -1       357 1.57947E-04-6.26255E-05-4.09967E-05-1.41375E-05-5.10564E-19-1.47558E-18
 -1       358 1.59553E-04-4.33341E-05-5.03159E-05-2.76064E-05 1.75230E-20-1.13026E-18
 -1       359 1.54551E-04-2.17918E-05-5.76501E-05-1.07684E-05 1.34657E-18-1.65862E-18
 -1       360 1.55137E-04-2.69501E-05-5.56824E-05 2.05031E-05 2.34575E-18-3.24324E-18
 -1       361 1.60069E-04-5.25308E-05-4.65009E-05 2.57649E-05 7.78212E-21-3.12386E-18
 -1       362 1.51034E-04-6.09089E-05-3.88182E-05 8.68841E-06-1.52339E-18-2.05623E-18
 -1       363 1.36080E-04-5.22346E-05-3.59039E-05-8.92470E-06 6.83754E-19-1.79873E-18
 -1       364 1.23465E-04-4.13835E-05-3.51828E-05-1.74193E-05 6.76452E-19-7.51012E-19
 -1       365 1.15344E-04-3.45305E-05-3.46416E-05-1.88035E-05-4.77859E-19-1.65722E-19
 -1       366 1.10202E-04-3.11981E-05-3.38556E-05-1.66882E-05 8.09966E-19-9.09339E-19
 -1       367 1.06661E-04-2.98046E-05-3.29254E-05-1.34580E-05 3.76774E-19 6.27408E-20
 -1       368 1.03900E-04-2.92627E-05-3.19701E-05-1.01487E-05-1.82769E-19 2.33539E-18
 -1       369 1.01854E-04-2.90643E-05-3.11793E-05-7.52111E-06-5.68437E-19 2.31964E-18
 -1       370 1.00230E-04-2.89627E-05-3.05301E-05-5.47744E-06-1.95974E-18 6.31471E-19
 -1       371 9.89562E-05-2.88875E-05-3.00193E-05-3.94872E-06-1.67045E-18 1.29656E-18
 -1       372 9.79689E-05-2.88203E-05-2.96277E-05-2.82852E-06-5.37535E-19 1.17381E-18
 -1       373 9.72141E-05-2.87592E-05-2.93325E-05-2.01624E-06 3.53190E-20 2.27822E-20
 -1       374 9.66434E-05-2.87053E-05-2.91126E-05-1.42985E-06-7.07624E-19-7.63466E-19
 -1       375 9.62009E-05-2.86593E-05-2.89437E-05-9.89577E-07-1.24437E-18-2.11705E-18
 -1       376 9.58933E-05-2.86244E-05-2.88277E-05-6.89600E-07-7.09930E-20-1.27861E-18
 -1       377 9.56697E-05-2.85976E-05-2.87439E-05-4.72306E-07 4.16518E-19 9.16190E-19
 -1       378 9.55101E-05-2.85777E-05-2.86843E-05-3.14006E-07-6.98172E-19 6.05168E-19
 -1       379 9.53984E-05-2.85635E-05-2.86429E-05-1.97428E-07 1.52793E-18 1.10702E-18
 -1       380 9.53222E-05-2.85538E-05-2.86145E-05-1.10448E-07 2.21318E-18-2.23138E-19
 -1       381 9.52722E-05-2.85507E-05-2.85946E-05-4.61231E-08 3.20635E-19-1.08431E-18
 -1       382 9.41816E-05-2.72718E-05-2.86510E-05 1.59823E-06-1.69140E-19 1.75751E-18
 -1       383 9.34759E-05-2.75322E-05-2.82495E-05 1.45810E-07-8.09859E-20 1.67366E-18
 -1       384 9.32030E-05-2.76854E-05-2.80732E-05-6.70016E-07 1.25938E-19 1.50887E-18
 -1       385 9.32430E-05-2.78288E-05-2.80320E-05-1.13076E-06 7.33930E-20 1.43610E-18
 -1       386 9.34868E-05-2.79745E-05-2.80754E-05-1.38691E-06 2.83290E-19 1.31160E-18
 -1       387 9.38622E-05-2.81255E-05-2.81723E-05-1.52662E-06 7.41645E-20 1.42015E-18
 -1       388 9.43230E-05-2.82836E-05-2.83024E-05-1.60110E-06-2.32425E-20 1.49742E-18
 -1       389 9.48403E-05-2.84523E-05-2.84521E-05-1.63602E-06 1.06139E-20 1.30433E-18
 -1       390 9.53949E-05-2.86368E-05-2.86112E-05-1.63625E-06 2.89106E-19 1.21126E-18
 -1       391 9.59706E-05-2.88430E-05-2.87701E-05-1.58751E-06 1.75533E-19 8.95823E-19
 -1       392 9.65476E-05-2.90756E-05-2.89185E-05-1.45716E-06 3.12021E-20 1.33218E-18
 -1       393 9.70963E-05-2.93345E-05-2.90439E-05-1.19616E-06-5.49839E-20 1.52423E-18
 -1       394 9.75716E-05-2.96096E-05-2.91311E-05-7.44848E-07 2.17573E-20 1.63377E-18
 -1       395 9.79077E-05-2.98741E-05-2.91632E-05-4.56740E-08-4.69826E-20 1.15754E-18
 -1       396 9.80161E-05-3.00767E-05-2.91241E-05 9.33918E-07 1.90143E-19 8.75732E-19
 -1       397 9.77919E-05-3.01377E-05-2.90024E-05 2.16795E-06 9.52536E-20 1.00622E-18
 -1       398 9.71322E-05-2.99560E-05-2.87967E-05 3.53353E-06-5.70055E-19 1.47740E-18
 -1       399 9.59757E-05-2.94381E-05-2.85203E-05 4.78497E-06-2.87815E-19 2.40944E-18
 -1       400 9.43597E-05-2.85514E-05-2.82034E-05 5.57004E-06 9.11399E-19 2.08028E-18
 -1       401 9.24762E-05-2.73883E-05-2.78894E-05 5.51789E-06 2.66488E-19 1.99496E-18
 -1       402 9.06830E-05-2.61959E-05-2.76271E-05 4.39716E-06-1.05027E-19 2.14760E-18
 -1       403 8.94243E-05-2.53210E-05-2.74593E-05 2.27969E-06 5.41375E-19 1.48689E-18
 -1       404 8.90648E-05-2.50644E-05-2.74144E-05-4.02550E-07 5.32210E-19 2.05616E-18
 -1       405 8.97175E-05-2.55211E-05-2.75001E-05-2.98814E-06-6.40403E-20 9.47122E-19
 -1       406 9.11861E-05-2.65252E-05-2.77031E-05-4.85738E-06-2.04639E-19 5.47067E-19
 -1       407 9.30654E-05-2.77447E-05-2.79911E-05-5.67694E-06-2.26886E-19 1.64608E-18
 -1       408 9.49236E-05-2.88498E-05-2.83190E-05-5.47551E-06-7.53010E-19 2.88160E-18
 -1       409 9.64494E-05-2.96375E-05-2.86391E-05-4.54423E-06-2.84488E-19 2.34448E-18
 -1       410 9.75021E-05-3.00579E-05-2.89121E-05-3.26344E-06-4.68847E-19 2.12781E-18
 -1       411 9.80823E-05-3.01689E-05-2.91135E-05-1.96132E-06-2.03853E-19 4.04893E-18
 -1       412 9.82717E-05-3.00716E-05-2.92353E-05-8.48694E-07 1.58994E-19 3.47361E-18
 -1       413 9.81799E-05-2.98638E-05-2.92835E-05-1.81871E-08-4.78880E-20 2.89092E-18
 -1       414 9.79118E-05-2.96183E-05-2.92721E-05 5.24006E-07-4.59349E-19 2.04204E-18
 -1       415 9.75522E-05-2.93801E-05-2.92186E-05 8.20369E-07 9.94620E-19 1.88598E-18
 -1       416 9.71632E-05-2.91719E-05-2.91399E-05 9.31909E-07 1.21137E-18 1.17727E-18
 -1       417 9.67854E-05-2.90014E-05-2.90502E-05 9.19169E-07 1.34981E-18-6.15969E-19
 -1       418 9.64429E-05-2.88683E-05-2.89600E-05 8.32816E-07 9.23557E-20-9.61524E-19
 -1       419 9.61474E-05-2.87680E-05-2.88761E-05 7.10664E-07-1.02669E-18-1.35834E-19
 -1       420 9.59025E-05-2.86946E-05-2.88025E-05 5.78279E-07-1.41607E-19-4.49045E-19
 -1       421 9.57061E-05-2.86421E-05-2.87409E-05 4.51146E-07 5.06713E-19-1.17380E-18
 -1       422 9.55535E-05-2.86055E-05-2.86913E-05 3.37234E-07 1.23355E-18 1.14369E-18
 -1       423 9.54386E-05-2.85804E-05-2.86529E-05 2.39430E-07 6.92701E-19 2.35600E-18
 -1       424 9.53548E-05-2.85634E-05-2.86244E-05 1.57442E-07-5.62950E-19 2.14191E-18
 -1       425 9.52961E-05-2.85530E-05-2.86038E-05 9.05583E-08 1.01697E-19 1.57197E-18
 -1       426 9.52619E-05-2.85520E-05-2.85897E-05 4.22112E-08 1.38660E-18 8.15527E-19
 -1       427 9.52065E-05-2.84241E-05-2.86210E-05 1.35787E-07-8.75157E-19 7.87896E-19
 -1       428 9.52392E-05-2.84855E-05-2.86086E-05 1.08088E-07 2.66929E-19 1.93029E-18
 -1       429 9.51714E-05-2.83610E-05-2.86330E-05 1.41884E-07-1.73317E-18-5.21330E-19
 -1       430 9.51378E-05-2.83019E-05-2.86441E-05 1.23342E-07-1.28896E-18 2.53083E-19
 -1       431 9.51116E-05-2.82561E-05-2.86526E-05 8.31463E-08-7.44235E-19-5.90676E-19
 -1       432 9.50968E-05-2.82300E-05-2.86575E-05 2.78275E-08-1.10452E-18-1.94533E-18
 -1       433 9.50960E-05-2.82279E-05-2.86580E-05-3.34153E-08-1.02578E-19 2.55944E-19
 -1       434 9.51098E-05-2.82509E-05-2.86541E-05-8.98945E-08-1.10842E-18-7.11175E-19
 -1       435 9.51363E-05-2.82951E-05-2.86463E-05-1.30503E-07-8.89315E-19-2.56414E-18
 -1       436 9.51724E-05-2.83560E-05-2.86356E-05-1.48266E-07-1.69576E-19 1.26080E-18
 -1       437 9.52116E-05-2.84239E-05-2.86232E-05-1.38177E-07 6.54310E-19 1.10109E-18
 -1       438 9.52448E-05-2.84877E-05-2.86100E-05-1.02362E-07-5.76012E-21 1.78183E-18
 -1       439 9.49398E-05-2.70655E-05-2.90517E-05 3.24963E-06-1.21202E-19 1.86532E-18
 -1       440 7.23860E-05-4.49622E-05-1.16850E-05 4.95153E-05-1.34117E-18 8.44942E-19
 -1       441 1.39739E-04-4.96264E-05-3.85120E-05 2.87591E-05-3.05249E-19 1.76988E-18
 -1       442 1.12369E-05-2.11565E-05 4.17599E-06 8.52265E-06-1.86940E-18-7.31942E-19
 -1       443 1.04944E-04-5.26885E-05-2.24898E-05 4.47130E-05-1.59560E-18 2.33988E-18
 -1       444 8.93918E-05-1.18814E-05-3.32848E-05-1.05692E-05 4.68863E-19-2.11269E-19
 -1       445 1.58042E-04-3.72960E-05-5.15434E-05 1.36874E-05 3.77327E-19 2.43257E-18
 -1       446 1.57733E-04-1.93722E-05-5.95080E-05-1.71473E-06-6.39616E-19 9.54130E-19
 -1       447 1.59427E-04-1.00058E-05-6.42014E-05 6.12764E-07-1.74002E-18 2.51248E-19
 -1       448 1.58498E-04-1.71984E-05-6.06492E-05 1.59719E-06-1.28728E-18 1.05831E-18
 -1       449 1.58452E-04-3.51524E-05-5.27683E-05-8.98105E-06-2.52564E-18 2.73729E-18
 -1       450 1.42432E-04-4.83330E-05-4.01988E-05-2.74124E-05-3.44261E-18 2.18556E-18
 -1       451 1.08888E-04-5.38758E-05-2.36716E-05-4.34386E-05-1.32847E-18 2.95472E-18
 -1       452 7.42197E-05-4.56821E-05-1.22084E-05-4.95139E-05-1.51693E-18 2.49123E-18
 -1       453 3.33972E-05-3.16152E-05-8.43903E-07-3.93715E-05-1.48781E-18 3.95956E-18
 -1       454 1.41297E-05-1.87596E-05 2.27008E-06-1.52328E-05-7.09867E-19 4.77345E-18
 -1       455 2.10441E-05-2.66946E-05 2.31729E-06 1.93632E-05-5.12614E-19 1.60343E-18
 -1       456 5.41349E-05-4.05839E-05-5.86538E-06 3.78558E-05-3.35637E-19 3.80477E-19
 -1       457 9.94552E-05-5.86976E-05-1.77342E-05 3.80352E-05 8.79326E-19-1.32202E-18
 -1       458 1.44182E-04-6.61743E-05-3.36150E-05 2.20530E-05 8.35280E-19-1.97994E-20
 -1       459 1.71267E-04-6.04754E-05-4.75367E-05-4.00063E-06 4.65815E-19-1.10961E-19
 -1       460 1.76824E-04-3.96230E-05-5.89684E-05-1.58723E-05 5.20819E-19 3.77988E-20
 -1       461 1.62299E-04-6.48743E-05-4.18437E-05-5.92451E-06-2.74121E-19-6.18334E-19
 -1       462 1.29733E-04-6.51338E-05-2.79398E-05-2.87037E-05-2.05935E-18 2.71156E-19
 -1       463 9.13588E-05-5.57751E-05-1.56396E-05-3.86866E-05-9.78747E-19-3.40666E-19
 -1       464 4.76309E-05-4.05474E-05-3.46173E-06-3.52196E-05-2.66900E-18-6.64921E-20
 -1       465 1.95913E-05-2.89794E-05 3.65090E-06-1.76326E-05-3.13757E-18-3.78624E-19
 -1       466 2.69134E-05-2.72942E-05 1.44534E-07 3.51667E-05-1.39115E-18 9.37136E-19
 -1       467 9.52624E-05-2.85213E-05-2.86030E-05-7.63795E-08-1.42028E-18-2.93484E-18
 -1       468 5.68089E-05-3.39778E-05-9.30995E-06 4.68988E-05-7.70800E-19 1.02735E-18
 -1       469 1.38614E-04-7.89163E-06-5.66204E-05-5.34405E-06-1.14699E-18-3.74891E-19
 -1       470 1.72677E-04-5.46610E-05-5.06645E-05 1.44313E-05 4.83788E-19-3.13529E-18
 -1       471 1.74265E-04-4.30858E-05-5.65370E-05 1.43343E-05 8.33163E-19-4.18265E-18
 -1       472 8.95330E-05-1.32967E-05-3.26917E-05-3.85293E-06 7.57419E-19 1.67270E-19
 -1       473 9.02556E-05-1.42846E-05-3.25802E-05-5.79015E-06 7.15513E-19 4.73983E-20
 -1       474 8.90151E-05-1.25928E-05-3.27701E-05 5.64805E-08 7.11506E-19 6.00053E-19
 -1       475 8.91525E-05-1.27820E-05-3.27482E-05 2.01003E-06 7.99031E-19 5.28102E-19
 -1       476 8.95568E-05-1.33356E-05-3.26853E-05 3.93038E-06 6.87703E-19 4.80134E-19
 -1       477 9.02942E-05-1.43461E-05-3.25701E-05 5.85926E-06 6.91872E-19 6.75795E-19
 -1       478 9.14590E-05-1.59579E-05-3.23808E-05 7.67300E-06 3.70112E-19 9.19449E-19
 -1       479 9.31845E-05-1.84040E-05-3.20693E-05 9.12180E-06 1.71067E-19 1.10598E-18
 -1       480 9.53095E-05-2.18723E-05-3.14845E-05 9.46119E-06 7.56556E-20 1.52039E-18
 -1       481 9.63427E-05-2.46072E-05-3.07323E-05 7.96110E-06-1.70101E-20 1.74953E-18
 -1       482 9.55009E-05-2.44043E-05-3.04605E-05-5.71260E-06 2.19269E-19-4.69701E-19
 -1       483 9.53234E-05-2.61880E-05-2.96226E-05-2.72953E-06 1.03380E-19-2.38446E-19
 -1       484 9.50003E-05-2.71013E-05-2.90958E-05-7.90483E-07 6.38121E-20 4.11481E-21
 -1       485 9.47660E-05-2.76279E-05-2.87716E-05 4.85791E-07-1.00343E-19 2.34168E-19
 -1       486 9.46805E-05-2.79130E-05-2.86138E-05 1.25246E-06-1.84291E-19 4.14973E-19
 -1       487 9.47142E-05-2.80738E-05-2.85596E-05 1.76718E-06-3.44562E-20 3.42689E-19
 -1       488 9.48386E-05-2.81456E-05-2.85821E-05 2.16129E-06 1.29131E-19 5.63747E-19
 -1       489 9.50274E-05-2.81416E-05-2.86646E-05 2.53630E-06 1.61808E-19 9.71913E-19
 -1       490 9.52571E-05-2.80602E-05-2.87976E-05 2.97776E-06-9.26104E-20 9.51732E-19
 -1       491 9.55046E-05-2.78891E-05-2.89763E-05 3.56448E-06-4.71108E-19 4.37380E-19
 -1       492 9.57482E-05-2.75846E-05-2.92102E-05 4.42601E-06-4.33460E-19 7.23576E-22
 -1       493 9.59168E-05-2.71375E-05-2.94730E-05 5.57167E-06-1.45522E-19 3.42349E-19
 -1       494 9.59615E-05-2.65015E-05-2.97632E-05 7.12654E-06-3.69911E-19 8.06434E-19
 -1       495 9.57969E-05-2.56577E-05-3.00527E-05 9.18432E-06-1.43448E-19 1.80713E-18
 -1       496 9.53476E-05-2.46699E-05-3.02821E-05 1.18218E-05-6.26127E-19 1.91142E-18
 -1       497 9.46359E-05-2.38175E-05-3.03408E-05 1.50735E-05-8.07962E-19 1.43488E-18
 -1       498 9.40111E-05-2.38553E-05-3.00501E-05 1.88990E-05-9.72628E-19 9.31801E-19
 -1       499 9.46234E-05-2.64023E-05-2.91977E-05 2.30923E-05-6.56330E-19-8.26681E-19
 -1       500 9.95669E-05-3.48804E-05-2.75790E-05 2.71090E-05-8.93315E-19-1.86860E-18
 -1       501 1.12985E-04-5.10947E-05-2.62911E-05 2.79604E-05-3.39607E-19-2.13405E-18
 -1       502 1.45805E-04-4.93519E-05-4.15764E-05 4.92983E-06-3.13779E-19 1.42910E-18
 -1       503 1.33293E-04-6.17631E-05-3.05973E-05-1.75533E-05-2.82724E-19-9.52237E-19
 -1       504 1.09268E-04-4.33876E-05-2.80493E-05-2.64526E-05 7.03501E-19-1.23558E-18
 -1       505 9.99183E-05-3.12577E-05-2.93652E-05-2.47197E-05 1.80547E-19-2.52709E-18
 -1       506 9.67906E-05-2.59664E-05-3.03328E-05-2.09783E-05-5.88419E-19-1.50594E-18
 -1       507 9.62928E-05-2.45767E-05-3.07248E-05-1.69651E-05 3.40366E-19-2.00176E-18
 -1       508 9.65523E-05-2.48965E-05-3.06996E-05-1.31244E-05 1.13223E-18-1.22957E-18
 -1       509 9.68005E-05-2.56939E-05-3.04649E-05-1.00408E-05 4.69545E-20 8.04502E-20
 -1       510 9.68611E-05-2.64802E-05-3.01556E-05-7.55651E-06-1.74145E-18-3.66055E-19
 -1       511 9.67631E-05-2.71103E-05-2.98453E-05-5.62038E-06-7.15628E-19 1.22925E-18
 -1       512 9.65716E-05-2.75695E-05-2.95680E-05-4.14390E-06-2.61151E-19 2.05752E-18
 -1       513 9.63439E-05-2.78880E-05-2.93352E-05-3.03376E-06-9.74653E-19 1.82693E-18
 -1       514 9.61168E-05-2.81025E-05-2.91469E-05-2.20581E-06-6.19736E-19 1.76260E-18
 -1       515 9.59036E-05-2.82516E-05-2.89922E-05-1.56669E-06-1.43491E-18 8.67755E-19
 -1       516 9.57325E-05-2.83446E-05-2.88795E-05-1.12033E-06-1.03663E-18-6.12331E-19
 -1       517 9.55931E-05-2.84062E-05-2.87936E-05-7.90694E-07 1.44918E-18-1.53248E-18
 -1       518 9.54831E-05-2.84469E-05-2.87293E-05-5.47329E-07 7.68560E-19-7.06231E-19
 -1       519 9.53981E-05-2.84734E-05-2.86816E-05-3.67437E-07 1.16750E-18 2.20905E-18
 -1       520 9.53330E-05-2.84909E-05-2.86464E-05-2.34403E-07 6.03913E-19 1.77324E-18
 -1       521 9.52943E-05-2.85071E-05-2.86227E-05-1.45106E-07-2.20246E-19-6.29046E-19
 -1       522 9.45327E-05-2.77944E-05-2.86005E-05-7.99900E-07 2.59712E-19 1.23208E-18
 -1       523 9.47127E-05-2.74199E-05-2.88361E-05 1.52165E-07 1.41105E-19 1.25849E-18
 -1       524 9.50548E-05-2.67841E-05-2.92547E-05 1.70613E-06 1.47280E-21 1.36527E-18
 -1       525 9.45060E-05-2.80363E-05-2.84863E-05-1.37877E-06 2.06019E-19 1.18344E-18
 -1       526 9.46022E-05-2.82079E-05-2.84544E-05-1.72805E-06 2.85594E-19 1.32656E-18
 -1       527 9.47928E-05-2.83444E-05-2.84778E-05-1.93965E-06-1.08358E-19 1.31728E-18
 -1       528 9.50582E-05-2.84712E-05-2.85373E-05-2.06874E-06 7.35752E-20 1.05297E-18
 -1       529 9.53881E-05-2.86112E-05-2.86188E-05-2.14145E-06 2.95333E-19 8.75642E-19
 -1       530 9.57795E-05-2.87878E-05-2.87110E-05-2.15832E-06 1.82988E-19 1.07205E-18
 -1       531 9.62335E-05-2.90250E-05-2.88043E-05-2.09562E-06 3.60400E-19 1.71703E-18
 -1       532 9.67518E-05-2.93451E-05-2.88897E-05-1.90636E-06 1.85762E-19 1.18145E-18
 -1       533 9.73296E-05-2.97616E-05-2.89594E-05-1.52353E-06 1.50167E-19 4.64952E-19
 -1       534 9.79466E-05-3.02680E-05-2.90075E-05-8.68780E-07 7.86512E-20 5.11650E-19
 -1       535 9.85538E-05-3.08200E-05-2.90320E-05 1.28933E-07 4.93369E-19-4.30867E-20
 -1       536 9.90595E-05-3.13166E-05-2.90364E-05 1.50047E-06 2.75663E-19 1.93217E-19
 -1       537 9.93219E-05-3.15894E-05-2.90319E-05 3.18776E-06-3.15074E-19 2.56344E-19
 -1       538 9.91639E-05-3.14202E-05-2.90358E-05 4.98777E-06-3.88679E-19-8.13835E-19
 -1       539 9.84309E-05-3.06114E-05-2.90664E-05 6.51725E-06-2.25269E-19-6.03301E-19
 -1       540 9.70983E-05-2.91162E-05-2.91334E-05 7.25010E-06-1.52050E-19 6.69877E-19
 -1       541 9.53862E-05-2.71758E-05-2.92287E-05 6.67986E-06-2.45744E-19 1.87046E-18
 -1       542 9.37807E-05-2.53451E-05-2.93237E-05 4.59283E-06-9.58326E-20 2.13527E-18
 -1       543 9.28701E-05-2.43012E-05-2.93802E-05 1.30340E-06 9.23820E-20 2.25315E-18
 -1       544 9.30348E-05-2.44830E-05-2.93728E-05-2.35435E-06 8.60695E-19 2.34390E-18
 -1       545 9.42060E-05-2.58105E-05-2.93065E-05-5.37361E-06 3.60354E-19 2.25771E-18
 -1       546 9.59124E-05-2.77388E-05-2.92134E-05-7.04722E-06-7.14600E-19 1.97820E-18
 -1       547 9.75672E-05-2.95920E-05-2.91311E-05-7.22556E-06-9.18516E-19 2.37213E-18
 -1       548 9.87538E-05-3.08956E-05-2.90834E-05-6.23860E-06-3.93985E-19 3.21911E-18
 -1       549 9.93332E-05-3.15024E-05-2.90733E-05-4.62413E-06 1.14834E-19 2.31266E-18
 -1       550 9.93816E-05-3.15185E-05-2.90878E-05-2.87867E-06-1.41346E-18 6.33643E-19
 -1       551 9.90704E-05-3.11584E-05-2.91086E-05-1.33437E-06 3.91395E-19 1.44035E-18
 -1       552 9.85714E-05-3.06308E-05-2.91202E-05-1.48686E-07 3.81104E-19 1.41274E-18
 -1       553 9.80135E-05-3.00857E-05-2.91139E-05 6.50541E-07 3.07233E-19 1.22912E-18
 -1       554 9.74758E-05-2.96071E-05-2.90878E-05 1.10989E-06 7.01364E-19-6.71225E-19
 -1       555 9.69981E-05-2.92282E-05-2.90448E-05 1.30659E-06 1.28349E-18-5.48531E-19
 -1       556 9.65944E-05-2.89507E-05-2.89903E-05 1.32101E-06 1.90416E-18-4.56850E-19
 -1       557 9.62644E-05-2.87605E-05-2.89301E-05 1.22254E-06 8.15905E-19 3.63421E-19
 -1       558 9.60008E-05-2.86383E-05-2.88694E-05 1.06459E-06-1.18985E-18 7.12806E-20
 -1       559 9.57942E-05-2.85654E-05-2.88120E-05 8.84600E-07-1.07954E-18-7.97827E-19
 -1       560 9.56345E-05-2.85258E-05-2.87605E-05 7.06443E-07 8.45265E-20-3.11972E-19
 -1       561 9.55127E-05-2.85073E-05-2.87163E-05 5.43550E-07-1.89230E-19-9.19578E-19
 -1       562 9.54208E-05-2.85010E-05-2.86796E-05 4.02188E-07-3.06926E-20 1.21609E-19
 -1       563 9.53519E-05-2.85009E-05-2.86502E-05 2.83389E-07 1.04428E-18 1.23601E-18
 -1       564 9.52991E-05-2.85025E-05-2.86268E-05 1.85652E-07 4.25960E-19 1.45437E-18
 -1       565 9.51234E-05-2.82774E-05-2.86483E-05 2.01431E-07-1.37917E-18 4.37767E-19
 -1       566 9.51801E-05-2.83533E-05-2.86399E-05 2.14322E-07-1.41365E-18-6.62425E-19
 -1       567 9.52357E-05-2.84326E-05-2.86298E-05 1.95974E-07 4.55569E-20-1.12325E-18
 -1       568 3.02051E-05-1.22611E-05-6.91105E-06 2.30125E-05-4.91014E-20 1.67707E-18
 -1       569 9.50734E-05-2.82112E-05-2.86553E-05 1.57138E-07-2.34512E-18 3.38181E-19
 -1       570 9.50382E-05-2.81644E-05-2.86603E-05 8.71554E-08-2.08504E-18-2.32426E-18
 -1       571 9.50236E-05-2.81435E-05-2.86630E-05 1.78020E-09-1.76921E-18 1.00621E-20
 -1       572 9.50327E-05-2.81524E-05-2.86631E-05-8.57606E-08 8.17567E-20 1.24396E-18
 -1       573 9.50649E-05-2.81902E-05-2.86606E-05-1.59754E-07 3.12950E-19-2.26543E-18
 -1       574 9.51172E-05-2.82544E-05-2.86555E-05-2.09483E-07 9.22542E-19-6.27087E-19
 -1       575 9.51810E-05-2.83364E-05-2.86477E-05-2.23640E-07 1.07931E-18 2.50232E-18
 -1       576 9.52432E-05-2.84238E-05-2.86369E-05-1.99490E-07-1.16680E-19 1.19625E-18
 -1       577 9.46071E-05-2.07389E-05-3.16764E-05-9.34355E-06 2.91336E-19-4.58549E-19
 -1       578 1.01206E-04-5.31774E-05-2.03690E-05 4.39374E-05-1.37256E-18 2.30656E-18
 -1       579 1.30887E-04-5.96099E-05-3.05761E-05 2.79604E-05-7.81653E-19 2.47900E-18
 -1       580 8.39140E-05-4.79546E-05-1.50715E-05-3.94346E-05-1.88677E-18-7.40360E-19
 -1       581 1.49030E-04-6.83973E-05-3.46442E-05-7.43807E-06-1.38196E-18-1.21782E-18
 -1       582 1.34386E-04-5.95968E-05-3.20644E-05-2.40244E-05-3.38654E-19 4.89109E-19
 -1       583 2.39276E-05-1.30914E-05-4.00863E-06-9.09702E-06-1.18608E-18-8.41951E-19
 -1       584 8.91370E-05-1.27576E-05-3.27520E-05-1.89777E-06 8.11378E-19 3.22262E-19
 -1       585 3.72784E-05-1.76240E-05-7.74403E-06-3.18822E-05-1.21899E-18 4.10297E-18
 -1       586 1.43404E-04-2.97374E-05-4.92242E-05-8.35099E-06 1.19908E-19 2.12288E-20
 -1       587 1.35788E-04-7.40016E-06-5.56565E-05 5.38407E-06-2.27598E-18-1.44949E-18
 -1       588 1.42709E-04-2.61623E-05-5.04706E-05 9.21875E-06-1.92584E-18 4.84185E-19
 -1       589 1.46250E-04-4.82450E-05-4.23345E-05-3.61667E-06-1.59063E-18 6.64021E-19
 -1       590 1.00741E-04-5.35478E-05-2.00391E-05-4.48213E-05-2.97150E-19 1.78183E-18
 -1       591 6.48514E-05-3.56652E-05-1.20412E-05-4.67342E-05-7.43324E-19 2.14892E-18
 -1       592 2.60372E-05-1.11070E-05-5.67102E-06 6.73784E-06-1.35176E-18 2.93095E-18
 -1       593 4.62817E-05-2.50896E-05-8.55377E-06 3.11622E-05-7.53806E-19 4.63486E-19
 -1       594 9.14741E-05-4.92558E-05-1.77079E-05 3.84253E-05-3.89212E-19-9.88911E-19
 -1       595 1.34615E-04-6.71208E-05-2.89591E-05 2.15999E-05-2.03394E-19-1.44440E-18
 -1       596 1.56920E-04-6.62409E-05-3.88373E-05-2.92202E-06-2.49107E-19 1.37484E-19
 -1       597 4.11204E-05-2.45365E-05-6.58999E-06-2.94069E-05-4.10599E-19-1.02120E-18
 -1       598 1.21039E-04-6.31057E-05-2.47171E-05-2.95160E-05-1.12269E-18 2.28831E-20
 -1       599 9.13757E-05-1.58450E-05-3.23942E-05-7.59629E-06 6.47863E-19-8.11133E-21
 -1       600 9.55705E-05-2.58269E-05-2.98679E-05 4.83159E-06-1.56805E-19 1.55650E-18
 -1       601 9.27853E-05-1.78961E-05-3.21170E-05-8.78493E-06 4.72699E-19-2.50299E-19
 -1       602 8.33489E-05-4.22828E-05-1.72097E-05 4.50262E-05-1.11536E-18 1.56913E-18
 -1       603 9.52119E-05-2.63642E-05-2.94936E-05 3.07249E-06-1.12007E-19 1.54339E-18
 -1       604 1.31176E-04-1.75343E-05-4.92653E-05-1.15694E-05 1.51460E-19-2.33463E-20
 -1       605 3.60736E-05-8.73064E-06-1.10932E-05-1.20131E-05-1.42327E-18 4.09826E-18
 -1       606 1.60537E-04-6.21031E-05-4.24794E-05 1.31429E-05-9.40769E-19-3.10676E-18
 -1       607 9.14906E-05-1.66737E-05-3.20701E-05 2.36735E-06 6.68213E-19 3.71130E-19
 -1       608 9.12206E-05-1.62550E-05-3.21335E-05 8.16078E-07 7.17366E-19 5.90220E-19
 -1       609 9.28706E-05-1.88857E-05-3.17141E-05 5.13293E-06 3.14719E-19 4.16592E-19
 -1       610 9.39888E-05-2.08286E-05-3.13615E-05 6.06350E-06 8.93906E-20 8.53882E-19
 -1       611 9.55120E-05-2.41840E-05-3.05568E-05 6.14096E-06-1.14098E-19 1.33910E-18
 -1       612 9.50630E-05-2.36057E-05-3.06260E-05-4.55924E-06 3.56749E-19-1.25474E-19
 -1       613 1.21544E-04-6.04188E-06-5.01522E-05-1.37678E-06-1.43943E-18-4.41489E-19
 -1       614 9.54510E-05-2.56017E-05-2.99339E-05-2.19578E-06 2.99866E-19 9.40766E-20
 -1       615 9.55141E-05-2.68313E-05-2.94348E-05-4.59718E-07 5.10903E-20 1.79997E-19
 -1       616 9.54615E-05-2.75012E-05-2.91256E-05 6.58741E-07 5.79724E-21 2.27575E-19
 -1       617 9.53866E-05-2.78652E-05-2.89376E-05 1.42326E-06 8.61536E-20 4.56597E-19
 -1       618 9.53127E-05-2.80154E-05-2.88415E-05 1.97353E-06 1.03659E-19 8.79136E-19
 -1       619 9.52350E-05-2.79987E-05-2.88154E-05 2.42306E-06 1.14550E-19 4.68731E-19
 -1       620 9.51321E-05-2.78317E-05-2.88428E-05 2.86396E-06-4.51256E-21 9.58673E-20
 -1       621 9.49692E-05-2.75094E-05-2.89109E-05 3.37315E-06-6.57871E-19 2.09083E-20
 -1       622 9.46719E-05-2.69750E-05-2.90123E-05 4.05470E-06-7.64353E-19-1.07474E-19
 -1       623 9.41821E-05-2.62316E-05-2.91207E-05 4.90736E-06 1.84309E-19 2.46371E-19
 -1       624 9.33769E-05-2.52047E-05-2.92153E-05 6.01341E-06 9.81294E-20 7.11917E-19
 -1       625 9.20964E-05-2.38367E-05-2.92524E-05 7.42246E-06 1.55346E-19 7.18302E-19
 -1       626 9.01448E-05-2.21090E-05-2.91561E-05 9.18231E-06-3.00048E-19 8.37472E-19
 -1       627 8.73201E-05-2.01197E-05-2.87968E-05 1.13614E-05-9.05841E-19 1.15515E-18
 -1       628 8.35042E-05-1.82358E-05-2.79603E-05 1.41197E-05-1.19881E-18 1.36733E-18
 -1       629 7.88466E-05-1.73346E-05-2.63117E-05 1.79097E-05-1.61368E-18 8.19643E-19
 -1       630 7.41506E-05-1.95633E-05-2.32161E-05 2.37389E-05-1.52706E-18 4.81644E-19
 -1       631 9.52557E-05-2.84072E-05-2.86493E-05 2.97880E-07-7.51733E-20-8.33033E-19
 -1       632 1.35485E-04-5.61962E-05-3.41219E-05 8.92780E-06 1.24010E-19 2.59459E-18
 -1       633 7.91334E-05-1.93032E-05-2.55583E-05-2.14197E-05 4.45046E-19-1.70427E-18
 -1       634 8.29930E-05-1.84244E-05-2.76521E-05-1.66246E-05 3.73862E-19 1.60850E-19
 -1       635 8.69070E-05-1.96909E-05-2.88016E-05-1.29727E-05 1.25042E-18-1.37315E-19
 -1       636 8.98633E-05-2.15132E-05-2.92895E-05-1.02528E-05 9.34350E-19-1.09643E-19
 -1       637 9.19687E-05-2.32500E-05-2.94482E-05-8.03721E-06-1.15836E-18 1.06334E-18
 -1       638 9.33694E-05-2.46821E-05-2.94352E-05-6.23234E-06-1.70711E-19 1.34304E-18
 -1       639 9.42501E-05-2.57785E-05-2.93434E-05-4.77943E-06 1.72332E-19 1.67990E-18
 -1       640 9.47755E-05-2.65836E-05-2.92239E-05-3.62721E-06-1.44516E-18 1.07537E-18
 -1       641 9.50706E-05-2.71609E-05-2.91034E-05-2.72478E-06-9.04792E-19 6.43167E-19
 -1       642 9.52294E-05-2.75869E-05-2.89891E-05-1.99732E-06-6.15261E-19 1.78033E-19
 -1       643 9.52966E-05-2.78697E-05-2.88969E-05-1.47008E-06-1.61718E-18 1.60921E-18
 -1       644 9.53178E-05-2.80684E-05-2.88209E-05-1.06831E-06-1.28218E-18 1.65335E-18
 -1       645 9.53148E-05-2.82075E-05-2.87600E-05-7.64240E-07 2.58998E-18 9.31339E-19
 -1       646 9.53003E-05-2.83049E-05-2.87122E-05-5.35210E-07 2.13519E-18 1.63065E-18
 -1       647 9.52796E-05-2.83720E-05-2.86746E-05-3.62315E-07 3.51661E-20-3.81411E-19
 -1       648 9.54064E-05-2.72339E-05-2.92161E-05-2.03411E-08 3.74303E-19 5.00577E-19
 -1       649 9.53395E-05-2.77767E-05-2.89552E-05-9.41465E-07 1.56033E-19 4.94295E-19
 -1       650 9.54506E-05-2.63372E-05-2.96185E-05 1.38567E-06 1.81274E-19 6.37952E-19
 -1       651 9.53087E-05-2.83063E-05-2.87153E-05-1.92532E-06 1.08452E-19 5.79629E-19
 -1       652 9.53705E-05-2.84403E-05-2.86843E-05-2.18361E-06 2.85035E-19-4.67808E-20
 -1       653 9.54943E-05-2.85554E-05-2.86881E-05-2.36272E-06 1.47576E-19 6.54414E-20
 -1       654 9.56940E-05-2.86966E-05-2.87133E-05-2.48474E-06-8.69429E-20 3.53375E-19
 -1       655 9.59910E-05-2.89099E-05-2.87492E-05-2.54520E-06-2.71382E-19 4.04871E-20
 -1       656 9.64140E-05-2.92424E-05-2.87881E-05-2.51291E-06 2.94427E-19 2.37210E-19
 -1       657 9.69950E-05-2.97372E-05-2.88252E-05-2.32966E-06 7.64196E-19 3.12241E-19
 -1       658 9.77608E-05-3.04210E-05-2.88606E-05-1.91209E-06 3.05365E-19 2.58920E-19
 -1       659 9.87150E-05-3.12823E-05-2.89008E-05-1.15973E-06 2.85868E-19 5.09506E-19
 -1       660 9.98117E-05-3.22383E-05-2.89614E-05 2.43286E-08 5.35210E-19 1.74888E-19
 -1       661 1.00921E-04-3.30994E-05-2.90678E-05 1.69132E-06 4.37813E-20 5.90820E-19
 -1       662 1.01804E-04-3.35505E-05-2.92528E-05 3.77563E-06 1.92018E-19 5.54764E-19
 -1       663 1.02133E-04-3.31924E-05-2.95468E-05 6.00052E-06-3.18092E-19 8.58236E-19
 -1       664 1.01601E-04-3.16963E-05-2.99583E-05 7.80913E-06-8.17939E-19 8.52482E-19
 -1       665 1.00137E-04-2.90725E-05-3.04543E-05 8.42201E-06-6.98394E-19 7.33774E-19
 -1       666 9.81398E-05-2.59298E-05-3.09451E-05 7.14246E-06-1.17687E-21 2.65849E-19
 -1       667 9.64389E-05-2.33981E-05-3.13021E-05 3.84373E-06 1.79096E-19-2.56763E-19
 -1       668 9.59079E-05-2.26193E-05-3.14078E-05-6.90302E-07 3.39570E-20-3.18737E-19
 -1       669 9.68415E-05-2.39745E-05-3.12260E-05-5.00593E-06-1.72985E-19 1.06790E-18
 -1       670 9.87285E-05-2.68012E-05-3.08230E-05-7.77774E-06-1.22590E-19 2.30211E-18
 -1       671 1.00648E-04-2.98853E-05-3.03251E-05-8.48772E-06-1.02073E-18 2.13834E-18
 -1       672 1.01864E-04-3.22037E-05-2.98539E-05-7.47840E-06-5.01632E-19 1.74016E-18
 -1       673 1.02132E-04-3.33382E-05-2.94838E-05-5.51906E-06 3.77545E-20 1.28435E-18
 -1       674 1.01615E-04-3.34066E-05-2.92338E-05-3.34409E-06 3.06109E-19 2.05088E-18
 -1       675 1.00646E-04-3.27813E-05-2.90865E-05-1.42852E-06-7.77337E-19 6.26125E-19
 -1       676 9.95330E-05-3.18467E-05-2.90096E-05 2.01627E-08-2.52581E-19 2.03410E-18
 -1       677 9.84813E-05-3.08826E-05-2.89718E-05 9.77592E-07 2.17104E-19 3.06058E-18
 -1       678 9.75938E-05-3.00460E-05-2.89496E-05 1.51389E-06 1.71901E-18 2.37904E-18
 -1       679 9.68983E-05-2.93976E-05-2.89291E-05 1.73168E-06 1.41842E-18 1.06009E-18
 -1       680 9.63813E-05-2.89386E-05-2.89041E-05 1.73188E-06 9.20310E-19 1.00910E-18
 -1       681 9.60115E-05-2.86407E-05-2.88732E-05 1.59883E-06 5.21085E-19 1.47195E-18
 -1       682 9.57544E-05-2.84662E-05-2.88377E-05 1.39615E-06 7.40776E-19 2.21974E-18
 -1       683 9.55793E-05-2.83786E-05-2.88002E-05 1.16808E-06 6.98621E-21 5.03475E-19
 -1       684 9.54615E-05-2.83475E-05-2.87630E-05 9.42934E-07-2.27003E-19-2.46337E-18
 -1       685 9.53825E-05-2.83499E-05-2.87282E-05 7.37023E-07-1.09919E-18-1.28102E-18
 -1       686 9.53293E-05-2.83693E-05-2.86970E-05 5.58125E-07 1.05225E-19-1.48658E-18
 -1       687 9.52864E-05-2.83868E-05-2.86710E-05 4.15580E-07-3.50694E-20-2.18228E-18
 -1       688 9.49740E-05-2.80885E-05-2.86652E-05 1.76897E-07-1.83296E-18-4.05270E-19
 -1       689 9.50414E-05-2.81650E-05-2.86613E-05 2.55373E-07-1.74240E-18-1.03120E-18
 -1       690 9.53010E-05-2.81051E-05-2.87981E-05-1.53807E-06 1.59932E-19 4.99223E-19
 -1       691 9.49260E-05-2.80274E-05-2.86709E-05-4.85576E-08 2.01598E-18 1.42302E-18
 -1       692 9.49553E-05-2.80531E-05-2.86724E-05-1.62005E-07 8.37941E-19 1.24300E-19
 -1       693 9.50198E-05-2.81174E-05-2.86725E-05-2.55127E-07 3.54111E-19-2.28715E-18
 -1       694 9.51100E-05-2.82127E-05-2.86702E-05-3.09068E-07 8.84249E-19 2.26905E-19
 -1       695 9.42200E-05-2.11599E-05-3.13090E-05-6.61011E-06 3.44838E-19-1.92884E-19
 -1       696 7.91824E-05-3.17723E-05-1.98911E-05 3.30292E-05-1.15445E-18-3.00856E-19
 -1       697 5.80874E-05-2.34042E-05-1.43889E-05 3.66063E-05 5.36331E-19 7.79720E-19
 -1       698 9.49332E-05-2.80402E-05-2.86684E-05 7.08903E-08 7.35061E-19-1.01028E-18
 -1       699 9.51229E-05-2.82575E-05-2.86566E-05 2.96631E-07-9.40328E-19-1.70478E-18
 -1       700 7.70856E-05-2.50486E-05-2.20054E-05-2.84277E-05 2.71871E-19-2.07102E-18
 -1       701 3.79872E-05-7.34332E-06-1.25975E-05 6.48732E-07 1.54671E-18-3.03344E-19
 -1       702 9.20360E-05-1.75297E-05-3.19373E-05 3.83900E-06 6.08364E-19 4.93692E-19
 -1       703 1.20082E-04-5.74327E-05-2.67979E-05 2.96137E-05-1.93997E-19 4.37132E-18
 -1       704 1.36938E-04-4.11338E-05-4.13882E-05-7.72228E-06 1.26020E-18 1.59115E-18
 -1       705 7.30021E-05-3.16486E-05-1.72178E-05-3.40833E-05 8.41607E-19-1.43734E-18
 -1       706 9.10033E-05-4.50193E-05-1.94176E-05-4.23164E-05-2.60701E-19 1.81241E-18
 -1       707 1.36735E-04-5.47385E-05-3.52817E-05-5.31794E-06-4.69230E-19-1.28749E-19
 -1       708 4.69610E-05-1.40908E-05-1.35794E-05 2.02061E-05-1.28891E-18 1.10961E-18
 -1       709 1.23279E-04-1.61063E-05-4.63859E-05 1.21283E-05-2.32389E-18-5.87351E-19
 -1       710 1.20261E-04-5.78960E-05-2.66639E-05-3.00662E-05-4.15748E-19 1.02421E-18
 -1       711 1.35794E-04-3.95097E-05-4.16177E-05 9.21848E-06-1.54036E-18 2.36693E-19
 -1       712 6.06291E-05-2.51445E-05-1.47749E-05-3.71938E-05-5.25994E-19 1.66500E-18
 -1       713 4.61715E-05-1.47307E-05-1.29126E-05-2.10610E-05 6.21352E-19-1.80227E-18
 -1       714 9.20053E-05-1.74721E-05-3.19485E-05-3.78329E-06 7.19083E-19 1.73279E-19
 -1       715 9.20560E-05-4.26847E-05-2.08295E-05-3.43850E-05 8.51109E-19-2.27180E-18
 -1       716 9.12155E-05-1.62448E-05-3.21356E-05-7.56188E-07 7.53683E-19 2.40119E-19
 -1       717 1.17892E-04-1.16002E-05-4.59947E-05-8.32071E-06-1.75786E-19 7.95046E-19
 -1       718 4.94932E-05-1.17146E-05-1.58339E-05 1.93539E-05 1.05838E-18 6.63650E-19
 -1       719 9.53392E-05-2.48166E-05-3.02177E-05 3.43856E-06-6.05993E-21 8.14315E-19
 -1       720 1.05101E-04-5.02196E-05-2.33357E-05 3.54654E-05-3.00286E-19 4.18721E-18
 -1       721 9.52115E-05-2.83267E-05-2.86646E-05-3.14324E-07 7.88462E-19 1.56267E-18
 -1       722 1.28408E-04-2.89960E-05-4.29408E-05-1.25911E-05 1.01991E-18 8.43460E-20
 -1       723 9.14735E-05-1.66406E-05-3.20768E-05-2.30412E-06 7.34106E-19 3.98296E-19
 -1       724 4.52845E-05-8.14412E-06-1.55032E-05 3.75001E-06-1.47898E-18 3.32164E-18
 -1       725 5.10608E-05-1.38338E-05-1.55617E-05-2.29137E-05-4.22345E-19 3.72186E-18
 -1       726 9.28530E-05-1.88287E-05-3.17270E-05-5.08815E-06 5.54078E-19 1.59513E-19
 -1       727 9.46171E-05-2.25908E-05-3.08702E-05 3.72267E-06 8.11194E-20 3.78895E-19
 -1       728 1.25769E-04-5.51126E-05-3.02669E-05-1.45264E-05-5.14020E-19-1.11027E-19
 -1       729 9.34817E-05-1.98555E-05-3.15541E-05-5.95787E-06 4.01270E-19 9.23001E-20
 -1       730 9.49150E-05-2.32966E-05-3.06952E-05-3.30652E-06 5.17852E-19 2.93248E-19
 -1       731 9.55608E-05-2.53767E-05-3.00789E-05-1.43285E-06 2.69601E-19 4.28585E-19
 -1       732 9.58044E-05-2.66239E-05-2.96488E-05-1.15443E-07 1.41775E-19 4.92966E-19
 -1       733 9.58311E-05-2.73615E-05-2.93441E-05 8.26868E-07 2.27360E-19 6.78431E-19
 -1       734 9.57258E-05-2.77327E-05-2.91399E-05 1.50069E-06 1.91266E-19 4.75481E-19
 -1       735 9.55239E-05-2.78253E-05-2.90137E-05 2.00683E-06-2.16870E-19 5.42079E-19
 -1       736 9.52278E-05-2.76860E-05-2.89464E-05 2.43091E-06-8.59487E-20 7.21673E-19
 -1       737 9.48138E-05-2.73320E-05-2.89208E-05 2.84115E-06-3.17740E-19 4.40552E-19
 -1       738 9.41956E-05-2.67175E-05-2.89190E-05 3.31131E-06-5.36114E-19 7.19311E-19
 -1       739 9.33442E-05-2.58659E-05-2.89192E-05 3.83114E-06-1.00382E-19 7.76073E-19
 -1       740 9.21173E-05-2.47055E-05-2.88907E-05 4.43527E-06-7.04888E-20 4.17280E-19
 -1       741 9.03432E-05-2.31732E-05-2.87872E-05 5.11588E-06-1.62404E-19-3.10925E-19
 -1       742 8.77936E-05-2.12147E-05-2.85341E-05 5.84564E-06-9.85933E-20-2.34456E-20
 -1       743 8.41727E-05-1.88166E-05-2.80105E-05 6.59300E-06-5.00698E-19 1.25743E-19
 -1       744 7.91048E-05-1.60626E-05-2.70157E-05 7.37583E-06-9.31964E-19 2.69198E-19
 -1       745 7.21177E-05-1.32258E-05-2.52162E-05 8.41385E-06-1.09095E-18 9.01772E-19
 -1       746 6.19641E-05-1.05826E-05-2.18549E-05 1.05352E-05-1.84003E-18 1.32802E-18
 -1       747 6.05076E-05-1.25649E-05-2.02798E-05-1.67050E-05 1.80408E-18-8.81351E-19
 -1       748 1.28845E-04-4.65985E-05-3.53427E-05-4.24604E-06-6.07071E-19-9.10749E-19
 -1       749 9.52535E-05-2.44008E-05-3.03621E-05 2.53088E-06 3.36887E-19 6.09165E-19
 -1       750 7.65877E-05-1.47773E-05-2.64766E-05-8.81550E-06 1.01333E-19-7.63528E-19
 -1       751 8.23365E-05-1.74945E-05-2.77884E-05-7.49983E-06 8.19450E-19-1.20784E-18
 -1       752 8.64701E-05-2.00000E-05-2.84872E-05-6.38054E-06 1.26987E-18-1.01942E-19
 -1       753 8.93786E-05-2.21054E-05-2.88312E-05-5.34400E-06 6.32565E-20 1.04328E-18
 -1       754 9.13812E-05-2.37748E-05-2.89739E-05-4.38585E-06-3.01147E-19 6.26110E-19
 -1       755 9.27339E-05-2.50507E-05-2.90068E-05-3.52840E-06-1.21544E-18-4.15717E-19
 -1       756 9.36329E-05-2.60035E-05-2.89838E-05-2.78604E-06-1.36985E-18 1.27973E-19
 -1       757 9.42448E-05-2.67338E-05-2.89332E-05-2.13639E-06-7.17094E-19 8.64239E-19
 -1       758 9.46177E-05-2.72368E-05-2.88774E-05-1.63305E-06-4.16543E-19 1.06025E-18
 -1       759 9.48562E-05-2.76024E-05-2.88230E-05-1.22850E-06-5.79255E-19 3.03997E-18
 -1       760 9.50065E-05-2.78672E-05-2.87739E-05-9.09158E-07-1.14380E-19 5.56035E-18
 -1       761 9.50990E-05-2.80577E-05-2.87319E-05-6.61500E-07 1.82180E-18 2.51339E-18
 -1       762 9.51541E-05-2.81950E-05-2.86967E-05-4.70132E-07 4.29146E-19 1.69096E-18
 -1       763 9.48714E-05-2.79370E-05-2.86862E-05-2.75192E-07-7.75749E-20-2.52251E-18
 -1       764 9.48352E-05-2.79291E-05-2.86741E-05 1.80337E-07-2.06648E-18 1.61848E-18
 -1       765 9.58086E-05-2.70938E-05-2.94490E-05-2.65708E-07 5.11211E-19 2.35820E-19
 -1       766 9.56902E-05-2.60884E-05-2.98306E-05 9.04608E-07 3.06874E-19 2.91209E-19
 -1       767 9.56516E-05-2.84331E-05-2.88079E-05-2.30197E-06-1.18702E-20 2.98374E-19
 -1       768 9.56932E-05-2.83076E-05-2.88795E-05-2.01130E-06 1.44042E-19-1.84048E-19
 -1       769 9.57763E-05-2.87037E-05-2.87454E-05-2.73628E-06 1.32796E-19 5.95268E-19
 -1       770 9.60318E-05-2.89867E-05-2.87336E-05-2.89178E-06 1.01088E-19 2.60690E-19
 -1       771 9.64947E-05-2.94645E-05-2.87273E-05-2.96910E-06 1.91361E-19 1.44323E-19
 -1       772 9.72350E-05-3.02041E-05-2.87277E-05-2.90084E-06 9.52142E-20 6.78972E-19
 -1       773 9.83172E-05-3.12468E-05-2.87448E-05-2.58343E-06 5.00603E-20 8.16966E-19
 -1       774 9.97730E-05-3.25724E-05-2.88007E-05-1.87853E-06 7.88681E-19 7.01769E-19
 -1       775 1.01553E-04-3.40438E-05-2.89330E-05-6.30461E-07 1.51736E-19 8.88020E-19
 -1       776 1.03461E-04-3.53438E-05-2.91938E-05 1.28096E-06-4.86502E-19 1.30499E-18
 -1       777 1.05103E-04-3.59367E-05-2.96431E-05 3.82870E-06-2.50403E-19 1.40029E-18
 -1       778 1.05902E-04-3.51445E-05-3.03261E-05 6.65622E-06-1.88995E-19 8.73614E-19
 -1       779 1.05324E-04-3.24624E-05-3.12282E-05 8.92113E-06-6.59795E-19 4.37961E-19
 -1       780 1.03308E-04-2.80892E-05-3.22398E-05 9.36347E-06-3.76811E-19 5.73005E-20
 -1       781 1.00656E-04-2.33548E-05-3.31334E-05 7.03790E-06-3.51508E-19 1.71536E-19
 -1       782 9.89295E-05-2.04768E-05-3.36270E-05 2.08517E-06 2.49458E-19 6.44628E-19
 -1       783 9.92510E-05-2.09960E-05-3.35398E-05-3.73303E-06-7.99194E-19 5.25690E-19
 -1       784 1.01399E-04-2.46095E-05-3.29098E-05-8.06075E-06-1.10048E-18 1.01825E-18
 -1       785 1.03986E-04-2.94078E-05-3.19623E-05-9.56727E-06-1.18742E-18 2.20406E-18
 -1       786 1.05628E-04-3.33631E-05-3.09704E-05-8.48366E-06-7.13871E-19 2.27815E-18
 -1       787 1.05766E-04-3.54577E-05-3.01330E-05-5.98169E-06-4.31347E-19 2.41798E-18
 -1       788 1.04652E-04-3.57561E-05-2.95277E-05-3.22125E-06-1.15084E-18 3.41515E-18
 -1       789 1.02869E-04-3.48639E-05-2.91458E-05-8.98409E-07 1.93078E-19 3.69565E-18
 -1       790 1.00950E-04-3.34350E-05-2.89356E-05 7.44697E-07-1.07537E-18 2.99549E-18
 -1       791 9.92287E-05-3.19424E-05-2.88374E-05 1.73651E-06-1.08507E-19 2.51534E-18
 -1       792 9.78510E-05-3.06472E-05-2.88019E-05 2.21562E-06 2.19024E-18 5.02060E-19
 -1       793 9.68360E-05-2.96490E-05-2.87945E-05 2.33745E-06 1.75846E-18-6.57451E-20
 -1       794 9.61379E-05-2.89498E-05-2.87949E-05 2.23462E-06 1.21455E-18 6.78296E-19
 -1       795 9.56878E-05-2.85047E-05-2.87927E-05 2.00688E-06 3.72708E-19-1.19033E-19
 -1       796 9.54169E-05-2.82538E-05-2.87842E-05 1.72340E-06-1.85593E-19-6.58364E-19
 -1       797 9.52674E-05-2.81391E-05-2.87692E-05 1.42893E-06 4.16134E-19-3.50998E-19
 -1       798 9.51950E-05-2.81126E-05-2.87495E-05 1.15017E-06 7.54561E-19 1.29821E-18
 -1       799 9.51683E-05-2.81377E-05-2.87274E-05 9.01507E-07-1.09110E-18-3.38556E-19
 -1       800 9.51656E-05-2.81879E-05-2.87046E-05 6.89623E-07-7.18158E-19-1.54974E-18
 -1       801 9.49169E-05-2.80157E-05-2.86720E-05 3.00799E-07-2.18094E-18 1.02422E-19
 -1       802 9.49834E-05-2.80395E-05-2.86903E-05-3.85788E-07 1.14373E-18 1.25418E-18
 -1       803 9.48073E-05-2.78839E-05-2.86815E-05-1.30443E-07 1.38129E-18 2.99340E-19
 -1       804 8.21046E-05-3.47128E-05-2.00998E-05-3.59478E-05-5.36013E-19 1.39800E-18
 -1       805 1.22844E-04-2.87745E-05-4.05317E-05 1.34107E-05-2.20980E-18-3.63165E-19
 -1       806 1.29338E-04-4.54524E-05-3.61043E-05 5.53295E-06-4.16303E-19 1.60261E-19
 -1       807 9.56662E-05-2.85427E-05-2.87672E-05-2.53744E-06-3.09384E-19 7.22272E-19
 -1       808 9.50261E-05-2.81279E-05-2.86707E-05 3.77577E-07-5.00985E-19-1.28771E-18
 -1       809 8.23757E-05-3.54039E-05-1.98824E-05 3.69944E-05-9.85735E-20 2.23760E-18
 -1       810 6.87491E-05-1.23354E-05-2.41158E-05-1.07678E-05 9.00240E-19 1.63123E-19
 -1       811 9.30757E-05-1.95111E-05-3.15289E-05 1.16402E-06 5.14224E-19 4.32645E-19
 -1       812 1.17471E-04-7.88792E-06-4.74139E-05 3.11221E-06-2.11822E-18 1.39363E-18
 -1       813 1.24960E-04-5.52435E-05-2.99130E-05 1.56502E-05-1.20986E-18 1.60702E-18
 -1       814 1.07303E-04-4.97134E-05-2.45686E-05-3.11690E-05-1.05595E-19 1.00700E-18
 -1       815 9.51544E-05-2.82546E-05-2.86714E-05 4.23987E-07 5.03963E-20-1.55785E-18
 -1       816 9.47953E-05-2.78819E-05-2.86772E-05 3.00810E-08 1.32307E-18 1.42452E-18
 -1       817 1.11566E-04-1.43823E-05-4.18747E-05 8.27923E-06-7.73619E-19 1.71285E-18
 -1       818 1.13656E-04-1.01143E-05-4.47024E-05-4.44986E-06-9.61065E-19 3.65287E-18
 -1       819 1.07410E-04-1.26910E-05-4.07487E-05 1.86427E-06-3.21820E-19 1.44245E-18
 -1       820 1.23976E-04-3.83934E-05-3.68262E-05-1.05999E-05 1.73311E-20-2.22907E-18
 -1       821 9.39472E-05-2.11540E-05-3.11997E-05 3.13418E-06 3.59822E-19 1.18351E-19
 -1       822 6.59859E-05-2.12323E-05-1.89613E-05 2.84748E-05 2.08403E-19 1.52942E-18
 -1       823 9.57580E-05-2.80978E-05-2.89972E-05-1.62290E-06 3.94250E-19-2.85046E-19
 -1       824 9.51535E-05-2.82187E-05-2.86869E-05 5.44923E-07 3.00586E-19-1.05685E-18
 -1       825 1.15273E-04-5.17613E-05-2.71451E-05 2.30165E-05-1.67798E-18 1.60897E-18
 -1       826 6.81643E-05-2.26181E-05-1.92942E-05-2.87607E-05 3.93341E-20 1.84122E-18
 -1       827 9.58118E-05-2.77262E-05-2.91795E-05-1.07063E-06 2.74078E-19-1.72425E-20
 -1       828 1.25376E-04-5.03288E-05-3.21654E-05-2.82617E-06-4.58855E-19-4.17432E-19
 -1       829 1.17743E-04-2.06059E-05-4.18494E-05-1.24999E-05 7.36257E-20 6.42633E-19
 -1       830 5.11772E-05-9.23634E-06-1.77425E-05-8.17016E-06-8.46317E-19 3.54536E-18
 -1       831 5.55026E-05-8.71055E-06-1.98674E-05 1.62695E-07 1.59906E-18 6.47186E-19
 -1       832 9.29532E-05-1.92970E-05-3.15687E-05 2.27326E-08 6.32869E-19 4.59101E-19
 -1       833 9.34138E-05-2.01265E-05-3.14108E-05 2.22868E-06 5.37647E-19 4.45216E-19
 -1       834 9.39305E-05-2.10956E-05-3.12172E-05-3.09855E-06 6.20741E-19 3.19112E-19
 -1       835 9.33947E-05-2.00785E-05-3.14225E-05-2.19032E-06 6.74786E-19 2.10258E-19
 -1       836 1.11587E-04-2.38815E-05-3.76840E-05 1.15816E-05-1.03726E-18 1.61773E-18
 -1       837 1.15056E-04-5.02905E-05-2.77532E-05-1.89856E-05 2.94218E-19-1.76346E-20
 -1       838 9.49493E-05-2.33457E-05-3.06868E-05-2.11602E-06 4.32555E-19 3.41327E-19
 -1       839 7.63280E-05-1.50843E-05-2.62433E-05-1.43236E-06-2.66977E-20 4.01542E-19
 -1       840 9.56556E-05-2.52700E-05-3.01650E-05-8.22623E-07 1.89371E-19 4.75878E-19
 -1       841 9.59639E-05-2.65166E-05-2.97632E-05 1.63794E-07 3.54935E-19 4.13330E-19
 -1       842 9.59905E-05-2.72406E-05-2.94643E-05 8.89891E-07 2.77500E-20 3.34035E-19
 -1       843 9.58126E-05-2.75656E-05-2.92487E-05 1.41713E-06 9.15515E-20 5.28298E-19
 -1       844 9.54658E-05-2.75707E-05-2.90979E-05 1.81244E-06 6.27915E-20 5.01301E-19
 -1       845 9.49536E-05-2.73026E-05-2.89934E-05 2.12904E-06-2.63097E-19 5.39820E-19
 -1       846 9.42068E-05-2.67452E-05-2.89121E-05 2.41249E-06-2.40119E-19 7.34303E-19
 -1       847 9.32337E-05-2.59443E-05-2.88384E-05 2.64711E-06-3.94165E-19 8.81275E-19
 -1       848 9.19133E-05-2.48570E-05-2.87385E-05 2.83046E-06-2.57420E-19 5.87055E-19
 -1       849 9.01096E-05-2.34448E-05-2.85708E-05 2.91057E-06-1.85252E-19 8.90509E-19
 -1       850 8.76389E-05-2.16695E-05-2.82730E-05 2.79552E-06 1.71999E-20 1.04809E-18
 -1       851 8.42545E-05-1.95087E-05-2.77492E-05 2.34965E-06 1.54089E-19 1.00844E-18
 -1       852 7.96198E-05-1.69786E-05-2.68469E-05 1.39870E-06-8.99990E-19 1.33359E-18
 -1       853 7.32478E-05-1.41531E-05-2.53169E-05-2.36958E-07-7.99944E-19 1.60141E-18
 -1       854 6.37798E-05-1.09941E-05-2.25417E-05-2.79117E-06-9.52521E-19 1.61908E-18
 -1       855 9.48729E-05-2.31626E-05-3.07318E-05 2.29137E-06 3.13579E-19-1.10459E-20
 -1       856 9.64377E-05-4.00983E-05-2.40770E-05-2.83809E-05-1.64043E-19 1.55110E-19
 -1       857 8.18266E-05-1.78046E-05-2.74386E-05-2.33763E-06 8.47737E-19 2.75075E-19
 -1       858 8.57914E-05-2.01615E-05-2.81276E-05-2.71640E-06 1.14167E-18-6.63384E-19
 -1       859 8.86346E-05-2.21111E-05-2.85103E-05-2.73294E-06-8.18159E-19-1.60928E-19
 -1       860 9.06570E-05-2.36698E-05-2.87089E-05-2.52811E-06-1.19246E-18-2.68130E-19
 -1       861 9.20837E-05-2.48864E-05-2.87989E-05-2.20989E-06-3.48601E-19 3.05373E-19
 -1       862 9.31210E-05-2.58583E-05-2.88270E-05-1.83736E-06-1.42579E-18 1.26490E-18
 -1       863 9.38005E-05-2.65540E-05-2.88199E-05-1.49241E-06 5.34057E-19 1.35975E-18
 -1       864 9.42699E-05-2.70773E-05-2.87969E-05-1.18008E-06-5.30840E-20 2.03450E-18
 -1       865 9.45922E-05-2.74684E-05-2.87674E-05-9.11636E-07-1.98866E-19 6.82134E-19
 -1       866 9.48108E-05-2.77579E-05-2.87371E-05-6.90246E-07 4.35867E-20-1.77003E-19
 -1       867 9.49066E-05-2.79128E-05-2.87116E-05-5.20995E-07 9.18145E-19 1.07113E-18
 -1       868 9.47467E-05-2.77766E-05-2.87015E-05-3.75049E-07 2.62430E-18 5.47557E-19
 -1       869 9.58139E-05-2.82279E-05-2.89654E-05-1.99673E-06-2.34542E-19 4.39113E-19
 -1       870 9.58593E-05-2.89655E-05-2.86688E-05-3.28232E-06-1.01923E-19 3.57961E-19
 -1       871 9.56236E-05-2.86024E-05-2.87234E-05-2.95567E-06 1.59536E-19 8.57281E-20
 -1       872 9.73459E-05-3.06408E-05-2.85880E-05-3.77853E-06 5.27904E-19 2.71436E-19
 -1       873 9.88297E-05-3.21162E-05-2.85918E-05-3.74310E-06 3.01959E-19-2.27639E-19
 -1       874 1.00924E-04-3.40197E-05-2.86739E-05-3.27288E-06-4.39134E-20 1.01329E-18
 -1       875 1.03591E-04-3.61560E-05-2.89012E-05-2.10001E-06-6.19568E-19 9.87707E-19
 -1       876 1.06563E-04-3.80436E-05-2.93653E-05 4.69246E-08 7.11814E-20 5.93990E-19
 -1       877 1.09220E-04-3.88098E-05-3.01752E-05 3.25637E-06 4.33319E-21 4.16827E-19
 -1       878 1.10581E-04-3.72992E-05-3.14094E-05 7.12215E-06-7.29062E-19 4.29356E-19
 -1       879 1.09667E-04-3.26163E-05-3.30365E-05 1.02390E-05-6.67495E-19 9.45005E-19
 -1       880 1.03086E-04-1.92521E-05-3.59582E-05 6.19870E-06-8.81130E-19 1.26296E-18
 -1       881 1.02029E-04-1.72068E-05-3.63827E-05-1.09522E-06-8.33111E-19 1.80023E-18
 -1       882 1.03987E-04-2.07203E-05-3.57264E-05-7.81995E-06-1.28325E-18 2.36051E-18
 -1       883 1.07631E-04-2.77620E-05-3.42522E-05-1.06796E-05-1.80396E-18 2.82946E-18
 -1       884 1.10134E-04-3.42540E-05-3.25281E-05-9.50633E-06-1.18702E-18 2.91729E-18
 -1       885 1.10306E-04-3.79122E-05-3.10317E-05-6.08476E-06-8.27379E-19 2.76879E-18
 -1       886 1.08455E-04-3.86163E-05-2.99337E-05-2.38691E-06-1.01166E-18 2.95935E-18
 -1       887 1.05599E-04-3.73805E-05-2.92372E-05 4.86877E-07-7.02085E-19 2.27596E-18
 -1       888 1.02633E-04-3.53061E-05-2.88547E-05 2.27519E-06-6.73458E-19 3.67322E-18
 -1       889 1.00067E-04-3.31475E-05-2.86801E-05 3.14742E-06 2.28044E-19 1.99239E-18
 -1       890 9.80918E-05-3.12972E-05-2.86264E-05 3.38633E-06 1.19612E-18 1.17537E-18
 -1       891 9.66986E-05-2.98904E-05-2.86322E-05 3.24533E-06 2.50858E-18 1.87232E-18
 -1       892 9.57921E-05-2.89187E-05-2.86600E-05 2.90766E-06 1.76544E-18 1.18996E-18
 -1       893 9.52527E-05-2.83109E-05-2.86893E-05 2.49143E-06 1.24315E-18-5.65219E-21
 -1       894 9.49697E-05-2.79779E-05-2.87107E-05 2.06654E-06 4.01930E-19-4.07757E-19
 -1       895 9.48532E-05-2.78365E-05-2.87214E-05 1.67072E-06-1.94670E-19-3.84739E-19
 -1       896 9.48366E-05-2.78181E-05-2.87222E-05 1.32152E-06-1.64101E-19-7.97211E-19
 -1       897 9.48738E-05-2.78714E-05-2.87153E-05 1.02476E-06-3.47541E-19-9.83231E-19
 -1       898 9.49345E-05-2.79599E-05-2.87034E-05 7.79608E-07-8.24617E-20-1.40317E-18
 -1       899 9.47426E-05-2.78232E-05-2.86797E-05 3.35353E-07-9.26538E-19 1.49413E-18
 -1       900 9.46533E-05-2.77055E-05-2.86919E-05-1.85658E-07 6.81707E-19-7.89586E-19
 -1       901 9.63947E-05-2.96126E-05-2.86209E-05-3.58135E-06 1.18586E-20 1.07935E-18
 -1       902 9.30606E-05-1.94838E-05-3.15347E-05-1.11578E-06 6.32451E-19 2.93792E-19
 -1       903 9.86558E-05-4.23771E-05-2.40132E-05 2.98025E-05-8.55119E-19 2.71761E-18
 -1       904 1.13109E-04-1.67366E-05-4.15074E-05-9.64274E-06-6.50535E-19 1.84464E-18
 -1       905 1.19314E-04-3.59786E-05-3.57673E-05 1.08381E-05-8.92495E-19-3.56823E-19
 -1       906 6.86878E-05-1.20804E-05-2.42409E-05 6.30787E-09-2.80761E-19 8.61004E-20
 -1       907 1.22462E-04-4.93387E-05-3.13688E-05 4.21933E-06-1.99594E-18-4.70502E-19
 -1       908 9.48811E-05-2.79582E-05-2.86810E-05 4.59530E-07-4.29330E-19-2.41407E-18
 -1       909 9.43298E-05-2.18932E-05-3.10435E-05 3.77728E-07 6.12955E-19 2.22703E-19
 -1       910 9.44988E-05-2.22595E-05-3.09594E-05 1.08551E-06 3.56092E-19 4.70962E-19
 -1       911 8.24779E-05-3.02632E-05-2.22742E-05 2.88143E-05-5.24906E-19 1.47840E-18
 -1       912 8.37264E-05-3.01683E-05-2.28533E-05-2.69071E-05 1.96118E-19 1.45019E-18
 -1       913 9.59591E-05-2.80427E-05-2.91070E-05-1.62254E-06 1.69675E-19 3.54068E-19
 -1       914 9.56723E-05-2.83255E-05-2.88629E-05-2.32114E-06-3.82241E-19 3.07900E-19
 -1       915 9.46526E-05-2.77287E-05-2.86817E-05 1.61082E-07-3.34289E-19 4.44075E-18
 -1       916 1.06531E-04-2.55706E-05-3.47549E-05 1.03987E-05-1.02066E-19 1.02915E-18
 -1       917 9.49680E-05-2.80210E-05-2.86913E-05 6.11296E-07-7.75036E-19-2.35677E-18
 -1       918 1.18314E-04-4.93323E-05-2.95495E-05 1.06286E-05-2.06458E-18 2.20397E-19
 -1       919 9.46268E-05-2.76938E-05-2.86856E-05-1.08666E-08 3.70584E-20 2.11865E-18
 -1       920 6.13268E-05-1.46319E-05-1.98625E-05-1.80158E-05 3.01150E-19 2.47996E-18
 -1       921 9.55877E-05-2.84208E-05-2.87858E-05-2.63432E-06 8.65723E-20 3.84362E-19
 -1       922 9.60453E-05-2.70404E-05-2.95737E-05-4.94565E-07 3.85007E-19 3.13398E-19
 -1       923 9.58579E-05-2.60118E-05-2.99333E-05 4.04781E-07 4.46775E-19 2.21820E-19
 -1       924 6.03889E-05-1.19774E-05-2.06038E-05 1.21792E-05 1.29450E-18-2.18882E-19
 -1       925 9.45439E-05-2.23776E-05-3.09286E-05-1.60560E-06 4.81759E-19 3.15645E-19
 -1       926 1.19748E-04-4.26177E-05-3.30412E-05 5.76051E-06-5.84411E-19-1.34006E-19
 -1       927 1.22540E-04-4.57430E-05-3.29715E-05-2.87702E-06-1.14578E-18-1.91965E-18
 -1       928 1.17552E-04-4.80322E-05-2.97865E-05-7.63796E-06-7.66738E-20-1.88544E-19
 -1       929 9.57883E-05-2.54227E-05-3.01579E-05-3.28211E-07 3.58718E-19 4.53350E-19
 -1       930 9.60526E-05-2.65560E-05-2.97843E-05 3.38831E-07 8.46949E-20 5.07261E-19
 -1       931 9.60114E-05-2.71895E-05-2.94952E-05 8.18104E-07 2.09156E-19 4.04144E-19
 -1       932 9.57282E-05-2.74196E-05-2.92751E-05 1.15553E-06 8.48510E-20 3.97395E-19
 -1       933 9.52350E-05-2.73193E-05-2.91068E-05 1.38313E-06-2.03389E-19 4.29048E-19
 -1       934 9.44939E-05-2.69088E-05-2.89650E-05 1.52099E-06-3.33287E-19-3.94700E-20
 -1       935 9.35486E-05-2.62532E-05-2.88409E-05 1.55020E-06-2.14253E-19-1.52002E-20
 -1       936 9.23194E-05-2.53513E-05-2.87007E-05 1.44487E-06 1.60757E-19 5.30732E-19
 -1       937 9.07257E-05-2.42032E-05-2.85097E-05 1.13054E-06-2.19432E-20 1.13244E-18
 -1       938 8.86607E-05-2.28139E-05-2.82202E-05 4.85656E-07-1.73737E-19 1.18742E-18
 -1       939 8.59885E-05-2.12082E-05-2.77635E-05-6.72025E-07 2.91613E-19 1.02465E-18
 -1       940 8.25391E-05-1.94528E-05-2.70380E-05-2.59873E-06-1.41657E-19 9.48427E-19
 -1       941 7.81138E-05-1.76976E-05-2.58916E-05-5.65126E-06-5.25097E-19 1.31139E-18
 -1       942 7.21320E-05-1.60997E-05-2.39891E-05-1.04889E-05-3.54261E-19 1.57803E-18
 -1       943 1.07523E-04-1.54067E-05-3.95970E-05-6.16411E-06-1.72175E-18 9.16936E-19
 -1       944 8.36582E-05-1.95857E-05-2.74597E-05 1.33912E-06 2.11010E-19 2.14492E-19
 -1       945 8.67330E-05-2.13132E-05-2.80372E-05 2.04212E-08 1.93853E-20-1.24560E-18
 -1       946 8.90425E-05-2.28166E-05-2.83827E-05-6.88697E-07-2.13669E-19 1.43917E-18
 -1       947 9.07622E-05-2.40738E-05-2.85808E-05-1.00343E-06-1.38572E-18 2.74734E-18
 -1       948 9.20824E-05-2.51402E-05-2.86896E-05-1.07872E-06-1.16735E-18 2.77835E-18
 -1       949 9.29943E-05-2.59441E-05-2.87358E-05-1.01569E-06-2.62858E-19 2.91310E-18
 -1       950 9.36571E-05-2.65756E-05-2.87493E-05-8.88677E-07-7.12109E-19 7.68928E-19
 -1       951 9.41355E-05-2.70660E-05-2.87441E-05-7.39833E-07-7.50194E-19-7.11083E-19
 -1       952 9.44769E-05-2.74418E-05-2.87295E-05-5.94611E-07-7.09613E-19-4.78314E-19
 -1       953 9.46233E-05-2.76217E-05-2.87150E-05-4.75118E-07 1.51862E-18 1.01338E-20
 -1       954 1.09838E-04-2.19127E-05-3.77473E-05-1.07540E-05-1.74624E-18 1.39208E-18
 -1       955 9.42598E-05-2.17692E-05-3.10679E-05-9.28692E-07 6.53826E-19 2.88915E-19
 -1       956 9.90147E-05-3.28417E-05-2.83602E-05-5.57202E-06-4.54056E-19 1.70830E-18
 -1       957 9.71084E-05-3.08809E-05-2.83833E-05-5.08497E-06 4.51426E-19 1.45321E-18
 -1       958 1.05666E-04-3.85034E-05-2.87831E-05-4.70288E-06-1.16287E-19 9.08218E-19
 -1       959 1.10139E-04-4.13012E-05-2.95015E-05-2.25270E-06 6.40395E-20 5.15541E-19
 -1       960 1.14038E-04-4.21899E-05-3.08171E-05 1.83750E-06-5.41424E-19 1.05845E-18
 -1       961 9.47349E-05-2.77914E-05-2.86901E-05 6.39115E-07-3.35852E-20-1.88165E-18
 -1       962 1.15840E-04-3.46605E-05-3.48208E-05-1.07978E-05-1.09379E-18 4.68796E-20
 -1       963 1.13080E-04-4.21635E-05-3.03918E-05-5.49013E-07-1.50238E-18-1.74643E-19
 -1       964 1.08664E-04-4.03570E-05-2.92715E-05 3.07762E-06-1.28091E-18 2.02667E-18
 -1       965 1.04286E-04-3.73481E-05-2.86868E-05 4.90844E-06-1.66716E-18 2.85505E-18
 -1       966 1.00684E-04-3.43206E-05-2.84407E-05 5.42864E-06 5.26105E-19 1.97121E-18
 -1       967 9.80472E-05-3.18141E-05-2.83856E-05 5.17130E-06 1.22416E-18 1.39266E-18
 -1       968 9.62828E-05-2.99672E-05-2.84211E-05 4.54394E-06 2.94597E-18-9.22419E-19
 -1       969 9.52045E-05-2.87290E-05-2.84895E-05 3.80033E-06 1.43682E-18-9.61635E-20
 -1       970 9.46195E-05-2.79798E-05-2.85599E-05 3.07559E-06 1.71904E-18 1.93454E-18
 -1       971 9.43645E-05-2.75894E-05-2.86179E-05 2.43178E-06 1.97099E-19 1.87023E-18
 -1       972 9.43144E-05-2.74436E-05-2.86589E-05 1.88903E-06 4.91289E-19 1.75402E-18
 -1       973 9.43802E-05-2.74522E-05-2.86834E-05 1.44648E-06-1.80316E-19 2.37130E-19
 -1       974 9.45008E-05-2.75477E-05-2.86941E-05 1.09529E-06 6.33985E-19 1.13811E-18
 -1       975 9.46188E-05-2.76636E-05-2.86948E-05 8.43360E-07 1.31349E-18-1.31575E-18
 -1       976 9.44999E-05-2.75329E-05-2.87001E-05-2.40919E-07 1.55480E-18 3.59123E-19
 -1       977 1.01854E-04-3.54580E-05-2.84563E-05-5.59515E-06-2.46023E-19 1.12987E-18
 -1       978 9.51904E-05-2.83333E-05-2.86530E-05-3.17906E-06-5.66457E-20 1.47677E-19
 -1       979 7.96022E-05-1.77165E-05-2.65202E-05 3.57135E-06 4.67869E-19 1.46385E-18
 -1       980 9.60565E-05-2.76813E-05-2.93037E-05-1.14427E-06 4.10768E-19 2.07808E-19
 -1       981 9.52985E-05-2.40940E-05-3.05143E-05-9.27821E-07 2.95971E-19 3.97472E-19
 -1       982 9.42356E-05-2.17039E-05-3.10846E-05-2.62459E-07 6.39497E-19 4.04237E-19
 -1       983 1.05014E-04-4.27539E-05-2.66905E-05-1.94470E-05 4.53162E-19-2.95543E-20
 -1       984 9.46120E-05-2.25406E-05-3.08840E-05 1.71729E-06 2.26523E-19 2.53643E-19
 -1       985 1.09174E-04-4.56715E-05-2.71879E-05 1.89903E-05-1.75595E-18 2.71583E-19
 -1       986 7.42631E-05-1.57849E-05-2.50633E-05 7.04274E-06-1.64682E-19 2.03959E-18
 -1       987 9.52164E-05-2.37708E-05-3.06198E-05-4.57514E-09 5.24705E-19 1.56437E-19
 -1       988 9.72457E-05-3.79800E-05-2.53653E-05 2.32883E-05-1.83327E-18 1.11280E-18
 -1       989 9.53818E-05-2.87547E-05-2.85544E-05-3.77105E-06-6.88258E-19 4.43085E-19
 -1       990 9.52957E-05-2.39523E-05-3.05765E-05 3.83434E-07 4.40041E-19 2.15173E-19
 -1       991 7.46133E-05-2.18686E-05-2.25456E-05-2.13983E-05 1.03045E-19 1.87487E-18
 -1       992 9.59508E-05-2.79425E-05-2.91464E-05-1.51981E-06-2.43078E-20 7.69079E-19
 -1       993 1.12895E-04-2.73034E-05-3.67330E-05-1.18579E-05-1.11754E-18 7.35935E-19
 -1       994 9.52482E-05-2.81563E-05-2.87537E-05-2.67678E-06 5.23896E-19 3.56003E-19
 -1       995 9.59626E-05-2.95567E-05-2.84597E-05-4.43095E-06 6.36376E-19 7.16933E-19
 -1       996 9.54837E-05-3.59580E-05-2.54657E-05-2.16783E-05 3.72951E-20-3.20441E-19
 -1       997 1.16074E-04-4.08904E-05-3.22350E-05-5.80856E-06-7.15333E-19-3.98455E-19
 -1       998 1.16329E-04-4.53220E-05-3.04445E-05 2.50320E-06-1.99615E-18-9.93922E-19
 -1       999 9.44659E-05-2.75197E-05-2.86907E-05-2.47429E-08-1.10020E-18 2.74753E-18
 -1      1000 9.59917E-05-2.60871E-05-2.99593E-05 3.23100E-08 1.57581E-19 3.72850E-19
 -1      1001 9.45147E-05-2.75843E-05-2.86841E-05 3.57301E-07 5.08298E-19 2.58554E-18
 -1      1002 7.04987E-05-1.84414E-05-2.22313E-05 1.90291E-05 5.30610E-19 8.37345E-19
 -1      1003 9.57040E-05-2.80638E-05-2.89887E-05-1.88080E-06-2.38637E-19 7.73244E-19
 -1      1004 9.61672E-05-2.70640E-05-2.96159E-05-6.21655E-07 4.37214E-19 4.27953E-19
 -1      1005 9.52089E-05-2.37550E-05-3.06219E-05-3.52240E-07 4.94151E-19 4.07252E-19
 -1      1006 9.60862E-05-2.66974E-05-2.97380E-05 3.21788E-07 9.49113E-20 3.91805E-19
 -1      1007 9.59485E-05-2.72069E-05-2.94608E-05 5.56830E-07 1.22554E-19 5.41391E-19
 -1      1008 9.55598E-05-2.73309E-05-2.92411E-05 6.88606E-07-1.27257E-19 3.49300E-19
 -1      1009 9.49161E-05-2.71250E-05-2.90533E-05 7.12037E-07-5.12924E-19 4.05292E-19
 -1      1010 9.40907E-05-2.66689E-05-2.88951E-05 6.08278E-07-1.22111E-19 3.16241E-19
 -1      1011 9.30488E-05-2.60032E-05-2.87340E-05 3.39414E-07 1.81783E-19 8.50963E-19
 -1      1012 9.17674E-05-2.51691E-05-2.85422E-05-1.72738E-07-1.04959E-19 3.39109E-19
 -1      1013 9.02133E-05-2.42141E-05-2.82855E-05-1.04689E-06 9.97505E-20 3.33184E-19
 -1      1014 8.83585E-05-2.32163E-05-2.79182E-05-2.45642E-06-1.03186E-19 1.00959E-18
 -1      1015 8.61971E-05-2.23097E-05-2.73807E-05-4.63925E-06-2.28362E-20 1.00382E-18
 -1      1016 8.37808E-05-2.17211E-05-2.65956E-05-7.93050E-06-3.13532E-19 9.30406E-19
 -1      1017 8.10873E-05-2.18440E-05-2.53853E-05-1.30723E-05-3.41652E-19 1.04893E-18
 -1      1018 9.42995E-05-2.73745E-05-2.86826E-05 5.11716E-07 1.59267E-18 1.70071E-18
 -1      1019 9.84257E-05-3.31393E-05-2.79805E-05-8.20525E-06 9.70839E-20 1.14897E-18
 -1      1020 8.83866E-05-2.28416E-05-2.80905E-05 1.71733E-06 3.50724E-19 2.45229E-18
 -1      1021 9.00255E-05-2.38316E-05-2.83690E-05 6.86849E-07-1.53430E-20 2.75326E-18
 -1      1022 9.13784E-05-2.47730E-05-2.85454E-05 7.12592E-08-2.98588E-20 4.55065E-18
 -1      1023 9.23746E-05-2.55478E-05-2.86402E-05-2.28455E-07-1.09157E-18 4.74294E-18
 -1      1024 9.31397E-05-2.61982E-05-2.86893E-05-3.56691E-07-2.13004E-18 2.84991E-18
 -1      1025 9.37197E-05-2.67309E-05-2.87096E-05-3.84635E-07-2.18236E-18 2.39731E-18
 -1      1026 9.41526E-05-2.71580E-05-2.87123E-05-3.60923E-07-9.24963E-19 3.33772E-19
 -1      1027 9.43400E-05-2.73577E-05-2.87067E-05-2.97470E-07 1.62254E-18 3.95995E-19
 -1      1028 1.05346E-04-3.93319E-05-2.82846E-05 9.05726E-06-1.77318E-18-1.41523E-18
 -1      1029 9.59292E-05-2.57331E-05-3.00847E-05-3.10353E-08 2.52685E-19 4.00185E-19
 -1      1030 9.61962E-05-3.06886E-05-2.80746E-05-6.87465E-06-6.02303E-19 9.03174E-19
 -1      1031 1.07283E-04-4.08886E-05-2.84406E-05-8.84230E-06 3.11736E-19 5.18681E-19
 -1      1032 9.52373E-05-2.38561E-05-3.05894E-05-6.47252E-07 4.06315E-19 4.88392E-19
 -1      1033 1.12346E-04-4.50323E-05-2.88500E-05 9.87152E-06-2.84054E-18-6.73380E-19
 -1      1034 1.10893E-04-4.31125E-05-2.90472E-05 6.95745E-06-2.41664E-18-6.39325E-19
 -1      1035 9.72921E-05-3.19174E-05-2.80172E-05 7.66782E-06 1.27631E-18-1.83798E-18
 -1      1036 9.52840E-05-2.96552E-05-2.81264E-05 6.25653E-06 2.99912E-18-2.07678E-18
 -1      1037 9.41693E-05-2.82149E-05-2.82660E-05 4.90278E-06 1.50183E-18 5.19844E-20
 -1      1038 9.36599E-05-2.73981E-05-2.83977E-05 3.73620E-06 2.28219E-19 6.60432E-19
 -1      1039 9.35287E-05-2.70170E-05-2.85049E-05 2.79282E-06 7.29279E-19 1.62209E-18
 -1      1040 9.36149E-05-2.69196E-05-2.85837E-05 2.05886E-06 4.26823E-19 2.15032E-18
 -1      1041 9.38117E-05-2.69937E-05-2.86363E-05 1.50222E-06 5.55985E-19 2.27171E-18
 -1      1042 9.40468E-05-2.71569E-05-2.86671E-05 1.08841E-06-2.49986E-19 1.63255E-18
 -1      1043 9.53277E-05-2.41714E-05-3.04975E-05 1.02927E-06 1.67808E-19 9.96230E-20
 -1      1044 1.02053E-04-3.66185E-05-2.80468E-05-9.07289E-06-4.80513E-20 3.95090E-19
 -1      1045 9.44397E-05-2.75074E-05-2.86856E-05 2.00370E-07-1.40718E-18 3.66351E-18
 -1      1046 8.39519E-05-2.09881E-05-2.69809E-05 6.01827E-06-5.39628E-19 2.56256E-18
 -1      1047 9.61281E-05-2.76455E-05-2.93499E-05-1.11959E-06 1.17711E-19 4.77143E-19
 -1      1048 8.63662E-05-2.18441E-05-2.76518E-05 3.39463E-06-4.91478E-19 3.17382E-18
 -1      1049 9.54472E-05-2.81022E-05-2.88622E-05-2.25319E-06-2.04124E-19 4.65544E-19
 -1      1050 8.11309E-05-2.05546E-05-2.59647E-05 1.00152E-05-2.86642E-19 2.60108E-18
 -1      1051 1.00551E-04-3.51637E-05-2.80150E-05 8.82491E-06 1.13496E-19-1.18418E-18
 -1      1052 1.05139E-04-4.13169E-05-2.73475E-05 1.58079E-05-1.94936E-18-1.07630E-18
 -1      1053 8.65979E-05-2.88465E-05-2.47464E-05-2.04712E-05 5.98751E-19 1.08418E-18
 -1      1054 8.39583E-05-2.71116E-05-2.43210E-05 2.10414E-05 1.37598E-18-6.30731E-19
 -1      1055 9.60053E-05-2.59107E-05-3.00387E-05-7.16038E-08 2.29515E-19 1.09514E-20
 -1      1056 9.49756E-05-2.91167E-05-2.82251E-05-5.53329E-06 2.74551E-19-1.82392E-19
 -1      1057 9.44062E-05-2.78166E-05-2.85382E-05-3.40271E-06-2.92324E-19 2.00556E-19
 -1      1058 9.42931E-05-2.73415E-05-2.86935E-05-3.85446E-08-2.42127E-18 4.70820E-18
 -1      1059 1.01079E-04-3.78922E-05-2.70883E-05-1.53793E-05 3.12049E-19 2.41806E-19
 -1      1060 9.57854E-05-2.52309E-05-3.02378E-05-6.85138E-08 2.34090E-19 4.42521E-19
 -1      1061 9.46186E-05-2.76983E-05-2.86798E-05-2.66518E-06 2.03133E-19 3.82518E-19
 -1      1062 9.41532E-05-2.72410E-05-2.86767E-05 7.68135E-07 1.56501E-19 1.23575E-18
 -1      1063 9.60472E-05-2.75976E-05-2.93355E-05-9.65732E-07-1.96909E-19 3.93926E-19
 -1      1064 9.58918E-05-2.55093E-05-3.01636E-05-3.46075E-08 2.67891E-19 1.14622E-19
 -1      1065 9.57600E-05-2.77854E-05-2.91319E-05-1.29829E-06-8.33351E-20 2.73435E-19
 -1      1066 8.12679E-05-2.26412E-05-2.51367E-05 1.51184E-05 1.57950E-18 1.01535E-18
 -1      1067 9.44622E-05-2.82284E-05-2.83858E-05-4.35647E-06-1.82947E-19-3.36823E-19
 -1      1068 9.58473E-05-2.72960E-05-2.93791E-05 1.07531E-07 6.02951E-20 1.18642E-19
 -1      1069 9.53549E-05-2.73255E-05-2.91556E-05 3.05706E-08-3.67554E-19 1.32152E-19
 -1      1070 9.46886E-05-2.70831E-05-2.89739E-05-1.52191E-07-3.62654E-19 6.22175E-19
 -1      1071 9.38669E-05-2.66591E-05-2.88033E-05-4.92868E-07 4.41887E-19 4.40845E-19
 -1      1072 9.28975E-05-2.61156E-05-2.86210E-05-1.06374E-06-7.58150E-20 4.40078E-19
 -1      1073 9.18218E-05-2.55496E-05-2.84028E-05-1.96178E-06 4.08286E-21 8.59619E-19
 -1      1074 9.06715E-05-2.50593E-05-2.81203E-05-3.31546E-06 1.28761E-19 9.21186E-19
 -1      1075 8.95467E-05-2.48185E-05-2.77416E-05-5.30130E-06-4.18997E-19 2.54401E-19
 -1      1076 8.86245E-05-2.50783E-05-2.72335E-05-8.12079E-06-2.17282E-19-1.26777E-19
 -1      1077 8.81753E-05-2.63112E-05-2.65139E-05-1.22108E-05 1.45494E-19 1.69632E-19
 -1      1078 9.24283E-05-2.71823E-05-2.79620E-05 6.15124E-06 7.64348E-19 3.02156E-19
 -1      1079 9.63915E-05-3.25615E-05-2.73473E-05-1.16878E-05 6.88977E-20 1.75906E-19
 -1      1080 9.11909E-05-2.48888E-05-2.84157E-05 1.47963E-06 3.72637E-19 1.17467E-18
 -1      1081 9.20767E-05-2.54675E-05-2.85472E-05 7.93901E-07-5.74205E-19 1.61182E-18
 -1      1082 9.28158E-05-2.60211E-05-2.86265E-05 3.75479E-07-1.26396E-18 2.50030E-18
 -1      1083 9.34164E-05-2.65195E-05-2.86701E-05 1.31987E-07-1.67348E-18 2.63552E-18
 -1      1084 9.38922E-05-2.69490E-05-2.86898E-05 2.92966E-09-1.08036E-18 5.32356E-18
 -1      1085 9.41129E-05-2.71575E-05-2.86934E-05-2.56599E-08-1.69053E-18 7.15347E-18
 -1      1086 9.45172E-05-3.29881E-05-2.63512E-05-1.66954E-05 3.32792E-19-2.48596E-19
 -1      1087 9.41865E-05-2.97696E-05-2.76089E-05-9.12599E-06 2.17638E-19-2.19994E-20
 -1      1088 8.71198E-05-2.45347E-05-2.68248E-05 1.00892E-05 9.11647E-19 6.81079E-19
 -1      1089 9.60848E-05-2.69248E-05-2.96399E-05 9.95239E-08 2.03326E-19 3.58865E-19
 -1      1090 1.05468E-04-4.02877E-05-2.79260E-05 1.18486E-05-1.31389E-18-1.42638E-18
 -1      1091 9.22154E-05-2.64367E-05-2.81901E-05 4.40749E-06 7.00619E-19 1.12507E-18
 -1      1092 9.33102E-05-2.86876E-05-2.76959E-05 8.35810E-06 1.62625E-18-3.00324E-18
 -1      1093 9.23712E-05-2.61792E-05-2.83674E-05 3.09384E-06-2.55457E-19 1.27533E-18
 -1      1094 9.27085E-05-2.62171E-05-2.84959E-05 2.13664E-06 8.64733E-19 8.38661E-19
 -1      1095 9.31129E-05-2.64187E-05-2.85830E-05 1.45659E-06 1.32615E-19-2.06488E-19
 -1      1096 9.35174E-05-2.66962E-05-2.86374E-05 9.82468E-07-5.45078E-20 1.10500E-19
 -1      1097 9.41398E-05-2.72165E-05-2.86822E-05 3.32630E-07-7.52696E-19 3.59598E-19
 -1      1098 9.61810E-05-2.69954E-05-2.96501E-05-5.11335E-07 7.84736E-20 1.66089E-19
 -1      1099 9.49795E-05-2.77357E-05-2.88184E-05-2.09969E-06-1.32076E-20 1.16255E-19
 -1      1100 9.01694E-05-2.43483E-05-2.82102E-05 2.55826E-06 1.06540E-18 1.51605E-18
 -1      1101 8.79400E-05-2.39023E-05-2.74467E-05 6.66343E-06-4.90890E-19 2.00477E-18
 -1      1102 9.53811E-05-2.77960E-05-2.89647E-05-1.66039E-06-7.97297E-20-1.33886E-20
 -1      1103 8.90307E-05-2.39494E-05-2.78936E-05 4.24248E-06-8.62019E-19 1.16109E-18
 -1      1104 9.60683E-05-2.62722E-05-2.99128E-05 2.61280E-08 5.17393E-20 3.15382E-19
 -1      1105 9.42060E-05-3.29953E-05-2.62208E-05 1.74398E-05 9.33473E-19-3.80333E-19
 -1      1106 9.31652E-05-2.80806E-05-2.78926E-05-6.81705E-06-6.14049E-19 1.00854E-19
 -1      1107 9.53088E-05-3.12615E-05-2.74413E-05 1.08685E-05 3.23348E-19-3.23689E-18
 -1      1108 9.61449E-05-2.66973E-05-2.97636E-05-2.27615E-07 4.62140E-20 2.90561E-19
 -1      1109 9.94673E-05-3.53702E-05-2.74785E-05 1.21877E-05 1.65659E-19-2.91514E-18
 -1      1110 8.88754E-05-2.71700E-05-2.64560E-05 1.35259E-05 1.66634E-18-1.24042E-18
 -1      1111 9.36618E-05-2.69927E-05-2.85722E-05-2.54871E-06 2.14248E-19-8.93847E-20
 -1      1112 9.58346E-05-2.75183E-05-2.92783E-05-6.68519E-07 1.19608E-19 2.75213E-20
 -1      1113 9.31834E-05-2.69595E-05-2.83809E-05-3.57192E-06 3.08235E-21-5.58675E-19
 -1      1114 9.60783E-05-2.72500E-05-2.94981E-05-4.26013E-07-1.28868E-19 3.54764E-20
 -1      1115 9.38354E-05-2.69453E-05-2.86672E-05 5.96889E-07-1.04024E-20 6.25883E-19
 -1      1116 9.52342E-05-2.74365E-05-2.90564E-05-7.43141E-07-1.25330E-19 1.28285E-19
 -1      1117 9.46141E-05-2.72219E-05-2.88824E-05-1.10138E-06 1.39280E-20 2.88293E-19
 -1      1118 9.39182E-05-2.69235E-05-2.87125E-05-1.63440E-06 2.35396E-19 2.09240E-19
 -1      1119 9.29454E-05-2.72473E-05-2.81554E-05-4.97211E-06-3.88940E-19-3.88345E-19
 -1      1120 1.16691E-04 2.57128E-10-4.18001E-05-4.14072E-05-6.60686E-20-1.72244E-18
 -1      1121 8.85815E-05 7.18957E-11-3.72218E-05-2.41311E-05 7.41154E-22-1.47188E-18
 -1      1122 8.40596E-05 4.14685E-11-3.57582E-05-1.78399E-05 3.70577E-22-1.02897E-18
 -1      1123 8.23528E-05 3.20569E-11-3.50791E-05-1.37940E-05 1.60142E-20-6.33455E-19
 -1      1124 8.15741E-05 2.73193E-11-3.47549E-05-1.04866E-05 2.03156E-20-2.90903E-19
 -1      1125 8.11825E-05 2.45370E-11-3.45957E-05-7.59696E-06 1.09188E-20-3.84937E-20
 -1      1126 8.09795E-05 2.28343E-11-3.45156E-05-4.94541E-06 1.87042E-20 1.25731E-19
 -1      1127 8.08793E-05 2.19050E-11-3.44776E-05-2.41217E-06 1.88498E-20 3.11394E-19
 -1      1128 8.08497E-05 2.16198E-11-3.44665E-05 5.50353E-08 1.91434E-20 4.43657E-19
 -1      1129 8.08807E-05 2.19428E-11-3.44779E-05 2.52434E-06 2.25523E-20 6.19800E-19
 -1      1130 8.09830E-05 2.29227E-11-3.45165E-05 5.06468E-06 1.50381E-20 7.90877E-19
 -1      1131 8.11915E-05 2.46819E-11-3.45975E-05 7.73065E-06 1.92766E-20 1.02661E-18
 -1      1132 8.15879E-05 2.76012E-11-3.47588E-05 1.06456E-05 2.41801E-20 1.32424E-18
 -1      1133 8.23738E-05 3.25159E-11-3.50872E-05 1.39954E-05 1.57760E-20 1.68118E-18
 -1      1134 8.40571E-05 4.19406E-11-3.57773E-05 1.80878E-05 1.33408E-20 2.12486E-18
 -1      1135 8.82818E-05 6.67297E-11-3.72934E-05 2.39707E-05-1.34466E-20 2.54814E-18
 -1      1136 1.06474E-04 1.63715E-10-4.05833E-05 3.61412E-05-1.08632E-19 2.61299E-18
 -1      1137 1.30000E-04-2.57127E-05-4.02113E-05-2.60658E-05-1.53313E-19-2.01933E-18
 -1      1138 9.72901E-05-2.88130E-05-3.15262E-05-6.79267E-07-3.77459E-20-2.42611E-18
 -1      1139 9.00192E-05-2.69852E-05-2.78503E-05 3.85965E-07 3.83812E-22-2.61556E-18
 -1      1140 8.81338E-05-2.65387E-05-2.66094E-05 2.49317E-07 2.19997E-20-2.67575E-18
 -1      1141 8.78100E-05-2.64229E-05-2.63642E-05 1.63968E-07 2.62051E-21-2.63038E-18
 -1      1142 8.82220E-05-2.65161E-05-2.64660E-05 1.15810E-07-3.67996E-20-2.56119E-18
 -1      1143 8.89916E-05-2.67272E-05-2.66948E-05 8.51084E-08-3.07496E-20-2.48485E-18
 -1      1144 8.99590E-05-2.70042E-05-2.69855E-05 6.33912E-08-8.71509E-20-2.94994E-18
 -1      1145 9.10161E-05-2.73166E-05-2.73028E-05 4.77309E-08 2.79794E-20-3.12058E-18
 -1      1146 9.20998E-05-2.76399E-05-2.76306E-05 3.69402E-08-3.57532E-20-3.57046E-18
 -1      1147 9.32473E-05-2.79847E-05-2.79797E-05 2.94778E-08-4.20975E-20-4.04027E-18
 -1      1148 9.45054E-05-2.83649E-05-2.83650E-05 2.56308E-08-9.67532E-20-3.47448E-18
 -1      1149 9.59598E-05-2.88060E-05-2.88132E-05 2.62186E-08-2.65285E-20-3.21333E-18
 -1      1150 9.77431E-05-2.93489E-05-2.93656E-05 3.27582E-08 1.06946E-20-3.76449E-18
 -1      1151 1.00117E-04-3.00677E-05-3.01050E-05 4.81236E-08 1.06840E-19-3.29420E-18
 -1      1152 1.03330E-04-3.10431E-05-3.11070E-05 8.59881E-08-1.34225E-19-3.35678E-18
 -1      1153 1.07676E-04-3.23563E-05-3.24628E-05 1.47937E-07-2.38559E-20-4.09816E-18
 -1      1154 1.13712E-04-3.41728E-05-3.43355E-05 2.52767E-07-1.10465E-19-5.22492E-18
 -1      1155 1.21981E-04-3.66519E-05-3.68620E-05 4.16357E-07 7.28548E-20-5.86634E-18
 -1      1156 1.32835E-04-3.98978E-05-4.00700E-05 6.34297E-07-5.76379E-21-5.50571E-18
 -1      1157 1.45782E-04-4.37671E-05-4.36545E-05 8.19857E-07-4.80972E-20-4.41812E-18
 -1      1158 1.58175E-04-4.74511E-05-4.66584E-05 6.98309E-07 1.84283E-19-3.96427E-18
 -1      1159 1.63477E-04-4.89409E-05-4.73294E-05-3.36322E-07 7.62330E-20-5.46527E-18
 -1      1160 1.51718E-04-4.52081E-05-4.39041E-05-2.66724E-06 2.44065E-19-6.36715E-18
 -1      1161 1.22497E-04-3.60466E-05-3.74855E-05-4.48085E-06-6.91060E-20-6.32903E-18
 -1      1162 9.14119E-05-2.69531E-05-3.13999E-05-3.25403E-06 9.98705E-20-6.12151E-18
 -1      1163 8.19230E-05-2.45075E-05-2.96299E-05 1.14521E-06 3.55913E-19-3.17426E-18
 -1      1164 1.03592E-04-3.05390E-05-3.37140E-05 4.32614E-06-7.52536E-20-1.01644E-19
 -1      1165 1.38086E-04-4.09282E-05-4.07178E-05 3.80158E-06-1.99503E-19-2.05067E-18
 -1      1166 1.59891E-04-4.77122E-05-4.60879E-05 1.51399E-06 3.30290E-19-1.66294E-18
 -1      1167 1.62824E-04-4.87979E-05-4.75178E-05-2.43902E-07-5.59545E-19-1.74558E-18
 -1      1168 1.53430E-04-4.60505E-05-4.55909E-05-8.13606E-07-1.02273E-19-7.81176E-19
 -1      1169 1.40307E-04-4.21326E-05-4.21824E-05-7.59917E-07-1.39463E-21-1.69682E-18
 -1      1170 1.28154E-04-3.85000E-05-3.87067E-05-5.39385E-07-1.08007E-19-1.77877E-18
 -1      1171 1.18506E-04-3.56135E-05-3.58080E-05-3.40758E-07-1.03652E-19-3.26441E-18
 -1      1172 1.11245E-04-3.34246E-05-3.35696E-05-2.12154E-07 3.56932E-19-2.82409E-18
 -1      1173 1.06108E-04-3.18831E-05-3.19708E-05-1.10094E-07 1.79465E-19-2.26825E-18
 -1      1174 1.02632E-04-3.08302E-05-3.08837E-05-6.09495E-08 9.23779E-20-1.86788E-18
 -1      1175 1.00221E-04-3.00979E-05-3.01297E-05-3.24124E-08 1.71160E-20-3.71407E-18
 -1      1176 9.85560E-05-2.95906E-05-2.96095E-05-1.62509E-08 4.24216E-19-4.77424E-18
 -1      1177 9.74086E-05-2.92403E-05-2.92514E-05-7.23842E-09-3.89192E-19-5.59372E-18
 -1      1178 9.66205E-05-2.89995E-05-2.90057E-05-2.37919E-09 4.21614E-19-4.56937E-18
 -1      1179 9.60718E-05-2.88303E-05-2.88349E-05-7.43615E-10-2.63292E-19-3.65092E-18
 -1      1180 9.57045E-05-2.87183E-05-2.87205E-05 1.76473E-09 2.60521E-19-6.41035E-18
 -1      1181 9.54698E-05-2.86460E-05-2.86474E-05 2.42737E-09 2.45478E-19-7.23184E-18
 -1      1182 9.53219E-05-2.86003E-05-2.86014E-05 2.81991E-09 3.67102E-19-5.84041E-18
 -1      1183 9.52379E-05-2.85741E-05-2.85752E-05 3.29589E-09 1.84559E-19-1.78620E-18
 -1      1184 9.52030E-05-2.85629E-05-2.85638E-05 4.22485E-09 1.97604E-19 2.15047E-18
 -1      1185 9.52064E-05-2.85635E-05-2.85624E-05 5.60368E-09-1.70694E-19-5.02623E-19
 -1      1186 9.52289E-05-2.85718E-05-2.85631E-05 3.31195E-09 6.38759E-19-2.16918E-18
 -1      1187 1.30842E-04-3.76744E-05-3.86032E-05 1.21585E-05-3.55224E-20 2.41574E-18
 -1      1188 9.64073E-05-2.81465E-05-3.12827E-05 8.01122E-07-3.24519E-20 3.09823E-18
 -1      1189 9.02490E-05-2.68985E-05-2.78335E-05 1.20447E-07-3.31534E-20 3.66532E-18
 -1      1190 8.82460E-05-2.64791E-05-2.66509E-05 8.98348E-09 3.01210E-20 3.93251E-18
 -1      1191 8.78874E-05-2.64012E-05-2.64016E-05-2.46998E-08-6.80075E-20 4.32598E-18
 -1      1192 8.82895E-05-2.65133E-05-2.64957E-05-3.17782E-08-1.83675E-20 4.44766E-18
 -1      1193 8.90592E-05-2.67350E-05-2.67214E-05-3.19825E-08 6.74760E-20 4.64195E-18
 -1      1194 9.00024E-05-2.70120E-05-2.70022E-05-2.96525E-08 6.18421E-21 4.57092E-18
 -1      1195 9.10189E-05-2.73135E-05-2.73060E-05-2.65026E-08-3.81638E-20 4.08923E-18
 -1      1196 9.20579E-05-2.76229E-05-2.76174E-05-2.34272E-08 4.05776E-20 3.71805E-18
 -1      1197 9.30969E-05-2.79329E-05-2.79295E-05-2.11508E-08 3.32917E-20 3.55414E-18
 -1      1198 9.41271E-05-2.82404E-05-2.82390E-05-2.03298E-08 4.92379E-21 3.53693E-18
 -1      1199 9.51426E-05-2.85430E-05-2.85432E-05-2.15413E-08-2.99894E-20 3.98586E-18
 -1      1200 9.61287E-05-2.88361E-05-2.88367E-05-2.51935E-08-1.27828E-19 3.86255E-18
 -1      1201 9.70508E-05-2.91092E-05-2.91080E-05-3.13280E-08 1.94327E-20 3.15219E-18
 -1      1202 9.78427E-05-2.93422E-05-2.93360E-05-3.92979E-08 4.28393E-20 2.58677E-18
 -1      1203 9.83969E-05-2.95033E-05-2.94878E-05-4.73426E-08-2.25714E-19 2.50509E-18
 -1      1204 9.85610E-05-2.95478E-05-2.95180E-05-5.21883E-08 8.17039E-20 3.01425E-18
 -1      1205 9.81481E-05-2.94210E-05-2.93732E-05-4.89817E-08-1.49601E-19 2.43767E-18
 -1      1206 9.69673E-05-2.90678E-05-2.90013E-05-3.20557E-08-1.56054E-19 3.83934E-18
 -1      1207 9.48824E-05-2.84487E-05-2.83699E-05 2.96862E-09 1.55608E-19 2.57914E-18
 -1      1208 9.18938E-05-2.75643E-05-2.74881E-05 5.57676E-08 1.58720E-19 7.84723E-19
 -1      1209 8.82212E-05-2.64783E-05-2.64273E-05 1.17934E-07-8.97193E-20 1.44361E-18
 -1      1210 8.43425E-05-2.53295E-05-2.53274E-05 1.72357E-07-4.54536E-22 8.58838E-19
 -1      1211 8.09400E-05-2.43170E-05-2.43782E-05 1.98035E-07-1.78373E-20 2.34173E-18
 -1      1212 7.87321E-05-2.36531E-05-2.37720E-05 1.79835E-07 2.35622E-19 2.63728E-18
 -1      1213 7.82380E-05-2.34947E-05-2.36441E-05 1.17959E-07-1.19179E-19 1.04340E-18
 -1      1214 7.95809E-05-2.38838E-05-2.40244E-05 2.99507E-08-1.08344E-20 1.38167E-18
 -1      1215 8.24391E-05-2.47293E-05-2.48267E-05-5.73423E-08-2.93699E-19 6.21775E-19
 -1      1216 8.61731E-05-2.58427E-05-2.58804E-05-1.20568E-07 3.07893E-20 8.88617E-19
 -1      1217 9.00565E-05-2.70059E-05-2.69886E-05-1.48935E-07-5.23134E-20 3.84897E-19
 -1      1218 9.34917E-05-2.80378E-05-2.79842E-05-1.45130E-07-2.32962E-19 7.31439E-19
 -1      1219 9.61260E-05-2.88304E-05-2.87625E-05-1.20029E-07 7.33097E-20 3.38691E-18
 -1      1220 9.78569E-05-2.93520E-05-2.92872E-05-8.60645E-08-2.69485E-19 2.95565E-18
 -1      1221 9.87662E-05-2.96266E-05-2.95748E-05-5.28333E-08-2.45871E-20 2.40181E-18
 -1      1222 9.90326E-05-2.97078E-05-2.96721E-05-2.57021E-08-1.65365E-19 1.38828E-18
 -1      1223 9.88599E-05-2.96570E-05-2.96359E-05-6.42116E-09-1.17785E-19 1.43085E-18
 -1      1224 9.84310E-05-2.95291E-05-2.95193E-05 5.53263E-09 8.18348E-20 2.50763E-18
 -1      1225 9.78879E-05-2.93667E-05-2.93646E-05 1.17173E-08-7.48335E-20 1.28455E-18
 -1      1226 9.73280E-05-2.91992E-05-2.92016E-05 1.38958E-08 1.57935E-19 1.12064E-18
 -1      1227 9.68105E-05-2.90442E-05-2.90488E-05 1.36077E-08 1.98247E-19-1.79423E-18
 -1      1228 9.63655E-05-2.89108E-05-2.89161E-05 1.20176E-08 1.07905E-19-5.72363E-19
 -1      1229 9.60032E-05-2.88021E-05-2.88073E-05 9.91721E-09-2.50953E-19 7.50096E-19
 -1      1230 9.57216E-05-2.87177E-05-2.87221E-05 7.79085E-09-1.47964E-20 4.34176E-19
 -1      1231 9.55129E-05-2.86550E-05-2.86587E-05 5.89443E-09-2.14823E-19-4.00729E-19
 -1      1232 9.53667E-05-2.86110E-05-2.86142E-05 4.30298E-09 1.45320E-19-1.03846E-18
 -1      1233 9.52734E-05-2.85829E-05-2.85858E-05 2.91728E-09 1.57630E-20-2.31766E-18
 -1      1234 9.52254E-05-2.85682E-05-2.85710E-05 1.27468E-09-2.13175E-19-1.47194E-18
 -1      1235 9.52162E-05-2.85649E-05-2.85661E-05-1.50031E-09 4.49470E-19-2.76431E-18
 -1      1236 9.52297E-05-2.85693E-05-2.85646E-05-2.48705E-09-1.44493E-19-3.06907E-18
 -1      1237 9.52390E-05-2.85789E-05-2.85648E-05-2.66470E-09-3.60833E-18-1.60048E-20
 -1      1238 9.52421E-05-2.85908E-05-2.85666E-05-3.99511E-09-3.59209E-18 6.04623E-19
 -1      1239 9.52383E-05-2.85784E-05-2.85721E-05-7.82028E-10 1.14791E-18 4.77165E-19
 -1      1240 9.52254E-05-2.85338E-05-2.85847E-05 1.46346E-09 1.86684E-18 3.88780E-19
 -1      1241 9.52060E-05-2.84674E-05-2.86031E-05 2.55542E-09 5.32873E-18 1.79313E-19
 -1      1242 9.51847E-05-2.83947E-05-2.86234E-05 2.72988E-09 5.30704E-18-5.96348E-19
 -1      1243 9.51660E-05-2.83304E-05-2.86414E-05 2.19043E-09 3.41159E-18 8.47039E-19
 -1      1244 9.51533E-05-2.82870E-05-2.86536E-05 1.07770E-09 2.52446E-18-1.19652E-18
 -1      1245 9.51496E-05-2.82741E-05-2.86572E-05-3.23425E-10-1.50598E-18-3.97707E-20
 -1      1246 9.51557E-05-2.82948E-05-2.86513E-05-1.72406E-09-1.34726E-19 3.56572E-19
 -1      1247 9.51706E-05-2.83458E-05-2.86369E-05-2.79586E-09 2.48070E-18-1.48840E-18
 -1      1248 9.51914E-05-2.84168E-05-2.86171E-05-3.22461E-09-5.79298E-18-9.51237E-19
 -1      1249 9.52138E-05-2.84936E-05-2.85958E-05-2.71514E-09-4.70374E-18 7.50429E-20
 -1      1250 9.52330E-05-2.85593E-05-2.85776E-05-1.05099E-09 1.35348E-18-2.79842E-19
 -1      1251 9.52443E-05-2.85974E-05-2.85668E-05 1.73386E-09 6.83060E-18-7.41463E-20
 -1      1252 9.52442E-05-2.85993E-05-2.85636E-05 5.28739E-09 6.22522E-18 1.76570E-20
 -1      1253 9.52360E-05-2.85786E-05-2.85632E-05 2.05774E-09 3.45616E-18-1.23219E-18
 -1      1254 3.49204E-05-1.10367E-04 1.90699E-05-1.37404E-05-6.51834E-18-9.53971E-19
 -1      1255 1.55465E-05-5.65243E-05 7.63798E-06-2.01045E-05-4.56635E-18-9.15219E-19
 -1      1256 9.48494E-06 2.84232E-06-1.04053E-05 1.16004E-05-2.17857E-18-1.10961E-18
 -1      1257 4.33528E-05 3.03312E-05-3.09557E-05 6.68639E-05-3.01544E-19 1.36033E-18
 -1      1258 1.25868E-04 1.02355E-05-5.19336E-05 1.12282E-04 2.65968E-18 2.82570E-18
 -1      1259 2.32451E-04-4.28850E-05-6.95260E-05 1.08389E-04 6.41204E-19 2.47334E-18
 -1      1260 3.06828E-04-8.70727E-05-7.97108E-05 4.70291E-05 6.75085E-19 6.07873E-18
 -1      1261 3.12919E-04-9.14882E-05-8.01587E-05-3.87859E-05-1.31954E-18 9.22546E-18
 -1      1262 2.41489E-04-4.92061E-05-7.08111E-05-1.05737E-04-2.90151E-18 8.69564E-18
 -1      1263 1.34970E-04 6.59920E-06-5.38089E-05-1.14839E-04-5.16690E-18 8.07053E-18
 -1      1264 4.92001E-05 2.97277E-05-3.27258E-05-7.13978E-05-8.40087E-18 7.73172E-18
 -1      1265 9.86581E-06 6.14470E-06-1.14946E-05-1.40551E-05-9.99499E-18 6.41797E-18
 -1      1266 1.34925E-05-4.96563E-05 6.00217E-06 1.99007E-05-7.37257E-18 3.06584E-18
 -1      1267 3.26360E-05-1.04938E-04 1.79489E-05 1.65365E-05-2.91464E-18 9.98228E-19
 -1      1268 3.76831E-05-1.20815E-04 2.13961E-05-1.23129E-05 3.71847E-18 1.28627E-18
 -1      1269 2.35946E-05-9.04641E-05 1.52104E-05-3.40985E-05 7.29041E-18 2.25501E-18
 -1      1270 7.27730E-06-3.23259E-05 5.68823E-07-2.00175E-05 7.80117E-18 4.41304E-18
 -1      1271 2.38942E-05 1.26105E-05-2.05854E-05 3.15764E-05 4.04712E-18 3.45081E-18
 -1      1272 9.65352E-05 1.36300E-05-4.46412E-05 9.24365E-05 1.83129E-18 2.51569E-18
 -1      1273 2.15329E-04-3.18694E-05-6.72143E-05 1.17760E-04 1.25191E-18 2.43607E-18
 -1      1274 3.27573E-04-9.02304E-05-8.30064E-05 7.63517E-05 5.87417E-19 1.86008E-18
 -1      1275 3.64083E-04-1.11155E-04-8.72979E-05-1.58925E-05-4.70633E-20 8.57621E-19
 -1      1276 2.99223E-04-7.51160E-05-7.92491E-05-9.71842E-05-2.89474E-19 1.25700E-18
 -1      1277 1.72217E-04-1.32666E-05-5.98817E-05-1.13688E-04 3.16790E-19 5.65818E-19
 -1      1278 6.49317E-05 1.91031E-05-3.59905E-05-7.22518E-05 1.10453E-18-2.40219E-18
 -1      1279 1.43981E-05 5.86866E-06-1.49966E-05-1.64179E-05 9.52065E-19-3.66765E-19
 -1      1280 7.52370E-06-3.87225E-05 2.79262E-06 2.45331E-05-9.13102E-19 5.10761E-19
 -1      1281 2.40590E-05-9.12579E-05 1.55909E-05 3.45883E-05-8.28398E-19 7.64659E-19
 -1      1282 3.83008E-05-1.21324E-04 2.13620E-05 1.50221E-05-4.59060E-18 7.24822E-19
 -1      1283 1.04296E-04-2.19834E-05-3.78414E-05-1.72508E-05-8.04681E-20-1.90815E-18
 -1      1284 9.02683E-05-6.68016E-06-3.59948E-05-2.04307E-05 8.59738E-20-1.25975E-18
 -1      1285 9.25763E-05-6.73892E-06-3.71878E-05-2.57155E-05-2.32934E-21-1.48983E-18
 -1      1286 8.58972E-05-4.09661E-06-3.51264E-05-1.63865E-05 1.81874E-19-8.70591E-19
 -1      1287 8.71303E-05-4.09172E-06-3.55871E-05-1.88078E-05 1.75389E-19-1.08523E-18
 -1      1288 9.20961E-05-1.04628E-05-3.50772E-05-1.89827E-05 1.77586E-19-1.08632E-18
 -1      1289 8.41268E-05-3.19461E-06-3.46969E-05-1.27686E-05 2.53329E-19-4.95303E-19
 -1      1290 8.47202E-05-3.16355E-06-3.49148E-05-1.45859E-05 2.35899E-19-6.78950E-19
 -1      1291 8.78731E-05-7.39399E-06-3.45749E-05-1.53620E-05 3.25419E-19-6.85700E-19
 -1      1292 8.32288E-05-2.72595E-06-3.44889E-05-9.63460E-06 2.85185E-19-2.17092E-19
 -1      1293 8.35374E-05-2.70968E-06-3.45945E-05-1.11812E-05 2.92319E-19-3.59936E-19
 -1      1294 8.58991E-05-5.98307E-06-3.43182E-05-1.18987E-05 4.16654E-19-3.92441E-19
 -1      1295 8.27424E-05-2.45012E-06-3.43880E-05-6.87002E-06 3.40477E-19-7.91446E-21
 -1      1296 8.29087E-05-2.44184E-06-3.44402E-05-8.23709E-06 3.22508E-19-9.42986E-20
 -1      1297 8.48608E-05-5.20524E-06-3.41943E-05-8.88878E-06 5.01354E-19-1.46457E-19
 -1      1298 8.24682E-05-2.27993E-06-3.43378E-05-4.26182E-06 3.16608E-19 1.94963E-19
 -1      1299 8.25585E-05-2.27617E-06-3.43640E-05-5.55654E-06 3.19186E-19 7.79535E-20
 -1      1300 8.42770E-05-4.74066E-06-3.41359E-05-6.17093E-06 5.17210E-19 4.20869E-20
 -1      1301 8.23342E-05-2.18703E-06-3.43163E-05-1.77334E-06 3.41872E-19 3.63880E-19
 -1      1302 8.23736E-05-2.18559E-06-3.43272E-05-3.01586E-06 3.18690E-19 2.86443E-19
 -1      1303 8.39523E-05-4.46912E-06-3.41093E-05-3.61347E-06 5.04824E-19 2.36812E-19
 -1      1304 8.23061E-05-2.15806E-06-3.43133E-05 6.67553E-07 3.16427E-19 5.20290E-19
 -1      1305 8.23056E-05-2.15814E-06-3.43133E-05-5.58964E-07 3.39496E-19 4.15443E-19
 -1      1306 8.38077E-05-4.34472E-06-3.40991E-05-1.15808E-06 5.91387E-19 4.03823E-19
 -1      1307 8.23780E-05-2.18922E-06-3.43273E-05 3.12750E-06 3.54631E-19 6.67700E-19
 -1      1308 8.23373E-05-2.19079E-06-3.43162E-05 1.88274E-06 3.38905E-19 5.88582E-19
 -1      1309 8.38107E-05-4.34837E-06-3.40989E-05 1.26572E-06 5.23931E-19 5.48335E-19
 -1      1310 8.25690E-05-2.28531E-06-3.43644E-05 5.67610E-06 3.36444E-19 7.92585E-19
 -1      1311 8.24763E-05-2.28853E-06-3.43378E-05 4.37611E-06 3.51117E-19 7.03342E-19
 -1      1312 8.39623E-05-4.48105E-06-3.41087E-05 3.72467E-06 5.85113E-19 6.20650E-19
 -1      1313 8.29238E-05-2.45537E-06-3.44405E-05 8.34719E-06 3.19404E-19 1.05528E-18
 -1      1314 8.27547E-05-2.46391E-06-3.43878E-05 6.97206E-06 3.26300E-19 9.11937E-19
 -1      1315 8.42947E-05-4.76128E-06-3.41347E-05 6.26745E-06 5.25630E-19 7.68629E-19
 -1      1316 8.35718E-05-2.73730E-06-3.45971E-05 1.13419E-05 2.98420E-19 1.36563E-18
 -1      1317 8.32571E-05-2.75422E-06-3.44901E-05 9.77905E-06 2.91320E-19 1.20383E-18
 -1      1318 8.48942E-05-5.24299E-06-3.41929E-05 9.00008E-06 4.85254E-19 1.04836E-18
 -1      1319 8.47778E-05-3.20664E-06-3.49214E-05 1.47902E-05 2.34628E-19 1.72448E-18
 -1      1320 8.41745E-05-3.24121E-06-3.47002E-05 1.29491E-05 2.55460E-19 1.52314E-18
 -1      1321 8.59683E-05-6.05685E-06-3.43177E-05 1.20619E-05 4.04869E-19 1.31491E-18
 -1      1322 8.72286E-05-4.09209E-06-3.56079E-05 1.90445E-05 9.88911E-20 2.18987E-18
 -1      1323 8.59683E-05-4.15727E-06-3.51329E-05 1.66460E-05 1.38993E-19 1.93113E-18
 -1      1324 8.79916E-05-7.51966E-06-3.45751E-05 1.55929E-05 2.93404E-19 1.68507E-18
 -1      1325 9.33915E-05-6.79170E-06-3.70857E-05 2.50487E-05-2.31875E-20 2.55275E-18
 -1      1326 9.00844E-05-6.43609E-06-3.60184E-05 2.11022E-05 1.21232E-20 2.38307E-18
 -1      1327 9.23204E-05-1.06945E-05-3.50629E-05 1.96243E-05 5.08220E-20 2.09334E-18
 -1      1328 1.23455E-04-2.48884E-05-3.89655E-05 2.83212E-05-1.69195E-19 2.49663E-18
 -1      1329 9.99763E-05-1.44073E-05-3.73154E-05 2.40096E-05-9.97381E-20 2.62739E-18
 -1      1330 1.01595E-04-1.93282E-05-3.53722E-05 2.13524E-05-1.00261E-19 2.37677E-18
 -1      1331 1.02467E-04-2.77663E-05-3.47136E-05 7.31139E-06-1.77136E-19 2.72279E-18
 -1      1332 1.05006E-04-3.01895E-05-3.34813E-05-7.94068E-06-4.49986E-20-1.79402E-18
 -1      1333 9.81356E-05-2.78071E-05-3.07229E-05-4.97350E-06 8.09975E-21-1.91054E-18
 -1      1334 9.53899E-05-2.78154E-05-2.92201E-05-2.47495E-06 3.47813E-20-1.89274E-18
 -1      1335 9.31712E-05-2.75280E-05-2.81851E-05-2.02809E-06 2.94344E-20-1.89320E-18
 -1      1336 9.93948E-05-2.80259E-05-3.09550E-05-7.85648E-06-3.14990E-20-1.31671E-18
 -1      1337 9.14979E-05-2.71746E-05-2.75560E-05-8.20348E-07 1.10578E-20-1.84714E-18
 -1      1338 9.07975E-05-2.70835E-05-2.72588E-05-7.09243E-07 6.71671E-20-1.81207E-18
 -1      1339 9.46567E-05-2.77506E-05-2.87986E-05-3.08676E-06 4.27752E-20-1.19720E-18
 -1      1340 9.00695E-05-2.69068E-05-2.70225E-05-1.48555E-07 2.97322E-20-1.88343E-18
 -1      1341 9.00200E-05-2.69397E-05-2.69948E-05-8.87046E-08-8.99906E-20-1.94675E-18
 -1      1342 9.24952E-05-2.74894E-05-2.78902E-05-1.00794E-06-2.81837E-20-1.13667E-18
 -1      1343 8.97927E-05-2.68812E-05-2.69306E-05 1.92724E-07 4.94323E-21-1.83744E-18
 -1      1344 9.00424E-05-2.69810E-05-2.70030E-05 2.24393E-07 3.32229E-20-1.80943E-18
 -1      1345 9.15899E-05-2.73592E-05-2.75408E-05-3.18570E-09-3.64290E-21-1.27853E-18
 -1      1346 9.00931E-05-2.69964E-05-2.70241E-05 3.72268E-07-1.00031E-20-1.72797E-18
 -1      1347 9.04909E-05-2.71330E-05-2.71397E-05 3.88892E-07-1.15900E-19-1.76511E-18
 -1      1348 9.14148E-05-2.73681E-05-2.74579E-05 5.18196E-07 3.93407E-21-1.07342E-18
 -1      1349 9.07157E-05-2.71972E-05-2.72126E-05 4.70540E-07-5.58062E-20-1.74641E-18
 -1      1350 9.12102E-05-2.73574E-05-2.73567E-05 4.79693E-07-1.02673E-19-1.98736E-18
 -1      1351 9.16705E-05-2.74725E-05-2.75199E-05 8.01106E-07-7.29342E-20-9.37738E-19
 -1      1352 9.15199E-05-2.74448E-05-2.74552E-05 5.25473E-07 3.59038E-21-1.86134E-18
 -1      1353 9.20324E-05-2.76051E-05-2.76050E-05 5.30377E-07-5.41431E-20-1.93385E-18
 -1      1354 9.21873E-05-2.76428E-05-2.76666E-05 9.59653E-07-1.34731E-19-8.95390E-19
 -1      1355 9.24094E-05-2.77124E-05-2.77235E-05 5.67300E-07-1.70072E-19-2.11528E-18
 -1      1356 9.29546E-05-2.78791E-05-2.78839E-05 5.73254E-07-3.08602E-19-2.45175E-18
 -1      1357 9.28513E-05-2.78433E-05-2.78643E-05 1.06221E-06-2.19181E-19-8.24807E-19
 -1      1358 9.33898E-05-2.80022E-05-2.80204E-05 6.19095E-07-1.40783E-19-2.47436E-18
 -1      1359 9.39813E-05-2.81800E-05-2.81952E-05 6.29353E-07-6.79727E-20-2.52766E-18
 -1      1360 9.36376E-05-2.80723E-05-2.81034E-05 1.16363E-06-3.12389E-19-9.44149E-19
 -1      1361 9.44845E-05-2.83212E-05-2.83534E-05 7.00483E-07 7.47788E-20-2.33453E-18
 -1      1362 9.51540E-05-2.85199E-05-2.85520E-05 7.18649E-07 2.34625E-19-2.12975E-18
 -1      1363 9.45468E-05-2.83295E-05-2.83841E-05 1.30496E-06 1.26477E-19-1.07595E-18
 -1      1364 9.57511E-05-2.86860E-05-2.87403E-05 8.32859E-07 2.85129E-21-2.01301E-18
 -1      1365 9.65514E-05-2.89214E-05-2.89784E-05 8.63311E-07-1.14839E-19-2.02428E-18
 -1      1366 9.56122E-05-2.86238E-05-2.87171E-05 1.52696E-06 1.25000E-19-1.13499E-18
 -1      1367 9.72848E-05-2.91223E-05-2.92110E-05 1.04217E-06 3.08538E-21-2.09947E-18
 -1      1368 9.82964E-05-2.94205E-05-2.95119E-05 1.09024E-06-1.44065E-19-2.24353E-18
 -1      1369 9.68981E-05-2.89723E-05-2.91228E-05 1.87612E-06-1.62228E-19-1.03205E-18
 -1      1370 9.92795E-05-2.96870E-05-2.98255E-05 1.37405E-06-4.88301E-20-2.15740E-18
 -1      1371 1.00690E-04-3.01002E-05-3.02469E-05 1.45587E-06-1.41044E-19-2.31987E-18
 -1      1372 9.85485E-05-2.94107E-05-2.96482E-05 2.42687E-06-2.08410E-19-1.14404E-18
 -1      1373 1.01920E-04-3.04309E-05-3.06423E-05 1.86175E-06-1.80590E-19-2.30351E-18
 -1      1374 1.03761E-04-3.09717E-05-3.11917E-05 1.97279E-06-1.17767E-19-2.58457E-18
 -1      1375 1.00679E-04-2.99723E-05-3.03286E-05 3.25224E-06-2.88583E-19-1.55802E-18
 -1      1376 1.05384E-04-3.14070E-05-3.17168E-05 2.54517E-06-1.85242E-19-2.60276E-18
 -1      1377 1.07921E-04-3.21580E-05-3.24730E-05 2.70486E-06-2.64076E-19-3.22978E-18
 -1      1378 1.03408E-04-3.06864E-05-3.12026E-05 4.41110E-06-2.78575E-19-1.59771E-18
 -1      1379 1.10061E-04-3.27323E-05-3.31678E-05 3.47294E-06-3.38310E-19-3.20733E-18
 -1      1380 1.13539E-04-3.37789E-05-3.41992E-05 3.69009E-06-4.48471E-19-3.94175E-18
 -1      1381 1.07003E-04-3.16393E-05-3.23488E-05 6.00031E-06-5.36966E-19-2.25076E-18
 -1      1382 1.16312E-04-3.45353E-05-3.50954E-05 4.63019E-06-2.02520E-19-3.87332E-18
 -1      1383 1.20941E-04-3.59681E-05-3.64497E-05 4.89754E-06 5.48057E-20-4.11806E-18
 -1      1384 1.11701E-04-3.29329E-05-3.38240E-05 8.03252E-06-5.49930E-19-1.86628E-18
 -1      1385 1.24399E-04-3.69574E-05-3.75413E-05 5.83793E-06 2.72076E-19-3.91467E-18
 -1      1386 1.30150E-04-3.88262E-05-3.91745E-05 6.09541E-06 6.48543E-20-3.52657E-18
 -1      1387 1.17704E-04-3.47246E-05-3.56385E-05 1.02969E-05 3.46496E-19-2.36312E-18
 -1      1388 1.34177E-04-4.01033E-05-4.03628E-05 6.54049E-06 1.60253E-19-3.16219E-18
 -1      1389 1.40344E-04-4.22838E-05-4.20083E-05 6.60384E-06 2.35687E-19-2.53247E-18
 -1      1390 1.25041E-04-3.72514E-05-3.76828E-05 1.20500E-05 5.66012E-19-1.51242E-18
 -1      1391 1.44497E-04-4.38737E-05-4.30448E-05 5.52821E-06-3.79008E-19-2.84206E-18
 -1      1392 1.49023E-04-4.57583E-05-4.40836E-05 5.02353E-06-4.42204E-19-3.66810E-18
 -1      1393 1.33349E-04-4.07895E-05-3.96461E-05 1.15815E-05-1.95453E-19-1.65198E-18
 -1      1394 1.52495E-04-4.75684E-05-4.46332E-05 8.82768E-07-3.50063E-19-3.57638E-18
 -1      1395 1.51480E-04-4.76990E-05-4.41474E-05-8.64251E-07-3.49772E-19-4.19472E-18
 -1      1396 1.41592E-04-4.52772E-05-4.10877E-05 5.84888E-06-6.94991E-19-1.99864E-18
 -1      1397 1.52088E-04-4.83817E-05-4.39664E-05-7.78985E-06-7.25007E-20-3.90652E-18
 -1      1398 1.42367E-04-4.49354E-05-4.16752E-05-1.00716E-05-1.79121E-19-3.85231E-18
 -1      1399 1.46820E-04-4.87998E-05-4.17149E-05-7.23832E-06-2.08688E-19-2.02432E-18
 -1      1400 1.39540E-04-4.33207E-05-4.12535E-05-1.49588E-05-5.90594E-19-4.19070E-18
 -1      1401 1.25417E-04-3.72646E-05-3.84823E-05-1.56437E-05-2.88468E-19-4.38615E-18
 -1      1402 1.45192E-04-4.68961E-05-4.20946E-05-2.17500E-05-6.06793E-19-2.56182E-18
 -1      1403 1.20071E-04-3.34481E-05-3.82250E-05-1.27412E-05 9.61382E-20-4.39695E-18
 -1      1404 1.09516E-04-2.83578E-05-3.64210E-05-9.95165E-06 3.06626E-19-3.71911E-18
 -1      1405 1.37185E-04-3.87915E-05-4.28170E-05-2.51619E-05-2.76133E-19-2.78047E-18
 -1      1406 1.07630E-04-2.68952E-05-3.64209E-05 7.09271E-07 1.32264E-18-3.18881E-18
 -1      1407 1.10320E-04-2.82006E-05-3.68914E-05 4.56535E-06 1.35462E-18-1.84685E-18
 -1      1408 1.29359E-04-3.04616E-05-4.36708E-05-8.67917E-06 1.49882E-18-2.46858E-18
 -1      1409 1.14260E-04-3.12623E-05-3.69515E-05 1.39098E-05 1.61254E-19-1.68348E-18
 -1      1410 1.28690E-04-3.79329E-05-3.95248E-05 1.51501E-05-4.03611E-19-1.38426E-18
 -1      1411 1.31349E-04-3.25835E-05-4.34309E-05 1.65378E-05 1.35462E-18-1.87382E-18
 -1      1412 1.33488E-04-4.10691E-05-3.98928E-05 1.42138E-05-3.97047E-19-1.49967E-18
 -1      1413 1.46639E-04-4.64577E-05-4.26822E-05 1.24121E-05-3.65865E-19-2.10890E-18
 -1      1414 1.40971E-04-4.26657E-05-4.24270E-05 2.59526E-05-5.40619E-19-1.43516E-18
 -1      1415 1.48297E-04-4.69754E-05-4.31150E-05 5.60462E-06 4.86118E-19-2.79902E-18
 -1      1416 1.53780E-04-4.86735E-05-4.46164E-05 3.40118E-06 1.64483E-19-2.48541E-18
 -1      1417 1.46904E-04-4.86165E-05-4.18729E-05 1.55268E-05-5.54780E-19-1.70892E-18
 -1      1418 1.51738E-04-4.72543E-05-4.44876E-05-2.37562E-06-7.49889E-20-1.89905E-18
 -1      1419 1.49709E-04-4.61098E-05-4.41875E-05-3.47784E-06-1.63901E-19-1.76445E-18
 -1      1420 1.45093E-04-4.75238E-05-4.15149E-05 2.62255E-07-8.54444E-20-3.21517E-18
 -1      1421 1.45917E-04-4.44000E-05-4.34076E-05-6.04512E-06-2.94397E-19-1.39395E-18
 -1      1422 1.40335E-04-4.22644E-05-4.20168E-05-6.25596E-06-1.11292E-19-1.73388E-18
 -1      1423 1.38249E-04-4.32820E-05-4.05795E-05-9.18089E-06 1.15249E-19-1.36716E-18
 -1      1424 1.36166E-04-4.08100E-05-4.08834E-05-6.51474E-06-5.85379E-20-1.99937E-18
 -1      1425 1.30060E-04-3.87316E-05-3.91979E-05-6.33227E-06-2.82715E-19-1.81112E-18
 -1      1426 1.29890E-04-3.91752E-05-3.88933E-05-1.21180E-05-1.33507E-19-1.25218E-18
 -1      1427 1.26255E-04-3.75931E-05-3.80402E-05-5.57253E-06 3.52677E-19-7.95258E-19
 -1      1428 1.21008E-04-3.59196E-05-3.65224E-05-5.29757E-06 2.75703E-19-8.17704E-19
 -1      1429 1.21969E-04-3.61142E-05-3.68627E-05-1.13293E-05 6.05503E-19-8.75236E-19
 -1      1430 1.17863E-04-3.50478E-05-3.55224E-05-4.30055E-06-3.29026E-19-9.21175E-19
 -1      1431 1.13806E-04-3.38045E-05-3.43239E-05-4.05302E-06-5.72396E-19-1.32317E-18
 -1      1432 1.15259E-04-3.39543E-05-3.49153E-05-9.19357E-06-4.73948E-19 1.53697E-19
 -1      1433 1.11241E-04-3.31190E-05-3.34964E-05-3.11544E-06-1.47999E-19-1.64179E-18
 -1      1434 1.08175E-04-3.21976E-05-3.25793E-05-2.91323E-06 4.18620E-19-1.72644E-18
 -1      1435 1.09819E-04-3.23925E-05-3.32350E-05-6.90627E-06-6.18334E-19 1.22962E-19
 -1      1436 1.06372E-04-3.17180E-05-3.19962E-05-2.21280E-06 5.64193E-19-2.05473E-18
 -1      1437 1.04311E-04-3.11098E-05-3.13784E-05-2.07691E-06 3.02186E-19-1.90351E-18
 -1      1438 1.05687E-04-3.12872E-05-3.19267E-05-4.97567E-06 1.78916E-19 1.62303E-19
 -1      1439 1.02980E-04-3.07550E-05-3.09504E-05-1.55937E-06-7.36886E-20-2.25122E-18
 -1      1440 1.01538E-04-3.03325E-05-3.05177E-05-1.46330E-06-6.55130E-19-2.90325E-18
 -1      1441 1.02705E-04-3.05067E-05-3.09706E-05-3.54735E-06-2.06011E-19-2.01467E-18
 -1      1442 1.00573E-04-3.00738E-05-3.02092E-05-1.09171E-06-1.05927E-18-3.22914E-18
 -1      1443 9.95702E-05-2.97818E-05-2.99083E-05-1.02488E-06-5.65846E-19-4.44209E-18
 -1      1444 1.00521E-04-2.99412E-05-3.02686E-05-2.50430E-06-1.22139E-18-3.39040E-18
 -1      1445 9.88762E-05-2.95942E-05-2.96878E-05-7.61691E-07 3.87130E-19-4.57821E-18
 -1      1446 9.81818E-05-2.93928E-05-2.94793E-05-7.15347E-07 4.59113E-19-4.02095E-18
 -1      1447 9.89378E-05-2.95314E-05-2.97599E-05-1.75854E-06-4.31395E-19-3.47068E-18
 -1      1448 9.76857E-05-2.92576E-05-2.93224E-05-5.29872E-07 4.65891E-19-3.89728E-18
 -1      1449 9.72061E-05-2.91191E-05-2.91783E-05-4.97640E-07-6.80546E-20-3.70999E-18
 -1      1450 9.77980E-05-2.92351E-05-2.93942E-05-1.23042E-06 2.89017E-21-3.12358E-18
 -1      1451 9.68533E-05-2.90220E-05-2.90674E-05-3.66966E-07-5.76796E-19-3.42545E-18
 -1      1452 9.65230E-05-2.89274E-05-2.89681E-05-3.44472E-07 2.69598E-19-3.72054E-18
 -1      1453 9.69819E-05-2.90222E-05-2.91330E-05-8.57556E-07-3.17022E-19-1.55103E-18
 -1      1454 9.62630E-05-2.88555E-05-2.88866E-05-2.48685E-07-6.01319E-20-3.76148E-18
 -1      1455 9.60299E-05-2.87888E-05-2.88163E-05-2.31933E-07-1.02628E-18-3.84652E-18
 -1      1456 9.63898E-05-2.88658E-05-2.89437E-05-5.89789E-07-3.38808E-19-3.55054E-18
 -1      1457 9.58593E-05-2.87410E-05-2.87631E-05-1.67507E-07-1.09022E-18-3.64658E-18
 -1      1458 9.57113E-05-2.86990E-05-2.87185E-05-1.56637E-07-6.07662E-19-4.95452E-18
 -1      1459 9.59749E-05-2.87577E-05-2.88112E-05-3.99374E-07-1.34005E-18-2.84701E-18
 -1      1460 9.55939E-05-2.86662E-05-2.86819E-05-1.10574E-07 1.51314E-19-4.29789E-18
 -1      1461 9.54975E-05-2.86389E-05-2.86528E-05-1.02705E-07-6.42109E-20-4.75620E-18
 -1      1462 9.56946E-05-2.86835E-05-2.87218E-05-2.68237E-07-3.20307E-19-3.04602E-18
 -1      1463 9.54190E-05-2.86168E-05-2.86285E-05-6.92462E-08 6.99577E-19-6.36945E-18
 -1      1464 9.53600E-05-2.86004E-05-2.86107E-05-6.34349E-08 1.03020E-18-4.78167E-18
 -1      1465 9.55035E-05-2.86330E-05-2.86608E-05-1.73754E-07 6.32570E-20-3.48693E-18
 -1      1466 9.53101E-05-2.85862E-05-2.85954E-05-3.85107E-08 9.30636E-19-4.42530E-18
 -1      1467 9.52790E-05-2.85779E-05-2.85859E-05-3.39710E-08 1.08035E-18-2.51461E-18
 -1      1468 9.53776E-05-2.85998E-05-2.86206E-05-1.04347E-07 1.56984E-18-3.78445E-18
 -1      1469 9.52501E-05-2.85695E-05-2.85772E-05-1.49411E-08 8.64156E-19-8.87851E-19
 -1      1470 9.52405E-05-2.85678E-05-2.85738E-05-1.11868E-08-3.43125E-21-1.14149E-18
 -1      1471 9.52998E-05-2.85794E-05-2.85957E-05-5.20699E-08 2.01664E-18-3.78355E-18
 -1      1472 9.52268E-05-2.85644E-05-2.85694E-05 2.27339E-09-8.76073E-19-4.25936E-19
 -1      1473 9.52319E-05-2.85676E-05-2.85694E-05 4.53756E-09-2.97940E-19-1.03558E-18
 -1      1474 9.52573E-05-2.85696E-05-2.85812E-05-1.30623E-08 2.46602E-19-2.29806E-18
 -1      1475 9.52290E-05-2.85691E-05-2.85674E-05 9.83862E-09 1.02439E-19-1.54863E-18
 -1      1476 9.52362E-05-2.85741E-05-2.85664E-05 6.04661E-09 1.73997E-21-1.90149E-18
 -1      1477 9.52403E-05-2.85811E-05-2.85674E-05 9.45341E-09 2.86144E-18-7.66093E-19
 -1      1478 9.52411E-05-2.85687E-05-2.85737E-05 8.15233E-09-5.98682E-19-7.13277E-19
 -1      1479 9.64650E-05-2.83295E-05-2.97371E-05 2.98012E-06-4.36222E-20 2.87599E-18
 -1      1480 1.02409E-04-2.93613E-05-3.21168E-05 4.44892E-06-4.61633E-20 2.64465E-18
 -1      1481 1.02224E-04-2.66903E-05-3.26734E-05 1.27519E-05-1.48019E-19 2.37190E-18
 -1      1482 9.19395E-05-2.73948E-05-2.77354E-05 1.13261E-06-1.56966E-20 3.03807E-18
 -1      1483 9.38831E-05-2.75551E-05-2.86451E-05 1.46531E-06-7.83241E-20 2.86617E-18
 -1      1484 9.64145E-05-2.80143E-05-2.95107E-05 4.85104E-06-1.50745E-19 2.40306E-18
 -1      1485 9.01514E-05-2.69834E-05-2.70506E-05 3.06079E-07-1.12470E-19 3.16634E-18
 -1      1486 9.07573E-05-2.70064E-05-2.73156E-05 4.76874E-07-5.14705E-20 3.06676E-18
 -1      1487 9.29954E-05-2.75791E-05-2.80901E-05 1.80676E-06-1.21668E-19 2.38522E-18
 -1      1488 8.96900E-05-2.68813E-05-2.68928E-05-8.35674E-08-7.69940E-20 3.49584E-18
 -1      1489 8.97121E-05-2.68228E-05-2.69117E-05 1.15225E-08-9.54169E-20 3.29381E-18
 -1      1490 9.14976E-05-2.73420E-05-2.75203E-05 4.26805E-07-2.28024E-19 2.49120E-18
 -1      1491 8.99012E-05-2.69601E-05-2.69581E-05-2.84610E-07 1.23647E-20 3.53503E-18
 -1      1492 8.96378E-05-2.68453E-05-2.68807E-05-2.30282E-07-7.73348E-20 3.44419E-18
 -1      1493 9.10233E-05-2.72636E-05-2.73429E-05-2.41607E-07-8.01770E-20 2.63090E-18
 -1      1494 9.04646E-05-2.71368E-05-2.71294E-05-3.85836E-07 6.39030E-20 3.53739E-18
 -1      1495 9.00608E-05-2.69924E-05-2.70104E-05-3.53944E-07 4.77151E-20 3.48364E-18
 -1      1496 9.11307E-05-2.73230E-05-2.73587E-05-5.80325E-07 4.88698E-21 2.68267E-18
 -1      1497 9.12116E-05-2.73648E-05-2.73549E-05-4.33927E-07 7.55898E-20 3.36201E-18
 -1      1498 9.07419E-05-2.72077E-05-2.72169E-05-4.15032E-07 1.03645E-19 3.50065E-18
 -1      1499 9.15577E-05-2.74640E-05-2.74777E-05-7.52797E-07 5.81558E-20 2.56135E-18
 -1      1500 9.20507E-05-2.76183E-05-2.76079E-05-4.53894E-07 1.38855E-19 2.95781E-18
 -1      1501 9.15536E-05-2.74573E-05-2.74616E-05-4.42307E-07 7.63043E-20 3.08733E-18
 -1      1502 9.21633E-05-2.76517E-05-2.76541E-05-8.36111E-07 1.70307E-19 2.35591E-18
 -1      1503 9.29331E-05-2.78834E-05-2.78739E-05-4.60155E-07-8.26550E-21 2.84825E-18
 -1      1504 9.24274E-05-2.77226E-05-2.77249E-05-4.52351E-07 1.18556E-19 2.96431E-18
 -1      1505 9.28671E-05-2.78650E-05-2.78626E-05-8.72476E-07 1.65752E-19 2.15407E-18
 -1      1506 9.38335E-05-2.81534E-05-2.81452E-05-4.60284E-07 1.28524E-19 2.86774E-18
 -1      1507 9.33279E-05-2.79943E-05-2.79961E-05-4.54273E-07 6.84050E-21 2.86748E-18
 -1      1508 9.36238E-05-2.80923E-05-2.80885E-05-8.85420E-07-5.18503E-21 1.91290E-18
 -1      1509 9.47374E-05-2.84248E-05-2.84172E-05-4.56412E-07-4.95497E-21 2.98557E-18
 -1      1510 9.42364E-05-2.82679E-05-2.82694E-05-4.51531E-07 5.26296E-20 2.75489E-18
 -1      1511 9.44072E-05-2.83273E-05-2.83228E-05-8.85801E-07 4.76757E-20 2.20027E-18
 -1      1512 9.56300E-05-2.86939E-05-2.86850E-05-4.45568E-07 2.20723E-19 2.84809E-18
 -1      1513 9.51395E-05-2.85408E-05-2.85404E-05-4.42501E-07 5.91393E-20 2.76683E-18
 -1      1514 9.51983E-05-2.85662E-05-2.85588E-05-8.73948E-07 6.06103E-20 2.00340E-18
 -1      1515 9.64858E-05-2.89542E-05-2.89401E-05-4.19582E-07 2.96805E-19 2.57217E-18
 -1      1516 9.60190E-05-2.88090E-05-2.88031E-05-4.20492E-07 1.65882E-19 2.96076E-18
 -1      1517 9.59761E-05-2.88044E-05-2.87891E-05-8.40143E-07 2.25898E-19 2.20365E-18
 -1      1518 9.72582E-05-2.91924E-05-2.91682E-05-3.65088E-07 7.59310E-21 2.15016E-18
 -1      1519 9.68412E-05-2.90638E-05-2.90467E-05-3.73741E-07 8.72667E-20 2.47688E-18
 -1      1520 9.67082E-05-2.90340E-05-2.90027E-05-7.64679E-07 3.17138E-19 1.74873E-18
 -1      1521 9.78708E-05-2.93864E-05-2.93458E-05-2.64316E-07 6.33951E-21 2.13458E-18
 -1      1522 9.75475E-05-2.92891E-05-2.92530E-05-2.86017E-07 1.27693E-19 2.09114E-18
 -1      1523 9.73425E-05-2.92410E-05-2.91829E-05-6.18684E-07 2.25700E-19 1.79812E-18
 -1      1524 9.82117E-05-2.95023E-05-2.94392E-05-9.76490E-08-2.42165E-19 2.47919E-18
 -1      1525 9.80471E-05-2.94581E-05-2.93943E-05-1.38691E-07-3.19153E-19 2.16334E-18
 -1      1526 9.78010E-05-2.94024E-05-2.93056E-05-3.67268E-07-2.38996E-19 2.05030E-18
 -1      1527 9.81361E-05-2.94953E-05-2.94060E-05 1.50933E-07 7.57218E-20 1.86760E-18
 -1      1528 9.82140E-05-2.95323E-05-2.94333E-05 8.46923E-08 6.89687E-20 2.19329E-18
 -1      1529 9.79779E-05-2.94851E-05-2.93398E-05 2.30975E-08 7.37200E-20 1.69921E-18
 -1      1530 9.74838E-05-2.93137E-05-2.92004E-05 4.84765E-07-5.40124E-19 2.34945E-18
 -1      1531 9.78964E-05-2.94626E-05-2.93260E-05 3.90526E-07-2.70850E-19 1.98606E-18
 -1      1532 9.77472E-05-2.94463E-05-2.92501E-05 5.71221E-07-1.70469E-19 1.80876E-18
 -1      1533 9.61163E-05-2.89099E-05-2.87852E-05 8.82525E-07 3.55947E-19 2.20486E-18
 -1      1534 9.69415E-05-2.91961E-05-2.90300E-05 7.64294E-07-6.10145E-20 2.24560E-18
 -1      1535 9.69827E-05-2.92388E-05-2.90042E-05 1.26175E-06-8.69665E-20 1.86399E-18
 -1      1536 9.39750E-05-2.82588E-05-2.81483E-05 1.28728E-06 4.01585E-19 1.37426E-18
 -1      1537 9.52415E-05-2.86904E-05-2.85183E-05 1.15970E-06 3.56861E-19 2.09327E-18
 -1      1538 9.55957E-05-2.88229E-05-2.85837E-05 2.02370E-06 4.50770E-19 1.08206E-18
 -1      1539 9.11505E-05-2.73812E-05-2.73219E-05 1.60457E-06-2.01784E-19 1.39880E-18
 -1      1540 9.27984E-05-2.79354E-05-2.77970E-05 1.49437E-06 1.15633E-19 1.67122E-18
 -1      1541 9.35872E-05-2.81852E-05-2.79976E-05 2.71763E-06 2.31606E-19 2.22543E-18
 -1      1542 8.79359E-05-2.63648E-05-2.63943E-05 1.71938E-06-1.10793E-20 1.60163E-18
 -1      1543 8.97875E-05-2.69781E-05-2.69218E-05 1.66109E-06-1.68514E-19 1.39378E-18
 -1      1544 9.11008E-05-2.73624E-05-2.72945E-05 3.14780E-06-1.20458E-20 1.66490E-18
 -1      1545 8.48235E-05-2.53671E-05-2.55065E-05 1.53613E-06 7.78096E-20 1.53936E-18
 -1      1546 8.65897E-05-2.59384E-05-2.60039E-05 1.56043E-06 4.93000E-21 1.35766E-18
 -1      1547 8.84502E-05-2.64569E-05-2.65652E-05 3.11314E-06 1.84324E-19 2.04611E-18
 -1      1548 8.24140E-05-2.45875E-05-2.48243E-05 1.03013E-06 7.35132E-20 2.18458E-18
 -1      1549 8.37507E-05-2.49998E-05-2.51965E-05 1.14810E-06-3.45672E-19 1.37497E-18
 -1      1550 8.60883E-05-2.56314E-05-2.59301E-05 2.49222E-06-1.61353E-19 1.54374E-18
 -1      1551 8.12437E-05-2.42086E-05-2.44923E-05 2.81725E-07 4.65825E-19 1.55974E-18
 -1      1552 8.18527E-05-2.43651E-05-2.46588E-05 4.73962E-07 4.42767E-19 2.29983E-18
 -1      1553 8.45018E-05-2.50698E-05-2.55118E-05 1.32633E-06 2.00032E-19 1.75868E-18
 -1      1554 8.15950E-05-2.43276E-05-2.45861E-05-5.36752E-07-2.06428E-19 1.25324E-18
 -1      1555 8.13298E-05-2.41881E-05-2.45084E-05-3.16835E-07 3.14891E-20 1.45464E-18
 -1      1556 8.40570E-05-2.49143E-05-2.53987E-05-1.54757E-07 4.67827E-19 1.16874E-18
 -1      1557 8.33855E-05-2.49150E-05-2.50844E-05-1.22491E-06 1.10945E-19 1.20828E-18
 -1      1558 8.23081E-05-2.45130E-05-2.47804E-05-1.03261E-06-7.81156E-20 1.18824E-18
 -1      1559 8.48630E-05-2.52072E-05-2.56160E-05-1.60016E-06-1.15832E-19 9.86856E-19
 -1      1560 8.62011E-05-2.58273E-05-2.58779E-05-1.63498E-06-2.94483E-19 1.20379E-18
 -1      1561 8.45579E-05-2.52564E-05-2.54148E-05-1.51144E-06-2.66772E-19 8.83138E-19
 -1      1562 8.67293E-05-2.58717E-05-2.61170E-05-2.67379E-06-1.13416E-19 1.87716E-18
 -1      1563 8.94537E-05-2.68653E-05-2.68077E-05-1.72150E-06-5.42479E-20 9.42271E-19
 -1      1564 8.75831E-05-2.62436E-05-2.62781E-05-1.68026E-06-2.01308E-19 8.18035E-19
 -1      1565 8.92413E-05-2.67463E-05-2.67998E-05-3.18160E-06-3.39359E-20 1.01390E-18
 -1      1566 9.25758E-05-2.78432E-05-2.77150E-05-1.53713E-06-2.92725E-19 1.34048E-18
 -1      1567 9.07987E-05-2.72748E-05-2.72081E-05-1.56579E-06-7.07173E-20 1.04623E-18
 -1      1568 9.19102E-05-2.76480E-05-2.75399E-05-3.12006E-06-1.15053E-19 1.49768E-18
 -1      1569 9.51627E-05-2.86355E-05-2.84812E-05-1.18922E-06-4.47932E-19 2.28175E-18
 -1      1570 9.37037E-05-2.81869E-05-2.80610E-05-1.26128E-06-2.73234E-19 1.35733E-18
 -1      1571 9.43193E-05-2.84314E-05-2.82249E-05-2.63459E-06-2.38145E-19 2.75643E-18
 -1      1572 9.70217E-05-2.91892E-05-2.90442E-05-7.89635E-07 1.89684E-19 2.75182E-18
 -1      1573 9.59835E-05-2.88846E-05-2.87417E-05-8.77449E-07-8.33600E-20 2.62138E-18
 -1      1574 9.62077E-05-2.90161E-05-2.87783E-05-1.93172E-06-3.37126E-19 2.55086E-18
 -1      1575 9.81440E-05-2.95100E-05-2.93946E-05-4.21918E-07 1.05614E-20 2.23758E-18
 -1      1576 9.75253E-05-2.93409E-05-2.92115E-05-5.04850E-07-1.34341E-19 2.52816E-18
 -1      1577 9.74819E-05-2.93849E-05-2.91662E-05-1.19916E-06-1.26727E-19 2.49550E-18
 -1      1578 9.86394E-05-2.96388E-05-2.95591E-05-1.31303E-07-4.85897E-19 1.85141E-18
 -1      1579 9.83730E-05-2.95783E-05-2.94777E-05-1.98010E-07 1.69918E-19 2.12077E-18
 -1      1580 9.81773E-05-2.95630E-05-2.93907E-05-5.63229E-07 3.30588E-19 1.84653E-18
 -1      1581 9.86690E-05-2.96291E-05-2.95822E-05 6.95076E-08 1.08764E-19 1.62036E-18
 -1      1582 9.86607E-05-2.96444E-05-2.95765E-05 2.25636E-08-1.09123E-19 1.77713E-18
 -1      1583 9.84035E-05-2.95960E-05-2.94776E-05-8.31074E-08-8.86473E-20 2.06444E-18
 -1      1584 9.83968E-05-2.95326E-05-2.95113E-05 1.88549E-07 3.33709E-20 2.21566E-18
 -1      1585 9.85529E-05-2.95935E-05-2.95545E-05 1.59949E-07-3.09840E-19 1.47241E-18
 -1      1586 9.82958E-05-2.95323E-05-2.94627E-05 2.33594E-07-1.58432E-19 2.32580E-18
 -1      1587 9.79612E-05-2.93916E-05-2.93878E-05 2.43457E-07-3.09928E-20 1.65484E-18
 -1      1588 9.82037E-05-2.94742E-05-2.94573E-05 2.29452E-07 5.13081E-19 2.60055E-18
 -1      1589 9.79819E-05-2.94139E-05-2.93823E-05 4.09387E-07 2.00997E-20 1.12834E-18
 -1      1590 9.74656E-05-2.92365E-05-2.92433E-05 2.53731E-07 2.26357E-19 1.10249E-18
 -1      1591 9.77374E-05-2.93241E-05-2.93221E-05 2.50044E-07-2.22946E-19 1.00664E-18
 -1      1592 9.75658E-05-2.92725E-05-2.92672E-05 4.78831E-07-5.54749E-20 1.02753E-18
 -1      1593 9.69785E-05-2.90870E-05-2.90991E-05 2.36509E-07 7.09817E-19-6.32576E-19
 -1      1594 9.72425E-05-2.91693E-05-2.91762E-05 2.39322E-07 4.87435E-19 6.66319E-19
 -1      1595 9.71230E-05-2.91297E-05-2.91402E-05 4.76804E-07 6.68210E-19 2.45849E-19
 -1      1596 9.65399E-05-2.89541E-05-2.89679E-05 2.04948E-07-2.69586E-19-7.33181E-19
 -1      1597 9.67750E-05-2.90257E-05-2.90370E-05 2.11294E-07 3.73618E-19-2.49071E-19
 -1      1598 9.67018E-05-2.89983E-05-2.90170E-05 4.32590E-07 3.40739E-19 4.11248E-19
 -1      1599 9.61685E-05-2.88428E-05-2.88561E-05 1.68129E-07-1.74804E-19 6.91394E-19
 -1      1600 9.63654E-05-2.89015E-05-2.89143E-05 1.75928E-07-7.72596E-19-3.93392E-19
 -1      1601 9.63294E-05-2.88850E-05-2.89065E-05 3.67962E-07-6.95026E-19 1.14730E-18
 -1      1602 9.58691E-05-2.87537E-05-2.87655E-05 1.31671E-07-2.82294E-19 1.24635E-18
 -1      1603 9.60260E-05-2.87997E-05-2.88120E-05 1.39613E-07-2.57646E-19 1.07496E-18
 -1      1604 9.60177E-05-2.87919E-05-2.88129E-05 2.97513E-07-6.81109E-19 1.13493E-18
 -1      1605 9.56382E-05-2.86855E-05-2.86954E-05 9.85681E-08 8.55267E-19 4.44580E-19
 -1      1606 9.57576E-05-2.87198E-05-2.87309E-05 1.05937E-07 5.82225E-19 1.58849E-18
 -1      1607 9.57682E-05-2.87185E-05-2.87374E-05 2.29944E-07 7.94184E-19 1.66224E-18
 -1      1608 9.54683E-05-2.86355E-05-2.86436E-05 6.99652E-08-3.68534E-19-3.49950E-19
 -1      1609 9.55547E-05-2.86599E-05-2.86694E-05 7.64750E-08-3.34760E-20-8.60082E-20
 -1      1610 9.55768E-05-2.86628E-05-2.86790E-05 1.69589E-07 9.86088E-19 4.50138E-19
 -1      1611 9.53507E-05-2.86011E-05-2.86078E-05 4.57641E-08 5.38095E-19-1.26171E-18
 -1      1612 9.54089E-05-2.86170E-05-2.86252E-05 5.14512E-08 1.40563E-19-6.37878E-20
 -1      1613 9.54366E-05-2.86224E-05-2.86361E-05 1.17761E-07 2.96650E-19 8.68688E-19
 -1      1614 9.52774E-05-2.85797E-05-2.85855E-05 2.52472E-08-1.59310E-19-1.38660E-18
 -1      1615 9.53117E-05-2.85885E-05-2.85957E-05 3.03103E-08 1.46668E-19-1.08748E-18
 -1      1616 9.53399E-05-2.85947E-05-2.86065E-05 7.38767E-08 3.85455E-19 5.96863E-19
 -1      1617 9.52412E-05-2.85696E-05-2.85740E-05 7.66547E-09 1.92810E-19-1.56976E-18
 -1      1618 9.52551E-05-2.85720E-05-2.85785E-05 1.24065E-08-2.59580E-20-1.33258E-18
 -1      1619 9.52795E-05-2.85775E-05-2.85878E-05 3.68341E-08-2.69633E-20-2.46494E-19
 -1      1620 9.52337E-05-2.85693E-05-2.85695E-05-4.81286E-09 5.35708E-19-2.12147E-18
 -1      1621 9.52317E-05-2.85665E-05-2.85705E-05-1.17241E-09 1.30116E-19-2.07520E-18
 -1      1622 9.52479E-05-2.85699E-05-2.85769E-05 7.10679E-09 6.78162E-19-9.69191E-19
 -1      1623 9.52338E-05-2.85734E-05-2.85670E-05-4.95592E-09-1.14568E-18-8.46564E-19
 -1      1624 9.52413E-05-2.85716E-05-2.85732E-05 3.96335E-09-2.71398E-19 2.38409E-18
 -1      1625 9.52405E-05-2.85722E-05-2.85715E-05 1.02901E-09-1.86693E-18 7.14646E-19
 -1      1626 9.52329E-05-2.85426E-05-2.85820E-05 2.01821E-08 1.79901E-18 1.99973E-18
 -1      1627 9.52376E-05-2.85577E-05-2.85774E-05 1.64185E-08 5.67491E-20 1.82725E-18
 -1      1628 9.52385E-05-2.85476E-05-2.85825E-05 2.25313E-08 2.90622E-19 2.94860E-18
 -1      1629 9.52159E-05-2.84922E-05-2.85962E-05 3.29360E-08 2.10067E-18 1.43820E-19
 -1      1630 9.52251E-05-2.85198E-05-2.85883E-05 3.06694E-08 1.81248E-18 1.31599E-18
 -1      1631 9.52251E-05-2.85095E-05-2.85933E-05 5.06774E-08 1.95336E-18 2.20757E-18
 -1      1632 9.51949E-05-2.84294E-05-2.86140E-05 3.91152E-08 3.97821E-18 1.23172E-18
 -1      1633 9.52064E-05-2.84637E-05-2.86042E-05 3.84637E-08 1.51498E-18 2.34043E-18
 -1      1634 9.52065E-05-2.84571E-05-2.86073E-05 7.00304E-08 1.40178E-18 1.35939E-18
 -1      1635 9.51742E-05-2.83670E-05-2.86317E-05 3.74794E-08 2.43599E-18-2.49373E-19
 -1      1636 9.51852E-05-2.84002E-05-2.86222E-05 3.83911E-08 3.66450E-18-5.92878E-19
 -1      1637 9.51851E-05-2.83982E-05-2.86228E-05 7.55757E-08 6.36263E-19 6.90902E-19
 -1      1638 9.51568E-05-2.83147E-05-2.86466E-05 2.85193E-08 1.42445E-18 1.84016E-19
 -1      1639 9.51656E-05-2.83411E-05-2.86390E-05 3.08132E-08 1.68431E-18 3.51149E-20
 -1      1640 9.51649E-05-2.83422E-05-2.86377E-05 6.64896E-08 4.87850E-19-3.02503E-19
 -1      1641 9.51464E-05-2.82835E-05-2.86555E-05 1.39691E-08-5.78976E-20-1.29710E-18
 -1      1642 9.51510E-05-2.82973E-05-2.86516E-05 1.71871E-08 1.07699E-18-1.70368E-21
 -1      1643 9.51490E-05-2.82983E-05-2.86493E-05 4.45234E-08-7.06132E-19-9.45786E-19
 -1      1644 9.51451E-05-2.82796E-05-2.86566E-05-3.51328E-09-1.07641E-18-9.88943E-20
 -1      1645 9.51445E-05-2.82777E-05-2.86571E-05 5.09571E-11-4.35845E-19-7.16148E-19
 -1      1646 9.51405E-05-2.82747E-05-2.86556E-05 1.37793E-08-1.05462E-19-1.29263E-18
 -1      1647 9.51531E-05-2.83041E-05-2.86496E-05-2.07038E-08 5.63369E-19 6.67267E-19
 -1      1648 9.51473E-05-2.82866E-05-2.86545E-05-1.74615E-08-1.25334E-18 2.42105E-18
 -1      1649 9.51408E-05-2.82758E-05-2.86552E-05-2.01714E-08-1.86991E-19 5.74893E-19
 -1      1650 9.51693E-05-2.83528E-05-2.86356E-05-3.42166E-08-7.89574E-19-2.95605E-18
 -1      1651 9.51593E-05-2.83229E-05-2.86442E-05-3.19724E-08 1.10441E-18-1.53313E-18
 -1      1652 9.51502E-05-2.83018E-05-2.86483E-05-5.09646E-08-2.71173E-19-4.60926E-19
 -1      1653 9.51902E-05-2.84155E-05-2.86178E-05-4.10170E-08-2.70609E-18-1.54363E-19
 -1      1654 9.51782E-05-2.83798E-05-2.86280E-05-4.03060E-08-6.80104E-19-2.65066E-18
 -1      1655 9.51671E-05-2.83482E-05-2.86361E-05-7.22642E-08-4.99039E-19-3.27985E-18
 -1      1656 9.52125E-05-2.84818E-05-2.85992E-05-3.93711E-08-4.82289E-19 1.27366E-18
 -1      1657 9.52006E-05-2.84466E-05-2.86091E-05-4.04930E-08-2.87963E-18 1.93881E-18
 -1      1658 9.51886E-05-2.84070E-05-2.86206E-05-7.93750E-08 2.44490E-19 1.17031E-18
 -1      1659 9.52310E-05-2.85366E-05-2.85837E-05-2.89064E-08 1.34296E-18 1.13543E-18
 -1      1660 9.52223E-05-2.85107E-05-2.85912E-05-3.17951E-08-8.79732E-19 7.05734E-19
 -1      1661 9.52112E-05-2.84683E-05-2.86046E-05-6.99097E-08 1.30724E-19 1.40075E-18
 -1      1662 9.52416E-05-2.85694E-05-2.85741E-05-1.20469E-08 3.10828E-18-7.01240E-19
 -1      1663 9.52380E-05-2.85583E-05-2.85777E-05-1.59686E-08 2.08595E-18 1.39923E-18
 -1      1664 9.52302E-05-2.85206E-05-2.85908E-05-4.52516E-08 5.95876E-19 2.10068E-18
 -1      1665 9.52419E-05-2.85778E-05-2.85697E-05 2.31750E-09 2.98136E-18-4.81860E-19
 -1      1666 9.52441E-05-2.85809E-05-2.85705E-05-4.11984E-10 2.75622E-18-1.05900E-18
 -1      1667 9.52398E-05-2.85535E-05-2.85806E-05-1.53393E-08 5.63371E-19-1.36305E-18
 -1      1668 9.52423E-05-2.85698E-05-2.85738E-05 5.22198E-09 4.87111E-19-1.13281E-18
 -1      1669 2.01136E-05-6.42942E-05 1.36219E-05-1.59485E-06-4.37323E-18-9.10560E-19
 -1      1670 2.45788E-05-7.88110E-05 1.68189E-05 6.15944E-06-4.32580E-18-2.71051E-20
 -1      1671 2.38020E-05-3.25333E-05 6.32913E-07 1.35370E-05-2.22177E-18-3.79259E-19
 -1      1672 2.68600E-05-5.78092E-05 8.13989E-06 6.66587E-06-3.55161E-18-6.60183E-19
 -1      1673 3.95942E-05-3.91146E-06-1.63891E-05 3.78439E-05-1.32645E-18-6.71697E-19
 -1      1674 3.12940E-05-2.39742E-05-6.98558E-06 1.79061E-05-1.85416E-18-3.34578E-19
 -1      1675 8.76720E-05-2.98084E-07-3.59431E-05 6.91648E-05 4.48927E-19 2.59023E-18
 -1      1676 5.96357E-05-2.98354E-06-2.58123E-05 4.66693E-05-1.20448E-18 8.86843E-19
 -1      1677 1.56712E-04-1.81965E-05-5.53629E-05 8.44719E-05 1.81604E-18 1.15112E-18
 -1      1678 1.10582E-04-1.46822E-06-4.56202E-05 7.47130E-05 1.85246E-18 1.84314E-18
 -1      1679 2.23782E-04-4.83788E-05-6.99818E-05 5.97172E-05 3.23196E-19 3.73033E-18
 -1      1680 1.81538E-04-2.62061E-05-6.30758E-05 7.56925E-05 5.06102E-19 2.52077E-18
 -1      1681 2.53576E-04-6.15102E-05-7.66937E-05 9.78877E-06-1.23413E-18 6.20388E-18
 -1      1682 2.35440E-04-5.12042E-05-7.41138E-05 4.36608E-05-5.52477E-19 4.10176E-18
 -1      1683 2.47140E-04-5.73153E-05-7.55636E-05-4.15706E-05-1.54245E-18 7.64447E-18
 -1      1684 2.60868E-04-6.56963E-05-7.76104E-05-6.34155E-06-1.17759E-18 7.02275E-18
 -1      1685 1.89690E-04-2.88519E-05-6.47402E-05-7.91332E-05-2.56566E-18 6.53909E-18
 -1      1686 2.34419E-04-5.26789E-05-7.16783E-05-5.99731E-05-1.60100E-18 7.51149E-18
 -1      1687 1.18278E-04-3.58204E-06-4.76551E-05-7.68212E-05-6.25619E-18 6.76271E-18
 -1      1688 1.63126E-04-2.02171E-05-5.67843E-05-8.48901E-05-4.24194E-18 6.40188E-18
 -1      1689 6.38581E-05-3.91911E-06-2.70990E-05-4.79218E-05-6.55773E-18 6.04866E-18
 -1      1690 9.54218E-05-2.88196E-06-3.79032E-05-7.09765E-05-6.22061E-18 6.04951E-18
 -1      1691 3.18796E-05-2.20815E-05-8.09700E-06-1.88626E-05-6.84911E-18 4.57440E-18
 -1      1692 4.15437E-05-3.48970E-06-1.73604E-05-3.95088E-05-7.03884E-18 5.34901E-18
 -1      1693 2.56689E-05-5.50391E-05 7.10299E-06-3.90808E-06-3.99122E-18 2.85725E-18
 -1      1694 2.24577E-05-2.97033E-05-2.45997E-07-1.16857E-05-6.24263E-18 4.29530E-18
 -1      1695 2.47240E-05-7.68300E-05 1.61733E-05-5.54906E-06-7.00496E-19 2.09556E-18
 -1      1696 2.01103E-05-6.06509E-05 1.22947E-05 1.04369E-06-3.13910E-18 2.00292E-18
 -1      1697 2.10623E-05-7.29841E-05 1.64054E-05-1.04367E-05 3.32947E-18 2.37889E-18
 -1      1698 2.26300E-05-7.62010E-05 1.71244E-05-8.32971E-07 2.18852E-19 2.63110E-18
 -1      1699 1.93926E-05-5.37196E-05 9.15927E-06-8.09093E-06 4.63327E-18 2.15374E-18
 -1      1700 2.51009E-05-7.39031E-05 1.42476E-05-6.68226E-06 4.26312E-18 1.17007E-18
 -1      1701 3.10174E-05-2.48968E-05-6.40925E-06 1.44805E-05 4.48673E-18 2.23066E-18
 -1      1702 2.84527E-05-4.85684E-05 2.44580E-06-8.95120E-07 4.85435E-18 2.23341E-18
 -1      1703 7.23536E-05-1.11012E-05-2.71732E-05 4.86810E-05 2.68764E-18 1.44165E-18
 -1      1704 4.93644E-05-2.20310E-05-1.60394E-05 2.34398E-05 4.22754E-18 2.00747E-18
 -1      1705 1.43502E-04-2.09229E-05-4.96525E-05 7.53992E-05 1.30528E-18 2.28021E-18
 -1      1706 9.71387E-05-1.13942E-05-3.80374E-05 5.56860E-05 1.55346E-18 2.27682E-18
 -1      1707 2.28758E-04-5.15233E-05-6.92234E-05 6.76199E-05 1.23794E-18 1.78639E-18
 -1      1708 1.74289E-04-2.86658E-05-5.96019E-05 7.12518E-05 1.64579E-18 2.48011E-18
 -1      1709 2.86490E-04-7.44795E-05-8.13143E-05 2.74766E-05 2.11546E-19 9.74935E-19
 -1      1710 2.51311E-04-5.68832E-05-7.62401E-05 5.77935E-05 1.00966E-18 1.74997E-18
 -1      1711 2.88248E-04-7.41186E-05-8.25028E-05-2.84765E-05-2.13452E-19 9.85523E-19
 -1      1712 2.95365E-04-7.78007E-05-8.35293E-05 1.10478E-05-1.77877E-19 6.60580E-19
 -1      1713 2.30757E-04-4.77753E-05-7.23217E-05-6.85728E-05 4.21187E-19 4.25211E-19
 -1      1714 2.75380E-04-6.95817E-05-7.88990E-05-4.53254E-05 3.83494E-19 7.51318E-19
 -1      1715 1.46703E-04-2.41191E-05-5.15211E-05-6.12235E-05 1.40862E-18-5.75982E-20
 -1      1716 2.03569E-04-4.43204E-05-6.30096E-05-6.69435E-05 3.71424E-19 5.48877E-19
 -1      1717 7.95455E-05-1.38716E-05-3.05876E-05-4.47236E-05 3.41354E-19-1.16298E-18
 -1      1718 1.15041E-04-1.64714E-05-4.12063E-05-6.57979E-05 7.08967E-19-1.53652E-18
 -1      1719 4.09768E-05-2.49266E-05-1.17149E-05-1.71501E-05-4.85350E-19-6.92873E-19
 -1      1720 5.61807E-05-1.17715E-05-2.10768E-05-3.83362E-05 1.85500E-19-2.32087E-19
 -1      1721 2.65264E-05-5.07965E-05 4.00611E-06 3.50772E-06-9.81711E-19-1.48231E-20
 -1      1722 2.69346E-05-2.88865E-05-3.55419E-06-8.58475E-06-6.77626E-19 5.67512E-20
 -1      1723 2.51199E-05-7.54934E-05 1.45608E-05 8.53200E-06-2.26793E-18-6.95520E-19
 -1      1724 1.94430E-05-5.66328E-05 9.94898E-06 1.00857E-05-1.72202E-18 3.22349E-19
 -1      1725 2.44596E-05-8.15834E-05 1.79206E-05 2.16662E-06-3.62207E-18-1.68560E-19
 -1      1726 2.23875E-05-7.73066E-05 1.69861E-05 1.17754E-05-2.93349E-18-5.26854E-19
 -1      1727 8.07577E-05-3.11487E-05-2.18868E-05 4.59550E-05-8.26704E-19 2.19170E-18
 -1      1728 1.15533E-05-5.21140E-05 1.28497E-05 7.85344E-06-3.12375E-18-6.87367E-19
 -1      1729 9.52399E-05-2.85752E-05-2.85700E-05-6.26838E-09-1.41302E-18-6.95220E-19
 -1      1730 9.52415E-05-2.85642E-05-2.85755E-05 8.00536E-10 7.63040E-19 2.87321E-19
 -1      1731 2.26308E-05-4.57509E-05 6.61363E-06 2.47343E-05-1.97825E-18 4.92126E-19
 -1      1732 4.68398E-05-4.00351E-05-5.49029E-06 3.59119E-05-2.14977E-18 1.97888E-19
 -1      1733 1.24286E-04-2.77950E-05-3.99543E-05 5.14929E-05-5.80218E-20 2.11081E-18
 -1      1734 1.69541E-04-2.91379E-05-5.66800E-05 4.53612E-05 1.33376E-18 2.55042E-18
 -1      1735 1.98054E-04-2.97935E-05-6.78078E-05 2.29390E-05-5.35748E-19 3.90186E-18
 -1      1736 2.11548E-04-3.12022E-05-7.25172E-05-6.30088E-07-1.92869E-18 5.04128E-18
 -1      1737 2.08540E-04-3.33675E-05-6.97940E-05-2.62937E-05-1.34064E-18 5.45786E-18
 -1      1738 1.75366E-04-2.99895E-05-5.84683E-05-4.65593E-05-3.06663E-18 5.61752E-18
 -1      1739 1.29447E-04-2.91357E-05-4.14624E-05-5.03810E-05-5.27574E-18 4.69256E-18
 -1      1740 8.49979E-05-3.18457E-05-2.31648E-05-4.65252E-05-4.62819E-18 4.33130E-18
 -1      1741 4.73885E-05-3.84946E-05-6.30952E-06-3.51021E-05-3.99037E-18 3.98487E-18
 -1      1742 2.40165E-05-4.69650E-05 6.07026E-06-2.34525E-05-2.36280E-18 3.33456E-18
 -1      1743 1.14043E-05-4.84497E-05 1.18024E-05-9.16609E-06-7.34801E-20 3.89847E-18
 -1      1744 1.51298E-05-5.01061E-05 1.06606E-05 5.79212E-06 1.17314E-18 2.31579E-18
 -1      1745 3.50099E-05-4.96507E-05 2.17717E-06 1.97213E-05 2.80876E-18 1.44133E-18
 -1      1746 7.10154E-05-4.59391E-05-1.33561E-05 3.23677E-05 2.91888E-18 5.27278E-19
 -1      1747 1.19336E-04-4.37339E-05-3.27413E-05 3.94131E-05 1.99222E-18 7.53859E-19
 -1      1748 1.74160E-04-4.46200E-05-5.25979E-05 3.58734E-05 1.08674E-18 1.63139E-18
 -1      1749 2.19068E-04-4.48854E-05-6.85433E-05 2.08794E-05 1.08378E-18 1.73303E-18
 -1      1750 2.41013E-04-4.15575E-05-7.71845E-05 4.64499E-06 3.20178E-19 1.27309E-18
 -1      1751 2.38261E-04-4.26054E-05-7.58277E-05-1.10841E-05 2.00747E-19 4.98902E-19
 -1      1752 2.06045E-04-4.73131E-05-6.35476E-05-2.11228E-05 1.09929E-18-1.23159E-18
 -1      1753 1.57894E-04-4.79321E-05-4.55191E-05-3.30082E-05 8.99973E-19 2.65968E-19
 -1      1754 1.03897E-04-4.36379E-05-2.67185E-05-3.82635E-05-5.71747E-19-1.15620E-18
 -1      1755 6.06778E-05-4.47789E-05-9.88615E-06-2.91525E-05-1.08505E-18-4.36222E-20
 -1      1756 3.18357E-05-5.04126E-05 3.58548E-06-1.67034E-05-1.86093E-18-1.91429E-19
 -1      1757 1.59048E-05-5.43499E-05 1.15913E-05-4.49791E-06-2.68827E-18-1.28791E-18
 -1      1758 1.05925E-04-2.31421E-05-3.55624E-05-1.68199E-05-4.38207E-20-1.63647E-18
 -1      1759 8.91449E-05-1.05593E-05-3.38030E-05-1.32762E-05 4.15523E-19-5.02449E-19
 -1      1760 9.04581E-05-1.16283E-05-3.39357E-05-1.50512E-05 3.21886E-19-6.96420E-19
 -1      1761 9.24757E-05-1.38740E-05-3.38460E-05-1.59466E-05 2.44850E-19-8.45789E-19
 -1      1762 9.41653E-05-1.58206E-05-3.40800E-05-1.76099E-05 1.31753E-19-1.03412E-18
 -1      1763 9.34370E-05-1.63617E-05-3.30429E-05-1.36853E-05 3.05668E-19-7.23340E-19
 -1      1764 8.62474E-05-7.64987E-06-3.37563E-05-7.80215E-06 5.92127E-19 2.81771E-20
 -1      1765 8.66475E-05-7.95282E-06-3.37867E-05-9.18777E-06 5.91083E-19-7.49757E-20
 -1      1766 8.56282E-05-6.99959E-06-3.37576E-05-5.27100E-06 6.10758E-19 7.75035E-20
 -1      1767 8.58638E-05-7.18272E-06-3.37709E-05-6.56896E-06 6.07372E-19 3.67533E-20
 -1      1768 8.76216E-05-9.82531E-06-3.33737E-05-6.86195E-06 6.30837E-19 8.65959E-20
 -1      1769 8.52879E-05-6.63018E-06-3.37628E-05-2.85776E-06 6.07779E-19 2.71977E-19
 -1      1770 8.54110E-05-6.72818E-06-3.37680E-05-4.08820E-06 6.31946E-19 1.47106E-19
 -1      1771 8.69803E-05-9.09692E-06-3.34106E-05-4.48649E-06 6.91391E-19 1.07103E-19
 -1      1772 8.51527E-05-6.47633E-06-3.37667E-05-5.08933E-07 6.92368E-19 4.75583E-19
 -1      1773 8.51900E-05-6.50626E-06-3.37681E-05-1.70779E-06 6.79358E-19 3.52233E-19
 -1      1774 8.66410E-05-8.70618E-06-3.34324E-05-2.18886E-06 7.23034E-19 3.40646E-19
 -1      1775 8.51967E-05-6.51428E-06-3.37674E-05 1.82996E-06 7.05045E-19 5.64097E-19
 -1      1776 8.51553E-05-6.48053E-06-3.37663E-05 6.30257E-07 6.94314E-19 5.44576E-19
 -1      1777 8.65384E-05-8.58801E-06-3.34390E-05 6.74760E-08 7.46543E-19 5.30375E-19
 -1      1778 8.54294E-05-6.75106E-06-3.37661E-05 4.21405E-06 6.72775E-19 6.15899E-19
 -1      1779 8.53007E-05-6.64749E-06-3.37613E-05 2.98092E-06 7.01303E-19 5.12058E-19
 -1      1780 8.66543E-05-8.72447E-06-3.34303E-05 2.32470E-06 7.66143E-19 6.03260E-19
 -1      1781 8.58888E-05-7.21524E-06-3.37678E-05 6.65849E-06 6.48629E-19 7.18019E-19
 -1      1782 8.56502E-05-7.02892E-06-3.37550E-05 5.37850E-06 6.34976E-19 6.29848E-19
 -1      1783 8.70065E-05-9.13208E-06-3.34067E-05 4.60462E-06 7.22824E-19 6.23853E-19
 -1      1784 8.67012E-05-8.01800E-06-3.37826E-05 9.31013E-06 5.51240E-19 1.02742E-18
 -1      1785 8.62825E-05-7.69732E-06-3.37520E-05 7.89367E-06 5.60509E-19 8.83641E-19
 -1      1786 8.76639E-05-9.88074E-06-3.33679E-05 6.96281E-06 6.43575E-19 7.98487E-19
 -1      1787 8.81013E-05-9.37489E-06-3.38290E-05 1.21855E-05 4.18950E-19 1.27465E-18
 -1      1788 8.73704E-05-8.81479E-06-3.37620E-05 1.05942E-05 4.68816E-19 1.13402E-18
 -1      1789 8.87851E-05-1.11328E-05-3.33106E-05 9.42919E-06 5.04656E-19 1.06909E-18
 -1      1790 9.06424E-05-1.18448E-05-3.39267E-05 1.52609E-05 2.40226E-19 1.58064E-18
 -1      1791 8.92833E-05-1.07441E-05-3.37939E-05 1.34344E-05 3.22859E-19 1.34099E-18
 -1      1792 9.06700E-05-1.32113E-05-3.32186E-05 1.18815E-05 3.27957E-19 1.31347E-18
 -1      1793 9.58437E-05-1.70764E-05-3.39766E-05 1.76185E-05 2.87296E-20 2.02123E-18
 -1      1794 9.28244E-05-1.43242E-05-3.38183E-05 1.61171E-05 1.50669E-19 1.83121E-18
 -1      1795 9.38736E-05-1.68524E-05-3.30114E-05 1.37882E-05 1.74653E-19 1.64187E-18
 -1      1796 1.01832E-04-2.50749E-05-3.33316E-05 1.43730E-05-1.26473E-19 2.15782E-18
 -1      1797 9.80066E-05-1.95683E-05-3.36047E-05 1.69210E-05-1.61730E-20 2.05638E-18
 -1      1798 9.73661E-05-2.18668E-05-3.24050E-05 1.32242E-05 5.62218E-20 1.96715E-18
 -1      1799 9.87060E-05-2.61265E-05-3.13194E-05 9.39097E-06-1.55589E-19 2.22101E-18
 -1      1800 1.00072E-04-1.95495E-05-3.41882E-05-1.88258E-05 1.99053E-20-1.19559E-18
 -1      1801 9.53387E-05-2.72912E-05-2.91801E-05 4.05892E-06-9.72897E-20 2.19429E-18
 -1      1802 9.76652E-05-2.73721E-05-3.01758E-05 6.35359E-06-9.93146E-20 2.13968E-18
 -1      1803 9.75342E-05-2.55990E-05-3.08104E-05 8.66887E-06-1.01750E-19 1.98793E-18
 -1      1804 9.97509E-05-2.25274E-05-3.28147E-05-1.44217E-05 3.50195E-20-1.07155E-18
 -1      1805 9.69128E-05-2.69600E-05-2.98646E-05-5.65539E-06 5.25160E-20-9.44571E-19
 -1      1806 9.51223E-05-2.70185E-05-2.91594E-05-3.84355E-06 1.20848E-19-8.88061E-19
 -1      1807 9.43202E-05-2.72222E-05-2.86589E-05-2.35687E-06-1.95744E-20-7.78701E-19
 -1      1808 9.35707E-05-2.73058E-05-2.83613E-05-1.49345E-06-1.91707E-20-8.29120E-19
 -1      1809 9.55049E-05-2.65327E-05-2.95810E-05-4.39190E-06 9.94867E-20-6.47744E-19
 -1      1810 9.30696E-05-2.73596E-05-2.81020E-05-6.48081E-07-5.75718E-22-7.46401E-19
 -1      1811 9.28002E-05-2.74286E-05-2.79904E-05-1.92891E-07 6.99563E-20-6.50627E-19
 -1      1812 9.43343E-05-2.72089E-05-2.87893E-05-1.71513E-06-4.00355E-20-4.15715E-19
 -1      1813 9.25582E-05-2.74602E-05-2.78674E-05 2.90359E-07-3.84374E-20-6.74137E-19
 -1      1814 9.25739E-05-2.75467E-05-2.78524E-05 5.40714E-07-3.09994E-20-6.63867E-19
 -1      1815 9.36891E-05-2.75188E-05-2.83763E-05-1.95733E-07 1.73956E-20-2.46172E-19
 -1      1816 9.25200E-05-2.75879E-05-2.78119E-05 8.31939E-07-4.55830E-20-7.09393E-19
 -1      1817 9.27150E-05-2.76914E-05-2.78559E-05 9.78389E-07-4.20663E-20-6.12082E-19
 -1      1818 9.34443E-05-2.77092E-05-2.81851E-05 6.98341E-07-1.05228E-19-3.27679E-19
 -1      1819 9.27907E-05-2.77382E-05-2.78716E-05 1.14331E-06-1.82311E-20-6.94201E-19
 -1      1820 9.30809E-05-2.78452E-05-2.79486E-05 1.22837E-06-3.31460E-20-5.53375E-19
 -1      1821 9.35008E-05-2.78679E-05-2.81384E-05 1.22942E-06-4.82019E-20-4.22924E-19
 -1      1822 9.32448E-05-2.79015E-05-2.80005E-05 1.34300E-06-1.83297E-19-5.40284E-19
 -1      1823 9.36049E-05-2.80121E-05-2.81018E-05 1.40993E-06-2.69999E-19-4.20524E-19
 -1      1824 9.37557E-05-2.80024E-05-2.81874E-05 1.55823E-06-4.44707E-20-4.00271E-19
 -1      1825 9.38341E-05-2.80735E-05-2.81812E-05 1.51347E-06-3.26204E-19-3.95569E-19
 -1      1826 9.42551E-05-2.81887E-05-2.83036E-05 1.58923E-06-1.57769E-19-2.78964E-19
 -1      1827 9.41535E-05-2.81273E-05-2.83027E-05 1.81303E-06-2.45246E-19-1.27084E-19
 -1      1828 9.45404E-05-2.82534E-05-2.84075E-05 1.71427E-06-3.63885E-20-2.29405E-19
 -1      1829 9.50308E-05-2.83759E-05-2.85530E-05 1.82266E-06 2.90483E-19-2.89057E-19
 -1      1830 9.46648E-05-2.82422E-05-2.84719E-05 2.07594E-06-2.41996E-20 3.43046E-19
 -1      1831 9.53728E-05-2.84431E-05-2.86828E-05 2.00001E-06 2.35842E-19-4.47812E-19
 -1      1832 9.59562E-05-2.85784E-05-2.88583E-05 2.16604E-06 8.46868E-21-4.05607E-19
 -1      1833 9.52823E-05-2.83458E-05-2.86921E-05 2.41803E-06 1.10018E-19 2.63315E-19
 -1      1834 9.63630E-05-2.86472E-05-2.90189E-05 2.42877E-06-1.97933E-19-3.40553E-19
 -1      1835 9.70811E-05-2.88049E-05-2.92362E-05 2.68127E-06-2.09579E-19-3.30129E-19
 -1      1836 9.60147E-05-2.84356E-05-2.89679E-05 2.90988E-06 2.93318E-21 2.48917E-19
 -1      1837 9.75945E-05-2.88793E-05-2.94464E-05 3.08828E-06-1.30210E-19-5.95253E-19
 -1      1838 9.85498E-05-2.90796E-05-2.97387E-05 3.49002E-06-3.75116E-19-5.16923E-19
 -1      1839 9.69079E-05-2.85097E-05-2.93202E-05 3.65260E-06-3.40343E-19 9.98022E-20
 -1      1840 9.91369E-05-2.91510E-05-2.99904E-05 4.05559E-06-6.37700E-19-3.85327E-19
 -1      1841 1.00326E-04-2.93988E-05-3.03525E-05 4.60903E-06-3.64469E-19-4.35975E-19
 -1      1842 9.79779E-05-2.85579E-05-2.97578E-05 4.73157E-06-3.98800E-19 5.25509E-19
 -1      1843 1.01031E-04-2.94733E-05-3.06652E-05 5.39935E-06-1.19071E-19-5.08413E-19
 -1      1844 1.02591E-04-2.98042E-05-3.11369E-05 6.16818E-06-3.06576E-19-4.67778E-19
 -1      1845 9.92327E-05-2.85804E-05-3.02857E-05 6.21936E-06-4.01608E-19 8.54315E-19
 -1      1846 1.03437E-04-2.98937E-05-3.15187E-05 7.23115E-06-4.64134E-19-5.79579E-19
 -1      1847 1.05481E-04-3.03617E-05-3.21267E-05 8.24682E-06-3.74845E-19-5.29505E-19
 -1      1848 1.00742E-04-2.85983E-05-3.09248E-05 8.24218E-06-4.47720E-19 7.14297E-19
 -1      1849 1.06505E-04-3.05096E-05-3.25749E-05 9.59653E-06-5.28939E-19-6.15278E-19
 -1      1850 1.09149E-04-3.12119E-05-3.33334E-05 1.08218E-05-4.85125E-19-4.61166E-19
 -1      1851 1.02574E-04-2.86938E-05-3.16693E-05 1.08636E-05-4.95197E-19 9.32452E-19
 -1      1852 1.10440E-04-3.15434E-05-3.38227E-05 1.23702E-05-2.98473E-19-5.63542E-19
 -1      1853 1.13763E-04-3.26622E-05-3.47078E-05 1.35891E-05 4.48623E-19-8.42798E-19
 -1      1854 1.04863E-04-2.91113E-05-3.24765E-05 1.40062E-05-4.81257E-19 9.16741E-19
 -1      1855 1.15564E-04-3.34790E-05-3.51792E-05 1.50088E-05 8.38615E-19-1.28723E-18
 -1      1856 1.19537E-04-3.53221E-05-3.60909E-05 1.56371E-05 6.26025E-19-9.01825E-19
 -1      1857 1.07951E-04-3.04429E-05-3.32456E-05 1.72512E-05 3.70500E-19 8.78201E-20
 -1      1858 1.22411E-04-3.71832E-05-3.64660E-05 1.61196E-05-1.62657E-20-1.13524E-18
 -1      1859 1.26754E-04-4.01143E-05-3.72132E-05 1.50366E-05-6.58740E-19-1.04316E-18
 -1      1860 1.12656E-04-3.38770E-05-3.38288E-05 1.94921E-05 2.52184E-19-1.10989E-18
 -1      1861 1.31988E-04-4.39592E-05-3.75429E-05 1.28920E-05-6.36360E-19-1.62430E-18
 -1      1862 1.36130E-04-4.78978E-05-3.79815E-05 8.22425E-06 1.82112E-20-1.11026E-18
 -1      1863 1.20750E-04-4.12149E-05-3.42076E-05 1.83852E-05-5.33340E-19-1.36782E-18
 -1      1864 1.43749E-04-5.28002E-05-3.87400E-05 1.70262E-06-5.64997E-19-1.13757E-18
 -1      1865 1.45421E-04-5.47171E-05-3.91249E-05-6.18259E-06-8.30516E-19-1.70135E-18
 -1      1866 1.33873E-04-5.25741E-05-3.50505E-05 1.02833E-05-3.84818E-19-1.21386E-18
 -1      1867 1.52812E-04-5.65998E-05-4.12694E-05-1.53920E-05-7.78569E-19-2.24840E-18
 -1      1868 1.49981E-04-5.21105E-05-4.22316E-05-2.14221E-05-4.46598E-19-2.59952E-18
 -1      1869 1.49359E-04-6.08866E-05-3.82611E-05-4.97875E-06-1.31199E-18-1.25816E-18
 -1      1870 1.51057E-04-4.58367E-05-4.58301E-05-2.66487E-05-6.01288E-19-2.13489E-18
 -1      1871 1.44783E-04-3.56555E-05-4.71599E-05-2.37784E-05 1.39760E-20-2.15803E-18
 -1      1872 1.44074E-04-2.92400E-05-5.01160E-05-1.51323E-05 1.19305E-18-2.25566E-18
 -1      1873 1.41632E-04-2.49445E-05-5.07583E-05-3.30849E-06 1.81096E-18-2.09244E-18
 -1      1874 1.41618E-04-2.63418E-05-5.00262E-05 1.19741E-05 2.00704E-18-2.23394E-18
 -1      1875 1.46678E-04-3.49277E-05-4.88420E-05 2.23339E-05 1.10241E-18-2.35398E-18
 -1      1876 1.47696E-04-4.26693E-05-4.52970E-05 2.61263E-05 2.72321E-19-2.01668E-18
 -1      1877 1.53131E-04-5.18278E-05-4.39293E-05 2.42775E-05-8.31522E-19-1.46669E-18
 -1      1878 1.48415E-04-5.38845E-05-4.07333E-05 1.61476E-05-1.53575E-18-1.47306E-18
 -1      1879 1.49298E-04-5.54504E-05-4.01848E-05 7.90332E-06-6.78368E-19-2.11764E-18
 -1      1880 1.55726E-04-5.75139E-05-4.23072E-05 1.73237E-05-1.26383E-18-2.47418E-18
 -1      1881 1.41796E-04-5.14661E-05-3.88955E-05-7.60955E-07 4.49298E-19-2.27247E-18
 -1      1882 1.39051E-04-4.84125E-05-3.86032E-05-7.29716E-06 2.19434E-19-2.00363E-18
 -1      1883 1.42936E-04-5.64837E-05-3.71957E-05-6.04487E-07-2.63639E-19-1.67914E-18
 -1      1884 1.32871E-04-4.41596E-05-3.81549E-05-1.16663E-05 6.19578E-19-1.62962E-18
 -1      1885 1.28692E-04-4.07019E-05-3.75817E-05-1.44605E-05 2.30671E-19-1.07819E-18
 -1      1886 1.29326E-04-4.68027E-05-3.55046E-05-1.36603E-05 5.85697E-19-1.37278E-18
 -1      1887 1.24756E-04-3.81222E-05-3.71835E-05-1.52097E-05-5.00610E-19-6.42819E-19
 -1      1888 1.20514E-04-3.56768E-05-3.63272E-05-1.53940E-05 1.01713E-19-4.42786E-19
 -1      1889 1.19163E-04-3.79134E-05-3.49100E-05-1.83468E-05 2.60251E-19 1.21979E-19
 -1      1890 1.18032E-04-3.44284E-05-3.58186E-05-1.44188E-05 1.07483E-18-6.94607E-19
 -1      1891 1.14308E-04-3.29004E-05-3.48933E-05-1.34269E-05 6.85706E-19-9.33960E-19
 -1      1892 1.12671E-04-3.28452E-05-3.42542E-05-1.78384E-05 1.66968E-19-6.68911E-19
 -1      1893 1.12594E-04-3.23471E-05-3.43429E-05-1.19237E-05 1.92985E-19-3.79027E-19
 -1      1894 1.09553E-04-3.13967E-05-3.35053E-05-1.06502E-05-3.16665E-19-5.47130E-20
 -1      1895 1.08377E-04-3.04994E-05-3.33936E-05-1.50913E-05 5.36460E-19-1.04220E-18
 -1      1896 1.08189E-04-3.11326E-05-3.29651E-05-9.11332E-06-8.34354E-19 9.72655E-19
 -1      1897 1.05744E-04-3.04992E-05-3.22519E-05-7.90599E-06-2.61389E-19 1.25931E-18
 -1      1898 1.05228E-04-2.95309E-05-3.24451E-05-1.17916E-05 5.07790E-20 1.77012E-18
 -1      1899 1.04744E-04-3.03618E-05-3.18209E-05-6.70530E-06-2.69059E-19 1.28547E-18
 -1      1900 1.02999E-04-2.99661E-05-3.12988E-05-5.78633E-06-2.41537E-19 1.16923E-18
 -1      1901 1.02821E-04-2.91645E-05-3.15713E-05-8.81218E-06-2.91644E-19 1.73782E-18
 -1      1902 1.02193E-04-2.98634E-05-3.09516E-05-4.85942E-06-6.72415E-19-2.97869E-19
 -1      1903 1.00905E-04-2.95886E-05-3.05614E-05-4.17016E-06-1.53029E-18-9.91462E-19
 -1      1904 1.00986E-04-2.90130E-05-3.08497E-05-6.47772E-06-1.49433E-18 1.41368E-18
 -1      1905 1.00271E-04-2.95050E-05-3.02922E-05-3.48119E-06-1.48896E-18-1.09589E-18
 -1      1906 9.93328E-05-2.93106E-05-3.00058E-05-2.97945E-06-1.21647E-18-1.42796E-18
 -1      1907 9.95433E-05-2.89239E-05-3.02700E-05-4.69545E-06-1.56930E-18 1.06126E-18
 -1      1908 9.88404E-05-2.92405E-05-2.98017E-05-2.47734E-06-8.91151E-19-5.17739E-19
 -1      1909 9.81622E-05-2.91015E-05-2.95938E-05-2.11742E-06-1.91825E-19-1.08107E-18
 -1      1910 9.84206E-05-2.88525E-05-2.98195E-05-3.37513E-06-1.08113E-18 1.23526E-18
 -1      1911 9.77853E-05-2.90434E-05-2.94413E-05-1.75503E-06-1.70250E-19-1.21733E-18
 -1      1912 9.72982E-05-2.89439E-05-2.92915E-05-1.49842E-06-8.49217E-20-1.09064E-18
 -1      1913 9.75576E-05-2.87885E-05-2.94769E-05-2.41242E-06-2.77559E-19 4.84148E-19
 -1      1914 9.70134E-05-2.88967E-05-2.91787E-05-1.23794E-06-6.84470E-19-1.59467E-18
 -1      1915 9.66647E-05-2.88257E-05-2.90714E-05-1.05509E-06-1.42853E-18-1.81628E-18
 -1      1916 9.69026E-05-2.87315E-05-2.92201E-05-1.71594E-06-3.00300E-19-4.76889E-19
 -1      1917 9.64424E-05-2.87875E-05-2.89850E-05-8.59276E-07-6.55156E-19-2.86705E-18
 -1      1918 9.61864E-05-2.87348E-05-2.89058E-05-7.24180E-07-8.25186E-19-2.99961E-18
 -1      1919 9.64012E-05-2.86805E-05-2.90260E-05-1.20457E-06-1.02761E-18-1.50617E-18
 -1      1920 9.60330E-05-2.87065E-05-2.88471E-05-5.92179E-07-9.57129E-19-2.66947E-18
 -1      1921 9.58631E-05-2.86724E-05-2.87942E-05-5.00333E-07-2.71520E-19-1.85742E-18
 -1      1922 9.60318E-05-2.86414E-05-2.88844E-05-8.35946E-07-8.62073E-19-1.90736E-18
 -1      1923 9.57511E-05-2.86513E-05-2.87520E-05-4.04692E-07-1.01091E-19-1.06910E-18
 -1      1924 9.56338E-05-2.86278E-05-2.87154E-05-3.38640E-07 4.66447E-21-9.14299E-19
 -1      1925 9.57697E-05-2.86105E-05-2.87847E-05-5.78316E-07 9.69551E-20 5.92253E-20
 -1      1926 9.55538E-05-2.86124E-05-2.86856E-05-2.69075E-07-3.79543E-19-1.53833E-18
 -1      1927 9.54750E-05-2.85969E-05-2.86608E-05-2.20887E-07 1.18915E-19-1.27772E-18
 -1      1928 9.55810E-05-2.85873E-05-2.87133E-05-3.91277E-07-2.43163E-19-2.60298E-20
 -1      1929 9.54189E-05-2.85859E-05-2.86403E-05-1.69702E-07 1.34797E-18-1.19242E-18
 -1      1930 9.53683E-05-2.85763E-05-2.86242E-05-1.33922E-07 1.53994E-18-1.00846E-18
 -1      1931 9.54476E-05-2.85703E-05-2.86630E-05-2.54383E-07 8.18130E-19 1.05432E-18
 -1      1932 9.53299E-05-2.85686E-05-2.86103E-05-9.56860E-08 2.22562E-18-1.70249E-18
 -1      1933 9.53001E-05-2.85640E-05-2.86005E-05-6.87801E-08 1.92050E-18-1.88588E-18
 -1      1934 9.53555E-05-2.85583E-05-2.86283E-05-1.53053E-07 1.70982E-18 4.24040E-19
 -1      1935 9.52747E-05-2.85595E-05-2.85911E-05-4.01943E-08 1.03109E-18-1.79633E-18
 -1      1936 9.52602E-05-2.85601E-05-2.85853E-05-2.14211E-08 3.62644E-19-1.03778E-18
 -1      1937 9.52938E-05-2.85520E-05-2.86043E-05-7.74682E-08 1.50659E-18-6.30867E-19
 -1      1938 9.52450E-05-2.85629E-05-2.85774E-05-2.13813E-09 1.90332E-19-2.35073E-18
 -1      1939 9.27809E-05-2.73520E-05-2.80059E-05 7.04802E-07-1.63127E-19 2.08270E-18
 -1      1940 9.32283E-05-2.73010E-05-2.81936E-05 1.29600E-06-2.24689E-19 2.06505E-18
 -1      1941 9.23095E-05-2.74362E-05-2.77799E-05-2.03683E-07-1.26881E-19 2.14801E-18
 -1      1942 9.23996E-05-2.73688E-05-2.78274E-05 1.01111E-07-1.36233E-19 2.09336E-18
 -1      1943 9.37273E-05-2.74180E-05-2.84354E-05 8.27838E-07-1.42232E-19 1.68448E-18
 -1      1944 9.22929E-05-2.75509E-05-2.77319E-05-7.11537E-07 1.32399E-19 1.97061E-18
 -1      1945 9.21637E-05-2.74593E-05-2.77077E-05-5.46873E-07 3.19300E-20 2.01406E-18
 -1      1946 9.32596E-05-2.76034E-05-2.81537E-05-2.81489E-07 2.56873E-20 1.63565E-18
 -1      1947 9.25631E-05-2.76988E-05-2.77891E-05-9.89836E-07 9.48826E-20 1.89062E-18
 -1      1948 9.23088E-05-2.75921E-05-2.77243E-05-9.01588E-07 1.77645E-20 1.91015E-18
 -1      1949 9.31721E-05-2.77539E-05-2.80477E-05-9.11517E-07 1.00157E-19 1.50850E-18
 -1      1950 9.30076E-05-2.78687E-05-2.79095E-05-1.13819E-06 3.19430E-19 1.73950E-18
 -1      1951 9.26835E-05-2.77542E-05-2.78216E-05-1.09225E-06 1.84153E-19 1.88274E-18
 -1      1952 9.33324E-05-2.78996E-05-2.80506E-05-1.26529E-06 2.12213E-19 1.36751E-18
 -1      1953 9.35575E-05-2.80525E-05-2.80682E-05-1.21464E-06 5.67018E-20 1.83419E-18
 -1      1954 9.31950E-05-2.79342E-05-2.79670E-05-1.19141E-06 2.39909E-19 1.85811E-18
 -1      1955 9.36537E-05-2.80488E-05-2.81219E-05-1.46046E-06 1.91583E-19 1.30760E-18
 -1      1956 9.41709E-05-2.82463E-05-2.82494E-05-1.25197E-06-1.11288E-19 1.68431E-18
 -1      1957 9.37881E-05-2.81257E-05-2.81410E-05-1.24085E-06 6.85247E-20 1.80271E-18
 -1      1958 9.40794E-05-2.82038E-05-2.82362E-05-1.56600E-06 5.11349E-20 1.51548E-18
 -1      1959 9.48217E-05-2.84494E-05-2.84427E-05-1.26481E-06 5.68622E-20 1.77362E-18
 -1      1960 9.44299E-05-2.83263E-05-2.83311E-05-1.26207E-06-6.94409E-20 1.72239E-18
 -1      1961 9.45736E-05-2.83677E-05-2.83766E-05-1.62008E-06-4.44952E-20 1.46580E-18
 -1      1962 9.54902E-05-2.86622E-05-2.86397E-05-1.25239E-06 2.82113E-19 1.47244E-18
 -1      1963 9.50990E-05-2.85365E-05-2.85285E-05-1.26050E-06 1.87784E-19 1.68367E-18
 -1      1964 9.51136E-05-2.85446E-05-2.85314E-05-1.63788E-06 1.30583E-19 1.21988E-18
 -1      1965 9.61545E-05-2.88848E-05-2.88314E-05-1.19936E-06 2.58048E-19 1.50303E-18
 -1      1966 9.57769E-05-2.87573E-05-2.87250E-05-1.22686E-06 1.57897E-19 1.46608E-18
 -1      1967 9.56829E-05-2.87403E-05-2.86908E-05-1.61465E-06 3.13034E-19 1.09633E-18
 -1      1968 9.67836E-05-2.91143E-05-2.90060E-05-1.07631E-06 4.39729E-21 1.61792E-18
 -1      1969 9.64403E-05-2.89881E-05-2.89111E-05-1.13763E-06 2.75954E-19 1.65407E-18
 -1      1970 9.62643E-05-2.89599E-05-2.88449E-05-1.52694E-06 1.36595E-19 1.04880E-18
 -1      1971 9.73303E-05-2.93413E-05-2.91473E-05-8.41679E-07 5.53218E-20 1.87176E-18
 -1      1972 9.70532E-05-2.92241E-05-2.90735E-05-9.56070E-07 1.18571E-19 1.79117E-18
 -1      1973 9.68339E-05-2.92058E-05-2.89824E-05-1.33376E-06-1.02450E-19 1.43269E-18
 -1      1974 9.77262E-05-2.95462E-05-2.92344E-05-4.47372E-07-3.32427E-19 1.76482E-18
 -1      1975 9.75606E-05-2.94522E-05-2.91944E-05-6.35965E-07-1.44773E-20 1.93935E-18
 -1      1976 9.73549E-05-2.94728E-05-2.90893E-05-9.80388E-07 7.47655E-20 1.64259E-18
 -1      1977 9.78806E-05-2.96954E-05-2.92419E-05 1.49376E-07 1.75346E-19 1.56838E-18
 -1      1978 9.78845E-05-2.96464E-05-2.92513E-05-1.30395E-07-5.08650E-20 1.54799E-18
 -1      1979 9.77715E-05-2.97423E-05-2.91497E-05-4.07469E-07-1.31161E-19 1.33947E-18
 -1      1980 9.76863E-05-2.97382E-05-2.91443E-05 9.65753E-07-1.08908E-19 1.60055E-18
 -1      1981 9.79237E-05-2.97645E-05-2.92190E-05 5.91790E-07 5.49347E-20 1.48166E-18
 -1      1982 9.80056E-05-2.99752E-05-2.91468E-05 4.31339E-07 8.68060E-20 9.82813E-19
 -1      1983 9.70370E-05-2.96096E-05-2.89222E-05 1.96536E-06 3.53431E-19 1.31955E-18
 -1      1984 9.75638E-05-2.97459E-05-2.90741E-05 1.52091E-06 1.21751E-19 1.83889E-18
 -1      1985 9.79583E-05-3.01057E-05-2.90667E-05 1.54110E-06 1.37683E-19 9.76488E-19
 -1      1986 9.58590E-05-2.92424E-05-2.85709E-05 3.02935E-06-5.40844E-20 1.64189E-18
 -1      1987 9.67010E-05-2.95192E-05-2.88021E-05 2.57643E-06-8.24865E-20 1.46418E-18
 -1      1988 9.75219E-05-3.00437E-05-2.89028E-05 2.84919E-06-2.36746E-19 1.24057E-18
 -1      1989 9.41572E-05-2.85946E-05-2.81096E-05 3.94310E-06-2.33951E-19 2.72419E-18
 -1      1990 9.52826E-05-2.90213E-05-2.84069E-05 3.58422E-06-2.76775E-20 2.42082E-18
 -1      1991 9.66095E-05-2.96923E-05-2.86610E-05 4.17203E-06-5.65115E-19 1.82583E-18
 -1      1992 9.20645E-05-2.76888E-05-2.75868E-05 4.42227E-06 4.55005E-19 1.86893E-18
 -1      1993 9.33617E-05-2.82341E-05-2.79180E-05 4.28274E-06 4.03306E-19 2.31583E-18
 -1      1994 9.52043E-05-2.89893E-05-2.83629E-05 5.20865E-06 5.14704E-19 2.23383E-18
 -1      1995 8.98694E-05-2.66478E-05-2.70772E-05 4.19586E-06 2.55556E-19 1.86892E-18
 -1      1996 9.11454E-05-2.72272E-05-2.73933E-05 4.38138E-06 2.87932E-19 1.71803E-18
 -1      1997 9.34197E-05-2.79658E-05-2.80455E-05 5.59149E-06 4.66089E-19 2.13001E-18
 -1      1998 8.79872E-05-2.56953E-05-2.66678E-05 3.13317E-06-6.31370E-20 1.92280E-18
 -1      1999 8.90006E-05-2.61813E-05-2.69125E-05 3.67403E-06 2.68900E-20 2.02699E-18
 -1      2000 9.15358E-05-2.67923E-05-2.77553E-05 5.01061E-06 5.47395E-20 2.13049E-18
 -1      2001 8.68546E-05-2.50950E-05-2.64365E-05 1.35433E-06 7.71667E-19 1.35696E-18
 -1      2002 8.73827E-05-2.53564E-05-2.65609E-05 2.16684E-06 2.24275E-19 1.49474E-18
 -1      2003 8.99665E-05-2.57642E-05-2.75386E-05 3.37941E-06 1.85219E-19 1.87483E-18
 -1      2004 8.67718E-05-2.50390E-05-2.64297E-05-7.58396E-07 2.63252E-19 1.27031E-18
 -1      2005 8.66883E-05-2.49976E-05-2.64074E-05 1.39948E-07 7.81937E-19 1.51381E-18
 -1      2006 8.91322E-05-2.52022E-05-2.74313E-05 9.50968E-07 5.47852E-19 1.78465E-18
 -1      2007 8.77722E-05-2.55503E-05-2.66487E-05-2.68872E-06-1.75931E-19 9.68857E-19
 -1      2008 8.70963E-05-2.52189E-05-2.64841E-05-1.92385E-06-7.22857E-20 1.03180E-18
 -1      2009 8.92824E-05-2.53018E-05-2.74518E-05-1.71689E-06 3.44445E-19 1.66538E-18
 -1      2010 8.96031E-05-2.64682E-05-2.70500E-05-3.99506E-06-3.85335E-19 1.31385E-18
 -1      2011 8.84915E-05-2.59440E-05-2.67769E-05-3.52786E-06-2.21985E-19 1.14339E-18
 -1      2012 9.03736E-05-2.60278E-05-2.75974E-05-3.96889E-06-2.26194E-19 4.46893E-19
 -1      2013 9.18347E-05-2.75314E-05-2.75583E-05-4.47431E-06 9.03960E-20 1.25631E-18
 -1      2014 9.05213E-05-2.69493E-05-2.72290E-05-4.35848E-06 2.23256E-20 1.60578E-18
 -1      2015 9.20923E-05-2.71342E-05-2.78447E-05-5.31997E-06-2.09753E-19 8.61547E-19
 -1      2016 9.40261E-05-2.84954E-05-2.80888E-05-4.19258E-06-5.33642E-19 2.55103E-18
 -1      2017 9.27433E-05-2.79734E-05-2.77584E-05-4.37488E-06-4.62089E-19 1.93987E-18
 -1      2018 9.40038E-05-2.82931E-05-2.81547E-05-5.61940E-06-5.46547E-19 2.36154E-18
 -1      2019 9.58552E-05-2.92119E-05-2.85676E-05-3.39543E-06-4.35597E-19 2.64822E-18
 -1      2020 9.47746E-05-2.88191E-05-2.82802E-05-3.76202E-06-3.17712E-19 2.47655E-18
 -1      2021 9.57259E-05-2.92386E-05-2.84804E-05-5.03524E-06-4.23167E-19 2.69517E-18
 -1      2022 9.71658E-05-2.96409E-05-2.89457E-05-2.37636E-06-7.41203E-20 2.22571E-18
 -1      2023 9.63750E-05-2.93954E-05-2.87276E-05-2.80669E-06-4.29743E-19 2.58179E-18
 -1      2024 9.70295E-05-2.98435E-05-2.87782E-05-3.91156E-06-4.01106E-19 2.04121E-18
 -1      2025 9.79450E-05-2.98187E-05-2.92028E-05-1.37692E-06-2.05419E-19 3.30465E-18
 -1      2026 9.74560E-05-2.97032E-05-2.90615E-05-1.77925E-06 1.02759E-19 3.13434E-18
 -1      2027 9.78471E-05-3.01107E-05-2.90159E-05-2.60743E-06-2.39894E-19 3.08708E-18
 -1      2028 9.82695E-05-2.98149E-05-2.93424E-05-5.44854E-07 9.27700E-20 2.58528E-18
 -1      2029 9.80438E-05-2.97962E-05-2.92716E-05-8.67766E-07-1.62955E-20 2.72247E-18
 -1      2030 9.82245E-05-3.01190E-05-2.91775E-05-1.39342E-06-3.27067E-20 3.60534E-18
 -1      2031 9.82547E-05-2.97007E-05-2.93838E-05 6.13072E-08-1.62371E-19 2.56223E-18
 -1      2032 9.82295E-05-2.97440E-05-2.93690E-05-1.65784E-07 5.29429E-20 2.47730E-18
 -1      2033 9.82620E-05-2.99675E-05-2.92621E-05-4.20060E-07 6.55905E-20 3.42090E-18
 -1      2034 9.80177E-05-2.95332E-05-2.93527E-05 4.45748E-07-3.77484E-19 2.30926E-18
 -1      2035 9.81265E-05-2.96094E-05-2.93772E-05 3.07898E-07 1.19776E-21 2.35177E-18
 -1      2036 9.80701E-05-2.97415E-05-2.92798E-05 2.65082E-07-2.11017E-19 2.05340E-18
 -1      2037 9.76581E-05-2.93515E-05-2.92754E-05 6.46204E-07 8.54536E-19 1.41643E-18
 -1      2038 9.78429E-05-2.94396E-05-2.93233E-05 5.79766E-07 2.91441E-20 1.84355E-18
 -1      2039 9.77458E-05-2.94999E-05-2.92466E-05 6.81785E-07 1.89128E-19 2.26400E-18
 -1      2040 9.72512E-05-2.91790E-05-2.91740E-05 7.11594E-07 6.99653E-19 1.08225E-18
 -1      2041 9.74673E-05-2.92658E-05-2.92328E-05 6.95924E-07 7.34933E-19 1.50002E-18
 -1      2042 9.73632E-05-2.92768E-05-2.91799E-05 8.82895E-07 9.96222E-19 1.24360E-18
 -1      2043 9.68481E-05-2.90277E-05-2.90655E-05 6.88484E-07 8.69830E-19 2.85205E-19
 -1      2044 9.70647E-05-2.91057E-05-2.91260E-05 7.04915E-07 6.31559E-19 3.31147E-19
 -1      2045 9.69739E-05-2.90873E-05-2.90953E-05 9.29780E-07 1.30548E-18 4.49893E-19
 -1      2046 9.64797E-05-2.89020E-05-2.89611E-05 6.14777E-07-1.44379E-19 3.75150E-19
 -1      2047 9.66783E-05-2.89679E-05-2.90176E-05 6.48636E-07 4.69942E-19 3.74094E-20
 -1      2048 9.66100E-05-2.89354E-05-2.90050E-05 8.78279E-07 7.29152E-19-5.22880E-19
 -1      2049 9.61617E-05-2.88016E-05-2.88675E-05 5.18088E-07-6.98072E-19 2.25965E-19
 -1      2050 9.63327E-05-2.88548E-05-2.89169E-05 5.59008E-07-7.22057E-19 3.62199E-19
 -1      2051 9.62890E-05-2.88186E-05-2.89177E-05 7.72652E-07-4.53390E-19-8.21521E-19
 -1      2052 9.58992E-05-2.87242E-05-2.87882E-05 4.16608E-07-3.60368E-19 9.01464E-20
 -1      2053 9.60394E-05-2.87654E-05-2.88291E-05 4.57986E-07-2.26187E-19-1.00183E-19
 -1      2054 9.60179E-05-2.87316E-05-2.88389E-05 6.44510E-07-6.62171E-19-3.33041E-20
 -1      2055 9.56909E-05-2.86663E-05-2.87237E-05 3.20966E-07 1.27212E-18-4.04209E-19
 -1      2056 9.58010E-05-2.86971E-05-2.87562E-05 3.59134E-07-3.41752E-20-8.46169E-20
 -1      2057 9.57973E-05-2.86685E-05-2.87712E-05 5.14264E-07 1.79984E-19-9.13425E-19
 -1      2058 9.55316E-05-2.86242E-05-2.86735E-05 2.36272E-07 1.51391E-18 8.57740E-20
 -1      2059 9.56144E-05-2.86464E-05-2.86982E-05 2.69656E-07 1.94911E-18 4.12708E-19
 -1      2060 9.56234E-05-2.86239E-05-2.87156E-05 3.93525E-07 8.25437E-19 3.21433E-20
 -1      2061 9.54147E-05-2.85946E-05-2.86362E-05 1.63932E-07 1.26048E-19 1.39627E-18
 -1      2062 9.54740E-05-2.86099E-05-2.86540E-05 1.92344E-07 6.99347E-19 9.40150E-19
 -1      2063 9.54905E-05-2.85930E-05-2.86716E-05 2.87628E-07 7.26894E-19 1.86750E-18
 -1      2064 9.53332E-05-2.85749E-05-2.86099E-05 1.03124E-07-3.03649E-19 1.96791E-18
 -1      2065 9.53726E-05-2.85845E-05-2.86218E-05 1.27145E-07-2.51270E-19 1.19443E-18
 -1      2066 9.53920E-05-2.85720E-05-2.86383E-05 1.97792E-07 1.13247E-19 2.02546E-18
 -1      2067 9.52800E-05-2.85630E-05-2.85923E-05 5.27524E-08-1.35980E-19 1.14908E-18
 -1      2068 9.53035E-05-2.85681E-05-2.85997E-05 7.27769E-08-3.70009E-19 1.42161E-18
 -1      2069 9.53214E-05-2.85583E-05-2.86138E-05 1.23279E-07-7.50358E-20 2.08394E-18
 -1      2070 9.52513E-05-2.85613E-05-2.85809E-05 1.70296E-08 1.02465E-18-2.20164E-19
 -1      2071 9.52630E-05-2.85614E-05-2.85856E-05 3.07595E-08 7.69408E-19 5.60694E-19
 -1      2072 9.52773E-05-2.85527E-05-2.85967E-05 6.53653E-08 6.15750E-19 8.70455E-19
 -1      2073 9.52507E-05-2.85552E-05-2.85837E-05 2.41211E-08 1.16113E-18 1.22126E-18
 -1      2074 9.51998E-05-2.84256E-05-2.86178E-05 1.05600E-07 7.33735E-19 1.44306E-18
 -1      2075 9.52132E-05-2.84540E-05-2.86105E-05 9.86291E-08-1.65747E-20 1.14515E-18
 -1      2076 9.52271E-05-2.84843E-05-2.86040E-05 8.54442E-08 9.70524E-19 1.43301E-18
 -1      2077 9.52373E-05-2.85079E-05-2.85979E-05 7.15561E-08 7.10238E-19 2.40979E-18
 -1      2078 9.52225E-05-2.84552E-05-2.86147E-05 1.22500E-07-5.74355E-19 9.36681E-19
 -1      2079 9.52485E-05-2.85403E-05-2.85889E-05 4.17490E-08 7.40175E-19 2.14570E-18
 -1      2080 9.51714E-05-2.83658E-05-2.86316E-05 1.07087E-07-7.77057E-19-6.73562E-19
 -1      2081 9.51852E-05-2.83946E-05-2.86242E-05 1.08541E-07-6.69760E-19 1.89511E-18
 -1      2082 9.51889E-05-2.83923E-05-2.86270E-05 1.39949E-07-1.04427E-18 2.30606E-19
 -1      2083 9.51453E-05-2.83113E-05-2.86440E-05 8.92523E-08-4.87190E-19 4.98070E-19
 -1      2084 9.51574E-05-2.83367E-05-2.86375E-05 9.90170E-08-9.80507E-19-2.79526E-19
 -1      2085 9.51546E-05-2.83302E-05-2.86386E-05 1.33726E-07-1.43824E-18-5.21149E-19
 -1      2086 9.51263E-05-2.82717E-05-2.86529E-05 5.51412E-08-4.31275E-19-8.18956E-19
 -1      2087 9.51345E-05-2.82887E-05-2.86486E-05 7.14384E-08-1.06105E-18 3.35180E-19
 -1      2088 9.51248E-05-2.82767E-05-2.86485E-05 1.04128E-07-1.11151E-18-2.53012E-19
 -1      2089 9.51173E-05-2.82531E-05-2.86570E-05 1.06016E-08-4.01624E-19-1.83240E-18
 -1      2090 9.51202E-05-2.82588E-05-2.86555E-05 3.05758E-08-7.68386E-19-9.19501E-19
 -1      2091 9.51044E-05-2.82400E-05-2.86552E-05 5.59948E-08-8.61550E-19-1.22932E-18
 -1      2092 9.51200E-05-2.82590E-05-2.86555E-05-3.66679E-08 1.78905E-19 7.45723E-19
 -1      2093 9.51169E-05-2.82521E-05-2.86572E-05-1.65804E-08 2.60490E-19-7.75508E-19
 -1      2094 9.50966E-05-2.82256E-05-2.86580E-05-2.76396E-09-4.33284E-19-1.02154E-18
 -1      2095 9.51345E-05-2.82887E-05-2.86486E-05-7.80688E-08-5.81356E-19-1.76749E-18
 -1      2096 9.51257E-05-2.82702E-05-2.86533E-05-6.16786E-08-7.12757E-19 7.43785E-19
 -1      2097 9.51030E-05-2.82362E-05-2.86562E-05-6.21415E-08-8.42521E-19 2.98418E-19
 -1      2098 9.51582E-05-2.83368E-05-2.86377E-05-1.05160E-07-2.57626E-19-1.86642E-18
 -1      2099 9.51453E-05-2.83104E-05-2.86444E-05-9.59160E-08-9.44189E-19-2.38752E-18
 -1      2100 9.51233E-05-2.82704E-05-2.86504E-05-1.11124E-07-8.68759E-19-2.13600E-18
 -1      2101 9.51881E-05-2.83973E-05-2.86242E-05-1.12855E-07 5.27398E-19 2.01077E-18
 -1      2102 9.51730E-05-2.83667E-05-2.86319E-05-1.12748E-07 1.01403E-19 3.77394E-19
 -1      2103 9.51544E-05-2.83239E-05-2.86411E-05-1.40657E-07-7.81037E-19-4.98718E-19
 -1      2104 9.52184E-05-2.84596E-05-2.86103E-05-9.82883E-08 9.76590E-19 1.38001E-18
 -1      2105 9.52043E-05-2.84306E-05-2.86177E-05-1.07891E-07 7.90233E-19 1.03481E-18
 -1      2106 9.51919E-05-2.83894E-05-2.86295E-05-1.44583E-07 4.08571E-19 1.31792E-18
 -1      2107 9.52423E-05-2.85136E-05-2.85973E-05-6.47832E-08 1.13207E-18 1.50756E-18
 -1      2108 9.52326E-05-2.84913E-05-2.86036E-05-8.19496E-08 4.48386E-19 2.65704E-18
 -1      2109 9.52282E-05-2.84565E-05-2.86166E-05-1.21300E-07 1.36405E-19 2.10479E-18
 -1      2110 9.36447E-05-2.73354E-05-2.83729E-05 1.96536E-06-1.11927E-19 2.10616E-18
 -1      2111 9.47211E-05-2.73324E-05-2.88205E-05 3.07427E-06-5.21719E-20 2.13554E-18
 -1      2112 9.54702E-05-2.68339E-05-2.94173E-05 4.46772E-06-1.06647E-19 1.89109E-18
 -1      2113 9.44389E-05-2.71672E-05-2.88446E-05 2.40519E-06-1.62260E-19 1.83948E-18
 -1      2114 6.73714E-05-3.98236E-05-1.20665E-05 4.61305E-05-1.16891E-18 8.58891E-19
 -1      2115 5.27242E-05-4.10803E-05-5.53676E-06 4.23560E-05-1.53652E-18 9.95475E-19
 -1      2116 1.41710E-04-3.82010E-05-4.35158E-05 4.04266E-05 8.26069E-19 1.63393E-18
 -1      2117 1.20825E-04-4.02902E-05-3.48998E-05 3.89253E-05-5.20078E-19 2.41320E-18
 -1      2118 1.23416E-05-3.31020E-05 7.81172E-06 1.33159E-05-2.34840E-18-4.34951E-19
 -1      2119 1.15050E-05-3.53253E-05 8.80881E-06 3.13141E-06-2.25369E-18-1.09310E-18
 -1      2120 1.02984E-04-4.11049E-05-2.63312E-05 4.72176E-05-1.11131E-18 2.77488E-18
 -1      2121 8.29771E-05-4.31458E-05-1.80121E-05 4.30567E-05-1.29257E-18 1.64007E-18
 -1      2122 8.86048E-05-4.95781E-05-1.69627E-05 4.71540E-05-1.79740E-18 1.00628E-18
 -1      2123 8.72987E-05-8.71938E-06-3.37677E-05-1.04614E-05 4.81068E-19-2.36799E-19
 -1      2124 8.80060E-05-9.25845E-06-3.38346E-05-1.20402E-05 4.27374E-19-3.40878E-19
 -1      2125 9.04942E-05-1.30205E-05-3.32312E-05-1.17428E-05 4.41327E-19-3.80768E-19
 -1      2126 8.87036E-05-1.10337E-05-3.33197E-05-9.31788E-06 5.59257E-19-1.00651E-19
 -1      2127 1.69438E-04-3.37391E-05-5.73879E-05 2.48318E-05 7.67941E-19 3.68459E-18
 -1      2128 1.52562E-04-3.38899E-05-5.04869E-05 3.17595E-05 1.42789E-18 2.29546E-18
 -1      2129 1.75900E-04-2.29873E-05-6.51258E-05 5.45673E-06-1.07700E-18 2.82274E-18
 -1      2130 1.72405E-04-2.64177E-05-6.17559E-05 1.36439E-05 2.06676E-19 2.81469E-18
 -1      2131 1.85199E-04-2.20526E-05-6.86020E-05-3.30447E-06-1.74658E-18 2.72247E-18
 -1      2132 1.78269E-04-1.91276E-05-6.75991E-05 3.75820E-06-1.78851E-18 2.37402E-18
 -1      2133 1.75302E-04-2.61693E-05-6.32394E-05-1.51644E-05-1.18055E-18 3.54483E-18
 -1      2134 1.82574E-04-2.50963E-05-6.66698E-05-6.72255E-06-1.43530E-18 2.97118E-18
 -1      2135 1.55090E-04-3.34050E-05-5.19765E-05-2.85320E-05-3.70842E-18 3.99503E-18
 -1      2136 1.73052E-04-3.31496E-05-5.89493E-05-2.36652E-05-1.90434E-18 4.61040E-18
 -1      2137 1.24262E-04-4.00406E-05-3.64431E-05-3.77369E-05-4.02679E-18 3.52366E-18
 -1      2138 1.45327E-04-3.76954E-05-4.52307E-05-3.93277E-05-4.34951E-18 3.61725E-18
 -1      2139 8.64369E-05-4.39020E-05-1.91277E-05-4.30650E-05-2.74989E-18 3.36187E-18
 -1      2140 1.07651E-04-4.27350E-05-2.76385E-05-4.63029E-05-3.05948E-18 3.92430E-18
 -1      2141 5.35002E-05-4.23464E-05-5.94497E-06-4.00559E-05-2.35475E-18 3.31537E-18
 -1      2142 6.94457E-05-3.96829E-05-1.29663E-05-4.62430E-05-2.98029E-18 2.92883E-18
 -1      2143 9.21092E-05-5.02569E-05-1.79836E-05-4.67290E-05-1.55092E-18 2.57895E-18
 -1      2144 2.36922E-05-3.74978E-05 4.71604E-06-2.76218E-05-1.31798E-18 3.40401E-18
 -1      2145 3.42361E-05-3.63738E-05 1.53512E-07-3.61940E-05-2.39117E-18 3.97894E-18
 -1      2146 1.16738E-05-3.02174E-05 7.25217E-06-6.49104E-06 6.39378E-20 4.29530E-18
 -1      2147 1.48322E-05-3.18891E-05 6.45591E-06-1.82922E-05-9.69853E-19 3.77607E-18
 -1      2148 2.27543E-05-3.79197E-05 5.24921E-06 1.78941E-05 7.83505E-19 8.85573E-19
 -1      2149 1.44709E-05-3.38974E-05 7.24995E-06 8.66988E-06-4.57398E-20 2.65757E-18
 -1      2150 5.33653E-05-4.35176E-05-4.99795E-06 3.40363E-05 1.21846E-18 4.21717E-19
 -1      2151 3.76649E-05-4.32427E-05 9.13380E-07 2.56890E-05 8.11458E-19 9.25807E-19
 -1      2152 9.71555E-05-5.16737E-05-1.99051E-05 3.82600E-05 1.66442E-18-9.51218E-19
 -1      2153 7.44002E-05-5.14977E-05-1.13773E-05 3.31511E-05 1.78597E-18-4.01176E-19
 -1      2154 1.44136E-04-5.49469E-05-3.80442E-05 3.09255E-05 1.14011E-18 6.28498E-19
 -1      2155 1.18622E-04-5.52355E-05-2.83995E-05 2.96352E-05 1.63943E-18 2.35475E-19
 -1      2156 1.80962E-04-5.29550E-05-5.41553E-05 1.19422E-05 7.22307E-19 4.15893E-19
 -1      2157 1.59417E-04-5.38565E-05-4.56417E-05 1.68873E-05 5.96523E-19 8.05528E-19
 -1      2158 1.98086E-04-4.03403E-05-6.64262E-05-2.48990E-06 5.84453E-19 8.98702E-19
 -1      2159 1.85444E-04-4.32557E-05-6.05215E-05 2.39542E-06 9.03361E-19 3.88788E-19
 -1      2160 1.89381E-04-2.91622E-05-6.79106E-05-3.45480E-06 5.60312E-19-3.55264E-19
 -1      2161 1.85604E-04-3.11944E-05-6.60768E-05-3.85708E-06 7.50048E-19-1.31290E-19
 -1      2162 1.84442E-04-3.56527E-05-6.37950E-05 6.11450E-06 1.72922E-18-2.38355E-18
 -1      2163 1.88764E-04-3.16055E-05-6.67630E-05 6.77780E-06 1.24853E-18-1.29649E-18
 -1      2164 1.46655E-04-5.67082E-05-3.91189E-05-2.13596E-05-3.29072E-19-2.45640E-19
 -1      2165 1.68703E-04-5.63734E-05-4.78456E-05-1.45276E-05 7.04414E-19-4.37069E-19
 -1      2166 1.04746E-04-5.42283E-05-2.31134E-05-3.21831E-05-1.46198E-18-7.00920E-19
 -1      2167 1.28444E-04-5.53959E-05-3.15143E-05-3.37916E-05-7.79694E-19-1.68983E-19
 -1      2168 6.68894E-05-4.97209E-05-9.19098E-06-3.17509E-05-1.15154E-18 6.62803E-20
 -1      2169 8.63502E-05-4.90822E-05-1.66225E-05-3.73835E-05-8.98702E-19-2.44157E-19
 -1      2170 1.10965E-04-6.06066E-05-2.18323E-05-3.39593E-05-1.48485E-18-2.38440E-19
 -1      2171 3.40048E-05-4.43111E-05 2.53996E-06-2.28980E-05-2.61394E-18-1.29596E-19
 -1      2172 4.69510E-05-4.32691E-05-2.75865E-06-3.07390E-05-2.00408E-18 2.38546E-19
 -1      2173 1.48718E-05-3.85828E-05 8.55956E-06-7.71159E-06-2.99532E-18-8.43645E-19
 -1      2174 2.13735E-05-3.96852E-05 6.32521E-06-1.56913E-05-3.01036E-18-6.25110E-19
 -1      2175 3.08051E-05-3.42434E-05 7.30005E-07 3.50834E-05-1.55854E-18 1.35525E-19
 -1      2176 2.01314E-05-3.68121E-05 5.64995E-06 2.40431E-05-2.02695E-18 6.34851E-19
 -1      2177 1.58524E-04-3.28116E-05-5.41323E-05-2.05430E-05 8.65668E-19-1.43276E-18
 -1      2178 9.71358E-05-2.42985E-05-3.12883E-05-9.95725E-06 5.92923E-20-1.04924E-18
 -1      2179 1.57671E-04-2.32246E-05-5.70719E-05 5.01651E-06 1.97359E-18-2.36513E-18
 -1      2180 1.50269E-04-4.32769E-05-4.50727E-05 2.12167E-05-1.86347E-20 2.03076E-18
 -1      2181 9.63234E-05-2.30980E-05-3.14493E-05-1.03207E-05 1.43956E-19-7.62303E-19
 -1      2182 1.59483E-04-5.36771E-05-4.56176E-05-2.23782E-05 7.59153E-20-1.13312E-18
 -1      2183 1.59851E-04-4.07496E-05-5.12964E-05 2.45624E-05 1.32095E-18-3.42964E-18
 -1      2184 9.52553E-05-2.85556E-05-2.85858E-05-2.29844E-08-9.33008E-20-2.96767E-18
 -1      2185 9.52529E-05-2.85212E-05-2.85993E-05 7.60039E-08 8.49534E-19 2.11753E-18
 -1      2186 1.91678E-05-2.57136E-05 2.38368E-06 2.21918E-05-1.45414E-18 6.11981E-19
 -1      2187 9.52523E-05-2.85423E-05-2.85895E-05-3.72533E-08-1.04149E-18-3.53376E-18
 -1      2188 9.52499E-05-2.85304E-05-2.85940E-05-5.28216E-08 1.82709E-19-8.11983E-19
 -1      2189 9.52529E-05-2.85047E-05-2.86066E-05-8.95146E-08-1.47293E-19-6.67493E-19
 -1      2190 9.52683E-05-2.85360E-05-2.85989E-05-6.15435E-08-1.25121E-18-2.04367E-18
 -1      2191 6.41873E-05-4.03153E-05-1.04395E-05 4.76588E-05-1.05032E-18 7.00390E-19
 -1      2192 4.73320E-05-3.75251E-05-4.52364E-06 4.17941E-05-1.10411E-18 5.56924E-19
 -1      2193 4.20747E-05-3.01431E-05-4.69801E-06 4.16772E-05-9.56935E-19 1.24281E-18
 -1      2194 1.23302E-04-5.17584E-05-3.04513E-05 3.72414E-05-1.01496E-18 2.80664E-18
 -1      2195 1.47187E-05-2.61875E-05 4.16546E-06-4.32352E-06-2.51299E-18-6.29345E-19
 -1      2196 6.92677E-05-4.92566E-05-9.29618E-06-3.69591E-05-1.90244E-18-3.84871E-20
 -1      2197 1.47793E-04-6.53216E-05-3.50048E-05-1.78938E-05-1.51809E-18 7.07273E-20
 -1      2198 1.76823E-04-4.95999E-05-5.35745E-05-1.10554E-05 3.64012E-19-3.47284E-20
 -1      2199 1.59968E-04-6.35815E-05-4.07959E-05 9.84341E-06 5.72806E-19-6.77626E-20
 -1      2200 1.22449E-04-6.33062E-05-2.55573E-05 3.01721E-05 7.58942E-19-7.52589E-19
 -1      2201 7.68192E-05-5.07375E-05-1.15773E-05 3.79553E-05 4.21399E-19-2.68933E-19
 -1      2202 3.73281E-05-3.45437E-05-1.69577E-06 2.89615E-05-3.70365E-19 9.40842E-19
 -1      2203 1.60902E-05-2.35389E-05 2.82492E-06 1.99442E-06-4.98558E-19 3.43980E-18
 -1      2204 5.34547E-05-3.97471E-05-6.30096E-06-4.49951E-05-1.60216E-18 3.46648E-18
 -1      2205 1.26584E-04-5.18449E-05-3.17908E-05-3.53918E-05-2.45385E-18 2.52691E-18
 -1      2206 1.52460E-04-4.17405E-05-4.66977E-05-1.86794E-05-3.11041E-18 2.61310E-18
 -1      2207 1.60986E-04-2.58434E-05-5.69340E-05-3.76864E-06-1.88380E-18 1.85373E-18
 -1      2208 1.61263E-04-1.29429E-05-6.26660E-05 8.15941E-07-1.58522E-18 5.04938E-19
 -1      2209 1.60730E-04-2.79930E-05-5.59736E-05 6.32454E-06 2.64486E-19 1.61148E-18
 -1      2210 1.65562E-04-1.65457E-05-6.33855E-05 1.24568E-06-1.72075E-18 2.05765E-18
 -1      2211 1.48247E-04-1.30846E-05-5.80455E-05-3.62805E-06-1.44038E-18 6.42157E-19
 -1      2212 1.48461E-04-8.64220E-06-6.03865E-05-2.35286E-06-1.44207E-18-2.13876E-20
 -1      2213 2.30517E-05-2.65446E-05 1.02470E-06-2.72579E-05-1.03613E-18 4.22246E-18
 -1      2214 1.68919E-04-5.93573E-05-4.64633E-05 4.08387E-06 6.15105E-19-1.67416E-18
 -1      2215 1.77008E-04-5.28509E-05-5.27330E-05-2.36644E-06 1.08958E-18-1.52466E-18
 -1      2216 1.77049E-04-4.62332E-05-5.61422E-05-1.87026E-06 1.05201E-18-2.28995E-18
 -1      2217 1.95577E-04-4.32330E-05-6.39681E-05-3.31005E-07 9.44018E-19-2.75667E-18
 -1      2218 3.32357E-05-3.57953E-05 2.28223E-07-2.65922E-05-2.76874E-18-8.12940E-19
 -1      2219 1.74650E-04-4.98624E-05-5.35929E-05 1.42475E-05 4.48504E-19-4.05898E-18
 -1      2220 8.81402E-05-1.10989E-05-3.30573E-05-3.60608E-06 7.31018E-19 1.59963E-19
 -1      2221 8.83794E-05-1.13765E-05-3.30382E-05-4.73627E-06 7.29872E-19 8.23938E-20
 -1      2222 8.87374E-05-1.18719E-05-3.29880E-05-5.74430E-06 7.02412E-19 8.08519E-20
 -1      2223 8.91467E-05-1.23514E-05-3.29575E-05-6.90881E-06 6.78910E-19 9.22670E-20
 -1      2224 8.98906E-05-1.37296E-05-3.26393E-05-4.82146E-06 7.70866E-19 1.04496E-19
 -1      2225 8.77811E-05-1.06241E-05-3.31013E-05 6.10220E-07 7.69630E-19 6.12749E-19
 -1      2226 8.77778E-05-1.06196E-05-3.31019E-05-4.86115E-07 7.11871E-19 5.18907E-19
 -1      2227 8.79646E-05-1.08554E-05-3.30810E-05 2.72118E-06 8.01825E-19 5.74897E-19
 -1      2228 8.78480E-05-1.07188E-05-3.30914E-05 1.61566E-06 7.90648E-19 5.87649E-19
 -1      2229 8.90821E-05-1.26447E-05-3.27614E-05 1.03310E-06 7.45023E-19 5.91375E-19
 -1      2230 8.84063E-05-1.14173E-05-3.30326E-05 4.82452E-06 7.27623E-19 5.86120E-19
 -1      2231 8.81632E-05-1.11338E-05-3.30525E-05 3.71248E-06 7.30981E-19 5.34888E-19
 -1      2232 8.93535E-05-1.30115E-05-3.27192E-05 2.96984E-06 7.20668E-19 4.82819E-19
 -1      2233 8.91950E-05-1.24208E-05-3.29487E-05 6.99317E-06 6.35172E-19 8.25751E-19
 -1      2234 8.87730E-05-1.19253E-05-3.29807E-05 5.82893E-06 7.04899E-19 6.40158E-19
 -1      2235 8.99218E-05-1.37793E-05-3.26311E-05 4.89602E-06 6.86366E-19 5.78954E-19
 -1      2236 9.04705E-05-1.40527E-05-3.28143E-05 9.13281E-06 4.15446E-19 1.07356E-18
 -1      2237 8.97890E-05-1.32340E-05-3.28636E-05 7.95813E-06 4.87382E-19 9.29301E-19
 -1      2238 9.08707E-05-1.50654E-05-3.24806E-05 6.77256E-06 5.21207E-19 7.90143E-19
 -1      2239 9.24614E-05-1.66689E-05-3.25837E-05 1.09711E-05 2.23845E-19 1.25315E-18
 -1      2240 9.13726E-05-1.52872E-05-3.26722E-05 9.95123E-06 3.18068E-19 1.17141E-18
 -1      2241 9.23031E-05-1.70480E-05-3.22315E-05 8.42628E-06 2.37625E-19 1.03354E-18
 -1      2242 9.54821E-05-2.08104E-05-3.20958E-05 1.16311E-05 8.92627E-20 1.69375E-18
 -1      2243 9.38079E-05-1.84682E-05-3.23268E-05 1.13908E-05 1.81196E-19 1.44472E-18
 -1      2244 9.43403E-05-2.00193E-05-3.18024E-05 9.39148E-06 1.31717E-19 1.31592E-18
 -1      2245 9.74723E-05-2.45815E-05-3.13017E-05 9.78678E-06 6.27334E-21 1.90953E-18
 -1      2246 9.62489E-05-2.22177E-05-3.17247E-05 1.10258E-05 1.89259E-20 1.80971E-18
 -1      2247 9.58005E-05-2.31824E-05-3.11201E-05 8.71397E-06 4.74471E-21 1.64624E-18
 -1      2248 9.62927E-05-2.56556E-05-3.02791E-05 6.81586E-06-5.00676E-20 1.81504E-18
 -1      2249 9.59165E-05-2.50762E-05-3.03132E-05-6.10189E-06 2.20755E-19-6.35417E-19
 -1      2250 9.52715E-05-2.58275E-05-2.97767E-05-4.17323E-06 1.37755E-19-4.73199E-19
 -1      2251 9.51712E-05-2.65108E-05-2.93686E-05-2.81289E-06 4.99783E-20-3.38389E-19
 -1      2252 9.47233E-05-2.68784E-05-2.90752E-05-1.72646E-06 4.17462E-20-2.76622E-19
 -1      2253 9.53673E-05-2.53308E-05-3.00240E-05-4.15162E-06 1.49195E-19-3.49441E-19
 -1      2254 9.45459E-05-2.72024E-05-2.88230E-05-8.41435E-07 1.80334E-20-7.53020E-20
 -1      2255 9.43211E-05-2.74161E-05-2.86700E-05-2.02564E-07 1.43929E-22-1.58928E-19
 -1      2256 9.50929E-05-2.66470E-05-2.93479E-05-1.72109E-06 8.25262E-20-1.47574E-19
 -1      2257 9.41927E-05-2.75969E-05-2.85186E-05 3.77452E-07-7.86717E-20-6.85085E-20
 -1      2258 9.41430E-05-2.77433E-05-2.84525E-05 7.72498E-07-6.48435E-20-4.73278E-20
 -1      2259 9.48238E-05-2.73618E-05-2.89249E-05-1.27637E-07-5.85261E-20 8.32570E-20
 -1      2260 9.40943E-05-2.78377E-05-2.83832E-05 1.11487E-06-1.15219E-19 4.79824E-20
 -1      2261 9.41712E-05-2.79419E-05-2.83782E-05 1.34754E-06-1.05209E-20-4.34527E-20
 -1      2262 9.46799E-05-2.77696E-05-2.86873E-05 8.82718E-07-1.38698E-19 2.82878E-19
 -1      2263 9.41851E-05-2.79983E-05-2.83596E-05 1.57703E-06-1.70932E-20-3.94137E-20
 -1      2264 9.43466E-05-2.80780E-05-2.83941E-05 1.73930E-06-4.68097E-20 8.79516E-20
 -1      2265 9.46647E-05-2.79922E-05-2.85827E-05 1.51730E-06-8.85176E-20 4.45019E-19
 -1      2266 9.44077E-05-2.81057E-05-2.84128E-05 1.91548E-06-3.70395E-20 1.20122E-19
 -1      2267 9.46332E-05-2.81670E-05-2.84773E-05 2.05752E-06-7.82108E-20 3.72457E-19
 -1      2268 9.47518E-05-2.81087E-05-2.85678E-05 1.96702E-06 5.17112E-20 3.87811E-19
 -1      2269 9.47280E-05-2.81694E-05-2.85254E-05 2.22784E-06-2.63323E-20 5.66930E-19
 -1      2270 9.50082E-05-2.82138E-05-2.86158E-05 2.38966E-06 1.39721E-19 7.25527E-19
 -1      2271 9.49139E-05-2.81430E-05-2.86209E-05 2.34772E-06 1.73853E-19 7.28402E-19
 -1      2272 9.51246E-05-2.81889E-05-2.86891E-05 2.59451E-06 3.63081E-20 6.31122E-19
 -1      2273 9.54595E-05-2.82160E-05-2.88053E-05 2.81275E-06 2.65566E-21 6.32586E-19
 -1      2274 9.51270E-05-2.81006E-05-2.87290E-05 2.75253E-06 2.10282E-20 9.74717E-19
 -1      2275 9.55855E-05-2.81571E-05-2.89021E-05 3.09035E-06-7.76640E-20 3.39851E-19
 -1      2276 9.59843E-05-2.81650E-05-2.90474E-05 3.40237E-06-2.53376E-19 3.70798E-19
 -1      2277 9.53681E-05-2.79743E-05-2.88850E-05 3.26356E-06-2.30608E-19 7.54837E-19
 -1      2278 9.61119E-05-2.80550E-05-2.91737E-05 3.81282E-06-3.51105E-19 1.17724E-19
 -1      2279 9.66065E-05-2.80363E-05-2.93633E-05 4.29138E-06-3.56000E-19 3.32219E-19
 -1      2280 9.56168E-05-2.77392E-05-2.90913E-05 3.98258E-06-5.52714E-19 9.75101E-20
 -1      2281 9.66951E-05-2.78671E-05-2.95072E-05 4.84590E-06-1.21319E-19 3.37520E-19
 -1      2282 9.72617E-05-2.78219E-05-2.97298E-05 5.49014E-06-1.29391E-19 6.48741E-19
 -1      2283 9.58297E-05-2.73621E-05-2.93402E-05 4.98385E-06-2.66600E-19 5.54305E-20
 -1      2284 9.72904E-05-2.75729E-05-2.98928E-05 6.25166E-06-4.94637E-19 8.80540E-19
 -1      2285 9.79672E-05-2.75011E-05-3.01618E-05 7.13426E-06-5.78782E-19 9.42008E-19
 -1      2286 9.59481E-05-2.68221E-05-2.96175E-05 6.32934E-06-2.43876E-19 5.93396E-19
 -1      2287 9.78922E-05-2.71609E-05-3.03330E-05 8.15356E-06-4.42067E-19 1.35353E-18
 -1      2288 9.87037E-05-2.70859E-05-3.06474E-05 9.31708E-06-2.32941E-19 1.35760E-18
 -1      2289 9.59061E-05-2.60831E-05-2.99094E-05 8.13170E-06-2.33467E-19 1.38987E-18
 -1      2290 9.84876E-05-2.66778E-05-3.08016E-05 1.06389E-05-3.42820E-19 1.21616E-18
 -1      2291 9.94788E-05-2.66811E-05-3.11464E-05 1.20866E-05-6.14794E-19 1.23872E-18
 -1      2292 9.56242E-05-2.51668E-05-3.01726E-05 1.04766E-05-3.71168E-19 1.78732E-18
 -1      2293 9.91350E-05-2.63234E-05-3.12343E-05 1.37323E-05-6.43907E-19 1.19139E-18
 -1      2294 1.00420E-04-2.66233E-05-3.15688E-05 1.53660E-05-2.48240E-19 1.30559E-18
 -1      2295 9.50686E-05-2.42415E-05-3.03230E-05 1.34209E-05-8.55389E-19 1.86662E-18
 -1      2296 1.00131E-04-2.66487E-05-3.15090E-05 1.73007E-05-6.66422E-19 9.33622E-19
 -1      2297 1.02001E-04-2.77391E-05-3.17613E-05 1.88165E-05-1.39163E-19 3.09742E-20
 -1      2298 9.43967E-05-2.38169E-05-3.02153E-05 1.69612E-05-7.30741E-19 1.09111E-18
 -1      2299 1.02356E-04-2.88633E-05-3.14535E-05 2.08660E-05 7.89130E-21-1.00707E-18
 -1      2300 1.05470E-04-3.16706E-05-3.15492E-05 2.16056E-05-3.89238E-19-1.27191E-18
 -1      2301 9.42902E-05-2.50823E-05-2.96458E-05 2.09764E-05-7.99430E-19 1.03563E-19
 -1      2302 1.08055E-04-3.53626E-05-3.09367E-05 2.32285E-05-6.46458E-19-2.09520E-18
 -1      2303 1.13792E-04-4.13065E-05-3.09384E-05 2.18868E-05-7.30672E-19-1.63927E-18
 -1      2304 9.66900E-05-3.05121E-05-2.84105E-05 2.51784E-05-7.44529E-19-1.37570E-18
 -1      2305 1.20760E-04-4.85011E-05-3.05392E-05 2.13188E-05-2.63533E-19-1.61750E-18
 -1      2306 1.29275E-04-5.60556E-05-3.12181E-05 1.62966E-05-4.51680E-19-1.72624E-18
 -1      2307 1.05163E-04-4.27401E-05-2.68649E-05 2.78434E-05-6.66721E-19-1.69110E-18
 -1      2308 1.50497E-04-4.35122E-05-4.62438E-05 9.63585E-06-4.80532E-19 1.43276E-18
 -1      2309 1.43166E-04-4.94938E-05-4.02518E-05 1.56915E-05-5.15896E-19 1.42767E-18
 -1      2310 9.52683E-05-2.85180E-05-2.86065E-05 1.02356E-07 3.43386E-19 2.21276E-18
 -1      2311 1.43156E-04-6.16802E-05-3.49580E-05-4.72218E-06-6.46710E-19-1.54001E-18
 -1      2312 1.35400E-04-5.66915E-05-3.33112E-05-1.24488E-05 2.92332E-19-1.88550E-18
 -1      2313 1.23280E-04-4.86638E-05-3.19635E-05-1.81531E-05 9.71653E-19-1.64429E-18
 -1      2314 1.16813E-04-4.19775E-05-3.17715E-05-2.13362E-05 7.43470E-19-1.28554E-18
 -1      2315 1.12093E-04-3.67961E-05-3.22043E-05-2.12119E-05 3.06560E-19-1.53570E-18
 -1      2316 1.07833E-04-3.27247E-05-3.20804E-05-2.15998E-05-9.18369E-20-1.17884E-18
 -1      2317 1.03979E-04-3.72039E-05-2.87158E-05-2.57225E-05 3.67295E-19-1.86286E-18
 -1      2318 1.06216E-04-3.04376E-05-3.24187E-05-1.99231E-05-3.04224E-19-8.18085E-19
 -1      2319 1.03575E-04-2.85320E-05-3.21479E-05-1.88202E-05 4.27658E-19-7.75684E-19
 -1      2320 9.81464E-05-2.85187E-05-2.98663E-05-2.28689E-05-1.31370E-19-1.84757E-18
 -1      2321 1.03290E-04-2.79391E-05-3.22396E-05-1.68350E-05 3.77016E-19-1.31396E-18
 -1      2322 1.01512E-04-2.72035E-05-3.18652E-05-1.52374E-05 4.94100E-19-9.62792E-19
 -1      2323 9.65502E-05-2.52344E-05-3.05493E-05-1.89646E-05-4.80049E-19-1.63432E-18
 -1      2324 1.01599E-04-2.73327E-05-3.17762E-05-1.32992E-05 9.88511E-19-5.13296E-19
 -1      2325 1.00251E-04-2.71168E-05-3.13636E-05-1.16582E-05 9.49699E-19 7.61806E-19
 -1      2326 9.64859E-05-2.47223E-05-3.07267E-05-1.50224E-05 8.49215E-19-1.54470E-18
 -1      2327 1.00359E-04-2.74465E-05-3.11991E-05-1.01154E-05 6.67005E-20 1.25859E-18
 -1      2328 9.93558E-05-2.74245E-05-3.08427E-05-8.79210E-06-1.71905E-20 1.28481E-18
 -1      2329 9.67239E-05-2.52966E-05-3.05890E-05-1.15578E-05 5.99888E-19-4.62537E-19
 -1      2330 9.93676E-05-2.77370E-05-3.06565E-05-7.56335E-06-1.16910E-18 1.63554E-18
 -1      2331 9.85735E-05-2.77634E-05-3.03573E-05-6.52066E-06-2.15709E-18 9.33863E-19
 -1      2332 9.68538E-05-2.60896E-05-3.03120E-05-8.77419E-06-5.87346E-19-4.49813E-19
 -1      2333 9.85102E-05-2.80060E-05-3.01818E-05-5.57288E-06-1.31456E-18 1.03430E-18
 -1      2334 9.78848E-05-2.80337E-05-2.99424E-05-4.78346E-06-1.16355E-18 1.83597E-18
 -1      2335 9.68174E-05-2.67976E-05-2.99999E-05-6.56740E-06-1.47872E-18 3.02949E-19
 -1      2336 9.77782E-05-2.82043E-05-2.97908E-05-4.06748E-06-8.48128E-19 2.00820E-18
 -1      2337 9.72917E-05-2.82222E-05-2.96048E-05-3.48276E-06-1.27380E-19 2.01384E-18
 -1      2338 9.66618E-05-2.73414E-05-2.97051E-05-4.86507E-06-4.10005E-19 1.55744E-18
 -1      2339 9.71699E-05-2.83358E-05-2.94802E-05-2.94879E-06-9.18499E-19 1.50879E-18
 -1      2340 9.67966E-05-2.83442E-05-2.93386E-05-2.52074E-06-4.15364E-19 1.01562E-18
 -1      2341 9.64470E-05-2.77295E-05-2.94497E-05-3.57554E-06-6.20476E-19 2.24591E-18
 -1      2342 9.66777E-05-2.84173E-05-2.92394E-05-2.12548E-06-2.50517E-19 6.59418E-19
 -1      2343 9.63941E-05-2.84198E-05-2.91330E-05-1.81367E-06-3.29840E-19 7.33666E-19
 -1      2344 9.62184E-05-2.79957E-05-2.92393E-05-2.61000E-06-8.19782E-19 1.99478E-18
 -1      2345 9.62820E-05-2.84681E-05-2.90522E-05-1.50892E-06-1.89822E-19 5.17945E-19
 -1      2346 9.60626E-05-2.84668E-05-2.89701E-05-1.27403E-06-1.40330E-18-4.98238E-19
 -1      2347 9.59986E-05-2.81765E-05-2.90677E-05-1.87848E-06-9.31131E-19 1.68388E-18
 -1      2348 9.59749E-05-2.84946E-05-2.89121E-05-1.06352E-06-1.53588E-18-1.21857E-18
 -1      2349 9.58212E-05-2.84927E-05-2.88550E-05-9.01660E-07-1.53447E-19-1.02927E-18
 -1      2350 9.58078E-05-2.82982E-05-2.89346E-05-1.33810E-06-1.73862E-18 2.12723E-20
 -1      2351 9.57495E-05-2.85100E-05-2.88111E-05-7.46625E-07 8.05538E-19-8.44180E-19
 -1      2352 9.56377E-05-2.85078E-05-2.87697E-05-6.28782E-07 1.05757E-18-1.62320E-19
 -1      2353 9.56538E-05-2.83753E-05-2.88355E-05-9.51422E-07 3.90938E-19-1.04148E-18
 -1      2354 9.55813E-05-2.85184E-05-2.87370E-05-5.14705E-07 5.38447E-19 9.94239E-20
 -1      2355 9.55013E-05-2.85166E-05-2.87074E-05-4.28507E-07-8.81459E-19 3.34918E-19
 -1      2356 9.55308E-05-2.84264E-05-2.87606E-05-6.65984E-07 1.31773E-18-1.43672E-18
 -1      2357 9.54577E-05-2.85228E-05-2.86834E-05-3.44307E-07 2.78586E-19 1.77363E-18
 -1      2358 9.54015E-05-2.85215E-05-2.86626E-05-2.80721E-07 1.51515E-18 1.98647E-18
 -1      2359 9.54349E-05-2.84600E-05-2.87048E-05-4.55151E-07 8.89194E-19 4.15392E-19
 -1      2360 9.53685E-05-2.85254E-05-2.86450E-05-2.18319E-07 1.40084E-18 1.40290E-18
 -1      2361 9.53300E-05-2.85244E-05-2.86306E-05-1.71628E-07 1.65996E-18 9.11749E-19
 -1      2362 9.53613E-05-2.84821E-05-2.86635E-05-2.98965E-07 9.24209E-19 2.04485E-18
 -1      2363 9.53103E-05-2.85297E-05-2.86189E-05-1.28604E-07 1.28409E-18-3.74387E-19
 -1      2364 9.52849E-05-2.85306E-05-2.86084E-05-9.45965E-08 1.47258E-19-1.18679E-18
 -1      2365 9.52781E-05-2.85148E-05-2.86127E-05-1.10220E-07-8.78877E-19-2.41410E-18
 -1      2366 9.53114E-05-2.84979E-05-2.86345E-05-1.89223E-07 2.09507E-19 1.03051E-18
 -1      2367 9.39121E-05-2.78348E-05-2.83135E-05-9.78250E-07 1.51463E-19 1.38402E-18
 -1      2368 9.38957E-05-2.77138E-05-2.83457E-05-7.04870E-07 1.83194E-19 1.40991E-18
 -1      2369 9.39944E-05-2.75909E-05-2.84525E-05-2.78136E-07 7.88386E-20 1.45246E-18
 -1      2370 9.41331E-05-2.74334E-05-2.85541E-05 1.94952E-07 4.99783E-20 1.45739E-18
 -1      2371 9.45694E-05-2.76060E-05-2.87116E-05-3.44058E-07 1.88450E-19 1.25030E-18
 -1      2372 9.43123E-05-2.72138E-05-2.87492E-05 8.91767E-07-2.73631E-21 1.51383E-18
 -1      2373 9.46454E-05-2.69692E-05-2.89652E-05 1.71836E-06-6.50296E-20 1.59653E-18
 -1      2374 9.48109E-05-2.71025E-05-2.90334E-05 8.85828E-07 7.53016E-20 1.24351E-18
 -1      2375 9.40124E-05-2.80193E-05-2.82779E-05-1.39169E-06 2.20058E-19 1.27342E-18
 -1      2376 9.38937E-05-2.79167E-05-2.82660E-05-1.23515E-06 1.35547E-19 1.26677E-18
 -1      2377 9.44808E-05-2.79139E-05-2.85389E-05-1.10155E-06 2.21536E-19 1.16612E-18
 -1      2378 9.42426E-05-2.81749E-05-2.83104E-05-1.63343E-06 1.28538E-19 1.23767E-18
 -1      2379 9.40575E-05-2.80817E-05-2.82704E-05-1.54477E-06 2.48822E-19 1.32939E-18
 -1      2380 9.45269E-05-2.81209E-05-2.84673E-05-1.56079E-06 2.85715E-19 1.26014E-18
 -1      2381 9.45646E-05-2.83190E-05-2.83873E-05-1.77453E-06-4.82203E-20 1.35373E-18
 -1      2382 9.43362E-05-2.82292E-05-2.83295E-05-1.72488E-06 2.54589E-20 1.33769E-18
 -1      2383 9.46784E-05-2.82753E-05-2.84640E-05-1.83823E-06 7.10289E-20 1.30688E-18
 -1      2384 9.49535E-05-2.84654E-05-2.84920E-05-1.85498E-06 7.89627E-20 1.13994E-18
 -1      2385 9.46962E-05-2.83734E-05-2.84236E-05-1.82947E-06 3.20930E-20 1.36139E-18
 -1      2386 9.49121E-05-2.84072E-05-2.85062E-05-2.00691E-06-4.76283E-20 1.28036E-18
 -1      2387 9.53940E-05-2.86281E-05-2.86122E-05-1.88989E-06 2.69133E-19 1.07372E-18
 -1      2388 9.51176E-05-2.85278E-05-2.85387E-05-1.88500E-06 2.65250E-19 1.03718E-18
 -1      2389 9.52137E-05-2.85409E-05-2.85773E-05-2.10728E-06 2.38840E-19 9.06357E-19
 -1      2390 9.58759E-05-2.88216E-05-2.87377E-05-1.87207E-06 3.11559E-19 9.84537E-19
 -1      2391 9.55885E-05-2.87068E-05-2.86639E-05-1.89458E-06 3.33617E-19 1.20345E-18
 -1      2392 9.55772E-05-2.86993E-05-2.86646E-05-2.15260E-06 2.45771E-19 9.66181E-19
 -1      2393 9.63896E-05-2.90600E-05-2.88585E-05-1.77305E-06 1.10680E-19 1.32568E-18
 -1      2394 9.61012E-05-2.89255E-05-2.87895E-05-1.83957E-06 1.87989E-19 1.22650E-18
 -1      2395 9.60022E-05-2.89064E-05-2.87578E-05-2.13126E-06 2.62675E-19 1.34264E-18
 -1      2396 9.69209E-05-2.93542E-05-2.89641E-05-1.54464E-06-2.08365E-20 1.08141E-18
 -1      2397 9.66462E-05-2.91975E-05-2.89058E-05-1.68047E-06 7.50782E-20 1.21332E-18
 -1      2398 9.64908E-05-2.91851E-05-2.88474E-05-2.00785E-06 2.20375E-19 1.53279E-18
 -1      2399 9.74446E-05-2.97051E-05-2.90430E-05-1.12351E-06 2.85077E-19 1.05189E-18
 -1      2400 9.72062E-05-2.95302E-05-2.90024E-05-1.35962E-06 1.25837E-19 9.39130E-19
 -1      2401 9.70418E-05-2.95536E-05-2.89253E-05-1.72515E-06 1.91135E-19 6.89662E-19
 -1      2402 9.79174E-05-3.00943E-05-2.90842E-05-4.41992E-07-1.95479E-19 7.31577E-19
 -1      2403 9.77485E-05-2.99165E-05-2.90687E-05-8.08461E-07 1.09221E-19 9.35912E-19
 -1      2404 9.76432E-05-3.00151E-05-2.89844E-05-1.20995E-06 1.93937E-19 4.26296E-19
 -1      2405 9.82707E-05-3.04714E-05-2.90788E-05 5.51012E-07 4.57972E-19 2.28949E-19
 -1      2406 9.82158E-05-3.03229E-05-2.90950E-05 3.67537E-08 1.58733E-19 3.47974E-19
 -1      2407 9.82609E-05-3.05444E-05-2.90207E-05-3.86486E-07 1.92690E-19 3.47984E-19
 -1      2408 9.84066E-05-3.07427E-05-2.90232E-05 1.85668E-06-3.36861E-20 5.13387E-19
 -1      2409 9.85188E-05-3.06763E-05-2.90749E-05 1.20715E-06 2.54475E-19 3.31004E-19
 -1      2410 9.88250E-05-3.10686E-05-2.90349E-05 7.98025E-07 4.57153E-19 3.29945E-20
 -1      2411 9.82040E-05-3.07705E-05-2.89222E-05 3.38261E-06-5.20998E-19 6.63456E-19
 -1      2412 9.85352E-05-3.08560E-05-2.90084E-05 2.66045E-06-3.16011E-19 3.26322E-19
 -1      2413 9.92184E-05-3.14530E-05-2.90343E-05 2.33255E-06-8.57249E-20 1.67045E-19
 -1      2414 9.75461E-05-3.03982E-05-2.87906E-05 4.90198E-06-4.49188E-19 5.03441E-19
 -1      2415 9.81269E-05-3.07044E-05-2.89039E-05 4.23455E-06-6.04692E-19 3.44753E-19
 -1      2416 9.92794E-05-3.15037E-05-2.90335E-05 4.08921E-06-3.38601E-19-5.63163E-20
 -1      2417 9.63770E-05-2.95163E-05-2.86515E-05 6.04503E-06 3.46626E-19 8.20576E-19
 -1      2418 9.71880E-05-3.00739E-05-2.87779E-05 5.61801E-06-1.27129E-19 7.98102E-19
 -1      2419 9.88376E-05-3.10130E-05-2.90503E-05 5.77575E-06-2.47774E-19-9.93401E-19
 -1      2420 9.47822E-05-2.81603E-05-2.85301E-05 6.36394E-06-1.69940E-20 1.52561E-18
 -1      2421 9.57262E-05-2.89158E-05-2.86513E-05 6.37708E-06 4.64774E-19 1.30514E-18
 -1      2422 9.77965E-05-2.98595E-05-2.90990E-05 6.93367E-06-1.68547E-19 6.62526E-20
 -1      2423 9.30489E-05-2.65912E-05-2.84451E-05 5.49586E-06-8.02646E-20 2.14819E-18
 -1      2424 9.39462E-05-2.73814E-05-2.85431E-05 6.07865E-06 1.04144E-19 2.26149E-18
 -1      2425 9.62498E-05-2.81425E-05-2.91807E-05 7.03575E-06-3.35765E-19 1.56242E-18
 -1      2426 9.16361E-05-2.52695E-05-2.84032E-05 3.38034E-06 1.07613E-19 1.98024E-18
 -1      2427 9.22652E-05-2.58568E-05-2.84640E-05 4.50029E-06-1.23124E-19 1.97757E-18
 -1      2428 9.45554E-05-2.62609E-05-2.92768E-05 5.70722E-06-1.22042E-20 1.83630E-18
 -1      2429 9.10118E-05-2.46771E-05-2.84003E-05 4.00079E-07 1.90533E-19 2.64242E-18
 -1      2430 9.11918E-05-2.48510E-05-2.84162E-05 1.82653E-06 1.39327E-19 2.22265E-18
 -1      2431 9.32655E-05-2.48292E-05-2.93533E-05 2.99002E-06-1.84725E-19 2.24526E-18
 -1      2432 9.14179E-05-2.50568E-05-2.84304E-05-2.69787E-06 5.07910E-19 1.87693E-18
 -1      2433 9.10925E-05-2.47502E-05-2.83992E-05-1.32418E-06 8.23730E-19 2.25219E-18
 -1      2434 9.28823E-05-2.44001E-05-2.93781E-05-5.32840E-07 5.93773E-19 2.15177E-18
 -1      2435 9.27236E-05-2.62596E-05-2.84918E-05-5.11229E-06 1.36486E-19 1.22953E-18
 -1      2436 9.19900E-05-2.55894E-05-2.84169E-05-4.12702E-06 1.43625E-19 1.38083E-18
 -1      2437 9.35679E-05-2.51513E-05-2.93408E-05-3.91676E-06 6.29752E-19 2.59521E-18
 -1      2438 9.44975E-05-2.78364E-05-2.85857E-05-6.33665E-06-7.27551E-19 1.69525E-18
 -1      2439 9.35571E-05-2.70337E-05-2.84764E-05-5.91568E-06-2.48264E-19 1.35406E-18
 -1      2440 9.50414E-05-2.67737E-05-2.92602E-05-6.28387E-06-1.36587E-19 1.96380E-18
 -1      2441 9.62376E-05-2.92918E-05-2.87082E-05-6.31665E-06-7.23561E-19 2.56576E-18
 -1      2442 9.53059E-05-2.85810E-05-2.85796E-05-6.43801E-06-6.48587E-19 2.14461E-18
 -1      2443 9.67554E-05-2.86614E-05-2.91717E-05-7.20236E-06-8.86528E-19 2.06965E-18
 -1      2444 9.75836E-05-3.03034E-05-2.88466E-05-5.36042E-06-1.23935E-19 2.80509E-18
 -1      2445 9.68174E-05-2.98161E-05-2.87169E-05-5.86345E-06-2.41854E-19 3.04113E-18
 -1      2446 9.81955E-05-3.02398E-05-2.91063E-05-6.77395E-06-7.23706E-19 2.48030E-18
 -1      2447 9.83960E-05-3.07864E-05-2.89814E-05-3.92104E-06-5.53773E-19 1.99044E-18
 -1      2448 9.78668E-05-3.05473E-05-2.88676E-05-4.60233E-06-7.91595E-20 2.20374E-18
 -1      2449 9.90824E-05-3.11968E-05-2.90775E-05-5.44706E-06 4.34022E-21 2.83035E-18
 -1      2450 9.87114E-05-3.08296E-05-2.90929E-05-2.40604E-06-1.05982E-18 2.41360E-18
 -1      2451 9.84198E-05-3.07918E-05-2.90068E-05-3.09344E-06-1.13813E-18 1.78797E-18
 -1      2452 9.93903E-05-3.15098E-05-2.90802E-05-3.74765E-06-7.45996E-19 1.36653E-18
 -1      2453 9.86541E-05-3.05914E-05-2.91674E-05-1.08459E-06 6.07354E-19 3.00331E-18
 -1      2454 9.85592E-05-3.06824E-05-2.91142E-05-1.66929E-06 1.76741E-19 2.95550E-18
 -1      2455 9.92493E-05-3.13386E-05-2.90984E-05-2.09221E-06-6.50149E-19 7.64005E-19
 -1      2456 9.83633E-05-3.02221E-05-2.91997E-05-8.12635E-08 1.48698E-19 2.52507E-18
 -1      2457 9.84097E-05-3.03754E-05-2.91783E-05-5.16405E-07 3.01520E-19 2.85307E-18
 -1      2458 9.88350E-05-3.08950E-05-2.91150E-05-7.23845E-07 4.86337E-19 1.69232E-18
 -1      2459 9.79547E-05-2.98299E-05-2.91925E-05 5.86536E-07-3.32992E-19 1.69386E-18
 -1      2460 9.80896E-05-2.99980E-05-2.91977E-05 3.03215E-07 3.61302E-19 2.07950E-18
 -1      2461 9.82993E-05-3.03587E-05-2.91178E-05 2.67528E-07 6.31748E-19 1.29652E-18
 -1      2462 9.75099E-05-2.94766E-05-2.91537E-05 9.62785E-07 7.15012E-19 6.24971E-19
 -1      2463 9.76904E-05-2.96318E-05-2.91782E-05 8.08639E-07-2.71495E-19 6.02178E-19
 -1      2464 9.77464E-05-2.98468E-05-2.91016E-05 8.93630E-07 3.77972E-19 2.91626E-19
 -1      2465 9.70794E-05-2.91883E-05-2.90935E-05 1.11614E-06 1.18736E-18-4.34166E-19
 -1      2466 9.72745E-05-2.93181E-05-2.91299E-05 1.05913E-06 1.28474E-18 1.32527E-19
 -1      2467 9.72353E-05-2.94180E-05-2.90669E-05 1.21794E-06 9.84203E-19-6.01063E-19
 -1      2468 9.66908E-05-2.89688E-05-2.90216E-05 1.11674E-06 1.93164E-18-1.07937E-18
 -1      2469 9.68800E-05-2.90704E-05-2.90635E-05 1.12514E-06 1.52700E-18-1.07588E-19
 -1      2470 9.67924E-05-2.90897E-05-2.90179E-05 1.32011E-06 1.47712E-18-3.78837E-19
 -1      2471 9.63558E-05-2.88106E-05-2.89464E-05 1.02439E-06 4.67451E-19-9.03072E-19
 -1      2472 9.65272E-05-2.88862E-05-2.89889E-05 1.07164E-06 1.34463E-18-7.27118E-19
 -1      2473 9.64243E-05-2.88558E-05-2.89603E-05 1.27538E-06 1.46537E-18 2.38944E-19
 -1      2474 9.60770E-05-2.87018E-05-2.88739E-05 8.84582E-07-1.23854E-18-7.60000E-20
 -1      2475 9.62248E-05-2.87557E-05-2.89138E-05 9.50791E-07-6.66373E-19-9.18593E-19
 -1      2476 9.61270E-05-2.86996E-05-2.88996E-05 1.14520E-06-2.25533E-19 2.87289E-19
 -1      2477 9.58514E-05-2.86302E-05-2.88082E-05 7.28728E-07-5.13823E-19-3.97191E-19
 -1      2478 9.59739E-05-2.86672E-05-2.88435E-05 8.00382E-07-7.75894E-19-3.03830E-19
 -1      2479 9.58919E-05-2.86020E-05-2.88404E-05 9.74923E-07-1.05261E-18-3.46580E-19
 -1      2480 9.56733E-05-2.85850E-05-2.87515E-05 5.76452E-07 3.19298E-19-4.99256E-19
 -1      2481 9.57715E-05-2.86096E-05-2.87812E-05 6.45315E-07 1.51296E-19-9.14031E-20
 -1      2482 9.57090E-05-2.85457E-05-2.87859E-05 7.95072E-07-4.91231E-19-5.94783E-19
 -1      2483 9.55358E-05-2.85578E-05-2.87043E-05 4.38405E-07 6.98520E-20 5.76951E-19
 -1      2484 9.56122E-05-2.85735E-05-2.87284E-05 5.00196E-07 2.55245E-20-4.93449E-19
 -1      2485 9.55687E-05-2.85166E-05-2.87380E-05 6.24150E-07-5.58095E-20-7.72004E-19
 -1      2486 9.54320E-05-2.85421E-05-2.86666E-05 3.19036E-07 8.23238E-19 1.63640E-18
 -1      2487 9.54895E-05-2.85519E-05-2.86854E-05 3.72155E-07 2.56502E-19 1.43231E-18
 -1      2488 9.54624E-05-2.85041E-05-2.86976E-05 4.71864E-07-4.52813E-19-2.10230E-19
 -1      2489 9.53551E-05-2.85333E-05-2.86375E-05 2.19009E-07 3.08654E-19 1.87525E-18
 -1      2490 9.53971E-05-2.85391E-05-2.86516E-05 2.63469E-07 1.33623E-18 2.33004E-18
 -1      2491 9.53826E-05-2.85011E-05-2.86646E-05 3.41743E-07 6.92227E-19 2.31488E-19
 -1      2492 9.52994E-05-2.85289E-05-2.86154E-05 1.37410E-07 4.87867E-19 1.34576E-18
 -1      2493 9.53290E-05-2.85319E-05-2.86257E-05 1.73037E-07-1.50120E-19 2.12546E-18
 -1      2494 9.53227E-05-2.85021E-05-2.86383E-05 2.33510E-07 5.64991E-19 1.40258E-18
 -1      2495 9.51286E-05-2.82904E-05-2.86460E-05 1.61223E-07-1.02542E-18 7.02344E-19
 -1      2496 9.51494E-05-2.83198E-05-2.86408E-05 1.71607E-07-1.54080E-18-1.54654E-19
 -1      2497 9.51742E-05-2.83578E-05-2.86363E-05 1.77298E-07-1.87949E-18-6.18207E-19
 -1      2498 9.51956E-05-2.83892E-05-2.86306E-05 1.73999E-07-1.44065E-18 8.10770E-20
 -1      2499 9.51522E-05-2.83147E-05-2.86442E-05 2.09709E-07-1.82565E-18 4.05048E-19
 -1      2500 9.52193E-05-2.84283E-05-2.86253E-05 1.65767E-07-5.56209E-19-8.54717E-20
 -1      2501 9.52392E-05-2.84596E-05-2.86192E-05 1.50737E-07 2.32743E-19 1.12295E-19
 -1      2502 9.52058E-05-2.83922E-05-2.86349E-05 2.05726E-07-5.69778E-19-1.35529E-18
 -1      2503 2.85587E-05-1.95421E-05-3.34342E-06 2.99364E-05-5.96523E-19 1.05265E-18
 -1      2504 2.11704E-05-1.60115E-05-1.62609E-06 1.54109E-05-8.56562E-19 5.03985E-19
 -1      2505 9.50910E-05-2.82348E-05-2.86538E-05 1.18648E-07-1.44472E-18-3.15134E-19
 -1      2506 9.51073E-05-2.82576E-05-2.86498E-05 1.40637E-07-1.59515E-18 1.75744E-19
 -1      2507 9.50984E-05-2.82425E-05-2.86519E-05 1.80663E-07-1.40216E-18-8.23867E-20
 -1      2508 9.50667E-05-2.81986E-05-2.86588E-05 5.59125E-08-1.63149E-18-2.23008E-18
 -1      2509 9.50761E-05-2.82116E-05-2.86565E-05 8.60576E-08-1.17306E-18-1.72734E-18
 -1      2510 9.50559E-05-2.81853E-05-2.86579E-05 1.23114E-07-2.29300E-18-9.64751E-19
 -1      2511 9.50599E-05-2.81873E-05-2.86605E-05-1.72756E-08-1.19090E-18 2.08147E-19
 -1      2512 9.50605E-05-2.81883E-05-2.86601E-05 1.61474E-08-1.72634E-18-1.23618E-18
 -1      2513 9.50310E-05-2.81509E-05-2.86618E-05 4.48817E-08-2.20354E-18-1.45567E-18
 -1      2514 9.50723E-05-2.82032E-05-2.86586E-05-8.89415E-08-6.04786E-19-6.50338E-20
 -1      2515 9.50637E-05-2.81917E-05-2.86604E-05-5.79491E-08-6.27153E-19 7.43709E-19
 -1      2516 9.50282E-05-2.81446E-05-2.86632E-05-4.22254E-08-4.67219E-19 6.12424E-19
 -1      2517 9.51024E-05-2.82440E-05-2.86536E-05-1.45775E-07-5.09737E-19-2.81263E-18
 -1      2518 9.50858E-05-2.82219E-05-2.86571E-05-1.23115E-07-3.44758E-19-1.59963E-18
 -1      2519 9.50490E-05-2.81682E-05-2.86620E-05-1.23625E-07 4.09931E-19-4.30616E-19
 -1      2520 9.51472E-05-2.83061E-05-2.86457E-05-1.78963E-07 1.51059E-19-4.60275E-20
 -1      2521 9.51246E-05-2.82757E-05-2.86506E-05-1.68402E-07-1.16550E-19-1.66996E-18
 -1      2522 9.50911E-05-2.82197E-05-2.86582E-05-1.86064E-07 3.63080E-19-1.36739E-18
 -1      2523 9.51986E-05-2.83805E-05-2.86356E-05-1.80537E-07 6.19312E-19 2.09193E-18
 -1      2524 9.51742E-05-2.83466E-05-2.86414E-05-1.84768E-07 3.04604E-19 1.81454E-18
 -1      2525 9.51491E-05-2.82936E-05-2.86517E-05-2.18384E-07 1.04700E-18 8.19250E-19
 -1      2526 9.52464E-05-2.84565E-05-2.86235E-05-1.50548E-07-1.39964E-19 1.50546E-18
 -1      2527 9.52257E-05-2.84238E-05-2.86300E-05-1.68747E-07 3.98389E-19 1.39996E-18
 -1      2528 9.52118E-05-2.83788E-05-2.86425E-05-2.13246E-07 1.02001E-18 2.35695E-18
 -1      2529 9.50626E-05-2.00119E-05-3.22126E-05-1.16993E-05 2.49438E-19-6.80591E-19
 -1      2530 9.54629E-05-2.33397E-05-3.09319E-05-7.89006E-06 2.17734E-19-6.32562E-19
 -1      2531 9.50625E-05-2.25373E-05-3.10689E-05-7.52319E-06 2.37599E-19-5.12782E-19
 -1      2532 9.32484E-05-1.76990E-05-3.24061E-05-1.12245E-05 3.70014E-19-4.69071E-19
 -1      2533 1.02610E-04-5.28522E-05-2.12669E-05 4.51496E-05-1.23984E-18 2.04495E-18
 -1      2534 8.68728E-05-4.83672E-05-1.62430E-05 4.65593E-05-1.51534E-18 1.15999E-18
 -1      2535 1.34340E-04-5.48725E-05-3.42830E-05 2.88396E-05-5.28125E-19 1.87321E-18
 -1      2536 1.18226E-04-5.57068E-05-2.67823E-05 3.60128E-05-1.14053E-18 2.79299E-18
 -1      2537 6.59782E-05-4.38672E-05-9.46513E-06-3.70788E-05-2.48181E-18-2.81427E-19
 -1      2538 8.76642E-05-5.23884E-05-1.52326E-05-3.95374E-05-1.64833E-18-5.98429E-19
 -1      2539 1.40342E-04-6.70580E-05-3.15096E-05-1.72965E-05-1.80757E-18-3.53848E-19
 -1      2540 1.54187E-04-6.68902E-05-3.78956E-05-7.04009E-06-8.90973E-19-7.27601E-19
 -1      2541 1.67768E-04-3.35508E-05-5.63868E-05 1.85458E-05 1.64748E-18-3.84405E-18
 -1      2542 1.68073E-04-2.86852E-05-5.86579E-05-1.36817E-05 9.05902E-19-6.28498E-19
 -1      2543 1.22254E-04-5.63344E-05-2.81523E-05-3.32886E-05-7.81176E-19 1.35229E-18
 -1      2544 1.37543E-04-5.45582E-05-3.58000E-05-2.60202E-05-1.96819E-18 9.96323E-19
 -1      2545 1.69302E-05-1.65206E-05 5.57042E-08-9.80888E-08-1.64610E-18-6.60686E-19
 -1      2546 2.22228E-05-2.09406E-05-2.66300E-07-1.39488E-05-2.28582E-18 5.50571E-20
 -1      2547 8.78371E-05-1.07022E-05-3.30937E-05-1.49171E-06 7.77682E-19 4.01209E-19
 -1      2548 8.79464E-05-1.08285E-05-3.30846E-05-2.59674E-06 7.43552E-19 2.85682E-19
 -1      2549 8.93330E-05-1.29794E-05-3.27244E-05-2.87509E-06 7.39607E-19 2.58312E-19
 -1      2550 8.90746E-05-1.26329E-05-3.27633E-05-9.20487E-07 7.33801E-19 4.40682E-19
 -1      2551 2.54905E-05-1.73995E-05-2.94044E-06-2.38752E-05-1.05646E-18 4.42744E-18
 -1      2552 3.53014E-05-2.43040E-05-4.30883E-06-3.63703E-05-1.42746E-18 3.82647E-18
 -1      2553 1.49181E-04-2.43985E-05-5.42284E-05-4.52111E-06-2.41404E-19 2.82697E-19
 -1      2554 1.51267E-04-3.36893E-05-5.05494E-05 1.28634E-06 5.88688E-20 7.08120E-19
 -1      2555 1.45852E-04-3.94572E-05-4.56009E-05-2.00974E-06-2.80156E-19 3.87729E-19
 -1      2556 1.47006E-04-1.22972E-05-5.81596E-05 4.37183E-06-1.76183E-18-1.23879E-19
 -1      2557 1.47611E-04-9.04803E-06-5.98939E-05 1.40891E-06-1.81985E-18-4.59198E-19
 -1      2558 1.50809E-04-3.07956E-05-5.16490E-05 1.24559E-06-2.08391E-18 1.71101E-18
 -1      2559 1.49554E-04-2.18982E-05-5.53637E-05 4.42904E-06-1.67353E-18 1.12550E-18
 -1      2560 1.44834E-04-4.83979E-05-4.14510E-05-1.43487E-05-2.38339E-18 1.27796E-18
 -1      2561 1.50986E-04-4.18152E-05-4.72961E-05-6.88476E-06-2.14702E-18 1.67331E-18
 -1      2562 8.78508E-05-4.93151E-05-1.63135E-05-4.62779E-05-1.07743E-18 2.13858E-18
 -1      2563 1.03857E-04-5.35755E-05-2.17468E-05-4.47288E-05-8.75409E-19 2.24453E-18
 -1      2564 4.94685E-05-3.30167E-05-6.76638E-06-4.29415E-05-1.28156E-18 3.01650E-18
 -1      2565 6.89185E-05-4.07396E-05-1.19117E-05-4.86646E-05-1.03931E-18 2.47524E-18
 -1      2566 5.09258E-05-2.71209E-05-9.71140E-06-3.95304E-05-1.19527E-18 3.01523E-18
 -1      2567 2.34290E-05-1.86602E-05-1.65353E-06 1.33917E-05-9.62124E-19 2.34078E-18
 -1      2568 1.94059E-05-1.45056E-05-1.67262E-06-3.86721E-06-1.16464E-18 3.91753E-18
 -1      2569 4.96793E-05-3.26930E-05-7.16848E-06 3.48395E-05-3.73542E-19 2.80368E-19
 -1      2570 3.38104E-05-2.53953E-05-3.36164E-06 2.46997E-05-6.29134E-19 1.20236E-18
 -1      2571 9.52073E-05-5.42972E-05-1.76221E-05 3.87350E-05 4.49351E-19-8.95473E-19
 -1      2572 7.31537E-05-4.45269E-05-1.20073E-05 3.75987E-05-4.19917E-19-2.70309E-19
 -1      2573 1.38579E-04-6.70181E-05-3.09135E-05 2.23141E-05 2.36534E-19-6.02240E-19
 -1      2574 1.17318E-04-6.22002E-05-2.36077E-05 2.93568E-05 2.93920E-19-1.36965E-18
 -1      2575 1.63097E-04-6.39696E-05-4.27157E-05-3.09613E-06 2.73009E-19-2.90744E-19
 -1      2576 1.51012E-04-6.63683E-05-3.64498E-05 8.55782E-06 3.45166E-19-1.71524E-19
 -1      2577 1.68964E-04-4.32112E-05-5.45430E-05-2.04638E-05 5.04408E-19-5.02079E-19
 -1      2578 3.05045E-05-2.62645E-05-1.67452E-06-2.29306E-05-1.60386E-18-7.95576E-19
 -1      2579 4.39924E-05-3.23306E-05-4.94810E-06-3.28230E-05-1.66781E-18-5.75982E-19
 -1      2580 3.27021E-05-1.93482E-05-5.22890E-06-1.91256E-05-8.64821E-19-1.10284E-18
 -1      2581 1.06798E-04-5.93145E-05-2.04471E-05-3.33020E-05-1.16785E-18-1.22926E-19
 -1      2582 1.24767E-04-6.42171E-05-2.62098E-05-2.90413E-05-1.75463E-18 3.72694E-19
 -1      2583 1.36442E-04-6.63384E-05-2.98394E-05-1.88960E-05-1.14032E-18-8.18446E-19
 -1      2584 1.02509E-04-5.60735E-05-1.98506E-05-3.53471E-05-1.41455E-18-1.93229E-19
 -1      2585 9.52653E-05-2.84922E-05-2.86175E-05 1.46054E-07 4.26482E-19 1.71469E-18
 -1      2586 1.68045E-04-5.00426E-05-5.12243E-05 1.95050E-05 4.26799E-19-4.26883E-18
 -1      2587 1.66222E-04-5.05000E-05-4.95283E-05-1.66980E-05 4.54645E-19-3.00697E-19
 -1      2588 9.08123E-05-1.49839E-05-3.24936E-05-6.70380E-06 6.51093E-19 2.17449E-20
 -1      2589 8.97290E-05-1.31420E-05-3.28755E-05-7.87631E-06 6.57934E-19 9.97911E-21
 -1      2590 9.03854E-05-1.39317E-05-3.28263E-05-9.04770E-06 5.70606E-19-9.55294E-20
 -1      2591 1.16547E-04-5.71033E-05-2.53341E-05 3.64931E-05-9.20090E-19 3.07711E-18
 -1      2592 9.59484E-05-2.62333E-05-2.98455E-05 5.31905E-06-1.20265E-19 1.69040E-18
 -1      2593 9.59004E-05-2.51471E-05-3.02990E-05 6.40070E-06-8.39754E-20 1.63829E-18
 -1      2594 9.53004E-05-2.64713E-05-2.94696E-05 4.01601E-06-1.61684E-19 1.75085E-18
 -1      2595 1.63773E-04-6.29557E-05-4.37152E-05-9.05150E-06 4.20181E-19-5.34901E-19
 -1      2596 9.11620E-05-1.49867E-05-3.27002E-05-9.73116E-06 4.85591E-19-2.18786E-19
 -1      2597 9.21797E-05-1.62644E-05-3.26127E-05-1.07646E-05 4.70061E-19-4.05411E-19
 -1      2598 9.36571E-05-1.91856E-05-3.19113E-05-9.09931E-06 3.88641E-19-3.34201E-19
 -1      2599 9.20870E-05-1.67796E-05-3.22652E-05-8.20201E-06 5.41329E-19-1.19872E-19
 -1      2600 1.22085E-04-5.89837E-05-2.73070E-05 2.53677E-05-5.67512E-20-2.20623E-18
 -1      2601 1.40107E-04-6.29412E-05-3.26813E-05 1.13077E-05-7.35278E-19-1.30030E-18
 -1      2602 1.38480E-04-7.34899E-06-5.66020E-05 2.12960E-07-1.22142E-18-9.33655E-19
 -1      2603 1.48315E-04-6.56377E-05-3.54520E-05 4.13752E-06-6.05946E-19-1.02438E-18
 -1      2604 1.50615E-04-6.40174E-05-3.68986E-05 1.41710E-06-1.30181E-18-1.88994E-18
 -1      2605 1.40002E-04-6.51066E-05-3.25599E-05-1.27779E-05-8.86738E-19-9.52912E-19
 -1      2606 9.52679E-05-2.84667E-05-2.86285E-05 1.91850E-07 4.25808E-19 2.66005E-19
 -1      2607 1.65214E-04-5.31651E-05-4.84190E-05 2.01405E-05 1.01326E-19-3.78348E-18
 -1      2608 1.19979E-04-5.25664E-05-2.90636E-05-2.27132E-05 4.31563E-19-1.06096E-18
 -1      2609 2.60964E-05-1.26158E-05-5.21403E-06 7.44873E-06-3.02841E-19 3.11708E-19
 -1      2610 4.22652E-05-2.35700E-05-7.57892E-06 3.50570E-05-3.91753E-20 1.32836E-18
 -1      2611 7.89660E-05-4.43513E-05-1.45796E-05 4.72365E-05-1.28918E-18 1.03343E-18
 -1      2612 7.00689E-05-3.74456E-05-1.34401E-05 4.62602E-05-1.41158E-18 1.33641E-18
 -1      2613 9.18051E-05-4.79060E-05-1.87043E-05 4.41478E-05-1.45213E-18 1.51365E-18
 -1      2614 9.47502E-05-2.68312E-05-2.90781E-05 2.31603E-06-1.06802E-19 1.66112E-18
 -1      2615 9.50796E-05-2.66477E-05-2.92863E-05 3.21392E-06-1.50709E-19 1.72354E-18
 -1      2616 9.53343E-05-2.61179E-05-2.96753E-05 3.93029E-06-1.56387E-19 1.58499E-18
 -1      2617 9.50652E-05-2.65714E-05-2.93738E-05 2.37104E-06-3.29863E-20 1.45182E-18
 -1      2618 1.39757E-04-5.51594E-05-3.61698E-05 1.66258E-05-4.38392E-19 1.96300E-18
 -1      2619 6.88044E-05-3.74504E-05-1.29326E-05 3.56420E-05-6.26593E-19-3.95988E-19
 -1      2620 1.18678E-04-5.73548E-05-2.60927E-05-3.51615E-05-2.00323E-19 1.16806E-18
 -1      2621 8.28781E-05-4.50399E-05-1.58217E-05-4.61710E-05-5.27702E-19 2.02631E-18
 -1      2622 1.41386E-04-5.44050E-05-3.71961E-05-1.35410E-05-1.05260E-18 5.97582E-19
 -1      2623 1.45840E-04-3.74858E-05-4.65666E-05 2.75324E-06-1.83658E-18 6.86308E-19
 -1      2624 6.19491E-05-3.64764E-05-1.05512E-05-3.51474E-05-1.41793E-18-6.92873E-19
 -1      2625 1.44278E-04-1.86782E-05-5.41098E-05-6.80665E-06-5.38713E-19 2.78568E-19
 -1      2626 1.37703E-04-2.33014E-05-4.93332E-05-9.58430E-06 8.76679E-20 7.49624E-20
 -1      2627 1.34524E-04-1.29202E-05-5.28904E-05-8.97776E-06-4.70103E-19 1.55854E-19
 -1      2628 2.64537E-05-1.33279E-05-4.93613E-06-1.36998E-05-1.00866E-18 4.47763E-18
 -1      2629 3.61617E-05-1.31575E-05-9.35007E-06-2.11514E-05-1.11448E-18 4.26460E-18
 -1      2630 3.07200E-05-9.62065E-06-8.43011E-06-3.64104E-06-1.50977E-18 3.57363E-18
 -1      2631 1.40227E-04-1.64203E-05-5.33231E-05 7.71751E-06-2.21817E-18-3.62318E-19
 -1      2632 1.61806E-04-6.36718E-05-4.22715E-05 4.75152E-06-3.91912E-19-1.87237E-18
 -1      2633 1.64734E-04-5.75803E-05-4.63629E-05 1.40075E-05-1.89630E-19-2.91464E-18
 -1      2634 3.56605E-05-1.82667E-05-6.82546E-06 1.89910E-05-9.60006E-19 1.87088E-18
 -1      2635 1.13356E-04-5.86314E-05-2.31864E-05 3.07707E-05 4.65868E-21-1.56318E-18
 -1      2636 9.52686E-05-2.84969E-05-2.86165E-05-1.24255E-07-4.55214E-19-2.48997E-19
 -1      2637 1.56208E-04-6.59120E-05-3.86580E-05 3.03922E-06-1.16372E-18-2.19106E-18
 -1      2638 9.52691E-05-2.84658E-05-2.86302E-05-1.73729E-07-3.61887E-19 9.83181E-19
 -1      2639 9.05222E-05-1.50345E-05-3.23741E-05 3.12558E-06 6.51942E-19 4.14469E-19
 -1      2640 9.03260E-05-1.47549E-05-3.24082E-05 2.20880E-06 7.42287E-19 4.01952E-19
 -1      2641 9.01868E-05-1.45439E-05-3.24384E-05 1.39252E-06 7.57930E-19 5.33872E-19
 -1      2642 9.01204E-05-1.44487E-05-3.24502E-05 4.55246E-07 7.24864E-19 6.26464E-19
 -1      2643 9.13537E-05-1.64102E-05-3.21052E-05 1.59322E-06 7.06850E-19 4.22695E-19
 -1      2644 9.21404E-05-1.74718E-05-3.20392E-05 6.35582E-06 3.61681E-19 6.80073E-19
 -1      2645 9.16054E-05-1.66602E-05-3.21424E-05 5.52435E-06 5.24859E-19 5.59197E-19
 -1      2646 9.35197E-05-1.96777E-05-3.17045E-05 7.52073E-06 1.13342E-19 9.87209E-19
 -1      2647 9.27792E-05-1.84589E-05-3.18690E-05 6.88805E-06 2.36993E-19 8.81642E-19
 -1      2648 9.34255E-05-1.97592E-05-3.15437E-05 5.60654E-06 2.16238E-19 6.20719E-19
 -1      2649 9.58988E-05-2.43646E-05-3.06496E-05 7.05349E-06-6.14761E-20 1.56329E-18
 -1      2650 9.53393E-05-2.30414E-05-3.10101E-05 7.74294E-06 1.52201E-21 1.45104E-18
 -1      2651 9.55232E-05-2.49747E-05-3.02131E-05 5.46010E-06-1.31800E-19 1.47234E-18
 -1      2652 9.52703E-05-2.39423E-05-3.05484E-05-5.16200E-06 2.63139E-19-2.49545E-19
 -1      2653 9.52031E-05-2.49488E-05-3.01282E-05-3.63763E-06 2.10744E-19-1.95739E-19
 -1      2654 1.28381E-04-6.40392E-06-5.29485E-05 1.94386E-06-1.84780E-18-1.36677E-18
 -1      2655 1.30089E-04-6.94240E-06-5.34149E-05-3.46484E-06-8.93196E-19-8.43380E-19
 -1      2656 1.28226E-04-6.23176E-05-2.77697E-05-2.28894E-05-7.98434E-19-7.22784E-19
 -1      2657 9.54024E-05-2.58304E-05-2.97867E-05-2.50386E-06 1.87148E-19-6.10153E-20
 -1      2658 9.52523E-05-2.64073E-05-2.95163E-05-1.48262E-06 2.13649E-19 1.92640E-21
 -1      2659 9.52323E-05-2.46026E-05-3.02698E-05-3.33889E-06 3.26689E-19-5.35122E-20
 -1      2660 9.52774E-05-2.69217E-05-2.92729E-05-6.58065E-07 4.79603E-20 1.28508E-19
 -1      2661 9.51632E-05-2.72682E-05-2.91028E-05 2.50597E-08-5.14084E-20 1.87305E-19
 -1      2662 9.54505E-05-2.62196E-05-2.96754E-05-1.29978E-06 1.54292E-19 1.74366E-19
 -1      2663 9.51329E-05-2.75350E-05-2.89556E-05 5.45612E-07-1.53797E-20 2.94033E-19
 -1      2664 9.50902E-05-2.77314E-05-2.88685E-05 9.65139E-07-1.05382E-19 3.01082E-19
 -1      2665 9.54551E-05-2.71668E-05-2.92742E-05 1.17872E-07 3.99183E-20 1.74906E-19
 -1      2666 9.50494E-05-2.78722E-05-2.87816E-05 1.31935E-06-1.04373E-19 4.60662E-19
 -1      2667 9.50648E-05-2.79831E-05-2.87470E-05 1.60349E-06-2.23083E-20 3.87833E-19
 -1      2668 9.53962E-05-2.76831E-05-2.90270E-05 1.05291E-06 5.55050E-20 3.20553E-19
 -1      2669 9.50257E-05-2.80367E-05-2.87056E-05 1.85774E-06 7.48844E-20 5.25688E-19
 -1      2670 9.50860E-05-2.80859E-05-2.87100E-05 2.07474E-06 1.75201E-19 6.51541E-19
 -1      2671 9.53280E-05-2.79400E-05-2.88861E-05 1.70490E-06 9.42270E-20 7.38962E-19
 -1      2672 9.50461E-05-2.80712E-05-2.87033E-05 2.28415E-06 1.33660E-19 5.86526E-19
 -1      2673 9.51382E-05-2.80687E-05-2.87379E-05 2.48633E-06 1.94451E-19 7.40429E-19
 -1      2674 9.52584E-05-2.80069E-05-2.88258E-05 2.20047E-06 6.26623E-20 6.55875E-19
 -1      2675 9.50865E-05-2.79916E-05-2.87580E-05 2.69590E-06 1.07298E-19 5.89458E-19
 -1      2676 9.51985E-05-2.79385E-05-2.88177E-05 2.92684E-06-2.62720E-20 4.74730E-19
 -1      2677 9.51744E-05-2.79153E-05-2.88271E-05 2.64216E-06 1.08163E-19 2.91702E-19
 -1      2678 9.51167E-05-2.77948E-05-2.88586E-05 3.17492E-06-3.29162E-19 5.02996E-19
 -1      2679 9.52378E-05-2.76859E-05-2.89406E-05 3.47397E-06-5.49956E-19 2.60157E-19
 -1      2680 9.50480E-05-2.76705E-05-2.88754E-05 3.11429E-06-3.24497E-19 8.28407E-20
 -1      2681 9.50913E-05-2.74492E-05-2.89995E-05 3.81176E-06-7.37130E-19-9.53491E-21
 -1      2682 9.52049E-05-2.72598E-05-2.91068E-05 4.24392E-06-6.31799E-19-1.35847E-19
 -1      2683 9.48277E-05-2.72452E-05-2.89607E-05 3.70626E-06-8.13681E-19-1.83635E-19
 -1      2684 9.49593E-05-2.69276E-05-2.91713E-05 4.67642E-06-1.71359E-19 5.41808E-20
 -1      2685 9.50360E-05-2.66594E-05-2.92903E-05 5.23803E-06-9.79663E-20 2.18796E-19
 -1      2686 9.44471E-05-2.66046E-05-2.90666E-05 4.47165E-06-2.54823E-19 1.55937E-19
 -1      2687 9.46333E-05-2.61957E-05-2.93514E-05 5.81002E-06-2.70387E-19 6.44613E-19
 -1      2688 9.46437E-05-2.58218E-05-2.94793E-05 6.56066E-06-1.23960E-19 5.90816E-19
 -1      2689 9.38207E-05-2.57215E-05-2.91697E-05 5.44852E-06 9.50604E-20 4.22637E-19
 -1      2690 9.40026E-05-2.51975E-05-2.95171E-05 7.30416E-06 8.80585E-20 8.54100E-19
 -1      2691 9.39038E-05-2.47098E-05-2.96371E-05 8.28114E-06 1.32461E-19 1.25683E-18
 -1      2692 9.28080E-05-2.45255E-05-2.92383E-05 6.70415E-06 1.77534E-19 7.08302E-19
 -1      2693 9.29270E-05-2.39150E-05-2.96162E-05 9.23052E-06-2.81132E-19 1.34988E-18
 -1      2694 9.26810E-05-2.33460E-05-2.96954E-05 1.04607E-05-5.46510E-19 1.44565E-18
 -1      2695 9.12351E-05-2.29790E-05-2.92132E-05 8.28673E-06-1.55837E-19 8.53998E-19
 -1      2696 9.12712E-05-2.24315E-05-2.95545E-05 1.16619E-05-9.30896E-19 1.76853E-18
 -1      2697 9.08905E-05-2.19183E-05-2.95331E-05 1.31526E-05-1.09195E-18 1.28796E-18
 -1      2698 8.89049E-05-2.11208E-05-2.89928E-05 1.02528E-05-5.93248E-19 1.03545E-18
 -1      2699 8.90003E-05-2.10779E-05-2.91701E-05 1.46915E-05-1.06758E-18 1.39573E-18
 -1      2700 8.86657E-05-2.09856E-05-2.89525E-05 1.64244E-05-9.53091E-19 1.13973E-18
 -1      2701 8.56529E-05-1.91815E-05-2.84065E-05 1.27115E-05-9.85920E-19 1.30718E-18
 -1      2702 8.64057E-05-2.06890E-05-2.82074E-05 1.85001E-05-1.37012E-18 9.63209E-19
 -1      2703 8.67271E-05-2.18526E-05-2.76797E-05 2.04383E-05-1.21941E-18 5.95107E-20
 -1      2704 8.14780E-05-1.77875E-05-2.71783E-05 1.59369E-05-1.38343E-18 1.09605E-18
 -1      2705 8.45155E-05-2.30364E-05-2.62619E-05 2.34885E-05-1.13140E-18-1.88015E-19
 -1      2706 8.68345E-05-2.72872E-05-2.52426E-05 2.58024E-05-1.12939E-18-6.37366E-19
 -1      2707 7.67613E-05-1.84971E-05-2.48182E-05 2.07368E-05-1.57648E-18 5.98654E-19
 -1      2708 9.52452E-05-2.84196E-05-2.86394E-05 2.45240E-07-1.38992E-19-1.08520E-18
 -1      2709 9.52793E-05-2.84565E-05-2.86383E-05 2.41100E-07-1.10420E-19-1.04493E-19
 -1      2710 9.53051E-05-2.84523E-05-2.86498E-05 2.91947E-07 2.34883E-19 2.88873E-20
 -1      2711 1.39599E-04-5.31877E-05-3.75767E-05 7.55225E-06 3.20258E-19 2.23447E-18
 -1      2712 1.33771E-04-5.75014E-05-3.25594E-05 1.76712E-05-2.09032E-19 2.59764E-18
 -1      2713 8.96083E-05-2.53034E-05-2.73717E-05-2.31402E-05 7.56149E-19-2.46411E-18
 -1      2714 8.80278E-05-2.27211E-05-2.79897E-05-2.12863E-05-5.47329E-20-2.35190E-18
 -1      2715 8.98470E-05-2.21530E-05-2.89289E-05-1.87443E-05-7.80533E-19-1.60192E-18
 -1      2716 8.96012E-05-2.15549E-05-2.92157E-05-1.68902E-05 1.46131E-19-1.20618E-18
 -1      2717 8.12864E-05-1.88333E-05-2.66553E-05-1.89282E-05 2.65664E-19-1.08545E-18
 -1      2718 9.15051E-05-2.20769E-05-2.97164E-05-1.48968E-05 1.01573E-18-1.14657E-18
 -1      2719 9.16693E-05-2.23329E-05-2.97689E-05-1.31242E-05 1.01872E-18-3.39711E-19
 -1      2720 8.51951E-05-1.90471E-05-2.82646E-05-1.47570E-05 6.03986E-19 1.43739E-19
 -1      2721 9.31433E-05-2.31629E-05-2.99657E-05-1.16461E-05 6.36555E-19-3.37515E-19
 -1      2722 9.32879E-05-2.36381E-05-2.98914E-05-1.01973E-05 3.70658E-19 4.43711E-19
 -1      2723 8.85696E-05-2.06081E-05-2.90647E-05-1.15918E-05 1.32750E-18-3.16102E-19
 -1      2724 9.43370E-05-2.44309E-05-2.99376E-05-9.01577E-06-6.82058E-19 5.15741E-19
 -1      2725 9.43873E-05-2.48966E-05-2.98126E-05-7.82918E-06-1.41331E-18-3.00183E-19
 -1      2726 9.10424E-05-2.23877E-05-2.93797E-05-9.12732E-06-9.73906E-20 6.26493E-19
 -1      2727 9.50862E-05-2.55459E-05-2.97836E-05-6.88528E-06-1.01366E-18-2.26983E-19
 -1      2728 9.50518E-05-2.59240E-05-2.96483E-05-5.94553E-06-4.04544E-19 9.62067E-19
 -1      2729 9.27495E-05-2.39714E-05-2.94472E-05-7.11933E-06-9.35848E-19 8.52404E-19
 -1      2730 9.54908E-05-2.64153E-05-2.95871E-05-5.19924E-06-2.18463E-19 1.42380E-18
 -1      2731 9.54052E-05-2.66975E-05-2.94615E-05-4.47224E-06-2.31227E-19 1.44319E-18
 -1      2732 9.38573E-05-2.52343E-05-2.93916E-05-5.49225E-06 9.94565E-20 1.61317E-18
 -1      2733 9.56663E-05-2.70533E-05-2.93917E-05-3.88930E-06-1.22473E-18 1.52225E-18
 -1      2734 9.55591E-05-2.72549E-05-2.92837E-05-3.33581E-06-1.12185E-18 1.20966E-18
 -1      2735 9.45387E-05-2.61838E-05-2.92843E-05-4.19165E-06-6.59873E-19 1.42870E-18
 -1      2736 9.57052E-05-2.75065E-05-2.92168E-05-2.88523E-06-7.89729E-19 1.17438E-18
 -1      2737 9.55956E-05-2.76473E-05-2.91281E-05-2.46797E-06-5.44111E-19 1.17695E-18
 -1      2738 9.49356E-05-2.68738E-05-2.91635E-05-3.16679E-06-1.34542E-18 8.83742E-19
 -1      2739 9.56724E-05-2.78306E-05-2.90663E-05-2.10625E-06-5.01886E-19 1.47337E-18
 -1      2740 9.55690E-05-2.79309E-05-2.89927E-05-1.78236E-06-1.31165E-18 1.00159E-18
 -1      2741 9.51559E-05-2.73751E-05-2.90455E-05-2.35294E-06-4.80655E-19 6.66529E-19
 -1      2742 9.56022E-05-2.80503E-05-2.89440E-05-1.52411E-06-1.75188E-18 1.09876E-18
 -1      2743 9.55179E-05-2.81161E-05-2.88896E-05-1.29481E-06-1.53441E-18 9.40647E-19
 -1      2744 9.52634E-05-2.77289E-05-2.89423E-05-1.72784E-06-1.17316E-18 4.48364E-19
 -1      2745 9.55275E-05-2.81987E-05-2.88499E-05-1.09912E-06-9.25651E-19 7.10342E-19
 -1      2746 9.54585E-05-2.82441E-05-2.88082E-05-9.28786E-07 2.36589E-19 1.93182E-19
 -1      2747 9.53054E-05-2.79695E-05-2.88582E-05-1.26447E-06-1.75254E-18 2.07321E-18
 -1      2748 9.54562E-05-2.83010E-05-2.87768E-05-7.81427E-07 2.16030E-18-3.20317E-19
 -1      2749 9.54015E-05-2.83323E-05-2.87453E-05-6.54950E-07 2.02995E-18 4.27352E-19
 -1      2750 9.53137E-05-2.81382E-05-2.87899E-05-9.12651E-07 8.86593E-19 1.01634E-18
 -1      2751 9.53936E-05-2.83715E-05-2.87208E-05-5.44440E-07 1.94838E-18 5.89780E-19
 -1      2752 9.53513E-05-2.83929E-05-2.86973E-05-4.50683E-07 1.36814E-18 2.15906E-18
 -1      2753 9.53048E-05-2.82565E-05-2.87356E-05-6.46796E-07 2.49213E-18 1.51953E-18
 -1      2754 9.53405E-05-2.84191E-05-2.86783E-05-3.67642E-07 4.26256E-19 1.20306E-18
 -1      2755 9.53076E-05-2.84339E-05-2.86607E-05-2.97440E-07 1.05053E-19 1.01654E-18
 -1      2756 9.52873E-05-2.83379E-05-2.86931E-05-4.47207E-07 7.47714E-19 9.31248E-19
 -1      2757 9.52873E-05-2.84546E-05-2.86417E-05-2.18740E-07-3.05397E-19 9.11533E-19
 -1      2758 9.49925E-05-2.75473E-05-2.89072E-05-4.20213E-07 3.06513E-19 8.25083E-19
 -1      2759 9.50815E-05-2.72879E-05-2.90337E-05 9.78345E-08 3.16805E-19 9.31973E-19
 -1      2760 9.49404E-05-2.79285E-05-2.87190E-05-1.16857E-06 1.45088E-19 9.68579E-19
 -1      2761 9.49546E-05-2.77602E-05-2.87844E-05-8.47256E-07 1.53018E-19 8.93821E-19
 -1      2762 9.53392E-05-2.75049E-05-2.90802E-05-4.97550E-07 2.44723E-19 3.74931E-19
 -1      2763 9.51110E-05-2.69262E-05-2.92275E-05 7.55753E-07 1.88291E-19 9.44857E-19
 -1      2764 9.52830E-05-2.65167E-05-2.94432E-05 1.57523E-06 5.45550E-20 1.00924E-18
 -1      2765 9.53894E-05-2.67862E-05-2.94102E-05 6.56095E-07 2.99512E-19 6.20096E-19
 -1      2766 9.50602E-05-2.83340E-05-2.85944E-05-1.93772E-06-7.98954E-20 1.07824E-18
 -1      2767 9.49661E-05-2.82472E-05-2.85894E-05-1.81511E-06 2.38512E-19 1.12077E-18
 -1      2768 9.52214E-05-2.84614E-05-2.86086E-05-2.13027E-06 1.32920E-19 4.82368E-19
 -1      2769 9.50896E-05-2.83862E-05-2.85849E-05-2.05345E-06-2.30175E-20 7.44862E-19
 -1      2770 9.53233E-05-2.83728E-05-2.86979E-05-2.05861E-06 9.94401E-20 4.14149E-19
 -1      2771 9.54468E-05-2.85880E-05-2.86512E-05-2.25521E-06 1.40617E-19 5.40361E-19
 -1      2772 9.52823E-05-2.85089E-05-2.86160E-05-2.20961E-06 1.19829E-19 4.73685E-19
 -1      2773 9.54192E-05-2.84974E-05-2.86850E-05-2.27581E-06 2.79062E-19-1.28245E-19
 -1      2774 9.57415E-05-2.87479E-05-2.87098E-05-2.32371E-06-1.38607E-20 6.96696E-19
 -1      2775 9.55458E-05-2.86492E-05-2.86689E-05-2.30792E-06 8.37084E-20 5.82230E-19
 -1      2776 9.55828E-05-2.86255E-05-2.86999E-05-2.42602E-06 3.07982E-20 2.65744E-19
 -1      2777 9.61167E-05-2.89762E-05-2.87744E-05-2.32155E-06 1.31119E-19 9.84739E-19
 -1      2778 9.58891E-05-2.88421E-05-2.87326E-05-2.34657E-06-1.60077E-19 5.98592E-19
 -1      2779 9.58315E-05-2.88028E-05-2.87309E-05-2.51803E-06-2.01149E-19 1.69115E-19
 -1      2780 9.65874E-05-2.93072E-05-2.88368E-05-2.20953E-06 3.28408E-19 1.09791E-18
 -1      2781 9.63271E-05-2.91231E-05-2.87982E-05-2.29824E-06 4.61950E-19 1.34930E-18
 -1      2782 9.61907E-05-2.90758E-05-2.87685E-05-2.53405E-06-2.24206E-20 2.01095E-19
 -1      2783 9.71669E-05-2.97690E-05-2.88906E-05-1.92495E-06 2.97208E-19 5.58254E-19
 -1      2784 9.68763E-05-2.95252E-05-2.88590E-05-2.11051E-06 5.09845E-19 8.65702E-19
 -1      2785 9.66909E-05-2.94895E-05-2.88066E-05-2.42939E-06 5.44986E-19 1.15349E-19
 -1      2786 9.78578E-05-3.03705E-05-2.89333E-05-1.38685E-06 2.95120E-19 4.46940E-19
 -1      2787 9.75474E-05-3.00691E-05-2.89108E-05-1.70860E-06 1.62031E-19 4.26877E-19
 -1      2788 9.73622E-05-3.00790E-05-2.88427E-05-2.13312E-06 4.87628E-19 2.79882E-19
 -1      2789 9.86368E-05-3.10816E-05-2.89673E-05-5.09385E-07 3.76975E-19 3.01871E-19
 -1      2790 9.83317E-05-3.07472E-05-2.89539E-05-1.00395E-06 2.26144E-19 5.07944E-19
 -1      2791 9.82209E-05-3.08521E-05-2.88800E-05-1.55283E-06 2.89354E-19 2.37793E-19
 -1      2792 9.94341E-05-3.18069E-05-2.90024E-05 7.71321E-07 4.30629E-19 2.42842E-19
 -1      2793 9.91810E-05-3.14987E-05-2.89947E-05 8.59508E-08 4.93918E-19 9.05161E-20
 -1      2794 9.92479E-05-3.17614E-05-2.89296E-05-5.88622E-07 4.81088E-19 3.32323E-19
 -1      2795 1.00113E-04-3.23623E-05-2.90570E-05 2.45142E-06-5.59865E-20 4.81890E-19
 -1      2796 9.99842E-05-3.21824E-05-2.90478E-05 1.60006E-06 2.69845E-19 5.11863E-19
 -1      2797 1.00358E-04-3.26709E-05-2.90119E-05 8.35967E-07 2.40024E-19 4.20931E-19
 -1      2798 1.00467E-04-3.24763E-05-2.91559E-05 4.39503E-06-6.92888E-20 6.97619E-20
 -1      2799 1.00551E-04-3.25619E-05-2.91348E-05 3.47447E-06-1.38302E-19 7.74951E-19
 -1      2800 1.01369E-04-3.33274E-05-2.91565E-05 2.71769E-06-4.56889E-20 3.87380E-19
 -1      2801 1.00258E-04-3.18501E-05-2.93225E-05 6.26899E-06-4.01844E-19-1.22511E-19
 -1      2802 1.00632E-04-3.23320E-05-2.92798E-05 5.46931E-06-2.12618E-19 3.39319E-20
 -1      2803 1.01996E-04-3.33726E-05-2.93955E-05 4.89030E-06 1.82247E-19 8.46594E-19
 -1      2804 9.93249E-05-3.03055E-05-2.95647E-05 7.52770E-06-4.15140E-19 5.09004E-19
 -1      2805 9.99986E-05-3.12266E-05-2.94968E-05 7.11956E-06-3.83420E-19-1.78020E-20
 -1      2806 1.01913E-04-3.24423E-05-2.97491E-05 6.93924E-06-5.97906E-19 7.25600E-19
 -1      2807 9.77476E-05-2.79922E-05-2.98600E-05 7.52755E-06-6.93249E-19 1.21312E-18
 -1      2808 9.86081E-05-2.92117E-05-2.97755E-05 7.78367E-06-4.90149E-19 8.84840E-19
 -1      2809 1.00919E-04-3.03781E-05-3.02056E-05 8.19017E-06-8.36766E-19 8.04349E-19
 -1      2810 9.59648E-05-2.55180E-05-3.01478E-05 5.82360E-06 4.04210E-20 1.21955E-18
 -1      2811 9.67682E-05-2.66850E-05-3.00688E-05 6.87120E-06-1.39069E-19 8.64283E-19
 -1      2812 9.91676E-05-2.74951E-05-3.07032E-05 7.88280E-06-3.31578E-19 5.38533E-19
 -1      2813 9.46768E-05-2.37968E-05-3.03449E-05 2.52650E-06 1.33057E-19 7.72977E-19
 -1      2814 9.51314E-05-2.44680E-05-3.02996E-05 4.21317E-06-5.49860E-20 1.00133E-18
 -1      2815 9.72814E-05-2.46656E-05-3.11313E-05 5.58165E-06 1.24609E-19-1.62202E-19
 -1      2816 9.44987E-05-2.35913E-05-3.03833E-05-1.54524E-06 3.58522E-19 8.70898E-19
 -1      2817 9.44167E-05-2.34743E-05-3.03900E-05 3.38911E-07 3.38792E-19 8.86659E-19
 -1      2818 9.61382E-05-2.30168E-05-3.13652E-05 1.60487E-06 1.51669E-19-6.51026E-20
 -1      2819 9.55413E-05-2.50044E-05-3.02511E-05-5.17351E-06 3.21901E-19 2.23875E-18
 -1      2820 9.49564E-05-2.41530E-05-3.03062E-05-3.63126E-06 3.61910E-19 1.84396E-18
 -1      2821 9.63444E-05-2.33031E-05-3.13266E-05-2.89712E-06-2.25048E-19-1.39355E-19
 -1      2822 9.73212E-05-2.74023E-05-2.99996E-05-7.36692E-06-4.93837E-19 2.27159E-18
 -1      2823 9.64663E-05-2.61780E-05-3.00800E-05-6.53657E-06 3.84325E-20 2.40028E-18
 -1      2824 9.77879E-05-2.53863E-05-3.10310E-05-6.48836E-06 3.25572E-20 1.93762E-18
 -1      2825 9.90951E-05-2.98442E-05-2.97103E-05-7.80525E-06-1.17575E-18 2.55474E-18
 -1      2826 9.82623E-05-2.86862E-05-2.97883E-05-7.75097E-06-9.02072E-19 2.27813E-18
 -1      2827 9.97259E-05-2.83369E-05-3.05762E-05-8.22890E-06-4.90785E-19 2.02790E-18
 -1      2828 1.00291E-04-3.16074E-05-2.94543E-05-6.82035E-06-6.92590E-19 2.56048E-18
 -1      2829 9.96904E-05-3.08114E-05-2.95108E-05-7.35431E-06-5.94862E-19 2.52584E-18
 -1      2830 1.01307E-04-3.10392E-05-3.00877E-05-8.04567E-06-8.84269E-19 2.18988E-18
 -1      2831 1.00717E-04-3.24338E-05-2.92683E-05-5.05293E-06 2.57925E-19 2.03387E-18
 -1      2832 1.00421E-04-3.20795E-05-2.92985E-05-5.89036E-06-2.70532E-19 2.61671E-18
 -1      2833 1.02039E-04-3.27699E-05-2.96650E-05-6.52210E-06-3.65507E-19 1.44173E-18
 -1      2834 1.00489E-04-3.24470E-05-2.91542E-05-3.10883E-06-4.00931E-19 1.16081E-18
 -1      2835 1.00460E-04-3.24559E-05-2.91640E-05-3.99710E-06 2.40562E-19 2.20467E-18
 -1      2836 1.01894E-04-3.33741E-05-2.93545E-05-4.42664E-06 2.03646E-19 1.47384E-18
 -1      2837 9.98544E-05-3.19409E-05-2.90939E-05-1.38841E-06-5.13015E-19 4.64060E-19
 -1      2838 1.00009E-04-3.21735E-05-2.90934E-05-2.16442E-06-9.04776E-19 4.34162E-19
 -1      2839 1.01132E-04-3.30964E-05-2.91566E-05-2.36725E-06-1.22466E-19 1.32296E-18
 -1      2840 9.90519E-05-3.12074E-05-2.90633E-05-7.49849E-08 1.00973E-19 1.23954E-18
 -1      2841 9.93022E-05-3.15341E-05-2.90621E-05-6.64896E-07 1.83998E-19 1.15384E-18
 -1      2842 1.00078E-04-3.23159E-05-2.90457E-05-6.81478E-07-6.70015E-19 1.38842E-18
 -1      2843 9.82492E-05-3.04566E-05-2.90426E-05 8.03174E-07 5.56079E-19 1.94110E-18
 -1      2844 9.85301E-05-3.07873E-05-2.90468E-05 4.09451E-07 4.48405E-19 2.04271E-18
 -1      2845 9.89904E-05-3.13656E-05-2.89894E-05 5.19469E-07 1.47126E-20 2.65177E-18
 -1      2846 9.75375E-05-2.98052E-05-2.90193E-05 1.30252E-06 1.30681E-18 1.00295E-18
 -1      2847 9.78086E-05-3.00910E-05-2.90312E-05 1.07946E-06 7.93845E-19 1.71047E-18
 -1      2848 9.80206E-05-3.04646E-05-2.89602E-05 1.26193E-06 9.44582E-19 2.81659E-18
 -1      2849 9.69512E-05-2.92980E-05-2.89880E-05 1.51176E-06 1.01913E-18 6.09794E-19
 -1      2850 9.71920E-05-2.95208E-05-2.90073E-05 1.41975E-06 8.44555E-19 3.95593E-19
 -1      2851 9.72312E-05-2.97218E-05-2.89393E-05 1.63426E-06 1.57369E-18 1.90453E-18
 -1      2852 9.64908E-05-2.89353E-05-2.89483E-05 1.52093E-06 1.15447E-18 8.65655E-19
 -1      2853 9.66942E-05-2.90956E-05-2.89731E-05 1.51951E-06 9.91995E-19 5.85164E-19
 -1      2854 9.66278E-05-2.91679E-05-2.89167E-05 1.73915E-06 1.19838E-18 5.94773E-19
 -1      2855 9.61407E-05-2.86955E-05-2.89027E-05 1.40667E-06 8.61784E-19 1.43799E-18
 -1      2856 9.63068E-05-2.88028E-05-2.89305E-05 1.46112E-06 1.32054E-18 9.72854E-19
 -1      2857 9.61871E-05-2.87895E-05-2.88888E-05 1.66953E-06 6.67594E-19 1.47322E-18
 -1      2858 9.58802E-05-2.85502E-05-2.88545E-05 1.22747E-06-1.29057E-19 1.36617E-18
 -1      2859 9.60126E-05-2.86167E-05-2.88829E-05 1.31114E-06 7.19187E-19 1.58852E-18
 -1      2860 9.58758E-05-2.85533E-05-2.88555E-05 1.49937E-06 6.28686E-19 1.91109E-18
 -1      2861 9.56891E-05-2.84719E-05-2.88069E-05 1.02424E-06-7.83093E-19-3.10566E-19
 -1      2862 9.57928E-05-2.85093E-05-2.88340E-05 1.11846E-06-5.51342E-19 3.88982E-19
 -1      2863 9.56613E-05-2.84223E-05-2.88189E-05 1.28248E-06 4.57778E-19 1.74977E-18
 -1      2864 9.55502E-05-2.84377E-05-2.87624E-05 8.23151E-07 1.83398E-20-1.57937E-18
 -1      2865 9.56302E-05-2.84558E-05-2.87869E-05 9.16003E-07-6.21306E-19-1.69027E-18
 -1      2866 9.55160E-05-2.83630E-05-2.87815E-05 1.05495E-06-2.74198E-19-1.36075E-18
 -1      2867 9.54495E-05-2.84302E-05-2.87227E-05 6.39132E-07-1.21212E-19-1.54804E-18
 -1      2868 9.55105E-05-2.84363E-05-2.87440E-05 7.23883E-07-2.03527E-19-9.33081E-19
 -1      2869 9.54185E-05-2.83487E-05-2.87454E-05 8.38916E-07-7.24951E-19-1.87831E-18
 -1      2870 9.53767E-05-2.84369E-05-2.86886E-05 4.78898E-07 7.93468E-21-9.67928E-19
 -1      2871 9.54224E-05-2.84363E-05-2.87064E-05 5.52465E-07-2.17157E-20-1.36005E-18
 -1      2872 9.53526E-05-2.83594E-05-2.87124E-05 6.46295E-07-5.89038E-19-1.28136E-18
 -1      2873 9.53205E-05-2.84454E-05-2.86608E-05 3.48412E-07 5.97981E-19-1.25706E-18
 -1      2874 9.53545E-05-2.84417E-05-2.86752E-05 4.10720E-07 1.44289E-19-1.26808E-18
 -1      2875 9.53042E-05-2.83784E-05-2.86837E-05 4.85416E-07 1.68635E-19-1.28694E-18
 -1      2876 9.52677E-05-2.83981E-05-2.86600E-05 3.54506E-07-9.06047E-20-1.31443E-18
 -1      2877 9.50046E-05-2.81278E-05-2.86627E-05 1.30372E-07-2.30108E-18-9.19222E-19
 -1      2878 9.50257E-05-2.81511E-05-2.86603E-05 1.67496E-07-2.39836E-18-1.91175E-19
 -1      2879 9.52134E-05-2.83786E-05-2.86442E-05 2.56260E-07-9.56848E-20-1.06334E-18
 -1      2880 9.50550E-05-2.81891E-05-2.86581E-05 2.04670E-07-2.14762E-18-5.10817E-19
 -1      2881 9.50850E-05-2.82221E-05-2.86549E-05 2.28411E-07-1.61181E-18-9.07478E-19
 -1      2882 9.50076E-05-2.81245E-05-2.86633E-05 2.17614E-07-1.63056E-18-9.61107E-19
 -1      2883 9.49645E-05-2.81704E-05-2.86242E-05-1.63972E-06 2.12475E-19 1.01765E-18
 -1      2884 9.49178E-05-2.80547E-05-2.86477E-05-1.44185E-06 2.02106E-19 1.00980E-18
 -1      2885 9.52933E-05-2.79405E-05-2.88727E-05-1.25081E-06 1.98877E-19 5.42524E-19
 -1      2886 9.52839E-05-2.82051E-05-2.87539E-05-1.73857E-06 1.53242E-19 5.19491E-19
 -1      2887 9.49800E-05-2.80916E-05-2.86671E-05-6.85355E-08 1.06001E-18 1.60974E-18
 -1      2888 9.49748E-05-2.80871E-05-2.86669E-05-2.18383E-08 5.57266E-19 1.18403E-18
 -1      2889 9.50119E-05-2.81234E-05-2.86666E-05-1.61889E-07 8.67907E-19-1.25325E-18
 -1      2890 9.49928E-05-2.81044E-05-2.86676E-05-1.22040E-07 7.31955E-19 1.28638E-18
 -1      2891 9.49408E-05-2.80367E-05-2.86717E-05-1.05826E-07 1.37599E-18 9.40728E-19
 -1      2892 9.50713E-05-2.81873E-05-2.86641E-05-2.32817E-07 6.55053E-19-1.41189E-18
 -1      2893 9.50399E-05-2.81552E-05-2.86663E-05-2.05398E-07 6.88455E-19-2.55907E-18
 -1      2894 9.49876E-05-2.80817E-05-2.86726E-05-2.09972E-07 6.29059E-19-1.67822E-18
 -1      2895 9.51489E-05-2.82757E-05-2.86591E-05-2.66275E-07 9.86831E-19 1.17485E-18
 -1      2896 9.51108E-05-2.82349E-05-2.86626E-05-2.57504E-07 9.74144E-19-1.62556E-19
 -1      2897 9.50655E-05-2.81624E-05-2.86716E-05-2.84352E-07 3.00596E-19-5.69865E-19
 -1      2898 9.43566E-05-2.09387E-05-3.14886E-05-7.90775E-06 3.39439E-19-2.99973E-19
 -1      2899 9.48240E-05-2.27517E-05-3.08983E-05-6.19261E-06 2.66728E-19-3.29619E-19
 -1      2900 9.46337E-05-2.23724E-05-3.09672E-05-5.57071E-06 3.42784E-19-1.72739E-19
 -1      2901 9.35326E-05-1.95507E-05-3.17087E-05-7.72172E-06 4.12785E-19-1.87439E-19
 -1      2902 1.02793E-04-4.98793E-05-2.21619E-05 3.23069E-05-5.25902E-19-1.65478E-18
 -1      2903 1.58195E-04-6.41309E-05-3.98829E-05-7.50914E-06-3.58546E-19-2.89050E-19
 -1      2904 1.60274E-04-5.62448E-05-4.44684E-05 1.85442E-05-5.71694E-19-3.25981E-18
 -1      2905 9.63260E-05-4.17306E-05-2.29449E-05 3.08912E-05-7.58942E-19-9.83935E-19
 -1      2906 8.42344E-05-4.03260E-05-1.87180E-05 3.59960E-05-9.37665E-19-4.89903E-19
 -1      2907 6.34861E-05-2.83399E-05-1.44679E-05 3.20876E-05-1.14466E-18-1.49607E-19
 -1      2908 8.97041E-05-3.31581E-05-2.38562E-05 2.94930E-05-9.71414E-19-9.68529E-19
 -1      2909 9.52590E-05-2.83977E-05-2.86551E-05-2.78200E-07-1.69732E-19-6.43432E-19
 -1      2910 5.74120E-05-2.84158E-05-1.18119E-05 4.18990E-05 1.46960E-19 8.34222E-19
 -1      2911 4.39861E-05-1.78523E-05-1.07135E-05 3.06187E-05 4.34104E-21 1.54372E-18
 -1      2912 9.49779E-05-2.80935E-05-2.86657E-05 3.47254E-08-5.32090E-19-6.50182E-19
 -1      2913 9.49868E-05-2.81038E-05-2.86644E-05 8.00490E-08-6.92808E-19-1.89358E-18
 -1      2914 9.49296E-05-2.80304E-05-2.86698E-05 1.14271E-08 1.71250E-18 3.91467E-19
 -1      2915 9.51201E-05-2.82681E-05-2.86523E-05 2.47221E-07-1.41485E-18 5.55509E-20
 -1      2916 9.51541E-05-2.83053E-05-2.86484E-05 2.56205E-07-9.89464E-19-1.15528E-18
 -1      2917 9.50825E-05-2.82100E-05-2.86590E-05 2.76900E-07-1.31157E-18-3.92546E-19
 -1      2918 9.33497E-05-3.45463E-05-2.48929E-05-2.79586E-05 1.76448E-19-1.70764E-18
 -1      2919 8.89210E-05-2.82577E-05-2.58036E-05-2.64849E-05 3.47310E-19-2.57090E-18
 -1      2920 7.82679E-05-2.21710E-05-2.38712E-05-2.48286E-05 6.45386E-19-1.96763E-18
 -1      2921 3.32558E-05-9.65357E-06-9.71711E-06 1.12991E-05 7.60066E-19 7.69106E-19
 -1      2922 3.16236E-05-1.00198E-05-8.43240E-06-4.17449E-06 4.51998E-19-8.72020E-19
 -1      2923 9.11571E-05-1.59755E-05-3.22483E-05 4.81743E-06 6.73832E-19 6.00771E-19
 -1      2924 9.08061E-05-1.54652E-05-3.23112E-05 3.90833E-06 6.62709E-19 4.82903E-19
 -1      2925 9.17615E-05-1.70403E-05-3.20078E-05 3.10752E-06 6.21205E-19 4.16672E-19
 -1      2926 9.24521E-05-1.81332E-05-3.18313E-05 4.49556E-06 4.43899E-19 4.60119E-19
 -1      2927 1.24714E-04-5.87283E-05-2.84958E-05 2.93286E-05-6.22781E-19 3.23119E-18
 -1      2928 1.10983E-04-5.50913E-05-2.37416E-05 3.65664E-05-1.05360E-18 3.66552E-18
 -1      2929 1.39347E-04-3.54710E-05-4.51941E-05-7.57223E-06 5.59783E-19 5.95676E-19
 -1      2930 1.41552E-04-4.47138E-05-4.16243E-05-2.16753E-06 7.56453E-19 1.32508E-18
 -1      2931 5.72070E-05-2.79074E-05-1.20613E-05-3.18831E-05 2.65968E-19-1.26017E-18
 -1      2932 7.77424E-05-3.93896E-05-1.60634E-05-3.67563E-05-4.16528E-19-1.05689E-18
 -1      2933 7.82103E-05-4.00487E-05-1.58827E-05-4.41541E-05-3.62318E-19 1.92298E-18
 -1      2934 9.50109E-05-4.93537E-05-1.96323E-05-4.40453E-05-2.79415E-19 1.83637E-18
 -1      2935 1.36104E-04-5.65910E-05-3.38839E-05-1.35871E-05-4.23000E-19 4.44481E-19
 -1      2936 1.40447E-04-5.17671E-05-3.85642E-05-5.16025E-06-1.12968E-18 1.28114E-19
 -1      2937 4.61086E-05-1.95562E-05-1.10084E-05 2.58393E-05-1.03179E-18 1.09437E-18
 -1      2938 3.62385E-05-1.25519E-05-9.59901E-06 1.35820E-05-1.13423E-18 2.18259E-18
 -1      2939 1.32633E-04-2.04199E-05-4.84596E-05 1.14016E-05-2.20059E-18-1.27373E-19
 -1      2940 1.28664E-04-1.18596E-05-5.07635E-05 8.40722E-06-2.56757E-18-9.05055E-19
 -1      2941 1.11323E-04-5.53601E-05-2.35677E-05-3.67926E-05-2.08688E-19 1.45451E-18
 -1      2942 1.26107E-04-5.90375E-05-2.91753E-05-2.76418E-05-3.85612E-19 9.27819E-19
 -1      2943 1.41016E-04-4.33367E-05-4.20290E-05 3.44758E-06-1.49602E-18 5.40195E-19
 -1      2944 1.38462E-04-3.32451E-05-4.58301E-05 8.82836E-06-1.82207E-18-2.86932E-20
 -1      2945 1.36812E-04-4.74454E-05-3.84558E-05 1.98748E-06-1.05010E-18 1.76289E-20
 -1      2946 4.90334E-05-2.13282E-05-1.13634E-05-3.44511E-05-7.65506E-19 2.99130E-18
 -1      2947 6.23142E-05-3.02933E-05-1.33765E-05-4.21379E-05-7.29084E-19 2.05300E-18
 -1      2948 3.47453E-05-1.36859E-05-8.59285E-06-1.49226E-05-1.92647E-19-1.79910E-18
 -1      2949 4.38258E-05-1.94807E-05-9.85599E-06-2.53739E-05 2.98050E-19-1.71567E-18
 -1      2950 5.93360E-05-2.32383E-05-1.49202E-05-2.77130E-05 7.39672E-19-2.02631E-18
 -1      2951 4.15962E-05-1.09720E-05-1.26121E-05-9.67075E-06 9.17191E-19-7.54283E-19
 -1      2952 9.07787E-05-1.54172E-05-3.23199E-05-3.84147E-06 7.60213E-19 1.83168E-19
 -1      2953 9.11236E-05-1.59158E-05-3.22590E-05-4.75356E-06 7.37684E-19 9.76123E-20
 -1      2954 1.13159E-04-5.30582E-05-2.55311E-05-2.71786E-05 2.57286E-19-1.50756E-18
 -1      2955 1.01450E-04-4.27394E-05-2.45783E-05-3.00834E-05 6.64974E-19-1.76876E-18
 -1      2956 8.34697E-05-3.34356E-05-2.13811E-05-3.13378E-05 5.45172E-19-1.95453E-18
 -1      2957 1.05123E-04-5.30675E-05-2.23911E-05-3.27088E-05-2.31664E-19-1.11141E-18
 -1      2958 9.12165E-05-1.61985E-05-3.21378E-05 2.98495E-08 7.05831E-19 5.25932E-19
 -1      2959 9.01171E-05-1.44434E-05-3.24513E-05-3.69448E-07 7.07032E-19 4.22514E-19
 -1      2960 9.01774E-05-1.45269E-05-3.24414E-05-1.30717E-06 8.03237E-19 2.30674E-19
 -1      2961 9.44975E-05-2.13717E-05-3.13341E-05 7.75727E-06 4.61468E-20 1.24488E-18
 -1      2962 1.29804E-04-5.70706E-05-3.11033E-05-1.78178E-05-4.49669E-19 5.82759E-19
 -1      2963 1.19861E-04-8.81120E-06-4.80740E-05-5.00641E-06-6.47557E-19 5.80085E-19
 -1      2964 1.27842E-04-1.01682E-05-5.09649E-05-6.86145E-06-3.63589E-19-2.28381E-19
 -1      2965 1.24340E-04-1.41572E-05-4.76745E-05-9.59668E-06 2.77827E-19 1.38384E-19
 -1      2966 1.55351E-04-6.25720E-05-4.04137E-05 1.05928E-05-1.41050E-18-2.89855E-18
 -1      2967 1.37303E-04-4.92123E-05-3.78145E-05 2.23894E-07 8.17096E-19 1.78226E-18
 -1      2968 5.30464E-05-1.73100E-05-1.50411E-05 2.75603E-05 3.55516E-19 1.34689E-18
 -1      2969 4.16643E-05-1.23364E-05-1.17454E-05 2.09998E-05 2.13505E-19 1.61540E-18
 -1      2970 4.32633E-05-9.48590E-06-1.41653E-05 1.10479E-05 1.40075E-18 8.01505E-20
 -1      2971 7.04130E-05-3.31823E-05-1.55783E-05 4.06615E-05 6.17275E-20 1.05816E-18
 -1      2972 9.53453E-05-2.55827E-05-2.99064E-05 2.37207E-06 5.46754E-20 7.02069E-19
 -1      2973 9.52417E-05-2.58333E-05-2.97406E-05 2.57931E-06-1.29454E-20 1.05851E-18
 -1      2974 9.49536E-05-2.80615E-05-2.86669E-05 1.24865E-07-9.46794E-19-4.28301E-19
 -1      2975 1.30252E-04-2.76852E-05-4.42848E-05 1.12104E-05-2.05130E-18-2.58186E-19
 -1      2976 1.28809E-04-5.75562E-05-3.05073E-05 1.97729E-05 5.21984E-20 3.35748E-18
 -1      2977 9.51891E-05-2.83309E-05-2.86531E-05 3.01768E-07-3.59954E-19-1.75660E-18
 -1      2978 1.03726E-04-5.20418E-05-2.19536E-05 3.95973E-05-1.10686E-18 2.98923E-18
 -1      2979 9.42896E-05-4.60947E-05-2.03870E-05 4.04802E-05-5.92394E-19 2.49652E-18
 -1      2980 1.12332E-04-5.36988E-05-2.50129E-05 3.22065E-05-5.53960E-19 4.66504E-18
 -1      2981 9.52292E-05-2.83777E-05-2.86506E-05-2.54608E-07 4.37735E-19 8.80647E-19
 -1      2982 9.51937E-05-2.83330E-05-2.86559E-05-2.68413E-07 1.10308E-18 2.17221E-18
 -1      2983 6.32100E-05-2.31118E-05-1.65595E-05 2.73608E-05-1.23317E-18 2.08370E-19
 -1      2984 9.51589E-05-2.82674E-05-2.86676E-05-3.14268E-07 9.67050E-19 1.75059E-18
 -1      2985 7.56143E-05-3.51465E-05-1.68998E-05-4.03503E-05-5.04832E-19 1.70571E-18
 -1      2986 9.52597E-05-2.55100E-05-2.98694E-05 3.29865E-06-5.44202E-20 1.13787E-18
 -1      2987 7.58394E-05-2.53628E-05-2.15675E-05 2.84225E-05-1.28627E-18 3.91753E-20
 -1      2988 1.46374E-04-6.75451E-05-3.39578E-05 9.73032E-06-4.50198E-19-1.28961E-19
 -1      2989 1.06294E-04-5.18807E-05-2.29941E-05-3.65447E-05-2.58980E-19 1.45788E-18
 -1      2990 9.47590E-05-2.23693E-05-3.09927E-05 6.21115E-06-3.65457E-20 1.10261E-18
 -1      2991 1.35992E-04-2.96347E-05-4.59332E-05-1.05382E-05 5.73653E-19 2.68615E-19
 -1      2992 1.32907E-04-3.49230E-05-4.22317E-05-9.79900E-06 1.10120E-18 1.03751E-18
 -1      2993 1.29492E-04-2.32513E-05-4.60827E-05-1.23635E-05 3.42095E-19-1.78353E-19
 -1      2994 9.03094E-05-1.47258E-05-3.24135E-05-2.12145E-06 8.01567E-19 3.67503E-19
 -1      2995 9.05021E-05-1.49982E-05-3.23806E-05-3.05504E-06 7.38228E-19 3.19709E-19
 -1      2996 9.17381E-05-1.69960E-05-3.20167E-05-3.04808E-06 7.05214E-19 2.61050E-19
 -1      2997 9.13430E-05-1.63893E-05-3.21096E-05-1.53173E-06 7.45243E-19 2.63011E-19
 -1      2998 3.68617E-05-9.81036E-06-1.08956E-05 5.07807E-06-1.31841E-18 3.19882E-18
 -1      2999 4.01909E-05-8.41787E-06-1.32179E-05-3.42136E-06-1.51968E-18 3.66426E-18
 -1      3000 4.61576E-05-1.11094E-05-1.45126E-05 1.11822E-05-1.33763E-18 2.40939E-18
 -1      3001 4.32003E-05-1.12501E-05-1.32988E-05-1.78771E-05-9.60932E-19 4.07412E-18
 -1      3002 4.50664E-05-1.58979E-05-1.18537E-05-2.71972E-05-7.50789E-19 4.02436E-18
 -1      3003 5.54815E-05-1.93401E-05-1.51063E-05-2.95729E-05-3.33043E-19 2.58747E-18
 -1      3004 8.23088E-05-3.71179E-05-1.90709E-05-3.44231E-05 8.14846E-19-1.78353E-18
 -1      3005 8.85830E-05-4.48514E-05-1.81004E-05-3.57141E-05-2.24358E-19-1.62397E-18
 -1      3006 9.24144E-05-1.80582E-05-3.18450E-05-4.45300E-06 6.28468E-19 1.67516E-19
 -1      3007 9.15636E-05-1.65848E-05-3.21556E-05-5.47089E-06 6.27748E-19 7.49128E-20
 -1      3008 9.20897E-05-1.73732E-05-3.20529E-05-6.28699E-06 6.11018E-19 5.58942E-20
 -1      3009 9.42639E-05-2.17683E-05-3.11042E-05 4.83831E-06 9.81657E-20 6.34428E-19
 -1      3010 9.37978E-05-2.08040E-05-3.12888E-05 4.45188E-06 1.93478E-19 3.73231E-19
 -1      3011 9.54019E-05-2.53280E-05-3.00082E-05 4.55466E-06-1.47129E-19 1.44151E-18
 -1      3012 1.23859E-04-5.62987E-05-2.86369E-05-2.16284E-05-4.92351E-19 5.13249E-19
 -1      3013 1.30623E-04-5.51440E-05-3.26265E-05-1.01492E-05-4.61676E-19 1.06911E-19
 -1      3014 9.24522E-05-1.79031E-05-3.19716E-05-6.79920E-06 5.44931E-19 5.02330E-20
 -1      3015 9.30924E-05-1.88942E-05-3.18283E-05-7.30993E-06 4.49815E-19-5.07194E-20
 -1      3016 9.38411E-05-2.04411E-05-3.14365E-05-6.29548E-06 3.74551E-19-1.73038E-20
 -1      3017 9.31975E-05-1.92980E-05-3.16427E-05-5.52926E-06 5.06596E-19 1.01558E-19
 -1      3018 9.49869E-05-2.33952E-05-3.06624E-05-3.94324E-06 4.36484E-19 1.07096E-19
 -1      3019 9.51791E-05-2.44744E-05-3.03187E-05-2.75029E-06 4.07199E-19 1.70726E-19
 -1      3020 9.55112E-05-2.54497E-05-3.00111E-05-1.83362E-06 2.51188E-19 2.68699E-19
 -1      3021 9.55477E-05-2.61405E-05-2.97581E-05-9.43007E-07 1.77634E-19 2.89943E-19
 -1      3022 9.52296E-05-2.43369E-05-3.03801E-05-2.34131E-06 3.93771E-19 3.43429E-19
 -1      3023 9.56693E-05-2.66938E-05-2.95475E-05-3.09709E-07 8.92782E-20 3.60324E-19
 -1      3024 9.56453E-05-2.70903E-05-2.93872E-05 2.75938E-07 8.64921E-22 3.48924E-19
 -1      3025 9.56684E-05-2.60021E-05-2.98582E-05-7.54706E-07 2.35503E-19 4.96438E-19
 -1      3026 9.56571E-05-2.74084E-05-2.92401E-05 7.25651E-07 1.61112E-20 4.30257E-19
 -1      3027 9.56196E-05-2.76318E-05-2.91402E-05 1.12988E-06 1.12301E-19 5.35881E-19
 -1      3028 9.58012E-05-2.69941E-05-2.94917E-05 3.70223E-07 1.84715E-19 5.81891E-19
 -1      3029 9.55655E-05-2.77849E-05-2.90435E-05 1.44947E-06 2.41800E-19 4.35076E-19
 -1      3030 9.55273E-05-2.78846E-05-2.89895E-05 1.74159E-06 1.62716E-19 6.08121E-19
 -1      3031 9.57636E-05-2.75477E-05-2.92383E-05 1.17348E-06 2.05228E-19 5.92573E-19
 -1      3032 9.54252E-05-2.79136E-05-2.89319E-05 1.98218E-06-1.21078E-19 6.39054E-19
 -1      3033 9.53844E-05-2.79159E-05-2.89130E-05 2.21855E-06-8.49974E-20 4.66941E-19
 -1      3034 9.56143E-05-2.77794E-05-2.90739E-05 1.75926E-06-1.47724E-20 4.11108E-19
 -1      3035 9.52352E-05-2.78415E-05-2.88848E-05 2.42337E-06 4.87949E-21 4.69109E-19
 -1      3036 9.51810E-05-2.77573E-05-2.88926E-05 2.64952E-06-3.08669E-20 2.53613E-19
 -1      3037 9.53712E-05-2.77561E-05-2.89780E-05 2.22101E-06-1.47170E-19 7.21326E-19
 -1      3038 9.49726E-05-2.75853E-05-2.88855E-05 2.85337E-06-2.62104E-19 2.95637E-19
 -1      3039 9.48882E-05-2.74145E-05-2.89132E-05 3.10674E-06-5.30283E-19 2.25326E-19
 -1      3040 9.50235E-05-2.75093E-05-2.89323E-05 2.63551E-06-2.21019E-19 5.94550E-19
 -1      3041 9.45791E-05-2.71219E-05-2.89192E-05 3.34827E-06-7.32676E-19 2.69524E-19
 -1      3042 9.44229E-05-2.68357E-05-2.89618E-05 3.67869E-06-6.97360E-19 3.84107E-19
 -1      3043 9.45193E-05-2.70277E-05-2.89195E-05 3.07380E-06-3.81157E-19 4.64527E-19
 -1      3044 9.39939E-05-2.64293E-05-2.89698E-05 3.95656E-06-3.57347E-19 4.26169E-19
 -1      3045 9.37422E-05-2.60357E-05-2.90144E-05 4.35779E-06 9.02189E-20 5.06072E-19
 -1      3046 9.37987E-05-2.62931E-05-2.89199E-05 3.56773E-06-3.62926E-19 8.20274E-19
 -1      3047 9.31251E-05-2.54789E-05-2.90102E-05 4.69448E-06 3.28337E-20 3.88501E-19
 -1      3048 9.27115E-05-2.49397E-05-2.90448E-05 5.20214E-06 1.19543E-19 6.10247E-19
 -1      3049 9.27824E-05-2.52890E-05-2.89075E-05 4.12942E-06-3.21463E-20 6.16707E-19
 -1      3050 9.18185E-05-2.41988E-05-2.90062E-05 5.60176E-06 1.64446E-19 4.07379E-19
 -1      3051 9.11627E-05-2.34874E-05-2.90076E-05 6.23057E-06-3.10515E-20 1.40568E-19
 -1      3052 9.13141E-05-2.39444E-05-2.88443E-05 4.77244E-06-4.73158E-20 2.02647E-20
 -1      3053 8.98789E-05-2.25342E-05-2.88985E-05 6.69156E-06-1.44296E-19 1.22023E-19
 -1      3054 8.88808E-05-2.16404E-05-2.88270E-05 7.45141E-06-1.71282E-19 2.37670E-19
 -1      3055 8.91991E-05-2.22015E-05-2.86703E-05 5.47908E-06-1.53928E-19-2.14329E-19
 -1      3056 8.70584E-05-2.04720E-05-2.85880E-05 7.97506E-06-3.68387E-19 1.87511E-19
 -1      3057 8.56127E-05-1.94355E-05-2.83768E-05 8.88142E-06-5.93307E-19 3.95416E-19
 -1      3058 8.61823E-05-2.00269E-05-2.82890E-05 6.21879E-06-3.29790E-19 7.80180E-20
 -1      3059 8.30666E-05-1.81112E-05-2.79094E-05 9.50033E-06-8.30653E-19 5.79902E-19
 -1      3060 8.11045E-05-1.70840E-05-2.74479E-05 1.06086E-05-1.08393E-18 8.31520E-19
 -1      3061 8.19392E-05-1.74575E-05-2.75412E-05 6.98132E-06-6.80790E-19 2.85103E-19
 -1      3062 7.76062E-05-1.57942E-05-2.65847E-05 1.14585E-05-1.29887E-18 1.07889E-18
 -1      3063 7.52008E-05-1.51542E-05-2.57017E-05 1.29336E-05-1.29518E-18 1.07152E-18
 -1      3064 7.60580E-05-1.46704E-05-2.61600E-05 7.87047E-06-1.01204E-18 4.41423E-19
 -1      3065 7.01592E-05-1.41393E-05-2.40482E-05 1.44826E-05-1.60224E-18 8.89636E-19
 -1      3066 6.79075E-05-1.50304E-05-2.24448E-05 1.68248E-05-1.66329E-18 8.62624E-19
 -1      3067 6.77901E-05-1.21183E-05-2.35911E-05 9.35111E-06-1.42542E-18 1.31339E-18
 -1      3068 6.84182E-05-1.86392E-05-2.10457E-05-2.23110E-05 1.24306E-18-1.60545E-18
 -1      3069 6.95763E-05-1.60887E-05-2.29388E-05-1.90535E-05 1.01162E-18-6.97214E-19
 -1      3070 9.52458E-05-2.83478E-05-2.86696E-05-3.37712E-07 7.03359E-19-3.24636E-19
 -1      3071 1.32149E-04-4.40700E-05-3.81585E-05-5.66713E-06 3.97444E-19 4.50198E-19
 -1      3072 1.32417E-04-5.07290E-05-3.48945E-05 1.48092E-06-4.67377E-19 4.52686E-19
 -1      3073 9.53632E-05-2.54162E-05-2.99909E-05 1.93916E-06 2.40179E-19 6.08925E-19
 -1      3074 9.52803E-05-2.45810E-05-3.02949E-05 2.99611E-06 1.54466E-19 7.16524E-19
 -1      3075 7.95645E-05-1.64961E-05-2.70124E-05-1.25576E-05 2.74263E-19 1.78499E-19
 -1      3076 8.15971E-05-1.72770E-05-2.76469E-05-1.10500E-05 2.96103E-19-4.35835E-19
 -1      3077 8.44810E-05-1.85542E-05-2.82620E-05-1.01286E-05 1.03759E-18-4.19178E-19
 -1      3078 8.59940E-05-1.95244E-05-2.85462E-05-8.97805E-06 1.08672E-18-9.42133E-19
 -1      3079 7.98173E-05-1.61585E-05-2.71684E-05-8.15078E-06 3.55918E-19-7.80031E-19
 -1      3080 8.80686E-05-2.07289E-05-2.88666E-05-8.24389E-06 1.26233E-18-1.83509E-19
 -1      3081 8.91474E-05-2.16401E-05-2.89744E-05-7.27713E-06 7.18877E-19 8.52435E-19
 -1      3082 8.46396E-05-1.87601E-05-2.81589E-05-6.93798E-06 1.16055E-18-1.22167E-18
 -1      3083 9.06092E-05-2.26560E-05-2.91254E-05-6.64507E-06-6.08632E-19 1.31321E-18
 -1      3084 9.13279E-05-2.34083E-05-2.91391E-05-5.83290E-06-2.36443E-19 1.82038E-18
 -1      3085 8.80811E-05-2.10616E-05-2.86715E-05-5.86064E-06 7.14961E-19 4.78108E-19
 -1      3086 9.23344E-05-2.42096E-05-2.91953E-05-5.28237E-06-1.79140E-19 1.55783E-18
 -1      3087 9.27877E-05-2.47912E-05-2.91634E-05-4.61144E-06 7.17352E-20 1.07471E-18
 -1      3088 9.04821E-05-2.29464E-05-2.89096E-05-4.86160E-06-1.56114E-19 1.20108E-18
 -1      3089 9.34670E-05-2.53979E-05-2.91692E-05-4.13944E-06-4.13623E-19 4.99992E-19
 -1      3090 9.37387E-05-2.58309E-05-2.91191E-05-3.59606E-06-1.00603E-18 4.67246E-19
 -1      3091 9.21227E-05-2.44172E-05-2.89941E-05-3.95248E-06-6.88501E-19-2.54382E-19
 -1      3092 9.41894E-05-2.62794E-05-2.91002E-05-3.20012E-06-1.32203E-18 1.05076E-19
 -1      3093 9.43430E-05-2.65948E-05-2.90464E-05-2.76743E-06-1.12672E-18 1.93969E-19
 -1      3094 9.32236E-05-2.55294E-05-2.89972E-05-3.15251E-06-1.32587E-18-2.64228E-19
 -1      3095 9.46487E-05-2.69353E-05-2.90158E-05-2.42630E-06-5.57507E-19 5.16565E-19
 -1      3096 9.47326E-05-2.71707E-05-2.89632E-05-2.07378E-06-5.56569E-19 2.28534E-19
 -1      3097 9.39653E-05-2.63718E-05-2.89594E-05-2.45574E-06-8.13682E-19 6.46191E-19
 -1      3098 9.49199E-05-2.74023E-05-2.89320E-05-1.81552E-06-3.34017E-19 3.05223E-19
 -1      3099 9.49559E-05-2.75620E-05-2.88886E-05-1.55557E-06-5.11488E-19 1.28934E-18
 -1      3100 9.44451E-05-2.69863E-05-2.89055E-05-1.88033E-06-7.52901E-19 1.05585E-18
 -1      3101 9.50748E-05-2.77283E-05-2.88592E-05-1.35044E-06-1.37564E-18 2.16800E-18
 -1      3102 9.50870E-05-2.78425E-05-2.88230E-05-1.15076E-06-1.50921E-18 2.57238E-18
 -1      3103 9.47447E-05-2.74205E-05-2.88501E-05-1.42678E-06-3.86586E-19 1.50512E-18
 -1      3104 9.51618E-05-2.79616E-05-2.87971E-05-9.90326E-07-5.83680E-19 3.67565E-18
 -1      3105 9.51612E-05-2.80430E-05-2.87677E-05-8.38006E-07 1.27692E-18 2.53894E-18
 -1      3106 9.49353E-05-2.77354E-05-2.87982E-05-1.06549E-06-3.36287E-19 5.39285E-18
 -1      3107 9.52069E-05-2.81274E-05-2.87458E-05-7.14144E-07 2.08625E-18 1.68379E-18
 -1      3108 9.51997E-05-2.81856E-05-2.87225E-05-5.98121E-07 2.21419E-18 1.44533E-18
 -1      3109 9.50546E-05-2.79634E-05-2.87526E-05-7.82420E-07 4.05541E-19 3.70646E-18
 -1      3110 9.52278E-05-2.82464E-05-2.87044E-05-5.04052E-07 8.39856E-19 9.82580E-19
 -1      3111 9.52190E-05-2.82875E-05-2.86861E-05-4.16771E-07-8.98132E-20 2.72671E-19
 -1      3112 9.51267E-05-2.81276E-05-2.87141E-05-5.63426E-07 1.37376E-18 1.83914E-18
 -1      3113 9.49486E-05-2.80298E-05-2.86795E-05-2.65502E-07-6.03314E-20-2.65880E-18
 -1      3114 9.49111E-05-2.79965E-05-2.86790E-05-2.15738E-07 4.87034E-19-1.41937E-18
 -1      3115 9.48827E-05-2.79863E-05-2.86712E-05 1.23774E-07-9.78054E-19 6.63098E-19
 -1      3116 9.49068E-05-2.80102E-05-2.86697E-05 1.79198E-07-1.92478E-18 4.23642E-19
 -1      3117 9.55881E-05-2.74619E-05-2.92016E-05-6.08879E-07 3.77464E-19 3.38497E-19
 -1      3118 9.56209E-05-2.71335E-05-2.93381E-05-1.22442E-07 4.06603E-19 3.65643E-19
 -1      3119 9.55502E-05-2.66796E-05-2.95247E-05 4.37243E-07 3.15618E-19 4.29018E-19
 -1      3120 9.55806E-05-2.61613E-05-2.97312E-05 1.17508E-06 2.38553E-19 4.13747E-19
 -1      3121 9.54718E-05-2.52900E-05-3.00887E-05 1.68079E-06 3.13317E-19 4.27873E-19
 -1      3122 9.57152E-05-2.65715E-05-2.96352E-05 2.95037E-07 4.15443E-19 2.65876E-19
 -1      3123 9.55799E-05-2.84990E-05-2.87463E-05-2.33657E-06 5.23768E-20 1.42910E-19
 -1      3124 9.55181E-05-2.84316E-05-2.87493E-05-2.23557E-06 1.74194E-19-1.47055E-20
 -1      3125 9.55397E-05-2.83811E-05-2.87803E-05-2.10191E-06 2.12529E-19-1.56339E-19
 -1      3126 9.55092E-05-2.82985E-05-2.88011E-05-1.95894E-06 1.38278E-19-1.25289E-20
 -1      3127 9.56589E-05-2.83700E-05-2.88421E-05-2.15967E-06 3.74263E-20 8.24341E-20
 -1      3128 9.58911E-05-2.88125E-05-2.87454E-05-2.64504E-06-1.09430E-19 3.19697E-19
 -1      3129 9.57417E-05-2.86960E-05-2.87318E-05-2.60410E-06-4.78553E-20 4.47539E-19
 -1      3130 9.62320E-05-2.91239E-05-2.87590E-05-2.70705E-06 1.30102E-19-4.99847E-20
 -1      3131 9.60188E-05-2.89418E-05-2.87437E-05-2.71057E-06-5.56243E-20 3.01177E-20
 -1      3132 9.58876E-05-2.88445E-05-2.87391E-05-2.81632E-06 1.50101E-19 5.71955E-19
 -1      3133 9.67564E-05-2.96159E-05-2.87747E-05-2.65470E-06 4.31548E-19 6.02741E-21
 -1      3134 9.64634E-05-2.93425E-05-2.87597E-05-2.73017E-06 2.14927E-19-2.35874E-19
 -1      3135 9.62418E-05-2.92248E-05-2.87301E-05-2.93485E-06 1.76563E-19 1.33534E-19
 -1      3136 9.75123E-05-3.03354E-05-2.87933E-05-2.41243E-06 1.67517E-19 6.06685E-19
 -1      3137 9.71262E-05-2.99531E-05-2.87783E-05-2.60017E-06 4.72958E-19 5.02502E-19
 -1      3138 9.68364E-05-2.98336E-05-2.87268E-05-2.94301E-06 1.81468E-20 3.63706E-19
 -1      3139 9.85329E-05-3.12963E-05-2.88232E-05-1.87778E-06 6.13220E-20 7.31832E-19
 -1      3140 9.80522E-05-3.08081E-05-2.88042E-05-2.22759E-06 1.08004E-19 5.66965E-19
 -1      3141 9.77392E-05-3.07251E-05-2.87348E-05-2.75546E-06 1.00253E-19 6.84637E-19
 -1      3142 9.98090E-05-3.24444E-05-2.88835E-05-9.32234E-07 7.06387E-19 5.21323E-19
 -1      3143 9.92580E-05-3.18927E-05-2.88516E-05-1.49439E-06 5.62671E-19 7.12319E-19
 -1      3144 9.90007E-05-3.19103E-05-2.87700E-05-2.25112E-06 4.45967E-19 7.20512E-19
 -1      3145 1.01249E-04-3.36116E-05-2.90061E-05 5.28697E-07 1.16498E-19 6.63219E-19
 -1      3146 1.00694E-04-3.31004E-05-2.89468E-05-2.77030E-07 4.46124E-19 5.58726E-19
 -1      3147 1.00616E-04-3.33105E-05-2.88622E-05-1.28183E-06 4.39072E-19 7.39500E-19
 -1      3148 1.02633E-04-3.44731E-05-2.92333E-05 2.53301E-06-1.54980E-19 6.83962E-19
 -1      3149 1.02196E-04-3.41841E-05-2.91282E-05 1.50591E-06-2.74845E-19 7.73459E-19
 -1      3150 1.02469E-04-3.46987E-05-2.90564E-05 2.93470E-07-1.46630E-19 1.08475E-18
 -1      3151 1.03600E-04-3.45519E-05-2.96103E-05 4.92682E-06-3.17823E-19 1.42548E-18
 -1      3152 1.03446E-04-3.47279E-05-2.94417E-05 3.80291E-06 9.31652E-20 1.05806E-18
 -1      3153 1.04269E-04-3.56464E-05-2.94096E-05 2.52817E-06-3.81719E-19 1.29188E-18
 -1      3154 1.03716E-04-3.33430E-05-3.01625E-05 7.24736E-06-6.13706E-19 1.15654E-18
 -1      3155 1.03997E-04-3.42019E-05-2.99243E-05 6.29612E-06-1.79553E-19 9.75102E-19
 -1      3156 1.05531E-04-3.55452E-05-2.99757E-05 5.24089E-06-1.26705E-19 1.18143E-18
 -1      3157 1.02687E-04-3.06140E-05-3.08643E-05 8.67506E-06-6.75254E-19 4.14561E-19
 -1      3158 1.03434E-04-3.21833E-05-3.05745E-05 8.29544E-06-7.27655E-19 8.56355E-19
 -1      3159 1.05684E-04-3.38035E-05-3.07720E-05 7.83548E-06-4.58934E-19 5.03328E-19
 -1      3160 1.00695E-04-2.68231E-05-3.16122E-05 8.23118E-06-2.99999E-19 1.51542E-19
 -1      3161 1.01697E-04-2.87466E-05-3.13227E-05 8.81144E-06-4.37024E-19 3.66655E-19
 -1      3162 1.04394E-04-3.02589E-05-3.17364E-05 9.25715E-06-5.50695E-19 2.53773E-19
 -1      3163 9.85500E-05-2.32496E-05-3.22265E-05 5.38976E-06 3.70097E-20 2.29817E-19
 -1      3164 9.94020E-05-2.48284E-05-3.20141E-05 7.03316E-06-1.11727E-20 3.36333E-19
 -1      3165 1.02048E-04-2.57141E-05-3.26985E-05 8.36065E-06-4.27268E-19 9.01495E-20
 -1      3166 9.74351E-05-2.15451E-05-3.25109E-05 6.61150E-07 3.28672E-20 3.82725E-19
 -1      3167 9.77034E-05-2.20357E-05-3.24479E-05 2.96336E-06 1.43547E-19 4.04960E-19
 -1      3168 9.98175E-05-2.19259E-05-3.33998E-05 4.65726E-06-1.59395E-19 5.33078E-19
 -1      3169 9.80586E-05-2.26125E-05-3.23632E-05-4.35091E-06-8.32580E-19 3.98472E-19
 -1      3170 9.75920E-05-2.17613E-05-3.24722E-05-2.16781E-06-4.68277E-19-1.20893E-19
 -1      3171 9.90869E-05-2.07420E-05-3.36059E-05-8.46444E-07-1.02615E-19 5.55060E-19
 -1      3172 1.00056E-04-2.58889E-05-3.18412E-05-7.84915E-06-4.79348E-19 1.40474E-18
 -1      3173 9.91088E-05-2.41339E-05-3.20808E-05-6.48909E-06-5.85569E-19 8.58212E-19
 -1      3174 1.00351E-04-2.28001E-05-3.32426E-05-6.02076E-06-1.00777E-18 6.67433E-19
 -1      3175 1.02293E-04-2.98021E-05-3.11205E-05-8.94377E-06-8.96320E-19 1.81047E-18
 -1      3176 1.01324E-04-2.79235E-05-3.14140E-05-8.65612E-06-6.01243E-19 1.98762E-18
 -1      3177 1.02765E-04-2.69989E-05-3.24452E-05-8.95850E-06-1.17368E-18 1.49917E-18
 -1      3178 1.03719E-04-3.28659E-05-3.03954E-05-7.92267E-06-8.29146E-19 1.76246E-18
 -1      3179 1.03097E-04-3.14940E-05-3.06704E-05-8.49366E-06-8.29330E-19 2.09834E-18
 -1      3180 1.04894E-04-3.13773E-05-3.14658E-05-9.12233E-06-9.73391E-19 2.40719E-18
 -1      3181 1.03931E-04-3.44133E-05-2.97982E-05-5.72934E-06-3.70014E-19 1.78954E-18
 -1      3182 1.03785E-04-3.37748E-05-3.00125E-05-6.74541E-06-4.14897E-19 1.57237E-18
 -1      3183 1.05757E-04-3.44101E-05-3.05450E-05-7.26500E-06-5.76047E-19 2.22716E-18
 -1      3184 1.03130E-04-3.45560E-05-2.93756E-05-3.29068E-06-4.61946E-19 2.78509E-18
 -1      3185 1.03380E-04-3.45493E-05-2.95196E-05-4.38055E-06-4.52917E-19 2.11967E-18
 -1      3186 1.05224E-04-3.56123E-05-2.98213E-05-4.58969E-06-7.34319E-19 2.86835E-18
 -1      3187 1.01765E-04-3.37818E-05-2.91142E-05-1.18633E-06-1.95705E-19 2.45093E-18
 -1      3188 1.02247E-04-3.41681E-05-2.91986E-05-2.12398E-06 2.19840E-19 3.15931E-18
 -1      3189 1.03738E-04-3.53160E-05-2.93284E-05-2.02976E-06-6.25134E-19 3.52558E-18
 -1      3190 1.00254E-04-3.26003E-05-2.89724E-05 3.55963E-07-8.66861E-19 2.67465E-18
 -1      3191 1.00812E-04-3.31499E-05-2.90159E-05-3.39183E-07-8.48790E-19 2.11451E-18
 -1      3192 1.01868E-04-3.41536E-05-2.90344E-05-4.52365E-08-3.29790E-19 3.50183E-18
 -1      3193 9.88688E-05-3.13792E-05-2.89053E-05 1.33331E-06-2.46758E-19 2.67689E-18
 -1      3194 9.93978E-05-3.19329E-05-2.89256E-05 8.83637E-07-3.28846E-19 2.32574E-18
 -1      3195 1.00043E-04-3.26906E-05-2.88824E-05 1.26657E-06-8.48543E-19 2.31656E-18
 -1      3196 9.77346E-05-3.03223E-05-2.88768E-05 1.84616E-06 2.06776E-18 1.21691E-18
 -1      3197 9.81822E-05-3.07950E-05-2.88871E-05 1.60236E-06 7.41867E-19 1.65970E-18
 -1      3198 9.84985E-05-3.12952E-05-2.88174E-05 1.99470E-06 8.93623E-19 1.97267E-18
 -1      3199 9.68768E-05-2.95072E-05-2.88630E-05 2.02126E-06 1.79505E-18 2.97918E-19
 -1      3200 9.72280E-05-2.98687E-05-2.88714E-05 1.93085E-06 1.93524E-18 8.41395E-19
 -1      3201 9.73108E-05-3.01477E-05-2.87972E-05 2.28865E-06 2.18854E-18 7.88141E-20
 -1      3202 9.62668E-05-2.89346E-05-2.88507E-05 1.97438E-06 1.10511E-18 4.94242E-19
 -1      3203 9.65280E-05-2.91872E-05-2.88609E-05 1.98744E-06 1.83218E-18 6.29392E-19
 -1      3204 9.64631E-05-2.92987E-05-2.87944E-05 2.29314E-06 1.61949E-18 2.71405E-19
 -1      3205 9.58547E-05-2.85679E-05-2.88340E-05 1.79730E-06 2.21424E-19 2.70686E-19
 -1      3206 9.60415E-05-2.87292E-05-2.88472E-05 1.87285E-06 6.65253E-19 3.53417E-19
 -1      3207 9.58965E-05-2.87266E-05-2.87939E-05 2.12431E-06 4.92231E-19 5.13996E-19
 -1      3208 9.55892E-05-2.83584E-05-2.88118E-05 1.55652E-06 2.29744E-19 9.29750E-19
 -1      3209 9.57190E-05-2.84506E-05-2.88276E-05 1.66393E-06-3.66119E-21 1.51820E-19
 -1      3210 9.55417E-05-2.83787E-05-2.87886E-05 1.86636E-06 1.81130E-19-3.11722E-19
 -1      3211 9.54258E-05-2.82593E-05-2.87854E-05 1.29672E-06 4.64066E-19 6.61887E-19
 -1      3212 9.55141E-05-2.83033E-05-2.88026E-05 1.41488E-06 6.35875E-19 8.81880E-19
 -1      3213 9.53355E-05-2.81961E-05-2.87769E-05 1.57593E-06 7.40888E-20-1.37097E-19
 -1      3214 9.53300E-05-2.82317E-05-2.87569E-05 1.04566E-06 2.03730E-19-5.02210E-19
 -1      3215 9.53893E-05-2.82445E-05-2.87742E-05 1.16112E-06 6.37182E-19 7.82907E-19
 -1      3216 9.52271E-05-2.81256E-05-2.87595E-05 1.28850E-06 5.82965E-19 9.59753E-19
 -1      3217 9.52767E-05-2.82459E-05-2.87282E-05 8.18880E-07-1.62516E-18-9.67451E-19
 -1      3218 9.53163E-05-2.82406E-05-2.87447E-05 9.23907E-07-6.30757E-19-1.49999E-18
 -1      3219 9.51791E-05-2.81250E-05-2.87385E-05 1.02432E-06-7.14922E-20 3.99341E-19
 -1      3220 9.52491E-05-2.82804E-05-2.87012E-05 6.23605E-07-9.35590E-20-1.40335E-18
 -1      3221 9.52751E-05-2.82667E-05-2.87161E-05 7.14057E-07-1.15830E-18-1.29220E-18
 -1      3222 9.51649E-05-2.81626E-05-2.87160E-05 7.93649E-07-1.27078E-18-8.82378E-19
 -1      3223 9.49429E-05-2.80532E-05-2.86685E-05 2.37076E-07-1.61853E-18 1.42517E-19
 -1      3224 9.49820E-05-2.80913E-05-2.86668E-05 2.78081E-07-1.71100E-18-2.74913E-19
 -1      3225 9.48761E-05-2.79698E-05-2.86730E-05 2.42264E-07-2.11709E-18 5.13445E-19
 -1      3226 9.50504E-05-2.81281E-05-2.86804E-05-3.47638E-07 6.81288E-19 6.71514E-19
 -1      3227 9.49977E-05-2.80796E-05-2.86810E-05-3.17158E-07 3.96824E-19-4.12492E-19
 -1      3228 9.49279E-05-2.79841E-05-2.86884E-05-3.31961E-07 2.66454E-19-1.30420E-18
 -1      3229 9.48829E-05-2.79711E-05-2.86770E-05-1.46816E-07 1.11695E-18 9.09393E-20
 -1      3230 9.48662E-05-2.79574E-05-2.86760E-05-8.73665E-08 1.83264E-18 4.49494E-19
 -1      3231 9.48387E-05-2.79061E-05-2.86839E-05-2.03447E-07 8.37717E-19-1.04432E-18
 -1      3232 7.15485E-05-2.99886E-05-1.75007E-05-3.66392E-05-5.84082E-19 1.38347E-18
 -1      3233 8.58460E-05-3.97872E-05-1.96826E-05-3.93397E-05-4.73862E-19 1.51831E-18
 -1      3234 6.10562E-05-1.67624E-05-1.86349E-05 2.20722E-05-1.54022E-18 4.19917E-19
 -1      3235 1.29451E-04-3.35428E-05-4.11653E-05 1.16788E-05-1.80100E-18-2.02917E-19
 -1      3236 1.22874E-04-2.27245E-05-4.34141E-05 1.25915E-05-2.26422E-18-4.20578E-19
 -1      3237 1.32725E-04-4.92557E-05-3.57875E-05 4.43942E-07-3.04217E-19 8.46504E-20
 -1      3238 1.32199E-04-4.30079E-05-3.87056E-05 6.69829E-06-1.01321E-18 5.53510E-19
 -1      3239 9.56868E-05-2.86238E-05-2.87384E-05-2.51524E-06-2.53480E-19 6.60496E-19
 -1      3240 9.55866E-05-2.85453E-05-2.87305E-05-2.44387E-06-8.29747E-20 4.40712E-19
 -1      3241 9.56460E-05-2.84874E-05-2.87865E-05-2.42143E-06-1.21971E-19 5.67938E-19
 -1      3242 9.57075E-05-2.86226E-05-2.87556E-05-2.63831E-06-9.75133E-20 5.98660E-19
 -1      3243 9.50307E-05-2.81471E-05-2.86658E-05 3.15783E-07-1.25127E-18-8.70498E-19
 -1      3244 9.50789E-05-2.81940E-05-2.86638E-05 3.36701E-07-4.87239E-19-1.60770E-18
 -1      3245 9.49710E-05-2.80693E-05-2.86713E-05 3.41339E-07-1.74098E-18-7.62628E-19
 -1      3246 8.28629E-05-3.87252E-05-1.85373E-05 4.08815E-05-4.49033E-19 2.11250E-18
 -1      3247 7.02558E-05-2.96479E-05-1.71953E-05 3.71364E-05 2.16840E-19 1.08140E-18
 -1      3248 7.36673E-05-1.56478E-05-2.47462E-05-1.59280E-05 3.00784E-19 1.45451E-19
 -1      3249 7.56671E-05-1.55006E-05-2.58771E-05-1.39622E-05 9.05200E-19 5.90164E-19
 -1      3250 7.31760E-05-1.35929E-05-2.53508E-05-9.73396E-06 6.27525E-19-3.21596E-19
 -1      3251 9.22789E-05-1.81220E-05-3.17968E-05 1.74077E-06 6.09463E-19 4.08348E-19
 -1      3252 9.21527E-05-1.79119E-05-3.18299E-05 1.01191E-06 6.33185E-19 4.47018E-19
 -1      3253 9.53195E-05-2.44997E-05-3.03766E-05 4.69264E-06-8.88657E-20 1.06066E-18
 -1      3254 9.47578E-05-2.28994E-05-3.07845E-05 4.79080E-06 4.05724E-20 8.80281E-19
 -1      3255 1.20624E-04-1.18653E-05-4.69961E-05 7.45375E-06-2.16142E-18 1.89762E-19
 -1      3256 1.26068E-04-7.67783E-06-5.12855E-05 4.42654E-06-2.42802E-18-7.19978E-20
 -1      3257 1.29606E-04-5.60387E-05-3.18902E-05 1.28245E-05-7.64408E-19 2.42741E-18
 -1      3258 1.22888E-04-5.60826E-05-2.84521E-05 2.22240E-05-5.41228E-19 2.75577E-18
 -1      3259 1.19493E-04-6.92028E-06-4.87892E-05 9.98638E-07-2.05257E-18 6.08060E-19
 -1      3260 9.97732E-05-4.71586E-05-2.21523E-05-3.62091E-05-1.08950E-19 1.33863E-18
 -1      3261 1.12592E-04-5.38571E-05-2.54853E-05-3.10961E-05-2.62898E-19 9.31194E-19
 -1      3262 9.51338E-05-2.82566E-05-2.86636E-05 3.59323E-07-5.07485E-19-2.80987E-18
 -1      3263 9.52090E-05-2.83322E-05-2.86607E-05 3.60853E-07 2.25763E-20-1.47457E-18
 -1      3264 9.52230E-05-2.83186E-05-2.86713E-05 4.22549E-07-1.49302E-19-1.95508E-18
 -1      3265 9.50908E-05-2.81898E-05-2.86710E-05 4.03633E-07 1.83633E-19-1.60123E-18
 -1      3266 9.48606E-05-2.79567E-05-2.86741E-05-1.06146E-08 1.83897E-18 9.66517E-19
 -1      3267 9.48653E-05-2.79628E-05-2.86728E-05 5.18627E-08 1.37723E-18 3.23089E-19
 -1      3268 9.48150E-05-2.79020E-05-2.86756E-05 1.06178E-07-3.17764E-19 2.07706E-18
 -1      3269 9.48003E-05-2.78786E-05-2.86793E-05-5.01644E-08 1.45355E-18 9.62006E-19
 -1      3270 9.51856E-05-2.82627E-05-2.86805E-05-3.89568E-07 2.10676E-19 1.31760E-18
 -1      3271 5.49101E-05-1.20014E-05-1.80611E-05 1.49913E-05-1.68906E-18 1.10506E-18
 -1      3272 1.17320E-04-1.50064E-05-4.40996E-05 1.02926E-05-1.38490E-18 3.89370E-19
 -1      3273 1.14172E-04-1.09922E-05-4.45935E-05 5.53573E-06-1.35568E-18 1.29326E-18
 -1      3274 1.15682E-04-8.90048E-06-4.61092E-05-9.75159E-07-1.53080E-18 2.93794E-18
 -1      3275 1.18013E-04-8.59328E-06-4.73723E-05-2.76408E-06-1.32052E-18 2.08599E-18
 -1      3276 1.15909E-04-1.06961E-05-4.54277E-05-6.22561E-06-8.69056E-19 2.50664E-18
 -1      3277 1.17552E-04-5.32139E-05-2.74264E-05-2.30990E-05-3.37701E-19 2.79441E-19
 -1      3278 6.51304E-05-1.24659E-05-2.22697E-05-1.36298E-05 1.17593E-18-2.77800E-19
 -1      3279 6.17235E-05-2.01023E-05-1.75501E-05-2.55272E-05 3.12132E-19-1.97115E-18
 -1      3280 5.43302E-05-1.36992E-05-1.67843E-05-1.88971E-05 1.26782E-18-1.16372E-18
 -1      3281 1.12346E-04-1.06140E-05-4.39331E-05 2.51584E-06-1.01475E-18 1.75046E-18
 -1      3282 1.10303E-04-1.10696E-05-4.27366E-05-1.15279E-06-4.15205E-19 2.67698E-18
 -1      3283 1.09630E-04-1.36232E-05-4.12972E-05 4.72739E-06-6.42819E-19 1.76347E-18
 -1      3284 1.30048E-04-3.96004E-05-3.89527E-05-9.28450E-06 3.98105E-19-1.73112E-20
 -1      3285 1.26189E-04-4.21297E-05-3.60594E-05-7.04627E-06-1.83740E-19-1.48450E-18
 -1      3286 1.25966E-04-3.42103E-05-3.97576E-05-1.14933E-05 5.40778E-19-1.04910E-18
 -1      3287 9.33933E-05-2.00627E-05-3.14509E-05 4.09984E-06 3.13419E-19 2.73917E-19
 -1      3288 9.30221E-05-1.93890E-05-3.15671E-05 3.51332E-06 4.66163E-19 3.28349E-19
 -1      3289 9.42879E-05-2.18231E-05-3.10407E-05 3.43958E-06 1.89081E-19 2.39516E-19
 -1      3290 6.29020E-05-2.23762E-05-1.68035E-05 3.21906E-05 1.03656E-19 1.02390E-18
 -1      3291 5.72800E-05-1.67096E-05-1.73497E-05 2.44784E-05 5.86120E-19 1.32254E-18
 -1      3292 7.38932E-05-2.81549E-05-1.93370E-05 3.26636E-05-2.12023E-19 1.26684E-18
 -1      3293 9.49205E-05-2.34580E-05-3.06173E-05 3.16056E-06 2.31222E-19 4.87673E-19
 -1      3294 9.50040E-05-2.36633E-05-3.05556E-05 3.62711E-06 9.28819E-20 6.50484E-19
 -1      3295 9.49994E-05-4.24152E-05-2.22615E-05-3.40818E-05-3.10279E-19 1.24215E-18
 -1      3296 9.51259E-05-2.82024E-05-2.86828E-05-3.85407E-07 9.32933E-19 8.86914E-19
 -1      3297 9.57103E-05-2.82024E-05-2.89360E-05-1.82246E-06 3.13121E-19-2.98079E-19
 -1      3298 9.55430E-05-2.82136E-05-2.88548E-05-1.77888E-06 2.50900E-19-7.43118E-22
 -1      3299 9.55394E-05-2.80877E-05-2.89020E-05-1.56793E-06 2.85443E-19 6.53845E-20
 -1      3300 9.52238E-05-2.83054E-05-2.86793E-05 4.80813E-07-1.23875E-19-1.65377E-18
 -1      3301 9.52436E-05-2.82923E-05-2.86919E-05 5.53857E-07 1.20664E-19-1.62575E-18
 -1      3302 9.51564E-05-2.82024E-05-2.86956E-05 6.16345E-07 1.82140E-20-1.28880E-18
 -1      3303 9.51516E-05-2.82380E-05-2.86791E-05 4.82538E-07 3.02830E-19-5.04467E-19
 -1      3304 1.17528E-04-5.46097E-05-2.69543E-05 2.64143E-05-7.58889E-19 2.84027E-18
 -1      3305 1.10189E-04-5.08282E-05-2.53245E-05 2.91113E-05-1.12309E-18 3.36301E-18
 -1      3306 1.19961E-04-5.33043E-05-2.84749E-05 1.91878E-05-1.47304E-18 1.05726E-18
 -1      3307 9.50667E-05-2.81115E-05-2.86937E-05-4.32276E-07 1.26691E-18 2.47287E-18
 -1      3308 1.28051E-04-5.16217E-05-3.27904E-05 5.46630E-06-1.06604E-18 5.34319E-19
 -1      3309 6.48678E-05-2.39053E-05-1.71406E-05-3.28309E-05-3.35081E-19 1.55393E-18
 -1      3310 7.48884E-05-2.84477E-05-1.96331E-05-3.20998E-05-3.26319E-19 1.78515E-18
 -1      3311 5.93683E-05-1.83228E-05-1.74035E-05-2.62131E-05-6.25746E-20 2.34686E-18
 -1      3312 9.42815E-05-2.17673E-05-3.10959E-05-5.28285E-06 3.73613E-19-2.21858E-20
 -1      3313 1.17257E-04-2.12201E-05-4.14110E-05 1.10681E-05-1.50094E-18 8.83019E-19
 -1      3314 9.42060E-05-2.16329E-05-3.11125E-05-4.59634E-06 4.27393E-19 1.87424E-19
 -1      3315 1.26866E-04-3.76320E-05-3.83901E-05 9.76269E-06-1.45549E-18-2.42437E-19
 -1      3316 9.55682E-05-2.79337E-05-2.89877E-05-1.30939E-06 2.43059E-19 1.22228E-19
 -1      3317 9.55872E-05-2.77304E-05-2.90723E-05-9.89439E-07 2.78983E-19 2.46909E-19
 -1      3318 9.57911E-05-2.74106E-05-2.93100E-05-6.81328E-07 4.05778E-19 1.71936E-19
 -1      3319 9.57673E-05-2.79119E-05-2.90851E-05-1.35552E-06 3.01626E-19-1.30173E-19
 -1      3320 1.30597E-04-5.25360E-05-3.35758E-05-4.06823E-06-3.16671E-19-1.59560E-19
 -1      3321 1.27097E-04-4.77431E-05-3.40524E-05 1.54466E-06-2.46473E-19-1.95453E-19
 -1      3322 1.25724E-04-5.23649E-05-3.12653E-05-8.46917E-06-5.36781E-19-3.02966E-19
 -1      3323 9.37030E-05-4.29961E-05-2.14722E-05 3.63895E-05 1.97676E-19 3.12460E-18
 -1      3324 4.88701E-05-9.96440E-06-1.64734E-05-9.02595E-06 1.60706E-18-5.99699E-19
 -1      3325 1.24341E-04-1.94472E-05-4.54051E-05-1.18004E-05 3.44001E-19 1.61730E-19
 -1      3326 1.23116E-04-2.43242E-05-4.24870E-05-1.26858E-05 4.97314E-19 2.29228E-19
 -1      3327 1.17846E-04-1.61481E-05-4.39560E-05-1.04788E-05 2.81586E-19 8.40627E-19
 -1      3328 4.75262E-05-8.59966E-06-1.65482E-05-2.27664E-06-1.13318E-18 3.30094E-18
 -1      3329 4.46093E-05-9.24073E-06-1.45355E-05-1.00401E-05-1.26150E-18 3.66871E-18
 -1      3330 5.07576E-05-1.15072E-05-1.65935E-05-1.53091E-05-8.24256E-19 3.70799E-18
 -1      3331 4.78741E-05-8.02222E-06-1.64433E-05 3.39701E-07 1.59881E-18 1.33408E-20
 -1      3332 5.74214E-05-1.04398E-05-1.99444E-05-7.86113E-06 1.65402E-18-2.00800E-19
 -1      3333 6.17511E-05-1.05467E-05-2.19937E-05-5.50250E-06 1.28809E-18 1.49290E-19
 -1      3334 5.17740E-05-9.98831E-06-1.77801E-05 9.15948E-06 1.33564E-18 5.09861E-19
 -1      3335 9.20895E-05-1.78052E-05-3.18492E-05 3.95190E-07 6.54177E-19 5.76243E-19
 -1      3336 9.20864E-05-1.77996E-05-3.18503E-05-3.47416E-07 7.13934E-19 3.63929E-19
 -1      3337 9.30136E-05-1.93499E-05-3.15526E-05 5.94340E-07 5.51566E-19 5.16414E-19
 -1      3338 9.27171E-05-1.88628E-05-3.16701E-05 3.00848E-06 5.92852E-19 4.48480E-19
 -1      3339 9.24671E-05-1.84354E-05-3.17394E-05 2.32390E-06 6.14489E-19 4.08121E-19
 -1      3340 9.32455E-05-1.97639E-05-3.14740E-05 1.70112E-06 5.11934E-19 4.12009E-19
 -1      3341 9.36822E-05-2.05861E-05-3.13104E-05 2.68856E-06 4.76319E-19 2.77157E-19
 -1      3342 9.29989E-05-1.93333E-05-3.15809E-05-3.46927E-06 6.60668E-19 2.59454E-19
 -1      3343 9.33833E-05-2.00136E-05-3.14669E-05-4.07274E-06 5.72859E-19 2.61330E-19
 -1      3344 9.26947E-05-1.88141E-05-3.16812E-05-2.96428E-06 6.90205E-19 1.99739E-19
 -1      3345 9.36611E-05-2.05358E-05-3.13243E-05-2.65123E-06 6.07740E-19 2.44515E-19
 -1      3346 9.24499E-05-1.83969E-05-3.17481E-05-2.27184E-06 7.18997E-19 3.16681E-19
 -1      3347 1.17170E-04-2.60650E-05-3.90934E-05 1.26795E-05-1.70974E-18 4.24443E-19
 -1      3348 1.11521E-04-1.91662E-05-3.97537E-05 1.00733E-05-8.95473E-19 1.53969E-18
 -1      3349 1.11724E-04-4.96699E-05-2.62704E-05-2.45910E-05 2.26284E-19 3.01454E-19
 -1      3350 1.19761E-04-5.30627E-05-2.89156E-05-1.71711E-05-7.17794E-20-2.12129E-19
 -1      3351 9.49134E-05-2.32950E-05-3.06956E-05-2.71272E-06 5.36127E-19 2.57574E-19
 -1      3352 9.52615E-05-2.43912E-05-3.03839E-05-1.78295E-06 3.78102E-19 3.78242E-19
 -1      3353 7.62070E-05-1.49057E-05-2.63254E-05-4.93695E-06 3.45411E-19-4.35630E-19
 -1      3354 7.91307E-05-1.62566E-05-2.70070E-05-4.60971E-06 4.37145E-19-3.80777E-19
 -1      3355 9.56074E-05-2.52958E-05-3.01258E-05-1.14164E-06 2.29187E-19 3.95338E-19
 -1      3356 9.57378E-05-2.59764E-05-2.99073E-05-4.71928E-07 2.04414E-19 4.15553E-19
 -1      3357 9.53146E-05-2.43246E-05-3.04197E-05-1.45297E-06 2.86813E-19 4.47453E-19
 -1      3358 9.58880E-05-2.65463E-05-2.97101E-05 1.17366E-08 2.31982E-19 4.43328E-19
 -1      3359 9.59039E-05-2.69609E-05-2.95536E-05 4.94592E-07 3.34998E-19 5.58831E-19
 -1      3360 9.58114E-05-2.59022E-05-2.99591E-05-3.15267E-07 2.58971E-19 4.89035E-19
 -1      3361 9.59151E-05-2.72829E-05-2.94082E-05 8.48172E-07 1.77728E-19 5.06325E-19
 -1      3362 9.58634E-05-2.75019E-05-2.93014E-05 1.19548E-06 5.20269E-20 5.10859E-19
 -1      3363 9.59718E-05-2.68798E-05-2.96099E-05 5.37727E-07 2.32097E-19 2.70141E-19
 -1      3364 9.57722E-05-2.76372E-05-2.91979E-05 1.45167E-06 1.03526E-19 5.23820E-19
 -1      3365 9.56710E-05-2.77046E-05-2.91300E-05 1.71209E-06-1.16054E-20 5.02983E-19
 -1      3366 9.58971E-05-2.74042E-05-2.93534E-05 1.16077E-06 6.91328E-20 4.98882E-19
 -1      3367 9.54954E-05-2.76910E-05-2.90591E-05 1.90593E-06-1.40742E-19 6.99728E-19
 -1      3368 9.53460E-05-2.76328E-05-2.90204E-05 2.12043E-06-8.73588E-20 7.44135E-19
 -1      3369 9.56382E-05-2.75690E-05-2.91710E-05 1.61934E-06 2.24654E-20 5.80332E-19
 -1      3370 9.50871E-05-2.74907E-05-2.89729E-05 2.27999E-06-2.63991E-19 7.03735E-19
 -1      3371 9.48783E-05-2.73183E-05-2.89547E-05 2.48093E-06-3.20668E-19 5.21001E-19
 -1      3372 9.52145E-05-2.74370E-05-2.90442E-05 1.97313E-06-6.81836E-20 4.14325E-19
 -1      3373 9.45029E-05-2.70378E-05-2.89195E-05 2.63241E-06-2.68444E-19 5.70483E-19
 -1      3374 9.41886E-05-2.67302E-05-2.89123E-05 2.85301E-06-2.85009E-19 7.51853E-19
 -1      3375 9.45957E-05-2.70263E-05-2.89522E-05 2.27251E-06-3.53054E-19 6.83685E-19
 -1      3376 9.36969E-05-2.63289E-05-2.88812E-05 2.99052E-06-4.47118E-19 8.58381E-19
 -1      3377 9.32669E-05-2.59040E-05-2.88742E-05 3.22261E-06-3.20938E-19 8.96495E-19
 -1      3378 9.37477E-05-2.63456E-05-2.88759E-05 2.53118E-06-2.27471E-19 7.73198E-19
 -1      3379 9.26005E-05-2.53577E-05-2.88311E-05 3.35035E-06-1.39137E-19 6.80345E-19
 -1      3380 9.19799E-05-2.47820E-05-2.88082E-05 3.60496E-06-1.25422E-19 4.41215E-19
 -1      3381 9.26205E-05-2.54030E-05-2.87908E-05 2.74162E-06-3.28882E-19 7.45478E-19
 -1      3382 9.10689E-05-2.40665E-05-2.87324E-05 3.70384E-06-1.72806E-19 5.31173E-19
 -1      3383 9.01718E-05-2.33134E-05-2.86699E-05 3.96851E-06-2.27428E-19 2.95540E-19
 -1      3384 9.10853E-05-2.41545E-05-2.86593E-05 2.87624E-06-2.37059E-19 6.11972E-19
 -1      3385 8.89228E-05-2.24051E-05-2.85307E-05 4.00303E-06-1.27295E-19 3.61020E-19
 -1      3386 8.76332E-05-2.14512E-05-2.83908E-05 4.25153E-06 9.76536E-20 6.51097E-19
 -1      3387 8.89866E-05-2.25628E-05-2.84301E-05 2.86354E-06-1.20711E-19 9.39401E-19
 -1      3388 8.59205E-05-2.03356E-05-2.81399E-05 4.16930E-06-7.26620E-20 6.53129E-19
 -1      3389 8.40871E-05-1.91745E-05-2.78617E-05 4.36748E-06-2.64154E-19 7.71191E-19
 -1      3390 8.61152E-05-2.05981E-05-2.80247E-05 2.58973E-06 1.50311E-19 9.96896E-19
 -1      3391 8.17382E-05-1.78617E-05-2.74222E-05 4.10527E-06-6.59750E-19 9.51609E-19
 -1      3392 7.91645E-05-1.65246E-05-2.69053E-05 4.23251E-06-8.68330E-19 1.00537E-18
 -1      3393 8.21904E-05-1.82590E-05-2.73202E-05 1.89974E-06-3.59246E-19 1.07660E-18
 -1      3394 7.59242E-05-1.50721E-05-2.61484E-05 3.73700E-06-1.00875E-18 8.81915E-19
 -1      3395 7.23576E-05-1.36546E-05-2.52259E-05 3.83779E-06-8.72838E-19 1.00622E-18
 -1      3396 7.68186E-05-1.55933E-05-2.61162E-05 6.13295E-07-9.06703E-19 1.62962E-18
 -1      3397 6.75309E-05-1.20972E-05-2.38439E-05 3.10275E-06-8.87651E-19 1.17016E-18
 -1      3398 6.22575E-05-1.08232E-05-2.20765E-05 3.39427E-06-1.40036E-18 1.49107E-18
 -1      3399 6.91406E-05-1.26414E-05-2.39957E-05-1.49977E-06-7.29975E-19 1.56359E-18
 -1      3400 9.50666E-05-2.37316E-05-3.05538E-05 2.44593E-06 3.61303E-19 3.23800E-19
 -1      3401 9.47032E-05-2.28575E-05-3.08040E-05 2.98138E-06 1.87365E-19 1.61439E-19
 -1      3402 9.43935E-05-2.21426E-05-3.09667E-05 2.73262E-06 3.52058E-19-8.50859E-22
 -1      3403 8.96264E-05-3.73866E-05-2.21825E-05-3.19682E-05-3.22521E-19 1.03113E-18
 -1      3404 1.01049E-04-4.48837E-05-2.42391E-05-3.00916E-05-5.68571E-20 7.38030E-19
 -1      3405 8.19194E-05-1.76495E-05-2.75902E-05-4.79357E-06 9.45990E-19-4.17247E-19
 -1      3406 8.40201E-05-1.88772E-05-2.79603E-05-4.44948E-06 7.49078E-19-5.29547E-19
 -1      3407 7.93996E-05-1.64661E-05-2.68702E-05-1.91808E-06 5.82595E-19 9.78022E-19
 -1      3408 8.60256E-05-2.00848E-05-2.82914E-05-4.46495E-06 9.72458E-19-6.07496E-19
 -1      3409 8.75002E-05-2.11169E-05-2.84796E-05-4.09017E-06 9.92497E-19-6.65436E-19
 -1      3410 8.40230E-05-1.89951E-05-2.78012E-05-2.54642E-06 8.33704E-19-6.54641E-19
 -1      3411 8.89372E-05-2.21098E-05-2.86597E-05-3.98370E-06-4.21153E-19-4.34642E-21
 -1      3412 8.99520E-05-2.29346E-05-2.87434E-05-3.59940E-06-6.57569E-19 1.11758E-20
 -1      3413 8.73564E-05-2.11438E-05-2.83300E-05-2.73715E-06 1.29598E-19-3.76184E-19
 -1      3414 9.09733E-05-2.37205E-05-2.88339E-05-3.42198E-06-1.01320E-18-5.13555E-19
 -1      3415 9.16590E-05-2.43577E-05-2.88595E-05-3.05494E-06-1.41978E-18-9.95194E-19
 -1      3416 8.97421E-05-2.28953E-05-2.86163E-05-2.63724E-06-9.94958E-19 6.45370E-20
 -1      3417 9.23784E-05-2.49645E-05-2.88977E-05-2.84779E-06-5.30682E-19-3.48366E-19
 -1      3418 9.28346E-05-2.54460E-05-2.88929E-05-2.51652E-06-6.26050E-19 5.39258E-19
 -1      3419 9.14337E-05-2.42803E-05-2.87578E-05-2.37206E-06-5.94492E-19-5.47680E-19
 -1      3420 9.33573E-05-2.59256E-05-2.89019E-05-2.29682E-06-1.29837E-18 7.05882E-19
 -1      3421 9.36679E-05-2.62989E-05-2.88814E-05-1.99890E-06-9.08569E-19 9.96367E-19
 -1      3422 9.26472E-05-2.53768E-05-2.88154E-05-2.02361E-06-1.12045E-18 7.98676E-19
 -1      3423 9.40108E-05-2.66384E-05-2.88745E-05-1.80764E-06-3.26230E-19 1.42590E-18
 -1      3424 9.42002E-05-2.68996E-05-2.88498E-05-1.57028E-06-2.66007E-19 1.14085E-18
 -1      3425 9.34875E-05-2.62069E-05-2.88246E-05-1.66386E-06-4.42546E-19 1.77174E-18
 -1      3426 9.44363E-05-2.71515E-05-2.88358E-05-1.40281E-06-6.58255E-19 1.45392E-18
 -1      3427 9.45577E-05-2.73442E-05-2.88107E-05-1.20928E-06 1.96754E-19 2.28312E-18
 -1      3428 9.40527E-05-2.68167E-05-2.88090E-05-1.33440E-06-1.29604E-20 1.63471E-18
 -1      3429 9.47196E-05-2.75303E-05-2.87944E-05-1.06831E-06 1.35613E-19 2.10504E-18
 -1      3430 9.47963E-05-2.76719E-05-2.87713E-05-9.13550E-07 7.18767E-20 2.97264E-18
 -1      3431 9.44422E-05-2.72736E-05-2.87823E-05-1.04388E-06 2.47238E-19 1.56351E-18
 -1      3432 9.49065E-05-2.78081E-05-2.87550E-05-7.98049E-07-4.37251E-19 2.82783E-18
 -1      3433 9.49537E-05-2.79117E-05-2.87349E-05-6.76508E-07 7.33902E-19 2.38156E-18
 -1      3434 9.47086E-05-2.76147E-05-2.87522E-05-7.98680E-07-2.67050E-19-1.86557E-19
 -1      3435 9.50020E-05-2.79803E-05-2.87216E-05-5.93043E-07 1.35097E-18 2.56639E-18
 -1      3436 9.50322E-05-2.80571E-05-2.87048E-05-4.99057E-07 1.07392E-18 2.45054E-18
 -1      3437 9.49449E-05-2.79796E-05-2.87008E-05-4.50954E-07 1.34875E-18 1.45593E-18
 -1      3438 9.48583E-05-2.78355E-05-2.87241E-05-6.02166E-07 3.26677E-19 6.72499E-19
 -1      3439 9.48674E-05-2.79113E-05-2.86963E-05-3.82187E-07 1.67707E-18-2.73775E-19
 -1      3440 9.48098E-05-2.78600E-05-2.86937E-05-3.23267E-07 1.10970E-18-1.17145E-18
 -1      3441 9.48279E-05-2.78407E-05-2.87066E-05-4.49830E-07 1.56746E-18-8.75860E-20
 -1      3442 9.57393E-05-2.83349E-05-2.88854E-05-2.15342E-06-1.08069E-19 3.07078E-19
 -1      3443 9.57599E-05-2.82622E-05-2.89255E-05-1.99710E-06-5.50211E-20 2.24112E-19
 -1      3444 9.61916E-05-2.92225E-05-2.86964E-05-3.13530E-06 1.61734E-19 5.29602E-19
 -1      3445 9.59572E-05-2.89722E-05-2.87034E-05-3.07654E-06 3.73102E-21 4.84242E-19
 -1      3446 9.58382E-05-2.87981E-05-2.87269E-05-2.93104E-06 1.09436E-19 4.03864E-19
 -1      3447 9.57087E-05-2.86515E-05-2.87366E-05-2.83868E-06 1.57736E-19 3.84351E-19
 -1      3448 9.57192E-05-2.87828E-05-2.86956E-05-3.11907E-06 5.71235E-20 1.41321E-19
 -1      3449 9.78583E-05-3.09688E-05-2.86658E-05-3.19691E-06 3.27600E-19 6.97367E-19
 -1      3450 9.73117E-05-3.04054E-05-2.86604E-05-3.31616E-06 3.06550E-19 5.61181E-19
 -1      3451 9.93341E-05-3.23830E-05-2.86971E-05-2.82952E-06 4.93240E-19 3.65223E-19
 -1      3452 9.86003E-05-3.16525E-05-2.86711E-05-3.13009E-06 2.65973E-19 3.87159E-19
 -1      3453 9.80254E-05-3.13775E-05-2.85870E-05-3.77411E-06 4.14983E-19-2.14603E-19
 -1      3454 1.01274E-04-3.40847E-05-2.88068E-05-1.97058E-06 4.22834E-20 9.01365E-19
 -1      3455 1.00379E-04-3.32519E-05-2.87403E-05-2.53274E-06 4.40728E-19 8.16125E-19
 -1      3456 9.97980E-05-3.30686E-05-2.86275E-05-3.53200E-06 1.25094E-19 3.86621E-19
 -1      3457 1.03555E-04-3.58105E-05-2.90548E-05-4.23621E-07-4.46570E-19 1.35626E-18
 -1      3458 1.02600E-04-3.50416E-05-2.89196E-05-1.31680E-06-2.54375E-19 1.22647E-18
 -1      3459 1.02169E-04-3.50917E-05-2.87787E-05-2.72389E-06-3.26167E-19 1.05130E-18
 -1      3460 1.05843E-04-3.70360E-05-2.95176E-05 1.93719E-06-6.79140E-20 7.95317E-19
 -1      3461 1.05028E-04-3.66317E-05-2.92801E-05 7.05496E-07-1.45451E-19 1.14606E-18
 -1      3462 1.04997E-04-3.71089E-05-2.91205E-05-1.07739E-06-2.66809E-19 6.84233E-19
 -1      3463 1.07534E-04-3.69642E-05-3.02723E-05 4.96949E-06-2.10104E-20 6.95919E-19
 -1      3464 1.07149E-04-3.73322E-05-2.99043E-05 3.55367E-06 4.60661E-20 8.59581E-19
 -1      3465 1.07844E-04-3.84325E-05-2.97535E-05 1.60307E-06 3.84308E-21 4.91139E-19
 -1      3466 1.07870E-04-3.47583E-05-3.13454E-05 8.01574E-06-7.31292E-19 4.19662E-19
 -1      3467 1.08198E-04-3.62508E-05-3.08520E-05 6.82692E-06-3.06044E-19 6.09116E-19
 -1      3468 1.09931E-04-3.80851E-05-3.07765E-05 5.17831E-06-1.87799E-19 3.41318E-19
 -1      3469 1.06395E-04-3.01187E-05-3.26576E-05 9.76076E-06-4.14762E-19 4.49283E-19
 -1      3470 1.07458E-04-3.27225E-05-3.20905E-05 9.43677E-06-6.18013E-19 7.02712E-19
 -1      3471 1.10243E-04-3.49804E-05-3.22152E-05 8.76247E-06-9.05551E-19 3.76235E-19
 -1      3472 1.01042E-04-1.97644E-05-3.48189E-05 4.07154E-06-3.57461E-19 5.75312E-19
 -1      3473 1.01935E-04-2.15565E-05-3.45366E-05 6.47759E-06-7.21182E-19 1.72603E-19
 -1      3474 1.00643E-04-1.91959E-05-3.49440E-05-2.40856E-06-7.11920E-19 1.55422E-18
 -1      3475 1.00497E-04-1.88640E-05-3.49949E-05 4.82518E-07-1.92343E-19 1.06649E-18
 -1      3476 1.02656E-04-1.81900E-05-3.62268E-05 2.57643E-06-8.33987E-19 1.28490E-18
 -1      3477 1.02729E-04-2.29685E-05-3.42695E-05-7.81329E-06-1.33658E-18 1.81234E-18
 -1      3478 1.01629E-04-2.07211E-05-3.46313E-05-5.71100E-06-9.65280E-19 1.53370E-18
 -1      3479 1.03085E-04-1.89223E-05-3.60945E-05-4.57585E-06-1.00544E-18 2.20966E-18
 -1      3480 1.05775E-04-2.88313E-05-3.30635E-05-9.99415E-06-1.47082E-18 2.61866E-18
 -1      3481 1.04438E-04-2.59184E-05-3.36008E-05-9.35795E-06-1.55655E-18 2.22429E-18
 -1      3482 1.05957E-04-2.41885E-05-3.50218E-05-9.49589E-06-1.46354E-18 2.39507E-18
 -1      3483 1.07837E-04-3.39296E-05-3.17256E-05-8.89849E-06-1.07594E-18 2.62883E-18
 -1      3484 1.06986E-04-3.16253E-05-3.22770E-05-9.55638E-06-1.35568E-18 2.82760E-18
 -1      3485 1.09041E-04-3.10302E-05-3.33858E-05-1.02426E-05-1.53766E-18 2.84065E-18
 -1      3486 1.08008E-04-3.66943E-05-3.05707E-05-6.00305E-06-6.28800E-19 2.73762E-18
 -1      3487 1.07916E-04-3.55510E-05-3.10275E-05-7.31224E-06-6.82110E-19 2.70478E-18
 -1      3488 1.10313E-04-3.60894E-05-3.17697E-05-7.84341E-06-1.00495E-18 2.85864E-18
 -1      3489 1.06552E-04-3.71367E-05-2.97274E-05-2.82543E-06-1.24976E-18 3.37499E-18
 -1      3490 1.07096E-04-3.70464E-05-3.00520E-05-4.19577E-06-7.13827E-19 3.03427E-18
 -1      3491 1.09390E-04-3.82775E-05-3.04666E-05-4.20575E-06-7.52898E-19 2.78491E-18
 -1      3492 1.04254E-04-3.60583E-05-2.91926E-05-2.50968E-07-2.11320E-19 2.98356E-18
 -1      3493 1.05142E-04-3.66223E-05-2.93940E-05-1.36174E-06-8.84428E-19 3.38491E-18
 -1      3494 1.06972E-04-3.80096E-05-2.95700E-05-8.96674E-07-8.57154E-19 2.52323E-18
 -1      3495 1.01820E-04-3.43147E-05-2.88977E-05 1.46239E-06-5.29959E-19 3.46776E-18
 -1      3496 1.02783E-04-3.51456E-05-2.90064E-05 7.03828E-07 1.03499E-19 3.56618E-18
 -1      3497 1.04032E-04-3.63505E-05-2.90343E-05 1.42853E-06-7.61698E-19 3.01888E-18
 -1      3498 9.96769E-05-3.25044E-05-2.87615E-05 2.40196E-06 3.85512E-20 2.01950E-18
 -1      3499 1.00543E-04-3.33413E-05-2.88106E-05 1.96464E-06-5.08513E-19 2.63584E-18
 -1      3500 1.01264E-04-3.42295E-05-2.87598E-05 2.74539E-06-1.12215E-19 3.09896E-18
 -1      3501 9.79957E-05-3.09462E-05-2.87165E-05 2.77130E-06 2.05989E-18 9.78140E-19
 -1      3502 9.86907E-05-3.16551E-05-2.87325E-05 2.57856E-06 1.08568E-18 1.87195E-18
 -1      3503 9.90070E-05-3.22225E-05-2.86489E-05 3.28788E-06 6.30682E-19 1.01896E-18
 -1      3504 9.67856E-05-2.97547E-05-2.87152E-05 2.77126E-06 2.09035E-18 1.11107E-18
 -1      3505 9.72985E-05-3.02910E-05-2.87165E-05 2.74431E-06 2.41267E-18 1.30907E-18
 -1      3506 9.73404E-05-3.05927E-05-2.86271E-05 3.32720E-06 1.84468E-18 1.50727E-18
 -1      3507 9.59777E-05-2.89269E-05-2.87289E-05 2.55854E-06 1.45656E-18 6.90166E-19
 -1      3508 9.63309E-05-2.92963E-05-2.87262E-05 2.63283E-06 1.88600E-18 1.01799E-18
 -1      3509 9.62073E-05-2.94031E-05-2.86453E-05 3.08162E-06 2.24602E-18 1.98540E-18
 -1      3510 9.54785E-05-2.84054E-05-2.87421E-05 2.24195E-06 1.04901E-18-4.04248E-19
 -1      3511 9.57065E-05-2.86361E-05-2.87409E-05 2.37024E-06 1.31679E-18 4.14932E-19
 -1      3512 9.54978E-05-2.86135E-05-2.86746E-05 2.70091E-06 1.37977E-18 6.87285E-19
 -1      3513 9.51983E-05-2.81164E-05-2.87483E-05 1.89134E-06 1.01976E-19-9.69604E-19
 -1      3514 9.53357E-05-2.82428E-05-2.87506E-05 2.04158E-06 3.67121E-19-5.31415E-19
 -1      3515 9.50965E-05-2.81434E-05-2.87003E-05 2.27826E-06 6.90613E-19-4.51427E-19
 -1      3516 9.50632E-05-2.79899E-05-2.87460E-05 1.54841E-06 1.25269E-19-9.77066E-19
 -1      3517 9.51391E-05-2.80442E-05-2.87518E-05 1.70029E-06-1.14127E-20-8.74325E-19
 -1      3518 9.49034E-05-2.79065E-05-2.87164E-05 1.86687E-06 1.92311E-19-2.69736E-19
 -1      3519 9.50173E-05-2.79682E-05-2.87364E-05 1.23567E-06-1.20531E-19-9.33951E-20
 -1      3520 9.50542E-05-2.79763E-05-2.87449E-05 1.37737E-06-1.33999E-19-1.01629E-18
 -1      3521 9.48410E-05-2.78268E-05-2.87221E-05 1.49396E-06-8.94188E-20-4.18875E-19
 -1      3522 9.50216E-05-2.80075E-05-2.87217E-05 9.63237E-07-6.02753E-19-6.37468E-19
 -1      3523 9.50352E-05-2.79888E-05-2.87318E-05 1.08882E-06 2.66033E-19-1.48058E-19
 -1      3524 9.48536E-05-2.78444E-05-2.87190E-05 1.17090E-06-2.52112E-19-1.07893E-18
 -1      3525 9.50509E-05-2.80762E-05-2.87043E-05 7.35047E-07-7.59632E-19-1.26484E-18
 -1      3526 9.50517E-05-2.80457E-05-2.87150E-05 8.41289E-07-7.49105E-19-5.93413E-19
 -1      3527 9.49033E-05-2.79159E-05-2.87095E-05 8.99746E-07-5.64248E-19-8.85221E-19
 -1      3528 9.47873E-05-2.78786E-05-2.86769E-05 2.56089E-07-1.65258E-18 1.43035E-18
 -1      3529 9.48338E-05-2.79209E-05-2.86761E-05 3.17746E-07-1.75703E-18 3.76609E-19
 -1      3530 9.47623E-05-2.78233E-05-2.86894E-05-2.33015E-07 2.97151E-19-1.10318E-18
 -1      3531 9.47323E-05-2.77976E-05-2.86867E-05-1.57246E-07 7.29303E-19-1.98325E-19
 -1      3532 9.46986E-05-2.77364E-05-2.86966E-05-2.80870E-07 2.23026E-18 1.53179E-19
 -1      3533 9.68349E-05-2.99228E-05-2.86730E-05-3.25367E-06-2.82003E-20 8.98353E-19
 -1      3534 9.64607E-05-2.95297E-05-2.86764E-05-3.25940E-06 7.88512E-20 7.57338E-19
 -1      3535 9.60949E-05-2.92876E-05-2.86442E-05-3.43401E-06 1.77576E-20 7.65028E-19
 -1      3536 9.68246E-05-3.01252E-05-2.86030E-05-3.68625E-06 2.29170E-19 7.65997E-19
 -1      3537 9.21466E-05-1.78961E-05-3.18336E-05-9.60827E-07 7.10457E-19 2.49057E-19
 -1      3538 9.22669E-05-1.80948E-05-3.18029E-05-1.69130E-06 6.52587E-19 3.28709E-19
 -1      3539 9.32239E-05-1.97297E-05-3.14827E-05-1.65325E-06 6.36044E-19 2.36115E-19
 -1      3540 9.39309E-05-2.11395E-05-3.12065E-05-4.23110E-06 5.21609E-19 2.58318E-19
 -1      3541 1.01519E-04-4.61758E-05-2.36117E-05 3.27476E-05-5.14705E-19 3.62310E-18
 -1      3542 9.05058E-05-3.89375E-05-2.20166E-05 3.33519E-05-5.15075E-19 2.41688E-18
 -1      3543 1.07223E-04-4.72866E-05-2.55058E-05 2.66205E-05-1.17699E-18 2.94736E-18
 -1      3544 1.13493E-04-1.35038E-05-4.31251E-05-7.35761E-06-9.45448E-19 2.64413E-18
 -1      3545 1.15826E-04-1.46194E-05-4.37370E-05-9.00731E-06-3.77088E-19 1.58186E-18
 -1      3546 1.15428E-04-1.84215E-05-4.17210E-05-1.06853E-05 1.69565E-19 1.57355E-18
 -1      3547 7.54526E-05-2.80750E-05-1.96856E-05-3.07359E-05 2.28011E-19-1.57548E-18
 -1      3548 1.24382E-04-4.04761E-05-3.59933E-05 8.28543E-06-7.51477E-19-5.28787E-19
 -1      3549 1.20855E-04-3.28936E-05-3.79881E-05 1.17339E-05-1.59774E-18-5.91229E-19
 -1      3550 6.84411E-05-1.21789E-05-2.41195E-05-5.00338E-06 3.85327E-19 1.47000E-19
 -1      3551 7.23099E-05-1.34600E-05-2.53117E-05-4.64334E-06-1.85189E-20-2.98149E-20
 -1      3552 7.29383E-05-1.35987E-05-2.52663E-05-7.22527E-07-2.36286E-19 3.16813E-19
 -1      3553 1.25633E-04-4.84416E-05-3.32726E-05 1.97007E-07-1.34403E-18-4.91908E-19
 -1      3554 1.24102E-04-5.22043E-05-3.07618E-05 9.63035E-06-1.61894E-18 5.43239E-19
 -1      3555 9.48959E-05-2.79888E-05-2.86763E-05 3.80171E-07-1.57736E-18-1.42205E-18
 -1      3556 9.49562E-05-2.80460E-05-2.86760E-05 4.16436E-07-6.00756E-19-2.08165E-18
 -1      3557 9.48080E-05-2.78879E-05-2.86802E-05 4.00648E-07-8.11201E-19-4.75071E-19
 -1      3558 9.36996E-05-2.07285E-05-3.12842E-05 7.44774E-07 5.24265E-19 3.76201E-19
 -1      3559 9.36429E-05-2.06213E-05-3.13042E-05 2.23377E-07 6.39400E-19 3.86463E-19
 -1      3560 1.20888E-04-5.09451E-05-2.99755E-05-1.10325E-05-2.58914E-19 1.01247E-20
 -1      3561 5.81504E-05-9.97546E-06-2.02383E-05-5.31807E-06-9.42830E-19 2.57704E-18
 -1      3562 5.59534E-05-9.79330E-06-1.96610E-05 1.79783E-06-1.33216E-18 2.49377E-18
 -1      3563 9.37963E-05-2.09169E-05-3.12420E-05 1.14967E-06 3.95711E-19 3.95861E-19
 -1      3564 9.44174E-05-2.20285E-05-3.10053E-05 7.34136E-07 4.03726E-19 3.56057E-19
 -1      3565 9.39456E-05-2.12182E-05-3.11813E-05 1.62946E-06 4.19316E-19 4.48578E-19
 -1      3566 9.53289E-05-2.47081E-05-3.02777E-05 1.62513E-06 3.57841E-19 2.29673E-19
 -1      3567 1.21442E-04-2.96806E-05-3.94584E-05-1.21221E-05-3.89106E-19-9.71123E-19
 -1      3568 1.06112E-04-4.54709E-05-2.58705E-05-2.42360E-05 1.45028E-19-1.63699E-20
 -1      3569 8.26182E-05-3.27775E-05-2.11211E-05 3.27474E-05-3.88603E-19 2.18021E-18
 -1      3570 7.40282E-05-2.59459E-05-2.06409E-05 2.88468E-05-9.38089E-20 1.00712E-18
 -1      3571 9.05824E-05-3.62412E-05-2.30880E-05 2.93301E-05-7.51504E-19 2.27428E-18
 -1      3572 8.29132E-05-3.23209E-05-2.15313E-05-3.13314E-05-1.86718E-19 1.45774E-18
 -1      3573 9.00187E-05-3.49598E-05-2.34259E-05-2.74959E-05-1.72715E-21 7.58108E-19
 -1      3574 7.59148E-05-2.64948E-05-2.11138E-05-2.79512E-05 6.92582E-20 1.96181E-18
 -1      3575 9.58757E-05-2.81351E-05-2.90342E-05-1.81280E-06-4.05542E-20 4.32945E-19
 -1      3576 9.58330E-05-2.81832E-05-2.89923E-05-1.82044E-06 1.28937E-19 1.26511E-19
 -1      3577 9.58651E-05-2.80603E-05-2.90555E-05-1.61399E-06 2.69850E-19-3.37931E-20
 -1      3578 5.39843E-05-9.25642E-06-1.88014E-05 7.25174E-06-1.73920E-18 2.19985E-18
 -1      3579 9.30045E-05-1.93378E-05-3.15555E-05-5.45970E-07 6.73808E-19 2.99150E-19
 -1      3580 9.56683E-05-2.83767E-05-2.88380E-05-2.30569E-06-1.58060E-19 3.54663E-19
 -1      3581 9.57320E-05-2.82763E-05-2.89128E-05-2.16008E-06-2.95356E-19 4.25348E-19
 -1      3582 9.56760E-05-2.84364E-05-2.88136E-05-2.43403E-06-3.27560E-19 4.95881E-19
 -1      3583 9.47225E-05-2.78074E-05-2.86795E-05 9.43049E-08 5.46175E-19 2.86602E-18
 -1      3584 9.47464E-05-2.78304E-05-2.86779E-05 1.72066E-07-8.81725E-19 3.06287E-18
 -1      3585 9.46984E-05-2.77738E-05-2.86807E-05 2.50696E-07-6.18578E-19 3.72136E-18
 -1      3586 1.03608E-04-2.42889E-05-3.39442E-05 8.63087E-06-3.01233E-19 2.01539E-19
 -1      3587 1.04931E-04-2.71869E-05-3.34351E-05 9.64585E-06-2.79122E-19 3.20835E-19
 -1      3588 9.50667E-05-2.81020E-05-2.86977E-05 6.54091E-07-7.77645E-19-1.97843E-18
 -1      3589 9.49481E-05-2.79897E-05-2.86972E-05 6.94490E-07-2.15749E-19-2.07154E-18
 -1      3590 9.50649E-05-2.81212E-05-2.86894E-05 5.80791E-07 1.32696E-20-1.16473E-18
 -1      3591 1.08225E-04-2.90024E-05-3.38995E-05 1.05129E-05-3.57911E-19 1.01606E-18
 -1      3592 1.21257E-04-5.21643E-05-2.97026E-05 1.33240E-05-1.53730E-18 4.55962E-19
 -1      3593 1.16823E-04-5.04146E-05-2.84303E-05 1.66192E-05-1.93738E-18 5.28243E-19
 -1      3594 1.20536E-04-4.93153E-05-3.04643E-05 7.21979E-06-2.07334E-18-1.79717E-19
 -1      3595 9.47164E-05-2.77908E-05-2.86837E-05-7.23468E-08 6.35295E-19 1.08284E-18
 -1      3596 9.47131E-05-2.77900E-05-2.86814E-05 1.07572E-08 6.46537E-19 1.75421E-18
 -1      3597 9.46392E-05-2.77085E-05-2.86836E-05 7.62382E-08-5.29702E-20 3.49107E-18
 -1      3598 9.46397E-05-2.76967E-05-2.86886E-05-9.74624E-08 4.28987E-19 5.15897E-19
 -1      3599 5.68195E-05-1.42967E-05-1.77587E-05-2.03466E-05-1.00056E-19 2.97669E-18
 -1      3600 6.44055E-05-1.85412E-05-1.95015E-05-2.32926E-05 1.53280E-19 2.09699E-18
 -1      3601 5.57773E-05-1.19826E-05-1.87534E-05-1.36321E-05-1.49382E-19 3.00866E-18
 -1      3602 9.56900E-05-2.85642E-05-2.87640E-05-2.69105E-06 1.60003E-19 4.93008E-19
 -1      3603 9.56340E-05-2.84805E-05-2.87789E-05-2.57998E-06-1.11797E-19 5.19084E-19
 -1      3604 9.56174E-05-2.83726E-05-2.88234E-05-2.47759E-06-1.75341E-19 2.99216E-19
 -1      3605 9.55897E-05-2.85107E-05-2.87540E-05-2.79447E-06 1.33205E-19 2.30345E-19
 -1      3606 9.44233E-05-2.21411E-05-3.09668E-05-3.23864E-06 5.90585E-19 2.85773E-19
 -1      3607 9.44368E-05-2.21992E-05-3.09515E-05-2.63255E-06 5.54398E-19 3.23271E-19
 -1      3608 9.59351E-05-2.74016E-05-2.93764E-05-7.83368E-07 3.67340E-19 1.39005E-19
 -1      3609 9.59314E-05-2.70431E-05-2.95154E-05-3.67618E-07 4.96671E-19 2.56612E-19
 -1      3610 9.58346E-05-2.65760E-05-2.96935E-05 7.02937E-08 4.70275E-19 1.47569E-19
 -1      3611 9.57831E-05-2.60178E-05-2.98855E-05 6.59258E-07 3.66068E-19 2.22914E-19
 -1      3612 9.59364E-05-2.65151E-05-2.97512E-05-5.41334E-08 4.21150E-19 3.16067E-19
 -1      3613 5.55776E-05-1.17271E-05-1.82712E-05 1.54541E-05 1.13249E-18 1.51778E-19
 -1      3614 5.75104E-05-1.04241E-05-2.01565E-05 6.63043E-06 1.40142E-18 1.85791E-19
 -1      3615 6.24974E-05-1.62843E-05-1.96544E-05 2.01347E-05 9.39525E-19 1.24096E-18
 -1      3616 9.39819E-05-2.12414E-05-3.11740E-05-1.91955E-06 5.76898E-19 2.76657E-19
 -1      3617 9.42145E-05-2.17430E-05-3.10719E-05-2.32267E-06 5.28643E-19 3.31903E-19
 -1      3618 9.47296E-05-2.28206E-05-3.08128E-05-1.86172E-06 4.14125E-19 3.59981E-19
 -1      3619 6.29289E-05-1.05180E-05-2.21833E-05-6.04978E-08 7.15445E-19 5.28972E-19
 -1      3620 1.15974E-04-3.00821E-05-3.67954E-05 1.15869E-05-9.15643E-19 5.55362E-19
 -1      3621 1.24386E-04-4.43175E-05-3.44628E-05 5.26626E-06-3.64229E-19-4.77555E-19
 -1      3622 1.19533E-04-3.92502E-05-3.43584E-05 8.38366E-06-8.94659E-19-3.37867E-19
 -1      3623 1.22594E-04-4.60024E-05-3.26720E-05 1.73943E-06-3.29919E-19-6.65179E-19
 -1      3624 1.23402E-04-4.21959E-05-3.48746E-05-6.63558E-06-4.86263E-19-2.37349E-18
 -1      3625 1.25709E-04-4.62852E-05-3.40657E-05-3.34636E-06-8.36424E-19-1.48756E-18
 -1      3626 1.22329E-04-4.75208E-05-3.21397E-05 1.10108E-06-1.47430E-18-1.02042E-18
 -1      3627 9.49228E-05-2.79856E-05-2.86859E-05 5.34034E-07-6.29344E-19-2.44454E-18
 -1      3628 9.49936E-05-2.80740E-05-2.86808E-05 4.89277E-07-3.72841E-19-1.90348E-18
 -1      3629 1.07077E-04-2.11985E-05-3.68557E-05 8.63967E-06-8.96346E-19 2.05795E-18
 -1      3630 1.07240E-04-1.72514E-05-3.87235E-05 7.20795E-06-6.89293E-19 1.70187E-18
 -1      3631 1.05073E-04-2.23424E-05-3.54118E-05 8.52357E-06-5.26352E-19 1.20820E-18
 -1      3632 1.05069E-04-1.59686E-05-3.82620E-05 4.15034E-06-6.27294E-19 1.30350E-18
 -1      3633 1.16752E-04-4.88150E-05-2.88479E-05-1.29092E-05 1.93365E-19 2.59470E-19
 -1      3634 1.20986E-04-4.95018E-05-3.09235E-05-5.62807E-06-3.20453E-19-2.74349E-19
 -1      3635 6.21183E-05-1.25602E-05-2.11664E-05-9.95515E-06-3.59010E-19 2.04236E-18
 -1      3636 9.57195E-05-2.53300E-05-3.01651E-05-5.79017E-07 3.37546E-19 4.77951E-19
 -1      3637 9.58720E-05-2.59812E-05-2.99614E-05-8.60699E-08 3.72285E-19 5.02936E-19
 -1      3638 9.60075E-05-2.65188E-05-2.97771E-05 2.46377E-07 2.21514E-19 3.78283E-19
 -1      3639 9.60217E-05-2.69120E-05-2.96245E-05 6.11688E-07 6.60608E-20 3.18927E-19
 -1      3640 9.59208E-05-2.59848E-05-2.99674E-05 1.70542E-08 1.58763E-19 5.25214E-19
 -1      3641 9.60012E-05-2.72023E-05-2.94829E-05 8.49117E-07 1.63595E-19 2.85904E-19
 -1      3642 9.59123E-05-2.73879E-05-2.93717E-05 1.11579E-06 1.84894E-19 5.09252E-19
 -1      3643 9.60336E-05-2.68739E-05-2.96366E-05 5.84883E-07 1.88902E-19 4.11400E-19
 -1      3644 9.57698E-05-2.74835E-05-2.92649E-05 1.28351E-06 3.77218E-20 4.43336E-19
 -1      3645 9.55955E-05-2.75024E-05-2.91857E-05 1.48148E-06 9.35795E-20 3.98387E-19
 -1      3646 9.58721E-05-2.73054E-05-2.93827E-05 9.92156E-07 1.08508E-19 4.07374E-19
 -1      3647 9.53472E-05-2.74383E-05-2.91050E-05 1.59750E-06 3.42605E-20 2.99751E-19
 -1      3648 9.50897E-05-2.73164E-05-2.90488E-05 1.75124E-06-1.35617E-19 4.07142E-19
 -1      3649 9.54870E-05-2.73696E-05-2.91892E-05 1.27323E-06-5.87250E-20 5.50822E-19
 -1      3650 9.47178E-05-2.71006E-05-2.89817E-05 1.82976E-06-2.62824E-19 2.46365E-19
 -1      3651 9.43404E-05-2.68320E-05-2.89365E-05 1.95787E-06-3.26288E-19 4.06499E-19
 -1      3652 9.48776E-05-2.71160E-05-2.90350E-05 1.45620E-06-2.87797E-19 1.17308E-19
 -1      3653 9.38640E-05-2.64920E-05-2.88785E-05 1.98979E-06-2.25385E-19 2.79502E-19
 -1      3654 9.33743E-05-2.61056E-05-2.88367E-05 2.08359E-06-2.69907E-19 2.81392E-19
 -1      3655 9.40426E-05-2.65815E-05-2.89032E-05 1.53993E-06-3.01634E-19 8.71941E-20
 -1      3656 9.27549E-05-2.56371E-05-2.87711E-05 2.06079E-06-1.19400E-19 6.49129E-19
 -1      3657 9.20896E-05-2.51153E-05-2.87155E-05 2.11336E-06-5.95673E-20 7.23673E-19
 -1      3658 9.29695E-05-2.58039E-05-2.87725E-05 1.50435E-06-1.12486E-21 9.43757E-20
 -1      3659 9.12855E-05-2.45124E-05-2.86249E-05 2.00340E-06-1.13124E-19 9.60949E-19
 -1      3660 9.03771E-05-2.38425E-05-2.85346E-05 1.98300E-06-9.21272E-21 1.09103E-18
 -1      3661 9.15766E-05-2.47795E-05-2.86087E-05 1.29854E-06 1.23004E-19 8.87093E-19
 -1      3662 8.93335E-05-2.31005E-05-2.83950E-05 1.73208E-06-1.27506E-19 1.00061E-18
 -1      3663 8.80897E-05-2.22711E-05-2.82390E-05 1.58429E-06-1.37823E-19 1.09977E-18
 -1      3664 8.97727E-05-2.35117E-05-2.83711E-05 8.25381E-07-1.65670E-19 1.16249E-18
 -1      3665 8.67363E-05-2.13938E-05-2.80152E-05 1.11139E-06 1.57613E-19 1.14316E-18
 -1      3666 8.50331E-05-2.04024E-05-2.77462E-05 7.56062E-07 3.60538E-19 1.12421E-18
 -1      3667 8.74389E-05-2.20157E-05-2.80017E-05-6.64590E-08 1.02520E-19 1.09923E-18
 -1      3668 8.32809E-05-1.94136E-05-2.73860E-05-5.16845E-08 1.09341E-19 9.83774E-19
 -1      3669 8.09480E-05-1.82778E-05-2.69291E-05-7.20161E-07-4.77953E-19 1.05539E-18
 -1      3670 8.44273E-05-2.03380E-05-2.74161E-05-1.59569E-06-2.42546E-20 9.83496E-19
 -1      3671 7.86829E-05-1.72409E-05-2.63516E-05-2.01692E-06-6.13190E-19 1.27157E-18
 -1      3672 7.54724E-05-1.59987E-05-2.55852E-05-3.12966E-06-4.65297E-19 1.80474E-18
 -1      3673 8.05568E-05-1.85858E-05-2.64873E-05-4.06203E-06-2.60193E-19 1.05741E-18
 -1      3674 7.23755E-05-1.50239E-05-2.46021E-05-5.19156E-06-5.25154E-19 1.62847E-18
 -1      3675 6.77266E-05-1.37154E-05-2.32435E-05-7.06282E-06-6.42633E-19 1.85252E-18
 -1      3676 7.54196E-05-1.68940E-05-2.49640E-05-8.00687E-06-5.15915E-19 1.46734E-18
 -1      3677 1.07551E-04-1.38742E-05-4.02789E-05-2.36007E-06-9.31895E-19 1.09998E-18
 -1      3678 1.10510E-04-1.30066E-05-4.20672E-05-5.26180E-06-1.18039E-18 2.25769E-18
 -1      3679 8.26255E-05-1.87426E-05-2.74362E-05-3.92736E-07 2.62887E-19 3.57167E-19
 -1      3680 8.46230E-05-1.98204E-05-2.77885E-05-7.52989E-07 4.43868E-19-1.56161E-19
 -1      3681 8.61830E-05-2.07702E-05-2.80728E-05-1.27493E-06 3.46548E-19-6.51171E-19
 -1      3682 8.76150E-05-2.16774E-05-2.82717E-05-1.40064E-06-3.46088E-19-2.20397E-19
 -1      3683 8.53456E-05-2.04562E-05-2.77617E-05 6.48007E-07 1.54587E-19-1.21553E-18
 -1      3684 8.87841E-05-2.24846E-05-2.84394E-05-1.66103E-06-5.12173E-19 9.31385E-19
 -1      3685 8.98030E-05-2.32217E-05-2.85454E-05-1.63943E-06-8.66567E-19 1.47209E-18
 -1      3686 8.79933E-05-2.20693E-05-2.82185E-05-3.54769E-07 2.44922E-19 3.24943E-19
 -1      3687 9.06714E-05-2.38838E-05-2.86397E-05-1.73250E-06-9.45249E-19 1.54196E-18
 -1      3688 9.13910E-05-2.44674E-05-2.86901E-05-1.62911E-06-8.29755E-19 1.05006E-18
 -1      3689 8.99756E-05-2.34469E-05-2.84871E-05-8.59051E-07-1.02943E-18 2.58304E-18
 -1      3690 9.20580E-05-2.50197E-05-2.87407E-05-1.62073E-06-1.11878E-18 1.66664E-18
 -1      3691 9.25806E-05-2.54929E-05-2.87589E-05-1.47377E-06-1.43097E-18 1.96560E-18
 -1      3692 9.14768E-05-2.46120E-05-2.86390E-05-1.04851E-06-1.26021E-18 2.57698E-18
 -1      3693 9.30406E-05-2.59033E-05-2.87790E-05-1.41287E-06-1.34080E-18 2.77606E-18
 -1      3694 9.33835E-05-2.62472E-05-2.87785E-05-1.26451E-06 7.72480E-20 1.97790E-18
 -1      3695 9.25733E-05-2.55427E-05-2.87147E-05-1.05090E-06-8.56163E-19 3.24428E-18
 -1      3696 9.37173E-05-2.65642E-05-2.87830E-05-1.18173E-06 1.32447E-19 1.23473E-18
 -1      3697 9.39543E-05-2.68268E-05-2.87736E-05-1.04171E-06-2.72263E-19 1.46506E-18
 -1      3698 9.33503E-05-2.62609E-05-2.87438E-05-9.53634E-07-2.97383E-19 1.81642E-18
 -1      3699 9.41951E-05-2.70698E-05-2.87694E-05-9.54519E-07-5.58737E-19 7.08588E-19
 -1      3700 9.43580E-05-2.72688E-05-2.87563E-05-8.30758E-07-8.74046E-19 5.34371E-19
 -1      3701 9.39131E-05-2.68216E-05-2.87474E-05-8.14521E-07-6.94997E-19-4.19797E-19
 -1      3702 9.45307E-05-2.74527E-05-2.87478E-05-7.48887E-07-7.27945E-19-4.73268E-20
 -1      3703 9.46409E-05-2.76021E-05-2.87337E-05-6.45170E-07 6.07361E-20-1.20385E-18
 -1      3704 9.43184E-05-2.72563E-05-2.87372E-05-6.66380E-07-9.11146E-19-2.22326E-19
 -1      3705 9.47160E-05-2.76855E-05-2.87258E-05-5.84428E-07 8.33877E-19-1.40484E-18
 -1      3706 9.47655E-05-2.77705E-05-2.87137E-05-5.00255E-07 1.35342E-18-7.45612E-19
 -1      3707 9.46863E-05-2.77014E-05-2.87081E-05-4.22708E-07 2.00462E-18 1.23273E-18
 -1      3708 9.45527E-05-2.75318E-05-2.87222E-05-5.31982E-07 2.26464E-19 4.67176E-20
 -1      3709 1.10247E-04-1.58485E-05-4.05683E-05-7.89014E-06-1.49787E-18 1.33334E-18
 -1      3710 1.04640E-04-1.50372E-05-3.85158E-05 4.61886E-07-6.30007E-19 1.20250E-18
 -1      3711 1.04606E-04-1.60329E-05-3.79861E-05-3.61686E-06-1.20430E-18 1.32148E-18
 -1      3712 1.08882E-04-1.87505E-05-3.87156E-05-8.54890E-06-1.73854E-18 1.38561E-18
 -1      3713 1.11336E-04-1.93776E-05-3.95803E-05-1.01674E-05-1.43731E-18 1.21623E-18
 -1      3714 9.36676E-05-2.06460E-05-3.13001E-05-1.03747E-06 6.38900E-19 3.21223E-19
 -1      3715 9.38119E-05-2.09336E-05-3.12455E-05-1.53069E-06 6.34099E-19 2.43551E-19
 -1      3716 9.43941E-05-2.20269E-05-3.10026E-05-1.26751E-06 5.35249E-19 2.71904E-19
 -1      3717 6.43176E-05-1.19365E-05-2.24770E-05 5.75853E-06 5.42108E-19-7.67253E-19
 -1      3718 1.00024E-04-3.34787E-05-2.85175E-05-4.45754E-06-3.14541E-19 1.24756E-18
 -1      3719 9.89662E-05-3.24479E-05-2.84813E-05-4.60910E-06-3.15251E-20 7.30280E-19
 -1      3720 9.80107E-05-3.15240E-05-2.84867E-05-4.44214E-06 3.06358E-19 4.03439E-19
 -1      3721 9.72603E-05-3.07472E-05-2.84895E-05-4.39965E-06 5.41847E-19 4.53969E-19
 -1      3722 9.79694E-05-3.18586E-05-2.83674E-05-5.33958E-06-1.46604E-19 1.76404E-18
 -1      3723 1.06166E-04-3.83675E-05-2.90826E-05-2.36407E-06 5.76355E-20 7.23656E-19
 -1      3724 1.04674E-04-3.72366E-05-2.88497E-05-3.32049E-06-3.36294E-19 7.77626E-19
 -1      3725 1.09709E-04-4.01193E-05-2.98552E-05 4.64126E-07-1.57212E-19 3.31359E-19
 -1      3726 1.08368E-04-3.95518E-05-2.94386E-05-1.06020E-06 1.59112E-20 4.11234E-19
 -1      3727 1.07731E-04-3.99187E-05-2.91211E-05-3.57565E-06-4.79004E-20 7.26977E-19
 -1      3728 1.12433E-04-3.99050E-05-3.11303E-05 4.42245E-06-5.85443E-19 9.58706E-19
 -1      3729 1.11710E-04-4.04946E-05-3.04910E-05 2.54155E-06-2.77222E-19 6.13201E-19
 -1      3730 1.12020E-04-4.16570E-05-3.01446E-05-1.45932E-07-2.72576E-19 6.16226E-19
 -1      3731 1.14463E-04-3.72226E-05-3.31424E-05 8.18367E-06-1.01383E-18 8.71594E-19
 -1      3732 1.14809E-04-3.96500E-05-3.22171E-05 6.57607E-06-8.52455E-19 4.37553E-19
 -1      3733 1.05708E-04-1.82685E-05-3.75849E-05-6.88520E-06-1.53798E-18 1.54029E-18
 -1      3734 9.48519E-05-2.79093E-05-2.86910E-05 6.25994E-07-7.69565E-19-2.13555E-18
 -1      3735 9.48378E-05-2.78744E-05-2.86966E-05 7.09906E-07-5.98873E-20-2.56873E-18
 -1      3736 1.12888E-04-3.46271E-05-3.36146E-05-1.00218E-05-1.15531E-18 1.44784E-18
 -1      3737 1.11525E-04-3.08958E-05-3.45684E-05-1.06995E-05-1.72433E-18 1.72918E-18
 -1      3738 1.10764E-04-4.02856E-05-3.01656E-05-1.54561E-06-1.02172E-18 1.41449E-18
 -1      3739 1.11682E-04-4.00700E-05-3.07407E-05-3.33298E-06-1.10813E-18 1.08585E-18
 -1      3740 1.07172E-04-3.87649E-05-2.92620E-05 1.68878E-06-9.84213E-19 2.13616E-18
 -1      3741 1.08605E-04-3.95884E-05-2.96181E-05 3.56100E-07-8.89869E-19 2.24856E-18
 -1      3742 1.10751E-04-4.12938E-05-2.98022E-05 1.35724E-06-1.37880E-18 7.58796E-19
 -1      3743 1.03512E-04-3.62478E-05-2.87783E-05 3.51195E-06-1.46123E-18 2.92265E-18
 -1      3744 1.05005E-04-3.74592E-05-2.89691E-05 2.73067E-06-1.25498E-18 2.51301E-18
 -1      3745 1.06323E-04-3.88582E-05-2.89606E-05 4.06050E-06-1.48623E-18 3.06972E-18
 -1      3746 1.00425E-04-3.36848E-05-2.85667E-05 4.22661E-06 4.82482E-19 2.50349E-18
 -1      3747 1.01719E-04-3.48818E-05-2.86502E-05 3.88880E-06-3.66540E-19 3.10732E-18
 -1      3748 1.02341E-04-3.58355E-05-2.85514E-05 5.21363E-06-8.39232E-19 2.32914E-18
 -1      3749 9.81089E-05-3.15296E-05-2.85105E-05 4.23635E-06 1.09372E-18 1.81826E-18
 -1      3750 9.91071E-05-3.25221E-05-2.85329E-05 4.19129E-06 9.27308E-19 2.19906E-18
 -1      3751 9.92533E-05-3.30665E-05-2.84064E-05 5.32225E-06 9.14729E-19 1.85171E-18
 -1      3752 9.65192E-05-2.99181E-05-2.85297E-05 3.86772E-06 2.33721E-18 4.21165E-19
 -1      3753 9.72238E-05-3.06534E-05-2.85227E-05 3.98975E-06 1.57738E-18 3.90949E-19
 -1      3754 9.70846E-05-3.08877E-05-2.84001E-05 4.86588E-06 2.30775E-18-3.47623E-20
 -1      3755 9.55172E-05-2.88220E-05-2.85768E-05 3.33836E-06 1.78671E-18 7.67047E-19
 -1      3756 9.59762E-05-2.93181E-05-2.85594E-05 3.54042E-06 2.24439E-18 7.20737E-19
 -1      3757 9.56909E-05-2.93454E-05-2.84541E-05 4.17283E-06 1.97005E-18-6.59532E-19
 -1      3758 9.49478E-05-2.81480E-05-2.86259E-05 2.77547E-06 1.55283E-18 1.40820E-18
 -1      3759 9.52213E-05-2.84502E-05-2.86085E-05 3.00341E-06 1.97776E-18 1.12887E-18
 -1      3760 9.48799E-05-2.83523E-05-2.85247E-05 3.43502E-06 1.47160E-18 1.09903E-18
 -1      3761 9.46737E-05-2.77884E-05-2.86652E-05 2.24588E-06 3.62234E-19 7.55821E-19
 -1      3762 9.48176E-05-2.79474E-05-2.86523E-05 2.46905E-06 6.85972E-19 4.48746E-19
 -1      3763 9.44743E-05-2.77830E-05-2.85894E-05 2.74941E-06 1.25679E-18 2.05409E-18
 -1      3764 9.45870E-05-2.76453E-05-2.86907E-05 1.77936E-06-1.69352E-19 8.77379E-19
 -1      3765 9.46467E-05-2.77064E-05-2.86837E-05 1.98224E-06 6.01955E-19 4.69588E-19
 -1      3766 9.43309E-05-2.75155E-05-2.86390E-05 2.15598E-06 3.20732E-19 1.94804E-18
 -1      3767 9.46095E-05-2.76401E-05-2.87032E-05 1.38494E-06-3.67311E-20 7.49304E-20
 -1      3768 9.46185E-05-2.76394E-05-2.87015E-05 1.56108E-06-4.65629E-19 1.55002E-19
 -1      3769 9.43443E-05-2.74472E-05-2.86717E-05 1.66363E-06-1.09391E-19 8.45648E-19
 -1      3770 9.46872E-05-2.77138E-05-2.87050E-05 1.06047E-06 2.25144E-19-4.21819E-19
 -1      3771 9.46690E-05-2.76780E-05-2.87076E-05 1.20871E-06 6.69667E-19-3.93455E-19
 -1      3772 9.44405E-05-2.74995E-05-2.86894E-05 1.26708E-06 3.40982E-19 3.68019E-19
 -1      3773 9.47767E-05-2.78152E-05-2.86996E-05 8.10797E-07 6.59493E-19-2.34481E-18
 -1      3774 9.47475E-05-2.77639E-05-2.87047E-05 9.33515E-07 4.04160E-19-1.78664E-18
 -1      3775 9.45609E-05-2.76074E-05-2.86948E-05 9.66188E-07 7.40641E-19 3.42381E-19
 -1      3776 9.46789E-05-2.77300E-05-2.86927E-05 7.38405E-07 6.71387E-19-2.27735E-18
 -1      3777 9.46217E-05-2.76562E-05-2.87010E-05-3.10176E-07 2.56313E-18 1.04877E-18
 -1      3778 9.45791E-05-2.76209E-05-2.86960E-05-2.11876E-07 1.35846E-18-4.98613E-19
 -1      3779 9.45597E-05-2.75734E-05-2.87073E-05-3.58663E-07 1.75154E-18 1.10370E-18
 -1      3780 1.02785E-04-3.58816E-05-2.86822E-05-3.88632E-06-4.93909E-19 1.16967E-18
 -1      3781 1.01441E-04-3.46812E-05-2.85720E-05-4.36736E-06-2.41944E-19 1.27695E-18
 -1      3782 1.00310E-04-3.41496E-05-2.83999E-05-5.61230E-06-2.88366E-19 1.30973E-18
 -1      3783 9.55381E-05-2.86480E-05-2.86593E-05-3.24140E-06-1.68592E-19 1.14025E-19
 -1      3784 9.54178E-05-2.84713E-05-2.86902E-05-3.05997E-06 5.06933E-20-5.85121E-20
 -1      3785 7.77853E-05-1.64563E-05-2.63641E-05 1.21676E-06 1.46065E-19 8.61458E-19
 -1      3786 8.05550E-05-1.76785E-05-2.69678E-05 5.17194E-07 6.41252E-19 9.88931E-19
 -1      3787 8.18417E-05-1.86613E-05-2.70104E-05 2.40377E-06 2.76423E-19 1.20693E-18
 -1      3788 9.59144E-05-2.79023E-05-2.91498E-05-1.38624E-06 3.98688E-19-4.37498E-20
 -1      3789 9.59405E-05-2.76877E-05-2.92454E-05-1.09651E-06 3.07054E-19 1.07178E-19
 -1      3790 9.60401E-05-2.73607E-05-2.94352E-05-8.27762E-07 3.60012E-19 2.01395E-19
 -1      3791 9.59968E-05-2.78619E-05-2.92027E-05-1.38914E-06 3.15924E-19 2.20094E-19
 -1      3792 9.51174E-05-2.37234E-05-3.06014E-05-1.50039E-06 3.40939E-19 3.85523E-19
 -1      3793 9.54646E-05-2.46767E-05-3.03431E-05-8.75814E-07 2.58233E-19 5.14453E-19
 -1      3794 9.55446E-05-2.47584E-05-3.03342E-05-6.21824E-07 3.43212E-19 4.07867E-19
 -1      3795 9.49337E-05-2.32549E-05-3.07186E-05-1.27646E-06 4.07486E-19 3.42033E-19
 -1      3796 9.35954E-05-2.05250E-05-3.13252E-05-1.37558E-07 6.63191E-19 3.76813E-19
 -1      3797 9.36394E-05-2.06092E-05-3.13089E-05-6.61907E-07 6.52372E-19 3.84538E-19
 -1      3798 9.42481E-05-2.16920E-05-3.10790E-05-5.95590E-07 6.60793E-19 3.81499E-19
 -1      3799 9.42867E-05-2.17535E-05-3.10668E-05 5.97379E-08 6.68988E-19 3.24583E-19
 -1      3800 1.00998E-04-4.12870E-05-2.54464E-05-2.37527E-05 5.47097E-20-3.32421E-19
 -1      3801 1.09333E-04-4.66542E-05-2.71446E-05-1.96042E-05 4.64399E-19-1.87214E-19
 -1      3802 9.42681E-05-2.18684E-05-3.10401E-05 2.39618E-06 3.40962E-19 1.58502E-19
 -1      3803 9.40305E-05-2.13675E-05-3.11457E-05 1.98736E-06 3.68945E-19 4.09625E-19
 -1      3804 9.45529E-05-2.23678E-05-3.09242E-05 1.41034E-06 2.77867E-19 4.42998E-19
 -1      3805 9.47058E-05-2.27933E-05-3.08129E-05 1.99474E-06 2.85713E-19 2.72713E-20
 -1      3806 1.11903E-04-4.86670E-05-2.71341E-05 2.10530E-05-1.58970E-18 8.40859E-19
 -1      3807 1.04081E-04-4.41233E-05-2.56817E-05 2.43071E-05-1.22464E-18 1.65514E-18
 -1      3808 1.14051E-04-4.76798E-05-2.83395E-05 1.49044E-05-2.04385E-18 7.33511E-20
 -1      3809 1.08826E-04-2.49302E-05-3.61969E-05 1.08464E-05-5.16359E-19 1.83541E-18
 -1      3810 1.12774E-04-3.02968E-05-3.53983E-05 1.07929E-05-5.16492E-19 9.62124E-19
 -1      3811 9.48115E-05-2.78747E-05-2.86859E-05 5.44838E-07-2.22372E-19-1.58076E-18
 -1      3812 1.14329E-04-3.44141E-05-3.43669E-05 1.04417E-05-8.38457E-19 7.46794E-19
 -1      3813 9.50672E-05-2.81425E-05-2.86820E-05 5.14901E-07-1.54377E-19-1.31410E-18
 -1      3814 7.13912E-05-1.40544E-05-2.46378E-05 3.87287E-06-1.53267E-19 6.27852E-19
 -1      3815 7.50580E-05-1.54037E-05-2.56032E-05 2.66662E-06-3.67940E-19 1.11976E-18
 -1      3816 7.72021E-05-1.68042E-05-2.57958E-05 5.27124E-06 6.09078E-20 1.81002E-18
 -1      3817 9.54051E-05-2.46690E-05-3.03166E-05 1.31643E-06 3.63136E-19 1.55618E-19
 -1      3818 1.06774E-04-2.11921E-05-3.67645E-05-9.15153E-06-1.26741E-18 2.32372E-18
 -1      3819 1.11836E-04-4.58452E-05-2.82076E-05-1.39692E-05 4.70461E-19 2.15623E-19
 -1      3820 6.73602E-05-1.53344E-05-2.20529E-05-1.40449E-05-8.82023E-20 2.14463E-18
 -1      3821 9.47701E-05-2.28572E-05-3.08303E-05 1.64776E-07 5.79210E-19 1.81862E-19
 -1      3822 9.47285E-05-2.27616E-05-3.08499E-05-1.17666E-07 5.73882E-19 3.87607E-19
 -1      3823 1.03367E-04-4.17942E-05-2.62516E-05 2.11419E-05-1.56127E-18 1.27707E-18
 -1      3824 9.79731E-05-4.01680E-05-2.47213E-05 2.64157E-05-1.41748E-18 2.09169E-18
 -1      3825 8.99684E-05-3.44088E-05-2.38695E-05 2.62117E-05-1.55452E-18 1.70791E-18
 -1      3826 9.59083E-05-2.91863E-05-2.85860E-05-3.69140E-06-3.22528E-19 7.15467E-19
 -1      3827 9.56366E-05-2.88618E-05-2.86139E-05-3.51466E-06-4.81112E-19 2.10396E-19
 -1      3828 9.52593E-05-2.85420E-05-2.86034E-05-3.47122E-06-3.29012E-19 2.23649E-19
 -1      3829 9.48804E-05-2.31008E-05-3.07675E-05 7.02254E-07 4.23510E-19 3.02053E-19
 -1      3830 9.48044E-05-2.29354E-05-3.08082E-05 3.99263E-07 5.35223E-19 1.32004E-19
 -1      3831 9.52486E-05-2.38061E-05-3.06015E-05 1.85616E-07 5.05273E-19 1.06416E-19
 -1      3832 7.17672E-05-2.22779E-05-2.09695E-05-2.50052E-05 1.56529E-19 2.09437E-18
 -1      3833 7.89936E-05-2.59398E-05-2.26401E-05-2.41135E-05 1.44479E-19 1.89577E-18
 -1      3834 6.78378E-05-1.84281E-05-2.12106E-05-2.00881E-05 7.82976E-20 2.15091E-18
 -1      3835 9.58869E-05-2.80888E-05-2.90552E-05-1.76112E-06-6.63103E-20 7.19474E-19
 -1      3836 9.59591E-05-2.79872E-05-2.91293E-05-1.56590E-06 6.79723E-20 5.97728E-19
 -1      3837 1.16759E-04-4.26087E-05-3.18587E-05 3.63667E-06-4.42287E-19 4.06788E-19
 -1      3838 1.15224E-04-2.44371E-05-3.91670E-05-1.20698E-05-7.80951E-19 1.34122E-19
 -1      3839 1.18402E-04-3.23824E-05-3.69232E-05-1.14195E-05-4.31775E-19-8.05674E-19
 -1      3840 9.52024E-05-2.82441E-05-2.87030E-05-2.92396E-06 2.31662E-19 1.31733E-19
 -1      3841 9.54451E-05-2.83769E-05-2.87371E-05-2.82375E-06 3.91301E-19 1.99952E-19
 -1      3842 9.54255E-05-2.82916E-05-2.87717E-05-2.65069E-06 3.58248E-19 3.39393E-19
 -1      3843 9.64719E-05-3.02160E-05-2.84195E-05-4.76013E-06 6.43788E-19 1.07269E-18
 -1      3844 9.66838E-05-3.01098E-05-2.85223E-05-4.12590E-06 6.27272E-19 4.98333E-19
 -1      3845 9.62021E-05-2.95812E-05-2.85432E-05-3.98607E-06 3.85012E-19 7.73516E-19
 -1      3846 1.14401E-04-3.07121E-05-3.57980E-05-1.15479E-05-1.19473E-18 7.28157E-19
 -1      3847 1.19817E-04-3.65200E-05-3.58513E-05-1.04648E-05-3.90112E-19-1.23381E-18
 -1      3848 9.57775E-05-3.79173E-05-2.47970E-05-2.49696E-05-4.32252E-20-2.47433E-19
 -1      3849 1.00299E-04-3.91646E-05-2.60518E-05-2.05622E-05 2.00885E-19-4.68565E-19
 -1      3850 8.96611E-05-3.31754E-05-2.41920E-05-2.43456E-05 2.13148E-19 5.93088E-19
 -1      3851 9.47298E-05-2.78023E-05-2.86844E-05 4.82147E-07-1.94230E-19-2.66628E-19
 -1      3852 1.10151E-04-2.77263E-05-3.54727E-05-1.11400E-05-1.50255E-18 1.96647E-18
 -1      3853 1.13128E-04-3.93745E-05-3.16172E-05-5.93425E-06-9.46317E-19 9.56831E-19
 -1      3854 1.12987E-04-3.74187E-05-3.24217E-05-7.68184E-06-6.92843E-19 1.20692E-18
 -1      3855 1.19278E-04-4.72468E-05-3.08855E-05 3.38188E-06-1.94747E-18-6.39277E-19
 -1      3856 1.17183E-04-4.70220E-05-3.00467E-05 6.38666E-06-2.13642E-18 5.18080E-20
 -1      3857 9.45569E-05-2.76137E-05-2.86914E-05-1.06106E-07 1.63397E-20 9.77895E-19
 -1      3858 9.45483E-05-2.76088E-05-2.86882E-05-1.84668E-08-4.52798E-19 2.44678E-18
 -1      3859 9.44806E-05-2.75234E-05-2.86952E-05-1.31265E-07 1.49503E-19 1.58036E-18
 -1      3860 9.60104E-05-2.65748E-05-2.97665E-05-2.38372E-07 2.83015E-19 4.57324E-19
 -1      3861 9.59219E-05-2.60149E-05-2.99501E-05 2.29761E-07 3.43465E-19 3.65182E-19
 -1      3862 1.03603E-04-3.69837E-05-2.86052E-05-5.20392E-06-1.12457E-19 9.06258E-19
 -1      3863 1.19450E-04-4.02716E-05-3.40113E-05-7.18681E-06-8.47830E-19-1.26717E-18
 -1      3864 1.08388E-04-2.36812E-05-3.63252E-05-9.91365E-06-1.25909E-18 1.81208E-18
 -1      3865 9.45805E-05-2.76581E-05-2.86830E-05 2.57231E-07-2.95349E-19 3.43696E-18
 -1      3866 9.46330E-05-2.77056E-05-2.86821E-05 3.47563E-07 1.35504E-19 2.39379E-18
 -1      3867 6.85156E-05-1.96218E-05-2.06321E-05 2.35185E-05 5.49830E-19 1.60073E-18
 -1      3868 6.51921E-05-1.53156E-05-2.13908E-05 1.59791E-05 1.05910E-18 9.52912E-19
 -1      3869 7.60656E-05-2.40811E-05-2.21407E-05 2.38809E-05 1.60777E-19 1.77228E-19
 -1      3870 9.56933E-05-2.81949E-05-2.89249E-05-2.10505E-06-2.46248E-19 5.04915E-19
 -1      3871 9.57635E-05-2.81441E-05-2.89794E-05-1.93457E-06-2.15897E-19 5.82340E-19
 -1      3872 9.58202E-05-2.80028E-05-2.90659E-05-1.70094E-06-8.83348E-20 9.39832E-19
 -1      3873 9.46186E-05-2.76816E-05-2.86864E-05 5.03241E-07 8.57642E-19 1.02597E-18
 -1      3874 9.61116E-05-2.73821E-05-2.94594E-05-8.85540E-07 3.90675E-19 3.97619E-19
 -1      3875 9.61095E-05-2.70359E-05-2.95976E-05-5.50024E-07 3.62205E-19 4.30132E-19
 -1      3876 9.60684E-05-2.65710E-05-2.97840E-05-3.13025E-07 3.04877E-19 4.71461E-19
 -1      3877 1.19319E-04-4.59572E-05-3.14444E-05-9.05973E-07-2.54097E-19-5.93433E-19
 -1      3878 1.19229E-04-4.55787E-05-3.16264E-05 3.61031E-08-1.48192E-18-9.40465E-19
 -1      3879 6.81996E-05-1.40492E-05-2.30437E-05 9.21468E-06 6.64557E-19 6.71866E-19
 -1      3880 1.16098E-04-3.78876E-05-3.35066E-05-8.37021E-06-6.65315E-19-2.05882E-19
 -1      3881 1.14562E-04-4.16379E-05-3.12755E-05-3.09168E-06-1.30580E-18-3.76311E-19
 -1      3882 9.52071E-05-2.37049E-05-3.06248E-05-1.81049E-07 5.08905E-19 2.75544E-19
 -1      3883 9.47181E-05-2.27515E-05-3.08523E-05-3.25354E-07 6.04818E-19 3.57214E-19
 -1      3884 9.47328E-05-2.27883E-05-3.08422E-05-6.19846E-07 6.38641E-19 3.58355E-19
 -1      3885 9.60658E-05-2.66165E-05-2.97634E-05 3.27110E-07 9.33834E-20 5.31088E-19
 -1      3886 9.60473E-05-2.69533E-05-2.96168E-05 5.66275E-07 9.02874E-20 4.73448E-19
 -1      3887 9.59775E-05-2.71891E-05-2.94804E-05 6.86084E-07 6.65776E-20 4.60244E-19
 -1      3888 9.58358E-05-2.73212E-05-2.93679E-05 8.52556E-07 1.24573E-19 3.72193E-19
 -1      3889 9.60244E-05-2.69558E-05-2.95967E-05 4.44264E-07 4.61034E-20 4.38908E-19
 -1      3890 9.56401E-05-2.73667E-05-2.92602E-05 9.21513E-07 7.19592E-20 3.98757E-19
 -1      3891 9.53930E-05-2.73323E-05-2.91734E-05 1.03052E-06-1.44234E-19 3.73254E-19
 -1      3892 9.57597E-05-2.72691E-05-2.93490E-05 6.27161E-07 4.43411E-20 4.94075E-19
 -1      3893 9.50701E-05-2.72144E-05-2.90819E-05 1.05063E-06-4.50282E-19 4.29667E-19
 -1      3894 9.46974E-05-2.70251E-05-2.90080E-05 1.10845E-06-4.56937E-19 1.68203E-19
 -1      3895 9.52482E-05-2.72295E-05-2.91459E-05 7.04904E-07-3.63531E-19 3.41205E-19
 -1      3896 9.42817E-05-2.67783E-05-2.89314E-05 1.06914E-06-2.13917E-19 1.80591E-19
 -1      3897 9.38076E-05-2.64720E-05-2.88662E-05 1.06653E-06-1.96533E-19 2.15964E-19
 -1      3898 9.45181E-05-2.68972E-05-2.89740E-05 6.65727E-07-3.48135E-19 2.56455E-19
 -1      3899 9.32829E-05-2.61135E-05-2.87883E-05 9.53240E-07 1.44517E-20 3.98768E-19
 -1      3900 9.26660E-05-2.56937E-05-2.87148E-05 8.72726E-07 1.61115E-19 5.94438E-19
 -1      3901 9.35929E-05-2.63368E-05-2.88154E-05 4.81921E-07 9.76934E-20 5.21483E-19
 -1      3902 9.20197E-05-2.52378E-05-2.86215E-05 6.48937E-07 1.20930E-19 3.32401E-19
 -1      3903 9.12200E-05-2.47109E-05-2.85227E-05 4.49843E-07-2.16763E-20 5.59353E-19
 -1      3904 9.24421E-05-2.55879E-05-2.86403E-05 9.59938E-08 4.09816E-21 6.18463E-19
 -1      3905 9.04351E-05-2.41745E-05-2.83963E-05 6.01739E-08-2.91879E-20 4.55227E-19
 -1      3906 8.93999E-05-2.35514E-05-2.82487E-05-3.22462E-07 6.31552E-22 8.55460E-19
 -1      3907 9.10372E-05-2.46930E-05-2.84179E-05-5.90797E-07-7.79755E-20 1.76813E-19
 -1      3908 8.84610E-05-2.29643E-05-2.80657E-05-9.60216E-07-7.84304E-20 1.12024E-18
 -1      3909 8.71234E-05-2.22675E-05-2.78360E-05-1.62268E-06 1.14079E-19 1.06413E-18
 -1      3910 8.93481E-05-2.37166E-05-2.81081E-05-1.72372E-06 5.56407E-20 6.93446E-19
 -1      3911 8.60248E-05-2.16846E-05-2.75649E-05-2.62205E-06-1.17807E-20 8.09021E-19
 -1      3912 8.43010E-05-2.09613E-05-2.72044E-05-3.69881E-06-2.38024E-19 8.33800E-19
 -1      3913 8.73565E-05-2.27638E-05-2.76587E-05-3.50777E-06-8.50408E-20 1.00285E-18
 -1      3914 8.30605E-05-2.04784E-05-2.68023E-05-5.21777E-06-2.89669E-19 9.04039E-19
 -1      3915 8.08517E-05-1.98170E-05-2.62387E-05-6.89047E-06-5.07508E-19 1.01292E-18
 -1      3916 8.50851E-05-2.20215E-05-2.70005E-05-6.22464E-06-1.91794E-19 1.02792E-18
 -1      3917 7.94638E-05-1.96420E-05-2.56142E-05-9.22532E-06-5.77949E-19 8.83040E-19
 -1      3918 7.65751E-05-1.91664E-05-2.46981E-05-1.19116E-05-1.72030E-19 1.03175E-18
 -1      3919 8.24902E-05-2.17676E-05-2.60129E-05-1.04184E-05-4.03199E-19 8.51625E-19
 -1      3920 1.14817E-04-4.36133E-05-3.04354E-05 9.33950E-07-1.78448E-18-7.55859E-19
 -1      3921 1.16435E-04-4.33836E-05-3.13550E-05-1.61643E-06-1.21050E-18-6.85736E-19
 -1      3922 9.44121E-05-2.74819E-05-2.86837E-05 4.31204E-07 9.69718E-19 1.85508E-18
 -1      3923 9.45186E-05-2.75867E-05-2.86863E-05 5.88508E-07 1.28562E-18 7.79497E-19
 -1      3924 9.44552E-05-2.75121E-05-2.86878E-05 6.84888E-07 1.89817E-18 1.33349E-18
 -1      3925 1.16002E-04-4.49737E-05-3.03984E-05-2.49185E-06-4.97473E-19 1.38386E-19
 -1      3926 1.00226E-04-3.43608E-05-2.82168E-05-6.95915E-06-3.02405E-20 1.16818E-18
 -1      3927 9.87886E-05-3.29627E-05-2.81794E-05-6.82294E-06-1.52434E-19 1.44076E-18
 -1      3928 8.75101E-05-2.21227E-05-2.80587E-05 9.23153E-07 2.23664E-19 6.38878E-19
 -1      3929 8.86685E-05-2.27886E-05-2.82338E-05 4.88885E-07 4.57355E-19 1.21689E-18
 -1      3930 8.94969E-05-2.33541E-05-2.83716E-05 3.75562E-08 2.03001E-19 1.85227E-18
 -1      3931 9.03604E-05-2.39245E-05-2.84736E-05-1.78462E-07-6.76118E-19 2.86588E-18
 -1      3932 8.92715E-05-2.33397E-05-2.82357E-05 1.17988E-06 3.49169E-19 2.24769E-18
 -1      3933 9.10454E-05-2.44439E-05-2.85600E-05-4.37405E-07-1.30567E-18 3.54818E-18
 -1      3934 9.17077E-05-2.49403E-05-2.86171E-05-5.18908E-07-7.58503E-19 3.50092E-18
 -1      3935 9.07541E-05-2.43059E-05-2.84617E-05 3.63318E-07-3.59266E-19 3.75175E-18
 -1      3936 9.22094E-05-2.53557E-05-2.86625E-05-6.34501E-07-1.30553E-18 3.83267E-18
 -1      3937 9.26681E-05-2.57370E-05-2.86880E-05-6.32772E-07-4.94026E-19 3.86395E-18
 -1      3938 9.19134E-05-2.51605E-05-2.85953E-05-8.79167E-08-3.81127E-19 4.97280E-18
 -1      3939 9.30534E-05-2.60771E-05-2.87109E-05-6.73098E-07-8.30551E-19 3.01072E-18
 -1      3940 9.33868E-05-2.63822E-05-2.87195E-05-6.30627E-07-1.76157E-18 1.78217E-18
 -1      3941 9.27848E-05-2.58738E-05-2.86665E-05-2.98166E-07-1.36567E-18 3.81489E-18
 -1      3942 9.36789E-05-2.66561E-05-2.87282E-05-6.27944E-07-1.88511E-18 1.13081E-18
 -1      3943 9.39197E-05-2.68967E-05-2.87271E-05-5.68020E-07-1.34702E-18 4.33653E-19
 -1      3944 9.34498E-05-2.64652E-05-2.87006E-05-3.74052E-07-2.32249E-18 2.46798E-18
 -1      3945 9.41388E-05-2.71125E-05-2.87275E-05-5.43858E-07-3.76471E-19-6.19196E-19
 -1      3946 9.43099E-05-2.73000E-05-2.87211E-05-4.81044E-07-4.75563E-19-4.57507E-19
 -1      3947 9.39522E-05-2.69474E-05-2.87116E-05-3.74417E-07-1.67459E-18 1.43371E-18
 -1      3948 9.44050E-05-2.73962E-05-2.87177E-05-4.46815E-07 3.96161E-19-2.15188E-19
 -1      3949 9.44791E-05-2.74910E-05-2.87111E-05-3.88836E-07 1.47174E-18 2.53165E-19
 -1      3950 9.44243E-05-2.74467E-05-2.87034E-05-2.68166E-07 1.56460E-18 3.88009E-19
 -1      3951 9.42517E-05-2.72573E-05-2.87095E-05-3.27105E-07 3.17096E-19 6.36858E-19
 -1      3952 1.04925E-04-3.82517E-05-2.85070E-05 6.84015E-06-1.73181E-18 8.10793E-19
 -1      3953 1.07155E-04-4.00114E-05-2.87926E-05 6.09677E-06-1.81347E-18 5.33046E-19
 -1      3954 9.58568E-05-2.55557E-05-3.01236E-05-1.78251E-07 2.83271E-19 4.38146E-19
 -1      3955 9.59836E-05-2.61473E-05-2.99363E-05 1.49336E-07 1.58144E-19 4.94046E-19
 -1      3956 9.60089E-05-2.62108E-05-2.99091E-05 1.52695E-07 1.58863E-19 3.98145E-19
 -1      3957 9.76637E-05-3.17864E-05-2.82151E-05-6.26559E-06-6.51248E-19 1.49546E-18
 -1      3958 9.66973E-05-3.07784E-05-2.82349E-05-5.94092E-06-8.68738E-20 1.27275E-18
 -1      3959 9.71889E-05-3.19115E-05-2.80224E-05-7.54102E-06-3.44160E-19 1.13119E-18
 -1      3960 1.13611E-04-4.43438E-05-2.96552E-05-4.67223E-06-5.91054E-20 2.00150E-19
 -1      3961 1.08853E-04-4.13083E-05-2.89576E-05-5.73657E-06 2.08694E-19 7.48531E-19
 -1      3962 1.06562E-04-3.95721E-05-2.86219E-05-6.71185E-06-4.46843E-21 7.23308E-19
 -1      3963 9.47576E-05-2.28423E-05-3.08269E-05-8.06428E-07 5.55293E-19 3.78037E-19
 -1      3964 9.48814E-05-2.31313E-05-3.07580E-05-1.10679E-06 4.28543E-19 3.44876E-19
 -1      3965 9.52588E-05-2.39409E-05-3.05538E-05-7.92083E-07 2.91972E-19 4.06850E-19
 -1      3966 9.52360E-05-2.37768E-05-3.06072E-05-4.99195E-07 4.90886E-19 5.16296E-19
 -1      3967 1.14503E-04-4.53112E-05-2.96581E-05 6.21302E-06-2.61379E-18-7.10741E-19
 -1      3968 1.15109E-04-4.72227E-05-2.91700E-05 1.02971E-05-2.42450E-18-2.61478E-19
 -1      3969 1.10819E-04-4.52833E-05-2.80704E-05 1.42414E-05-2.44291E-18-5.70803E-19
 -1      3970 1.09895E-04-4.16108E-05-2.91798E-05 4.88747E-06-1.75699E-18 5.04353E-19
 -1      3971 1.12156E-04-4.28430E-05-2.97375E-05 3.21609E-06-1.78635E-18-3.16053E-19
 -1      3972 1.13461E-04-4.42424E-05-2.97205E-05 4.87034E-06-2.19410E-18-1.24038E-18
 -1      3973 1.07945E-04-4.12388E-05-2.86462E-05 8.11511E-06-2.23112E-18-1.24690E-18
 -1      3974 9.77311E-05-3.18481E-05-2.82093E-05 6.36247E-06 8.90884E-19-8.01793E-19
 -1      3975 9.90679E-05-3.31694E-05-2.82272E-05 6.59780E-06 1.04719E-18-4.58840E-19
 -1      3976 9.58222E-05-2.98103E-05-2.82785E-05 5.36829E-06 3.45929E-18-1.49557E-18
 -1      3977 9.67176E-05-3.07506E-05-2.82536E-05 5.75077E-06 1.85305E-18-1.21074E-18
 -1      3978 9.61844E-05-3.07804E-05-2.80683E-05 6.95894E-06 1.96620E-18-2.25011E-18
 -1      3979 9.47112E-05-2.84805E-05-2.83805E-05 4.33510E-06 1.33537E-18-7.93398E-20
 -1      3980 9.52589E-05-2.90912E-05-2.83412E-05 4.74868E-06 2.42155E-18-5.30487E-19
 -1      3981 9.46627E-05-2.89297E-05-2.81952E-05 5.57125E-06 2.37447E-18-9.68961E-19
 -1      3982 9.41536E-05-2.77007E-05-2.84804E-05 3.39902E-06 6.47915E-19 1.26330E-18
 -1      3983 9.44515E-05-2.80564E-05-2.84415E-05 3.78447E-06 7.41944E-19 1.89509E-19
 -1      3984 9.38796E-05-2.78026E-05-2.83323E-05 4.30855E-06 8.63899E-19 6.36014E-19
 -1      3985 9.39536E-05-2.73149E-05-2.85622E-05 2.61091E-06 5.90056E-19 2.11220E-18
 -1      3986 9.40843E-05-2.74887E-05-2.85307E-05 2.94388E-06 1.17499E-18 2.15317E-18
 -1      3987 9.35777E-05-2.72048E-05-2.84523E-05 3.25399E-06 5.83119E-19 1.37724E-18
 -1      3988 9.39674E-05-2.71919E-05-2.86217E-05 1.97545E-06 9.02813E-19 1.87637E-18
 -1      3989 9.39943E-05-2.72448E-05-2.85994E-05 2.25064E-06 4.58230E-19 2.13153E-18
 -1      3990 9.35662E-05-2.69665E-05-2.85454E-05 2.41691E-06 5.09601E-19 1.98299E-18
 -1      3991 9.40963E-05-2.72313E-05-2.86600E-05 1.47700E-06 2.46759E-19 1.51821E-18
 -1      3992 9.40641E-05-2.72100E-05-2.86466E-05 1.69808E-06 4.66108E-19 2.36482E-18
 -1      3993 9.37138E-05-2.69555E-05-2.86110E-05 1.77331E-06 3.87648E-19 1.81140E-18
 -1      3994 9.42745E-05-2.73588E-05-2.86808E-05 1.09457E-06-7.31781E-20 1.78390E-18
 -1      3995 9.42151E-05-2.72991E-05-2.86747E-05 1.26650E-06 1.26392E-19 1.07559E-18
 -1      3996 9.39334E-05-2.70759E-05-2.86526E-05 1.28912E-06 3.00207E-19 1.89932E-18
 -1      3997 9.55898E-05-2.51213E-05-3.02127E-05 7.12188E-07 3.34522E-19 1.86149E-19
 -1      3998 9.50956E-05-2.36552E-05-3.06120E-05 1.63279E-06 2.12294E-19 5.01264E-20
 -1      3999 1.11700E-04-4.43241E-05-2.89987E-05-8.54737E-06 1.15928E-19 2.24411E-19
 -1      4000 1.03961E-04-3.76541E-05-2.84136E-05-6.98727E-06-2.74747E-19 8.42021E-19
 -1      4001 1.02028E-04-3.59533E-05-2.82612E-05-7.25349E-06-2.27911E-19 6.94016E-19
 -1      4002 1.04345E-04-3.87379E-05-2.82230E-05-8.99191E-06 1.47476E-19 3.46645E-19
 -1      4003 9.45510E-05-2.76203E-05-2.86838E-05 1.79023E-07-1.00808E-18 4.12548E-18
 -1      4004 9.44748E-05-2.75447E-05-2.86848E-05 2.78339E-07-5.51471E-19 3.01546E-18
 -1      4005 9.43694E-05-2.74403E-05-2.86844E-05 3.47348E-07-9.64413E-20 2.12542E-18
 -1      4006 9.45310E-05-2.76000E-05-2.86858E-05 9.18345E-08-9.06141E-19 3.05754E-18
 -1      4007 8.16948E-05-1.94444E-05-2.67447E-05 4.89284E-06 1.59389E-19 2.36500E-18
 -1      4008 8.37136E-05-2.01971E-05-2.72099E-05 3.62915E-06-6.38368E-20 1.48693E-18
 -1      4009 9.60468E-05-2.78505E-05-2.92281E-05-1.37257E-06 1.03017E-19 5.88243E-19
 -1      4010 9.60960E-05-2.76527E-05-2.93297E-05-1.12513E-06 2.36385E-19 4.82449E-19
 -1      4011 9.61391E-05-2.73520E-05-2.94800E-05-8.80058E-07 3.24932E-19 3.82380E-19
 -1      4012 9.60322E-05-2.77927E-05-2.92458E-05-1.32272E-06-5.64201E-20 5.34781E-19
 -1      4013 1.19301E-04-4.31390E-05-3.26368E-05-4.47947E-06-8.88471E-19-9.73681E-19
 -1      4014 9.49671E-05-2.33525E-05-3.06893E-05 1.38172E-06 1.89100E-19 1.73850E-19
 -1      4015 7.30687E-05-1.87166E-05-2.32447E-05-1.56385E-05-2.00277E-19 1.49167E-18
 -1      4016 9.49155E-05-2.32233E-05-3.07325E-05 1.08614E-06 3.11567E-19 3.34154E-19
 -1      4017 8.49461E-05-2.07818E-05-2.75499E-05 2.44185E-06-3.18570E-19 1.40757E-18
 -1      4018 8.64859E-05-2.15180E-05-2.78390E-05 1.67306E-06-3.70486E-19 4.67255E-19
 -1      4019 8.74614E-05-2.23448E-05-2.78799E-05 2.52128E-06-9.24389E-20 2.93666E-18
 -1      4020 9.56689E-05-2.51476E-05-3.02222E-05 5.04206E-07 1.54799E-19 1.70536E-19
 -1      4021 9.55239E-05-2.82596E-05-2.88229E-05-2.44917E-06-1.11226E-19 3.94140E-19
 -1      4022 9.55652E-05-2.82149E-05-2.88646E-05-2.28316E-06-2.90345E-19 3.09402E-19
 -1      4023 9.53360E-05-2.81285E-05-2.88074E-05-2.46171E-06 1.25342E-19 4.36452E-19
 -1      4024 7.76128E-05-1.82422E-05-2.54767E-05 8.71715E-06-4.05703E-19 2.39605E-18
 -1      4025 8.02727E-05-1.90141E-05-2.62290E-05 6.65686E-06-4.60822E-20 1.67491E-18
 -1      4026 8.26415E-05-2.07494E-05-2.64962E-05 7.92356E-06-4.43633E-19 2.71272E-18
 -1      4027 1.13522E-04-2.11117E-05-3.97205E-05-1.14577E-05-1.09471E-18 7.78542E-19
 -1      4028 1.00708E-04-3.46946E-05-2.82424E-05 7.02068E-06 2.63040E-19 1.01619E-21
 -1      4029 1.02525E-04-3.63560E-05-2.83544E-05 6.91128E-06-7.02293E-19 6.12186E-19
 -1      4030 1.02744E-04-3.72207E-05-2.81344E-05 8.99659E-06-6.40933E-19-1.06759E-18
 -1      4031 9.87769E-05-3.35433E-05-2.80088E-05 8.26400E-06 5.05636E-19-1.15878E-18
 -1      4032 9.52981E-05-2.40003E-05-3.05470E-05 7.22691E-07 2.98536E-19 1.55918E-19
 -1      4033 9.56680E-05-2.50470E-05-3.02720E-05 2.56846E-07 2.28552E-19 2.27037E-19
 -1      4034 1.07083E-04-4.35572E-05-2.72673E-05 1.73462E-05-1.99249E-18-4.38214E-19
 -1      4035 1.01266E-04-3.97529E-05-2.63961E-05 1.94541E-05-1.55578E-18-2.26405E-19
 -1      4036 1.08927E-04-4.32710E-05-2.80999E-05 1.28492E-05-2.42521E-18-1.10663E-18
 -1      4037 8.05953E-05-2.55283E-05-2.36578E-05-2.12065E-05 4.46889E-19 1.43378E-18
 -1      4038 8.53657E-05-2.95435E-05-2.38290E-05-2.35685E-05 4.34660E-19 1.14565E-18
 -1      4039 9.11191E-05-3.23797E-05-2.50826E-05-2.09625E-05 3.03043E-19 4.44917E-19
 -1      4040 9.04143E-05-3.23922E-05-2.47640E-05 2.23153E-05-5.26689E-19 4.30207E-19
 -1      4041 8.32424E-05-2.84761E-05-2.33131E-05 2.48612E-05 2.24371E-19 5.87788E-19
 -1      4042 7.72630E-05-2.30194E-05-2.32497E-05 2.03798E-05 8.08625E-19-1.99443E-19
 -1      4043 9.56305E-05-2.91534E-05-2.85063E-05-4.09868E-06-1.01359E-19 6.22878E-19
 -1      4044 9.59877E-05-2.59661E-05-3.00057E-05 1.20816E-09 1.58004E-19 2.01037E-19
 -1      4045 9.56633E-05-2.49631E-05-3.03013E-05 1.54338E-07 2.77432E-19 2.15441E-19
 -1      4046 9.55057E-05-2.98973E-05-2.81478E-05-6.19808E-06-1.63163E-19 2.55546E-19
 -1      4047 9.60808E-05-3.00015E-05-2.83018E-05-5.33933E-06 3.82525E-19 7.05435E-19
 -1      4048 9.54991E-05-2.93428E-05-2.83462E-05-4.96039E-06 4.11695E-19 2.67336E-19
 -1      4049 7.83235E-05-2.18708E-05-2.40628E-05-1.68687E-05-7.28746E-21 1.30108E-18
 -1      4050 9.49079E-05-2.82755E-05-2.85445E-05-3.60037E-06-4.52217E-19 4.46244E-19
 -1      4051 9.48093E-05-2.80850E-05-2.85974E-05-3.28571E-06-1.06993E-19 4.96659E-19
 -1      4052 1.00045E-04-3.48880E-05-2.79981E-05-8.68379E-06 1.46085E-19 6.51612E-19
 -1      4053 9.43151E-05-2.73497E-05-2.86999E-05-1.66142E-07 1.51040E-20 3.05946E-18
 -1      4054 9.43947E-05-2.74392E-05-2.86970E-05-1.41653E-07-3.20382E-19 2.08006E-18
 -1      4055 9.43841E-05-2.74311E-05-2.86922E-05-3.14178E-08-1.84740E-18 3.01650E-18
 -1      4056 1.11556E-04-2.46299E-05-3.72420E-05-1.12487E-05-1.32035E-18 8.38980E-19
 -1      4057 9.82681E-05-3.69279E-05-2.62914E-05-1.84003E-05-2.29673E-20-4.55575E-19
 -1      4058 1.02711E-04-4.02603E-05-2.68882E-05-1.73743E-05 2.31751E-19 3.14064E-20
 -1      4059 1.06562E-04-4.17793E-05-2.76588E-05-1.38309E-05 3.14997E-19 6.56465E-19
 -1      4060 9.60986E-05-2.65054E-05-2.98297E-05-3.32600E-07 3.36723E-19 1.61586E-19
 -1      4061 1.04682E-04-3.96412E-05-2.78067E-05-1.20795E-05 3.45502E-19 5.63135E-19
 -1      4062 7.20394E-05-1.68446E-05-2.37131E-05 1.26441E-05 3.24169E-19 1.27539E-18
 -1      4063 9.55084E-05-2.45401E-05-3.04265E-05-4.54641E-08 4.16278E-19 2.65333E-19
 -1      4064 9.55053E-05-2.45288E-05-3.04275E-05-1.99476E-07 3.58684E-19 3.88199E-19
 -1      4065 9.44943E-05-2.77542E-05-2.86093E-05-3.02565E-06 3.41255E-20 3.29307E-19
 -1      4066 9.49117E-05-2.80053E-05-2.86650E-05-2.92755E-06 1.37065E-19 4.30556E-19
 -1      4067 9.49388E-05-2.79364E-05-2.87182E-05-2.66349E-06 3.18172E-19 5.11625E-19
 -1      4068 9.55667E-05-2.80824E-05-2.89244E-05-2.06545E-06-2.07035E-19 6.30520E-19
 -1      4069 9.43872E-05-2.74577E-05-2.86859E-05 8.13696E-07 8.16439E-19 1.25177E-18
 -1      4070 9.43275E-05-2.73904E-05-2.86847E-05 9.35443E-07 2.27123E-19 2.32025E-18
 -1      4071 9.40999E-05-2.71974E-05-2.86721E-05 9.23668E-07-4.68271E-19 1.20180E-18
 -1      4072 9.42271E-05-2.73045E-05-2.86799E-05 6.34942E-07 1.14012E-18 1.14712E-18
 -1      4073 9.44479E-05-2.75109E-05-2.86878E-05 9.01231E-08-1.36695E-18 3.02254E-18
 -1      4074 9.60012E-05-2.77720E-05-2.92410E-05-1.24475E-06-8.26693E-20 4.59471E-19
 -1      4075 9.60887E-05-2.76188E-05-2.93446E-05-1.03842E-06-5.43427E-21 3.89707E-19
 -1      4076 9.56030E-05-2.47705E-05-3.03656E-05 1.42674E-07 3.70110E-19 2.15673E-19
 -1      4077 9.55645E-05-2.46703E-05-3.03886E-05-2.17807E-09 3.96398E-19 7.51219E-20
 -1      4078 9.58336E-05-2.53346E-05-3.02040E-05-5.22862E-08 2.16457E-19 2.93027E-19
 -1      4079 9.59393E-05-2.56780E-05-3.01023E-05-5.56438E-08 2.76882E-19 5.78065E-20
 -1      4080 1.11678E-04-4.39274E-05-2.89463E-05 8.35455E-06-2.95288E-18-4.91858E-19
 -1      4081 8.52661E-05-2.14212E-05-2.73288E-05 4.65320E-06-5.58579E-19 2.69834E-18
 -1      4082 9.57351E-05-2.79231E-05-2.90597E-05-1.59170E-06-2.33292E-19 6.01657E-19
 -1      4083 9.58562E-05-2.78628E-05-2.91408E-05-1.40604E-06-9.96129E-20 5.86485E-19
 -1      4084 9.59003E-05-2.76908E-05-2.92317E-05-1.13249E-06-1.37267E-19 3.20617E-19
 -1      4085 7.63322E-05-2.06733E-05-2.37822E-05 1.69296E-05 9.74991E-19 1.16264E-18
 -1      4086 7.75826E-05-1.91300E-05-2.50136E-05 1.13569E-05 7.08514E-19 1.85341E-18
 -1      4087 8.11293E-05-2.16511E-05-2.55253E-05 1.25706E-05 7.92222E-19 1.98097E-18
 -1      4088 8.23869E-05-2.47322E-05-2.47440E-05 1.79400E-05 1.52559E-18-4.29667E-19
 -1      4089 9.55108E-05-2.46585E-05-3.03735E-05-5.00494E-07 3.41578E-19 4.66586E-19
 -1      4090 9.55958E-05-2.48295E-05-3.03308E-05-3.25246E-07 3.62671E-19 5.01273E-19
 -1      4091 9.49408E-05-2.85023E-05-2.84726E-05-4.05261E-06-3.87104E-19 2.80593E-19
 -1      4092 9.44064E-05-2.80198E-05-2.84622E-05-3.86885E-06-2.67576E-19-3.74274E-20
 -1      4093 9.52367E-05-2.88860E-05-2.84205E-05-4.41428E-06 1.51148E-19 1.14337E-19
 -1      4094 9.58947E-05-2.72451E-05-2.94211E-05 3.32743E-07 1.21248E-19 3.90051E-19
 -1      4095 9.56984E-05-2.73209E-05-2.93096E-05 3.96686E-07-6.88777E-20 2.60041E-19
 -1      4096 9.54535E-05-2.73207E-05-2.91994E-05 3.62761E-07-3.40168E-19 3.34646E-19
 -1      4097 9.51294E-05-2.72329E-05-2.91039E-05 3.66579E-07-4.36361E-19 4.05324E-19
 -1      4098 9.56072E-05-2.73124E-05-2.92656E-05 7.59550E-08-1.41001E-19 4.46709E-21
 -1      4099 9.47956E-05-2.70933E-05-2.90146E-05 2.81826E-07-4.89401E-19 4.64020E-19
 -1      4100 9.43824E-05-2.68878E-05-2.89337E-05 2.18959E-07-2.99535E-19 4.79830E-19
 -1      4101 9.50294E-05-2.72030E-05-2.90638E-05-5.50107E-08-4.28092E-19 3.14407E-19
 -1      4102 9.39685E-05-2.66485E-05-2.88496E-05 6.13690E-08 1.80856E-19 6.29774E-19
 -1      4103 9.34468E-05-2.63474E-05-2.87675E-05-9.04252E-08 3.04052E-19 7.12985E-19
 -1      4104 9.42896E-05-2.68714E-05-2.88886E-05-3.14191E-07 1.11797E-19 6.56106E-19
 -1      4105 9.29592E-05-2.60364E-05-2.86775E-05-3.53480E-07 8.59968E-21 7.44494E-19
 -1      4106 9.23160E-05-2.56671E-05-2.85802E-05-6.31717E-07-1.59667E-19 5.20533E-19
 -1      4107 9.33988E-05-2.63874E-05-2.87136E-05-7.66605E-07 1.71533E-19 2.21145E-19
 -1      4108 9.17764E-05-2.53231E-05-2.84714E-05-1.05334E-06-2.02337E-19 6.07245E-19
 -1      4109 9.09927E-05-2.49135E-05-2.83425E-05-1.51924E-06-1.10332E-19 6.45939E-19
 -1      4110 9.23804E-05-2.58395E-05-2.85143E-05-1.49382E-06-5.53129E-20 5.82212E-19
 -1      4111 9.04180E-05-2.45844E-05-2.82000E-05-2.16305E-06 1.43825E-19 8.65612E-19
 -1      4112 8.94838E-05-2.41819E-05-2.80177E-05-2.90365E-06 7.16959E-20 7.81786E-19
 -1      4113 9.12635E-05-2.53084E-05-2.82653E-05-2.60980E-06 8.10250E-20 1.05099E-18
 -1      4114 8.89206E-05-2.39431E-05-2.78238E-05-3.85725E-06-3.65897E-19 7.92082E-19
 -1      4115 8.78356E-05-2.36232E-05-2.75602E-05-4.98925E-06-1.57040E-19 6.91720E-19
 -1      4116 9.01165E-05-2.49424E-05-2.79359E-05-4.26934E-06-1.62449E-19 5.84658E-19
 -1      4117 8.73745E-05-2.35936E-05-2.72956E-05-6.35556E-06-6.30638E-20 8.25044E-19
 -1      4118 8.61755E-05-2.34826E-05-2.69151E-05-8.03841E-06-3.04062E-19 5.10930E-19
 -1      4119 8.90682E-05-2.49524E-05-2.74930E-05-6.65957E-06-1.80422E-19 7.11499E-20
 -1      4120 8.60380E-05-2.39341E-05-2.65440E-05-9.99418E-06-1.50532E-19 6.52500E-19
 -1      4121 8.47651E-05-2.41637E-05-2.59476E-05-1.27437E-05-3.07564E-19 8.27356E-19
 -1      4122 8.83443E-05-2.56901E-05-2.68870E-05-1.00532E-05-9.47221E-20-7.14883E-20
 -1      4123 9.33149E-05-2.77195E-05-2.81194E-05 5.49445E-06 9.18584E-19 2.11861E-19
 -1      4124 9.39061E-05-2.83997E-05-2.80419E-05 6.20883E-06 1.91364E-18-9.28545E-19
 -1      4125 9.43624E-05-2.74242E-05-2.86891E-05 8.73230E-08-2.11376E-18 3.43756E-18
 -1      4126 9.93435E-05-3.46617E-05-2.76926E-05-1.04376E-05 1.28266E-19 1.93732E-19
 -1      4127 9.75254E-05-3.28407E-05-2.76779E-05-9.83232E-06 1.51810E-19 6.45439E-19
 -1      4128 9.05882E-05-2.43940E-05-2.83918E-05 1.10098E-06-3.82983E-20 2.49791E-18
 -1      4129 9.12750E-05-2.48085E-05-2.84808E-05 7.51219E-07 4.24962E-19 3.09096E-18
 -1      4130 9.17109E-05-2.51435E-05-2.85454E-05 4.47313E-07-1.47311E-19 3.56840E-18
 -1      4131 9.22179E-05-2.54948E-05-2.85943E-05 2.65997E-07-1.04803E-18 3.24350E-18
 -1      4132 9.16759E-05-2.51790E-05-2.84854E-05 1.11474E-06-5.70677E-20 1.70231E-18
 -1      4133 9.25835E-05-2.57998E-05-2.86327E-05 8.52381E-08-1.58236E-18 3.56967E-18
 -1      4134 9.29721E-05-2.61028E-05-2.86586E-05-2.32058E-09-1.92311E-18 2.84479E-18
 -1      4135 9.24819E-05-2.57455E-05-2.85897E-05 5.70217E-07-8.50582E-19 2.05784E-18
 -1      4136 9.32691E-05-2.63686E-05-2.86792E-05-1.01906E-07-1.79611E-18 2.74770E-18
 -1      4137 9.35638E-05-2.66219E-05-2.86904E-05-1.33241E-07-1.81278E-18 2.83309E-18
 -1      4138 9.31429E-05-2.62710E-05-2.86502E-05 2.44401E-07-1.35248E-18 2.29316E-18
 -1      4139 9.38001E-05-2.68453E-05-2.86993E-05-1.82590E-07-1.95308E-18 3.92883E-18
 -1      4140 9.40187E-05-2.70534E-05-2.87013E-05-1.83751E-07-1.97088E-18 3.53098E-18
 -1      4141 9.36759E-05-2.67365E-05-2.86814E-05 6.10680E-08-1.47181E-18 3.75255E-18
 -1      4142 9.41256E-05-2.71553E-05-2.87025E-05-1.91969E-07-1.33105E-18 4.06676E-18
 -1      4143 9.42204E-05-2.72573E-05-2.87002E-05-1.62506E-07 1.02958E-19 4.28774E-18
 -1      4144 9.42081E-05-2.72501E-05-2.86937E-05-3.24659E-08-2.31212E-18 6.81828E-18
 -1      4145 9.40121E-05-2.70543E-05-2.86918E-05-1.13055E-08-1.39224E-18 6.48169E-18
 -1      4146 9.50122E-05-3.45730E-05-2.59311E-05-1.90645E-05 1.84776E-20-1.68579E-19
 -1      4147 9.78471E-05-3.54412E-05-2.67168E-05-1.59386E-05 2.03420E-19-2.13611E-19
 -1      4148 9.08011E-05-3.10221E-05-2.55620E-05-1.86251E-05 3.86975E-19 6.69273E-19
 -1      4149 9.63684E-05-3.14495E-05-2.77867E-05-8.71151E-06-3.92890E-20 6.98674E-19
 -1      4150 9.52213E-05-3.02180E-05-2.78474E-05-7.93632E-06-2.31475E-19 5.05406E-19
 -1      4151 9.51784E-05-3.12525E-05-2.74728E-05-1.04201E-05 1.90483E-19 1.60240E-19
 -1      4152 8.41913E-05-2.26217E-05-2.64072E-05 1.00786E-05 6.18329E-19 2.05778E-18
 -1      4153 8.55335E-05-2.26593E-05-2.68926E-05 7.96963E-06 1.57062E-19 2.34508E-18
 -1      4154 9.55813E-05-2.47840E-05-3.03484E-05-2.15908E-07 3.29986E-19 4.41052E-19
 -1      4155 8.34224E-05-2.51552E-05-2.50275E-05-1.68094E-05 1.37329E-19 1.24773E-18
 -1      4156 9.60821E-05-2.68071E-05-2.96904E-05 2.11080E-07 1.72863E-19 2.87306E-19
 -1      4157 9.60132E-05-2.70735E-05-2.95501E-05 3.25045E-07 1.93340E-19 4.30685E-19
 -1      4158 9.59740E-05-2.71144E-05-2.95067E-05 1.07794E-07 1.52735E-19 3.02520E-19
 -1      4159 1.05499E-04-3.97115E-05-2.81131E-05 1.04090E-05-1.38904E-18-1.61452E-18
 -1      4160 1.08202E-04-4.18293E-05-2.84781E-05 9.54428E-06-2.03252E-18-7.16355E-19
 -1      4161 1.08693E-04-4.26644E-05-2.83513E-05 1.10147E-05-2.03094E-18-9.06527E-19
 -1      4162 9.29471E-05-2.69428E-05-2.82975E-05 4.05681E-06 4.58514E-19 6.03305E-19
 -1      4163 9.32254E-05-2.73059E-05-2.82268E-05 4.65394E-06 9.74178E-19 3.40536E-19
 -1      4164 9.22945E-05-2.68003E-05-2.80784E-05 5.24414E-06 6.33074E-19 1.12580E-18
 -1      4165 9.43215E-05-2.91761E-05-2.79191E-05 7.24387E-06 2.38508E-18-2.20038E-18
 -1      4166 9.53699E-05-3.02926E-05-2.78528E-05 8.02304E-06 1.65379E-18-2.45260E-18
 -1      4167 9.27893E-05-2.79189E-05-2.78289E-05 7.21483E-06 1.35744E-18-1.19292E-18
 -1      4168 9.29554E-05-2.66225E-05-2.84386E-05 2.93770E-06-3.93783E-20 1.21488E-18
 -1      4169 9.30366E-05-2.67713E-05-2.83820E-05 3.41028E-06 1.22929E-19 9.90455E-19
 -1      4170 9.22926E-05-2.62997E-05-2.82818E-05 3.72206E-06 4.33200E-19 1.60058E-18
 -1      4171 9.31643E-05-2.65891E-05-2.85413E-05 2.09730E-06 1.91117E-19 1.77463E-18
 -1      4172 9.31313E-05-2.66032E-05-2.85002E-05 2.45912E-06 4.62483E-19 9.54085E-19
 -1      4173 9.25523E-05-2.61927E-05-2.84346E-05 2.59372E-06 2.64592E-19 1.10211E-18
 -1      4174 9.34632E-05-2.67228E-05-2.86106E-05 1.48128E-06 2.55182E-19 9.83084E-19
 -1      4175 9.33711E-05-2.66588E-05-2.85832E-05 1.75205E-06-5.33049E-20 1.23746E-18
 -1      4176 9.29280E-05-2.63143E-05-2.85419E-05 1.78088E-06 4.22176E-19 8.72708E-19
 -1      4177 9.37824E-05-2.69393E-05-2.86529E-05 1.03802E-06 1.62744E-19 1.18422E-18
 -1      4178 9.36690E-05-2.68381E-05-2.86368E-05 1.23629E-06 5.44113E-19 1.57008E-18
 -1      4179 9.33322E-05-2.65554E-05-2.86121E-05 1.20863E-06-6.19181E-20-2.82438E-19
 -1      4180 9.43021E-05-2.73653E-05-2.86846E-05 2.61999E-07-1.25233E-18 1.98965E-18
 -1      4181 9.42177E-05-2.72992E-05-2.86824E-05 4.20710E-07 2.82583E-19 6.10524E-19
 -1      4182 9.41470E-05-2.72238E-05-2.86794E-05 5.45521E-07 7.37219E-20 2.11335E-19
 -1      4183 9.42101E-05-2.72735E-05-2.86878E-05 1.42351E-07-2.15809E-18 2.75569E-18
 -1      4184 9.61712E-05-2.70151E-05-2.96372E-05-5.57063E-07 3.23840E-19 2.07658E-19
 -1      4185 9.61013E-05-2.64735E-05-2.98402E-05-2.95784E-07 1.80117E-19-4.83516E-21
 -1      4186 1.01814E-04-3.72177E-05-2.76059E-05-1.20749E-05 3.75897E-19 5.32722E-19
 -1      4187 9.61186E-05-2.73093E-05-2.94888E-05-7.37998E-07-4.60208E-20 3.86845E-19
 -1      4188 9.61607E-05-2.73297E-05-2.95008E-05-8.12382E-07 2.21029E-19 2.20908E-19
 -1      4189 9.58511E-05-2.54491E-05-3.01652E-05-5.74889E-08 2.45266E-19 3.72732E-19
 -1      4190 9.51188E-05-2.79365E-05-2.87848E-05-2.39214E-06 2.29744E-19 4.06793E-19
 -1      4191 9.52136E-05-2.79232E-05-2.88416E-05-2.17050E-06-3.89436E-20 3.50321E-19
 -1      4192 9.47906E-05-2.77219E-05-2.87488E-05-2.37483E-06 4.22463E-20 3.22415E-19
 -1      4193 8.92506E-05-2.36415E-05-2.81500E-05 2.15673E-06 5.65066E-19 2.45916E-18
 -1      4194 9.00852E-05-2.40543E-05-2.82886E-05 1.59285E-06 2.28099E-19 2.67006E-18
 -1      4195 9.07266E-05-2.46214E-05-2.83181E-05 1.98870E-06 6.61650E-19 1.58884E-18
 -1      4196 8.59031E-05-2.25228E-05-2.72150E-05 6.35107E-06-5.84020E-19 2.48124E-18
 -1      4197 8.71266E-05-2.27891E-05-2.75426E-05 4.97421E-06-2.80113E-19 3.06191E-18
 -1      4198 8.75077E-05-2.42082E-05-2.71468E-05 8.29129E-06 5.22352E-20 2.13110E-18
 -1      4199 9.54180E-05-2.79437E-05-2.89124E-05-1.95956E-06-1.20025E-19 2.43247E-19
 -1      4200 9.55424E-05-2.79319E-05-2.89780E-05-1.76537E-06-2.00017E-19 4.39765E-19
 -1      4201 9.55641E-05-2.77899E-05-2.90470E-05-1.47427E-06-3.69054E-20 2.19099E-19
 -1      4202 9.51715E-05-2.77671E-05-2.88905E-05-1.87288E-06-5.10238E-20 4.61052E-20
 -1      4203 8.76587E-05-2.29564E-05-2.77725E-05 3.83732E-06-6.74756E-19 2.44883E-18
 -1      4204 8.86893E-05-2.33384E-05-2.79892E-05 2.93780E-06-2.33967E-19 2.15878E-18
 -1      4205 8.85154E-05-2.39279E-05-2.76785E-05 5.39599E-06-7.53923E-19 1.34044E-18
 -1      4206 9.59951E-05-2.59969E-05-3.00018E-05 1.36880E-08 1.83943E-19 3.11813E-19
 -1      4207 9.60695E-05-2.64814E-05-2.98269E-05 1.73186E-07 1.76348E-19 2.77645E-19
 -1      4208 9.60755E-05-2.65877E-05-2.97744E-05 6.38520E-08 1.44938E-19 2.51443E-19
 -1      4209 9.59263E-05-2.57439E-05-3.00740E-05-2.08072E-08 1.05091E-19 4.08254E-19
 -1      4210 9.83445E-05-3.50289E-05-2.71977E-05-1.35355E-05 2.00225E-19 4.15417E-19
 -1      4211 9.55943E-05-3.53651E-05-2.57763E-05 2.03810E-05-4.80096E-19 7.64149E-20
 -1      4212 8.91121E-05-3.02210E-05-2.52853E-05 1.93617E-05 9.88941E-19-1.36356E-19
 -1      4213 9.47210E-05-2.93599E-05-2.79783E-05-6.87591E-06-5.27848E-19 3.22559E-19
 -1      4214 9.40868E-05-2.86089E-05-2.80628E-05-6.14148E-06-2.14270E-20 1.80975E-19
 -1      4215 9.35517E-05-2.89199E-05-2.77468E-05-7.93875E-06-2.40647E-19-1.55122E-19
 -1      4216 9.46710E-05-2.86685E-05-2.83051E-05-4.93480E-06-1.88473E-21-4.05678E-19
 -1      4217 1.05248E-04-4.06712E-05-2.76487E-05 1.37006E-05-1.79233E-18-1.15532E-18
 -1      4218 9.09010E-05-2.95282E-05-2.63802E-05-1.45835E-05 2.79100E-19-6.07481E-20
 -1      4219 8.74492E-05-2.73013E-05-2.57650E-05-1.54418E-05-1.02670E-20 7.37522E-19
 -1      4220 9.41662E-05-2.99730E-05-2.75597E-05 9.61164E-06 1.06149E-18-3.48578E-18
 -1      4221 9.63203E-05-3.15639E-05-2.77360E-05 9.16595E-06 6.06569E-19-2.45853E-18
 -1      4222 9.79299E-05-3.32250E-05-2.77148E-05 9.88587E-06-4.00554E-20-2.53608E-18
 -1      4223 9.61555E-05-2.68272E-05-2.97081E-05-3.75516E-07 4.20841E-21 1.99507E-19
 -1      4224 9.60825E-05-2.63318E-05-2.98989E-05-1.69605E-07 1.62655E-19 6.16234E-20
 -1      4225 9.60243E-05-2.61146E-05-2.99600E-05-1.21246E-07 1.84305E-19 2.02336E-19
 -1      4226 1.00123E-04-3.52143E-05-2.77576E-05 1.04526E-05-1.09323E-19-2.33956E-18
 -1      4227 1.02470E-04-3.74460E-05-2.78678E-05 1.07227E-05-8.63321E-19-2.22262E-18
 -1      4228 1.02378E-04-3.78066E-05-2.76823E-05 1.20512E-05-5.01242E-19-2.22398E-18
 -1      4229 9.72046E-05-3.31757E-05-2.74656E-05 1.14317E-05 2.05330E-19-3.21187E-18
 -1      4230 9.56079E-05-3.26891E-05-2.68783E-05-1.39248E-05 1.84114E-19-1.27353E-19
 -1      4231 9.96711E-05-3.71490E-05-2.67317E-05 1.68161E-05-2.92832E-19-5.60649E-19
 -1      4232 8.50063E-05-2.38681E-05-2.61678E-05 1.19930E-05 8.12548E-19 6.67892E-19
 -1      4233 8.78107E-05-2.58390E-05-2.66140E-05 1.18109E-05 1.25367E-18-6.15705E-19
 -1      4234 8.52356E-05-2.50306E-05-2.58167E-05 1.44007E-05 1.63451E-18-5.95032E-19
 -1      4235 8.96444E-05-2.41506E-05-2.80591E-05 3.35673E-06 3.70796E-19 1.48441E-18
 -1      4236 9.40477E-05-2.73887E-05-2.85541E-05-2.97510E-06-1.48729E-19-2.52621E-19
 -1      4237 9.41517E-05-2.73594E-05-2.86275E-05-2.60417E-06 7.67218E-20-1.35035E-19
 -1      4238 9.57972E-05-2.76512E-05-2.92047E-05-9.82690E-07 4.96114E-20 2.65945E-20
 -1      4239 9.59379E-05-2.75600E-05-2.93081E-05-8.14101E-07-5.42042E-20 1.50880E-19
 -1      4240 9.38370E-05-2.75686E-05-2.83812E-05-3.97274E-06-8.96522E-20-5.64471E-19
 -1      4241 9.37986E-05-2.74051E-05-2.84613E-05-3.47706E-06-1.79516E-19-5.11221E-19
 -1      4242 9.34098E-05-2.69781E-05-2.84777E-05-3.03873E-06 8.25238E-20-2.89588E-19
 -1      4243 9.60623E-05-2.74185E-05-2.94173E-05-6.97505E-07-1.69138E-19 2.24325E-19
 -1      4244 9.61333E-05-2.71360E-05-2.95739E-05-4.75379E-07-9.78865E-20 1.52628E-19
 -1      4245 9.61091E-05-2.69675E-05-2.96292E-05-3.20584E-07-8.76906E-20 1.45564E-19
 -1      4246 9.59534E-05-2.73772E-05-2.93865E-05-5.41048E-07 6.07120E-21 7.89579E-20
 -1      4247 9.59752E-05-2.58968E-05-3.00395E-05-1.67982E-08 7.73168E-20 2.97891E-19
 -1      4248 9.39918E-05-2.71012E-05-2.86721E-05 6.84611E-07-3.03839E-19 7.29398E-19
 -1      4249 9.39408E-05-2.70440E-05-2.86666E-05 8.42325E-07-2.75894E-19 1.12704E-18
 -1      4250 9.36876E-05-2.68180E-05-2.86535E-05 7.82008E-07-2.12392E-20-1.77177E-20
 -1      4251 9.39998E-05-2.70802E-05-2.86757E-05 4.59204E-07 7.90379E-21 5.53140E-19
 -1      4252 9.60799E-05-2.70796E-05-2.95718E-05-1.61144E-07 5.40881E-20 2.75855E-19
 -1      4253 9.59610E-05-2.72756E-05-2.94410E-05-1.66510E-07-2.08555E-20 1.83505E-19
 -1      4254 9.23810E-05-2.95558E-05-2.69152E-05-1.21981E-05 2.06395E-19 6.35899E-20
 -1      4255 9.52882E-05-2.73725E-05-2.91062E-05-3.54290E-07-2.43609E-19 1.30154E-19
 -1      4256 9.49525E-05-2.72672E-05-2.90148E-05-4.46507E-07-2.31371E-19 4.39247E-19
 -1      4257 9.46461E-05-2.71383E-05-2.89280E-05-6.23509E-07-1.73362E-19 5.25092E-19
 -1      4258 9.42329E-05-2.69531E-05-2.88423E-05-7.99267E-07 1.77821E-19 3.43802E-19
 -1      4259 9.49256E-05-2.73300E-05-2.89687E-05-9.12184E-07-2.95547E-20 2.81518E-19
 -1      4260 9.38912E-05-2.67743E-05-2.87576E-05-1.05531E-06 2.92243E-19 2.15066E-19
 -1      4261 9.34099E-05-2.65351E-05-2.86662E-05-1.35666E-06 7.42253E-20 3.59607E-19
 -1      4262 9.42661E-05-2.70744E-05-2.87977E-05-1.35335E-06 9.25618E-20 2.83813E-19
 -1      4263 9.32706E-05-2.65290E-05-2.85942E-05-1.82702E-06 2.06404E-19 3.21781E-19
 -1      4264 9.27584E-05-2.63053E-05-2.84878E-05-2.28906E-06 2.72858E-19 5.54846E-19
 -1      4265 9.25040E-05-2.62261E-05-2.83881E-05-2.79448E-06 1.23785E-19 3.59370E-19
 -1      4266 9.19602E-05-2.60580E-05-2.82521E-05-3.48364E-06 7.85739E-21 3.90653E-19
 -1      4267 9.14052E-05-2.64248E-05-2.78103E-05-6.12186E-06-4.88262E-19-3.12364E-20
 -1      4268 9.10136E-05-2.66666E-05-2.75752E-05-7.51223E-06-4.23863E-19-2.07050E-19
 -1      4269 9.15134E-05-2.74186E-05-2.74137E-05-8.71882E-06 6.77577E-20-3.97397E-19
 -1      4270 9.13937E-05-2.81156E-05-2.70971E-05-1.06610E-05 3.83274E-19-4.88566E-20
 -1      4271 9.12650E-05-2.98307E-05-2.63328E-05 1.53283E-05 1.33439E-18-9.47122E-19
 -1      4272 8.68103E-05-2.72489E-05-2.54791E-05 1.69846E-05 1.79562E-18-1.16859E-18
 -1      4273 9.37668E-05-2.69511E-05-2.86415E-05-2.08251E-06 2.60176E-19 3.71818E-20
 -1      4274 9.42721E-05-2.72981E-05-2.86949E-05-2.17174E-06 1.93637E-19 5.72113E-20
 -1      4275 9.25725E-05-2.59590E-05-2.85613E-05 1.15678E-06 1.85522E-20 7.17073E-19
 -1      4276 9.29293E-05-2.61931E-05-2.86012E-05 9.26100E-07-9.72012E-20 1.25750E-18
 -1      4277 9.31469E-05-2.63680E-05-2.86290E-05 7.02807E-07-6.64967E-19 1.10078E-18
 -1      4278 9.34405E-05-2.65879E-05-2.86514E-05 5.61786E-07-1.07867E-18 1.08561E-18
 -1      4279 9.36108E-05-2.67378E-05-2.86670E-05 3.76934E-07-8.70319E-19 1.41580E-18
 -1      4280 9.38499E-05-2.69361E-05-2.86778E-05 2.96625E-07 2.76117E-19 2.38839E-18
 -1      4281 9.23502E-05-2.58062E-05-2.85165E-05 1.48397E-06 5.09166E-19 9.42100E-19
 -1      4282 9.55065E-05-2.76196E-05-2.90966E-05-1.03088E-06-4.78518E-20 1.39046E-20
 -1      4283 9.55476E-05-2.74882E-05-2.91654E-05-7.06913E-07-2.64052E-20 9.82895E-20
 -1      4284 9.61036E-05-2.64715E-05-2.98408E-05-9.84820E-08 4.18338E-20 3.98262E-19
 -1      4285 9.12601E-05-2.53056E-05-2.82845E-05 2.88318E-06 4.46039E-19 7.37049E-19
 -1      4286 9.17341E-05-2.54879E-05-2.83844E-05 2.31963E-06 4.72596E-20 7.20485E-19
 -1      4287 9.39842E-05-2.81535E-05-2.81868E-05-5.26932E-06-6.63171E-21-3.62068E-19
 -1      4288 9.37115E-05-2.77544E-05-2.82732E-05-4.64614E-06-3.05113E-19-4.94786E-19
 -1      4289 9.30360E-05-2.71049E-05-2.82691E-05-4.24787E-06-1.85100E-19-5.66389E-19
 -1      4290 9.29938E-05-2.76644E-05-2.80239E-05-5.86593E-06-4.51187E-19 1.22084E-19
 -1      4291 9.19296E-05-2.55796E-05-2.84515E-05 1.85132E-06 7.93960E-19 3.30466E-19
 -1      4292 9.02508E-05-2.56381E-05-2.77068E-05 6.49832E-06 1.98894E-19 3.42549E-19
 -1      4293 9.06405E-05-2.62381E-05-2.75556E-05 7.64171E-06 3.61465E-19-3.64830E-19
 -1      4294 9.06404E-05-2.52584E-05-2.80396E-05 4.39832E-06-1.88192E-20 8.69542E-19
 -1      4295 9.11477E-05-2.53347E-05-2.81906E-05 3.53533E-06 1.04653E-18 8.97856E-19
 -1      4296 9.07045E-05-2.55044E-05-2.79153E-05 5.28039E-06-7.38878E-20 6.35049E-19
 -1      4297 9.44657E-05-2.73486E-05-2.87675E-05-1.88258E-06 7.75397E-20 1.70292E-20
 -1      4298 9.03472E-05-2.67288E-05-2.72745E-05 9.32362E-06 9.85549E-19-1.59682E-18
 -1      4299 9.58364E-05-2.73941E-05-2.93316E-05-2.84867E-07 4.30238E-20 1.57549E-20
 -1      4300 9.55975E-05-2.74311E-05-2.92186E-05-3.31646E-07-8.13652E-20 1.85407E-20
 -1      4301 9.61075E-05-2.68063E-05-2.97051E-05-6.58021E-08 1.14704E-19 4.24857E-19
 -1      4302 9.12228E-05-2.78934E-05-2.71020E-05 1.07776E-05 6.89098E-19-1.70696E-18
 -1      4303 9.21776E-05-2.93274E-05-2.69495E-05 1.22546E-05 9.87845E-19-1.60576E-18
 -1      4304 9.18251E-05-2.61232E-05-2.81325E-05-4.18527E-06-2.28905E-19 2.48445E-19
 -1      4305 9.13100E-05-2.60987E-05-2.79535E-05-5.18164E-06-4.44306E-19 7.01922E-20
 -1      4306 9.48017E-05-2.74670E-05-2.88505E-05-1.61413E-06 4.34361E-20 5.49863E-20
 -1      4307 9.40078E-05-2.70853E-05-2.86851E-05 1.77403E-07-1.50829E-19 2.55642E-18
 -1      4308 9.49661E-05-3.21541E-05-2.68850E-05 1.39017E-05 7.62172E-19-1.88128E-18
 -1      4309 9.53095E-05-2.76055E-05-2.90118E-05-1.21192E-06-5.69767E-20-1.93272E-20
 -1      4310 1.02065E-04-3.81628E-05-2.73911E-05 1.40354E-05-6.06051E-19-1.61664E-18
 -1      4311 9.69903E-05-3.42996E-05-2.68809E-05 1.47746E-05 9.03327E-19-1.29030E-18
 -1      4312 9.50099E-05-2.75237E-05-2.89257E-05-1.39381E-06-7.16618E-21 8.19892E-20
 -1      4313 9.41163E-05-2.71840E-05-2.86871E-05 1.56542E-07-1.65029E-18 3.28907E-18
 -3
    1PSTEP                         4           1           1          
  100CL  101 1.000000000        4313                     0    1           1
 -4  ERROR       1    1
 -5  STR(%)      1    1    0    0
 -1         1 1.53531E+01
 -1         2 2.54426E+01
 -1         3 3.43164E-03
 -1         4 4.06630E-03
 -1         5 1.40388E+01
 -1         6 1.31441E+01
 -1         7 1.31441E+01
 -1         8 3.64806E+00
 -1         9 1.81339E+00
 -1        10 1.28397E+00
 -1        11 1.03816E+00
 -1        12 8.94332E-01
 -1        13 8.02834E-01
 -1        14 7.48036E-01
 -1        15 7.49484E-01
 -1        16 8.06692E-01
 -1        17 8.94918E-01
 -1        18 1.04726E+00
 -1        19 1.30056E+00
 -1        20 1.81924E+00
 -1        21 3.49389E+00
 -1        22 8.63117E+00
 -1        23 1.31441E+01
 -1        24 4.33285E+00
 -1        25 3.35701E+00
 -1        26 2.12925E+00
 -1        27 1.38368E+00
 -1        28 1.05386E+00
 -1        29 8.25940E-01
 -1        30 6.67088E-01
 -1        31 5.31876E-01
 -1        32 4.44628E-01
 -1        33 3.85637E-01
 -1        34 4.08156E-01
 -1        35 5.11872E-01
 -1        36 6.98359E-01
 -1        37 8.87043E-01
 -1        38 1.16319E+00
 -1        39 1.48646E+00
 -1        40 2.06961E+00
 -1        41 2.78657E+00
 -1        42 3.70608E+00
 -1        43 4.46587E+00
 -1        44 4.46587E+00
 -1        45 4.04363E+00
 -1        46 6.23045E+00
 -1        47 1.21948E+01
 -1        48 1.26240E+01
 -1        49 1.26240E+01
 -1        50 1.02769E+01
 -1        51 4.27124E+00
 -1        52 4.46043E+00
 -1        53 4.46043E+00
 -1        54 4.20644E+00
 -1        55 3.27135E+00
 -1        56 2.46571E+00
 -1        57 1.78497E+00
 -1        58 1.36347E+00
 -1        59 9.78717E-01
 -1        60 7.17861E-01
 -1        61 5.16436E-01
 -1        62 3.67011E-01
 -1        63 2.58557E-01
 -1        64 1.80777E-01
 -1        65 1.29110E-01
 -1        66 9.53532E-02
 -1        67 7.50826E-02
 -1        68 5.81753E-02
 -1        69 4.32423E-02
 -1        70 2.84374E-02
 -1        71 1.56585E-02
 -1        72 1.40388E+01
 -1        73 3.40859E+00
 -1        74 2.43132E+00
 -1        75 1.68270E+00
 -1        76 1.16456E+00
 -1        77 9.44362E-01
 -1        78 7.78612E-01
 -1        79 6.44982E-01
 -1        80 5.35303E-01
 -1        81 4.44211E-01
 -1        82 3.66985E-01
 -1        83 2.98347E-01
 -1        84 2.37425E-01
 -1        85 2.28831E-01
 -1        86 2.13539E-01
 -1        87 2.24338E-01
 -1        88 2.67903E-01
 -1        89 3.97598E-01
 -1        90 4.97024E-01
 -1        91 6.50782E-01
 -1        92 8.41976E-01
 -1        93 9.49408E-01
 -1        94 1.29159E+00
 -1        95 1.72547E+00
 -1        96 1.98373E+00
 -1        97 2.10030E+00
 -1        98 2.28120E+00
 -1        99 2.28120E+00
 -1       100 2.13153E+00
 -1       101 1.73578E+00
 -1       102 1.27323E+00
 -1       103 8.43493E-01
 -1       104 5.55074E-01
 -1       105 3.51406E-01
 -1       106 2.57135E-01
 -1       107 2.52001E-01
 -1       108 2.52001E-01
 -1       109 2.38683E-01
 -1       110 2.04595E-01
 -1       111 1.64690E-01
 -1       112 1.30978E-01
 -1       113 1.00466E-01
 -1       114 8.23568E-02
 -1       115 6.44702E-02
 -1       116 4.81976E-02
 -1       117 3.40080E-02
 -1       118 2.51836E-02
 -1       119 1.94919E-02
 -1       120 1.08760E-02
 -1       121 3.76385E-03
 -1       122 4.52207E-03
 -1       123 4.52207E-03
 -1       124 3.16924E-03
 -1       125 1.46459E-03
 -1       126 3.14464E-03
 -1       127 4.35069E-03
 -1       128 4.76059E-03
 -1       129 4.76059E-03
 -1       130 4.36710E-03
 -1       131 3.11127E-03
 -1       132 1.75875E-03
 -1       133 3.95648E-03
 -1       134 4.88382E-03
 -1       135 4.88382E-03
 -1       136 3.16971E-03
 -1       137 2.54426E+01
 -1       138 4.32140E+01
 -1       139 4.32140E+01
 -1       140 1.61324E+01
 -1       141 1.28508E+01
 -1       142 1.32726E+01
 -1       143 1.32726E+01
 -1       144 1.22876E+01
 -1       145 1.19448E+01
 -1       146 1.59400E+01
 -1       147 4.15455E+01
 -1       148 4.15455E+01
 -1       149 2.57406E+01
 -1       150 2.64397E+01
 -1       151 2.64397E+01
 -1       152 2.71190E+01
 -1       153 3.11389E+01
 -1       154 3.08287E+01
 -1       155 1.41561E+01
 -1       156 1.31786E+01
 -1       157 1.31786E+01
 -1       158 1.27992E+01
 -1       159 1.27992E+01
 -1       160 3.92144E+01
 -1       161 3.92144E+01
 -1       162 2.47073E+01
 -1       163 2.47073E+01
 -1       164 6.05784E+00
 -1       165 2.28743E+00
 -1       166 1.50017E+00
 -1       167 1.15343E+00
 -1       168 9.67352E-01
 -1       169 8.59310E-01
 -1       170 7.90448E-01
 -1       171 7.49484E-01
 -1       172 7.93309E-01
 -1       173 8.61646E-01
 -1       174 9.76033E-01
 -1       175 1.16684E+00
 -1       176 1.52189E+00
 -1       177 2.25263E+00
 -1       178 3.92192E+00
 -1       179 1.40388E+01
 -1       180 4.33285E+00
 -1       181 3.35701E+00
 -1       182 2.12925E+00
 -1       183 1.46153E+00
 -1       184 1.05386E+00
 -1       185 8.25940E-01
 -1       186 6.67088E-01
 -1       187 5.31876E-01
 -1       188 4.44628E-01
 -1       189 3.85637E-01
 -1       190 3.51207E-01
 -1       191 4.08156E-01
 -1       192 5.28449E-01
 -1       193 7.15982E-01
 -1       194 1.06786E+00
 -1       195 1.53042E+00
 -1       196 2.09673E+00
 -1       197 2.70294E+00
 -1       198 3.18885E+00
 -1       199 3.70608E+00
 -1       200 4.46587E+00
 -1       201 4.04363E+00
 -1       202 3.73112E+00
 -1       203 6.48035E+00
 -1       204 1.21948E+01
 -1       205 1.26240E+01
 -1       206 1.02769E+01
 -1       207 4.87132E+00
 -1       208 4.01650E+00
 -1       209 4.46043E+00
 -1       210 4.20644E+00
 -1       211 3.41501E+00
 -1       212 2.75979E+00
 -1       213 2.22319E+00
 -1       214 1.72878E+00
 -1       215 1.20518E+00
 -1       216 8.40868E-01
 -1       217 5.72799E-01
 -1       218 3.88528E-01
 -1       219 2.80656E-01
 -1       220 2.01238E-01
 -1       221 1.48007E-01
 -1       222 9.92209E-02
 -1       223 7.50826E-02
 -1       224 5.81753E-02
 -1       225 4.32423E-02
 -1       226 2.84374E-02
 -1       227 1.68816E-02
 -1       228 6.48220E-03
 -1       229 3.40859E+00
 -1       230 2.43132E+00
 -1       231 1.68270E+00
 -1       232 1.16456E+00
 -1       233 9.44362E-01
 -1       234 7.78612E-01
 -1       235 6.44982E-01
 -1       236 5.35303E-01
 -1       237 4.44211E-01
 -1       238 3.66985E-01
 -1       239 2.98347E-01
 -1       240 2.37425E-01
 -1       241 2.28831E-01
 -1       242 2.13539E-01
 -1       243 1.82497E-01
 -1       244 2.24338E-01
 -1       245 2.67903E-01
 -1       246 3.97598E-01
 -1       247 5.31297E-01
 -1       248 8.23409E-01
 -1       249 1.12045E+00
 -1       250 1.46806E+00
 -1       251 1.71333E+00
 -1       252 1.79027E+00
 -1       253 1.98373E+00
 -1       254 2.10030E+00
 -1       255 2.28120E+00
 -1       256 2.13153E+00
 -1       257 1.73578E+00
 -1       258 1.27323E+00
 -1       259 8.85282E-01
 -1       260 5.55074E-01
 -1       261 3.51406E-01
 -1       262 2.57135E-01
 -1       263 2.27597E-01
 -1       264 2.52001E-01
 -1       265 2.38683E-01
 -1       266 2.04595E-01
 -1       267 1.64690E-01
 -1       268 1.34392E-01
 -1       269 1.05242E-01
 -1       270 8.23568E-02
 -1       271 6.44702E-02
 -1       272 4.81976E-02
 -1       273 3.41860E-02
 -1       274 2.51836E-02
 -1       275 1.94919E-02
 -1       276 1.08760E-02
 -1       277 7.03369E-03
 -1       278 7.84372E-03
 -1       279 7.84372E-03
 -1       280 4.57249E-03
 -1       281 6.07197E-03
 -1       282 8.57100E-03
 -1       283 9.74517E-03
 -1       284 9.86282E-03
 -1       285 9.86282E-03
 -1       286 8.90898E-03
 -1       287 6.51001E-03
 -1       288 6.09208E-03
 -1       289 8.82769E-03
 -1       290 1.01310E-02
 -1       291 1.02026E-02
 -1       292 2.97916E+01
 -1       293 3.57324E+01
 -1       294 4.32140E+01
 -1       295 1.69615E+01
 -1       296 1.10691E+01
 -1       297 1.28508E+01
 -1       298 1.32726E+01
 -1       299 1.22876E+01
 -1       300 1.19448E+01
 -1       301 1.08966E+01
 -1       302 1.63758E+01
 -1       303 4.15455E+01
 -1       304 3.62250E+01
 -1       305 2.99298E+01
 -1       306 2.99298E+01
 -1       307 3.57299E+01
 -1       308 3.57299E+01
 -1       309 3.11389E+01
 -1       310 1.41561E+01
 -1       311 1.25779E+01
 -1       312 1.54447E+01
 -1       313 1.54447E+01
 -1       314 1.51379E+01
 -1       315 1.23005E+01
 -1       316 1.57770E+01
 -1       317 3.92144E+01
 -1       318 3.48480E+01
 -1       319 2.47073E+01
 -1       320 2.97916E+01
 -1       321 1.05947E+00
 -1       322 2.46337E+00
 -1       323 7.84633E-01
 -1       324 6.90711E-01
 -1       325 6.27188E-01
 -1       326 5.82569E-01
 -1       327 5.85273E-01
 -1       328 6.29420E-01
 -1       329 6.96603E-01
 -1       330 7.92216E-01
 -1       331 9.26465E-01
 -1       332 1.13507E+00
 -1       333 1.31814E+00
 -1       334 2.19380E+00
 -1       335 1.90761E+00
 -1       336 1.73970E+00
 -1       337 1.27734E+00
 -1       338 9.16053E-01
 -1       339 6.76371E-01
 -1       340 5.75978E-01
 -1       341 4.80183E-01
 -1       342 4.02755E-01
 -1       343 3.36359E-01
 -1       344 2.79933E-01
 -1       345 3.17431E-01
 -1       346 3.94263E-01
 -1       347 6.10231E-01
 -1       348 9.10975E-01
 -1       349 1.31066E+00
 -1       350 1.82513E+00
 -1       351 2.44636E+00
 -1       352 3.11558E+00
 -1       353 3.70265E+00
 -1       354 4.16259E+00
 -1       355 5.76460E+00
 -1       356 7.32334E+00
 -1       357 6.69458E+00
 -1       358 5.78586E+00
 -1       359 1.54447E+01
 -1       360 1.51379E+01
 -1       361 4.29468E+00
 -1       362 5.45122E+00
 -1       363 6.11401E+00
 -1       364 4.62449E+00
 -1       365 3.71954E+00
 -1       366 3.34921E+00
 -1       367 2.76202E+00
 -1       368 2.14828E+00
 -1       369 1.54876E+00
 -1       370 1.10702E+00
 -1       371 7.74254E-01
 -1       372 5.33044E-01
 -1       373 3.62049E-01
 -1       374 2.42598E-01
 -1       375 1.63926E-01
 -1       376 1.00951E-01
 -1       377 6.94377E-02
 -1       378 4.96878E-02
 -1       379 3.49237E-02
 -1       380 2.38231E-02
 -1       381 1.55942E-02
 -1       382 1.14055E+00
 -1       383 8.18507E-01
 -1       384 6.55829E-01
 -1       385 5.43483E-01
 -1       386 4.43975E-01
 -1       387 3.56075E-01
 -1       388 2.78085E-01
 -1       389 2.07988E-01
 -1       390 1.94065E-01
 -1       391 1.90112E-01
 -1       392 1.78951E-01
 -1       393 1.75778E-01
 -1       394 1.76319E-01
 -1       395 1.37014E-01
 -1       396 2.34014E-01
 -1       397 4.24014E-01
 -1       398 6.44684E-01
 -1       399 9.05499E-01
 -1       400 1.18410E+00
 -1       401 1.46806E+00
 -1       402 1.71333E+00
 -1       403 1.79027E+00
 -1       404 1.72428E+00
 -1       405 1.78585E+00
 -1       406 1.66386E+00
 -1       407 1.38651E+00
 -1       408 1.11083E+00
 -1       409 8.20299E-01
 -1       410 5.77649E-01
 -1       411 3.61467E-01
 -1       412 1.79748E-01
 -1       413 1.57702E-01
 -1       414 1.76753E-01
 -1       415 1.75674E-01
 -1       416 1.55189E-01
 -1       417 1.33088E-01
 -1       418 1.13570E-01
 -1       419 9.54631E-02
 -1       420 7.54591E-02
 -1       421 6.05503E-02
 -1       422 4.65863E-02
 -1       423 3.41860E-02
 -1       424 2.48677E-02
 -1       425 1.80436E-02
 -1       426 1.07421E-02
 -1       427 9.26826E-03
 -1       428 1.61560E-02
 -1       429 8.25756E-03
 -1       430 1.21272E-02
 -1       431 1.43537E-02
 -1       432 1.44294E-02
 -1       433 1.49861E-02
 -1       434 1.49861E-02
 -1       435 1.34868E-02
 -1       436 9.61901E-03
 -1       437 1.13543E-02
 -1       438 1.44447E-02
 -1       439 1.36629E+00
 -1       440 2.45438E+01
 -1       441 8.34461E+00
 -1       442 3.58918E+01
 -1       443 1.47317E+01
 -1       444 9.08555E-01
 -1       445 7.74049E+00
 -1       446 9.49763E+00
 -1       447 1.05865E+01
 -1       448 1.09219E+01
 -1       449 8.98381E+00
 -1       450 7.97392E+00
 -1       451 1.42177E+01
 -1       452 2.52894E+01
 -1       453 2.69297E+01
 -1       454 3.95979E+01
 -1       455 3.95979E+01
 -1       456 3.57299E+01
 -1       457 2.09917E+01
 -1       458 1.24115E+01
 -1       459 7.19597E+00
 -1       460 1.09720E+01
 -1       461 7.77424E+00
 -1       462 1.38738E+01
 -1       463 2.39701E+01
 -1       464 2.51257E+01
 -1       465 3.58918E+01
 -1       466 2.92270E+01
 -1       467 1.44447E-02
 -1       468 2.09067E+01
 -1       469 1.00590E+01
 -1       470 3.41482E+00
 -1       471 9.96048E+00
 -1       472 4.82554E-01
 -1       473 5.07778E-01
 -1       474 4.25731E-01
 -1       475 4.52309E-01
 -1       476 4.82797E-01
 -1       477 5.07635E-01
 -1       478 5.07635E-01
 -1       479 5.01274E-01
 -1       480 6.32094E-01
 -1       481 1.31078E+00
 -1       482 7.95432E-01
 -1       483 7.03713E-01
 -1       484 5.85620E-01
 -1       485 4.62421E-01
 -1       486 3.83603E-01
 -1       487 3.32285E-01
 -1       488 2.74642E-01
 -1       489 2.12901E-01
 -1       490 2.02194E-01
 -1       491 2.66513E-01
 -1       492 4.37475E-01
 -1       493 6.59114E-01
 -1       494 9.54561E-01
 -1       495 1.35354E+00
 -1       496 1.90063E+00
 -1       497 2.66778E+00
 -1       498 3.77034E+00
 -1       499 5.42054E+00
 -1       500 6.50487E+00
 -1       501 8.02727E+00
 -1       502 4.85864E+00
 -1       503 9.43030E+00
 -1       504 7.62728E+00
 -1       505 6.10139E+00
 -1       506 4.45402E+00
 -1       507 3.24641E+00
 -1       508 2.33765E+00
 -1       509 1.67733E+00
 -1       510 1.20711E+00
 -1       511 8.62613E-01
 -1       512 6.12021E-01
 -1       513 4.30889E-01
 -1       514 3.00774E-01
 -1       515 2.09235E-01
 -1       516 1.39021E-01
 -1       517 9.31889E-02
 -1       518 6.12699E-02
 -1       519 3.92957E-02
 -1       520 2.44758E-02
 -1       521 2.15193E-02
 -1       522 4.28882E-01
 -1       523 5.54276E-01
 -1       524 6.89107E-01
 -1       525 3.74985E-01
 -1       526 3.15490E-01
 -1       527 2.55262E-01
 -1       528 1.97075E-01
 -1       529 1.42354E-01
 -1       530 1.38391E-01
 -1       531 1.38568E-01
 -1       532 1.32015E-01
 -1       533 1.56294E-01
 -1       534 1.98535E-01
 -1       535 2.40209E-01
 -1       536 3.77778E-01
 -1       537 5.46170E-01
 -1       538 7.44264E-01
 -1       539 9.85392E-01
 -1       540 1.15328E+00
 -1       541 1.28532E+00
 -1       542 1.34283E+00
 -1       543 1.28900E+00
 -1       544 1.31480E+00
 -1       545 1.34063E+00
 -1       546 1.24868E+00
 -1       547 1.11664E+00
 -1       548 9.20091E-01
 -1       549 6.67841E-01
 -1       550 4.80942E-01
 -1       551 3.10797E-01
 -1       552 2.25539E-01
 -1       553 1.81866E-01
 -1       554 1.46022E-01
 -1       555 1.48490E-01
 -1       556 1.37329E-01
 -1       557 1.22879E-01
 -1       558 1.05569E-01
 -1       559 8.76683E-02
 -1       560 6.92353E-02
 -1       561 5.22574E-02
 -1       562 3.76637E-02
 -1       563 2.65374E-02
 -1       564 1.80436E-02
 -1       565 1.52473E-02
 -1       566 1.94586E-02
 -1       567 1.94586E-02
 -1       568 2.92270E+01
 -1       569 1.89172E-02
 -1       570 2.00213E-02
 -1       571 2.03392E-02
 -1       572 2.10812E-02
 -1       573 2.10812E-02
 -1       574 1.85622E-02
 -1       575 1.53396E-02
 -1       576 2.15193E-02
 -1       577 8.74314E-01
 -1       578 1.05856E+01
 -1       579 7.49765E+00
 -1       580 1.71327E+01
 -1       581 7.34251E+00
 -1       582 8.28356E+00
 -1       583 3.58918E+01
 -1       584 4.52703E-01
 -1       585 2.69297E+01
 -1       586 5.16322E+00
 -1       587 7.42938E+00
 -1       588 5.56585E+00
 -1       589 4.19531E+00
 -1       590 1.02775E+01
 -1       591 1.77531E+01
 -1       592 3.95979E+01
 -1       593 2.33229E+01
 -1       594 1.53397E+01
 -1       595 1.01566E+01
 -1       596 6.69458E+00
 -1       597 2.51257E+01
 -1       598 1.01482E+01
 -1       599 5.07778E-01
 -1       600 7.40158E-01
 -1       601 4.61043E-01
 -1       602 1.13680E+01
 -1       603 6.33475E-01
 -1       604 6.50137E+00
 -1       605 1.88169E+01
 -1       606 4.46348E+00
 -1       607 3.54728E-01
 -1       608 3.37551E-01
 -1       609 3.59519E-01
 -1       610 3.40878E-01
 -1       611 5.87571E-01
 -1       612 3.95970E-01
 -1       613 5.92438E+00
 -1       614 3.90672E-01
 -1       615 3.68711E-01
 -1       616 3.15232E-01
 -1       617 2.49135E-01
 -1       618 2.07041E-01
 -1       619 1.54039E-01
 -1       620 9.55300E-02
 -1       621 1.59546E-01
 -1       622 2.94631E-01
 -1       623 4.96856E-01
 -1       624 7.79844E-01
 -1       625 1.17606E+00
 -1       626 1.73299E+00
 -1       627 2.51970E+00
 -1       628 3.72744E+00
 -1       629 5.67398E+00
 -1       630 9.58258E+00
 -1       631 3.00958E-02
 -1       632 4.54808E+00
 -1       633 6.16436E+00
 -1       634 4.43238E+00
 -1       635 3.10293E+00
 -1       636 2.10628E+00
 -1       637 1.45115E+00
 -1       638 9.97739E-01
 -1       639 6.79333E-01
 -1       640 4.57897E-01
 -1       641 3.09840E-01
 -1       642 2.13644E-01
 -1       643 1.51547E-01
 -1       644 1.06673E-01
 -1       645 7.38755E-02
 -1       646 5.02570E-02
 -1       647 3.33353E-02
 -1       648 3.70038E-01
 -1       649 3.06593E-01
 -1       650 4.19775E-01
 -1       651 2.12159E-01
 -1       652 1.69295E-01
 -1       653 1.26052E-01
 -1       654 9.11206E-02
 -1       655 1.00405E-01
 -1       656 1.19521E-01
 -1       657 1.56294E-01
 -1       658 2.16704E-01
 -1       659 3.03323E-01
 -1       660 3.94157E-01
 -1       661 5.46170E-01
 -1       662 7.26431E-01
 -1       663 9.07091E-01
 -1       664 1.04448E+00
 -1       665 1.15902E+00
 -1       666 1.30509E+00
 -1       667 1.31422E+00
 -1       668 1.19276E+00
 -1       669 1.33451E+00
 -1       670 1.25485E+00
 -1       671 1.12702E+00
 -1       672 9.88087E-01
 -1       673 8.54469E-01
 -1       674 6.53781E-01
 -1       675 4.80942E-01
 -1       676 3.72638E-01
 -1       677 2.82291E-01
 -1       678 2.00107E-01
 -1       679 1.83164E-01
 -1       680 1.62093E-01
 -1       681 1.37329E-01
 -1       682 1.18096E-01
 -1       683 9.78604E-02
 -1       684 7.84591E-02
 -1       685 6.05843E-02
 -1       686 4.49176E-02
 -1       687 3.28581E-02
 -1       688 2.71304E-02
 -1       689 2.40519E-02
 -1       690 2.50217E-01
 -1       691 2.83621E-02
 -1       692 2.85209E-02
 -1       693 2.85209E-02
 -1       694 2.75850E-02
 -1       695 3.63708E-01
 -1       696 1.28986E+01
 -1       697 1.59379E+01
 -1       698 2.71304E-02
 -1       699 3.00958E-02
 -1       700 1.15770E+01
 -1       701 1.40601E+01
 -1       702 3.59519E-01
 -1       703 6.33060E+00
 -1       704 2.89221E+00
 -1       705 1.46118E+01
 -1       706 9.37692E+00
 -1       707 5.17177E+00
 -1       708 1.58746E+01
 -1       709 5.26078E+00
 -1       710 6.94367E+00
 -1       711 2.84790E+00
 -1       712 1.25454E+01
 -1       713 1.73860E+01
 -1       714 3.59404E-01
 -1       715 9.43030E+00
 -1       716 3.37808E-01
 -1       717 5.23676E+00
 -1       718 1.02092E+01
 -1       719 4.11102E-01
 -1       720 6.75872E+00
 -1       721 2.37600E-02
 -1       722 3.89587E+00
 -1       723 3.54674E-01
 -1       724 1.20104E+01
 -1       725 1.07383E+01
 -1       726 3.59404E-01
 -1       727 2.42718E-01
 -1       728 4.85924E+00
 -1       729 2.68161E-01
 -1       730 2.56928E-01
 -1       731 2.21505E-01
 -1       732 2.33179E-01
 -1       733 2.12238E-01
 -1       734 1.71627E-01
 -1       735 1.35014E-01
 -1       736 1.20055E-01
 -1       737 1.52779E-01
 -1       738 2.48496E-01
 -1       739 4.08998E-01
 -1       740 6.27820E-01
 -1       741 9.33051E-01
 -1       742 1.37212E+00
 -1       743 2.03152E+00
 -1       744 3.08366E+00
 -1       745 5.00162E+00
 -1       746 8.96543E+00
 -1       747 1.20780E+01
 -1       748 2.78968E+00
 -1       749 2.19665E-01
 -1       750 3.93749E+00
 -1       751 2.61797E+00
 -1       752 1.76984E+00
 -1       753 1.21748E+00
 -1       754 8.44780E-01
 -1       755 5.87367E-01
 -1       756 4.07287E-01
 -1       757 2.78980E-01
 -1       758 1.88242E-01
 -1       759 1.27014E-01
 -1       760 8.58258E-02
 -1       761 5.71724E-02
 -1       762 4.67338E-02
 -1       763 4.56084E-02
 -1       764 3.65047E-02
 -1       765 2.45247E-01
 -1       766 2.54466E-01
 -1       767 9.66334E-02
 -1       768 1.33586E-01
 -1       769 6.28459E-02
 -1       770 1.01904E-01
 -1       771 1.55645E-01
 -1       772 2.16704E-01
 -1       773 3.03323E-01
 -1       774 4.33941E-01
 -1       775 5.87149E-01
 -1       776 7.26431E-01
 -1       777 9.07091E-01
 -1       778 1.13460E+00
 -1       779 1.22797E+00
 -1       780 1.31761E+00
 -1       781 1.66476E+00
 -1       782 1.56388E+00
 -1       783 1.61012E+00
 -1       784 1.53349E+00
 -1       785 1.26566E+00
 -1       786 1.20922E+00
 -1       787 1.07863E+00
 -1       788 8.54469E-01
 -1       789 6.93686E-01
 -1       790 5.52618E-01
 -1       791 4.02656E-01
 -1       792 2.92151E-01
 -1       793 2.47810E-01
 -1       794 2.03352E-01
 -1       795 1.63643E-01
 -1       796 1.37561E-01
 -1       797 1.11181E-01
 -1       798 8.66336E-02
 -1       799 6.57120E-02
 -1       800 4.85579E-02
 -1       801 3.43729E-02
 -1       802 4.67338E-02
 -1       803 4.12939E-02
 -1       804 8.05403E+00
 -1       805 2.84790E+00
 -1       806 2.36881E+00
 -1       807 6.41859E-02
 -1       808 3.53085E-02
 -1       809 8.26555E+00
 -1       810 6.06419E+00
 -1       811 2.83084E-01
 -1       812 5.12027E+00
 -1       813 2.78968E+00
 -1       814 5.91908E+00
 -1       815 3.53085E-02
 -1       816 3.65047E-02
 -1       817 3.85857E+00
 -1       818 3.55905E+00
 -1       819 3.55905E+00
 -1       820 2.79115E+00
 -1       821 2.76701E-01
 -1       822 7.93183E+00
 -1       823 1.71798E-01
 -1       824 3.86373E-02
 -1       825 3.98071E+00
 -1       826 7.33594E+00
 -1       827 2.14749E-01
 -1       828 3.19742E+00
 -1       829 3.66614E+00
 -1       830 8.46610E+00
 -1       831 9.31952E+00
 -1       832 2.73686E-01
 -1       833 2.83084E-01
 -1       834 2.79805E-01
 -1       835 2.83531E-01
 -1       836 2.74501E+00
 -1       837 4.27246E+00
 -1       838 1.44292E-01
 -1       839 2.56859E+00
 -1       840 1.30023E-01
 -1       841 1.51945E-01
 -1       842 1.46561E-01
 -1       843 1.22412E-01
 -1       844 1.29323E-01
 -1       845 1.64210E-01
 -1       846 1.93513E-01
 -1       847 2.80362E-01
 -1       848 4.14072E-01
 -1       849 5.93267E-01
 -1       850 8.82428E-01
 -1       851 1.32357E+00
 -1       852 2.01135E+00
 -1       853 3.29082E+00
 -1       854 5.35898E+00
 -1       855 1.32866E-01
 -1       856 4.79184E+00
 -1       857 1.65024E+00
 -1       858 1.11124E+00
 -1       859 8.00253E-01
 -1       860 5.83134E-01
 -1       861 4.24288E-01
 -1       862 3.05412E-01
 -1       863 2.16897E-01
 -1       864 1.54098E-01
 -1       865 1.07975E-01
 -1       866 7.46160E-02
 -1       867 5.48757E-02
 -1       868 5.48757E-02
 -1       869 9.12938E-02
 -1       870 1.67734E-01
 -1       871 1.12968E-01
 -1       872 3.31566E-01
 -1       873 4.33941E-01
 -1       874 5.87149E-01
 -1       875 8.24888E-01
 -1       876 1.05309E+00
 -1       877 1.16888E+00
 -1       878 1.79057E+00
 -1       879 2.30300E+00
 -1       880 3.02436E+00
 -1       881 2.27881E+00
 -1       882 2.06147E+00
 -1       883 1.58244E+00
 -1       884 1.59424E+00
 -1       885 1.35829E+00
 -1       886 1.15378E+00
 -1       887 1.00872E+00
 -1       888 7.65700E-01
 -1       889 5.52618E-01
 -1       890 4.37626E-01
 -1       891 3.43353E-01
 -1       892 2.64088E-01
 -1       893 2.08841E-01
 -1       894 1.66405E-01
 -1       895 1.28390E-01
 -1       896 9.90547E-02
 -1       897 7.89238E-02
 -1       898 6.59856E-02
 -1       899 4.83413E-02
 -1       900 4.69496E-02
 -1       901 2.34416E-01
 -1       902 2.83531E-01
 -1       903 5.42721E+00
 -1       904 2.41383E+00
 -1       905 2.66579E+00
 -1       906 5.11234E+00
 -1       907 2.20409E+00
 -1       908 4.26614E-02
 -1       909 2.07575E-01
 -1       910 2.07575E-01
 -1       911 5.38226E+00
 -1       912 4.59724E+00
 -1       913 1.19453E-01
 -1       914 7.84183E-02
 -1       915 4.83413E-02
 -1       916 2.66579E+00
 -1       917 4.70202E-02
 -1       918 2.40433E+00
 -1       919 4.17055E-02
 -1       920 5.43606E+00
 -1       921 8.66907E-02
 -1       922 1.62834E-01
 -1       923 1.55245E-01
 -1       924 5.16240E+00
 -1       925 1.71119E-01
 -1       926 2.36881E+00
 -1       927 2.20409E+00
 -1       928 3.16560E+00
 -1       929 7.92731E-02
 -1       930 1.03224E-01
 -1       931 1.14049E-01
 -1       932 1.36689E-01
 -1       933 1.71617E-01
 -1       934 2.00369E-01
 -1       935 2.70379E-01
 -1       936 3.69361E-01
 -1       937 5.09658E-01
 -1       938 7.06555E-01
 -1       939 9.78720E-01
 -1       940 1.40848E+00
 -1       941 2.39627E+00
 -1       942 3.92067E+00
 -1       943 2.41383E+00
 -1       944 1.20413E+00
 -1       945 8.49848E-01
 -1       946 5.95710E-01
 -1       947 4.15188E-01
 -1       948 2.98439E-01
 -1       949 2.02514E-01
 -1       950 1.53050E-01
 -1       951 1.13482E-01
 -1       952 8.28146E-02
 -1       953 6.33827E-02
 -1       954 2.38639E+00
 -1       955 1.82383E-01
 -1       956 6.66335E-01
 -1       957 4.84771E-01
 -1       958 1.10818E+00
 -1       959 1.96249E+00
 -1       960 1.79057E+00
 -1       961 8.59080E-02
 -1       962 1.76236E+00
 -1       963 1.36478E+00
 -1       964 1.26519E+00
 -1       965 1.01344E+00
 -1       966 8.21696E-01
 -1       967 6.36792E-01
 -1       968 4.71882E-01
 -1       969 3.70515E-01
 -1       970 2.77099E-01
 -1       971 2.04918E-01
 -1       972 1.59261E-01
 -1       973 1.23928E-01
 -1       974 9.90547E-02
 -1       975 9.67593E-02
 -1       976 5.41624E-02
 -1       977 8.59889E-01
 -1       978 1.90849E-01
 -1       979 1.85234E+00
 -1       980 1.48622E-01
 -1       981 1.08247E-01
 -1       982 2.05653E-01
 -1       983 3.16560E+00
 -1       984 1.79325E-01
 -1       985 3.51561E+00
 -1       986 4.67225E+00
 -1       987 1.42516E-01
 -1       988 3.90624E+00
 -1       989 2.59397E-01
 -1       990 1.35682E-01
 -1       991 4.54875E+00
 -1       992 1.04234E-01
 -1       993 2.06147E+00
 -1       994 1.47363E-01
 -1       995 3.64259E-01
 -1       996 3.07241E+00
 -1       997 1.66015E+00
 -1       998 1.66015E+00
 -1       999 3.88429E-02
 -1      1000 9.88779E-02
 -1      1001 8.33865E-02
 -1      1002 4.15509E+00
 -1      1003 1.13904E-01
 -1      1004 1.10753E-01
 -1      1005 1.42516E-01
 -1      1006 9.96261E-02
 -1      1007 1.29934E-01
 -1      1008 1.65720E-01
 -1      1009 1.88868E-01
 -1      1010 2.36347E-01
 -1      1011 3.03487E-01
 -1      1012 3.89070E-01
 -1      1013 5.10205E-01
 -1      1014 7.78154E-01
 -1      1015 1.17585E+00
 -1      1016 1.85341E+00
 -1      1017 3.37645E+00
 -1      1018 9.67593E-02
 -1      1019 9.46732E-01
 -1      1020 6.03644E-01
 -1      1021 4.31835E-01
 -1      1022 3.34375E-01
 -1      1023 2.32903E-01
 -1      1024 1.68595E-01
 -1      1025 1.21193E-01
 -1      1026 8.56870E-02
 -1      1027 6.15110E-02
 -1      1028 1.34970E+00
 -1      1029 8.10279E-02
 -1      1030 7.45218E-01
 -1      1031 2.11130E+00
 -1      1032 1.41269E-01
 -1      1033 1.91083E+00
 -1      1034 1.50797E+00
 -1      1035 9.37044E-01
 -1      1036 7.12491E-01
 -1      1037 5.21436E-01
 -1      1038 3.61457E-01
 -1      1039 2.73521E-01
 -1      1040 2.04603E-01
 -1      1041 1.59261E-01
 -1      1042 1.23928E-01
 -1      1043 1.10849E-01
 -1      1044 1.39794E+00
 -1      1045 5.87470E-02
 -1      1046 1.51324E+00
 -1      1047 1.02385E-01
 -1      1048 9.50370E-01
 -1      1049 1.12842E-01
 -1      1050 2.05777E+00
 -1      1051 1.29077E+00
 -1      1052 2.51090E+00
 -1      1053 3.37645E+00
 -1      1054 3.87946E+00
 -1      1055 7.94607E-02
 -1      1056 5.47743E-01
 -1      1057 2.97128E-01
 -1      1058 5.68449E-02
 -1      1059 1.97505E+00
 -1      1060 9.02587E-02
 -1      1061 2.27141E-01
 -1      1062 9.82418E-02
 -1      1063 1.04234E-01
 -1      1064 9.02587E-02
 -1      1065 1.61961E-01
 -1      1066 3.20511E+00
 -1      1067 3.80455E-01
 -1      1068 1.45539E-01
 -1      1069 1.66717E-01
 -1      1070 1.91715E-01
 -1      1071 2.36347E-01
 -1      1072 4.07230E-01
 -1      1073 5.77209E-01
 -1      1074 8.10899E-01
 -1      1075 1.11222E+00
 -1      1076 1.47139E+00
 -1      1077 2.50267E+00
 -1      1078 1.04520E+00
 -1      1079 2.01942E+00
 -1      1080 4.52425E-01
 -1      1081 2.90911E-01
 -1      1082 1.83780E-01
 -1      1083 1.30681E-01
 -1      1084 9.86563E-02
 -1      1085 5.24511E-02
 -1      1086 3.37645E+00
 -1      1087 1.47835E+00
 -1      1088 1.90955E+00
 -1      1089 1.10191E-01
 -1      1090 1.50797E+00
 -1      1091 6.97614E-01
 -1      1092 1.54613E+00
 -1      1093 4.88995E-01
 -1      1094 3.51828E-01
 -1      1095 2.48984E-01
 -1      1096 1.72879E-01
 -1      1097 7.14309E-02
 -1      1098 1.00949E-01
 -1      1099 2.34624E-01
 -1      1100 6.97614E-01
 -1      1101 1.46893E+00
 -1      1102 1.69741E-01
 -1      1103 1.03162E+00
 -1      1104 6.72280E-02
 -1      1105 3.13246E+00
 -1      1106 1.11222E+00
 -1      1107 1.90955E+00
 -1      1108 8.09962E-02
 -1      1109 2.15726E+00
 -1      1110 2.05777E+00
 -1      1111 4.07230E-01
 -1      1112 1.61961E-01
 -1      1113 5.77209E-01
 -1      1114 1.10191E-01
 -1      1115 1.10820E-01
 -1      1116 1.69741E-01
 -1      1117 2.34624E-01
 -1      1118 2.34624E-01
 -1      1119 8.10899E-01
 -1      1120 1.31441E+01
 -1      1121 8.39608E+00
 -1      1122 2.73073E+00
 -1      1123 1.54868E+00
 -1      1124 1.16106E+00
 -1      1125 9.66245E-01
 -1      1126 8.48583E-01
 -1      1127 7.75435E-01
 -1      1128 7.48760E-01
 -1      1129 7.78088E-01
 -1      1130 8.50805E-01
 -1      1131 9.71091E-01
 -1      1132 1.17391E+00
 -1      1133 1.55990E+00
 -1      1134 2.65657E+00
 -1      1135 6.06253E+00
 -1      1136 1.13350E+01
 -1      1137 1.31441E+01
 -1      1138 8.73847E+00
 -1      1139 3.84493E+00
 -1      1140 2.74313E+00
 -1      1141 1.75646E+00
 -1      1142 1.21877E+00
 -1      1143 9.39900E-01
 -1      1144 7.46514E-01
 -1      1145 5.99482E-01
 -1      1146 4.88252E-01
 -1      1147 4.15132E-01
 -1      1148 3.96896E-01
 -1      1149 4.60014E-01
 -1      1150 6.05115E-01
 -1      1151 7.92701E-01
 -1      1152 1.02512E+00
 -1      1153 1.32483E+00
 -1      1154 1.77804E+00
 -1      1155 2.42809E+00
 -1      1156 3.24632E+00
 -1      1157 4.08597E+00
 -1      1158 4.46587E+00
 -1      1159 4.25475E+00
 -1      1160 5.13704E+00
 -1      1161 9.21262E+00
 -1      1162 1.24094E+01
 -1      1163 1.26240E+01
 -1      1164 1.14505E+01
 -1      1165 7.27406E+00
 -1      1166 4.36583E+00
 -1      1167 4.46043E+00
 -1      1168 4.33344E+00
 -1      1169 3.73890E+00
 -1      1170 2.86853E+00
 -1      1171 2.12534E+00
 -1      1172 1.57422E+00
 -1      1173 1.17110E+00
 -1      1174 8.48289E-01
 -1      1175 6.17148E-01
 -1      1176 4.41723E-01
 -1      1177 3.12784E-01
 -1      1178 2.19667E-01
 -1      1179 1.54943E-01
 -1      1180 1.12231E-01
 -1      1181 8.52179E-02
 -1      1182 6.66290E-02
 -1      1183 5.07088E-02
 -1      1184 3.58398E-02
 -1      1185 2.20479E-02
 -1      1186 9.86240E-03
 -1      1187 1.40388E+01
 -1      1188 8.72368E+00
 -1      1189 2.91995E+00
 -1      1190 2.05701E+00
 -1      1191 1.42363E+00
 -1      1192 1.05446E+00
 -1      1193 8.61487E-01
 -1      1194 7.11797E-01
 -1      1195 5.90142E-01
 -1      1196 4.89757E-01
 -1      1197 4.05598E-01
 -1      1198 3.32666E-01
 -1      1199 2.67886E-01
 -1      1200 2.33128E-01
 -1      1201 2.21185E-01
 -1      1202 2.18938E-01
 -1      1203 2.46120E-01
 -1      1204 3.32751E-01
 -1      1205 4.47311E-01
 -1      1206 5.73903E-01
 -1      1207 7.46379E-01
 -1      1208 8.95692E-01
 -1      1209 1.12050E+00
 -1      1210 1.50853E+00
 -1      1211 1.85460E+00
 -1      1212 2.04201E+00
 -1      1213 2.19075E+00
 -1      1214 2.28120E+00
 -1      1215 2.20636E+00
 -1      1216 1.93365E+00
 -1      1217 1.50450E+00
 -1      1218 1.05836E+00
 -1      1219 6.99284E-01
 -1      1220 4.53240E-01
 -1      1221 3.04270E-01
 -1      1222 2.54568E-01
 -1      1223 2.52001E-01
 -1      1224 2.45342E-01
 -1      1225 2.21639E-01
 -1      1226 1.84643E-01
 -1      1227 1.47834E-01
 -1      1228 1.15722E-01
 -1      1229 9.14115E-02
 -1      1230 7.34135E-02
 -1      1231 5.63339E-02
 -1      1232 4.11028E-02
 -1      1233 2.95958E-02
 -1      1234 2.23377E-02
 -1      1235 1.51839E-02
 -1      1236 7.15380E-03
 -1      1237 3.59775E-03
 -1      1238 4.14296E-03
 -1      1239 4.52207E-03
 -1      1240 3.84566E-03
 -1      1241 2.31692E-03
 -1      1242 2.30462E-03
 -1      1243 3.74767E-03
 -1      1244 4.55564E-03
 -1      1245 4.76059E-03
 -1      1246 4.56385E-03
 -1      1247 3.73919E-03
 -1      1248 2.43501E-03
 -1      1249 2.85762E-03
 -1      1250 4.42015E-03
 -1      1251 4.88382E-03
 -1      1252 4.02676E-03
 -1      1253 3.61801E-03
 -1      1254 2.54426E+01
 -1      1255 3.43283E+01
 -1      1256 4.32140E+01
 -1      1257 2.96732E+01
 -1      1258 1.44916E+01
 -1      1259 1.30617E+01
 -1      1260 1.32726E+01
 -1      1261 1.27801E+01
 -1      1262 1.21162E+01
 -1      1263 1.39424E+01
 -1      1264 2.87428E+01
 -1      1265 4.15455E+01
 -1      1266 3.36431E+01
 -1      1267 2.60901E+01
 -1      1268 2.64397E+01
 -1      1269 2.67793E+01
 -1      1270 2.91289E+01
 -1      1271 3.09838E+01
 -1      1272 2.24924E+01
 -1      1273 1.36674E+01
 -1      1274 1.31786E+01
 -1      1275 1.29889E+01
 -1      1276 1.27992E+01
 -1      1277 1.40762E+01
 -1      1278 2.72837E+01
 -1      1279 3.92144E+01
 -1      1280 3.19608E+01
 -1      1281 2.47073E+01
 -1      1282 2.50749E+01
 -1      1283 1.31441E+01
 -1      1284 4.85295E+00
 -1      1285 9.60097E+00
 -1      1286 2.05041E+00
 -1      1287 2.96775E+00
 -1      1288 4.17264E+00
 -1      1289 1.39207E+00
 -1      1290 1.65678E+00
 -1      1291 1.89380E+00
 -1      1292 1.09579E+00
 -1      1293 1.21870E+00
 -1      1294 1.32680E+00
 -1      1295 9.30842E-01
 -1      1296 1.00276E+00
 -1      1297 1.06039E+00
 -1      1298 8.31072E-01
 -1      1299 8.76821E-01
 -1      1300 9.13331E-01
 -1      1301 7.69242E-01
 -1      1302 7.96641E-01
 -1      1303 8.24879E-01
 -1      1304 7.49484E-01
 -1      1305 7.48760E-01
 -1      1306 7.69966E-01
 -1      1307 8.00001E-01
 -1      1308 7.71397E-01
 -1      1309 7.71397E-01
 -1      1310 8.78282E-01
 -1      1311 8.34169E-01
 -1      1312 8.27478E-01
 -1      1313 1.01165E+00
 -1      1314 9.35475E-01
 -1      1315 9.18840E-01
 -1      1316 1.23370E+00
 -1      1317 1.10705E+00
 -1      1318 1.07144E+00
 -1      1319 1.67057E+00
 -1      1320 1.41122E+00
 -1      1321 1.34437E+00
 -1      1322 2.87326E+00
 -1      1323 2.03594E+00
 -1      1324 1.88726E+00
 -1      1325 6.27654E+00
 -1      1326 3.70790E+00
 -1      1327 3.08727E+00
 -1      1328 1.40388E+01
 -1      1329 1.13350E+01
 -1      1330 8.98035E+00
 -1      1331 1.40388E+01
 -1      1332 8.73847E+00
 -1      1333 4.33285E+00
 -1      1334 3.84493E+00
 -1      1335 3.35701E+00
 -1      1336 3.84493E+00
 -1      1337 2.74313E+00
 -1      1338 2.12925E+00
 -1      1339 2.74313E+00
 -1      1340 1.79539E+00
 -1      1341 1.42261E+00
 -1      1342 1.79539E+00
 -1      1343 1.21877E+00
 -1      1344 1.05386E+00
 -1      1345 1.25770E+00
 -1      1346 9.39900E-01
 -1      1347 8.25940E-01
 -1      1348 9.39900E-01
 -1      1349 7.46514E-01
 -1      1350 6.67088E-01
 -1      1351 7.46514E-01
 -1      1352 5.99482E-01
 -1      1353 5.31876E-01
 -1      1354 5.99482E-01
 -1      1355 4.88252E-01
 -1      1356 4.44628E-01
 -1      1357 4.88252E-01
 -1      1358 4.15132E-01
 -1      1359 3.85637E-01
 -1      1360 4.15132E-01
 -1      1361 3.68422E-01
 -1      1362 3.79682E-01
 -1      1363 3.68422E-01
 -1      1364 4.08156E-01
 -1      1365 4.60014E-01
 -1      1366 3.79682E-01
 -1      1367 5.20160E-01
 -1      1368 6.13404E-01
 -1      1369 4.68302E-01
 -1      1370 7.07170E-01
 -1      1371 8.01512E-01
 -1      1372 6.22215E-01
 -1      1373 9.77449E-01
 -1      1374 1.11552E+00
 -1      1375 8.91919E-01
 -1      1376 1.34681E+00
 -1      1377 1.50844E+00
 -1      1378 1.29914E+00
 -1      1379 1.79159E+00
 -1      1380 2.08317E+00
 -1      1381 1.81358E+00
 -1      1382 2.38628E+00
 -1      1383 2.74476E+00
 -1      1384 2.39984E+00
 -1      1385 2.98771E+00
 -1      1386 3.44746E+00
 -1      1387 2.94590E+00
 -1      1388 3.70608E+00
 -1      1389 4.08597E+00
 -1      1390 3.44746E+00
 -1      1391 4.46587E+00
 -1      1392 4.46587E+00
 -1      1393 4.08597E+00
 -1      1394 4.25475E+00
 -1      1395 4.04363E+00
 -1      1396 4.25475E+00
 -1      1397 3.88737E+00
 -1      1398 4.98079E+00
 -1      1399 3.88737E+00
 -1      1400 6.35540E+00
 -1      1401 9.33757E+00
 -1      1402 5.10573E+00
 -1      1403 1.21948E+01
 -1      1404 1.24094E+01
 -1      1405 9.33757E+00
 -1      1406 1.26240E+01
 -1      1407 1.26240E+01
 -1      1408 1.24094E+01
 -1      1409 1.14505E+01
 -1      1410 1.02769E+01
 -1      1411 1.14505E+01
 -1      1412 7.57411E+00
 -1      1413 4.57128E+00
 -1      1414 7.57411E+00
 -1      1415 4.14387E+00
 -1      1416 4.23847E+00
 -1      1417 4.44391E+00
 -1      1418 4.46043E+00
 -1      1419 4.46043E+00
 -1      1420 4.23847E+00
 -1      1421 4.33344E+00
 -1      1422 4.20644E+00
 -1      1423 4.33344E+00
 -1      1424 3.81073E+00
 -1      1425 3.34318E+00
 -1      1426 3.81073E+00
 -1      1427 3.01557E+00
 -1      1428 2.61275E+00
 -1      1429 3.08740E+00
 -1      1430 2.34445E+00
 -1      1431 2.00408E+00
 -1      1432 2.49149E+00
 -1      1433 1.75687E+00
 -1      1434 1.54613E+00
 -1      1435 1.97599E+00
 -1      1436 1.28433E+00
 -1      1437 1.09195E+00
 -1      1438 1.46698E+00
 -1      1439 9.09792E-01
 -1      1440 7.79364E-01
 -1      1441 1.02302E+00
 -1      1442 6.45330E-01
 -1      1443 5.44618E-01
 -1      1444 7.06833E-01
 -1      1445 4.52482E-01
 -1      1446 3.77769E-01
 -1      1447 4.80663E-01
 -1      1448 3.23834E-01
 -1      1449 2.69606E-01
 -1      1450 3.34592E-01
 -1      1451 2.29898E-01
 -1      1452 1.91007E-01
 -1      1453 2.40947E-01
 -1      1454 1.64392E-01
 -1      1455 1.38558E-01
 -1      1456 1.74622E-01
 -1      1457 1.14165E-01
 -1      1458 9.72870E-02
 -1      1459 1.23614E-01
 -1      1460 8.52179E-02
 -1      1461 7.50826E-02
 -1      1462 8.71518E-02
 -1      1463 6.66290E-02
 -1      1464 5.81753E-02
 -1      1465 6.66290E-02
 -1      1466 5.07088E-02
 -1      1467 4.32423E-02
 -1      1468 5.07088E-02
 -1      1469 3.58398E-02
 -1      1470 2.84374E-02
 -1      1471 3.58398E-02
 -1      1472 2.26595E-02
 -1      1473 1.62700E-02
 -1      1474 2.26595E-02
 -1      1475 1.10703E-02
 -1      1476 5.27425E-03
 -1      1477 4.82595E-03
 -1      1478 1.16819E-02
 -1      1479 3.40859E+00
 -1      1480 8.72368E+00
 -1      1481 8.72368E+00
 -1      1482 2.43132E+00
 -1      1483 2.91995E+00
 -1      1484 2.91995E+00
 -1      1485 1.68270E+00
 -1      1486 2.05701E+00
 -1      1487 2.05701E+00
 -1      1488 1.16456E+00
 -1      1489 1.42363E+00
 -1      1490 1.42363E+00
 -1      1491 9.44362E-01
 -1      1492 1.05446E+00
 -1      1493 1.05446E+00
 -1      1494 7.78612E-01
 -1      1495 8.61487E-01
 -1      1496 8.61487E-01
 -1      1497 6.44982E-01
 -1      1498 7.11797E-01
 -1      1499 7.11797E-01
 -1      1500 5.35303E-01
 -1      1501 5.90142E-01
 -1      1502 5.90142E-01
 -1      1503 4.44211E-01
 -1      1504 4.89757E-01
 -1      1505 4.89757E-01
 -1      1506 3.66985E-01
 -1      1507 4.05598E-01
 -1      1508 4.05598E-01
 -1      1509 2.98347E-01
 -1      1510 3.32666E-01
 -1      1511 3.32666E-01
 -1      1512 2.37425E-01
 -1      1513 2.67886E-01
 -1      1514 2.67886E-01
 -1      1515 2.28831E-01
 -1      1516 2.33128E-01
 -1      1517 2.33128E-01
 -1      1518 2.13539E-01
 -1      1519 2.21185E-01
 -1      1520 2.21185E-01
 -1      1521 2.03417E-01
 -1      1522 1.98018E-01
 -1      1523 1.98018E-01
 -1      1524 2.46120E-01
 -1      1525 2.24338E-01
 -1      1526 2.03417E-01
 -1      1527 3.32751E-01
 -1      1528 2.67903E-01
 -1      1529 2.46120E-01
 -1      1530 4.47311E-01
 -1      1531 3.97598E-01
 -1      1532 3.32751E-01
 -1      1533 5.91039E-01
 -1      1534 5.14160E-01
 -1      1535 4.64447E-01
 -1      1536 8.32693E-01
 -1      1537 7.37095E-01
 -1      1538 6.77353E-01
 -1      1539 1.03493E+00
 -1      1540 9.81211E-01
 -1      1541 9.71928E-01
 -1      1542 1.37982E+00
 -1      1543 1.20873E+00
 -1      1544 1.29425E+00
 -1      1545 1.71940E+00
 -1      1546 1.50246E+00
 -1      1547 1.59069E+00
 -1      1548 1.88700E+00
 -1      1549 1.75787E+00
 -1      1550 1.75180E+00
 -1      1551 2.04201E+00
 -1      1552 1.98373E+00
 -1      1553 1.88700E+00
 -1      1554 2.19075E+00
 -1      1555 2.10030E+00
 -1      1556 2.04201E+00
 -1      1557 2.28120E+00
 -1      1558 2.28120E+00
 -1      1559 2.19075E+00
 -1      1560 2.13153E+00
 -1      1561 2.20636E+00
 -1      1562 2.20636E+00
 -1      1563 1.73578E+00
 -1      1564 1.93365E+00
 -1      1565 1.93365E+00
 -1      1566 1.27323E+00
 -1      1567 1.50450E+00
 -1      1568 1.50450E+00
 -1      1569 8.64388E-01
 -1      1570 1.07926E+00
 -1      1571 1.07926E+00
 -1      1572 5.55074E-01
 -1      1573 6.99284E-01
 -1      1574 7.20178E-01
 -1      1575 3.51406E-01
 -1      1576 4.53240E-01
 -1      1577 4.53240E-01
 -1      1578 2.57135E-01
 -1      1579 3.04270E-01
 -1      1580 3.04270E-01
 -1      1581 2.39799E-01
 -1      1582 2.42366E-01
 -1      1583 2.42366E-01
 -1      1584 2.52001E-01
 -1      1585 2.52001E-01
 -1      1586 2.39799E-01
 -1      1587 2.38683E-01
 -1      1588 2.45342E-01
 -1      1589 2.45342E-01
 -1      1590 2.04595E-01
 -1      1591 2.21639E-01
 -1      1592 2.21639E-01
 -1      1593 1.64690E-01
 -1      1594 1.84643E-01
 -1      1595 1.84643E-01
 -1      1596 1.32685E-01
 -1      1597 1.49541E-01
 -1      1598 1.49541E-01
 -1      1599 1.02854E-01
 -1      1600 1.18110E-01
 -1      1601 1.19817E-01
 -1      1602 8.23568E-02
 -1      1603 9.14115E-02
 -1      1604 9.37993E-02
 -1      1605 6.44702E-02
 -1      1606 7.34135E-02
 -1      1607 7.34135E-02
 -1      1608 4.81976E-02
 -1      1609 5.63339E-02
 -1      1610 5.63339E-02
 -1      1611 3.40970E-02
 -1      1612 4.11918E-02
 -1      1613 4.11918E-02
 -1      1614 2.51836E-02
 -1      1615 2.95958E-02
 -1      1616 2.96848E-02
 -1      1617 1.94919E-02
 -1      1618 2.23377E-02
 -1      1619 2.23377E-02
 -1      1620 1.08760E-02
 -1      1621 1.51839E-02
 -1      1622 1.51839E-02
 -1      1623 7.31990E-03
 -1      1624 5.77788E-03
 -1      1625 5.39877E-03
 -1      1626 6.18290E-03
 -1      1627 6.18290E-03
 -1      1628 7.43871E-03
 -1      1629 5.50648E-03
 -1      1630 6.18290E-03
 -1      1631 7.84372E-03
 -1      1632 3.01854E-03
 -1      1633 3.87087E-03
 -1      1634 6.20811E-03
 -1      1635 4.60831E-03
 -1      1636 3.76828E-03
 -1      1637 5.32223E-03
 -1      1638 6.46085E-03
 -1      1639 5.85782E-03
 -1      1640 7.32149E-03
 -1      1641 7.25288E-03
 -1      1642 7.04793E-03
 -1      1643 9.15809E-03
 -1      1644 7.31171E-03
 -1      1645 7.31171E-03
 -1      1646 9.80400E-03
 -1      1647 7.11496E-03
 -1      1648 7.31171E-03
 -1      1649 9.86282E-03
 -1      1650 6.01013E-03
 -1      1651 6.63804E-03
 -1      1652 9.38590E-03
 -1      1653 4.13438E-03
 -1      1654 4.81064E-03
 -1      1655 7.70950E-03
 -1      1656 5.02428E-03
 -1      1657 3.92541E-03
 -1      1658 6.30104E-03
 -1      1659 6.85575E-03
 -1      1660 6.39209E-03
 -1      1661 7.45988E-03
 -1      1662 7.50741E-03
 -1      1663 7.50741E-03
 -1      1664 9.47935E-03
 -1      1665 6.68614E-03
 -1      1666 7.54319E-03
 -1      1667 1.01668E-02
 -1      1668 8.34238E-03
 -1      1669 2.76171E+01
 -1      1670 2.76171E+01
 -1      1671 3.94732E+01
 -1      1672 3.05875E+01
 -1      1673 4.32140E+01
 -1      1674 4.32140E+01
 -1      1675 1.65470E+01
 -1      1676 3.00878E+01
 -1      1677 1.19600E+01
 -1      1678 1.36008E+01
 -1      1679 1.30617E+01
 -1      1680 1.28508E+01
 -1      1681 1.32726E+01
 -1      1682 1.32726E+01
 -1      1683 1.22876E+01
 -1      1684 1.27801E+01
 -1      1685 1.19448E+01
 -1      1686 1.21162E+01
 -1      1687 1.34183E+01
 -1      1688 1.14207E+01
 -1      1689 2.89607E+01
 -1      1690 1.61579E+01
 -1      1691 4.15455E+01
 -1      1692 4.15455E+01
 -1      1693 3.09828E+01
 -1      1694 3.88853E+01
 -1      1695 2.81847E+01
 -1      1696 2.78352E+01
 -1      1697 2.81847E+01
 -1      1698 2.81847E+01
 -1      1699 3.14244E+01
 -1      1700 3.10848E+01
 -1      1701 3.34344E+01
 -1      1702 3.14244E+01
 -1      1703 3.09838E+01
 -1      1704 3.11389E+01
 -1      1705 1.41561E+01
 -1      1706 2.24924E+01
 -1      1707 1.28782E+01
 -1      1708 1.33670E+01
 -1      1709 1.43116E+01
 -1      1710 1.43116E+01
 -1      1711 1.41219E+01
 -1      1712 1.43116E+01
 -1      1713 1.39686E+01
 -1      1714 1.39686E+01
 -1      1715 1.38268E+01
 -1      1716 1.25499E+01
 -1      1717 2.74957E+01
 -1      1718 1.55651E+01
 -1      1719 3.92144E+01
 -1      1720 3.92144E+01
 -1      1721 2.97777E+01
 -1      1722 3.70312E+01
 -1      1723 2.47073E+01
 -1      1724 2.47073E+01
 -1      1725 2.76171E+01
 -1      1726 2.72494E+01
 -1      1727 3.00878E+01
 -1      1728 2.97916E+01
 -1      1729 7.31990E-03
 -1      1730 8.95482E-03
 -1      1731 3.27620E+01
 -1      1732 3.94732E+01
 -1      1733 1.40153E+01
 -1      1734 1.19600E+01
 -1      1735 1.30617E+01
 -1      1736 1.27801E+01
 -1      1737 1.21162E+01
 -1      1738 1.14207E+01
 -1      1739 1.36362E+01
 -1      1740 2.89607E+01
 -1      1741 3.88853E+01
 -1      1742 3.30774E+01
 -1      1743 2.99298E+01
 -1      1744 3.28298E+01
 -1      1745 3.57299E+01
 -1      1746 3.34344E+01
 -1      1747 2.26475E+01
 -1      1748 1.33670E+01
 -1      1749 1.40113E+01
 -1      1750 1.54447E+01
 -1      1751 1.52913E+01
 -1      1752 1.37192E+01
 -1      1753 1.40388E+01
 -1      1754 2.74957E+01
 -1      1755 3.70312E+01
 -1      1756 2.97777E+01
 -1      1757 2.72494E+01
 -1      1758 9.60097E+00
 -1      1759 1.27982E+00
 -1      1760 1.67345E+00
 -1      1761 2.37540E+00
 -1      1762 4.26061E+00
 -1      1763 1.76142E+00
 -1      1764 8.75992E-01
 -1      1765 9.69031E-01
 -1      1766 7.75010E-01
 -1      1767 8.29031E-01
 -1      1768 7.37672E-01
 -1      1769 7.08818E-01
 -1      1770 7.43249E-01
 -1      1771 6.58949E-01
 -1      1772 6.66026E-01
 -1      1773 6.86508E-01
 -1      1774 6.04878E-01
 -1      1775 6.89291E-01
 -1      1776 6.67378E-01
 -1      1777 5.83921E-01
 -1      1778 7.45533E-01
 -1      1779 7.11365E-01
 -1      1780 6.07346E-01
 -1      1781 8.36318E-01
 -1      1782 7.79124E-01
 -1      1783 6.63011E-01
 -1      1784 9.79528E-01
 -1      1785 8.84125E-01
 -1      1786 7.44410E-01
 -1      1787 1.22418E+00
 -1      1788 1.04665E+00
 -1      1789 8.59341E-01
 -1      1790 1.69385E+00
 -1      1791 1.32848E+00
 -1      1792 1.03077E+00
 -1      1793 2.62003E+00
 -1      1794 1.78539E+00
 -1      1795 1.22660E+00
 -1      1796 8.11629E+00
 -1      1797 3.05786E+00
 -1      1798 1.75597E+00
 -1      1799 2.80120E+00
 -1      1800 5.19535E+00
 -1      1801 2.16946E+00
 -1      1802 2.65810E+00
 -1      1803 2.05071E+00
 -1      1804 3.39811E+00
 -1      1805 2.54835E+00
 -1      1806 1.93447E+00
 -1      1807 1.70329E+00
 -1      1808 1.36944E+00
 -1      1809 1.50852E+00
 -1      1810 1.18879E+00
 -1      1811 9.84956E-01
 -1      1812 1.09670E+00
 -1      1813 8.65115E-01
 -1      1814 7.51155E-01
 -1      1815 7.96212E-01
 -1      1816 7.00959E-01
 -1      1817 6.21533E-01
 -1      1818 6.26174E-01
 -1      1819 5.73636E-01
 -1      1820 5.06030E-01
 -1      1821 5.28081E-01
 -1      1822 4.67316E-01
 -1      1823 4.23692E-01
 -1      1824 4.41469E-01
 -1      1825 3.90493E-01
 -1      1826 3.60998E-01
 -1      1827 3.69557E-01
 -1      1828 3.32785E-01
 -1      1829 3.15570E-01
 -1      1830 3.08146E-01
 -1      1831 3.34319E-01
 -1      1832 3.62793E-01
 -1      1833 2.98682E-01
 -1      1834 4.01210E-01
 -1      1835 4.61356E-01
 -1      1836 3.55847E-01
 -1      1837 5.69340E-01
 -1      1838 6.63106E-01
 -1      1839 5.02247E-01
 -1      1840 8.13478E-01
 -1      1841 9.89415E-01
 -1      1842 7.60603E-01
 -1      1843 1.18926E+00
 -1      1844 1.42054E+00
 -1      1845 1.11082E+00
 -1      1846 1.67777E+00
 -1      1847 1.96093E+00
 -1      1848 1.56789E+00
 -1      1849 2.27155E+00
 -1      1850 2.57465E+00
 -1      1851 2.13574E+00
 -1      1852 2.90926E+00
 -1      1853 3.15222E+00
 -1      1854 2.78097E+00
 -1      1855 3.44575E+00
 -1      1856 3.70436E+00
 -1      1857 3.40912E+00
 -1      1858 3.93433E+00
 -1      1859 4.31423E+00
 -1      1860 3.93262E+00
 -1      1861 5.11523E+00
 -1      1862 4.90411E+00
 -1      1863 4.96359E+00
 -1      1864 5.68348E+00
 -1      1865 5.52723E+00
 -1      1866 6.54397E+00
 -1      1867 5.21285E+00
 -1      1868 6.58746E+00
 -1      1869 7.00896E+00
 -1      1870 6.13311E+00
 -1      1871 8.99033E+00
 -1      1872 1.38197E+01
 -1      1873 1.40343E+01
 -1      1874 1.38810E+01
 -1      1875 1.27074E+01
 -1      1876 7.28579E+00
 -1      1877 4.58300E+00
 -1      1878 5.16127E+00
 -1      1879 4.73386E+00
 -1      1880 4.87295E+00
 -1      1881 5.06526E+00
 -1      1882 5.28722E+00
 -1      1883 5.78261E+00
 -1      1884 4.54246E+00
 -1      1885 4.41547E+00
 -1      1886 5.36925E+00
 -1      1887 3.96299E+00
 -1      1888 3.56728E+00
 -1      1889 4.17202E+00
 -1      1890 3.38211E+00
 -1      1891 3.05450E+00
 -1      1892 3.53438E+00
 -1      1893 2.76090E+00
 -1      1894 2.49261E+00
 -1      1895 3.05561E+00
 -1      1896 2.18574E+00
 -1      1897 1.93853E+00
 -1      1898 2.45515E+00
 -1      1899 1.63877E+00
 -1      1900 1.37697E+00
 -1      1901 1.84852E+00
 -1      1902 1.15610E+00
 -1      1903 9.73946E-01
 -1      1904 1.32789E+00
 -1      1905 8.07561E-01
 -1      1906 6.73527E-01
 -1      1907 9.40639E-01
 -1      1908 5.52921E-01
 -1      1909 4.60786E-01
 -1      1910 6.53649E-01
 -1      1911 3.75289E-01
 -1      1912 3.21353E-01
 -1      1913 4.47547E-01
 -1      1914 2.61627E-01
 -1      1915 2.21918E-01
 -1      1916 3.02324E-01
 -1      1917 1.82582E-01
 -1      1918 1.55966E-01
 -1      1919 2.03262E-01
 -1      1920 1.24479E-01
 -1      1921 1.00086E-01
 -1      1922 1.32438E-01
 -1      1923 8.43293E-02
 -1      1924 7.22602E-02
 -1      1925 8.51941E-02
 -1      1926 6.23852E-02
 -1      1927 5.39316E-02
 -1      1928 5.95628E-02
 -1      1929 4.65495E-02
 -1      1930 3.90830E-02
 -1      1931 4.23058E-02
 -1      1932 3.35327E-02
 -1      1933 2.61303E-02
 -1      1934 2.93734E-02
 -1      1935 2.20158E-02
 -1      1936 1.62379E-02
 -1      1937 1.97086E-02
 -1      1938 1.35421E-02
 -1      1939 1.15255E+00
 -1      1940 1.41163E+00
 -1      1941 8.81435E-01
 -1      1942 9.91533E-01
 -1      1943 9.79528E-01
 -1      1944 7.17221E-01
 -1      1945 8.00096E-01
 -1      1946 7.37168E-01
 -1      1947 5.94232E-01
 -1      1948 6.61048E-01
 -1      1949 5.99656E-01
 -1      1950 4.89639E-01
 -1      1951 5.44478E-01
 -1      1952 4.93729E-01
 -1      1953 4.00143E-01
 -1      1954 4.45689E-01
 -1      1955 4.00025E-01
 -1      1956 3.22535E-01
 -1      1957 3.61148E-01
 -1      1958 3.17080E-01
 -1      1959 2.53167E-01
 -1      1960 2.87486E-01
 -1      1961 2.43036E-01
 -1      1962 2.15745E-01
 -1      1963 2.46206E-01
 -1      1964 2.01026E-01
 -1      1965 2.09472E-01
 -1      1966 2.13768E-01
 -1      1967 1.92089E-01
 -1      1968 1.96245E-01
 -1      1969 2.03891E-01
 -1      1970 1.84532E-01
 -1      1971 1.79138E-01
 -1      1972 1.94659E-01
 -1      1973 1.77364E-01
 -1      1974 2.00328E-01
 -1      1975 1.79408E-01
 -1      1976 1.76049E-01
 -1      1977 2.02459E-01
 -1      1978 1.80676E-01
 -1      1979 1.56667E-01
 -1      1980 3.15806E-01
 -1      1981 2.50959E-01
 -1      1982 1.85514E-01
 -1      1983 4.77655E-01
 -1      1984 4.10806E-01
 -1      1985 3.29014E-01
 -1      1986 7.34046E-01
 -1      1987 5.87990E-01
 -1      1988 5.34349E-01
 -1      1989 1.01297E+00
 -1      1990 8.64454E-01
 -1      1991 7.75091E-01
 -1      1992 1.32608E+00
 -1      1993 1.15227E+00
 -1      1994 1.04480E+00
 -1      1995 1.59069E+00
 -1      1996 1.46806E+00
 -1      1997 1.32608E+00
 -1      1998 1.75180E+00
 -1      1999 1.71333E+00
 -1      2000 1.59069E+00
 -1      2001 1.88700E+00
 -1      2002 1.79027E+00
 -1      2003 1.75180E+00
 -1      2004 1.91229E+00
 -1      2005 1.85400E+00
 -1      2006 1.75728E+00
 -1      2007 2.03353E+00
 -1      2008 1.94308E+00
 -1      2009 1.75507E+00
 -1      2010 1.89769E+00
 -1      2011 1.97253E+00
 -1      2012 1.72486E+00
 -1      2013 1.56115E+00
 -1      2014 1.75902E+00
 -1      2015 1.52519E+00
 -1      2016 1.19203E+00
 -1      2017 1.42331E+00
 -1      2018 1.24867E+00
 -1      2019 8.52791E-01
 -1      2020 1.04676E+00
 -1      2021 9.65565E-01
 -1      2022 5.66362E-01
 -1      2023 7.31466E-01
 -1      2024 6.98974E-01
 -1      2025 3.56436E-01
 -1      2026 4.58270E-01
 -1      2027 4.69558E-01
 -1      2028 2.18441E-01
 -1      2029 2.65577E-01
 -1      2030 2.70607E-01
 -1      2031 1.92650E-01
 -1      2032 2.07419E-01
 -1      2033 1.68725E-01
 -1      2034 2.14377E-01
 -1      2035 2.02175E-01
 -1      2036 1.67228E-01
 -1      2037 2.07178E-01
 -1      2038 2.13837E-01
 -1      2039 1.76213E-01
 -1      2040 1.79892E-01
 -1      2041 1.96936E-01
 -1      2042 1.65431E-01
 -1      2043 1.48889E-01
 -1      2044 1.68842E-01
 -1      2045 1.44138E-01
 -1      2046 1.23981E-01
 -1      2047 1.39130E-01
 -1      2048 1.23329E-01
 -1      2049 1.00352E-01
 -1      2050 1.14927E-01
 -1      2051 1.04517E-01
 -1      2052 7.89080E-02
 -1      2053 9.03504E-02
 -1      2054 8.54611E-02
 -1      2055 6.25102E-02
 -1      2056 7.14536E-02
 -1      2057 6.80047E-02
 -1      2058 4.73920E-02
 -1      2059 5.55282E-02
 -1      2060 5.35683E-02
 -1      2061 3.41860E-02
 -1      2062 4.11918E-02
 -1      2063 4.03861E-02
 -1      2064 2.50256E-02
 -1      2065 2.95268E-02
 -1      2066 2.95268E-02
 -1      2067 1.87677E-02
 -1      2068 2.16136E-02
 -1      2069 2.14556E-02
 -1      2070 1.08090E-02
 -1      2071 1.51170E-02
 -1      2072 1.43929E-02
 -1      2073 8.88790E-03
 -1      2074 6.92038E-03
 -1      2075 8.55599E-03
 -1      2076 1.19999E-02
 -1      2077 1.19999E-02
 -1      2078 1.27121E-02
 -1      2079 9.29291E-03
 -1      2080 7.16476E-03
 -1      2081 6.41502E-03
 -1      2082 8.76291E-03
 -1      2083 1.03491E-02
 -1      2084 9.09958E-03
 -1      2085 1.01924E-02
 -1      2086 1.20494E-02
 -1      2087 1.14623E-02
 -1      2088 1.32404E-02
 -1      2089 1.21461E-02
 -1      2090 1.20873E-02
 -1      2091 1.43916E-02
 -1      2092 1.24245E-02
 -1      2093 1.24245E-02
 -1      2094 1.47078E-02
 -1      2095 1.19475E-02
 -1      2096 1.24245E-02
 -1      2097 1.49861E-02
 -1      2098 9.99842E-03
 -1      2099 1.11979E-02
 -1      2100 1.42365E-02
 -1      2101 7.85554E-03
 -1      2102 8.06451E-03
 -1      2103 1.15529E-02
 -1      2104 1.00910E-02
 -1      2105 8.72318E-03
 -1      2106 1.04866E-02
 -1      2107 1.22879E-02
 -1      2108 1.16362E-02
 -1      2109 1.28995E-02
 -1      2110 1.52450E+00
 -1      2111 1.89881E+00
 -1      2112 1.63695E+00
 -1      2113 1.25342E+00
 -1      2114 3.38789E+01
 -1      2115 3.01381E+01
 -1      2116 9.70688E+00
 -1      2117 1.26531E+01
 -1      2118 3.28417E+01
 -1      2119 3.28417E+01
 -1      2120 1.58466E+01
 -1      2121 2.89729E+01
 -1      2122 1.96378E+01
 -1      2123 1.03099E+00
 -1      2124 1.20436E+00
 -1      2125 9.84010E-01
 -1      2126 8.46594E-01
 -1      2127 1.02956E+01
 -1      2128 9.40482E+00
 -1      2129 1.13851E+01
 -1      2130 1.11742E+01
 -1      2131 1.14371E+01
 -1      2132 1.19296E+01
 -1      2133 1.14333E+01
 -1      2134 1.16048E+01
 -1      2135 9.94019E+00
 -1      2136 1.04643E+01
 -1      2137 1.21749E+01
 -1      2138 9.43524E+00
 -1      2139 2.78816E+01
 -1      2140 1.52968E+01
 -1      2141 3.07572E+01
 -1      2142 3.34175E+01
 -1      2143 1.97536E+01
 -1      2144 2.84298E+01
 -1      2145 3.15774E+01
 -1      2146 3.47639E+01
 -1      2147 3.47639E+01
 -1      2148 3.76639E+01
 -1      2149 3.47639E+01
 -1      2150 3.57299E+01
 -1      2151 3.57299E+01
 -1      2152 2.60653E+01
 -1      2153 2.83608E+01
 -1      2154 1.32838E+01
 -1      2155 2.17752E+01
 -1      2156 9.88692E+00
 -1      2157 1.06760E+01
 -1      2158 1.32083E+01
 -1      2159 1.17750E+01
 -1      2160 1.54447E+01
 -1      2161 1.54447E+01
 -1      2162 1.51379E+01
 -1      2163 1.52913E+01
 -1      2164 1.17756E+01
 -1      2165 1.00374E+01
 -1      2166 2.65441E+01
 -1      2167 1.48254E+01
 -1      2168 2.94091E+01
 -1      2169 3.15922E+01
 -1      2170 1.89220E+01
 -1      2171 2.49165E+01
 -1      2172 2.99869E+01
 -1      2173 3.28417E+01
 -1      2174 3.02995E+01
 -1      2175 3.24797E+01
 -1      2176 2.95093E+01
 -1      2177 1.06153E+01
 -1      2178 2.91019E+00
 -1      2179 1.52913E+01
 -1      2180 8.04255E+00
 -1      2181 2.10154E+00
 -1      2182 6.24022E+00
 -1      2183 9.71630E+00
 -1      2184 1.28984E-02
 -1      2185 1.34490E-02
 -1      2186 3.25594E+01
 -1      2187 1.23236E-02
 -1      2188 1.22879E-02
 -1      2189 1.44447E-02
 -1      2190 1.50194E-02
 -1      2191 2.27253E+01
 -1      2192 2.83195E+01
 -1      2193 2.50669E+01
 -1      2194 1.15382E+01
 -1      2195 3.58918E+01
 -1      2196 2.45479E+01
 -1      2197 1.08240E+01
 -1      2198 9.08400E+00
 -1      2199 9.80372E+00
 -1      2200 1.67016E+01
 -1      2201 2.83608E+01
 -1      2202 3.76639E+01
 -1      2203 3.95979E+01
 -1      2204 2.61096E+01
 -1      2205 1.10958E+01
 -1      2206 8.47886E+00
 -1      2207 9.95284E+00
 -1      2208 1.07542E+01
 -1      2209 8.61906E+00
 -1      2210 1.16658E+01
 -1      2211 9.77831E+00
 -1      2212 1.03227E+01
 -1      2213 3.32638E+01
 -1      2214 5.59453E+00
 -1      2215 7.85766E+00
 -1      2216 1.11305E+01
 -1      2217 1.25492E+01
 -1      2218 3.05087E+01
 -1      2219 6.68765E+00
 -1      2220 5.54871E-01
 -1      2221 5.86633E-01
 -1      2222 5.99244E-01
 -1      2223 6.46205E-01
 -1      2224 4.95166E-01
 -1      2225 5.05502E-01
 -1      2226 5.04150E-01
 -1      2227 5.40864E-01
 -1      2228 5.18791E-01
 -1      2229 4.39020E-01
 -1      2230 5.89700E-01
 -1      2231 5.56108E-01
 -1      2232 4.67553E-01
 -1      2233 6.49926E-01
 -1      2234 6.02119E-01
 -1      2235 4.95216E-01
 -1      2236 7.17050E-01
 -1      2237 6.49926E-01
 -1      2238 5.07635E-01
 -1      2239 8.18170E-01
 -1      2240 7.13870E-01
 -1      2241 5.04454E-01
 -1      2242 9.75119E-01
 -1      2243 8.83580E-01
 -1      2244 5.66684E-01
 -1      2245 1.75229E+00
 -1      2246 1.31446E+00
 -1      2247 9.71438E-01
 -1      2248 1.60920E+00
 -1      2249 1.26757E+00
 -1      2250 1.03639E+00
 -1      2251 9.90526E-01
 -1      2252 8.09883E-01
 -1      2253 7.49572E-01
 -1      2254 7.50836E-01
 -1      2255 6.30995E-01
 -1      2256 6.44666E-01
 -1      2257 5.69396E-01
 -1      2258 5.19200E-01
 -1      2259 5.24020E-01
 -1      2260 4.79791E-01
 -1      2261 4.31893E-01
 -1      2262 4.23012E-01
 -1      2263 4.06234E-01
 -1      2264 3.67520E-01
 -1      2265 3.57944E-01
 -1      2266 3.38699E-01
 -1      2267 3.05500E-01
 -1      2268 3.03463E-01
 -1      2269 2.74630E-01
 -1      2270 2.46417E-01
 -1      2271 2.43771E-01
 -1      2272 2.41064E-01
 -1      2273 2.59813E-01
 -1      2274 2.07548E-01
 -1      2275 2.91972E-01
 -1      2276 3.30388E-01
 -1      2277 2.34354E-01
 -1      2278 4.15869E-01
 -1      2279 5.23853E-01
 -1      2280 3.51994E-01
 -1      2281 6.34673E-01
 -1      2282 7.85045E-01
 -1      2283 5.48295E-01
 -1      2284 9.32768E-01
 -1      2285 1.13261E+00
 -1      2286 8.06838E-01
 -1      2287 1.33210E+00
 -1      2288 1.58933E+00
 -1      2289 1.15405E+00
 -1      2290 1.86288E+00
 -1      2291 2.17350E+00
 -1      2292 1.62708E+00
 -1      2293 2.55707E+00
 -1      2294 2.89168E+00
 -1      2295 2.28420E+00
 -1      2296 3.44296E+00
 -1      2297 3.73650E+00
 -1      2298 3.21906E+00
 -1      2299 4.56160E+00
 -1      2300 4.79156E+00
 -1      2301 4.59544E+00
 -1      2302 5.33373E+00
 -1      2303 6.13473E+00
 -1      2304 5.96271E+00
 -1      2305 6.89593E+00
 -1      2306 7.67530E+00
 -1      2307 7.26607E+00
 -1      2308 6.29957E+00
 -1      2309 6.60163E+00
 -1      2310 1.70998E-02
 -1      2311 7.44076E+00
 -1      2312 7.77216E+00
 -1      2313 6.87064E+00
 -1      2314 6.12589E+00
 -1      2315 5.36294E+00
 -1      2316 4.91047E+00
 -1      2317 6.86434E+00
 -1      2318 4.08678E+00
 -1      2319 3.90162E+00
 -1      2320 5.27771E+00
 -1      2321 3.29781E+00
 -1      2322 3.00421E+00
 -1      2323 3.85022E+00
 -1      2324 2.54984E+00
 -1      2325 2.24297E+00
 -1      2326 2.79203E+00
 -1      2327 1.91281E+00
 -1      2328 1.61305E+00
 -1      2329 2.00749E+00
 -1      2330 1.37793E+00
 -1      2331 1.15706E+00
 -1      2332 1.44222E+00
 -1      2333 9.84819E-01
 -1      2334 8.18434E-01
 -1      2335 1.03486E+00
 -1      2336 6.93138E-01
 -1      2337 5.72533E-01
 -1      2338 7.37317E-01
 -1      2339 4.81966E-01
 -1      2340 3.96469E-01
 -1      2341 5.21455E-01
 -1      2342 3.31412E-01
 -1      2343 2.71686E-01
 -1      2344 3.65832E-01
 -1      2345 2.25916E-01
 -1      2346 1.86580E-01
 -1      2347 2.55005E-01
 -1      2348 1.51473E-01
 -1      2349 1.19986E-01
 -1      2350 1.74128E-01
 -1      2351 9.70697E-02
 -1      2352 8.13133E-02
 -1      2353 1.16105E-01
 -1      2354 6.53538E-02
 -1      2355 5.54789E-02
 -1      2356 7.72294E-02
 -1      2357 4.44918E-02
 -1      2358 3.71097E-02
 -1      2359 5.02828E-02
 -1      2360 2.96997E-02
 -1      2361 2.41494E-02
 -1      2362 3.18858E-02
 -1      2363 2.26712E-02
 -1      2364 1.85567E-02
 -1      2365 1.79820E-02
 -1      2366 2.29975E-02
 -1      2367 4.86183E-01
 -1      2368 5.42356E-01
 -1      2369 6.05053E-01
 -1      2370 6.86391E-01
 -1      2371 4.91579E-01
 -1      2372 7.53807E-01
 -1      2373 9.14828E-01
 -1      2374 6.21691E-01
 -1      2375 4.09480E-01
 -1      2376 4.59234E-01
 -1      2377 4.01933E-01
 -1      2378 3.35782E-01
 -1      2379 3.79732E-01
 -1      2380 3.45237E-01
 -1      2381 2.66673E-01
 -1      2382 3.05668E-01
 -1      2383 2.85376E-01
 -1      2384 2.02531E-01
 -1      2385 2.37580E-01
 -1      2386 2.26168E-01
 -1      2387 1.68210E-01
 -1      2388 1.75171E-01
 -1      2389 1.69715E-01
 -1      2390 1.64252E-01
 -1      2391 1.66228E-01
 -1      2392 1.40373E-01
 -1      2393 1.58759E-01
 -1      2394 1.64340E-01
 -1      2395 1.38480E-01
 -1      2396 1.53896E-01
 -1      2397 1.55483E-01
 -1      2398 1.35291E-01
 -1      2399 1.66307E-01
 -1      2400 1.66036E-01
 -1      2401 1.44155E-01
 -1      2402 1.67775E-01
 -1      2403 1.87427E-01
 -1      2404 1.77415E-01
 -1      2405 2.37111E-01
 -1      2406 1.88612E-01
 -1      2407 2.19372E-01
 -1      2408 4.00896E-01
 -1      2409 3.05896E-01
 -1      2410 3.08993E-01
 -1      2411 5.95427E-01
 -1      2412 4.85092E-01
 -1      2413 4.61974E-01
 -1      2414 8.24882E-01
 -1      2415 6.94474E-01
 -1      2416 6.45217E-01
 -1      2417 1.08474E+00
 -1      2418 9.45446E-01
 -1      2419 8.64828E-01
 -1      2420 1.31067E+00
 -1      2421 1.16869E+00
 -1      2422 1.06934E+00
 -1      2423 1.49932E+00
 -1      2424 1.37669E+00
 -1      2425 1.21930E+00
 -1      2426 1.56655E+00
 -1      2427 1.52808E+00
 -1      2428 1.31408E+00
 -1      2429 1.50664E+00
 -1      2430 1.53963E+00
 -1      2431 1.31592E+00
 -1      2432 1.55033E+00
 -1      2433 1.51954E+00
 -1      2434 1.30190E+00
 -1      2435 1.50225E+00
 -1      2436 1.56324E+00
 -1      2437 1.32771E+00
 -1      2438 1.31760E+00
 -1      2439 1.45627E+00
 -1      2440 1.29465E+00
 -1      2441 1.11374E+00
 -1      2442 1.25158E+00
 -1      2443 1.18266E+00
 -1      2444 8.70195E-01
 -1      2445 1.01546E+00
 -1      2446 1.01837E+00
 -1      2447 6.22745E-01
 -1      2448 7.44070E-01
 -1      2449 7.93966E-01
 -1      2450 4.21204E-01
 -1      2451 5.29296E-01
 -1      2452 5.74392E-01
 -1      2453 2.45272E-01
 -1      2454 3.36132E-01
 -1      2455 3.95870E-01
 -1      2456 1.91621E-01
 -1      2457 2.02643E-01
 -1      2458 2.68168E-01
 -1      2459 1.79309E-01
 -1      2460 1.69784E-01
 -1      2461 2.03702E-01
 -1      2462 1.60848E-01
 -1      2463 1.61387E-01
 -1      2464 1.63944E-01
 -1      2465 1.51839E-01
 -1      2466 1.62082E-01
 -1      2467 1.47256E-01
 -1      2468 1.35209E-01
 -1      2469 1.46259E-01
 -1      2470 1.42910E-01
 -1      2471 1.18224E-01
 -1      2472 1.27983E-01
 -1      2473 1.30104E-01
 -1      2474 1.00516E-01
 -1      2475 1.09570E-01
 -1      2476 1.14224E-01
 -1      2477 8.15637E-02
 -1      2478 9.15657E-02
 -1      2479 9.66187E-02
 -1      2480 6.48928E-02
 -1      2481 7.23472E-02
 -1      2482 7.84518E-02
 -1      2483 4.94218E-02
 -1      2484 5.64038E-02
 -1      2485 6.07463E-02
 -1      2486 3.59248E-02
 -1      2487 4.21250E-02
 -1      2488 4.49605E-02
 -1      2489 2.57025E-02
 -1      2490 3.03617E-02
 -1      2491 3.21006E-02
 -1      2492 1.80436E-02
 -1      2493 2.14556E-02
 -1      2494 2.22905E-02
 -1      2495 1.36873E-02
 -1      2496 1.17525E-02
 -1      2497 1.38581E-02
 -1      2498 1.43635E-02
 -1      2499 1.73530E-02
 -1      2500 1.43635E-02
 -1      2501 1.78073E-02
 -1      2502 1.94586E-02
 -1      2503 2.92270E+01
 -1      2504 3.25594E+01
 -1      2505 1.66354E-02
 -1      2506 1.55222E-02
 -1      2507 1.70823E-02
 -1      2508 1.72254E-02
 -1      2509 1.71875E-02
 -1      2510 1.94692E-02
 -1      2511 1.76626E-02
 -1      2512 1.73843E-02
 -1      2513 2.01802E-02
 -1      2514 1.80337E-02
 -1      2515 1.80337E-02
 -1      2516 2.07102E-02
 -1      2517 1.72840E-02
 -1      2518 1.80337E-02
 -1      2519 2.10812E-02
 -1      2520 1.40906E-02
 -1      2521 1.60245E-02
 -1      2522 1.98217E-02
 -1      2523 1.33469E-02
 -1      2524 1.24793E-02
 -1      2525 1.69509E-02
 -1      2526 1.79820E-02
 -1      2527 1.64368E-02
 -1      2528 1.84294E-02
 -1      2529 1.66884E+00
 -1      2530 1.30701E+00
 -1      2531 8.34873E-01
 -1      2532 9.66890E-01
 -1      2533 1.26587E+01
 -1      2534 1.75647E+01
 -1      2535 7.92113E+00
 -1      2536 1.11147E+01
 -1      2537 2.11292E+01
 -1      2538 2.05514E+01
 -1      2539 1.06082E+01
 -1      2540 7.55837E+00
 -1      2541 1.25492E+01
 -1      2542 1.32083E+01
 -1      2543 1.12506E+01
 -1      2544 8.12874E+00
 -1      2545 3.58918E+01
 -1      2546 3.58918E+01
 -1      2547 5.17636E-01
 -1      2548 5.39945E-01
 -1      2549 4.67629E-01
 -1      2550 4.39217E-01
 -1      2551 3.32638E+01
 -1      2552 2.69297E+01
 -1      2553 7.33043E+00
 -1      2554 6.45186E+00
 -1      2555 5.01093E+00
 -1      2556 9.17562E+00
 -1      2557 9.00794E+00
 -1      2558 7.27483E+00
 -1      2559 8.24386E+00
 -1      2560 6.08462E+00
 -1      2561 6.58956E+00
 -1      2562 1.77835E+01
 -1      2563 1.22476E+01
 -1      2564 2.23414E+01
 -1      2565 2.15213E+01
 -1      2566 2.23414E+01
 -1      2567 3.95979E+01
 -1      2568 3.95979E+01
 -1      2569 2.95264E+01
 -1      2570 3.14604E+01
 -1      2571 1.81657E+01
 -1      2572 2.55348E+01
 -1      2573 1.12840E+01
 -1      2574 1.55741E+01
 -1      2575 6.94527E+00
 -1      2576 9.55303E+00
 -1      2577 8.37895E+00
 -1      2578 3.05087E+01
 -1      2579 2.51257E+01
 -1      2580 3.05087E+01
 -1      2581 1.70591E+01
 -1      2582 1.20110E+01
 -1      2583 8.74533E+00
 -1      2584 1.36404E+01
 -1      2585 1.70998E-02
 -1      2586 7.12758E+00
 -1      2587 6.49091E+00
 -1      2588 5.07778E-01
 -1      2589 6.46205E-01
 -1      2590 7.08166E-01
 -1      2591 9.04161E+00
 -1      2592 1.32388E+00
 -1      2593 1.02547E+00
 -1      2594 1.05323E+00
 -1      2595 6.94527E+00
 -1      2596 6.84799E-01
 -1      2597 7.60254E-01
 -1      2598 6.67678E-01
 -1      2599 4.84410E-01
 -1      2600 9.09192E+00
 -1      2601 8.73996E+00
 -1      2602 8.74418E+00
 -1      2603 8.42558E+00
 -1      2604 6.39686E+00
 -1      2605 8.38640E+00
 -1      2606 1.87511E-02
 -1      2607 3.85475E+00
 -1      2608 8.52879E+00
 -1      2609 3.25594E+01
 -1      2610 2.50669E+01
 -1      2611 1.79559E+01
 -1      2612 1.61373E+01
 -1      2613 1.09768E+01
 -1      2614 8.87012E-01
 -1      2615 9.99884E-01
 -1      2616 6.86817E-01
 -1      2617 6.61291E-01
 -1      2618 6.17815E+00
 -1      2619 1.93313E+01
 -1      2620 9.28053E+00
 -1      2621 1.40153E+01
 -1      2622 6.23944E+00
 -1      2623 4.88058E+00
 -1      2624 2.11292E+01
 -1      2625 7.99950E+00
 -1      2626 5.83230E+00
 -1      2627 8.28018E+00
 -1      2628 2.92074E+01
 -1      2629 2.28733E+01
 -1      2630 2.92074E+01
 -1      2631 6.49761E+00
 -1      2632 6.11886E+00
 -1      2633 3.93915E+00
 -1      2634 3.14604E+01
 -1      2635 1.27482E+01
 -1      2636 1.79820E-02
 -1      2637 5.90299E+00
 -1      2638 2.15193E-02
 -1      2639 4.18763E-01
 -1      2640 4.03519E-01
 -1      2641 3.94930E-01
 -1      2642 3.81641E-01
 -1      2643 3.46140E-01
 -1      2644 4.33577E-01
 -1      2645 4.33577E-01
 -1      2646 4.21076E-01
 -1      2647 4.24256E-01
 -1      2648 3.50198E-01
 -1      2649 9.49177E-01
 -1      2650 6.09832E-01
 -1      2651 6.63865E-01
 -1      2652 5.95701E-01
 -1      2653 5.49841E-01
 -1      2654 6.67688E+00
 -1      2655 7.99168E+00
 -1      2656 9.78923E+00
 -1      2657 5.47193E-01
 -1      2658 4.88146E-01
 -1      2659 3.93321E-01
 -1      2660 4.77165E-01
 -1      2661 4.15566E-01
 -1      2662 3.79691E-01
 -1      2663 3.88826E-01
 -1      2664 3.49417E-01
 -1      2665 3.41971E-01
 -1      2666 3.16369E-01
 -1      2667 2.90710E-01
 -1      2668 2.82183E-01
 -1      2669 2.69663E-01
 -1      2670 2.40841E-01
 -1      2671 2.28088E-01
 -1      2672 2.14340E-01
 -1      2673 1.83470E-01
 -1      2674 1.80540E-01
 -1      2675 1.54215E-01
 -1      2676 1.48862E-01
 -1      2677 1.24784E-01
 -1      2678 1.80870E-01
 -1      2679 2.13030E-01
 -1      2680 1.27538E-01
 -1      2681 2.80572E-01
 -1      2682 3.66053E-01
 -1      2683 2.27088E-01
 -1      2684 4.67166E-01
 -1      2685 5.77985E-01
 -1      2686 3.95744E-01
 -1      2687 7.19479E-01
 -1      2688 8.67203E-01
 -1      2689 6.38350E-01
 -1      2690 1.06531E+00
 -1      2691 1.26480E+00
 -1      2692 9.77951E-01
 -1      2693 1.54327E+00
 -1      2694 1.81681E+00
 -1      2695 1.45453E+00
 -1      2696 2.21017E+00
 -1      2697 2.59374E+00
 -1      2698 2.12635E+00
 -1      2699 3.19761E+00
 -1      2700 3.74889E+00
 -1      2701 3.12357E+00
 -1      2702 4.72216E+00
 -1      2703 5.54726E+00
 -1      2704 4.70071E+00
 -1      2705 7.50156E+00
 -1      2706 8.04373E+00
 -1      2707 7.62828E+00
 -1      2708 2.47772E-02
 -1      2709 2.40697E-02
 -1      2710 2.83166E-02
 -1      2711 4.70336E+00
 -1      2712 6.02287E+00
 -1      2713 6.13288E+00
 -1      2714 5.30919E+00
 -1      2715 4.44320E+00
 -1      2716 3.83940E+00
 -1      2717 5.29837E+00
 -1      2718 3.17467E+00
 -1      2719 2.72029E+00
 -1      2720 3.76766E+00
 -1      2721 2.22196E+00
 -1      2722 1.89180E+00
 -1      2723 2.60460E+00
 -1      2724 1.56424E+00
 -1      2725 1.32913E+00
 -1      2726 1.77872E+00
 -1      2727 1.10242E+00
 -1      2728 9.30176E-01
 -1      2729 1.22445E+00
 -1      2730 7.70973E-01
 -1      2731 6.45677E-01
 -1      2732 8.38536E-01
 -1      2733 5.34959E-01
 -1      2734 4.44393E-01
 -1      2735 5.68615E-01
 -1      2736 3.70365E-01
 -1      2737 3.05307E-01
 -1      2738 3.83869E-01
 -1      2739 2.57209E-01
 -1      2740 2.11439E-01
 -1      2741 2.61742E-01
 -1      2742 1.80391E-01
 -1      2743 1.45284E-01
 -1      2744 1.82595E-01
 -1      2745 1.22847E-01
 -1      2746 9.99311E-02
 -1      2747 1.29110E-01
 -1      2748 8.35322E-02
 -1      2749 6.75727E-02
 -1      2750 9.02744E-02
 -1      2751 5.57635E-02
 -1      2752 4.47764E-02
 -1      2753 6.20662E-02
 -1      2754 3.63155E-02
 -1      2755 2.89055E-02
 -1      2756 4.17961E-02
 -1      2757 2.29975E-02
 -1      2758 3.99460E-01
 -1      2759 4.62157E-01
 -1      2760 3.40789E-01
 -1      2761 3.67738E-01
 -1      2762 3.38316E-01
 -1      2763 4.87025E-01
 -1      2764 5.54441E-01
 -1      2765 3.94906E-01
 -1      2766 2.33710E-01
 -1      2767 2.63824E-01
 -1      2768 1.83185E-01
 -1      2769 2.12278E-01
 -1      2770 1.90727E-01
 -1      2771 1.34203E-01
 -1      2772 1.61563E-01
 -1      2773 1.47674E-01
 -1      2774 1.14756E-01
 -1      2775 1.16738E-01
 -1      2776 1.08586E-01
 -1      2777 1.19487E-01
 -1      2778 1.19398E-01
 -1      2779 9.57628E-02
 -1      2780 1.25768E-01
 -1      2781 1.29044E-01
 -1      2782 1.09963E-01
 -1      2783 1.56294E-01
 -1      2784 1.44155E-01
 -1      2785 1.37908E-01
 -1      2786 2.07620E-01
 -1      2787 1.86499E-01
 -1      2788 1.86499E-01
 -1      2789 2.71766E-01
 -1      2790 2.50929E-01
 -1      2791 2.60013E-01
 -1      2792 3.85968E-01
 -1      2793 3.17183E-01
 -1      2794 3.48740E-01
 -1      2795 5.46170E-01
 -1      2796 4.61974E-01
 -1      2797 4.70164E-01
 -1      2798 7.35348E-01
 -1      2799 6.36301E-01
 -1      2800 6.36301E-01
 -1      2801 9.46242E-01
 -1      2802 8.25678E-01
 -1      2803 8.16761E-01
 -1      2804 1.09888E+00
 -1      2805 1.01494E+00
 -1      2806 9.75788E-01
 -1      2807 1.22217E+00
 -1      2808 1.15615E+00
 -1      2809 1.10175E+00
 -1      2810 1.32396E+00
 -1      2811 1.29521E+00
 -1      2812 1.23205E+00
 -1      2813 1.30161E+00
 -1      2814 1.32853E+00
 -1      2815 1.30966E+00
 -1      2816 1.25378E+00
 -1      2817 1.24088E+00
 -1      2818 1.25349E+00
 -1      2819 1.33757E+00
 -1      2820 1.32465E+00
 -1      2821 1.26364E+00
 -1      2822 1.25176E+00
 -1      2823 1.29774E+00
 -1      2824 1.29468E+00
 -1      2825 1.12183E+00
 -1      2826 1.18785E+00
 -1      2827 1.19093E+00
 -1      2828 9.54089E-01
 -1      2829 1.05236E+00
 -1      2830 1.05755E+00
 -1      2831 7.61155E-01
 -1      2832 8.87280E-01
 -1      2833 9.21278E-01
 -1      2834 5.67362E-01
 -1      2835 6.60811E-01
 -1      2836 7.54125E-01
 -1      2837 3.95870E-01
 -1      2838 4.80942E-01
 -1      2839 5.67362E-01
 -1      2840 2.99088E-01
 -1      2841 3.41717E-01
 -1      2842 4.26790E-01
 -1      2843 2.32078E-01
 -1      2844 2.53915E-01
 -1      2845 3.27465E-01
 -1      2846 1.73064E-01
 -1      2847 1.90986E-01
 -1      2848 2.41199E-01
 -1      2849 1.65827E-01
 -1      2850 1.64593E-01
 -1      2851 1.91635E-01
 -1      2852 1.49711E-01
 -1      2853 1.55291E-01
 -1      2854 1.72629E-01
 -1      2855 1.30104E-01
 -1      2856 1.37329E-01
 -1      2857 1.49711E-01
 -1      2858 1.11832E-01
 -1      2859 1.20487E-01
 -1      2860 1.27712E-01
 -1      2861 9.27644E-02
 -1      2862 1.01715E-01
 -1      2863 1.07978E-01
 -1      2864 7.38472E-02
 -1      2865 8.30637E-02
 -1      2866 8.81598E-02
 -1      2867 5.64208E-02
 -1      2868 6.49098E-02
 -1      2869 6.95217E-02
 -1      2870 4.12907E-02
 -1      2871 4.85875E-02
 -1      2872 5.27510E-02
 -1      2873 2.96977E-02
 -1      2874 3.52609E-02
 -1      2875 3.88879E-02
 -1      2876 3.14770E-02
 -1      2877 2.35759E-02
 -1      2878 2.30238E-02
 -1      2879 2.47772E-02
 -1      2880 2.14845E-02
 -1      2881 1.96496E-02
 -1      2882 2.55911E-02
 -1      2883 2.82853E-01
 -1      2884 3.12601E-01
 -1      2885 2.78405E-01
 -1      2886 2.31188E-01
 -1      2887 2.47217E-02
 -1      2888 2.43506E-02
 -1      2889 2.48011E-02
 -1      2890 2.48011E-02
 -1      2891 2.84415E-02
 -1      2892 2.35416E-02
 -1      2893 2.48011E-02
 -1      2894 2.85209E-02
 -1      2895 2.14623E-02
 -1      2896 2.30736E-02
 -1      2897 2.80529E-02
 -1      2898 6.19011E-01
 -1      2899 5.79570E-01
 -1      2900 3.79839E-01
 -1      2901 4.12376E-01
 -1      2902 1.16835E+01
 -1      2903 6.69458E+00
 -1      2904 4.37908E+00
 -1      2905 1.04629E+01
 -1      2906 1.41192E+01
 -1      2907 1.81107E+01
 -1      2908 9.70174E+00
 -1      2909 2.74273E-02
 -1      2910 1.84223E+01
 -1      2911 2.25825E+01
 -1      2912 2.37348E-02
 -1      2913 2.35759E-02
 -1      2914 2.77462E-02
 -1      2915 2.26716E-02
 -1      2916 2.47772E-02
 -1      2917 2.70739E-02
 -1      2918 9.60214E+00
 -1      2919 8.83920E+00
 -1      2920 8.87068E+00
 -1      2921 2.16436E+01
 -1      2922 2.49759E+01
 -1      2923 4.33577E-01
 -1      2924 4.21158E-01
 -1      2925 3.57123E-01
 -1      2926 3.59519E-01
 -1      2927 6.91412E+00
 -1      2928 8.45809E+00
 -1      2929 4.02772E+00
 -1      2930 3.87542E+00
 -1      2931 1.98688E+01
 -1      2932 1.58723E+01
 -1      2933 1.35650E+01
 -1      2934 9.82721E+00
 -1      2935 6.72766E+00
 -1      2936 4.68354E+00
 -1      2937 1.95987E+01
 -1      2938 2.77362E+01
 -1      2939 5.41332E+00
 -1      2940 6.34508E+00
 -1      2941 8.61059E+00
 -1      2942 7.61361E+00
 -1      2943 3.52161E+00
 -1      2944 4.20688E+00
 -1      2945 4.00984E+00
 -1      2946 1.97375E+01
 -1      2947 1.51493E+01
 -1      2948 2.66389E+01
 -1      2949 2.12558E+01
 -1      2950 1.59989E+01
 -1      2951 1.57230E+01
 -1      2952 4.20979E-01
 -1      2953 4.33591E-01
 -1      2954 9.43030E+00
 -1      2955 8.52879E+00
 -1      2956 1.05037E+01
 -1      2957 9.78923E+00
 -1      2958 3.37680E-01
 -1      2959 3.81770E-01
 -1      2960 3.95255E-01
 -1      2961 5.44423E-01
 -1      2962 6.05772E+00
 -1      2963 5.58057E+00
 -1      2964 7.64787E+00
 -1      2965 5.86907E+00
 -1      2966 4.95735E+00
 -1      2967 3.72014E+00
 -1      2968 1.30736E+01
 -1      2969 1.97181E+01
 -1      2970 1.21347E+01
 -1      2971 1.36530E+01
 -1      2972 4.15439E-01
 -1      2973 5.50104E-01
 -1      2974 2.71304E-02
 -1      2975 4.05434E+00
 -1      2976 5.43934E+00
 -1      2977 3.00958E-02
 -1      2978 8.67214E+00
 -1      2979 9.06334E+00
 -1      2980 6.54466E+00
 -1      2981 2.26396E-02
 -1      2982 1.95498E-02
 -1      2983 1.43866E+01
 -1      2984 2.56725E-02
 -1      2985 1.09612E+01
 -1      2986 5.22289E-01
 -1      2987 1.12406E+01
 -1      2988 8.42558E+00
 -1      2989 8.16030E+00
 -1      2990 4.64225E-01
 -1      2991 4.52955E+00
 -1      2992 3.39404E+00
 -1      2993 5.19862E+00
 -1      2994 4.03688E-01
 -1      2995 4.18614E-01
 -1      2996 3.57039E-01
 -1      2997 3.46241E-01
 -1      2998 2.58041E+01
 -1      2999 1.54137E+01
 -1      3000 1.39425E+01
 -1      3001 1.47776E+01
 -1      3002 1.88340E+01
 -1      3003 1.16419E+01
 -1      3004 1.20211E+01
 -1      3005 1.32815E+01
 -1      3006 3.59404E-01
 -1      3007 4.33591E-01
 -1      3008 4.33591E-01
 -1      3009 2.91798E-01
 -1      3010 3.01119E-01
 -1      3011 6.10523E-01
 -1      3012 5.90146E+00
 -1      3013 5.01551E+00
 -1      3014 3.87969E-01
 -1      3015 3.64602E-01
 -1      3016 3.15935E-01
 -1      3017 3.13782E-01
 -1      3018 3.26449E-01
 -1      3019 3.23800E-01
 -1      3020 3.06089E-01
 -1      3021 2.95108E-01
 -1      3022 2.39217E-01
 -1      3023 3.00945E-01
 -1      3024 2.74205E-01
 -1      3025 2.27342E-01
 -1      3026 2.63735E-01
 -1      3027 2.30687E-01
 -1      3028 2.22708E-01
 -1      3029 2.10381E-01
 -1      3030 1.89334E-01
 -1      3031 1.91932E-01
 -1      3032 1.71028E-01
 -1      3033 1.44526E-01
 -1      3034 1.53320E-01
 -1      3035 1.37047E-01
 -1      3036 1.07792E-01
 -1      3037 1.27534E-01
 -1      3038 1.24154E-01
 -1      3039 1.56162E-01
 -1      3040 1.36417E-01
 -1      3041 2.04021E-01
 -1      3042 2.71564E-01
 -1      3043 2.00637E-01
 -1      3044 3.51815E-01
 -1      3045 4.52927E-01
 -1      3046 3.28747E-01
 -1      3047 5.62338E-01
 -1      3048 7.03832E-01
 -1      3049 5.18409E-01
 -1      3050 8.56447E-01
 -1      3051 1.05455E+00
 -1      3052 7.80436E-01
 -1      3053 1.27409E+00
 -1      3054 1.55256E+00
 -1      3055 1.15258E+00
 -1      3056 1.88226E+00
 -1      3057 2.27561E+00
 -1      3058 1.70182E+00
 -1      3059 2.80168E+00
 -1      3060 3.40555E+00
 -1      3061 2.55759E+00
 -1      3062 4.36453E+00
 -1      3063 5.33780E+00
 -1      3064 4.04264E+00
 -1      3065 7.31970E+00
 -1      3066 9.27400E+00
 -1      3067 6.98352E+00
 -1      3068 1.18275E+01
 -1      3069 9.12117E+00
 -1      3070 2.85476E-02
 -1      3071 2.84094E+00
 -1      3072 3.66888E+00
 -1      3073 3.19720E-01
 -1      3074 3.15384E-01
 -1      3075 4.18494E+00
 -1      3076 3.52021E+00
 -1      3077 2.86045E+00
 -1      3078 2.36212E+00
 -1      3079 3.27773E+00
 -1      3080 1.93806E+00
 -1      3081 1.61050E+00
 -1      3082 2.19391E+00
 -1      3083 1.33432E+00
 -1      3084 1.10761E+00
 -1      3085 1.49366E+00
 -1      3086 9.21260E-01
 -1      3087 7.62056E-01
 -1      3088 1.03113E+00
 -1      3089 6.33350E-01
 -1      3090 5.22632E-01
 -1      3091 7.16073E-01
 -1      3092 4.32592E-01
 -1      3093 3.58563E-01
 -1      3094 4.97327E-01
 -1      3095 2.94410E-01
 -1      3096 2.46312E-01
 -1      3097 3.43133E-01
 -1      3098 2.00943E-01
 -1      3099 1.69894E-01
 -1      3100 2.33611E-01
 -1      3101 1.39280E-01
 -1      3102 1.16844E-01
 -1      3103 1.57628E-01
 -1      3104 9.62496E-02
 -1      3105 7.98506E-02
 -1      3106 1.06420E-01
 -1      3107 6.55239E-02
 -1      3108 5.37147E-02
 -1      3109 7.14991E-02
 -1      3110 4.84954E-02
 -1      3111 4.00346E-02
 -1      3112 5.19531E-02
 -1      3113 3.70646E-02
 -1      3114 3.70646E-02
 -1      3115 3.18175E-02
 -1      3116 3.18175E-02
 -1      3117 2.75920E-01
 -1      3118 3.07642E-01
 -1      3119 3.12252E-01
 -1      3120 3.37121E-01
 -1      3121 2.37066E-01
 -1      3122 2.49857E-01
 -1      3123 1.11343E-01
 -1      3124 1.32964E-01
 -1      3125 1.51441E-01
 -1      3126 1.72872E-01
 -1      3127 1.15110E-01
 -1      3128 8.16254E-02
 -1      3129 7.69832E-02
 -1      3130 1.10712E-01
 -1      3131 1.01155E-01
 -1      3132 8.23749E-02
 -1      3133 1.55970E-01
 -1      3134 1.37583E-01
 -1      3135 1.28774E-01
 -1      3136 2.16704E-01
 -1      3137 1.86499E-01
 -1      3138 1.86174E-01
 -1      3139 3.03323E-01
 -1      3140 2.60013E-01
 -1      3141 2.60013E-01
 -1      3142 4.14049E-01
 -1      3143 3.68632E-01
 -1      3144 3.68632E-01
 -1      3145 5.66660E-01
 -1      3146 4.90653E-01
 -1      3147 5.10545E-01
 -1      3148 7.26431E-01
 -1      3149 6.36301E-01
 -1      3150 6.56790E-01
 -1      3151 9.07091E-01
 -1      3152 8.16761E-01
 -1      3153 8.16761E-01
 -1      3154 1.08954E+00
 -1      3155 1.02084E+00
 -1      3156 1.02084E+00
 -1      3157 1.19349E+00
 -1      3158 1.13623E+00
 -1      3159 1.18128E+00
 -1      3160 1.31135E+00
 -1      3161 1.23831E+00
 -1      3162 1.27279E+00
 -1      3163 1.48949E+00
 -1      3164 1.48493E+00
 -1      3165 1.49119E+00
 -1      3166 1.37832E+00
 -1      3167 1.43905E+00
 -1      3168 1.61432E+00
 -1      3169 1.47231E+00
 -1      3170 1.40144E+00
 -1      3171 1.58700E+00
 -1      3172 1.39417E+00
 -1      3173 1.43400E+00
 -1      3174 1.57181E+00
 -1      3175 1.19634E+00
 -1      3176 1.26025E+00
 -1      3177 1.39957E+00
 -1      3178 1.09865E+00
 -1      3179 1.16812E+00
 -1      3180 1.23744E+00
 -1      3181 9.66550E-01
 -1      3182 1.03336E+00
 -1      3183 1.14392E+00
 -1      3184 7.54125E-01
 -1      3185 8.54469E-01
 -1      3186 9.66550E-01
 -1      3187 5.87314E-01
 -1      3188 6.73734E-01
 -1      3189 7.74077E-01
 -1      3190 4.62628E-01
 -1      3191 5.16780E-01
 -1      3192 6.23152E-01
 -1      3193 3.42474E-01
 -1      3194 3.87647E-01
 -1      3195 4.77637E-01
 -1      3196 2.46129E-01
 -1      3197 2.87221E-01
 -1      3198 3.47403E-01
 -1      3199 2.15487E-01
 -1      3200 2.23958E-01
 -1      3201 2.69980E-01
 -1      3202 1.82723E-01
 -1      3203 1.93258E-01
 -1      3204 2.25581E-01
 -1      3205 1.50486E-01
 -1      3206 1.62868E-01
 -1      3207 1.83498E-01
 -1      3208 1.27828E-01
 -1      3209 1.37445E-01
 -1      3210 1.50602E-01
 -1      3211 1.04521E-01
 -1      3212 1.14638E-01
 -1      3213 1.24371E-01
 -1      3214 8.25464E-02
 -1      3215 9.22470E-02
 -1      3216 9.89073E-02
 -1      3217 6.31481E-02
 -1      3218 7.20856E-02
 -1      3219 7.61728E-02
 -1      3220 4.67378E-02
 -1      3221 5.45711E-02
 -1      3222 5.71350E-02
 -1      3223 3.07516E-02
 -1      3224 2.92124E-02
 -1      3225 3.54388E-02
 -1      3226 3.71594E-02
 -1      3227 3.76274E-02
 -1      3228 4.61711E-02
 -1      3229 3.49074E-02
 -1      3230 3.48280E-02
 -1      3231 4.34512E-02
 -1      3232 1.02997E+01
 -1      3233 8.71548E+00
 -1      3234 1.27286E+01
 -1      3235 2.84790E+00
 -1      3236 4.05434E+00
 -1      3237 3.77029E+00
 -1      3238 2.60836E+00
 -1      3239 7.76533E-02
 -1      3240 9.51191E-02
 -1      3241 8.04096E-02
 -1      3242 6.35159E-02
 -1      3243 2.96802E-02
 -1      3244 3.27022E-02
 -1      3245 3.48407E-02
 -1      3246 9.81676E+00
 -1      3247 1.21017E+01
 -1      3248 6.11428E+00
 -1      3249 5.24829E+00
 -1      3250 5.00084E+00
 -1      3251 3.18906E-01
 -1      3252 3.10318E-01
 -1      3253 4.99337E-01
 -1      3254 3.75990E-01
 -1      3255 5.19053E+00
 -1      3256 6.27482E+00
 -1      3257 3.66888E+00
 -1      3258 4.56014E+00
 -1      3259 5.52233E+00
 -1      3260 7.64800E+00
 -1      3261 6.43138E+00
 -1      3262 3.27022E-02
 -1      3263 3.27022E-02
 -1      3264 3.40833E-02
 -1      3265 3.53085E-02
 -1      3266 3.24334E-02
 -1      3267 3.18175E-02
 -1      3268 3.65047E-02
 -1      3269 3.88993E-02
 -1      3270 3.52469E-02
 -1      3271 1.24200E+01
 -1      3272 4.55968E+00
 -1      3273 4.48942E+00
 -1      3274 4.33966E+00
 -1      3275 4.74172E+00
 -1      3276 4.39791E+00
 -1      3277 5.38916E+00
 -1      3278 9.07108E+00
 -1      3279 1.44815E+01
 -1      3280 1.47320E+01
 -1      3281 4.33966E+00
 -1      3282 3.55905E+00
 -1      3283 3.70881E+00
 -1      3284 2.84168E+00
 -1      3285 2.79041E+00
 -1      3286 3.34351E+00
 -1      3287 3.18110E-01
 -1      3288 3.18110E-01
 -1      3289 2.59710E-01
 -1      3290 1.19349E+01
 -1      3291 9.07054E+00
 -1      3292 8.09869E+00
 -1      3293 2.31192E-01
 -1      3294 3.26910E-01
 -1      3295 6.98656E+00
 -1      3296 3.71594E-02
 -1      3297 1.52692E-01
 -1      3298 1.91978E-01
 -1      3299 2.11007E-01
 -1      3300 3.57477E-02
 -1      3301 4.17775E-02
 -1      3302 4.35976E-02
 -1      3303 3.69729E-02
 -1      3304 5.15566E+00
 -1      3305 5.36971E+00
 -1      3306 3.38520E+00
 -1      3307 4.67338E-02
 -1      3308 2.78968E+00
 -1      3309 9.94067E+00
 -1      3310 7.69499E+00
 -1      3311 9.03714E+00
 -1      3312 3.32065E-01
 -1      3313 3.35324E+00
 -1      3314 2.62545E-01
 -1      3315 2.60836E+00
 -1      3316 2.32483E-01
 -1      3317 2.60671E-01
 -1      3318 2.29998E-01
 -1      3319 1.93273E-01
 -1      3320 4.18460E+00
 -1      3321 2.78312E+00
 -1      3322 4.02833E+00
 -1      3323 7.51214E+00
 -1      3324 1.30690E+01
 -1      3325 5.08376E+00
 -1      3326 3.78101E+00
 -1      3327 4.45145E+00
 -1      3328 1.02383E+01
 -1      3329 1.36415E+01
 -1      3330 9.60222E+00
 -1      3331 1.16898E+01
 -1      3332 1.06987E+01
 -1      3333 7.69186E+00
 -1      3334 9.76438E+00
 -1      3335 3.05618E-01
 -1      3336 3.05747E-01
 -1      3337 2.78385E-01
 -1      3338 3.21301E-01
 -1      3339 3.18906E-01
 -1      3340 2.83084E-01
 -1      3341 2.79893E-01
 -1      3342 3.19605E-01
 -1      3343 3.19605E-01
 -1      3344 3.21467E-01
 -1      3345 2.81668E-01
 -1      3346 3.19102E-01
 -1      3347 2.79645E+00
 -1      3348 3.30179E+00
 -1      3349 5.09577E+00
 -1      3350 4.56585E+00
 -1      3351 2.00610E-01
 -1      3352 1.82899E-01
 -1      3353 3.25304E+00
 -1      3354 2.59328E+00
 -1      3355 1.75764E-01
 -1      3356 1.81601E-01
 -1      3357 1.37158E-01
 -1      3358 1.92562E-01
 -1      3359 1.82092E-01
 -1      3360 1.40984E-01
 -1      3361 1.79399E-01
 -1      3362 1.59094E-01
 -1      3363 1.49253E-01
 -1      3364 1.47020E-01
 -1      3365 1.28713E-01
 -1      3366 1.34486E-01
 -1      3367 1.32169E-01
 -1      3368 1.24689E-01
 -1      3369 1.25868E-01
 -1      3370 1.42132E-01
 -1      3371 1.58494E-01
 -1      3372 1.46766E-01
 -1      3373 1.73146E-01
 -1      3374 2.21004E-01
 -1      3375 1.78861E-01
 -1      3376 2.64429E-01
 -1      3377 3.44680E-01
 -1      3378 2.36938E-01
 -1      3379 4.11535E-01
 -1      3380 5.20946E-01
 -1      3381 3.47217E-01
 -1      3382 6.10544E-01
 -1      3383 7.63159E-01
 -1      3384 5.03670E-01
 -1      3385 9.07740E-01
 -1      3386 1.12727E+00
 -1      3387 7.37848E-01
 -1      3388 1.34785E+00
 -1      3389 1.67755E+00
 -1      3390 1.10300E+00
 -1      3391 2.02143E+00
 -1      3392 2.54750E+00
 -1      3393 1.66746E+00
 -1      3394 3.18724E+00
 -1      3395 4.14622E+00
 -1      3396 2.65109E+00
 -1      3397 5.18030E+00
 -1      3398 7.16220E+00
 -1      3399 4.32490E+00
 -1      3400 1.76266E-01
 -1      3401 1.87792E-01
 -1      3402 2.04784E-01
 -1      3403 6.42294E+00
 -1      3404 5.35546E+00
 -1      3405 2.13411E+00
 -1      3406 1.71004E+00
 -1      3407 2.10942E+00
 -1      3408 1.44054E+00
 -1      3409 1.16436E+00
 -1      3410 1.38074E+00
 -1      3411 1.00887E+00
 -1      3412 8.22516E-01
 -1      3413 9.55748E-01
 -1      3414 7.13957E-01
 -1      3415 5.85250E-01
 -1      3416 6.91693E-01
 -1      3417 5.05827E-01
 -1      3418 4.15787E-01
 -1      3419 5.03711E-01
 -1      3420 3.56349E-01
 -1      3421 2.92196E-01
 -1      3422 3.64850E-01
 -1      3423 2.47938E-01
 -1      3424 2.02570E-01
 -1      3425 2.61155E-01
 -1      3426 1.71170E-01
 -1      3427 1.40556E-01
 -1      3428 1.85497E-01
 -1      3429 1.17495E-01
 -1      3430 9.69006E-02
 -1      3431 1.31037E-01
 -1      3432 8.02209E-02
 -1      3433 6.58942E-02
 -1      3434 9.12957E-02
 -1      3435 5.60240E-02
 -1      3436 5.08048E-02
 -1      3437 5.08048E-02
 -1      3438 6.47458E-02
 -1      3439 5.08048E-02
 -1      3440 5.02420E-02
 -1      3441 5.48757E-02
 -1      3442 9.39636E-02
 -1      3443 1.12440E-01
 -1      3444 1.61689E-01
 -1      3445 1.34819E-01
 -1      3446 1.07436E-01
 -1      3447 8.79071E-02
 -1      3448 1.40351E-01
 -1      3449 3.17444E-01
 -1      3450 2.74135E-01
 -1      3451 4.33941E-01
 -1      3452 3.68632E-01
 -1      3453 3.82753E-01
 -1      3454 5.87149E-01
 -1      3455 5.10545E-01
 -1      3456 5.10545E-01
 -1      3457 7.75659E-01
 -1      3458 7.06018E-01
 -1      3459 7.06018E-01
 -1      3460 9.80093E-01
 -1      3461 8.89763E-01
 -1      3462 9.38991E-01
 -1      3463 1.15174E+00
 -1      3464 1.03799E+00
 -1      3465 1.11099E+00
 -1      3466 1.50927E+00
 -1      3467 1.46258E+00
 -1      3468 1.47973E+00
 -1      3469 1.81030E+00
 -1      3470 1.76549E+00
 -1      3471 2.04679E+00
 -1      3472 2.29412E+00
 -1      3473 2.34456E+00
 -1      3474 1.94447E+00
 -1      3475 1.92134E+00
 -1      3476 2.65158E+00
 -1      3477 1.79748E+00
 -1      3478 1.83579E+00
 -1      3479 2.17014E+00
 -1      3480 1.42405E+00
 -1      3481 1.55797E+00
 -1      3482 1.82195E+00
 -1      3483 1.40173E+00
 -1      3484 1.42995E+00
 -1      3485 1.58834E+00
 -1      3486 1.21846E+00
 -1      3487 1.28375E+00
 -1      3488 1.47626E+00
 -1      3489 1.00412E+00
 -1      3490 1.11620E+00
 -1      3491 1.25603E+00
 -1      3492 8.51204E-01
 -1      3493 9.31595E-01
 -1      3494 1.08125E+00
 -1      3495 6.59159E-01
 -1      3496 7.29693E-01
 -1      3497 8.87211E-01
 -1      3498 4.77637E-01
 -1      3499 5.52618E-01
 -1      3500 6.59159E-01
 -1      3501 3.64889E-01
 -1      3502 4.20141E-01
 -1      3503 4.95122E-01
 -1      3504 2.95581E-01
 -1      3505 3.17752E-01
 -1      3506 3.90490E-01
 -1      3507 2.33720E-01
 -1      3508 2.55949E-01
 -1      3509 3.03720E-01
 -1      3510 1.86242E-01
 -1      3511 2.06097E-01
 -1      3512 2.36464E-01
 -1      3513 1.51983E-01
 -1      3514 1.65024E-01
 -1      3515 1.87623E-01
 -1      3516 1.19785E-01
 -1      3517 1.32976E-01
 -1      3518 1.47397E-01
 -1      3519 9.28442E-02
 -1      3520 1.05118E-01
 -1      3521 1.13722E-01
 -1      3522 7.23179E-02
 -1      3523 8.27787E-02
 -1      3524 8.89892E-02
 -1      3525 5.72718E-02
 -1      3526 6.58488E-02
 -1      3527 7.24547E-02
 -1      3528 4.24230E-02
 -1      3529 4.13571E-02
 -1      3530 4.62790E-02
 -1      3531 4.41218E-02
 -1      3532 5.09126E-02
 -1      3533 2.25560E-01
 -1      3534 1.95031E-01
 -1      3535 2.01075E-01
 -1      3536 2.82991E-01
 -1      3537 3.10669E-01
 -1      3538 3.19102E-01
 -1      3539 2.83531E-01
 -1      3540 3.08166E-01
 -1      3541 6.09296E+00
 -1      3542 6.84638E+00
 -1      3543 4.70396E+00
 -1      3544 2.98644E+00
 -1      3545 3.82530E+00
 -1      3546 3.03999E+00
 -1      3547 1.30944E+01
 -1      3548 2.51730E+00
 -1      3549 2.75685E+00
 -1      3550 5.58827E+00
 -1      3551 4.52492E+00
 -1      3552 3.84046E+00
 -1      3553 2.49688E+00
 -1      3554 2.49688E+00
 -1      3555 3.85171E-02
 -1      3556 3.89849E-02
 -1      3557 4.55013E-02
 -1      3558 2.45329E-01
 -1      3559 2.40630E-01
 -1      3560 3.73494E+00
 -1      3561 6.91254E+00
 -1      3562 8.71576E+00
 -1      3563 2.45329E-01
 -1      3564 2.07575E-01
 -1      3565 2.45329E-01
 -1      3566 1.93666E-01
 -1      3567 3.22864E+00
 -1      3568 4.53215E+00
 -1      3569 6.82390E+00
 -1      3570 6.65704E+00
 -1      3571 5.40473E+00
 -1      3572 6.32564E+00
 -1      3573 4.69454E+00
 -1      3574 5.96659E+00
 -1      3575 1.05373E-01
 -1      3576 1.26519E-01
 -1      3577 1.45625E-01
 -1      3578 1.04879E+01
 -1      3579 2.78608E-01
 -1      3580 8.75259E-02
 -1      3581 8.48561E-02
 -1      3582 7.13021E-02
 -1      3583 4.24230E-02
 -1      3584 4.24230E-02
 -1      3585 4.83413E-02
 -1      3586 2.16528E+00
 -1      3587 1.99170E+00
 -1      3588 4.77890E-02
 -1      3589 5.65029E-02
 -1      3590 4.28288E-02
 -1      3591 2.48440E+00
 -1      3592 2.59700E+00
 -1      3593 3.19252E+00
 -1      3594 2.30421E+00
 -1      3595 4.14997E-02
 -1      3596 3.91051E-02
 -1      3597 4.50234E-02
 -1      3598 4.43275E-02
 -1      3599 8.08720E+00
 -1      3600 6.38600E+00
 -1      3601 6.95108E+00
 -1      3602 7.47683E-02
 -1      3603 7.54383E-02
 -1      3604 8.25545E-02
 -1      3605 9.98295E-02
 -1      3606 2.68367E-01
 -1      3607 2.12049E-01
 -1      3608 1.88792E-01
 -1      3609 2.04041E-01
 -1      3610 2.00246E-01
 -1      3611 2.04856E-01
 -1      3612 1.59040E-01
 -1      3613 7.68582E+00
 -1      3614 7.24096E+00
 -1      3615 6.54712E+00
 -1      3616 2.27325E-01
 -1      3617 2.25462E-01
 -1      3618 1.57705E-01
 -1      3619 7.21593E+00
 -1      3620 2.70540E+00
 -1      3621 2.36881E+00
 -1      3622 2.51730E+00
 -1      3623 2.78312E+00
 -1      3624 2.49762E+00
 -1      3625 2.49688E+00
 -1      3626 2.20409E+00
 -1      3627 4.48408E-02
 -1      3628 4.11644E-02
 -1      3629 2.88468E+00
 -1      3630 3.44146E+00
 -1      3631 2.84507E+00
 -1      3632 3.29170E+00
 -1      3633 3.71903E+00
 -1      3634 3.18151E+00
 -1      3635 5.39752E+00
 -1      3636 1.04648E-01
 -1      3637 1.15609E-01
 -1      3638 1.27585E-01
 -1      3639 1.24893E-01
 -1      3640 9.12487E-02
 -1      3641 1.30305E-01
 -1      3642 1.18231E-01
 -1      3643 1.08637E-01
 -1      3644 1.29551E-01
 -1      3645 1.33006E-01
 -1      3646 1.25369E-01
 -1      3647 1.50470E-01
 -1      3648 1.67913E-01
 -1      3649 1.54153E-01
 -1      3650 1.82289E-01
 -1      3651 1.96941E-01
 -1      3652 1.85993E-01
 -1      3653 2.31946E-01
 -1      3654 2.75371E-01
 -1      3655 2.35374E-01
 -1      3656 3.24862E-01
 -1      3657 3.91717E-01
 -1      3658 3.19870E-01
 -1      3659 4.61865E-01
 -1      3660 5.51463E-01
 -1      3661 4.39510E-01
 -1      3662 6.49911E-01
 -1      3663 7.94492E-01
 -1      3664 6.08106E-01
 -1      3665 9.30574E-01
 -1      3666 1.15115E+00
 -1      3667 8.42637E-01
 -1      3668 1.36602E+00
 -1      3669 1.70991E+00
 -1      3670 1.19360E+00
 -1      3671 2.20381E+00
 -1      3672 2.84355E+00
 -1      3673 1.90237E+00
 -1      3674 3.60575E+00
 -1      3675 4.63983E+00
 -1      3676 3.15847E+00
 -1      3677 2.98644E+00
 -1      3678 2.98644E+00
 -1      3679 1.42719E+00
 -1      3680 1.15769E+00
 -1      3681 9.80546E-01
 -1      3682 8.25050E-01
 -1      3683 1.02699E+00
 -1      3684 6.97981E-01
 -1      3685 5.89422E-01
 -1      3686 7.22779E-01
 -1      3687 4.99161E-01
 -1      3688 4.19738E-01
 -1      3689 5.05449E-01
 -1      3690 3.61364E-01
 -1      3691 3.01925E-01
 -1      3692 3.56814E-01
 -1      3693 2.53963E-01
 -1      3694 2.09705E-01
 -1      3695 2.50476E-01
 -1      3696 1.84973E-01
 -1      3697 1.53574E-01
 -1      3698 1.77782E-01
 -1      3699 1.33790E-01
 -1      3700 1.10729E-01
 -1      3701 1.33266E-01
 -1      3702 9.53950E-02
 -1      3703 7.87153E-02
 -1      3704 9.81483E-02
 -1      3705 6.89993E-02
 -1      3706 5.91292E-02
 -1      3707 5.91292E-02
 -1      3708 7.30987E-02
 -1      3709 2.41383E+00
 -1      3710 2.91893E+00
 -1      3711 2.34632E+00
 -1      3712 2.40011E+00
 -1      3713 2.40011E+00
 -1      3714 2.32957E-01
 -1      3715 2.32957E-01
 -1      3716 1.76751E-01
 -1      3717 5.13737E+00
 -1      3718 6.26742E-01
 -1      3719 5.50138E-01
 -1      3720 4.59356E-01
 -1      3721 4.08169E-01
 -1      3722 5.75553E-01
 -1      3723 1.08064E+00
 -1      3724 9.66534E-01
 -1      3725 1.56568E+00
 -1      3726 1.50779E+00
 -1      3727 1.53533E+00
 -1      3728 1.79057E+00
 -1      3729 1.47973E+00
 -1      3730 1.87653E+00
 -1      3731 2.33591E+00
 -1      3732 2.07969E+00
 -1      3733 2.23765E+00
 -1      3734 6.64641E-02
 -1      3735 7.59468E-02
 -1      3736 1.67830E+00
 -1      3737 1.67240E+00
 -1      3738 1.25928E+00
 -1      3739 1.36154E+00
 -1      3740 1.13696E+00
 -1      3741 1.20948E+00
 -1      3742 1.31499E+00
 -1      3743 8.89571E-01
 -1      3744 1.01108E+00
 -1      3745 1.13932E+00
 -1      3746 6.87157E-01
 -1      3747 7.93698E-01
 -1      3748 9.17570E-01
 -1      3749 5.37209E-01
 -1      3750 5.94705E-01
 -1      3751 7.29244E-01
 -1      3752 4.07617E-01
 -1      3753 4.54754E-01
 -1      3754 5.54337E-01
 -1      3755 3.17301E-01
 -1      3756 3.56934E-01
 -1      3757 4.21198E-01
 -1      3758 2.42970E-01
 -1      3759 2.70593E-01
 -1      3760 3.23807E-01
 -1      3761 1.85662E-01
 -1      3762 2.06880E-01
 -1      3763 2.41009E-01
 -1      3764 1.43825E-01
 -1      3765 1.62833E-01
 -1      3766 1.82090E-01
 -1      3767 1.11491E-01
 -1      3768 1.26159E-01
 -1      3769 1.41594E-01
 -1      3770 8.89892E-02
 -1      3771 9.90547E-02
 -1      3772 1.11491E-01
 -1      3773 8.13724E-02
 -1      3774 8.78415E-02
 -1      3775 9.79070E-02
 -1      3776 9.13337E-02
 -1      3777 5.45190E-02
 -1      3778 5.05560E-02
 -1      3779 5.87725E-02
 -1      3780 8.42388E-01
 -1      3781 7.23519E-01
 -1      3782 7.63112E-01
 -1      3783 1.79291E-01
 -1      3784 1.51909E-01
 -1      3785 2.21046E+00
 -1      3786 1.75129E+00
 -1      3787 1.52824E+00
 -1      3788 1.60210E-01
 -1      3789 1.81685E-01
 -1      3790 1.55728E-01
 -1      3791 1.34037E-01
 -1      3792 1.26270E-01
 -1      3793 1.19135E-01
 -1      3794 9.37603E-02
 -1      3795 1.39683E-01
 -1      3796 2.39669E-01
 -1      3797 2.44592E-01
 -1      3798 1.94018E-01
 -1      3799 2.06614E-01
 -1      3800 3.97872E+00
 -1      3801 3.71903E+00
 -1      3802 2.28013E-01
 -1      3803 2.31205E-01
 -1      3804 1.93450E-01
 -1      3805 1.56096E-01
 -1      3806 3.74816E+00
 -1      3807 4.47141E+00
 -1      3808 2.95997E+00
 -1      3809 2.70540E+00
 -1      3810 2.66579E+00
 -1      3811 6.42847E-02
 -1      3812 2.48440E+00
 -1      3813 4.11644E-02
 -1      3814 4.89229E+00
 -1      3815 3.62042E+00
 -1      3816 3.26229E+00
 -1      3817 1.44056E-01
 -1      3818 2.22393E+00
 -1      3819 3.16560E+00
 -1      3820 4.67837E+00
 -1      3821 1.75045E-01
 -1      3822 1.74084E-01
 -1      3823 3.71092E+00
 -1      3824 4.66672E+00
 -1      3825 4.64425E+00
 -1      3826 2.46907E-01
 -1      3827 2.13566E-01
 -1      3828 2.25123E-01
 -1      3829 1.71628E-01
 -1      3830 1.71628E-01
 -1      3831 1.39099E-01
 -1      3832 5.94235E+00
 -1      3833 4.57300E+00
 -1      3834 4.99241E+00
 -1      3835 9.77639E-02
 -1      3836 1.11843E-01
 -1      3837 2.07969E+00
 -1      3838 2.86380E+00
 -1      3839 2.42631E+00
 -1      3840 1.69106E-01
 -1      3841 1.30166E-01
 -1      3842 1.17027E-01
 -1      3843 4.24515E-01
 -1      3844 3.47913E-01
 -1      3845 2.99338E-01
 -1      3846 1.91191E+00
 -1      3847 2.27675E+00
 -1      3848 3.93213E+00
 -1      3849 3.11901E+00
 -1      3850 3.83483E+00
 -1      3851 6.71247E-02
 -1      3852 1.82195E+00
 -1      3853 1.50922E+00
 -1      3854 1.62719E+00
 -1      3855 1.93212E+00
 -1      3856 2.03224E+00
 -1      3857 4.28962E-02
 -1      3858 4.02742E-02
 -1      3859 4.65027E-02
 -1      3860 1.30856E-01
 -1      3861 1.27062E-01
 -1      3862 9.84035E-01
 -1      3863 1.98322E+00
 -1      3864 2.06147E+00
 -1      3865 6.58639E-02
 -1      3866 6.58639E-02
 -1      3867 6.04346E+00
 -1      3868 4.65875E+00
 -1      3869 4.76867E+00
 -1      3870 9.61612E-02
 -1      3871 1.02599E-01
 -1      3872 1.09069E-01
 -1      3873 8.46473E-02
 -1      3874 1.29687E-01
 -1      3875 1.36794E-01
 -1      3876 1.04815E-01
 -1      3877 2.76721E+00
 -1      3878 1.93212E+00
 -1      3879 4.91732E+00
 -1      3880 1.71126E+00
 -1      3881 1.51247E+00
 -1      3882 1.42516E-01
 -1      3883 1.74084E-01
 -1      3884 1.62449E-01
 -1      3885 1.01425E-01
 -1      3886 1.06838E-01
 -1      3887 1.21991E-01
 -1      3888 1.33311E-01
 -1      3889 1.14780E-01
 -1      3890 1.51204E-01
 -1      3891 1.68668E-01
 -1      3892 1.47827E-01
 -1      3893 1.80242E-01
 -1      3894 1.94619E-01
 -1      3895 1.77294E-01
 -1      3896 2.18358E-01
 -1      3897 2.53363E-01
 -1      3898 2.12608E-01
 -1      3899 2.86933E-01
 -1      3900 3.36424E-01
 -1      3901 2.69917E-01
 -1      3902 3.79215E-01
 -1      3903 4.49364E-01
 -1      3904 3.46278E-01
 -1      3905 5.09931E-01
 -1      3906 6.08380E-01
 -1      3907 4.49637E-01
 -1      3908 7.42354E-01
 -1      3909 8.78437E-01
 -1      3910 6.44179E-01
 -1      3911 1.07728E+00
 -1      3912 1.29216E+00
 -1      3913 9.77002E-01
 -1      3914 1.63094E+00
 -1      3915 2.12484E+00
 -1      3916 1.51463E+00
 -1      3917 2.88636E+00
 -1      3918 3.64856E+00
 -1      3919 2.61493E+00
 -1      3920 1.51247E+00
 -1      3921 1.66015E+00
 -1      3922 9.00729E-02
 -1      3923 9.13337E-02
 -1      3924 9.67593E-02
 -1      3925 2.47809E+00
 -1      3926 9.03310E-01
 -1      3927 8.06533E-01
 -1      3928 7.26746E-01
 -1      3929 5.99677E-01
 -1      3930 5.13772E-01
 -1      3931 4.23512E-01
 -1      3932 5.17740E-01
 -1      3933 3.74782E-01
 -1      3934 3.16407E-01
 -1      3935 3.83105E-01
 -1      3936 2.65671E-01
 -1      3937 2.17708E-01
 -1      3938 2.83639E-01
 -1      3939 1.85554E-01
 -1      3940 1.60822E-01
 -1      3941 2.00749E-01
 -1      3942 1.37122E-01
 -1      3943 1.17338E-01
 -1      3944 1.44894E-01
 -1      3945 9.95845E-02
 -1      3946 8.42508E-02
 -1      3947 1.03440E-01
 -1      3948 7.21628E-02
 -1      3949 6.24468E-02
 -1      3950 5.78367E-02
 -1      3951 7.35990E-02
 -1      3952 1.18157E+00
 -1      3953 1.30745E+00
 -1      3954 8.01505E-02
 -1      3955 9.21261E-02
 -1      3956 9.03270E-02
 -1      3957 7.05776E-01
 -1      3958 6.14995E-01
 -1      3959 8.45975E-01
 -1      3960 2.56405E+00
 -1      3961 2.03690E+00
 -1      3962 1.60974E+00
 -1      3963 1.61826E-01
 -1      3964 1.56194E-01
 -1      3965 1.24758E-01
 -1      3966 1.41892E-01
 -1      3967 1.78549E+00
 -1      3968 2.15758E+00
 -1      3969 2.71322E+00
 -1      3970 1.38658E+00
 -1      3971 1.43638E+00
 -1      3972 1.58406E+00
 -1      3973 1.42884E+00
 -1      3974 7.86918E-01
 -1      3975 8.79370E-01
 -1      3976 5.92186E-01
 -1      3977 6.74641E-01
 -1      3978 8.24767E-01
 -1      3979 4.45975E-01
 -1      3980 4.96659E-01
 -1      3981 6.16964E-01
 -1      3982 3.19278E-01
 -1      3983 3.65986E-01
 -1      3984 4.41447E-01
 -1      3985 2.39220E-01
 -1      3986 2.75310E-01
 -1      3987 3.17489E-01
 -1      3988 1.81932E-01
 -1      3989 2.04761E-01
 -1      3990 2.39062E-01
 -1      3991 1.41594E-01
 -1      3992 1.59261E-01
 -1      3993 1.81932E-01
 -1      3994 1.11491E-01
 -1      3995 1.23928E-01
 -1      3996 1.41594E-01
 -1      3997 1.33047E-01
 -1      3998 1.21858E-01
 -1      3999 2.63845E+00
 -1      4000 1.25306E+00
 -1      4001 1.12891E+00
 -1      4002 1.75462E+00
 -1      4003 5.35442E-02
 -1      4004 7.10668E-02
 -1      4005 7.77531E-02
 -1      4006 5.02263E-02
 -1      4007 1.68279E+00
 -1      4008 1.35869E+00
 -1      4009 1.10919E-01
 -1      4010 1.25504E-01
 -1      4011 1.06569E-01
 -1      4012 1.03310E-01
 -1      4013 1.93212E+00
 -1      4014 1.45087E-01
 -1      4015 4.23471E+00
 -1      4016 1.59212E-01
 -1      4017 1.07725E+00
 -1      4018 9.00109E-01
 -1      4019 7.77007E-01
 -1      4020 1.04863E-01
 -1      4021 9.97661E-02
 -1      4022 9.56300E-02
 -1      4023 1.30102E-01
 -1      4024 3.36501E+00
 -1      4025 1.95506E+00
 -1      4026 1.78551E+00
 -1      4027 3.02627E+00
 -1      4028 1.05623E+00
 -1      4029 1.15211E+00
 -1      4030 1.32024E+00
 -1      4031 1.11391E+00
 -1      4032 1.23265E-01
 -1      4033 1.17280E-01
 -1      4034 3.01325E+00
 -1      4035 3.20857E+00
 -1      4036 2.21087E+00
 -1      4037 3.96260E+00
 -1      4038 3.98685E+00
 -1      4039 3.22443E+00
 -1      4040 3.89285E+00
 -1      4041 4.63086E+00
 -1      4042 4.01728E+00
 -1      4043 3.11828E-01
 -1      4044 8.91693E-02
 -1      4045 1.07571E-01
 -1      4046 6.46481E-01
 -1      4047 5.16257E-01
 -1      4048 4.56001E-01
 -1      4049 3.96260E+00
 -1      4050 2.78263E-01
 -1      4051 2.43989E-01
 -1      4052 1.17233E+00
 -1      4053 5.91779E-02
 -1      4054 5.55036E-02
 -1      4055 4.78439E-02
 -1      4056 2.22393E+00
 -1      4057 2.52373E+00
 -1      4058 2.57033E+00
 -1      4059 2.63845E+00
 -1      4060 9.51067E-02
 -1      4061 2.04318E+00
 -1      4062 4.41367E+00
 -1      4063 1.16387E-01
 -1      4064 1.16387E-01
 -1      4065 2.62134E-01
 -1      4066 2.08995E-01
 -1      4067 1.87252E-01
 -1      4068 1.13373E-01
 -1      4069 9.75005E-02
 -1      4070 9.86483E-02
 -1      4071 1.11085E-01
 -1      4072 9.75005E-02
 -1      4073 4.87950E-02
 -1      4074 1.04234E-01
 -1      4075 1.03310E-01
 -1      4076 1.12970E-01
 -1      4077 1.16387E-01
 -1      4078 9.02587E-02
 -1      4079 8.48597E-02
 -1      4080 1.70940E+00
 -1      4081 1.23180E+00
 -1      4082 1.37932E-01
 -1      4083 1.33097E-01
 -1      4084 1.33097E-01
 -1      4085 3.68010E+00
 -1      4086 3.93868E+00
 -1      4087 2.63144E+00
 -1      4088 3.54229E+00
 -1      4089 1.10271E-01
 -1      4090 1.11148E-01
 -1      4091 3.19926E-01
 -1      4092 3.38792E-01
 -1      4093 3.72357E-01
 -1      4094 1.37736E-01
 -1      4095 1.55629E-01
 -1      4096 1.66219E-01
 -1      4097 1.77793E-01
 -1      4098 1.56128E-01
 -1      4099 1.90291E-01
 -1      4100 2.14031E-01
 -1      4101 1.79216E-01
 -1      4102 2.36347E-01
 -1      4103 2.69917E-01
 -1      4104 2.14031E-01
 -1      4105 3.55358E-01
 -1      4106 3.98150E-01
 -1      4107 3.21789E-01
 -1      4108 4.83139E-01
 -1      4109 5.43707E-01
 -1      4110 4.92220E-01
 -1      4111 6.60552E-01
 -1      4112 7.94526E-01
 -1      4113 6.94054E-01
 -1      4114 9.45186E-01
 -1      4115 1.14403E+00
 -1      4116 9.61559E-01
 -1      4117 1.32362E+00
 -1      4118 1.66240E+00
 -1      4119 1.29181E+00
 -1      4120 2.17804E+00
 -1      4121 2.93956E+00
 -1      4122 1.98703E+00
 -1      4123 7.83317E-01
 -1      4124 8.78844E-01
 -1      4125 5.77960E-02
 -1      4126 1.70868E+00
 -1      4127 1.48308E+00
 -1      4128 4.42130E-01
 -1      4129 3.93400E-01
 -1      4130 3.12643E-01
 -1      4131 2.61907E-01
 -1      4132 3.71668E-01
 -1      4133 2.08341E-01
 -1      4134 1.76187E-01
 -1      4135 2.37345E-01
 -1      4136 1.49638E-01
 -1      4137 1.25937E-01
 -1      4138 1.57230E-01
 -1      4139 1.09925E-01
 -1      4140 9.21717E-02
 -1      4141 1.14669E-01
 -1      4142 6.90691E-02
 -1      4143 5.69811E-02
 -1      4144 5.46480E-02
 -1      4145 7.55537E-02
 -1      4146 3.22443E+00
 -1      4147 2.67575E+00
 -1      4148 3.37645E+00
 -1      4149 1.21254E+00
 -1      4150 1.11178E+00
 -1      4151 1.74888E+00
 -1      4152 1.98366E+00
 -1      4153 1.71139E+00
 -1      4154 1.11772E-01
 -1      4155 3.37645E+00
 -1      4156 1.04909E-01
 -1      4157 1.20063E-01
 -1      4158 1.27865E-01
 -1      4159 1.42884E+00
 -1      4160 1.50797E+00
 -1      4161 1.70940E+00
 -1      4162 5.29536E-01
 -1      4163 6.09525E-01
 -1      4164 8.71406E-01
 -1      4165 1.12931E+00
 -1      4166 1.24159E+00
 -1      4167 1.29567E+00
 -1      4168 3.81258E-01
 -1      4169 4.25226E-01
 -1      4170 5.93305E-01
 -1      4171 2.78216E-01
 -1      4172 3.12675E-01
 -1      4173 4.20412E-01
 -1      4174 2.04122E-01
 -1      4175 2.26793E-01
 -1      4176 3.00406E-01
 -1      4177 1.48404E-01
 -1      4178 1.66070E-01
 -1      4179 2.10931E-01
 -1      4180 6.50890E-02
 -1      4181 8.40951E-02
 -1      4182 8.48364E-02
 -1      4183 6.41379E-02
 -1      4184 1.05851E-01
 -1      4185 9.02049E-02
 -1      4186 1.68650E+00
 -1      4187 1.02592E-01
 -1      4188 1.01667E-01
 -1      4189 8.56433E-02
 -1      4190 1.90994E-01
 -1      4191 1.73733E-01
 -1      4192 2.30882E-01
 -1      4193 6.50629E-01
 -1      4194 5.64725E-01
 -1      4195 5.75020E-01
 -1      4196 1.49108E+00
 -1      4197 1.20965E+00
 -1      4198 1.68924E+00
 -1      4199 1.41291E-01
 -1      4200 1.41822E-01
 -1      4201 1.65851E-01
 -1      4202 2.02182E-01
 -1      4203 9.90993E-01
 -1      4204 8.17630E-01
 -1      4205 1.25027E+00
 -1      4206 7.41279E-02
 -1      4207 8.34270E-02
 -1      4208 8.87097E-02
 -1      4209 7.87433E-02
 -1      4210 1.99724E+00
 -1      4211 3.51935E+00
 -1      4212 3.50596E+00
 -1      4213 9.28719E-01
 -1      4214 8.29981E-01
 -1      4215 1.29528E+00
 -1      4216 4.64099E-01
 -1      4217 2.00944E+00
 -1      4218 2.93956E+00
 -1      4219 3.37645E+00
 -1      4220 1.72784E+00
 -1      4221 1.42329E+00
 -1      4222 1.60016E+00
 -1      4223 9.09726E-02
 -1      4224 8.02284E-02
 -1      4225 8.56274E-02
 -1      4226 1.72402E+00
 -1      4227 1.75348E+00
 -1      4228 1.83262E+00
 -1      4229 2.03340E+00
 -1      4230 2.69794E+00
 -1      4231 2.82168E+00
 -1      4232 2.05777E+00
 -1      4233 1.98366E+00
 -1      4234 2.63144E+00
 -1      4235 8.64615E-01
 -1      4236 3.52179E-01
 -1      4237 3.17185E-01
 -1      4238 1.61961E-01
 -1      4239 1.33097E-01
 -1      4240 4.78832E-01
 -1      4241 4.37169E-01
 -1      4242 4.92220E-01
 -1      4243 1.07213E-01
 -1      4244 1.05570E-01
 -1      4245 9.55938E-02
 -1      4246 1.36076E-01
 -1      4247 7.87433E-02
 -1      4248 1.04531E-01
 -1      4249 1.17374E-01
 -1      4250 1.41850E-01
 -1      4251 9.11253E-02
 -1      4252 1.10191E-01
 -1      4253 1.27865E-01
 -1      4254 2.26105E+00
 -1      4255 1.68229E-01
 -1      4256 1.80728E-01
 -1      4257 2.13169E-01
 -1      4258 2.35486E-01
 -1      4259 2.02182E-01
 -1      4260 2.35486E-01
 -1      4261 3.20927E-01
 -1      4262 2.34624E-01
 -1      4263 4.07230E-01
 -1      4264 4.92220E-01
 -1      4265 5.77209E-01
 -1      4266 6.94054E-01
 -1      4267 1.11222E+00
 -1      4268 1.29181E+00
 -1      4269 1.47487E+00
 -1      4270 1.99051E+00
 -1      4271 2.59512E+00
 -1      4272 2.96862E+00
 -1      4273 3.20927E-01
 -1      4274 2.30882E-01
 -1      4275 2.69947E-01
 -1      4276 2.16382E-01
 -1      4277 1.78330E-01
 -1      4278 1.51780E-01
 -1      4279 1.20750E-01
 -1      4280 1.04738E-01
 -1      4281 3.21370E-01
 -1      4282 1.65851E-01
 -1      4283 1.65851E-01
 -1      4284 7.41121E-02
 -1      4285 5.93305E-01
 -1      4286 4.70710E-01
 -1      4287 6.79321E-01
 -1      4288 5.95677E-01
 -1      4289 6.94054E-01
 -1      4290 9.61559E-01
 -1      4291 4.02127E-01
 -1      4292 1.25706E+00
 -1      4293 1.50753E+00
 -1      4294 8.64615E-01
 -1      4295 6.97614E-01
 -1      4296 1.03841E+00
 -1      4297 2.34624E-01
 -1      4298 1.72784E+00
 -1      4299 1.53750E-01
 -1      4300 1.64339E-01
 -1      4301 9.55938E-02
 -1      4302 1.90955E+00
 -1      4303 1.98366E+00
 -1      4304 8.10899E-01
 -1      4305 9.61559E-01
 -1      4306 2.34624E-01
 -1      4307 8.50436E-02
 -1      4308 2.52100E+00
 -1      4309 1.69741E-01
 -1      4310 2.33408E+00
 -1      4311 2.64486E+00
 -1      4312 2.02182E-01
 -1      4313 6.19410E-02
 -3
 9999
