    1C
    1UUSER                                                              
    1UDATE              27.october.2022                                 
    1UTIME              01:16:28                                        
    1UHOST                                                              
    1UPGM               CalculiX                                        
    1UVERSION           Version 2.17                             
    1UCOMPILETIME       Thu Jul 23 21:43:50 CEST 2020                    
    1UDIR                                                               
    1UDBN                                                               
    1UMAT    1SOLIDMATERIAL                                             
    2C                          4320                                     1
 -1         1 1.39068E+02 2.70160E+01 0.00000E+00
 -1         2 1.41582E+02 2.16427E+01 0.00000E+00
 -1         3 1.50000E+02 0.00000E+00 0.00000E+00
 -1         4 1.50000E+02 5.00000E+01 0.00000E+00
 -1         5 0.00000E+00 0.00000E+00 0.00000E+00
 -1         6 0.00000E+00 5.00000E+01 0.00000E+00
 -1         7 0.00000E+00 4.70500E+01 0.00000E+00
 -1         8 0.00000E+00 4.41000E+01 0.00000E+00
 -1         9 0.00000E+00 4.11500E+01 0.00000E+00
 -1        10 0.00000E+00 3.82000E+01 0.00000E+00
 -1        11 0.00000E+00 3.52500E+01 0.00000E+00
 -1        12 0.00000E+00 3.23500E+01 0.00000E+00
 -1        13 0.00000E+00 2.94000E+01 0.00000E+00
 -1        14 0.00000E+00 2.64500E+01 0.00000E+00
 -1        15 0.00000E+00 2.35000E+01 0.00000E+00
 -1        16 0.00000E+00 2.05500E+01 0.00000E+00
 -1        17 0.00000E+00 1.76000E+01 0.00000E+00
 -1        18 0.00000E+00 1.47000E+01 0.00000E+00
 -1        19 0.00000E+00 1.17500E+01 0.00000E+00
 -1        20 0.00000E+00 8.80000E+00 0.00000E+00
 -1        21 0.00000E+00 5.85000E+00 0.00000E+00
 -1        22 0.00000E+00 2.90000E+00 0.00000E+00
 -1        23 3.15000E+00 5.00000E+01 0.00000E+00
 -1        24 6.15000E+00 5.00000E+01 0.00000E+00
 -1        25 9.15000E+00 5.00000E+01 0.00000E+00
 -1        26 1.21500E+01 5.00000E+01 0.00000E+00
 -1        27 1.51500E+01 5.00000E+01 0.00000E+00
 -1        28 1.81500E+01 5.00000E+01 0.00000E+00
 -1        29 2.11500E+01 5.00000E+01 0.00000E+00
 -1        30 2.41500E+01 5.00000E+01 0.00000E+00
 -1        31 2.71500E+01 5.00000E+01 0.00000E+00
 -1        32 3.01500E+01 5.00000E+01 0.00000E+00
 -1        33 3.31500E+01 5.00000E+01 0.00000E+00
 -1        34 3.61500E+01 5.00000E+01 0.00000E+00
 -1        35 3.91500E+01 5.00000E+01 0.00000E+00
 -1        36 4.21500E+01 5.00000E+01 0.00000E+00
 -1        37 4.51500E+01 5.00000E+01 0.00000E+00
 -1        38 4.81500E+01 5.00000E+01 0.00000E+00
 -1        39 5.11500E+01 5.00000E+01 0.00000E+00
 -1        40 5.41500E+01 5.00000E+01 0.00000E+00
 -1        41 5.71500E+01 5.00000E+01 0.00000E+00
 -1        42 6.01500E+01 5.00000E+01 0.00000E+00
 -1        43 6.31500E+01 5.00000E+01 0.00000E+00
 -1        44 6.61500E+01 5.00000E+01 0.00000E+00
 -1        45 6.91500E+01 5.00000E+01 0.00000E+00
 -1        46 7.21500E+01 5.00000E+01 0.00000E+00
 -1        47 7.51500E+01 5.00000E+01 0.00000E+00
 -1        48 7.81500E+01 5.00000E+01 0.00000E+00
 -1        49 8.11500E+01 5.00000E+01 0.00000E+00
 -1        50 8.41500E+01 5.00000E+01 0.00000E+00
 -1        51 8.71500E+01 5.00000E+01 0.00000E+00
 -1        52 9.01500E+01 5.00000E+01 0.00000E+00
 -1        53 9.31500E+01 5.00000E+01 0.00000E+00
 -1        54 9.61500E+01 5.00000E+01 0.00000E+00
 -1        55 9.91500E+01 5.00000E+01 0.00000E+00
 -1        56 1.02150E+02 5.00000E+01 0.00000E+00
 -1        57 1.05150E+02 5.00000E+01 0.00000E+00
 -1        58 1.08150E+02 5.00000E+01 0.00000E+00
 -1        59 1.11150E+02 5.00000E+01 0.00000E+00
 -1        60 1.14150E+02 5.00000E+01 0.00000E+00
 -1        61 1.17150E+02 5.00000E+01 0.00000E+00
 -1        62 1.20150E+02 5.00000E+01 0.00000E+00
 -1        63 1.23150E+02 5.00000E+01 0.00000E+00
 -1        64 1.26150E+02 5.00000E+01 0.00000E+00
 -1        65 1.29150E+02 5.00000E+01 0.00000E+00
 -1        66 1.32150E+02 5.00000E+01 0.00000E+00
 -1        67 1.35150E+02 5.00000E+01 0.00000E+00
 -1        68 1.38150E+02 5.00000E+01 0.00000E+00
 -1        69 1.41150E+02 5.00000E+01 0.00000E+00
 -1        70 1.44150E+02 5.00000E+01 0.00000E+00
 -1        71 1.47150E+02 5.00000E+01 0.00000E+00
 -1        72 3.15000E+00 0.00000E+00 0.00000E+00
 -1        73 6.15000E+00 0.00000E+00 0.00000E+00
 -1        74 9.15000E+00 0.00000E+00 0.00000E+00
 -1        75 1.21500E+01 0.00000E+00 0.00000E+00
 -1        76 1.51500E+01 0.00000E+00 0.00000E+00
 -1        77 1.81500E+01 0.00000E+00 0.00000E+00
 -1        78 2.11500E+01 0.00000E+00 0.00000E+00
 -1        79 2.41500E+01 0.00000E+00 0.00000E+00
 -1        80 2.71500E+01 0.00000E+00 0.00000E+00
 -1        81 3.01500E+01 0.00000E+00 0.00000E+00
 -1        82 3.31500E+01 0.00000E+00 0.00000E+00
 -1        83 3.61500E+01 0.00000E+00 0.00000E+00
 -1        84 3.91500E+01 0.00000E+00 0.00000E+00
 -1        85 4.21500E+01 0.00000E+00 0.00000E+00
 -1        86 4.51500E+01 0.00000E+00 0.00000E+00
 -1        87 4.81500E+01 0.00000E+00 0.00000E+00
 -1        88 5.11500E+01 0.00000E+00 0.00000E+00
 -1        89 5.41500E+01 0.00000E+00 0.00000E+00
 -1        90 5.71500E+01 0.00000E+00 0.00000E+00
 -1        91 6.01500E+01 0.00000E+00 0.00000E+00
 -1        92 6.31500E+01 0.00000E+00 0.00000E+00
 -1        93 6.61500E+01 0.00000E+00 0.00000E+00
 -1        94 6.91500E+01 0.00000E+00 0.00000E+00
 -1        95 7.21500E+01 0.00000E+00 0.00000E+00
 -1        96 7.51500E+01 0.00000E+00 0.00000E+00
 -1        97 7.81500E+01 0.00000E+00 0.00000E+00
 -1        98 8.11500E+01 0.00000E+00 0.00000E+00
 -1        99 8.41500E+01 0.00000E+00 0.00000E+00
 -1       100 8.71500E+01 0.00000E+00 0.00000E+00
 -1       101 9.01500E+01 0.00000E+00 0.00000E+00
 -1       102 9.31500E+01 0.00000E+00 0.00000E+00
 -1       103 9.61500E+01 0.00000E+00 0.00000E+00
 -1       104 9.91500E+01 0.00000E+00 0.00000E+00
 -1       105 1.02150E+02 0.00000E+00 0.00000E+00
 -1       106 1.05150E+02 0.00000E+00 0.00000E+00
 -1       107 1.08150E+02 0.00000E+00 0.00000E+00
 -1       108 1.11150E+02 0.00000E+00 0.00000E+00
 -1       109 1.14150E+02 0.00000E+00 0.00000E+00
 -1       110 1.17150E+02 0.00000E+00 0.00000E+00
 -1       111 1.20150E+02 0.00000E+00 0.00000E+00
 -1       112 1.23150E+02 0.00000E+00 0.00000E+00
 -1       113 1.26150E+02 0.00000E+00 0.00000E+00
 -1       114 1.29150E+02 0.00000E+00 0.00000E+00
 -1       115 1.32150E+02 0.00000E+00 0.00000E+00
 -1       116 1.35150E+02 0.00000E+00 0.00000E+00
 -1       117 1.38150E+02 0.00000E+00 0.00000E+00
 -1       118 1.41150E+02 0.00000E+00 0.00000E+00
 -1       119 1.44150E+02 0.00000E+00 0.00000E+00
 -1       120 1.47150E+02 0.00000E+00 0.00000E+00
 -1       121 1.50000E+02 2.95000E+00 0.00000E+00
 -1       122 1.50000E+02 5.85000E+00 0.00000E+00
 -1       123 1.50000E+02 8.80000E+00 0.00000E+00
 -1       124 1.50000E+02 1.17000E+01 0.00000E+00
 -1       125 1.50000E+02 1.46500E+01 0.00000E+00
 -1       126 1.50000E+02 1.74500E+01 0.00000E+00
 -1       127 1.50000E+02 2.03000E+01 0.00000E+00
 -1       128 1.50000E+02 2.28500E+01 0.00000E+00
 -1       129 1.50000E+02 2.50500E+01 0.00000E+00
 -1       130 1.50000E+02 2.73500E+01 0.00000E+00
 -1       131 1.50000E+02 2.98000E+01 0.00000E+00
 -1       132 1.50000E+02 3.25000E+01 0.00000E+00
 -1       133 1.50000E+02 3.54000E+01 0.00000E+00
 -1       134 1.50000E+02 3.83500E+01 0.00000E+00
 -1       135 1.50000E+02 4.12500E+01 0.00000E+00
 -1       136 1.50000E+02 4.42000E+01 0.00000E+00
 -1       137 1.50000E+02 4.71000E+01 0.00000E+00
 -1       138 1.41405E+02 2.00763E+01 0.00000E+00
 -1       139 1.40936E+02 1.87051E+01 0.00000E+00
 -1       140 1.40156E+02 1.74079E+01 0.00000E+00
 -1       141 1.39182E+02 1.63666E+01 0.00000E+00
 -1       142 1.37961E+02 1.55125E+01 0.00000E+00
 -1       143 1.36521E+02 1.49166E+01 0.00000E+00
 -1       144 1.35124E+02 1.46637E+01 0.00000E+00
 -1       145 1.33594E+02 1.47128E+01 0.00000E+00
 -1       146 1.32111E+02 1.50933E+01 0.00000E+00
 -1       147 1.30754E+02 1.57820E+01 0.00000E+00
 -1       148 1.29652E+02 1.66728E+01 0.00000E+00
 -1       149 1.28631E+02 1.79564E+01 0.00000E+00
 -1       150 1.27989E+02 1.92917E+01 0.00000E+00
 -1       151 1.27640E+02 2.07462E+01 0.00000E+00
 -1       152 1.27599E+02 2.21255E+01 0.00000E+00
 -1       153 1.27849E+02 2.35580E+01 0.00000E+00
 -1       154 1.28476E+02 2.50649E+01 0.00000E+00
 -1       155 1.29400E+02 2.63492E+01 0.00000E+00
 -1       156 1.30529E+02 2.73496E+01 0.00000E+00
 -1       157 1.31800E+02 2.80663E+01 0.00000E+00
 -1       158 1.33202E+02 2.85053E+01 0.00000E+00
 -1       159 1.34631E+02 2.86425E+01 0.00000E+00
 -1       160 1.36228E+02 2.84463E+01 0.00000E+00
 -1       161 1.37672E+02 2.79236E+01 0.00000E+00
 -1       162 1.40126E+02 2.59159E+01 0.00000E+00
 -1       163 1.40930E+02 2.45919E+01 0.00000E+00
 -1       164 1.41419E+02 2.31443E+01 0.00000E+00
 -1       165 2.59800E+00 4.55750E+01 0.00000E+00
 -1       166 2.59800E+00 4.26250E+01 0.00000E+00
 -1       167 2.59800E+00 3.96750E+01 0.00000E+00
 -1       168 2.59800E+00 3.67250E+01 0.00000E+00
 -1       169 2.59800E+00 3.38250E+01 0.00000E+00
 -1       170 2.59800E+00 3.08750E+01 0.00000E+00
 -1       171 2.59800E+00 2.79250E+01 0.00000E+00
 -1       172 2.59800E+00 2.49750E+01 0.00000E+00
 -1       173 2.59800E+00 2.20250E+01 0.00000E+00
 -1       174 2.59800E+00 1.90750E+01 0.00000E+00
 -1       175 2.59800E+00 1.61750E+01 0.00000E+00
 -1       176 2.59800E+00 1.32250E+01 0.00000E+00
 -1       177 2.59800E+00 1.02750E+01 0.00000E+00
 -1       178 2.59800E+00 7.32500E+00 0.00000E+00
 -1       179 2.59800E+00 4.37500E+00 0.00000E+00
 -1       180 2.87400E+00 2.18750E+00 0.00000E+00
 -1       181 4.65000E+00 4.74020E+01 0.00000E+00
 -1       182 7.65000E+00 4.74020E+01 0.00000E+00
 -1       183 1.06500E+01 4.74020E+01 0.00000E+00
 -1       184 1.36500E+01 4.74020E+01 0.00000E+00
 -1       185 1.66500E+01 4.74020E+01 0.00000E+00
 -1       186 1.96500E+01 4.74020E+01 0.00000E+00
 -1       187 2.26500E+01 4.74020E+01 0.00000E+00
 -1       188 2.56500E+01 4.74020E+01 0.00000E+00
 -1       189 2.86500E+01 4.74020E+01 0.00000E+00
 -1       190 3.16500E+01 4.74020E+01 0.00000E+00
 -1       191 3.46500E+01 4.74020E+01 0.00000E+00
 -1       192 3.76500E+01 4.74020E+01 0.00000E+00
 -1       193 4.06500E+01 4.74020E+01 0.00000E+00
 -1       194 4.36500E+01 4.74020E+01 0.00000E+00
 -1       195 4.66500E+01 4.74020E+01 0.00000E+00
 -1       196 4.96500E+01 4.74020E+01 0.00000E+00
 -1       197 5.26500E+01 4.74020E+01 0.00000E+00
 -1       198 5.56500E+01 4.74020E+01 0.00000E+00
 -1       199 5.86500E+01 4.74020E+01 0.00000E+00
 -1       200 6.16500E+01 4.74020E+01 0.00000E+00
 -1       201 6.46500E+01 4.74020E+01 0.00000E+00
 -1       202 6.76500E+01 4.74020E+01 0.00000E+00
 -1       203 7.06500E+01 4.74020E+01 0.00000E+00
 -1       204 7.36500E+01 4.74020E+01 0.00000E+00
 -1       205 7.66500E+01 4.74020E+01 0.00000E+00
 -1       206 7.96500E+01 4.74020E+01 0.00000E+00
 -1       207 8.26500E+01 4.74020E+01 0.00000E+00
 -1       208 8.56500E+01 4.74020E+01 0.00000E+00
 -1       209 8.86500E+01 4.74020E+01 0.00000E+00
 -1       210 9.16500E+01 4.74020E+01 0.00000E+00
 -1       211 9.46500E+01 4.74020E+01 0.00000E+00
 -1       212 9.76500E+01 4.74020E+01 0.00000E+00
 -1       213 1.00650E+02 4.74020E+01 0.00000E+00
 -1       214 1.03650E+02 4.74020E+01 0.00000E+00
 -1       215 1.06650E+02 4.74020E+01 0.00000E+00
 -1       216 1.09650E+02 4.74020E+01 0.00000E+00
 -1       217 1.12650E+02 4.74020E+01 0.00000E+00
 -1       218 1.15650E+02 4.74020E+01 0.00000E+00
 -1       219 1.18650E+02 4.74020E+01 0.00000E+00
 -1       220 1.21650E+02 4.74020E+01 0.00000E+00
 -1       221 1.24650E+02 4.74020E+01 0.00000E+00
 -1       222 1.27650E+02 4.74020E+01 0.00000E+00
 -1       223 1.30650E+02 4.74020E+01 0.00000E+00
 -1       224 1.33650E+02 4.74020E+01 0.00000E+00
 -1       225 1.36650E+02 4.74020E+01 0.00000E+00
 -1       226 1.39650E+02 4.74020E+01 0.00000E+00
 -1       227 1.42650E+02 4.74020E+01 0.00000E+00
 -1       228 1.45650E+02 4.74020E+01 0.00000E+00
 -1       229 5.87400E+00 2.18750E+00 0.00000E+00
 -1       230 8.87400E+00 2.18750E+00 0.00000E+00
 -1       231 1.18740E+01 2.18750E+00 0.00000E+00
 -1       232 1.48740E+01 2.18750E+00 0.00000E+00
 -1       233 1.78740E+01 2.18750E+00 0.00000E+00
 -1       234 2.08740E+01 2.18750E+00 0.00000E+00
 -1       235 2.38740E+01 2.18750E+00 0.00000E+00
 -1       236 2.68740E+01 2.18750E+00 0.00000E+00
 -1       237 2.98740E+01 2.18750E+00 0.00000E+00
 -1       238 3.28740E+01 2.18750E+00 0.00000E+00
 -1       239 3.58740E+01 2.18750E+00 0.00000E+00
 -1       240 3.88740E+01 2.18750E+00 0.00000E+00
 -1       241 4.18740E+01 2.18750E+00 0.00000E+00
 -1       242 4.48740E+01 2.18750E+00 0.00000E+00
 -1       243 4.78740E+01 2.18750E+00 0.00000E+00
 -1       244 5.08740E+01 2.18750E+00 0.00000E+00
 -1       245 5.38740E+01 2.18750E+00 0.00000E+00
 -1       246 5.68740E+01 2.18750E+00 0.00000E+00
 -1       247 5.98740E+01 2.18750E+00 0.00000E+00
 -1       248 6.28740E+01 2.18750E+00 0.00000E+00
 -1       249 6.58740E+01 2.18750E+00 0.00000E+00
 -1       250 6.88740E+01 2.18750E+00 0.00000E+00
 -1       251 7.18740E+01 2.18750E+00 0.00000E+00
 -1       252 7.48740E+01 2.18750E+00 0.00000E+00
 -1       253 7.78740E+01 2.18750E+00 0.00000E+00
 -1       254 8.08740E+01 2.18750E+00 0.00000E+00
 -1       255 8.38740E+01 2.18750E+00 0.00000E+00
 -1       256 8.68740E+01 2.18750E+00 0.00000E+00
 -1       257 8.98740E+01 2.18750E+00 0.00000E+00
 -1       258 9.28740E+01 2.18750E+00 0.00000E+00
 -1       259 9.58740E+01 2.18750E+00 0.00000E+00
 -1       260 9.88740E+01 2.18750E+00 0.00000E+00
 -1       261 1.01874E+02 2.18750E+00 0.00000E+00
 -1       262 1.04874E+02 2.18750E+00 0.00000E+00
 -1       263 1.07874E+02 2.18750E+00 0.00000E+00
 -1       264 1.10874E+02 2.18750E+00 0.00000E+00
 -1       265 1.13874E+02 2.18750E+00 0.00000E+00
 -1       266 1.16874E+02 2.18750E+00 0.00000E+00
 -1       267 1.19874E+02 2.18750E+00 0.00000E+00
 -1       268 1.22874E+02 2.18750E+00 0.00000E+00
 -1       269 1.25874E+02 2.18750E+00 0.00000E+00
 -1       270 1.28874E+02 2.18750E+00 0.00000E+00
 -1       271 1.31874E+02 2.18750E+00 0.00000E+00
 -1       272 1.34874E+02 2.18750E+00 0.00000E+00
 -1       273 1.37874E+02 2.18750E+00 0.00000E+00
 -1       274 1.40874E+02 2.18750E+00 0.00000E+00
 -1       275 1.43874E+02 2.18750E+00 0.00000E+00
 -1       276 1.46874E+02 2.18750E+00 0.00000E+00
 -1       277 1.47402E+02 4.40000E+00 0.00000E+00
 -1       278 1.47402E+02 7.35000E+00 0.00000E+00
 -1       279 1.47402E+02 1.02500E+01 0.00000E+00
 -1       280 1.47402E+02 1.32000E+01 0.00000E+00
 -1       281 1.47402E+02 1.60000E+01 0.00000E+00
 -1       282 1.47402E+02 1.88500E+01 0.00000E+00
 -1       283 1.47402E+02 2.14000E+01 0.00000E+00
 -1       284 1.47402E+02 2.36000E+01 0.00000E+00
 -1       285 1.47402E+02 2.59000E+01 0.00000E+00
 -1       286 1.47402E+02 2.83500E+01 0.00000E+00
 -1       287 1.47402E+02 3.10500E+01 0.00000E+00
 -1       288 1.47402E+02 3.39500E+01 0.00000E+00
 -1       289 1.47402E+02 3.69000E+01 0.00000E+00
 -1       290 1.47402E+02 3.98000E+01 0.00000E+00
 -1       291 1.47402E+02 4.27500E+01 0.00000E+00
 -1       292 1.46526E+02 4.50760E+01 0.00000E+00
 -1       293 1.42864E+02 2.07041E+01 0.00000E+00
 -1       294 1.42317E+02 1.89985E+01 0.00000E+00
 -1       295 1.41728E+02 1.73453E+01 0.00000E+00
 -1       296 1.40555E+02 1.60593E+01 0.00000E+00
 -1       297 1.39363E+02 1.48088E+01 0.00000E+00
 -1       298 1.37737E+02 1.40168E+01 0.00000E+00
 -1       299 1.36038E+02 1.35971E+01 0.00000E+00
 -1       300 1.34314E+02 1.33090E+01 0.00000E+00
 -1       301 1.32489E+02 1.34852E+01 0.00000E+00
 -1       302 1.30846E+02 1.42818E+01 0.00000E+00
 -1       303 1.29441E+02 1.52847E+01 0.00000E+00
 -1       304 1.28062E+02 1.64555E+01 0.00000E+00
 -1       305 1.27217E+02 1.80982E+01 0.00000E+00
 -1       306 1.26472E+02 1.96970E+01 0.00000E+00
 -1       307 1.26407E+02 2.13998E+01 0.00000E+00
 -1       308 1.26447E+02 2.30650E+01 0.00000E+00
 -1       309 1.26888E+02 2.48412E+01 0.00000E+00
 -1       310 1.27682E+02 2.66114E+01 0.00000E+00
 -1       311 1.29104E+02 2.78192E+01 0.00000E+00
 -1       312 1.30569E+02 2.87642E+01 0.00000E+00
 -1       313 1.32114E+02 2.95227E+01 0.00000E+00
 -1       314 1.33793E+02 2.98642E+01 0.00000E+00
 -1       315 1.35598E+02 2.99141E+01 0.00000E+00
 -1       316 1.37363E+02 2.93250E+01 0.00000E+00
 -1       317 1.39214E+02 2.87672E+01 0.00000E+00
 -1       318 1.40532E+02 2.73645E+01 0.00000E+00
 -1       319 1.41565E+02 2.58832E+01 0.00000E+00
 -1       320 1.42323E+02 2.42558E+01 0.00000E+00
 -1       321 1.42706E+02 2.25243E+01 0.00000E+00
 -1       322 5.19600E+00 4.11500E+01 0.00000E+00
 -1       323 5.19600E+00 4.41000E+01 0.00000E+00
 -1       324 5.19600E+00 3.52750E+01 0.00000E+00
 -1       325 5.19600E+00 3.23250E+01 0.00000E+00
 -1       326 5.19600E+00 2.93750E+01 0.00000E+00
 -1       327 5.19600E+00 2.64250E+01 0.00000E+00
 -1       328 5.19600E+00 2.34750E+01 0.00000E+00
 -1       329 5.19600E+00 2.05250E+01 0.00000E+00
 -1       330 5.19600E+00 1.76250E+01 0.00000E+00
 -1       331 5.19600E+00 1.46750E+01 0.00000E+00
 -1       332 5.19600E+00 1.17250E+01 0.00000E+00
 -1       333 5.19600E+00 8.77500E+00 0.00000E+00
 -1       334 5.19600E+00 5.82500E+00 0.00000E+00
 -1       335 5.53500E+00 4.00625E+00 0.00000E+00
 -1       336 8.53500E+00 4.00625E+00 0.00000E+00
 -1       337 9.15000E+00 4.48040E+01 0.00000E+00
 -1       338 1.21500E+01 4.48040E+01 0.00000E+00
 -1       339 1.51500E+01 4.48040E+01 0.00000E+00
 -1       340 1.81500E+01 4.48040E+01 0.00000E+00
 -1       341 2.11500E+01 4.48040E+01 0.00000E+00
 -1       342 2.41500E+01 4.48040E+01 0.00000E+00
 -1       343 2.71500E+01 4.48040E+01 0.00000E+00
 -1       344 3.01500E+01 4.48040E+01 0.00000E+00
 -1       345 3.31500E+01 4.48040E+01 0.00000E+00
 -1       346 3.61500E+01 4.48040E+01 0.00000E+00
 -1       347 3.91500E+01 4.48040E+01 0.00000E+00
 -1       348 4.21500E+01 4.48040E+01 0.00000E+00
 -1       349 4.51500E+01 4.48040E+01 0.00000E+00
 -1       350 4.81500E+01 4.48040E+01 0.00000E+00
 -1       351 5.11500E+01 4.48040E+01 0.00000E+00
 -1       352 5.41500E+01 4.48040E+01 0.00000E+00
 -1       353 5.71500E+01 4.48040E+01 0.00000E+00
 -1       354 6.01500E+01 4.48040E+01 0.00000E+00
 -1       355 6.31500E+01 4.48040E+01 0.00000E+00
 -1       356 6.61500E+01 4.48040E+01 0.00000E+00
 -1       357 6.91500E+01 4.48040E+01 0.00000E+00
 -1       358 7.21500E+01 4.48040E+01 0.00000E+00
 -1       359 7.51500E+01 4.48040E+01 0.00000E+00
 -1       360 7.81500E+01 4.48040E+01 0.00000E+00
 -1       361 8.11500E+01 4.48040E+01 0.00000E+00
 -1       362 8.41500E+01 4.48040E+01 0.00000E+00
 -1       363 8.71500E+01 4.48040E+01 0.00000E+00
 -1       364 9.01500E+01 4.48040E+01 0.00000E+00
 -1       365 9.31500E+01 4.48040E+01 0.00000E+00
 -1       366 9.61500E+01 4.48040E+01 0.00000E+00
 -1       367 9.91500E+01 4.48040E+01 0.00000E+00
 -1       368 1.02150E+02 4.48040E+01 0.00000E+00
 -1       369 1.05150E+02 4.48040E+01 0.00000E+00
 -1       370 1.08150E+02 4.48040E+01 0.00000E+00
 -1       371 1.11150E+02 4.48040E+01 0.00000E+00
 -1       372 1.14150E+02 4.48040E+01 0.00000E+00
 -1       373 1.17150E+02 4.48040E+01 0.00000E+00
 -1       374 1.20150E+02 4.48040E+01 0.00000E+00
 -1       375 1.23150E+02 4.48040E+01 0.00000E+00
 -1       376 1.26150E+02 4.48040E+01 0.00000E+00
 -1       377 1.29150E+02 4.48040E+01 0.00000E+00
 -1       378 1.32150E+02 4.48040E+01 0.00000E+00
 -1       379 1.35150E+02 4.48040E+01 0.00000E+00
 -1       380 1.38150E+02 4.48040E+01 0.00000E+00
 -1       381 1.41150E+02 4.48040E+01 0.00000E+00
 -1       382 1.43838E+02 4.49400E+01 0.00000E+00
 -1       383 1.15350E+01 4.00625E+00 0.00000E+00
 -1       384 1.45350E+01 4.00625E+00 0.00000E+00
 -1       385 1.75350E+01 4.00625E+00 0.00000E+00
 -1       386 2.05350E+01 4.00625E+00 0.00000E+00
 -1       387 2.35350E+01 4.00625E+00 0.00000E+00
 -1       388 2.65350E+01 4.00625E+00 0.00000E+00
 -1       389 2.95350E+01 4.00625E+00 0.00000E+00
 -1       390 3.25350E+01 4.00625E+00 0.00000E+00
 -1       391 3.55350E+01 4.00625E+00 0.00000E+00
 -1       392 3.85350E+01 4.00625E+00 0.00000E+00
 -1       393 4.15350E+01 4.00625E+00 0.00000E+00
 -1       394 4.45350E+01 4.00625E+00 0.00000E+00
 -1       395 4.75350E+01 4.00625E+00 0.00000E+00
 -1       396 5.05350E+01 4.00625E+00 0.00000E+00
 -1       397 5.35350E+01 4.00625E+00 0.00000E+00
 -1       398 5.65350E+01 4.00625E+00 0.00000E+00
 -1       399 5.95350E+01 4.00625E+00 0.00000E+00
 -1       400 6.25350E+01 4.00625E+00 0.00000E+00
 -1       401 6.55350E+01 4.00625E+00 0.00000E+00
 -1       402 6.85350E+01 4.00625E+00 0.00000E+00
 -1       403 7.15350E+01 4.00625E+00 0.00000E+00
 -1       404 7.45350E+01 4.00625E+00 0.00000E+00
 -1       405 7.75350E+01 4.00625E+00 0.00000E+00
 -1       406 8.05350E+01 4.00625E+00 0.00000E+00
 -1       407 8.35350E+01 4.00625E+00 0.00000E+00
 -1       408 8.65350E+01 4.00625E+00 0.00000E+00
 -1       409 8.95350E+01 4.00625E+00 0.00000E+00
 -1       410 9.25350E+01 4.00625E+00 0.00000E+00
 -1       411 9.55350E+01 4.00625E+00 0.00000E+00
 -1       412 9.85350E+01 4.00625E+00 0.00000E+00
 -1       413 1.01535E+02 4.00625E+00 0.00000E+00
 -1       414 1.04535E+02 4.00625E+00 0.00000E+00
 -1       415 1.07535E+02 4.00625E+00 0.00000E+00
 -1       416 1.10535E+02 4.00625E+00 0.00000E+00
 -1       417 1.13535E+02 4.00625E+00 0.00000E+00
 -1       418 1.16535E+02 4.00625E+00 0.00000E+00
 -1       419 1.19535E+02 4.00625E+00 0.00000E+00
 -1       420 1.22535E+02 4.00625E+00 0.00000E+00
 -1       421 1.25535E+02 4.00625E+00 0.00000E+00
 -1       422 1.28535E+02 4.00625E+00 0.00000E+00
 -1       423 1.31535E+02 4.00625E+00 0.00000E+00
 -1       424 1.34535E+02 4.00625E+00 0.00000E+00
 -1       425 1.37535E+02 4.00625E+00 0.00000E+00
 -1       426 1.40535E+02 4.00625E+00 0.00000E+00
 -1       427 1.43535E+02 4.00625E+00 0.00000E+00
 -1       428 1.45469E+02 4.20313E+00 0.00000E+00
 -1       429 1.44804E+02 1.17250E+01 0.00000E+00
 -1       430 1.44804E+02 8.82500E+00 0.00000E+00
 -1       431 1.45136E+02 6.51406E+00 0.00000E+00
 -1       432 1.44804E+02 1.45250E+01 0.00000E+00
 -1       433 1.45352E+02 2.01250E+01 0.00000E+00
 -1       434 1.45352E+02 2.23250E+01 0.00000E+00
 -1       435 1.45352E+02 2.46250E+01 0.00000E+00
 -1       436 1.45352E+02 2.70750E+01 0.00000E+00
 -1       437 1.45352E+02 2.97000E+01 0.00000E+00
 -1       438 1.45352E+02 3.26000E+01 0.00000E+00
 -1       439 1.45352E+02 3.55500E+01 0.00000E+00
 -1       440 1.45352E+02 3.84500E+01 0.00000E+00
 -1       441 1.45352E+02 4.14000E+01 0.00000E+00
 -1       442 1.43560E+02 1.76245E+01 0.00000E+00
 -1       443 1.42099E+02 1.58286E+01 0.00000E+00
 -1       444 1.40958E+02 1.44820E+01 0.00000E+00
 -1       445 5.19600E+00 3.82125E+01 0.00000E+00
 -1       446 1.37279E+02 1.22233E+01 0.00000E+00
 -1       447 1.35555E+02 1.19351E+01 0.00000E+00
 -1       448 1.33237E+02 1.16899E+01 0.00000E+00
 -1       449 1.30992E+02 1.24911E+01 0.00000E+00
 -1       450 1.29342E+02 1.36601E+01 0.00000E+00
 -1       451 1.27858E+02 1.48181E+01 0.00000E+00
 -1       452 1.26263E+02 1.65693E+01 0.00000E+00
 -1       453 1.25518E+02 1.81681E+01 0.00000E+00
 -1       454 1.25145E+02 2.04990E+01 0.00000E+00
 -1       455 1.25048E+02 2.22654E+01 0.00000E+00
 -1       456 1.25410E+02 2.42655E+01 0.00000E+00
 -1       457 1.26026E+02 2.62911E+01 0.00000E+00
 -1       458 1.27500E+02 2.82672E+01 0.00000E+00
 -1       459 1.29089E+02 2.94513E+01 0.00000E+00
 -1       460 1.30733E+02 3.03821E+01 0.00000E+00
 -1       461 1.32662E+02 3.11278E+01 0.00000E+00
 -1       462 1.34655E+02 3.13523E+01 0.00000E+00
 -1       463 1.36970E+02 3.10875E+01 0.00000E+00
 -1       464 1.38821E+02 3.05297E+01 0.00000E+00
 -1       465 1.40940E+02 2.90680E+01 0.00000E+00
 -1       466 1.42180E+02 2.74133E+01 0.00000E+00
 -1       467 1.43271E+02 2.56881E+01 0.00000E+00
 -1       468 1.39227E+02 1.30215E+01 0.00000E+00
 -1       469 1.45173E+02 1.68997E+01 0.00000E+00
 -1       470 1.44595E+02 4.31700E+01 0.00000E+00
 -1       471 1.43838E+02 2.44404E+01 0.00000E+00
 -1       472 1.44224E+02 1.93275E+01 0.00000E+00
 -1       473 1.40547E+02 3.08305E+01 0.00000E+00
 -1       474 1.25844E+02 2.79469E+01 0.00000E+00
 -1       475 1.00350E+01 6.60425E+00 0.00000E+00
 -1       476 7.79400E+00 3.08500E+01 0.00000E+00
 -1       477 7.79400E+00 3.38000E+01 0.00000E+00
 -1       478 7.79400E+00 2.49500E+01 0.00000E+00
 -1       479 7.79400E+00 2.20000E+01 0.00000E+00
 -1       480 7.79400E+00 1.91000E+01 0.00000E+00
 -1       481 7.79400E+00 1.61500E+01 0.00000E+00
 -1       482 7.79400E+00 1.32000E+01 0.00000E+00
 -1       483 7.79400E+00 1.02500E+01 0.00000E+00
 -1       484 1.30350E+01 6.60425E+00 0.00000E+00
 -1       485 1.06500E+01 4.22060E+01 0.00000E+00
 -1       486 1.42709E+02 1.41547E+01 0.00000E+00
 -1       487 1.43134E+02 2.83875E+01 0.00000E+00
 -1       488 1.36500E+01 4.22060E+01 0.00000E+00
 -1       489 1.66500E+01 4.22060E+01 0.00000E+00
 -1       490 1.96500E+01 4.22060E+01 0.00000E+00
 -1       491 2.26500E+01 4.22060E+01 0.00000E+00
 -1       492 2.56500E+01 4.22060E+01 0.00000E+00
 -1       493 2.86500E+01 4.22060E+01 0.00000E+00
 -1       494 3.16500E+01 4.22060E+01 0.00000E+00
 -1       495 3.46500E+01 4.22060E+01 0.00000E+00
 -1       496 3.76500E+01 4.22060E+01 0.00000E+00
 -1       497 4.06500E+01 4.22060E+01 0.00000E+00
 -1       498 4.36500E+01 4.22060E+01 0.00000E+00
 -1       499 4.66500E+01 4.22060E+01 0.00000E+00
 -1       500 4.96500E+01 4.22060E+01 0.00000E+00
 -1       501 5.26500E+01 4.22060E+01 0.00000E+00
 -1       502 5.56500E+01 4.22060E+01 0.00000E+00
 -1       503 5.86500E+01 4.22060E+01 0.00000E+00
 -1       504 6.16500E+01 4.22060E+01 0.00000E+00
 -1       505 6.46500E+01 4.22060E+01 0.00000E+00
 -1       506 6.76500E+01 4.22060E+01 0.00000E+00
 -1       507 7.06500E+01 4.22060E+01 0.00000E+00
 -1       508 7.36500E+01 4.22060E+01 0.00000E+00
 -1       509 7.66500E+01 4.22060E+01 0.00000E+00
 -1       510 7.96500E+01 4.22060E+01 0.00000E+00
 -1       511 8.26500E+01 4.22060E+01 0.00000E+00
 -1       512 8.56500E+01 4.22060E+01 0.00000E+00
 -1       513 8.86500E+01 4.22060E+01 0.00000E+00
 -1       514 9.16500E+01 4.22060E+01 0.00000E+00
 -1       515 9.46500E+01 4.22060E+01 0.00000E+00
 -1       516 9.76500E+01 4.22060E+01 0.00000E+00
 -1       517 1.00650E+02 4.22060E+01 0.00000E+00
 -1       518 1.03650E+02 4.22060E+01 0.00000E+00
 -1       519 1.06650E+02 4.22060E+01 0.00000E+00
 -1       520 1.09650E+02 4.22060E+01 0.00000E+00
 -1       521 1.12650E+02 4.22060E+01 0.00000E+00
 -1       522 1.15650E+02 4.22060E+01 0.00000E+00
 -1       523 1.18650E+02 4.22060E+01 0.00000E+00
 -1       524 1.21650E+02 4.22060E+01 0.00000E+00
 -1       525 1.24650E+02 4.22060E+01 0.00000E+00
 -1       526 1.27650E+02 4.22060E+01 0.00000E+00
 -1       527 1.30650E+02 4.22060E+01 0.00000E+00
 -1       528 1.33650E+02 4.22060E+01 0.00000E+00
 -1       529 1.36650E+02 4.22060E+01 0.00000E+00
 -1       530 1.39650E+02 4.22060E+01 0.00000E+00
 -1       531 1.42754E+02 3.70000E+01 0.00000E+00
 -1       532 1.90350E+01 6.60425E+00 0.00000E+00
 -1       533 2.20350E+01 6.60425E+00 0.00000E+00
 -1       534 2.50350E+01 6.60425E+00 0.00000E+00
 -1       535 2.80350E+01 6.60425E+00 0.00000E+00
 -1       536 3.10350E+01 6.60425E+00 0.00000E+00
 -1       537 3.40350E+01 6.60425E+00 0.00000E+00
 -1       538 3.70350E+01 6.60425E+00 0.00000E+00
 -1       539 4.00350E+01 6.60425E+00 0.00000E+00
 -1       540 4.30350E+01 6.60425E+00 0.00000E+00
 -1       541 4.60350E+01 6.60425E+00 0.00000E+00
 -1       542 4.90350E+01 6.60425E+00 0.00000E+00
 -1       543 5.20350E+01 6.60425E+00 0.00000E+00
 -1       544 5.50350E+01 6.60425E+00 0.00000E+00
 -1       545 5.80350E+01 6.60425E+00 0.00000E+00
 -1       546 6.10350E+01 6.60425E+00 0.00000E+00
 -1       547 6.40350E+01 6.60425E+00 0.00000E+00
 -1       548 6.70350E+01 6.60425E+00 0.00000E+00
 -1       549 7.00350E+01 6.60425E+00 0.00000E+00
 -1       550 7.30350E+01 6.60425E+00 0.00000E+00
 -1       551 7.60350E+01 6.60425E+00 0.00000E+00
 -1       552 7.90350E+01 6.60425E+00 0.00000E+00
 -1       553 8.20350E+01 6.60425E+00 0.00000E+00
 -1       554 8.50350E+01 6.60425E+00 0.00000E+00
 -1       555 8.80350E+01 6.60425E+00 0.00000E+00
 -1       556 9.10350E+01 6.60425E+00 0.00000E+00
 -1       557 9.40350E+01 6.60425E+00 0.00000E+00
 -1       558 9.70350E+01 6.60425E+00 0.00000E+00
 -1       559 1.00035E+02 6.60425E+00 0.00000E+00
 -1       560 1.03035E+02 6.60425E+00 0.00000E+00
 -1       561 1.06035E+02 6.60425E+00 0.00000E+00
 -1       562 1.09035E+02 6.60425E+00 0.00000E+00
 -1       563 1.12035E+02 6.60425E+00 0.00000E+00
 -1       564 1.15035E+02 6.60425E+00 0.00000E+00
 -1       565 1.18035E+02 6.60425E+00 0.00000E+00
 -1       566 1.21035E+02 6.60425E+00 0.00000E+00
 -1       567 1.24035E+02 6.60425E+00 0.00000E+00
 -1       568 1.27035E+02 6.60425E+00 0.00000E+00
 -1       569 1.30035E+02 6.60425E+00 0.00000E+00
 -1       570 1.33035E+02 6.60425E+00 0.00000E+00
 -1       571 1.36035E+02 6.60425E+00 0.00000E+00
 -1       572 1.39035E+02 6.60425E+00 0.00000E+00
 -1       573 1.42035E+02 6.60425E+00 0.00000E+00
 -1       574 1.42419E+02 1.02750E+01 0.00000E+00
 -1       575 1.43965E+02 1.58029E+01 0.00000E+00
 -1       576 1.42754E+02 3.40500E+01 0.00000E+00
 -1       577 1.42944E+02 3.12188E+01 0.00000E+00
 -1       578 1.42754E+02 3.99500E+01 0.00000E+00
 -1       579 1.60350E+01 6.60425E+00 0.00000E+00
 -1       580 1.38871E+02 1.11128E+01 0.00000E+00
 -1       581 7.92300E+00 4.16780E+01 0.00000E+00
 -1       582 1.36008E+02 3.29239E+01 0.00000E+00
 -1       583 1.25979E+02 1.47081E+01 0.00000E+00
 -1       584 7.79400E+00 2.79000E+01 0.00000E+00
 -1       585 1.31538E+02 1.04752E+01 0.00000E+00
 -1       586 1.36658E+02 1.06355E+01 0.00000E+00
 -1       587 1.23384E+02 2.12882E+01 0.00000E+00
 -1       588 1.41037E+02 1.26331E+01 0.00000E+00
 -1       589 1.29272E+02 1.18128E+01 0.00000E+00
 -1       590 1.27596E+02 1.29532E+01 0.00000E+00
 -1       591 1.24412E+02 1.66795E+01 0.00000E+00
 -1       592 1.23757E+02 1.89573E+01 0.00000E+00
 -1       593 1.23871E+02 2.35112E+01 0.00000E+00
 -1       594 1.24237E+02 2.57288E+01 0.00000E+00
 -1       595 1.27269E+02 3.02344E+01 0.00000E+00
 -1       596 1.29066E+02 3.14093E+01 0.00000E+00
 -1       597 1.30994E+02 3.21550E+01 0.00000E+00
 -1       598 1.33429E+02 3.32775E+01 0.00000E+00
 -1       599 1.38318E+02 3.22101E+01 0.00000E+00
 -1       600 1.34567E+02 1.01902E+01 0.00000E+00
 -1       601 7.61550E+00 6.21462E+00 0.00000E+00
 -1       602 7.79400E+00 3.67375E+01 0.00000E+00
 -1       603 1.40044E+02 3.25109E+01 0.00000E+00
 -1       604 1.24055E+02 2.73846E+01 0.00000E+00
 -1       605 1.25613E+02 2.99141E+01 0.00000E+00
 -1       606 1.33385E+02 9.68741E+00 0.00000E+00
 -1       607 1.03920E+01 2.05500E+01 0.00000E+00
 -1       608 1.03920E+01 2.35000E+01 0.00000E+00
 -1       609 1.03920E+01 1.46750E+01 0.00000E+00
 -1       610 1.03920E+01 1.17250E+01 0.00000E+00
 -1       611 1.15350E+01 9.20225E+00 0.00000E+00
 -1       612 1.40892E+02 1.05379E+01 0.00000E+00
 -1       613 1.39674E+02 3.89765E+01 0.00000E+00
 -1       614 1.51500E+01 3.96080E+01 0.00000E+00
 -1       615 1.81500E+01 3.96080E+01 0.00000E+00
 -1       616 2.11500E+01 3.96080E+01 0.00000E+00
 -1       617 2.41500E+01 3.96080E+01 0.00000E+00
 -1       618 2.71500E+01 3.96080E+01 0.00000E+00
 -1       619 3.01500E+01 3.96080E+01 0.00000E+00
 -1       620 3.31500E+01 3.96080E+01 0.00000E+00
 -1       621 3.61500E+01 3.96080E+01 0.00000E+00
 -1       622 3.91500E+01 3.96080E+01 0.00000E+00
 -1       623 4.21500E+01 3.96080E+01 0.00000E+00
 -1       624 4.51500E+01 3.96080E+01 0.00000E+00
 -1       625 4.81500E+01 3.96080E+01 0.00000E+00
 -1       626 5.11500E+01 3.96080E+01 0.00000E+00
 -1       627 5.41500E+01 3.96080E+01 0.00000E+00
 -1       628 5.71500E+01 3.96080E+01 0.00000E+00
 -1       629 6.01500E+01 3.96080E+01 0.00000E+00
 -1       630 6.31500E+01 3.96080E+01 0.00000E+00
 -1       631 6.61500E+01 3.96080E+01 0.00000E+00
 -1       632 6.91500E+01 3.96080E+01 0.00000E+00
 -1       633 7.21500E+01 3.96080E+01 0.00000E+00
 -1       634 7.51500E+01 3.96080E+01 0.00000E+00
 -1       635 7.81500E+01 3.96080E+01 0.00000E+00
 -1       636 8.11500E+01 3.96080E+01 0.00000E+00
 -1       637 8.41500E+01 3.96080E+01 0.00000E+00
 -1       638 8.71500E+01 3.96080E+01 0.00000E+00
 -1       639 9.01500E+01 3.96080E+01 0.00000E+00
 -1       640 9.31500E+01 3.96080E+01 0.00000E+00
 -1       641 9.61500E+01 3.96080E+01 0.00000E+00
 -1       642 9.91500E+01 3.96080E+01 0.00000E+00
 -1       643 1.02150E+02 3.96080E+01 0.00000E+00
 -1       644 1.05150E+02 3.96080E+01 0.00000E+00
 -1       645 1.08150E+02 3.96080E+01 0.00000E+00
 -1       646 1.11150E+02 3.96080E+01 0.00000E+00
 -1       647 1.14150E+02 3.96080E+01 0.00000E+00
 -1       648 1.17150E+02 3.96080E+01 0.00000E+00
 -1       649 1.20150E+02 3.96080E+01 0.00000E+00
 -1       650 1.23150E+02 3.96080E+01 0.00000E+00
 -1       651 1.26150E+02 3.96080E+01 0.00000E+00
 -1       652 1.29150E+02 3.96080E+01 0.00000E+00
 -1       653 1.32150E+02 3.96080E+01 0.00000E+00
 -1       654 1.35150E+02 3.96080E+01 0.00000E+00
 -1       655 1.37412E+02 3.92922E+01 0.00000E+00
 -1       656 2.05350E+01 9.20225E+00 0.00000E+00
 -1       657 2.95350E+01 9.20225E+00 0.00000E+00
 -1       658 3.25350E+01 9.20225E+00 0.00000E+00
 -1       659 3.55350E+01 9.20225E+00 0.00000E+00
 -1       660 3.85350E+01 9.20225E+00 0.00000E+00
 -1       661 4.15350E+01 9.20225E+00 0.00000E+00
 -1       662 4.45350E+01 9.20225E+00 0.00000E+00
 -1       663 4.75350E+01 9.20225E+00 0.00000E+00
 -1       664 5.05350E+01 9.20225E+00 0.00000E+00
 -1       665 5.35350E+01 9.20225E+00 0.00000E+00
 -1       666 5.65350E+01 9.20225E+00 0.00000E+00
 -1       667 5.95350E+01 9.20225E+00 0.00000E+00
 -1       668 6.25350E+01 9.20225E+00 0.00000E+00
 -1       669 6.55350E+01 9.20225E+00 0.00000E+00
 -1       670 6.85350E+01 9.20225E+00 0.00000E+00
 -1       671 7.15350E+01 9.20225E+00 0.00000E+00
 -1       672 7.45350E+01 9.20225E+00 0.00000E+00
 -1       673 7.75350E+01 9.20225E+00 0.00000E+00
 -1       674 8.05350E+01 9.20225E+00 0.00000E+00
 -1       675 8.35350E+01 9.20225E+00 0.00000E+00
 -1       676 8.65350E+01 9.20225E+00 0.00000E+00
 -1       677 8.95350E+01 9.20225E+00 0.00000E+00
 -1       678 9.25350E+01 9.20225E+00 0.00000E+00
 -1       679 9.55350E+01 9.20225E+00 0.00000E+00
 -1       680 9.85350E+01 9.20225E+00 0.00000E+00
 -1       681 1.01535E+02 9.20225E+00 0.00000E+00
 -1       682 1.04535E+02 9.20225E+00 0.00000E+00
 -1       683 1.07535E+02 9.20225E+00 0.00000E+00
 -1       684 1.10535E+02 9.20225E+00 0.00000E+00
 -1       685 1.13535E+02 9.20225E+00 0.00000E+00
 -1       686 1.16535E+02 9.20225E+00 0.00000E+00
 -1       687 1.19535E+02 9.20225E+00 0.00000E+00
 -1       688 1.22535E+02 9.20225E+00 0.00000E+00
 -1       689 1.25535E+02 9.20225E+00 0.00000E+00
 -1       690 1.37535E+02 8.82207E+00 0.00000E+00
 -1       691 1.40156E+02 3.55250E+01 0.00000E+00
 -1       692 1.35953E+02 8.81731E+00 0.00000E+00
 -1       693 1.75350E+01 9.20225E+00 0.00000E+00
 -1       694 1.31493E+02 3.42738E+01 0.00000E+00
 -1       695 9.78035E+00 3.93914E+01 0.00000E+00
 -1       696 1.22362E+02 2.48998E+01 0.00000E+00
 -1       697 1.21877E+02 1.98513E+01 0.00000E+00
 -1       698 1.22275E+02 1.72981E+01 0.00000E+00
 -1       699 2.65350E+01 9.20225E+00 0.00000E+00
 -1       700 2.35350E+01 9.20225E+00 0.00000E+00
 -1       701 1.24652E+01 3.94997E+01 0.00000E+00
 -1       702 1.45350E+01 9.20225E+00 0.00000E+00
 -1       703 1.23918E+02 1.46789E+01 0.00000E+00
 -1       704 1.03920E+01 1.76125E+01 0.00000E+00
 -1       705 1.29533E+02 9.66707E+00 0.00000E+00
 -1       706 1.21875E+02 2.26768E+01 0.00000E+00
 -1       707 1.27046E+02 3.25378E+01 0.00000E+00
 -1       708 1.03920E+01 3.23250E+01 0.00000E+00
 -1       709 1.27375E+02 1.08264E+01 0.00000E+00
 -1       710 1.25403E+02 1.25547E+01 0.00000E+00
 -1       711 1.29565E+02 3.35280E+01 0.00000E+00
 -1       712 1.34974E+02 3.49659E+01 0.00000E+00
 -1       713 1.37669E+02 3.42057E+01 0.00000E+00
 -1       714 1.03920E+01 2.64500E+01 0.00000E+00
 -1       715 1.21781E+02 1.52975E+01 0.00000E+00
 -1       716 1.03920E+01 3.52625E+01 0.00000E+00
 -1       717 1.35247E+02 7.91467E+00 0.00000E+00
 -1       718 1.28535E+02 8.98964E+00 0.00000E+00
 -1       719 1.40535E+02 8.82207E+00 0.00000E+00
 -1       720 1.22180E+02 2.65555E+01 0.00000E+00
 -1       721 1.33039E+02 3.59622E+01 0.00000E+00
 -1       722 1.25390E+02 3.22175E+01 0.00000E+00
 -1       723 1.23825E+02 2.93518E+01 0.00000E+00
 -1       724 1.03920E+01 2.93875E+01 0.00000E+00
 -1       725 1.29900E+01 1.32000E+01 0.00000E+00
 -1       726 1.66500E+01 3.70100E+01 0.00000E+00
 -1       727 3.70350E+01 1.18003E+01 0.00000E+00
 -1       728 1.96500E+01 3.70100E+01 0.00000E+00
 -1       729 2.26500E+01 3.70100E+01 0.00000E+00
 -1       730 2.56500E+01 3.70100E+01 0.00000E+00
 -1       731 2.86500E+01 3.70100E+01 0.00000E+00
 -1       732 3.16500E+01 3.70100E+01 0.00000E+00
 -1       733 3.46500E+01 3.70100E+01 0.00000E+00
 -1       734 3.76500E+01 3.70100E+01 0.00000E+00
 -1       735 4.06500E+01 3.70100E+01 0.00000E+00
 -1       736 4.36500E+01 3.70100E+01 0.00000E+00
 -1       737 4.66500E+01 3.70100E+01 0.00000E+00
 -1       738 4.96500E+01 3.70100E+01 0.00000E+00
 -1       739 5.26500E+01 3.70100E+01 0.00000E+00
 -1       740 5.56500E+01 3.70100E+01 0.00000E+00
 -1       741 5.86500E+01 3.70100E+01 0.00000E+00
 -1       742 6.16500E+01 3.70100E+01 0.00000E+00
 -1       743 6.46500E+01 3.70100E+01 0.00000E+00
 -1       744 6.76500E+01 3.70100E+01 0.00000E+00
 -1       745 7.06500E+01 3.70100E+01 0.00000E+00
 -1       746 7.36500E+01 3.70100E+01 0.00000E+00
 -1       747 7.66500E+01 3.70100E+01 0.00000E+00
 -1       748 7.96500E+01 3.70100E+01 0.00000E+00
 -1       749 8.26500E+01 3.70100E+01 0.00000E+00
 -1       750 8.56500E+01 3.70100E+01 0.00000E+00
 -1       751 8.86500E+01 3.70100E+01 0.00000E+00
 -1       752 9.16500E+01 3.70100E+01 0.00000E+00
 -1       753 9.46500E+01 3.70100E+01 0.00000E+00
 -1       754 9.76500E+01 3.70100E+01 0.00000E+00
 -1       755 1.00650E+02 3.70100E+01 0.00000E+00
 -1       756 1.03650E+02 3.70100E+01 0.00000E+00
 -1       757 1.06650E+02 3.70100E+01 0.00000E+00
 -1       758 1.09650E+02 3.70100E+01 0.00000E+00
 -1       759 1.12650E+02 3.70100E+01 0.00000E+00
 -1       760 1.15650E+02 3.70100E+01 0.00000E+00
 -1       761 1.18650E+02 3.70100E+01 0.00000E+00
 -1       762 1.21650E+02 3.70100E+01 0.00000E+00
 -1       763 1.24650E+02 3.70100E+01 0.00000E+00
 -1       764 1.27650E+02 3.70100E+01 0.00000E+00
 -1       765 3.40350E+01 1.18003E+01 0.00000E+00
 -1       766 3.10350E+01 1.18003E+01 0.00000E+00
 -1       767 4.00350E+01 1.18003E+01 0.00000E+00
 -1       768 4.30350E+01 1.18003E+01 0.00000E+00
 -1       769 4.60350E+01 1.18003E+01 0.00000E+00
 -1       770 4.90350E+01 1.18003E+01 0.00000E+00
 -1       771 5.20350E+01 1.18003E+01 0.00000E+00
 -1       772 5.50350E+01 1.18003E+01 0.00000E+00
 -1       773 5.80350E+01 1.18003E+01 0.00000E+00
 -1       774 6.10350E+01 1.18003E+01 0.00000E+00
 -1       775 6.40350E+01 1.18003E+01 0.00000E+00
 -1       776 6.70350E+01 1.18003E+01 0.00000E+00
 -1       777 7.00350E+01 1.18003E+01 0.00000E+00
 -1       778 7.30350E+01 1.18003E+01 0.00000E+00
 -1       779 7.60350E+01 1.18003E+01 0.00000E+00
 -1       780 7.90350E+01 1.18003E+01 0.00000E+00
 -1       781 8.20350E+01 1.18003E+01 0.00000E+00
 -1       782 8.50350E+01 1.18003E+01 0.00000E+00
 -1       783 8.80350E+01 1.18003E+01 0.00000E+00
 -1       784 9.10350E+01 1.18003E+01 0.00000E+00
 -1       785 9.40350E+01 1.18003E+01 0.00000E+00
 -1       786 9.70350E+01 1.18003E+01 0.00000E+00
 -1       787 1.00035E+02 1.18003E+01 0.00000E+00
 -1       788 1.03035E+02 1.18003E+01 0.00000E+00
 -1       789 1.06035E+02 1.18003E+01 0.00000E+00
 -1       790 1.09035E+02 1.18003E+01 0.00000E+00
 -1       791 1.12035E+02 1.18003E+01 0.00000E+00
 -1       792 1.15035E+02 1.18003E+01 0.00000E+00
 -1       793 1.18035E+02 1.18003E+01 0.00000E+00
 -1       794 1.21035E+02 1.18003E+01 0.00000E+00
 -1       795 1.20381E+02 1.83102E+01 0.00000E+00
 -1       796 1.90350E+01 1.18003E+01 0.00000E+00
 -1       797 2.20350E+01 1.18003E+01 0.00000E+00
 -1       798 1.36878E+02 3.65591E+01 0.00000E+00
 -1       799 2.50350E+01 1.18003E+01 0.00000E+00
 -1       800 2.80350E+01 1.18003E+01 0.00000E+00
 -1       801 1.20279E+02 2.41913E+01 0.00000E+00
 -1       802 1.20161E+02 2.12628E+01 0.00000E+00
 -1       803 1.27494E+02 3.50970E+01 0.00000E+00
 -1       804 1.37625E+01 1.12011E+01 0.00000E+00
 -1       805 1.30266E+02 3.55296E+01 0.00000E+00
 -1       806 1.22980E+02 1.24422E+01 0.00000E+00
 -1       807 1.29900E+01 2.20250E+01 0.00000E+00
 -1       808 1.19888E+02 1.63096E+01 0.00000E+00
 -1       809 1.29900E+01 1.61375E+01 0.00000E+00
 -1       810 1.63988E+01 1.15007E+01 0.00000E+00
 -1       811 1.21949E+02 2.85227E+01 0.00000E+00
 -1       812 1.23601E+02 3.16552E+01 0.00000E+00
 -1       813 1.20097E+02 2.58471E+01 0.00000E+00
 -1       814 1.39652E+01 3.69017E+01 0.00000E+00
 -1       815 1.29900E+01 2.49750E+01 0.00000E+00
 -1       816 1.29900E+01 1.90812E+01 0.00000E+00
 -1       817 1.29900E+01 3.37938E+01 0.00000E+00
 -1       818 1.29900E+01 3.08563E+01 0.00000E+00
 -1       819 2.95350E+01 1.43982E+01 0.00000E+00
 -1       820 2.11500E+01 3.44120E+01 0.00000E+00
 -1       821 2.41500E+01 3.44120E+01 0.00000E+00
 -1       822 2.71500E+01 3.44120E+01 0.00000E+00
 -1       823 3.01500E+01 3.44120E+01 0.00000E+00
 -1       824 3.31500E+01 3.44120E+01 0.00000E+00
 -1       825 3.61500E+01 3.44120E+01 0.00000E+00
 -1       826 3.91500E+01 3.44120E+01 0.00000E+00
 -1       827 4.21500E+01 3.44120E+01 0.00000E+00
 -1       828 4.51500E+01 3.44120E+01 0.00000E+00
 -1       829 4.81500E+01 3.44120E+01 0.00000E+00
 -1       830 5.11500E+01 3.44120E+01 0.00000E+00
 -1       831 5.41500E+01 3.44120E+01 0.00000E+00
 -1       832 5.71500E+01 3.44120E+01 0.00000E+00
 -1       833 6.01500E+01 3.44120E+01 0.00000E+00
 -1       834 6.31500E+01 3.44120E+01 0.00000E+00
 -1       835 6.61500E+01 3.44120E+01 0.00000E+00
 -1       836 6.91500E+01 3.44120E+01 0.00000E+00
 -1       837 7.21500E+01 3.44120E+01 0.00000E+00
 -1       838 7.51500E+01 3.44120E+01 0.00000E+00
 -1       839 7.81500E+01 3.44120E+01 0.00000E+00
 -1       840 8.11500E+01 3.44120E+01 0.00000E+00
 -1       841 8.41500E+01 3.44120E+01 0.00000E+00
 -1       842 8.71500E+01 3.44120E+01 0.00000E+00
 -1       843 9.01500E+01 3.44120E+01 0.00000E+00
 -1       844 9.31500E+01 3.44120E+01 0.00000E+00
 -1       845 9.61500E+01 3.44120E+01 0.00000E+00
 -1       846 9.91500E+01 3.44120E+01 0.00000E+00
 -1       847 1.02150E+02 3.44120E+01 0.00000E+00
 -1       848 1.05150E+02 3.44120E+01 0.00000E+00
 -1       849 1.08150E+02 3.44120E+01 0.00000E+00
 -1       850 1.11150E+02 3.44120E+01 0.00000E+00
 -1       851 1.14150E+02 3.44120E+01 0.00000E+00
 -1       852 1.17150E+02 3.44120E+01 0.00000E+00
 -1       853 1.20150E+02 3.44120E+01 0.00000E+00
 -1       854 3.85350E+01 1.43982E+01 0.00000E+00
 -1       855 3.25350E+01 1.43982E+01 0.00000E+00
 -1       856 4.45350E+01 1.43982E+01 0.00000E+00
 -1       857 4.75350E+01 1.43982E+01 0.00000E+00
 -1       858 5.05350E+01 1.43982E+01 0.00000E+00
 -1       859 5.35350E+01 1.43982E+01 0.00000E+00
 -1       860 5.65350E+01 1.43982E+01 0.00000E+00
 -1       861 5.95350E+01 1.43982E+01 0.00000E+00
 -1       862 6.25350E+01 1.43982E+01 0.00000E+00
 -1       863 6.55350E+01 1.43982E+01 0.00000E+00
 -1       864 6.85350E+01 1.43982E+01 0.00000E+00
 -1       865 7.15350E+01 1.43982E+01 0.00000E+00
 -1       866 7.45350E+01 1.43982E+01 0.00000E+00
 -1       867 7.75350E+01 1.43982E+01 0.00000E+00
 -1       868 8.05350E+01 1.43982E+01 0.00000E+00
 -1       869 8.35350E+01 1.43982E+01 0.00000E+00
 -1       870 8.65350E+01 1.43982E+01 0.00000E+00
 -1       871 8.95350E+01 1.43982E+01 0.00000E+00
 -1       872 9.25350E+01 1.43982E+01 0.00000E+00
 -1       873 9.55350E+01 1.43982E+01 0.00000E+00
 -1       874 9.85350E+01 1.43982E+01 0.00000E+00
 -1       875 1.01535E+02 1.43982E+01 0.00000E+00
 -1       876 1.04535E+02 1.43982E+01 0.00000E+00
 -1       877 1.07535E+02 1.43982E+01 0.00000E+00
 -1       878 1.10535E+02 1.43982E+01 0.00000E+00
 -1       879 1.13535E+02 1.43982E+01 0.00000E+00
 -1       880 1.16535E+02 1.43982E+01 0.00000E+00
 -1       881 2.05350E+01 1.43982E+01 0.00000E+00
 -1       882 1.25733E+02 3.48841E+01 0.00000E+00
 -1       883 1.29900E+01 2.79188E+01 0.00000E+00
 -1       884 2.35350E+01 1.43982E+01 0.00000E+00
 -1       885 1.23944E+02 3.43219E+01 0.00000E+00
 -1       886 4.15350E+01 1.43982E+01 0.00000E+00
 -1       887 2.65350E+01 1.43982E+01 0.00000E+00
 -1       888 3.55350E+01 1.43982E+01 0.00000E+00
 -1       889 1.18004E+02 2.28168E+01 0.00000E+00
 -1       890 1.81500E+01 3.44120E+01 0.00000E+00
 -1       891 1.18225E+02 1.98642E+01 0.00000E+00
 -1       892 1.18961E+02 1.40549E+01 0.00000E+00
 -1       893 1.17731E+02 1.78637E+01 0.00000E+00
 -1       894 1.55880E+01 1.46687E+01 0.00000E+00
 -1       895 1.75351E+01 1.43983E+01 0.00000E+00
 -1       896 1.21725E+02 3.08261E+01 0.00000E+00
 -1       897 1.19866E+02 2.78143E+01 0.00000E+00
 -1       898 1.56748E+01 3.39021E+01 0.00000E+00
 -1       899 1.56748E+01 3.09646E+01 0.00000E+00
 -1       900 1.55880E+01 2.35000E+01 0.00000E+00
 -1       901 1.17822E+02 2.44726E+01 0.00000E+00
 -1       902 1.55880E+01 2.05562E+01 0.00000E+00
 -1       903 1.55880E+01 1.76125E+01 0.00000E+00
 -1       904 2.56500E+01 3.18140E+01 0.00000E+00
 -1       905 2.86500E+01 3.18140E+01 0.00000E+00
 -1       906 3.16500E+01 3.18140E+01 0.00000E+00
 -1       907 3.46500E+01 3.18140E+01 0.00000E+00
 -1       908 3.76500E+01 3.18140E+01 0.00000E+00
 -1       909 4.06500E+01 3.18140E+01 0.00000E+00
 -1       910 4.36500E+01 3.18140E+01 0.00000E+00
 -1       911 4.66500E+01 3.18140E+01 0.00000E+00
 -1       912 4.96500E+01 3.18140E+01 0.00000E+00
 -1       913 5.26500E+01 3.18140E+01 0.00000E+00
 -1       914 5.56500E+01 3.18140E+01 0.00000E+00
 -1       915 5.86500E+01 3.18140E+01 0.00000E+00
 -1       916 6.16500E+01 3.18140E+01 0.00000E+00
 -1       917 6.46500E+01 3.18140E+01 0.00000E+00
 -1       918 6.76500E+01 3.18140E+01 0.00000E+00
 -1       919 7.06500E+01 3.18140E+01 0.00000E+00
 -1       920 7.36500E+01 3.18140E+01 0.00000E+00
 -1       921 7.66500E+01 3.18140E+01 0.00000E+00
 -1       922 7.96500E+01 3.18140E+01 0.00000E+00
 -1       923 8.26500E+01 3.18140E+01 0.00000E+00
 -1       924 8.56500E+01 3.18140E+01 0.00000E+00
 -1       925 8.86500E+01 3.18140E+01 0.00000E+00
 -1       926 9.16500E+01 3.18140E+01 0.00000E+00
 -1       927 9.46500E+01 3.18140E+01 0.00000E+00
 -1       928 9.76500E+01 3.18140E+01 0.00000E+00
 -1       929 1.00650E+02 3.18140E+01 0.00000E+00
 -1       930 1.03650E+02 3.18140E+01 0.00000E+00
 -1       931 1.06650E+02 3.18140E+01 0.00000E+00
 -1       932 1.09650E+02 3.18140E+01 0.00000E+00
 -1       933 1.12650E+02 3.18140E+01 0.00000E+00
 -1       934 1.15650E+02 3.18140E+01 0.00000E+00
 -1       935 1.18650E+02 3.18140E+01 0.00000E+00
 -1       936 1.90351E+01 1.69963E+01 0.00000E+00
 -1       937 3.10350E+01 1.69963E+01 0.00000E+00
 -1       938 4.90350E+01 1.69963E+01 0.00000E+00
 -1       939 4.60350E+01 1.69963E+01 0.00000E+00
 -1       940 5.50350E+01 1.69963E+01 0.00000E+00
 -1       941 5.80350E+01 1.69963E+01 0.00000E+00
 -1       942 6.10350E+01 1.69963E+01 0.00000E+00
 -1       943 6.40350E+01 1.69963E+01 0.00000E+00
 -1       944 6.70350E+01 1.69963E+01 0.00000E+00
 -1       945 7.00350E+01 1.69963E+01 0.00000E+00
 -1       946 7.30350E+01 1.69963E+01 0.00000E+00
 -1       947 7.60350E+01 1.69963E+01 0.00000E+00
 -1       948 7.90350E+01 1.69963E+01 0.00000E+00
 -1       949 8.20350E+01 1.69963E+01 0.00000E+00
 -1       950 8.50350E+01 1.69963E+01 0.00000E+00
 -1       951 8.80350E+01 1.69963E+01 0.00000E+00
 -1       952 9.10350E+01 1.69963E+01 0.00000E+00
 -1       953 9.40350E+01 1.69963E+01 0.00000E+00
 -1       954 9.70350E+01 1.69963E+01 0.00000E+00
 -1       955 1.00035E+02 1.69963E+01 0.00000E+00
 -1       956 1.03035E+02 1.69963E+01 0.00000E+00
 -1       957 1.06035E+02 1.69963E+01 0.00000E+00
 -1       958 1.09035E+02 1.69963E+01 0.00000E+00
 -1       959 1.12035E+02 1.69963E+01 0.00000E+00
 -1       960 1.15035E+02 1.69963E+01 0.00000E+00
 -1       961 1.55880E+01 2.64438E+01 0.00000E+00
 -1       962 2.50350E+01 1.69963E+01 0.00000E+00
 -1       963 1.56314E+01 2.87042E+01 0.00000E+00
 -1       964 5.20350E+01 1.69963E+01 0.00000E+00
 -1       965 2.20350E+01 1.69963E+01 0.00000E+00
 -1       966 1.81500E+01 3.14745E+01 0.00000E+00
 -1       967 2.26500E+01 3.18140E+01 0.00000E+00
 -1       968 2.04000E+01 3.16443E+01 0.00000E+00
 -1       969 2.80350E+01 1.69963E+01 0.00000E+00
 -1       970 1.15903E+02 2.11751E+01 0.00000E+00
 -1       971 1.17133E+02 1.61310E+01 0.00000E+00
 -1       972 1.73115E+01 1.73044E+01 0.00000E+00
 -1       973 1.15409E+02 1.91745E+01 0.00000E+00
 -1       974 4.30350E+01 1.69963E+01 0.00000E+00
 -1       975 1.81860E+01 2.49719E+01 0.00000E+00
 -1       976 4.00350E+01 1.69963E+01 0.00000E+00
 -1       977 1.15721E+02 2.28309E+01 0.00000E+00
 -1       978 3.40350E+01 1.69963E+01 0.00000E+00
 -1       979 1.17591E+02 2.64398E+01 0.00000E+00
 -1       980 3.70350E+01 1.69963E+01 0.00000E+00
 -1       981 1.81860E+01 2.20281E+01 0.00000E+00
 -1       982 4.75350E+01 1.95942E+01 0.00000E+00
 -1       983 2.71500E+01 2.92160E+01 0.00000E+00
 -1       984 3.01500E+01 2.92160E+01 0.00000E+00
 -1       985 3.31500E+01 2.92160E+01 0.00000E+00
 -1       986 3.61500E+01 2.92160E+01 0.00000E+00
 -1       987 3.91500E+01 2.92160E+01 0.00000E+00
 -1       988 4.21500E+01 2.92160E+01 0.00000E+00
 -1       989 4.51500E+01 2.92160E+01 0.00000E+00
 -1       990 4.81500E+01 2.92160E+01 0.00000E+00
 -1       991 5.11500E+01 2.92160E+01 0.00000E+00
 -1       992 5.41500E+01 2.92160E+01 0.00000E+00
 -1       993 5.71500E+01 2.92160E+01 0.00000E+00
 -1       994 6.01500E+01 2.92160E+01 0.00000E+00
 -1       995 6.31500E+01 2.92160E+01 0.00000E+00
 -1       996 6.61500E+01 2.92160E+01 0.00000E+00
 -1       997 6.91500E+01 2.92160E+01 0.00000E+00
 -1       998 7.21500E+01 2.92160E+01 0.00000E+00
 -1       999 7.51500E+01 2.92160E+01 0.00000E+00
 -1      1000 7.81500E+01 2.92160E+01 0.00000E+00
 -1      1001 8.11500E+01 2.92160E+01 0.00000E+00
 -1      1002 8.41500E+01 2.92160E+01 0.00000E+00
 -1      1003 8.71500E+01 2.92160E+01 0.00000E+00
 -1      1004 9.01500E+01 2.92160E+01 0.00000E+00
 -1      1005 9.31500E+01 2.92160E+01 0.00000E+00
 -1      1006 9.61500E+01 2.92160E+01 0.00000E+00
 -1      1007 9.91500E+01 2.92160E+01 0.00000E+00
 -1      1008 1.02150E+02 2.92160E+01 0.00000E+00
 -1      1009 1.05150E+02 2.92160E+01 0.00000E+00
 -1      1010 1.08150E+02 2.92160E+01 0.00000E+00
 -1      1011 1.11150E+02 2.92160E+01 0.00000E+00
 -1      1012 1.14150E+02 2.92160E+01 0.00000E+00
 -1      1013 1.81066E+01 2.92141E+01 0.00000E+00
 -1      1014 5.95350E+01 1.95942E+01 0.00000E+00
 -1      1015 5.65350E+01 1.95942E+01 0.00000E+00
 -1      1016 6.55350E+01 1.95942E+01 0.00000E+00
 -1      1017 6.85350E+01 1.95942E+01 0.00000E+00
 -1      1018 7.15350E+01 1.95942E+01 0.00000E+00
 -1      1019 7.45350E+01 1.95942E+01 0.00000E+00
 -1      1020 7.75350E+01 1.95942E+01 0.00000E+00
 -1      1021 8.05350E+01 1.95942E+01 0.00000E+00
 -1      1022 8.35350E+01 1.95942E+01 0.00000E+00
 -1      1023 8.65350E+01 1.95942E+01 0.00000E+00
 -1      1024 8.95350E+01 1.95942E+01 0.00000E+00
 -1      1025 9.25350E+01 1.95942E+01 0.00000E+00
 -1      1026 9.55350E+01 1.95942E+01 0.00000E+00
 -1      1027 9.85350E+01 1.95942E+01 0.00000E+00
 -1      1028 1.01535E+02 1.95942E+01 0.00000E+00
 -1      1029 1.04535E+02 1.95942E+01 0.00000E+00
 -1      1030 1.07535E+02 1.95942E+01 0.00000E+00
 -1      1031 1.10535E+02 1.95942E+01 0.00000E+00
 -1      1032 2.65350E+01 1.95942E+01 0.00000E+00
 -1      1033 6.25350E+01 1.95942E+01 0.00000E+00
 -1      1034 1.20071E+02 3.06281E+01 0.00000E+00
 -1      1035 1.77488E+01 1.96663E+01 0.00000E+00
 -1      1036 2.41500E+01 2.92160E+01 0.00000E+00
 -1      1037 2.95350E+01 1.95942E+01 0.00000E+00
 -1      1038 2.03566E+01 2.93838E+01 0.00000E+00
 -1      1039 2.35350E+01 1.95943E+01 0.00000E+00
 -1      1040 1.17150E+02 2.92160E+01 0.00000E+00
 -1      1041 1.13503E+02 2.07065E+01 0.00000E+00
 -1      1042 4.45350E+01 1.95942E+01 0.00000E+00
 -1      1043 5.35350E+01 1.95942E+01 0.00000E+00
 -1      1044 1.81463E+01 2.70930E+01 0.00000E+00
 -1      1045 1.13320E+02 2.23622E+01 0.00000E+00
 -1      1046 4.15350E+01 1.95942E+01 0.00000E+00
 -1      1047 1.15490E+02 2.47981E+01 0.00000E+00
 -1      1048 3.85350E+01 1.95942E+01 0.00000E+00
 -1      1049 5.05350E+01 1.95942E+01 0.00000E+00
 -1      1050 3.25350E+01 1.95942E+01 0.00000E+00
 -1      1051 2.07840E+01 2.35000E+01 0.00000E+00
 -1      1052 2.07443E+01 2.56211E+01 0.00000E+00
 -1      1053 2.22533E+01 2.92999E+01 0.00000E+00
 -1      1054 2.01105E+01 1.95122E+01 0.00000E+00
 -1      1055 7.30350E+01 2.21922E+01 0.00000E+00
 -1      1056 3.16500E+01 2.66180E+01 0.00000E+00
 -1      1057 3.46500E+01 2.66180E+01 0.00000E+00
 -1      1058 3.76500E+01 2.66180E+01 0.00000E+00
 -1      1059 4.06500E+01 2.66180E+01 0.00000E+00
 -1      1060 4.36500E+01 2.66180E+01 0.00000E+00
 -1      1061 4.66500E+01 2.66180E+01 0.00000E+00
 -1      1062 4.96500E+01 2.66180E+01 0.00000E+00
 -1      1063 5.26500E+01 2.66180E+01 0.00000E+00
 -1      1064 5.56500E+01 2.66180E+01 0.00000E+00
 -1      1065 5.86500E+01 2.66180E+01 0.00000E+00
 -1      1066 6.16500E+01 2.66180E+01 0.00000E+00
 -1      1067 6.46500E+01 2.66180E+01 0.00000E+00
 -1      1068 6.76500E+01 2.66180E+01 0.00000E+00
 -1      1069 7.06500E+01 2.66180E+01 0.00000E+00
 -1      1070 7.36500E+01 2.66180E+01 0.00000E+00
 -1      1071 7.66500E+01 2.66180E+01 0.00000E+00
 -1      1072 7.96500E+01 2.66180E+01 0.00000E+00
 -1      1073 8.26500E+01 2.66180E+01 0.00000E+00
 -1      1074 8.56500E+01 2.66180E+01 0.00000E+00
 -1      1075 8.86500E+01 2.66180E+01 0.00000E+00
 -1      1076 9.16500E+01 2.66180E+01 0.00000E+00
 -1      1077 9.46500E+01 2.66180E+01 0.00000E+00
 -1      1078 9.76500E+01 2.66180E+01 0.00000E+00
 -1      1079 1.00650E+02 2.66180E+01 0.00000E+00
 -1      1080 1.03650E+02 2.66180E+01 0.00000E+00
 -1      1081 1.06650E+02 2.66180E+01 0.00000E+00
 -1      1082 1.09650E+02 2.66180E+01 0.00000E+00
 -1      1083 1.12650E+02 2.66180E+01 0.00000E+00
 -1      1084 5.80350E+01 2.21922E+01 0.00000E+00
 -1      1085 6.40350E+01 2.21922E+01 0.00000E+00
 -1      1086 7.00350E+01 2.21922E+01 0.00000E+00
 -1      1087 6.70350E+01 2.21922E+01 0.00000E+00
 -1      1088 7.60350E+01 2.21922E+01 0.00000E+00
 -1      1089 7.90350E+01 2.21922E+01 0.00000E+00
 -1      1090 8.20350E+01 2.21922E+01 0.00000E+00
 -1      1091 8.50350E+01 2.21922E+01 0.00000E+00
 -1      1092 8.80350E+01 2.21922E+01 0.00000E+00
 -1      1093 9.10350E+01 2.21922E+01 0.00000E+00
 -1      1094 9.40350E+01 2.21922E+01 0.00000E+00
 -1      1095 9.70350E+01 2.21922E+01 0.00000E+00
 -1      1096 1.00035E+02 2.21922E+01 0.00000E+00
 -1      1097 1.03035E+02 2.21922E+01 0.00000E+00
 -1      1098 1.06035E+02 2.21922E+01 0.00000E+00
 -1      1099 1.09035E+02 2.21922E+01 0.00000E+00
 -1      1100 6.10350E+01 2.21922E+01 0.00000E+00
 -1      1101 2.56500E+01 2.66180E+01 0.00000E+00
 -1      1102 1.11178E+02 2.22772E+01 0.00000E+00
 -1      1103 2.86500E+01 2.66180E+01 0.00000E+00
 -1      1104 3.55350E+01 1.95942E+01 0.00000E+00
 -1      1105 2.80350E+01 2.21922E+01 0.00000E+00
 -1      1106 2.50350E+01 2.21923E+01 0.00000E+00
 -1      1107 1.13090E+02 2.43294E+01 0.00000E+00
 -1      1108 5.50350E+01 2.21922E+01 0.00000E+00
 -1      1109 2.37533E+01 2.67019E+01 0.00000E+00
 -1      1110 4.30350E+01 2.21922E+01 0.00000E+00
 -1      1111 4.00350E+01 2.21922E+01 0.00000E+00
 -1      1112 4.90350E+01 2.21922E+01 0.00000E+00
 -1      1113 3.10350E+01 2.21922E+01 0.00000E+00
 -1      1114 4.60350E+01 2.21922E+01 0.00000E+00
 -1      1115 2.33617E+01 2.46092E+01 0.00000E+00
 -1      1116 3.40350E+01 2.21922E+01 0.00000E+00
 -1      1117 3.61500E+01 2.40200E+01 0.00000E+00
 -1      1118 5.41500E+01 2.40200E+01 0.00000E+00
 -1      1119 5.20350E+01 2.21922E+01 0.00000E+00
 -1      1120 3.70350E+01 2.21922E+01 0.00000E+00
 -1      1121 1.11916E+02 2.40475E+01 0.00000E+00
 -1      1122 0.00000E+00 4.85250E+01 0.00000E+00
 -1      1123 0.00000E+00 4.55750E+01 0.00000E+00
 -1      1124 0.00000E+00 4.26250E+01 0.00000E+00
 -1      1125 0.00000E+00 3.96750E+01 0.00000E+00
 -1      1126 0.00000E+00 3.67250E+01 0.00000E+00
 -1      1127 0.00000E+00 3.38000E+01 0.00000E+00
 -1      1128 0.00000E+00 3.08750E+01 0.00000E+00
 -1      1129 0.00000E+00 2.79250E+01 0.00000E+00
 -1      1130 0.00000E+00 2.49750E+01 0.00000E+00
 -1      1131 0.00000E+00 2.20250E+01 0.00000E+00
 -1      1132 0.00000E+00 1.90750E+01 0.00000E+00
 -1      1133 0.00000E+00 1.61500E+01 0.00000E+00
 -1      1134 0.00000E+00 1.32250E+01 0.00000E+00
 -1      1135 0.00000E+00 1.02750E+01 0.00000E+00
 -1      1136 0.00000E+00 7.32500E+00 0.00000E+00
 -1      1137 0.00000E+00 4.37500E+00 0.00000E+00
 -1      1138 0.00000E+00 1.45000E+00 0.00000E+00
 -1      1139 1.57500E+00 5.00000E+01 0.00000E+00
 -1      1140 4.65000E+00 5.00000E+01 0.00000E+00
 -1      1141 7.65000E+00 5.00000E+01 0.00000E+00
 -1      1142 1.06500E+01 5.00000E+01 0.00000E+00
 -1      1143 1.36500E+01 5.00000E+01 0.00000E+00
 -1      1144 1.66500E+01 5.00000E+01 0.00000E+00
 -1      1145 1.96500E+01 5.00000E+01 0.00000E+00
 -1      1146 2.26500E+01 5.00000E+01 0.00000E+00
 -1      1147 2.56500E+01 5.00000E+01 0.00000E+00
 -1      1148 2.86500E+01 5.00000E+01 0.00000E+00
 -1      1149 3.16500E+01 5.00000E+01 0.00000E+00
 -1      1150 3.46500E+01 5.00000E+01 0.00000E+00
 -1      1151 3.76500E+01 5.00000E+01 0.00000E+00
 -1      1152 4.06500E+01 5.00000E+01 0.00000E+00
 -1      1153 4.36500E+01 5.00000E+01 0.00000E+00
 -1      1154 4.66500E+01 5.00000E+01 0.00000E+00
 -1      1155 4.96500E+01 5.00000E+01 0.00000E+00
 -1      1156 5.26500E+01 5.00000E+01 0.00000E+00
 -1      1157 5.56500E+01 5.00000E+01 0.00000E+00
 -1      1158 5.86500E+01 5.00000E+01 0.00000E+00
 -1      1159 6.16500E+01 5.00000E+01 0.00000E+00
 -1      1160 6.46500E+01 5.00000E+01 0.00000E+00
 -1      1161 6.76500E+01 5.00000E+01 0.00000E+00
 -1      1162 7.06500E+01 5.00000E+01 0.00000E+00
 -1      1163 7.36500E+01 5.00000E+01 0.00000E+00
 -1      1164 7.66500E+01 5.00000E+01 0.00000E+00
 -1      1165 7.96500E+01 5.00000E+01 0.00000E+00
 -1      1166 8.26500E+01 5.00000E+01 0.00000E+00
 -1      1167 8.56500E+01 5.00000E+01 0.00000E+00
 -1      1168 8.86500E+01 5.00000E+01 0.00000E+00
 -1      1169 9.16500E+01 5.00000E+01 0.00000E+00
 -1      1170 9.46500E+01 5.00000E+01 0.00000E+00
 -1      1171 9.76500E+01 5.00000E+01 0.00000E+00
 -1      1172 1.00650E+02 5.00000E+01 0.00000E+00
 -1      1173 1.03650E+02 5.00000E+01 0.00000E+00
 -1      1174 1.06650E+02 5.00000E+01 0.00000E+00
 -1      1175 1.09650E+02 5.00000E+01 0.00000E+00
 -1      1176 1.12650E+02 5.00000E+01 0.00000E+00
 -1      1177 1.15650E+02 5.00000E+01 0.00000E+00
 -1      1178 1.18650E+02 5.00000E+01 0.00000E+00
 -1      1179 1.21650E+02 5.00000E+01 0.00000E+00
 -1      1180 1.24650E+02 5.00000E+01 0.00000E+00
 -1      1181 1.27650E+02 5.00000E+01 0.00000E+00
 -1      1182 1.30650E+02 5.00000E+01 0.00000E+00
 -1      1183 1.33650E+02 5.00000E+01 0.00000E+00
 -1      1184 1.36650E+02 5.00000E+01 0.00000E+00
 -1      1185 1.39650E+02 5.00000E+01 0.00000E+00
 -1      1186 1.42650E+02 5.00000E+01 0.00000E+00
 -1      1187 1.45650E+02 5.00000E+01 0.00000E+00
 -1      1188 1.48575E+02 5.00000E+01 0.00000E+00
 -1      1189 1.57500E+00 0.00000E+00 0.00000E+00
 -1      1190 4.65000E+00 0.00000E+00 0.00000E+00
 -1      1191 7.65000E+00 0.00000E+00 0.00000E+00
 -1      1192 1.06500E+01 0.00000E+00 0.00000E+00
 -1      1193 1.36500E+01 0.00000E+00 0.00000E+00
 -1      1194 1.66500E+01 0.00000E+00 0.00000E+00
 -1      1195 1.96500E+01 0.00000E+00 0.00000E+00
 -1      1196 2.26500E+01 0.00000E+00 0.00000E+00
 -1      1197 2.56500E+01 0.00000E+00 0.00000E+00
 -1      1198 2.86500E+01 0.00000E+00 0.00000E+00
 -1      1199 3.16500E+01 0.00000E+00 0.00000E+00
 -1      1200 3.46500E+01 0.00000E+00 0.00000E+00
 -1      1201 3.76500E+01 0.00000E+00 0.00000E+00
 -1      1202 4.06500E+01 0.00000E+00 0.00000E+00
 -1      1203 4.36500E+01 0.00000E+00 0.00000E+00
 -1      1204 4.66500E+01 0.00000E+00 0.00000E+00
 -1      1205 4.96500E+01 0.00000E+00 0.00000E+00
 -1      1206 5.26500E+01 0.00000E+00 0.00000E+00
 -1      1207 5.56500E+01 0.00000E+00 0.00000E+00
 -1      1208 5.86500E+01 0.00000E+00 0.00000E+00
 -1      1209 6.16500E+01 0.00000E+00 0.00000E+00
 -1      1210 6.46500E+01 0.00000E+00 0.00000E+00
 -1      1211 6.76500E+01 0.00000E+00 0.00000E+00
 -1      1212 7.06500E+01 0.00000E+00 0.00000E+00
 -1      1213 7.36500E+01 0.00000E+00 0.00000E+00
 -1      1214 7.66500E+01 0.00000E+00 0.00000E+00
 -1      1215 7.96500E+01 0.00000E+00 0.00000E+00
 -1      1216 8.26500E+01 0.00000E+00 0.00000E+00
 -1      1217 8.56500E+01 0.00000E+00 0.00000E+00
 -1      1218 8.86500E+01 0.00000E+00 0.00000E+00
 -1      1219 9.16500E+01 0.00000E+00 0.00000E+00
 -1      1220 9.46500E+01 0.00000E+00 0.00000E+00
 -1      1221 9.76500E+01 0.00000E+00 0.00000E+00
 -1      1222 1.00650E+02 0.00000E+00 0.00000E+00
 -1      1223 1.03650E+02 0.00000E+00 0.00000E+00
 -1      1224 1.06650E+02 0.00000E+00 0.00000E+00
 -1      1225 1.09650E+02 0.00000E+00 0.00000E+00
 -1      1226 1.12650E+02 0.00000E+00 0.00000E+00
 -1      1227 1.15650E+02 0.00000E+00 0.00000E+00
 -1      1228 1.18650E+02 0.00000E+00 0.00000E+00
 -1      1229 1.21650E+02 0.00000E+00 0.00000E+00
 -1      1230 1.24650E+02 0.00000E+00 0.00000E+00
 -1      1231 1.27650E+02 0.00000E+00 0.00000E+00
 -1      1232 1.30650E+02 0.00000E+00 0.00000E+00
 -1      1233 1.33650E+02 0.00000E+00 0.00000E+00
 -1      1234 1.36650E+02 0.00000E+00 0.00000E+00
 -1      1235 1.39650E+02 0.00000E+00 0.00000E+00
 -1      1236 1.42650E+02 0.00000E+00 0.00000E+00
 -1      1237 1.45650E+02 0.00000E+00 0.00000E+00
 -1      1238 1.48575E+02 0.00000E+00 0.00000E+00
 -1      1239 1.50000E+02 1.47500E+00 0.00000E+00
 -1      1240 1.50000E+02 4.40000E+00 0.00000E+00
 -1      1241 1.50000E+02 7.32500E+00 0.00000E+00
 -1      1242 1.50000E+02 1.02500E+01 0.00000E+00
 -1      1243 1.50000E+02 1.31750E+01 0.00000E+00
 -1      1244 1.50000E+02 1.60500E+01 0.00000E+00
 -1      1245 1.50000E+02 1.88750E+01 0.00000E+00
 -1      1246 1.50000E+02 2.15750E+01 0.00000E+00
 -1      1247 1.50000E+02 2.39500E+01 0.00000E+00
 -1      1248 1.50000E+02 2.62000E+01 0.00000E+00
 -1      1249 1.50000E+02 2.85750E+01 0.00000E+00
 -1      1250 1.50000E+02 3.11500E+01 0.00000E+00
 -1      1251 1.50000E+02 3.39500E+01 0.00000E+00
 -1      1252 1.50000E+02 3.68750E+01 0.00000E+00
 -1      1253 1.50000E+02 3.98000E+01 0.00000E+00
 -1      1254 1.50000E+02 4.27250E+01 0.00000E+00
 -1      1255 1.50000E+02 4.56500E+01 0.00000E+00
 -1      1256 1.50000E+02 4.85500E+01 0.00000E+00
 -1      1257 1.41537E+02 2.08545E+01 0.00000E+00
 -1      1258 1.41206E+02 1.93785E+01 0.00000E+00
 -1      1259 1.40581E+02 1.80353E+01 0.00000E+00
 -1      1260 1.39696E+02 1.68624E+01 0.00000E+00
 -1      1261 1.38595E+02 1.59069E+01 0.00000E+00
 -1      1262 1.37258E+02 1.51743E+01 0.00000E+00
 -1      1263 1.35829E+02 1.47546E+01 0.00000E+00
 -1      1264 1.34357E+02 1.46463E+01 0.00000E+00
 -1      1265 1.32842E+02 1.48624E+01 0.00000E+00
 -1      1266 1.31414E+02 1.54007E+01 0.00000E+00
 -1      1267 1.30181E+02 1.61995E+01 0.00000E+00
 -1      1268 1.29104E+02 1.72846E+01 0.00000E+00
 -1      1269 1.28275E+02 1.86070E+01 0.00000E+00
 -1      1270 1.27775E+02 2.00096E+01 0.00000E+00
 -1      1271 1.27585E+02 2.14348E+01 0.00000E+00
 -1      1272 1.27687E+02 2.28483E+01 0.00000E+00
 -1      1273 1.28118E+02 2.43298E+01 0.00000E+00
 -1      1274 1.28902E+02 2.57333E+01 0.00000E+00
 -1      1275 1.29937E+02 2.68799E+01 0.00000E+00
 -1      1276 1.31146E+02 2.77412E+01 0.00000E+00
 -1      1277 1.32490E+02 2.83227E+01 0.00000E+00
 -1      1278 1.33913E+02 2.86107E+01 0.00000E+00
 -1      1279 1.35435E+02 2.85905E+01 0.00000E+00
 -1      1280 1.36965E+02 2.82247E+01 0.00000E+00
 -1      1281 1.38397E+02 2.75114E+01 0.00000E+00
 -1      1282 1.39627E+02 2.64949E+01 0.00000E+00
 -1      1283 1.40565E+02 2.52762E+01 0.00000E+00
 -1      1284 1.41214E+02 2.38815E+01 0.00000E+00
 -1      1285 1.41541E+02 2.23979E+01 0.00000E+00
 -1      1286 1.57500E+00 4.85250E+01 0.00000E+00
 -1      1287 1.29900E+00 4.48375E+01 0.00000E+00
 -1      1288 1.29900E+00 4.63125E+01 0.00000E+00
 -1      1289 1.29900E+00 4.18875E+01 0.00000E+00
 -1      1290 1.29900E+00 4.33625E+01 0.00000E+00
 -1      1291 2.59800E+00 4.41000E+01 0.00000E+00
 -1      1292 1.29900E+00 3.89375E+01 0.00000E+00
 -1      1293 1.29900E+00 4.04125E+01 0.00000E+00
 -1      1294 2.59800E+00 4.11500E+01 0.00000E+00
 -1      1295 1.29900E+00 3.59875E+01 0.00000E+00
 -1      1296 1.29900E+00 3.74625E+01 0.00000E+00
 -1      1297 2.59800E+00 3.82000E+01 0.00000E+00
 -1      1298 1.29900E+00 3.30875E+01 0.00000E+00
 -1      1299 1.29900E+00 3.45375E+01 0.00000E+00
 -1      1300 2.59800E+00 3.52750E+01 0.00000E+00
 -1      1301 1.29900E+00 3.01375E+01 0.00000E+00
 -1      1302 1.29900E+00 3.16125E+01 0.00000E+00
 -1      1303 2.59800E+00 3.23500E+01 0.00000E+00
 -1      1304 1.29900E+00 2.71875E+01 0.00000E+00
 -1      1305 1.29900E+00 2.86625E+01 0.00000E+00
 -1      1306 2.59800E+00 2.94000E+01 0.00000E+00
 -1      1307 1.29900E+00 2.42375E+01 0.00000E+00
 -1      1308 1.29900E+00 2.57125E+01 0.00000E+00
 -1      1309 2.59800E+00 2.64500E+01 0.00000E+00
 -1      1310 1.29900E+00 2.12875E+01 0.00000E+00
 -1      1311 1.29900E+00 2.27625E+01 0.00000E+00
 -1      1312 2.59800E+00 2.35000E+01 0.00000E+00
 -1      1313 1.29900E+00 1.83375E+01 0.00000E+00
 -1      1314 1.29900E+00 1.98125E+01 0.00000E+00
 -1      1315 2.59800E+00 2.05500E+01 0.00000E+00
 -1      1316 1.29900E+00 1.54375E+01 0.00000E+00
 -1      1317 1.29900E+00 1.68875E+01 0.00000E+00
 -1      1318 2.59800E+00 1.76250E+01 0.00000E+00
 -1      1319 1.29900E+00 1.24875E+01 0.00000E+00
 -1      1320 1.29900E+00 1.39625E+01 0.00000E+00
 -1      1321 2.59800E+00 1.47000E+01 0.00000E+00
 -1      1322 1.29900E+00 9.53750E+00 0.00000E+00
 -1      1323 1.29900E+00 1.10125E+01 0.00000E+00
 -1      1324 2.59800E+00 1.17500E+01 0.00000E+00
 -1      1325 1.29900E+00 6.58750E+00 0.00000E+00
 -1      1326 1.29900E+00 8.06250E+00 0.00000E+00
 -1      1327 2.59800E+00 8.80000E+00 0.00000E+00
 -1      1328 1.29900E+00 3.63750E+00 0.00000E+00
 -1      1329 1.29900E+00 5.11250E+00 0.00000E+00
 -1      1330 2.59800E+00 5.85000E+00 0.00000E+00
 -1      1331 1.43700E+00 1.09375E+00 0.00000E+00
 -1      1332 1.43700E+00 2.54375E+00 0.00000E+00
 -1      1333 2.73600E+00 3.28125E+00 0.00000E+00
 -1      1334 3.01200E+00 1.09375E+00 0.00000E+00
 -1      1335 3.90000E+00 4.87010E+01 0.00000E+00
 -1      1336 5.40000E+00 4.87010E+01 0.00000E+00
 -1      1337 6.90000E+00 4.87010E+01 0.00000E+00
 -1      1338 8.40000E+00 4.87010E+01 0.00000E+00
 -1      1339 6.15000E+00 4.74020E+01 0.00000E+00
 -1      1340 9.90000E+00 4.87010E+01 0.00000E+00
 -1      1341 1.14000E+01 4.87010E+01 0.00000E+00
 -1      1342 9.15000E+00 4.74020E+01 0.00000E+00
 -1      1343 1.29000E+01 4.87010E+01 0.00000E+00
 -1      1344 1.44000E+01 4.87010E+01 0.00000E+00
 -1      1345 1.21500E+01 4.74020E+01 0.00000E+00
 -1      1346 1.59000E+01 4.87010E+01 0.00000E+00
 -1      1347 1.74000E+01 4.87010E+01 0.00000E+00
 -1      1348 1.51500E+01 4.74020E+01 0.00000E+00
 -1      1349 1.89000E+01 4.87010E+01 0.00000E+00
 -1      1350 2.04000E+01 4.87010E+01 0.00000E+00
 -1      1351 1.81500E+01 4.74020E+01 0.00000E+00
 -1      1352 2.19000E+01 4.87010E+01 0.00000E+00
 -1      1353 2.34000E+01 4.87010E+01 0.00000E+00
 -1      1354 2.11500E+01 4.74020E+01 0.00000E+00
 -1      1355 2.49000E+01 4.87010E+01 0.00000E+00
 -1      1356 2.64000E+01 4.87010E+01 0.00000E+00
 -1      1357 2.41500E+01 4.74020E+01 0.00000E+00
 -1      1358 2.79000E+01 4.87010E+01 0.00000E+00
 -1      1359 2.94000E+01 4.87010E+01 0.00000E+00
 -1      1360 2.71500E+01 4.74020E+01 0.00000E+00
 -1      1361 3.09000E+01 4.87010E+01 0.00000E+00
 -1      1362 3.24000E+01 4.87010E+01 0.00000E+00
 -1      1363 3.01500E+01 4.74020E+01 0.00000E+00
 -1      1364 3.39000E+01 4.87010E+01 0.00000E+00
 -1      1365 3.54000E+01 4.87010E+01 0.00000E+00
 -1      1366 3.31500E+01 4.74020E+01 0.00000E+00
 -1      1367 3.69000E+01 4.87010E+01 0.00000E+00
 -1      1368 3.84000E+01 4.87010E+01 0.00000E+00
 -1      1369 3.61500E+01 4.74020E+01 0.00000E+00
 -1      1370 3.99000E+01 4.87010E+01 0.00000E+00
 -1      1371 4.14000E+01 4.87010E+01 0.00000E+00
 -1      1372 3.91500E+01 4.74020E+01 0.00000E+00
 -1      1373 4.29000E+01 4.87010E+01 0.00000E+00
 -1      1374 4.44000E+01 4.87010E+01 0.00000E+00
 -1      1375 4.21500E+01 4.74020E+01 0.00000E+00
 -1      1376 4.59000E+01 4.87010E+01 0.00000E+00
 -1      1377 4.74000E+01 4.87010E+01 0.00000E+00
 -1      1378 4.51500E+01 4.74020E+01 0.00000E+00
 -1      1379 4.89000E+01 4.87010E+01 0.00000E+00
 -1      1380 5.04000E+01 4.87010E+01 0.00000E+00
 -1      1381 4.81500E+01 4.74020E+01 0.00000E+00
 -1      1382 5.19000E+01 4.87010E+01 0.00000E+00
 -1      1383 5.34000E+01 4.87010E+01 0.00000E+00
 -1      1384 5.11500E+01 4.74020E+01 0.00000E+00
 -1      1385 5.49000E+01 4.87010E+01 0.00000E+00
 -1      1386 5.64000E+01 4.87010E+01 0.00000E+00
 -1      1387 5.41500E+01 4.74020E+01 0.00000E+00
 -1      1388 5.79000E+01 4.87010E+01 0.00000E+00
 -1      1389 5.94000E+01 4.87010E+01 0.00000E+00
 -1      1390 5.71500E+01 4.74020E+01 0.00000E+00
 -1      1391 6.09000E+01 4.87010E+01 0.00000E+00
 -1      1392 6.24000E+01 4.87010E+01 0.00000E+00
 -1      1393 6.01500E+01 4.74020E+01 0.00000E+00
 -1      1394 6.39000E+01 4.87010E+01 0.00000E+00
 -1      1395 6.54000E+01 4.87010E+01 0.00000E+00
 -1      1396 6.31500E+01 4.74020E+01 0.00000E+00
 -1      1397 6.69000E+01 4.87010E+01 0.00000E+00
 -1      1398 6.84000E+01 4.87010E+01 0.00000E+00
 -1      1399 6.61500E+01 4.74020E+01 0.00000E+00
 -1      1400 6.99000E+01 4.87010E+01 0.00000E+00
 -1      1401 7.14000E+01 4.87010E+01 0.00000E+00
 -1      1402 6.91500E+01 4.74020E+01 0.00000E+00
 -1      1403 7.29000E+01 4.87010E+01 0.00000E+00
 -1      1404 7.44000E+01 4.87010E+01 0.00000E+00
 -1      1405 7.21500E+01 4.74020E+01 0.00000E+00
 -1      1406 7.59000E+01 4.87010E+01 0.00000E+00
 -1      1407 7.74000E+01 4.87010E+01 0.00000E+00
 -1      1408 7.51500E+01 4.74020E+01 0.00000E+00
 -1      1409 7.89000E+01 4.87010E+01 0.00000E+00
 -1      1410 8.04000E+01 4.87010E+01 0.00000E+00
 -1      1411 7.81500E+01 4.74020E+01 0.00000E+00
 -1      1412 8.19000E+01 4.87010E+01 0.00000E+00
 -1      1413 8.34000E+01 4.87010E+01 0.00000E+00
 -1      1414 8.11500E+01 4.74020E+01 0.00000E+00
 -1      1415 8.49000E+01 4.87010E+01 0.00000E+00
 -1      1416 8.64000E+01 4.87010E+01 0.00000E+00
 -1      1417 8.41500E+01 4.74020E+01 0.00000E+00
 -1      1418 8.79000E+01 4.87010E+01 0.00000E+00
 -1      1419 8.94000E+01 4.87010E+01 0.00000E+00
 -1      1420 8.71500E+01 4.74020E+01 0.00000E+00
 -1      1421 9.09000E+01 4.87010E+01 0.00000E+00
 -1      1422 9.24000E+01 4.87010E+01 0.00000E+00
 -1      1423 9.01500E+01 4.74020E+01 0.00000E+00
 -1      1424 9.39000E+01 4.87010E+01 0.00000E+00
 -1      1425 9.54000E+01 4.87010E+01 0.00000E+00
 -1      1426 9.31500E+01 4.74020E+01 0.00000E+00
 -1      1427 9.69000E+01 4.87010E+01 0.00000E+00
 -1      1428 9.84000E+01 4.87010E+01 0.00000E+00
 -1      1429 9.61500E+01 4.74020E+01 0.00000E+00
 -1      1430 9.99000E+01 4.87010E+01 0.00000E+00
 -1      1431 1.01400E+02 4.87010E+01 0.00000E+00
 -1      1432 9.91500E+01 4.74020E+01 0.00000E+00
 -1      1433 1.02900E+02 4.87010E+01 0.00000E+00
 -1      1434 1.04400E+02 4.87010E+01 0.00000E+00
 -1      1435 1.02150E+02 4.74020E+01 0.00000E+00
 -1      1436 1.05900E+02 4.87010E+01 0.00000E+00
 -1      1437 1.07400E+02 4.87010E+01 0.00000E+00
 -1      1438 1.05150E+02 4.74020E+01 0.00000E+00
 -1      1439 1.08900E+02 4.87010E+01 0.00000E+00
 -1      1440 1.10400E+02 4.87010E+01 0.00000E+00
 -1      1441 1.08150E+02 4.74020E+01 0.00000E+00
 -1      1442 1.11900E+02 4.87010E+01 0.00000E+00
 -1      1443 1.13400E+02 4.87010E+01 0.00000E+00
 -1      1444 1.11150E+02 4.74020E+01 0.00000E+00
 -1      1445 1.14900E+02 4.87010E+01 0.00000E+00
 -1      1446 1.16400E+02 4.87010E+01 0.00000E+00
 -1      1447 1.14150E+02 4.74020E+01 0.00000E+00
 -1      1448 1.17900E+02 4.87010E+01 0.00000E+00
 -1      1449 1.19400E+02 4.87010E+01 0.00000E+00
 -1      1450 1.17150E+02 4.74020E+01 0.00000E+00
 -1      1451 1.20900E+02 4.87010E+01 0.00000E+00
 -1      1452 1.22400E+02 4.87010E+01 0.00000E+00
 -1      1453 1.20150E+02 4.74020E+01 0.00000E+00
 -1      1454 1.23900E+02 4.87010E+01 0.00000E+00
 -1      1455 1.25400E+02 4.87010E+01 0.00000E+00
 -1      1456 1.23150E+02 4.74020E+01 0.00000E+00
 -1      1457 1.26900E+02 4.87010E+01 0.00000E+00
 -1      1458 1.28400E+02 4.87010E+01 0.00000E+00
 -1      1459 1.26150E+02 4.74020E+01 0.00000E+00
 -1      1460 1.29900E+02 4.87010E+01 0.00000E+00
 -1      1461 1.31400E+02 4.87010E+01 0.00000E+00
 -1      1462 1.29150E+02 4.74020E+01 0.00000E+00
 -1      1463 1.32900E+02 4.87010E+01 0.00000E+00
 -1      1464 1.34400E+02 4.87010E+01 0.00000E+00
 -1      1465 1.32150E+02 4.74020E+01 0.00000E+00
 -1      1466 1.35900E+02 4.87010E+01 0.00000E+00
 -1      1467 1.37400E+02 4.87010E+01 0.00000E+00
 -1      1468 1.35150E+02 4.74020E+01 0.00000E+00
 -1      1469 1.38900E+02 4.87010E+01 0.00000E+00
 -1      1470 1.40400E+02 4.87010E+01 0.00000E+00
 -1      1471 1.38150E+02 4.74020E+01 0.00000E+00
 -1      1472 1.41900E+02 4.87010E+01 0.00000E+00
 -1      1473 1.43400E+02 4.87010E+01 0.00000E+00
 -1      1474 1.41150E+02 4.74020E+01 0.00000E+00
 -1      1475 1.44900E+02 4.87010E+01 0.00000E+00
 -1      1476 1.46400E+02 4.87010E+01 0.00000E+00
 -1      1477 1.44150E+02 4.74020E+01 0.00000E+00
 -1      1478 1.48575E+02 4.85500E+01 0.00000E+00
 -1      1479 1.47825E+02 4.72510E+01 0.00000E+00
 -1      1480 6.01200E+00 1.09375E+00 0.00000E+00
 -1      1481 4.51200E+00 1.09375E+00 0.00000E+00
 -1      1482 4.37400E+00 2.18750E+00 0.00000E+00
 -1      1483 9.01200E+00 1.09375E+00 0.00000E+00
 -1      1484 7.51200E+00 1.09375E+00 0.00000E+00
 -1      1485 7.37400E+00 2.18750E+00 0.00000E+00
 -1      1486 1.20120E+01 1.09375E+00 0.00000E+00
 -1      1487 1.05120E+01 1.09375E+00 0.00000E+00
 -1      1488 1.03740E+01 2.18750E+00 0.00000E+00
 -1      1489 1.50120E+01 1.09375E+00 0.00000E+00
 -1      1490 1.35120E+01 1.09375E+00 0.00000E+00
 -1      1491 1.33740E+01 2.18750E+00 0.00000E+00
 -1      1492 1.80120E+01 1.09375E+00 0.00000E+00
 -1      1493 1.65120E+01 1.09375E+00 0.00000E+00
 -1      1494 1.63740E+01 2.18750E+00 0.00000E+00
 -1      1495 2.10120E+01 1.09375E+00 0.00000E+00
 -1      1496 1.95120E+01 1.09375E+00 0.00000E+00
 -1      1497 1.93740E+01 2.18750E+00 0.00000E+00
 -1      1498 2.40120E+01 1.09375E+00 0.00000E+00
 -1      1499 2.25120E+01 1.09375E+00 0.00000E+00
 -1      1500 2.23740E+01 2.18750E+00 0.00000E+00
 -1      1501 2.70120E+01 1.09375E+00 0.00000E+00
 -1      1502 2.55120E+01 1.09375E+00 0.00000E+00
 -1      1503 2.53740E+01 2.18750E+00 0.00000E+00
 -1      1504 3.00120E+01 1.09375E+00 0.00000E+00
 -1      1505 2.85120E+01 1.09375E+00 0.00000E+00
 -1      1506 2.83740E+01 2.18750E+00 0.00000E+00
 -1      1507 3.30120E+01 1.09375E+00 0.00000E+00
 -1      1508 3.15120E+01 1.09375E+00 0.00000E+00
 -1      1509 3.13740E+01 2.18750E+00 0.00000E+00
 -1      1510 3.60120E+01 1.09375E+00 0.00000E+00
 -1      1511 3.45120E+01 1.09375E+00 0.00000E+00
 -1      1512 3.43740E+01 2.18750E+00 0.00000E+00
 -1      1513 3.90120E+01 1.09375E+00 0.00000E+00
 -1      1514 3.75120E+01 1.09375E+00 0.00000E+00
 -1      1515 3.73740E+01 2.18750E+00 0.00000E+00
 -1      1516 4.20120E+01 1.09375E+00 0.00000E+00
 -1      1517 4.05120E+01 1.09375E+00 0.00000E+00
 -1      1518 4.03740E+01 2.18750E+00 0.00000E+00
 -1      1519 4.50120E+01 1.09375E+00 0.00000E+00
 -1      1520 4.35120E+01 1.09375E+00 0.00000E+00
 -1      1521 4.33740E+01 2.18750E+00 0.00000E+00
 -1      1522 4.80120E+01 1.09375E+00 0.00000E+00
 -1      1523 4.65120E+01 1.09375E+00 0.00000E+00
 -1      1524 4.63740E+01 2.18750E+00 0.00000E+00
 -1      1525 5.10120E+01 1.09375E+00 0.00000E+00
 -1      1526 4.95120E+01 1.09375E+00 0.00000E+00
 -1      1527 4.93740E+01 2.18750E+00 0.00000E+00
 -1      1528 5.40120E+01 1.09375E+00 0.00000E+00
 -1      1529 5.25120E+01 1.09375E+00 0.00000E+00
 -1      1530 5.23740E+01 2.18750E+00 0.00000E+00
 -1      1531 5.70120E+01 1.09375E+00 0.00000E+00
 -1      1532 5.55120E+01 1.09375E+00 0.00000E+00
 -1      1533 5.53740E+01 2.18750E+00 0.00000E+00
 -1      1534 6.00120E+01 1.09375E+00 0.00000E+00
 -1      1535 5.85120E+01 1.09375E+00 0.00000E+00
 -1      1536 5.83740E+01 2.18750E+00 0.00000E+00
 -1      1537 6.30120E+01 1.09375E+00 0.00000E+00
 -1      1538 6.15120E+01 1.09375E+00 0.00000E+00
 -1      1539 6.13740E+01 2.18750E+00 0.00000E+00
 -1      1540 6.60120E+01 1.09375E+00 0.00000E+00
 -1      1541 6.45120E+01 1.09375E+00 0.00000E+00
 -1      1542 6.43740E+01 2.18750E+00 0.00000E+00
 -1      1543 6.90120E+01 1.09375E+00 0.00000E+00
 -1      1544 6.75120E+01 1.09375E+00 0.00000E+00
 -1      1545 6.73740E+01 2.18750E+00 0.00000E+00
 -1      1546 7.20120E+01 1.09375E+00 0.00000E+00
 -1      1547 7.05120E+01 1.09375E+00 0.00000E+00
 -1      1548 7.03740E+01 2.18750E+00 0.00000E+00
 -1      1549 7.50120E+01 1.09375E+00 0.00000E+00
 -1      1550 7.35120E+01 1.09375E+00 0.00000E+00
 -1      1551 7.33740E+01 2.18750E+00 0.00000E+00
 -1      1552 7.80120E+01 1.09375E+00 0.00000E+00
 -1      1553 7.65120E+01 1.09375E+00 0.00000E+00
 -1      1554 7.63740E+01 2.18750E+00 0.00000E+00
 -1      1555 8.10120E+01 1.09375E+00 0.00000E+00
 -1      1556 7.95120E+01 1.09375E+00 0.00000E+00
 -1      1557 7.93740E+01 2.18750E+00 0.00000E+00
 -1      1558 8.40120E+01 1.09375E+00 0.00000E+00
 -1      1559 8.25120E+01 1.09375E+00 0.00000E+00
 -1      1560 8.23740E+01 2.18750E+00 0.00000E+00
 -1      1561 8.70120E+01 1.09375E+00 0.00000E+00
 -1      1562 8.55120E+01 1.09375E+00 0.00000E+00
 -1      1563 8.53740E+01 2.18750E+00 0.00000E+00
 -1      1564 9.00120E+01 1.09375E+00 0.00000E+00
 -1      1565 8.85120E+01 1.09375E+00 0.00000E+00
 -1      1566 8.83740E+01 2.18750E+00 0.00000E+00
 -1      1567 9.30120E+01 1.09375E+00 0.00000E+00
 -1      1568 9.15120E+01 1.09375E+00 0.00000E+00
 -1      1569 9.13740E+01 2.18750E+00 0.00000E+00
 -1      1570 9.60120E+01 1.09375E+00 0.00000E+00
 -1      1571 9.45120E+01 1.09375E+00 0.00000E+00
 -1      1572 9.43740E+01 2.18750E+00 0.00000E+00
 -1      1573 9.90120E+01 1.09375E+00 0.00000E+00
 -1      1574 9.75120E+01 1.09375E+00 0.00000E+00
 -1      1575 9.73740E+01 2.18750E+00 0.00000E+00
 -1      1576 1.02012E+02 1.09375E+00 0.00000E+00
 -1      1577 1.00512E+02 1.09375E+00 0.00000E+00
 -1      1578 1.00374E+02 2.18750E+00 0.00000E+00
 -1      1579 1.05012E+02 1.09375E+00 0.00000E+00
 -1      1580 1.03512E+02 1.09375E+00 0.00000E+00
 -1      1581 1.03374E+02 2.18750E+00 0.00000E+00
 -1      1582 1.08012E+02 1.09375E+00 0.00000E+00
 -1      1583 1.06512E+02 1.09375E+00 0.00000E+00
 -1      1584 1.06374E+02 2.18750E+00 0.00000E+00
 -1      1585 1.11012E+02 1.09375E+00 0.00000E+00
 -1      1586 1.09512E+02 1.09375E+00 0.00000E+00
 -1      1587 1.09374E+02 2.18750E+00 0.00000E+00
 -1      1588 1.14012E+02 1.09375E+00 0.00000E+00
 -1      1589 1.12512E+02 1.09375E+00 0.00000E+00
 -1      1590 1.12374E+02 2.18750E+00 0.00000E+00
 -1      1591 1.17012E+02 1.09375E+00 0.00000E+00
 -1      1592 1.15512E+02 1.09375E+00 0.00000E+00
 -1      1593 1.15374E+02 2.18750E+00 0.00000E+00
 -1      1594 1.20012E+02 1.09375E+00 0.00000E+00
 -1      1595 1.18512E+02 1.09375E+00 0.00000E+00
 -1      1596 1.18374E+02 2.18750E+00 0.00000E+00
 -1      1597 1.23012E+02 1.09375E+00 0.00000E+00
 -1      1598 1.21512E+02 1.09375E+00 0.00000E+00
 -1      1599 1.21374E+02 2.18750E+00 0.00000E+00
 -1      1600 1.26012E+02 1.09375E+00 0.00000E+00
 -1      1601 1.24512E+02 1.09375E+00 0.00000E+00
 -1      1602 1.24374E+02 2.18750E+00 0.00000E+00
 -1      1603 1.29012E+02 1.09375E+00 0.00000E+00
 -1      1604 1.27512E+02 1.09375E+00 0.00000E+00
 -1      1605 1.27374E+02 2.18750E+00 0.00000E+00
 -1      1606 1.32012E+02 1.09375E+00 0.00000E+00
 -1      1607 1.30512E+02 1.09375E+00 0.00000E+00
 -1      1608 1.30374E+02 2.18750E+00 0.00000E+00
 -1      1609 1.35012E+02 1.09375E+00 0.00000E+00
 -1      1610 1.33512E+02 1.09375E+00 0.00000E+00
 -1      1611 1.33374E+02 2.18750E+00 0.00000E+00
 -1      1612 1.38012E+02 1.09375E+00 0.00000E+00
 -1      1613 1.36512E+02 1.09375E+00 0.00000E+00
 -1      1614 1.36374E+02 2.18750E+00 0.00000E+00
 -1      1615 1.41012E+02 1.09375E+00 0.00000E+00
 -1      1616 1.39512E+02 1.09375E+00 0.00000E+00
 -1      1617 1.39374E+02 2.18750E+00 0.00000E+00
 -1      1618 1.44012E+02 1.09375E+00 0.00000E+00
 -1      1619 1.42512E+02 1.09375E+00 0.00000E+00
 -1      1620 1.42374E+02 2.18750E+00 0.00000E+00
 -1      1621 1.47012E+02 1.09375E+00 0.00000E+00
 -1      1622 1.45512E+02 1.09375E+00 0.00000E+00
 -1      1623 1.45374E+02 2.18750E+00 0.00000E+00
 -1      1624 1.48575E+02 1.47500E+00 0.00000E+00
 -1      1625 1.48701E+02 5.12500E+00 0.00000E+00
 -1      1626 1.48701E+02 3.67500E+00 0.00000E+00
 -1      1627 1.48701E+02 8.07500E+00 0.00000E+00
 -1      1628 1.48701E+02 6.60000E+00 0.00000E+00
 -1      1629 1.47402E+02 5.87500E+00 0.00000E+00
 -1      1630 1.48701E+02 1.09750E+01 0.00000E+00
 -1      1631 1.48701E+02 9.52500E+00 0.00000E+00
 -1      1632 1.47402E+02 8.80000E+00 0.00000E+00
 -1      1633 1.48701E+02 1.39250E+01 0.00000E+00
 -1      1634 1.48701E+02 1.24500E+01 0.00000E+00
 -1      1635 1.47402E+02 1.17250E+01 0.00000E+00
 -1      1636 1.48701E+02 1.67250E+01 0.00000E+00
 -1      1637 1.48701E+02 1.53250E+01 0.00000E+00
 -1      1638 1.47402E+02 1.46000E+01 0.00000E+00
 -1      1639 1.48701E+02 1.95750E+01 0.00000E+00
 -1      1640 1.48701E+02 1.81500E+01 0.00000E+00
 -1      1641 1.47402E+02 1.74250E+01 0.00000E+00
 -1      1642 1.48701E+02 2.21250E+01 0.00000E+00
 -1      1643 1.48701E+02 2.08500E+01 0.00000E+00
 -1      1644 1.47402E+02 2.01250E+01 0.00000E+00
 -1      1645 1.48701E+02 2.43250E+01 0.00000E+00
 -1      1646 1.48701E+02 2.32250E+01 0.00000E+00
 -1      1647 1.47402E+02 2.25000E+01 0.00000E+00
 -1      1648 1.48701E+02 2.66250E+01 0.00000E+00
 -1      1649 1.48701E+02 2.54750E+01 0.00000E+00
 -1      1650 1.47402E+02 2.47500E+01 0.00000E+00
 -1      1651 1.48701E+02 2.90750E+01 0.00000E+00
 -1      1652 1.48701E+02 2.78500E+01 0.00000E+00
 -1      1653 1.47402E+02 2.71250E+01 0.00000E+00
 -1      1654 1.48701E+02 3.17750E+01 0.00000E+00
 -1      1655 1.48701E+02 3.04250E+01 0.00000E+00
 -1      1656 1.47402E+02 2.97000E+01 0.00000E+00
 -1      1657 1.48701E+02 3.46750E+01 0.00000E+00
 -1      1658 1.48701E+02 3.32250E+01 0.00000E+00
 -1      1659 1.47402E+02 3.25000E+01 0.00000E+00
 -1      1660 1.48701E+02 3.76250E+01 0.00000E+00
 -1      1661 1.48701E+02 3.61500E+01 0.00000E+00
 -1      1662 1.47402E+02 3.54250E+01 0.00000E+00
 -1      1663 1.48701E+02 4.05250E+01 0.00000E+00
 -1      1664 1.48701E+02 3.90750E+01 0.00000E+00
 -1      1665 1.47402E+02 3.83500E+01 0.00000E+00
 -1      1666 1.48701E+02 4.34750E+01 0.00000E+00
 -1      1667 1.48701E+02 4.20000E+01 0.00000E+00
 -1      1668 1.47402E+02 4.12750E+01 0.00000E+00
 -1      1669 1.48263E+02 4.60880E+01 0.00000E+00
 -1      1670 1.48263E+02 4.46380E+01 0.00000E+00
 -1      1671 1.46964E+02 4.39130E+01 0.00000E+00
 -1      1672 1.46088E+02 4.62390E+01 0.00000E+00
 -1      1673 1.42134E+02 2.03902E+01 0.00000E+00
 -1      1674 1.42223E+02 2.11734E+01 0.00000E+00
 -1      1675 1.41627E+02 1.88518E+01 0.00000E+00
 -1      1676 1.41861E+02 1.95374E+01 0.00000E+00
 -1      1677 1.40942E+02 1.73766E+01 0.00000E+00
 -1      1678 1.41332E+02 1.80252E+01 0.00000E+00
 -1      1679 1.39868E+02 1.62129E+01 0.00000E+00
 -1      1680 1.40355E+02 1.67336E+01 0.00000E+00
 -1      1681 1.38662E+02 1.51606E+01 0.00000E+00
 -1      1682 1.39273E+02 1.55877E+01 0.00000E+00
 -1      1683 1.37129E+02 1.44667E+01 0.00000E+00
 -1      1684 1.37849E+02 1.47646E+01 0.00000E+00
 -1      1685 1.35581E+02 1.41304E+01 0.00000E+00
 -1      1686 1.36280E+02 1.42568E+01 0.00000E+00
 -1      1687 1.33954E+02 1.40109E+01 0.00000E+00
 -1      1688 1.34719E+02 1.39863E+01 0.00000E+00
 -1      1689 1.32300E+02 1.42893E+01 0.00000E+00
 -1      1690 1.33041E+02 1.40990E+01 0.00000E+00
 -1      1691 1.30800E+02 1.50319E+01 0.00000E+00
 -1      1692 1.31479E+02 1.46876E+01 0.00000E+00
 -1      1693 1.29547E+02 1.59788E+01 0.00000E+00
 -1      1694 1.30098E+02 1.55334E+01 0.00000E+00
 -1      1695 1.28347E+02 1.72059E+01 0.00000E+00
 -1      1696 1.28857E+02 1.65642E+01 0.00000E+00
 -1      1697 1.27603E+02 1.86949E+01 0.00000E+00
 -1      1698 1.27924E+02 1.80273E+01 0.00000E+00
 -1      1699 1.27056E+02 2.02216E+01 0.00000E+00
 -1      1700 1.27230E+02 1.94943E+01 0.00000E+00
 -1      1701 1.27003E+02 2.17626E+01 0.00000E+00
 -1      1702 1.27023E+02 2.10730E+01 0.00000E+00
 -1      1703 1.27148E+02 2.33115E+01 0.00000E+00
 -1      1704 1.27023E+02 2.25952E+01 0.00000E+00
 -1      1705 1.27682E+02 2.49531E+01 0.00000E+00
 -1      1706 1.27369E+02 2.41996E+01 0.00000E+00
 -1      1707 1.28541E+02 2.64803E+01 0.00000E+00
 -1      1708 1.28079E+02 2.58382E+01 0.00000E+00
 -1      1709 1.29816E+02 2.75844E+01 0.00000E+00
 -1      1710 1.29252E+02 2.70842E+01 0.00000E+00
 -1      1711 1.31185E+02 2.84152E+01 0.00000E+00
 -1      1712 1.30549E+02 2.80569E+01 0.00000E+00
 -1      1713 1.32658E+02 2.90140E+01 0.00000E+00
 -1      1714 1.31957E+02 2.87945E+01 0.00000E+00
 -1      1715 1.34212E+02 2.92533E+01 0.00000E+00
 -1      1716 1.33497E+02 2.91847E+01 0.00000E+00
 -1      1717 1.35913E+02 2.91802E+01 0.00000E+00
 -1      1718 1.35115E+02 2.92783E+01 0.00000E+00
 -1      1719 1.37518E+02 2.86243E+01 0.00000E+00
 -1      1720 1.36796E+02 2.88856E+01 0.00000E+00
 -1      1721 1.39141E+02 2.78916E+01 0.00000E+00
 -1      1722 1.38443E+02 2.83454E+01 0.00000E+00
 -1      1723 1.40329E+02 2.66402E+01 0.00000E+00
 -1      1724 1.39800E+02 2.71902E+01 0.00000E+00
 -1      1725 1.41248E+02 2.52376E+01 0.00000E+00
 -1      1726 1.40845E+02 2.58996E+01 0.00000E+00
 -1      1727 1.41871E+02 2.37001E+01 0.00000E+00
 -1      1728 1.41627E+02 2.44239E+01 0.00000E+00
 -1      1729 1.42144E+02 2.20835E+01 0.00000E+00
 -1      1730 1.42062E+02 2.28343E+01 0.00000E+00
 -1      1731 1.39959E+02 1.54340E+01 0.00000E+00
 -1      1732 1.41142E+02 1.67023E+01 0.00000E+00
 -1      1733 1.48437E+02 2.56875E+00 0.00000E+00
 -1      1734 1.47138E+02 3.29375E+00 0.00000E+00
 -1      1735 1.42591E+02 1.98513E+01 0.00000E+00
 -1      1736 1.42023E+02 1.81719E+01 0.00000E+00
 -1      1737 1.42785E+02 2.16142E+01 0.00000E+00
 -1      1738 1.38550E+02 1.44128E+01 0.00000E+00
 -1      1739 1.36887E+02 1.38069E+01 0.00000E+00
 -1      1740 1.35176E+02 1.34530E+01 0.00000E+00
 -1      1741 1.33402E+02 1.33971E+01 0.00000E+00
 -1      1742 1.31667E+02 1.38835E+01 0.00000E+00
 -1      1743 1.30143E+02 1.47833E+01 0.00000E+00
 -1      1744 1.28751E+02 1.58701E+01 0.00000E+00
 -1      1745 1.27640E+02 1.72768E+01 0.00000E+00
 -1      1746 1.26845E+02 1.88976E+01 0.00000E+00
 -1      1747 1.26440E+02 2.05484E+01 0.00000E+00
 -1      1748 1.26427E+02 2.22324E+01 0.00000E+00
 -1      1749 1.26668E+02 2.39531E+01 0.00000E+00
 -1      1750 1.27285E+02 2.57263E+01 0.00000E+00
 -1      1751 1.28393E+02 2.72153E+01 0.00000E+00
 -1      1752 1.29837E+02 2.82917E+01 0.00000E+00
 -1      1753 1.31342E+02 2.91435E+01 0.00000E+00
 -1      1754 1.32953E+02 2.96934E+01 0.00000E+00
 -1      1755 1.34695E+02 2.98891E+01 0.00000E+00
 -1      1756 1.36480E+02 2.96195E+01 0.00000E+00
 -1      1757 1.38288E+02 2.90461E+01 0.00000E+00
 -1      1758 1.39873E+02 2.80658E+01 0.00000E+00
 -1      1759 1.41048E+02 2.66238E+01 0.00000E+00
 -1      1760 1.41944E+02 2.50695E+01 0.00000E+00
 -1      1761 1.42515E+02 2.33901E+01 0.00000E+00
 -1      1762 2.87400E+00 4.77875E+01 0.00000E+00
 -1      1763 3.89700E+00 4.04125E+01 0.00000E+00
 -1      1764 3.89700E+00 4.18875E+01 0.00000E+00
 -1      1765 3.89700E+00 4.33625E+01 0.00000E+00
 -1      1766 3.89700E+00 4.48375E+01 0.00000E+00
 -1      1767 5.19600E+00 4.26250E+01 0.00000E+00
 -1      1768 3.89700E+00 3.45500E+01 0.00000E+00
 -1      1769 3.89700E+00 3.60000E+01 0.00000E+00
 -1      1770 3.89700E+00 3.16000E+01 0.00000E+00
 -1      1771 3.89700E+00 3.30750E+01 0.00000E+00
 -1      1772 5.19600E+00 3.38000E+01 0.00000E+00
 -1      1773 3.89700E+00 2.86500E+01 0.00000E+00
 -1      1774 3.89700E+00 3.01250E+01 0.00000E+00
 -1      1775 5.19600E+00 3.08500E+01 0.00000E+00
 -1      1776 3.89700E+00 2.57000E+01 0.00000E+00
 -1      1777 3.89700E+00 2.71750E+01 0.00000E+00
 -1      1778 5.19600E+00 2.79000E+01 0.00000E+00
 -1      1779 3.89700E+00 2.27500E+01 0.00000E+00
 -1      1780 3.89700E+00 2.42250E+01 0.00000E+00
 -1      1781 5.19600E+00 2.49500E+01 0.00000E+00
 -1      1782 3.89700E+00 1.98000E+01 0.00000E+00
 -1      1783 3.89700E+00 2.12750E+01 0.00000E+00
 -1      1784 5.19600E+00 2.20000E+01 0.00000E+00
 -1      1785 3.89700E+00 1.69000E+01 0.00000E+00
 -1      1786 3.89700E+00 1.83500E+01 0.00000E+00
 -1      1787 5.19600E+00 1.90750E+01 0.00000E+00
 -1      1788 3.89700E+00 1.39500E+01 0.00000E+00
 -1      1789 3.89700E+00 1.54250E+01 0.00000E+00
 -1      1790 5.19600E+00 1.61500E+01 0.00000E+00
 -1      1791 3.89700E+00 1.10000E+01 0.00000E+00
 -1      1792 3.89700E+00 1.24750E+01 0.00000E+00
 -1      1793 5.19600E+00 1.32000E+01 0.00000E+00
 -1      1794 3.89700E+00 8.05000E+00 0.00000E+00
 -1      1795 3.89700E+00 9.52500E+00 0.00000E+00
 -1      1796 5.19600E+00 1.02500E+01 0.00000E+00
 -1      1797 3.89700E+00 5.10000E+00 0.00000E+00
 -1      1798 3.89700E+00 6.57500E+00 0.00000E+00
 -1      1799 5.19600E+00 7.30000E+00 0.00000E+00
 -1      1800 4.20450E+00 3.09687E+00 0.00000E+00
 -1      1801 4.06650E+00 4.19063E+00 0.00000E+00
 -1      1802 5.36550E+00 4.91563E+00 0.00000E+00
 -1      1803 5.70450E+00 3.09687E+00 0.00000E+00
 -1      1804 3.62400E+00 4.64885E+01 0.00000E+00
 -1      1805 8.70450E+00 3.09687E+00 0.00000E+00
 -1      1806 7.20450E+00 3.09687E+00 0.00000E+00
 -1      1807 7.03500E+00 4.00625E+00 0.00000E+00
 -1      1808 4.92300E+00 4.57510E+01 0.00000E+00
 -1      1809 8.40000E+00 4.61030E+01 0.00000E+00
 -1      1810 9.90000E+00 4.61030E+01 0.00000E+00
 -1      1811 1.14000E+01 4.61030E+01 0.00000E+00
 -1      1812 1.29000E+01 4.61030E+01 0.00000E+00
 -1      1813 1.06500E+01 4.48040E+01 0.00000E+00
 -1      1814 1.44000E+01 4.61030E+01 0.00000E+00
 -1      1815 1.59000E+01 4.61030E+01 0.00000E+00
 -1      1816 1.36500E+01 4.48040E+01 0.00000E+00
 -1      1817 1.74000E+01 4.61030E+01 0.00000E+00
 -1      1818 1.89000E+01 4.61030E+01 0.00000E+00
 -1      1819 1.66500E+01 4.48040E+01 0.00000E+00
 -1      1820 2.04000E+01 4.61030E+01 0.00000E+00
 -1      1821 2.19000E+01 4.61030E+01 0.00000E+00
 -1      1822 1.96500E+01 4.48040E+01 0.00000E+00
 -1      1823 2.34000E+01 4.61030E+01 0.00000E+00
 -1      1824 2.49000E+01 4.61030E+01 0.00000E+00
 -1      1825 2.26500E+01 4.48040E+01 0.00000E+00
 -1      1826 2.64000E+01 4.61030E+01 0.00000E+00
 -1      1827 2.79000E+01 4.61030E+01 0.00000E+00
 -1      1828 2.56500E+01 4.48040E+01 0.00000E+00
 -1      1829 2.94000E+01 4.61030E+01 0.00000E+00
 -1      1830 3.09000E+01 4.61030E+01 0.00000E+00
 -1      1831 2.86500E+01 4.48040E+01 0.00000E+00
 -1      1832 3.24000E+01 4.61030E+01 0.00000E+00
 -1      1833 3.39000E+01 4.61030E+01 0.00000E+00
 -1      1834 3.16500E+01 4.48040E+01 0.00000E+00
 -1      1835 3.54000E+01 4.61030E+01 0.00000E+00
 -1      1836 3.69000E+01 4.61030E+01 0.00000E+00
 -1      1837 3.46500E+01 4.48040E+01 0.00000E+00
 -1      1838 3.84000E+01 4.61030E+01 0.00000E+00
 -1      1839 3.99000E+01 4.61030E+01 0.00000E+00
 -1      1840 3.76500E+01 4.48040E+01 0.00000E+00
 -1      1841 4.14000E+01 4.61030E+01 0.00000E+00
 -1      1842 4.29000E+01 4.61030E+01 0.00000E+00
 -1      1843 4.06500E+01 4.48040E+01 0.00000E+00
 -1      1844 4.44000E+01 4.61030E+01 0.00000E+00
 -1      1845 4.59000E+01 4.61030E+01 0.00000E+00
 -1      1846 4.36500E+01 4.48040E+01 0.00000E+00
 -1      1847 4.74000E+01 4.61030E+01 0.00000E+00
 -1      1848 4.89000E+01 4.61030E+01 0.00000E+00
 -1      1849 4.66500E+01 4.48040E+01 0.00000E+00
 -1      1850 5.04000E+01 4.61030E+01 0.00000E+00
 -1      1851 5.19000E+01 4.61030E+01 0.00000E+00
 -1      1852 4.96500E+01 4.48040E+01 0.00000E+00
 -1      1853 5.34000E+01 4.61030E+01 0.00000E+00
 -1      1854 5.49000E+01 4.61030E+01 0.00000E+00
 -1      1855 5.26500E+01 4.48040E+01 0.00000E+00
 -1      1856 5.64000E+01 4.61030E+01 0.00000E+00
 -1      1857 5.79000E+01 4.61030E+01 0.00000E+00
 -1      1858 5.56500E+01 4.48040E+01 0.00000E+00
 -1      1859 5.94000E+01 4.61030E+01 0.00000E+00
 -1      1860 6.09000E+01 4.61030E+01 0.00000E+00
 -1      1861 5.86500E+01 4.48040E+01 0.00000E+00
 -1      1862 6.24000E+01 4.61030E+01 0.00000E+00
 -1      1863 6.39000E+01 4.61030E+01 0.00000E+00
 -1      1864 6.16500E+01 4.48040E+01 0.00000E+00
 -1      1865 6.54000E+01 4.61030E+01 0.00000E+00
 -1      1866 6.69000E+01 4.61030E+01 0.00000E+00
 -1      1867 6.46500E+01 4.48040E+01 0.00000E+00
 -1      1868 6.84000E+01 4.61030E+01 0.00000E+00
 -1      1869 6.99000E+01 4.61030E+01 0.00000E+00
 -1      1870 6.76500E+01 4.48040E+01 0.00000E+00
 -1      1871 7.14000E+01 4.61030E+01 0.00000E+00
 -1      1872 7.29000E+01 4.61030E+01 0.00000E+00
 -1      1873 7.06500E+01 4.48040E+01 0.00000E+00
 -1      1874 7.44000E+01 4.61030E+01 0.00000E+00
 -1      1875 7.59000E+01 4.61030E+01 0.00000E+00
 -1      1876 7.36500E+01 4.48040E+01 0.00000E+00
 -1      1877 7.74000E+01 4.61030E+01 0.00000E+00
 -1      1878 7.89000E+01 4.61030E+01 0.00000E+00
 -1      1879 7.66500E+01 4.48040E+01 0.00000E+00
 -1      1880 8.04000E+01 4.61030E+01 0.00000E+00
 -1      1881 8.19000E+01 4.61030E+01 0.00000E+00
 -1      1882 7.96500E+01 4.48040E+01 0.00000E+00
 -1      1883 8.34000E+01 4.61030E+01 0.00000E+00
 -1      1884 8.49000E+01 4.61030E+01 0.00000E+00
 -1      1885 8.26500E+01 4.48040E+01 0.00000E+00
 -1      1886 8.64000E+01 4.61030E+01 0.00000E+00
 -1      1887 8.79000E+01 4.61030E+01 0.00000E+00
 -1      1888 8.56500E+01 4.48040E+01 0.00000E+00
 -1      1889 8.94000E+01 4.61030E+01 0.00000E+00
 -1      1890 9.09000E+01 4.61030E+01 0.00000E+00
 -1      1891 8.86500E+01 4.48040E+01 0.00000E+00
 -1      1892 9.24000E+01 4.61030E+01 0.00000E+00
 -1      1893 9.39000E+01 4.61030E+01 0.00000E+00
 -1      1894 9.16500E+01 4.48040E+01 0.00000E+00
 -1      1895 9.54000E+01 4.61030E+01 0.00000E+00
 -1      1896 9.69000E+01 4.61030E+01 0.00000E+00
 -1      1897 9.46500E+01 4.48040E+01 0.00000E+00
 -1      1898 9.84000E+01 4.61030E+01 0.00000E+00
 -1      1899 9.99000E+01 4.61030E+01 0.00000E+00
 -1      1900 9.76500E+01 4.48040E+01 0.00000E+00
 -1      1901 1.01400E+02 4.61030E+01 0.00000E+00
 -1      1902 1.02900E+02 4.61030E+01 0.00000E+00
 -1      1903 1.00650E+02 4.48040E+01 0.00000E+00
 -1      1904 1.04400E+02 4.61030E+01 0.00000E+00
 -1      1905 1.05900E+02 4.61030E+01 0.00000E+00
 -1      1906 1.03650E+02 4.48040E+01 0.00000E+00
 -1      1907 1.07400E+02 4.61030E+01 0.00000E+00
 -1      1908 1.08900E+02 4.61030E+01 0.00000E+00
 -1      1909 1.06650E+02 4.48040E+01 0.00000E+00
 -1      1910 1.10400E+02 4.61030E+01 0.00000E+00
 -1      1911 1.11900E+02 4.61030E+01 0.00000E+00
 -1      1912 1.09650E+02 4.48040E+01 0.00000E+00
 -1      1913 1.13400E+02 4.61030E+01 0.00000E+00
 -1      1914 1.14900E+02 4.61030E+01 0.00000E+00
 -1      1915 1.12650E+02 4.48040E+01 0.00000E+00
 -1      1916 1.16400E+02 4.61030E+01 0.00000E+00
 -1      1917 1.17900E+02 4.61030E+01 0.00000E+00
 -1      1918 1.15650E+02 4.48040E+01 0.00000E+00
 -1      1919 1.19400E+02 4.61030E+01 0.00000E+00
 -1      1920 1.20900E+02 4.61030E+01 0.00000E+00
 -1      1921 1.18650E+02 4.48040E+01 0.00000E+00
 -1      1922 1.22400E+02 4.61030E+01 0.00000E+00
 -1      1923 1.23900E+02 4.61030E+01 0.00000E+00
 -1      1924 1.21650E+02 4.48040E+01 0.00000E+00
 -1      1925 1.25400E+02 4.61030E+01 0.00000E+00
 -1      1926 1.26900E+02 4.61030E+01 0.00000E+00
 -1      1927 1.24650E+02 4.48040E+01 0.00000E+00
 -1      1928 1.28400E+02 4.61030E+01 0.00000E+00
 -1      1929 1.29900E+02 4.61030E+01 0.00000E+00
 -1      1930 1.27650E+02 4.48040E+01 0.00000E+00
 -1      1931 1.31400E+02 4.61030E+01 0.00000E+00
 -1      1932 1.32900E+02 4.61030E+01 0.00000E+00
 -1      1933 1.30650E+02 4.48040E+01 0.00000E+00
 -1      1934 1.34400E+02 4.61030E+01 0.00000E+00
 -1      1935 1.35900E+02 4.61030E+01 0.00000E+00
 -1      1936 1.33650E+02 4.48040E+01 0.00000E+00
 -1      1937 1.37400E+02 4.61030E+01 0.00000E+00
 -1      1938 1.38900E+02 4.61030E+01 0.00000E+00
 -1      1939 1.36650E+02 4.48040E+01 0.00000E+00
 -1      1940 1.40400E+02 4.61030E+01 0.00000E+00
 -1      1941 1.41900E+02 4.61030E+01 0.00000E+00
 -1      1942 1.39650E+02 4.48040E+01 0.00000E+00
 -1      1943 1.43244E+02 4.61710E+01 0.00000E+00
 -1      1944 1.44744E+02 4.61710E+01 0.00000E+00
 -1      1945 1.45182E+02 4.50080E+01 0.00000E+00
 -1      1946 1.42494E+02 4.48720E+01 0.00000E+00
 -1      1947 1.17045E+01 3.09687E+00 0.00000E+00
 -1      1948 1.02045E+01 3.09687E+00 0.00000E+00
 -1      1949 1.00350E+01 4.00625E+00 0.00000E+00
 -1      1950 1.47045E+01 3.09687E+00 0.00000E+00
 -1      1951 1.32045E+01 3.09687E+00 0.00000E+00
 -1      1952 1.30350E+01 4.00625E+00 0.00000E+00
 -1      1953 1.77045E+01 3.09687E+00 0.00000E+00
 -1      1954 1.62045E+01 3.09687E+00 0.00000E+00
 -1      1955 1.60350E+01 4.00625E+00 0.00000E+00
 -1      1956 2.07045E+01 3.09687E+00 0.00000E+00
 -1      1957 1.92045E+01 3.09687E+00 0.00000E+00
 -1      1958 1.90350E+01 4.00625E+00 0.00000E+00
 -1      1959 2.37045E+01 3.09687E+00 0.00000E+00
 -1      1960 2.22045E+01 3.09687E+00 0.00000E+00
 -1      1961 2.20350E+01 4.00625E+00 0.00000E+00
 -1      1962 2.67045E+01 3.09687E+00 0.00000E+00
 -1      1963 2.52045E+01 3.09687E+00 0.00000E+00
 -1      1964 2.50350E+01 4.00625E+00 0.00000E+00
 -1      1965 2.97045E+01 3.09687E+00 0.00000E+00
 -1      1966 2.82045E+01 3.09687E+00 0.00000E+00
 -1      1967 2.80350E+01 4.00625E+00 0.00000E+00
 -1      1968 3.27045E+01 3.09687E+00 0.00000E+00
 -1      1969 3.12045E+01 3.09687E+00 0.00000E+00
 -1      1970 3.10350E+01 4.00625E+00 0.00000E+00
 -1      1971 3.57045E+01 3.09687E+00 0.00000E+00
 -1      1972 3.42045E+01 3.09687E+00 0.00000E+00
 -1      1973 3.40350E+01 4.00625E+00 0.00000E+00
 -1      1974 3.87045E+01 3.09687E+00 0.00000E+00
 -1      1975 3.72045E+01 3.09687E+00 0.00000E+00
 -1      1976 3.70350E+01 4.00625E+00 0.00000E+00
 -1      1977 4.17045E+01 3.09687E+00 0.00000E+00
 -1      1978 4.02045E+01 3.09687E+00 0.00000E+00
 -1      1979 4.00350E+01 4.00625E+00 0.00000E+00
 -1      1980 4.47045E+01 3.09687E+00 0.00000E+00
 -1      1981 4.32045E+01 3.09687E+00 0.00000E+00
 -1      1982 4.30350E+01 4.00625E+00 0.00000E+00
 -1      1983 4.77045E+01 3.09687E+00 0.00000E+00
 -1      1984 4.62045E+01 3.09687E+00 0.00000E+00
 -1      1985 4.60350E+01 4.00625E+00 0.00000E+00
 -1      1986 5.07045E+01 3.09687E+00 0.00000E+00
 -1      1987 4.92045E+01 3.09687E+00 0.00000E+00
 -1      1988 4.90350E+01 4.00625E+00 0.00000E+00
 -1      1989 5.37045E+01 3.09687E+00 0.00000E+00
 -1      1990 5.22045E+01 3.09687E+00 0.00000E+00
 -1      1991 5.20350E+01 4.00625E+00 0.00000E+00
 -1      1992 5.67045E+01 3.09687E+00 0.00000E+00
 -1      1993 5.52045E+01 3.09687E+00 0.00000E+00
 -1      1994 5.50350E+01 4.00625E+00 0.00000E+00
 -1      1995 5.97045E+01 3.09687E+00 0.00000E+00
 -1      1996 5.82045E+01 3.09687E+00 0.00000E+00
 -1      1997 5.80350E+01 4.00625E+00 0.00000E+00
 -1      1998 6.27045E+01 3.09687E+00 0.00000E+00
 -1      1999 6.12045E+01 3.09687E+00 0.00000E+00
 -1      2000 6.10350E+01 4.00625E+00 0.00000E+00
 -1      2001 6.57045E+01 3.09687E+00 0.00000E+00
 -1      2002 6.42045E+01 3.09687E+00 0.00000E+00
 -1      2003 6.40350E+01 4.00625E+00 0.00000E+00
 -1      2004 6.87045E+01 3.09687E+00 0.00000E+00
 -1      2005 6.72045E+01 3.09687E+00 0.00000E+00
 -1      2006 6.70350E+01 4.00625E+00 0.00000E+00
 -1      2007 7.17045E+01 3.09687E+00 0.00000E+00
 -1      2008 7.02045E+01 3.09687E+00 0.00000E+00
 -1      2009 7.00350E+01 4.00625E+00 0.00000E+00
 -1      2010 7.47045E+01 3.09687E+00 0.00000E+00
 -1      2011 7.32045E+01 3.09687E+00 0.00000E+00
 -1      2012 7.30350E+01 4.00625E+00 0.00000E+00
 -1      2013 7.77045E+01 3.09687E+00 0.00000E+00
 -1      2014 7.62045E+01 3.09687E+00 0.00000E+00
 -1      2015 7.60350E+01 4.00625E+00 0.00000E+00
 -1      2016 8.07045E+01 3.09687E+00 0.00000E+00
 -1      2017 7.92045E+01 3.09687E+00 0.00000E+00
 -1      2018 7.90350E+01 4.00625E+00 0.00000E+00
 -1      2019 8.37045E+01 3.09687E+00 0.00000E+00
 -1      2020 8.22045E+01 3.09687E+00 0.00000E+00
 -1      2021 8.20350E+01 4.00625E+00 0.00000E+00
 -1      2022 8.67045E+01 3.09687E+00 0.00000E+00
 -1      2023 8.52045E+01 3.09687E+00 0.00000E+00
 -1      2024 8.50350E+01 4.00625E+00 0.00000E+00
 -1      2025 8.97045E+01 3.09687E+00 0.00000E+00
 -1      2026 8.82045E+01 3.09687E+00 0.00000E+00
 -1      2027 8.80350E+01 4.00625E+00 0.00000E+00
 -1      2028 9.27045E+01 3.09687E+00 0.00000E+00
 -1      2029 9.12045E+01 3.09687E+00 0.00000E+00
 -1      2030 9.10350E+01 4.00625E+00 0.00000E+00
 -1      2031 9.57045E+01 3.09687E+00 0.00000E+00
 -1      2032 9.42045E+01 3.09687E+00 0.00000E+00
 -1      2033 9.40350E+01 4.00625E+00 0.00000E+00
 -1      2034 9.87045E+01 3.09687E+00 0.00000E+00
 -1      2035 9.72045E+01 3.09687E+00 0.00000E+00
 -1      2036 9.70350E+01 4.00625E+00 0.00000E+00
 -1      2037 1.01704E+02 3.09687E+00 0.00000E+00
 -1      2038 1.00204E+02 3.09687E+00 0.00000E+00
 -1      2039 1.00035E+02 4.00625E+00 0.00000E+00
 -1      2040 1.04704E+02 3.09687E+00 0.00000E+00
 -1      2041 1.03204E+02 3.09687E+00 0.00000E+00
 -1      2042 1.03035E+02 4.00625E+00 0.00000E+00
 -1      2043 1.07704E+02 3.09687E+00 0.00000E+00
 -1      2044 1.06204E+02 3.09687E+00 0.00000E+00
 -1      2045 1.06035E+02 4.00625E+00 0.00000E+00
 -1      2046 1.10704E+02 3.09687E+00 0.00000E+00
 -1      2047 1.09204E+02 3.09687E+00 0.00000E+00
 -1      2048 1.09035E+02 4.00625E+00 0.00000E+00
 -1      2049 1.13704E+02 3.09687E+00 0.00000E+00
 -1      2050 1.12204E+02 3.09687E+00 0.00000E+00
 -1      2051 1.12035E+02 4.00625E+00 0.00000E+00
 -1      2052 1.16704E+02 3.09687E+00 0.00000E+00
 -1      2053 1.15204E+02 3.09687E+00 0.00000E+00
 -1      2054 1.15035E+02 4.00625E+00 0.00000E+00
 -1      2055 1.19704E+02 3.09687E+00 0.00000E+00
 -1      2056 1.18204E+02 3.09687E+00 0.00000E+00
 -1      2057 1.18035E+02 4.00625E+00 0.00000E+00
 -1      2058 1.22704E+02 3.09687E+00 0.00000E+00
 -1      2059 1.21204E+02 3.09687E+00 0.00000E+00
 -1      2060 1.21035E+02 4.00625E+00 0.00000E+00
 -1      2061 1.25704E+02 3.09687E+00 0.00000E+00
 -1      2062 1.24204E+02 3.09687E+00 0.00000E+00
 -1      2063 1.24035E+02 4.00625E+00 0.00000E+00
 -1      2064 1.28704E+02 3.09687E+00 0.00000E+00
 -1      2065 1.27204E+02 3.09687E+00 0.00000E+00
 -1      2066 1.27035E+02 4.00625E+00 0.00000E+00
 -1      2067 1.31704E+02 3.09687E+00 0.00000E+00
 -1      2068 1.30204E+02 3.09687E+00 0.00000E+00
 -1      2069 1.30035E+02 4.00625E+00 0.00000E+00
 -1      2070 1.34704E+02 3.09687E+00 0.00000E+00
 -1      2071 1.33204E+02 3.09687E+00 0.00000E+00
 -1      2072 1.33035E+02 4.00625E+00 0.00000E+00
 -1      2073 1.37704E+02 3.09687E+00 0.00000E+00
 -1      2074 1.36204E+02 3.09687E+00 0.00000E+00
 -1      2075 1.36035E+02 4.00625E+00 0.00000E+00
 -1      2076 1.40704E+02 3.09687E+00 0.00000E+00
 -1      2077 1.39204E+02 3.09687E+00 0.00000E+00
 -1      2078 1.39035E+02 4.00625E+00 0.00000E+00
 -1      2079 1.43704E+02 3.09687E+00 0.00000E+00
 -1      2080 1.42204E+02 3.09687E+00 0.00000E+00
 -1      2081 1.42035E+02 4.00625E+00 0.00000E+00
 -1      2082 1.46171E+02 3.19531E+00 0.00000E+00
 -1      2083 1.44671E+02 3.19531E+00 0.00000E+00
 -1      2084 1.44502E+02 4.10469E+00 0.00000E+00
 -1      2085 1.46435E+02 4.30156E+00 0.00000E+00
 -1      2086 1.46103E+02 1.24625E+01 0.00000E+00
 -1      2087 1.46103E+02 1.09875E+01 0.00000E+00
 -1      2088 1.46103E+02 9.53750E+00 0.00000E+00
 -1      2089 1.46103E+02 8.08750E+00 0.00000E+00
 -1      2090 1.44804E+02 1.02750E+01 0.00000E+00
 -1      2091 1.46269E+02 6.93203E+00 0.00000E+00
 -1      2092 1.46269E+02 5.45703E+00 0.00000E+00
 -1      2093 1.45302E+02 5.35859E+00 0.00000E+00
 -1      2094 1.44970E+02 7.66953E+00 0.00000E+00
 -1      2095 1.46103E+02 1.52625E+01 0.00000E+00
 -1      2096 1.46103E+02 1.38625E+01 0.00000E+00
 -1      2097 1.44804E+02 1.31250E+01 0.00000E+00
 -1      2098 1.46377E+02 2.07625E+01 0.00000E+00
 -1      2099 1.46377E+02 1.94875E+01 0.00000E+00
 -1      2100 1.46377E+02 2.29625E+01 0.00000E+00
 -1      2101 1.46377E+02 2.18625E+01 0.00000E+00
 -1      2102 1.45352E+02 2.12250E+01 0.00000E+00
 -1      2103 1.46377E+02 2.52625E+01 0.00000E+00
 -1      2104 1.46377E+02 2.41125E+01 0.00000E+00
 -1      2105 1.45352E+02 2.34750E+01 0.00000E+00
 -1      2106 1.46377E+02 2.77125E+01 0.00000E+00
 -1      2107 1.46377E+02 2.64875E+01 0.00000E+00
 -1      2108 1.45352E+02 2.58500E+01 0.00000E+00
 -1      2109 1.46377E+02 3.03750E+01 0.00000E+00
 -1      2110 1.46377E+02 2.90250E+01 0.00000E+00
 -1      2111 1.46377E+02 3.32750E+01 0.00000E+00
 -1      2112 1.46377E+02 3.18250E+01 0.00000E+00
 -1      2113 1.45352E+02 3.11500E+01 0.00000E+00
 -1      2114 1.46377E+02 3.62250E+01 0.00000E+00
 -1      2115 1.46377E+02 3.47500E+01 0.00000E+00
 -1      2116 1.45352E+02 3.40750E+01 0.00000E+00
 -1      2117 1.46377E+02 3.91250E+01 0.00000E+00
 -1      2118 1.46377E+02 3.76750E+01 0.00000E+00
 -1      2119 1.45352E+02 3.70000E+01 0.00000E+00
 -1      2120 1.46377E+02 4.20750E+01 0.00000E+00
 -1      2121 1.46377E+02 4.06000E+01 0.00000E+00
 -1      2122 1.45352E+02 3.99250E+01 0.00000E+00
 -1      2123 1.42644E+02 1.74849E+01 0.00000E+00
 -1      2124 1.42938E+02 1.83115E+01 0.00000E+00
 -1      2125 1.44108E+02 2.15146E+01 0.00000E+00
 -1      2126 1.44029E+02 2.24246E+01 0.00000E+00
 -1      2127 1.41327E+02 1.59439E+01 0.00000E+00
 -1      2128 1.41914E+02 1.65869E+01 0.00000E+00
 -1      2129 1.40160E+02 1.46454E+01 0.00000E+00
 -1      2130 1.40756E+02 1.52706E+01 0.00000E+00
 -1      2131 3.89700E+00 3.74688E+01 0.00000E+00
 -1      2132 3.89700E+00 3.89437E+01 0.00000E+00
 -1      2133 5.19600E+00 3.96813E+01 0.00000E+00
 -1      2134 5.19600E+00 3.67438E+01 0.00000E+00
 -1      2135 1.36658E+02 1.29102E+01 0.00000E+00
 -1      2136 1.37508E+02 1.31200E+01 0.00000E+00
 -1      2137 1.34935E+02 1.26220E+01 0.00000E+00
 -1      2138 1.35797E+02 1.27661E+01 0.00000E+00
 -1      2139 1.36417E+02 1.20792E+01 0.00000E+00
 -1      2140 1.32863E+02 1.25876E+01 0.00000E+00
 -1      2141 1.33776E+02 1.24995E+01 0.00000E+00
 -1      2142 1.30919E+02 1.33865E+01 0.00000E+00
 -1      2143 1.31740E+02 1.29882E+01 0.00000E+00
 -1      2144 1.29391E+02 1.44724E+01 0.00000E+00
 -1      2145 1.30094E+02 1.39710E+01 0.00000E+00
 -1      2146 1.27960E+02 1.56368E+01 0.00000E+00
 -1      2147 1.28650E+02 1.50514E+01 0.00000E+00
 -1      2148 1.26740E+02 1.73338E+01 0.00000E+00
 -1      2149 1.27163E+02 1.65124E+01 0.00000E+00
 -1      2150 1.25995E+02 1.89325E+01 0.00000E+00
 -1      2151 1.26368E+02 1.81332E+01 0.00000E+00
 -1      2152 1.25891E+02 1.73687E+01 0.00000E+00
 -1      2153 1.25776E+02 2.09494E+01 0.00000E+00
 -1      2154 1.25808E+02 2.00980E+01 0.00000E+00
 -1      2155 1.25747E+02 2.26652E+01 0.00000E+00
 -1      2156 1.25727E+02 2.18326E+01 0.00000E+00
 -1      2157 1.26149E+02 2.45533E+01 0.00000E+00
 -1      2158 1.25928E+02 2.36652E+01 0.00000E+00
 -1      2159 1.26854E+02 2.64513E+01 0.00000E+00
 -1      2160 1.26457E+02 2.55662E+01 0.00000E+00
 -1      2161 1.28302E+02 2.80432E+01 0.00000E+00
 -1      2162 1.27591E+02 2.74393E+01 0.00000E+00
 -1      2163 1.29829E+02 2.91078E+01 0.00000E+00
 -1      2164 1.29097E+02 2.86353E+01 0.00000E+00
 -1      2165 1.31423E+02 2.99524E+01 0.00000E+00
 -1      2166 1.30651E+02 2.95732E+01 0.00000E+00
 -1      2167 1.33227E+02 3.04960E+01 0.00000E+00
 -1      2168 1.32388E+02 3.03253E+01 0.00000E+00
 -1      2169 1.35126E+02 3.06332E+01 0.00000E+00
 -1      2170 1.34224E+02 3.06083E+01 0.00000E+00
 -1      2171 1.37167E+02 3.02062E+01 0.00000E+00
 -1      2172 1.36284E+02 3.05008E+01 0.00000E+00
 -1      2173 1.39018E+02 2.96485E+01 0.00000E+00
 -1      2174 1.38092E+02 2.99274E+01 0.00000E+00
 -1      2175 1.37896E+02 3.08086E+01 0.00000E+00
 -1      2176 1.40736E+02 2.82162E+01 0.00000E+00
 -1      2177 1.40077E+02 2.89176E+01 0.00000E+00
 -1      2178 1.41872E+02 2.66482E+01 0.00000E+00
 -1      2179 1.41356E+02 2.73889E+01 0.00000E+00
 -1      2180 1.42797E+02 2.49720E+01 0.00000E+00
 -1      2181 1.42418E+02 2.57857E+01 0.00000E+00
 -1      2182 1.38482E+02 1.35191E+01 0.00000E+00
 -1      2183 1.39295E+02 1.39151E+01 0.00000E+00
 -1      2184 1.44108E+02 2.04146E+01 0.00000E+00
 -1      2185 6.42300E+00 4.57510E+01 0.00000E+00
 -1      2186 1.41528E+02 1.51553E+01 0.00000E+00
 -1      2187 1.38253E+02 1.26224E+01 0.00000E+00
 -1      2188 7.17300E+00 4.44520E+01 0.00000E+00
 -1      2189 1.46288E+02 1.64499E+01 0.00000E+00
 -1      2190 1.44989E+02 1.57124E+01 0.00000E+00
 -1      2191 1.46288E+02 1.78749E+01 0.00000E+00
 -1      2192 1.45352E+02 2.83875E+01 0.00000E+00
 -1      2193 1.42829E+02 1.67265E+01 0.00000E+00
 -1      2194 1.45560E+02 4.41230E+01 0.00000E+00
 -1      2195 1.45998E+02 4.29600E+01 0.00000E+00
 -1      2196 1.44973E+02 4.22850E+01 0.00000E+00
 -1      2197 1.44216E+02 4.40550E+01 0.00000E+00
 -1      2198 1.44595E+02 2.33827E+01 0.00000E+00
 -1      2199 1.43272E+02 2.34824E+01 0.00000E+00
 -1      2200 1.43081E+02 2.43481E+01 0.00000E+00
 -1      2201 1.44595E+02 2.45327E+01 0.00000E+00
 -1      2202 1.43271E+02 1.91630E+01 0.00000E+00
 -1      2203 1.43544E+02 2.00158E+01 0.00000E+00
 -1      2204 1.43554E+02 2.50643E+01 0.00000E+00
 -1      2205 1.42725E+02 2.65507E+01 0.00000E+00
 -1      2206 1.39880E+02 2.97989E+01 0.00000E+00
 -1      2207 1.39684E+02 3.06801E+01 0.00000E+00
 -1      2208 1.40743E+02 2.99493E+01 0.00000E+00
 -1      2209 1.35813E+02 3.12199E+01 0.00000E+00
 -1      2210 1.33658E+02 3.12401E+01 0.00000E+00
 -1      2211 1.31697E+02 3.07550E+01 0.00000E+00
 -1      2212 1.29911E+02 2.99167E+01 0.00000E+00
 -1      2213 1.28294E+02 2.88592E+01 0.00000E+00
 -1      2214 1.26763E+02 2.72792E+01 0.00000E+00
 -1      2215 1.25935E+02 2.71190E+01 0.00000E+00
 -1      2216 1.26672E+02 2.81070E+01 0.00000E+00
 -1      2217 1.25718E+02 2.52783E+01 0.00000E+00
 -1      2218 1.25229E+02 2.32654E+01 0.00000E+00
 -1      2219 1.25331E+02 1.93335E+01 0.00000E+00
 -1      2220 1.27061E+02 1.56937E+01 0.00000E+00
 -1      2221 1.28600E+02 1.42391E+01 0.00000E+00
 -1      2222 1.30167E+02 1.30756E+01 0.00000E+00
 -1      2223 1.40093E+02 1.37517E+01 0.00000E+00
 -1      2224 1.34396E+02 1.18125E+01 0.00000E+00
 -1      2225 1.32114E+02 1.20905E+01 0.00000E+00
 -1      2226 1.25096E+02 2.13822E+01 0.00000E+00
 -1      2227 1.41560E+02 2.82406E+01 0.00000E+00
 -1      2228 1.43892E+02 1.84760E+01 0.00000E+00
 -1      2229 1.07850E+01 5.30525E+00 0.00000E+00
 -1      2230 9.28500E+00 5.30525E+00 0.00000E+00
 -1      2231 6.49500E+00 3.01125E+01 0.00000E+00
 -1      2232 6.49500E+00 3.15875E+01 0.00000E+00
 -1      2233 6.49500E+00 3.30625E+01 0.00000E+00
 -1      2234 6.49500E+00 3.45375E+01 0.00000E+00
 -1      2235 7.79400E+00 3.23250E+01 0.00000E+00
 -1      2236 6.49500E+00 2.42125E+01 0.00000E+00
 -1      2237 6.49500E+00 2.56875E+01 0.00000E+00
 -1      2238 6.49500E+00 2.12625E+01 0.00000E+00
 -1      2239 6.49500E+00 2.27375E+01 0.00000E+00
 -1      2240 7.79400E+00 2.34750E+01 0.00000E+00
 -1      2241 6.49500E+00 1.83625E+01 0.00000E+00
 -1      2242 6.49500E+00 1.98125E+01 0.00000E+00
 -1      2243 7.79400E+00 2.05500E+01 0.00000E+00
 -1      2244 6.49500E+00 1.54125E+01 0.00000E+00
 -1      2245 6.49500E+00 1.68875E+01 0.00000E+00
 -1      2246 7.79400E+00 1.76250E+01 0.00000E+00
 -1      2247 6.49500E+00 1.24625E+01 0.00000E+00
 -1      2248 6.49500E+00 1.39375E+01 0.00000E+00
 -1      2249 7.79400E+00 1.46750E+01 0.00000E+00
 -1      2250 6.49500E+00 9.51250E+00 0.00000E+00
 -1      2251 6.49500E+00 1.09875E+01 0.00000E+00
 -1      2252 7.79400E+00 1.17250E+01 0.00000E+00
 -1      2253 1.37850E+01 5.30525E+00 0.00000E+00
 -1      2254 1.22850E+01 5.30525E+00 0.00000E+00
 -1      2255 1.15350E+01 6.60425E+00 0.00000E+00
 -1      2256 9.90000E+00 4.35050E+01 0.00000E+00
 -1      2257 1.14000E+01 4.35050E+01 0.00000E+00
 -1      2258 1.41833E+02 1.43184E+01 0.00000E+00
 -1      2259 1.42404E+02 1.49916E+01 0.00000E+00
 -1      2260 1.44243E+02 2.90438E+01 0.00000E+00
 -1      2261 1.44243E+02 2.77313E+01 0.00000E+00
 -1      2262 1.29000E+01 4.35050E+01 0.00000E+00
 -1      2263 1.44000E+01 4.35050E+01 0.00000E+00
 -1      2264 1.21500E+01 4.22060E+01 0.00000E+00
 -1      2265 1.59000E+01 4.35050E+01 0.00000E+00
 -1      2266 1.74000E+01 4.35050E+01 0.00000E+00
 -1      2267 1.51500E+01 4.22060E+01 0.00000E+00
 -1      2268 1.89000E+01 4.35050E+01 0.00000E+00
 -1      2269 2.04000E+01 4.35050E+01 0.00000E+00
 -1      2270 1.81500E+01 4.22060E+01 0.00000E+00
 -1      2271 2.19000E+01 4.35050E+01 0.00000E+00
 -1      2272 2.34000E+01 4.35050E+01 0.00000E+00
 -1      2273 2.11500E+01 4.22060E+01 0.00000E+00
 -1      2274 2.49000E+01 4.35050E+01 0.00000E+00
 -1      2275 2.64000E+01 4.35050E+01 0.00000E+00
 -1      2276 2.41500E+01 4.22060E+01 0.00000E+00
 -1      2277 2.79000E+01 4.35050E+01 0.00000E+00
 -1      2278 2.94000E+01 4.35050E+01 0.00000E+00
 -1      2279 2.71500E+01 4.22060E+01 0.00000E+00
 -1      2280 3.09000E+01 4.35050E+01 0.00000E+00
 -1      2281 3.24000E+01 4.35050E+01 0.00000E+00
 -1      2282 3.01500E+01 4.22060E+01 0.00000E+00
 -1      2283 3.39000E+01 4.35050E+01 0.00000E+00
 -1      2284 3.54000E+01 4.35050E+01 0.00000E+00
 -1      2285 3.31500E+01 4.22060E+01 0.00000E+00
 -1      2286 3.69000E+01 4.35050E+01 0.00000E+00
 -1      2287 3.84000E+01 4.35050E+01 0.00000E+00
 -1      2288 3.61500E+01 4.22060E+01 0.00000E+00
 -1      2289 3.99000E+01 4.35050E+01 0.00000E+00
 -1      2290 4.14000E+01 4.35050E+01 0.00000E+00
 -1      2291 3.91500E+01 4.22060E+01 0.00000E+00
 -1      2292 4.29000E+01 4.35050E+01 0.00000E+00
 -1      2293 4.44000E+01 4.35050E+01 0.00000E+00
 -1      2294 4.21500E+01 4.22060E+01 0.00000E+00
 -1      2295 4.59000E+01 4.35050E+01 0.00000E+00
 -1      2296 4.74000E+01 4.35050E+01 0.00000E+00
 -1      2297 4.51500E+01 4.22060E+01 0.00000E+00
 -1      2298 4.89000E+01 4.35050E+01 0.00000E+00
 -1      2299 5.04000E+01 4.35050E+01 0.00000E+00
 -1      2300 4.81500E+01 4.22060E+01 0.00000E+00
 -1      2301 5.19000E+01 4.35050E+01 0.00000E+00
 -1      2302 5.34000E+01 4.35050E+01 0.00000E+00
 -1      2303 5.11500E+01 4.22060E+01 0.00000E+00
 -1      2304 5.49000E+01 4.35050E+01 0.00000E+00
 -1      2305 5.64000E+01 4.35050E+01 0.00000E+00
 -1      2306 5.41500E+01 4.22060E+01 0.00000E+00
 -1      2307 5.79000E+01 4.35050E+01 0.00000E+00
 -1      2308 5.94000E+01 4.35050E+01 0.00000E+00
 -1      2309 5.71500E+01 4.22060E+01 0.00000E+00
 -1      2310 6.09000E+01 4.35050E+01 0.00000E+00
 -1      2311 6.24000E+01 4.35050E+01 0.00000E+00
 -1      2312 6.01500E+01 4.22060E+01 0.00000E+00
 -1      2313 6.39000E+01 4.35050E+01 0.00000E+00
 -1      2314 6.54000E+01 4.35050E+01 0.00000E+00
 -1      2315 6.31500E+01 4.22060E+01 0.00000E+00
 -1      2316 6.69000E+01 4.35050E+01 0.00000E+00
 -1      2317 6.84000E+01 4.35050E+01 0.00000E+00
 -1      2318 6.61500E+01 4.22060E+01 0.00000E+00
 -1      2319 6.99000E+01 4.35050E+01 0.00000E+00
 -1      2320 7.14000E+01 4.35050E+01 0.00000E+00
 -1      2321 6.91500E+01 4.22060E+01 0.00000E+00
 -1      2322 7.29000E+01 4.35050E+01 0.00000E+00
 -1      2323 7.44000E+01 4.35050E+01 0.00000E+00
 -1      2324 7.21500E+01 4.22060E+01 0.00000E+00
 -1      2325 7.59000E+01 4.35050E+01 0.00000E+00
 -1      2326 7.74000E+01 4.35050E+01 0.00000E+00
 -1      2327 7.51500E+01 4.22060E+01 0.00000E+00
 -1      2328 7.89000E+01 4.35050E+01 0.00000E+00
 -1      2329 8.04000E+01 4.35050E+01 0.00000E+00
 -1      2330 7.81500E+01 4.22060E+01 0.00000E+00
 -1      2331 8.19000E+01 4.35050E+01 0.00000E+00
 -1      2332 8.34000E+01 4.35050E+01 0.00000E+00
 -1      2333 8.11500E+01 4.22060E+01 0.00000E+00
 -1      2334 8.49000E+01 4.35050E+01 0.00000E+00
 -1      2335 8.64000E+01 4.35050E+01 0.00000E+00
 -1      2336 8.41500E+01 4.22060E+01 0.00000E+00
 -1      2337 8.79000E+01 4.35050E+01 0.00000E+00
 -1      2338 8.94000E+01 4.35050E+01 0.00000E+00
 -1      2339 8.71500E+01 4.22060E+01 0.00000E+00
 -1      2340 9.09000E+01 4.35050E+01 0.00000E+00
 -1      2341 9.24000E+01 4.35050E+01 0.00000E+00
 -1      2342 9.01500E+01 4.22060E+01 0.00000E+00
 -1      2343 9.39000E+01 4.35050E+01 0.00000E+00
 -1      2344 9.54000E+01 4.35050E+01 0.00000E+00
 -1      2345 9.31500E+01 4.22060E+01 0.00000E+00
 -1      2346 9.69000E+01 4.35050E+01 0.00000E+00
 -1      2347 9.84000E+01 4.35050E+01 0.00000E+00
 -1      2348 9.61500E+01 4.22060E+01 0.00000E+00
 -1      2349 9.99000E+01 4.35050E+01 0.00000E+00
 -1      2350 1.01400E+02 4.35050E+01 0.00000E+00
 -1      2351 9.91500E+01 4.22060E+01 0.00000E+00
 -1      2352 1.02900E+02 4.35050E+01 0.00000E+00
 -1      2353 1.04400E+02 4.35050E+01 0.00000E+00
 -1      2354 1.02150E+02 4.22060E+01 0.00000E+00
 -1      2355 1.05900E+02 4.35050E+01 0.00000E+00
 -1      2356 1.07400E+02 4.35050E+01 0.00000E+00
 -1      2357 1.05150E+02 4.22060E+01 0.00000E+00
 -1      2358 1.08900E+02 4.35050E+01 0.00000E+00
 -1      2359 1.10400E+02 4.35050E+01 0.00000E+00
 -1      2360 1.08150E+02 4.22060E+01 0.00000E+00
 -1      2361 1.11900E+02 4.35050E+01 0.00000E+00
 -1      2362 1.13400E+02 4.35050E+01 0.00000E+00
 -1      2363 1.11150E+02 4.22060E+01 0.00000E+00
 -1      2364 1.14900E+02 4.35050E+01 0.00000E+00
 -1      2365 1.16400E+02 4.35050E+01 0.00000E+00
 -1      2366 1.14150E+02 4.22060E+01 0.00000E+00
 -1      2367 1.17900E+02 4.35050E+01 0.00000E+00
 -1      2368 1.19400E+02 4.35050E+01 0.00000E+00
 -1      2369 1.17150E+02 4.22060E+01 0.00000E+00
 -1      2370 1.20900E+02 4.35050E+01 0.00000E+00
 -1      2371 1.22400E+02 4.35050E+01 0.00000E+00
 -1      2372 1.20150E+02 4.22060E+01 0.00000E+00
 -1      2373 1.23900E+02 4.35050E+01 0.00000E+00
 -1      2374 1.25400E+02 4.35050E+01 0.00000E+00
 -1      2375 1.23150E+02 4.22060E+01 0.00000E+00
 -1      2376 1.26900E+02 4.35050E+01 0.00000E+00
 -1      2377 1.28400E+02 4.35050E+01 0.00000E+00
 -1      2378 1.26150E+02 4.22060E+01 0.00000E+00
 -1      2379 1.29900E+02 4.35050E+01 0.00000E+00
 -1      2380 1.31400E+02 4.35050E+01 0.00000E+00
 -1      2381 1.29150E+02 4.22060E+01 0.00000E+00
 -1      2382 1.32900E+02 4.35050E+01 0.00000E+00
 -1      2383 1.34400E+02 4.35050E+01 0.00000E+00
 -1      2384 1.32150E+02 4.22060E+01 0.00000E+00
 -1      2385 1.35900E+02 4.35050E+01 0.00000E+00
 -1      2386 1.37400E+02 4.35050E+01 0.00000E+00
 -1      2387 1.35150E+02 4.22060E+01 0.00000E+00
 -1      2388 1.38900E+02 4.35050E+01 0.00000E+00
 -1      2389 1.40400E+02 4.35050E+01 0.00000E+00
 -1      2390 1.38150E+02 4.22060E+01 0.00000E+00
 -1      2391 1.44053E+02 3.77250E+01 0.00000E+00
 -1      2392 1.44053E+02 3.62750E+01 0.00000E+00
 -1      2393 1.97850E+01 5.30525E+00 0.00000E+00
 -1      2394 1.82850E+01 5.30525E+00 0.00000E+00
 -1      2395 2.27850E+01 5.30525E+00 0.00000E+00
 -1      2396 2.12850E+01 5.30525E+00 0.00000E+00
 -1      2397 2.05350E+01 6.60425E+00 0.00000E+00
 -1      2398 2.57850E+01 5.30525E+00 0.00000E+00
 -1      2399 2.42850E+01 5.30525E+00 0.00000E+00
 -1      2400 2.35350E+01 6.60425E+00 0.00000E+00
 -1      2401 2.87850E+01 5.30525E+00 0.00000E+00
 -1      2402 2.72850E+01 5.30525E+00 0.00000E+00
 -1      2403 2.65350E+01 6.60425E+00 0.00000E+00
 -1      2404 3.17850E+01 5.30525E+00 0.00000E+00
 -1      2405 3.02850E+01 5.30525E+00 0.00000E+00
 -1      2406 2.95350E+01 6.60425E+00 0.00000E+00
 -1      2407 3.47850E+01 5.30525E+00 0.00000E+00
 -1      2408 3.32850E+01 5.30525E+00 0.00000E+00
 -1      2409 3.25350E+01 6.60425E+00 0.00000E+00
 -1      2410 3.77850E+01 5.30525E+00 0.00000E+00
 -1      2411 3.62850E+01 5.30525E+00 0.00000E+00
 -1      2412 3.55350E+01 6.60425E+00 0.00000E+00
 -1      2413 4.07850E+01 5.30525E+00 0.00000E+00
 -1      2414 3.92850E+01 5.30525E+00 0.00000E+00
 -1      2415 3.85350E+01 6.60425E+00 0.00000E+00
 -1      2416 4.37850E+01 5.30525E+00 0.00000E+00
 -1      2417 4.22850E+01 5.30525E+00 0.00000E+00
 -1      2418 4.15350E+01 6.60425E+00 0.00000E+00
 -1      2419 4.67850E+01 5.30525E+00 0.00000E+00
 -1      2420 4.52850E+01 5.30525E+00 0.00000E+00
 -1      2421 4.45350E+01 6.60425E+00 0.00000E+00
 -1      2422 4.97850E+01 5.30525E+00 0.00000E+00
 -1      2423 4.82850E+01 5.30525E+00 0.00000E+00
 -1      2424 4.75350E+01 6.60425E+00 0.00000E+00
 -1      2425 5.27850E+01 5.30525E+00 0.00000E+00
 -1      2426 5.12850E+01 5.30525E+00 0.00000E+00
 -1      2427 5.05350E+01 6.60425E+00 0.00000E+00
 -1      2428 5.57850E+01 5.30525E+00 0.00000E+00
 -1      2429 5.42850E+01 5.30525E+00 0.00000E+00
 -1      2430 5.35350E+01 6.60425E+00 0.00000E+00
 -1      2431 5.87850E+01 5.30525E+00 0.00000E+00
 -1      2432 5.72850E+01 5.30525E+00 0.00000E+00
 -1      2433 5.65350E+01 6.60425E+00 0.00000E+00
 -1      2434 6.17850E+01 5.30525E+00 0.00000E+00
 -1      2435 6.02850E+01 5.30525E+00 0.00000E+00
 -1      2436 5.95350E+01 6.60425E+00 0.00000E+00
 -1      2437 6.47850E+01 5.30525E+00 0.00000E+00
 -1      2438 6.32850E+01 5.30525E+00 0.00000E+00
 -1      2439 6.25350E+01 6.60425E+00 0.00000E+00
 -1      2440 6.77850E+01 5.30525E+00 0.00000E+00
 -1      2441 6.62850E+01 5.30525E+00 0.00000E+00
 -1      2442 6.55350E+01 6.60425E+00 0.00000E+00
 -1      2443 7.07850E+01 5.30525E+00 0.00000E+00
 -1      2444 6.92850E+01 5.30525E+00 0.00000E+00
 -1      2445 6.85350E+01 6.60425E+00 0.00000E+00
 -1      2446 7.37850E+01 5.30525E+00 0.00000E+00
 -1      2447 7.22850E+01 5.30525E+00 0.00000E+00
 -1      2448 7.15350E+01 6.60425E+00 0.00000E+00
 -1      2449 7.67850E+01 5.30525E+00 0.00000E+00
 -1      2450 7.52850E+01 5.30525E+00 0.00000E+00
 -1      2451 7.45350E+01 6.60425E+00 0.00000E+00
 -1      2452 7.97850E+01 5.30525E+00 0.00000E+00
 -1      2453 7.82850E+01 5.30525E+00 0.00000E+00
 -1      2454 7.75350E+01 6.60425E+00 0.00000E+00
 -1      2455 8.27850E+01 5.30525E+00 0.00000E+00
 -1      2456 8.12850E+01 5.30525E+00 0.00000E+00
 -1      2457 8.05350E+01 6.60425E+00 0.00000E+00
 -1      2458 8.57850E+01 5.30525E+00 0.00000E+00
 -1      2459 8.42850E+01 5.30525E+00 0.00000E+00
 -1      2460 8.35350E+01 6.60425E+00 0.00000E+00
 -1      2461 8.87850E+01 5.30525E+00 0.00000E+00
 -1      2462 8.72850E+01 5.30525E+00 0.00000E+00
 -1      2463 8.65350E+01 6.60425E+00 0.00000E+00
 -1      2464 9.17850E+01 5.30525E+00 0.00000E+00
 -1      2465 9.02850E+01 5.30525E+00 0.00000E+00
 -1      2466 8.95350E+01 6.60425E+00 0.00000E+00
 -1      2467 9.47850E+01 5.30525E+00 0.00000E+00
 -1      2468 9.32850E+01 5.30525E+00 0.00000E+00
 -1      2469 9.25350E+01 6.60425E+00 0.00000E+00
 -1      2470 9.77850E+01 5.30525E+00 0.00000E+00
 -1      2471 9.62850E+01 5.30525E+00 0.00000E+00
 -1      2472 9.55350E+01 6.60425E+00 0.00000E+00
 -1      2473 1.00785E+02 5.30525E+00 0.00000E+00
 -1      2474 9.92850E+01 5.30525E+00 0.00000E+00
 -1      2475 9.85350E+01 6.60425E+00 0.00000E+00
 -1      2476 1.03785E+02 5.30525E+00 0.00000E+00
 -1      2477 1.02285E+02 5.30525E+00 0.00000E+00
 -1      2478 1.01535E+02 6.60425E+00 0.00000E+00
 -1      2479 1.06785E+02 5.30525E+00 0.00000E+00
 -1      2480 1.05285E+02 5.30525E+00 0.00000E+00
 -1      2481 1.04535E+02 6.60425E+00 0.00000E+00
 -1      2482 1.09785E+02 5.30525E+00 0.00000E+00
 -1      2483 1.08285E+02 5.30525E+00 0.00000E+00
 -1      2484 1.07535E+02 6.60425E+00 0.00000E+00
 -1      2485 1.12785E+02 5.30525E+00 0.00000E+00
 -1      2486 1.11285E+02 5.30525E+00 0.00000E+00
 -1      2487 1.10535E+02 6.60425E+00 0.00000E+00
 -1      2488 1.15785E+02 5.30525E+00 0.00000E+00
 -1      2489 1.14285E+02 5.30525E+00 0.00000E+00
 -1      2490 1.13535E+02 6.60425E+00 0.00000E+00
 -1      2491 1.18785E+02 5.30525E+00 0.00000E+00
 -1      2492 1.17285E+02 5.30525E+00 0.00000E+00
 -1      2493 1.16535E+02 6.60425E+00 0.00000E+00
 -1      2494 1.21785E+02 5.30525E+00 0.00000E+00
 -1      2495 1.20285E+02 5.30525E+00 0.00000E+00
 -1      2496 1.19535E+02 6.60425E+00 0.00000E+00
 -1      2497 1.24785E+02 5.30525E+00 0.00000E+00
 -1      2498 1.23285E+02 5.30525E+00 0.00000E+00
 -1      2499 1.22535E+02 6.60425E+00 0.00000E+00
 -1      2500 1.27785E+02 5.30525E+00 0.00000E+00
 -1      2501 1.26285E+02 5.30525E+00 0.00000E+00
 -1      2502 1.25535E+02 6.60425E+00 0.00000E+00
 -1      2503 1.30785E+02 5.30525E+00 0.00000E+00
 -1      2504 1.29285E+02 5.30525E+00 0.00000E+00
 -1      2505 1.28535E+02 6.60425E+00 0.00000E+00
 -1      2506 1.33785E+02 5.30525E+00 0.00000E+00
 -1      2507 1.32285E+02 5.30525E+00 0.00000E+00
 -1      2508 1.31535E+02 6.60425E+00 0.00000E+00
 -1      2509 1.36785E+02 5.30525E+00 0.00000E+00
 -1      2510 1.35285E+02 5.30525E+00 0.00000E+00
 -1      2511 1.34535E+02 6.60425E+00 0.00000E+00
 -1      2512 1.39785E+02 5.30525E+00 0.00000E+00
 -1      2513 1.38285E+02 5.30525E+00 0.00000E+00
 -1      2514 1.37535E+02 6.60425E+00 0.00000E+00
 -1      2515 1.42785E+02 5.30525E+00 0.00000E+00
 -1      2516 1.41285E+02 5.30525E+00 0.00000E+00
 -1      2517 1.40535E+02 6.60425E+00 0.00000E+00
 -1      2518 1.44336E+02 5.26016E+00 0.00000E+00
 -1      2519 1.45263E+02 1.85124E+01 0.00000E+00
 -1      2520 1.43611E+02 1.10000E+01 0.00000E+00
 -1      2521 1.43611E+02 9.55000E+00 0.00000E+00
 -1      2522 1.43756E+02 1.43399E+01 0.00000E+00
 -1      2523 1.43756E+02 1.29399E+01 0.00000E+00
 -1      2524 1.44788E+02 1.97262E+01 0.00000E+00
 -1      2525 1.43032E+02 1.58157E+01 0.00000E+00
 -1      2526 1.43762E+02 1.67137E+01 0.00000E+00
 -1      2527 1.44053E+02 3.48000E+01 0.00000E+00
 -1      2528 1.44053E+02 3.33250E+01 0.00000E+00
 -1      2529 1.42754E+02 3.55250E+01 0.00000E+00
 -1      2530 1.44148E+02 3.19094E+01 0.00000E+00
 -1      2531 1.44148E+02 3.04594E+01 0.00000E+00
 -1      2532 1.43039E+02 2.98031E+01 0.00000E+00
 -1      2533 1.42849E+02 3.26344E+01 0.00000E+00
 -1      2534 1.44053E+02 4.06750E+01 0.00000E+00
 -1      2535 1.44053E+02 3.92000E+01 0.00000E+00
 -1      2536 1.42754E+02 3.84750E+01 0.00000E+00
 -1      2537 1.67850E+01 5.30525E+00 0.00000E+00
 -1      2538 1.52850E+01 5.30525E+00 0.00000E+00
 -1      2539 1.75350E+01 6.60425E+00 0.00000E+00
 -1      2540 1.38075E+02 1.16680E+01 0.00000E+00
 -1      2541 1.39049E+02 1.20671E+01 0.00000E+00
 -1      2542 6.55950E+00 4.28890E+01 0.00000E+00
 -1      2543 8.53650E+00 4.32410E+01 0.00000E+00
 -1      2544 9.28650E+00 4.19420E+01 0.00000E+00
 -1      2545 6.55950E+00 4.14140E+01 0.00000E+00
 -1      2546 1.36489E+02 3.20057E+01 0.00000E+00
 -1      2547 1.35331E+02 3.21381E+01 0.00000E+00
 -1      2548 1.26121E+02 1.56387E+01 0.00000E+00
 -1      2549 1.26919E+02 1.47631E+01 0.00000E+00
 -1      2550 6.49500E+00 2.71625E+01 0.00000E+00
 -1      2551 6.49500E+00 2.86375E+01 0.00000E+00
 -1      2552 7.79400E+00 2.93750E+01 0.00000E+00
 -1      2553 7.79400E+00 2.64250E+01 0.00000E+00
 -1      2554 1.31265E+02 1.14832E+01 0.00000E+00
 -1      2555 1.32387E+02 1.10826E+01 0.00000E+00
 -1      2556 1.36107E+02 1.12853E+01 0.00000E+00
 -1      2557 1.36968E+02 1.14294E+01 0.00000E+00
 -1      2558 1.24216E+02 2.17768E+01 0.00000E+00
 -1      2559 1.24264E+02 2.08936E+01 0.00000E+00
 -1      2560 1.40132E+02 1.28273E+01 0.00000E+00
 -1      2561 1.40997E+02 1.35576E+01 0.00000E+00
 -1      2562 1.29307E+02 1.27364E+01 0.00000E+00
 -1      2563 1.30132E+02 1.21519E+01 0.00000E+00
 -1      2564 1.27727E+02 1.38856E+01 0.00000E+00
 -1      2565 1.28469E+02 1.33066E+01 0.00000E+00
 -1      2566 1.24965E+02 1.74238E+01 0.00000E+00
 -1      2567 1.25338E+02 1.66244E+01 0.00000E+00
 -1      2568 1.42657E+02 2.79004E+01 0.00000E+00
 -1      2569 1.42037E+02 2.87278E+01 0.00000E+00
 -1      2570 1.24451E+02 1.97282E+01 0.00000E+00
 -1      2571 1.24638E+02 1.85627E+01 0.00000E+00
 -1      2572 1.23570E+02 2.01228E+01 0.00000E+00
 -1      2573 1.24640E+02 2.38883E+01 0.00000E+00
 -1      2574 1.24459E+02 2.28883E+01 0.00000E+00
 -1      2575 1.25132E+02 2.60100E+01 0.00000E+00
 -1      2576 1.24823E+02 2.49971E+01 0.00000E+00
 -1      2577 1.28179E+02 2.98428E+01 0.00000E+00
 -1      2578 1.27385E+02 2.92508E+01 0.00000E+00
 -1      2579 1.29900E+02 3.08957E+01 0.00000E+00
 -1      2580 1.29077E+02 3.04303E+01 0.00000E+00
 -1      2581 1.31828E+02 3.16414E+01 0.00000E+00
 -1      2582 1.30864E+02 3.12686E+01 0.00000E+00
 -1      2583 1.30030E+02 3.17822E+01 0.00000E+00
 -1      2584 1.34042E+02 3.23149E+01 0.00000E+00
 -1      2585 1.33045E+02 3.22027E+01 0.00000E+00
 -1      2586 1.38570E+02 3.13699E+01 0.00000E+00
 -1      2587 1.37644E+02 3.16488E+01 0.00000E+00
 -1      2588 1.33902E+02 1.09401E+01 0.00000E+00
 -1      2589 1.35061E+02 1.10627E+01 0.00000E+00
 -1      2590 8.07525E+00 5.11044E+00 0.00000E+00
 -1      2591 6.57525E+00 5.11044E+00 0.00000E+00
 -1      2592 6.40575E+00 6.01981E+00 0.00000E+00
 -1      2593 8.82525E+00 6.40944E+00 0.00000E+00
 -1      2594 7.79400E+00 3.52687E+01 0.00000E+00
 -1      2595 6.49500E+00 3.60062E+01 0.00000E+00
 -1      2596 6.49500E+00 3.74750E+01 0.00000E+00
 -1      2597 1.45350E+01 6.60425E+00 0.00000E+00
 -1      2598 6.40575E+00 7.49481E+00 0.00000E+00
 -1      2599 1.37163E+02 3.25670E+01 0.00000E+00
 -1      2600 1.43337E+02 1.49788E+01 0.00000E+00
 -1      2601 1.41202E+02 4.10780E+01 0.00000E+00
 -1      2602 1.41952E+02 4.23770E+01 0.00000E+00
 -1      2603 1.44311E+02 2.63816E+01 0.00000E+00
 -1      2604 1.43766E+02 2.72441E+01 0.00000E+00
 -1      2605 7.70475E+00 8.23231E+00 0.00000E+00
 -1      2606 1.39954E+02 1.18730E+01 0.00000E+00
 -1      2607 1.43586E+02 6.55916E+00 0.00000E+00
 -1      2608 1.42564E+02 1.22149E+01 0.00000E+00
 -1      2609 1.43419E+02 7.71462E+00 0.00000E+00
 -1      2610 1.44311E+02 2.51566E+01 0.00000E+00
 -1      2611 1.43251E+02 4.31020E+01 0.00000E+00
 -1      2612 1.44569E+02 1.63513E+01 0.00000E+00
 -1      2613 1.44384E+02 1.51640E+01 0.00000E+00
 -1      2614 1.39433E+02 3.15203E+01 0.00000E+00
 -1      2615 1.39181E+02 3.23605E+01 0.00000E+00
 -1      2616 1.40295E+02 3.16707E+01 0.00000E+00
 -1      2617 6.55950E+00 3.99453E+01 0.00000E+00
 -1      2618 1.32212E+02 3.27162E+01 0.00000E+00
 -1      2619 1.37765E+02 1.08741E+01 0.00000E+00
 -1      2620 1.25195E+02 1.56938E+01 0.00000E+00
 -1      2621 1.28168E+02 3.08218E+01 0.00000E+00
 -1      2622 1.41942E+02 3.01434E+01 0.00000E+00
 -1      2623 1.41745E+02 3.10246E+01 0.00000E+00
 -1      2624 1.25041E+02 2.68379E+01 0.00000E+00
 -1      2625 1.24146E+02 2.65567E+01 0.00000E+00
 -1      2626 1.24950E+02 2.76657E+01 0.00000E+00
 -1      2627 1.26787E+02 1.38306E+01 0.00000E+00
 -1      2628 1.24085E+02 1.78184E+01 0.00000E+00
 -1      2629 1.26557E+02 2.90906E+01 0.00000E+00
 -1      2630 1.25729E+02 2.89305E+01 0.00000E+00
 -1      2631 1.26441E+02 3.00742E+01 0.00000E+00
 -1      2632 1.28434E+02 1.23830E+01 0.00000E+00
 -1      2633 1.23627E+02 2.23997E+01 0.00000E+00
 -1      2634 1.35613E+02 1.04129E+01 0.00000E+00
 -1      2635 1.34718E+02 3.31007E+01 0.00000E+00
 -1      2636 1.41873E+02 1.33939E+01 0.00000E+00
 -1      2637 1.30405E+02 1.11440E+01 0.00000E+00
 -1      2638 1.24054E+02 2.46200E+01 0.00000E+00
 -1      2639 1.44367E+02 1.72621E+01 0.00000E+00
 -1      2640 1.44699E+02 1.81136E+01 0.00000E+00
 -1      2641 1.42227E+02 8.43962E+00 0.00000E+00
 -1      2642 1.32461E+02 1.00813E+01 0.00000E+00
 -1      2643 1.33311E+02 1.06887E+01 0.00000E+00
 -1      2644 9.09300E+00 1.98250E+01 0.00000E+00
 -1      2645 9.09300E+00 2.12750E+01 0.00000E+00
 -1      2646 9.09300E+00 2.27500E+01 0.00000E+00
 -1      2647 9.09300E+00 2.42250E+01 0.00000E+00
 -1      2648 1.03920E+01 2.20250E+01 0.00000E+00
 -1      2649 9.09300E+00 1.39375E+01 0.00000E+00
 -1      2650 9.09300E+00 1.54125E+01 0.00000E+00
 -1      2651 9.09300E+00 1.09875E+01 0.00000E+00
 -1      2652 9.09300E+00 1.24625E+01 0.00000E+00
 -1      2653 1.03920E+01 1.32000E+01 0.00000E+00
 -1      2654 1.22850E+01 7.90325E+00 0.00000E+00
 -1      2655 1.07850E+01 7.90325E+00 0.00000E+00
 -1      2656 1.39881E+02 1.08253E+01 0.00000E+00
 -1      2657 1.40964E+02 1.15855E+01 0.00000E+00
 -1      2658 1.39662E+02 4.05912E+01 0.00000E+00
 -1      2659 1.41214E+02 3.94632E+01 0.00000E+00
 -1      2660 8.91450E+00 8.42712E+00 0.00000E+00
 -1      2661 1.44000E+01 4.09070E+01 0.00000E+00
 -1      2662 1.59000E+01 4.09070E+01 0.00000E+00
 -1      2663 1.74000E+01 4.09070E+01 0.00000E+00
 -1      2664 1.89000E+01 4.09070E+01 0.00000E+00
 -1      2665 1.66500E+01 3.96080E+01 0.00000E+00
 -1      2666 2.04000E+01 4.09070E+01 0.00000E+00
 -1      2667 2.19000E+01 4.09070E+01 0.00000E+00
 -1      2668 1.96500E+01 3.96080E+01 0.00000E+00
 -1      2669 2.34000E+01 4.09070E+01 0.00000E+00
 -1      2670 2.49000E+01 4.09070E+01 0.00000E+00
 -1      2671 2.26500E+01 3.96080E+01 0.00000E+00
 -1      2672 2.64000E+01 4.09070E+01 0.00000E+00
 -1      2673 2.79000E+01 4.09070E+01 0.00000E+00
 -1      2674 2.56500E+01 3.96080E+01 0.00000E+00
 -1      2675 2.94000E+01 4.09070E+01 0.00000E+00
 -1      2676 3.09000E+01 4.09070E+01 0.00000E+00
 -1      2677 2.86500E+01 3.96080E+01 0.00000E+00
 -1      2678 3.24000E+01 4.09070E+01 0.00000E+00
 -1      2679 3.39000E+01 4.09070E+01 0.00000E+00
 -1      2680 3.16500E+01 3.96080E+01 0.00000E+00
 -1      2681 3.54000E+01 4.09070E+01 0.00000E+00
 -1      2682 3.69000E+01 4.09070E+01 0.00000E+00
 -1      2683 3.46500E+01 3.96080E+01 0.00000E+00
 -1      2684 3.84000E+01 4.09070E+01 0.00000E+00
 -1      2685 3.99000E+01 4.09070E+01 0.00000E+00
 -1      2686 3.76500E+01 3.96080E+01 0.00000E+00
 -1      2687 4.14000E+01 4.09070E+01 0.00000E+00
 -1      2688 4.29000E+01 4.09070E+01 0.00000E+00
 -1      2689 4.06500E+01 3.96080E+01 0.00000E+00
 -1      2690 4.44000E+01 4.09070E+01 0.00000E+00
 -1      2691 4.59000E+01 4.09070E+01 0.00000E+00
 -1      2692 4.36500E+01 3.96080E+01 0.00000E+00
 -1      2693 4.74000E+01 4.09070E+01 0.00000E+00
 -1      2694 4.89000E+01 4.09070E+01 0.00000E+00
 -1      2695 4.66500E+01 3.96080E+01 0.00000E+00
 -1      2696 5.04000E+01 4.09070E+01 0.00000E+00
 -1      2697 5.19000E+01 4.09070E+01 0.00000E+00
 -1      2698 4.96500E+01 3.96080E+01 0.00000E+00
 -1      2699 5.34000E+01 4.09070E+01 0.00000E+00
 -1      2700 5.49000E+01 4.09070E+01 0.00000E+00
 -1      2701 5.26500E+01 3.96080E+01 0.00000E+00
 -1      2702 5.64000E+01 4.09070E+01 0.00000E+00
 -1      2703 5.79000E+01 4.09070E+01 0.00000E+00
 -1      2704 5.56500E+01 3.96080E+01 0.00000E+00
 -1      2705 5.94000E+01 4.09070E+01 0.00000E+00
 -1      2706 6.09000E+01 4.09070E+01 0.00000E+00
 -1      2707 5.86500E+01 3.96080E+01 0.00000E+00
 -1      2708 6.24000E+01 4.09070E+01 0.00000E+00
 -1      2709 6.39000E+01 4.09070E+01 0.00000E+00
 -1      2710 6.16500E+01 3.96080E+01 0.00000E+00
 -1      2711 6.54000E+01 4.09070E+01 0.00000E+00
 -1      2712 6.69000E+01 4.09070E+01 0.00000E+00
 -1      2713 6.46500E+01 3.96080E+01 0.00000E+00
 -1      2714 6.84000E+01 4.09070E+01 0.00000E+00
 -1      2715 6.99000E+01 4.09070E+01 0.00000E+00
 -1      2716 6.76500E+01 3.96080E+01 0.00000E+00
 -1      2717 7.14000E+01 4.09070E+01 0.00000E+00
 -1      2718 7.29000E+01 4.09070E+01 0.00000E+00
 -1      2719 7.06500E+01 3.96080E+01 0.00000E+00
 -1      2720 7.44000E+01 4.09070E+01 0.00000E+00
 -1      2721 7.59000E+01 4.09070E+01 0.00000E+00
 -1      2722 7.36500E+01 3.96080E+01 0.00000E+00
 -1      2723 7.74000E+01 4.09070E+01 0.00000E+00
 -1      2724 7.89000E+01 4.09070E+01 0.00000E+00
 -1      2725 7.66500E+01 3.96080E+01 0.00000E+00
 -1      2726 8.04000E+01 4.09070E+01 0.00000E+00
 -1      2727 8.19000E+01 4.09070E+01 0.00000E+00
 -1      2728 7.96500E+01 3.96080E+01 0.00000E+00
 -1      2729 8.34000E+01 4.09070E+01 0.00000E+00
 -1      2730 8.49000E+01 4.09070E+01 0.00000E+00
 -1      2731 8.26500E+01 3.96080E+01 0.00000E+00
 -1      2732 8.64000E+01 4.09070E+01 0.00000E+00
 -1      2733 8.79000E+01 4.09070E+01 0.00000E+00
 -1      2734 8.56500E+01 3.96080E+01 0.00000E+00
 -1      2735 8.94000E+01 4.09070E+01 0.00000E+00
 -1      2736 9.09000E+01 4.09070E+01 0.00000E+00
 -1      2737 8.86500E+01 3.96080E+01 0.00000E+00
 -1      2738 9.24000E+01 4.09070E+01 0.00000E+00
 -1      2739 9.39000E+01 4.09070E+01 0.00000E+00
 -1      2740 9.16500E+01 3.96080E+01 0.00000E+00
 -1      2741 9.54000E+01 4.09070E+01 0.00000E+00
 -1      2742 9.69000E+01 4.09070E+01 0.00000E+00
 -1      2743 9.46500E+01 3.96080E+01 0.00000E+00
 -1      2744 9.84000E+01 4.09070E+01 0.00000E+00
 -1      2745 9.99000E+01 4.09070E+01 0.00000E+00
 -1      2746 9.76500E+01 3.96080E+01 0.00000E+00
 -1      2747 1.01400E+02 4.09070E+01 0.00000E+00
 -1      2748 1.02900E+02 4.09070E+01 0.00000E+00
 -1      2749 1.00650E+02 3.96080E+01 0.00000E+00
 -1      2750 1.04400E+02 4.09070E+01 0.00000E+00
 -1      2751 1.05900E+02 4.09070E+01 0.00000E+00
 -1      2752 1.03650E+02 3.96080E+01 0.00000E+00
 -1      2753 1.07400E+02 4.09070E+01 0.00000E+00
 -1      2754 1.08900E+02 4.09070E+01 0.00000E+00
 -1      2755 1.06650E+02 3.96080E+01 0.00000E+00
 -1      2756 1.10400E+02 4.09070E+01 0.00000E+00
 -1      2757 1.11900E+02 4.09070E+01 0.00000E+00
 -1      2758 1.09650E+02 3.96080E+01 0.00000E+00
 -1      2759 1.13400E+02 4.09070E+01 0.00000E+00
 -1      2760 1.14900E+02 4.09070E+01 0.00000E+00
 -1      2761 1.12650E+02 3.96080E+01 0.00000E+00
 -1      2762 1.16400E+02 4.09070E+01 0.00000E+00
 -1      2763 1.17900E+02 4.09070E+01 0.00000E+00
 -1      2764 1.15650E+02 3.96080E+01 0.00000E+00
 -1      2765 1.19400E+02 4.09070E+01 0.00000E+00
 -1      2766 1.20900E+02 4.09070E+01 0.00000E+00
 -1      2767 1.18650E+02 3.96080E+01 0.00000E+00
 -1      2768 1.22400E+02 4.09070E+01 0.00000E+00
 -1      2769 1.23900E+02 4.09070E+01 0.00000E+00
 -1      2770 1.21650E+02 3.96080E+01 0.00000E+00
 -1      2771 1.25400E+02 4.09070E+01 0.00000E+00
 -1      2772 1.26900E+02 4.09070E+01 0.00000E+00
 -1      2773 1.24650E+02 3.96080E+01 0.00000E+00
 -1      2774 1.28400E+02 4.09070E+01 0.00000E+00
 -1      2775 1.29900E+02 4.09070E+01 0.00000E+00
 -1      2776 1.27650E+02 3.96080E+01 0.00000E+00
 -1      2777 1.31400E+02 4.09070E+01 0.00000E+00
 -1      2778 1.32900E+02 4.09070E+01 0.00000E+00
 -1      2779 1.30650E+02 3.96080E+01 0.00000E+00
 -1      2780 1.34400E+02 4.09070E+01 0.00000E+00
 -1      2781 1.35900E+02 4.09070E+01 0.00000E+00
 -1      2782 1.33650E+02 3.96080E+01 0.00000E+00
 -1      2783 1.37031E+02 4.07491E+01 0.00000E+00
 -1      2784 1.38531E+02 4.07491E+01 0.00000E+00
 -1      2785 1.38543E+02 3.91344E+01 0.00000E+00
 -1      2786 1.36281E+02 3.94501E+01 0.00000E+00
 -1      2787 2.12850E+01 7.90325E+00 0.00000E+00
 -1      2788 1.97850E+01 7.90325E+00 0.00000E+00
 -1      2789 3.02850E+01 7.90325E+00 0.00000E+00
 -1      2790 2.87850E+01 7.90325E+00 0.00000E+00
 -1      2791 3.32850E+01 7.90325E+00 0.00000E+00
 -1      2792 3.17850E+01 7.90325E+00 0.00000E+00
 -1      2793 3.10350E+01 9.20225E+00 0.00000E+00
 -1      2794 3.62850E+01 7.90325E+00 0.00000E+00
 -1      2795 3.47850E+01 7.90325E+00 0.00000E+00
 -1      2796 3.40350E+01 9.20225E+00 0.00000E+00
 -1      2797 3.92850E+01 7.90325E+00 0.00000E+00
 -1      2798 3.77850E+01 7.90325E+00 0.00000E+00
 -1      2799 3.70350E+01 9.20225E+00 0.00000E+00
 -1      2800 4.22850E+01 7.90325E+00 0.00000E+00
 -1      2801 4.07850E+01 7.90325E+00 0.00000E+00
 -1      2802 4.00350E+01 9.20225E+00 0.00000E+00
 -1      2803 4.52850E+01 7.90325E+00 0.00000E+00
 -1      2804 4.37850E+01 7.90325E+00 0.00000E+00
 -1      2805 4.30350E+01 9.20225E+00 0.00000E+00
 -1      2806 4.82850E+01 7.90325E+00 0.00000E+00
 -1      2807 4.67850E+01 7.90325E+00 0.00000E+00
 -1      2808 4.60350E+01 9.20225E+00 0.00000E+00
 -1      2809 5.12850E+01 7.90325E+00 0.00000E+00
 -1      2810 4.97850E+01 7.90325E+00 0.00000E+00
 -1      2811 4.90350E+01 9.20225E+00 0.00000E+00
 -1      2812 5.42850E+01 7.90325E+00 0.00000E+00
 -1      2813 5.27850E+01 7.90325E+00 0.00000E+00
 -1      2814 5.20350E+01 9.20225E+00 0.00000E+00
 -1      2815 5.72850E+01 7.90325E+00 0.00000E+00
 -1      2816 5.57850E+01 7.90325E+00 0.00000E+00
 -1      2817 5.50350E+01 9.20225E+00 0.00000E+00
 -1      2818 6.02850E+01 7.90325E+00 0.00000E+00
 -1      2819 5.87850E+01 7.90325E+00 0.00000E+00
 -1      2820 5.80350E+01 9.20225E+00 0.00000E+00
 -1      2821 6.32850E+01 7.90325E+00 0.00000E+00
 -1      2822 6.17850E+01 7.90325E+00 0.00000E+00
 -1      2823 6.10350E+01 9.20225E+00 0.00000E+00
 -1      2824 6.62850E+01 7.90325E+00 0.00000E+00
 -1      2825 6.47850E+01 7.90325E+00 0.00000E+00
 -1      2826 6.40350E+01 9.20225E+00 0.00000E+00
 -1      2827 6.92850E+01 7.90325E+00 0.00000E+00
 -1      2828 6.77850E+01 7.90325E+00 0.00000E+00
 -1      2829 6.70350E+01 9.20225E+00 0.00000E+00
 -1      2830 7.22850E+01 7.90325E+00 0.00000E+00
 -1      2831 7.07850E+01 7.90325E+00 0.00000E+00
 -1      2832 7.00350E+01 9.20225E+00 0.00000E+00
 -1      2833 7.52850E+01 7.90325E+00 0.00000E+00
 -1      2834 7.37850E+01 7.90325E+00 0.00000E+00
 -1      2835 7.30350E+01 9.20225E+00 0.00000E+00
 -1      2836 7.82850E+01 7.90325E+00 0.00000E+00
 -1      2837 7.67850E+01 7.90325E+00 0.00000E+00
 -1      2838 7.60350E+01 9.20225E+00 0.00000E+00
 -1      2839 8.12850E+01 7.90325E+00 0.00000E+00
 -1      2840 7.97850E+01 7.90325E+00 0.00000E+00
 -1      2841 7.90350E+01 9.20225E+00 0.00000E+00
 -1      2842 8.42850E+01 7.90325E+00 0.00000E+00
 -1      2843 8.27850E+01 7.90325E+00 0.00000E+00
 -1      2844 8.20350E+01 9.20225E+00 0.00000E+00
 -1      2845 8.72850E+01 7.90325E+00 0.00000E+00
 -1      2846 8.57850E+01 7.90325E+00 0.00000E+00
 -1      2847 8.50350E+01 9.20225E+00 0.00000E+00
 -1      2848 9.02850E+01 7.90325E+00 0.00000E+00
 -1      2849 8.87850E+01 7.90325E+00 0.00000E+00
 -1      2850 8.80350E+01 9.20225E+00 0.00000E+00
 -1      2851 9.32850E+01 7.90325E+00 0.00000E+00
 -1      2852 9.17850E+01 7.90325E+00 0.00000E+00
 -1      2853 9.10350E+01 9.20225E+00 0.00000E+00
 -1      2854 9.62850E+01 7.90325E+00 0.00000E+00
 -1      2855 9.47850E+01 7.90325E+00 0.00000E+00
 -1      2856 9.40350E+01 9.20225E+00 0.00000E+00
 -1      2857 9.92850E+01 7.90325E+00 0.00000E+00
 -1      2858 9.77850E+01 7.90325E+00 0.00000E+00
 -1      2859 9.70350E+01 9.20225E+00 0.00000E+00
 -1      2860 1.02285E+02 7.90325E+00 0.00000E+00
 -1      2861 1.00785E+02 7.90325E+00 0.00000E+00
 -1      2862 1.00035E+02 9.20225E+00 0.00000E+00
 -1      2863 1.05285E+02 7.90325E+00 0.00000E+00
 -1      2864 1.03785E+02 7.90325E+00 0.00000E+00
 -1      2865 1.03035E+02 9.20225E+00 0.00000E+00
 -1      2866 1.08285E+02 7.90325E+00 0.00000E+00
 -1      2867 1.06785E+02 7.90325E+00 0.00000E+00
 -1      2868 1.06035E+02 9.20225E+00 0.00000E+00
 -1      2869 1.11285E+02 7.90325E+00 0.00000E+00
 -1      2870 1.09785E+02 7.90325E+00 0.00000E+00
 -1      2871 1.09035E+02 9.20225E+00 0.00000E+00
 -1      2872 1.14285E+02 7.90325E+00 0.00000E+00
 -1      2873 1.12785E+02 7.90325E+00 0.00000E+00
 -1      2874 1.12035E+02 9.20225E+00 0.00000E+00
 -1      2875 1.17285E+02 7.90325E+00 0.00000E+00
 -1      2876 1.15785E+02 7.90325E+00 0.00000E+00
 -1      2877 1.15035E+02 9.20225E+00 0.00000E+00
 -1      2878 1.20285E+02 7.90325E+00 0.00000E+00
 -1      2879 1.18785E+02 7.90325E+00 0.00000E+00
 -1      2880 1.18035E+02 9.20225E+00 0.00000E+00
 -1      2881 1.23285E+02 7.90325E+00 0.00000E+00
 -1      2882 1.21785E+02 7.90325E+00 0.00000E+00
 -1      2883 1.21035E+02 9.20225E+00 0.00000E+00
 -1      2884 1.26285E+02 7.90325E+00 0.00000E+00
 -1      2885 1.24785E+02 7.90325E+00 0.00000E+00
 -1      2886 1.24035E+02 9.20225E+00 0.00000E+00
 -1      2887 1.33210E+02 8.14583E+00 0.00000E+00
 -1      2888 1.31710E+02 8.14583E+00 0.00000E+00
 -1      2889 1.38285E+02 7.71316E+00 0.00000E+00
 -1      2890 1.36785E+02 7.71316E+00 0.00000E+00
 -1      2891 1.41455E+02 3.62625E+01 0.00000E+00
 -1      2892 1.41455E+02 3.47875E+01 0.00000E+00
 -1      2893 1.35260E+02 9.50378E+00 0.00000E+00
 -1      2894 1.36305E+02 9.72638E+00 0.00000E+00
 -1      2895 1.33976E+02 9.93883E+00 0.00000E+00
 -1      2896 1.41214E+02 3.79882E+01 0.00000E+00
 -1      2897 1.41650E+02 3.24403E+01 0.00000E+00
 -1      2898 1.82850E+01 7.90325E+00 0.00000E+00
 -1      2899 1.67850E+01 7.90325E+00 0.00000E+00
 -1      2900 1.90350E+01 9.20225E+00 0.00000E+00
 -1      2901 1.37097E+02 9.72876E+00 0.00000E+00
 -1      2902 1.38203E+02 9.96742E+00 0.00000E+00
 -1      2903 1.32461E+02 3.37756E+01 0.00000E+00
 -1      2904 1.31244E+02 3.32144E+01 0.00000E+00
 -1      2905 8.85168E+00 4.05347E+01 0.00000E+00
 -1      2906 1.02152E+01 4.07987E+01 0.00000E+00
 -1      2907 1.23300E+02 2.53143E+01 0.00000E+00
 -1      2908 1.23116E+02 2.42055E+01 0.00000E+00
 -1      2909 1.22630E+02 2.05698E+01 0.00000E+00
 -1      2910 1.22817E+02 1.94043E+01 0.00000E+00
 -1      2911 1.23016E+02 1.81277E+01 0.00000E+00
 -1      2912 1.23344E+02 1.69888E+01 0.00000E+00
 -1      2913 2.72850E+01 7.90325E+00 0.00000E+00
 -1      2914 2.57850E+01 7.90325E+00 0.00000E+00
 -1      2915 2.80350E+01 9.20225E+00 0.00000E+00
 -1      2916 2.42850E+01 7.90325E+00 0.00000E+00
 -1      2917 2.27850E+01 7.90325E+00 0.00000E+00
 -1      2918 2.50350E+01 9.20225E+00 0.00000E+00
 -1      2919 1.15576E+01 4.08528E+01 0.00000E+00
 -1      2920 1.30576E+01 4.08528E+01 0.00000E+00
 -1      2921 1.38076E+01 3.95538E+01 0.00000E+00
 -1      2922 1.11228E+01 3.94455E+01 0.00000E+00
 -1      2923 1.52850E+01 7.90325E+00 0.00000E+00
 -1      2924 1.37850E+01 7.90325E+00 0.00000E+00
 -1      2925 1.30350E+01 9.20225E+00 0.00000E+00
 -1      2926 1.60350E+01 9.20225E+00 0.00000E+00
 -1      2927 1.24165E+02 1.56792E+01 0.00000E+00
 -1      2928 1.24948E+02 1.46935E+01 0.00000E+00
 -1      2929 9.09300E+00 1.68813E+01 0.00000E+00
 -1      2930 9.09300E+00 1.83563E+01 0.00000E+00
 -1      2931 1.03920E+01 1.90812E+01 0.00000E+00
 -1      2932 1.03920E+01 1.61437E+01 0.00000E+00
 -1      2933 1.29403E+02 1.07399E+01 0.00000E+00
 -1      2934 1.30535E+02 1.00711E+01 0.00000E+00
 -1      2935 1.22873E+02 2.30940E+01 0.00000E+00
 -1      2936 1.22629E+02 2.19825E+01 0.00000E+00
 -1      2937 1.22118E+02 2.37883E+01 0.00000E+00
 -1      2938 1.28056E+02 3.19735E+01 0.00000E+00
 -1      2939 1.27158E+02 3.13861E+01 0.00000E+00
 -1      2940 9.09300E+00 3.15875E+01 0.00000E+00
 -1      2941 9.09300E+00 3.30625E+01 0.00000E+00
 -1      2942 1.27486E+02 1.18898E+01 0.00000E+00
 -1      2943 1.28324E+02 1.13196E+01 0.00000E+00
 -1      2944 1.25691E+02 1.36314E+01 0.00000E+00
 -1      2945 1.26500E+02 1.27539E+01 0.00000E+00
 -1      2946 1.30280E+02 3.28415E+01 0.00000E+00
 -1      2947 1.29316E+02 3.24687E+01 0.00000E+00
 -1      2948 1.30529E+02 3.39009E+01 0.00000E+00
 -1      2949 1.35491E+02 3.39449E+01 0.00000E+00
 -1      2950 1.34201E+02 3.41217E+01 0.00000E+00
 -1      2951 7.48818E+00 3.88019E+01 0.00000E+00
 -1      2952 1.37994E+02 3.32079E+01 0.00000E+00
 -1      2953 1.36838E+02 3.35648E+01 0.00000E+00
 -1      2954 1.03920E+01 2.49750E+01 0.00000E+00
 -1      2955 9.09300E+00 2.57000E+01 0.00000E+00
 -1      2956 9.09300E+00 2.71750E+01 0.00000E+00
 -1      2957 1.23097E+02 1.59885E+01 0.00000E+00
 -1      2958 1.22850E+02 1.49882E+01 0.00000E+00
 -1      2959 1.22028E+02 1.62978E+01 0.00000E+00
 -1      2960 1.41655E+02 1.04064E+01 0.00000E+00
 -1      2961 1.41728E+02 1.14541E+01 0.00000E+00
 -1      2962 9.09300E+00 3.45313E+01 0.00000E+00
 -1      2963 9.09300E+00 3.60000E+01 0.00000E+00
 -1      2964 1.03920E+01 3.37938E+01 0.00000E+00
 -1      2965 9.66450E+00 9.72612E+00 0.00000E+00
 -1      2966 1.42872E+02 4.39870E+01 0.00000E+00
 -1      2967 2.20350E+01 9.20225E+00 0.00000E+00
 -1      2968 1.30786E+02 8.53973E+00 0.00000E+00
 -1      2969 1.34141E+02 7.25946E+00 0.00000E+00
 -1      2970 1.34316E+02 8.80104E+00 0.00000E+00
 -1      2971 1.29285E+02 7.79695E+00 0.00000E+00
 -1      2972 1.27785E+02 7.79695E+00 0.00000E+00
 -1      2973 1.35641E+02 7.25946E+00 0.00000E+00
 -1      2974 1.41285E+02 7.71316E+00 0.00000E+00
 -1      2975 1.39785E+02 7.71316E+00 0.00000E+00
 -1      2976 1.36744E+02 8.81969E+00 0.00000E+00
 -1      2977 1.34907E+02 9.05246E+00 0.00000E+00
 -1      2978 1.22076E+02 1.85747E+01 0.00000E+00
 -1      2979 1.23209E+02 2.61422E+01 0.00000E+00
 -1      2980 1.22271E+02 2.57277E+01 0.00000E+00
 -1      2981 1.23117E+02 2.69701E+01 0.00000E+00
 -1      2982 1.36322E+02 3.45858E+01 0.00000E+00
 -1      2983 1.28454E+02 1.02467E+01 0.00000E+00
 -1      2984 1.21876E+02 2.12641E+01 0.00000E+00
 -1      2985 1.38857E+02 3.33583E+01 0.00000E+00
 -1      2986 1.33234E+02 3.46198E+01 0.00000E+00
 -1      2987 1.32266E+02 3.51180E+01 0.00000E+00
 -1      2988 1.34006E+02 3.54641E+01 0.00000E+00
 -1      2989 8.78718E+00 3.80644E+01 0.00000E+00
 -1      2990 1.26218E+02 3.23776E+01 0.00000E+00
 -1      2991 1.26329E+02 3.12259E+01 0.00000E+00
 -1      2992 1.25501E+02 3.10658E+01 0.00000E+00
 -1      2993 1.24834E+02 2.86493E+01 0.00000E+00
 -1      2994 1.23940E+02 2.83682E+01 0.00000E+00
 -1      2995 1.24719E+02 2.96330E+01 0.00000E+00
 -1      2996 9.09300E+00 2.86437E+01 0.00000E+00
 -1      2997 9.09300E+00 3.01187E+01 0.00000E+00
 -1      2998 1.03920E+01 3.08563E+01 0.00000E+00
 -1      2999 1.03920E+01 2.79188E+01 0.00000E+00
 -1      3000 1.24661E+02 1.36168E+01 0.00000E+00
 -1      3001 1.26389E+02 1.16905E+01 0.00000E+00
 -1      3002 1.28305E+02 3.30329E+01 0.00000E+00
 -1      3003 1.09635E+01 1.04636E+01 0.00000E+00
 -1      3004 1.40713E+02 9.67998E+00 0.00000E+00
 -1      3005 1.41477E+02 9.54854E+00 0.00000E+00
 -1      3006 1.39035E+02 8.82207E+00 0.00000E+00
 -1      3007 1.27035E+02 9.09595E+00 0.00000E+00
 -1      3008 1.39915E+02 3.72507E+01 0.00000E+00
 -1      3009 1.39703E+02 9.96742E+00 0.00000E+00
 -1      3010 1.16910E+01 1.24625E+01 0.00000E+00
 -1      3011 1.16910E+01 1.39375E+01 0.00000E+00
 -1      3012 1.59000E+01 3.83090E+01 0.00000E+00
 -1      3013 1.74000E+01 3.83090E+01 0.00000E+00
 -1      3014 3.77850E+01 1.05013E+01 0.00000E+00
 -1      3015 3.62850E+01 1.05013E+01 0.00000E+00
 -1      3016 1.89000E+01 3.83090E+01 0.00000E+00
 -1      3017 2.04000E+01 3.83090E+01 0.00000E+00
 -1      3018 1.81500E+01 3.70100E+01 0.00000E+00
 -1      3019 2.19000E+01 3.83090E+01 0.00000E+00
 -1      3020 2.34000E+01 3.83090E+01 0.00000E+00
 -1      3021 2.11500E+01 3.70100E+01 0.00000E+00
 -1      3022 2.49000E+01 3.83090E+01 0.00000E+00
 -1      3023 2.64000E+01 3.83090E+01 0.00000E+00
 -1      3024 2.41500E+01 3.70100E+01 0.00000E+00
 -1      3025 2.79000E+01 3.83090E+01 0.00000E+00
 -1      3026 2.94000E+01 3.83090E+01 0.00000E+00
 -1      3027 2.71500E+01 3.70100E+01 0.00000E+00
 -1      3028 3.09000E+01 3.83090E+01 0.00000E+00
 -1      3029 3.24000E+01 3.83090E+01 0.00000E+00
 -1      3030 3.01500E+01 3.70100E+01 0.00000E+00
 -1      3031 3.39000E+01 3.83090E+01 0.00000E+00
 -1      3032 3.54000E+01 3.83090E+01 0.00000E+00
 -1      3033 3.31500E+01 3.70100E+01 0.00000E+00
 -1      3034 3.69000E+01 3.83090E+01 0.00000E+00
 -1      3035 3.84000E+01 3.83090E+01 0.00000E+00
 -1      3036 3.61500E+01 3.70100E+01 0.00000E+00
 -1      3037 3.99000E+01 3.83090E+01 0.00000E+00
 -1      3038 4.14000E+01 3.83090E+01 0.00000E+00
 -1      3039 3.91500E+01 3.70100E+01 0.00000E+00
 -1      3040 4.29000E+01 3.83090E+01 0.00000E+00
 -1      3041 4.44000E+01 3.83090E+01 0.00000E+00
 -1      3042 4.21500E+01 3.70100E+01 0.00000E+00
 -1      3043 4.59000E+01 3.83090E+01 0.00000E+00
 -1      3044 4.74000E+01 3.83090E+01 0.00000E+00
 -1      3045 4.51500E+01 3.70100E+01 0.00000E+00
 -1      3046 4.89000E+01 3.83090E+01 0.00000E+00
 -1      3047 5.04000E+01 3.83090E+01 0.00000E+00
 -1      3048 4.81500E+01 3.70100E+01 0.00000E+00
 -1      3049 5.19000E+01 3.83090E+01 0.00000E+00
 -1      3050 5.34000E+01 3.83090E+01 0.00000E+00
 -1      3051 5.11500E+01 3.70100E+01 0.00000E+00
 -1      3052 5.49000E+01 3.83090E+01 0.00000E+00
 -1      3053 5.64000E+01 3.83090E+01 0.00000E+00
 -1      3054 5.41500E+01 3.70100E+01 0.00000E+00
 -1      3055 5.79000E+01 3.83090E+01 0.00000E+00
 -1      3056 5.94000E+01 3.83090E+01 0.00000E+00
 -1      3057 5.71500E+01 3.70100E+01 0.00000E+00
 -1      3058 6.09000E+01 3.83090E+01 0.00000E+00
 -1      3059 6.24000E+01 3.83090E+01 0.00000E+00
 -1      3060 6.01500E+01 3.70100E+01 0.00000E+00
 -1      3061 6.39000E+01 3.83090E+01 0.00000E+00
 -1      3062 6.54000E+01 3.83090E+01 0.00000E+00
 -1      3063 6.31500E+01 3.70100E+01 0.00000E+00
 -1      3064 6.69000E+01 3.83090E+01 0.00000E+00
 -1      3065 6.84000E+01 3.83090E+01 0.00000E+00
 -1      3066 6.61500E+01 3.70100E+01 0.00000E+00
 -1      3067 6.99000E+01 3.83090E+01 0.00000E+00
 -1      3068 7.14000E+01 3.83090E+01 0.00000E+00
 -1      3069 6.91500E+01 3.70100E+01 0.00000E+00
 -1      3070 7.29000E+01 3.83090E+01 0.00000E+00
 -1      3071 7.44000E+01 3.83090E+01 0.00000E+00
 -1      3072 7.21500E+01 3.70100E+01 0.00000E+00
 -1      3073 7.59000E+01 3.83090E+01 0.00000E+00
 -1      3074 7.74000E+01 3.83090E+01 0.00000E+00
 -1      3075 7.51500E+01 3.70100E+01 0.00000E+00
 -1      3076 7.89000E+01 3.83090E+01 0.00000E+00
 -1      3077 8.04000E+01 3.83090E+01 0.00000E+00
 -1      3078 7.81500E+01 3.70100E+01 0.00000E+00
 -1      3079 8.19000E+01 3.83090E+01 0.00000E+00
 -1      3080 8.34000E+01 3.83090E+01 0.00000E+00
 -1      3081 8.11500E+01 3.70100E+01 0.00000E+00
 -1      3082 8.49000E+01 3.83090E+01 0.00000E+00
 -1      3083 8.64000E+01 3.83090E+01 0.00000E+00
 -1      3084 8.41500E+01 3.70100E+01 0.00000E+00
 -1      3085 8.79000E+01 3.83090E+01 0.00000E+00
 -1      3086 8.94000E+01 3.83090E+01 0.00000E+00
 -1      3087 8.71500E+01 3.70100E+01 0.00000E+00
 -1      3088 9.09000E+01 3.83090E+01 0.00000E+00
 -1      3089 9.24000E+01 3.83090E+01 0.00000E+00
 -1      3090 9.01500E+01 3.70100E+01 0.00000E+00
 -1      3091 9.39000E+01 3.83090E+01 0.00000E+00
 -1      3092 9.54000E+01 3.83090E+01 0.00000E+00
 -1      3093 9.31500E+01 3.70100E+01 0.00000E+00
 -1      3094 9.69000E+01 3.83090E+01 0.00000E+00
 -1      3095 9.84000E+01 3.83090E+01 0.00000E+00
 -1      3096 9.61500E+01 3.70100E+01 0.00000E+00
 -1      3097 9.99000E+01 3.83090E+01 0.00000E+00
 -1      3098 1.01400E+02 3.83090E+01 0.00000E+00
 -1      3099 9.91500E+01 3.70100E+01 0.00000E+00
 -1      3100 1.02900E+02 3.83090E+01 0.00000E+00
 -1      3101 1.04400E+02 3.83090E+01 0.00000E+00
 -1      3102 1.02150E+02 3.70100E+01 0.00000E+00
 -1      3103 1.05900E+02 3.83090E+01 0.00000E+00
 -1      3104 1.07400E+02 3.83090E+01 0.00000E+00
 -1      3105 1.05150E+02 3.70100E+01 0.00000E+00
 -1      3106 1.08900E+02 3.83090E+01 0.00000E+00
 -1      3107 1.10400E+02 3.83090E+01 0.00000E+00
 -1      3108 1.08150E+02 3.70100E+01 0.00000E+00
 -1      3109 1.11900E+02 3.83090E+01 0.00000E+00
 -1      3110 1.13400E+02 3.83090E+01 0.00000E+00
 -1      3111 1.11150E+02 3.70100E+01 0.00000E+00
 -1      3112 1.14900E+02 3.83090E+01 0.00000E+00
 -1      3113 1.16400E+02 3.83090E+01 0.00000E+00
 -1      3114 1.14150E+02 3.70100E+01 0.00000E+00
 -1      3115 1.17900E+02 3.83090E+01 0.00000E+00
 -1      3116 1.19400E+02 3.83090E+01 0.00000E+00
 -1      3117 1.17150E+02 3.70100E+01 0.00000E+00
 -1      3118 1.20900E+02 3.83090E+01 0.00000E+00
 -1      3119 1.22400E+02 3.83090E+01 0.00000E+00
 -1      3120 1.20150E+02 3.70100E+01 0.00000E+00
 -1      3121 1.23900E+02 3.83090E+01 0.00000E+00
 -1      3122 1.25400E+02 3.83090E+01 0.00000E+00
 -1      3123 1.23150E+02 3.70100E+01 0.00000E+00
 -1      3124 1.26900E+02 3.83090E+01 0.00000E+00
 -1      3125 1.28400E+02 3.83090E+01 0.00000E+00
 -1      3126 1.26150E+02 3.70100E+01 0.00000E+00
 -1      3127 1.32594E+02 3.77851E+01 0.00000E+00
 -1      3128 1.34094E+02 3.77851E+01 0.00000E+00
 -1      3129 3.47850E+01 1.05013E+01 0.00000E+00
 -1      3130 3.32850E+01 1.05013E+01 0.00000E+00
 -1      3131 3.55350E+01 1.18003E+01 0.00000E+00
 -1      3132 3.17850E+01 1.05013E+01 0.00000E+00
 -1      3133 3.02850E+01 1.05013E+01 0.00000E+00
 -1      3134 3.25350E+01 1.18003E+01 0.00000E+00
 -1      3135 4.07850E+01 1.05013E+01 0.00000E+00
 -1      3136 3.92850E+01 1.05013E+01 0.00000E+00
 -1      3137 3.85350E+01 1.18003E+01 0.00000E+00
 -1      3138 4.37850E+01 1.05013E+01 0.00000E+00
 -1      3139 4.22850E+01 1.05013E+01 0.00000E+00
 -1      3140 4.15350E+01 1.18003E+01 0.00000E+00
 -1      3141 4.67850E+01 1.05013E+01 0.00000E+00
 -1      3142 4.52850E+01 1.05013E+01 0.00000E+00
 -1      3143 4.45350E+01 1.18003E+01 0.00000E+00
 -1      3144 4.97850E+01 1.05013E+01 0.00000E+00
 -1      3145 4.82850E+01 1.05013E+01 0.00000E+00
 -1      3146 4.75350E+01 1.18003E+01 0.00000E+00
 -1      3147 5.27850E+01 1.05013E+01 0.00000E+00
 -1      3148 5.12850E+01 1.05013E+01 0.00000E+00
 -1      3149 5.05350E+01 1.18003E+01 0.00000E+00
 -1      3150 5.57850E+01 1.05013E+01 0.00000E+00
 -1      3151 5.42850E+01 1.05013E+01 0.00000E+00
 -1      3152 5.35350E+01 1.18003E+01 0.00000E+00
 -1      3153 5.87850E+01 1.05013E+01 0.00000E+00
 -1      3154 5.72850E+01 1.05013E+01 0.00000E+00
 -1      3155 5.65350E+01 1.18003E+01 0.00000E+00
 -1      3156 6.17850E+01 1.05013E+01 0.00000E+00
 -1      3157 6.02850E+01 1.05013E+01 0.00000E+00
 -1      3158 5.95350E+01 1.18003E+01 0.00000E+00
 -1      3159 6.47850E+01 1.05013E+01 0.00000E+00
 -1      3160 6.32850E+01 1.05013E+01 0.00000E+00
 -1      3161 6.25350E+01 1.18003E+01 0.00000E+00
 -1      3162 6.77850E+01 1.05013E+01 0.00000E+00
 -1      3163 6.62850E+01 1.05013E+01 0.00000E+00
 -1      3164 6.55350E+01 1.18003E+01 0.00000E+00
 -1      3165 7.07850E+01 1.05013E+01 0.00000E+00
 -1      3166 6.92850E+01 1.05013E+01 0.00000E+00
 -1      3167 6.85350E+01 1.18003E+01 0.00000E+00
 -1      3168 7.37850E+01 1.05013E+01 0.00000E+00
 -1      3169 7.22850E+01 1.05013E+01 0.00000E+00
 -1      3170 7.15350E+01 1.18003E+01 0.00000E+00
 -1      3171 7.67850E+01 1.05013E+01 0.00000E+00
 -1      3172 7.52850E+01 1.05013E+01 0.00000E+00
 -1      3173 7.45350E+01 1.18003E+01 0.00000E+00
 -1      3174 7.97850E+01 1.05013E+01 0.00000E+00
 -1      3175 7.82850E+01 1.05013E+01 0.00000E+00
 -1      3176 7.75350E+01 1.18003E+01 0.00000E+00
 -1      3177 8.27850E+01 1.05013E+01 0.00000E+00
 -1      3178 8.12850E+01 1.05013E+01 0.00000E+00
 -1      3179 8.05350E+01 1.18003E+01 0.00000E+00
 -1      3180 8.57850E+01 1.05013E+01 0.00000E+00
 -1      3181 8.42850E+01 1.05013E+01 0.00000E+00
 -1      3182 8.35350E+01 1.18003E+01 0.00000E+00
 -1      3183 8.87850E+01 1.05013E+01 0.00000E+00
 -1      3184 8.72850E+01 1.05013E+01 0.00000E+00
 -1      3185 8.65350E+01 1.18003E+01 0.00000E+00
 -1      3186 9.17850E+01 1.05013E+01 0.00000E+00
 -1      3187 9.02850E+01 1.05013E+01 0.00000E+00
 -1      3188 8.95350E+01 1.18003E+01 0.00000E+00
 -1      3189 9.47850E+01 1.05013E+01 0.00000E+00
 -1      3190 9.32850E+01 1.05013E+01 0.00000E+00
 -1      3191 9.25350E+01 1.18003E+01 0.00000E+00
 -1      3192 9.77850E+01 1.05013E+01 0.00000E+00
 -1      3193 9.62850E+01 1.05013E+01 0.00000E+00
 -1      3194 9.55350E+01 1.18003E+01 0.00000E+00
 -1      3195 1.00785E+02 1.05013E+01 0.00000E+00
 -1      3196 9.92850E+01 1.05013E+01 0.00000E+00
 -1      3197 9.85350E+01 1.18003E+01 0.00000E+00
 -1      3198 1.03785E+02 1.05013E+01 0.00000E+00
 -1      3199 1.02285E+02 1.05013E+01 0.00000E+00
 -1      3200 1.01535E+02 1.18003E+01 0.00000E+00
 -1      3201 1.06785E+02 1.05013E+01 0.00000E+00
 -1      3202 1.05285E+02 1.05013E+01 0.00000E+00
 -1      3203 1.04535E+02 1.18003E+01 0.00000E+00
 -1      3204 1.09785E+02 1.05013E+01 0.00000E+00
 -1      3205 1.08285E+02 1.05013E+01 0.00000E+00
 -1      3206 1.07535E+02 1.18003E+01 0.00000E+00
 -1      3207 1.12785E+02 1.05013E+01 0.00000E+00
 -1      3208 1.11285E+02 1.05013E+01 0.00000E+00
 -1      3209 1.10535E+02 1.18003E+01 0.00000E+00
 -1      3210 1.15785E+02 1.05013E+01 0.00000E+00
 -1      3211 1.14285E+02 1.05013E+01 0.00000E+00
 -1      3212 1.13535E+02 1.18003E+01 0.00000E+00
 -1      3213 1.18785E+02 1.05013E+01 0.00000E+00
 -1      3214 1.17285E+02 1.05013E+01 0.00000E+00
 -1      3215 1.16535E+02 1.18003E+01 0.00000E+00
 -1      3216 1.21785E+02 1.05013E+01 0.00000E+00
 -1      3217 1.20285E+02 1.05013E+01 0.00000E+00
 -1      3218 1.19535E+02 1.18003E+01 0.00000E+00
 -1      3219 1.36391E+02 8.36837E+00 0.00000E+00
 -1      3220 1.21129E+02 1.90808E+01 0.00000E+00
 -1      3221 1.21328E+02 1.78041E+01 0.00000E+00
 -1      3222 1.97850E+01 1.05013E+01 0.00000E+00
 -1      3223 1.82850E+01 1.05013E+01 0.00000E+00
 -1      3224 2.27850E+01 1.05013E+01 0.00000E+00
 -1      3225 2.12850E+01 1.05013E+01 0.00000E+00
 -1      3226 2.05350E+01 1.18003E+01 0.00000E+00
 -1      3227 1.00862E+01 3.73269E+01 0.00000E+00
 -1      3228 1.37274E+02 3.53824E+01 0.00000E+00
 -1      3229 1.35926E+02 3.57625E+01 0.00000E+00
 -1      3230 2.57850E+01 1.05013E+01 0.00000E+00
 -1      3231 2.42850E+01 1.05013E+01 0.00000E+00
 -1      3232 2.35350E+01 1.18003E+01 0.00000E+00
 -1      3233 2.87850E+01 1.05013E+01 0.00000E+00
 -1      3234 2.72850E+01 1.05013E+01 0.00000E+00
 -1      3235 2.65350E+01 1.18003E+01 0.00000E+00
 -1      3236 1.21321E+02 2.45456E+01 0.00000E+00
 -1      3237 1.21077E+02 2.34341E+01 0.00000E+00
 -1      3238 1.29784E+02 8.13566E+00 0.00000E+00
 -1      3239 1.21018E+02 2.19698E+01 0.00000E+00
 -1      3240 1.21019E+02 2.05571E+01 0.00000E+00
 -1      3241 1.28530E+02 3.43125E+01 0.00000E+00
 -1      3242 1.27270E+02 3.38174E+01 0.00000E+00
 -1      3243 1.26488E+01 1.02017E+01 0.00000E+00
 -1      3244 1.20772E+01 1.14631E+01 0.00000E+00
 -1      3245 1.33763E+01 1.22006E+01 0.00000E+00
 -1      3246 1.41488E+01 1.02017E+01 0.00000E+00
 -1      3247 1.30880E+02 3.49017E+01 0.00000E+00
 -1      3248 1.29916E+02 3.45288E+01 0.00000E+00
 -1      3249 1.28880E+02 3.53133E+01 0.00000E+00
 -1      3250 1.31652E+02 3.57459E+01 0.00000E+00
 -1      3251 1.38276E+02 3.77678E+01 0.00000E+00
 -1      3252 1.38517E+02 3.60420E+01 0.00000E+00
 -1      3253 1.23449E+02 1.35605E+01 0.00000E+00
 -1      3254 1.24192E+02 1.24984E+01 0.00000E+00
 -1      3255 1.16910E+01 2.12875E+01 0.00000E+00
 -1      3256 1.16910E+01 2.27625E+01 0.00000E+00
 -1      3257 1.20271E+02 1.97865E+01 0.00000E+00
 -1      3258 1.21081E+02 1.68039E+01 0.00000E+00
 -1      3259 1.20834E+02 1.58036E+01 0.00000E+00
 -1      3260 1.20134E+02 1.73099E+01 0.00000E+00
 -1      3261 1.29900E+01 1.46687E+01 0.00000E+00
 -1      3262 1.16910E+01 1.54063E+01 0.00000E+00
 -1      3263 1.16910E+01 1.68750E+01 0.00000E+00
 -1      3264 1.69669E+01 1.03515E+01 0.00000E+00
 -1      3265 1.54669E+01 1.03515E+01 0.00000E+00
 -1      3266 1.50806E+01 1.13509E+01 0.00000E+00
 -1      3267 1.77169E+01 1.16505E+01 0.00000E+00
 -1      3268 1.27955E+02 9.90803E+00 0.00000E+00
 -1      3269 1.26455E+02 1.00143E+01 0.00000E+00
 -1      3270 2.95350E+01 1.18003E+01 0.00000E+00
 -1      3271 1.37145E+02 3.79257E+01 0.00000E+00
 -1      3272 1.31208E+02 3.75688E+01 0.00000E+00
 -1      3273 1.29708E+02 3.75688E+01 0.00000E+00
 -1      3274 1.36014E+02 3.80835E+01 0.00000E+00
 -1      3275 1.29034E+02 9.32836E+00 0.00000E+00
 -1      3276 1.22758E+02 1.08222E+01 0.00000E+00
 -1      3277 1.22008E+02 1.21212E+01 0.00000E+00
 -1      3278 1.14286E+01 3.73811E+01 0.00000E+00
 -1      3279 1.24258E+02 1.08222E+01 0.00000E+00
 -1      3280 1.25469E+02 1.08785E+01 0.00000E+00
 -1      3281 1.40100E+02 3.40179E+01 0.00000E+00
 -1      3282 1.41399E+02 3.32804E+01 0.00000E+00
 -1      3283 1.23002E+02 2.79537E+01 0.00000E+00
 -1      3284 1.22064E+02 2.75391E+01 0.00000E+00
 -1      3285 1.22887E+02 2.89373E+01 0.00000E+00
 -1      3286 1.20220E+02 2.27271E+01 0.00000E+00
 -1      3287 1.38912E+02 3.48654E+01 0.00000E+00
 -1      3288 1.24607E+02 3.07846E+01 0.00000E+00
 -1      3289 1.23713E+02 3.05035E+01 0.00000E+00
 -1      3290 1.24495E+02 3.19363E+01 0.00000E+00
 -1      3291 1.21138E+02 2.62013E+01 0.00000E+00
 -1      3292 1.21230E+02 2.53734E+01 0.00000E+00
 -1      3293 1.20188E+02 2.50192E+01 0.00000E+00
 -1      3294 1.32152E+01 3.82007E+01 0.00000E+00
 -1      3295 1.45576E+01 3.82548E+01 0.00000E+00
 -1      3296 1.53076E+01 3.69558E+01 0.00000E+00
 -1      3297 1.22381E+02 1.38698E+01 0.00000E+00
 -1      3298 1.16910E+01 2.42375E+01 0.00000E+00
 -1      3299 1.16910E+01 2.57125E+01 0.00000E+00
 -1      3300 1.29900E+01 2.35000E+01 0.00000E+00
 -1      3301 1.16910E+01 1.83469E+01 0.00000E+00
 -1      3302 1.16910E+01 1.98156E+01 0.00000E+00
 -1      3303 1.29900E+01 2.05531E+01 0.00000E+00
 -1      3304 1.29900E+01 1.76094E+01 0.00000E+00
 -1      3305 1.16910E+01 3.30594E+01 0.00000E+00
 -1      3306 1.16910E+01 3.45281E+01 0.00000E+00
 -1      3307 1.16910E+01 3.01219E+01 0.00000E+00
 -1      3308 1.16910E+01 3.15906E+01 0.00000E+00
 -1      3309 1.29900E+01 3.23250E+01 0.00000E+00
 -1      3310 1.34958E+02 3.62607E+01 0.00000E+00
 -1      3311 3.02850E+01 1.30992E+01 0.00000E+00
 -1      3312 2.87850E+01 1.30992E+01 0.00000E+00
 -1      3313 1.28958E+02 3.62698E+01 0.00000E+00
 -1      3314 2.04000E+01 3.57110E+01 0.00000E+00
 -1      3315 2.19000E+01 3.57110E+01 0.00000E+00
 -1      3316 2.34000E+01 3.57110E+01 0.00000E+00
 -1      3317 2.49000E+01 3.57110E+01 0.00000E+00
 -1      3318 2.26500E+01 3.44120E+01 0.00000E+00
 -1      3319 2.64000E+01 3.57110E+01 0.00000E+00
 -1      3320 2.79000E+01 3.57110E+01 0.00000E+00
 -1      3321 2.56500E+01 3.44120E+01 0.00000E+00
 -1      3322 2.94000E+01 3.57110E+01 0.00000E+00
 -1      3323 3.09000E+01 3.57110E+01 0.00000E+00
 -1      3324 2.86500E+01 3.44120E+01 0.00000E+00
 -1      3325 3.24000E+01 3.57110E+01 0.00000E+00
 -1      3326 3.39000E+01 3.57110E+01 0.00000E+00
 -1      3327 3.16500E+01 3.44120E+01 0.00000E+00
 -1      3328 3.54000E+01 3.57110E+01 0.00000E+00
 -1      3329 3.69000E+01 3.57110E+01 0.00000E+00
 -1      3330 3.46500E+01 3.44120E+01 0.00000E+00
 -1      3331 3.84000E+01 3.57110E+01 0.00000E+00
 -1      3332 3.99000E+01 3.57110E+01 0.00000E+00
 -1      3333 3.76500E+01 3.44120E+01 0.00000E+00
 -1      3334 4.14000E+01 3.57110E+01 0.00000E+00
 -1      3335 4.29000E+01 3.57110E+01 0.00000E+00
 -1      3336 4.06500E+01 3.44120E+01 0.00000E+00
 -1      3337 4.44000E+01 3.57110E+01 0.00000E+00
 -1      3338 4.59000E+01 3.57110E+01 0.00000E+00
 -1      3339 4.36500E+01 3.44120E+01 0.00000E+00
 -1      3340 4.74000E+01 3.57110E+01 0.00000E+00
 -1      3341 4.89000E+01 3.57110E+01 0.00000E+00
 -1      3342 4.66500E+01 3.44120E+01 0.00000E+00
 -1      3343 5.04000E+01 3.57110E+01 0.00000E+00
 -1      3344 5.19000E+01 3.57110E+01 0.00000E+00
 -1      3345 4.96500E+01 3.44120E+01 0.00000E+00
 -1      3346 5.34000E+01 3.57110E+01 0.00000E+00
 -1      3347 5.49000E+01 3.57110E+01 0.00000E+00
 -1      3348 5.26500E+01 3.44120E+01 0.00000E+00
 -1      3349 5.64000E+01 3.57110E+01 0.00000E+00
 -1      3350 5.79000E+01 3.57110E+01 0.00000E+00
 -1      3351 5.56500E+01 3.44120E+01 0.00000E+00
 -1      3352 5.94000E+01 3.57110E+01 0.00000E+00
 -1      3353 6.09000E+01 3.57110E+01 0.00000E+00
 -1      3354 5.86500E+01 3.44120E+01 0.00000E+00
 -1      3355 6.24000E+01 3.57110E+01 0.00000E+00
 -1      3356 6.39000E+01 3.57110E+01 0.00000E+00
 -1      3357 6.16500E+01 3.44120E+01 0.00000E+00
 -1      3358 6.54000E+01 3.57110E+01 0.00000E+00
 -1      3359 6.69000E+01 3.57110E+01 0.00000E+00
 -1      3360 6.46500E+01 3.44120E+01 0.00000E+00
 -1      3361 6.84000E+01 3.57110E+01 0.00000E+00
 -1      3362 6.99000E+01 3.57110E+01 0.00000E+00
 -1      3363 6.76500E+01 3.44120E+01 0.00000E+00
 -1      3364 7.14000E+01 3.57110E+01 0.00000E+00
 -1      3365 7.29000E+01 3.57110E+01 0.00000E+00
 -1      3366 7.06500E+01 3.44120E+01 0.00000E+00
 -1      3367 7.44000E+01 3.57110E+01 0.00000E+00
 -1      3368 7.59000E+01 3.57110E+01 0.00000E+00
 -1      3369 7.36500E+01 3.44120E+01 0.00000E+00
 -1      3370 7.74000E+01 3.57110E+01 0.00000E+00
 -1      3371 7.89000E+01 3.57110E+01 0.00000E+00
 -1      3372 7.66500E+01 3.44120E+01 0.00000E+00
 -1      3373 8.04000E+01 3.57110E+01 0.00000E+00
 -1      3374 8.19000E+01 3.57110E+01 0.00000E+00
 -1      3375 7.96500E+01 3.44120E+01 0.00000E+00
 -1      3376 8.34000E+01 3.57110E+01 0.00000E+00
 -1      3377 8.49000E+01 3.57110E+01 0.00000E+00
 -1      3378 8.26500E+01 3.44120E+01 0.00000E+00
 -1      3379 8.64000E+01 3.57110E+01 0.00000E+00
 -1      3380 8.79000E+01 3.57110E+01 0.00000E+00
 -1      3381 8.56500E+01 3.44120E+01 0.00000E+00
 -1      3382 8.94000E+01 3.57110E+01 0.00000E+00
 -1      3383 9.09000E+01 3.57110E+01 0.00000E+00
 -1      3384 8.86500E+01 3.44120E+01 0.00000E+00
 -1      3385 9.24000E+01 3.57110E+01 0.00000E+00
 -1      3386 9.39000E+01 3.57110E+01 0.00000E+00
 -1      3387 9.16500E+01 3.44120E+01 0.00000E+00
 -1      3388 9.54000E+01 3.57110E+01 0.00000E+00
 -1      3389 9.69000E+01 3.57110E+01 0.00000E+00
 -1      3390 9.46500E+01 3.44120E+01 0.00000E+00
 -1      3391 9.84000E+01 3.57110E+01 0.00000E+00
 -1      3392 9.99000E+01 3.57110E+01 0.00000E+00
 -1      3393 9.76500E+01 3.44120E+01 0.00000E+00
 -1      3394 1.01400E+02 3.57110E+01 0.00000E+00
 -1      3395 1.02900E+02 3.57110E+01 0.00000E+00
 -1      3396 1.00650E+02 3.44120E+01 0.00000E+00
 -1      3397 1.04400E+02 3.57110E+01 0.00000E+00
 -1      3398 1.05900E+02 3.57110E+01 0.00000E+00
 -1      3399 1.03650E+02 3.44120E+01 0.00000E+00
 -1      3400 1.07400E+02 3.57110E+01 0.00000E+00
 -1      3401 1.08900E+02 3.57110E+01 0.00000E+00
 -1      3402 1.06650E+02 3.44120E+01 0.00000E+00
 -1      3403 1.10400E+02 3.57110E+01 0.00000E+00
 -1      3404 1.11900E+02 3.57110E+01 0.00000E+00
 -1      3405 1.09650E+02 3.44120E+01 0.00000E+00
 -1      3406 1.13400E+02 3.57110E+01 0.00000E+00
 -1      3407 1.14900E+02 3.57110E+01 0.00000E+00
 -1      3408 1.12650E+02 3.44120E+01 0.00000E+00
 -1      3409 1.16400E+02 3.57110E+01 0.00000E+00
 -1      3410 1.17900E+02 3.57110E+01 0.00000E+00
 -1      3411 1.15650E+02 3.44120E+01 0.00000E+00
 -1      3412 1.19400E+02 3.57110E+01 0.00000E+00
 -1      3413 1.20900E+02 3.57110E+01 0.00000E+00
 -1      3414 1.18650E+02 3.44120E+01 0.00000E+00
 -1      3415 1.26072E+02 3.60535E+01 0.00000E+00
 -1      3416 1.27572E+02 3.60535E+01 0.00000E+00
 -1      3417 3.92850E+01 1.30992E+01 0.00000E+00
 -1      3418 3.77850E+01 1.30992E+01 0.00000E+00
 -1      3419 3.32850E+01 1.30992E+01 0.00000E+00
 -1      3420 3.17850E+01 1.30992E+01 0.00000E+00
 -1      3421 3.10350E+01 1.43982E+01 0.00000E+00
 -1      3422 4.52850E+01 1.30992E+01 0.00000E+00
 -1      3423 4.37850E+01 1.30992E+01 0.00000E+00
 -1      3424 4.82850E+01 1.30992E+01 0.00000E+00
 -1      3425 4.67850E+01 1.30992E+01 0.00000E+00
 -1      3426 4.60350E+01 1.43982E+01 0.00000E+00
 -1      3427 5.12850E+01 1.30992E+01 0.00000E+00
 -1      3428 4.97850E+01 1.30992E+01 0.00000E+00
 -1      3429 4.90350E+01 1.43982E+01 0.00000E+00
 -1      3430 5.42850E+01 1.30992E+01 0.00000E+00
 -1      3431 5.27850E+01 1.30992E+01 0.00000E+00
 -1      3432 5.20350E+01 1.43982E+01 0.00000E+00
 -1      3433 5.72850E+01 1.30992E+01 0.00000E+00
 -1      3434 5.57850E+01 1.30992E+01 0.00000E+00
 -1      3435 5.50350E+01 1.43982E+01 0.00000E+00
 -1      3436 6.02850E+01 1.30992E+01 0.00000E+00
 -1      3437 5.87850E+01 1.30992E+01 0.00000E+00
 -1      3438 5.80350E+01 1.43982E+01 0.00000E+00
 -1      3439 6.32850E+01 1.30992E+01 0.00000E+00
 -1      3440 6.17850E+01 1.30992E+01 0.00000E+00
 -1      3441 6.10350E+01 1.43982E+01 0.00000E+00
 -1      3442 6.62850E+01 1.30992E+01 0.00000E+00
 -1      3443 6.47850E+01 1.30992E+01 0.00000E+00
 -1      3444 6.40350E+01 1.43982E+01 0.00000E+00
 -1      3445 6.92850E+01 1.30992E+01 0.00000E+00
 -1      3446 6.77850E+01 1.30992E+01 0.00000E+00
 -1      3447 6.70350E+01 1.43982E+01 0.00000E+00
 -1      3448 7.22850E+01 1.30992E+01 0.00000E+00
 -1      3449 7.07850E+01 1.30992E+01 0.00000E+00
 -1      3450 7.00350E+01 1.43982E+01 0.00000E+00
 -1      3451 7.52850E+01 1.30992E+01 0.00000E+00
 -1      3452 7.37850E+01 1.30992E+01 0.00000E+00
 -1      3453 7.30350E+01 1.43982E+01 0.00000E+00
 -1      3454 7.82850E+01 1.30992E+01 0.00000E+00
 -1      3455 7.67850E+01 1.30992E+01 0.00000E+00
 -1      3456 7.60350E+01 1.43982E+01 0.00000E+00
 -1      3457 8.12850E+01 1.30992E+01 0.00000E+00
 -1      3458 7.97850E+01 1.30992E+01 0.00000E+00
 -1      3459 7.90350E+01 1.43982E+01 0.00000E+00
 -1      3460 8.42850E+01 1.30992E+01 0.00000E+00
 -1      3461 8.27850E+01 1.30992E+01 0.00000E+00
 -1      3462 8.20350E+01 1.43982E+01 0.00000E+00
 -1      3463 8.72850E+01 1.30992E+01 0.00000E+00
 -1      3464 8.57850E+01 1.30992E+01 0.00000E+00
 -1      3465 8.50350E+01 1.43982E+01 0.00000E+00
 -1      3466 9.02850E+01 1.30992E+01 0.00000E+00
 -1      3467 8.87850E+01 1.30992E+01 0.00000E+00
 -1      3468 8.80350E+01 1.43982E+01 0.00000E+00
 -1      3469 9.32850E+01 1.30992E+01 0.00000E+00
 -1      3470 9.17850E+01 1.30992E+01 0.00000E+00
 -1      3471 9.10350E+01 1.43982E+01 0.00000E+00
 -1      3472 9.62850E+01 1.30992E+01 0.00000E+00
 -1      3473 9.47850E+01 1.30992E+01 0.00000E+00
 -1      3474 9.40350E+01 1.43982E+01 0.00000E+00
 -1      3475 9.92850E+01 1.30992E+01 0.00000E+00
 -1      3476 9.77850E+01 1.30992E+01 0.00000E+00
 -1      3477 9.70350E+01 1.43982E+01 0.00000E+00
 -1      3478 1.02285E+02 1.30992E+01 0.00000E+00
 -1      3479 1.00785E+02 1.30992E+01 0.00000E+00
 -1      3480 1.00035E+02 1.43982E+01 0.00000E+00
 -1      3481 1.05285E+02 1.30992E+01 0.00000E+00
 -1      3482 1.03785E+02 1.30992E+01 0.00000E+00
 -1      3483 1.03035E+02 1.43982E+01 0.00000E+00
 -1      3484 1.08285E+02 1.30992E+01 0.00000E+00
 -1      3485 1.06785E+02 1.30992E+01 0.00000E+00
 -1      3486 1.06035E+02 1.43982E+01 0.00000E+00
 -1      3487 1.11285E+02 1.30992E+01 0.00000E+00
 -1      3488 1.09785E+02 1.30992E+01 0.00000E+00
 -1      3489 1.09035E+02 1.43982E+01 0.00000E+00
 -1      3490 1.14285E+02 1.30992E+01 0.00000E+00
 -1      3491 1.12785E+02 1.30992E+01 0.00000E+00
 -1      3492 1.12035E+02 1.43982E+01 0.00000E+00
 -1      3493 1.17285E+02 1.30992E+01 0.00000E+00
 -1      3494 1.15785E+02 1.30992E+01 0.00000E+00
 -1      3495 1.15035E+02 1.43982E+01 0.00000E+00
 -1      3496 1.21786E+01 3.60821E+01 0.00000E+00
 -1      3497 1.34776E+01 3.53477E+01 0.00000E+00
 -1      3498 2.12850E+01 1.30992E+01 0.00000E+00
 -1      3499 1.97850E+01 1.30992E+01 0.00000E+00
 -1      3500 1.35600E+02 8.36599E+00 0.00000E+00
 -1      3501 1.26389E+02 3.37110E+01 0.00000E+00
 -1      3502 1.25561E+02 3.35508E+01 0.00000E+00
 -1      3503 1.16910E+01 2.71844E+01 0.00000E+00
 -1      3504 1.16910E+01 2.86531E+01 0.00000E+00
 -1      3505 1.29900E+01 2.93875E+01 0.00000E+00
 -1      3506 2.42850E+01 1.30992E+01 0.00000E+00
 -1      3507 2.27850E+01 1.30992E+01 0.00000E+00
 -1      3508 2.20350E+01 1.43982E+01 0.00000E+00
 -1      3509 1.21408E+02 1.35489E+01 0.00000E+00
 -1      3510 1.24838E+02 3.46030E+01 0.00000E+00
 -1      3511 1.24667E+02 3.32697E+01 0.00000E+00
 -1      3512 1.23772E+02 3.29885E+01 0.00000E+00
 -1      3513 4.22850E+01 1.30992E+01 0.00000E+00
 -1      3514 4.07850E+01 1.30992E+01 0.00000E+00
 -1      3515 4.00350E+01 1.43982E+01 0.00000E+00
 -1      3516 4.30350E+01 1.43982E+01 0.00000E+00
 -1      3517 1.26613E+02 3.49906E+01 0.00000E+00
 -1      3518 2.72850E+01 1.30992E+01 0.00000E+00
 -1      3519 2.57850E+01 1.30992E+01 0.00000E+00
 -1      3520 2.50350E+01 1.43982E+01 0.00000E+00
 -1      3521 3.62850E+01 1.30992E+01 0.00000E+00
 -1      3522 3.47850E+01 1.30992E+01 0.00000E+00
 -1      3523 3.40350E+01 1.43982E+01 0.00000E+00
 -1      3524 3.70350E+01 1.43982E+01 0.00000E+00
 -1      3525 1.19142E+02 2.35041E+01 0.00000E+00
 -1      3526 1.19082E+02 2.20398E+01 0.00000E+00
 -1      3527 1.74000E+01 3.57110E+01 0.00000E+00
 -1      3528 1.89000E+01 3.57110E+01 0.00000E+00
 -1      3529 1.96500E+01 3.44120E+01 0.00000E+00
 -1      3530 1.19193E+02 2.05635E+01 0.00000E+00
 -1      3531 1.19303E+02 1.90872E+01 0.00000E+00
 -1      3532 1.18114E+02 2.13405E+01 0.00000E+00
 -1      3533 1.20371E+02 1.46762E+01 0.00000E+00
 -1      3534 1.19998E+02 1.29276E+01 0.00000E+00
 -1      3535 1.18498E+02 1.29276E+01 0.00000E+00
 -1      3536 1.19424E+02 1.51823E+01 0.00000E+00
 -1      3537 1.19056E+02 1.80869E+01 0.00000E+00
 -1      3538 1.18809E+02 1.70867E+01 0.00000E+00
 -1      3539 1.17978E+02 1.88640E+01 0.00000E+00
 -1      3540 1.42890E+01 1.39344E+01 0.00000E+00
 -1      3541 1.42890E+01 1.54031E+01 0.00000E+00
 -1      3542 1.29900E+01 2.64469E+01 0.00000E+00
 -1      3543 1.22047E+02 3.43669E+01 0.00000E+00
 -1      3544 1.22797E+02 3.56659E+01 0.00000E+00
 -1      3545 1.24297E+02 3.56659E+01 0.00000E+00
 -1      3546 1.17748E+02 1.42266E+01 0.00000E+00
 -1      3547 1.90350E+01 1.43983E+01 0.00000E+00
 -1      3548 1.82850E+01 1.30993E+01 0.00000E+00
 -1      3549 1.69669E+01 1.29495E+01 0.00000E+00
 -1      3550 1.22775E+02 3.00890E+01 0.00000E+00
 -1      3551 1.21837E+02 2.96744E+01 0.00000E+00
 -1      3552 1.22663E+02 3.12407E+01 0.00000E+00
 -1      3553 2.80350E+01 1.43982E+01 0.00000E+00
 -1      3554 1.20908E+02 2.81685E+01 0.00000E+00
 -1      3555 1.21023E+02 2.71849E+01 0.00000E+00
 -1      3556 1.19982E+02 2.68307E+01 0.00000E+00
 -1      3557 1.43324E+01 3.38479E+01 0.00000E+00
 -1      3558 1.48200E+01 3.54019E+01 0.00000E+00
 -1      3559 1.61624E+01 3.54560E+01 0.00000E+00
 -1      3560 1.43324E+01 3.09104E+01 0.00000E+00
 -1      3561 1.43324E+01 3.23792E+01 0.00000E+00
 -1      3562 1.56748E+01 3.24333E+01 0.00000E+00
 -1      3563 1.42890E+01 2.27625E+01 0.00000E+00
 -1      3564 1.42890E+01 2.42375E+01 0.00000E+00
 -1      3565 1.69124E+01 3.41570E+01 0.00000E+00
 -1      3566 1.19051E+02 2.43319E+01 0.00000E+00
 -1      3567 1.17913E+02 2.36447E+01 0.00000E+00
 -1      3568 1.18959E+02 2.51598E+01 0.00000E+00
 -1      3569 1.42890E+01 1.98188E+01 0.00000E+00
 -1      3570 1.42890E+01 2.12906E+01 0.00000E+00
 -1      3571 1.55880E+01 2.20281E+01 0.00000E+00
 -1      3572 1.46944E+01 1.23503E+01 0.00000E+00
 -1      3573 1.59934E+01 1.30847E+01 0.00000E+00
 -1      3574 1.25191E+02 3.59471E+01 0.00000E+00
 -1      3575 1.21875E+02 3.30336E+01 0.00000E+00
 -1      3576 1.55880E+01 1.61406E+01 0.00000E+00
 -1      3577 1.42890E+01 1.68750E+01 0.00000E+00
 -1      3578 1.42890E+01 1.83469E+01 0.00000E+00
 -1      3579 2.49000E+01 3.31130E+01 0.00000E+00
 -1      3580 2.64000E+01 3.31130E+01 0.00000E+00
 -1      3581 2.79000E+01 3.31130E+01 0.00000E+00
 -1      3582 2.94000E+01 3.31130E+01 0.00000E+00
 -1      3583 2.71500E+01 3.18140E+01 0.00000E+00
 -1      3584 3.09000E+01 3.31130E+01 0.00000E+00
 -1      3585 3.24000E+01 3.31130E+01 0.00000E+00
 -1      3586 3.01500E+01 3.18140E+01 0.00000E+00
 -1      3587 3.39000E+01 3.31130E+01 0.00000E+00
 -1      3588 3.54000E+01 3.31130E+01 0.00000E+00
 -1      3589 3.31500E+01 3.18140E+01 0.00000E+00
 -1      3590 3.69000E+01 3.31130E+01 0.00000E+00
 -1      3591 3.84000E+01 3.31130E+01 0.00000E+00
 -1      3592 3.61500E+01 3.18140E+01 0.00000E+00
 -1      3593 3.99000E+01 3.31130E+01 0.00000E+00
 -1      3594 4.14000E+01 3.31130E+01 0.00000E+00
 -1      3595 3.91500E+01 3.18140E+01 0.00000E+00
 -1      3596 4.29000E+01 3.31130E+01 0.00000E+00
 -1      3597 4.44000E+01 3.31130E+01 0.00000E+00
 -1      3598 4.21500E+01 3.18140E+01 0.00000E+00
 -1      3599 4.59000E+01 3.31130E+01 0.00000E+00
 -1      3600 4.74000E+01 3.31130E+01 0.00000E+00
 -1      3601 4.51500E+01 3.18140E+01 0.00000E+00
 -1      3602 4.89000E+01 3.31130E+01 0.00000E+00
 -1      3603 5.04000E+01 3.31130E+01 0.00000E+00
 -1      3604 4.81500E+01 3.18140E+01 0.00000E+00
 -1      3605 5.19000E+01 3.31130E+01 0.00000E+00
 -1      3606 5.34000E+01 3.31130E+01 0.00000E+00
 -1      3607 5.11500E+01 3.18140E+01 0.00000E+00
 -1      3608 5.49000E+01 3.31130E+01 0.00000E+00
 -1      3609 5.64000E+01 3.31130E+01 0.00000E+00
 -1      3610 5.41500E+01 3.18140E+01 0.00000E+00
 -1      3611 5.79000E+01 3.31130E+01 0.00000E+00
 -1      3612 5.94000E+01 3.31130E+01 0.00000E+00
 -1      3613 5.71500E+01 3.18140E+01 0.00000E+00
 -1      3614 6.09000E+01 3.31130E+01 0.00000E+00
 -1      3615 6.24000E+01 3.31130E+01 0.00000E+00
 -1      3616 6.01500E+01 3.18140E+01 0.00000E+00
 -1      3617 6.39000E+01 3.31130E+01 0.00000E+00
 -1      3618 6.54000E+01 3.31130E+01 0.00000E+00
 -1      3619 6.31500E+01 3.18140E+01 0.00000E+00
 -1      3620 6.69000E+01 3.31130E+01 0.00000E+00
 -1      3621 6.84000E+01 3.31130E+01 0.00000E+00
 -1      3622 6.61500E+01 3.18140E+01 0.00000E+00
 -1      3623 6.99000E+01 3.31130E+01 0.00000E+00
 -1      3624 7.14000E+01 3.31130E+01 0.00000E+00
 -1      3625 6.91500E+01 3.18140E+01 0.00000E+00
 -1      3626 7.29000E+01 3.31130E+01 0.00000E+00
 -1      3627 7.44000E+01 3.31130E+01 0.00000E+00
 -1      3628 7.21500E+01 3.18140E+01 0.00000E+00
 -1      3629 7.59000E+01 3.31130E+01 0.00000E+00
 -1      3630 7.74000E+01 3.31130E+01 0.00000E+00
 -1      3631 7.51500E+01 3.18140E+01 0.00000E+00
 -1      3632 7.89000E+01 3.31130E+01 0.00000E+00
 -1      3633 8.04000E+01 3.31130E+01 0.00000E+00
 -1      3634 7.81500E+01 3.18140E+01 0.00000E+00
 -1      3635 8.19000E+01 3.31130E+01 0.00000E+00
 -1      3636 8.34000E+01 3.31130E+01 0.00000E+00
 -1      3637 8.11500E+01 3.18140E+01 0.00000E+00
 -1      3638 8.49000E+01 3.31130E+01 0.00000E+00
 -1      3639 8.64000E+01 3.31130E+01 0.00000E+00
 -1      3640 8.41500E+01 3.18140E+01 0.00000E+00
 -1      3641 8.79000E+01 3.31130E+01 0.00000E+00
 -1      3642 8.94000E+01 3.31130E+01 0.00000E+00
 -1      3643 8.71500E+01 3.18140E+01 0.00000E+00
 -1      3644 9.09000E+01 3.31130E+01 0.00000E+00
 -1      3645 9.24000E+01 3.31130E+01 0.00000E+00
 -1      3646 9.01500E+01 3.18140E+01 0.00000E+00
 -1      3647 9.39000E+01 3.31130E+01 0.00000E+00
 -1      3648 9.54000E+01 3.31130E+01 0.00000E+00
 -1      3649 9.31500E+01 3.18140E+01 0.00000E+00
 -1      3650 9.69000E+01 3.31130E+01 0.00000E+00
 -1      3651 9.84000E+01 3.31130E+01 0.00000E+00
 -1      3652 9.61500E+01 3.18140E+01 0.00000E+00
 -1      3653 9.99000E+01 3.31130E+01 0.00000E+00
 -1      3654 1.01400E+02 3.31130E+01 0.00000E+00
 -1      3655 9.91500E+01 3.18140E+01 0.00000E+00
 -1      3656 1.02900E+02 3.31130E+01 0.00000E+00
 -1      3657 1.04400E+02 3.31130E+01 0.00000E+00
 -1      3658 1.02150E+02 3.18140E+01 0.00000E+00
 -1      3659 1.05900E+02 3.31130E+01 0.00000E+00
 -1      3660 1.07400E+02 3.31130E+01 0.00000E+00
 -1      3661 1.05150E+02 3.18140E+01 0.00000E+00
 -1      3662 1.08900E+02 3.31130E+01 0.00000E+00
 -1      3663 1.10400E+02 3.31130E+01 0.00000E+00
 -1      3664 1.08150E+02 3.18140E+01 0.00000E+00
 -1      3665 1.11900E+02 3.31130E+01 0.00000E+00
 -1      3666 1.13400E+02 3.31130E+01 0.00000E+00
 -1      3667 1.11150E+02 3.18140E+01 0.00000E+00
 -1      3668 1.14900E+02 3.31130E+01 0.00000E+00
 -1      3669 1.16400E+02 3.31130E+01 0.00000E+00
 -1      3670 1.14150E+02 3.18140E+01 0.00000E+00
 -1      3671 1.17900E+02 3.31130E+01 0.00000E+00
 -1      3672 1.19400E+02 3.31130E+01 0.00000E+00
 -1      3673 1.17150E+02 3.18140E+01 0.00000E+00
 -1      3674 1.97850E+01 1.56973E+01 0.00000E+00
 -1      3675 1.82851E+01 1.56973E+01 0.00000E+00
 -1      3676 3.17850E+01 1.56973E+01 0.00000E+00
 -1      3677 3.02850E+01 1.56973E+01 0.00000E+00
 -1      3678 4.97850E+01 1.56973E+01 0.00000E+00
 -1      3679 4.82850E+01 1.56973E+01 0.00000E+00
 -1      3680 4.67850E+01 1.56973E+01 0.00000E+00
 -1      3681 4.52850E+01 1.56973E+01 0.00000E+00
 -1      3682 4.75350E+01 1.69963E+01 0.00000E+00
 -1      3683 5.57850E+01 1.56973E+01 0.00000E+00
 -1      3684 5.42850E+01 1.56973E+01 0.00000E+00
 -1      3685 5.87850E+01 1.56973E+01 0.00000E+00
 -1      3686 5.72850E+01 1.56973E+01 0.00000E+00
 -1      3687 5.65350E+01 1.69963E+01 0.00000E+00
 -1      3688 6.17850E+01 1.56973E+01 0.00000E+00
 -1      3689 6.02850E+01 1.56973E+01 0.00000E+00
 -1      3690 5.95350E+01 1.69963E+01 0.00000E+00
 -1      3691 6.47850E+01 1.56973E+01 0.00000E+00
 -1      3692 6.32850E+01 1.56973E+01 0.00000E+00
 -1      3693 6.25350E+01 1.69963E+01 0.00000E+00
 -1      3694 6.77850E+01 1.56973E+01 0.00000E+00
 -1      3695 6.62850E+01 1.56973E+01 0.00000E+00
 -1      3696 6.55350E+01 1.69963E+01 0.00000E+00
 -1      3697 7.07850E+01 1.56973E+01 0.00000E+00
 -1      3698 6.92850E+01 1.56973E+01 0.00000E+00
 -1      3699 6.85350E+01 1.69963E+01 0.00000E+00
 -1      3700 7.37850E+01 1.56973E+01 0.00000E+00
 -1      3701 7.22850E+01 1.56973E+01 0.00000E+00
 -1      3702 7.15350E+01 1.69963E+01 0.00000E+00
 -1      3703 7.67850E+01 1.56973E+01 0.00000E+00
 -1      3704 7.52850E+01 1.56973E+01 0.00000E+00
 -1      3705 7.45350E+01 1.69963E+01 0.00000E+00
 -1      3706 7.97850E+01 1.56973E+01 0.00000E+00
 -1      3707 7.82850E+01 1.56973E+01 0.00000E+00
 -1      3708 7.75350E+01 1.69963E+01 0.00000E+00
 -1      3709 8.27850E+01 1.56973E+01 0.00000E+00
 -1      3710 8.12850E+01 1.56973E+01 0.00000E+00
 -1      3711 8.05350E+01 1.69963E+01 0.00000E+00
 -1      3712 8.57850E+01 1.56973E+01 0.00000E+00
 -1      3713 8.42850E+01 1.56973E+01 0.00000E+00
 -1      3714 8.35350E+01 1.69963E+01 0.00000E+00
 -1      3715 8.87850E+01 1.56973E+01 0.00000E+00
 -1      3716 8.72850E+01 1.56973E+01 0.00000E+00
 -1      3717 8.65350E+01 1.69963E+01 0.00000E+00
 -1      3718 9.17850E+01 1.56973E+01 0.00000E+00
 -1      3719 9.02850E+01 1.56973E+01 0.00000E+00
 -1      3720 8.95350E+01 1.69963E+01 0.00000E+00
 -1      3721 9.47850E+01 1.56973E+01 0.00000E+00
 -1      3722 9.32850E+01 1.56973E+01 0.00000E+00
 -1      3723 9.25350E+01 1.69963E+01 0.00000E+00
 -1      3724 9.77850E+01 1.56973E+01 0.00000E+00
 -1      3725 9.62850E+01 1.56973E+01 0.00000E+00
 -1      3726 9.55350E+01 1.69963E+01 0.00000E+00
 -1      3727 1.00785E+02 1.56973E+01 0.00000E+00
 -1      3728 9.92850E+01 1.56973E+01 0.00000E+00
 -1      3729 9.85350E+01 1.69963E+01 0.00000E+00
 -1      3730 1.03785E+02 1.56973E+01 0.00000E+00
 -1      3731 1.02285E+02 1.56973E+01 0.00000E+00
 -1      3732 1.01535E+02 1.69963E+01 0.00000E+00
 -1      3733 1.06785E+02 1.56973E+01 0.00000E+00
 -1      3734 1.05285E+02 1.56973E+01 0.00000E+00
 -1      3735 1.04535E+02 1.69963E+01 0.00000E+00
 -1      3736 1.09785E+02 1.56973E+01 0.00000E+00
 -1      3737 1.08285E+02 1.56973E+01 0.00000E+00
 -1      3738 1.07535E+02 1.69963E+01 0.00000E+00
 -1      3739 1.12785E+02 1.56973E+01 0.00000E+00
 -1      3740 1.11285E+02 1.56973E+01 0.00000E+00
 -1      3741 1.10535E+02 1.69963E+01 0.00000E+00
 -1      3742 1.15785E+02 1.56973E+01 0.00000E+00
 -1      3743 1.14285E+02 1.56973E+01 0.00000E+00
 -1      3744 1.13535E+02 1.69963E+01 0.00000E+00
 -1      3745 1.65615E+01 1.45335E+01 0.00000E+00
 -1      3746 1.55880E+01 2.49719E+01 0.00000E+00
 -1      3747 1.42890E+01 2.57094E+01 0.00000E+00
 -1      3748 1.42890E+01 2.71812E+01 0.00000E+00
 -1      3749 2.57850E+01 1.56973E+01 0.00000E+00
 -1      3750 2.42850E+01 1.56973E+01 0.00000E+00
 -1      3751 1.43107E+01 2.83115E+01 0.00000E+00
 -1      3752 1.43107E+01 2.97802E+01 0.00000E+00
 -1      3753 1.56531E+01 2.98344E+01 0.00000E+00
 -1      3754 1.56097E+01 2.75740E+01 0.00000E+00
 -1      3755 5.27850E+01 1.56973E+01 0.00000E+00
 -1      3756 5.12850E+01 1.56973E+01 0.00000E+00
 -1      3757 5.05350E+01 1.69963E+01 0.00000E+00
 -1      3758 5.35350E+01 1.69963E+01 0.00000E+00
 -1      3759 2.27850E+01 1.56973E+01 0.00000E+00
 -1      3760 2.12850E+01 1.56973E+01 0.00000E+00
 -1      3761 2.05350E+01 1.69963E+01 0.00000E+00
 -1      3762 2.35350E+01 1.69963E+01 0.00000E+00
 -1      3763 1.69124E+01 3.26883E+01 0.00000E+00
 -1      3764 1.81500E+01 3.29432E+01 0.00000E+00
 -1      3765 1.69124E+01 3.12195E+01 0.00000E+00
 -1      3766 2.19000E+01 3.31130E+01 0.00000E+00
 -1      3767 2.34000E+01 3.31130E+01 0.00000E+00
 -1      3768 2.41500E+01 3.18140E+01 0.00000E+00
 -1      3769 1.92750E+01 3.30281E+01 0.00000E+00
 -1      3770 2.07750E+01 3.30281E+01 0.00000E+00
 -1      3771 2.15250E+01 3.17291E+01 0.00000E+00
 -1      3772 1.92750E+01 3.15594E+01 0.00000E+00
 -1      3773 2.87850E+01 1.56973E+01 0.00000E+00
 -1      3774 2.72850E+01 1.56973E+01 0.00000E+00
 -1      3775 2.95350E+01 1.69963E+01 0.00000E+00
 -1      3776 1.16953E+02 2.19960E+01 0.00000E+00
 -1      3777 1.17064E+02 2.05197E+01 0.00000E+00
 -1      3778 1.18510E+02 1.62203E+01 0.00000E+00
 -1      3779 1.18047E+02 1.50930E+01 0.00000E+00
 -1      3780 1.16834E+02 1.52646E+01 0.00000E+00
 -1      3781 1.17432E+02 1.69973E+01 0.00000E+00
 -1      3782 1.74233E+01 1.58513E+01 0.00000E+00
 -1      3783 1.64498E+01 1.59866E+01 0.00000E+00
 -1      3784 1.64498E+01 1.74584E+01 0.00000E+00
 -1      3785 1.81733E+01 1.71503E+01 0.00000E+00
 -1      3786 1.21125E+02 3.17346E+01 0.00000E+00
 -1      3787 1.15656E+02 2.01748E+01 0.00000E+00
 -1      3788 1.16817E+02 1.95194E+01 0.00000E+00
 -1      3789 1.16570E+02 1.85191E+01 0.00000E+00
 -1      3790 4.45350E+01 1.69963E+01 0.00000E+00
 -1      3791 4.37850E+01 1.56973E+01 0.00000E+00
 -1      3792 4.22850E+01 1.56973E+01 0.00000E+00
 -1      3793 1.16084E+02 1.65636E+01 0.00000E+00
 -1      3794 1.68870E+01 2.42359E+01 0.00000E+00
 -1      3795 1.68870E+01 2.57078E+01 0.00000E+00
 -1      3796 2.65350E+01 1.69963E+01 0.00000E+00
 -1      3797 4.07850E+01 1.56973E+01 0.00000E+00
 -1      3798 3.92850E+01 1.56973E+01 0.00000E+00
 -1      3799 4.15350E+01 1.69963E+01 0.00000E+00
 -1      3800 1.16771E+02 2.36517E+01 0.00000E+00
 -1      3801 1.16862E+02 2.28238E+01 0.00000E+00
 -1      3802 1.15812E+02 2.20030E+01 0.00000E+00
 -1      3803 3.47850E+01 1.56973E+01 0.00000E+00
 -1      3804 3.32850E+01 1.56973E+01 0.00000E+00
 -1      3805 3.25350E+01 1.69963E+01 0.00000E+00
 -1      3806 1.18729E+02 2.71270E+01 0.00000E+00
 -1      3807 1.18844E+02 2.61434E+01 0.00000E+00
 -1      3808 1.17706E+02 2.54562E+01 0.00000E+00
 -1      3809 3.77850E+01 1.56973E+01 0.00000E+00
 -1      3810 3.62850E+01 1.56973E+01 0.00000E+00
 -1      3811 3.55350E+01 1.69963E+01 0.00000E+00
 -1      3812 3.85350E+01 1.69963E+01 0.00000E+00
 -1      3813 1.55880E+01 1.90844E+01 0.00000E+00
 -1      3814 1.68870E+01 2.12922E+01 0.00000E+00
 -1      3815 1.68870E+01 2.27641E+01 0.00000E+00
 -1      3816 1.81860E+01 2.35000E+01 0.00000E+00
 -1      3817 4.82850E+01 1.82952E+01 0.00000E+00
 -1      3818 4.67850E+01 1.82952E+01 0.00000E+00
 -1      3819 2.64000E+01 3.05150E+01 0.00000E+00
 -1      3820 2.79000E+01 3.05150E+01 0.00000E+00
 -1      3821 2.94000E+01 3.05150E+01 0.00000E+00
 -1      3822 3.09000E+01 3.05150E+01 0.00000E+00
 -1      3823 2.86500E+01 2.92160E+01 0.00000E+00
 -1      3824 3.24000E+01 3.05150E+01 0.00000E+00
 -1      3825 3.39000E+01 3.05150E+01 0.00000E+00
 -1      3826 3.16500E+01 2.92160E+01 0.00000E+00
 -1      3827 3.54000E+01 3.05150E+01 0.00000E+00
 -1      3828 3.69000E+01 3.05150E+01 0.00000E+00
 -1      3829 3.46500E+01 2.92160E+01 0.00000E+00
 -1      3830 3.84000E+01 3.05150E+01 0.00000E+00
 -1      3831 3.99000E+01 3.05150E+01 0.00000E+00
 -1      3832 3.76500E+01 2.92160E+01 0.00000E+00
 -1      3833 4.14000E+01 3.05150E+01 0.00000E+00
 -1      3834 4.29000E+01 3.05150E+01 0.00000E+00
 -1      3835 4.06500E+01 2.92160E+01 0.00000E+00
 -1      3836 4.44000E+01 3.05150E+01 0.00000E+00
 -1      3837 4.59000E+01 3.05150E+01 0.00000E+00
 -1      3838 4.36500E+01 2.92160E+01 0.00000E+00
 -1      3839 4.74000E+01 3.05150E+01 0.00000E+00
 -1      3840 4.89000E+01 3.05150E+01 0.00000E+00
 -1      3841 4.66500E+01 2.92160E+01 0.00000E+00
 -1      3842 5.04000E+01 3.05150E+01 0.00000E+00
 -1      3843 5.19000E+01 3.05150E+01 0.00000E+00
 -1      3844 4.96500E+01 2.92160E+01 0.00000E+00
 -1      3845 5.34000E+01 3.05150E+01 0.00000E+00
 -1      3846 5.49000E+01 3.05150E+01 0.00000E+00
 -1      3847 5.26500E+01 2.92160E+01 0.00000E+00
 -1      3848 5.64000E+01 3.05150E+01 0.00000E+00
 -1      3849 5.79000E+01 3.05150E+01 0.00000E+00
 -1      3850 5.56500E+01 2.92160E+01 0.00000E+00
 -1      3851 5.94000E+01 3.05150E+01 0.00000E+00
 -1      3852 6.09000E+01 3.05150E+01 0.00000E+00
 -1      3853 5.86500E+01 2.92160E+01 0.00000E+00
 -1      3854 6.24000E+01 3.05150E+01 0.00000E+00
 -1      3855 6.39000E+01 3.05150E+01 0.00000E+00
 -1      3856 6.16500E+01 2.92160E+01 0.00000E+00
 -1      3857 6.54000E+01 3.05150E+01 0.00000E+00
 -1      3858 6.69000E+01 3.05150E+01 0.00000E+00
 -1      3859 6.46500E+01 2.92160E+01 0.00000E+00
 -1      3860 6.84000E+01 3.05150E+01 0.00000E+00
 -1      3861 6.99000E+01 3.05150E+01 0.00000E+00
 -1      3862 6.76500E+01 2.92160E+01 0.00000E+00
 -1      3863 7.14000E+01 3.05150E+01 0.00000E+00
 -1      3864 7.29000E+01 3.05150E+01 0.00000E+00
 -1      3865 7.06500E+01 2.92160E+01 0.00000E+00
 -1      3866 7.44000E+01 3.05150E+01 0.00000E+00
 -1      3867 7.59000E+01 3.05150E+01 0.00000E+00
 -1      3868 7.36500E+01 2.92160E+01 0.00000E+00
 -1      3869 7.74000E+01 3.05150E+01 0.00000E+00
 -1      3870 7.89000E+01 3.05150E+01 0.00000E+00
 -1      3871 7.66500E+01 2.92160E+01 0.00000E+00
 -1      3872 8.04000E+01 3.05150E+01 0.00000E+00
 -1      3873 8.19000E+01 3.05150E+01 0.00000E+00
 -1      3874 7.96500E+01 2.92160E+01 0.00000E+00
 -1      3875 8.34000E+01 3.05150E+01 0.00000E+00
 -1      3876 8.49000E+01 3.05150E+01 0.00000E+00
 -1      3877 8.26500E+01 2.92160E+01 0.00000E+00
 -1      3878 8.64000E+01 3.05150E+01 0.00000E+00
 -1      3879 8.79000E+01 3.05150E+01 0.00000E+00
 -1      3880 8.56500E+01 2.92160E+01 0.00000E+00
 -1      3881 8.94000E+01 3.05150E+01 0.00000E+00
 -1      3882 9.09000E+01 3.05150E+01 0.00000E+00
 -1      3883 8.86500E+01 2.92160E+01 0.00000E+00
 -1      3884 9.24000E+01 3.05150E+01 0.00000E+00
 -1      3885 9.39000E+01 3.05150E+01 0.00000E+00
 -1      3886 9.16500E+01 2.92160E+01 0.00000E+00
 -1      3887 9.54000E+01 3.05150E+01 0.00000E+00
 -1      3888 9.69000E+01 3.05150E+01 0.00000E+00
 -1      3889 9.46500E+01 2.92160E+01 0.00000E+00
 -1      3890 9.84000E+01 3.05150E+01 0.00000E+00
 -1      3891 9.99000E+01 3.05150E+01 0.00000E+00
 -1      3892 9.76500E+01 2.92160E+01 0.00000E+00
 -1      3893 1.01400E+02 3.05150E+01 0.00000E+00
 -1      3894 1.02900E+02 3.05150E+01 0.00000E+00
 -1      3895 1.00650E+02 2.92160E+01 0.00000E+00
 -1      3896 1.04400E+02 3.05150E+01 0.00000E+00
 -1      3897 1.05900E+02 3.05150E+01 0.00000E+00
 -1      3898 1.03650E+02 2.92160E+01 0.00000E+00
 -1      3899 1.07400E+02 3.05150E+01 0.00000E+00
 -1      3900 1.08900E+02 3.05150E+01 0.00000E+00
 -1      3901 1.06650E+02 2.92160E+01 0.00000E+00
 -1      3902 1.10400E+02 3.05150E+01 0.00000E+00
 -1      3903 1.11900E+02 3.05150E+01 0.00000E+00
 -1      3904 1.09650E+02 2.92160E+01 0.00000E+00
 -1      3905 1.13400E+02 3.05150E+01 0.00000E+00
 -1      3906 1.14900E+02 3.05150E+01 0.00000E+00
 -1      3907 1.12650E+02 2.92160E+01 0.00000E+00
 -1      3908 1.68907E+01 3.00893E+01 0.00000E+00
 -1      3909 1.81283E+01 3.03443E+01 0.00000E+00
 -1      3910 1.68690E+01 2.89591E+01 0.00000E+00
 -1      3911 6.02850E+01 1.82952E+01 0.00000E+00
 -1      3912 5.87850E+01 1.82952E+01 0.00000E+00
 -1      3913 5.72850E+01 1.82952E+01 0.00000E+00
 -1      3914 5.57850E+01 1.82952E+01 0.00000E+00
 -1      3915 5.80350E+01 1.95942E+01 0.00000E+00
 -1      3916 6.62850E+01 1.82952E+01 0.00000E+00
 -1      3917 6.47850E+01 1.82952E+01 0.00000E+00
 -1      3918 6.92850E+01 1.82952E+01 0.00000E+00
 -1      3919 6.77850E+01 1.82952E+01 0.00000E+00
 -1      3920 6.70350E+01 1.95942E+01 0.00000E+00
 -1      3921 7.22850E+01 1.82952E+01 0.00000E+00
 -1      3922 7.07850E+01 1.82952E+01 0.00000E+00
 -1      3923 7.00350E+01 1.95942E+01 0.00000E+00
 -1      3924 7.52850E+01 1.82952E+01 0.00000E+00
 -1      3925 7.37850E+01 1.82952E+01 0.00000E+00
 -1      3926 7.30350E+01 1.95942E+01 0.00000E+00
 -1      3927 7.82850E+01 1.82952E+01 0.00000E+00
 -1      3928 7.67850E+01 1.82952E+01 0.00000E+00
 -1      3929 7.60350E+01 1.95942E+01 0.00000E+00
 -1      3930 8.12850E+01 1.82952E+01 0.00000E+00
 -1      3931 7.97850E+01 1.82952E+01 0.00000E+00
 -1      3932 7.90350E+01 1.95942E+01 0.00000E+00
 -1      3933 8.42850E+01 1.82952E+01 0.00000E+00
 -1      3934 8.27850E+01 1.82952E+01 0.00000E+00
 -1      3935 8.20350E+01 1.95942E+01 0.00000E+00
 -1      3936 8.72850E+01 1.82952E+01 0.00000E+00
 -1      3937 8.57850E+01 1.82952E+01 0.00000E+00
 -1      3938 8.50350E+01 1.95942E+01 0.00000E+00
 -1      3939 9.02850E+01 1.82952E+01 0.00000E+00
 -1      3940 8.87850E+01 1.82952E+01 0.00000E+00
 -1      3941 8.80350E+01 1.95942E+01 0.00000E+00
 -1      3942 9.32850E+01 1.82952E+01 0.00000E+00
 -1      3943 9.17850E+01 1.82952E+01 0.00000E+00
 -1      3944 9.10350E+01 1.95942E+01 0.00000E+00
 -1      3945 9.62850E+01 1.82952E+01 0.00000E+00
 -1      3946 9.47850E+01 1.82952E+01 0.00000E+00
 -1      3947 9.40350E+01 1.95942E+01 0.00000E+00
 -1      3948 9.92850E+01 1.82952E+01 0.00000E+00
 -1      3949 9.77850E+01 1.82952E+01 0.00000E+00
 -1      3950 9.70350E+01 1.95942E+01 0.00000E+00
 -1      3951 1.02285E+02 1.82952E+01 0.00000E+00
 -1      3952 1.00785E+02 1.82952E+01 0.00000E+00
 -1      3953 1.00035E+02 1.95942E+01 0.00000E+00
 -1      3954 1.05285E+02 1.82952E+01 0.00000E+00
 -1      3955 1.03785E+02 1.82952E+01 0.00000E+00
 -1      3956 1.03035E+02 1.95942E+01 0.00000E+00
 -1      3957 1.08285E+02 1.82952E+01 0.00000E+00
 -1      3958 1.06785E+02 1.82952E+01 0.00000E+00
 -1      3959 1.06035E+02 1.95942E+01 0.00000E+00
 -1      3960 1.11285E+02 1.82952E+01 0.00000E+00
 -1      3961 1.09785E+02 1.82952E+01 0.00000E+00
 -1      3962 1.09035E+02 1.95942E+01 0.00000E+00
 -1      3963 2.72850E+01 1.82952E+01 0.00000E+00
 -1      3964 2.57850E+01 1.82952E+01 0.00000E+00
 -1      3965 6.32850E+01 1.82952E+01 0.00000E+00
 -1      3966 6.17850E+01 1.82952E+01 0.00000E+00
 -1      3967 6.10350E+01 1.95942E+01 0.00000E+00
 -1      3968 1.21010E+02 2.95754E+01 0.00000E+00
 -1      3969 1.19969E+02 2.92212E+01 0.00000E+00
 -1      3970 1.66684E+01 1.86394E+01 0.00000E+00
 -1      3971 1.66684E+01 2.01113E+01 0.00000E+00
 -1      3972 1.79674E+01 2.08472E+01 0.00000E+00
 -1      3973 1.75301E+01 1.84853E+01 0.00000E+00
 -1      3974 1.20898E+02 3.07271E+01 0.00000E+00
 -1      3975 2.34000E+01 3.05150E+01 0.00000E+00
 -1      3976 2.49000E+01 3.05150E+01 0.00000E+00
 -1      3977 2.56500E+01 2.92160E+01 0.00000E+00
 -1      3978 1.16383E+02 1.74300E+01 0.00000E+00
 -1      3979 3.02850E+01 1.82952E+01 0.00000E+00
 -1      3980 2.87850E+01 1.82952E+01 0.00000E+00
 -1      3981 2.80350E+01 1.95942E+01 0.00000E+00
 -1      3982 1.15222E+02 1.80854E+01 0.00000E+00
 -1      3983 1.92533E+01 3.04292E+01 0.00000E+00
 -1      3984 2.03783E+01 3.05140E+01 0.00000E+00
 -1      3985 1.92316E+01 2.92990E+01 0.00000E+00
 -1      3986 2.42850E+01 1.82953E+01 0.00000E+00
 -1      3987 2.27850E+01 1.82953E+01 0.00000E+00
 -1      3988 2.50350E+01 1.95943E+01 0.00000E+00
 -1      3989 1.16400E+02 3.05150E+01 0.00000E+00
 -1      3990 1.17900E+02 3.05150E+01 0.00000E+00
 -1      3991 1.18611E+02 2.99221E+01 0.00000E+00
 -1      3992 1.18508E+02 2.85151E+01 0.00000E+00
 -1      3993 1.14703E+02 2.09408E+01 0.00000E+00
 -1      3994 1.14456E+02 1.99405E+01 0.00000E+00
 -1      3995 4.52850E+01 1.82952E+01 0.00000E+00
 -1      3996 4.37850E+01 1.82952E+01 0.00000E+00
 -1      3997 4.60350E+01 1.95942E+01 0.00000E+00
 -1      3998 5.50350E+01 1.95942E+01 0.00000E+00
 -1      3999 5.42850E+01 1.82952E+01 0.00000E+00
 -1      4000 5.27850E+01 1.82952E+01 0.00000E+00
 -1      4001 1.12769E+02 1.88514E+01 0.00000E+00
 -1      4002 1.12019E+02 2.01504E+01 0.00000E+00
 -1      4003 1.14269E+02 1.88514E+01 0.00000E+00
 -1      4004 6.40350E+01 1.95942E+01 0.00000E+00
 -1      4005 1.68671E+01 2.67684E+01 0.00000E+00
 -1      4006 1.68889E+01 2.78986E+01 0.00000E+00
 -1      4007 1.81264E+01 2.81535E+01 0.00000E+00
 -1      4008 1.81661E+01 2.60324E+01 0.00000E+00
 -1      4009 1.14520E+02 2.25965E+01 0.00000E+00
 -1      4010 1.14612E+02 2.17687E+01 0.00000E+00
 -1      4011 1.13411E+02 2.15343E+01 0.00000E+00
 -1      4012 4.22850E+01 1.82952E+01 0.00000E+00
 -1      4013 4.07850E+01 1.82952E+01 0.00000E+00
 -1      4014 4.30350E+01 1.95942E+01 0.00000E+00
 -1      4015 1.16656E+02 2.46353E+01 0.00000E+00
 -1      4016 1.15605E+02 2.38145E+01 0.00000E+00
 -1      4017 1.16541E+02 2.56189E+01 0.00000E+00
 -1      4018 1.17371E+02 2.78279E+01 0.00000E+00
 -1      4019 4.00350E+01 1.95942E+01 0.00000E+00
 -1      4020 3.92850E+01 1.82952E+01 0.00000E+00
 -1      4021 3.77850E+01 1.82952E+01 0.00000E+00
 -1      4022 5.12850E+01 1.82952E+01 0.00000E+00
 -1      4023 4.97850E+01 1.82952E+01 0.00000E+00
 -1      4024 4.90350E+01 1.95942E+01 0.00000E+00
 -1      4025 5.20350E+01 1.95942E+01 0.00000E+00
 -1      4026 1.83919E+01 1.83313E+01 0.00000E+00
 -1      4027 3.17850E+01 1.82952E+01 0.00000E+00
 -1      4028 3.10350E+01 1.95942E+01 0.00000E+00
 -1      4029 3.32850E+01 1.82952E+01 0.00000E+00
 -1      4030 1.94850E+01 2.27641E+01 0.00000E+00
 -1      4031 1.94850E+01 2.42359E+01 0.00000E+00
 -1      4032 2.07641E+01 2.45606E+01 0.00000E+00
 -1      4033 1.94651E+01 2.52965E+01 0.00000E+00
 -1      4034 1.94453E+01 2.63570E+01 0.00000E+00
 -1      4035 2.13266E+01 3.04721E+01 0.00000E+00
 -1      4036 2.24516E+01 3.05570E+01 0.00000E+00
 -1      4037 2.32016E+01 2.92580E+01 0.00000E+00
 -1      4038 2.13049E+01 2.93419E+01 0.00000E+00
 -1      4039 1.15650E+02 2.92160E+01 0.00000E+00
 -1      4040 1.95728E+01 1.82542E+01 0.00000E+00
 -1      4041 1.89296E+01 1.95892E+01 0.00000E+00
 -1      4042 1.91483E+01 2.07702E+01 0.00000E+00
 -1      4043 2.10728E+01 1.82542E+01 0.00000E+00
 -1      4044 7.37850E+01 2.08932E+01 0.00000E+00
 -1      4045 7.22850E+01 2.08932E+01 0.00000E+00
 -1      4046 1.15871E+02 2.78279E+01 0.00000E+00
 -1      4047 3.09000E+01 2.79170E+01 0.00000E+00
 -1      4048 3.24000E+01 2.79170E+01 0.00000E+00
 -1      4049 3.39000E+01 2.79170E+01 0.00000E+00
 -1      4050 3.54000E+01 2.79170E+01 0.00000E+00
 -1      4051 3.31500E+01 2.66180E+01 0.00000E+00
 -1      4052 3.69000E+01 2.79170E+01 0.00000E+00
 -1      4053 3.84000E+01 2.79170E+01 0.00000E+00
 -1      4054 3.61500E+01 2.66180E+01 0.00000E+00
 -1      4055 3.99000E+01 2.79170E+01 0.00000E+00
 -1      4056 4.14000E+01 2.79170E+01 0.00000E+00
 -1      4057 3.91500E+01 2.66180E+01 0.00000E+00
 -1      4058 4.29000E+01 2.79170E+01 0.00000E+00
 -1      4059 4.44000E+01 2.79170E+01 0.00000E+00
 -1      4060 4.21500E+01 2.66180E+01 0.00000E+00
 -1      4061 4.59000E+01 2.79170E+01 0.00000E+00
 -1      4062 4.74000E+01 2.79170E+01 0.00000E+00
 -1      4063 4.51500E+01 2.66180E+01 0.00000E+00
 -1      4064 4.89000E+01 2.79170E+01 0.00000E+00
 -1      4065 5.04000E+01 2.79170E+01 0.00000E+00
 -1      4066 4.81500E+01 2.66180E+01 0.00000E+00
 -1      4067 5.19000E+01 2.79170E+01 0.00000E+00
 -1      4068 5.34000E+01 2.79170E+01 0.00000E+00
 -1      4069 5.11500E+01 2.66180E+01 0.00000E+00
 -1      4070 5.49000E+01 2.79170E+01 0.00000E+00
 -1      4071 5.64000E+01 2.79170E+01 0.00000E+00
 -1      4072 5.41500E+01 2.66180E+01 0.00000E+00
 -1      4073 5.79000E+01 2.79170E+01 0.00000E+00
 -1      4074 5.94000E+01 2.79170E+01 0.00000E+00
 -1      4075 5.71500E+01 2.66180E+01 0.00000E+00
 -1      4076 6.09000E+01 2.79170E+01 0.00000E+00
 -1      4077 6.24000E+01 2.79170E+01 0.00000E+00
 -1      4078 6.01500E+01 2.66180E+01 0.00000E+00
 -1      4079 6.39000E+01 2.79170E+01 0.00000E+00
 -1      4080 6.54000E+01 2.79170E+01 0.00000E+00
 -1      4081 6.31500E+01 2.66180E+01 0.00000E+00
 -1      4082 6.69000E+01 2.79170E+01 0.00000E+00
 -1      4083 6.84000E+01 2.79170E+01 0.00000E+00
 -1      4084 6.61500E+01 2.66180E+01 0.00000E+00
 -1      4085 6.99000E+01 2.79170E+01 0.00000E+00
 -1      4086 7.14000E+01 2.79170E+01 0.00000E+00
 -1      4087 6.91500E+01 2.66180E+01 0.00000E+00
 -1      4088 7.29000E+01 2.79170E+01 0.00000E+00
 -1      4089 7.44000E+01 2.79170E+01 0.00000E+00
 -1      4090 7.21500E+01 2.66180E+01 0.00000E+00
 -1      4091 7.59000E+01 2.79170E+01 0.00000E+00
 -1      4092 7.74000E+01 2.79170E+01 0.00000E+00
 -1      4093 7.51500E+01 2.66180E+01 0.00000E+00
 -1      4094 7.89000E+01 2.79170E+01 0.00000E+00
 -1      4095 8.04000E+01 2.79170E+01 0.00000E+00
 -1      4096 7.81500E+01 2.66180E+01 0.00000E+00
 -1      4097 8.19000E+01 2.79170E+01 0.00000E+00
 -1      4098 8.34000E+01 2.79170E+01 0.00000E+00
 -1      4099 8.11500E+01 2.66180E+01 0.00000E+00
 -1      4100 8.49000E+01 2.79170E+01 0.00000E+00
 -1      4101 8.64000E+01 2.79170E+01 0.00000E+00
 -1      4102 8.41500E+01 2.66180E+01 0.00000E+00
 -1      4103 8.79000E+01 2.79170E+01 0.00000E+00
 -1      4104 8.94000E+01 2.79170E+01 0.00000E+00
 -1      4105 8.71500E+01 2.66180E+01 0.00000E+00
 -1      4106 9.09000E+01 2.79170E+01 0.00000E+00
 -1      4107 9.24000E+01 2.79170E+01 0.00000E+00
 -1      4108 9.01500E+01 2.66180E+01 0.00000E+00
 -1      4109 9.39000E+01 2.79170E+01 0.00000E+00
 -1      4110 9.54000E+01 2.79170E+01 0.00000E+00
 -1      4111 9.31500E+01 2.66180E+01 0.00000E+00
 -1      4112 9.69000E+01 2.79170E+01 0.00000E+00
 -1      4113 9.84000E+01 2.79170E+01 0.00000E+00
 -1      4114 9.61500E+01 2.66180E+01 0.00000E+00
 -1      4115 9.99000E+01 2.79170E+01 0.00000E+00
 -1      4116 1.01400E+02 2.79170E+01 0.00000E+00
 -1      4117 9.91500E+01 2.66180E+01 0.00000E+00
 -1      4118 1.02900E+02 2.79170E+01 0.00000E+00
 -1      4119 1.04400E+02 2.79170E+01 0.00000E+00
 -1      4120 1.02150E+02 2.66180E+01 0.00000E+00
 -1      4121 1.05900E+02 2.79170E+01 0.00000E+00
 -1      4122 1.07400E+02 2.79170E+01 0.00000E+00
 -1      4123 1.05150E+02 2.66180E+01 0.00000E+00
 -1      4124 1.08900E+02 2.79170E+01 0.00000E+00
 -1      4125 1.10400E+02 2.79170E+01 0.00000E+00
 -1      4126 1.08150E+02 2.66180E+01 0.00000E+00
 -1      4127 1.11900E+02 2.79170E+01 0.00000E+00
 -1      4128 1.13400E+02 2.79170E+01 0.00000E+00
 -1      4129 1.11150E+02 2.66180E+01 0.00000E+00
 -1      4130 5.87850E+01 2.08932E+01 0.00000E+00
 -1      4131 5.72850E+01 2.08932E+01 0.00000E+00
 -1      4132 6.47850E+01 2.08932E+01 0.00000E+00
 -1      4133 6.32850E+01 2.08932E+01 0.00000E+00
 -1      4134 7.07850E+01 2.08932E+01 0.00000E+00
 -1      4135 6.92850E+01 2.08932E+01 0.00000E+00
 -1      4136 7.15350E+01 2.21922E+01 0.00000E+00
 -1      4137 6.77850E+01 2.08932E+01 0.00000E+00
 -1      4138 6.62850E+01 2.08932E+01 0.00000E+00
 -1      4139 6.55350E+01 2.21922E+01 0.00000E+00
 -1      4140 6.85350E+01 2.21922E+01 0.00000E+00
 -1      4141 7.67850E+01 2.08932E+01 0.00000E+00
 -1      4142 7.52850E+01 2.08932E+01 0.00000E+00
 -1      4143 7.45350E+01 2.21922E+01 0.00000E+00
 -1      4144 7.97850E+01 2.08932E+01 0.00000E+00
 -1      4145 7.82850E+01 2.08932E+01 0.00000E+00
 -1      4146 7.75350E+01 2.21922E+01 0.00000E+00
 -1      4147 8.27850E+01 2.08932E+01 0.00000E+00
 -1      4148 8.12850E+01 2.08932E+01 0.00000E+00
 -1      4149 8.05350E+01 2.21922E+01 0.00000E+00
 -1      4150 8.57850E+01 2.08932E+01 0.00000E+00
 -1      4151 8.42850E+01 2.08932E+01 0.00000E+00
 -1      4152 8.35350E+01 2.21922E+01 0.00000E+00
 -1      4153 8.87850E+01 2.08932E+01 0.00000E+00
 -1      4154 8.72850E+01 2.08932E+01 0.00000E+00
 -1      4155 8.65350E+01 2.21922E+01 0.00000E+00
 -1      4156 9.17850E+01 2.08932E+01 0.00000E+00
 -1      4157 9.02850E+01 2.08932E+01 0.00000E+00
 -1      4158 8.95350E+01 2.21922E+01 0.00000E+00
 -1      4159 9.47850E+01 2.08932E+01 0.00000E+00
 -1      4160 9.32850E+01 2.08932E+01 0.00000E+00
 -1      4161 9.25350E+01 2.21922E+01 0.00000E+00
 -1      4162 9.77850E+01 2.08932E+01 0.00000E+00
 -1      4163 9.62850E+01 2.08932E+01 0.00000E+00
 -1      4164 9.55350E+01 2.21922E+01 0.00000E+00
 -1      4165 1.00785E+02 2.08932E+01 0.00000E+00
 -1      4166 9.92850E+01 2.08932E+01 0.00000E+00
 -1      4167 9.85350E+01 2.21922E+01 0.00000E+00
 -1      4168 1.03785E+02 2.08932E+01 0.00000E+00
 -1      4169 1.02285E+02 2.08932E+01 0.00000E+00
 -1      4170 1.01535E+02 2.21922E+01 0.00000E+00
 -1      4171 1.06785E+02 2.08932E+01 0.00000E+00
 -1      4172 1.05285E+02 2.08932E+01 0.00000E+00
 -1      4173 1.04535E+02 2.21922E+01 0.00000E+00
 -1      4174 1.09785E+02 2.08932E+01 0.00000E+00
 -1      4175 1.08285E+02 2.08932E+01 0.00000E+00
 -1      4176 1.07535E+02 2.21922E+01 0.00000E+00
 -1      4177 1.19361E+02 3.12211E+01 0.00000E+00
 -1      4178 6.17850E+01 2.08932E+01 0.00000E+00
 -1      4179 6.02850E+01 2.08932E+01 0.00000E+00
 -1      4180 6.25350E+01 2.21922E+01 0.00000E+00
 -1      4181 2.49000E+01 2.79170E+01 0.00000E+00
 -1      4182 2.64000E+01 2.79170E+01 0.00000E+00
 -1      4183 1.92514E+01 2.82384E+01 0.00000E+00
 -1      4184 1.12340E+02 2.14918E+01 0.00000E+00
 -1      4185 1.10856E+02 2.09357E+01 0.00000E+00
 -1      4186 1.10106E+02 2.22347E+01 0.00000E+00
 -1      4187 1.12249E+02 2.23197E+01 0.00000E+00
 -1      4188 2.04473E+01 2.15061E+01 0.00000E+00
 -1      4189 2.79000E+01 2.79170E+01 0.00000E+00
 -1      4190 2.94000E+01 2.79170E+01 0.00000E+00
 -1      4191 3.01500E+01 2.66180E+01 0.00000E+00
 -1      4192 3.62850E+01 1.82952E+01 0.00000E+00
 -1      4193 3.47850E+01 1.82952E+01 0.00000E+00
 -1      4194 3.70350E+01 1.95942E+01 0.00000E+00
 -1      4195 2.87850E+01 2.08932E+01 0.00000E+00
 -1      4196 2.72850E+01 2.08932E+01 0.00000E+00
 -1      4197 1.15121E+02 2.65289E+01 0.00000E+00
 -1      4198 1.21836E+02 3.11416E+01 0.00000E+00
 -1      4199 2.57850E+01 2.08933E+01 0.00000E+00
 -1      4200 2.42850E+01 2.08933E+01 0.00000E+00
 -1      4201 2.65350E+01 2.21923E+01 0.00000E+00
 -1      4202 2.18228E+01 1.95532E+01 0.00000E+00
 -1      4203 3.40350E+01 1.95942E+01 0.00000E+00
 -1      4204 5.95350E+01 2.21922E+01 0.00000E+00
 -1      4205 1.14405E+02 2.35802E+01 0.00000E+00
 -1      4206 1.13205E+02 2.33458E+01 0.00000E+00
 -1      4207 1.14290E+02 2.45638E+01 0.00000E+00
 -1      4208 5.57850E+01 2.08932E+01 0.00000E+00
 -1      4209 5.42850E+01 2.08932E+01 0.00000E+00
 -1      4210 5.65350E+01 2.21922E+01 0.00000E+00
 -1      4211 2.71500E+01 2.66180E+01 0.00000E+00
 -1      4212 2.30033E+01 2.80009E+01 0.00000E+00
 -1      4213 2.39516E+01 2.79590E+01 0.00000E+00
 -1      4214 2.47016E+01 2.66600E+01 0.00000E+00
 -1      4215 4.37850E+01 2.08932E+01 0.00000E+00
 -1      4216 4.22850E+01 2.08932E+01 0.00000E+00
 -1      4217 2.05504E+01 2.75025E+01 0.00000E+00
 -1      4218 4.07850E+01 2.08932E+01 0.00000E+00
 -1      4219 3.92850E+01 2.08932E+01 0.00000E+00
 -1      4220 4.15350E+01 2.21922E+01 0.00000E+00
 -1      4221 4.97850E+01 2.08932E+01 0.00000E+00
 -1      4222 4.82850E+01 2.08932E+01 0.00000E+00
 -1      4223 3.02850E+01 2.08932E+01 0.00000E+00
 -1      4224 2.95350E+01 2.21922E+01 0.00000E+00
 -1      4225 3.17850E+01 2.08932E+01 0.00000E+00
 -1      4226 4.67850E+01 2.08932E+01 0.00000E+00
 -1      4227 4.52850E+01 2.08932E+01 0.00000E+00
 -1      4228 4.45350E+01 2.21922E+01 0.00000E+00
 -1      4229 4.75350E+01 2.21922E+01 0.00000E+00
 -1      4230 2.20728E+01 2.40546E+01 0.00000E+00
 -1      4231 2.20530E+01 2.51151E+01 0.00000E+00
 -1      4232 2.21595E+01 2.15471E+01 0.00000E+00
 -1      4233 3.47850E+01 2.08932E+01 0.00000E+00
 -1      4234 3.32850E+01 2.08932E+01 0.00000E+00
 -1      4235 3.25350E+01 2.21922E+01 0.00000E+00
 -1      4236 2.98425E+01 2.44051E+01 0.00000E+00
 -1      4237 3.13425E+01 2.44051E+01 0.00000E+00
 -1      4238 3.54000E+01 2.53190E+01 0.00000E+00
 -1      4239 3.69000E+01 2.53190E+01 0.00000E+00
 -1      4240 3.88425E+01 2.44051E+01 0.00000E+00
 -1      4241 4.03425E+01 2.44051E+01 0.00000E+00
 -1      4242 4.18425E+01 2.44051E+01 0.00000E+00
 -1      4243 4.33425E+01 2.44051E+01 0.00000E+00
 -1      4244 4.48425E+01 2.44051E+01 0.00000E+00
 -1      4245 4.63425E+01 2.44051E+01 0.00000E+00
 -1      4246 4.78425E+01 2.44051E+01 0.00000E+00
 -1      4247 4.93425E+01 2.44051E+01 0.00000E+00
 -1      4248 5.34000E+01 2.53190E+01 0.00000E+00
 -1      4249 5.49000E+01 2.53190E+01 0.00000E+00
 -1      4250 5.68425E+01 2.44051E+01 0.00000E+00
 -1      4251 5.83425E+01 2.44051E+01 0.00000E+00
 -1      4252 5.98425E+01 2.44051E+01 0.00000E+00
 -1      4253 6.13425E+01 2.44051E+01 0.00000E+00
 -1      4254 6.28425E+01 2.44051E+01 0.00000E+00
 -1      4255 6.43425E+01 2.44051E+01 0.00000E+00
 -1      4256 6.58425E+01 2.44051E+01 0.00000E+00
 -1      4257 6.73425E+01 2.44051E+01 0.00000E+00
 -1      4258 6.88425E+01 2.44051E+01 0.00000E+00
 -1      4259 7.03425E+01 2.44051E+01 0.00000E+00
 -1      4260 7.18425E+01 2.44051E+01 0.00000E+00
 -1      4261 7.33425E+01 2.44051E+01 0.00000E+00
 -1      4262 7.48425E+01 2.44051E+01 0.00000E+00
 -1      4263 7.63425E+01 2.44051E+01 0.00000E+00
 -1      4264 7.78425E+01 2.44051E+01 0.00000E+00
 -1      4265 7.93425E+01 2.44051E+01 0.00000E+00
 -1      4266 8.08425E+01 2.44051E+01 0.00000E+00
 -1      4267 8.23425E+01 2.44051E+01 0.00000E+00
 -1      4268 8.38425E+01 2.44051E+01 0.00000E+00
 -1      4269 8.53425E+01 2.44051E+01 0.00000E+00
 -1      4270 8.68425E+01 2.44051E+01 0.00000E+00
 -1      4271 8.83425E+01 2.44051E+01 0.00000E+00
 -1      4272 8.98425E+01 2.44051E+01 0.00000E+00
 -1      4273 9.13425E+01 2.44051E+01 0.00000E+00
 -1      4274 9.28425E+01 2.44051E+01 0.00000E+00
 -1      4275 9.43425E+01 2.44051E+01 0.00000E+00
 -1      4276 9.58425E+01 2.44051E+01 0.00000E+00
 -1      4277 9.73425E+01 2.44051E+01 0.00000E+00
 -1      4278 9.88425E+01 2.44051E+01 0.00000E+00
 -1      4279 1.00342E+02 2.44051E+01 0.00000E+00
 -1      4280 1.01842E+02 2.44051E+01 0.00000E+00
 -1      4281 1.03342E+02 2.44051E+01 0.00000E+00
 -1      4282 1.04842E+02 2.44051E+01 0.00000E+00
 -1      4283 1.06342E+02 2.44051E+01 0.00000E+00
 -1      4284 1.07842E+02 2.44051E+01 0.00000E+00
 -1      4285 1.09342E+02 2.44051E+01 0.00000E+00
 -1      4286 2.34484E+01 2.21017E+01 0.00000E+00
 -1      4287 3.28425E+01 2.44051E+01 0.00000E+00
 -1      4288 3.43425E+01 2.44051E+01 0.00000E+00
 -1      4289 2.35575E+01 2.56556E+01 0.00000E+00
 -1      4290 2.22488E+01 2.61615E+01 0.00000E+00
 -1      4291 5.12850E+01 2.08932E+01 0.00000E+00
 -1      4292 5.05350E+01 2.21922E+01 0.00000E+00
 -1      4293 5.27850E+01 2.08932E+01 0.00000E+00
 -1      4294 2.68425E+01 2.44051E+01 0.00000E+00
 -1      4295 2.83425E+01 2.44051E+01 0.00000E+00
 -1      4296 3.77850E+01 2.08932E+01 0.00000E+00
 -1      4297 3.62850E+01 2.08932E+01 0.00000E+00
 -1      4298 3.55350E+01 2.21922E+01 0.00000E+00
 -1      4299 3.85350E+01 2.21922E+01 0.00000E+00
 -1      4300 5.08425E+01 2.44051E+01 0.00000E+00
 -1      4301 2.53425E+01 2.44051E+01 0.00000E+00
 -1      4302 5.60925E+01 2.31061E+01 0.00000E+00
 -1      4303 5.23425E+01 2.44051E+01 0.00000E+00
 -1      4304 5.30925E+01 2.31061E+01 0.00000E+00
 -1      4305 2.45058E+01 2.56136E+01 0.00000E+00
 -1      4306 1.10475E+02 2.31199E+01 0.00000E+00
 -1      4307 1.10783E+02 2.53328E+01 0.00000E+00
 -1      4308 1.12283E+02 2.53328E+01 0.00000E+00
 -1      4309 2.20549E+01 2.80429E+01 0.00000E+00
 -1      4310 1.14070E+02 2.57080E+01 0.00000E+00
 -1      4311 2.41984E+01 2.34007E+01 0.00000E+00
 -1      4312 1.12134E+02 2.33033E+01 0.00000E+00
 -1      4313 3.80925E+01 2.31061E+01 0.00000E+00
 -1      4314 5.35350E+01 2.21922E+01 0.00000E+00
 -1      4315 1.12870E+02 2.54737E+01 0.00000E+00
 -1      4316 3.50925E+01 2.31061E+01 0.00000E+00
 -1      4317 5.45925E+01 2.31061E+01 0.00000E+00
 -1      4318 1.11547E+02 2.31624E+01 0.00000E+00
 -1      4319 1.12503E+02 2.41885E+01 0.00000E+00
 -1      4320 3.65925E+01 2.31061E+01 0.00000E+00
 -3
    3C                          2078                                     1
 -1       165    8    0    1
 -2         6         7        23      1122      1286      1139
 -1       166    8    0    1
 -2         7         8       165      1123      1287      1288
 -1       167    8    0    1
 -2         8         9       166      1124      1289      1290
 -1       168    8    0    1
 -2         8       166       165      1290      1291      1287
 -1       169    8    0    1
 -2         9        10       167      1125      1292      1293
 -1       170    8    0    1
 -2         9       167       166      1293      1294      1289
 -1       171    8    0    1
 -2        10        11       168      1126      1295      1296
 -1       172    8    0    1
 -2        10       168       167      1296      1297      1292
 -1       173    8    0    1
 -2        11        12       169      1127      1298      1299
 -1       174    8    0    1
 -2        11       169       168      1299      1300      1295
 -1       175    8    0    1
 -2        12        13       170      1128      1301      1302
 -1       176    8    0    1
 -2        12       170       169      1302      1303      1298
 -1       177    8    0    1
 -2        13        14       171      1129      1304      1305
 -1       178    8    0    1
 -2        13       171       170      1305      1306      1301
 -1       179    8    0    1
 -2        14        15       172      1130      1307      1308
 -1       180    8    0    1
 -2        14       172       171      1308      1309      1304
 -1       181    8    0    1
 -2        15        16       173      1131      1310      1311
 -1       182    8    0    1
 -2        15       173       172      1311      1312      1307
 -1       183    8    0    1
 -2        16        17       174      1132      1313      1314
 -1       184    8    0    1
 -2        16       174       173      1314      1315      1310
 -1       185    8    0    1
 -2        17        18       175      1133      1316      1317
 -1       186    8    0    1
 -2        17       175       174      1317      1318      1313
 -1       187    8    0    1
 -2        18        19       176      1134      1319      1320
 -1       188    8    0    1
 -2        18       176       175      1320      1321      1316
 -1       189    8    0    1
 -2        19        20       177      1135      1322      1323
 -1       190    8    0    1
 -2        19       177       176      1323      1324      1319
 -1       191    8    0    1
 -2        20        21       178      1136      1325      1326
 -1       192    8    0    1
 -2        20       178       177      1326      1327      1322
 -1       193    8    0    1
 -2        21        22       179      1137      1328      1329
 -1       194    8    0    1
 -2        21       179       178      1329      1330      1325
 -1       195    8    0    1
 -2        22         5       180      1138      1331      1332
 -1       196    8    0    1
 -2       179        22       180      1328      1332      1333
 -1       197    8    0    1
 -2         5        72       180      1189      1334      1331
 -1       198    8    0    1
 -2        24        23       181      1140      1335      1336
 -1       199    8    0    1
 -2        25        24       182      1141      1337      1338
 -1       200    8    0    1
 -2        24       181       182      1336      1339      1337
 -1       201    8    0    1
 -2        26        25       183      1142      1340      1341
 -1       202    8    0    1
 -2        25       182       183      1338      1342      1340
 -1       203    8    0    1
 -2        27        26       184      1143      1343      1344
 -1       204    8    0    1
 -2        26       183       184      1341      1345      1343
 -1       205    8    0    1
 -2        28        27       185      1144      1346      1347
 -1       206    8    0    1
 -2        27       184       185      1344      1348      1346
 -1       207    8    0    1
 -2        29        28       186      1145      1349      1350
 -1       208    8    0    1
 -2        28       185       186      1347      1351      1349
 -1       209    8    0    1
 -2        30        29       187      1146      1352      1353
 -1       210    8    0    1
 -2        29       186       187      1350      1354      1352
 -1       211    8    0    1
 -2        31        30       188      1147      1355      1356
 -1       212    8    0    1
 -2        30       187       188      1353      1357      1355
 -1       213    8    0    1
 -2        32        31       189      1148      1358      1359
 -1       214    8    0    1
 -2        31       188       189      1356      1360      1358
 -1       215    8    0    1
 -2        33        32       190      1149      1361      1362
 -1       216    8    0    1
 -2        32       189       190      1359      1363      1361
 -1       217    8    0    1
 -2        34        33       191      1150      1364      1365
 -1       218    8    0    1
 -2        33       190       191      1362      1366      1364
 -1       219    8    0    1
 -2        35        34       192      1151      1367      1368
 -1       220    8    0    1
 -2        34       191       192      1365      1369      1367
 -1       221    8    0    1
 -2        36        35       193      1152      1370      1371
 -1       222    8    0    1
 -2        35       192       193      1368      1372      1370
 -1       223    8    0    1
 -2        37        36       194      1153      1373      1374
 -1       224    8    0    1
 -2        36       193       194      1371      1375      1373
 -1       225    8    0    1
 -2        38        37       195      1154      1376      1377
 -1       226    8    0    1
 -2        37       194       195      1374      1378      1376
 -1       227    8    0    1
 -2        39        38       196      1155      1379      1380
 -1       228    8    0    1
 -2        38       195       196      1377      1381      1379
 -1       229    8    0    1
 -2        40        39       197      1156      1382      1383
 -1       230    8    0    1
 -2        39       196       197      1380      1384      1382
 -1       231    8    0    1
 -2        41        40       198      1157      1385      1386
 -1       232    8    0    1
 -2        40       197       198      1383      1387      1385
 -1       233    8    0    1
 -2        42        41       199      1158      1388      1389
 -1       234    8    0    1
 -2        41       198       199      1386      1390      1388
 -1       235    8    0    1
 -2        43        42       200      1159      1391      1392
 -1       236    8    0    1
 -2        42       199       200      1389      1393      1391
 -1       237    8    0    1
 -2        44        43       201      1160      1394      1395
 -1       238    8    0    1
 -2        43       200       201      1392      1396      1394
 -1       239    8    0    1
 -2        45        44       202      1161      1397      1398
 -1       240    8    0    1
 -2        44       201       202      1395      1399      1397
 -1       241    8    0    1
 -2        46        45       203      1162      1400      1401
 -1       242    8    0    1
 -2        45       202       203      1398      1402      1400
 -1       243    8    0    1
 -2        47        46       204      1163      1403      1404
 -1       244    8    0    1
 -2        46       203       204      1401      1405      1403
 -1       245    8    0    1
 -2        48        47       205      1164      1406      1407
 -1       246    8    0    1
 -2        47       204       205      1404      1408      1406
 -1       247    8    0    1
 -2        49        48       206      1165      1409      1410
 -1       248    8    0    1
 -2        48       205       206      1407      1411      1409
 -1       249    8    0    1
 -2        50        49       207      1166      1412      1413
 -1       250    8    0    1
 -2        49       206       207      1410      1414      1412
 -1       251    8    0    1
 -2        51        50       208      1167      1415      1416
 -1       252    8    0    1
 -2        50       207       208      1413      1417      1415
 -1       253    8    0    1
 -2        52        51       209      1168      1418      1419
 -1       254    8    0    1
 -2        51       208       209      1416      1420      1418
 -1       255    8    0    1
 -2        53        52       210      1169      1421      1422
 -1       256    8    0    1
 -2        52       209       210      1419      1423      1421
 -1       257    8    0    1
 -2        54        53       211      1170      1424      1425
 -1       258    8    0    1
 -2        53       210       211      1422      1426      1424
 -1       259    8    0    1
 -2        55        54       212      1171      1427      1428
 -1       260    8    0    1
 -2        54       211       212      1425      1429      1427
 -1       261    8    0    1
 -2        56        55       213      1172      1430      1431
 -1       262    8    0    1
 -2        55       212       213      1428      1432      1430
 -1       263    8    0    1
 -2        57        56       214      1173      1433      1434
 -1       264    8    0    1
 -2        56       213       214      1431      1435      1433
 -1       265    8    0    1
 -2        58        57       215      1174      1436      1437
 -1       266    8    0    1
 -2        57       214       215      1434      1438      1436
 -1       267    8    0    1
 -2        59        58       216      1175      1439      1440
 -1       268    8    0    1
 -2        58       215       216      1437      1441      1439
 -1       269    8    0    1
 -2        60        59       217      1176      1442      1443
 -1       270    8    0    1
 -2        59       216       217      1440      1444      1442
 -1       271    8    0    1
 -2        61        60       218      1177      1445      1446
 -1       272    8    0    1
 -2        60       217       218      1443      1447      1445
 -1       273    8    0    1
 -2        62        61       219      1178      1448      1449
 -1       274    8    0    1
 -2        61       218       219      1446      1450      1448
 -1       275    8    0    1
 -2        63        62       220      1179      1451      1452
 -1       276    8    0    1
 -2        62       219       220      1449      1453      1451
 -1       277    8    0    1
 -2        64        63       221      1180      1454      1455
 -1       278    8    0    1
 -2        63       220       221      1452      1456      1454
 -1       279    8    0    1
 -2        65        64       222      1181      1457      1458
 -1       280    8    0    1
 -2        64       221       222      1455      1459      1457
 -1       281    8    0    1
 -2        66        65       223      1182      1460      1461
 -1       282    8    0    1
 -2        65       222       223      1458      1462      1460
 -1       283    8    0    1
 -2        67        66       224      1183      1463      1464
 -1       284    8    0    1
 -2        66       223       224      1461      1465      1463
 -1       285    8    0    1
 -2        68        67       225      1184      1466      1467
 -1       286    8    0    1
 -2        67       224       225      1464      1468      1466
 -1       287    8    0    1
 -2        69        68       226      1185      1469      1470
 -1       288    8    0    1
 -2        68       225       226      1467      1471      1469
 -1       289    8    0    1
 -2        70        69       227      1186      1472      1473
 -1       290    8    0    1
 -2        69       226       227      1470      1474      1472
 -1       291    8    0    1
 -2        71        70       228      1187      1475      1476
 -1       292    8    0    1
 -2        70       227       228      1473      1477      1475
 -1       293    8    0    1
 -2         4        71       137      1188      1478      1256
 -1       294    8    0    1
 -2       137        71       228      1478      1476      1479
 -1       295    8    0    1
 -2        72        73       229      1190      1480      1481
 -1       296    8    0    1
 -2        72       229       180      1481      1482      1334
 -1       297    8    0    1
 -2        73        74       230      1191      1483      1484
 -1       298    8    0    1
 -2        73       230       229      1484      1485      1480
 -1       299    8    0    1
 -2        74        75       231      1192      1486      1487
 -1       300    8    0    1
 -2        74       231       230      1487      1488      1483
 -1       301    8    0    1
 -2        75        76       232      1193      1489      1490
 -1       302    8    0    1
 -2        75       232       231      1490      1491      1486
 -1       303    8    0    1
 -2        76        77       233      1194      1492      1493
 -1       304    8    0    1
 -2        76       233       232      1493      1494      1489
 -1       305    8    0    1
 -2        77        78       234      1195      1495      1496
 -1       306    8    0    1
 -2        77       234       233      1496      1497      1492
 -1       307    8    0    1
 -2        78        79       235      1196      1498      1499
 -1       308    8    0    1
 -2        78       235       234      1499      1500      1495
 -1       309    8    0    1
 -2        79        80       236      1197      1501      1502
 -1       310    8    0    1
 -2        79       236       235      1502      1503      1498
 -1       311    8    0    1
 -2        80        81       237      1198      1504      1505
 -1       312    8    0    1
 -2        80       237       236      1505      1506      1501
 -1       313    8    0    1
 -2        81        82       238      1199      1507      1508
 -1       314    8    0    1
 -2        81       238       237      1508      1509      1504
 -1       315    8    0    1
 -2        82        83       239      1200      1510      1511
 -1       316    8    0    1
 -2        82       239       238      1511      1512      1507
 -1       317    8    0    1
 -2        83        84       240      1201      1513      1514
 -1       318    8    0    1
 -2        83       240       239      1514      1515      1510
 -1       319    8    0    1
 -2        84        85       241      1202      1516      1517
 -1       320    8    0    1
 -2        84       241       240      1517      1518      1513
 -1       321    8    0    1
 -2        85        86       242      1203      1519      1520
 -1       322    8    0    1
 -2        85       242       241      1520      1521      1516
 -1       323    8    0    1
 -2        86        87       243      1204      1522      1523
 -1       324    8    0    1
 -2        86       243       242      1523      1524      1519
 -1       325    8    0    1
 -2        87        88       244      1205      1525      1526
 -1       326    8    0    1
 -2        87       244       243      1526      1527      1522
 -1       327    8    0    1
 -2        88        89       245      1206      1528      1529
 -1       328    8    0    1
 -2        88       245       244      1529      1530      1525
 -1       329    8    0    1
 -2        89        90       246      1207      1531      1532
 -1       330    8    0    1
 -2        89       246       245      1532      1533      1528
 -1       331    8    0    1
 -2        90        91       247      1208      1534      1535
 -1       332    8    0    1
 -2        90       247       246      1535      1536      1531
 -1       333    8    0    1
 -2        91        92       248      1209      1537      1538
 -1       334    8    0    1
 -2        91       248       247      1538      1539      1534
 -1       335    8    0    1
 -2        92        93       249      1210      1540      1541
 -1       336    8    0    1
 -2        92       249       248      1541      1542      1537
 -1       337    8    0    1
 -2        93        94       250      1211      1543      1544
 -1       338    8    0    1
 -2        93       250       249      1544      1545      1540
 -1       339    8    0    1
 -2        94        95       251      1212      1546      1547
 -1       340    8    0    1
 -2        94       251       250      1547      1548      1543
 -1       341    8    0    1
 -2        95        96       252      1213      1549      1550
 -1       342    8    0    1
 -2        95       252       251      1550      1551      1546
 -1       343    8    0    1
 -2        96        97       253      1214      1552      1553
 -1       344    8    0    1
 -2        96       253       252      1553      1554      1549
 -1       345    8    0    1
 -2        97        98       254      1215      1555      1556
 -1       346    8    0    1
 -2        97       254       253      1556      1557      1552
 -1       347    8    0    1
 -2        98        99       255      1216      1558      1559
 -1       348    8    0    1
 -2        98       255       254      1559      1560      1555
 -1       349    8    0    1
 -2        99       100       256      1217      1561      1562
 -1       350    8    0    1
 -2        99       256       255      1562      1563      1558
 -1       351    8    0    1
 -2       100       101       257      1218      1564      1565
 -1       352    8    0    1
 -2       100       257       256      1565      1566      1561
 -1       353    8    0    1
 -2       101       102       258      1219      1567      1568
 -1       354    8    0    1
 -2       101       258       257      1568      1569      1564
 -1       355    8    0    1
 -2       102       103       259      1220      1570      1571
 -1       356    8    0    1
 -2       102       259       258      1571      1572      1567
 -1       357    8    0    1
 -2       103       104       260      1221      1573      1574
 -1       358    8    0    1
 -2       103       260       259      1574      1575      1570
 -1       359    8    0    1
 -2       104       105       261      1222      1576      1577
 -1       360    8    0    1
 -2       104       261       260      1577      1578      1573
 -1       361    8    0    1
 -2       105       106       262      1223      1579      1580
 -1       362    8    0    1
 -2       105       262       261      1580      1581      1576
 -1       363    8    0    1
 -2       106       107       263      1224      1582      1583
 -1       364    8    0    1
 -2       106       263       262      1583      1584      1579
 -1       365    8    0    1
 -2       107       108       264      1225      1585      1586
 -1       366    8    0    1
 -2       107       264       263      1586      1587      1582
 -1       367    8    0    1
 -2       108       109       265      1226      1588      1589
 -1       368    8    0    1
 -2       108       265       264      1589      1590      1585
 -1       369    8    0    1
 -2       109       110       266      1227      1591      1592
 -1       370    8    0    1
 -2       109       266       265      1592      1593      1588
 -1       371    8    0    1
 -2       110       111       267      1228      1594      1595
 -1       372    8    0    1
 -2       110       267       266      1595      1596      1591
 -1       373    8    0    1
 -2       111       112       268      1229      1597      1598
 -1       374    8    0    1
 -2       111       268       267      1598      1599      1594
 -1       375    8    0    1
 -2       112       113       269      1230      1600      1601
 -1       376    8    0    1
 -2       112       269       268      1601      1602      1597
 -1       377    8    0    1
 -2       113       114       270      1231      1603      1604
 -1       378    8    0    1
 -2       113       270       269      1604      1605      1600
 -1       379    8    0    1
 -2       114       115       271      1232      1606      1607
 -1       380    8    0    1
 -2       114       271       270      1607      1608      1603
 -1       381    8    0    1
 -2       115       116       272      1233      1609      1610
 -1       382    8    0    1
 -2       115       272       271      1610      1611      1606
 -1       383    8    0    1
 -2       116       117       273      1234      1612      1613
 -1       384    8    0    1
 -2       116       273       272      1613      1614      1609
 -1       385    8    0    1
 -2       117       118       274      1235      1615      1616
 -1       386    8    0    1
 -2       117       274       273      1616      1617      1612
 -1       387    8    0    1
 -2       118       119       275      1236      1618      1619
 -1       388    8    0    1
 -2       118       275       274      1619      1620      1615
 -1       389    8    0    1
 -2       119       120       276      1237      1621      1622
 -1       390    8    0    1
 -2       119       276       275      1622      1623      1618
 -1       391    8    0    1
 -2       120         3       121      1238      1239      1624
 -1       392    8    0    1
 -2       121       122       277      1240      1625      1626
 -1       393    8    0    1
 -2       122       123       278      1241      1627      1628
 -1       394    8    0    1
 -2       122       278       277      1628      1629      1625
 -1       395    8    0    1
 -2       123       124       279      1242      1630      1631
 -1       396    8    0    1
 -2       123       279       278      1631      1632      1627
 -1       397    8    0    1
 -2       124       125       280      1243      1633      1634
 -1       398    8    0    1
 -2       124       280       279      1634      1635      1630
 -1       399    8    0    1
 -2       125       126       281      1244      1636      1637
 -1       400    8    0    1
 -2       125       281       280      1637      1638      1633
 -1       401    8    0    1
 -2       126       127       282      1245      1639      1640
 -1       402    8    0    1
 -2       126       282       281      1640      1641      1636
 -1       403    8    0    1
 -2       127       128       283      1246      1642      1643
 -1       404    8    0    1
 -2       127       283       282      1643      1644      1639
 -1       405    8    0    1
 -2       128       129       284      1247      1645      1646
 -1       406    8    0    1
 -2       128       284       283      1646      1647      1642
 -1       407    8    0    1
 -2       129       130       285      1248      1648      1649
 -1       408    8    0    1
 -2       129       285       284      1649      1650      1645
 -1       409    8    0    1
 -2       130       131       286      1249      1651      1652
 -1       410    8    0    1
 -2       130       286       285      1652      1653      1648
 -1       411    8    0    1
 -2       131       132       287      1250      1654      1655
 -1       412    8    0    1
 -2       131       287       286      1655      1656      1651
 -1       413    8    0    1
 -2       132       133       288      1251      1657      1658
 -1       414    8    0    1
 -2       132       288       287      1658      1659      1654
 -1       415    8    0    1
 -2       133       134       289      1252      1660      1661
 -1       416    8    0    1
 -2       133       289       288      1661      1662      1657
 -1       417    8    0    1
 -2       134       135       290      1253      1663      1664
 -1       418    8    0    1
 -2       134       290       289      1664      1665      1660
 -1       419    8    0    1
 -2       135       136       291      1254      1666      1667
 -1       420    8    0    1
 -2       135       291       290      1667      1668      1663
 -1       421    8    0    1
 -2       136       137       292      1255      1669      1670
 -1       422    8    0    1
 -2       291       136       292      1666      1670      1671
 -1       423    8    0    1
 -2       137       228       292      1479      1672      1669
 -1       424    8    0    1
 -2         2       138       293      1257      1673      1674
 -1       425    8    0    1
 -2       138       139       294      1258      1675      1676
 -1       426    8    0    1
 -2       139       140       295      1259      1677      1678
 -1       427    8    0    1
 -2       140       141       296      1260      1679      1680
 -1       428    8    0    1
 -2       141       142       297      1261      1681      1682
 -1       429    8    0    1
 -2       142       143       298      1262      1683      1684
 -1       430    8    0    1
 -2       143       144       299      1263      1685      1686
 -1       431    8    0    1
 -2       144       145       300      1264      1687      1688
 -1       432    8    0    1
 -2       145       146       301      1265      1689      1690
 -1       433    8    0    1
 -2       146       147       302      1266      1691      1692
 -1       434    8    0    1
 -2       147       148       303      1267      1693      1694
 -1       435    8    0    1
 -2       148       149       304      1268      1695      1696
 -1       436    8    0    1
 -2       149       150       305      1269      1697      1698
 -1       437    8    0    1
 -2       150       151       306      1270      1699      1700
 -1       438    8    0    1
 -2       151       152       307      1271      1701      1702
 -1       439    8    0    1
 -2       152       153       308      1272      1703      1704
 -1       440    8    0    1
 -2       153       154       309      1273      1705      1706
 -1       441    8    0    1
 -2       154       155       310      1274      1707      1708
 -1       442    8    0    1
 -2       155       156       311      1275      1709      1710
 -1       443    8    0    1
 -2       156       157       312      1276      1711      1712
 -1       444    8    0    1
 -2       157       158       313      1277      1713      1714
 -1       445    8    0    1
 -2       158       159       314      1278      1715      1716
 -1       446    8    0    1
 -2       159       160       315      1279      1717      1718
 -1       447    8    0    1
 -2       160       161       316      1280      1719      1720
 -1       448    8    0    1
 -2       161         1       317      1281      1721      1722
 -1       449    8    0    1
 -2         1       162       318      1282      1723      1724
 -1       450    8    0    1
 -2       162       163       319      1283      1725      1726
 -1       451    8    0    1
 -2       163       164       320      1284      1727      1728
 -1       452    8    0    1
 -2       164         2       321      1285      1729      1730
 -1       453    8    0    1
 -2       296       141       297      1679      1682      1731
 -1       454    8    0    1
 -2       295       140       296      1677      1680      1732
 -1       455    8    0    1
 -2       120       121       276      1624      1733      1621
 -1       456    8    0    1
 -2       121       277       276      1626      1734      1733
 -1       457    8    0    1
 -2       293       138       294      1673      1676      1735
 -1       458    8    0    1
 -2       294       139       295      1675      1678      1736
 -1       459    8    0    1
 -2         2       293       321      1674      1737      1729
 -1       460    8    0    1
 -2       142       298       297      1684      1738      1681
 -1       461    8    0    1
 -2       143       299       298      1686      1739      1683
 -1       462    8    0    1
 -2       144       300       299      1688      1740      1685
 -1       463    8    0    1
 -2       145       301       300      1690      1741      1687
 -1       464    8    0    1
 -2       146       302       301      1692      1742      1689
 -1       465    8    0    1
 -2       147       303       302      1694      1743      1691
 -1       466    8    0    1
 -2       148       304       303      1696      1744      1693
 -1       467    8    0    1
 -2       149       305       304      1698      1745      1695
 -1       468    8    0    1
 -2       150       306       305      1700      1746      1697
 -1       469    8    0    1
 -2       151       307       306      1702      1747      1699
 -1       470    8    0    1
 -2       152       308       307      1704      1748      1701
 -1       471    8    0    1
 -2       153       309       308      1706      1749      1703
 -1       472    8    0    1
 -2       154       310       309      1708      1750      1705
 -1       473    8    0    1
 -2       155       311       310      1710      1751      1707
 -1       474    8    0    1
 -2       156       312       311      1712      1752      1709
 -1       475    8    0    1
 -2       157       313       312      1714      1753      1711
 -1       476    8    0    1
 -2       158       314       313      1716      1754      1713
 -1       477    8    0    1
 -2       159       315       314      1718      1755      1715
 -1       478    8    0    1
 -2       160       316       315      1720      1756      1717
 -1       479    8    0    1
 -2       161       317       316      1722      1757      1719
 -1       480    8    0    1
 -2         1       318       317      1724      1758      1721
 -1       481    8    0    1
 -2       162       319       318      1726      1759      1723
 -1       482    8    0    1
 -2       163       320       319      1728      1760      1725
 -1       483    8    0    1
 -2       164       321       320      1730      1761      1727
 -1       484    8    0    1
 -2        23         7       165      1286      1288      1762
 -1       485    8    0    1
 -2       166       167       322      1294      1763      1764
 -1       486    8    0    1
 -2       165       166       323      1291      1765      1766
 -1       487    8    0    1
 -2       166       322       323      1764      1767      1765
 -1       488    8    0    1
 -2       168       169       324      1300      1768      1769
 -1       489    8    0    1
 -2       169       170       325      1303      1770      1771
 -1       490    8    0    1
 -2       169       325       324      1771      1772      1768
 -1       491    8    0    1
 -2       170       171       326      1306      1773      1774
 -1       492    8    0    1
 -2       170       326       325      1774      1775      1770
 -1       493    8    0    1
 -2       171       172       327      1309      1776      1777
 -1       494    8    0    1
 -2       171       327       326      1777      1778      1773
 -1       495    8    0    1
 -2       172       173       328      1312      1779      1780
 -1       496    8    0    1
 -2       172       328       327      1780      1781      1776
 -1       497    8    0    1
 -2       173       174       329      1315      1782      1783
 -1       498    8    0    1
 -2       173       329       328      1783      1784      1779
 -1       499    8    0    1
 -2       174       175       330      1318      1785      1786
 -1       500    8    0    1
 -2       174       330       329      1786      1787      1782
 -1       501    8    0    1
 -2       175       176       331      1321      1788      1789
 -1       502    8    0    1
 -2       175       331       330      1789      1790      1785
 -1       503    8    0    1
 -2       176       177       332      1324      1791      1792
 -1       504    8    0    1
 -2       176       332       331      1792      1793      1788
 -1       505    8    0    1
 -2       177       178       333      1327      1794      1795
 -1       506    8    0    1
 -2       177       333       332      1795      1796      1791
 -1       507    8    0    1
 -2       178       179       334      1330      1797      1798
 -1       508    8    0    1
 -2       178       334       333      1798      1799      1794
 -1       509    8    0    1
 -2       179       180       335      1333      1800      1801
 -1       510    8    0    1
 -2       334       179       335      1797      1801      1802
 -1       511    8    0    1
 -2       180       229       335      1482      1803      1800
 -1       512    8    0    1
 -2       181        23       165      1335      1762      1804
 -1       513    8    0    1
 -2       229       230       336      1485      1805      1806
 -1       514    8    0    1
 -2       229       336       335      1806      1807      1803
 -1       515    8    0    1
 -2       181       165       323      1804      1766      1808
 -1       516    8    0    1
 -2       183       182       337      1342      1809      1810
 -1       517    8    0    1
 -2       184       183       338      1345      1811      1812
 -1       518    8    0    1
 -2       183       337       338      1810      1813      1811
 -1       519    8    0    1
 -2       185       184       339      1348      1814      1815
 -1       520    8    0    1
 -2       184       338       339      1812      1816      1814
 -1       521    8    0    1
 -2       186       185       340      1351      1817      1818
 -1       522    8    0    1
 -2       185       339       340      1815      1819      1817
 -1       523    8    0    1
 -2       187       186       341      1354      1820      1821
 -1       524    8    0    1
 -2       186       340       341      1818      1822      1820
 -1       525    8    0    1
 -2       188       187       342      1357      1823      1824
 -1       526    8    0    1
 -2       187       341       342      1821      1825      1823
 -1       527    8    0    1
 -2       189       188       343      1360      1826      1827
 -1       528    8    0    1
 -2       188       342       343      1824      1828      1826
 -1       529    8    0    1
 -2       190       189       344      1363      1829      1830
 -1       530    8    0    1
 -2       189       343       344      1827      1831      1829
 -1       531    8    0    1
 -2       191       190       345      1366      1832      1833
 -1       532    8    0    1
 -2       190       344       345      1830      1834      1832
 -1       533    8    0    1
 -2       192       191       346      1369      1835      1836
 -1       534    8    0    1
 -2       191       345       346      1833      1837      1835
 -1       535    8    0    1
 -2       193       192       347      1372      1838      1839
 -1       536    8    0    1
 -2       192       346       347      1836      1840      1838
 -1       537    8    0    1
 -2       194       193       348      1375      1841      1842
 -1       538    8    0    1
 -2       193       347       348      1839      1843      1841
 -1       539    8    0    1
 -2       195       194       349      1378      1844      1845
 -1       540    8    0    1
 -2       194       348       349      1842      1846      1844
 -1       541    8    0    1
 -2       196       195       350      1381      1847      1848
 -1       542    8    0    1
 -2       195       349       350      1845      1849      1847
 -1       543    8    0    1
 -2       197       196       351      1384      1850      1851
 -1       544    8    0    1
 -2       196       350       351      1848      1852      1850
 -1       545    8    0    1
 -2       198       197       352      1387      1853      1854
 -1       546    8    0    1
 -2       197       351       352      1851      1855      1853
 -1       547    8    0    1
 -2       199       198       353      1390      1856      1857
 -1       548    8    0    1
 -2       198       352       353      1854      1858      1856
 -1       549    8    0    1
 -2       200       199       354      1393      1859      1860
 -1       550    8    0    1
 -2       199       353       354      1857      1861      1859
 -1       551    8    0    1
 -2       201       200       355      1396      1862      1863
 -1       552    8    0    1
 -2       200       354       355      1860      1864      1862
 -1       553    8    0    1
 -2       202       201       356      1399      1865      1866
 -1       554    8    0    1
 -2       201       355       356      1863      1867      1865
 -1       555    8    0    1
 -2       203       202       357      1402      1868      1869
 -1       556    8    0    1
 -2       202       356       357      1866      1870      1868
 -1       557    8    0    1
 -2       204       203       358      1405      1871      1872
 -1       558    8    0    1
 -2       203       357       358      1869      1873      1871
 -1       559    8    0    1
 -2       205       204       359      1408      1874      1875
 -1       560    8    0    1
 -2       204       358       359      1872      1876      1874
 -1       561    8    0    1
 -2       206       205       360      1411      1877      1878
 -1       562    8    0    1
 -2       205       359       360      1875      1879      1877
 -1       563    8    0    1
 -2       207       206       361      1414      1880      1881
 -1       564    8    0    1
 -2       206       360       361      1878      1882      1880
 -1       565    8    0    1
 -2       208       207       362      1417      1883      1884
 -1       566    8    0    1
 -2       207       361       362      1881      1885      1883
 -1       567    8    0    1
 -2       209       208       363      1420      1886      1887
 -1       568    8    0    1
 -2       208       362       363      1884      1888      1886
 -1       569    8    0    1
 -2       210       209       364      1423      1889      1890
 -1       570    8    0    1
 -2       209       363       364      1887      1891      1889
 -1       571    8    0    1
 -2       211       210       365      1426      1892      1893
 -1       572    8    0    1
 -2       210       364       365      1890      1894      1892
 -1       573    8    0    1
 -2       212       211       366      1429      1895      1896
 -1       574    8    0    1
 -2       211       365       366      1893      1897      1895
 -1       575    8    0    1
 -2       213       212       367      1432      1898      1899
 -1       576    8    0    1
 -2       212       366       367      1896      1900      1898
 -1       577    8    0    1
 -2       214       213       368      1435      1901      1902
 -1       578    8    0    1
 -2       213       367       368      1899      1903      1901
 -1       579    8    0    1
 -2       215       214       369      1438      1904      1905
 -1       580    8    0    1
 -2       214       368       369      1902      1906      1904
 -1       581    8    0    1
 -2       216       215       370      1441      1907      1908
 -1       582    8    0    1
 -2       215       369       370      1905      1909      1907
 -1       583    8    0    1
 -2       217       216       371      1444      1910      1911
 -1       584    8    0    1
 -2       216       370       371      1908      1912      1910
 -1       585    8    0    1
 -2       218       217       372      1447      1913      1914
 -1       586    8    0    1
 -2       217       371       372      1911      1915      1913
 -1       587    8    0    1
 -2       219       218       373      1450      1916      1917
 -1       588    8    0    1
 -2       218       372       373      1914      1918      1916
 -1       589    8    0    1
 -2       220       219       374      1453      1919      1920
 -1       590    8    0    1
 -2       219       373       374      1917      1921      1919
 -1       591    8    0    1
 -2       221       220       375      1456      1922      1923
 -1       592    8    0    1
 -2       220       374       375      1920      1924      1922
 -1       593    8    0    1
 -2       222       221       376      1459      1925      1926
 -1       594    8    0    1
 -2       221       375       376      1923      1927      1925
 -1       595    8    0    1
 -2       223       222       377      1462      1928      1929
 -1       596    8    0    1
 -2       222       376       377      1926      1930      1928
 -1       597    8    0    1
 -2       224       223       378      1465      1931      1932
 -1       598    8    0    1
 -2       223       377       378      1929      1933      1931
 -1       599    8    0    1
 -2       225       224       379      1468      1934      1935
 -1       600    8    0    1
 -2       224       378       379      1932      1936      1934
 -1       601    8    0    1
 -2       226       225       380      1471      1937      1938
 -1       602    8    0    1
 -2       225       379       380      1935      1939      1937
 -1       603    8    0    1
 -2       227       226       381      1474      1940      1941
 -1       604    8    0    1
 -2       226       380       381      1938      1942      1940
 -1       605    8    0    1
 -2       228       227       382      1477      1943      1944
 -1       606    8    0    1
 -2       292       228       382      1672      1944      1945
 -1       607    8    0    1
 -2       227       381       382      1941      1946      1943
 -1       608    8    0    1
 -2       230       231       383      1488      1947      1948
 -1       609    8    0    1
 -2       230       383       336      1948      1949      1805
 -1       610    8    0    1
 -2       231       232       384      1491      1950      1951
 -1       611    8    0    1
 -2       231       384       383      1951      1952      1947
 -1       612    8    0    1
 -2       232       233       385      1494      1953      1954
 -1       613    8    0    1
 -2       232       385       384      1954      1955      1950
 -1       614    8    0    1
 -2       233       234       386      1497      1956      1957
 -1       615    8    0    1
 -2       233       386       385      1957      1958      1953
 -1       616    8    0    1
 -2       234       235       387      1500      1959      1960
 -1       617    8    0    1
 -2       234       387       386      1960      1961      1956
 -1       618    8    0    1
 -2       235       236       388      1503      1962      1963
 -1       619    8    0    1
 -2       235       388       387      1963      1964      1959
 -1       620    8    0    1
 -2       236       237       389      1506      1965      1966
 -1       621    8    0    1
 -2       236       389       388      1966      1967      1962
 -1       622    8    0    1
 -2       237       238       390      1509      1968      1969
 -1       623    8    0    1
 -2       237       390       389      1969      1970      1965
 -1       624    8    0    1
 -2       238       239       391      1512      1971      1972
 -1       625    8    0    1
 -2       238       391       390      1972      1973      1968
 -1       626    8    0    1
 -2       239       240       392      1515      1974      1975
 -1       627    8    0    1
 -2       239       392       391      1975      1976      1971
 -1       628    8    0    1
 -2       240       241       393      1518      1977      1978
 -1       629    8    0    1
 -2       240       393       392      1978      1979      1974
 -1       630    8    0    1
 -2       241       242       394      1521      1980      1981
 -1       631    8    0    1
 -2       241       394       393      1981      1982      1977
 -1       632    8    0    1
 -2       242       243       395      1524      1983      1984
 -1       633    8    0    1
 -2       242       395       394      1984      1985      1980
 -1       634    8    0    1
 -2       243       244       396      1527      1986      1987
 -1       635    8    0    1
 -2       243       396       395      1987      1988      1983
 -1       636    8    0    1
 -2       244       245       397      1530      1989      1990
 -1       637    8    0    1
 -2       244       397       396      1990      1991      1986
 -1       638    8    0    1
 -2       245       246       398      1533      1992      1993
 -1       639    8    0    1
 -2       245       398       397      1993      1994      1989
 -1       640    8    0    1
 -2       246       247       399      1536      1995      1996
 -1       641    8    0    1
 -2       246       399       398      1996      1997      1992
 -1       642    8    0    1
 -2       247       248       400      1539      1998      1999
 -1       643    8    0    1
 -2       247       400       399      1999      2000      1995
 -1       644    8    0    1
 -2       248       249       401      1542      2001      2002
 -1       645    8    0    1
 -2       248       401       400      2002      2003      1998
 -1       646    8    0    1
 -2       249       250       402      1545      2004      2005
 -1       647    8    0    1
 -2       249       402       401      2005      2006      2001
 -1       648    8    0    1
 -2       250       251       403      1548      2007      2008
 -1       649    8    0    1
 -2       250       403       402      2008      2009      2004
 -1       650    8    0    1
 -2       251       252       404      1551      2010      2011
 -1       651    8    0    1
 -2       251       404       403      2011      2012      2007
 -1       652    8    0    1
 -2       252       253       405      1554      2013      2014
 -1       653    8    0    1
 -2       252       405       404      2014      2015      2010
 -1       654    8    0    1
 -2       253       254       406      1557      2016      2017
 -1       655    8    0    1
 -2       253       406       405      2017      2018      2013
 -1       656    8    0    1
 -2       254       255       407      1560      2019      2020
 -1       657    8    0    1
 -2       254       407       406      2020      2021      2016
 -1       658    8    0    1
 -2       255       256       408      1563      2022      2023
 -1       659    8    0    1
 -2       255       408       407      2023      2024      2019
 -1       660    8    0    1
 -2       256       257       409      1566      2025      2026
 -1       661    8    0    1
 -2       256       409       408      2026      2027      2022
 -1       662    8    0    1
 -2       257       258       410      1569      2028      2029
 -1       663    8    0    1
 -2       257       410       409      2029      2030      2025
 -1       664    8    0    1
 -2       258       259       411      1572      2031      2032
 -1       665    8    0    1
 -2       258       411       410      2032      2033      2028
 -1       666    8    0    1
 -2       259       260       412      1575      2034      2035
 -1       667    8    0    1
 -2       259       412       411      2035      2036      2031
 -1       668    8    0    1
 -2       260       261       413      1578      2037      2038
 -1       669    8    0    1
 -2       260       413       412      2038      2039      2034
 -1       670    8    0    1
 -2       261       262       414      1581      2040      2041
 -1       671    8    0    1
 -2       261       414       413      2041      2042      2037
 -1       672    8    0    1
 -2       262       263       415      1584      2043      2044
 -1       673    8    0    1
 -2       262       415       414      2044      2045      2040
 -1       674    8    0    1
 -2       263       264       416      1587      2046      2047
 -1       675    8    0    1
 -2       263       416       415      2047      2048      2043
 -1       676    8    0    1
 -2       264       265       417      1590      2049      2050
 -1       677    8    0    1
 -2       264       417       416      2050      2051      2046
 -1       678    8    0    1
 -2       265       266       418      1593      2052      2053
 -1       679    8    0    1
 -2       265       418       417      2053      2054      2049
 -1       680    8    0    1
 -2       266       267       419      1596      2055      2056
 -1       681    8    0    1
 -2       266       419       418      2056      2057      2052
 -1       682    8    0    1
 -2       267       268       420      1599      2058      2059
 -1       683    8    0    1
 -2       267       420       419      2059      2060      2055
 -1       684    8    0    1
 -2       268       269       421      1602      2061      2062
 -1       685    8    0    1
 -2       268       421       420      2062      2063      2058
 -1       686    8    0    1
 -2       269       270       422      1605      2064      2065
 -1       687    8    0    1
 -2       269       422       421      2065      2066      2061
 -1       688    8    0    1
 -2       270       271       423      1608      2067      2068
 -1       689    8    0    1
 -2       270       423       422      2068      2069      2064
 -1       690    8    0    1
 -2       271       272       424      1611      2070      2071
 -1       691    8    0    1
 -2       271       424       423      2071      2072      2067
 -1       692    8    0    1
 -2       272       273       425      1614      2073      2074
 -1       693    8    0    1
 -2       272       425       424      2074      2075      2070
 -1       694    8    0    1
 -2       273       274       426      1617      2076      2077
 -1       695    8    0    1
 -2       273       426       425      2077      2078      2073
 -1       696    8    0    1
 -2       274       275       427      1620      2079      2080
 -1       697    8    0    1
 -2       274       427       426      2080      2081      2076
 -1       698    8    0    1
 -2       275       276       428      1623      2082      2083
 -1       699    8    0    1
 -2       427       275       428      2079      2083      2084
 -1       700    8    0    1
 -2       276       277       428      1734      2085      2082
 -1       701    8    0    1
 -2       279       280       429      1635      2086      2087
 -1       702    8    0    1
 -2       278       279       430      1632      2088      2089
 -1       703    8    0    1
 -2       279       429       430      2087      2090      2088
 -1       704    8    0    1
 -2       277       278       431      1629      2091      2092
 -1       705    8    0    1
 -2       428       277       431      2085      2092      2093
 -1       706    8    0    1
 -2       278       430       431      2089      2094      2091
 -1       707    8    0    1
 -2       280       281       432      1638      2095      2096
 -1       708    8    0    1
 -2       280       432       429      2096      2097      2086
 -1       709    8    0    1
 -2       282       283       433      1644      2098      2099
 -1       710    8    0    1
 -2       283       284       434      1647      2100      2101
 -1       711    8    0    1
 -2       283       434       433      2101      2102      2098
 -1       712    8    0    1
 -2       284       285       435      1650      2103      2104
 -1       713    8    0    1
 -2       284       435       434      2104      2105      2100
 -1       714    8    0    1
 -2       285       286       436      1653      2106      2107
 -1       715    8    0    1
 -2       285       436       435      2107      2108      2103
 -1       716    8    0    1
 -2       286       287       437      1656      2109      2110
 -1       717    8    0    1
 -2       287       288       438      1659      2111      2112
 -1       718    8    0    1
 -2       287       438       437      2112      2113      2109
 -1       719    8    0    1
 -2       288       289       439      1662      2114      2115
 -1       720    8    0    1
 -2       288       439       438      2115      2116      2111
 -1       721    8    0    1
 -2       289       290       440      1665      2117      2118
 -1       722    8    0    1
 -2       289       440       439      2118      2119      2114
 -1       723    8    0    1
 -2       290       291       441      1668      2120      2121
 -1       724    8    0    1
 -2       290       441       440      2121      2122      2117
 -1       725    8    0    1
 -2       294       295       442      1736      2123      2124
 -1       726    8    0    1
 -2       321       293       434      1737      2125      2126
 -1       727    8    0    1
 -2       295       296       443      1732      2127      2128
 -1       728    8    0    1
 -2       296       297       444      1731      2129      2130
 -1       729    8    0    1
 -2       167       168       445      1297      2131      2132
 -1       730    8    0    1
 -2       322       167       445      1763      2132      2133
 -1       731    8    0    1
 -2       168       324       445      1769      2134      2131
 -1       732    8    0    1
 -2       298       299       446      1739      2135      2136
 -1       733    8    0    1
 -2       299       300       447      1740      2137      2138
 -1       734    8    0    1
 -2       299       447       446      2138      2139      2135
 -1       735    8    0    1
 -2       300       301       448      1741      2140      2141
 -1       736    8    0    1
 -2       301       302       449      1742      2142      2143
 -1       737    8    0    1
 -2       302       303       450      1743      2144      2145
 -1       738    8    0    1
 -2       303       304       451      1744      2146      2147
 -1       739    8    0    1
 -2       304       305       452      1745      2148      2149
 -1       740    8    0    1
 -2       305       306       453      1746      2150      2151
 -1       741    8    0    1
 -2       305       453       452      2151      2152      2148
 -1       742    8    0    1
 -2       306       307       454      1747      2153      2154
 -1       743    8    0    1
 -2       307       308       455      1748      2155      2156
 -1       744    8    0    1
 -2       308       309       456      1749      2157      2158
 -1       745    8    0    1
 -2       309       310       457      1750      2159      2160
 -1       746    8    0    1
 -2       310       311       458      1751      2161      2162
 -1       747    8    0    1
 -2       311       312       459      1752      2163      2164
 -1       748    8    0    1
 -2       312       313       460      1753      2165      2166
 -1       749    8    0    1
 -2       313       314       461      1754      2167      2168
 -1       750    8    0    1
 -2       314       315       462      1755      2169      2170
 -1       751    8    0    1
 -2       315       316       463      1756      2171      2172
 -1       752    8    0    1
 -2       316       317       464      1757      2173      2174
 -1       753    8    0    1
 -2       316       464       463      2174      2175      2171
 -1       754    8    0    1
 -2       317       318       465      1758      2176      2177
 -1       755    8    0    1
 -2       318       319       466      1759      2178      2179
 -1       756    8    0    1
 -2       319       320       467      1760      2180      2181
 -1       757    8    0    1
 -2       297       298       468      1738      2182      2183
 -1       758    8    0    1
 -2       434       293       433      2125      2184      2102
 -1       759    8    0    1
 -2       181       323       182      1808      2185      1339
 -1       760    8    0    1
 -2       443       296       444      2127      2130      2186
 -1       761    8    0    1
 -2       298       446       468      2136      2187      2182
 -1       762    8    0    1
 -2       337       182       323      1809      2185      2188
 -1       763    8    0    1
 -2       432       281       469      2095      2189      2190
 -1       764    8    0    1
 -2       281       282       469      1641      2191      2189
 -1       765    8    0    1
 -2       286       437       436      2110      2192      2106
 -1       766    8    0    1
 -2       442       295       443      2123      2128      2193
 -1       767    8    0    1
 -2       291       292       470      1671      2194      2195
 -1       768    8    0    1
 -2       441       291       470      2120      2195      2196
 -1       769    8    0    1
 -2       292       382       470      1945      2197      2194
 -1       770    8    0    1
 -2       321       434       471      2126      2198      2199
 -1       771    8    0    1
 -2       320       321       471      1761      2199      2200
 -1       772    8    0    1
 -2       434       435       471      2105      2201      2198
 -1       773    8    0    1
 -2       293       294       472      1735      2202      2203
 -1       774    8    0    1
 -2       467       320       471      2180      2200      2204
 -1       775    8    0    1
 -2       466       319       467      2178      2181      2205
 -1       776    8    0    1
 -2       464       317       473      2173      2206      2207
 -1       777    8    0    1
 -2       317       465       473      2177      2208      2206
 -1       778    8    0    1
 -2       462       315       463      2169      2172      2209
 -1       779    8    0    1
 -2       461       314       462      2167      2170      2210
 -1       780    8    0    1
 -2       460       313       461      2165      2168      2211
 -1       781    8    0    1
 -2       459       312       460      2163      2166      2212
 -1       782    8    0    1
 -2       458       311       459      2161      2164      2213
 -1       783    8    0    1
 -2       457       310       474      2159      2214      2215
 -1       784    8    0    1
 -2       310       458       474      2162      2216      2214
 -1       785    8    0    1
 -2       456       309       457      2157      2160      2217
 -1       786    8    0    1
 -2       455       308       456      2155      2158      2218
 -1       787    8    0    1
 -2       453       306       454      2150      2154      2219
 -1       788    8    0    1
 -2       451       304       452      2146      2149      2220
 -1       789    8    0    1
 -2       450       303       451      2144      2147      2221
 -1       790    8    0    1
 -2       449       302       450      2142      2145      2222
 -1       791    8    0    1
 -2       444       297       468      2129      2183      2223
 -1       792    8    0    1
 -2       300       448       447      2141      2224      2137
 -1       793    8    0    1
 -2       448       301       449      2140      2143      2225
 -1       794    8    0    1
 -2       454       307       455      2153      2156      2226
 -1       795    8    0    1
 -2       465       318       466      2176      2179      2227
 -1       796    8    0    1
 -2       472       294       442      2202      2124      2228
 -1       797    8    0    1
 -2       336       383       475      1949      2229      2230
 -1       798    8    0    1
 -2       325       326       476      1775      2231      2232
 -1       799    8    0    1
 -2       324       325       477      1772      2233      2234
 -1       800    8    0    1
 -2       325       476       477      2232      2235      2233
 -1       801    8    0    1
 -2       327       328       478      1781      2236      2237
 -1       802    8    0    1
 -2       328       329       479      1784      2238      2239
 -1       803    8    0    1
 -2       328       479       478      2239      2240      2236
 -1       804    8    0    1
 -2       329       330       480      1787      2241      2242
 -1       805    8    0    1
 -2       329       480       479      2242      2243      2238
 -1       806    8    0    1
 -2       330       331       481      1790      2244      2245
 -1       807    8    0    1
 -2       330       481       480      2245      2246      2241
 -1       808    8    0    1
 -2       331       332       482      1793      2247      2248
 -1       809    8    0    1
 -2       331       482       481      2248      2249      2244
 -1       810    8    0    1
 -2       332       333       483      1796      2250      2251
 -1       811    8    0    1
 -2       332       483       482      2251      2252      2247
 -1       812    8    0    1
 -2       383       384       484      1952      2253      2254
 -1       813    8    0    1
 -2       383       484       475      2254      2255      2229
 -1       814    8    0    1
 -2       338       337       485      1813      2256      2257
 -1       815    8    0    1
 -2       443       444       486      2186      2258      2259
 -1       816    8    0    1
 -2       436       437       487      2192      2260      2261
 -1       817    8    0    1
 -2       339       338       488      1816      2262      2263
 -1       818    8    0    1
 -2       338       485       488      2257      2264      2262
 -1       819    8    0    1
 -2       340       339       489      1819      2265      2266
 -1       820    8    0    1
 -2       339       488       489      2263      2267      2265
 -1       821    8    0    1
 -2       341       340       490      1822      2268      2269
 -1       822    8    0    1
 -2       340       489       490      2266      2270      2268
 -1       823    8    0    1
 -2       342       341       491      1825      2271      2272
 -1       824    8    0    1
 -2       341       490       491      2269      2273      2271
 -1       825    8    0    1
 -2       343       342       492      1828      2274      2275
 -1       826    8    0    1
 -2       342       491       492      2272      2276      2274
 -1       827    8    0    1
 -2       344       343       493      1831      2277      2278
 -1       828    8    0    1
 -2       343       492       493      2275      2279      2277
 -1       829    8    0    1
 -2       345       344       494      1834      2280      2281
 -1       830    8    0    1
 -2       344       493       494      2278      2282      2280
 -1       831    8    0    1
 -2       346       345       495      1837      2283      2284
 -1       832    8    0    1
 -2       345       494       495      2281      2285      2283
 -1       833    8    0    1
 -2       347       346       496      1840      2286      2287
 -1       834    8    0    1
 -2       346       495       496      2284      2288      2286
 -1       835    8    0    1
 -2       348       347       497      1843      2289      2290
 -1       836    8    0    1
 -2       347       496       497      2287      2291      2289
 -1       837    8    0    1
 -2       349       348       498      1846      2292      2293
 -1       838    8    0    1
 -2       348       497       498      2290      2294      2292
 -1       839    8    0    1
 -2       350       349       499      1849      2295      2296
 -1       840    8    0    1
 -2       349       498       499      2293      2297      2295
 -1       841    8    0    1
 -2       351       350       500      1852      2298      2299
 -1       842    8    0    1
 -2       350       499       500      2296      2300      2298
 -1       843    8    0    1
 -2       352       351       501      1855      2301      2302
 -1       844    8    0    1
 -2       351       500       501      2299      2303      2301
 -1       845    8    0    1
 -2       353       352       502      1858      2304      2305
 -1       846    8    0    1
 -2       352       501       502      2302      2306      2304
 -1       847    8    0    1
 -2       354       353       503      1861      2307      2308
 -1       848    8    0    1
 -2       353       502       503      2305      2309      2307
 -1       849    8    0    1
 -2       355       354       504      1864      2310      2311
 -1       850    8    0    1
 -2       354       503       504      2308      2312      2310
 -1       851    8    0    1
 -2       356       355       505      1867      2313      2314
 -1       852    8    0    1
 -2       355       504       505      2311      2315      2313
 -1       853    8    0    1
 -2       357       356       506      1870      2316      2317
 -1       854    8    0    1
 -2       356       505       506      2314      2318      2316
 -1       855    8    0    1
 -2       358       357       507      1873      2319      2320
 -1       856    8    0    1
 -2       357       506       507      2317      2321      2319
 -1       857    8    0    1
 -2       359       358       508      1876      2322      2323
 -1       858    8    0    1
 -2       358       507       508      2320      2324      2322
 -1       859    8    0    1
 -2       360       359       509      1879      2325      2326
 -1       860    8    0    1
 -2       359       508       509      2323      2327      2325
 -1       861    8    0    1
 -2       361       360       510      1882      2328      2329
 -1       862    8    0    1
 -2       360       509       510      2326      2330      2328
 -1       863    8    0    1
 -2       362       361       511      1885      2331      2332
 -1       864    8    0    1
 -2       361       510       511      2329      2333      2331
 -1       865    8    0    1
 -2       363       362       512      1888      2334      2335
 -1       866    8    0    1
 -2       362       511       512      2332      2336      2334
 -1       867    8    0    1
 -2       364       363       513      1891      2337      2338
 -1       868    8    0    1
 -2       363       512       513      2335      2339      2337
 -1       869    8    0    1
 -2       365       364       514      1894      2340      2341
 -1       870    8    0    1
 -2       364       513       514      2338      2342      2340
 -1       871    8    0    1
 -2       366       365       515      1897      2343      2344
 -1       872    8    0    1
 -2       365       514       515      2341      2345      2343
 -1       873    8    0    1
 -2       367       366       516      1900      2346      2347
 -1       874    8    0    1
 -2       366       515       516      2344      2348      2346
 -1       875    8    0    1
 -2       368       367       517      1903      2349      2350
 -1       876    8    0    1
 -2       367       516       517      2347      2351      2349
 -1       877    8    0    1
 -2       369       368       518      1906      2352      2353
 -1       878    8    0    1
 -2       368       517       518      2350      2354      2352
 -1       879    8    0    1
 -2       370       369       519      1909      2355      2356
 -1       880    8    0    1
 -2       369       518       519      2353      2357      2355
 -1       881    8    0    1
 -2       371       370       520      1912      2358      2359
 -1       882    8    0    1
 -2       370       519       520      2356      2360      2358
 -1       883    8    0    1
 -2       372       371       521      1915      2361      2362
 -1       884    8    0    1
 -2       371       520       521      2359      2363      2361
 -1       885    8    0    1
 -2       373       372       522      1918      2364      2365
 -1       886    8    0    1
 -2       372       521       522      2362      2366      2364
 -1       887    8    0    1
 -2       374       373       523      1921      2367      2368
 -1       888    8    0    1
 -2       373       522       523      2365      2369      2367
 -1       889    8    0    1
 -2       375       374       524      1924      2370      2371
 -1       890    8    0    1
 -2       374       523       524      2368      2372      2370
 -1       891    8    0    1
 -2       376       375       525      1927      2373      2374
 -1       892    8    0    1
 -2       375       524       525      2371      2375      2373
 -1       893    8    0    1
 -2       377       376       526      1930      2376      2377
 -1       894    8    0    1
 -2       376       525       526      2374      2378      2376
 -1       895    8    0    1
 -2       378       377       527      1933      2379      2380
 -1       896    8    0    1
 -2       377       526       527      2377      2381      2379
 -1       897    8    0    1
 -2       379       378       528      1936      2382      2383
 -1       898    8    0    1
 -2       378       527       528      2380      2384      2382
 -1       899    8    0    1
 -2       380       379       529      1939      2385      2386
 -1       900    8    0    1
 -2       379       528       529      2383      2387      2385
 -1       901    8    0    1
 -2       381       380       530      1942      2388      2389
 -1       902    8    0    1
 -2       380       529       530      2386      2390      2388
 -1       903    8    0    1
 -2       439       440       531      2119      2391      2392
 -1       904    8    0    1
 -2       385       386       532      1958      2393      2394
 -1       905    8    0    1
 -2       386       387       533      1961      2395      2396
 -1       906    8    0    1
 -2       386       533       532      2396      2397      2393
 -1       907    8    0    1
 -2       387       388       534      1964      2398      2399
 -1       908    8    0    1
 -2       387       534       533      2399      2400      2395
 -1       909    8    0    1
 -2       388       389       535      1967      2401      2402
 -1       910    8    0    1
 -2       388       535       534      2402      2403      2398
 -1       911    8    0    1
 -2       389       390       536      1970      2404      2405
 -1       912    8    0    1
 -2       389       536       535      2405      2406      2401
 -1       913    8    0    1
 -2       390       391       537      1973      2407      2408
 -1       914    8    0    1
 -2       390       537       536      2408      2409      2404
 -1       915    8    0    1
 -2       391       392       538      1976      2410      2411
 -1       916    8    0    1
 -2       391       538       537      2411      2412      2407
 -1       917    8    0    1
 -2       392       393       539      1979      2413      2414
 -1       918    8    0    1
 -2       392       539       538      2414      2415      2410
 -1       919    8    0    1
 -2       393       394       540      1982      2416      2417
 -1       920    8    0    1
 -2       393       540       539      2417      2418      2413
 -1       921    8    0    1
 -2       394       395       541      1985      2419      2420
 -1       922    8    0    1
 -2       394       541       540      2420      2421      2416
 -1       923    8    0    1
 -2       395       396       542      1988      2422      2423
 -1       924    8    0    1
 -2       395       542       541      2423      2424      2419
 -1       925    8    0    1
 -2       396       397       543      1991      2425      2426
 -1       926    8    0    1
 -2       396       543       542      2426      2427      2422
 -1       927    8    0    1
 -2       397       398       544      1994      2428      2429
 -1       928    8    0    1
 -2       397       544       543      2429      2430      2425
 -1       929    8    0    1
 -2       398       399       545      1997      2431      2432
 -1       930    8    0    1
 -2       398       545       544      2432      2433      2428
 -1       931    8    0    1
 -2       399       400       546      2000      2434      2435
 -1       932    8    0    1
 -2       399       546       545      2435      2436      2431
 -1       933    8    0    1
 -2       400       401       547      2003      2437      2438
 -1       934    8    0    1
 -2       400       547       546      2438      2439      2434
 -1       935    8    0    1
 -2       401       402       548      2006      2440      2441
 -1       936    8    0    1
 -2       401       548       547      2441      2442      2437
 -1       937    8    0    1
 -2       402       403       549      2009      2443      2444
 -1       938    8    0    1
 -2       402       549       548      2444      2445      2440
 -1       939    8    0    1
 -2       403       404       550      2012      2446      2447
 -1       940    8    0    1
 -2       403       550       549      2447      2448      2443
 -1       941    8    0    1
 -2       404       405       551      2015      2449      2450
 -1       942    8    0    1
 -2       404       551       550      2450      2451      2446
 -1       943    8    0    1
 -2       405       406       552      2018      2452      2453
 -1       944    8    0    1
 -2       405       552       551      2453      2454      2449
 -1       945    8    0    1
 -2       406       407       553      2021      2455      2456
 -1       946    8    0    1
 -2       406       553       552      2456      2457      2452
 -1       947    8    0    1
 -2       407       408       554      2024      2458      2459
 -1       948    8    0    1
 -2       407       554       553      2459      2460      2455
 -1       949    8    0    1
 -2       408       409       555      2027      2461      2462
 -1       950    8    0    1
 -2       408       555       554      2462      2463      2458
 -1       951    8    0    1
 -2       409       410       556      2030      2464      2465
 -1       952    8    0    1
 -2       409       556       555      2465      2466      2461
 -1       953    8    0    1
 -2       410       411       557      2033      2467      2468
 -1       954    8    0    1
 -2       410       557       556      2468      2469      2464
 -1       955    8    0    1
 -2       411       412       558      2036      2470      2471
 -1       956    8    0    1
 -2       411       558       557      2471      2472      2467
 -1       957    8    0    1
 -2       412       413       559      2039      2473      2474
 -1       958    8    0    1
 -2       412       559       558      2474      2475      2470
 -1       959    8    0    1
 -2       413       414       560      2042      2476      2477
 -1       960    8    0    1
 -2       413       560       559      2477      2478      2473
 -1       961    8    0    1
 -2       414       415       561      2045      2479      2480
 -1       962    8    0    1
 -2       414       561       560      2480      2481      2476
 -1       963    8    0    1
 -2       415       416       562      2048      2482      2483
 -1       964    8    0    1
 -2       415       562       561      2483      2484      2479
 -1       965    8    0    1
 -2       416       417       563      2051      2485      2486
 -1       966    8    0    1
 -2       416       563       562      2486      2487      2482
 -1       967    8    0    1
 -2       417       418       564      2054      2488      2489
 -1       968    8    0    1
 -2       417       564       563      2489      2490      2485
 -1       969    8    0    1
 -2       418       419       565      2057      2491      2492
 -1       970    8    0    1
 -2       418       565       564      2492      2493      2488
 -1       971    8    0    1
 -2       419       420       566      2060      2494      2495
 -1       972    8    0    1
 -2       419       566       565      2495      2496      2491
 -1       973    8    0    1
 -2       420       421       567      2063      2497      2498
 -1       974    8    0    1
 -2       420       567       566      2498      2499      2494
 -1       975    8    0    1
 -2       421       422       568      2066      2500      2501
 -1       976    8    0    1
 -2       421       568       567      2501      2502      2497
 -1       977    8    0    1
 -2       422       423       569      2069      2503      2504
 -1       978    8    0    1
 -2       422       569       568      2504      2505      2500
 -1       979    8    0    1
 -2       423       424       570      2072      2506      2507
 -1       980    8    0    1
 -2       423       570       569      2507      2508      2503
 -1       981    8    0    1
 -2       424       425       571      2075      2509      2510
 -1       982    8    0    1
 -2       424       571       570      2510      2511      2506
 -1       983    8    0    1
 -2       425       426       572      2078      2512      2513
 -1       984    8    0    1
 -2       425       572       571      2513      2514      2509
 -1       985    8    0    1
 -2       426       427       573      2081      2515      2516
 -1       986    8    0    1
 -2       426       573       572      2516      2517      2512
 -1       987    8    0    1
 -2       427       428       431      2084      2093      2518
 -1       988    8    0    1
 -2       282       433       469      2099      2519      2191
 -1       989    8    0    1
 -2       430       429       574      2090      2520      2521
 -1       990    8    0    1
 -2       429       432       486      2097      2522      2523
 -1       991    8    0    1
 -2       293       472       433      2203      2524      2184
 -1       992    8    0    1
 -2       442       443       575      2193      2525      2526
 -1       993    8    0    1
 -2       438       439       576      2116      2527      2528
 -1       994    8    0    1
 -2       439       531       576      2392      2529      2527
 -1       995    8    0    1
 -2       437       438       577      2113      2530      2531
 -1       996    8    0    1
 -2       487       437       577      2260      2531      2532
 -1       997    8    0    1
 -2       438       576       577      2528      2533      2530
 -1       998    8    0    1
 -2       440       441       578      2122      2534      2535
 -1       999    8    0    1
 -2       440       578       531      2535      2536      2391
 -1      1000    8    0    1
 -2       384       385       579      1955      2537      2538
 -1      1001    8    0    1
 -2       385       532       579      2394      2539      2537
 -1      1002    8    0    1
 -2       468       446       580      2187      2540      2541
 -1      1003    8    0    1
 -2       337       323       581      2188      2542      2543
 -1      1004    8    0    1
 -2       485       337       581      2256      2543      2544
 -1      1005    8    0    1
 -2       323       322       581      1767      2545      2542
 -1      1006    8    0    1
 -2       462       463       582      2209      2546      2547
 -1      1007    8    0    1
 -2       451       452       583      2220      2548      2549
 -1      1008    8    0    1
 -2       326       327       584      1778      2550      2551
 -1      1009    8    0    1
 -2       476       326       584      2231      2551      2552
 -1      1010    8    0    1
 -2       327       478       584      2237      2553      2550
 -1      1011    8    0    1
 -2       448       449       585      2225      2554      2555
 -1      1012    8    0    1
 -2       446       447       586      2139      2556      2557
 -1      1013    8    0    1
 -2       454       455       587      2226      2558      2559
 -1      1014    8    0    1
 -2       444       468       588      2223      2560      2561
 -1      1015    8    0    1
 -2       449       450       589      2222      2562      2563
 -1      1016    8    0    1
 -2       450       451       590      2221      2564      2565
 -1      1017    8    0    1
 -2       452       453       591      2152      2566      2567
 -1      1018    8    0    1
 -2       465       466       487      2227      2568      2569
 -1      1019    8    0    1
 -2       453       454       592      2219      2570      2571
 -1      1020    8    0    1
 -2       454       587       592      2559      2572      2570
 -1      1021    8    0    1
 -2       455       456       593      2218      2573      2574
 -1      1022    8    0    1
 -2       456       457       594      2217      2575      2576
 -1      1023    8    0    1
 -2       458       459       595      2213      2577      2578
 -1      1024    8    0    1
 -2       459       460       596      2212      2579      2580
 -1      1025    8    0    1
 -2       460       461       597      2211      2581      2582
 -1      1026    8    0    1
 -2       460       597       596      2582      2583      2579
 -1      1027    8    0    1
 -2       461       462       598      2210      2584      2585
 -1      1028    8    0    1
 -2       463       464       599      2175      2586      2587
 -1      1029    8    0    1
 -2       447       448       600      2224      2588      2589
 -1      1030    8    0    1
 -2       335       336       601      1807      2590      2591
 -1      1031    8    0    1
 -2       334       335       601      1802      2591      2592
 -1      1032    8    0    1
 -2       336       475       601      2230      2593      2590
 -1      1033    8    0    1
 -2       324       477       602      2234      2594      2595
 -1      1034    8    0    1
 -2       324       602       445      2595      2596      2134
 -1      1035    8    0    1
 -2       484       384       579      2253      2538      2597
 -1      1036    8    0    1
 -2       333       334       601      1799      2592      2598
 -1      1037    8    0    1
 -2       582       463       599      2546      2587      2599
 -1      1038    8    0    1
 -2       443       486       575      2259      2600      2525
 -1      1039    8    0    1
 -2       381       530       578      2389      2601      2602
 -1      1040    8    0    1
 -2       466       467       436      2205      2603      2604
 -1      1041    8    0    1
 -2       333       601       483      2598      2605      2250
 -1      1042    8    0    1
 -2       468       580       588      2541      2606      2560
 -1      1043    8    0    1
 -2       427       431       573      2518      2607      2515
 -1      1044    8    0    1
 -2       574       429       486      2520      2523      2608
 -1      1045    8    0    1
 -2       431       430       573      2094      2609      2607
 -1      1046    8    0    1
 -2       435       436       467      2108      2603      2610
 -1      1047    8    0    1
 -2       381       578       441      2602      2534      2611
 -1      1048    8    0    1
 -2       432       469       575      2190      2612      2613
 -1      1049    8    0    1
 -2       599       464       603      2586      2614      2615
 -1      1050    8    0    1
 -2       464       473       603      2207      2616      2614
 -1      1051    8    0    1
 -2       581       322       445      2545      2133      2617
 -1      1052    8    0    1
 -2       471       435       467      2201      2610      2204
 -1      1053    8    0    1
 -2       597       461       598      2581      2585      2618
 -1      1054    8    0    1
 -2       580       446       586      2540      2557      2619
 -1      1055    8    0    1
 -2       583       452       591      2548      2567      2620
 -1      1056    8    0    1
 -2       595       459       596      2577      2580      2621
 -1      1057    8    0    1
 -2       473       465       577      2208      2622      2623
 -1      1058    8    0    1
 -2       594       457       604      2575      2624      2625
 -1      1059    8    0    1
 -2       457       474       604      2215      2626      2624
 -1      1060    8    0    1
 -2       451       583       590      2549      2627      2564
 -1      1061    8    0    1
 -2       591       453       592      2566      2571      2628
 -1      1062    8    0    1
 -2       474       458       605      2216      2629      2630
 -1      1063    8    0    1
 -2       458       595       605      2578      2631      2629
 -1      1064    8    0    1
 -2       589       450       590      2562      2565      2632
 -1      1065    8    0    1
 -2       587       455       593      2558      2574      2633
 -1      1066    8    0    1
 -2       432       575       486      2613      2600      2522
 -1      1067    8    0    1
 -2       586       447       600      2556      2589      2634
 -1      1068    8    0    1
 -2       462       582       598      2547      2635      2584
 -1      1069    8    0    1
 -2       486       444       588      2258      2561      2636
 -1      1070    8    0    1
 -2       449       589       585      2563      2637      2554
 -1      1071    8    0    1
 -2       465       487       577      2569      2532      2622
 -1      1072    8    0    1
 -2       593       456       594      2573      2576      2638
 -1      1073    8    0    1
 -2       472       442       469      2228      2639      2640
 -1      1074    8    0    1
 -2       442       575       469      2526      2612      2639
 -1      1075    8    0    1
 -2       573       430       574      2609      2521      2641
 -1      1076    8    0    1
 -2       448       585       606      2555      2642      2643
 -1      1077    8    0    1
 -2       479       480       607      2243      2644      2645
 -1      1078    8    0    1
 -2       478       479       608      2240      2646      2647
 -1      1079    8    0    1
 -2       479       607       608      2645      2648      2646
 -1      1080    8    0    1
 -2       481       482       609      2249      2649      2650
 -1      1081    8    0    1
 -2       482       483       610      2252      2651      2652
 -1      1082    8    0    1
 -2       482       610       609      2652      2653      2649
 -1      1083    8    0    1
 -2       475       484       611      2255      2654      2655
 -1      1084    8    0    1
 -2       588       580       612      2606      2656      2657
 -1      1085    8    0    1
 -2       578       530       613      2601      2658      2659
 -1      1086    8    0    1
 -2       601       475       483      2593      2660      2605
 -1      1087    8    0    1
 -2       466       436       487      2604      2261      2568
 -1      1088    8    0    1
 -2       489       488       614      2267      2661      2662
 -1      1089    8    0    1
 -2       490       489       615      2270      2663      2664
 -1      1090    8    0    1
 -2       489       614       615      2662      2665      2663
 -1      1091    8    0    1
 -2       491       490       616      2273      2666      2667
 -1      1092    8    0    1
 -2       490       615       616      2664      2668      2666
 -1      1093    8    0    1
 -2       492       491       617      2276      2669      2670
 -1      1094    8    0    1
 -2       491       616       617      2667      2671      2669
 -1      1095    8    0    1
 -2       493       492       618      2279      2672      2673
 -1      1096    8    0    1
 -2       492       617       618      2670      2674      2672
 -1      1097    8    0    1
 -2       494       493       619      2282      2675      2676
 -1      1098    8    0    1
 -2       493       618       619      2673      2677      2675
 -1      1099    8    0    1
 -2       495       494       620      2285      2678      2679
 -1      1100    8    0    1
 -2       494       619       620      2676      2680      2678
 -1      1101    8    0    1
 -2       496       495       621      2288      2681      2682
 -1      1102    8    0    1
 -2       495       620       621      2679      2683      2681
 -1      1103    8    0    1
 -2       497       496       622      2291      2684      2685
 -1      1104    8    0    1
 -2       496       621       622      2682      2686      2684
 -1      1105    8    0    1
 -2       498       497       623      2294      2687      2688
 -1      1106    8    0    1
 -2       497       622       623      2685      2689      2687
 -1      1107    8    0    1
 -2       499       498       624      2297      2690      2691
 -1      1108    8    0    1
 -2       498       623       624      2688      2692      2690
 -1      1109    8    0    1
 -2       500       499       625      2300      2693      2694
 -1      1110    8    0    1
 -2       499       624       625      2691      2695      2693
 -1      1111    8    0    1
 -2       501       500       626      2303      2696      2697
 -1      1112    8    0    1
 -2       500       625       626      2694      2698      2696
 -1      1113    8    0    1
 -2       502       501       627      2306      2699      2700
 -1      1114    8    0    1
 -2       501       626       627      2697      2701      2699
 -1      1115    8    0    1
 -2       503       502       628      2309      2702      2703
 -1      1116    8    0    1
 -2       502       627       628      2700      2704      2702
 -1      1117    8    0    1
 -2       504       503       629      2312      2705      2706
 -1      1118    8    0    1
 -2       503       628       629      2703      2707      2705
 -1      1119    8    0    1
 -2       505       504       630      2315      2708      2709
 -1      1120    8    0    1
 -2       504       629       630      2706      2710      2708
 -1      1121    8    0    1
 -2       506       505       631      2318      2711      2712
 -1      1122    8    0    1
 -2       505       630       631      2709      2713      2711
 -1      1123    8    0    1
 -2       507       506       632      2321      2714      2715
 -1      1124    8    0    1
 -2       506       631       632      2712      2716      2714
 -1      1125    8    0    1
 -2       508       507       633      2324      2717      2718
 -1      1126    8    0    1
 -2       507       632       633      2715      2719      2717
 -1      1127    8    0    1
 -2       509       508       634      2327      2720      2721
 -1      1128    8    0    1
 -2       508       633       634      2718      2722      2720
 -1      1129    8    0    1
 -2       510       509       635      2330      2723      2724
 -1      1130    8    0    1
 -2       509       634       635      2721      2725      2723
 -1      1131    8    0    1
 -2       511       510       636      2333      2726      2727
 -1      1132    8    0    1
 -2       510       635       636      2724      2728      2726
 -1      1133    8    0    1
 -2       512       511       637      2336      2729      2730
 -1      1134    8    0    1
 -2       511       636       637      2727      2731      2729
 -1      1135    8    0    1
 -2       513       512       638      2339      2732      2733
 -1      1136    8    0    1
 -2       512       637       638      2730      2734      2732
 -1      1137    8    0    1
 -2       514       513       639      2342      2735      2736
 -1      1138    8    0    1
 -2       513       638       639      2733      2737      2735
 -1      1139    8    0    1
 -2       515       514       640      2345      2738      2739
 -1      1140    8    0    1
 -2       514       639       640      2736      2740      2738
 -1      1141    8    0    1
 -2       516       515       641      2348      2741      2742
 -1      1142    8    0    1
 -2       515       640       641      2739      2743      2741
 -1      1143    8    0    1
 -2       517       516       642      2351      2744      2745
 -1      1144    8    0    1
 -2       516       641       642      2742      2746      2744
 -1      1145    8    0    1
 -2       518       517       643      2354      2747      2748
 -1      1146    8    0    1
 -2       517       642       643      2745      2749      2747
 -1      1147    8    0    1
 -2       519       518       644      2357      2750      2751
 -1      1148    8    0    1
 -2       518       643       644      2748      2752      2750
 -1      1149    8    0    1
 -2       520       519       645      2360      2753      2754
 -1      1150    8    0    1
 -2       519       644       645      2751      2755      2753
 -1      1151    8    0    1
 -2       521       520       646      2363      2756      2757
 -1      1152    8    0    1
 -2       520       645       646      2754      2758      2756
 -1      1153    8    0    1
 -2       522       521       647      2366      2759      2760
 -1      1154    8    0    1
 -2       521       646       647      2757      2761      2759
 -1      1155    8    0    1
 -2       523       522       648      2369      2762      2763
 -1      1156    8    0    1
 -2       522       647       648      2760      2764      2762
 -1      1157    8    0    1
 -2       524       523       649      2372      2765      2766
 -1      1158    8    0    1
 -2       523       648       649      2763      2767      2765
 -1      1159    8    0    1
 -2       525       524       650      2375      2768      2769
 -1      1160    8    0    1
 -2       524       649       650      2766      2770      2768
 -1      1161    8    0    1
 -2       526       525       651      2378      2771      2772
 -1      1162    8    0    1
 -2       525       650       651      2769      2773      2771
 -1      1163    8    0    1
 -2       527       526       652      2381      2774      2775
 -1      1164    8    0    1
 -2       526       651       652      2772      2776      2774
 -1      1165    8    0    1
 -2       528       527       653      2384      2777      2778
 -1      1166    8    0    1
 -2       527       652       653      2775      2779      2777
 -1      1167    8    0    1
 -2       529       528       654      2387      2780      2781
 -1      1168    8    0    1
 -2       528       653       654      2778      2782      2780
 -1      1169    8    0    1
 -2       530       529       655      2390      2783      2784
 -1      1170    8    0    1
 -2       613       530       655      2658      2784      2785
 -1      1171    8    0    1
 -2       529       654       655      2781      2786      2783
 -1      1172    8    0    1
 -2       532       533       656      2397      2787      2788
 -1      1173    8    0    1
 -2       535       536       657      2406      2789      2790
 -1      1174    8    0    1
 -2       536       537       658      2409      2791      2792
 -1      1175    8    0    1
 -2       536       658       657      2792      2793      2789
 -1      1176    8    0    1
 -2       537       538       659      2412      2794      2795
 -1      1177    8    0    1
 -2       537       659       658      2795      2796      2791
 -1      1178    8    0    1
 -2       538       539       660      2415      2797      2798
 -1      1179    8    0    1
 -2       538       660       659      2798      2799      2794
 -1      1180    8    0    1
 -2       539       540       661      2418      2800      2801
 -1      1181    8    0    1
 -2       539       661       660      2801      2802      2797
 -1      1182    8    0    1
 -2       540       541       662      2421      2803      2804
 -1      1183    8    0    1
 -2       540       662       661      2804      2805      2800
 -1      1184    8    0    1
 -2       541       542       663      2424      2806      2807
 -1      1185    8    0    1
 -2       541       663       662      2807      2808      2803
 -1      1186    8    0    1
 -2       542       543       664      2427      2809      2810
 -1      1187    8    0    1
 -2       542       664       663      2810      2811      2806
 -1      1188    8    0    1
 -2       543       544       665      2430      2812      2813
 -1      1189    8    0    1
 -2       543       665       664      2813      2814      2809
 -1      1190    8    0    1
 -2       544       545       666      2433      2815      2816
 -1      1191    8    0    1
 -2       544       666       665      2816      2817      2812
 -1      1192    8    0    1
 -2       545       546       667      2436      2818      2819
 -1      1193    8    0    1
 -2       545       667       666      2819      2820      2815
 -1      1194    8    0    1
 -2       546       547       668      2439      2821      2822
 -1      1195    8    0    1
 -2       546       668       667      2822      2823      2818
 -1      1196    8    0    1
 -2       547       548       669      2442      2824      2825
 -1      1197    8    0    1
 -2       547       669       668      2825      2826      2821
 -1      1198    8    0    1
 -2       548       549       670      2445      2827      2828
 -1      1199    8    0    1
 -2       548       670       669      2828      2829      2824
 -1      1200    8    0    1
 -2       549       550       671      2448      2830      2831
 -1      1201    8    0    1
 -2       549       671       670      2831      2832      2827
 -1      1202    8    0    1
 -2       550       551       672      2451      2833      2834
 -1      1203    8    0    1
 -2       550       672       671      2834      2835      2830
 -1      1204    8    0    1
 -2       551       552       673      2454      2836      2837
 -1      1205    8    0    1
 -2       551       673       672      2837      2838      2833
 -1      1206    8    0    1
 -2       552       553       674      2457      2839      2840
 -1      1207    8    0    1
 -2       552       674       673      2840      2841      2836
 -1      1208    8    0    1
 -2       553       554       675      2460      2842      2843
 -1      1209    8    0    1
 -2       553       675       674      2843      2844      2839
 -1      1210    8    0    1
 -2       554       555       676      2463      2845      2846
 -1      1211    8    0    1
 -2       554       676       675      2846      2847      2842
 -1      1212    8    0    1
 -2       555       556       677      2466      2848      2849
 -1      1213    8    0    1
 -2       555       677       676      2849      2850      2845
 -1      1214    8    0    1
 -2       556       557       678      2469      2851      2852
 -1      1215    8    0    1
 -2       556       678       677      2852      2853      2848
 -1      1216    8    0    1
 -2       557       558       679      2472      2854      2855
 -1      1217    8    0    1
 -2       557       679       678      2855      2856      2851
 -1      1218    8    0    1
 -2       558       559       680      2475      2857      2858
 -1      1219    8    0    1
 -2       558       680       679      2858      2859      2854
 -1      1220    8    0    1
 -2       559       560       681      2478      2860      2861
 -1      1221    8    0    1
 -2       559       681       680      2861      2862      2857
 -1      1222    8    0    1
 -2       560       561       682      2481      2863      2864
 -1      1223    8    0    1
 -2       560       682       681      2864      2865      2860
 -1      1224    8    0    1
 -2       561       562       683      2484      2866      2867
 -1      1225    8    0    1
 -2       561       683       682      2867      2868      2863
 -1      1226    8    0    1
 -2       562       563       684      2487      2869      2870
 -1      1227    8    0    1
 -2       562       684       683      2870      2871      2866
 -1      1228    8    0    1
 -2       563       564       685      2490      2872      2873
 -1      1229    8    0    1
 -2       563       685       684      2873      2874      2869
 -1      1230    8    0    1
 -2       564       565       686      2493      2875      2876
 -1      1231    8    0    1
 -2       564       686       685      2876      2877      2872
 -1      1232    8    0    1
 -2       565       566       687      2496      2878      2879
 -1      1233    8    0    1
 -2       565       687       686      2879      2880      2875
 -1      1234    8    0    1
 -2       566       567       688      2499      2881      2882
 -1      1235    8    0    1
 -2       566       688       687      2882      2883      2878
 -1      1236    8    0    1
 -2       567       568       689      2502      2884      2885
 -1      1237    8    0    1
 -2       567       689       688      2885      2886      2881
 -1      1238    8    0    1
 -2       569       570       606      2508      2887      2888
 -1      1239    8    0    1
 -2       571       572       690      2514      2889      2890
 -1      1240    8    0    1
 -2       576       531       691      2529      2891      2892
 -1      1241    8    0    1
 -2       586       600       692      2634      2893      2894
 -1      1242    8    0    1
 -2       448       606       600      2643      2895      2588
 -1      1243    8    0    1
 -2       469       433       472      2519      2524      2640
 -1      1244    8    0    1
 -2       531       578       613      2536      2659      2896
 -1      1245    8    0    1
 -2       577       576       473      2533      2897      2623
 -1      1246    8    0    1
 -2       579       532       693      2539      2898      2899
 -1      1247    8    0    1
 -2       532       656       693      2788      2900      2898
 -1      1248    8    0    1
 -2       580       586       690      2619      2901      2902
 -1      1249    8    0    1
 -2       597       598       694      2618      2903      2904
 -1      1250    8    0    1
 -2       485       581       695      2544      2905      2906
 -1      1251    8    0    1
 -2       593       594       696      2638      2907      2908
 -1      1252    8    0    1
 -2       592       587       697      2572      2909      2910
 -1      1253    8    0    1
 -2       591       592       698      2628      2911      2912
 -1      1254    8    0    1
 -2       534       535       699      2403      2913      2914
 -1      1255    8    0    1
 -2       535       657       699      2790      2915      2913
 -1      1256    8    0    1
 -2       533       534       700      2400      2916      2917
 -1      1257    8    0    1
 -2       534       699       700      2914      2918      2916
 -1      1258    8    0    1
 -2       488       485       701      2264      2919      2920
 -1      1259    8    0    1
 -2       614       488       701      2661      2920      2921
 -1      1260    8    0    1
 -2       485       695       701      2906      2922      2919
 -1      1261    8    0    1
 -2       484       579       702      2597      2923      2924
 -1      1262    8    0    1
 -2       611       484       702      2654      2924      2925
 -1      1263    8    0    1
 -2       579       693       702      2899      2926      2923
 -1      1264    8    0    1
 -2       583       591       703      2620      2927      2928
 -1      1265    8    0    1
 -2       480       481       704      2246      2929      2930
 -1      1266    8    0    1
 -2       607       480       704      2644      2930      2931
 -1      1267    8    0    1
 -2       481       609       704      2650      2932      2929
 -1      1268    8    0    1
 -2       585       589       705      2637      2933      2934
 -1      1269    8    0    1
 -2       587       593       706      2633      2935      2936
 -1      1270    8    0    1
 -2       593       696       706      2908      2937      2935
 -1      1271    8    0    1
 -2       595       596       707      2621      2938      2939
 -1      1272    8    0    1
 -2       477       476       708      2235      2940      2941
 -1      1273    8    0    1
 -2       589       590       709      2632      2942      2943
 -1      1274    8    0    1
 -2       590       583       710      2627      2944      2945
 -1      1275    8    0    1
 -2       596       597       711      2583      2946      2947
 -1      1276    8    0    1
 -2       597       694       711      2904      2948      2946
 -1      1277    8    0    1
 -2       598       582       712      2635      2949      2950
 -1      1278    8    0    1
 -2       581       445       695      2617      2951      2905
 -1      1279    8    0    1
 -2       582       599       713      2599      2952      2953
 -1      1280    8    0    1
 -2       478       608       714      2647      2954      2955
 -1      1281    8    0    1
 -2       478       714       584      2955      2956      2553
 -1      1282    8    0    1
 -2       703       591       715      2927      2957      2958
 -1      1283    8    0    1
 -2       591       698       715      2912      2959      2957
 -1      1284    8    0    1
 -2       588       612       574      2657      2960      2961
 -1      1285    8    0    1
 -2       602       477       716      2594      2962      2963
 -1      1286    8    0    1
 -2       477       708       716      2941      2964      2962
 -1      1287    8    0    1
 -2       483       475       611      2660      2655      2965
 -1      1288    8    0    1
 -2       382       381       470      1946      2966      2197
 -1      1289    8    0    1
 -2       533       700       656      2917      2967      2787
 -1      1290    8    0    1
 -2       569       606       585      2888      2642      2968
 -1      1291    8    0    1
 -2       606       570       717      2887      2969      2970
 -1      1292    8    0    1
 -2       568       569       718      2505      2971      2972
 -1      1293    8    0    1
 -2       570       571       717      2511      2973      2969
 -1      1294    8    0    1
 -2       572       573       719      2517      2974      2975
 -1      1295    8    0    1
 -2       574       486       588      2608      2636      2961
 -1      1296    8    0    1
 -2       586       692       690      2894      2976      2901
 -1      1297    8    0    1
 -2       600       606       717      2895      2970      2977
 -1      1298    8    0    1
 -2       698       592       697      2911      2910      2978
 -1      1299    8    0    1
 -2       696       594       720      2907      2979      2980
 -1      1300    8    0    1
 -2       594       604       720      2625      2981      2979
 -1      1301    8    0    1
 -2       582       713       712      2953      2982      2949
 -1      1302    8    0    1
 -2       705       589       709      2933      2943      2983
 -1      1303    8    0    1
 -2       697       587       706      2909      2936      2984
 -1      1304    8    0    1
 -2       599       603       713      2615      2985      2952
 -1      1305    8    0    1
 -2       694       598       721      2903      2986      2987
 -1      1306    8    0    1
 -2       598       712       721      2950      2988      2986
 -1      1307    8    0    1
 -2       445       602       695      2596      2989      2951
 -1      1308    8    0    1
 -2       595       707       722      2939      2990      2991
 -1      1309    8    0    1
 -2       595       722       605      2991      2992      2631
 -1      1310    8    0    1
 -2       604       474       723      2626      2993      2994
 -1      1311    8    0    1
 -2       474       605       723      2630      2995      2993
 -1      1312    8    0    1
 -2       476       584       724      2552      2996      2997
 -1      1313    8    0    1
 -2       708       476       724      2940      2997      2998
 -1      1314    8    0    1
 -2       584       714       724      2956      2999      2996
 -1      1315    8    0    1
 -2       710       583       703      2944      2928      3000
 -1      1316    8    0    1
 -2       709       590       710      2942      2945      3001
 -1      1317    8    0    1
 -2       707       596       711      2938      2947      3002
 -1      1318    8    0    1
 -2       483       611       610      2965      3003      2651
 -1      1319    8    0    1
 -2       574       612       719      2960      3004      3005
 -1      1320    8    0    1
 -2       572       719       690      2975      3006      2889
 -1      1321    8    0    1
 -2       568       718       689      2972      3007      2884
 -1      1322    8    0    1
 -2       719       573       574      2974      2641      3005
 -1      1323    8    0    1
 -2       531       613       691      2896      3008      2891
 -1      1324    8    0    1
 -2       612       580       719      2656      3009      3004
 -1      1325    8    0    1
 -2       719       580       690      3009      2902      3006
 -1      1326    8    0    1
 -2       609       610       725      2653      3010      3011
 -1      1327    8    0    1
 -2       615       614       726      2665      3012      3013
 -1      1328    8    0    1
 -2       659       660       727      2799      3014      3015
 -1      1329    8    0    1
 -2       616       615       728      2668      3016      3017
 -1      1330    8    0    1
 -2       615       726       728      3013      3018      3016
 -1      1331    8    0    1
 -2       617       616       729      2671      3019      3020
 -1      1332    8    0    1
 -2       616       728       729      3017      3021      3019
 -1      1333    8    0    1
 -2       618       617       730      2674      3022      3023
 -1      1334    8    0    1
 -2       617       729       730      3020      3024      3022
 -1      1335    8    0    1
 -2       619       618       731      2677      3025      3026
 -1      1336    8    0    1
 -2       618       730       731      3023      3027      3025
 -1      1337    8    0    1
 -2       620       619       732      2680      3028      3029
 -1      1338    8    0    1
 -2       619       731       732      3026      3030      3028
 -1      1339    8    0    1
 -2       621       620       733      2683      3031      3032
 -1      1340    8    0    1
 -2       620       732       733      3029      3033      3031
 -1      1341    8    0    1
 -2       622       621       734      2686      3034      3035
 -1      1342    8    0    1
 -2       621       733       734      3032      3036      3034
 -1      1343    8    0    1
 -2       623       622       735      2689      3037      3038
 -1      1344    8    0    1
 -2       622       734       735      3035      3039      3037
 -1      1345    8    0    1
 -2       624       623       736      2692      3040      3041
 -1      1346    8    0    1
 -2       623       735       736      3038      3042      3040
 -1      1347    8    0    1
 -2       625       624       737      2695      3043      3044
 -1      1348    8    0    1
 -2       624       736       737      3041      3045      3043
 -1      1349    8    0    1
 -2       626       625       738      2698      3046      3047
 -1      1350    8    0    1
 -2       625       737       738      3044      3048      3046
 -1      1351    8    0    1
 -2       627       626       739      2701      3049      3050
 -1      1352    8    0    1
 -2       626       738       739      3047      3051      3049
 -1      1353    8    0    1
 -2       628       627       740      2704      3052      3053
 -1      1354    8    0    1
 -2       627       739       740      3050      3054      3052
 -1      1355    8    0    1
 -2       629       628       741      2707      3055      3056
 -1      1356    8    0    1
 -2       628       740       741      3053      3057      3055
 -1      1357    8    0    1
 -2       630       629       742      2710      3058      3059
 -1      1358    8    0    1
 -2       629       741       742      3056      3060      3058
 -1      1359    8    0    1
 -2       631       630       743      2713      3061      3062
 -1      1360    8    0    1
 -2       630       742       743      3059      3063      3061
 -1      1361    8    0    1
 -2       632       631       744      2716      3064      3065
 -1      1362    8    0    1
 -2       631       743       744      3062      3066      3064
 -1      1363    8    0    1
 -2       633       632       745      2719      3067      3068
 -1      1364    8    0    1
 -2       632       744       745      3065      3069      3067
 -1      1365    8    0    1
 -2       634       633       746      2722      3070      3071
 -1      1366    8    0    1
 -2       633       745       746      3068      3072      3070
 -1      1367    8    0    1
 -2       635       634       747      2725      3073      3074
 -1      1368    8    0    1
 -2       634       746       747      3071      3075      3073
 -1      1369    8    0    1
 -2       636       635       748      2728      3076      3077
 -1      1370    8    0    1
 -2       635       747       748      3074      3078      3076
 -1      1371    8    0    1
 -2       637       636       749      2731      3079      3080
 -1      1372    8    0    1
 -2       636       748       749      3077      3081      3079
 -1      1373    8    0    1
 -2       638       637       750      2734      3082      3083
 -1      1374    8    0    1
 -2       637       749       750      3080      3084      3082
 -1      1375    8    0    1
 -2       639       638       751      2737      3085      3086
 -1      1376    8    0    1
 -2       638       750       751      3083      3087      3085
 -1      1377    8    0    1
 -2       640       639       752      2740      3088      3089
 -1      1378    8    0    1
 -2       639       751       752      3086      3090      3088
 -1      1379    8    0    1
 -2       641       640       753      2743      3091      3092
 -1      1380    8    0    1
 -2       640       752       753      3089      3093      3091
 -1      1381    8    0    1
 -2       642       641       754      2746      3094      3095
 -1      1382    8    0    1
 -2       641       753       754      3092      3096      3094
 -1      1383    8    0    1
 -2       643       642       755      2749      3097      3098
 -1      1384    8    0    1
 -2       642       754       755      3095      3099      3097
 -1      1385    8    0    1
 -2       644       643       756      2752      3100      3101
 -1      1386    8    0    1
 -2       643       755       756      3098      3102      3100
 -1      1387    8    0    1
 -2       645       644       757      2755      3103      3104
 -1      1388    8    0    1
 -2       644       756       757      3101      3105      3103
 -1      1389    8    0    1
 -2       646       645       758      2758      3106      3107
 -1      1390    8    0    1
 -2       645       757       758      3104      3108      3106
 -1      1391    8    0    1
 -2       647       646       759      2761      3109      3110
 -1      1392    8    0    1
 -2       646       758       759      3107      3111      3109
 -1      1393    8    0    1
 -2       648       647       760      2764      3112      3113
 -1      1394    8    0    1
 -2       647       759       760      3110      3114      3112
 -1      1395    8    0    1
 -2       649       648       761      2767      3115      3116
 -1      1396    8    0    1
 -2       648       760       761      3113      3117      3115
 -1      1397    8    0    1
 -2       650       649       762      2770      3118      3119
 -1      1398    8    0    1
 -2       649       761       762      3116      3120      3118
 -1      1399    8    0    1
 -2       651       650       763      2773      3121      3122
 -1      1400    8    0    1
 -2       650       762       763      3119      3123      3121
 -1      1401    8    0    1
 -2       652       651       764      2776      3124      3125
 -1      1402    8    0    1
 -2       651       763       764      3122      3126      3124
 -1      1403    8    0    1
 -2       654       653       721      2782      3127      3128
 -1      1404    8    0    1
 -2       658       659       765      2796      3129      3130
 -1      1405    8    0    1
 -2       659       727       765      3015      3131      3129
 -1      1406    8    0    1
 -2       657       658       766      2793      3132      3133
 -1      1407    8    0    1
 -2       658       765       766      3130      3134      3132
 -1      1408    8    0    1
 -2       660       661       767      2802      3135      3136
 -1      1409    8    0    1
 -2       660       767       727      3136      3137      3014
 -1      1410    8    0    1
 -2       661       662       768      2805      3138      3139
 -1      1411    8    0    1
 -2       661       768       767      3139      3140      3135
 -1      1412    8    0    1
 -2       662       663       769      2808      3141      3142
 -1      1413    8    0    1
 -2       662       769       768      3142      3143      3138
 -1      1414    8    0    1
 -2       663       664       770      2811      3144      3145
 -1      1415    8    0    1
 -2       663       770       769      3145      3146      3141
 -1      1416    8    0    1
 -2       664       665       771      2814      3147      3148
 -1      1417    8    0    1
 -2       664       771       770      3148      3149      3144
 -1      1418    8    0    1
 -2       665       666       772      2817      3150      3151
 -1      1419    8    0    1
 -2       665       772       771      3151      3152      3147
 -1      1420    8    0    1
 -2       666       667       773      2820      3153      3154
 -1      1421    8    0    1
 -2       666       773       772      3154      3155      3150
 -1      1422    8    0    1
 -2       667       668       774      2823      3156      3157
 -1      1423    8    0    1
 -2       667       774       773      3157      3158      3153
 -1      1424    8    0    1
 -2       668       669       775      2826      3159      3160
 -1      1425    8    0    1
 -2       668       775       774      3160      3161      3156
 -1      1426    8    0    1
 -2       669       670       776      2829      3162      3163
 -1      1427    8    0    1
 -2       669       776       775      3163      3164      3159
 -1      1428    8    0    1
 -2       670       671       777      2832      3165      3166
 -1      1429    8    0    1
 -2       670       777       776      3166      3167      3162
 -1      1430    8    0    1
 -2       671       672       778      2835      3168      3169
 -1      1431    8    0    1
 -2       671       778       777      3169      3170      3165
 -1      1432    8    0    1
 -2       672       673       779      2838      3171      3172
 -1      1433    8    0    1
 -2       672       779       778      3172      3173      3168
 -1      1434    8    0    1
 -2       673       674       780      2841      3174      3175
 -1      1435    8    0    1
 -2       673       780       779      3175      3176      3171
 -1      1436    8    0    1
 -2       674       675       781      2844      3177      3178
 -1      1437    8    0    1
 -2       674       781       780      3178      3179      3174
 -1      1438    8    0    1
 -2       675       676       782      2847      3180      3181
 -1      1439    8    0    1
 -2       675       782       781      3181      3182      3177
 -1      1440    8    0    1
 -2       676       677       783      2850      3183      3184
 -1      1441    8    0    1
 -2       676       783       782      3184      3185      3180
 -1      1442    8    0    1
 -2       677       678       784      2853      3186      3187
 -1      1443    8    0    1
 -2       677       784       783      3187      3188      3183
 -1      1444    8    0    1
 -2       678       679       785      2856      3189      3190
 -1      1445    8    0    1
 -2       678       785       784      3190      3191      3186
 -1      1446    8    0    1
 -2       679       680       786      2859      3192      3193
 -1      1447    8    0    1
 -2       679       786       785      3193      3194      3189
 -1      1448    8    0    1
 -2       680       681       787      2862      3195      3196
 -1      1449    8    0    1
 -2       680       787       786      3196      3197      3192
 -1      1450    8    0    1
 -2       681       682       788      2865      3198      3199
 -1      1451    8    0    1
 -2       681       788       787      3199      3200      3195
 -1      1452    8    0    1
 -2       682       683       789      2868      3201      3202
 -1      1453    8    0    1
 -2       682       789       788      3202      3203      3198
 -1      1454    8    0    1
 -2       683       684       790      2871      3204      3205
 -1      1455    8    0    1
 -2       683       790       789      3205      3206      3201
 -1      1456    8    0    1
 -2       684       685       791      2874      3207      3208
 -1      1457    8    0    1
 -2       684       791       790      3208      3209      3204
 -1      1458    8    0    1
 -2       685       686       792      2877      3210      3211
 -1      1459    8    0    1
 -2       685       792       791      3211      3212      3207
 -1      1460    8    0    1
 -2       686       687       793      2880      3213      3214
 -1      1461    8    0    1
 -2       686       793       792      3214      3215      3210
 -1      1462    8    0    1
 -2       687       688       794      2883      3216      3217
 -1      1463    8    0    1
 -2       687       794       793      3217      3218      3213
 -1      1464    8    0    1
 -2       717       571       690      2973      2890      3219
 -1      1465    8    0    1
 -2       698       697       795      2978      3220      3221
 -1      1466    8    0    1
 -2       693       656       796      2900      3222      3223
 -1      1467    8    0    1
 -2       656       700       797      2967      3224      3225
 -1      1468    8    0    1
 -2       656       797       796      3225      3226      3222
 -1      1469    8    0    1
 -2       695       602       716      2989      2963      3227
 -1      1470    8    0    1
 -2       712       713       798      2982      3228      3229
 -1      1471    8    0    1
 -2       700       699       799      2918      3230      3231
 -1      1472    8    0    1
 -2       700       799       797      3231      3232      3224
 -1      1473    8    0    1
 -2       699       657       800      2915      3233      3234
 -1      1474    8    0    1
 -2       699       800       799      3234      3235      3230
 -1      1475    8    0    1
 -2       706       696       801      2937      3236      3237
 -1      1476    8    0    1
 -2       569       585       705      2968      2934      3238
 -1      1477    8    0    1
 -2       697       706       802      2984      3239      3240
 -1      1478    8    0    1
 -2       707       711       803      3002      3241      3242
 -1      1479    8    0    1
 -2       610       611       804      3003      3243      3244
 -1      1480    8    0    1
 -2       725       610       804      3010      3244      3245
 -1      1481    8    0    1
 -2       611       702       804      2925      3246      3243
 -1      1482    8    0    1
 -2       711       694       805      2948      3247      3248
 -1      1483    8    0    1
 -2       803       711       805      3241      3248      3249
 -1      1484    8    0    1
 -2       694       721       805      2987      3250      3247
 -1      1485    8    0    1
 -2       691       613       798      3008      3251      3252
 -1      1486    8    0    1
 -2       710       703       806      3000      3253      3254
 -1      1487    8    0    1
 -2       608       607       807      2648      3255      3256
 -1      1488    8    0    1
 -2       697       802       795      3240      3257      3220
 -1      1489    8    0    1
 -2       715       698       808      2959      3258      3259
 -1      1490    8    0    1
 -2       698       795       808      3221      3260      3258
 -1      1491    8    0    1
 -2       609       725       809      3011      3261      3262
 -1      1492    8    0    1
 -2       609       809       704      3262      3263      2932
 -1      1493    8    0    1
 -2       381       441       470      2611      2196      2966
 -1      1494    8    0    1
 -2       702       693       810      2926      3264      3265
 -1      1495    8    0    1
 -2       804       702       810      3246      3265      3266
 -1      1496    8    0    1
 -2       693       796       810      3223      3267      3264
 -1      1497    8    0    1
 -2       689       718       709      3007      3268      3269
 -1      1498    8    0    1
 -2       657       766       800      3133      3270      3233
 -1      1499    8    0    1
 -2       613       655       798      2785      3271      3251
 -1      1500    8    0    1
 -2       721       653       805      3127      3272      3250
 -1      1501    8    0    1
 -2       653       652       805      2779      3273      3272
 -1      1502    8    0    1
 -2       655       654       798      2786      3274      3271
 -1      1503    8    0    1
 -2       718       569       705      2971      3238      3275
 -1      1504    8    0    1
 -2       794       688       806      3216      3276      3277
 -1      1505    8    0    1
 -2       695       716       701      3227      3278      2922
 -1      1506    8    0    1
 -2       688       689       806      2886      3279      3276
 -1      1507    8    0    1
 -2       689       709       710      3269      3001      3280
 -1      1508    8    0    1
 -2       689       710       806      3280      3254      3279
 -1      1509    8    0    1
 -2       709       718       705      3268      3275      2983
 -1      1510    8    0    1
 -2       576       691       603      2892      3281      3282
 -1      1511    8    0    1
 -2       720       604       811      2981      3283      3284
 -1      1512    8    0    1
 -2       604       723       811      2994      3285      3283
 -1      1513    8    0    1
 -2       603       473       576      2616      2897      3282
 -1      1514    8    0    1
 -2       706       801       802      3237      3286      3239
 -1      1515    8    0    1
 -2       798       713       691      3228      3287      3252
 -1      1516    8    0    1
 -2       723       605       812      2995      3288      3289
 -1      1517    8    0    1
 -2       605       722       812      2992      3290      3288
 -1      1518    8    0    1
 -2       696       720       813      2980      3291      3292
 -1      1519    8    0    1
 -2       696       813       801      3292      3293      3236
 -1      1520    8    0    1
 -2       614       701       814      2921      3294      3295
 -1      1521    8    0    1
 -2       614       814       726      3295      3296      3012
 -1      1522    8    0    1
 -2       703       715       806      2958      3297      3253
 -1      1523    8    0    1
 -2       603       691       713      3281      3287      2985
 -1      1524    8    0    1
 -2       714       608       815      2954      3298      3299
 -1      1525    8    0    1
 -2       608       807       815      3256      3300      3298
 -1      1526    8    0    1
 -2       607       704       816      2931      3301      3302
 -1      1527    8    0    1
 -2       807       607       816      3255      3302      3303
 -1      1528    8    0    1
 -2       704       809       816      3263      3304      3301
 -1      1529    8    0    1
 -2       716       708       817      2964      3305      3306
 -1      1530    8    0    1
 -2       708       724       818      2998      3307      3308
 -1      1531    8    0    1
 -2       708       818       817      3308      3309      3305
 -1      1532    8    0    1
 -2       654       721       798      3128      3310      3274
 -1      1533    8    0    1
 -2       800       766       819      3270      3311      3312
 -1      1534    8    0    1
 -2       652       764       805      3125      3313      3273
 -1      1535    8    0    1
 -2       729       728       820      3021      3314      3315
 -1      1536    8    0    1
 -2       730       729       821      3024      3316      3317
 -1      1537    8    0    1
 -2       729       820       821      3315      3318      3316
 -1      1538    8    0    1
 -2       731       730       822      3027      3319      3320
 -1      1539    8    0    1
 -2       730       821       822      3317      3321      3319
 -1      1540    8    0    1
 -2       732       731       823      3030      3322      3323
 -1      1541    8    0    1
 -2       731       822       823      3320      3324      3322
 -1      1542    8    0    1
 -2       733       732       824      3033      3325      3326
 -1      1543    8    0    1
 -2       732       823       824      3323      3327      3325
 -1      1544    8    0    1
 -2       734       733       825      3036      3328      3329
 -1      1545    8    0    1
 -2       733       824       825      3326      3330      3328
 -1      1546    8    0    1
 -2       735       734       826      3039      3331      3332
 -1      1547    8    0    1
 -2       734       825       826      3329      3333      3331
 -1      1548    8    0    1
 -2       736       735       827      3042      3334      3335
 -1      1549    8    0    1
 -2       735       826       827      3332      3336      3334
 -1      1550    8    0    1
 -2       737       736       828      3045      3337      3338
 -1      1551    8    0    1
 -2       736       827       828      3335      3339      3337
 -1      1552    8    0    1
 -2       738       737       829      3048      3340      3341
 -1      1553    8    0    1
 -2       737       828       829      3338      3342      3340
 -1      1554    8    0    1
 -2       739       738       830      3051      3343      3344
 -1      1555    8    0    1
 -2       738       829       830      3341      3345      3343
 -1      1556    8    0    1
 -2       740       739       831      3054      3346      3347
 -1      1557    8    0    1
 -2       739       830       831      3344      3348      3346
 -1      1558    8    0    1
 -2       741       740       832      3057      3349      3350
 -1      1559    8    0    1
 -2       740       831       832      3347      3351      3349
 -1      1560    8    0    1
 -2       742       741       833      3060      3352      3353
 -1      1561    8    0    1
 -2       741       832       833      3350      3354      3352
 -1      1562    8    0    1
 -2       743       742       834      3063      3355      3356
 -1      1563    8    0    1
 -2       742       833       834      3353      3357      3355
 -1      1564    8    0    1
 -2       744       743       835      3066      3358      3359
 -1      1565    8    0    1
 -2       743       834       835      3356      3360      3358
 -1      1566    8    0    1
 -2       745       744       836      3069      3361      3362
 -1      1567    8    0    1
 -2       744       835       836      3359      3363      3361
 -1      1568    8    0    1
 -2       746       745       837      3072      3364      3365
 -1      1569    8    0    1
 -2       745       836       837      3362      3366      3364
 -1      1570    8    0    1
 -2       747       746       838      3075      3367      3368
 -1      1571    8    0    1
 -2       746       837       838      3365      3369      3367
 -1      1572    8    0    1
 -2       748       747       839      3078      3370      3371
 -1      1573    8    0    1
 -2       747       838       839      3368      3372      3370
 -1      1574    8    0    1
 -2       749       748       840      3081      3373      3374
 -1      1575    8    0    1
 -2       748       839       840      3371      3375      3373
 -1      1576    8    0    1
 -2       750       749       841      3084      3376      3377
 -1      1577    8    0    1
 -2       749       840       841      3374      3378      3376
 -1      1578    8    0    1
 -2       751       750       842      3087      3379      3380
 -1      1579    8    0    1
 -2       750       841       842      3377      3381      3379
 -1      1580    8    0    1
 -2       752       751       843      3090      3382      3383
 -1      1581    8    0    1
 -2       751       842       843      3380      3384      3382
 -1      1582    8    0    1
 -2       753       752       844      3093      3385      3386
 -1      1583    8    0    1
 -2       752       843       844      3383      3387      3385
 -1      1584    8    0    1
 -2       754       753       845      3096      3388      3389
 -1      1585    8    0    1
 -2       753       844       845      3386      3390      3388
 -1      1586    8    0    1
 -2       755       754       846      3099      3391      3392
 -1      1587    8    0    1
 -2       754       845       846      3389      3393      3391
 -1      1588    8    0    1
 -2       756       755       847      3102      3394      3395
 -1      1589    8    0    1
 -2       755       846       847      3392      3396      3394
 -1      1590    8    0    1
 -2       757       756       848      3105      3397      3398
 -1      1591    8    0    1
 -2       756       847       848      3395      3399      3397
 -1      1592    8    0    1
 -2       758       757       849      3108      3400      3401
 -1      1593    8    0    1
 -2       757       848       849      3398      3402      3400
 -1      1594    8    0    1
 -2       759       758       850      3111      3403      3404
 -1      1595    8    0    1
 -2       758       849       850      3401      3405      3403
 -1      1596    8    0    1
 -2       760       759       851      3114      3406      3407
 -1      1597    8    0    1
 -2       759       850       851      3404      3408      3406
 -1      1598    8    0    1
 -2       761       760       852      3117      3409      3410
 -1      1599    8    0    1
 -2       760       851       852      3407      3411      3409
 -1      1600    8    0    1
 -2       762       761       853      3120      3412      3413
 -1      1601    8    0    1
 -2       761       852       853      3410      3414      3412
 -1      1602    8    0    1
 -2       764       763       803      3126      3415      3416
 -1      1603    8    0    1
 -2       727       767       854      3137      3417      3418
 -1      1604    8    0    1
 -2       766       765       855      3134      3419      3420
 -1      1605    8    0    1
 -2       766       855       819      3420      3421      3311
 -1      1606    8    0    1
 -2       768       769       856      3143      3422      3423
 -1      1607    8    0    1
 -2       769       770       857      3146      3424      3425
 -1      1608    8    0    1
 -2       769       857       856      3425      3426      3422
 -1      1609    8    0    1
 -2       770       771       858      3149      3427      3428
 -1      1610    8    0    1
 -2       770       858       857      3428      3429      3424
 -1      1611    8    0    1
 -2       771       772       859      3152      3430      3431
 -1      1612    8    0    1
 -2       771       859       858      3431      3432      3427
 -1      1613    8    0    1
 -2       772       773       860      3155      3433      3434
 -1      1614    8    0    1
 -2       772       860       859      3434      3435      3430
 -1      1615    8    0    1
 -2       773       774       861      3158      3436      3437
 -1      1616    8    0    1
 -2       773       861       860      3437      3438      3433
 -1      1617    8    0    1
 -2       774       775       862      3161      3439      3440
 -1      1618    8    0    1
 -2       774       862       861      3440      3441      3436
 -1      1619    8    0    1
 -2       775       776       863      3164      3442      3443
 -1      1620    8    0    1
 -2       775       863       862      3443      3444      3439
 -1      1621    8    0    1
 -2       776       777       864      3167      3445      3446
 -1      1622    8    0    1
 -2       776       864       863      3446      3447      3442
 -1      1623    8    0    1
 -2       777       778       865      3170      3448      3449
 -1      1624    8    0    1
 -2       777       865       864      3449      3450      3445
 -1      1625    8    0    1
 -2       778       779       866      3173      3451      3452
 -1      1626    8    0    1
 -2       778       866       865      3452      3453      3448
 -1      1627    8    0    1
 -2       779       780       867      3176      3454      3455
 -1      1628    8    0    1
 -2       779       867       866      3455      3456      3451
 -1      1629    8    0    1
 -2       780       781       868      3179      3457      3458
 -1      1630    8    0    1
 -2       780       868       867      3458      3459      3454
 -1      1631    8    0    1
 -2       781       782       869      3182      3460      3461
 -1      1632    8    0    1
 -2       781       869       868      3461      3462      3457
 -1      1633    8    0    1
 -2       782       783       870      3185      3463      3464
 -1      1634    8    0    1
 -2       782       870       869      3464      3465      3460
 -1      1635    8    0    1
 -2       783       784       871      3188      3466      3467
 -1      1636    8    0    1
 -2       783       871       870      3467      3468      3463
 -1      1637    8    0    1
 -2       784       785       872      3191      3469      3470
 -1      1638    8    0    1
 -2       784       872       871      3470      3471      3466
 -1      1639    8    0    1
 -2       785       786       873      3194      3472      3473
 -1      1640    8    0    1
 -2       785       873       872      3473      3474      3469
 -1      1641    8    0    1
 -2       786       787       874      3197      3475      3476
 -1      1642    8    0    1
 -2       786       874       873      3476      3477      3472
 -1      1643    8    0    1
 -2       787       788       875      3200      3478      3479
 -1      1644    8    0    1
 -2       787       875       874      3479      3480      3475
 -1      1645    8    0    1
 -2       788       789       876      3203      3481      3482
 -1      1646    8    0    1
 -2       788       876       875      3482      3483      3478
 -1      1647    8    0    1
 -2       789       790       877      3206      3484      3485
 -1      1648    8    0    1
 -2       789       877       876      3485      3486      3481
 -1      1649    8    0    1
 -2       790       791       878      3209      3487      3488
 -1      1650    8    0    1
 -2       790       878       877      3488      3489      3484
 -1      1651    8    0    1
 -2       791       792       879      3212      3490      3491
 -1      1652    8    0    1
 -2       791       879       878      3491      3492      3487
 -1      1653    8    0    1
 -2       792       793       880      3215      3493      3494
 -1      1654    8    0    1
 -2       792       880       879      3494      3495      3490
 -1      1655    8    0    1
 -2       701       716       814      3278      3496      3294
 -1      1656    8    0    1
 -2       716       817       814      3306      3497      3496
 -1      1657    8    0    1
 -2       796       797       881      3226      3498      3499
 -1      1658    8    0    1
 -2       600       717       692      2977      3500      2893
 -1      1659    8    0    1
 -2       722       707       882      2990      3501      3502
 -1      1660    8    0    1
 -2       803       805       764      3249      3313      3416
 -1      1661    8    0    1
 -2       724       714       883      2999      3503      3504
 -1      1662    8    0    1
 -2       724       883       818      3504      3505      3307
 -1      1663    8    0    1
 -2       797       799       884      3232      3506      3507
 -1      1664    8    0    1
 -2       797       884       881      3507      3508      3498
 -1      1665    8    0    1
 -2       794       806       715      3277      3297      3509
 -1      1666    8    0    1
 -2       722       882       885      3502      3510      3511
 -1      1667    8    0    1
 -2       722       885       812      3511      3512      3290
 -1      1668    8    0    1
 -2       767       768       886      3140      3513      3514
 -1      1669    8    0    1
 -2       854       767       886      3417      3514      3515
 -1      1670    8    0    1
 -2       768       856       886      3423      3516      3513
 -1      1671    8    0    1
 -2       707       803       882      3242      3517      3501
 -1      1672    8    0    1
 -2       799       800       887      3235      3518      3519
 -1      1673    8    0    1
 -2       799       887       884      3519      3520      3506
 -1      1674    8    0    1
 -2       765       727       888      3131      3521      3522
 -1      1675    8    0    1
 -2       855       765       888      3419      3522      3523
 -1      1676    8    0    1
 -2       727       854       888      3418      3524      3521
 -1      1677    8    0    1
 -2       802       801       889      3286      3525      3526
 -1      1678    8    0    1
 -2       728       726       890      3018      3527      3528
 -1      1679    8    0    1
 -2       728       890       820      3528      3529      3314
 -1      1680    8    0    1
 -2       795       802       891      3257      3530      3531
 -1      1681    8    0    1
 -2       802       889       891      3526      3532      3530
 -1      1682    8    0    1
 -2       794       715       892      3509      3533      3534
 -1      1683    8    0    1
 -2       793       794       892      3218      3534      3535
 -1      1684    8    0    1
 -2       715       808       892      3259      3536      3533
 -1      1685    8    0    1
 -2       808       795       893      3260      3537      3538
 -1      1686    8    0    1
 -2       795       891       893      3531      3539      3537
 -1      1687    8    0    1
 -2       809       725       894      3261      3540      3541
 -1      1688    8    0    1
 -2       712       798       721      3229      3310      2988
 -1      1689    8    0    1
 -2       883       714       815      3503      3299      3542
 -1      1690    8    0    1
 -2       762       853       885      3413      3543      3544
 -1      1691    8    0    1
 -2       763       762       885      3123      3544      3545
 -1      1692    8    0    1
 -2       793       892       880      3535      3546      3493
 -1      1693    8    0    1
 -2       796       881       895      3499      3547      3548
 -1      1694    8    0    1
 -2       796       895       810      3548      3549      3267
 -1      1695    8    0    1
 -2       717       690       692      3219      2976      3500
 -1      1696    8    0    1
 -2       811       723       896      3285      3550      3551
 -1      1697    8    0    1
 -2       723       812       896      3289      3552      3550
 -1      1698    8    0    1
 -2       800       819       887      3312      3553      3518
 -1      1699    8    0    1
 -2       720       811       897      3284      3554      3555
 -1      1700    8    0    1
 -2       720       897       813      3555      3556      3291
 -1      1701    8    0    1
 -2       814       817       898      3497      3557      3558
 -1      1702    8    0    1
 -2       814       898       726      3558      3559      3296
 -1      1703    8    0    1
 -2       817       818       899      3309      3560      3561
 -1      1704    8    0    1
 -2       817       899       898      3561      3562      3557
 -1      1705    8    0    1
 -2       815       807       900      3300      3563      3564
 -1      1706    8    0    1
 -2       890       726       898      3527      3559      3565
 -1      1707    8    0    1
 -2       889       801       901      3525      3566      3567
 -1      1708    8    0    1
 -2       801       813       901      3293      3568      3566
 -1      1709    8    0    1
 -2       807       816       902      3303      3569      3570
 -1      1710    8    0    1
 -2       807       902       900      3570      3571      3563
 -1      1711    8    0    1
 -2       894       725       810      3540      3572      3573
 -1      1712    8    0    1
 -2       882       803       763      3517      3415      3574
 -1      1713    8    0    1
 -2       885       853       812      3543      3575      3512
 -1      1714    8    0    1
 -2       809       894       903      3541      3576      3577
 -1      1715    8    0    1
 -2       809       903       816      3577      3578      3304
 -1      1716    8    0    1
 -2       763       885       882      3545      3510      3574
 -1      1717    8    0    1
 -2       822       821       904      3321      3579      3580
 -1      1718    8    0    1
 -2       823       822       905      3324      3581      3582
 -1      1719    8    0    1
 -2       822       904       905      3580      3583      3581
 -1      1720    8    0    1
 -2       824       823       906      3327      3584      3585
 -1      1721    8    0    1
 -2       823       905       906      3582      3586      3584
 -1      1722    8    0    1
 -2       825       824       907      3330      3587      3588
 -1      1723    8    0    1
 -2       824       906       907      3585      3589      3587
 -1      1724    8    0    1
 -2       826       825       908      3333      3590      3591
 -1      1725    8    0    1
 -2       825       907       908      3588      3592      3590
 -1      1726    8    0    1
 -2       827       826       909      3336      3593      3594
 -1      1727    8    0    1
 -2       826       908       909      3591      3595      3593
 -1      1728    8    0    1
 -2       828       827       910      3339      3596      3597
 -1      1729    8    0    1
 -2       827       909       910      3594      3598      3596
 -1      1730    8    0    1
 -2       829       828       911      3342      3599      3600
 -1      1731    8    0    1
 -2       828       910       911      3597      3601      3599
 -1      1732    8    0    1
 -2       830       829       912      3345      3602      3603
 -1      1733    8    0    1
 -2       829       911       912      3600      3604      3602
 -1      1734    8    0    1
 -2       831       830       913      3348      3605      3606
 -1      1735    8    0    1
 -2       830       912       913      3603      3607      3605
 -1      1736    8    0    1
 -2       832       831       914      3351      3608      3609
 -1      1737    8    0    1
 -2       831       913       914      3606      3610      3608
 -1      1738    8    0    1
 -2       833       832       915      3354      3611      3612
 -1      1739    8    0    1
 -2       832       914       915      3609      3613      3611
 -1      1740    8    0    1
 -2       834       833       916      3357      3614      3615
 -1      1741    8    0    1
 -2       833       915       916      3612      3616      3614
 -1      1742    8    0    1
 -2       835       834       917      3360      3617      3618
 -1      1743    8    0    1
 -2       834       916       917      3615      3619      3617
 -1      1744    8    0    1
 -2       836       835       918      3363      3620      3621
 -1      1745    8    0    1
 -2       835       917       918      3618      3622      3620
 -1      1746    8    0    1
 -2       837       836       919      3366      3623      3624
 -1      1747    8    0    1
 -2       836       918       919      3621      3625      3623
 -1      1748    8    0    1
 -2       838       837       920      3369      3626      3627
 -1      1749    8    0    1
 -2       837       919       920      3624      3628      3626
 -1      1750    8    0    1
 -2       839       838       921      3372      3629      3630
 -1      1751    8    0    1
 -2       838       920       921      3627      3631      3629
 -1      1752    8    0    1
 -2       840       839       922      3375      3632      3633
 -1      1753    8    0    1
 -2       839       921       922      3630      3634      3632
 -1      1754    8    0    1
 -2       841       840       923      3378      3635      3636
 -1      1755    8    0    1
 -2       840       922       923      3633      3637      3635
 -1      1756    8    0    1
 -2       842       841       924      3381      3638      3639
 -1      1757    8    0    1
 -2       841       923       924      3636      3640      3638
 -1      1758    8    0    1
 -2       843       842       925      3384      3641      3642
 -1      1759    8    0    1
 -2       842       924       925      3639      3643      3641
 -1      1760    8    0    1
 -2       844       843       926      3387      3644      3645
 -1      1761    8    0    1
 -2       843       925       926      3642      3646      3644
 -1      1762    8    0    1
 -2       845       844       927      3390      3647      3648
 -1      1763    8    0    1
 -2       844       926       927      3645      3649      3647
 -1      1764    8    0    1
 -2       846       845       928      3393      3650      3651
 -1      1765    8    0    1
 -2       845       927       928      3648      3652      3650
 -1      1766    8    0    1
 -2       847       846       929      3396      3653      3654
 -1      1767    8    0    1
 -2       846       928       929      3651      3655      3653
 -1      1768    8    0    1
 -2       848       847       930      3399      3656      3657
 -1      1769    8    0    1
 -2       847       929       930      3654      3658      3656
 -1      1770    8    0    1
 -2       849       848       931      3402      3659      3660
 -1      1771    8    0    1
 -2       848       930       931      3657      3661      3659
 -1      1772    8    0    1
 -2       850       849       932      3405      3662      3663
 -1      1773    8    0    1
 -2       849       931       932      3660      3664      3662
 -1      1774    8    0    1
 -2       851       850       933      3408      3665      3666
 -1      1775    8    0    1
 -2       850       932       933      3663      3667      3665
 -1      1776    8    0    1
 -2       852       851       934      3411      3668      3669
 -1      1777    8    0    1
 -2       851       933       934      3666      3670      3668
 -1      1778    8    0    1
 -2       853       852       935      3414      3671      3672
 -1      1779    8    0    1
 -2       852       934       935      3669      3673      3671
 -1      1780    8    0    1
 -2       895       881       936      3547      3674      3675
 -1      1781    8    0    1
 -2       819       855       937      3421      3676      3677
 -1      1782    8    0    1
 -2       857       858       938      3429      3678      3679
 -1      1783    8    0    1
 -2       856       857       939      3426      3680      3681
 -1      1784    8    0    1
 -2       857       938       939      3679      3682      3680
 -1      1785    8    0    1
 -2       859       860       940      3435      3683      3684
 -1      1786    8    0    1
 -2       860       861       941      3438      3685      3686
 -1      1787    8    0    1
 -2       860       941       940      3686      3687      3683
 -1      1788    8    0    1
 -2       861       862       942      3441      3688      3689
 -1      1789    8    0    1
 -2       861       942       941      3689      3690      3685
 -1      1790    8    0    1
 -2       862       863       943      3444      3691      3692
 -1      1791    8    0    1
 -2       862       943       942      3692      3693      3688
 -1      1792    8    0    1
 -2       863       864       944      3447      3694      3695
 -1      1793    8    0    1
 -2       863       944       943      3695      3696      3691
 -1      1794    8    0    1
 -2       864       865       945      3450      3697      3698
 -1      1795    8    0    1
 -2       864       945       944      3698      3699      3694
 -1      1796    8    0    1
 -2       865       866       946      3453      3700      3701
 -1      1797    8    0    1
 -2       865       946       945      3701      3702      3697
 -1      1798    8    0    1
 -2       866       867       947      3456      3703      3704
 -1      1799    8    0    1
 -2       866       947       946      3704      3705      3700
 -1      1800    8    0    1
 -2       867       868       948      3459      3706      3707
 -1      1801    8    0    1
 -2       867       948       947      3707      3708      3703
 -1      1802    8    0    1
 -2       868       869       949      3462      3709      3710
 -1      1803    8    0    1
 -2       868       949       948      3710      3711      3706
 -1      1804    8    0    1
 -2       869       870       950      3465      3712      3713
 -1      1805    8    0    1
 -2       869       950       949      3713      3714      3709
 -1      1806    8    0    1
 -2       870       871       951      3468      3715      3716
 -1      1807    8    0    1
 -2       870       951       950      3716      3717      3712
 -1      1808    8    0    1
 -2       871       872       952      3471      3718      3719
 -1      1809    8    0    1
 -2       871       952       951      3719      3720      3715
 -1      1810    8    0    1
 -2       872       873       953      3474      3721      3722
 -1      1811    8    0    1
 -2       872       953       952      3722      3723      3718
 -1      1812    8    0    1
 -2       873       874       954      3477      3724      3725
 -1      1813    8    0    1
 -2       873       954       953      3725      3726      3721
 -1      1814    8    0    1
 -2       874       875       955      3480      3727      3728
 -1      1815    8    0    1
 -2       874       955       954      3728      3729      3724
 -1      1816    8    0    1
 -2       875       876       956      3483      3730      3731
 -1      1817    8    0    1
 -2       875       956       955      3731      3732      3727
 -1      1818    8    0    1
 -2       876       877       957      3486      3733      3734
 -1      1819    8    0    1
 -2       876       957       956      3734      3735      3730
 -1      1820    8    0    1
 -2       877       878       958      3489      3736      3737
 -1      1821    8    0    1
 -2       877       958       957      3737      3738      3733
 -1      1822    8    0    1
 -2       878       879       959      3492      3739      3740
 -1      1823    8    0    1
 -2       878       959       958      3740      3741      3736
 -1      1824    8    0    1
 -2       879       880       960      3495      3742      3743
 -1      1825    8    0    1
 -2       879       960       959      3743      3744      3739
 -1      1826    8    0    1
 -2       810       895       894      3549      3745      3573
 -1      1827    8    0    1
 -2       815       900       961      3564      3746      3747
 -1      1828    8    0    1
 -2       815       961       883      3747      3748      3542
 -1      1829    8    0    1
 -2       884       887       962      3520      3749      3750
 -1      1830    8    0    1
 -2       818       883       963      3505      3751      3752
 -1      1831    8    0    1
 -2       899       818       963      3560      3752      3753
 -1      1832    8    0    1
 -2       883       961       963      3748      3754      3751
 -1      1833    8    0    1
 -2       858       859       964      3432      3755      3756
 -1      1834    8    0    1
 -2       938       858       964      3678      3756      3757
 -1      1835    8    0    1
 -2       859       940       964      3684      3758      3755
 -1      1836    8    0    1
 -2       881       884       965      3508      3759      3760
 -1      1837    8    0    1
 -2       936       881       965      3674      3760      3761
 -1      1838    8    0    1
 -2       884       962       965      3750      3762      3759
 -1      1839    8    0    1
 -2       890       898       966      3565      3763      3764
 -1      1840    8    0    1
 -2       898       899       966      3562      3765      3763
 -1      1841    8    0    1
 -2       821       820       967      3318      3766      3767
 -1      1842    8    0    1
 -2       821       967       904      3767      3768      3579
 -1      1843    8    0    1
 -2       725       804       810      3245      3266      3572
 -1      1844    8    0    1
 -2       820       890       968      3529      3769      3770
 -1      1845    8    0    1
 -2       967       820       968      3766      3770      3771
 -1      1846    8    0    1
 -2       890       966       968      3764      3772      3769
 -1      1847    8    0    1
 -2       887       819       969      3553      3773      3774
 -1      1848    8    0    1
 -2       819       937       969      3677      3775      3773
 -1      1849    8    0    1
 -2       891       889       970      3532      3776      3777
 -1      1850    8    0    1
 -2       892       808       971      3536      3778      3779
 -1      1851    8    0    1
 -2       880       892       971      3546      3779      3780
 -1      1852    8    0    1
 -2       808       893       971      3538      3781      3778
 -1      1853    8    0    1
 -2       894       895       972      3745      3782      3783
 -1      1854    8    0    1
 -2       903       894       972      3576      3783      3784
 -1      1855    8    0    1
 -2       895       936       972      3675      3785      3782
 -1      1856    8    0    1
 -2       812       853       935      3575      3672      3786
 -1      1857    8    0    1
 -2       891       970       973      3777      3787      3788
 -1      1858    8    0    1
 -2       891       973       893      3788      3789      3539
 -1      1859    8    0    1
 -2       856       939       974      3681      3790      3791
 -1      1860    8    0    1
 -2       856       974       886      3791      3792      3516
 -1      1861    8    0    1
 -2       960       880       971      3742      3780      3793
 -1      1862    8    0    1
 -2       961       900       975      3746      3794      3795
 -1      1863    8    0    1
 -2       962       887       969      3749      3774      3796
 -1      1864    8    0    1
 -2       854       886       976      3515      3797      3798
 -1      1865    8    0    1
 -2       886       974       976      3792      3799      3797
 -1      1866    8    0    1
 -2       889       901       977      3567      3800      3801
 -1      1867    8    0    1
 -2       889       977       970      3801      3802      3776
 -1      1868    8    0    1
 -2       855       888       978      3523      3803      3804
 -1      1869    8    0    1
 -2       855       978       937      3804      3805      3676
 -1      1870    8    0    1
 -2       813       897       979      3556      3806      3807
 -1      1871    8    0    1
 -2       813       979       901      3807      3808      3568
 -1      1872    8    0    1
 -2       888       854       980      3524      3809      3810
 -1      1873    8    0    1
 -2       978       888       980      3803      3810      3811
 -1      1874    8    0    1
 -2       854       976       980      3798      3812      3809
 -1      1875    8    0    1
 -2       902       816       903      3569      3578      3813
 -1      1876    8    0    1
 -2       900       902       981      3571      3814      3815
 -1      1877    8    0    1
 -2       900       981       975      3815      3816      3794
 -1      1878    8    0    1
 -2       939       938       982      3682      3817      3818
 -1      1879    8    0    1
 -2       905       904       983      3583      3819      3820
 -1      1880    8    0    1
 -2       906       905       984      3586      3821      3822
 -1      1881    8    0    1
 -2       905       983       984      3820      3823      3821
 -1      1882    8    0    1
 -2       907       906       985      3589      3824      3825
 -1      1883    8    0    1
 -2       906       984       985      3822      3826      3824
 -1      1884    8    0    1
 -2       908       907       986      3592      3827      3828
 -1      1885    8    0    1
 -2       907       985       986      3825      3829      3827
 -1      1886    8    0    1
 -2       909       908       987      3595      3830      3831
 -1      1887    8    0    1
 -2       908       986       987      3828      3832      3830
 -1      1888    8    0    1
 -2       910       909       988      3598      3833      3834
 -1      1889    8    0    1
 -2       909       987       988      3831      3835      3833
 -1      1890    8    0    1
 -2       911       910       989      3601      3836      3837
 -1      1891    8    0    1
 -2       910       988       989      3834      3838      3836
 -1      1892    8    0    1
 -2       912       911       990      3604      3839      3840
 -1      1893    8    0    1
 -2       911       989       990      3837      3841      3839
 -1      1894    8    0    1
 -2       913       912       991      3607      3842      3843
 -1      1895    8    0    1
 -2       912       990       991      3840      3844      3842
 -1      1896    8    0    1
 -2       914       913       992      3610      3845      3846
 -1      1897    8    0    1
 -2       913       991       992      3843      3847      3845
 -1      1898    8    0    1
 -2       915       914       993      3613      3848      3849
 -1      1899    8    0    1
 -2       914       992       993      3846      3850      3848
 -1      1900    8    0    1
 -2       916       915       994      3616      3851      3852
 -1      1901    8    0    1
 -2       915       993       994      3849      3853      3851
 -1      1902    8    0    1
 -2       917       916       995      3619      3854      3855
 -1      1903    8    0    1
 -2       916       994       995      3852      3856      3854
 -1      1904    8    0    1
 -2       918       917       996      3622      3857      3858
 -1      1905    8    0    1
 -2       917       995       996      3855      3859      3857
 -1      1906    8    0    1
 -2       919       918       997      3625      3860      3861
 -1      1907    8    0    1
 -2       918       996       997      3858      3862      3860
 -1      1908    8    0    1
 -2       920       919       998      3628      3863      3864
 -1      1909    8    0    1
 -2       919       997       998      3861      3865      3863
 -1      1910    8    0    1
 -2       921       920       999      3631      3866      3867
 -1      1911    8    0    1
 -2       920       998       999      3864      3868      3866
 -1      1912    8    0    1
 -2       922       921      1000      3634      3869      3870
 -1      1913    8    0    1
 -2       921       999      1000      3867      3871      3869
 -1      1914    8    0    1
 -2       923       922      1001      3637      3872      3873
 -1      1915    8    0    1
 -2       922      1000      1001      3870      3874      3872
 -1      1916    8    0    1
 -2       924       923      1002      3640      3875      3876
 -1      1917    8    0    1
 -2       923      1001      1002      3873      3877      3875
 -1      1918    8    0    1
 -2       925       924      1003      3643      3878      3879
 -1      1919    8    0    1
 -2       924      1002      1003      3876      3880      3878
 -1      1920    8    0    1
 -2       926       925      1004      3646      3881      3882
 -1      1921    8    0    1
 -2       925      1003      1004      3879      3883      3881
 -1      1922    8    0    1
 -2       927       926      1005      3649      3884      3885
 -1      1923    8    0    1
 -2       926      1004      1005      3882      3886      3884
 -1      1924    8    0    1
 -2       928       927      1006      3652      3887      3888
 -1      1925    8    0    1
 -2       927      1005      1006      3885      3889      3887
 -1      1926    8    0    1
 -2       929       928      1007      3655      3890      3891
 -1      1927    8    0    1
 -2       928      1006      1007      3888      3892      3890
 -1      1928    8    0    1
 -2       930       929      1008      3658      3893      3894
 -1      1929    8    0    1
 -2       929      1007      1008      3891      3895      3893
 -1      1930    8    0    1
 -2       931       930      1009      3661      3896      3897
 -1      1931    8    0    1
 -2       930      1008      1009      3894      3898      3896
 -1      1932    8    0    1
 -2       932       931      1010      3664      3899      3900
 -1      1933    8    0    1
 -2       931      1009      1010      3897      3901      3899
 -1      1934    8    0    1
 -2       933       932      1011      3667      3902      3903
 -1      1935    8    0    1
 -2       932      1010      1011      3900      3904      3902
 -1      1936    8    0    1
 -2       934       933      1012      3670      3905      3906
 -1      1937    8    0    1
 -2       933      1011      1012      3903      3907      3905
 -1      1938    8    0    1
 -2       966       899      1013      3765      3908      3909
 -1      1939    8    0    1
 -2       899       963      1013      3753      3910      3908
 -1      1940    8    0    1
 -2       941       942      1014      3690      3911      3912
 -1      1941    8    0    1
 -2       940       941      1015      3687      3913      3914
 -1      1942    8    0    1
 -2       941      1014      1015      3912      3915      3913
 -1      1943    8    0    1
 -2       943       944      1016      3696      3916      3917
 -1      1944    8    0    1
 -2       944       945      1017      3699      3918      3919
 -1      1945    8    0    1
 -2       944      1017      1016      3919      3920      3916
 -1      1946    8    0    1
 -2       945       946      1018      3702      3921      3922
 -1      1947    8    0    1
 -2       945      1018      1017      3922      3923      3918
 -1      1948    8    0    1
 -2       946       947      1019      3705      3924      3925
 -1      1949    8    0    1
 -2       946      1019      1018      3925      3926      3921
 -1      1950    8    0    1
 -2       947       948      1020      3708      3927      3928
 -1      1951    8    0    1
 -2       947      1020      1019      3928      3929      3924
 -1      1952    8    0    1
 -2       948       949      1021      3711      3930      3931
 -1      1953    8    0    1
 -2       948      1021      1020      3931      3932      3927
 -1      1954    8    0    1
 -2       949       950      1022      3714      3933      3934
 -1      1955    8    0    1
 -2       949      1022      1021      3934      3935      3930
 -1      1956    8    0    1
 -2       950       951      1023      3717      3936      3937
 -1      1957    8    0    1
 -2       950      1023      1022      3937      3938      3933
 -1      1958    8    0    1
 -2       951       952      1024      3720      3939      3940
 -1      1959    8    0    1
 -2       951      1024      1023      3940      3941      3936
 -1      1960    8    0    1
 -2       952       953      1025      3723      3942      3943
 -1      1961    8    0    1
 -2       952      1025      1024      3943      3944      3939
 -1      1962    8    0    1
 -2       953       954      1026      3726      3945      3946
 -1      1963    8    0    1
 -2       953      1026      1025      3946      3947      3942
 -1      1964    8    0    1
 -2       954       955      1027      3729      3948      3949
 -1      1965    8    0    1
 -2       954      1027      1026      3949      3950      3945
 -1      1966    8    0    1
 -2       955       956      1028      3732      3951      3952
 -1      1967    8    0    1
 -2       955      1028      1027      3952      3953      3948
 -1      1968    8    0    1
 -2       956       957      1029      3735      3954      3955
 -1      1969    8    0    1
 -2       956      1029      1028      3955      3956      3951
 -1      1970    8    0    1
 -2       957       958      1030      3738      3957      3958
 -1      1971    8    0    1
 -2       957      1030      1029      3958      3959      3954
 -1      1972    8    0    1
 -2       958       959      1031      3741      3960      3961
 -1      1973    8    0    1
 -2       958      1031      1030      3961      3962      3957
 -1      1974    8    0    1
 -2       962       969      1032      3796      3963      3964
 -1      1975    8    0    1
 -2       942       943      1033      3693      3965      3966
 -1      1976    8    0    1
 -2       942      1033      1014      3966      3967      3911
 -1      1977    8    0    1
 -2       897       811      1034      3554      3968      3969
 -1      1978    8    0    1
 -2       902       903      1035      3813      3970      3971
 -1      1979    8    0    1
 -2       981       902      1035      3814      3971      3972
 -1      1980    8    0    1
 -2       903       972      1035      3784      3973      3970
 -1      1981    8    0    1
 -2       811       896      1034      3551      3974      3968
 -1      1982    8    0    1
 -2       904       967      1036      3768      3975      3976
 -1      1983    8    0    1
 -2       904      1036       983      3976      3977      3819
 -1      1984    8    0    1
 -2       960       971       893      3793      3781      3978
 -1      1985    8    0    1
 -2       969       937      1037      3775      3979      3980
 -1      1986    8    0    1
 -2       969      1037      1032      3980      3981      3963
 -1      1987    8    0    1
 -2       960       893       973      3978      3789      3982
 -1      1988    8    0    1
 -2       968       966      1038      3772      3983      3984
 -1      1989    8    0    1
 -2       966      1013      1038      3909      3985      3983
 -1      1990    8    0    1
 -2       965       962      1039      3762      3986      3987
 -1      1991    8    0    1
 -2       962      1032      1039      3964      3988      3986
 -1      1992    8    0    1
 -2       935       934      1040      3673      3989      3990
 -1      1993    8    0    1
 -2       897      1034      1040      3969      3991      3992
 -1      1994    8    0    1
 -2       973       970      1041      3787      3993      3994
 -1      1995    8    0    1
 -2       974       939      1042      3790      3995      3996
 -1      1996    8    0    1
 -2       939       982      1042      3818      3997      3995
 -1      1997    8    0    1
 -2       940      1015      1043      3914      3998      3999
 -1      1998    8    0    1
 -2       940      1043       964      3999      4000      3758
 -1      1999    8    0    1
 -2      1031       959      1041      3960      4001      4002
 -1      2000    8    0    1
 -2       959       960      1041      3744      4003      4001
 -1      2001    8    0    1
 -2      1033       943      1016      3965      3917      4004
 -1      2002    8    0    1
 -2       963       961      1044      3754      4005      4006
 -1      2003    8    0    1
 -2      1013       963      1044      3910      4006      4007
 -1      2004    8    0    1
 -2       961       975      1044      3795      4008      4005
 -1      2005    8    0    1
 -2       970       977      1045      3802      4009      4010
 -1      2006    8    0    1
 -2       970      1045      1041      4010      4011      3993
 -1      2007    8    0    1
 -2       976       974      1046      3799      4012      4013
 -1      2008    8    0    1
 -2       974      1042      1046      3996      4014      4012
 -1      2009    8    0    1
 -2       977       901      1047      3800      4015      4016
 -1      2010    8    0    1
 -2       901       979      1047      3808      4017      4015
 -1      2011    8    0    1
 -2       979       897      1040      3806      3992      4018
 -1      2012    8    0    1
 -2       976      1046      1048      4013      4019      4020
 -1      2013    8    0    1
 -2       976      1048       980      4020      4021      3812
 -1      2014    8    0    1
 -2       938       964      1049      3757      4022      4023
 -1      2015    8    0    1
 -2       982       938      1049      3817      4023      4024
 -1      2016    8    0    1
 -2       964      1043      1049      4000      4025      4022
 -1      2017    8    0    1
 -2       972       936      1035      3785      4026      3973
 -1      2018    8    0    1
 -2      1037       937      1050      3979      4027      4028
 -1      2019    8    0    1
 -2       937       978      1050      3805      4029      4027
 -1      2020    8    0    1
 -2       975       981      1051      3816      4030      4031
 -1      2021    8    0    1
 -2       975      1051      1052      4031      4032      4033
 -1      2022    8    0    1
 -2       975      1052      1044      4033      4034      4008
 -1      2023    8    0    1
 -2       967       968      1053      3771      4035      4036
 -1      2024    8    0    1
 -2      1036       967      1053      3975      4036      4037
 -1      2025    8    0    1
 -2       968      1038      1053      3984      4038      4035
 -1      2026    8    0    1
 -2      1040       934      1012      3989      3906      4039
 -1      2027    8    0    1
 -2      1035       936      1054      4026      4040      4041
 -1      2028    8    0    1
 -2       981      1035      1054      3972      4041      4042
 -1      2029    8    0    1
 -2       936       965      1054      3761      4043      4040
 -1      2030    8    0    1
 -2      1018      1019      1055      3926      4044      4045
 -1      2031    8    0    1
 -2      1040      1012       979      4039      4046      4018
 -1      2032    8    0    1
 -2       985       984      1056      3826      4047      4048
 -1      2033    8    0    1
 -2       986       985      1057      3829      4049      4050
 -1      2034    8    0    1
 -2       985      1056      1057      4048      4051      4049
 -1      2035    8    0    1
 -2       987       986      1058      3832      4052      4053
 -1      2036    8    0    1
 -2       986      1057      1058      4050      4054      4052
 -1      2037    8    0    1
 -2       988       987      1059      3835      4055      4056
 -1      2038    8    0    1
 -2       987      1058      1059      4053      4057      4055
 -1      2039    8    0    1
 -2       989       988      1060      3838      4058      4059
 -1      2040    8    0    1
 -2       988      1059      1060      4056      4060      4058
 -1      2041    8    0    1
 -2       990       989      1061      3841      4061      4062
 -1      2042    8    0    1
 -2       989      1060      1061      4059      4063      4061
 -1      2043    8    0    1
 -2       991       990      1062      3844      4064      4065
 -1      2044    8    0    1
 -2       990      1061      1062      4062      4066      4064
 -1      2045    8    0    1
 -2       992       991      1063      3847      4067      4068
 -1      2046    8    0    1
 -2       991      1062      1063      4065      4069      4067
 -1      2047    8    0    1
 -2       993       992      1064      3850      4070      4071
 -1      2048    8    0    1
 -2       992      1063      1064      4068      4072      4070
 -1      2049    8    0    1
 -2       994       993      1065      3853      4073      4074
 -1      2050    8    0    1
 -2       993      1064      1065      4071      4075      4073
 -1      2051    8    0    1
 -2       995       994      1066      3856      4076      4077
 -1      2052    8    0    1
 -2       994      1065      1066      4074      4078      4076
 -1      2053    8    0    1
 -2       996       995      1067      3859      4079      4080
 -1      2054    8    0    1
 -2       995      1066      1067      4077      4081      4079
 -1      2055    8    0    1
 -2       997       996      1068      3862      4082      4083
 -1      2056    8    0    1
 -2       996      1067      1068      4080      4084      4082
 -1      2057    8    0    1
 -2       998       997      1069      3865      4085      4086
 -1      2058    8    0    1
 -2       997      1068      1069      4083      4087      4085
 -1      2059    8    0    1
 -2       999       998      1070      3868      4088      4089
 -1      2060    8    0    1
 -2       998      1069      1070      4086      4090      4088
 -1      2061    8    0    1
 -2      1000       999      1071      3871      4091      4092
 -1      2062    8    0    1
 -2       999      1070      1071      4089      4093      4091
 -1      2063    8    0    1
 -2      1001      1000      1072      3874      4094      4095
 -1      2064    8    0    1
 -2      1000      1071      1072      4092      4096      4094
 -1      2065    8    0    1
 -2      1002      1001      1073      3877      4097      4098
 -1      2066    8    0    1
 -2      1001      1072      1073      4095      4099      4097
 -1      2067    8    0    1
 -2      1003      1002      1074      3880      4100      4101
 -1      2068    8    0    1
 -2      1002      1073      1074      4098      4102      4100
 -1      2069    8    0    1
 -2      1004      1003      1075      3883      4103      4104
 -1      2070    8    0    1
 -2      1003      1074      1075      4101      4105      4103
 -1      2071    8    0    1
 -2      1005      1004      1076      3886      4106      4107
 -1      2072    8    0    1
 -2      1004      1075      1076      4104      4108      4106
 -1      2073    8    0    1
 -2      1006      1005      1077      3889      4109      4110
 -1      2074    8    0    1
 -2      1005      1076      1077      4107      4111      4109
 -1      2075    8    0    1
 -2      1007      1006      1078      3892      4112      4113
 -1      2076    8    0    1
 -2      1006      1077      1078      4110      4114      4112
 -1      2077    8    0    1
 -2      1008      1007      1079      3895      4115      4116
 -1      2078    8    0    1
 -2      1007      1078      1079      4113      4117      4115
 -1      2079    8    0    1
 -2      1009      1008      1080      3898      4118      4119
 -1      2080    8    0    1
 -2      1008      1079      1080      4116      4120      4118
 -1      2081    8    0    1
 -2      1010      1009      1081      3901      4121      4122
 -1      2082    8    0    1
 -2      1009      1080      1081      4119      4123      4121
 -1      2083    8    0    1
 -2      1011      1010      1082      3904      4124      4125
 -1      2084    8    0    1
 -2      1010      1081      1082      4122      4126      4124
 -1      2085    8    0    1
 -2      1012      1011      1083      3907      4127      4128
 -1      2086    8    0    1
 -2      1011      1082      1083      4125      4129      4127
 -1      2087    8    0    1
 -2      1015      1014      1084      3915      4130      4131
 -1      2088    8    0    1
 -2      1033      1016      1085      4004      4132      4133
 -1      2089    8    0    1
 -2      1017      1018      1086      3923      4134      4135
 -1      2090    8    0    1
 -2      1018      1055      1086      4045      4136      4134
 -1      2091    8    0    1
 -2      1016      1017      1087      3920      4137      4138
 -1      2092    8    0    1
 -2      1085      1016      1087      4132      4138      4139
 -1      2093    8    0    1
 -2      1017      1086      1087      4135      4140      4137
 -1      2094    8    0    1
 -2      1019      1020      1088      3929      4141      4142
 -1      2095    8    0    1
 -2      1019      1088      1055      4142      4143      4044
 -1      2096    8    0    1
 -2      1020      1021      1089      3932      4144      4145
 -1      2097    8    0    1
 -2      1020      1089      1088      4145      4146      4141
 -1      2098    8    0    1
 -2      1021      1022      1090      3935      4147      4148
 -1      2099    8    0    1
 -2      1021      1090      1089      4148      4149      4144
 -1      2100    8    0    1
 -2      1022      1023      1091      3938      4150      4151
 -1      2101    8    0    1
 -2      1022      1091      1090      4151      4152      4147
 -1      2102    8    0    1
 -2      1023      1024      1092      3941      4153      4154
 -1      2103    8    0    1
 -2      1023      1092      1091      4154      4155      4150
 -1      2104    8    0    1
 -2      1024      1025      1093      3944      4156      4157
 -1      2105    8    0    1
 -2      1024      1093      1092      4157      4158      4153
 -1      2106    8    0    1
 -2      1025      1026      1094      3947      4159      4160
 -1      2107    8    0    1
 -2      1025      1094      1093      4160      4161      4156
 -1      2108    8    0    1
 -2      1026      1027      1095      3950      4162      4163
 -1      2109    8    0    1
 -2      1026      1095      1094      4163      4164      4159
 -1      2110    8    0    1
 -2      1027      1028      1096      3953      4165      4166
 -1      2111    8    0    1
 -2      1027      1096      1095      4166      4167      4162
 -1      2112    8    0    1
 -2      1028      1029      1097      3956      4168      4169
 -1      2113    8    0    1
 -2      1028      1097      1096      4169      4170      4165
 -1      2114    8    0    1
 -2      1029      1030      1098      3959      4171      4172
 -1      2115    8    0    1
 -2      1029      1098      1097      4172      4173      4168
 -1      2116    8    0    1
 -2      1030      1031      1099      3962      4174      4175
 -1      2117    8    0    1
 -2      1030      1099      1098      4175      4176      4171
 -1      2118    8    0    1
 -2       935      1040      1034      3990      3991      4177
 -1      2119    8    0    1
 -2      1014      1033      1100      3967      4178      4179
 -1      2120    8    0    1
 -2      1033      1085      1100      4133      4180      4178
 -1      2121    8    0    1
 -2       983      1036      1101      3977      4181      4182
 -1      2122    8    0    1
 -2      1013      1044      1038      4007      4183      3985
 -1      2123    8    0    1
 -2      1031      1041      1102      4002      4184      4185
 -1      2124    8    0    1
 -2      1099      1031      1102      4174      4185      4186
 -1      2125    8    0    1
 -2      1041      1045      1102      4011      4187      4184
 -1      2126    8    0    1
 -2      1051       981      1054      4030      4042      4188
 -1      2127    8    0    1
 -2       984       983      1103      3823      4189      4190
 -1      2128    8    0    1
 -2       984      1103      1056      4190      4191      4047
 -1      2129    8    0    1
 -2       978       980      1104      3811      4192      4193
 -1      2130    8    0    1
 -2       980      1048      1104      4021      4194      4192
 -1      2131    8    0    1
 -2      1032      1037      1105      3981      4195      4196
 -1      2132    8    0    1
 -2       979      1012      1083      4046      4128      4197
 -1      2133    8    0    1
 -2       812       935      1034      3786      4177      4198
 -1      2134    8    0    1
 -2      1039      1032      1106      3988      4199      4200
 -1      2135    8    0    1
 -2      1032      1105      1106      4196      4201      4199
 -1      2136    8    0    1
 -2       965      1039      1054      3987      4202      4043
 -1      2137    8    0    1
 -2       978      1104      1050      4193      4203      4029
 -1      2138    8    0    1
 -2      1084      1014      1100      4130      4179      4204
 -1      2139    8    0    1
 -2      1045       977      1107      4009      4205      4206
 -1      2140    8    0    1
 -2       977      1047      1107      4016      4207      4205
 -1      2141    8    0    1
 -2      1043      1015      1108      3998      4208      4209
 -1      2142    8    0    1
 -2      1015      1084      1108      4131      4210      4208
 -1      2143    8    0    1
 -2       983      1101      1103      4182      4211      4189
 -1      2144    8    0    1
 -2      1041       960       973      4003      3982      3994
 -1      2145    8    0    1
 -2      1036      1053      1109      4037      4212      4213
 -1      2146    8    0    1
 -2      1036      1109      1101      4213      4214      4181
 -1      2147    8    0    1
 -2      1046      1042      1110      4014      4215      4216
 -1      2148    8    0    1
 -2      1038      1044      1052      4183      4034      4217
 -1      2149    8    0    1
 -2      1048      1046      1111      4019      4218      4219
 -1      2150    8    0    1
 -2      1046      1110      1111      4216      4220      4218
 -1      2151    8    0    1
 -2       982      1049      1112      4024      4221      4222
 -1      2152    8    0    1
 -2      1105      1037      1113      4195      4223      4224
 -1      2153    8    0    1
 -2      1037      1050      1113      4028      4225      4223
 -1      2154    8    0    1
 -2      1042       982      1114      3997      4226      4227
 -1      2155    8    0    1
 -2      1110      1042      1114      4215      4227      4228
 -1      2156    8    0    1
 -2       982      1112      1114      4222      4229      4226
 -1      2157    8    0    1
 -2      1052      1051      1115      4032      4230      4231
 -1      2158    8    0    1
 -2      1051      1054      1039      4188      4202      4232
 -1      2159    8    0    1
 -2      1050      1104      1116      4203      4233      4234
 -1      2160    8    0    1
 -2      1050      1116      1113      4234      4235      4225
 -1      2161    8    0    1
 -2      1056      1103      1113      4191      4236      4237
 -1      2162    8    0    1
 -2      1058      1057      1117      4054      4238      4239
 -1      2163    8    0    1
 -2      1059      1058      1111      4057      4240      4241
 -1      2164    8    0    1
 -2      1060      1059      1110      4060      4242      4243
 -1      2165    8    0    1
 -2      1061      1060      1114      4063      4244      4245
 -1      2166    8    0    1
 -2      1062      1061      1112      4066      4246      4247
 -1      2167    8    0    1
 -2      1064      1063      1118      4072      4248      4249
 -1      2168    8    0    1
 -2      1065      1064      1084      4075      4250      4251
 -1      2169    8    0    1
 -2      1066      1065      1100      4078      4252      4253
 -1      2170    8    0    1
 -2      1067      1066      1085      4081      4254      4255
 -1      2171    8    0    1
 -2      1068      1067      1087      4084      4256      4257
 -1      2172    8    0    1
 -2      1069      1068      1086      4087      4258      4259
 -1      2173    8    0    1
 -2      1070      1069      1055      4090      4260      4261
 -1      2174    8    0    1
 -2      1071      1070      1088      4093      4262      4263
 -1      2175    8    0    1
 -2      1072      1071      1089      4096      4264      4265
 -1      2176    8    0    1
 -2      1073      1072      1090      4099      4266      4267
 -1      2177    8    0    1
 -2      1074      1073      1091      4102      4268      4269
 -1      2178    8    0    1
 -2      1075      1074      1092      4105      4270      4271
 -1      2179    8    0    1
 -2      1076      1075      1093      4108      4272      4273
 -1      2180    8    0    1
 -2      1077      1076      1094      4111      4274      4275
 -1      2181    8    0    1
 -2      1078      1077      1095      4114      4276      4277
 -1      2182    8    0    1
 -2      1079      1078      1096      4117      4278      4279
 -1      2183    8    0    1
 -2      1080      1079      1097      4120      4280      4281
 -1      2184    8    0    1
 -2      1081      1080      1098      4123      4282      4283
 -1      2185    8    0    1
 -2      1082      1081      1099      4126      4284      4285
 -1      2186    8    0    1
 -2      1110      1059      1111      4242      4241      4220
 -1      2187    8    0    1
 -2      1055      1088      1070      4143      4262      4261
 -1      2188    8    0    1
 -2      1055      1069      1086      4260      4259      4136
 -1      2189    8    0    1
 -2      1090      1091      1073      4152      4268      4267
 -1      2190    8    0    1
 -2      1091      1092      1074      4155      4270      4269
 -1      2191    8    0    1
 -2      1092      1093      1075      4158      4272      4271
 -1      2192    8    0    1
 -2      1093      1094      1076      4161      4274      4273
 -1      2193    8    0    1
 -2      1094      1095      1077      4164      4276      4275
 -1      2194    8    0    1
 -2      1095      1096      1078      4167      4278      4277
 -1      2195    8    0    1
 -2      1096      1097      1079      4170      4280      4279
 -1      2196    8    0    1
 -2      1097      1098      1080      4173      4282      4281
 -1      2197    8    0    1
 -2      1098      1099      1081      4176      4284      4283
 -1      2198    8    0    1
 -2      1085      1066      1100      4254      4253      4180
 -1      2199    8    0    1
 -2      1086      1068      1087      4258      4257      4140
 -1      2200    8    0    1
 -2      1115      1051      1039      4230      4232      4286
 -1      2201    8    0    1
 -2      1057      1056      1116      4051      4287      4288
 -1      2202    8    0    1
 -2      1090      1072      1089      4266      4265      4149
 -1      2203    8    0    1
 -2      1052      1115      1109      4231      4289      4290
 -1      2204    8    0    1
 -2      1088      1089      1071      4146      4264      4263
 -1      2205    8    0    1
 -2      1112      1049      1119      4221      4291      4292
 -1      2206    8    0    1
 -2      1049      1043      1119      4025      4293      4291
 -1      2207    8    0    1
 -2      1103      1101      1105      4211      4294      4295
 -1      2208    8    0    1
 -2      1103      1105      1113      4295      4224      4236
 -1      2209    8    0    1
 -2      1084      1100      1065      4204      4252      4251
 -1      2210    8    0    1
 -2      1104      1048      1120      4194      4296      4297
 -1      2211    8    0    1
 -2      1116      1104      1120      4233      4297      4298
 -1      2212    8    0    1
 -2      1048      1111      1120      4219      4299      4296
 -1      2213    8    0    1
 -2      1112      1061      1114      4246      4245      4229
 -1      2214    8    0    1
 -2      1060      1110      1114      4243      4228      4244
 -1      2215    8    0    1
 -2      1062      1112      1119      4247      4292      4300
 -1      2216    8    0    1
 -2      1067      1085      1087      4255      4139      4256
 -1      2217    8    0    1
 -2      1105      1101      1106      4294      4301      4201
 -1      2218    8    0    1
 -2      1084      1064      1118      4250      4249      4302
 -1      2219    8    0    1
 -2      1118      1063      1119      4248      4303      4304
 -1      2220    8    0    1
 -2      1063      1062      1119      4069      4300      4303
 -1      2221    8    0    1
 -2      1109      1115      1101      4289      4305      4214
 -1      2222    8    0    1
 -2      1082      1099      1121      4285      4306      4307
 -1      2223    8    0    1
 -2      1083      1082      1121      4129      4307      4308
 -1      2224    8    0    1
 -2      1056      1113      1116      4237      4235      4287
 -1      2225    8    0    1
 -2      1038      1052      1109      4217      4290      4309
 -1      2226    8    0    1
 -2      1047       979      1083      4017      4197      4310
 -1      2227    8    0    1
 -2      1101      1115      1106      4305      4311      4301
 -1      2228    8    0    1
 -2      1102      1045      1107      4187      4206      4312
 -1      2229    8    0    1
 -2      1058      1117      1111      4239      4313      4240
 -1      2230    8    0    1
 -2      1043      1108      1119      4209      4314      4293
 -1      2231    8    0    1
 -2      1115      1039      1106      4286      4200      4311
 -1      2232    8    0    1
 -2      1047      1083      1107      4310      4315      4207
 -1      2233    8    0    1
 -2      1117      1057      1116      4238      4288      4316
 -1      2234    8    0    1
 -2      1084      1118      1108      4302      4317      4210
 -1      2235    8    0    1
 -2      1118      1119      1108      4304      4314      4317
 -1      2236    8    0    1
 -2      1121      1099      1102      4306      4186      4318
 -1      2237    8    0    1
 -2      1083      1121      1107      4308      4319      4315
 -1      2238    8    0    1
 -2      1117      1116      1120      4316      4298      4320
 -1      2239    8    0    1
 -2      1053      1038      1109      4038      4309      4212
 -1      2240    8    0    1
 -2       812      1034       896      4198      3974      3552
 -1      2241    8    0    1
 -2      1111      1117      1120      4313      4320      4299
 -1      2242    8    0    1
 -2      1107      1121      1102      4319      4318      4312
 -3
    1PSTEP                         1           1           1          
  100CL  101 1.000000000        4320                     0    1           1
 -4  DISP        4    1
 -5  D1          1    2    1    0
 -5  D2          1    2    2    0
 -5  D3          1    2    3    0
 -5  ALL         1    2    0    0    1ALL
 -1         1 1.52529E-02-5.37240E-04-1.35514E-13
 -1         2 1.65740E-02 3.13942E-04-1.39190E-13
 -1         3 1.43145E-02 4.78884E-04-1.50156E-13
 -1         4 1.40867E-02-2.93664E-04-1.58324E-13
 -1         5 0.00000E+00 0.00000E+00 0.00000E+00
 -1         6 0.00000E+00 0.00000E+00 0.00000E+00
 -1         7 0.00000E+00 0.00000E+00 0.00000E+00
 -1         8 0.00000E+00 0.00000E+00 0.00000E+00
 -1         9 0.00000E+00 0.00000E+00 0.00000E+00
 -1        10 0.00000E+00 0.00000E+00 0.00000E+00
 -1        11 0.00000E+00 0.00000E+00 0.00000E+00
 -1        12 0.00000E+00 0.00000E+00 0.00000E+00
 -1        13 0.00000E+00 0.00000E+00 0.00000E+00
 -1        14 0.00000E+00 0.00000E+00 0.00000E+00
 -1        15 0.00000E+00 0.00000E+00 0.00000E+00
 -1        16 0.00000E+00 0.00000E+00 0.00000E+00
 -1        17 0.00000E+00 0.00000E+00 0.00000E+00
 -1        18 0.00000E+00 0.00000E+00 0.00000E+00
 -1        19 0.00000E+00 0.00000E+00 0.00000E+00
 -1        20 0.00000E+00 0.00000E+00 0.00000E+00
 -1        21 0.00000E+00 0.00000E+00 0.00000E+00
 -1        22 0.00000E+00 0.00000E+00 0.00000E+00
 -1        23 4.11413E-04-2.60733E-04 3.85434E-17
 -1        24 7.03441E-04-4.00969E-04-8.01293E-17
 -1        25 9.73567E-04-4.98347E-04-3.52190E-16
 -1        26 1.23812E-03-5.67104E-04-7.76431E-16
 -1        27 1.50173E-03-6.16385E-04-1.35024E-15
 -1        28 1.76648E-03-6.51578E-04-2.07266E-15
 -1        29 2.03334E-03-6.76398E-04-2.94284E-15
 -1        30 2.30266E-03-6.93549E-04-3.95867E-15
 -1        31 2.57451E-03-7.05058E-04-5.12021E-15
 -1        32 2.84873E-03-7.12461E-04-6.42399E-15
 -1        33 3.12510E-03-7.16922E-04-7.86546E-15
 -1        34 3.40334E-03-7.19316E-04-9.44036E-15
 -1        35 3.68315E-03-7.20290E-04-1.11535E-14
 -1        36 3.96426E-03-7.20314E-04-1.30017E-14
 -1        37 4.24642E-03-7.19717E-04-1.49861E-14
 -1        38 4.52941E-03-7.18723E-04-1.71081E-14
 -1        39 4.81303E-03-7.17470E-04-1.93663E-14
 -1        40 5.09713E-03-7.16032E-04-2.17589E-14
 -1        41 5.38161E-03-7.14434E-04-2.42802E-14
 -1        42 5.66637E-03-7.12665E-04-2.69312E-14
 -1        43 5.95138E-03-7.10683E-04-2.97182E-14
 -1        44 6.23664E-03-7.08427E-04-3.26390E-14
 -1        45 6.52219E-03-7.05825E-04-3.56954E-14
 -1        46 6.80812E-03-7.02802E-04-3.88992E-14
 -1        47 7.09458E-03-6.99291E-04-4.22367E-14
 -1        48 7.38179E-03-6.95247E-04-4.56957E-14
 -1        49 7.67007E-03-6.90672E-04-4.92716E-14
 -1        50 7.95981E-03-6.85641E-04-5.29680E-14
 -1        51 8.25151E-03-6.80340E-04-5.67879E-14
 -1        52 8.54579E-03-6.75119E-04-6.07201E-14
 -1        53 8.84337E-03-6.70556E-04-6.47609E-14
 -1        54 9.14503E-03-6.67533E-04-6.89139E-14
 -1        55 9.45156E-03-6.67313E-04-7.31791E-14
 -1        56 9.76361E-03-6.71618E-04-7.75539E-14
 -1        57 1.00815E-02-6.82657E-04-8.20376E-14
 -1        58 1.04049E-02-7.03055E-04-8.66164E-14
 -1        59 1.07324E-02-7.35592E-04-9.12904E-14
 -1        60 1.10610E-02-7.82637E-04-9.60459E-14
 -1        61 1.13857E-02-8.45131E-04-1.00877E-13
 -1        62 1.16997E-02-9.21130E-04-1.05799E-13
 -1        63 1.19946E-02-1.00416E-03-1.10816E-13
 -1        64 1.22630E-02-1.08214E-03-1.15908E-13
 -1        65 1.25011E-02-1.13794E-03-1.21085E-13
 -1        66 1.27118E-02-1.15271E-03-1.26338E-13
 -1        67 1.29054E-02-1.11139E-03-1.31655E-13
 -1        68 1.30983E-02-1.00862E-03-1.37008E-13
 -1        69 1.33078E-02-8.52118E-04-1.42392E-13
 -1        70 1.35463E-02-6.62130E-04-1.47778E-13
 -1        71 1.38157E-02-4.65676E-04-1.53180E-13
 -1        72 4.13859E-04 2.61437E-04 8.61534E-17
 -1        73 7.03265E-04 4.03677E-04 5.24178E-17
 -1        74 9.74103E-04 5.00121E-04-1.05398E-16
 -1        75 1.23895E-03 5.68816E-04-3.93958E-16
 -1        76 1.50269E-03 6.18145E-04-8.18512E-16
 -1        77 1.76751E-03 6.53429E-04-1.37903E-15
 -1        78 2.03440E-03 6.78360E-04-2.07712E-15
 -1        79 2.30375E-03 6.95633E-04-2.91070E-15
 -1        80 2.57561E-03 7.07270E-04-3.88021E-15
 -1        81 2.84984E-03 7.14805E-04-4.99023E-15
 -1        82 3.12622E-03 7.19399E-04-6.24554E-15
 -1        83 3.40446E-03 7.21928E-04-7.64408E-15
 -1        84 3.68427E-03 7.23036E-04-9.18467E-15
 -1        85 3.96539E-03 7.23195E-04-1.08669E-14
 -1        86 4.24755E-03 7.22733E-04-1.26914E-14
 -1        87 4.53053E-03 7.21874E-04-1.46578E-14
 -1        88 4.81414E-03 7.20756E-04-1.67619E-14
 -1        89 5.09824E-03 7.19453E-04-1.89992E-14
 -1        90 5.38271E-03 7.17988E-04-2.13693E-14
 -1        91 5.66746E-03 7.16347E-04-2.38680E-14
 -1        92 5.95245E-03 7.14486E-04-2.64940E-14
 -1        93 6.23767E-03 7.12338E-04-2.92431E-14
 -1        94 6.52317E-03 7.09823E-04-3.21171E-14
 -1        95 6.80904E-03 7.06847E-04-3.51063E-14
 -1        96 7.09543E-03 7.03323E-04-3.82237E-14
 -1        97 7.38257E-03 6.99171E-04-4.14662E-14
 -1        98 7.67079E-03 6.94342E-04-4.48327E-14
 -1        99 7.96054E-03 6.88842E-04-4.83192E-14
 -1       100 8.25240E-03 6.82763E-04-5.19288E-14
 -1       101 8.54717E-03 6.76345E-04-5.56605E-14
 -1       102 8.84585E-03 6.70040E-04-5.95066E-14
 -1       103 9.14971E-03 6.64631E-04-6.34560E-14
 -1       104 9.46030E-03 6.61378E-04-6.75008E-14
 -1       105 9.77949E-03 6.62232E-04-7.16634E-14
 -1       106 1.01093E-02 6.70112E-04-7.59592E-14
 -1       107 1.04518E-02 6.89220E-04-8.03813E-14
 -1       108 1.08084E-02 7.25334E-04-8.49172E-14
 -1       109 1.11788E-02 7.85816E-04-8.95651E-14
 -1       110 1.15597E-02 8.78856E-04-9.43052E-14
 -1       111 1.19420E-02 1.01110E-03-9.91221E-14
 -1       112 1.23097E-02 1.18277E-03-1.04019E-13
 -1       113 1.26409E-02 1.38042E-03-1.08988E-13
 -1       114 1.29144E-02 1.57106E-03-1.14034E-13
 -1       115 1.31222E-02 1.70505E-03-1.19151E-13
 -1       116 1.32794E-02 1.73330E-03-1.24316E-13
 -1       117 1.34211E-02 1.63137E-03-1.29521E-13
 -1       118 1.35843E-02 1.41120E-03-1.34747E-13
 -1       119 1.37916E-02 1.11186E-03-1.39976E-13
 -1       120 1.40462E-02 7.82109E-04-1.45201E-13
 -1       121 1.46160E-02 3.91133E-04-1.50685E-13
 -1       122 1.49051E-02 2.77891E-04-1.51204E-13
 -1       123 1.52394E-02 1.28674E-04-1.51756E-13
 -1       124 1.56510E-02-1.72966E-05-1.52314E-13
 -1       125 1.61519E-02-9.22403E-05-1.52906E-13
 -1       126 1.66172E-02-1.95307E-05-1.53477E-13
 -1       127 1.69108E-02 2.13594E-04-1.54052E-13
 -1       128 1.68966E-02 4.82271E-04-1.54535E-13
 -1       129 1.66702E-02 6.69514E-04-1.54924E-13
 -1       130 1.62947E-02 7.62114E-04-1.55307E-13
 -1       131 1.58483E-02 7.35504E-04-1.55678E-13
 -1       132 1.54040E-02 5.98923E-04-1.56039E-13
 -1       133 1.50331E-02 3.97774E-04-1.56383E-13
 -1       134 1.47624E-02 1.93935E-04-1.56746E-13
 -1       135 1.45686E-02 2.36138E-05-1.57125E-13
 -1       136 1.44078E-02-1.10374E-04-1.57532E-13
 -1       137 1.42542E-02-2.10088E-04-1.57934E-13
 -1       138 1.64880E-02 5.76714E-04-1.38653E-13
 -1       139 1.62422E-02 8.08146E-04-1.37623E-13
 -1       140 1.58510E-02 1.02184E-03-1.36054E-13
 -1       141 1.53939E-02 1.19047E-03-1.34183E-13
 -1       142 1.48603E-02 1.32528E-03-1.31905E-13
 -1       143 1.42680E-02 1.41230E-03-1.29286E-13
 -1       144 1.37199E-02 1.43703E-03-1.26805E-13
 -1       145 1.31455E-02 1.40299E-03-1.24147E-13
 -1       146 1.26091E-02 1.30949E-03-1.21636E-13
 -1       147 1.21306E-02 1.16781E-03-1.19401E-13
 -1       148 1.17521E-02 1.00294E-03-1.17645E-13
 -1       149 1.14090E-02 7.86989E-04-1.16084E-13
 -1       150 1.11971E-02 5.77553E-04-1.15182E-13
 -1       151 1.10833E-02 3.63874E-04-1.14798E-13
 -1       152 1.10707E-02 1.66748E-04-1.14934E-13
 -1       153 1.11530E-02-3.25728E-05-1.15576E-13
 -1       154 1.13584E-02-2.40498E-04-1.16877E-13
 -1       155 1.16637E-02-4.18333E-04-1.18652E-13
 -1       156 1.20408E-02-5.60210E-04-1.20734E-13
 -1       157 1.24742E-02-6.64188E-04-1.23028E-13
 -1       158 1.29624E-02-7.30886E-04-1.25512E-13
 -1       159 1.34765E-02-7.55644E-04-1.28014E-13
 -1       160 1.40747E-02-7.33755E-04-1.30765E-13
 -1       161 1.46527E-02-6.65080E-04-1.33205E-13
 -1       162 1.57568E-02-3.76563E-04-1.37222E-13
 -1       163 1.61799E-02-1.72052E-04-1.38462E-13
 -1       164 1.64637E-02 6.22353E-05-1.39114E-13
 -1       165 2.40430E-04-1.25504E-04-2.91244E-17
 -1       166 2.25290E-04-9.45961E-05-4.96700E-17
 -1       167 2.19520E-04-7.27531E-05-6.05527E-17
 -1       168 2.16711E-04-5.50794E-05-6.59601E-17
 -1       169 2.15209E-04-3.99455E-05-6.84369E-17
 -1       170 2.14368E-04-2.59015E-05-6.89586E-17
 -1       171 2.13945E-04-1.26372E-05-6.83522E-17
 -1       172 2.13822E-04 2.72519E-07-6.72002E-17
 -1       173 2.13965E-04 1.31945E-05-6.48590E-17
 -1       174 2.14409E-04 2.64987E-05-6.13760E-17
 -1       175 2.15258E-04 4.03733E-05-5.64802E-17
 -1       176 2.16815E-04 5.58902E-05-4.94396E-17
 -1       177 2.19679E-04 7.37920E-05-3.89737E-17
 -1       178 2.25461E-04 9.59960E-05-2.25785E-17
 -1       179 2.39359E-04 1.27580E-04 3.89635E-18
 -1       180 2.97739E-04 1.85490E-04 3.36475E-17
 -1       181 4.68676E-04-2.63533E-04-8.04580E-17
 -1       182 7.66860E-04-3.82115E-04-3.04447E-16
 -1       183 1.05076E-03-4.64999E-04-6.72358E-16
 -1       184 1.32820E-03-5.23788E-04-1.18561E-15
 -1       185 1.60286E-03-5.65503E-04-1.84377E-15
 -1       186 1.87682E-03-5.94837E-04-2.64634E-15
 -1       187 2.15120E-03-6.15100E-04-3.59314E-15
 -1       188 2.42661E-03-6.28724E-04-4.68254E-15
 -1       189 2.70329E-03-6.37527E-04-5.91319E-15
 -1       190 2.98132E-03-6.42881E-04-7.28234E-15
 -1       191 3.26063E-03-6.45812E-04-8.78704E-15
 -1       192 3.54112E-03-6.47080E-04-1.04261E-14
 -1       193 3.82263E-03-6.47240E-04-1.22019E-14
 -1       194 4.10501E-03-6.46683E-04-1.41117E-14
 -1       195 4.38811E-03-6.45676E-04-1.61579E-14
 -1       196 4.67178E-03-6.44391E-04-1.83394E-14
 -1       197 4.95592E-03-6.42925E-04-2.06561E-14
 -1       198 5.24043E-03-6.41317E-04-2.31040E-14
 -1       199 5.52526E-03-6.39564E-04-2.56811E-14
 -1       200 5.81034E-03-6.37630E-04-2.83894E-14
 -1       201 6.09570E-03-6.35455E-04-3.12331E-14
 -1       202 6.38133E-03-6.32961E-04-3.42113E-14
 -1       203 6.66732E-03-6.30060E-04-3.73310E-14
 -1       204 6.95376E-03-6.26666E-04-4.05877E-14
 -1       205 7.24082E-03-6.22705E-04-4.39717E-14
 -1       206 7.52870E-03-6.18135E-04-4.74754E-14
 -1       207 7.81769E-03-6.12967E-04-5.10977E-14
 -1       208 8.10814E-03-6.07304E-04-5.48430E-14
 -1       209 8.40047E-03-6.01382E-04-5.87056E-14
 -1       210 8.69516E-03-5.95637E-04-6.26826E-14
 -1       211 8.99276E-03-5.90771E-04-6.67673E-14
 -1       212 9.29380E-03-5.87848E-04-7.09605E-14
 -1       213 9.59875E-03-5.88381E-04-7.52654E-14
 -1       214 9.90791E-03-5.94406E-04-7.96737E-14
 -1       215 1.02212E-02-6.08495E-04-8.41844E-14
 -1       216 1.05381E-02-6.33624E-04-8.87947E-14
 -1       217 1.08570E-02-6.72795E-04-9.34926E-14
 -1       218 1.11754E-02-7.28246E-04-9.82700E-14
 -1       219 1.14896E-02-8.00141E-04-1.03133E-13
 -1       220 1.17947E-02-8.84795E-04-1.08087E-13
 -1       221 1.20858E-02-9.72918E-04-1.13126E-13
 -1       222 1.23589E-02-1.04895E-03-1.18244E-13
 -1       223 1.26133E-02-1.09285E-03-1.23439E-13
 -1       224 1.28526E-02-1.08507E-03-1.28707E-13
 -1       225 1.30848E-02-1.01338E-03-1.34024E-13
 -1       226 1.33198E-02-8.78514E-04-1.39381E-13
 -1       227 1.35663E-02-6.95774E-04-1.44757E-13
 -1       228 1.38294E-02-4.92215E-04-1.50145E-13
 -1       229 6.04634E-04 3.31016E-04-2.71186E-17
 -1       230 8.93772E-04 4.32627E-04-2.04111E-16
 -1       231 1.17271E-03 5.04378E-04-5.07034E-16
 -1       232 1.44712E-03 5.55481E-04-9.41264E-16
 -1       233 1.72000E-03 5.91760E-04-1.50945E-15
 -1       234 1.99297E-03 6.17201E-04-2.21304E-15
 -1       235 2.26688E-03 6.34680E-04-3.05295E-15
 -1       236 2.54213E-03 6.46337E-04-4.02801E-15
 -1       237 2.81885E-03 6.53785E-04-5.14141E-15
 -1       238 3.09703E-03 6.58235E-04-6.39608E-15
 -1       239 3.37655E-03 6.60596E-04-7.79363E-15
 -1       240 3.65725E-03 6.61536E-04-9.33168E-15
 -1       241 3.93898E-03 6.61537E-04-1.10110E-14
 -1       242 4.22155E-03 6.60937E-04-1.28313E-14
 -1       243 4.50480E-03 6.59961E-04-1.47905E-14
 -1       244 4.78862E-03 6.58749E-04-1.68870E-14
 -1       245 5.07286E-03 6.57374E-04-1.91186E-14
 -1       246 5.35746E-03 6.55855E-04-2.14819E-14
 -1       247 5.64235E-03 6.54176E-04-2.39727E-14
 -1       248 5.92750E-03 6.52286E-04-2.65941E-14
 -1       249 6.21291E-03 6.50113E-04-2.93391E-14
 -1       250 6.49863E-03 6.47566E-04-3.22086E-14
 -1       251 6.78473E-03 6.44545E-04-3.51947E-14
 -1       252 7.07136E-03 6.40945E-04-3.83063E-14
 -1       253 7.35871E-03 6.36669E-04-4.15461E-14
 -1       254 7.64706E-03 6.31644E-04-4.49070E-14
 -1       255 7.93678E-03 6.25843E-04-4.83900E-14
 -1       256 8.22836E-03 6.19319E-04-5.19932E-14
 -1       257 8.52241E-03 6.12255E-04-5.57199E-14
 -1       258 8.81971E-03 6.05036E-04-5.95597E-14
 -1       259 9.12122E-03 5.98357E-04-6.35076E-14
 -1       260 9.42807E-03 5.93373E-04-6.75587E-14
 -1       261 9.74155E-03 5.91914E-04-7.17223E-14
 -1       262 1.00630E-02 5.96771E-04-7.60091E-14
 -1       263 1.03938E-02 6.12052E-04-8.04166E-14
 -1       264 1.07347E-02 6.43539E-04-8.49362E-14
 -1       265 1.10855E-02 6.98837E-04-8.95636E-14
 -1       266 1.14440E-02 7.86842E-04-9.42872E-14
 -1       267 1.18050E-02 9.15646E-04-9.90904E-14
 -1       268 1.21594E-02 1.08777E-03-1.03978E-13
 -1       269 1.24946E-02 1.29235E-03-1.08940E-13
 -1       270 1.27975E-02 1.49753E-03-1.13979E-13
 -1       271 1.30618E-02 1.65117E-03-1.19086E-13
 -1       272 1.32937E-02 1.69796E-03-1.24243E-13
 -1       273 1.35117E-02 1.60763E-03-1.29438E-13
 -1       274 1.37365E-02 1.39061E-03-1.34657E-13
 -1       275 1.39804E-02 1.08803E-03-1.39887E-13
 -1       276 1.42458E-02 7.51210E-04-1.45114E-13
 -1       277 1.45059E-02 6.21038E-04-1.46432E-13
 -1       278 1.48044E-02 5.11785E-04-1.46969E-13
 -1       279 1.51687E-02 3.95977E-04-1.47506E-13
 -1       280 1.56465E-02 2.91805E-04-1.48059E-13
 -1       281 1.61661E-02 2.38271E-04-1.48594E-13
 -1       282 1.66183E-02 2.58879E-04-1.49128E-13
 -1       283 1.67835E-02 3.31611E-04-1.49597E-13
 -1       284 1.66711E-02 3.98542E-04-1.49983E-13
 -1       285 1.63399E-02 4.32465E-04-1.50367E-13
 -1       286 1.58717E-02 4.08528E-04-1.50747E-13
 -1       287 1.53661E-02 3.21388E-04-1.51142E-13
 -1       288 1.49292E-02 1.88742E-04-1.51536E-13
 -1       289 1.46113E-02 4.27038E-05-1.51919E-13
 -1       290 1.43932E-02-9.36133E-05-1.52294E-13
 -1       291 1.42269E-02-2.16444E-04-1.52686E-13
 -1       292 1.40273E-02-3.61020E-04-1.51420E-13
 -1       293 1.65899E-02 3.76357E-04-1.41352E-13
 -1       294 1.63463E-02 5.22120E-04-1.40112E-13
 -1       295 1.59166E-02 6.88880E-04-1.38808E-13
 -1       296 1.54221E-02 9.34841E-04-1.36534E-13
 -1       297 1.48770E-02 1.16137E-03-1.34236E-13
 -1       298 1.43657E-02 1.38064E-03-1.31256E-13
 -1       299 1.38978E-02 1.50378E-03-1.28221E-13
 -1       300 1.34525E-02 1.52230E-03-1.25174E-13
 -1       301 1.30157E-02 1.41415E-03-1.22043E-13
 -1       302 1.25571E-02 1.20947E-03-1.19347E-13
 -1       303 1.21182E-02 9.78858E-04-1.17104E-13
 -1       304 1.17113E-02 7.27134E-04-1.14949E-13
 -1       305 1.13474E-02 5.31877E-04-1.13764E-13
 -1       306 1.11214E-02 3.65050E-04-1.12753E-13
 -1       307 1.10338E-02 2.49120E-04-1.12883E-13
 -1       308 1.10816E-02 1.36131E-04-1.13189E-13
 -1       309 1.12818E-02 2.03666E-06-1.14185E-13
 -1       310 1.16268E-02-1.65229E-04-1.15780E-13
 -1       311 1.20125E-02-3.83638E-04-1.18366E-13
 -1       312 1.24204E-02-5.80867E-04-1.21004E-13
 -1       313 1.28438E-02-7.39582E-04-1.23767E-13
 -1       314 1.32560E-02-8.31682E-04-1.26724E-13
 -1       315 1.36930E-02-8.35239E-04-1.29879E-13
 -1       316 1.41898E-02-7.25524E-04-1.32887E-13
 -1       317 1.46849E-02-5.16024E-04-1.36078E-13
 -1       318 1.52883E-02-2.84621E-04-1.38203E-13
 -1       319 1.58420E-02-6.49474E-05-1.39821E-13
 -1       320 1.62998E-02 1.24443E-04-1.40932E-13
 -1       321 1.65702E-02 2.65200E-04-1.41351E-13
 -1       322 4.55413E-04-1.64772E-04-2.08150E-16
 -1       323 4.74304E-04-2.12952E-04-1.75248E-16
 -1       324 4.40425E-04-9.39843E-05-2.37122E-16
 -1       325 4.37451E-04-6.48867E-05-2.41282E-16
 -1       326 4.35821E-04-3.78892E-05-2.41398E-16
 -1       327 4.35106E-04-1.20120E-05-2.38602E-16
 -1       328 4.35136E-04 1.35294E-05-2.33215E-16
 -1       329 4.35919E-04 3.94636E-05-2.24576E-16
 -1       330 4.37595E-04 6.61103E-05-2.12632E-16
 -1       331 4.40665E-04 9.53782E-05-1.96159E-16
 -1       332 4.46070E-04 1.28286E-04-1.73442E-16
 -1       333 4.55923E-04 1.67267E-04-1.40960E-16
 -1       334 4.75934E-04 2.17014E-04-9.36412E-17
 -1       335 5.32073E-04 2.69945E-04-6.80777E-17
 -1       336 8.24590E-04 3.73471E-04-2.56736E-16
 -1       337 8.63361E-04-3.57358E-04-5.54468E-16
 -1       338 1.14975E-03-4.26122E-04-1.01169E-15
 -1       339 1.43257E-03-4.75307E-04-1.60981E-15
 -1       340 1.71334E-03-5.10069E-04-2.34878E-15
 -1       341 1.99316E-03-5.34211E-04-3.22859E-15
 -1       342 2.27281E-03-5.50563E-04-4.24916E-15
 -1       343 2.55276E-03-5.61248E-04-5.40834E-15
 -1       344 2.83325E-03-5.67863E-04-6.70534E-15
 -1       345 3.11440E-03-5.71610E-04-8.13875E-15
 -1       346 3.39624E-03-5.73380E-04-9.70646E-15
 -1       347 3.67873E-03-5.73826E-04-1.14089E-14
 -1       348 3.96181E-03-5.73414E-04-1.32467E-14
 -1       349 4.24541E-03-5.72467E-04-1.52186E-14
 -1       350 4.52944E-03-5.71196E-04-1.73249E-14
 -1       351 4.81385E-03-5.69728E-04-1.95655E-14
 -1       352 5.09855E-03-5.68124E-04-2.19384E-14
 -1       353 5.38351E-03-5.66397E-04-2.44417E-14
 -1       354 5.66871E-03-5.64519E-04-2.70741E-14
 -1       355 5.95412E-03-5.62436E-04-2.98411E-14
 -1       356 6.23976E-03-5.60070E-04-3.27417E-14
 -1       357 6.52567E-03-5.57332E-04-3.57790E-14
 -1       358 6.81191E-03-5.54125E-04-3.89564E-14
 -1       359 7.09858E-03-5.50356E-04-4.22641E-14
 -1       360 7.38581E-03-5.45953E-04-4.56947E-14
 -1       361 7.67378E-03-5.40880E-04-4.92454E-14
 -1       362 7.96272E-03-5.35174E-04-5.29167E-14
 -1       363 8.25289E-03-5.28974E-04-5.67105E-14
 -1       364 8.54462E-03-5.22584E-04-6.06166E-14
 -1       365 8.83827E-03-5.16534E-04-6.46346E-14
 -1       366 9.13424E-03-5.11667E-04-6.87606E-14
 -1       367 9.43295E-03-5.09231E-04-7.29948E-14
 -1       368 9.73479E-03-5.10976E-04-7.73342E-14
 -1       369 1.00401E-02-5.19213E-04-8.17773E-14
 -1       370 1.03489E-02-5.36802E-04-8.63176E-14
 -1       371 1.06612E-02-5.66960E-04-9.09539E-14
 -1       372 1.09762E-02-6.12770E-04-9.56796E-14
 -1       373 1.12925E-02-6.76210E-04-1.00485E-13
 -1       374 1.16075E-02-7.56573E-04-1.05378E-13
 -1       375 1.19174E-02-8.48373E-04-1.10359E-13
 -1       376 1.22176E-02-9.39393E-04-1.15422E-13
 -1       377 1.25040E-02-1.01037E-03-1.20566E-13
 -1       378 1.27757E-02-1.03820E-03-1.25781E-13
 -1       379 1.30361E-02-1.00323E-03-1.31059E-13
 -1       380 1.32921E-02-8.97548E-04-1.36386E-13
 -1       381 1.35518E-02-7.29594E-04-1.41745E-13
 -1       382 1.37850E-02-5.49211E-04-1.46578E-13
 -1       383 1.11011E-03 4.47792E-04-5.67017E-16
 -1       384 1.39091E-03 5.00866E-04-1.00563E-15
 -1       385 1.66927E-03 5.38503E-04-1.57604E-15
 -1       386 1.94673E-03 5.64829E-04-2.28007E-15
 -1       387 2.22422E-03 5.82858E-04-3.11934E-15
 -1       388 2.50228E-03 5.94833E-04-4.09359E-15
 -1       389 2.78117E-03 6.02440E-04-5.20436E-15
 -1       390 3.06100E-03 6.06949E-04-6.45446E-15
 -1       391 3.34176E-03 6.09304E-04-7.84601E-15
 -1       392 3.62339E-03 6.10202E-04-9.37678E-15
 -1       393 3.90580E-03 6.10144E-04-1.10482E-14
 -1       394 4.18886E-03 6.09480E-04-1.28591E-14
 -1       395 4.47248E-03 6.08444E-04-1.48097E-14
 -1       396 4.75656E-03 6.07180E-04-1.68959E-14
 -1       397 5.04101E-03 6.05763E-04-1.91182E-14
 -1       398 5.32578E-03 6.04216E-04-2.14704E-14
 -1       399 5.61080E-03 6.02519E-04-2.39519E-14
 -1       400 5.89607E-03 6.00622E-04-2.65639E-14
 -1       401 6.18159E-03 5.98449E-04-2.93012E-14
 -1       402 6.46739E-03 5.95906E-04-3.21620E-14
 -1       403 6.75355E-03 5.92886E-04-3.51421E-14
 -1       404 7.04017E-03 5.89275E-04-3.82452E-14
 -1       405 7.32742E-03 5.84966E-04-4.14754E-14
 -1       406 7.61551E-03 5.79870E-04-4.48272E-14
 -1       407 7.90474E-03 5.73938E-04-4.83037E-14
 -1       408 8.19547E-03 5.67193E-04-5.18987E-14
 -1       409 8.48818E-03 5.59778E-04-5.56174E-14
 -1       410 8.78344E-03 5.52026E-04-5.94508E-14
 -1       411 9.08194E-03 5.44558E-04-6.33936E-14
 -1       412 9.38450E-03 5.38428E-04-6.74413E-14
 -1       413 9.69204E-03 5.35335E-04-7.16004E-14
 -1       414 1.00055E-02 5.37892E-04-7.58759E-14
 -1       415 1.03260E-02 5.49987E-04-8.02702E-14
 -1       416 1.06544E-02 5.77156E-04-8.47738E-14
 -1       417 1.09911E-02 6.26829E-04-8.93838E-14
 -1       418 1.13359E-02 7.08039E-04-9.40893E-14
 -1       419 1.16873E-02 8.29814E-04-9.88800E-14
 -1       420 1.20408E-02 9.97072E-04-1.03757E-13
 -1       421 1.23885E-02 1.20308E-03-1.08711E-13
 -1       422 1.27190E-02 1.41974E-03-1.13737E-13
 -1       423 1.30226E-02 1.59444E-03-1.18835E-13
 -1       424 1.32996E-02 1.66403E-03-1.23986E-13
 -1       425 1.35630E-02 1.58941E-03-1.29178E-13
 -1       426 1.38287E-02 1.37864E-03-1.34393E-13
 -1       427 1.41033E-02 1.07595E-03-1.39623E-13
 -1       428 1.43022E-02 8.51041E-04-1.43031E-13
 -1       429 1.50935E-02 6.39350E-04-1.43232E-13
 -1       430 1.46944E-02 7.65737E-04-1.42709E-13
 -1       431 1.44837E-02 8.13634E-04-1.42869E-13
 -1       432 1.56044E-02 5.05360E-04-1.43738E-13
 -1       433 1.66274E-02 3.29248E-04-1.45704E-13
 -1       434 1.66599E-02 3.33962E-04-1.46081E-13
 -1       435 1.64012E-02 3.24219E-04-1.46461E-13
 -1       436 1.59236E-02 2.65612E-04-1.46851E-13
 -1       437 1.53802E-02 1.59787E-04-1.47246E-13
 -1       438 1.48842E-02 2.56357E-05-1.47663E-13
 -1       439 1.45214E-02-1.03792E-04-1.48066E-13
 -1       440 1.42757E-02-2.18907E-04-1.48450E-13
 -1       441 1.40973E-02-3.24907E-04-1.48837E-13
 -1       442 1.61374E-02 4.67078E-04-1.42089E-13
 -1       443 1.55502E-02 7.13805E-04-1.39205E-13
 -1       444 1.50546E-02 9.43915E-04-1.36975E-13
 -1       445 4.45682E-04-1.26381E-04-2.27039E-16
 -1       446 1.40068E-02 1.46962E-03-1.30155E-13
 -1       447 1.36741E-02 1.55946E-03-1.27106E-13
 -1       448 1.32593E-02 1.52025E-03-1.23047E-13
 -1       449 1.28246E-02 1.30600E-03-1.19325E-13
 -1       450 1.24075E-02 1.04944E-03-1.16703E-13
 -1       451 1.20049E-02 7.95232E-04-1.14379E-13
 -1       452 1.15374E-02 5.22959E-04-1.11979E-13
 -1       453 1.12584E-02 3.84662E-04-1.10978E-13
 -1       454 1.10408E-02 2.68491E-04-1.10692E-13
 -1       455 1.10207E-02 2.01176E-04-1.10782E-13
 -1       456 1.11556E-02 1.14608E-04-1.11656E-13
 -1       457 1.14420E-02-1.26609E-05-1.12962E-13
 -1       458 1.18967E-02-2.38789E-04-1.15710E-13
 -1       459 1.22955E-02-4.59676E-04-1.18568E-13
 -1       460 1.26760E-02-6.61399E-04-1.21507E-13
 -1       461 1.30668E-02-8.23614E-04-1.24935E-13
 -1       462 1.34256E-02-8.79554E-04-1.28437E-13
 -1       463 1.38599E-02-7.95436E-04-1.32463E-13
 -1       464 1.42565E-02-6.16149E-04-1.35656E-13
 -1       465 1.48955E-02-2.93563E-04-1.39209E-13
 -1       466 1.54820E-02-4.55135E-05-1.41180E-13
 -1       467 1.60338E-02 1.59942E-04-1.42874E-13
 -1       468 1.44645E-02 1.24623E-03-1.33696E-13
 -1       469 1.61294E-02 3.83224E-04-1.44820E-13
 -1       470 1.39365E-02-4.41758E-04-1.47709E-13
 -1       471 1.63391E-02 2.50694E-04-1.43699E-13
 -1       472 1.64854E-02 3.72002E-04-1.43557E-13
 -1       473 1.44927E-02-4.25393E-04-1.38779E-13
 -1       474 1.16545E-02-1.02782E-04-1.12886E-13
 -1       475 9.31333E-04 3.45988E-04-5.01447E-16
 -1       476 6.65786E-04-7.51104E-05-5.16487E-16
 -1       477 6.69767E-04-1.15861E-04-5.12760E-16
 -1       478 6.63100E-04 1.10424E-06-5.05516E-16
 -1       479 6.63824E-04 3.87534E-05-4.91899E-16
 -1       480 6.65973E-04 7.67956E-05-4.72695E-16
 -1       481 6.70081E-04 1.17698E-04-4.46427E-16
 -1       482 6.77109E-04 1.62309E-04-4.11326E-16
 -1       483 6.89048E-04 2.12671E-04-3.64078E-16
 -1       484 1.21724E-03 4.06479E-04-9.04018E-16
 -1       485 9.76366E-04-3.28578E-04-8.31959E-16
 -1       486 1.52480E-02 7.40457E-04-1.39988E-13
 -1       487 1.53704E-02 7.89669E-06-1.43053E-13
 -1       488 1.26230E-03-3.83470E-04-1.37284E-15
 -1       489 1.54734E-03-4.23237E-04-2.05075E-15
 -1       490 1.83149E-03-4.51327E-04-2.86648E-15
 -1       491 2.11506E-03-4.70645E-04-3.81982E-15
 -1       492 2.39836E-03-4.83490E-04-4.90996E-15
 -1       493 2.68163E-03-4.91636E-04-6.13581E-15
 -1       494 2.96505E-03-4.96438E-04-7.49685E-15
 -1       495 3.24869E-03-4.98912E-04-8.99328E-15
 -1       496 3.53260E-03-4.99811E-04-1.06243E-14
 -1       497 3.81678E-03-4.99678E-04-1.23896E-14
 -1       498 4.10123E-03-4.98895E-04-1.42887E-14
 -1       499 4.38591E-03-4.97719E-04-1.63206E-14
 -1       500 4.67080E-03-4.96311E-04-1.84859E-14
 -1       501 4.95587E-03-4.94759E-04-2.07850E-14
 -1       502 5.24110E-03-4.93093E-04-2.32145E-14
 -1       503 5.52647E-03-4.91304E-04-2.57724E-14
 -1       504 5.81198E-03-4.89346E-04-2.84637E-14
 -1       505 6.09763E-03-4.87152E-04-3.12895E-14
 -1       506 6.38343E-03-4.84633E-04-3.42480E-14
 -1       507 6.66942E-03-4.81692E-04-3.73448E-14
 -1       508 6.95565E-03-4.78229E-04-4.05729E-14
 -1       509 7.24217E-03-4.74152E-04-4.39293E-14
 -1       510 7.52909E-03-4.69396E-04-4.74084E-14
 -1       511 7.81651E-03-4.63941E-04-5.10083E-14
 -1       512 8.10459E-03-4.57850E-04-5.47286E-14
 -1       513 8.39351E-03-4.51306E-04-5.85667E-14
 -1       514 8.68350E-03-4.44670E-04-6.25169E-14
 -1       515 8.97485E-03-4.38557E-04-6.65774E-14
 -1       516 9.26792E-03-4.33912E-04-7.07452E-14
 -1       517 9.56315E-03-4.32113E-04-7.50174E-14
 -1       518 9.86112E-03-4.35057E-04-7.93880E-14
 -1       519 1.01625E-02-4.45219E-04-8.38631E-14
 -1       520 1.04682E-02-4.65635E-04-8.84337E-14
 -1       521 1.07789E-02-4.99715E-04-9.31009E-14
 -1       522 1.10953E-02-5.50746E-04-9.78527E-14
 -1       523 1.14170E-02-6.20842E-04-1.02687E-13
 -1       524 1.17421E-02-7.09068E-04-1.07607E-13
 -1       525 1.20660E-02-8.08627E-04-1.12614E-13
 -1       526 1.23820E-02-9.03978E-04-1.17705E-13
 -1       527 1.26840E-02-9.70401E-04-1.22869E-13
 -1       528 1.29706E-02-9.79674E-04-1.28105E-13
 -1       529 1.32465E-02-9.11828E-04-1.33400E-13
 -1       530 1.35203E-02-7.66334E-04-1.38735E-13
 -1       531 1.41081E-02-4.10598E-04-1.43602E-13
 -1       532 1.78416E-03 4.81086E-04-2.09501E-15
 -1       533 2.06619E-03 5.02484E-04-2.88816E-15
 -1       534 2.34797E-03 5.16870E-04-3.81481E-15
 -1       535 2.62985E-03 5.26162E-04-4.87479E-15
 -1       536 2.91203E-03 5.31814E-04-6.07188E-15
 -1       537 3.19462E-03 5.34919E-04-7.40824E-15
 -1       538 3.47765E-03 5.36287E-04-8.88296E-15
 -1       539 3.76111E-03 5.36506E-04-1.04955E-14
 -1       540 4.04497E-03 5.35993E-04-1.22476E-14
 -1       541 4.32918E-03 5.35032E-04-1.41390E-14
 -1       542 4.61370E-03 5.33804E-04-1.61673E-14
 -1       543 4.89848E-03 5.32411E-04-1.83311E-14
 -1       544 5.18349E-03 5.30898E-04-2.06248E-14
 -1       545 5.46869E-03 5.29259E-04-2.30487E-14
 -1       546 5.75407E-03 5.27456E-04-2.56045E-14
 -1       547 6.03963E-03 5.25421E-04-2.82870E-14
 -1       548 6.32539E-03 5.23065E-04-3.10940E-14
 -1       549 6.61138E-03 5.20281E-04-3.40232E-14
 -1       550 6.89767E-03 5.16953E-04-3.70738E-14
 -1       551 7.18435E-03 5.12963E-04-4.02494E-14
 -1       552 7.47153E-03 5.08202E-04-4.35488E-14
 -1       553 7.75936E-03 5.02590E-04-4.69721E-14
 -1       554 8.04804E-03 4.96095E-04-5.05162E-14
 -1       555 8.33780E-03 4.88779E-04-5.41828E-14
 -1       556 8.62894E-03 4.80846E-04-5.79700E-14
 -1       557 8.92178E-03 4.72723E-04-6.18655E-14
 -1       558 9.21672E-03 4.65174E-04-6.58709E-14
 -1       559 9.51422E-03 4.59458E-04-6.99844E-14
 -1       560 9.81484E-03 4.57543E-04-7.42095E-14
 -1       561 1.01193E-02 4.62385E-04-7.85466E-14
 -1       562 1.04286E-02 4.78272E-04-8.29952E-14
 -1       563 1.07442E-02 5.11174E-04-8.75484E-14
 -1       564 1.10683E-02 5.68968E-04-9.21989E-14
 -1       565 1.14039E-02 6.61204E-04-9.69445E-14
 -1       566 1.17537E-02 7.97568E-04-1.01778E-13
 -1       567 1.21183E-02 9.83410E-04-1.06691E-13
 -1       568 1.24903E-02 1.20986E-03-1.11677E-13
 -1       569 1.28545E-02 1.43786E-03-1.16734E-13
 -1       570 1.31966E-02 1.59385E-03-1.21861E-13
 -1       571 1.35185E-02 1.60258E-03-1.27035E-13
 -1       572 1.38376E-02 1.44291E-03-1.32246E-13
 -1       573 1.41623E-02 1.16188E-03-1.37473E-13
 -1       574 1.45715E-02 9.83644E-04-1.38796E-13
 -1       575 1.57735E-02 5.18256E-04-1.42489E-13
 -1       576 1.43774E-02-3.11973E-04-1.43197E-13
 -1       577 1.47872E-02-1.66995E-04-1.43133E-13
 -1       578 1.39201E-02-4.93780E-04-1.43992E-13
 -1       579 1.50138E-03 4.50167E-04-1.43429E-15
 -1       580 1.41537E-02 1.35120E-03-1.32746E-13
 -1       581 7.12691E-04-2.51688E-04-4.67749E-16
 -1       582 1.35686E-02-8.60315E-04-1.31035E-13
 -1       583 1.17835E-02 6.22412E-04-1.11235E-13
 -1       584 6.63713E-04-3.65094E-05-5.13858E-16
 -1       585 1.30128E-02 1.42997E-03-1.19938E-13
 -1       586 1.37795E-02 1.53401E-03-1.28807E-13
 -1       587 1.09829E-02 2.18737E-04-1.07924E-13
 -1       588 1.47033E-02 1.03439E-03-1.36796E-13
 -1       589 1.25928E-02 1.15011E-03-1.16302E-13
 -1       590 1.22248E-02 8.96192E-04-1.13661E-13
 -1       591 1.13704E-02 4.05623E-04-1.08948E-13
 -1       592 1.11004E-02 2.87619E-04-1.08206E-13
 -1       593 1.10453E-02 1.64444E-04-1.09026E-13
 -1       594 1.12460E-02 7.83550E-05-1.09926E-13
 -1       595 1.21116E-02-3.49387E-04-1.15589E-13
 -1       596 1.24832E-02-5.64913E-04-1.18794E-13
 -1       597 1.28218E-02-7.46167E-04-1.22195E-13
 -1       598 1.31900E-02-8.80929E-04-1.26564E-13
 -1       599 1.39645E-02-7.04318E-04-1.35014E-13
 -1       600 1.34558E-02 1.58115E-03-1.25102E-13
 -1       601 7.03875E-04 2.90855E-04-2.56068E-16
 -1       602 6.76583E-04-1.60085E-04-5.00769E-16
 -1       603 1.41864E-02-5.42259E-04-1.38129E-13
 -1       604 1.14066E-02-1.46044E-06-1.09844E-13
 -1       605 1.18491E-02-2.22417E-04-1.12766E-13
 -1       606 1.32812E-02 1.55872E-03-1.22977E-13
 -1       607 8.99702E-04 7.40964E-05-8.36787E-16
 -1       608 8.97604E-04 2.51731E-05-8.62632E-16
 -1       609 9.11811E-04 1.78197E-04-7.55719E-16
 -1       610 9.24213E-04 2.36756E-04-6.95052E-16
 -1       611 1.04893E-03 3.13884E-04-7.83363E-16
 -1       612 1.43908E-02 1.14916E-03-1.36176E-13
 -1       613 1.36646E-02-7.05554E-04-1.38361E-13
 -1       614 1.38333E-03-3.37031E-04-1.75546E-15
 -1       615 1.66953E-03-3.67968E-04-2.50838E-15
 -1       616 1.95575E-03-3.89784E-04-3.39603E-15
 -1       617 2.24179E-03-4.04637E-04-4.41855E-15
 -1       618 2.52765E-03-4.14322E-04-5.57529E-15
 -1       619 2.81336E-03-4.20263E-04-6.86529E-15
 -1       620 3.09898E-03-4.23558E-04-8.28909E-15
 -1       621 3.38455E-03-4.25035E-04-9.84843E-15
 -1       622 3.67010E-03-4.25301E-04-1.15423E-14
 -1       623 3.95565E-03-4.24791E-04-1.33680E-14
 -1       624 4.24121E-03-4.23805E-04-1.53265E-14
 -1       625 4.52679E-03-4.22538E-04-1.74180E-14
 -1       626 4.81239E-03-4.21104E-04-1.96421E-14
 -1       627 5.09802E-03-4.19558E-04-2.19983E-14
 -1       628 5.38367E-03-4.17906E-04-2.44842E-14
 -1       629 5.66935E-03-4.16122E-04-2.71006E-14
 -1       630 5.95506E-03-4.14148E-04-2.98524E-14
 -1       631 6.24080E-03-4.11907E-04-3.27363E-14
 -1       632 6.52658E-03-4.09308E-04-3.57523E-14
 -1       633 6.81241E-03-4.06254E-04-3.89022E-14
 -1       634 7.09831E-03-4.02644E-04-4.21815E-14
 -1       635 7.38428E-03-3.98396E-04-4.55866E-14
 -1       636 7.67036E-03-3.93453E-04-4.91149E-14
 -1       637 7.95660E-03-3.87814E-04-5.27631E-14
 -1       638 8.24306E-03-3.81561E-04-5.65319E-14
 -1       639 8.52984E-03-3.74907E-04-6.04139E-14
 -1       640 8.81712E-03-3.68244E-04-6.44106E-14
 -1       641 9.10515E-03-3.62216E-04-6.85140E-14
 -1       642 9.39433E-03-3.57797E-04-7.27190E-14
 -1       643 9.68531E-03-3.56380E-04-7.70194E-14
 -1       644 9.97901E-03-3.59869E-04-8.14270E-14
 -1       645 1.02768E-02-3.70764E-04-8.59342E-14
 -1       646 1.05805E-02-3.92210E-04-9.05388E-14
 -1       647 1.08924E-02-4.27951E-04-9.52357E-14
 -1       648 1.12144E-02-4.82016E-04-1.00012E-13
 -1       649 1.15476E-02-5.57740E-04-1.04875E-13
 -1       650 1.18899E-02-6.55342E-04-1.09826E-13
 -1       651 1.22346E-02-7.67175E-04-1.14859E-13
 -1       652 1.25712E-02-8.72500E-04-1.19973E-13
 -1       653 1.28896E-02-9.35502E-04-1.25164E-13
 -1       654 1.31910E-02-9.19764E-04-1.30423E-13
 -1       655 1.34254E-02-8.39678E-04-1.34379E-13
 -1       656 1.90576E-03 4.20717E-04-2.64229E-15
 -1       657 2.76023E-03 4.55577E-04-5.67882E-15
 -1       658 3.04492E-03 4.59602E-04-6.96092E-15
 -1       659 3.32967E-03 4.61599E-04-8.38037E-15
 -1       660 3.61452E-03 4.62237E-04-9.93660E-15
 -1       661 3.89949E-03 4.61996E-04-1.16312E-14
 -1       662 4.18457E-03 4.61210E-04-1.34632E-14
 -1       663 4.46977E-03 4.60099E-04-1.54335E-14
 -1       664 4.75507E-03 4.58797E-04-1.75381E-14
 -1       665 5.04046E-03 4.57370E-04-1.97758E-14
 -1       666 5.32595E-03 4.55834E-04-2.21438E-14
 -1       667 5.61151E-03 4.54166E-04-2.46418E-14
 -1       668 5.89715E-03 4.52312E-04-2.72690E-14
 -1       669 6.18288E-03 4.50192E-04-3.00222E-14
 -1       670 6.46872E-03 4.47711E-04-3.28980E-14
 -1       671 6.75467E-03 4.44757E-04-3.58962E-14
 -1       672 7.04077E-03 4.41216E-04-3.90178E-14
 -1       673 7.32706E-03 4.36974E-04-4.22669E-14
 -1       674 7.61357E-03 4.31936E-04-4.56383E-14
 -1       675 7.90036E-03 4.26044E-04-4.91311E-14
 -1       676 8.18748E-03 4.19305E-04-5.27458E-14
 -1       677 8.47499E-03 4.11835E-04-5.64812E-14
 -1       678 8.76295E-03 4.03920E-04-6.03325E-14
 -1       679 9.05142E-03 3.96090E-04-6.42918E-14
 -1       680 9.34048E-03 3.89241E-04-6.83603E-14
 -1       681 9.63027E-03 3.84769E-04-7.25379E-14
 -1       682 9.92112E-03 3.84762E-04-7.68259E-14
 -1       683 1.02137E-02 3.92225E-04-8.12221E-14
 -1       684 1.05094E-02 4.11353E-04-8.57216E-14
 -1       685 1.08111E-02 4.47884E-04-9.03180E-14
 -1       686 1.11235E-02 5.09561E-04-9.50126E-14
 -1       687 1.14542E-02 6.06746E-04-9.98043E-14
 -1       688 1.18112E-02 7.52178E-04-1.04679E-13
 -1       689 1.22012E-02 9.57360E-04-1.09620E-13
 -1       690 1.37916E-02 1.50741E-03-1.30023E-13
 -1       691 1.39241E-02-6.05872E-04-1.38757E-13
 -1       692 1.35937E-02 1.57881E-03-1.27274E-13
 -1       693 1.62040E-03 3.96205E-04-1.89371E-15
 -1       694 1.29144E-02-8.27870E-04-1.23342E-13
 -1       695 8.72373E-04-2.47115E-04-7.46067E-16
 -1       696 1.10646E-02 1.23371E-04-1.06742E-13
 -1       697 1.09719E-02 2.33006E-04-1.05267E-13
 -1       698 1.11541E-02 3.13333E-04-1.05545E-13
 -1       699 2.47555E-03 4.48619E-04-4.53359E-15
 -1       700 2.19076E-03 4.37523E-04-3.52226E-15
 -1       701 1.12695E-03-2.97077E-04-1.19731E-15
 -1       702 1.33468E-03 3.61520E-04-1.27490E-15
 -1       703 1.15525E-02 4.96989E-04-1.07835E-13
 -1       704 9.04168E-04 1.24592E-04-8.01734E-16
 -1       705 1.27402E-02 1.28443E-03-1.16398E-13
 -1       706 1.09442E-02 1.77571E-04-1.05653E-13
 -1       707 1.22433E-02-4.80012E-04-1.15513E-13
 -1       708 9.03793E-04-1.22181E-04-8.89371E-16
 -1       709 1.23703E-02 1.01689E-03-1.12954E-13
 -1       710 1.19526E-02 7.30571E-04-1.09949E-13
 -1       711 1.26426E-02-6.98156E-04-1.19925E-13
 -1       712 1.33399E-02-8.90847E-04-1.29501E-13
 -1       713 1.37127E-02-7.78916E-04-1.34150E-13
 -1       714 8.97542E-04-2.31520E-05-8.80135E-16
 -1       715 1.12837E-02 3.85753E-04-1.04437E-13
 -1       716 9.11209E-04-1.75559E-04-8.78573E-16
 -1       717 1.34757E-02 1.60107E-03-1.25898E-13
 -1       718 1.26208E-02 1.22505E-03-1.14598E-13
 -1       719 1.41714E-02 1.24963E-03-1.35252E-13
 -1       720 1.11730E-02 6.29708E-05-1.06658E-13
 -1       721 1.30789E-02-8.96965E-04-1.26249E-13
 -1       722 1.19919E-02-3.63969E-04-1.12690E-13
 -1       723 1.15749E-02-1.12139E-04-1.09718E-13
 -1       724 8.99495E-04-7.18107E-05-8.89154E-16
 -1       725 1.16152E-03 2.43595E-04-1.13543E-15
 -1       726 1.51019E-03-2.86515E-04-2.15807E-15
 -1       727 3.46638E-03 3.87234E-04-9.37239E-15
 -1       728 1.79727E-03-3.09499E-04-2.98114E-15
 -1       729 2.08492E-03-3.25618E-04-3.93640E-15
 -1       730 2.37271E-03-3.36450E-04-5.02442E-15
 -1       731 2.66039E-03-3.43351E-04-6.24515E-15
 -1       732 2.94787E-03-3.47414E-04-7.59774E-15
 -1       733 3.23512E-03-3.49488E-04-9.08447E-15
 -1       734 3.52213E-03-3.50213E-04-1.07054E-14
 -1       735 3.80891E-03-3.50055E-04-1.24591E-14
 -1       736 4.09550E-03-3.49341E-04-1.43443E-14
 -1       737 4.38191E-03-3.48294E-04-1.63621E-14
 -1       738 4.66817E-03-3.47052E-04-1.85129E-14
 -1       739 4.95431E-03-3.45690E-04-2.07944E-14
 -1       740 5.24035E-03-3.44235E-04-2.32083E-14
 -1       741 5.52629E-03-3.42676E-04-2.57518E-14
 -1       742 5.81214E-03-3.40972E-04-2.84286E-14
 -1       743 6.09791E-03-3.39063E-04-3.12380E-14
 -1       744 6.38357E-03-3.36870E-04-3.41789E-14
 -1       745 6.66913E-03-3.34303E-04-3.72510E-14
 -1       746 6.95454E-03-3.31270E-04-4.04533E-14
 -1       747 7.23978E-03-3.27678E-04-4.37828E-14
 -1       748 7.52481E-03-3.23453E-04-4.72384E-14
 -1       749 7.80958E-03-3.18549E-04-5.08161E-14
 -1       750 8.09406E-03-3.12974E-04-5.45115E-14
 -1       751 8.37823E-03-3.06815E-04-5.83268E-14
 -1       752 8.66213E-03-3.00280E-04-6.22571E-14
 -1       753 8.94587E-03-2.93742E-04-6.62962E-14
 -1       754 9.22972E-03-2.87795E-04-7.04387E-14
 -1       755 9.51419E-03-2.83325E-04-7.46765E-14
 -1       756 9.80013E-03-2.81597E-04-7.90133E-14
 -1       757 1.00890E-02-2.84358E-04-8.34569E-14
 -1       758 1.03828E-02-2.93998E-04-8.79991E-14
 -1       759 1.06847E-02-3.13773E-04-9.26358E-14
 -1       760 1.09986E-02-3.48097E-04-9.73548E-14
 -1       761 1.13286E-02-4.02744E-04-1.02158E-13
 -1       762 1.16775E-02-4.84118E-04-1.07053E-13
 -1       763 1.20431E-02-5.96010E-04-1.12035E-13
 -1       764 1.24154E-02-7.30180E-04-1.17096E-13
 -1       765 3.17998E-03 3.86089E-04-7.87160E-15
 -1       766 2.89342E-03 3.83402E-04-6.50700E-15
 -1       767 3.75264E-03 3.87361E-04-1.10097E-14
 -1       768 4.03879E-03 3.86845E-04-1.27849E-14
 -1       769 4.32484E-03 3.85938E-04-1.46954E-14
 -1       770 4.61082E-03 3.84802E-04-1.67425E-14
 -1       771 4.89674E-03 3.83528E-04-1.89224E-14
 -1       772 5.18261E-03 3.82152E-04-2.12349E-14
 -1       773 5.46844E-03 3.80671E-04-2.36763E-14
 -1       774 5.75424E-03 3.79045E-04-2.62468E-14
 -1       775 6.04001E-03 3.77214E-04-2.89449E-14
 -1       776 6.32575E-03 3.75094E-04-3.17676E-14
 -1       777 6.61145E-03 3.72591E-04-3.47131E-14
 -1       778 6.89709E-03 3.69598E-04-3.77820E-14
 -1       779 7.18265E-03 3.66013E-04-4.09770E-14
 -1       780 7.46808E-03 3.61739E-04-4.42982E-14
 -1       781 7.75334E-03 3.56710E-04-4.77420E-14
 -1       782 8.03835E-03 3.50904E-04-5.13061E-14
 -1       783 8.32299E-03 3.44385E-04-5.49910E-14
 -1       784 8.60712E-03 3.37336E-04-5.87928E-14
 -1       785 8.89056E-03 3.30124E-04-6.27079E-14
 -1       786 9.17309E-03 3.23369E-04-6.67300E-14
 -1       787 9.45448E-03 3.18035E-04-7.08637E-14
 -1       788 9.73460E-03 3.15526E-04-7.51037E-14
 -1       789 1.00135E-02 3.17802E-04-7.94498E-14
 -1       790 1.02919E-02 3.27500E-04-8.39006E-14
 -1       791 1.05715E-02 3.48116E-04-8.84466E-14
 -1       792 1.08561E-02 3.84431E-04-9.30913E-14
 -1       793 1.11528E-02 4.43522E-04-9.78345E-14
 -1       794 1.14734E-02 5.37302E-04-1.02668E-13
 -1       795 1.09679E-02 2.52552E-04-1.02621E-13
 -1       796 1.74569E-03 3.39087E-04-2.38469E-15
 -1       797 2.03273E-03 3.57678E-04-3.21840E-15
 -1       798 1.34895E-02-8.39085E-04-1.33073E-13
 -1       799 2.31977E-03 3.70289E-04-4.18258E-15
 -1       800 2.60668E-03 3.78453E-04-5.27755E-15
 -1       801 1.09138E-02 1.32806E-04-1.03265E-13
 -1       802 1.08640E-02 1.89089E-04-1.02680E-13
 -1       803 1.23826E-02-6.41309E-04-1.16597E-13
 -1       804 1.24623E-03 3.00817E-04-1.21089E-15
 -1       805 1.27478E-02-8.02083E-04-1.21386E-13
 -1       806 1.16525E-02 5.87660E-04-1.05944E-13
 -1       807 1.13817E-03 5.90468E-05-1.30424E-15
 -1       808 1.10514E-02 3.05985E-04-1.01524E-13
 -1       809 1.14976E-03 1.79089E-04-1.20644E-15
 -1       810 1.49561E-03 3.24127E-04-1.74654E-15
 -1       811 1.13062E-02-2.71704E-05-1.06531E-13
 -1       812 1.17205E-02-2.49806E-04-1.09641E-13
 -1       813 1.09764E-02 8.65240E-05-1.03183E-13
 -1       814 1.25388E-03-2.56199E-04-1.53441E-15
 -1       815 1.13680E-03 1.19559E-06-1.33483E-15
 -1       816 1.14231E-03 1.17920E-04-1.26194E-15
 -1       817 1.14919E-03-1.76107E-04-1.35641E-15
 -1       818 1.14197E-03-1.15177E-04-1.36182E-15
 -1       819 2.74108E-03 3.06620E-04-6.04697E-15
 -1       820 1.92945E-03-2.47789E-04-3.46723E-15
 -1       821 2.21823E-03-2.58916E-04-4.48687E-15
 -1       822 2.50727E-03-2.66263E-04-5.63740E-15
 -1       823 2.79626E-03-2.70806E-04-6.92006E-15
 -1       824 3.08500E-03-2.73338E-04-8.33505E-15
 -1       825 3.37339E-03-2.74474E-04-9.88354E-15
 -1       826 3.66141E-03-2.74677E-04-1.15636E-14
 -1       827 3.94906E-03-2.74279E-04-1.33759E-14
 -1       828 4.23637E-03-2.73511E-04-1.53203E-14
 -1       829 4.52337E-03-2.72524E-04-1.73977E-14
 -1       830 4.81010E-03-2.71408E-04-1.96051E-14
 -1       831 5.09659E-03-2.70205E-04-2.19442E-14
 -1       832 5.38287E-03-2.68921E-04-2.44165E-14
 -1       833 5.66895E-03-2.67533E-04-2.70201E-14
 -1       834 5.95483E-03-2.65997E-04-2.97552E-14
 -1       835 6.24050E-03-2.64253E-04-3.26220E-14
 -1       836 6.52592E-03-2.62227E-04-3.56183E-14
 -1       837 6.81105E-03-2.59839E-04-3.87453E-14
 -1       838 7.09581E-03-2.57002E-04-4.19975E-14
 -1       839 7.38012E-03-2.53637E-04-4.53769E-14
 -1       840 7.66386E-03-2.49676E-04-4.88826E-14
 -1       841 7.94692E-03-2.45077E-04-5.25100E-14
 -1       842 8.22918E-03-2.39842E-04-5.62549E-14
 -1       843 8.51053E-03-2.34036E-04-6.01169E-14
 -1       844 8.79094E-03-2.27819E-04-6.40941E-14
 -1       845 9.07046E-03-2.21475E-04-6.81737E-14
 -1       846 9.34935E-03-2.15454E-04-7.23521E-14
 -1       847 9.62818E-03-2.10430E-04-7.66246E-14
 -1       848 9.90798E-03-2.07379E-04-8.10026E-14
 -1       849 1.01905E-02-2.07722E-04-8.54806E-14
 -1       850 1.04787E-02-2.13598E-04-9.00548E-14
 -1       851 1.07766E-02-2.28388E-04-9.47168E-14
 -1       852 1.10903E-02-2.57618E-04-9.94677E-14
 -1       853 1.14270E-02-3.10074E-04-1.04303E-13
 -1       854 3.60480E-03 3.12054E-04-1.03852E-14
 -1       855 3.02929E-03 3.09895E-04-7.35819E-15
 -1       856 4.17909E-03 3.11231E-04-1.39564E-14
 -1       857 4.46585E-03 3.10333E-04-1.59450E-14
 -1       858 4.75239E-03 3.09279E-04-1.80664E-14
 -1       859 5.03875E-03 3.08125E-04-2.03216E-14
 -1       860 5.32494E-03 3.06883E-04-2.27065E-14
 -1       861 5.61098E-03 3.05534E-04-2.52209E-14
 -1       862 5.89688E-03 3.04035E-04-2.78646E-14
 -1       863 6.18262E-03 3.02323E-04-3.06343E-14
 -1       864 6.46818E-03 3.00320E-04-3.35255E-14
 -1       865 6.75352E-03 2.97940E-04-3.65416E-14
 -1       866 7.03858E-03 2.95096E-04-3.96836E-14
 -1       867 7.32326E-03 2.91703E-04-4.29528E-14
 -1       868 7.60743E-03 2.87698E-04-4.63477E-14
 -1       869 7.89094E-03 2.83053E-04-4.98638E-14
 -1       870 8.17356E-03 2.77799E-04-5.34973E-14
 -1       871 8.45502E-03 2.72059E-04-5.72488E-14
 -1       872 8.73496E-03 2.66089E-04-6.11176E-14
 -1       873 9.01298E-03 2.60325E-04-6.50971E-14
 -1       874 9.28856E-03 2.55433E-04-6.91849E-14
 -1       875 9.56119E-03 2.52364E-04-7.33804E-14
 -1       876 9.83036E-03 2.52381E-04-7.76814E-14
 -1       877 1.00958E-02 2.57070E-04-8.20822E-14
 -1       878 1.03576E-02 2.68336E-04-8.65813E-14
 -1       879 1.06169E-02 2.88467E-04-9.11771E-14
 -1       880 1.08770E-02 3.20642E-04-9.58713E-14
 -1       881 1.87584E-03 2.78752E-04-2.90643E-15
 -1       882 1.21437E-02-5.38245E-04-1.13596E-13
 -1       883 1.13802E-03-5.65064E-05-1.35409E-15
 -1       884 2.16413E-03 2.92080E-04-3.82311E-15
 -1       885 1.18919E-02-4.24691E-04-1.10537E-13
 -1       886 3.89209E-03 3.11865E-04-1.21029E-14
 -1       887 2.45264E-03 3.00989E-04-4.86944E-15
 -1       888 3.31720E-03 3.11527E-04-8.80395E-15
 -1       889 1.07536E-02 1.42741E-04-9.94277E-14
 -1       890 1.64153E-03-2.31751E-04-2.57804E-15
 -1       891 1.07846E-02 1.98258E-04-9.93768E-14
 -1       892 1.11139E-02 3.72912E-04-9.96816E-14
 -1       893 1.08165E-02 2.36499E-04-9.83009E-14
 -1       894 1.40126E-03 2.37044E-04-1.68362E-15
 -1       895 1.58828E-03 2.59687E-04-2.11885E-15
 -1       896 1.14421E-02-1.49251E-04-1.06449E-13
 -1       897 1.10674E-02 1.59074E-05-1.03056E-13
 -1       898 1.40336E-03-2.01817E-04-1.94511E-15
 -1       899 1.39498E-03-1.33336E-04-1.95094E-15
 -1       900 1.38092E-03 3.41061E-05-1.87367E-15
 -1       901 1.07728E-02 1.07310E-04-9.93535E-14
 -1       902 1.38410E-03 9.99771E-05-1.82638E-15
 -1       903 1.39066E-03 1.67313E-04-1.76376E-15
 -1       904 2.35510E-03-1.89800E-04-5.04532E-15
 -1       905 2.64507E-03-1.94267E-04-6.25679E-15
 -1       906 2.93494E-03-1.96917E-04-7.59952E-15
 -1       907 3.22450E-03-1.98278E-04-9.07646E-15
 -1       908 3.51362E-03-1.98755E-04-1.06840E-14
 -1       909 3.80227E-03-1.98651E-04-1.24227E-14
 -1       910 4.09045E-03-1.98179E-04-1.42929E-14
 -1       911 4.37819E-03-1.97485E-04-1.62970E-14
 -1       912 4.66554E-03-1.96660E-04-1.84312E-14
 -1       913 4.95252E-03-1.95754E-04-2.06959E-14
 -1       914 5.23919E-03-1.94786E-04-2.30952E-14
 -1       915 5.52556E-03-1.93748E-04-2.56252E-14
 -1       916 5.81163E-03-1.92614E-04-2.82877E-14
 -1       917 6.09741E-03-1.91342E-04-3.10796E-14
 -1       918 6.38284E-03-1.89880E-04-3.40030E-14
 -1       919 6.66788E-03-1.88165E-04-3.70549E-14
 -1       920 6.95242E-03-1.86127E-04-4.02326E-14
 -1       921 7.23635E-03-1.83695E-04-4.35365E-14
 -1       922 7.51951E-03-1.80797E-04-4.69674E-14
 -1       923 7.80174E-03-1.77370E-04-5.05232E-14
 -1       924 8.08281E-03-1.73365E-04-5.41985E-14
 -1       925 8.36253E-03-1.68757E-04-5.79921E-14
 -1       926 8.64070E-03-1.63557E-04-6.19020E-14
 -1       927 8.91716E-03-1.57827E-04-6.59195E-14
 -1       928 9.19189E-03-1.51696E-04-7.00378E-14
 -1       929 9.46504E-03-1.45381E-04-7.42539E-14
 -1       930 9.73708E-03-1.39227E-04-7.85720E-14
 -1       931 1.00090E-02-1.33782E-04-8.29881E-14
 -1       932 1.02827E-02-1.29976E-04-8.74964E-14
 -1       933 1.05611E-02-1.29526E-04-9.21013E-14
 -1       934 1.08493E-02-1.35767E-04-9.67945E-14
 -1       935 1.11554E-02-1.56172E-04-1.01577E-13
 -1       936 1.72163E-03 2.02474E-04-2.58953E-15
 -1       937 2.87842E-03 2.33346E-04-6.84086E-15
 -1       938 4.60760E-03 2.34560E-04-1.72092E-14
 -1       939 4.32039E-03 2.35340E-04-1.51468E-14
 -1       940 5.18110E-03 2.32726E-04-2.17331E-14
 -1       941 5.46745E-03 2.31695E-04-2.41911E-14
 -1       942 5.75354E-03 2.30563E-04-2.67793E-14
 -1       943 6.03939E-03 2.29286E-04-2.94946E-14
 -1       944 6.32495E-03 2.27810E-04-3.23349E-14
 -1       945 6.61017E-03 2.26069E-04-3.52962E-14
 -1       946 6.89496E-03 2.23998E-04-3.83859E-14
 -1       947 7.17922E-03 2.21532E-04-4.16013E-14
 -1       948 7.46276E-03 2.18621E-04-4.49464E-14
 -1       949 7.74539E-03 2.15240E-04-4.84146E-14
 -1       950 8.02682E-03 2.11409E-04-5.20008E-14
 -1       951 8.30670E-03 2.07215E-04-5.57026E-14
 -1       952 8.58461E-03 2.02845E-04-5.95240E-14
 -1       953 8.86001E-03 1.98613E-04-6.34585E-14
 -1       954 9.13226E-03 1.95002E-04-6.75032E-14
 -1       955 9.40063E-03 1.92685E-04-7.16555E-14
 -1       956 9.66424E-03 1.92530E-04-7.59093E-14
 -1       957 9.92212E-03 1.95566E-04-8.02650E-14
 -1       958 1.01732E-02 2.02896E-04-8.47200E-14
 -1       959 1.04165E-02 2.15548E-04-8.92659E-14
 -1       960 1.06503E-02 2.34693E-04-9.39121E-14
 -1       961 1.38083E-03-3.12515E-05-1.90683E-15
 -1       962 2.29933E-03 2.24024E-04-4.45610E-15
 -1       963 1.38694E-03-8.18524E-05-1.93343E-15
 -1       964 4.89449E-03 2.33680E-04-1.94050E-14
 -1       965 2.01004E-03 2.15215E-04-3.45833E-15
 -1       966 1.63199E-03-1.57689E-04-2.58610E-15
 -1       967 2.06543E-03-1.82868E-04-3.96498E-15
 -1       968 1.84826E-03-1.71141E-04-3.23917E-15
 -1       969 2.58891E-03 2.29801E-04-5.58285E-15
 -1       970 1.06228E-02 1.56295E-04-9.58733E-14
 -1       971 1.08462E-02 2.75665E-04-9.70901E-14
 -1       972 1.55568E-03 1.85377E-04-2.15734E-15
 -1       973 1.06188E-02 1.90586E-04-9.48180E-14
 -1       974 4.03282E-03 2.35954E-04-1.32157E-14
 -1       975 1.62740E-03 1.56554E-06-2.54450E-15
 -1       976 3.74485E-03 2.36286E-04-1.14198E-14
 -1       977 1.06107E-02 1.24458E-04-9.58096E-14
 -1       978 3.16764E-03 2.35299E-04-8.23317E-15
 -1       979 1.08197E-02 5.51702E-05-9.92347E-14
 -1       980 3.45646E-03 2.36155E-04-9.75904E-15
 -1       981 1.62915E-03 7.32629E-05-2.49406E-15
 -1       982 4.46257E-03 1.59351E-04-1.63528E-14
 -1       983 2.49514E-03-1.18472E-04-5.61111E-15
 -1       984 2.78571E-03-1.20699E-04-6.88111E-15
 -1       985 3.07610E-03-1.21939E-04-8.28428E-15
 -1       986 3.36609E-03-1.22490E-04-9.82039E-15
 -1       987 3.65557E-03-1.22574E-04-1.14861E-14
 -1       988 3.94452E-03-1.22356E-04-1.32820E-14
 -1       989 4.23293E-03-1.21952E-04-1.52106E-14
 -1       990 4.52085E-03-1.21437E-04-1.72731E-14
 -1       991 4.80831E-03-1.20856E-04-1.94646E-14
 -1       992 5.09537E-03-1.20230E-04-2.17894E-14
 -1       993 5.38205E-03-1.19563E-04-2.42473E-14
 -1       994 5.66838E-03-1.18842E-04-2.68356E-14
 -1       995 5.95433E-03-1.18046E-04-2.95535E-14
 -1       996 6.23989E-03-1.17142E-04-3.24017E-14
 -1       997 6.52499E-03-1.16090E-04-3.53796E-14
 -1       998 6.80954E-03-1.14844E-04-3.84836E-14
 -1       999 7.09340E-03-1.13349E-04-4.17139E-14
 -1      1000 7.37641E-03-1.11547E-04-4.50696E-14
 -1      1001 7.65834E-03-1.09376E-04-4.85537E-14
 -1      1002 7.93894E-03-1.06767E-04-5.21574E-14
 -1      1003 8.21792E-03-1.03653E-04-5.58812E-14
 -1      1004 8.49497E-03-9.99599E-05-5.97227E-14
 -1      1005 8.76977E-03-9.56150E-05-6.36766E-14
 -1      1006 9.04203E-03-9.05420E-05-6.77322E-14
 -1      1007 9.31154E-03-8.46632E-05-7.18903E-14
 -1      1008 9.57820E-03-7.79040E-05-7.61525E-14
 -1      1009 9.84217E-03-7.02129E-05-8.05119E-14
 -1      1010 1.01040E-02-6.16307E-05-8.49633E-14
 -1      1011 1.03647E-02-5.24519E-05-8.95060E-14
 -1      1012 1.06268E-02-4.40132E-05-9.41434E-14
 -1      1013 1.62312E-03-1.01701E-04-2.56678E-15
 -1      1014 5.61009E-03 1.56722E-04-2.56921E-14
 -1      1015 5.32373E-03 1.57466E-04-2.31595E-14
 -1      1016 6.18178E-03 1.54944E-04-3.11394E-14
 -1      1017 6.46704E-03 1.53836E-04-3.40499E-14
 -1      1018 6.75179E-03 1.52525E-04-3.70856E-14
 -1      1019 7.03592E-03 1.50971E-04-4.02487E-14
 -1      1020 7.31924E-03 1.49142E-04-4.35407E-14
 -1      1021 7.60153E-03 1.47026E-04-4.69579E-14
 -1      1022 7.88250E-03 1.44641E-04-5.04990E-14
 -1      1023 8.16176E-03 1.42057E-04-5.41541E-14
 -1      1024 8.43888E-03 1.39413E-04-5.79268E-14
 -1      1025 8.71330E-03 1.36946E-04-6.18167E-14
 -1      1026 8.98436E-03 1.35017E-04-6.58166E-14
 -1      1027 9.25128E-03 1.34127E-04-6.99254E-14
 -1      1028 9.51307E-03 1.34930E-04-7.41354E-14
 -1      1029 9.76856E-03 1.38196E-04-7.84471E-14
 -1      1030 1.00162E-02 1.44750E-04-8.28559E-14
 -1      1031 1.02539E-02 1.55461E-04-8.73589E-14
 -1      1032 2.43786E-03 1.53668E-04-5.11630E-15
 -1      1033 5.89611E-03 1.55893E-04-2.83520E-14
 -1      1034 1.12483E-02-1.12727E-04-1.03730E-13
 -1      1035 1.59125E-03 1.29627E-04-2.32811E-15
 -1      1036 2.20477E-03-1.14901E-04-4.47176E-15
 -1      1037 2.72819E-03 1.56938E-04-6.32174E-15
 -1      1038 1.83913E-03-1.12093E-04-3.21653E-15
 -1      1039 2.14778E-03 1.48578E-04-4.04020E-15
 -1      1040 1.08947E-02-3.87970E-05-9.88708E-14
 -1      1041 1.04630E-02 1.49320E-04-9.20601E-14
 -1      1042 4.17471E-03 1.59829E-04-1.43476E-14
 -1      1043 5.03704E-03 1.58149E-04-2.07583E-14
 -1      1044 1.62438E-03-4.99901E-05-2.56004E-15
 -1      1045 1.04436E-02 1.17011E-04-9.20020E-14
 -1      1046 3.88638E-03 1.60152E-04-1.24749E-14
 -1      1047 1.06203E-02 8.24531E-05-9.57011E-14
 -1      1048 3.59755E-03 1.60215E-04-1.07365E-14
 -1      1049 4.75000E-03 1.58780E-04-1.84889E-14
 -1      1050 3.01838E-03 1.58871E-04-7.66025E-15
 -1      1051 1.87702E-03 3.98823E-05-3.26455E-15
 -1      1052 1.87279E-03-1.51521E-05-3.29158E-15
 -1      1053 2.02171E-03-1.13977E-04-3.81903E-15
 -1      1054 1.81790E-03 1.41910E-04-2.96636E-15
 -1      1055 6.89321E-03 7.98264E-05-3.88931E-14
 -1      1056 2.92881E-03-4.58723E-05-7.50990E-15
 -1      1057 3.21937E-03-4.61677E-05-8.97176E-15
 -1      1058 3.50943E-03-4.62459E-05-1.05645E-14
 -1      1059 3.79896E-03-4.61726E-05-1.22887E-14
 -1      1060 4.08790E-03-4.60068E-05-1.41423E-14
 -1      1061 4.37628E-03-4.57840E-05-1.61295E-14
 -1      1062 4.66416E-03-4.55276E-05-1.82486E-14
 -1      1063 4.95156E-03-4.52498E-05-2.04984E-14
 -1      1064 5.23853E-03-4.49583E-05-2.28832E-14
 -1      1065 5.52511E-03-4.46458E-05-2.53986E-14
 -1      1066 5.81129E-03-4.43086E-05-2.80432E-14
 -1      1067 6.09704E-03-4.39330E-05-3.08185E-14
 -1      1068 6.38233E-03-4.35023E-05-3.37201E-14
 -1      1069 6.66706E-03-4.29944E-05-3.67499E-14
 -1      1070 6.95110E-03-4.23813E-05-3.99060E-14
 -1      1071 7.23428E-03-4.16276E-05-4.31906E-14
 -1      1072 7.51637E-03-4.06878E-05-4.66000E-14
 -1      1073 7.79711E-03-3.95030E-05-5.01306E-14
 -1      1074 8.07616E-03-3.79955E-05-5.37837E-14
 -1      1075 8.35314E-03-3.60625E-05-5.75570E-14
 -1      1076 8.62763E-03-3.35674E-05-6.14442E-14
 -1      1077 8.89916E-03-3.03293E-05-6.54385E-14
 -1      1078 9.16725E-03-2.61121E-05-6.95367E-14
 -1      1079 9.43140E-03-2.06152E-05-7.37396E-14
 -1      1080 9.69112E-03-1.34699E-05-7.80435E-14
 -1      1081 9.94589E-03-4.25223E-06-8.24418E-14
 -1      1082 1.01952E-02 7.39428E-06-8.69284E-14
 -1      1083 1.04388E-02 2.19373E-05-9.15052E-14
 -1      1084 5.46659E-03 8.24692E-05-2.46015E-14
 -1      1085 6.03868E-03 8.16418E-05-2.99415E-14
 -1      1086 6.60897E-03 8.05319E-05-3.57812E-14
 -1      1087 6.32409E-03 8.11315E-05-3.28001E-14
 -1      1088 7.17664E-03 7.90053E-05-4.21325E-14
 -1      1089 7.45904E-03 7.80719E-05-4.54980E-14
 -1      1090 7.74012E-03 7.70519E-05-4.89872E-14
 -1      1091 8.01953E-03 7.60052E-05-5.25975E-14
 -1      1092 8.29685E-03 7.50410E-05-5.63252E-14
 -1      1093 8.57157E-03 7.43371E-05-6.01678E-14
 -1      1094 8.84308E-03 7.41601E-05-6.41227E-14
 -1      1095 9.11068E-03 7.48854E-05-6.81870E-14
 -1      1096 9.37350E-03 7.70108E-05-7.23547E-14
 -1      1097 9.63053E-03 8.11564E-05-7.66237E-14
 -1      1098 9.88040E-03 8.80368E-05-8.09907E-14
 -1      1099 1.01211E-02 9.82704E-05-8.54504E-14
 -1      1100 5.75283E-03 8.20818E-05-2.72072E-14
 -1      1101 2.34718E-03-4.41729E-05-4.98527E-15
 -1      1102 1.02860E-02 1.06517E-04-8.87040E-14
 -1      1103 2.63797E-03-4.52508E-05-6.18183E-15
 -1      1104 3.30820E-03 1.59863E-04-9.13113E-15
 -1      1105 2.57935E-03 8.12874E-05-5.80243E-15
 -1      1106 2.28870E-03 7.90502E-05-4.64937E-15
 -1      1107 1.04384E-02 7.64554E-05-9.19011E-14
 -1      1108 5.17995E-03 8.28184E-05-2.21264E-14
 -1      1109 2.16364E-03-4.54683E-05-4.29717E-15
 -1      1110 4.02916E-03 8.38723E-05-1.35489E-14
 -1      1111 3.74020E-03 8.39514E-05-1.17335E-14
 -1      1112 4.60549E-03 8.34319E-05-1.75736E-14
 -1      1113 2.87010E-03 8.26820E-05-7.08579E-15
 -1      1114 4.31758E-03 8.36845E-05-1.54956E-14
 -1      1115 2.12529E-03 1.16396E-05-4.12139E-15
 -1      1116 3.16062E-03 8.34762E-05-8.50250E-15
 -1      1117 3.36434E-03 3.00984E-05-9.65977E-15
 -1      1118 5.09512E-03 3.00516E-05-2.15345E-14
 -1      1119 4.89293E-03 8.31412E-05-1.97834E-14
 -1      1120 3.45067E-03 8.38485E-05-1.00516E-14
 -1      1121 1.03479E-02 7.53351E-05-9.00604E-14
 -1      1122 0.00000E+00 0.00000E+00 0.00000E+00
 -1      1123 0.00000E+00 0.00000E+00 0.00000E+00
 -1      1124 0.00000E+00 0.00000E+00 0.00000E+00
 -1      1125 0.00000E+00 0.00000E+00 0.00000E+00
 -1      1126 0.00000E+00 0.00000E+00 0.00000E+00
 -1      1127 0.00000E+00 0.00000E+00 0.00000E+00
 -1      1128 0.00000E+00 0.00000E+00 0.00000E+00
 -1      1129 0.00000E+00 0.00000E+00 0.00000E+00
 -1      1130 0.00000E+00 0.00000E+00 0.00000E+00
 -1      1131 0.00000E+00 0.00000E+00 0.00000E+00
 -1      1132 0.00000E+00 0.00000E+00 0.00000E+00
 -1      1133 0.00000E+00 0.00000E+00 0.00000E+00
 -1      1134 0.00000E+00 0.00000E+00 0.00000E+00
 -1      1135 0.00000E+00 0.00000E+00 0.00000E+00
 -1      1136 0.00000E+00 0.00000E+00 0.00000E+00
 -1      1137 0.00000E+00 0.00000E+00 0.00000E+00
 -1      1138 0.00000E+00 0.00000E+00 0.00000E+00
 -1      1139 2.11678E-04-1.48329E-04 1.64528E-17
 -1      1140 5.51680E-04-3.37495E-04-4.18638E-17
 -1      1141 8.33546E-04-4.58974E-04-2.34188E-16
 -1      1142 1.10318E-03-5.40653E-04-5.83558E-16
 -1      1143 1.36866E-03-5.97912E-04-1.08380E-15
 -1      1144 1.63356E-03-6.38644E-04-1.73261E-15
 -1      1145 1.89971E-03-6.67504E-04-2.52929E-15
 -1      1146 2.16798E-03-6.87617E-04-3.47181E-15
 -1      1147 2.43866E-03-7.01277E-04-4.55984E-15
 -1      1148 2.71174E-03-7.10217E-04-5.79213E-15
 -1      1149 2.98705E-03-7.15753E-04-7.16517E-15
 -1      1150 3.26436E-03-7.18879E-04-8.67332E-15
 -1      1151 3.54337E-03-7.20337E-04-1.03160E-14
 -1      1152 3.82382E-03-7.20671E-04-1.20974E-14
 -1      1153 4.10544E-03-7.20267E-04-1.40141E-14
 -1      1154 4.38800E-03-7.19392E-04-1.60668E-14
 -1      1155 4.67129E-03-7.18218E-04-1.82565E-14
 -1      1156 4.95514E-03-7.16845E-04-2.05822E-14
 -1      1157 5.23942E-03-7.15317E-04-2.30384E-14
 -1      1158 5.52404E-03-7.13636E-04-2.56256E-14
 -1      1159 5.80893E-03-7.11771E-04-2.83451E-14
 -1      1160 6.09407E-03-7.09669E-04-3.12001E-14
 -1      1161 6.37948E-03-7.07259E-04-3.41886E-14
 -1      1162 6.66524E-03-7.04463E-04-3.73181E-14
 -1      1163 6.95145E-03-7.01202E-04-4.05878E-14
 -1      1164 7.23832E-03-6.97415E-04-4.39854E-14
 -1      1165 7.52611E-03-6.93071E-04-4.75024E-14
 -1      1166 7.81517E-03-6.88193E-04-5.11369E-14
 -1      1167 8.10594E-03-6.82896E-04-5.48982E-14
 -1      1168 8.39899E-03-6.77428E-04-5.87734E-14
 -1      1169 8.69498E-03-6.72231E-04-6.27563E-14
 -1      1170 8.99464E-03-6.68010E-04-6.68528E-14
 -1      1171 9.29875E-03-6.65820E-04-7.10606E-14
 -1      1172 9.60801E-03-6.67151E-04-7.53803E-14
 -1      1173 9.92289E-03-6.73995E-04-7.98098E-14
 -1      1174 1.02434E-02-6.88856E-04-8.43425E-14
 -1      1175 1.05686E-02-7.14612E-04-8.89667E-14
 -1      1176 1.08963E-02-7.54130E-04-9.36808E-14
 -1      1177 1.12226E-02-8.09478E-04-9.84751E-14
 -1      1178 1.15417E-02-8.80615E-04-1.03351E-13
 -1      1179 1.18460E-02-9.63672E-04-1.08319E-13
 -1      1180 1.21278E-02-1.04930E-03-1.13372E-13
 -1      1181 1.23813E-02-1.12215E-03-1.18509E-13
 -1      1182 1.26060E-02-1.16282E-03-1.23724E-13
 -1      1183 1.28082E-02-1.15260E-03-1.29008E-13
 -1      1184 1.30015E-02-1.07993E-03-1.34336E-13
 -1      1185 1.32026E-02-9.45654E-04-1.39702E-13
 -1      1186 1.34264E-02-7.64748E-04-1.45091E-13
 -1      1187 1.36807E-02-5.63865E-04-1.50486E-13
 -1      1188 1.39534E-02-3.76052E-04-1.55758E-13
 -1      1189 2.28437E-04 1.60707E-04 4.31919E-17
 -1      1190 5.53853E-04 3.42127E-04 5.54569E-17
 -1      1191 8.34476E-04 4.61143E-04-4.11726E-17
 -1      1192 1.10408E-03 5.42341E-04-2.66443E-16
 -1      1193 1.36956E-03 5.99593E-04-6.24744E-16
 -1      1194 1.63451E-03 6.40413E-04-1.11827E-15
 -1      1195 1.90072E-03 6.69379E-04-1.74841E-15
 -1      1196 2.16903E-03 6.89612E-04-2.51425E-15
 -1      1197 2.43973E-03 7.03400E-04-3.41547E-15
 -1      1198 2.71283E-03 7.12472E-04-4.45545E-15
 -1      1199 2.98816E-03 7.18143E-04-5.63838E-15
 -1      1200 3.26547E-03 7.21406E-04-6.96554E-15
 -1      1201 3.54449E-03 7.23002E-04-8.43528E-15
 -1      1202 3.82494E-03 7.23473E-04-1.00471E-14
 -1      1203 4.10657E-03 7.23207E-04-1.17991E-14
 -1      1204 4.38912E-03 7.22469E-04-1.36950E-14
 -1      1205 4.67241E-03 7.21432E-04-1.57313E-14
 -1      1206 4.95625E-03 7.20196E-04-1.79010E-14
 -1      1207 5.24053E-03 7.18803E-04-2.02029E-14
 -1      1208 5.52513E-03 7.17255E-04-2.26384E-14
 -1      1209 5.81000E-03 7.15519E-04-2.52013E-14
 -1      1210 6.09512E-03 7.13536E-04-2.78876E-14
 -1      1211 6.38049E-03 7.11228E-04-3.06962E-14
 -1      1212 6.66619E-03 7.08506E-04-3.36295E-14
 -1      1213 6.95235E-03 7.05275E-04-3.66830E-14
 -1      1214 7.23915E-03 7.01442E-04-3.98633E-14
 -1      1215 7.52688E-03 6.96936E-04-4.31654E-14
 -1      1216 7.81592E-03 6.91719E-04-4.65924E-14
 -1      1217 8.10680E-03 6.85824E-04-5.01418E-14
 -1      1218 8.40021E-03 6.79389E-04-5.38124E-14
 -1      1219 8.69705E-03 6.72724E-04-5.75998E-14
 -1      1220 8.99843E-03 6.66394E-04-6.15009E-14
 -1      1221 9.30578E-03 6.61357E-04-6.54973E-14
 -1      1222 9.62078E-03 6.59137E-04-6.95967E-14
 -1      1223 9.94534E-03 6.62082E-04-7.38260E-14
 -1      1224 1.02814E-02 6.73694E-04-7.81854E-14
 -1      1225 1.06307E-02 6.99000E-04-8.26652E-14
 -1      1226 1.09938E-02 7.44833E-04-8.72548E-14
 -1      1227 1.13688E-02 8.19664E-04-9.19462E-14
 -1      1228 1.17499E-02 9.32216E-04-9.67241E-14
 -1      1229 1.21248E-02 1.08778E-03-1.01583E-13
 -1      1230 1.24748E-02 1.28143E-03-1.06516E-13
 -1      1231 1.27779E-02 1.48988E-03-1.11522E-13
 -1      1232 1.30189E-02 1.66841E-03-1.16599E-13
 -1      1233 1.32005E-02 1.76148E-03-1.21736E-13
 -1      1234 1.33486E-02 1.72665E-03-1.26922E-13
 -1      1235 1.35002E-02 1.55707E-03-1.32137E-13
 -1      1236 1.36853E-02 1.28273E-03-1.37363E-13
 -1      1237 1.39169E-02 9.53203E-04-1.42586E-13
 -1      1238 1.41814E-02 6.28732E-04-1.47679E-13
 -1      1239 1.44685E-02 4.35595E-04-1.50423E-13
 -1      1240 1.47544E-02 3.38994E-04-1.50948E-13
 -1      1241 1.50537E-02 2.09282E-04-1.51480E-13
 -1      1242 1.54246E-02 6.02890E-05-1.52035E-13
 -1      1243 1.58992E-02-5.64181E-05-1.52607E-13
 -1      1244 1.64233E-02-6.35467E-05-1.53188E-13
 -1      1245 1.68497E-02 8.78067E-05-1.53763E-13
 -1      1246 1.70017E-02 3.47400E-04-1.54293E-13
 -1      1247 1.68594E-02 5.77422E-04-1.54727E-13
 -1      1248 1.65287E-02 7.17091E-04-1.55114E-13
 -1      1249 1.60826E-02 7.47645E-04-1.55495E-13
 -1      1250 1.56078E-02 6.63679E-04-1.55865E-13
 -1      1251 1.51859E-02 4.93291E-04-1.56210E-13
 -1      1252 1.48672E-02 2.91599E-04-1.56556E-13
 -1      1253 1.46452E-02 1.06699E-04-1.56927E-13
 -1      1254 1.44789E-02-4.41508E-05-1.57322E-13
 -1      1255 1.43305E-02-1.59488E-04-1.57730E-13
 -1      1256 1.41739E-02-2.49074E-04-1.58136E-13
 -1      1257 1.66283E-02 4.29331E-04-1.38997E-13
 -1      1258 1.64305E-02 6.52828E-04-1.38200E-13
 -1      1259 1.60683E-02 8.71121E-04-1.36899E-13
 -1      1260 1.56028E-02 1.07927E-03-1.35168E-13
 -1      1261 1.50855E-02 1.26220E-03-1.33091E-13
 -1      1262 1.45237E-02 1.40912E-03-1.30634E-13
 -1      1263 1.39743E-02 1.48760E-03-1.28068E-13
 -1      1264 1.34424E-02 1.48501E-03-1.25491E-13
 -1      1265 1.29123E-02 1.40121E-03-1.22892E-13
 -1      1266 1.24141E-02 1.25142E-03-1.20500E-13
 -1      1267 1.19773E-02 1.06493E-03-1.18498E-13
 -1      1268 1.15876E-02 8.52853E-04-1.16807E-13
 -1      1269 1.12794E-02 6.36836E-04-1.15573E-13
 -1      1270 1.10917E-02 4.41118E-04-1.14921E-13
 -1      1271 1.10195E-02 2.61964E-04-1.14806E-13
 -1      1272 1.10606E-02 9.06632E-05-1.15198E-13
 -1      1273 1.12261E-02-9.43616E-05-1.16166E-13
 -1      1274 1.15151E-02-2.86166E-04-1.17727E-13
 -1      1275 1.18839E-02-4.64692E-04-1.19677E-13
 -1      1276 1.23016E-02-6.17214E-04-1.21879E-13
 -1      1277 1.27562E-02-7.32418E-04-1.24283E-13
 -1      1278 1.32366E-02-7.97977E-04-1.26791E-13
 -1      1279 1.37632E-02-8.03059E-04-1.29435E-13
 -1      1280 1.43262E-02-7.41042E-04-1.32036E-13
 -1      1281 1.49099E-02-6.10813E-04-1.34416E-13
 -1      1282 1.54816E-02-4.33905E-04-1.36417E-13
 -1      1283 1.59870E-02-2.32915E-04-1.37904E-13
 -1      1284 1.63873E-02-1.63099E-05-1.38851E-13
 -1      1285 1.66144E-02 2.03588E-04-1.39215E-13
 -1      1286 1.66713E-04-1.10336E-04-5.10930E-18
 -1      1287 1.12551E-04-5.69641E-05-3.02763E-17
 -1      1288 1.17633E-04-6.75742E-05-2.33103E-17
 -1      1289 1.08428E-04-4.34773E-05-4.15927E-17
 -1      1290 1.10293E-04-4.95932E-05-3.82181E-17
 -1      1291 2.26350E-04-1.07603E-04-9.00701E-17
 -1      1292 1.06843E-04-3.35988E-05-4.76371E-17
 -1      1293 1.07691E-04-3.83206E-05-4.59702E-17
 -1      1294 2.19114E-04-8.24328E-05-1.10196E-16
 -1      1295 1.06061E-04-2.53389E-05-5.07949E-17
 -1      1296 1.06493E-04-2.93712E-05-5.00088E-17
 -1      1297 2.15870E-04-6.32532E-05-1.21349E-16
 -1      1298 1.05654E-04-1.80814E-05-5.22721E-17
 -1      1299 1.05886E-04-2.16477E-05-5.20010E-17
 -1      1300 2.14203E-04-4.71652E-05-1.27150E-16
 -1      1301 1.05431E-04-1.12328E-05-5.26245E-17
 -1      1302 1.05556E-04-1.46162E-05-5.26787E-17
 -1      1303 2.13280E-04-3.27367E-05-1.29684E-16
 -1      1304 1.05330E-04-4.68639E-06-5.22179E-17
 -1      1305 1.05384E-04-7.93799E-06-5.23941E-17
 -1      1306 2.12780E-04-1.91801E-05-1.29806E-16
 -1      1307 1.05319E-04 1.74191E-06-5.13912E-17
 -1      1308 1.05317E-04-1.46975E-06-5.17029E-17
 -1      1309 2.12564E-04-6.15713E-06-1.28559E-16
 -1      1310 1.05392E-04 8.21991E-06-4.95480E-17
 -1      1311 1.05335E-04 4.96180E-06-5.01037E-17
 -1      1312 2.12572E-04 6.70463E-06-1.25686E-16
 -1      1313 1.05572E-04 1.49238E-05-4.71357E-17
 -1      1314 1.05443E-04 1.15253E-05-4.79082E-17
 -1      1315 2.12806E-04 1.97535E-05-1.20956E-16
 -1      1316 1.05908E-04 2.19401E-05-4.34765E-17
 -1      1317 1.05671E-04 1.83500E-05-4.46285E-17
 -1      1318 2.13322E-04 3.32500E-05-1.14302E-16
 -1      1319 1.06536E-04 2.98054E-05-3.85434E-17
 -1      1320 1.06094E-04 2.57290E-05-4.02646E-17
 -1      1321 2.14269E-04 4.77735E-05-1.05073E-16
 -1      1322 1.07730E-04 3.89042E-05-3.14419E-17
 -1      1323 1.06877E-04 3.41104E-05-3.41795E-17
 -1      1324 2.15981E-04 6.41842E-05-9.25096E-17
 -1      1325 1.10273E-04 5.03330E-05-2.04643E-17
 -1      1326 1.08433E-04 4.41482E-05-2.51535E-17
 -1      1327 2.19216E-04 8.36829E-05-7.44576E-17
 -1      1328 1.16949E-04 6.76098E-05-3.41524E-18
 -1      1329 1.12197E-04 5.77632E-05-1.14925E-17
 -1      1330 2.26337E-04 1.09422E-04-4.81386E-17
 -1      1331 1.57592E-04 1.09854E-04 2.20635E-17
 -1      1332 1.35675E-04 8.60826E-05 6.83047E-18
 -1      1333 2.56065E-04 1.52074E-04-1.67509E-17
 -1      1334 3.35113E-04 2.20724E-04 2.63326E-17
 -1      1335 4.21578E-04-2.61718E-04-5.78964E-17
 -1      1336 5.74693E-04-3.36768E-04-1.22203E-16
 -1      1337 7.21903E-04-3.97363E-04-2.27289E-16
 -1      1338 8.65094E-04-4.46653E-04-3.70079E-16
 -1      1339 6.12137E-04-3.30853E-04-2.14320E-16
 -1      1340 1.00514E-03-4.87723E-04-5.49135E-16
 -1      1341 1.14301E-03-5.21712E-04-7.65460E-16
 -1      1342 9.05413E-04-4.31539E-04-5.10076E-16
 -1      1343 1.27954E-03-5.50490E-04-1.01853E-15
 -1      1344 1.41522E-03-5.74533E-04-1.30879E-15
 -1      1345 1.18789E-03-5.00961E-04-9.50818E-16
 -1      1346 1.55050E-03-5.94908E-04-1.63545E-15
 -1      1347 1.68563E-03-6.11948E-04-1.99879E-15
 -1      1348 1.46488E-03-5.49746E-04-1.53661E-15
 -1      1349 1.82085E-03-6.26283E-04-2.39858E-15
 -1      1350 1.95629E-03-6.38207E-04-2.83473E-15
 -1      1351 1.73963E-03-5.84076E-04-2.26720E-15
 -1      1352 2.09205E-03-6.48122E-04-3.30680E-15
 -1      1353 2.22818E-03-6.56278E-04-3.81509E-15
 -1      1354 2.01402E-03-6.07937E-04-3.14160E-15
 -1      1355 2.36474E-03-6.62952E-04-4.35947E-15
 -1      1356 2.50173E-03-6.68350E-04-4.93942E-15
 -1      1357 2.28902E-03-6.24150E-04-4.15941E-15
 -1      1358 2.63918E-03-6.72667E-04-5.55511E-15
 -1      1359 2.77707E-03-6.76070E-04-6.20580E-15
 -1      1360 2.56511E-03-6.34794E-04-5.31920E-15
 -1      1361 2.91539E-03-6.78699E-04-6.89029E-15
 -1      1362 3.05412E-03-6.80683E-04-7.61035E-15
 -1      1363 2.84248E-03-6.41432E-04-6.61824E-15
 -1      1364 3.19326E-03-6.82125E-04-8.36360E-15
 -1      1365 3.33276E-03-6.83123E-04-9.14960E-15
 -1      1366 3.12115E-03-6.45236E-04-8.05450E-15
 -1      1367 3.47261E-03-6.83748E-04-9.97074E-15
 -1      1368 3.61277E-03-6.84078E-04-1.08256E-14
 -1      1369 3.40104E-03-6.47079E-04-9.62647E-15
 -1      1370 3.75323E-03-6.84159E-04-1.17148E-14
 -1      1371 3.89396E-03-6.84048E-04-1.26383E-14
 -1      1372 3.68202E-03-6.47603E-04-1.13346E-14
 -1      1373 4.03494E-03-6.83777E-04-1.35947E-14
 -1      1374 4.17613E-03-6.83386E-04-1.45853E-14
 -1      1375 3.96394E-03-6.47267E-04-1.31775E-14
 -1      1376 4.31752E-03-6.82894E-04-1.56097E-14
 -1      1377 4.45908E-03-6.82328E-04-1.66688E-14
 -1      1378 4.24666E-03-6.46389E-04-1.51552E-14
 -1      1379 4.60080E-03-6.81699E-04-1.77615E-14
 -1      1380 4.74266E-03-6.81024E-04-1.88882E-14
 -1      1381 4.53003E-03-6.45179E-04-1.72687E-14
 -1      1382 4.88464E-03-6.80304E-04-2.00482E-14
 -1      1383 5.02673E-03-6.79552E-04-2.12414E-14
 -1      1384 4.81392E-03-6.43765E-04-1.95176E-14
 -1      1385 5.16892E-03-6.78763E-04-2.24674E-14
 -1      1386 5.31119E-03-6.77942E-04-2.37260E-14
 -1      1387 5.09824E-03-6.42208E-04-2.18992E-14
 -1      1388 5.45354E-03-6.77082E-04-2.50166E-14
 -1      1389 5.59597E-03-6.76183E-04-2.63406E-14
 -1      1390 5.38290E-03-6.40524E-04-2.44112E-14
 -1      1391 5.73846E-03-6.75234E-04-2.76993E-14
 -1      1392 5.88102E-03-6.74232E-04-2.90900E-14
 -1      1393 5.66785E-03-6.38687E-04-2.70549E-14
 -1      1394 6.02365E-03-6.73164E-04-3.05141E-14
 -1      1395 6.16634E-03-6.72026E-04-3.19722E-14
 -1      1396 5.95307E-03-6.36646E-04-2.98324E-14
 -1      1397 6.30912E-03-6.70801E-04-3.34656E-14
 -1      1398 6.45198E-03-6.69485E-04-3.49927E-14
 -1      1399 6.23857E-03-6.34328E-04-3.27445E-14
 -1      1400 6.59493E-03-6.68061E-04-3.65543E-14
 -1      1401 6.73799E-03-6.66524E-04-3.81508E-14
 -1      1402 6.52440E-03-6.31647E-04-3.57935E-14
 -1      1403 6.88119E-03-6.64858E-04-3.97810E-14
 -1      1404 7.02453E-03-6.63062E-04-4.14450E-14
 -1      1405 6.81063E-03-6.28510E-04-3.89800E-14
 -1      1406 7.16805E-03-6.61117E-04-4.31400E-14
 -1      1407 7.31177E-03-6.59031E-04-4.48647E-14
 -1      1408 7.09741E-03-6.24831E-04-4.22984E-14
 -1      1409 7.45574E-03-6.56787E-04-4.66200E-14
 -1      1410 7.59998E-03-6.54401E-04-4.84042E-14
 -1      1411 7.38492E-03-6.20543E-04-4.57416E-14
 -1      1412 7.74456E-03-6.51865E-04-5.02192E-14
 -1      1413 7.88950E-03-6.49206E-04-5.20656E-14
 -1      1414 7.67341E-03-6.15619E-04-4.93055E-14
 -1      1415 8.03488E-03-6.46427E-04-5.39414E-14
 -1      1416 8.18076E-03-6.43575E-04-5.58472E-14
 -1      1417 7.96318E-03-6.10103E-04-5.29898E-14
 -1      1418 8.32719E-03-6.40671E-04-5.77816E-14
 -1      1419 8.47424E-03-6.37787E-04-5.97434E-14
 -1      1420 8.25464E-03-6.04146E-04-5.67936E-14
 -1      1421 8.62201E-03-6.34971E-04-6.17333E-14
 -1      1422 8.77055E-03-6.32330E-04-6.37504E-14
 -1      1423 8.54822E-03-5.98063E-04-6.07120E-14
 -1      1424 8.91996E-03-6.29952E-04-6.57961E-14
 -1      1425 9.07031E-03-6.27983E-04-6.78684E-14
 -1      1426 8.84443E-03-5.92399E-04-6.47414E-14
 -1      1427 9.22167E-03-6.26570E-04-6.99692E-14
 -1      1428 9.37412E-03-6.25906E-04-7.20975E-14
 -1      1429 9.14379E-03-5.88018E-04-6.88808E-14
 -1      1430 9.52772E-03-6.26211E-04-7.42531E-14
 -1      1431 9.68250E-03-6.27728E-04-7.64349E-14
 -1      1432 9.44680E-03-5.86194E-04-7.31293E-14
 -1      1433 9.83848E-03-6.30771E-04-7.86443E-14
 -1      1434 9.99566E-03-6.35622E-04-8.08816E-14
 -1      1435 9.75382E-03-5.88712E-04-7.74862E-14
 -1      1436 1.01540E-02-6.42693E-04-8.31419E-14
 -1      1437 1.03133E-02-6.52287E-04-8.54251E-14
 -1      1438 1.00649E-02-5.97924E-04-8.19460E-14
 -1      1439 1.04735E-02-6.64894E-04-8.77335E-14
 -1      1440 1.06344E-02-6.80786E-04-9.00632E-14
 -1      1441 1.03798E-02-6.16724E-04-8.65043E-14
 -1      1442 1.07956E-02-7.00462E-04-9.24148E-14
 -1      1443 1.09567E-02-7.24071E-04-9.47902E-14
 -1      1444 1.06973E-02-6.48322E-04-9.11562E-14
 -1      1445 1.11172E-02-7.51980E-04-9.71836E-14
 -1      1446 1.12765E-02-7.84066E-04-9.95957E-14
 -1      1447 1.10155E-02-6.95684E-04-9.58944E-14
 -1      1448 1.14340E-02-8.20330E-04-1.02031E-13
 -1      1449 1.15889E-02-8.60187E-04-1.04490E-13
 -1      1450 1.13314E-02-7.60462E-04-1.00715E-13
 -1      1451 1.17405E-02-9.02974E-04-1.06969E-13
 -1      1452 1.18880E-02-9.47464E-04-1.09469E-13
 -1      1453 1.16407E-02-8.41350E-04-1.05621E-13
 -1      1454 1.20306E-02-9.92081E-04-1.11993E-13
 -1      1455 1.21680E-02-1.03490E-03-1.14537E-13
 -1      1456 1.19386E-02-9.32088E-04-1.10618E-13
 -1      1457 1.22996E-02-1.07345E-03-1.17100E-13
 -1      1458 1.24255E-02-1.10532E-03-1.19685E-13
 -1      1459 1.22208E-02-1.01993E-03-1.15697E-13
 -1      1460 1.25460E-02-1.12762E-03-1.22286E-13
 -1      1461 1.26616E-02-1.13806E-03-1.24905E-13
 -1      1462 1.24850E-02-1.08597E-03-1.20853E-13
 -1      1463 1.27733E-02-1.13420E-03-1.27541E-13
 -1      1464 1.28824E-02-1.11462E-03-1.30192E-13
 -1      1465 1.27323E-02-1.10868E-03-1.26083E-13
 -1      1466 1.29904E-02-1.07837E-03-1.32853E-13
 -1      1467 1.30988E-02-1.02555E-03-1.35522E-13
 -1      1468 1.29685E-02-1.07042E-03-1.31373E-13
 -1      1469 1.32092E-02-9.57256E-04-1.38203E-13
 -1      1470 1.33229E-02-8.75267E-04-1.40889E-13
 -1      1471 1.32024E-02-9.64500E-04-1.36709E-13
 -1      1472 1.34412E-02-7.82680E-04-1.43580E-13
 -1      1473 1.35646E-02-6.82709E-04-1.46274E-13
 -1      1474 1.34432E-02-7.99199E-04-1.42075E-13
 -1      1475 1.36935E-02-5.79592E-04-1.48970E-13
 -1      1476 1.38278E-02-4.77450E-04-1.51668E-13
 -1      1477 1.36979E-02-5.97156E-04-1.47456E-13
 -1      1478 1.40388E-02-3.33899E-04-1.55563E-13
 -1      1479 1.40401E-02-3.41819E-04-1.54041E-13
 -1      1480 6.43144E-04 3.71981E-04-2.07896E-17
 -1      1481 4.92998E-04 3.03667E-04 1.77538E-17
 -1      1482 4.44927E-04 2.65867E-04-1.42979E-17
 -1      1483 9.28775E-04 4.71934E-04-1.90969E-16
 -1      1484 7.87888E-04 4.26448E-04-9.02598E-17
 -1      1485 7.44827E-04 3.90673E-04-1.32218E-16
 -1      1486 1.20372E-03 5.41354E-04-4.89029E-16
 -1      1487 1.06703E-03 5.09674E-04-3.23526E-16
 -1      1488 1.03092E-03 4.76106E-04-3.73738E-16
 -1      1489 1.47433E-03 5.90562E-04-9.19566E-16
 -1      1490 1.33925E-03 5.68096E-04-6.87411E-16
 -1      1491 1.30889E-03 5.35933E-04-7.43532E-16
 -1      1492 1.74394E-03 6.25484E-04-1.48472E-15
 -1      1493 1.60909E-03 6.09568E-04-1.18502E-15
 -1      1494 1.58317E-03 5.78238E-04-1.24544E-15
 -1      1495 2.01423E-03 6.49990E-04-2.18613E-15
 -1      1496 1.87891E-03 6.38866E-04-1.81832E-15
 -1      1497 1.85641E-03 6.07998E-04-1.88209E-15
 -1      1498 2.28601E-03 6.66834E-04-3.02196E-15
 -1      1499 2.14989E-03 6.59238E-04-2.58700E-15
 -1      1500 2.13000E-03 6.28602E-04-2.65380E-15
 -1      1501 2.55960E-03 6.78064E-04-3.99493E-15
 -1      1502 2.42256E-03 6.73050E-04-3.49132E-15
 -1      1503 2.40465E-03 6.42505E-04-3.56082E-15
 -1      1504 2.83504E-03 6.85230E-04-5.10742E-15
 -1      1505 2.69709E-03 6.82078E-04-4.53344E-15
 -1      1506 2.68067E-03 6.51541E-04-4.60508E-15
 -1      1507 3.11226E-03 6.89501E-04-6.36303E-15
 -1      1508 2.97344E-03 6.87669E-04-5.71762E-15
 -1      1509 2.95812E-03 6.57091E-04-5.78976E-15
 -1      1510 3.39106E-03 6.91754E-04-7.76053E-15
 -1      1511 3.25147E-03 6.90836E-04-7.04352E-15
 -1      1512 3.23696E-03 6.60193E-04-7.11611E-15
 -1      1513 3.67123E-03 6.92635E-04-9.29992E-15
 -1      1514 3.53099E-03 6.92334E-04-8.51249E-15
 -1      1515 3.51705E-03 6.61614E-04-8.58355E-15
 -1      1516 3.95257E-03 6.92610E-04-1.09809E-14
 -1      1517 3.81177E-03 6.92713E-04-1.01227E-14
 -1      1518 3.79825E-03 6.61917E-04-1.01923E-14
 -1      1519 4.23486E-03 6.92005E-04-1.28012E-14
 -1      1520 4.09361E-03 6.92364E-04-1.18735E-14
 -1      1521 4.08037E-03 6.61497E-04-1.19411E-14
 -1      1522 4.51792E-03 6.91037E-04-1.47649E-14
 -1      1523 4.37631E-03 6.91556E-04-1.37657E-14
 -1      1524 4.36327E-03 6.60627E-04-1.38312E-14
 -1      1525 4.80158E-03 6.89841E-04-1.68651E-14
 -1      1526 4.65968E-03 6.90462E-04-1.57980E-14
 -1      1527 4.64679E-03 6.59481E-04-1.58593E-14
 -1      1528 5.08571E-03 6.88485E-04-1.90972E-14
 -1      1529 4.94360E-03 6.89181E-04-1.79650E-14
 -1      1530 4.93080E-03 6.58158E-04-1.80230E-14
 -1      1531 5.37022E-03 6.86988E-04-2.14634E-14
 -1      1532 5.22793E-03 6.87755E-04-2.02638E-14
 -1      1533 5.21522E-03 6.56699E-04-2.03195E-14
 -1      1534 5.65503E-03 6.85331E-04-2.39594E-14
 -1      1535 5.51259E-03 6.86182E-04-2.26955E-14
 -1      1536 5.49996E-03 6.55102E-04-2.27475E-14
 -1      1537 5.94010E-03 6.83464E-04-2.65820E-14
 -1      1538 5.79753E-03 6.84427E-04-2.52546E-14
 -1      1539 5.78497E-03 6.53329E-04-2.53035E-14
 -1      1540 6.22544E-03 6.81315E-04-2.93269E-14
 -1      1541 6.08273E-03 6.82429E-04-2.79390E-14
 -1      1542 6.07026E-03 6.51316E-04-2.79852E-14
 -1      1543 6.51108E-03 6.78795E-04-3.21952E-14
 -1      1544 6.36822E-03 6.80106E-04-3.07463E-14
 -1      1545 6.35583E-03 6.48978E-04-3.07908E-14
 -1      1546 6.79713E-03 6.75805E-04-3.51884E-14
 -1      1547 6.65405E-03 6.77363E-04-3.36766E-14
 -1      1548 6.64176E-03 6.46215E-04-3.37194E-14
 -1      1549 7.08373E-03 6.72243E-04-3.83030E-14
 -1      1550 6.94035E-03 6.74098E-04-3.67297E-14
 -1      1551 6.92815E-03 6.42920E-04-3.67696E-14
 -1      1552 7.37111E-03 6.68015E-04-4.15411E-14
 -1      1553 7.22731E-03 6.70211E-04-3.99062E-14
 -1      1554 7.21518E-03 6.38986E-04-3.99451E-14
 -1      1555 7.65956E-03 6.63051E-04-4.49056E-14
 -1      1556 7.51518E-03 6.65619E-04-4.32085E-14
 -1      1557 7.50308E-03 6.34318E-04-4.32448E-14
 -1      1558 7.94951E-03 6.57328E-04-4.83890E-14
 -1      1559 7.80432E-03 6.60271E-04-4.66318E-14
 -1      1560 7.79219E-03 6.28854E-04-4.66668E-14
 -1      1561 8.24151E-03 6.50903E-04-5.19991E-14
 -1      1562 8.09522E-03 6.54179E-04-5.01780E-14
 -1      1563 8.08292E-03 6.22589E-04-5.02100E-14
 -1      1564 8.53626E-03 6.43964E-04-5.57215E-14
 -1      1565 8.38849E-03 6.47458E-04-5.38458E-14
 -1      1566 8.37584E-03 6.15616E-04-5.38746E-14
 -1      1567 8.83467E-03 6.36901E-04-5.95665E-14
 -1      1568 8.68495E-03 6.40385E-04-5.76295E-14
 -1      1569 8.67164E-03 6.08184E-04-5.76563E-14
 -1      1570 9.13783E-03 6.30411E-04-6.35141E-14
 -1      1571 8.98558E-03 6.33489E-04-6.15274E-14
 -1      1572 8.97119E-03 6.00786E-04-6.15507E-14
 -1      1573 9.44709E-03 6.25655E-04-6.75634E-14
 -1      1574 9.29162E-03 6.27676E-04-6.55260E-14
 -1      1575 9.27553E-03 5.94288E-04-6.55503E-14
 -1      1576 9.76397E-03 6.24472E-04-7.17283E-14
 -1      1577 9.60448E-03 6.24418E-04-6.96312E-14
 -1      1578 9.58585E-03 5.90105E-04-6.96570E-14
 -1      1579 1.00901E-02 6.29676E-04-7.60190E-14
 -1      1580 9.92575E-03 6.26002E-04-7.38572E-14
 -1      1581 9.90345E-03 5.90470E-04-7.38830E-14
 -1      1582 1.04268E-02 6.45432E-04-8.04289E-14
 -1      1583 1.02570E-02 6.35876E-04-7.82094E-14
 -1      1584 1.02296E-02 5.98769E-04-7.82288E-14
 -1      1585 1.07751E-02 6.77642E-04-8.49606E-14
 -1      1586 1.05995E-02 6.59041E-04-8.26790E-14
 -1      1587 1.05653E-02 6.19964E-04-8.26910E-14
 -1      1588 1.11343E-02 7.34140E-04-8.95895E-14
 -1      1589 1.09534E-02 7.02384E-04-8.72634E-14
 -1      1590 1.09107E-02 6.60952E-04-8.72649E-14
 -1      1591 1.15012E-02 8.24159E-04-9.43187E-14
 -1      1592 1.13170E-02 7.74587E-04-9.19429E-14
 -1      1593 1.12645E-02 7.30560E-04-9.19374E-14
 -1      1594 1.18688E-02 9.56130E-04-9.91306E-14
 -1      1595 1.16855E-02 8.84895E-04-9.67153E-14
 -1      1596 1.16234E-02 8.38431E-04-9.67010E-14
 -1      1597 1.22252E-02 1.13256E-03-1.04023E-13
 -1      1598 1.20493E-02 1.03957E-03-1.01567E-13
 -1      1599 1.19803E-02 9.91657E-04-1.01549E-13
 -1      1600 1.25546E-02 1.34176E-03-1.08987E-13
 -1      1601 1.23944E-02 1.23506E-03-1.06496E-13
 -1      1602 1.23248E-02 1.18799E-03-1.06474E-13
 -1      1603 1.28422E-02 1.55007E-03-1.14027E-13
 -1      1604 1.27044E-02 1.44923E-03-1.11498E-13
 -1      1605 1.26443E-02 1.40662E-03-1.11471E-13
 -1      1606 1.30818E-02 1.70343E-03-1.19130E-13
 -1      1607 1.29678E-02 1.63713E-03-1.16572E-13
 -1      1608 1.29284E-02 1.60278E-03-1.16540E-13
 -1      1609 1.32831E-02 1.74614E-03-1.24290E-13
 -1      1610 1.31858E-02 1.74081E-03-1.21704E-13
 -1      1611 1.31765E-02 1.71644E-03-1.21670E-13
 -1      1612 1.34701E-02 1.64817E-03-1.29486E-13
 -1      1613 1.33765E-02 1.71423E-03-1.26884E-13
 -1      1614 1.34013E-02 1.69816E-03-1.26845E-13
 -1      1615 1.36684E-02 1.42209E-03-1.34707E-13
 -1      1616 1.35664E-02 1.54850E-03-1.32093E-13
 -1      1617 1.36229E-02 1.53675E-03-1.32052E-13
 -1      1618 1.38944E-02 1.11100E-03-1.39929E-13
 -1      1619 1.37774E-02 1.27369E-03-1.37319E-13
 -1      1620 1.38578E-02 1.26257E-03-1.37274E-13
 -1      1621 1.41512E-02 7.68964E-04-1.45153E-13
 -1      1622 1.40191E-02 9.40710E-04-1.42542E-13
 -1      1623 1.41124E-02 9.27429E-04-1.42500E-13
 -1      1624 1.43338E-02 5.85550E-04-1.47944E-13
 -1      1625 1.46967E-02 4.49603E-04-1.48819E-13
 -1      1626 1.45593E-02 5.01809E-04-1.48559E-13
 -1      1627 1.50065E-02 3.29558E-04-1.49361E-13
 -1      1628 1.48440E-02 3.91279E-04-1.49087E-13
 -1      1629 1.46420E-02 5.71239E-04-1.46694E-13
 -1      1630 1.53992E-02 2.10067E-04-1.49906E-13
 -1      1631 1.51892E-02 2.67874E-04-1.49633E-13
 -1      1632 1.49628E-02 4.59994E-04-1.47231E-13
 -1      1633 1.59112E-02 1.25181E-04-1.50478E-13
 -1      1634 1.56422E-02 1.59635E-04-1.50190E-13
 -1      1635 1.53874E-02 3.48998E-04-1.47778E-13
 -1      1636 1.64387E-02 1.23309E-04-1.51023E-13
 -1      1637 1.61780E-02 1.11605E-04-1.50751E-13
 -1      1638 1.59157E-02 2.65052E-04-1.48321E-13
 -1      1639 1.68412E-02 2.25619E-04-1.51581E-13
 -1      1640 1.66711E-02 1.62384E-04-1.51305E-13
 -1      1641 1.64547E-02 2.41691E-04-1.48859E-13
 -1      1642 1.69188E-02 3.73689E-04-1.52057E-13
 -1      1643 1.69206E-02 2.98011E-04-1.51820E-13
 -1      1644 1.67991E-02 2.91047E-04-1.49360E-13
 -1      1645 1.67298E-02 4.89662E-04-1.52443E-13
 -1      1646 1.68521E-02 4.37307E-04-1.52254E-13
 -1      1647 1.68193E-02 3.66022E-04-1.49785E-13
 -1      1648 1.63473E-02 5.52398E-04-1.52826E-13
 -1      1649 1.65553E-02 5.30395E-04-1.52637E-13
 -1      1650 1.65734E-02 4.18509E-04-1.50170E-13
 -1      1651 1.58616E-02 5.37364E-04-1.53207E-13
 -1      1652 1.61064E-02 5.54572E-04-1.53020E-13
 -1      1653 1.61343E-02 4.20904E-04-1.50553E-13
 -1      1654 1.53668E-02 4.42681E-04-1.53588E-13
 -1      1655 1.56031E-02 4.97593E-04-1.53405E-13
 -1      1656 1.56092E-02 3.61060E-04-1.50944E-13
 -1      1657 1.49563E-02 2.92200E-04-1.53961E-13
 -1      1658 1.51447E-02 3.70847E-04-1.53777E-13
 -1      1659 1.51155E-02 2.48886E-04-1.51338E-13
 -1      1660 1.46658E-02 1.27043E-04-1.54329E-13
 -1      1661 1.47969E-02 2.09157E-04-1.54146E-13
 -1      1662 1.47359E-02 1.10811E-04-1.51723E-13
 -1      1663 1.44677E-02-2.33586E-05-1.54708E-13
 -1      1664 1.45584E-02 4.94168E-05-1.54517E-13
 -1      1665 1.44769E-02-2.75557E-05-1.52102E-13
 -1      1666 1.43124E-02-1.53902E-04-1.55101E-13
 -1      1667 1.43866E-02-9.17228E-05-1.54903E-13
 -1      1668 1.42957E-02-1.55301E-04-1.52484E-13
 -1      1669 1.41413E-02-2.76811E-04-1.54671E-13
 -1      1670 1.42130E-02-2.26546E-04-1.54476E-13
 -1      1671 1.41221E-02-2.88610E-04-1.52050E-13
 -1      1672 1.39293E-02-4.27183E-04-1.50786E-13
 -1      1673 1.66147E-02 4.20691E-04-1.39997E-13
 -1      1674 1.66722E-02 3.56111E-04-1.40270E-13
 -1      1675 1.63277E-02 5.90054E-04-1.38866E-13
 -1      1676 1.64828E-02 5.11196E-04-1.39384E-13
 -1      1677 1.58647E-02 7.84982E-04-1.37431E-13
 -1      1678 1.60929E-02 6.82823E-04-1.38218E-13
 -1      1679 1.53591E-02 1.03094E-03-1.35363E-13
 -1      1680 1.55985E-02 9.23234E-04-1.36300E-13
 -1      1681 1.48103E-02 1.25627E-03-1.33078E-13
 -1      1682 1.50567E-02 1.14900E-03-1.34214E-13
 -1      1683 1.42851E-02 1.45304E-03-1.30286E-13
 -1      1684 1.45286E-02 1.37187E-03-1.31596E-13
 -1      1685 1.38160E-02 1.54492E-03-1.27528E-13
 -1      1686 1.40251E-02 1.51606E-03-1.28767E-13
 -1      1687 1.33557E-02 1.52845E-03-1.24688E-13
 -1      1688 1.35665E-02 1.55339E-03-1.26007E-13
 -1      1689 1.29005E-02 1.39269E-03-1.21864E-13
 -1      1690 1.31083E-02 1.46902E-03-1.23120E-13
 -1      1691 1.24284E-02 1.17619E-03-1.19396E-13
 -1      1692 1.26399E-02 1.28278E-03-1.20508E-13
 -1      1693 1.19945E-02 9.45604E-04-1.17394E-13
 -1      1694 1.21854E-02 1.05230E-03-1.18269E-13
 -1      1695 1.15799E-02 6.93998E-04-1.15530E-13
 -1      1696 1.17750E-02 8.06727E-04-1.16307E-13
 -1      1697 1.12490E-02 5.06162E-04-1.14480E-13
 -1      1698 1.13810E-02 5.89625E-04-1.14929E-13
 -1      1699 1.10538E-02 3.46255E-04-1.13777E-13
 -1      1700 1.11290E-02 4.10705E-04-1.13968E-13
 -1      1701 1.09990E-02 2.26851E-04-1.13908E-13
 -1      1702 1.10071E-02 2.80912E-04-1.13840E-13
 -1      1703 1.10809E-02 1.05221E-04-1.14391E-13
 -1      1704 1.10252E-02 1.62680E-04-1.14071E-13
 -1      1705 1.13192E-02-4.65225E-05-1.15544E-13
 -1      1706 1.11888E-02 2.98433E-05-1.14899E-13
 -1      1707 1.16856E-02-2.26972E-04-1.17232E-13
 -1      1708 1.15098E-02-1.36555E-04-1.16349E-13
 -1      1709 1.20855E-02-4.44738E-04-1.19571E-13
 -1      1710 1.18930E-02-3.50449E-04-1.18533E-13
 -1      1711 1.25044E-02-6.36062E-04-1.22039E-13
 -1      1712 1.23084E-02-5.52309E-04-1.20894E-13
 -1      1713 1.29379E-02-7.83515E-04-1.24668E-13
 -1      1714 1.27407E-02-7.21718E-04-1.23425E-13
 -1      1715 1.33626E-02-8.59040E-04-1.27397E-13
 -1      1716 1.31685E-02-8.34584E-04-1.26145E-13
 -1      1717 1.38324E-02-8.42512E-04-1.30349E-13
 -1      1718 1.36087E-02-8.64595E-04-1.28972E-13
 -1      1719 1.43446E-02-7.22340E-04-1.33065E-13
 -1      1720 1.41104E-02-7.87343E-04-1.31846E-13
 -1      1721 1.48822E-02-5.04926E-04-1.35802E-13
 -1      1722 1.46143E-02-6.14041E-04-1.34648E-13
 -1      1723 1.54775E-02-2.76369E-04-1.37711E-13
 -1      1724 1.52192E-02-3.85522E-04-1.36855E-13
 -1      1725 1.60229E-02-5.67202E-05-1.39139E-13
 -1      1726 1.57802E-02-1.58674E-04-1.38517E-13
 -1      1727 1.64465E-02 1.32556E-04-1.40011E-13
 -1      1728 1.62715E-02 5.05145E-05-1.39691E-13
 -1      1729 1.66615E-02 2.81591E-04-1.40261E-13
 -1      1730 1.65924E-02 2.16142E-04-1.40222E-13
 -1      1731 1.51071E-02 1.03029E-03-1.35387E-13
 -1      1732 1.56628E-02 7.66915E-04-1.37672E-13
 -1      1733 1.44293E-02 5.67181E-04-1.47900E-13
 -1      1734 1.43748E-02 6.89580E-04-1.45768E-13
 -1      1735 1.65532E-02 4.11795E-04-1.40728E-13
 -1      1736 1.61725E-02 5.54958E-04-1.39460E-13
 -1      1737 1.66842E-02 3.24705E-04-1.41344E-13
 -1      1738 1.45736E-02 1.29212E-03-1.32753E-13
 -1      1739 1.40989E-02 1.49624E-03-1.29751E-13
 -1      1740 1.36658E-02 1.58007E-03-1.26714E-13
 -1      1741 1.32600E-02 1.52544E-03-1.23627E-13
 -1      1742 1.28387E-02 1.33854E-03-1.20714E-13
 -1      1743 1.23874E-02 1.08464E-03-1.18242E-13
 -1      1744 1.19423E-02 8.13629E-04-1.16039E-13
 -1      1745 1.15241E-02 5.78285E-04-1.14365E-13
 -1      1746 1.11988E-02 4.02978E-04-1.13261E-13
 -1      1747 1.10233E-02 2.91086E-04-1.12818E-13
 -1      1748 1.10020E-02 2.03323E-04-1.13041E-13
 -1      1749 1.11403E-02 1.06558E-04-1.13701E-13
 -1      1750 1.14439E-02-3.16974E-05-1.15000E-13
 -1      1751 1.18428E-02-2.32145E-04-1.17090E-13
 -1      1752 1.22617E-02-4.67415E-04-1.19706E-13
 -1      1753 1.26829E-02-6.77144E-04-1.22411E-13
 -1      1754 1.30836E-02-8.30522E-04-1.25271E-13
 -1      1755 1.34814E-02-8.92513E-04-1.28324E-13
 -1      1756 1.39097E-02-8.32707E-04-1.31402E-13
 -1      1757 1.43969E-02-6.50410E-04-1.34490E-13
 -1      1758 1.49397E-02-3.88774E-04-1.37141E-13
 -1      1759 1.55535E-02-1.34012E-04-1.39008E-13
 -1      1760 1.61099E-02 8.01591E-05-1.40370E-13
 -1      1761 1.65194E-02 2.28846E-04-1.41130E-13
 -1      1762 2.85268E-04-1.76214E-04-5.26922E-17
 -1      1763 3.32183E-04-1.16734E-04-1.75058E-16
 -1      1764 3.36340E-04-1.32981E-04-1.64202E-16
 -1      1765 3.42238E-04-1.51971E-04-1.50989E-16
 -1      1766 3.51796E-04-1.73976E-04-1.32151E-16
 -1      1767 4.58361E-04-1.88040E-04-2.38904E-16
 -1      1768 3.24543E-04-6.53474E-05-1.95983E-16
 -1      1769 3.25695E-04-7.66338E-05-1.93042E-16
 -1      1770 3.23050E-04-4.38630E-05-1.98599E-16
 -1      1771 3.23705E-04-5.43474E-05-1.97691E-16
 -1      1772 4.36479E-04-7.92541E-05-2.91054E-16
 -1      1773 3.22263E-04-2.37561E-05-1.98246E-16
 -1      1774 3.22596E-04-3.36635E-05-1.98775E-16
 -1      1775 4.34480E-04-5.12888E-05-2.93602E-16
 -1      1776 3.21968E-04-4.33434E-06-1.95644E-16
 -1      1777 3.22065E-04-1.39801E-05-1.97135E-16
 -1      1778 4.33456E-04-2.49086E-05-2.92165E-16
 -1      1779 3.22091E-04 1.49704E-05-1.90521E-16
 -1      1780 3.21976E-04 5.31454E-06-1.93598E-16
 -1      1781 4.33157E-04 7.56682E-07-2.87395E-16
 -1      1782 3.22660E-04 3.47067E-05-1.82878E-16
 -1      1783 3.22307E-04 2.47669E-05-1.87079E-16
 -1      1784 4.33514E-04 2.64504E-05-2.79236E-16
 -1      1785 3.23794E-04 5.51332E-05-1.72063E-16
 -1      1786 3.23128E-04 4.47758E-05-1.78080E-16
 -1      1787 4.34595E-04 5.26907E-05-2.67310E-16
 -1      1788 3.25858E-04 7.77760E-05-1.57535E-16
 -1      1789 3.24656E-04 6.61989E-05-1.65625E-16
 -1      1790 4.36658E-04 8.05574E-05-2.51210E-16
 -1      1791 3.29555E-04 1.03609E-04-1.37179E-16
 -1      1792 3.27403E-04 9.02608E-05-1.48481E-16
 -1      1793 4.40317E-04 1.11517E-04-2.29268E-16
 -1      1794 3.36599E-04 1.35068E-04-1.08014E-16
 -1      1795 3.32412E-04 1.18568E-04-1.24250E-16
 -1      1796 4.46800E-04 1.47282E-04-1.98639E-16
 -1      1797 3.52333E-04 1.77566E-04-6.57569E-17
 -1      1798 3.42835E-04 1.54718E-04-8.93383E-17
 -1      1799 4.59348E-04 1.91404E-04-1.55678E-16
 -1      1800 4.07739E-04 2.33653E-04-3.39762E-17
 -1      1801 3.78126E-04 2.02626E-04-5.40204E-17
 -1      1802 4.95902E-04 2.43947E-04-1.15644E-16
 -1      1803 5.58604E-04 3.02459E-04-8.10983E-17
 -1      1804 3.40056E-04-1.90881E-04-9.49626E-17
 -1      1805 8.53665E-04 4.07055E-04-2.66510E-16
 -1      1806 7.07240E-04 3.59322E-04-1.58781E-16
 -1      1807 6.73470E-04 3.28752E-04-1.81048E-16
 -1      1808 4.59000E-04-2.36676E-04-1.71968E-16
 -1      1809 8.07318E-04-3.74048E-04-4.66898E-16
 -1      1810 9.52606E-04-4.15226E-04-6.55875E-16
 -1      1811 1.09547E-03-4.49912E-04-8.80264E-16
 -1      1812 1.23716E-03-4.78806E-04-1.14040E-15
 -1      1813 1.00403E-03-3.97837E-04-8.07324E-16
 -1      1814 1.37759E-03-5.03291E-04-1.43622E-15
 -1      1815 1.51730E-03-5.23666E-04-1.76789E-15
 -1      1816 1.28975E-03-4.55798E-04-1.33454E-15
 -1      1817 1.65650E-03-5.40851E-04-2.13516E-15
 -1      1818 1.79537E-03-5.55086E-04-2.53806E-15
 -1      1819 1.57220E-03-4.96749E-04-2.00252E-15
 -1      1820 1.93412E-03-5.66979E-04-2.97654E-15
 -1      1821 2.07281E-03-5.76733E-04-3.45034E-15
 -1      1822 1.85287E-03-5.25312E-04-2.81151E-15
 -1      1823 2.21159E-03-5.84769E-04-3.95964E-15
 -1      1824 2.35047E-03-5.91256E-04-4.50441E-15
 -1      1825 2.13282E-03-5.44830E-04-3.76098E-15
 -1      1826 2.48955E-03-5.96494E-04-5.08415E-15
 -1      1827 2.62881E-03-6.00622E-04-5.69873E-15
 -1      1828 2.41275E-03-5.57762E-04-4.85052E-15
 -1      1829 2.76831E-03-6.03855E-04-6.34757E-15
 -1      1830 2.90802E-03-6.06304E-04-7.03054E-15
 -1      1831 2.69303E-03-5.65948E-04-6.07804E-15
 -1      1832 3.04800E-03-6.08125E-04-7.74798E-15
 -1      1833 3.18818E-03-6.09404E-04-8.49899E-15
 -1      1834 2.97389E-03-5.70765E-04-7.44287E-15
 -1      1835 3.32862E-03-6.10253E-04-9.28383E-15
 -1      1836 3.46926E-03-6.10739E-04-1.01028E-14
 -1      1837 3.25541E-03-5.73243E-04-8.94296E-15
 -1      1838 3.61013E-03-6.10939E-04-1.09554E-14
 -1      1839 3.75117E-03-6.10902E-04-1.18419E-14
 -1      1840 3.53758E-03-5.74138E-04-1.05785E-14
 -1      1841 3.89242E-03-6.10681E-04-1.27614E-14
 -1      1842 4.03382E-03-6.10314E-04-1.37154E-14
 -1      1843 3.82036E-03-5.73997E-04-1.23480E-14
 -1      1844 4.17539E-03-6.09832E-04-1.47031E-14
 -1      1845 4.31709E-03-6.09262E-04-1.57240E-14
 -1      1846 4.10370E-03-5.73204E-04-1.42527E-14
 -1      1847 4.45893E-03-6.08623E-04-1.67788E-14
 -1      1848 4.60088E-03-6.07933E-04-1.78673E-14
 -1      1849 4.38750E-03-5.72016E-04-1.62917E-14
 -1      1850 4.74295E-03-6.07199E-04-1.89906E-14
 -1      1851 4.88510E-03-6.06432E-04-2.01458E-14
 -1      1852 4.67171E-03-5.70594E-04-1.84651E-14
 -1      1853 5.02735E-03-6.05633E-04-2.13334E-14
 -1      1854 5.16968E-03-6.04807E-04-2.25546E-14
 -1      1855 4.95626E-03-5.69028E-04-2.07715E-14
 -1      1856 5.31208E-03-6.03947E-04-2.38089E-14
 -1      1857 5.45455E-03-6.03057E-04-2.50946E-14
 -1      1858 5.24109E-03-5.67349E-04-2.32089E-14
 -1      1859 5.59708E-03-6.02124E-04-2.64144E-14
 -1      1860 5.73968E-03-6.01148E-04-2.77682E-14
 -1      1861 5.52616E-03-5.65544E-04-2.57776E-14
 -1      1862 5.88234E-03-6.00114E-04-2.91543E-14
 -1      1863 6.02507E-03-5.99019E-04-3.05732E-14
 -1      1864 5.81147E-03-5.63570E-04-2.84786E-14
 -1      1865 6.16786E-03-5.97845E-04-3.20271E-14
 -1      1866 6.31073E-03-5.96588E-04-3.35153E-14
 -1      1867 6.09700E-03-5.61357E-04-3.13146E-14
 -1      1868 6.45367E-03-5.95229E-04-3.50366E-14
 -1      1869 6.59671E-03-5.93764E-04-3.65927E-14
 -1      1870 6.38279E-03-5.58817E-04-3.42834E-14
 -1      1871 6.73985E-03-5.92171E-04-3.81829E-14
 -1      1872 6.88310E-03-5.90448E-04-3.98053E-14
 -1      1873 6.66888E-03-5.55853E-04-3.73903E-14
 -1      1874 7.02649E-03-5.88576E-04-4.14614E-14
 -1      1875 7.17003E-03-5.86553E-04-4.31496E-14
 -1      1876 6.95535E-03-5.52364E-04-4.06296E-14
 -1      1877 7.31375E-03-5.84363E-04-4.48679E-14
 -1      1878 7.45768E-03-5.82012E-04-4.66158E-14
 -1      1879 7.24233E-03-5.48260E-04-4.39978E-14
 -1      1880 7.60183E-03-5.79488E-04-4.83963E-14
 -1      1881 7.74626E-03-5.76805E-04-5.02053E-14
 -1      1882 7.52997E-03-5.43479E-04-4.74898E-14
 -1      1883 7.89098E-03-5.73962E-04-5.20434E-14
 -1      1884 8.03606E-03-5.70988E-04-5.39121E-14
 -1      1885 7.81847E-03-5.38009E-04-5.11016E-14
 -1      1886 8.18151E-03-5.67898E-04-5.58101E-14
 -1      1887 8.32742E-03-5.64738E-04-5.77379E-14
 -1      1888 8.10806E-03-5.31922E-04-5.48322E-14
 -1      1889 8.47379E-03-5.61553E-04-5.96940E-14
 -1      1890 8.62074E-03-5.58411E-04-6.16778E-14
 -1      1891 8.39905E-03-5.25424E-04-5.86801E-14
 -1      1892 8.76824E-03-5.55397E-04-6.36903E-14
 -1      1893 8.91644E-03-5.52611E-04-6.57293E-14
 -1      1894 8.69177E-03-5.18910E-04-6.26416E-14
 -1      1895 9.06531E-03-5.50196E-04-6.77974E-14
 -1      1896 9.21497E-03-5.48289E-04-6.98907E-14
 -1      1897 8.98660E-03-5.13048E-04-6.67162E-14
 -1      1898 9.36541E-03-5.47106E-04-7.20091E-14
 -1      1899 9.51674E-03-5.46833E-04-7.41566E-14
 -1      1900 9.28393E-03-5.08869E-04-7.08960E-14
 -1      1901 9.66894E-03-5.47776E-04-7.63314E-14
 -1      1902 9.82205E-03-5.50172E-04-7.85312E-14
 -1      1903 9.58415E-03-5.07869E-04-7.51812E-14
 -1      1904 9.97610E-03-5.54425E-04-8.07564E-14
 -1      1905 1.01310E-02-5.60822E-04-8.30061E-14
 -1      1906 9.88759E-03-5.12106E-04-7.95709E-14
 -1      1907 1.02868E-02-5.69855E-04-8.52820E-14
 -1      1908 1.04433E-02-5.81841E-04-8.75805E-14
 -1      1909 1.01945E-02-5.24236E-04-8.40637E-14
 -1      1910 1.06006E-02-5.97303E-04-8.99025E-14
 -1      1911 1.07583E-02-6.16545E-04-9.22455E-14
 -1      1912 1.05048E-02-5.47447E-04-8.86524E-14
 -1      1913 1.09164E-02-6.40007E-04-9.46084E-14
 -1      1914 1.10742E-02-6.67874E-04-9.69949E-14
 -1      1915 1.08182E-02-5.85140E-04-9.33304E-14
 -1      1916 1.12321E-02-7.00302E-04-9.94035E-14
 -1      1917 1.13888E-02-7.37186E-04-1.01832E-13
 -1      1918 1.11337E-02-6.40218E-04-9.80948E-14
 -1      1919 1.15447E-02-7.78119E-04-1.04281E-13
 -1      1920 1.16984E-02-8.22459E-04-1.06752E-13
 -1      1921 1.14494E-02-7.13778E-04-1.02943E-13
 -1      1922 1.18503E-02-8.68954E-04-1.09245E-13
 -1      1923 1.19990E-02-9.16180E-04-1.11761E-13
 -1      1924 1.17622E-02-8.03148E-04-1.07880E-13
 -1      1925 1.21446E-02-9.61906E-04-1.14297E-13
 -1      1926 1.22863E-02-1.00387E-03-1.16854E-13
 -1      1927 1.20678E-02-8.99588E-04-1.12901E-13
 -1      1928 1.24240E-02-1.03909E-03-1.19427E-13
 -1      1929 1.25580E-02-1.06484E-03-1.22019E-13
 -1      1930 1.23617E-02-9.86783E-04-1.18005E-13
 -1      1931 1.26878E-02-1.07813E-03-1.24633E-13
 -1      1932 1.28151E-02-1.07666E-03-1.27259E-13
 -1      1933 1.26408E-02-1.04205E-03-1.23183E-13
 -1      1934 1.29393E-02-1.05855E-03-1.29899E-13
 -1      1935 1.30630E-02-1.02275E-03-1.32552E-13
 -1      1936 1.29062E-02-1.04203E-03-1.28431E-13
 -1      1937 1.31855E-02-9.69366E-04-1.35217E-13
 -1      1938 1.33096E-02-8.99408E-04-1.37891E-13
 -1      1939 1.31632E-02-9.71326E-04-1.33729E-13
 -1      1940 1.34346E-02-8.15099E-04-1.40570E-13
 -1      1941 1.35626E-02-7.19104E-04-1.43256E-13
 -1      1942 1.34199E-02-8.29882E-04-1.39070E-13
 -1      1943 1.36763E-02-6.28310E-04-1.45672E-13
 -1      1944 1.38097E-02-5.21336E-04-1.48365E-13
 -1      1945 1.39034E-02-4.55406E-04-1.49000E-13
 -1      1946 1.36661E-02-6.47396E-04-1.44165E-13
 -1      1947 1.13876E-03 4.80009E-04-5.74966E-16
 -1      1948 9.96969E-04 4.46761E-04-4.04651E-16
 -1      1949 9.64576E-04 4.17304E-04-4.31350E-16
 -1      1950 1.41793E-03 5.31491E-04-1.01256E-15
 -1      1951 1.27875E-03 5.08040E-04-7.77224E-16
 -1      1952 1.24910E-03 4.79899E-04-8.06606E-16
 -1      1953 1.69437E-03 5.67798E-04-1.58254E-15
 -1      1954 1.55631E-03 5.51296E-04-1.28074E-15
 -1      1955 1.52941E-03 5.24119E-04-1.31182E-15
 -1      1956 1.97000E-03 5.93114E-04-2.28695E-15
 -1      1957 1.83219E-03 5.81660E-04-1.91782E-15
 -1      1958 1.80771E-03 5.55119E-04-1.94954E-15
 -1      1959 2.24592E-03 6.10398E-04-3.12569E-15
 -1      1960 2.10788E-03 6.02634E-04-2.68936E-15
 -1      1961 2.08539E-03 5.76497E-04-2.72083E-15
 -1      1962 2.52266E-03 6.21834E-04-4.10053E-15
 -1      1963 2.38417E-03 6.16753E-04-3.59603E-15
 -1      1964 2.36328E-03 5.90860E-04-3.62727E-15
 -1      1965 2.80049E-03 6.29057E-04-5.21324E-15
 -1      1966 2.66143E-03 6.25901E-04-4.63945E-15
 -1      1967 2.64181E-03 6.00147E-04-4.66954E-15
 -1      1968 3.07947E-03 6.33296E-04-6.46670E-15
 -1      1969 2.93984E-03 6.31497E-04-5.82202E-15
 -1      1970 2.92120E-03 6.05811E-04-5.85025E-15
 -1      1971 3.35957E-03 6.35468E-04-7.86021E-15
 -1      1972 3.21939E-03 6.34602E-04-7.14588E-15
 -1      1973 3.20151E-03 6.08939E-04-7.17114E-15
 -1      1974 3.64069E-03 6.36244E-04-9.39482E-15
 -1      1975 3.50001E-03 6.36003E-04-8.61004E-15
 -1      1976 3.48270E-03 6.10334E-04-8.63231E-15
 -1      1977 3.92269E-03 6.36110E-04-1.10700E-14
 -1      1978 3.78159E-03 6.36272E-04-1.02147E-14
 -1      1979 3.76471E-03 6.10582E-04-1.02332E-14
 -1      1980 4.20546E-03 6.35400E-04-1.28851E-14
 -1      1981 4.06399E-03 6.35814E-04-1.19603E-14
 -1      1982 4.04743E-03 6.10096E-04-1.19744E-14
 -1      1983 4.48885E-03 6.34341E-04-1.48390E-14
 -1      1984 4.34709E-03 6.34907E-04-1.38447E-14
 -1      1985 4.33076E-03 6.09160E-04-1.38551E-14
 -1      1986 4.77276E-03 6.33068E-04-1.69313E-14
 -1      1987 4.63075E-03 6.33727E-04-1.58682E-14
 -1      1988 4.61460E-03 6.07953E-04-1.58730E-14
 -1      1989 5.05708E-03 6.31650E-04-1.91564E-14
 -1      1990 4.91488E-03 6.32376E-04-1.80274E-14
 -1      1991 4.89885E-03 6.06579E-04-1.80282E-14
 -1      1992 5.34174E-03 6.30107E-04-2.15137E-14
 -1      1993 5.19937E-03 6.30895E-04-2.03187E-14
 -1      1994 5.18345E-03 6.05081E-04-2.03144E-14
 -1      1995 5.62669E-03 6.28417E-04-2.40008E-14
 -1      1996 5.48418E-03 6.29283E-04-2.27410E-14
 -1      1997 5.46834E-03 6.03456E-04-2.27316E-14
 -1      1998 5.91190E-03 6.26526E-04-2.66165E-14
 -1      1999 5.76926E-03 6.27500E-04-2.52928E-14
 -1      2000 5.75349E-03 6.01667E-04-2.52787E-14
 -1      2001 6.19738E-03 6.24359E-04-2.93557E-14
 -1      2002 6.05461E-03 6.25481E-04-2.79706E-14
 -1      2003 6.03889E-03 5.99647E-04-2.79524E-14
 -1      2004 6.48317E-03 6.21819E-04-3.22184E-14
 -1      2005 6.34023E-03 6.23140E-04-3.07720E-14
 -1      2006 6.32456E-03 5.97307E-04-3.07499E-14
 -1      2007 6.76935E-03 6.18798E-04-3.52045E-14
 -1      2008 6.62621E-03 6.20373E-04-3.36961E-14
 -1      2009 6.61055E-03 5.94542E-04-3.36704E-14
 -1      2010 7.05605E-03 6.15185E-04-3.83139E-14
 -1      2011 6.91262E-03 6.17069E-04-3.67428E-14
 -1      2012 6.89697E-03 5.91238E-04-3.67129E-14
 -1      2013 7.34344E-03 6.10869E-04-4.15455E-14
 -1      2014 7.19964E-03 6.13116E-04-3.99142E-14
 -1      2015 7.18394E-03 5.87278E-04-3.98797E-14
 -1      2016 7.63179E-03 6.05761E-04-4.49045E-14
 -1      2017 7.48748E-03 6.08412E-04-4.32100E-14
 -1      2018 7.47166E-03 5.82555E-04-4.31717E-14
 -1      2019 7.92143E-03 5.99813E-04-4.83816E-14
 -1      2020 7.77642E-03 6.02885E-04-4.66283E-14
 -1      2021 7.76038E-03 5.76988E-04-4.65860E-14
 -1      2022 8.21279E-03 5.93046E-04-5.19842E-14
 -1      2023 8.06686E-03 5.96516E-04-5.01671E-14
 -1      2024 8.05043E-03 5.70546E-04-5.01218E-14
 -1      2025 8.50642E-03 5.85603E-04-5.57019E-14
 -1      2026 8.35927E-03 5.89382E-04-5.38286E-14
 -1      2027 8.34224E-03 5.63291E-04-5.37784E-14
 -1      2028 8.80299E-03 5.77815E-04-5.95377E-14
 -1      2029 8.65428E-03 5.81707E-04-5.76052E-14
 -1      2030 8.63633E-03 5.55426E-04-5.75528E-14
 -1      2031 9.10333E-03 5.70306E-04-6.34807E-14
 -1      2032 8.95261E-03 5.73956E-04-6.14953E-14
 -1      2033 8.93333E-03 5.47387E-04-6.14385E-14
 -1      2034 9.40838E-03 5.64141E-04-6.75324E-14
 -1      2035 9.25518E-03 5.66951E-04-6.54941E-14
 -1      2036 9.23398E-03 5.39954E-04-6.54333E-14
 -1      2037 9.71922E-03 5.61043E-04-7.16957E-14
 -1      2038 9.56298E-03 5.62056E-04-6.95989E-14
 -1      2039 9.53912E-03 5.34436E-04-6.95381E-14
 -1      2040 1.00370E-02 5.63687E-04-7.59773E-14
 -1      2041 9.87712E-03 5.61429E-04-7.38220E-14
 -1      2042 9.84969E-03 5.32912E-04-7.37565E-14
 -1      2043 1.03626E-02 5.76090E-04-8.03738E-14
 -1      2044 1.01987E-02 5.68367E-04-7.81614E-14
 -1      2045 1.01666E-02 5.38571E-04-7.80910E-14
 -1      2046 1.06968E-02 6.04031E-04-8.48852E-14
 -1      2047 1.05286E-02 5.87721E-04-8.26144E-14
 -1      2048 1.04908E-02 5.56120E-04-8.25371E-14
 -1      2049 1.10396E-02 6.55338E-04-8.94993E-14
 -1      2050 1.08672E-02 6.26282E-04-8.71805E-14
 -1      2051 1.08228E-02 5.92194E-04-8.70926E-14
 -1      2052 1.13897E-02 7.39571E-04-9.42116E-14
 -1      2053 1.12140E-02 6.92848E-04-9.18450E-14
 -1      2054 1.11629E-02 6.55492E-04-9.17495E-14
 -1      2055 1.17438E-02 8.66205E-04-9.90104E-14
 -1      2056 1.15668E-02 7.97297E-04-9.66000E-14
 -1      2057 1.15103E-02 7.56053E-04-9.64991E-14
 -1      2058 1.20957E-02 1.04000E-03-1.03893E-13
 -1      2059 1.19209E-02 9.47540E-04-1.01441E-13
 -1      2060 1.18626E-02 9.02569E-04-1.01332E-13
 -1      2061 1.24358E-02 1.25266E-03-1.08848E-13
 -1      2062 1.22684E-02 1.14301E-03-1.06361E-13
 -1      2063 1.22141E-02 1.09631E-03-1.06247E-13
 -1      2064 1.27525E-02 1.47315E-03-1.13878E-13
 -1      2065 1.25980E-02 1.36494E-03-1.11354E-13
 -1      2066 1.25551E-02 1.32099E-03-1.11234E-13
 -1      2067 1.30377E-02 1.64628E-03-1.18974E-13
 -1      2068 1.28991E-02 1.56945E-03-1.16419E-13
 -1      2069 1.28735E-02 1.53402E-03-1.16295E-13
 -1      2070 1.32939E-02 1.70966E-03-1.24125E-13
 -1      2071 1.31679E-02 1.69439E-03-1.21543E-13
 -1      2072 1.31624E-02 1.67108E-03-1.21416E-13
 -1      2073 1.35369E-02 1.62581E-03-1.29314E-13
 -1      2074 1.34151E-02 1.68580E-03-1.26714E-13
 -1      2075 1.34294E-02 1.67304E-03-1.26584E-13
 -1      2076 1.37840E-02 1.40557E-03-1.34531E-13
 -1      2077 1.36586E-02 1.53014E-03-1.31921E-13
 -1      2078 1.36919E-02 1.52282E-03-1.31787E-13
 -1      2079 1.40437E-02 1.09398E-03-1.39754E-13
 -1      2080 1.39119E-02 1.25791E-03-1.37142E-13
 -1      2081 1.39623E-02 1.25205E-03-1.37009E-13
 -1      2082 1.42756E-02 8.05456E-04-1.44068E-13
 -1      2083 1.41386E-02 9.80581E-04-1.41456E-13
 -1      2084 1.41995E-02 9.73970E-04-1.41324E-13
 -1      2085 1.44002E-02 7.40006E-04-1.44727E-13
 -1      2086 1.53677E-02 4.68826E-04-1.45644E-13
 -1      2087 1.51226E-02 5.28042E-04-1.45371E-13
 -1      2088 1.49170E-02 5.90290E-04-1.45103E-13
 -1      2089 1.47394E-02 6.45666E-04-1.44836E-13
 -1      2090 1.48653E-02 7.09840E-04-1.42969E-13
 -1      2091 1.46333E-02 6.69513E-04-1.44915E-13
 -1      2092 1.44896E-02 7.21097E-04-1.44649E-13
 -1      2093 1.43851E-02 8.40018E-04-1.42945E-13
 -1      2094 1.45718E-02 7.98462E-04-1.42786E-13
 -1      2095 1.59093E-02 3.60370E-04-1.46159E-13
 -1      2096 1.56264E-02 4.08359E-04-1.45901E-13
 -1      2097 1.53272E-02 5.67361E-04-1.43487E-13
 -1      2098 1.67787E-02 3.14279E-04-1.47639E-13
 -1      2099 1.66803E-02 2.98240E-04-1.47414E-13
 -1      2100 1.67293E-02 3.58302E-04-1.48019E-13
 -1      2101 1.67894E-02 3.42111E-04-1.47830E-13
 -1      2102 1.67447E-02 3.27503E-04-1.45881E-13
 -1      2103 1.64082E-02 3.73301E-04-1.48401E-13
 -1      2104 1.65958E-02 3.74688E-04-1.48213E-13
 -1      2105 1.66194E-02 3.44322E-04-1.46256E-13
 -1      2106 1.59080E-02 3.29683E-04-1.48790E-13
 -1      2107 1.61671E-02 3.58672E-04-1.48599E-13
 -1      2108 1.62059E-02 3.15943E-04-1.46644E-13
 -1      2109 1.53634E-02 2.30057E-04-1.49191E-13
 -1      2110 1.56317E-02 2.82666E-04-1.48992E-13
 -1      2111 1.48872E-02 9.96203E-05-1.49598E-13
 -1      2112 1.51081E-02 1.63554E-04-1.49398E-13
 -1      2113 1.51011E-02 9.06292E-05-1.47454E-13
 -1      2114 1.45467E-02-3.23360E-05-1.49991E-13
 -1      2115 1.47009E-02 3.16085E-05-1.49795E-13
 -1      2116 1.46670E-02-4.65989E-05-1.47865E-13
 -1      2117 1.43197E-02-1.54036E-04-1.50371E-13
 -1      2118 1.44226E-02-9.49187E-05-1.50181E-13
 -1      2119 1.43702E-02-1.67588E-04-1.48258E-13
 -1      2120 1.41541E-02-2.67277E-04-1.50756E-13
 -1      2121 1.42312E-02-2.12144E-04-1.50563E-13
 -1      2122 1.41682E-02-2.75800E-04-1.48640E-13
 -1      2123 1.60405E-02 5.14060E-04-1.40442E-13
 -1      2124 1.62727E-02 4.47177E-04-1.41099E-13
 -1      2125 1.67107E-02 3.25365E-04-1.43702E-13
 -1      2126 1.66790E-02 3.23148E-04-1.43705E-13
 -1      2127 1.54560E-02 7.77202E-04-1.37871E-13
 -1      2128 1.57192E-02 6.51675E-04-1.39009E-13
 -1      2129 1.49189E-02 1.03817E-03-1.35607E-13
 -1      2130 1.51830E-02 9.04859E-04-1.36759E-13
 -1      2131 3.27170E-04-8.89254E-05-1.88732E-16
 -1      2132 3.29259E-04-1.02094E-04-1.82756E-16
 -1      2133 4.46303E-04-1.45052E-04-2.66687E-16
 -1      2134 4.39992E-04-1.09889E-04-2.82787E-16
 -1      2135 1.39359E-02 1.54308E-03-1.29199E-13
 -1      2136 1.41218E-02 1.46235E-03-1.30717E-13
 -1      2137 1.35863E-02 1.60395E-03-1.26154E-13
 -1      2138 1.37552E-02 1.58957E-03-1.27673E-13
 -1      2139 1.38204E-02 1.57057E-03-1.28637E-13
 -1      2140 1.31964E-02 1.51210E-03-1.22570E-13
 -1      2141 1.33649E-02 1.57681E-03-1.24131E-13
 -1      2142 1.27677E-02 1.26729E-03-1.19358E-13
 -1      2143 1.29603E-02 1.38980E-03-1.20703E-13
 -1      2144 1.23316E-02 9.88801E-04-1.16923E-13
 -1      2145 1.25368E-02 1.12373E-03-1.18040E-13
 -1      2146 1.18988E-02 7.13378E-04-1.14680E-13
 -1      2147 1.21095E-02 8.46909E-04-1.15756E-13
 -1      2148 1.14484E-02 4.73188E-04-1.12883E-13
 -1      2149 1.16412E-02 5.64132E-04-1.13472E-13
 -1      2150 1.11635E-02 3.39846E-04-1.11871E-13
 -1      2151 1.12928E-02 3.99173E-04-1.12375E-13
 -1      2152 1.13835E-02 4.07757E-04-1.11486E-13
 -1      2153 1.09950E-02 2.55160E-04-1.11789E-13
 -1      2154 1.10437E-02 2.83874E-04-1.11725E-13
 -1      2155 1.10114E-02 1.96494E-04-1.11991E-13
 -1      2156 1.09844E-02 2.22526E-04-1.11835E-13
 -1      2157 1.11989E-02 1.10795E-04-1.12934E-13
 -1      2158 1.10876E-02 1.54463E-04-1.12437E-13
 -1      2159 1.15441E-02-3.14931E-05-1.14387E-13
 -1      2160 1.13613E-02 4.48491E-05-1.13597E-13
 -1      2161 1.19989E-02-2.68031E-04-1.17057E-13
 -1      2162 1.17959E-02-1.54938E-04-1.15767E-13
 -1      2163 1.24133E-02-5.07975E-04-1.19805E-13
 -1      2164 1.22175E-02-3.92535E-04-1.18488E-13
 -1      2165 1.28050E-02-7.21547E-04-1.22663E-13
 -1      2166 1.26217E-02-6.22951E-04-1.21281E-13
 -1      2167 1.31802E-02-8.73811E-04-1.25856E-13
 -1      2168 1.30158E-02-8.15067E-04-1.24379E-13
 -1      2169 1.35412E-02-9.10395E-04-1.29180E-13
 -1      2170 1.33732E-02-9.09034E-04-1.27602E-13
 -1      2171 1.39682E-02-7.99878E-04-1.32694E-13
 -1      2172 1.37714E-02-8.68121E-04-1.31188E-13
 -1      2173 1.44025E-02-5.75977E-04-1.35878E-13
 -1      2174 1.41847E-02-7.03129E-04-1.34285E-13
 -1      2175 1.40229E-02-7.43802E-04-1.34071E-13
 -1      2176 1.50330E-02-2.58257E-04-1.38713E-13
 -1      2177 1.47458E-02-3.97439E-04-1.37649E-13
 -1      2178 1.56411E-02-3.52979E-06-1.40500E-13
 -1      2179 1.53545E-02-1.21274E-04-1.39690E-13
 -1      2180 1.61965E-02 1.89061E-04-1.41894E-13
 -1      2181 1.59447E-02 1.10792E-04-1.41342E-13
 -1      2182 1.43711E-02 1.33899E-03-1.32483E-13
 -1      2183 1.45983E-02 1.20501E-03-1.33967E-13
 -1      2184 1.66663E-02 3.38587E-04-1.43524E-13
 -1      2185 6.07939E-04-2.98072E-04-2.81256E-16
 -1      2186 1.52742E-02 7.99451E-04-1.38092E-13
 -1      2187 1.41933E-02 1.39664E-03-1.31928E-13
 -1      2188 6.63657E-04-2.92348E-04-3.79999E-16
 -1      2189 1.61717E-02 3.14660E-04-1.46703E-13
 -1      2190 1.58809E-02 4.23716E-04-1.44277E-13
 -1      2191 1.64396E-02 2.95183E-04-1.46968E-13
 -1      2192 1.56489E-02 2.24106E-04-1.47043E-13
 -1      2193 1.58640E-02 5.40229E-04-1.40642E-13
 -1      2194 1.39789E-02-3.99950E-04-1.49564E-13
 -1      2195 1.40746E-02-3.28012E-04-1.50195E-13
 -1      2196 1.40086E-02-3.86542E-04-1.48271E-13
 -1      2197 1.38567E-02-4.99474E-04-1.47146E-13
 -1      2198 1.65931E-02 3.30807E-04-1.44880E-13
 -1      2199 1.65317E-02 2.74305E-04-1.42513E-13
 -1      2200 1.63591E-02 2.39120E-04-1.42306E-13
 -1      2201 1.64113E-02 3.14557E-04-1.45067E-13
 -1      2202 1.64644E-02 3.90412E-04-1.41829E-13
 -1      2203 1.66066E-02 3.59555E-04-1.42454E-13
 -1      2204 1.62265E-02 2.45756E-04-1.43276E-13
 -1      2205 1.57675E-02 1.02262E-04-1.42021E-13
 -1      2206 1.45227E-02-4.66895E-04-1.37435E-13
 -1      2207 1.43387E-02-5.32480E-04-1.37225E-13
 -1      2208 1.46414E-02-3.56327E-04-1.39003E-13
 -1      2209 1.36319E-02-8.96525E-04-1.30463E-13
 -1      2210 1.32663E-02-9.02752E-04-1.26705E-13
 -1      2211 1.29151E-02-7.73916E-04-1.23244E-13
 -1      2212 1.25345E-02-5.60988E-04-1.20057E-13
 -1      2213 1.21325E-02-3.21606E-04-1.17156E-13
 -1      2214 1.16755E-02-7.52278E-05-1.14356E-13
 -1      2215 1.15615E-02-1.58978E-05-1.12952E-13
 -1      2216 1.17953E-02-1.27715E-04-1.14320E-13
 -1      2217 1.12751E-02 9.42208E-05-1.12327E-13
 -1      2218 1.10409E-02 1.82435E-04-1.11228E-13
 -1      2219 1.11007E-02 2.95893E-04-1.10839E-13
 -1      2220 1.17804E-02 6.11031E-04-1.13189E-13
 -1      2221 1.22463E-02 8.97667E-04-1.15555E-13
 -1      2222 1.26691E-02 1.18569E-03-1.18030E-13
 -1      2223 1.47096E-02 1.09859E-03-1.35336E-13
 -1      2224 1.34707E-02 1.60633E-03-1.25088E-13
 -1      2225 1.30839E-02 1.45890E-03-1.21204E-13
 -1      2226 1.09809E-02 2.31540E-04-1.10740E-13
 -1      2227 1.51564E-02-1.43718E-04-1.40198E-13
 -1      2228 1.63687E-02 3.79783E-04-1.42817E-13
 -1      2229 1.01669E-03 3.99737E-04-5.73638E-16
 -1      2230 8.72205E-04 3.63359E-04-4.10194E-16
 -1      2231 5.47740E-04-5.52761E-05-4.17431E-16
 -1      2232 5.48782E-04-7.19878E-05-4.17133E-16
 -1      2233 5.50209E-04-8.93064E-05-4.15548E-16
 -1      2234 5.52078E-04-1.07289E-04-4.12187E-16
 -1      2235 6.65245E-04-9.54552E-05-5.65100E-16
 -1      2236 5.46349E-04 8.85215E-06-4.06291E-16
 -1      2237 5.46329E-04-6.97801E-06-4.10804E-16
 -1      2238 5.47109E-04 4.08487E-05-3.94135E-16
 -1      2239 5.46605E-04 2.47813E-05-4.00965E-16
 -1      2240 6.61273E-04 1.99220E-05-5.48186E-16
 -1      2241 5.48946E-04 7.34575E-05-3.76855E-16
 -1      2242 5.47877E-04 5.69714E-05-3.86233E-16
 -1      2243 6.62607E-04 5.77624E-05-5.30825E-16
 -1      2244 5.52354E-04 1.08919E-04-3.53369E-16
 -1      2245 5.50421E-04 9.08494E-05-3.66000E-16
 -1      2246 6.65484E-04 9.72175E-05-5.06661E-16
 -1      2247 5.58254E-04 1.48246E-04-3.21696E-16
 -1      2248 5.54925E-04 1.28025E-04-3.38867E-16
 -1      2249 6.70595E-04 1.39977E-04-4.74257E-16
 -1      2250 5.68606E-04 1.93841E-04-2.78125E-16
 -1      2251 5.62755E-04 1.70124E-04-3.01706E-16
 -1      2252 6.79272E-04 1.87513E-04-4.30862E-16
 -1      2253 1.30218E-03 4.56672E-04-9.94932E-16
 -1      2254 1.15984E-03 4.30733E-04-7.68225E-16
 -1      2255 1.07185E-03 3.81254E-04-7.24342E-16
 -1      2256 9.15253E-04-3.46297E-04-7.32473E-16
 -1      2257 1.05936E-03-3.79614E-04-9.64804E-16
 -1      2258 1.51222E-02 8.19255E-04-1.38485E-13
 -1      2259 1.53691E-02 6.98496E-04-1.39601E-13
 -1      2260 1.53619E-02 9.63126E-05-1.45146E-13
 -1      2261 1.56575E-02 1.68187E-04-1.44943E-13
 -1      2262 1.20263E-03-4.08003E-04-1.23140E-15
 -1      2263 1.34545E-03-4.31874E-04-1.53314E-15
 -1      2264 1.11703E-03-3.60436E-04-1.12795E-15
 -1      2265 1.48764E-03-4.52089E-04-1.86956E-15
 -1      2266 1.62944E-03-4.68930E-04-2.24090E-15
 -1      2267 1.40338E-03-4.07193E-04-1.73650E-15
 -1      2268 1.77087E-03-4.83066E-04-2.64669E-15
 -1      2269 1.91207E-03-4.94714E-04-3.08756E-15
 -1      2270 1.68853E-03-4.40432E-04-2.48255E-15
 -1      2271 2.05311E-03-5.04368E-04-3.56308E-15
 -1      2272 2.19405E-03-5.12205E-04-4.07329E-15
 -1      2273 1.97274E-03-4.63494E-04-3.36615E-15
 -1      2274 2.33496E-03-5.18586E-04-4.61797E-15
 -1      2275 2.47587E-03-5.23654E-04-5.19738E-15
 -1      2276 2.25640E-03-4.79023E-04-4.38705E-15
 -1      2277 2.61683E-03-5.27675E-04-5.81071E-15
 -1      2278 2.75784E-03-5.30762E-04-6.45774E-15
 -1      2279 2.53983E-03-4.89062E-04-5.54481E-15
 -1      2280 2.89896E-03-5.33111E-04-7.13944E-15
 -1      2281 3.04015E-03-5.34809E-04-7.85494E-15
 -1      2282 2.82327E-03-4.95168E-04-6.83813E-15
 -1      2283 3.18147E-03-5.35998E-04-8.60374E-15
 -1      2284 3.32288E-03-5.36747E-04-9.38683E-15
 -1      2285 3.10685E-03-4.98515E-04-8.26674E-15
 -1      2286 3.46442E-03-5.37154E-04-1.02031E-14
 -1      2287 3.60605E-03-5.37272E-04-1.10532E-14
 -1      2288 3.39067E-03-4.99975E-04-9.82986E-15
 -1      2289 3.74780E-03-5.37170E-04-1.19372E-14
 -1      2290 3.88964E-03-5.36886E-04-1.28544E-14
 -1      2291 3.67473E-03-5.00186E-04-1.15281E-14
 -1      2292 4.03159E-03-5.36465E-04-1.38044E-14
 -1      2293 4.17361E-03-5.35934E-04-1.47892E-14
 -1      2294 3.95906E-03-4.99601E-04-1.33596E-14
 -1      2295 4.31574E-03-5.35322E-04-1.58074E-14
 -1      2296 4.45793E-03-5.34647E-04-1.68586E-14
 -1      2297 4.24363E-03-4.98530E-04-1.53245E-14
 -1      2298 4.60020E-03-5.33924E-04-1.79434E-14
 -1      2299 4.74254E-03-5.33163E-04-1.90621E-14
 -1      2300 4.52841E-03-4.97175E-04-1.74243E-14
 -1      2301 4.88494E-03-5.32372E-04-2.02131E-14
 -1      2302 5.02740E-03-5.31554E-04-2.13960E-14
 -1      2303 4.81339E-03-4.95654E-04-1.96562E-14
 -1      2304 5.16991E-03-5.30709E-04-2.26123E-14
 -1      2305 5.31247E-03-5.29838E-04-2.38617E-14
 -1      2306 5.09854E-03-4.94021E-04-2.20195E-14
 -1      2307 5.45508E-03-5.28932E-04-2.51439E-14
 -1      2308 5.59774E-03-5.27991E-04-2.64593E-14
 -1      2309 5.38384E-03-4.92284E-04-2.45137E-14
 -1      2310 5.74045E-03-5.27003E-04-2.78077E-14
 -1      2311 5.88320E-03-5.25963E-04-2.91896E-14
 -1      2312 5.66929E-03-4.90410E-04-2.71397E-14
 -1      2313 6.02600E-03-5.24855E-04-3.06040E-14
 -1      2314 6.16885E-03-5.23675E-04-3.20527E-14
 -1      2315 5.95487E-03-4.88338E-04-2.98984E-14
 -1      2316 6.31176E-03-5.22404E-04-3.35363E-14
 -1      2317 6.45472E-03-5.21036E-04-3.50525E-14
 -1      2318 6.24061E-03-4.85989E-04-3.27916E-14
 -1      2319 6.59775E-03-5.19552E-04-3.66023E-14
 -1      2320 6.74086E-03-5.17944E-04-3.81856E-14
 -1      2321 6.52652E-03-4.83265E-04-3.58194E-14
 -1      2322 6.88405E-03-5.16194E-04-3.98030E-14
 -1      2323 7.02734E-03-5.14297E-04-4.14518E-14
 -1      2324 6.81264E-03-4.80062E-04-3.89799E-14
 -1      2325 7.17074E-03-5.12235E-04-4.31328E-14
 -1      2326 7.31426E-03-5.10007E-04-4.48445E-14
 -1      2327 7.09904E-03-4.76278E-04-4.22717E-14
 -1      2328 7.45792E-03-5.07598E-04-4.65869E-14
 -1      2329 7.60176E-03-5.05014E-04-4.83611E-14
 -1      2330 7.38578E-03-4.71828E-04-4.56892E-14
 -1      2331 7.74576E-03-5.02250E-04-5.01634E-14
 -1      2332 7.88998E-03-4.99318E-04-5.19954E-14
 -1      2333 7.67298E-03-4.66660E-04-4.92285E-14
 -1      2334 8.03442E-03-4.96229E-04-5.38577E-14
 -1      2335 8.17915E-03-4.93009E-04-5.57502E-14
 -1      2336 7.96075E-03-4.60783E-04-5.28868E-14
 -1      2337 8.32415E-03-4.89691E-04-5.76709E-14
 -1      2338 8.46951E-03-4.86319E-04-5.96205E-14
 -1      2339 8.24927E-03-4.54304E-04-5.66653E-14
 -1      2340 8.61520E-03-4.82960E-04-6.15984E-14
 -1      2341 8.76134E-03-4.79683E-04-6.36044E-14
 -1      2342 8.53873E-03-4.47480E-04-6.05585E-14
 -1      2343 8.90789E-03-4.76602E-04-6.56370E-14
 -1      2344 9.05497E-03-4.73823E-04-6.76988E-14
 -1      2345 8.82939E-03-4.40782E-04-6.45640E-14
 -1      2346 9.20258E-03-4.71518E-04-6.97857E-14
 -1      2347 9.35080E-03-4.69839E-04-7.18976E-14
 -1      2348 9.12155E-03-4.34973E-04-6.86776E-14
 -1      2349 9.49965E-03-4.69034E-04-7.40359E-14
 -1      2350 9.64922E-03-4.69314E-04-7.62010E-14
 -1      2351 9.41561E-03-4.31207E-04-7.28973E-14
 -1      2352 9.79955E-03-4.71009E-04-7.83936E-14
 -1      2353 9.95068E-03-4.74402E-04-8.06094E-14
 -1      2354 9.71207E-03-4.31125E-04-7.72177E-14
 -1      2355 1.01027E-02-4.79901E-04-8.28498E-14
 -1      2356 1.02556E-02-4.87865E-04-8.51163E-14
 -1      2357 1.00116E-02-4.36947E-04-8.16428E-14
 -1      2358 1.04096E-02-4.98754E-04-8.74077E-14
 -1      2359 1.05645E-02-5.12992E-04-8.97205E-14
 -1      2360 1.03149E-02-4.51507E-04-8.61652E-14
 -1      2361 1.07205E-02-5.31014E-04-9.20534E-14
 -1      2362 1.08774E-02-5.53263E-04-9.44101E-14
 -1      2363 1.06229E-02-4.78179E-04-9.07826E-14
 -1      2364 1.10354E-02-5.80022E-04-9.67889E-14
 -1      2365 1.11940E-02-6.11615E-04-9.91900E-14
 -1      2366 1.09364E-02-5.20570E-04-9.54887E-14
 -1      2367 1.13536E-02-6.47977E-04-1.01613E-13
 -1      2368 1.15130E-02-6.89048E-04-1.04055E-13
 -1      2369 1.12558E-02-5.81786E-04-1.00282E-13
 -1      2370 1.16728E-02-7.34157E-04-1.06519E-13
 -1      2371 1.18314E-02-7.82457E-04-1.09003E-13
 -1      2372 1.15801E-02-6.62964E-04-1.05163E-13
 -1      2373 1.19890E-02-8.32427E-04-1.11511E-13
 -1      2374 1.21443E-02-8.82012E-04-1.14040E-13
 -1      2375 1.19059E-02-7.60801E-04-1.10124E-13
 -1      2376 1.22968E-02-9.28759E-04-1.16586E-13
 -1      2377 1.24459E-02-9.69359E-04-1.19152E-13
 -1      2378 1.22274E-02-8.64290E-04-1.15172E-13
 -1      2379 1.25908E-02-1.00084E-03-1.21739E-13
 -1      2380 1.27323E-02-1.01927E-03-1.24344E-13
 -1      2381 1.25370E-02-9.52510E-04-1.20299E-13
 -1      2382 1.28694E-02-1.02210E-03-1.26963E-13
 -1      2383 1.30046E-02-1.00673E-03-1.29595E-13
 -1      2384 1.28300E-02-9.96522E-04-1.25497E-13
 -1      2385 1.31368E-02-9.72156E-04-1.32242E-13
 -1      2386 1.32691E-02-9.17940E-04-1.34901E-13
 -1      2387 1.31083E-02-9.69824E-04-1.30759E-13
 -1      2388 1.34004E-02-8.45300E-04-1.37572E-13
 -1      2389 1.35338E-02-7.56856E-04-1.40247E-13
 -1      2390 1.33799E-02-8.60516E-04-1.36072E-13
 -1      2391 1.41775E-02-3.19571E-04-1.46024E-13
 -1      2392 1.42917E-02-2.70199E-04-1.45830E-13
 -1      2393 1.86542E-03 5.25180E-04-2.22801E-15
 -1      2394 1.72517E-03 5.12429E-04-1.87003E-15
 -1      2395 2.14553E-03 5.44467E-04-3.04364E-15
 -1      2396 2.00552E-03 5.35799E-04-2.61930E-15
 -1      2397 1.92471E-03 4.94561E-04-2.51329E-15
 -1      2398 2.42563E-03 5.57273E-04-3.99369E-15
 -1      2399 2.28557E-03 5.51575E-04-3.50163E-15
 -1      2400 2.20683E-03 5.11831E-04-3.37291E-15
 -1      2401 2.70607E-03 5.65408E-04-5.07974E-15
 -1      2402 2.56580E-03 5.61843E-04-4.51978E-15
 -1      2403 2.48880E-03 5.23161E-04-4.36634E-15
 -1      2404 2.98708E-03 5.70229E-04-6.30408E-15
 -1      2405 2.84651E-03 5.68170E-04-5.67439E-15
 -1      2406 2.77092E-03 5.30225E-04-5.49547E-15
 -1      2407 3.26871E-03 5.72752E-04-7.66721E-15
 -1      2408 3.12782E-03 5.71731E-04-6.96828E-15
 -1      2409 3.05335E-03 5.34283E-04-6.76230E-15
 -1      2410 3.55099E-03 5.73722E-04-9.16938E-15
 -1      2411 3.40978E-03 5.73396E-04-8.40074E-15
 -1      2412 3.33618E-03 5.36271E-04-8.16723E-15
 -1      2413 3.83386E-03 5.73678E-04-1.08113E-14
 -1      2414 3.69236E-03 5.73801E-04-9.97298E-15
 -1      2415 3.61944E-03 5.36876E-04-9.71045E-15
 -1      2416 4.11726E-03 5.72996E-04-1.25931E-14
 -1      2417 3.97550E-03 5.73398E-04-1.16847E-14
 -1      2418 3.90311E-03 5.36589E-04-1.13933E-14
 -1      2419 4.40112E-03 5.71929E-04-1.45126E-14
 -1      2420 4.25914E-03 5.72498E-04-1.35361E-14
 -1      2421 4.18714E-03 5.35751E-04-1.32150E-14
 -1      2422 4.68537E-03 5.70635E-04-1.65703E-14
 -1      2423 4.54320E-03 5.71303E-04-1.55239E-14
 -1      2424 4.47151E-03 5.34587E-04-1.51743E-14
 -1      2425 4.96995E-03 5.69199E-04-1.87609E-14
 -1      2426 4.82762E-03 5.69931E-04-1.76488E-14
 -1      2427 4.75615E-03 5.33232E-04-1.72689E-14
 -1      2428 5.25480E-03 5.67649E-04-2.10844E-14
 -1      2429 5.11235E-03 5.68437E-04-1.99069E-14
 -1      2430 5.04104E-03 5.31754E-04-1.94975E-14
 -1      2431 5.53990E-03 5.65971E-04-2.35378E-14
 -1      2432 5.39733E-03 5.66827E-04-2.22944E-14
 -1      2433 5.32614E-03 5.30167E-04-2.18574E-14
 -1      2434 5.82522E-03 5.64116E-04-2.61208E-14
 -1      2435 5.68254E-03 5.65068E-04-2.48131E-14
 -1      2436 5.61143E-03 5.28446E-04-2.43470E-14
 -1      2437 6.11077E-03 5.62010E-04-2.88292E-14
 -1      2438 5.96797E-03 5.63098E-04-2.74590E-14
 -1      2439 5.89691E-03 5.26535E-04-2.69647E-14
 -1      2440 6.39657E-03 5.59556E-04-3.16613E-14
 -1      2441 6.25364E-03 5.60831E-04-3.02301E-14
 -1      2442 6.18258E-03 5.24351E-04-2.97093E-14
 -1      2443 6.68269E-03 5.56645E-04-3.46185E-14
 -1      2444 6.53959E-03 5.58163E-04-3.31248E-14
 -1      2445 6.46847E-03 5.21793E-04-3.25779E-14
 -1      2446 6.96919E-03 5.53155E-04-3.76959E-14
 -1      2447 6.82588E-03 5.54977E-04-3.61407E-14
 -1      2448 6.75464E-03 5.18745E-04-3.55683E-14
 -1      2449 7.25622E-03 5.48968E-04-4.08973E-14
 -1      2450 7.11263E-03 5.51153E-04-3.92816E-14
 -1      2451 7.04115E-03 5.15084E-04-3.86811E-14
 -1      2452 7.54394E-03 5.43975E-04-4.42250E-14
 -1      2453 7.39998E-03 5.46574E-04-4.25451E-14
 -1      2454 7.32811E-03 5.10691E-04-4.19195E-14
 -1      2455 7.83256E-03 5.38098E-04-4.76735E-14
 -1      2456 7.68811E-03 5.41145E-04-4.59342E-14
 -1      2457 7.61565E-03 5.05459E-04-4.52810E-14
 -1      2458 8.12238E-03 5.31319E-04-5.12441E-14
 -1      2459 7.97729E-03 5.34815E-04-4.94437E-14
 -1      2460 7.90396E-03 4.99319E-04-4.87657E-14
 -1      2461 8.41373E-03 5.23718E-04-5.49358E-14
 -1      2462 8.26782E-03 5.27606E-04-5.30752E-14
 -1      2463 8.19324E-03 4.92268E-04-5.23704E-14
 -1      2464 8.70705E-03 5.15535E-04-5.87411E-14
 -1      2465 8.56009E-03 5.19671E-04-5.68229E-14
 -1      2466 8.48376E-03 4.84411E-04-5.60950E-14
 -1      2467 9.00281E-03 5.07261E-04-6.26594E-14
 -1      2468 8.85456E-03 5.11363E-04-6.06875E-14
 -1      2469 8.77581E-03 4.76032E-04-5.99338E-14
 -1      2470 9.30161E-03 4.99764E-04-6.66880E-14
 -1      2471 9.15176E-03 5.03342E-04-6.46592E-14
 -1      2472 9.06976E-03 4.67682E-04-6.38847E-14
 -1      2473 9.60410E-03 4.94479E-04-7.08247E-14
 -1      2474 9.45231E-03 4.96733E-04-6.87417E-14
 -1      2475 9.36600E-03 4.60320E-04-6.79437E-14
 -1      2476 9.91100E-03 4.93662E-04-7.50758E-14
 -1      2477 9.75690E-03 4.93345E-04-7.29360E-14
 -1      2478 9.66502E-03 4.55495E-04-7.21143E-14
 -1      2479 1.02231E-02 5.00734E-04-7.94379E-14
 -1      2480 1.00663E-02 4.95966E-04-7.72421E-14
 -1      2481 9.96741E-03 4.55609E-04-7.63951E-14
 -1      2482 1.05414E-02 5.20687E-04-8.39116E-14
 -1      2483 1.03814E-02 5.08746E-04-8.16612E-14
 -1      2484 1.02740E-02 4.64246E-04-8.07860E-14
 -1      2485 1.08669E-02 5.60468E-04-8.84912E-14
 -1      2486 1.07032E-02 5.37607E-04-8.61894E-14
 -1      2487 1.05859E-02 4.86558E-04-8.52869E-14
 -1      2488 1.12009E-02 6.29083E-04-9.31679E-14
 -1      2489 1.10329E-02 5.90533E-04-9.08178E-14
 -1      2490 1.09051E-02 5.29640E-04-8.98894E-14
 -1      2491 1.15446E-02 7.36815E-04-9.79368E-14
 -1      2492 1.13719E-02 6.77353E-04-9.55414E-14
 -1      2493 1.12344E-02 6.02675E-04-9.45861E-14
 -1      2494 1.18980E-02 8.92389E-04-1.02791E-13
 -1      2495 1.17208E-02 8.08130E-04-1.00352E-13
 -1      2496 1.15773E-02 7.16325E-04-9.93763E-14
 -1      2497 1.22575E-02 1.09652E-03-1.07719E-13
 -1      2498 1.20782E-02 9.88802E-04-1.05245E-13
 -1      2499 1.19364E-02 8.80026E-04-1.04246E-13
 -1      2500 1.26126E-02 1.33004E-03-1.12726E-13
 -1      2501 1.24372E-02 1.21202E-03-1.10215E-13
 -1      2502 1.23090E-02 1.09524E-03-1.09196E-13
 -1      2503 1.29481E-02 1.54321E-03-1.17798E-13
 -1      2504 1.27836E-02 1.44373E-03-1.15254E-13
 -1      2505 1.26818E-02 1.33936E-03-1.14214E-13
 -1      2506 1.32541E-02 1.66316E-03-1.22933E-13
 -1      2507 1.31030E-02 1.62052E-03-1.20359E-13
 -1      2508 1.30338E-02 1.55406E-03-1.19302E-13
 -1      2509 1.35428E-02 1.62776E-03-1.28113E-13
 -1      2510 1.33982E-02 1.66639E-03-1.25519E-13
 -1      2511 1.33588E-02 1.65007E-03-1.24451E-13
 -1      2512 1.38321E-02 1.43536E-03-1.33325E-13
 -1      2513 1.36853E-02 1.54846E-03-1.30716E-13
 -1      2514 1.36712E-02 1.57044E-03-1.29644E-13
 -1      2515 1.41299E-02 1.13443E-03-1.38548E-13
 -1      2516 1.39801E-02 1.29450E-03-1.35936E-13
 -1      2517 1.39901E-02 1.33425E-03-1.34861E-13
 -1      2518 1.42808E-02 9.58071E-04-1.41243E-13
 -1      2519 1.64699E-02 3.30109E-04-1.45257E-13
 -1      2520 1.48121E-02 8.15954E-04-1.41015E-13
 -1      2521 1.46203E-02 8.84662E-04-1.40753E-13
 -1      2522 1.54209E-02 6.02716E-04-1.41864E-13
 -1      2523 1.51457E-02 6.86283E-04-1.41616E-13
 -1      2524 1.66180E-02 3.27469E-04-1.44623E-13
 -1      2525 1.56575E-02 5.75783E-04-1.40846E-13
 -1      2526 1.59678E-02 4.60414E-04-1.42286E-13
 -1      2527 1.44320E-02-2.14388E-04-1.45632E-13
 -1      2528 1.46057E-02-1.53227E-04-1.45429E-13
 -1      2529 1.42104E-02-3.73413E-04-1.43400E-13
 -1      2530 1.48166E-02-7.30680E-05-1.45398E-13
 -1      2531 1.50671E-02 2.65523E-06-1.45186E-13
 -1      2532 1.50353E-02-6.91682E-05-1.43093E-13
 -1      2533 1.45386E-02-2.47773E-04-1.43168E-13
 -1      2534 1.39996E-02-4.12583E-04-1.46411E-13
 -1      2535 1.40814E-02-3.67049E-04-1.46220E-13
 -1      2536 1.39934E-02-4.61483E-04-1.43796E-13
 -1      2537 1.58463E-03 4.96997E-04-1.54558E-15
 -1      2538 1.44368E-03 4.78672E-04-1.25378E-15
 -1      2539 1.64195E-03 4.69140E-04-1.78630E-15
 -1      2540 1.40554E-02 1.44597E-03-1.31456E-13
 -1      2541 1.42564E-02 1.32120E-03-1.33222E-13
 -1      2542 5.88516E-04-2.37921E-04-3.49818E-16
 -1      2543 7.81357E-04-3.04728E-04-5.57565E-16
 -1      2544 8.40768E-04-2.93531E-04-6.80798E-16
 -1      2545 5.78990E-04-2.10149E-04-3.70621E-16
 -1      2546 1.36832E-02-8.69731E-04-1.31764E-13
 -1      2547 1.35067E-02-9.16836E-04-1.29749E-13
 -1      2548 1.16795E-02 5.31582E-04-1.11623E-13
 -1      2549 1.19184E-02 6.65925E-04-1.12819E-13
 -1      2550 5.46544E-04-2.28906E-05-4.14125E-16
 -1      2551 5.47005E-04-3.89247E-05-4.16469E-16
 -1      2552 6.62458E-04-5.57930E-05-5.65628E-16
 -1      2553 6.61221E-04-1.76979E-05-5.59801E-16
 -1      2554 1.29709E-02 1.39426E-03-1.19653E-13
 -1      2555 1.31549E-02 1.51225E-03-1.21510E-13
 -1      2556 1.37219E-02 1.59541E-03-1.27963E-13
 -1      2557 1.38602E-02 1.54438E-03-1.29488E-13
 -1      2558 1.09675E-02 2.17528E-04-1.09358E-13
 -1      2559 1.09787E-02 2.30831E-04-1.09313E-13
 -1      2560 1.45488E-02 1.14717E-03-1.35244E-13
 -1      2561 1.48266E-02 9.80732E-04-1.36886E-13
 -1      2562 1.25592E-02 1.09518E-03-1.16523E-13
 -1      2563 1.27473E-02 1.23627E-03-1.17831E-13
 -1      2564 1.21628E-02 8.17874E-04-1.14040E-13
 -1      2565 1.23576E-02 9.52127E-04-1.15197E-13
 -1      2566 1.13087E-02 3.57417E-04-1.09972E-13
 -1      2567 1.14525E-02 4.17116E-04-1.10471E-13
 -1      2568 1.54040E-02 1.27957E-05-1.42114E-13
 -1      2569 1.51113E-02-1.17572E-04-1.41131E-13
 -1      2570 1.10412E-02 2.60605E-04-1.09453E-13
 -1      2571 1.11549E-02 2.97550E-04-1.09595E-13
 -1      2572 1.09961E-02 2.37610E-04-1.08072E-13
 -1      2573 1.10727E-02 1.71899E-04-1.10351E-13
 -1      2574 1.10009E-02 1.95372E-04-1.09911E-13
 -1      2575 1.13353E-02 7.90617E-05-1.11461E-13
 -1      2576 1.11887E-02 1.30832E-04-1.10810E-13
 -1      2577 1.22444E-02-3.80476E-04-1.17095E-13
 -1      2578 1.20499E-02-2.65800E-04-1.15673E-13
 -1      2579 1.26220E-02-6.14539E-04-1.20171E-13
 -1      2580 1.24486E-02-5.04169E-04-1.18702E-13
 -1      2581 1.29714E-02-8.12508E-04-1.23589E-13
 -1      2582 1.28037E-02-7.20119E-04-1.21877E-13
 -1      2583 1.26910E-02-6.68996E-04-1.20513E-13
 -1      2584 1.33092E-02-9.22403E-04-1.27522E-13
 -1      2585 1.31663E-02-8.91586E-04-1.25774E-13
 -1      2586 1.40633E-02-6.85063E-04-1.35349E-13
 -1      2587 1.38904E-02-7.83631E-04-1.33751E-13
 -1      2588 1.33842E-02 1.60095E-03-1.24093E-13
 -1      2589 1.35542E-02 1.61939E-03-1.26113E-13
 -1      2590 7.57954E-04 3.34160E-04-2.94347E-16
 -1      2591 6.11526E-04 2.84807E-04-1.86171E-16
 -1      2592 5.84796E-04 2.58037E-04-1.99642E-16
 -1      2593 8.13774E-04 3.22827E-04-4.04502E-16
 -1      2594 6.70179E-04-1.37931E-04-5.56724E-16
 -1      2595 5.54541E-04-1.26196E-04-4.06888E-16
 -1      2596 5.57742E-04-1.46193E-04-3.99163E-16
 -1      2597 1.35790E-03 4.32652E-04-1.19097E-15
 -1      2598 5.72287E-04 2.27839E-04-2.33686E-16
 -1      2599 1.37420E-02-8.28481E-04-1.33033E-13
 -1      2600 1.55039E-02 6.02666E-04-1.41238E-13
 -1      2601 1.37068E-02-6.49490E-04-1.41367E-13
 -1      2602 1.37202E-02-6.24790E-04-1.42874E-13
 -1      2603 1.59862E-02 2.42533E-04-1.44854E-13
 -1      2604 1.57116E-02 1.56178E-04-1.44009E-13
 -1      2605 6.89571E-04 2.51184E-04-3.52176E-16
 -1      2606 1.43832E-02 1.21749E-03-1.34770E-13
 -1      2607 1.43156E-02 1.00339E-03-1.40170E-13
 -1      2608 1.48464E-02 8.66415E-04-1.39396E-13
 -1      2609 1.44031E-02 9.82402E-04-1.40089E-13
 -1      2610 1.62623E-02 2.86089E-04-1.44656E-13
 -1      2611 1.38088E-02-5.45665E-04-1.45292E-13
 -1      2612 1.59720E-02 4.23760E-04-1.43649E-13
 -1      2613 1.56863E-02 4.95088E-04-1.43114E-13
 -1      2614 1.41802E-02-5.93759E-04-1.36903E-13
 -1      2615 1.40482E-02-6.46132E-04-1.36578E-13
 -1      2616 1.42957E-02-4.96825E-04-1.38460E-13
 -1      2617 5.71748E-04-1.85270E-04-3.86762E-16
 -1      2618 1.30409E-02-8.56836E-04-1.24397E-13
 -1      2619 1.39407E-02 1.49004E-03-1.30777E-13
 -1      2620 1.15706E-02 4.70267E-04-1.10103E-13
 -1      2621 1.23342E-02-4.47706E-04-1.17209E-13
 -1      2622 1.47967E-02-2.16969E-04-1.41178E-13
 -1      2623 1.46138E-02-2.94156E-04-1.40956E-13
 -1      2624 1.14357E-02 3.70048E-05-1.11425E-13
 -1      2625 1.13224E-02 7.06033E-05-1.09908E-13
 -1      2626 1.15329E-02-1.22752E-05-1.11388E-13
 -1      2627 1.20284E-02 7.28957E-04-1.12463E-13
 -1      2628 1.12066E-02 3.12273E-04-1.08584E-13
 -1      2629 1.19120E-02-1.92197E-04-1.14260E-13
 -1      2630 1.17787E-02-1.32377E-04-1.12856E-13
 -1      2631 1.20030E-02-2.60717E-04-1.14198E-13
 -1      2632 1.24466E-02 1.01613E-03-1.14998E-13
 -1      2633 1.09677E-02 2.02343E-04-1.08484E-13
 -1      2634 1.36090E-02 1.61363E-03-1.26961E-13
 -1      2635 1.33790E-02-9.23448E-04-1.28812E-13
 -1      2636 1.49430E-02 8.78882E-04-1.38391E-13
 -1      2637 1.28458E-02 1.31679E-03-1.18134E-13
 -1      2638 1.11138E-02 1.50920E-04-1.09491E-13
 -1      2639 1.61548E-02 3.96255E-04-1.43449E-13
 -1      2640 1.63597E-02 3.56885E-04-1.44189E-13
 -1      2641 1.43308E-02 1.09213E-03-1.38138E-13
 -1      2642 1.31723E-02 1.53556E-03-1.21473E-13
 -1      2643 1.32957E-02 1.57869E-03-1.23035E-13
 -1      2644 7.80135E-04 7.73073E-05-6.88279E-16
 -1      2645 7.78868E-04 5.54525E-05-7.01248E-16
 -1      2646 7.78018E-04 3.35481E-05-7.12050E-16
 -1      2647 7.77593E-04 1.18917E-05-7.21130E-16
 -1      2648 8.96419E-04 4.96645E-05-8.97313E-16
 -1      2649 7.91517E-04 1.73082E-04-6.13021E-16
 -1      2650 7.87500E-04 1.47672E-04-6.36034E-16
 -1      2651 8.03409E-04 2.28274E-04-5.56304E-16
 -1      2652 7.96772E-04 1.99885E-04-5.86933E-16
 -1      2653 9.14821E-04 2.07774E-04-7.69296E-16
 -1      2654 1.12986E-03 3.61889E-04-8.84086E-16
 -1      2655 9.86258E-04 3.32825E-04-6.75634E-16
 -1      2656 1.42484E-02 1.27147E-03-1.34461E-13
 -1      2657 1.45033E-02 1.10254E-03-1.36485E-13
 -1      2658 1.35818E-02-7.47328E-04-1.38558E-13
 -1      2659 1.37841E-02-6.14238E-04-1.41178E-13
 -1      2660 8.03121E-04 2.78180E-04-4.74122E-16
 -1      2661 1.32018E-03-3.62702E-04-1.60390E-15
 -1      2662 1.46341E-03-3.81685E-04-1.94481E-15
 -1      2663 1.60646E-03-3.97769E-04-2.31927E-15
 -1      2664 1.74939E-03-4.11184E-04-2.72780E-15
 -1      2665 1.52499E-03-3.55358E-04-2.15728E-15
 -1      2666 1.89217E-03-4.22399E-04-3.17070E-15
 -1      2667 2.03483E-03-4.31602E-04-3.64730E-15
 -1      2668 1.81167E-03-3.81271E-04-2.97665E-15
 -1      2669 2.17738E-03-4.39169E-04-4.15816E-15
 -1      2670 2.31985E-03-4.45255E-04-4.70274E-15
 -1      2671 2.09813E-03-3.99145E-04-3.93096E-15
 -1      2672 2.46227E-03-4.50147E-04-5.28085E-15
 -1      2673 2.60464E-03-4.53969E-04-5.89317E-15
 -1      2674 2.38431E-03-4.11003E-04-5.01960E-15
 -1      2675 2.74700E-03-4.56940E-04-6.53934E-15
 -1      2676 2.88933E-03-4.59154E-04-7.21875E-15
 -1      2677 2.67025E-03-4.18468E-04-6.24282E-15
 -1      2678 3.03168E-03-4.60775E-04-7.93225E-15
 -1      2679 3.17403E-03-4.61876E-04-8.67889E-15
 -1      2680 2.95603E-03-4.22801E-04-7.60032E-15
 -1      2681 3.31641E-03-4.62575E-04-9.45895E-15
 -1      2682 3.45880E-03-4.62926E-04-1.02735E-14
 -1      2683 3.24170E-03-4.24960E-04-9.09137E-15
 -1      2684 3.60123E-03-4.63015E-04-1.11213E-14
 -1      2685 3.74367E-03-4.62880E-04-1.20027E-14
 -1      2686 3.52730E-03-4.25655E-04-1.07175E-14
 -1      2687 3.88615E-03-4.62581E-04-1.29173E-14
 -1      2688 4.02866E-03-4.62144E-04-1.38642E-14
 -1      2689 3.81288E-03-4.25399E-04-1.24768E-14
 -1      2690 4.17120E-03-4.61609E-04-1.48451E-14
 -1      2691 4.31376E-03-4.60993E-04-1.58596E-14
 -1      2692 4.09846E-03-4.24551E-04-1.43688E-14
 -1      2693 4.45636E-03-4.60321E-04-1.69075E-14
 -1      2694 4.59898E-03-4.59602E-04-1.79888E-14
 -1      2695 4.38404E-03-4.23354E-04-1.63937E-14
 -1      2696 4.74162E-03-4.58851E-04-1.91026E-14
 -1      2697 4.88429E-03-4.58071E-04-2.02487E-14
 -1      2698 4.66964E-03-4.21954E-04-1.85515E-14
 -1      2699 5.02699E-03-4.57266E-04-2.14290E-14
 -1      2700 5.16971E-03-4.56437E-04-2.26409E-14
 -1      2701 4.95526E-03-4.20434E-04-2.08410E-14
 -1      2702 5.31245E-03-4.55582E-04-2.38862E-14
 -1      2703 5.45521E-03-4.54697E-04-2.51645E-14
 -1      2704 5.24090E-03-4.18818E-04-2.32622E-14
 -1      2705 5.59799E-03-4.53775E-04-2.64751E-14
 -1      2706 5.74080E-03-4.52812E-04-2.78197E-14
 -1      2707 5.52657E-03-4.17093E-04-2.58143E-14
 -1      2708 5.88363E-03-4.51794E-04-2.91971E-14
 -1      2709 6.02648E-03-4.50715E-04-3.06068E-14
 -1      2710 5.81227E-03-4.15213E-04-2.84986E-14
 -1      2711 6.16935E-03-4.49560E-04-3.20510E-14
 -1      2712 6.31225E-03-4.48321E-04-3.35300E-14
 -1      2713 6.09801E-03-4.13108E-04-3.13159E-14
 -1      2714 6.45518E-03-4.46982E-04-3.50415E-14
 -1      2715 6.59815E-03-4.45533E-04-3.65843E-14
 -1      2716 6.38378E-03-4.10692E-04-3.42662E-14
 -1      2717 6.74115E-03-4.43957E-04-3.81626E-14
 -1      2718 6.88419E-03-4.42245E-04-3.97730E-14
 -1      2719 6.66961E-03-4.07864E-04-3.73493E-14
 -1      2720 7.02727E-03-4.40382E-04-4.14155E-14
 -1      2721 7.17041E-03-4.38358E-04-4.30891E-14
 -1      2722 6.95548E-03-4.04522E-04-4.05640E-14
 -1      2723 7.31360E-03-4.36162E-04-4.47947E-14
 -1      2724 7.45686E-03-4.33789E-04-4.65313E-14
 -1      2725 7.24143E-03-4.00569E-04-4.39052E-14
 -1      2726 7.60019E-03-4.31233E-04-4.82982E-14
 -1      2727 7.74362E-03-4.28494E-04-5.00949E-14
 -1      2728 7.52748E-03-3.95927E-04-4.73713E-14
 -1      2729 7.88713E-03-4.25577E-04-5.19215E-14
 -1      2730 8.03077E-03-4.22492E-04-5.37770E-14
 -1      2731 7.81365E-03-3.90557E-04-5.09596E-14
 -1      2732 8.17451E-03-4.19260E-04-5.56640E-14
 -1      2733 8.31843E-03-4.15905E-04-5.75793E-14
 -1      2734 8.10000E-03-3.84489E-04-5.46666E-14
 -1      2735 8.46249E-03-4.12475E-04-5.95242E-14
 -1      2736 8.60677E-03-4.09011E-04-6.14964E-14
 -1      2737 8.38661E-03-3.77858E-04-5.84930E-14
 -1      2738 8.75125E-03-4.05596E-04-6.34942E-14
 -1      2739 8.89600E-03-4.02302E-04-6.55218E-14
 -1      2740 8.67361E-03-3.70949E-04-6.24305E-14
 -1      2741 9.04104E-03-3.99255E-04-6.75756E-14
 -1      2742 9.18644E-03-3.96569E-04-6.96554E-14
 -1      2743 8.96119E-03-3.64267E-04-6.64782E-14
 -1      2744 9.33224E-03-3.94424E-04-7.17619E-14
 -1      2745 9.47852E-03-3.92990E-04-7.38920E-14
 -1      2746 9.24968E-03-3.58608E-04-7.06309E-14
 -1      2747 9.62536E-03-3.92512E-04-7.60505E-14
 -1      2748 9.77287E-03-3.93233E-04-7.82327E-14
 -1      2749 9.53959E-03-3.55145E-04-7.48875E-14
 -1      2750 9.92116E-03-3.95461E-04-8.04399E-14
 -1      2751 1.00703E-02-3.99539E-04-8.26723E-14
 -1      2752 9.83169E-03-3.55532E-04-7.92420E-14
 -1      2753 1.02207E-02-4.05823E-04-8.49294E-14
 -1      2754 1.03722E-02-4.14778E-04-8.72117E-14
 -1      2755 1.01272E-02-3.61992E-04-8.37000E-14
 -1      2756 1.05252E-02-4.26774E-04-8.95161E-14
 -1      2757 1.06798E-02-4.42408E-04-9.18429E-14
 -1      2758 1.04277E-02-3.77404E-04-8.82530E-14
 -1      2759 1.08363E-02-4.61993E-04-9.41925E-14
 -1      2760 1.09947E-02-4.86225E-04-9.65633E-14
 -1      2761 1.07353E-02-4.05330E-04-9.29018E-14
 -1      2762 1.11555E-02-5.15258E-04-9.89572E-14
 -1      2763 1.13182E-02-5.49714E-04-1.01374E-13
 -1      2764 1.10526E-02-4.49906E-04-9.76364E-14
 -1      2765 1.14832E-02-5.89431E-04-1.03809E-13
 -1      2766 1.16494E-02-6.34520E-04-1.06263E-13
 -1      2767 1.13813E-02-5.15322E-04-1.02459E-13
 -1      2768 1.18172E-02-6.84262E-04-1.08742E-13
 -1      2769 1.19847E-02-7.37517E-04-1.11242E-13
 -1      2770 1.17211E-02-6.04199E-04-1.07364E-13
 -1      2771 1.21519E-02-7.92585E-04-1.13764E-13
 -1      2772 1.23165E-02-8.46453E-04-1.16302E-13
 -1      2773 1.20674E-02-7.13820E-04-1.12357E-13
 -1      2774 1.24779E-02-8.96502E-04-1.18862E-13
 -1      2775 1.26350E-02-9.37231E-04-1.21442E-13
 -1      2776 1.24103E-02-8.30498E-04-1.17431E-13
 -1      2777 1.27867E-02-9.65510E-04-1.24037E-13
 -1      2778 1.29345E-02-9.75751E-04-1.26652E-13
 -1      2779 1.27377E-02-9.25047E-04-1.22580E-13
 -1      2780 1.30768E-02-9.65360E-04-1.29281E-13
 -1      2781 1.32182E-02-9.32444E-04-1.31922E-13
 -1      2782 1.30433E-02-9.55825E-04-1.27803E-13
 -1      2783 1.33286E-02-8.90755E-04-1.33902E-13
 -1      2784 1.34693E-02-8.18175E-04-1.36565E-13
 -1      2785 1.35368E-02-7.94460E-04-1.36376E-13
 -1      2786 1.33043E-02-9.03868E-04-1.32410E-13
 -1      2787 1.98553E-03 4.63216E-04-2.80589E-15
 -1      2788 1.84348E-03 4.52952E-04-2.40391E-15
 -1      2789 2.83638E-03 4.94586E-04-5.91690E-15
 -1      2790 2.69460E-03 4.91959E-04-5.31373E-15
 -1      2791 3.12006E-03 4.97961E-04-7.22556E-15
 -1      2792 2.97820E-03 4.96560E-04-6.55377E-15
 -1      2793 2.90246E-03 4.58580E-04-6.34345E-15
 -1      2794 3.40396E-03 4.99486E-04-8.67165E-15
 -1      2795 3.26199E-03 4.98916E-04-7.93168E-15
 -1      2796 3.18725E-03 4.61337E-04-7.69362E-15
 -1      2797 3.68811E-03 4.99788E-04-1.02564E-14
 -1      2798 3.54601E-03 4.99762E-04-9.44665E-15
 -1      2799 3.47209E-03 4.62457E-04-9.18155E-15
 -1      2800 3.97250E-03 4.99312E-04-1.19796E-14
 -1      2801 3.83028E-03 4.99627E-04-1.11006E-14
 -1      2802 3.75703E-03 4.62506E-04-1.08064E-14
 -1      2803 4.25712E-03 4.98361E-04-1.38408E-14
 -1      2804 4.11478E-03 4.98882E-04-1.28929E-14
 -1      2805 4.04207E-03 4.61882E-04-1.25700E-14
 -1      2806 4.54195E-03 4.97135E-04-1.58389E-14
 -1      2807 4.39951E-03 4.97774E-04-1.48226E-14
 -1      2808 4.32722E-03 4.60854E-04-1.44702E-14
 -1      2809 4.82696E-03 4.95746E-04-1.79714E-14
 -1      2810 4.68444E-03 4.96456E-04-1.68889E-14
 -1      2811 4.61247E-03 4.59593E-04-1.65069E-14
 -1      2812 5.11214E-03 4.94247E-04-2.02381E-14
 -1      2813 4.96953E-03 4.95009E-04-1.90883E-14
 -1      2814 4.89782E-03 4.58194E-04-1.86779E-14
 -1      2815 5.39747E-03 4.92641E-04-2.26336E-14
 -1      2816 5.25479E-03 4.93458E-04-2.14193E-14
 -1      2817 5.18326E-03 4.56693E-04-2.09808E-14
 -1      2818 5.68293E-03 4.90893E-04-2.51598E-14
 -1      2819 5.54018E-03 4.91787E-04-2.38805E-14
 -1      2820 5.46879E-03 4.55084E-04-2.34132E-14
 -1      2821 5.96853E-03 4.88938E-04-2.78131E-14
 -1      2822 5.82572E-03 4.89945E-04-2.64707E-14
 -1      2823 5.75440E-03 4.53323E-04-2.59748E-14
 -1      2824 6.25429E-03 4.86691E-04-3.05924E-14
 -1      2825 6.11139E-03 4.87856E-04-2.91873E-14
 -1      2826 6.04009E-03 4.51342E-04-2.86642E-14
 -1      2827 6.54022E-03 4.84045E-04-3.34953E-14
 -1      2828 6.39723E-03 4.85423E-04-3.20277E-14
 -1      2829 6.32589E-03 4.49048E-04-3.14783E-14
 -1      2830 6.82637E-03 4.80882E-04-3.65214E-14
 -1      2831 6.68326E-03 4.82534E-04-3.49942E-14
 -1      2832 6.61180E-03 4.46335E-04-3.44162E-14
 -1      2833 7.11278E-03 4.77080E-04-3.96706E-14
 -1      2834 6.96953E-03 4.79066E-04-3.80800E-14
 -1      2835 6.89785E-03 4.43085E-04-3.74776E-14
 -1      2836 7.39955E-03 4.72520E-04-4.29435E-14
 -1      2837 7.25611E-03 4.74899E-04-4.12910E-14
 -1      2838 7.18407E-03 4.39178E-04-4.06618E-14
 -1      2839 7.68676E-03 4.67104E-04-4.63413E-14
 -1      2840 7.54308E-03 4.69922E-04-4.46264E-14
 -1      2841 7.47051E-03 4.34500E-04-4.39709E-14
 -1      2842 7.97452E-03 4.60774E-04-4.98605E-14
 -1      2843 7.83055E-03 4.64052E-04-4.80854E-14
 -1      2844 7.75719E-03 4.28964E-04-4.74044E-14
 -1      2845 8.26298E-03 4.53548E-04-5.35009E-14
 -1      2846 8.11864E-03 4.57267E-04-5.16652E-14
 -1      2847 8.04419E-03 4.22531E-04-5.09590E-14
 -1      2848 8.55230E-03 4.45564E-04-5.72571E-14
 -1      2849 8.40751E-03 4.49636E-04-5.53657E-14
 -1      2850 8.33155E-03 4.15241E-04-5.46332E-14
 -1      2851 8.84265E-03 4.37151E-04-6.11304E-14
 -1      2852 8.69731E-03 4.41383E-04-5.91802E-14
 -1      2853 8.61931E-03 4.07270E-04-5.84253E-14
 -1      2854 9.13424E-03 4.28922E-04-6.51122E-14
 -1      2855 8.98825E-03 4.32967E-04-6.31074E-14
 -1      2856 8.90754E-03 3.98995E-04-6.23298E-14
 -1      2857 9.42731E-03 4.21915E-04-6.92041E-14
 -1      2858 9.28054E-03 4.25191E-04-6.71449E-14
 -1      2859 9.19627E-03 3.91088E-04-6.63437E-14
 -1      2860 9.72219E-03 4.17770E-04-7.34048E-14
 -1      2861 9.57446E-03 4.19369E-04-7.12898E-14
 -1      2862 9.48560E-03 3.84648E-04-7.04662E-14
 -1      2863 1.00194E-02 4.18972E-04-7.77162E-14
 -1      2864 9.87041E-03 4.17526E-04-7.55480E-14
 -1      2865 9.77571E-03 3.81366E-04-7.46978E-14
 -1      2866 1.03197E-02 4.29159E-04-8.21360E-14
 -1      2867 1.01690E-02 4.22678E-04-7.99125E-14
 -1      2868 1.00671E-02 3.83736E-04-7.90396E-14
 -1      2869 1.06249E-02 4.53472E-04-8.66611E-14
 -1      2870 1.04715E-02 4.39152E-04-8.43856E-14
 -1      2871 1.03606E-02 3.95315E-04-8.34873E-14
 -1      2872 1.09376E-02 4.98941E-04-9.12855E-14
 -1      2873 1.07801E-02 4.72973E-04-8.89617E-14
 -1      2874 1.06586E-02 4.21043E-04-8.80355E-14
 -1      2875 1.12627E-02 5.74781E-04-9.60052E-14
 -1      2876 1.10984E-02 5.32215E-04-9.36336E-14
 -1      2877 1.09649E-02 4.67683E-04-9.26834E-14
 -1      2878 1.16062E-02 6.92254E-04-1.00814E-13
 -1      2879 1.14321E-02 6.27219E-04-9.83980E-14
 -1      2880 1.12862E-02 5.44461E-04-9.74235E-14
 -1      2881 1.19739E-02 8.62276E-04-1.05700E-13
 -1      2882 1.17876E-02 7.69582E-04-1.03248E-13
 -1      2883 1.16318E-02 6.63851E-04-1.02252E-13
 -1      2884 1.23646E-02 1.08936E-03-1.10668E-13
 -1      2885 1.21683E-02 9.69043E-04-1.08175E-13
 -1      2886 1.20105E-02 8.40096E-04-1.07157E-13
 -1      2887 1.32477E-02 1.60596E-03-1.22437E-13
 -1      2888 1.30649E-02 1.52927E-03-1.19867E-13
 -1      2889 1.38073E-02 1.50493E-03-1.31141E-13
 -1      2890 1.36376E-02 1.59357E-03-1.28535E-13
 -1      2891 1.40025E-02-5.21717E-04-1.41178E-13
 -1      2892 1.41222E-02-4.80860E-04-1.40977E-13
 -1      2893 1.35307E-02 1.62378E-03-1.26197E-13
 -1      2894 1.36699E-02 1.59627E-03-1.28044E-13
 -1      2895 1.33760E-02 1.61136E-03-1.24054E-13
 -1      2896 1.38638E-02-5.82338E-04-1.40981E-13
 -1      2897 1.43946E-02-3.72764E-04-1.40994E-13
 -1      2898 1.70126E-03 4.40484E-04-2.03479E-15
 -1      2899 1.55880E-03 4.25607E-04-1.69878E-15
 -1      2900 1.76216E-03 4.11164E-04-2.29099E-15
 -1      2901 1.37731E-02 1.55692E-03-1.29420E-13
 -1      2902 1.39342E-02 1.46833E-03-1.31387E-13
 -1      2903 1.30649E-02-8.84501E-04-1.24972E-13
 -1      2904 1.29049E-02-8.10300E-04-1.22792E-13
 -1      2905 7.88874E-04-2.52448E-04-6.45276E-16
 -1      2906 9.20066E-04-2.88228E-04-8.35486E-16
 -1      2907 1.11365E-02 1.31491E-04-1.08349E-13
 -1      2908 1.10375E-02 1.63330E-04-1.07897E-13
 -1      2909 1.09501E-02 2.20481E-04-1.06602E-13
 -1      2910 1.10107E-02 2.40767E-04-1.06740E-13
 -1      2911 1.11142E-02 2.77919E-04-1.06883E-13
 -1      2912 1.12472E-02 3.25979E-04-1.07253E-13
 -1      2913 2.55283E-03 4.88503E-04-4.74494E-15
 -1      2914 2.41108E-03 4.84115E-04-4.20998E-15
 -1      2915 2.61767E-03 4.53408E-04-5.12951E-15
 -1      2916 2.26929E-03 4.78556E-04-3.70815E-15
 -1      2917 2.12746E-03 4.71696E-04-3.24048E-15
 -1      2918 2.33279E-03 4.44772E-04-4.05063E-15
 -1      2919 1.04828E-03-3.15794E-04-1.05300E-15
 -1      2920 1.19156E-03-3.41439E-04-1.32929E-15
 -1      2921 1.25306E-03-3.19873E-04-1.50642E-15
 -1      2922 9.96752E-04-2.74799E-04-1.00309E-15
 -1      2923 1.41612E-03 4.07784E-04-1.39522E-15
 -1      2924 1.27306E-03 3.86754E-04-1.12371E-15
 -1      2925 1.18970E-03 3.41434E-04-1.05253E-15
 -1      2926 1.47614E-03 3.82136E-04-1.60741E-15
 -1      2927 1.14659E-02 4.20596E-04-1.08404E-13
 -1      2928 1.16755E-02 5.23060E-04-1.09546E-13
 -1      2929 7.84343E-04 1.23422E-04-6.55861E-16
 -1      2930 7.81947E-04 9.99910E-05-6.73235E-16
 -1      2931 8.99545E-04 9.94192E-05-8.65776E-16
 -1      2932 9.05304E-04 1.51547E-04-8.24021E-16
 -1      2933 1.27089E-02 1.22786E-03-1.16370E-13
 -1      2934 1.28978E-02 1.37696E-03-1.18182E-13
 -1      2935 1.09690E-02 1.86599E-04-1.07347E-13
 -1      2936 1.09346E-02 1.99338E-04-1.06798E-13
 -1      2937 1.09719E-02 1.66495E-04-1.06213E-13
 -1      2938 1.23931E-02-5.13926E-04-1.17172E-13
 -1      2939 1.22191E-02-4.04964E-04-1.15575E-13
 -1      2940 7.81679E-04-9.79345E-05-7.39643E-16
 -1      2941 7.84001E-04-1.21279E-04-7.37285E-16
 -1      2942 1.23376E-02 9.47570E-04-1.13328E-13
 -1      2943 1.25106E-02 1.07821E-03-1.14644E-13
 -1      2944 1.18969E-02 6.50632E-04-1.10612E-13
 -1      2945 1.21101E-02 7.87570E-04-1.11818E-13
 -1      2946 1.27612E-02-7.33871E-04-1.21082E-13
 -1      2947 1.26072E-02-6.40616E-04-1.19380E-13
 -1      2948 1.28051E-02-7.84683E-04-1.21651E-13
 -1      2949 1.34425E-02-9.10024E-04-1.30282E-13
 -1      2950 1.32795E-02-9.24229E-04-1.28050E-13
 -1      2951 6.52871E-04-1.88350E-04-4.96836E-16
 -1      2952 1.38064E-02-7.71148E-04-1.34595E-13
 -1      2953 1.36330E-02-8.55031E-04-1.32602E-13
 -1      2954 8.95389E-04 1.01006E-06-9.19485E-16
 -1      2955 7.77564E-04-9.71729E-06-7.28462E-16
 -1      2956 7.77929E-04-3.13572E-05-7.34181E-16
 -1      2957 1.13316E-02 3.65850E-04-1.06701E-13
 -1      2958 1.14121E-02 4.12295E-04-1.06146E-13
 -1      2959 1.12116E-02 3.27721E-04-1.05005E-13
 -1      2960 1.44591E-02 1.07777E-03-1.37486E-13
 -1      2961 1.46013E-02 1.01515E-03-1.37798E-13
 -1      2962 7.87064E-04-1.45412E-04-7.32189E-16
 -1      2963 7.90939E-04-1.70563E-04-7.24247E-16
 -1      2964 9.04829E-04-1.49012E-04-9.32671E-16
 -1      2965 8.64873E-04 2.66498E-04-5.92937E-16
 -1      2966 1.37366E-02-5.97501E-04-1.44729E-13
 -1      2967 2.04767E-03 4.31289E-04-3.10479E-15
 -1      2968 1.29508E-02 1.45228E-03-1.18356E-13
 -1      2969 1.33323E-02 1.63911E-03-1.23885E-13
 -1      2970 1.33938E-02 1.62602E-03-1.24451E-13
 -1      2971 1.27622E-02 1.35220E-03-1.15685E-13
 -1      2972 1.25669E-02 1.22371E-03-1.13160E-13
 -1      2973 1.34963E-02 1.63549E-03-1.26474E-13
 -1      2974 1.41542E-02 1.22440E-03-1.36364E-13
 -1      2975 1.39792E-02 1.37672E-03-1.33751E-13
 -1      2976 1.36839E-02 1.58352E-03-1.28652E-13
 -1      2977 1.34717E-02 1.62917E-03-1.25512E-13
 -1      2978 1.10313E-02 2.52838E-04-1.05417E-13
 -1      2979 1.12062E-02 9.95357E-05-1.08310E-13
 -1      2980 1.11048E-02 1.14579E-04-1.06720E-13
 -1      2981 1.12796E-02 6.15338E-05-1.08270E-13
 -1      2982 1.35133E-02-8.79766E-04-1.31834E-13
 -1      2983 1.25842E-02 1.15751E-03-1.14688E-13
 -1      2984 1.09143E-02 2.03051E-04-1.05472E-13
 -1      2985 1.39111E-02-6.97416E-04-1.36145E-13
 -1      2986 1.31459E-02-9.15628E-04-1.26429E-13
 -1      2987 1.30166E-02-8.91837E-04-1.24813E-13
 -1      2988 1.32105E-02-9.25701E-04-1.27889E-13
 -1      2989 7.69983E-04-2.02348E-04-6.65768E-16
 -1      2990 1.21375E-02-4.11888E-04-1.14121E-13
 -1      2991 1.20842E-02-3.37772E-04-1.14160E-13
 -1      2992 1.19505E-02-2.78139E-04-1.12755E-13
 -1      2993 1.16351E-02-7.30787E-05-1.11327E-13
 -1      2994 1.15004E-02-2.96597E-05-1.09807E-13
 -1      2995 1.17217E-02-1.39485E-04-1.11264E-13
 -1      2996 7.78712E-04-5.31347E-05-7.37813E-16
 -1      2997 7.79935E-04-7.53164E-05-7.39548E-16
 -1      2998 8.99261E-04-9.70680E-05-9.38079E-16
 -1      2999 8.96290E-04-4.75126E-05-9.33159E-16
 -1      3000 1.17614E-02 5.84266E-04-1.08906E-13
 -1      3001 1.21847E-02 8.58756E-04-1.11466E-13
 -1      3002 1.24721E-02-5.94020E-04-1.17734E-13
 -1      3003 9.82961E-04 2.75734E-04-7.81073E-16
 -1      3004 1.42528E-02 1.21776E-03-1.35713E-13
 -1      3005 1.43439E-02 1.13634E-03-1.37025E-13
 -1      3006 1.39656E-02 1.41984E-03-1.32638E-13
 -1      3007 1.24257E-02 1.08941E-03-1.12120E-13
 -1      3008 1.37697E-02-6.73729E-04-1.38568E-13
 -1      3009 1.41402E-02 1.32235E-03-1.34002E-13
 -1      3010 1.04026E-03 2.43215E-04-9.42863E-16
 -1      3011 1.03363E-03 2.11496E-04-9.79035E-16
 -1      3012 1.44458E-03-3.13698E-04-1.99721E-15
 -1      3013 1.58807E-03-3.28177E-04-2.37420E-15
 -1      3014 3.54059E-03 4.25183E-04-9.69538E-15
 -1      3015 3.39777E-03 4.24943E-04-8.91427E-15
 -1      3016 1.73166E-03-3.40429E-04-2.78460E-15
 -1      3017 1.87532E-03-3.50644E-04-3.22865E-15
 -1      3018 1.65233E-03-3.00105E-04-2.59534E-15
 -1      3019 2.01898E-03-3.59144E-04-3.70594E-15
 -1      3020 2.16262E-03-3.66084E-04-4.21673E-15
 -1      3021 1.94011E-03-3.19335E-04-3.48353E-15
 -1      3022 2.30621E-03-3.71741E-04-4.76070E-15
 -1      3023 2.44975E-03-3.76243E-04-5.33793E-15
 -1      3024 2.22813E-03-3.32480E-04-4.50445E-15
 -1      3025 2.59324E-03-3.79811E-04-5.94909E-15
 -1      3026 2.73667E-03-3.82544E-04-6.59351E-15
 -1      3027 2.51608E-03-3.41045E-04-5.65841E-15
 -1      3028 2.88005E-03-3.84616E-04-7.27085E-15
 -1      3029 3.02336E-03-3.86103E-04-7.98209E-15
 -1      3030 2.80383E-03-3.46269E-04-6.94499E-15
 -1      3031 3.16664E-03-3.87134E-04-8.72691E-15
 -1      3032 3.30986E-03-3.87767E-04-9.50477E-15
 -1      3033 3.09131E-03-3.49125E-04-8.36486E-15
 -1      3034 3.45305E-03-3.88096E-04-1.03164E-14
 -1      3035 3.59619E-03-3.88164E-04-1.11612E-14
 -1      3036 3.37852E-03-3.50354E-04-9.91874E-15
 -1      3037 3.73931E-03-3.88038E-04-1.20391E-14
 -1      3038 3.88239E-03-3.87747E-04-1.29505E-14
 -1      3039 3.66547E-03-3.50504E-04-1.16049E-14
 -1      3040 4.02545E-03-3.87338E-04-1.38947E-14
 -1      3041 4.16847E-03-3.86829E-04-1.48720E-14
 -1      3042 3.95219E-03-3.49967E-04-1.34240E-14
 -1      3043 4.31149E-03-3.86252E-04-1.58830E-14
 -1      3044 4.45447E-03-3.85618E-04-1.69275E-14
 -1      3045 4.23872E-03-3.49013E-04-1.53756E-14
 -1      3046 4.59745E-03-3.84944E-04-1.80035E-14
 -1      3047 4.74040E-03-3.84238E-04-1.91134E-14
 -1      3048 4.52507E-03-3.47816E-04-1.74596E-14
 -1      3049 4.88335E-03-3.83507E-04-2.02569E-14
 -1      3050 5.02628E-03-3.82752E-04-2.14322E-14
 -1      3051 4.81129E-03-3.46478E-04-1.96752E-14
 -1      3052 5.16921E-03-3.81976E-04-2.26406E-14
 -1      3053 5.31212E-03-3.81175E-04-2.38824E-14
 -1      3054 5.09738E-03-3.45048E-04-2.20231E-14
 -1      3055 5.45503E-03-3.80347E-04-2.51570E-14
 -1      3056 5.59793E-03-3.79485E-04-2.64641E-14
 -1      3057 5.38338E-03-3.43529E-04-2.45022E-14
 -1      3058 5.74082E-03-3.78582E-04-2.78038E-14
 -1      3059 5.88371E-03-3.77631E-04-2.91773E-14
 -1      3060 5.66929E-03-3.41893E-04-2.71127E-14
 -1      3061 6.02659E-03-3.76621E-04-3.05831E-14
 -1      3062 6.16946E-03-3.75542E-04-3.20231E-14
 -1      3063 5.95511E-03-3.40086E-04-2.98545E-14
 -1      3064 6.31233E-03-3.74381E-04-3.34965E-14
 -1      3065 6.45519E-03-3.73129E-04-3.50024E-14
 -1      3066 6.24083E-03-3.38035E-04-3.27299E-14
 -1      3067 6.59804E-03-3.71770E-04-3.65406E-14
 -1      3068 6.74088E-03-3.70294E-04-3.81122E-14
 -1      3069 6.52646E-03-3.35655E-04-3.57368E-14
 -1      3070 6.88370E-03-3.68687E-04-3.97160E-14
 -1      3071 7.02652E-03-3.66937E-04-4.13515E-14
 -1      3072 6.81196E-03-3.32848E-04-3.88729E-14
 -1      3073 7.16932E-03-3.65034E-04-4.30196E-14
 -1      3074 7.31211E-03-3.62965E-04-4.47187E-14
 -1      3075 7.09730E-03-3.29519E-04-4.21387E-14
 -1      3076 7.45488E-03-3.60725E-04-4.64485E-14
 -1      3077 7.59764E-03-3.58305E-04-4.82102E-14
 -1      3078 7.38245E-03-3.25579E-04-4.55306E-14
 -1      3079 7.74038E-03-3.55706E-04-5.00020E-14
 -1      3080 7.88310E-03-3.52924E-04-5.18222E-14
 -1      3081 7.66735E-03-3.20959E-04-4.90469E-14
 -1      3082 8.02580E-03-3.49974E-04-5.36718E-14
 -1      3083 8.16851E-03-3.46859E-04-5.55523E-14
 -1      3084 7.95197E-03-3.15633E-04-5.26820E-14
 -1      3085 8.31119E-03-3.43611E-04-5.74636E-14
 -1      3086 8.45389E-03-3.40248E-04-5.94032E-14
 -1      3087 8.23628E-03-3.09638E-04-5.64379E-14
 -1      3088 8.59659E-03-3.36825E-04-6.13693E-14
 -1      3089 8.73935E-03-3.33379E-04-6.33623E-14
 -1      3090 8.52027E-03-3.03109E-04-6.03102E-14
 -1      3091 8.88215E-03-3.29998E-04-6.53838E-14
 -1      3092 9.02507E-03-3.26748E-04-6.74317E-14
 -1      3093 8.80401E-03-2.96323E-04-6.42935E-14
 -1      3094 9.16811E-03-3.23756E-04-6.95052E-14
 -1      3095 9.31140E-03-3.21132E-04-7.16036E-14
 -1      3096 9.08767E-03-2.89749E-04-6.83827E-14
 -1      3097 9.45495E-03-3.19043E-04-7.37276E-14
 -1      3098 9.59892E-03-3.17665E-04-7.58767E-14
 -1      3099 9.37163E-03-2.84114E-04-7.25748E-14
 -1      3100 9.74341E-03-3.17209E-04-7.80513E-14
 -1      3101 9.88860E-03-3.17943E-04-8.02500E-14
 -1      3102 9.65657E-03-2.80477E-04-7.68626E-14
 -1      3103 1.00347E-02-3.20114E-04-8.24741E-14
 -1      3104 1.01819E-02-3.24128E-04-8.47238E-14
 -1      3105 9.94363E-03-2.80330E-04-8.12557E-14
 -1      3106 1.03306E-02-3.30249E-04-8.69982E-14
 -1      3107 1.04811E-02-3.39077E-04-8.92956E-14
 -1      3108 1.02346E-02-2.85727E-04-8.57470E-14
 -1      3109 1.06337E-02-3.50871E-04-9.16134E-14
 -1      3110 1.07889E-02-3.66483E-04-9.39556E-14
 -1      3111 1.05322E-02-2.99485E-04-9.03328E-14
 -1      3112 1.09472E-02-3.86118E-04-9.63196E-14
 -1      3113 1.11087E-02-4.10935E-04-9.87054E-14
 -1      3114 1.08402E-02-3.25469E-04-9.50087E-14
 -1      3115 1.12743E-02-4.41041E-04-1.01113E-13
 -1      3116 1.14434E-02-4.77684E-04-1.03542E-13
 -1      3117 1.11628E-02-3.68995E-04-9.97716E-14
 -1      3118 1.16169E-02-5.20829E-04-1.05991E-13
 -1      3119 1.17931E-02-5.71014E-04-1.08462E-13
 -1      3120 1.15043E-02-4.37007E-04-1.04622E-13
 -1      3121 1.19729E-02-6.27332E-04-1.10955E-13
 -1      3122 1.21528E-02-6.88796E-04-1.13469E-13
 -1      3123 1.18655E-02-5.35804E-04-1.09559E-13
 -1      3124 1.23327E-02-7.53486E-04-1.16004E-13
 -1      3125 1.25090E-02-8.16047E-04-1.18556E-13
 -1      3126 1.22398E-02-6.65118E-04-1.14579E-13
 -1      3127 1.29878E-02-9.32079E-04-1.25729E-13
 -1      3128 1.31463E-02-9.36680E-04-1.28350E-13
 -1      3129 3.25492E-03 4.24406E-04-8.16686E-15
 -1      3130 3.11207E-03 4.23526E-04-7.45398E-15
 -1      3131 3.32309E-03 3.87232E-04-8.64581E-15
 -1      3132 2.96918E-03 4.22197E-04-6.77507E-15
 -1      3133 2.82628E-03 4.20356E-04-6.13036E-15
 -1      3134 3.03653E-03 3.85510E-04-7.21256E-15
 -1      3135 3.82622E-03 4.25031E-04-1.13614E-14
 -1      3136 3.68341E-03 4.25201E-04-1.05111E-14
 -1      3137 3.60947E-03 3.87716E-04-1.02148E-14
 -1      3138 4.11184E-03 4.24302E-04-1.31644E-14
 -1      3139 3.96904E-03 4.24724E-04-1.22459E-14
 -1      3140 3.89571E-03 3.87407E-04-1.19211E-14
 -1      3141 4.39746E-03 4.23233E-04-1.51032E-14
 -1      3142 4.25465E-03 4.23801E-04-1.41166E-14
 -1      3143 4.18183E-03 3.86611E-04-1.37623E-14
 -1      3144 4.68309E-03 4.21967E-04-1.71788E-14
 -1      3145 4.54028E-03 4.22619E-04-1.61245E-14
 -1      3146 4.46786E-03 3.85529E-04-1.57411E-14
 -1      3147 4.96874E-03 4.20582E-04-1.93875E-14
 -1      3148 4.82592E-03 4.21288E-04-1.82664E-14
 -1      3149 4.75382E-03 3.84284E-04-1.78544E-14
 -1      3150 5.25441E-03 4.19102E-04-2.17265E-14
 -1      3151 5.11157E-03 4.19854E-04-2.05408E-14
 -1      3152 5.03972E-03 3.82934E-04-2.00999E-14
 -1      3153 5.54010E-03 4.17509E-04-2.41955E-14
 -1      3154 5.39725E-03 4.18321E-04-2.29446E-14
 -1      3155 5.32559E-03 3.81492E-04-2.24757E-14
 -1      3156 5.82582E-03 4.15755E-04-2.67939E-14
 -1      3157 5.68296E-03 4.16655E-04-2.54795E-14
 -1      3158 5.61141E-03 3.79933E-04-2.49821E-14
 -1      3159 6.11158E-03 4.13766E-04-2.95192E-14
 -1      3160 5.96869E-03 4.14795E-04-2.81411E-14
 -1      3161 5.89721E-03 3.78205E-04-2.76166E-14
 -1      3162 6.39737E-03 4.11451E-04-3.23670E-14
 -1      3163 6.25446E-03 4.12655E-04-3.09274E-14
 -1      3164 6.18297E-03 3.76232E-04-3.03768E-14
 -1      3165 6.68320E-03 4.08702E-04-3.53408E-14
 -1      3166 6.54027E-03 4.10137E-04-3.38377E-14
 -1      3167 6.46871E-03 3.73922E-04-3.32593E-14
 -1      3168 6.96907E-03 4.05403E-04-3.84366E-14
 -1      3169 6.82613E-03 4.07127E-04-3.68734E-14
 -1      3170 6.75440E-03 3.71171E-04-3.62671E-14
 -1      3171 7.25500E-03 4.01441E-04-4.16579E-14
 -1      3172 7.11202E-03 4.03511E-04-4.00321E-14
 -1      3173 7.04002E-03 3.67868E-04-3.93999E-14
 -1      3174 7.54097E-03 3.96712E-04-4.50039E-14
 -1      3175 7.39797E-03 3.99177E-04-4.33154E-14
 -1      3176 7.32554E-03 3.63909E-04-4.26584E-14
 -1      3177 7.82697E-03 3.91143E-04-4.84714E-14
 -1      3178 7.68396E-03 3.94035E-04-4.67220E-14
 -1      3179 7.61092E-03 3.59202E-04-4.60393E-14
 -1      3180 8.11299E-03 3.84714E-04-5.20620E-14
 -1      3181 7.96997E-03 3.88035E-04-5.02515E-14
 -1      3182 7.89608E-03 3.53693E-04-4.95435E-14
 -1      3183 8.39899E-03 3.77498E-04-5.57709E-14
 -1      3184 8.25598E-03 3.81198E-04-5.39022E-14
 -1      3185 8.18092E-03 3.47388E-04-5.31693E-14
 -1      3186 8.68489E-03 3.69709E-04-5.95949E-14
 -1      3187 8.54194E-03 3.73661E-04-5.76678E-14
 -1      3188 8.46532E-03 3.40391E-04-5.69115E-14
 -1      3189 8.97063E-03 3.61768E-04-6.35305E-14
 -1      3190 8.82777E-03 3.65730E-04-6.15486E-14
 -1      3191 8.74909E-03 3.32955E-04-6.07671E-14
 -1      3192 9.25610E-03 3.54399E-04-6.75773E-14
 -1      3193 9.11338E-03 3.57966E-04-6.55400E-14
 -1      3194 9.03202E-03 3.25546E-04-6.47353E-14
 -1      3195 9.54123E-03 3.48738E-04-7.17317E-14
 -1      3196 9.39867E-03 3.51283E-04-6.96423E-14
 -1      3197 9.31385E-03 3.18922E-04-6.88146E-14
 -1      3198 9.82608E-03 3.46480E-04-7.59946E-14
 -1      3199 9.68363E-03 3.47074E-04-7.38481E-14
 -1      3200 9.59437E-03 3.14230E-04-7.30003E-14
 -1      3201 1.01110E-02 3.50041E-04-8.03647E-14
 -1      3202 9.96845E-03 3.47369E-04-7.81663E-14
 -1      3203 9.87351E-03 3.13109E-04-7.72929E-14
 -1      3204 1.03972E-02 3.62764E-04-8.48375E-14
 -1      3205 1.02538E-02 3.55008E-04-8.25892E-14
 -1      3206 1.01516E-02 3.17800E-04-8.16911E-14
 -1      3207 1.06872E-02 3.89197E-04-8.94101E-14
 -1      3208 1.05414E-02 3.73870E-04-8.71117E-14
 -1      3209 1.04297E-02 3.31270E-04-8.61889E-14
 -1      3210 1.09858E-02 4.35643E-04-9.40799E-14
 -1      3211 1.08349E-02 4.09259E-04-9.17323E-14
 -1      3212 1.07107E-02 3.57463E-04-9.07843E-14
 -1      3213 1.13018E-02 5.11254E-04-9.88426E-14
 -1      3214 1.11409E-02 4.68651E-04-9.64501E-14
 -1      3215 1.10004E-02 4.02017E-04-9.54772E-14
 -1      3216 1.16484E-02 6.30159E-04-1.03690E-13
 -1      3217 1.14706E-02 5.63183E-04-1.01257E-13
 -1      3218 1.13093E-02 4.73903E-04-1.00262E-13
 -1      3219 1.36214E-02 1.60242E-03-1.27965E-13
 -1      3220 1.09531E-02 2.31327E-04-1.03955E-13
 -1      3221 1.10422E-02 2.63185E-04-1.04093E-13
 -1      3222 1.82457E-03 3.81123E-04-2.55443E-15
 -1      3223 1.68122E-03 3.69526E-04-2.17502E-15
 -1      3224 2.11108E-03 3.98736E-04-3.41059E-15
 -1      3225 1.96786E-03 3.90802E-04-2.96619E-15
 -1      3226 1.88824E-03 3.50413E-04-2.82502E-15
 -1      3227 8.87883E-04-2.11772E-04-8.60924E-16
 -1      3228 1.35826E-02-8.36005E-04-1.33625E-13
 -1      3229 1.34155E-02-8.96763E-04-1.31298E-13
 -1      3230 2.39732E-03 4.10451E-04-4.39854E-15
 -1      3231 2.25423E-03 4.05239E-04-3.88777E-15
 -1      3232 2.17559E-03 3.65633E-04-3.72352E-15
 -1      3233 2.68334E-03 4.17859E-04-5.51997E-15
 -1      3234 2.54036E-03 4.14621E-04-4.94266E-15
 -1      3235 2.46279E-03 3.75674E-04-4.75318E-15
 -1      3236 1.09714E-02 1.44217E-04-1.05018E-13
 -1      3237 1.09105E-02 1.63532E-04-1.04474E-13
 -1      3238 1.28234E-02 1.38116E-03-1.16584E-13
 -1      3239 1.08805E-02 1.86483E-04-1.04180E-13
 -1      3240 1.08938E-02 2.04315E-04-1.03984E-13
 -1      3241 1.25325E-02-6.72877E-04-1.18282E-13
 -1      3242 1.23454E-02-5.65346E-04-1.16080E-13
 -1      3243 1.14502E-03 3.10513E-04-1.02605E-15
 -1      3244 1.08236E-03 2.71590E-04-9.75443E-16
 -1      3245 1.20145E-03 2.73024E-04-1.21538E-15
 -1      3246 1.28818E-03 3.32482E-04-1.28426E-15
 -1      3247 1.28468E-02-8.31430E-04-1.22386E-13
 -1      3248 1.27229E-02-7.66878E-04-1.20678E-13
 -1      3249 1.25845E-02-7.35164E-04-1.19007E-13
 -1      3250 1.29286E-02-8.80072E-04-1.23831E-13
 -1      3251 1.35731E-02-7.94947E-04-1.35722E-13
 -1      3252 1.36881E-02-7.60804E-04-1.35918E-13
 -1      3253 1.16164E-02 5.21552E-04-1.06905E-13
 -1      3254 1.18094E-02 6.34900E-04-1.07958E-13
 -1      3255 1.01648E-03 6.81864E-05-1.10323E-15
 -1      3256 1.01530E-03 4.12118E-05-1.11903E-15
 -1      3257 1.08833E-02 2.11173E-04-1.02671E-13
 -1      3258 1.10976E-02 2.91361E-04-1.03544E-13
 -1      3259 1.11552E-02 3.25172E-04-1.02994E-13
 -1      3260 1.09965E-02 2.64754E-04-1.02091E-13
 -1      3261 1.15303E-03 2.11767E-04-1.21526E-15
 -1      3262 1.02828E-03 1.81123E-04-1.01061E-15
 -1      3263 1.02409E-03 1.51800E-04-1.03867E-15
 -1      3264 1.55632E-03 3.61451E-04-1.86136E-15
 -1      3265 1.41296E-03 3.45266E-04-1.54321E-15
 -1      3266 1.36910E-03 3.15019E-04-1.50631E-15
 -1      3267 1.61928E-03 3.33844E-04-2.09288E-15
 -1      3268 1.25255E-02 1.12712E-03-1.13797E-13
 -1      3269 1.23039E-02 9.80641E-04-1.11303E-13
 -1      3270 2.74977E-03 3.81935E-04-5.91573E-15
 -1      3271 1.34501E-02-8.57336E-04-1.33739E-13
 -1      3272 1.28423E-02-8.97350E-04-1.23294E-13
 -1      3273 1.26703E-02-8.47026E-04-1.20706E-13
 -1      3274 1.33289E-02-9.02230E-04-1.31762E-13
 -1      3275 1.27004E-02 1.26354E-03-1.15517E-13
 -1      3276 1.17490E-02 6.60741E-04-1.05331E-13
 -1      3277 1.15661E-02 5.46004E-04-1.04320E-13
 -1      3278 1.01424E-03-2.34347E-04-1.08195E-15
 -1      3279 1.19441E-02 7.54303E-04-1.07795E-13
 -1      3280 1.21088E-02 8.36939E-04-1.09807E-13
 -1      3281 1.40169E-02-5.92862E-04-1.38451E-13
 -1      3282 1.42610E-02-4.36878E-04-1.40664E-13
 -1      3283 1.13620E-02 1.19682E-05-1.08210E-13
 -1      3284 1.12362E-02 3.93707E-05-1.06618E-13
 -1      3285 1.14388E-02-4.41851E-05-1.08146E-13
 -1      3286 1.08557E-02 1.66975E-04-1.02994E-13
 -1      3287 1.38060E-02-7.18119E-04-1.36459E-13
 -1      3288 1.18057E-02-2.15554E-04-1.11229E-13
 -1      3289 1.16652E-02-1.63905E-04-1.09707E-13
 -1      3290 1.18683E-02-2.91923E-04-1.11187E-13
 -1      3291 1.10613E-02 9.42845E-05-1.04938E-13
 -1      3292 1.10130E-02 1.21312E-04-1.04979E-13
 -1      3293 1.09296E-02 1.21739E-04-1.03246E-13
 -1      3294 1.18783E-03-2.78717E-04-1.40709E-15
 -1      3295 1.31608E-03-2.97246E-04-1.68889E-15
 -1      3296 1.38016E-03-2.73392E-04-1.87658E-15
 -1      3297 1.14659E-02 4.60367E-04-1.05207E-13
 -1      3298 1.01470E-03 1.44438E-05-1.13234E-15
 -1      3299 1.01467E-03-1.22250E-05-1.14316E-15
 -1      3300 1.13538E-03 3.01569E-05-1.36619E-15
 -1      3301 1.02077E-03 1.23264E-04-1.06329E-15
 -1      3302 1.01829E-03 9.54994E-05-1.08483E-15
 -1      3303 1.13805E-03 8.86008E-05-1.32935E-15
 -1      3304 1.14368E-03 1.48738E-04-1.27967E-15
 -1      3305 1.02361E-03-1.49067E-04-1.15775E-15
 -1      3306 1.02767E-03-1.78299E-04-1.15129E-15
 -1      3307 1.01802E-03-9.29656E-05-1.16015E-15
 -1      3308 1.02041E-03-1.20674E-04-1.16058E-15
 -1      3309 1.14320E-03-1.45864E-04-1.40652E-15
 -1      3310 1.32895E-02-9.19414E-04-1.29664E-13
 -1      3311 2.81697E-03 3.45627E-04-6.31784E-15
 -1      3312 2.67310E-03 3.43378E-04-5.69985E-15
 -1      3313 1.25925E-02-7.74243E-04-1.19259E-13
 -1      3314 1.86179E-03-2.79977E-04-3.26415E-15
 -1      3315 2.00600E-03-2.87320E-04-3.74146E-15
 -1      3316 2.15030E-03-2.93389E-04-4.25164E-15
 -1      3317 2.29465E-03-2.98310E-04-4.79440E-15
 -1      3318 2.07286E-03-2.54614E-04-4.00209E-15
 -1      3319 2.43898E-03-3.02281E-04-5.37035E-15
 -1      3320 2.58329E-03-3.05397E-04-5.97990E-15
 -1      3321 2.36206E-03-2.63621E-04-5.08640E-15
 -1      3322 2.72754E-03-3.07824E-04-6.62224E-15
 -1      3323 2.87173E-03-3.09636E-04-7.29767E-15
 -1      3324 2.65129E-03-2.69352E-04-6.30278E-15
 -1      3325 3.01584E-03-3.10966E-04-8.00583E-15
 -1      3326 3.15986E-03-3.11867E-04-8.74820E-15
 -1      3327 2.94031E-03-2.72705E-04-7.65082E-15
 -1      3328 3.30381E-03-3.12441E-04-9.52412E-15
 -1      3329 3.44767E-03-3.12726E-04-1.03324E-14
 -1      3330 3.22899E-03-2.74387E-04-9.13238E-15
 -1      3331 3.59144E-03-3.12797E-04-1.11740E-14
 -1      3332 3.73514E-03-3.12681E-04-1.20486E-14
 -1      3333 3.51728E-03-2.74935E-04-1.07470E-14
 -1      3334 3.87876E-03-3.12432E-04-1.29562E-14
 -1      3335 4.02230E-03-3.12067E-04-1.38971E-14
 -1      3336 3.80517E-03-2.74742E-04-1.24925E-14
 -1      3337 4.16578E-03-3.11624E-04-1.48713E-14
 -1      3338 4.30919E-03-3.11111E-04-1.58788E-14
 -1      3339 4.09269E-03-2.74088E-04-1.43707E-14
 -1      3340 4.45254E-03-3.10554E-04-1.69185E-14
 -1      3341 4.59584E-03-3.09957E-04-1.79910E-14
 -1      3342 4.37988E-03-2.73159E-04-1.63810E-14
 -1      3343 4.73909E-03-3.09334E-04-1.90971E-14
 -1      3344 4.88228E-03-3.08687E-04-2.02363E-14
 -1      3345 4.66676E-03-2.72071E-04-1.85233E-14
 -1      3346 5.02544E-03-3.08020E-04-2.14086E-14
 -1      3347 5.16855E-03-3.07333E-04-2.26131E-14
 -1      3348 4.95339E-03-2.70888E-04-2.07969E-14
 -1      3349 5.31163E-03-3.06625E-04-2.38506E-14
 -1      3350 5.45467E-03-3.05892E-04-2.51219E-14
 -1      3351 5.23979E-03-2.69629E-04-2.32033E-14
 -1      3352 5.59767E-03-3.05130E-04-2.64254E-14
 -1      3353 5.74063E-03-3.04331E-04-2.77618E-14
 -1      3354 5.52598E-03-2.68285E-04-2.57410E-14
 -1      3355 5.88356E-03-3.03489E-04-2.91301E-14
 -1      3356 6.02645E-03-3.02595E-04-3.05316E-14
 -1      3357 5.81197E-03-2.66821E-04-2.84097E-14
 -1      3358 6.16931E-03-3.01640E-04-3.19680E-14
 -1      3359 6.31212E-03-3.00613E-04-3.34364E-14
 -1      3360 6.09776E-03-2.65180E-04-3.12097E-14
 -1      3361 6.45488E-03-2.99503E-04-3.49373E-14
 -1      3362 6.59760E-03-2.98299E-04-3.64711E-14
 -1      3363 6.38332E-03-2.63295E-04-3.41421E-14
 -1      3364 6.74025E-03-2.96990E-04-3.80359E-14
 -1      3365 6.88285E-03-2.95562E-04-3.96331E-14
 -1      3366 6.66861E-03-2.61084E-04-3.72038E-14
 -1      3367 7.02538E-03-2.94008E-04-4.12634E-14
 -1      3368 7.16783E-03-2.92311E-04-4.29243E-14
 -1      3369 6.95357E-03-2.58462E-04-4.03927E-14
 -1      3370 7.31018E-03-2.90467E-04-4.46176E-14
 -1      3371 7.45245E-03-2.88461E-04-4.63421E-14
 -1      3372 7.23811E-03-2.55341E-04-4.37089E-14
 -1      3373 7.59460E-03-2.86293E-04-4.80966E-14
 -1      3374 7.73664E-03-2.83949E-04-4.98827E-14
 -1      3375 7.52214E-03-2.51643E-04-4.71511E-14
 -1      3376 7.87855E-03-2.81438E-04-5.16968E-14
 -1      3377 8.02032E-03-2.78749E-04-5.35410E-14
 -1      3378 7.80554E-03-2.47307E-04-5.07153E-14
 -1      3379 8.16194E-03-2.75903E-04-5.54172E-14
 -1      3380 8.30341E-03-2.72895E-04-5.73232E-14
 -1      3381 8.08818E-03-2.42305E-04-5.44004E-14
 -1      3382 8.44471E-03-2.69763E-04-5.92559E-14
 -1      3383 8.58587E-03-2.66511E-04-6.12177E-14
 -1      3384 8.36994E-03-2.36662E-04-5.82050E-14
 -1      3385 8.72686E-03-2.63198E-04-6.32061E-14
 -1      3386 8.86773E-03-2.59847E-04-6.52220E-14
 -1      3387 8.65073E-03-2.30480E-04-6.21222E-14
 -1      3388 9.00846E-03-2.56540E-04-6.72636E-14
 -1      3389 9.14915E-03-2.53326E-04-6.93306E-14
 -1      3390 8.93057E-03-2.23967E-04-6.61482E-14
 -1      3391 9.28980E-03-2.50314E-04-7.14229E-14
 -1      3392 9.43054E-03-2.47596E-04-7.35397E-14
 -1      3393 9.20958E-03-2.17475E-04-7.02758E-14
 -1      3394 9.57141E-03-2.45306E-04-7.56820E-14
 -1      3395 9.71263E-03-2.43604E-04-7.78493E-14
 -1      3396 9.48816E-03-2.11547E-04-7.45040E-14
 -1      3397 9.85430E-03-2.42644E-04-8.00414E-14
 -1      3398 9.99673E-03-2.42695E-04-8.22584E-14
 -1      3399 9.76711E-03-2.06975E-04-7.88320E-14
 -1      3400 1.01401E-02-2.43922E-04-8.45003E-14
 -1      3401 1.02850E-02-2.46773E-04-8.67684E-14
 -1      3402 1.00479E-02-2.04909E-04-8.32607E-14
 -1      3403 1.04316E-02-2.51404E-04-8.90573E-14
 -1      3404 1.05805E-02-2.58576E-04-9.13667E-14
 -1      3405 1.03328E-02-2.07041E-04-8.77848E-14
 -1      3406 1.07324E-02-2.68422E-04-9.37023E-14
 -1      3407 1.08878E-02-2.82172E-04-9.60594E-14
 -1      3408 1.06255E-02-2.16005E-04-9.24021E-14
 -1      3409 1.10477E-02-2.99926E-04-9.84376E-14
 -1      3410 1.12126E-02-3.23681E-04-1.00838E-13
 -1      3411 1.09314E-02-2.36078E-04-9.71087E-14
 -1      3412 1.13837E-02-3.53673E-04-1.03260E-13
 -1      3413 1.15607E-02-3.92353E-04-1.05704E-13
 -1      3414 1.12576E-02-2.74738E-04-1.01903E-13
 -1      3415 1.22228E-02-6.16376E-04-1.14333E-13
 -1      3416 1.24169E-02-6.93036E-04-1.16872E-13
 -1      3417 3.67874E-03 3.50062E-04-1.07390E-14
 -1      3418 3.53528E-03 3.50047E-04-9.91740E-15
 -1      3419 3.10449E-03 3.48515E-04-7.65620E-15
 -1      3420 2.96077E-03 3.47318E-04-6.97012E-15
 -1      3421 2.88487E-03 3.08998E-04-6.72655E-15
 -1      3422 4.25205E-03 3.48813E-04-1.43655E-14
 -1      3423 4.10880E-03 3.49268E-04-1.34084E-14
 -1      3424 4.53843E-03 3.47750E-04-1.63826E-14
 -1      3425 4.39526E-03 3.48305E-04-1.53569E-14
 -1      3426 4.32248E-03 3.10946E-04-1.49735E-14
 -1      3427 4.82466E-03 3.46551E-04-1.85332E-14
 -1      3428 4.68156E-03 3.47165E-04-1.74414E-14
 -1      3429 4.60915E-03 3.09927E-04-1.70276E-14
 -1      3430 5.11078E-03 3.45258E-04-2.08155E-14
 -1      3431 4.96774E-03 3.45916E-04-1.96576E-14
 -1      3432 4.89562E-03 3.08794E-04-1.92150E-14
 -1      3433 5.39679E-03 3.43876E-04-2.32283E-14
 -1      3434 5.25380E-03 3.44580E-04-2.20059E-14
 -1      3435 5.18190E-03 3.07579E-04-2.15348E-14
 -1      3436 5.68271E-03 3.42373E-04-2.57714E-14
 -1      3437 5.53976E-03 3.43142E-04-2.44832E-14
 -1      3438 5.46803E-03 3.06274E-04-2.39843E-14
 -1      3439 5.96855E-03 3.40694E-04-2.84414E-14
 -1      3440 5.82564E-03 3.41559E-04-2.70902E-14
 -1      3441 5.75401E-03 3.04847E-04-2.65629E-14
 -1      3442 6.25429E-03 3.38764E-04-3.12356E-14
 -1      3443 6.11143E-03 3.39765E-04-2.98233E-14
 -1      3444 6.03984E-03 3.03241E-04-2.92691E-14
 -1      3445 6.53991E-03 3.36493E-04-3.41551E-14
 -1      3446 6.39711E-03 3.37677E-04-3.26803E-14
 -1      3447 6.32551E-03 3.01383E-04-3.20998E-14
 -1      3448 6.82539E-03 3.33783E-04-3.71982E-14
 -1      3449 6.68267E-03 3.35199E-04-3.56610E-14
 -1      3450 6.61097E-03 2.99188E-04-3.50541E-14
 -1      3451 7.11069E-03 3.30531E-04-4.03671E-14
 -1      3452 6.96806E-03 3.32231E-04-3.87667E-14
 -1      3453 6.89619E-03 2.96566E-04-3.81330E-14
 -1      3454 7.39571E-03 3.26644E-04-4.36621E-14
 -1      3455 7.25323E-03 3.28673E-04-4.19986E-14
 -1      3456 7.18108E-03 2.93425E-04-4.13384E-14
 -1      3457 7.68039E-03 3.22048E-04-4.70791E-14
 -1      3458 7.53810E-03 3.24440E-04-4.53554E-14
 -1      3459 7.46553E-03 2.89685E-04-4.46699E-14
 -1      3460 7.96456E-03 3.16709E-04-5.06199E-14
 -1      3461 7.82254E-03 3.19474E-04-4.88340E-14
 -1      3462 7.74939E-03 2.85293E-04-4.81245E-14
 -1      3463 8.24807E-03 3.10662E-04-5.42789E-14
 -1      3464 8.10641E-03 3.13773E-04-5.24345E-14
 -1      3465 8.03247E-03 2.80238E-04-5.16990E-14
 -1      3466 8.53069E-03 3.04044E-04-5.80539E-14
 -1      3467 8.38950E-03 3.07418E-04-5.61536E-14
 -1      3468 8.31451E-03 2.74586E-04-5.53920E-14
 -1      3469 8.81211E-03 2.97148E-04-6.19435E-14
 -1      3470 8.67155E-03 3.00616E-04-5.99849E-14
 -1      3471 8.59518E-03 2.68509E-04-5.92012E-14
 -1      3472 9.09200E-03 2.90475E-04-6.59450E-14
 -1      3473 8.95225E-03 2.93758E-04-6.39300E-14
 -1      3474 8.87409E-03 2.62335E-04-6.31249E-14
 -1      3475 9.36995E-03 2.84804E-04-7.00562E-14
 -1      3476 9.23121E-03 2.87474E-04-6.79872E-14
 -1      3477 9.15076E-03 2.56595E-04-6.71586E-14
 -1      3478 9.64559E-03 2.81265E-04-7.42719E-14
 -1      3479 9.50805E-03 2.82710E-04-7.21507E-14
 -1      3480 9.42463E-03 2.52072E-04-7.13002E-14
 -1      3481 9.91866E-03 2.81393E-04-7.85930E-14
 -1      3482 9.78241E-03 2.80788E-04-7.64190E-14
 -1      3483 9.69517E-03 2.49846E-04-7.55462E-14
 -1      3484 1.01893E-02 2.87183E-04-8.30176E-14
 -1      3485 1.00542E-02 2.83464E-04-8.07929E-14
 -1      3486 9.96189E-03 2.51301E-04-7.98954E-14
 -1      3487 1.04585E-02 3.01132E-04-8.75415E-14
 -1      3488 1.03239E-02 2.92967E-04-8.52677E-14
 -1      3489 1.02247E-02 2.58108E-04-8.43472E-14
 -1      3490 1.07291E-02 3.26435E-04-9.21610E-14
 -1      3491 1.05932E-02 3.12053E-04-8.98393E-14
 -1      3492 1.04841E-02 2.72151E-04-8.88948E-14
 -1      3493 1.10068E-02 3.68016E-04-9.68773E-14
 -1      3494 1.08661E-02 3.44555E-04-9.45064E-14
 -1      3495 1.07422E-02 2.95762E-04-9.35381E-14
 -1      3496 1.07913E-03-2.16735E-04-1.23012E-15
 -1      3497 1.19871E-03-2.15901E-04-1.49125E-15
 -1      3498 1.95311E-03 3.18996E-04-3.10341E-15
 -1      3499 1.80913E-03 3.10401E-04-2.68240E-15
 -1      3500 1.35300E-02 1.62579E-03-1.26591E-13
 -1      3501 1.22178E-02-5.05603E-04-1.14579E-13
 -1      3502 1.20947E-02-4.49292E-04-1.13168E-13
 -1      3503 1.01520E-03-3.89225E-05-1.15145E-15
 -1      3504 1.01629E-03-6.57562E-05-1.15707E-15
 -1      3505 1.13779E-03-8.59599E-05-1.40537E-15
 -1      3506 2.24117E-03 3.31952E-04-4.04345E-15
 -1      3507 2.09713E-03 3.26135E-04-3.55710E-15
 -1      3508 2.01901E-03 2.86897E-04-3.38918E-15
 -1      3509 1.13874E-02 4.44434E-04-1.03573E-13
 -1      3510 1.20302E-02-4.76821E-04-1.12087E-13
 -1      3511 1.19604E-02-3.86675E-04-1.11637E-13
 -1      3512 1.18256E-02-3.30073E-04-1.10116E-13
 -1      3513 3.96549E-03 3.49641E-04-1.24848E-14
 -1      3514 3.82215E-03 3.49919E-04-1.15948E-14
 -1      3515 3.74838E-03 3.12268E-04-1.12683E-14
 -1      3516 4.03557E-03 3.11773E-04-1.30533E-14
 -1      3517 1.22787E-02-5.90809E-04-1.15117E-13
 -1      3518 2.52917E-03 3.40424E-04-5.11456E-15
 -1      3519 2.38519E-03 3.36678E-04-4.56209E-15
 -1      3520 2.30770E-03 2.97742E-04-4.37032E-15
 -1      3521 3.39175E-03 3.49815E-04-9.12974E-15
 -1      3522 3.24816E-03 3.49332E-04-8.37611E-15
 -1      3523 3.17305E-03 3.11273E-04-8.10558E-15
 -1      3524 3.46088E-03 3.12210E-04-9.61903E-15
 -1      3525 1.08163E-02 1.44758E-04-1.01363E-13
 -1      3526 1.07931E-02 1.66709E-04-1.01071E-13
 -1      3527 1.57396E-03-2.60663E-04-2.40876E-15
 -1      3528 1.71775E-03-2.71143E-04-2.82009E-15
 -1      3529 1.78416E-03-2.41256E-04-3.04844E-15
 -1      3530 1.08093E-02 1.90077E-04-1.01045E-13
 -1      3531 1.08568E-02 2.14842E-04-1.01014E-13
 -1      3532 1.07442E-02 1.69307E-04-9.94288E-14
 -1      3533 1.11984E-02 3.62610E-04-1.02071E-13
 -1      3534 1.12854E-02 4.34532E-04-1.01191E-13
 -1      3535 1.11332E-02 3.97583E-04-9.87831E-14
 -1      3536 1.10783E-02 3.25704E-04-1.00624E-13
 -1      3537 1.08835E-02 2.34083E-04-1.00471E-13
 -1      3538 1.09173E-02 2.56901E-04-9.99276E-14
 -1      3539 1.07856E-02 2.10168E-04-9.88615E-14
 -1      3540 1.27925E-03 2.42852E-04-1.43745E-15
 -1      3541 1.27309E-03 2.08654E-04-1.47831E-15
 -1      3542 1.13530E-03-2.76924E-05-1.39157E-15
 -1      3543 1.16605E-02-3.53425E-04-1.07430E-13
 -1      3544 1.17940E-02-4.51178E-04-1.08819E-13
 -1      3545 1.19850E-02-5.11215E-04-1.11311E-13
 -1      3546 1.09885E-02 3.34380E-04-9.77931E-14
 -1      3547 1.73070E-03 2.70969E-04-2.53762E-15
 -1      3548 1.66528E-03 3.00084E-04-2.29298E-15
 -1      3549 1.53985E-03 2.93339E-04-1.97159E-15
 -1      3550 1.15193E-02-1.12060E-04-1.08108E-13
 -1      3551 1.13802E-02-7.14986E-05-1.06517E-13
 -1      3552 1.15856E-02-1.83114E-04-1.08068E-13
 -1      3553 2.59639E-03 3.04761E-04-5.48197E-15
 -1      3554 1.11791E-02 1.36829E-05-1.04814E-13
 -1      3555 1.11195E-02 5.69041E-05-1.04877E-13
 -1      3556 1.10132E-02 6.57470E-05-1.03146E-13
 -1      3557 1.27412E-03-1.90300E-04-1.68234E-15
 -1      3558 1.32628E-03-2.30878E-04-1.78064E-15
 -1      3559 1.45447E-03-2.44322E-04-2.09628E-15
 -1      3560 1.26629E-03-1.25085E-04-1.68844E-15
 -1      3561 1.26970E-03-1.57367E-04-1.68749E-15
 -1      3562 1.39707E-03-1.67917E-04-1.99415E-15
 -1      3563 1.25736E-03 4.78410E-05-1.62099E-15
 -1      3564 1.25661E-03 1.67809E-05-1.63887E-15
 -1      3565 1.52075E-03-2.17905E-04-2.29393E-15
 -1      3566 1.08335E-02 1.27530E-04-1.01326E-13
 -1      3567 1.07486E-02 1.29796E-04-9.94171E-14
 -1      3568 1.08584E-02 1.08083E-04-1.01288E-13
 -1      3569 1.26104E-03 1.10599E-04-1.57529E-15
 -1      3570 1.25883E-03 7.90511E-05-1.59978E-15
 -1      3571 1.38051E-03 6.71535E-05-1.89593E-15
 -1      3572 1.32612E-03 2.85546E-04-1.46632E-15
 -1      3573 1.44601E-03 2.80929E-04-1.75969E-15
 -1      3574 1.21067E-02-5.67385E-04-1.12839E-13
 -1      3575 1.15852E-02-2.69738E-04-1.06992E-13
 -1      3576 1.39374E-03 2.02604E-04-1.76801E-15
 -1      3577 1.26807E-03 1.75272E-04-1.51451E-15
 -1      3578 1.26411E-03 1.42626E-04-1.54682E-15
 -1      3579 2.28547E-03-2.25210E-04-4.80615E-15
 -1      3580 2.43034E-03-2.28407E-04-5.38001E-15
 -1      3581 2.57521E-03-2.30952E-04-5.98721E-15
 -1      3582 2.72006E-03-2.32912E-04-6.62715E-15
 -1      3583 2.49941E-03-1.92712E-04-5.67584E-15
 -1      3584 2.86485E-03-2.34405E-04-7.29993E-15
 -1      3585 3.00955E-03-2.35479E-04-8.00565E-15
 -1      3586 2.78954E-03-1.96128E-04-6.95258E-15
 -1      3587 3.15416E-03-2.36229E-04-8.74488E-15
 -1      3588 3.29867E-03-2.36691E-04-9.51798E-15
 -1      3589 3.07940E-03-1.98011E-04-8.36164E-15
 -1      3590 3.44306E-03-2.36936E-04-1.03233E-14
 -1      3591 3.58734E-03-2.36989E-04-1.11612E-14
 -1      3592 3.36885E-03-1.98830E-04-9.90346E-15
 -1      3593 3.73151E-03-2.36905E-04-1.20325E-14
 -1      3594 3.87557E-03-2.36697E-04-1.29361E-14
 -1      3595 3.65782E-03-1.98937E-04-1.15764E-14
 -1      3596 4.01952E-03-2.36406E-04-1.38739E-14
 -1      3597 4.16337E-03-2.36039E-04-1.48448E-14
 -1      3598 3.94630E-03-1.98587E-04-1.33809E-14
 -1      3599 4.30712E-03-2.35625E-04-1.58474E-14
 -1      3600 4.45078E-03-2.35167E-04-1.68836E-14
 -1      3601 4.23430E-03-1.97958E-04-1.53175E-14
 -1      3602 4.59435E-03-2.34681E-04-1.79518E-14
 -1      3603 4.73784E-03-2.34169E-04-1.90538E-14
 -1      3604 4.52188E-03-1.97165E-04-1.73855E-14
 -1      3605 4.88126E-03-2.33641E-04-2.01904E-14
 -1      3606 5.02460E-03-2.33093E-04-2.13586E-14
 -1      3607 4.80907E-03-1.96278E-04-1.95863E-14
 -1      3608 5.16788E-03-2.32531E-04-2.25588E-14
 -1      3609 5.31109E-03-2.31950E-04-2.37931E-14
 -1      3610 5.09591E-03-1.95326E-04-2.19190E-14
 -1      3611 5.45423E-03-2.31349E-04-2.50602E-14
 -1      3612 5.59732E-03-2.30723E-04-2.63602E-14
 -1      3613 5.38244E-03-1.94314E-04-2.43836E-14
 -1      3614 5.74034E-03-2.30069E-04-2.76930E-14
 -1      3615 5.88330E-03-2.29377E-04-2.90570E-14
 -1      3616 5.66868E-03-1.93224E-04-2.69790E-14
 -1      3617 6.02619E-03-2.28644E-04-3.04560E-14
 -1      3618 6.16902E-03-2.27860E-04-3.18876E-14
 -1      3619 5.95462E-03-1.92020E-04-2.97059E-14
 -1      3620 6.31177E-03-2.27017E-04-3.33497E-14
 -1      3621 6.45444E-03-2.26105E-04-3.48455E-14
 -1      3622 6.24023E-03-1.90652E-04-3.25624E-14
 -1      3623 6.59702E-03-2.25116E-04-3.63751E-14
 -1      3624 6.73950E-03-2.24038E-04-3.79347E-14
 -1      3625 6.52548E-03-1.89062E-04-3.55492E-14
 -1      3626 6.88187E-03-2.22864E-04-3.95264E-14
 -1      3627 7.02412E-03-2.21579E-04-4.11499E-14
 -1      3628 6.81028E-03-1.87181E-04-3.86645E-14
 -1      3629 7.16623E-03-2.20179E-04-4.28055E-14
 -1      3630 7.30819E-03-2.18646E-04-4.44920E-14
 -1      3631 7.09453E-03-1.84936E-04-4.19063E-14
 -1      3632 7.44997E-03-2.16982E-04-4.62102E-14
 -1      3633 7.59157E-03-2.15167E-04-4.79588E-14
 -1      3634 7.37808E-03-1.82252E-04-4.52733E-14
 -1      3635 7.73295E-03-2.13206E-04-4.97385E-14
 -1      3636 7.87411E-03-2.11079E-04-5.15482E-14
 -1      3637 7.66078E-03-1.79058E-04-4.87655E-14
 -1      3638 8.01501E-03-2.08801E-04-5.33876E-14
 -1      3639 8.15564E-03-2.06351E-04-5.52582E-14
 -1      3640 7.94241E-03-1.75294E-04-5.23800E-14
 -1      3641 8.29596E-03-2.03754E-04-5.71577E-14
 -1      3642 8.43599E-03-2.00991E-04-5.90859E-14
 -1      3643 8.22276E-03-1.70914E-04-5.61137E-14
 -1      3644 8.57567E-03-1.98100E-04-6.10413E-14
 -1      3645 8.71502E-03-1.95069E-04-6.30244E-14
 -1      3646 8.50163E-03-1.65907E-04-5.99638E-14
 -1      3647 8.85402E-03-1.91949E-04-6.50359E-14
 -1      3648 8.99270E-03-1.88737E-04-6.70720E-14
 -1      3649 8.77882E-03-1.60299E-04-6.39261E-14
 -1      3650 9.13104E-03-1.85502E-04-6.91323E-14
 -1      3651 9.26913E-03-1.82259E-04-7.12178E-14
 -1      3652 9.05423E-03-1.54171E-04-6.79923E-14
 -1      3653 9.40695E-03-1.79090E-04-7.33297E-14
 -1      3654 9.54467E-03-1.76043E-04-7.54685E-14
 -1      3655 9.32791E-03-1.47678E-04-7.21599E-14
 -1      3656 9.68231E-03-1.73210E-04-7.76282E-14
 -1      3657 9.82012E-03-1.70699E-04-7.98145E-14
 -1      3658 9.60015E-03-1.41069E-04-7.64278E-14
 -1      3659 9.95820E-03-1.68602E-04-8.20251E-14
 -1      3660 1.00970E-02-1.67144E-04-8.42599E-14
 -1      3661 9.87169E-03-1.34734E-04-8.07960E-14
 -1      3662 1.02366E-02-1.66408E-04-8.65195E-14
 -1      3663 1.03776E-02-1.66827E-04-8.87998E-14
 -1      3664 1.01439E-02-1.29316E-04-8.52577E-14
 -1      3665 1.05205E-02-1.68452E-04-9.11051E-14
 -1      3666 1.06662E-02-1.72196E-04-9.34326E-14
 -1      3667 1.04193E-02-1.25921E-04-8.98143E-14
 -1      3668 1.08151E-02-1.78049E-04-9.57837E-14
 -1      3669 1.09687E-02-1.87741E-04-9.81566E-14
 -1      3670 1.07021E-02-1.26784E-04-9.44640E-14
 -1      3671 1.11279E-02-2.01417E-04-1.00551E-13
 -1      3672 1.12940E-02-2.22059E-04-1.02967E-13
 -1      3673 1.09990E-02-1.36482E-04-9.92044E-14
 -1      3674 1.79717E-03 2.40960E-04-2.79000E-15
 -1      3675 1.65317E-03 2.32425E-04-2.39172E-15
 -1      3676 2.95347E-03 2.72047E-04-7.14114E-15
 -1      3677 2.80898E-03 2.70613E-04-6.48194E-15
 -1      3678 4.68004E-03 2.72069E-04-1.76765E-14
 -1      3679 4.53663E-03 2.72560E-04-1.66139E-14
 -1      3680 4.39314E-03 2.73019E-04-1.55847E-14
 -1      3681 4.24958E-03 2.73444E-04-1.45891E-14
 -1      3682 4.46401E-03 2.35064E-04-1.62004E-14
 -1      3683 5.25309E-03 2.69907E-04-2.22574E-14
 -1      3684 5.10991E-03 2.70477E-04-2.10630E-14
 -1      3685 5.53929E-03 2.68702E-04-2.47437E-14
 -1      3686 5.39622E-03 2.69318E-04-2.34845E-14
 -1      3687 5.32434E-03 2.32266E-04-2.29835E-14
 -1      3688 5.82529E-03 2.67374E-04-2.73590E-14
 -1      3689 5.68232E-03 2.68057E-04-2.60355E-14
 -1      3690 5.61057E-03 2.31179E-04-2.55068E-14
 -1      3691 6.11108E-03 2.65868E-04-3.01003E-14
 -1      3692 5.96821E-03 2.66647E-04-2.87142E-14
 -1      3693 5.89656E-03 2.29972E-04-2.81580E-14
 -1      3694 6.39664E-03 2.64115E-04-3.29667E-14
 -1      3695 6.25389E-03 2.65027E-04-3.15175E-14
 -1      3696 6.18227E-03 2.28594E-04-3.09352E-14
 -1      3697 6.68190E-03 2.62039E-04-3.59560E-14
 -1      3698 6.53931E-03 2.63123E-04-3.44456E-14
 -1      3699 6.46768E-03 2.26982E-04-3.38360E-14
 -1      3700 6.96681E-03 2.59558E-04-3.90720E-14
 -1      3701 6.82440E-03 2.60855E-04-3.74990E-14
 -1      3702 6.75270E-03 2.25069E-04-3.68631E-14
 -1      3703 7.25124E-03 2.56594E-04-4.23148E-14
 -1      3704 7.10909E-03 2.58142E-04-4.06773E-14
 -1      3705 7.03725E-03 2.22785E-04-4.00161E-14
 -1      3706 7.53504E-03 2.53085E-04-4.56825E-14
 -1      3707 7.39322E-03 2.54913E-04-4.39829E-14
 -1      3708 7.32117E-03 2.20068E-04-4.32951E-14
 -1      3709 7.81802E-03 2.48998E-04-4.91734E-14
 -1      3710 7.67664E-03 2.51118E-04-4.74128E-14
 -1      3711 7.60427E-03 2.16875E-04-4.66999E-14
 -1      3712 8.09991E-03 2.44350E-04-5.27822E-14
 -1      3713 7.95911E-03 2.46746E-04-5.09632E-14
 -1      3714 7.88630E-03 2.13197E-04-5.02266E-14
 -1      3715 8.38038E-03 2.39236E-04-5.65111E-14
 -1      3716 8.24034E-03 2.41850E-04-5.46320E-14
 -1      3717 8.16695E-03 2.09077E-04-5.38712E-14
 -1      3718 8.65903E-03 2.33864E-04-6.03540E-14
 -1      3719 8.51995E-03 2.36576E-04-5.84180E-14
 -1      3720 8.44581E-03 2.04643E-04-5.76336E-14
 -1      3721 8.93535E-03 2.28592E-04-6.43087E-14
 -1      3722 8.79750E-03 2.31203E-04-6.23170E-14
 -1      3723 8.72239E-03 2.00132E-04-6.15097E-14
 -1      3724 9.20873E-03 2.23972E-04-6.83766E-14
 -1      3725 9.07243E-03 2.26181E-04-6.63288E-14
 -1      3726 8.99609E-03 1.95932E-04-6.54983E-14
 -1      3727 9.47848E-03 2.20781E-04-7.25472E-14
 -1      3728 9.34408E-03 2.22171E-04-7.04485E-14
 -1      3729 9.26619E-03 1.92608E-04-6.95957E-14
 -1      3730 9.74386E-03 2.20032E-04-7.68232E-14
 -1      3731 9.61173E-03 2.20070E-04-7.46725E-14
 -1      3732 9.53185E-03 1.90919E-04-7.37981E-14
 -1      3733 1.00041E-02 2.22938E-04-8.12009E-14
 -1      3734 9.87462E-03 2.20997E-04-7.89993E-14
 -1      3735 9.79210E-03 1.91795E-04-7.81031E-14
 -1      3736 1.02587E-02 2.30833E-04-8.56765E-14
 -1      3737 1.01320E-02 2.26233E-04-8.34253E-14
 -1      3738 1.00458E-02 1.96268E-04-8.25061E-14
 -1      3739 1.05074E-02 2.45019E-04-9.02491E-14
 -1      3740 1.03836E-02 2.37133E-04-8.79518E-14
 -1      3741 1.02919E-02 2.05320E-04-8.70073E-14
 -1      3742 1.07509E-02 2.66922E-04-9.49186E-14
 -1      3743 1.06293E-02 2.54929E-04-9.25723E-14
 -1      3744 1.05289E-02 2.19749E-04-9.16043E-14
 -1      3745 1.49313E-03 2.49628E-04-1.93598E-15
 -1      3746 1.37891E-03 1.42762E-06-1.93662E-15
 -1      3747 1.25657E-03-1.41482E-05-1.65349E-15
 -1      3748 1.25722E-03-4.51329E-05-1.66513E-15
 -1      3749 2.37515E-03 2.62990E-04-4.70354E-15
 -1      3750 2.23051E-03 2.59020E-04-4.17656E-15
 -1      3751 1.26025E-03-6.91255E-05-1.67634E-15
 -1      3752 1.26219E-03-1.00516E-04-1.68187E-15
 -1      3753 1.38911E-03-1.07844E-04-1.98776E-15
 -1      3754 1.38206E-03-5.66662E-05-1.96582E-15
 -1      3755 4.96668E-03 2.71026E-04-1.99013E-14
 -1      3756 4.82339E-03 2.71558E-04-1.87726E-14
 -1      3757 4.75108E-03 2.34205E-04-1.83290E-14
 -1      3758 5.03785E-03 2.33269E-04-2.05914E-14
 -1      3759 2.08593E-03 2.54103E-04-3.68206E-15
 -1      3760 1.94144E-03 2.48145E-04-3.21985E-15
 -1      3761 1.86454E-03 2.10041E-04-3.04979E-15
 -1      3762 2.15374E-03 2.20641E-04-3.98227E-15
 -1      3763 1.51570E-03-1.81756E-04-2.29995E-15
 -1      3764 1.63490E-03-1.95165E-04-2.62760E-15
 -1      3765 1.51171E-03-1.46141E-04-2.30130E-15
 -1      3766 1.99600E-03-2.16354E-04-3.75639E-15
 -1      3767 2.14068E-03-2.21223E-04-4.26498E-15
 -1      3768 2.20934E-03-1.87166E-04-4.53011E-15
 -1      3769 1.74309E-03-2.03105E-04-2.94457E-15
 -1      3770 1.88735E-03-2.09773E-04-3.39636E-15
 -1      3771 1.95570E-03-1.77718E-04-3.63473E-15
 -1      3772 1.73872E-03-1.65170E-04-2.94628E-15
 -1      3773 2.66442E-03 2.68678E-04-5.85594E-15
 -1      3774 2.51980E-03 2.66183E-04-5.26322E-15
 -1      3775 2.73319E-03 2.32229E-04-6.23629E-15
 -1      3776 1.06754E-02 1.50232E-04-9.76721E-14
 -1      3777 1.06918E-02 1.74136E-04-9.76447E-14
 -1      3778 1.09416E-02 2.78475E-04-9.93182E-14
 -1      3779 1.09666E-02 3.09208E-04-9.84049E-14
 -1      3780 1.08557E-02 2.89295E-04-9.65038E-14
 -1      3781 1.08218E-02 2.47387E-04-9.77166E-14
 -1      3782 1.57002E-03 2.22974E-04-2.18207E-15
 -1      3783 1.47644E-03 2.12822E-04-1.95635E-15
 -1      3784 1.47150E-03 1.77099E-04-1.99768E-15
 -1      3785 1.63720E-03 1.94714E-04-2.41045E-15
 -1      3786 1.14303E-02-1.77300E-04-1.05607E-13
 -1      3787 1.06085E-02 1.70732E-04-9.53734E-14
 -1      3788 1.06947E-02 1.89691E-04-9.71124E-14
 -1      3789 1.07055E-02 2.06611E-04-9.65759E-14
 -1      3790 4.17659E-03 2.35802E-04-1.42040E-14
 -1      3791 4.10594E-03 2.73814E-04-1.36266E-14
 -1      3792 3.96222E-03 2.74125E-04-1.26978E-14
 -1      3793 1.07391E-02 2.46905E-04-9.55207E-14
 -1      3794 1.50225E-03 1.87187E-05-2.24080E-15
 -1      3795 1.50219E-03-1.57147E-05-2.25972E-15
 -1      3796 2.44344E-03 2.27741E-04-5.04398E-15
 -1      3797 3.81840E-03 2.74344E-04-1.18027E-14
 -1      3798 3.67450E-03 2.74459E-04-1.09414E-14
 -1      3799 3.88878E-03 2.36331E-04-1.23422E-14
 -1      3800 1.06780E-02 1.20014E-04-9.76039E-14
 -1      3801 1.06734E-02 1.35412E-04-9.76383E-14
 -1      3802 1.06048E-02 1.40903E-04-9.58700E-14
 -1      3803 3.24218E-03 2.73787E-04-8.56016E-15
 -1      3804 3.09787E-03 2.73090E-04-7.83369E-15
 -1      3805 3.02271E-03 2.34830E-04-7.56162E-15
 -1      3806 1.09308E-02 4.91958E-05-1.01168E-13
 -1      3807 1.08921E-02 8.08131E-05-1.01227E-13
 -1      3808 1.07846E-02 8.91959E-05-9.93229E-14
 -1      3809 3.53049E-03 2.74425E-04-1.01134E-14
 -1      3810 3.38639E-03 2.74222E-04-9.31972E-15
 -1      3811 3.31184E-03 2.36112E-04-9.02035E-15
 -1      3812 3.60054E-03 2.36507E-04-1.06138E-14
 -1      3813 1.38530E-03 1.33889E-04-1.84015E-15
 -1      3814 1.50475E-03 8.78708E-05-2.19079E-15
 -1      3815 1.50309E-03 5.32094E-05-2.21771E-15
 -1      3816 1.62647E-03 3.74809E-05-2.56507E-15
 -1      3817 4.53507E-03 1.97093E-04-1.68195E-14
 -1      3818 4.39133E-03 1.97437E-04-1.57863E-14
 -1      3819 2.42402E-03-1.54746E-04-5.36889E-15
 -1      3820 2.56926E-03-1.56547E-04-5.97299E-15
 -1      3821 2.71450E-03-1.57957E-04-6.60951E-15
 -1      3822 2.85970E-03-1.59012E-04-7.27916E-15
 -1      3823 2.63980E-03-1.19965E-04-6.27107E-15
 -1      3824 3.00482E-03-1.59790E-04-7.98256E-15
 -1      3825 3.14984E-03-1.60315E-04-8.71869E-15
 -1      3826 2.93047E-03-1.21617E-04-7.60730E-15
 -1      3827 3.29475E-03-1.60654E-04-9.48754E-15
 -1      3828 3.43953E-03-1.60819E-04-1.02895E-14
 -1      3829 3.22080E-03-1.22443E-04-9.07611E-15
 -1      3830 3.58419E-03-1.60862E-04-1.11243E-14
 -1      3831 3.72870E-03-1.60791E-04-1.19914E-14
 -1      3832 3.51065E-03-1.22705E-04-1.06762E-14
 -1      3833 3.87309E-03-1.60644E-04-1.28916E-14
 -1      3834 4.01735E-03-1.60425E-04-1.38256E-14
 -1      3835 3.79994E-03-1.22593E-04-1.24072E-14
 -1      3836 4.16148E-03-1.60163E-04-1.47922E-14
 -1      3837 4.30548E-03-1.59856E-04-1.57915E-14
 -1      3838 4.08867E-03-1.22249E-04-1.42699E-14
 -1      3839 4.44938E-03-1.59525E-04-1.68231E-14
 -1      3840 4.59316E-03-1.59167E-04-1.78874E-14
 -1      3841 4.37688E-03-1.21764E-04-1.62647E-14
 -1      3842 4.73684E-03-1.58796E-04-1.89860E-14
 -1      3843 4.88042E-03-1.58408E-04-2.01186E-14
 -1      3844 4.66460E-03-1.21199E-04-1.83912E-14
 -1      3845 5.02391E-03-1.58010E-04-2.12830E-14
 -1      3846 5.16731E-03-1.57598E-04-2.24798E-14
 -1      3847 4.95189E-03-1.20583E-04-2.06496E-14
 -1      3848 5.31062E-03-1.57175E-04-2.37098E-14
 -1      3849 5.45385E-03-1.56736E-04-2.49735E-14
 -1      3850 5.23877E-03-1.19930E-04-2.30410E-14
 -1      3851 5.59699E-03-1.56280E-04-2.62697E-14
 -1      3852 5.74005E-03-1.55801E-04-2.75977E-14
 -1      3853 5.52529E-03-1.19231E-04-2.55635E-14
 -1      3854 5.88303E-03-1.55298E-04-2.89591E-14
 -1      3855 6.02592E-03-1.54762E-04-3.03532E-14
 -1      3856 5.81145E-03-1.18471E-04-2.82168E-14
 -1      3857 6.16872E-03-1.54191E-04-3.17793E-14
 -1      3858 6.31141E-03-1.53575E-04-3.32373E-14
 -1      3859 6.09722E-03-1.17621E-04-3.09992E-14
 -1      3860 6.45400E-03-1.52910E-04-3.47276E-14
 -1      3861 6.59647E-03-1.52186E-04-3.62516E-14
 -1      3862 6.38256E-03-1.16643E-04-3.39117E-14
 -1      3863 6.73880E-03-1.51399E-04-3.78065E-14
 -1      3864 6.88098E-03-1.50535E-04-3.93923E-14
 -1      3865 6.66740E-03-1.15493E-04-3.69518E-14
 -1      3866 7.02300E-03-1.49594E-04-4.10099E-14
 -1      3867 7.16484E-03-1.48558E-04-4.26599E-14
 -1      3868 6.95162E-03-1.14119E-04-4.01184E-14
 -1      3869 7.30646E-03-1.47428E-04-4.43414E-14
 -1      3870 7.44785E-03-1.46185E-04-4.60537E-14
 -1      3871 7.23506E-03-1.12464E-04-4.34120E-14
 -1      3872 7.58898E-03-1.44832E-04-4.77965E-14
 -1      3873 7.72983E-03-1.43347E-04-4.95704E-14
 -1      3874 7.51753E-03-1.10464E-04-4.68321E-14
 -1      3875 7.87035E-03-1.41739E-04-5.13753E-14
 -1      3876 8.01053E-03-1.39980E-04-5.32093E-14
 -1      3877 7.79878E-03-1.08054E-04-5.03740E-14
 -1      3878 8.15031E-03-1.38087E-04-5.50739E-14
 -1      3879 8.28969E-03-1.36027E-04-5.69684E-14
 -1      3880 8.07854E-03-1.05161E-04-5.40374E-14
 -1      3881 8.42860E-03-1.33825E-04-5.88911E-14
 -1      3882 8.56704E-03-1.31445E-04-6.08404E-14
 -1      3883 8.35650E-03-1.01709E-04-5.78198E-14
 -1      3884 8.70495E-03-1.28919E-04-6.28181E-14
 -1      3885 8.84234E-03-1.26208E-04-6.48235E-14
 -1      3886 8.63232E-03-9.76213E-05-6.17151E-14
 -1      3887 8.97914E-03-1.23355E-04-6.68542E-14
 -1      3888 9.11540E-03-1.20318E-04-6.89089E-14
 -1      3889 8.90569E-03-9.28127E-05-6.57183E-14
 -1      3890 9.25105E-03-1.17148E-04-7.09913E-14
 -1      3891 9.38618E-03-1.13807E-04-7.30994E-14
 -1      3892 9.17634E-03-8.71924E-05-6.98262E-14
 -1      3893 9.52074E-03-1.10351E-04-7.52307E-14
 -1      3894 9.65487E-03-1.06753E-04-7.73884E-14
 -1      3895 9.44410E-03-8.06598E-05-7.40358E-14
 -1      3896 9.78855E-03-1.03070E-04-7.95688E-14
 -1      3897 9.92204E-03-9.93138E-05-8.17733E-14
 -1      3898 9.70898E-03-7.31069E-05-7.83445E-14
 -1      3899 1.00553E-02-9.55300E-05-8.40031E-14
 -1      3900 1.01889E-02-9.18342E-05-8.62545E-14
 -1      3901 9.97128E-03-6.44410E-05-8.27501E-14
 -1      3902 1.03227E-02-8.82701E-05-8.85304E-14
 -1      3903 1.04576E-02-8.51005E-05-9.08278E-14
 -1      3904 1.02318E-02-5.47088E-05-8.72495E-14
 -1      3905 1.05937E-02-8.23639E-05-9.31502E-14
 -1      3906 1.07322E-02-8.09219E-05-9.54952E-14
 -1      3907 1.04923E-02-4.41298E-05-9.18414E-14
 -1      3908 1.50720E-03-1.18973E-04-2.29353E-15
 -1      3909 1.62590E-03-1.30012E-04-2.62123E-15
 -1      3910 1.50323E-03-9.20589E-05-2.28305E-15
 -1      3911 5.68187E-03 1.93719E-04-2.62731E-14
 -1      3912 5.53879E-03 1.94206E-04-2.49773E-14
 -1      3913 5.39564E-03 1.94667E-04-2.37132E-14
 -1      3914 5.25241E-03 1.95111E-04-2.24814E-14
 -1      3915 5.46699E-03 1.57131E-04-2.44467E-14
 -1      3916 6.25342E-03 1.91438E-04-3.17730E-14
 -1      3917 6.11066E-03 1.92072E-04-3.03510E-14
 -1      3918 6.53865E-03 1.90006E-04-3.47105E-14
 -1      3919 6.39609E-03 1.90753E-04-3.32265E-14
 -1      3920 6.32453E-03 1.54418E-04-3.26157E-14
 -1      3921 6.82340E-03 1.88303E-04-3.77742E-14
 -1      3922 6.68109E-03 1.89193E-04-3.62265E-14
 -1      3923 6.60955E-03 1.53204E-04-3.55891E-14
 -1      3924 7.10755E-03 1.86276E-04-4.09636E-14
 -1      3925 6.96556E-03 1.87335E-04-3.93534E-14
 -1      3926 6.89401E-03 1.51762E-04-3.86900E-14
 -1      3927 7.39093E-03 1.83880E-04-4.42802E-14
 -1      3928 7.24935E-03 1.85129E-04-4.26063E-14
 -1      3929 7.17775E-03 1.50052E-04-4.19167E-14
 -1      3930 7.67330E-03 1.81092E-04-4.77216E-14
 -1      3931 7.53226E-03 1.82539E-04-4.59854E-14
 -1      3932 7.46057E-03 1.48050E-04-4.52704E-14
 -1      3933 7.95437E-03 1.77926E-04-5.12838E-14
 -1      3934 7.81402E-03 1.79559E-04-4.94880E-14
 -1      3935 7.74220E-03 1.45754E-04-4.87478E-14
 -1      3936 8.23376E-03 1.74454E-04-5.49642E-14
 -1      3937 8.09430E-03 1.76229E-04-5.31090E-14
 -1      3938 8.02230E-03 1.43201E-04-5.23459E-14
 -1      3939 8.51102E-03 1.70832E-04-5.87593E-14
 -1      3940 8.37268E-03 1.72660E-04-5.68469E-14
 -1      3941 8.30046E-03 1.40491E-04-5.60596E-14
 -1      3942 8.78557E-03 1.67326E-04-6.26689E-14
 -1      3943 8.64867E-03 1.69059E-04-6.07005E-14
 -1      3944 8.57616E-03 1.37805E-04-5.98893E-14
 -1      3945 9.05675E-03 1.64347E-04-6.66907E-14
 -1      3946 8.92162E-03 1.65761E-04-6.46655E-14
 -1      3947 8.84879E-03 1.35434E-04-6.38330E-14
 -1      3948 9.32371E-03 1.62466E-04-7.08183E-14
 -1      3949 9.19080E-03 1.63257E-04-6.87413E-14
 -1      3950 9.11759E-03 1.33805E-04-6.78851E-14
 -1      3951 9.58549E-03 1.62419E-04-7.50498E-14
 -1      3952 9.45530E-03 1.62203E-04-7.29220E-14
 -1      3953 9.38165E-03 1.33495E-04-7.20437E-14
 -1      3954 9.84087E-03 1.65064E-04-7.93835E-14
 -1      3955 9.71404E-03 1.63408E-04-7.72047E-14
 -1      3956 9.63987E-03 1.35217E-04-7.63049E-14
 -1      3957 1.00884E-02 1.71285E-04-8.38128E-14
 -1      3958 9.96568E-03 1.67765E-04-8.15871E-14
 -1      3959 9.89081E-03 1.39771E-04-8.06662E-14
 -1      3960 1.03260E-02 1.81784E-04-8.83391E-14
 -1      3961 1.02085E-02 1.76113E-04-8.60633E-14
 -1      3962 1.01326E-02 1.47916E-04-8.51210E-14
 -1      3963 2.51254E-03 1.91999E-04-5.39063E-15
 -1      3964 2.36746E-03 1.89561E-04-4.82368E-15
 -1      3965 5.96781E-03 1.92658E-04-2.89601E-14
 -1      3966 5.82488E-03 1.93206E-04-2.76005E-14
 -1      3967 5.75319E-03 1.56341E-04-2.70427E-14
 -1      3968 1.12844E-02-5.55533E-05-1.05156E-13
 -1      3969 1.11566E-02-3.26410E-05-1.03424E-13
 -1      3970 1.48908E-03 1.50021E-04-2.07939E-15
 -1      3971 1.48588E-03 1.15006E-04-2.11341E-15
 -1      3972 1.60852E-03 1.01881E-04-2.45473E-15
 -1      3973 1.57173E-03 1.58101E-04-2.28563E-15
 -1      3974 1.13458E-02-1.16880E-04-1.05115E-13
 -1      3975 2.13377E-03-1.49642E-04-4.25891E-15
 -1      3976 2.27883E-03-1.52465E-04-4.79738E-15
 -1      3977 2.34910E-03-1.17151E-04-5.06664E-15
 -1      3978 1.07282E-02 2.28523E-04-9.61218E-14
 -1      3979 2.80269E-03 1.95420E-04-6.62324E-15
 -1      3980 2.65763E-03 1.93936E-04-5.99042E-15
 -1      3981 2.58238E-03 1.55812E-04-5.74423E-15
 -1      3982 1.06244E-02 2.07005E-04-9.43940E-14
 -1      3983 1.73392E-03-1.36163E-04-2.93725E-15
 -1      3984 1.84225E-03-1.41959E-04-3.27157E-15
 -1      3985 1.72966E-03-1.07353E-04-2.92522E-15
 -1      3986 2.22243E-03 1.86511E-04-4.28923E-15
 -1      3987 2.07753E-03 1.82783E-04-3.78734E-15
 -1      3988 2.29193E-03 1.51748E-04-4.60326E-15
 -1      3989 1.08735E-02-8.08907E-05-9.78620E-14
 -1      3990 1.10196E-02-8.41809E-05-1.00250E-13
 -1      3991 1.10623E-02-6.01230E-05-1.01319E-13
 -1      3992 1.09810E-02-1.50253E-06-1.00984E-13
 -1      3993 1.05365E-02 1.51021E-04-9.39868E-14
 -1      3994 1.05311E-02 1.66763E-04-9.34624E-14
 -1      3995 4.24749E-03 1.97747E-04-1.47862E-14
 -1      3996 4.10355E-03 1.98024E-04-1.38194E-14
 -1      3997 4.31863E-03 1.59684E-04-1.53724E-14
 -1      3998 5.18045E-03 1.57850E-04-2.19808E-14
 -1      3999 5.10910E-03 1.95537E-04-2.12846E-14
 -1      4000 4.96572E-03 1.95950E-04-2.01189E-14
 -1      4001 1.04285E-02 1.78146E-04-9.06938E-14
 -1      4002 1.03547E-02 1.49784E-04-8.97252E-14
 -1      4003 1.05380E-02 1.85761E-04-9.30172E-14
 -1      4004 6.03905E-03 1.55449E-04-2.97664E-14
 -1      4005 1.50077E-03-4.05208E-05-2.26594E-15
 -1      4006 1.50378E-03-6.70962E-05-2.28122E-15
 -1      4007 1.62215E-03-7.60578E-05-2.60831E-15
 -1      4008 1.62429E-03-2.42892E-05-2.59740E-15
 -1      4009 1.05204E-02 1.21054E-04-9.39275E-14
 -1      4010 1.05262E-02 1.35985E-04-9.39583E-14
 -1      4011 1.04445E-02 1.32459E-04-9.20627E-14
 -1      4012 3.95948E-03 1.98243E-04-1.28863E-14
 -1      4013 3.81531E-03 1.98403E-04-1.19859E-14
 -1      4014 4.03050E-03 1.60119E-04-1.34348E-14
 -1      4015 1.06894E-02 9.93381E-05-9.75494E-14
 -1      4016 1.06039E-02 1.06965E-04-9.57857E-14
 -1      4017 1.07074E-02 7.60974E-05-9.74919E-14
 -1      4018 1.08509E-02 1.82015E-05-9.90834E-14
 -1      4019 3.74185E-03 1.60357E-04-1.16294E-14
 -1      4020 3.67100E-03 1.98470E-04-1.11194E-14
 -1      4021 3.52658E-03 1.98436E-04-1.02858E-14
 -1      4022 4.82226E-03 1.96347E-04-1.89862E-14
 -1      4023 4.67871E-03 1.96731E-04-1.78863E-14
 -1      4024 4.60631E-03 1.59135E-04-1.74433E-14
 -1      4025 4.89356E-03 1.58518E-04-1.96466E-14
 -1      4026 1.65462E-03 1.65997E-04-2.50220E-15
 -1      4027 2.94767E-03 1.96549E-04-7.28893E-15
 -1      4028 2.87283E-03 1.58305E-04-7.01598E-15
 -1      4029 3.09257E-03 1.97355E-04-7.98793E-15
 -1      4030 1.75150E-03 5.74475E-05-2.90910E-15
 -1      4031 1.75059E-03 2.02198E-05-2.93746E-15
 -1      4032 1.87352E-03 1.23797E-05-3.32134E-15
 -1      4033 1.74857E-03-6.56658E-06-2.94927E-15
 -1      4034 1.74699E-03-3.33388E-05-2.95858E-15
 -1      4035 1.93351E-03-1.43548E-04-3.56712E-15
 -1      4036 2.04224E-03-1.48674E-04-3.93499E-15
 -1      4037 2.11221E-03-1.14861E-04-4.18049E-15
 -1      4038 1.92923E-03-1.13477E-04-3.55312E-15
 -1      4039 1.07562E-02-3.42212E-05-9.65246E-14
 -1      4040 1.76816E-03 1.73047E-04-2.81860E-15
 -1      4041 1.70308E-03 1.36400E-04-2.68012E-15
 -1      4042 1.72177E-03 1.07210E-04-2.77022E-15
 -1      4043 1.91249E-03 1.78620E-04-3.25212E-15
 -1      4044 6.96456E-03 1.15460E-04-3.96093E-14
 -1      4045 6.82257E-03 1.16052E-04-3.80247E-14
 -1      4046 1.07258E-02 1.12303E-05-9.67060E-14
 -1      4047 2.85646E-03-8.35625E-05-7.23644E-15
 -1      4048 3.00183E-03-8.39685E-05-7.93603E-15
 -1      4049 3.14711E-03-8.42505E-05-8.66862E-15
 -1      4050 3.29226E-03-8.44162E-05-9.43377E-15
 -1      4051 3.07371E-03-4.61114E-05-8.26494E-15
 -1      4052 3.43728E-03-8.45015E-05-1.02317E-14
 -1      4053 3.58217E-03-8.45060E-05-1.10624E-14
 -1      4054 3.36415E-03-4.62835E-05-9.79150E-15
 -1      4055 3.72691E-03-8.44596E-05-1.19257E-14
 -1      4056 3.87150E-03-8.43608E-05-1.28220E-14
 -1      4057 3.65404E-03-4.62602E-05-1.14486E-14
 -1      4058 4.01595E-03-8.42330E-05-1.37524E-14
 -1      4059 4.16026E-03-8.40718E-05-1.47149E-14
 -1      4060 3.94334E-03-4.61276E-05-1.32381E-14
 -1      4061 4.30443E-03-8.38946E-05-1.57106E-14
 -1      4062 4.44847E-03-8.36966E-05-1.67380E-14
 -1      4063 4.23206E-03-4.59233E-05-1.51596E-14
 -1      4064 4.59239E-03-8.34906E-05-1.77996E-14
 -1      4065 4.73619E-03-8.32714E-05-1.88944E-14
 -1      4066 4.52022E-03-4.56766E-05-1.72130E-14
 -1      4067 4.87987E-03-8.30477E-05-2.00216E-14
 -1      4068 5.02345E-03-8.28139E-05-2.11822E-14
 -1      4069 4.80789E-03-4.54053E-05-1.93971E-14
 -1      4070 5.16693E-03-8.25768E-05-2.23751E-14
 -1      4071 5.31031E-03-8.23298E-05-2.36016E-14
 -1      4072 5.09510E-03-4.51187E-05-2.17135E-14
 -1      4073 5.45359E-03-8.20761E-05-2.48616E-14
 -1      4074 5.59677E-03-8.18108E-05-2.61537E-14
 -1      4075 5.38189E-03-4.48127E-05-2.41631E-14
 -1      4076 5.73986E-03-8.15355E-05-2.74781E-14
 -1      4077 5.88285E-03-8.12439E-05-2.88350E-14
 -1      4078 5.66829E-03-4.44876E-05-2.67435E-14
 -1      4079 6.02574E-03-8.09362E-05-3.02244E-14
 -1      4080 6.16851E-03-8.06059E-05-3.16453E-14
 -1      4081 5.95427E-03-4.41314E-05-2.94532E-14
 -1      4082 6.31117E-03-8.02523E-05-3.30995E-14
 -1      4083 6.45370E-03-7.98678E-05-3.45847E-14
 -1      4084 6.23980E-03-4.37291E-05-3.22909E-14
 -1      4085 6.59608E-03-7.94515E-05-3.61029E-14
 -1      4086 6.73832E-03-7.89941E-05-3.76517E-14
 -1      4087 6.52483E-03-4.32610E-05-3.52576E-14
 -1      4088 6.88037E-03-7.84951E-05-3.92317E-14
 -1      4089 7.02223E-03-7.79429E-05-4.08441E-14
 -1      4090 6.80922E-03-4.27019E-05-3.83492E-14
 -1      4091 7.16387E-03-7.73378E-05-4.24890E-14
 -1      4092 7.30527E-03-7.66650E-05-4.41649E-14
 -1      4093 7.09285E-03-4.20199E-05-4.15700E-14
 -1      4094 7.44638E-03-7.59263E-05-4.58722E-14
 -1      4095 7.58720E-03-7.51029E-05-4.76097E-14
 -1      4096 7.37549E-03-4.11744E-05-4.49158E-14
 -1      4097 7.72766E-03-7.41987E-05-4.93772E-14
 -1      4098 7.86774E-03-7.31893E-05-5.11754E-14
 -1      4099 7.65690E-03-4.01128E-05-4.83850E-14
 -1      4100 8.00740E-03-7.20813E-05-5.30056E-14
 -1      4101 8.14659E-03-7.08438E-05-5.48645E-14
 -1      4102 7.93678E-03-3.87661E-05-5.19764E-14
 -1      4103 8.28525E-03-6.94864E-05-5.67530E-14
 -1      4104 8.42336E-03-6.79698E-05-5.86700E-14
 -1      4105 8.21475E-03-3.70429E-05-5.56896E-14
 -1      4106 8.56085E-03-6.63068E-05-6.06151E-14
 -1      4107 8.69769E-03-6.44483E-05-6.25871E-14
 -1      4108 8.49040E-03-3.48213E-05-5.95174E-14
 -1      4109 8.83379E-03-6.24099E-05-6.45854E-14
 -1      4110 8.96916E-03-6.01310E-05-6.66111E-14
 -1      4111 8.76329E-03-3.19379E-05-6.34563E-14
 -1      4112 9.10368E-03-5.76292E-05-6.86636E-14
 -1      4113 9.23739E-03-5.48318E-05-7.07413E-14
 -1      4114 9.03291E-03-2.81761E-05-6.75030E-14
 -1      4115 9.37016E-03-5.17558E-05-7.28428E-14
 -1      4116 9.50206E-03-4.83172E-05-7.49707E-14
 -1      4117 9.29876E-03-2.32518E-05-7.16521E-14
 -1      4118 9.63294E-03-4.45307E-05-7.71234E-14
 -1      4119 9.76293E-03-4.03024E-05-7.92993E-14
 -1      4120 9.56031E-03-1.68011E-05-7.59034E-14
 -1      4121 9.89184E-03-3.56461E-05-8.15008E-14
 -1      4122 1.00199E-02-3.04668E-05-8.37256E-14
 -1      4123 9.81702E-03-8.37263E-06-8.02539E-14
 -1      4124 1.01469E-02-2.48099E-05-8.59719E-14
 -1      4125 1.02733E-02-1.85690E-05-8.82413E-14
 -1      4126 1.00683E-02 2.55875E-06-8.46971E-14
 -1      4127 1.03987E-02-1.19021E-05-9.05357E-14
 -1      4128 1.05238E-02-4.45748E-06-9.28524E-14
 -1      4129 1.03136E-02 1.65303E-05-8.92329E-14
 -1      4130 5.53837E-03 1.19668E-04-2.51846E-14
 -1      4131 5.39516E-03 1.19952E-04-2.39159E-14
 -1      4132 6.11028E-03 1.18359E-04-3.05764E-14
 -1      4133 5.96745E-03 1.18720E-04-2.91809E-14
 -1      4134 6.68041E-03 1.16592E-04-3.64711E-14
 -1      4135 6.53808E-03 1.17092E-04-3.49506E-14
 -1      4136 6.75124E-03 8.01840E-05-3.73582E-14
 -1      4137 6.39560E-03 1.17549E-04-3.34621E-14
 -1      4138 6.25300E-03 1.17971E-04-3.20033E-14
 -1      4139 6.18150E-03 8.13998E-05-3.13904E-14
 -1      4140 6.46666E-03 8.08419E-05-3.43115E-14
 -1      4141 7.24789E-03 1.14129E-04-4.28740E-14
 -1      4142 7.10634E-03 1.14823E-04-4.12252E-14
 -1      4143 7.03509E-03 7.94114E-05-4.05334E-14
 -1      4144 7.53016E-03 1.12593E-04-4.62646E-14
 -1      4145 7.38917E-03 1.13391E-04-4.45548E-14
 -1      4146 7.31801E-03 7.85188E-05-4.38367E-14
 -1      4147 7.81107E-03 1.10871E-04-4.97778E-14
 -1      4148 7.67080E-03 1.11759E-04-4.80049E-14
 -1      4149 7.59975E-03 7.75184E-05-4.72627E-14
 -1      4150 8.09025E-03 1.09025E-04-5.34105E-14
 -1      4151 7.95090E-03 1.09966E-04-5.15800E-14
 -1      4152 7.87999E-03 7.64499E-05-5.08120E-14
 -1      4153 8.36725E-03 1.07175E-04-5.71603E-14
 -1      4154 8.22905E-03 1.08101E-04-5.52711E-14
 -1      4155 8.15832E-03 7.53946E-05-5.44796E-14
 -1      4156 8.64153E-03 1.05525E-04-6.10239E-14
 -1      4157 8.50476E-03 1.06323E-04-5.90773E-14
 -1      4158 8.43428E-03 7.44931E-05-5.82639E-14
 -1      4159 8.91240E-03 1.04384E-04-6.50005E-14
 -1      4160 8.77743E-03 1.04888E-04-6.29990E-14
 -1      4161 8.70729E-03 7.39650E-05-6.21622E-14
 -1      4162 9.17910E-03 1.04191E-04-6.90836E-14
 -1      4163 9.04633E-03 1.04165E-04-6.70288E-14
 -1      4164 8.97667E-03 7.41313E-05-6.61704E-14
 -1      4165 9.44066E-03 1.05518E-04-7.32722E-14
 -1      4166 9.31059E-03 1.04664E-04-7.11652E-14
 -1      4167 9.24162E-03 7.54324E-05-7.02852E-14
 -1      4168 9.69587E-03 1.09064E-04-7.75615E-14
 -1      4169 9.56914E-03 1.07025E-04-7.54036E-14
 -1      4170 9.50117E-03 7.84376E-05-7.45022E-14
 -1      4171 9.94314E-03 1.15581E-04-8.19490E-14
 -1      4172 9.82062E-03 1.11996E-04-7.97435E-14
 -1      4173 9.75409E-03 8.38351E-05-7.88195E-14
 -1      4174 1.01803E-02 1.25774E-04-8.64283E-14
 -1      4175 1.00631E-02 1.20301E-04-8.41771E-14
 -1      4176 9.99865E-03 9.23607E-05-8.32323E-14
 -1      4177 1.12040E-02-1.24727E-04-1.02682E-13
 -1      4178 5.82452E-03 1.19055E-04-2.78166E-14
 -1      4179 5.68149E-03 1.19371E-04-2.64846E-14
 -1      4180 5.89586E-03 8.18768E-05-2.85945E-14
 -1      4181 2.27475E-03-8.00427E-05-4.76943E-15
 -1      4182 2.42011E-03-8.12669E-05-5.33730E-15
 -1      4183 1.73003E-03-8.05677E-05-2.92308E-15
 -1      4184 1.03682E-02 1.26985E-04-9.04033E-14
 -1      4185 1.02617E-02 1.29836E-04-8.80586E-14
 -1      4186 1.01998E-02 1.01910E-04-8.70958E-14
 -1      4187 1.03598E-02 1.11459E-04-9.03751E-14
 -1      4188 1.84547E-03 9.13880E-05-3.16023E-15
 -1      4189 2.56556E-03-8.22424E-05-5.93728E-15
 -1      4190 2.71102E-03-8.29923E-05-6.57017E-15
 -1      4191 2.78285E-03-4.56763E-05-6.87071E-15
 -1      4192 3.38203E-03 1.98256E-04-9.48585E-15
 -1      4193 3.23736E-03 1.97916E-04-8.72014E-15
 -1      4194 3.45268E-03 1.60271E-04-9.95773E-15
 -1      4195 2.65294E-03 1.19199E-04-6.10333E-15
 -1      4196 2.50756E-03 1.17960E-04-5.49711E-15
 -1      4197 1.06260E-02 4.30438E-05-9.53679E-14
 -1      4198 1.14795E-02-1.57569E-04-1.06698E-13
 -1      4199 2.36221E-03 1.16379E-04-4.92386E-15
 -1      4200 2.21697E-03 1.14438E-04-4.38277E-15
 -1      4201 2.43321E-03 8.04491E-05-5.25087E-15
 -1      4202 1.98155E-03 1.46120E-04-3.52428E-15
 -1      4203 3.16299E-03 1.59676E-04-8.41985E-15
 -1      4204 5.60979E-03 8.22926E-05-2.59256E-14
 -1      4205 1.05189E-02 1.01929E-04-9.38761E-14
 -1      4206 1.04324E-02 9.79733E-05-9.19840E-14
 -1      4207 1.05229E-02 8.19161E-05-9.38238E-14
 -1      4208 5.25186E-03 1.20220E-04-2.26811E-14
 -1      4209 5.10847E-03 1.20481E-04-2.14800E-14
 -1      4210 5.32334E-03 8.26642E-05-2.33863E-14
 -1      4211 2.49181E-03-4.48565E-05-5.60901E-15
 -1      4212 2.09127E-03-8.03671E-05-4.09854E-15
 -1      4213 2.18297E-03-8.02742E-05-4.42757E-15
 -1      4214 2.25447E-03-4.49718E-05-4.67652E-15
 -1      4215 4.10179E-03 1.21972E-04-1.39876E-14
 -1      4216 3.95750E-03 1.22103E-04-1.30496E-14
 -1      4217 1.85408E-03-6.39155E-05-3.30053E-15
 -1      4218 3.81306E-03 1.22184E-04-1.21444E-14
 -1      4219 3.66849E-03 1.22218E-04-1.12726E-14
 -1      4220 3.88459E-03 8.39870E-05-1.26638E-14
 -1      4221 4.67770E-03 1.21203E-04-1.80704E-14
 -1      4222 4.53390E-03 1.21423E-04-1.69998E-14
 -1      4223 2.79831E-03 1.20174E-04-6.74272E-15
 -1      4224 2.72414E-03 8.22083E-05-6.46904E-15
 -1      4225 2.94361E-03 1.20900E-04-7.41474E-15
 -1      4226 4.38999E-03 1.21626E-04-1.59624E-14
 -1      4227 4.24595E-03 1.21814E-04-1.49586E-14
 -1      4228 4.17333E-03 8.38336E-05-1.45446E-14
 -1      4229 4.46153E-03 8.35990E-05-1.65569E-14
 -1      4230 1.99989E-03 2.62111E-05-3.72262E-15
 -1      4231 1.99776E-03-2.09281E-06-3.73765E-15
 -1      4232 2.01050E-03 9.33540E-05-3.68953E-15
 -1      4233 3.23394E-03 1.21809E-04-8.85728E-15
 -1      4234 3.08884E-03 1.21443E-04-8.11964E-15
 -1      4235 3.01495E-03 8.32543E-05-7.81890E-15
 -1      4236 2.75272E-03 1.83581E-05-6.67622E-15
 -1      4237 2.89823E-03 1.85146E-05-7.34589E-15
 -1      4238 3.29132E-03-8.09290E-06-9.35612E-15
 -1      4239 3.43645E-03-8.06574E-06-1.01497E-14
 -1      4240 3.62421E-03 1.88739E-05-1.11898E-14
 -1      4241 3.76898E-03 1.89080E-05-1.20575E-14
 -1      4242 3.91360E-03 1.89193E-05-1.29578E-14
 -1      4243 4.05808E-03 1.89360E-05-1.38932E-14
 -1      4244 4.20241E-03 1.89368E-05-1.48597E-14
 -1      4245 4.34660E-03 1.89431E-05-1.58593E-14
 -1      4246 4.49066E-03 1.89377E-05-1.68924E-14
 -1      4247 4.63459E-03 1.89373E-05-1.79575E-14
 -1      4248 5.02331E-03-7.56088E-06-2.10565E-14
 -1      4249 5.16682E-03-7.50290E-06-2.22454E-14
 -1      4250 5.35253E-03 1.88923E-05-2.37819E-14
 -1      4251 5.49580E-03 1.88806E-05-2.50462E-14
 -1      4252 5.63897E-03 1.88637E-05-2.63422E-14
 -1      4253 5.78204E-03 1.88483E-05-2.76708E-14
 -1      4254 5.92500E-03 1.88274E-05-2.90316E-14
 -1      4255 6.06785E-03 1.88074E-05-3.04236E-14
 -1      4256 6.21058E-03 1.87816E-05-3.18482E-14
 -1      4257 6.35319E-03 1.87570E-05-3.33045E-14
 -1      4258 6.49565E-03 1.87261E-05-3.47922E-14
 -1      4259 6.63796E-03 1.86983E-05-3.63106E-14
 -1      4260 6.78009E-03 1.86642E-05-3.78617E-14
 -1      4261 6.92204E-03 1.86373E-05-3.94440E-14
 -1      4262 7.06376E-03 1.86051E-05-4.10580E-14
 -1      4263 7.20524E-03 1.85874E-05-4.27062E-14
 -1      4264 7.34644E-03 1.85677E-05-4.43848E-14
 -1      4265 7.48734E-03 1.85748E-05-4.60928E-14
 -1      4266 7.62788E-03 1.85868E-05-4.78317E-14
 -1      4267 7.76804E-03 1.86447E-05-4.96013E-14
 -1      4268 7.90775E-03 1.87201E-05-5.14013E-14
 -1      4269 8.04698E-03 1.88705E-05-5.32321E-14
 -1      4270 8.18566E-03 1.90594E-05-5.50927E-14
 -1      4271 8.32374E-03 1.93658E-05-5.69815E-14
 -1      4272 8.46115E-03 1.97434E-05-5.88982E-14
 -1      4273 8.59782E-03 2.02990E-05-6.08430E-14
 -1      4274 8.73367E-03 2.09740E-05-6.28172E-14
 -1      4275 8.86864E-03 2.19104E-05-6.48169E-14
 -1      4276 9.00262E-03 2.30337E-05-6.68433E-14
 -1      4277 9.13556E-03 2.45301E-05-6.88985E-14
 -1      4278 9.26729E-03 2.63024E-05-7.09778E-14
 -1      4279 9.39781E-03 2.85934E-05-7.30817E-14
 -1      4280 9.52688E-03 3.12703E-05-7.52113E-14
 -1      4281 9.65452E-03 3.46505E-05-7.73650E-14
 -1      4282 9.78041E-03 3.85411E-05-7.95445E-14
 -1      4283 9.90461E-03 4.33689E-05-8.17472E-14
 -1      4284 1.00266E-02 4.88206E-05-8.39716E-14
 -1      4285 1.01466E-02 5.55734E-05-8.62209E-14
 -1      4286 2.13435E-03 8.01002E-05-4.13072E-15
 -1      4287 3.04366E-03 1.86213E-05-8.04843E-15
 -1      4288 3.18899E-03 1.87174E-05-8.78414E-15
 -1      4289 2.14328E-03-1.68758E-05-4.25186E-15
 -1      4290 2.01690E-03-3.00995E-05-3.81978E-15
 -1      4291 4.82140E-03 1.20974E-04-1.91737E-14
 -1      4292 4.74924E-03 8.33170E-05-1.87006E-14
 -1      4293 4.96498E-03 1.20731E-04-2.03102E-14
 -1      4294 2.46165E-03 1.79469E-05-5.43539E-15
 -1      4295 2.60718E-03 1.81841E-05-6.03902E-15
 -1      4296 3.52378E-03 1.22170E-04-1.04344E-14
 -1      4297 3.37893E-03 1.22047E-04-9.62883E-15
 -1      4298 3.30538E-03 8.38042E-05-9.30086E-15
 -1      4299 3.59526E-03 8.40020E-05-1.09160E-14
 -1      4300 4.77840E-03 1.89285E-05-1.90561E-14
 -1      4301 2.31619E-03 1.76781E-05-4.86422E-15
 -1      4302 5.28095E-03 5.63626E-05-2.30826E-14
 -1      4303 4.92210E-03 1.89223E-05-2.01883E-14
 -1      4304 4.99402E-03 5.65724E-05-2.06904E-14
 -1      4305 2.23509E-03-1.59213E-05-4.58609E-15
 -1      4306 1.02287E-02 8.68021E-05-8.77708E-14
 -1      4307 1.02674E-02 4.33058E-05-8.85171E-14
 -1      4308 1.03844E-02 5.18936E-05-9.08121E-14
 -1      4309 1.99970E-03-8.02444E-05-3.78259E-15
 -1      4310 1.05265E-02 5.51935E-05-9.36248E-14
 -1      4311 2.20577E-03 4.50992E-05-4.42523E-15
 -1      4312 1.03541E-02 9.23522E-05-9.03272E-14
 -1      4313 3.55210E-03 5.70971E-05-1.07125E-14
 -1      4314 5.03649E-03 8.30048E-05-2.09779E-14
 -1      4315 1.04314E-02 5.23604E-05-9.17357E-14
 -1      4316 3.26204E-03 5.69188E-05-9.11332E-15
 -1      4317 5.13754E-03 5.64692E-05-2.18706E-14
 -1      4318 1.03098E-02 9.16523E-05-8.94086E-14
 -1      4319 1.03877E-02 7.71795E-05-9.10070E-14
 -1      4320 3.40714E-03 5.70336E-05-9.89630E-15
 -3
    1PSTEP                         2           1           1          
  100CL  101 1.000000000        4320                     0    1           1
 -4  STRESS      6    1
 -5  SXX         1    4    1    1
 -5  SYY         1    4    2    2
 -5  SZZ         1    4    3    3
 -5  SXY         1    4    1    2
 -5  SYZ         1    4    2    3
 -5  SZX         1    4    3    1
 -1         1 2.74879E+01 1.70570E+01 1.88504E+00-2.10940E+01-2.45309E-12 3.12128E-12
 -1         2-1.27453E+00-3.56628E+01-5.90195E+00-2.61317E-01 2.60853E-12-6.74391E-14
 -1         3 2.01962E+01 2.12368E-01 2.82784E-01 1.99170E-01-2.72522E-13-2.95326E-13
 -1         4 2.01212E+01 1.24653E-01 2.72686E-02-1.21829E-01 5.40301E-15 1.70615E-13
 -1         5 3.27686E+01 6.14286E+00 2.74229E+00 6.22417E+00-5.06817E-14 3.41900E-12
 -1         6 3.57524E+01 1.22633E+01 5.12517E+00-8.64645E+00-1.83076E-13 2.87215E-12
 -1         7 2.08203E+01 6.10010E+00-1.28535E-01-4.72501E+00-2.48135E-14 5.16611E-13
 -1         8 1.96731E+01 5.93533E+00 5.10285E-02-3.27392E+00-3.27446E-14-2.01869E-13
 -1         9 1.91377E+01 5.77211E+00 4.91175E-02-2.52557E+00-2.88311E-14-5.81243E-13
 -1        10 1.88955E+01 5.69219E+00 5.10585E-02-1.95040E+00-1.99172E-14-7.54983E-13
 -1        11 1.87735E+01 5.65115E+00 5.02427E-02-1.45525E+00-1.16925E-14-8.28035E-13
 -1        12 1.87094E+01 5.62937E+00 4.87124E-02-1.01451E+00-5.51273E-15-8.48872E-13
 -1        13 1.86756E+01 5.61786E+00 4.73829E-02-5.94975E-01 8.52183E-17-8.36625E-13
 -1        14 1.86613E+01 5.61298E+00 4.66616E-02-1.91085E-01 4.91957E-15-8.20082E-13
 -1        15 1.86618E+01 5.61314E+00 4.67032E-02 2.08060E-01 1.21527E-14-7.90070E-13
 -1        16 1.86771E+01 5.61835E+00 4.75273E-02 6.12784E-01 1.62109E-14-7.39226E-13
 -1        17 1.87122E+01 5.63015E+00 4.90493E-02 1.03433E+00 1.90713E-14-6.64077E-13
 -1        18 1.87775E+01 5.65230E+00 5.08092E-02 1.47825E+00 2.67117E-14-5.49940E-13
 -1        19 1.89012E+01 5.69383E+00 5.15347E-02 1.97928E+00 3.66443E-14-3.76850E-13
 -1        20 1.91432E+01 5.77470E+00 4.88090E-02 2.56289E+00 4.30749E-14-9.00530E-14
 -1        21 1.96686E+01 5.94993E+00 4.59792E-02 3.30801E+00 4.40897E-14 4.39399E-13
 -1        22 2.12029E+01 6.38182E+00 1.39769E-01 4.52254E+00 3.16414E-15 1.41864E-12
 -1        23 2.30311E+01-1.37930E+00-9.38393E-01-7.11009E-01-1.22957E-13 2.24229E-12
 -1        24 1.93694E+01-9.94939E-02-3.09826E-01 6.32532E-02-3.01330E-14 1.70792E-12
 -1        25 1.86818E+01-5.63239E-02-6.87730E-02 6.07363E-02-2.26477E-14 1.14801E-12
 -1        26 1.84800E+01-2.20905E-02-6.47730E-03 3.29812E-02-5.04696E-15 7.57309E-13
 -1        27 1.84921E+01-1.18047E-02 1.57597E-03 2.26275E-02-9.22862E-15 5.01581E-13
 -1        28 1.86071E+01-6.23880E-03 1.78452E-03 1.63362E-02-1.52629E-15 3.34201E-13
 -1        29 1.87679E+01-3.08047E-03 1.72552E-03 1.21930E-02 1.38621E-14 2.14986E-13
 -1        30 1.89431E+01-1.22075E-03 1.91110E-03 9.24365E-03-6.60839E-15 7.95206E-14
 -1        31 1.91149E+01-1.19778E-04 2.07706E-03 7.02935E-03 3.51302E-15-4.16264E-14
 -1        32 1.92734E+01 5.13418E-04 2.11565E-03 5.31691E-03-2.42273E-14-1.60153E-13
 -1        33 1.94138E+01 8.48514E-04 2.03434E-03 3.97507E-03 5.07955E-14-2.09218E-13
 -1        34 1.95341E+01 9.91349E-04 1.87134E-03 2.92022E-03-6.10923E-15-1.96545E-13
 -1        35 1.96345E+01 1.01101E-03 1.66260E-03 2.09287E-03-1.60229E-14-4.55984E-13
 -1        36 1.97163E+01 9.53543E-04 1.43454E-03 1.44714E-03 1.48560E-14-5.84543E-13
 -1        37 1.97815E+01 8.49399E-04 1.20432E-03 9.45980E-04-3.28209E-14-5.54146E-13
 -1        38 1.98323E+01 7.17951E-04 9.81464E-04 5.59008E-04-3.27314E-14-7.51279E-13
 -1        39 1.98712E+01 5.70403E-04 7.69376E-04 2.61506E-04 1.37596E-14-8.73846E-13
 -1        40 1.99009E+01 4.11847E-04 5.66672E-04 3.39782E-05-3.03327E-14-8.80772E-13
 -1        41 1.99237E+01 2.42750E-04 3.68137E-04-1.38008E-04 3.53228E-14-8.10384E-13
 -1        42 1.99422E+01 6.01017E-05 1.65452E-04-2.63766E-04-4.41396E-14-8.70737E-13
 -1        43 1.99592E+01-1.41641E-04-5.22536E-05-3.47218E-04 2.01769E-15-7.99857E-13
 -1        44 1.99776E+01-3.69663E-04-2.97925E-04-3.86382E-04 1.47349E-14-7.35998E-13
 -1        45 2.00006E+01-6.31792E-04-5.86006E-04-3.72604E-04-5.58551E-14-7.99842E-13
 -1        46 2.00321E+01-9.35190E-04-9.31578E-04-2.89537E-04-7.83002E-15-9.77140E-13
 -1        47 2.00766E+01-1.28449E-03-1.34888E-03-1.11918E-04-1.13166E-14-8.42568E-13
 -1        48 2.01395E+01-1.67900E-03-1.84878E-03 1.95696E-04 2.85245E-14-6.61181E-13
 -1        49 2.02269E+01-2.10860E-03-2.43434E-03 6.79861E-04 1.53195E-14-6.05313E-13
 -1        50 2.03460E+01-2.54760E-03-3.09358E-03 1.39807E-03 3.30150E-15-7.35316E-13
 -1        51 2.05041E+01-2.94615E-03-3.78754E-03 2.41602E-03 9.41315E-15-5.64634E-13
 -1        52 2.07089E+01-3.21856E-03-4.43159E-03 3.79960E-03 2.36168E-14-3.92755E-13
 -1        53 2.09665E+01-3.22869E-03-4.86733E-03 5.59694E-03-5.89760E-14-4.46442E-13
 -1        54 2.12796E+01-2.77470E-03-4.82335E-03 7.80282E-03-7.19994E-15-6.36755E-13
 -1        55 2.16444E+01-1.57922E-03-3.86819E-03 1.02942E-02-2.20779E-14-8.77015E-13
 -1        56 2.20454E+01 7.00522E-04-1.37267E-03 1.27237E-02-5.32786E-14-1.18785E-12
 -1        57 2.24492E+01 4.41516E-03 3.47130E-03 1.43637E-02 2.53478E-14-1.17917E-12
 -1        58 2.27961E+01 9.77535E-03 1.14757E-02 1.39237E-02 3.73374E-14-1.18605E-12
 -1        59 2.29941E+01 1.65695E-02 2.29757E-02 9.43756E-03 1.68510E-14-1.16224E-12
 -1        60 2.29176E+01 2.37496E-02 3.69059E-02-1.53012E-03-6.07871E-14-1.10185E-12
 -1        61 2.24224E+01 2.90396E-02 4.95808E-02-2.09479E-02 9.15674E-14-1.05909E-12
 -1        62 2.13856E+01 2.89939E-02 5.40750E-02-4.83122E-02 1.78971E-14-9.34152E-13
 -1        63 1.97772E+01 2.01096E-02 4.18544E-02-7.80118E-02-1.07053E-13-1.08199E-12
 -1        64 1.77426E+01 1.19421E-03 7.87606E-03-9.81563E-02-5.35572E-14-1.40767E-12
 -1        65 1.56479E+01-2.42035E-02-4.26936E-02-9.41367E-02 3.49375E-14-1.19674E-12
 -1        66 1.40194E+01-4.74390E-02-9.19521E-02-5.77870E-02 1.34837E-13-1.13879E-12
 -1        67 1.33604E+01-5.85369E-02-1.18321E-01 4.86799E-03 7.87603E-14-7.63400E-13
 -1        68 1.39290E+01-5.06160E-02-1.06727E-01 7.53347E-02-1.04985E-13-6.99534E-13
 -1        69 1.56009E+01-2.40395E-02-5.33746E-02 1.31250E-01 3.53827E-14-9.04742E-13
 -1        70 1.78260E+01 9.04090E-03 3.12745E-02 1.39894E-01-1.99135E-14-7.67629E-13
 -1        71 1.96926E+01-1.24626E-02 9.78242E-02 8.06749E-02 1.04820E-13 1.25327E-13
 -1        72 2.10437E+01-4.04900E-01-9.80439E-01-3.11669E-01 3.73833E-14 3.25549E-12
 -1        73 1.93339E+01-6.58837E-02-2.91118E-01-5.38446E-02 2.44366E-14 2.67095E-12
 -1        74 1.86912E+01-2.05082E-02-6.42685E-02-2.03511E-02 8.85457E-15 2.16485E-12
 -1        75 1.84891E+01-9.88185E-03-9.31544E-03-1.54521E-02 1.75454E-14 1.83960E-12
 -1        76 1.85012E+01-5.16866E-03 6.71655E-04-1.23867E-02 8.69422E-15 1.58231E-12
 -1        77 1.86154E+01-2.61621E-03 1.73459E-03-1.01210E-02 2.18063E-14 1.40364E-12
 -1        78 1.87751E+01-1.14406E-03 1.87139E-03-8.38861E-03-1.72623E-14 1.38144E-12
 -1        79 1.89493E+01-2.77062E-04 2.06677E-03-6.96395E-03-6.46652E-15 1.37212E-12
 -1        80 1.91201E+01 2.26406E-04 2.21135E-03-5.74168E-03 4.24754E-15 1.24496E-12
 -1        81 1.92778E+01 5.01671E-04 2.22793E-03-4.68022E-03 3.25087E-14 1.06064E-12
 -1        82 1.94174E+01 6.30956E-04 2.12740E-03-3.76087E-03 8.31968E-15 8.84009E-13
 -1        83 1.95370E+01 6.66767E-04 1.94767E-03-2.97167E-03 7.27724E-15 7.90190E-13
 -1        84 1.96368E+01 6.43721E-04 1.72443E-03-2.30129E-03 5.43174E-15 7.18580E-13
 -1        85 1.97181E+01 5.84767E-04 1.48403E-03-1.73725E-03-1.07078E-15 7.26249E-13
 -1        86 1.97827E+01 5.04734E-04 1.24358E-03-1.26574E-03 3.23035E-14 4.18588E-13
 -1        87 1.98330E+01 4.12529E-04 1.01251E-03-8.72100E-04-9.19956E-15 2.90615E-13
 -1        88 1.98716E+01 3.12613E-04 7.94094E-04-5.41519E-04-2.75554E-14 4.68262E-13
 -1        89 1.99007E+01 2.06014E-04 5.86747E-04-2.59653E-04 3.13167E-14 4.75593E-13
 -1        90 1.99230E+01 9.10429E-05 3.84935E-04-1.31868E-05-4.15235E-14 3.51795E-13
 -1        91 1.99409E+01-3.62239E-05 1.79813E-04 2.09740E-04 2.93804E-14 3.62177E-13
 -1        92 1.99571E+01-1.81639E-04-4.04802E-05 4.19128E-04-4.57817E-14 4.81610E-13
 -1        93 1.99744E+01-3.52795E-04-2.90798E-04 6.22661E-04 5.99517E-15 5.63577E-13
 -1        94 1.99964E+01-5.58907E-04-5.89207E-04 8.25068E-04 1.92741E-14 3.41577E-13
 -1        95 2.00268E+01-8.10700E-04-9.57446E-04 1.02718E-03-3.43412E-15 4.02283E-13
 -1        96 2.00705E+01-1.12019E-03-1.42159E-03 1.22444E-03 2.52801E-14 5.84293E-13
 -1        97 2.01336E+01-1.50012E-03-2.01288E-03 1.40449E-03-4.35230E-14 5.56827E-13
 -1        98 2.02237E+01-1.96273E-03-2.76837E-03 1.54321E-03 2.63928E-14 3.97127E-13
 -1        99 2.03500E+01-2.51693E-03-3.73099E-03 1.59812E-03-3.75245E-15 5.93104E-14
 -1       100 2.05244E+01-3.16264E-03-4.94716E-03 1.49766E-03-1.98069E-14 1.61290E-13
 -1       101 2.07612E+01-3.87961E-03-6.45884E-03 1.12368E-03 2.71014E-14 1.68356E-13
 -1       102 2.10776E+01-4.60663E-03-8.28209E-03 2.84279E-04-9.55312E-15 1.39723E-13
 -1       103 2.14933E+01-5.20483E-03-1.03568E-02-1.32539E-03-5.47468E-16 7.36774E-13
 -1       104 2.20293E+01-5.39781E-03-1.24378E-02-4.17160E-03-3.06500E-14 1.15925E-12
 -1       105 2.27038E+01-4.68525E-03-1.38775E-02-8.91885E-03 1.14814E-13 5.79254E-13
 -1       106 2.35247E+01-2.24813E-03-1.32400E-02-1.63853E-02-7.10512E-14 1.46470E-13
 -1       107 2.44734E+01 3.07290E-03-7.75092E-03-2.72405E-02 1.62674E-14 3.09943E-14
 -1       108 2.54780E+01 1.25091E-02 7.12087E-03-4.10921E-02-4.98498E-14-7.44994E-14
 -1       109 2.63719E+01 2.63913E-02 3.68797E-02-5.44912E-02 1.57376E-13 2.31173E-13
 -1       110 2.68487E+01 4.21273E-02 8.38485E-02-5.78662E-02-1.12523E-14-3.18417E-13
 -1       111 2.64490E+01 5.15103E-02 1.37458E-01-3.36080E-02 8.96848E-14-2.55356E-13
 -1       112 2.46625E+01 4.18251E-02 1.63225E-01 3.70689E-02-1.43918E-13-1.63619E-13
 -1       113 2.12435E+01 6.26423E-03 1.11497E-01 1.49214E-01 5.29897E-14 1.58554E-13
 -1       114 1.66705E+01-4.25030E-02-3.60740E-02 2.48856E-01-1.15609E-13-1.31881E-13
 -1       115 1.23394E+01-7.27273E-02-2.10514E-01 2.48900E-01 5.21909E-14-5.39124E-13
 -1       116 9.96548E+00-6.80147E-02-2.86093E-01 1.18252E-01 5.99182E-14-9.34390E-13
 -1       117 1.03672E+01-3.99102E-02-2.24505E-01-5.76507E-02 2.58335E-14-1.03106E-12
 -1       118 1.29498E+01-4.49423E-03-8.34300E-02-1.78247E-01 2.42016E-15-7.72035E-13
 -1       119 1.63790E+01 4.35605E-02 7.37358E-02-2.33589E-01-1.33747E-15-4.03413E-13
 -1       120 1.92372E+01 1.42881E-02 1.95752E-01-2.26183E-01 1.00637E-13-4.16847E-13
 -1       121 2.00202E+01-8.92929E-01 1.31463E-01-2.68201E-01-2.48364E-13-6.99709E-14
 -1       122 1.99403E+01-3.51145E+00-9.83043E-02-2.95013E-01-3.51788E-13-1.53823E-13
 -1       123 1.98314E+01-5.13620E+00-4.25095E-01-1.51578E-01-9.17915E-13 1.59945E-13
 -1       124 1.97802E+01-2.88873E+00-6.37182E-01 2.19891E-01-1.39709E-12-2.13399E-13
 -1       125 1.98990E+01 5.43465E+00-3.61601E-01 8.26774E-01-2.07950E-12-6.42889E-14
 -1       126 2.01692E+01 1.76596E+01 5.60793E-01 1.10350E+00-2.73764E-12-1.24381E-13
 -1       127 2.03620E+01 2.72029E+01 1.47656E+00 4.43260E-01-2.18316E-12 2.16369E-13
 -1       128 2.04167E+01 2.69998E+01 1.47948E+00-6.23397E-01-1.70450E-12-4.35277E-14
 -1       129 2.03152E+01 1.97627E+01 8.28875E-01-1.07405E+00-1.32330E-12-2.73566E-13
 -1       130 2.00256E+01 9.10342E+00-1.86159E-02-1.00279E+00-3.26489E-13 2.85073E-13
 -1       131 1.98043E+01-8.96521E-01-5.45493E-01-5.81307E-01 6.41209E-13 5.37244E-14
 -1       132 1.97709E+01-7.21809E+00-5.74366E-01-1.29731E-01 2.37004E-12 6.86031E-14
 -1       133 1.98441E+01-8.93589E+00-3.32968E-01 1.31342E-01 2.33779E-12-5.16037E-14
 -1       134 1.99237E+01-7.53577E+00-1.15775E-01 2.03755E-01 1.07383E-12-1.95916E-13
 -1       135 1.99905E+01-4.94164E+00 1.06239E-02 2.00031E-01 3.15969E-13 8.03703E-14
 -1       136 2.00304E+01-2.30305E+00 7.66246E-02 2.18824E-01-4.36352E-13 1.16379E-13
 -1       137 2.00436E+01-4.84606E-01 9.34427E-02 1.05863E-01-6.26707E-13 5.29489E-14
 -1       138-2.03968E+00-2.74815E+01-5.04211E+00-4.99922E+00 2.67897E-12 7.28320E-13
 -1       139-1.24974E+00-8.95599E+00-2.95773E+00-2.71538E+00 2.30249E-12 9.49685E-13
 -1       140 6.90713E+00 8.51587E+00-5.65134E-01 7.86402E+00 2.02427E-12 1.42852E-12
 -1       141 2.40130E+01 1.61328E+01 1.47344E+00 1.93058E+01 9.76996E-13 1.43152E-12
 -1       142 4.75658E+01 1.40121E+01 3.05115E+00 2.49371E+01 6.63636E-13 8.30891E-13
 -1       143 6.99496E+01 6.51115E+00 4.10542E+00 1.96476E+01-1.18974E-13-1.33116E-13
 -1       144 7.96358E+01 1.49315E+00 4.41539E+00 5.82945E+00 2.42306E-14-7.68248E-13
 -1       145 7.31497E+01 2.44545E+00 3.93455E+00-9.75480E+00 3.01783E-13-1.60305E-12
 -1       146 5.31558E+01 7.40596E+00 2.71311E+00-1.86191E+01 8.10713E-13-2.33402E-12
 -1       147 2.83559E+01 1.08667E+01 1.05049E+00-1.72983E+01 1.55598E-12-2.41762E-12
 -1       148 9.66305E+00 7.55733E+00-5.64717E-01-8.66026E+00 2.56789E-12-2.42756E-12
 -1       149-1.10012E+00-4.45155E+00-2.10318E+00 1.75977E+00 3.06521E-12-2.05769E-12
 -1       150-2.52023E+00-1.86876E+01-3.12627E+00 5.78758E+00 2.03831E-12-8.14598E-13
 -1       151-1.22307E+00-2.82496E+01-3.61779E+00 3.51638E+00 2.39586E-13-1.75138E-13
 -1       152-8.39838E-01-2.89206E+01-3.60450E+00-1.87075E+00-1.91555E-12-1.57523E-13
 -1       153-2.06123E+00-2.03025E+01-3.09857E+00-5.13903E+00-2.55029E-12-6.89102E-13
 -1       154-8.32062E-01-5.13519E+00-1.97878E+00-1.67681E+00-2.83007E-12-1.42436E-12
 -1       155 8.02483E+00 7.18708E+00-5.43536E-01 7.82612E+00-1.72912E-12-1.65745E-12
 -1       156 2.54415E+01 1.17315E+01 9.66437E-01 1.70462E+01-5.44731E-13-6.26055E-13
 -1       157 4.77953E+01 8.71957E+00 2.32726E+00 1.96384E+01 5.32629E-14 1.74416E-13
 -1       158 6.74909E+01 3.32085E+00 3.34707E+00 1.29013E+01 1.11459E-13 8.25673E-13
 -1       159 7.68490E+01 1.00588E+00 3.89448E+00-8.71816E-01-1.27287E-13 2.30163E-12
 -1       160 7.13772E+01 4.79615E+00 3.87373E+00-1.65671E+01-9.07795E-13 3.80976E-12
 -1       161 5.21880E+01 1.28422E+01 3.21244E+00-2.49060E+01-2.43211E-12 4.57290E-12
 -1       162 8.44567E+00 1.11168E+01-5.88285E-02-9.67249E+00-8.95173E-13 1.13454E-12
 -1       163-7.48378E-01-6.48232E+00-2.56934E+00 1.69736E+00 3.69149E-13-3.90632E-13
 -1       164-1.90028E+00-2.64162E+01-4.85581E+00 4.83389E+00 1.33887E-12 2.93793E-14
 -1       165 2.10150E+01 3.69399E+00-5.73638E-02-3.60971E+00-4.03979E-13 1.49974E-13
 -1       166 1.99921E+01 4.20743E+00-4.57969E-02-2.80836E+00-3.65035E-13-2.89845E-13
 -1       167 1.95073E+01 4.47809E+00-3.17231E-02-2.19423E+00-2.86531E-13-5.24926E-13
 -1       168 1.92680E+01 4.61466E+00-2.38226E-02-1.67395E+00-1.96678E-13-6.40869E-13
 -1       169 1.91363E+01 4.69732E+00-1.95836E-02-1.21839E+00-1.12681E-13-6.85635E-13
 -1       170 1.90622E+01 4.74805E+00-1.74465E-02-7.91701E-01-4.13924E-14-6.93328E-13
 -1       171 1.90248E+01 4.77587E+00-1.64234E-02-3.86683E-01 4.14917E-14-6.84207E-13
 -1       172 1.90139E+01 4.78441E+00-1.61295E-02 8.26103E-03 1.12894E-13-6.68510E-13
 -1       173 1.90265E+01 4.77460E+00-1.64622E-02 4.03530E-01 1.69986E-13-6.37204E-13
 -1       174 1.90660E+01 4.74506E+00-1.75162E-02 8.09578E-01 2.29517E-13-5.83596E-13
 -1       175 1.91409E+01 4.69264E+00-1.96848E-02 1.23090E+00 2.94537E-13-4.85322E-13
 -1       176 1.92769E+01 4.60548E+00-2.40048E-02 1.69748E+00 3.80113E-13-3.45919E-13
 -1       177 1.95244E+01 4.45966E+00-3.28487E-02 2.22579E+00 4.49173E-13-1.40912E-13
 -1       178 2.00144E+01 4.18389E+00-4.72079E-02 2.84606E+00 4.73558E-13 2.06203E-13
 -1       179 2.11365E+01 3.46364E+00-5.97716E-02 3.53610E+00 4.16231E-13 8.17305E-13
 -1       180 2.24210E+01 1.14329E+00-3.36461E-01 3.01437E+00 2.78886E-13 1.59711E-12
 -1       181 2.19733E+01 8.58263E-01 6.09569E-04-1.95837E+00-3.48655E-13 6.88824E-13
 -1       182 2.04496E+01 1.90046E-01-9.98568E-03-7.63636E-01-3.19080E-13 5.30140E-13
 -1       183 1.96744E+01 1.01680E-01 1.35734E-02-2.85234E-01-2.43862E-13 3.89806E-13
 -1       184 1.93351E+01 4.72525E-02 1.00116E-02-6.74061E-02-1.57455E-13 2.31663E-13
 -1       185 1.92060E+01 2.26014E-02 5.16992E-03 3.99918E-02-1.05876E-13 1.57308E-13
 -1       186 1.91932E+01 9.54685E-03 2.43399E-03 9.26807E-02-7.75460E-14 9.07109E-14
 -1       187 1.92425E+01 2.14388E-03 1.12778E-03 1.15114E-01-7.65684E-14 2.37037E-14
 -1       188 1.93223E+01-2.10142E-03 4.91765E-04 1.20064E-01-7.44820E-14 1.39091E-14
 -1       189 1.94138E+01-4.42332E-03 1.54751E-04 1.14931E-01-6.83150E-14 2.47437E-15
 -1       190 1.95058E+01-5.52467E-03-3.41004E-05 1.04294E-01-4.56638E-14-1.96733E-14
 -1       191 1.95920E+01-5.84569E-03-1.38123E-04 9.10756E-02-5.36352E-14-1.80808E-13
 -1       192 1.96688E+01-5.67731E-03-1.88951E-04 7.71469E-02-1.19625E-13-2.63198E-13
 -1       193 1.97351E+01-5.21558E-03-2.05343E-04 6.36802E-02-7.67405E-14-2.74079E-13
 -1       194 1.97906E+01-4.59115E-03-1.99437E-04 5.13808E-02-9.73840E-15-2.78402E-13
 -1       195 1.98361E+01-3.88715E-03-1.79206E-04 4.06462E-02-1.07682E-13-2.56718E-13
 -1       196 1.98728E+01-3.15122E-03-1.49724E-04 3.16828E-02-8.01780E-14-2.92263E-13
 -1       197 1.99023E+01-2.40402E-03-1.13955E-04 2.45927E-02-1.22324E-14-3.77478E-13
 -1       198 1.99262E+01-1.64560E-03-7.33100E-05 1.94396E-02 1.30783E-14-3.64250E-13
 -1       199 1.99465E+01-8.60061E-04-2.80488E-05 1.62988E-02-7.77335E-14-4.50432E-13
 -1       200 1.99652E+01-1.91901E-05 2.23819E-05 1.52960E-02-2.21190E-14-4.60012E-13
 -1       201 1.99845E+01 9.14467E-04 7.90480E-05 1.66357E-02 4.60609E-14-4.77101E-13
 -1       202 2.00069E+01 1.98445E-03 1.43208E-04 2.06216E-02-9.50872E-14-4.74090E-13
 -1       203 2.00353E+01 3.23641E-03 2.15923E-04 2.76665E-02 6.21000E-14-2.08929E-13
 -1       204 2.00729E+01 4.71236E-03 2.97529E-04 3.82880E-02-5.22045E-14-1.62894E-13
 -1       205 2.01236E+01 6.44164E-03 3.86889E-04 5.30853E-02-6.97072E-15-2.36511E-13
 -1       206 2.01917E+01 8.42670E-03 4.80334E-04 7.26845E-02 1.27050E-14-3.82538E-13
 -1       207 2.02818E+01 1.06208E-02 5.70179E-04 9.76360E-02 2.78980E-14-3.57708E-13
 -1       208 2.03989E+01 1.28936E-02 6.42755E-04 1.28240E-01 2.67505E-15-3.42962E-13
 -1       209 2.05479E+01 1.49808E-02 6.76016E-04 1.64264E-01 5.68124E-14-3.70649E-13
 -1       210 2.07324E+01 1.64112E-02 6.37138E-04 2.04512E-01-9.15042E-14-4.40962E-13
 -1       211 2.09542E+01 1.64119E-02 4.81214E-04 2.46184E-01-1.60998E-13-4.15391E-13
 -1       212 2.12109E+01 1.37981E-02 1.53407E-04 2.84004E-01-1.41900E-13-4.23531E-13
 -1       213 2.14937E+01 6.88584E-03-4.01411E-04 3.09129E-01-1.68067E-13-5.25285E-13
 -1       214 2.17837E+01-6.48084E-03-1.21644E-03 3.08018E-01 5.58360E-14-4.70937E-13
 -1       215 2.20487E+01-2.85900E-02-2.26366E-03 2.61815E-01 5.56318E-14-4.40087E-13
 -1       216 2.22395E+01-6.08835E-02-3.40280E-03 1.47366E-01-5.89715E-14-3.31569E-13
 -1       217 2.22894E+01-1.01943E-01-4.33503E-03-5.81347E-02-4.70787E-14-4.70721E-13
 -1       218 2.21195E+01-1.44379E-01-4.62563E-03-3.66418E-01-3.65060E-14-3.39116E-13
 -1       219 2.16541E+01-1.71871E-01-3.87339E-03-7.60199E-01 2.37978E-14-5.04217E-13
 -1       220 2.08512E+01-1.59934E-01-1.96958E-03-1.17258E+00-8.40638E-14-6.57918E-13
 -1       221 1.97440E+01-8.56033E-02 7.18854E-04-1.47879E+00-2.06289E-13-7.79506E-13
 -1       222 1.84778E+01 5.29040E-02 3.39395E-03-1.52321E+00 2.24337E-13-6.02355E-13
 -1       223 1.73104E+01 2.18057E-01 5.05270E-03-1.19298E+00 1.75180E-13-2.83671E-13
 -1       224 1.65426E+01 3.42293E-01 5.82353E-03-5.06078E-01 2.28307E-13-4.37464E-13
 -1       225 1.63927E+01 3.64598E-01 5.12817E-03 3.59688E-01-1.88833E-14-4.07830E-13
 -1       226 1.68814E+01 2.69642E-01 3.31663E-03 1.12931E+00-1.39054E-13-5.12699E-13
 -1       227 1.78334E+01 4.45459E-02 7.45060E-04 1.52301E+00 1.84029E-13-3.60519E-13
 -1       228 1.89345E+01-2.73794E-01 5.37152E-03 1.34021E+00 5.39595E-13 8.52348E-14
 -1       229 2.09654E+01 2.77007E-01-5.13278E-02 1.16444E+00 2.92079E-13 1.38476E-12
 -1       230 1.98711E+01 1.26848E-01 8.31181E-03 4.42743E-01 2.43857E-13 1.16133E-12
 -1       231 1.93653E+01 5.80810E-02 1.27348E-02 1.49661E-01 1.87230E-13 9.41671E-13
 -1       232 1.91562E+01 2.77418E-02 7.62822E-03 1.03305E-02 1.23255E-13 8.13319E-13
 -1       233 1.91070E+01 1.30978E-02 3.82232E-03-5.88692E-02 7.62910E-14 7.38903E-13
 -1       234 1.91435E+01 5.15040E-03 1.90457E-03-9.13679E-02 2.35210E-14 7.18276E-13
 -1       235 1.92233E+01 6.03873E-04 1.00091E-03-1.03188E-01 4.42981E-14 6.48156E-13
 -1       236 1.93216E+01-1.98892E-03 5.39906E-04-1.03037E-01 1.02030E-13 5.69846E-13
 -1       237 1.94239E+01-3.37482E-03 2.75881E-04-9.61045E-02 1.00187E-13 4.32538E-13
 -1       238 1.95214E+01-3.99109E-03 1.14402E-04-8.56487E-02 4.90811E-14 4.79435E-13
 -1       239 1.96097E+01-4.11642E-03 1.53614E-05-7.37524E-02 4.98006E-14 4.36620E-13
 -1       240 1.96865E+01-3.93662E-03-4.24004E-05-6.17384E-02 5.09694E-14 4.39588E-13
 -1       241 1.97514E+01-3.57699E-03-7.21126E-05-5.04218E-02 7.27613E-14 3.47049E-13
 -1       242 1.98049E+01-3.12044E-03-8.26401E-05-4.02782E-02 1.56890E-13 2.23112E-13
 -1       243 1.98480E+01-2.61874E-03-7.99921E-05-3.15633E-02 3.15309E-14 1.79522E-13
 -1       244 1.98825E+01-2.10014E-03-6.81610E-05-2.44009E-02-9.08570E-14 1.81491E-13
 -1       245 1.99098E+01-1.57481E-03-4.96590E-05-1.88498E-02 2.17822E-14 2.08053E-13
 -1       246 1.99320E+01-1.03881E-03-2.58807E-05-1.49555E-02 5.88820E-14 1.48956E-13
 -1       247 1.99511E+01-4.76747E-04 2.63160E-06-1.27904E-02-1.48343E-14 1.37105E-13
 -1       248 1.99693E+01 1.36487E-04 3.59850E-05-1.24878E-02-8.68598E-14 2.57933E-13
 -1       249 1.99890E+01 8.34860E-04 7.47665E-05-1.42701E-02-9.92828E-15 2.50139E-13
 -1       250 2.00130E+01 1.66094E-03 1.19887E-04-1.84761E-02 1.12118E-13 1.75380E-13
 -1       251 2.00448E+01 2.66610E-03 1.72402E-04-2.55865E-02 5.38472E-15 5.74912E-14
 -1       252 2.00884E+01 3.91097E-03 2.33256E-04-3.62496E-02-9.36128E-14-2.26289E-14
 -1       253 2.01487E+01 5.46572E-03 3.02868E-04-5.13073E-02-1.52966E-14 9.69610E-14
 -1       254 2.02316E+01 7.40942E-03 3.80405E-04-7.18174E-02 7.69609E-14 1.53130E-13
 -1       255 2.03445E+01 9.82650E-03 4.62508E-04-9.90668E-02 1.24598E-13 2.76846E-13
 -1       256 2.04962E+01 1.27967E-02 5.41099E-04-1.34559E-01-1.08498E-13 1.39819E-13
 -1       257 2.06971E+01 1.63706E-02 5.99759E-04-1.79944E-01-3.69914E-14 1.49784E-13
 -1       258 2.09588E+01 2.05165E-02 6.08240E-04-2.36816E-01-1.47002E-13 2.15861E-13
 -1       259 2.12941E+01 2.50106E-02 5.15548E-04-3.06270E-01-2.31625E-13 4.01540E-13
 -1       260 2.17149E+01 2.92242E-02 2.44947E-04-3.87958E-01 1.47474E-14 2.44873E-13
 -1       261 2.22298E+01 3.17382E-02-2.98162E-04-4.78292E-01 2.70339E-13 3.56549E-13
 -1       262 2.28377E+01 2.97082E-02-1.18110E-03-5.67206E-01 6.60653E-14 5.17110E-13
 -1       263 2.35192E+01 1.79932E-02-2.32086E-03-6.32911E-01 9.69073E-14 2.90071E-13
 -1       264 2.42210E+01-1.15500E-02-3.26150E-03-6.34719E-01 6.15353E-14 1.27616E-13
 -1       265 2.48372E+01-6.91579E-02-2.95394E-03-5.06632E-01 4.22804E-14-3.18408E-15
 -1       266 2.51915E+01-1.61343E-01 1.40335E-05-1.60773E-01 2.07747E-13-4.67946E-14
 -1       267 2.50389E+01-2.75532E-01 6.09607E-03 4.79901E-01-3.39182E-14-3.79423E-14
 -1       268 2.41176E+01-3.55942E-01 1.19727E-02 1.39709E+00-1.11259E-13 4.78654E-14
 -1       269 2.22902E+01-2.99392E-01 9.02463E-03 2.34578E+00-2.09338E-14-1.05912E-13
 -1       270 1.97710E+01-3.47478E-02-9.24652E-03 2.82664E+00 7.85370E-14 2.31204E-14
 -1       271 1.72461E+01 3.57754E-01-3.21452E-02 2.34444E+00 5.19335E-13-2.32470E-13
 -1       272 1.56503E+01 5.95202E-01-3.86047E-02 9.36463E-01 1.18537E-13-6.36435E-13
 -1       273 1.54894E+01 5.06630E-01-2.75075E-02-6.67432E-01-5.52162E-14-5.52542E-13
 -1       274 1.64886E+01 2.28585E-01-4.15707E-03-1.68966E+00-1.75392E-13-3.56624E-13
 -1       275 1.79058E+01-3.61371E-02 1.85852E-02-1.91002E+00-1.05029E-13-3.94577E-13
 -1       276 1.91966E+01-3.58208E-01 5.10243E-02-1.42695E+00-8.24063E-14-2.14586E-13
 -1       277 1.98782E+01-1.19937E+00 2.10456E-02-1.71711E+00-3.20910E-13-3.78838E-13
 -1       278 2.07246E+01-1.90953E+00 1.18192E-02-9.33716E-01-1.94431E-13-1.18692E-13
 -1       279 2.15653E+01-1.65219E+00-1.29507E-02 1.61959E+00-2.38338E-13-2.40384E-13
 -1       280 2.19103E+01 4.83578E-01 3.23753E-03 5.57147E+00-6.01279E-13-4.86030E-13
 -1       281 2.06222E+01 4.59309E+00 9.51487E-02 8.44778E+00-8.06698E-13-2.63702E-13
 -1       282 1.77258E+01 9.49862E+00 2.00839E-01 6.63034E+00-7.73354E-13 1.90167E-13
 -1       283 1.60986E+01 1.16248E+01 2.42561E-01 2.62942E-01-1.11411E-12 2.14218E-13
 -1       284 1.70701E+01 1.02617E+01 2.24536E-01-5.70066E+00-8.68880E-13 1.44232E-13
 -1       285 1.94573E+01 6.42813E+00 1.42750E-01-8.82388E+00-3.04309E-13 7.58726E-13
 -1       286 2.14071E+01 1.82440E+00 4.22573E-02-8.05034E+00 1.49984E-13 8.79523E-13
 -1       287 2.18634E+01-1.88404E+00-9.26532E-03-4.71320E+00 7.44266E-13 1.05795E-12
 -1       288 2.12825E+01-3.76357E+00-1.10863E-03-1.27366E+00 7.53599E-13-1.88669E-14
 -1       289 2.05992E+01-3.98578E+00 1.43794E-02 8.44775E-01 7.59918E-13-5.40411E-13
 -1       290 2.01670E+01-3.26308E+00 1.47896E-02 1.72106E+00 5.03639E-13-4.61253E-13
 -1       291 1.98906E+01-2.13229E+00 8.97836E-03 1.80861E+00 3.50348E-13-3.39263E-13
 -1       292 1.95341E+01-1.02611E+00-5.69947E-03 1.79593E+00 4.73214E-13-3.35740E-13
 -1       293 3.43624E-03-1.09040E+01-1.42834E+00 2.75691E+00 1.09600E-12 3.75144E-13
 -1       294 5.32179E+00-1.00964E+01-1.26312E+00 6.65437E+00 1.31384E-12 4.54685E-13
 -1       295 1.57441E+01-5.27302E+00-4.63455E-01 9.95518E+00 1.02968E-12 4.00027E-13
 -1       296 2.59101E+01 9.10969E-01 1.56257E-01 1.10368E+01 1.00026E-12 7.14762E-13
 -1       297 3.76734E+01 4.50994E+00 6.05326E-01 1.02677E+01 7.54896E-13 8.32112E-14
 -1       298 4.76218E+01 7.77775E+00 1.03303E+00 8.86565E+00 5.04638E-13 1.11577E-14
 -1       299 5.42997E+01 8.50298E+00 1.27872E+00 5.84474E+00 3.72341E-13-3.02550E-13
 -1       300 5.27567E+01 8.27595E+00 1.04082E+00 1.61335E+00 5.29882E-13-3.73632E-13
 -1       301 4.73899E+01 5.93902E+00 7.29294E-01-1.58542E+00 7.40116E-13-8.98365E-13
 -1       302 3.91555E+01 2.77988E+00 5.01628E-01-5.57626E+00 7.00842E-13-1.23307E-12
 -1       303 2.70846E+01-5.41293E-01 4.66386E-02-6.91677E+00 1.22183E-12-1.05249E-12
 -1       304 1.59430E+01-5.57920E+00-3.68416E-01-5.96617E+00 1.30457E-12-8.70470E-13
 -1       305 5.53628E+00-9.78563E+00-7.96987E-01-3.72989E+00 1.15580E-12-1.47109E-12
 -1       306 3.19280E-01-1.23505E+01-8.59310E-01-2.10697E+00 3.91492E-13-1.22112E-12
 -1       307-1.81829E+00-1.45967E+01-1.08807E+00 1.91779E-01-1.92197E-13-1.03231E-12
 -1       308-3.60049E-01-1.29147E+01-9.28015E-01 2.17481E+00-5.47257E-13-3.93699E-13
 -1       309 5.19691E+00-9.44337E+00-6.39336E-01 4.69249E+00-7.92588E-13-7.03628E-13
 -1       310 1.56783E+01-5.79915E+00-2.48604E-01 6.80093E+00-8.23869E-13 2.33105E-13
 -1       311 2.53220E+01-4.34123E-01 3.60374E-02 7.43734E+00-6.25333E-13 3.68899E-13
 -1       312 3.67676E+01 3.55264E+00 4.86315E-01 7.40265E+00-3.09461E-13 4.58300E-13
 -1       313 4.63228E+01 5.84642E+00 7.73430E-01 4.31806E+00-6.71893E-14 1.00822E-12
 -1       314 5.21081E+01 7.62950E+00 9.75427E-01 2.63203E-01-7.50983E-13 1.58021E-12
 -1       315 5.22329E+01 8.93078E+00 9.97020E-01-4.44176E+00-9.00419E-13 1.82919E-12
 -1       316 4.89637E+01 8.71037E+00 1.08582E+00-9.38209E+00-1.30829E-12 2.14717E-12
 -1       317 3.87267E+01 5.39885E+00 5.51251E-01-9.62324E+00-7.70994E-13 1.79640E-12
 -1       318 2.74086E+01 2.19358E+00 2.99178E-01-1.16877E+01-3.60323E-13 1.97969E-12
 -1       319 1.53793E+01-3.47575E+00-4.05720E-01-1.01914E+01-1.68754E-14 1.29005E-12
 -1       320 5.94710E+00-9.48176E+00-1.16052E+00-7.29289E+00 8.11740E-13 2.56854E-13
 -1       321-2.87122E-01-1.27302E+01-1.75860E+00-3.05659E+00 8.71109E-13 3.87745E-13
 -1       322 2.01467E+01 3.01506E+00-1.78019E-02-2.10937E+00-3.70840E-13-2.66260E-13
 -1       323 2.07563E+01 2.20990E+00-1.78561E-02-2.36264E+00-4.24974E-13-1.37754E-14
 -1       324 1.95821E+01 3.69244E+00-1.56008E-02-1.31782E+00-1.84069E-13-4.84005E-13
 -1       325 1.94594E+01 3.84869E+00-1.36888E-02-9.23319E-01-9.85216E-14-5.17397E-13
 -1       326 1.93900E+01 3.93979E+00-1.27010E-02-5.43544E-01 2.70834E-15-5.19157E-13
 -1       327 1.93593E+01 3.98118E+00-1.22876E-02-1.73126E-01 9.48143E-14-4.96127E-13
 -1       328 1.93606E+01 3.97959E+00-1.23067E-02 1.94275E-01 1.67468E-13-4.87961E-13
 -1       329 1.93942E+01 3.93467E+00-1.27536E-02 5.65010E-01 2.37983E-13-4.61310E-13
 -1       330 1.94653E+01 3.84134E+00-1.37618E-02 9.38755E-01 3.18276E-13-3.79073E-13
 -1       331 1.95927E+01 3.67901E+00-1.56506E-02 1.33263E+00 4.08975E-13-2.58006E-13
 -1       332 1.98089E+01 3.41021E+00-1.88293E-02 1.73780E+00 4.82647E-13-1.12084E-13
 -1       333 2.01801E+01 2.95531E+00-2.29384E-02 2.12634E+00 5.33831E-13 9.12508E-14
 -1       334 2.07504E+01 2.12942E+00-3.04671E-02 2.32140E+00 4.97684E-13 4.81682E-13
 -1       335 2.10972E+01 1.18769E+00-2.49189E-02 1.92128E+00 4.28556E-13 8.30060E-13
 -1       336 2.03938E+01 4.89300E-01 8.33379E-03 9.26665E-01 3.53531E-13 6.83214E-13
 -1       337 2.04604E+01 6.75173E-01 1.25602E-02-1.02498E+00-3.43060E-13 7.08414E-14
 -1       338 2.00386E+01 3.37333E-01 7.18578E-03-4.57072E-01-2.75695E-13 6.21054E-14
 -1       339 1.97849E+01 1.76659E-01 4.16729E-03-1.47782E-01-1.69219E-13 4.97256E-14
 -1       340 1.96498E+01 9.05693E-02 1.90542E-03 2.34646E-02-1.28165E-13 2.62639E-14
 -1       341 1.95947E+01 4.14203E-02 7.91989E-04 1.14693E-01-9.22800E-14 2.47737E-14
 -1       342 1.95897E+01 1.24119E-02 2.71775E-04 1.57894E-01-9.19666E-14-1.25618E-14
 -1       343 1.96140E+01-4.63829E-03 1.35619E-05 1.71937E-01-6.02717E-14-2.90067E-14
 -1       344 1.96535E+01-1.41922E-02-1.22042E-04 1.68546E-01-8.96603E-14-6.74686E-14
 -1       345 1.96993E+01-1.89219E-02-1.90741E-04 1.55263E-01-1.50088E-13-9.91642E-14
 -1       346 1.97456E+01-2.05390E-02-2.18718E-04 1.37014E-01-1.26126E-13-1.40378E-13
 -1       347 1.97893E+01-2.01827E-02-2.21018E-04 1.17010E-01-1.29713E-13-1.48340E-13
 -1       348 1.98284E+01-1.86196E-02-2.07342E-04 9.73081E-02-2.62284E-14-1.38984E-13
 -1       349 1.98623E+01-1.63566E-02-1.84071E-04 7.91845E-02-2.13383E-14-1.40192E-13
 -1       350 1.98912E+01-1.37118E-02-1.55245E-04 6.34061E-02-1.11910E-13-1.93277E-13
 -1       351 1.99155E+01-1.08628E-02-1.23181E-04 5.04241E-02-4.18687E-14-9.17017E-14
 -1       352 1.99360E+01-7.88109E-03-8.89064E-05 4.05211E-02-1.78096E-14-1.09777E-13
 -1       353 1.99539E+01-4.75727E-03-5.24784E-05 3.39202E-02-5.41535E-14-1.39238E-13
 -1       354 1.99706E+01-1.42052E-03-1.32265E-05 3.08688E-02-3.03955E-14-2.34184E-13
 -1       355 1.99873E+01 2.24587E-03 3.00398E-05 3.17002E-02-3.82978E-14-2.04500E-13
 -1       356 2.00059E+01 6.38992E-03 7.88325E-05 3.68774E-02 3.52910E-14-2.11160E-13
 -1       357 2.00282E+01 1.11746E-02 1.34759E-04 4.70178E-02 1.35259E-13-1.14620E-13
 -1       358 2.00564E+01 1.67564E-02 1.99217E-04 6.28962E-02 3.53184E-15-2.27423E-13
 -1       359 2.00930E+01 2.32540E-02 2.72940E-04 8.54176E-02-1.24341E-14-1.46645E-13
 -1       360 2.01407E+01 3.07003E-02 3.55338E-04 1.15546E-01-6.12853E-14-1.31023E-13
 -1       361 2.02025E+01 3.89705E-02 4.43481E-04 1.54169E-01-5.95133E-14-1.84971E-13
 -1       362 2.02818E+01 4.76724E-02 5.30645E-04 2.01868E-01 3.61530E-14-2.12032E-13
 -1       363 2.03815E+01 5.59871E-02 6.04258E-04 2.58550E-01 4.69022E-14-2.66241E-13
 -1       364 2.05047E+01 6.24449E-02 6.43240E-04 3.22892E-01-6.56509E-14-3.94401E-13
 -1       365 2.06534E+01 6.46287E-02 6.14972E-04 3.91534E-01-1.69473E-13-3.31934E-13
 -1       366 2.08279E+01 5.88240E-02 4.72769E-04 4.57965E-01-1.51502E-13-2.46894E-13
 -1       367 2.10265E+01 3.96994E-02 1.55964E-04 5.11112E-01-2.76150E-14-9.92233E-14
 -1       368 2.12436E+01 2.43732E-04-4.03408E-04 5.33765E-01-1.21086E-13 1.21813E-13
 -1       369 2.14686E+01-6.75537E-02-1.26206E-03 5.01297E-01 1.24866E-14 6.75182E-14
 -1       370 2.16838E+01-1.70401E-01-2.42455E-03 3.81733E-01 6.18681E-14-1.18825E-13
 -1       371 2.18625E+01-3.08552E-01-3.77910E-03 1.39187E-01-1.66713E-13 1.26855E-14
 -1       372 2.19655E+01-4.66812E-01-4.98997E-03-2.56194E-01 6.40135E-14 9.36818E-14
 -1       373 2.19400E+01-6.03130E-01-5.47848E-03-8.08187E-01-1.42263E-14 5.43269E-14
 -1       374 2.17227E+01-6.42539E-01-4.68870E-03-1.46384E+00-8.04576E-14 7.94595E-14
 -1       375 2.12588E+01-4.92636E-01-2.38299E-03-2.08291E+00-2.53385E-13-1.80102E-13
 -1       376 2.05439E+01-9.69401E-02 1.17087E-03-2.43745E+00-7.78428E-14-1.18157E-13
 -1       377 1.96765E+01 4.87626E-01 5.05871E-03-2.28248E+00 2.27113E-13-3.86314E-13
 -1       378 1.88735E+01 1.05147E+00 7.27704E-03-1.50703E+00 8.78191E-14-3.82377E-13
 -1       379 1.83774E+01 1.33679E+00 9.63462E-03-2.67298E-01 6.36917E-14-5.88673E-13
 -1       380 1.83066E+01 1.18507E+00 8.05010E-03 1.04463E+00-1.71821E-13-3.56159E-13
 -1       381 1.86299E+01 6.95896E-01-6.38739E-04 2.03345E+00 1.83122E-15-1.91080E-13
 -1       382 1.89843E+01-9.96721E-02 4.34934E-03 2.20963E+00 3.55528E-13-2.99010E-13
 -1       383 1.98925E+01 2.28530E-01 1.07967E-02 3.97958E-01 2.89952E-13 5.83841E-13
 -1       384 1.96043E+01 1.15396E-01 6.17640E-03 1.19205E-01 1.83794E-13 4.91732E-13
 -1       385 1.94701E+01 5.77057E-02 2.80848E-03-2.96879E-02 1.06398E-13 4.25071E-13
 -1       386 1.94308E+01 2.57983E-02 1.17760E-03-1.06602E-01 5.74460E-14 3.63543E-13
 -1       387 1.94470E+01 7.31373E-03 4.47886E-04-1.41810E-01 7.44672E-14 3.22096E-13
 -1       388 1.94934E+01-3.43235E-03 9.95226E-05-1.52230E-01 1.27136E-13 2.93395E-13
 -1       389 1.95540E+01-9.40749E-03-8.34666E-05-1.48051E-01 1.66050E-13 2.66947E-13
 -1       390 1.96187E+01-1.23391E-02-1.80698E-04-1.35700E-01 5.68503E-14 2.36063E-13
 -1       391 1.96814E+01-1.33170E-02-2.26179E-04-1.19326E-01 7.27104E-14 2.21476E-13
 -1       392 1.97387E+01-1.30619E-02-2.38593E-04-1.01611E-01 4.31049E-14 2.15035E-13
 -1       393 1.97890E+01-1.20585E-02-2.29991E-04-8.42537E-02 1.86534E-13 1.41629E-13
 -1       394 1.98318E+01-1.06286E-02-2.08425E-04-6.82994E-02 1.79908E-13 1.39497E-13
 -1       395 1.98676E+01-8.97605E-03-1.79132E-04-5.43581E-02 6.49449E-14 1.54206E-13
 -1       396 1.98970E+01-7.21654E-03-1.45267E-04-4.27723E-02-3.88561E-14 1.00240E-13
 -1       397 1.99212E+01-5.39825E-03-1.08405E-04-3.37395E-02 2.13571E-14 9.62925E-15
 -1       398 1.99416E+01-3.51707E-03-6.88924E-05-2.74072E-02 8.48414E-14 9.90019E-14
 -1       399 1.99598E+01-1.52707E-03-2.61012E-05-2.39463E-02-2.50410E-14 1.03453E-13
 -1       400 1.99775E+01 6.52622E-04 2.13971E-05-2.36107E-02-4.76864E-14 6.39909E-14
 -1       401 1.99967E+01 3.13385E-03 7.57158E-05-2.67873E-02-3.05646E-14 9.97910E-14
 -1       402 2.00197E+01 6.05746E-03 1.39578E-04-3.40406E-02 2.08920E-13-1.21529E-14
 -1       403 2.00492E+01 9.59257E-03 2.16256E-04-4.61528E-02 5.90411E-14-3.05718E-14
 -1       404 2.00884E+01 1.39364E-02 3.09486E-04-6.41624E-02-1.10147E-13-1.67776E-15
 -1       405 2.01412E+01 1.93126E-02 4.23283E-04-8.93969E-02-5.18901E-14-5.28630E-14
 -1       406 2.02121E+01 2.59654E-02 5.61535E-04-1.23498E-01 2.27835E-14-2.58828E-14
 -1       407 2.03065E+01 3.41426E-02 7.27113E-04-1.68424E-01 1.16098E-13 1.88670E-13
 -1       408 2.04308E+01 4.40546E-02 9.20046E-04-2.26404E-01 9.09575E-15 3.30320E-13
 -1       409 2.05922E+01 5.57849E-02 1.13397E-03-2.99796E-01-8.18928E-14 4.27936E-13
 -1       410 2.07984E+01 6.91062E-02 1.34963E-03-3.90742E-01-1.73129E-13 5.77409E-13
 -1       411 2.10575E+01 8.31206E-02 1.52388E-03-5.00454E-01-1.79110E-13 2.46533E-13
 -1       412 2.13767E+01 9.55942E-02 1.57330E-03-6.27817E-01 8.05985E-14-9.52539E-15
 -1       413 2.17610E+01 1.01804E-01 1.35472E-03-7.66822E-01 4.76832E-16 8.81446E-14
 -1       414 2.22103E+01 9.27361E-02 6.54731E-04-9.02191E-01 1.04206E-13 4.18934E-13
 -1       415 2.27159E+01 5.27629E-02-7.83370E-04-1.00252E+00 1.91110E-13 4.16347E-13
 -1       416 2.32550E+01-4.19394E-02-3.13336E-03-1.01119E+00 1.01450E-13 4.02102E-13
 -1       417 2.37838E+01-2.20246E-01-6.23562E-03-8.38209E-01 7.05703E-14 2.56154E-13
 -1       418 2.42273E+01-4.99413E-01-9.30365E-03-3.63512E-01 2.34362E-13 1.66999E-13
 -1       419 2.44666E+01-8.43124E-01-1.10251E-02 5.25056E-01-6.79509E-14 5.18752E-14
 -1       420 2.43280E+01-1.09795E+00-1.04731E-02 1.82910E+00 3.61065E-14 2.06809E-14
 -1       421 2.35988E+01-9.59468E-01-1.03810E-02 3.25799E+00-1.24621E-13 2.73325E-13
 -1       422 2.22077E+01-1.94899E-01-1.74244E-02 4.12047E+00 2.84153E-13 4.88747E-13
 -1       423 2.04617E+01 1.02274E+00-2.29217E-02 3.63528E+00 6.19813E-13 7.69575E-14
 -1       424 1.91555E+01 1.82155E+00-1.46384E-02 1.69850E+00 2.57096E-13 1.78255E-13
 -1       425 1.87903E+01 1.61392E+00-1.36586E-02-6.49628E-01 4.10453E-14-1.02013E-13
 -1       426 1.91381E+01 7.32819E-01-3.50247E-03-2.15106E+00-7.52245E-14-1.66494E-13
 -1       427 1.95582E+01-1.15707E-01 4.31980E-03-2.45434E+00-1.66410E-14-3.98450E-13
 -1       428 1.98152E+01-5.95236E-01 1.04539E-02-2.18087E+00-9.16307E-14-3.42667E-13
 -1       429 2.61125E+01-2.25426E+00 1.44901E-02 3.98892E+00-6.74612E-14-7.09786E-13
 -1       430 2.37264E+01-1.35875E+00-6.17811E-03-9.17446E-02 7.71776E-14-7.51708E-14
 -1       431 2.15019E+01-8.89073E-01 9.55629E-03-1.80050E+00-1.17095E-13-2.82821E-14
 -1       432 2.51568E+01-2.46502E+00 1.04299E-01 9.22389E+00-1.43403E-13-3.10663E-13
 -1       433 1.06506E+01 3.13713E+00 8.71956E-02 5.52765E+00-3.02834E-13 2.75335E-14
 -1       434 9.17407E+00 4.10118E+00 2.48072E-01-3.38991E+00-2.49443E-13 4.00235E-13
 -1       435 1.46151E+01 1.77616E+00 1.75814E-01-1.04046E+01-1.56111E-13 5.92693E-13
 -1       436 2.15266E+01-1.00398E+00 1.22569E-01-1.17933E+01 1.74194E-13 1.42993E-12
 -1       437 2.49951E+01-2.33387E+00 3.88971E-02-8.10837E+00 7.30265E-13 1.39647E-12
 -1       438 2.43913E+01-2.40738E+00 8.11739E-03-3.22515E+00 4.29532E-13 5.22516E-13
 -1       439 2.24771E+01-1.97160E+00 1.62815E-02 1.57602E-01 5.33626E-13-3.89046E-13
 -1       440 2.10004E+01-1.56403E+00 1.41987E-02 1.83443E+00 5.84905E-13-6.89020E-13
 -1       441 2.00826E+01-1.09818E+00 4.70724E-03 2.39139E+00 4.13312E-13-4.99445E-13
 -1       442 1.64834E+01-4.51857E+00-1.03415E-02 1.18299E+01 2.57377E-13-7.52801E-14
 -1       443 2.60620E+01-4.82738E+00 2.07628E-02 1.05565E+01 5.89973E-13 4.57273E-13
 -1       444 3.31872E+01-2.14401E+00 5.50984E-02 7.37072E+00 6.65273E-13-1.43247E-13
 -1       445 1.98032E+01 3.43138E+00-1.76695E-02-1.73726E+00-2.81719E-13-4.07952E-13
 -1       446 3.95268E+01 7.83905E+00 2.49602E-02 1.69768E+00 4.41230E-13-3.25642E-13
 -1       447 3.99690E+01 9.70640E+00 1.33064E-02 2.28673E+00 5.41928E-13-1.16331E-13
 -1       448 3.79872E+01 7.74648E+00-7.63968E-02 3.60318E+00 6.68826E-13 4.73926E-14
 -1       449 3.74256E+01 2.14233E+00-3.30703E-02 2.42919E+00 4.46677E-13-1.36668E-13
 -1       450 3.34820E+01-2.94406E+00-9.15346E-03-1.22233E+00 4.44075E-13-3.05950E-13
 -1       451 2.62504E+01-6.61557E+00-2.37467E-02-4.39130E+00 5.24927E-13-3.95933E-14
 -1       452 1.56796E+01-8.28483E+00-4.28397E-02-6.66441E+00 8.27394E-14-3.74624E-13
 -1       453 7.91960E+00-7.62242E+00-3.84274E-03-6.05997E+00 5.35266E-14-1.27569E-12
 -1       454 1.02139E+00-7.25274E+00-1.04661E-01-1.99751E+00 1.17677E-13-1.19896E-12
 -1       455 7.77370E-01-6.92881E+00-8.18619E-02 2.03937E+00 2.43486E-13-6.76431E-13
 -1       456 5.16825E+00-7.40975E+00-8.00914E-02 5.86048E+00 3.74284E-14-5.20389E-13
 -1       457 1.41405E+01-7.43629E+00 7.85398E-03 7.52740E+00-6.52256E-15 3.48714E-13
 -1       458 2.51469E+01-6.12696E+00-1.41011E-02 5.49442E+00-1.65576E-13 1.17009E-12
 -1       459 3.23888E+01-2.32423E+00 1.40804E-02 2.70543E+00-2.10804E-13 9.46077E-13
 -1       460 3.72709E+01 2.45479E+00 2.26951E-02-6.91203E-02-1.96565E-13 1.15138E-12
 -1       461 3.94362E+01 7.39905E+00 1.82488E-02-2.15769E+00-5.75401E-13 1.31024E-12
 -1       462 4.00261E+01 1.01355E+01 1.95466E-02-2.43235E+00-8.64614E-13 1.00777E-12
 -1       463 3.95192E+01 9.20620E+00 2.55960E-02-2.42118E+00-8.26783E-13 1.00031E-12
 -1       464 3.74903E+01 5.36849E+00-1.17902E-02-3.24476E+00-4.54803E-13 9.62841E-13
 -1       465 3.33153E+01-9.78076E-01 5.33915E-02-7.33777E+00 2.71221E-13 1.40771E-12
 -1       466 2.57998E+01-4.24129E+00 9.16473E-04-1.13532E+01 3.98598E-13 1.76034E-12
 -1       467 1.64391E+01-4.76988E+00-1.51846E-01-1.24044E+01 3.55022E-13 1.26493E-12
 -1       468 3.81065E+01 3.01714E+00 6.18140E-02 3.10944E+00 6.84966E-13-4.19165E-13
 -1       469 1.96228E+01-3.48786E-01 1.44169E-01 1.16251E+01-2.27610E-13-5.23331E-14
 -1       470 1.96815E+01-5.12774E-01 1.32039E-02 2.42862E+00 3.05506E-13-3.72820E-13
 -1       471 1.07266E+01-2.96487E+00-4.78249E-02-1.06824E+01 3.69565E-13 7.08184E-13
 -1       472 8.95031E+00-1.30215E+00-9.05710E-02 8.63374E+00 1.10731E-13 6.98053E-14
 -1       473 3.36100E+01 8.26687E-01-8.03297E-02-3.00334E+00 8.07895E-14 7.74505E-13
 -1       474 2.15683E+01-7.45334E+00 5.84590E-02 6.40852E+00-1.88738E-15 1.40504E-12
 -1       475 2.03746E+01 8.32093E-01 4.01135E-03 9.71038E-01 3.74843E-13 2.55140E-13
 -1       476 1.97316E+01 3.10454E+00-5.32920E-03-6.33316E-01-5.41346E-14-4.49613E-13
 -1       477 1.98287E+01 2.93075E+00-5.71018E-03-9.48911E-01-1.30120E-13-4.42305E-13
 -1       478 1.96635E+01 3.22728E+00-5.01961E-03 8.83304E-03 1.17140E-13-4.50303E-13
 -1       479 1.96821E+01 3.19425E+00-5.10129E-03 3.30173E-01 1.89237E-13-4.27331E-13
 -1       480 1.97361E+01 3.09738E+00-5.41277E-03 6.45349E-01 2.62719E-13-3.68513E-13
 -1       481 1.98351E+01 2.91945E+00-5.94489E-03 9.60775E-01 3.52473E-13-2.61979E-13
 -1       482 1.99911E+01 2.63426E+00-6.52711E-03 1.25582E+00 4.15666E-13-1.39327E-13
 -1       483 2.02339E+01 2.18799E+00-5.70373E-03 1.50052E+00 4.66992E-13 6.45751E-16
 -1       484 2.01132E+01 4.53722E-01 5.07622E-03 4.63049E-01 2.88650E-13 2.20655E-13
 -1       485 2.03451E+01 9.73045E-01 2.78003E-03-9.39039E-01-2.86283E-13-1.01829E-13
 -1       486 2.99058E+01-4.29957E+00 1.08911E-02 7.59710E+00 1.86483E-13-5.03632E-13
 -1       487 2.74205E+01-4.06198E+00 4.65085E-02-9.91526E+00 5.80230E-13 1.92259E-12
 -1       488 2.01730E+01 5.45647E-01 2.33417E-03-4.66628E-01-2.17796E-13-8.15384E-14
 -1       489 2.00256E+01 3.03882E-01 1.11301E-03-1.65263E-01-1.61890E-13-7.81066E-14
 -1       490 1.99250E+01 1.61802E-01 4.68399E-04 1.63010E-02-1.06337E-13-7.82439E-14
 -1       491 1.98663E+01 7.54445E-02 1.61606E-04 1.18930E-01-9.79041E-14-7.81375E-14
 -1       492 1.98389E+01 2.26204E-02 2.25974E-05 1.70231E-01-1.29352E-13-9.57992E-14
 -1       493 1.98327E+01-9.02935E-03-4.71186E-05 1.88748E-01-1.05331E-13-1.35589E-13
 -1       494 1.98397E+01-2.69141E-02-8.27567E-05 1.86998E-01-1.50374E-13-1.86449E-13
 -1       495 1.98541E+01-3.57562E-02-9.85609E-05 1.73455E-01-1.92767E-13-1.46401E-13
 -1       496 1.98721E+01-3.86948E-02-1.01790E-04 1.53835E-01-1.07521E-13-1.51150E-13
 -1       497 1.98909E+01-3.78588E-02-9.70692E-05 1.31944E-01-4.59317E-14-9.55430E-14
 -1       498 1.99092E+01-3.46877E-02-8.75331E-05 1.10267E-01-1.50624E-14-6.10250E-14
 -1       499 1.99260E+01-3.01266E-02-7.52579E-05 9.03859E-02-1.06430E-13-4.47503E-14
 -1       500 1.99412E+01-2.47570E-02-6.14872E-05 7.32937E-02-1.51402E-14 1.78189E-14
 -1       501 1.99548E+01-1.88878E-02-4.68592E-05 5.96221E-02-3.30487E-14 1.37561E-14
 -1       502 1.99672E+01-1.26220E-02-3.15381E-05 4.98165E-02-6.57133E-14-6.12823E-14
 -1       503 1.99789E+01-5.90700E-03-1.53255E-05 4.42668E-02-7.99888E-14-6.84407E-14
 -1       504 1.99908E+01 1.42689E-03 2.24103E-06 4.34045E-02 1.86329E-14-7.42223E-14
 -1       505 2.00035E+01 9.63215E-03 2.17986E-05 4.77740E-02-3.41257E-14-1.79413E-13
 -1       506 2.00183E+01 1.90099E-02 4.40868E-05 5.80780E-02 9.90161E-14-1.71375E-13
 -1       507 2.00363E+01 2.98693E-02 6.98361E-05 7.51962E-02 2.71853E-14-2.16979E-13
 -1       508 2.00587E+01 4.24717E-02 9.96222E-05 1.00171E-01 1.40903E-14-1.96242E-13
 -1       509 2.00872E+01 5.69509E-02 1.33639E-04 1.34150E-01-8.68938E-14-1.95146E-13
 -1       510 2.01233E+01 7.31934E-02 1.71355E-04 1.78265E-01-1.47091E-13-2.25598E-13
 -1       511 2.01689E+01 9.06613E-02 2.11001E-04 2.33421E-01-3.72123E-14-1.21010E-13
 -1       512 2.02261E+01 1.08136E-01 2.48815E-04 2.99970E-01-5.76012E-14-2.18277E-13
 -1       513 2.02969E+01 1.23360E-01 2.77998E-04 3.77201E-01-1.07173E-13-1.79995E-13
 -1       514 2.03837E+01 1.32551E-01 2.87372E-04 4.62620E-01-1.28646E-13-1.48681E-13
 -1       515 2.04890E+01 1.29813E-01 2.59864E-04 5.50948E-01 3.11068E-14 1.58576E-14
 -1       516 2.06159E+01 1.06508E-01 1.71292E-04 6.32799E-01-5.86431E-16 2.24748E-13
 -1       517 2.07681E+01 5.08473E-02-9.59951E-06 6.93079E-01 3.73955E-14 2.55994E-13
 -1       518 2.09503E+01-5.17250E-02-3.17954E-04 7.09247E-01-1.62226E-13 1.62298E-13
 -1       519 2.11679E+01-2.16230E-01-7.87530E-04 6.49936E-01-5.09383E-14 2.10515E-13
 -1       520 2.14251E+01-4.52030E-01-1.42186E-03 4.75044E-01-9.96749E-14 2.08723E-13
 -1       521 2.17194E+01-7.50443E-01-2.14835E-03 1.39607E-01-1.18690E-14 3.12636E-13
 -1       522 2.20302E+01-1.06463E+00-2.62253E-03-3.94207E-01-9.87844E-14 2.53410E-14
 -1       523 2.23012E+01-1.28651E+00-2.33843E-03-1.13001E+00-1.28611E-13-8.76251E-14
 -1       524 2.24276E+01-1.24207E+00-1.52273E-03-1.99011E+00-2.58596E-13-8.53589E-15
 -1       525 2.22773E+01-7.45308E-01-9.87641E-04-2.76219E+00-1.40813E-13 2.18132E-13
 -1       526 2.17694E+01 2.59518E-01-1.34793E-03-3.10228E+00-1.57992E-13 4.13894E-14
 -1       527 2.10052E+01 1.51809E+00-4.36244E-04-2.65892E+00-3.91240E-14-2.38418E-13
 -1       528 2.02709E+01 2.47847E+00-3.04604E-03-1.40044E+00-4.97258E-15-3.13170E-13
 -1       529 1.98605E+01 2.60056E+00-3.44979E-04 2.74307E-01-2.88732E-14-4.96606E-13
 -1       530 1.97686E+01 1.84824E+00-5.06295E-03 1.68573E+00-9.17183E-14-7.63082E-13
 -1       531 2.29912E+01 6.61838E-01-9.38658E-03 1.55164E+00 2.01695E-13-4.00949E-13
 -1       532 1.98113E+01 1.29076E-01 1.00186E-03-2.08647E-02 1.46321E-13 1.53012E-13
 -1       533 1.97535E+01 5.96156E-02 3.65046E-04-1.19423E-01 9.80460E-14 9.34880E-14
 -1       534 1.97348E+01 1.78082E-02 8.39021E-05-1.67559E-01 1.02103E-13 4.17587E-14
 -1       535 1.97408E+01-7.02728E-03-5.28934E-05-1.84158E-01 1.33774E-13 3.86773E-14
 -1       536 1.97612E+01-2.10054E-02-1.23188E-04-1.81518E-01 1.00090E-13 9.32370E-14
 -1       537 1.97886E+01-2.79172E-02-1.56123E-04-1.67803E-01 8.62615E-14 6.97023E-14
 -1       538 1.98183E+01-3.02423E-02-1.65728E-04-1.48443E-01 1.42661E-13 5.30112E-14
 -1       539 1.98475E+01-2.96478E-02-1.60660E-04-1.27022E-01 1.04936E-13-5.03248E-14
 -1       540 1.98746E+01-2.72589E-02-1.46663E-04-1.05857E-01 1.14389E-13 3.00440E-14
 -1       541 1.98986E+01-2.38179E-02-1.27516E-04-8.64080E-02 8.60142E-14 1.18014E-13
 -1       542 1.99196E+01-1.97850E-02-1.05561E-04-6.95721E-02 4.75515E-14 1.76209E-13
 -1       543 1.99378E+01-1.54090E-02-8.20717E-05-5.59022E-02 5.48837E-14 4.83401E-14
 -1       544 1.99538E+01-1.07763E-02-5.74823E-05-4.57734E-02 6.47842E-14 1.60048E-14
 -1       545 1.99685E+01-5.84703E-03-3.15858E-05-3.95104E-02-6.26427E-14 1.19926E-13
 -1       546 1.99827E+01-4.79617E-04-3.64908E-06-3.74873E-02-1.92885E-14 6.89890E-14
 -1       547 1.99977E+01 5.55320E-03 2.74940E-05-4.02070E-02-9.45172E-15-9.42024E-15
 -1       548 2.00150E+01 1.25540E-02 6.33858E-05-4.83686E-02 8.30040E-14-1.33187E-13
 -1       549 2.00361E+01 2.08939E-02 1.05912E-04-6.29229E-02 7.73838E-14 1.18120E-13
 -1       550 2.00629E+01 3.10074E-02 1.57276E-04-8.51203E-02 4.19090E-14 1.13279E-13
 -1       551 2.00975E+01 4.33849E-02 2.19937E-04-1.16548E-01 1.72026E-14-5.22368E-14
 -1       552 2.01425E+01 5.85569E-02 2.96475E-04-1.59151E-01 5.46274E-15-1.21654E-13
 -1       553 2.02006E+01 7.70578E-02 3.89290E-04-2.15230E-01-3.15918E-14-6.61611E-14
 -1       554 2.02748E+01 9.93482E-02 4.99936E-04-2.87380E-01-1.45123E-13 6.41530E-14
 -1       555 2.03684E+01 1.25653E-01 6.27781E-04-3.78345E-01-2.04614E-13 3.09019E-13
 -1       556 2.04848E+01 1.55644E-01 7.67396E-04-4.90689E-01-1.17097E-13 1.86338E-13
 -1       557 2.06269E+01 1.87833E-01 9.03816E-04-6.26168E-01 6.81406E-14 1.07121E-14
 -1       558 2.07978E+01 2.18478E-01 1.00450E-03-7.84573E-01 8.37159E-14 6.53193E-15
 -1       559 2.10003E+01 2.39688E-01 1.00715E-03-9.61703E-01-5.01709E-15 1.51864E-13
 -1       560 2.12379E+01 2.36418E-01 8.04314E-04-1.14598E+00-6.53117E-14 2.19465E-13
 -1       561 2.15173E+01 1.82265E-01 2.34027E-04-1.31315E+00 6.43527E-14 2.34591E-13
 -1       562 2.18522E+01 3.51206E-02-9.04635E-04-1.41844E+00 9.68746E-14 3.79240E-13
 -1       563 2.22694E+01-2.62852E-01-2.71306E-03-1.38651E+00 2.17605E-13 4.30352E-13
 -1       564 2.28121E+01-7.69396E-01-4.96704E-03-1.10190E+00 3.42455E-13 1.86732E-13
 -1       565 2.35238E+01-1.48766E+00-7.09302E-03-4.10340E-01 2.07891E-13 1.14484E-13
 -1       566 2.43913E+01-2.25204E+00-8.83565E-03 8.31777E-01-2.02593E-13-2.56038E-14
 -1       567 2.52333E+01-2.58242E+00-1.24413E-02 2.63584E+00-2.46750E-13 2.78095E-13
 -1       568 2.55677E+01-1.67308E+00-2.84770E-02 4.48893E+00 1.35518E-13 1.75249E-13
 -1       569 2.48828E+01 7.21235E-01-6.49951E-02 5.35323E+00 4.46206E-13 3.53598E-13
 -1       570 2.39543E+01 3.39526E+00-7.64007E-02 3.81588E+00 5.33998E-13 2.56409E-13
 -1       571 2.32968E+01 4.17232E+00-9.01734E-02 7.26358E-01 2.10415E-13 1.67899E-13
 -1       572 2.32147E+01 2.48721E+00-6.68315E-02-1.68853E+00 8.57786E-14 2.25573E-13
 -1       573 2.28610E+01 3.44854E-01-3.62481E-02-2.33681E+00 6.20077E-14 3.27308E-13
 -1       574 2.82484E+01-1.14081E+00-8.20694E-02 2.71460E-01 4.24192E-13-6.07799E-13
 -1       575 2.36641E+01-3.70299E+00 7.43114E-02 1.10165E+01 5.39013E-14 3.13551E-15
 -1       576 2.62238E+01-2.62719E-01-4.52693E-02-3.80482E-01 1.82770E-13-4.47246E-14
 -1       577 2.91905E+01-2.27520E+00-4.72304E-02-4.34125E+00 4.06424E-13 6.22499E-13
 -1       578 2.09150E+01 7.19934E-01 5.96951E-03 2.37980E+00 3.78544E-13-7.02569E-13
 -1       579 1.99260E+01 2.46481E-01 2.45895E-03 1.57630E-01 2.03062E-13 1.97577E-13
 -1       580 3.34048E+01 4.03640E+00-1.54533E-01-2.95334E-01 3.86094E-13-2.65649E-13
 -1       581 2.03981E+01 1.75582E+00-5.96408E-03-1.53610E+00-3.51391E-13-1.87705E-13
 -1       582 3.23959E+01 9.46558E+00-2.12635E-01-1.34883E+00-6.86007E-13 1.63786E-13
 -1       583 2.33965E+01-8.04584E+00 4.79719E-02-4.78366E+00-4.57134E-14 1.86830E-14
 -1       584 1.96792E+01 3.19863E+00-5.09475E-03-3.12604E-01 4.59218E-14-4.35067E-13
 -1       585 3.24030E+01 3.55772E+00-1.72893E-01 5.15023E+00 5.81479E-13 3.87454E-13
 -1       586 3.31678E+01 7.77648E+00-2.05211E-01 6.27627E-01 2.71491E-13 1.87156E-13
 -1       587 4.00200E+00-3.04541E+00 2.01836E-01-1.54704E-01 3.26591E-13-9.14560E-13
 -1       588 3.37044E+01-1.34095E+00-3.07014E-02 2.88992E+00 5.36157E-13-7.01106E-13
 -1       589 3.30214E+01-2.24534E+00-1.12807E-01 3.10947E+00 8.06508E-14 7.79654E-14
 -1       590 3.01727E+01-6.17798E+00-2.35963E-02-4.25250E-01 1.71640E-13 1.04909E-13
 -1       591 1.47861E+01-6.60548E+00 1.40687E-01-6.50059E+00-3.39263E-13-3.86927E-13
 -1       592 7.11594E+00-4.41466E+00 1.76418E-01-4.68618E+00-1.61128E-13-1.26997E-12
 -1       593 5.33961E+00-4.23449E+00 1.65224E-01 4.54904E+00 4.81649E-13-5.96120E-13
 -1       594 1.20195E+01-5.71560E+00 1.61902E-01 7.18417E+00 5.77753E-13 2.63609E-14
 -1       595 2.93920E+01-5.59673E+00-4.39856E-02 1.74478E+00-4.53179E-14 1.17628E-12
 -1       596 3.25727E+01-1.51855E+00-9.62315E-02-1.68568E+00-1.46917E-13 7.83304E-13
 -1       597 3.36658E+01 3.57087E+00-1.63845E-01-3.51622E+00-4.91371E-13 6.35943E-13
 -1       598 3.14846E+01 8.17987E+00-2.26131E-01-3.42354E+00-6.97234E-13 3.62241E-13
 -1       599 3.33471E+01 6.58890E+00-1.78037E-01-6.15993E-01-5.48492E-13 1.45772E-13
 -1       600 3.18746E+01 8.10474E+00-2.33934E-01 2.79831E+00 4.77715E-13 6.78890E-13
 -1       601 2.05865E+01 1.30529E+00-9.99404E-04 1.54706E+00 4.51089E-13 3.36111E-13
 -1       602 1.99725E+01 2.64957E+00-9.81950E-03-1.23823E+00-2.12274E-13-3.81098E-13
 -1       603 3.10784E+01 3.00074E+00-1.45591E-01-5.36366E-01-8.39814E-14 2.26721E-13
 -1       604 1.78712E+01-6.36112E+00 1.13593E-01 6.79554E+00 5.00502E-13 9.15865E-13
 -1       605 2.62173E+01-6.82814E+00 2.79193E-02 3.45739E+00-1.77521E-13 1.11632E-12
 -1       606 3.03396E+01 6.42933E+00-1.69298E-01 4.16567E+00 6.87270E-13 7.90749E-13
 -1       607 1.99587E+01 2.44988E+00-1.58589E-03 3.93771E-01 1.84531E-13-3.25632E-13
 -1       608 1.99266E+01 2.52484E+00-1.51500E-03 1.35614E-01 1.27160E-13-3.95542E-13
 -1       609 2.01196E+01 2.04640E+00-1.58460E-03 8.49560E-01 3.20302E-13-1.58035E-13
 -1       610 2.02394E+01 1.67564E+00-2.21762E-03 9.90871E-01 3.61759E-13-3.18162E-14
 -1       611 2.03198E+01 1.03704E+00 2.86168E-03 8.30516E-01 3.38899E-13 5.45808E-14
 -1       612 2.99300E+01 5.48608E-01-1.46549E-01-2.93006E-01 2.38219E-13-6.96016E-13
 -1       613 2.18887E+01 3.09102E+00-1.89938E-02 1.63621E+00-1.62846E-13-3.70015E-13
 -1       614 2.02397E+01 6.75159E-01 5.64744E-04-3.93421E-01-1.78909E-13-1.62313E-13
 -1       615 2.01674E+01 3.91994E-01 2.07058E-04-1.38705E-01-1.40118E-13-1.44084E-13
 -1       616 2.01020E+01 2.12453E-01 6.75941E-05 2.32089E-02-1.12317E-13-1.59622E-13
 -1       617 2.00516E+01 9.80493E-02 8.64145E-06 1.18128E-01-1.32946E-13-1.77676E-13
 -1       618 2.00164E+01 2.61772E-02-1.50726E-05 1.66727E-01-1.39811E-13-1.56269E-13
 -1       619 1.99937E+01-1.73911E-02-2.63840E-05 1.84557E-01-1.02482E-13-1.44400E-13
 -1       620 1.99805E+01-4.19565E-02-3.17990E-05 1.82905E-01-1.19638E-13-7.32652E-14
 -1       621 1.99738E+01-5.38046E-02-3.34309E-05 1.69769E-01-1.25959E-13-1.25387E-14
 -1       622 1.99717E+01-5.72661E-02-3.24612E-05 1.50704E-01-9.96455E-14-4.48472E-14
 -1       623 1.99724E+01-5.53293E-02-2.97671E-05 1.29479E-01-5.28781E-14-8.83688E-14
 -1       624 1.99749E+01-5.00190E-02-2.60515E-05 1.08595E-01-4.84412E-14-9.13288E-14
 -1       625 1.99785E+01-4.26510E-02-2.17531E-05 8.96824E-02-3.44522E-14-2.63465E-14
 -1       626 1.99827E+01-3.40114E-02-1.71875E-05 7.38016E-02-5.91221E-14-5.44838E-15
 -1       627 1.99874E+01-2.44865E-02-1.24842E-05 6.16725E-02-1.64197E-13-2.46311E-14
 -1       628 1.99923E+01-1.41608E-02-7.62235E-06 5.38497E-02-7.81985E-14-1.14651E-13
 -1       629 1.99977E+01-2.89186E-03-2.45908E-06 5.08533E-02-7.76279E-14-2.40686E-13
 -1       630 2.00037E+01 9.62939E-03 3.19540E-06 5.32658E-02-4.49342E-14-2.78330E-13
 -1       631 2.00106E+01 2.38214E-02 9.58233E-06 6.18007E-02 4.26626E-14-2.15828E-13
 -1       632 2.00186E+01 4.01506E-02 1.69470E-05 7.73415E-02 7.87553E-14-2.86711E-13
 -1       633 2.00281E+01 5.90552E-02 2.55310E-05 1.00949E-01 7.17987E-14-1.78245E-13
 -1       634 2.00396E+01 8.08411E-02 3.55156E-05 1.33832E-01-5.36808E-14-5.06747E-14
 -1       635 2.00536E+01 1.05531E-01 4.69431E-05 1.77265E-01-1.55843E-13-8.18063E-14
 -1       636 2.00708E+01 1.32644E-01 5.96006E-05 2.32439E-01-2.64866E-14-5.97192E-14
 -1       637 2.00919E+01 1.60884E-01 7.28424E-05 3.00225E-01-7.38591E-14-4.54267E-14
 -1       638 2.01183E+01 1.87697E-01 8.53320E-05 3.80805E-01-1.92075E-14-1.26837E-13
 -1       639 2.01520E+01 2.08677E-01 9.46760E-05 4.73158E-01 4.56914E-15-2.70117E-14
 -1       640 2.01960E+01 2.16805E-01 9.69378E-05 5.74339E-01 8.71444E-14 6.27795E-14
 -1       641 2.02555E+01 2.01566E-01 8.60201E-05 6.78519E-01 6.23482E-14-1.27231E-13
 -1       642 2.03387E+01 1.48114E-01 5.28556E-05 7.75732E-01 1.30058E-13-1.51607E-13
 -1       643 2.04587E+01 3.69332E-02-1.59302E-05 8.50266E-01-1.79709E-13-3.48032E-14
 -1       644 2.06347E+01-1.55039E-01-1.40066E-04 8.78629E-01-1.45422E-13 1.04217E-13
 -1       645 2.08929E+01-4.49974E-01-3.65879E-04 8.27120E-01-1.62091E-13 5.07575E-14
 -1       646 2.12636E+01-8.58167E-01-7.21727E-04 6.49434E-01-1.20992E-13 8.41015E-14
 -1       647 2.17708E+01-1.35624E+00-1.16634E-03 2.86450E-01-1.89065E-13-3.45312E-14
 -1       648 2.24076E+01-1.85058E+00-1.01776E-03-3.25436E-01-2.64914E-13 2.30394E-14
 -1       649 2.30946E+01-2.13404E+00 3.96423E-04-1.21923E+00-2.63027E-13-6.01437E-14
 -1       650 2.36390E+01-1.87839E+00-1.70749E-05-2.31674E+00-5.44074E-14-1.63440E-13
 -1       651 2.37738E+01-7.79173E-01-8.29486E-03-3.30517E+00-1.02230E-13 1.93730E-14
 -1       652 2.33498E+01 1.16021E+00-5.03509E-03-3.64767E+00-2.45911E-13 1.86549E-13
 -1       653 2.24384E+01 3.26645E+00-2.91077E-02-2.81309E+00-2.20936E-13 6.95654E-14
 -1       654 2.17659E+01 4.31086E+00-2.38027E-02-9.92988E-01-1.68518E-13-2.57946E-13
 -1       655 2.18617E+01 4.04703E+00-1.34436E-02 4.66007E-01-4.19081E-13-3.29132E-13
 -1       656 2.00274E+01 1.89381E-01 1.73945E-04-2.21603E-02 1.60121E-13 8.10256E-14
 -1       657 1.99258E+01-1.35072E-02-2.89683E-05-1.88504E-01 1.04643E-13 8.82339E-14
 -1       658 1.99210E+01-3.50504E-02-4.51719E-05-1.86646E-01 1.07398E-13 8.18248E-14
 -1       659 1.99232E+01-4.55603E-02-5.22952E-05-1.73103E-01 1.30708E-13 7.58010E-14
 -1       660 1.99294E+01-4.88243E-02-5.33697E-05-1.53529E-01 1.25407E-13 9.85530E-14
 -1       661 1.99378E+01-4.74380E-02-5.05480E-05-1.31737E-01 5.78017E-14 1.11646E-13
 -1       662 1.99470E+01-4.31627E-02-4.53149E-05-1.10238E-01 3.25042E-14 1.45013E-13
 -1       663 1.99563E+01-3.71489E-02-3.86784E-05-9.06510E-02 3.32550E-14 1.54667E-13
 -1       664 1.99652E+01-3.00910E-02-3.12861E-05-7.40121E-02 9.31559E-14 1.20348E-13
 -1       665 1.99738E+01-2.23376E-02-2.34113E-05-6.10091E-02 1.07276E-14 1.82393E-13
 -1       666 1.99822E+01-1.39706E-02-1.51161E-05-5.21603E-02-6.35502E-14 3.23300E-13
 -1       667 1.99907E+01-4.86296E-03-6.23203E-06-4.79525E-02-3.47884E-16 2.18293E-13
 -1       668 1.99998E+01 5.28118E-03 3.59039E-06-4.89486E-02 4.87497E-14 1.51053E-13
 -1       669 2.00099E+01 1.69003E-02 1.48312E-05-5.58723E-02 1.07802E-13 3.97157E-14
 -1       670 2.00218E+01 3.05555E-02 2.80815E-05-6.96769E-02 2.29995E-14 2.15859E-14
 -1       671 2.00362E+01 4.69143E-02 4.40802E-05-9.15974E-02 5.97960E-14 5.88095E-14
 -1       672 2.00538E+01 6.67335E-02 6.36746E-05-1.23188E-01 8.76457E-14 2.29869E-13
 -1       673 2.00755E+01 9.08319E-02 8.78128E-05-1.66336E-01 4.75076E-14 2.71538E-13
 -1       674 2.01020E+01 1.20039E-01 1.17496E-04-2.23256E-01-8.12632E-14 1.80767E-13
 -1       675 2.01339E+01 1.55096E-01 1.53669E-04-2.96429E-01-3.22159E-14 1.17044E-13
 -1       676 2.01716E+01 1.96462E-01 1.96977E-04-3.88478E-01-1.89969E-13 1.61317E-13
 -1       677 2.02149E+01 2.43950E-01 2.47272E-04-5.01935E-01-1.71713E-14-1.06629E-13
 -1       678 2.02635E+01 2.96060E-01 3.02644E-04-6.38830E-01 4.66947E-14-6.13416E-14
 -1       679 2.03165E+01 3.48785E-01 3.57594E-04-8.00031E-01-8.37072E-15 1.00856E-13
 -1       680 2.03737E+01 3.93570E-01 3.99696E-04-9.84192E-01-6.76906E-14 2.24002E-13
 -1       681 2.04374E+01 4.14012E-01 4.03790E-04-1.18617E+00-4.86555E-14 1.05420E-13
 -1       682 2.05161E+01 3.80931E-01 3.22751E-04-1.39463E+00 2.68470E-14 3.96126E-14
 -1       683 2.06328E+01 2.45991E-01 8.99308E-05-1.58852E+00-3.72496E-14 1.83397E-14
 -1       684 2.08376E+01-6.40977E-02-3.51754E-04-1.73099E+00 1.11859E-13-1.02934E-13
 -1       685 2.12247E+01-6.44658E-01-6.90251E-04-1.75797E+00 3.51834E-13 1.20709E-13
 -1       686 2.19460E+01-1.58253E+00 6.10903E-05-1.55806E+00 2.48828E-13 3.23962E-13
 -1       687 2.31986E+01-2.85286E+00 4.14214E-03-9.25397E-01 3.04813E-15 3.63592E-13
 -1       688 2.50590E+01-4.04607E+00 5.58383E-03 4.01919E-01-3.60338E-13 3.58716E-13
 -1       689 2.73919E+01-4.32369E+00-1.62094E-02 2.58184E+00-1.08539E-13 8.16777E-14
 -1       690 2.77096E+01 5.34221E+00-1.59359E-01-5.99301E-01 2.61353E-13 4.18155E-13
 -1       691 2.56724E+01 3.38102E+00-8.40341E-02 1.19469E+00-1.50994E-13-2.27013E-13
 -1       692 2.78033E+01 6.52371E+00-1.95864E-01 9.50699E-01 2.44693E-13 5.71741E-13
 -1       693 2.01058E+01 3.53216E-01 6.09919E-04 1.47891E-01 1.86250E-13 7.63055E-14
 -1       694 2.92122E+01 4.66910E+00-1.57988E-01-4.29187E+00-6.16590E-13 2.48669E-13
 -1       695 2.02810E+01 1.67920E+00 7.60825E-05-1.13963E+00-2.54808E-13-2.49365E-13
 -1       696 1.06705E+01-3.22239E+00 1.69662E-01 5.50469E+00 7.51458E-13-1.36058E-13
 -1       697 7.96245E+00-1.85073E+00 1.72527E-01-2.42732E+00 7.51690E-14-6.74433E-13
 -1       698 1.29533E+01-3.72578E+00 1.49542E-01-5.14523E+00-4.50934E-13-6.53456E-13
 -1       699 1.99416E+01 2.46478E-02 7.97509E-07-1.70429E-01 1.32731E-13 6.44476E-14
 -1       700 1.99736E+01 8.78497E-02 5.67489E-05-1.20571E-01 1.24685E-13 4.81808E-14
 -1       701 2.02911E+01 1.07668E+00-1.43306E-04-7.22162E-01-2.16858E-13-2.03875E-13
 -1       702 2.02064E+01 6.14044E-01 9.76473E-04 4.19278E-01 2.39060E-13 5.71045E-14
 -1       703 2.06964E+01-6.69856E+00 6.71554E-02-4.86725E+00-2.62339E-13-1.94428E-14
 -1       704 2.00229E+01 2.29529E+00-1.65510E-03 6.37266E-01 2.76871E-13-2.50945E-13
 -1       705 2.98428E+01-3.18099E-01-1.30711E-01 5.28481E+00 3.24081E-13 4.87298E-13
 -1       706 7.33686E+00-1.65158E+00 1.75801E-01 2.37699E+00 5.44056E-13-4.88075E-13
 -1       707 2.93663E+01-3.88402E+00-6.46333E-02-1.45490E+00-9.38980E-14 5.14748E-13
 -1       708 2.00171E+01 2.30593E+00-1.57164E-03-6.28906E-01-9.09237E-14-3.72776E-13
 -1       709 2.99121E+01-4.49131E+00-2.74382E-02 2.69327E+00-1.07004E-13 9.46500E-14
 -1       710 2.67704E+01-6.93232E+00 8.30805E-03-1.46582E+00-1.26382E-13 3.33438E-13
 -1       711 3.02552E+01 8.28191E-01-1.10418E-01-3.94693E+00-3.09933E-13 4.06009E-13
 -1       712 2.73700E+01 8.00703E+00-1.60682E-01-1.87994E+00-5.97092E-13 2.04992E-14
 -1       713 2.85913E+01 7.02600E+00-1.77685E-01 1.80064E-01-6.11629E-13 1.07013E-13
 -1       714 1.99256E+01 2.52651E+00-1.50994E-03-1.26341E-01 6.02809E-14-3.86159E-13
 -1       715 1.78625E+01-4.53776E+00 7.54189E-02-4.77154E+00-2.75235E-13-1.71080E-13
 -1       716 2.01183E+01 2.06364E+00-1.17443E-03-8.53400E-01-1.60719E-13-3.54330E-13
 -1       717 2.58114E+01 5.66407E+00-1.75334E-01 1.78822E+00 1.99410E-13 4.12851E-13
 -1       718 2.85322E+01-1.59558E+00-8.92891E-02 4.85397E+00 1.31745E-13 7.82140E-13
 -1       719 2.71209E+01 1.37264E+00-8.89991E-02-1.54367E+00 1.31804E-14 3.26305E-13
 -1       720 1.49211E+01-4.22558E+00 1.14533E-01 6.09265E+00 6.06567E-13 2.13326E-13
 -1       721 2.61477E+01 5.99159E+00-9.98266E-02-3.29286E+00-5.91621E-13 1.76845E-13
 -1       722 2.76375E+01-5.32619E+00 1.13550E-04 3.15983E-01 3.28218E-14 6.95086E-13
 -1       723 2.26800E+01-6.50896E+00 5.25755E-02 4.84086E+00-6.97359E-16 9.58932E-13
 -1       724 1.99555E+01 2.45561E+00-1.55844E-03-3.83983E-01-1.38078E-14-3.54752E-13
 -1       725 2.02712E+01 1.30161E+00 8.41155E-04 6.29832E-01 2.62976E-13-6.51169E-14
 -1       726 2.02884E+01 7.31547E-01-1.33870E-05-2.90571E-01-1.30786E-13-2.07581E-13
 -1       727 2.00251E+01-6.36359E-02-1.47547E-05-1.60860E-01 1.26201E-13 3.22507E-14
 -1       728 2.02611E+01 4.32951E-01-4.44621E-05-9.28334E-02-1.17269E-13-1.62664E-13
 -1       729 2.02210E+01 2.34080E-01-1.48745E-05 3.67004E-02-1.23041E-13-1.35852E-13
 -1       730 2.01794E+01 1.03423E-01-1.20142E-05 1.13695E-01-1.38972E-13-1.28005E-13
 -1       731 2.01416E+01 2.00752E-02-1.11413E-05 1.53038E-01-1.19816E-13-1.45224E-13
 -1       732 2.01095E+01-3.05399E-02-9.73349E-06 1.66717E-01-6.82373E-14-1.41725E-13
 -1       733 2.00832E+01-5.86439E-02-8.95636E-06 1.63955E-01-8.82409E-14-6.61802E-14
 -1       734 2.00624E+01-7.14865E-02-8.42201E-06 1.51515E-01-1.36533E-13-2.52735E-14
 -1       735 2.00462E+01-7.42023E-02-7.83119E-06 1.34185E-01-7.67124E-14 9.68358E-14
 -1       736 2.00340E+01-7.03692E-02-7.04417E-06 1.15261E-01-6.96179E-14 3.93619E-15
 -1       737 2.00250E+01-6.24017E-02-5.89633E-06 9.69604E-02-5.91739E-14-2.90952E-14
 -1       738 2.00185E+01-5.18433E-02-4.65951E-06 8.07594E-02-6.91488E-14-7.16112E-15
 -1       739 2.00141E+01-3.95761E-02-3.48211E-06 6.76516E-02-1.54142E-13-2.32020E-14
 -1       740 2.00113E+01-2.59799E-02-2.40997E-06 5.83553E-02-1.60512E-13 9.10434E-15
 -1       741 2.00095E+01-1.10581E-02-1.36457E-06 5.34673E-02-1.00894E-13 2.87924E-14
 -1       742 2.00084E+01 5.46875E-03-2.45272E-07 5.35790E-02-2.25875E-14 1.23370E-13
 -1       743 2.00076E+01 2.40802E-02 1.05523E-06 5.93659E-02 6.97680E-15 1.32403E-13
 -1       744 2.00067E+01 4.53711E-02 2.54611E-06 7.16453E-02 1.57049E-14 4.72393E-14
 -1       745 2.00053E+01 6.99590E-02 4.29044E-06 9.14054E-02 1.82280E-13 1.63377E-14
 -1       746 2.00029E+01 9.83653E-02 6.36872E-06 1.19806E-01 8.11916E-14 8.44482E-15
 -1       747 1.99991E+01 1.30851E-01 8.85793E-06 1.58145E-01-7.15351E-14 1.02638E-13
 -1       748 1.99934E+01 1.67182E-01 1.18201E-05 2.07775E-01-8.06412E-14 1.42018E-13
 -1       749 1.99856E+01 2.06300E-01 1.52868E-05 2.69972E-01-1.33013E-13 4.46230E-14
 -1       750 1.99759E+01 2.45861E-01 1.92359E-05 3.45727E-01-7.80565E-14 1.55007E-14
 -1       751 1.99651E+01 2.81612E-01 2.35582E-05 4.35453E-01-6.62044E-14-1.18933E-13
 -1       752 1.99556E+01 3.06576E-01 2.80171E-05 5.38601E-01-3.51003E-14-2.16499E-14
 -1       753 1.99520E+01 3.10056E-01 3.21854E-05 6.53143E-01-9.48901E-14-2.04434E-13
 -1       754 1.99630E+01 2.76518E-01 3.52355E-05 7.74900E-01 2.87090E-14-2.13674E-13
 -1       755 2.00030E+01 1.84587E-01 3.50149E-05 8.96578E-01-7.50743E-14-3.06409E-13
 -1       756 2.00955E+01 6.72622E-03 2.47800E-05 1.00623E+00 1.58639E-14-1.23666E-13
 -1       757 2.02760E+01-2.89189E-01-1.38333E-05 1.08456E+00-1.00208E-13 6.20788E-15
 -1       758 2.05944E+01-7.33990E-01-2.00740E-04 1.09996E+00-1.00851E-13 3.05916E-13
 -1       759 2.11135E+01-1.34188E+00-5.62508E-04 1.00002E+00-2.39245E-13 2.40247E-13
 -1       760 2.18957E+01-2.07833E+00-1.05150E-03 7.00523E-01-1.73266E-13 6.96531E-14
 -1       761 2.29668E+01-2.79642E+00 1.04043E-03 7.75905E-02-1.86753E-13 1.99052E-13
 -1       762 2.42105E+01-3.15059E+00 2.49835E-03-9.81750E-01-2.52862E-13 2.94059E-13
 -1       763 2.53031E+01-2.56008E+00-7.48718E-03-2.42026E+00 1.36154E-14 3.82082E-14
 -1       764 2.57619E+01-4.18311E-01-2.15474E-02-3.75943E+00-5.87672E-14 1.37618E-13
 -1       765 2.00399E+01-5.11993E-02-1.42552E-05-1.73841E-01 1.17963E-13 1.81681E-14
 -1       766 2.00606E+01-2.46647E-02-1.24684E-05-1.76339E-01 1.24802E-13 6.16003E-14
 -1       767 2.00148E+01-6.67310E-02-1.42933E-05-1.42530E-01 5.89071E-14 1.01027E-13
 -1       768 2.00081E+01-6.37993E-02-1.31205E-05-1.22373E-01 4.74675E-14 6.53424E-14
 -1       769 2.00040E+01-5.70876E-02-1.13476E-05-1.02742E-01-9.18534E-15 1.02530E-13
 -1       770 2.00019E+01-4.80383E-02-9.48407E-06-8.51864E-02 3.41131E-14 7.54743E-14
 -1       771 2.00013E+01-3.74886E-02-7.40640E-06-7.07362E-02 1.06099E-14 2.26126E-13
 -1       772 2.00019E+01-2.58102E-02-5.26173E-06-6.01203E-02-9.01314E-15 1.63866E-13
 -1       773 2.00033E+01-1.30143E-02-3.05292E-06-5.39360E-02 1.50767E-16 1.17344E-13
 -1       774 2.00055E+01 1.16928E-03-6.63679E-07-5.27775E-02 4.90511E-14 5.81166E-14
 -1       775 2.00082E+01 1.72414E-02 2.05693E-06-5.73335E-02 7.43031E-14 1.61679E-13
 -1       776 2.00113E+01 3.58940E-02 5.18285E-06-6.84663E-02 7.35409E-14 2.29469E-13
 -1       777 2.00146E+01 5.79756E-02 8.92648E-06-8.72665E-02-2.39617E-14 1.59483E-13
 -1       778 2.00179E+01 8.44593E-02 1.34956E-05-1.15087E-01-8.30939E-15 1.72359E-13
 -1       779 2.00206E+01 1.16403E-01 1.91391E-05-1.53554E-01 7.28942E-14 1.18257E-13
 -1       780 2.00220E+01 1.54886E-01 2.61478E-05-2.04551E-01 6.64331E-14 1.77412E-13
 -1       781 2.00209E+01 2.00898E-01 3.48606E-05-2.70162E-01-8.12355E-14 3.41558E-14
 -1       782 2.00157E+01 2.55148E-01 4.56740E-05-3.52568E-01-1.50003E-13-8.48147E-14
 -1       783 2.00039E+01 3.17722E-01 5.90554E-05-4.53883E-01-5.06000E-14-9.43800E-14
 -1       784 1.99825E+01 3.87483E-01 7.55486E-05-5.75925E-01 6.14351E-14 6.48727E-14
 -1       785 1.99474E+01 4.61048E-01 9.57206E-05-7.19930E-01-1.05265E-13-1.36419E-14
 -1       786 1.98948E+01 5.31068E-01 1.19812E-04-8.86265E-01-5.36902E-14-1.08118E-13
 -1       787 1.98222E+01 5.83455E-01 1.46192E-04-1.07424E+00-1.16215E-14-3.12644E-14
 -1       788 1.97314E+01 5.93108E-01 1.66362E-04-1.28220E+00-9.27778E-14-6.11069E-14
 -1       789 1.96357E+01 5.17839E-01 1.53830E-04-1.50803E+00 8.24893E-14-1.04692E-13
 -1       790 1.95706E+01 2.90585E-01 1.00544E-04-1.75004E+00-1.42600E-14-1.77060E-13
 -1       791 1.96146E+01-1.89164E-01 1.18497E-04-2.00518E+00 3.56098E-14 8.41434E-14
 -1       792 1.99216E+01-1.05377E+00 2.20514E-03-2.25487E+00 7.65039E-14 2.73554E-13
 -1       793 2.07395E+01-2.42549E+00 1.12795E-02-2.43633E+00 5.61183E-16 3.33669E-13
 -1       794 2.25139E+01-4.36467E+00-1.18523E-03-2.30661E+00-7.53217E-14 3.05415E-13
 -1       795 1.19601E+01-1.63093E+00 1.03757E-01-3.35674E+00-1.42325E-13-5.01519E-13
 -1       796 2.02200E+01 4.13711E-01-1.50564E-04 1.10167E-01 1.62546E-13 2.05800E-14
 -1       797 2.01701E+01 2.23963E-01 7.35205E-06-3.32555E-02 1.53392E-13 1.91215E-14
 -1       798 2.46192E+01 6.20477E+00-1.08350E-01-4.28436E-02-4.75845E-13-1.53417E-13
 -1       799 2.01251E+01 1.00896E-01-6.16079E-06-1.17858E-01 9.50447E-14-3.41769E-15
 -1       800 2.00886E+01 2.27738E-02-9.14173E-06-1.61050E-01 9.92530E-14 2.68092E-14
 -1       801 1.12023E+01-1.37596E+00 1.06631E-01 3.62335E+00 5.32312E-13-1.65316E-13
 -1       802 9.42537E+00-5.73170E-01 1.08910E-01 3.08967E-02 2.42710E-13-3.80466E-13
 -1       803 2.75819E+01-1.51966E+00-6.37512E-02-3.38578E+00 9.90579E-14 7.50536E-13
 -1       804 2.02763E+01 9.43887E-01 1.36504E-05 5.51902E-01 2.48233E-13 2.28528E-14
 -1       805 2.72803E+01 2.52843E+00-9.69174E-02-4.39091E+00-1.83412E-13 6.02702E-13
 -1       806 2.38612E+01-5.90488E+00 3.35791E-02-2.46001E+00-1.77346E-13 2.14993E-13
 -1       807 2.01370E+01 1.88925E+00-3.33767E-04 1.98904E-01 1.35056E-13-3.16956E-13
 -1       808 1.55379E+01-2.42291E+00 5.82395E-02-3.93148E+00-2.02928E-13-5.48811E-13
 -1       809 2.02179E+01 1.58272E+00-2.77308E-04 5.33455E-01 2.32449E-13-1.76009E-13
 -1       810 2.02539E+01 6.30923E-01-4.08014E-04 2.96331E-01 2.05469E-13 2.61604E-14
 -1       811 1.93141E+01-5.04035E+00 6.21960E-02 5.30080E+00 2.44587E-13 5.19661E-13
 -1       812 2.51505E+01-5.83680E+00-8.96915E-03 2.19571E+00-8.06733E-14 1.15467E-12
 -1       813 1.39018E+01-2.25519E+00 6.92600E-02 4.61472E+00 4.73534E-13-6.60930E-14
 -1       814 2.02874E+01 1.12495E+00 2.46164E-04-5.34832E-01-1.63119E-13-2.52089E-13
 -1       815 2.01252E+01 1.92740E+00-3.47067E-04 3.21773E-03 8.77137E-14-3.49633E-13
 -1       816 2.01697E+01 1.77584E+00-3.55086E-04 3.81161E-01 1.83991E-13-2.14428E-13
 -1       817 2.02134E+01 1.59220E+00-9.53939E-04-5.26321E-01-1.08481E-13-3.11214E-13
 -1       818 2.01659E+01 1.78274E+00-4.92960E-04-3.73284E-01-6.11696E-14-3.13815E-13
 -1       819 2.01909E+01 1.12080E-02-2.46573E-06-1.42640E-01 9.32394E-14-1.04172E-13
 -1       820 2.03286E+01 4.31565E-01 3.72225E-05-4.57356E-02-7.85959E-14-1.77521E-13
 -1       821 2.03027E+01 2.27112E-01-3.67268E-05 4.79886E-02-1.04230E-13-1.41286E-13
 -1       822 2.02663E+01 9.14521E-02-1.12593E-05 1.03607E-01-1.40007E-13-8.59594E-14
 -1       823 2.02269E+01 4.58273E-03-6.63274E-06 1.31068E-01-1.27833E-13-9.21891E-14
 -1       824 2.01886E+01-4.76379E-02-3.21346E-06 1.39253E-01-6.21984E-14-1.53430E-13
 -1       825 2.01538E+01-7.57000E-02-1.75543E-06 1.35113E-01-7.73637E-14-1.51123E-13
 -1       826 2.01235E+01-8.72853E-02-1.79606E-06 1.23846E-01-3.56439E-14-5.24055E-14
 -1       827 2.00978E+01-8.79188E-02-2.24275E-06 1.09157E-01-1.28554E-13-7.79613E-14
 -1       828 2.00766E+01-8.14421E-02-1.72276E-06 9.36221E-02-7.21993E-14-4.20386E-14
 -1       829 2.00595E+01-7.04250E-02-1.04627E-06 7.90024E-02-2.40927E-14-4.75723E-14
 -1       830 2.00458E+01-5.64705E-02-4.55800E-07 6.64889E-02-8.02782E-14-7.53212E-14
 -1       831 2.00348E+01-4.04259E-02-2.25935E-07 5.69120E-02-1.54683E-13 1.06657E-14
 -1       832 2.00258E+01-2.25773E-02-3.54026E-07 5.09172E-02-1.10980E-13 1.55724E-13
 -1       833 2.00180E+01-2.78815E-03-5.60950E-07 4.90730E-02-1.23492E-14 2.20640E-13
 -1       834 2.00104E+01 1.94000E-02-5.17431E-07 5.19786E-02-3.51176E-14 1.66842E-13
 -1       835 2.00021E+01 4.46520E-02-4.85275E-07 6.03352E-02 7.71551E-14 1.02446E-13
 -1       836 1.99921E+01 7.37311E-02-5.17907E-07 7.49889E-02 2.66415E-14 1.79559E-13
 -1       837 1.99792E+01 1.07376E-01-5.88529E-07 9.69564E-02 9.69209E-14 1.03754E-14
 -1       838 1.99622E+01 1.46135E-01-6.68063E-07 1.27430E-01 7.92857E-14-9.50360E-14
 -1       839 1.99397E+01 1.90141E-01-7.24897E-07 1.67759E-01-4.27919E-14-2.13499E-14
 -1       840 1.99105E+01 2.38795E-01-7.14874E-07 2.19400E-01-1.51762E-13-3.60439E-14
 -1       841 1.98734E+01 2.90335E-01-5.69539E-07 2.83847E-01-8.95722E-14-6.49053E-15
 -1       842 1.98281E+01 3.41249E-01-1.74979E-07 3.62534E-01-8.92054E-14-3.41472E-14
 -1       843 1.97750E+01 3.85514E-01 6.79854E-07 4.56715E-01-1.79175E-14 5.01913E-16
 -1       844 1.97167E+01 4.13633E-01 2.42406E-06 5.67353E-01-1.24130E-13 4.49430E-14
 -1       845 1.96592E+01 4.11484E-01 5.91018E-06 6.94997E-01-1.03636E-13 3.40019E-14
 -1       846 1.96136E+01 3.59043E-01 1.24902E-05 8.39622E-01-2.13443E-13-2.74145E-13
 -1       847 1.95993E+01 2.29165E-01 2.29493E-05 1.00022E+00 1.78315E-13-3.08405E-13
 -1       848 1.96481E+01-1.31241E-02 3.46231E-05 1.17358E+00 1.05301E-13-8.40381E-14
 -1       849 1.98098E+01-4.09701E-01 4.00628E-05 1.35098E+00 1.23370E-13 2.25454E-13
 -1       850 2.01595E+01-1.00464E+00-3.29596E-04 1.50993E+00-3.13206E-13 2.71300E-13
 -1       851 2.08036E+01-1.82722E+00-6.16614E-04 1.59633E+00-2.94471E-13 3.17039E-13
 -1       852 2.18675E+01-2.84929E+00-9.83580E-04 1.48879E+00-4.54244E-14 3.17510E-13
 -1       853 2.34608E+01-3.92340E+00 3.66121E-03 9.71532E-01-3.26523E-14 6.00251E-13
 -1       854 2.00980E+01-8.04944E-02-1.82833E-06-1.37062E-01 4.52291E-14 9.79760E-14
 -1       855 2.01554E+01-4.02340E-02-2.29146E-06-1.52915E-01 1.21329E-13-7.98744E-14
 -1       856 2.00591E+01-7.68058E-02-9.14273E-07-1.03798E-01-7.05422E-14 1.75153E-13
 -1       857 2.00454E+01-6.71928E-02-8.08449E-07-8.74332E-02-2.54246E-14 1.79210E-13
 -1       858 2.00349E+01-5.48045E-02-8.25788E-07-7.32239E-02-4.20289E-14 2.07808E-13
 -1       859 2.00269E+01-4.05014E-02-6.56902E-07-6.20793E-02 2.11150E-14 1.76967E-13
 -1       860 2.00208E+01-2.45813E-02-5.21800E-07-5.46809E-02 5.67554E-14 1.86685E-13
 -1       861 2.00158E+01-6.91984E-03-3.19766E-07-5.16354E-02 7.32021E-14 1.38400E-13
 -1       862 2.00114E+01 1.29406E-02 8.49259E-08-5.35618E-02 2.38103E-14 1.77623E-13
 -1       863 2.00068E+01 3.57375E-02 4.04832E-07-6.11828E-02 1.17241E-13 2.18624E-13
 -1       864 2.00011E+01 6.24218E-02 8.30815E-07-7.53803E-02 2.36796E-14 2.15883E-13
 -1       865 1.99931E+01 9.41086E-02 1.38918E-06-9.72239E-02 9.13954E-15 1.93973E-13
 -1       866 1.99816E+01 1.32022E-01 2.12757E-06-1.27978E-01 3.13272E-14 6.95552E-14
 -1       867 1.99648E+01 1.77417E-01 3.11418E-06-1.69077E-01 4.85266E-14 5.01381E-14
 -1       868 1.99403E+01 2.31469E-01 4.44801E-06-2.22072E-01-6.00810E-14 1.40089E-13
 -1       869 1.99053E+01 2.95082E-01 6.28333E-06-2.88529E-01-3.87536E-14-3.84220E-14
 -1       870 1.98557E+01 3.68600E-01 8.87227E-06-3.69895E-01-6.69052E-14 3.03683E-14
 -1       871 1.97868E+01 4.51324E-01 1.26324E-05-4.67352E-01 1.11735E-14-1.53609E-13
 -1       872 1.96925E+01 5.40739E-01 1.82385E-05-5.81693E-01-9.06025E-14 9.68963E-14
 -1       873 1.95659E+01 6.31303E-01 2.66698E-05-7.13367E-01-8.53039E-14-5.24086E-14
 -1       874 1.93994E+01 7.12543E-01 3.87335E-05-8.62917E-01-1.75462E-13-6.37784E-14
 -1       875 1.91866E+01 7.66182E-01 5.17845E-05-1.03220E+00-5.31711E-15 4.88094E-14
 -1       876 1.89249E+01 7.61915E-01 4.50668E-05-1.22695E+00-3.58865E-15-9.33036E-14
 -1       877 1.86213E+01 6.51552E-01-1.72528E-05-1.46131E+00 9.35429E-15-5.88093E-14
 -1       878 1.83003E+01 3.62311E-01-1.58849E-04-1.76575E+00-2.03077E-13 6.55234E-14
 -1       879 1.80330E+01-2.23068E-01 1.14401E-04-2.19226E+00-1.05801E-13 6.74438E-14
 -1       880 1.79613E+01-1.27393E+00 6.28695E-03-2.80928E+00 2.44336E-15-1.31438E-13
 -1       881 2.02995E+01 4.29508E-01-5.73397E-05 6.28670E-02 1.60615E-13-6.01726E-14
 -1       882 2.70767E+01-3.18619E+00-1.81642E-02-2.20817E+00 2.07315E-13 7.28922E-13
 -1       883 2.01347E+01 1.89215E+00-5.96083E-04-1.91840E-01 1.60993E-14-2.88236E-13
 -1       884 2.02677E+01 2.29431E-01-6.12456E-06-4.58783E-02 1.42850E-13-3.26016E-14
 -1       885 2.60950E+01-4.30726E+00-1.15617E-02-6.21272E-01-1.06229E-13 7.29248E-13
 -1       886 2.00764E+01-8.20721E-02-1.60032E-06-1.20994E-01 6.16683E-14 1.35751E-13
 -1       887 2.02294E+01 9.63533E-02-4.92108E-06-1.10377E-01 6.65556E-14-6.11185E-14
 -1       888 2.01243E+01-6.83213E-02-1.89377E-06-1.49106E-01 7.25347E-14-1.19477E-14
 -1       889 1.21740E+01-1.24212E-01 5.01585E-02 1.51378E+00 3.08947E-13 6.15341E-14
 -1       890 2.03318E+01 7.28526E-01 9.00631E-05-1.87490E-01-8.74407E-14-2.40596E-13
 -1       891 1.22051E+01-1.74723E-01 5.32579E-02-1.20822E+00 1.93622E-13-2.09907E-13
 -1       892 1.87549E+01-2.68551E+00 2.46036E-02-3.38638E+00-7.34929E-14-1.68950E-13
 -1       893 1.42192E+01-6.32894E-01 3.45992E-02-2.43840E+00 6.68810E-14-3.57730E-13
 -1       894 2.03010E+01 1.00473E+00-5.16703E-04 3.65501E-01 1.86553E-13-9.24436E-14
 -1       895 2.03124E+01 7.28582E-01 3.85864E-04 2.29824E-01 1.66820E-13-6.54102E-14
 -1       896 2.25853E+01-5.29852E+00-1.34143E-02 3.43387E+00-1.31711E-13 1.07890E-12
 -1       897 1.72043E+01-3.23824E+00 3.64977E-02 4.73046E+00 3.51436E-13 2.53694E-13
 -1       898 2.03035E+01 1.10124E+00 2.25355E-04-3.35415E-01-9.89788E-14-2.68309E-13
 -1       899 2.02921E+01 1.26565E+00 1.84664E-04-2.46942E-01-5.69020E-14-2.59924E-13
 -1       900 2.02733E+01 1.40638E+00-2.86715E-05 6.94708E-02 9.71166E-14-3.19324E-13
 -1       901 1.34383E+01-6.08557E-01 3.83983E-02 2.72635E+00 2.71906E-13-1.58512E-13
 -1       902 2.02823E+01 1.33883E+00-2.06153E-04 1.95895E-01 1.68009E-13-2.01777E-13
 -1       903 2.02960E+01 1.20516E+00-2.21243E-04 3.00695E-01 1.87564E-13-1.89287E-13
 -1       904 2.03571E+01 1.96563E-01-3.62183E-05 5.10317E-02-8.18002E-14-8.32369E-14
 -1       905 2.03217E+01 6.54569E-02-5.27870E-06 8.56963E-02-1.12918E-13-8.30393E-14
 -1       906 2.02800E+01-1.77287E-02-1.18018E-06 1.01639E-01-1.01003E-13-5.42266E-14
 -1       907 2.02372E+01-6.65928E-02 1.50066E-06 1.04823E-01-4.63095E-14-3.49742E-14
 -1       908 2.01968E+01-9.13451E-02 2.62434E-06 9.99918E-02-5.17069E-15-1.32936E-15
 -1       909 2.01604E+01-9.97220E-02-2.32811E-07 9.06730E-02-6.60851E-14 7.04289E-14
 -1       910 2.01288E+01-9.72000E-02 4.88540E-07 7.93952E-02-1.13113E-13 9.32615E-14
 -1       911 2.01020E+01-8.75731E-02 1.15736E-06 6.79495E-02-4.90606E-14 9.26150E-14
 -1       912 2.00797E+01-7.33541E-02 1.66830E-06 5.75675E-02-3.97868E-15 3.75675E-14
 -1       913 2.00611E+01-5.60439E-02 1.44743E-06 4.90800E-02-7.48290E-14 8.21406E-14
 -1       914 2.00454E+01-3.63084E-02 1.10532E-06 4.31136E-02-4.70809E-14 1.18012E-13
 -1       915 2.00315E+01-1.43010E-02-5.89858E-07 4.01774E-02 5.34253E-14 2.58363E-13
 -1       916 2.00182E+01 1.03278E-02-1.11112E-06 4.07506E-02 5.95550E-15 3.74640E-13
 -1       917 2.00043E+01 3.82350E-02-1.88366E-06 4.53855E-02-4.08399E-14 4.06114E-13
 -1       918 1.99882E+01 7.02644E-02-3.05336E-06 5.47367E-02 5.26315E-14 2.87385E-13
 -1       919 1.99684E+01 1.07330E-01-4.61357E-06 6.96025E-02 4.00384E-15 2.44668E-13
 -1       920 1.99428E+01 1.50259E-01-6.59646E-06 9.09592E-02-1.56400E-14 1.99684E-13
 -1       921 1.99096E+01 1.99583E-01-9.07025E-06 1.19983E-01-2.13093E-14 1.32784E-13
 -1       922 1.98665E+01 2.55261E-01-1.21245E-05 1.58064E-01-3.95284E-14 8.35825E-14
 -1       923 1.98114E+01 3.16300E-01-1.58676E-05 2.06829E-01-1.49916E-13 1.14303E-13
 -1       924 1.97424E+01 3.80250E-01-2.04360E-05 2.68169E-01-9.10704E-14 9.99047E-14
 -1       925 1.96580E+01 4.42545E-01-2.60041E-05 3.44309E-01 5.85020E-14 1.52586E-13
 -1       926 1.95581E+01 4.95689E-01-3.27736E-05 4.37940E-01 2.72817E-14 2.16322E-13
 -1       927 1.94446E+01 5.28247E-01-4.09136E-05 5.52465E-01-1.48133E-13 4.22502E-13
 -1       928 1.93230E+01 5.23685E-01-5.05276E-05 6.92410E-01-2.87177E-13 3.29548E-13
 -1       929 1.92040E+01 4.59029E-01-6.20021E-05 8.63993E-01-1.43840E-13 2.79806E-13
 -1       930 1.91070E+01 3.03348E-01-7.59976E-05 1.07568E+00 2.86376E-13 9.99831E-14
 -1       931 1.90655E+01 1.61151E-02-7.60649E-05 1.33804E+00 3.56542E-13 2.61280E-13
 -1       932 1.91358E+01-4.54159E-01 1.32547E-04 1.66138E+00 1.28223E-14 3.06730E-13
 -1       933 1.94107E+01-1.17077E+00-7.96504E-04 2.04393E+00-1.69683E-13 5.14340E-13
 -1       934 2.00442E+01-2.20359E+00-1.20783E-03 2.46472E+00-7.20980E-14 5.88367E-13
 -1       935 2.12369E+01-3.55871E+00 2.06683E-02 2.79651E+00 2.77399E-13 7.90580E-13
 -1       936 2.03546E+01 6.95430E-01-1.63149E-04 1.36007E-01 1.55714E-13-2.07970E-13
 -1       937 2.02580E+01-8.38527E-03 9.61738E-06-1.16376E-01 9.40812E-14-7.11347E-14
 -1       938 2.00719E+01-7.24368E-02 5.18048E-06-6.74673E-02-4.09860E-14 1.08986E-13
 -1       939 2.00920E+01-8.52319E-02 6.29193E-06-7.97717E-02-4.61749E-14 1.71297E-13
 -1       940 2.00419E+01-3.85373E-02 8.77550E-07-4.97581E-02 3.84507E-14 8.95278E-15
 -1       941 2.00303E+01-1.83048E-02 8.53974E-07-4.56286E-02 7.05505E-14-1.47388E-14
 -1       942 2.00196E+01 4.34960E-03 8.04649E-07-4.53768E-02 8.03382E-14 8.85691E-14
 -1       943 2.00086E+01 3.01208E-02-9.35833E-08-4.95563E-02 2.56299E-14 1.13585E-13
 -1       944 1.99960E+01 5.99721E-02-1.04107E-06-5.88211E-02 8.37721E-14 1.66545E-13
 -1       945 1.99802E+01 9.50747E-02-2.06204E-06-7.39321E-02 4.47379E-14 2.09991E-13
 -1       946 1.99593E+01 1.36737E-01-3.18597E-06-9.57643E-02 1.38795E-14 1.43321E-13
 -1       947 1.99308E+01 1.86313E-01-4.43426E-06-1.25280E-01 9.61012E-14 2.21646E-13
 -1       948 1.98918E+01 2.45078E-01-5.82078E-06-1.63465E-01 5.19001E-14 3.24465E-14
 -1       949 1.98387E+01 3.14050E-01-7.34571E-06-2.11236E-01 3.04553E-15-4.95688E-14
 -1       950 1.97668E+01 3.93731E-01-8.99793E-06-2.69302E-01-8.09221E-14-5.44473E-14
 -1       951 1.96706E+01 4.83722E-01-1.07856E-05-3.38019E-01-1.11481E-13-2.79015E-14
 -1       952 1.95431E+01 5.82167E-01-1.28420E-05-4.17278E-01-1.44978E-13 1.75385E-13
 -1       953 1.93756E+01 6.84960E-01-1.56925E-05-5.06535E-01-1.38565E-13 1.43367E-13
 -1       954 1.91582E+01 7.84628E-01-2.07969E-05-6.05203E-01-1.25452E-13 2.49556E-13
 -1       955 1.88785E+01 8.68807E-01-3.17708E-05-7.13805E-01-1.68846E-13 3.15636E-13
 -1       956 1.85225E+01 9.18126E-01-5.70931E-05-8.36512E-01 3.46723E-14 2.78744E-13
 -1       957 1.80736E+01 9.03346E-01-1.23059E-04-9.85733E-01-1.70144E-14 2.20151E-13
 -1       958 1.75123E+01 7.80786E-01-6.39587E-04-1.19127E+00-8.66743E-14 9.80370E-14
 -1       959 1.68117E+01 4.90632E-01 9.70998E-04-1.52136E+00-7.95057E-14-6.27336E-14
 -1       960 1.59657E+01-6.75827E-02 8.02827E-03-2.03935E+00 1.41383E-13-1.93463E-13
 -1       961 2.02726E+01 1.40717E+00-4.59507E-05-6.44768E-02 2.47260E-14-2.60870E-13
 -1       962 2.03344E+01 2.08879E-01 2.18236E-05-5.28084E-02 1.16971E-13-1.20726E-13
 -1       963 2.02817E+01 1.35473E+00 2.16749E-04-1.60954E-01-6.60788E-15-2.37443E-13
 -1       964 2.00555E+01-5.66173E-02 3.04915E-06-5.72301E-02 3.74471E-14 6.59627E-14
 -1       965 2.03575E+01 4.06102E-01-1.75371E-04 2.19226E-02 1.00812E-13-1.17421E-13
 -1       966 2.03553E+01 8.72225E-01-3.43665E-06-1.53325E-01-4.00061E-14-2.20551E-13
 -1       967 2.03777E+01 3.94081E-01-2.16923E-06-9.70491E-03-3.59377E-14-1.23960E-13
 -1       968 2.03784E+01 6.03149E-01 1.09396E-05-7.27815E-02-1.28207E-14-1.71428E-13
 -1       969 2.02986E+01 7.62092E-02 7.43156E-06-9.58520E-02 6.45471E-14-1.13569E-13
 -1       970 1.36542E+01 3.80379E-01 2.17038E-02 3.57042E-02 2.99438E-13-7.06171E-14
 -1       971 1.61682E+01-1.03213E+00 8.53405E-03-2.85936E+00-7.79819E-14-3.56994E-13
 -1       972 2.03361E+01 9.31807E-01 7.09749E-04 2.15666E-01 1.61941E-13-2.21637E-13
 -1       973 1.45071E+01 2.72569E-01 1.35463E-03-1.18058E+00 2.17296E-13 2.06783E-14
 -1       974 2.01164E+01-9.34593E-02 7.38818E-06-9.31363E-02-4.49651E-14 1.39118E-13
 -1       975 2.03665E+01 9.98055E-01 1.40259E-04 1.96695E-03 4.53135E-14-2.19399E-13
 -1       976 2.01455E+01-9.46023E-02 5.14810E-06-1.06087E-01 2.38211E-14 9.05019E-15
 -1       977 1.39487E+01 2.66442E-01 2.36091E-02 1.11526E+00 2.42051E-13-1.99709E-13
 -1       978 2.02173E+01-5.86122E-02 6.11076E-06-1.21385E-01 5.16915E-14-3.54026E-14
 -1       979 1.55356E+01-1.37501E+00 2.35653E-02 3.52359E+00 1.80971E-13-4.64307E-14
 -1       980 2.01793E+01-8.48691E-02 1.77182E-06-1.16544E-01 7.59598E-16-3.25462E-15
 -1       981 2.03663E+01 9.70132E-01 3.06256E-04 7.91974E-02 1.19846E-13-1.94992E-13
 -1       982 2.01088E+01-8.84402E-02 1.43406E-05-5.32738E-02 3.75607E-15 3.48141E-14
 -1       983 2.03879E+01 1.49098E-01-4.71121E-05 4.17307E-02-9.55649E-14-1.15640E-13
 -1       984 2.03500E+01 3.05725E-02-2.76123E-05 5.90005E-02-8.60275E-14-6.52221E-15
 -1       985 2.03053E+01-4.31398E-02-1.50583E-05 6.59281E-02-7.08444E-14-3.50516E-15
 -1       986 2.02595E+01-8.46707E-02 9.39610E-06 6.58395E-02-4.78765E-15 1.95138E-14
 -1       987 2.02158E+01-1.03733E-01-5.12614E-06 6.16788E-02-3.86355E-15 5.63047E-14
 -1       988 2.01764E+01-1.07604E-01 3.56262E-06 5.52082E-02-3.24340E-14 1.38631E-13
 -1       989 2.01418E+01-1.01279E-01 5.03371E-06 4.79645E-02-9.89003E-14 1.21265E-13
 -1       990 2.01122E+01-8.83676E-02 6.10535E-06 4.09646E-02-3.15085E-14 1.00065E-13
 -1       991 2.00871E+01-7.10927E-02 4.11857E-06 3.49045E-02-6.31241E-14 4.75153E-14
 -1       992 2.00658E+01-5.07377E-02 4.25235E-06 3.02160E-02-3.84561E-14 8.70008E-14
 -1       993 2.00470E+01-2.76880E-02-2.09949E-06 2.73922E-02 1.21180E-13 1.84060E-13
 -1       994 2.00295E+01-1.91823E-03-2.56973E-06 2.66550E-02 8.62793E-14 1.91522E-13
 -1       995 2.00118E+01 2.72085E-02-6.41815E-06 2.84283E-02-6.30306E-15 2.14654E-13
 -1       996 1.99921E+01 6.05055E-02-1.07193E-05 3.31399E-02-1.51401E-14 3.32542E-13
 -1       997 1.99686E+01 9.89912E-02-1.60127E-05 4.13172E-02-3.60715E-14 1.71042E-13
 -1       998 1.99389E+01 1.43711E-01-2.22962E-05 5.36417E-02-6.54573E-14 1.56469E-13
 -1       999 1.99006E+01 1.95555E-01-2.96378E-05 7.09848E-02 1.03603E-14 1.52568E-13
 -1      1000 1.98509E+01 2.55025E-01-3.81169E-05 9.44590E-02-8.11808E-14 2.18008E-13
 -1      1001 1.97869E+01 3.21915E-01-4.78043E-05 1.25487E-01-2.39478E-16 1.85314E-13
 -1      1002 1.97053E+01 3.94904E-01-5.87873E-05 1.65903E-01-7.98992E-14 2.79114E-13
 -1      1003 1.96032E+01 4.71021E-01-7.12508E-05 2.18108E-01-5.80037E-14 3.87877E-13
 -1      1004 1.94778E+01 5.44985E-01-8.56600E-05 2.85310E-01 7.21147E-14 3.40280E-13
 -1      1005 1.93273E+01 6.08428E-01-1.03172E-04 3.71910E-01 3.34613E-14 3.21465E-13
 -1      1006 1.91513E+01 6.48998E-01-1.26689E-04 4.84099E-01-2.42244E-13 2.74761E-13
 -1      1007 1.89515E+01 6.49372E-01-1.63939E-04 6.30795E-01-2.43917E-13 3.12042E-13
 -1      1008 1.87331E+01 5.86075E-01-2.37134E-04 8.25080E-01 3.99238E-14 3.15534E-13
 -1      1009 1.85074E+01 4.27726E-01-3.82339E-04 1.08615E+00 2.42680E-13 3.21769E-13
 -1      1010 1.82953E+01 1.32814E-01-4.78168E-04 1.44116E+00 2.84293E-13 7.87311E-14
 -1      1011 1.81369E+01-3.56723E-01 8.94335E-05 1.93294E+00 7.20792E-14 3.36656E-13
 -1      1012 1.81498E+01-1.12569E+00-2.35995E-03 2.57749E+00-2.12718E-14 5.31009E-13
 -1      1013 2.03601E+01 9.55932E-01 5.29192E-04-1.10395E-01-2.34087E-14-1.74217E-13
 -1      1014 2.00314E+01-7.46450E-03 2.26251E-06-3.35408E-02 9.13898E-15 8.46082E-14
 -1      1015 2.00472E+01-3.17242E-02-3.94816E-07-3.50017E-02 6.92563E-14 9.06652E-14
 -1      1016 1.99985E+01 5.14381E-02-6.12457E-06-3.99314E-02 4.20875E-14 4.33337E-14
 -1      1017 1.99779E+01 8.80976E-02-1.07322E-05-4.86880E-02 4.71099E-14 3.52293E-14
 -1      1018 1.99518E+01 1.31260E-01-1.59492E-05-6.18098E-02 1.25942E-13 2.82922E-14
 -1      1019 1.99174E+01 1.82302E-01-2.18942E-05-7.98164E-02 3.44737E-14-2.02921E-14
 -1      1020 1.98716E+01 2.42530E-01-2.86869E-05-1.03180E-01 9.67972E-16 1.14566E-13
 -1      1021 1.98104E+01 3.12996E-01-3.64578E-05-1.32227E-01 6.47242E-14 2.79764E-13
 -1      1022 1.97292E+01 3.94256E-01-4.53895E-05-1.67002E-01-1.11228E-13 3.18384E-13
 -1      1023 1.96223E+01 4.86031E-01-5.58369E-05-2.07099E-01-9.65199E-14 4.06558E-13
 -1      1024 1.94828E+01 5.86778E-01-6.86268E-05-2.51489E-01-1.63746E-13 2.96231E-13
 -1      1025 1.93024E+01 6.93126E-01-8.57317E-05-2.98403E-01-1.78844E-13 2.34666E-13
 -1      1026 1.90706E+01 7.99221E-01-1.11524E-04-3.45389E-01-1.74874E-13 9.35014E-14
 -1      1027 1.87742E+01 8.96002E-01-1.53917E-04-3.89770E-01-1.45187E-13 5.52196E-14
 -1      1028 1.83954E+01 9.70538E-01-2.21013E-04-4.29890E-01-1.88413E-14 1.22879E-14
 -1      1029 1.79086E+01 1.00532E+00-3.37596E-04-4.68029E-01 1.67964E-14 3.92072E-14
 -1      1030 1.72779E+01 9.75559E-01-2.15933E-04-5.14683E-01-5.18098E-14 1.54735E-13
 -1      1031 1.64379E+01 8.50688E-01-9.12227E-04-5.85442E-01 1.10146E-14 3.73641E-13
 -1      1032 2.03756E+01 1.68513E-01-3.70831E-05-4.85949E-02 6.36669E-14-1.02746E-13
 -1      1033 2.00157E+01 1.99652E-02-2.00479E-06-3.50349E-02 2.71335E-14 9.33241E-14
 -1      1034 2.10902E+01-4.15123E+00 5.91594E-02 3.58002E+00 2.64793E-13 8.99328E-13
 -1      1035 2.03521E+01 9.69531E-01 3.84092E-04 1.49066E-01 1.66924E-13-1.65887E-13
 -1      1036 2.04105E+01 3.30769E-01 2.37425E-04 1.10911E-02-4.82563E-14-1.37853E-13
 -1      1037 2.03391E+01 4.47716E-02-1.16254E-05-7.29249E-02 4.22029E-14-7.31974E-14
 -1      1038 2.03988E+01 6.68168E-01-4.40630E-04-5.57348E-02 9.22108E-15-1.49037E-13
 -1      1039 2.04001E+01 3.55540E-01 1.92843E-04-3.79821E-03 9.62031E-14-1.53817E-13
 -1      1040 1.84276E+01-2.30404E+00 7.29068E-03 3.44957E+00 2.33851E-13 5.85447E-13
 -1      1041 1.50469E+01 6.84797E-01 1.10480E-02-2.40498E-01 2.49731E-13 7.83184E-14
 -1      1042 2.01372E+01-9.99564E-02 1.47796E-05-6.22963E-02-7.31033E-14 7.38637E-14
 -1      1043 2.00647E+01-5.33870E-02 1.65932E-06-3.91023E-02 7.69051E-14 6.54307E-14
 -1      1044 2.03656E+01 9.89791E-01 3.43367E-04-5.59261E-02 1.36913E-15-2.24187E-13
 -1      1045 1.51838E+01 5.84709E-01 6.09879E-03 5.74747E-01 3.17701E-13-2.29329E-13
 -1      1046 2.01706E+01-1.04659E-01 1.52583E-05-7.14621E-02-5.51078E-14 7.72815E-14
 -1      1047 1.49474E+01-1.46237E-01 2.20696E-02 2.12499E+00 6.91274E-14-2.62594E-13
 -1      1048 2.02088E+01-9.89480E-02-1.22214E-05-7.93324E-02-1.70307E-15-5.96442E-15
 -1      1049 2.00848E+01-7.24386E-02 1.06149E-05-4.53088E-02-5.52331E-14-4.91855E-14
 -1      1050 2.02958E+01-3.28576E-02 4.30077E-06-8.32042E-02 3.43008E-14-9.56016E-15
 -1      1051 2.04176E+01 6.64494E-01 3.21655E-04 1.95406E-02 5.20189E-14-1.74164E-13
 -1      1052 2.04151E+01 6.73228E-01-2.48083E-04-7.43950E-03 6.35703E-15-2.00794E-13
 -1      1053 2.04085E+01 4.83470E-01-2.92807E-04-1.99460E-02 6.45315E-15-1.29464E-13
 -1      1054 2.03886E+01 6.67411E-01-8.60648E-05 7.65957E-02 9.36478E-14-1.77780E-13
 -1      1055 1.99197E+01 1.68025E-01-4.62076E-06-3.73432E-02-8.75764E-15 2.22340E-13
 -1      1056 2.03548E+01-6.15044E-03 8.98903E-05 2.45669E-02-4.61731E-14-4.70404E-14
 -1      1057 2.03061E+01-6.63402E-02-1.84290E-05 2.58408E-02-4.69553E-14-3.53688E-14
 -1      1058 2.02593E+01-9.93346E-02-3.92585E-05 2.47033E-02-2.71476E-14-6.88493E-14
 -1      1059 2.02155E+01-1.11276E-01 3.24486E-05 2.25951E-02-1.73883E-14-1.18712E-13
 -1      1060 2.01754E+01-1.09949E-01 3.12199E-05 2.00332E-02-1.39061E-14-1.16341E-13
 -1      1061 2.01404E+01-9.98719E-02 2.53973E-05 1.73092E-02-3.09601E-14 4.31527E-14
 -1      1062 2.01104E+01-8.39965E-02 2.23995E-05 1.48111E-02-3.22460E-14 7.21637E-14
 -1      1063 2.00842E+01-6.40005E-02-3.81618E-05 1.28049E-02 2.73030E-14 1.71665E-13
 -1      1064 2.00622E+01-4.13302E-02 5.47698E-06 1.12212E-02 2.36670E-14 2.43227E-13
 -1      1065 2.00421E+01-1.56269E-02 2.24873E-06 1.05108E-02 3.30166E-14 4.65078E-14
 -1      1066 2.00222E+01 1.34173E-02 7.90525E-06 1.08441E-02 5.24156E-14 8.67647E-14
 -1      1067 2.00010E+01 4.64419E-02 9.20355E-06 1.22879E-02 1.00677E-14 8.85343E-14
 -1      1068 1.99764E+01 8.45136E-02 1.14621E-05 1.51211E-02-7.72748E-14 5.96015E-14
 -1      1069 1.99462E+01 1.28802E-01 1.52173E-05 1.97019E-02-1.10760E-13 1.72133E-13
 -1      1070 1.99075E+01 1.80458E-01 2.08244E-05 2.65272E-02-7.95012E-14 7.37743E-14
 -1      1071 1.98572E+01 2.40421E-01 2.88044E-05 3.62979E-02-3.41480E-14-2.25857E-14
 -1      1072 1.97920E+01 3.09168E-01 3.99783E-05 5.00074E-02-1.08576E-13 8.37336E-15
 -1      1073 1.97079E+01 3.86389E-01 5.56410E-05 6.90687E-02 3.43639E-14 1.25496E-14
 -1      1074 1.96007E+01 4.70567E-01 7.78499E-05 9.54959E-02 5.34156E-14 7.83928E-14
 -1      1075 1.94659E+01 5.58462E-01 1.09889E-04 1.32165E-01 9.39814E-16 2.17561E-13
 -1      1076 1.92987E+01 6.44523E-01 1.56880E-04 1.83188E-01-4.98795E-14 2.56316E-13
 -1      1077 1.90946E+01 7.20240E-01 2.25991E-04 2.54450E-01-2.23794E-13 1.60636E-13
 -1      1078 1.88483E+01 7.73503E-01 3.23601E-04 3.54400E-01-1.79041E-13 1.89133E-13
 -1      1079 1.85545E+01 7.88010E-01 4.39734E-04 4.95216E-01-8.03542E-14 3.16430E-13
 -1      1080 1.82063E+01 7.42608E-01 4.86819E-04 6.94547E-01 3.31647E-14 1.04263E-13
 -1      1081 1.77949E+01 6.08175E-01-2.62052E-04 9.79033E-01 1.77259E-13-1.23198E-13
 -1      1082 1.73310E+01 3.48073E-01 1.60213E-03 1.37831E+00 3.26037E-13-9.39034E-14
 -1      1083 1.67849E+01-8.44434E-02-1.35097E-03 1.95734E+00 2.38316E-14-4.21297E-14
 -1      1084 2.00449E+01-2.10431E-02-3.17799E-06-1.88621E-02-3.55691E-15-2.51638E-14
 -1      1085 2.00061E+01 3.85684E-02 9.97485E-08-2.05144E-02 7.93153E-14-1.34832E-13
 -1      1086 1.99555E+01 1.17844E-01-1.55071E-06-2.96012E-02-4.13516E-14-1.44022E-14
 -1      1087 1.99834E+01 7.51375E-02-2.15949E-07-2.40371E-02 5.21445E-14-1.18957E-13
 -1      1088 1.98728E+01 2.26961E-01-1.01488E-05-4.72972E-02-1.09538E-13 2.75634E-13
 -1      1089 1.98111E+01 2.95681E-01-1.90397E-05-5.93061E-02-8.76358E-14 3.53779E-13
 -1      1090 1.97301E+01 3.74725E-01-3.24865E-05-7.28903E-02-3.71347E-14 4.20720E-13
 -1      1091 1.96246E+01 4.63815E-01-5.20969E-05-8.70724E-02 1.99315E-14 2.23899E-13
 -1      1092 1.94886E+01 5.61463E-01-8.01236E-05-1.00158E-01 3.18541E-14 1.12425E-13
 -1      1093 1.93148E+01 6.64493E-01-1.19977E-04-1.09487E-01-8.68323E-14 2.81373E-14
 -1      1094 1.90943E+01 7.67529E-01-1.77412E-04-1.11187E-01-1.09305E-13 4.65075E-14
 -1      1095 1.88163E+01 8.62518E-01-2.62799E-04-9.99778E-02-1.60605E-13 9.70937E-14
 -1      1096 1.84661E+01 9.38420E-01-3.91535E-04-6.90654E-02-1.14701E-13 7.81467E-14
 -1      1097 1.80223E+01 9.81390E-01-5.48828E-04-1.00561E-02-5.46142E-14 5.09951E-14
 -1      1098 1.74505E+01 9.77282E-01-2.68709E-04 8.77224E-02-5.07817E-15 1.66142E-13
 -1      1099 1.66859E+01 9.12731E-01 9.18697E-04 2.17043E-01-1.18881E-13-1.40176E-13
 -1      1100 2.00260E+01 6.88473E-03 9.50705E-07-1.88495E-02 5.06891E-14-5.53916E-14
 -1      1101 2.04245E+01 2.50258E-01-3.02648E-04 9.55524E-03-9.31847E-15-1.43820E-13
 -1      1102 1.60343E+01 7.78572E-01 4.02714E-03 3.55312E-01 1.76820E-13-2.95795E-13
 -1      1103 2.03964E+01 9.50202E-02 1.06534E-04 1.98900E-02-6.65587E-16-7.22449E-14
 -1      1104 2.02511E+01-7.73617E-02 3.63940E-06-8.42888E-02 4.80510E-14-9.32518E-15
 -1      1105 2.03954E+01 1.17314E-01-1.84094E-06-3.11185E-02 3.18304E-14-9.01957E-14
 -1      1106 2.04201E+01 2.84097E-01-2.61459E-04-1.23516E-02 4.99042E-14-9.46982E-14
 -1      1107 1.56717E+01 3.46030E-01-2.65846E-03 1.37390E+00 2.04625E-13-5.72215E-13
 -1      1108 2.00640E+01-4.54141E-02-2.71836E-05-2.02878E-02 4.79382E-15-4.37913E-14
 -1      1109 2.04311E+01 3.84402E-01 5.85324E-04 2.79894E-03-5.44374E-14-1.93749E-13
 -1      1110 2.01775E+01-1.09698E-01-1.04828E-05-3.62518E-02-2.07032E-15 9.01407E-14
 -1      1111 2.02173E+01-1.09457E-01-8.03097E-05-4.07482E-02-5.95944E-14 9.67829E-14
 -1      1112 2.01124E+01-8.64911E-02-1.53282E-05-2.70344E-02 4.21420E-14 3.72970E-14
 -1      1113 2.03553E+01 8.58587E-03-2.15295E-05-4.11666E-02 2.38939E-14-8.16256E-14
 -1      1114 2.01425E+01-1.01142E-01-1.19824E-05-3.15058E-02-4.42676E-15 5.50216E-14
 -1      1115 2.04337E+01 4.21959E-01 3.75189E-05 1.49387E-04-2.36992E-14-1.47167E-13
 -1      1116 2.03091E+01-5.81119E-02-7.93677E-05-4.46126E-02-1.82141E-14-2.34316E-14
 -1      1117 2.02860E+01-8.63615E-02 2.77619E-04-1.55573E-02-7.05347E-14 3.47196E-14
 -1      1118 2.00741E+01-5.32857E-02 1.12176E-04-7.57260E-03 2.25762E-14-4.11345E-14
 -1      1119 2.00868E+01-6.77630E-02-5.77577E-05-2.30824E-02 2.40765E-14-3.76962E-14
 -1      1120 2.02593E+01-9.30120E-02-8.59513E-05-4.42617E-02-1.96451E-14 2.38067E-14
 -1      1121 1.60054E+01 5.32946E-01-6.17309E-04 1.08214E+00 2.74397E-13-6.07364E-13
 -1      1122 2.79642E+01 9.08690E+00 2.32530E+00-6.69806E+00-5.06817E-14 1.66470E-12
 -1      1123 2.05489E+01 6.22764E+00 2.09836E-01-3.90347E+00-2.71172E-14 2.33348E-13
 -1      1124 1.94353E+01 5.85321E+00 7.53421E-02-2.88717E+00-1.81383E-14-3.74329E-13
 -1      1125 1.90265E+01 5.72608E+00 6.04112E-02-2.23432E+00-1.25247E-14-6.52318E-13
 -1      1126 1.88396E+01 5.66915E+00 5.75346E-02-1.70077E+00-8.17402E-15-7.73816E-13
 -1      1127 1.87456E+01 5.64032E+00 5.54860E-02-1.23349E+00-4.44176E-15-8.21838E-13
 -1      1128 1.86961E+01 5.62495E+00 5.37063E-02-8.03905E-01-2.03787E-15-8.25441E-13
 -1      1129 1.86719E+01 5.61731E+00 5.24780E-02-3.92635E-01 6.22983E-16-8.13126E-13
 -1      1130 1.86650E+01 5.61512E+00 5.20855E-02 8.46747E-03 3.74017E-15-7.88247E-13
 -1      1131 1.86730E+01 5.61767E+00 5.26006E-02 4.09979E-01 6.10818E-15-7.48930E-13
 -1      1132 1.86983E+01 5.62570E+00 5.39955E-02 8.22618E-01 7.62584E-15-6.86504E-13
 -1      1133 1.87494E+01 5.64168E+00 5.62141E-02 1.25488E+00 1.11291E-14-5.89302E-13
 -1      1134 1.88450E+01 5.67104E+00 5.84408E-02 1.72656E+00 1.49811E-14-4.47010E-13
 -1      1135 1.90320E+01 5.72772E+00 6.04140E-02 2.26759E+00 1.81799E-14-2.16691E-13
 -1      1136 1.94321E+01 5.85042E+00 6.92607E-02 2.92781E+00 2.28012E-14 1.90391E-13
 -1      1137 2.04549E+01 6.18250E+00 1.53364E-01 3.87804E+00 2.27318E-14 9.37930E-13
 -1      1138 2.52186E+01 7.99475E+00 1.43045E+00 5.84616E+00 3.65263E-14 2.35428E-12
 -1      1139 2.88137E+01 3.61625E+00 1.27108E+00-4.21695E+00-2.09666E-13 2.57222E-12
 -1      1140 2.02297E+01-1.77779E-01-6.16375E-01-1.09816E-01-6.88338E-14 2.10304E-12
 -1      1141 1.88365E+01-9.63594E-02-2.36339E-01 6.25489E-02-2.67165E-14 1.42371E-12
 -1      1142 1.85032E+01-4.80694E-02-5.95909E-02 4.05200E-02-1.87025E-14 9.55944E-13
 -1      1143 1.84487E+01-2.46352E-02-1.52172E-02 2.68113E-02-1.40591E-14 6.26891E-13
 -1      1144 1.85314E+01-1.30625E-02-4.99029E-03 1.90972E-02-6.00800E-15 4.26964E-13
 -1      1145 1.86792E+01-6.61536E-03-1.48249E-03 1.41598E-02-6.44786E-15 2.68676E-13
 -1      1146 1.88528E+01-2.83904E-03 5.58903E-04 1.07373E-02-3.49552E-15 1.62946E-13
 -1      1147 1.90295E+01-5.97487E-04 1.88498E-03 8.20878E-03-3.57220E-15 1.09938E-14
 -1      1148 1.91965E+01 7.08153E-04 2.64193E-03 6.26469E-03-2.17641E-15-1.07768E-13
 -1      1149 1.93468E+01 1.42032E-03 2.96577E-03 4.73998E-03 4.94510E-15-2.22306E-13
 -1      1150 1.94775E+01 1.74977E-03 2.99131E-03 3.53576E-03 1.64035E-14-1.67325E-13
 -1      1151 1.95879E+01 1.83319E-03 2.82739E-03 2.58500E-03-1.45484E-14-3.37522E-13
 -1      1152 1.96787E+01 1.76182E-03 2.55282E-03 1.83748E-03-3.59500E-15-5.49000E-13
 -1      1153 1.97518E+01 1.59663E-03 2.22114E-03 1.25314E-03 5.67583E-15-5.46353E-13
 -1      1154 1.98094E+01 1.37722E-03 1.86616E-03 7.99120E-04-3.66190E-14-6.81838E-13
 -1      1155 1.98538E+01 1.12759E-03 1.50658E-03 4.48358E-04-2.22958E-15-8.14405E-13
 -1      1156 1.98876E+01 8.60033E-04 1.14944E-03 1.79065E-04-1.91630E-15-8.73615E-13
 -1      1157 1.99133E+01 5.78011E-04 7.92792E-04-2.55013E-05-1.13173E-14-9.04814E-13
 -1      1158 1.99335E+01 2.78282E-04 4.27627E-04-1.77021E-04 4.26496E-15-8.17956E-13
 -1      1159 1.99507E+01-4.74426E-05 3.94060E-05-2.81909E-04-5.74142E-15-8.35588E-13
 -1      1160 1.99677E+01-4.11045E-04-3.90687E-04-3.40901E-04 3.48927E-15-7.68726E-13
 -1      1161 1.99877E+01-8.26528E-04-8.84441E-04-3.48405E-04-6.05176E-15-7.40806E-13
 -1      1162 2.00141E+01-1.30821E-03-1.46496E-03-2.91634E-04-5.46075E-14-9.46269E-13
 -1      1163 2.00512E+01-1.86822E-03-2.15415E-03-1.49538E-04 1.83424E-14-9.20036E-13
 -1      1164 2.01038E+01-2.51284E-03-2.96875E-03 1.08334E-04-1.08833E-14-7.64761E-13
 -1      1165 2.01777E+01-3.23685E-03-3.91375E-03 5.22742E-04 3.86731E-14-6.14274E-13
 -1      1166 2.02795E+01-4.01520E-03-4.97195E-03 1.14485E-03-1.87163E-14-7.27677E-13
 -1      1167 2.04167E+01-4.79066E-03-6.08745E-03 2.03433E-03 2.81374E-14-6.67276E-13
 -1      1168 2.05969E+01-5.45643E-03-7.14050E-03 3.25339E-03 4.76079E-15-5.35540E-13
 -1      1169 2.08273E+01-5.83268E-03-7.91052E-03 4.85306E-03-3.18479E-14-3.72852E-13
 -1      1170 2.11128E+01-5.63786E-03-8.02557E-03 6.84563E-03-2.75805E-15-4.87391E-13
 -1      1171 2.14537E+01-4.45965E-03-6.90149E-03 9.15432E-03 4.40663E-15-8.25081E-13
 -1      1172 2.18415E+01-1.73987E-03-3.68865E-03 1.15287E-02-1.32171E-15-1.01042E-12
 -1      1173 2.22528E+01 3.19432E-03 2.72304E-03 1.34173E-02-4.22386E-14-1.34331E-12
 -1      1174 2.26425E+01 1.09927E-02 1.35324E-02 1.38063E-02 2.88230E-14-1.08348E-12
 -1      1175 2.29353E+01 2.19434E-02 2.95082E-02 1.10851E-02 3.66619E-14-1.21775E-12
 -1      1176 2.30212E+01 3.53434E-02 4.99204E-02 3.10535E-03-1.84531E-14-1.23235E-12
 -1      1177 2.27602E+01 4.85972E-02 7.09310E-02-1.22490E-02 1.01464E-14-1.04238E-12
 -1      1178 2.20085E+01 5.64443E-02 8.41946E-02-3.56246E-02 3.07853E-14-1.03469E-12
 -1      1179 2.06756E+01 5.13902E-02 7.75867E-02-6.39399E-02-2.25484E-14-9.32907E-13
 -1      1180 1.88069E+01 2.67729E-02 4.03589E-02-8.85222E-02-5.16544E-14-1.22233E-12
 -1      1181 1.66592E+01-1.73672E-02-2.74866E-02-9.62360E-02 2.47894E-14-1.45382E-12
 -1      1182 1.47013E+01-6.92332E-02-1.07535E-01-7.57839E-02 5.03955E-14-1.16343E-12
 -1      1183 1.34865E+01-1.07337E-01-1.67606E-01-2.61276E-02 4.48279E-14-9.86697E-13
 -1      1184 1.34295E+01-1.13120E-01-1.78744E-01 4.02055E-02 3.67952E-14-6.79498E-13
 -1      1185 1.46103E+01-8.10995E-02-1.27891E-01 1.03344E-01-8.97268E-14-9.46784E-13
 -1      1186 1.66889E+01-1.64778E-02-1.97355E-02 1.37271E-01 1.73733E-15-7.51441E-13
 -1      1187 1.89062E+01 6.08474E-02 1.19345E-01 1.16535E-01 3.15104E-14-4.18734E-13
 -1      1188 1.99904E+01 1.60313E-02 6.37843E-02-1.93077E-03 9.89976E-14 2.20227E-13
 -1      1189 2.77934E+01 5.25742E-01 3.76881E-01 1.96662E+00-3.76504E-14 3.47977E-12
 -1      1190 2.00874E+01-6.62545E-02-5.73638E-01 1.29442E-01 1.06269E-14 3.00795E-12
 -1      1191 1.89110E+01-4.06225E-02-1.93236E-01 1.94043E-02 1.43496E-14 2.43611E-12
 -1      1192 1.85320E+01-2.14395E-02-5.05809E-02 1.45325E-03 1.10276E-14 2.02490E-12
 -1      1193 1.84615E+01-1.24304E-02-1.34411E-02-4.08556E-03 1.72052E-14 1.71997E-12
 -1      1194 1.85378E+01-7.42650E-03-4.70117E-03-5.54621E-03 1.30343E-14 1.50817E-12
 -1      1195 1.86825E+01-4.34743E-03-1.97223E-03-5.74277E-03 6.09972E-15 1.38595E-12
 -1      1196 1.88543E+01-2.37101E-03-3.82624E-04-5.47298E-03-9.28177E-15 1.41467E-12
 -1      1197 1.90301E+01-1.09059E-03 7.43466E-04-4.98870E-03-1.14319E-14 1.32210E-12
 -1      1198 1.91965E+01-2.73041E-04 1.46654E-03-4.40493E-03 1.87171E-14 1.18695E-12
 -1      1199 1.93466E+01 2.29502E-04 1.85189E-03-3.78942E-03 2.01440E-14 9.70710E-13
 -1      1200 1.94771E+01 5.16383E-04 1.98881E-03-3.18498E-03-1.96945E-16 8.35456E-13
 -1      1201 1.95874E+01 6.56320E-04 1.95855E-03-2.61765E-03 1.81706E-14 7.80773E-13
 -1      1202 1.96783E+01 6.97201E-04 1.82350E-03-2.10142E-03-1.32015E-14 7.33897E-13
 -1      1203 1.97513E+01 6.71956E-04 1.62762E-03-1.64153E-03 2.70332E-14 6.15339E-13
 -1      1204 1.98089E+01 6.02295E-04 1.39961E-03-1.23684E-03 2.04380E-14 3.45127E-13
 -1      1205 1.98532E+01 5.01229E-04 1.15594E-03-8.81780E-04-2.35248E-14 3.55928E-13
 -1      1206 1.98869E+01 3.74832E-04 9.03272E-04-5.67854E-04-1.65056E-15 4.99324E-13
 -1      1207 1.99125E+01 2.23459E-04 6.40210E-04-2.84805E-04 6.02919E-15 4.11581E-13
 -1      1208 1.99323E+01 4.25397E-05 3.58550E-04-2.14880E-05 1.26195E-15 3.83154E-13
 -1      1209 1.99491E+01-1.76987E-04 4.39577E-05 2.33474E-04 4.44933E-15 4.05767E-13
 -1      1210 1.99655E+01-4.48519E-04-3.23830E-04 4.91154E-04-1.22056E-14 5.50090E-13
 -1      1211 1.99846E+01-7.89863E-04-7.71238E-04 7.61795E-04 7.33891E-15 4.38363E-13
 -1      1212 2.00101E+01-1.22348E-03-1.33147E-03 1.05416E-03 8.09543E-15 3.44091E-13
 -1      1213 2.00463E+01-1.77679E-03-2.04548E-03 1.37459E-03-9.60979E-15 4.60227E-13
 -1      1214 2.00986E+01-2.48234E-03-2.96320E-03 1.72547E-03-6.84999E-15 6.13549E-13
 -1      1215 2.01737E+01-3.37731E-03-4.14463E-03 2.10257E-03-3.40011E-15 4.80192E-13
 -1      1216 2.02798E+01-4.50140E-03-5.65998E-03 2.49048E-03 1.16682E-14 2.49258E-13
 -1      1217 2.04276E+01-5.89101E-03-7.58689E-03 2.85444E-03-1.35227E-14 1.15975E-13
 -1      1218 2.06299E+01-7.56573E-03-1.00001E-02 3.12629E-03 2.36989E-14 2.39576E-13
 -1      1219 2.09024E+01-9.49973E-03-1.29444E-02 3.18047E-03 3.63705E-14 3.73833E-14
 -1      1220 2.12636E+01-1.15651E-02-1.63721E-02 2.79485E-03 2.00812E-14 3.92180E-13
 -1      1221 2.17340E+01-1.34273E-02-2.00100E-02 1.59147E-03-6.79224E-14 1.05250E-12
 -1      1222 2.23340E+01-1.43669E-02-2.30984E-02-1.04109E-03 1.95503E-14 9.18260E-13
 -1      1223 2.30786E+01-1.30141E-02-2.39291E-02-6.01529E-03 1.35508E-14 3.37314E-13
 -1      1224 2.39661E+01-7.05060E-03-1.91559E-02-1.45011E-02-1.07208E-14 1.49665E-13
 -1      1225 2.49576E+01 6.85915E-03-3.12200E-03-2.75161E-02 5.49363E-14-1.33032E-13
 -1      1226 2.59432E+01 3.22065E-02 3.18022E-02-4.46726E-02 1.40829E-14 1.10703E-13
 -1      1227 2.66954E+01 6.95962E-02 9.15669E-02-6.15776E-02 4.54298E-14-8.32494E-14
 -1      1228 2.68304E+01 1.10696E-01 1.70469E-01-6.63548E-02-1.69482E-15-2.81768E-13
 -1      1229 2.58355E+01 1.31552E-01 2.35859E-01-3.93380E-02-1.79544E-15-3.24657E-13
 -1      1230 2.32671E+01 9.92384E-02 2.25415E-01 3.47284E-02-5.50705E-14 1.39139E-13
 -1      1231 1.91696E+01 3.30711E-03 8.69689E-02 1.41167E-01 1.86457E-14 1.74583E-14
 -1      1232 1.44798E+01-1.11584E-01-1.47526E-01 2.19980E-01-6.56064E-14-3.27682E-13
 -1      1233 1.08780E+01-1.64453E-01-3.36351E-01 2.03961E-01 5.79033E-14-7.25822E-13
 -1      1234 9.78921E+00-1.34476E-01-3.59075E-01 8.99688E-02 5.49543E-14-9.69128E-13
 -1      1235 1.13472E+01-6.69485E-02-2.31001E-01-4.82236E-02 9.58105E-14-1.05904E-12
 -1      1236 1.45049E+01 5.58785E-03-3.96674E-02-1.52948E-01-6.80996E-14-4.34236E-13
 -1      1237 1.79117E+01 1.23953E-01 1.93872E-01-2.21518E-01 9.55841E-14-4.97880E-13
 -1      1238 1.98583E+01 6.25429E-02 2.48267E-01-4.81057E-02-2.80505E-14-3.99396E-13
 -1      1239 2.00289E+01-1.79209E-01 2.02957E-01-7.66041E-02-3.90840E-13-6.80679E-14
 -1      1240 2.00018E+01-2.17451E+00 4.04926E-02-2.45451E-01-7.06657E-14-9.70777E-14
 -1      1241 1.97852E+01-4.77358E+00-3.90714E-01-2.22582E-01-6.94861E-13-6.95763E-14
 -1      1242 1.95687E+01-4.90017E+00-7.96571E-01 3.21099E-02-1.00589E-12-9.45077E-14
 -1      1243 1.95335E+01 2.99288E-01-8.04820E-01 5.14448E-01-1.84563E-12-5.58859E-14
 -1      1244 1.98721E+01 1.13985E+01 2.67403E-02 9.72455E-01-2.43183E-12-2.28789E-13
 -1      1245 2.06024E+01 2.37343E+01 1.41725E+00 8.16021E-01-2.62024E-12 1.65631E-13
 -1      1246 2.10316E+01 2.90208E+01 2.14240E+00-1.09136E-01-1.99886E-12-4.63657E-14
 -1      1247 2.08959E+01 2.45730E+01 1.62679E+00-8.85450E-01-1.49991E-12-7.10820E-14
 -1      1248 2.02703E+01 1.46458E+01 4.97170E-01-1.06160E+00-9.75442E-13 1.10328E-13
 -1      1249 1.96797E+01 3.46848E+00-5.01899E-01-7.78051E-01 1.53766E-13-3.45800E-14
 -1      1250 1.94945E+01-5.00290E+00-8.64072E-01-3.37368E-01 1.60788E-12 1.74971E-13
 -1      1251 1.96341E+01-8.83201E+00-6.72302E-01 3.66617E-03 2.58986E-12-1.18804E-13
 -1      1252 1.98138E+01-8.62904E+00-3.33829E-01 1.64140E-01 1.72425E-12-1.04607E-13
 -1      1253 1.99379E+01-6.35851E+00-8.72805E-02 1.97501E-01 6.71657E-13 3.90443E-14
 -1      1254 2.00439E+01-3.49613E+00 8.28814E-02 2.03867E-01-1.95011E-13-8.36161E-14
 -1      1255 2.01119E+01-1.13664E+00 1.78814E-01 1.35437E-01-6.43041E-13 5.20452E-14
 -1      1256 1.99850E+01-4.31392E-02 5.79765E-02 2.99196E-02-3.82579E-13 1.41545E-13
 -1      1257-1.91997E+00-3.45216E+01-6.32750E+00-3.12278E+00 2.82085E-12 3.85164E-13
 -1      1258-2.12195E+00-1.98736E+01-4.58197E+00-4.98723E+00 2.42562E-12 8.87623E-13
 -1      1259 2.12019E+00-8.32099E-02-1.90678E+00 2.02052E+00 2.25509E-12 1.23102E-12
 -1      1260 1.51900E+01 1.33931E+01 6.80596E-01 1.38803E+01 1.57652E-12 1.35669E-12
 -1      1261 3.64322E+01 1.62941E+01 2.78850E+00 2.29810E+01 7.37188E-13 1.39200E-12
 -1      1262 6.07097E+01 1.09429E+01 4.29099E+00 2.34812E+01 2.65010E-13 1.37224E-13
 -1      1263 7.77663E+01 4.20812E+00 5.15286E+00 1.33695E+01-6.39072E-14-4.46088E-13
 -1      1264 7.95493E+01 2.18650E+00 5.10459E+00-2.22384E+00 9.45008E-14-1.21653E-12
 -1      1265 6.54125E+01 5.57556E+00 4.13832E+00-1.50786E+01 5.47118E-13-2.03948E-12
 -1      1266 4.16826E+01 1.00204E+01 2.40049E+00-1.89464E+01 1.22968E-12-2.34057E-12
 -1      1267 1.87482E+01 9.98679E+00 3.88701E-01-1.33069E+01 2.06368E-12-2.34590E-12
 -1      1268 3.51076E+00 1.80876E+00-1.45763E+00-3.04865E+00 3.01204E-12-2.40408E-12
 -1      1269-2.33389E+00-1.25004E+01-3.00364E+00 4.67991E+00 2.59304E-12-1.47538E-12
 -1      1270-2.14553E+00-2.50454E+01-3.86628E+00 5.20204E+00 1.29696E-12-5.13950E-13
 -1      1271-1.04328E+00-3.06698E+01-4.19203E+00 8.90907E-01-9.00502E-13-1.92596E-13
 -1      1272-1.58707E+00-2.63835E+01-3.86754E+00-3.98104E+00-2.28650E-12-4.00027E-13
 -1      1273-1.92548E+00-1.36790E+01-2.90381E+00-4.30610E+00-3.00915E-12-1.25699E-12
 -1      1274 2.85971E+00 1.19451E+00-1.41097E+00 2.62671E+00-2.28151E-12-1.59894E-12
 -1      1275 1.63122E+01 1.01934E+01 2.90649E-01 1.26592E+01-1.15130E-12-1.09379E-12
 -1      1276 3.72480E+01 1.10144E+01 2.04553E+00 1.91763E+01-2.34590E-13-3.37064E-13
 -1      1277 5.93790E+01 6.56791E+00 3.47631E+00 1.71093E+01 1.17295E-13 5.07594E-13
 -1      1278 7.48225E+01 2.44002E+00 4.45087E+00 6.46188E+00 3.06907E-14 1.39899E-12
 -1      1279 7.68731E+01 3.08715E+00 4.68557E+00-9.04661E+00-4.76272E-13 3.07099E-12
 -1      1280 6.41304E+01 9.22331E+00 4.30226E+00-2.19695E+01-1.68643E-12 4.31677E-12
 -1      1281 4.07412E+01 1.61684E+01 3.11859E+00-2.39909E+01-2.62923E-12 4.24172E-12
 -1      1282 1.79807E+01 1.54572E+01 1.31938E+00-1.59172E+01-1.76437E-12 1.88893E-12
 -1      1283 3.23454E+00 2.74155E+00-1.35007E+00-3.51837E+00 4.84057E-14 1.41220E-13
 -1      1284-1.78450E+00-1.78033E+01-4.18793E+00 4.28661E+00 4.40092E-13-3.66374E-14
 -1      1285-1.61636E+00-3.41412E+01-6.22760E+00 2.81043E+00 2.26474E-12-1.27343E-13
 -1      1286 2.22682E+01 1.83828E+00-7.25879E-01-2.79038E+00-7.70495E-14 1.35320E-12
 -1      1287 2.03608E+01 4.69033E+00-4.86320E-02-3.30645E+00-2.05475E-13-4.95576E-14
 -1      1288 2.08683E+01 4.81081E+00-1.13339E-01-4.16076E+00-2.67231E-13 2.69652E-13
 -1      1289 1.95323E+01 4.99331E+00-1.96937E-02-2.65371E+00-2.01526E-13-4.96131E-13
 -1      1290 1.98309E+01 5.09029E+00 2.72807E-04-3.04486E+00-2.30822E-13-3.07497E-13
 -1      1291 2.05274E+01 3.95277E+00-2.58898E-02-3.07441E+00-3.57520E-13-3.20438E-14
 -1      1292 1.91843E+01 5.08447E+00-3.55604E-03-2.07003E+00-1.56699E-13-7.05255E-13
 -1      1293 1.93332E+01 5.13975E+00 1.05665E-02-2.36284E+00-1.81924E-13-6.13180E-13
 -1      1294 1.97540E+01 4.36594E+00-2.45140E-02-2.48858E+00-3.10196E-13-3.97744E-13
 -1      1295 1.90090E+01 5.13083E+00 3.26653E-03-1.56392E+00-1.02922E-13-7.96474E-13
 -1      1296 1.90869E+01 5.16048E+00 1.25513E-02-1.81393E+00-1.26975E-13-7.55160E-13
 -1      1297 1.93918E+01 4.55496E+00-2.00451E-02-1.93127E+00-2.34561E-13-5.73538E-13
 -1      1298 1.89148E+01 5.16070E+00 6.50354E-03-1.11645E+00-5.58555E-14-8.31037E-13
 -1      1299 1.89575E+01 5.17708E+00 1.26732E-02-1.33781E+00-7.28809E-14-8.15677E-13
 -1      1300 1.92054E+01 4.66167E+00-1.61223E-02-1.44385E+00-1.45357E-13-6.55767E-13
 -1      1301 1.88631E+01 5.18038E+00 8.17035E-03-6.93474E-01-1.56639E-14-8.27872E-13
 -1      1302 1.88861E+01 5.18926E+00 1.19524E-02-9.03587E-01-3.04886E-14-8.34692E-13
 -1      1303 1.91019E+01 4.72701E+00-1.40376E-02-1.00382E+00-7.40859E-14-6.85799E-13
 -1      1304 1.88390E+01 5.19225E+00 9.27174E-03-2.89013E-01 3.11218E-14-8.12666E-13
 -1      1305 1.88489E+01 5.19610E+00 1.10491E-02-4.91012E-01 1.68190E-14-8.19610E-13
 -1      1306 1.90460E+01 4.76584E+00-1.29351E-02-5.88513E-01-2.68340E-15-6.79137E-13
 -1      1307 1.88353E+01 5.19720E+00 1.02062E-02 1.08145E-01 7.02579E-14-7.90607E-13
 -1      1308 1.88349E+01 5.19706E+00 1.01346E-02-9.14007E-02 5.74234E-14-8.07817E-13
 -1      1309 1.90217E+01 4.78384E+00-1.24785E-02-1.89007E-01 7.71330E-14-6.71997E-13
 -1      1310 1.88507E+01 5.19575E+00 1.11478E-02 5.08337E-01 1.05813E-13-7.46883E-13
 -1      1311 1.88400E+01 5.19162E+00 9.20952E-03 3.05919E-01 9.28462E-14-7.74911E-13
 -1      1312 1.90225E+01 4.78321E+00-1.24943E-02 2.05656E-01 1.31564E-13-6.46809E-13
 -1      1313 1.88895E+01 5.18811E+00 1.20857E-02 9.22396E-01 1.39616E-13-6.80053E-13
 -1      1314 1.88656E+01 5.17904E+00 8.11804E-03 7.11318E-01 1.28438E-13-7.22887E-13
 -1      1315 1.90486E+01 4.76378E+00-1.29800E-02 6.05832E-01 1.91569E-13-6.06216E-13
 -1      1316 1.89618E+01 5.17518E+00 1.28966E-02 1.35546E+00 1.81072E-13-5.71243E-13
 -1      1317 1.89183E+01 5.15838E+00 6.43379E-03 1.13263E+00 1.62959E-13-6.32593E-13
 -1      1318 1.91063E+01 4.72336E+00-1.40019E-02 1.01897E+00 2.47041E-13-5.25184E-13
 -1      1319 1.90949E+01 5.15679E+00 1.28321E-02 1.84002E+00 2.35081E-13-4.10887E-13
 -1      1320 1.90152E+01 5.12637E+00 3.13053E-03 1.58725E+00 2.11912E-13-5.03944E-13
 -1      1321 1.92122E+01 4.65500E+00-1.61448E-02 1.46195E+00 3.20544E-13-4.09325E-13
 -1      1322 1.93441E+01 5.13359E+00 1.01858E-02 2.39711E+00 2.79221E-13-1.62231E-13
 -1      1323 1.91938E+01 5.07640E+00-4.38592E-03 2.09982E+00 2.55587E-13-3.12462E-13
 -1      1324 1.94054E+01 4.54256E+00-1.99815E-02 1.95755E+00 3.95274E-13-2.34271E-13
 -1      1325 1.98562E+01 5.09957E+00 6.07643E-03 3.08330E+00 2.93293E-13 2.78388E-13
 -1      1326 1.95440E+01 4.98451E+00-2.05426E-02 2.69587E+00 2.70686E-13 1.21153E-14
 -1      1327 1.97753E+01 4.34651E+00-2.45553E-02 2.52742E+00 4.40295E-13 4.46587E-14
 -1      1328 2.11043E+01 4.90708E+00 8.33909E-03 4.05354E+00 2.32314E-13 1.06233E-12
 -1      1329 2.03352E+01 4.73394E+00-4.79561E-02 3.41577E+00 2.33938E-13 5.89001E-13
 -1      1330 2.05655E+01 3.91597E+00-2.23993E-02 3.17785E+00 4.24816E-13 5.25219E-13
 -1      1331 2.72037E+01 3.20539E+00 9.28984E-01 4.58208E+00 9.42024E-14 2.43772E-12
 -1      1332 2.20211E+01 3.52224E+00-1.81987E-01 3.88468E+00 1.05110E-13 1.49897E-12
 -1      1333 2.21136E+01 2.56178E+00-3.25326E-02 3.45616E+00 3.66656E-13 1.22813E-12
 -1      1334 2.14281E+01 3.59556E-01-7.63528E-01 1.18364E+00 1.87537E-13 2.39636E-12
 -1      1335 2.20026E+01 1.31398E-01-4.00891E-01-1.28541E+00-2.18547E-13 1.43985E-12
 -1      1336 2.06802E+01 3.06690E-01-1.64832E-01-8.05492E-01-2.00846E-13 1.18564E-12
 -1      1337 2.00828E+01 1.53472E-01-7.35205E-02-4.01897E-01-1.70197E-13 1.08403E-12
 -1      1338 1.96132E+01 9.11694E-02-1.49234E-02-3.29752E-01-1.68927E-13 8.33344E-13
 -1      1339 2.09740E+01 3.69018E-01-1.04291E-01-1.27339E+00-3.57769E-13 6.23536E-13
 -1      1340 1.92560E+01 6.45078E-02 3.04061E-03-1.35147E-01-1.33720E-13 7.55580E-13
 -1      1341 1.91019E+01 4.12803E-02 1.32230E-02-1.17343E-01-1.18665E-13 5.72511E-13
 -1      1342 1.99237E+01 1.33899E-01-3.51438E-02-5.03568E-01-2.87721E-13 4.77457E-13
 -1      1343 1.89418E+01 3.15553E-02 1.32405E-02-2.77821E-02-8.75068E-14 4.82770E-13
 -1      1344 1.89226E+01 1.94104E-02 1.10574E-02-1.83854E-02-8.11911E-14 3.63921E-13
 -1      1345 1.94468E+01 5.54811E-02-8.52008E-03-1.69582E-01-2.10800E-13 3.16054E-13
 -1      1346 1.88668E+01 1.60309E-02 8.77610E-03 2.53039E-02-5.25782E-14 3.18866E-13
 -1      1347 1.89096E+01 9.08662E-03 6.43833E-03 2.99417E-02-4.34737E-14 2.39191E-13
 -1      1348 1.92383E+01 2.44538E-02-3.50039E-03-1.06364E-02-1.27523E-13 1.99362E-13
 -1      1349 1.89098E+01 7.86756E-03 4.67102E-03 5.11284E-02-5.09280E-14 2.01434E-13
 -1      1350 1.89806E+01 3.50874E-03 3.64142E-03 5.30239E-02-3.32133E-14 1.42785E-13
 -1      1351 1.91820E+01 1.02177E-02-2.21564E-03 6.81188E-02-1.01965E-13 1.36353E-13
 -1      1352 1.90103E+01 3.19599E-03 2.43927E-03 6.18342E-02-2.43485E-14 1.13570E-13
 -1      1353 1.90913E+01 3.31571E-04 2.20920E-03 6.21053E-02-4.27829E-14 5.03477E-14
 -1      1354 1.92086E+01 2.79283E-03-1.32228E-03 1.04993E-01-6.57169E-14 5.39822E-14
 -1      1355 1.91351E+01 4.46059E-04 1.32763E-03 6.37919E-02-4.43790E-14 4.68098E-14
 -1      1356 1.92163E+01-1.47060E-03 1.43631E-03 6.31097E-02-4.10256E-14-7.36954E-15
 -1      1357 1.92782E+01-1.29532E-03-5.56903E-04 1.18282E-01-8.62316E-14 2.37024E-14
 -1      1358 1.92651E+01-1.14658E-03 7.41331E-04 6.07089E-02-2.69483E-14-2.75552E-14
 -1      1359 1.93410E+01-2.42461E-03 9.66272E-04 5.95039E-02-4.55297E-14-7.23874E-14
 -1      1360 1.93668E+01-3.50950E-03 4.50291E-06 1.17932E-01-6.75329E-14-1.00245E-14
 -1      1361 1.93894E+01-2.00649E-03 4.03339E-04 5.48916E-02-4.96158E-14-8.55861E-14
 -1      1362 1.94572E+01-2.83937E-03 6.53155E-04 5.34455E-02-3.92747E-15-1.22858E-13
 -1      1363 1.94604E+01-4.58494E-03 3.60508E-04 1.09874E-01-6.61790E-14-5.51848E-15
 -1      1364 1.95020E+01-2.39349E-03 1.97522E-04 4.78162E-02 7.85244E-15-1.84746E-13
 -1      1365 1.95606E+01-2.91158E-03 4.35800E-04 4.63118E-02-2.33042E-14-1.90971E-13
 -1      1366 1.95505E+01-4.94656E-03 5.55517E-04 9.78278E-02-4.24471E-14-1.19423E-13
 -1      1367 1.96003E+01-2.47672E-03 7.14006E-05 4.04277E-02-7.27278E-14-2.27725E-13
 -1      1368 1.96495E+01-2.77187E-03 2.83793E-04 3.89801E-02-8.62716E-14-3.57417E-13
 -1      1369 1.96325E+01-4.86312E-03 6.37775E-04 8.41741E-02-9.18475E-14-2.19418E-13
 -1      1370 1.96836E+01-2.36978E-03-2.88204E-06 3.33172E-02-3.71920E-14-3.61213E-13
 -1      1371 1.97238E+01-2.50798E-03 1.78937E-04 3.19951E-02-4.02892E-14-4.27241E-13
 -1      1372 1.97042E+01-4.51226E-03 6.45598E-04 7.04228E-02-9.13358E-14-2.86535E-13
 -1      1373 1.97522E+01-2.14912E-03-4.22774E-05 2.68379E-02 1.70550E-14-4.24915E-13
 -1      1374 1.97844E+01-2.17766E-03 1.09043E-04 2.56787E-02-1.51595E-14-4.33123E-13
 -1      1375 1.97650E+01-4.01230E-03 6.06421E-04 5.75048E-02-4.74026E-14-2.63124E-13
 -1      1376 1.98076E+01-1.86482E-03-5.79046E-05 2.11862E-02-7.74542E-14-4.37496E-13
 -1      1377 1.98329E+01-1.81686E-03 6.55396E-05 2.02072E-02-9.04601E-14-5.17344E-13
 -1      1378 1.98153E+01-3.43982E-03 5.38881E-04 4.59656E-02-5.94182E-14-2.75319E-13
 -1      1379 1.98515E+01-1.54740E-03-5.72976E-05 1.64603E-02-5.94115E-14-5.03784E-13
 -1      1380 1.98711E+01-1.44523E-03 4.22969E-05 1.56677E-02-3.64569E-14-5.91963E-13
 -1      1381 1.98561E+01-2.84070E-03 4.54928E-04 3.61026E-02-1.04418E-13-2.47907E-13
 -1      1382 1.98859E+01-1.21268E-03-4.56289E-05 1.27052E-02 4.34062E-15-6.15363E-13
 -1      1383 1.99009E+01-1.07013E-03 3.49454E-05 1.21004E-02-2.63181E-14-6.20254E-13
 -1      1384 1.98889E+01-2.23757E-03 3.61474E-04 2.80664E-02-3.24877E-14-3.52170E-13
 -1      1385 1.99129E+01-8.65142E-04-2.64842E-05 9.94604E-03-1.02028E-14-6.26663E-13
 -1      1386 1.99246E+01-6.89575E-04 4.04119E-05 9.53074E-03 1.17431E-14-5.76517E-13
 -1      1387 1.99152E+01-1.63533E-03 2.61607E-04 2.19374E-02-1.28040E-14-4.05507E-13
 -1      1388 1.99347E+01-5.00520E-04-2.41614E-06 8.21385E-03 2.25545E-15-6.12957E-13
 -1      1389 1.99443E+01-2.94516E-04 5.65637E-05 7.99404E-03-6.22608E-14-6.91243E-13
 -1      1390 1.99369E+01-1.02520E-03 1.55501E-04 1.77828E-02-3.41603E-14-3.69250E-13
 -1      1391 1.99535E+01-1.07736E-04 2.46125E-05 7.56543E-03-1.47752E-14-6.92991E-13
 -1      1392 1.99624E+01 1.29440E-04 8.18894E-05 7.55438E-03-8.16253E-16-6.54086E-13
 -1      1393 1.99560E+01-3.87706E-04 4.11167E-05 1.57016E-02-5.16161E-14-4.65295E-13
 -1      1394 1.99720E+01 3.29526E-04 5.28341E-05 8.09827E-03 1.73834E-14-6.23870E-13
 -1      1395 1.99816E+01 6.00417E-04 1.15173E-04 8.31892E-03 1.46302E-14-5.86006E-13
 -1      1396 1.99745E+01 3.04885E-04-8.52390E-05 1.58580E-02 9.08983E-15-4.94064E-13
 -1      1397 1.99927E+01 8.31278E-04 8.02902E-05 9.96121E-03-6.80161E-15-6.22159E-13
 -1      1398 2.00047E+01 1.13855E-03 1.55123E-04 1.04477E-02-5.85980E-14-6.36749E-13
 -1      1399 1.99948E+01 1.08629E-03-2.28397E-04 1.85053E-02-2.30852E-14-4.81981E-13
 -1      1400 2.00187E+01 1.41940E-03 1.04422E-04 1.33601E-02 1.83181E-15-5.52271E-13
 -1      1401 2.00350E+01 1.76376E-03 1.99920E-04 1.41585E-02 2.08474E-14-5.71603E-13
 -1      1402 2.00195E+01 1.99360E-03-3.93763E-04 2.40019E-02-2.64541E-14-3.55384E-13
 -1      1403 2.00538E+01 2.11508E-03 1.21613E-04 1.85572E-02 1.51729E-15-5.40380E-13
 -1      1404 2.00766E+01 2.49248E-03 2.46631E-04 1.97247E-02-4.67939E-15-4.99152E-13
 -1      1405 2.00518E+01 3.06366E-03-5.86618E-04 3.28136E-02 1.36142E-14-1.45555E-13
 -1      1406 2.01020E+01 2.93489E-03 1.26690E-04 2.58602E-02-8.41823E-15-5.28448E-13
 -1      1407 2.01339E+01 3.33264E-03 2.90468E-04 2.74625E-02 1.87132E-14-4.47387E-13
 -1      1408 2.00952E+01 4.32727E-03-8.11116E-04 4.55010E-02-4.79337E-14-2.35495E-13
 -1      1409 2.01681E+01 3.88455E-03 1.12397E-04 3.55977E-02 3.13556E-14-4.70584E-13
 -1      1410 2.02123E+01 4.27592E-03 3.23886E-04 3.77024E-02 2.63383E-14-4.97236E-13
 -1      1411 2.01536E+01 5.80012E-03-1.06881E-03 6.26804E-02 1.08615E-15-2.55274E-13
 -1      1412 2.02577E+01 4.94925E-03 6.89744E-05 4.80692E-02 1.64842E-15-4.69983E-13
 -1      1413 2.03174E+01 5.28582E-03 3.35589E-04 5.07349E-02-5.82423E-15-5.20174E-13
 -1      1414 2.02317E+01 7.46807E-03-1.35642E-03 8.49464E-02 2.92640E-14-4.11705E-13
 -1      1415 2.03766E+01 6.07862E-03-1.59003E-05 6.34619E-02 2.17282E-14-4.82898E-13
 -1      1416 2.04555E+01 6.27995E-03 3.09715E-04 6.67174E-02 1.79089E-14-4.23552E-13
 -1      1417 2.03343E+01 9.26416E-03-1.66253E-03 1.12735E-01 1.55728E-14-3.37805E-13
 -1      1418 2.05311E+01 7.16435E-03-1.56256E-04 8.17118E-02 1.74533E-14-4.62525E-13
 -1      1419 2.06326E+01 7.10440E-03 2.25810E-04 8.55245E-02 2.77505E-14-4.23894E-13
 -1      1420 2.04664E+01 1.10336E-02-1.96268E-03 1.46095E-01 8.28027E-15-3.46678E-13
 -1      1421 2.07265E+01 8.00795E-03-3.64969E-04 1.02290E-01 1.10328E-14-4.15954E-13
 -1      1422 2.08534E+01 7.49886E-03 6.09022E-05 1.06515E-01-6.67790E-14-4.31798E-13
 -1      1423 2.06326E+01 1.24825E-02-2.21235E-03 1.84336E-01 5.25404E-16-4.48579E-13
 -1      1424 2.09667E+01 8.27739E-03-6.47084E-04 1.23885E-01-1.00118E-13-3.91936E-13
 -1      1425 2.11199E+01 7.05321E-03-2.04087E-04 1.28188E-01-1.08732E-13-4.60171E-13
 -1      1426 2.08358E+01 1.31067E-02-2.33715E-03 2.25493E-01-1.33408E-13-3.96168E-13
 -1      1427 2.12515E+01 7.45498E-03-9.86650E-04 1.43956E-01-9.35584E-14-5.28863E-13
 -1      1428 2.14286E+01 5.16350E-03-5.70317E-04 1.47710E-01-9.11950E-14-6.44297E-13
 -1      1429 2.10761E+01 1.21047E-02-2.22014E-03 2.65573E-01-1.81656E-13-3.84211E-13
 -1      1430 2.15740E+01 4.78966E-03-1.32438E-03 1.58168E-01-8.54065E-14-6.60982E-13
 -1      1431 2.17667E+01 1.01069E-03-9.96428E-04 1.60317E-01-7.44063E-14-8.37115E-13
 -1      1432 2.13487E+01 8.29093E-03-1.68752E-03 2.97565E-01-1.48502E-13-4.85908E-13
 -1      1433 2.19165E+01-7.10070E-04-1.52659E-03 1.59781E-01-4.74206E-14-8.46413E-13
 -1      1434 2.21077E+01-6.38391E-03-1.36446E-03 1.58704E-01 4.00787E-14-8.31839E-13
 -1      1435 2.16403E+01 6.76766E-05-4.98529E-04 3.10324E-01-7.86149E-14-5.93399E-13
 -1      1436 2.22452E+01-1.01633E-02-1.35543E-03 1.39249E-01 2.15930E-15-7.49833E-13
 -1      1437 2.24053E+01-1.79242E-02-1.45045E-03 1.32682E-01 1.05022E-14-7.51290E-13
 -1      1438 2.19262E+01-1.44227E-02 1.64539E-03 2.87652E-01 8.26513E-14-4.77655E-13
 -1      1439 2.25050E+01-2.44443E-02-4.73317E-04 8.45828E-02 2.47710E-14-7.65449E-13
 -1      1440 2.25893E+01-3.38726E-02-9.35917E-04 6.97812E-02 1.41926E-14-7.20242E-13
 -1      1441 2.21661E+01-3.67360E-02 5.04055E-03 2.08432E-01-1.83998E-14-3.81078E-13
 -1      1442 2.26164E+01-4.33600E-02 1.45993E-03-1.65160E-02-5.32040E-15-8.38552E-13
 -1      1443 2.25657E+01-5.28104E-02 4.72420E-04-4.21097E-02-2.78666E-14-8.03041E-13
 -1      1444 2.23016E+01-6.68516E-02 9.81824E-03 4.93413E-02-4.15961E-14-4.41292E-13
 -1      1445 2.24783E+01-6.42833E-02 4.51475E-03-1.71430E-01-6.04447E-14-6.67263E-13
 -1      1446 2.22268E+01-7.02368E-02 2.74854E-03-2.08652E-01 7.51569E-15-7.23456E-13
 -1      1447 2.22577E+01-1.00995E-01 1.56227E-02-2.07591E-01-3.33761E-14-3.78790E-13
 -1      1448 2.19843E+01-8.06250E-02 8.04932E-03-3.73528E-01 7.04957E-14-7.89599E-13
 -1      1449 2.14793E+01-7.76270E-02 5.15004E-03-4.19018E-01 1.73819E-15-7.92800E-13
 -1      1450 2.19524E+01-1.29132E-01 2.11230E-02-5.60643E-01-2.56739E-16-4.38629E-13
 -1      1451 2.10586E+01-8.15489E-02 1.04005E-02-5.91109E-01-1.33938E-14-7.68201E-13
 -1      1452 2.02928E+01-6.37911E-02 6.05895E-03-6.34782E-01-1.02398E-13-8.96699E-13
 -1      1453 2.13194E+01-1.34284E-01 2.36235E-02-9.68708E-01-4.18381E-14-6.27227E-13
 -1      1454 1.97102E+01-5.53305E-02 9.27785E-03-7.61671E-01-1.50665E-13-9.66394E-13
 -1      1455 1.87577E+01-2.05456E-02 3.57353E-03-7.86639E-01-1.09779E-13-1.02672E-12
 -1      1456 2.03460E+01-9.72857E-02 1.94817E-02-1.33579E+00-1.72376E-13-7.42781E-13
 -1      1457 1.80897E+01 2.37222E-03 3.20875E-03-8.03508E-01 4.18359E-14-1.00642E-12
 -1      1458 1.71215E+01 4.81546E-02-3.04281E-03-7.91580E-01 1.42056E-13-9.02500E-13
 -1      1459 1.91177E+01-9.06126E-03 6.07894E-03-1.51909E+00-3.20751E-14-7.40507E-13
 -1      1460 1.65055E+01 7.89611E-02-6.69618E-03-6.52076E-01 5.81670E-14-6.76771E-13
 -1      1461 1.57595E+01 1.20510E-01-1.16888E-02-5.95050E-01 1.51251E-13-6.81313E-13
 -1      1462 1.78430E+01 1.14476E-01-1.51240E-02-1.37939E+00 2.35064E-13-3.71453E-13
 -1      1463 1.53566E+01 1.45634E-01-1.61290E-02-3.07102E-01 2.00836E-13-8.01498E-13
 -1      1464 1.50560E+01 1.64981E-01-1.82268E-02-2.15590E-01 1.47271E-13-5.65027E-13
 -1      1465 1.68214E+01 2.30971E-01-3.63334E-02-8.65317E-01 2.17035E-13-4.94745E-13
 -1      1466 1.49840E+01 1.71584E-01-2.11468E-02 1.46758E-01 5.65433E-14-5.49172E-13
 -1      1467 1.52411E+01 1.58133E-01-1.87318E-02 2.45089E-01-2.00586E-14-5.38777E-13
 -1      1468 1.63369E+01 2.90509E-01-4.70202E-02-7.56171E-02 9.91811E-14-3.35781E-13
 -1      1469 1.55133E+01 1.43294E-01-1.89575E-02 5.67620E-01-1.50149E-13-6.49411E-13
 -1      1470 1.62656E+01 9.62203E-02-1.13978E-02 6.40609E-01-6.15549E-14-6.95138E-13
 -1      1471 1.65256E+01 2.61395E-01-4.12641E-02 7.56466E-01-8.73000E-14-5.57479E-13
 -1      1472 1.67838E+01 5.86487E-02-7.89140E-03 8.05809E-01 1.08788E-13-6.12316E-13
 -1      1473 1.77795E+01-1.60059E-02 3.34895E-03 8.21951E-01 8.53200E-14-5.52614E-13
 -1      1474 1.72991E+01 1.34393E-01-2.11236E-02 1.35402E+00-2.23953E-15-4.79776E-13
 -1      1475 1.83639E+01-6.82953E-02 1.62756E-02 7.26697E-01 2.68561E-13-3.41047E-13
 -1      1476 1.92210E+01-1.51286E-01 2.93451E-02 6.83187E-01 3.26783E-13 4.83572E-14
 -1      1477 1.83832E+01-1.07155E-01 4.74799E-03 1.45181E+00 3.52539E-13-1.19387E-13
 -1      1478 1.98426E+01-1.87824E-01 8.43721E-02 1.39108E-01-2.16303E-13 1.88329E-13
 -1      1479 1.95865E+01-4.88209E-01 4.09154E-02 7.50173E-01 5.46854E-14 1.00605E-13
 -1      1480 2.02613E+01 7.54720E-02-1.52083E-01 4.83685E-01 1.69656E-13 2.00748E-12
 -1      1481 2.15313E+01 2.16136E-01-2.29284E-01 7.20666E-01 1.44523E-13 2.26162E-12
 -1      1482 2.17299E+01 8.81718E-01-8.54802E-02 2.06450E+00 2.87201E-13 1.55707E-12
 -1      1483 1.93334E+01 3.23844E-02-2.13286E-02 1.85848E-01 1.37213E-13 1.64863E-12
 -1      1484 1.97538E+01 1.13624E-01-6.26941E-02 2.37861E-01 1.36991E-13 1.86843E-12
 -1      1485 2.03050E+01 1.87666E-01-5.51953E-02 7.85862E-01 2.63525E-13 1.29562E-12
 -1      1486 1.89521E+01 1.51116E-02 5.66693E-03 5.33263E-02 9.96946E-14 1.37991E-12
 -1      1487 1.90904E+01 5.16381E-02 9.80986E-04 7.96493E-02 9.10192E-14 1.52818E-12
 -1      1488 1.95603E+01 7.18436E-02-1.21610E-02 2.98656E-01 2.13397E-13 1.07443E-12
 -1      1489 1.88421E+01 7.12855E-03 6.97458E-03-9.19876E-03 7.37600E-14 1.18845E-12
 -1      1490 1.88564E+01 2.58756E-02 1.10905E-02 5.21347E-03 7.35601E-14 1.29917E-12
 -1      1491 1.92253E+01 3.10478E-02-2.46966E-03 8.31171E-02 1.54566E-13 8.78539E-13
 -1      1492 1.88687E+01 3.21710E-03 4.78036E-03-3.94835E-02 5.42157E-14 1.05556E-12
 -1      1493 1.88246E+01 1.38263E-02 8.52063E-03-3.13493E-02 4.31766E-14 1.13137E-12
 -1      1494 1.91092E+01 1.32778E-02-1.62627E-03-2.19170E-02 9.62897E-14 7.81722E-13
 -1      1495 1.89635E+01 1.05837E-03 3.29183E-03-5.29417E-02 6.09755E-15 1.02953E-12
 -1      1496 1.88927E+01 7.29709E-03 5.36718E-03-4.84536E-02 2.46015E-14 1.04203E-12
 -1      1497 1.91109E+01 4.55250E-03-1.64205E-03-7.34585E-02 4.95027E-14 7.47180E-13
 -1      1498 1.90884E+01-1.92092E-04 2.50966E-03-5.69079E-02 2.73073E-14 1.00077E-12
 -1      1499 1.90079E+01 3.46085E-03 3.43020E-03-5.46789E-02 7.07594E-15 1.00888E-12
 -1      1500 1.91741E+01-1.05343E-04-1.38739E-03-9.61333E-02 2.64714E-14 6.98319E-13
 -1      1501 1.92218E+01-9.01791E-04 2.04538E-03-5.54110E-02 5.93686E-14 8.89754E-13
 -1      1502 1.91412E+01 1.12602E-03 2.32745E-03-5.46029E-02 4.72182E-14 9.54494E-13
 -1      1503 1.92665E+01-2.62894E-03-1.01222E-03-1.02334E-01 7.65613E-14 6.29018E-13
 -1      1504 1.93509E+01-1.26776E-03 1.70184E-03-5.08799E-02 6.67490E-14 7.49453E-13
 -1      1505 1.92757E+01-2.85611E-04 1.64885E-03-5.09519E-02 4.62318E-14 8.32906E-13
 -1      1506 1.93691E+01-3.90495E-03-6.69421E-04-9.90518E-02 9.31598E-14 5.02354E-13
 -1      1507 1.94691E+01-1.41091E-03 1.41277E-03-4.48459E-02 3.69825E-14 6.79959E-13
 -1      1508 1.94019E+01-1.09938E-03 1.18813E-03-4.54384E-02 5.04153E-14 7.37713E-13
 -1      1509 1.94705E+01-4.41482E-03-4.04856E-04-9.05415E-02 8.06359E-14 4.52283E-13
 -1      1510 1.95728E+01-1.41144E-03 1.16038E-03-3.82868E-02 2.39819E-14 5.93788E-13
 -1      1511 1.95148E+01-1.51819E-03 8.55979E-04-3.91584E-02 1.73871E-14 6.49962E-13
 -1      1512 1.95645E+01-4.44947E-03-2.14877E-04-7.94945E-02 4.08717E-14 4.78735E-13
 -1      1513 1.96610E+01-1.32402E-03 9.40269E-04-3.18191E-02 3.94066E-14 5.68749E-13
 -1      1514 1.96124E+01-1.67676E-03 6.10657E-04-3.28083E-02 3.84169E-14 5.97136E-13
 -1      1515 1.96477E+01-4.19680E-03-8.41308E-05-6.76289E-02 5.55161E-14 4.32688E-13
 -1      1516 1.97340E+01-1.18576E-03 7.50582E-04-2.58163E-02 3.20399E-14 5.36913E-13
 -1      1517 1.96943E+01-1.66700E-03 4.28814E-04-2.68174E-02 2.67081E-14 5.31413E-13
 -1      1518 1.97190E+01-3.78145E-03 2.07855E-06-5.60240E-02 6.16411E-14 4.11804E-13
 -1      1519 1.97931E+01-1.02103E-03 5.89325E-04-2.04902E-02 8.16090E-14 3.24286E-13
 -1      1520 1.97613E+01-1.55158E-03 2.95151E-04-2.14356E-02 7.42118E-14 4.64735E-13
 -1      1521 1.97784E+01-3.28562E-03 5.53157E-05-4.53327E-02 1.13746E-13 2.86923E-13
 -1      1522 1.98399E+01-8.44569E-04 4.53842E-04-1.59480E-02 5.30950E-15 2.37362E-13
 -1      1523 1.98151E+01-1.37200E-03 1.98714E-04-1.67961E-02 3.72509E-14 2.66732E-13
 -1      1524 1.98269E+01-2.76117E-03 8.40660E-05-3.59259E-02 9.63128E-14 2.01429E-13
 -1      1525 1.98765E+01-6.63779E-04 3.40839E-04-1.22363E-02-7.47588E-14 3.11219E-13
 -1      1526 1.98574E+01-1.15376E-03 1.31335E-04-1.29613E-02-6.57955E-14 2.35037E-13
 -1      1527 1.98657E+01-2.23755E-03 9.41561E-05-2.79968E-02-2.87622E-14 1.70802E-13
 -1      1528 1.99049E+01-4.80336E-04 2.46537E-04-9.37296E-03 1.81198E-14 3.42295E-13
 -1      1529 1.98903E+01-9.10014E-04 8.68449E-05-9.95741E-03 5.22304E-15 3.38001E-13
 -1      1530 1.98966E+01-1.72735E-03 8.91186E-05-2.16388E-02-3.91342E-14 2.00614E-13
 -1      1531 1.99272E+01-2.91376E-04 1.66844E-04-7.37311E-03-2.35876E-14 2.46617E-13
 -1      1532 1.99160E+01-6.44047E-04 6.06265E-05-7.80157E-03 3.79429E-14 3.07951E-13
 -1      1533 1.99213E+01-1.23030E-03 7.04530E-05-1.69049E-02 5.94188E-14 1.94924E-13
 -1      1534 1.99459E+01-9.03076E-05 9.74704E-05-6.26906E-03 1.51735E-14 2.51359E-13
 -1      1535 1.99367E+01-3.51075E-04 4.93294E-05-6.52284E-03-7.90930E-15 2.37612E-13
 -1      1536 1.99418E+01-7.36207E-04 3.77845E-05-1.38538E-02 1.75127E-14 1.26575E-13
 -1      1537 1.99632E+01 1.32719E-04 3.39831E-05-6.12700E-03-7.66836E-14 3.66143E-13
 -1      1538 1.99549E+01-1.93288E-05 5.06658E-05-6.17948E-03-3.18538E-14 2.92351E-13
 -1      1539 1.99602E+01-2.26897E-04-1.10830E-05-1.25872E-02-4.26980E-14 2.10958E-13
 -1      1540 1.99820E+01 3.90586E-04-2.82233E-05-7.06165E-03 1.10483E-14 3.89320E-13
 -1      1541 1.99730E+01 3.69388E-04 6.32442E-05-6.87380E-03-2.11793E-14 3.59501E-13
 -1      1542 1.99788E+01 3.22603E-04-8.02186E-05-1.32804E-02-6.00427E-14 2.59995E-13
 -1      1543 2.00053E+01 6.99168E-04-9.40121E-05-9.24998E-03 5.29274E-14 2.67454E-13
 -1      1544 1.99939E+01 8.39571E-04 8.64183E-05-8.76584E-03 3.64623E-14 3.74676E-13
 -1      1545 2.00003E+01 9.43480E-04-1.75714E-04-1.62109E-02 5.12763E-14 2.42172E-13
 -1      1546 2.00367E+01 1.07743E-03-1.68669E-04-1.29448E-02 2.23197E-14 2.21589E-13
 -1      1547 2.00211E+01 1.42224E-03 1.20127E-04-1.20865E-02 3.86615E-14 2.09624E-13
 -1      1548 2.00277E+01 1.67299E-03-3.05946E-04-2.17837E-02 8.65321E-14 1.02970E-13
 -1      1549 2.00809E+01 1.54755E-03-2.58173E-04-1.84887E-02-4.82073E-14 3.00428E-13
 -1      1550 2.00585E+01 2.15540E-03 1.64681E-04-1.71511E-02-6.60967E-14 2.38902E-13
 -1      1551 2.00647E+01 2.55459E-03-4.81951E-04-3.05575E-02-5.37112E-14 2.92366E-14
 -1      1552 2.01431E+01 2.13492E-03-3.69616E-04-2.63281E-02-4.66869E-14 3.31925E-13
 -1      1553 2.01111E+01 3.08458E-03 2.20422E-04-2.43721E-02-1.19185E-14 3.52916E-13
 -1      1554 2.01158E+01 3.63814E-03-7.17919E-04-4.32702E-02-5.49224E-14 1.93959E-14
 -1      1555 2.02303E+01 2.86755E-03-5.11819E-04-3.70265E-02 4.48418E-14 3.07719E-13
 -1      1556 2.01849E+01 4.26300E-03 2.87142E-04-3.42726E-02 3.07821E-15 3.23737E-13
 -1      1557 2.01863E+01 4.97972E-03-1.03177E-03-6.08628E-02 1.45776E-14 1.42900E-13
 -1      1558 2.03508E+01 3.77423E-03-6.96171E-04-5.12734E-02 4.48070E-14 1.73377E-13
 -1      1559 2.02874E+01 5.75040E-03 3.63057E-04-4.74940E-02 9.21341E-14 3.14661E-13
 -1      1560 2.02828E+01 6.63999E-03-1.44568E-03-8.44978E-02 1.42947E-13 2.48190E-13
 -1      1561 2.05150E+01 4.87960E-03-9.37598E-04-6.98801E-02-7.57321E-14 1.10771E-13
 -1      1562 2.04278E+01 7.60853E-03 4.43055E-04-6.47940E-02-5.06629E-14 8.34154E-14
 -1      1563 2.04133E+01 8.67923E-03-1.98617E-03-1.15561E-01-1.80650E-14 2.37960E-13
 -1      1564 2.07351E+01 6.19307E-03-1.25513E-03-9.37453E-02-1.16978E-14 1.90651E-13
 -1      1565 2.06173E+01 9.88929E-03 5.15817E-04-8.70183E-02-3.44291E-14 1.73252E-13
 -1      1566 2.05873E+01 1.11445E-02-2.68301E-03-1.55620E-01-1.07430E-13 1.49914E-13
 -1      1567 2.10257E+01 7.68543E-03-1.67036E-03-1.23754E-01-5.90795E-14 1.68205E-13
 -1      1568 2.08689E+01 1.26070E-02 5.59546E-04-1.15015E-01 7.72819E-16 1.50287E-13
 -1      1569 2.08159E+01 1.40406E-02-3.56479E-03-2.06298E-01-2.09954E-14 1.56582E-13
 -1      1570 2.14029E+01 9.24226E-03-2.19912E-03-1.60538E-01-1.14096E-13 5.35565E-13
 -1      1571 2.11977E+01 1.56803E-02 5.36800E-04-1.49433E-01-1.35689E-13 3.03495E-13
 -1      1572 2.11112E+01 1.72689E-02-4.64711E-03-2.68960E-01-2.11333E-13 2.94313E-13
 -1      1573 2.18828E+01 1.05767E-02-2.82516E-03-2.03975E-01 9.42389E-15 6.49042E-13
 -1      1574 2.16195E+01 1.88158E-02 3.91545E-04-1.90298E-01-4.17637E-14 5.60642E-13
 -1      1575 2.14859E+01 2.05042E-02-5.90445E-03-3.44041E-01-1.46346E-13 3.86108E-13
 -1      1576 2.24783E+01 1.10770E-02-3.43269E-03-2.52198E-01 2.25698E-13 4.22221E-13
 -1      1577 2.21489E+01 2.12950E-02 5.82165E-05-2.36172E-01 1.66928E-13 6.63615E-13
 -1      1578 2.19507E+01 2.29641E-02-7.20939E-03-4.29719E-01 1.81261E-13 2.24191E-13
 -1      1579 2.31918E+01 9.56953E-03-3.65973E-03-2.99806E-01 3.67458E-15 3.27779E-13
 -1      1580 2.27939E+01 2.16131E-02-4.94545E-04-2.82636E-01 9.23595E-14 5.00466E-13
 -1      1581 2.25106E+01 2.30082E-02-8.21243E-03-5.19454E-01 1.28880E-13 4.46053E-13
 -1      1582 2.40022E+01 4.02603E-03-2.63957E-03-3.34913E-01 4.35995E-14 1.74971E-13
 -1      1583 2.35471E+01 1.69655E-02-1.14637E-03-3.19765E-01 1.46625E-14 2.41598E-13
 -1      1584 2.31574E+01 1.75308E-02-8.13605E-03-5.97837E-01 1.03571E-13 4.47553E-13
 -1      1585 2.48444E+01-8.57721E-03 1.30425E-03-3.35070E-01 4.36944E-14-1.96371E-14
 -1      1586 2.43697E+01 2.75891E-03-1.40173E-03-3.28542E-01 7.13028E-14 5.03590E-14
 -1      1587 2.38584E+01 1.28751E-03-5.50342E-03-6.34410E-01 7.45840E-14 1.86476E-13
 -1      1588 2.55794E+01-3.16249E-02 1.06142E-02-2.63567E-01 1.24294E-13 1.05985E-13
 -1      1589 2.51677E+01-2.71403E-02-1.33102E-04-2.77270E-01-6.18273E-14 4.92592E-14
 -1      1590 2.45387E+01-3.31589E-02 1.98304E-03-5.76729E-01-5.48520E-15 1.14336E-13
 -1      1591 2.59654E+01-6.61821E-02 2.71115E-02-7.13714E-02 1.02236E-13-1.61374E-13
 -1      1592 2.57631E+01-7.77455E-02 4.31926E-03-1.21967E-01 1.78094E-13 1.05325E-13
 -1      1593 2.50615E+01-9.29895E-02 1.67925E-02-3.48186E-01 1.99705E-13-9.60430E-14
 -1      1594 2.56571E+01-1.05010E-01 4.79565E-02 2.84115E-01 4.30836E-14-1.27991E-13
 -1      1595 2.58753E+01-1.45449E-01 1.28512E-02 1.80262E-01-1.13798E-14-1.58800E-13
 -1      1596 2.52155E+01-1.76967E-01 3.90728E-02 1.35455E-01 3.83582E-14-5.22438E-14
 -1      1597 2.42867E+01-1.24355E-01 5.97235E-02 7.89900E-01-1.62374E-13-1.08497E-13
 -1      1598 2.51492E+01-2.05328E-01 2.23402E-02 6.32874E-01-9.95731E-15-1.18926E-13
 -1      1599 2.47340E+01-2.59063E-01 6.20945E-02 9.09297E-01-1.63480E-14 1.43097E-14
 -1      1600 2.16866E+01-8.81943E-02 3.89288E-02 1.30469E+00 2.68882E-14 7.14012E-14
 -1      1601 2.32869E+01-2.05511E-01 2.20951E-02 1.13550E+00-1.11591E-13-9.62980E-14
 -1      1602 2.33859E+01-2.74240E-01 6.84978E-02 1.85084E+00-1.14925E-13-9.25059E-14
 -1      1603 1.82117E+01 1.88777E-02-2.70092E-02 1.54780E+00-2.93060E-14-6.48648E-14
 -1      1604 2.03163E+01-9.73040E-02-7.39688E-04 1.45190E+00 6.94568E-14-4.88498E-15
 -1      1605 2.11742E+01-1.42126E-01 4.03183E-02 2.58946E+00 6.52265E-14-4.32432E-14
 -1      1606 1.48725E+01 1.50431E-01-1.09660E-01 1.25196E+00 2.41140E-13-3.71786E-13
 -1      1607 1.68512E+01 1.02399E-01-4.42323E-02 1.31199E+00 1.38854E-13-1.66589E-13
 -1      1608 1.85450E+01 1.45824E-01-1.83895E-02 2.61476E+00 2.42667E-13-3.85594E-14
 -1      1609 1.29394E+01 2.09019E-01-1.43187E-01 4.53054E-01 5.49422E-14-8.45775E-13
 -1      1610 1.40304E+01 2.75032E-01-7.85845E-02 6.59717E-01 1.07494E-13-7.18370E-13
 -1      1611 1.63626E+01 4.45619E-01-6.75678E-02 1.67045E+00 3.68122E-13-4.96582E-13
 -1      1612 1.30494E+01 1.55844E-01-1.05555E-01-4.32532E-01-6.15896E-14-7.63056E-13
 -1      1613 1.28896E+01 3.02643E-01-7.43687E-02-1.94454E-01 1.24727E-14-7.51770E-13
 -1      1614 1.54135E+01 5.21268E-01-8.20427E-02 1.43755E-01 9.10522E-14-5.46715E-13
 -1      1615 1.47871E+01 5.53189E-02-2.58946E-02-9.80925E-01-7.80521E-14-6.05377E-13
 -1      1616 1.36376E+01 1.98311E-01-3.59343E-02-8.18560E-01-6.25194E-14-7.20521E-13
 -1      1617 1.58303E+01 3.36292E-01-6.39324E-02-1.18326E+00-1.40429E-13-4.50091E-13
 -1      1618 1.71419E+01-3.41102E-02 4.91119E-02-1.08056E+00-5.25426E-14-3.76033E-13
 -1      1619 1.56150E+01 5.61807E-02 1.24471E-02-1.02233E+00-9.82745E-14-4.64073E-13
 -1      1620 1.70862E+01 6.67451E-02-2.95885E-02-1.80179E+00-2.04882E-13-3.31027E-13
 -1      1621 1.91444E+01-1.62897E-01 1.07676E-01-7.91431E-01-3.27186E-14-3.11445E-13
 -1      1622 1.78771E+01-1.10135E-01 6.08148E-02-8.25239E-01-1.36037E-14-3.56659E-13
 -1      1623 1.85167E+01-2.04873E-01 2.47982E-02-1.67882E+00-5.55805E-15-3.65458E-13
 -1      1624 1.96611E+01-3.62373E-01 1.53391E-01-3.10265E-01-1.47021E-13-1.71696E-13
 -1      1625 2.00526E+01-2.22059E+00 1.06270E-02-9.67571E-01-3.17885E-13-2.17498E-13
 -1      1626 1.98962E+01-1.16196E+00 5.46238E-02-9.01065E-01-2.78319E-13-2.20862E-13
 -1      1627 2.04342E+01-3.18693E+00-7.36434E-02-4.46611E-01-5.22853E-13-2.29816E-14
 -1      1628 2.02438E+01-2.63799E+00-2.65331E-02-6.32152E-01-3.91479E-13-1.92575E-13
 -1      1629 2.02406E+01-1.70046E+00-4.31635E-02-1.41920E+00-2.70332E-13-2.37893E-13
 -1      1630 2.07557E+01-1.83728E+00-1.41771E-01 1.05838E+00-7.56881E-13-2.34979E-13
 -1      1631 2.06335E+01-3.05443E+00-1.32039E-01 6.54211E-01-6.05911E-13 4.01207E-14
 -1      1632 2.10208E+01-2.09086E+00-1.23849E-01 2.48540E-01-1.64251E-13-1.00517E-13
 -1      1633 2.07568E+01 3.14631E+00-8.83946E-02 3.28287E+00-1.33082E-12-2.22385E-13
 -1      1634 2.08752E+01-6.69401E-01-1.88717E-01 2.74175E+00-1.06540E-12-4.30697E-13
 -1      1635 2.15126E+01-1.00505E+00-1.91564E-01 3.55527E+00-4.06487E-13-5.64611E-13
 -1      1636 1.99841E+01 1.07085E+01 1.67275E-01 4.70736E+00-1.70353E-12-1.90639E-13
 -1      1637 2.05084E+01 5.40394E+00-4.64477E-02 4.49849E+00-1.44323E-12-1.99972E-13
 -1      1638 2.11305E+01 2.27228E+00-8.20486E-02 7.13796E+00-8.21454E-13-2.67786E-13
 -1      1639 1.86722E+01 1.74387E+01 4.74843E-01 3.28213E+00-1.51365E-12 2.34202E-13
 -1      1640 1.93087E+01 1.34419E+01 3.18420E-01 3.89445E+00-1.74061E-12 5.11535E-14
 -1      1641 1.91004E+01 7.26914E+00 1.85689E-01 7.87394E+00-7.70335E-13-5.95080E-14
 -1      1642 1.81725E+01 1.84597E+01 5.22267E-01-3.91187E-01-1.42369E-12 7.29139E-14
 -1      1643 1.83709E+01 1.85896E+01 6.00993E-01 5.59940E-01-1.60763E-12 1.57208E-13
 -1      1644 1.73146E+01 1.13358E+01 5.63264E-01 3.62450E+00-1.03149E-12 1.90847E-13
 -1      1645 1.88138E+01 1.46836E+01 3.58310E-01-3.48012E+00-1.08846E-12-1.74305E-14
 -1      1646 1.85825E+01 1.77088E+01 5.45391E-01-2.96832E+00-1.21370E-12 9.63396E-14
 -1      1647 1.70365E+01 1.16637E+01 5.89674E-01-2.82783E+00-9.63859E-13 2.13163E-13
 -1      1648 1.99466E+01 8.02670E+00 9.10627E-02-4.87158E+00-3.28459E-13 5.95135E-13
 -1      1649 1.95810E+01 1.26093E+01 3.06314E-01-4.84311E+00-7.23255E-13 1.87392E-13
 -1      1650 1.84804E+01 8.71681E+00 3.58745E-01-7.50035E+00-6.24348E-13 4.31322E-13
 -1      1651 2.07313E+01 1.03782E+00-1.17465E-01-4.20508E+00 3.80029E-13 3.46809E-13
 -1      1652 2.04940E+01 5.49195E+00 2.70398E-02-4.56415E+00 5.83977E-14 5.31322E-13
 -1      1653 2.03572E+01 4.03082E+00 4.03322E-02-8.63812E+00-8.56260E-14 9.41316E-13
 -1      1654 2.08233E+01-4.03073E+00-1.62296E-01-2.31939E+00 1.44393E-12 5.34024E-13
 -1      1655 2.08111E+01-1.05398E+00-1.26246E-01-2.78225E+00 7.79710E-13 6.80268E-13
 -1      1656 2.14186E+01-4.07671E-01-1.58620E-01-6.43277E+00 4.69957E-13 1.00009E-12
 -1      1657 2.05123E+01-6.04525E+00-8.80765E-02-5.11487E-01 1.50435E-12-1.93436E-13
 -1      1658 2.06354E+01-5.09302E+00-1.17036E-01-8.30434E-01 1.51623E-12 7.14359E-14
 -1      1659 2.13839E+01-3.21438E+00-1.67859E-01-2.93425E+00 7.31654E-13 5.49553E-13
 -1      1660 2.02129E+01-5.64893E+00-1.56589E-02 5.47400E-01 9.09078E-13-4.33570E-13
 -1      1661 2.03446E+01-6.16092E+00-4.51626E-02 4.11726E-01 1.49003E-12-2.80297E-13
 -1      1662 2.08266E+01-4.13997E+00-9.67253E-02-1.42793E-01 8.06927E-13-4.68521E-13
 -1      1663 2.00335E+01-4.11938E+00 1.42225E-02 9.59485E-01 4.18304E-13-1.80862E-13
 -1      1664 2.01286E+01-5.23803E+00-1.10298E-05 9.28549E-01 8.04218E-13-3.19625E-13
 -1      1665 2.03302E+01-3.75624E+00-3.44675E-02 1.32448E+00 6.79908E-13-4.87527E-13
 -1      1666 1.99198E+01-2.32924E+00 1.14148E-02 9.73388E-01 6.29913E-14-1.63280E-13
 -1      1667 1.99926E+01-3.50487E+00 1.26405E-02 9.90390E-01 3.26489E-13-2.06142E-13
 -1      1668 2.00410E+01-2.71862E+00 1.12675E-02 1.79431E+00 2.80886E-13-4.41746E-13
 -1      1669 1.97581E+01-9.23308E-01 7.59425E-03 8.91300E-01-5.46230E-14-1.78985E-13
 -1      1670 1.98136E+01-1.73478E+00 7.63007E-03 1.03081E+00 7.75074E-14-4.84369E-14
 -1      1671 1.97821E+01-1.44260E+00 5.09342E-02 1.80400E+00 4.20084E-13-3.21901E-13
 -1      1672 1.92789E+01-5.57898E-01 3.69570E-02 1.57999E+00 4.88404E-13-9.29794E-14
 -1      1673-1.63612E-01-1.86638E+01-2.74542E+00-6.21734E-01 1.88249E-12 4.43229E-13
 -1      1674-3.03520E-01-2.19752E+01-3.14841E+00 5.47042E-01 1.79304E-12 2.15328E-13
 -1      1675 2.75113E+00-9.29210E+00-1.76177E+00 1.97175E+00 1.69686E-12 7.02438E-13
 -1      1676 1.45726E+00-1.73777E+01-2.82205E+00 6.65055E-01 1.93934E-12 6.67362E-13
 -1      1677 1.18893E+01 1.34568E+00-3.43919E-01 8.50261E+00 1.47748E-12 9.43023E-13
 -1      1678 7.18299E+00-6.42890E+00-1.61262E+00 4.16909E+00 1.66667E-12 8.07132E-13
 -1      1679 2.45376E+01 8.61317E+00 7.78668E-01 1.45831E+01 1.04738E-12 9.93428E-13
 -1      1680 1.61421E+01 4.64202E+00-3.74964E-01 9.88076E+00 1.56275E-12 1.00964E-12
 -1      1681 4.15286E+01 9.30049E+00 1.58432E+00 1.70466E+01 6.78790E-13 5.24469E-13
 -1      1682 3.08105E+01 9.31622E+00 6.52930E-01 1.49594E+01 8.06466E-13 8.69527E-13
 -1      1683 5.73842E+01 7.27591E+00 2.21604E+00 1.42971E+01 1.53544E-13-7.28306E-14
 -1      1684 4.72183E+01 9.75437E+00 1.52820E+00 1.66695E+01 5.51448E-13 3.23075E-13
 -1      1685 6.55702E+01 4.66826E+00 2.33071E+00 6.23263E+00 2.13940E-13-4.63130E-13
 -1      1686 6.13114E+01 6.64113E+00 2.16318E+00 1.21772E+01 1.46660E-13-2.36811E-13
 -1      1687 6.18187E+01 4.53001E+00 1.86749E+00-3.42429E+00 3.80584E-13-9.26259E-13
 -1      1688 6.48764E+01 4.51012E+00 2.22030E+00 3.16806E+00 3.39284E-13-4.90719E-13
 -1      1689 4.98180E+01 5.55674E+00 1.19240E+00-9.65184E+00 7.38826E-13-1.62470E-12
 -1      1690 5.85599E+01 4.17116E+00 1.85421E+00-5.82610E+00 5.37625E-13-1.22868E-12
 -1      1691 3.36100E+01 5.98722E+00 4.22140E-01-1.15527E+01 1.08646E-12-1.83875E-12
 -1      1692 4.48659E+01 5.24638E+00 1.32344E+00-1.18622E+01 7.93032E-13-1.79101E-12
 -1      1693 1.82227E+01 3.26215E+00-4.38167E-01-8.21722E+00 1.72640E-12-1.69154E-12
 -1      1694 2.73172E+01 5.39626E+00 5.53484E-01-1.16601E+01 1.40499E-12-1.75682E-12
 -1      1695 7.33839E+00-4.69952E+00-1.23302E+00-2.65548E+00 2.09788E-12-1.46139E-12
 -1      1696 1.32122E+01 9.30035E-01-2.88626E-01-6.88255E+00 1.98952E-12-1.58062E-12
 -1      1697 1.24873E+00-1.33759E+01-1.80959E+00 9.31998E-01 1.59939E-12-1.18089E-12
 -1      1698 2.86993E+00-6.91237E+00-1.14234E+00-9.05960E-01 2.11409E-12-1.69481E-12
 -1      1699-4.05419E-01-1.92480E+01-1.92742E+00 7.75384E-01 3.47444E-13-6.69298E-13
 -1      1700-3.31777E-01-1.51162E+01-1.60611E+00 1.46797E+00 1.21625E-12-9.45882E-13
 -1      1701-1.02056E+00-2.09494E+01-2.00587E+00-5.03338E-01-9.71945E-13-5.29132E-13
 -1      1702-1.12436E+00-2.06506E+01-1.99531E+00 1.50568E+00-2.99760E-14-6.01602E-13
 -1      1703-5.41348E-01-1.61326E+01-1.64191E+00-1.14892E+00-1.49580E-12-4.70679E-13
 -1      1704-5.58001E-01-1.99392E+01-1.97439E+00-3.03865E-02-1.17539E-12-2.95569E-13
 -1      1705 2.85367E+00-7.19343E+00-1.02013E+00 1.50972E+00-1.81077E-12-9.51128E-13
 -1      1706 1.33791E+00-1.39459E+01-1.69229E+00-6.72599E-02-1.64080E-12-7.82430E-13
 -1      1707 1.22813E+01 5.69650E-01-2.21627E-01 6.88711E+00-1.26943E-12-7.63389E-13
 -1      1708 7.36086E+00-4.94340E+00-1.04371E+00 3.16913E+00-1.67111E-12-6.41043E-13
 -1      1709 2.51681E+01 5.86990E+00 5.59343E-01 1.17588E+01-6.42819E-13-1.08136E-13
 -1      1710 1.65948E+01 3.24523E+00-3.80919E-01 8.07874E+00-1.18883E-12-5.85754E-13
 -1      1711 4.13635E+01 6.36888E+00 1.24677E+00 1.32627E+01-1.99618E-13 2.76223E-13
 -1      1712 3.09321E+01 6.91676E+00 4.03628E-01 1.23844E+01-3.97016E-13-9.57012E-14
 -1      1713 5.55737E+01 4.64357E+00 1.71370E+00 8.67060E+00 6.92849E-15 9.48575E-13
 -1      1714 4.67350E+01 6.31005E+00 1.11446E+00 1.17067E+01 2.85605E-14 4.97602E-13
 -1      1715 6.31062E+01 4.04298E+00 1.95551E+00 1.61428E-01-4.65739E-13 1.91286E-12
 -1      1716 5.89320E+01 4.70129E+00 1.64388E+00 6.08334E+00-3.32068E-13 1.23657E-12
 -1      1717 6.09267E+01 6.11177E+00 1.92705E+00-9.84320E+00-8.44907E-13 2.81586E-12
 -1      1718 6.32575E+01 4.55453E+00 1.93016E+00-3.15255E+00-5.42510E-13 2.19042E-12
 -1      1719 4.99891E+01 9.75894E+00 1.62865E+00-1.68985E+01-1.81055E-12 3.30513E-12
 -1      1720 5.88127E+01 6.82751E+00 2.11022E+00-1.31872E+01-1.14664E-12 3.05700E-12
 -1      1721 3.31569E+01 1.01367E+01 8.03295E-01-1.55060E+01-1.57085E-12 2.65743E-12
 -1      1722 4.42115E+01 9.28167E+00 1.61132E+00-1.67450E+01-1.67405E-12 3.07709E-12
 -1      1723 1.76788E+01 6.25716E+00-1.48791E-01-1.10958E+01-7.73159E-13 1.50457E-12
 -1      1724 2.67485E+01 9.56139E+00 9.38944E-01-1.57161E+01-1.38689E-12 2.34635E-12
 -1      1725 6.98304E+00-4.38079E+00-1.47996E+00-4.60799E+00 2.45137E-13 3.77365E-13
 -1      1726 1.21301E+01 3.75196E+00-1.13423E-01-9.43105E+00-4.08784E-13 1.20859E-12
 -1      1727 1.73489E+00-1.67505E+01-2.76441E+00-1.08488E+00 1.00320E-12 1.18877E-13
 -1      1728 3.31780E+00-7.95721E+00-1.55588E+00-2.80970E+00 5.58886E-13-4.44089E-14
 -1      1729-4.53858E-01-2.28474E+01-3.32402E+00-9.85084E-01 1.63336E-12 4.11893E-14
 -1      1730-3.15659E-01-1.90037E+01-2.85209E+00 4.59651E-01 1.21625E-12 2.10998E-13
 -1      1731 3.25155E+01 3.24678E+00 7.15585E-01 1.09880E+01 8.22009E-13 5.58664E-13
 -1      1732 2.07695E+01-2.40395E+00-1.95975E-01 1.03001E+01 1.05005E-12 4.39870E-13
 -1      1733 1.97297E+01-6.63927E-01 1.11001E-01-8.63772E-01-1.84713E-13-1.86566E-13
 -1      1734 1.95194E+01-7.52578E-01 3.91289E-02-1.58717E+00-2.40488E-13-2.61506E-13
 -1      1735 1.92801E+00-1.23694E+01-2.01939E+00 4.62104E+00 1.33593E-12 2.98095E-13
 -1      1736 1.01836E+01-8.19187E+00-1.11639E+00 8.42119E+00 1.21858E-12 5.66824E-13
 -1      1737-1.20937E+00-1.33203E+01-2.27135E+00-1.18163E-01 1.04285E-12 3.74589E-13
 -1      1738 4.36448E+01 6.85757E+00 1.30510E+00 9.71922E+00 6.64052E-13-4.18554E-14
 -1      1739 5.25216E+01 9.06338E+00 1.84370E+00 7.59874E+00 4.24660E-13-2.19935E-13
 -1      1740 5.53832E+01 9.26748E+00 1.91557E+00 3.76083E+00 4.46976E-13-2.50980E-13
 -1      1741 5.15964E+01 8.02633E+00 1.57069E+00-5.47695E-02 6.19671E-13-6.63469E-13
 -1      1742 4.47157E+01 5.01949E+00 1.19143E+00-3.78564E+00 7.54938E-13-1.12377E-12
 -1      1743 3.37912E+01 1.52942E+00 5.70990E-01-6.50581E+00 1.00020E-12-1.15141E-12
 -1      1744 2.14495E+01-3.12428E+00-1.67504E-01-6.31742E+00 1.31006E-12-8.92175E-13
 -1      1745 1.04398E+01-7.95707E+00-7.45894E-01-4.92207E+00 1.23890E-12-1.29341E-12
 -1      1746 2.40185E+00-1.19955E+01-1.20404E+00-2.71617E+00 8.08131E-13-1.39214E-12
 -1      1747-1.28254E+00-1.44078E+01-1.37461E+00-8.87180E-01 1.11466E-13-1.17245E-12
 -1      1748-1.64423E+00-1.47236E+01-1.42358E+00 1.14639E+00-3.73007E-13-7.00884E-13
 -1      1749 1.90239E+00-1.19238E+01-1.11512E+00 3.33361E+00-7.54508E-13-7.11292E-13
 -1      1750 1.01782E+01-7.77138E+00-5.50740E-01 5.85677E+00-8.77076E-13-1.79801E-13
 -1      1751 2.02118E+01-3.38899E+00-2.29291E-01 6.88278E+00-8.03135E-13 3.00981E-13
 -1      1752 3.13796E+01 1.89770E+00 4.54986E-01 7.52770E+00-4.00902E-13 3.17857E-13
 -1      1753 4.26366E+01 5.26581E+00 1.08391E+00 6.11001E+00-2.19477E-13 6.86340E-13
 -1      1754 5.05975E+01 7.49361E+00 1.47617E+00 2.41486E+00-4.04676E-13 1.35592E-12
 -1      1755 5.37991E+01 9.08359E+00 1.65972E+00-2.13699E+00-8.44380E-13 1.69237E-12
 -1      1756 5.22982E+01 9.60309E+00 1.70969E+00-7.09860E+00-1.07164E-12 2.12297E-12
 -1      1757 4.44671E+01 7.81690E+00 1.21331E+00-9.63124E+00-1.13300E-12 1.97931E-12
 -1      1758 3.40729E+01 4.50583E+00 8.66148E-01-1.11448E+01-5.58331E-13 2.17015E-12
 -1      1759 2.16284E+01-4.18298E-01 7.98579E-02-1.10635E+01-2.00284E-13 1.63203E-12
 -1      1760 1.02528E+01-7.14768E+00-1.05028E+00-8.74401E+00 3.44613E-13 7.36244E-13
 -1      1761 1.90702E+00-1.26055E+01-2.11388E+00-4.94384E+00 9.72222E-13 3.71370E-13
 -1      1762 2.28612E+01 1.98496E+00-2.35796E-02-2.72207E+00-2.67418E-13 1.10800E-12
 -1      1763 1.98240E+01 3.71449E+00-3.55649E-02-2.15129E+00-3.19726E-13-3.41588E-13
 -1      1764 2.00594E+01 3.56225E+00-4.02522E-02-2.44430E+00-3.75019E-13-2.30593E-13
 -1      1765 2.03651E+01 3.18183E+00-4.57203E-02-2.58427E+00-3.80552E-13-8.40231E-14
 -1      1766 2.05853E+01 2.81004E+00-1.42513E-01-2.85273E+00-4.13742E-13 1.19543E-13
 -1      1767 2.04249E+01 2.69348E+00-4.43807E-03-2.22524E+00-3.96889E-13-1.34219E-13
 -1      1768 1.93537E+01 4.18975E+00-2.02071E-02-1.27012E+00-1.49871E-13-5.25812E-13
 -1      1769 1.94272E+01 4.14942E+00-1.75014E-02-1.49432E+00-1.93503E-13-5.04076E-13
 -1      1770 1.92571E+01 4.29493E+00-1.67967E-02-8.59271E-01-6.83980E-14-5.44353E-13
 -1      1771 1.93000E+01 4.27119E+00-1.43312E-02-1.06992E+00-1.10398E-13-5.43366E-13
 -1      1772 1.95258E+01 3.78320E+00-9.20867E-03-1.11962E+00-1.41094E-13-5.05328E-13
 -1      1773 1.92053E+01 4.35536E+00-1.48033E-02-4.66496E-01 2.24516E-14-5.42198E-13
 -1      1774 1.92274E+01 4.34256E+00-1.33074E-02-6.66700E-01-1.93209E-14-5.45149E-13
 -1      1775 1.94284E+01 3.90356E+00-9.19344E-03-7.32817E-01-4.63432E-14-5.19192E-13
 -1      1776 1.91857E+01 4.38101E+00-1.36663E-02-8.35613E-02 1.09309E-13-5.19959E-13
 -1      1777 1.91922E+01 4.37708E+00-1.32126E-02-2.78895E-01 6.52747E-14-5.33082E-13
 -1      1778 1.93777E+01 3.96816E+00-9.15449E-03-3.58046E-01 4.33863E-14-5.07002E-13
 -1      1779 1.91939E+01 4.37572E+00-1.31657E-02 2.97939E-01 1.70788E-13-5.03203E-13
 -1      1780 1.91862E+01 4.38018E+00-1.37490E-02 1.02449E-01 1.41918E-13-5.17700E-13
 -1      1781 1.93629E+01 3.98761E+00-9.14169E-03 1.05626E-02 1.31758E-13-4.93616E-13
 -1      1782 1.92314E+01 4.33853E+00-1.33232E-02 6.86435E-01 2.36547E-13-4.62769E-13
 -1      1783 1.92080E+01 4.35222E+00-1.49146E-02 4.85738E-01 2.04798E-13-4.91390E-13
 -1      1784 1.93804E+01 3.96489E+00-9.18450E-03 3.79345E-01 1.95636E-13-4.77679E-13
 -1      1785 1.93054E+01 4.26511E+00-1.44044E-02 1.08389E+00 3.09658E-13-3.73536E-13
 -1      1786 1.92618E+01 4.28957E+00-1.69716E-02 8.76012E-01 2.71093E-13-4.20265E-13
 -1      1787 1.94336E+01 3.89737E+00-9.19024E-03 7.51272E-01 2.72250E-13-4.17869E-13
 -1      1788 1.94376E+01 4.13788E+00-1.73976E-02 1.51374E+00 4.00641E-13-2.52173E-13
 -1      1789 1.93608E+01 4.18045E+00-2.05028E-02 1.28427E+00 3.51074E-13-3.20331E-13
 -1      1790 1.95337E+01 3.77342E+00-9.23639E-03 1.13483E+00 3.54620E-13-3.18722E-13
 -1      1791 1.96675E+01 3.92127E+00-2.51878E-02 1.97871E+00 4.69599E-13-8.21149E-14
 -1      1792 1.95343E+01 3.99804E+00-2.69066E-02 1.72141E+00 4.27944E-13-1.82087E-13
 -1      1793 1.97078E+01 3.56627E+00-8.69356E-03 1.53438E+00 4.40622E-13-1.84519E-13
 -1      1794 2.00769E+01 3.52286E+00-4.51784E-02 2.47115E+00 5.10803E-13 1.82743E-13
 -1      1795 1.98365E+01 3.68334E+00-3.97271E-02 2.18203E+00 4.85089E-13 2.08444E-14
 -1      1796 2.00050E+01 3.22303E+00-5.26993E-03 1.93363E+00 5.00667E-13-2.06606E-15
 -1      1797 2.09229E+01 2.68180E+00-5.76415E-02 2.85697E+00 4.57012E-13 6.75120E-13
 -1      1798 2.04152E+01 3.09696E+00-5.04298E-02 2.61512E+00 4.72320E-13 3.82042E-13
 -1      1799 2.05189E+01 2.60998E+00 3.18813E-03 2.24364E+00 5.05606E-13 2.88169E-13
 -1      1800 2.17335E+01 1.21294E+00-1.22088E-01 2.32922E+00 3.63938E-13 1.24183E-12
 -1      1801 2.12769E+01 2.26302E+00 1.16167E-04 2.73971E+00 4.15709E-13 8.67834E-13
 -1      1802 2.09396E+01 1.68502E+00-2.29512E-02 2.13938E+00 4.70382E-13 6.57113E-13
 -1      1803 2.09550E+01 7.78661E-01-6.24379E-02 1.52352E+00 3.71279E-13 1.11736E-12
 -1      1804 2.17992E+01 2.45824E+00 9.08473E-02-3.04753E+00-3.57020E-13 4.79700E-13
 -1      1805 2.01047E+01 2.97964E-01-8.90798E-03 6.56358E-01 2.98248E-13 9.31448E-13
 -1      1806 2.06565E+01 4.40417E-01-1.24634E-02 1.03341E+00 3.09176E-13 1.03038E-12
 -1      1807 2.07474E+01 8.45120E-01 2.24333E-03 1.41436E+00 3.82593E-13 7.64109E-13
 -1      1808 2.15095E+01 1.74275E+00 7.94461E-02-2.33639E+00-3.80921E-13 3.33969E-13
 -1      1809 2.05241E+01 5.00478E-01 3.25318E-02-9.20864E-01-3.18023E-13 3.01931E-13
 -1      1810 2.00924E+01 3.51896E-01 7.58831E-03-6.29066E-01-2.86854E-13 2.25752E-13
 -1      1811 1.98979E+01 2.57436E-01 2.74150E-02-3.90643E-01-2.63559E-13 2.19739E-13
 -1      1812 1.97072E+01 1.78205E-01 1.04120E-02-2.52736E-01-2.14885E-13 1.47047E-13
 -1      1813 2.02019E+01 4.83898E-01-5.72823E-03-7.22086E-01-3.16755E-13 6.38786E-14
 -1      1814 1.95854E+01 1.32818E-01 1.66786E-02-1.19101E-01-1.57658E-13 1.50440E-13
 -1      1815 1.95075E+01 9.31025E-02 6.98204E-03-4.82973E-02-1.35097E-13 1.05495E-13
 -1      1816 1.98760E+01 2.44225E-01-5.70641E-03-2.94695E-01-2.27065E-13 6.47013E-14
 -1      1817 1.94428E+01 6.83930E-02 8.69025E-03 2.52015E-02-1.23282E-13 1.02875E-13
 -1      1818 1.94285E+01 4.66739E-02 4.11380E-03 6.13559E-02-8.93504E-14 6.30941E-14
 -1      1819 1.96937E+01 1.25242E-01-4.61064E-03-5.78538E-02-1.57088E-13 3.53038E-14
 -1      1820 1.94025E+01 3.23107E-02 4.23134E-03 1.00007E-01-8.23957E-14 5.81024E-14
 -1      1821 1.94225E+01 1.98431E-02 2.42798E-03 1.16724E-01-7.55607E-14 2.31424E-14
 -1      1822 1.96074E+01 6.08456E-02-3.44767E-03 7.16307E-02-1.15426E-13 2.44022E-14
 -1      1823 1.94208E+01 1.11760E-02 1.84544E-03 1.34541E-01-8.07134E-14 4.75889E-15
 -1      1824 1.94580E+01 3.96095E-03 1.43876E-03 1.39871E-01-6.80997E-14-2.21242E-15
 -1      1825 1.95833E+01 2.38789E-02-2.32739E-03 1.37849E-01-8.82616E-14 8.69400E-15
 -1      1826 1.94704E+01-1.26921E-03 5.41440E-04 1.45099E-01-6.53858E-14-1.04914E-14
 -1      1827 1.95147E+01-5.29668E-03 8.19983E-04 1.43743E-01-5.99200E-14-5.53239E-15
 -1      1828 1.95968E+01 2.24770E-03-1.42600E-03 1.65865E-01-8.52204E-14-2.59853E-14
 -1      1829 1.95345E+01-8.33302E-03-1.83038E-04 1.41492E-01-8.22396E-14-1.57960E-14
 -1      1830 1.95797E+01-1.03535E-02 4.17429E-04 1.36372E-01-6.64873E-14-2.73016E-14
 -1      1831 1.96313E+01-1.01409E-02-7.77265E-04 1.70804E-01-6.86606E-14-4.84732E-14
 -1      1832 1.96025E+01-1.19522E-02-5.73070E-04 1.29924E-01-9.20634E-14-6.47264E-14
 -1      1833 1.96453E+01-1.26955E-02 1.56314E-04 1.22916E-01-9.71413E-14-1.21848E-13
 -1      1834 1.96756E+01-1.67023E-02-3.40428E-04 1.62211E-01-1.38190E-13-9.27198E-14
 -1      1835 1.96683E+01-1.33492E-02-7.58356E-04 1.14410E-01-1.00112E-13-1.43478E-13
 -1      1836 1.97067E+01-1.32901E-02-6.60251E-06 1.06725E-01-9.66408E-14-1.87309E-13
 -1      1837 1.97227E+01-1.95258E-02-6.16560E-05 1.46277E-01-1.36561E-13-1.23218E-13
 -1      1838 1.97282E+01-1.33316E-02-8.15523E-04 9.75484E-02-1.11332E-13-1.99028E-13
 -1      1839 1.97615E+01-1.27858E-02-9.99387E-05 8.99550E-02-1.07168E-13-2.18555E-13
 -1      1840 1.97682E+01-1.99648E-02 1.04589E-04 1.27040E-01-1.17796E-13-1.50255E-13
 -1      1841 1.97808E+01-1.24425E-02-7.93416E-04 8.09932E-02-5.75586E-14-2.24075E-13
 -1      1842 1.98088E+01-1.16189E-02-1.43516E-04 7.39642E-02-1.86175E-14-2.04780E-13
 -1      1843 1.98099E+01-1.89217E-02 1.92446E-04 1.07118E-01-9.26324E-14-1.50901E-13
 -1      1844 1.98256E+01-1.10433E-02-7.24194E-04 6.57624E-02-1.51235E-14-2.04690E-13
 -1      1845 1.98486E+01-1.00750E-02-1.50865E-04 5.95743E-02-5.27388E-14-1.65333E-13
 -1      1846 1.98465E+01-1.69975E-02 2.26393E-04 8.81618E-02-1.44759E-14-1.48753E-13
 -1      1847 1.98628E+01-9.36488E-03-6.28985E-04 5.24561E-02-1.00824E-13-1.92160E-13
 -1      1848 1.98815E+01-8.32930E-03-1.30715E-04 4.72619E-02-9.21083E-14-2.11421E-13
 -1      1849 1.98778E+01-1.45806E-02 2.23509E-04 7.11851E-02-8.01018E-14-1.59250E-13
 -1      1850 1.98934E+01-7.54083E-03-5.21251E-04 4.14149E-02-6.31324E-14-1.82366E-13
 -1      1851 1.99085E+01-6.47376E-03-8.80228E-05 3.72982E-02-2.28547E-14-2.11475E-13
 -1      1852 1.99042E+01-1.19027E-02 1.95343E-04 5.67893E-02-6.73332E-14-1.53727E-13
 -1      1853 1.99186E+01-5.63190E-03-4.09031E-04 3.28379E-02-4.43884E-14-2.42749E-13
 -1      1854 1.99309E+01-4.53766E-03-2.47363E-05 2.98537E-02-1.08477E-14-2.65018E-13
 -1      1855 1.99264E+01-9.07846E-03 1.49296E-04 4.53361E-02-3.74062E-14-8.95450E-14
 -1      1856 1.99397E+01-3.64333E-03-2.96521E-04 2.68720E-02-6.53725E-15-2.37239E-13
 -1      1857 1.99502E+01-2.50218E-03 5.96192E-05 2.50778E-02-7.94676E-14-2.78122E-13
 -1      1858 1.99454E+01-6.13381E-03 8.96613E-05 3.70741E-02-2.49900E-14-1.32911E-13
 -1      1859 1.99583E+01-1.53810E-03-1.85249E-04 2.36793E-02-7.42101E-14-3.14835E-13
 -1      1860 1.99681E+01-3.11967E-04 1.67443E-04 2.31587E-02-4.34848E-14-2.71656E-13
 -1      1861 1.99624E+01-3.02698E-03 1.84405E-05 3.22355E-02-6.77707E-14-1.95895E-13
 -1      1862 1.99763E+01 7.52695E-04-7.49862E-05 2.34883E-02-5.12426E-14-3.00372E-13
 -1      1863 1.99863E+01 2.11536E-03 3.02549E-04 2.43683E-02 1.36711E-14-3.56207E-13
 -1      1864 1.99787E+01 3.34929E-04-6.40161E-05 3.11084E-02-3.66316E-14-2.32724E-13
 -1      1865 1.99954E+01 3.32047E-03 3.55113E-05 2.66305E-02 6.70590E-14-3.40436E-13
 -1      1866 2.00071E+01 4.87981E-03 4.69558E-04 2.90935E-02-4.23881E-14-3.51078E-13
 -1      1867 1.99960E+01 4.08171E-03-1.58446E-04 3.40893E-02 1.56127E-14-2.06567E-13
 -1      1868 2.00180E+01 6.26928E-03 1.47844E-04 3.35634E-02-2.76862E-14-2.58159E-13
 -1      1869 2.00328E+01 8.08796E-03 6.73058E-04 3.78527E-02 1.00377E-13-1.65191E-13
 -1      1870 2.00160E+01 8.36545E-03-2.66120E-04 4.17179E-02 5.57589E-14-1.52319E-13
 -1      1871 2.00466E+01 9.70325E-03 2.63311E-04 4.48779E-02 4.28308E-14-1.70359E-13
 -1      1872 2.00661E+01 1.18378E-02 9.16364E-04 5.12946E-02-3.96590E-14-1.80992E-13
 -1      1873 2.00407E+01 1.33425E-02-3.88268E-04 5.46907E-02 8.44593E-14-1.62466E-13
 -1      1874 2.00840E+01 1.37085E-02 3.82201E-04 6.12829E-02-6.08371E-14-1.73982E-13
 -1      1875 2.01102E+01 1.61964E-02 1.19965E-03 7.01709E-02-2.12685E-14-1.69677E-13
 -1      1876 2.00725E+01 1.91484E-02-5.25429E-04 7.38497E-02-1.10665E-14-2.54485E-13
 -1      1877 2.01336E+01 1.83260E-02 5.02969E-04 8.35596E-02-4.17589E-14-2.04124E-13
 -1      1878 2.01685E+01 2.11651E-02 1.51711E-03 9.52721E-02-3.31500E-14-2.75092E-13
 -1      1879 2.01140E+01 2.58594E-02-6.76672E-04 1.00133E-01-2.97026E-14-1.25746E-13
 -1      1880 2.01989E+01 2.35098E-02 6.21268E-04 1.12468E-01-2.08185E-14-3.27350E-13
 -1      1881 2.02449E+01 2.66274E-02 1.85284E-03 1.27305E-01 1.45325E-14-3.15456E-13
 -1      1882 2.01682E+01 3.34350E-02-8.38671E-04 1.34475E-01-6.88796E-14-1.14156E-13
 -1      1883 2.02839E+01 2.90640E-02 7.28830E-04 1.48582E-01 3.85283E-14-3.09854E-13
 -1      1884 2.03435E+01 3.22699E-02 2.17493E-03 1.66688E-01 1.25951E-14-3.17994E-13
 -1      1885 2.02380E+01 4.16294E-02-1.00464E-03 1.77623E-01-1.35405E-14-1.80003E-13
 -1      1886 2.03927E+01 3.45491E-02 8.12310E-04 1.92020E-01 3.37287E-14-3.50656E-13
 -1      1887 2.04682E+01 3.74685E-02 2.42754E-03 2.13220E-01 6.24985E-14-3.09827E-13
 -1      1888 2.03270E+01 4.98607E-02-1.16321E-03 2.29839E-01 5.29209E-14-2.66094E-13
 -1      1889 2.05291E+01 3.91494E-02 8.52343E-04 2.42035E-01 1.13494E-15-4.19535E-13
 -1      1890 2.06221E+01 4.11287E-02 2.52095E-03 2.65580E-01-1.16665E-13-4.51731E-13
 -1      1891 2.04380E+01 5.70231E-02-1.29735E-03 2.90447E-01-1.72686E-14-2.86692E-13
 -1      1892 2.06958E+01 4.14922E-02 8.23371E-04 2.96386E-01-1.65956E-13-3.71080E-13
 -1      1893 2.08069E+01 4.14800E-02 2.32105E-03 3.20597E-01-1.37675E-13-3.74294E-13
 -1      1894 2.05738E+01 6.12310E-02-1.38358E-03 3.57147E-01-1.05564E-13-3.59062E-13
 -1      1895 2.08938E+01 3.94261E-02 6.95095E-04 3.50482E-01-1.41800E-13-3.87981E-13
 -1      1896 2.10214E+01 3.58433E-02 1.64196E-03 3.72256E-01-1.17587E-13-3.04825E-13
 -1      1897 2.07358E+01 5.95002E-02-1.39134E-03 4.25060E-01-1.59971E-13-2.58497E-13
 -1      1898 2.11209E+01 2.97968E-02 4.36565E-04 3.96230E-01-9.02867E-14-3.00403E-13
 -1      1899 2.12600E+01 2.04449E-02 2.50416E-04 4.10444E-01-1.23917E-13-2.78183E-13
 -1      1900 2.09235E+01 4.74150E-02-1.28227E-03 4.85465E-01-1.00153E-13-1.71206E-13
 -1      1901 2.13696E+01 8.33646E-03 2.33135E-05 4.20709E-01-1.77619E-13-2.12984E-13
 -1      1902 2.15102E+01-9.53444E-03-2.10243E-03 4.19618E-01-3.67674E-14-1.67499E-13
 -1      1903 2.11335E+01 1.89349E-02-1.00764E-03 5.24296E-01-6.96263E-14 9.46492E-15
 -1      1904 2.16251E+01-3.00678E-02-5.55187E-04 4.04956E-01 4.37360E-14-2.24876E-13
 -1      1905 2.17504E+01-5.92931E-02-5.59653E-03 3.77895E-01 1.05925E-13-2.47080E-13
 -1      1906 2.13581E+01-3.33062E-02-5.00912E-04 5.20682E-01-5.64951E-14 6.40364E-14
 -1      1907 2.18623E+01-9.02218E-02-1.29362E-03 3.23684E-01 1.04641E-13-3.32768E-13
 -1      1908 2.19472E+01-1.32471E-01-1.01762E-02 2.57696E-01-2.46417E-15-1.94734E-13
 -1      1909 2.15833E+01-1.16531E-01 3.39255E-04 4.46282E-01 4.26503E-14-8.30917E-14
 -1      1910 2.20430E+01-1.73825E-01-2.18929E-03 1.47480E-01-1.52196E-13-1.28529E-13
 -1      1911 2.20546E+01-2.27112E-01-1.52807E-02 2.99221E-02-1.20237E-13-2.00248E-13
 -1      1912 2.17871E+01-2.34123E-01 1.67723E-03 2.66916E-01-3.09952E-14-3.15947E-14
 -1      1913 2.21145E+01-2.74258E-01-3.26964E-03-1.49952E-01 3.80165E-15-1.61872E-13
 -1      1914 2.20153E+01-3.29169E-01-1.95277E-02-3.25502E-01 3.25876E-14-1.01578E-13
 -1      1915 2.19361E+01-3.78623E-01 3.76240E-03-5.09238E-02-4.67864E-14-2.25384E-15
 -1      1916 2.20113E+01-3.69305E-01-4.62717E-03-5.76532E-01 4.79998E-15-1.52095E-13
 -1      1917 2.17680E+01-4.05425E-01-2.06350E-02-8.00440E-01 3.34273E-14-1.71528E-13
 -1      1918 2.19838E+01-5.21620E-01 6.85056E-03-5.25262E-01-2.38871E-15 8.39384E-14
 -1      1919 2.16652E+01-4.15662E-01-6.36911E-03-1.09782E+00-3.82151E-14-1.49470E-13
 -1      1920 2.12636E+01-4.02500E-01-1.60532E-02-1.33295E+00-6.69343E-14-2.41825E-13
 -1      1921 2.18700E+01-6.05303E-01 1.07338E-02-1.13323E+00-3.02362E-14 4.12442E-14
 -1      1922 2.10301E+01-3.54501E-01-8.15533E-03-1.61186E+00-1.25748E-13-3.64776E-13
 -1      1923 2.04937E+01-2.63329E-01-4.61384E-03-1.78847E+00-1.75518E-13-4.04419E-13
 -1      1924 2.15313E+01-5.47881E-01 1.39009E-02-1.77961E+00-1.85036E-13-7.72633E-14
 -1      1925 2.01238E+01-1.39665E-01-8.46401E-03-1.94499E+00-1.81642E-13-4.34956E-13
 -1      1926 1.95268E+01 3.21727E-02 1.13410E-02-1.97493E+00 8.40935E-14-3.13066E-13
 -1      1927 2.09319E+01-2.78312E-01 1.33190E-02-2.27925E+00-1.56727E-13-1.68264E-13
 -1      1928 1.90712E+01 2.13926E-01-4.75324E-03-1.89942E+00 2.99140E-13-4.44454E-13
 -1      1929 1.85323E+01 4.19768E-01 2.49305E-02-1.71677E+00 2.72729E-13-3.25347E-13
 -1      1930 2.01147E+01 1.99704E-01 5.94185E-03-2.39022E+00 6.84561E-14-2.19235E-13
 -1      1931 1.81079E+01 5.94621E-01 3.93108E-03-1.36171E+00 1.74090E-13-3.60115E-13
 -1      1932 1.77583E+01 7.49171E-01 2.95616E-02-9.76077E-01 1.86393E-13-2.83025E-13
 -1      1933 1.92433E+01 7.54579E-01-7.43335E-03-1.92478E+00 1.81663E-13-4.46409E-13
 -1      1934 1.74973E+01 8.37214E-01 1.59254E-02-4.12411E-01 1.19026E-13-3.73541E-13
 -1      1935 1.74284E+01 8.64049E-01 2.39420E-02 7.43324E-02 5.23470E-14-4.59628E-13
 -1      1936 1.85663E+01 1.16200E+00-1.87777E-02-9.02450E-01 1.70558E-14-4.33003E-13
 -1      1937 1.73982E+01 8.14789E-01 2.33185E-02 6.71584E-01-1.39505E-13-4.98184E-13
 -1      1938 1.76161E+01 6.92491E-01 9.68996E-03 1.09957E+00-8.38184E-14-4.12472E-13
 -1      1939 1.82826E+01 1.23312E+00-1.74541E-02 3.95856E-01-4.08059E-14-5.91305E-13
 -1      1940 1.77940E+01 5.17655E-01 2.60632E-02 1.52427E+00-2.87123E-14-3.55453E-13
 -1      1941 1.82085E+01 2.59692E-01-6.88474E-03 1.73730E+00 1.49288E-13-2.13440E-13
 -1      1942 1.84473E+01 8.95681E-01 1.11383E-03 1.55121E+00-3.36129E-14-2.65517E-13
 -1      1943 1.84283E+01 3.71284E-02 1.73422E-02 1.85114E+00 3.18953E-13-2.24799E-13
 -1      1944 1.89359E+01-2.91110E-01-1.15031E-02 1.75734E+00 4.71673E-13-1.40095E-13
 -1      1945 1.92439E+01-5.81741E-01-4.73871E-03 2.02889E+00 4.01797E-13-3.99391E-13
 -1      1946 1.87402E+01 2.50197E-01-2.47869E-02 2.10371E+00 1.98119E-13-1.47345E-13
 -1      1947 1.96225E+01 1.42079E-01 7.88858E-03 2.58675E-01 2.49467E-13 7.64498E-13
 -1      1948 1.98943E+01 2.04133E-01 1.64364E-02 4.31710E-01 2.60720E-13 8.63812E-13
 -1      1949 2.01055E+01 3.50591E-01-1.53546E-03 6.54127E-01 3.23363E-13 6.43323E-13
 -1      1950 1.93807E+01 7.19655E-02 6.95383E-03 5.56209E-02 1.53189E-13 6.47844E-13
 -1      1951 1.94954E+01 1.01848E-01 1.41979E-02 1.44184E-01 1.83418E-13 7.10928E-13
 -1      1952 1.97132E+01 1.65251E-01-1.94560E-03 2.55285E-01 2.35418E-13 5.52875E-13
 -1      1953 1.92908E+01 3.62071E-02 4.43592E-03-4.99317E-02 8.74465E-14 5.93369E-13
 -1      1954 1.93206E+01 5.20207E-02 8.33818E-03-2.66909E-03 1.02671E-13 6.33389E-13
 -1      1955 1.95135E+01 8.07555E-02-2.82551E-03 4.32000E-02 1.44019E-13 4.63343E-13
 -1      1956 1.92898E+01 1.62621E-02 2.86673E-03-1.02518E-01 3.90278E-14 5.40347E-13
 -1      1957 1.92742E+01 2.51295E-02 4.35278E-03-7.78384E-02 5.94156E-14 5.78279E-13
 -1      1958 1.94349E+01 3.75574E-02-2.84213E-03-6.88108E-02 8.33316E-14 4.02934E-13
 -1      1959 1.93376E+01 4.61571E-03 1.99112E-03-1.24683E-01 6.56565E-14 4.88595E-13
 -1      1960 1.92989E+01 9.65736E-03 2.14626E-03-1.13204E-01 5.01458E-14 5.26961E-13
 -1      1961 1.94289E+01 1.37144E-02-2.31246E-03-1.24455E-01 6.59495E-14 3.54300E-13
 -1      1962 1.94097E+01-2.19303E-03 1.44772E-03-1.28934E-01 1.17887E-13 4.35689E-13
 -1      1963 1.93608E+01 5.63665E-04 9.46105E-04-1.25396E-01 8.36791E-14 4.69624E-13
 -1      1964 1.94640E+01 1.07707E-04-1.69239E-03-1.47058E-01 9.84210E-14 3.14588E-13
 -1      1965 1.94908E+01-5.99378E-03 1.06486E-03-1.22793E-01 1.33637E-13 3.52474E-13
 -1      1966 1.94395E+01-4.65658E-03 2.71470E-04-1.23995E-01 1.22509E-13 4.14243E-13
 -1      1967 1.95200E+01-7.53007E-03-1.16932E-03-1.50073E-01 1.50300E-13 2.78647E-13
 -1      1968 1.95716E+01-7.86401E-03 7.78063E-04-1.11004E-01 4.66725E-14 3.45573E-13
 -1      1969 1.95223E+01-7.41918E-03-1.13936E-04-1.14898E-01 8.03148E-14 3.17341E-13
 -1      1970 1.95843E+01-1.14815E-02-7.75992E-04-1.41755E-01 1.06583E-13 2.56998E-13
 -1      1971 1.96468E+01-8.49006E-03 5.60126E-04-9.66201E-02 6.25355E-14 3.43837E-13
 -1      1972 1.96021E+01-8.59744E-03-3.25425E-04-1.01868E-01 4.73348E-14 3.55634E-13
 -1      1973 1.96491E+01-1.30987E-02-4.93545E-04-1.27371E-01 7.38507E-14 2.31133E-13
 -1      1974 1.97136E+01-8.32852E-03 3.95548E-04-8.16023E-02 4.02177E-14 3.54859E-13
 -1      1975 1.96746E+01-8.76245E-03-4.26534E-04-8.73304E-02 5.74768E-14 3.33766E-13
 -1      1976 1.97098E+01-1.32424E-02-2.95923E-04-1.10322E-01 5.34353E-14 2.13900E-13
 -1      1977 1.97710E+01-7.68728E-03 2.73380E-04-6.71798E-02 1.34505E-13 2.50459E-13
 -1      1978 1.97379E+01-8.29774E-03-4.56562E-04-7.28275E-02 1.10264E-13 3.08287E-13
 -1      1979 1.97640E+01-1.24817E-02-1.61305E-04-9.27911E-02 1.21600E-13 1.87464E-13
 -1      1980 1.98190E+01-6.77085E-03 1.85422E-04-5.40919E-02 1.91718E-13 1.77611E-13
 -1      1981 1.97917E+01-7.46050E-03-4.41309E-04-5.93112E-02 1.32380E-13 2.20620E-13
 -1      1982 1.98109E+01-1.11950E-02-7.32146E-05-7.61459E-02 1.65187E-13 1.46918E-13
 -1      1983 1.98583E+01-5.70832E-03 1.25611E-04-4.27580E-02 3.17724E-14 1.75593E-13
 -1      1984 1.98362E+01-6.41769E-03-3.97866E-04-4.73407E-02 1.11770E-13 1.86222E-13
 -1      1985 1.98502E+01-9.62748E-03-1.95956E-05-6.12095E-02 1.42925E-13 1.47933E-13
 -1      1986 1.98901E+01-4.57211E-03 8.96986E-05-3.34020E-02-5.47676E-14 1.64620E-13
 -1      1987 1.98724E+01-5.26938E-03-3.37234E-04-3.72264E-02-9.73792E-15 1.59689E-13
 -1      1988 1.98828E+01-7.92672E-03 8.14727E-06-4.84556E-02-4.38213E-15 9.83529E-14
 -1      1989 1.99158E+01-3.39121E-03 7.50512E-05-2.61471E-02-1.47086E-15 9.63049E-14
 -1      1990 1.99017E+01-4.06482E-03-2.65977E-04-2.91367E-02-3.44744E-14 1.30094E-13
 -1      1991 1.99095E+01-6.16680E-03 1.59059E-05-3.81518E-02 1.64452E-14 9.03610E-14
 -1      1992 1.99371E+01-2.16068E-03 8.05569E-05-2.10872E-02 8.15140E-14 1.48612E-13
 -1      1993 1.99256E+01-2.81398E-03-1.87353E-04-2.31792E-02 4.86768E-14 1.55872E-13
 -1      1994 1.99317E+01-4.36552E-03 7.42496E-06-3.04689E-02 3.52630E-14 2.05276E-14
 -1      1995 1.99557E+01-8.48291E-04 1.06594E-04-1.83445E-02-4.33059E-14 1.13411E-13
 -1      1996 1.99458E+01-1.49572E-03-1.02124E-04-1.94634E-02 5.25761E-14 1.19671E-13
 -1      1997 1.99508E+01-2.49647E-03-1.52986E-05-2.55639E-02 5.66607E-14 1.35081E-13
 -1      1998 1.99736E+01 6.01254E-04 1.55056E-04-1.81149E-02-5.70670E-14 1.54384E-13
 -1      1999 1.99643E+01-6.32405E-05-9.12637E-06-1.81518E-02-5.92155E-14 1.18635E-13
 -1      2000 1.99685E+01-4.97246E-04-5.17164E-05-2.36473E-02-6.23565E-14 6.64611E-14
 -1      2001 1.99932E+01 2.26389E-03 2.29406E-04-2.07080E-02-3.28189E-14 1.67783E-13
 -1      2002 1.99830E+01 1.55257E-03 9.43004E-05-1.95010E-02-5.70025E-14 1.69180E-13
 -1      2003 1.99866E+01 1.72544E-03-1.02519E-04-2.50370E-02-4.24343E-14 8.32942E-14
 -1      2004 2.00168E+01 4.23507E-03 3.34765E-04-2.65821E-02 1.69189E-13 7.16961E-14
 -1      2005 2.00045E+01 3.44140E-03 2.12002E-04-2.38990E-02 7.73740E-14 1.62257E-13
 -1      2006 2.00073E+01 4.29300E-03-1.69465E-04-3.02059E-02 8.58251E-14 6.64123E-14
 -1      2007 2.00477E+01 6.62942E-03 4.78010E-04-3.63776E-02 1.60829E-14-3.63734E-14
 -1      2008 2.00314E+01 5.71282E-03 3.48735E-04-3.18982E-02 1.16024E-13-9.48201E-15
 -1      2009 2.00331E+01 7.35382E-03-2.55226E-04-3.98240E-02 1.52694E-13-7.08791E-14
 -1      2010 2.00894E+01 9.58072E-03 6.67802E-04-5.09487E-02-9.33511E-14-7.42758E-14
 -1      2011 2.00671E+01 8.49616E-03 5.09874E-04-4.42473E-02-9.02982E-14-2.12501E-14
 -1      2012 2.00669E+01 1.10830E-02-3.63227E-04-5.47977E-02-3.24947E-14-1.11808E-14
 -1      2013 2.01463E+01 1.32408E-02 9.14425E-04-7.13935E-02-1.99681E-14-1.08752E-14
 -1      2014 2.01156E+01 1.19399E-02 7.00999E-04-6.19213E-02-8.14340E-14-7.95638E-14
 -1      2015 2.01122E+01 1.56815E-02-4.97488E-04-7.63052E-02-8.92371E-14 3.12264E-14
 -1      2016 2.02238E+01 1.77752E-02 1.22912E-03-9.90766E-02 7.18237E-14 3.92270E-14
 -1      2017 2.01815E+01 1.62091E-02 9.27206E-04-8.61458E-02 2.44997E-14 2.96316E-14
 -1      2018 2.01732E+01 2.13731E-02-6.62409E-04-1.05826E-01-1.47321E-14-7.61740E-14
 -1      2019 2.03282E+01 2.33509E-02 1.62236E-03-1.35637E-01 9.77909E-14 2.41457E-13
 -1      2020 2.02707E+01 2.14767E-02 1.19186E-03-1.18410E-01 1.17889E-13 1.46195E-13
 -1      2021 2.02548E+01 2.83933E-02-8.62530E-04-1.45154E-01 1.07105E-13 9.90213E-14
 -1      2022 2.04672E+01 3.01069E-02 2.10002E-03-1.82956E-01-6.07468E-14 2.27941E-13
 -1      2023 2.03900E+01 2.79025E-02 1.49430E-03-1.60453E-01 2.59238E-14 2.96286E-13
 -1      2024 2.03629E+01 3.69617E-02-1.10228E-03-1.96381E-01 2.69989E-14 2.72393E-13
 -1      2025 2.06494E+01 3.80899E-02 2.65552E-03-2.43047E-01-6.88039E-14 2.46726E-13
 -1      2026 2.05474E+01 3.55854E-02 1.82576E-03-2.14185E-01-9.86307E-14 2.90878E-13
 -1      2027 2.05043E+01 4.72198E-02-1.38581E-03-2.61800E-01-5.05887E-14 3.59488E-13
 -1      2028 2.08847E+01 4.71215E-02 3.25493E-03-3.17775E-01-1.82888E-13 3.73669E-13
 -1      2029 2.07520E+01 4.44625E-02 2.16230E-03-2.81492E-01-6.93482E-14 2.97413E-13
 -1      2030 2.06865E+01 5.90988E-02-1.71716E-03-3.43673E-01-9.76595E-14 4.59389E-13
 -1      2031 2.11833E+01 5.65412E-02 3.81102E-03-4.08257E-01-2.04605E-13 3.01299E-13
 -1      2032 2.10137E+01 5.41099E-02 2.45332E-03-3.63785E-01-2.31233E-13 2.57276E-13
 -1      2033 2.09175E+01 7.20560E-02-2.10087E-03-4.43714E-01-1.80962E-13 4.33846E-13
 -1      2034 2.15546E+01 6.47305E-02 4.14258E-03-5.13660E-01 5.78337E-14 1.13129E-13
 -1      2035 2.13425E+01 6.33663E-02 2.60495E-03-4.61102E-01-7.30787E-14 2.06967E-13
 -1      2036 2.12051E+01 8.45780E-02-2.54291E-03-5.62048E-01-7.37954E-14 8.30275E-14
 -1      2037 2.20048E+01 6.82956E-02 3.92128E-03-6.28969E-01 1.05332E-13 2.73449E-13
 -1      2038 2.17466E+01 6.96659E-02 2.46052E-03-5.70403E-01 5.19394E-14 1.85461E-13
 -1      2039 2.15559E+01 9.32961E-02-3.04974E-03-6.95280E-01 7.70952E-14 5.35213E-14
 -1      2040 2.25324E+01 6.08071E-02 2.62813E-03-7.41087E-01 6.25637E-14 5.01873E-13
 -1      2041 2.22298E+01 6.79538E-02 1.78924E-03-6.82543E-01 1.06786E-13 4.94235E-13
 -1      2042 2.19729E+01 9.15480E-02-3.61809E-03-8.33067E-01 8.64369E-15 2.40771E-13
 -1      2043 2.31216E+01 3.12401E-02-4.12722E-04-8.22681E-01 1.41425E-13 3.69932E-13
 -1      2044 2.27866E+01 4.91760E-02 3.09182E-04-7.77345E-01 9.85778E-14 4.32974E-13
 -1      2045 2.24525E+01 6.73693E-02-4.19671E-03-9.52572E-01 1.67358E-13 3.95929E-13
 -1      2046 2.37324E+01-3.68829E-02-5.77880E-03-8.23959E-01 8.87066E-14 2.35463E-13
 -1      2047 2.33943E+01-1.12964E-03-2.20656E-03-8.16569E-01 7.75518E-14 3.08787E-13
 -1      2048 2.29803E+01 1.59663E-03-4.58229E-03-1.01051E+00 1.26693E-13 4.44770E-13
 -1      2049 2.42884E+01-1.62621E-01-1.32923E-02-6.65484E-01 2.33702E-14 2.76732E-14
 -1      2050 2.40024E+01-1.02156E-01-5.71792E-03-7.36374E-01 4.65392E-14 1.64890E-13
 -1      2051 2.35244E+01-1.31321E-01-4.21423E-03-9.34327E-01 1.34070E-13 3.67351E-13
 -1      2052 2.46652E+01-3.54733E-01-2.09571E-02-2.42175E-01 2.20298E-13 1.14093E-13
 -1      2053 2.45181E+01-2.70172E-01-9.67963E-03-4.45628E-01 1.62811E-13 5.87135E-14
 -1      2054 2.40267E+01-3.53503E-01-1.94232E-03-6.19057E-01 1.55249E-13 1.02813E-13
 -1      2055 2.46885E+01-5.81485E-01-2.43150E-02 5.39495E-01-7.22946E-14 2.65729E-14
 -1      2056 2.47930E+01-4.96017E-01-1.31497E-02 1.54381E-01 7.59878E-14 5.29034E-14
 -1      2057 2.43902E+01-6.54465E-01 3.86283E-03 5.38670E-02 8.33604E-14 2.03436E-13
 -1      2058 2.41577E+01-7.28293E-01-1.79015E-02 1.66573E+00-1.07830E-14 1.52049E-13
 -1      2059 2.46222E+01-7.05112E-01-1.53701E-02 1.10467E+00-1.72744E-14 3.58108E-14
 -1      2060 2.44658E+01-9.40581E-01 1.36761E-02 1.14828E+00-3.80078E-14-4.82117E-14
 -1      2061 2.29101E+01-5.93852E-01-4.80640E-03 2.85388E+00-6.93993E-14 1.23842E-13
 -1      2062 2.37806E+01-7.20319E-01-1.72928E-02 2.26223E+00-9.07746E-14 1.23769E-13
 -1      2063 2.40520E+01-9.82605E-01 2.44736E-02 2.53486E+00 1.44676E-15 1.04970E-13
 -1      2064 2.10041E+01-5.08857E-02-9.89041E-04 3.49925E+00 1.79313E-13 2.78569E-13
 -1      2065 2.21807E+01-3.48847E-01-1.99169E-02 3.17765E+00 1.21014E-13 2.53020E-13
 -1      2066 2.29848E+01-5.30920E-01 1.96156E-02 3.72300E+00 4.03696E-14 4.46507E-13
 -1      2067 1.88907E+01 7.28501E-01-1.84355E-02 2.97262E+00 5.57401E-13-1.49190E-13
 -1      2068 2.00954E+01 3.95252E-01-1.72088E-02 3.22258E+00 3.19827E-13 8.10324E-14
 -1      2069 2.13759E+01 4.20430E-01-9.05133E-03 3.95340E+00 4.33126E-13 2.99344E-13
 -1      2070 1.74157E+01 1.18981E+00-3.95186E-02 1.27239E+00 1.58994E-13-1.64904E-13
 -1      2071 1.82323E+01 1.08086E+00-8.65287E-04 2.05692E+00 4.85688E-13-3.20594E-14
 -1      2072 1.97901E+01 1.39770E+00-3.18550E-02 2.71316E+00 4.97671E-13 1.27951E-13
 -1      2073 1.71300E+01 1.00248E+00-4.42186E-02-7.00596E-01-1.61746E-14-3.04843E-13
 -1      2074 1.72903E+01 1.18870E+00 9.95933E-03 1.87352E-01 5.97994E-14-2.30507E-13
 -1      2075 1.89257E+01 1.67519E+00-3.92744E-02 5.07833E-01 1.36301E-13 5.57852E-14
 -1      2076 1.78144E+01 4.32076E-01-1.42407E-02-1.95085E+00-1.20197E-13-2.02061E-13
 -1      2077 1.73871E+01 7.22680E-01 8.06517E-03-1.38466E+00-6.19817E-14-2.71186E-13
 -1      2078 1.89401E+01 1.16358E+00-1.62529E-02-1.45344E+00-9.85323E-15-1.01637E-13
 -1      2079 1.87417E+01-1.02831E-01 1.67693E-02-2.18559E+00-6.63818E-14-4.20546E-13
 -1      2080 1.80744E+01 1.30431E-01 2.56784E-03-2.05968E+00-8.48401E-14-2.97717E-13
 -1      2081 1.93322E+01 3.31548E-01 3.90584E-03-2.34541E+00-7.21836E-14-2.50413E-13
 -1      2082 1.94420E+01-5.30518E-01 2.63017E-02-1.77621E+00-1.13284E-13-2.12504E-13
 -1      2083 1.88281E+01-2.70388E-01 1.65863E-03-2.02871E+00-1.16655E-13-3.62561E-13
 -1      2084 1.96733E+01-3.36156E-01 4.21954E-04-2.32313E+00-1.46966E-14-4.95218E-13
 -1      2085 1.99067E+01-8.68481E-01 4.65578E-02-1.94400E+00-1.88578E-13-4.04793E-13
 -1      2086 2.40596E+01-9.08230E-01 7.29316E-02 4.87732E+00-2.13623E-13-6.49883E-13
 -1      2087 2.36767E+01-1.94809E+00-4.21219E-02 2.80007E+00-2.00749E-13-5.10758E-13
 -1      2088 2.28885E+01-1.40000E+00 8.52271E-02 8.22567E-01-2.67217E-14-1.73438E-13
 -1      2089 2.20334E+01-1.62001E+00-3.03367E-02-4.76115E-01-2.86472E-14 3.24983E-14
 -1      2090 2.48402E+01-1.74254E+00-7.63865E-03 1.80715E+00-5.42656E-14-4.27477E-13
 -1      2091 2.13077E+01-1.34634E+00 7.12404E-02-1.31752E+00-1.37293E-13-3.54577E-14
 -1      2092 2.05241E+01-1.06283E+00 2.46261E-03-1.75448E+00-1.74576E-13-2.69333E-13
 -1      2093 2.05684E+01-7.71997E-01-1.59732E-02-2.01834E+00-6.16018E-14-2.45533E-13
 -1      2094 2.26508E+01-1.15516E+00-3.10188E-03-1.01022E+00-6.83143E-14 9.08336E-14
 -1      2095 2.25266E+01 9.21098E-01 8.11978E-02 8.87331E+00-4.65128E-13-3.15220E-13
 -1      2096 2.37641E+01-9.68703E-01 7.64214E-02 7.37574E+00-3.63681E-13-3.17643E-13
 -1      2097 2.56894E+01-2.44577E+00-1.45791E-02 6.65283E+00-3.59608E-14-5.99238E-13
 -1      2098 1.27048E+01 7.36482E+00 8.09520E-03 2.70861E+00-7.17232E-13 4.16334E-15
 -1      2099 1.46510E+01 6.48143E+00 2.83420E-01 6.19866E+00-4.95340E-13 7.03326E-14
 -1      2100 1.34806E+01 6.96613E+00 2.02578E-01-4.51971E+00-5.97022E-13 1.83187E-13
 -1      2101 1.26846E+01 7.70325E+00 1.91575E-01-1.45129E+00-6.73801E-13 2.79610E-13
 -1      2102 9.73561E+00 3.58396E+00 1.47832E-01 1.13718E+00-2.94428E-13 1.65701E-13
 -1      2103 1.76179E+01 4.14650E+00 2.43560E-01-9.54800E+00-2.73934E-13 6.29718E-13
 -1      2104 1.52506E+01 5.93100E+00 5.75529E-02-7.91187E+00-5.12576E-13 3.06921E-13
 -1      2105 1.16885E+01 2.74584E+00 1.27831E-01-7.12701E+00-2.18991E-13 4.62408E-13
 -1      2106 2.18965E+01 5.53541E-01 1.46705E-01-9.74497E+00 1.07145E-13 1.15239E-12
 -1      2107 1.99339E+01 2.65841E+00 1.51912E-02-1.01568E+01-8.33882E-14 1.06856E-12
 -1      2108 1.82497E+01 4.75026E-01 1.51571E-01-1.13979E+01-3.84692E-14 1.02024E-12
 -1      2109 2.34947E+01-2.09860E+00-1.19171E-03-6.32369E+00 7.28997E-13 1.17088E-12
 -1      2110 2.30177E+01-2.83923E-01 4.44381E-02-8.09264E+00 4.23099E-13 1.13624E-12
 -1      2111 2.27085E+01-3.12707E+00-5.60814E-02-2.20145E+00 5.94479E-13 3.38923E-13
 -1      2112 2.32911E+01-2.08008E+00 8.50099E-02-4.01093E+00 5.71695E-13 7.78808E-13
 -1      2113 2.46998E+01-2.35774E+00 2.29025E-03-5.61146E+00 5.31585E-13 9.58719E-13
 -1      2114 2.13954E+01-3.01595E+00-3.29205E-02 5.23981E-01 6.36078E-13-4.47017E-13
 -1      2115 2.21186E+01-2.77558E+00 9.23374E-02-6.02233E-01 6.75866E-13-1.87877E-13
 -1      2116 2.34152E+01-2.18924E+00 3.33411E-03-1.43855E+00 5.31568E-13 7.11653E-14
 -1      2117 2.04775E+01-2.42914E+00-1.00092E-02 1.77845E+00 5.30812E-13-5.09731E-13
 -1      2118 2.09744E+01-2.70922E+00 6.50422E-02 1.29327E+00 6.82187E-13-4.19890E-13
 -1      2119 2.17281E+01-1.79831E+00 7.91343E-03 1.05901E+00 5.49637E-13-5.70332E-13
 -1      2120 1.99004E+01-1.66944E+00-9.03948E-03 2.07024E+00 3.42872E-13-3.35647E-13
 -1      2121 2.02136E+01-2.16950E+00 3.10383E-02 2.01525E+00 4.04236E-13-3.59344E-13
 -1      2122 2.05322E+01-1.36831E+00 1.13571E-02 2.16561E+00 4.66358E-13-6.26360E-13
 -1      2123 1.60977E+01-4.81228E+00-1.18106E-01 1.11029E+01 6.52478E-13 1.22249E-13
 -1      2124 1.10730E+01-6.91656E+00-5.76875E-01 9.21230E+00 7.57061E-13 2.69562E-13
 -1      2125 4.41683E+00-2.42880E+00-3.61134E-01-2.03742E-02 4.12059E-13 4.45977E-13
 -1      2126 4.88831E+00-3.22694E+00-3.37105E-01-3.78372E+00 2.96319E-13 5.27356E-13
 -1      2127 2.60342E+01-2.00976E+00 1.45538E-01 1.08278E+01 7.27640E-13 6.39155E-13
 -1      2128 2.07764E+01-4.84896E+00-2.72523E-01 1.01592E+01 6.92224E-13 3.04867E-13
 -1      2129 3.49662E+01 1.17115E+00 2.65771E-01 8.78767E+00 7.12985E-13-7.61613E-14
 -1      2130 2.96827E+01-9.85040E-01-3.06731E-02 9.11413E+00 7.60725E-13 3.72924E-13
 -1      2131 1.95240E+01 4.01777E+00-2.49910E-02-1.69904E+00-2.38215E-13-4.66002E-13
 -1      2132 1.96484E+01 3.94403E+00-2.46516E-02-1.95536E+00-2.93512E-13-4.04177E-13
 -1      2133 1.99645E+01 3.23758E+00-1.87392E-02-1.92484E+00-3.15939E-13-3.41838E-13
 -1      2134 1.96950E+01 3.58976E+00-6.67715E-03-1.51936E+00-2.26002E-13-4.47059E-13
 -1      2135 4.60136E+01 8.12089E+00 4.30296E-01 3.93066E+00 4.08285E-13-3.26850E-13
 -1      2136 4.31612E+01 7.32552E+00 2.38569E-01 4.79478E+00 5.29687E-13-1.29896E-13
 -1      2137 4.55564E+01 8.78427E+00 2.29733E-01 2.24892E+00 4.67404E-13-2.69548E-13
 -1      2138 4.65174E+01 8.85310E+00 4.26170E-01 3.61082E+00 4.77285E-13-1.98591E-13
 -1      2139 4.05090E+01 9.31150E+00 3.91544E-01 2.01886E+00 4.66682E-13-1.79023E-13
 -1      2140 4.22273E+01 6.59375E+00 9.46053E-02 1.47450E+00 6.86784E-13-4.57856E-13
 -1      2141 4.47223E+01 7.91280E+00 3.20233E-01 2.26132E+00 6.37435E-13-3.00288E-13
 -1      2142 3.82154E+01 2.05635E+00 6.33828E-02-1.16258E+00 5.31700E-13-6.92002E-13
 -1      2143 4.16513E+01 3.91076E+00 1.63015E-01 2.62635E-01 6.14397E-13-5.82423E-13
 -1      2144 3.02541E+01-2.08511E+00-1.50619E-01-3.92705E+00 8.53595E-13-6.37712E-13
 -1      2145 3.58482E+01-1.40663E-01 1.62469E-01-3.37629E+00 5.65825E-13-7.37410E-13
 -1      2146 2.10094E+01-6.09177E+00-2.86404E-01-5.16433E+00 8.50875E-13-4.35152E-13
 -1      2147 2.67109E+01-3.60716E+00 7.59584E-02-5.62089E+00 9.16156E-13-5.28688E-13
 -1      2148 1.06862E+01-8.87819E+00-4.32066E-01-5.27988E+00 5.45564E-13-9.43270E-13
 -1      2149 1.59242E+01-6.89287E+00-9.97880E-02-6.40484E+00 6.57585E-13-6.86839E-13
 -1      2150 4.07454E+00-9.62351E+00-3.82687E-01-4.01403E+00 2.26374E-13-1.32200E-12
 -1      2151 7.15099E+00-8.64197E+00-2.54161E-01-5.14540E+00 5.98743E-13-1.29270E-12
 -1      2152 1.17609E+01-8.17507E+00-1.05506E-01-6.36183E+00 7.93809E-14-8.12739E-13
 -1      2153-3.07008E-01-1.06573E+01-5.25352E-01-6.62956E-01 7.74381E-15-1.12399E-12
 -1      2154 8.13502E-01-9.54977E+00-3.62715E-01-2.22551E+00 2.58848E-13-1.19726E-12
 -1      2155 3.80089E-01-9.64462E+00-3.76591E-01 2.32970E+00-1.05221E-13-3.68428E-13
 -1      2156-4.12140E-01-1.04524E+01-4.94760E-01 8.81043E-01 2.74086E-14-8.38218E-13
 -1      2157 5.34946E+00-8.33492E+00-2.63259E-01 5.41788E+00-3.56493E-13-6.94306E-13
 -1      2158 2.37338E+00-9.92662E+00-4.85891E-01 3.85034E+00-2.48856E-13-5.00988E-13
 -1      2159 1.47174E+01-6.74725E+00-1.62361E-01 7.08538E+00-4.81837E-13 3.86108E-13
 -1      2160 9.64985E+00-8.44474E+00-3.83717E-01 5.97767E+00-4.49529E-13-1.18908E-13
 -1      2161 2.53498E+01-3.19126E+00 1.36983E-01 6.56040E+00-3.91243E-13 8.05911E-13
 -1      2162 2.04374E+01-5.67182E+00-1.07713E-01 6.28095E+00-5.05707E-13 7.88591E-13
 -1      2163 3.43568E+01 6.71386E-01 2.67306E-01 5.01731E+00-2.48496E-13 7.34302E-13
 -1      2164 2.87810E+01-1.64278E+00-1.41163E-01 5.03898E+00-2.99261E-13 6.52256E-13
 -1      2165 4.12354E+01 4.14856E+00 2.86350E-01 2.21712E+00-1.15810E-13 1.04705E-12
 -1      2166 3.69075E+01 2.54565E+00 4.67082E-02 3.37807E+00-2.22232E-13 8.29004E-13
 -1      2167 4.51085E+01 7.41122E+00 3.25970E-01-6.64309E-01-6.38434E-13 1.46150E-12
 -1      2168 4.25352E+01 6.25774E+00 1.70695E-01 7.01853E-01-3.26128E-13 1.18716E-12
 -1      2169 4.55609E+01 9.26846E+00 2.87550E-01-3.03554E+00-8.60367E-13 1.37373E-12
 -1      2170 4.55453E+01 8.66869E+00 2.93821E-01-1.51919E+00-7.60281E-13 1.29471E-12
 -1      2171 4.39769E+01 8.45437E+00 3.33925E-01-5.40864E+00-1.03012E-12 1.58895E-12
 -1      2172 4.50845E+01 9.01981E+00 2.95178E-01-3.69726E+00-8.99558E-13 1.39938E-12
 -1      2173 3.81268E+01 5.20375E+00 1.63822E-01-6.34238E+00-6.31217E-13 1.21381E-12
 -1      2174 4.28703E+01 7.23006E+00 5.47774E-01-6.40921E+00-9.45632E-13 1.33649E-12
 -1      2175 3.91310E+01 7.67789E+00 2.75100E-01-2.85698E+00-6.48870E-13 1.06648E-12
 -1      2176 3.05458E+01 2.91514E-01 5.15873E-02-9.30897E+00 4.94049E-14 1.86762E-12
 -1      2177 3.52429E+01 2.13059E+00 1.24645E-01-8.31491E+00-2.76085E-13 1.54288E-12
 -1      2178 2.07475E+01-3.78611E+00-2.60370E-01-1.06500E+01 2.02505E-13 1.49269E-12
 -1      2179 2.64745E+01-9.82712E-01 1.68914E-01-1.14056E+01 4.81837E-14 1.89032E-12
 -1      2180 1.13594E+01-6.50938E+00-5.49058E-01-9.92420E+00 4.98490E-13 8.00943E-13
 -1      2181 1.61463E+01-4.07094E+00-1.22452E-01-1.15314E+01 1.76525E-13 1.36691E-12
 -1      2182 4.22005E+01 5.36248E+00 4.25997E-01 5.98534E+00 5.31269E-13-9.94760E-14
 -1      2183 3.77771E+01 3.37174E+00 1.33878E-01 6.39186E+00 7.19619E-13-2.54241E-13
 -1      2184 5.87333E+00-2.66882E+00-2.73534E-01 4.13038E+00 3.01592E-13 2.90323E-13
 -1      2185 2.07375E+01 1.10846E+00-2.09049E-02-1.61497E+00-3.68802E-13 2.50605E-13
 -1      2186 2.99137E+01-3.42621E+00 1.27215E-01 9.01475E+00 7.37688E-13 3.37619E-13
 -1      2187 3.95103E+01 5.79510E+00 3.13058E-01 2.40081E+00 5.50893E-13-3.77087E-13
 -1      2188 2.06288E+01 1.33221E+00-1.78632E-02-1.67652E+00-3.93071E-13 5.01856E-14
 -1      2189 2.06661E+01 2.16583E+00 2.63431E-01 9.90249E+00-5.21735E-13-1.38292E-13
 -1      2190 2.24207E+01-1.64038E+00 4.17757E-02 1.04639E+01-1.99396E-13-1.67033E-13
 -1      2191 1.76892E+01 4.39559E+00 1.65894E-02 9.04063E+00-4.19872E-13 6.77791E-14
 -1      2192 2.33657E+01-1.52339E+00 8.29932E-02-1.00640E+01 4.63136E-13 1.39081E-12
 -1      2193 2.09905E+01-5.20216E+00-1.18362E-01 1.13075E+01 4.37761E-13 1.01544E-13
 -1      2194 1.95464E+01-8.46768E-01-1.36669E-02 2.08476E+00 3.96481E-13-3.65647E-13
 -1      2195 1.97813E+01-1.34469E+00 4.21508E-03 2.13662E+00 3.76831E-13-2.04385E-13
 -1      2196 1.99025E+01-7.68216E-01 1.14196E-02 2.40019E+00 3.81117E-13-4.23351E-13
 -1      2197 1.93556E+01-2.51202E-01 2.67106E-02 2.32193E+00 2.66452E-13-3.99637E-13
 -1      2198 9.11340E+00-1.51860E-02-1.79131E-01-6.96060E+00 1.55598E-13 4.51972E-13
 -1      2199 5.16360E+00-6.99764E+00-7.35284E-01-7.07145E+00 6.37712E-13 4.38316E-13
 -1      2200 8.89742E+00-5.66592E+00-3.29956E-01-9.48182E+00 5.70100E-13 6.21586E-13
 -1      2201 1.30281E+01-6.97256E-01 1.67950E-01-1.03213E+01 9.34808E-14 6.31495E-13
 -1      2202 7.39420E+00-5.49242E+00-4.81748E-01 8.10835E+00 7.59726E-13 1.16518E-13
 -1      2203 4.63722E+00-5.55172E+00-6.22936E-01 5.77498E+00 6.12732E-13 2.44804E-13
 -1      2204 1.30616E+01-4.43911E+00-4.36188E-01-1.15379E+01 3.60156E-13 1.03378E-12
 -1      2205 2.12504E+01-4.90664E+00-1.26706E-01-1.20740E+01 3.30846E-13 1.53037E-12
 -1      2206 3.62079E+01 2.83782E+00 2.12579E-01-5.95376E+00-2.90004E-13 1.05294E-12
 -1      2207 3.52484E+01 2.79537E+00-1.96263E-01-3.00459E+00-6.87783E-14 9.86766E-13
 -1      2208 3.39753E+01 2.56735E-01 1.76793E-01-5.27434E+00-1.85789E-14 7.68718E-13
 -1      2209 4.06694E+01 1.01281E+01 3.37851E-01-2.46968E+00-9.18654E-13 9.69447E-13
 -1      2210 4.04621E+01 9.25332E+00 3.47528E-01-2.33356E+00-6.95222E-13 1.14853E-12
 -1      2211 3.91331E+01 5.24462E+00 2.90908E-01-1.03512E+00-3.35648E-13 1.20415E-12
 -1      2212 3.53212E+01 3.09872E-01 2.17999E-01 1.34586E+00-2.70575E-13 1.12998E-12
 -1      2213 2.88699E+01-4.32946E+00 1.26656E-02 4.13493E+00-1.47271E-13 9.29479E-13
 -1      2214 1.90474E+01-6.76980E+00-4.55502E-02 6.64258E+00-3.96183E-13 9.61509E-13
 -1      2215 1.82242E+01-7.20903E+00 1.71965E-01 7.10498E+00-1.13243E-14 9.51652E-13
 -1      2216 2.29620E+01-7.18379E+00-1.67538E-01 5.85957E+00-8.10185E-14 1.35229E-12
 -1      2217 9.59155E+00-7.59589E+00-7.27407E-02 6.79336E+00 1.11022E-14-1.54710E-13
 -1      2218 2.71212E+00-7.52343E+00-2.05901E-01 3.95858E+00 1.33227E-13-5.36016E-13
 -1      2219 4.12047E+00-7.77723E+00-1.78299E-01-4.10093E+00 9.96425E-14-1.30757E-12
 -1      2220 2.09929E+01-7.68336E+00-4.33854E-02-5.59217E+00 3.11029E-13-1.95094E-13
 -1      2221 3.01631E+01-4.69455E+00 9.07815E-02-2.80151E+00 5.39679E-13-1.62426E-13
 -1      2222 3.61494E+01-1.43140E-01 2.21034E-01 5.11885E-01 4.41432E-13-3.09974E-13
 -1      2223 3.62621E+01 6.04136E-01 2.37674E-01 5.34649E+00 7.32622E-13-4.24882E-13
 -1      2224 3.97318E+01 9.18986E+00 2.47784E-01 2.95956E+00 6.46150E-13-1.33421E-13
 -1      2225 3.85492E+01 5.32320E+00 2.27464E-01 3.06680E+00 5.85310E-13-2.42029E-14
 -1      2226 6.81740E-01-7.45698E+00-2.47257E-01 4.54983E-02 1.25708E-13-1.08225E-12
 -1      2227 2.99231E+01-2.44577E+00 1.21788E-01-9.47978E+00 4.05231E-13 1.85785E-12
 -1      2228 1.24682E+01-3.35679E+00-2.34564E-01 1.01341E+01 2.01728E-13-7.43849E-15
 -1      2229 2.01499E+01 5.06544E-01 3.73468E-03 6.77061E-01 3.28973E-13 4.17996E-13
 -1      2230 2.04176E+01 7.00058E-01 2.07818E-02 9.68710E-01 3.63699E-13 4.68194E-13
 -1      2231 1.95586E+01 3.51650E+00-1.11071E-02-5.91062E-01-2.47345E-14-4.84484E-13
 -1      2232 1.95943E+01 3.47043E+00-1.05018E-02-7.75428E-01-7.80949E-14-4.85620E-13
 -1      2233 1.96414E+01 3.38186E+00-1.27891E-02-9.39573E-01-1.06500E-13-4.81979E-13
 -1      2234 1.97026E+01 3.30123E+00-1.27612E-02-1.12939E+00-1.59568E-13-4.65930E-13
 -1      2235 1.97857E+01 3.03380E+00 3.29349E-04-7.91303E-01-9.01984E-14-4.51915E-13
 -1      2236 1.95109E+01 3.59915E+00-9.61518E-03 9.94099E-02 1.46004E-13-4.73674E-13
 -1      2237 1.95103E+01 3.59997E+00-9.62171E-03-7.99902E-02 1.04079E-13-4.78108E-13
 -1      2238 1.95372E+01 3.55973E+00-9.71641E-03 4.45283E-01 2.19507E-13-4.49672E-13
 -1      2239 1.95197E+01 3.58230E+00-1.01371E-02 2.64524E-01 1.76890E-13-4.65976E-13
 -1      2240 1.96770E+01 3.22196E+00-8.97859E-04 1.69490E-01 1.53158E-13-4.42639E-13
 -1      2241 1.95994E+01 3.46315E+00-1.06033E-02 7.89116E-01 2.96862E-13-3.83639E-13
 -1      2242 1.95629E+01 3.51017E+00-1.12081E-02 6.07735E-01 2.47618E-13-4.23384E-13
 -1      2243 1.97141E+01 3.15840E+00-5.00398E-04 4.87752E-01 2.19320E-13-3.98101E-13
 -1      2244 1.97106E+01 3.28934E+00-1.29446E-02 1.14236E+00 3.82711E-13-2.63484E-13
 -1      2245 1.96477E+01 3.37269E+00-1.28728E-02 9.53134E-01 3.31407E-13-3.28366E-13
 -1      2246 1.97915E+01 3.02468E+00 2.72902E-04 8.03292E-01 3.04320E-13-3.13134E-13
 -1      2247 1.98905E+01 3.00368E+00-1.81623E-02 1.48929E+00 4.57357E-13-1.30878E-13
 -1      2248 1.97906E+01 3.14500E+00-1.51808E-02 1.29893E+00 4.09012E-13-2.02115E-13
 -1      2249 1.99213E+01 2.79946E+00 1.96127E-03 1.10942E+00 3.77821E-13-1.96452E-13
 -1      2250 2.01697E+01 2.54399E+00-2.83931E-02 1.79361E+00 5.07970E-13 4.37393E-14
 -1      2251 2.00181E+01 2.78341E+00-1.70969E-02 1.61913E+00 4.68576E-13-5.25517E-14
 -1      2252 2.01167E+01 2.44866E+00 5.81710E-03 1.37506E+00 4.36179E-13-6.31682E-14
 -1      2253 1.98731E+01 2.68333E-01 4.73512E-03 2.84421E-01 2.39809E-13 3.57670E-13
 -1      2254 2.00336E+01 3.68094E-01 2.01699E-02 4.41618E-01 2.83496E-13 4.09903E-13
 -1      2255 2.02122E+01 6.34731E-01-2.24747E-03 7.03789E-01 3.32387E-13 2.41882E-13
 -1      2256 2.04034E+01 8.55738E-01 1.35235E-02-9.98654E-01-3.10032E-13-2.42404E-14
 -1      2257 2.01910E+01 6.27090E-01-4.67587E-03-6.90771E-01-2.81717E-13-2.59252E-14
 -1      2258 3.10911E+01-3.41266E+00-7.05033E-02 7.64390E+00 4.36040E-13-2.55546E-13
 -1      2259 2.81450E+01-4.39803E+00 5.71827E-02 8.96736E+00 3.65707E-13 5.36515E-14
 -1      2260 2.64425E+01-3.33169E+00 4.45358E-02-9.15034E+00 6.77625E-13 1.71085E-12
 -1      2261 2.41833E+01-3.01191E+00 2.16457E-02-1.09167E+01 3.87107E-13 1.61662E-12
 -1      2262 2.01259E+01 4.69982E-01 1.61972E-02-4.73812E-01-2.38468E-13-7.17232E-15
 -1      2263 1.99853E+01 3.44602E-01 8.90168E-05-3.02359E-01-1.88221E-13-1.79066E-14
 -1      2264 2.02463E+01 7.49550E-01-6.72924E-04-6.92843E-01-2.62819E-13-8.88148E-14
 -1      2265 1.99218E+01 2.59596E-01 1.08763E-02-1.65032E-01-1.65481E-13-1.27480E-14
 -1      2266 1.98432E+01 1.88100E-01 7.26862E-04-6.78106E-02-1.46517E-13-1.73847E-14
 -1      2267 2.00818E+01 4.16270E-01-3.63002E-03-3.09388E-01-1.93284E-13-8.23189E-14
 -1      2268 1.97989E+01 1.38576E-01 6.40456E-03 1.42499E-02-1.14910E-13-2.62120E-14
 -1      2269 1.97639E+01 9.61941E-02 7.19853E-04 6.75290E-02-9.52036E-14-2.25918E-14
 -1      2270 1.99609E+01 2.27298E-01-3.60961E-03-7.03347E-02-1.36749E-13-7.60130E-14
 -1      2271 1.97380E+01 6.62419E-02 3.57928E-03 1.13181E-01-8.46757E-14-3.09787E-14
 -1      2272 1.97307E+01 4.06494E-02 6.12562E-04 1.39672E-01-9.01602E-14-4.51456E-14
 -1      2273 1.98851E+01 1.14771E-01-2.91727E-03 7.02831E-02-1.07812E-13-7.71170E-14
 -1      2274 1.97190E+01 2.23313E-02 1.85414E-03 1.61802E-01-1.19285E-13-4.45310E-14
 -1      2275 1.97281E+01 7.00412E-03 4.86819E-04 1.71805E-01-8.81414E-14-5.49331E-14
 -1      2276 1.98454E+01 4.64771E-02-2.11226E-03 1.46295E-01-1.18401E-13-7.46103E-14
 -1      2277 1.97260E+01-3.99430E-03 7.91517E-04 1.79010E-01-7.91931E-14-6.47639E-14
 -1      2278 1.97441E+01-1.27840E-02 3.65265E-04 1.79005E-01-8.22755E-14-9.39480E-14
 -1      2279 1.98311E+01 5.18622E-03-1.42438E-03 1.80569E-01-1.16800E-13-1.25230E-13
 -1      2280 1.97480E+01-1.90201E-02 1.41026E-04 1.77060E-01-1.19929E-13-1.29894E-13
 -1      2281 1.97700E+01-2.35629E-02 2.61675E-04 1.71253E-01-1.61636E-13-1.23501E-13
 -1      2282 1.98334E+01-1.89121E-02-9.02511E-04 1.88523E-01-1.24948E-13-1.66746E-13
 -1      2283 1.97773E+01-2.66626E-02-2.42836E-04 1.64053E-01-1.56380E-13-1.39439E-13
 -1      2284 1.98001E+01-2.84441E-02 1.81136E-04 1.55213E-01-1.47842E-13-1.45993E-13
 -1      2285 1.98454E+01-3.18185E-02-5.30090E-04 1.80586E-01-1.77316E-13-1.79562E-13
 -1      2286 1.98089E+01-2.94897E-02-4.50986E-04 1.45376E-01-1.25450E-13-1.54399E-13
 -1      2287 1.98307E+01-2.95046E-02 1.23400E-04 1.35322E-01-1.00327E-13-1.56379E-13
 -1      2288 1.98624E+01-3.74087E-02-2.75887E-04 1.63810E-01-1.60298E-13-1.48939E-13
 -1      2289 1.98398E+01-2.92321E-02-5.43757E-04 1.24582E-01-9.03732E-14-1.31461E-13
 -1      2290 1.98596E+01-2.81519E-02 8.61812E-05 1.14490E-01-3.85949E-14-9.46911E-14
 -1      2291 1.98813E+01-3.82740E-02-1.10419E-04 1.42925E-01-7.55001E-14-1.27982E-13
 -1      2292 1.98684E+01-2.70606E-02-5.62500E-04 1.03974E-01-1.84079E-14-1.03057E-13
 -1      2293 1.98856E+01-2.53311E-02 6.71631E-05 9.45862E-02-2.21663E-14-9.66246E-14
 -1      2294 1.99002E+01-3.61661E-02-9.90411E-06 1.21058E-01-3.28830E-14-7.01520E-14
 -1      2295 1.98937E+01-2.37499E-02-5.35792E-04 8.50036E-02-7.06228E-14-1.08820E-13
 -1      2296 1.99085E+01-2.16533E-02 6.48263E-05 7.67751E-02-1.11109E-13-1.22021E-13
 -1      2297 1.99179E+01-3.22535E-02 4.36189E-05 1.00226E-01-6.47300E-14-5.18556E-14
 -1      2298 1.99157E+01-1.97851E-02-4.83228E-04 6.85668E-02-6.21304E-14-1.26042E-13
 -1      2299 1.99282E+01-1.74819E-02 7.87251E-05 6.17727E-02-1.80860E-14-5.74794E-14
 -1      2300 1.99339E+01-2.72827E-02 6.32848E-05 8.17066E-02-6.78851E-14-1.28504E-14
 -1      2301 1.99347E+01-1.54350E-02-4.18013E-04 5.52161E-02-3.63357E-14-7.31960E-14
 -1      2302 1.99454E+01-1.29944E-02 1.09494E-04 5.00332E-02 6.60538E-15-4.14134E-14
 -1      2303 1.99483E+01-2.16871E-02 5.84078E-05 6.63028E-02-4.24815E-14 1.18116E-14
 -1      2304 1.99512E+01-1.08053E-02-3.48783E-04 4.53226E-02-1.32648E-14-8.45138E-14
 -1      2305 1.99607E+01-8.22718E-03 1.58781E-04 4.18894E-02-4.04040E-14-1.01771E-13
 -1      2306 1.99612E+01-1.56651E-02 3.53274E-05 5.45473E-02-4.14909E-14-7.43422E-15
 -1      2307 1.99662E+01-5.87796E-03-2.80924E-04 3.91971E-02-8.29852E-14-1.04298E-13
 -1      2308 1.99750E+01-3.10993E-03 2.29119E-04 3.76598E-02-6.72480E-14-1.66233E-13
 -1      2309 1.99731E+01-9.23721E-03-1.83485E-06 4.68527E-02-7.00124E-14-8.50154E-14
 -1      2310 1.99805E+01-5.41897E-04-2.17564E-04 3.71814E-02 6.41744E-15-1.86756E-13
 -1      2311 1.99894E+01 2.50739E-03 3.23716E-04 3.77276E-02-2.63180E-14-1.57785E-13
 -1      2312 1.99847E+01-2.28977E-03-5.05701E-05 4.36263E-02-4.12240E-14-6.04889E-14
 -1      2313 1.99954E+01 5.38195E-03-1.60279E-04 3.97152E-02-2.92795E-14-1.48611E-13
 -1      2314 2.00053E+01 8.82994E-03 4.46094E-04 4.25975E-02 1.01715E-14-2.05466E-13
 -1      2315 1.99968E+01 5.38909E-03-1.09514E-04 4.53536E-02-2.81600E-14-1.20712E-13
 -1      2316 2.00122E+01 1.21157E-02-1.09594E-04 4.73811E-02 3.97045E-14-1.96802E-13
 -1      2317 2.00241E+01 1.60921E-02 5.99550E-04 5.29305E-02 1.26166E-13-1.49787E-13
 -1      2318 2.00103E+01 1.40762E-02-1.77959E-04 5.26567E-02 4.60630E-14-2.08902E-13
 -1      2319 2.00325E+01 1.98961E-02-6.53188E-05 6.09271E-02 1.04496E-13-1.84751E-13
 -1      2320 2.00474E+01 2.45249E-02 7.86310E-04 6.95536E-02 1.41054E-14-2.30963E-13
 -1      2321 2.00264E+01 2.40765E-02-2.55425E-04 6.63266E-02 7.68405E-14-1.55829E-13
 -1      2322 2.00580E+01 2.89371E-02-2.67094E-05 8.12610E-02-1.23151E-14-2.43357E-13
 -1      2323 2.00772E+01 3.43108E-02 1.00624E-03 9.34389E-02 7.40021E-15-1.97850E-13
 -1      2324 2.00462E+01 3.56753E-02-3.41276E-04 8.73259E-02-7.03268E-15-2.30011E-13
 -1      2325 2.00906E+01 3.93754E-02 7.57982E-06 1.09408E-01-5.98742E-14-1.68758E-13
 -1      2326 2.01156E+01 4.55167E-02 1.25494E-03 1.25637E-01-7.44386E-14-1.35563E-13
 -1      2327 2.00713E+01 4.90716E-02-4.34392E-04 1.16753E-01-1.73024E-14-2.04731E-13
 -1      2328 2.01327E+01 5.11890E-02 3.98137E-05 1.46417E-01-9.82079E-14-1.51456E-13
 -1      2329 2.01649E+01 5.79931E-02 1.52092E-03 1.67148E-01-1.02867E-13-1.95864E-13
 -1      2330 2.01033E+01 6.42785E-02-5.32960E-04 1.55754E-01-9.99132E-14-2.04348E-13
 -1      2331 2.01867E+01 6.40768E-02 7.38715E-05 1.93185E-01-5.45379E-14-1.73413E-13
 -1      2332 2.02276E+01 7.12262E-02 1.78184E-03 2.18701E-01 7.53846E-15-1.17296E-13
 -1      2333 2.01438E+01 8.09760E-02-6.34524E-04 2.05360E-01-1.10097E-13-2.00057E-13
 -1      2334 2.02551E+01 7.72800E-02 1.16491E-04 2.50181E-01-1.04853E-14-2.49408E-13
 -1      2335 2.03063E+01 8.41217E-02 1.99930E-03 2.80401E-01-1.30080E-14-2.67682E-13
 -1      2336 2.01949E+01 9.82944E-02-7.36527E-04 2.66216E-01-4.48837E-14-1.50749E-13
 -1      2337 2.03405E+01 8.93298E-02 1.79263E-04 3.17008E-01-4.44506E-14-2.05885E-13
 -1      2338 2.04033E+01 9.47052E-02 2.11245E-03 3.51200E-01-9.08631E-14-2.63413E-13
 -1      2339 2.02586E+01 1.14507E-01-8.37728E-04 3.38168E-01-4.62706E-14-1.49583E-13
 -1      2340 2.04457E+01 9.77012E-02 2.81533E-04 3.91760E-01-1.01066E-13-3.39585E-13
 -1      2341 2.05208E+01 9.97248E-02 2.03077E-03 4.28128E-01-1.31781E-13-3.69595E-13
 -1      2342 2.03372E+01 1.26606E-01-9.40872E-04 4.19651E-01-1.56446E-13-1.52343E-13
 -1      2343 2.05729E+01 9.83741E-02 4.54028E-04 4.70120E-01-9.00076E-14-2.29951E-13
 -1      2344 2.06602E+01 9.41747E-02 1.62748E-03 5.05238E-01-7.62434E-14-1.36589E-13
 -1      2345 2.04331E+01 1.29766E-01-1.05684E-03 5.06829E-01-2.82444E-14-8.49171E-14
 -1      2346 2.07239E+01 8.53454E-02 7.42044E-04 5.44139E-01-9.39953E-14-2.38173E-14
 -1      2347 2.08219E+01 7.08317E-02 7.36924E-04 5.72250E-01 1.71794E-14 1.05590E-13
 -1      2348 2.05492E+01 1.16723E-01-1.20960E-03 5.92435E-01 9.87155E-15 1.17240E-13
 -1      2349 2.08997E+01 5.02461E-02 1.20464E-03 6.00723E-01 8.43749E-14 8.80186E-14
 -1      2350 2.10049E+01 2.00546E-02-8.36970E-04 6.12965E-01 1.04491E-14 2.10473E-13
 -1      2351 2.06888E+01 7.72535E-02-1.43895E-03 6.64306E-01 1.02179E-14 2.29035E-13
 -1      2352 2.10999E+01-1.75589E-02 1.90167E-03 6.19986E-01-1.09851E-13 1.53779E-13
 -1      2353 2.12062E+01-6.95923E-02-3.28997E-03 6.03779E-01-5.52480E-14 1.41252E-13
 -1      2354 2.08560E+01-1.84327E-03-1.79344E-03 7.03702E-01-7.06571E-14 1.94714E-13
 -1      2355 2.13218E+01-1.29622E-01 2.85047E-03 5.73936E-01-4.07144E-14 1.62060E-13
 -1      2356 2.14195E+01-2.08845E-01-6.74093E-03 5.13042E-01-7.86274E-15 4.64542E-14
 -1      2357 2.10558E+01-1.35395E-01-2.29893E-03 6.83721E-01-1.30140E-13 1.46710E-13
 -1      2358 2.15586E+01-2.94476E-01 3.93812E-03 4.26618E-01-4.50848E-14 6.88758E-14
 -1      2359 2.16336E+01-4.01746E-01-1.10723E-02 3.02831E-01-9.02876E-14 1.62622E-13
 -1      2360 2.12931E+01-3.35596E-01-2.87548E-03 5.68589E-01-5.55886E-14 1.95057E-13
 -1      2361 2.17950E+01-5.09333E-01 4.76508E-03 1.37893E-01-1.26021E-13 1.84000E-13
 -1      2362 2.18281E+01-6.34390E-01-1.56145E-02-6.41460E-02-1.97021E-15 2.03678E-13
 -1      2363 2.15693E+01-6.02626E-01-3.17184E-03 3.15513E-01-7.54668E-14 2.38383E-13
 -1      2364 2.19997E+01-7.46088E-01 4.53121E-03-3.25409E-01-1.36822E-14 1.06061E-13
 -1      2365 2.19673E+01-8.58523E-01-1.86840E-02-6.08492E-01-6.56463E-14 5.82040E-14
 -1      2366 2.18744E+01-9.08219E-01-2.32549E-03-1.17634E-01-4.06355E-14 1.80216E-13
 -1      2367 2.21166E+01-9.34246E-01 1.96414E-03-9.65913E-01-4.79209E-14-5.97747E-14
 -1      2368 2.19937E+01-9.77126E-01-1.75139E-02-1.30500E+00-3.77341E-14-4.40512E-14
 -1      2369 2.21722E+01-1.17377E+00 1.07991E-03-7.53231E-01-1.18450E-13-1.02746E-13
 -1      2370 2.20607E+01-9.53771E-01-4.41529E-03-1.71748E+00-2.01934E-13-1.33893E-14
 -1      2371 2.18309E+01-8.52557E-01-9.36840E-03-2.04337E+00-3.22046E-13-1.36826E-13
 -1      2372 2.23835E+01-1.25675E+00 7.74193E-03-1.55703E+00-2.19817E-13 2.62530E-14
 -1      2373 2.17405E+01-6.64530E-01-1.43342E-02-2.40538E+00-2.43851E-13-3.96668E-14
 -1      2374 2.14127E+01-3.67251E-01 5.94986E-03-2.60151E+00-7.74984E-14-5.52167E-14
 -1      2375 2.23860E+01-9.78130E-01 1.51577E-02-2.38669E+00-1.96531E-13 1.49438E-13
 -1      2376 2.11222E+01 1.46432E-03-2.31946E-02-2.74822E+00-1.04084E-13-9.79759E-14
 -1      2377 2.07450E+01 4.59369E-01 2.28884E-02-2.68427E+00 1.11178E-14-2.22093E-13
 -1      2378 2.20642E+01-2.23562E-01 1.71022E-02-2.96226E+00-1.40735E-13 7.24413E-14
 -1      2379 2.03111E+01 9.15835E-01-2.25278E-02-2.45683E+00 7.00789E-14-2.85902E-13
 -1      2380 1.99721E+01 1.36557E+00 2.95952E-02-2.06522E+00 3.29641E-14-3.74009E-13
 -1      2381 2.14132E+01 9.05088E-01 9.39362E-03-2.92492E+00-9.94504E-14-6.82615E-14
 -1      2382 1.95653E+01 1.70914E+00-1.04859E-02-1.45489E+00-7.68361E-14-4.60859E-13
 -1      2383 1.93506E+01 1.93857E+00 2.02058E-02-8.16446E-01-2.71866E-14-4.79906E-13
 -1      2384 2.06418E+01 1.99762E+00-5.29664E-03-2.06797E+00-5.59908E-14-4.02107E-13
 -1      2385 1.91350E+01 1.98417E+00 1.05118E-02-1.02168E-02 7.29208E-14-5.87447E-13
 -1      2386 1.90871E+01 1.86724E+00 2.84994E-03 6.58960E-01-9.05274E-14-4.80605E-13
 -1      2387 2.00596E+01 2.53868E+00-1.24498E-02-5.65434E-01 5.21154E-14-3.08405E-13
 -1      2388 1.90387E+01 1.59064E+00 1.49213E-02 1.35504E+00-1.60823E-13-4.74113E-13
 -1      2389 1.91254E+01 1.19872E+00-2.50269E-02 1.83303E+00-3.19241E-14-4.54603E-13
 -1      2390 1.98211E+01 2.24057E+00-1.05289E-03 1.00452E+00-1.18074E-13-6.85285E-13
 -1      2391 2.18558E+01-5.12735E-01-4.00811E-02 1.65820E+00 3.74944E-13-5.99638E-13
 -1      2392 2.29086E+01-6.39911E-01 4.37304E-02 8.39924E-01 3.71567E-13-4.55056E-13
 -1      2393 1.96263E+01 7.26772E-02 2.07234E-03-6.72277E-02 9.72185E-14 2.37818E-13
 -1      2394 1.96534E+01 1.04416E-01 6.91112E-03-2.10327E-02 1.27141E-13 2.76100E-13
 -1      2395 1.96030E+01 3.07855E-02 1.33666E-03-1.32973E-01 7.33812E-14 1.94595E-13
 -1      2396 1.95997E+01 4.97247E-02 3.68130E-03-1.10436E-01 7.57686E-14 2.13650E-13
 -1      2397 1.97702E+01 8.99776E-02-3.16995E-03-7.27587E-02 1.23673E-13 1.27883E-13
 -1      2398 1.96153E+01 5.69218E-03 8.67655E-04-1.61429E-01 1.15632E-13 1.63274E-13
 -1      2399 1.95951E+01 1.69729E-02 1.81319E-03-1.53184E-01 8.31262E-14 1.72673E-13
 -1      2400 1.97362E+01 3.59395E-02-2.27893E-03-1.45133E-01 9.68317E-14 8.36481E-14
 -1      2401 1.96476E+01-9.00111E-03 5.43788E-04-1.67055E-01 1.60906E-13 1.49620E-13
 -1      2402 1.96191E+01-2.52158E-03 7.13644E-04-1.67392E-01 1.33358E-13 1.72136E-13
 -1      2403 1.97329E+01 3.73145E-03-1.50690E-03-1.76887E-01 1.22289E-13 3.82529E-14
 -1      2404 1.96896E+01-1.70145E-02 3.16031E-04-1.59156E-01 8.11170E-14 1.58603E-13
 -1      2405 1.96582E+01-1.36300E-02 5.94480E-05-1.64432E-01 1.41829E-13 1.74293E-13
 -1      2406 1.97482E+01-1.49114E-02-9.27396E-04-1.83458E-01 1.28470E-13 7.43240E-14
 -1      2407 1.97343E+01-2.06832E-02 1.59624E-04-1.43840E-01 7.89995E-14 1.46691E-13
 -1      2408 1.97034E+01-1.93044E-02-3.17597E-04-1.51681E-01 7.44373E-14 1.69115E-13
 -1      2409 1.97735E+01-2.48481E-02-5.20411E-04-1.75007E-01 9.40658E-14 6.91395E-14
 -1      2410 1.97777E+01-2.15471E-02 5.75776E-05-1.25125E-01 8.13727E-14 1.09864E-13
 -1      2411 1.97492E+01-2.14506E-02-5.15719E-04-1.33982E-01 1.09584E-13 1.51556E-13
 -1      2412 1.98030E+01-2.91424E-02-2.46986E-04-1.58286E-01 1.22964E-13 8.33709E-14
 -1      2413 1.98175E+01-2.06444E-02-3.23419E-06-1.05629E-01 1.58835E-13 1.49743E-14
 -1      2414 1.97922E+01-2.13429E-02-5.97659E-04-1.14504E-01 9.17255E-14 6.45831E-14
 -1      2415 1.98331E+01-2.98147E-02-7.20241E-05-1.37774E-01 1.21882E-13-1.62945E-14
 -1      2416 1.98525E+01-1.86731E-02-3.25780E-05-8.70124E-02 1.41598E-13 7.10647E-14
 -1      2417 1.98308E+01-1.98417E-02-6.05419E-04-9.52828E-02 1.70126E-13 9.15665E-14
 -1      2418 1.98615E+01-2.82223E-02 3.18318E-05-1.16403E-01 1.04294E-13 1.37142E-14
 -1      2419 1.98825E+01-1.60877E-02-3.71354E-05-7.02977E-02 1.01119E-13 1.52588E-13
 -1      2420 1.98643E+01-1.75186E-02-5.67554E-04-7.75863E-02 1.42984E-13 1.48386E-13
 -1      2421 1.98872E+01-2.52708E-02 8.49331E-05-9.60465E-02 1.07184E-13 4.99552E-14
 -1      2422 1.99078E+01-1.31618E-02-2.08910E-05-5.60957E-02-1.66076E-14 9.54152E-14
 -1      2423 1.98928E+01-1.47350E-02-5.03330E-04-6.21807E-02 6.39327E-14 1.63178E-13
 -1      2424 1.99097E+01-2.15417E-02 1.01854E-04-7.78736E-02 7.13001E-14 1.50766E-13
 -1      2425 1.99292E+01-1.00326E-02 1.44911E-05-4.47766E-02 4.57803E-14 3.88782E-14
 -1      2426 1.99167E+01-1.16941E-02-4.25392E-04-4.95217E-02 1.50616E-15 6.71026E-14
 -1      2427 1.99292E+01-1.73762E-02 9.26719E-05-6.26010E-02 2.83768E-14 1.12362E-13
 -1      2428 1.99476E+01-6.73205E-03 6.93980E-05-3.65997E-02 5.76344E-14 1.12406E-14
 -1      2429 1.99370E+01-8.47912E-03-3.41610E-04-3.99009E-02 5.54249E-14 3.26344E-14
 -1      2430 1.99462E+01-1.29338E-02 6.40437E-05-5.06866E-02 7.40273E-14 7.52606E-14
 -1      2431 1.99642E+01-3.20885E-03 1.46056E-04-3.18130E-02-1.99399E-14 1.13409E-13
 -1      2432 1.99547E+01-5.07971E-03-2.56427E-04-3.35575E-02 4.14407E-14 1.02872E-13
 -1      2433 1.99613E+01-8.23314E-03 1.99837E-05-4.24758E-02-1.51066E-14 4.71029E-14
 -1      2434 1.99804E+01 6.55813E-04 2.48428E-04-3.07329E-02-2.26639E-14 5.15815E-14
 -1      2435 1.99711E+01-1.41075E-03-1.71868E-04-3.07655E-02-3.76966E-14 7.03560E-14
 -1      2436 1.99755E+01-3.18189E-03-3.74482E-05-3.83142E-02-3.98314E-14 8.67338E-14
 -1      2437 1.99978E+01 5.03888E-03 3.82140E-04-3.38085E-02-2.44620E-14 1.13142E-14
 -1      2438 1.99877E+01 2.67519E-03-8.83146E-05-3.19038E-02-5.37673E-15 4.94112E-14
 -1      2439 1.99898E+01 2.40390E-03-1.07610E-04-3.86374E-02-1.70535E-14 8.11557E-14
 -1      2440 2.00183E+01 1.01693E-02 5.54408E-04-4.16775E-02 1.73043E-13-7.46447E-14
 -1      2441 2.00062E+01 7.38010E-03-5.10263E-06-3.75152E-02 5.66041E-14-3.06722E-14
 -1      2442 2.00057E+01 8.78701E-03-1.90840E-04-4.40438E-02 3.83020E-14-1.08030E-13
 -1      2443 2.00439E+01 1.63245E-02 7.73946E-04-5.52139E-02 7.67843E-14 1.06206E-13
 -1      2444 2.00285E+01 1.29558E-02 7.89814E-05-4.83568E-02 1.53044E-13 3.62387E-14
 -1      2445 2.00244E+01 1.63012E-02-2.87974E-04-5.53561E-02 9.00092E-14-4.77755E-14
 -1      2446 2.00774E+01 2.38270E-02 1.05076E-03-7.55705E-02-3.37986E-14 5.29495E-14
 -1      2447 2.00569E+01 1.97008E-02 1.65235E-04-6.54445E-02 3.32716E-14 8.61091E-14
 -1      2448 2.00479E+01 2.53458E-02-3.99808E-04-7.36733E-02 5.53496E-14 1.62232E-13
 -1      2449 2.01216E+01 3.30391E-02 1.39567E-03-1.04214E-01-2.11972E-14-1.30707E-14
 -1      2450 2.00942E+01 2.79563E-02 2.54566E-04-9.00911E-02-6.46012E-14 4.28172E-14
 -1      2451 2.00781E+01 3.63801E-02-5.26500E-04-1.00413E-01-7.75397E-15 3.56378E-14
 -1      2452 2.01801E+01 4.43501E-02 1.81921E-03-1.42947E-01 8.38267E-15-9.21246E-14
 -1      2453 2.01435E+01 3.80981E-02 3.46981E-04-1.23934E-01 1.77106E-14-7.01583E-14
 -1      2454 2.01173E+01 4.99127E-02-6.66831E-04-1.37340E-01 3.07632E-14-9.42854E-14
 -1      2455 2.02570E+01 5.81460E-02 2.32956E-03-1.93904E-01 7.02781E-14 1.17455E-14
 -1      2456 2.02085E+01 5.05173E-02 4.41002E-04-1.68947E-01-1.72564E-14-4.04486E-14
 -1      2457 2.01682E+01 6.64768E-02-8.17340E-04-1.86580E-01-2.47793E-14-1.17059E-13
 -1      2458 2.03570E+01 7.47431E-02 2.92838E-03-2.59502E-01-5.87903E-14 1.71769E-13
 -1      2459 2.02933E+01 6.55759E-02 5.33043E-04-2.27413E-01 4.18491E-15 1.23781E-13
 -1      2460 2.02336E+01 8.65749E-02-9.71441E-04-2.50583E-01-5.97093E-14-1.94701E-14
 -1      2461 2.04851E+01 9.42501E-02 3.60320E-03-3.42281E-01-1.58254E-13 4.19020E-13
 -1      2462 2.04028E+01 8.35120E-02 6.16894E-04-3.01825E-01-6.87993E-14 3.25375E-13
 -1      2463 2.03169E+01 1.10561E-01-1.11891E-03-3.32028E-01-1.92313E-13 1.20626E-13
 -1      2464 2.06469E+01 1.16295E-01 4.31395E-03-4.44566E-01-1.81466E-13 4.51222E-13
 -1      2465 2.05421E+01 1.04249E-01 6.83718E-04-3.94656E-01-1.17346E-13 4.02846E-13
 -1      2466 2.04212E+01 1.38405E-01-1.24662E-03-4.33587E-01-1.45525E-13 2.85073E-13
 -1      2467 2.08478E+01 1.39509E-01 4.97033E-03-5.67779E-01-1.22439E-14 1.95855E-13
 -1      2468 2.07167E+01 1.27022E-01 7.23524E-04-5.07870E-01-4.91895E-14 3.75380E-13
 -1      2469 2.05498E+01 1.69230E-01-1.34243E-03-5.57456E-01-5.84310E-14 5.60546E-14
 -1      2470 2.10926E+01 1.60587E-01 5.39675E-03-7.11135E-01 7.39363E-14-2.76006E-14
 -1      2471 2.09320E+01 1.49690E-01 7.30162E-04-6.41976E-01-3.44585E-14 1.07641E-13
 -1      2472 2.07061E+01 2.00463E-01-1.40568E-03-7.04474E-01 8.25394E-14 2.07786E-15
 -1      2473 2.13849E+01 1.72692E-01 5.28363E-03-8.69323E-01 1.07176E-14 9.21272E-14
 -1      2474 2.11928E+01 1.67515E-01 7.13783E-04-7.94305E-01 7.43990E-14 6.56333E-14
 -1      2475 2.08928E+01 2.26330E-01-1.46975E-03-8.72546E-01 3.24348E-14 4.51372E-14
 -1      2476 2.17262E+01 1.62970E-01 4.13294E-03-1.02859E+00-1.50513E-14 2.45056E-13
 -1      2477 2.15035E+01 1.71162E-01 7.27136E-04-9.56007E-01-5.50995E-14 1.24525E-13
 -1      2478 2.11132E+01 2.35389E-01-1.64348E-03-1.05397E+00-1.31273E-14 1.98810E-13
 -1      2479 2.21148E+01 1.09254E-01 1.22367E-03-1.16064E+00 1.55835E-13 3.37150E-13
 -1      2480 2.18672E+01 1.43773E-01 9.13342E-04-1.10713E+00 9.20463E-14 3.39411E-13
 -1      2481 2.13720E+01 2.06861E-01-2.17257E-03-1.23111E+00-5.24599E-14 2.62314E-13
 -1      2482 2.25463E+01-2.26828E-02-4.32247E-03-1.21424E+00 8.28131E-14 4.42752E-13
 -1      2483 2.22865E+01 5.76073E-02 1.56504E-03-1.20922E+00 1.65008E-13 4.38131E-13
 -1      2484 2.16787E+01 1.06259E-01-3.49508E-03-1.36987E+00 1.08175E-13 2.26741E-13
 -1      2485 2.30122E+01-2.76710E-01-1.32299E-02-1.10620E+00 1.19367E-13 4.62587E-13
 -1      2486 2.27640E+01-1.27152E-01 3.15330E-03-1.19565E+00 1.41241E-13 4.79574E-13
 -1      2487 2.20522E+01-1.16930E-01-6.16548E-03-1.41071E+00 1.64396E-13 4.28906E-13
 -1      2488 2.34972E+01-6.87798E-01-2.53017E-02-7.18581E-01 2.75569E-13 1.45678E-13
 -1      2489 2.32992E+01-4.54199E-01 6.06410E-03-9.63017E-01 2.14884E-13 3.17434E-13
 -1      2490 2.25260E+01-5.21318E-01-1.04002E-02-1.25870E+00 3.17684E-13 2.73572E-13
 -1      2491 2.39652E+01-1.22882E+00-3.77458E-02 8.14794E-02 3.53953E-14 4.83767E-14
 -1      2492 2.38755E+01-9.38713E-01 9.52915E-03-3.74661E-01 2.33420E-13 1.36825E-13
 -1      2493 2.31447E+01-1.13812E+00-1.50662E-02-7.78795E-01 2.51668E-13 1.97053E-13
 -1      2494 2.43244E+01-1.71930E+00-4.47443E-02 1.36310E+00-9.67369E-14-7.45393E-14
 -1      2495 2.44209E+01-1.49206E+00 9.51550E-03 6.93914E-01-1.83333E-13-6.03562E-14
 -1      2496 2.39290E+01-1.88110E+00-1.61596E-02 1.81671E-01-2.55820E-14 6.77995E-15
 -1      2497 2.43917E+01-1.72802E+00-3.32689E-02 2.98648E+00-1.54904E-13 2.76909E-13
 -1      2498 2.47546E+01-1.82367E+00-2.52705E-03 2.23776E+00-5.62883E-14 1.27222E-13
 -1      2499 2.47996E+01-2.43517E+00-1.18000E-02 1.70582E+00-2.06373E-13 1.18602E-13
 -1      2500 2.38994E+01-7.68823E-01-1.01758E-02 4.32412E+00 1.60627E-13 2.08816E-13
 -1      2501 2.45295E+01-1.39607E+00-3.72752E-02 3.85282E+00-1.23971E-13 1.60336E-13
 -1      2502 2.54367E+01-2.10329E+00 5.77023E-03 3.58059E+00-8.81344E-14 2.42134E-13
 -1      2503 2.27527E+01 1.10303E+00-1.76030E-02 4.43354E+00 5.74485E-13 1.97276E-13
 -1      2504 2.35563E+01 8.17475E-02-8.68531E-02 4.64537E+00 4.44783E-13 2.54614E-13
 -1      2505 2.53559E+01-4.67617E-01-2.67509E-02 4.97913E+00 3.13565E-13 1.31527E-13
 -1      2506 2.15889E+01 2.71275E+00-2.35671E-02 2.70114E+00 3.54855E-13 2.11067E-13
 -1      2507 2.22227E+01 2.07757E+00-6.59305E-02 3.66877E+00 5.84331E-13 2.07266E-13
 -1      2508 2.45190E+01 2.07493E+00-4.06068E-02 4.61072E+00 5.30305E-13 2.56718E-13
 -1      2509 2.10231E+01 2.77993E+00-6.63610E-02 3.57256E-02 1.93019E-13-6.68341E-14
 -1      2510 2.12665E+01 3.00489E+00-2.68864E-02 1.22891E+00 2.67140E-13 1.49658E-13
 -1      2511 2.36353E+01 3.89999E+00-8.75602E-02 2.28889E+00 3.73424E-13 2.37130E-13
 -1      2512 2.11174E+01 1.42653E+00-6.97465E-02-1.88335E+00-3.73521E-14-1.36158E-14
 -1      2513 2.10458E+01 2.19020E+00-2.66017E-03-1.16072E+00 5.91333E-14 1.69049E-15
 -1      2514 2.32804E+01 3.35452E+00-7.98746E-02-5.64738E-01 1.18322E-13 1.51022E-13
 -1      2515 2.11268E+01 2.41292E-02-2.20531E-02-2.34962E+00 2.25809E-14-1.00963E-13
 -1      2516 2.10053E+01 6.81752E-01 8.10670E-03-2.21989E+00 8.65280E-15-1.79899E-14
 -1      2517 2.31545E+01 1.44789E+00-4.08670E-03-2.07690E+00 5.65104E-14 3.64583E-13
 -1      2518 2.05371E+01-4.51260E-01-1.98777E-04-2.12056E+00-7.59930E-14-2.54105E-13
 -1      2519 1.48918E+01 1.47748E+00 1.20629E-01 9.09951E+00-1.96482E-13 7.94920E-14
 -1      2520 2.74348E+01-1.78633E+00 1.42754E-02 2.08896E+00 1.51198E-13-6.85257E-13
 -1      2521 2.57489E+01-1.43947E+00-1.16507E-01 1.82042E-01 3.48468E-13-4.06557E-13
 -1      2522 2.72118E+01-3.49235E+00 1.40455E-02 8.41036E+00-1.19488E-14-3.70273E-13
 -1      2523 2.82036E+01-3.31738E+00-3.12528E-03 5.71099E+00 1.36099E-13-7.19189E-13
 -1      2524 9.51191E+00 6.68757E-01-1.74313E-01 7.01914E+00-1.19238E-13 1.83964E-13
 -1      2525 2.47204E+01-4.48668E+00 9.19923E-03 1.09583E+01 3.06088E-13 2.22378E-13
 -1      2526 2.00830E+01-3.82233E+00 4.69321E-02 1.14765E+01 1.35392E-13-5.03486E-14
 -1      2527 2.41396E+01-1.17887E+00-8.71765E-02-2.18354E-01 3.36261E-13-1.80383E-13
 -1      2528 2.55328E+01-1.34887E+00 3.11481E-02-1.80948E+00 3.28008E-13 1.98508E-13
 -1      2529 2.46398E+01 3.77115E-01 2.29017E-02 6.31387E-01 1.94275E-13-2.45151E-13
 -1      2530 2.66265E+01-2.41931E+00-7.54027E-02-3.90990E+00 3.93071E-13 5.19466E-13
 -1      2531 2.71819E+01-2.48776E+00 8.56684E-03-6.22396E+00 5.97061E-13 8.93161E-13
 -1      2532 2.87344E+01-2.97757E+00 6.19905E-02-7.22189E+00 5.26704E-13 1.26826E-12
 -1      2533 2.77701E+01-9.88402E-01 2.78641E-02-2.35428E+00 2.98615E-13 3.74152E-13
 -1      2534 2.04073E+01-2.41596E-01-2.23393E-02 2.39267E+00 3.60455E-13-6.44746E-13
 -1      2535 2.10742E+01-4.46680E-01 2.65073E-02 2.05645E+00 5.25452E-13-7.95489E-13
 -1      2536 2.19547E+01 6.82535E-01 8.88096E-03 1.96904E+00 3.19725E-13-6.12909E-13
 -1      2537 1.97070E+01 1.43458E-01 3.27487E-03 5.89617E-02 1.53847E-13 3.06334E-13
 -1      2538 1.97853E+01 1.98266E-01 1.23812E-02 1.45229E-01 1.85358E-13 3.44373E-13
 -1      2539 1.98510E+01 1.81093E-01-3.85938E-03 6.42308E-02 1.79300E-13 1.78620E-13
 -1      2540 3.61399E+01 5.74723E+00-1.70593E-01 9.02930E-01 3.75033E-13-2.46414E-13
 -1      2541 3.58163E+01 3.59609E+00-3.50445E-02 1.20185E+00 5.53141E-13-3.62044E-13
 -1      2542 2.05486E+01 1.95519E+00-1.37155E-02-1.89485E+00-3.75394E-13-1.11387E-13
 -1      2543 2.04107E+01 1.20909E+00-8.81297E-03-1.28847E+00-3.47975E-13-6.22311E-14
 -1      2544 2.03832E+01 1.38512E+00 9.18561E-03-1.23726E+00-3.18067E-13-1.26629E-13
 -1      2545 2.02959E+01 2.39766E+00 6.99307E-04-1.83504E+00-3.60922E-13-2.23767E-13
 -1      2546 3.58380E+01 9.25487E+00-1.48113E-01-1.70175E+00-7.86426E-13 5.27522E-13
 -1      2547 3.58793E+01 9.77287E+00-1.79787E-01-2.03624E+00-8.72413E-13 6.15321E-13
 -1      2548 1.96353E+01-7.98416E+00 3.79590E-02-5.65471E+00 1.05471E-14-1.39560E-13
 -1      2549 2.45535E+01-7.51359E+00-7.02150E-02-4.68091E+00 2.50466E-13 5.47062E-14
 -1      2550 1.95176E+01 3.58531E+00-1.00906E-02-2.45111E-01 7.15423E-14-4.72320E-13
 -1      2551 1.95338E+01 3.56458E+00-9.66345E-03-4.25772E-01 2.06057E-14-4.81240E-13
 -1      2552 1.97101E+01 3.16413E+00-5.53037E-04-4.72977E-01-3.55214E-15-4.36854E-13
 -1      2553 1.96756E+01 3.22406E+00-9.11244E-04-1.51874E-01 7.60877E-14-4.45953E-13
 -1      2554 3.50244E+01 3.03398E+00-6.98493E-02 3.99763E+00 4.55386E-13 1.72751E-13
 -1      2555 3.48332E+01 5.60501E+00-2.01386E-01 4.18693E+00 5.68379E-13 3.08864E-13
 -1      2556 3.63108E+01 8.60846E+00-1.73320E-01 1.59431E+00 4.27769E-13-1.81938E-14
 -1      2557 3.62514E+01 7.75851E+00-1.23337E-01 1.00460E+00 3.30014E-13-7.33580E-14
 -1      2558 2.44003E+00-4.82949E+00 8.89766E-02 1.02153E+00 2.36165E-13-8.99725E-13
 -1      2559 2.57177E+00-4.99549E+00 7.18964E-02-1.17586E+00 2.20074E-13-1.08896E-12
 -1      2560 3.55155E+01 6.26652E-01-9.81314E-02 3.12182E+00 6.74669E-13-5.37792E-13
 -1      2561 3.35980E+01-1.61794E+00 5.79979E-02 4.93890E+00 5.72209E-13-4.23772E-13
 -1      2562 3.33726E+01-2.55399E+00-4.14012E-02 1.12950E+00 2.09343E-13-1.12466E-13
 -1      2563 3.47730E+01-3.01195E-01-2.21723E-01 2.63856E+00 2.88658E-13 4.19664E-14
 -1      2564 2.83768E+01-6.31342E+00-1.29777E-02-2.24664E+00 3.40394E-13 9.47020E-14
 -1      2565 3.14890E+01-4.75364E+00-1.08226E-01-9.13055E-01 2.73212E-13-3.29736E-14
 -1      2566 1.15098E+01-6.96757E+00 1.04019E-01-6.16019E+00-1.89487E-13-7.47485E-13
 -1      2567 1.50762E+01-7.48168E+00 1.21347E-02-6.69175E+00-1.25400E-13-2.68063E-13
 -1      2568 2.66794E+01-4.14040E+00 6.40988E-02-1.05507E+01 5.17641E-13 1.79332E-12
 -1      2569 3.00685E+01-2.64097E+00-6.12454E-03-8.63720E+00 4.70485E-13 1.74838E-12
 -1      2570 4.12168E+00-5.65769E+00 7.09830E-02-3.31081E+00-3.95517E-14-1.22125E-12
 -1      2571 7.35886E+00-6.04368E+00 5.41827E-02-5.42875E+00-7.13318E-14-1.27237E-12
 -1      2572 5.46564E+00-3.80356E+00 1.84195E-01-2.42728E+00 1.08968E-13-1.13931E-12
 -1      2573 5.17461E+00-5.81577E+00 2.67011E-02 5.28793E+00 2.19436E-13-4.79949E-13
 -1      2574 3.09345E+00-5.47953E+00 6.13910E-02 3.21276E+00 3.79780E-13-6.19782E-13
 -1      2575 1.28755E+01-6.69999E+00 2.85590E-02 7.36647E+00 3.59157E-13 8.22398E-14
 -1      2576 8.78100E+00-6.47273E+00 7.32471E-02 6.48106E+00 3.39950E-13-1.91930E-13
 -1      2577 3.07241E+01-4.06981E+00-3.51736E-02 2.32517E+00-1.12355E-13 1.07112E-12
 -1      2578 2.74161E+01-5.75899E+00-1.41149E-02 3.61771E+00-3.54161E-14 1.16707E-12
 -1      2579 3.45642E+01 3.01098E-01-1.24096E-01-7.99704E-01-2.30073E-13 1.00447E-12
 -1      2580 3.25188E+01-1.94531E+00-8.02269E-02 3.51294E-01-1.77094E-13 9.40803E-13
 -1      2581 3.61560E+01 5.35216E+00-1.88869E-01-2.75080E+00-4.64184E-13 9.08135E-13
 -1      2582 3.54067E+01 2.98191E+00-1.04145E-01-1.98413E+00-2.45720E-13 8.70803E-13
 -1      2583 3.34484E+01 1.15091E+00-2.70145E-03-2.63995E+00-3.22020E-13 7.12624E-13
 -1      2584 3.53132E+01 9.01160E+00-2.16324E-01-2.74124E+00-7.34857E-13 6.28247E-13
 -1      2585 3.52309E+01 7.79141E+00-1.64487E-01-3.05289E+00-6.19282E-13 8.24812E-13
 -1      2586 3.54308E+01 5.89889E+00-1.24400E-01-1.84294E+00-5.26357E-13 6.96332E-13
 -1      2587 3.62264E+01 7.82290E+00-1.10160E-01-1.66546E+00-6.96831E-13 5.93470E-13
 -1      2588 3.47793E+01 7.99135E+00-1.97004E-01 3.24842E+00 5.23748E-13 3.82444E-13
 -1      2589 3.58881E+01 8.84785E+00-1.18909E-01 2.38005E+00 4.98490E-13 2.33577E-13
 -1      2590 2.04921E+01 8.74984E-01-7.30826E-03 1.22600E+00 4.08003E-13 5.04713E-13
 -1      2591 2.08425E+01 1.25695E+00-6.05070E-03 1.72673E+00 4.27821E-13 5.72596E-13
 -1      2592 2.06482E+01 1.71565E+00-1.57934E-02 1.92082E+00 4.73544E-13 4.09311E-13
 -1      2593 2.04504E+01 1.05812E+00-9.39851E-03 1.24063E+00 4.24306E-13 3.08647E-13
 -1      2594 1.99126E+01 2.81093E+00 1.14595E-03-1.09664E+00-1.70370E-13-4.07044E-13
 -1      2595 1.97798E+01 3.15661E+00-1.61813E-02-1.28634E+00-1.90696E-13-4.35252E-13
 -1      2596 1.98830E+01 3.01314E+00-1.85316E-02-1.47622E+00-2.48956E-13-3.98266E-13
 -1      2597 1.99964E+01 3.40401E-01-3.53094E-03 3.03519E-01 2.47199E-13 2.08945E-13
 -1      2598 2.04235E+01 2.11584E+00-1.27795E-02 1.87377E+00 4.88035E-13 2.11397E-13
 -1      2599 3.32486E+01 8.16665E+00-9.63853E-02-9.25719E-01-6.23168E-13 5.79536E-14
 -1      2600 2.68727E+01-4.25290E+00 5.13430E-02 9.51054E+00 6.76126E-14-1.62301E-13
 -1      2601 2.04292E+01 1.34910E+00 1.04753E-02 2.06491E+00 1.47462E-13-5.92443E-13
 -1      2602 1.97771E+01 8.06243E-01 1.02682E-02 2.27439E+00 7.17054E-14-4.29455E-13
 -1      2603 1.96879E+01-2.65034E+00 1.76145E-01-1.20243E+01 2.76446E-13 1.41751E-12
 -1      2604 2.32408E+01-3.04586E+00 3.17233E-02-1.17375E+01 3.40339E-13 1.60380E-12
 -1      2605 2.04374E+01 1.80816E+00 1.25367E-02 1.56146E+00 4.58301E-13 1.65565E-13
 -1      2606 3.39057E+01 1.38002E+00-4.29266E-02 1.28945E+00 5.05485E-13-5.64437E-13
 -1      2607 2.21839E+01-3.64955E-01-3.58132E-02-2.06026E+00 2.51752E-14 4.45512E-14
 -1      2608 2.96491E+01-2.57368E+00-9.30453E-03 3.75624E+00 2.71626E-13-7.42961E-13
 -1      2609 2.35774E+01-4.81899E-01 2.14510E-02-1.28297E+00 1.09612E-13 1.12688E-13
 -1      2610 1.50426E+01-1.62752E+00-5.62085E-02-1.13322E+01 1.63924E-13 8.30613E-13
 -1      2611 1.95032E+01-2.31335E-02 1.91778E-02 2.29167E+00 1.64029E-13-3.87394E-13
 -1      2612 2.11801E+01-2.21767E+00-7.91926E-02 1.11061E+01-8.93730E-14-2.13857E-14
 -1      2613 2.48648E+01-2.92506E+00 2.33161E-01 9.97411E+00-3.86358E-14-1.08580E-13
 -1      2614 3.43533E+01 3.91931E+00-6.64208E-02-1.82917E+00-1.86934E-13 7.15261E-13
 -1      2615 3.21723E+01 4.68248E+00-1.97843E-01-5.46529E-01-2.85771E-13 2.57627E-13
 -1      2616 3.24245E+01 2.06132E+00-5.19199E-02-1.92197E+00 8.32112E-14 6.40266E-13
 -1      2617 2.01194E+01 2.61314E+00-9.99670E-03-1.67534E+00-3.17470E-13-3.05736E-13
 -1      2618 3.30044E+01 6.15057E+00-7.68209E-02-3.51631E+00-5.81785E-13 5.40623E-13
 -1      2619 3.35725E+01 6.18266E+00-5.79372E-02 8.02287E-02 3.13305E-13 8.72635E-14
 -1      2620 1.90567E+01-7.48762E+00 9.11453E-02-5.74802E+00-2.34757E-13-2.12254E-13
 -1      2621 3.12730E+01-3.62570E+00-1.02544E-02 5.06176E-02-9.12569E-14 1.02587E-12
 -1      2622 3.15298E+01-1.85896E+00 2.79810E-02-5.79638E+00 3.26697E-13 9.86766E-13
 -1      2623 3.10008E+01-9.11432E-01-1.84089E-01-3.54484E+00 1.52905E-13 8.04773E-13
 -1      2624 1.63355E+01-6.91014E+00 1.17394E-01 7.17689E+00 3.28099E-13 6.37698E-13
 -1      2625 1.50605E+01-6.01342E+00 1.61130E-01 7.08348E+00 5.34711E-13 4.40342E-13
 -1      2626 1.93816E+01-7.07792E+00-2.59350E-02 6.50231E+00 2.76973E-13 1.14476E-12
 -1      2627 2.70753E+01-7.19429E+00 6.28301E-02-2.67656E+00 1.58040E-13 1.27759E-13
 -1      2628 1.09139E+01-5.57130E+00 1.66173E-01-5.71890E+00-2.14079E-13-8.46795E-13
 -1      2629 2.59045E+01-6.64881E+00 2.27650E-02 4.41008E+00-1.21347E-13 1.22410E-12
 -1      2630 2.40708E+01-6.91628E+00 1.24485E-01 5.04314E+00-1.05721E-13 1.19933E-12
 -1      2631 2.76519E+01-6.34839E+00-6.60733E-02 2.55747E+00-3.85247E-14 1.20949E-12
 -1      2632 3.18747E+01-4.15492E+00 2.97241E-02 1.36414E+00 1.04642E-13 4.69069E-14
 -1      2633 4.54061E+00-3.73323E+00 1.64970E-01 2.17405E+00 4.00804E-13-7.11542E-13
 -1      2634 3.28290E+01 8.17924E+00-1.05542E-01 1.74649E+00 3.90465E-13 2.91024E-13
 -1      2635 3.22530E+01 9.06400E+00-1.05718E-01-2.41500E+00-7.30749E-13 2.61492E-13
 -1      2636 3.20998E+01-2.79754E+00 7.88327E-02 5.13716E+00 4.36887E-13-5.37181E-13
 -1      2637 3.32273E+01 8.44439E-01-3.59403E-02 4.18701E+00 3.47736E-13 1.78857E-13
 -1      2638 8.65119E+00-5.07430E+00 1.59038E-01 5.99523E+00 4.97991E-13-2.53020E-13
 -1      2639 1.84854E+01-2.22538E+00 1.70451E-01 1.18101E+01-2.17604E-14-1.26343E-13
 -1      2640 1.49045E+01-5.96521E-01 1.62411E-01 1.01768E+01-1.25677E-13-2.40918E-14
 -1      2641 2.54874E+01-1.18727E-01-6.93688E-03-1.13894E+00 2.87596E-13 4.88914E-14
 -1      2642 3.14981E+01 5.14783E+00-9.45346E-02 4.61665E+00 6.38989E-13 5.30451E-13
 -1      2643 3.40756E+01 6.94666E+00-1.50420E-01 3.96126E+00 5.63827E-13 4.70277E-13
 -1      2644 1.98436E+01 2.76554E+00-6.29785E-03 5.15847E-01 2.24285E-13-3.50980E-13
 -1      2645 1.98186E+01 2.81533E+00-5.70123E-03 3.65073E-01 1.84281E-13-3.79475E-13
 -1      2646 1.98016E+01 2.85287E+00-5.61182E-03 2.29683E-01 1.60033E-13-4.12489E-13
 -1      2647 1.97930E+01 2.86977E+00-5.43509E-03 7.51724E-02 1.23006E-13-4.18840E-13
 -1      2648 1.99480E+01 2.50160E+00 3.64525E-03 2.64971E-01 1.56695E-13-3.63707E-13
 -1      2649 2.00431E+01 2.32436E+00-1.07233E-02 1.04521E+00 3.71430E-13-1.50924E-13
 -1      2650 1.99787E+01 2.47335E+00-6.31135E-03 9.09702E-01 3.37382E-13-2.14641E-13
 -1      2651 2.02172E+01 1.90842E+00-1.20205E-02 1.22641E+00 4.17535E-13-2.51518E-14
 -1      2652 2.01243E+01 2.14658E+00-4.80362E-03 1.13300E+00 3.88603E-13-7.91841E-14
 -1      2653 2.01890E+01 1.88691E+00 6.43393E-03 9.25631E-01 3.39338E-13-7.64012E-14
 -1      2654 2.02138E+01 7.27105E-01-3.49050E-03 6.41743E-01 3.16362E-13 1.38639E-13
 -1      2655 2.03556E+01 9.51971E-01 9.14674E-03 9.05621E-01 3.48575E-13 1.57762E-13
 -1      2656 3.16503E+01 2.05542E+00-1.80221E-01-2.78909E-01 2.90712E-13-5.02820E-13
 -1      2657 3.18275E+01-3.30064E-01-1.03835E-01 1.31572E+00 3.35426E-13-8.09963E-13
 -1      2658 2.08481E+01 2.41987E+00-1.04815E-02 1.68222E+00-1.02821E-13-6.75012E-13
 -1      2659 2.13444E+01 1.87565E+00-3.09221E-02 2.02041E+00 1.10441E-13-5.71473E-13
 -1      2660 2.03389E+01 1.50043E+00-1.89822E-03 1.26618E+00 4.24775E-13 1.25106E-13
 -1      2661 2.02161E+01 6.27364E-01 7.80798E-03-4.36315E-01-1.90354E-13-1.21064E-13
 -1      2662 2.01331E+01 4.76197E-01-3.11441E-03-2.77161E-01-1.62499E-13-1.36348E-13
 -1      2663 2.01069E+01 3.62719E-01 6.62068E-03-1.57517E-01-1.48950E-13-1.05478E-13
 -1      2664 2.00478E+01 2.68017E-01-1.74223E-03-5.97657E-02-1.20269E-13-1.24430E-13
 -1      2665 2.01959E+01 5.28997E-01-1.51171E-03-2.60924E-01-1.66439E-13-1.41086E-13
 -1      2666 2.00217E+01 1.97740E-01 4.54109E-03 1.55917E-02-1.10557E-13-1.22294E-13
 -1      2667 1.99859E+01 1.38157E-01-8.31067E-04 7.21953E-02-1.12916E-13-1.19995E-13
 -1      2668 2.01266E+01 2.98944E-01-2.05512E-03-5.42981E-02-1.26336E-13-1.58917E-13
 -1      2669 1.99649E+01 9.39774E-02 2.90203E-03 1.15574E-01-1.07580E-13-1.16560E-13
 -1      2670 1.99467E+01 5.66513E-02-2.97528E-04 1.45009E-01-1.22410E-13-1.34813E-13
 -1      2671 2.00700E+01 1.52662E-01-1.88584E-03 7.30410E-02-1.22660E-13-1.65082E-13
 -1      2672 1.99317E+01 2.91409E-02 1.73555E-03 1.66462E-01-1.31784E-13-1.35084E-13
 -1      2673 1.99257E+01 6.31401E-03-3.06271E-06 1.78318E-01-1.16874E-13-1.55127E-13
 -1      2674 2.00288E+01 6.01787E-02-1.51397E-03 1.44022E-01-1.42520E-13-1.55876E-13
 -1      2675 1.99158E+01-1.02419E-02 9.30840E-04 1.85330E-01-1.01923E-13-1.52807E-13
 -1      2676 1.99176E+01-2.34532E-02 1.50666E-04 1.86167E-01-1.12100E-13-1.64156E-13
 -1      2677 2.00013E+01 3.00923E-03-1.13326E-03 1.76673E-01-1.21772E-13-1.66975E-13
 -1      2678 1.99117E+01-3.27064E-02 3.93103E-04 1.84126E-01-1.29399E-13-1.43970E-13
 -1      2679 1.99179E+01-3.95131E-02 2.23878E-04 1.78432E-01-1.64913E-13-1.09410E-13
 -1      2680 1.99844E+01-3.06284E-02-8.11099E-04 1.84361E-01-1.10746E-13-9.65000E-14
 -1      2681 1.99149E+01-4.39002E-02 4.80752E-05 1.71134E-01-1.74813E-13-7.31557E-14
 -1      2682 1.99234E+01-4.64786E-02 2.51962E-04 1.61959E-01-1.18586E-13-9.30088E-14
 -1      2683 1.99753E+01-4.85154E-02-5.60438E-04 1.76687E-01-1.19955E-13-3.97950E-14
 -1      2684 1.99223E+01-4.76669E-02-1.60693E-04 1.52028E-01-8.77826E-14-8.38410E-14
 -1      2685 1.99316E+01-4.75116E-02 2.55877E-04 1.41420E-01-4.98596E-14-7.76130E-14
 -1      2686 1.99716E+01-5.59406E-02-3.74829E-04 1.60395E-01-1.19426E-13-2.50544E-14
 -1      2687 1.99318E+01-4.66474E-02-2.75661E-04 1.30624E-01-5.37356E-14-9.15729E-14
 -1      2688 1.99410E+01-4.47771E-02 2.48756E-04 1.19933E-01-3.16852E-14-7.78171E-14
 -1      2689 1.99713E+01-5.65437E-02-2.42607E-04 1.40121E-01-8.13210E-14-6.86997E-14
 -1      2690 1.99420E+01-4.26352E-02-3.28345E-04 1.09438E-01-3.21920E-14-9.44487E-14
 -1      2691 1.99507E+01-3.97245E-02 2.39320E-04 9.95350E-02-6.95333E-14-8.29223E-14
 -1      2692 1.99732E+01-5.28150E-02-1.52357E-04 1.18982E-01-4.57970E-14-9.40078E-14
 -1      2693 1.99521E+01-3.68073E-02-3.41764E-04 9.00951E-02-6.75628E-14-4.16230E-14
 -1      2694 1.99600E+01-3.32757E-02 2.33779E-04 8.15325E-02-2.42535E-14 1.18157E-14
 -1      2695 1.99765E+01-4.64117E-02-9.44036E-05 9.90298E-02-3.49515E-14-7.31180E-14
 -1      2696 1.99617E+01-2.98820E-02-3.32593E-04 7.36325E-02-4.44429E-14 4.72636E-14
 -1      2697 1.99690E+01-2.59577E-02 2.36865E-04 6.67693E-02-5.11638E-14 2.19521E-14
 -1      2698 1.99805E+01-3.83744E-02-6.09602E-05 8.15972E-02-6.31261E-14 6.94330E-16
 -1      2699 1.99708E+01-2.22327E-02-3.12830E-04 6.07360E-02-8.65446E-14 1.68390E-14
 -1      2700 1.99775E+01-1.79998E-02 2.52469E-04 5.58264E-02-1.14890E-13-3.26506E-14
 -1      2701 1.99849E+01-2.92816E-02-4.60351E-05 6.75666E-02-1.02123E-13-1.70062E-14
 -1      2702 1.99795E+01-1.39724E-02-2.91021E-04 5.19122E-02-8.24202E-14-8.01468E-14
 -1      2703 1.99859E+01-9.40578E-03 2.84000E-04 4.91753E-02-5.07711E-14-1.00486E-13
 -1      2704 1.99897E+01-1.93633E-02-4.51458E-05 5.75689E-02-1.23809E-13-4.87072E-14
 -1      2705 1.99881E+01-5.01749E-03-2.73247E-04 4.76204E-02-6.55527E-14-1.51967E-13
 -1      2706 1.99946E+01-1.05693E-05 3.34595E-04 4.72912E-02-2.69520E-14-1.72694E-13
 -1      2707 1.99949E+01-8.58617E-03-5.48150E-05 5.21367E-02-6.84128E-14-1.82628E-13
 -1      2708 1.99971E+01 4.86134E-03-2.63827E-04 4.83710E-02 4.12793E-15-1.81753E-13
 -1      2709 2.00041E+01 1.04729E-02 4.07051E-04 5.07374E-02-5.43278E-14-2.25323E-13
 -1      2710 2.00005E+01 3.27843E-03-7.24578E-05 5.18177E-02-6.91051E-14-2.77098E-13
 -1      2711 2.00070E+01 1.59933E-02-2.65712E-04 5.47948E-02 1.35128E-14-1.85746E-13
 -1      2712 2.00151E+01 2.24077E-02 5.03642E-04 6.02215E-02 8.82835E-14-1.95956E-13
 -1      2713 2.00068E+01 1.65965E-02-9.60880E-05 5.72579E-02-9.18707E-15-2.45606E-13
 -1      2714 2.00184E+01 2.87598E-02-2.80683E-04 6.76863E-02 8.26375E-14-2.26198E-13
 -1      2715 2.00282E+01 3.61810E-02 6.25722E-04 7.66239E-02 3.47393E-14-2.32820E-13
 -1      2716 2.00141E+01 3.18125E-02-1.24046E-04 6.92547E-02 6.92698E-14-2.66962E-13
 -1      2717 2.00322E+01 4.35361E-02-3.09292E-04 8.80166E-02 3.76924E-14-2.45664E-13
 -1      2718 2.00444E+01 5.21371E-02 7.73087E-04 1.00994E-01 5.27193E-14-1.96865E-13
 -1      2719 2.00228E+01 4.93807E-02-1.54898E-04 8.87807E-02 7.58648E-14-2.68649E-13
 -1      2720 2.00492E+01 6.06134E-02-3.50435E-04 1.16911E-01-5.56532E-15-1.31859E-13
 -1      2721 2.00646E+01 7.04829E-02 9.42984E-04 1.34506E-01-5.11777E-14-1.30257E-13
 -1      2722 2.00332E+01 6.96751E-02-1.87497E-04 1.16973E-01 1.14811E-14-9.59194E-14
 -1      2723 2.00704E+01 8.00852E-02-4.00500E-04 1.55581E-01-1.13117E-13-1.82964E-13
 -1      2724 2.00898E+01 9.11501E-02 1.12874E-03 1.78356E-01-1.58582E-13-1.91468E-13
 -1      2725 2.00458E+01 9.28618E-02-2.21279E-04 1.55077E-01-1.03740E-13-6.53085E-14
 -1      2726 2.00971E+01 1.01681E-01-4.51913E-04 2.05185E-01-1.06966E-13-1.55134E-13
 -1      2727 2.01214E+01 1.13593E-01 1.31797E-03 2.33585E-01-3.78803E-14-1.23691E-13
 -1      2728 2.00613E+01 1.18714E-01-2.57000E-04 2.04335E-01-1.03290E-13-9.03546E-14
 -1      2729 2.01306E+01 1.24527E-01-4.90897E-04 2.66609E-01-5.67060E-14-7.28799E-14
 -1      2730 2.01606E+01 1.36500E-01 1.49037E-03 3.00792E-01-6.26955E-14-1.61726E-13
 -1      2731 2.00803E+01 1.46343E-01-2.98216E-04 2.65790E-01-4.12649E-14-1.18040E-14
 -1      2732 2.01724E+01 1.46800E-01-4.94161E-04 3.40111E-01-5.49106E-15-1.40498E-13
 -1      2733 2.02093E+01 1.57388E-01 1.61519E-03 3.79700E-01-4.62726E-14-1.53964E-13
 -1      2734 2.01040E+01 1.73821E-01-3.53913E-04 3.39987E-01-2.31321E-14-1.29306E-13
 -1      2735 2.02249E+01 1.65264E-01-4.24306E-04 4.24810E-01-7.44909E-14-1.69562E-13
 -1      2736 2.02695E+01 1.72058E-01 1.64840E-03 4.68540E-01-5.30438E-14 2.06819E-14
 -1      2737 2.01339E+01 1.97657E-01-4.42811E-04 4.26533E-01-6.39108E-14-9.77698E-14
 -1      2738 2.02906E+01 1.74650E-01-2.23901E-04 5.17960E-01 5.21366E-16 4.64057E-14
 -1      2739 2.03441E+01 1.73915E-01 1.52974E-03 5.63191E-01 8.03397E-14 1.25576E-13
 -1      2740 2.01725E+01 2.12112E-01-5.99804E-04 5.23479E-01 6.38298E-14 2.46799E-14
 -1      2741 2.03736E+01 1.66935E-01 1.91137E-04 6.13960E-01 7.67345E-14-2.57209E-14
 -1      2742 2.04370E+01 1.53215E-01 1.17949E-03 6.56052E-01 9.34839E-14 4.26108E-14
 -1      2743 2.02237E+01 2.08372E-01-8.84431E-04 6.26487E-01 2.72756E-14-4.02173E-14
 -1      2744 2.04797E+01 1.30608E-01 9.36449E-04 7.03060E-01 5.46557E-14 2.66255E-14
 -1      2745 2.05543E+01 9.64432E-02 4.94053E-04 7.34620E-01 4.44159E-14 6.51595E-14
 -1      2746 2.02941E+01 1.73670E-01-1.38958E-03 7.27719E-01 1.37533E-13-1.76617E-13
 -1      2747 2.06175E+01 5.02913E-02 2.15594E-03 7.69750E-01-1.08540E-13 1.48222E-13
 -1      2748 2.07050E+01-1.36462E-02-6.60885E-04 7.79821E-01-1.70756E-13 3.64383E-14
 -1      2749 2.03939E+01 9.06897E-02-2.24463E-03 8.14412E-01-2.76231E-14-6.16965E-14
 -1      2750 2.07991E+01-9.25557E-02 3.99607E-03 7.90882E-01-1.86548E-13 1.93952E-13
 -1      2751 2.09012E+01-1.96278E-01-2.46350E-03 7.64298E-01-1.28286E-13 1.86868E-13
 -1      2752 2.05388E+01-6.20441E-02-3.59907E-03 8.67063E-01-1.26287E-13 1.55798E-14
 -1      2753 2.10405E+01-3.16405E-01 6.51910E-03 7.33825E-01-8.54942E-14 2.06605E-13
 -1      2754 2.11581E+01-4.67247E-01-5.13132E-03 6.51192E-01-1.25836E-13 1.66702E-13
 -1      2755 2.07512E+01-3.07344E-01-5.56331E-03 8.57196E-01-1.58752E-13 8.04504E-14
 -1      2756 2.13586E+01-6.31443E-01 9.54957E-03 5.55457E-01-1.34036E-13 1.82978E-13
 -1      2757 2.14891E+01-8.26887E-01-8.83013E-03 3.94789E-01-4.69110E-14 1.84912E-13
 -1      2758 2.10594E+01-6.61539E-01-8.04111E-03 7.44925E-01-1.42295E-13 5.87808E-14
 -1      2759 2.17625E+01-1.02323E+00 1.23548E-02 2.04333E-01-7.11393E-14 1.52695E-13
 -1      2760 2.18951E+01-1.23824E+00-1.32239E-02-5.37923E-02-1.90158E-13-8.16014E-15
 -1      2761 2.14920E+01-1.11774E+00-1.03555E-02 4.77558E-01-1.38065E-13-1.05967E-14
 -1      2762 2.22354E+01-1.42576E+00 1.34446E-02-3.68592E-01-1.81668E-13-2.37891E-14
 -1      2763 2.23444E+01-1.59551E+00-1.65113E-02-7.28964E-01-1.84311E-13-8.26469E-14
 -1      2764 2.20616E+01-1.61633E+00-1.05974E-02-6.76860E-03-2.44556E-13 2.81665E-15
 -1      2765 2.27047E+01-1.68945E+00 9.87967E-03-1.17880E+00-2.37999E-13-6.38363E-14
 -1      2766 2.27472E+01-1.69916E+00-1.53067E-02-1.60888E+00-2.32108E-13-5.41648E-14
 -1      2767 2.27318E+01-2.00326E+00-5.23353E-03-7.58771E-01-2.68427E-13-4.58943E-15
 -1      2768 2.30184E+01-1.57294E+00-3.04888E-03-2.14492E+00-1.13059E-13-6.70588E-14
 -1      2769 2.29471E+01-1.28296E+00-6.46773E-03-2.54530E+00-5.67278E-14 6.11011E-14
 -1      2770 2.33728E+01-2.00553E+00 7.56755E-03-1.76194E+00-1.93788E-13-7.57890E-14
 -1      2771 2.29838E+01-8.28044E-01-2.62197E-02-3.00657E+00-1.54880E-13 1.76264E-13
 -1      2772 2.27720E+01-1.76494E-01 6.60465E-03-3.20604E+00-1.69798E-13 1.12132E-13
 -1      2773 2.37478E+01-1.30954E+00 1.76079E-02-2.82590E+00-3.58552E-14-1.49155E-13
 -1      2774 2.24962E+01 5.97642E-01-4.53200E-02-3.34001E+00-2.40727E-13 1.83667E-13
 -1      2775 2.21902E+01 1.47453E+00 2.50808E-02-3.15182E+00-1.54593E-13 2.74731E-14
 -1      2776 2.36290E+01 2.08591E-01 1.39674E-02-3.52046E+00-1.92253E-13 1.01211E-13
 -1      2777 2.16844E+01 2.24522E+00-5.77318E-02-2.69318E+00-1.46501E-13-7.90930E-14
 -1      2778 2.14134E+01 2.93569E+00 1.39860E-02-2.09502E+00-6.80150E-14-7.04319E-14
 -1      2779 2.29685E+01 2.30054E+00 1.71791E-02-3.31054E+00-2.38440E-13 9.83701E-14
 -1      2780 2.10020E+01 3.32307E+00-3.65998E-02-1.17096E+00-2.30718E-15-1.34703E-13
 -1      2781 2.08227E+01 3.42542E+00-1.11277E-02-3.53287E-01-1.11949E-13-3.13494E-13
 -1      2782 2.22233E+01 3.84279E+00 1.32594E-02-1.96208E+00-1.45911E-13-3.25035E-14
 -1      2783 2.08328E+01 3.34782E+00-4.05661E-03 3.94027E-01-3.08249E-13-3.97207E-13
 -1      2784 2.07434E+01 2.92318E+00-1.36162E-02 1.08444E+00-2.81187E-13-5.95382E-13
 -1      2785 2.19163E+01 3.55384E+00-9.74235E-03 1.00142E+00-2.81012E-13-3.37411E-13
 -1      2786 2.18943E+01 4.18666E+00-4.96306E-03-2.37787E-01-3.03216E-13-3.14141E-13
 -1      2787 1.98931E+01 1.18867E-01-2.59019E-04-7.22396E-02 1.31278E-13 8.63669E-14
 -1      2788 1.99287E+01 1.70517E-01 5.20094E-03-1.67177E-02 1.52840E-13 1.34610E-13
 -1      2789 1.98444E+01-1.84722E-02 2.32450E-04-1.85377E-01 1.05444E-13 9.44154E-14
 -1      2790 1.98360E+01-7.28879E-03 8.79785E-04-1.85004E-01 1.20766E-13 6.66586E-14
 -1      2791 1.98553E+01-3.21002E-02 2.36904E-04-1.77415E-01 1.04230E-13 7.93761E-14
 -1      2792 1.98426E+01-2.63225E-02 2.95937E-04-1.83309E-01 9.33904E-14 9.41480E-14
 -1      2793 1.99206E+01-2.52266E-02-8.42259E-04-1.88218E-01 1.00841E-13 6.04063E-14
 -1      2794 1.98711E+01-3.81233E-02 2.22267E-04-1.60850E-01 1.36249E-13 6.50165E-14
 -1      2795 1.98566E+01-3.58926E-02-6.59619E-05-1.70054E-01 1.09808E-13 6.96813E-14
 -1      2796 1.99204E+01-4.08763E-02-5.39852E-04-1.80231E-01 1.16897E-13 9.69623E-14
 -1      2797 1.98887E+01-3.92013E-02 2.01890E-04-1.40285E-01 1.07614E-13 4.88439E-14
 -1      2798 1.98741E+01-3.92543E-02-2.75455E-04-1.50834E-01 1.34496E-13 9.11192E-14
 -1      2799 1.99253E+01-4.75039E-02-3.25280E-04-1.63478E-01 1.40651E-13 9.02335E-14
 -1      2800 1.99063E+01-3.71485E-02 1.82920E-04-1.18772E-01 6.28988E-14 6.83596E-14
 -1      2801 1.98926E+01-3.86262E-02-3.82000E-04-1.29381E-01 7.96506E-14 4.79117E-14
 -1      2802 1.99331E+01-4.82727E-02-1.79797E-04-1.42666E-01 9.75641E-14 8.45371E-14
 -1      2803 1.99229E+01-3.31834E-02 1.69780E-04-9.82892E-02 6.01534E-14 1.17831E-13
 -1      2804 1.99106E+01-3.55152E-02-4.20960E-04-1.08137E-01 7.49066E-14 8.00855E-14
 -1      2805 1.99422E+01-4.53378E-02-8.65917E-05-1.20936E-01 5.28423E-14 1.32265E-13
 -1      2806 1.99380E+01-2.80865E-02 1.65739E-04-8.00869E-02 4.50031E-14 1.55931E-13
 -1      2807 1.99271E+01-3.09150E-02-4.17683E-04-8.86620E-02 3.86965E-14 1.46137E-13
 -1      2808 1.99516E+01-4.01374E-02-3.22675E-05-1.00339E-01 2.56809E-14 1.56341E-13
 -1      2809 1.99516E+01-2.23101E-02 1.73627E-04-6.49565E-02 8.24226E-14 6.28838E-14
 -1      2810 1.99421E+01-2.54380E-02-3.90099E-04-7.19362E-02 7.30737E-14 1.61499E-13
 -1      2811 1.99608E+01-3.35813E-02-6.90499E-06-8.21909E-02 6.71459E-14 1.57271E-13
 -1      2812 1.99640E+01-1.60566E-02 1.96362E-04-5.34273E-02 3.94313E-14 1.01110E-13
 -1      2813 1.99555E+01-1.94088E-02-3.50769E-04-5.85897E-02 5.96621E-14 1.00322E-13
 -1      2814 1.99696E+01-2.61815E-02-3.08250E-06-6.73457E-02 4.56694E-14 1.31278E-13
 -1      2815 1.99756E+01-9.33478E-03 2.37127E-04-4.59201E-02-9.49509E-14 2.33166E-13
 -1      2816 1.99678E+01-1.29312E-02-3.08422E-04-4.90761E-02 5.10930E-15 1.65520E-13
 -1      2817 1.99780E+01-1.81471E-02-1.56081E-05-5.63995E-02-1.62074E-14 2.68899E-13
 -1      2818 1.99870E+01-1.99986E-03 2.99579E-04-4.28657E-02 6.20538E-15 1.53630E-13
 -1      2819 1.99794E+01-5.93651E-03-2.69091E-04-4.38057E-02-4.51920E-14 2.01812E-13
 -1      2820 1.99863E+01-9.45142E-03-4.09467E-05-4.98497E-02-4.61981E-14 2.82745E-13
 -1      2821 1.99992E+01 6.21886E-03 3.87988E-04-4.47979E-02-9.58787E-15 9.59962E-14
 -1      2822 1.99911E+01 1.78296E-03-2.37073E-04-4.32494E-02 9.85408E-15 1.13625E-13
 -1      2823 1.99950E+01 1.19490E-04-7.65424E-05-4.82174E-02 5.30375E-14 1.81784E-13
 -1      2824 2.00131E+01 1.56999E-02 5.07222E-04-5.24294E-02 6.64597E-14-4.16352E-15
 -1      2825 2.00038E+01 1.05511E-02-2.15675E-04-4.80223E-02 6.40246E-14 8.41119E-15
 -1      2826 2.00044E+01 1.09344E-02-1.20531E-04-5.21425E-02 6.95662E-14 7.90176E-14
 -1      2827 2.00298E+01 2.69164E-02 6.62648E-04-6.67133E-02 5.81466E-14 7.93198E-15
 -1      2828 2.00185E+01 2.07927E-02-2.07761E-04-5.89511E-02 4.34504E-14-3.52084E-14
 -1      2829 2.00153E+01 2.34942E-02-1.71271E-04-6.24609E-02 7.55179E-14 6.03641E-14
 -1      2830 2.00507E+01 4.04248E-02 8.59954E-04-8.88930E-02 7.29195E-14 8.71798E-14
 -1      2831 2.00363E+01 3.30213E-02-2.16250E-04-7.71295E-02 6.57465E-14 5.66661E-14
 -1      2832 2.00282E+01 3.84146E-02-2.26690E-04-8.02650E-02 3.10603E-14-2.03178E-14
 -1      2833 2.00771E+01 5.68516E-02 1.10470E-03-1.20538E-01 7.78138E-14 8.18754E-14
 -1      2834 2.00586E+01 4.78278E-02-2.44544E-04-1.03960E-01 8.25731E-14 1.62308E-13
 -1      2835 2.00440E+01 5.64100E-02-2.83707E-04-1.06948E-01 5.59695E-14 1.72142E-13
 -1      2836 2.01108E+01 7.68704E-02 1.40155E-03-1.63562E-01-6.51484E-16 7.01647E-14
 -1      2837 2.00868E+01 6.58639E-02-2.96834E-04-1.41183E-01 7.31529E-14 7.65091E-14
 -1      2838 2.00634E+01 7.82724E-02-3.37517E-04-1.44231E-01 8.62086E-14 2.65957E-13
 -1      2839 2.01534E+01 1.01155E-01 1.75295E-03-2.20216E-01-7.85758E-14 1.10383E-13
 -1      2840 2.01226E+01 8.78094E-02-3.78188E-04-1.90879E-01-3.28229E-14 2.19924E-14
 -1      2841 2.00873E+01 1.04833E-01-3.80809E-04-1.94166E-01-6.46163E-15 2.02061E-13
 -1      2842 2.02069E+01 1.30286E-01 2.15700E-03-2.93025E-01-6.86562E-14 1.18498E-13
 -1      2843 2.01677E+01 1.14307E-01-4.94199E-04-2.55445E-01-8.11238E-15 7.76841E-14
 -1      2844 2.01164E+01 1.36889E-01-4.03129E-04-2.59104E-01-6.11940E-14 1.72441E-13
 -1      2845 2.02728E+01 1.64568E-01 2.60416E-03-3.84653E-01-2.33733E-13 1.92305E-13
 -1      2846 2.02236E+01 1.45833E-01-6.49681E-04-3.37498E-01-1.94491E-13 1.54124E-13
 -1      2847 2.01511E+01 1.75056E-01-3.90842E-04-3.41604E-01-1.17893E-13 1.29682E-13
 -1      2848 2.03529E+01 2.03672E-01 3.07236E-03-4.97619E-01-3.11329E-14 2.98345E-14
 -1      2849 2.02920E+01 1.82442E-01-8.45481E-04-4.39683E-01-9.33189E-14 1.29106E-13
 -1      2850 2.01916E+01 2.19493E-01-3.28737E-04-4.44258E-01-8.41574E-14-9.96376E-15
 -1      2851 2.04483E+01 2.45990E-01 3.52010E-03-6.33778E-01 2.93759E-14-8.13669E-14
 -1      2852 2.03743E+01 2.23291E-01-1.07168E-03-5.64307E-01 7.34200E-15 1.81457E-14
 -1      2853 2.02379E+01 2.69381E-01-2.05362E-04-5.69368E-01 2.50278E-14-1.20710E-13
 -1      2854 2.05601E+01 2.87458E-01 3.87764E-03-7.93416E-01 4.17291E-14 4.92423E-14
 -1      2855 2.04717E+01 2.65768E-01-1.29441E-03-7.12679E-01 2.18017E-14-6.40315E-15
 -1      2856 2.02892E+01 3.21987E-01-2.59423E-05-7.18419E-01-1.30347E-14 2.47449E-14
 -1      2857 2.06897E+01 3.19573E-01 4.03683E-03-9.73730E-01-7.09627E-14 1.77813E-13
 -1      2858 2.05857E+01 3.03970E-01-1.43190E-03-8.83995E-01 2.93508E-14 1.68509E-13
 -1      2859 2.03450E+01 3.71023E-01 1.60588E-04-8.91228E-01 7.98190E-16 1.48561E-13
 -1      2860 2.08399E+01 3.26196E-01 3.84069E-03-1.16638E+00-6.55086E-15 1.95190E-13
 -1      2861 2.07190E+01 3.26170E-01-1.31421E-03-1.07349E+00-2.21329E-15 1.72972E-13
 -1      2862 2.04060E+01 4.03939E-01 2.10792E-04-1.08463E+00-6.80180E-14 1.48215E-13
 -1      2863 2.10187E+01 2.78951E-01 3.07196E-03-1.35371E+00 4.39829E-14 1.59034E-13
 -1      2864 2.08784E+01 3.10947E-01-6.20417E-04-1.26948E+00 6.04665E-15 2.02993E-13
 -1      2865 2.04768E+01 3.97726E-01-1.98939E-04-1.29051E+00-1.04191E-14 8.12004E-14
 -1      2866 2.12451E+01 1.31772E-01 1.41417E-03-1.50321E+00-5.66738E-15 1.81580E-13
 -1      2867 2.10797E+01 2.22031E-01 1.21590E-03-1.44882E+00 4.56116E-14 1.11405E-13
 -1      2868 2.05716E+01 3.13123E-01-1.69374E-03-1.49285E+00 3.04549E-14 3.16440E-14
 -1      2869 2.15584E+01-1.82100E-01-1.59347E-03-1.55951E+00 1.61545E-13 1.62644E-13
 -1      2870 2.13566E+01 3.37112E-03 5.10203E-03-1.56979E+00 8.35860E-14 1.59534E-13
 -1      2871 2.07241E+01 8.83114E-02-5.31486E-03-1.66302E+00 4.70303E-15-5.21695E-14
 -1      2872 2.20277E+01-7.40709E-01-6.58409E-03-1.43382E+00 3.78237E-13 1.17253E-13
 -1      2873 2.17716E+01-4.19536E-01 1.23759E-02-1.56134E+00 3.50063E-13 2.26587E-13
 -1      2874 2.10021E+01-3.62811E-01-1.23217E-02-1.75123E+00 2.33450E-13 2.59309E-14
 -1      2875 2.27479E+01-1.59088E+00-1.50888E-02-9.93722E-01 2.85241E-13 2.43409E-13
 -1      2876 2.24224E+01-1.11744E+00 2.41852E-02-1.30831E+00 3.20957E-13 2.62085E-13
 -1      2877 2.15244E+01-1.13321E+00-2.31706E-02-1.67078E+00 2.61702E-13 3.02617E-13
 -1      2878 2.38080E+01-2.61933E+00-2.30718E-02-6.07679E-02-1.05501E-13 1.86685E-13
 -1      2879 2.34185E+01-2.08303E+00 3.84820E-02-6.33971E-01 1.40392E-13 2.41007E-13
 -1      2880 2.24653E+01-2.25831E+00-3.57201E-02-1.26907E+00 1.70051E-13 3.18062E-13
 -1      2881 2.51263E+01-3.40473E+00-4.46316E-02 1.47186E+00-3.38399E-13 2.91707E-13
 -1      2882 2.47650E+01-3.06405E+00 4.08616E-02 6.40685E-01-2.87235E-13 2.05135E-13
 -1      2883 2.39536E+01-3.51018E+00-4.77217E-02-2.93733E-01-2.29753E-13 3.81011E-13
 -1      2884 2.64573E+01-2.86173E+00-1.81719E-02 3.55498E+00 1.08954E-13 1.93825E-13
 -1      2885 2.62939E+01-3.37932E+00 2.23116E-02 2.64042E+00-1.75698E-13 2.12367E-13
 -1      2886 2.60204E+01-4.34987E+00-7.86739E-02 1.39716E+00-2.34777E-13 2.05214E-13
 -1      2887 2.69287E+01 4.82727E+00-1.44039E-01 4.03567E+00 6.66384E-13 5.31568E-13
 -1      2888 2.71811E+01 3.32323E+00-1.66501E-01 4.87891E+00 6.14606E-13 5.51469E-13
 -1      2889 2.53197E+01 3.65759E+00-1.86410E-01-1.09071E+00 1.53974E-13 2.93120E-13
 -1      2890 2.54743E+01 4.90637E+00-9.15840E-02 8.05325E-02 1.44440E-13 3.32991E-13
 -1      2891 2.41992E+01 1.90513E+00-9.55737E-02 1.31296E+00-5.68989E-15-2.62748E-13
 -1      2892 2.61582E+01 1.55915E+00-2.72936E-02 4.03648E-01-5.50116E-14-1.65007E-13
 -1      2893 2.97954E+01 7.23639E+00-2.47733E-01 1.90607E+00 3.78197E-13 6.03066E-13
 -1      2894 3.04032E+01 7.16808E+00-2.01372E-01 7.80260E-01 2.67675E-13 3.85608E-13
 -1      2895 3.11955E+01 7.29153E+00-1.94455E-01 3.51298E+00 5.83922E-13 8.40883E-13
 -1      2896 2.25354E+01 1.92997E+00-1.02906E-02 1.62002E+00-3.30604E-14-3.19765E-13
 -1      2897 2.97462E+01 1.71565E-01-8.57214E-02-1.66123E+00 1.72036E-13 4.20011E-13
 -1      2898 1.99623E+01 2.31399E-01-7.79021E-04 6.14536E-02 1.70890E-13 1.19303E-13
 -1      2899 2.00278E+01 3.15264E-01 7.81369E-03 1.59279E-01 2.02522E-13 1.42716E-13
 -1      2900 2.00568E+01 2.66063E-01-2.73383E-03 5.92738E-02 1.69084E-13 8.24622E-14
 -1      2901 3.02526E+01 6.33869E+00-2.59312E-01 1.01281E-01 3.11751E-13 3.14998E-13
 -1      2902 3.05138E+01 4.94370E+00-1.29587E-01-5.46912E-01 3.46417E-13 1.41817E-13
 -1      2903 3.02586E+01 6.38899E+00-2.11313E-01-3.87091E+00-6.62748E-13 3.01661E-13
 -1      2904 3.15043E+01 4.18568E+00-1.32472E-01-4.00301E+00-6.86257E-13 3.89272E-13
 -1      2905 2.03205E+01 1.70993E+00-9.82523E-03-1.33086E+00-2.99987E-13-2.20140E-13
 -1      2906 2.02880E+01 1.32834E+00-7.05165E-03-1.03369E+00-2.72599E-13-1.80702E-13
 -1      2907 1.11437E+01-4.52507E+00 1.16086E-01 6.34590E+00 6.36075E-13-6.02296E-15
 -1      2908 8.14094E+00-3.65943E+00 1.92167E-01 5.03019E+00 6.08305E-13-3.37369E-13
 -1      2909 6.01207E+00-2.43636E+00 1.80704E-01-1.27416E+00 1.78604E-13-7.83623E-13
 -1      2910 7.42058E+00-3.17250E+00 1.14208E-01-3.56440E+00-5.04180E-14-9.43856E-13
 -1      2911 1.02393E+01-4.01627E+00 1.99875E-01-4.89983E+00-3.18801E-13-9.03805E-13
 -1      2912 1.36071E+01-5.18779E+00 7.97622E-02-5.79859E+00-3.68497E-13-4.87499E-13
 -1      2913 1.98426E+01 6.68492E-03 1.83163E-04-1.77917E-01 1.22864E-13 3.26331E-14
 -1      2914 1.98425E+01 2.60633E-02 1.78490E-03-1.66869E-01 1.21371E-13 4.92652E-14
 -1      2915 1.99296E+01 4.09519E-03-1.24981E-03-1.80525E-01 1.14122E-13 8.96061E-14
 -1      2916 1.98562E+01 4.93164E-02 4.32954E-05-1.45049E-01 1.15914E-13 5.45528E-14
 -1      2917 1.98701E+01 8.12441E-02 3.16051E-03-1.16743E-01 1.18850E-13 9.02341E-14
 -1      2918 1.99516E+01 5.40610E-02-1.76464E-03-1.47154E-01 1.37560E-13 5.63170E-14
 -1      2919 2.03194E+01 1.03614E+00 5.03790E-03-8.32569E-01-2.39083E-13-1.56656E-13
 -1      2920 2.02257E+01 7.99076E-01-5.17095E-03-5.92179E-01-2.19402E-13-1.46446E-13
 -1      2921 2.02619E+01 8.78955E-01 2.16314E-03-5.53024E-01-2.03523E-13-1.70878E-13
 -1      2922 2.02798E+01 1.38638E+00 1.93272E-03-9.18837E-01-2.42820E-13-2.17929E-13
 -1      2923 2.00712E+01 4.15698E-01-1.54029E-03 2.86806E-01 2.29220E-13 1.23250E-13
 -1      2924 2.01722E+01 5.53943E-01 1.04315E-02 4.49556E-01 2.58924E-13 1.38539E-13
 -1      2925 2.02542E+01 8.21757E-01 6.14597E-04 6.16235E-01 2.93716E-13 5.74596E-14
 -1      2926 2.01465E+01 4.77181E-01-2.18622E-03 2.79322E-01 2.17414E-13 6.89057E-14
 -1      2927 1.78709E+01-6.56133E+00 1.32930E-01-5.68937E+00-2.55629E-13-2.32134E-13
 -1      2928 2.17788E+01-7.50609E+00-2.45134E-02-4.92263E+00-1.89543E-13-3.39173E-14
 -1      2929 1.99226E+01 2.59639E+00-7.88266E-03 7.93891E-01 3.21086E-13-2.61827E-13
 -1      2930 1.98785E+01 2.68858E+00-6.12456E-03 6.44978E-01 2.72594E-13-3.04532E-13
 -1      2931 1.99970E+01 2.38899E+00 4.33494E-03 5.16298E-01 2.29338E-13-2.87305E-13
 -1      2932 2.00789E+01 2.19114E+00 5.60130E-03 7.45087E-01 2.96912E-13-2.09762E-13
 -1      2933 3.15901E+01-1.15424E+00-6.65566E-02 4.32077E+00 1.69850E-13 1.30534E-13
 -1      2934 3.09356E+01 1.40070E+00-2.26505E-01 5.22891E+00 4.88415E-13 4.73760E-13
 -1      2935 6.31702E+00-2.92684E+00 1.47063E-01 3.48100E+00 5.11757E-13-5.42288E-13
 -1      2936 5.61152E+00-2.34685E+00 1.57401E-01 1.12245E+00 4.13408E-13-6.81816E-13
 -1      2937 9.05000E+00-2.46676E+00 2.03385E-01 3.99323E+00 6.44866E-13-2.70978E-13
 -1      2938 3.07668E+01-2.90867E+00-1.49671E-01-1.45308E+00-5.88661E-14 5.65686E-13
 -1      2939 2.94591E+01-4.63442E+00-3.61118E-02 8.31828E-02-8.86773E-14 7.87453E-13
 -1      2940 1.98735E+01 2.69754E+00-5.97669E-03-6.34752E-01-6.85736E-14-4.19975E-13
 -1      2941 1.99166E+01 2.60790E+00-7.55184E-03-7.83670E-01-1.16953E-13-4.16820E-13
 -1      2942 3.01515E+01-5.18559E+00 2.38066E-02 1.32450E+00 5.63247E-14 4.62130E-14
 -1      2943 3.10920E+01-3.60891E+00-1.85740E-01 2.75432E+00 3.71404E-15 8.10740E-14
 -1      2944 2.53391E+01-7.32802E+00 1.00930E-01-3.01530E+00-8.15181E-14 1.75727E-13
 -1      2945 2.80298E+01-6.77152E+00-1.44990E-01-1.05831E+00 7.92144E-14 2.15397E-13
 -1      2946 3.17147E+01 1.98569E+00-2.22839E-01-3.61023E+00-4.75953E-13 4.55025E-13
 -1      2947 3.14545E+01-1.71461E-01-7.31269E-02-2.91619E+00-2.49745E-13 5.00211E-13
 -1      2948 2.99302E+01 2.79165E+00-8.20410E-02-4.16469E+00-4.76466E-13 3.14401E-13
 -1      2949 2.98449E+01 8.65953E+00-1.87077E-01-1.54561E+00-5.78593E-13 8.26388E-14
 -1      2950 2.93477E+01 8.13170E+00-1.94464E-01-2.62386E+00-6.87422E-13 1.81730E-13
 -1      2951 2.00856E+01 2.52695E+00-2.11104E-03-1.45671E+00-2.68214E-13-3.20939E-13
 -1      2952 3.10907E+01 6.81522E+00-1.46618E-01-1.18352E-01-5.72764E-13 1.02418E-14
 -1      2953 3.03495E+01 8.16526E+00-2.31430E-01-6.49337E-01-5.65381E-13 1.12105E-13
 -1      2954 1.99313E+01 2.53917E+00 3.42512E-03 4.63148E-03 9.22522E-14-3.85515E-13
 -1      2955 1.97924E+01 2.87062E+00-5.48026E-03-6.17927E-02 8.90918E-14-4.17443E-13
 -1      2956 1.97999E+01 2.85594E+00-5.53873E-03-2.16389E-01 4.94719E-14-4.16020E-13
 -1      2957 1.65250E+01-5.48373E+00 1.36457E-01-5.52695E+00-2.77389E-13-3.22478E-13
 -1      2958 1.89741E+01-5.68158E+00-1.77412E-02-4.83225E+00-2.26985E-13-7.15261E-14
 -1      2959 1.54463E+01-4.12616E+00 1.09774E-01-5.00911E+00-3.24893E-13-4.77812E-13
 -1      2960 2.89517E+01-3.96958E-01-1.55805E-01 8.28770E-03 2.77972E-13-6.34881E-13
 -1      2961 3.08587E+01-1.36911E+00-1.20906E-01 1.66424E+00 3.82982E-13-8.58369E-13
 -1      2962 1.99715E+01 2.49000E+00-5.44532E-03-9.00980E-01-1.42751E-13-3.93246E-13
 -1      2963 2.00327E+01 2.36041E+00-6.74427E-03-1.03521E+00-1.92214E-13-3.64939E-13
 -1      2964 2.00718E+01 2.20543E+00 5.86676E-03-7.38785E-01-1.26035E-13-3.63579E-13
 -1      2965 2.02910E+01 1.58812E+00-1.13437E-03 1.16504E+00 4.05994E-13 3.81383E-14
 -1      2966 1.91937E+01 1.94958E-01 8.79177E-03 2.26391E+00 1.12183E-13-3.24949E-13
 -1      2967 1.99922E+01 1.35539E-01-2.33273E-03-7.38626E-02 1.42825E-13 5.98190E-14
 -1      2968 2.82663E+01 1.81454E+00-1.73851E-01 5.36693E+00 5.49033E-13 5.59303E-13
 -1      2969 2.48207E+01 4.64144E+00-1.09312E-01 2.85531E+00 4.41425E-13 2.52957E-13
 -1      2970 2.80862E+01 6.20754E+00-1.56766E-01 2.85562E+00 5.10092E-13 6.00177E-13
 -1      2971 2.69296E+01-2.19562E-01-3.00330E-02 5.09335E+00 2.83856E-13 6.39790E-13
 -1      2972 2.70209E+01-1.79776E+00-8.12916E-02 4.65738E+00 2.52052E-13 5.88599E-13
 -1      2973 2.45415E+01 4.87177E+00-1.53159E-01 1.28591E+00 1.83353E-13 2.14917E-13
 -1      2974 2.47361E+01 6.69809E-01-1.69749E-01-1.85917E+00-6.26790E-14 4.41314E-13
 -1      2975 2.51199E+01 2.18104E+00-5.18086E-02-1.64959E+00 4.76147E-14 2.74468E-13
 -1      2976 2.78889E+01 5.99770E+00-1.25105E-01 2.02070E-01 3.44780E-13 4.43222E-13
 -1      2977 2.88019E+01 6.72396E+00-2.12092E-01 2.30797E+00 3.55743E-13 6.77519E-13
 -1      2978 1.05006E+01-2.80911E+00 1.98057E-01-3.88416E+00-1.74444E-13-7.50039E-13
 -1      2979 1.36901E+01-4.92499E+00 1.84796E-01 6.58890E+00 5.83353E-13 1.34032E-13
 -1      2980 1.28171E+01-3.75474E+00 1.38470E-01 5.89106E+00 6.64357E-13-1.58207E-14
 -1      2981 1.61684E+01-5.35453E+00 6.03077E-02 6.40019E+00 5.19210E-13 5.48353E-13
 -1      2982 2.80976E+01 7.55116E+00-1.59485E-01-8.83097E-01-5.66797E-13 9.88151E-14
 -1      2983 3.01156E+01-2.37273E+00-1.93997E-02 4.02602E+00 8.00263E-14 1.52392E-13
 -1      2984 7.51603E+00-1.68261E+00 2.05722E-01-3.20777E-02 2.68494E-13-6.72795E-13
 -1      2985 3.00303E+01 5.14963E+00-1.44422E-01-9.11307E-02-4.91829E-13 7.19563E-14
 -1      2986 2.87080E+01 6.81011E+00-1.86843E-01-3.34936E+00-7.32137E-13 2.02442E-13
 -1      2987 2.77377E+01 5.44179E+00-8.57311E-02-3.81012E+00-6.07320E-13 2.61367E-13
 -1      2988 2.67692E+01 7.05522E+00-1.12380E-01-2.59898E+00-6.49134E-13 5.09662E-14
 -1      2989 2.01444E+01 2.17342E+00 5.14874E-04-1.20590E+00-2.30409E-13-3.18354E-13
 -1      2990 2.84927E+01-4.59822E+00-1.84410E-02-5.72085E-01-8.05692E-14 6.85993E-13
 -1      2991 2.85364E+01-5.54117E+00-1.94554E-02 1.02590E+00-9.05248E-14 8.65530E-13
 -1      2992 2.69527E+01-5.97853E+00 2.22136E-02 1.90819E+00-8.21461E-14 8.64926E-13
 -1      2993 2.22513E+01-6.92087E+00 9.99314E-02 5.60166E+00 1.01863E-14 1.06188E-12
 -1      2994 2.03544E+01-6.37702E+00 1.03317E-01 5.90872E+00 2.94056E-13 9.47860E-13
 -1      2995 2.42568E+01-6.78614E+00-2.43965E-02 4.09261E+00-1.83679E-13 9.89630E-13
 -1      2996 1.98156E+01 2.82048E+00-5.67196E-03-3.51470E-01 2.46540E-14-3.87192E-13
 -1      2997 1.98399E+01 2.77216E+00-6.16056E-03-5.04942E-01-3.54644E-14-4.00562E-13
 -1      2998 1.99926E+01 2.39665E+00 4.24337E-03-5.07281E-01-5.41500E-14-3.68973E-13
 -1      2999 1.99460E+01 2.50508E+00 3.60632E-03-2.55483E-01 2.26409E-14-3.71174E-13
 -1      3000 2.39945E+01-6.93526E+00 8.93555E-02-3.30018E+00-2.56017E-13 1.49005E-13
 -1      3001 2.86328E+01-5.70496E+00 6.98455E-02 7.16032E-01-8.18443E-14 2.33244E-13
 -1      3002 3.00498E+01-1.62576E+00-5.15420E-02-2.75042E+00-1.66402E-13 4.51653E-13
 -1      3003 2.02807E+01 1.36682E+00 2.30785E-03 9.18991E-01 3.54697E-13-1.62793E-15
 -1      3004 2.86476E+01 1.01885E+00-5.71262E-02-9.00513E-01 2.07778E-13-1.60746E-13
 -1      3005 2.78694E+01 2.42350E-01-3.79735E-03-6.75276E-01 2.71130E-13 9.58678E-14
 -1      3006 2.75269E+01 3.36917E+00-9.80669E-02-1.24913E+00 6.13121E-14 3.60670E-13
 -1      3007 2.79438E+01-2.98072E+00-2.28591E-02 3.80732E+00-3.10203E-14 2.90726E-13
 -1      3008 2.37298E+01 3.34263E+00-2.59495E-02 1.44698E+00-1.38320E-13-2.06061E-13
 -1      3009 3.00349E+01 2.41004E+00-1.81786E-01-8.87602E-01 1.81063E-13-4.74898E-14
 -1      3010 2.02396E+01 1.47566E+00-7.99140E-03 8.00151E-01 3.04275E-13-5.35939E-14
 -1      3011 2.01997E+01 1.67018E+00-4.75012E-04 7.45352E-01 2.92057E-13-1.09573E-13
 -1      3012 2.02680E+01 7.13276E-01 3.62488E-03-3.45116E-01-1.59588E-13-1.98280E-13
 -1      3013 2.02263E+01 5.51703E-01-3.43881E-03-2.13957E-01-1.33924E-13-1.83766E-13
 -1      3014 1.99778E+01-5.64006E-02 2.76379E-04-1.57419E-01 1.16288E-13 6.30427E-14
 -1      3015 1.99751E+01-5.37159E-02 1.37088E-04-1.66467E-01 1.32135E-13 4.44314E-14
 -1      3016 2.02206E+01 4.23035E-01 4.04476E-03-1.19208E-01-1.21984E-13-1.58617E-13
 -1      3017 2.01814E+01 3.15231E-01-2.30044E-03-3.43566E-02-1.15270E-13-1.64298E-13
 -1      3018 2.02719E+01 5.79470E-01-3.04249E-04-1.88068E-01-1.17784E-13-1.72083E-13
 -1      3019 2.01671E+01 2.31547E-01 3.17675E-03 2.70636E-02-1.16960E-13-1.41371E-13
 -1      3020 2.01367E+01 1.60862E-01-1.30847E-03 7.79300E-02-1.43934E-13-1.63472E-13
 -1      3021 2.02368E+01 3.31706E-01-8.87790E-04-2.54276E-02-1.24679E-13-1.46848E-13
 -1      3022 2.01199E+01 1.06709E-01 2.23851E-03 1.13678E-01-1.34766E-13-1.49889E-13
 -1      3023 2.00986E+01 6.13843E-02-6.36819E-04 1.40726E-01-1.34756E-13-1.49913E-13
 -1      3024 2.01959E+01 1.67095E-01-1.01945E-03 7.71018E-02-1.32362E-13-1.10360E-13
 -1      3025 2.00822E+01 2.72248E-02 1.47106E-03 1.58233E-01-1.31551E-13-1.45882E-13
 -1      3026 2.00685E+01-7.69020E-04-2.06710E-04 1.69257E-01-1.14139E-13-1.39595E-13
 -1      3027 2.01567E+01 6.03603E-02-9.66100E-04 1.34689E-01-1.38255E-13-1.54547E-13
 -1      3028 2.00539E+01-2.12967E-02 8.89798E-04 1.74461E-01-9.45306E-14-1.20814E-13
 -1      3029 2.00457E+01-3.74336E-02 5.63006E-05 1.75204E-01-1.00202E-13-1.10347E-13
 -1      3030 2.01225E+01-6.36422E-03-8.37151E-04 1.60746E-01-9.38038E-14-1.37151E-13
 -1      3031 2.00334E+01-4.86781E-02 4.73337E-04 1.72618E-01-1.05130E-13-7.08470E-14
 -1      3032 2.00292E+01-5.67722E-02 2.07836E-04 1.67191E-01-1.01704E-13-3.63897E-14
 -1      3033 2.00939E+01-4.54870E-02-6.90849E-04 1.65869E-01-7.14111E-14-1.24403E-13
 -1      3034 2.00191E+01-6.17656E-02 1.88563E-04 1.60101E-01-1.35125E-13-1.08563E-14
 -1      3035 2.00177E+01-6.44975E-02 2.86853E-04 1.51383E-01-1.34127E-13-3.61760E-14
 -1      3036 2.00709E+01-6.57586E-02-5.53969E-04 1.58027E-01-1.25681E-13-3.27728E-14
 -1      3037 2.00096E+01-6.53654E-02 2.67021E-06 1.42100E-01-1.16254E-13 1.04550E-14
 -1      3038 2.00099E+01-6.46094E-02 3.20627E-04 1.32060E-01-5.75232E-14-3.31095E-15
 -1      3039 2.00529E+01-7.33737E-02-4.35972E-04 1.42976E-01-1.12107E-13 3.11292E-14
 -1      3040 2.00035E+01-6.28238E-02-1.12623E-04 1.22165E-01-5.80696E-14-1.79765E-14
 -1      3041 2.00049E+01-5.98609E-02 3.28374E-04 1.12121E-01-6.06619E-14-1.73801E-14
 -1      3042 2.00390E+01-7.26852E-02-3.38530E-04 1.24736E-01-6.17262E-14 6.93074E-14
 -1      3043 2.00001E+01-5.64108E-02-1.79929E-04 1.02669E-01-5.14542E-14-1.51783E-14
 -1      3044 2.00022E+01-5.20810E-02 3.23629E-04 9.34895E-02-3.99100E-14-1.27536E-14
 -1      3045 2.00287E+01-6.66854E-02-2.60453E-04 1.06048E-01-6.22724E-14-4.27989E-14
 -1      3046 1.99986E+01-4.75952E-02-2.16799E-04 8.51761E-02-4.99728E-14-1.39553E-14
 -1      3047 2.00010E+01-4.24069E-02 3.15888E-04 7.74336E-02-6.34948E-14-3.85450E-14
 -1      3048 2.00211E+01-5.73480E-02-1.99260E-04 8.87477E-02-5.57369E-14-2.31233E-14
 -1      3049 1.99984E+01-3.72417E-02-2.36823E-04 7.07233E-02-1.01262E-13-6.55258E-14
 -1      3050 2.00011E+01-3.14516E-02 3.12160E-04 6.48095E-02-1.54634E-13-4.92703E-14
 -1      3051 2.00159E+01-4.58804E-02-1.51823E-04 7.40589E-02-1.20597E-13-2.34442E-14
 -1      3052 1.99992E+01-2.57568E-02-2.50316E-04 6.00367E-02-1.56724E-13-2.06587E-14
 -1      3053 2.00022E+01-1.94320E-02 3.17553E-04 5.62531E-02-1.19201E-13-3.91003E-14
 -1      3054 2.00123E+01-3.29094E-02-1.15374E-04 6.28304E-02-1.47742E-13-1.33692E-14
 -1      3055 2.00008E+01-1.32019E-02-2.65071E-04 5.36978E-02-1.06655E-13-6.64463E-14
 -1      3056 2.00040E+01-6.26678E-03 3.36016E-04 5.23218E-02-7.49637E-14-9.18154E-14
 -1      3057 2.00101E+01-1.86225E-02-8.69104E-05 5.57141E-02-1.42124E-13 1.09026E-14
 -1      3058 2.00029E+01 6.20320E-04-2.87202E-04 5.22669E-02-6.07934E-14-3.76416E-14
 -1      3059 2.00065E+01 8.34661E-03 3.70571E-04 5.36020E-02-5.22886E-14-4.01538E-14
 -1      3060 2.00087E+01-2.87756E-03-6.34289E-05 5.33000E-02-5.19168E-14 5.96719E-14
 -1      3061 2.00055E+01 1.60946E-02-3.21394E-04 5.63764E-02-3.59891E-14-2.79253E-14
 -1      3062 2.00096E+01 2.48620E-02 4.23336E-04 6.07868E-02-4.73995E-15-2.64490E-14
 -1      3063 2.00078E+01 1.47081E-02-4.23300E-05 5.62183E-02-2.11084E-14 1.57020E-13
 -1      3064 2.00084E+01 3.37219E-02-3.71087E-04 6.67947E-02 2.51623E-14-9.29567E-14
 -1      3065 2.00132E+01 4.38115E-02 4.95498E-04 7.47248E-02 7.17108E-14-1.27009E-13
 -1      3066 2.00071E+01 3.46752E-02-2.10852E-05 6.52137E-02-1.20479E-14 9.69818E-14
 -1      3067 2.00117E+01 5.40421E-02-4.38448E-04 8.44599E-02 1.13058E-13-8.90418E-14
 -1      3068 2.00174E+01 6.57205E-02 5.87264E-04 9.64382E-02 1.10329E-13-6.87364E-14
 -1      3069 2.00059E+01 5.76333E-02 2.60571E-06 8.11883E-02 9.94277E-14 5.27723E-14
 -1      3070 2.00152E+01 7.75378E-02-5.23924E-04 1.10484E-01 5.57908E-14-3.77343E-14
 -1      3071 2.00220E+01 9.09949E-02 6.97522E-04 1.27108E-01-5.82257E-15 1.17845E-14
 -1      3072 2.00041E+01 8.41549E-02 3.04541E-05 1.05217E-01 1.43930E-13-4.43480E-14
 -1      3073 2.00189E+01 1.04501E-01-6.25412E-04 1.46120E-01-6.56645E-14-8.82758E-15
 -1      3074 2.00271E+01 1.19763E-01 8.23419E-04 1.68015E-01-1.06387E-13 5.45337E-14
 -1      3075 2.00011E+01 1.14633E-01 6.30178E-05 1.38530E-01-4.45860E-16 1.38645E-14
 -1      3076 2.00230E+01 1.34845E-01-7.36901E-04 1.92680E-01-1.23324E-13 2.58911E-14
 -1      3077 2.00329E+01 1.51645E-01 9.59934E-04 2.20429E-01-6.70752E-14 6.79557E-14
 -1      3078 1.99964E+01 1.49083E-01 9.86542E-05 1.82459E-01-7.42119E-14 1.18135E-13
 -1      3079 2.00276E+01 1.67829E-01-8.46427E-04 2.51393E-01-7.02204E-14 7.57927E-15
 -1      3080 2.00397E+01 1.85432E-01 1.09960E-03 2.85419E-01-9.30236E-14 4.99254E-14
 -1      3081 1.99898E+01 1.86857E-01 1.31726E-04 2.38324E-01-1.17573E-13 9.35887E-14
 -1      3082 2.00332E+01 2.01680E-01-9.33084E-04 3.23179E-01-9.69979E-14 1.25350E-14
 -1      3083 2.00481E+01 2.18633E-01 1.23252E-03 3.63569E-01-6.34866E-14-5.19381E-14
 -1      3084 1.99812E+01 2.26243E-01 1.49680E-04 3.07269E-01-1.00988E-13 4.40310E-14
 -1      3085 2.00411E+01 2.33061E-01-9.62833E-04 4.08317E-01-7.13953E-14-9.24563E-14
 -1      3086 2.00596E+01 2.46861E-01 1.34693E-03 4.54581E-01-2.91292E-14-1.82642E-14
 -1      3087 1.99710E+01 2.63926E-01 1.28478E-04 3.90011E-01-7.17800E-14-7.30147E-14
 -1      3088 2.00534E+01 2.56381E-01-8.82731E-04 5.05987E-01 7.19636E-15-1.25642E-14
 -1      3089 2.00769E+01 2.63053E-01 1.43008E-03 5.56724E-01 3.88262E-14-9.59747E-15
 -1      3090 1.99607E+01 2.94255E-01 2.57515E-05 4.86500E-01-4.61472E-14-6.36960E-14
 -1      3091 2.00741E+01 2.62917E-01-6.13154E-04 6.13644E-01-6.78604E-14-8.61467E-14
 -1      3092 2.01051E+01 2.56518E-01 1.46852E-03 6.66107E-01-1.05561E-13-1.60705E-13
 -1      3093 1.99537E+01 3.08328E-01-2.28914E-04 5.95473E-01-6.50607E-14-1.16854E-13
 -1      3094 2.01103E+01 2.39840E-01-3.77440E-05 7.26191E-01 1.88049E-14-1.34139E-13
 -1      3095 2.01526E+01 2.11960E-01 1.44436E-03 7.75727E-01 9.54626E-14-2.10047E-13
 -1      3096 1.99563E+01 2.92922E-01-7.46670E-04 7.13858E-01-4.97479E-14-1.59406E-13
 -1      3097 2.01738E+01 1.69313E-01 1.00818E-03 8.34850E-01 2.22961E-14-1.96090E-13
 -1      3098 2.02334E+01 1.08779E-01 1.31984E-03 8.74188E-01-1.52609E-13-1.84634E-13
 -1      3099 1.99796E+01 2.29411E-01-1.69359E-03 8.35964E-01 5.51114E-15-3.20142E-13
 -1      3100 2.02831E+01 2.82022E-02 2.74603E-03 9.25583E-01-8.87796E-14-1.07384E-13
 -1      3101 2.03690E+01-7.85847E-02 9.97168E-04 9.43915E-01-2.61165E-14-5.95028E-14
 -1      3102 2.00419E+01 9.30839E-02-3.30069E-03 9.52248E-01-4.72484E-14-2.33460E-13
 -1      3103 2.04661E+01-2.10542E-01 5.44635E-03 9.76715E-01-1.32116E-13 2.95244E-14
 -1      3104 2.05903E+01-3.77744E-01 2.14925E-04 9.58560E-01-1.63155E-13 7.46655E-14
 -1      3105 2.01718E+01-1.46244E-01-5.85489E-03 1.04723E+00-2.03275E-14-1.10762E-13
 -1      3106 2.07611E+01-5.72751E-01 9.32072E-03 9.55304E-01-1.10625E-13 1.18924E-13
 -1      3107 2.09370E+01-8.09973E-01-1.56802E-03 8.79190E-01-7.67958E-14 2.04743E-13
 -1      3108 2.04112E+01-5.20447E-01-9.65538E-03 1.09575E+00-1.14137E-13 1.13368E-13
 -1      3109 2.12145E+01-1.07019E+00 1.44114E-02 8.11925E-01-1.82200E-13 1.39882E-13
 -1      3110 2.14511E+01-1.37137E+00-5.17194E-03 6.49788E-01-1.85259E-13 5.73148E-14
 -1      3111 2.08161E+01-1.05244E+00-1.47703E-02 1.05628E+00-1.84067E-13 3.39584E-13
 -1      3112 2.18671E+01-1.67475E+00 2.00204E-02 4.75616E-01-1.86398E-13 4.20696E-14
 -1      3113 2.21580E+01-1.99718E+00-1.09958E-02 1.95340E-01-2.45334E-13 1.47267E-14
 -1      3114 2.14507E+01-1.73168E+00-2.03136E-02 8.61257E-01-2.02433E-13 1.68087E-13
 -1      3115 2.27220E+01-2.27188E+00 2.44880E-02-1.44281E-01-2.94880E-13 1.51998E-13
 -1      3116 2.30286E+01-2.50134E+00-1.58750E-02-5.65660E-01-2.74675E-13 5.53651E-14
 -1      3117 2.23656E+01-2.46744E+00-2.29476E-02 4.07931E-01-1.61165E-13 1.52367E-13
 -1      3118 2.36760E+01-2.60185E+00 1.94203E-02-1.11424E+00-2.87389E-13 1.59075E-13
 -1      3119 2.39220E+01-2.52972E+00-1.63696E-02-1.65477E+00-2.03301E-13 1.30978E-13
 -1      3120 2.35343E+01-2.99485E+00-1.39127E-02-4.29357E-01-2.40748E-13 1.41569E-13
 -1      3121 2.44691E+01-2.21971E+00-5.35984E-03-2.36330E+00-4.60914E-14 5.91823E-15
 -1      3122 2.45551E+01-1.61870E+00-1.09299E-02-2.87606E+00-1.93292E-14 5.75295E-14
 -1      3123 2.47726E+01-2.83650E+00 1.13952E-02-1.70429E+00-1.25899E-13 2.34497E-13
 -1      3124 2.47233E+01-6.96468E-01-4.77533E-02-3.51079E+00-7.37110E-14 7.94991E-14
 -1      3125 2.45246E+01 4.25689E-01-1.96296E-02-3.66578E+00-1.45066E-13 1.42652E-13
 -1      3126 2.56181E+01-1.54843E+00 4.43023E-03-3.12428E+00-3.61343E-14 9.27132E-14
 -1      3127 2.40863E+01 4.44114E+00-1.23477E-01-2.97524E+00-3.18908E-13 7.39010E-14
 -1      3128 2.37716E+01 5.23300E+00-7.90802E-02-2.08755E+00-3.47701E-13-7.46478E-14
 -1      3129 1.99822E+01-4.89819E-02 2.16779E-04-1.73767E-01 1.16344E-13 4.40574E-14
 -1      3130 1.99820E+01-4.14530E-02 4.48205E-04-1.79426E-01 1.14697E-13 5.84320E-14
 -1      3131 2.00306E+01-5.80846E-02-5.51128E-04-1.67669E-01 1.23136E-13 7.18470E-15
 -1      3132 1.99916E+01-3.11044E-02 9.50563E-05-1.81881E-01 1.11701E-13 5.97105E-14
 -1      3133 1.99956E+01-1.62833E-02 9.15696E-04-1.81184E-01 1.09350E-13 7.35118E-14
 -1      3134 2.00477E+01-3.88491E-02-7.34479E-04-1.75666E-01 1.20145E-13 3.86089E-14
 -1      3135 1.99768E+01-5.69731E-02 2.98792E-04-1.37307E-01 4.71477E-14 9.89361E-14
 -1      3136 1.99727E+01-5.74329E-02-5.97850E-05-1.47728E-01 8.64654E-14 6.76850E-14
 -1      3137 2.00186E+01-6.56596E-02-4.05797E-04-1.51834E-01 8.78012E-14 5.80081E-14
 -1      3138 1.99779E+01-5.31892E-02 3.00780E-04-1.16445E-01 1.70026E-14 1.15748E-13
 -1      3139 1.99732E+01-5.56285E-02-1.75885E-04-1.26899E-01 4.06699E-14 9.23688E-14
 -1      3140 2.00105E+01-6.56011E-02-2.95502E-04-1.32471E-01 5.74387E-14 7.75430E-14
 -1      3141 1.99805E+01-4.67105E-02 2.94318E-04-9.68154E-02 2.49198E-14 9.08260E-14
 -1      3142 1.99756E+01-5.03624E-02-2.37555E-04-1.06429E-01 2.21226E-14 1.22579E-13
 -1      3143 2.00054E+01-6.06784E-02-2.13760E-04-1.12498E-01 2.13673E-14 9.03976E-14
 -1      3144 1.99839E+01-3.85778E-02 2.87718E-04-7.97105E-02 6.72574E-14 9.48737E-14
 -1      3145 1.99790E+01-4.29738E-02-2.64905E-04-8.79163E-02 3.49492E-14 1.03456E-13
 -1      3146 2.00025E+01-5.27292E-02-1.55777E-04-9.38522E-02-5.72714E-16 9.35164E-14
 -1      3147 1.99879E+01-2.93628E-02 2.87432E-04-6.59877E-02-2.29218E-15 1.77895E-13
 -1      3148 1.99832E+01-3.42610E-02-2.72724E-04-7.24048E-02 7.04351E-14 1.56560E-13
 -1      3149 2.00013E+01-4.28859E-02-1.16526E-04-7.78138E-02 3.81889E-14 1.61700E-13
 -1      3150 1.99924E+01-1.92758E-02 2.98465E-04-5.62697E-02-5.15300E-14 2.11260E-13
 -1      3151 1.99877E+01-2.46093E-02-2.72292E-04-6.06108E-02-1.01751E-14 1.68484E-13
 -1      3152 2.00013E+01-3.17467E-02-9.14171E-05-6.52541E-02 3.59672E-15 1.90392E-13
 -1      3153 1.99974E+01-8.24614E-03 3.24861E-04-5.10982E-02-2.60940E-14 1.26378E-13
 -1      3154 1.99926E+01-1.40845E-02-2.72131E-04-5.30979E-02-2.46184E-14 1.99593E-13
 -1      3155 2.00024E+01-1.94990E-02-7.71072E-05-5.68297E-02-1.98435E-14 1.32510E-13
 -1      3156 2.00031E+01 4.01919E-03 3.70225E-04-5.10510E-02 4.87764E-14 1.14707E-13
 -1      3157 1.99979E+01-2.50261E-03-2.78843E-04-5.04115E-02 5.01471E-15 1.35418E-13
 -1      3158 2.00042E+01-6.00908E-03-7.03048E-05-5.31321E-02 2.22521E-14 7.60800E-14
 -1      3159 2.00096E+01 1.79978E-02 4.37853E-04-5.68339E-02 6.60358E-14 8.83749E-14
 -1      3160 2.00038E+01 1.05227E-02-2.98075E-04-5.31811E-02 6.93672E-14 1.33606E-13
 -1      3161 2.00066E+01 9.11244E-03-6.75853E-05-5.47989E-02 7.68559E-14 9.11408E-14
 -1      3162 2.00172E+01 3.43218E-02 5.30571E-04-6.93536E-02 5.01956E-14 1.45182E-13
 -1      3163 2.00104E+01 2.55471E-02-3.34939E-04-6.22027E-02 9.50875E-14 1.32329E-13
 -1      3164 2.00095E+01 2.64654E-02-6.57062E-05-6.26026E-02 8.40364E-14 2.10102E-13
 -1      3165 2.00262E+01 5.37522E-02 6.50737E-04-8.97708E-02 9.37795E-15 1.03700E-13
 -1      3166 2.00180E+01 4.32677E-02-3.94404E-04-7.85016E-02-8.00038E-15 9.02868E-14
 -1      3167 2.00127E+01 4.68245E-02-6.05131E-05-7.75180E-02 3.12025E-14 1.83531E-13
 -1      3168 2.00368E+01 7.71540E-02 7.99848E-04-1.19535E-01 6.56687E-15 1.95012E-13
 -1      3169 2.00268E+01 6.44988E-02-4.81746E-04-1.03375E-01 3.24671E-14 1.57933E-13
 -1      3170 2.00160E+01 7.11065E-02-4.66810E-05-1.00766E-01-1.17274E-14 1.63806E-13
 -1      3171 2.00491E+01 1.05461E-01 9.78008E-04-1.60398E-01 5.21757E-14 2.06649E-13
 -1      3172 2.00369E+01 9.01436E-02-6.02757E-04-1.38418E-01 6.98975E-14 1.96223E-13
 -1      3173 2.00190E+01 1.00334E-01-1.71312E-05-1.33836E-01 1.00909E-14 1.53705E-13
 -1      3174 2.00632E+01 1.39616E-01 1.18318E-03-2.14399E-01-2.59622E-14 1.60106E-13
 -1      3175 2.00483E+01 1.21149E-01-7.63761E-04-1.85521E-01 6.24719E-14 2.39059E-13
 -1      3176 2.00212E+01 1.35588E-01 3.76248E-05-1.78484E-01 7.77169E-14 1.49060E-13
 -1      3177 2.00787E+01 1.80466E-01 1.41031E-03-2.83806E-01-7.07813E-14 6.41442E-14
 -1      3178 2.00609E+01 1.58428E-01-9.71293E-04-2.46842E-01-6.60106E-14 1.17154E-13
 -1      3179 2.00216E+01 1.77915E-01 1.30000E-04-2.36698E-01 4.94109E-15 8.85898E-14
 -1      3180 2.00949E+01 2.28563E-01 1.65068E-03-3.71003E-01-1.57070E-13 2.68146E-14
 -1      3181 2.00739E+01 2.02712E-01-1.23112E-03-3.24721E-01-1.04471E-13 4.80264E-14
 -1      3182 2.00188E+01 2.28185E-01 2.75356E-04-3.10615E-01-1.13940E-13 1.58189E-14
 -1      3183 2.01106E+01 2.83812E-01 1.89198E-03-4.78288E-01-4.12972E-14-5.87571E-14
 -1      3184 2.00865E+01 2.54294E-01-1.54601E-03-4.21539E-01-7.95060E-14-1.12981E-14
 -1      3185 2.00109E+01 2.86819E-01 4.90778E-04-4.02393E-01-1.00512E-13-2.07813E-13
 -1      3186 2.01239E+01 3.44834E-01 2.12054E-03-6.07560E-01 3.08638E-14-2.72709E-14
 -1      3187 2.00970E+01 3.12548E-01-1.91139E-03-5.39480E-01-7.44746E-15 2.82597E-15
 -1      3188 1.99952E+01 3.53315E-01 7.91095E-04-5.14009E-01-1.19266E-14 7.42434E-14
 -1      3189 2.01325E+01 4.07866E-01 2.32803E-03-7.59852E-01-8.21244E-14 1.31816E-13
 -1      3190 2.01032E+01 3.75091E-01-2.30705E-03-6.80181E-01-5.28555E-14 3.23114E-14
 -1      3191 1.99681E+01 4.25436E-01 1.17941E-03-6.47003E-01-1.40433E-14 1.07081E-15
 -1      3192 2.01344E+01 4.64889E-01 2.52591E-03-9.34684E-01-4.06807E-14 5.85090E-14
 -1      3193 2.01028E+01 4.36347E-01-2.68272E-03-8.44240E-01 1.49744E-14 3.94565E-14
 -1      3194 1.99257E+01 4.97815E-01 1.62734E-03-8.02191E-01-7.53503E-14-6.17231E-14
 -1      3195 2.01295E+01 5.00620E-01 2.77080E-03-1.12922E+00-6.60149E-14 1.66970E-14
 -1      3196 2.00947E+01 4.85157E-01-2.93319E-03-1.03057E+00-3.83566E-14 6.25732E-14
 -1      3197 1.98646E+01 5.59678E-01 2.03709E-03-9.79416E-01-3.28136E-14-1.06825E-13
 -1      3198 2.01239E+01 4.87941E-01 3.19987E-03-1.33718E+00-2.86138E-14-6.38476E-14
 -1      3199 2.00815E+01 5.01040E-01-2.85682E-03-1.23558E+00-7.20984E-14-2.08855E-14
 -1      3200 1.97838E+01 5.91259E-01 2.17372E-03-1.17749E+00-6.35231E-14 6.49657E-15
 -1      3201 2.01367E+01 3.81653E-01 4.07349E-03-1.54747E+00 6.05377E-14-1.14391E-13
 -1      3202 2.00751E+01 4.48785E-01-2.08219E-03-1.45216E+00 5.64272E-14-4.69363E-14
 -1      3203 1.96897E+01 5.58526E-01 1.55343E-03-1.39448E+00 6.74266E-15-2.85248E-14
 -1      3204 2.02125E+01 1.11281E-01 5.70124E-03-1.74177E+00 7.64575E-14-1.43835E-13
 -1      3205 2.01065E+01 2.71660E-01 1.17221E-04-1.66808E+00-1.52883E-14-7.42658E-14
 -1      3206 1.96041E+01 4.06099E-01-7.11647E-04-1.62838E+00 4.88521E-14-2.03724E-13
 -1      3207 2.04401E+01-4.22618E-01 8.31742E-03-1.88800E+00 1.78401E-13 5.90530E-14
 -1      3208 2.02431E+01-1.14976E-01 5.17754E-03-1.86179E+00 1.18629E-13-4.44420E-15
 -1      3209 1.95792E+01 4.87375E-02-6.13951E-03-1.87697E+00 1.61488E-14-5.43693E-14
 -1      3210 2.09743E+01-1.33275E+00 1.25931E-02-1.92219E+00 1.47278E-13 2.33047E-13
 -1      3211 2.06131E+01-8.20734E-01 1.62824E-02-1.98936E+00 2.32933E-13 1.87706E-13
 -1      3212 1.97234E+01-6.33219E-01-1.63649E-02-2.13081E+00 4.46744E-14 2.28655E-13
 -1      3213 2.20476E+01-2.68448E+00 1.75507E-02-1.70777E+00 2.68622E-14 3.41161E-13
 -1      3214 2.14270E+01-1.94996E+00 3.71048E-02-1.95684E+00 1.14660E-13 3.37326E-13
 -1      3215 2.02354E+01-1.76730E+00-2.90458E-02-2.34873E+00 3.61928E-14 2.92134E-13
 -1      3216 2.40235E+01-4.22211E+00 5.24259E-02-9.29353E-01-2.29166E-13 3.38804E-13
 -1      3217 2.29988E+01-3.51117E+00 6.39575E-02-1.54897E+00-5.40401E-14 3.85631E-13
 -1      3218 2.14337E+01-3.40802E+00-3.55306E-02-2.40871E+00-3.58134E-14 3.92620E-13
 -1      3219 2.68867E+01 5.60344E+00-1.44012E-01 5.92534E-01 2.15550E-13 4.32220E-13
 -1      3220 1.01121E+01-1.71568E+00 1.70023E-01-2.91333E+00 3.21410E-14-5.65603E-13
 -1      3221 1.22779E+01-2.74142E+00 6.79218E-02-4.23526E+00-3.11126E-13-6.13024E-13
 -1      3222 2.01242E+01 2.93804E-01-2.01356E-03 4.30547E-02 1.57851E-13 4.75949E-14
 -1      3223 2.01701E+01 3.94862E-01 4.50852E-03 1.33675E-01 1.66609E-13 4.00540E-14
 -1      3224 2.00728E+01 1.50443E-01-1.14214E-03-7.76827E-02 1.28493E-13 3.20048E-14
 -1      3225 2.01054E+01 2.15888E-01 3.70905E-03-2.43028E-02 1.58751E-13 4.38405E-14
 -1      3226 2.01890E+01 3.16225E-01-1.47877E-03 3.50547E-02 1.62234E-13 2.01653E-14
 -1      3227 2.01966E+01 1.89157E+00 1.10501E-03-1.00601E+00-2.01879E-13-3.08428E-13
 -1      3228 2.66303E+01 6.60313E+00-1.19053E-01 1.28419E-01-5.06511E-13 1.29972E-13
 -1      3229 2.60084E+01 7.08089E+00-1.53742E-01-1.01643E+00-5.71931E-13 4.66797E-14
 -1      3230 2.00344E+01 5.92177E-02-5.12695E-04-1.44778E-01 1.15774E-13 3.30543E-14
 -1      3231 2.00544E+01 1.00877E-01 2.50848E-03-1.16691E-01 1.10012E-13 1.76123E-14
 -1      3232 2.01423E+01 1.60402E-01-1.37478E-03-7.76783E-02 1.30154E-13 1.33685E-15
 -1      3233 2.00081E+01 2.44053E-03-1.27826E-04-1.75280E-01 9.72739E-14 6.17667E-14
 -1      3234 2.00187E+01 2.80914E-02 1.58805E-03-1.63941E-01 1.16290E-13 4.85579E-14
 -1      3235 2.01026E+01 6.02316E-02-1.18368E-03-1.40897E-01 9.61292E-14 2.40687E-15
 -1      3236 1.08571E+01-2.33908E+00 1.00486E-01 4.55832E+00 6.56850E-13-1.73431E-13
 -1      3237 9.33373E+00-1.51504E+00 1.40159E-01 3.02802E+00 5.56128E-13-2.19255E-13
 -1      3238 2.73656E+01 4.20224E-01-4.89377E-02 5.27533E+00 3.56951E-13 7.43169E-13
 -1      3239 8.33594E+00-1.14026E+00 1.15887E-01 1.18753E+00 3.71626E-13-4.70457E-13
 -1      3240 8.56523E+00-1.26436E+00 8.44140E-02-1.17971E+00 1.52590E-13-5.08177E-13
 -1      3241 2.87782E+01-5.40792E-01-1.51754E-01-3.61651E+00-8.01893E-14 6.20684E-13
 -1      3242 2.85594E+01-2.53111E+00-3.12073E-02-2.48445E+00-2.79776E-14 6.23938E-13
 -1      3243 2.02900E+01 9.89996E-01-7.75567E-04 6.88996E-01 2.88716E-13 2.28575E-14
 -1      3244 2.02686E+01 1.31165E+00 4.56475E-03 7.72312E-01 2.97150E-13-1.15780E-14
 -1      3245 2.02829E+01 1.13118E+00 5.32880E-03 5.96271E-01 2.52535E-13-1.89634E-14
 -1      3246 2.02324E+01 7.75999E-01-3.85102E-03 4.81811E-01 2.45479E-13 4.38461E-14
 -1      3247 2.81142E+01 3.40163E+00-2.22119E-01-4.21575E+00-3.19314E-13 4.89275E-13
 -1      3248 2.88370E+01 1.84394E+00-5.38363E-02-4.17994E+00-2.31495E-13 6.07597E-13
 -1      3249 2.76369E+01 4.10447E-01-5.68319E-02-3.94667E+00-4.58036E-14 7.75442E-13
 -1      3250 2.69017E+01 4.39643E+00-4.32970E-02-3.97794E+00-3.50844E-13 4.06911E-13
 -1      3251 2.31839E+01 4.58156E+00-6.46849E-02 7.96824E-01-2.66301E-13-2.84366E-13
 -1      3252 2.52672E+01 4.87523E+00-7.94582E-02 6.22648E-01-2.51014E-13-9.61453E-14
 -1      3253 2.25573E+01-6.12486E+00 1.68136E-01-3.56011E+00-2.58599E-13 6.32897E-14
 -1      3254 2.49199E+01-6.67314E+00-1.37983E-01-2.07193E+00-1.67699E-13 2.32907E-13
 -1      3255 2.00433E+01 2.16114E+00-4.29004E-03 2.92345E-01 1.65556E-13-3.19353E-13
 -1      3256 2.00300E+01 2.19995E+00-3.31889E-03 1.70704E-01 1.27685E-13-3.58363E-13
 -1      3257 1.06460E+01-1.04856E+00 1.44054E-01-1.74152E+00 1.11369E-13-4.48308E-13
 -1      3258 1.44721E+01-3.03044E+00 1.49044E-01-4.48067E+00-2.89081E-13-6.20566E-13
 -1      3259 1.65533E+01-3.44717E+00 5.26263E-02-4.27424E+00-2.42899E-13-3.24123E-13
 -1      3260 1.37621E+01-2.10411E+00 5.38908E-02-3.73227E+00-2.01145E-13-6.05786E-13
 -1      3261 2.02501E+01 1.46267E+00 6.24418E-03 5.85478E-01 2.56476E-13-1.23651E-13
 -1      3262 2.01579E+01 1.80162E+00-6.96601E-03 6.84834E-01 2.78983E-13-1.76791E-13
 -1      3263 2.01225E+01 1.93124E+00-2.51420E-03 5.89383E-01 2.49009E-13-2.15177E-13
 -1      3264 2.01762E+01 4.89017E-01-2.16586E-03 2.19716E-01 1.92282E-13 4.85180E-14
 -1      3265 2.02328E+01 6.35412E-01 4.23054E-03 3.61453E-01 2.14551E-13 4.33633E-14
 -1      3266 2.02562E+01 7.77053E-01-4.82511E-03 4.18694E-01 2.31605E-13 3.11737E-14
 -1      3267 2.02284E+01 5.22805E-01-1.99980E-03 1.98281E-01 1.85264E-13 2.33385E-14
 -1      3268 2.92357E+01-2.84186E+00-2.88119E-02 3.82426E+00-5.53863E-14 3.55591E-13
 -1      3269 2.83735E+01-4.65412E+00-1.45857E-01 2.54509E+00-1.16296E-13 9.57637E-14
 -1      3270 2.00713E+01-2.17683E-03-9.51754E-04-1.69634E-01 1.10469E-13 5.40482E-14
 -1      3271 2.31647E+01 5.04788E+00-5.81610E-02 1.88512E-01-3.94108E-13-3.63397E-13
 -1      3272 2.47489E+01 3.14661E+00-4.46948E-02-3.61939E+00-2.49974E-13 2.08608E-13
 -1      3273 2.51388E+01 1.73290E+00-7.97115E-02-3.98583E+00-2.17205E-13 2.64282E-13
 -1      3274 2.30758E+01 5.30174E+00-7.28841E-02-5.47361E-01-3.97557E-13-3.67007E-13
 -1      3275 2.90639E+01-1.03152E+00-1.74862E-01 4.97486E+00 2.64289E-13 6.59153E-13
 -1      3276 2.47042E+01-4.86035E+00 8.50324E-02-9.07848E-01-2.24263E-13 3.41024E-13
 -1      3277 2.29299E+01-5.27099E+00-9.68659E-02-2.40654E+00-1.31346E-13 2.09503E-13
 -1      3278 2.02169E+01 1.56838E+00-2.12087E-03-8.06727E-01-1.93008E-13-2.83508E-13
 -1      3279 2.59472E+01-5.22603E+00 3.27756E-02 2.33939E-02-1.60948E-13 1.85393E-13
 -1      3280 2.74399E+01-5.39445E+00 9.71407E-02 7.50148E-01-1.24440E-13 2.38524E-13
 -1      3281 2.83837E+01 3.29103E+00-7.77773E-02 4.42299E-01-1.66644E-13-1.22416E-13
 -1      3282 2.83450E+01 1.15560E+00-1.82218E-01-4.56472E-01 5.14588E-14 9.15379E-14
 -1      3283 1.87127E+01-5.61842E+00 1.34030E-01 6.03196E+00 3.27488E-13 7.50677E-13
 -1      3284 1.71124E+01-4.65300E+00 7.85340E-02 5.79125E+00 4.06342E-13 4.28796E-13
 -1      3285 2.08267E+01-5.84539E+00 1.42156E-02 5.04340E+00 1.80911E-13 7.45598E-13
 -1      3286 1.02548E+01-9.12609E-01 1.43260E-01 1.88933E+00 3.78749E-13-2.19449E-13
 -1      3287 2.69947E+01 5.13838E+00-1.68254E-01 6.89611E-01-3.72286E-13-7.28237E-14
 -1      3288 2.57805E+01-6.25594E+00 4.53629E-02 2.75789E+00-1.64146E-13 1.09094E-12
 -1      3289 2.40179E+01-6.06234E+00 4.17887E-02 3.51942E+00-1.34941E-13 1.11156E-12
 -1      3290 2.64378E+01-5.59157E+00 1.82006E-03 1.17001E+00 8.65835E-14 8.76334E-13
 -1      3291 1.42658E+01-3.26545E+00 4.99980E-02 5.32311E+00 5.63931E-13 6.46844E-14
 -1      3292 1.24769E+01-2.68960E+00 1.52857E-01 4.99473E+00 6.16132E-13-1.80286E-13
 -1      3293 1.25658E+01-1.88325E+00 6.98533E-02 4.17980E+00 4.76917E-13-2.33528E-13
 -1      3294 2.02863E+01 1.10420E+00-2.71115E-04-6.30868E-01-1.84982E-13-2.38521E-13
 -1      3295 2.02553E+01 8.92831E-01-4.84478E-03-4.62490E-01-1.74722E-13-2.18220E-13
 -1      3296 2.02865E+01 9.30995E-01 1.71001E-03-4.08274E-01-1.53423E-13-2.30460E-13
 -1      3297 2.09853E+01-5.17130E+00 1.28116E-01-3.74648E+00-2.35589E-13 6.57929E-14
 -1      3298 2.00228E+01 2.21875E+00-3.66921E-03 6.59057E-02 1.06890E-13-3.71946E-13
 -1      3299 2.00223E+01 2.21956E+00-3.68993E-03-5.80864E-02 7.10719E-14-3.64906E-13
 -1      3300 2.01368E+01 1.92284E+00 4.93668E-03 1.01383E-01 1.08739E-13-3.33948E-13
 -1      3301 2.00893E+01 2.02525E+00-5.40444E-03 5.04263E-01 2.31728E-13-2.35784E-13
 -1      3302 2.00639E+01 2.10554E+00-3.06673E-03 3.91028E-01 1.82653E-13-2.64474E-13
 -1      3303 2.01594E+01 1.84791E+00 5.22500E-03 2.90872E-01 1.59460E-13-2.64263E-13
 -1      3304 2.02006E+01 1.69623E+00 5.74122E-03 4.59089E-01 2.08653E-13-1.90201E-13
 -1      3305 2.01187E+01 1.94059E+00-2.49315E-03-5.82908E-01-9.50874E-14-3.27535E-13
 -1      3306 2.01562E+01 1.81106E+00-6.70172E-03-6.82093E-01-1.33764E-13-3.40249E-13
 -1      3307 2.00615E+01 2.11189E+00-2.85032E-03-3.82794E-01-3.34474E-14-3.38286E-13
 -1      3308 2.00857E+01 2.03397E+00-5.12459E-03-4.97938E-01-7.73165E-14-3.39999E-13
 -1      3309 2.01941E+01 1.70157E+00 3.78251E-03-4.50761E-01-9.00466E-14-3.04382E-13
 -1      3310 2.54624E+01 6.37445E+00-8.73194E-02-1.67036E+00-6.04919E-13 8.75211E-14
 -1      3311 2.01264E+01-8.60679E-03-2.25404E-04-1.59904E-01 9.74755E-14-1.67403E-14
 -1      3312 2.01426E+01 2.05858E-02 1.28048E-03-1.50408E-01 8.35556E-14-1.18232E-14
 -1      3313 2.65085E+01 9.40979E-01-5.70160E-02-4.08227E+00-1.04146E-13 3.24712E-13
 -1      3314 2.02982E+01 4.38974E-01 2.28540E-03-7.14435E-02-9.59425E-14-1.71063E-13
 -1      3315 2.02742E+01 3.26700E-01-1.99758E-03-4.40281E-03-9.09847E-14-1.68214E-13
 -1      3316 2.02655E+01 2.36540E-01 2.08981E-03 4.03734E-02-1.08440E-13-1.35867E-13
 -1      3317 2.02409E+01 1.61095E-01-1.28628E-03 8.10616E-02-1.27128E-13-1.24872E-13
 -1      3318 2.03138E+01 3.27351E-01-2.57805E-04 3.08200E-03-8.89032E-14-1.49464E-13
 -1      3319 2.02260E+01 1.01996E-01 1.62211E-03 1.07029E-01-1.50824E-13-1.11264E-13
 -1      3320 2.02043E+01 5.29851E-02-6.66740E-04 1.28661E-01-1.33885E-13-1.18159E-13
 -1      3321 2.02819E+01 1.58284E-01-4.51291E-04 7.72478E-02-1.23913E-13-9.69402E-14
 -1      3322 2.01867E+01 1.55547E-02 1.13554E-03 1.40760E-01-1.16522E-13-1.18136E-13
 -1      3323 2.01688E+01-1.46702E-02-2.34895E-04 1.49287E-01-9.61566E-14-1.08283E-13
 -1      3324 2.02439E+01 4.70169E-02-5.87689E-04 1.18330E-01-1.32365E-13-7.77597E-14
 -1      3325 2.01509E+01-3.69287E-02 7.43201E-04 1.51988E-01-6.52287E-14-1.56182E-13
 -1      3326 2.01367E+01-5.40412E-02 4.43686E-05 1.52006E-01-6.42037E-14-1.38338E-13
 -1      3327 2.02053E+01-2.24639E-02-6.25200E-04 1.35813E-01-1.01663E-13-1.11550E-13
 -1      3328 2.01199E+01-6.58195E-02 4.46133E-04 1.48786E-01-8.64492E-14-1.05382E-13
 -1      3329 2.01089E+01-7.39432E-02 2.12117E-04 1.43697E-01-9.69593E-14-8.96243E-14
 -1      3330 2.01690E+01-6.24985E-02-5.99266E-04 1.37579E-01-6.60318E-14-1.73906E-13
 -1      3331 2.00939E+01-7.86217E-02 2.31696E-04 1.37132E-01-8.85321E-14-4.02113E-14
 -1      3332 2.00856E+01-8.07270E-02 3.02526E-04 1.29366E-01-5.25953E-14 3.20308E-14
 -1      3333 2.01368E+01-8.22062E-02-5.44159E-04 1.29690E-01-6.48872E-14-8.57855E-14
 -1      3334 2.00727E+01-8.07128E-02 8.23045E-05 1.21279E-01-1.03392E-13 2.78392E-14
 -1      3335 2.00666E+01-7.88911E-02 3.42943E-04 1.12522E-01-1.08149E-13-2.36932E-14
 -1      3336 2.01091E+01-8.81982E-02-4.74590E-04 1.16583E-01-6.77589E-14-5.94397E-14
 -1      3337 2.00558E+01-7.58482E-02-1.92695E-05 1.04170E-01-7.41339E-14-5.33353E-14
 -1      3338 2.00514E+01-7.15213E-02 3.53691E-04 9.55668E-02-6.17109E-14-5.60463E-14
 -1      3339 2.00859E+01-8.51690E-02-4.01442E-04 1.01382E-01-1.11830E-13-7.42619E-14
 -1      3340 2.00425E+01-6.65571E-02-8.78487E-05 8.78010E-02-4.88464E-14-4.26898E-14
 -1      3341 2.00396E+01-6.06429E-02 3.48198E-04 8.01229E-02-4.44664E-14-6.36893E-15
 -1      3342 2.00670E+01-7.63271E-02-3.30261E-04 8.62448E-02-3.23731E-14-4.29897E-14
 -1      3343 2.00323E+01-5.44426E-02-1.36178E-04 7.35135E-02-7.40845E-14-2.56574E-14
 -1      3344 2.00305E+01-4.74726E-02 3.36737E-04 6.72833E-02-1.18195E-13-1.08302E-14
 -1      3345 2.00519E+01-6.37582E-02-2.63281E-04 7.26378E-02-6.35294E-14-7.40394E-14
 -1      3346 2.00245E+01-4.03952E-02-1.74909E-04 6.22261E-02-1.74736E-13 2.48491E-14
 -1      3347 2.00235E+01-3.26053E-02 3.26479E-04 5.78239E-02-1.69309E-13 1.82834E-14
 -1      3348 2.00397E+01-4.86849E-02-2.00509E-04 6.15627E-02-1.12865E-13-2.34946E-14
 -1      3349 2.00185E+01-2.47661E-02-2.12044E-04 5.46252E-02-1.49631E-13 6.59019E-14
 -1      3350 2.00181E+01-1.61729E-02 3.22376E-04 5.23646E-02-9.35337E-14 8.18589E-14
 -1      3351 2.00299E+01-3.16739E-02-1.42248E-04 5.37522E-02-1.39287E-13 7.90497E-14
 -1      3352 2.00136E+01-7.50423E-03-2.54280E-04 5.12994E-02-4.43761E-14 9.93262E-14
 -1      3353 2.00136E+01 2.04333E-03 3.28356E-04 5.14850E-02 2.47180E-14 1.34041E-13
 -1      3354 2.00216E+01-1.27938E-02-8.50095E-05 4.98093E-02-6.19344E-14 1.77700E-13
 -1      3355 2.00092E+01 1.17472E-02-3.07228E-04 5.28478E-02-1.57031E-14 1.27798E-13
 -1      3356 2.00094E+01 2.25188E-02 3.46945E-04 5.58209E-02 3.32824E-15 8.78088E-14
 -1      3357 2.00140E+01 8.25457E-03-2.67439E-05 5.03132E-02-1.85822E-14 2.24915E-13
 -1      3358 2.00045E+01 3.35523E-02-3.75332E-04 5.99628E-02 3.94720E-14 3.25602E-14
 -1      3359 2.00048E+01 4.58866E-02 3.79341E-04 6.61292E-02 4.10106E-14 7.81481E-14
 -1      3360 2.00062E+01 3.20374E-02 3.54967E-05 5.59122E-02-2.56284E-15 8.30528E-14
 -1      3361 1.99990E+01 5.85846E-02-4.62191E-04 7.34796E-02 1.73240E-14 1.29594E-13
 -1      3362 1.99991E+01 7.28373E-02 4.26209E-04 8.33244E-02 1.12253E-13 8.89792E-14
 -1      3363 1.99973E+01 5.92736E-02 1.04824E-04 6.73786E-02 7.94994E-14 2.08030E-13
 -1      3364 1.99917E+01 8.75202E-02-5.70098E-04 9.44034E-02 1.69075E-13 1.47739E-14
 -1      3365 1.99914E+01 1.03998E-01 4.87683E-04 1.08492E-01 1.19163E-13-3.32800E-14
 -1      3366 1.99861E+01 9.07181E-02 1.83824E-04 8.56431E-02 4.53044E-14 1.17926E-13
 -1      3367 1.99818E+01 1.20896E-01-6.99437E-04 1.23912E-01 7.30981E-14-2.32144E-14
 -1      3368 1.99810E+01 1.39768E-01 5.63462E-04 1.42873E-01-1.39167E-14 3.38052E-14
 -1      3369 1.99714E+01 1.27018E-01 2.74060E-04 1.11811E-01 1.00511E-13-8.77357E-14
 -1      3370 1.99685E+01 1.58917E-01-8.47788E-04 1.63329E-01-7.39769E-14 1.02948E-13
 -1      3371 1.99669E+01 1.80087E-01 6.53173E-04 1.87818E-01-6.96206E-14 6.02685E-14
 -1      3372 1.99519E+01 1.68516E-01 3.74998E-04 1.47153E-01 2.56018E-14-4.98872E-14
 -1      3373 1.99508E+01 2.01182E-01-1.00856E-03 2.14057E-01-1.49197E-13 1.45512E-14
 -1      3374 1.99483E+01 2.24112E-01 7.57114E-04 2.44691E-01-1.65771E-13-5.57846E-15
 -1      3375 1.99264E+01 2.14978E-01 4.82348E-04 1.93076E-01-1.28560E-13-3.92076E-14
 -1      3376 1.99282E+01 2.46304E-01-1.16904E-03 2.77474E-01-1.10014E-13 1.13409E-14
 -1      3377 1.99249E+01 2.69776E-01 8.77670E-04 3.14738E-01-6.96592E-14-1.58998E-15
 -1      3378 1.98936E+01 2.65217E-01 5.85542E-04 2.51060E-01-1.03701E-13-2.86235E-14
 -1      3379 1.99005E+01 2.91392E-01-1.30770E-03 3.54773E-01-6.48733E-14-4.25048E-14
 -1      3380 1.98969E+01 3.13181E-01 1.02172E-03 3.98894E-01-6.59059E-14-9.22016E-14
 -1      3381 1.98527E+01 3.16580E-01 6.63946E-04 3.22572E-01-7.77422E-14-4.56718E-14
 -1      3382 1.98685E+01 3.31361E-01-1.39045E-03 4.46764E-01-5.01498E-14-1.59224E-13
 -1      3383 1.98657E+01 3.47814E-01 1.20430E-03 4.97537E-01-3.31299E-14-3.94028E-14
 -1      3384 1.98037E+01 3.64269E-01 6.81257E-04 4.08962E-01-7.48773E-14 1.87595E-15
 -1      3385 1.98348E+01 3.58048E-01-1.36493E-03 5.53604E-01-9.99804E-14-2.51347E-14
 -1      3386 1.98350E+01 3.63575E-01 1.45313E-03 6.10180E-01-5.14390E-14-1.18946E-13
 -1      3387 1.97480E+01 4.00468E-01 5.77301E-04 5.11343E-01-7.13851E-14 5.16244E-14
 -1      3388 1.98048E+01 3.59154E-01-1.15148E-03 6.74475E-01-4.86751E-14-1.43837E-13
 -1      3389 1.98124E+01 3.45632E-01 1.81202E-03 7.35087E-01-4.44455E-14-8.04852E-14
 -1      3390 1.96895E+01 4.13279E-01 2.56059E-04 6.30474E-01-1.15449E-13 3.57688E-14
 -1      3391 1.97887E+01 3.17069E-01-6.27278E-04 8.07144E-01-8.30188E-14-2.91152E-13
 -1      3392 1.98109E+01 2.73268E-01 2.33666E-03 8.68726E-01-1.48123E-13-3.04918E-13
 -1      3393 1.96365E+01 3.85480E-01-4.31914E-04 7.66624E-01-1.57053E-13-1.02940E-13
 -1      3394 1.98039E+01 2.07833E-01 4.01106E-04 9.47252E-01 5.75154E-14-2.90957E-13
 -1      3395 1.98522E+01 1.19032E-01 3.06821E-03 1.00481E+00 1.03271E-13-1.69718E-13
 -1      3396 1.96035E+01 2.93256E-01-1.71497E-03 9.19292E-01-1.08602E-14-3.78492E-13
 -1      3397 1.98787E+01 7.34114E-04 2.24183E-03 1.08690E+00 2.64033E-14-7.49654E-14
 -1      3398 1.99705E+01-1.50984E-01 3.96248E-03 1.13233E+00 1.18434E-14-6.02020E-14
 -1      3399 1.96150E+01 1.05190E-01-3.93395E-03 1.08644E+00 1.20111E-13-2.07192E-13
 -1      3400 2.00567E+01-3.40213E-01 5.38622E-03 1.21156E+00 5.17102E-15 1.06923E-13
 -1      3401 2.02157E+01-5.74099E-01 4.63621E-03 1.23143E+00-2.25908E-14 2.69284E-13
 -1      3402 1.97106E+01-2.17706E-01-7.57872E-03 1.26228E+00 1.05639E-13 6.16185E-14
 -1      3403 2.04014E+01-8.50705E-01 1.03671E-02 1.29349E+00-2.30533E-13 3.60421E-13
 -1      3404 2.06566E+01-1.18139E+00 4.09986E-03 1.26479E+00-2.56108E-13 2.99142E-13
 -1      3405 1.99505E+01-7.19077E-01-1.33981E-02 1.43172E+00-9.13503E-14 2.59992E-13
 -1      3406 2.09977E+01-1.54991E+00 1.81904E-02 1.27859E+00-3.19252E-13 3.21815E-13
 -1      3407 2.13751E+01-1.97330E+00 6.69335E-04 1.16321E+00-2.73568E-13 2.05675E-13
 -1      3408 2.04232E+01-1.43700E+00-2.20816E-02 1.55751E+00-2.99298E-13 3.66855E-13
 -1      3409 2.19393E+01-2.40521E+00 2.92239E-02 1.06613E+00-8.20307E-14 1.52506E-13
 -1      3410 2.24423E+01-2.86433E+00-6.62691E-03 8.05168E-01-3.64509E-14 2.82947E-13
 -1      3411 2.12457E+01-2.37344E+00-3.29922E-02 1.55452E+00-1.64557E-13 2.63024E-13
 -1      3412 2.32911E+01-3.26638E+00 4.13459E-02 4.88200E-01-3.06944E-14 3.32726E-13
 -1      3413 2.38491E+01-3.58580E+00-1.60073E-02 1.58678E-02-1.06111E-13 4.59317E-13
 -1      3414 2.25384E+01-3.43815E+00-4.72666E-02 1.26276E+00 2.25688E-15 4.32955E-13
 -1      3415 2.63504E+01-2.14784E+00-4.76726E-02-2.81737E+00 8.89809E-14 3.03605E-13
 -1      3416 2.67221E+01-8.95499E-01-1.09770E-02-3.60023E+00 2.38351E-14 4.75110E-13
 -1      3417 2.00571E+01-7.36530E-02 2.99077E-04-1.40113E-01 5.26792E-14 1.29597E-13
 -1      3418 2.00625E+01-7.12521E-02 2.16480E-04-1.48418E-01 9.39704E-14 8.47968E-14
 -1      3419 2.00984E+01-4.67450E-02 4.85628E-05-1.63773E-01 1.24421E-13-7.59565E-15
 -1      3420 2.01101E+01-3.00729E-02 8.08786E-04-1.63558E-01 1.27451E-13 3.45552E-15
 -1      3421 2.01705E+01-1.55216E-02-7.02368E-04-1.48522E-01 9.27491E-14-1.14298E-13
 -1      3422 2.00321E+01-6.65693E-02 3.48623E-04-1.03513E-01-7.64384E-14 1.61803E-13
 -1      3423 2.00340E+01-7.02616E-02-5.60959E-05-1.12842E-01-1.48798E-15 1.46442E-13
 -1      3424 2.00242E+01-5.71361E-02 3.44076E-04-8.65241E-02 1.41851E-14 1.50061E-13
 -1      3425 2.00250E+01-6.23114E-02-1.24488E-04-9.49365E-02-2.48792E-14 1.75368E-13
 -1      3426 2.00513E+01-7.23559E-02-3.00475E-04-9.55486E-02-6.88229E-14 1.66008E-13
 -1      3427 2.00186E+01-4.55991E-02 3.34758E-04-7.21731E-02-2.22388E-14 2.18342E-13
 -1      3428 2.00185E+01-5.17374E-02-1.68393E-04-7.91201E-02 4.84800E-15 1.44895E-13
 -1      3429 2.00394E+01-6.12773E-02-2.38265E-04-8.02162E-02-1.22415E-14 2.00341E-13
 -1      3430 2.00148E+01-3.25536E-02 3.28317E-04-6.12786E-02 2.19965E-14 2.13631E-13
 -1      3431 2.00141E+01-3.94158E-02-1.99268E-04-6.63705E-02 7.40560E-15 2.11254E-13
 -1      3432 2.00303E+01-4.78689E-02-1.84739E-04-6.75076E-02-1.98568E-14 1.57260E-13
 -1      3433 2.00124E+01-1.81390E-02 3.30059E-04-5.44808E-02 1.49339E-14 1.71844E-13
 -1      3434 2.00113E+01-2.57042E-02-2.26962E-04-5.73993E-02 2.46294E-14 2.02178E-13
 -1      3435 2.00234E+01-3.27039E-02-1.36759E-04-5.82099E-02 3.98314E-14 2.01874E-13
 -1      3436 2.00111E+01-2.14794E-03 3.43532E-04-5.23783E-02 7.30951E-14 9.60199E-14
 -1      3437 2.00094E+01-1.05617E-02-2.58792E-04-5.28130E-02 6.08062E-14 1.33915E-13
 -1      3438 2.00180E+01-1.58689E-02-9.34391E-05-5.29629E-02 7.74218E-14 1.33482E-13
 -1      3439 2.00102E+01 1.59075E-02 3.71603E-04-5.56238E-02 1.10006E-14 1.85004E-13
 -1      3440 2.00083E+01 6.36193E-03-3.01314E-04-5.32239E-02 3.16493E-14 1.34362E-13
 -1      3441 2.00134E+01 2.93447E-03-4.98518E-05-5.23761E-02 4.14623E-14 1.49934E-13
 -1      3442 2.00095E+01 3.67465E-02 4.15626E-04-6.50073E-02 7.58674E-14 2.41580E-13
 -1      3443 2.00072E+01 2.56745E-02-3.60759E-04-5.93417E-02 7.67306E-14 1.86112E-13
 -1      3444 2.00090E+01 2.43065E-02-2.90440E-06-5.71164E-02 6.22099E-14 1.78744E-13
 -1      3445 2.00083E+01 6.12702E-02 4.76056E-04-8.15115E-02 3.05526E-15 1.82106E-13
 -1      3446 2.00058E+01 4.81892E-02-4.42689E-04-7.20431E-02 2.94934E-14 1.94118E-13
 -1      3447 2.00040E+01 4.90986E-02 5.28358E-05-6.79848E-02 6.69366E-14 2.47324E-13
 -1      3448 2.00060E+01 9.05205E-02 5.51939E-04-1.06342E-01-1.11674E-14 1.41899E-13
 -1      3449 2.00034E+01 7.48812E-02-5.52837E-04-9.24136E-02-9.86533E-15 1.92665E-13
 -1      3450 1.99973E+01 7.83510E-02 1.23909E-04-8.59563E-02 4.11443E-14 2.25715E-13
 -1      3451 2.00016E+01 1.25631E-01 6.40564E-04-1.40937E-01 2.83607E-14 6.46387E-14
 -1      3452 1.99991E+01 1.06845E-01-6.97160E-04-1.21767E-01 3.25145E-16 1.30641E-13
 -1      3453 1.99878E+01 1.13242E-01 2.18511E-04-1.12198E-01 3.28749E-15 1.60664E-13
 -1      3454 1.99938E+01 1.67758E-01 7.36955E-04-1.86946E-01 5.69155E-14 1.09615E-13
 -1      3455 1.99918E+01 1.45235E-01-8.81847E-04-1.61643E-01 6.58401E-14 8.53204E-14
 -1      3456 1.99740E+01 1.55025E-01 3.47079E-04-1.48062E-01 2.69545E-14 3.51564E-14
 -1      3457 1.99809E+01 2.17962E-01 8.33491E-04-2.46169E-01-9.03689E-14 1.37041E-13
 -1      3458 1.99800E+01 1.91178E-01-1.11324E-03-2.13765E-01 2.37600E-14 1.68916E-13
 -1      3459 1.99538E+01 2.04929E-01 5.22765E-04-1.95043E-01 2.78828E-14 6.26853E-14
 -1      3460 1.99606E+01 2.77026E-01 9.20048E-04-3.20463E-01-8.71269E-14-2.41803E-14
 -1      3461 1.99615E+01 2.45628E-01-1.39755E-03-2.79971E-01-8.42821E-14 5.22334E-14
 -1      3462 1.99247E+01 2.64015E-01 7.61702E-04-2.54706E-01-8.17227E-14 6.91666E-14
 -1      3463 1.99296E+01 3.45129E-01 9.85566E-04-4.11586E-01-6.14766E-14-3.78517E-14
 -1      3464 1.99336E+01 3.09119E-01-1.74031E-03-3.62089E-01-9.21621E-14-3.65505E-14
 -1      3465 1.98833E+01 3.32930E-01 1.08269E-03-3.28563E-01-2.58072E-14-1.17457E-14
 -1      3466 1.98838E+01 4.21325E-01 1.02264E-03-5.21013E-01 5.72116E-14-2.94669E-14
 -1      3467 1.98925E+01 3.81354E-01-2.14557E-03-4.61780E-01-1.41329E-14-5.52183E-14
 -1      3468 1.98253E+01 4.11525E-01 1.50561E-03-4.17937E-01-2.98032E-14-7.03983E-14
 -1      3469 1.98184E+01 5.02653E-01 1.03802E-03-6.49741E-01-8.31129E-14 2.19345E-14
 -1      3470 1.98338E+01 4.60516E-01-2.61471E-03-5.80365E-01 9.99933E-15 7.93841E-14
 -1      3471 1.97454E+01 4.98221E-01 2.04730E-03-5.23818E-01-7.79907E-14-4.63948E-14
 -1      3472 1.97280E+01 5.82706E-01 1.07321E-03-7.98184E-01-1.10908E-13-1.10425E-13
 -1      3473 1.97520E+01 5.42137E-01-3.14486E-03-7.18696E-01-8.77184E-14-9.49063E-14
 -1      3474 1.96370E+01 5.89014E-01 2.71287E-03-6.46824E-01-5.47069E-14 6.60235E-14
 -1      3475 1.96076E+01 6.49351E-01 1.24032E-03-9.66323E-01-1.03036E-13-5.86833E-14
 -1      3476 1.96414E+01 6.17273E-01-3.72650E-03-8.77213E-01-1.26465E-13-7.85104E-14
 -1      3477 1.94929E+01 6.75899E-01 3.47861E-03-7.87421E-01-1.17871E-13-1.00580E-13
 -1      3478 1.94555E+01 6.81235E-01 1.77554E-03-1.15442E+00-7.76770E-14-8.11745E-15
 -1      3479 1.94977E+01 6.69654E-01-4.33819E-03-1.05644E+00 1.28772E-14 3.25303E-14
 -1      3480 1.93060E+01 7.44454E-01 4.25935E-03-9.46732E-01-1.00679E-13-5.78823E-15
 -1      3481 1.92778E+01 6.42726E-01 3.10382E-03-1.36462E+00 1.98221E-14-7.58667E-14
 -1      3482 1.93210E+01 6.71433E-01-4.93285E-03-1.25826E+00-6.03367E-14-1.02141E-13
 -1      3483 1.90712E+01 7.70246E-01 4.84762E-03-1.12840E+00-2.91779E-14-6.35420E-14
 -1      3484 1.90973E+01 4.77235E-01 6.00934E-03-1.60375E+00 1.66341E-14-1.59372E-13
 -1      3485 1.91223E+01 5.77291E-01-5.38435E-03-1.48833E+00 5.24424E-14-8.39166E-14
 -1      3486 1.87896E+01 7.13728E-01 4.82176E-03-1.34214E+00-1.39442E-15-9.13028E-15
 -1      3487 1.89691E+01 9.80761E-02 1.15413E-02-1.88680E+00-8.09705E-14 4.74575E-14
 -1      3488 1.89345E+01 3.17070E-01-5.14445E-03-1.76002E+00-9.03692E-14-7.15575E-14
 -1      3489 1.84754E+01 5.13484E-01 3.47524E-03-1.60929E+00-6.23549E-14-3.31804E-14
 -1      3490 1.90078E+01-6.19115E-01 2.18720E-02-2.23469E+00-4.54051E-14 1.66177E-13
 -1      3491 1.88348E+01-2.13804E-01-2.36433E-03-2.09690E+00-6.30039E-14 9.59921E-14
 -1      3492 1.81695E+01 7.57719E-02-4.47472E-04-1.97252E+00-1.78963E-13 1.01370E-13
 -1      3493 1.93961E+01-1.83549E+00 3.22744E-02-2.65166E+00 3.71057E-15 3.75936E-14
 -1      3494 1.89871E+01-1.16385E+00 8.24180E-03-2.51818E+00 2.97339E-14 1.30189E-13
 -1      3495 1.79696E+01-7.53618E-01-1.15176E-02-2.48989E+00-5.20924E-14-4.28390E-14
 -1      3496 2.02178E+01 1.58218E+00 1.60884E-03-6.98428E-01-1.61485E-13-2.93286E-13
 -1      3497 2.02551E+01 1.36646E+00 2.06521E-03-5.37240E-01-1.40954E-13-2.89754E-13
 -1      3498 2.02342E+01 3.20308E-01-2.17946E-03 1.46785E-02 1.49882E-13-9.37520E-15
 -1      3499 2.02649E+01 4.29784E-01 3.08027E-03 8.85535E-02 1.56037E-13-1.72605E-14
 -1      3500 2.68692E+01 6.05811E+00-1.77051E-01 1.41038E+00 1.64480E-13 6.09370E-13
 -1      3501 2.81929E+01-3.56232E+00-5.39544E-02-1.80483E+00 3.98952E-14 6.75647E-13
 -1      3502 2.73624E+01-4.21435E+00-2.57665E-02-9.60854E-01 1.40574E-13 7.61634E-13
 -1      3503 2.00292E+01 2.20252E+00-3.17411E-03-1.62593E-01 4.64454E-14-3.30221E-13
 -1      3504 2.00412E+01 2.16558E+00-4.23512E-03-2.84527E-01-6.16063E-15-3.25997E-13
 -1      3505 2.01555E+01 1.85208E+00 4.45465E-03-2.82951E-01-2.92576E-14-3.04807E-13
 -1      3506 2.01964E+01 1.60535E-01-1.31406E-03-8.21968E-02 1.12260E-13-1.08841E-14
 -1      3507 2.02234E+01 2.33671E-01 2.57489E-03-3.72873E-02 1.47054E-13-1.99568E-15
 -1      3508 2.02806E+01 3.28362E-01-4.05250E-04 6.25024E-03 1.54067E-13-5.06584E-14
 -1      3509 2.03738E+01-4.47004E+00 5.00917E-02-3.54717E+00-1.56774E-13 2.45047E-14
 -1      3510 2.66005E+01-3.71932E+00-5.62810E-03-1.44031E+00 5.47548E-14 7.83429E-13
 -1      3511 2.68815E+01-4.78945E+00 3.16832E-03-1.60503E-01 7.23787E-14 7.20504E-13
 -1      3512 2.56985E+01-5.09730E+00-3.26728E-02 7.58076E-01 3.87156E-14 7.86532E-13
 -1      3513 2.00429E+01-7.27202E-02 3.38149E-04-1.21962E-01 6.99479E-14 1.07499E-13
 -1      3514 2.00463E+01-7.40479E-02 5.10759E-05-1.31390E-01 6.35689E-14 1.37322E-13
 -1      3515 2.00857E+01-8.18517E-02-4.55273E-04-1.29126E-01 6.16439E-14 1.07895E-13
 -1      3516 2.00665E+01-7.98908E-02-3.72822E-04-1.12396E-01 7.35658E-15 1.43746E-13
 -1      3517 2.73393E+01-2.35561E+00-3.21902E-02-2.78352E+00 1.41271E-13 7.41969E-13
 -1      3518 2.01595E+01 5.64995E-02-6.60476E-04-1.36114E-01 7.76450E-14-2.32783E-14
 -1      3519 2.01809E+01 1.03784E-01 1.88243E-03-1.12255E-01 7.25589E-14-2.17997E-14
 -1      3520 2.02453E+01 1.61682E-01-6.54403E-04-7.97606E-02 1.05590E-13-3.63962E-14
 -1      3521 2.00754E+01-6.64167E-02 2.11074E-04-1.55341E-01 1.08371E-13 8.69172E-15
 -1      3522 2.00836E+01-5.82914E-02 4.61489E-04-1.60700E-01 1.00682E-13 9.75252E-15
 -1      3523 2.01376E+01-5.51323E-02-6.31600E-04-1.51466E-01 1.14858E-13-4.21649E-14
 -1      3524 2.01093E+01-7.51081E-02-5.42026E-04-1.43330E-01 4.99662E-14 3.04279E-14
 -1      3525 1.16100E+01-7.58631E-01 5.44640E-02 2.53002E+00 3.82383E-13-1.25386E-14
 -1      3526 1.08067E+01-3.34373E-01 6.89146E-02 8.28145E-01 2.51885E-13-4.98490E-14
 -1      3527 2.03109E+01 7.34403E-01 9.46864E-04-2.41553E-01-1.03377E-13-2.08316E-13
 -1      3528 2.02951E+01 5.73406E-01-2.62271E-03-1.40469E-01-1.06501E-13-2.02675E-13
 -1      3529 2.03302E+01 5.77780E-01 5.16753E-04-1.14213E-01-8.82105E-14-2.11013E-13
 -1      3530 1.08509E+01-3.60601E-01 8.26237E-02-6.23696E-01 2.61821E-13-3.03063E-13
 -1      3531 1.19497E+01-9.18668E-01 4.44702E-02-2.24490E+00 2.03943E-14-3.34260E-13
 -1      3532 1.21565E+01-1.00019E-01 8.14245E-02 1.58243E-01 3.01814E-13-1.49408E-13
 -1      3533 1.83354E+01-3.60941E+00 3.93088E-02-4.01595E+00-2.00218E-13-2.16160E-13
 -1      3534 2.06618E+01-3.49734E+00 4.35228E-02-2.88442E+00-2.84304E-14 1.85442E-15
 -1      3535 1.97915E+01-2.54418E+00 3.20060E-02-2.87380E+00 2.17903E-15 2.26967E-14
 -1      3536 1.71017E+01-2.60283E+00 3.66001E-03-3.69012E+00-1.74747E-13-2.62266E-13
 -1      3537 1.32682E+01-1.07352E+00 1.13201E-01-2.84310E+00-1.05419E-13-3.60004E-13
 -1      3538 1.47808E+01-1.50862E+00 4.14512E-02-3.16225E+00-9.28452E-14-5.49737E-13
 -1      3539 1.31849E+01-4.41677E-01 2.74312E-02-1.90578E+00 6.15818E-14-1.46352E-13
 -1      3540 2.02772E+01 1.14184E+00-4.89641E-03 4.92357E-01 2.33585E-13-7.84962E-14
 -1      3541 2.02651E+01 1.28639E+00-1.63895E-04 4.52821E-01 1.99643E-13-1.37298E-13
 -1      3542 2.01355E+01 1.92428E+00 4.71533E-03-9.46338E-02 5.48917E-14-3.16301E-13
 -1      3543 2.47025E+01-4.13861E+00-6.21532E-04 1.99017E-01-1.29499E-13 6.89246E-13
 -1      3544 2.51656E+01-3.69779E+00 2.18072E-02-8.08398E-01-2.26570E-13 4.72271E-13
 -1      3545 2.57091E+01-3.41639E+00-2.99715E-02-1.54716E+00-8.43995E-14 4.08475E-13
 -1      3546 1.82825E+01-1.99498E+00-5.96898E-03-3.09812E+00-6.54858E-15-1.22288E-13
 -1      3547 2.03044E+01 5.74855E-01-1.30613E-04 1.42820E-01 1.65323E-13-6.34001E-14
 -1      3548 2.02669E+01 5.63088E-01-2.11414E-03 1.70342E-01 1.64180E-13-1.55587E-14
 -1      3549 2.02858E+01 6.86591E-01 1.14001E-03 2.66855E-01 1.80688E-13-2.66167E-14
 -1      3550 2.26864E+01-5.86312E+00 3.89143E-02 4.12282E+00-6.73211E-14 9.60372E-13
 -1      3551 2.10410E+01-5.17302E+00 3.40781E-02 4.38731E+00 6.25056E-14 6.69688E-13
 -1      3552 2.37726E+01-5.62818E+00-4.62124E-02 2.84493E+00-1.48978E-13 1.30109E-12
 -1      3553 2.02071E+01 5.26253E-02-7.30775E-04-1.27639E-01 8.49026E-14-7.99193E-14
 -1      3554 1.80758E+01-4.18819E+00-5.35950E-03 5.01980E+00 3.12316E-13 3.72612E-13
 -1      3555 1.62351E+01-3.65108E+00 1.23786E-01 5.34387E+00 5.31700E-13 2.19977E-13
 -1      3556 1.55194E+01-2.79137E+00 3.26613E-02 4.73731E+00 4.38680E-13 1.51990E-13
 -1      3557 2.02606E+01 1.35111E+00 2.26298E-03-4.32403E-01-9.87529E-14-2.81201E-13
 -1      3558 2.02923E+01 1.11419E+00-1.10075E-03-4.35650E-01-1.32695E-13-2.54715E-13
 -1      3559 2.02950E+01 9.13570E-01-2.24129E-03-3.15404E-01-1.19510E-13-2.38763E-13
 -1      3560 2.02308E+01 1.52052E+00-1.28792E-05-3.11739E-01-5.67788E-14-2.89449E-13
 -1      3561 2.02470E+01 1.42544E+00-2.96501E-03-3.79929E-01-8.05407E-14-2.90595E-13
 -1      3562 2.02967E+01 1.19178E+00 1.63088E-03-2.90984E-01-7.46925E-14-2.72025E-13
 -1      3563 2.02010E+01 1.63995E+00-3.32996E-03 1.30402E-01 1.19181E-13-3.18217E-13
 -1      3564 2.01968E+01 1.65971E+00-2.70328E-03 3.98531E-02 9.23271E-14-3.41050E-13
 -1      3565 2.03204E+01 9.14410E-01 1.57536E-03-2.61923E-01-9.41172E-14-2.46978E-13
 -1      3566 1.24857E+01-9.54511E-01 1.08839E-01 3.10330E+00 4.14160E-13-2.37060E-13
 -1      3567 1.27818E+01-4.19044E-01 2.28780E-02 2.17462E+00 2.53195E-13 1.51407E-14
 -1      3568 1.35588E+01-1.42736E+00 3.47541E-02 3.63159E+00 4.18339E-13-2.20969E-13
 -1      3569 2.02206E+01 1.54843E+00-3.96038E-03 2.84985E-01 1.78676E-13-2.16531E-13
 -1      3570 2.02099E+01 1.60687E+00-2.01637E-03 2.01223E-01 1.43144E-13-2.63898E-13
 -1      3571 2.02836E+01 1.38578E+00 4.75162E-03 1.33359E-01 1.26508E-13-2.55671E-13
 -1      3572 2.02715E+01 9.56362E-01 1.87977E-03 4.62331E-01 2.34005E-13-9.63655E-15
 -1      3573 2.02849E+01 8.23272E-01 1.89788E-03 3.36852E-01 2.09646E-13-2.70000E-14
 -1      3574 2.61562E+01-2.83223E+00 1.01649E-03-2.29543E+00 1.11432E-13 3.01609E-13
 -1      3575 2.43477E+01-4.76668E+00 4.38257E-02 1.50009E+00-1.10099E-13 7.14971E-13
 -1      3576 2.03031E+01 1.11509E+00 3.00070E-03 3.35187E-01 1.81906E-13-1.49311E-13
 -1      3577 2.02497E+01 1.38345E+00-4.67128E-03 4.13038E-01 2.12283E-13-1.72541E-13
 -1      3578 2.02357E+01 1.48272E+00-1.27898E-03 3.44522E-01 1.79958E-13-1.83981E-13
 -1      3579 2.03322E+01 2.15903E-01 1.29062E-03 4.82363E-02-9.14267E-14-1.20285E-13
 -1      3580 2.03115E+01 1.40987E-01-1.04529E-03 7.74172E-02-1.10126E-13-1.05101E-13
 -1      3581 2.02962E+01 8.16550E-02 1.07675E-03 9.34939E-02-1.14315E-13-1.08430E-13
 -1      3582 2.02746E+01 3.30509E-02-5.25481E-04 1.08673E-01-1.24799E-13-9.58409E-14
 -1      3583 2.03377E+01 1.30369E-01-1.36263E-04 6.93393E-02-9.73872E-14-9.04612E-14
 -1      3584 2.02553E+01-4.25664E-03 8.03701E-04 1.15350E-01-1.24859E-13-6.94540E-14
 -1      3585 2.02349E+01-3.38279E-02-1.53412E-04 1.20839E-01-9.33798E-14-7.37922E-14
 -1      3586 2.02988E+01 2.30871E-02-3.76716E-04 9.43208E-02-1.19021E-13-5.72273E-14
 -1      3587 2.02145E+01-5.55192E-02 5.69908E-04 1.21207E-01-3.91413E-14-8.02662E-14
 -1      3588 2.01963E+01-7.16792E-02 9.09787E-05 1.20398E-01-4.84315E-14-8.74355E-14
 -1      3589 2.02565E+01-4.29756E-02-5.03115E-04 1.03665E-01-6.87309E-14-5.20696E-14
 -1      3590 2.01765E+01-8.24962E-02 3.79956E-04 1.16877E-01-5.29538E-14-6.55088E-14
 -1      3591 2.01609E+01-8.94348E-02 2.35564E-04 1.12346E-01-1.73229E-14-3.38989E-14
 -1      3592 2.02150E+01-7.97604E-02-5.49084E-04 1.02658E-01-3.86800E-14-1.31435E-14
 -1      3593 2.01429E+01-9.28987E-02 2.33749E-04 1.06729E-01-4.48325E-14-1.04172E-14
 -1      3594 2.01299E+01-9.36687E-02 3.10555E-04 1.00315E-01-8.96720E-14-1.59219E-14
 -1      3595 2.01767E+01-9.62477E-02-5.35588E-04 9.54605E-02-2.78314E-14 4.45080E-14
 -1      3596 2.01140E+01-9.22639E-02 1.23241E-04 9.38681E-02-1.17415E-13-2.70186E-14
 -1      3597 2.01035E+01-8.89965E-02 3.42610E-04 8.68710E-02-1.08342E-13 1.54117E-14
 -1      3598 2.01430E+01-9.90868E-02-4.92531E-04 8.50738E-02-8.53895E-14 6.33929E-14
 -1      3599 2.00899E+01-8.44378E-02 4.08768E-05 8.04800E-02-6.35506E-14 2.66022E-14
 -1      3600 2.00814E+01-7.85723E-02 3.46386E-04 7.37949E-02-3.43656E-14 9.68451E-15
 -1      3601 2.01140E+01-9.29196E-02-4.31893E-04 7.36492E-02-8.00844E-14 9.58939E-14
 -1      3602 2.00700E+01-7.19842E-02-2.26598E-05 6.80652E-02-3.93082E-14-2.51518E-14
 -1      3603 2.00633E+01-6.44289E-02 3.33839E-04 6.23034E-02-6.85639E-14-4.36223E-14
 -1      3604 2.00897E+01-8.08993E-02-3.60593E-04 6.26932E-02-3.81346E-14 4.87167E-14
 -1      3605 2.00537E+01-5.64770E-02-7.63728E-05 5.76391E-02-7.82775E-14-1.73449E-15
 -1      3606 2.00485E+01-4.77134E-02 3.15158E-04 5.32279E-02-1.03120E-13 4.15456E-14
 -1      3607 2.00695E+01-6.50435E-02-2.86074E-04 5.32318E-02-4.80684E-14 5.51797E-14
 -1      3608 2.00402E+01-3.86963E-02-1.27704E-04 4.99313E-02-8.92055E-14 7.01616E-14
 -1      3609 2.00360E+01-2.88961E-02 2.95315E-04 4.72078E-02-6.84981E-14 1.55817E-13
 -1      3610 2.00526E+01-4.64307E-02-2.09092E-04 4.59783E-02-6.07102E-14 9.44247E-14
 -1      3611 2.00286E+01-1.88691E-02-1.81932E-04 4.55277E-02-4.32477E-14 2.26009E-13
 -1      3612 2.00251E+01-7.96926E-03 2.79145E-04 4.47790E-02-8.93460E-15 2.67906E-13
 -1      3613 2.00380E+01-2.54689E-02-1.28912E-04 4.15092E-02 1.34584E-16 1.85994E-13
 -1      3614 2.00179E+01 3.23036E-03-2.45105E-04 4.49535E-02-7.95623E-15 3.24546E-13
 -1      3615 2.00146E+01 1.54786E-02 2.70475E-04 4.64810E-02-1.57817E-16 3.04064E-13
 -1      3616 2.00246E+01-2.06011E-03-4.47206E-05 4.03064E-02 3.27837E-14 2.88809E-13
 -1      3617 2.00070E+01 2.81514E-02-3.21465E-04 4.87891E-02-3.90645E-14 3.07159E-13
 -1      3618 2.00034E+01 4.21111E-02 2.69826E-04 5.29373E-02 2.50734E-14 2.92365E-13
 -1      3619 2.00113E+01 2.43031E-02 4.60826E-05 4.28853E-02-3.30545E-14 3.70514E-13
 -1      3620 1.99947E+01 5.66414E-02-4.15618E-04 5.77174E-02 7.63518E-14 2.44277E-13
 -1      3621 1.99903E+01 7.27344E-02 2.78052E-04 6.48955E-02 6.40698E-14 2.16217E-13
 -1      3622 1.99966E+01 5.43786E-02 1.47652E-04 4.98484E-02 1.86614E-14 3.78969E-13
 -1      3623 1.99796E+01 8.95327E-02-5.31529E-04 7.25646E-02 3.87394E-14 1.88486E-13
 -1      3624 1.99738E+01 1.08176E-01 2.95927E-04 8.32600E-02 3.77525E-14 1.79312E-13
 -1      3625 1.99789E+01 8.90495E-02 2.63105E-04 6.19202E-02 2.86467E-14 2.19170E-13
 -1      3626 1.99601E+01 1.27604E-01-6.71902E-04 9.43306E-02 2.68814E-14 7.49639E-14
 -1      3627 1.99525E+01 1.49122E-01 3.24381E-04 1.09112E-01 5.86304E-14 5.83398E-14
 -1      3628 1.99566E+01 1.29191E-01 3.95379E-04 7.99869E-02-2.77189E-14 2.09047E-13
 -1      3629 1.99348E+01 1.71396E-01-8.38003E-04 1.24202E-01 6.14746E-14-1.75552E-14
 -1      3630 1.99245E+01 1.95904E-01 3.65247E-04 1.43712E-01 4.73479E-15 3.51043E-14
 -1      3631 1.99276E+01 1.75487E-01 5.46039E-04 1.05124E-01 7.12506E-15 1.76783E-13
 -1      3632 1.99017E+01 2.20956E-01-1.02898E-03 1.63549E-01-5.69991E-14-2.46566E-14
 -1      3633 1.98882E+01 2.48202E-01 4.22410E-04 1.88483E-01-8.14561E-14 6.19081E-14
 -1      3634 1.98900E+01 2.28186E-01 7.13939E-04 1.38614E-01-4.55582E-14 7.89293E-14
 -1      3635 1.98592E+01 2.75494E-01-1.24098E-03 2.13911E-01-1.21485E-13 5.79216E-14
 -1      3636 1.98420E+01 3.04640E-01 5.03636E-04 2.44990E-01-1.31718E-13 7.60238E-14
 -1      3637 1.98414E+01 2.86767E-01 8.93426E-04 1.81965E-01-8.05237E-14 1.14270E-13
 -1      3638 1.98058E+01 3.32912E-01-1.46603E-03 2.76972E-01-8.28035E-14 2.66979E-14
 -1      3639 1.97847E+01 3.62246E-01 6.23470E-04 3.14904E-01-8.00874E-14 2.63449E-14
 -1      3640 1.97800E+01 3.49502E-01 1.07180E-03 2.36935E-01-1.30762E-13 9.35417E-14
 -1      3641 1.97406E+01 3.89185E-01-1.69072E-03 3.54546E-01-3.38483E-14 2.65033E-14
 -1      3642 1.97160E+01 4.15749E-01 8.07694E-04 3.99987E-01 2.96225E-14 1.41967E-13
 -1      3643 1.97038E+01 4.12863E-01 1.22576E-03 3.05576E-01-1.04429E-14 8.81482E-14
 -1      3644 1.96639E+01 4.37568E-01-1.89426E-03 4.48578E-01 5.29026E-15 8.68497E-14
 -1      3645 1.96371E+01 4.56695E-01 1.09981E-03 5.02103E-01-2.40902E-14 1.55581E-13
 -1      3646 1.96121E+01 4.70787E-01 1.31641E-03 3.90340E-01 2.11550E-14 1.99117E-13
 -1      3647 1.95780E+01 4.67620E-01-2.04471E-03 5.61202E-01-1.27446E-13 2.18922E-13
 -1      3648 1.95521E+01 4.72380E-01 1.56969E-03 6.23296E-01-1.31938E-13 2.56977E-13
 -1      3649 1.95057E+01 5.13751E-01 1.28178E-03 4.94259E-01-3.03070E-14 3.35394E-13
 -1      3650 1.94888E+01 4.64051E-01-2.09026E-03 6.94875E-01-1.69537E-13 2.41675E-13
 -1      3651 1.94695E+01 4.44627E-01 2.32272E-03 7.65922E-01-2.42112E-13 1.20977E-13
 -1      3652 1.93879E+01 5.27683E-01 1.02483E-03 6.21274E-01-1.97009E-13 3.91465E-13
 -1      3653 1.94075E+01 4.05457E-01-1.93812E-03 8.52557E-01-1.79137E-13 3.50358E-14
 -1      3654 1.94048E+01 3.48479E-01 3.50250E-03 9.32755E-01 3.61545E-14-2.78536E-14
 -1      3655 1.92663E+01 4.92686E-01 3.91388E-04 7.76725E-01-2.68542E-13 3.00410E-13
 -1      3656 1.93541E+01 2.63052E-01-1.40561E-03 1.03773E+00 2.37136E-13-5.35022E-14
 -1      3657 1.93842E+01 1.50994E-01 5.27392E-03 1.12668E+00 2.61042E-13 4.03402E-15
 -1      3658 1.91554E+01 3.81568E-01-8.72230E-04 9.67920E-01 8.25010E-14 1.21840E-13
 -1      3659 1.93622E+01-2.88462E-04-1.11820E-04 1.25366E+00 2.66695E-13 1.14839E-13
 -1      3660 1.94503E+01-1.89382E-01 7.78031E-03 1.34901E+00 2.51843E-13 2.67981E-13
 -1      3661 1.90804E+01 1.58209E-01-3.18502E-03 1.20439E+00 3.52699E-13 1.23762E-13
 -1      3662 1.94865E+01-4.29718E-01 2.79999E-03 1.50026E+00 3.66827E-14 2.48817E-13
 -1      3663 1.96692E+01-7.21924E-01 1.06121E-02 1.59433E+00-2.09902E-13 2.49643E-13
 -1      3664 1.90838E+01-2.24254E-01-7.22342E-03 1.49667E+00 1.74484E-13 3.08647E-13
 -1      3665 1.98140E+01-1.07576E+00 8.22970E-03 1.76480E+00-2.56614E-13 3.70422E-13
 -1      3666 2.01424E+01-1.49514E+00 1.31256E-02 1.83565E+00-1.82916E-13 4.09215E-13
 -1      3667 1.92366E+01-8.24386E-01-1.45324E-02 1.85016E+00-9.95041E-14 4.27074E-13
 -1      3668 2.04811E+01-1.98101E+00 2.01551E-02 2.00289E+00-1.71680E-13 3.79458E-13
 -1      3669 2.10098E+01-2.54562E+00 1.08242E-02 2.00029E+00-8.65070E-14 4.10818E-13
 -1      3670 1.96539E+01-1.71084E+00-2.80628E-02 2.25190E+00-1.60867E-13 5.87281E-13
 -1      3671 2.16792E+01-3.10033E+00 5.44327E-02 2.06740E+00 1.41647E-13 5.61490E-13
 -1      3672 2.23755E+01-3.81708E+00-3.94236E-03 1.94408E+00 1.09770E-13 6.74098E-13
 -1      3673 2.05466E+01-2.93219E+00-3.98437E-02 2.61669E+00 1.82184E-13 6.38314E-13
 -1      3674 2.03249E+01 5.56594E-01-2.53958E-03 9.93376E-02 1.72882E-13-1.42661E-13
 -1      3675 2.03343E+01 7.16374E-01 1.23712E-03 1.82846E-01 1.69719E-13-1.36476E-13
 -1      3676 2.02073E+01-2.56911E-02-1.84430E-04-1.35031E-01 9.29217E-14-7.68940E-14
 -1      3677 2.02266E+01 4.10876E-03 9.51119E-04-1.28389E-01 1.00675E-13-7.96881E-14
 -1      3678 2.00540E+01-6.31230E-02 3.48504E-04-7.06111E-02-3.04522E-14 1.55192E-13
 -1      3679 2.00590E+01-6.99372E-02-4.86138E-05-7.72463E-02-2.95100E-14 1.29350E-13
 -1      3680 2.00694E+01-7.57888E-02 3.57620E-04-8.39060E-02-6.42772E-14 1.26417E-13
 -1      3681 2.00760E+01-8.09600E-02 1.82625E-05-9.14934E-02-4.35033E-14 1.47219E-13
 -1      3682 2.00808E+01-7.92549E-02-3.44425E-04-7.35503E-02-5.24069E-14 1.33771E-13
 -1      3683 2.00318E+01-3.09752E-02 3.16985E-04-5.24174E-02 5.50153E-14 9.85784E-14
 -1      3684 2.00345E+01-3.98805E-02-1.47725E-04-5.58456E-02 3.12046E-14 1.05806E-13
 -1      3685 2.00234E+01-1.19914E-02 3.07105E-04-4.88023E-02 7.36013E-14 9.47365E-14
 -1      3686 2.00255E+01-2.19068E-02-1.95890E-04-5.01340E-02 9.95939E-14 9.35472E-14
 -1      3687 2.00356E+01-2.85968E-02-1.39759E-04-4.75402E-02 6.84658E-14-4.85836E-14
 -1      3688 2.00158E+01 9.31426E-03 3.04907E-04-4.96127E-02 6.01820E-14 1.09989E-13
 -1      3689 2.00176E+01-1.85178E-03-2.51013E-04-4.85378E-02 5.08320E-14 1.33875E-13
 -1      3690 2.00247E+01-7.07319E-03-6.49423E-05-4.53299E-02 6.30069E-14 3.24534E-14
 -1      3691 2.00080E+01 3.36602E-02 3.10611E-04-5.54849E-02 8.51367E-14 1.62186E-13
 -1      3692 2.00098E+01 2.08434E-02-3.20650E-04-5.16454E-02 5.92356E-14 1.50930E-13
 -1      3693 2.00140E+01 1.72193E-02 1.42090E-05-4.72678E-02 5.17370E-14 9.65778E-14
 -1      3694 1.99988E+01 6.20034E-02 3.23937E-04-6.71822E-02 5.24288E-14 2.11652E-13
 -1      3695 2.00010E+01 4.70228E-02-4.09502E-04-6.01516E-02 1.09398E-13 1.99172E-13
 -1      3696 2.00025E+01 4.51235E-02 1.05338E-04-5.39605E-02 4.23937E-14 1.32556E-13
 -1      3697 1.99868E+01 9.54838E-02 3.42645E-04-8.56140E-02 4.68375E-14 1.89975E-13
 -1      3698 1.99901E+01 7.77411E-02-5.23052E-04-7.48833E-02 7.64109E-14 2.16045E-13
 -1      3699 1.99886E+01 7.77122E-02 2.15018E-04-6.61140E-02 9.66698E-14 1.96720E-13
 -1      3700 1.99705E+01 1.35360E-01 3.62484E-04-1.11842E-01 1.66971E-14 1.46677E-13
 -1      3701 1.99754E+01 1.14206E-01-6.66665E-04-9.68194E-02 1.74035E-14 1.69849E-13
 -1      3702 1.99706E+01 1.16235E-01 3.51398E-04-8.45468E-02 3.29741E-14 1.68047E-13
 -1      3703 1.99476E+01 1.82922E-01 3.76792E-04-1.47053E-01 7.33812E-14 1.47745E-13
 -1      3704 1.99551E+01 1.57705E-01-8.45583E-04-1.27080E-01 7.28505E-14 1.59880E-13
 -1      3705 1.99463E+01 1.62036E-01 5.24651E-04-1.10179E-01 1.95031E-14 1.96569E-13
 -1      3706 1.99157E+01 2.39375E-01 3.76156E-04-1.92502E-01-2.81833E-14 6.46986E-14
 -1      3707 1.99268E+01 2.09504E-01-1.06497E-03-1.66887E-01 5.20461E-14 8.62537E-14
 -1      3708 1.99132E+01 2.16443E-01 7.47295E-04-1.43989E-01 1.15623E-13 1.37254E-13
 -1      3709 1.98712E+01 3.05656E-01 3.48467E-04-2.49411E-01-3.28417E-14-9.06427E-14
 -1      3710 1.98876E+01 2.70705E-01-1.32998E-03-2.17481E-01-2.76155E-14 2.58790E-14
 -1      3711 1.98680E+01 2.80622E-01 1.03460E-03-1.86932E-01-1.62268E-15-4.85119E-14
 -1      3712 1.98100E+01 3.82157E-01 2.80019E-04-3.18839E-01-9.59338E-14-3.73008E-14
 -1      3713 1.98335E+01 3.42016E-01-1.64616E-03-2.80016E-01-6.07248E-14-4.38775E-14
 -1      3714 1.98065E+01 3.55357E-01 1.40496E-03-2.39829E-01-3.04875E-14-4.30444E-14
 -1      3715 1.97267E+01 4.68302E-01 1.58791E-04-4.01527E-01-1.71699E-14-1.45550E-13
 -1      3716 1.97599E+01 4.23413E-01-2.02069E-03-3.55412E-01-6.07561E-14-3.13896E-14
 -1      3717 1.97239E+01 4.40727E-01 1.88018E-03-3.03218E-01-1.07644E-13-8.25227E-14
 -1      3718 1.96148E+01 5.61902E-01-1.80683E-05-4.97795E-01-1.54673E-13 8.38134E-14
 -1      3719 1.96607E+01 5.13607E-01-2.46539E-03-4.44224E-01-9.68694E-14 1.42340E-14
 -1      3720 1.96138E+01 5.35637E-01 2.48550E-03-3.77227E-01-1.26391E-13 9.31236E-14
 -1      3721 1.94665E+01 6.58174E-01-2.29346E-04-6.07576E-01-7.40622E-14 7.03569E-14
 -1      3722 1.95286E+01 6.09246E-01-3.00325E-03-5.46604E-01-6.81841E-14 1.23461E-13
 -1      3723 1.94687E+01 6.37145E-01 3.24951E-03-4.61526E-01-1.55103E-13 1.51899E-13
 -1      3724 1.92731E+01 7.48304E-01-4.02573E-04-7.30852E-01-1.41856E-13 8.67395E-14
 -1      3725 1.93551E+01 7.03711E-01-3.68094E-03-6.62520E-01-9.63852E-14 8.76058E-14
 -1      3726 1.92792E+01 7.39508E-01 4.20425E-03-5.55522E-01-1.17376E-13 1.32208E-13
 -1      3727 1.90254E+01 8.17320E-01-3.70340E-04-8.68856E-01-1.03857E-13 1.96628E-13
 -1      3728 1.91301E+01 7.85345E-01-4.59004E-03-7.92547E-01-1.89369E-13 1.50391E-13
 -1      3729 1.90345E+01 8.32864E-01 5.38605E-03-6.59115E-01-1.67830E-13 2.84856E-13
 -1      3730 1.87152E+01 8.41040E-01 1.82777E-04-1.02667E+00 1.98688E-14 8.81559E-14
 -1      3731 1.88434E+01 8.34879E-01-5.89777E-03-9.39745E-01 1.04894E-14 1.73362E-13
 -1      3732 1.87214E+01 9.01417E-01 6.83420E-03-7.74502E-01-5.50418E-14 3.02848E-13
 -1      3733 1.83387E+01 7.81984E-01 1.88307E-03-1.21782E+00-2.08546E-14 9.56079E-14
 -1      3734 1.84853E+01 8.21776E-01-7.88993E-03-1.11326E+00-2.90067E-15 9.54661E-14
 -1      3735 1.83251E+01 9.20867E-01 8.57679E-03-9.09743E-01 5.69233E-15 2.44454E-13
 -1      3736 1.78989E+01 5.83025E-01 5.13010E-03-1.47213E+00-1.96032E-13 5.82829E-14
 -1      3737 1.80502E+01 6.98888E-01-1.10588E-02-1.33492E+00-7.16062E-14-1.67510E-14
 -1      3738 1.78277E+01 8.55661E-01 1.07375E-02-1.08529E+00-1.28328E-14 1.59928E-13
 -1      3739 1.74285E+01 1.58763E-01 1.44652E-02-1.84067E+00-5.55955E-14 1.93086E-14
 -1      3740 1.75439E+01 3.96502E-01-1.47120E-02-1.64612E+00-1.58249E-13 4.13910E-14
 -1      3741 1.72205E+01 6.52734E-01 1.69798E-02-1.34927E+00-1.26927E-13 1.27218E-14
 -1      3742 1.69445E+01-6.32398E-01 2.45972E-02-2.45153E+00 2.31100E-14-2.40406E-13
 -1      3743 1.69768E+01-1.80172E-01-1.81255E-02-2.14070E+00 4.39411E-14-1.44382E-14
 -1      3744 1.64278E+01 2.39631E-01 1.86833E-02-1.76919E+00 7.04835E-14-7.03669E-14
 -1      3745 2.03045E+01 8.72486E-01 1.13289E-03 2.98225E-01 1.82919E-13-7.14255E-14
 -1      3746 2.02780E+01 1.42078E+00 4.74957E-03 2.30697E-03 6.46056E-14-2.95135E-13
 -1      3747 2.01974E+01 1.66064E+00-2.40207E-03-3.45019E-02 6.71581E-14-3.00921E-13
 -1      3748 2.02000E+01 1.64169E+00-3.33954E-03-1.24985E-01 2.04534E-14-2.70086E-13
 -1      3749 2.02816E+01 1.49095E-01-1.15222E-03-8.16836E-02 9.19998E-14-9.26944E-14
 -1      3750 2.03040E+01 2.24263E-01 1.74497E-03-4.78161E-02 1.27601E-13-7.51867E-14
 -1      3751 2.02083E+01 1.61731E+00-1.55223E-03-1.79206E-01 1.04776E-14-2.59145E-13
 -1      3752 2.02189E+01 1.56174E+00-3.35247E-03-2.62529E-01-3.23679E-14-2.79434E-13
 -1      3753 2.02900E+01 1.32048E+00 3.71598E-03-2.03926E-01-4.14115E-14-2.43253E-13
 -1      3754 2.02828E+01 1.39288E+00 4.84309E-03-1.12900E-01 3.87532E-15-2.43632E-13
 -1      3755 2.00417E+01-4.80157E-02 3.32014E-04-5.98853E-02 1.99029E-14 6.22862E-14
 -1      3756 2.00454E+01-5.59660E-02-1.01168E-04-6.50934E-02-1.59716E-14 1.27253E-13
 -1      3757 2.00628E+01-6.48608E-02-2.76470E-04-6.22451E-02-6.37088E-15 8.32453E-14
 -1      3758 2.00480E+01-4.78319E-02-2.09825E-04-5.33674E-02 3.13370E-14 4.54742E-14
 -1      3759 2.03112E+01 3.13350E-01-1.96781E-03-1.17681E-02 1.25270E-13-9.90864E-14
 -1      3760 2.03317E+01 4.24334E-01 2.06225E-03 4.39914E-02 1.35644E-13-9.34576E-14
 -1      3761 2.03556E+01 5.48587E-01 1.03365E-04 7.59233E-02 1.31035E-13-1.52637E-13
 -1      3762 2.03441E+01 3.07913E-01 1.71122E-04-1.70778E-02 1.10161E-13-1.13830E-13
 -1      3763 2.03255E+01 9.81975E-01-2.17243E-03-2.40642E-01-6.82390E-14-2.68484E-13
 -1      3764 2.03422E+01 8.06005E-01 3.33212E-04-1.70751E-01-6.24432E-14-2.43857E-13
 -1      3765 2.03260E+01 1.06559E+00 3.64637E-04-2.02406E-01-4.55481E-14-2.39614E-13
 -1      3766 2.03543E+01 4.15681E-01 6.13329E-04-2.91099E-02-5.65959E-14-1.58720E-13
 -1      3767 2.03396E+01 3.06389E-01-1.44916E-03 1.91726E-02-7.23172E-14-1.52029E-13
 -1      3768 2.03666E+01 2.93669E-01 7.26421E-05 2.22585E-02-5.85476E-14-8.71220E-14
 -1      3769 2.03543E+01 6.65939E-01-5.44097E-04-1.28807E-01-4.55726E-14-2.24970E-13
 -1      3770 2.03525E+01 5.16574E-01-1.05493E-03-5.97040E-02-5.51539E-14-1.99140E-13
 -1      3771 2.03778E+01 4.99141E-01 5.42034E-04-4.15306E-02-2.56020E-14-1.54729E-13
 -1      3772 2.03674E+01 7.37855E-01 6.67160E-04-1.14782E-01-2.08218E-14-1.88313E-13
 -1      3773 2.02451E+01 4.13856E-02-5.82869E-04-1.19552E-01 9.21968E-14-9.41073E-14
 -1      3774 2.02666E+01 9.00377E-02 1.30908E-03-1.01765E-01 6.60687E-14-8.40989E-14
 -1      3775 2.02761E+01 3.30608E-02-4.39879E-04-1.06919E-01 8.09033E-14-7.73860E-14
 -1      3776 1.28889E+01 1.29151E-01 3.12627E-02 7.19004E-01 3.70930E-13-1.57353E-13
 -1      3777 1.29207E+01 1.05073E-01 3.20690E-02-5.48375E-01 2.80518E-13-1.52330E-13
 -1      3778 1.58863E+01-1.68089E+00 5.07594E-02-3.36241E+00-1.30701E-13-4.63664E-13
 -1      3779 1.74302E+01-1.81169E+00 3.70353E-02-3.14255E+00-9.83189E-14-2.08143E-13
 -1      3780 1.70463E+01-1.17022E+00-8.51410E-05-2.82742E+00-6.32003E-14-2.53067E-13
 -1      3781 1.51630E+01-8.78686E-01-1.68934E-03-2.67639E+00 2.27630E-14-4.35332E-13
 -1      3782 2.03217E+01 8.31292E-01-7.57458E-04 2.22627E-01 1.66502E-13-1.49145E-13
 -1      3783 2.03155E+01 9.67891E-01-1.45602E-03 2.88579E-01 1.63028E-13-1.57708E-13
 -1      3784 2.03160E+01 1.06838E+00 5.37867E-04 2.59391E-01 1.76881E-13-2.10761E-13
 -1      3785 2.03449E+01 8.15224E-01 8.35550E-04 1.76032E-01 1.62944E-13-2.11439E-13
 -1      3786 2.29524E+01-4.71540E+00 1.76779E-03 2.58573E+00-3.09319E-14 1.03076E-12
 -1      3787 1.41227E+01 3.08329E-01 2.23574E-02-6.09260E-01 2.88069E-13 8.11330E-14
 -1      3788 1.34867E+01 7.70453E-02 5.01286E-02-1.16465E+00 1.47614E-13 2.59515E-15
 -1      3789 1.42892E+01-1.84530E-01-5.37885E-03-1.78428E+00 1.31320E-13-1.60507E-13
 -1      3790 2.01028E+01-8.98609E-02-4.12628E-04-8.64358E-02-3.46550E-14 1.61851E-13
 -1      3791 2.00884E+01-8.48336E-02 3.50588E-04-9.88103E-02-4.36790E-14 1.45830E-13
 -1      3792 2.00971E+01-8.74536E-02 1.09241E-04-1.06664E-01 1.56158E-15 1.33846E-13
 -1      3793 1.60619E+01-5.48708E-01 3.81397E-03-2.43793E+00-1.25368E-14-2.68908E-13
 -1      3794 2.03176E+01 1.19611E+00-2.17662E-03 3.18140E-02 7.50977E-14-2.72996E-13
 -1      3795 2.03171E+01 1.19635E+00-2.21629E-03-2.83273E-02 2.93168E-14-2.49625E-13
 -1      3796 2.03144E+01 1.41765E-01-2.30966E-04-7.54154E-02 8.54965E-14-1.19589E-13
 -1      3797 2.01117E+01-8.82389E-02 3.12897E-04-1.13922E-01 3.27846E-14 9.35945E-14
 -1      3798 2.01227E+01-8.68859E-02 2.33354E-04-1.21037E-01 2.56406E-14 4.58306E-14
 -1      3799 2.01293E+01-9.46399E-02-4.76430E-04-9.96690E-02-1.41918E-14 6.38795E-14
 -1      3800 1.36212E+01-1.75388E-01 1.45738E-02 1.87657E+00 2.29198E-13-7.58456E-14
 -1      3801 1.31624E+01 8.32708E-02 5.89780E-02 1.26454E+00 3.29080E-13-5.72355E-14
 -1      3802 1.38005E+01 3.12455E-01 2.43271E-02 5.99348E-01 2.67278E-13-1.70225E-13
 -1      3803 2.01715E+01-6.41661E-02 7.16752E-05-1.35664E-01 5.78953E-14-2.97769E-14
 -1      3804 2.01880E+01-4.75943E-02 6.45489E-04-1.36253E-01 9.21117E-14-6.99584E-14
 -1      3805 2.02354E+01-3.43434E-02-5.32887E-04-1.19403E-01 8.38656E-14-7.84858E-14
 -1      3806 1.62073E+01-2.30627E+00 5.24775E-03 4.10006E+00 2.63462E-13 1.39808E-13
 -1      3807 1.48166E+01-1.73854E+00 9.45929E-02 4.03967E+00 3.72567E-13 1.95365E-14
 -1      3808 1.43915E+01-1.04779E+00-1.66518E-03 3.19284E+00 2.90488E-13-1.53370E-13
 -1      3809 2.01395E+01-8.28942E-02 2.27560E-04-1.27206E-01 1.46268E-14 4.12885E-14
 -1      3810 2.01531E+01-7.54251E-02 4.09632E-04-1.32123E-01 2.76010E-14 1.31900E-14
 -1      3811 2.01962E+01-7.25508E-02-5.65815E-04-1.19288E-01 1.54933E-14 1.01292E-15
 -1      3812 2.01605E+01-9.04487E-02-5.33699E-04-1.11471E-01 1.43844E-14-2.83186E-14
 -1      3813 2.02942E+01 1.28401E+00 3.97225E-03 2.49219E-01 1.79752E-13-1.91920E-13
 -1      3814 2.03197E+01 1.14838E+00-2.56094E-03 1.33782E-01 1.49400E-13-1.88126E-13
 -1      3815 2.03180E+01 1.18199E+00-1.83349E-03 7.79954E-02 1.03549E-13-2.62441E-13
 -1      3816 2.03710E+01 9.96272E-01 4.37125E-03 4.07797E-02 7.73065E-14-2.20885E-13
 -1      3817 2.00910E+01-7.99946E-02 3.43344E-04-6.06916E-02-2.38551E-14 9.59560E-14
 -1      3818 2.01009E+01-8.67451E-02 7.58530E-05-6.62108E-02-1.53813E-14 1.60129E-13
 -1      3819 2.03739E+01 1.75335E-01 6.54942E-04 4.56022E-02-9.12484E-14-1.03014E-13
 -1      3820 2.03547E+01 1.05560E-01-6.81455E-04 6.38766E-02-1.06872E-13-8.90220E-14
 -1      3821 2.03373E+01 5.00882E-02 6.32372E-04 7.15128E-02-1.01434E-13-3.60869E-14
 -1      3822 2.03154E+01 5.38263E-03-2.87497E-04 8.06254E-02-8.78243E-14-3.20525E-14
 -1      3823 2.03674E+01 8.92458E-02-1.54784E-04 5.08804E-02-8.60488E-14-5.38004E-14
 -1      3824 2.02940E+01-2.88948E-02 5.25615E-04 8.29855E-02-6.53906E-14-4.99384E-14
 -1      3825 2.02720E+01-5.54111E-02-1.15007E-05 8.57824E-02-6.19381E-14-3.23659E-14
 -1      3826 2.03258E+01-7.04376E-03-3.87443E-04 6.27676E-02-8.39408E-14 1.91441E-15
 -1      3827 2.02496E+01-7.45280E-02 4.18827E-04 8.46192E-02-3.55161E-14-2.40404E-14
 -1      3828 2.02289E+01-8.81257E-02 1.69653E-04 8.33850E-02 7.55956E-15-1.17841E-15
 -1      3829 2.02804E+01-6.47415E-02-5.10875E-04 6.61117E-02-3.94185E-14 4.46603E-15
 -1      3830 2.02074E+01-9.67941E-02 3.19970E-04 8.02404E-02 2.03179E-15 3.05846E-14
 -1      3831 2.01890E+01-1.01621E-01 2.66294E-04 7.66272E-02-2.79946E-14 9.34867E-14
 -1      3832 2.02356E+01-9.49589E-02-5.54449E-04 6.38651E-02-9.88174E-16 3.83492E-14
 -1      3833 2.01693E+01-1.03177E-01 2.29765E-04 7.24418E-02-5.12943E-14 1.10329E-13
 -1      3834 2.01534E+01-1.02111E-01 3.16940E-04 6.77212E-02-6.67404E-14 1.49673E-13
 -1      3835 2.01943E+01-1.06423E-01-5.60670E-04 5.85062E-02-1.55045E-14 1.07181E-13
 -1      3836 2.01360E+01-9.89722E-02 1.55154E-04 6.32730E-02-1.01224E-13 1.45895E-13
 -1      3837 2.01227E+01-9.40482E-02 3.28173E-04 5.83321E-02-6.86839E-14 1.31737E-13
 -1      3838 2.01574E+01-1.05106E-01-5.21732E-04 5.15834E-02-6.35238E-14 1.49566E-13
 -1      3839 2.01077E+01-8.78657E-02 9.18647E-05 5.41401E-02-5.79281E-14 1.09726E-13
 -1      3840 2.00966E+01-8.04390E-02 3.17238E-04 4.95871E-02-6.41181E-15 1.06215E-13
 -1      3841 2.01256E+01-9.53842E-02-4.52549E-04 4.44330E-02-7.93013E-14 8.45744E-14
 -1      3842 2.00838E+01-7.22553E-02 3.28574E-05 4.59972E-02-1.29575E-14 4.88707E-14
 -1      3843 2.00747E+01-6.31476E-02 2.89860E-04 4.22606E-02-7.11520E-14 5.85897E-14
 -1      3844 2.00985E+01-8.01805E-02-3.67826E-04 3.78712E-02-3.30480E-14 7.02449E-14
 -1      3845 2.00637E+01-5.35232E-02-2.41720E-05 3.94892E-02-4.27897E-14 3.37190E-14
 -1      3846 2.00560E+01-4.30747E-02 2.60275E-04 3.68836E-02-2.59968E-14 7.65050E-14
 -1      3847 2.00756E+01-6.12668E-02-2.82312E-04 3.25036E-02-5.94664E-14 2.58256E-14
 -1      3848 2.00463E+01-3.22365E-02-8.40014E-05 3.51688E-02 2.70633E-14 1.50229E-13
 -1      3849 2.00396E+01-2.05630E-02 2.26933E-04 3.39420E-02 9.15610E-14 2.17191E-13
 -1      3850 2.00558E+01-3.94340E-02-1.90056E-04 2.87117E-02 5.53048E-14 1.28962E-13
 -1      3851 2.00305E+01-8.44742E-03-1.51899E-04 3.34066E-02 8.94111E-14 2.15758E-13
 -1      3852 2.00241E+01 4.64980E-03 1.97437E-04 3.38046E-02 5.13788E-14 2.97099E-13
 -1      3853 2.00380E+01-1.49329E-02-9.15123E-05 2.69286E-02 9.65938E-14 1.78002E-13
 -1      3854 2.00148E+01 1.83119E-02-2.30484E-04 3.46569E-02-1.22729E-14 2.99192E-13
 -1      3855 2.00082E+01 3.31777E-02 1.69551E-04 3.69477E-02-2.08012E-14 2.82810E-13
 -1      3856 2.00206E+01 1.26354E-02 1.34105E-05 2.74237E-02 2.21938E-14 1.66143E-13
 -1      3857 1.99978E+01 4.87778E-02-3.24353E-04 3.94180E-02-2.34872E-14 3.70933E-13
 -1      3858 1.99902E+01 6.58620E-02 1.44601E-04 4.39111E-02 2.01388E-14 3.05096E-13
 -1      3859 2.00023E+01 4.39785E-02 1.32815E-04 3.06461E-02-1.93547E-15 3.15309E-13
 -1      3860 1.99778E+01 8.38699E-02-4.39223E-04 4.82841E-02 4.66632E-15 2.38311E-13
 -1      3861 1.99683E+01 1.03671E-01 1.23399E-04 5.53543E-02-9.34016E-15 2.19813E-13
 -1      3862 1.99810E+01 8.00188E-02 2.68571E-04 3.70636E-02-3.08340E-14 2.25054E-13
 -1      3863 1.99528E+01 1.24561E-01-5.79102E-04 6.19998E-02-3.28694E-14 2.23376E-13
 -1      3864 1.99406E+01 1.47542E-01 1.06925E-04 7.21028E-02-4.11933E-14 2.05052E-13
 -1      3865 1.99548E+01 1.21796E-01 4.25187E-04 4.72799E-02-4.57606E-14 1.70557E-13
 -1      3866 1.99206E+01 1.71703E-01-7.48077E-04 8.14936E-02 2.94248E-15 2.07130E-13
 -1      3867 1.99046E+01 1.98191E-01 9.73277E-05 9.51771E-02-2.46295E-14 1.89857E-13
 -1      3868 1.99214E+01 1.70284E-01 6.06889E-04 6.20698E-02-3.05249E-14 1.65921E-13
 -1      3869 1.98787E+01 2.25803E-01-9.49871E-04 1.07913E-01-9.53349E-14 1.70908E-13
 -1      3870 1.98580E+01 2.55850E-01 9.90841E-05 1.25828E-01-4.24613E-14 1.79375E-13
 -1      3871 1.98780E+01 2.26185E-01 8.16534E-04 8.24226E-02-5.14705E-14 1.63122E-13
 -1      3872 1.98248E+01 2.86733E-01-1.18765E-03 1.42669E-01 1.68812E-14 1.25116E-13
 -1      3873 1.97982E+01 3.19933E-01 1.20650E-04 1.65580E-01-4.61535E-14 1.54932E-13
 -1      3874 1.98218E+01 2.89650E-01 1.05457E-03 1.09603E-01-1.85291E-14 2.15922E-13
 -1      3875 1.97559E+01 3.53325E-01-1.46407E-03 1.87489E-01-1.20509E-13 1.91463E-13
 -1      3876 1.97227E+01 3.88573E-01 1.76897E-04 2.16302E-01-9.93366E-14 2.73302E-13
 -1      3877 1.97498E+01 3.59918E-01 1.31771E-03 1.45233E-01-5.88421E-14 2.09239E-13
 -1      3878 1.96698E+01 4.22852E-01-1.78171E-03 2.44517E-01-7.64174E-14 2.57719E-13
 -1      3879 1.96292E+01 4.58037E-01 2.92755E-04 2.80320E-01 2.30740E-14 2.43297E-13
 -1      3880 1.96589E+01 4.34838E-01 1.59732E-03 1.91423E-01-7.19260E-14 3.46989E-13
 -1      3881 1.95644E+01 4.90371E-01-2.14418E-03 3.16461E-01 4.68989E-14 2.38841E-13
 -1      3882 1.95165E+01 5.21995E-01 5.08636E-04 3.60606E-01 4.18014E-14 2.75988E-13
 -1      3883 1.95461E+01 5.10274E-01 1.87757E-03 2.50963E-01 1.43441E-15 3.75795E-13
 -1      3884 1.94386E+01 5.47912E-01-2.55775E-03 4.06850E-01 5.00592E-14 2.88455E-13
 -1      3885 1.93847E+01 5.70641E-01 8.88581E-04 4.61103E-01-4.49083E-14 3.74171E-13
 -1      3886 1.94092E+01 5.79382E-01 2.13319E-03 3.27638E-01 7.87456E-14 2.92660E-13
 -1      3887 1.92934E+01 5.83529E-01-3.03318E-03 5.20454E-01-2.28889E-13 3.76631E-13
 -1      3888 1.92363E+01 5.89684E-01 1.53264E-03 5.87230E-01-2.87824E-13 3.02191E-13
 -1      3889 1.92468E+01 6.31772E-01 2.32602E-03 4.26709E-01-1.16988E-13 3.24636E-13
 -1      3890 1.91323E+01 5.80217E-01-3.58456E-03 6.63948E-01-3.13843E-13 2.76286E-13
 -1      3891 1.90779E+01 5.59194E-01 2.59571E-03 7.46656E-01-2.21955E-13 3.34619E-13
 -1      3892 1.90596E+01 6.52566E-01 2.39746E-03 5.55678E-01-2.49134E-13 2.74090E-13
 -1      3893 1.89637E+01 5.14682E-01-4.21521E-03 8.46891E-01-4.31463E-14 3.02228E-13
 -1      3894 1.89224E+01 4.52244E-01 4.30655E-03 9.50319E-01 1.41309E-13 2.49955E-13
 -1      3895 1.88508E+01 6.21302E-01 2.24630E-03 7.25456E-01-1.26803E-13 2.81427E-13
 -1      3896 1.88033E+01 3.55842E-01-4.85710E-03 1.08292E+00 2.14868E-13 2.50404E-13
 -1      3897 1.87926E+01 2.33203E-01 7.00534E-03 1.21341E+00 2.90238E-13 2.67464E-13
 -1      3898 1.86281E+01 5.10433E-01 1.66319E-03 9.52091E-01 1.50383E-13 3.79017E-13
 -1      3899 1.86795E+01 6.30451E-02-5.12430E-03 1.39069E+00 2.77164E-13 1.20704E-13
 -1      3900 1.87289E+01-1.44178E-01 1.14597E-02 1.55520E+00 2.08672E-13 2.14254E-13
 -1      3901 1.84064E+01 2.82988E-01 2.14056E-04 1.25870E+00 2.66670E-13 1.02198E-13
 -1      3902 1.86448E+01-4.16755E-01-3.37726E-03 1.79403E+00 6.81136E-14 2.88194E-13
 -1      3903 1.87993E+01-7.46249E-01 1.59640E-02 1.99759E+00-6.73552E-14 4.27839E-13
 -1      3904 1.82139E+01-1.12531E-01-2.85958E-03 1.67860E+00 1.98976E-13 2.08862E-13
 -1      3905 1.87948E+01-1.14230E+00 4.38618E-03 2.30400E+00-7.06761E-14 4.70751E-13
 -1      3906 1.91252E+01-1.63751E+00 2.41328E-02 2.55014E+00-1.46780E-14 6.50378E-13
 -1      3907 1.81120E+01-7.53455E-01-1.02539E-02 2.25020E+00 1.03315E-14 4.17023E-13
 -1      3908 2.03226E+01 1.10304E+00-2.68815E-03-1.76689E-01-3.73757E-14-2.17041E-13
 -1      3909 2.03589E+01 9.19947E-01 1.95658E-03-1.31405E-01-3.04194E-14-1.81744E-13
 -1      3910 2.03212E+01 1.14951E+00-8.03916E-04-1.37466E-01-1.90149E-14-2.17927E-13
 -1      3911 2.00258E+01-1.04726E-03 2.39896E-04-3.95875E-02 3.53400E-14 7.02424E-14
 -1      3912 2.00308E+01-1.32634E-02-1.63339E-04-3.95704E-02 1.84900E-14 1.68065E-14
 -1      3913 2.00391E+01-2.45203E-02 2.62236E-04-4.04963E-02 5.68035E-14 1.61039E-15
 -1      3914 2.00447E+01-3.54213E-02-1.04602E-04-4.22941E-02 6.23953E-14 4.54326E-14
 -1      3915 2.00389E+01-1.97246E-02-1.04536E-04-3.41638E-02 3.87505E-14 5.13793E-14
 -1      3916 1.99973E+01 5.62483E-02 1.90906E-04-4.93907E-02 7.11434E-14 1.11885E-13
 -1      3917 2.00032E+01 4.01587E-02-3.25002E-04-4.48760E-02 4.30121E-14 8.53713E-14
 -1      3918 1.99790E+01 9.21457E-02 1.64184E-04-6.12492E-02 3.41422E-14 1.28626E-13
 -1      3919 1.99864E+01 7.32655E-02-4.32425E-04-5.39792E-02 7.82186E-14 1.21367E-13
 -1      3920 1.99887E+01 6.99783E-02 2.28266E-04-4.41380E-02 4.56191E-14 1.37611E-14
 -1      3921 1.99553E+01 1.34564E-01 1.30241E-04-7.86288E-02 5.78749E-14 5.51164E-14
 -1      3922 1.99652E+01 1.12224E-01-5.64036E-04-6.82079E-02 5.70761E-14 1.29610E-13
 -1      3923 1.99658E+01 1.10056E-01 3.84739E-04-5.50560E-02 9.54722E-14 5.66232E-14
 -1      3924 1.99236E+01 1.84856E-01 8.16875E-05-1.02260E-01 4.46136E-14 7.51238E-14
 -1      3925 1.99372E+01 1.58376E-01-7.23860E-04-8.82664E-02 1.71283E-14 3.82856E-14
 -1      3926 1.99361E+01 1.57366E-01 5.77043E-04-7.05993E-02 7.87966E-14 1.74914E-14
 -1      3927 1.98808E+01 2.44290E-01 8.31216E-06-1.32860E-01 6.41694E-14 1.10590E-13
 -1      3928 1.98997E+01 2.13053E-01-9.15489E-04-1.14880E-01 6.68626E-14 1.51664E-13
 -1      3929 1.98966E+01 2.13263E-01 8.16330E-04-9.12670E-02-4.67382E-15-5.24158E-15
 -1      3930 1.98232E+01 3.13877E-01-1.03235E-04-1.71032E-01 2.72202E-14 9.81025E-14
 -1      3931 1.98492E+01 2.77426E-01-1.14207E-03-1.48715E-01 6.97735E-14 1.34140E-13
 -1      3932 1.98440E+01 2.78942E-01 1.11586E-03-1.17464E-01 4.24074E-14 2.61887E-13
 -1      3933 1.97461E+01 3.94113E-01-2.69342E-04-2.17134E-01-8.40075E-14 1.83301E-13
 -1      3934 1.97814E+01 3.52287E-01-1.40677E-03-1.90263E-01-6.42009E-14 1.19794E-13
 -1      3935 1.97739E+01 3.55226E-01 1.49151E-03-1.49382E-01-4.23982E-14 1.69695E-13
 -1      3936 1.96437E+01 4.84626E-01-5.08410E-04-2.71117E-01-1.42429E-13 2.23837E-13
 -1      3937 1.96913E+01 4.37755E-01-1.71425E-03-2.39691E-01-7.28918E-14 1.58597E-13
 -1      3938 1.96812E+01 4.42279E-01 1.96273E-03-1.86849E-01-8.51147E-14 3.66535E-13
 -1      3939 1.95091E+01 5.83691E-01-8.38140E-04-3.32383E-01-1.17759E-13 2.53511E-13
 -1      3940 1.95726E+01 5.32854E-01-2.07435E-03-2.96685E-01-1.63541E-13 2.13713E-13
 -1      3941 1.95598E+01 5.39219E-01 2.55423E-03-2.29156E-01-1.65831E-13 3.64347E-13
 -1      3942 1.93338E+01 6.87573E-01-1.27010E-03-3.99743E-01-1.85242E-13 2.25717E-13
 -1      3943 1.94174E+01 6.34941E-01-2.51002E-03-3.60334E-01-1.33361E-13 2.39495E-13
 -1      3944 1.94022E+01 6.43629E-01 3.29950E-03-2.74908E-01-1.40305E-13 2.49561E-13
 -1      3945 1.91073E+01 7.89673E-01-1.80001E-03-4.71640E-01-1.47852E-13 1.86907E-13
 -1      3946 1.92163E+01 7.38950E-01-3.07296E-03-4.29191E-01-1.65907E-13 1.17811E-13
 -1      3947 1.91990E+01 7.50953E-01 4.24798E-03-3.21989E-01-1.61350E-13 1.25535E-13
 -1      3948 1.88169E+01 8.79464E-01-2.38970E-03-5.46953E-01-1.76651E-13 1.73764E-13
 -1      3949 1.89573E+01 8.36409E-01-3.87246E-03-5.01709E-01-1.76640E-13 2.26365E-13
 -1      3950 1.89389E+01 8.53819E-01 5.48057E-03-3.67809E-01-1.77437E-13 8.19958E-14
 -1      3951 1.84465E+01 9.41202E-01-2.92600E-03-6.26870E-01-1.15520E-14 1.86558E-13
 -1      3952 1.86252E+01 9.14255E-01-5.12221E-03-5.77476E-01-5.65352E-14 1.68486E-13
 -1      3953 1.86068E+01 9.41372E-01 7.14367E-03-4.10132E-01-6.38882E-14-7.96005E-15
 -1      3954 1.79747E+01 9.51987E-01-3.30510E-03-7.18728E-01-2.22874E-14 1.31332E-13
 -1      3955 1.81995E+01 9.53321E-01-7.20026E-03-6.59947E-01 1.48622E-14 1.66668E-13
 -1      3956 1.81818E+01 9.98702E-01 9.50528E-03-4.49053E-01-1.72172E-14 1.52452E-14
 -1      3957 1.73712E+01 8.78541E-01-3.90865E-03-8.42618E-01-1.50520E-14 1.52111E-13
 -1      3958 1.76520E+01 9.26028E-01-1.07423E-02-7.60575E-01-2.18886E-14 1.76260E-13
 -1      3959 1.76340E+01 1.00511E+00 1.29504E-02-4.90833E-01 1.53198E-15 6.82574E-14
 -1      3960 1.65625E+01 6.72127E-01-1.19620E-02-1.05357E+00-6.24004E-14 9.66451E-14
 -1      3961 1.69326E+01 7.99821E-01-1.73644E-02-9.03471E-01-1.70087E-14 2.05714E-13
 -1      3962 1.69166E+01 9.34486E-01 1.82354E-02-5.45721E-01-3.99686E-14 3.03650E-13
 -1      3963 2.03369E+01 1.20072E-01-8.57658E-04-7.23385E-02 6.22406E-14-1.29139E-13
 -1      3964 2.03569E+01 1.91966E-01 1.03315E-03-4.96581E-02 9.69224E-14-1.16209E-13
 -1      3965 2.00123E+01 2.55689E-02 2.15331E-04-4.23714E-02 2.86843E-14 8.48771E-14
 -1      3966 2.00174E+01 1.16634E-02-2.37503E-04-4.02592E-02 9.20805E-14 1.07466E-13
 -1      3967 2.00234E+01 6.20298E-03-1.22354E-05-3.41521E-02 1.98418E-15 1.08836E-13
 -1      3968 2.03894E+01-4.52292E+00 9.83459E-02 4.34555E+00 2.84935E-13 5.68164E-13
 -1      3969 1.91803E+01-3.77316E+00 2.07485E-02 4.23710E+00 2.93748E-13 4.87478E-13
 -1      3970 2.03194E+01 1.08389E+00-2.20234E-03 2.20870E-01 1.80214E-13-1.91609E-13
 -1      3971 2.03171E+01 1.14934E+00-9.76385E-04 1.73980E-01 1.70089E-13-1.72773E-13
 -1      3972 2.03630E+01 9.77623E-01 3.54321E-03 1.14571E-01 1.42664E-13-1.64150E-13
 -1      3973 2.03444E+01 9.55304E-01 1.73802E-03 1.82598E-01 1.71801E-13-1.97154E-13
 -1      3974 2.17550E+01-4.74220E+00 3.80779E-03 3.48806E+00 5.33601E-14 1.12422E-12
 -1      3975 2.03947E+01 3.64703E-01 5.59859E-04 3.63876E-04-3.55180E-14-1.02361E-13
 -1      3976 2.03833E+01 2.61018E-01-8.48682E-04 3.06890E-02-6.18154E-14-8.88862E-14
 -1      3977 2.03986E+01 2.38153E-01 1.46345E-04 2.71252E-02-8.31099E-14-1.40993E-13
 -1      3978 1.52133E+01-3.36449E-01 4.28617E-02-2.18542E+00 1.36896E-13-3.33845E-13
 -1      3979 2.02988E+01 1.67766E-02-3.94523E-04-9.49288E-02 7.04531E-14-9.71975E-14
 -1      3980 2.03206E+01 6.31177E-02 8.54758E-04-8.34359E-02 5.47445E-14-1.17742E-13
 -1      3981 2.03557E+01 1.06053E-01-1.58500E-04-6.15281E-02 4.27476E-14-8.50961E-14
 -1      3982 1.51696E+01 6.79670E-02-1.70775E-02-1.62334E+00 1.76878E-13-1.76126E-13
 -1      3983 2.03753E+01 7.68416E-01-1.06449E-03-1.03280E-01-2.13408E-14-1.70130E-13
 -1      3984 2.03893E+01 6.41797E-01 1.62513E-03-6.30473E-02-1.11420E-14-1.34716E-13
 -1      3985 2.03785E+01 8.08594E-01-7.91556E-04-8.47356E-02-7.32842E-15-1.51709E-13
 -1      3986 2.03649E+01 2.78558E-01-1.40698E-03-2.88835E-02 1.15895E-13-1.45332E-13
 -1      3987 2.03813E+01 3.85548E-01 2.11311E-03 9.57188E-03 9.28088E-14-1.40044E-13
 -1      3988 2.03853E+01 2.61053E-01 8.62050E-05-2.81468E-02 8.91596E-14-1.25393E-13
 -1      3989 1.92875E+01-2.22543E+00 1.78744E-02 2.91461E+00 7.16177E-14 6.31041E-13
 -1      3990 1.98206E+01-3.00774E+00-7.72195E-03 3.15835E+00 2.73698E-13 6.81111E-13
 -1      3991 1.95863E+01-3.24591E+00-6.66939E-03 3.54890E+00 3.23403E-13 6.86550E-13
 -1      3992 1.79579E+01-2.67294E+00 7.97647E-02 4.06540E+00 2.83057E-13 4.22154E-13
 -1      3993 1.44261E+01 5.28952E-01 2.69593E-02-8.15081E-02 2.35470E-13 5.41425E-14
 -1      3994 1.47734E+01 5.09122E-01 2.17037E-02-6.84589E-01 2.45325E-13 7.25774E-14
 -1      3995 2.01154E+01-9.22190E-02 3.48289E-04-7.14030E-02-6.26613E-14 1.33123E-13
 -1      3996 2.01275E+01-9.64232E-02 1.49788E-04-7.73116E-02-5.93995E-14 1.25123E-13
 -1      3997 2.01216E+01-9.47552E-02-4.43939E-04-5.77512E-02-3.60395E-14 5.65949E-14
 -1      3998 2.00553E+01-4.28174E-02-2.05582E-04-3.69456E-02 1.00762E-13 9.63299E-14
 -1      3999 2.00538E+01-4.54762E-02 2.88862E-04-4.46545E-02 7.64678E-14 6.23156E-14
 -1      4000 2.00603E+01-5.51703E-02-4.64181E-05-4.80050E-02 7.29793E-14 1.09485E-13
 -1      4001 1.58508E+01 5.69263E-01-1.36657E-02-9.43684E-01 5.68495E-14-8.36570E-15
 -1      4002 1.58320E+01 7.85441E-01 2.61476E-02-4.22885E-01 1.41778E-13 2.21327E-13
 -1      4003 1.53651E+01 3.35746E-01 1.43319E-03-1.15277E+00 1.93894E-13-5.25881E-14
 -1      4004 2.00073E+01 3.57737E-02 9.83146E-05-3.73310E-02 3.22814E-14 5.44479E-14
 -1      4005 2.03162E+01 1.19203E+00-2.04311E-03-6.21824E-02 7.37743E-15-2.44765E-13
 -1      4006 2.03189E+01 1.16590E+00-2.71805E-03-1.05695E-01-6.94582E-15-2.31362E-13
 -1      4007 2.03656E+01 9.80502E-01 3.08849E-03-8.43000E-02-1.95088E-14-1.94068E-13
 -1      4008 2.03713E+01 1.00417E+00 4.54068E-03-2.65750E-02 2.04680E-14-2.21860E-13
 -1      4009 1.45711E+01 4.02501E-01 3.28042E-03 8.54974E-01 2.48409E-13-2.51216E-13
 -1      4010 1.44266E+01 4.86344E-01 9.88077E-03 3.19450E-01 2.47198E-13-1.35430E-13
 -1      4011 1.51393E+01 6.03573E-01 5.39211E-03 1.67794E-01 2.93629E-13-7.27545E-14
 -1      4012 2.01443E+01-9.88107E-02 3.27775E-04-8.27056E-02-6.36464E-14 9.22522E-14
 -1      4013 2.01590E+01-9.90797E-02 2.42615E-04-8.82691E-02-1.61057E-14 2.77373E-14
 -1      4014 2.01523E+01-1.02963E-01-5.07237E-04-6.68908E-02-6.47323E-14 8.62056E-14
 -1      4015 1.42833E+01-3.31717E-01 6.58158E-02 2.40593E+00 1.63363E-13-1.93123E-13
 -1      4016 1.44131E+01 5.74438E-02 1.99478E-02 1.65639E+00 1.68642E-13-2.42425E-13
 -1      4017 1.51796E+01-7.42396E-01 2.11899E-02 2.79298E+00 1.33697E-13-1.90840E-13
 -1      4018 1.70544E+01-1.86656E+00 2.56551E-02 3.55116E+00 1.83655E-13 2.35114E-13
 -1      4019 2.01878E+01-1.02489E-01-5.47039E-04-7.55026E-02-2.85852E-14 4.43973E-14
 -1      4020 2.01780E+01-9.67366E-02 2.52096E-04-9.31580E-02 1.00109E-14-1.17954E-15
 -1      4021 2.01952E+01-9.10539E-02 3.41211E-04-9.73168E-02-1.45761E-14-4.29219E-14
 -1      4022 2.00707E+01-6.40589E-02 3.21624E-04-5.15452E-02-3.64005E-15 4.53825E-14
 -1      4023 2.00787E+01-7.25032E-02 1.29369E-05-5.61609E-02-5.59476E-14 5.77878E-14
 -1      4024 2.00957E+01-8.08976E-02-3.64717E-04-4.92196E-02-2.59425E-14-2.08558E-14
 -1      4025 2.00738E+01-6.32682E-02-2.91517E-04-4.21274E-02-6.82286E-15 1.99671E-15
 -1      4026 2.03519E+01 8.30093E-01-1.57454E-03 1.45008E-01 1.54522E-13-1.93639E-13
 -1      4027 2.02785E+01-1.87122E-02 6.65930E-04-9.89257E-02 6.17508E-14-5.40567E-14
 -1      4028 2.03154E+01 5.19095E-03-3.91967E-04-7.85562E-02 5.00877E-14-5.23500E-14
 -1      4029 2.02571E+01-4.64785E-02-6.00037E-05-1.02670E-01 3.63610E-14-7.87265E-15
 -1      4030 2.03885E+01 8.14351E-01-1.33116E-03 4.45913E-02 8.61554E-14-1.88116E-13
 -1      4031 2.03880E+01 8.25659E-01-1.98495E-03 1.30311E-02 4.98355E-14-1.97829E-13
 -1      4032 2.04212E+01 6.78537E-01 4.47221E-03 6.33631E-03 2.38902E-14-1.91228E-13
 -1      4033 2.03880E+01 8.29612E-01-2.08236E-03-3.99433E-03 3.09963E-14-1.98070E-13
 -1      4034 2.03892E+01 8.27963E-01-1.32767E-03-2.84081E-02 1.06001E-14-2.14268E-13
 -1      4035 2.03926E+01 5.40490E-01-1.34585E-03-4.57378E-02 3.46287E-15-1.25130E-13
 -1      4036 2.03928E+01 4.39721E-01-4.29394E-04-1.47420E-02-1.08643E-14-1.13811E-13
 -1      4037 2.04084E+01 4.10094E-01 6.71876E-04-4.34661E-03-1.82864E-14-1.21573E-13
 -1      4038 2.04025E+01 5.72206E-01-1.26056E-03-3.72265E-02 6.30258E-15-1.45125E-13
 -1      4039 1.82159E+01-1.76132E+00-3.96160E-02 3.00145E+00 7.46040E-14 6.27280E-13
 -1      4040 2.03740E+01 6.86864E-01 1.92499E-03 1.06885E-01 1.07840E-13-1.99969E-13
 -1      4041 2.03698E+01 8.17391E-01 2.29718E-04 1.11925E-01 1.29139E-13-1.71099E-13
 -1      4042 2.03765E+01 8.14411E-01-1.86426E-03 8.11055E-02 1.16565E-13-1.74767E-13
 -1      4043 2.03702E+01 5.29701E-01-2.76741E-03 4.87194E-02 9.13527E-14-1.51759E-13
 -1      4044 1.99181E+01 1.74964E-01-1.91207E-04-5.82852E-02 3.26266E-14 1.19534E-13
 -1      4045 1.99352E+01 1.48597E-01-5.45364E-04-5.00950E-02 8.94010E-14 1.08830E-13
 -1      4046 1.69544E+01-1.24715E+00 1.12480E-02 3.02656E+00 3.30981E-14 2.47106E-13
 -1      4047 2.03524E+01 1.31267E-02 3.02425E-04 4.06694E-02-7.21306E-14-4.73944E-14
 -1      4048 2.03302E+01-2.47810E-02 2.03953E-04 4.58923E-02-7.85861E-14-3.80592E-14
 -1      4049 2.03067E+01-5.43394E-02 3.02875E-04 4.47603E-02-6.16145E-14-2.72341E-14
 -1      4050 2.02834E+01-7.57268E-02 1.60814E-04 4.61760E-02-3.04773E-14-1.77365E-14
 -1      4051 2.03280E+01-3.82138E-02-7.70070E-04 2.50200E-02-5.70509E-14-4.79374E-14
 -1      4052 2.02600E+01-9.09504E-02 3.41718E-04 4.49813E-02-3.07672E-14-2.02937E-15
 -1      4053 2.02385E+01-1.01040E-01 3.82942E-04 4.42402E-02-2.85915E-14-7.49076E-15
 -1      4054 2.02794E+01-8.36544E-02-7.45983E-04 2.54506E-02-2.08121E-14-5.43574E-14
 -1      4055 2.02160E+01-1.06887E-01 2.91604E-04 4.15678E-02-8.45705E-16-3.84561E-14
 -1      4056 2.01964E+01-1.08928E-01 3.91916E-04 3.96748E-02 3.18147E-15-2.45369E-15
 -1      4057 2.02348E+01-1.06806E-01-9.78745E-04 2.33331E-02-3.59555E-14-9.59009E-14
 -1      4058 2.01762E+01-1.08250E-01 2.78924E-04 3.70943E-02-2.94482E-14-6.46651E-15
 -1      4059 2.01590E+01-1.05059E-01 3.79716E-04 3.46387E-02-6.20570E-14 2.20633E-14
 -1      4060 2.01922E+01-1.12103E-01-1.08463E-03 2.11172E-02-7.69599E-15-1.35837E-13
 -1      4061 2.01414E+01-1.00178E-01 2.26398E-04 3.22069E-02-8.11991E-14 7.85513E-14
 -1      4062 2.01267E+01-9.35814E-02 3.45342E-04 2.96654E-02-3.56637E-14 7.83009E-14
 -1      4063 2.01550E+01-1.06181E-01-9.60506E-04 1.85085E-02-2.58927E-14-1.79280E-14
 -1      4064 2.01116E+01-8.59396E-02 1.65418E-04 2.75236E-02-1.42728E-14 7.77293E-14
 -1      4065 2.00991E+01-7.70686E-02 2.96753E-04 2.52357E-02-5.97098E-14 6.02272E-14
 -1      4066 2.01231E+01-9.29457E-02-7.83618E-04 1.59305E-02-2.99283E-14 3.79397E-14
 -1      4067 2.00861E+01-6.75485E-02 9.58907E-05 2.34865E-02-3.37552E-14 1.21709E-13
 -1      4068 2.00754E+01-5.70900E-02 1.92104E-04 2.16579E-02-2.44767E-14 1.70564E-13
 -1      4069 2.00960E+01-7.46546E-02-4.81814E-04 1.37467E-02-1.24467E-14 1.07217E-13
 -1      4070 2.00641E+01-4.59606E-02 4.05889E-05 2.06380E-02-1.99255E-14 2.47300E-13
 -1      4071 2.00550E+01-3.41278E-02 2.18020E-04 1.96056E-02 9.04551E-14 2.14591E-13
 -1      4072 2.00720E+01-5.28912E-02-3.32929E-04 1.20071E-02 2.91653E-14 2.30080E-13
 -1      4073 2.00445E+01-2.18044E-02-4.87893E-05 1.88390E-02 6.77109E-14 1.76921E-13
 -1      4074 2.00360E+01-8.47643E-03 1.55737E-04 1.87092E-02 6.37576E-14 1.49157E-13
 -1      4075 2.00516E+01-2.88161E-02-2.01455E-04 1.07545E-02 2.15936E-14 1.38499E-13
 -1      4076 2.00258E+01 5.46694E-03-1.20282E-04 1.86682E-02 3.31934E-14 1.84557E-13
 -1      4077 2.00171E+01 2.05372E-02 1.10944E-04 1.96294E-02 2.51773E-15 1.63003E-13
 -1      4078 2.00318E+01-1.20120E-03-4.92696E-05 1.05799E-02 5.57890E-14 5.69985E-14
 -1      4079 2.00062E+01 3.63590E-02-2.21691E-04 2.03309E-02 4.78166E-14 2.02968E-13
 -1      4080 1.99966E+01 5.36226E-02 6.42213E-05 2.25735E-02 3.34633E-14 2.19870E-13
 -1      4081 2.00119E+01 3.00565E-02 1.74188E-04 1.14566E-02 4.17073E-14 6.33978E-14
 -1      4082 1.99839E+01 7.18217E-02-3.42846E-04 2.41635E-02-7.85596E-14 1.96731E-13
 -1      4083 1.99725E+01 9.18225E-02 1.68384E-05 2.79247E-02-8.93299E-14 1.15589E-13
 -1      4084 1.99897E+01 6.58756E-02 4.34497E-04 1.35845E-02-3.53417E-14 5.57774E-14
 -1      4085 1.99568E+01 1.12940E-01-4.89784E-04 3.06136E-02-8.18743E-14 1.64092E-13
 -1      4086 1.99425E+01 1.36246E-01-3.13072E-05 3.61938E-02-8.37959E-14 1.27923E-13
 -1      4087 1.99631E+01 1.07374E-01 7.40198E-04 1.72790E-02-1.04480E-13 1.09765E-13
 -1      4088 1.99224E+01 1.60798E-01-6.69267E-04 4.02751E-02-6.29428E-14 8.66391E-14
 -1      4089 1.99039E+01 1.87915E-01-7.90957E-05 4.80563E-02-2.99259E-14 1.19963E-13
 -1      4090 1.99296E+01 1.55726E-01 1.10360E-03 2.29676E-02-6.97731E-14 1.03742E-13
 -1      4091 1.98779E+01 2.16297E-01-8.88918E-04 5.39385E-02 2.10493E-14 4.57904E-14
 -1      4092 1.98539E+01 2.47556E-01-1.23121E-04 6.44098E-02-1.49314E-15 8.51435E-14
 -1      4093 1.98863E+01 2.11994E-01 1.53754E-03 3.12487E-02-8.66785E-14 2.51400E-14
 -1      4094 1.98202E+01 2.79909E-01-1.15757E-03 7.26601E-02-6.01664E-14 1.30472E-13
 -1      4095 1.97893E+01 3.15320E-01-1.56261E-04 8.64529E-02-3.81164E-14 1.31930E-13
 -1      4096 1.98300E+01 2.76903E-01 2.05441E-03 4.29678E-02-6.36927E-14 2.21816E-15
 -1      4097 1.97458E+01 3.51354E-01-1.48597E-03 9.78579E-02-4.43164E-14 1.06059E-13
 -1      4098 1.97064E+01 3.90412E-01-1.65715E-04 1.15799E-01-5.23627E-14 1.02626E-13
 -1      4099 1.97570E+01 3.50550E-01 2.66557E-03 5.93241E-02-2.66503E-14 2.01736E-14
 -1      4100 1.96510E+01 4.29182E-01-1.88817E-03 1.31452E-01-3.00337E-14 1.35483E-13
 -1      4101 1.96018E+01 4.70624E-01-1.30280E-04 1.54645E-01-8.23571E-15 2.19060E-13
 -1      4102 1.96633E+01 4.32036E-01 3.38163E-03 8.20237E-02 2.17800E-14 2.60018E-14
 -1      4103 1.95321E+01 5.10244E-01-2.38426E-03 1.76068E-01-2.01968E-14 3.07731E-13
 -1      4104 1.94719E+01 5.51750E-01-1.65616E-05 2.06018E-01 4.43978E-14 3.19954E-13
 -1      4105 1.95447E+01 5.18998E-01 4.21433E-03 1.13499E-01 4.23930E-14 1.38282E-13
 -1      4106 1.93853E+01 5.89055E-01-3.00523E-03 2.35340E-01 4.01190E-14 3.23116E-13
 -1      4107 1.93135E+01 6.26911E-01 2.26475E-04 2.74150E-01-2.13653E-15 3.54670E-13
 -1      4108 1.93965E+01 6.07057E-01 5.18157E-03 1.57224E-01-2.21248E-14 2.33534E-13
 -1      4109 1.92073E+01 6.57060E-01-3.80176E-03 3.14366E-01-1.22124E-13 2.50155E-13
 -1      4110 1.91241E+01 6.85794E-01 6.75346E-04 3.65041E-01-2.02071E-13 2.30900E-13
 -1      4111 1.92142E+01 6.89216E-01 6.31713E-03 2.18163E-01-1.38244E-13 2.22221E-13
 -1      4112 1.89953E+01 7.01847E-01-4.85938E-03 4.20392E-01-2.17892E-13 1.72667E-13
 -1      4113 1.89022E+01 7.13856E-01 1.44302E-03 4.87305E-01-2.14932E-13 2.36233E-13
 -1      4114 1.89930E+01 7.55228E-01 7.68492E-03 3.03432E-01-2.17793E-13 1.81480E-13
 -1      4115 1.87474E+01 7.06324E-01-6.32347E-03 5.63858E-01-1.56658E-13 3.04656E-13
 -1      4116 1.86480E+01 6.91491E-01 2.69571E-03 6.53474E-01-1.21671E-14 2.48308E-13
 -1      4117 1.87280E+01 7.90989E-01 9.38589E-03 4.23258E-01-1.24981E-13 2.90767E-13
 -1      4118 1.84627E+01 6.47865E-01-8.42462E-03 7.60085E-01 6.31578E-14 2.74335E-13
 -1      4119 1.83640E+01 5.93010E-01 4.73405E-03 8.82029E-01 1.54604E-13 2.23041E-13
 -1      4120 1.84133E+01 7.77875E-01 1.14845E-02 5.92406E-01 1.12649E-15 2.34903E-13
 -1      4121 1.81420E+01 4.96882E-01-1.14690E-02 1.03220E+00 2.15917E-13 1.10151E-13
 -1      4122 1.80565E+01 3.83941E-01 7.75309E-03 1.20097E+00 2.47843E-13 4.93366E-14
 -1      4123 1.80400E+01 6.91072E-01 1.33734E-02 8.32286E-01 6.58059E-14-9.30898E-14
 -1      4124 1.77916E+01 2.18670E-01-1.40260E-02 1.41286E+00 2.68084E-13 1.11513E-13
 -1      4125 1.77365E+01 2.02498E-02 1.22435E-02 1.65317E+00 2.06371E-13 1.37811E-13
 -1      4126 1.75935E+01 4.86855E-01 9.67831E-03 1.17199E+00 2.65577E-13-6.96223E-14
 -1      4127 1.74373E+01-2.44055E-01-1.14794E-02 1.95107E+00 2.41105E-14 2.50906E-13
 -1      4128 1.74850E+01-5.77700E-01 1.69903E-02 2.27129E+00-7.30360E-14 2.20599E-13
 -1      4129 1.70809E+01 1.21950E-01 3.10785E-03 1.66203E+00 2.24504E-13-3.92568E-14
 -1      4130 2.00384E+01-1.38473E-02 1.88284E-04-2.63039E-02 3.95792E-14 4.77759E-14
 -1      4131 2.00462E+01-2.64544E-02-2.16915E-05-2.67989E-02 5.19715E-14 6.38623E-14
 -1      4132 2.00023E+01 4.52322E-02 7.82055E-05-3.02024E-02 4.16507E-14-1.09340E-15
 -1      4133 2.00107E+01 2.88304E-02-2.01179E-04-2.78087E-02 4.63107E-14-9.50367E-15
 -1      4134 1.99534E+01 1.24531E-01-8.10941E-05-4.55270E-02 8.91308E-14-1.04251E-14
 -1      4135 1.99663E+01 1.02154E-01-4.09824E-04-3.94708E-02 3.74778E-14-1.04819E-15
 -1      4136 1.99400E+01 1.43772E-01 9.08607E-04-3.34103E-02-1.17984E-14 8.72297E-14
 -1      4137 1.99806E+01 8.17355E-02 5.97450E-06-3.62725E-02 4.08639E-14-2.79507E-14
 -1      4138 1.99907E+01 6.26737E-02-2.96361E-04-3.21521E-02 3.66805E-14-6.24340E-14
 -1      4139 1.99955E+01 5.70600E-02 2.94544E-04-2.22345E-02 6.65672E-14-1.46077E-13
 -1      4140 1.99709E+01 9.69834E-02 5.75404E-04-2.67667E-02 1.40342E-14-2.78875E-14
 -1      4141 1.98715E+01 2.34304E-01-3.35462E-04-7.47905E-02-8.12382E-14 1.80014E-13
 -1      4142 1.98944E+01 2.03334E-01-7.05844E-04-6.43139E-02-3.81839E-14 1.51767E-13
 -1      4143 1.98997E+01 1.98753E-01 1.30844E-03-4.22516E-02-5.08975E-14 2.90639E-13
 -1      4144 1.98098E+01 3.03569E-01-5.28496E-04-9.51168E-02-1.19350E-14 3.81712E-13
 -1      4145 1.98404E+01 2.67538E-01-8.92890E-04-8.22994E-02-5.13982E-14 2.45939E-13
 -1      4146 1.98468E+01 2.63101E-01 1.79033E-03-5.32317E-02-1.03635E-13 2.94687E-13
 -1      4147 1.97283E+01 3.83272E-01-7.89250E-04-1.19035E-01-5.44109E-14 4.05428E-13
 -1      4148 1.97691E+01 3.42018E-01-1.10682E-03-1.03993E-01 1.49608E-14 4.09919E-13
 -1      4149 1.97771E+01 3.37622E-01 2.37038E-03-6.60371E-02-6.41404E-14 3.88354E-13
 -1      4150 1.96215E+01 4.73099E-01-1.14185E-03-1.45839E-01-6.22374E-14 3.48262E-13
 -1      4151 1.96755E+01 4.26928E-01-1.34716E-03-1.28951E-01-3.03818E-14 3.55473E-13
 -1      4152 1.96860E+01 4.22469E-01 3.06563E-03-7.99462E-02 1.25958E-14 3.07567E-13
 -1      4153 1.94830E+01 5.71489E-01-1.61673E-03-1.74155E-01-1.02672E-13 2.07314E-13
 -1      4154 1.95537E+01 5.21401E-01-1.61460E-03-1.56154E-01-5.28200E-14 3.18135E-13
 -1      4155 1.95678E+01 5.16784E-01 3.89569E-03-9.36324E-02-3.38674E-14 1.21742E-13
 -1      4156 1.93048E+01 6.75127E-01-2.25253E-03-2.01752E-01-1.56803E-13 1.14183E-13
 -1      4157 1.93966E+01 6.23082E-01-1.91575E-03-1.83801E-01-1.24743E-13 1.23398E-13
 -1      4158 1.94159E+01 6.18263E-01 4.88706E-03-1.04930E-01-1.75295E-14 6.23507E-14
 -1      4159 1.90773E+01 7.78358E-01-3.10059E-03-2.25450E-01-1.15299E-13 8.91936E-14
 -1      4160 1.91956E+01 7.27577E-01-2.27302E-03-2.09142E-01-1.21756E-13 1.27767E-13
 -1      4161 1.92227E+01 7.22672E-01 6.08232E-03-1.10583E-01-1.04256E-13 3.50793E-14
 -1      4162 1.87880E+01 8.72590E-01-4.23587E-03-2.41251E-01-1.48867E-13 6.40089E-14
 -1      4163 1.89398E+01 8.27850E-01-2.74338E-03-2.28429E-01-1.91825E-13 1.12287E-13
 -1      4164 1.89784E+01 8.23362E-01 7.55774E-03-1.06029E-01-1.23478E-13 6.44307E-14
 -1      4165 1.84204E+01 9.45816E-01-5.78000E-03-2.44893E-01-7.10861E-14 5.32070E-14
 -1      4166 1.86151E+01 9.13665E-01-3.45012E-03-2.37139E-01-9.33427E-14 5.88490E-14
 -1      4167 1.86708E+01 9.10906E-01 9.45437E-03-8.52400E-02-1.22127E-13 8.43085E-14
 -1      4168 1.79503E+01 9.82432E-01-7.91866E-03-2.33228E-01-1.31797E-14 7.03508E-14
 -1      4169 1.82014E+01 9.71287E-01-4.62315E-03-2.30681E-01-3.09812E-14 8.54677E-14
 -1      4170 1.82828E+01 9.73013E-01 1.20292E-02-4.06555E-02-9.44776E-14 9.26993E-14
 -1      4171 1.73421E+01 9.64225E-01-9.81549E-03-2.06838E-01-4.52910E-14 1.37985E-13
 -1      4172 1.76674E+01 9.84248E-01-6.48412E-03-2.06453E-01 2.75442E-14 1.34470E-13
 -1      4173 1.77881E+01 9.95088E-01 1.56680E-02 3.69270E-02-2.78622E-14 5.04841E-14
 -1      4174 1.65430E+01 8.56127E-01-1.09410E-02-1.72902E-01-6.22751E-14 1.68453E-13
 -1      4175 1.69669E+01 9.25983E-01-9.78907E-03-1.73597E-01-1.10366E-13 9.06497E-14
 -1      4176 1.71344E+01 9.60838E-01 1.88247E-02 1.54701E-01-6.64683E-14 1.78538E-13
 -1      4177 2.11927E+01-3.77377E+00 8.62708E-02 3.17357E+00 1.86795E-13 8.60826E-13
 -1      4178 2.00209E+01 1.37455E-02 1.41126E-04-2.69824E-02 2.54136E-14 1.98676E-14
 -1      4179 2.00286E+01-5.70520E-04-1.19571E-04-2.61146E-02 4.73824E-14 7.29726E-14
 -1      4180 2.00162E+01 2.26915E-02 5.48223E-05-1.96537E-02 7.05056E-14-1.31646E-13
 -1      4181 2.04180E+01 2.91580E-01 4.21234E-04 1.03171E-02-4.37367E-14-1.79707E-13
 -1      4182 2.04062E+01 1.98998E-01-1.73714E-04 2.61356E-02-5.82654E-14-1.46079E-13
 -1      4183 2.03829E+01 8.25864E-01-9.61154E-04-6.14198E-02 1.16044E-14-1.83271E-13
 -1      4184 1.55357E+01 7.01452E-01-1.06442E-02 8.34960E-02 2.58141E-13-7.25192E-14
 -1      4185 1.62226E+01 8.15423E-01 1.00897E-03-1.33166E-01 5.87295E-14 1.10725E-13
 -1      4186 1.64262E+01 8.67849E-01 2.48690E-02 2.61631E-01-9.90744E-15-2.51383E-13
 -1      4187 1.56453E+01 6.94406E-01 1.87889E-02 4.70053E-01 3.08454E-13-2.67034E-13
 -1      4188 2.04068E+01 6.76233E-01 2.68967E-03 4.96331E-02 7.92935E-14-1.63304E-13
 -1      4189 2.03919E+01 1.23078E-01 2.43577E-04 2.96800E-02-4.02586E-14-8.45605E-14
 -1      4190 2.03731E+01 6.22196E-02 2.36789E-05 4.00422E-02-4.65045E-14-6.14609E-14
 -1      4191 2.03722E+01 4.22427E-02-8.44725E-04 2.16797E-02-2.09441E-14-6.70066E-14
 -1      4192 2.02160E+01-8.14388E-02 1.30509E-04-1.00862E-01 2.76223E-14-2.28151E-14
 -1      4193 2.02356E+01-6.66582E-02 4.84790E-04-1.02065E-01 4.66869E-14-1.13088E-14
 -1      4194 2.02279E+01-8.90275E-02-5.79628E-04-8.19957E-02 2.70720E-14-3.17150E-14
 -1      4195 2.03661E+01 7.97230E-02-5.20113E-04-5.30795E-02 2.68404E-14-7.95828E-14
 -1      4196 2.03865E+01 1.45058E-01 8.73561E-04-3.91720E-02 4.25729E-14-9.79847E-14
 -1      4197 1.61793E+01-6.86313E-01 4.30441E-03 2.68513E+00 5.58670E-14-5.30509E-14
 -1      4198 2.29353E+01-5.17192E+00-1.64671E-02 3.04776E+00-3.25365E-14 1.30445E-12
 -1      4199 2.03966E+01 2.23409E-01-1.10438E-03-3.15132E-02 5.62991E-14-9.61895E-14
 -1      4200 2.04091E+01 3.21403E-01-2.81366E-04-9.74104E-03 7.62989E-14-1.26049E-13
 -1      4201 2.04060E+01 1.98925E-01-3.23619E-04-2.33517E-02 5.00382E-14-7.36604E-14
 -1      4202 2.03937E+01 5.06274E-01-3.12827E-04 3.28614E-02 9.43091E-14-1.67977E-13
 -1      4203 2.02713E+01-5.58283E-02-4.90039E-04-8.40267E-02 2.98575E-14 4.76332E-15
 -1      4204 2.00350E+01-7.26789E-03-1.41043E-04-1.88231E-02 6.05733E-15 3.35492E-15
 -1      4205 1.48491E+01 3.07610E-01 1.23050E-02 1.25390E+00 1.88316E-13-3.90016E-13
 -1      4206 1.54129E+01 4.66921E-01 2.14501E-03 9.84491E-01 2.81382E-13-3.94048E-13
 -1      4207 1.52939E+01 5.92559E-02-1.22713E-02 1.76261E+00 9.45450E-14-3.39226E-13
 -1      4208 2.00561E+01-3.83209E-02 1.78454E-04-2.78309E-02 4.46798E-14 5.83948E-14
 -1      4209 2.00647E+01-4.95727E-02-1.18025E-05-2.95177E-02 5.53716E-14 1.16454E-14
 -1      4210 2.00541E+01-3.34169E-02-8.61172E-05-1.95359E-02-1.15088E-14-7.13248E-15
 -1      4211 2.04079E+01 1.70929E-01-5.07604E-04 1.44077E-02 2.15077E-15-1.01720E-13
 -1      4212 2.04224E+01 4.39203E-01 2.08380E-03-6.19873E-03-2.99784E-14-1.83099E-13
 -1      4213 2.04196E+01 3.58239E-01-4.28356E-04 6.94640E-03-5.17556E-14-1.88098E-13
 -1      4214 2.04223E+01 3.15693E-01-1.50181E-03 4.91440E-03-4.34243E-14-1.63885E-13
 -1      4215 2.01577E+01-1.04225E-01 3.87206E-04-4.97114E-02-4.81947E-14 8.59877E-14
 -1      4216 2.01745E+01-1.06524E-01 3.06121E-04-5.31134E-02-4.23344E-14 1.09254E-13
 -1      4217 2.04102E+01 6.82460E-01 2.62824E-03-3.19012E-02 1.23123E-14-1.66729E-13
 -1      4218 2.01944E+01-1.06293E-01 3.54821E-04-5.66711E-02-4.87494E-14 1.02384E-13
 -1      4219 2.02139E+01-1.02928E-01 4.47823E-04-5.92959E-02-2.24296E-14 5.83600E-14
 -1      4220 2.01942E+01-1.10731E-01-1.14950E-03-3.88087E-02-4.17550E-14 1.02038E-13
 -1      4221 2.00990E+01-7.88768E-02 3.36559E-04-3.63965E-02-5.78451E-15-6.03946E-15
 -1      4222 2.01108E+01-8.71692E-02 1.45695E-04-3.96010E-02 2.43096E-14 2.94321E-14
 -1      4223 2.03481E+01 2.84756E-02 7.66925E-04-5.60838E-02 3.17496E-14-6.65230E-14
 -1      4224 2.03717E+01 6.12118E-02-8.95442E-04-3.75614E-02 2.13989E-14-1.09777E-13
 -1      4225 2.03250E+01-1.27474E-02-1.47680E-04-6.30646E-02 4.65819E-14-5.20349E-14
 -1      4226 2.01260E+01-9.41572E-02 3.79950E-04-4.27186E-02-2.28013E-14 1.50355E-14
 -1      4227 2.01401E+01-1.00079E-01 2.22427E-04-4.62495E-02-4.12913E-14 4.98350E-14
 -1      4228 2.01569E+01-1.06721E-01-1.07775E-03-3.41404E-02 1.16742E-14 8.16613E-14
 -1      4229 2.01249E+01-9.48917E-02-9.15987E-04-2.94289E-02 1.32277E-14 3.01296E-14
 -1      4230 2.04238E+01 5.36777E-01-1.71076E-03 7.70932E-03 1.71756E-14-1.59499E-13
 -1      4231 2.04215E+01 5.38002E-01-2.67588E-03-2.76967E-03-1.47571E-14-1.90127E-13
 -1      4232 2.04103E+01 5.04858E-01-1.50713E-03 1.31517E-02 7.18628E-14-1.58811E-13
 -1      4233 2.02801E+01-6.73900E-02 2.11305E-04-6.48149E-02 6.17492E-15-5.27978E-15
 -1      4234 2.03033E+01-4.39277E-02 6.46311E-04-6.27727E-02 1.75637E-14-1.90347E-14
 -1      4235 2.03285E+01-2.64101E-02-1.05192E-03-4.40667E-02 1.31265E-14-5.41954E-14
 -1      4236 2.03802E+01 5.13946E-02 2.66432E-04-9.45636E-03 7.27546E-15-6.22940E-14
 -1      4237 2.03593E+01 3.85638E-03 9.00125E-04-7.05566E-03-6.09244E-15-3.18299E-14
 -1      4238 2.02981E+01-7.59696E-02 4.59749E-04 5.23381E-03-5.99455E-14 6.28775E-15
 -1      4239 2.02745E+01-9.29310E-02 4.85440E-04 4.82731E-03-3.77893E-14-3.61631E-14
 -1      4240 2.02417E+01-1.04170E-01 4.96873E-04-8.64930E-03-4.29797E-14-1.04132E-14
 -1      4241 2.02202E+01-1.09190E-01 6.93535E-04-8.28700E-03-5.61383E-14-5.84569E-15
 -1      4242 2.02001E+01-1.10124E-01 7.44629E-04-7.29628E-03-1.85426E-14-1.64457E-14
 -1      4243 2.01799E+01-1.09178E-01 6.93043E-04-7.59003E-03 2.57090E-14-1.84001E-14
 -1      4244 2.01621E+01-1.05169E-01 7.14717E-04-6.23101E-03 9.99424E-15 7.97833E-15
 -1      4245 2.01443E+01-1.00075E-01 5.85140E-04-6.70060E-03 1.27165E-14 6.83340E-14
 -1      4246 2.01290E+01-9.28304E-02 6.04867E-04-5.34061E-03 1.33518E-14 1.89289E-14
 -1      4247 2.01137E+01-8.49620E-02 4.37595E-04-5.81589E-03 2.66047E-15 7.46657E-14
 -1      4248 2.00800E+01-5.85067E-02 2.26507E-04 2.65348E-03 3.96493E-14 8.27286E-14
 -1      4249 2.00688E+01-4.73016E-02 2.06634E-04 1.98213E-03 1.10168E-14 1.01465E-13
 -1      4250 2.00542E+01-3.11726E-02 8.17365E-05-4.10772E-03-2.13497E-14 4.01577E-14
 -1      4251 2.00441E+01-1.81232E-02 1.01273E-04-4.06913E-03-6.21955E-15-3.05359E-14
 -1      4252 2.00344E+01-4.32086E-03 5.64563E-05-4.19222E-03 2.80574E-14-6.46099E-14
 -1      4253 2.00242E+01 1.03249E-02 4.09794E-06-3.96168E-03 7.39569E-14-3.42998E-14
 -1      4254 2.00140E+01 2.59304E-02-1.01250E-04-4.67432E-03 7.85532E-14-7.19029E-14
 -1      4255 2.00031E+01 4.27131E-02-1.23511E-04-4.13191E-03 2.07540E-14-4.88854E-14
 -1      4256 1.99914E+01 6.05936E-02-2.95820E-04-5.50498E-03-7.34630E-15-3.25864E-14
 -1      4257 1.99787E+01 8.00781E-02-2.72893E-04-4.54123E-03 3.18661E-14-1.86172E-14
 -1      4258 1.99643E+01 1.00818E-01-5.26038E-04-6.62508E-03-7.18396E-14 5.19446E-14
 -1      4259 1.99487E+01 1.23628E-01-4.47504E-04-5.10795E-03-1.18149E-13 1.09423E-13
 -1      4260 1.99303E+01 1.47848E-01-8.01005E-04-7.91339E-03-6.49588E-14 1.82788E-13
 -1      4261 1.99104E+01 1.74604E-01-6.53146E-04-5.65485E-03-6.23651E-14 1.48829E-13
 -1      4262 1.98864E+01 2.02882E-01-1.13244E-03-9.12567E-03-1.02736E-13 1.55666E-13
 -1      4263 1.98606E+01 2.34115E-01-8.95045E-04-5.84956E-03-1.20972E-13 7.31281E-14
 -1      4264 1.98289E+01 2.66887E-01-1.53365E-03-9.81647E-03-8.32223E-14 1.95222E-13
 -1      4265 1.97956E+01 3.02916E-01-1.17680E-03-5.11412E-03-1.25278E-13 1.79426E-13
 -1      4266 1.97541E+01 3.40347E-01-2.01963E-03-9.22778E-03-9.82589E-14 1.90593E-13
 -1      4267 1.97111E+01 3.81124E-01-1.49970E-03-2.49441E-03 3.49003E-14 1.80863E-13
 -1      4268 1.96572E+01 4.22934E-01-2.60821E-03-6.13505E-03 9.12315E-14 1.24898E-13
 -1      4269 1.96025E+01 4.67852E-01-1.86266E-03 3.52107E-03 5.64008E-14 1.29693E-13
 -1      4270 1.95329E+01 5.13104E-01-3.32263E-03 1.35821E-03 5.62319E-14 1.13001E-13
 -1      4271 1.94643E+01 5.60754E-01-2.26328E-03 1.52441E-02 3.23129E-14 1.29982E-13
 -1      4272 1.93755E+01 6.07593E-01-4.19714E-03 1.60843E-02-5.42895E-14 1.58163E-13
 -1      4273 1.92904E+01 6.55494E-01-2.70114E-03 3.61020E-02-6.64940E-14 8.04325E-14
 -1      4274 1.91779E+01 7.00860E-01-5.28770E-03 4.21389E-02-1.44143E-13 1.38954E-13
 -1      4275 1.90739E+01 7.45181E-01-3.18433E-03 7.10357E-02-1.97946E-13 5.56140E-14
 -1      4276 1.89321E+01 7.84508E-01-6.69037E-03 8.52805E-02-2.00090E-13 1.44600E-13
 -1      4277 1.88064E+01 8.19820E-01-3.73854E-03 1.27000E-01-1.45624E-13 1.60197E-13
 -1      4278 1.86279E+01 8.46787E-01-8.56606E-03 1.53440E-01-1.09797E-13 1.98382E-13
 -1      4279 1.84773E+01 8.65902E-01-4.40441E-03 2.13613E-01-9.92767E-14 2.21924E-13
 -1      4280 1.82514E+01 8.72329E-01-1.11314E-02 2.57478E-01-7.83987E-14 1.85933E-13
 -1      4281 1.80721E+01 8.66276E-01-5.11532E-03 3.44094E-01-1.98880E-14 3.86132E-14
 -1      4282 1.77830E+01 8.42663E-01-1.43100E-02 4.12760E-01-1.06442E-14 4.74307E-14
 -1      4283 1.75716E+01 8.00580E-01-4.90333E-03 5.37957E-01 6.69094E-14-2.14154E-14
 -1      4284 1.71928E+01 7.46234E-01-1.38858E-02 6.44755E-01 5.05351E-14-1.67360E-13
 -1      4285 1.69445E+01 6.51704E-01 5.29896E-04 8.15974E-01 1.41024E-13-2.62420E-13
 -1      4286 2.04203E+01 3.99306E-01 1.66361E-03 1.54943E-03 3.90624E-14-1.26267E-13
 -1      4287 2.03361E+01-3.23993E-02 3.28354E-04-9.95570E-03-2.15121E-14-1.32301E-14
 -1      4288 2.03117E+01-6.06507E-02 5.16588E-04-8.73523E-03-3.85878E-14-7.30043E-15
 -1      4289 2.04355E+01 4.08612E-01 3.16320E-03-3.52609E-04-3.98097E-14-1.74143E-13
 -1      4290 2.04234E+01 5.22105E-01-1.03345E-03-5.10095E-03-2.19932E-14-1.90149E-13
 -1      4291 2.00860E+01-6.98377E-02 1.08276E-04-3.37402E-02-2.46895E-14-3.09947E-14
 -1      4292 2.00978E+01-7.79183E-02-6.76386E-04-2.52042E-02 2.12926E-14 3.75657E-14
 -1      4293 2.00759E+01-5.99128E-02 2.69007E-04-3.12409E-02 2.25219E-14-2.30546E-14
 -1      4294 2.04139E+01 1.83339E-01-2.02266E-04-8.01604E-03 2.59633E-14-9.16185E-14
 -1      4295 2.04000E+01 1.09720E-01 9.20159E-04-4.09075E-03 1.64635E-14-7.22440E-14
 -1      4296 2.02353E+01-9.63818E-02 7.40342E-05-6.23285E-02 7.60096E-15 1.60532E-14
 -1      4297 2.02567E+01-8.46252E-02 2.71950E-04-6.35276E-02 1.23605E-14 1.96641E-14
 -1      4298 2.02814E+01-7.60016E-02-4.33006E-04-4.42279E-02-2.82656E-14-1.51948E-14
 -1      4299 2.02364E+01-1.02557E-01-5.78215E-04-4.28561E-02-3.45230E-14 6.00216E-14
 -1      4300 2.01005E+01-7.57352E-02 3.78789E-04-4.73784E-03 5.03078E-15 6.70836E-14
 -1      4301 2.04266E+01 2.73113E-01 1.27943E-03-6.13202E-04 2.93689E-14-1.11428E-13
 -1      4302 2.00586E+01-3.74578E-02-1.46134E-04-1.32800E-02-1.73976E-14-6.40042E-14
 -1      4303 2.00873E+01-6.58315E-02 2.44529E-04-5.01107E-03 4.78314E-14 5.42154E-14
 -1      4304 2.00800E+01-6.08887E-02-2.22069E-04-1.51985E-02 4.29617E-14-5.38146E-14
 -1      4305 2.04281E+01 3.35802E-01-1.44380E-04 1.32008E-03-1.33077E-14-1.47717E-13
 -1      4306 1.63369E+01 7.22871E-01-5.13028E-03 6.36010E-01 6.13207E-14-4.59167E-13
 -1      4307 1.66635E+01 4.24473E-01-8.62879E-03 1.23921E+00 2.94146E-13-3.40942E-13
 -1      4308 1.63941E+01 2.34499E-01 1.23462E-02 1.51907E+00 1.81472E-13-3.21566E-13
 -1      4309 2.04137E+01 5.22128E-01-1.23276E-03-2.18505E-02-1.37818E-14-1.75926E-13
 -1      4310 1.58644E+01-1.28677E-01-8.95746E-03 2.02679E+00 2.71020E-14-1.75125E-13
 -1      4311 2.04279E+01 3.54827E-01-1.19162E-05-2.84949E-03 1.02368E-14-1.19773E-13
 -1      4312 1.58267E+01 5.58096E-01-2.83577E-03 8.50574E-01 2.57966E-13-5.09349E-13
 -1      4313 2.02491E+01-9.95382E-02-5.15150E-04-2.84045E-02-6.26678E-14 5.96954E-14
 -1      4314 2.00743E+01-5.66615E-02-2.58549E-04-2.14564E-02 2.21523E-14-9.73936E-14
 -1      4315 1.62253E+01 1.11284E-01-3.49204E-03 1.69109E+00 1.23703E-13-3.18456E-13
 -1      4316 2.02961E+01-7.27533E-02-4.92907E-04-3.05242E-02-4.52323E-14 6.67463E-15
 -1      4317 2.00686E+01-4.90623E-02 2.03052E-05-1.40724E-02 4.39206E-15-7.77581E-14
 -1      4318 1.59903E+01 6.33300E-01-1.13036E-02 7.30324E-01 2.49490E-13-4.88203E-13
 -1      4319 1.58573E+01 4.64508E-01 1.47438E-02 1.21419E+00 2.99968E-13-6.35084E-13
 -1      4320 2.02714E+01-8.86652E-02 1.96238E-04-3.00350E-02-4.25198E-14 2.20139E-14
 -3
    1PSTEP                         3           1           1          
  100CL  101 1.000000000        4320                     0    1           1
 -4  TOSTRAIN    6    1
 -5  EXX         1    4    1    1
 -5  EYY         1    4    2    2
 -5  EZZ         1    4    3    3
 -5  EXY         1    4    1    2
 -5  EYZ         1    4    2    3
 -5  EZX         1    4    3    1
 -1         1 1.03835E-04 3.92626E-05-5.46593E-05-1.30582E-04-1.51877E-17 1.93238E-17
 -1         2 5.33091E-05-1.59571E-04 2.46631E-05-1.61768E-06 1.61479E-17-4.17323E-19
 -1         3 9.54652E-05-2.82445E-05-2.78086E-05 1.23296E-06-1.68699E-18-1.82819E-18
 -1         4 9.55982E-05-2.81899E-05-2.87928E-05-7.54182E-07 3.34446E-20 1.05619E-18
 -1         5 1.43348E-04-2.14781E-05-4.25293E-05 3.85306E-05-3.13773E-19 2.11647E-17
 -1         6 1.45409E-04 2.57582E-10-4.41884E-05-5.35256E-05-1.13375E-18 1.77801E-17
 -1         7 9.06132E-05-5.11480E-07-3.90697E-05-2.92501E-05-1.52995E-19 3.19808E-18
 -1         8 8.51295E-05 8.61305E-08-3.63405E-05-2.02671E-05-2.02679E-19-1.24969E-18
 -1         9 8.28160E-05 7.64365E-08-3.53516E-05-1.56345E-05-1.78499E-19-3.59819E-18
 -1        10 8.17740E-05 3.91357E-08-3.48821E-05-1.20739E-05-1.23296E-19-4.67370E-18
 -1        11 8.12527E-05 1.91832E-08-3.46531E-05-9.00868E-06-7.23717E-20-5.12593E-18
 -1        12 8.09808E-05 9.23166E-09-3.45377E-05-6.28033E-06-3.41162E-20-5.25492E-18
 -1        13 8.08380E-05 4.68822E-09-3.44792E-05-3.68318E-06 5.26087E-22-5.17912E-18
 -1        14 8.07782E-05 2.81330E-09-3.44554E-05-1.18291E-06 3.04543E-20-5.07670E-18
 -1        15 8.07803E-05 2.79662E-09-3.44561E-05 1.28799E-06 7.52310E-20-4.89091E-18
 -1        16 8.08445E-05 4.57867E-09-3.44815E-05 3.79343E-06 1.00349E-19-4.57616E-18
 -1        17 8.09926E-05 8.44815E-09-3.45412E-05 6.40300E-06 1.18068E-19-4.11095E-18
 -1        18 8.12692E-05 1.81933E-08-3.46577E-05 9.15106E-06 1.65353E-19-3.40439E-18
 -1        19 8.17979E-05 3.81840E-08-3.48903E-05 1.22527E-05 2.26813E-19-2.33288E-18
 -1        20 8.28386E-05 8.14635E-08-3.53645E-05 1.58655E-05 2.66683E-19-5.57478E-19
 -1        21 8.50944E-05 1.69313E-07-3.63789E-05 2.04781E-05 2.73062E-19 2.72010E-18
 -1        22 9.16498E-05-9.99535E-08-3.87412E-05 2.79967E-05 1.91641E-20 8.78200E-18
 -1        23 1.12983E-04-3.81291E-05-3.53996E-05-4.40149E-06-7.61191E-19 1.38808E-17
 -1        24 9.28199E-05-2.77017E-05-2.90038E-05 3.91568E-07-1.86572E-19 1.05729E-17
 -1        25 8.91397E-05-2.68583E-05-2.69353E-05 3.75987E-07-1.40191E-19 7.10667E-18
 -1        26 8.80408E-05-2.64959E-05-2.63993E-05 2.04170E-07-3.12376E-20 4.68808E-18
 -1        27 8.80722E-05-2.64758E-05-2.63929E-05 1.40075E-07-5.71305E-20 3.10501E-18
 -1        28 8.86118E-05-2.66139E-05-2.65642E-05 1.01129E-07-9.44785E-21 2.06886E-18
 -1        29 8.93729E-05-2.68284E-05-2.67987E-05 7.54806E-08 8.58119E-20 1.33088E-18
 -1        30 9.02042E-05-2.70701E-05-2.70507E-05 5.72226E-08-4.09091E-20 4.92272E-19
 -1        31 9.10204E-05-2.73105E-05-2.72969E-05 4.35150E-08 2.17472E-20-2.57695E-19
 -1        32 9.17745E-05-2.75341E-05-2.75242E-05 3.29142E-08-1.49978E-19-9.91429E-19
 -1        33 9.24426E-05-2.77329E-05-2.77255E-05 2.46076E-08 3.14448E-19-1.29515E-18
 -1        34 9.30157E-05-2.79039E-05-2.78984E-05 1.80775E-08-3.78190E-20-1.21671E-18
 -1        35 9.34940E-05-2.80469E-05-2.80429E-05 1.29559E-08-9.91891E-20-2.82276E-18
 -1        36 9.38838E-05-2.81637E-05-2.81607E-05 8.95848E-09 9.19656E-20-3.61859E-18
 -1        37 9.41945E-05-2.82569E-05-2.82547E-05 5.85607E-09-2.03177E-19-3.43043E-18
 -1        38 9.44370E-05-2.83298E-05-2.83282E-05 3.46052E-09-2.02623E-19-4.65077E-18
 -1        39 9.46230E-05-2.83859E-05-2.83846E-05 1.61884E-09 8.51782E-20-5.40952E-18
 -1        40 9.47646E-05-2.84287E-05-2.84277E-05 2.10341E-10-1.87774E-19-5.45240E-18
 -1        41 9.48738E-05-2.84618E-05-2.84610E-05-8.54333E-10 2.18665E-19-5.01666E-18
 -1        42 9.49626E-05-2.84888E-05-2.84882E-05-1.63284E-09-2.73245E-19-5.39028E-18
 -1        43 9.50441E-05-2.85138E-05-2.85132E-05-2.14945E-09 1.24905E-20-4.95150E-18
 -1        44 9.51322E-05-2.85407E-05-2.85403E-05-2.39189E-09 9.12161E-20-4.55618E-18
 -1        45 9.52425E-05-2.85744E-05-2.85741E-05-2.30660E-09-3.45770E-19-4.95140E-18
 -1        46 9.53935E-05-2.86204E-05-2.86204E-05-1.79237E-09-4.84716E-20-6.04896E-18
 -1        47 9.56067E-05-2.86851E-05-2.86855E-05-6.92826E-10-7.00554E-20-5.21589E-18
 -1        48 9.59074E-05-2.87761E-05-2.87771E-05 1.21145E-09 1.76580E-19-4.09303E-18
 -1        49 9.63253E-05-2.89022E-05-2.89042E-05 4.20866E-09 9.48352E-20-3.74717E-18
 -1        50 9.68936E-05-2.90734E-05-2.90768E-05 8.65472E-09 2.04373E-20-4.55196E-18
 -1        51 9.76484E-05-2.93002E-05-2.93055E-05 1.49563E-08 5.82713E-20-3.49536E-18
 -1        52 9.86248E-05-2.95932E-05-2.96007E-05 2.35213E-08 1.46199E-19-2.43134E-18
 -1        53 9.98519E-05-2.99605E-05-2.99707E-05 3.46477E-08-3.65089E-19-2.76368E-18
 -1        54 1.01342E-04-3.04057E-05-3.04184E-05 4.83031E-08-4.45706E-20-3.94182E-18
 -1        55 1.03076E-04-3.09225E-05-3.09367E-05 6.37259E-08-1.36673E-19-5.42913E-18
 -1        56 1.04979E-04-3.14882E-05-3.15010E-05 7.87655E-08-3.29820E-19-7.35333E-18
 -1        57 1.06890E-04-3.20542E-05-3.20600E-05 8.89181E-08 1.56915E-19-7.29962E-18
 -1        58 1.08523E-04-3.25357E-05-3.25252E-05 8.61942E-08 2.31139E-19-7.34223E-18
 -1        59 1.09439E-04-3.28026E-05-3.27630E-05 5.84230E-08 1.04317E-19-7.19484E-18
 -1        60 1.09045E-04-3.26791E-05-3.25976E-05-9.47220E-09-3.76300E-19-6.82098E-18
 -1        61 1.06661E-04-3.19645E-05-3.18373E-05-1.29678E-07 5.66842E-19-6.55623E-18
 -1        62 1.01718E-04-3.04901E-05-3.03348E-05-2.99075E-07 1.10794E-19-5.78281E-18
 -1        63 9.40887E-05-2.82172E-05-2.80826E-05-4.82930E-07-6.62706E-19-6.69818E-18
 -1        64 8.44757E-05-2.53522E-05-2.53108E-05-6.07634E-07-3.31545E-19-8.71414E-18
 -1        65 7.46096E-05-2.24085E-05-2.25229E-05-5.82751E-07 2.16290E-19-7.40847E-18
 -1        66 6.69584E-05-2.01223E-05-2.03979E-05-3.57729E-07 8.34700E-19-7.04959E-18
 -1        67 6.38737E-05-1.91960E-05-1.95661E-05 3.01352E-08 4.87587E-19-4.72581E-18
 -1        68 6.65535E-05-1.99872E-05-2.03345E-05 4.66358E-07-6.49922E-19-4.33048E-18
 -1        69 7.44004E-05-2.23252E-05-2.25068E-05 8.12499E-07 2.19040E-19-5.60077E-18
 -1        70 8.48279E-05-2.54673E-05-2.53296E-05 8.66008E-07-1.23274E-19-4.75191E-18
 -1        71 9.36525E-05-2.83314E-05-2.76487E-05 4.99416E-07 6.48888E-19 7.75909E-19
 -1        72 1.02187E-04-3.05899E-05-3.41527E-05-1.92938E-06 2.31372E-19 2.01527E-17
 -1        73 9.25761E-05-2.75177E-05-2.89120E-05-3.33324E-07 1.51255E-19 1.65345E-17
 -1        74 8.91269E-05-2.67076E-05-2.69785E-05-1.25983E-07 5.48140E-20 1.34014E-17
 -1        75 8.80709E-05-2.64468E-05-2.64433E-05-9.56559E-08 1.08617E-19 1.13880E-17
 -1        76 8.81072E-05-2.64558E-05-2.64197E-05-7.66798E-08 5.38217E-20 9.79529E-18
 -1        77 8.86459E-05-2.66083E-05-2.65814E-05-6.26539E-08 1.34991E-19 8.68917E-18
 -1        78 8.94043E-05-2.68297E-05-2.68111E-05-5.19295E-08-1.06862E-19 8.55178E-18
 -1        79 9.02321E-05-2.70747E-05-2.70602E-05-4.31102E-08-4.00310E-20 8.49406E-18
 -1        80 9.10447E-05-2.73165E-05-2.73043E-05-3.55437E-08 2.62943E-20 7.70690E-18
 -1        81 9.17952E-05-2.75405E-05-2.75298E-05-2.89728E-08 2.01244E-19 6.56588E-18
 -1        82 9.24599E-05-2.77392E-05-2.77299E-05-2.32816E-08 5.15029E-20 5.47243E-18
 -1        83 9.30298E-05-2.79097E-05-2.79017E-05-1.83961E-08 4.50497E-20 4.89165E-18
 -1        84 9.35053E-05-2.80520E-05-2.80453E-05-1.42461E-08 3.36251E-20 4.44835E-18
 -1        85 9.38926E-05-2.81680E-05-2.81624E-05-1.07544E-08-6.62861E-21 4.49583E-18
 -1        86 9.42008E-05-2.82604E-05-2.82558E-05-7.83552E-09 1.99974E-19 2.59126E-18
 -1        87 9.44411E-05-2.83324E-05-2.83287E-05-5.39872E-09-5.69497E-20 1.79905E-18
 -1        88 9.46249E-05-2.83876E-05-2.83846E-05-3.35226E-09-1.70581E-19 2.89876E-18
 -1        89 9.47641E-05-2.84294E-05-2.84271E-05-1.60738E-09 1.93865E-19 2.94415E-18
 -1        90 9.48706E-05-2.84615E-05-2.84597E-05-8.16324E-11-2.57051E-19 2.17778E-18
 -1        91 9.49563E-05-2.84874E-05-2.84860E-05 1.29839E-09 1.81879E-19 2.24205E-18
 -1        92 9.50339E-05-2.85109E-05-2.85100E-05 2.59460E-09-2.83410E-19 2.98139E-18
 -1        93 9.51173E-05-2.85362E-05-2.85358E-05 3.85457E-09 3.71129E-20 3.48881E-18
 -1        94 9.52224E-05-2.85681E-05-2.85682E-05 5.10756E-09 1.19316E-19 2.11453E-18
 -1        95 9.53681E-05-2.86122E-05-2.86131E-05 6.35873E-09-2.12588E-20 2.49033E-18
 -1        96 9.55776E-05-2.86755E-05-2.86774E-05 7.57987E-09 1.56495E-19 3.61705E-18
 -1        97 9.58795E-05-2.87666E-05-2.87698E-05 8.69448E-09-2.69428E-19 3.44703E-18
 -1        98 9.63099E-05-2.88963E-05-2.89013E-05 9.55318E-09 1.63384E-19 2.45840E-18
 -1        99 9.69137E-05-2.90781E-05-2.90856E-05 9.89314E-09-2.32291E-20 3.67159E-19
 -1       100 9.77467E-05-2.93285E-05-2.93396E-05 9.27125E-09-1.22614E-19 9.98463E-19
 -1       101 9.88774E-05-2.96680E-05-2.96840E-05 6.95609E-09 1.67771E-19 1.04221E-18
 -1       102 1.00388E-04-3.01209E-05-3.01437E-05 1.75982E-09-5.91385E-20 8.64960E-19
 -1       103 1.02371E-04-3.07147E-05-3.07466E-05-8.20477E-09-3.38792E-21 4.56097E-18
 -1       104 1.04927E-04-3.14783E-05-3.15219E-05-2.58242E-08-1.89738E-19 7.17628E-18
 -1       105 1.08140E-04-3.24365E-05-3.24934E-05-5.52119E-08 7.10756E-19 3.58587E-18
 -1       106 1.12044E-04-3.35985E-05-3.36665E-05-1.01433E-07-4.39841E-19 9.06742E-19
 -1       107 1.16547E-04-3.49363E-05-3.50033E-05-1.68632E-07 1.00703E-19 1.91853E-19
 -1       108 1.21296E-04-3.63478E-05-3.63811E-05-2.54379E-07-3.08592E-19-4.61209E-19
 -1       109 1.25490E-04-3.76012E-05-3.75363E-05-3.37326E-07 9.74243E-19 1.43109E-18
 -1       110 1.27671E-04-3.82744E-05-3.80162E-05-3.58219E-07-6.96718E-20-1.97116E-18
 -1       111 1.25678E-04-3.77353E-05-3.72033E-05-2.08049E-07 5.55194E-19-1.58076E-18
 -1       112 1.17148E-04-3.52662E-05-3.45147E-05 2.29474E-07-8.90917E-19-1.01300E-18
 -1       113 1.00991E-04-3.04773E-05-2.98259E-05 9.23705E-07 3.28038E-19 9.81870E-19
 -1       114 7.94954E-05-2.39658E-05-2.39260E-05 1.54054E-06-7.15678E-19-8.16116E-19
 -1       115 5.91638E-05-1.76733E-05-1.85263E-05 1.54081E-06 3.23090E-19-3.33742E-18
 -1       116 4.79605E-05-1.41516E-05-1.55016E-05 7.32038E-07 3.70921E-19-5.78432E-18
 -1       117 4.97455E-05-1.46797E-05-1.58224E-05-3.56886E-07 1.59937E-19-6.38271E-18
 -1       118 6.17915E-05-1.84020E-05-1.88906E-05-1.10344E-06 1.49753E-20-4.77917E-18
 -1       119 7.78275E-05-2.32964E-05-2.31096E-05-1.44603E-06-8.27511E-21-2.49721E-18
 -1       120 9.13055E-05-2.76933E-05-2.65699E-05-1.40018E-06 6.22996E-19-2.58046E-18
 -1       121 9.64220E-05-3.30401E-05-2.66986E-05-1.66029E-06-1.53752E-18-4.33155E-19
 -1       122 1.00111E-04-4.50670E-05-2.39379E-05-1.82627E-06-2.17762E-18-9.52217E-19
 -1       123 1.02380E-04-5.21814E-05-2.30175E-05-9.38338E-07-5.68240E-18 9.90095E-19
 -1       124 9.92283E-05-4.11030E-05-2.71648E-05 1.36123E-06-8.64863E-18-1.32107E-18
 -1       125 8.75101E-05-2.03133E-06-3.79129E-05 5.11812E-06-1.28724E-17-3.97980E-19
 -1       126 7.00148E-05 5.44791E-05-5.13707E-05 6.83118E-06-1.69481E-17-7.70019E-19
 -1       127 5.59911E-05 9.83397E-05-6.09186E-05 2.74399E-06-1.35154E-17 1.33940E-18
 -1       128 5.65376E-05 9.72902E-05-6.06927E-05-3.85913E-06-1.05517E-17-2.69409E-19
 -1       129 6.73227E-05 6.39023E-05-5.33072E-05-6.64887E-06-8.19229E-18-1.69338E-18
 -1       130 8.23817E-05 1.47682E-05-4.17015E-05-6.20772E-06-2.02039E-18 1.76477E-18
 -1       131 9.63662E-05-3.17817E-05-2.96087E-05-3.59857E-06 3.96920E-18 3.32566E-19
 -1       132 1.05279E-04-6.17956E-05-2.06677E-05-8.03098E-07 1.46720E-17 4.24681E-19
 -1       133 1.07737E-04-7.04249E-05-1.71687E-05 8.13071E-07 1.44720E-17-3.19431E-19
 -1       134 1.05806E-04-6.41817E-05-1.82484E-05 1.26134E-06 6.64751E-18-1.21281E-18
 -1       135 1.02237E-04-5.21046E-05-2.14478E-05 1.23829E-06 1.95601E-18 4.97534E-19
 -1       136 9.85635E-05-3.96912E-05-2.49599E-05 1.35462E-06-2.70124E-18 7.20444E-19
 -1       137 9.60045E-05-3.10748E-05-2.74964E-05 6.55340E-07-3.87958E-18 3.27777E-19
 -1       138 3.67495E-05-1.20747E-04 1.81630E-05-3.09475E-05 1.65841E-17 4.50854E-18
 -1       139 1.10684E-05-3.66369E-05 4.95167E-07-1.68095E-05 1.42556E-17 5.87926E-18
 -1       140 2.15329E-05 3.14917E-05-2.47240E-05 4.86820E-05 1.25327E-17 8.84302E-18
 -1       141 8.91959E-05 4.04138E-05-5.03348E-05 1.19512E-04 6.05078E-18 8.86166E-18
 -1       142 2.02128E-04-5.58556E-06-7.34391E-05 1.54372E-04 4.10938E-18 5.14573E-18
 -1       143 3.17927E-04-7.47874E-05-8.96801E-05 1.21628E-04-7.36442E-19-8.23740E-19
 -1       144 3.70777E-04-1.12963E-04-9.48729E-05 3.60870E-05 1.49713E-19-4.75608E-18
 -1       145 3.39218E-04-9.84753E-05-8.92571E-05-6.03868E-05 1.86812E-18-9.92214E-18
 -1       146 2.38667E-04-4.45462E-05-7.35972E-05-1.15261E-04 5.01888E-18-1.44495E-17
 -1       147 1.18004E-04 9.73708E-06-5.10300E-05-1.07085E-04 9.63246E-18-1.49671E-17
 -1       148 3.60251E-05 2.29897E-05-2.72897E-05-5.36111E-05 1.58920E-17-1.50306E-17
 -1       149 4.12524E-06-1.66217E-05-2.08421E-06 1.08938E-05 1.89740E-17-1.27370E-17
 -1       150 1.91616E-05-8.09222E-05 1.54099E-05 3.58279E-05 1.26187E-17-5.04239E-18
 -1       151 3.97007E-05-1.27606E-04 2.48762E-05 2.17681E-05 1.48326E-18-1.08428E-18
 -1       152 4.24652E-05-1.31368E-04 2.53506E-05-1.15808E-05-1.18582E-17-9.75213E-19
 -1       153 2.36147E-05-8.93074E-05 1.71931E-05-3.18130E-05-1.57870E-17-4.26613E-18
 -1       154 6.20062E-06-2.04378E-05-8.98102E-07-1.03802E-05-1.75175E-17-8.81740E-18
 -1       155 2.87227E-05 2.35366E-05-2.43196E-05 4.84474E-05-1.07061E-17-1.02601E-17
 -1       156 1.03010E-04 1.81384E-05-4.85022E-05 1.05524E-04-3.37373E-18-3.87856E-18
 -1       157 2.11815E-04-3.00819E-05-6.96533E-05 1.21571E-04 3.29708E-19 1.08039E-18
 -1       158 3.11860E-04-8.53835E-05-8.52212E-05 7.98650E-05 6.90173E-19 5.11269E-18
 -1       159 3.58947E-04-1.10558E-04-9.26761E-05-5.39696E-06-7.87794E-19 1.42485E-17
 -1       160 3.27506E-04-8.46625E-05-9.03727E-05-1.02558E-04-5.61964E-18 2.35837E-17
 -1       161 2.25579E-04-1.79901E-05-7.76029E-05-1.54180E-04-1.50571E-17 2.83104E-17
 -1       162 2.44203E-05 4.09561E-05-2.82266E-05-5.98773E-05-5.54044E-18 7.02614E-18
 -1       163 9.36724E-06-2.61286E-05-1.90537E-06 1.05075E-05 2.28275E-18-2.41828E-18
 -1       164 3.56254E-05-1.16140E-04 1.73292E-05 2.99241E-05 8.29033E-18 1.82112E-19
 -1       165 9.48762E-05-1.23491E-05-3.55717E-05-2.23458E-05-2.50081E-18 9.28348E-19
 -1       166 8.92554E-05-8.45939E-06-3.47889E-05-1.73851E-05-2.25973E-18-1.79423E-18
 -1       167 8.65400E-05-6.49801E-06-3.44159E-05-1.35834E-05-1.77376E-18-3.24954E-18
 -1       168 8.51939E-05-5.51708E-06-3.42315E-05-1.03625E-05-1.21753E-18-3.96728E-18
 -1       169 8.44430E-05-4.94148E-06-3.41413E-05-7.54240E-06-6.97547E-19-4.24442E-18
 -1       170 8.40145E-05-4.59706E-06-3.40978E-05-4.90101E-06-2.56241E-19-4.29203E-18
 -1       171 8.37953E-05-4.41266E-06-3.40792E-05-2.39375E-06 2.56854E-19-4.23558E-18
 -1       172 8.37305E-05-4.35678E-06-3.40744E-05 5.11397E-08 6.98871E-19-4.13840E-18
 -1       173 8.38053E-05-4.42106E-06-3.40800E-05 2.49804E-06 1.05229E-18-3.94462E-18
 -1       174 8.40367E-05-4.61654E-06-3.40992E-05 5.01167E-06 1.42082E-18-3.61273E-18
 -1       175 8.44715E-05-4.97013E-06-3.41417E-05 7.61986E-06 1.82332E-18-3.00438E-18
 -1       176 8.52500E-05-5.57332E-06-3.42321E-05 1.05082E-05 2.35308E-18-2.14138E-18
 -1       177 8.66491E-05-6.60854E-06-3.44193E-05 1.37787E-05 2.78062E-18-8.72298E-19
 -1       178 8.93972E-05-8.60131E-06-3.47938E-05 1.76185E-05 2.93155E-18 1.27654E-18
 -1       179 9.57875E-05-1.36161E-05-3.54277E-05 2.18902E-05 2.57662E-18 5.05933E-18
 -1       180 1.05614E-04-2.61051E-05-3.52655E-05 1.86604E-05 1.72643E-18 9.88662E-18
 -1       181 1.03408E-04-2.73044E-05-3.26137E-05-1.21232E-05-2.15829E-18 4.26412E-18
 -1       182 9.71217E-05-2.82944E-05-2.95327E-05-4.72727E-06-1.97519E-18 3.28185E-18
 -1       183 9.35230E-05-2.76415E-05-2.81869E-05-1.76574E-06-1.50961E-18 2.41309E-18
 -1       184 9.19903E-05-2.74109E-05-2.76415E-05-4.17276E-07-9.74717E-19 1.43412E-18
 -1       185 9.14176E-05-2.73370E-05-2.74449E-05 2.47568E-07-6.55421E-19 9.73813E-19
 -1       186 9.13792E-05-2.73769E-05-2.74209E-05 5.73738E-07-4.80046E-19 5.61541E-19
 -1       187 9.16262E-05-2.74807E-05-2.74869E-05 7.12609E-07-4.73995E-19 1.46738E-19
 -1       188 9.20131E-05-2.76140E-05-2.75979E-05 7.43254E-07-4.61079E-19 8.61037E-20
 -1       189 9.24527E-05-2.77553E-05-2.77269E-05 7.11476E-07-4.22902E-19 1.53177E-20
 -1       190 9.28929E-05-2.78917E-05-2.78578E-05 6.45627E-07-2.82681E-19-1.21787E-19
 -1       191 9.33037E-05-2.80162E-05-2.79809E-05 5.63802E-07-3.32027E-19-1.11929E-18
 -1       192 9.36696E-05-2.81251E-05-2.80911E-05 4.77576E-07-7.40533E-19-1.62932E-18
 -1       193 9.39843E-05-2.82175E-05-2.81865E-05 3.94211E-07-4.75060E-19-1.69668E-18
 -1       194 9.42477E-05-2.82938E-05-2.82666E-05 3.18071E-07-6.02853E-20-1.72344E-18
 -1       195 9.44633E-05-2.83555E-05-2.83326E-05 2.51619E-07-6.66604E-19-1.58921E-18
 -1       196 9.46371E-05-2.84045E-05-2.83859E-05 1.96132E-07-4.96340E-19-1.80925E-18
 -1       197 9.47764E-05-2.84431E-05-2.84289E-05 1.52241E-07-7.57241E-20-2.33677E-18
 -1       198 9.48893E-05-2.84738E-05-2.84640E-05 1.20341E-07 8.09611E-20-2.25488E-18
 -1       199 9.49847E-05-2.84991E-05-2.84939E-05 1.00898E-07-4.81208E-19-2.78839E-18
 -1       200 9.50724E-05-2.85218E-05-2.85216E-05 9.46892E-08-1.36927E-19-2.84769E-18
 -1       201 9.51628E-05-2.85450E-05-2.85502E-05 1.02983E-07 2.85139E-19-2.95348E-18
 -1       202 9.52679E-05-2.85720E-05-2.85834E-05 1.27658E-07-5.88635E-19-2.93484E-18
 -1       203 9.54012E-05-2.86067E-05-2.86254E-05 1.71269E-07 3.84429E-19-1.29337E-18
 -1       204 9.55783E-05-2.86536E-05-2.86809E-05 2.37021E-07-3.23171E-19-1.00839E-18
 -1       205 9.58171E-05-2.87179E-05-2.87554E-05 3.28624E-07-4.31522E-20-1.46412E-18
 -1       206 9.61382E-05-2.88058E-05-2.88550E-05 4.49952E-07 7.86504E-20-2.36809E-18
 -1       207 9.65640E-05-2.89242E-05-2.89865E-05 6.04413E-07 1.72702E-19-2.21438E-18
 -1       208 9.71185E-05-2.90809E-05-2.91567E-05 7.93866E-07 1.65608E-20-2.12310E-18
 -1       209 9.78246E-05-2.92837E-05-2.93723E-05 1.01687E-06 3.51695E-19-2.29449E-18
 -1       210 9.87014E-05-2.95405E-05-2.96381E-05 1.26603E-06-5.66455E-19-2.72976E-18
 -1       211 9.97578E-05-2.98571E-05-2.99557E-05 1.52400E-06-9.96654E-19-2.57147E-18
 -1       212 1.00985E-04-3.02358E-05-3.03203E-05 1.75812E-06-8.78427E-19-2.62186E-18
 -1       213 1.02342E-04-3.06719E-05-3.07170E-05 1.91365E-06-1.04042E-18-3.25176E-18
 -1       214 1.03743E-04-3.11487E-05-3.11161E-05 1.90678E-06 3.45652E-19-2.91533E-18
 -1       215 1.05038E-04-3.16311E-05-3.14681E-05 1.62076E-06 3.44388E-19-2.72435E-18
 -1       216 1.05994E-04-3.20558E-05-3.16999E-05 9.12267E-07-3.65061E-19-2.05257E-18
 -1       217 1.06292E-04-3.23213E-05-3.17170E-05-3.59882E-07-2.91439E-19-2.91399E-18
 -1       218 1.05544E-04-3.22802E-05-3.14150E-05-2.26830E-06-2.25996E-19-2.09929E-18
 -1       219 1.03366E-04-3.17474E-05-3.07074E-05-4.70600E-06 1.47327E-19-3.12134E-18
 -1       220 9.95229E-05-3.05463E-05-2.95684E-05-7.25884E-06-5.20393E-19-4.07283E-18
 -1       221 9.41402E-05-2.86143E-05-2.80800E-05-9.15441E-06-1.27703E-18-4.82549E-18
 -1       222 8.79091E-05-2.61498E-05-2.64563E-05-9.42940E-06 1.38875E-18-3.72887E-18
 -1       223 8.21120E-05-2.36981E-05-2.50167E-05-7.38512E-06 1.08443E-18-1.75607E-18
 -1       224 7.82769E-05-2.20106E-05-2.40935E-05-3.13286E-06 1.41332E-18-2.70810E-18
 -1       225 7.75323E-05-2.16893E-05-2.39146E-05 2.22664E-06-1.16904E-19-2.52466E-18
 -1       226 7.99976E-05-2.28370E-05-2.44857E-05 6.99096E-06-8.60804E-19-3.17385E-18
 -1       227 8.48562E-05-2.52652E-05-2.55364E-05 9.42815E-06 1.13923E-18-2.23181E-18
 -1       228 9.05477E-05-2.83607E-05-2.66325E-05 8.29652E-06 3.34035E-18 5.27642E-19
 -1       229 9.95128E-05-2.85582E-05-3.05907E-05 7.20844E-06 1.80808E-18 8.57233E-18
 -1       230 9.44313E-05-2.77951E-05-2.85289E-05 2.74079E-06 1.50959E-18 7.18923E-18
 -1       231 9.21145E-05-2.74063E-05-2.76870E-05 9.26472E-07 1.15903E-18 5.82940E-18
 -1       232 9.11694E-05-2.72448E-05-2.73693E-05 6.39505E-08 7.63010E-19 5.03483E-18
 -1       233 9.09617E-05-2.72388E-05-2.72963E-05-3.64429E-07 4.72280E-19 4.57416E-18
 -1       234 9.11494E-05-2.73260E-05-2.73461E-05-5.65611E-07 1.45606E-19 4.44647E-18
 -1       235 9.15371E-05-2.74604E-05-2.74579E-05-6.38784E-07 2.74227E-19 4.01240E-18
 -1       236 9.20098E-05-2.76126E-05-2.75969E-05-6.37846E-07 6.31612E-19 3.52762E-18
 -1       237 9.24990E-05-2.77648E-05-2.77422E-05-5.94932E-07 6.20205E-19 2.67761E-18
 -1       238 9.29647E-05-2.79069E-05-2.78815E-05-5.30206E-07 3.03835E-19 2.96793E-18
 -1       239 9.33853E-05-2.80335E-05-2.80079E-05-4.56563E-07 3.08290E-19 2.70289E-18
 -1       240 9.37510E-05-2.81423E-05-2.81182E-05-3.82190E-07 3.15525E-19 2.72126E-18
 -1       241 9.40595E-05-2.82332E-05-2.82115E-05-3.12135E-07 4.50427E-19 2.14840E-18
 -1       242 9.43135E-05-2.83074E-05-2.82886E-05-2.49341E-07 9.71226E-19 1.38117E-18
 -1       243 9.45184E-05-2.83667E-05-2.83510E-05-1.95392E-07 1.95191E-19 1.11133E-18
 -1       244 9.46815E-05-2.84134E-05-2.84008E-05-1.51053E-07-5.62448E-19 1.12351E-18
 -1       245 9.48110E-05-2.84500E-05-2.84406E-05-1.16689E-07 1.34842E-19 1.28795E-18
 -1       246 9.49160E-05-2.84792E-05-2.84730E-05-9.25815E-08 3.64508E-19 9.22108E-19
 -1       247 9.50060E-05-2.85039E-05-2.85009E-05-7.91788E-08-9.18312E-20 8.48743E-19
 -1       248 9.50915E-05-2.85269E-05-2.85275E-05-7.73053E-08-5.37704E-19 1.59673E-18
 -1       249 9.51842E-05-2.85518E-05-2.85565E-05-8.83387E-08-6.14609E-20 1.54848E-18
 -1       250 9.52976E-05-2.85823E-05-2.85918E-05-1.14376E-07 6.94061E-19 1.08568E-18
 -1       251 9.54475E-05-2.86230E-05-2.86385E-05-1.58392E-07 3.33340E-20 3.55898E-19
 -1       252 9.56531E-05-2.86794E-05-2.87022E-05-2.24402E-07-5.79507E-19-1.40084E-19
 -1       253 9.59377E-05-2.87582E-05-2.87902E-05-3.17616E-07-9.46934E-20 6.00235E-19
 -1       254 9.63298E-05-2.88675E-05-2.89111E-05-4.44584E-07 4.76425E-19 9.47945E-19
 -1       255 9.68640E-05-2.90175E-05-2.90755E-05-6.13271E-07 7.71322E-19 1.71381E-18
 -1       256 9.75821E-05-2.92202E-05-2.92961E-05-8.32986E-07-6.71654E-19 8.65546E-19
 -1       257 9.85333E-05-2.94902E-05-2.95878E-05-1.11394E-06-2.28994E-19 9.27236E-19
 -1       258 9.97738E-05-2.98444E-05-2.99676E-05-1.46600E-06-9.10014E-19 1.33629E-18
 -1       259 1.01364E-04-3.03018E-05-3.04534E-05-1.89595E-06-1.43387E-18 2.48572E-18
 -1       260 1.03362E-04-3.08825E-05-3.10619E-05-2.40165E-06 9.12926E-20 1.51588E-18
 -1       261 1.05811E-04-3.16052E-05-3.18035E-05-2.96086E-06 1.67353E-18 2.20721E-18
 -1       262 1.08710E-04-3.24821E-05-3.26734E-05-3.51128E-06 4.08975E-19 3.20116E-18
 -1       263 1.11974E-04-3.35098E-05-3.36356E-05-3.91802E-06 5.99902E-19 1.79567E-18
 -1       264 1.15359E-04-3.46517E-05-3.46004E-05-3.92921E-06 3.80933E-19 7.90004E-19
 -1       265 1.18375E-04-3.58067E-05-3.53969E-05-3.13629E-06 2.61740E-19-1.97134E-20
 -1       266 1.20190E-04-3.67562E-05-3.57573E-05-9.95263E-07 1.28604E-18-2.89689E-19
 -1       267 1.19618E-04-3.70906E-05-3.53472E-05 2.97082E-06-2.09965E-19-2.34885E-19
 -1       268 1.15337E-04-3.61658E-05-3.38882E-05 8.64862E-06-6.88730E-19 2.96296E-19
 -1       269 1.06559E-04-3.32818E-05-3.13725E-05 1.45215E-05-1.29589E-19-6.55643E-19
 -1       270 9.42106E-05-2.83966E-05-2.82387E-05 1.74982E-05 4.86179E-19 1.43215E-19
 -1       271 8.16589E-05-2.28877E-05-2.53014E-05 1.45132E-05 3.21495E-18-1.43914E-18
 -1       272 7.37300E-05-1.94681E-05-2.33917E-05 5.79715E-06 7.33822E-19-3.93986E-18
 -1       273 7.30746E-05-1.96759E-05-2.29825E-05-4.13172E-06-3.41804E-19-3.42046E-18
 -1       274 7.81966E-05-2.24607E-05-2.39015E-05-1.04598E-05-1.08574E-18-2.20769E-18
 -1       275 8.52909E-05-2.57784E-05-2.54396E-05-1.18239E-05-6.50189E-19-2.44268E-18
 -1       276 9.18512E-05-2.92023E-05-2.66690E-05-8.83348E-06-5.10126E-19-1.32841E-18
 -1       277 9.63412E-05-3.41387E-05-2.65838E-05-1.06297E-05-1.98656E-18-2.34519E-18
 -1       278 1.01400E-04-3.87164E-05-2.68224E-05-5.78015E-06-1.20361E-18-7.34775E-19
 -1       279 1.05071E-04-3.86566E-05-2.85089E-05 1.00261E-05-1.47540E-18-1.48808E-18
 -1       280 1.03639E-04-2.90023E-05-3.19759E-05 3.44900E-05-3.72227E-18-3.00873E-18
 -1       281 9.15033E-05-7.72430E-06-3.55687E-05 5.22958E-05-4.99374E-18-1.63242E-18
 -1       282 7.05523E-05 1.96220E-05-3.79357E-05 4.10450E-05-4.78738E-18 1.17685E-18
 -1       283 5.97067E-05 3.20117E-05-3.84499E-05 1.62773E-06-6.89689E-18 1.32667E-18
 -1       284 6.63059E-05 2.41584E-05-3.79761E-05-3.52898E-05-5.37879E-18 8.92879E-19
 -1       285 8.32667E-05 2.61012E-06-3.62994E-05-5.46240E-05-1.88396E-18 4.69706E-18
 -1       286 9.92717E-05-2.19543E-05-3.29866E-05-4.98355E-05 9.28428E-19 5.44464E-18
 -1       287 1.06816E-04-4.01918E-05-2.85861E-05-2.91769E-05 4.60740E-18 6.54923E-18
 -1       288 1.06723E-04-4.83238E-05-2.50324E-05-7.88455E-06 4.66514E-18-1.16771E-19
 -1       289 1.03765E-04-4.84278E-05-2.36650E-05 5.22956E-06 4.70422E-18-3.34540E-18
 -1       290 1.00674E-04-4.43696E-05-2.40781E-05 1.06542E-05 3.11776E-18-2.85539E-18
 -1       291 9.77504E-05-3.85817E-05-2.53262E-05 1.11961E-05 2.16882E-18-2.10021E-18
 -1       292 9.44933E-05-3.27839E-05-2.64671E-05 1.11176E-05 2.92942E-18-2.07838E-18
 -1       293 1.76339E-05-4.98881E-05 8.77058E-06 1.70666E-05 6.78473E-18 2.32214E-18
 -1       294 4.15697E-05-5.38760E-05 8.05975E-07 4.11937E-05 8.13236E-18 2.81474E-18
 -1       295 8.31669E-05-4.69391E-05-1.71656E-05 6.16273E-05 6.37265E-18 2.47577E-18
 -1       296 1.21857E-04-3.28998E-05-3.75718E-05 6.83232E-05 6.19033E-18 4.42342E-18
 -1       297 1.72090E-04-3.32080E-05-5.73794E-05 6.35621E-05 4.67308E-18 5.15420E-19
 -1       298 2.14184E-04-3.24700E-05-7.42230E-05 5.48826E-05 3.12396E-18 6.81862E-20
 -1       299 2.44596E-04-3.89073E-05-8.36290E-05 3.61817E-05 2.30478E-18-1.87290E-18
 -1       300 2.37912E-04-3.74443E-05-8.22332E-05 9.98739E-06 3.28014E-18-2.31288E-18
 -1       301 2.16140E-04-4.04607E-05-7.27114E-05-9.81452E-06 4.58160E-18-5.56035E-18
 -1       302 1.81767E-04-4.34156E-05-5.75190E-05-3.45197E-05 4.33845E-18-7.63261E-18
 -1       303 1.29681E-04-4.13366E-05-3.76970E-05-4.28181E-05 7.56358E-18-6.51559E-18
 -1       304 8.44155E-05-4.88170E-05-1.65598E-05-3.69335E-05 8.07646E-18-5.38882E-18
 -1       305 4.14813E-05-5.33687E-05 2.27533E-06-2.30898E-05 7.15573E-18-9.10691E-18
 -1       306 2.03915E-05-5.80402E-05 1.30954E-05-1.30431E-05 2.42283E-18-7.55945E-18
 -1       307 1.37484E-05-6.53563E-05 1.82687E-05 1.18720E-06-1.18983E-18-6.39055E-18
 -1       308 1.80608E-05-5.96585E-05 1.45448E-05 1.34631E-05-3.38739E-18-2.43734E-18
 -1       309 3.91510E-05-5.14793E-05 3.02193E-06 2.90487E-05-4.90707E-18-4.35576E-18
 -1       310 8.32984E-05-4.96575E-05-1.52969E-05 4.21010E-05-5.09999E-18 1.44345E-18
 -1       311 1.21149E-04-3.82930E-05-3.53824E-05 4.60407E-05-3.87052E-18 2.28297E-18
 -1       312 1.69314E-04-3.63025E-05-5.52845E-05 4.58259E-05-1.91557E-18 2.83629E-18
 -1       313 2.11128E-04-3.94402E-05-7.08444E-05 2.67309E-05-4.15840E-19 6.24221E-18
 -1       314 2.35841E-04-3.95027E-05-8.06946E-05 1.62935E-06-4.64873E-18 9.78238E-18
 -1       315 2.34545E-04-3.35152E-05-8.26290E-05-2.74966E-05-5.57432E-18 1.13235E-17
 -1       316 2.19166E-04-3.00213E-05-7.72209E-05-5.80796E-05-8.09912E-18 1.32916E-17
 -1       317 1.75912E-04-3.04025E-05-6.04114E-05-5.95724E-05-4.77314E-18 1.11198E-17
 -1       318 1.26956E-04-2.91369E-05-4.08641E-05-7.23526E-05-2.23214E-18 1.22549E-17
 -1       319 7.87798E-05-3.79420E-05-1.89371E-05-6.30896E-05-1.02915E-19 7.98604E-18
 -1       320 4.35228E-05-5.19892E-05-4.76763E-07-4.51465E-05 5.02545E-18 1.59008E-18
 -1       321 1.93310E-05-5.76975E-05 1.02219E-05-1.89217E-05 5.39242E-18 2.40007E-18
 -1       322 9.16550E-05-1.43982E-05-3.31730E-05-1.30580E-05-2.29568E-18-1.64829E-18
 -1       323 9.57082E-05-1.91031E-05-3.28939E-05-1.46259E-05-2.63079E-18-8.52658E-20
 -1       324 8.79953E-05-1.03690E-05-3.33236E-05-8.15795E-06-1.13948E-18-2.99622E-18
 -1       325 8.71851E-05-9.45244E-06-3.33624E-05-5.71579E-06-6.09895E-19-3.20293E-18
 -1       326 8.67233E-05-8.92098E-06-3.33888E-05-3.36479E-06 1.67660E-20-3.21383E-18
 -1       327 8.65171E-05-8.68052E-06-3.34020E-05-1.07173E-06 5.86946E-19-3.07127E-18
 -1       328 8.65257E-05-8.68995E-06-3.34017E-05 1.20265E-06 1.03671E-18-3.02070E-18
 -1       329 8.67504E-05-8.95121E-06-3.33876E-05 3.49768E-06 1.47323E-18-2.85572E-18
 -1       330 8.72241E-05-9.49588E-06-3.33608E-05 5.81134E-06 1.97028E-18-2.34664E-18
 -1       331 8.80653E-05-1.04482E-05-3.33199E-05 8.24959E-06 2.53175E-18-1.59717E-18
 -1       332 8.94831E-05-1.20324E-05-3.32598E-05 1.07578E-05 2.98782E-18-6.93869E-19
 -1       333 9.19064E-05-1.47230E-05-3.31598E-05 1.31631E-05 3.30467E-18 5.64878E-19
 -1       334 9.58128E-05-1.94598E-05-3.28305E-05 1.43706E-05 3.08090E-18 2.98184E-18
 -1       335 9.88016E-05-2.44475E-05-3.19542E-05 1.18937E-05 2.65297E-18 5.13849E-18
 -1       336 9.64023E-05-2.68159E-05-2.97933E-05 5.73650E-06 2.18853E-18 4.22941E-18
 -1       337 9.64482E-05-2.60320E-05-3.01339E-05-6.34514E-06-2.12370E-18 4.38541E-19
 -1       338 9.49297E-05-2.70305E-05-2.90742E-05-2.82949E-06-1.70669E-18 3.84459E-19
 -1       339 9.39556E-05-2.74289E-05-2.84967E-05-9.14842E-07-1.04754E-18 3.07825E-19
 -1       340 9.34384E-05-2.76426E-05-2.81915E-05 1.45257E-07-7.93405E-19 1.62585E-19
 -1       341 9.32480E-05-2.77964E-05-2.80479E-05 7.10007E-07-5.71257E-19 1.53361E-19
 -1       342 9.32663E-05-2.79266E-05-2.80018E-05 9.77438E-07-5.69317E-19-7.77632E-20
 -1       343 9.34064E-05-2.80420E-05-2.80132E-05 1.06437E-06-3.73111E-19-1.79565E-19
 -1       344 9.36085E-05-2.81438E-05-2.80567E-05 1.04338E-06-5.55040E-19-4.17663E-19
 -1       345 9.38334E-05-2.82317E-05-2.81157E-05 9.61149E-07-9.29119E-19-6.13874E-19
 -1       346 9.40566E-05-2.83056E-05-2.81798E-05 8.48179E-07-7.80782E-19-8.69007E-19
 -1       347 9.42638E-05-2.83662E-05-2.82426E-05 7.24349E-07-8.02986E-19-9.18293E-19
 -1       348 9.44478E-05-2.84146E-05-2.83007E-05 6.02383E-07-1.62366E-19-8.60380E-19
 -1       349 9.46062E-05-2.84524E-05-2.83523E-05 4.90190E-07-1.32094E-19-8.67853E-19
 -1       350 9.47398E-05-2.84811E-05-2.83971E-05 3.92514E-07-6.92777E-19-1.19647E-18
 -1       351 9.48512E-05-2.85022E-05-2.84357E-05 3.12149E-07-2.59187E-19-5.67677E-19
 -1       352 9.49448E-05-2.85174E-05-2.84692E-05 2.50845E-07-1.10250E-19-6.79574E-19
 -1       353 9.50257E-05-2.85282E-05-2.84991E-05 2.09982E-07-3.35236E-19-8.61950E-19
 -1       354 9.50999E-05-2.85361E-05-2.85274E-05 1.91093E-07-1.88163E-19-1.44971E-18
 -1       355 9.51744E-05-2.85426E-05-2.85564E-05 1.96240E-07-2.37081E-19-1.26595E-18
 -1       356 9.52569E-05-2.85495E-05-2.85886E-05 2.28289E-07 2.18468E-19-1.30718E-18
 -1       357 9.53561E-05-2.85587E-05-2.86270E-05 2.91062E-07 8.37315E-19-7.09551E-19
 -1       358 9.54824E-05-2.85725E-05-2.86750E-05 3.89358E-07 2.18640E-20-1.40786E-18
 -1       359 9.56471E-05-2.85939E-05-2.87361E-05 5.28776E-07-7.69729E-20-9.07805E-19
 -1       360 9.58635E-05-2.86267E-05-2.88145E-05 7.15285E-07-3.79385E-19-8.11095E-19
 -1       361 9.61462E-05-2.86758E-05-2.89143E-05 9.54379E-07-3.68415E-19-1.14506E-18
 -1       362 9.65109E-05-2.87477E-05-2.90395E-05 1.24966E-06 2.23804E-19-1.31258E-18
 -1       363 9.69741E-05-2.88508E-05-2.91936E-05 1.60055E-06 2.90347E-19-1.64816E-18
 -1       364 9.75515E-05-2.89960E-05-2.93786E-05 1.99886E-06-4.06410E-19-2.44153E-18
 -1       365 9.82561E-05-2.91979E-05-2.95942E-05 2.42378E-06-1.04912E-18-2.05483E-18
 -1       366 9.90958E-05-2.94747E-05-2.98359E-05 2.83502E-06-9.37870E-19-1.52839E-18
 -1       367 1.00069E-04-2.98490E-05-3.00938E-05 3.16403E-06-1.70950E-19-6.14239E-19
 -1       368 1.01160E-04-3.03463E-05-3.03503E-05 3.30426E-06-7.49579E-19 7.54080E-19
 -1       369 1.02330E-04-3.09893E-05-3.05789E-05 3.10327E-06 7.72971E-20 4.17969E-19
 -1       370 1.03503E-04-3.17849E-05-3.07450E-05 2.36311E-06 3.82995E-19-7.35582E-19
 -1       371 1.04553E-04-3.26960E-05-3.08093E-05 8.61636E-07-1.03203E-18 7.85309E-20
 -1       372 1.05272E-04-3.35950E-05-3.07361E-05-1.58597E-06 3.96274E-19 5.79935E-19
 -1       373 1.05345E-04-3.42070E-05-3.05073E-05-5.00307E-06-8.80666E-20 3.36310E-19
 -1       374 1.04366E-04-3.40854E-05-3.01368E-05-9.06189E-06-4.98067E-19 4.91892E-19
 -1       375 1.01940E-04-3.27122E-05-2.96773E-05-1.28942E-05-1.56858E-18-1.11492E-18
 -1       376 9.79649E-05-2.98117E-05-2.92044E-05-1.50890E-05-4.81883E-19-7.31443E-19
 -1       377 9.29936E-05-2.57944E-05-2.87817E-05-1.41297E-05 1.40594E-18-2.39146E-18
 -1       378 8.83615E-05-2.19656E-05-2.84297E-05-9.32926E-06 5.43640E-19-2.36710E-18
 -1       379 8.55880E-05-1.99015E-05-2.81173E-05-1.65470E-06 3.94281E-19-3.64416E-18
 -1       380 8.54697E-05-2.05206E-05-2.78069E-05 6.46674E-06-1.06365E-18-2.20480E-18
 -1       381 8.77204E-05-2.32994E-05-2.76113E-05 1.25880E-05 1.13340E-20-1.18289E-18
 -1       382 9.05378E-05-2.76013E-05-2.69574E-05 1.36787E-05 2.20089E-18-1.85101E-18
 -1       383 9.43844E-05-2.73451E-05-2.86929E-05 2.46355E-06 1.79493E-18 3.61426E-18
 -1       384 9.31803E-05-2.74655E-05-2.81416E-05 7.37938E-07 1.13777E-18 3.04405E-18
 -1       385 9.26285E-05-2.75437E-05-2.78836E-05-1.83782E-07 6.58656E-19 2.63139E-18
 -1       386 9.24890E-05-2.76371E-05-2.77895E-05-6.59919E-07 3.55617E-19 2.25050E-18
 -1       387 9.25935E-05-2.77472E-05-2.77897E-05-8.77871E-07 4.60987E-19 1.99393E-18
 -1       388 9.28304E-05-2.78642E-05-2.78423E-05-9.42376E-07 7.87034E-19 1.81625E-18
 -1       389 9.31277E-05-2.79789E-05-2.79212E-05-9.16508E-07 1.02793E-18 1.65253E-18
 -1       390 9.34401E-05-2.80852E-05-2.80099E-05-8.40049E-07 3.51930E-19 1.46134E-18
 -1       391 9.37401E-05-2.81793E-05-2.80983E-05-7.38688E-07 4.50111E-19 1.37104E-18
 -1       392 9.40127E-05-2.82600E-05-2.81806E-05-6.29018E-07 2.66840E-19 1.33117E-18
 -1       393 9.42508E-05-2.83271E-05-2.82539E-05-5.21571E-07 1.15473E-18 8.76750E-19
 -1       394 9.44528E-05-2.83815E-05-2.83170E-05-4.22806E-07 1.11371E-18 8.63551E-19
 -1       395 9.46205E-05-2.84247E-05-2.83703E-05-3.36503E-07 4.02040E-19 9.54609E-19
 -1       396 9.47580E-05-2.84584E-05-2.84146E-05-2.64781E-07-2.40537E-19 6.20533E-19
 -1       397 9.48707E-05-2.84844E-05-2.84517E-05-2.08864E-07 1.32211E-19 5.96097E-20
 -1       398 9.49652E-05-2.85047E-05-2.84833E-05-1.69664E-07 5.25209E-19 6.12869E-19
 -1       399 9.50489E-05-2.85212E-05-2.85119E-05-1.48239E-07-1.55016E-19 6.40424E-19
 -1       400 9.51299E-05-2.85362E-05-2.85401E-05-1.46162E-07-2.95202E-19 3.96134E-19
 -1       401 9.52176E-05-2.85519E-05-2.85708E-05-1.65826E-07-1.89210E-19 6.17754E-19
 -1       402 9.53229E-05-2.85709E-05-2.86075E-05-2.10727E-07 1.29331E-18-7.52322E-20
 -1       403 9.54583E-05-2.85963E-05-2.86544E-05-2.85708E-07 3.65493E-19-1.89254E-19
 -1       404 9.56387E-05-2.86318E-05-2.87162E-05-3.97196E-07-6.81864E-19-1.03861E-20
 -1       405 9.58822E-05-2.86818E-05-2.87987E-05-5.53409E-07-3.21225E-19-3.27247E-19
 -1       406 9.62102E-05-2.87516E-05-2.89088E-05-7.64511E-07 1.41041E-19-1.60227E-19
 -1       407 9.66480E-05-2.88478E-05-2.90547E-05-1.04262E-06 7.18705E-19 1.16796E-18
 -1       408 9.72255E-05-2.89785E-05-2.92455E-05-1.40155E-06 5.63076E-20 2.04484E-18
 -1       409 9.79767E-05-2.91534E-05-2.94917E-05-1.85588E-06-5.06956E-19 2.64912E-18
 -1       410 9.89393E-05-2.93848E-05-2.98043E-05-2.41888E-06-1.07175E-18 3.57444E-18
 -1       411 1.00153E-04-2.96885E-05-3.01936E-05-3.09805E-06-1.10877E-18 1.52615E-18
 -1       412 1.01655E-04-3.00852E-05-3.06672E-05-3.88648E-06 4.98944E-19-5.89667E-20
 -1       413 1.03476E-04-3.06043E-05-3.12261E-05-4.74699E-06 2.95345E-21 5.45657E-19
 -1       414 1.05630E-04-3.12884E-05-3.18584E-05-5.58499E-06 6.45086E-19 2.59340E-18
 -1       415 1.08097E-04-3.21989E-05-3.25304E-05-6.20608E-06 1.18306E-18 2.57738E-18
 -1       416 1.10802E-04-3.34167E-05-3.31764E-05-6.25976E-06 6.28021E-19 2.48920E-18
 -1       417 1.13580E-04-3.50167E-05-3.36918E-05-5.18891E-06 4.36862E-19 1.58572E-18
 -1       418 1.16095E-04-3.69754E-05-3.39414E-05-2.25031E-06 1.45081E-18 1.03381E-18
 -1       419 1.17728E-04-3.89513E-05-3.38003E-05 3.25035E-06-4.20661E-19 3.21134E-19
 -1       420 1.17431E-04-3.99676E-05-3.32356E-05 1.13230E-05 2.23504E-19 1.28021E-19
 -1       421 1.13761E-04-3.82667E-05-3.23914E-05 2.01685E-05-7.71455E-19 1.69203E-18
 -1       422 1.06054E-04-3.26284E-05-3.15298E-05 2.55077E-05 1.75904E-18 3.02556E-18
 -1       423 9.60082E-05-2.43280E-05-3.08012E-05 2.25041E-05 3.83697E-18 4.76396E-19
 -1       424 8.86355E-05-1.86701E-05-3.00370E-05 1.05146E-05 1.59157E-18 1.10348E-18
 -1       425 8.71914E-05-1.91384E-05-2.92139E-05-4.02151E-06 2.54110E-19-6.31516E-19
 -1       426 9.00920E-05-2.38455E-05-2.84037E-05-1.33161E-05-4.65650E-19-1.03069E-18
 -1       427 9.32935E-05-2.84975E-05-2.77544E-05-1.51936E-05-1.03015E-19-2.46659E-18
 -1       428 9.51937E-05-3.11569E-05-2.74074E-05-1.35006E-05-5.67241E-19-2.12126E-18
 -1       429 1.27545E-04-4.80588E-05-3.40142E-05 2.46933E-05-4.17624E-19-4.39396E-18
 -1       430 1.14933E-04-4.03562E-05-3.19832E-05-5.67943E-07 4.77791E-19-4.65279E-19
 -1       431 1.03646E-04-3.49643E-05-2.94013E-05-1.11460E-05-7.24879E-19-1.75091E-19
 -1       432 1.23167E-04-4.78254E-05-3.19201E-05 5.71003E-05-8.87743E-19-1.92312E-18
 -1       433 4.61107E-05-4.00940E-07-1.92815E-05 3.42188E-05-1.87472E-18 1.70677E-19
 -1       434 3.74728E-05 6.06923E-06-1.77834E-05-2.09851E-05-1.54422E-18 2.47778E-18
 -1       435 6.68071E-05-1.26719E-05-2.25789E-05-6.44094E-05-9.66518E-19 3.66892E-18
 -1       436 1.03767E-04-3.57083E-05-2.87344E-05-7.30059E-05 1.07846E-18 8.85197E-18
 -1       437 1.22303E-04-4.68764E-05-3.21879E-05-5.01947E-05 4.52072E-18 8.64482E-18
 -1       438 1.19576E-04-4.63200E-05-3.13669E-05-1.99652E-05 2.65900E-18 3.23469E-18
 -1       439 1.09827E-04-4.15219E-05-2.92160E-05 9.75631E-07 3.30340E-18-2.40838E-18
 -1       440 1.02216E-04-3.74686E-05-2.76987E-05 1.13560E-05 3.62085E-18-4.26537E-18
 -1       441 9.71935E-05-3.39256E-05-2.70982E-05 1.48039E-05 2.55860E-18-3.09180E-18
 -1       442 8.49622E-05-4.50499E-05-1.71418E-05 7.32326E-05 1.59327E-18-4.65868E-19
 -1       443 1.30971E-04-6.02486E-05-3.02363E-05 6.53497E-05 3.65177E-18 2.83057E-18
 -1       444 1.61019E-04-5.76986E-05-4.40851E-05 4.56282E-05 4.11859E-18-8.87373E-19
 -1       445 8.94241E-05-1.19251E-05-3.32764E-05-1.07544E-05-1.74398E-18-2.52541E-18
 -1       446 1.76988E-04-1.91737E-05-6.75466E-05 1.05095E-05 2.73168E-18-2.01573E-18
 -1       447 1.76443E-04-1.08966E-05-7.09015E-05 1.41560E-05 3.35467E-18-7.20110E-19
 -1       448 1.69934E-04-1.72704E-05-6.56977E-05 2.23054E-05 4.14030E-18 2.93603E-19
 -1       449 1.75204E-04-4.32164E-05-5.66831E-05 1.50378E-05 2.76509E-18-8.46609E-19
 -1       450 1.63657E-04-6.18377E-05-4.36692E-05-7.56682E-06 2.74899E-18-1.89397E-18
 -1       451 1.34487E-04-6.89693E-05-2.81628E-05-2.71843E-05 3.24996E-18-2.44898E-19
 -1       452 8.65616E-05-6.17898E-05-1.07680E-05-4.12559E-05 5.12561E-19-2.31910E-18
 -1       453 4.86070E-05-4.76055E-05-4.42838E-07-3.75141E-05 3.31508E-19-7.89689E-18
 -1       454 1.53744E-05-3.58465E-05 8.40353E-06-1.23655E-05 7.28501E-19-7.42202E-18
 -1       455 1.37170E-05-3.39879E-05 8.39796E-06 1.26247E-05 1.50727E-18-4.18710E-18
 -1       456 3.53105E-05-4.25533E-05 2.82075E-06 3.62791E-05 2.31558E-19-3.22137E-18
 -1       457 7.79478E-05-5.56228E-05-9.54004E-06 4.65982E-05-4.03399E-20 2.15874E-18
 -1       458 1.28520E-04-6.50800E-05-2.72385E-05 3.40131E-05-1.02449E-18 7.24356E-18
 -1       459 1.57533E-04-5.73576E-05-4.28823E-05 1.67479E-05-1.30501E-18 5.85596E-18
 -1       460 1.73941E-04-4.15870E-05-5.66429E-05-4.27888E-07-1.21682E-18 7.12768E-18
 -1       461 1.77196E-04-2.11300E-05-6.68207E-05-1.33572E-05-3.56167E-18 8.11108E-18
 -1       462 1.76093E-04-8.94370E-06-7.15664E-05-1.50574E-05-5.35251E-18 6.23865E-18
 -1       463 1.74999E-04-1.26535E-05-6.94859E-05-1.49883E-05-5.11830E-18 6.19245E-18
 -1       464 1.70873E-04-2.79764E-05-6.12829E-05-2.00866E-05-2.81548E-18 5.96025E-18
 -1       465 1.59965E-04-5.23271E-05-4.59418E-05-4.54243E-05 1.67893E-18 8.71417E-18
 -1       466 1.28914E-04-5.70548E-05-3.07935E-05-7.02819E-05 2.46720E-18 1.08973E-17
 -1       467 8.53123E-05-4.59812E-05-1.73933E-05-7.67892E-05 2.19742E-18 7.83045E-18
 -1       468 1.77061E-04-4.01589E-05-5.84538E-05 1.92489E-05 4.24030E-18-2.59510E-18
 -1       469 9.37342E-05-2.98994E-05-2.68478E-05 7.19650E-05-1.40877E-18-3.24096E-19
 -1       470 9.44353E-05-3.05771E-05-2.73211E-05 1.50343E-05 1.89122E-18-2.30793E-18
 -1       471 5.53830E-05-2.93739E-05-1.13160E-05-6.61291E-05 2.28847E-18 4.38424E-18
 -1       472 4.46101E-05-1.88575E-05-1.13572E-05 5.34470E-05 6.85356E-19 4.32199E-19
 -1       473 1.58981E-04-4.39629E-05-4.95777E-05-1.85921E-05 5.00094E-19 4.79431E-18
 -1       474 1.13270E-04-6.63875E-05-1.98859E-05 3.96718E-05-1.13820E-20 8.69788E-18
 -1       475 9.58277E-05-2.51500E-05-3.02762E-05 6.01119E-06 2.32045E-18 1.57944E-18
 -1       476 8.95323E-05-1.33968E-05-3.26484E-05-3.92053E-06-3.35119E-19-2.78332E-18
 -1       477 9.02436E-05-1.43626E-05-3.25406E-05-5.87421E-06-8.05502E-19-2.73808E-18
 -1       478 8.90324E-05-1.27155E-05-3.27250E-05 5.46807E-08 7.25153E-19-2.78759E-18
 -1       479 8.91682E-05-1.28993E-05-3.27047E-05 2.04393E-06 1.17147E-18-2.64538E-18
 -1       480 8.95645E-05-1.34373E-05-3.26451E-05 3.99502E-06 1.62636E-18-2.28127E-18
 -1       481 9.02909E-05-1.44253E-05-3.25349E-05 5.94765E-06 2.18198E-18-1.62177E-18
 -1       482 9.14416E-05-1.60052E-05-3.23530E-05 7.77410E-06 2.57317E-18-8.62501E-19
 -1       483 9.32345E-05-1.84785E-05-3.20585E-05 9.28892E-06 2.89091E-18 3.99528E-21
 -1       484 9.51215E-05-2.65797E-05-2.93571E-05 2.86649E-06 1.78688E-18 1.36596E-18
 -1       485 9.54872E-05-2.44348E-05-3.04412E-05-5.81310E-06-1.77223E-18-6.30367E-19
 -1       486 1.48535E-04-6.32122E-05-3.65284E-05 4.70297E-05 1.15435E-18-3.11766E-18
 -1       487 1.36310E-04-5.85814E-05-3.31479E-05-6.13802E-05 3.59195E-18 1.19018E-17
 -1       488 9.52793E-05-2.62237E-05-2.95870E-05-2.88865E-06-1.34826E-18-5.04761E-19
 -1       489 9.49245E-05-2.71626E-05-2.90369E-05-1.02305E-06-1.00218E-18-4.83516E-19
 -1       490 9.46491E-05-2.76944E-05-2.86932E-05 1.00911E-07-6.58277E-19-4.84366E-19
 -1       491 9.44932E-05-2.80213E-05-2.84874E-05 7.36231E-07-6.06073E-19-4.83708E-19
 -1       492 9.44384E-05-2.82335E-05-2.83734E-05 1.05381E-06-8.00748E-19-5.93043E-19
 -1       493 9.44542E-05-2.83753E-05-2.83197E-05 1.16844E-06-6.52048E-19-8.39363E-19
 -1       494 9.45132E-05-2.84704E-05-2.83043E-05 1.15760E-06-9.30886E-19-1.15421E-18
 -1       495 9.45947E-05-2.85332E-05-2.83124E-05 1.07377E-06-1.19332E-18-9.06291E-19
 -1       496 9.46843E-05-2.85728E-05-2.83339E-05 9.52311E-07-6.65608E-19-9.35691E-19
 -1       497 9.47729E-05-2.85957E-05-2.83620E-05 8.16797E-07-2.84339E-19-5.91456E-19
 -1       498 9.48552E-05-2.86067E-05-2.83925E-05 6.82604E-07-9.32432E-20-3.77774E-19
 -1       499 9.49289E-05-2.86091E-05-2.84230E-05 5.59532E-07-6.58850E-19-2.77026E-19
 -1       500 9.49934E-05-2.86052E-05-2.84523E-05 4.53723E-07-9.37253E-20 1.10308E-19
 -1       501 9.50498E-05-2.85967E-05-2.84801E-05 3.69089E-07-2.04587E-19 8.51567E-20
 -1       502 9.50998E-05-2.85846E-05-2.85066E-05 3.08388E-07-4.06797E-19-3.79367E-19
 -1       503 9.51462E-05-2.85694E-05-2.85329E-05 2.74032E-07-4.95169E-19-4.23680E-19
 -1       504 9.51920E-05-2.85514E-05-2.85602E-05 2.68694E-07 1.15347E-19-4.59471E-19
 -1       505 9.52412E-05-2.85307E-05-2.85901E-05 2.95744E-07-2.11254E-19-1.11065E-18
 -1       506 9.52981E-05-2.85071E-05-2.86246E-05 3.59530E-07 6.12957E-19-1.06090E-18
 -1       507 9.53680E-05-2.84811E-05-2.86656E-05 4.65500E-07 1.68290E-19-1.34320E-18
 -1       508 9.54568E-05-2.84532E-05-2.87155E-05 6.20108E-07 8.72256E-20-1.21483E-18
 -1       509 9.55716E-05-2.84249E-05-2.87767E-05 8.30454E-07-5.37914E-19-1.20804E-18
 -1       510 9.57203E-05-2.83992E-05-2.88513E-05 1.10354E-06-9.10561E-19-1.39656E-18
 -1       511 9.59127E-05-2.83813E-05-2.89413E-05 1.44499E-06-2.30362E-19-7.49112E-19
 -1       512 9.61599E-05-2.83798E-05-2.90477E-05 1.85696E-06-3.56578E-19-1.35124E-18
 -1       513 9.64753E-05-2.84085E-05-2.91705E-05 2.33505E-06-6.63449E-19-1.11425E-18
 -1       514 9.68754E-05-2.84888E-05-2.93075E-05 2.86384E-06-7.96379E-19-9.20409E-19
 -1       515 9.73809E-05-2.86522E-05-2.94542E-05 3.41063E-06 1.92566E-19 9.81659E-20
 -1       516 9.80186E-05-2.89444E-05-2.96026E-05 3.91733E-06-3.63039E-21 1.39130E-18
 -1       517 9.88231E-05-2.94266E-05-2.97414E-05 4.29049E-06 2.31496E-19 1.58472E-18
 -1       518 9.98376E-05-3.01748E-05-2.98566E-05 4.39058E-06-1.00425E-18 1.00470E-18
 -1       519 1.01109E-04-3.12684E-05-2.99347E-05 4.02342E-06-3.15332E-19 1.30319E-18
 -1       520 1.02672E-04-3.27577E-05-2.99682E-05 2.94075E-06-6.17035E-19 1.29210E-18
 -1       521 1.04501E-04-3.45981E-05-2.99658E-05 8.64231E-07-7.34737E-20 1.93537E-18
 -1       522 1.06430E-04-3.65376E-05-2.99632E-05-2.44033E-06-6.11522E-19 1.56872E-19
 -1       523 1.08037E-04-3.79817E-05-3.00321E-05-6.99532E-06-7.96165E-19-5.42440E-19
 -1       524 1.08575E-04-3.79519E-05-3.02723E-05-1.23197E-05-1.60083E-18-5.28424E-20
 -1       525 1.07148E-04-3.53723E-05-3.07646E-05-1.70993E-05-8.71704E-19 1.35034E-18
 -1       526 1.03295E-04-2.98614E-05-3.14762E-05-1.92046E-05-9.78050E-19 2.56216E-19
 -1       527 9.78567E-05-2.27778E-05-3.21782E-05-1.64600E-05-2.42199E-19-1.47593E-18
 -1       528 9.29918E-05-1.71518E-05-3.25136E-05-8.66936E-06-3.07877E-20-1.93868E-18
 -1       529 9.08590E-05-1.59880E-05-3.20888E-05 1.69809E-06-1.78738E-19-3.07423E-18
 -1       530 9.15029E-05-1.94324E-05-3.09053E-05 1.04355E-05-5.67777E-19-4.72384E-18
 -1       531 1.08550E-04-2.96796E-05-3.38348E-05 9.60542E-06 1.24857E-18-2.48205E-18
 -1       532 9.41537E-05-2.76886E-05-2.84815E-05-1.29163E-07 9.05800E-19 9.47217E-19
 -1       533 9.39787E-05-2.79360E-05-2.83028E-05-7.39286E-07 6.06951E-19 5.78735E-19
 -1       534 9.39497E-05-2.81079E-05-2.82176E-05-1.03727E-06 6.32064E-19 2.58506E-19
 -1       535 9.40141E-05-2.82346E-05-2.81914E-05-1.14002E-06 8.28127E-19 2.39431E-19
 -1       536 9.41309E-05-2.83301E-05-2.82008E-05-1.12368E-06 6.19605E-19 5.77181E-19
 -1       537 9.42713E-05-2.84021E-05-2.82302E-05-1.03878E-06 5.34000E-19 4.31491E-19
 -1       538 9.44164E-05-2.84557E-05-2.82695E-05-9.18934E-07 8.83139E-19 3.28165E-19
 -1       539 9.45547E-05-2.84946E-05-2.83120E-05-7.86325E-07 6.49602E-19-3.11535E-19
 -1       540 9.46799E-05-2.85218E-05-2.83540E-05-6.55304E-07 7.08125E-19 1.85986E-19
 -1       541 9.47897E-05-2.85399E-05-2.83932E-05-5.34906E-07 5.32469E-19 7.30561E-19
 -1       542 9.48839E-05-2.85507E-05-2.84289E-05-4.30685E-07 2.94367E-19 1.09082E-18
 -1       543 9.49642E-05-2.85559E-05-2.84610E-05-3.46061E-07 3.39756E-19 2.99248E-19
 -1       544 9.50338E-05-2.85567E-05-2.84904E-05-2.83359E-07 4.01045E-19 9.90775E-20
 -1       545 9.50963E-05-2.85542E-05-2.85182E-05-2.44588E-07-3.87788E-19 7.42397E-19
 -1       546 9.51563E-05-2.85490E-05-2.85460E-05-2.32064E-07-1.19405E-19 4.27075E-19
 -1       547 9.52193E-05-2.85418E-05-2.85760E-05-2.48901E-07-5.85107E-20-5.83157E-20
 -1       548 9.52915E-05-2.85332E-05-2.86105E-05-2.99425E-07 5.13834E-19-8.24490E-19
 -1       549 9.53799E-05-2.85236E-05-2.86523E-05-3.89523E-07 4.79042E-19 7.31222E-19
 -1       550 9.54929E-05-2.85138E-05-2.87048E-05-5.26935E-07 2.59437E-19 7.01253E-19
 -1       551 9.56401E-05-2.85044E-05-2.87716E-05-7.21486E-07 1.06493E-19-3.23371E-19
 -1       552 9.58325E-05-2.84965E-05-2.88572E-05-9.85222E-07 3.38168E-20-7.53099E-19
 -1       553 9.60825E-05-2.84916E-05-2.89662E-05-1.33238E-06-1.95568E-19-4.09568E-19
 -1       554 9.64041E-05-2.84916E-05-2.91036E-05-1.77902E-06-8.98381E-19 3.97137E-19
 -1       555 9.68122E-05-2.85003E-05-2.92743E-05-2.34214E-06-1.26666E-18 1.91298E-18
 -1       556 9.73230E-05-2.85239E-05-2.94826E-05-3.03760E-06-7.24885E-19 1.15352E-18
 -1       557 9.79537E-05-2.85738E-05-2.97310E-05-3.87628E-06 4.21823E-19 6.63126E-20
 -1       558 9.87235E-05-2.86722E-05-3.00185E-05-4.85688E-06 5.18241E-19 4.04358E-20
 -1       559 9.96574E-05-2.88605E-05-3.03380E-05-5.95340E-06-3.10579E-20 9.40109E-19
 -1       560 1.00794E-04-2.92153E-05-3.06738E-05-7.09419E-06-4.04310E-19 1.35859E-18
 -1       561 1.02203E-04-2.98714E-05-3.09983E-05-8.12903E-06 3.98375E-19 1.45223E-18
 -1       562 1.04009E-04-3.10489E-05-3.12719E-05-8.78083E-06 5.99700E-19 2.34768E-18
 -1       563 1.06424E-04-3.30613E-05-3.14509E-05-8.58316E-06 1.34708E-18 2.66408E-18
 -1       564 1.09735E-04-3.62454E-05-3.15133E-05-6.82129E-06 2.11996E-18 1.15596E-18
 -1       565 1.14154E-04-4.06795E-05-3.15140E-05-2.54020E-06 1.28695E-18 7.08711E-19
 -1       566 1.19379E-04-4.55561E-05-3.16695E-05 5.14910E-06-1.25414E-18-1.58500E-19
 -1       567 1.23865E-04-4.83270E-05-3.24176E-05 1.63171E-05-1.52750E-18 1.72154E-18
 -1       568 1.24182E-04-4.44516E-05-3.42707E-05 2.77886E-05 8.38903E-19 1.08487E-18
 -1       569 1.17552E-04-3.20196E-05-3.68867E-05 3.31390E-05 2.76221E-18 2.18893E-18
 -1       570 1.09327E-04-1.79433E-05-3.94346E-05 2.36221E-05 3.30570E-18 1.58727E-18
 -1       571 1.05106E-04-1.32842E-05-3.96710E-05 4.49650E-06 1.30258E-18 1.03935E-18
 -1       572 1.07088E-04-2.12245E-05-3.70352E-05-1.04528E-05 5.31103E-19 1.39641E-18
 -1       573 1.08421E-04-3.09646E-05-3.33238E-05-1.44660E-05 3.83871E-19 2.02616E-18
 -1       574 1.36263E-04-4.56700E-05-3.91159E-05 1.68047E-06 2.62601E-18-3.76255E-18
 -1       575 1.17870E-04-5.15454E-05-2.81620E-05 6.81974E-05 3.33413E-19 1.94619E-20
 -1       576 1.25315E-04-3.86489E-05-3.73028E-05-2.35537E-06 1.13145E-18-2.76861E-19
 -1       577 1.42320E-04-5.24675E-05-3.86754E-05-2.68744E-05 2.51596E-18 3.85355E-18
 -1       578 9.85582E-05-2.64588E-05-3.08786E-05 1.47321E-05 2.34337E-18-4.34925E-18
 -1       579 9.45300E-05-2.72955E-05-2.88061E-05 9.75808E-07 1.25705E-18 1.22309E-18
 -1       580 1.53525E-04-2.82794E-05-5.42233E-05-1.82826E-06 2.39027E-18-1.64446E-18
 -1       581 9.46342E-05-2.07706E-05-3.16769E-05-9.50917E-06-2.17528E-18-1.16198E-18
 -1       582 1.41048E-04-9.01854E-07-6.08146E-05-8.34989E-06-4.24671E-18 1.01399E-18
 -1       583 1.22837E-04-7.18056E-05-2.17011E-05-2.96131E-05-2.83174E-19 1.15633E-19
 -1       584 8.91484E-05-1.28743E-05-3.27069E-05-1.93517E-06 2.84278E-19-2.69327E-18
 -1       585 1.49464E-04-2.91015E-05-5.21957E-05 3.18824E-05 3.59952E-18 2.39869E-18
 -1       586 1.47126E-04-1.00586E-05-5.94690E-05 3.88531E-06 1.68094E-18 1.15864E-18
 -1       587 2.31194E-05-2.05074E-05-4.05443E-07-9.57691E-07 2.02178E-18-5.66167E-18
 -1       588 1.62456E-04-5.44907E-05-4.63796E-05 1.78900E-05 3.31909E-18-4.33977E-18
 -1       589 1.60613E-04-5.77043E-05-4.45029E-05 1.92491E-05 4.99233E-19 4.82544E-19
 -1       590 1.52539E-04-7.24890E-05-3.43905E-05-2.63250E-06 1.06260E-18 6.49198E-19
 -1       591 7.96455E-05-5.27787E-05-1.10167E-05-4.02417E-05-2.10032E-18-2.39538E-18
 -1       592 3.99400E-05-3.14398E-05-3.01889E-06-2.90097E-05-9.97593E-19-7.86195E-18
 -1       593 3.12400E-05-2.80283E-05-7.91966E-07 2.81607E-05 2.98145E-18-3.69063E-18
 -1       594 6.51697E-05-4.46192E-05-8.23465E-06 4.44734E-05 3.57681E-18 1.63319E-19
 -1       595 1.48020E-04-6.85769E-05-3.42027E-05 1.08010E-05-2.80474E-19 7.28194E-18
 -1       596 1.57415E-04-5.36261E-05-4.48213E-05-1.04352E-05-9.09502E-19 4.84921E-18
 -1       597 1.55446E-04-3.08558E-05-5.39755E-05-2.17671E-05-3.04196E-18 3.93664E-18
 -1       598 1.38564E-04-5.70319E-06-5.77403E-05-2.11934E-05-4.31637E-18 2.24247E-18
 -1       599 1.49637E-04-1.60086E-05-5.78992E-05-3.81329E-06-3.39554E-18 9.02567E-19
 -1       600 1.40540E-04-6.60700E-06-5.82274E-05 1.73229E-05 2.95731E-18 4.20265E-18
 -1       601 9.61677E-05-2.31922E-05-3.12787E-05 9.57702E-06 2.79245E-18 2.08069E-18
 -1       602 9.13362E-05-1.59012E-05-3.23640E-05-7.66523E-06-1.31407E-18-2.35918E-18
 -1       603 1.43914E-04-2.99006E-05-4.93778E-05-3.32036E-06-5.19919E-19 1.40356E-18
 -1       604 9.40260E-05-5.59836E-05-1.59021E-05 4.20676E-05 3.09829E-18 5.66964E-18
 -1       605 1.34559E-04-7.00081E-05-2.75658E-05 2.14029E-05-1.09897E-18 6.91061E-18
 -1       606 1.35531E-04-1.24846E-05-5.33332E-05 2.57875E-05 4.25502E-18 4.89511E-18
 -1       607 9.15437E-05-1.68440E-05-3.20198E-05 2.43763E-06 1.14234E-18-2.01582E-18
 -1       608 9.12836E-05-1.64413E-05-3.20806E-05 8.39514E-07 7.87183E-19-2.44859E-18
 -1       609 9.28865E-05-1.89953E-05-3.16733E-05 5.25918E-06 1.98282E-18-9.78310E-19
 -1       610 9.39877E-05-2.09311E-05-3.13178E-05 6.13396E-06 2.23946E-18-1.96959E-19
 -1       611 9.52752E-05-2.40940E-05-3.04961E-05 5.14129E-06 2.09794E-18 3.37881E-19
 -1       612 1.41950E-04-3.99354E-05-4.42388E-05-1.81385E-06 1.47463E-18-4.30872E-18
 -1       613 9.98434E-05-1.65233E-05-3.57758E-05 1.01289E-05-1.00811E-18-2.29056E-18
 -1       614 9.54141E-05-2.56996E-05-2.98756E-05-2.43547E-06-1.10753E-18-1.00479E-18
 -1       615 9.54751E-05-2.69443E-05-2.93696E-05-8.58652E-07-8.67398E-19-8.91945E-19
 -1       616 9.54202E-05-2.77056E-05-2.90203E-05 1.43674E-07-6.95293E-19-9.88135E-19
 -1       617 9.53438E-05-2.81783E-05-2.87852E-05 7.31270E-07-8.22999E-19-1.09990E-18
 -1       618 9.52789E-05-2.84702E-05-2.86323E-05 1.03212E-06-8.65496E-19-9.67380E-19
 -1       619 9.52332E-05-2.86453E-05-2.85378E-05 1.14250E-06-6.34414E-19-8.93907E-19
 -1       620 9.52051E-05-2.87433E-05-2.84837E-05 1.13227E-06-7.40615E-19-4.53546E-19
 -1       621 9.51905E-05-2.87902E-05-2.84574E-05 1.05095E-06-7.79744E-19-7.76204E-20
 -1       622 9.51851E-05-2.88036E-05-2.84493E-05 9.32928E-07-6.16853E-19-2.77626E-19
 -1       623 9.51859E-05-2.87955E-05-2.84531E-05 8.01535E-07-3.27340E-19-5.47045E-19
 -1       624 9.51903E-05-2.87738E-05-2.84643E-05 6.72254E-07-2.99874E-19-5.65369E-19
 -1       625 9.51968E-05-2.87438E-05-2.84799E-05 5.55177E-07-2.13276E-19-1.63097E-19
 -1       626 9.52045E-05-2.87087E-05-2.84983E-05 4.56867E-07-3.65994E-19-3.37280E-20
 -1       627 9.52129E-05-2.86699E-05-2.85184E-05 3.81782E-07-1.01646E-18-1.52478E-19
 -1       628 9.52218E-05-2.86279E-05-2.85403E-05 3.33356E-07-4.84086E-19-7.09745E-19
 -1       629 9.52314E-05-2.85820E-05-2.85641E-05 3.14806E-07-4.80553E-19-1.48996E-18
 -1       630 9.52421E-05-2.85309E-05-2.85905E-05 3.29740E-07-2.78164E-19-1.72300E-18
 -1       631 9.52544E-05-2.84731E-05-2.86205E-05 3.82576E-07 2.64102E-19-1.33608E-18
 -1       632 9.52692E-05-2.84068E-05-2.86553E-05 4.78781E-07 4.87533E-19-1.77488E-18
 -1       633 9.52876E-05-2.83304E-05-2.86958E-05 6.24925E-07 4.44468E-19-1.10342E-18
 -1       634 9.53112E-05-2.82431E-05-2.87433E-05 8.28485E-07-3.32310E-19-3.13701E-19
 -1       635 9.53426E-05-2.81456E-05-2.87985E-05 1.09735E-06-9.64742E-19-5.06420E-19
 -1       636 9.53854E-05-2.80409E-05-2.88617E-05 1.43891E-06-1.63965E-19-3.69690E-19
 -1       637 9.54458E-05-2.79367E-05-2.89322E-05 1.85853E-06-4.57223E-19-2.81213E-19
 -1       638 9.55334E-05-2.78468E-05-2.90082E-05 2.35737E-06-1.18904E-19-7.85180E-19
 -1       639 9.56637E-05-2.77950E-05-2.90862E-05 2.92907E-06 2.82852E-20-1.67215E-19
 -1       640 9.58616E-05-2.78192E-05-2.91607E-05 3.55543E-06 5.39465E-19 3.88635E-19
 -1       641 9.61666E-05-2.79767E-05-2.92240E-05 4.20035E-06 3.85965E-19-7.87622E-19
 -1       642 9.66394E-05-2.83501E-05-2.92667E-05 4.80215E-06 8.05120E-19-9.38522E-19
 -1       643 9.73698E-05-2.90509E-05-2.92796E-05 5.26355E-06-1.11249E-18-2.15449E-19
 -1       644 9.84824E-05-3.02163E-05-2.92574E-05 5.43913E-06-9.00234E-19 6.45150E-19
 -1       645 1.00134E-04-3.19893E-05-2.92060E-05 5.12027E-06-1.00342E-18 3.14213E-19
 -1       646 1.02482E-04-3.44621E-05-2.91541E-05 4.02031E-06-7.48998E-19 5.20629E-19
 -1       647 1.05610E-04-3.75578E-05-2.91692E-05 1.77326E-06-1.17040E-18-2.13764E-19
 -1       648 1.09348E-04-4.08217E-05-2.93720E-05-2.01460E-06-1.63994E-18 1.42626E-19
 -1       649 1.13022E-04-4.31549E-05-2.99418E-05-7.54763E-06-1.62827E-18-3.72317E-19
 -1       650 1.15250E-04-4.27146E-05-3.10866E-05-1.43417E-05-3.36806E-19-1.01177E-18
 -1       651 1.14334E-04-3.76611E-05-3.28890E-05-2.04606E-05-6.32842E-19 1.19930E-19
 -1       652 1.09539E-04-2.78248E-05-3.50382E-05-2.25808E-05-1.52231E-18 1.15481E-18
 -1       653 1.02225E-04-1.64588E-05-3.68599E-05-1.74143E-05-1.36771E-18 4.30624E-19
 -1       654 9.75228E-05-1.05322E-05-3.73659E-05-6.14707E-06-1.04321E-18-1.59681E-18
 -1       655 9.83410E-05-1.19402E-05-3.70765E-05 2.88480E-06-2.59432E-18-2.03748E-18
 -1       656 9.50977E-05-2.77090E-05-2.88803E-05-1.37183E-07 9.91222E-19 5.01587E-19
 -1       657 9.49040E-05-2.85297E-05-2.84462E-05-1.16693E-06 6.47792E-19 5.46210E-19
 -1       658 9.49119E-05-2.86254E-05-2.84087E-05-1.15543E-06 6.64843E-19 5.06534E-19
 -1       659 9.49373E-05-2.86785E-05-2.83968E-05-1.07159E-06 8.09144E-19 4.69244E-19
 -1       660 9.49719E-05-2.87030E-05-2.84011E-05-9.50418E-07 7.76327E-19 6.10090E-19
 -1       661 9.50098E-05-2.87084E-05-2.84151E-05-8.15516E-07 3.57820E-19 6.91142E-19
 -1       662 9.50475E-05-2.87012E-05-2.84343E-05-6.82426E-07 2.01217E-19 8.97701E-19
 -1       663 9.50829E-05-2.86858E-05-2.84561E-05-5.61173E-07 2.05864E-19 9.57463E-19
 -1       664 9.51155E-05-2.86650E-05-2.84789E-05-4.58170E-07 5.76679E-19 7.45012E-19
 -1       665 9.51454E-05-2.86404E-05-2.85022E-05-3.77676E-07 6.64088E-20 1.12910E-18
 -1       666 9.51734E-05-2.86125E-05-2.85261E-05-3.22897E-07-3.93406E-19 2.00138E-18
 -1       667 9.52008E-05-2.85813E-05-2.85512E-05-2.96849E-07-2.15357E-21 1.35134E-18
 -1       668 9.52294E-05-2.85459E-05-2.85786E-05-3.03015E-07 3.01784E-19 9.35091E-19
 -1       669 9.52611E-05-2.85051E-05-2.86097E-05-3.45876E-07 6.67348E-19 2.45859E-19
 -1       670 9.52983E-05-2.84571E-05-2.86461E-05-4.31333E-07 1.42378E-19 1.33627E-19
 -1       671 9.53434E-05-2.83998E-05-2.86899E-05-5.67032E-07 3.70166E-19 3.64059E-19
 -1       672 9.53990E-05-2.83307E-05-2.87434E-05-7.62589E-07 5.42568E-19 1.42300E-18
 -1       673 9.54679E-05-2.82469E-05-2.88087E-05-1.02970E-06 2.94095E-19 1.68095E-18
 -1       674 9.55524E-05-2.81458E-05-2.88881E-05-1.38206E-06-5.03058E-19 1.11903E-18
 -1       675 9.56541E-05-2.80244E-05-2.89836E-05-1.83504E-06-1.99432E-19 7.24560E-19
 -1       676 9.57742E-05-2.78813E-05-2.90963E-05-2.40486E-06-1.17600E-18 9.98629E-19
 -1       677 9.59127E-05-2.77171E-05-2.92258E-05-3.10721E-06-1.06299E-19-6.60085E-19
 -1       678 9.60693E-05-2.75384E-05-2.93693E-05-3.95466E-06 2.89062E-19-3.79734E-19
 -1       679 9.62464E-05-2.73632E-05-2.95201E-05-4.95257E-06-5.18188E-20 6.24347E-19
 -1       680 9.64550E-05-2.72318E-05-2.96657E-05-6.09261E-06-4.19037E-19 1.38668E-18
 -1       681 9.67289E-05-2.72254E-05-2.97858E-05-7.34293E-06-3.01201E-19 6.52600E-19
 -1       682 9.71511E-05-2.74952E-05-2.98514E-05-8.63343E-06 1.66196E-19 2.45221E-19
 -1       683 9.78999E-05-2.83042E-05-2.98264E-05-9.83369E-06-2.30593E-19 1.13531E-19
 -1       684 9.93186E-05-3.00727E-05-2.96781E-05-1.07156E-05 6.92460E-19-6.37210E-19
 -1       685 1.01992E-04-3.33899E-05-2.94034E-05-1.08827E-05 2.17802E-18 7.47248E-19
 -1       686 1.06765E-04-3.88874E-05-2.90904E-05-9.64516E-06 1.54037E-18 2.00548E-18
 -1       687 1.14539E-04-4.67318E-05-2.90456E-05-5.72865E-06 1.88696E-20 2.25080E-18
 -1       688 1.25101E-04-5.50735E-05-2.99919E-05 2.48807E-06-2.23067E-18 2.22062E-18
 -1       689 1.36637E-04-5.96971E-05-3.30318E-05 1.59828E-05-6.71901E-19 5.05606E-19
 -1       690 1.24546E-04-1.39183E-05-4.79757E-05-3.70996E-06 1.61783E-18 2.58853E-18
 -1       691 1.17540E-04-2.04548E-05-4.19051E-05 7.39570E-06-9.34780E-19-1.40529E-18
 -1       692 1.23357E-04-8.37387E-06-4.99712E-05 5.88528E-06 1.51497E-18 3.53927E-18
 -1       693 9.52365E-05-2.70415E-05-2.92243E-05 9.15513E-07 1.15298E-18 4.72367E-19
 -1       694 1.32661E-04-1.92722E-05-4.91542E-05-2.65687E-05-3.81684E-18 1.53932E-18
 -1       695 9.41771E-05-2.09767E-05-3.13713E-05-7.05484E-06-1.57738E-18-1.54369E-18
 -1       696 5.51728E-05-3.08306E-05-9.83218E-06 3.40767E-05 4.65185E-18-8.42215E-19
 -1       697 4.03139E-05-2.04344E-05-7.90947E-06-1.50263E-05 4.65325E-19-4.17503E-18
 -1       698 6.67913E-05-3.64602E-05-1.24701E-05-3.18514E-05-2.79145E-18-4.04538E-18
 -1       699 9.49249E-05-2.83707E-05-2.85232E-05-1.05504E-06 8.21667E-19 3.98961E-19
 -1       700 9.49868E-05-2.81155E-05-2.86589E-05-7.46391E-07 7.71862E-19 2.98262E-19
 -1       701 9.50863E-05-2.38600E-05-3.05261E-05-4.47052E-06-1.34245E-18-1.26208E-18
 -1       702 9.53425E-05-2.59437E-05-2.97389E-05 2.59553E-06 1.47989E-18 3.53504E-19
 -1       703 1.08028E-04-6.15602E-05-1.96771E-05-3.01306E-05-1.62400E-18-1.20279E-19
 -1       704 9.20704E-05-1.76718E-05-3.18910E-05 3.94498E-06 1.71396E-18-1.55347E-18
 -1       705 1.42750E-04-4.39605E-05-4.28005E-05 3.27155E-05 2.00628E-18 3.01665E-18
 -1       706 3.70457E-05-1.85970E-05-7.28468E-06 1.47147E-05 3.36796E-18-3.02126E-18
 -1       707 1.45480E-04-6.03548E-05-3.67110E-05-9.00650E-06-5.81276E-19 3.18649E-18
 -1       708 9.20275E-05-1.76129E-05-3.18975E-05-3.89323E-06-5.62861E-19-2.30766E-18
 -1       709 1.48894E-04-6.40796E-05-3.64461E-05 1.66726E-05-6.62403E-19 5.85962E-19
 -1       710 1.37369E-04-7.12663E-05-2.83005E-05-9.07414E-06-7.82354E-19 2.06409E-18
 -1       711 1.43047E-04-3.91201E-05-4.49306E-05-2.44334E-05-1.91874E-18 2.51341E-18
 -1       712 1.19124E-04-7.41782E-07-5.13038E-05-1.16377E-05-3.69650E-18 1.26909E-19
 -1       713 1.26366E-04-7.13379E-06-5.17281E-05 1.11468E-06-3.78624E-18 6.62433E-19
 -1       714 9.12769E-05-1.64320E-05-3.20817E-05-7.82111E-07 3.73168E-19-2.39051E-18
 -1       715 9.14344E-05-4.72340E-05-1.86762E-05-2.95381E-05-1.70383E-18-1.05907E-18
 -1       716 9.28549E-05-1.89118E-05-3.16940E-05-5.28295E-06-9.94924E-19-2.19347E-18
 -1       717 1.15070E-04-9.65112E-06-4.57998E-05 1.10699E-05 1.23460E-18 2.55576E-18
 -1       718 1.38275E-04-4.82308E-05-3.89061E-05 3.00484E-05 8.15613E-19 4.84181E-18
 -1       719 1.27314E-04-3.20807E-05-4.11289E-05-9.55603E-06 8.15534E-20 2.02003E-18
 -1       720 7.69258E-05-4.16013E-05-1.47339E-05 3.77164E-05 3.75490E-18 1.32055E-18
 -1       721 1.16096E-04-8.67986E-06-4.63886E-05-2.03843E-05-3.66236E-18 1.09474E-18
 -1       722 1.39216E-04-6.48451E-05-3.18728E-05 1.95608E-06 2.03175E-19 4.30293E-18
 -1       723 1.17224E-04-6.34702E-05-2.28512E-05 2.99672E-05-4.26163E-21 5.93625E-18
 -1       724 9.15206E-05-1.68123E-05-3.20233E-05-2.37704E-06-8.54767E-20-2.19608E-18
 -1       725 9.46690E-05-2.27619E-05-3.08143E-05 3.89896E-06 1.62795E-18-4.03105E-19
 -1       726 9.55665E-05-2.54999E-05-3.00286E-05-1.79877E-06-8.09629E-19-1.28503E-18
 -1       727 9.54484E-05-2.89102E-05-2.85164E-05-9.95799E-07 7.81247E-19 1.99647E-19
 -1       728 9.58632E-05-2.68828E-05-2.95632E-05-5.74683E-07-7.25948E-19-1.00697E-18
 -1       729 9.59560E-05-2.77724E-05-2.92216E-05 2.27193E-07-7.61682E-19-8.40992E-19
 -1       730 9.59444E-05-2.83351E-05-2.89755E-05 7.03826E-07-8.60301E-19-7.92414E-19
 -1       731 9.58836E-05-2.86781E-05-2.88024E-05 9.47378E-07-7.41716E-19-8.99007E-19
 -1       732 9.58030E-05-2.88732E-05-2.86842E-05 1.03206E-06-4.22421E-19-8.77342E-19
 -1       733 9.57182E-05-2.89696E-05-2.86066E-05 1.01496E-06-5.46253E-19-4.09687E-19
 -1       734 9.56373E-05-2.90009E-05-2.85585E-05 9.37948E-07-8.45205E-19-1.56455E-19
 -1       735 9.55642E-05-2.89908E-05-2.85315E-05 8.30670E-07-4.74887E-19 5.99460E-19
 -1       736 9.55005E-05-2.89551E-05-2.85195E-05 7.13520E-07-4.30968E-19 2.43669E-20
 -1       737 9.54462E-05-2.89042E-05-2.85180E-05 6.00231E-07-3.66315E-19-1.80113E-19
 -1       738 9.54005E-05-2.88448E-05-2.85239E-05 4.99939E-07-4.28064E-19-4.43308E-20
 -1       739 9.53620E-05-2.87801E-05-2.85351E-05 4.18796E-07-9.54211E-19-1.43631E-19
 -1       740 9.53289E-05-2.87112E-05-2.85504E-05 3.61247E-07-9.93643E-19 5.63602E-20
 -1       741 9.52991E-05-2.86376E-05-2.85692E-05 3.30988E-07-6.24580E-19 1.78239E-19
 -1       742 9.52704E-05-2.85574E-05-2.85913E-05 3.31679E-07-1.39827E-19 7.63717E-19
 -1       743 9.52400E-05-2.84677E-05-2.86167E-05 3.67503E-07 4.31897E-20 8.19640E-19
 -1       744 9.52054E-05-2.83650E-05-2.86459E-05 4.43519E-07 9.72206E-20 2.92434E-19
 -1       745 9.51635E-05-2.82459E-05-2.86790E-05 5.65843E-07 1.12840E-18 1.01138E-19
 -1       746 9.51115E-05-2.81072E-05-2.87161E-05 7.41658E-07 5.02615E-19 5.22775E-20
 -1       747 9.50468E-05-2.79470E-05-2.87570E-05 9.78991E-07-4.42836E-19 6.35381E-19
 -1       748 9.49678E-05-2.77659E-05-2.88008E-05 1.28623E-06-4.99208E-19 8.79161E-19
 -1       749 9.48749E-05-2.75685E-05-2.88455E-05 1.67126E-06-8.23413E-19 2.76238E-19
 -1       750 9.47720E-05-2.73662E-05-2.88881E-05 2.14021E-06-4.83207E-19 9.59570E-20
 -1       751 9.46697E-05-2.71806E-05-2.89238E-05 2.69566E-06-4.09837E-19-7.36250E-19
 -1       752 9.45887E-05-2.70482E-05-2.89458E-05 3.33420E-06-2.17287E-19-1.34023E-19
 -1       753 9.45667E-05-2.70265E-05-2.89457E-05 4.04327E-06-5.87415E-19-1.26554E-18
 -1       754 9.46666E-05-2.72018E-05-2.89134E-05 4.79700E-06 1.77722E-19-1.32274E-18
 -1       755 9.49884E-05-2.76967E-05-2.88392E-05 5.55024E-06-4.64745E-19-1.89682E-18
 -1       756 9.56830E-05-2.86758E-05-2.87173E-05 6.22905E-06 9.82046E-20-7.65553E-19
 -1       757 9.69653E-05-3.03427E-05-2.85526E-05 6.71395E-06-6.20337E-19 3.84298E-20
 -1       758 9.91174E-05-3.29155E-05-2.83730E-05 6.80927E-06-6.24313E-19 1.89376E-18
 -1       759 1.02458E-04-3.65513E-05-2.82479E-05 6.19060E-06-1.48104E-18 1.48724E-18
 -1       760 1.07236E-04-4.11749E-05-2.83155E-05 4.33657E-06-1.07260E-18 4.31187E-19
 -1       761 1.13359E-04-4.61275E-05-2.88099E-05 4.80322E-07-1.15609E-18 1.23223E-18
 -1       762 1.19785E-04-4.95928E-05-3.00737E-05-6.07750E-06-1.56534E-18 1.82036E-18
 -1       763 1.24159E-04-4.83274E-05-3.25256E-05-1.49826E-05 8.42798E-20 2.36521E-19
 -1       764 1.23304E-04-3.87639E-05-3.63077E-05-2.32727E-05-3.63781E-19 8.51932E-19
 -1       765 9.55011E-05-2.88722E-05-2.85553E-05-1.07616E-06 7.30248E-19 1.12469E-19
 -1       766 9.55619E-05-2.87754E-05-2.86228E-05-1.09162E-06 7.72582E-19 3.81335E-19
 -1       767 9.54041E-05-2.89104E-05-2.84974E-05-8.82326E-07 3.64663E-19 6.25405E-19
 -1       768 9.53679E-05-2.88868E-05-2.84919E-05-7.57550E-07 2.93846E-19 4.04501E-19
 -1       769 9.53389E-05-2.88490E-05-2.84957E-05-6.36024E-07-5.68616E-20 6.34707E-19
 -1       770 9.53160E-05-2.88029E-05-2.85056E-05-5.27344E-07 2.11176E-19 4.67222E-19
 -1       771 9.52980E-05-2.87518E-05-2.85198E-05-4.37891E-07 6.56801E-20 1.39983E-18
 -1       772 9.52840E-05-2.86970E-05-2.85373E-05-3.72173E-07-5.57956E-20 1.01441E-18
 -1       773 9.52725E-05-2.86382E-05-2.85576E-05-3.33889E-07 9.33324E-22 7.26414E-19
 -1       774 9.52625E-05-2.85737E-05-2.85809E-05-3.26718E-07 3.03650E-19 3.59770E-19
 -1       775 9.52525E-05-2.85010E-05-2.86077E-05-3.54922E-07 4.59972E-19 1.00087E-18
 -1       776 9.52407E-05-2.84167E-05-2.86388E-05-4.23839E-07 4.55253E-19 1.42052E-18
 -1       777 9.52250E-05-2.83163E-05-2.86751E-05-5.40221E-07-1.48334E-19 9.87275E-19
 -1       778 9.52026E-05-2.81948E-05-2.87176E-05-7.12443E-07-5.14391E-20 1.06699E-18
 -1       779 9.51698E-05-2.80466E-05-2.87670E-05-9.50573E-07 4.51250E-19 7.32066E-19
 -1       780 9.51215E-05-2.78653E-05-2.88240E-05-1.26627E-06 4.11252E-19 1.09827E-18
 -1       781 9.50507E-05-2.76447E-05-2.88881E-05-1.67243E-06-5.02887E-19 2.11441E-19
 -1       782 9.49483E-05-2.73789E-05-2.89581E-05-2.18256E-06-9.28592E-19-5.25044E-19
 -1       783 9.48029E-05-2.70642E-05-2.90307E-05-2.80975E-06-3.13238E-19-5.84257E-19
 -1       784 9.46010E-05-2.67013E-05-2.90996E-05-3.56525E-06 3.80312E-19 4.01593E-19
 -1       785 9.43290E-05-2.63010E-05-2.91545E-05-4.45671E-06-6.51638E-19-8.44499E-20
 -1       786 9.39785E-05-2.58925E-05-2.91793E-05-5.48640E-06-3.32368E-19-6.69303E-19
 -1       787 9.35575E-05-2.55392E-05-2.91502E-05-6.65007E-06-7.19420E-20-1.93541E-19
 -1       788 9.31115E-05-2.53636E-05-2.90342E-05-7.93744E-06-5.74339E-19-3.78281E-19
 -1       789 9.27633E-05-2.55853E-05-2.87900E-05-9.33545E-06 5.10648E-19-6.48094E-19
 -1       790 9.27779E-05-2.65744E-05-2.83726E-05-1.08336E-05-8.82761E-20-1.09609E-18
 -1       791 9.36730E-05-2.89218E-05-2.77501E-05-1.24130E-05 2.20441E-19 5.20888E-19
 -1       792 9.63671E-05-3.34806E-05-2.69436E-05-1.39587E-05 4.73596E-19 1.69343E-18
 -1       793 1.02208E-04-4.11939E-05-2.61091E-05-1.50820E-05 3.47912E-21 2.06557E-18
 -1       794 1.13446E-04-5.29452E-05-2.59331E-05-1.42790E-05-4.66278E-19 1.89063E-18
 -1       795 5.91345E-05-2.50004E-05-1.42619E-05-2.07798E-05-8.81086E-19-3.10467E-18
 -1       796 9.56947E-05-2.69154E-05-2.94774E-05 6.81984E-07 1.00624E-18 1.27400E-19
 -1       797 9.57279E-05-2.77479E-05-2.91343E-05-2.05867E-07 9.49566E-19 1.18371E-19
 -1       798 1.08525E-04-5.46891E-06-4.45501E-05-2.65223E-07-2.94577E-18-9.49670E-19
 -1       799 9.56897E-05-2.82697E-05-2.88943E-05-7.29596E-07 5.88372E-19-2.11571E-20
 -1       800 9.56276E-05-2.85896E-05-2.87306E-05-9.96978E-07 6.14423E-19 1.65962E-19
 -1       801 5.51574E-05-2.27077E-05-1.35298E-05 2.24302E-05 3.29524E-18-1.02343E-18
 -1       802 4.55460E-05-1.63498E-05-1.21274E-05 1.91265E-07 1.50250E-18-2.35523E-18
 -1       803 1.33604E-04-4.65481E-05-3.75353E-05-2.09596E-05 6.13212E-19 4.64619E-18
 -1       804 9.52051E-05-2.44714E-05-3.03144E-05 3.41654E-06 1.53668E-18 1.41470E-19
 -1       805 1.26433E-04-2.67933E-05-4.30455E-05-2.71818E-05-1.13539E-18 3.73094E-18
 -1       806 1.22012E-04-6.22538E-05-2.54919E-05-1.52286E-05-1.09783E-18 1.33092E-18
 -1       807 9.31920E-05-1.97702E-05-3.14677E-05 1.23131E-06 8.36063E-19-1.96211E-18
 -1       808 7.73679E-05-3.38178E-05-1.84583E-05-2.43377E-05-1.25624E-18-3.39742E-18
 -1       809 9.40151E-05-2.13456E-05-3.11451E-05 3.30234E-06 1.43897E-18-1.08958E-18
 -1       810 9.55463E-05-2.59291E-05-2.98374E-05 1.83443E-06 1.27195E-18 1.61945E-19
 -1       811 9.90833E-05-5.16820E-05-2.00948E-05 3.28145E-05 1.51414E-18 3.21695E-18
 -1       812 1.28115E-04-6.37107E-05-2.76337E-05 1.35925E-05-4.99425E-19 7.14794E-18
 -1       813 6.93220E-05-3.06977E-05-1.63083E-05 2.85673E-05 2.93136E-18-4.09077E-19
 -1       814 9.49994E-05-2.36255E-05-3.05880E-05-3.31086E-06-1.00978E-18-1.56055E-18
 -1       815 9.30815E-05-1.95718E-05-3.15054E-05 1.99193E-08 5.42990E-19-2.16439E-18
 -1       816 9.35096E-05-2.03569E-05-3.13524E-05 2.35957E-06 1.13899E-18-1.32741E-18
 -1       817 9.39813E-05-2.12931E-05-3.11555E-05-3.25818E-06-6.71548E-19-1.92656E-18
 -1       818 9.34821E-05-2.03185E-05-3.13576E-05-2.31080E-06-3.78669E-19-1.94266E-18
 -1       819 9.61312E-05-2.87908E-05-2.88602E-05-8.83008E-07 5.77196E-19-6.44873E-19
 -1       820 9.61862E-05-2.69858E-05-2.96572E-05-2.83125E-07-4.86545E-19-1.09894E-18
 -1       821 9.63552E-05-2.79223E-05-2.93285E-05 2.97072E-07-6.45231E-19-8.74631E-19
 -1       822 9.63757E-05-2.85164E-05-2.90826E-05 6.41379E-07-8.66707E-19-5.32129E-19
 -1       823 9.63119E-05-2.88737E-05-2.89021E-05 8.11372E-07-7.91347E-19-5.70694E-19
 -1       824 9.62044E-05-2.90677E-05-2.87729E-05 8.62042E-07-3.85038E-19-9.49805E-19
 -1       825 9.60787E-05-2.91516E-05-2.86830E-05 8.36416E-07-4.78918E-19-9.35521E-19
 -1       826 9.59507E-05-2.91634E-05-2.86231E-05 7.66667E-07-2.20653E-19-3.24415E-19
 -1       827 9.58294E-05-2.91298E-05-2.85856E-05 6.75734E-07-7.95813E-19-4.82618E-19
 -1       828 9.57194E-05-2.90687E-05-2.85646E-05 5.79565E-07-4.46948E-19-2.60239E-19
 -1       829 9.56221E-05-2.89918E-05-2.85559E-05 4.89063E-07-1.49145E-19-2.94495E-19
 -1       830 9.55370E-05-2.89058E-05-2.85562E-05 4.11598E-07-4.96960E-19-4.66274E-19
 -1       831 9.54618E-05-2.88137E-05-2.85635E-05 3.52312E-07-9.57564E-19 6.60260E-20
 -1       832 9.53934E-05-2.87158E-05-2.85761E-05 3.15202E-07-6.87021E-19 9.64004E-19
 -1       833 9.53276E-05-2.86104E-05-2.85931E-05 3.03785E-07-7.64475E-20 1.36587E-18
 -1       834 9.52598E-05-2.84939E-05-2.86140E-05 3.21772E-07-2.17394E-19 1.03283E-18
 -1       835 9.51843E-05-2.83618E-05-2.86382E-05 3.73504E-07 4.77627E-19 6.34189E-19
 -1       836 9.50951E-05-2.82090E-05-2.86655E-05 4.64217E-07 1.64924E-19 1.11156E-18
 -1       837 9.49857E-05-2.80304E-05-2.86951E-05 6.00207E-07 5.99986E-19 6.42288E-20
 -1       838 9.48493E-05-2.78215E-05-2.87262E-05 7.88854E-07 4.90816E-19-5.88318E-19
 -1       839 9.46794E-05-2.75799E-05-2.87569E-05 1.03851E-06-2.64902E-19-1.32166E-19
 -1       840 9.44707E-05-2.73064E-05-2.87847E-05 1.35819E-06-9.39477E-19-2.23129E-19
 -1       841 9.42207E-05-2.70081E-05-2.88054E-05 1.75715E-06-5.54495E-19-4.01795E-20
 -1       842 9.39318E-05-2.67008E-05-2.88133E-05 2.24426E-06-5.52224E-19-2.11387E-19
 -1       843 9.36158E-05-2.64142E-05-2.88007E-05 2.82728E-06-1.10918E-19 3.10707E-21
 -1       844 9.32982E-05-2.61971E-05-2.87576E-05 3.51219E-06-7.68421E-19 2.78218E-19
 -1       845 9.30274E-05-2.61251E-05-2.86724E-05 4.30236E-06-6.41558E-19 2.10488E-19
 -1       846 9.28852E-05-2.63097E-05-2.85323E-05 5.19766E-06-1.32132E-18-1.69709E-18
 -1       847 9.30025E-05-2.69078E-05-2.83263E-05 6.19182E-06 1.10385E-18-1.90917E-18
 -1       848 9.35809E-05-2.81312E-05-2.80497E-05 7.26503E-06 6.51861E-19-5.20236E-19
 -1       849 9.49177E-05-3.02508E-05-2.77143E-05 8.36321E-06 7.63719E-19 1.39567E-18
 -1       850 9.74335E-05-3.35829E-05-2.73657E-05 9.34716E-06-1.93889E-18 1.67948E-18
 -1       851 1.01676E-04-3.84196E-05-2.71120E-05 9.88206E-06-1.82291E-18 1.96262E-18
 -1       852 1.08203E-04-4.48060E-05-2.71736E-05 9.21633E-06-2.81193E-19 1.96554E-18
 -1       853 1.17318E-04-5.22035E-05-2.78931E-05 6.01425E-06-2.02120E-19 3.71584E-18
 -1       854 9.58199E-05-2.90948E-05-2.85965E-05-8.48477E-07 2.79989E-19 6.06518E-19
 -1       855 9.60356E-05-2.89850E-05-2.87360E-05-9.46617E-07 7.51082E-19-4.94460E-19
 -1       856 9.56290E-05-2.90215E-05-2.85461E-05-6.42560E-07-4.36690E-19 1.08428E-18
 -1       857 9.55504E-05-2.89563E-05-2.85403E-05-5.41253E-07-1.57390E-19 1.10940E-18
 -1       858 9.54827E-05-2.88823E-05-2.85430E-05-4.53291E-07-2.60179E-19 1.28643E-18
 -1       859 9.54241E-05-2.88027E-05-2.85520E-05-3.84300E-07 1.30712E-19 1.09551E-18
 -1       860 9.53720E-05-2.87181E-05-2.85660E-05-3.38501E-07 3.51343E-19 1.15567E-18
 -1       861 9.53233E-05-2.86270E-05-2.85841E-05-3.19648E-07 4.53156E-19 8.56762E-19
 -1       862 9.52740E-05-2.85261E-05-2.86062E-05-3.31573E-07 1.47397E-19 1.09957E-18
 -1       863 9.52194E-05-2.84110E-05-2.86322E-05-3.78751E-07 7.25776E-19 1.35339E-18
 -1       864 9.51540E-05-2.82757E-05-2.86621E-05-4.66640E-07 1.46588E-19 1.33642E-18
 -1       865 9.50709E-05-2.81135E-05-2.86960E-05-6.01862E-07 5.65781E-20 1.20078E-18
 -1       866 9.49620E-05-2.79165E-05-2.87338E-05-7.92243E-07 1.93930E-19 4.30580E-19
 -1       867 9.48170E-05-2.76763E-05-2.87746E-05-1.04667E-06 3.00403E-19 3.10378E-19
 -1       868 9.46233E-05-2.73840E-05-2.88168E-05-1.37473E-06-3.71930E-19 8.67216E-19
 -1       869 9.43654E-05-2.70310E-05-2.88576E-05-1.78613E-06-2.39903E-19-2.37851E-19
 -1       870 9.40244E-05-2.66101E-05-2.88918E-05-2.28983E-06-4.14175E-19 1.87994E-19
 -1       871 9.35781E-05-2.61177E-05-2.89115E-05-2.89313E-06 6.91690E-20-9.50912E-19
 -1       872 9.30013E-05-2.55572E-05-2.89046E-05-3.60096E-06-5.60873E-19 5.99834E-19
 -1       873 9.22688E-05-2.49451E-05-2.88530E-05-4.41608E-06-5.28072E-19-3.24434E-19
 -1       874 9.13601E-05-2.43204E-05-2.87312E-05-5.34187E-06-1.08619E-18-3.94819E-19
 -1       875 9.02703E-05-2.37611E-05-2.85038E-05-6.38979E-06-3.29157E-20 3.02154E-19
 -1       876 8.90303E-05-2.34075E-05-2.81239E-05-7.59543E-06-2.22151E-20-5.77594E-19
 -1       877 8.77419E-05-2.34992E-05-2.75327E-05-9.04622E-06 5.79074E-20-3.64058E-19
 -1       878 8.66270E-05-2.44178E-05-2.66617E-05-1.09308E-05-1.25714E-18 4.05623E-19
 -1       879 8.61899E-05-2.68238E-05-2.54422E-05-1.35711E-05-6.54963E-19 4.17509E-19
 -1       880 8.73407E-05-3.17343E-05-2.38091E-05-1.73908E-05 1.51291E-20-8.13663E-19
 -1       881 9.60510E-05-2.69540E-05-2.96132E-05 3.89177E-07 9.94281E-19-3.72497E-19
 -1       882 1.33514E-04-5.38274E-05-3.42159E-05-1.36696E-05 1.28339E-18 4.51238E-18
 -1       883 9.31773E-05-1.97528E-05-3.14698E-05-1.18758E-06 9.96624E-20-1.78432E-18
 -1       884 9.61852E-05-2.78613E-05-2.92817E-05-2.84009E-07 8.84310E-19-2.01819E-19
 -1       885 1.30432E-04-5.77728E-05-3.11804E-05-3.84597E-06-6.57617E-19 4.51439E-18
 -1       886 9.57192E-05-2.90714E-05-2.85633E-05-7.49008E-07 3.81756E-19 8.40366E-19
 -1       887 9.61930E-05-2.84404E-05-2.90369E-05-6.83284E-07 4.12011E-19-3.78353E-19
 -1       888 9.59277E-05-2.90744E-05-2.86514E-05-9.23040E-07 4.49025E-19-7.39619E-20
 -1       889 5.80771E-05-1.80545E-05-1.69751E-05 9.37100E-06 1.91253E-18 3.80887E-19
 -1       890 9.57771E-05-2.55764E-05-3.00857E-05-1.16065E-06-5.41299E-19-1.48940E-18
 -1       891 5.82929E-05-1.83439E-05-1.69326E-05-7.47945E-06 1.19861E-18-1.29945E-18
 -1       892 9.31103E-05-3.96160E-05-2.28391E-05-2.09633E-05-4.54929E-19-1.04588E-18
 -1       893 6.85652E-05-2.33764E-05-1.92443E-05-1.50948E-05 4.14032E-19-2.21452E-18
 -1       894 9.52368E-05-2.42162E-05-3.04392E-05 2.26262E-06 1.15485E-18-5.72270E-19
 -1       895 9.56841E-05-2.55488E-05-3.00566E-05 1.42272E-06 1.03270E-18-4.04920E-19
 -1       896 1.15138E-04-5.74767E-05-2.47593E-05 2.12573E-05-8.15362E-19 6.67887E-18
 -1       897 8.64991E-05-4.00499E-05-1.97777E-05 2.92838E-05 2.17556E-18 1.57049E-18
 -1       898 9.51097E-05-2.37613E-05-3.05771E-05-2.07638E-06-6.12726E-19-1.66096E-18
 -1       899 9.48205E-05-2.29620E-05-3.07958E-05-1.52869E-06-3.52250E-19-1.60905E-18
 -1       900 9.45303E-05-2.22647E-05-3.09711E-05 4.30058E-07 6.01198E-19-1.97677E-18
 -1       901 6.48066E-05-2.21504E-05-1.81454E-05 1.68774E-05 1.68322E-18-9.81228E-19
 -1       902 9.46702E-05-2.25991E-05-3.08884E-05 1.21268E-06 1.04006E-18-1.24909E-18
 -1       903 9.49263E-05-2.32551E-05-3.07170E-05 1.86145E-06 1.16111E-18-1.17177E-18
 -1       904 9.66578E-05-2.81455E-05-2.93625E-05 3.15911E-07-5.06382E-19-5.15276E-19
 -1       905 9.66767E-05-2.87194E-05-2.91246E-05 5.30501E-07-6.99014E-19-5.14053E-19
 -1       906 9.65965E-05-2.90558E-05-2.89460E-05 6.29193E-07-6.25258E-19-3.35689E-19
 -1       907 9.64629E-05-2.92274E-05-2.88152E-05 6.48906E-07-2.86678E-19-2.16507E-19
 -1       908 9.63057E-05-2.92875E-05-2.87220E-05 6.18997E-07-3.20091E-20-8.22937E-21
 -1       909 9.61444E-05-2.92754E-05-2.86581E-05 5.61309E-07-4.09098E-19 4.35988E-19
 -1       910 9.59903E-05-2.92183E-05-2.86166E-05 4.91494E-07-7.00224E-19 5.77333E-19
 -1       911 9.58489E-05-2.91342E-05-2.85920E-05 4.20640E-07-3.03709E-19 5.73331E-19
 -1       912 9.57222E-05-2.90345E-05-2.85804E-05 3.56370E-07-2.46299E-20 2.32561E-19
 -1       913 9.56090E-05-2.89256E-05-2.85786E-05 3.03828E-07-4.63227E-19 5.08489E-19
 -1       914 9.55059E-05-2.88091E-05-2.85843E-05 2.66894E-07-2.91453E-19 7.30551E-19
 -1       915 9.54084E-05-2.86845E-05-2.85960E-05 2.48717E-07 3.30728E-19 1.59939E-18
 -1       916 9.53101E-05-2.85483E-05-2.86122E-05 2.52266E-07 3.68674E-20 2.31920E-18
 -1       917 9.52040E-05-2.83955E-05-2.86322E-05 2.80958E-07-2.52818E-19 2.51404E-18
 -1       918 9.50817E-05-2.82200E-05-2.86550E-05 3.38846E-07 3.25814E-19 1.77905E-18
 -1       919 9.49342E-05-2.80151E-05-2.86796E-05 4.30872E-07 2.47857E-20 1.51461E-18
 -1       920 9.47513E-05-2.77743E-05-2.87045E-05 5.63081E-07-9.68191E-20 1.23614E-18
 -1       921 9.45226E-05-2.74919E-05-2.87275E-05 7.42750E-07-1.31915E-19 8.21993E-19
 -1       922 9.42380E-05-2.71652E-05-2.87455E-05 9.78491E-07-2.44699E-19 5.17415E-19
 -1       923 9.38884E-05-2.67958E-05-2.87540E-05 1.28037E-06-9.28052E-19 7.07589E-19
 -1       924 9.34681E-05-2.63926E-05-2.87467E-05 1.66009E-06-5.63769E-19 6.18458E-19
 -1       925 9.29772E-05-2.59754E-05-2.87151E-05 2.13144E-06 3.62155E-19 9.44578E-19
 -1       926 9.24257E-05-2.55797E-05-2.86484E-05 2.71105E-06 1.68887E-19 1.33914E-18
 -1       927 9.18390E-05-2.52625E-05-2.85329E-05 3.42002E-06-9.17015E-19 2.61549E-18
 -1       928 9.12662E-05-2.51105E-05-2.83526E-05 4.28635E-06-1.77776E-18 2.04006E-18
 -1       929 9.07917E-05-2.52483E-05-2.80903E-05 5.34853E-06-8.90436E-19 1.73213E-18
 -1       930 9.05525E-05-2.58511E-05-2.77294E-05 6.65895E-06 1.77280E-18 6.18943E-19
 -1       931 9.07652E-05-2.71596E-05-2.72598E-05 8.28313E-06 2.20716E-18 1.61745E-18
 -1       932 9.17716E-05-2.94997E-05-2.66875E-05 1.02847E-05 7.93769E-20 1.89881E-18
 -1       933 9.41058E-05-3.33036E-05-2.60609E-05 1.26529E-05-1.05042E-18 3.18401E-18
 -1       934 9.85981E-05-3.91261E-05-2.54923E-05 1.52578E-05-4.46319E-19 3.64227E-18
 -1       935 1.06182E-04-4.73142E-05-2.51561E-05 1.73117E-05 1.71723E-18 4.89407E-18
 -1       936 9.59334E-05-2.57662E-05-3.00722E-05 8.41947E-07 9.63942E-19-1.28744E-18
 -1       937 9.64788E-05-2.89800E-05-2.89280E-05-7.20423E-07 5.82407E-19-4.40358E-19
 -1       938 9.56839E-05-2.90191E-05-2.85706E-05-4.17655E-07-2.53723E-19 6.74673E-19
 -1       939 9.57979E-05-2.91087E-05-2.85811E-05-4.93825E-07-2.85845E-19 1.06041E-18
 -1       940 9.54926E-05-2.88148E-05-2.85762E-05-3.08027E-07 2.38028E-19 5.54220E-20
 -1       941 9.54084E-05-2.87018E-05-2.85885E-05-2.82463E-07 4.36741E-19-9.12403E-20
 -1       942 9.53251E-05-2.85787E-05-2.86056E-05-2.80904E-07 4.97332E-19 5.48285E-19
 -1       943 9.52361E-05-2.84403E-05-2.86268E-05-3.06777E-07 1.58661E-19 7.03144E-19
 -1       944 9.51335E-05-2.82802E-05-2.86514E-05-3.64130E-07 5.18589E-19 1.03099E-18
 -1       945 9.50081E-05-2.80904E-05-2.86790E-05-4.57675E-07 2.76949E-19 1.29995E-18
 -1       946 9.48488E-05-2.78621E-05-2.87086E-05-5.92827E-07 8.59204E-20 8.87226E-19
 -1       947 9.46423E-05-2.75853E-05-2.87387E-05-7.75540E-07 5.94912E-19 1.37210E-18
 -1       948 9.43728E-05-2.72498E-05-2.87670E-05-1.01193E-06 3.21286E-19 2.00859E-19
 -1       949 9.40213E-05-2.68455E-05-2.87897E-05-1.30765E-06 1.88533E-20-3.06855E-19
 -1       950 9.35654E-05-2.63634E-05-2.88009E-05-1.66711E-06-5.00946E-19-3.37055E-19
 -1       951 9.29786E-05-2.57974E-05-2.87920E-05-2.09250E-06-6.90117E-19-1.72724E-19
 -1       952 9.22305E-05-2.51464E-05-2.87504E-05-2.58315E-06-8.97485E-19 1.08572E-18
 -1       953 9.12865E-05-2.44178E-05-2.86581E-05-3.13569E-06-8.57782E-19 8.87508E-19
 -1       954 9.01086E-05-2.36325E-05-2.84898E-05-3.74649E-06-7.76608E-19 1.54487E-18
 -1       955 8.86567E-05-2.28321E-05-2.82106E-05-4.41879E-06-1.04523E-18 1.95393E-18
 -1       956 8.68908E-05-2.20886E-05-2.77726E-05-5.17841E-06 2.14637E-19 1.72556E-18
 -1       957 8.47745E-05-2.15176E-05-2.71105E-05-6.10216E-06-1.05328E-19 1.36284E-18
 -1       958 8.22773E-05-2.12986E-05-2.61360E-05-7.37454E-06-5.36555E-19 6.06896E-19
 -1       959 7.93536E-05-2.16818E-05-2.47130E-05-9.41797E-06-4.92177E-19-3.88349E-19
 -1       960 7.61124E-05-2.31415E-05-2.26734E-05-1.26245E-05 8.75226E-19-1.19763E-18
 -1       961 9.45259E-05-2.22600E-05-3.09713E-05-3.99142E-07 1.53066E-19-1.61491E-18
 -1       962 9.65320E-05-2.80545E-05-2.93474E-05-3.26909E-07 7.24108E-19-7.47353E-19
 -1       963 9.46440E-05-2.25231E-05-3.09082E-05-9.96384E-07-4.09059E-20-1.46989E-18
 -1       964 9.55830E-05-2.89203E-05-2.85697E-05-3.54281E-07 2.31816E-19 4.08340E-19
 -1       965 9.63604E-05-2.71480E-05-2.96631E-05 1.35712E-07 6.24077E-19-7.26893E-19
 -1       966 9.56839E-05-2.49255E-05-3.03250E-05-9.49155E-07-2.47657E-19-1.36532E-18
 -1       967 9.64735E-05-2.72344E-05-2.96739E-05-6.00780E-08-2.22472E-19-7.67373E-19
 -1       968 9.61783E-05-2.62399E-05-2.99736E-05-4.50552E-07-7.93664E-20-1.06122E-18
 -1       969 9.65513E-05-2.86352E-05-2.91069E-05-5.93369E-07 3.99578E-19-7.03048E-19
 -1       970 6.44457E-05-1.77257E-05-1.99461E-05 2.21026E-07 1.85367E-18-4.37142E-19
 -1       971 7.84536E-05-2.80245E-05-2.15823E-05-1.77008E-05-4.82746E-19-2.20996E-18
 -1       972 9.55066E-05-2.46155E-05-3.03794E-05 1.33507E-06 1.00249E-18-1.37204E-18
 -1       973 6.86899E-05-1.94284E-05-2.11073E-05-7.30835E-06 1.34516E-18 1.28024E-19
 -1       974 9.59258E-05-2.91827E-05-2.86041E-05-5.76558E-07-2.78355E-19 8.61204E-19
 -1       975 9.55572E-05-2.43425E-05-3.05201E-05 1.21763E-08 2.80512E-19-1.35819E-18
 -1       976 9.60660E-05-2.92297E-05-2.86441E-05-6.56732E-07 1.47464E-19 5.60250E-20
 -1       977 6.60081E-05-1.86917E-05-2.01949E-05 6.90399E-06 1.49842E-18-1.23629E-18
 -1       978 9.63566E-05-2.91610E-05-2.87981E-05-7.51434E-07 3.19995E-19-2.19159E-19
 -1       979 7.59097E-05-2.87751E-05-2.01172E-05 2.18127E-05 1.12030E-18-2.87425E-19
 -1       980 9.62132E-05-2.92317E-05-2.87064E-05-7.21465E-07 4.70232E-21-2.01477E-20
 -1       981 9.55960E-05-2.44755E-05-3.04792E-05 4.90270E-07 7.41905E-19-1.20709E-18
 -1       982 9.58824E-05-2.91480E-05-2.86004E-05-3.29790E-07 2.32518E-20 2.15516E-19
 -1       983 9.68723E-05-2.84155E-05-2.93388E-05 2.58333E-07-5.91592E-19-7.15869E-19
 -1       984 9.68612E-05-2.89258E-05-2.91153E-05 3.65241E-07-5.32551E-19-4.03756E-20
 -1       985 9.67537E-05-2.92130E-05-2.89461E-05 4.08126E-07-4.38560E-19-2.16986E-20
 -1       986 9.65947E-05-2.93453E-05-2.88211E-05 4.07578E-07-2.96378E-20 1.20800E-19
 -1       987 9.64141E-05-2.93737E-05-2.87316E-05 3.81821E-07-2.39173E-20 3.48553E-19
 -1       988 9.62318E-05-2.93358E-05-2.86697E-05 3.41765E-07-2.00782E-19 8.58191E-19
 -1       989 9.60580E-05-2.92563E-05-2.86293E-05 2.96923E-07-6.12240E-19 7.50687E-19
 -1       990 9.58987E-05-2.91525E-05-2.86055E-05 2.53590E-07-1.95052E-19 6.19448E-19
 -1       991 9.57545E-05-2.90344E-05-2.85943E-05 2.16075E-07-3.90768E-19 2.94143E-19
 -1       992 9.56238E-05-2.89070E-05-2.85929E-05 1.87051E-07-2.38062E-19 5.38577E-19
 -1       993 9.55015E-05-2.87704E-05-2.85990E-05 1.69571E-07 7.50161E-19 1.13942E-18
 -1       994 9.53815E-05-2.86228E-05-2.86109E-05 1.65007E-07 5.34110E-19 1.18562E-18
 -1       995 9.52555E-05-2.84587E-05-2.86272E-05 1.75985E-07-3.90190E-20 1.32881E-18
 -1       996 9.51143E-05-2.82721E-05-2.86467E-05 2.05152E-07-9.37243E-20 2.05859E-18
 -1       997 9.49471E-05-2.80551E-05-2.86680E-05 2.55773E-07-2.23300E-19 1.05883E-18
 -1       998 9.47419E-05-2.77998E-05-2.86895E-05 3.32067E-07-4.05212E-19 9.68615E-19
 -1       999 9.44855E-05-2.74982E-05-2.87089E-05 4.39430E-07 6.41348E-20 9.44466E-19
 -1      1000 9.41640E-05-2.71440E-05-2.87230E-05 5.84746E-07-5.02548E-19 1.34957E-18
 -1      1001 9.37634E-05-2.67340E-05-2.87271E-05 7.76825E-07-1.48263E-21 1.14718E-18
 -1      1002 9.32707E-05-2.62699E-05-2.87149E-05 1.02702E-06-4.94614E-19 1.72785E-18
 -1      1003 9.26757E-05-2.57615E-05-2.86778E-05 1.35019E-06-3.59071E-19 2.40115E-18
 -1      1004 9.19730E-05-2.52301E-05-2.86044E-05 1.76620E-06 4.46424E-19 2.10649E-18
 -1      1005 9.11658E-05-2.47130E-05-2.84801E-05 2.30230E-06 2.07141E-19 1.99002E-18
 -1      1006 9.02695E-05-2.42683E-05-2.82867E-05 2.99680E-06-1.49961E-18 1.70090E-18
 -1      1007 8.93176E-05-2.39810E-05-2.80020E-05 3.90492E-06-1.50996E-18 1.93169E-18
 -1      1008 8.83684E-05-2.39704E-05-2.76000E-05 5.10764E-06 2.47148E-19 1.95331E-18
 -1      1009 8.75199E-05-2.44018E-05-2.70520E-05 6.72381E-06 1.50230E-18 1.99190E-18
 -1      1010 8.69312E-05-2.55030E-05-2.63281E-05 8.92146E-06 1.75991E-18 4.87382E-19
 -1      1011 8.68755E-05-2.76086E-05-2.53998E-05 1.19658E-05 4.46202E-19 2.08406E-18
 -1      1012 8.80391E-05-3.12853E-05-2.43314E-05 1.59559E-05-1.31681E-19 3.28720E-18
 -1      1013 9.55866E-05-2.45346E-05-3.04490E-05-6.83399E-07-1.44911E-19-1.07849E-18
 -1      1014 9.53983E-05-2.86518E-05-2.86056E-05-2.07634E-07 5.65746E-20 5.23765E-19
 -1      1015 9.55084E-05-2.87900E-05-2.85936E-05-2.16677E-07 4.28730E-19 5.61261E-19
 -1      1016 9.51574E-05-2.83243E-05-2.86428E-05-2.47194E-07 2.60542E-19 2.68256E-19
 -1      1017 9.50072E-05-2.81204E-05-2.86658E-05-3.01402E-07 2.91633E-19 2.18086E-19
 -1      1018 9.48210E-05-2.78775E-05-2.86901E-05-3.82632E-07 7.79640E-19 1.75142E-19
 -1      1019 9.45844E-05-2.75853E-05-2.87140E-05-4.94102E-07 2.13409E-19-1.25618E-19
 -1      1020 9.42800E-05-2.72330E-05-2.87345E-05-6.38733E-07 5.99225E-21 7.09215E-19
 -1      1021 9.38881E-05-2.68100E-05-2.87479E-05-8.18547E-07 4.00674E-19 1.73187E-18
 -1      1022 9.33854E-05-2.63071E-05-2.87480E-05-1.03382E-06-6.88556E-19 1.97095E-18
 -1      1023 9.27453E-05-2.57173E-05-2.87265E-05-1.28204E-06-5.97504E-19 2.51679E-18
 -1      1024 9.19372E-05-2.50383E-05-2.86712E-05-1.55684E-06-1.01367E-18 1.83381E-18
 -1      1025 9.09261E-05-2.42741E-05-2.85654E-05-1.84726E-06-1.10713E-18 1.45269E-18
 -1      1026 8.96708E-05-2.34377E-05-2.83860E-05-2.13812E-06-1.08256E-18 5.78818E-19
 -1      1027 8.81211E-05-2.25534E-05-2.81010E-05-2.41286E-06-8.98778E-19 3.41835E-19
 -1      1028 8.62110E-05-2.16572E-05-2.76667E-05-2.66123E-06-1.16637E-19 7.60673E-20
 -1      1029 8.38434E-05-2.07960E-05-2.70215E-05-2.89732E-06 1.03978E-19 2.42711E-19
 -1      1030 8.08826E-05-2.00370E-05-2.60775E-05-3.18613E-06-3.20727E-19 9.57888E-19
 -1      1031 7.70619E-05-1.94306E-05-2.47024E-05-3.62417E-06 6.81841E-20 2.31302E-18
 -1      1032 9.67861E-05-2.83055E-05-2.93489E-05-3.00826E-07 3.94128E-19-6.36047E-19
 -1      1033 9.52842E-05-2.84987E-05-2.86224E-05-2.16882E-07 1.67970E-19 5.77721E-19
 -1      1034 1.06275E-04-4.99811E-05-2.39168E-05 2.21620E-05 1.63920E-18 5.56728E-18
 -1      1035 9.55291E-05-2.44581E-05-3.04576E-05 9.22792E-07 1.03334E-18-1.02692E-18
 -1      1036 9.67200E-05-2.75831E-05-2.96293E-05 6.86590E-08-2.98730E-19-8.53377E-19
 -1      1037 9.67890E-05-2.88427E-05-2.91199E-05-4.51440E-07 2.61256E-19-4.53127E-19
 -1      1038 9.61830E-05-2.59587E-05-3.00977E-05-3.45025E-07 5.70829E-20-9.22613E-19
 -1      1039 9.66352E-05-2.74503E-05-2.96500E-05-2.35127E-08 5.95543E-19-9.52201E-19
 -1      1040 9.10316E-05-3.73072E-05-2.29990E-05 2.13545E-05 1.44766E-18 3.62420E-18
 -1      1041 7.06576E-05-1.82503E-05-2.24212E-05-1.48880E-06 1.54595E-18 4.84824E-19
 -1      1042 9.60344E-05-2.92435E-05-2.86246E-05-3.85644E-07-4.52544E-19 4.57251E-19
 -1      1043 9.56222E-05-2.89180E-05-2.85875E-05-2.42062E-07 4.76079E-19 4.05047E-19
 -1      1044 9.55645E-05-2.43809E-05-3.05060E-05-3.46209E-07 8.47547E-21-1.38782E-18
 -1      1045 7.14599E-05-1.89156E-05-2.24974E-05 3.55796E-06 1.96672E-18-1.41966E-18
 -1      1046 9.62001E-05-2.93136E-05-2.86656E-05-4.42385E-07-3.41143E-19 4.78409E-19
 -1      1047 7.13555E-05-2.20813E-05-2.10394E-05 1.31547E-05 4.27934E-19-1.62558E-18
 -1      1048 9.63739E-05-2.93409E-05-2.87285E-05-4.91105E-07-1.05428E-20-3.69226E-20
 -1      1049 9.57455E-05-2.90376E-05-2.85891E-05-2.80483E-07-3.41919E-19-3.04481E-19
 -1      1050 9.66935E-05-2.91504E-05-2.89470E-05-5.15074E-07 2.12338E-19-5.91820E-20
 -1      1051 9.62769E-05-2.60042E-05-3.01157E-05 1.20966E-07 3.22022E-19-1.07816E-18
 -1      1052 9.62532E-05-2.59582E-05-3.01273E-05-4.60541E-08 3.93531E-20-1.24301E-18
 -1      1053 9.64931E-05-2.68524E-05-2.98471E-05-1.23475E-07 3.99481E-20-8.01443E-19
 -1      1054 9.61353E-05-2.59483E-05-3.00804E-05 4.74164E-07 5.79724E-19-1.10055E-18
 -1      1055 9.46156E-05-2.76566E-05-2.86967E-05-2.31172E-07-5.42141E-20 1.37639E-18
 -1      1056 9.69361E-05-2.91076E-05-2.90690E-05 1.52081E-07-2.85833E-19-2.91203E-19
 -1      1057 9.67907E-05-2.93247E-05-2.89141E-05 1.59967E-07-2.90676E-19-2.18950E-19
 -1      1058 9.66149E-05-2.94149E-05-2.88002E-05 1.52926E-07-1.68056E-19-4.26210E-19
 -1      1059 9.64234E-05-2.94093E-05-2.87202E-05 1.39875E-07-1.07642E-19-7.34885E-19
 -1      1060 9.62303E-05-2.93456E-05-2.86648E-05 1.24015E-07-8.60855E-20-7.20204E-19
 -1      1061 9.60493E-05-2.92476E-05-2.86292E-05 1.07152E-07-1.91658E-19 2.67136E-19
 -1      1062 9.58838E-05-2.91292E-05-2.86090E-05 9.16876E-08-1.99618E-19 4.46728E-19
 -1      1063 9.57307E-05-2.89965E-05-2.86005E-05 7.92681E-08 1.69019E-19 1.06269E-18
 -1      1064 9.55934E-05-2.88571E-05-2.86012E-05 6.94644E-08 1.46510E-19 1.50569E-18
 -1      1065 9.54607E-05-2.87059E-05-2.86092E-05 6.50669E-08 2.04388E-19 2.87905E-19
 -1      1066 9.53245E-05-2.85392E-05-2.86222E-05 6.71303E-08 3.24478E-19 5.37115E-19
 -1      1067 9.51765E-05-2.83517E-05-2.86392E-05 7.60681E-08 6.23241E-20 5.48069E-19
 -1      1068 9.50052E-05-2.81354E-05-2.86585E-05 9.36068E-08-4.78368E-19 3.68962E-19
 -1      1069 9.47977E-05-2.78812E-05-2.86785E-05 1.21964E-07-6.85655E-19 1.06558E-18
 -1      1070 9.45396E-05-2.75799E-05-2.86969E-05 1.64216E-07-4.92150E-19 4.56698E-19
 -1      1071 9.42147E-05-2.72227E-05-2.87108E-05 2.24701E-07-2.11392E-19-1.39816E-19
 -1      1072 9.38059E-05-2.68021E-05-2.87158E-05 3.09570E-07-6.72136E-19 5.18353E-20
 -1      1073 9.32950E-05-2.63143E-05-2.87059E-05 4.27568E-07 2.12729E-19 7.76882E-20
 -1      1074 9.26642E-05-2.57603E-05-2.86728E-05 5.91165E-07 3.30668E-19 4.85289E-19
 -1      1075 9.18966E-05-2.51492E-05-2.86056E-05 8.18165E-07 5.81797E-21 1.34681E-18
 -1      1076 9.09778E-05-2.45007E-05-2.84896E-05 1.13402E-06-3.08778E-19 1.58672E-18
 -1      1077 8.98973E-05-2.38486E-05-2.83058E-05 1.57517E-06-1.38539E-18 9.94413E-19
 -1      1078 8.86484E-05-2.32433E-05-2.80296E-05 2.19391E-06-1.10835E-18 1.17083E-18
 -1      1079 8.72284E-05-2.27546E-05-2.76301E-05 3.06562E-06-4.97430E-19 1.95885E-18
 -1      1080 8.56352E-05-2.24735E-05-2.70676E-05 4.29957E-06 2.05303E-19 6.45437E-19
 -1      1081 8.38694E-05-2.25249E-05-2.62914E-05 6.06068E-06 1.09732E-18-7.62653E-19
 -1      1082 8.20293E-05-2.31034E-05-2.52483E-05 8.53238E-06 2.01832E-18-5.81308E-19
 -1      1083 8.00508E-05-2.43787E-05-2.38643E-05 1.21169E-05 1.47528E-19-2.60805E-19
 -1      1084 9.54819E-05-2.87357E-05-2.86055E-05-1.16766E-07-2.20190E-20-1.55776E-19
 -1      1085 9.52123E-05-2.83966E-05-2.86353E-05-1.26994E-07 4.90999E-19-8.34677E-19
 -1      1086 9.48578E-05-2.79467E-05-2.86762E-05-1.83246E-07-2.55986E-19-8.91562E-20
 -1      1087 9.50518E-05-2.81899E-05-2.86551E-05-1.48801E-07 3.22799E-19-7.36401E-19
 -1      1088 9.43081E-05-2.73089E-05-2.87140E-05-2.92792E-07-6.78095E-19 1.70631E-18
 -1      1089 9.39160E-05-2.68935E-05-2.87240E-05-3.67133E-07-5.42507E-19 2.19006E-18
 -1      1090 9.34175E-05-2.64014E-05-2.87213E-05-4.51226E-07-2.29881E-19 2.60446E-18
 -1      1091 9.27881E-05-2.58265E-05-2.86980E-05-5.39020E-07 1.23386E-19 1.38604E-18
 -1      1092 9.20009E-05-2.51671E-05-2.86433E-05-6.20025E-07 1.97192E-19 6.95962E-19
 -1      1093 9.10259E-05-2.44281E-05-2.85423E-05-6.77774E-07-5.37534E-19 1.74184E-19
 -1      1094 8.98291E-05-2.36225E-05-2.83749E-05-6.88298E-07-6.76650E-19 2.87904E-19
 -1      1095 8.83698E-05-2.27729E-05-2.81139E-05-6.18910E-07-9.94222E-19 6.01055E-19
 -1      1096 8.65937E-05-2.19109E-05-2.77226E-05-4.27548E-07-7.10055E-19 4.83765E-19
 -1      1097 8.44192E-05-2.10720E-05-2.71507E-05-6.22520E-08-3.38089E-19 3.15683E-19
 -1      1098 8.17020E-05-2.02752E-05-2.63267E-05 5.43043E-07-3.14361E-20 1.02850E-18
 -1      1099 7.81515E-05-1.94920E-05-2.51365E-05 1.34360E-06-7.35932E-19-8.67753E-19
 -1      1100 9.53521E-05-2.85758E-05-2.86184E-05-1.16687E-07 3.13790E-19-3.42900E-19
 -1      1101 9.69026E-05-2.79858E-05-2.95368E-05 5.91515E-08-5.76858E-20-8.90312E-19
 -1      1102 7.52360E-05-1.92045E-05-2.39993E-05 2.19955E-06 1.09460E-18-1.83111E-18
 -1      1103 9.69898E-05-2.86854E-05-2.92730E-05 1.23128E-07-4.12025E-21-4.47230E-19
 -1      1104 9.65445E-05-2.92986E-05-2.88197E-05-5.21788E-07 2.97458E-19-5.77272E-20
 -1      1105 9.69535E-05-2.85777E-05-2.93039E-05-1.92638E-07 1.97045E-19-5.58354E-19
 -1      1106 9.68329E-05-2.78183E-05-2.95786E-05-7.64622E-08 3.08931E-19-5.86227E-19
 -1      1107 7.41366E-05-2.07366E-05-2.28951E-05 8.50507E-06 1.26673E-18-3.54229E-18
 -1      1108 9.56078E-05-2.88791E-05-2.85981E-05-1.25591E-07 2.96760E-20-2.71089E-19
 -1      1109 9.67408E-05-2.73576E-05-2.97336E-05 1.73268E-08-3.36994E-19-1.19940E-18
 -1      1110 9.62402E-05-2.93474E-05-2.86684E-05-2.24416E-07-1.28164E-20 5.58014E-19
 -1      1111 9.64292E-05-2.94029E-05-2.87258E-05-2.52251E-07-3.68917E-19 5.99132E-19
 -1      1112 9.58971E-05-2.91439E-05-2.86086E-05-1.67356E-07 2.60879E-19 2.30886E-19
 -1      1113 9.69178E-05-2.90381E-05-2.90914E-05-2.54841E-07 1.47915E-19-5.05301E-19
 -1      1114 9.60610E-05-2.92566E-05-2.86305E-05-1.95036E-07-2.74037E-20 3.40610E-19
 -1      1115 9.67005E-05-2.71817E-05-2.97936E-05 9.24774E-10-1.46709E-19-9.11035E-19
 -1      1116 9.67929E-05-2.92895E-05-2.89303E-05-2.76174E-07-1.12754E-19-1.45053E-19
 -1      1117 9.67230E-05-2.93916E-05-2.88553E-05-9.63073E-08-4.36644E-19 2.14931E-19
 -1      1118 9.56669E-05-2.89312E-05-2.86006E-05-4.68780E-08 1.39757E-19-2.54642E-19
 -1      1119 9.57482E-05-2.90180E-05-2.85989E-05-1.42891E-07 1.49045E-19-2.33357E-19
 -1      1120 9.66057E-05-2.93846E-05-2.88094E-05-2.74001E-07-1.21613E-19 1.47375E-19
 -1      1121 7.54555E-05-2.03261E-05-2.36291E-05 6.69895E-06 1.69865E-18-3.75987E-18
 -1      1122 1.16860E-04 2.57582E-10-4.18572E-05-4.14642E-05-3.13402E-19 1.03054E-17
 -1      1123 8.86556E-05 7.19325E-11-3.72530E-05-2.41643E-05-1.67924E-19 1.44461E-18
 -1      1124 8.40799E-05 4.14638E-11-3.57677E-05-1.78729E-05-1.12338E-19-2.31730E-18
 -1      1125 8.23360E-05 3.20119E-11-3.50732E-05-1.38315E-05-7.75829E-20-4.03817E-18
 -1      1126 8.15315E-05 2.73378E-11-3.47386E-05-1.05286E-05-5.05970E-20-4.79029E-18
 -1      1127 8.11277E-05 2.45950E-11-3.45727E-05-7.63590E-06-2.74756E-20-5.08758E-18
 -1      1128 8.09167E-05 2.29388E-11-3.44886E-05-4.97656E-06-1.26128E-20-5.10987E-18
 -1      1129 8.08140E-05 2.20448E-11-3.44489E-05-2.43060E-06 3.85797E-21-5.03362E-18
 -1      1130 8.07848E-05 2.17739E-11-3.44378E-05 5.24177E-08 2.31520E-20-4.87963E-18
 -1      1131 8.08184E-05 2.20889E-11-3.44504E-05 2.53797E-06 3.78071E-20-4.63623E-18
 -1      1132 8.09258E-05 2.30406E-11-3.44915E-05 5.09240E-06 4.72055E-20-4.24979E-18
 -1      1133 8.11428E-05 2.47596E-11-3.45766E-05 7.76828E-06 6.88876E-20-3.64807E-18
 -1      1134 8.15532E-05 2.76364E-11-3.47447E-05 1.06883E-05 9.27236E-20-2.76719E-18
 -1      1135 8.23597E-05 3.25003E-11-3.50833E-05 1.40375E-05 1.12576E-19-1.34142E-18
 -1      1136 8.40771E-05 4.19308E-11-3.57881E-05 1.81246E-05 1.41296E-19 1.17861E-18
 -1      1137 8.83532E-05 6.67563E-11-3.73232E-05 2.40069E-05 1.40502E-19 5.80623E-18
 -1      1138 1.06624E-04 1.63940E-10-4.06360E-05 3.61905E-05 2.25523E-19 1.45739E-17
 -1      1139 1.30226E-04-2.57581E-05-4.02758E-05-2.61049E-05-1.29818E-18 1.59234E-17
 -1      1140 9.74664E-05-2.88656E-05-3.15807E-05-6.79816E-07-4.26031E-19 1.30189E-17
 -1      1141 9.01727E-05-2.70304E-05-2.78970E-05 3.87207E-07-1.65410E-19 8.81344E-18
 -1      1142 8.82642E-05-2.65769E-05-2.66482E-05 2.50838E-07-1.15766E-19 5.91777E-18
 -1      1143 8.79081E-05-2.64509E-05-2.63926E-05 1.65975E-07-8.70326E-20 3.88076E-18
 -1      1144 8.82703E-05-2.65284E-05-2.64785E-05 1.18221E-07-3.71942E-20 2.64311E-18
 -1      1145 8.89602E-05-2.67140E-05-2.66822E-05 8.76562E-08-3.99164E-20 1.66322E-18
 -1      1146 8.97784E-05-2.69469E-05-2.69258E-05 6.64689E-08-2.16390E-20 1.00872E-18
 -1      1147 9.06148E-05-2.71905E-05-2.71752E-05 5.08163E-08-2.21136E-20 6.80604E-20
 -1      1148 9.14070E-05-2.74239E-05-2.74120E-05 3.87814E-08-1.34731E-20-6.67144E-19
 -1      1149 9.21216E-05-2.76358E-05-2.76263E-05 2.93427E-08 3.06126E-20-1.37618E-18
 -1      1150 9.27434E-05-2.78210E-05-2.78133E-05 2.18880E-08 1.01546E-19-1.03582E-18
 -1      1151 9.32690E-05-2.79780E-05-2.79718E-05 1.60024E-08-9.00620E-20-2.08943E-18
 -1      1152 9.37021E-05-2.81077E-05-2.81028E-05 1.13748E-08-2.22548E-20-3.39857E-18
 -1      1153 9.40508E-05-2.82125E-05-2.82086E-05 7.75755E-09 3.51360E-20-3.38218E-18
 -1      1154 9.43256E-05-2.82952E-05-2.82922E-05 4.94693E-09-2.26689E-19-4.22090E-18
 -1      1155 9.45381E-05-2.83593E-05-2.83570E-05 2.77555E-09-1.38023E-20-5.04156E-18
 -1      1156 9.47000E-05-2.84084E-05-2.84066E-05 1.10849E-09-1.18629E-20-5.40809E-18
 -1      1157 9.48234E-05-2.84460E-05-2.84447E-05-1.57865E-10-7.00594E-20-5.60123E-18
 -1      1158 9.49203E-05-2.84757E-05-2.84748E-05-1.09584E-09 2.64022E-20-5.06354E-18
 -1      1159 9.50033E-05-2.85013E-05-2.85007E-05-1.74515E-09-3.55421E-20-5.17269E-18
 -1      1160 9.50856E-05-2.85267E-05-2.85266E-05-2.11034E-09 2.16002E-20-4.75878E-18
 -1      1161 9.51820E-05-2.85565E-05-2.85569E-05-2.15679E-09-3.74631E-20-4.58594E-18
 -1      1162 9.53094E-05-2.85958E-05-2.85967E-05-1.80535E-09-3.38046E-19-5.85785E-18
 -1      1163 9.54877E-05-2.86504E-05-2.86522E-05-9.25709E-10 1.13548E-19-5.69546E-18
 -1      1164 9.57401E-05-2.87274E-05-2.87302E-05 6.70637E-10-6.73732E-20-4.73423E-18
 -1      1165 9.60944E-05-2.88351E-05-2.88393E-05 3.23602E-09 2.39404E-19-3.80265E-18
 -1      1166 9.65819E-05-2.89827E-05-2.89887E-05 7.08716E-09-1.15863E-19-4.50466E-18
 -1      1167 9.72378E-05-2.91808E-05-2.91888E-05 1.25935E-08 1.74183E-19-4.13076E-18
 -1      1168 9.80984E-05-2.94399E-05-2.94503E-05 2.01400E-08 2.94716E-20-3.31525E-18
 -1      1169 9.91971E-05-2.97697E-05-2.97826E-05 3.00427E-08-1.97154E-19-2.30813E-18
 -1      1170 1.00557E-04-3.01766E-05-3.01913E-05 4.23777E-08-1.70734E-20-3.01718E-18
 -1      1171 1.02177E-04-3.06596E-05-3.06747E-05 5.66696E-08 2.72800E-20-5.10765E-18
 -1      1172 1.04015E-04-3.12051E-05-3.12172E-05 7.13683E-08-8.18206E-21-6.25497E-18
 -1      1173 1.05957E-04-3.17784E-05-3.17813E-05 8.30596E-08-2.61477E-19-8.31576E-18
 -1      1174 1.07786E-04-3.23134E-05-3.22977E-05 8.54678E-08 1.78428E-19-6.70724E-18
 -1      1175 1.09142E-04-3.27024E-05-3.26556E-05 6.86220E-08 2.26957E-19-7.53845E-18
 -1      1176 1.09503E-04-3.27904E-05-3.27002E-05 1.92236E-08-1.14230E-19-7.62887E-18
 -1      1177 1.08211E-04-3.23844E-05-3.22462E-05-7.58270E-08 6.28161E-20-6.45283E-18
 -1      1178 1.04602E-04-3.12923E-05-3.11205E-05-2.20533E-07 1.90563E-19-6.40513E-18
 -1      1179 9.82711E-05-2.94027E-05-2.92406E-05-3.95819E-07-1.39578E-19-5.77512E-18
 -1      1180 8.94608E-05-2.67972E-05-2.67131E-05-5.47995E-07-3.19765E-19-7.56676E-18
 -1      1181 7.93936E-05-2.38423E-05-2.39049E-05-5.95746E-07 1.53460E-19-8.99983E-18
 -1      1182 7.02587E-05-2.11779E-05-2.14150E-05-4.69139E-07 3.11966E-19-7.20222E-18
 -1      1183 6.46142E-05-1.95381E-05-1.99112E-05-1.61742E-07 2.77536E-19-6.10809E-18
 -1      1184 6.43668E-05-1.94683E-05-1.98745E-05 2.48891E-07 2.27772E-19-4.20642E-18
 -1      1185 6.98715E-05-2.10754E-05-2.13650E-05 6.39746E-07-5.55448E-19-5.86094E-18
 -1      1186 7.95225E-05-2.38915E-05-2.39117E-05 8.49775E-07 1.07550E-20-4.65180E-18
 -1      1187 8.97721E-05-2.68896E-05-2.65275E-05 7.21406E-07 1.95062E-19-2.59203E-18
 -1      1188 9.50785E-05-2.85725E-05-2.82769E-05-1.19524E-08 6.12838E-19 1.36333E-18
 -1      1189 1.31060E-04-3.77398E-05-3.86613E-05 1.21743E-05-2.32961E-19 2.15417E-17
 -1      1190 9.65682E-05-2.81922E-05-3.13332E-05 8.01308E-07 6.57774E-20 1.86205E-17
 -1      1191 9.03864E-05-2.69331E-05-2.78778E-05 1.20122E-07 8.88260E-20 1.50806E-17
 -1      1192 8.83506E-05-2.65041E-05-2.66845E-05 8.99634E-09 6.82623E-20 1.25351E-17
 -1      1193 8.79487E-05-2.64135E-05-2.64198E-05-2.52916E-08 1.06509E-19 1.06475E-17
 -1      1194 8.82923E-05-2.65112E-05-2.64943E-05-3.43337E-08 8.06882E-20 9.33631E-18
 -1      1195 8.89732E-05-2.67071E-05-2.66924E-05-3.55505E-08 3.77596E-20 8.57974E-18
 -1      1196 8.97865E-05-2.69455E-05-2.69332E-05-3.38803E-08-5.74587E-20 8.75747E-18
 -1      1197 9.06200E-05-2.71921E-05-2.71808E-05-3.08824E-08-7.07687E-20 8.18440E-18
 -1      1198 9.14104E-05-2.74270E-05-2.74162E-05-2.72686E-08 1.15868E-19 7.34776E-18
 -1      1199 9.21237E-05-2.76396E-05-2.76295E-05-2.34583E-08 1.24701E-19 6.00916E-18
 -1      1200 9.27448E-05-2.78249E-05-2.78158E-05-1.97166E-08-1.21926E-21 5.17187E-18
 -1      1201 9.32698E-05-2.79817E-05-2.79737E-05-1.62045E-08 1.12485E-19 4.83335E-18
 -1      1202 9.37024E-05-2.81111E-05-2.81041E-05-1.30088E-08-8.17234E-20 4.54317E-18
 -1      1203 9.40507E-05-2.82153E-05-2.82094E-05-1.01619E-08 1.67348E-19 3.80924E-18
 -1      1204 9.43251E-05-2.82975E-05-2.82926E-05-7.65663E-09 1.26521E-19 2.13650E-18
 -1      1205 9.45369E-05-2.83610E-05-2.83570E-05-5.45864E-09-1.45630E-19 2.20337E-18
 -1      1206 9.46979E-05-2.84094E-05-2.84062E-05-3.51528E-09-1.02177E-20 3.09106E-18
 -1      1207 9.48201E-05-2.84462E-05-2.84437E-05-1.76308E-09 3.73236E-20 2.54789E-18
 -1      1208 9.49152E-05-2.84751E-05-2.84731E-05-1.33021E-10 7.81213E-21 2.37191E-18
 -1      1209 9.49957E-05-2.84996E-05-2.84982E-05 1.44531E-09 2.75435E-20 2.51189E-18
 -1      1210 9.50748E-05-2.85238E-05-2.85230E-05 3.04048E-09-7.55588E-20 3.40532E-18
 -1      1211 9.51671E-05-2.85521E-05-2.85520E-05 4.71588E-09 4.54313E-20 2.71368E-18
 -1      1212 9.52899E-05-2.85898E-05-2.85905E-05 6.52576E-09 5.01144E-20 2.13008E-18
 -1      1213 9.54642E-05-2.86432E-05-2.86448E-05 8.50938E-09-5.94891E-20 2.84903E-18
 -1      1214 9.57155E-05-2.87199E-05-2.87229E-05 1.06815E-08-4.24048E-20 3.79816E-18
 -1      1215 9.60758E-05-2.88297E-05-2.88344E-05 1.30159E-08-2.10480E-20 2.97262E-18
 -1      1216 9.65852E-05-2.89845E-05-2.89917E-05 1.54172E-08 7.22311E-20 1.54302E-18
 -1      1217 9.72936E-05-2.91995E-05-2.92100E-05 1.76703E-08-8.37115E-20 7.17933E-19
 -1      1218 9.82628E-05-2.94930E-05-2.95081E-05 1.93532E-08 1.46708E-19 1.48310E-18
 -1      1219 9.95674E-05-2.98873E-05-2.99087E-05 1.96886E-08 2.25150E-19 2.31425E-19
 -1      1220 1.01295E-04-3.04082E-05-3.04380E-05 1.73015E-08 1.24314E-19 2.42778E-18
 -1      1221 1.03543E-04-3.10839E-05-3.11247E-05 9.85198E-09-4.20472E-19 6.51546E-18
 -1      1222 1.06406E-04-3.19412E-05-3.19952E-05-6.44485E-09 1.21026E-19 5.68446E-18
 -1      1223 1.09951E-04-3.29972E-05-3.30648E-05-3.72375E-08 8.38860E-20 2.08812E-18
 -1      1224 1.14161E-04-3.42434E-05-3.43184E-05-8.97686E-08-6.63680E-20 9.26495E-19
 -1      1225 1.18841E-04-3.56166E-05-3.56784E-05-1.70338E-07 3.40082E-19-8.23528E-19
 -1      1226 1.23448E-04-3.69538E-05-3.69563E-05-2.76545E-07 8.71832E-20 6.85250E-19
 -1      1227 1.26891E-04-3.79357E-05-3.77997E-05-3.81194E-07 2.81238E-19-5.15367E-19
 -1      1228 1.27362E-04-3.80455E-05-3.76755E-05-4.10768E-07-1.05085E-20-1.74427E-18
 -1      1229 1.22501E-04-3.66183E-05-3.59726E-05-2.43521E-07-1.11173E-20-2.00974E-18
 -1      1230 1.10332E-04-3.30882E-05-3.23071E-05 2.14986E-07-3.40891E-19 8.61221E-19
 -1      1231 9.11548E-05-2.74936E-05-2.69757E-05 8.73891E-07 1.15418E-19 1.08208E-19
 -1      1232 6.93217E-05-2.10061E-05-2.12286E-05 1.36178E-06-4.06139E-19-2.02822E-18
 -1      1233 5.25153E-05-1.58426E-05-1.69067E-05 1.26262E-06 3.58441E-19-4.49309E-18
 -1      1234 4.73204E-05-1.41120E-05-1.55024E-05 5.56949E-07 3.40190E-19-5.99938E-18
 -1      1235 5.44600E-05-1.61991E-05-1.72147E-05-2.98527E-07 5.93135E-19-6.55604E-18
 -1      1236 6.91194E-05-2.06380E-05-2.09181E-05-9.46823E-07-4.21571E-19-2.68806E-18
 -1      1237 8.48399E-05-2.52749E-05-2.48420E-05-1.37130E-06 5.91722E-19-3.08235E-18
 -1      1238 9.41193E-05-2.84258E-05-2.72761E-05-2.97797E-07-1.73619E-19-2.47249E-18
 -1      1239 9.53417E-05-2.97560E-05-2.73902E-05-4.74216E-07-2.41950E-18-4.21379E-19
 -1      1240 9.82952E-05-3.89866E-05-2.52747E-05-1.51946E-06-4.37281E-19-6.00963E-19
 -1      1241 1.01593E-04-5.04378E-05-2.33057E-05-1.37789E-06-4.30145E-18-4.30703E-19
 -1      1242 1.01323E-04-5.01515E-05-2.47483E-05 1.98776E-07-6.22675E-18-5.85088E-19
 -1      1243 9.37390E-05-2.53301E-05-3.21651E-05 3.18468E-06-1.14256E-17-3.46013E-19
 -1      1244 7.83071E-05 2.58517E-05-4.45449E-05 6.01996E-06-1.50535E-17-1.41629E-18
 -1      1245 6.21756E-05 8.15641E-05-5.65893E-05 5.05156E-06-1.62215E-17 1.02533E-18
 -1      1246 5.56316E-05 1.05089E-04-6.13016E-05-6.75602E-07-1.23740E-17-2.86932E-19
 -1      1247 6.20758E-05 8.48391E-05-5.72089E-05-5.48136E-06-9.28602E-18-4.40087E-19
 -1      1248 7.48922E-05 4.00743E-05-4.75127E-05-6.57182E-06-6.03850E-18 6.83053E-19
 -1      1249 8.94750E-05-1.08803E-05-3.54589E-05-4.81651E-06 9.52912E-19-2.14048E-19
 -1      1250 1.01212E-04-5.04382E-05-2.48169E-05-2.08847E-06 9.95433E-18 1.08317E-18
 -1      1251 1.07073E-04-6.91455E-05-1.86330E-05 2.26953E-08 1.60326E-17-7.35436E-19
 -1      1252 1.07156E-04-6.89192E-05-1.75679E-05 1.01611E-06 1.06740E-17-6.47543E-19
 -1      1253 1.04151E-04-5.86366E-05-1.98148E-05 1.22263E-06 4.15787E-18 2.41696E-19
 -1      1254 1.00323E-04-4.54008E-05-2.32450E-05 1.26203E-06-1.20723E-18-5.17622E-19
 -1      1255 9.71393E-05-3.43993E-05-2.62560E-05 8.38422E-07-3.98074E-18 3.22187E-19
 -1      1256 9.51454E-05-2.88382E-05-2.82123E-05 1.85217E-07-2.36834E-18 8.76232E-19
 -1      1257 4.92131E-05-1.52606E-04 2.19284E-05-1.93315E-05 1.74624E-17 2.38434E-18
 -1      1258 2.48319E-05-8.50590E-05 9.60329E-06-3.08733E-05 1.50162E-17 5.49428E-18
 -1      1259 1.29390E-05-7.01119E-07-1.19899E-05 1.25080E-05 1.39591E-17 7.61991E-18
 -1      1260 5.22278E-05 4.11046E-05-3.75921E-05 8.59257E-05 9.76121E-18 8.39748E-18
 -1      1261 1.46226E-04 2.15615E-05-6.20448E-05 1.42263E-04 4.56720E-18 8.61771E-18
 -1      1262 2.67331E-04-4.07491E-05-8.19276E-05 1.45360E-04 1.64070E-18 8.52115E-19
 -1      1263 3.56943E-04-9.84173E-05-9.25689E-05 8.27633E-05-3.95617E-19-2.76217E-18
 -1      1264 3.68390E-04-1.10522E-04-9.24579E-05-1.37666E-05 5.84929E-19-7.53012E-18
 -1      1265 2.97611E-04-7.28080E-05-8.17052E-05-9.33435E-05 3.38644E-18-1.26208E-17
 -1      1266 1.80744E-04-1.52597E-05-6.24305E-05-1.17287E-04 7.61229E-18-1.44893E-17
 -1      1267 7.44550E-05 2.02177E-05-3.91990E-05-8.23759E-05 1.27750E-17-1.45232E-17
 -1      1268 1.62163E-05 5.68009E-06-1.45404E-05-1.88726E-05 1.86449E-17-1.48832E-17
 -1      1269 1.10349E-05-5.19009E-05 6.88884E-06 2.89709E-05 1.60530E-17-9.13271E-18
 -1      1270 3.10856E-05-1.10676E-04 2.04333E-05 3.22031E-05 8.02987E-18-3.18146E-18
 -1      1271 4.48346E-05-1.38568E-04 2.53423E-05 5.51514E-06-5.57464E-18-1.19215E-18
 -1      1272 3.56583E-05-1.17843E-04 2.15411E-05-2.46445E-05-1.41539E-17-2.47630E-18
 -1      1273 1.45207E-05-5.82390E-05 8.46438E-06-2.66568E-05-1.86263E-17-7.78084E-18
 -1      1274 1.39269E-05 3.61849E-06-1.25106E-05 1.62606E-05-1.41251E-17-9.89673E-18
 -1      1275 6.26999E-05 2.48216E-05-3.64810E-05 7.83666E-05-7.13032E-18-6.77118E-18
 -1      1276 1.58715E-04-3.68415E-06-5.92057E-05 1.18710E-04-1.45266E-18-2.08709E-18
 -1      1277 2.68408E-04-5.85175E-05-7.76559E-05 1.05915E-04 7.26754E-19 3.14249E-18
 -1      1278 3.46454E-04-1.01629E-04-8.91804E-05 4.00021E-05 1.90053E-19 8.66006E-18
 -1      1279 3.54959E-04-1.01812E-04-9.19167E-05-5.60028E-05-2.94818E-18 1.90102E-17
 -1      1280 2.86060E-04-5.38404E-05-8.43040E-05-1.36001E-04-1.04397E-17 2.67213E-17
 -1      1281 1.66453E-04 1.43355E-05-6.64491E-05-1.48515E-04-1.62808E-17 2.62614E-17
 -1      1282 6.16558E-05 4.60343E-05-4.14857E-05-9.85351E-05-1.09166E-17 1.16958E-17
 -1      1283 1.34147E-05 1.03629E-05-1.49662E-05-2.17804E-05 2.94767E-19 8.72444E-19
 -1      1284 2.29184E-05-7.62456E-05 8.04005E-06 2.65362E-05 2.72406E-18-2.27005E-19
 -1      1285 4.99728E-05-1.51372E-04 2.14271E-05 1.73979E-05 1.40201E-17-7.88270E-19
 -1      1286 1.04450E-04-2.20211E-05-3.78944E-05-1.72738E-05-4.76668E-19 8.37694E-18
 -1      1287 9.03252E-05-6.68249E-06-3.60189E-05-2.04685E-05-1.27193E-18-3.06838E-19
 -1      1288 9.26622E-05-6.74133E-06-3.72242E-05-2.57571E-05-1.65404E-18 1.66929E-18
 -1      1289 8.59059E-05-4.09753E-06-3.51304E-05-1.64277E-05-1.24752E-18-3.07131E-18
 -1      1290 8.71608E-05-4.09081E-06-3.56005E-05-1.88492E-05-1.42894E-18-1.90352E-18
 -1      1291 9.21399E-05-1.04652E-05-3.50950E-05-1.90321E-05-2.21322E-18-1.98312E-19
 -1      1292 8.40955E-05-3.18933E-06-3.46866E-05-1.28145E-05-9.70051E-19-4.36585E-18
 -1      1293 8.47054E-05-3.15900E-06-3.49111E-05-1.46271E-05-1.12621E-18-3.79590E-18
 -1      1294 8.78644E-05-7.39472E-06-3.45737E-05-1.54055E-05-1.92026E-18-2.46222E-18
 -1      1295 8.31847E-05-2.72786E-06-3.44699E-05-9.68139E-06-6.37141E-19-4.93054E-18
 -1      1296 8.35002E-05-2.71127E-06-3.45794E-05-1.12291E-05-7.86033E-19-4.67479E-18
 -1      1297 8.58633E-05-5.98358E-06-3.43051E-05-1.19555E-05-1.45204E-18-3.55044E-18
 -1      1298 8.26889E-05-2.45572E-06-3.43626E-05-6.91139E-06-3.45761E-19-5.14451E-18
 -1      1299 8.28597E-05-2.44746E-06-3.44176E-05-8.28167E-06-4.51151E-19-5.04944E-18
 -1      1300 8.48179E-05-5.21486E-06-3.41726E-05-8.93811E-06-8.99837E-19-4.05951E-18
 -1      1301 8.24120E-05-2.29046E-06-3.43089E-05-4.29294E-06-9.69704E-20-5.12493E-18
 -1      1302 8.25037E-05-2.28654E-06-3.43365E-05-5.59363E-06-1.88739E-19-5.16711E-18
 -1      1303 8.42286E-05-4.75880E-06-3.41081E-05-6.21411E-06-4.58627E-19-4.24541E-18
 -1      1304 8.22788E-05-2.20108E-06-3.42862E-05-1.78913E-06 1.92659E-19-5.03081E-18
 -1      1305 8.23180E-05-2.19949E-06-3.42974E-05-3.03960E-06 1.04117E-19-5.07381E-18
 -1      1306 8.39052E-05-4.49556E-06-3.40784E-05-3.64318E-06-1.66106E-20-4.20420E-18
 -1      1307 8.22525E-05-2.17351E-06-3.42835E-05 6.69469E-07 4.34928E-19-4.89425E-18
 -1      1308 8.22511E-05-2.17355E-06-3.42831E-05-5.65814E-07 3.55478E-19-5.00076E-18
 -1      1309 8.37631E-05-4.37579E-06-3.40673E-05-1.17004E-06 4.77491E-19-4.15996E-18
 -1      1310 8.23267E-05-2.20381E-06-3.42990E-05 3.14685E-06 6.55034E-19-4.62357E-18
 -1      1311 8.22845E-05-2.20544E-06-3.42870E-05 1.89379E-06 5.74763E-19-4.79708E-18
 -1      1312 8.37680E-05-4.37997E-06-3.40677E-05 1.27311E-06 8.14445E-19-4.00408E-18
 -1      1313 8.25212E-05-2.29701E-06-3.43391E-05 5.71007E-06 8.64295E-19-4.20987E-18
 -1      1314 8.24260E-05-2.30036E-06-3.43108E-05 4.40340E-06 7.95096E-19-4.47501E-18
 -1      1315 8.39208E-05-4.50909E-06-3.40795E-05 3.75039E-06 1.18590E-18-3.75279E-18
 -1      1316 8.28826E-05-2.46297E-06-3.44199E-05 8.39092E-06 1.12092E-18-3.53628E-18
 -1      1317 8.27089E-05-2.47164E-06-3.43646E-05 7.01155E-06 1.00880E-18-3.91605E-18
 -1      1318 8.42549E-05-4.78257E-06-3.41091E-05 6.30790E-06 1.52930E-18-3.25115E-18
 -1      1319 8.35431E-05-2.74066E-06-3.45842E-05 1.13906E-05 1.45524E-18-2.54357E-18
 -1      1320 8.32206E-05-2.75773E-06-3.44730E-05 9.82586E-06 1.31183E-18-3.11961E-18
 -1      1321 8.48599E-05-5.25632E-06-3.41729E-05 9.05014E-06 1.98432E-18-2.53390E-18
 -1      1322 8.47667E-05-3.20336E-06-3.49197E-05 1.48392E-05 1.72858E-18-1.00426E-18
 -1      1323 8.41532E-05-3.24005E-06-3.46926E-05 1.29989E-05 1.58222E-18-1.93431E-18
 -1      1324 8.59458E-05-6.06223E-06-3.43065E-05 1.21182E-05 2.44693E-18-1.45023E-18
 -1      1325 8.72597E-05-4.09107E-06-3.56222E-05 1.90871E-05 1.81577E-18 1.72342E-18
 -1      1326 8.59752E-05-4.15486E-06-3.51385E-05 1.66887E-05 1.67570E-18 7.50154E-20
 -1      1327 8.79938E-05-7.51764E-06-3.45766E-05 1.56459E-05 2.72566E-18 2.76477E-19
 -1      1328 9.34748E-05-6.79391E-06-3.71194E-05 2.50933E-05 1.43773E-18 6.57626E-18
 -1      1329 9.01402E-05-6.43927E-06-3.60415E-05 2.11453E-05 1.44827E-18 3.64611E-18
 -1      1330 9.23688E-05-1.06998E-05-3.50802E-05 1.96724E-05 2.62983E-18 3.25128E-18
 -1      1331 1.23635E-04-2.49258E-05-3.90178E-05 2.83652E-05 5.83076E-19 1.50907E-17
 -1      1332 1.00091E-04-1.44262E-05-3.73571E-05 2.40480E-05 6.50415E-19 9.27925E-18
 -1      1333 1.01689E-04-1.93454E-05-3.54054E-05 2.13953E-05 2.26972E-18 7.60233E-18
 -1      1334 1.02616E-04-2.78087E-05-3.47611E-05 7.32727E-06 1.16091E-18 1.48345E-17
 -1      1335 1.05159E-04-3.02338E-05-3.35290E-05-7.95733E-06-1.35282E-18 8.91312E-18
 -1      1336 9.82745E-05-2.78472E-05-3.07662E-05-4.98638E-06-1.24334E-18 7.33975E-18
 -1      1337 9.55180E-05-2.78538E-05-2.92590E-05-2.48794E-06-1.05358E-18 6.71067E-18
 -1      1338 9.32873E-05-2.75634E-05-2.82202E-05-2.04132E-06-1.04569E-18 5.15880E-18
 -1      1339 9.94981E-05-2.80567E-05-3.09867E-05-7.88289E-06-2.21478E-18 3.86014E-18
 -1      1340 9.15988E-05-2.72058E-05-2.75863E-05-8.36623E-07-8.27789E-19 4.67740E-18
 -1      1341 9.08838E-05-2.71108E-05-2.72845E-05-7.26409E-07-7.34589E-19 3.54409E-18
 -1      1342 9.47336E-05-2.77746E-05-2.88210E-05-3.11732E-06-1.78112E-18 2.95569E-18
 -1      1343 9.01350E-05-2.69283E-05-2.70417E-05-1.71984E-07-5.41704E-19 2.98854E-18
 -1      1344 9.00643E-05-2.69557E-05-2.70074E-05-1.13814E-07-5.02608E-19 2.25286E-18
 -1      1345 9.25367E-05-2.75048E-05-2.79010E-05-1.04980E-06-1.30495E-18 1.95654E-18
 -1      1346 8.98066E-05-2.68888E-05-2.69337E-05 1.56643E-07-3.25486E-19 1.97393E-18
 -1      1347 9.00233E-05-2.69796E-05-2.69960E-05 1.85354E-07-2.69122E-19 1.48069E-18
 -1      1348 9.15811E-05-2.73619E-05-2.75349E-05-6.58442E-08-7.89425E-19 1.23415E-18
 -1      1349 9.00289E-05-2.69833E-05-2.70030E-05 3.16509E-07-3.15267E-19 1.24696E-18
 -1      1350 9.03735E-05-2.71036E-05-2.71028E-05 3.28243E-07-2.05607E-19 8.83905E-19
 -1      1351 9.13314E-05-2.73510E-05-2.74280E-05 4.21688E-07-6.31207E-19 8.44082E-19
 -1      1352 9.05172E-05-2.71458E-05-2.71505E-05 3.82783E-07-1.50728E-19 7.03051E-19
 -1      1353 9.09071E-05-2.72748E-05-2.72632E-05 3.84461E-07-2.64847E-19 3.11682E-19
 -1      1354 9.14676E-05-2.74257E-05-2.74512E-05 6.49958E-07-4.06819E-19 3.34176E-19
 -1      1355 9.11168E-05-2.73356E-05-2.73301E-05 3.94902E-07-2.74727E-19 2.89778E-19
 -1      1356 9.15062E-05-2.74609E-05-2.74429E-05 3.90679E-07-2.53968E-19-4.56273E-20
 -1      1357 9.18034E-05-2.75456E-05-2.75410E-05 7.32222E-07-5.33815E-19 1.46729E-19
 -1      1358 9.17390E-05-2.75280E-05-2.75163E-05 3.75817E-07-1.66823E-19-1.70581E-19
 -1      1359 9.21023E-05-2.76430E-05-2.76220E-05 3.68357E-07-2.81851E-19-4.48110E-19
 -1      1360 9.22280E-05-2.76836E-05-2.76619E-05 7.30056E-07-4.18061E-19-6.20567E-20
 -1      1361 9.23326E-05-2.77092E-05-2.76943E-05 3.39805E-07-3.07145E-19-5.29822E-19
 -1      1362 9.26567E-05-2.78105E-05-2.77889E-05 3.30853E-07-2.43129E-20-7.60545E-19
 -1      1363 9.26746E-05-2.78229E-05-2.77923E-05 6.80169E-07-4.09679E-19-3.41626E-20
 -1      1364 9.28700E-05-2.78717E-05-2.78557E-05 2.96005E-07 4.86103E-20-1.14366E-18
 -1      1365 9.31494E-05-2.79583E-05-2.79375E-05 2.86692E-07-1.44264E-19-1.18220E-18
 -1      1366 9.31039E-05-2.79536E-05-2.79196E-05 6.05600E-07-2.62768E-19-7.39284E-19
 -1      1367 9.33384E-05-2.80124E-05-2.79966E-05 2.50266E-07-4.50220E-19-1.40973E-18
 -1      1368 9.35727E-05-2.80843E-05-2.80654E-05 2.41306E-07-5.34063E-19-2.21258E-18
 -1      1369 9.34940E-05-2.80705E-05-2.80364E-05 5.21078E-07-5.68580E-19-1.35830E-18
 -1      1370 9.37346E-05-2.81306E-05-2.81160E-05 2.06249E-07-2.30236E-19-2.23608E-18
 -1      1371 9.39262E-05-2.81891E-05-2.81724E-05 1.98065E-07-2.49409E-19-2.64482E-18
 -1      1372 9.38349E-05-2.81712E-05-2.81393E-05 4.35951E-07-5.65412E-19-1.77379E-18
 -1      1373 9.40613E-05-2.82276E-05-2.82146E-05 1.66140E-07 1.05579E-19-2.63042E-18
 -1      1374 9.42146E-05-2.82740E-05-2.82599E-05 1.58963E-07-9.38443E-20-2.68124E-18
 -1      1375 9.41238E-05-2.82556E-05-2.82271E-05 3.55982E-07-2.93445E-19-1.62886E-18
 -1      1376 9.43248E-05-2.83054E-05-2.82942E-05 1.31152E-07-4.79478E-19-2.70831E-18
 -1      1377 9.44449E-05-2.83415E-05-2.83298E-05 1.25092E-07-5.59991E-19-3.20260E-18
 -1      1378 9.43626E-05-2.83247E-05-2.83000E-05 2.84549E-07-3.67827E-19-1.70436E-18
 -1      1379 9.45334E-05-2.83666E-05-2.83574E-05 1.01897E-07-3.67786E-19-3.11866E-18
 -1      1380 9.46261E-05-2.83942E-05-2.83850E-05 9.69906E-08-2.25686E-19-3.66453E-18
 -1      1381 9.45563E-05-2.83800E-05-2.83596E-05 2.23492E-07-6.46394E-19-1.53466E-18
 -1      1382 9.46967E-05-2.84142E-05-2.84070E-05 7.86512E-08 2.68705E-20-3.80939E-18
 -1      1383 9.47677E-05-2.84350E-05-2.84282E-05 7.49072E-08-1.62921E-19-3.83967E-18
 -1      1384 9.47116E-05-2.84238E-05-2.84077E-05 1.73744E-07-2.01114E-19-2.18010E-18
 -1      1385 9.48247E-05-2.84511E-05-2.84459E-05 6.15707E-08-6.31602E-20-3.87934E-18
 -1      1386 9.48798E-05-2.84670E-05-2.84625E-05 5.89998E-08 7.26956E-20-3.56891E-18
 -1      1387 9.48363E-05-2.84585E-05-2.84467E-05 1.35803E-07-7.92633E-20-2.51028E-18
 -1      1388 9.49278E-05-2.84805E-05-2.84774E-05 5.08477E-08 1.39623E-20-3.79450E-18
 -1      1389 9.49731E-05-2.84933E-05-2.84911E-05 4.94869E-08-3.85424E-19-4.27912E-18
 -1      1390 9.49390E-05-2.84864E-05-2.84791E-05 1.10084E-07-2.11468E-19-2.28583E-18
 -1      1391 9.50170E-05-2.85056E-05-2.85048E-05 4.68336E-08-9.14658E-20-4.28994E-18
 -1      1392 9.50589E-05-2.85173E-05-2.85175E-05 4.67652E-08-5.05300E-21-4.04910E-18
 -1      1393 9.50289E-05-2.85104E-05-2.85078E-05 9.72006E-08-3.19528E-19-2.88040E-18
 -1      1394 9.51040E-05-2.85299E-05-2.85316E-05 5.01322E-08 1.07612E-19-3.86205E-18
 -1      1395 9.51494E-05-2.85424E-05-2.85454E-05 5.14981E-08 9.05679E-20-3.62766E-18
 -1      1396 9.51162E-05-2.85334E-05-2.85358E-05 9.81683E-08 5.62704E-20-3.05849E-18
 -1      1397 9.52018E-05-2.85571E-05-2.85617E-05 6.16646E-08-4.21049E-20-3.85146E-18
 -1      1398 9.52585E-05-2.85729E-05-2.85790E-05 6.46763E-08-3.62750E-19-3.94178E-18
 -1      1399 9.52119E-05-2.85584E-05-2.85666E-05 1.14557E-07-1.42908E-19-2.98369E-18
 -1      1400 9.53252E-05-2.85916E-05-2.85997E-05 8.27055E-08 1.13398E-20-3.41882E-18
 -1      1401 9.54022E-05-2.86134E-05-2.86231E-05 8.76480E-08 1.29056E-19-3.53849E-18
 -1      1402 9.53288E-05-2.85893E-05-2.86040E-05 1.48583E-07-1.63763E-19-2.20000E-18
 -1      1403 9.54911E-05-2.86384E-05-2.86507E-05 1.14878E-07 9.39264E-21-3.34521E-18
 -1      1404 9.55990E-05-2.86694E-05-2.86833E-05 1.22105E-07-2.89679E-20-3.08999E-18
 -1      1405 9.54813E-05-2.86300E-05-2.86526E-05 2.03132E-07 8.42779E-20-9.01057E-19
 -1      1406 9.57194E-05-2.87033E-05-2.87207E-05 1.60087E-07-5.21128E-20-3.27135E-18
 -1      1407 9.58708E-05-2.87473E-05-2.87662E-05 1.70006E-07 1.15843E-19-2.76954E-18
 -1      1408 9.56862E-05-2.86856E-05-2.87174E-05 2.81673E-07-2.96732E-19-1.45782E-18
 -1      1409 9.60330E-05-2.87933E-05-2.88166E-05 2.20366E-07 1.94106E-19-2.91314E-18
 -1      1410 9.62422E-05-2.88547E-05-2.88792E-05 2.33396E-07 1.63046E-19-3.07813E-18
 -1      1411 9.59628E-05-2.87617E-05-2.88042E-05 3.88021E-07 6.72498E-21-1.58026E-18
 -1      1412 9.64580E-05-2.89161E-05-2.89463E-05 2.97571E-07 1.02041E-20-2.90942E-18
 -1      1413 9.67414E-05-2.90001E-05-2.90308E-05 3.14073E-07-3.60547E-20-3.22012E-18
 -1      1414 9.63326E-05-2.88649E-05-2.89195E-05 5.25859E-07 1.81158E-19-2.54865E-18
 -1      1415 9.70229E-05-2.90805E-05-2.91182E-05 3.92859E-07 1.34507E-19-2.98937E-18
 -1      1416 9.73977E-05-2.91927E-05-2.92296E-05 4.13013E-07 1.10864E-19-2.62199E-18
 -1      1417 9.68190E-05-2.90025E-05-2.90701E-05 6.97880E-07 9.64029E-20-2.09118E-18
 -1      1418 9.77569E-05-2.92957E-05-2.93411E-05 5.05835E-07 1.08045E-19-2.86325E-18
 -1      1419 9.82399E-05-2.94416E-05-2.94842E-05 5.29437E-07 1.71788E-19-2.62410E-18
 -1      1420 9.74462E-05-2.91824E-05-2.92628E-05 9.04396E-07 5.12579E-20-2.14610E-18
 -1      1421 9.86868E-05-2.95707E-05-2.96225E-05 6.33225E-07 6.82995E-20-2.57495E-18
 -1      1422 9.92912E-05-2.97550E-05-2.98010E-05 6.59376E-07-4.13394E-19-2.67304E-18
 -1      1423 9.82356E-05-2.94125E-05-2.95035E-05 1.14113E-06 3.25330E-21-2.77692E-18
 -1      1424 9.98305E-05-2.99121E-05-2.99673E-05 7.66905E-07-6.19777E-19-2.42627E-18
 -1      1425 1.00561E-04-3.01375E-05-3.01824E-05 7.93542E-07-6.73099E-19-2.84868E-18
 -1      1426 9.92026E-05-2.96996E-05-2.97952E-05 1.39591E-06-8.25858E-19-2.45247E-18
 -1      1427 1.01188E-04-3.03224E-05-3.03746E-05 8.91153E-07-5.79170E-19-3.27392E-18
 -1      1428 1.02034E-04-3.05869E-05-3.06224E-05 9.14393E-07-5.64540E-19-3.98851E-18
 -1      1429 1.00348E-04-3.00480E-05-3.01366E-05 1.64402E-06-1.12454E-18-2.37845E-18
 -1      1430 1.02728E-04-3.07953E-05-3.08332E-05 9.79134E-07-5.28708E-19-4.09178E-18
 -1      1431 1.03651E-04-3.10891E-05-3.11015E-05 9.92441E-07-4.60610E-19-5.18214E-18
 -1      1432 1.01651E-04-3.04562E-05-3.05180E-05 1.84207E-06-9.19297E-19-3.00800E-18
 -1      1433 1.04368E-04-3.13105E-05-3.13156E-05 9.89122E-07-2.93556E-19-5.23969E-18
 -1      1434 1.05286E-04-3.16109E-05-3.15798E-05 9.82451E-07 2.48106E-19-5.14948E-18
 -1      1435 1.03050E-04-3.09137E-05-3.09172E-05 1.92105E-06-4.86663E-19-3.67342E-18
 -1      1436 1.05946E-04-3.18253E-05-3.17708E-05 8.62019E-07 1.33672E-20-4.64182E-18
 -1      1437 1.06719E-04-3.20908E-05-3.19888E-05 8.21365E-07 6.50131E-20-4.65083E-18
 -1      1438 1.04429E-04-3.13942E-05-3.12947E-05 1.78070E-06 5.11651E-19-2.95691E-18
 -1      1439 1.07202E-04-3.22658E-05-3.21174E-05 5.23608E-07 1.53343E-19-4.73849E-18
 -1      1440 1.07618E-04-3.24304E-05-3.22265E-05 4.31979E-07 8.78532E-20-4.45865E-18
 -1      1441 1.05598E-04-3.18479E-05-3.15893E-05 1.29029E-06-1.13903E-19-2.35906E-18
 -1      1442 1.07757E-04-3.25177E-05-3.22403E-05-1.02242E-07-3.29284E-20-5.19104E-18
 -1      1443 1.07531E-04-3.24889E-05-3.21590E-05-2.60679E-07-1.72513E-19-4.97121E-18
 -1      1444 1.06279E-04-3.21917E-05-3.17171E-05 3.05446E-07-2.57498E-19-2.73180E-18
 -1      1445 1.07125E-04-3.24244E-05-3.19985E-05-1.06123E-06-3.74190E-19-4.13068E-18
 -1      1446 1.05938E-04-3.20909E-05-3.16391E-05-1.29166E-06 4.65273E-20-4.47850E-18
 -1      1447 1.06111E-04-3.23000E-05-3.15780E-05-1.28509E-06-2.06610E-19-2.34489E-18
 -1      1448 1.04791E-04-3.18016E-05-3.12527E-05-2.31232E-06 4.36401E-19-4.88798E-18
 -1      1449 1.02386E-04-3.10617E-05-3.05493E-05-2.59392E-06 1.07600E-20-4.90781E-18
 -1      1450 1.04690E-04-3.20057E-05-3.10756E-05-3.47065E-06-1.58819E-21-2.71533E-18
 -1      1451 1.00380E-04-3.04868E-05-2.99176E-05-3.65925E-06-8.29100E-20-4.75553E-18
 -1      1452 9.67149E-05-2.93022E-05-2.88698E-05-3.92960E-06-6.33885E-19-5.55108E-18
 -1      1453 1.01679E-04-3.11295E-05-3.01520E-05-5.99676E-06-2.58987E-19-3.88283E-18
 -1      1454 9.39240E-05-2.84342E-05-2.80342E-05-4.71511E-06-9.32689E-19-5.98249E-18
 -1      1455 8.93465E-05-2.68996E-05-2.67503E-05-4.86967E-06-6.79585E-19-6.35587E-18
 -1      1456 9.69970E-05-2.95569E-05-2.88340E-05-8.26915E-06-1.06709E-18-4.59817E-18
 -1      1457 8.61336E-05-2.58358E-05-2.58306E-05-4.97410E-06 2.58982E-19-6.23024E-18
 -1      1458 8.14663E-05-2.42256E-05-2.45425E-05-4.90026E-06 8.79396E-19-5.58692E-18
 -1      1459 9.10409E-05-2.73628E-05-2.72691E-05-9.40388E-06-1.98562E-19-4.58406E-18
 -1      1460 7.84942E-05-2.31937E-05-2.37239E-05-4.03666E-06 3.60095E-19-4.18958E-18
 -1      1461 7.48897E-05-2.19230E-05-2.27414E-05-3.68364E-06 9.36302E-19-4.21764E-18
 -1      1462 8.48247E-05-2.49233E-05-2.57255E-05-8.53908E-06 1.45516E-18-2.29948E-18
 -1      1463 7.29415E-05-2.12214E-05-2.22228E-05-1.90111E-06 1.24326E-18-4.96160E-18
 -1      1464 7.14858E-05-2.06970E-05-2.18311E-05-1.33460E-06 9.11699E-19-3.49779E-18
 -1      1465 7.98240E-05-2.28788E-05-2.45336E-05-5.35672E-06 1.34354E-18-3.06271E-18
 -1      1466 7.11376E-05-2.05585E-05-2.17516E-05 9.08501E-07 3.50010E-19-3.39963E-18
 -1      1467 7.23774E-05-2.09932E-05-2.20881E-05 1.51722E-06-1.24196E-19-3.33530E-18
 -1      1468 7.74469E-05-2.18879E-05-2.39773E-05-4.68106E-07 6.13993E-19-2.07865E-18
 -1      1469 7.36954E-05-2.14525E-05-2.24569E-05 3.51384E-06-9.29506E-19-4.02012E-18
 -1      1470 7.73341E-05-2.27621E-05-2.34283E-05 3.96567E-06-3.81046E-19-4.30335E-18
 -1      1471 7.83788E-05-2.23043E-05-2.41779E-05 4.68288E-06-5.40447E-19-3.45106E-18
 -1      1472 7.98501E-05-2.36862E-05-2.40982E-05 4.98834E-06 6.73449E-19-3.79053E-18
 -1      1473 8.46826E-05-2.54804E-05-2.53605E-05 5.08827E-06 5.28170E-19-3.42101E-18
 -1      1474 8.22148E-05-2.40428E-05-2.50056E-05 8.38204E-06-1.38569E-20-2.97003E-18
 -1      1475 8.75216E-05-2.65827E-05-2.60591E-05 4.49860E-06 1.66252E-18-2.11123E-18
 -1      1476 9.17027E-05-2.82209E-05-2.71027E-05 4.22925E-06 2.02294E-18 2.99347E-19
 -1      1477 8.76853E-05-2.67788E-05-2.60860E-05 8.98739E-06 2.18238E-18-7.39063E-19
 -1      1478 9.46366E-05-2.93616E-05-2.76765E-05 8.61143E-07-1.33900E-18 1.16581E-18
 -1      1479 9.39079E-05-3.03639E-05-2.70884E-05 4.64393E-06 3.38548E-19 6.22781E-19
 -1      1480 9.65917E-05-2.83680E-05-2.97767E-05 2.99424E-06 1.05021E-18 1.24273E-17
 -1      1481 1.02549E-04-2.94022E-05-3.21596E-05 4.46126E-06 8.94573E-19 1.40004E-17
 -1      1482 1.02338E-04-2.67219E-05-3.27093E-05 1.27803E-05 1.77787E-18 9.63902E-18
 -1      1483 9.20480E-05-2.74345E-05-2.77670E-05 1.15049E-06 8.49415E-19 1.02058E-17
 -1      1484 9.39930E-05-2.75891E-05-2.86806E-05 1.47247E-06 8.48026E-19 1.15665E-17
 -1      1485 9.65012E-05-2.80346E-05-2.95381E-05 4.86486E-06 1.63131E-18 8.02053E-18
 -1      1486 9.02184E-05-2.70106E-05-2.70690E-05 3.30115E-07 6.17163E-19 8.54230E-18
 -1      1487 9.08316E-05-2.70275E-05-2.73411E-05 4.93067E-07 5.63449E-19 9.46009E-18
 -1      1488 9.30590E-05-2.75838E-05-2.81038E-05 1.84882E-06 1.32101E-18 6.65123E-18
 -1      1489 8.97043E-05-2.68934E-05-2.68943E-05-5.69447E-08 4.56610E-19 7.35705E-18
 -1      1490 8.97398E-05-2.68304E-05-2.69219E-05 3.22739E-08 4.55373E-19 8.04246E-18
 -1      1491 9.15084E-05-2.73134E-05-2.75209E-05 5.14535E-07 9.56836E-19 5.43857E-18
 -1      1492 8.98397E-05-2.69469E-05-2.69372E-05-2.44422E-07 3.35620E-19 6.53438E-18
 -1      1493 8.96092E-05-2.68387E-05-2.68715E-05-1.94067E-07 2.67285E-19 7.00374E-18
 -1      1494 9.09796E-05-2.72333E-05-2.73256E-05-1.35677E-07 5.96083E-19 4.83923E-18
 -1      1495 9.02960E-05-2.70903E-05-2.70765E-05-3.27734E-07 3.77459E-20 6.37325E-18
 -1      1496 8.99469E-05-2.69624E-05-2.69744E-05-2.99951E-07 1.52295E-19 6.45065E-18
 -1      1497 9.10000E-05-2.72772E-05-2.73156E-05-4.54743E-07 3.06446E-19 4.62540E-18
 -1      1498 9.08939E-05-2.72737E-05-2.72569E-05-3.52287E-07 1.69045E-19 6.19521E-18
 -1      1499 9.05041E-05-2.71426E-05-2.71428E-05-3.38488E-07 4.38038E-20 6.24543E-18
 -1      1500 9.13073E-05-2.73901E-05-2.73980E-05-5.95111E-07 1.63871E-19 4.32292E-18
 -1      1501 9.15305E-05-2.74669E-05-2.74486E-05-3.43020E-07 3.67520E-19 5.50801E-18
 -1      1502 9.11437E-05-2.73425E-05-2.73351E-05-3.38018E-07 2.92303E-19 5.90878E-18
 -1      1503 9.17505E-05-2.75347E-05-2.75247E-05-6.33497E-07 4.73951E-19 3.89392E-18
 -1      1504 9.21467E-05-2.76527E-05-2.76343E-05-3.14971E-07 4.13208E-19 4.63946E-18
 -1      1505 9.17871E-05-2.75404E-05-2.75285E-05-3.15417E-07 2.86197E-19 5.15608E-18
 -1      1506 9.22402E-05-2.76877E-05-2.76677E-05-6.13178E-07 5.76703E-19 3.10981E-18
 -1      1507 9.27098E-05-2.78217E-05-2.78042E-05-2.77617E-07 2.28939E-19 4.20927E-18
 -1      1508 9.23899E-05-2.77239E-05-2.77098E-05-2.81285E-07 3.12095E-19 4.56680E-18
 -1      1509 9.27236E-05-2.78354E-05-2.78106E-05-5.60495E-07 4.99174E-19 2.79985E-18
 -1      1510 9.32040E-05-2.79695E-05-2.79535E-05-2.37014E-07 1.48459E-19 3.67583E-18
 -1      1511 9.29288E-05-2.78868E-05-2.78721E-05-2.42409E-07 1.07635E-19 4.02357E-18
 -1      1512 9.31708E-05-2.79701E-05-2.79439E-05-4.92109E-07 2.53015E-19 2.96360E-18
 -1      1513 9.36241E-05-2.80947E-05-2.80807E-05-1.96975E-07 2.43945E-19 3.52083E-18
 -1      1514 9.33939E-05-2.80266E-05-2.80124E-05-2.03099E-07 2.37819E-19 3.69655E-18
 -1      1515 9.35666E-05-2.80880E-05-2.80625E-05-4.18655E-07 3.43671E-19 2.67854E-18
 -1      1516 9.39720E-05-2.81981E-05-2.81861E-05-1.59815E-07 1.98342E-19 3.32374E-18
 -1      1517 9.37841E-05-2.81432E-05-2.81303E-05-1.66012E-07 1.65335E-19 3.28970E-18
 -1      1518 9.39054E-05-2.81880E-05-2.81646E-05-3.46815E-07 3.81588E-19 2.54926E-18
 -1      1519 9.42534E-05-2.82815E-05-2.82716E-05-1.26844E-07 5.05198E-19 2.00748E-18
 -1      1520 9.41034E-05-2.82383E-05-2.82269E-05-1.32697E-07 4.59407E-19 2.87693E-18
 -1      1521 9.41876E-05-2.82706E-05-2.82500E-05-2.80631E-07 7.04140E-19 1.77619E-18
 -1      1522 9.44764E-05-2.83474E-05-2.83394E-05-9.87260E-08 3.28683E-20 1.46939E-18
 -1      1523 9.43592E-05-2.83141E-05-2.83044E-05-1.03976E-07 2.30601E-19 1.65120E-18
 -1      1524 9.44176E-05-2.83374E-05-2.83198E-05-2.22398E-07 5.96222E-19 1.24694E-18
 -1      1525 9.46504E-05-2.83986E-05-2.83924E-05-7.57486E-08-4.62792E-19 1.92659E-18
 -1      1526 9.45604E-05-2.83734E-05-2.83654E-05-8.02366E-08-4.07305E-19 1.45499E-18
 -1      1527 9.46017E-05-2.83904E-05-2.83760E-05-1.73314E-07-1.78052E-19 1.05734E-18
 -1      1528 9.47854E-05-2.84382E-05-2.84337E-05-5.80231E-08 1.12170E-19 2.11897E-18
 -1      1529 9.47168E-05-2.84192E-05-2.84130E-05-6.16411E-08 3.23332E-20 2.09239E-18
 -1      1530 9.47479E-05-2.84320E-05-2.84208E-05-1.33955E-07-2.42259E-19 1.24190E-18
 -1      1531 9.48918E-05-2.84691E-05-2.84663E-05-4.56431E-08-1.46019E-19 1.52668E-18
 -1      1532 9.48389E-05-2.84546E-05-2.84502E-05-4.82954E-08 2.34885E-19 1.90636E-18
 -1      1533 9.48648E-05-2.84649E-05-2.84569E-05-1.04649E-07 3.67831E-19 1.20667E-18
 -1      1534 9.49804E-05-2.84947E-05-2.84935E-05-3.88085E-08 9.39313E-20 1.55603E-18
 -1      1535 9.49372E-05-2.84828E-05-2.84803E-05-4.03795E-08-4.89623E-20 1.47093E-18
 -1      1536 9.49617E-05-2.84918E-05-2.84870E-05-8.57618E-08 1.08412E-19 7.83560E-19
 -1      1537 9.50628E-05-2.85183E-05-2.85189E-05-3.79291E-08-4.74708E-19 2.26660E-18
 -1      1538 9.50231E-05-2.85071E-05-2.85067E-05-3.82539E-08-1.97190E-19 1.80979E-18
 -1      1539 9.50487E-05-2.85156E-05-2.85142E-05-7.79205E-08-2.64321E-19 1.30593E-18
 -1      1540 9.51519E-05-2.85438E-05-2.85464E-05-4.37150E-08 6.83939E-20 2.41008E-18
 -1      1541 9.51087E-05-2.85311E-05-2.85330E-05-4.25521E-08-1.31110E-19 2.22548E-18
 -1      1542 9.51367E-05-2.85395E-05-2.85420E-05-8.22122E-08-3.71693E-19 1.60949E-18
 -1      1543 9.52624E-05-2.85755E-05-2.85804E-05-5.72618E-08 3.27646E-19 1.65567E-18
 -1      1544 9.52078E-05-2.85589E-05-2.85635E-05-5.42647E-08 2.25719E-19 2.31942E-18
 -1      1545 9.52383E-05-2.85671E-05-2.85740E-05-1.00353E-07 3.17425E-19 1.49916E-18
 -1      1546 9.54118E-05-2.86185E-05-2.86263E-05-8.01345E-08 1.38169E-19 1.37174E-18
 -1      1547 9.53363E-05-2.85950E-05-2.86030E-05-7.48214E-08 2.39334E-19 1.29767E-18
 -1      1548 9.53681E-05-2.86026E-05-2.86149E-05-1.34852E-07 5.35675E-19 6.37435E-19
 -1      1549 9.56213E-05-2.86792E-05-2.86904E-05-1.14454E-07-2.98426E-19 1.85979E-18
 -1      1550 9.55134E-05-2.86450E-05-2.86573E-05-1.06173E-07-4.09169E-19 1.47892E-18
 -1      1551 9.55434E-05-2.86511E-05-2.86699E-05-1.89166E-07-3.32497E-19 1.80988E-19
 -1      1552 9.59170E-05-2.87652E-05-2.87807E-05-1.62983E-07-2.89015E-19 2.05477E-18
 -1      1553 9.57624E-05-2.87158E-05-2.87335E-05-1.50875E-07-7.37820E-20 2.18472E-18
 -1      1554 9.57853E-05-2.87185E-05-2.87455E-05-2.67863E-07-3.39996E-19 1.20070E-19
 -1      1555 9.63314E-05-2.88860E-05-2.89069E-05-2.29212E-07 2.77593E-19 1.90492E-18
 -1      1556 9.61121E-05-2.88157E-05-2.88403E-05-2.12164E-07 1.90562E-20 2.00409E-18
 -1      1557 9.61195E-05-2.88123E-05-2.88496E-05-3.76769E-07 9.02438E-20 8.84621E-19
 -1      1558 9.69043E-05-2.90536E-05-2.90813E-05-3.17407E-07 2.77377E-19 1.07329E-18
 -1      1559 9.65981E-05-2.89552E-05-2.89885E-05-2.94010E-07 5.70353E-19 1.94790E-18
 -1      1560 9.65773E-05-2.89417E-05-2.89918E-05-5.23082E-07 8.84911E-19 1.53641E-18
 -1      1561 9.76847E-05-2.92825E-05-2.93185E-05-4.32591E-07-4.68818E-19 6.85726E-19
 -1      1562 9.72639E-05-2.91470E-05-2.91914E-05-4.01106E-07-3.13627E-19 5.16381E-19
 -1      1563 9.71966E-05-2.91177E-05-2.91837E-05-7.15375E-07-1.11832E-19 1.47308E-18
 -1      1564 9.87316E-05-2.95903E-05-2.96364E-05-5.80328E-07-7.24147E-20 1.18022E-18
 -1      1565 9.81625E-05-2.94069E-05-2.94649E-05-5.38684E-07-2.13134E-19 1.07251E-18
 -1      1566 9.80227E-05-2.93535E-05-2.94391E-05-9.63360E-07-6.65043E-19 9.28039E-19
 -1      1567 1.00114E-04-2.99978E-05-3.00557E-05-7.66095E-07-3.65733E-19 1.04127E-18
 -1      1568 9.93568E-05-2.97534E-05-2.98280E-05-7.11998E-07 4.78276E-21 9.30350E-19
 -1      1569 9.91082E-05-2.96650E-05-2.97740E-05-1.27708E-06-1.29973E-19 9.69320E-19
 -1      1570 1.01909E-04-3.05284E-05-3.05993E-05-9.93807E-07-7.06311E-19 3.31539E-18
 -1      1571 1.00918E-04-3.02085E-05-3.03022E-05-9.25064E-07-8.39975E-19 1.87878E-18
 -1      1572 1.00512E-04-3.00700E-05-3.02057E-05-1.66499E-06-1.30826E-18 1.82194E-18
 -1      1573 1.04193E-04-3.12068E-05-3.12898E-05-1.26270E-06 5.83361E-20 4.01787E-18
 -1      1574 1.02923E-04-3.07960E-05-3.09100E-05-1.17803E-06-2.58539E-19 3.47063E-18
 -1      1575 1.02293E-04-3.05881E-05-3.07515E-05-2.12978E-06-9.05946E-19 2.39020E-18
 -1      1576 1.07029E-04-3.20543E-05-3.21441E-05-1.56123E-06 1.39718E-18 2.61378E-18
 -1      1577 1.05440E-04-3.15400E-05-3.16714E-05-1.46201E-06 1.03336E-18 4.10808E-18
 -1      1578 1.04505E-04-3.12385E-05-3.14253E-05-2.66016E-06 1.12209E-18 1.38785E-18
 -1      1579 1.10429E-04-3.30803E-05-3.31622E-05-1.85594E-06 2.27458E-20 2.02913E-18
 -1      1580 1.08512E-04-3.24591E-05-3.25960E-05-1.74965E-06 5.71751E-19 3.09813E-18
 -1      1581 1.07172E-04-3.20366E-05-3.22299E-05-3.21567E-06 7.97837E-19 2.76128E-18
 -1      1582 1.14294E-04-3.42659E-05-3.43072E-05-2.07327E-06 2.69901E-19 1.08320E-18
 -1      1583 1.12107E-04-3.35563E-05-3.36684E-05-1.97950E-06 9.07682E-20 1.49560E-18
 -1      1584 1.10260E-04-3.29869E-05-3.31458E-05-3.70089E-06 6.41151E-19 2.77057E-18
 -1      1585 1.18317E-04-3.55347E-05-3.54736E-05-2.07424E-06 2.70488E-19-1.21549E-19
 -1      1586 1.16044E-04-3.47987E-05-3.48245E-05-2.03383E-06 4.41397E-19 3.11761E-19
 -1      1587 1.13618E-04-3.40695E-05-3.41115E-05-3.92730E-06 4.61707E-19 1.15436E-18
 -1      1588 1.21837E-04-3.67077E-05-3.64462E-05-1.63161E-06 7.69440E-19 6.56106E-19
 -1      1589 1.19885E-04-3.60829E-05-3.59157E-05-1.71643E-06-3.82736E-19 3.04879E-19
 -1      1590 1.16896E-04-3.52161E-05-3.49985E-05-3.57023E-06-3.39541E-20 7.07802E-19
 -1      1591 1.23700E-04-3.74473E-05-3.68697E-05-4.41823E-07 6.32886E-19-9.98989E-19
 -1      1592 1.22786E-04-3.71808E-05-3.66727E-05-7.55036E-07 1.10250E-18 6.52017E-19
 -1      1593 1.19450E-04-3.62690E-05-3.55894E-05-2.15544E-06 1.23624E-18-5.94577E-19
 -1      1594 1.22258E-04-3.72215E-05-3.62746E-05 1.75881E-06 2.66696E-19-7.92293E-19
 -1      1595 1.23405E-04-3.76757E-05-3.66957E-05 1.11591E-06-7.04626E-20-9.83046E-19
 -1      1596 1.20271E-04-3.69207E-05-3.55833E-05 8.38530E-07 2.37460E-19-3.23414E-19
 -1      1597 1.15743E-04-3.53727E-05-3.42332E-05 4.88986E-06-1.00516E-18-6.71591E-19
 -1      1598 1.20019E-04-3.69371E-05-3.55277E-05 3.91779E-06-6.16746E-20-7.36178E-19
 -1      1599 1.18062E-04-3.66567E-05-3.46685E-05 5.62898E-06-1.01220E-19 8.85679E-20
 -1      1600 1.03340E-04-3.14565E-05-3.06695E-05 8.07665E-06 1.66455E-19 4.42045E-19
 -1      1601 1.11152E-04-3.42773E-05-3.28683E-05 7.02930E-06-6.90822E-19-5.96311E-19
 -1      1602 1.11655E-04-3.48122E-05-3.26905E-05 1.14576E-05-7.11428E-19-5.72647E-19
 -1      1603 8.67342E-05-2.58883E-05-2.61724E-05 9.58159E-06-1.81422E-19-4.01388E-19
 -1      1604 9.68844E-05-2.94856E-05-2.88878E-05 8.98795E-06 4.29972E-19-2.99638E-20
 -1      1605 1.00975E-04-3.09833E-05-2.98538E-05 1.60300E-05 4.03783E-19-2.67609E-19
 -1      1606 7.07631E-05-2.03734E-05-2.19835E-05 7.75021E-06 1.49278E-18-2.30139E-18
 -1      1607 8.01608E-05-2.35224E-05-2.44301E-05 8.12185E-06 8.59553E-19-1.03116E-18
 -1      1608 8.81275E-05-2.57722E-05-2.67888E-05 1.61866E-05 1.50221E-18-2.38652E-19
 -1      1609 6.15222E-05-1.72850E-05-1.94653E-05 2.80462E-06 3.40137E-19-5.23578E-18
 -1      1610 6.65306E-05-1.86214E-05-2.08105E-05 4.08396E-06 6.65477E-19-4.44698E-18
 -1      1611 7.73772E-05-2.11566E-05-2.43335E-05 1.03409E-05 2.27884E-18-3.07409E-18
 -1      1612 6.20680E-05-1.77490E-05-1.93672E-05-2.67758E-06-3.81257E-19-4.72359E-18
 -1      1613 6.10531E-05-1.68664E-05-1.92003E-05-1.20376E-06 7.72388E-20-4.65384E-18
 -1      1614 7.27704E-05-1.94199E-05-2.31547E-05 8.89911E-07 5.63595E-19-3.38444E-18
 -1      1615 7.03729E-05-2.08241E-05-2.13268E-05-6.07239E-06-4.83179E-19-3.74749E-18
 -1      1616 6.47092E-05-1.84867E-05-1.99368E-05-5.06728E-06-3.87015E-19-4.46037E-18
 -1      1617 7.49931E-05-2.09219E-05-2.33995E-05-7.32491E-06-8.69294E-19-2.78626E-18
 -1      1618 8.16068E-05-2.47210E-05-2.42059E-05-6.68920E-06-3.25261E-19-2.32765E-18
 -1      1619 7.42589E-05-2.20573E-05-2.23281E-05-6.32871E-06-6.08370E-19-2.87261E-18
 -1      1620 8.13097E-05-2.40487E-05-2.46451E-05-1.11539E-05-1.26832E-18-2.04934E-18
 -1      1621 9.12429E-05-2.82787E-05-2.66037E-05-4.89933E-06-2.02534E-19-1.92795E-18
 -1      1622 8.51996E-05-2.61501E-05-2.50918E-05-5.10862E-06-8.42004E-20-2.20800E-18
 -1      1623 8.84321E-05-2.74635E-05-2.60417E-05-1.03927E-05-3.44107E-20-2.26229E-18
 -1      1624 9.39227E-05-3.00320E-05-2.68391E-05-1.92069E-06-9.10190E-19-1.06287E-18
 -1      1625 9.86457E-05-3.92360E-05-2.54237E-05-5.98973E-06-1.96776E-18-1.34641E-18
 -1      1626 9.63255E-05-3.40343E-05-2.65030E-05-5.57802E-06-1.72287E-18-1.36724E-18
 -1      1627 1.01964E-04-4.42624E-05-2.49897E-05-2.76473E-06-3.23683E-18-1.42275E-19
 -1      1628 1.00206E-04-4.14437E-05-2.52775E-05-3.91332E-06-2.42326E-18-1.19212E-18
 -1      1629 9.88747E-05-3.69509E-05-2.66915E-05-8.78554E-06-1.67347E-18-1.47267E-18
 -1      1630 1.01664E-04-3.81974E-05-2.77014E-05 6.55187E-06-4.68536E-18-1.45462E-18
 -1      1631 1.02807E-04-4.38327E-05-2.57417E-05 4.04988E-06-3.75087E-18 2.48339E-19
 -1      1632 1.03263E-04-3.98093E-05-2.76325E-05 1.53858E-06-1.01676E-18-6.22252E-19
 -1      1633 9.44733E-05-1.45438E-05-3.45682E-05 2.03225E-05-8.23824E-18-1.37664E-18
 -1      1634 1.00631E-04-3.27397E-05-2.97640E-05 1.69727E-05-6.59542E-18-2.66627E-18
 -1      1635 1.04150E-04-3.52445E-05-3.02087E-05 2.20088E-05-2.51635E-18-3.49512E-18
 -1      1636 7.96258E-05 2.22049E-05-4.30500E-05 2.91408E-05-1.05464E-17-1.18023E-18
 -1      1637 9.00056E-05-3.49836E-06-3.72389E-05 2.78478E-05-8.93366E-18-1.23794E-18
 -1      1638 9.74927E-05-1.92489E-05-3.38233E-05 4.41874E-05-5.08516E-18-1.65770E-18
 -1      1639 6.33245E-05 5.56885E-05-4.93259E-05 2.03180E-05-9.37051E-18 1.44970E-18
 -1      1640 7.22885E-05 3.59705E-05-4.52703E-05 2.41085E-05-1.07755E-17 3.16367E-19
 -1      1641 8.03047E-05 7.06333E-06-3.67866E-05 4.87434E-05-4.76880E-18-3.68459E-19
 -1      1642 5.94188E-05 6.11964E-05-4.98447E-05-2.42163E-06-8.81327E-18 4.51469E-19
 -1      1643 6.00650E-05 6.14195E-05-4.99388E-05 3.46629E-06-9.95211E-18 9.73029E-19
 -1      1644 6.54519E-05 2.84403E-05-3.82470E-05 2.24374E-05-6.38538E-18 1.18161E-18
 -1      1645 6.81012E-05 4.25332E-05-4.61472E-05-2.15436E-05-6.73730E-18-1.07997E-19
 -1      1646 6.24108E-05 5.70020E-05-4.92476E-05-1.83753E-05-7.51318E-18 5.96311E-19
 -1      1647 6.36215E-05 3.03613E-05-3.81924E-05-1.75056E-05-5.96682E-18 1.32010E-18
 -1      1648 8.33871E-05 9.59712E-06-3.95283E-05-3.01574E-05-2.03330E-18 3.68406E-18
 -1      1649 7.47922E-05 3.16337E-05-4.45275E-05-2.99811E-05-4.47784E-18 1.16012E-18
 -1      1650 7.50367E-05 1.45956E-05-3.71448E-05-4.64307E-05-3.86501E-18 2.67006E-18
 -1      1651 9.74056E-05-2.45063E-05-3.16581E-05-2.60314E-05 2.35221E-18 2.14690E-18
 -1      1652 8.97060E-05-3.16358E-06-3.69940E-05-2.82543E-05 3.61683E-19 3.28912E-18
 -1      1653 9.11231E-05-9.94495E-06-3.46480E-05-5.34741E-05-5.29978E-19 5.82727E-18
 -1      1654 1.05149E-04-4.87098E-05-2.47623E-05-1.43581E-05 8.93895E-18 3.30592E-18
 -1      1655 1.00786E-04-3.45687E-05-2.88256E-05-1.72234E-05 4.82682E-18 4.21108E-18
 -1      1656 1.02802E-04-3.23127E-05-3.07709E-05-3.98219E-05 2.90913E-18 6.19102E-18
 -1      1657 1.06440E-04-5.79644E-05-2.10866E-05-3.16635E-06 9.31262E-18-1.19744E-18
 -1      1658 1.05707E-04-5.35644E-05-2.27607E-05-5.14078E-06 9.38640E-18 4.42257E-19
 -1      1659 1.06660E-04-4.56152E-05-2.67557E-05-1.81644E-05 4.52930E-18 3.40205E-18
 -1      1660 1.04344E-04-5.57529E-05-2.08802E-05 3.38866E-06 5.62748E-18-2.68401E-18
 -1      1661 1.05745E-04-5.83370E-05-2.04775E-05 2.54878E-06 9.22403E-18-1.73520E-18
 -1      1662 1.05227E-04-4.93283E-05-2.42987E-05-8.83957E-07 4.99530E-18-2.90045E-18
 -1      1663 1.01262E-04-4.82557E-05-2.26667E-05 5.93967E-06 2.58938E-18-1.11962E-18
 -1      1664 1.03333E-04-5.36981E-05-2.12723E-05 5.74816E-06 4.97833E-18-1.97863E-18
 -1      1665 1.02226E-04-4.68808E-05-2.38412E-05 8.19919E-06 4.20891E-18-3.01803E-18
 -1      1666 9.81672E-05-3.95647E-05-2.50750E-05 6.02574E-06 3.89953E-19-1.01078E-18
 -1      1667 1.00192E-04-4.52687E-05-2.34937E-05 6.13099E-06 2.02091E-18-1.27611E-18
 -1      1668 9.93009E-05-4.15919E-05-2.46926E-05 1.11076E-05 1.73883E-18-2.73462E-18
 -1      1669 9.53945E-05-3.26335E-05-2.68707E-05 5.51757E-06-3.38125E-19-1.10800E-18
 -1      1670 9.68178E-05-3.65769E-05-2.57906E-05 6.38122E-06 4.79844E-19-2.99843E-19
 -1      1671 9.61887E-05-3.52025E-05-2.59568E-05 1.11676E-05 2.60050E-18-1.99272E-18
 -1      1672 9.25483E-05-3.02507E-05-2.65683E-05 9.78088E-06 3.02346E-18-5.75612E-19
 -1      1673 2.98055E-05-8.47195E-05 1.38229E-05-3.84883E-06 1.16543E-17 2.74375E-18
 -1      1674 3.44456E-05-9.97125E-05 1.68343E-05 3.38645E-06 1.10995E-17 1.33238E-18
 -1      1675 2.88919E-05-4.56614E-05 9.54871E-07 1.22060E-05 1.05049E-17 4.34909E-18
 -1      1676 3.57962E-05-8.08015E-05 9.30522E-06 4.11701E-06 1.20058E-17 4.13135E-18
 -1      1677 5.51845E-05-1.00854E-05-2.05448E-05 5.26352E-05 9.14796E-18 5.83606E-18
 -1      1678 4.56926E-05-3.85715E-05-8.75641E-06 2.58087E-05 1.03186E-17 4.99665E-18
 -1      1679 1.03429E-04 4.84902E-06-4.36503E-05 9.02762E-05 6.48319E-18 6.14946E-18
 -1      1680 7.07716E-05-4.19676E-07-3.14772E-05 6.11666E-05 9.67481E-18 6.25110E-18
 -1      1681 1.82206E-04-1.73019E-05-6.50687E-05 1.05526E-04 4.20298E-18 3.24922E-18
 -1      1682 1.32475E-04-5.84822E-07-5.42147E-05 9.26058E-05 4.99326E-18 5.38205E-18
 -1      1683 2.59698E-04-5.04960E-05-8.18190E-05 8.85057E-05 9.50530E-19-4.51469E-19
 -1      1684 2.08731E-04-2.31884E-05-7.41123E-05 1.03192E-04 3.41397E-18 1.99900E-18
 -1      1685 3.02241E-04-7.47716E-05-8.92421E-05 3.85829E-05 1.32455E-18-2.86699E-18
 -1      1686 2.79381E-04-5.90535E-05-8.67742E-05 7.53827E-05 9.07808E-19-1.46452E-18
 -1      1687 2.85236E-04-6.94088E-05-8.58911E-05-2.11980E-05 2.35581E-18-5.73357E-18
 -1      1688 2.99320E-04-7.43756E-05-8.85507E-05 1.96118E-05 2.09979E-18-3.03788E-18
 -1      1689 2.27587E-04-4.64113E-05-7.34286E-05-5.97495E-05 4.57345E-18-1.00568E-17
 -1      1690 2.70249E-04-6.64432E-05-8.07862E-05-3.60663E-05 3.32820E-18-7.60466E-18
 -1      1691 1.50891E-04-2.01067E-05-5.45572E-05-7.15168E-05 6.72629E-18-1.13841E-17
 -1      1692 2.04262E-04-4.10020E-05-6.52869E-05-7.34327E-05 4.90983E-18-1.10877E-17
 -1      1693 8.27407E-05-9.87248E-06-3.27792E-05-5.08685E-05 1.06862E-17-1.04727E-17
 -1      1694 1.21582E-04-1.41188E-05-4.40979E-05-7.21816E-05 8.69818E-18-1.08759E-17
 -1      1695 4.34198E-05-3.11006E-05-9.64135E-06-1.64387E-05 1.29850E-17-9.04631E-18
 -1      1696 6.19988E-05-1.40335E-05-2.15776E-05-4.26063E-05 1.23125E-17-9.78747E-18
 -1      1697 2.76399E-05-6.28934E-05 8.70739E-06 5.76951E-06 9.90182E-18-7.31032E-18
 -1      1698 2.51731E-05-3.53840E-05 3.35196E-07-5.60832E-06 1.30875E-17-1.04922E-17
 -1      1699 2.83200E-05-8.83245E-05 1.88981E-05 4.80000E-06 2.15104E-18-4.14347E-18
 -1      1700 2.23091E-05-6.92134E-05 1.44204E-05 9.08746E-06 7.52758E-18-5.85543E-18
 -1      1701 2.79334E-05-9.54355E-05 2.18339E-05-3.11590E-06-6.01732E-18-3.27590E-18
 -1      1702 2.69972E-05-9.38795E-05 2.16056E-05 9.32085E-06-1.85500E-19-3.72440E-18
 -1      1703 2.28143E-05-7.37028E-05 1.60013E-05-7.11238E-06-9.25892E-18-2.91358E-18
 -1      1704 2.86479E-05-9.13307E-05 1.98798E-05-1.88107E-07-7.27644E-18-1.82959E-18
 -1      1705 2.53225E-05-3.68738E-05 1.34192E-06 9.34587E-06-1.12071E-17-5.88773E-18
 -1      1706 2.87112E-05-6.59027E-05 9.95289E-06-4.16371E-07-1.01576E-17-4.84376E-18
 -1      1707 5.79854E-05-1.45155E-05-1.94139E-05 4.26345E-05-7.85708E-18-4.72560E-18
 -1      1708 4.36047E-05-3.25645E-05-8.42356E-06 1.96184E-05-1.03431E-17-3.96750E-18
 -1      1709 1.10663E-04-8.80158E-06-4.16765E-05 7.27924E-05-3.98105E-18-6.71697E-19
 -1      1710 7.49310E-05-7.70923E-06-3.01568E-05 5.00113E-05-7.35902E-18-3.62530E-18
 -1      1711 1.86090E-04-3.05438E-05-6.22521E-05 8.21025E-05-1.23582E-18 1.71101E-18
 -1      1712 1.36838E-04-1.18284E-05-5.21478E-05 7.66654E-05-2.45809E-18-5.94617E-19
 -1      1713 2.55555E-04-5.97270E-05-7.78643E-05 5.36751E-05 4.30399E-20 5.87163E-18
 -1      1714 2.11941E-04-3.83085E-05-7.04717E-05 7.24698E-05 1.77030E-19 3.07981E-18
 -1      1715 2.91936E-04-7.36930E-05-8.66154E-05 9.99316E-07-2.88288E-18 1.18415E-17
 -1      1716 2.71564E-04-6.41499E-05-8.30767E-05 3.76587E-05-2.05554E-18 7.65464E-18
 -1      1717 2.78643E-04-6.06874E-05-8.65928E-05-6.09341E-05-5.23085E-18 1.74307E-17
 -1      1718 2.91963E-04-7.14370E-05-8.76832E-05-1.95158E-05-3.35806E-18 1.35599E-17
 -1      1719 2.21776E-04-2.72686E-05-7.75989E-05-1.04609E-04-1.12084E-17 2.04601E-17
 -1      1720 2.67292E-04-5.45209E-05-8.37231E-05-8.16353E-05-7.09835E-18 1.89236E-17
 -1      1721 1.42262E-04-2.44417E-07-5.80229E-05-9.59893E-05-9.72563E-18 1.64511E-17
 -1      1722 1.94969E-04-2.12627E-05-6.87458E-05-1.03660E-04-1.03639E-17 1.90498E-17
 -1      1723 7.54585E-05 4.75314E-06-3.49028E-05-6.86885E-05-4.78574E-18 9.31736E-18
 -1      1724 1.12373E-04 5.97695E-06-4.74001E-05-9.72900E-05-8.58468E-18 1.45266E-17
 -1      1725 4.16251E-05-2.87225E-05-1.07649E-05-2.85257E-05 1.51788E-18 2.33612E-18
 -1      1726 5.25646E-05 6.99746E-07-2.32288E-05-5.83827E-05-2.53432E-18 7.48099E-18
 -1      1727 3.61398E-05-7.82934E-05 8.28695E-06-6.71590E-06 6.21045E-18 7.36072E-19
 -1      1728 2.93892E-05-4.04085E-05-7.81235E-07-1.73934E-05 3.45928E-18-2.74439E-19
 -1      1729 3.52265E-05-1.03400E-04 1.74588E-05-6.09814E-06 1.01117E-17 2.55804E-19
 -1      1730 2.97194E-05-8.59682E-05 1.40176E-05 2.84546E-06 7.53012E-18 1.30634E-18
 -1      1731 1.49175E-04-3.20122E-05-4.76815E-05 6.80210E-05 5.08813E-18 3.45844E-18
 -1      1732 1.02616E-04-4.08381E-05-2.71697E-05 6.37627E-05 6.49844E-18 2.72236E-18
 -1      1733 9.47410E-05-3.15055E-05-2.67083E-05-5.34716E-06-1.14328E-18-1.15493E-18
 -1      1734 9.39686E-05-3.15244E-05-2.66234E-05-9.82536E-06-1.48869E-18-1.61885E-18
 -1      1735 2.97364E-05-5.87715E-05 5.30017E-06 2.86064E-05 8.26874E-18 1.84526E-18
 -1      1736 6.17909E-05-5.19621E-05-8.16151E-06 5.21312E-05 7.54113E-18 3.50883E-18
 -1      1737 1.65148E-05-5.84573E-05 9.94064E-06-7.31487E-07 6.45556E-18 2.31833E-18
 -1      1738 1.96172E-04-3.15591E-05-6.59316E-05 6.01666E-05 4.11097E-18-2.59192E-19
 -1      1739 2.34521E-04-3.45057E-05-7.91990E-05 4.70398E-05 2.62877E-18-1.36203E-18
 -1      1740 2.47754E-04-3.77245E-05-8.32363E-05 2.32813E-05 2.76641E-18-1.55378E-18
 -1      1741 2.31987E-04-3.77323E-05-7.76958E-05-3.39049E-07 3.83579E-18-4.10642E-18
 -1      1742 2.04059E-04-4.16793E-05-6.53768E-05-2.34349E-05 4.67350E-18-6.95668E-18
 -1      1743 1.57910E-04-4.18058E-05-4.77390E-05-4.02741E-05 6.19139E-18-7.12863E-18
 -1      1744 1.06843E-04-4.52803E-05-2.69765E-05-3.91078E-05 8.11034E-18-5.52265E-18
 -1      1745 6.21461E-05-5.17393E-05-7.09862E-06-3.04699E-05 7.66988E-18-8.00700E-18
 -1      1746 3.02939E-05-5.88326E-05 7.97169E-06-1.68144E-05 5.00215E-18-8.61792E-18
 -1      1747 1.64389E-05-6.48124E-05 1.58690E-05-5.49207E-06 6.89697E-19-7.25823E-18
 -1      1748 1.52377E-05-6.57297E-05 1.66036E-05 7.09673E-06-2.30901E-18-4.33935E-18
 -1      1749 2.76860E-05-5.79047E-05 9.00621E-06 2.06367E-05-4.67139E-18-4.40330E-18
 -1      1750 6.03564E-05-5.07601E-05-6.06090E-06 3.62562E-05-5.43033E-18-1.11342E-18
 -1      1751 1.01416E-04-4.46846E-05-2.51245E-05 4.26077E-05-4.97039E-18 1.86347E-18
 -1      1752 1.46065E-04-3.64412E-05-4.53723E-05 4.66000E-05-2.48138E-18 1.96681E-18
 -1      1753 1.93960E-04-3.73826E-05-6.32705E-05 3.78239E-05-1.35864E-18 4.24702E-18
 -1      1754 2.28126E-04-3.87071E-05-7.59579E-05 1.49491E-05-2.50510E-18 8.39410E-18
 -1      1755 2.40839E-04-3.59717E-05-8.19290E-05-1.32290E-05-5.22704E-18 1.04766E-17
 -1      1756 2.32878E-04-3.14251E-05-8.02890E-05-4.39437E-05-6.63396E-18 1.31430E-17
 -1      1757 1.98848E-04-2.80345E-05-6.89138E-05-5.96220E-05-7.01396E-18 1.22506E-17
 -1      1758 1.54578E-04-2.84565E-05-5.09879E-05-6.89917E-05-3.45632E-18 1.34322E-17
 -1      1759 1.03476E-04-3.30037E-05-2.99199E-05-6.84882E-05-1.24006E-18 1.01043E-17
 -1      1760 6.05341E-05-4.71830E-05-9.43720E-06-5.41296E-05 2.13622E-18 4.55810E-18
 -1      1761 3.01088E-05-5.97308E-05 5.21745E-06-3.06047E-05 6.01732E-18 2.29885E-18
 -1      1762 1.06061E-04-2.31730E-05-3.56068E-05-1.68509E-05-1.65550E-18 6.85970E-18
 -1      1763 8.91442E-05-1.05811E-05-3.37957E-05-1.33175E-05-1.97925E-18-2.11462E-18
 -1      1764 9.04898E-05-1.16358E-05-3.39370E-05-1.51314E-05-2.32156E-18-1.42752E-18
 -1      1765 9.24967E-05-1.38761E-05-3.38562E-05-1.59979E-05-2.35579E-18-5.20158E-19
 -1      1766 9.42146E-05-1.58229E-05-3.41006E-05-1.76597E-05-2.56124E-18 7.39989E-19
 -1      1767 9.34200E-05-1.63460E-05-3.30474E-05-1.37753E-05-2.45693E-18-8.30886E-19
 -1      1768 8.62039E-05-7.66806E-06-3.37297E-05-7.86267E-06-9.27771E-19-3.25502E-18
 -1      1769 8.66080E-05-7.96906E-06-3.37643E-05-9.25055E-06-1.19788E-18-3.12050E-18
 -1      1770 8.55888E-05-7.03411E-06-3.37257E-05-5.31930E-06-4.23416E-19-3.36980E-18
 -1      1771 8.58234E-05-7.21192E-06-3.37413E-05-6.62333E-06-6.83417E-19-3.36369E-18
 -1      1772 8.75887E-05-9.86565E-06-3.33425E-05-6.93096E-06-8.73437E-19-3.12824E-18
 -1      1773 8.52530E-05-6.67517E-06-3.37286E-05-2.88783E-06 1.38985E-19-3.35645E-18
 -1      1774 8.53742E-05-6.76977E-06-3.37347E-05-4.12719E-06-1.19607E-19-3.37475E-18
 -1      1775 8.69527E-05-9.15330E-06-3.33751E-05-4.53649E-06-2.86886E-19-3.21404E-18
 -1      1776 8.51216E-05-6.52676E-06-3.37319E-05-5.17284E-07 6.76676E-19-3.21880E-18
 -1      1777 8.51574E-05-6.55532E-06-3.37334E-05-1.72649E-06 4.04082E-19-3.30004E-18
 -1      1778 8.66193E-05-8.77342E-06-3.33949E-05-2.21647E-06 2.68582E-19-3.13859E-18
 -1      1779 8.51672E-05-6.56423E-06-3.37336E-05 1.84438E-06 1.05726E-18-3.11507E-18
 -1      1780 8.51253E-05-6.53126E-06-3.37318E-05 6.34208E-07 8.78540E-19-3.20483E-18
 -1      1781 8.65207E-05-8.65958E-06-3.34014E-05 6.53876E-08 8.15646E-19-3.05570E-18
 -1      1782 8.53993E-05-6.79475E-06-3.37348E-05 4.24936E-06 1.46434E-18-2.86472E-18
 -1      1783 8.52707E-05-6.69392E-06-3.37285E-05 3.00695E-06 1.26780E-18-3.04193E-18
 -1      1784 8.66367E-05-8.79276E-06-3.33942E-05 2.34833E-06 1.21108E-18-2.95704E-18
 -1      1785 8.58579E-05-7.24848E-06-3.37407E-05 6.70982E-06 1.91693E-18-2.31236E-18
 -1      1786 8.56190E-05-7.06604E-06-3.37256E-05 5.42293E-06 1.67819E-18-2.60165E-18
 -1      1787 8.69862E-05-9.19019E-06-3.33737E-05 4.65073E-06 1.68536E-18-2.58681E-18
 -1      1788 8.66736E-05-8.03896E-06-3.37621E-05 9.37077E-06 2.48016E-18-1.56106E-18
 -1      1789 8.62515E-05-7.72207E-06-3.37280E-05 7.95025E-06 2.17331E-18-1.98300E-18
 -1      1790 8.76403E-05-9.92345E-06-3.33399E-05 7.02514E-06 2.19527E-18-1.97303E-18
 -1      1791 8.80890E-05-9.38775E-06-3.38182E-05 1.22492E-05 2.90704E-18-5.08326E-19
 -1      1792 8.73474E-05-8.82940E-06-3.37458E-05 1.06563E-05 2.64918E-18-1.12724E-18
 -1      1793 8.87642E-05-1.11593E-05-3.32900E-05 9.49857E-06 2.72766E-18-1.14225E-18
 -1      1794 9.06363E-05-1.18413E-05-3.39291E-05 1.52976E-05 3.16213E-18 1.13129E-18
 -1      1795 8.92543E-05-1.07414E-05-3.37889E-05 1.35078E-05 3.00294E-18 1.29040E-19
 -1      1796 9.06649E-05-1.32232E-05-3.32080E-05 1.19701E-05 3.09937E-18-1.28114E-20
 -1      1797 9.58840E-05-1.70370E-05-3.39955E-05 1.76860E-05 2.82912E-18 4.17921E-18
 -1      1798 9.28631E-05-1.43451E-05-3.38290E-05 1.61888E-05 2.92390E-18 2.36500E-18
 -1      1799 9.39759E-05-1.68888E-05-3.30261E-05 1.38892E-05 3.12993E-18 1.78390E-18
 -1      1800 1.01934E-04-2.50975E-05-3.33620E-05 1.44190E-05 2.25300E-18 7.68746E-18
 -1      1801 9.80853E-05-1.96194E-05-3.36278E-05 1.69601E-05 2.57345E-18 5.37231E-18
 -1      1802 9.73381E-05-2.18570E-05-3.24302E-05 1.32438E-05 2.91189E-18 4.06785E-18
 -1      1803 9.87628E-05-2.61387E-05-3.13455E-05 9.43133E-06 2.29842E-18 6.91698E-18
 -1      1804 1.00164E-04-1.95656E-05-3.42209E-05-1.88657E-05-2.21004E-18 2.96938E-18
 -1      1805 9.53236E-05-2.72894E-05-2.91890E-05 4.06317E-06 1.84629E-18 5.76612E-18
 -1      1806 9.77528E-05-2.73942E-05-3.01978E-05 6.39730E-06 1.91392E-18 6.37852E-18
 -1      1807 9.75868E-05-2.56180E-05-3.08358E-05 8.75556E-06 2.36846E-18 4.73020E-18
 -1      1808 9.98228E-05-2.25425E-05-3.28391E-05-1.44633E-05-2.35803E-18 2.06734E-18
 -1      1809 9.69726E-05-2.69834E-05-2.98803E-05-5.70059E-06-1.96872E-18 1.86910E-18
 -1      1810 9.51644E-05-2.70385E-05-2.91700E-05-3.89422E-06-1.77575E-18 1.39751E-18
 -1      1811 9.43451E-05-2.72389E-05-2.86628E-05-2.41827E-06-1.63156E-18 1.36029E-18
 -1      1812 9.35742E-05-2.73194E-05-2.83581E-05-1.56455E-06-1.33025E-18 9.10302E-19
 -1      1813 9.55166E-05-2.65474E-05-2.95785E-05-4.47006E-06-1.96088E-18 3.95430E-19
 -1      1814 9.30502E-05-2.73705E-05-2.80894E-05-7.37291E-07-9.75974E-19 9.31290E-19
 -1      1815 9.27500E-05-2.74345E-05-2.79676E-05-2.98983E-07-8.36316E-19 6.53069E-19
 -1      1816 9.43070E-05-2.72232E-05-2.87704E-05-1.82430E-06-1.40563E-18 4.00534E-19
 -1      1817 9.24746E-05-2.74621E-05-2.78317E-05 1.56009E-07-7.63172E-19 6.36846E-19
 -1      1818 9.24442E-05-2.75386E-05-2.78021E-05 3.79822E-07-5.53122E-19 3.90581E-19
 -1      1819 9.36073E-05-2.75309E-05-2.83348E-05-3.58143E-07-9.72452E-19 2.18548E-19
 -1      1820 9.23409E-05-2.75701E-05-2.77439E-05 6.19092E-07-5.10070E-19 3.59683E-19
 -1      1821 9.24563E-05-2.76554E-05-2.77632E-05 7.22578E-07-4.67757E-19 1.43262E-19
 -1      1822 9.32866E-05-2.77159E-05-2.81139E-05 4.43428E-07-7.14541E-19 1.51060E-19
 -1      1823 9.24615E-05-2.76934E-05-2.77512E-05 8.32871E-07-4.99655E-19 2.94600E-20
 -1      1824 9.26493E-05-2.77803E-05-2.77959E-05 8.65871E-07-4.21570E-19-1.36969E-20
 -1      1825 9.32230E-05-2.78591E-05-2.80213E-05 8.53351E-07-5.46381E-19 5.38193E-20
 -1      1826 9.27174E-05-2.78217E-05-2.78105E-05 8.98231E-07-4.04769E-19-6.49461E-20
 -1      1827 9.29333E-05-2.79045E-05-2.78666E-05 8.89835E-07-3.70933E-19-3.42476E-20
 -1      1828 9.33171E-05-2.79827E-05-2.80055E-05 1.02679E-06-5.27554E-19-1.60861E-19
 -1      1829 9.30335E-05-2.79458E-05-2.78954E-05 8.75902E-07-5.09102E-19-9.77847E-20
 -1      1830 9.32509E-05-2.80209E-05-2.79542E-05 8.44206E-07-4.11588E-19-1.69010E-19
 -1      1831 9.34978E-05-2.80919E-05-2.80339E-05 1.05736E-06-4.25042E-19-3.00072E-19
 -1      1832 9.33632E-05-2.80597E-05-2.79892E-05 8.04292E-07-5.69917E-19-4.00687E-19
 -1      1833 9.35667E-05-2.81253E-05-2.80458E-05 7.60909E-07-6.01351E-19-7.54298E-19
 -1      1834 9.37175E-05-2.81870E-05-2.80857E-05 1.00417E-06-8.55465E-19-5.73980E-19
 -1      1835 9.36785E-05-2.81600E-05-2.80820E-05 7.08252E-07-6.19740E-19-8.88197E-19
 -1      1836 9.38602E-05-2.82156E-05-2.81334E-05 6.60677E-07-5.98253E-19-1.15953E-18
 -1      1837 9.39454E-05-2.82681E-05-2.81476E-05 9.05522E-07-8.45379E-19-7.62781E-19
 -1      1838 9.39642E-05-2.82455E-05-2.81680E-05 6.03871E-07-6.89197E-19-1.23208E-18
 -1      1839 9.41208E-05-2.82914E-05-2.82129E-05 5.56864E-07-6.63418E-19-1.35296E-18
 -1      1840 9.41628E-05-2.83355E-05-2.82113E-05 7.86441E-07-7.29213E-19-9.30149E-19
 -1      1841 9.42133E-05-2.83164E-05-2.82443E-05 5.01386E-07-3.56315E-19-1.38713E-18
 -1      1842 9.43445E-05-2.83534E-05-2.82824E-05 4.57874E-07-1.15251E-19-1.26769E-18
 -1      1843 9.43594E-05-2.83902E-05-2.82719E-05 6.63110E-07-5.73438E-19-9.34147E-19
 -1      1844 9.44242E-05-2.83738E-05-2.83099E-05 4.07101E-07-9.36217E-20-1.26713E-18
 -1      1845 9.45318E-05-2.84029E-05-2.83415E-05 3.68793E-07-3.26478E-19-1.02349E-18
 -1      1846 9.45310E-05-2.84334E-05-2.83268E-05 5.45764E-07-8.96129E-20-9.20852E-19
 -1      1847 9.45991E-05-2.84191E-05-2.83651E-05 3.24728E-07-6.24152E-19-1.18956E-18
 -1      1848 9.46859E-05-2.84416E-05-2.83909E-05 2.92574E-07-5.70194E-19-1.30880E-18
 -1      1849 9.46768E-05-2.84666E-05-2.83750E-05 4.40670E-07-4.95868E-19-9.85832E-19
 -1      1850 9.47421E-05-2.84543E-05-2.84109E-05 2.56378E-07-3.90820E-19-1.12893E-18
 -1      1851 9.48118E-05-2.84714E-05-2.84319E-05 2.30893E-07-1.41482E-19-1.30913E-18
 -1      1852 9.47987E-05-2.84916E-05-2.84167E-05 3.51553E-07-4.16824E-19-9.51644E-19
 -1      1853 9.48591E-05-2.84814E-05-2.84490E-05 2.03282E-07-2.74785E-19-1.50273E-18
 -1      1854 9.49156E-05-2.84943E-05-2.84664E-05 1.84808E-07-6.71526E-20-1.64059E-18
 -1      1855 9.49005E-05-2.85098E-05-2.84526E-05 2.80652E-07-2.31562E-19-5.54326E-19
 -1      1856 9.49566E-05-2.85022E-05-2.84815E-05 1.66350E-07-4.04688E-20-1.46862E-18
 -1      1857 9.50045E-05-2.85123E-05-2.84964E-05 1.55243E-07-4.91942E-19-1.72171E-18
 -1      1858 9.49867E-05-2.85228E-05-2.84842E-05 2.29506E-07-1.54700E-19-8.22780E-19
 -1      1859 9.50422E-05-2.85190E-05-2.85106E-05 1.46586E-07-4.59396E-19-1.94898E-18
 -1      1860 9.50863E-05-2.85275E-05-2.85246E-05 1.43363E-07-2.69191E-19-1.68168E-18
 -1      1861 9.50632E-05-2.85321E-05-2.85133E-05 1.99553E-07-4.19533E-19-1.21269E-18
 -1      1862 9.51241E-05-2.85338E-05-2.85389E-05 1.45404E-07-3.17216E-19-1.85945E-18
 -1      1863 9.51696E-05-2.85423E-05-2.85535E-05 1.50851E-07 8.46307E-20-2.20509E-18
 -1      1864 9.51363E-05-2.85393E-05-2.85418E-05 1.92576E-07-2.26767E-19-1.44067E-18
 -1      1865 9.52114E-05-2.85491E-05-2.85694E-05 1.64855E-07 4.15127E-19-2.10746E-18
 -1      1866 9.52643E-05-2.85590E-05-2.85863E-05 1.80103E-07-2.62402E-19-2.17334E-18
 -1      1867 9.52133E-05-2.85460E-05-2.85723E-05 2.11029E-07 9.66498E-20-1.27875E-18
 -1      1868 9.53147E-05-2.85675E-05-2.86054E-05 2.07774E-07-1.71391E-19-1.59813E-18
 -1      1869 9.53817E-05-2.85807E-05-2.86266E-05 2.34326E-07 6.21384E-19-1.02261E-18
 -1      1870 9.53026E-05-2.85540E-05-2.86075E-05 2.58254E-07 3.45174E-19-9.42929E-19
 -1      1871 9.54457E-05-2.85922E-05-2.86506E-05 2.77815E-07 2.65143E-19-1.05461E-18
 -1      1872 9.55346E-05-2.86108E-05-2.86784E-05 3.17538E-07-2.45508E-19-1.12043E-18
 -1      1873 9.54135E-05-2.85655E-05-2.86505E-05 3.38562E-07 5.22843E-19-1.00574E-18
 -1      1874 9.56180E-05-2.86267E-05-2.87092E-05 3.79370E-07-3.76610E-19-1.07703E-18
 -1      1875 9.57378E-05-2.86534E-05-2.87462E-05 4.34391E-07-1.31662E-19-1.05038E-18
 -1      1876 9.55569E-05-2.85831E-05-2.87049E-05 4.57165E-07-6.85071E-20-1.57538E-18
 -1      1877 9.58472E-05-2.86757E-05-2.87860E-05 5.17274E-07-2.58507E-19-1.26363E-18
 -1      1878 9.60080E-05-2.87135E-05-2.88351E-05 5.89780E-07-2.05214E-19-1.70295E-18
 -1      1879 9.57451E-05-2.86102E-05-2.87745E-05 6.19873E-07-1.83873E-19-7.78425E-19
 -1      1880 9.61507E-05-2.87445E-05-2.88862E-05 6.96230E-07-1.28876E-19-2.02645E-18
 -1      1881 9.63637E-05-2.87972E-05-2.89505E-05 7.88081E-07 8.99633E-20-1.95283E-18
 -1      1882 9.59923E-05-2.86512E-05-2.88634E-05 8.32467E-07-4.26397E-19-7.06678E-19
 -1      1883 9.65476E-05-2.88397E-05-2.90151E-05 9.19790E-07 2.38508E-19-1.91815E-18
 -1      1884 9.68247E-05-2.89116E-05-2.90979E-05 1.03188E-06 7.79688E-20-1.96853E-18
 -1      1885 9.63136E-05-2.87118E-05-2.89757E-05 1.09957E-06-8.38223E-20-1.11430E-18
 -1      1886 9.70578E-05-2.89691E-05-2.91780E-05 1.18870E-06 2.08796E-19-2.17073E-18
 -1      1887 9.74105E-05-2.90653E-05-2.92822E-05 1.31994E-06 3.86896E-19-1.91798E-18
 -1      1888 9.67255E-05-2.87994E-05-2.91153E-05 1.42282E-06 3.27605E-19-1.64725E-18
 -1      1889 9.77004E-05-2.91421E-05-2.93791E-05 1.49831E-06 7.02524E-21-2.59712E-18
 -1      1890 9.81379E-05-2.92678E-05-2.95068E-05 1.64406E-06-7.22213E-19-2.79643E-18
 -1      1891 9.72443E-05-2.89238E-05-2.92848E-05 1.79801E-06-1.06900E-19-1.77476E-18
 -1      1892 9.84909E-05-2.93690E-05-2.96208E-05 1.83477E-06-1.02734E-18-2.29716E-18
 -1      1893 9.90177E-05-2.95299E-05-2.97723E-05 1.98465E-06-8.52274E-19-2.31706E-18
 -1      1894 9.78849E-05-2.90976E-05-2.94852E-05 2.21091E-06-6.53489E-19-2.22276E-18
 -1      1895 9.94370E-05-2.96615E-05-2.99013E-05 2.16965E-06-8.77810E-19-2.40178E-18
 -1      1896 1.00048E-04-2.98622E-05-3.00739E-05 2.30444E-06-7.27921E-19-1.88701E-18
 -1      1897 9.86588E-05-2.93372E-05-2.97142E-05 2.63132E-06-9.90294E-19-1.60022E-18
 -1      1898 1.00532E-04-3.00314E-05-3.02132E-05 2.45286E-06-5.58918E-19-1.85964E-18
 -1      1899 1.01208E-04-3.02744E-05-3.03994E-05 2.54084E-06-7.67107E-19-1.72209E-18
 -1      1900 9.95698E-05-2.96631E-05-2.99645E-05 3.00526E-06-6.19993E-19-1.05985E-18
 -1      1901 1.01748E-04-3.04884E-05-3.05398E-05 2.60439E-06-1.09954E-18-1.31847E-18
 -1      1902 1.02446E-04-3.07712E-05-3.07252E-05 2.59763E-06-2.27607E-19-1.03690E-18
 -1      1903 1.00610E-04-3.00992E-05-3.02226E-05 3.24564E-06-4.31020E-19 5.85933E-20
 -1      1904 1.03021E-04-3.10354E-05-3.08527E-05 2.50687E-06 2.70746E-19-1.39209E-18
 -1      1905 1.03666E-04-3.13463E-05-3.10139E-05 2.33935E-06 6.55726E-19-1.52954E-18
 -1      1906 1.01754E-04-3.06695E-05-3.04664E-05 3.22327E-06-3.49732E-19 3.96416E-19
 -1      1907 1.04237E-04-3.16597E-05-3.11092E-05 2.00376E-06 6.47780E-19-2.05999E-18
 -1      1908 1.04714E-04-3.19694E-05-3.12123E-05 1.59526E-06-1.52532E-20-1.20549E-18
 -1      1909 1.02944E-04-3.13887E-05-3.06652E-05 2.76270E-06 2.64027E-19-5.14376E-19
 -1      1910 1.05218E-04-3.23146E-05-3.12521E-05 9.12973E-07-9.42172E-19-7.95652E-19
 -1      1911 1.05368E-04-3.25662E-05-3.12549E-05 1.85232E-07-7.44324E-19-1.23963E-18
 -1      1912 1.04080E-04-3.22416E-05-3.07819E-05 1.65234E-06-1.91876E-19-1.95585E-19
 -1      1913 1.05704E-04-3.28935E-05-3.12159E-05-9.28273E-07 2.35316E-20-1.00207E-18
 -1      1914 1.05333E-04-3.29900E-05-3.10732E-05-2.01501E-06 2.01726E-19-6.28818E-19
 -1      1915 1.04993E-04-3.31457E-05-3.07785E-05-3.15242E-07-2.89632E-19-1.39529E-20
 -1      1916 1.05350E-04-3.31967E-05-3.09392E-05-3.56901E-06 2.97123E-20-9.41543E-19
 -1      1917 1.04266E-04-3.29982E-05-3.06162E-05-4.95510E-06 2.06928E-19-1.06184E-18
 -1      1918 1.05420E-04-3.38992E-05-3.06277E-05-3.25162E-06-1.47834E-20 5.19620E-19
 -1      1919 1.03771E-04-3.29205E-05-3.03868E-05-6.79600E-06-2.36567E-19-9.25288E-19
 -1      1920 1.01853E-04-3.22703E-05-2.98780E-05-8.25158E-06-4.14365E-19-1.49701E-18
 -1      1921 1.04992E-04-3.41406E-05-3.03270E-05-7.01525E-06-1.87178E-19 2.55321E-19
 -1      1922 1.00661E-04-3.17194E-05-2.95754E-05-9.97816E-06-7.78427E-19-2.25813E-18
 -1      1923 9.79717E-05-3.05240E-05-2.89225E-05-1.10715E-05-1.08654E-18-2.50353E-18
 -1      1924 1.03293E-04-3.33878E-05-2.99101E-05-1.10166E-05-1.14546E-18-4.78296E-19
 -1      1925 9.60391E-05-2.94012E-05-2.85890E-05-1.20404E-05-1.12445E-18-2.69257E-18
 -1      1926 9.29226E-05-2.77584E-05-2.78874E-05-1.22258E-05 5.20577E-19-1.93802E-18
 -1      1927 1.00054E-04-3.12470E-05-2.94416E-05-1.41096E-05-9.70215E-19-1.04164E-18
 -1      1928 9.05162E-05-2.62190E-05-2.75728E-05-1.17583E-05 1.85181E-18-2.75137E-18
 -1      1929 8.76137E-05-2.45114E-05-2.69556E-05-1.06276E-05 1.68832E-18-2.01406E-18
 -1      1930 9.54906E-05-2.77928E-05-2.89923E-05-1.47966E-05 4.23778E-19-1.35717E-18
 -1      1931 8.53731E-05-2.30425E-05-2.66992E-05-8.42963E-06 1.07770E-18-2.22929E-18
 -1      1932 8.34509E-05-2.18438E-05-2.62985E-05-6.04238E-06 1.15386E-18-1.75207E-18
 -1      1933 9.05676E-05-2.38866E-05-2.86039E-05-1.19153E-05 1.12458E-18-2.76349E-18
 -1      1934 8.21019E-05-2.10322E-05-2.61164E-05-2.55302E-06 7.36839E-19-2.31239E-18
 -1      1935 8.17239E-05-2.08174E-05-2.60181E-05 4.60153E-07 3.24056E-19-2.84532E-18
 -1      1936 8.67778E-05-2.09631E-05-2.82727E-05-5.58660E-06 1.05581E-19-2.68049E-18
 -1      1937 8.16513E-05-2.10079E-05-2.59075E-05 4.15743E-06-8.63603E-19-3.08399E-18
 -1      1938 8.28833E-05-2.18822E-05-2.61091E-05 6.80689E-06-5.18874E-19-2.55339E-18
 -1      1939 8.53231E-05-2.02210E-05-2.79626E-05 2.45054E-06-2.52608E-19-3.66046E-18
 -1      1940 8.39568E-05-2.29923E-05-2.60354E-05 9.43598E-06-1.77738E-19-2.20043E-18
 -1      1941 8.63462E-05-2.47657E-05-2.64160E-05 1.07547E-05 9.24159E-19-1.32129E-18
 -1      1942 8.65634E-05-2.20898E-05-2.76276E-05 9.60273E-06-2.08082E-19-1.64368E-18
 -1      1943 8.76761E-05-2.61741E-05-2.62966E-05 1.14594E-05 1.97447E-18-1.39160E-18
 -1      1944 9.06031E-05-2.84210E-05-2.66901E-05 1.08787E-05 2.91988E-18-8.67269E-19
 -1      1945 9.24755E-05-3.02547E-05-2.66828E-05 1.25598E-05 2.48732E-18-2.47243E-18
 -1      1946 8.89170E-05-2.55449E-05-2.72472E-05 1.30230E-05 1.22644E-18-9.12135E-19
 -1      1947 9.32261E-05-2.73668E-05-2.81975E-05 1.60132E-06 1.54431E-18 4.73262E-18
 -1      1948 9.44194E-05-2.74718E-05-2.86337E-05 2.67249E-06 1.61398E-18 5.34742E-18
 -1      1949 9.52419E-05-2.70505E-05-2.92303E-05 4.04936E-06 2.00178E-18 3.98247E-18
 -1      1950 9.21763E-05-2.73539E-05-2.77564E-05 3.44320E-07 9.48313E-19 4.01046E-18
 -1      1951 9.26693E-05-2.73858E-05-2.79284E-05 8.92565E-07 1.13544E-18 4.40097E-18
 -1      1952 9.36393E-05-2.73721E-05-2.84071E-05 1.58034E-06 1.45733E-18 3.42256E-18
 -1      1953 9.18031E-05-2.73923E-05-2.75889E-05-3.09101E-07 5.41338E-19 3.67323E-18
 -1      1954 9.19168E-05-2.73651E-05-2.76355E-05-1.65230E-08 6.35584E-19 3.92098E-18
 -1      1955 9.28099E-05-2.74878E-05-2.80052E-05 2.67429E-07 8.91545E-19 2.86832E-18
 -1      1956 9.18287E-05-2.74835E-05-2.75664E-05-6.34634E-07 2.41600E-19 3.34501E-18
 -1      1957 9.17396E-05-2.74211E-05-2.75497E-05-4.81857E-07 3.67812E-19 3.57982E-18
 -1      1958 9.24977E-05-2.75813E-05-2.78314E-05-4.25972E-07 5.15861E-19 2.49435E-18
 -1      1959 9.20745E-05-2.76061E-05-2.76223E-05-7.71845E-07 4.06445E-19 3.02464E-18
 -1      1960 9.18826E-05-2.75269E-05-2.75734E-05-7.00784E-07 3.10426E-19 3.26214E-18
 -1      1961 9.25024E-05-2.76870E-05-2.77862E-05-7.70435E-07 4.08259E-19 2.19329E-18
 -1      1962 9.24284E-05-2.77407E-05-2.77182E-05-7.98160E-07 7.29775E-19 2.69712E-18
 -1      1963 9.21924E-05-2.76570E-05-2.76547E-05-7.76260E-07 5.18013E-19 2.90720E-18
 -1      1964 9.26878E-05-2.78027E-05-2.78139E-05-9.10361E-07 6.09273E-19 1.94745E-18
 -1      1965 9.28204E-05-2.78741E-05-2.78304E-05-7.60145E-07 8.27274E-19 2.18198E-18
 -1      1966 9.25753E-05-2.77933E-05-2.77628E-05-7.67588E-07 7.58390E-19 2.56436E-18
 -1      1967 9.29647E-05-2.79199E-05-2.78805E-05-9.29021E-07 9.30429E-19 1.72496E-18
 -1      1968 9.32082E-05-2.79980E-05-2.79445E-05-6.87165E-07 2.88924E-19 2.13926E-18
 -1      1969 9.29743E-05-2.79242E-05-2.78790E-05-7.11273E-07 4.97187E-19 1.96449E-18
 -1      1970 9.32761E-05-2.80311E-05-2.79649E-05-8.77533E-07 6.59801E-19 1.59094E-18
 -1      1971 9.35675E-05-2.81081E-05-2.80520E-05-5.98124E-07 3.87124E-19 2.12852E-18
 -1      1972 9.33559E-05-2.80434E-05-2.79922E-05-6.30612E-07 2.93025E-19 2.20154E-18
 -1      1973 9.35865E-05-2.81318E-05-2.80538E-05-7.88487E-07 4.57171E-19 1.43083E-18
 -1      1974 9.38856E-05-2.82025E-05-2.81485E-05-5.05157E-07 2.48967E-19 2.19675E-18
 -1      1975 9.37015E-05-2.81476E-05-2.80960E-05-5.40617E-07 3.55809E-19 2.06617E-18
 -1      1976 9.38756E-05-2.82195E-05-2.81394E-05-6.82945E-07 3.30790E-19 1.32414E-18
 -1      1977 9.41581E-05-2.82813E-05-2.82320E-05-4.15875E-07 8.32647E-19 1.55046E-18
 -1      1978 9.40026E-05-2.82359E-05-2.81873E-05-4.50837E-07 6.82588E-19 1.90844E-18
 -1      1979 9.41326E-05-2.82936E-05-2.82173E-05-5.74421E-07 7.52763E-19 1.16049E-18
 -1      1980 9.43854E-05-2.83453E-05-2.83022E-05-3.34854E-07 1.18683E-18 1.09950E-18
 -1      1981 9.42573E-05-2.83087E-05-2.82652E-05-3.67164E-07 8.19496E-19 1.36574E-18
 -1      1982 9.43535E-05-2.83544E-05-2.82856E-05-4.71379E-07 1.02259E-18 9.09492E-19
 -1      1983 9.45712E-05-2.83963E-05-2.83602E-05-2.64692E-07 1.96686E-19 1.08700E-18
 -1      1984 9.44677E-05-2.83674E-05-2.83301E-05-2.93061E-07 6.91910E-19 1.15280E-18
 -1      1985 9.45387E-05-2.84033E-05-2.83438E-05-3.78916E-07 8.84773E-19 9.15776E-19
 -1      1986 9.47210E-05-2.84363E-05-2.84074E-05-2.06775E-07-3.39037E-19 1.01907E-18
 -1      1987 9.46385E-05-2.84138E-05-2.83832E-05-2.30449E-07-6.02826E-20 9.88552E-19
 -1      1988 9.46912E-05-2.84417E-05-2.83926E-05-2.99963E-07-2.71274E-20 6.08851E-19
 -1      1989 9.48418E-05-2.84674E-05-2.84459E-05-1.61863E-07-9.10529E-21 5.96173E-19
 -1      1990 9.47762E-05-2.84500E-05-2.84265E-05-1.80370E-07-2.13413E-19 8.05343E-19
 -1      1991 9.48160E-05-2.84716E-05-2.84333E-05-2.36178E-07 1.01804E-19 5.59377E-19
 -1      1992 9.49414E-05-2.84919E-05-2.84780E-05-1.30540E-07 5.04610E-19 9.19980E-19
 -1      1993 9.48881E-05-2.84783E-05-2.84620E-05-1.43490E-07 3.01332E-19 9.64924E-19
 -1      1994 9.49191E-05-2.84947E-05-2.84676E-05-1.88617E-07 2.18295E-19 1.27075E-19
 -1      1995 9.50281E-05-2.85123E-05-2.85064E-05-1.13561E-07-2.68084E-19 7.02066E-19
 -1      1996 9.49824E-05-2.85010E-05-2.84924E-05-1.20488E-07 3.25471E-19 7.40821E-19
 -1      1997 9.50074E-05-2.85130E-05-2.84977E-05-1.58253E-07 3.50757E-19 8.36213E-19
 -1      1998 9.51115E-05-2.85311E-05-2.85339E-05-1.12140E-07-3.53272E-19 9.55707E-19
 -1      1999 9.50680E-05-2.85207E-05-2.85203E-05-1.12368E-07-3.66572E-19 7.34406E-19
 -1      2000 9.50888E-05-2.85287E-05-2.85260E-05-1.46388E-07-3.86016E-19 4.11426E-19
 -1      2001 9.52020E-05-2.85512E-05-2.85638E-05-1.28192E-07-2.03165E-19 1.03866E-18
 -1      2002 9.51548E-05-2.85399E-05-2.85489E-05-1.20721E-07-3.52872E-19 1.04731E-18
 -1      2003 9.51721E-05-2.85440E-05-2.85553E-05-1.54991E-07-2.62688E-19 5.15631E-19
 -1      2004 9.53118E-05-2.85758E-05-2.86000E-05-1.64556E-07 1.04736E-18 4.43833E-19
 -1      2005 9.52541E-05-2.85617E-05-2.85817E-05-1.47946E-07 4.78982E-19 1.00445E-18
 -1      2006 9.52671E-05-2.85612E-05-2.85889E-05-1.86989E-07 5.31298E-19 4.11124E-19
 -1      2007 9.54552E-05-2.86087E-05-2.86468E-05-2.25194E-07 9.95607E-20-2.25169E-19
 -1      2008 9.53790E-05-2.85896E-05-2.86228E-05-1.97465E-07 7.18244E-19-5.86983E-20
 -1      2009 9.53857E-05-2.85834E-05-2.86305E-05-2.46530E-07 9.45248E-19-4.38775E-19
 -1      2010 9.56492E-05-2.86545E-05-2.87097E-05-3.15397E-07-5.77888E-19-4.59803E-19
 -1      2011 9.55449E-05-2.86276E-05-2.86770E-05-2.73912E-07-5.58989E-19-1.31548E-19
 -1      2012 9.55414E-05-2.86137E-05-2.86846E-05-3.39224E-07-2.01158E-19-6.92148E-20
 -1      2013 9.59148E-05-2.87187E-05-2.87951E-05-4.41960E-07-1.23612E-19-6.73224E-20
 -1      2014 9.57704E-05-2.86807E-05-2.87503E-05-3.83323E-07-5.04116E-19-4.92538E-19
 -1      2015 9.57507E-05-2.86563E-05-2.87565E-05-4.72365E-07-5.52421E-19 1.93306E-19
 -1      2016 9.62767E-05-2.88083E-05-2.89107E-05-6.13331E-07 4.44624E-19 2.42834E-19
 -1      2017 9.60781E-05-2.87549E-05-2.88495E-05-5.33283E-07 1.51665E-19 1.83434E-19
 -1      2018 9.60331E-05-2.87161E-05-2.88525E-05-6.55112E-07-9.12000E-20-4.71553E-19
 -1      2019 9.67654E-05-2.89315E-05-2.90660E-05-8.39655E-07 6.05372E-19 1.49473E-18
 -1      2020 9.64950E-05-2.88576E-05-2.89832E-05-7.33015E-07 7.29791E-19 9.05015E-19
 -1      2021 9.64121E-05-2.87990E-05-2.89801E-05-8.98575E-07 6.63028E-19 6.12989E-19
 -1      2022 9.74166E-05-2.90984E-05-2.92718E-05-1.13258E-06-3.76050E-19 1.41106E-18
 -1      2023 9.70533E-05-2.89979E-05-2.91613E-05-9.93279E-07 1.60481E-19 1.83415E-18
 -1      2024 9.69151E-05-2.89123E-05-2.91479E-05-1.21569E-06 1.67136E-19 1.68625E-18
 -1      2025 9.82721E-05-2.93215E-05-2.95409E-05-1.50457E-06-4.25928E-19 1.52735E-18
 -1      2026 9.77913E-05-2.91866E-05-2.93956E-05-1.32591E-06-6.10573E-19 1.80067E-18
 -1      2027 9.75741E-05-2.90650E-05-2.93659E-05-1.62067E-06-3.13168E-19 2.22540E-18
 -1      2028 9.93788E-05-2.96155E-05-2.98871E-05-1.96718E-06-1.13216E-18 2.31319E-18
 -1      2029 9.87523E-05-2.94370E-05-2.96989E-05-1.74257E-06-4.29297E-19 1.84113E-18
 -1      2030 9.84250E-05-2.92682E-05-2.96447E-05-2.12750E-06-6.04558E-19 2.84384E-18
 -1      2031 1.00787E-04-2.99980E-05-3.03245E-05-2.52730E-06-1.26661E-18 1.86519E-18
 -1      2032 9.99844E-05-2.97654E-05-3.00852E-05-2.25200E-06-1.43144E-18 1.59266E-18
 -1      2033 9.95070E-05-2.95360E-05-2.99950E-05-2.74680E-06-1.12024E-18 2.68571E-18
 -1      2034 1.02543E-04-3.04900E-05-3.08650E-05-3.17980E-06 3.58020E-19 7.00321E-19
 -1      2035 1.01537E-04-3.01912E-05-3.05673E-05-2.85444E-06-4.52390E-19 1.28122E-18
 -1      2036 1.00860E-04-2.98866E-05-3.04260E-05-3.47935E-06-4.56825E-19 5.13980E-19
 -1      2037 1.04682E-04-3.11158E-05-3.15143E-05-3.89362E-06 6.52057E-19 1.69278E-18
 -1      2038 1.03452E-04-3.07383E-05-3.11543E-05-3.53106E-06 3.21532E-19 1.14809E-18
 -1      2039 1.02518E-04-3.03455E-05-3.09419E-05-4.30411E-06 4.77257E-19 3.31323E-19
 -1      2040 1.07206E-04-3.19033E-05-3.22635E-05-4.58768E-06 3.87299E-19 3.10682E-18
 -1      2041 1.05757E-04-3.14359E-05-3.18454E-05-4.22526E-06 6.61053E-19 3.05955E-18
 -1      2042 1.04507E-04-3.09487E-05-3.15378E-05-5.15708E-06 5.35087E-20 1.49049E-18
 -1      2043 1.10059E-04-3.28815E-05-3.30775E-05-5.09279E-06 8.75489E-19 2.29005E-18
 -1      2044 1.08437E-04-3.23186E-05-3.26211E-05-4.81213E-06 6.10243E-19 2.68031E-18
 -1      2045 1.06826E-04-3.17482E-05-3.21912E-05-5.89688E-06 1.03603E-18 2.45099E-18
 -1      2046 1.13073E-04-3.40709E-05-3.38783E-05-5.10070E-06 5.49135E-19 1.45763E-18
 -1      2047 1.11406E-04-3.34227E-05-3.34294E-05-5.05495E-06 4.80082E-19 1.91153E-18
 -1      2048 1.09434E-04-3.28149E-05-3.28531E-05-6.25553E-06 7.84288E-19 2.75333E-18
 -1      2049 1.15910E-04-3.54531E-05-3.45286E-05-4.11966E-06 1.44671E-19 1.71312E-19
 -1      2050 1.14451E-04-3.47674E-05-3.41704E-05-4.55850E-06 2.88104E-19 1.02075E-18
 -1      2051 1.12215E-04-3.42256E-05-3.34388E-05-5.78393E-06 8.29957E-19 2.27408E-18
 -1      2052 1.17990E-04-3.68952E-05-3.48290E-05-1.49918E-06 1.36374E-18 7.06287E-19
 -1      2053 1.17153E-04-3.62986E-05-3.46860E-05-2.75865E-06 1.00788E-18 3.63470E-19
 -1      2054 1.14921E-04-3.60044E-05-3.38281E-05-3.83226E-06 9.61052E-19 6.36466E-19
 -1      2055 1.18430E-04-3.80035E-05-3.45543E-05 3.33973E-06-4.47511E-19 1.64500E-19
 -1      2056 1.18789E-04-3.77618E-05-3.47726E-05 9.55692E-07 4.70394E-19 3.27501E-19
 -1      2057 1.17073E-04-3.79651E-05-3.38898E-05 3.33462E-07 5.16028E-19 1.25937E-18
 -1      2058 1.16103E-04-3.79535E-05-3.35558E-05 1.03117E-05-6.67568E-20 9.41239E-19
 -1      2059 1.18278E-04-3.85102E-05-3.42404E-05 6.83846E-06-1.06938E-19 2.21678E-19
 -1      2060 1.17828E-04-3.94496E-05-3.35423E-05 7.10838E-06-2.35303E-19-2.98452E-19
 -1      2061 1.09951E-04-3.55497E-05-3.19033E-05 1.76669E-05-4.29618E-19 7.66618E-19
 -1      2062 1.14295E-04-3.73777E-05-3.30256E-05 1.40043E-05-5.61900E-19 7.66194E-19
 -1      2063 1.15902E-04-3.90741E-05-3.28398E-05 1.56920E-05 8.93355E-21 6.49807E-19
 -1      2064 1.00094E-04-3.02467E-05-2.99378E-05 2.16621E-05 1.11002E-18 1.72448E-18
 -1      2065 1.06149E-04-3.33195E-05-3.12833E-05 1.96712E-05 7.49141E-19 1.56627E-18
 -1      2066 1.10182E-04-3.53916E-05-3.19836E-05 2.30471E-05 2.49918E-19 2.76408E-18
 -1      2067 8.89414E-05-2.34914E-05-2.81152E-05 1.84019E-05 3.45060E-18-9.23584E-19
 -1      2068 9.51523E-05-2.68010E-05-2.93543E-05 1.99493E-05 1.97986E-18 5.01655E-19
 -1      2069 1.01203E-04-2.85221E-05-3.11808E-05 2.44734E-05 2.68128E-18 1.85306E-18
 -1      2070 8.12884E-05-1.91573E-05-2.67674E-05 7.87672E-06 9.84279E-19-1.02082E-18
 -1      2071 8.52778E-05-2.08980E-05-2.75944E-05 1.27333E-05 3.00676E-18-1.98457E-19
 -1      2072 9.22872E-05-2.15703E-05-3.04199E-05 1.67957E-05 3.08087E-18 7.92082E-19
 -1      2073 8.02025E-05-1.96345E-05-2.61141E-05-4.33702E-06-1.00109E-19-1.88708E-18
 -1      2074 8.06226E-05-1.90543E-05-2.63512E-05 1.15980E-06 3.70206E-19-1.42693E-18
 -1      2075 8.77856E-05-1.90036E-05-2.96169E-05 3.14373E-06 8.43751E-19 3.45345E-19
 -1      2076 8.42337E-05-2.33713E-05-2.61343E-05-1.20767E-05-7.44066E-19-1.25091E-18
 -1      2077 8.17520E-05-2.14090E-05-2.58328E-05-8.57171E-06-3.83653E-19-1.67877E-18
 -1      2078 8.85517E-05-2.14931E-05-2.87969E-05-8.99749E-06-6.09599E-20-6.29173E-19
 -1      2079 8.93694E-05-2.72876E-05-2.65472E-05-1.35298E-05-4.10937E-19-2.60341E-18
 -1      2080 8.58785E-05-2.52031E-05-2.59947E-05-1.27504E-05-5.25197E-19-1.84309E-18
 -1      2081 9.15787E-05-2.60442E-05-2.80724E-05-1.45192E-05-4.46836E-19-1.55018E-18
 -1      2082 9.33014E-05-3.03382E-05-2.68912E-05-1.09956E-05-7.01317E-19-1.31548E-18
 -1      2083 9.00416E-05-2.81872E-05-2.65031E-05-1.25587E-05-7.22175E-19-2.24440E-18
 -1      2084 9.41619E-05-2.97060E-05-2.76225E-05-1.43813E-05-9.09502E-20-3.06563E-18
 -1      2085 9.59682E-05-3.26403E-05-2.69758E-05-1.20343E-05-1.16740E-18-2.50586E-18
 -1      2086 1.15763E-04-3.88000E-05-3.27262E-05 3.01930E-05-1.32248E-18-4.02293E-18
 -1      2087 1.15590E-04-4.30404E-05-3.12415E-05 1.73338E-05-1.24272E-18-3.16187E-18
 -1      2088 1.10871E-04-3.94863E-05-3.02920E-05 5.09208E-06-1.65406E-19-1.07372E-18
 -1      2089 1.07279E-04-3.91473E-05-2.93064E-05-2.94738E-06-1.77348E-19 2.01223E-19
 -1      2090 1.20787E-04-4.37728E-05-3.30330E-05 1.11871E-05-3.35941E-19-2.64618E-18
 -1      2091 1.03287E-04-3.69525E-05-2.81770E-05-8.15607E-06-8.49918E-19-2.19514E-19
 -1      2092 9.92486E-05-3.43848E-05-2.77901E-05-1.08610E-05-1.08071E-18-1.66732E-18
 -1      2093 9.90703E-05-3.30367E-05-2.83566E-05-1.24945E-05-3.81330E-19-1.51995E-18
 -1      2094 1.09515E-04-3.78546E-05-3.07228E-05-6.25377E-06-4.22898E-19 5.62350E-19
 -1      2095 1.05838E-04-2.79107E-05-3.31101E-05 5.49300E-05-2.87930E-18-1.95130E-18
 -1      2096 1.14437E-04-3.86707E-05-3.22009E-05 4.56593E-05-2.25131E-18-1.96633E-18
 -1      2097 1.25845E-04-4.83249E-05-3.32747E-05 4.11842E-05-2.22611E-19-3.70953E-18
 -1      2098 4.99665E-05 1.69092E-05-2.86324E-05 1.67676E-05-4.43999E-18 2.58345E-20
 -1      2099 6.01025E-05 9.52908E-06-2.88396E-05 3.83727E-05-3.06637E-18 4.35375E-19
 -1      2100 5.39522E-05 1.36247E-05-2.82449E-05-2.79791E-05-3.69592E-18 1.13418E-18
 -1      2101 4.91245E-05 1.82876E-05-2.82132E-05-8.98419E-06-4.17127E-18 1.73176E-18
 -1      2102 4.10289E-05 2.94728E-06-1.83240E-05 7.03966E-06-1.82260E-18 1.02576E-18
 -1      2103 7.76231E-05-5.77109E-06-2.99322E-05-5.91067E-05-1.69584E-18 3.89826E-18
 -1      2104 6.40667E-05 6.37409E-06-2.99853E-05-4.89783E-05-3.17320E-18 1.89947E-18
 -1      2105 5.15541E-05-3.80498E-06-2.00117E-05-4.41196E-05-1.35546E-18 2.86212E-18
 -1      2106 1.03269E-04-2.88544E-05-3.13729E-05-6.03260E-05 6.63293E-19 7.13382E-18
 -1      2107 9.11040E-05-1.58397E-05-3.22024E-05-6.28755E-05-5.16200E-19 6.61490E-18
 -1      2108 8.60083E-05-2.40255E-05-2.60279E-05-7.05585E-05-2.38228E-19 6.31611E-18
 -1      2109 1.14879E-04-4.35554E-05-3.05715E-05-3.91466E-05 4.51284E-18 7.24833E-18
 -1      2110 1.09950E-04-3.42979E-05-3.22652E-05-5.00973E-05 2.61913E-18 7.03381E-18
 -1      2111 1.12683E-04-4.72515E-05-2.82406E-05-1.36280E-05 3.68013E-18 2.09810E-18
 -1      2112 1.13760E-04-4.32996E-05-2.98967E-05-2.48296E-05 3.53904E-18 4.82126E-18
 -1      2113 1.20983E-04-4.65161E-05-3.19064E-05-3.47376E-05 3.29076E-18 5.93505E-18
 -1      2114 1.06238E-04-4.48795E-05-2.64131E-05 3.24369E-06 3.93764E-18-2.76726E-18
 -1      2115 1.09160E-04-4.49470E-05-2.71932E-05-3.72811E-06 4.18393E-18-1.16303E-18
 -1      2116 1.14624E-04-4.38800E-05-3.03070E-05-8.90529E-06 3.29064E-18 4.40563E-19
 -1      2117 1.00997E-04-4.08067E-05-2.58311E-05 1.10095E-05 3.28596E-18-3.15546E-18
 -1      2118 1.03656E-04-4.29574E-05-2.57834E-05 8.00593E-06 4.22307E-18-2.59933E-18
 -1      2119 1.06025E-04-3.96148E-05-2.84334E-05 6.55578E-06 3.40252E-18-3.53065E-18
 -1      2120 9.71618E-05-3.63660E-05-2.60873E-05 1.28158E-05 2.12255E-18-2.07782E-18
 -1      2121 9.93101E-05-3.92518E-05-2.56295E-05 1.24754E-05 2.50240E-18-2.22452E-18
 -1      2122 9.97107E-05-3.58636E-05-2.73229E-05 1.34061E-05 2.88698E-18-3.87747E-18
 -1      2123 8.36990E-05-4.57436E-05-1.66844E-05 6.87320E-05 4.03865E-18 7.56665E-19
 -1      2124 6.34336E-05-4.79305E-05-8.68485E-06 5.70285E-05 4.68579E-18 1.66887E-18
 -1      2125 2.50181E-05-1.73596E-05-4.55973E-06-1.26126E-07 2.55079E-18 2.76048E-18
 -1      2126 2.83692E-05-2.18681E-05-3.97865E-06-2.34230E-05 1.83446E-18 3.26404E-18
 -1      2127 1.26635E-04-4.69699E-05-3.36276E-05 6.70291E-05 4.50537E-18 3.95691E-18
 -1      2128 1.06252E-04-5.23816E-05-2.40512E-05 6.28900E-05 4.28599E-18 1.88761E-18
 -1      2129 1.64453E-04-4.47545E-05-5.03592E-05 5.43999E-05 4.41389E-18-4.70950E-19
 -1      2130 1.42797E-04-4.70506E-05-4.11427E-05 5.64208E-05 4.71035E-18 2.30901E-18
 -1      2131 8.72673E-05-8.72341E-06-3.37501E-05-1.05179E-05-1.47466E-18-2.88481E-18
 -1      2132 8.79645E-05-9.25279E-06-3.38208E-05-1.21046E-05-1.81698E-18-2.50207E-18
 -1      2133 9.04708E-05-1.30769E-05-3.32351E-05-1.19156E-05-1.95581E-18-2.11613E-18
 -1      2134 8.86669E-05-1.10320E-05-3.32957E-05-9.40558E-06-1.39906E-18-2.76751E-18
 -1      2135 2.06897E-04-2.76776E-05-7.52860E-05 2.43326E-05 2.52712E-18-2.02293E-18
 -1      2136 1.94724E-04-2.71162E-05-7.09878E-05 2.96820E-05 3.27929E-18-8.03834E-19
 -1      2137 2.04058E-04-2.35789E-05-7.65355E-05 1.39219E-05 2.89304E-18-1.66865E-18
 -1      2138 2.08255E-04-2.49046E-05-7.70714E-05 2.23527E-05 2.95403E-18-1.22926E-18
 -1      2139 1.79039E-04-1.40889E-05-6.93077E-05 1.24977E-05 2.88881E-18-1.10792E-18
 -1      2140 1.91528E-04-2.90611E-05-6.92939E-05 9.12785E-06 4.25211E-18-2.83460E-18
 -1      2141 2.01202E-04-2.66665E-05-7.36681E-05 1.39987E-05 3.94633E-18-1.85903E-18
 -1      2142 1.78950E-04-4.48919E-05-5.72293E-05-7.19694E-06 3.29144E-18-4.28429E-18
 -1      2143 1.92520E-04-4.11121E-05-6.43124E-05 1.62584E-06 3.80297E-18-3.60455E-18
 -1      2144 1.47261E-04-5.29341E-05-4.09587E-05-2.43103E-05 5.28464E-18-3.94717E-18
 -1      2145 1.70675E-04-5.21137E-05-5.02371E-05-2.09008E-05 3.50248E-18-4.56466E-18
 -1      2146 1.09156E-04-5.86127E-05-2.26747E-05-3.19697E-05 5.26727E-18-2.69484E-18
 -1      2147 1.32239E-04-5.54439E-05-3.26436E-05-3.47960E-05 5.67046E-18-3.27294E-18
 -1      2148 6.41870E-05-5.69259E-05-4.64032E-06-3.26850E-05 3.37797E-18-5.83939E-18
 -1      2149 8.58191E-05-5.54295E-05-1.33771E-05-3.96490E-05 4.07084E-18-4.25168E-18
 -1      2150 3.36971E-05-5.11003E-05 6.10479E-06-2.48488E-05 1.40184E-18-8.18361E-18
 -1      2151 4.67611E-05-5.10049E-05 9.19682E-07-3.18525E-05 3.70619E-18-8.00256E-18
 -1      2152 6.78336E-05-5.55795E-05-5.62501E-06-3.93827E-05 4.92126E-19-5.03116E-18
 -1      2153 1.45132E-05-4.95599E-05 1.31616E-05-4.10402E-06 4.79632E-20-6.95795E-18
 -1      2154 1.80345E-05-4.61191E-05 1.07532E-05-1.37770E-05 1.60216E-18-7.41154E-18
 -1      2155 1.61260E-05-4.59317E-05 1.14417E-05 1.44219E-05-6.51157E-19-2.28148E-18
 -1      2156 1.36762E-05-4.84776E-05 1.31647E-05 5.45408E-06 1.69618E-19-5.18892E-18
 -1      2157 3.77567E-05-4.69561E-05 3.01133E-06 3.35393E-05-2.20652E-18-4.29785E-18
 -1      2158 2.61768E-05-4.99660E-05 8.47657E-06 2.38354E-05-1.53948E-18-3.10099E-18
 -1      2159 7.99537E-05-5.29227E-05-1.21591E-05 4.38619E-05-2.98325E-18 2.39012E-18
 -1      2160 5.85637E-05-5.34504E-05-3.54881E-06 3.70046E-05-2.78420E-18-7.36019E-19
 -1      2161 1.25077E-04-5.16062E-05-3.10028E-05 4.06120E-05-2.42082E-18 4.98818E-18
 -1      2162 1.05577E-04-5.60510E-05-2.16066E-05 3.88820E-05-3.12979E-18 4.88166E-18
 -1      2163 1.62263E-04-4.62659E-05-4.87673E-05 3.10595E-05-1.53842E-18 4.54560E-18
 -1      2164 1.39601E-04-4.87368E-05-3.94411E-05 3.11937E-05-1.85246E-18 4.03696E-18
 -1      2165 1.90023E-04-3.95617E-05-6.34707E-05 1.37250E-05-7.17013E-19 6.48192E-18
 -1      2166 1.72046E-04-4.06695E-05-5.61392E-05 2.09119E-05-1.37569E-18 5.13217E-18
 -1      2167 2.03749E-04-2.96149E-05-7.34760E-05-4.11239E-06-3.95268E-18 9.04716E-18
 -1      2168 1.93365E-04-3.12097E-05-6.88914E-05 4.34481E-06-2.01848E-18 7.35013E-18
 -1      2169 2.03305E-04-2.13622E-05-7.69583E-05-1.87915E-05-5.32699E-18 8.50426E-18
 -1      2170 2.04079E-04-2.42049E-05-7.60494E-05-9.40451E-06-4.70696E-18 8.01463E-18
 -1      2171 1.96859E-04-2.30423E-05-7.33117E-05-3.34820E-05-6.37646E-18 9.83659E-18
 -1      2172 2.01381E-04-2.18766E-05-7.58862E-05-2.28878E-05-5.56839E-18 8.66345E-18
 -1      2173 1.73888E-04-2.99211E-05-6.11206E-05-3.92623E-05-3.90779E-18 7.51403E-18
 -1      2174 1.93033E-04-2.75970E-05-6.89635E-05-3.96761E-05-5.85384E-18 8.27297E-18
 -1      2175 1.74977E-04-1.97330E-05-6.55598E-05-1.76860E-05-4.01663E-18 6.60177E-18
 -1      2176 1.44966E-04-4.23224E-05-4.38076E-05-5.76269E-05 3.04508E-19 1.15603E-17
 -1      2177 1.64601E-04-4.03793E-05-5.27971E-05-5.14732E-05-1.70931E-18 9.55030E-18
 -1      2178 1.04578E-04-4.72965E-05-2.54704E-05-6.59287E-05 1.25276E-18 9.24071E-18
 -1      2179 1.27232E-04-4.27416E-05-3.56125E-05-7.06059E-05 2.97309E-19 1.17018E-17
 -1      2180 6.41761E-05-4.64404E-05-9.54323E-06-6.14355E-05 3.08659E-18 4.95821E-18
 -1      2181 8.28778E-05-4.22767E-05-1.78336E-05-7.13850E-05 1.09437E-18 8.46186E-18
 -1      2182 1.92686E-04-3.53594E-05-6.59186E-05 3.70521E-05 3.28892E-18-6.16640E-19
 -1      2183 1.74883E-04-3.81026E-05-5.81465E-05 3.95686E-05 4.45471E-18-1.57548E-18
 -1      2184 3.21716E-05-2.07084E-05-5.88042E-06 2.55690E-05 1.86686E-18 1.79698E-18
 -1      2185 9.71963E-05-2.43168E-05-3.13081E-05-9.99742E-06-2.28299E-18 1.55138E-18
 -1      2186 1.47159E-04-5.92309E-05-3.72335E-05 5.58056E-05 4.56720E-18 2.08963E-18
 -1      2187 1.79418E-04-2.92948E-05-6.32312E-05 1.48622E-05 3.41058E-18-2.33358E-18
 -1      2188 9.63548E-05-2.31003E-05-3.14580E-05-1.03784E-05-2.43330E-18 3.10663E-19
 -1      2189 9.49398E-05-1.95859E-05-3.13627E-05 6.13011E-05-3.22974E-18-8.56033E-19
 -1      2190 1.09049E-04-3.99006E-05-2.94872E-05 6.47762E-05-1.23434E-18-1.03380E-18
 -1      2191 7.79310E-05-4.36252E-06-3.14706E-05 5.59658E-05-2.59928E-18 4.19281E-19
 -1      2192 1.13323E-04-4.07523E-05-3.08081E-05-6.23012E-05 2.86694E-18 8.60983E-18
 -1      2193 1.07556E-04-5.45896E-05-2.31184E-05 6.99987E-05 2.71008E-18 6.28975E-19
 -1      2194 9.43071E-05-3.19361E-05-2.67788E-05 1.29056E-05 2.45440E-18-2.26352E-18
 -1      2195 9.61114E-05-3.46682E-05-2.63179E-05 1.32267E-05 2.33273E-18-1.26525E-18
 -1      2196 9.58548E-05-3.21066E-05-2.72803E-05 1.48583E-05 2.35930E-18-2.62074E-18
 -1      2197 9.24900E-05-2.88852E-05-2.71647E-05 1.43739E-05 1.64946E-18-2.47394E-18
 -1      2198 4.36747E-05-1.28356E-05-1.38505E-05-4.30894E-05 9.63076E-19 2.79775E-18
 -1      2199 3.56356E-05-3.96483E-05-8.81294E-07-4.37757E-05 3.94802E-18 2.71347E-18
 -1      2200 5.09342E-05-3.92198E-05-6.18765E-06-5.86970E-05 3.52959E-18 3.84765E-18
 -1      2201 6.27945E-05-2.21717E-05-1.68157E-05-6.38936E-05 5.79371E-19 3.90906E-18
 -1      2202 4.37450E-05-3.60293E-05-5.01086E-06 5.01945E-05 4.70188E-18 7.20825E-19
 -1      2203 3.09029E-05-3.21715E-05-1.65993E-06 3.57499E-05 3.79301E-18 1.51492E-18
 -1      2204 6.91628E-05-3.91749E-05-1.43949E-05-7.14249E-05 2.22981E-18 6.39955E-18
 -1      2205 1.08383E-04-5.35416E-05-2.39516E-05-7.47441E-05 2.04855E-18 9.47380E-18
 -1      2206 1.68061E-04-3.85158E-05-5.47673E-05-3.68566E-05-1.79539E-18 6.51792E-18
 -1      2207 1.64137E-04-3.67633E-05-5.52829E-05-1.85998E-05-4.26058E-19 6.10838E-18
 -1      2208 1.61168E-04-4.75661E-05-4.80610E-05-3.26507E-05-1.14932E-19 4.75821E-18
 -1      2209 1.78712E-04-1.03527E-05-7.09590E-05-1.52885E-05-5.68740E-18 6.00165E-18
 -1      2210 1.78961E-04-1.42361E-05-6.93672E-05-1.44459E-05-4.30377E-18 7.10978E-18
 -1      2211 1.78440E-04-3.13456E-05-6.20115E-05-6.40786E-06-2.07777E-18 7.45431E-18
 -1      2212 1.67442E-04-4.92947E-05-4.98635E-05 8.33150E-06-1.67506E-18 6.99480E-18
 -1      2213 1.43643E-04-6.18773E-05-3.49974E-05 2.55972E-05-9.11831E-19 5.75389E-18
 -1      2214 1.00438E-04-5.93827E-05-1.77564E-05 4.11207E-05-2.45216E-18 5.95178E-18
 -1      2215 9.68350E-05-6.06090E-05-1.49171E-05 4.39832E-05-7.03037E-20 5.89111E-18
 -1      2216 1.19845E-04-6.67721E-05-2.33381E-05 3.62735E-05-5.01655E-19 8.37154E-18
 -1      2217 5.66292E-05-4.97692E-05-3.19732E-06 4.20541E-05 6.81862E-20-9.57783E-19
 -1      2218 2.39568E-05-3.94062E-05 5.89282E-06 2.45055E-05 8.24798E-19-3.31783E-18
 -1      2219 3.09863E-05-4.26661E-05 4.37491E-06-2.53867E-05 6.16640E-19-8.09425E-18
 -1      2220 1.11005E-04-6.65154E-05-1.92203E-05-3.46182E-05 1.92573E-18-1.20755E-18
 -1      2221 1.50211E-04-6.55748E-05-3.59513E-05-1.73427E-05 3.34112E-18-1.00500E-18
 -1      2222 1.72029E-04-5.26394E-05-5.03850E-05 3.16881E-06 2.73255E-18-1.91938E-18
 -1      2223 1.71474E-04-4.92657E-05-5.15343E-05 3.30973E-05 4.53544E-18-2.63088E-18
 -1      2224 1.75717E-04-1.33525E-05-6.87082E-05 1.83211E-05 3.99884E-18-8.25857E-19
 -1      2225 1.75638E-04-3.00467E-05-6.15917E-05 1.89850E-05 3.62361E-18-1.49501E-19
 -1      2226 1.42524E-05-3.61301E-05 8.50150E-06 2.81656E-07 7.78212E-19-6.69961E-18
 -1      2227 1.45811E-04-5.45678E-05-3.86734E-05-5.86843E-05 2.50764E-18 1.15010E-17
 -1      2228 6.45027E-05-3.34613E-05-1.41332E-05 6.27348E-05 1.24895E-18-4.57398E-20
 -1      2229 9.52230E-05-2.63788E-05-2.94914E-05 4.19133E-06 2.03648E-18 2.58759E-18
 -1      2230 9.61970E-05-2.58641E-05-3.00692E-05 5.99678E-06 2.25145E-18 2.89834E-18
 -1      2231 8.81283E-05-1.11797E-05-3.30173E-05-3.65896E-06-1.53118E-19-2.99917E-18
 -1      2232 8.83634E-05-1.14510E-05-3.29996E-05-4.80027E-06-4.83445E-19-3.00621E-18
 -1      2233 8.87175E-05-1.19367E-05-3.29513E-05-5.81640E-06-6.59286E-19-2.98369E-18
 -1      2234 8.91240E-05-1.24082E-05-3.29233E-05-6.99148E-06-9.87805E-19-2.88433E-18
 -1      2235 8.98834E-05-1.38192E-05-3.25978E-05-4.89854E-06-5.58371E-19-2.79757E-18
 -1      2236 8.77813E-05-1.07202E-05-3.30602E-05 6.15395E-07 9.03834E-19-2.93227E-18
 -1      2237 8.77769E-05-1.07154E-05-3.30604E-05-4.95177E-07 6.44300E-19-2.95972E-18
 -1      2238 8.79629E-05-1.09453E-05-3.30419E-05 2.75651E-06 1.35885E-18-2.78369E-18
 -1      2239 8.78477E-05-1.08122E-05-3.30511E-05 1.63753E-06 1.09503E-18-2.88460E-18
 -1      2240 8.90986E-05-1.27661E-05-3.27171E-05 1.04923E-06 9.48121E-19-2.74015E-18
 -1      2241 8.83985E-05-1.14929E-05-3.29970E-05 4.88500E-06 1.83772E-18-2.37490E-18
 -1      2242 8.81583E-05-1.12159E-05-3.30149E-05 3.76217E-06 1.53288E-18-2.62094E-18
 -1      2243 8.93652E-05-1.31222E-05-3.26773E-05 3.01942E-06 1.35770E-18-2.46444E-18
 -1      2244 8.91796E-05-1.24761E-05-3.29188E-05 7.07175E-06 2.36917E-18-1.63108E-18
 -1      2245 8.87607E-05-1.19893E-05-3.29476E-05 5.90035E-06 2.05157E-18-2.03275E-18
 -1      2246 8.99240E-05-1.38708E-05-3.25933E-05 4.97276E-06 1.88388E-18-1.93845E-18
 -1      2247 9.04517E-05-1.40859E-05-3.27925E-05 9.21941E-06 2.83126E-18-8.10200E-19
 -1      2248 8.97699E-05-1.32745E-05-3.28375E-05 8.04097E-06 2.53198E-18-1.25118E-18
 -1      2249 9.08612E-05-1.51310E-05-3.24489E-05 6.86786E-06 2.33889E-18-1.21612E-18
 -1      2250 9.24526E-05-1.66591E-05-3.25834E-05 1.11033E-05 3.14457E-18 2.70786E-19
 -1      2251 9.13725E-05-1.53186E-05-3.26550E-05 1.00232E-05 2.90071E-18-3.25314E-19
 -1      2252 9.22872E-05-1.70861E-05-3.22085E-05 8.51225E-06 2.70015E-18-3.91048E-19
 -1      2253 9.42438E-05-2.71192E-05-2.87510E-05 1.76070E-06 1.48454E-18 2.21415E-18
 -1      2254 9.48436E-05-2.68955E-05-2.90493E-05 2.73382E-06 1.75497E-18 2.53749E-18
 -1      2255 9.53449E-05-2.58488E-05-2.97920E-05 4.35679E-06 2.05763E-18 1.49736E-18
 -1      2256 9.59171E-05-2.50920E-05-3.03058E-05-6.18215E-06-1.91925E-18-1.50059E-19
 -1      2257 9.52583E-05-2.58514E-05-2.97624E-05-4.27620E-06-1.74397E-18-1.60489E-19
 -1      2258 1.53029E-04-6.05659E-05-3.98764E-05 4.73194E-05 2.69949E-18-1.58226E-18
 -1      2259 1.40225E-04-6.12318E-05-3.36519E-05 5.55122E-05 2.26391E-18 3.32460E-19
 -1      2260 1.30613E-04-5.37038E-05-3.28034E-05-5.66450E-05 4.19514E-18 1.05910E-17
 -1      2261 1.19431E-04-4.89210E-05-3.01418E-05-6.75793E-05 2.39668E-18 1.00077E-17
 -1      2262 9.51431E-05-2.65364E-05-2.93456E-05-2.93312E-06-1.47624E-18-4.43997E-20
 -1      2263 9.46757E-05-2.69096E-05-2.90423E-05-1.87175E-06-1.16517E-18-1.10849E-19
 -1      2264 9.53409E-05-2.53530E-05-2.99972E-05-4.28903E-06-1.62698E-18-5.49805E-19
 -1      2265 9.44793E-05-2.72391E-05-2.87788E-05-1.02163E-06-1.02441E-18-7.89147E-20
 -1      2266 9.42218E-05-2.74528E-05-2.86127E-05-4.19780E-07-9.07014E-19-1.07620E-19
 -1      2267 9.50381E-05-2.67009E-05-2.93002E-05-1.91526E-06-1.19652E-18-5.09590E-19
 -1      2268 9.40732E-05-2.76334E-05-2.84516E-05 8.82140E-08-7.11345E-19-1.62265E-19
 -1      2269 9.39753E-05-2.77771E-05-2.83681E-05 4.18037E-07-5.89355E-19-1.39854E-19
 -1      2270 9.47321E-05-2.74280E-05-2.88574E-05-4.35405E-07-8.46540E-19-4.70555E-19
 -1      2271 9.38907E-05-2.78868E-05-2.82747E-05 7.00644E-07-5.24183E-19-1.91773E-19
 -1      2272 9.38968E-05-2.79940E-05-2.82419E-05 8.64635E-07-5.58134E-19-2.79473E-19
 -1      2273 9.45313E-05-2.78566E-05-2.85852E-05 4.35086E-07-6.67410E-19-4.77391E-19
 -1      2274 9.38653E-05-2.80663E-05-2.81930E-05 1.00163E-06-7.38433E-19-2.75668E-19
 -1      2275 9.39327E-05-2.81504E-05-2.81907E-05 1.06355E-06-5.45637E-19-3.40062E-19
 -1      2276 9.44386E-05-2.81262E-05-2.84270E-05 9.05638E-07-7.32957E-19-4.61873E-19
 -1      2277 9.39381E-05-2.82002E-05-2.81706E-05 1.10816E-06-4.90243E-19-4.00919E-19
 -1      2278 9.40371E-05-2.82672E-05-2.81858E-05 1.10812E-06-5.09325E-19-5.81583E-19
 -1      2279 9.44286E-05-2.83035E-05-2.83444E-05 1.11781E-06-7.23050E-19-7.75235E-19
 -1      2280 9.40652E-05-2.83022E-05-2.81836E-05 1.09608E-06-7.42419E-19-8.04107E-19
 -1      2281 9.41761E-05-2.83554E-05-2.82079E-05 1.06013E-06-1.00061E-18-7.64529E-19
 -1      2282 9.44729E-05-2.84222E-05-2.83107E-05 1.16705E-06-7.73490E-19-1.03224E-18
 -1      2283 9.42160E-05-2.83799E-05-2.82163E-05 1.01557E-06-9.68065E-19-8.63195E-19
 -1      2284 9.43265E-05-2.84215E-05-2.82443E-05 9.60841E-07-9.15215E-19-9.03767E-19
 -1      2285 9.45479E-05-2.85013E-05-2.83076E-05 1.11792E-06-1.09767E-18-1.11157E-18
 -1      2286 9.43709E-05-2.84382E-05-2.82585E-05 8.99948E-07-7.76598E-19-9.55806E-19
 -1      2287 9.44738E-05-2.84702E-05-2.82868E-05 8.37705E-07-6.21074E-19-9.68058E-19
 -1      2288 9.46367E-05-2.85526E-05-2.83227E-05 1.01406E-06-9.92320E-19-9.22003E-19
 -1      2289 9.45179E-05-2.84810E-05-2.83035E-05 7.71225E-07-5.59453E-19-8.13807E-19
 -1      2290 9.46094E-05-2.85050E-05-2.83302E-05 7.08750E-07-2.38921E-19-5.86183E-19
 -1      2291 9.47278E-05-2.85840E-05-2.83477E-05 8.84775E-07-4.67381E-19-7.92269E-19
 -1      2292 9.46507E-05-2.85114E-05-2.83474E-05 6.43648E-07-1.13953E-19-6.37973E-19
 -1      2293 9.47295E-05-2.85288E-05-2.83715E-05 5.85534E-07-1.37220E-19-5.98152E-19
 -1      2294 9.48144E-05-2.86010E-05-2.83772E-05 7.49405E-07-2.03561E-19-4.34274E-19
 -1      2295 9.47666E-05-2.85319E-05-2.83882E-05 5.26213E-07-4.37189E-19-6.73647E-19
 -1      2296 9.48331E-05-2.85439E-05-2.84094E-05 4.75274E-07-6.87820E-19-7.55370E-19
 -1      2297 9.48930E-05-2.86078E-05-2.84078E-05 6.20447E-07-4.00710E-19-3.21011E-19
 -1      2298 9.48657E-05-2.85445E-05-2.84250E-05 4.24461E-07-3.84617E-19-7.80257E-19
 -1      2299 9.49213E-05-2.85523E-05-2.84436E-05 3.82403E-07-1.11961E-19-3.55825E-19
 -1      2300 9.49623E-05-2.86070E-05-2.84377E-05 5.05803E-07-4.20241E-19-7.95504E-20
 -1      2301 9.49498E-05-2.85510E-05-2.84581E-05 3.41814E-07-2.24935E-19-4.53118E-19
 -1      2302 9.49965E-05-2.85555E-05-2.84743E-05 3.09729E-07 4.08904E-20-2.56368E-19
 -1      2303 9.50226E-05-2.86009E-05-2.84663E-05 4.10446E-07-2.62980E-19 7.31193E-20
 -1      2304 9.50219E-05-2.85527E-05-2.84880E-05 2.80568E-07-8.21154E-20-5.23181E-19
 -1      2305 9.50623E-05-2.85546E-05-2.85027E-05 2.59315E-07-2.50120E-19-6.30012E-19
 -1      2306 9.50755E-05-2.85906E-05-2.84934E-05 3.37674E-07-2.56848E-19-4.60214E-20
 -1      2307 9.50859E-05-2.85507E-05-2.85161E-05 2.42649E-07-5.13718E-19-6.45654E-19
 -1      2308 9.51231E-05-2.85508E-05-2.85302E-05 2.33132E-07-4.16297E-19-1.02906E-18
 -1      2309 9.51231E-05-2.85770E-05-2.85198E-05 2.90041E-07-4.33410E-19-5.26286E-19
 -1      2310 9.51464E-05-2.85459E-05-2.85439E-05 2.30171E-07 3.97270E-20-1.15611E-18
 -1      2311 9.51838E-05-2.85449E-05-2.85584E-05 2.33552E-07-1.62921E-19-9.76764E-19
 -1      2312 9.51685E-05-2.85604E-05-2.85465E-05 2.70068E-07-2.55196E-19-3.74455E-19
 -1      2313 9.52088E-05-2.85390E-05-2.85733E-05 2.45856E-07-1.81254E-19-9.19971E-19
 -1      2314 9.52502E-05-2.85376E-05-2.85895E-05 2.63699E-07 6.29662E-20-1.27193E-18
 -1      2315 9.52152E-05-2.85410E-05-2.85750E-05 2.80760E-07-1.74324E-19-7.47262E-19
 -1      2316 9.52792E-05-2.85310E-05-2.86067E-05 2.93312E-07 2.45789E-19-1.21830E-18
 -1      2317 9.53289E-05-2.85301E-05-2.86260E-05 3.27665E-07 7.81028E-19-9.27250E-19
 -1      2318 9.52673E-05-2.85189E-05-2.86071E-05 3.25970E-07 2.85152E-19-1.29321E-18
 -1      2319 9.53645E-05-2.85230E-05-2.86466E-05 3.77168E-07 6.46877E-19-1.14370E-18
 -1      2320 9.54277E-05-2.85235E-05-2.86705E-05 4.30570E-07 8.73190E-20-1.42977E-18
 -1      2321 9.53297E-05-2.84941E-05-2.86447E-05 4.10593E-07 4.75680E-19-9.64654E-19
 -1      2322 9.54728E-05-2.85164E-05-2.86957E-05 5.03044E-07-7.62363E-20-1.50650E-18
 -1      2323 9.55553E-05-2.85198E-05-2.87259E-05 5.78431E-07 4.58107E-20-1.22479E-18
 -1      2324 9.54078E-05-2.84671E-05-2.86901E-05 5.40589E-07-4.35355E-20-1.42388E-18
 -1      2325 9.56135E-05-2.85134E-05-2.87571E-05 6.77289E-07-3.70650E-19-1.04469E-18
 -1      2326 9.57217E-05-2.85216E-05-2.87956E-05 7.77752E-07-4.60811E-19-8.39200E-19
 -1      2327 9.55083E-05-2.84391E-05-2.87455E-05 7.22758E-07-1.07110E-19-1.26739E-18
 -1      2328 9.57970E-05-2.85173E-05-2.88340E-05 9.06390E-07-6.07954E-19-9.37583E-19
 -1      2329 9.59383E-05-2.85330E-05-2.88826E-05 1.03473E-06-6.36793E-19-1.21249E-18
 -1      2330 9.56388E-05-2.84121E-05-2.88133E-05 9.64194E-07-6.18510E-19-1.26501E-18
 -1      2331 9.60353E-05-2.85331E-05-2.89293E-05 1.19591E-06-3.37616E-19-1.07351E-18
 -1      2332 9.62176E-05-2.85599E-05-2.89898E-05 1.35386E-06 4.66666E-20-7.26119E-19
 -1      2333 9.58081E-05-2.83903E-05-2.88956E-05 1.27128E-06-6.81553E-19-1.23845E-18
 -1      2334 9.63421E-05-2.85680E-05-2.90456E-05 1.54874E-06-6.49084E-20-1.54396E-18
 -1      2335 9.65735E-05-2.86112E-05-2.91196E-05 1.73582E-06-8.05252E-20-1.65708E-18
 -1      2336 9.60266E-05-2.83807E-05-2.89937E-05 1.64800E-06-2.77852E-19-9.33210E-19
 -1      2337 9.67319E-05-2.86328E-05-2.91847E-05 1.96243E-06-2.75170E-19-1.27453E-18
 -1      2338 9.70203E-05-2.86996E-05-2.92728E-05 2.17410E-06-5.62486E-19-1.63065E-18
 -1      2339 9.63070E-05-2.83943E-05-2.91084E-05 2.09342E-06-2.86437E-19-9.25987E-19
 -1      2340 9.72207E-05-2.87434E-05-2.93464E-05 2.42518E-06-6.25648E-19-2.10219E-18
 -1      2341 9.75728E-05-2.88435E-05-2.94482E-05 2.65032E-06-8.15785E-19-2.28797E-18
 -1      2342 9.66641E-05-2.84488E-05-2.92384E-05 2.59784E-06-9.68475E-19-9.43075E-19
 -1      2343 9.78252E-05-2.89221E-05-2.95283E-05 2.91027E-06-5.57190E-19-1.42351E-18
 -1      2344 9.82451E-05-2.90685E-05-2.96414E-05 3.12767E-06-4.71983E-19-8.45552E-19
 -1      2345 9.71166E-05-2.85707E-05-2.93806E-05 3.13752E-06-1.74847E-19-5.25677E-19
 -1      2346 9.85624E-05-2.92003E-05-2.97240E-05 3.36848E-06-5.81875E-19-1.47440E-19
 -1      2347 9.90497E-05-2.94094E-05-2.98433E-05 3.54250E-06 1.06349E-19 6.53653E-19
 -1      2348 9.76884E-05-2.87985E-05-2.95285E-05 3.66746E-06 6.11096E-20 7.25770E-19
 -1      2349 9.94489E-05-2.96192E-05-2.99228E-05 3.71876E-06 5.22321E-19 5.44877E-19
 -1      2350 9.99960E-05-2.99103E-05-3.00397E-05 3.79455E-06 6.46846E-20 1.30293E-18
 -1      2351 9.84097E-05-2.91855E-05-2.96726E-05 4.11237E-06 6.32541E-20 1.41784E-18
 -1      2352 1.00498E-04-3.02290E-05-3.01085E-05 3.83801E-06-6.80028E-19 9.51968E-19
 -1      2353 1.01086E-04-3.06212E-05-3.02108E-05 3.73768E-06-3.42012E-19 8.74418E-19
 -1      2354 9.93195E-05-2.98005E-05-2.98002E-05 4.35625E-06-4.37401E-19 1.20537E-18
 -1      2355 1.01713E-04-3.10810E-05-3.02610E-05 3.55294E-06-2.52041E-19 1.00323E-18
 -1      2356 1.02306E-04-3.15841E-05-3.03330E-05 3.17597E-06-4.86738E-20 2.87573E-19
 -1      2357 1.00462E-04-3.07212E-05-2.98972E-05 4.23256E-06-8.05626E-19 9.08203E-19
 -1      2358 1.03075E-04-3.22059E-05-3.03586E-05 2.64097E-06-2.79097E-19 4.26373E-19
 -1      2359 1.03607E-04-3.28024E-05-3.03839E-05 1.87467E-06-5.58924E-19 1.00671E-18
 -1      2360 1.01879E-04-3.20127E-05-2.99530E-05 3.51983E-06-3.44120E-19 1.20750E-18
 -1      2361 1.04506E-04-3.35678E-05-3.03853E-05 8.53624E-07-7.80127E-19 1.13905E-18
 -1      2362 1.04872E-04-3.41816E-05-3.03511E-05-3.97094E-07-1.21960E-20 1.26086E-18
 -1      2363 1.03577E-04-3.36785E-05-2.99676E-05 1.95318E-06-4.67174E-19 1.47571E-18
 -1      2364 1.05820E-04-3.49875E-05-3.03408E-05-2.01444E-06-8.47000E-20 6.56571E-19
 -1      2365 1.05859E-04-3.54434E-05-3.02444E-05-3.76686E-06-4.06381E-19 3.60310E-19
 -1      2366 1.05465E-04-3.55707E-05-2.99628E-05-7.28213E-07-2.51554E-19 1.11562E-18
 -1      2367 1.06649E-04-3.60468E-05-3.02512E-05-5.97946E-06-2.96653E-19-3.70035E-19
 -1      2368 1.06153E-04-3.60475E-05-3.01070E-05-8.07858E-06-2.33596E-19-2.72697E-19
 -1      2369 1.07257E-04-3.72655E-05-2.99926E-05-4.66286E-06-7.33261E-19-6.36044E-19
 -1      2370 1.06420E-04-3.60508E-05-3.01738E-05-1.06320E-05-1.25006E-18-8.28864E-20
 -1      2371 1.05188E-04-3.52333E-05-3.00136E-05-1.26494E-05-1.99362E-18-8.47018E-19
 -1      2372 1.08372E-04-3.79720E-05-3.01442E-05-9.63873E-06-1.36077E-18 1.62518E-19
 -1      2373 1.04496E-04-3.42019E-05-3.01768E-05-1.48905E-05-1.50956E-18-2.45558E-19
 -1      2374 1.02482E-04-3.23469E-05-3.00367E-05-1.61046E-05-4.79753E-19-3.41814E-19
 -1      2375 1.07975E-04-3.66594E-05-3.05104E-05-1.47748E-05-1.21662E-18 9.25092E-19
 -1      2376 1.00613E-04-3.01345E-05-3.02872E-05-1.70128E-05-6.44333E-19-6.06522E-19
 -1      2377 9.80968E-05-2.74810E-05-3.01830E-05-1.66169E-05 6.88247E-20-1.37485E-18
 -1      2378 1.05363E-04-3.26093E-05-3.11195E-05-1.83378E-05-8.71223E-19 4.48444E-19
 -1      2379 9.54433E-05-2.46225E-05-3.04315E-05-1.52089E-05 4.33821E-19-1.76987E-18
 -1      2380 9.31121E-05-2.20711E-05-3.03415E-05-1.27847E-05 2.04056E-19-2.31530E-18
 -1      2381 1.00661E-04-2.62937E-05-3.18385E-05-1.81067E-05-6.15652E-19-4.22571E-19
 -1      2382 9.07414E-05-1.97967E-05-3.04420E-05-9.00644E-06-4.75649E-19-2.85294E-18
 -1      2383 8.93477E-05-1.84413E-05-3.03170E-05-5.05419E-06-1.68308E-19-2.97085E-18
 -1      2384 9.54482E-05-1.99683E-05-3.23673E-05-1.28017E-05-3.46609E-19-2.48924E-18
 -1      2385 8.82693E-05-1.79023E-05-3.01201E-05-6.32466E-08 4.51416E-19-3.63658E-18
 -1      2386 8.82192E-05-1.83797E-05-2.99211E-05 4.07927E-06-5.60398E-19-2.97518E-18
 -1      2387 9.19131E-05-1.65498E-05-3.23426E-05-3.50030E-06 3.22620E-19-1.90918E-18
 -1      2388 8.83669E-05-1.96450E-05-2.93994E-05 8.38837E-06-9.95561E-19-2.93499E-18
 -1      2389 8.93967E-05-2.15781E-05-2.91537E-05 1.13473E-05-1.97617E-19-2.81421E-18
 -1      2390 9.11868E-05-1.76450E-05-3.15216E-05 6.21846E-06-7.30936E-19-4.24224E-18
 -1      2391 1.04865E-04-3.36069E-05-3.06809E-05 1.02651E-05 2.32108E-18-3.71204E-18
 -1      2392 1.09940E-04-3.58363E-05-3.16042E-05 5.19953E-06 2.30018E-18-2.81699E-18
 -1      2393 9.33516E-05-2.76944E-05-2.81315E-05-4.16171E-07 6.01828E-19 1.47221E-18
 -1      2394 9.34287E-05-2.75890E-05-2.81926E-05-1.30203E-07 7.87064E-19 1.70919E-18
 -1      2395 9.33018E-05-2.78596E-05-2.80419E-05-8.23164E-07 4.54264E-19 1.20464E-18
 -1      2396 9.32557E-05-2.77681E-05-2.80531E-05-6.83650E-07 4.69043E-19 1.32259E-18
 -1      2397 9.40199E-05-2.78102E-05-2.83868E-05-4.50411E-07 7.65597E-19 7.91656E-19
 -1      2398 9.33969E-05-2.79960E-05-2.80259E-05-9.99322E-07 7.15820E-19 1.01074E-18
 -1      2399 9.32831E-05-2.79147E-05-2.80086E-05-9.48279E-07 5.14591E-19 1.06893E-18
 -1      2400 9.39339E-05-2.80202E-05-2.82568E-05-8.98445E-07 5.99434E-19 5.17822E-19
 -1      2401 9.35723E-05-2.81117E-05-2.80526E-05-1.03415E-06 9.96084E-19 9.26220E-19
 -1      2402 9.34270E-05-2.80404E-05-2.80203E-05-1.03624E-06 8.25551E-19 1.06560E-18
 -1      2403 9.39632E-05-2.81700E-05-2.82024E-05-1.09502E-06 7.57024E-19 2.36804E-19
 -1      2404 9.37837E-05-2.82094E-05-2.81021E-05-9.85253E-07 5.02153E-19 9.81828E-19
 -1      2405 9.36299E-05-2.81481E-05-2.80634E-05-1.01791E-06 8.77987E-19 1.07896E-18
 -1      2406 9.40618E-05-2.82814E-05-2.81949E-05-1.13570E-06 7.95290E-19 4.60101E-19
 -1      2407 9.40022E-05-2.82906E-05-2.81616E-05-8.90436E-07 4.89044E-19 9.08086E-19
 -1      2408 9.38538E-05-2.82392E-05-2.81217E-05-9.38976E-07 4.60802E-19 1.04691E-18
 -1      2409 9.41958E-05-2.83654E-05-2.82148E-05-1.08338E-06 5.82312E-19 4.28006E-19
 -1      2410 9.42103E-05-2.83566E-05-2.82228E-05-7.74585E-07 5.03736E-19 6.80113E-19
 -1      2411 9.40751E-05-2.83145E-05-2.81849E-05-8.29413E-07 6.78374E-19 9.38205E-19
 -1      2412 9.43420E-05-2.84284E-05-2.82496E-05-9.79865E-07 7.61205E-19 5.16105E-19
 -1      2413 9.43984E-05-2.84090E-05-2.82812E-05-6.53894E-07 9.83262E-19 9.26982E-20
 -1      2414 9.42800E-05-2.83754E-05-2.82470E-05-7.08837E-07 5.67824E-19 3.99800E-19
 -1      2415 9.44859E-05-2.84748E-05-2.82907E-05-8.52888E-07 7.54505E-19-1.00871E-19
 -1      2416 9.45623E-05-2.84495E-05-2.83341E-05-5.38648E-07 8.76562E-19 4.39925E-19
 -1      2417 9.44617E-05-2.84234E-05-2.83043E-05-5.89846E-07 1.05316E-18 5.66840E-19
 -1      2418 9.46188E-05-2.85080E-05-2.83331E-05-7.20588E-07 6.45627E-19 8.48973E-20
 -1      2419 9.47015E-05-2.84801E-05-2.83807E-05-4.35176E-07 6.25977E-19 9.44590E-19
 -1      2420 9.46178E-05-2.84602E-05-2.83553E-05-4.80296E-07 8.85139E-19 9.18577E-19
 -1      2421 9.47368E-05-2.85307E-05-2.83737E-05-5.94574E-07 6.63518E-19 3.09247E-19
 -1      2422 9.48180E-05-2.85024E-05-2.84210E-05-3.47259E-07-1.02809E-19 5.90665E-19
 -1      2423 9.47493E-05-2.84877E-05-2.83996E-05-3.84928E-07 3.95774E-19 1.01015E-18
 -1      2424 9.48388E-05-2.85452E-05-2.84112E-05-4.82075E-07 4.41382E-19 9.33312E-19
 -1      2425 9.49153E-05-2.85181E-05-2.84559E-05-2.77189E-07 2.83402E-19 2.40675E-19
 -1      2426 9.48588E-05-2.85075E-05-2.84378E-05-3.06563E-07 9.32398E-21 4.15397E-19
 -1      2427 9.49258E-05-2.85532E-05-2.84451E-05-3.87530E-07 1.75666E-19 6.95572E-19
 -1      2428 9.49981E-05-2.85287E-05-2.84866E-05-2.26570E-07 3.56784E-19 6.95846E-20
 -1      2429 9.49507E-05-2.85213E-05-2.84709E-05-2.47006E-07 3.43106E-19 2.02023E-19
 -1      2430 9.50003E-05-2.85562E-05-2.84758E-05-3.13774E-07 4.58264E-19 4.65899E-19
 -1      2431 9.50720E-05-2.85358E-05-2.85150E-05-1.96938E-07-1.23438E-19 7.02055E-19
 -1      2432 9.50300E-05-2.85305E-05-2.85007E-05-2.07737E-07 2.56538E-19 6.36825E-19
 -1      2433 9.50656E-05-2.85554E-05-2.85043E-05-2.62946E-07-9.35170E-20 2.91589E-19
 -1      2434 9.51435E-05-2.85407E-05-2.85432E-05-1.90251E-07-1.40300E-19 3.19314E-19
 -1      2435 9.51028E-05-2.85366E-05-2.85290E-05-1.90453E-07-2.33360E-19 4.35537E-19
 -1      2436 9.51260E-05-2.85515E-05-2.85320E-05-2.37183E-07-2.46576E-19 5.36923E-19
 -1      2437 9.52199E-05-2.85449E-05-2.85737E-05-2.09291E-07-1.51432E-19 7.00401E-20
 -1      2438 9.51758E-05-2.85410E-05-2.85581E-05-1.97500E-07-3.32845E-20 3.05879E-19
 -1      2439 9.51864E-05-2.85453E-05-2.85609E-05-2.39184E-07-1.05569E-19 5.02392E-19
 -1      2440 9.53097E-05-2.85499E-05-2.86094E-05-2.58004E-07 1.07122E-18-4.62086E-19
 -1      2441 9.52570E-05-2.85451E-05-2.85908E-05-2.32237E-07 3.50406E-19-1.89875E-19
 -1      2442 9.52528E-05-2.85374E-05-2.85930E-05-2.72652E-07 2.37107E-19-6.68760E-19
 -1      2443 9.54229E-05-2.85576E-05-2.86538E-05-3.41800E-07 4.75332E-19 6.57464E-19
 -1      2444 9.53551E-05-2.85505E-05-2.86303E-05-2.99351E-07 9.47415E-19 2.24335E-19
 -1      2445 9.53316E-05-2.85283E-05-2.86310E-05-3.42681E-07 5.57200E-19-2.95753E-19
 -1      2446 9.55710E-05-2.85700E-05-2.87110E-05-4.67818E-07-2.09230E-19 3.27782E-19
 -1      2447 9.54809E-05-2.85592E-05-2.86801E-05-4.05133E-07 2.05967E-19 5.33056E-19
 -1      2448 9.54306E-05-2.85186E-05-2.86780E-05-4.56073E-07 3.42640E-19 1.00429E-18
 -1      2449 9.57680E-05-2.85898E-05-2.87857E-05-6.45133E-07-1.31221E-19-8.09136E-20
 -1      2450 9.56465E-05-2.85733E-05-2.87448E-05-5.57707E-07-3.99912E-19 2.65059E-19
 -1      2451 9.55588E-05-2.85090E-05-2.87375E-05-6.21603E-07-4.80009E-20 2.20615E-19
 -1      2452 9.60299E-05-2.86202E-05-2.88834E-05-8.84907E-07 5.18923E-20-5.70295E-19
 -1      2453 9.58666E-05-2.85955E-05-2.88292E-05-7.67213E-07 1.09637E-19-4.34313E-19
 -1      2454 9.57263E-05-2.85004E-05-2.88135E-05-8.50202E-07 1.90439E-19-5.83672E-19
 -1      2455 9.63756E-05-2.86651E-05-2.90106E-05-1.20036E-06 4.35055E-19 7.27102E-20
 -1      2456 9.61580E-05-2.86293E-05-2.89393E-05-1.04587E-06-1.06825E-19-2.50396E-19
 -1      2457 9.59451E-05-2.84940E-05-2.89105E-05-1.15502E-06-1.53395E-19-7.24649E-19
 -1      2458 9.68270E-05-2.87297E-05-2.91742E-05-1.60644E-06-3.63940E-19 1.06333E-18
 -1      2459 9.65404E-05-2.86789E-05-2.90816E-05-1.40779E-06 2.59065E-20 7.66263E-19
 -1      2460 9.62283E-05-2.84915E-05-2.90335E-05-1.55123E-06-3.69629E-19-1.20529E-19
 -1      2461 9.74084E-05-2.88208E-05-2.93819E-05-2.11888E-06-9.79670E-19 2.59394E-18
 -1      2462 9.70360E-05-2.87501E-05-2.92632E-05-1.86844E-06-4.25902E-19 2.01422E-18
 -1      2463 9.65906E-05-2.84960E-05-2.91873E-05-2.05541E-06-1.19051E-18 7.46729E-19
 -1      2464 9.81463E-05-2.89480E-05-2.96412E-05-2.75208E-06-1.12336E-18 2.79328E-18
 -1      2465 9.76697E-05-2.88504E-05-2.94916E-05-2.44311E-06-7.26428E-19 2.49381E-18
 -1      2466 9.70477E-05-2.85122E-05-2.93767E-05-2.68411E-06-9.00872E-19 1.76474E-18
 -1      2467 9.90687E-05-2.91253E-05-2.99582E-05-3.51482E-06-7.57954E-20 1.21243E-18
 -1      2468 9.84685E-05-2.89915E-05-2.97733E-05-3.14395E-06-3.04507E-19 2.32378E-18
 -1      2469 9.76166E-05-2.85491E-05-2.96051E-05-3.45092E-06-3.61715E-19 3.47005E-19
 -1      2470 1.00204E-04-2.93753E-05-3.03360E-05-4.40226E-06 4.57701E-19-1.70861E-19
 -1      2471 9.94612E-05-2.91910E-05-3.01132E-05-3.97414E-06-2.13313E-19 6.66351E-19
 -1      2472 9.83159E-05-2.86235E-05-2.98732E-05-4.36103E-06 5.10958E-19 1.28627E-20
 -1      2473 1.01579E-04-2.97351E-05-3.07714E-05-5.38152E-06 6.63482E-20 5.70312E-19
 -1      2474 1.00678E-04-2.94788E-05-3.05114E-05-4.91713E-06 4.60567E-19 4.06301E-19
 -1      2475 9.91681E-05-2.87669E-05-3.01771E-05-5.40148E-06 2.00787E-19 2.79421E-19
 -1      2476 1.03219E-04-3.02672E-05-3.12505E-05-6.36745E-06-9.31736E-20 1.51701E-18
 -1      2477 1.02152E-04-2.99053E-05-3.09603E-05-5.91814E-06-3.41091E-19 7.70868E-19
 -1      2478 1.00205E-04-2.90384E-05-3.05057E-05-6.52458E-06-8.12639E-20 1.23073E-18
 -1      2479 1.05151E-04-3.10741E-05-3.17429E-05-7.18493E-06 9.64695E-19 2.08712E-18
 -1      2480 1.03923E-04-3.05555E-05-3.14399E-05-6.85367E-06 5.69812E-19 2.10112E-18
 -1      2481 1.01479E-04-2.95433E-05-3.08373E-05-7.62117E-06-3.24752E-19 1.62385E-18
 -1      2482 1.07402E-04-3.23108E-05-3.21972E-05-7.51671E-06 5.12652E-19 2.74084E-18
 -1      2483 1.06042E-04-3.15658E-05-3.19128E-05-7.48563E-06 1.02148E-18 2.71224E-18
 -1      2484 1.03085E-04-3.04586E-05-3.11380E-05-8.48015E-06 6.69655E-19 1.40363E-18
 -1      2485 1.09996E-04-3.41733E-05-3.25423E-05-6.84792E-06 7.38937E-19 2.86363E-18
 -1      2486 1.08577E-04-3.31300E-05-3.23234E-05-7.40162E-06 8.74350E-19 2.96878E-18
 -1      2487 1.05186E-04-3.20511E-05-3.13654E-05-8.73299E-06 1.01769E-18 2.65513E-18
 -1      2488 1.12910E-04-3.68065E-05-3.27053E-05-4.44836E-06 1.70590E-18 9.01819E-19
 -1      2489 1.11589E-04-3.54561E-05-3.26069E-05-5.96153E-06 1.33024E-18 1.96507E-18
 -1      2490 1.08026E-04-3.46476E-05-3.14848E-05-7.79195E-06 1.96662E-18 1.69354E-18
 -1      2491 1.15929E-04-4.00336E-05-3.26603E-05 5.04396E-07 2.19104E-19 2.99476E-19
 -1      2492 1.15020E-04-3.85915E-05-3.27214E-05-2.31933E-06 1.44499E-18 8.47013E-19
 -1      2493 1.11860E-04-3.84620E-05-3.15097E-05-4.82111E-06 1.55795E-18 1.21985E-18
 -1      2494 1.18350E-04-4.28723E-05-3.25060E-05 8.43822E-06-5.98826E-19-4.61437E-19
 -1      2495 1.18408E-04-4.20056E-05-3.27101E-05 4.29566E-06-1.13493E-18-3.73628E-19
 -1      2496 1.16658E-04-4.31188E-05-3.15739E-05 1.12463E-06-1.58359E-19 4.19711E-20
 -1      2497 1.18667E-04-4.30264E-05-3.25351E-05 1.84877E-05-9.58934E-19 1.71420E-18
 -1      2498 1.20488E-04-4.40443E-05-3.27706E-05 1.38528E-05-3.48448E-19 7.87565E-19
 -1      2499 1.21589E-04-4.70072E-05-3.20054E-05 1.05598E-05-1.27755E-18 7.34201E-19
 -1      2500 1.14920E-04-3.77886E-05-3.30922E-05 2.67684E-05 9.94331E-19 1.29265E-18
 -1      2501 1.18855E-04-4.16368E-05-3.32252E-05 2.38508E-05-7.67432E-19 9.92567E-19
 -1      2502 1.24124E-04-4.63621E-05-3.33060E-05 2.21656E-05-5.45608E-19 1.49892E-18
 -1      2503 1.06796E-04-2.72262E-05-3.41635E-05 2.74457E-05 3.55632E-18 1.22122E-18
 -1      2504 1.12180E-04-3.31386E-05-3.41823E-05 2.87570E-05 2.75344E-18 1.57618E-18
 -1      2505 1.21449E-04-3.84112E-05-3.56820E-05 3.08232E-05 1.94108E-18 8.14210E-19
 -1      2506 9.89624E-05-1.78897E-05-3.48288E-05 1.67214E-05 2.19678E-18 1.30660E-18
 -1      2507 1.02948E-04-2.17593E-05-3.50286E-05 2.27115E-05 3.61733E-18 1.28309E-18
 -1      2508 1.13851E-04-2.50885E-05-3.81847E-05 2.85426E-05 3.28278E-18 1.58919E-18
 -1      2509 9.62336E-05-1.67005E-05-3.43204E-05 2.21158E-07 1.19490E-18-4.13756E-19
 -1      2510 9.70147E-05-1.60333E-05-3.48014E-05 7.60752E-06 1.65383E-18 9.26462E-19
 -1      2511 1.07103E-04-1.50683E-05-3.97531E-05 1.41693E-05 2.31171E-18 1.46796E-18
 -1      2512 9.86207E-05-2.32751E-05-3.25377E-05-1.16589E-05-2.31187E-19-8.42864E-20
 -1      2513 9.70930E-05-1.96321E-05-3.32069E-05-7.18540E-06 3.66024E-19 1.04523E-20
 -1      2514 1.06181E-04-1.71697E-05-3.84302E-05-3.49600E-06 7.32366E-19 9.34860E-19
 -1      2515 1.00601E-04-3.00347E-05-3.03206E-05-1.45452E-05 1.39774E-19-6.25031E-19
 -1      2516 9.90397E-05-2.67727E-05-3.09429E-05-1.37422E-05 5.36278E-20-1.11362E-19
 -1      2517 1.08197E-04-2.61773E-05-3.51657E-05-1.28570E-05 3.49904E-19 2.25692E-18
 -1      2518 9.84406E-05-3.14873E-05-2.86950E-05-1.31273E-05-4.70421E-19-1.57303E-18
 -1      2519 6.86305E-05-1.44107E-05-2.28103E-05 5.63303E-05-1.21634E-18 4.92550E-19
 -1      2520 1.33173E-04-4.77193E-05-3.65727E-05 1.29316E-05 9.35971E-19-4.24194E-18
 -1      2521 1.24837E-04-4.34723E-05-3.52825E-05 1.12693E-06 2.15722E-18-2.51677E-18
 -1      2522 1.34549E-04-5.55243E-05-3.38180E-05 5.20642E-05-7.39036E-20-2.29218E-18
 -1      2523 1.39046E-04-5.60834E-05-3.55666E-05 3.53537E-05 8.42480E-19-4.45211E-18
 -1      2524 4.45884E-05-1.01549E-05-1.53739E-05 4.34518E-05-7.38189E-19 1.13926E-18
 -1      2525 1.24113E-04-5.66932E-05-2.88616E-05 6.78370E-05 1.89439E-18 1.37675E-18
 -1      2526 1.01027E-04-4.69586E-05-2.30060E-05 7.10451E-05 8.36869E-19-3.11602E-19
 -1      2527 1.16759E-04-3.99743E-05-3.32162E-05-1.35172E-06 2.08163E-18-1.11665E-18
 -1      2528 1.23467E-04-4.29431E-05-3.44001E-05-1.12015E-05 2.03051E-18 1.22894E-18
 -1      2529 1.16761E-04-3.34367E-05-3.56295E-05 3.90859E-06 1.20265E-18-1.51762E-18
 -1      2530 1.30357E-04-4.94507E-05-3.49408E-05-2.42041E-05 2.43329E-18 3.21587E-18
 -1      2531 1.32979E-04-5.06900E-05-3.52365E-05-3.85293E-05 3.69613E-18 5.52922E-18
 -1      2532 1.40996E-04-5.53166E-05-3.65003E-05-4.47069E-05 3.26055E-18 7.85104E-18
 -1      2533 1.33611E-04-4.44181E-05-3.81269E-05-1.45741E-05 1.84857E-18 2.31621E-18
 -1      2534 9.75546E-05-3.02718E-05-2.89145E-05 1.48118E-05 2.23139E-18-3.99129E-18
 -1      2535 1.00954E-04-3.22709E-05-2.93417E-05 1.27304E-05 3.25279E-18-4.92448E-18
 -1      2536 1.03559E-04-2.81264E-05-3.22966E-05 1.21893E-05 1.97926E-18-3.79419E-18
 -1      2537 9.36332E-05-2.74744E-05-2.83422E-05 3.65001E-07 9.52389E-19 1.89635E-18
 -1      2538 9.39149E-05-2.73383E-05-2.84890E-05 8.99034E-07 1.14745E-18 2.13183E-18
 -1      2539 9.42752E-05-2.74906E-05-2.86356E-05 3.97619E-07 1.10995E-18 1.10574E-18
 -1      2540 1.64128E-04-2.40170E-05-6.06512E-05 5.58957E-06 2.32193E-18-1.52529E-18
 -1      2541 1.65467E-04-3.39918E-05-5.64703E-05 7.44000E-06 3.42434E-18-2.24125E-18
 -1      2542 9.50768E-05-2.00251E-05-3.22135E-05-1.17300E-05-2.32386E-18-6.89538E-19
 -1      2543 9.54793E-05-2.33880E-05-3.09274E-05-7.97627E-06-2.15412E-18-3.85243E-19
 -1      2544 9.50710E-05-2.25362E-05-3.10538E-05-7.65922E-06-1.96899E-18-7.83893E-19
 -1      2545 9.32209E-05-1.75777E-05-3.24160E-05-1.13598E-05-2.23428E-18-1.38523E-18
 -1      2546 1.57648E-04-6.91475E-06-6.51237E-05-1.05346E-05-4.86832E-18 3.26574E-18
 -1      2547 1.57150E-04-4.46187E-06-6.60735E-05-1.26053E-05-5.40111E-18 3.80916E-18
 -1      2548 1.04853E-04-6.61246E-05-1.64638E-05-3.50053E-05 6.52215E-20-8.63907E-19
 -1      2549 1.27755E-04-7.07551E-05-2.46770E-05-2.89770E-05 1.55113E-18 3.38707E-19
 -1      2550 8.78336E-05-1.07950E-05-3.30523E-05-1.51735E-06 4.42881E-19-2.92389E-18
 -1      2551 8.79395E-05-1.09174E-05-3.30437E-05-2.63573E-06 1.27559E-19-2.97911E-18
 -1      2552 8.93383E-05-1.30892E-05-3.26801E-05-2.92795E-06-2.19896E-20-2.70433E-18
 -1      2553 8.90889E-05-1.27540E-05-3.27182E-05-9.40173E-07 4.71019E-19-2.76067E-18
 -1      2554 1.62548E-04-3.54875E-05-5.47017E-05 2.47472E-05 2.81914E-18 1.06917E-18
 -1      2555 1.58153E-04-2.27836E-05-5.87279E-05 2.59191E-05 3.51794E-18 1.91218E-18
 -1      2556 1.60858E-04-1.06323E-05-6.49957E-05 9.86954E-06 2.64825E-18-1.12550E-19
 -1      2557 1.61718E-04-1.46662E-05-6.34586E-05 6.21894E-06 2.04347E-18-4.54010E-19
 -1      2558 1.83914E-05-2.66104E-05 3.83721E-06 6.32377E-06 1.46198E-18-5.56967E-18
 -1      2559 1.92802E-05-2.75647E-05 3.80482E-06-7.27913E-06 1.36224E-18-6.74069E-18
 -1      2560 1.68367E-04-4.76122E-05-5.20990E-05 1.93256E-05 4.17661E-18-3.32926E-18
 -1      2561 1.62219E-04-5.57845E-05-4.54096E-05 3.05741E-05 3.54250E-18-2.62368E-18
 -1      2562 1.62625E-04-5.97779E-05-4.42238E-05 6.99212E-06 1.29588E-18-6.96261E-19
 -1      2563 1.66333E-04-5.07933E-05-5.03013E-05 1.63339E-05 1.78692E-18 2.59616E-19
 -1      2564 1.44165E-04-7.05836E-05-3.15809E-05-1.39078E-05 2.10763E-18 5.86359E-19
 -1      2565 1.56893E-04-6.74660E-05-3.87087E-05-5.65224E-06 1.69121E-18-2.04135E-19
 -1      2566 6.46137E-05-4.97701E-05-5.99359E-06-3.81345E-05-1.17272E-18-4.62745E-18
 -1      2567 8.24622E-05-5.71818E-05-1.07915E-05-4.14251E-05-7.75670E-19-1.65944E-18
 -1      2568 1.32868E-04-5.79212E-05-3.18933E-05-6.53141E-05 3.20433E-18 1.11014E-17
 -1      2569 1.46965E-04-5.55222E-05-3.92113E-05-5.34684E-05 2.91210E-18 1.08232E-17
 -1      2570 2.76080E-05-3.29309E-05 2.53232E-06-2.04955E-05-2.45110E-19-7.56062E-18
 -1      2571 4.35986E-05-3.93695E-05-1.62081E-06-3.36066E-05-4.41516E-19-7.87677E-18
 -1      2572 3.11974E-05-2.61834E-05-1.49729E-06-1.50260E-05 6.74662E-19-7.05324E-18
 -1      2573 3.29111E-05-3.51246E-05 1.04309E-06 3.27348E-05 1.35822E-18-2.97224E-18
 -1      2574 2.24709E-05-3.05999E-05 3.70102E-06 1.98885E-05 2.35083E-18-3.83664E-18
 -1      2575 7.08426E-05-5.03391E-05-8.68619E-06 4.56020E-05 2.22346E-18 5.09279E-19
 -1      2576 5.09564E-05-4.34715E-05-2.94873E-06 4.01209E-05 2.10445E-18-1.18818E-18
 -1      2577 1.52169E-04-6.32213E-05-3.82450E-05 1.43939E-05-6.95414E-19 6.63057E-18
 -1      2578 1.38800E-04-6.65694E-05-3.10059E-05 2.23954E-05-2.18958E-19 7.22456E-18
 -1      2579 1.64339E-04-4.77664E-05-5.03985E-05-4.95055E-06-1.42423E-18 6.21849E-18
 -1      2580 1.57745E-04-5.56043E-05-4.40585E-05 2.17468E-06-1.09622E-18 5.82420E-18
 -1      2581 1.64795E-04-2.58951E-05-6.01968E-05-1.70288E-05-2.87398E-18 5.62239E-18
 -1      2582 1.64492E-04-3.62327E-05-5.53368E-05-1.22827E-05-1.52106E-18 5.39052E-18
 -1      2583 1.57638E-04-4.22990E-05-4.94405E-05-1.63425E-05-1.99339E-18 4.41156E-18
 -1      2584 1.55593E-04-7.22596E-06-6.43512E-05-1.69696E-05-4.54899E-18 3.88926E-18
 -1      2585 1.56870E-04-1.29929E-05-6.22437E-05-1.88989E-05-3.83367E-18 5.10591E-18
 -1      2586 1.60469E-04-2.23478E-05-5.96349E-05-1.14087E-05-3.25854E-18 4.31013E-18
 -1      2587 1.61488E-04-1.43427E-05-6.34521E-05-1.03100E-05-4.31436E-18 3.67422E-18
 -1      2588 1.54481E-04-1.13493E-05-6.20391E-05 2.01093E-05 3.24244E-18 2.36756E-18
 -1      2589 1.58426E-04-8.96616E-06-6.44747E-05 1.47337E-05 3.08574E-18 1.44599E-18
 -1      2590 9.63418E-05-2.50974E-05-3.05592E-05 7.58951E-06 2.52575E-18 3.12441E-18
 -1      2591 9.74628E-05-2.37808E-05-3.15994E-05 1.06893E-05 2.64843E-18 3.54466E-18
 -1      2592 9.58963E-05-2.13051E-05-3.20235E-05 1.18908E-05 2.93146E-18 2.53382E-18
 -1      2593 9.58849E-05-2.41628E-05-3.07713E-05 7.68011E-06 2.62665E-18 1.91067E-18
 -1      2594 9.08046E-05-1.50628E-05-3.24567E-05-6.78871E-06-1.05467E-18-2.51980E-18
 -1      2595 8.97031E-05-1.32022E-05-3.28433E-05-7.96307E-06-1.18050E-18-2.69441E-18
 -1      2596 9.04030E-05-1.40296E-05-3.27970E-05-9.13853E-06-1.54115E-18-2.46545E-18
 -1      2597 9.47399E-05-2.69403E-05-2.90694E-05 1.87893E-06 1.53028E-18 1.29347E-18
 -1      2598 9.42505E-05-1.90828E-05-3.22600E-05 1.15995E-05 3.02116E-18 1.30865E-18
 -1      2599 1.46798E-04-8.47145E-06-5.96236E-05-5.73064E-06-3.85739E-18 3.58930E-19
 -1      2600 1.33968E-04-5.87148E-05-3.20696E-05 5.88748E-05 4.18434E-19-1.00479E-18
 -1      2601 9.53397E-05-2.27753E-05-3.10620E-05 1.27828E-05 9.12857E-19-3.66751E-18
 -1      2602 9.30101E-05-2.44284E-05-2.93558E-05 1.40796E-05 4.43895E-19-2.65854E-18
 -1      2603 9.72866E-05-4.09979E-05-2.35006E-05-7.44364E-05 1.71122E-18 8.77516E-18
 -1      2604 1.14976E-04-4.77506E-05-2.86989E-05-7.26608E-05 2.10657E-18 9.92834E-18
 -1      2605 9.47199E-05-2.06039E-05-3.17196E-05 9.66620E-06 2.83709E-18 1.02493E-18
 -1      2606 1.59546E-04-4.18038E-05-5.06126E-05 7.98231E-06 3.12905E-18-3.49380E-18
 -1      2607 1.06210E-04-3.33780E-05-3.13404E-05-1.27540E-05 1.55841E-19 2.75775E-19
 -1      2608 1.44876E-04-5.45982E-05-3.87235E-05 2.32529E-05 1.68147E-18-4.59918E-18
 -1      2609 1.12931E-04-3.60074E-05-3.28915E-05-7.94221E-06 6.78594E-19 6.97558E-19
 -1      2610 7.40370E-05-2.91593E-05-1.94321E-05-7.01516E-05 1.01475E-18 5.14170E-18
 -1      2611 9.28782E-05-2.79993E-05-2.77374E-05 1.41865E-05 1.01542E-18-2.39816E-18
 -1      2612 1.04139E-04-4.07045E-05-2.74663E-05 6.87521E-05-5.53324E-19-1.32243E-19
 -1      2613 1.22250E-04-4.97831E-05-3.02323E-05 6.17445E-05-2.39287E-19-6.72154E-19
 -1      2614 1.58083E-04-3.03178E-05-5.49914E-05-1.13234E-05-1.15726E-18 4.42744E-18
 -1      2615 1.46795E-04-2.33803E-05-5.35918E-05-3.38328E-06-1.76903E-18 1.59496E-18
 -1      2616 1.51532E-04-3.64308E-05-4.95127E-05-1.18979E-05 5.15208E-19 3.96358E-18
 -1      2617 9.20880E-05-1.62842E-05-3.25227E-05-1.03712E-05-1.96529E-18-1.89264E-18
 -1      2618 1.48487E-04-1.77510E-05-5.63015E-05-2.17676E-05-3.60180E-18 3.34652E-18
 -1      2619 1.51120E-04-1.84367E-05-5.70690E-05 4.96654E-07 1.94013E-18 5.40195E-19
 -1      2620 1.01313E-04-6.30094E-05-1.60932E-05-3.55830E-05-1.45351E-18-1.31388E-18
 -1      2621 1.54113E-04-6.19262E-05-3.95449E-05 3.13347E-07-5.64865E-19 6.35084E-18
 -1      2622 1.52757E-04-5.39347E-05-4.22536E-05-3.58823E-05 2.02245E-18 6.10838E-18
 -1      2623 1.49188E-04-4.83641E-05-4.38615E-05-2.19442E-05 9.46559E-19 4.98182E-18
 -1      2624 8.74921E-05-5.64096E-05-1.29058E-05 4.44284E-05 2.03097E-18 3.94770E-18
 -1      2625 8.00771E-05-5.03805E-05-1.21571E-05 4.38501E-05 3.31042E-18 2.72618E-18
 -1      2626 1.02442E-04-6.13553E-05-1.77001E-05 4.02524E-05 1.71461E-18 7.08665E-18
 -1      2627 1.39118E-04-7.30273E-05-2.81022E-05-1.65692E-05 9.78535E-19 7.90705E-19
 -1      2628 5.96925E-05-4.23587E-05-6.84097E-06-3.54027E-05-1.32518E-18-5.24208E-18
 -1      2629 1.32820E-04-6.86999E-05-2.73997E-05 2.73005E-05-7.50895E-19 7.57787E-18
 -1      2630 1.24325E-04-6.74993E-05-2.39136E-05 3.12194E-05-6.54651E-19 7.42447E-18
 -1      2631 1.40839E-04-6.96387E-05-3.07482E-05 1.58319E-05-2.38387E-19 7.48735E-18
 -1      2632 1.57677E-04-6.53631E-05-3.94582E-05 8.44465E-06 6.47768E-19 2.90321E-19
 -1      2633 2.67195E-05-2.44995E-05-3.67837E-07 1.34584E-05 2.48122E-18-4.40478E-18
 -1      2634 1.44795E-04-7.79902E-06-5.90858E-05 1.08116E-05 2.41701E-18 1.80164E-18
 -1      2635 1.40788E-04-2.76285E-06-5.95278E-05-1.49500E-05-4.52379E-18 1.61879E-18
 -1      2636 1.56740E-04-5.92910E-05-4.14849E-05 3.18014E-05 2.70458E-18-3.32545E-18
 -1      2637 1.57070E-04-4.33951E-05-4.88451E-05 2.59196E-05 2.15263E-18 1.10707E-18
 -1      2638 4.82180E-05-3.67494E-05-4.35253E-06 3.71134E-05 3.08278E-18-1.56638E-18
 -1      2639 9.09614E-05-3.72483E-05-2.24169E-05 7.31100E-05-1.35102E-19-7.82235E-19
 -1      2640 7.15941E-05-2.43648E-05-1.96666E-05 6.29992E-05-7.78212E-19-1.49078E-19
 -1      2641 1.21548E-04-3.69661E-05-3.62741E-05-7.05056E-06 1.78036E-18 3.02603E-19
 -1      2642 1.42772E-04-2.03487E-05-5.28015E-05 2.85793E-05 3.95543E-18 3.28384E-18
 -1      2643 1.52556E-04-1.53853E-05-5.93196E-05 2.45221E-05 3.49062E-18 2.91136E-18
 -1      2644 9.05517E-05-1.51698E-05-3.23288E-05 3.19334E-06 1.38843E-18-2.17274E-18
 -1      2645 9.03608E-05-1.48979E-05-3.23614E-05 2.25997E-06 1.14079E-18-2.34913E-18
 -1      2646 9.02259E-05-1.46949E-05-3.23903E-05 1.42184E-06 9.90679E-19-2.55350E-18
 -1      2647 9.01605E-05-1.46024E-05-3.24013E-05 4.65353E-07 7.61463E-19-2.59282E-18
 -1      2648 9.14118E-05-1.65900E-05-3.20536E-05 1.64030E-06 9.70018E-19-2.25152E-18
 -1      2649 9.21383E-05-1.75493E-05-3.20046E-05 6.47036E-06 2.29933E-18-9.34287E-19
 -1      2650 9.16124E-05-1.67541E-05-3.21044E-05 5.63149E-06 2.08855E-18-1.32873E-18
 -1      2651 9.35631E-05-1.97768E-05-3.16652E-05 7.59206E-06 2.58474E-18-1.55704E-19
 -1      2652 9.27704E-05-1.85203E-05-3.18384E-05 7.01378E-06 2.40563E-18-4.90191E-19
 -1      2653 9.34334E-05-1.98654E-05-3.15064E-05 5.73009E-06 2.10066E-18-4.72960E-19
 -1      2654 9.52222E-05-2.54094E-05-2.99321E-05 3.97269E-06 1.95843E-18 8.58242E-19
 -1      2655 9.55585E-05-2.45593E-05-3.03959E-05 5.60622E-06 2.15785E-18 9.76621E-19
 -1      2656 1.48037E-04-3.51696E-05-4.90093E-05-1.72658E-06 1.79995E-18-3.11285E-18
 -1      2657 1.52179E-04-4.68912E-05-4.54907E-05 8.14492E-06 2.07645E-18-5.01359E-18
 -1      2658 9.58349E-05-1.82449E-05-3.32899E-05 1.04137E-05-6.36519E-19-4.17865E-18
 -1      2659 9.90048E-05-2.15162E-05-3.33188E-05 1.25073E-05 6.83701E-19-3.53771E-18
 -1      2660 9.47111E-05-2.19080E-05-3.12081E-05 7.83824E-06 2.62956E-18 7.74459E-19
 -1      2661 9.53598E-05-2.59039E-05-2.97392E-05-2.70100E-06-1.17838E-18-7.49443E-19
 -1      2662 9.51962E-05-2.64896E-05-2.94567E-05-1.71576E-06-1.00595E-18-8.44058E-19
 -1      2663 9.52196E-05-2.70064E-05-2.92108E-05-9.75107E-07-9.22070E-19-6.52960E-19
 -1      2664 9.50855E-05-2.73610E-05-2.90309E-05-3.69978E-07-7.44525E-19-7.70280E-19
 -1      2665 9.54172E-05-2.63300E-05-2.96141E-05-1.61524E-06-1.03034E-18-8.73389E-19
 -1      2666 9.50524E-05-2.76673E-05-2.88633E-05 9.65202E-08-6.84402E-19-7.57059E-19
 -1      2667 9.49746E-05-2.78922E-05-2.87526E-05 4.46923E-07-6.99003E-19-7.42824E-19
 -1      2668 9.54168E-05-2.73258E-05-2.91891E-05-3.36131E-07-7.82082E-19-9.83770E-19
 -1      2669 9.49324E-05-2.80779E-05-2.86417E-05 7.15456E-07-6.65973E-19-7.21563E-19
 -1      2670 9.49040E-05-2.82252E-05-2.85777E-05 8.97675E-07-7.57776E-19-8.34553E-19
 -1      2671 9.53560E-05-2.79418E-05-2.88985E-05 4.52159E-07-7.59323E-19-1.02194E-18
 -1      2672 9.48687E-05-2.83376E-05-2.85072E-05 1.03048E-06-8.15807E-19-8.36235E-19
 -1      2673 9.48754E-05-2.84352E-05-2.84744E-05 1.10387E-06-7.23506E-19-9.60312E-19
 -1      2674 9.52913E-05-2.83238E-05-2.87057E-05 8.91562E-07-8.82269E-19-9.64949E-19
 -1      2675 9.48506E-05-2.85013E-05-2.84321E-05 1.14728E-06-6.30953E-19-9.45951E-19
 -1      2676 9.48790E-05-2.85656E-05-2.84195E-05 1.15247E-06-6.93954E-19-1.01620E-18
 -1      2677 9.52414E-05-2.85573E-05-2.85829E-05 1.09369E-06-7.53824E-19-1.03365E-18
 -1      2678 9.48637E-05-2.86016E-05-2.83967E-05 1.13983E-06-8.01041E-19-8.91242E-19
 -1      2679 9.49035E-05-2.86427E-05-2.83967E-05 1.10458E-06-1.02089E-18-6.77301E-19
 -1      2680 9.52088E-05-2.86939E-05-2.85093E-05 1.14128E-06-6.85572E-19-5.97381E-19
 -1      2681 9.48954E-05-2.86590E-05-2.83869E-05 1.05940E-06-1.08218E-18-4.52869E-19
 -1      2682 9.49395E-05-2.86837E-05-2.83944E-05 1.00261E-06-7.34103E-19-5.75769E-19
 -1      2683 9.51908E-05-2.87664E-05-2.84696E-05 1.09378E-06-7.42579E-19-2.46350E-19
 -1      2684 9.49364E-05-2.86872E-05-2.83931E-05 9.41124E-07-5.43416E-19-5.19016E-19
 -1      2685 9.49801E-05-2.87004E-05-2.84047E-05 8.75458E-07-3.08655E-19-4.80461E-19
 -1      2686 9.51832E-05-2.87967E-05-2.84527E-05 9.92919E-07-7.39305E-19-1.55099E-19
 -1      2687 9.49803E-05-2.86957E-05-2.84086E-05 8.08624E-07-3.32649E-19-5.66880E-19
 -1      2688 9.50210E-05-2.87008E-05-2.84221E-05 7.42443E-07-1.96147E-19-4.81725E-19
 -1      2689 9.51826E-05-2.87994E-05-2.84508E-05 8.67417E-07-5.03416E-19-4.25284E-19
 -1      2690 9.50231E-05-2.86911E-05-2.84292E-05 6.77476E-07-1.99284E-19-5.84682E-19
 -1      2691 9.50597E-05-2.86905E-05-2.84431E-05 6.16169E-07-4.30444E-19-5.13329E-19
 -1      2692 9.51863E-05-2.87845E-05-2.84585E-05 7.36558E-07-2.83505E-19-5.81953E-19
 -1      2693 9.50630E-05-2.86778E-05-2.84520E-05 5.57732E-07-4.18246E-19-2.57666E-19
 -1      2694 9.50950E-05-2.86731E-05-2.84657E-05 5.04725E-07-1.50141E-19 7.31450E-20
 -1      2695 9.51925E-05-2.87587E-05-2.84720E-05 6.13042E-07-2.16367E-19-4.52635E-19
 -1      2696 9.50990E-05-2.86586E-05-2.84757E-05 4.55820E-07-2.75123E-19 2.92584E-19
 -1      2697 9.51270E-05-2.86510E-05-2.84889E-05 4.13334E-07-3.16728E-19 1.35894E-19
 -1      2698 9.52000E-05-2.87262E-05-2.84890E-05 5.05126E-07-3.90781E-19 4.29824E-21
 -1      2699 9.51314E-05-2.86352E-05-2.84995E-05 3.75985E-07-5.35752E-19 1.04242E-19
 -1      2700 9.51563E-05-2.86254E-05-2.85124E-05 3.45592E-07-7.11226E-19-2.02123E-19
 -1      2701 9.52082E-05-2.86893E-05-2.85083E-05 4.18269E-07-6.32190E-19-1.05276E-19
 -1      2702 9.51610E-05-2.86083E-05-2.85236E-05 3.21361E-07-5.10220E-19-4.96147E-19
 -1      2703 9.51841E-05-2.85965E-05-2.85365E-05 3.04419E-07-3.14297E-19-6.22057E-19
 -1      2704 9.52168E-05-2.86489E-05-2.85293E-05 3.56379E-07-7.66434E-19-3.01521E-19
 -1      2705 9.51892E-05-2.85780E-05-2.85486E-05 2.94793E-07-4.05802E-19-9.40745E-19
 -1      2706 9.52121E-05-2.85643E-05-2.85622E-05 2.92755E-07-1.66846E-19-1.06906E-18
 -1      2707 9.52259E-05-2.86049E-05-2.85521E-05 3.22751E-07-4.23508E-19-1.13056E-18
 -1      2708 9.52177E-05-2.85438E-05-2.85755E-05 2.99439E-07 2.55538E-20-1.12514E-18
 -1      2709 9.52423E-05-2.85281E-05-2.85904E-05 3.14089E-07-3.36315E-19-1.39486E-18
 -1      2710 9.52358E-05-2.85564E-05-2.85772E-05 3.20777E-07-4.27794E-19-1.71537E-18
 -1      2711 9.52488E-05-2.85048E-05-2.86055E-05 3.39206E-07 8.36508E-20-1.14985E-18
 -1      2712 9.52772E-05-2.84870E-05-2.86226E-05 3.72800E-07 5.46517E-19-1.21306E-18
 -1      2713 9.52470E-05-2.85020E-05-2.86053E-05 3.54454E-07-5.68724E-20-1.52042E-18
 -1      2714 9.52850E-05-2.84604E-05-2.86401E-05 4.19011E-07 5.11566E-19-1.40027E-18
 -1      2715 9.53199E-05-2.84404E-05-2.86605E-05 4.74339E-07 2.15053E-19-1.44127E-18
 -1      2716 9.52601E-05-2.84400E-05-2.86377E-05 4.28720E-07 4.28813E-19-1.65262E-18
 -1      2717 9.53296E-05-2.84096E-05-2.86811E-05 5.44865E-07 2.33334E-19-1.52077E-18
 -1      2718 9.53739E-05-2.83877E-05-2.87056E-05 6.25202E-07 3.26358E-19-1.21869E-18
 -1      2719 9.52763E-05-2.83686E-05-2.86753E-05 5.49595E-07 4.69639E-19-1.66307E-18
 -1      2720 9.53862E-05-2.83526E-05-2.87299E-05 7.23736E-07-3.44521E-20-8.16267E-19
 -1      2721 9.54434E-05-2.83294E-05-2.87598E-05 8.32655E-07-3.16815E-19-8.06353E-19
 -1      2722 9.52969E-05-2.82868E-05-2.87193E-05 7.24118E-07 7.10735E-20-5.93787E-19
 -1      2723 9.54597E-05-2.82901E-05-2.87884E-05 9.63118E-07-7.00245E-19-1.13264E-18
 -1      2724 9.55339E-05-2.82673E-05-2.88246E-05 1.10411E-06-9.81698E-19-1.18528E-18
 -1      2725 9.53239E-05-2.81944E-05-2.87706E-05 9.60001E-07-6.42203E-19-4.04290E-19
 -1      2726 9.55559E-05-2.82253E-05-2.88576E-05 1.27019E-06-6.62173E-19-9.60355E-19
 -1      2727 9.56518E-05-2.82058E-05-2.89008E-05 1.44600E-06-2.34497E-19-7.65708E-19
 -1      2728 9.53607E-05-2.80933E-05-2.88298E-05 1.26493E-06-6.39411E-19-5.59338E-19
 -1      2729 9.56826E-05-2.81643E-05-2.89382E-05 1.65044E-06-3.51037E-19-4.51161E-19
 -1      2730 9.58060E-05-2.81531E-05-2.89888E-05 1.86205E-06-3.88114E-19-1.00116E-18
 -1      2731 9.54120E-05-2.79889E-05-2.88967E-05 1.64537E-06-2.55450E-19-7.30721E-20
 -1      2732 9.58503E-05-2.81180E-05-2.90299E-05 2.10545E-06-3.39921E-20-8.69751E-19
 -1      2733 9.60078E-05-2.81233E-05-2.90876E-05 2.35053E-06-2.86449E-19-9.53109E-19
 -1      2734 9.54856E-05-2.78918E-05-2.89700E-05 2.10468E-06-1.43199E-19-8.00463E-19
 -1      2735 9.60734E-05-2.81051E-05-2.91308E-05 2.62978E-06-4.61134E-19-1.04967E-18
 -1      2736 9.62734E-05-2.81395E-05-2.91944E-05 2.90049E-06-3.28367E-19 1.28031E-19
 -1      2737 9.55941E-05-2.78209E-05-2.90472E-05 2.64044E-06-3.95638E-19-6.05242E-19
 -1      2738 9.63726E-05-2.81546E-05-2.92371E-05 3.20642E-06 3.22745E-21 2.87273E-19
 -1      2739 9.66259E-05-2.82370E-05-2.93041E-05 3.48642E-06 4.97341E-19 7.77374E-19
 -1      2740 9.57574E-05-2.78069E-05-2.91237E-05 3.24059E-06 3.95137E-19 1.52780E-19
 -1      2741 9.67783E-05-2.83105E-05-2.93427E-05 3.80071E-06 4.75023E-19-1.59225E-19
 -1      2742 9.70984E-05-2.84678E-05-2.94090E-05 4.06128E-06 5.78710E-19 2.63781E-19
 -1      2743 9.60071E-05-2.78975E-05-2.91929E-05 3.87825E-06 1.68849E-19-2.48964E-19
 -1      2744 9.73343E-05-2.86361E-05-2.94388E-05 4.35228E-06 3.38345E-19 1.64824E-19
 -1      2745 9.77394E-05-2.89048E-05-2.94988E-05 4.54765E-06 2.74956E-19 4.03368E-19
 -1      2746 9.63924E-05-2.81626E-05-2.92463E-05 4.50492E-06 8.51396E-19-1.09334E-18
 -1      2747 9.81034E-05-2.92171E-05-2.95151E-05 4.76512E-06-6.71913E-19 9.17566E-19
 -1      2748 9.86156E-05-2.96426E-05-2.95622E-05 4.82746E-06-1.05706E-18 2.25571E-19
 -1      2749 9.69873E-05-2.86990E-05-2.92743E-05 5.04160E-06-1.71000E-19-3.81931E-19
 -1      2750 9.91700E-05-3.01595E-05-2.95618E-05 4.89594E-06-1.15482E-18 1.20066E-18
 -1      2751 9.98136E-05-3.07901E-05-2.95903E-05 4.73137E-06-7.94148E-19 1.15680E-18
 -1      2752 9.78975E-05-2.96314E-05-2.92696E-05 5.36753E-06-7.81774E-19 9.64464E-20
 -1      2753 1.00636E-04-3.15739E-05-2.95749E-05 4.54272E-06-5.29250E-19 1.27898E-18
 -1      2754 1.01428E-04-3.24435E-05-2.95828E-05 4.03119E-06-7.78983E-19 1.03197E-18
 -1      2755 9.92621E-05-3.11001E-05-2.92320E-05 5.30645E-06-9.82754E-19 4.98026E-19
 -1      2756 1.02596E-04-3.35327E-05-2.95647E-05 3.43854E-06-8.29747E-19 1.13272E-18
 -1      2757 1.03523E-04-3.46236E-05-2.95594E-05 2.44393E-06-2.90401E-19 1.14469E-18
 -1      2758 1.01239E-04-3.32236E-05-2.91781E-05 4.61144E-06-8.80877E-19 3.63881E-19
 -1      2759 1.05075E-04-3.59794E-05-2.95686E-05 1.26492E-06-4.40385E-19 9.45252E-19
 -1      2760 1.06050E-04-3.71561E-05-2.95727E-05-3.33000E-07-1.17717E-18-5.05167E-20
 -1      2761 1.03955E-04-3.60107E-05-2.91555E-05 2.95631E-06-8.54687E-19-6.55979E-20
 -1      2762 1.07900E-04-3.85734E-05-2.96640E-05-2.28176E-06-1.12461E-18-1.47268E-19
 -1      2763 1.08705E-04-3.94947E-05-2.97199E-05-4.51264E-06-1.14097E-18-5.11622E-19
 -1      2764 1.07380E-04-3.91983E-05-2.92580E-05-4.19009E-08-1.51392E-18 1.74370E-20
 -1      2765 1.10517E-04-4.04944E-05-2.99747E-05-7.29736E-06-1.47333E-18-3.95177E-19
 -1      2766 1.10769E-04-4.05654E-05-3.01416E-05-9.95971E-06-1.43686E-18-3.35307E-19
 -1      2767 1.11116E-04-4.20058E-05-2.96371E-05-4.69715E-06-1.66169E-18-2.84112E-20
 -1      2768 1.11863E-04-4.03693E-05-3.06509E-05-1.32781E-05-6.99891E-19-4.15127E-19
 -1      2769 1.11114E-04-3.88816E-05-3.09795E-05-1.57566E-05-3.51173E-19 3.78243E-19
 -1      2770 1.14153E-04-4.29507E-05-3.04887E-05-1.09073E-05-1.19964E-18-4.69171E-19
 -1      2771 1.10667E-04-3.67396E-05-3.17759E-05-1.86121E-05-9.58785E-19 1.09116E-18
 -1      2772 1.08681E-04-3.33813E-05-3.22478E-05-1.98469E-05-1.05114E-18 6.94153E-19
 -1      2773 1.14930E-04-4.01865E-05-3.19708E-05-1.74937E-05-2.21957E-19-9.23332E-19
 -1      2774 1.06336E-04-2.92267E-05-3.32070E-05-2.06762E-05-1.49022E-18 1.13698E-18
 -1      2775 1.03525E-04-2.47146E-05-3.36873E-05-1.95113E-05-9.57008E-19 1.70058E-19
 -1      2776 1.12201E-04-3.27823E-05-3.39871E-05-2.17933E-05-1.19012E-18 6.26540E-19
 -1      2777 1.00134E-04-2.02036E-05-3.44600E-05-1.66720E-05-9.06913E-19-4.89631E-19
 -1      2778 9.77548E-05-1.66311E-05-3.47178E-05-1.29692E-05-4.21042E-19-4.36010E-19
 -1      2779 1.06063E-04-2.18817E-05-3.60168E-05-2.04938E-05-1.47609E-18 6.08951E-19
 -1      2780 9.53144E-05-1.41263E-05-3.49243E-05-7.24880E-06-1.42804E-20-8.33884E-19
 -1      2781 9.42783E-05-1.34193E-05-3.46932E-05-2.18702E-06-6.92992E-19-1.94067E-18
 -1      2782 1.00317E-04-1.34676E-05-3.71741E-05-1.21462E-05-9.03268E-19-2.01210E-19
 -1      2783 9.44272E-05-1.38134E-05-3.45631E-05 2.43922E-06-1.90821E-18-2.45891E-18
 -1      2784 9.46215E-05-1.56940E-05-3.38742E-05 6.71323E-06-1.74068E-18-3.68570E-18
 -1      2785 9.93001E-05-1.43720E-05-3.64322E-05 6.19924E-06-1.73961E-18-2.08874E-18
 -1      2786 9.82848E-05-1.13341E-05-3.72822E-05-1.47201E-06-1.87705E-18-1.94468E-18
 -1      2787 9.45595E-05-2.78523E-05-2.85897E-05-4.47197E-07 8.12673E-19 5.34652E-19
 -1      2788 9.46475E-05-2.76650E-05-2.86884E-05-1.03491E-07 9.46154E-19 8.33302E-19
 -1      2789 9.45231E-05-2.84374E-05-2.83216E-05-1.14757E-06 6.52747E-19 5.84476E-19
 -1      2790 9.44662E-05-2.83731E-05-2.83225E-05-1.14526E-06 7.47600E-19 4.12649E-19
 -1      2791 9.45947E-05-2.85180E-05-2.83178E-05-1.09828E-06 6.45236E-19 4.91376E-19
 -1      2792 9.45257E-05-2.84723E-05-2.83075E-05-1.13477E-06 5.78131E-19 5.82821E-19
 -1      2793 9.48975E-05-2.85770E-05-2.84260E-05-1.16516E-06 6.24253E-19 3.73943E-19
 -1      2794 9.46783E-05-2.85691E-05-2.83317E-05-9.95736E-07 8.43445E-19 4.02483E-19
 -1      2795 9.46067E-05-2.85374E-05-2.83156E-05-1.05272E-06 6.79766E-19 4.31361E-19
 -1      2796 9.49180E-05-2.86515E-05-2.84018E-05-1.11572E-06 7.23651E-19 6.00242E-19
 -1      2797 9.47637E-05-2.85994E-05-2.83554E-05-8.68430E-07 6.66183E-19 3.02367E-19
 -1      2798 9.46952E-05-2.85782E-05-2.83369E-05-9.33733E-07 8.32594E-19 5.64071E-19
 -1      2799 9.49508E-05-2.86905E-05-2.83984E-05-1.01201E-06 8.70698E-19 5.58589E-19
 -1      2800 9.48446E-05-2.86147E-05-2.83836E-05-7.35258E-07 3.89373E-19 4.23179E-19
 -1      2801 9.47825E-05-2.86014E-05-2.83647E-05-8.00928E-07 4.93075E-19 2.96596E-19
 -1      2802 9.49888E-05-2.87055E-05-2.84078E-05-8.83168E-07 6.03968E-19 5.23325E-19
 -1      2803 9.49180E-05-2.86195E-05-2.84130E-05-6.08457E-07 3.72378E-19 7.29430E-19
 -1      2804 9.48635E-05-2.86122E-05-2.83949E-05-6.69420E-07 4.63707E-19 4.95767E-19
 -1      2805 9.50278E-05-2.87046E-05-2.84245E-05-7.48650E-07 3.27119E-19 8.18782E-19
 -1      2806 9.49828E-05-2.86168E-05-2.84419E-05-4.95776E-07 2.78591E-19 9.65286E-19
 -1      2807 9.49359E-05-2.86140E-05-2.84252E-05-5.48860E-07 2.39550E-19 9.04661E-19
 -1      2808 9.50650E-05-2.86934E-05-2.84451E-05-6.21145E-07 1.58977E-19 9.67824E-19
 -1      2809 9.50393E-05-2.86088E-05-2.84696E-05-4.02112E-07 5.10235E-19 3.89281E-19
 -1      2810 9.49993E-05-2.86093E-05-2.84542E-05-4.45319E-07 4.52361E-19 9.99754E-19
 -1      2811 9.50993E-05-2.86753E-05-2.84674E-05-5.08801E-07 4.15665E-19 9.73585E-19
 -1      2812 9.50892E-05-2.85967E-05-2.84961E-05-3.30740E-07 2.44098E-19 6.25922E-19
 -1      2813 9.50545E-05-2.85998E-05-2.84818E-05-3.62698E-07 3.69337E-19 6.21041E-19
 -1      2814 9.51305E-05-2.86526E-05-2.84905E-05-4.16902E-07 2.82715E-19 8.12671E-19
 -1      2815 9.51347E-05-2.85813E-05-2.85221E-05-2.84267E-07-5.87791E-19 1.44341E-18
 -1      2816 9.51035E-05-2.85865E-05-2.85084E-05-3.03805E-07 3.16290E-20 1.02465E-18
 -1      2817 9.51593E-05-2.86264E-05-2.85141E-05-3.49139E-07-1.00331E-19 1.66462E-18
 -1      2818 9.51789E-05-2.85629E-05-2.85486E-05-2.65359E-07 3.84142E-20 9.51045E-19
 -1      2819 9.51488E-05-2.85699E-05-2.85348E-05-2.71178E-07-2.79760E-19 1.24931E-18
 -1      2820 9.51866E-05-2.85969E-05-2.85386E-05-3.08594E-07-2.85988E-19 1.75033E-18
 -1      2821 9.52251E-05-2.85413E-05-2.85774E-05-2.77321E-07-5.93535E-20 5.94262E-19
 -1      2822 9.51935E-05-2.85499E-05-2.85624E-05-2.67734E-07 6.10015E-20 7.03394E-19
 -1      2823 9.52141E-05-2.85636E-05-2.85648E-05-2.98489E-07 3.28328E-19 1.12533E-18
 -1      2824 9.52775E-05-2.85162E-05-2.86102E-05-3.24563E-07 4.11417E-19-2.57742E-20
 -1      2825 9.52414E-05-2.85263E-05-2.85929E-05-2.97281E-07 3.96343E-19 5.20693E-20
 -1      2826 9.52437E-05-2.85255E-05-2.85939E-05-3.22787E-07 4.30648E-19 4.89157E-19
 -1      2827 9.53408E-05-2.84868E-05-2.86494E-05-4.12987E-07 3.59955E-19 4.91027E-20
 -1      2828 9.52966E-05-2.84985E-05-2.86285E-05-3.64935E-07 2.68979E-19-2.17957E-19
 -1      2829 9.52774E-05-2.84811E-05-2.86276E-05-3.86663E-07 4.67492E-19 3.73682E-19
 -1      2830 9.54205E-05-2.84526E-05-2.86975E-05-5.50290E-07 4.51407E-19 5.39685E-19
 -1      2831 9.53640E-05-2.84657E-05-2.86715E-05-4.77468E-07 4.07002E-19 3.50790E-19
 -1      2832 9.53177E-05-2.84284E-05-2.86676E-05-4.96879E-07 1.92278E-19-1.25777E-19
 -1      2833 9.55226E-05-2.84125E-05-2.87576E-05-7.46187E-07 4.81704E-19 5.06847E-19
 -1      2834 9.54491E-05-2.84270E-05-2.87246E-05-6.43563E-07 5.11166E-19 1.00476E-18
 -1      2835 9.53673E-05-2.83652E-05-2.87162E-05-6.62059E-07 3.46478E-19 1.06564E-18
 -1      2836 9.56539E-05-2.83657E-05-2.88328E-05-1.01253E-06-4.03313E-21 4.34353E-19
 -1      2837 9.55579E-05-2.83814E-05-2.87910E-05-8.73988E-07 4.52851E-19 4.73628E-19
 -1      2838 9.54287E-05-2.82888E-05-2.87754E-05-8.92859E-07 5.33672E-19 1.64640E-18
 -1      2839 9.58217E-05-2.83114E-05-2.89268E-05-1.36324E-06-4.86422E-19 6.83321E-19
 -1      2840 9.56971E-05-2.83279E-05-2.88739E-05-1.18163E-06-2.03190E-19 1.36143E-19
 -1      2841 9.55046E-05-2.81964E-05-2.88477E-05-1.20198E-06-4.00007E-20 1.25085E-18
 -1      2842 9.60340E-05-2.82496E-05-2.90428E-05-1.81396E-06-4.25014E-19 7.33557E-19
 -1      2843 9.58738E-05-2.82659E-05-2.89766E-05-1.58133E-06-5.02198E-20 4.80901E-19
 -1      2844 9.55972E-05-2.80852E-05-2.89351E-05-1.60398E-06-3.78820E-19 1.06749E-18
 -1      2845 9.62984E-05-2.81812E-05-2.91839E-05-2.38118E-06-1.44692E-18 1.19046E-18
 -1      2846 9.60954E-05-2.81955E-05-2.91023E-05-2.08927E-06-1.20399E-18 9.54103E-19
 -1      2847 9.57079E-05-2.79531E-05-2.90392E-05-2.11469E-06-7.29815E-19 8.02796E-19
 -1      2848 9.66231E-05-2.81101E-05-2.93519E-05-3.08050E-06-1.92727E-19 1.84690E-19
 -1      2849 9.63691E-05-2.81186E-05-2.92532E-05-2.72185E-06-5.77688E-19 7.99226E-19
 -1      2850 9.58376E-05-2.77995E-05-2.91603E-05-2.75017E-06-5.20975E-19-6.16804E-20
 -1      2851 9.70164E-05-2.80455E-05-2.95465E-05-3.92339E-06 1.81851E-19-5.03700E-19
 -1      2852 9.67029E-05-2.80413E-05-2.94302E-05-3.49333E-06 4.54509E-20 1.12331E-19
 -1      2853 9.59863E-05-2.76282E-05-2.92970E-05-3.52466E-06 1.54934E-19-7.47253E-19
 -1      2854 9.74892E-05-2.80083E-05-2.97638E-05-4.91163E-06 2.58322E-19 3.04833E-19
 -1      2855 9.71064E-05-2.79779E-05-2.96311E-05-4.41182E-06 1.34963E-19-3.96389E-20
 -1      2856 9.61552E-05-2.74512E-05-2.94446E-05-4.44736E-06-8.06908E-20 1.53183E-19
 -1      2857 9.80600E-05-2.80407E-05-2.99940E-05-6.02785E-06-4.39292E-19 1.10074E-18
 -1      2858 9.75948E-05-2.79586E-05-2.98492E-05-5.47235E-06 1.81696E-19 1.04315E-18
 -1      2859 9.63506E-05-2.72977E-05-2.95935E-05-5.51712E-06 4.94085E-21 9.19663E-19
 -1      2860 9.87660E-05-2.82234E-05-3.02190E-05-7.22043E-06-4.05525E-20 1.20832E-18
 -1      2861 9.81978E-05-2.80435E-05-3.00708E-05-6.64540E-06-1.37016E-20 1.07078E-18
 -1      2862 9.65939E-05-2.72282E-05-2.97274E-05-6.71438E-06-4.21064E-19 9.17519E-19
 -1      2863 9.96860E-05-2.87027E-05-3.04106E-05-8.38012E-06 2.72276E-19 9.84496E-19
 -1      2864 9.89776E-05-2.83447E-05-3.02734E-05-7.85869E-06 3.74318E-20 1.25662E-18
 -1      2865 9.69405E-05-2.73583E-05-2.98216E-05-7.98889E-06-6.44994E-20 5.02669E-19
 -1      2866 1.00977E-04-2.97246E-05-3.05316E-05-9.30561E-06-3.50838E-20 1.12406E-18
 -1      2867 1.00061E-04-2.90583E-05-3.04253E-05-8.96886E-06 2.82358E-19 6.89651E-19
 -1      2868 9.75151E-05-2.78945E-05-2.98434E-05-9.24148E-06 1.88530E-19 1.95891E-19
 -1      2869 1.02921E-04-3.16626E-05-3.05452E-05-9.65414E-06 1.00004E-18 1.00684E-18
 -1      2870 1.01686E-04-3.05006E-05-3.04899E-05-9.71774E-06 5.17437E-19 9.87595E-19
 -1      2871 9.85674E-05-2.91777E-05-2.97573E-05-1.02949E-05 2.91134E-20-3.22954E-19
 -1      2872 1.05962E-04-3.49860E-05-3.04414E-05-8.87603E-06 2.34147E-18 7.25846E-19
 -1      2873 1.04256E-04-3.31178E-05-3.04440E-05-9.66542E-06 2.16706E-18 1.40268E-18
 -1      2874 1.00546E-04-3.17131E-05-2.95434E-05-1.08409E-05 1.44517E-18 1.60524E-19
 -1      2875 1.10617E-04-4.00510E-05-3.02961E-05-6.15161E-06 1.76577E-18 1.50682E-18
 -1      2876 1.08335E-04-3.73876E-05-3.03204E-05-8.09905E-06 1.98688E-18 1.62243E-18
 -1      2877 1.04149E-04-3.61123E-05-2.92406E-05-1.03429E-05 1.62006E-18 1.87334E-18
 -1      2878 1.17146E-04-4.64515E-05-3.03794E-05-3.76182E-07-6.53095E-19 1.15567E-18
 -1      2879 1.14437E-04-4.34292E-05-3.02960E-05-3.92459E-06 8.69093E-19 1.49195E-18
 -1      2880 1.10255E-04-4.27961E-05-2.90372E-05-7.85616E-06 1.05271E-18 1.96894E-18
 -1      2881 1.24577E-04-5.20439E-05-3.12433E-05 9.11149E-06-2.09488E-18 1.80580E-18
 -1      2882 1.22247E-04-5.00276E-05-3.08067E-05 3.96615E-06-1.77812E-18 1.26988E-18
 -1      2883 1.19147E-04-5.08664E-05-2.94321E-05-1.81835E-06-1.42228E-18 2.35864E-18
 -1      2884 1.30101E-04-5.13974E-05-3.37944E-05 2.20070E-05 6.74463E-19 1.19988E-18
 -1      2885 1.30005E-04-5.36866E-05-3.26289E-05 1.63454E-05-1.08765E-18 1.31465E-18
 -1      2886 1.30233E-04-5.77733E-05-3.13326E-05 8.64911E-06-1.45337E-18 1.27038E-18
 -1      2887 1.21542E-04-1.52768E-05-4.60516E-05 2.49827E-05 4.12516E-18 3.29067E-18
 -1      2888 1.24924E-04-2.27673E-05-4.43704E-05 3.02027E-05 3.80498E-18 3.41375E-18
 -1      2889 1.15611E-04-1.84876E-05-4.22838E-05-6.75202E-06 9.53124E-19 1.81456E-18
 -1      2890 1.14428E-04-1.28973E-05-4.38370E-05 4.98534E-07 8.94149E-19 2.06133E-18
 -1      2891 1.12649E-04-2.53617E-05-3.77470E-05 8.12783E-06-3.52577E-20-1.62652E-18
 -1      2892 1.22375E-04-2.99054E-05-3.97262E-05 2.49878E-06-3.40560E-19-1.02142E-18
 -1      2893 1.31899E-04-7.75194E-06-5.40822E-05 1.17995E-05 2.34141E-18 3.73319E-18
 -1      2894 1.34825E-04-9.01176E-06-5.46322E-05 4.83018E-06 1.65786E-18 2.38699E-18
 -1      2895 1.38411E-04-9.56566E-06-5.59074E-05 2.17470E-05 3.61514E-18 5.20552E-18
 -1      2896 1.04569E-04-2.29884E-05-3.49996E-05 1.00287E-05-2.04651E-19-1.97948E-18
 -1      2897 1.41526E-04-4.15552E-05-4.31479E-05-1.02838E-05 1.06499E-18 2.60018E-18
 -1      2898 9.47291E-05-2.74146E-05-2.88519E-05 3.80427E-07 1.05789E-18 7.38542E-19
 -1      2899 9.49087E-05-2.71210E-05-2.90242E-05 9.86013E-07 1.25371E-18 8.83480E-19
 -1      2900 9.51324E-05-2.73817E-05-2.90457E-05 3.66933E-07 1.04671E-18 5.10481E-19
 -1      2901 1.35375E-04-1.26633E-05-5.35081E-05 6.26975E-07 1.93018E-18 1.94982E-18
 -1      2902 1.38427E-04-1.98646E-05-5.12707E-05-3.38564E-06 2.14469E-18 8.77738E-19
 -1      2903 1.35263E-04-1.25010E-05-5.33600E-05-2.39628E-05-4.10303E-18 1.86734E-18
 -1      2904 1.44230E-04-2.48851E-05-5.16166E-05-2.47805E-05-4.24787E-18 2.40970E-18
 -1      2905 9.43357E-05-2.08728E-05-3.15189E-05-8.23867E-06-1.85705E-18-1.36277E-18
 -1      2906 9.47221E-05-2.26474E-05-3.09141E-05-6.39904E-06-1.68752E-18-1.11863E-18
 -1      2907 5.93638E-05-3.76333E-05-8.90239E-06 3.92841E-05 3.93764E-18-3.76930E-20
 -1      2908 4.37196E-05-2.93303E-05-5.48708E-06 3.11393E-05 3.76570E-18-2.08857E-18
 -1      2909 3.18513E-05-2.04485E-05-4.24767E-06-7.88764E-06 1.10564E-18-4.85096E-18
 -1      2910 3.97051E-05-2.58711E-05-5.52483E-06-2.20653E-05-3.12026E-19-5.84326E-18
 -1      2911 5.42107E-05-3.40383E-05-7.93829E-06-3.03323E-05-1.97359E-18-5.59486E-18
 -1      2912 7.20929E-05-4.42564E-05-1.16478E-05-3.58960E-05-2.28127E-18-3.01830E-18
 -1      2913 9.44788E-05-2.83150E-05-2.83553E-05-1.10139E-06 7.60587E-19 2.02014E-19
 -1      2914 9.44484E-05-2.82249E-05-2.83752E-05-1.03300E-06 7.51344E-19 3.04975E-19
 -1      2915 9.48986E-05-2.84495E-05-2.84826E-05-1.11753E-06 7.06467E-19 5.54704E-19
 -1      2916 9.44828E-05-2.81312E-05-2.84362E-05-8.97925E-07 7.17564E-19 3.37708E-19
 -1      2917 9.44990E-05-2.80035E-05-2.84869E-05-7.22695E-07 7.35741E-19 5.58592E-19
 -1      2918 9.49329E-05-2.82423E-05-2.85879E-05-9.10954E-07 8.51563E-19 3.48629E-19
 -1      2919 9.52718E-05-2.41010E-05-3.04840E-05-5.15400E-06-1.48004E-18-9.69774E-19
 -1      2920 9.51789E-05-2.50814E-05-3.00601E-05-3.66587E-06-1.35821E-18-9.06570E-19
 -1      2921 9.52266E-05-2.47632E-05-3.01910E-05-3.42348E-06-1.25990E-18-1.05782E-18
 -1      2922 9.45873E-05-2.23721E-05-3.09425E-05-5.68804E-06-1.50317E-18-1.34908E-18
 -1      2923 9.49853E-05-2.66914E-05-2.92743E-05 1.77546E-06 1.41898E-18 7.62977E-19
 -1      2924 9.52520E-05-2.61945E-05-2.95591E-05 2.78297E-06 1.60286E-18 8.57620E-19
 -1      2925 9.52736E-05-2.50223E-05-3.01055E-05 3.81479E-06 1.81824E-18 3.55702E-19
 -1      2926 9.52571E-05-2.65053E-05-2.94728E-05 1.72913E-06 1.34590E-18 4.26559E-19
 -1      2927 9.42831E-05-5.69642E-05-1.55236E-05-3.52199E-05-1.58247E-18-1.43699E-18
 -1      2928 1.14467E-04-6.68209E-05-2.05064E-05-3.04734E-05-1.17356E-18-2.09905E-19
 -1      2929 9.11715E-05-1.60858E-05-3.22075E-05 4.91456E-06 1.98767E-18-1.62083E-18
 -1      2930 9.08276E-05-1.55864E-05-3.22679E-05 3.99272E-06 1.68749E-18-1.88520E-18
 -1      2931 9.18050E-05-1.71973E-05-3.19594E-05 3.19613E-06 1.41971E-18-1.77855E-18
 -1      2932 9.24755E-05-1.82581E-05-3.17876E-05 4.61244E-06 1.83803E-18-1.29853E-18
 -1      2933 1.52173E-04-5.05301E-05-4.37968E-05 2.67476E-05 1.05159E-18 8.08281E-19
 -1      2934 1.45635E-04-3.72002E-05-4.72734E-05 3.23695E-05 3.02348E-18 2.93285E-18
 -1      2935 3.40522E-05-2.31717E-05-4.14282E-06 2.15490E-05 3.16801E-18-3.35722E-18
 -1      2936 2.98493E-05-1.94168E-05-3.91428E-06 6.94852E-06 2.55922E-18-4.22119E-18
 -1      2937 4.63287E-05-2.49656E-05-8.43613E-06 2.47200E-05 3.99207E-18-1.67713E-18
 -1      2938 1.50877E-04-5.75895E-05-4.05100E-05-8.99524E-06-3.64449E-19 3.50174E-18
 -1      2939 1.46954E-04-6.41015E-05-3.56358E-05 5.14941E-07-5.48930E-19 4.87478E-18
 -1      2940 9.07907E-05-1.55368E-05-3.22728E-05-3.92942E-06-4.24503E-19-2.59985E-18
 -1      2941 9.11263E-05-1.60230E-05-3.22139E-05-4.85129E-06-7.23994E-19-2.58032E-18
 -1      2942 1.50952E-04-6.78008E-05-3.55522E-05 8.19928E-06 3.48713E-19 2.85874E-19
 -1      2943 1.53478E-04-6.13371E-05-4.01461E-05 1.70505E-05 2.29625E-20 5.01867E-19
 -1      2944 1.30987E-04-7.12383E-05-2.52495E-05-1.86661E-05-5.04832E-19 1.08770E-18
 -1      2945 1.43356E-04-7.20808E-05-3.10594E-05-6.55146E-06 4.90326E-19 1.33334E-18
 -1      2946 1.48504E-04-3.55328E-05-4.92046E-05-2.23491E-05-2.94640E-18 2.81691E-18
 -1      2947 1.50133E-04-4.56470E-05-4.50383E-05-1.80526E-05-1.54626E-18 3.09686E-18
 -1      2948 1.38654E-04-2.93467E-05-4.71362E-05-2.57814E-05-2.94958E-18 1.94627E-18
 -1      2949 1.30015E-04-1.13242E-06-5.58971E-05-9.56807E-06-3.58168E-18 5.11581E-19
 -1      2950 1.28412E-04-2.92502E-06-5.44680E-05-1.62429E-05-4.25592E-18 1.12505E-18
 -1      2951 9.20388E-05-1.66576E-05-3.23137E-05-9.01771E-06-1.66037E-18-1.98676E-18
 -1      2952 1.38524E-04-1.17524E-05-5.48495E-05-7.32652E-07-3.54568E-18 6.34216E-20
 -1      2953 1.33187E-04-4.14363E-06-5.61231E-05-4.01970E-06-3.49994E-18 6.94038E-19
 -1      2954 9.12785E-05-1.63869E-05-3.20843E-05 2.86711E-08 5.71085E-19-2.38652E-18
 -1      2955 9.01564E-05-1.45974E-05-3.24018E-05-3.82526E-07 5.51521E-19-2.58417E-18
 -1      2956 9.02134E-05-1.46780E-05-3.23919E-05-1.33955E-06 3.06255E-19-2.57537E-18
 -1      2957 8.63293E-05-4.99151E-05-1.51234E-05-3.42145E-05-1.71736E-18-1.99635E-18
 -1      2958 9.84946E-05-5.41356E-05-1.90737E-05-2.99139E-05-1.40507E-18-4.42681E-19
 -1      2959 7.92914E-05-4.18713E-05-1.56489E-05-3.10088E-05-2.01117E-18-2.95794E-18
 -1      2960 1.38655E-04-4.30273E-05-4.15344E-05 5.13048E-08 1.72064E-18-3.93023E-18
 -1      2961 1.49075E-04-5.04307E-05-4.27037E-05 1.03024E-05 2.37092E-18-5.31333E-18
 -1      2962 9.15529E-05-1.66658E-05-3.21138E-05-5.57750E-06-8.83698E-19-2.43438E-18
 -1      2963 9.20317E-05-1.73685E-05-3.20223E-05-6.40844E-06-1.18989E-18-2.25914E-18
 -1      2964 9.24212E-05-1.81804E-05-3.17967E-05-4.57343E-06-7.80219E-19-2.25073E-18
 -1      2965 9.43568E-05-2.14230E-05-3.12613E-05 7.21218E-06 2.51330E-18 2.36087E-19
 -1      2966 9.11073E-05-2.65037E-05-2.76562E-05 1.40147E-05 6.94456E-19-2.01159E-18
 -1      2967 9.50106E-05-2.79115E-05-2.87650E-05-4.57244E-07 8.84157E-19 3.70308E-19
 -1      2968 1.32258E-04-3.14915E-05-4.38005E-05 3.32239E-05 3.39877E-18 3.46251E-18
 -1      2969 1.11719E-04-1.31998E-05-4.26093E-05 1.76758E-05 2.73274E-18 1.56595E-18
 -1      2970 1.25100E-04-1.03395E-05-4.97375E-05 1.76777E-05 3.15774E-18 3.71538E-18
 -1      2971 1.28593E-04-3.94734E-05-3.83001E-05 3.15302E-05 1.75717E-18 3.96061E-18
 -1      2972 1.31355E-04-4.70459E-05-3.64201E-05 2.88314E-05 1.56034E-18 3.64370E-18
 -1      2973 1.10123E-04-1.16416E-05-4.27483E-05 7.96037E-06 1.13524E-18 1.33043E-18
 -1      2974 1.17077E-04-3.19053E-05-3.71025E-05-1.15091E-05-3.87968E-19 2.73189E-18
 -1      2975 1.16577E-04-2.54257E-05-3.92481E-05-1.02118E-05 2.94873E-19 1.69899E-18
 -1      2976 1.24415E-04-1.11021E-05-4.90052E-05 1.25091E-06 2.13452E-18 2.74370E-18
 -1      2977 1.27849E-04-8.82374E-06-5.17612E-05 1.42874E-05 2.20229E-18 4.19416E-18
 -1      2978 5.37331E-05-2.86605E-05-1.00448E-05-2.40448E-05-1.07991E-18-4.64333E-18
 -1      2979 7.19629E-05-4.32737E-05-1.16417E-05 4.07884E-05 3.61132E-18 8.29881E-19
 -1      2980 6.62000E-05-3.63877E-05-1.22869E-05 3.64685E-05 4.11250E-18-9.78323E-20
 -1      2981 8.45558E-05-4.86817E-05-1.51613E-05 3.96202E-05 3.21417E-18 3.39459E-18
 -1      2982 1.23238E-04-3.95366E-06-5.16862E-05-5.46679E-06-3.50841E-18 6.11717E-19
 -1      2983 1.46825E-04-5.42933E-05-3.97250E-05 2.49230E-05 4.95355E-19 9.43383E-19
 -1      2984 3.79004E-05-1.90435E-05-7.35383E-06-1.98576E-07 1.66214E-18-4.16507E-18
 -1      2985 1.35851E-04-1.81720E-05-5.09447E-05-5.64142E-07-3.04477E-18 4.45539E-19
 -1      2986 1.27243E-04-8.31541E-06-5.16299E-05-2.07342E-05-4.53226E-18 1.25313E-18
 -1      2987 1.24433E-04-1.35895E-05-4.78075E-05-2.35864E-05-3.75956E-18 1.61799E-18
 -1      2988 1.17554E-04-4.48490E-06-4.88557E-05-1.60889E-05-4.01854E-18 3.15493E-19
 -1      2989 9.28200E-05-1.84288E-05-3.18801E-05-7.46509E-06-1.42634E-18-1.97076E-18
 -1      2990 1.42275E-04-6.25738E-05-3.42228E-05-3.54148E-06-4.98770E-19 4.24649E-18
 -1      2991 1.43831E-04-6.71251E-05-3.29430E-05 6.35081E-06-5.60259E-19 5.35812E-18
 -1      2992 1.36855E-04-6.70048E-05-2.98574E-05 1.18126E-05-5.08537E-19 5.35425E-18
 -1      2993 1.15703E-04-6.48869E-05-2.14248E-05 3.46770E-05 6.32098E-20 6.57351E-18
 -1      2994 1.05888E-04-5.95920E-05-1.94756E-05 3.65778E-05 1.82038E-18 5.86771E-18
 -1      2995 1.25238E-04-6.69327E-05-2.50743E-05 2.53352E-05-1.13698E-18 6.12634E-18
 -1      2996 9.03391E-05-1.48691E-05-3.23643E-05-2.17577E-06 1.52620E-19-2.39690E-18
 -1      2997 9.05243E-05-1.51331E-05-3.23323E-05-3.12583E-06-2.19541E-19-2.47967E-18
 -1      2998 9.17729E-05-1.71543E-05-3.19644E-05-3.14031E-06-3.35215E-19-2.28412E-18
 -1      2999 9.13972E-05-1.65705E-05-3.20558E-05-1.58156E-06 1.40158E-19-2.29774E-18
 -1      3000 1.24039E-04-6.74305E-05-2.39448E-05-2.04297E-05-1.58501E-18 9.22421E-19
 -1      3001 1.44397E-04-6.81703E-05-3.24215E-05 4.43258E-06-5.06579E-19 1.44398E-18
 -1      3002 1.45491E-04-5.05964E-05-4.08512E-05-1.70264E-05-1.03010E-18 2.79584E-18
 -1      3003 9.46187E-05-2.24670E-05-3.09140E-05 5.68899E-06 2.19574E-18-1.00796E-20
 -1      3004 1.35043E-04-3.59919E-05-4.26527E-05-5.57460E-06 1.28611E-18-9.95052E-19
 -1      3005 1.32371E-04-3.86539E-05-4.01777E-05-4.18028E-06 1.67840E-18 5.93558E-19
 -1      3006 1.26407E-04-2.31404E-05-4.46042E-05-7.73274E-06 3.79577E-19 2.23257E-18
 -1      3007 1.37357E-04-5.40810E-05-3.57704E-05 2.35691E-05-1.92038E-19 1.79973E-18
 -1      3008 1.08261E-04-1.79453E-05-3.87984E-05 8.95751E-06-8.56271E-19-1.27561E-18
 -1      3009 1.39840E-04-3.11709E-05-4.72155E-05-5.49468E-06 1.12115E-18-2.93920E-19
 -1      3010 9.42822E-05-2.18753E-05-3.10598E-05 4.95331E-06 1.88360E-18-3.31772E-19
 -1      3011 9.38036E-05-2.09027E-05-3.12449E-05 4.61409E-06 1.80797E-18-6.78311E-19
 -1      3012 9.54903E-05-2.55630E-05-2.99560E-05-2.13644E-06-9.87924E-19-1.22745E-18
 -1      3013 9.55325E-05-2.62626E-05-2.96992E-05-1.32450E-06-8.29056E-19-1.13760E-18
 -1      3014 9.52126E-05-2.88087E-05-2.84578E-05-9.74497E-07 7.19878E-19 3.90264E-19
 -1      3015 9.51959E-05-2.87918E-05-2.84584E-05-1.03051E-06 8.17979E-19 2.75051E-19
 -1      3016 9.56783E-05-2.68779E-05-2.94716E-05-7.37954E-07-7.55137E-19-9.81916E-19
 -1      3017 9.56546E-05-2.73261E-05-2.92918E-05-2.12684E-07-7.13576E-19-1.01708E-18
 -1      3018 9.57055E-05-2.62000E-05-2.97891E-05-1.16423E-06-7.29137E-19-1.06527E-18
 -1      3019 9.56983E-05-2.77120E-05-2.91257E-05 1.67537E-07-7.24036E-19-8.75155E-19
 -1      3020 9.56612E-05-2.79989E-05-2.90028E-05 4.82424E-07-8.91022E-19-1.01197E-18
 -1      3021 9.58929E-05-2.73288E-05-2.93878E-05-1.57409E-07-7.71824E-19-9.09057E-19
 -1      3022 9.56532E-05-2.82377E-05-2.88844E-05 7.03721E-07-8.34264E-19-9.27887E-19
 -1      3023 9.56208E-05-2.84191E-05-2.88030E-05 8.71158E-07-8.34203E-19-9.28032E-19
 -1      3024 9.59339E-05-2.80542E-05-2.90949E-05 4.77297E-07-8.19386E-19-6.83182E-19
 -1      3025 9.55887E-05-2.85614E-05-2.87208E-05 9.79535E-07-8.14361E-19-9.03077E-19
 -1      3026 9.55655E-05-2.86726E-05-2.86691E-05 1.04778E-06-7.06575E-19-8.64159E-19
 -1      3027 9.58997E-05-2.85065E-05-2.88862E-05 8.33788E-07-8.55862E-19-9.56719E-19
 -1      3028 9.55239E-05-2.87511E-05-2.86138E-05 1.07999E-06-5.85189E-19-7.47896E-19
 -1      3029 9.55093E-05-2.88151E-05-2.85830E-05 1.08459E-06-6.20299E-19-6.83102E-19
 -1      3030 9.58315E-05-2.87755E-05-2.87413E-05 9.95095E-07-5.80690E-19-8.49028E-19
 -1      3031 9.54660E-05-2.88516E-05-2.85474E-05 1.06859E-06-6.50806E-19-4.38576E-19
 -1      3032 9.54582E-05-2.88838E-05-2.85311E-05 1.03499E-06-6.29598E-19-2.25269E-19
 -1      3033 9.57513E-05-2.89212E-05-2.86439E-05 1.02681E-06-4.42069E-19-7.70114E-19
 -1      3034 9.54171E-05-2.88931E-05-2.85096E-05 9.91101E-07-8.36486E-19-6.72059E-20
 -1      3035 9.54139E-05-2.89042E-05-2.85032E-05 9.37132E-07-8.30311E-19-2.23947E-19
 -1      3036 9.56705E-05-2.89851E-05-2.85814E-05 9.78264E-07-7.78026E-19-2.02879E-19
 -1      3037 9.53770E-05-2.88964E-05-2.84917E-05 8.79669E-07-7.19670E-19 6.47212E-20
 -1      3038 9.53769E-05-2.88936E-05-2.84917E-05 8.17514E-07-3.56096E-19-2.04964E-20
 -1      3039 9.55952E-05-2.89957E-05-2.85442E-05 8.85087E-07-6.93999E-19 1.92705E-19
 -1      3040 9.53449E-05-2.88755E-05-2.84873E-05 7.56260E-07-3.59478E-19-1.11283E-19
 -1      3041 9.53467E-05-2.88640E-05-2.84914E-05 6.94081E-07-3.75526E-19-1.07591E-19
 -1      3042 9.55282E-05-2.89728E-05-2.85249E-05 7.72176E-07-3.82115E-19 4.29046E-19
 -1      3043 9.53194E-05-2.88399E-05-2.84918E-05 6.35569E-07-3.18526E-19-9.39607E-20
 -1      3044 9.53224E-05-2.88230E-05-2.84986E-05 5.78745E-07-2.47062E-19-7.89508E-20
 -1      3045 9.54702E-05-2.89296E-05-2.85183E-05 6.56490E-07-3.85496E-19-2.64945E-19
 -1      3046 9.52995E-05-2.87957E-05-2.85024E-05 5.27280E-07-3.09355E-19-8.63899E-20
 -1      3047 9.53031E-05-2.87753E-05-2.85108E-05 4.79351E-07-3.93063E-19-2.38612E-19
 -1      3048 9.54210E-05-2.88744E-05-2.85207E-05 5.49391E-07-3.45038E-19-1.43144E-19
 -1      3049 9.52839E-05-2.87461E-05-2.85170E-05 4.37811E-07-6.26862E-19-4.05636E-19
 -1      3050 9.52879E-05-2.87232E-05-2.85266E-05 4.01202E-07-9.57260E-19-3.05007E-19
 -1      3051 9.53794E-05-2.88124E-05-2.85293E-05 4.58460E-07-7.46554E-19-1.45131E-19
 -1      3052 9.52714E-05-2.86926E-05-2.85347E-05 3.71656E-07-9.70198E-19-1.27887E-19
 -1      3053 9.52757E-05-2.86675E-05-2.85453E-05 3.48233E-07-7.37908E-19-2.42050E-19
 -1      3054 9.53440E-05-2.87456E-05-2.85426E-05 3.88950E-07-9.14594E-19-8.27614E-20
 -1      3055 9.52610E-05-2.86350E-05-2.85549E-05 3.32415E-07-6.60246E-19-4.11334E-19
 -1      3056 9.52656E-05-2.86075E-05-2.85666E-05 3.23897E-07-4.64061E-19-5.68381E-19
 -1      3057 9.53129E-05-2.86744E-05-2.85597E-05 3.44897E-07-8.79816E-19 6.74924E-20
 -1      3058 9.52514E-05-2.85722E-05-2.85778E-05 3.23557E-07-3.76340E-19-2.33019E-19
 -1      3059 9.52566E-05-2.85415E-05-2.85909E-05 3.31822E-07-3.23691E-19-2.48571E-19
 -1      3060 9.52839E-05-2.85975E-05-2.85801E-05 3.29952E-07-3.21390E-19 3.69398E-19
 -1      3061 9.52416E-05-2.85022E-05-2.86038E-05 3.48997E-07-2.22790E-19-1.72871E-19
 -1      3062 9.52476E-05-2.84673E-05-2.86186E-05 3.76299E-07-2.93425E-20-1.63732E-19
 -1      3063 9.52545E-05-2.85125E-05-2.86038E-05 3.48018E-07-1.30671E-19 9.72028E-19
 -1      3064 9.52305E-05-2.84223E-05-2.86334E-05 4.13491E-07 1.55766E-19-5.75446E-19
 -1      3065 9.52377E-05-2.83824E-05-2.86505E-05 4.62582E-07 4.43924E-19-7.86245E-19
 -1      3066 9.52222E-05-2.84164E-05-2.86311E-05 4.03704E-07-7.45825E-20 6.00364E-19
 -1      3067 9.52170E-05-2.83301E-05-2.86674E-05 5.22847E-07 6.99882E-19-5.51211E-19
 -1      3068 9.52260E-05-2.82841E-05-2.86873E-05 5.96998E-07 6.82989E-19-4.25511E-19
 -1      3069 9.51841E-05-2.83055E-05-2.86622E-05 5.02594E-07 6.15505E-19 3.26686E-19
 -1      3070 9.52003E-05-2.82231E-05-2.87063E-05 6.83948E-07 3.45372E-19-2.33594E-19
 -1      3071 9.52118E-05-2.81705E-05-2.87295E-05 7.86857E-07-3.60445E-20 7.29518E-20
 -1      3072 9.51374E-05-2.81766E-05-2.86974E-05 6.51342E-07 8.90993E-19-2.74535E-19
 -1      3073 9.51797E-05-2.80999E-05-2.87507E-05 9.04549E-07-4.06494E-19-5.46468E-20
 -1      3074 9.51951E-05-2.80411E-05-2.87774E-05 1.04009E-06-6.58588E-19 3.37590E-19
 -1      3075 9.50793E-05-2.80272E-05-2.87364E-05 8.57568E-07-2.76006E-21 8.58278E-20
 -1      3076 9.51559E-05-2.79611E-05-2.88004E-05 1.19278E-06-7.63435E-19 1.60279E-19
 -1      3077 9.51770E-05-2.78977E-05-2.88306E-05 1.36456E-06-4.15227E-19 4.20678E-19
 -1      3078 9.50079E-05-2.78565E-05-2.87788E-05 1.12950E-06-4.59407E-19 7.31312E-19
 -1      3079 9.51308E-05-2.78104E-05-2.88546E-05 1.55624E-06-4.34697E-19 4.69194E-20
 -1      3080 9.51606E-05-2.77467E-05-2.88878E-05 1.76688E-06-5.75860E-19 3.09062E-19
 -1      3081 9.49224E-05-2.76673E-05-2.88232E-05 1.47534E-06-7.27832E-19 5.79359E-19
 -1      3082 9.51096E-05-2.76572E-05-2.89115E-05 2.00063E-06-6.00463E-19 7.75980E-20
 -1      3083 9.51530E-05-2.76008E-05-2.89466E-05 2.25066E-06-3.93012E-19-3.21522E-19
 -1      3084 9.48250E-05-2.74674E-05-2.88670E-05 1.90214E-06-6.25167E-19 2.72573E-19
 -1      3085 9.51022E-05-2.75189E-05-2.89677E-05 2.52768E-06-4.41971E-19-5.72349E-19
 -1      3086 9.51672E-05-2.74829E-05-2.90028E-05 2.81407E-06-1.80324E-19-1.13064E-19
 -1      3087 9.47227E-05-2.72734E-05-2.89064E-05 2.41435E-06-4.44353E-19-4.51996E-19
 -1      3088 9.51272E-05-2.74255E-05-2.90181E-05 3.13230E-06 4.45489E-20-7.77781E-20
 -1      3089 9.52265E-05-2.74307E-05-2.90503E-05 3.44638E-06 2.40352E-19-5.94128E-20
 -1      3090 9.46307E-05-2.71141E-05-2.89356E-05 3.01167E-06-2.85673E-19-3.94308E-19
 -1      3091 9.52162E-05-2.74244E-05-2.90558E-05 3.79875E-06-4.20088E-19-5.33289E-19
 -1      3092 9.53698E-05-2.75021E-05-2.90810E-05 4.12352E-06-6.53476E-19-9.94840E-19
 -1      3093 9.45776E-05-2.70368E-05-2.89469E-05 3.68626E-06-4.02756E-19-7.23381E-19
 -1      3094 9.54208E-05-2.75869E-05-2.90718E-05 4.49546E-06 1.16412E-19-8.30385E-19
 -1      3095 9.56597E-05-2.77821E-05-2.90853E-05 4.80212E-06 5.90959E-19-1.30029E-18
 -1      3096 9.46127E-05-2.71131E-05-2.89310E-05 4.41912E-06-3.07963E-19-9.86798E-19
 -1      3097 9.58222E-05-2.80148E-05-2.90567E-05 5.16812E-06 1.38023E-19-1.21389E-18
 -1      3098 9.61921E-05-2.83887E-05-2.90539E-05 5.41164E-06-9.44723E-19-1.14297E-18
 -1      3099 9.48155E-05-2.74474E-05-2.88780E-05 5.17501E-06 3.41167E-20-1.98183E-18
 -1      3100 9.65418E-05-2.88454E-05-2.90030E-05 5.72980E-06-5.49588E-19-6.64757E-19
 -1      3101 9.71060E-05-2.94742E-05-2.89816E-05 5.84328E-06-1.61674E-19-3.68350E-19
 -1      3102 9.53092E-05-2.81833E-05-2.87799E-05 5.89487E-06-2.92490E-19-1.44523E-18
 -1      3103 9.77504E-05-3.02476E-05-2.89105E-05 6.04633E-06-8.17863E-19 1.82770E-19
 -1      3104 9.85883E-05-3.12138E-05-2.88740E-05 5.93395E-06-1.01001E-18 4.62214E-19
 -1      3105 9.62734E-05-2.95049E-05-2.86358E-05 6.48286E-06-1.25837E-19-6.85669E-19
 -1      3106 9.96674E-05-3.23994E-05-2.87961E-05 5.91379E-06-6.84822E-19 7.36194E-19
 -1      3107 1.00859E-04-3.37647E-05-2.87603E-05 5.44261E-06-4.75402E-19 1.26746E-18
 -1      3108 9.79533E-05-3.16233E-05-2.84613E-05 6.78321E-06-7.06566E-19 7.01802E-19
 -1      3109 1.02530E-04-3.54231E-05-2.87089E-05 5.02620E-06-1.12790E-18 8.65941E-19
 -1      3110 1.04115E-04-3.71674E-05-2.87100E-05 4.02250E-06-1.14684E-18 3.54807E-19
 -1      3111 1.00649E-04-3.47278E-05-2.83041E-05 6.53887E-06-1.13946E-18 2.10219E-18
 -1      3112 1.06493E-04-3.92423E-05-2.87509E-05 2.94429E-06-1.15390E-18 2.60432E-19
 -1      3113 1.08383E-04-4.11489E-05-2.88535E-05 1.20925E-06-1.51873E-18 9.11677E-20
 -1      3114 1.04649E-04-3.88610E-05-2.82668E-05 5.33159E-06-1.25316E-18 1.04054E-18
 -1      3115 1.11411E-04-4.33135E-05-2.90979E-05-8.93167E-07-1.82544E-18 9.40940E-19
 -1      3116 1.13256E-04-4.47865E-05-2.94002E-05-3.50170E-06-1.70037E-18 3.42739E-19
 -1      3117 1.10060E-04-4.36678E-05-2.85352E-05 2.52529E-06-9.97689E-19 9.43227E-19
 -1      3118 1.16432E-04-4.62404E-05-3.00135E-05-6.89770E-06-1.77908E-18 9.84750E-19
 -1      3119 1.17551E-04-4.61971E-05-3.06383E-05-1.02438E-05-1.25853E-18 8.10819E-19
 -1      3120 1.16366E-04-4.78617E-05-2.94083E-05-2.65793E-06-1.49033E-18 8.76380E-19
 -1      3121 1.19698E-04-4.55183E-05-3.18104E-05-1.46300E-05-2.85329E-19 3.66375E-20
 -1      3122 1.19257E-04-4.27712E-05-3.28183E-05-1.78042E-05-1.19657E-19 3.56138E-19
 -1      3123 1.22001E-04-4.89128E-05-3.12830E-05-1.05504E-05-7.79378E-19 1.45165E-18
 -1      3124 1.18793E-04-3.85672E-05-3.45514E-05-2.17335E-05-4.56299E-19 4.92134E-19
 -1      3125 1.16204E-04-3.29800E-05-3.57367E-05-2.26929E-05-8.98040E-19 8.83065E-19
 -1      3126 1.24196E-04-4.39771E-05-3.43641E-05-1.93408E-05-2.23683E-19 5.73941E-19
 -1      3127 1.08529E-04-1.30844E-05-4.13415E-05-1.84181E-05-1.97414E-18 4.57451E-19
 -1      3128 1.05835E-04-8.92736E-06-4.18117E-05-1.29229E-05-2.15247E-18-4.62083E-19
 -1      3129 9.52230E-05-2.87795E-05-2.84750E-05-1.07570E-06 7.20227E-19 2.72736E-19
 -1      3130 9.52109E-05-2.87437E-05-2.84844E-05-1.11073E-06 7.10027E-19 3.61722E-19
 -1      3131 9.54676E-05-2.88910E-05-2.85348E-05-1.03795E-06 7.62268E-19 4.44768E-20
 -1      3132 9.52424E-05-2.87077E-05-2.85145E-05-1.12593E-06 6.91482E-19 3.69636E-19
 -1      3133 9.52392E-05-2.86440E-05-2.85376E-05-1.12162E-06 6.76929E-19 4.55073E-19
 -1      3134 9.55218E-05-2.88235E-05-2.85876E-05-1.08746E-06 7.43755E-19 2.39008E-19
 -1      3135 9.52085E-05-2.88100E-05-2.84555E-05-8.49994E-07 2.91867E-19 6.12462E-19
 -1      3136 9.51901E-05-2.88058E-05-2.84506E-05-9.14508E-07 5.35262E-19 4.19002E-19
 -1      3137 9.54211E-05-2.89101E-05-2.85062E-05-9.39927E-07 5.43531E-19 3.59098E-19
 -1      3138 9.52086E-05-2.87936E-05-2.84625E-05-7.20847E-07 1.05254E-19 7.16535E-19
 -1      3139 9.51902E-05-2.87978E-05-2.84545E-05-7.85566E-07 2.51766E-19 5.71807E-19
 -1      3140 9.53824E-05-2.88984E-05-2.84942E-05-8.20059E-07 3.55573E-19 4.80028E-19
 -1      3141 9.52115E-05-2.87664E-05-2.84754E-05-5.99333E-07 1.54266E-19 5.62256E-19
 -1      3142 9.51940E-05-2.87760E-05-2.84657E-05-6.58847E-07 1.36949E-19 7.58821E-19
 -1      3143 9.53508E-05-2.88678E-05-2.84935E-05-6.96417E-07 1.32274E-19 5.59604E-19
 -1      3144 9.52161E-05-2.87325E-05-2.84919E-05-4.93446E-07 4.16355E-19 5.87313E-19
 -1      3145 9.52000E-05-2.87457E-05-2.84813E-05-5.44244E-07 2.16352E-19 6.40443E-19
 -1      3146 9.53256E-05-2.88259E-05-2.85004E-05-5.80990E-07-3.54537E-21 5.78911E-19
 -1      3147 9.52220E-05-2.86944E-05-2.85108E-05-4.08495E-07-1.41897E-20 1.10126E-18
 -1      3148 9.52072E-05-2.87101E-05-2.84997E-05-4.48220E-07 4.36027E-19 9.69179E-19
 -1      3149 9.53057E-05-2.87773E-05-2.85126E-05-4.81704E-07 2.36408E-19 1.00100E-18
 -1      3150 9.52289E-05-2.86528E-05-2.85316E-05-3.48336E-07-3.18995E-19 1.30780E-18
 -1      3151 9.52151E-05-2.86707E-05-2.85200E-05-3.75210E-07-6.29887E-20 1.04300E-18
 -1      3152 9.52899E-05-2.87244E-05-2.85284E-05-4.03954E-07 2.22654E-20 1.17862E-18
 -1      3153 9.52370E-05-2.86074E-05-2.85544E-05-3.16322E-07-1.61534E-19 7.82339E-19
 -1      3154 9.52234E-05-2.86275E-05-2.85420E-05-3.28701E-07-1.52399E-19 1.23557E-18
 -1      3155 9.52773E-05-2.86675E-05-2.85473E-05-3.51803E-07-1.22840E-19 8.20298E-19
 -1      3156 9.52464E-05-2.85572E-05-2.85798E-05-3.16030E-07 3.01949E-19 7.10090E-19
 -1      3157 9.52322E-05-2.85800E-05-2.85662E-05-3.12071E-07 3.10434E-20 8.38301E-19
 -1      3158 9.52666E-05-2.86059E-05-2.85691E-05-3.28913E-07 1.37751E-19 4.70971E-19
 -1      3159 9.52574E-05-2.85000E-05-2.86087E-05-3.51829E-07 4.08793E-19 5.47083E-19
 -1      3160 9.52416E-05-2.85263E-05-2.85933E-05-3.29216E-07 4.29416E-19 8.27086E-19
 -1      3161 9.52565E-05-2.85373E-05-2.85942E-05-3.39231E-07 4.75775E-19 5.64205E-19
 -1      3162 9.52702E-05-2.84333E-05-2.86425E-05-4.29332E-07 3.10734E-19 8.98743E-19
 -1      3163 9.52518E-05-2.84642E-05-2.86244E-05-3.85065E-07 5.88637E-19 8.19177E-19
 -1      3164 9.52455E-05-2.84588E-05-2.86231E-05-3.87540E-07 5.20225E-19 1.30063E-18
 -1      3165 9.52851E-05-2.83538E-05-2.86825E-05-5.55724E-07 5.80540E-20 6.41951E-19
 -1      3166 9.52628E-05-2.83906E-05-2.86609E-05-4.85962E-07-4.95261E-20 5.58918E-19
 -1      3167 9.52317E-05-2.83665E-05-2.86567E-05-4.79873E-07 1.93158E-19 1.13615E-18
 -1      3168 9.53019E-05-2.82577E-05-2.87304E-05-7.39979E-07 4.06521E-20 1.20722E-18
 -1      3169 9.52743E-05-2.83019E-05-2.87042E-05-6.39941E-07 2.00987E-19 9.77683E-19
 -1      3170 9.52127E-05-2.82556E-05-2.86961E-05-6.23788E-07-7.25984E-20 1.01404E-18
 -1      3171 9.53200E-05-2.81408E-05-2.87876E-05-9.92942E-07 3.22992E-19 1.27926E-18
 -1      3172 9.52859E-05-2.81940E-05-2.87558E-05-8.56872E-07 4.32699E-19 1.21471E-18
 -1      3173 9.51853E-05-2.81208E-05-2.87420E-05-8.28507E-07 6.24672E-20 9.51507E-19
 -1      3174 9.53379E-05-2.79986E-05-2.88555E-05-1.32723E-06-1.60718E-19 9.91133E-19
 -1      3175 9.52963E-05-2.80625E-05-2.88172E-05-1.14847E-06 3.86731E-19 1.47989E-18
 -1      3176 9.51452E-05-2.79561E-05-2.87952E-05-1.10490E-06 4.81104E-19 9.22753E-19
 -1      3177 9.53530E-05-2.78265E-05-2.89349E-05-1.75689E-06-4.38170E-19 3.97083E-19
 -1      3178 9.53030E-05-2.79026E-05-2.88893E-05-1.52807E-06-4.08637E-19 7.25240E-19
 -1      3179 9.50864E-05-2.77552E-05-2.88558E-05-1.46527E-06 3.05876E-20 5.48413E-19
 -1      3180 9.53612E-05-2.76210E-05-2.90257E-05-2.29668E-06-9.72341E-19 1.65995E-19
 -1      3181 9.53023E-05-2.77100E-05-2.89725E-05-2.01018E-06-6.46725E-19 2.97306E-19
 -1      3182 9.50013E-05-2.75121E-05-2.89230E-05-1.92286E-06-7.05344E-19 9.79264E-20
 -1      3183 9.53567E-05-2.73807E-05-2.91259E-05-2.96083E-06-2.55649E-19-3.63735E-19
 -1      3184 9.52890E-05-2.74819E-05-2.90657E-05-2.60953E-06-4.92180E-19-6.99405E-20
 -1      3185 9.48797E-05-2.72219E-05-2.89944E-05-2.49101E-06-6.22214E-19-1.28646E-18
 -1      3186 9.53324E-05-2.71094E-05-2.92309E-05-3.76109E-06 1.91061E-19-1.68820E-19
 -1      3187 9.52561E-05-2.72189E-05-2.91655E-05-3.33964E-06-4.61036E-20 1.74940E-20
 -1      3188 9.47093E-05-2.68832E-05-2.90655E-05-3.18196E-06-7.38316E-20 4.59602E-19
 -1      3189 9.52830E-05-2.68218E-05-2.93323E-05-4.70384E-06-5.08389E-19 8.16004E-19
 -1      3190 9.51968E-05-2.69293E-05-2.92656E-05-4.21065E-06-3.27201E-19 2.00023E-19
 -1      3191 9.44768E-05-2.65017E-05-2.91280E-05-4.00526E-06-8.69349E-20 6.62872E-21
 -1      3192 9.52102E-05-2.65532E-05-2.94155E-05-5.78614E-06-2.51833E-19 3.62198E-19
 -1      3193 9.51081E-05-2.66366E-05-2.93544E-05-5.22625E-06 9.26987E-20 2.44255E-19
 -1      3194 9.41710E-05-2.60971E-05-2.91688E-05-4.96594E-06-4.66454E-19-3.82095E-19
 -1      3195 9.51357E-05-2.63765E-05-2.94584E-05-6.99039E-06-4.08664E-19 1.03363E-19
 -1      3196 9.50003E-05-2.63923E-05-2.94138E-05-6.37971E-06-2.37446E-19 3.87358E-19
 -1      3197 9.37908E-05-2.57158E-05-2.91678E-05-6.06305E-06-2.03132E-19-6.61295E-19
 -1      3198 9.51266E-05-2.64295E-05-2.94303E-05-8.27781E-06-1.77133E-19-3.95247E-19
 -1      3199 9.49147E-05-2.62979E-05-2.94173E-05-7.64882E-06-4.46324E-19-1.29291E-19
 -1      3200 9.33608E-05-2.54502E-05-2.90969E-05-7.28923E-06-3.93237E-19 4.02171E-20
 -1      3201 9.53380E-05-2.69551E-05-2.92925E-05-9.57959E-06 3.74757E-19-7.08133E-19
 -1      3202 9.49575E-05-2.65386E-05-2.93297E-05-8.98954E-06 3.49311E-19-2.90558E-19
 -1      3203 9.29603E-05-2.54707E-05-2.89186E-05-8.63252E-06 4.17404E-20-1.76582E-19
 -1      3204 9.60828E-05-2.83532E-05-2.90068E-05-1.07824E-05 4.73308E-19-8.90407E-19
 -1      3205 9.53568E-05-2.74301E-05-2.91111E-05-1.03262E-05-9.46418E-20-4.59740E-19
 -1      3206 9.27735E-05-2.60710E-05-2.85893E-05-1.00804E-05 3.02418E-19-1.26115E-18
 -1      3207 9.79255E-05-3.12244E-05-2.85567E-05-1.16876E-05 1.10439E-18 3.65565E-19
 -1      3208 9.65526E-05-2.94736E-05-2.87298E-05-1.15253E-05 7.34372E-19-2.75112E-20
 -1      3209 9.31735E-05-2.77294E-05-2.80692E-05-1.16193E-05 9.99679E-20-3.36572E-19
 -1      3210 1.01764E-04-3.63277E-05-2.79995E-05-1.18992E-05 9.11725E-19 1.44266E-18
 -1      3211 9.93070E-05-3.33789E-05-2.81973E-05-1.23151E-05 1.44197E-18 1.16198E-18
 -1      3212 9.48490E-05-3.11683E-05-2.73496E-05-1.31908E-05 2.76556E-19 1.41548E-18
 -1      3213 1.08799E-04-4.43049E-05-2.75781E-05-1.05719E-05 1.66296E-19 2.11194E-18
 -1      3214 1.04766E-04-3.99485E-05-2.76476E-05-1.21138E-05 7.09806E-19 2.08820E-18
 -1      3215 9.89252E-05-3.72819E-05-2.65213E-05-1.45397E-05 2.24047E-19 1.80844E-18
 -1      3216 1.20354E-04-5.44995E-05-2.80380E-05-5.75314E-06-1.41865E-18 2.09734E-18
 -1      3217 1.14443E-04-4.96666E-05-2.75349E-05-9.58888E-06-3.34535E-19 2.38721E-18
 -1      3218 1.06985E-04-4.67975E-05-2.59202E-05-1.49111E-05-2.21684E-19 2.43046E-18
 -1      3219 1.20233E-04-1.15208E-05-4.71003E-05 3.66807E-06 1.33471E-18 2.67562E-18
 -1      3220 5.03611E-05-2.28587E-05-1.11853E-05-1.80349E-05 1.98947E-19-3.50132E-18
 -1      3221 6.22853E-05-3.06912E-05-1.33000E-05-2.62183E-05-1.92599E-18-3.79503E-18
 -1      3222 9.54127E-05-2.73469E-05-2.91782E-05 2.66529E-07 9.77170E-19 2.94635E-19
 -1      3223 9.54774E-05-2.69405E-05-2.93570E-05 8.27511E-07 1.03139E-18 2.47954E-19
 -1      3224 9.53713E-05-2.79573E-05-2.88957E-05-4.80893E-07 7.95430E-19 1.98125E-19
 -1      3225 9.54262E-05-2.76992E-05-2.90127E-05-1.50446E-07 9.82741E-19 2.71393E-19
 -1      3226 9.56886E-05-2.73335E-05-2.93003E-05 2.17005E-07 1.00431E-18 1.24833E-19
 -1      3227 9.34706E-05-1.98464E-05-3.15493E-05-6.22766E-06-1.24973E-18-1.90932E-18
 -1      3228 1.17548E-04-6.42978E-06-4.80433E-05 7.94976E-07-3.13550E-18 8.04575E-19
 -1      3229 1.13954E-04-3.21666E-06-4.80025E-05-6.29217E-06-3.54049E-18 2.88957E-19
 -1      3230 9.53180E-05-2.83378E-05-2.87076E-05-8.96248E-07 7.16695E-19 2.04622E-19
 -1      3231 9.53493E-05-2.81723E-05-2.87812E-05-7.22372E-07 6.81024E-19 1.09028E-19
 -1      3232 9.56887E-05-2.80090E-05-2.90105E-05-4.80866E-07 8.05717E-19 8.27574E-21
 -1      3233 9.52736E-05-2.85713E-05-2.85872E-05-1.08507E-06 6.02172E-19 3.82365E-19
 -1      3234 9.52848E-05-2.84666E-05-2.86307E-05-1.01487E-06 7.19892E-19 3.00596E-19
 -1      3235 9.56421E-05-2.84294E-05-2.88096E-05-8.72222E-07 5.95086E-19 1.48998E-20
 -1      3236 5.48987E-05-2.67922E-05-1.16901E-05 2.82182E-05 4.06623E-18-1.07351E-18
 -1      3237 4.64104E-05-2.07486E-05-1.05021E-05 1.87449E-05 3.44271E-18-1.35737E-18
 -1      3238 1.29782E-04-3.70228E-05-3.99271E-05 3.26568E-05 2.20970E-18 4.60055E-18
 -1      3239 4.11584E-05-1.75039E-05-9.72770E-06 7.35136E-06 2.30055E-18-2.91242E-18
 -1      3240 4.24724E-05-1.83774E-05-1.00278E-05-7.30297E-06 9.44627E-19-3.14567E-18
 -1      3241 1.38028E-04-4.34701E-05-4.10618E-05-2.23879E-05-4.96441E-19 3.84225E-18
 -1      3242 1.39657E-04-5.28074E-05-3.73319E-05-1.53800E-05-1.73218E-19 3.86242E-18
 -1      3243 9.52058E-05-2.42703E-05-3.04037E-05 4.26521E-06 1.78729E-18 1.41499E-19
 -1      3244 9.46368E-05-2.27157E-05-3.08072E-05 4.78098E-06 1.83950E-18-7.16727E-20
 -1      3245 9.49619E-05-2.35967E-05-3.05662E-05 3.69120E-06 1.56331E-18-1.17392E-19
 -1      3246 9.52415E-05-2.52026E-05-3.00303E-05 2.98264E-06 1.51963E-18 2.71428E-19
 -1      3247 1.29335E-04-2.36475E-05-4.60803E-05-2.60975E-05-1.97676E-18 3.02878E-18
 -1      3248 1.34762E-04-3.23382E-05-4.40863E-05-2.58758E-05-1.43297E-18 3.76136E-18
 -1      3249 1.31099E-04-3.74455E-05-4.03382E-05-2.44318E-05-2.83518E-19 4.80024E-18
 -1      3250 1.21884E-04-1.74337E-05-4.49178E-05-2.46254E-05-2.17195E-18 2.51886E-18
 -1      3251 1.03947E-04-1.12106E-05-3.99730E-05 4.93272E-06-1.64851E-18-1.76032E-18
 -1      3252 1.13469E-04-1.27671E-05-4.34390E-05 3.85449E-06-1.55393E-18-5.95199E-19
 -1      3253 1.15925E-04-6.16308E-05-2.26742E-05-2.20388E-05-1.60084E-18 3.91819E-19
 -1      3254 1.28396E-04-6.71796E-05-2.67239E-05-1.28262E-05-1.03804E-18 1.44182E-18
 -1      3255 9.23631E-05-1.83360E-05-3.17411E-05 1.80976E-06 1.02487E-18-1.97694E-18
 -1      3256 9.22429E-05-1.81336E-05-3.17729E-05 1.05674E-06 7.90428E-19-2.21844E-18
 -1      3257 5.19876E-05-2.04075E-05-1.30247E-05-1.07808E-05 6.89419E-19-2.77530E-18
 -1      3258 7.30311E-05-3.53180E-05-1.56355E-05-2.77375E-05-1.78952E-18-3.84166E-18
 -1      3259 8.36744E-05-4.01378E-05-1.84724E-05-2.64596E-05-1.50367E-18-2.00652E-18
 -1      3260 6.84628E-05-2.97567E-05-1.63977E-05-2.31045E-05-1.24522E-18-3.75008E-18
 -1      3261 9.43308E-05-2.19726E-05-3.09886E-05 3.62439E-06 1.58771E-18-7.65459E-19
 -1      3262 9.34261E-05-2.02078E-05-3.14039E-05 4.23945E-06 1.72704E-18-1.09442E-18
 -1      3263 9.30659E-05-1.95464E-05-3.15173E-05 3.64856E-06 1.54149E-18-1.33204E-18
 -1      3264 9.53815E-05-2.64914E-05-2.95320E-05 1.36015E-06 1.19032E-18 3.00349E-19
 -1      3265 9.54328E-05-2.58843E-05-2.97916E-05 2.23757E-06 1.32817E-18 2.68439E-19
 -1      3266 9.53550E-05-2.52303E-05-3.00705E-05 2.59192E-06 1.43374E-18 1.92980E-19
 -1      3267 9.55816E-05-2.64053E-05-2.96541E-05 1.22745E-06 1.14687E-18 1.44477E-19
 -1      3268 1.43319E-04-5.52568E-05-3.78427E-05 2.36740E-05-3.42890E-19 2.20128E-18
 -1      3269 1.41969E-04-6.24877E-05-3.45794E-05 1.57553E-05-7.19899E-19 5.92791E-19
 -1      3270 9.55819E-05-2.86822E-05-2.86746E-05-1.05012E-06 6.83855E-19 3.34584E-19
 -1      3271 1.03180E-04-8.97181E-06-4.05807E-05 1.16698E-06-2.43969E-18-2.24958E-18
 -1      3272 1.13421E-04-2.03079E-05-4.00635E-05-2.24058E-05-1.54748E-18 1.29134E-18
 -1      3273 1.17347E-04-2.75467E-05-3.87677E-05-2.46742E-05-1.34459E-18 1.63602E-18
 -1      3274 1.02415E-04-7.61497E-06-4.08864E-05-3.38842E-06-2.46105E-18-2.27195E-18
 -1      3275 1.40123E-04-4.61821E-05-4.08789E-05 3.07968E-05 1.63615E-18 4.08058E-18
 -1      3276 1.24461E-04-5.85577E-05-2.79434E-05-5.62001E-06-1.38830E-18 2.11110E-18
 -1      3277 1.16859E-04-5.77186E-05-2.56883E-05-1.48977E-05-8.13072E-19 1.29690E-18
 -1      3278 9.40335E-05-2.14098E-05-3.11320E-05-4.99402E-06-1.19481E-18-1.75505E-18
 -1      3279 1.30977E-04-6.20001E-05-2.94456E-05 1.44819E-07-9.96296E-19 1.14770E-18
 -1      3280 1.38234E-04-6.50265E-05-3.10309E-05 4.64377E-06-7.70324E-19 1.47659E-18
 -1      3281 1.30570E-04-2.47654E-05-4.56199E-05 2.73804E-06-1.03158E-18-7.57883E-19
 -1      3282 1.33586E-04-3.47297E-05-4.30114E-05-2.82578E-06 3.18590E-19 5.66665E-19
 -1      3283 9.69432E-05-5.36784E-05-1.80679E-05 3.73407E-05 2.02727E-18 4.64709E-18
 -1      3284 8.80227E-05-4.67156E-05-1.74252E-05 3.58506E-05 2.51548E-18 2.65439E-18
 -1      3285 1.07505E-04-5.76079E-05-2.13341E-05 3.12210E-05 1.11999E-18 4.61564E-18
 -1      3286 4.99313E-05-1.92001E-05-1.26638E-05 1.16959E-05 2.34465E-18-1.35843E-18
 -1      3287 1.21446E-04-1.38550E-05-4.67056E-05 4.26902E-06-2.30446E-18-4.50727E-19
 -1      3288 1.31637E-04-6.66843E-05-2.76762E-05 1.70726E-05-1.01612E-18 6.75345E-18
 -1      3289 1.22972E-04-6.32393E-05-2.54519E-05 2.17869E-05-8.35333E-19 6.88106E-18
 -1      3290 1.33880E-04-6.43975E-05-2.97717E-05 7.24291E-06 5.35987E-19 5.42495E-18
 -1      3291 7.25261E-05-3.60010E-05-1.54767E-05 3.29526E-05 3.49099E-18 4.00488E-19
 -1      3292 6.30377E-05-3.08501E-05-1.32540E-05 3.09197E-05 3.81408E-18-1.11597E-18
 -1      3293 6.24276E-05-2.70188E-05-1.49281E-05 2.58750E-05 2.95223E-18-1.44567E-18
 -1      3294 9.50246E-05-2.37220E-05-3.05592E-05-3.90537E-06-1.14513E-18-1.47656E-18
 -1      3295 9.51852E-05-2.46776E-05-3.02347E-05-2.86303E-06-1.08161E-18-1.35089E-18
 -1      3296 9.52699E-05-2.45498E-05-3.03025E-05-2.52741E-06-9.49763E-19-1.42666E-18
 -1      3297 1.07135E-04-5.47873E-05-2.19814E-05-2.31925E-05-1.45838E-18 4.07317E-19
 -1      3298 9.21825E-05-1.80334E-05-3.17912E-05 4.07988E-07 6.61700E-19-2.30252E-18
 -1      3299 9.21789E-05-1.80287E-05-3.17917E-05-3.59582E-07 4.39969E-19-2.25894E-18
 -1      3300 9.31354E-05-1.96175E-05-3.14902E-05 6.27608E-07 6.73144E-19-2.06730E-18
 -1      3301 9.27777E-05-1.90472E-05-3.16179E-05 3.12163E-06 1.43451E-18-1.45961E-18
 -1      3302 9.25386E-05-1.86319E-05-3.16852E-05 2.42065E-06 1.13071E-18-1.63722E-18
 -1      3303 9.33499E-05-2.00071E-05-3.14142E-05 1.80063E-06 9.87132E-19-1.63591E-18
 -1      3304 9.37620E-05-2.07889E-05-3.12538E-05 2.84198E-06 1.29166E-18-1.17744E-18
 -1      3305 9.30349E-05-1.94966E-05-3.15252E-05-3.60848E-06-5.88637E-19-2.02760E-18
 -1      3306 9.34044E-05-2.01609E-05-3.14137E-05-4.22248E-06-8.28062E-19-2.10630E-18
 -1      3307 9.25179E-05-1.85986E-05-3.16898E-05-2.36968E-06-2.07056E-19-2.09415E-18
 -1      3308 9.27480E-05-1.90010E-05-3.16240E-05-3.08247E-06-4.78626E-19-2.10476E-18
 -1      3309 9.37263E-05-2.07514E-05-3.12616E-05-2.79042E-06-5.57432E-19-1.88427E-18
 -1      3310 1.12268E-04-5.89563E-06-4.58971E-05-1.03403E-05-3.74473E-18 5.41803E-19
 -1      3311 9.58528E-05-2.87927E-05-2.87408E-05-9.89880E-07 6.03420E-19-1.03630E-19
 -1      3312 9.58857E-05-2.86789E-05-2.87984E-05-9.31100E-07 5.17249E-19-7.31910E-20
 -1      3313 1.24968E-04-3.33069E-05-3.94850E-05-2.52712E-05-6.44698E-19 2.01012E-18
 -1      3314 9.60277E-05-2.69103E-05-2.96136E-05-4.42269E-07-5.93930E-19-1.05896E-18
 -1      3315 9.60798E-05-2.74045E-05-2.94393E-05-2.72555E-08-5.63238E-19-1.04132E-18
 -1      3316 9.61614E-05-2.78273E-05-2.92786E-05 2.49931E-07-6.71295E-19-8.41079E-19
 -1      3317 9.61570E-05-2.81466E-05-2.91519E-05 5.01810E-07-7.86981E-19-7.73020E-19
 -1      3318 9.62651E-05-2.74605E-05-2.94886E-05 1.90790E-08-5.50353E-19-9.25251E-19
 -1      3319 9.61661E-05-2.84109E-05-2.90322E-05 6.62558E-07-9.33670E-19-6.88777E-19
 -1      3320 9.61362E-05-2.86100E-05-2.89421E-05 7.96474E-07-8.28813E-19-7.31463E-19
 -1      3321 9.63551E-05-2.82198E-05-2.92024E-05 4.78201E-07-7.67079E-19-6.00106E-19
 -1      3322 9.61034E-05-2.87657E-05-2.88550E-05 8.71371E-07-7.21326E-19-7.31315E-19
 -1      3323 9.60631E-05-2.88821E-05-2.87927E-05 9.24159E-07-5.95255E-19-6.70323E-19
 -1      3324 9.63334E-05-2.86952E-05-2.89899E-05 7.32517E-07-8.19401E-19-4.81370E-19
 -1      3325 9.60086E-05-2.89640E-05-2.87308E-05 9.40877E-07-4.03797E-19-9.66840E-19
 -1      3326 9.59660E-05-2.90241E-05-2.86892E-05 9.40988E-07-3.97452E-19-8.56381E-19
 -1      3327 9.62485E-05-2.89707E-05-2.88356E-05 8.40750E-07-6.29343E-19-6.90547E-19
 -1      3328 9.59026E-05-2.90568E-05-2.86466E-05 9.21058E-07-5.35162E-19-6.52362E-19
 -1      3329 9.58618E-05-2.90794E-05-2.86203E-05 8.89555E-07-6.00225E-19-5.54817E-19
 -1      3330 9.61331E-05-2.91096E-05-2.87265E-05 8.51682E-07-4.08768E-19-1.07656E-18
 -1      3331 9.57973E-05-2.90803E-05-2.85922E-05 8.48910E-07-5.48056E-19-2.48927E-19
 -1      3332 9.57604E-05-2.90785E-05-2.85769E-05 8.00838E-07-3.25590E-19 1.98286E-19
 -1      3333 9.60075E-05-2.91575E-05-2.86519E-05 8.02845E-07-4.01682E-19-5.31053E-19
 -1      3334 9.56995E-05-2.90598E-05-2.85596E-05 7.50775E-07-6.40047E-19 1.72338E-19
 -1      3335 9.56673E-05-2.90427E-05-2.85522E-05 6.96563E-07-6.69494E-19-1.46672E-19
 -1      3336 9.58841E-05-2.91465E-05-2.86035E-05 7.21706E-07-4.19460E-19-3.67960E-19
 -1      3337 9.56121E-05-2.90123E-05-2.85428E-05 6.44861E-07-4.58924E-19-3.30171E-19
 -1      3338 9.55846E-05-2.89860E-05-2.85410E-05 5.91604E-07-3.82020E-19-3.46953E-19
 -1      3339 9.57696E-05-2.90992E-05-2.85744E-05 6.27605E-07-6.92284E-19-4.59716E-19
 -1      3340 9.55358E-05-2.89490E-05-2.85375E-05 5.43530E-07-3.02382E-19-2.64270E-19
 -1      3341 9.55127E-05-2.89172E-05-2.85397E-05 4.95999E-07-2.75268E-19-3.94267E-20
 -1      3342 9.56669E-05-2.90302E-05-2.85597E-05 5.33897E-07-2.00405E-19-2.66127E-19
 -1      3343 9.54700E-05-2.88767E-05-2.85405E-05 4.55084E-07-4.58618E-19-1.58832E-19
 -1      3344 9.54505E-05-2.88415E-05-2.85455E-05 4.16516E-07-7.31684E-19-6.70438E-20
 -1      3345 9.55765E-05-2.89487E-05-2.85557E-05 4.49663E-07-3.93277E-19-4.58339E-19
 -1      3346 9.54129E-05-2.87986E-05-2.85496E-05 3.85209E-07-1.08170E-18 1.53828E-19
 -1      3347 9.53961E-05-2.87607E-05-2.85569E-05 3.57958E-07-1.04810E-18 1.13183E-19
 -1      3348 9.54971E-05-2.88597E-05-2.85596E-05 3.81102E-07-6.98688E-19-1.45442E-19
 -1      3349 9.53619E-05-2.87155E-05-2.85635E-05 3.38156E-07-9.26287E-19 4.07964E-19
 -1      3350 9.53468E-05-2.86747E-05-2.85726E-05 3.24162E-07-5.79018E-19 5.06746E-19
 -1      3351 9.54259E-05-2.87648E-05-2.85696E-05 3.32752E-07-8.62252E-19 4.89355E-19
 -1      3352 9.53139E-05-2.86262E-05-2.85813E-05 3.17568E-07-2.74709E-19 6.14877E-19
 -1      3353 9.52993E-05-2.85816E-05-2.85922E-05 3.18717E-07 1.53016E-19 8.29777E-19
 -1      3354 9.53594E-05-2.86631E-05-2.85844E-05 3.08343E-07-3.83403E-19 1.10005E-18
 -1      3355 9.52654E-05-2.85282E-05-2.86028E-05 3.27153E-07-9.72095E-20 7.91133E-19
 -1      3356 9.52500E-05-2.84781E-05-2.86153E-05 3.45558E-07 2.06034E-20 5.43578E-19
 -1      3357 9.52931E-05-2.85521E-05-2.86034E-05 3.11463E-07-1.15033E-19 1.39233E-18
 -1      3358 9.52123E-05-2.84176E-05-2.86276E-05 3.71198E-07 2.44351E-19 2.01563E-19
 -1      3359 9.51947E-05-2.83603E-05-2.86420E-05 4.09371E-07 2.53875E-19 4.83774E-19
 -1      3360 9.52220E-05-2.84278E-05-2.86260E-05 3.46123E-07-1.58652E-20 5.14137E-19
 -1      3361 9.51502E-05-2.82903E-05-2.86559E-05 4.54873E-07 1.07244E-19 8.02251E-19
 -1      3362 9.51290E-05-2.82238E-05-2.86721E-05 5.15818E-07 6.94902E-19 5.50824E-19
 -1      3363 9.51404E-05-2.82855E-05-2.86517E-05 4.17106E-07 4.92139E-19 1.28781E-18
 -1      3364 9.50743E-05-2.81420E-05-2.86873E-05 5.84402E-07 1.04665E-18 9.14577E-20
 -1      3365 9.50479E-05-2.80646E-05-2.87054E-05 6.71617E-07 7.37673E-19-2.06019E-19
 -1      3366 9.50418E-05-2.81198E-05-2.86802E-05 5.30172E-07 2.80456E-19 7.30017E-19
 -1      3367 9.49798E-05-2.79688E-05-2.87215E-05 7.67077E-07 4.52512E-19-1.43708E-19
 -1      3368 9.49470E-05-2.78795E-05-2.87412E-05 8.84455E-07-8.61508E-20 2.09271E-19
 -1      3369 9.49199E-05-2.79261E-05-2.87107E-05 6.92161E-07 6.22212E-19-5.43126E-19
 -1      3370 9.48621E-05-2.77684E-05-2.87574E-05 1.01109E-06-4.57952E-19 6.37300E-19
 -1      3371 9.48221E-05-2.76675E-05-2.87782E-05 1.16268E-06-4.30985E-19 3.73091E-19
 -1      3372 9.47678E-05-2.77008E-05-2.87417E-05 9.10948E-07 1.58488E-19-3.08825E-19
 -1      3373 9.47178E-05-2.75417E-05-2.87933E-05 1.32512E-06-9.23602E-19 9.00787E-20
 -1      3374 9.46708E-05-2.74315E-05-2.88142E-05 1.51475E-06-1.02620E-18-3.45333E-20
 -1      3375 9.45797E-05-2.74432E-05-2.87711E-05 1.19523E-06-7.95850E-19-2.42714E-19
 -1      3376 9.45459E-05-2.72943E-05-2.88263E-05 1.71769E-06-6.81042E-19 7.02052E-20
 -1      3377 9.44939E-05-2.71808E-05-2.88454E-05 1.94838E-06-4.31223E-19-9.84270E-21
 -1      3378 9.43516E-05-2.71573E-05-2.87955E-05 1.55418E-06-6.41959E-19-1.77193E-19
 -1      3379 9.43497E-05-2.70398E-05-2.88517E-05 2.19622E-06-4.01596E-19-2.63125E-19
 -1      3380 9.42981E-05-2.69342E-05-2.88666E-05 2.46935E-06-4.07989E-19-5.70771E-19
 -1      3381 9.40835E-05-2.68544E-05-2.88101E-05 1.99688E-06-4.81261E-19-2.82730E-19
 -1      3382 9.41405E-05-2.68037E-05-2.88635E-05 2.76568E-06-3.10451E-19-9.85670E-19
 -1      3383 9.40998E-05-2.67250E-05-2.88707E-05 3.07999E-06-2.05090E-19-2.43922E-19
 -1      3384 9.37819E-05-2.65573E-05-2.88081E-05 2.53167E-06-4.63526E-19 1.16130E-20
 -1      3385 9.39418E-05-2.66285E-05-2.88534E-05 3.42707E-06-6.18926E-19-1.55596E-19
 -1      3386 9.39311E-05-2.66066E-05-2.88483E-05 3.77730E-06-3.18432E-19-7.36333E-19
 -1      3387 9.34650E-05-2.63052E-05-2.87807E-05 3.16546E-06-4.41907E-19 3.19580E-19
 -1      3388 9.37972E-05-2.65807E-05-2.88112E-05 4.17532E-06-3.01322E-19-8.90422E-19
 -1      3389 9.38485E-05-2.66602E-05-2.87886E-05 4.55054E-06-2.75139E-19-4.98241E-19
 -1      3390 9.31689E-05-2.61603E-05-2.87171E-05 3.90294E-06-7.14682E-19 2.21426E-19
 -1      3391 9.37800E-05-2.67589E-05-2.87256E-05 4.99661E-06-5.13926E-19-1.80237E-18
 -1      3392 9.39439E-05-2.70033E-05-2.86805E-05 5.37783E-06-9.16953E-19-1.88759E-18
 -1      3393 9.29570E-05-2.62159E-05-2.86049E-05 4.74576E-06-9.72231E-19-6.37245E-19
 -1      3394 9.40070E-05-2.73023E-05-2.85863E-05 5.86394E-06 3.56048E-19-1.80116E-18
 -1      3395 9.43600E-05-2.77979E-05-2.85158E-05 6.22024E-06 6.39295E-19-1.05064E-18
 -1      3396 9.29333E-05-2.66060E-05-2.84320E-05 5.69086E-06-6.72301E-20-2.34305E-18
 -1      3397 9.46563E-05-2.83979E-05-2.83886E-05 6.72841E-06 1.63449E-19-4.64071E-19
 -1      3398 9.53075E-05-2.92539E-05-2.82947E-05 7.00965E-06 7.33163E-20-3.72679E-19
 -1      3399 9.32603E-05-2.75149E-05-2.81905E-05 6.72559E-06 7.43545E-19-1.28262E-18
 -1      3400 9.59863E-05-3.02802E-05-2.81407E-05 7.50012E-06 3.20104E-20 6.61905E-19
 -1      3401 9.70789E-05-3.16201E-05-2.80374E-05 7.62312E-06-1.39847E-19 1.66699E-18
 -1      3402 9.41818E-05-2.91838E-05-2.78831E-05 7.81413E-06 6.53954E-19 3.81447E-19
 -1      3403 9.83498E-05-3.32106E-05-2.78801E-05 8.00730E-06-1.42711E-18 2.23118E-18
 -1      3404 1.00047E-04-3.51410E-05-2.78022E-05 7.82964E-06-1.58543E-18 1.85183E-18
 -1      3405 9.60489E-05-3.19058E-05-2.75373E-05 8.86305E-06-5.65502E-19 1.60947E-18
 -1      3406 1.02177E-04-3.74032E-05-2.76959E-05 7.91508E-06-1.97632E-18 1.99218E-18
 -1      3407 1.04604E-04-3.99335E-05-2.77137E-05 7.20083E-06-1.69352E-18 1.27323E-18
 -1      3408 9.93379E-05-3.59874E-05-2.72283E-05 9.64171E-06-1.85280E-18 2.27101E-18
 -1      3409 1.07867E-04-4.28370E-05-2.77667E-05 6.59984E-06-5.07809E-19 9.44083E-19
 -1      3410 1.10969E-04-4.56906E-05-2.80000E-05 4.98437E-06-2.25648E-19 1.75157E-18
 -1      3411 1.04608E-04-4.16059E-05-2.71175E-05 9.62322E-06-1.01868E-18 1.62825E-18
 -1      3412 1.15517E-04-4.88862E-05-2.84098E-05 3.02219E-06-1.90003E-19 2.05974E-18
 -1      3413 1.18713E-04-5.11225E-05-2.90238E-05 9.82290E-08-6.56874E-19 2.84339E-18
 -1      3414 1.12305E-04-4.85022E-05-2.75111E-05 7.81707E-06 1.39794E-20 2.68020E-18
 -1      3415 1.28614E-04-4.78031E-05-3.48021E-05-1.74409E-05 5.50820E-19 1.87946E-18
 -1      3416 1.28543E-04-4.24230E-05-3.69474E-05-2.22871E-05 1.47543E-19 2.94119E-18
 -1      3417 9.56149E-05-2.90042E-05-2.85464E-05-8.67369E-07 3.26109E-19 8.02269E-19
 -1      3418 9.56374E-05-2.90004E-05-2.85580E-05-9.18775E-07 5.81721E-19 5.24933E-19
 -1      3419 9.57733E-05-2.89346E-05-2.86450E-05-1.01383E-06 7.70228E-19-4.70207E-20
 -1      3420 9.58040E-05-2.88730E-05-2.86818E-05-1.01250E-06 7.88980E-19 2.13913E-20
 -1      3421 9.60730E-05-2.88879E-05-2.87961E-05-9.19421E-07 5.74161E-19-7.07559E-19
 -1      3422 9.54856E-05-2.89348E-05-2.85205E-05-6.40795E-07-4.73190E-19 1.00164E-18
 -1      3423 9.55004E-05-2.89545E-05-2.85199E-05-6.98545E-07-9.21130E-21 9.06543E-19
 -1      3424 9.54344E-05-2.88785E-05-2.85227E-05-5.35625E-07 8.78126E-20 9.28950E-19
 -1      3425 9.54461E-05-2.89036E-05-2.85187E-05-5.87702E-07-1.54014E-19 1.08561E-18
 -1      3426 9.55862E-05-2.89888E-05-2.85428E-05-5.91491E-07-4.26047E-19 1.02767E-18
 -1      3427 9.53913E-05-2.88156E-05-2.85312E-05-4.46786E-07-1.37669E-19 1.35164E-18
 -1      3428 9.54005E-05-2.88440E-05-2.85248E-05-4.89791E-07 3.00114E-20 8.96971E-19
 -1      3429 9.55138E-05-2.89192E-05-2.85414E-05-4.96576E-07-7.57805E-20 1.24021E-18
 -1      3430 9.53547E-05-2.87481E-05-2.85445E-05-3.79344E-07 1.36169E-19 1.32248E-18
 -1      3431 9.53620E-05-2.87790E-05-2.85362E-05-4.10865E-07 4.58442E-20 1.30776E-18
 -1      3432 9.54512E-05-2.88425E-05-2.85473E-05-4.17904E-07-1.22923E-19 9.73513E-19
 -1      3433 9.53228E-05-2.86761E-05-2.85617E-05-3.37262E-07 9.24479E-20 1.06380E-18
 -1      3434 9.53287E-05-2.87096E-05-2.85519E-05-3.55329E-07 1.52468E-19 1.25158E-18
 -1      3435 9.53964E-05-2.87604E-05-2.85588E-05-3.60347E-07 2.46575E-19 1.24970E-18
 -1      3436 9.52933E-05-2.85979E-05-2.85825E-05-3.24246E-07 4.52494E-19 5.94409E-19
 -1      3437 9.52985E-05-2.86348E-05-2.85711E-05-3.26938E-07 3.76419E-19 8.28997E-19
 -1      3438 9.53465E-05-2.86725E-05-2.85749E-05-3.27866E-07 4.79278E-19 8.26317E-19
 -1      3439 9.52635E-05-2.85108E-05-2.86070E-05-3.44338E-07 6.80989E-20 1.14526E-18
 -1      3440 9.52688E-05-2.85525E-05-2.85937E-05-3.29481E-07 1.95924E-19 8.31763E-19
 -1      3441 9.52979E-05-2.85765E-05-2.85950E-05-3.24233E-07 2.56672E-19 9.28161E-19
 -1      3442 9.52302E-05-2.84106E-05-2.86355E-05-4.02426E-07 4.69655E-19 1.49549E-18
 -1      3443 9.52363E-05-2.84590E-05-2.86201E-05-3.67353E-07 4.74999E-19 1.15212E-18
 -1      3444 9.52463E-05-2.84686E-05-2.86190E-05-3.53578E-07 3.85109E-19 1.10651E-18
 -1      3445 9.51895E-05-2.82922E-05-2.86686E-05-5.04595E-07 1.89135E-20 1.12732E-18
 -1      3446 9.51976E-05-2.83496E-05-2.86507E-05-4.45981E-07 1.82578E-19 1.20168E-18
 -1      3447 9.51868E-05-2.83434E-05-2.86470E-05-4.20858E-07 4.14369E-19 1.53105E-18
 -1      3448 9.51365E-05-2.81497E-05-2.87067E-05-6.58309E-07-6.91316E-20 8.78424E-19
 -1      3449 9.51481E-05-2.82189E-05-2.86859E-05-5.72084E-07-6.10711E-20 1.19269E-18
 -1      3450 9.51132E-05-2.81947E-05-2.86789E-05-5.32111E-07 2.54703E-19 1.39728E-18
 -1      3451 9.50652E-05-2.79764E-05-2.87501E-05-8.72470E-07 1.75566E-19 4.00144E-19
 -1      3452 9.50822E-05-2.80604E-05-2.87261E-05-7.53798E-07 2.01276E-21 8.08728E-19
 -1      3453 9.50181E-05-2.80151E-05-2.87148E-05-6.94560E-07 2.03511E-20 9.94584E-19
 -1      3454 9.49679E-05-2.77648E-05-2.87987E-05-1.15728E-06 3.52334E-19 6.78567E-19
 -1      3455 9.49928E-05-2.78669E-05-2.87714E-05-1.00065E-06 4.07582E-19 5.28174E-19
 -1      3456 9.48923E-05-2.77966E-05-2.87541E-05-9.16574E-07 1.66861E-19 2.17635E-19
 -1      3457 9.48347E-05-2.75075E-05-2.88516E-05-1.52390E-06-5.59427E-19 8.48346E-19
 -1      3458 9.48711E-05-2.76308E-05-2.88212E-05-1.32331E-06 1.47086E-19 1.04567E-18
 -1      3459 9.47248E-05-2.75304E-05-2.87957E-05-1.20741E-06 1.72608E-19 3.88052E-19
 -1      3460 9.46533E-05-2.71972E-05-2.89065E-05-1.98382E-06-5.39357E-19-1.49688E-19
 -1      3461 9.47057E-05-2.73447E-05-2.88739E-05-1.73315E-06-5.21746E-19 3.23349E-19
 -1      3462 9.45014E-05-2.72078E-05-2.88374E-05-1.57675E-06-5.05903E-19 4.28174E-19
 -1      3463 9.44082E-05-2.68287E-05-2.89591E-05-2.54791E-06-3.80570E-19-2.34320E-19
 -1      3464 9.44826E-05-2.70020E-05-2.89264E-05-2.24150E-06-5.70527E-19-2.26265E-19
 -1      3465 9.42054E-05-2.68209E-05-2.88752E-05-2.03396E-06-1.59759E-19-7.27115E-20
 -1      3466 9.40815E-05-2.64006E-05-2.90025E-05-3.22532E-06 3.54167E-19-1.82414E-19
 -1      3467 9.41846E-05-2.65989E-05-2.89729E-05-2.85864E-06-8.74891E-20-3.41827E-19
 -1      3468 9.38164E-05-2.63644E-05-2.89027E-05-2.58723E-06-1.84496E-19-4.35799E-19
 -1      3469 9.36539E-05-2.59199E-05-2.90252E-05-4.02221E-06-5.14509E-19 1.35785E-19
 -1      3470 9.37926E-05-2.61373E-05-2.90043E-05-3.59274E-06 6.19004E-20 4.91425E-19
 -1      3471 9.33109E-05-2.58381E-05-2.89097E-05-3.24268E-06-4.82800E-19-2.87206E-19
 -1      3472 9.31087E-05-2.54095E-05-2.90101E-05-4.94114E-06-6.86572E-19-6.83582E-19
 -1      3473 9.32870E-05-2.56310E-05-2.90066E-05-4.44907E-06-5.43018E-19-5.87516E-19
 -1      3474 9.26640E-05-2.52519E-05-2.88813E-05-4.00415E-06-3.38662E-19 4.08717E-19
 -1      3475 9.24399E-05-2.49204E-05-2.89325E-05-5.98200E-06-6.37840E-19-3.63277E-19
 -1      3476 9.26539E-05-2.51144E-05-2.89587E-05-5.43037E-06-7.82876E-19-4.86016E-19
 -1      3477 9.18527E-05-2.46334E-05-2.87960E-05-4.87451E-06-7.29676E-19-6.22637E-19
 -1      3478 9.16694E-05-2.45521E-05-2.87583E-05-7.14638E-06-4.80858E-19-5.02508E-20
 -1      3479 9.18957E-05-2.46588E-05-2.88311E-05-6.53988E-06 7.97164E-20 2.01379E-19
 -1      3480 9.08636E-05-2.40410E-05-2.86232E-05-5.86072E-06-6.23252E-19-3.58318E-20
 -1      3481 9.08763E-05-2.44835E-05-2.84431E-05-8.44765E-06 1.22708E-19-4.69651E-19
 -1      3482 9.10528E-05-2.43971E-05-2.85842E-05-7.78924E-06-3.73513E-19-6.32300E-19
 -1      3483 8.97078E-05-2.35836E-05-2.83218E-05-6.98536E-06-1.80625E-19-3.93355E-19
 -1      3484 9.02493E-05-2.50179E-05-2.79350E-05-9.92795E-06 1.02973E-19-9.86587E-19
 -1      3485 9.02418E-05-2.45609E-05-2.81680E-05-9.21344E-06 3.24643E-19-5.19484E-19
 -1      3486 8.84476E-05-2.34504E-05-2.78389E-05-8.30847E-06-8.63184E-21-5.65204E-20
 -1      3487 9.01726E-05-2.66482E-05-2.71839E-05-1.16802E-05-5.01247E-19 2.93785E-19
 -1      3488 8.97186E-05-2.55320E-05-2.75267E-05-1.08954E-05-5.59429E-19-4.42975E-19
 -1      3489 8.72397E-05-2.39533E-05-2.71105E-05-9.96228E-06-3.86007E-19-2.05403E-19
 -1      3490 9.13667E-05-3.01335E-05-2.61655E-05-1.38338E-05-2.81080E-19 1.02871E-18
 -1      3491 8.99982E-05-2.79216E-05-2.66126E-05-1.29808E-05-3.90024E-19 5.94238E-19
 -1      3492 8.64139E-05-2.55950E-05-2.60668E-05-1.22108E-05-1.10787E-18 6.27531E-19
 -1      3493 9.49386E-05-3.64953E-05-2.49330E-05-1.64150E-05 2.29758E-20 2.32724E-19
 -1      3494 9.20657E-05-3.26784E-05-2.54226E-05-1.55887E-05 1.84066E-19 8.05929E-19
 -1      3495 8.66624E-05-2.92430E-05-2.46490E-05-1.54136E-05-3.22475E-19-2.65195E-19
 -1      3496 9.40128E-05-2.13507E-05-3.11352E-05-4.32360E-06-9.99671E-19-1.81558E-18
 -1      3497 9.44978E-05-2.24319E-05-3.08781E-05-3.32577E-06-8.72572E-19-1.79372E-18
 -1      3498 9.58987E-05-2.73776E-05-2.93739E-05 9.08669E-08 9.27843E-19-5.80369E-20
 -1      3499 9.58814E-05-2.69077E-05-2.95492E-05 5.48188E-07 9.65941E-19-1.06851E-19
 -1      3500 1.19547E-04-9.28343E-06-4.78821E-05 8.73090E-06 1.01856E-18 3.77221E-18
 -1      3501 1.39418E-04-5.71619E-05-3.54434E-05-1.11728E-05 2.46976E-19 4.18260E-18
 -1      3502 1.36355E-04-5.91207E-05-3.31914E-05-5.94814E-06 8.70227E-19 4.71485E-18
 -1      3503 9.22351E-05-1.81204E-05-3.17747E-05-1.00653E-06 2.87519E-19-2.04423E-18
 -1      3504 9.23467E-05-1.83120E-05-3.17441E-05-1.76136E-06-3.81373E-20-2.01808E-18
 -1      3505 9.33264E-05-1.99805E-05-3.14182E-05-1.75160E-06-1.81119E-19-1.88690E-18
 -1      3506 9.59461E-05-2.80857E-05-2.90877E-05-5.08838E-07 6.94941E-19-6.73778E-20
 -1      3507 9.59642E-05-2.77815E-05-2.92121E-05-2.30826E-07 9.10331E-19-1.23541E-20
 -1      3508 9.61059E-05-2.74081E-05-2.94433E-05 3.86920E-08 9.53749E-19-3.13600E-19
 -1      3509 1.03332E-04-5.04629E-05-2.24812E-05-2.19587E-05-9.70541E-19 1.51725E-19
 -1      3510 1.31990E-04-5.57037E-05-3.27142E-05-8.91618E-06 3.38952E-19 4.84983E-18
 -1      3511 1.34845E-04-6.12135E-05-3.15450E-05-9.93593E-07 4.48061E-19 4.46028E-18
 -1      3512 1.29702E-04-6.09383E-05-2.95859E-05 4.69285E-06 2.39644E-19 4.86901E-18
 -1      3513 9.55457E-05-2.89795E-05-2.85272E-05-7.55001E-07 4.33011E-19 6.65467E-19
 -1      3514 9.55642E-05-2.89902E-05-2.85315E-05-8.13367E-07 3.93522E-19 8.50087E-19
 -1      3515 9.57638E-05-2.90830E-05-2.85791E-05-7.99351E-07 3.81605E-19 6.67924E-19
 -1      3516 9.56695E-05-2.90464E-05-2.85541E-05-6.95784E-07 4.55407E-20 8.89853E-19
 -1      3517 1.33599E-04-5.02274E-05-3.58443E-05-1.72313E-05 8.74548E-19 4.59322E-18
 -1      3518 9.59178E-05-2.85293E-05-2.88831E-05-8.42609E-07 4.80660E-19-1.44104E-19
 -1      3519 9.59486E-05-2.83383E-05-2.89692E-05-6.94914E-07 4.49174E-19-1.34951E-19
 -1      3520 9.61762E-05-2.81510E-05-2.91560E-05-4.93756E-07 6.53655E-19-2.25310E-19
 -1      3521 9.56918E-05-2.89957E-05-2.85833E-05-9.61632E-07 6.70866E-19 5.38059E-20
 -1      3522 9.57186E-05-2.89690E-05-2.86053E-05-9.94811E-07 6.23272E-19 6.03728E-20
 -1      3523 9.59729E-05-2.90296E-05-2.86922E-05-9.37649E-07 7.11024E-19-2.61021E-19
 -1      3524 9.58666E-05-2.90844E-05-2.86228E-05-8.87281E-07 3.09315E-19 1.88363E-19
 -1      3525 5.62919E-05-2.02761E-05-1.52427E-05 1.56621E-05 2.36712E-18-7.76623E-20
 -1      3526 5.18396E-05-1.71288E-05-1.46323E-05 5.12661E-06 1.55929E-18-3.08532E-19
 -1      3527 9.56682E-05-2.55198E-05-3.00602E-05-1.49533E-06-6.39952E-19-1.28958E-18
 -1      3528 9.58281E-05-2.62588E-05-2.98247E-05-8.69567E-07-6.59289E-19-1.25465E-18
 -1      3529 9.59842E-05-2.62925E-05-2.98660E-05-7.07034E-07-5.46065E-19-1.30627E-18
 -1      3530 5.20678E-05-1.73364E-05-1.45926E-05-3.86098E-06 1.62079E-18-1.87613E-18
 -1      3531 5.81523E-05-2.15092E-05-1.55469E-05-1.38970E-05 1.26224E-19-2.06930E-18
 -1      3532 5.79148E-05-1.79591E-05-1.68359E-05 9.79602E-07 1.86838E-18-9.24828E-19
 -1      3533 9.24115E-05-4.34372E-05-2.08499E-05-2.48607E-05-1.23945E-18-1.33810E-18
 -1      3534 1.03324E-04-4.62331E-05-2.43135E-05-1.78560E-05-1.75998E-19 1.14780E-20
 -1      3535 9.78339E-05-4.04344E-05-2.44866E-05-1.77902E-05 1.34938E-20 1.40505E-19
 -1      3536 8.51496E-05-3.68306E-05-2.06952E-05-2.28436E-05-1.08175E-18-1.62355E-18
 -1      3537 6.45540E-05-2.42283E-05-1.68820E-05-1.76001E-05-6.52579E-19-2.22857E-18
 -1      3538 7.24806E-05-2.83585E-05-1.87628E-05-1.95758E-05-5.74753E-19-3.40311E-18
 -1      3539 6.33772E-05-2.09781E-05-1.80740E-05-1.17977E-05 3.81224E-19-9.06008E-19
 -1      3540 9.49341E-05-2.35232E-05-3.06220E-05 3.04793E-06 1.44600E-18-4.85929E-19
 -1      3541 9.46628E-05-2.28242E-05-3.07885E-05 2.80318E-06 1.23588E-18-8.49938E-19
 -1      3542 9.31275E-05-1.96085E-05-3.14915E-05-5.85828E-07 3.39806E-19-1.95806E-18
 -1      3543 1.23544E-04-5.49960E-05-2.93799E-05 1.23201E-06-8.01649E-19 4.26676E-18
 -1      3544 1.25088E-04-5.35906E-05-3.05645E-05-5.00437E-06-1.40258E-18 2.92358E-18
 -1      3545 1.27348E-04-5.29530E-05-3.19894E-05-9.57769E-06-5.22487E-19 2.52864E-18
 -1      3546 8.99181E-05-3.56093E-05-2.32963E-05-1.91788E-05-4.05319E-20-7.57016E-19
 -1      3547 9.58665E-05-2.62687E-05-2.98281E-05 8.84125E-07 1.02343E-18-3.92477E-19
 -1      3548 9.57076E-05-2.62683E-05-2.97672E-05 1.05450E-06 1.01635E-18-9.63157E-20
 -1      3549 9.56168E-05-2.57119E-05-2.99552E-05 1.65196E-06 1.11854E-18-1.64769E-19
 -1      3550 1.16351E-04-6.03843E-05-2.38479E-05 2.55222E-05-4.16687E-19 5.94517E-18
 -1      3551 1.07536E-04-5.47406E-05-2.25062E-05 2.71595E-05 3.86988E-19 4.14571E-18
 -1      3552 1.21309E-04-6.06958E-05-2.61407E-05 1.76115E-05-9.22207E-19 8.05438E-18
 -1      3553 9.61502E-05-2.86157E-05-2.89460E-05-7.90146E-07 5.25588E-19-4.94739E-19
 -1      3554 9.20660E-05-4.57587E-05-1.98650E-05 3.10750E-05 1.93338E-18 2.30660E-18
 -1      3555 8.23491E-05-4.07559E-05-1.73878E-05 3.30811E-05 3.29149E-18 1.36171E-18
 -1      3556 7.78428E-05-3.55094E-05-1.80273E-05 2.93262E-05 2.71564E-18 9.40974E-19
 -1      3557 9.45458E-05-2.25131E-05-3.08631E-05-2.67678E-06-6.11327E-19-1.74076E-18
 -1      3558 9.50398E-05-2.36817E-05-3.05859E-05-2.69688E-06-8.21448E-19-1.57681E-18
 -1      3559 9.53408E-05-2.46393E-05-3.03086E-05-1.95250E-06-7.39821E-19-1.47806E-18
 -1      3560 9.41650E-05-2.16605E-05-3.10734E-05-1.92981E-06-3.51488E-19-1.79182E-18
 -1      3561 9.43822E-05-2.21323E-05-3.09748E-05-2.35194E-06-4.98586E-19-1.79892E-18
 -1      3562 9.49463E-05-2.33225E-05-3.06901E-05-1.80133E-06-4.62382E-19-1.68397E-18
 -1      3563 9.38570E-05-2.10445E-05-3.12172E-05 8.07252E-07 7.37787E-19-1.96991E-18
 -1      3564 9.38082E-05-2.09454E-05-3.12365E-05 2.46710E-07 5.71549E-19-2.11126E-18
 -1      3565 9.54554E-05-2.46771E-05-3.03280E-05-1.62143E-06-5.82630E-19-1.52891E-18
 -1      3566 6.06636E-05-2.25374E-05-1.59548E-05 1.92109E-05 2.56382E-18-1.46759E-18
 -1      3567 6.14315E-05-2.02878E-05-1.75521E-05 1.34619E-05 1.56741E-18 9.37295E-20
 -1      3568 6.65549E-05-2.62162E-05-1.71651E-05 2.24813E-05 2.58970E-18-1.36785E-18
 -1      3569 9.40823E-05-2.15075E-05-3.11175E-05 1.76419E-06 1.10609E-18-1.34043E-18
 -1      3570 9.39449E-05-2.12166E-05-3.11764E-05 1.24567E-06 8.86129E-19-1.63366E-18
 -1      3571 9.46022E-05-2.23844E-05-3.09337E-05 8.25557E-07 7.83145E-19-1.58273E-18
 -1      3572 9.51621E-05-2.44079E-05-3.03166E-05 2.86205E-06 1.44860E-18-5.96554E-20
 -1      3573 9.54157E-05-2.50607E-05-3.01454E-05 2.08528E-06 1.29781E-18-1.67143E-19
 -1      3574 1.28598E-04-5.08543E-05-3.33152E-05-1.42098E-05 6.89809E-19 1.86711E-18
 -1      3575 1.22688E-04-5.75435E-05-2.77642E-05 9.28628E-06-6.81570E-19 4.42602E-18
 -1      3576 9.50840E-05-2.36987E-05-3.05831E-05 2.07497E-06 1.12609E-18-9.24306E-19
 -1      3577 9.44574E-05-2.23336E-05-3.09267E-05 2.55690E-06 1.31413E-18-1.06811E-18
 -1      3578 9.42441E-05-2.18458E-05-3.10324E-05 2.13276E-06 1.11403E-18-1.13893E-18
 -1      3579 9.65099E-05-2.80198E-05-2.93483E-05 2.98606E-07-5.65975E-19-7.44622E-19
 -1      3580 9.65214E-05-2.83435E-05-2.92228E-05 4.79250E-07-6.81734E-19-6.50623E-19
 -1      3581 9.65304E-05-2.86073E-05-2.91061E-05 5.78772E-07-7.07665E-19-6.71236E-19
 -1      3582 9.64991E-05-2.88055E-05-2.90134E-05 6.72736E-07-7.72565E-19-5.93301E-19
 -1      3583 9.66603E-05-2.84329E-05-2.92408E-05 4.29243E-07-6.02873E-19-5.59998E-19
 -1      3584 9.64587E-05-2.89575E-05-2.89262E-05 7.14069E-07-7.72936E-19-4.29953E-19
 -1      3585 9.64051E-05-2.90678E-05-2.88594E-05 7.48051E-07-5.78065E-19-4.56809E-19
 -1      3586 9.66285E-05-2.88878E-05-2.90330E-05 5.83891E-07-7.36794E-19-3.54264E-19
 -1      3587 9.63379E-05-2.91430E-05-2.87958E-05 7.50327E-07-2.42303E-19-4.96886E-19
 -1      3588 9.62750E-05-2.91933E-05-2.87490E-05 7.45321E-07-2.99814E-19-5.41267E-19
 -1      3589 9.65214E-05-2.91417E-05-2.88788E-05 6.41736E-07-4.25477E-19-3.22336E-19
 -1      3590 9.61961E-05-2.92170E-05-2.87040E-05 7.23522E-07-3.27809E-19-4.05531E-19
 -1      3591 9.61319E-05-2.92275E-05-2.86724E-05 6.95474E-07-1.07237E-19-2.09850E-19
 -1      3592 9.63764E-05-2.92575E-05-2.87672E-05 6.35500E-07-2.39448E-19-8.13644E-20
 -1      3593 9.60509E-05-2.92183E-05-2.86417E-05 6.60704E-07-2.77534E-19-6.44872E-20
 -1      3594 9.59900E-05-2.92035E-05-2.86217E-05 6.21001E-07-5.55113E-19-9.85644E-20
 -1      3595 9.62180E-05-2.92815E-05-2.86890E-05 5.90946E-07-1.72289E-19 2.75526E-19
 -1      3596 9.59127E-05-2.91738E-05-2.86019E-05 5.81088E-07-7.26856E-19-1.67258E-19
 -1      3597 9.58574E-05-2.91435E-05-2.85905E-05 5.37773E-07-6.70691E-19 9.54055E-20
 -1      3598 9.60612E-05-2.92468E-05-2.86365E-05 5.26647E-07-5.28602E-19 3.92432E-19
 -1      3599 9.57865E-05-2.91019E-05-2.85790E-05 4.98210E-07-3.93408E-19 1.64680E-19
 -1      3600 9.57376E-05-2.90624E-05-2.85739E-05 4.56825E-07-2.12739E-19 5.99517E-20
 -1      3601 9.59145E-05-2.91762E-05-2.86036E-05 4.55924E-07-4.95760E-19 5.93629E-19
 -1      3602 9.56741E-05-2.90141E-05-2.85686E-05 4.21356E-07-2.43336E-19-1.55702E-19
 -1      3603 9.56312E-05-2.89692E-05-2.85683E-05 3.85688E-07-4.24443E-19-2.70043E-19
 -1      3604 9.57814E-05-2.90843E-05-2.85857E-05 3.88101E-07-2.36071E-19 3.01580E-19
 -1      3605 9.55745E-05-2.89169E-05-2.85678E-05 3.56813E-07-4.84575E-19-1.07373E-20
 -1      3606 9.55366E-05-2.88683E-05-2.85710E-05 3.29506E-07-6.38364E-19 2.57187E-19
 -1      3607 9.56623E-05-2.89800E-05-2.85791E-05 3.29530E-07-2.97566E-19 3.41589E-19
 -1      3608 9.54850E-05-2.88129E-05-2.85742E-05 3.09098E-07-5.52225E-19 4.34334E-19
 -1      3609 9.54505E-05-2.87609E-05-2.85802E-05 2.92239E-07-4.24036E-19 9.64583E-19
 -1      3610 9.55550E-05-2.88673E-05-2.85812E-05 2.84628E-07-3.75825E-19 5.84534E-19
 -1      3611 9.54016E-05-2.87019E-05-2.85862E-05 2.81838E-07-2.67724E-19 1.39910E-18
 -1      3612 9.53685E-05-2.86456E-05-2.85945E-05 2.77203E-07-5.53094E-20 1.65846E-18
 -1      3613 9.54555E-05-2.87468E-05-2.85899E-05 2.56962E-07 8.33139E-22 1.15139E-18
 -1      3614 9.53193E-05-2.85813E-05-2.86028E-05 2.78283E-07-4.92528E-20 2.00909E-18
 -1      3615 9.52850E-05-2.85189E-05-2.86131E-05 2.87739E-07-9.76946E-22 1.88230E-18
 -1      3616 9.53585E-05-2.86164E-05-2.86039E-05 2.49516E-07 2.02946E-19 1.78786E-18
 -1      3617 9.52319E-05-2.84470E-05-2.86232E-05 3.02028E-07-2.41828E-19 1.90146E-18
 -1      3618 9.51938E-05-2.83762E-05-2.86352E-05 3.27707E-07 1.55216E-19 1.80988E-18
 -1      3619 9.52572E-05-2.84719E-05-2.86221E-05 2.65480E-07-2.04623E-19 2.29366E-18
 -1      3620 9.51326E-05-2.82936E-05-2.86468E-05 3.57298E-07 4.72654E-19 1.51219E-18
 -1      3621 9.50876E-05-2.82116E-05-2.86602E-05 4.01734E-07 3.96623E-19 1.33849E-18
 -1      3622 9.51440E-05-2.83078E-05-2.86435E-05 3.08585E-07 1.15523E-19 2.34600E-18
 -1      3623 9.50137E-05-2.81152E-05-2.86727E-05 4.49209E-07 2.39815E-19 1.16682E-18
 -1      3624 9.49586E-05-2.80194E-05-2.86872E-05 5.15419E-07 2.33706E-19 1.11002E-18
 -1      3625 9.50102E-05-2.81177E-05-2.86673E-05 3.83315E-07 1.77337E-19 1.35677E-18
 -1      3626 9.48670E-05-2.79059E-05-2.87000E-05 5.83951E-07 1.66408E-19 4.64062E-19
 -1      3627 9.47983E-05-2.77939E-05-2.87150E-05 6.75456E-07 3.62950E-19 3.61151E-19
 -1      3628 9.48463E-05-2.78948E-05-2.86921E-05 4.95157E-07-1.71593E-19 1.29410E-18
 -1      3629 9.46838E-05-2.76609E-05-2.87271E-05 7.68869E-07 3.80557E-19-1.08675E-19
 -1      3630 9.45982E-05-2.75312E-05-2.87417E-05 8.89644E-07 2.93105E-20 2.17313E-19
 -1      3631 9.46421E-05-2.76332E-05-2.87162E-05 6.50767E-07 4.41076E-20 1.09437E-18
 -1      3632 9.44557E-05-2.73773E-05-2.87515E-05 1.01245E-06-3.52851E-19-1.52636E-19
 -1      3633 9.43507E-05-2.72304E-05-2.87643E-05 1.16680E-06-5.04252E-19 3.83241E-19
 -1      3634 9.43872E-05-2.73287E-05-2.87368E-05 8.58088E-07-2.82027E-19 4.88610E-19
 -1      3635 9.41757E-05-2.70566E-05-2.87697E-05 1.32421E-06-7.52049E-19 3.58562E-19
 -1      3636 9.40500E-05-2.68958E-05-2.87786E-05 1.51660E-06-8.15396E-19 4.70624E-19
 -1      3637 9.40722E-05-2.69806E-05-2.87503E-05 1.12645E-06-4.98480E-19 7.07389E-19
 -1      3638 9.38397E-05-2.67066E-05-2.87765E-05 1.71459E-06-5.12593E-19 1.65273E-19
 -1      3639 9.36946E-05-2.65398E-05-2.87784E-05 1.94940E-06-4.95779E-19 1.63087E-19
 -1      3640 9.36894E-05-2.65943E-05-2.87513E-05 1.46674E-06-8.09478E-19 5.79068E-19
 -1      3641 9.34492E-05-2.63451E-05-2.87649E-05 2.19481E-06-2.09537E-19 1.64068E-19
 -1      3642 9.32904E-05-2.61870E-05-2.87557E-05 2.47611E-06 1.83378E-19 8.78842E-19
 -1      3643 9.32361E-05-2.61840E-05-2.87323E-05 1.89166E-06-6.46461E-20 5.45679E-19
 -1      3644 9.30151E-05-2.60049E-05-2.87254E-05 2.77691E-06 3.27493E-20 5.37641E-19
 -1      3645 9.28558E-05-2.58798E-05-2.87001E-05 3.10826E-06-1.49130E-19 9.63122E-19
 -1      3646 9.27167E-05-2.57774E-05-2.86836E-05 2.41639E-06 1.30959E-19 1.23263E-18
 -1      3647 9.25635E-05-2.57389E-05-2.86463E-05 3.47411E-06-7.88950E-19 1.35523E-18
 -1      3648 9.24280E-05-2.56843E-05-2.85989E-05 3.85850E-06-8.16762E-19 1.59081E-18
 -1      3649 9.21486E-05-2.54207E-05-2.85931E-05 3.05970E-06-1.87614E-19 2.07625E-18
 -1      3650 9.21438E-05-2.56284E-05-2.85140E-05 4.30161E-06-1.04951E-18 1.49608E-18
 -1      3651 9.20733E-05-2.56996E-05-2.84377E-05 4.74142E-06-1.49879E-18 7.48908E-19
 -1      3652 9.15680E-05-2.51857E-05-2.84459E-05 3.84598E-06-1.21958E-18 2.42335E-18
 -1      3653 9.18403E-05-2.57915E-05-2.83135E-05 5.27773E-06-1.10894E-18 2.16888E-19
 -1      3654 9.19010E-05-2.60667E-05-2.82023E-05 5.77420E-06 2.23813E-19-1.72427E-19
 -1      3655 9.10400E-05-2.51778E-05-2.82253E-05 4.80830E-06-1.66240E-18 1.85968E-18
 -1      3656 9.17888E-05-2.63941E-05-2.80313E-05 6.42406E-06 1.46798E-18-3.31204E-19
 -1      3657 9.20827E-05-2.69803E-05-2.78824E-05 6.97471E-06 1.61597E-18 2.49724E-20
 -1      3658 9.06726E-05-2.55467E-05-2.79142E-05 5.99189E-06 5.10721E-19 7.54245E-19
 -1      3659 9.22016E-05-2.76615E-05-2.76604E-05 7.76078E-06 1.65097E-18 7.10907E-19
 -1      3660 9.28797E-05-2.86990E-05-2.74785E-05 8.35100E-06 1.55903E-18 1.65893E-18
 -1      3661 9.06376E-05-2.64998E-05-2.74989E-05 7.45578E-06 2.18338E-18 7.66143E-19
 -1      3662 9.34029E-05-2.98882E-05-2.72107E-05 9.28733E-06 2.27084E-19 1.54030E-18
 -1      3663 9.46791E-05-3.15518E-05-2.70170E-05 9.86966E-06-1.29939E-18 1.54541E-18
 -1      3664 9.12059E-05-2.83201E-05-2.69766E-05 9.26507E-06 1.08014E-18 1.91067E-18
 -1      3665 9.58774E-05-3.34401E-05-2.67297E-05 1.09249E-05-1.58856E-18 2.29309E-18
 -1      3666 9.80332E-05-3.59133E-05-2.65764E-05 1.13635E-05-1.13233E-18 2.53324E-18
 -1      3667 9.28012E-05-3.13857E-05-2.63723E-05 1.14534E-05-6.15976E-19 2.64379E-18
 -1      3668 1.00330E-04-3.87209E-05-2.63328E-05 1.23988E-05-1.06278E-18 2.34902E-18
 -1      3669 1.03668E-04-4.21515E-05-2.63259E-05 1.23828E-05-5.35517E-19 2.54315E-18
 -1      3670 9.60742E-05-3.61838E-05-2.57666E-05 1.39403E-05-9.95844E-19 3.63555E-18
 -1      3671 1.07586E-04-4.58116E-05-2.62821E-05 1.27982E-05 8.76871E-19 3.47589E-18
 -1      3672 1.12009E-04-5.01360E-05-2.65308E-05 1.20348E-05 6.79545E-19 4.17300E-18
 -1      3673 1.02087E-04-4.32581E-05-2.53531E-05 1.61986E-05 1.12781E-18 3.95147E-18
 -1      3674 9.59936E-05-2.63815E-05-2.98428E-05 6.14947E-07 1.07022E-18-8.83138E-19
 -1      3675 9.58046E-05-2.56394E-05-3.00664E-05 1.13190E-06 1.05064E-18-8.44853E-19
 -1      3676 9.62622E-05-2.89897E-05-2.88318E-05-8.35909E-07 5.75229E-19-4.76010E-19
 -1      3677 9.63099E-05-2.88769E-05-2.88965E-05-7.94791E-07 6.23224E-19-4.93307E-19
 -1      3678 9.55848E-05-2.89496E-05-2.85567E-05-4.37116E-07-1.88514E-19 9.60714E-19
 -1      3679 9.56190E-05-2.89887E-05-2.85560E-05-4.78191E-07-1.82681E-19 8.00738E-19
 -1      3680 9.56761E-05-2.90319E-05-2.85605E-05-5.19418E-07-3.97906E-19 7.82584E-19
 -1      3681 9.57157E-05-2.90656E-05-2.85643E-05-5.66388E-07-2.69306E-19 9.11358E-19
 -1      3682 9.57368E-05-2.90638E-05-2.85753E-05-4.55311E-07-3.24424E-19 8.28108E-19
 -1      3683 9.54332E-05-2.87648E-05-2.85711E-05-3.24489E-07 3.40571E-19 6.10247E-19
 -1      3684 9.54595E-05-2.88104E-05-2.85644E-05-3.45711E-07 1.93172E-19 6.54991E-19
 -1      3685 9.53664E-05-2.86625E-05-2.85863E-05-3.02110E-07 4.55627E-19 5.86464E-19
 -1      3686 9.53910E-05-2.87119E-05-2.85775E-05-3.10353E-07 6.16534E-19 5.79102E-19
 -1      3687 9.54488E-05-2.87583E-05-2.85821E-05-2.94297E-07 4.23836E-19-3.00755E-19
 -1      3688 9.52998E-05-2.85501E-05-2.86059E-05-3.07126E-07 3.72555E-19 6.80883E-19
 -1      3689 9.53247E-05-2.86050E-05-2.85951E-05-3.00472E-07 3.14674E-19 8.28752E-19
 -1      3690 9.53658E-05-2.86403E-05-2.85969E-05-2.80614E-07 3.90043E-19 2.00902E-19
 -1      3691 9.52276E-05-2.84230E-05-2.86295E-05-3.43478E-07 5.27037E-19 1.00401E-18
 -1      3692 9.52552E-05-2.84857E-05-2.86167E-05-3.19710E-07 3.66697E-19 9.34330E-19
 -1      3693 9.52804E-05-2.85095E-05-2.86160E-05-2.92610E-07 3.20276E-19 5.97863E-19
 -1      3694 9.51432E-05-2.82749E-05-2.86567E-05-4.15890E-07 3.24559E-19 1.31023E-18
 -1      3695 9.51763E-05-2.83484E-05-2.86420E-05-3.72367E-07 6.77226E-19 1.23297E-18
 -1      3696 9.51854E-05-2.83603E-05-2.86390E-05-3.34041E-07 2.62437E-19 8.20586E-19
 -1      3697 9.50384E-05-2.80984E-05-2.86874E-05-5.29991E-07 2.89946E-19 1.17604E-18
 -1      3698 9.50804E-05-2.81863E-05-2.86708E-05-4.63564E-07 4.73020E-19 1.33742E-18
 -1      3699 9.50725E-05-2.81854E-05-2.86651E-05-4.09277E-07 5.98432E-19 1.21779E-18
 -1      3700 9.49036E-05-2.78852E-05-2.87209E-05-6.92352E-07 1.03363E-19 9.07998E-19
 -1      3701 9.49587E-05-2.79915E-05-2.87026E-05-5.99358E-07 1.07736E-19 1.05144E-18
 -1      3702 9.49314E-05-2.79764E-05-2.86938E-05-5.23385E-07 2.04125E-19 1.04029E-18
 -1      3703 9.47269E-05-2.76261E-05-2.87562E-05-9.10327E-07 4.54265E-19 9.14614E-19
 -1      3704 9.48002E-05-2.77551E-05-2.87366E-05-7.86687E-07 4.50979E-19 9.89735E-19
 -1      3705 9.47502E-05-2.77239E-05-2.87237E-05-6.82061E-07 1.20734E-19 1.21686E-18
 -1      3706 9.44941E-05-2.73116E-05-2.87911E-05-1.19168E-06-1.74468E-19 4.00515E-19
 -1      3707 9.45919E-05-2.74677E-05-2.87713E-05-1.03311E-06 3.22190E-19 5.33951E-19
 -1      3708 9.45145E-05-2.74178E-05-2.87531E-05-8.91360E-07 7.15760E-19 8.49668E-19
 -1      3709 9.41876E-05-2.69324E-05-2.88224E-05-1.54398E-06-2.03306E-19-5.61121E-19
 -1      3710 9.43179E-05-2.71198E-05-2.88039E-05-1.34631E-06-1.70953E-19 1.60203E-19
 -1      3711 9.42070E-05-2.70480E-05-2.87788E-05-1.15720E-06-1.00452E-20-3.00312E-19
 -1      3712 9.37869E-05-2.64806E-05-2.88446E-05-1.97376E-06-5.93876E-19-2.30910E-19
 -1      3713 9.39591E-05-2.67026E-05-2.88300E-05-1.73343E-06-3.75916E-19-2.71622E-19
 -1      3714 9.38072E-05-2.66049E-05-2.87960E-05-1.48465E-06-1.88732E-19-2.66465E-19
 -1      3715 9.32673E-05-2.59512E-05-2.88492E-05-2.48564E-06-1.06290E-19-9.01023E-19
 -1      3716 9.34927E-05-2.62093E-05-2.88429E-05-2.20017E-06-3.76110E-19-1.94316E-19
 -1      3717 9.32911E-05-2.60810E-05-2.87977E-05-1.87706E-06-6.66366E-19-5.10855E-19
 -1      3718 9.26010E-05-2.53454E-05-2.88239E-05-3.08159E-06-9.57499E-19 5.18845E-19
 -1      3719 9.28921E-05-2.56374E-05-2.88321E-05-2.74996E-06-5.99667E-19 8.81155E-20
 -1      3720 9.26304E-05-2.54726E-05-2.87731E-05-2.33522E-06-7.82418E-19 5.76479E-19
 -1      3721 9.17577E-05-2.46748E-05-2.87506E-05-3.76119E-06-4.58480E-19 4.35543E-19
 -1      3722 9.21274E-05-2.49926E-05-2.87827E-05-3.38374E-06-4.22092E-19 7.64280E-19
 -1      3723 9.17931E-05-2.47830E-05-2.87071E-05-2.85706E-06-9.60159E-19 9.40329E-19
 -1      3724 9.07082E-05-2.39690E-05-2.86039E-05-4.52432E-06-8.78157E-19 5.36959E-19
 -1      3725 9.11670E-05-2.42938E-05-2.86729E-05-4.10131E-06-5.96671E-19 5.42321E-19
 -1      3726 9.07434E-05-2.40263E-05-2.85782E-05-3.43894E-06-7.26613E-19 8.18430E-19
 -1      3727 8.94298E-05-2.32865E-05-2.83484E-05-5.37863E-06-6.42924E-19 1.21722E-18
 -1      3728 8.99805E-05-2.35825E-05-2.84726E-05-4.90624E-06-1.17228E-18 9.30994E-19
 -1      3729 8.94429E-05-2.32338E-05-2.83563E-05-4.08023E-06-1.03895E-18 1.76339E-18
 -1      3730 8.79183E-05-2.27313E-05-2.79366E-05-6.35557E-06 1.22997E-19 5.45727E-19
 -1      3731 8.85463E-05-2.29351E-05-2.81399E-05-5.81747E-06 6.49341E-20 1.07319E-18
 -1      3732 8.78522E-05-2.24622E-05-2.80001E-05-4.79453E-06-3.40735E-19 1.87478E-18
 -1      3733 8.62073E-05-2.24771E-05-2.73063E-05-7.53886E-06-1.29100E-19 5.91857E-19
 -1      3734 8.68627E-05-2.24831E-05-2.76192E-05-6.89161E-06-1.79556E-20 5.90980E-19
 -1      3735 8.59344E-05-2.18058E-05-2.74533E-05-5.63174E-06 3.52379E-20 1.51328E-18
 -1      3736 8.43927E-05-2.28009E-05-2.63784E-05-9.11320E-06-1.21354E-18 3.60801E-19
 -1      3737 8.49709E-05-2.24422E-05-2.68371E-05-8.26380E-06-4.43277E-19-1.03697E-19
 -1      3738 8.36563E-05-2.14090E-05-2.66394E-05-6.71849E-06-7.94426E-20 9.90032E-19
 -1      3739 8.27454E-05-2.41625E-05-2.50558E-05-1.13946E-05-3.44164E-19 1.19528E-19
 -1      3740 8.29971E-05-2.31536E-05-2.56993E-05-1.01903E-05-9.79638E-19 2.56234E-19
 -1      3741 8.10458E-05-2.15168E-05-2.54524E-05-8.35261E-06-7.85742E-19 7.87526E-20
 -1      3742 8.15565E-05-2.72530E-05-2.31859E-05-1.51761E-05 1.43058E-19-1.48822E-18
 -1      3743 8.11251E-05-2.50846E-05-2.40815E-05-1.32520E-05 2.72016E-19-8.93802E-20
 -1      3744 7.78586E-05-2.23539E-05-2.37217E-05-1.09521E-05 4.36325E-19-4.35603E-19
 -1      3745 9.54400E-05-2.48533E-05-3.02474E-05 1.84615E-06 1.13235E-18-4.42158E-19
 -1      3746 9.45253E-05-2.22097E-05-3.09756E-05 1.42812E-08 3.99939E-19-1.82703E-18
 -1      3747 9.38091E-05-2.09422E-05-3.12372E-05-2.13583E-07 4.15741E-19-1.86285E-18
 -1      3748 9.38500E-05-2.10348E-05-3.12183E-05-7.73718E-07 1.26617E-19-1.67196E-18
 -1      3749 9.63677E-05-2.82621E-05-2.91922E-05-5.05660E-07 5.69522E-19-5.73823E-19
 -1      3750 9.63626E-05-2.79402E-05-2.93177E-05-2.96005E-07 7.89908E-19-4.65441E-19
 -1      3751 9.39218E-05-2.11653E-05-3.11869E-05-1.10937E-06 6.48615E-20-1.60423E-18
 -1      3752 9.40542E-05-2.14425E-05-3.11312E-05-1.62518E-06-2.00372E-19-1.72983E-18
 -1      3753 9.47274E-05-2.27030E-05-3.08545E-05-1.26240E-06-2.56357E-19-1.50585E-18
 -1      3754 9.45882E-05-2.23496E-05-3.09423E-05-6.98902E-07 2.39901E-20-1.50820E-18
 -1      3755 9.55047E-05-2.88601E-05-2.85608E-05-3.70718E-07 1.23208E-19 3.85582E-19
 -1      3756 9.55343E-05-2.89026E-05-2.85568E-05-4.02959E-07-9.88715E-20 7.87754E-19
 -1      3757 9.56302E-05-2.89696E-05-2.85698E-05-3.85327E-07-3.94388E-20 5.15328E-19
 -1      3758 9.55354E-05-2.88675E-05-2.85727E-05-3.30369E-07 1.93991E-19 2.81507E-19
 -1      3759 9.62753E-05-2.75211E-05-2.94731E-05-7.28502E-08 7.75480E-19-6.13392E-19
 -1      3760 9.62087E-05-2.70276E-05-2.96417E-05 2.72328E-07 8.39704E-19-5.78547E-19
 -1      3761 9.61474E-05-2.64672E-05-2.98626E-05 4.70002E-07 8.11167E-19-9.44893E-19
 -1      3762 9.64367E-05-2.75970E-05-2.95021E-05-1.05719E-07 6.81947E-19-7.04665E-19
 -1      3763 9.53886E-05-2.43573E-05-3.04497E-05-1.48969E-06-4.22432E-19-1.66205E-18
 -1      3764 9.57155E-05-2.52226E-05-3.02101E-05-1.05703E-06-3.86553E-19-1.50959E-18
 -1      3765 9.52678E-05-2.39635E-05-3.05577E-05-1.25299E-06-2.81965E-19-1.48333E-18
 -1      3766 9.63305E-05-2.70990E-05-2.96685E-05-1.80204E-07-3.50355E-19-9.82554E-19
 -1      3767 9.64194E-05-2.75954E-05-2.95011E-05 1.18687E-07-4.47678E-19-9.41129E-19
 -1      3768 9.65641E-05-2.76968E-05-2.95143E-05 1.37791E-07-3.62438E-19-5.39327E-19
 -1      3769 9.59745E-05-2.59056E-05-3.00314E-05-7.97375E-07-2.82116E-19-1.39267E-18
 -1      3770 9.61801E-05-2.66136E-05-2.98180E-05-3.69596E-07-3.41429E-19-1.23277E-18
 -1      3771 9.63232E-05-2.67350E-05-2.98216E-05-2.57094E-07-1.58489E-19-9.57847E-19
 -1      3772 9.59325E-05-2.55836E-05-3.01472E-05-7.10556E-07-1.28897E-19-1.16575E-18
 -1      3773 9.63467E-05-2.87236E-05-2.89834E-05-7.40086E-07 5.70742E-19-5.82569E-19
 -1      3774 9.63771E-05-2.85254E-05-2.90747E-05-6.29977E-07 4.08996E-19-5.20612E-19
 -1      3775 9.65060E-05-2.88077E-05-2.90151E-05-6.61882E-07 5.00830E-19-4.79056E-19
 -1      3776 6.11465E-05-1.78424E-05-1.84483E-05 4.45098E-06 2.29623E-18-9.74035E-19
 -1      3777 6.13313E-05-1.80036E-05-1.84556E-05-3.39470E-06 1.73655E-18-9.42959E-19
 -1      3778 7.79779E-05-3.07715E-05-2.00517E-05-2.08149E-05-8.09095E-19-2.87033E-18
 -1      3779 8.55364E-05-3.35804E-05-2.21359E-05-1.94539E-05-6.08633E-19-1.28851E-18
 -1      3780 8.28448E-05-2.99242E-05-2.26806E-05-1.75031E-05-3.91237E-19-1.56661E-18
 -1      3781 7.34627E-05-2.58433E-05-2.04143E-05-1.65682E-05 1.40925E-19-2.69491E-18
 -1      3782 9.55836E-05-2.50714E-05-3.02222E-05 1.37816E-06 1.03072E-18-9.23276E-19
 -1      3783 9.53599E-05-2.44111E-05-3.04118E-05 1.78644E-06 1.00922E-18-9.76289E-19
 -1      3784 9.52160E-05-2.39361E-05-3.05466E-05 1.60575E-06 1.09498E-18-1.30471E-18
 -1      3785 9.57146E-05-2.51833E-05-3.02248E-05 1.08972E-06 1.00870E-18-1.30891E-18
 -1      3786 1.16031E-04-5.52460E-05-2.60445E-05 1.60069E-05-1.91469E-19 6.38088E-18
 -1      3787 6.67785E-05-1.87390E-05-2.05093E-05-3.77161E-06 1.78330E-18 5.02264E-19
 -1      3788 6.40409E-05-1.89715E-05-1.91381E-05-7.20976E-06 9.13796E-19 1.60275E-20
 -1      3789 6.83152E-05-2.12842E-05-2.01752E-05-1.10455E-05 8.12932E-19-9.93609E-19
 -1      3790 9.58568E-05-2.91457E-05-2.85919E-05-5.35079E-07-2.14531E-19 1.00194E-18
 -1      3791 9.57799E-05-2.91022E-05-2.85749E-05-6.11683E-07-2.70394E-19 9.02759E-19
 -1      3792 9.58253E-05-2.91268E-05-2.85847E-05-6.60303E-07 9.66692E-21 8.28569E-19
 -1      3793 7.72638E-05-2.55639E-05-2.21436E-05-1.50919E-05-7.76160E-20-1.66467E-18
 -1      3794 9.50448E-05-2.33262E-05-3.07442E-05 1.96944E-07 4.64891E-19-1.68998E-18
 -1      3795 9.50421E-05-2.33243E-05-3.07440E-05-1.75360E-07 1.81485E-19-1.54530E-18
 -1      3796 9.65332E-05-2.83452E-05-2.92242E-05-4.66857E-07 5.29264E-19-7.40311E-19
 -1      3797 9.58956E-05-2.91516E-05-2.86035E-05-7.05230E-07 2.02952E-19 5.79395E-19
 -1      3798 9.59463E-05-2.91608E-05-2.86215E-05-7.49276E-07 1.58728E-19 2.83713E-19
 -1      3799 9.59898E-05-2.92062E-05-2.86233E-05-6.16999E-07-8.78542E-20 3.95445E-19
 -1      3800 6.50924E-05-2.03148E-05-1.91388E-05 1.16169E-05 1.41885E-18-4.69508E-19
 -1      3801 6.24749E-05-1.84912E-05-1.86416E-05 7.82811E-06 2.03716E-18-3.54311E-19
 -1      3802 6.52355E-05-1.82619E-05-2.00455E-05 3.71025E-06 1.65458E-18-1.05378E-18
 -1      3803 9.61465E-05-2.91221E-05-2.87245E-05-8.39826E-07 3.58400E-19-1.84333E-19
 -1      3804 9.62006E-05-2.90676E-05-2.87690E-05-8.43469E-07 5.70215E-19-4.33076E-19
 -1      3805 9.64089E-05-2.90705E-05-2.88612E-05-7.39162E-07 5.19168E-19-4.85864E-19
 -1      3806 8.04649E-05-3.41430E-05-1.98337E-05 2.53814E-05 1.63096E-18 8.65456E-19
 -1      3807 7.29037E-05-2.95805E-05-1.82325E-05 2.50075E-05 2.30638E-18 1.20940E-19
 -1      3808 7.00300E-05-2.55464E-05-1.90703E-05 1.97652E-05 1.79822E-18-9.49418E-19
 -1      3809 9.60202E-05-2.91657E-05-2.86511E-05-7.87468E-07 9.05469E-20 2.55596E-19
 -1      3810 9.60744E-05-2.91499E-05-2.86805E-05-8.17907E-07 1.70863E-19 8.16524E-20
 -1      3811 9.62768E-05-2.91964E-05-2.87508E-05-7.38447E-07 9.59112E-20 6.27039E-21
 -1      3812 9.61325E-05-2.92307E-05-2.86741E-05-6.90057E-07 8.90462E-20-1.75305E-19
 -1      3813 9.47993E-05-2.28831E-05-3.08072E-05 1.54278E-06 1.11275E-18-1.18807E-18
 -1      3814 9.51235E-05-2.35560E-05-3.06809E-05 8.28175E-07 9.24856E-19-1.16459E-18
 -1      3815 9.50663E-05-2.33945E-05-3.07230E-05 4.82829E-07 6.41016E-19-1.62463E-18
 -1      3816 9.55752E-05-2.43635E-05-3.05038E-05 2.52446E-07 4.78564E-19-1.36738E-18
 -1      3817 9.57852E-05-2.90829E-05-2.85855E-05-3.75710E-07-1.47674E-19 5.94013E-19
 -1      3818 9.58425E-05-2.91288E-05-2.85913E-05-4.09876E-07-9.52178E-20 9.91273E-19
 -1      3819 9.67669E-05-2.82715E-05-2.93529E-05 2.82299E-07-5.64871E-19-6.37705E-19
 -1      3820 9.67775E-05-2.85746E-05-2.92322E-05 3.95427E-07-6.61589E-19-5.51089E-19
 -1      3821 9.67719E-05-2.88157E-05-2.91219E-05 4.42698E-07-6.27924E-19-2.23395E-19
 -1      3822 9.67326E-05-2.89959E-05-2.90310E-05 4.99109E-07-5.43674E-19-1.98421E-19
 -1      3823 9.68603E-05-2.86711E-05-2.92245E-05 3.14974E-07-5.32683E-19-3.33050E-19
 -1      3824 9.66788E-05-2.91298E-05-2.89477E-05 5.13719E-07-4.04799E-19-3.09143E-19
 -1      3825 9.66124E-05-2.92238E-05-2.88809E-05 5.31034E-07-3.83427E-19-2.00361E-19
 -1      3826 9.68000E-05-2.90698E-05-2.90286E-05 3.88562E-07-5.19633E-19 1.18511E-20
 -1      3827 9.65325E-05-2.92835E-05-2.88195E-05 5.23833E-07-2.19861E-19-1.48821E-19
 -1      3828 9.64539E-05-2.93184E-05-2.87718E-05 5.16193E-07 4.67973E-20-7.29483E-21
 -1      3829 9.66663E-05-2.92795E-05-2.88819E-05 4.09263E-07-2.44020E-19 2.76469E-20
 -1      3830 9.63636E-05-2.93291E-05-2.87279E-05 4.96726E-07 1.25777E-20 1.89333E-19
 -1      3831 9.62828E-05-2.93257E-05-2.86950E-05 4.74359E-07-1.73300E-19 5.78727E-19
 -1      3832 9.64966E-05-2.93594E-05-2.87750E-05 3.95355E-07-6.11741E-21 2.37400E-19
 -1      3833 9.61913E-05-2.93049E-05-2.86648E-05 4.48449E-07-3.17536E-19 6.82991E-19
 -1      3834 9.61140E-05-2.92773E-05-2.86432E-05 4.19226E-07-4.13155E-19 9.26547E-19
 -1      3835 9.63160E-05-2.93549E-05-2.86996E-05 3.62181E-07-9.59806E-20 6.63500E-19
 -1      3836 9.60269E-05-2.92372E-05-2.86236E-05 3.91690E-07-6.26625E-19 9.03158E-19
 -1      3837 9.59560E-05-2.91950E-05-2.86107E-05 3.61104E-07-4.25186E-19 8.15514E-19
 -1      3838 9.61386E-05-2.92961E-05-2.86486E-05 3.19326E-07-3.93242E-19 9.25884E-19
 -1      3839 9.58762E-05-2.91438E-05-2.85993E-05 3.35153E-07-3.58602E-19 6.79254E-19
 -1      3840 9.58125E-05-2.90929E-05-2.85930E-05 3.06968E-07-3.96922E-20 6.57524E-19
 -1      3841 9.59730E-05-2.92044E-05-2.86167E-05 2.75061E-07-4.90913E-19 5.23556E-19
 -1      3842 9.57403E-05-2.90353E-05-2.85878E-05 2.84744E-07-8.02131E-20 3.02533E-19
 -1      3843 9.56834E-05-2.89792E-05-2.85865E-05 2.61613E-07-4.40465E-19 3.62698E-19
 -1      3844 9.58224E-05-2.90935E-05-2.85994E-05 2.34441E-07-2.04583E-19 4.34849E-19
 -1      3845 9.56178E-05-2.89172E-05-2.85860E-05 2.44457E-07-2.64888E-19 2.08737E-19
 -1      3846 9.55660E-05-2.88569E-05-2.85887E-05 2.28327E-07-1.60932E-19 4.73602E-19
 -1      3847 9.56859E-05-2.89707E-05-2.85932E-05 2.01213E-07-3.68125E-19 1.59873E-19
 -1      3848 9.55047E-05-2.87909E-05-2.85919E-05 2.17712E-07 1.67535E-19 9.29987E-19
 -1      3849 9.54557E-05-2.87262E-05-2.85975E-05 2.10117E-07 5.66806E-19 1.34452E-18
 -1      3850 9.55603E-05-2.88386E-05-2.85957E-05 1.77739E-07 3.42363E-19 7.98339E-19
 -1      3851 9.53954E-05-2.86550E-05-2.86036E-05 2.06803E-07 5.53497E-19 1.33565E-18
 -1      3852 9.53460E-05-2.85840E-05-2.86116E-05 2.09266E-07 3.18059E-19 1.83919E-18
 -1      3853 9.54403E-05-2.86966E-05-2.86048E-05 1.66701E-07 5.97962E-19 1.10192E-18
 -1      3854 9.52828E-05-2.85051E-05-2.86198E-05 2.14543E-07-7.59750E-20 1.85214E-18
 -1      3855 9.52294E-05-2.84254E-05-2.86297E-05 2.28724E-07-1.28769E-19 1.75073E-18
 -1      3856 9.53183E-05-2.85408E-05-2.86189E-05 1.69766E-07 1.37390E-19 1.02851E-18
 -1      3857 9.51586E-05-2.83356E-05-2.86396E-05 2.44016E-07-1.45397E-19 2.29625E-18
 -1      3858 9.50971E-05-2.82440E-05-2.86508E-05 2.71830E-07 1.24669E-19 1.88869E-18
 -1      3859 9.51859E-05-2.83654E-05-2.86369E-05 1.89714E-07-1.19815E-20 1.95192E-18
 -1      3860 9.50132E-05-2.81397E-05-2.86616E-05 2.98902E-07 2.88868E-20 1.47526E-18
 -1      3861 9.49390E-05-2.80327E-05-2.86737E-05 3.42670E-07-5.78201E-20 1.36075E-18
 -1      3862 9.50330E-05-2.81636E-05-2.86573E-05 2.29441E-07-1.90877E-19 1.39319E-18
 -1      3863 9.48361E-05-2.79100E-05-2.86847E-05 3.83808E-07-2.03477E-19 1.38280E-18
 -1      3864 9.47441E-05-2.77841E-05-2.86968E-05 4.46351E-07-2.55006E-19 1.26937E-18
 -1      3865 9.48484E-05-2.79275E-05-2.86789E-05 2.92685E-07-2.83280E-19 1.05583E-18
 -1      3866 9.46155E-05-2.76392E-05-2.87068E-05 5.04484E-07 1.82153E-20 1.28223E-18
 -1      3867 9.45006E-05-2.74915E-05-2.87178E-05 5.89192E-07-1.52469E-19 1.17530E-18
 -1      3868 9.46195E-05-2.76491E-05-2.86994E-05 3.84241E-07-1.88964E-19 1.02713E-18
 -1      3869 9.43395E-05-2.73216E-05-2.87253E-05 6.68035E-07-5.90168E-19 1.05800E-18
 -1      3870 9.41965E-05-2.71504E-05-2.87337E-05 7.78933E-07-2.62856E-19 1.11042E-18
 -1      3871 9.43328E-05-2.73212E-05-2.87163E-05 5.10235E-07-3.18627E-19 1.00980E-18
 -1      3872 9.39957E-05-2.69540E-05-2.87363E-05 8.83187E-07 1.04503E-19 7.74529E-19
 -1      3873 9.38201E-05-2.67599E-05-2.87397E-05 1.02502E-06-2.85712E-19 9.59100E-19
 -1      3874 9.39743E-05-2.69391E-05-2.87257E-05 6.78492E-07-1.14704E-19 1.33666E-18
 -1      3875 9.35732E-05-2.65382E-05-2.87345E-05 1.16065E-06-7.46010E-19 1.18524E-18
 -1      3876 9.33622E-05-2.63252E-05-2.87295E-05 1.33901E-06-6.14941E-19 1.69187E-18
 -1      3877 9.35307E-05-2.65020E-05-2.87219E-05 8.99061E-07-3.64261E-19 1.29529E-18
 -1      3878 9.30642E-05-2.60836E-05-2.87123E-05 1.51368E-06-4.73060E-19 1.59540E-18
 -1      3879 9.28178E-05-2.58611E-05-2.86947E-05 1.73531E-06 1.42839E-19 1.50612E-18
 -1      3880 9.29902E-05-2.60157E-05-2.86977E-05 1.18500E-06-4.45256E-19 2.14803E-18
 -1      3881 9.24661E-05-2.56109E-05-2.86598E-05 1.95904E-06 2.90327E-19 1.47854E-18
 -1      3882 9.21894E-05-2.53958E-05-2.86240E-05 2.23232E-06 2.58771E-19 1.70850E-18
 -1      3883 9.23450E-05-2.54958E-05-2.86430E-05 1.55358E-06 8.87947E-21 2.32635E-18
 -1      3884 9.17857E-05-2.51567E-05-2.85644E-05 2.51859E-06 3.09891E-19 1.78567E-18
 -1      3885 9.14914E-05-2.49763E-05-2.85033E-05 2.85445E-06-2.78004E-19 2.31629E-18
 -1      3886 9.15939E-05-2.49715E-05-2.85449E-05 2.02823E-06 4.87473E-19 1.81170E-18
 -1      3887 9.10439E-05-2.47789E-05-2.84100E-05 3.22186E-06-1.41693E-18 2.33152E-18
 -1      3888 9.07567E-05-2.46745E-05-2.83155E-05 3.63524E-06-1.78177E-18 1.87071E-18
 -1      3889 9.07457E-05-2.44903E-05-2.83869E-05 2.64153E-06-7.24212E-19 2.00965E-18
 -1      3890 9.02825E-05-2.45638E-05-2.81778E-05 4.11016E-06-1.94284E-18 1.71034E-18
 -1      3891 9.00446E-05-2.45950E-05-2.80406E-05 4.62216E-06-1.37400E-18 2.07145E-18
 -1      3892 8.98244E-05-2.41240E-05-2.81488E-05 3.43991E-06-1.54226E-18 1.69675E-18
 -1      3893 8.95741E-05-2.46341E-05-2.78463E-05 5.24266E-06-2.67096E-19 1.87094E-18
 -1      3894 8.94543E-05-2.48846E-05-2.76575E-05 5.88293E-06 8.74768E-19 1.54734E-18
 -1      3895 8.88751E-05-2.39744E-05-2.78066E-05 4.49092E-06-7.84970E-19 1.74217E-18
 -1      3896 8.90381E-05-2.51604E-05-2.73933E-05 6.70379E-06 1.33013E-18 1.55012E-18
 -1      3897 8.91456E-05-2.57461E-05-2.71464E-05 7.51158E-06 1.79671E-18 1.65573E-18
 -1      3898 8.79736E-05-2.41833E-05-2.73328E-05 5.89389E-06 9.30943E-19 2.34630E-18
 -1      3899 8.88672E-05-2.63775E-05-2.67995E-05 8.60902E-06 1.71578E-18 7.47218E-19
 -1      3900 8.93748E-05-2.74585E-05-2.64950E-05 9.62740E-06 1.29178E-18 1.32633E-18
 -1      3901 8.72447E-05-2.49475E-05-2.66980E-05 7.79197E-06 1.65081E-18 6.32654E-19
 -1      3902 8.93849E-05-2.86151E-05-2.60561E-05 1.11059E-05 4.21654E-19 1.78406E-18
 -1      3903 9.05635E-05-3.04325E-05-2.57140E-05 1.23660E-05-4.16961E-19 2.64852E-18
 -1      3904 8.68976E-05-2.65516E-05-2.58727E-05 1.03913E-05 1.23176E-18 1.29296E-18
 -1      3905 9.11246E-05-3.22955E-05-2.51970E-05 1.42628E-05-4.37522E-19 2.91418E-18
 -1      3906 9.33771E-05-3.51538E-05-2.48675E-05 1.57866E-05-9.08641E-20 4.02615E-18
 -1      3907 8.73384E-05-2.94475E-05-2.48467E-05 1.39298E-05 6.39543E-20 2.58157E-18
 -1      3908 9.52022E-05-2.37758E-05-3.06208E-05-1.09379E-06-2.31374E-19-1.34359E-18
 -1      3909 9.56301E-05-2.47062E-05-3.03890E-05-8.13458E-07-1.88310E-19-1.12508E-18
 -1      3910 9.51268E-05-2.35553E-05-3.06763E-05-8.50978E-07-1.17712E-19-1.34907E-18
 -1      3911 9.53620E-05-2.86136E-05-2.86056E-05-2.45066E-07 2.18771E-19 4.34834E-19
 -1      3912 9.54040E-05-2.86784E-05-2.85973E-05-2.44960E-07 1.14462E-19 1.04040E-19
 -1      3913 9.54592E-05-2.87445E-05-2.85911E-05-2.50691E-07 3.51641E-19 9.96907E-21
 -1      3914 9.55016E-05-2.88038E-05-2.85852E-05-2.61821E-07 3.86256E-19 2.81249E-19
 -1      3915 9.54519E-05-2.87208E-05-2.85994E-05-2.11490E-07 2.39884E-19 3.18062E-19
 -1      3916 9.51447E-05-2.83000E-05-2.86470E-05-3.05752E-07 4.40412E-19 6.92624E-19
 -1      3917 9.51964E-05-2.83843E-05-2.86349E-05-2.77804E-07 2.66265E-19 5.28489E-19
 -1      3918 9.50062E-05-2.81029E-05-2.86723E-05-3.79161E-07 2.11357E-19 7.96257E-19
 -1      3919 9.50694E-05-2.82025E-05-2.86588E-05-3.34157E-07 4.84210E-19 7.51322E-19
 -1      3920 9.50842E-05-2.82224E-05-2.86542E-05-2.73235E-07 2.82404E-19 8.51877E-20
 -1      3921 9.48326E-05-2.78669E-05-2.86991E-05-4.86749E-07 3.58273E-19 3.41197E-19
 -1      3922 9.49129E-05-2.79865E-05-2.86847E-05-4.22239E-07 3.53328E-19 8.02347E-19
 -1      3923 9.49175E-05-2.79991E-05-2.86780E-05-3.40823E-07 5.91018E-19 3.50524E-19
 -1      3924 9.46100E-05-2.75821E-05-2.87259E-05-6.33038E-07 2.76179E-19 4.65052E-19
 -1      3925 9.47140E-05-2.77266E-05-2.87115E-05-5.46411E-07 1.06032E-19 2.37006E-19
 -1      3926 9.47081E-05-2.77316E-05-2.87022E-05-4.37043E-07 4.87788E-19 1.08280E-19
 -1      3927 9.43216E-05-2.72379E-05-2.87501E-05-8.22464E-07 3.97239E-19 6.84607E-19
 -1      3928 9.44574E-05-2.74123E-05-2.87369E-05-7.11161E-07 4.13912E-19 9.38873E-19
 -1      3929 9.44400E-05-2.74094E-05-2.87245E-05-5.64986E-07-2.89331E-20-3.24478E-20
 -1      3930 9.39481E-05-2.68241E-05-2.87678E-05-1.05877E-06 1.68506E-19 6.07301E-19
 -1      3931 9.41251E-05-2.70332E-05-2.87577E-05-9.20615E-07 4.31931E-19 8.30390E-19
 -1      3932 9.40950E-05-2.70218E-05-2.87417E-05-7.27156E-07 2.62522E-19 1.62121E-18
 -1      3933 9.34664E-05-2.63316E-05-2.87730E-05-1.34416E-06-5.20046E-19 1.13472E-18
 -1      3934 9.36960E-05-2.65796E-05-2.87691E-05-1.17782E-06-3.97434E-19 7.41583E-19
 -1      3935 9.36517E-05-2.65590E-05-2.87488E-05-9.24744E-07-2.62465E-19 1.05049E-18
 -1      3936 9.28500E-05-2.57540E-05-2.87572E-05-1.67834E-06-8.81705E-19 1.38566E-18
 -1      3937 9.31453E-05-2.60435E-05-2.87640E-05-1.48380E-06-4.51235E-19 9.81792E-19
 -1      3938 9.30855E-05-2.60128E-05-2.87385E-05-1.15668E-06-5.26901E-19 2.26903E-18
 -1      3939 9.20679E-05-2.50895E-05-2.87080E-05-2.05761E-06-7.28982E-19 1.56935E-18
 -1      3940 9.24445E-05-2.54205E-05-2.87319E-05-1.83662E-06-1.01240E-18 1.32298E-18
 -1      3941 9.23681E-05-2.53786E-05-2.87008E-05-1.41859E-06-1.02657E-18 2.25548E-18
 -1      3942 9.10851E-05-2.43437E-05-2.86080E-05-2.47460E-06-1.14674E-18 1.39729E-18
 -1      3943 9.15604E-05-2.47121E-05-2.86582E-05-2.23064E-06-8.25568E-19 1.48259E-18
 -1      3944 9.14671E-05-2.46572E-05-2.86211E-05-1.70181E-06-8.68557E-19 1.54490E-18
 -1      3945 8.98616E-05-2.35332E-05-2.84328E-05-2.91968E-06-9.15274E-19 1.15704E-18
 -1      3946 9.04550E-05-2.39287E-05-2.85221E-05-2.65690E-06-1.02704E-18 7.29305E-19
 -1      3947 9.03451E-05-2.38573E-05-2.84798E-05-1.99327E-06-9.98836E-19 7.77121E-19
 -1      3948 8.83514E-05-2.26900E-05-2.81491E-05-3.38590E-06-1.09355E-18 1.07568E-18
 -1      3949 8.90836E-05-2.30935E-05-2.82952E-05-3.10582E-06-1.09349E-18 1.40131E-18
 -1      3950 8.89576E-05-2.29976E-05-2.82492E-05-2.27691E-06-1.09842E-18 5.07593E-19
 -1      3951 8.65002E-05-2.18661E-05-2.77107E-05-3.88062E-06-7.15122E-20 1.15489E-18
 -1      3952 8.73926E-05-2.22465E-05-2.79379E-05-3.57485E-06-3.49979E-19 1.04301E-18
 -1      3953 8.72485E-05-2.21086E-05-2.78919E-05-2.53891E-06-3.95498E-19-4.92768E-20
 -1      3954 8.42388E-05-2.11402E-05-2.70539E-05-4.44927E-06-1.37969E-19 8.13010E-19
 -1      3955 8.53125E-05-2.14493E-05-2.73954E-05-4.08538E-06 9.20036E-20 1.03175E-18
 -1      3956 8.51397E-05-2.12319E-05-2.73555E-05-2.77985E-06-1.06583E-19 9.43730E-20
 -1      3957 8.14705E-05-2.06269E-05-2.60897E-05-5.21621E-06-9.31786E-20 9.41641E-19
 -1      3958 8.27497E-05-2.07922E-05-2.65912E-05-4.70832E-06-1.35504E-19 1.09113E-18
 -1      3959 8.25169E-05-2.04237E-05-2.65656E-05-3.03849E-06 9.48528E-21 4.22545E-19
 -1      3960 7.79260E-05-2.04430E-05-2.46779E-05-6.52208E-06-3.86289E-19 5.98279E-19
 -1      3961 7.95135E-05-2.03559E-05-2.54147E-05-5.59292E-06-1.05293E-19 1.27347E-18
 -1      3962 7.91940E-05-1.97426E-05-2.54147E-05-3.37827E-06-2.47424E-19 1.87974E-18
 -1      3963 9.66720E-05-2.84797E-05-2.92283E-05-4.47810E-07 3.85299E-19-7.99435E-19
 -1      3964 9.66619E-05-2.81686E-05-2.93506E-05-3.07407E-07 5.99996E-19-7.19388E-19
 -1      3965 9.52600E-05-2.84676E-05-2.86245E-05-2.62299E-07 1.77569E-19 5.25430E-19
 -1      3966 9.53048E-05-2.85405E-05-2.86141E-05-2.49224E-07 5.70022E-19 6.65265E-19
 -1      3967 9.53408E-05-2.85753E-05-2.86138E-05-2.11418E-07 1.22830E-20 6.73749E-19
 -1      3968 1.03413E-04-5.08060E-05-2.21981E-05 2.69010E-05 1.76389E-18 3.51723E-18
 -1      3969 9.66954E-05-4.53975E-05-2.19114E-05 2.62296E-05 1.81839E-18 3.01775E-18
 -1      3970 9.52139E-05-2.38632E-05-3.05866E-05 1.36729E-06 1.11561E-18-1.18615E-18
 -1      3971 9.51074E-05-2.35499E-05-3.06709E-05 1.07702E-06 1.05293E-18-1.06955E-18
 -1      3972 9.55649E-05-2.44397E-05-3.04697E-05 7.09249E-07 8.83160E-19-1.01617E-18
 -1      3973 9.55108E-05-2.45168E-05-3.04199E-05 1.13037E-06 1.06353E-18-1.22048E-18
 -1      3974 1.10364E-04-5.36659E-05-2.42858E-05 2.15928E-05 3.30290E-19 6.95943E-18
 -1      3975 9.65956E-05-2.73993E-05-2.96536E-05 2.25257E-09-2.19873E-19-6.33665E-19
 -1      3976 9.66918E-05-2.78749E-05-2.94960E-05 1.89980E-07-3.82667E-19-5.50248E-19
 -1      3977 9.67957E-05-2.80070E-05-2.94804E-05 1.67918E-07-5.14490E-19-8.72814E-19
 -1      3978 7.28637E-05-2.33966E-05-2.10485E-05-1.35288E-05 8.47455E-19-2.06666E-18
 -1      3979 9.66377E-05-2.89179E-05-2.90242E-05-5.87654E-07 4.36139E-19-6.01699E-19
 -1      3980 9.66735E-05-2.87301E-05-2.91156E-05-5.16508E-07 3.38894E-19-7.28877E-19
 -1      3981 9.67807E-05-2.85744E-05-2.92319E-05-3.80888E-07 2.64628E-19-5.26785E-19
 -1      3982 7.21637E-05-2.13229E-05-2.18493E-05-1.00492E-05 1.09497E-18-1.09029E-18
 -1      3983 9.59291E-05-2.54469E-05-3.02104E-05-6.39351E-07-1.32110E-19-1.05319E-18
 -1      3984 9.61728E-05-2.60737E-05-3.00367E-05-3.90293E-07-6.89740E-20-8.33957E-19
 -1      3985 9.58863E-05-2.52605E-05-3.02710E-05-5.24554E-07-4.53664E-20-9.39152E-19
 -1      3986 9.65800E-05-2.77643E-05-2.94974E-05-1.78803E-07 7.17445E-19-8.99672E-19
 -1      3987 9.65000E-05-2.72832E-05-2.96569E-05 5.92545E-08 5.74531E-19-8.66936E-19
 -1      3988 9.66997E-05-2.78789E-05-2.94944E-05-1.74242E-07 5.51940E-19-7.76240E-19
 -1      3989 9.49989E-05-3.81764E-05-2.42893E-05 1.80428E-05 4.43349E-19 3.90646E-18
 -1      3990 9.86914E-05-4.26266E-05-2.40551E-05 1.95517E-05 1.69431E-18 4.21640E-18
 -1      3991 9.79146E-05-4.34276E-05-2.33751E-05 2.19694E-05 2.00202E-18 4.25007E-18
 -1      3992 8.92182E-05-3.84963E-05-2.14558E-05 2.51667E-05 1.75226E-18 2.61332E-18
 -1      3993 6.79013E-05-1.81283E-05-2.12359E-05-5.04574E-07 1.45767E-18 3.35154E-19
 -1      3994 6.95913E-05-1.87115E-05-2.17289E-05-4.23793E-06 1.51867E-18 4.49291E-19
 -1      3995 9.59187E-05-2.91759E-05-2.86028E-05-4.42019E-07-3.87904E-19 8.24097E-19
 -1      3996 9.59829E-05-2.92130E-05-2.86151E-05-4.78595E-07-3.67711E-19 7.74569E-19
 -1      3997 9.59531E-05-2.91957E-05-2.86119E-05-3.57508E-07-2.23102E-19 3.50349E-19
 -1      3998 9.55629E-05-2.88540E-05-2.85903E-05-2.28711E-07 6.23764E-19 5.96328E-19
 -1      3999 9.55586E-05-2.88652E-05-2.85819E-05-2.76433E-07 4.73372E-19 3.85763E-19
 -1      4000 9.56041E-05-2.89202E-05-2.85790E-05-2.97174E-07 4.51776E-19 6.77766E-19
 -1      4001 7.46862E-05-1.99137E-05-2.35223E-05-5.84185E-06 3.51929E-19-5.17848E-20
 -1      4002 7.42310E-05-1.89143E-05-2.36147E-05-2.61786E-06 8.77672E-19 1.37011E-18
 -1      4003 7.26855E-05-2.03534E-05-2.24230E-05-7.13622E-06 1.20029E-18-3.25545E-19
 -1      4004 9.52214E-05-2.84116E-05-2.86324E-05-2.31096E-07 1.99837E-19 3.37058E-19
 -1      4005 9.50438E-05-2.33439E-05-3.07358E-05-3.84939E-07 4.56697E-20-1.51521E-18
 -1      4006 9.50950E-05-2.34712E-05-3.07055E-05-6.54302E-07-4.29980E-20-1.43224E-18
 -1      4007 9.55741E-05-2.44291E-05-3.04798E-05-5.21857E-07-1.20769E-19-1.20137E-18
 -1      4008 9.55651E-05-2.43266E-05-3.05147E-05-1.64512E-07 1.26707E-19-1.37342E-18
 -1      4009 6.88065E-05-1.89039E-05-2.13752E-05 5.29270E-06 1.53777E-18-1.55515E-18
 -1      4010 6.79892E-05-1.83076E-05-2.12571E-05 1.97755E-06 1.53027E-18-8.38391E-19
 -1      4011 7.12221E-05-1.87612E-05-2.24642E-05 1.03872E-06 1.81770E-18-4.50388E-19
 -1      4012 9.60660E-05-2.92486E-05-2.86349E-05-5.11987E-07-3.94002E-19 5.71085E-19
 -1      4013 9.61363E-05-2.92707E-05-2.86558E-05-5.46428E-07-9.97022E-20 1.71707E-19
 -1      4014 9.61109E-05-2.92785E-05-2.86443E-05-4.14086E-07-4.00724E-19 5.33654E-19
 -1      4015 6.83955E-05-2.20783E-05-1.96174E-05 1.48939E-05 1.01130E-18-1.19552E-18
 -1      4016 6.85234E-05-2.03451E-05-2.05773E-05 1.02538E-05 1.04397E-18-1.50072E-18
 -1      4017 7.33141E-05-2.52506E-05-2.05237E-05 1.72899E-05 8.27650E-19-1.18139E-18
 -1      4018 8.38414E-05-3.32885E-05-2.15748E-05 2.19834E-05 1.13694E-18 1.45545E-18
 -1      4019 9.62798E-05-2.93270E-05-2.86960E-05-4.67397E-07-1.76956E-19 2.74841E-19
 -1      4020 9.62234E-05-2.92867E-05-2.86863E-05-5.76693E-07 6.19723E-20-7.30189E-21
 -1      4021 9.62974E-05-2.92844E-05-2.87186E-05-6.02438E-07-9.02332E-20-2.65707E-19
 -1      4022 9.56659E-05-2.89780E-05-2.85794E-05-3.19090E-07-2.25336E-20 2.80939E-19
 -1      4023 9.57166E-05-2.90292E-05-2.85803E-05-3.47663E-07-3.46342E-19 3.57734E-19
 -1      4024 9.58097E-05-2.90928E-05-2.85942E-05-3.04693E-07-1.60597E-19-1.29108E-19
 -1      4025 9.56805E-05-2.89778E-05-2.85879E-05-2.60789E-07-4.22367E-20 1.23606E-20
 -1      4026 9.57304E-05-2.51191E-05-3.02676E-05 8.97667E-07 9.56564E-19-1.19872E-18
 -1      4027 9.65900E-05-2.90593E-05-2.89394E-05-6.12397E-07 3.82267E-19-3.34637E-19
 -1      4028 9.67332E-05-2.89967E-05-2.90313E-05-4.86300E-07 3.10067E-19-3.24072E-19
 -1      4029 9.65291E-05-2.91600E-05-2.88727E-05-6.35578E-07 2.25092E-19-4.87355E-20
 -1      4030 9.59267E-05-2.52467E-05-3.02961E-05 2.76041E-07 5.33343E-19-1.16453E-18
 -1      4031 9.59091E-05-2.51912E-05-3.03147E-05 8.06689E-08 3.08505E-19-1.22465E-18
 -1      4032 9.62681E-05-2.59484E-05-3.01212E-05 3.92248E-08 1.47892E-19-1.18380E-18
 -1      4033 9.59035E-05-2.51722E-05-3.03208E-05-2.47268E-08 1.91882E-19-1.22615E-18
 -1      4034 9.59104E-05-2.51828E-05-3.03165E-05-1.75860E-07 6.56192E-20-1.32642E-18
 -1      4035 9.63376E-05-2.65567E-05-2.99109E-05-2.83139E-07 2.14369E-20-7.74616E-19
 -1      4036 9.64809E-05-2.70380E-05-2.97628E-05-9.12600E-08-6.72553E-20-7.04542E-19
 -1      4037 9.65958E-05-2.72029E-05-2.97374E-05-2.69076E-08-1.13201E-19-7.52593E-19
 -1      4038 9.63390E-05-2.64198E-05-2.99698E-05-2.30450E-07 3.90160E-20-8.98393E-19
 -1      4039 8.93153E-05-3.43534E-05-2.36952E-05 1.85804E-05 4.61837E-19 3.88317E-18
 -1      4040 9.60352E-05-2.58377E-05-3.00778E-05 6.61671E-07 6.67582E-19-1.23790E-18
 -1      4041 9.58310E-05-2.52077E-05-3.02663E-05 6.92866E-07 7.99430E-19-1.05918E-18
 -1      4042 9.58702E-05-2.52285E-05-3.02816E-05 5.02082E-07 7.21592E-19-1.08189E-18
 -1      4043 9.62484E-05-2.65740E-05-2.98702E-05 3.01597E-07 5.65517E-19-9.39462E-19
 -1      4044 9.45985E-05-2.76210E-05-2.87053E-05-3.60813E-07 2.01974E-19 7.39974E-19
 -1      4045 9.47180E-05-2.77705E-05-2.86937E-05-3.10112E-07 5.53435E-19 6.73710E-19
 -1      4046 8.25010E-05-3.01755E-05-2.23854E-05 1.87358E-05 2.04899E-19 1.52971E-18
 -1      4047 9.68971E-05-2.90128E-05-2.90922E-05 2.51763E-07-4.46523E-19-2.93394E-19
 -1      4048 9.68457E-05-2.91615E-05-2.90068E-05 2.84095E-07-4.86485E-19-2.35604E-19
 -1      4049 9.67757E-05-2.92688E-05-2.89305E-05 2.77088E-07-3.81423E-19-1.68592E-19
 -1      4050 9.66955E-05-2.93371E-05-2.88673E-05 2.85852E-07-1.88669E-19-1.09797E-19
 -1      4051 9.68557E-05-2.92209E-05-2.89891E-05 1.54886E-07-3.53172E-19-2.96755E-19
 -1      4052 9.66058E-05-2.93765E-05-2.88114E-05 2.78456E-07-1.90464E-19-1.25628E-20
 -1      4053 9.65176E-05-2.93938E-05-2.87660E-05 2.73868E-07-1.76995E-19-4.63713E-20
 -1      4054 9.66890E-05-2.93678E-05-2.88546E-05 1.57552E-07-1.28837E-19-3.36498E-19
 -1      4055 9.64192E-05-2.93895E-05-2.87260E-05 2.57324E-07-5.23533E-21-2.38061E-19
 -1      4056 9.63284E-05-2.93713E-05-2.86945E-05 2.45606E-07 1.96948E-20-1.51895E-20
 -1      4057 9.65100E-05-2.94140E-05-2.87589E-05 1.44443E-07-2.22581E-19-5.93672E-19
 -1      4058 9.62316E-05-2.93391E-05-2.86672E-05 2.29631E-07-1.82298E-19-4.00308E-20
 -1      4059 9.61447E-05-2.92994E-05-2.86466E-05 2.14430E-07-3.84163E-19 1.36582E-19
 -1      4060 9.63148E-05-2.93782E-05-2.86910E-05 1.30725E-07-4.76418E-20-8.40895E-19
 -1      4061 9.60543E-05-2.92508E-05-2.86293E-05 1.99376E-07-5.02661E-19 4.86270E-19
 -1      4062 9.59744E-05-2.91985E-05-2.86170E-05 1.83643E-07-2.20775E-19 4.84720E-19
 -1      4063 9.61293E-05-2.92971E-05-2.86458E-05 1.14576E-07-1.60288E-19-1.10983E-19
 -1      4064 9.58919E-05-2.91403E-05-2.86073E-05 1.70384E-07-8.83554E-20 4.81181E-19
 -1      4065 9.58196E-05-2.90804E-05-2.86015E-05 1.56221E-07-3.69632E-19 3.72835E-19
 -1      4066 9.59580E-05-2.91887E-05-2.86182E-05 9.86176E-08-1.85271E-19 2.34865E-19
 -1      4067 9.57445E-05-2.90162E-05-2.85975E-05 1.45393E-07-2.08960E-19 7.53436E-19
 -1      4068 9.56782E-05-2.89512E-05-2.85966E-05 1.34073E-07-1.51522E-19 1.05587E-18
 -1      4069 9.58024E-05-2.90633E-05-2.86042E-05 8.50984E-08-7.70510E-20 6.63725E-19
 -1      4070 9.56092E-05-2.88820E-05-2.85972E-05 1.27759E-07-1.23348E-19 1.53091E-18
 -1      4071 9.55483E-05-2.88128E-05-2.86002E-05 1.21368E-07 5.59960E-19 1.32842E-18
 -1      4072 9.56569E-05-2.89256E-05-2.86003E-05 7.43297E-08 1.80547E-19 1.42431E-18
 -1      4073 9.54814E-05-2.87388E-05-2.86041E-05 1.16622E-07 4.19163E-19 1.09523E-18
 -1      4074 9.54213E-05-2.86634E-05-2.86100E-05 1.15819E-07 3.94690E-19 9.23355E-19
 -1      4075 9.55252E-05-2.87821E-05-2.86049E-05 6.65756E-08 1.33675E-19 8.57372E-19
 -1      4076 9.53531E-05-2.85820E-05-2.86166E-05 1.15565E-07 2.05483E-19 1.14250E-18
 -1      4077 9.52901E-05-2.84982E-05-2.86247E-05 1.21515E-07 1.55860E-20 1.00906E-18
 -1      4078 9.53915E-05-2.86226E-05-2.86154E-05 6.54946E-08 3.45361E-19 3.52848E-19
 -1      4079 9.52159E-05-2.84068E-05-2.86332E-05 1.25858E-07 2.96008E-19 1.25647E-18
 -1      4080 9.51454E-05-2.83114E-05-2.86429E-05 1.39741E-07 2.07154E-19 1.36110E-18
 -1      4081 9.52516E-05-2.84456E-05-2.86305E-05 7.09217E-08 2.58188E-19 3.92462E-19
 -1      4082 9.50594E-05-2.82060E-05-2.86527E-05 1.49584E-07-4.86321E-19 1.21786E-18
 -1      4083 9.49760E-05-2.80949E-05-2.86633E-05 1.72867E-07-5.52995E-19 7.15554E-19
 -1      4084 9.50944E-05-2.82437E-05-2.86488E-05 8.40948E-08-2.18782E-19 3.45289E-19
 -1      4085 9.48718E-05-2.79712E-05-2.86734E-05 1.89513E-07-5.06841E-19 1.01581E-18
 -1      4086 9.47696E-05-2.78404E-05-2.86841E-05 2.24057E-07-5.18736E-19 7.91903E-19
 -1      4087 9.49080E-05-2.80085E-05-2.86686E-05 1.06965E-07-6.46780E-19 6.79497E-19
 -1      4088 9.46399E-05-2.76939E-05-2.86935E-05 2.49322E-07-3.89646E-19 5.36337E-19
 -1      4089 9.45123E-05-2.75392E-05-2.87030E-05 2.97492E-07-1.85256E-19 7.42629E-19
 -1      4090 9.46787E-05-2.77308E-05-2.86880E-05 1.42180E-07-4.31929E-19 6.42215E-19
 -1      4091 9.43491E-05-2.73658E-05-2.87103E-05 3.33905E-07 1.30305E-19 2.83464E-19
 -1      4092 9.41891E-05-2.71838E-05-2.87170E-05 3.98728E-07-9.24338E-21 5.27079E-19
 -1      4093 9.43915E-05-2.74017E-05-2.87045E-05 1.93444E-07-5.36581E-19 1.55629E-19
 -1      4094 9.39837E-05-2.69800E-05-2.87199E-05 4.49800E-07-3.72459E-19 8.07685E-19
 -1      4095 9.37844E-05-2.67686E-05-2.87216E-05 5.35185E-07-2.35959E-19 8.16711E-19
 -1      4096 9.40298E-05-2.70129E-05-2.87143E-05 2.65991E-07-3.94288E-19 1.37316E-20
 -1      4097 9.35277E-05-2.65330E-05-2.87173E-05 6.05787E-07-2.74340E-19 6.56558E-19
 -1      4098 9.32827E-05-2.62927E-05-2.87106E-05 7.16853E-07-3.24150E-19 6.35305E-19
 -1      4099 9.35762E-05-2.65588E-05-2.87123E-05 3.67244E-07-1.64978E-19 1.24884E-19
 -1      4100 9.29658E-05-2.60264E-05-2.86950E-05 8.13750E-07-1.85923E-19 8.38705E-19
 -1      4101 9.26700E-05-2.57614E-05-2.86756E-05 9.57327E-07-5.09829E-20 1.35608E-18
 -1      4102 9.30128E-05-2.60380E-05-2.86916E-05 5.07766E-07 1.34828E-19 1.60963E-19
 -1      4103 9.22843E-05-2.54698E-05-2.86432E-05 1.08994E-06-1.25028E-19 1.90500E-18
 -1      4104 9.19353E-05-2.51896E-05-2.86053E-05 1.27535E-06 2.74844E-19 1.98067E-18
 -1      4105 9.23225E-05-2.54556E-05-2.86423E-05 7.02614E-07 2.62433E-19 8.56029E-19
 -1      4106 9.14736E-05-2.48839E-05-2.85491E-05 1.45687E-06 2.48356E-19 2.00024E-18
 -1      4107 9.10732E-05-2.46058E-05-2.84852E-05 1.69712E-06-1.32262E-20 2.19558E-18
 -1      4108 9.14898E-05-2.48260E-05-2.85519E-05 9.73289E-07-1.36963E-19 1.44569E-18
 -1      4109 9.05299E-05-2.43047E-05-2.83957E-05 1.94608E-06-7.56004E-19 1.54858E-18
 -1      4110 9.00863E-05-2.40554E-05-2.82966E-05 2.25978E-06-1.25091E-18 1.42938E-18
 -1      4111 9.05025E-05-2.41759E-05-2.84034E-05 1.35053E-06-8.55794E-19 1.37566E-18
 -1      4112 8.94581E-05-2.37871E-05-2.81619E-05 2.60242E-06-1.34886E-18 1.06889E-18
 -1      4113 8.89885E-05-2.36059E-05-2.80160E-05 3.01665E-06-1.33053E-18 1.46239E-18
 -1      4114 8.93529E-05-2.35475E-05-2.81751E-05 1.87839E-06-1.34824E-18 1.12345E-18
 -1      4115 8.82735E-05-2.34096E-05-2.78212E-05 3.49055E-06-9.69786E-19 1.88597E-18
 -1      4116 8.78081E-05-2.33510E-05-2.76150E-05 4.04531E-06-7.53202E-20 1.53714E-18
 -1      4117 8.80373E-05-2.30010E-05-2.78395E-05 2.62017E-06-7.73695E-19 1.79999E-18
 -1      4118 8.70043E-05-2.32782E-05-2.73410E-05 4.70528E-06 3.90977E-19 1.69826E-18
 -1      4119 8.65936E-05-2.34172E-05-2.70589E-05 5.46018E-06 9.57071E-19 1.38073E-18
 -1      4120 8.65545E-05-2.26169E-05-2.73612E-05 3.66728E-06 6.97396E-21 1.45416E-18
 -1      4121 8.56969E-05-2.35346E-05-2.66815E-05 6.38983E-06 1.33663E-18 6.81886E-19
 -1      4122 8.54238E-05-2.39778E-05-2.63066E-05 7.43457E-06 1.53426E-18 3.05418E-19
 -1      4123 8.48983E-05-2.24997E-05-2.66949E-05 5.15225E-06 4.07366E-19-5.76269E-19
 -1      4124 8.44294E-05-2.43552E-05-2.57957E-05 8.74629E-06 1.65956E-18 6.90322E-19
 -1      4125 8.44131E-05-2.52589E-05-2.53085E-05 1.02339E-05 1.27753E-18 8.53116E-19
 -1      4126 8.30691E-05-2.28290E-05-2.57829E-05 7.25517E-06 1.64405E-18-4.30994E-19
 -1      4127 8.33999E-05-2.60562E-05-2.46165E-05 1.20780E-05 1.49256E-19 1.55323E-18
 -1      4128 8.40631E-05-2.77538E-05-2.40724E-05 1.40604E-05-4.52127E-19 1.36561E-18
 -1      4129 8.11589E-05-2.38250E-05-2.45607E-05 1.02887E-05 1.38978E-18-2.43019E-19
 -1      4130 9.54403E-05-2.86924E-05-2.86056E-05-1.62834E-07 2.45014E-19 2.95755E-19
 -1      4131 9.54958E-05-2.87633E-05-2.85997E-05-1.65898E-07 3.21728E-19 3.95338E-19
 -1      4132 9.51844E-05-2.83594E-05-2.86390E-05-1.86967E-07 2.57838E-19-6.76862E-21
 -1      4133 9.52483E-05-2.84492E-05-2.86289E-05-1.72149E-07 2.86685E-19-5.88323E-20
 -1      4134 9.48384E-05-2.79117E-05-2.86831E-05-2.81834E-07 5.51762E-19-6.45365E-20
 -1      4135 9.49323E-05-2.80363E-05-2.86712E-05-2.44343E-07 2.32005E-19-6.48881E-21
 -1      4136 9.47456E-05-2.78023E-05-2.86867E-05-2.06825E-07-7.30375E-20 5.39994E-19
 -1      4137 9.50287E-05-2.81544E-05-2.86604E-05-2.24544E-07 2.52967E-19-1.73028E-19
 -1      4138 9.51045E-05-2.82592E-05-2.86490E-05-1.99037E-07 2.27070E-19-3.86496E-19
 -1      4139 9.51347E-05-2.82937E-05-2.86451E-05-1.37642E-07 4.12083E-19-9.04284E-19
 -1      4140 9.49603E-05-2.80689E-05-2.86657E-05-1.65698E-07 8.68781E-20-1.72637E-19
 -1      4141 9.42920E-05-2.72717E-05-2.87242E-05-4.62989E-07-5.02903E-19 1.11437E-18
 -1      4142 9.44458E-05-2.74513E-05-2.87144E-05-3.98134E-07-2.36376E-19 9.39508E-19
 -1      4143 9.44748E-05-2.74836E-05-2.87059E-05-2.61557E-07-3.15080E-19 1.79919E-18
 -1      4144 9.38993E-05-2.68533E-05-2.87358E-05-5.88818E-07-7.38830E-20 2.36298E-18
 -1      4145 9.40972E-05-2.70682E-05-2.87299E-05-5.09473E-07-3.18179E-19 1.52248E-18
 -1      4146 9.41301E-05-2.71023E-05-2.87199E-05-3.29530E-07-6.41548E-19 1.82426E-18
 -1      4147 9.33977E-05-2.63570E-05-2.87345E-05-7.36881E-07-3.36829E-19 2.50979E-18
 -1      4148 9.36515E-05-2.66113E-05-2.87354E-05-6.43766E-07 9.26143E-20 2.53760E-18
 -1      4149 9.36910E-05-2.66487E-05-2.87241E-05-4.08801E-07-3.97059E-19 2.40410E-18
 -1      4150 9.27616E-05-2.57763E-05-2.87120E-05-9.02814E-07-3.85279E-19 2.15591E-18
 -1      4151 9.30848E-05-2.60729E-05-2.87242E-05-7.98267E-07-1.88078E-19 2.20054E-18
 -1      4152 9.31348E-05-2.61154E-05-2.87117E-05-4.94905E-07 7.79740E-20 1.90398E-18
 -1      4153 9.19622E-05-2.51092E-05-2.86570E-05-1.07810E-06-6.35587E-19 1.28337E-18
 -1      4154 9.23702E-05-2.54487E-05-2.86864E-05-9.66665E-07-3.26981E-19 1.96941E-18
 -1      4155 9.24360E-05-2.54986E-05-2.86737E-05-5.79629E-07-2.09655E-19 7.53641E-19
 -1      4156 9.09665E-05-2.43602E-05-2.85535E-05-1.24894E-06-9.70687E-19 7.06849E-19
 -1      4157 9.14773E-05-2.47396E-05-2.86086E-05-1.13782E-06-7.72216E-19 7.63893E-19
 -1      4158 9.15667E-05-2.47999E-05-2.85970E-05-6.49564E-07-1.08516E-19 3.85980E-19
 -1      4159 8.97366E-05-2.35423E-05-2.83799E-05-1.39565E-06-7.13757E-19 5.52151E-19
 -1      4160 9.03713E-05-2.39543E-05-2.84725E-05-1.29469E-06-7.53725E-19 7.90936E-19
 -1      4161 9.04955E-05-2.40284E-05-2.84644E-05-6.84564E-07-6.45397E-19 2.17158E-19
 -1      4162 8.82262E-05-2.26788E-05-2.81067E-05-1.49346E-06-9.21560E-19 3.96246E-19
 -1      4163 8.90109E-05-2.31108E-05-2.82526E-05-1.41408E-06-1.18749E-18 6.95108E-19
 -1      4164 8.91864E-05-2.32020E-05-2.82523E-05-6.56368E-07-7.64390E-19 3.98857E-19
 -1      4165 8.63735E-05-2.18028E-05-2.76936E-05-1.51601E-06-4.40057E-19 3.29376E-19
 -1      4166 8.73432E-05-2.22373E-05-2.79147E-05-1.46800E-06-5.77836E-19 3.64303E-19
 -1      4167 8.75938E-05-2.23485E-05-2.79289E-05-5.27676E-07-7.56023E-19 5.21909E-19
 -1      4168 8.40856E-05-2.09538E-05-2.70845E-05-1.44379E-06-8.15890E-20 4.35504E-19
 -1      4169 8.52925E-05-2.13702E-05-2.74116E-05-1.42803E-06-1.91789E-19 5.29085E-19
 -1      4170 8.56539E-05-2.15021E-05-2.74511E-05-2.51677E-07-5.84861E-19 5.73853E-19
 -1      4171 8.12182E-05-2.01689E-05-2.61987E-05-1.28042E-06-2.80372E-19 8.54196E-19
 -1      4172 8.27338E-05-2.05430E-05-2.66761E-05-1.27805E-06 1.70513E-19 8.32434E-19
 -1      4173 8.32613E-05-2.06954E-05-2.67585E-05 2.28596E-07-1.72482E-19 3.12520E-19
 -1      4174 7.75688E-05-1.95404E-05-2.49080E-05-1.07035E-06-3.85512E-19 1.04281E-18
 -1      4175 7.94860E-05-1.98150E-05-2.56079E-05-1.07465E-06-6.83217E-19 5.61166E-19
 -1      4176 8.01928E-05-1.99292E-05-2.57607E-05 9.57672E-07-4.11470E-19 1.10524E-18
 -1      4177 1.06186E-04-4.83689E-05-2.44734E-05 1.96459E-05 1.15635E-18 5.32892E-18
 -1      4178 9.53179E-05-2.85361E-05-2.86203E-05-1.67034E-07 1.57322E-19 1.22990E-19
 -1      4179 9.53753E-05-2.86148E-05-2.86121E-05-1.61662E-07 2.93320E-19 4.51735E-19
 -1      4180 9.52826E-05-2.84865E-05-2.86267E-05-1.21666E-07 4.36463E-19-8.14949E-19
 -1      4181 9.68113E-05-2.77807E-05-2.95831E-05 6.38677E-08-2.70751E-19-1.11247E-18
 -1      4182 9.68883E-05-2.82039E-05-2.94368E-05 1.61792E-07-3.60691E-19-9.04298E-19
 -1      4183 9.58831E-05-2.51844E-05-3.03029E-05-3.80218E-07 7.18366E-20-1.13453E-18
 -1      4184 7.29925E-05-1.88384E-05-2.32466E-05 5.16880E-07 1.59802E-18-4.48931E-19
 -1      4185 7.60843E-05-1.92937E-05-2.43353E-05-8.24361E-07 3.63566E-19 6.85442E-19
 -1      4186 7.69445E-05-1.93688E-05-2.45873E-05 1.61962E-06-6.13255E-20-1.55618E-18
 -1      4187 7.34826E-05-1.90706E-05-2.32530E-05 2.90985E-06 1.90947E-18-1.65307E-18
 -1      4188 9.62055E-05-2.59363E-05-3.01059E-05 3.07253E-07 4.90865E-19-1.01093E-18
 -1      4189 9.69279E-05-2.85455E-05-2.93059E-05 1.83733E-07-2.49220E-19-5.23470E-19
 -1      4190 9.69261E-05-2.88082E-05-2.91933E-05 2.47881E-07-2.87885E-19-3.80472E-19
 -1      4191 9.69513E-05-2.89008E-05-2.91675E-05 1.34208E-07-1.29654E-19-4.14803E-19
 -1      4192 9.63828E-05-2.92680E-05-2.87630E-05-6.24383E-07 1.70995E-19-1.41237E-19
 -1      4193 9.64544E-05-2.92261E-05-2.88104E-05-6.31834E-07 2.89014E-19-7.00070E-20
 -1      4194 9.64516E-05-2.93202E-05-2.87726E-05-5.07593E-07 1.67588E-19-1.96331E-19
 -1      4195 9.68681E-05-2.87140E-05-2.92108E-05-3.28587E-07 1.66155E-19-4.92656E-19
 -1      4196 9.68699E-05-2.84340E-05-2.93266E-05-2.42494E-07 2.63547E-19-6.06572E-19
 -1      4197 7.80185E-05-2.63876E-05-2.21123E-05 1.66222E-05 3.45843E-19-3.28404E-19
 -1      4198 1.16628E-04-5.73694E-05-2.54547E-05 1.88671E-05-2.01435E-19 8.07515E-18
 -1      4199 9.68091E-05-2.80726E-05-2.94624E-05-1.95082E-07 3.48519E-19-5.95459E-19
 -1      4200 9.67272E-05-2.76249E-05-2.96163E-05-6.03017E-08 4.72326E-19-7.80300E-19
 -1      4201 9.68877E-05-2.82037E-05-2.94372E-05-1.44558E-07 3.09761E-19-4.55993E-19
 -1      4202 9.63898E-05-2.67225E-05-2.98585E-05 2.03428E-07 5.83818E-19-1.03986E-18
 -1      4203 9.66106E-05-2.92242E-05-2.88816E-05-5.20165E-07 1.84832E-19 2.94873E-20
 -1      4204 9.54155E-05-2.86559E-05-2.86118E-05-1.16524E-07 3.74977E-20 2.07685E-20
 -1      4205 7.02529E-05-1.97657E-05-2.15938E-05 7.76223E-06 1.16577E-18-2.41440E-18
 -1      4206 7.27248E-05-1.97981E-05-2.26753E-05 6.09447E-06 1.74188E-18-2.43935E-18
 -1      4207 7.27612E-05-2.15488E-05-2.19916E-05 1.09114E-05 5.85279E-19-2.09997E-18
 -1      4208 9.55598E-05-2.88343E-05-2.85960E-05-1.72286E-07 2.76589E-19 3.61491E-19
 -1      4209 9.56171E-05-2.88999E-05-2.85931E-05-1.82728E-07 3.42777E-19 7.20905E-20
 -1      4210 9.55434E-05-2.88077E-05-2.86013E-05-1.20936E-07-7.12451E-20-4.41535E-20
 -1      4211 9.69372E-05-2.83395E-05-2.94008E-05 8.91908E-08 1.33143E-20-6.29696E-19
 -1      4212 9.66190E-05-2.70864E-05-2.97923E-05-3.83731E-08-1.85581E-19-1.13347E-18
 -1      4213 9.67250E-05-2.74643E-05-2.96846E-05 4.30015E-08-3.20392E-19-1.16441E-18
 -1      4214 9.68002E-05-2.76693E-05-2.96329E-05 3.04225E-08-2.68817E-19-1.01453E-18
 -1      4215 9.61374E-05-2.92936E-05-2.86460E-05-3.07737E-07-2.98348E-19 5.32305E-19
 -1      4216 9.62207E-05-2.93284E-05-2.86670E-05-3.28797E-07-2.62070E-19 6.76331E-19
 -1      4217 9.62129E-05-2.59114E-05-3.01199E-05-1.97484E-07 7.62188E-20-1.03213E-18
 -1      4218 9.63153E-05-2.93559E-05-2.86957E-05-3.50821E-07-3.01782E-19 6.33807E-19
 -1      4219 9.64031E-05-2.93678E-05-2.87278E-05-3.67070E-07-1.38850E-19 3.61276E-19
 -1      4220 9.63226E-05-2.93745E-05-2.86961E-05-2.40244E-07-2.58483E-19 6.31664E-19
 -1      4221 9.58215E-05-2.90889E-05-2.85985E-05-2.25312E-07-3.58088E-20-3.73871E-20
 -1      4222 9.58901E-05-2.91450E-05-2.86045E-05-2.45149E-07 1.50488E-19 1.82199E-19
 -1      4223 9.68541E-05-2.89343E-05-2.91058E-05-3.47186E-07 1.96545E-19-4.11809E-19
 -1      4224 9.69219E-05-2.88097E-05-2.91941E-05-2.32523E-07 1.32469E-19-6.79573E-19
 -1      4225 9.68040E-05-2.90962E-05-2.90182E-05-3.90400E-07 2.88364E-19-3.22121E-19
 -1      4226 9.59719E-05-2.92003E-05-2.86151E-05-2.64449E-07-1.41151E-19 9.30771E-20
 -1      4227 9.60480E-05-2.92485E-05-2.86276E-05-2.86306E-07-2.55613E-19 3.08502E-19
 -1      4228 9.61392E-05-2.93022E-05-2.86482E-05-2.11346E-07 7.22693E-20 5.05522E-19
 -1      4229 9.59695E-05-2.92003E-05-2.86186E-05-1.82179E-07 8.18855E-20 1.86516E-19
 -1      4230 9.64920E-05-2.66184E-05-2.99519E-05 4.77243E-08 1.06325E-19-9.87377E-19
 -1      4231 9.64803E-05-2.66078E-05-2.99548E-05-1.71456E-08-9.13537E-20-1.17698E-18
 -1      4232 9.64728E-05-2.67513E-05-2.98860E-05 8.14154E-08 4.44865E-19-9.83115E-19
 -1      4233 9.66678E-05-2.92928E-05-2.88743E-05-4.01235E-07 3.82257E-20-3.26843E-20
 -1      4234 9.67444E-05-2.92149E-05-2.89389E-05-3.88593E-07 1.08728E-19-1.17834E-19
 -1      4235 9.68418E-05-2.91650E-05-2.90081E-05-2.72794E-07 8.12595E-20-3.35495E-19
 -1      4236 9.69750E-05-2.88703E-05-2.91868E-05-5.85394E-08 4.50385E-20-3.85629E-19
 -1      4237 9.69423E-05-2.90677E-05-2.90860E-05-4.36779E-08-3.77149E-20-1.97042E-19
 -1      4238 9.67657E-05-2.93598E-05-2.88866E-05 3.23998E-08-3.71091E-19 3.89242E-20
 -1      4239 9.66774E-05-2.94068E-05-2.88285E-05 2.98834E-08-2.33934E-19-2.23867E-19
 -1      4240 9.65373E-05-2.94135E-05-2.87656E-05-5.35433E-08-2.66065E-19-6.44625E-20
 -1      4241 9.64415E-05-2.94069E-05-2.87267E-05-5.13005E-08-3.47523E-19-3.61877E-20
 -1      4242 9.63472E-05-2.93827E-05-2.86964E-05-4.51674E-08-1.14788E-19-1.01807E-19
 -1      4243 9.62495E-05-2.93493E-05-2.86691E-05-4.69859E-08 1.59151E-19-1.13905E-19
 -1      4244 9.61592E-05-2.93048E-05-2.86493E-05-3.85729E-08 6.18693E-20 4.93898E-20
 -1      4245 9.60675E-05-2.92550E-05-2.86319E-05-4.14799E-08 7.87211E-20 4.23020E-19
 -1      4246 9.59841E-05-2.91986E-05-2.86202E-05-3.30609E-08 8.26538E-20 1.17179E-19
 -1      4247 9.59001E-05-2.91390E-05-2.86103E-05-3.60031E-08 1.64695E-20 4.62216E-19
 -1      4248 9.57023E-05-2.89646E-05-2.86011E-05 1.64263E-08 2.45448E-19 5.12129E-19
 -1      4249 9.56328E-05-2.88952E-05-2.86011E-05 1.22703E-08 6.81990E-20 6.28116E-19
 -1      4250 9.55404E-05-2.87974E-05-2.86039E-05-2.54287E-08-1.32165E-19 2.48595E-19
 -1      4251 9.54739E-05-2.87209E-05-2.86081E-05-2.51899E-08-3.85020E-20-1.89032E-19
 -1      4252 9.54081E-05-2.86413E-05-2.86142E-05-2.59519E-08 1.73689E-19-3.99966E-19
 -1      4253 9.53387E-05-2.85569E-05-2.86208E-05-2.45247E-08 4.57829E-19-2.12332E-19
 -1      4254 9.52679E-05-2.84678E-05-2.86290E-05-2.89363E-08 4.86282E-19-4.45113E-19
 -1      4255 9.51919E-05-2.83723E-05-2.86374E-05-2.55785E-08 1.28477E-19-3.02624E-19
 -1      4256 9.51109E-05-2.82701E-05-2.86471E-05-3.40784E-08-4.54771E-20-2.01725E-19
 -1      4257 9.50227E-05-2.81593E-05-2.86567E-05-2.81124E-08 1.97266E-19-1.15249E-19
 -1      4258 9.49250E-05-2.80397E-05-2.86670E-05-4.10124E-08-4.44721E-19 3.21562E-19
 -1      4259 9.48181E-05-2.79089E-05-2.86770E-05-3.16206E-08-7.31399E-19 6.77378E-19
 -1      4260 9.46963E-05-2.77667E-05-2.86869E-05-4.89876E-08-4.02126E-19 1.13155E-18
 -1      4261 9.45631E-05-2.76111E-05-2.86960E-05-3.50062E-08-3.86070E-19 9.21323E-19
 -1      4262 9.44087E-05-2.74414E-05-2.87043E-05-5.64923E-08-6.35985E-19 9.63648E-19
 -1      4263 9.42411E-05-2.72562E-05-2.87110E-05-3.62116E-08-7.48872E-19 4.52698E-19
 -1      4264 9.40445E-05-2.70540E-05-2.87156E-05-6.07686E-08-5.15186E-19 1.20852E-18
 -1      4265 9.38335E-05-2.68352E-05-2.87177E-05-3.16588E-08-7.75527E-19 1.11073E-18
 -1      4266 9.35837E-05-2.65965E-05-2.87159E-05-5.71243E-08-6.08269E-19 1.17986E-18
 -1      4267 9.33201E-05-2.63417E-05-2.87103E-05-1.54416E-08 2.16049E-19 1.11963E-18
 -1      4268 9.30050E-05-2.60640E-05-2.86983E-05-3.79789E-08 5.64766E-19 7.73175E-19
 -1      4269 9.26794E-05-2.57730E-05-2.86808E-05 2.17971E-08 3.49149E-19 8.02861E-19
 -1      4270 9.22858E-05-2.54561E-05-2.86530E-05 8.40799E-09 3.48102E-19 6.99532E-19
 -1      4271 9.18892E-05-2.51326E-05-2.86180E-05 9.43685E-08 2.00033E-19 8.04652E-19
 -1      4272 9.14022E-05-2.47800E-05-2.85672E-05 9.95698E-08-3.36078E-19 9.79106E-19
 -1      4273 9.09265E-05-2.44324E-05-2.85070E-05 2.23489E-07-4.11630E-19 4.97916E-19
 -1      4274 9.03297E-05-2.40520E-05-2.84234E-05 2.60860E-07-8.92311E-19 8.60190E-19
 -1      4275 8.97680E-05-2.36954E-05-2.83281E-05 4.39745E-07-1.22538E-18 3.44277E-19
 -1      4276 8.90417E-05-2.33006E-05-2.81985E-05 5.27927E-07-1.23865E-18 8.95141E-19
 -1      4277 8.83883E-05-2.29570E-05-2.80552E-05 7.86191E-07-9.01481E-19 9.91694E-19
 -1      4278 8.75067E-05-2.25667E-05-2.78617E-05 9.49868E-07-6.79697E-19 1.22808E-18
 -1      4279 8.67562E-05-2.22664E-05-2.76541E-05 1.32237E-06-6.14570E-19 1.37381E-18
 -1      4280 8.56813E-05-2.19036E-05-2.73727E-05 1.59391E-06-4.85326E-19 1.15101E-18
 -1      4281 8.48274E-05-2.16849E-05-2.70792E-05 2.13010E-06-1.23118E-19 2.39035E-19
 -1      4282 8.34976E-05-2.13711E-05-2.66762E-05 2.55518E-06-6.58965E-20 2.93619E-19
 -1      4283 8.25375E-05-2.12829E-05-2.62693E-05 3.33021E-06 4.14201E-19-1.32571E-19
 -1      4284 8.08244E-05-2.09879E-05-2.56934E-05 3.99134E-06 3.12835E-19-1.03604E-18
 -1      4285 7.97562E-05-2.11038E-05-2.51349E-05 5.05126E-06 8.73002E-19-1.62451E-18
 -1      4286 9.66669E-05-2.72728E-05-2.97344E-05 9.59169E-09 2.41815E-19-7.81653E-19
 -1      4287 9.68842E-05-2.92063E-05-2.90037E-05-6.16305E-08-1.33170E-19-8.19002E-20
 -1      4288 9.68081E-05-2.93062E-05-2.89276E-05-5.40753E-08-2.38877E-19-4.51933E-20
 -1      4289 9.67236E-05-2.72523E-05-2.97622E-05-2.18282E-09-2.46441E-19-1.07803E-18
 -1      4290 9.65098E-05-2.66886E-05-2.99271E-05-3.15773E-08-1.36148E-19-1.17711E-18
 -1      4291 9.57473E-05-2.90270E-05-2.85940E-05-2.08868E-07-1.52840E-19-1.91872E-19
 -1      4292 9.58160E-05-2.90812E-05-2.86030E-05-1.56026E-07 1.31811E-19 2.32550E-19
 -1      4293 9.56848E-05-2.89655E-05-2.85930E-05-1.93396E-07 1.39421E-19-1.42719E-19
 -1      4294 9.69476E-05-2.82894E-05-2.94256E-05-4.96231E-08 1.60725E-19-5.67162E-19
 -1      4295 9.69849E-05-2.86217E-05-2.92953E-05-2.53237E-08 1.01917E-19-4.47225E-19
 -1      4296 9.64960E-05-2.93666E-05-2.87695E-05-3.85843E-07 4.70535E-20 9.93772E-20
 -1      4297 9.65810E-05-2.93415E-05-2.88159E-05-3.93266E-07 7.65175E-20 1.21730E-19
 -1      4298 9.66874E-05-2.93348E-05-2.88669E-05-2.73792E-07-1.74977E-19-9.40628E-20
 -1      4299 9.65111E-05-2.93967E-05-2.87654E-05-2.65300E-07-2.13714E-19 3.71562E-19
 -1      4300 9.58243E-05-2.90762E-05-2.86050E-05-2.93295E-08 3.11428E-20 4.15280E-19
 -1      4301 9.68777E-05-2.78822E-05-2.95650E-05-3.79601E-09 1.81808E-19-6.89794E-19
 -1      4302 9.55710E-05-2.88333E-05-2.86024E-05-8.22093E-08-1.07699E-19-3.96217E-19
 -1      4303 9.57477E-05-2.90100E-05-2.86010E-05-3.10209E-08 2.96099E-19 3.35619E-19
 -1      4304 9.57063E-05-2.89753E-05-2.85998E-05-9.40857E-08 2.65954E-19-3.33138E-19
 -1      4305 9.67973E-05-2.75838E-05-2.96634E-05 8.17190E-09-8.23812E-20-9.14441E-19
 -1      4306 7.67695E-05-1.98889E-05-2.43955E-05 3.93720E-06 3.79605E-19-2.84246E-18
 -1      4307 7.87560E-05-2.17714E-05-2.44525E-05 7.67130E-06 1.82090E-18-2.11059E-18
 -1      4308 7.77146E-05-2.23212E-05-2.36964E-05 9.40376E-06 1.12340E-18-1.99065E-18
 -1      4309 9.64638E-05-2.66743E-05-2.99141E-05-1.35265E-07-8.53161E-20-1.08906E-18
 -1      4310 7.57413E-05-2.32634E-05-2.25222E-05 1.25468E-05 1.67780E-19-1.08411E-18
 -1      4311 9.67688E-05-2.74930E-05-2.96897E-05-1.76397E-08 6.33706E-20-7.41453E-19
 -1      4312 7.45722E-05-1.99480E-05-2.34204E-05 5.26546E-06 1.59693E-18-3.15312E-18
 -1      4313 9.65672E-05-2.94005E-05-2.87875E-05-1.75837E-07-3.87943E-19 3.69543E-19
 -1      4314 9.56730E-05-2.89470E-05-2.85978E-05-1.32826E-07 1.37133E-19-6.02913E-19
 -1      4315 7.71092E-05-2.26440E-05-2.33546E-05 1.04687E-05 7.65784E-19-1.97139E-18
 -1      4316 9.67529E-05-2.93402E-05-2.88929E-05-1.88959E-07-2.80009E-19 4.13192E-20
 -1      4317 9.56346E-05-2.89030E-05-2.85992E-05-8.71146E-08 2.71889E-20-4.81360E-19
 -1      4318 7.52557E-05-1.98114E-05-2.38018E-05 4.52105E-06 1.54446E-18-3.02221E-18
 -1      4319 7.48262E-05-2.04624E-05-2.32466E-05 7.51643E-06 1.85695E-18-3.93147E-18
 -1      4320 9.66570E-05-2.93817E-05-2.88316E-05-1.85931E-07-2.63218E-19 1.36277E-19
 -3
    1PSTEP                         4           1           1          
  100CL  101 1.000000000        4320                     0    1           1
 -4  ERROR       1    1
 -5  STR(%)      1    1    0    0
 -1         1 1.45041E+01
 -1         2 2.74583E+01
 -1         3 9.08673E-01
 -1         4 4.28561E-01
 -1         5 1.40385E+01
 -1         6 1.31428E+01
 -1         7 1.31428E+01
 -1         8 3.66359E+00
 -1         9 1.82527E+00
 -1        10 1.28940E+00
 -1        11 1.04649E+00
 -1        12 9.00006E-01
 -1        13 8.08828E-01
 -1        14 7.53681E-01
 -1        15 7.55644E-01
 -1        16 8.13104E-01
 -1        17 9.00876E-01
 -1        18 1.05274E+00
 -1        19 1.30797E+00
 -1        20 1.83597E+00
 -1        21 3.50540E+00
 -1        22 8.64070E+00
 -1        23 1.31428E+01
 -1        24 4.31734E+00
 -1        25 3.34007E+00
 -1        26 2.11054E+00
 -1        27 1.36175E+00
 -1        28 1.01378E+00
 -1        29 7.74656E-01
 -1        30 5.94629E-01
 -1        31 4.54105E-01
 -1        32 3.46181E-01
 -1        33 2.66865E-01
 -1        34 2.02901E-01
 -1        35 1.52200E-01
 -1        36 1.12758E-01
 -1        37 8.27445E-02
 -1        38 6.31936E-02
 -1        39 4.89078E-02
 -1        40 3.73388E-02
 -1        41 2.98282E-02
 -1        42 2.70406E-02
 -1        43 3.34391E-02
 -1        44 4.23179E-02
 -1        45 5.32772E-02
 -1        46 6.57663E-02
 -1        47 8.21406E-02
 -1        48 1.12028E-01
 -1        49 1.49242E-01
 -1        50 1.93697E-01
 -1        51 2.44258E-01
 -1        52 2.98106E-01
 -1        53 3.49916E-01
 -1        54 4.44180E-01
 -1        55 5.61611E-01
 -1        56 7.17407E-01
 -1        57 8.65768E-01
 -1        58 9.68355E-01
 -1        59 1.02260E+00
 -1        60 1.21119E+00
 -1        61 1.22686E+00
 -1        62 1.80968E+00
 -1        63 2.34166E+00
 -1        64 3.96228E+00
 -1        65 5.44832E+00
 -1        66 5.95339E+00
 -1        67 5.95339E+00
 -1        68 5.78429E+00
 -1        69 5.10108E+00
 -1        70 3.15400E+00
 -1        71 2.27340E+00
 -1        72 1.40385E+01
 -1        73 3.39450E+00
 -1        74 2.41272E+00
 -1        75 1.66543E+00
 -1        76 1.14424E+00
 -1        77 9.06048E-01
 -1        78 7.31323E-01
 -1        79 5.87739E-01
 -1        80 4.67952E-01
 -1        81 3.68096E-01
 -1        82 2.93403E-01
 -1        83 2.31017E-01
 -1        84 1.79204E-01
 -1        85 1.37123E-01
 -1        86 1.03727E-01
 -1        87 7.79385E-02
 -1        88 5.87424E-02
 -1        89 4.52507E-02
 -1        90 3.67334E-02
 -1        91 3.35832E-02
 -1        92 4.00290E-02
 -1        93 5.13703E-02
 -1        94 6.71979E-02
 -1        95 8.78140E-02
 -1        96 1.13532E-01
 -1        97 1.44559E-01
 -1        98 1.80811E-01
 -1        99 2.21630E-01
 -1       100 2.89628E-01
 -1       101 3.76225E-01
 -1       102 4.78171E-01
 -1       103 5.92248E-01
 -1       104 7.09905E-01
 -1       105 8.13839E-01
 -1       106 8.73656E-01
 -1       107 1.10659E+00
 -1       108 1.49070E+00
 -1       109 1.84582E+00
 -1       110 2.26087E+00
 -1       111 2.94520E+00
 -1       112 3.26444E+00
 -1       113 4.78210E+00
 -1       114 7.51846E+00
 -1       115 1.09573E+01
 -1       116 1.14166E+01
 -1       117 1.14166E+01
 -1       118 1.10814E+01
 -1       119 7.48804E+00
 -1       120 3.41890E+00
 -1       121 1.86290E+00
 -1       122 1.75130E+00
 -1       123 3.37745E+00
 -1       124 5.19377E+00
 -1       125 5.49981E+00
 -1       126 6.45687E+00
 -1       127 1.60290E+01
 -1       128 1.60290E+01
 -1       129 7.99083E+00
 -1       130 5.86110E+00
 -1       131 5.86110E+00
 -1       132 4.67066E+00
 -1       133 2.80191E+00
 -1       134 1.36895E+00
 -1       135 5.37044E-01
 -1       136 7.50917E-01
 -1       137 1.43333E+00
 -1       138 2.74583E+01
 -1       139 4.36823E+01
 -1       140 4.36823E+01
 -1       141 1.64344E+01
 -1       142 1.26791E+01
 -1       143 1.26791E+01
 -1       144 1.31060E+01
 -1       145 1.36040E+01
 -1       146 1.36040E+01
 -1       147 1.41573E+01
 -1       148 3.98368E+01
 -1       149 3.98368E+01
 -1       150 2.39830E+01
 -1       151 2.39830E+01
 -1       152 2.33623E+01
 -1       153 2.35866E+01
 -1       154 4.03734E+01
 -1       155 4.03734E+01
 -1       156 1.49553E+01
 -1       157 1.23229E+01
 -1       158 1.24599E+01
 -1       159 1.24599E+01
 -1       160 1.23378E+01
 -1       161 1.24510E+01
 -1       162 4.10145E+01
 -1       163 4.10145E+01
 -1       164 2.59934E+01
 -1       165 6.07749E+00
 -1       166 2.29901E+00
 -1       167 1.50791E+00
 -1       168 1.15813E+00
 -1       169 9.73636E-01
 -1       170 8.64553E-01
 -1       171 7.95911E-01
 -1       172 7.55644E-01
 -1       173 7.99340E-01
 -1       174 8.67207E-01
 -1       175 9.81089E-01
 -1       176 1.17268E+00
 -1       177 1.52781E+00
 -1       178 2.26102E+00
 -1       179 3.93100E+00
 -1       180 1.40385E+01
 -1       181 4.31734E+00
 -1       182 3.34007E+00
 -1       183 2.11054E+00
 -1       184 1.44638E+00
 -1       185 1.02451E+00
 -1       186 7.74656E-01
 -1       187 5.94629E-01
 -1       188 4.66839E-01
 -1       189 3.66427E-01
 -1       190 2.88082E-01
 -1       191 2.30922E-01
 -1       192 1.82291E-01
 -1       193 1.42014E-01
 -1       194 1.09458E-01
 -1       195 8.37835E-02
 -1       196 6.40827E-02
 -1       197 4.94620E-02
 -1       198 3.90839E-02
 -1       199 3.21801E-02
 -1       200 2.86720E-02
 -1       201 3.34391E-02
 -1       202 4.23179E-02
 -1       203 5.32772E-02
 -1       204 6.72611E-02
 -1       205 8.97956E-02
 -1       206 1.17800E-01
 -1       207 1.51191E-01
 -1       208 1.93697E-01
 -1       209 2.49630E-01
 -1       210 3.26947E-01
 -1       211 4.11571E-01
 -1       212 4.95458E-01
 -1       213 5.89178E-01
 -1       214 7.17407E-01
 -1       215 8.65768E-01
 -1       216 9.68355E-01
 -1       217 1.02260E+00
 -1       218 1.21119E+00
 -1       219 1.22686E+00
 -1       220 1.80968E+00
 -1       221 2.67932E+00
 -1       222 3.96228E+00
 -1       223 5.44832E+00
 -1       224 5.95339E+00
 -1       225 5.78429E+00
 -1       226 5.10108E+00
 -1       227 3.15400E+00
 -1       228 2.27340E+00
 -1       229 3.39450E+00
 -1       230 2.41272E+00
 -1       231 1.66543E+00
 -1       232 1.14424E+00
 -1       233 9.06048E-01
 -1       234 7.31323E-01
 -1       235 5.87739E-01
 -1       236 4.67952E-01
 -1       237 3.68096E-01
 -1       238 2.93403E-01
 -1       239 2.31017E-01
 -1       240 1.82093E-01
 -1       241 1.42125E-01
 -1       242 1.09668E-01
 -1       243 8.40126E-02
 -1       244 6.43897E-02
 -1       245 5.00568E-02
 -1       246 4.03506E-02
 -1       247 3.47144E-02
 -1       248 3.81474E-02
 -1       249 4.63040E-02
 -1       250 5.80390E-02
 -1       251 7.33681E-02
 -1       252 9.22568E-02
 -1       253 1.14505E-01
 -1       254 1.48415E-01
 -1       255 1.96777E-01
 -1       256 2.56386E-01
 -1       257 3.27735E-01
 -1       258 4.10236E-01
 -1       259 5.02453E-01
 -1       260 5.95109E-01
 -1       261 7.09905E-01
 -1       262 8.13839E-01
 -1       263 1.00031E+00
 -1       264 1.26139E+00
 -1       265 1.49070E+00
 -1       266 1.84582E+00
 -1       267 2.26087E+00
 -1       268 2.94520E+00
 -1       269 3.26444E+00
 -1       270 5.02372E+00
 -1       271 7.51846E+00
 -1       272 1.09573E+01
 -1       273 1.14166E+01
 -1       274 1.10814E+01
 -1       275 7.48804E+00
 -1       276 3.63568E+00
 -1       277 2.50866E+00
 -1       278 4.08362E+00
 -1       279 6.29988E+00
 -1       280 6.81754E+00
 -1       281 8.08550E+00
 -1       282 1.24380E+01
 -1       283 1.60290E+01
 -1       284 1.41256E+01
 -1       285 7.68068E+00
 -1       286 6.18691E+00
 -1       287 6.18691E+00
 -1       288 4.84554E+00
 -1       289 2.73827E+00
 -1       290 1.34594E+00
 -1       291 6.72210E-01
 -1       292 1.00391E+00
 -1       293 4.80446E+01
 -1       294 3.87204E+01
 -1       295 4.36823E+01
 -1       296 1.69883E+01
 -1       297 1.15738E+01
 -1       298 1.26791E+01
 -1       299 1.22735E+01
 -1       300 1.31060E+01
 -1       301 1.36040E+01
 -1       302 1.20485E+01
 -1       303 1.41573E+01
 -1       304 3.98368E+01
 -1       305 3.68580E+01
 -1       306 2.42704E+01
 -1       307 2.48991E+01
 -1       308 2.48991E+01
 -1       309 3.66173E+01
 -1       310 4.03734E+01
 -1       311 1.49553E+01
 -1       312 1.11039E+01
 -1       313 1.23229E+01
 -1       314 1.24599E+01
 -1       315 1.23378E+01
 -1       316 1.21421E+01
 -1       317 1.24510E+01
 -1       318 1.48792E+01
 -1       319 4.10145E+01
 -1       320 4.21840E+01
 -1       321 4.80446E+01
 -1       322 1.04854E+00
 -1       323 2.48001E+00
 -1       324 7.95391E-01
 -1       325 6.95050E-01
 -1       326 6.31873E-01
 -1       327 5.87582E-01
 -1       328 5.90780E-01
 -1       329 6.34531E-01
 -1       330 7.01327E-01
 -1       331 7.96582E-01
 -1       332 9.32074E-01
 -1       333 1.16045E+00
 -1       334 1.32933E+00
 -1       335 2.20029E+00
 -1       336 1.91368E+00
 -1       337 1.72862E+00
 -1       338 1.26656E+00
 -1       339 9.06085E-01
 -1       340 6.54783E-01
 -1       341 5.37678E-01
 -1       342 4.40274E-01
 -1       343 3.54352E-01
 -1       344 2.88540E-01
 -1       345 2.32875E-01
 -1       346 1.84951E-01
 -1       347 1.49445E-01
 -1       348 1.19813E-01
 -1       349 9.49605E-02
 -1       350 7.46900E-02
 -1       351 5.85756E-02
 -1       352 4.60707E-02
 -1       353 3.65682E-02
 -1       354 2.94308E-02
 -1       355 2.79427E-02
 -1       356 3.05220E-02
 -1       357 3.77207E-02
 -1       358 4.98692E-02
 -1       359 6.72611E-02
 -1       360 9.00602E-02
 -1       361 1.27779E-01
 -1       362 1.75088E-01
 -1       363 2.32264E-01
 -1       364 2.98238E-01
 -1       365 3.69758E-01
 -1       366 4.40331E-01
 -1       367 5.07339E-01
 -1       368 5.78264E-01
 -1       369 6.61288E-01
 -1       370 6.98364E-01
 -1       371 6.47478E-01
 -1       372 6.26128E-01
 -1       373 6.35080E-01
 -1       374 1.15896E+00
 -1       375 1.98089E+00
 -1       376 2.68979E+00
 -1       377 3.40479E+00
 -1       378 3.75113E+00
 -1       379 3.42117E+00
 -1       380 3.30473E+00
 -1       381 3.32042E+00
 -1       382 1.56832E+00
 -1       383 1.13001E+00
 -1       384 8.90359E-01
 -1       385 7.02679E-01
 -1       386 5.43654E-01
 -1       387 4.36632E-01
 -1       388 3.69792E-01
 -1       389 3.05626E-01
 -1       390 2.49742E-01
 -1       391 2.03974E-01
 -1       392 1.63800E-01
 -1       393 1.29721E-01
 -1       394 1.01679E-01
 -1       395 7.92508E-02
 -1       396 6.16933E-02
 -1       397 4.85365E-02
 -1       398 3.93169E-02
 -1       399 3.36184E-02
 -1       400 3.15381E-02
 -1       401 3.56020E-02
 -1       402 4.20126E-02
 -1       403 5.18820E-02
 -1       404 6.99282E-02
 -1       405 9.36770E-02
 -1       406 1.24092E-01
 -1       407 1.74771E-01
 -1       408 2.49083E-01
 -1       409 3.46095E-01
 -1       410 4.69456E-01
 -1       411 6.21217E-01
 -1       412 7.99618E-01
 -1       413 9.95466E-01
 -1       414 1.18689E+00
 -1       415 1.36033E+00
 -1       416 1.50341E+00
 -1       417 1.50341E+00
 -1       418 1.48389E+00
 -1       419 1.21375E+00
 -1       420 1.42601E+00
 -1       421 2.85786E+00
 -1       422 4.67696E+00
 -1       423 5.64930E+00
 -1       424 5.89804E+00
 -1       425 5.54899E+00
 -1       426 5.75510E+00
 -1       427 4.51919E+00
 -1       428 2.45539E+00
 -1       429 6.29988E+00
 -1       430 5.19677E+00
 -1       431 3.73613E+00
 -1       432 8.22894E+00
 -1       433 3.11419E+01
 -1       434 4.80446E+01
 -1       435 1.94583E+01
 -1       436 1.23270E+01
 -1       437 6.44111E+00
 -1       438 5.74295E+00
 -1       439 4.08621E+00
 -1       440 2.26419E+00
 -1       441 2.05251E+00
 -1       442 2.57334E+01
 -1       443 1.37859E+01
 -1       444 6.93415E+00
 -1       445 9.11142E-01
 -1       446 1.18194E+01
 -1       447 1.20757E+01
 -1       448 1.16200E+01
 -1       449 8.68059E+00
 -1       450 7.44735E+00
 -1       451 1.37642E+01
 -1       452 2.43152E+01
 -1       453 2.05811E+01
 -1       454 3.08570E+01
 -1       455 3.08570E+01
 -1       456 2.15096E+01
 -1       457 2.37540E+01
 -1       458 1.34397E+01
 -1       459 7.91215E+00
 -1       460 8.20086E+00
 -1       461 1.03545E+01
 -1       462 1.07355E+01
 -1       463 1.07897E+01
 -1       464 9.63027E+00
 -1       465 6.57542E+00
 -1       466 1.32626E+01
 -1       467 2.49413E+01
 -1       468 8.89186E+00
 -1       469 1.83797E+01
 -1       470 1.75260E+00
 -1       471 4.21840E+01
 -1       472 3.11419E+01
 -1       473 6.59309E+00
 -1       474 1.29132E+01
 -1       475 1.04705E+00
 -1       476 4.86553E-01
 -1       477 5.14638E-01
 -1       478 4.31532E-01
 -1       479 4.57536E-01
 -1       480 4.87188E-01
 -1       481 5.11314E-01
 -1       482 5.11314E-01
 -1       483 6.09714E-01
 -1       484 8.90359E-01
 -1       485 8.02813E-01
 -1       486 6.58363E+00
 -1       487 6.77856E+00
 -1       488 7.01251E-01
 -1       489 5.87795E-01
 -1       490 4.75195E-01
 -1       491 3.76269E-01
 -1       492 3.21530E-01
 -1       493 2.71147E-01
 -1       494 2.23417E-01
 -1       495 1.84710E-01
 -1       496 1.50741E-01
 -1       497 1.21129E-01
 -1       498 9.61524E-02
 -1       499 7.74431E-02
 -1       500 6.19000E-02
 -1       501 4.90453E-02
 -1       502 3.85194E-02
 -1       503 2.98428E-02
 -1       504 2.50036E-02
 -1       505 2.36976E-02
 -1       506 2.93465E-02
 -1       507 3.77207E-02
 -1       508 5.60156E-02
 -1       509 8.16008E-02
 -1       510 1.14266E-01
 -1       511 1.55031E-01
 -1       512 2.04459E-01
 -1       513 2.62258E-01
 -1       514 3.26711E-01
 -1       515 3.93937E-01
 -1       516 4.60236E-01
 -1       517 5.26508E-01
 -1       518 5.66365E-01
 -1       519 6.03166E-01
 -1       520 6.22661E-01
 -1       521 6.09472E-01
 -1       522 8.18144E-01
 -1       523 9.95666E-01
 -1       524 1.52358E+00
 -1       525 2.15010E+00
 -1       526 2.58015E+00
 -1       527 2.94708E+00
 -1       528 3.47355E+00
 -1       529 2.96509E+00
 -1       530 3.32042E+00
 -1       531 3.63922E+00
 -1       532 5.43654E-01
 -1       533 4.36632E-01
 -1       534 3.69792E-01
 -1       535 3.05626E-01
 -1       536 2.49742E-01
 -1       537 2.04765E-01
 -1       538 1.65188E-01
 -1       539 1.31334E-01
 -1       540 1.06232E-01
 -1       541 8.51861E-02
 -1       542 6.77284E-02
 -1       543 5.35926E-02
 -1       544 4.23544E-02
 -1       545 3.34911E-02
 -1       546 2.72302E-02
 -1       547 2.67161E-02
 -1       548 2.94355E-02
 -1       549 3.86442E-02
 -1       550 5.18820E-02
 -1       551 7.80971E-02
 -1       552 1.14748E-01
 -1       553 1.63676E-01
 -1       554 2.27967E-01
 -1       555 3.10963E-01
 -1       556 4.15933E-01
 -1       557 5.45406E-01
 -1       558 6.99930E-01
 -1       559 8.75962E-01
 -1       560 1.06266E+00
 -1       561 1.23771E+00
 -1       562 1.39752E+00
 -1       563 1.52773E+00
 -1       564 1.73185E+00
 -1       565 1.90871E+00
 -1       566 2.21722E+00
 -1       567 3.19728E+00
 -1       568 3.70341E+00
 -1       569 7.03663E+00
 -1       570 6.33728E+00
 -1       571 5.89804E+00
 -1       572 5.54899E+00
 -1       573 5.39717E+00
 -1       574 5.39717E+00
 -1       575 1.10635E+01
 -1       576 6.59309E+00
 -1       577 6.11992E+00
 -1       578 3.32042E+00
 -1       579 7.02679E-01
 -1       580 6.60214E+00
 -1       581 8.71951E-01
 -1       582 8.98509E+00
 -1       583 1.20718E+01
 -1       584 4.57442E-01
 -1       585 7.03663E+00
 -1       586 8.39430E+00
 -1       587 3.08570E+01
 -1       588 5.39567E+00
 -1       589 4.20659E+00
 -1       590 7.93733E+00
 -1       591 1.65139E+01
 -1       592 2.14703E+01
 -1       593 2.27807E+01
 -1       594 1.89932E+01
 -1       595 6.60655E+00
 -1       596 3.97454E+00
 -1       597 6.03806E+00
 -1       598 8.92796E+00
 -1       599 6.90060E+00
 -1       600 8.86673E+00
 -1       601 1.32770E+00
 -1       602 5.31418E-01
 -1       603 6.59309E+00
 -1       604 1.14232E+01
 -1       605 7.17723E+00
 -1       606 7.03663E+00
 -1       607 3.58487E-01
 -1       608 3.42726E-01
 -1       609 3.62055E-01
 -1       610 3.38226E-01
 -1       611 5.43674E-01
 -1       612 4.72747E+00
 -1       613 4.75770E+00
 -1       614 3.96231E-01
 -1       615 3.83239E-01
 -1       616 3.42049E-01
 -1       617 2.92268E-01
 -1       618 2.42448E-01
 -1       619 2.11272E-01
 -1       620 1.78694E-01
 -1       621 1.47658E-01
 -1       622 1.19730E-01
 -1       623 9.62958E-02
 -1       624 7.75280E-02
 -1       625 6.19000E-02
 -1       626 4.90453E-02
 -1       627 3.85194E-02
 -1       628 2.98428E-02
 -1       629 2.32537E-02
 -1       630 1.78785E-02
 -1       631 2.02695E-02
 -1       632 2.85094E-02
 -1       633 4.51403E-02
 -1       634 6.63225E-02
 -1       635 9.31962E-02
 -1       636 1.26879E-01
 -1       637 1.68346E-01
 -1       638 2.18234E-01
 -1       639 2.76559E-01
 -1       640 3.42923E-01
 -1       641 4.18420E-01
 -1       642 4.95508E-01
 -1       643 5.62527E-01
 -1       644 6.39883E-01
 -1       645 7.36046E-01
 -1       646 8.37451E-01
 -1       647 9.31116E-01
 -1       648 1.32739E+00
 -1       649 1.65274E+00
 -1       650 2.07218E+00
 -1       651 2.40710E+00
 -1       652 3.91736E+00
 -1       653 5.85930E+00
 -1       654 5.97023E+00
 -1       655 2.96509E+00
 -1       656 3.95164E-01
 -1       657 2.31729E-01
 -1       658 1.94221E-01
 -1       659 1.60114E-01
 -1       660 1.32024E-01
 -1       661 1.07112E-01
 -1       662 8.57991E-02
 -1       663 6.80771E-02
 -1       664 5.40168E-02
 -1       665 4.28322E-02
 -1       666 3.34911E-02
 -1       667 2.66303E-02
 -1       668 2.23732E-02
 -1       669 2.29001E-02
 -1       670 2.87170E-02
 -1       671 4.40667E-02
 -1       672 6.69550E-02
 -1       673 9.71828E-02
 -1       674 1.36840E-01
 -1       675 1.88334E-01
 -1       676 2.54376E-01
 -1       677 3.37925E-01
 -1       678 4.42049E-01
 -1       679 5.69693E-01
 -1       680 7.23279E-01
 -1       681 9.06023E-01
 -1       682 1.12322E+00
 -1       683 1.35421E+00
 -1       684 1.57928E+00
 -1       685 1.85000E+00
 -1       686 2.37828E+00
 -1       687 3.14627E+00
 -1       688 3.35680E+00
 -1       689 5.49910E+00
 -1       690 6.41794E+00
 -1       691 5.78417E+00
 -1       692 6.99721E+00
 -1       693 4.62998E-01
 -1       694 5.01959E+00
 -1       695 5.31418E-01
 -1       696 1.56776E+01
 -1       697 1.70540E+01
 -1       698 1.39240E+01
 -1       699 2.71801E-01
 -1       700 3.26333E-01
 -1       701 4.02296E-01
 -1       702 5.14425E-01
 -1       703 1.02622E+01
 -1       704 3.62055E-01
 -1       705 5.53376E+00
 -1       706 1.71809E+01
 -1       707 3.40375E+00
 -1       708 3.59005E-01
 -1       709 4.97845E+00
 -1       710 7.41188E+00
 -1       711 3.04916E+00
 -1       712 6.54673E+00
 -1       713 6.32005E+00
 -1       714 3.42309E-01
 -1       715 8.61390E+00
 -1       716 3.79149E-01
 -1       717 6.68938E+00
 -1       718 3.52170E+00
 -1       719 5.39717E+00
 -1       720 9.43573E+00
 -1       721 5.97023E+00
 -1       722 4.24494E+00
 -1       723 7.56200E+00
 -1       724 3.57606E-01
 -1       725 2.40882E-01
 -1       726 2.31761E-01
 -1       727 1.35985E-01
 -1       728 2.54601E-01
 -1       729 2.47550E-01
 -1       730 2.25651E-01
 -1       731 1.97221E-01
 -1       732 1.70681E-01
 -1       733 1.49454E-01
 -1       734 1.27179E-01
 -1       735 1.05777E-01
 -1       736 8.63140E-02
 -1       737 6.92514E-02
 -1       738 5.46523E-02
 -1       739 4.23169E-02
 -1       740 3.18703E-02
 -1       741 2.28141E-02
 -1       742 1.47094E-02
 -1       743 1.17782E-02
 -1       744 1.82123E-02
 -1       745 3.16293E-02
 -1       746 4.88879E-02
 -1       747 7.09446E-02
 -1       748 1.00101E-01
 -1       749 1.36266E-01
 -1       750 1.79899E-01
 -1       751 2.30673E-01
 -1       752 2.87055E-01
 -1       753 3.63898E-01
 -1       754 4.51233E-01
 -1       755 5.48260E-01
 -1       756 6.47205E-01
 -1       757 7.71262E-01
 -1       758 9.58790E-01
 -1       759 1.20246E+00
 -1       760 1.44505E+00
 -1       761 1.91762E+00
 -1       762 3.12051E+00
 -1       763 2.59519E+00
 -1       764 3.84861E+00
 -1       765 1.61791E-01
 -1       766 1.87549E-01
 -1       767 1.11932E-01
 -1       768 9.05275E-02
 -1       769 7.20973E-02
 -1       770 5.65873E-02
 -1       771 4.36912E-02
 -1       772 3.33742E-02
 -1       773 2.58037E-02
 -1       774 1.93445E-02
 -1       775 1.45657E-02
 -1       776 1.84093E-02
 -1       777 3.23885E-02
 -1       778 5.01617E-02
 -1       779 7.30163E-02
 -1       780 1.02434E-01
 -1       781 1.40116E-01
 -1       782 1.92527E-01
 -1       783 2.65389E-01
 -1       784 3.59202E-01
 -1       785 4.77979E-01
 -1       786 6.25212E-01
 -1       787 8.02480E-01
 -1       788 1.00673E+00
 -1       789 1.24187E+00
 -1       790 1.58415E+00
 -1       791 2.08063E+00
 -1       792 2.82862E+00
 -1       793 3.78459E+00
 -1       794 5.61482E+00
 -1       795 1.02273E+01
 -1       796 3.04883E-01
 -1       797 2.85448E-01
 -1       798 5.97023E+00
 -1       799 2.52783E-01
 -1       800 2.15928E-01
 -1       801 1.05086E+01
 -1       802 1.05086E+01
 -1       803 2.66223E+00
 -1       804 2.81794E-01
 -1       805 5.85930E+00
 -1       806 7.79937E+00
 -1       807 2.88535E-01
 -1       808 7.01250E+00
 -1       809 2.80104E-01
 -1       810 2.71856E-01
 -1       811 7.23826E+00
 -1       812 4.67939E+00
 -1       813 6.33254E+00
 -1       814 2.61883E-01
 -1       815 2.81515E-01
 -1       816 2.88535E-01
 -1       817 2.81496E-01
 -1       818 2.88707E-01
 -1       819 1.74815E-01
 -1       820 1.74050E-01
 -1       821 1.81819E-01
 -1       822 1.74415E-01
 -1       823 1.58667E-01
 -1       824 1.39009E-01
 -1       825 1.22501E-01
 -1       826 1.06099E-01
 -1       827 8.95611E-02
 -1       828 7.39930E-02
 -1       829 5.99640E-02
 -1       830 4.76665E-02
 -1       831 3.70436E-02
 -1       832 2.78424E-02
 -1       833 1.96900E-02
 -1       834 1.79169E-02
 -1       835 2.01535E-02
 -1       836 3.04883E-02
 -1       837 4.67183E-02
 -1       838 6.83916E-02
 -1       839 9.59935E-02
 -1       840 1.30634E-01
 -1       841 1.73284E-01
 -1       842 2.24583E-01
 -1       843 2.84531E-01
 -1       844 3.52024E-01
 -1       845 4.24106E-01
 -1       846 5.11724E-01
 -1       847 6.29356E-01
 -1       848 8.06485E-01
 -1       849 1.05002E+00
 -1       850 1.32374E+00
 -1       851 1.72723E+00
 -1       852 2.27352E+00
 -1       853 4.34302E+00
 -1       854 1.15250E-01
 -1       855 1.51207E-01
 -1       856 7.94824E-02
 -1       857 6.41545E-02
 -1       858 5.08390E-02
 -1       859 3.94296E-02
 -1       860 2.96256E-02
 -1       861 2.09933E-02
 -1       862 1.48186E-02
 -1       863 1.65354E-02
 -1       864 2.64996E-02
 -1       865 4.27018E-02
 -1       866 6.38489E-02
 -1       867 9.31647E-02
 -1       868 1.31933E-01
 -1       869 1.82598E-01
 -1       870 2.48256E-01
 -1       871 3.32651E-01
 -1       872 4.40360E-01
 -1       873 5.77054E-01
 -1       874 7.49867E-01
 -1       875 9.67778E-01
 -1       876 1.24187E+00
 -1       877 1.58415E+00
 -1       878 2.02733E+00
 -1       879 2.95930E+00
 -1       880 3.48672E+00
 -1       881 2.07311E-01
 -1       882 2.90476E+00
 -1       883 2.88707E-01
 -1       884 2.08639E-01
 -1       885 3.16871E+00
 -1       886 9.67055E-02
 -1       887 1.95602E-01
 -1       888 1.34041E-01
 -1       889 7.40622E+00
 -1       890 1.40420E-01
 -1       891 7.40622E+00
 -1       892 4.82123E+00
 -1       893 4.70304E+00
 -1       894 1.65075E-01
 -1       895 1.80661E-01
 -1       896 4.72845E+00
 -1       897 5.67107E+00
 -1       898 1.44556E-01
 -1       899 1.90852E-01
 -1       900 2.17340E-01
 -1       901 4.02395E+00
 -1       902 2.17340E-01
 -1       903 2.03952E-01
 -1       904 1.35563E-01
 -1       905 1.34785E-01
 -1       906 1.25956E-01
 -1       907 1.12708E-01
 -1       908 9.76065E-02
 -1       909 8.50671E-02
 -1       910 7.22755E-02
 -1       911 6.00409E-02
 -1       912 4.88777E-02
 -1       913 3.90175E-02
 -1       914 3.04634E-02
 -1       915 2.30431E-02
 -1       916 2.20561E-02
 -1       917 2.39552E-02
 -1       918 2.80565E-02
 -1       919 4.04543E-02
 -1       920 5.90394E-02
 -1       921 8.30137E-02
 -1       922 1.13617E-01
 -1       923 1.52192E-01
 -1       924 2.00144E-01
 -1       925 2.58892E-01
 -1       926 3.29777E-01
 -1       927 4.13893E-01
 -1       928 5.11724E-01
 -1       929 6.22195E-01
 -1       930 7.79037E-01
 -1       931 1.00902E+00
 -1       932 1.45683E+00
 -1       933 2.03480E+00
 -1       934 2.80420E+00
 -1       935 4.34302E+00
 -1       936 1.12165E-01
 -1       937 1.39919E-01
 -1       938 5.37777E-02
 -1       939 6.62166E-02
 -1       940 3.32513E-02
 -1       941 2.49616E-02
 -1       942 2.00099E-02
 -1       943 2.13839E-02
 -1       944 2.48798E-02
 -1       945 3.76649E-02
 -1       946 5.65627E-02
 -1       947 8.15523E-02
 -1       948 1.14128E-01
 -1       949 1.56279E-01
 -1       950 2.10418E-01
 -1       951 2.79549E-01
 -1       952 3.67598E-01
 -1       953 4.80056E-01
 -1       954 6.25279E-01
 -1       955 8.16974E-01
 -1       956 1.07861E+00
 -1       957 1.45459E+00
 -1       958 1.97646E+00
 -1       959 3.40553E+00
 -1       960 3.40553E+00
 -1       961 2.19018E-01
 -1       962 1.54853E-01
 -1       963 2.19018E-01
 -1       964 4.27899E-02
 -1       965 1.44641E-01
 -1       966 1.19285E-01
 -1       967 1.23168E-01
 -1       968 9.42538E-02
 -1       969 1.51550E-01
 -1       970 4.62986E+00
 -1       971 3.66557E+00
 -1       972 1.01163E-01
 -1       973 4.62986E+00
 -1       974 7.98779E-02
 -1       975 1.54788E-01
 -1       976 9.43220E-02
 -1       977 3.44981E+00
 -1       978 1.24034E-01
 -1       979 4.48753E+00
 -1       980 1.08370E-01
 -1       981 1.51605E-01
 -1       982 5.19003E-02
 -1       983 1.01539E-01
 -1       984 1.02831E-01
 -1       985 9.74508E-02
 -1       986 8.81220E-02
 -1       987 7.69430E-02
 -1       988 6.53864E-02
 -1       989 5.47080E-02
 -1       990 4.54567E-02
 -1       991 3.71416E-02
 -1       992 2.98282E-02
 -1       993 2.56393E-02
 -1       994 2.44456E-02
 -1       995 2.56996E-02
 -1       996 2.93196E-02
 -1       997 3.59884E-02
 -1       998 4.69680E-02
 -1       999 6.46344E-02
 -1      1000 8.91201E-02
 -1      1001 1.20747E-01
 -1      1002 1.61269E-01
 -1      1003 2.12871E-01
 -1      1004 2.78366E-01
 -1      1005 3.61501E-01
 -1      1006 4.67448E-01
 -1      1007 6.03438E-01
 -1      1008 7.79037E-01
 -1      1009 1.00504E+00
 -1      1010 1.35228E+00
 -1      1011 1.93928E+00
 -1      1012 3.27129E+00
 -1      1013 1.38110E-01
 -1      1014 2.34730E-02
 -1      1015 2.64086E-02
 -1      1016 2.65682E-02
 -1      1017 3.17605E-02
 -1      1018 4.51406E-02
 -1      1019 6.43775E-02
 -1      1020 8.92837E-02
 -1      1021 1.21199E-01
 -1      1022 1.61683E-01
 -1      1023 2.12611E-01
 -1      1024 2.76377E-01
 -1      1025 3.56360E-01
 -1      1026 4.57940E-01
 -1      1027 5.90750E-01
 -1      1028 7.73802E-01
 -1      1029 1.04173E+00
 -1      1030 1.46158E+00
 -1      1031 2.45930E+00
 -1      1032 1.16089E-01
 -1      1033 2.39046E-02
 -1      1034 5.27413E+00
 -1      1035 1.38976E-01
 -1      1036 8.96259E-02
 -1      1037 1.16704E-01
 -1      1038 9.09791E-02
 -1      1039 1.04726E-01
 -1      1040 4.48753E+00
 -1      1041 3.40553E+00
 -1      1042 6.25245E-02
 -1      1043 3.37257E-02
 -1      1044 1.54788E-01
 -1      1045 3.17891E+00
 -1      1046 7.34155E-02
 -1      1047 3.00715E+00
 -1      1048 8.60402E-02
 -1      1049 4.22829E-02
 -1      1050 1.09908E-01
 -1      1051 1.01566E-01
 -1      1052 1.01566E-01
 -1      1053 7.78621E-02
 -1      1054 9.29310E-02
 -1      1055 5.49682E-02
 -1      1056 8.37889E-02
 -1      1057 7.17156E-02
 -1      1058 8.96367E-02
 -1      1059 6.69505E-02
 -1      1060 5.80405E-02
 -1      1061 4.86998E-02
 -1      1062 3.93637E-02
 -1      1063 3.24501E-02
 -1      1064 3.64263E-02
 -1      1065 2.56393E-02
 -1      1066 2.56996E-02
 -1      1067 2.93196E-02
 -1      1068 3.59884E-02
 -1      1069 4.69680E-02
 -1      1070 6.19875E-02
 -1      1071 8.33641E-02
 -1      1072 1.12696E-01
 -1      1073 1.51471E-01
 -1      1074 2.02790E-01
 -1      1075 2.71201E-01
 -1      1076 3.63639E-01
 -1      1077 4.91029E-01
 -1      1078 6.71071E-01
 -1      1079 9.32726E-01
 -1      1080 1.32088E+00
 -1      1081 1.89639E+00
 -1      1082 2.02720E+00
 -1      1083 3.27129E+00
 -1      1084 3.64263E-02
 -1      1085 2.65682E-02
 -1      1086 4.13970E-02
 -1      1087 3.17605E-02
 -1      1088 7.32767E-02
 -1      1089 9.76292E-02
 -1      1090 1.29382E-01
 -1      1091 1.69975E-01
 -1      1092 2.21489E-01
 -1      1093 2.86762E-01
 -1      1094 3.69969E-01
 -1      1095 4.91029E-01
 -1      1096 6.71071E-01
 -1      1097 9.32726E-01
 -1      1098 1.36129E+00
 -1      1099 2.02720E+00
 -1      1100 2.39046E-02
 -1      1101 6.68306E-02
 -1      1102 2.45930E+00
 -1      1103 8.14650E-02
 -1      1104 9.88525E-02
 -1      1105 8.69501E-02
 -1      1106 7.74201E-02
 -1      1107 3.17891E+00
 -1      1108 3.41819E-02
 -1      1109 7.78621E-02
 -1      1110 6.69505E-02
 -1      1111 8.96367E-02
 -1      1112 4.86998E-02
 -1      1113 8.81693E-02
 -1      1114 5.80405E-02
 -1      1115 6.55974E-02
 -1      1116 8.37889E-02
 -1      1117 8.96367E-02
 -1      1118 3.64263E-02
 -1      1119 3.93637E-02
 -1      1120 8.71761E-02
 -1      1121 2.02720E+00
 -1      1122 1.31428E+01
 -1      1123 8.40320E+00
 -1      1124 2.74443E+00
 -1      1125 1.55734E+00
 -1      1126 1.16794E+00
 -1      1127 9.73246E-01
 -1      1128 8.54417E-01
 -1      1129 7.81255E-01
 -1      1130 7.54663E-01
 -1      1131 7.84374E-01
 -1      1132 8.56990E-01
 -1      1133 9.76808E-01
 -1      1134 1.18036E+00
 -1      1135 1.57197E+00
 -1      1136 2.67069E+00
 -1      1137 6.07305E+00
 -1      1138 1.13396E+01
 -1      1139 1.31428E+01
 -1      1140 8.73007E+00
 -1      1141 3.82870E+00
 -1      1142 2.72530E+00
 -1      1143 1.73614E+00
 -1      1144 1.18776E+00
 -1      1145 8.94216E-01
 -1      1146 6.84643E-01
 -1      1147 5.24367E-01
 -1      1148 4.00143E-01
 -1      1149 3.06523E-01
 -1      1150 2.34883E-01
 -1      1151 1.77550E-01
 -1      1152 1.32479E-01
 -1      1153 9.77510E-02
 -1      1154 7.29690E-02
 -1      1155 5.60507E-02
 -1      1156 4.31233E-02
 -1      1157 3.35835E-02
 -1      1158 2.84344E-02
 -1      1159 3.02398E-02
 -1      1160 3.78785E-02
 -1      1161 4.77976E-02
 -1      1162 5.95217E-02
 -1      1163 7.39534E-02
 -1      1164 9.70842E-02
 -1      1165 1.30635E-01
 -1      1166 1.71470E-01
 -1      1167 2.18978E-01
 -1      1168 2.71182E-01
 -1      1169 3.24011E-01
 -1      1170 3.97048E-01
 -1      1171 5.02896E-01
 -1      1172 6.39509E-01
 -1      1173 7.91587E-01
 -1      1174 9.17061E-01
 -1      1175 9.95479E-01
 -1      1176 1.11689E+00
 -1      1177 1.21902E+00
 -1      1178 1.51827E+00
 -1      1179 2.07567E+00
 -1      1180 3.15197E+00
 -1      1181 4.70530E+00
 -1      1182 5.70085E+00
 -1      1183 5.95339E+00
 -1      1184 5.86884E+00
 -1      1185 5.44268E+00
 -1      1186 4.12754E+00
 -1      1187 2.71370E+00
 -1      1188 1.35098E+00
 -1      1189 1.40385E+01
 -1      1190 8.71651E+00
 -1      1191 2.90361E+00
 -1      1192 2.03908E+00
 -1      1193 1.40483E+00
 -1      1194 1.02514E+00
 -1      1195 8.18685E-01
 -1      1196 6.59531E-01
 -1      1197 5.27846E-01
 -1      1198 4.18024E-01
 -1      1199 3.30749E-01
 -1      1200 2.62210E-01
 -1      1201 2.05111E-01
 -1      1202 1.58164E-01
 -1      1203 1.20425E-01
 -1      1204 9.08329E-02
 -1      1205 6.83405E-02
 -1      1206 5.19966E-02
 -1      1207 4.09920E-02
 -1      1208 3.51583E-02
 -1      1209 3.68061E-02
 -1      1210 4.56996E-02
 -1      1211 5.92841E-02
 -1      1212 7.75060E-02
 -1      1213 1.00673E-01
 -1      1214 1.29045E-01
 -1      1215 1.62685E-01
 -1      1216 2.01220E-01
 -1      1217 2.55629E-01
 -1      1218 3.32926E-01
 -1      1219 4.27198E-01
 -1      1220 5.35209E-01
 -1      1221 6.51076E-01
 -1      1222 7.61872E-01
 -1      1223 8.43748E-01
 -1      1224 9.90124E-01
 -1      1225 1.29865E+00
 -1      1226 1.66826E+00
 -1      1227 2.05334E+00
 -1      1228 2.60303E+00
 -1      1229 3.10482E+00
 -1      1230 4.02327E+00
 -1      1231 6.15028E+00
 -1      1232 9.23789E+00
 -1      1233 1.11870E+01
 -1      1234 1.14166E+01
 -1      1235 1.12490E+01
 -1      1236 9.28473E+00
 -1      1237 5.45347E+00
 -1      1238 2.16378E+00
 -1      1239 1.38578E+00
 -1      1240 1.80710E+00
 -1      1241 2.56437E+00
 -1      1242 4.28561E+00
 -1      1243 5.34679E+00
 -1      1244 5.97834E+00
 -1      1245 1.12430E+01
 -1      1246 1.60290E+01
 -1      1247 1.20099E+01
 -1      1248 6.92597E+00
 -1      1249 5.86110E+00
 -1      1250 5.26588E+00
 -1      1251 3.73628E+00
 -1      1252 2.08543E+00
 -1      1253 9.52996E-01
 -1      1254 6.43980E-01
 -1      1255 1.09212E+00
 -1      1256 9.30947E-01
 -1      1257 2.74583E+01
 -1      1258 3.55703E+01
 -1      1259 4.36823E+01
 -1      1260 3.00583E+01
 -1      1261 1.45567E+01
 -1      1262 1.26791E+01
 -1      1263 1.28926E+01
 -1      1264 1.33550E+01
 -1      1265 1.36040E+01
 -1      1266 1.38807E+01
 -1      1267 2.69971E+01
 -1      1268 3.98368E+01
 -1      1269 3.19099E+01
 -1      1270 2.39830E+01
 -1      1271 2.36727E+01
 -1      1272 2.34745E+01
 -1      1273 3.19800E+01
 -1      1274 4.03734E+01
 -1      1275 2.76643E+01
 -1      1276 1.36391E+01
 -1      1277 1.23914E+01
 -1      1278 1.24599E+01
 -1      1279 1.23989E+01
 -1      1280 1.23944E+01
 -1      1281 1.34775E+01
 -1      1282 2.77593E+01
 -1      1283 4.10145E+01
 -1      1284 3.35039E+01
 -1      1285 2.67258E+01
 -1      1286 1.31428E+01
 -1      1287 4.87054E+00
 -1      1288 9.61015E+00
 -1      1289 2.06214E+00
 -1      1290 2.98130E+00
 -1      1291 4.18825E+00
 -1      1292 1.39866E+00
 -1      1293 1.66659E+00
 -1      1294 1.90346E+00
 -1      1295 1.10231E+00
 -1      1296 1.22377E+00
 -1      1297 1.33302E+00
 -1      1298 9.36821E-01
 -1      1299 1.01006E+00
 -1      1300 1.06588E+00
 -1      1301 8.36690E-01
 -1      1302 8.82279E-01
 -1      1303 9.19094E-01
 -1      1304 7.74796E-01
 -1      1305 8.02370E-01
 -1      1306 8.30232E-01
 -1      1307 7.55644E-01
 -1      1308 7.54663E-01
 -1      1309 7.75777E-01
 -1      1310 8.06222E-01
 -1      1311 7.77492E-01
 -1      1312 7.77492E-01
 -1      1313 8.84041E-01
 -1      1314 8.40155E-01
 -1      1315 8.33273E-01
 -1      1316 1.01691E+00
 -1      1317 9.40982E-01
 -1      1318 9.24148E-01
 -1      1319 1.24033E+00
 -1      1320 1.11271E+00
 -1      1321 1.07688E+00
 -1      1322 1.68189E+00
 -1      1323 1.41789E+00
 -1      1324 1.35025E+00
 -1      1325 2.88321E+00
 -1      1326 2.04850E+00
 -1      1327 1.89442E+00
 -1      1328 6.28585E+00
 -1      1329 3.71820E+00
 -1      1330 3.09601E+00
 -1      1331 1.40385E+01
 -1      1332 1.13396E+01
 -1      1333 8.98476E+00
 -1      1334 1.40385E+01
 -1      1335 8.73007E+00
 -1      1336 4.31734E+00
 -1      1337 3.82870E+00
 -1      1338 3.34007E+00
 -1      1339 3.82870E+00
 -1      1340 2.72530E+00
 -1      1341 2.11054E+00
 -1      1342 2.72530E+00
 -1      1343 1.77846E+00
 -1      1344 1.40406E+00
 -1      1345 1.77846E+00
 -1      1346 1.19313E+00
 -1      1347 1.01914E+00
 -1      1348 1.23544E+00
 -1      1349 8.94216E-01
 -1      1350 7.74656E-01
 -1      1351 8.99583E-01
 -1      1352 6.84643E-01
 -1      1353 5.94629E-01
 -1      1354 6.84643E-01
 -1      1355 5.30734E-01
 -1      1356 4.60472E-01
 -1      1357 5.30734E-01
 -1      1358 4.10266E-01
 -1      1359 3.56304E-01
 -1      1360 4.16633E-01
 -1      1361 3.17131E-01
 -1      1362 2.77473E-01
 -1      1363 3.27254E-01
 -1      1364 2.48893E-01
 -1      1365 2.16911E-01
 -1      1366 2.59502E-01
 -1      1367 1.92596E-01
 -1      1368 1.67246E-01
 -1      1369 2.06607E-01
 -1      1370 1.47107E-01
 -1      1371 1.27386E-01
 -1      1372 1.62153E-01
 -1      1373 1.11108E-01
 -1      1374 9.61012E-02
 -1      1375 1.25736E-01
 -1      1376 8.32640E-02
 -1      1377 7.34886E-02
 -1      1378 9.66207E-02
 -1      1379 6.36381E-02
 -1      1380 5.64952E-02
 -1      1381 7.39331E-02
 -1      1382 4.91849E-02
 -1      1383 4.34004E-02
 -1      1384 5.67723E-02
 -1      1385 3.82114E-02
 -1      1386 3.44560E-02
 -1      1387 4.42729E-02
 -1      1388 3.10041E-02
 -1      1389 2.96103E-02
 -1      1390 3.56320E-02
 -1      1391 2.78563E-02
 -1      1392 3.10556E-02
 -1      1393 3.04261E-02
 -1      1394 3.34391E-02
 -1      1395 3.78785E-02
 -1      1396 3.10556E-02
 -1      1397 4.23179E-02
 -1      1398 4.77976E-02
 -1      1399 3.78785E-02
 -1      1400 5.32772E-02
 -1      1401 5.95217E-02
 -1      1402 4.77976E-02
 -1      1403 6.65137E-02
 -1      1404 7.47008E-02
 -1      1405 6.02692E-02
 -1      1406 8.59681E-02
 -1      1407 1.00912E-01
 -1      1408 7.85283E-02
 -1      1409 1.14914E-01
 -1      1410 1.33521E-01
 -1      1411 1.03798E-01
 -1      1412 1.50217E-01
 -1      1413 1.72444E-01
 -1      1414 1.34495E-01
 -1      1415 1.93697E-01
 -1      1416 2.18978E-01
 -1      1417 1.72444E-01
 -1      1418 2.46944E-01
 -1      1419 2.73868E-01
 -1      1420 2.21664E-01
 -1      1421 3.12527E-01
 -1      1422 3.38431E-01
 -1      1423 2.88289E-01
 -1      1424 3.80743E-01
 -1      1425 4.27876E-01
 -1      1426 3.69259E-01
 -1      1427 4.69819E-01
 -1      1428 5.28534E-01
 -1      1429 4.53514E-01
 -1      1430 5.75395E-01
 -1      1431 6.53292E-01
 -1      1432 5.42318E-01
 -1      1433 7.17407E-01
 -1      1434 7.91587E-01
 -1      1435 6.53292E-01
 -1      1436 8.65768E-01
 -1      1437 9.17061E-01
 -1      1438 7.91587E-01
 -1      1439 9.68355E-01
 -1      1440 9.95479E-01
 -1      1441 9.17061E-01
 -1      1442 1.02260E+00
 -1      1443 1.11689E+00
 -1      1444 9.95479E-01
 -1      1445 1.21119E+00
 -1      1446 1.21902E+00
 -1      1447 1.11689E+00
 -1      1448 1.22686E+00
 -1      1449 1.51827E+00
 -1      1450 1.21902E+00
 -1      1451 1.80968E+00
 -1      1452 2.07567E+00
 -1      1453 1.51827E+00
 -1      1454 2.51049E+00
 -1      1455 3.32080E+00
 -1      1456 2.24450E+00
 -1      1457 3.96228E+00
 -1      1458 4.70530E+00
 -1      1459 3.32080E+00
 -1      1460 5.44832E+00
 -1      1461 5.70085E+00
 -1      1462 4.70530E+00
 -1      1463 5.95339E+00
 -1      1464 5.95339E+00
 -1      1465 5.70085E+00
 -1      1466 5.86884E+00
 -1      1467 5.78429E+00
 -1      1468 5.86884E+00
 -1      1469 5.44268E+00
 -1      1470 5.10108E+00
 -1      1471 5.44268E+00
 -1      1472 4.12754E+00
 -1      1473 3.15400E+00
 -1      1474 4.12754E+00
 -1      1475 2.71370E+00
 -1      1476 2.27340E+00
 -1      1477 2.71370E+00
 -1      1478 1.85337E+00
 -1      1479 1.85337E+00
 -1      1480 3.39450E+00
 -1      1481 8.71651E+00
 -1      1482 8.71651E+00
 -1      1483 2.41272E+00
 -1      1484 2.90361E+00
 -1      1485 2.90361E+00
 -1      1486 1.66543E+00
 -1      1487 2.03908E+00
 -1      1488 2.03908E+00
 -1      1489 1.14424E+00
 -1      1490 1.40483E+00
 -1      1491 1.40483E+00
 -1      1492 9.06048E-01
 -1      1493 1.02514E+00
 -1      1494 1.02514E+00
 -1      1495 7.31323E-01
 -1      1496 8.18685E-01
 -1      1497 8.18685E-01
 -1      1498 5.87739E-01
 -1      1499 6.59531E-01
 -1      1500 6.59531E-01
 -1      1501 4.67952E-01
 -1      1502 5.27846E-01
 -1      1503 5.27846E-01
 -1      1504 3.68096E-01
 -1      1505 4.18024E-01
 -1      1506 4.18024E-01
 -1      1507 2.93403E-01
 -1      1508 3.30749E-01
 -1      1509 3.30749E-01
 -1      1510 2.31017E-01
 -1      1511 2.62210E-01
 -1      1512 2.62210E-01
 -1      1513 1.80648E-01
 -1      1514 2.06555E-01
 -1      1515 2.06555E-01
 -1      1516 1.39624E-01
 -1      1517 1.60665E-01
 -1      1518 1.62109E-01
 -1      1519 1.06698E-01
 -1      1520 1.23395E-01
 -1      1521 1.25896E-01
 -1      1522 8.09756E-02
 -1      1523 9.38700E-02
 -1      1524 9.68402E-02
 -1      1525 6.15661E-02
 -1      1526 7.11641E-02
 -1      1527 7.42012E-02
 -1      1528 4.76537E-02
 -1      1529 5.43996E-02
 -1      1530 5.72232E-02
 -1      1531 3.85420E-02
 -1      1532 4.28007E-02
 -1      1533 4.52037E-02
 -1      1534 3.41488E-02
 -1      1535 3.57239E-02
 -1      1536 3.75325E-02
 -1      1537 3.90882E-02
 -1      1538 3.58653E-02
 -1      1539 3.64309E-02
 -1      1540 4.88371E-02
 -1      1541 4.31665E-02
 -1      1542 4.22257E-02
 -1      1543 6.26185E-02
 -1      1544 5.47046E-02
 -1      1545 5.21715E-02
 -1      1546 8.05910E-02
 -1      1547 7.02830E-02
 -1      1548 6.57035E-02
 -1      1549 1.02894E-01
 -1      1550 9.00354E-02
 -1      1551 8.28124E-02
 -1      1552 1.29532E-01
 -1      1553 1.14019E-01
 -1      1554 1.03381E-01
 -1      1555 1.64613E-01
 -1      1556 1.46487E-01
 -1      1557 1.31460E-01
 -1      1558 2.09203E-01
 -1      1559 1.88794E-01
 -1      1560 1.72596E-01
 -1      1561 2.73007E-01
 -1      1562 2.39008E-01
 -1      1563 2.26582E-01
 -1      1564 3.51980E-01
 -1      1565 3.08681E-01
 -1      1566 2.92060E-01
 -1      1567 4.44203E-01
 -1      1568 3.93230E-01
 -1      1569 3.68985E-01
 -1      1570 5.47351E-01
 -1      1571 4.90312E-01
 -1      1572 4.56345E-01
 -1      1573 6.52507E-01
 -1      1574 5.93678E-01
 -1      1575 5.48781E-01
 -1      1576 7.61872E-01
 -1      1577 7.09905E-01
 -1      1578 6.52507E-01
 -1      1579 8.43748E-01
 -1      1580 8.13839E-01
 -1      1581 7.61872E-01
 -1      1582 1.05345E+00
 -1      1583 9.36984E-01
 -1      1584 9.07076E-01
 -1      1585 1.37604E+00
 -1      1586 1.18399E+00
 -1      1587 1.13085E+00
 -1      1588 1.66826E+00
 -1      1589 1.49070E+00
 -1      1590 1.37604E+00
 -1      1591 2.05334E+00
 -1      1592 1.84582E+00
 -1      1593 1.66826E+00
 -1      1594 2.60303E+00
 -1      1595 2.26087E+00
 -1      1596 2.05334E+00
 -1      1597 3.10482E+00
 -1      1598 2.94520E+00
 -1      1599 2.60303E+00
 -1      1600 4.02327E+00
 -1      1601 3.26444E+00
 -1      1602 3.10482E+00
 -1      1603 6.27109E+00
 -1      1604 4.90291E+00
 -1      1605 4.14408E+00
 -1      1606 9.23789E+00
 -1      1607 7.51846E+00
 -1      1608 6.27109E+00
 -1      1609 1.11870E+01
 -1      1610 1.09573E+01
 -1      1611 9.23789E+00
 -1      1612 1.14166E+01
 -1      1613 1.14166E+01
 -1      1614 1.11870E+01
 -1      1615 1.10814E+01
 -1      1616 1.12490E+01
 -1      1617 1.12490E+01
 -1      1618 7.48804E+00
 -1      1619 9.28473E+00
 -1      1620 9.28473E+00
 -1      1621 3.52729E+00
 -1      1622 5.56186E+00
 -1      1623 5.56186E+00
 -1      1624 2.64090E+00
 -1      1625 2.12998E+00
 -1      1626 2.18578E+00
 -1      1627 3.73053E+00
 -1      1628 2.91746E+00
 -1      1629 3.29614E+00
 -1      1630 5.74683E+00
 -1      1631 4.83866E+00
 -1      1632 5.19175E+00
 -1      1633 6.15867E+00
 -1      1634 6.00566E+00
 -1      1635 6.55871E+00
 -1      1636 7.27118E+00
 -1      1637 6.79265E+00
 -1      1638 7.45152E+00
 -1      1639 1.42335E+01
 -1      1640 9.44743E+00
 -1      1641 1.02618E+01
 -1      1642 1.60290E+01
 -1      1643 1.60290E+01
 -1      1644 1.42335E+01
 -1      1645 1.10582E+01
 -1      1646 1.50773E+01
 -1      1647 1.50773E+01
 -1      1648 6.77089E+00
 -1      1649 7.83576E+00
 -1      1650 1.09031E+01
 -1      1651 6.02400E+00
 -1      1652 6.02400E+00
 -1      1653 6.93379E+00
 -1      1654 5.42878E+00
 -1      1655 6.02400E+00
 -1      1656 6.18691E+00
 -1      1657 3.82372E+00
 -1      1658 4.75810E+00
 -1      1659 5.51622E+00
 -1      1660 2.05361E+00
 -1      1661 2.77009E+00
 -1      1662 3.79190E+00
 -1      1663 9.41492E-01
 -1      1664 1.35745E+00
 -1      1665 2.04210E+00
 -1      1666 7.11564E-01
 -1      1667 6.04627E-01
 -1      1668 1.00908E+00
 -1      1669 1.21862E+00
 -1      1670 8.77413E-01
 -1      1671 8.38059E-01
 -1      1672 1.63865E+00
 -1      1673 3.77514E+01
 -1      1674 3.77514E+01
 -1      1675 4.12013E+01
 -1      1676 3.30893E+01
 -1      1677 4.36823E+01
 -1      1678 4.36823E+01
 -1      1679 1.67113E+01
 -1      1680 3.03353E+01
 -1      1681 1.21265E+01
 -1      1682 1.40041E+01
 -1      1683 1.26791E+01
 -1      1684 1.26791E+01
 -1      1685 1.26898E+01
 -1      1686 1.24763E+01
 -1      1687 1.33550E+01
 -1      1688 1.31060E+01
 -1      1689 1.36040E+01
 -1      1690 1.36040E+01
 -1      1691 1.31029E+01
 -1      1692 1.28263E+01
 -1      1693 2.69971E+01
 -1      1694 1.41573E+01
 -1      1695 3.98368E+01
 -1      1696 3.98368E+01
 -1      1697 3.04205E+01
 -1      1698 3.83474E+01
 -1      1699 2.41267E+01
 -1      1700 2.41267E+01
 -1      1701 2.41307E+01
 -1      1702 2.44411E+01
 -1      1703 2.42429E+01
 -1      1704 2.41307E+01
 -1      1705 3.84953E+01
 -1      1706 3.01019E+01
 -1      1707 4.03734E+01
 -1      1708 4.03734E+01
 -1      1709 1.49553E+01
 -1      1710 2.76643E+01
 -1      1711 1.17134E+01
 -1      1712 1.30296E+01
 -1      1713 1.23914E+01
 -1      1714 1.23229E+01
 -1      1715 1.24599E+01
 -1      1716 1.24599E+01
 -1      1717 1.23378E+01
 -1      1718 1.23989E+01
 -1      1719 1.22965E+01
 -1      1720 1.22399E+01
 -1      1721 1.34775E+01
 -1      1722 1.24510E+01
 -1      1723 2.79469E+01
 -1      1724 1.46917E+01
 -1      1725 4.10145E+01
 -1      1726 4.10145E+01
 -1      1727 3.40887E+01
 -1      1728 4.15993E+01
 -1      1729 3.77514E+01
 -1      1730 3.70190E+01
 -1      1731 1.42811E+01
 -1      1732 3.03353E+01
 -1      1733 2.74929E+00
 -1      1734 3.07217E+00
 -1      1735 4.33825E+01
 -1      1736 4.12013E+01
 -1      1737 4.80446E+01
 -1      1738 1.21265E+01
 -1      1739 1.24763E+01
 -1      1740 1.26898E+01
 -1      1741 1.33550E+01
 -1      1742 1.28263E+01
 -1      1743 1.31029E+01
 -1      1744 2.69971E+01
 -1      1745 3.83474E+01
 -1      1746 3.05642E+01
 -1      1747 2.45848E+01
 -1      1748 2.48991E+01
 -1      1749 3.07582E+01
 -1      1750 3.84953E+01
 -1      1751 2.76643E+01
 -1      1752 1.30296E+01
 -1      1753 1.17134E+01
 -1      1754 1.23914E+01
 -1      1755 1.23989E+01
 -1      1756 1.22399E+01
 -1      1757 1.22965E+01
 -1      1758 1.36651E+01
 -1      1759 2.79469E+01
 -1      1760 4.15993E+01
 -1      1761 4.51143E+01
 -1      1762 9.61015E+00
 -1      1763 1.27822E+00
 -1      1764 1.67377E+00
 -1      1765 2.38951E+00
 -1      1766 4.27875E+00
 -1      1767 1.76428E+00
 -1      1768 8.84513E-01
 -1      1769 9.76762E-01
 -1      1770 7.79801E-01
 -1      1771 8.34343E-01
 -1      1772 7.45220E-01
 -1      1773 7.13892E-01
 -1      1774 7.48213E-01
 -1      1775 6.63461E-01
 -1      1776 6.71613E-01
 -1      1777 6.91746E-01
 -1      1778 6.09727E-01
 -1      1779 6.95060E-01
 -1      1780 6.73212E-01
 -1      1781 5.89181E-01
 -1      1782 7.50869E-01
 -1      1783 7.16935E-01
 -1      1784 6.12655E-01
 -1      1785 8.41208E-01
 -1      1786 7.84267E-01
 -1      1787 6.67929E-01
 -1      1788 9.84630E-01
 -1      1789 8.88836E-01
 -1      1790 7.48954E-01
 -1      1791 1.22994E+00
 -1      1792 1.05238E+00
 -1      1793 8.64328E-01
 -1      1794 1.71073E+00
 -1      1795 1.34413E+00
 -1      1796 1.04626E+00
 -1      1797 2.63016E+00
 -1      1798 1.79518E+00
 -1      1799 1.24489E+00
 -1      1800 8.11941E+00
 -1      1801 3.06564E+00
 -1      1802 1.76481E+00
 -1      1803 2.79739E+00
 -1      1804 5.19741E+00
 -1      1805 2.16320E+00
 -1      1806 2.65409E+00
 -1      1807 2.05698E+00
 -1      1808 3.39867E+00
 -1      1809 2.53435E+00
 -1      1810 1.91958E+00
 -1      1811 1.68855E+00
 -1      1812 1.35647E+00
 -1      1813 1.49759E+00
 -1      1814 1.17623E+00
 -1      1815 9.65298E-01
 -1      1816 1.08632E+00
 -1      1817 8.39647E-01
 -1      1818 7.14720E-01
 -1      1819 7.80434E-01
 -1      1820 6.56167E-01
 -1      1821 5.66154E-01
 -1      1822 5.96231E-01
 -1      1823 5.17451E-01
 -1      1824 4.53556E-01
 -1      1825 4.88976E-01
 -1      1826 4.10595E-01
 -1      1827 3.60389E-01
 -1      1828 3.97313E-01
 -1      1829 3.27483E-01
 -1      1830 2.88311E-01
 -1      1831 3.21446E-01
 -1      1832 2.60479E-01
 -1      1833 2.31899E-01
 -1      1834 2.60708E-01
 -1      1835 2.07936E-01
 -1      1836 1.83621E-01
 -1      1837 2.08913E-01
 -1      1838 1.65868E-01
 -1      1839 1.45730E-01
 -1      1840 1.67198E-01
 -1      1841 1.30913E-01
 -1      1842 1.14635E-01
 -1      1843 1.34629E-01
 -1      1844 1.02209E-01
 -1      1845 8.93720E-02
 -1      1846 1.07387E-01
 -1      1847 7.92367E-02
 -1      1848 6.93863E-02
 -1      1849 8.48252E-02
 -1      1850 6.13291E-02
 -1      1851 5.40188E-02
 -1      1852 6.66328E-02
 -1      1853 4.77663E-02
 -1      1854 4.25773E-02
 -1      1855 5.23231E-02
 -1      1856 3.78261E-02
 -1      1857 3.43742E-02
 -1      1858 4.13194E-02
 -1      1859 3.08054E-02
 -1      1860 2.90514E-02
 -1      1861 3.29995E-02
 -1      1862 2.83073E-02
 -1      1863 3.06909E-02
 -1      1864 2.86867E-02
 -1      1865 3.19806E-02
 -1      1866 3.64200E-02
 -1      1867 2.92323E-02
 -1      1868 4.00193E-02
 -1      1869 4.54990E-02
 -1      1870 3.41214E-02
 -1      1871 5.15732E-02
 -1      1872 5.85652E-02
 -1      1873 4.37950E-02
 -1      1874 6.72611E-02
 -1      1875 7.85283E-02
 -1      1876 5.85652E-02
 -1      1877 8.99279E-02
 -1      1878 1.03930E-01
 -1      1879 7.86607E-02
 -1      1880 1.22789E-01
 -1      1881 1.39485E-01
 -1      1882 1.08919E-01
 -1      1883 1.63139E-01
 -1      1884 1.84392E-01
 -1      1885 1.51433E-01
 -1      1886 2.12981E-01
 -1      1887 2.40947E-01
 -1      1888 2.03676E-01
 -1      1889 2.73934E-01
 -1      1890 3.12593E-01
 -1      1891 2.65251E-01
 -1      1892 3.48353E-01
 -1      1893 3.90665E-01
 -1      1894 3.33998E-01
 -1      1895 4.25951E-01
 -1      1896 4.67894E-01
 -1      1897 4.05045E-01
 -1      1898 5.01398E-01
 -1      1899 5.48259E-01
 -1      1900 4.73835E-01
 -1      1901 5.83721E-01
 -1      1902 6.47835E-01
 -1      1903 5.42801E-01
 -1      1904 6.89347E-01
 -1      1905 7.63528E-01
 -1      1906 6.19776E-01
 -1      1907 7.82066E-01
 -1      1908 8.33360E-01
 -1      1909 6.79826E-01
 -1      1910 8.07917E-01
 -1      1911 8.35040E-01
 -1      1912 6.72921E-01
 -1      1913 8.24365E-01
 -1      1914 9.18658E-01
 -1      1915 6.36803E-01
 -1      1916 9.23134E-01
 -1      1917 9.30968E-01
 -1      1918 6.30604E-01
 -1      1919 1.19291E+00
 -1      1920 1.48432E+00
 -1      1921 8.97019E-01
 -1      1922 1.89528E+00
 -1      1923 2.33010E+00
 -1      1924 1.56992E+00
 -1      1925 2.68455E+00
 -1      1926 3.32603E+00
 -1      1927 2.33534E+00
 -1      1928 3.68353E+00
 -1      1929 4.42655E+00
 -1      1930 3.04729E+00
 -1      1931 4.59972E+00
 -1      1932 4.85226E+00
 -1      1933 3.57796E+00
 -1      1934 4.68728E+00
 -1      1935 4.60273E+00
 -1      1936 3.58615E+00
 -1      1937 4.54451E+00
 -1      1938 4.20290E+00
 -1      1939 3.36295E+00
 -1      1940 4.21075E+00
 -1      1941 3.23721E+00
 -1      1942 3.31257E+00
 -1      1943 2.36116E+00
 -1      1944 1.92086E+00
 -1      1945 1.28612E+00
 -1      1946 2.44437E+00
 -1      1947 1.39772E+00
 -1      1948 1.77137E+00
 -1      1949 1.52184E+00
 -1      1950 1.01730E+00
 -1      1951 1.27789E+00
 -1      1952 1.01018E+00
 -1      1953 8.04363E-01
 -1      1954 9.23457E-01
 -1      1955 7.96519E-01
 -1      1956 6.37488E-01
 -1      1957 7.24851E-01
 -1      1958 6.23166E-01
 -1      1959 5.12185E-01
 -1      1960 5.83977E-01
 -1      1961 4.90143E-01
 -1      1962 4.18872E-01
 -1      1963 4.78765E-01
 -1      1964 4.03212E-01
 -1      1965 3.36861E-01
 -1      1966 3.86789E-01
 -1      1967 3.37709E-01
 -1      1968 2.71573E-01
 -1      1969 3.08919E-01
 -1      1970 2.77684E-01
 -1      1971 2.17495E-01
 -1      1972 2.48689E-01
 -1      1973 2.26858E-01
 -1      1974 1.72946E-01
 -1      1975 1.97408E-01
 -1      1976 1.83887E-01
 -1      1977 1.35923E-01
 -1      1978 1.55907E-01
 -1      1979 1.46760E-01
 -1      1980 1.05673E-01
 -1      1981 1.21902E-01
 -1      1982 1.15700E-01
 -1      1983 8.16317E-02
 -1      1984 9.44593E-02
 -1      1985 9.04649E-02
 -1      1986 6.30415E-02
 -1      1987 7.28529E-02
 -1      1988 7.04720E-02
 -1      1989 4.92966E-02
 -1      1990 5.64631E-02
 -1      1991 5.51149E-02
 -1      1992 3.98338E-02
 -1      1993 4.46868E-02
 -1      1994 4.39267E-02
 -1      1995 3.41664E-02
 -1      1996 3.69845E-02
 -1      1997 3.64676E-02
 -1      1998 3.48428E-02
 -1      1999 3.31263E-02
 -1      2000 3.25783E-02
 -1      2001 4.09530E-02
 -1      2002 3.68747E-02
 -1      2003 3.35701E-02
 -1      2004 5.00258E-02
 -1      2005 4.41583E-02
 -1      2006 3.88073E-02
 -1      2007 6.26250E-02
 -1      2008 5.49605E-02
 -1      2009 4.69473E-02
 -1      2010 8.10925E-02
 -1      2011 7.16481E-02
 -1      2012 6.09051E-02
 -1      2013 1.04091E-01
 -1      2014 9.29669E-02
 -1      2015 8.18026E-02
 -1      2016 1.36253E-01
 -1      2017 1.19298E-01
 -1      2018 1.08884E-01
 -1      2019 1.85774E-01
 -1      2020 1.61593E-01
 -1      2021 1.49431E-01
 -1      2022 2.52735E-01
 -1      2023 2.22930E-01
 -1      2024 2.11927E-01
 -1      2025 3.36915E-01
 -1      2026 3.01240E-01
 -1      2027 2.97589E-01
 -1      2028 4.39846E-01
 -1      2029 3.98595E-01
 -1      2030 4.07775E-01
 -1      2031 5.61835E-01
 -1      2032 5.15726E-01
 -1      2033 5.45336E-01
 -1      2034 6.97363E-01
 -1      2035 6.51035E-01
 -1      2036 7.10417E-01
 -1      2037 8.52685E-01
 -1      2038 7.95287E-01
 -1      2039 8.97542E-01
 -1      2040 1.00036E+00
 -1      2041 9.48396E-01
 -1      2042 1.09118E+00
 -1      2043 1.18032E+00
 -1      2044 1.08709E+00
 -1      2045 1.27361E+00
 -1      2046 1.38240E+00
 -1      2047 1.25186E+00
 -1      2048 1.43187E+00
 -1      2049 1.49705E+00
 -1      2050 1.38240E+00
 -1      2051 1.50341E+00
 -1      2052 1.66485E+00
 -1      2053 1.48729E+00
 -1      2054 1.49365E+00
 -1      2055 1.73731E+00
 -1      2056 1.52978E+00
 -1      2057 1.34882E+00
 -1      2058 2.18560E+00
 -1      2059 1.84344E+00
 -1      2060 1.31988E+00
 -1      2061 3.06115E+00
 -1      2062 2.90153E+00
 -1      2063 2.14194E+00
 -1      2064 4.85034E+00
 -1      2065 3.97070E+00
 -1      2066 3.76741E+00
 -1      2067 6.58388E+00
 -1      2068 5.33651E+00
 -1      2069 5.16313E+00
 -1      2070 8.42767E+00
 -1      2071 6.70825E+00
 -1      2072 5.77367E+00
 -1      2073 8.48280E+00
 -1      2074 8.25315E+00
 -1      2075 5.72352E+00
 -1      2076 8.41825E+00
 -1      2077 8.58585E+00
 -1      2078 5.65205E+00
 -1      2079 6.00362E+00
 -1      2080 7.80030E+00
 -1      2081 5.13714E+00
 -1      2082 3.04554E+00
 -1      2083 4.97172E+00
 -1      2084 3.48729E+00
 -1      2085 2.48203E+00
 -1      2086 6.55871E+00
 -1      2087 6.29988E+00
 -1      2088 5.74832E+00
 -1      2089 4.64019E+00
 -1      2090 5.74832E+00
 -1      2091 3.90987E+00
 -1      2092 3.12239E+00
 -1      2093 3.09576E+00
 -1      2094 4.46645E+00
 -1      2095 8.15722E+00
 -1      2096 7.52324E+00
 -1      2097 7.26441E+00
 -1      2098 2.35855E+01
 -1      2099 2.17900E+01
 -1      2100 3.10851E+01
 -1      2101 3.20368E+01
 -1      2102 3.95933E+01
 -1      2103 1.35695E+01
 -1      2104 1.67920E+01
 -1      2105 3.37515E+01
 -1      2106 9.25697E+00
 -1      2107 1.00039E+01
 -1      2108 1.58927E+01
 -1      2109 6.31401E+00
 -1      2110 6.31401E+00
 -1      2111 5.29424E+00
 -1      2112 5.96493E+00
 -1      2113 6.09203E+00
 -1      2114 3.41224E+00
 -1      2115 4.46587E+00
 -1      2116 4.91458E+00
 -1      2117 1.80506E+00
 -1      2118 2.50123E+00
 -1      2119 3.17520E+00
 -1      2120 1.36236E+00
 -1      2121 1.69923E+00
 -1      2122 2.15835E+00
 -1      2123 3.47078E+01
 -1      2124 3.22269E+01
 -1      2125 4.80446E+01
 -1      2126 4.80446E+01
 -1      2127 1.53871E+01
 -1      2128 2.87341E+01
 -1      2129 9.25400E+00
 -1      2130 1.19612E+01
 -1      2131 1.03464E+00
 -1      2132 1.20952E+00
 -1      2133 9.79840E-01
 -1      2134 8.53266E-01
 -1      2135 1.20465E+01
 -1      2136 1.22493E+01
 -1      2137 1.25909E+01
 -1      2138 1.21746E+01
 -1      2139 1.19476E+01
 -1      2140 1.26120E+01
 -1      2141 1.23630E+01
 -1      2142 1.03645E+01
 -1      2143 1.11423E+01
 -1      2144 1.08023E+01
 -1      2145 9.74792E+00
 -1      2146 2.68005E+01
 -1      2147 1.39608E+01
 -1      2148 3.05866E+01
 -1      2149 3.20760E+01
 -1      2150 2.24257E+01
 -1      2151 2.87195E+01
 -1      2152 2.24482E+01
 -1      2153 2.78781E+01
 -1      2154 2.75637E+01
 -1      2155 2.78781E+01
 -1      2156 2.78781E+01
 -1      2157 2.90634E+01
 -1      2158 2.32044E+01
 -1      2159 3.20637E+01
 -1      2160 3.01856E+01
 -1      2161 1.41975E+01
 -1      2162 2.69066E+01
 -1      2163 9.50801E+00
 -1      2164 1.14337E+01
 -1      2165 1.02619E+01
 -1      2166 9.65237E+00
 -1      2167 1.14072E+01
 -1      2168 1.13387E+01
 -1      2169 1.15367E+01
 -1      2170 1.15977E+01
 -1      2171 1.14659E+01
 -1      2172 1.15638E+01
 -1      2173 1.10406E+01
 -1      2174 1.08862E+01
 -1      2175 1.02100E+01
 -1      2176 1.07273E+01
 -1      2177 9.51319E+00
 -1      2178 2.71386E+01
 -1      2179 1.40709E+01
 -1      2180 3.35627E+01
 -1      2181 3.29779E+01
 -1      2182 1.07855E+01
 -1      2183 1.02329E+01
 -1      2184 3.95933E+01
 -1      2185 2.91004E+00
 -1      2186 1.03600E+01
 -1      2187 1.03556E+01
 -1      2188 2.10432E+00
 -1      2189 1.32326E+01
 -1      2190 1.33043E+01
 -1      2191 1.54088E+01
 -1      2192 9.38407E+00
 -1      2193 1.97596E+01
 -1      2194 1.37825E+00
 -1      2195 1.21240E+00
 -1      2196 1.90255E+00
 -1      2197 1.66046E+00
 -1      2198 4.51143E+01
 -1      2199 4.51143E+01
 -1      2200 4.21840E+01
 -1      2201 3.08212E+01
 -1      2202 3.49312E+01
 -1      2203 3.95933E+01
 -1      2204 3.35627E+01
 -1      2205 1.91020E+01
 -1      2206 9.52202E+00
 -1      2207 8.11168E+00
 -1      2208 6.58426E+00
 -1      2209 1.07626E+01
 -1      2210 1.05450E+01
 -1      2211 9.27768E+00
 -1      2212 8.05650E+00
 -1      2213 1.06759E+01
 -1      2214 2.66433E+01
 -1      2215 1.83336E+01
 -1      2216 1.31765E+01
 -1      2217 2.26318E+01
 -1      2218 2.61833E+01
 -1      2219 2.57191E+01
 -1      2220 1.90397E+01
 -1      2221 1.06058E+01
 -1      2222 8.06397E+00
 -1      2223 7.91300E+00
 -1      2224 1.18479E+01
 -1      2225 1.01503E+01
 -1      2226 3.08570E+01
 -1      2227 9.91903E+00
 -1      2228 2.84376E+01
 -1      2229 1.08853E+00
 -1      2230 1.48036E+00
 -1      2231 5.59213E-01
 -1      2232 5.90801E-01
 -1      2233 6.04844E-01
 -1      2234 6.55015E-01
 -1      2235 5.00596E-01
 -1      2236 5.11156E-01
 -1      2237 5.09557E-01
 -1      2238 5.46033E-01
 -1      2239 5.24158E-01
 -1      2240 4.44534E-01
 -1      2241 5.94257E-01
 -1      2242 5.60859E-01
 -1      2243 4.72362E-01
 -1      2244 6.53948E-01
 -1      2245 6.06320E-01
 -1      2246 4.99251E-01
 -1      2247 7.21694E-01
 -1      2248 6.53948E-01
 -1      2249 5.11314E-01
 -1      2250 8.85080E-01
 -1      2251 7.70894E-01
 -1      2252 5.60514E-01
 -1      2253 8.90359E-01
 -1      2254 1.01018E+00
 -1      2255 9.68705E-01
 -1      2256 1.26572E+00
 -1      2257 1.03469E+00
 -1      2258 6.75889E+00
 -1      2259 1.01847E+01
 -1      2260 6.60984E+00
 -1      2261 9.55280E+00
 -1      2262 9.83904E-01
 -1      2263 8.03668E-01
 -1      2264 7.52032E-01
 -1      2265 7.46940E-01
 -1      2266 6.21289E-01
 -1      2267 6.44523E-01
 -1      2268 5.64989E-01
 -1      2269 5.06436E-01
 -1      2270 5.31495E-01
 -1      2271 4.56973E-01
 -1      2272 4.08271E-01
 -1      2273 4.25732E-01
 -1      2274 3.80902E-01
 -1      2275 3.37941E-01
 -1      2276 3.48899E-01
 -1      2277 3.12749E-01
 -1      2278 2.79843E-01
 -1      2279 2.96338E-01
 -1      2280 2.55979E-01
 -1      2281 2.28146E-01
 -1      2282 2.47282E-01
 -1      2283 2.08793E-01
 -1      2284 1.84831E-01
 -1      2285 2.04064E-01
 -1      2286 1.67846E-01
 -1      2287 1.50093E-01
 -1      2288 1.67726E-01
 -1      2289 1.35287E-01
 -1      2290 1.20471E-01
 -1      2291 1.35935E-01
 -1      2292 1.07983E-01
 -1      2293 9.55564E-02
 -1      2294 1.08641E-01
 -1      2295 8.62018E-02
 -1      2296 7.60666E-02
 -1      2297 8.67978E-02
 -1      2298 6.82950E-02
 -1      2299 6.02378E-02
 -1      2300 6.96715E-02
 -1      2301 5.38105E-02
 -1      2302 4.75580E-02
 -1      2303 5.54726E-02
 -1      2304 4.22950E-02
 -1      2305 3.75438E-02
 -1      2306 4.37823E-02
 -1      2307 3.32055E-02
 -1      2308 2.96368E-02
 -1      2309 3.41811E-02
 -1      2310 2.72172E-02
 -1      2311 2.64731E-02
 -1      2312 2.74232E-02
 -1      2313 2.58201E-02
 -1      2314 2.71098E-02
 -1      2315 2.43506E-02
 -1      2316 2.99342E-02
 -1      2317 3.35336E-02
 -1      2318 2.65220E-02
 -1      2319 3.77207E-02
 -1      2320 4.37950E-02
 -1      2321 3.35336E-02
 -1      2322 5.29424E-02
 -1      2323 6.16384E-02
 -1      2324 4.68682E-02
 -1      2325 7.44310E-02
 -1      2326 8.58305E-02
 -1      2327 6.88082E-02
 -1      2328 1.02163E-01
 -1      2329 1.21022E-01
 -1      2330 9.79334E-02
 -1      2331 1.41405E-01
 -1      2332 1.65059E-01
 -1      2333 1.34648E-01
 -1      2334 1.89773E-01
 -1      2335 2.18362E-01
 -1      2336 1.79745E-01
 -1      2337 2.47261E-01
 -1      2338 2.80248E-01
 -1      2339 2.33358E-01
 -1      2340 3.12475E-01
 -1      2341 3.48235E-01
 -1      2342 2.94485E-01
 -1      2343 3.81848E-01
 -1      2344 4.17134E-01
 -1      2345 3.60324E-01
 -1      2346 4.50283E-01
 -1      2347 4.83787E-01
 -1      2348 4.27086E-01
 -1      2349 5.16923E-01
 -1      2350 5.52386E-01
 -1      2351 4.93372E-01
 -1      2352 5.72315E-01
 -1      2353 6.13826E-01
 -1      2354 5.46437E-01
 -1      2355 6.32227E-01
 -1      2356 6.50765E-01
 -1      2357 5.84766E-01
 -1      2358 6.60513E-01
 -1      2359 6.35070E-01
 -1      2360 6.12914E-01
 -1      2361 6.28475E-01
 -1      2362 6.17800E-01
 -1      2363 6.16067E-01
 -1      2364 7.22136E-01
 -1      2365 7.26612E-01
 -1      2366 7.13808E-01
 -1      2367 8.15373E-01
 -1      2368 1.07731E+00
 -1      2369 9.06905E-01
 -1      2370 1.34127E+00
 -1      2371 1.75223E+00
 -1      2372 1.25963E+00
 -1      2373 2.06549E+00
 -1      2374 2.41994E+00
 -1      2375 1.83684E+00
 -1      2376 2.63497E+00
 -1      2377 2.99247E+00
 -1      2378 2.36512E+00
 -1      2379 3.17593E+00
 -1      2380 3.34911E+00
 -1      2381 2.76362E+00
 -1      2382 3.61234E+00
 -1      2383 3.44736E+00
 -1      2384 3.21031E+00
 -1      2385 3.19313E+00
 -1      2386 3.13491E+00
 -1      2387 3.21932E+00
 -1      2388 3.31257E+00
 -1      2389 3.32042E+00
 -1      2390 3.14275E+00
 -1      2391 2.95170E+00
 -1      2392 3.86272E+00
 -1      2393 5.43654E-01
 -1      2394 6.23166E-01
 -1      2395 4.36632E-01
 -1      2396 4.90143E-01
 -1      2397 4.90143E-01
 -1      2398 3.69792E-01
 -1      2399 4.03212E-01
 -1      2400 4.03212E-01
 -1      2401 3.05626E-01
 -1      2402 3.37709E-01
 -1      2403 3.37709E-01
 -1      2404 2.49742E-01
 -1      2405 2.77684E-01
 -1      2406 2.77684E-01
 -1      2407 2.04369E-01
 -1      2408 2.27254E-01
 -1      2409 2.27254E-01
 -1      2410 1.64494E-01
 -1      2411 1.84581E-01
 -1      2412 1.84976E-01
 -1      2413 1.30527E-01
 -1      2414 1.47567E-01
 -1      2415 1.48261E-01
 -1      2416 1.03955E-01
 -1      2417 1.17976E-01
 -1      2418 1.18783E-01
 -1      2419 8.22184E-02
 -1      2420 9.34326E-02
 -1      2421 9.57088E-02
 -1      2422 6.47108E-02
 -1      2423 7.34896E-02
 -1      2424 7.64572E-02
 -1      2425 5.10646E-02
 -1      2426 5.76429E-02
 -1      2427 6.06605E-02
 -1      2428 4.08356E-02
 -1      2429 4.54454E-02
 -1      2430 4.79735E-02
 -1      2431 3.35547E-02
 -1      2432 3.64040E-02
 -1      2433 3.79227E-02
 -1      2434 2.93841E-02
 -1      2435 3.04243E-02
 -1      2436 3.03606E-02
 -1      2437 3.11590E-02
 -1      2438 2.91271E-02
 -1      2439 2.69731E-02
 -1      2440 3.57241E-02
 -1      2441 3.25188E-02
 -1      2442 2.80758E-02
 -1      2443 4.52631E-02
 -1      2444 4.03284E-02
 -1      2445 3.40398E-02
 -1      2446 6.09051E-02
 -1      2447 5.18820E-02
 -1      2448 4.52631E-02
 -1      2449 8.58871E-02
 -1      2450 7.40127E-02
 -1      2451 6.49896E-02
 -1      2452 1.19420E-01
 -1      2453 1.04213E-01
 -1      2454 9.64226E-02
 -1      2455 1.69223E-01
 -1      2456 1.43884E-01
 -1      2457 1.39212E-01
 -1      2458 2.38525E-01
 -1      2459 2.01369E-01
 -1      2460 1.95822E-01
 -1      2461 3.28529E-01
 -1      2462 2.80023E-01
 -1      2463 2.69465E-01
 -1      2464 4.42694E-01
 -1      2465 3.81014E-01
 -1      2466 3.63448E-01
 -1      2467 5.83311E-01
 -1      2468 5.07431E-01
 -1      2469 4.80670E-01
 -1      2470 7.49774E-01
 -1      2471 6.60573E-01
 -1      2472 6.22668E-01
 -1      2473 9.35714E-01
 -1      2474 8.37790E-01
 -1      2475 7.87946E-01
 -1      2476 1.12477E+00
 -1      2477 1.02906E+00
 -1      2478 9.69312E-01
 -1      2479 1.29902E+00
 -1      2480 1.21230E+00
 -1      2481 1.15019E+00
 -1      2482 1.45046E+00
 -1      2483 1.37893E+00
 -1      2484 1.31761E+00
 -1      2485 1.51557E+00
 -1      2486 1.51557E+00
 -1      2487 1.46262E+00
 -1      2488 1.60787E+00
 -1      2489 1.61763E+00
 -1      2490 1.62979E+00
 -1      2491 1.56123E+00
 -1      2492 1.69630E+00
 -1      2493 1.82028E+00
 -1      2494 1.82161E+00
 -1      2495 1.71549E+00
 -1      2496 2.06297E+00
 -1      2497 3.02757E+00
 -1      2498 2.31164E+00
 -1      2499 2.70725E+00
 -1      2500 4.19019E+00
 -1      2501 3.28064E+00
 -1      2502 3.45034E+00
 -1      2503 6.34296E+00
 -1      2504 5.85680E+00
 -1      2505 5.37002E+00
 -1      2506 6.11766E+00
 -1      2507 5.99329E+00
 -1      2508 6.68695E+00
 -1      2509 5.72352E+00
 -1      2510 5.89804E+00
 -1      2511 6.11766E+00
 -1      2512 5.65205E+00
 -1      2513 5.54899E+00
 -1      2514 5.72352E+00
 -1      2515 4.95818E+00
 -1      2516 5.57613E+00
 -1      2517 5.47308E+00
 -1      2518 4.12766E+00
 -1      2519 2.47608E+01
 -1      2520 5.84852E+00
 -1      2521 5.29697E+00
 -1      2522 7.40629E+00
 -1      2523 6.44176E+00
 -1      2524 3.11419E+01
 -1      2525 1.24247E+01
 -1      2526 1.83984E+01
 -1      2527 5.33965E+00
 -1      2528 6.16802E+00
 -1      2529 5.11616E+00
 -1      2530 5.93143E+00
 -1      2531 6.28052E+00
 -1      2532 6.44924E+00
 -1      2533 6.35651E+00
 -1      2534 2.68647E+00
 -1      2535 2.79230E+00
 -1      2536 3.47982E+00
 -1      2537 7.02679E-01
 -1      2538 7.96519E-01
 -1      2539 6.23166E-01
 -1      2540 9.21079E+00
 -1      2541 7.74700E+00
 -1      2542 1.67598E+00
 -1      2543 1.30029E+00
 -1      2544 8.37382E-01
 -1      2545 9.60245E-01
 -1      2546 9.88740E+00
 -1      2547 9.86029E+00
 -1      2548 1.81935E+01
 -1      2549 1.29180E+01
 -1      2550 5.22512E-01
 -1      2551 5.44657E-01
 -1      2552 4.71998E-01
 -1      2553 4.44487E-01
 -1      2554 7.85861E+00
 -1      2555 9.32830E+00
 -1      2556 1.02350E+01
 -1      2557 1.01069E+01
 -1      2558 3.08570E+01
 -1      2559 3.08570E+01
 -1      2560 7.14376E+00
 -1      2561 6.16491E+00
 -1      2562 5.82697E+00
 -1      2563 6.44359E+00
 -1      2564 1.08508E+01
 -1      2565 7.69234E+00
 -1      2566 1.85475E+01
 -1      2567 2.04146E+01
 -1      2568 1.00206E+01
 -1      2569 6.67699E+00
 -1      2570 2.61637E+01
 -1      2571 2.10257E+01
 -1      2572 2.61637E+01
 -1      2573 2.21451E+01
 -1      2574 2.68189E+01
 -1      2575 2.13736E+01
 -1      2576 2.02514E+01
 -1      2577 7.25935E+00
 -1      2578 1.00231E+01
 -1      2579 6.08770E+00
 -1      2580 5.94334E+00
 -1      2581 8.19628E+00
 -1      2582 7.11946E+00
 -1      2583 5.00630E+00
 -1      2584 9.83173E+00
 -1      2585 9.64123E+00
 -1      2586 8.26544E+00
 -1      2587 8.84515E+00
 -1      2588 1.02434E+01
 -1      2589 1.04712E+01
 -1      2590 1.62069E+00
 -1      2591 1.76399E+00
 -1      2592 1.32851E+00
 -1      2593 1.18737E+00
 -1      2594 5.23028E-01
 -1      2595 6.63404E-01
 -1      2596 7.21280E-01
 -1      2597 7.96519E-01
 -1      2598 1.24407E+00
 -1      2599 7.94285E+00
 -1      2600 8.82356E+00
 -1      2601 3.32042E+00
 -1      2602 3.32042E+00
 -1      2603 1.86342E+01
 -1      2604 1.27948E+01
 -1      2605 9.68705E-01
 -1      2606 5.99890E+00
 -1      2607 4.56665E+00
 -1      2608 5.99040E+00
 -1      2609 5.29697E+00
 -1      2610 2.21998E+01
 -1      2611 2.68647E+00
 -1      2612 1.47216E+01
 -1      2613 9.64622E+00
 -1      2614 8.11168E+00
 -1      2615 6.74685E+00
 -1      2616 6.59309E+00
 -1      2617 8.91546E-01
 -1      2618 7.48301E+00
 -1      2619 7.49822E+00
 -1      2620 1.42928E+01
 -1      2621 5.29054E+00
 -1      2622 6.34767E+00
 -1      2623 6.35651E+00
 -1      2624 1.75886E+01
 -1      2625 1.52082E+01
 -1      2626 1.21682E+01
 -1      2627 1.00046E+01
 -1      2628 1.89921E+01
 -1      2629 1.03085E+01
 -1      2630 1.00452E+01
 -1      2631 6.89189E+00
 -1      2632 6.07196E+00
 -1      2633 2.68189E+01
 -1      2634 8.63052E+00
 -1      2635 8.95653E+00
 -1      2636 5.98965E+00
 -1      2637 5.62161E+00
 -1      2638 2.08870E+01
 -1      2639 2.20565E+01
 -1      2640 2.47608E+01
 -1      2641 5.39717E+00
 -1      2642 7.03663E+00
 -1      2643 9.32830E+00
 -1      2644 4.22837E-01
 -1      2645 4.08011E-01
 -1      2646 4.00131E-01
 -1      2647 3.87129E-01
 -1      2648 3.50607E-01
 -1      2649 4.36684E-01
 -1      2650 4.36684E-01
 -1      2651 4.73970E-01
 -1      2652 4.24770E-01
 -1      2653 3.50140E-01
 -1      2654 7.17017E-01
 -1      2655 7.95363E-01
 -1      2656 5.66480E+00
 -1      2657 5.06157E+00
 -1      2658 4.03906E+00
 -1      2659 4.03906E+00
 -1      2660 8.28383E-01
 -1      2661 5.48741E-01
 -1      2662 4.92013E-01
 -1      2663 4.85517E-01
 -1      2664 4.29217E-01
 -1      2665 3.89735E-01
 -1      2666 4.08622E-01
 -1      2667 3.59159E-01
 -1      2668 3.62644E-01
 -1      2669 3.34269E-01
 -1      2670 3.06899E-01
 -1      2671 3.17159E-01
 -1      2672 2.81989E-01
 -1      2673 2.56797E-01
 -1      2674 2.67358E-01
 -1      2675 2.41209E-01
 -1      2676 2.17345E-01
 -1      2677 2.26860E-01
 -1      2678 2.01055E-01
 -1      2679 1.81702E-01
 -1      2680 1.94983E-01
 -1      2681 1.66184E-01
 -1      2682 1.49200E-01
 -1      2683 1.63176E-01
 -1      2684 1.35236E-01
 -1      2685 1.20430E-01
 -1      2686 1.33694E-01
 -1      2687 1.08713E-01
 -1      2688 9.62241E-02
 -1      2689 1.08013E-01
 -1      2690 8.68402E-02
 -1      2691 7.74856E-02
 -1      2692 8.69119E-02
 -1      2693 6.96715E-02
 -1      2694 6.19000E-02
 -1      2695 6.97140E-02
 -1      2696 5.54726E-02
 -1      2697 4.90453E-02
 -1      2698 5.54726E-02
 -1      2699 4.37823E-02
 -1      2700 3.85194E-02
 -1      2701 4.37823E-02
 -1      2702 3.41811E-02
 -1      2703 2.98428E-02
 -1      2704 3.41811E-02
 -1      2705 2.65482E-02
 -1      2706 2.41287E-02
 -1      2707 2.65482E-02
 -1      2708 2.14410E-02
 -1      2709 2.07880E-02
 -1      2710 2.05661E-02
 -1      2711 2.19835E-02
 -1      2712 2.48080E-02
 -1      2713 1.90740E-02
 -1      2714 2.89279E-02
 -1      2715 3.31151E-02
 -1      2716 2.43894E-02
 -1      2717 4.14305E-02
 -1      2718 5.05780E-02
 -1      2719 3.68248E-02
 -1      2720 6.11691E-02
 -1      2721 7.39616E-02
 -1      2722 5.57314E-02
 -1      2723 8.73985E-02
 -1      2724 1.03731E-01
 -1      2725 7.97593E-02
 -1      2726 1.20573E-01
 -1      2727 1.40955E-01
 -1      2728 1.10038E-01
 -1      2729 1.61688E-01
 -1      2730 1.86402E-01
 -1      2731 1.47612E-01
 -1      2732 2.11346E-01
 -1      2733 2.40246E-01
 -1      2734 1.93290E-01
 -1      2735 2.69409E-01
 -1      2736 3.01635E-01
 -1      2737 2.47397E-01
 -1      2738 3.34817E-01
 -1      2739 3.68430E-01
 -1      2740 3.09741E-01
 -1      2741 4.06179E-01
 -1      2742 4.39328E-01
 -1      2743 3.80672E-01
 -1      2744 4.77872E-01
 -1      2745 5.11008E-01
 -1      2746 4.56964E-01
 -1      2747 5.44517E-01
 -1      2748 5.64446E-01
 -1      2749 5.29017E-01
 -1      2750 6.03124E-01
 -1      2751 6.21524E-01
 -1      2752 6.01205E-01
 -1      2753 6.69606E-01
 -1      2754 6.79354E-01
 -1      2755 6.87965E-01
 -1      2756 7.30056E-01
 -1      2757 7.23461E-01
 -1      2758 7.86749E-01
 -1      2759 7.70294E-01
 -1      2760 8.74630E-01
 -1      2761 8.84283E-01
 -1      2762 1.07277E+00
 -1      2763 1.16153E+00
 -1      2764 1.12925E+00
 -1      2765 1.32420E+00
 -1      2766 1.58816E+00
 -1      2767 1.49006E+00
 -1      2768 1.79788E+00
 -1      2769 2.11114E+00
 -1      2770 1.86246E+00
 -1      2771 2.27860E+00
 -1      2772 2.49363E+00
 -1      2773 2.23964E+00
 -1      2774 3.24875E+00
 -1      2775 3.43222E+00
 -1      2776 3.16223E+00
 -1      2777 4.40319E+00
 -1      2778 4.66642E+00
 -1      2779 4.88833E+00
 -1      2780 4.72189E+00
 -1      2781 4.46766E+00
 -1      2782 5.91476E+00
 -1      2783 2.96509E+00
 -1      2784 3.14275E+00
 -1      2785 3.86140E+00
 -1      2786 4.46766E+00
 -1      2787 4.15898E-01
 -1      2788 4.69409E-01
 -1      2789 2.40736E-01
 -1      2790 2.68678E-01
 -1      2791 1.99493E-01
 -1      2792 2.21982E-01
 -1      2793 2.12975E-01
 -1      2794 1.62651E-01
 -1      2795 1.82439E-01
 -1      2796 1.77168E-01
 -1      2797 1.31679E-01
 -1      2798 1.48606E-01
 -1      2799 1.46069E-01
 -1      2800 1.06672E-01
 -1      2801 1.19223E-01
 -1      2802 1.19568E-01
 -1      2803 8.54926E-02
 -1      2804 9.60153E-02
 -1      2805 9.64556E-02
 -1      2806 6.79028E-02
 -1      2807 7.66316E-02
 -1      2808 7.69381E-02
 -1      2809 5.38047E-02
 -1      2810 6.08726E-02
 -1      2811 6.10470E-02
 -1      2812 4.25933E-02
 -1      2813 4.82124E-02
 -1      2814 4.84245E-02
 -1      2815 3.34911E-02
 -1      2816 3.79227E-02
 -1      2817 3.81616E-02
 -1      2818 2.69302E-02
 -1      2819 3.00607E-02
 -1      2820 3.00607E-02
 -1      2821 2.45446E-02
 -1      2822 2.48017E-02
 -1      2823 2.45017E-02
 -1      2824 2.61678E-02
 -1      2825 2.48081E-02
 -1      2826 2.26367E-02
 -1      2827 3.36806E-02
 -1      2828 2.90763E-02
 -1      2829 2.58086E-02
 -1      2830 4.79744E-02
 -1      2831 4.13554E-02
 -1      2832 3.63919E-02
 -1      2833 7.25261E-02
 -1      2834 5.94185E-02
 -1      2835 5.55108E-02
 -1      2836 1.05965E-01
 -1      2837 8.76400E-02
 -1      2838 8.20689E-02
 -1      2839 1.50258E-01
 -1      2840 1.25794E-01
 -1      2841 1.17011E-01
 -1      2842 2.08150E-01
 -1      2843 1.76005E-01
 -1      2844 1.62587E-01
 -1      2845 2.82669E-01
 -1      2846 2.41172E-01
 -1      2847 2.21355E-01
 -1      2848 3.76929E-01
 -1      2849 3.24444E-01
 -1      2850 2.96150E-01
 -1      2851 4.93728E-01
 -1      2852 4.28991E-01
 -1      2853 3.89987E-01
 -1      2854 6.34811E-01
 -1      2855 5.57550E-01
 -1      2856 5.05871E-01
 -1      2857 7.99621E-01
 -1      2858 7.11604E-01
 -1      2859 6.46486E-01
 -1      2860 9.84343E-01
 -1      2861 8.90993E-01
 -1      2862 8.14651E-01
 -1      2863 1.18046E+00
 -1      2864 1.09294E+00
 -1      2865 1.01462E+00
 -1      2866 1.37586E+00
 -1      2867 1.29596E+00
 -1      2868 1.23871E+00
 -1      2869 1.55351E+00
 -1      2870 1.48840E+00
 -1      2871 1.46675E+00
 -1      2872 1.79093E+00
 -1      2873 1.68886E+00
 -1      2874 1.71464E+00
 -1      2875 2.14350E+00
 -1      2876 2.05507E+00
 -1      2877 2.11414E+00
 -1      2878 2.68175E+00
 -1      2879 2.52749E+00
 -1      2880 2.76227E+00
 -1      2881 3.27704E+00
 -1      2882 2.78701E+00
 -1      2883 3.25153E+00
 -1      2884 4.60125E+00
 -1      2885 4.34819E+00
 -1      2886 4.42795E+00
 -1      2887 6.68695E+00
 -1      2888 7.03663E+00
 -1      2889 5.98347E+00
 -1      2890 6.15799E+00
 -1      2891 4.71169E+00
 -1      2892 6.18863E+00
 -1      2893 7.93197E+00
 -1      2894 7.69576E+00
 -1      2895 7.95168E+00
 -1      2896 4.19846E+00
 -1      2897 6.59309E+00
 -1      2898 5.03326E-01
 -1      2899 5.82839E-01
 -1      2900 4.29081E-01
 -1      2901 7.40612E+00
 -1      2902 6.51004E+00
 -1      2903 6.97378E+00
 -1      2904 5.52883E+00
 -1      2905 7.01684E-01
 -1      2906 6.67116E-01
 -1      2907 1.73354E+01
 -1      2908 1.92291E+01
 -1      2909 2.39555E+01
 -1      2910 1.92622E+01
 -1      2911 1.76972E+01
 -1      2912 1.52190E+01
 -1      2913 2.88714E-01
 -1      2914 3.20797E-01
 -1      2915 2.51765E-01
 -1      2916 3.48062E-01
 -1      2917 3.81482E-01
 -1      2918 2.99067E-01
 -1      2919 6.02555E-01
 -1      2920 5.51774E-01
 -1      2921 3.99263E-01
 -1      2922 4.66857E-01
 -1      2923 6.08552E-01
 -1      2924 7.02392E-01
 -1      2925 5.29050E-01
 -1      2926 4.88712E-01
 -1      2927 1.33881E+01
 -1      2928 1.11670E+01
 -1      2929 4.36684E-01
 -1      2930 4.24621E-01
 -1      2931 3.60271E-01
 -1      2932 3.62055E-01
 -1      2933 4.87018E+00
 -1      2934 6.28520E+00
 -1      2935 1.99808E+01
 -1      2936 2.40190E+01
 -1      2937 1.64292E+01
 -1      2938 3.68915E+00
 -1      2939 5.00515E+00
 -1      2940 4.22779E-01
 -1      2941 4.36821E-01
 -1      2942 6.45789E+00
 -1      2943 4.59252E+00
 -1      2944 9.74182E+00
 -1      2945 7.67461E+00
 -1      2946 4.54361E+00
 -1      2947 3.51185E+00
 -1      2948 4.03437E+00
 -1      2949 7.76591E+00
 -1      2950 7.73735E+00
 -1      2951 7.21280E-01
 -1      2952 6.61033E+00
 -1      2953 7.65257E+00
 -1      2954 3.42517E-01
 -1      2955 3.86920E-01
 -1      2956 3.99875E-01
 -1      2957 1.25639E+01
 -1      2958 9.43807E+00
 -1      2959 1.12690E+01
 -1      2960 5.06232E+00
 -1      2961 5.39642E+00
 -1      2962 4.46893E-01
 -1      2963 4.55283E-01
 -1      2964 3.69077E-01
 -1      2965 5.76694E-01
 -1      2966 2.53651E+00
 -1      2967 3.60748E-01
 -1      2968 7.03663E+00
 -1      2969 6.51333E+00
 -1      2970 6.86300E+00
 -1      2971 5.27917E+00
 -1      2972 3.61256E+00
 -1      2973 6.29371E+00
 -1      2974 5.39717E+00
 -1      2975 5.47308E+00
 -1      2976 6.70758E+00
 -1      2977 7.77805E+00
 -1      2978 1.54890E+01
 -1      2979 1.42145E+01
 -1      2980 1.25566E+01
 -1      2981 1.04295E+01
 -1      2982 6.43339E+00
 -1      2983 5.25611E+00
 -1      2984 1.71175E+01
 -1      2985 6.45657E+00
 -1      2986 7.44910E+00
 -1      2987 5.49491E+00
 -1      2988 6.25848E+00
 -1      2989 5.31418E-01
 -1      2990 3.82435E+00
 -1      2991 5.42575E+00
 -1      2992 5.71108E+00
 -1      2993 1.02376E+01
 -1      2994 9.49260E+00
 -1      2995 7.36961E+00
 -1      2996 4.07524E-01
 -1      2997 4.22080E-01
 -1      2998 3.58305E-01
 -1      2999 3.49957E-01
 -1      3000 8.83706E+00
 -1      3001 6.19517E+00
 -1      3002 3.22645E+00
 -1      3003 4.40950E-01
 -1      3004 5.06232E+00
 -1      3005 5.39717E+00
 -1      3006 5.90756E+00
 -1      3007 4.51040E+00
 -1      3008 5.27094E+00
 -1      3009 5.99965E+00
 -1      3010 2.89554E-01
 -1      3011 3.01469E-01
 -1      3012 3.13996E-01
 -1      3013 3.07500E-01
 -1      3014 1.34005E-01
 -1      3015 1.48050E-01
 -1      3016 3.18920E-01
 -1      3017 2.98325E-01
 -1      3018 2.43181E-01
 -1      3019 2.94800E-01
 -1      3020 2.69909E-01
 -1      3021 2.51075E-01
 -1      3022 2.58960E-01
 -1      3023 2.34050E-01
 -1      3024 2.36601E-01
 -1      3025 2.19834E-01
 -1      3026 2.04246E-01
 -1      3027 2.11436E-01
 -1      3028 1.90977E-01
 -1      3029 1.74687E-01
 -1      3030 1.83951E-01
 -1      3031 1.64074E-01
 -1      3032 1.48556E-01
 -1      3033 1.60068E-01
 -1      3034 1.37418E-01
 -1      3035 1.23454E-01
 -1      3036 1.38316E-01
 -1      3037 1.12753E-01
 -1      3038 1.01036E-01
 -1      3039 1.16478E-01
 -1      3040 9.13049E-02
 -1      3041 8.19210E-02
 -1      3042 9.60454E-02
 -1      3043 7.33897E-02
 -1      3044 6.55757E-02
 -1      3045 7.77827E-02
 -1      3046 5.82761E-02
 -1      3047 5.18488E-02
 -1      3048 6.19518E-02
 -1      3049 4.56811E-02
 -1      3050 4.04181E-02
 -1      3051 4.84846E-02
 -1      3052 3.51948E-02
 -1      3053 3.08565E-02
 -1      3054 3.70936E-02
 -1      3055 2.63284E-02
 -1      3056 2.30339E-02
 -1      3057 2.73422E-02
 -1      3058 1.89816E-02
 -1      3059 1.62939E-02
 -1      3060 1.87617E-02
 -1      3061 1.48283E-02
 -1      3062 1.60238E-02
 -1      3063 1.32438E-02
 -1      3064 1.92409E-02
 -1      3065 2.33608E-02
 -1      3066 1.49952E-02
 -1      3067 3.00693E-02
 -1      3068 3.83848E-02
 -1      3069 2.49208E-02
 -1      3070 4.70141E-02
 -1      3071 5.76052E-02
 -1      3072 4.02586E-02
 -1      3073 6.86335E-02
 -1      3074 8.20704E-02
 -1      3075 5.99162E-02
 -1      3076 9.66488E-02
 -1      3077 1.13490E-01
 -1      3078 8.55230E-02
 -1      3079 1.31573E-01
 -1      3080 1.52306E-01
 -1      3081 1.18184E-01
 -1      3082 1.74122E-01
 -1      3083 1.99066E-01
 -1      3084 1.58083E-01
 -1      3085 2.24454E-01
 -1      3086 2.53616E-01
 -1      3087 2.05286E-01
 -1      3088 2.81807E-01
 -1      3089 3.14989E-01
 -1      3090 2.58864E-01
 -1      3091 3.53411E-01
 -1      3092 3.91159E-01
 -1      3093 3.25476E-01
 -1      3094 4.34827E-01
 -1      3095 4.73370E-01
 -1      3096 4.07566E-01
 -1      3097 5.21884E-01
 -1      3098 5.55394E-01
 -1      3099 4.99747E-01
 -1      3100 6.04866E-01
 -1      3101 6.43544E-01
 -1      3102 5.97733E-01
 -1      3103 7.05572E-01
 -1      3104 7.53654E-01
 -1      3105 7.09234E-01
 -1      3106 8.47418E-01
 -1      3107 8.98120E-01
 -1      3108 8.65026E-01
 -1      3109 1.01996E+00
 -1      3110 1.06679E+00
 -1      3111 1.08063E+00
 -1      3112 1.18808E+00
 -1      3113 1.38622E+00
 -1      3114 1.32376E+00
 -1      3115 1.62251E+00
 -1      3116 1.78518E+00
 -1      3117 1.68134E+00
 -1      3118 2.38662E+00
 -1      3119 2.59635E+00
 -1      3120 2.51907E+00
 -1      3121 2.33369E+00
 -1      3122 2.50115E+00
 -1      3123 2.85785E+00
 -1      3124 3.12785E+00
 -1      3125 3.88298E+00
 -1      3126 3.22190E+00
 -1      3127 5.91476E+00
 -1      3128 5.97023E+00
 -1      3129 1.60953E-01
 -1      3130 1.78006E-01
 -1      3131 1.48888E-01
 -1      3132 1.90885E-01
 -1      3133 2.09639E-01
 -1      3134 1.74670E-01
 -1      3135 1.09522E-01
 -1      3136 1.21978E-01
 -1      3137 1.23958E-01
 -1      3138 8.81633E-02
 -1      3139 9.88199E-02
 -1      3140 1.01230E-01
 -1      3141 7.00872E-02
 -1      3142 7.89482E-02
 -1      3143 8.13124E-02
 -1      3144 5.53021E-02
 -1      3145 6.23322E-02
 -1      3146 6.43423E-02
 -1      3147 4.32617E-02
 -1      3148 4.88540E-02
 -1      3149 5.01393E-02
 -1      3150 3.34326E-02
 -1      3151 3.81032E-02
 -1      3152 3.85327E-02
 -1      3153 2.62170E-02
 -1      3154 2.96474E-02
 -1      3155 2.95889E-02
 -1      3156 2.08588E-02
 -1      3157 2.29874E-02
 -1      3158 2.25741E-02
 -1      3159 1.87329E-02
 -1      3160 1.84695E-02
 -1      3161 1.69551E-02
 -1      3162 2.35632E-02
 -1      3163 2.06547E-02
 -1      3164 1.64875E-02
 -1      3165 3.82276E-02
 -1      3166 3.05527E-02
 -1      3167 2.53989E-02
 -1      3168 5.85584E-02
 -1      3169 4.71142E-02
 -1      3170 4.12751E-02
 -1      3171 8.50996E-02
 -1      3172 6.99857E-02
 -1      3173 6.15890E-02
 -1      3174 1.19637E-01
 -1      3175 9.98084E-02
 -1      3176 8.77252E-02
 -1      3177 1.64225E-01
 -1      3178 1.38478E-01
 -1      3179 1.21275E-01
 -1      3180 2.23452E-01
 -1      3181 1.90430E-01
 -1      3182 1.66322E-01
 -1      3183 3.01657E-01
 -1      3184 2.59882E-01
 -1      3185 2.28958E-01
 -1      3186 4.00625E-01
 -1      3187 3.48563E-01
 -1      3188 3.12295E-01
 -1      3189 5.23836E-01
 -1      3190 4.60014E-01
 -1      3191 4.18590E-01
 -1      3192 6.74246E-01
 -1      3193 5.97452E-01
 -1      3194 5.51595E-01
 -1      3195 8.54251E-01
 -1      3196 7.62879E-01
 -1      3197 7.13846E-01
 -1      3198 1.06497E+00
 -1      3199 9.56374E-01
 -1      3200 9.04603E-01
 -1      3201 1.29804E+00
 -1      3202 1.18254E+00
 -1      3203 1.12430E+00
 -1      3204 1.58171E+00
 -1      3205 1.46918E+00
 -1      3206 1.41301E+00
 -1      3207 1.96532E+00
 -1      3208 1.82996E+00
 -1      3209 1.83239E+00
 -1      3210 2.60345E+00
 -1      3211 2.33931E+00
 -1      3212 2.45462E+00
 -1      3213 3.46543E+00
 -1      3214 3.08144E+00
 -1      3215 3.30660E+00
 -1      3216 4.48581E+00
 -1      3217 4.38054E+00
 -1      3218 4.69971E+00
 -1      3219 6.55366E+00
 -1      3220 1.36407E+01
 -1      3221 1.20757E+01
 -1      3222 3.50023E-01
 -1      3223 3.83941E-01
 -1      3224 3.05890E-01
 -1      3225 3.40306E-01
 -1      3226 2.95165E-01
 -1      3227 4.55283E-01
 -1      3228 6.14514E+00
 -1      3229 6.25848E+00
 -1      3230 2.62292E-01
 -1      3231 2.89558E-01
 -1      3232 2.69115E-01
 -1      3233 2.23829E-01
 -1      3234 2.43865E-01
 -1      3235 2.34355E-01
 -1      3236 1.30931E+01
 -1      3237 1.38447E+01
 -1      3238 6.28520E+00
 -1      3239 1.38447E+01
 -1      3240 1.37813E+01
 -1      3241 2.85570E+00
 -1      3242 3.03299E+00
 -1      3243 4.12734E-01
 -1      3244 3.10010E-01
 -1      3245 2.61338E-01
 -1      3246 3.98110E-01
 -1      3247 5.43944E+00
 -1      3248 4.45423E+00
 -1      3249 4.26077E+00
 -1      3250 5.91476E+00
 -1      3251 5.36397E+00
 -1      3252 5.87720E+00
 -1      3253 9.03080E+00
 -1      3254 7.60562E+00
 -1      3255 3.23511E-01
 -1      3256 3.15631E-01
 -1      3257 1.03679E+01
 -1      3258 1.04683E+01
 -1      3259 7.81320E+00
 -1      3260 8.61990E+00
 -1      3261 2.60493E-01
 -1      3262 3.21079E-01
 -1      3263 3.21079E-01
 -1      3264 3.67427E-01
 -1      3265 3.93141E-01
 -1      3266 2.76825E-01
 -1      3267 2.88370E-01
 -1      3268 4.25008E+00
 -1      3269 5.23878E+00
 -1      3270 2.01739E-01
 -1      3271 4.46766E+00
 -1      3272 5.85930E+00
 -1      3273 4.88833E+00
 -1      3274 5.97023E+00
 -1      3275 4.52773E+00
 -1      3276 5.57809E+00
 -1      3277 6.70710E+00
 -1      3278 3.90722E-01
 -1      3279 6.64924E+00
 -1      3280 6.45549E+00
 -1      3281 6.18863E+00
 -1      3282 6.59309E+00
 -1      3283 9.33073E+00
 -1      3284 8.33699E+00
 -1      3285 7.40013E+00
 -1      3286 1.05086E+01
 -1      3287 6.05211E+00
 -1      3288 5.92831E+00
 -1      3289 6.12070E+00
 -1      3290 4.46217E+00
 -1      3291 7.88413E+00
 -1      3292 1.10050E+01
 -1      3293 8.42055E+00
 -1      3294 3.32089E-01
 -1      3295 3.29057E-01
 -1      3296 2.46822E-01
 -1      3297 8.20664E+00
 -1      3298 3.12121E-01
 -1      3299 3.11912E-01
 -1      3300 2.85025E-01
 -1      3301 3.25295E-01
 -1      3302 3.23511E-01
 -1      3303 2.88535E-01
 -1      3304 2.84320E-01
 -1      3305 3.20250E-01
 -1      3306 3.30322E-01
 -1      3307 3.23157E-01
 -1      3308 3.23856E-01
 -1      3309 2.85101E-01
 -1      3310 5.97023E+00
 -1      3311 1.81182E-01
 -1      3312 1.95371E-01
 -1      3313 4.85395E+00
 -1      3314 2.14325E-01
 -1      3315 2.10800E-01
 -1      3316 2.14684E-01
 -1      3317 2.03735E-01
 -1      3318 1.77934E-01
 -1      3319 2.00033E-01
 -1      3320 1.85818E-01
 -1      3321 1.78117E-01
 -1      3322 1.77944E-01
 -1      3323 1.64674E-01
 -1      3324 1.66541E-01
 -1      3325 1.54845E-01
 -1      3326 1.44232E-01
 -1      3327 1.48838E-01
 -1      3328 1.35978E-01
 -1      3329 1.24840E-01
 -1      3330 1.30755E-01
 -1      3331 1.16639E-01
 -1      3332 1.05938E-01
 -1      3333 1.14300E-01
 -1      3334 9.76690E-02
 -1      3335 8.79375E-02
 -1      3336 9.78300E-02
 -1      3337 8.01535E-02
 -1      3338 7.16222E-02
 -1      3339 8.17770E-02
 -1      3340 6.46077E-02
 -1      3341 5.73082E-02
 -1      3342 6.69785E-02
 -1      3343 5.11594E-02
 -1      3344 4.49917E-02
 -1      3345 5.38152E-02
 -1      3346 3.96803E-02
 -1      3347 3.44570E-02
 -1      3348 4.23550E-02
 -1      3349 2.98563E-02
 -1      3350 2.53282E-02
 -1      3351 3.24430E-02
 -1      3352 2.12520E-02
 -1      3353 1.71997E-02
 -1      3354 2.37662E-02
 -1      3355 1.63131E-02
 -1      3356 1.48475E-02
 -1      3357 1.88035E-02
 -1      3358 1.59658E-02
 -1      3359 1.91829E-02
 -1      3360 1.90352E-02
 -1      3361 2.43503E-02
 -1      3362 3.10588E-02
 -1      3363 2.53209E-02
 -1      3364 3.91738E-02
 -1      3365 4.78031E-02
 -1      3366 3.86033E-02
 -1      3367 5.86397E-02
 -1      3368 6.96681E-02
 -1      3369 5.75550E-02
 -1      3370 8.34691E-02
 -1      3371 9.80475E-02
 -1      3372 8.21926E-02
 -1      3373 1.15368E-01
 -1      3374 1.33450E-01
 -1      3375 1.13314E-01
 -1      3376 1.54775E-01
 -1      3377 1.76592E-01
 -1      3378 1.51959E-01
 -1      3379 2.02241E-01
 -1      3380 2.27628E-01
 -1      3381 1.98933E-01
 -1      3382 2.57602E-01
 -1      3383 2.85793E-01
 -1      3384 2.54557E-01
 -1      3385 3.19539E-01
 -1      3386 3.57961E-01
 -1      3387 3.18278E-01
 -1      3388 3.94002E-01
 -1      3389 4.37670E-01
 -1      3390 3.88065E-01
 -1      3391 4.81479E-01
 -1      3392 5.29992E-01
 -1      3393 4.67915E-01
 -1      3394 5.88808E-01
 -1      3395 6.38280E-01
 -1      3396 5.70540E-01
 -1      3397 7.26845E-01
 -1      3398 7.88873E-01
 -1      3399 7.17920E-01
 -1      3400 9.10639E-01
 -1      3401 1.00440E+00
 -1      3402 9.28250E-01
 -1      3403 1.14126E+00
 -1      3404 1.26310E+00
 -1      3405 1.18688E+00
 -1      3406 1.46485E+00
 -1      3407 1.58614E+00
 -1      3408 1.52549E+00
 -1      3409 1.85928E+00
 -1      3410 2.09557E+00
 -1      3411 2.00038E+00
 -1      3412 3.13032E+00
 -1      3413 3.73177E+00
 -1      3414 3.30827E+00
 -1      3415 2.62871E+00
 -1      3416 3.25542E+00
 -1      3417 1.13591E-01
 -1      3418 1.25618E-01
 -1      3419 1.56499E-01
 -1      3420 1.69378E-01
 -1      3421 1.63011E-01
 -1      3422 7.57899E-02
 -1      3423 8.50050E-02
 -1      3424 6.03709E-02
 -1      3425 6.81259E-02
 -1      3426 7.18184E-02
 -1      3427 4.72651E-02
 -1      3428 5.37132E-02
 -1      3429 5.74967E-02
 -1      3430 3.64019E-02
 -1      3431 4.15604E-02
 -1      3432 4.51343E-02
 -1      3433 2.77146E-02
 -1      3434 3.14999E-02
 -1      3435 3.45276E-02
 -1      3436 2.01689E-02
 -1      3437 2.33985E-02
 -1      3438 2.53094E-02
 -1      3439 1.46922E-02
 -1      3440 1.70816E-02
 -1      3441 1.79059E-02
 -1      3442 1.74723E-02
 -1      3443 1.55505E-02
 -1      3444 1.56770E-02
 -1      3445 2.94441E-02
 -1      3446 2.24545E-02
 -1      3447 2.15175E-02
 -1      3448 4.64318E-02
 -1      3449 3.75452E-02
 -1      3450 3.46007E-02
 -1      3451 6.84326E-02
 -1      3452 5.70053E-02
 -1      3453 5.32754E-02
 -1      3454 9.77993E-02
 -1      3455 8.30905E-02
 -1      3456 7.85068E-02
 -1      3457 1.36024E-01
 -1      3458 1.17183E-01
 -1      3459 1.12549E-01
 -1      3460 1.87563E-01
 -1      3461 1.61357E-01
 -1      3462 1.57265E-01
 -1      3463 2.56822E-01
 -1      3464 2.20392E-01
 -1      3465 2.15427E-01
 -1      3466 3.45927E-01
 -1      3467 2.99020E-01
 -1      3468 2.90454E-01
 -1      3469 4.59169E-01
 -1      3470 3.99781E-01
 -1      3471 3.86505E-01
 -1      3472 6.01133E-01
 -1      3473 5.27516E-01
 -1      3474 5.08707E-01
 -1      3475 7.76173E-01
 -1      3476 6.87540E-01
 -1      3477 6.63460E-01
 -1      3478 9.87252E-01
 -1      3479 8.85129E-01
 -1      3480 8.58822E-01
 -1      3481 1.24187E+00
 -1      3482 1.12430E+00
 -1      3483 1.10482E+00
 -1      3484 1.58415E+00
 -1      3485 1.41301E+00
 -1      3486 1.41301E+00
 -1      3487 2.05398E+00
 -1      3488 1.80574E+00
 -1      3489 1.80574E+00
 -1      3490 2.89396E+00
 -1      3491 2.51996E+00
 -1      3492 2.49331E+00
 -1      3493 3.63566E+00
 -1      3494 3.15767E+00
 -1      3495 3.22301E+00
 -1      3496 3.20516E-01
 -1      3497 2.71689E-01
 -1      3498 2.46380E-01
 -1      3499 2.56097E-01
 -1      3500 6.84330E+00
 -1      3501 3.15425E+00
 -1      3502 3.57485E+00
 -1      3503 3.15508E-01
 -1      3504 3.23157E-01
 -1      3505 2.88707E-01
 -1      3506 2.30711E-01
 -1      3507 2.47043E-01
 -1      3508 2.07975E-01
 -1      3509 7.11436E+00
 -1      3510 3.03674E+00
 -1      3511 3.70683E+00
 -1      3512 3.92405E+00
 -1      3513 9.36165E-02
 -1      3514 1.04319E-01
 -1      3515 1.05978E-01
 -1      3516 8.80939E-02
 -1      3517 2.78350E+00
 -1      3518 2.05765E-01
 -1      3519 2.24193E-01
 -1      3520 2.02121E-01
 -1      3521 1.35013E-01
 -1      3522 1.47916E-01
 -1      3523 1.42624E-01
 -1      3524 1.24646E-01
 -1      3525 8.95739E+00
 -1      3526 8.95739E+00
 -1      3527 1.86090E-01
 -1      3528 1.97510E-01
 -1      3529 1.57235E-01
 -1      3530 8.95739E+00
 -1      3531 8.81676E+00
 -1      3532 7.40622E+00
 -1      3533 6.71756E+00
 -1      3534 5.21802E+00
 -1      3535 4.30291E+00
 -1      3536 5.91686E+00
 -1      3537 7.46517E+00
 -1      3538 5.85777E+00
 -1      3539 6.05463E+00
 -1      3540 2.02979E-01
 -1      3541 2.22590E-01
 -1      3542 2.85111E-01
 -1      3543 3.75587E+00
 -1      3544 3.14461E+00
 -1      3545 2.88195E+00
 -1      3546 4.15398E+00
 -1      3547 1.93986E-01
 -1      3548 2.42772E-01
 -1      3549 2.26259E-01
 -1      3550 6.14522E+00
 -1      3551 5.98335E+00
 -1      3552 4.70392E+00
 -1      3553 1.85208E-01
 -1      3554 6.45466E+00
 -1      3555 7.55340E+00
 -1      3556 6.00180E+00
 -1      3557 2.13026E-01
 -1      3558 2.03219E-01
 -1      3559 1.88158E-01
 -1      3560 2.39780E-01
 -1      3561 2.36174E-01
 -1      3562 1.67704E-01
 -1      3563 2.52938E-01
 -1      3564 2.49428E-01
 -1      3565 1.42488E-01
 -1      3566 7.26626E+00
 -1      3567 5.71508E+00
 -1      3568 5.17824E+00
 -1      3569 2.52938E-01
 -1      3570 2.52938E-01
 -1      3571 2.17340E-01
 -1      3572 2.56369E-01
 -1      3573 2.18466E-01
 -1      3574 2.74997E+00
 -1      3575 4.51121E+00
 -1      3576 1.84514E-01
 -1      3577 2.42028E-01
 -1      3578 2.46243E-01
 -1      3579 1.58691E-01
 -1      3580 1.54989E-01
 -1      3581 1.54600E-01
 -1      3582 1.46726E-01
 -1      3583 1.35174E-01
 -1      3584 1.42312E-01
 -1      3585 1.32483E-01
 -1      3586 1.30371E-01
 -1      3587 1.25859E-01
 -1      3588 1.17604E-01
 -1      3589 1.19332E-01
 -1      3590 1.10054E-01
 -1      3591 1.01853E-01
 -1      3592 1.05157E-01
 -1      3593 9.55830E-02
 -1      3594 8.73141E-02
 -1      3595 9.13368E-02
 -1      3596 8.09183E-02
 -1      3597 7.31342E-02
 -1      3598 7.86713E-02
 -1      3599 6.70169E-02
 -1      3600 6.00025E-02
 -1      3601 6.61582E-02
 -1      3602 5.44209E-02
 -1      3603 4.82721E-02
 -1      3604 5.44593E-02
 -1      3605 4.33420E-02
 -1      3606 3.80306E-02
 -1      3607 4.39476E-02
 -1      3608 3.37535E-02
 -1      3609 2.91529E-02
 -1      3610 3.47405E-02
 -1      3611 2.54427E-02
 -1      3612 2.13665E-02
 -1      3613 2.67532E-02
 -1      3614 2.08731E-02
 -1      3615 1.99865E-02
 -1      3616 2.25496E-02
 -1      3617 2.09361E-02
 -1      3618 2.20544E-02
 -1      3619 2.30057E-02
 -1      3620 2.41050E-02
 -1      3621 2.92724E-02
 -1      3622 2.60059E-02
 -1      3623 3.54713E-02
 -1      3624 4.35863E-02
 -1      3625 3.42554E-02
 -1      3626 5.28788E-02
 -1      3627 6.37155E-02
 -1      3628 4.97468E-02
 -1      3629 7.57027E-02
 -1      3630 8.95036E-02
 -1      3631 7.10265E-02
 -1      3632 1.04805E-01
 -1      3633 1.22126E-01
 -1      3634 9.83156E-02
 -1      3635 1.41413E-01
 -1      3636 1.62738E-01
 -1      3637 1.32905E-01
 -1      3638 1.86714E-01
 -1      3639 2.12363E-01
 -1      3640 1.76168E-01
 -1      3641 2.41738E-01
 -1      3642 2.71712E-01
 -1      3643 2.29518E-01
 -1      3644 3.07154E-01
 -1      3645 3.40900E-01
 -1      3646 2.94335E-01
 -1      3647 3.82959E-01
 -1      3648 4.19000E-01
 -1      3649 3.71835E-01
 -1      3650 4.67915E-01
 -1      3651 5.11724E-01
 -1      3652 4.62809E-01
 -1      3653 5.66959E-01
 -1      3654 6.25775E-01
 -1      3655 5.66959E-01
 -1      3656 7.04196E-01
 -1      3657 7.92761E-01
 -1      3658 7.00616E-01
 -1      3659 9.07751E-01
 -1      3660 1.02952E+00
 -1      3661 8.94028E-01
 -1      3662 1.25342E+00
 -1      3663 1.39028E+00
 -1      3664 1.23292E+00
 -1      3665 1.67927E+00
 -1      3666 1.88102E+00
 -1      3667 1.74582E+00
 -1      3668 2.26572E+00
 -1      3669 2.53886E+00
 -1      3670 2.41950E+00
 -1      3671 3.30827E+00
 -1      3672 4.34302E+00
 -1      3673 3.57361E+00
 -1      3674 1.59738E-01
 -1      3675 1.46413E-01
 -1      3676 1.45563E-01
 -1      3677 1.57367E-01
 -1      3678 5.23083E-02
 -1      3679 5.89661E-02
 -1      3680 6.51855E-02
 -1      3681 7.28495E-02
 -1      3682 5.99971E-02
 -1      3683 3.14384E-02
 -1      3684 3.63404E-02
 -1      3685 2.29774E-02
 -1      3686 2.72936E-02
 -1      3687 2.91064E-02
 -1      3688 1.74142E-02
 -1      3689 2.05016E-02
 -1      3690 2.24857E-02
 -1      3691 1.89596E-02
 -1      3692 1.81012E-02
 -1      3693 2.06969E-02
 -1      3694 2.56897E-02
 -1      3695 2.07076E-02
 -1      3696 2.31319E-02
 -1      3697 4.01834E-02
 -1      3698 3.20823E-02
 -1      3699 3.12724E-02
 -1      3700 6.02058E-02
 -1      3701 4.96323E-02
 -1      3702 4.71138E-02
 -1      3703 8.73585E-02
 -1      3704 7.27006E-02
 -1      3705 6.90575E-02
 -1      3706 1.23030E-01
 -1      3707 1.03646E-01
 -1      3708 9.78400E-02
 -1      3709 1.69439E-01
 -1      3710 1.44106E-01
 -1      3711 1.35203E-01
 -1      3712 2.29337E-01
 -1      3713 1.96508E-01
 -1      3714 1.83348E-01
 -1      3715 3.06100E-01
 -1      3716 2.63903E-01
 -1      3717 2.44983E-01
 -1      3718 4.03979E-01
 -1      3719 3.50124E-01
 -1      3720 3.23573E-01
 -1      3721 5.28555E-01
 -1      3722 4.60208E-01
 -1      3723 4.23827E-01
 -1      3724 6.87573E-01
 -1      3725 6.01167E-01
 -1      3726 5.52668E-01
 -1      3727 8.92376E-01
 -1      3728 7.83420E-01
 -1      3729 7.21127E-01
 -1      3730 1.16024E+00
 -1      3731 1.02319E+00
 -1      3732 9.47791E-01
 -1      3733 1.51937E+00
 -1      3734 1.34823E+00
 -1      3735 1.26660E+00
 -1      3736 2.00189E+00
 -1      3737 1.78030E+00
 -1      3738 1.71552E+00
 -1      3739 3.18241E+00
 -1      3740 2.71643E+00
 -1      3741 2.69099E+00
 -1      3742 3.44613E+00
 -1      3743 3.18241E+00
 -1      3744 3.40553E+00
 -1      3745 1.72868E-01
 -1      3746 2.18179E-01
 -1      3747 2.50266E-01
 -1      3748 2.53862E-01
 -1      3749 1.75228E-01
 -1      3750 1.81746E-01
 -1      3751 2.53862E-01
 -1      3752 2.53862E-01
 -1      3753 2.04935E-01
 -1      3754 2.19018E-01
 -1      3755 4.11097E-02
 -1      3756 4.68144E-02
 -1      3757 4.82838E-02
 -1      3758 3.80206E-02
 -1      3759 1.76640E-01
 -1      3760 1.75976E-01
 -1      3761 1.28403E-01
 -1      3762 1.49747E-01
 -1      3763 1.31920E-01
 -1      3764 1.29852E-01
 -1      3765 1.55069E-01
 -1      3766 1.48609E-01
 -1      3767 1.52493E-01
 -1      3768 1.29366E-01
 -1      3769 1.17337E-01
 -1      3770 1.34152E-01
 -1      3771 1.08711E-01
 -1      3772 1.06769E-01
 -1      3773 1.63182E-01
 -1      3774 1.73576E-01
 -1      3775 1.45734E-01
 -1      3776 6.01804E+00
 -1      3777 6.01804E+00
 -1      3778 5.33903E+00
 -1      3779 4.24340E+00
 -1      3780 3.57615E+00
 -1      3781 4.18430E+00
 -1      3782 1.40912E-01
 -1      3783 1.33119E-01
 -1      3784 1.52557E-01
 -1      3785 1.06664E-01
 -1      3786 4.51121E+00
 -1      3787 4.62986E+00
 -1      3788 6.01804E+00
 -1      3789 4.66645E+00
 -1      3790 7.30472E-02
 -1      3791 7.96801E-02
 -1      3792 8.82917E-02
 -1      3793 3.53555E+00
 -1      3794 1.86064E-01
 -1      3795 1.86903E-01
 -1      3796 1.53202E-01
 -1      3797 9.55137E-02
 -1      3798 1.04786E-01
 -1      3799 8.70999E-02
 -1      3800 3.73688E+00
 -1      3801 5.42802E+00
 -1      3802 4.03984E+00
 -1      3803 1.29038E-01
 -1      3804 1.37621E-01
 -1      3805 1.31976E-01
 -1      3806 5.07930E+00
 -1      3807 5.41003E+00
 -1      3808 4.25574E+00
 -1      3809 1.11810E-01
 -1      3810 1.21206E-01
 -1      3811 1.16202E-01
 -1      3812 1.01346E-01
 -1      3813 2.10646E-01
 -1      3814 1.84473E-01
 -1      3815 1.84473E-01
 -1      3816 1.53196E-01
 -1      3817 5.28390E-02
 -1      3818 5.90585E-02
 -1      3819 1.18551E-01
 -1      3820 1.18162E-01
 -1      3821 1.18808E-01
 -1      3822 1.14394E-01
 -1      3823 1.02185E-01
 -1      3824 1.11704E-01
 -1      3825 1.05079E-01
 -1      3826 1.00141E-01
 -1      3827 1.00415E-01
 -1      3828 9.28643E-02
 -1      3829 9.27864E-02
 -1      3830 8.72748E-02
 -1      3831 8.10051E-02
 -1      3832 8.25325E-02
 -1      3833 7.52267E-02
 -1      3834 6.88310E-02
 -1      3835 7.11647E-02
 -1      3836 6.34918E-02
 -1      3837 5.73745E-02
 -1      3838 6.00472E-02
 -1      3839 5.27488E-02
 -1      3840 4.71672E-02
 -1      3841 5.00824E-02
 -1      3842 4.30096E-02
 -1      3843 3.80796E-02
 -1      3844 4.12992E-02
 -1      3845 3.44229E-02
 -1      3846 3.01458E-02
 -1      3847 3.34849E-02
 -1      3848 2.80513E-02
 -1      3849 2.43412E-02
 -1      3850 2.77338E-02
 -1      3851 2.37443E-02
 -1      3852 2.32508E-02
 -1      3853 2.50424E-02
 -1      3854 2.38778E-02
 -1      3855 2.48274E-02
 -1      3856 2.50726E-02
 -1      3857 2.66374E-02
 -1      3858 2.86881E-02
 -1      3859 2.75096E-02
 -1      3860 3.20225E-02
 -1      3861 3.82213E-02
 -1      3862 3.26540E-02
 -1      3863 4.37112E-02
 -1      3864 5.30037E-02
 -1      3865 4.14782E-02
 -1      3866 6.18369E-02
 -1      3867 7.38241E-02
 -1      3868 5.58012E-02
 -1      3869 8.60669E-02
 -1      3870 1.01369E-01
 -1      3871 7.68773E-02
 -1      3872 1.17182E-01
 -1      3873 1.36469E-01
 -1      3874 1.04934E-01
 -1      3875 1.56730E-01
 -1      3876 1.80707E-01
 -1      3877 1.41008E-01
 -1      3878 2.06508E-01
 -1      3879 2.35882E-01
 -1      3880 1.87070E-01
 -1      3881 2.68629E-01
 -1      3882 3.04071E-01
 -1      3883 2.45618E-01
 -1      3884 3.45639E-01
 -1      3885 3.87697E-01
 -1      3886 3.19933E-01
 -1      3887 4.40671E-01
 -1      3888 4.89586E-01
 -1      3889 4.14474E-01
 -1      3890 5.57581E-01
 -1      3891 6.12816E-01
 -1      3892 5.35443E-01
 -1      3893 7.00616E-01
 -1      3894 7.79037E-01
 -1      3895 6.91238E-01
 -1      3896 8.92037E-01
 -1      3897 1.00703E+00
 -1      3898 8.92037E-01
 -1      3899 1.18065E+00
 -1      3900 1.40455E+00
 -1      3901 1.17866E+00
 -1      3902 1.69806E+00
 -1      3903 1.98704E+00
 -1      3904 1.64578E+00
 -1      3905 2.65304E+00
 -1      3906 3.03774E+00
 -1      3907 2.60529E+00
 -1      3908 1.64481E-01
 -1      3909 1.28697E-01
 -1      3910 1.78564E-01
 -1      3911 2.17414E-02
 -1      3912 2.42173E-02
 -1      3913 2.56851E-02
 -1      3914 2.98299E-02
 -1      3915 2.49408E-02
 -1      3916 2.57240E-02
 -1      3917 2.39761E-02
 -1      3918 3.47127E-02
 -1      3919 2.83202E-02
 -1      3920 2.91644E-02
 -1      3921 5.08516E-02
 -1      3922 4.14027E-02
 -1      3923 3.84506E-02
 -1      3924 7.29649E-02
 -1      3925 6.04701E-02
 -1      3926 5.47591E-02
 -1      3927 1.01706E-01
 -1      3928 8.54180E-02
 -1      3929 7.68306E-02
 -1      3930 1.38739E-01
 -1      3931 1.17663E-01
 -1      3932 1.05241E-01
 -1      3933 1.86050E-01
 -1      3934 1.58981E-01
 -1      3935 1.41441E-01
 -1      3936 2.46080E-01
 -1      3937 2.11514E-01
 -1      3938 1.87147E-01
 -1      3939 3.21987E-01
 -1      3940 2.77963E-01
 -1      3941 2.44494E-01
 -1      3942 4.18208E-01
 -1      3943 3.61979E-01
 -1      3944 3.16369E-01
 -1      3945 5.41610E-01
 -1      3946 4.68998E-01
 -1      3947 4.07150E-01
 -1      3948 7.03862E-01
 -1      3949 6.08015E-01
 -1      3950 5.24345E-01
 -1      3951 9.26205E-01
 -1      3952 7.95388E-01
 -1      3953 6.82276E-01
 -1      3954 1.24816E+00
 -1      3955 1.06017E+00
 -1      3956 9.07767E-01
 -1      3957 1.71902E+00
 -1      3958 1.45809E+00
 -1      3959 1.25166E+00
 -1      3960 2.93242E+00
 -1      3961 2.21788E+00
 -1      3962 1.96044E+00
 -1      3963 1.33819E-01
 -1      3964 1.35471E-01
 -1      3965 2.26443E-02
 -1      3966 2.19573E-02
 -1      3967 2.36888E-02
 -1      3968 6.25619E+00
 -1      3969 5.47260E+00
 -1      3970 1.71464E-01
 -1      3971 1.78158E-01
 -1      3972 1.45290E-01
 -1      3973 1.20069E-01
 -1      3974 5.00129E+00
 -1      3975 1.06397E-01
 -1      3976 1.12595E-01
 -1      3977 9.55823E-02
 -1      3978 4.05428E+00
 -1      3979 1.28311E-01
 -1      3980 1.34127E-01
 -1      3981 1.16396E-01
 -1      3982 4.01770E+00
 -1      3983 1.05132E-01
 -1      3984 9.26165E-02
 -1      3985 1.14544E-01
 -1      3986 1.29790E-01
 -1      3987 1.24684E-01
 -1      3988 1.10407E-01
 -1      3989 3.64587E+00
 -1      3990 4.41528E+00
 -1      3991 4.88083E+00
 -1      3992 5.07930E+00
 -1      3993 4.01770E+00
 -1      3994 4.01770E+00
 -1      3995 6.43706E-02
 -1      3996 7.12012E-02
 -1      3997 5.72124E-02
 -1      3998 3.00672E-02
 -1      3999 3.34885E-02
 -1      4000 3.82578E-02
 -1      4001 3.40553E+00
 -1      4002 2.93242E+00
 -1      4003 3.40553E+00
 -1      4004 2.52364E-02
 -1      4005 1.86903E-01
 -1      4006 1.86903E-01
 -1      4007 1.46449E-01
 -1      4008 1.54788E-01
 -1      4009 3.31436E+00
 -1      4010 3.90439E+00
 -1      4011 3.29222E+00
 -1      4012 7.66467E-02
 -1      4013 8.38687E-02
 -1      4014 6.79700E-02
 -1      4015 3.51555E+00
 -1      4016 3.22848E+00
 -1      4017 3.74734E+00
 -1      4018 4.48753E+00
 -1      4019 7.97278E-02
 -1      4020 9.01811E-02
 -1      4021 9.72050E-02
 -1      4022 4.25364E-02
 -1      4023 4.80303E-02
 -1      4024 4.70916E-02
 -1      4025 3.80043E-02
 -1      4026 1.25570E-01
 -1      4027 1.24913E-01
 -1      4028 1.13306E-01
 -1      4029 1.16971E-01
 -1      4030 1.26586E-01
 -1      4031 1.28177E-01
 -1      4032 1.01566E-01
 -1      4033 1.28177E-01
 -1      4034 1.28177E-01
 -1      4035 8.60579E-02
 -1      4036 1.00515E-01
 -1      4037 8.37440E-02
 -1      4038 8.44206E-02
 -1      4039 3.87941E+00
 -1      4040 1.02548E-01
 -1      4041 1.15953E-01
 -1      4042 1.22268E-01
 -1      4043 1.18786E-01
 -1      4044 5.96729E-02
 -1      4045 5.00544E-02
 -1      4046 3.87941E+00
 -1      4047 9.33102E-02
 -1      4048 9.06199E-02
 -1      4049 8.45832E-02
 -1      4050 7.99188E-02
 -1      4051 7.77522E-02
 -1      4052 8.88793E-02
 -1      4053 8.32899E-02
 -1      4054 8.06761E-02
 -1      4055 7.19468E-02
 -1      4056 6.61685E-02
 -1      4057 7.82936E-02
 -1      4058 6.17134E-02
 -1      4059 5.63742E-02
 -1      4060 6.24955E-02
 -1      4061 5.17039E-02
 -1      4062 4.70783E-02
 -1      4063 5.33702E-02
 -1      4064 4.24102E-02
 -1      4065 3.82527E-02
 -1      4066 4.40318E-02
 -1      4067 3.47958E-02
 -1      4068 3.11391E-02
 -1      4069 3.59069E-02
 -1      4070 3.31272E-02
 -1      4071 3.10328E-02
 -1      4072 3.44382E-02
 -1      4073 2.56393E-02
 -1      4074 2.50424E-02
 -1      4075 3.10328E-02
 -1      4076 2.50726E-02
 -1      4077 2.56996E-02
 -1      4078 2.56694E-02
 -1      4079 2.75096E-02
 -1      4080 2.93196E-02
 -1      4081 2.75096E-02
 -1      4082 3.26540E-02
 -1      4083 3.59884E-02
 -1      4084 3.26540E-02
 -1      4085 4.14782E-02
 -1      4086 4.69680E-02
 -1      4087 4.14782E-02
 -1      4088 5.44778E-02
 -1      4089 6.33110E-02
 -1      4090 5.44778E-02
 -1      4091 7.39993E-02
 -1      4092 8.62421E-02
 -1      4093 7.26758E-02
 -1      4094 1.00908E-01
 -1      4095 1.16722E-01
 -1      4096 9.80300E-02
 -1      4097 1.36109E-01
 -1      4098 1.56370E-01
 -1      4099 1.32084E-01
 -1      4100 1.82029E-01
 -1      4101 2.07830E-01
 -1      4102 1.77130E-01
 -1      4103 2.42036E-01
 -1      4104 2.74783E-01
 -1      4105 2.36995E-01
 -1      4106 3.21002E-01
 -1      4107 3.62570E-01
 -1      4108 3.17420E-01
 -1      4109 4.26265E-01
 -1      4110 4.79238E-01
 -1      4111 4.27334E-01
 -1      4112 5.69260E-01
 -1      4113 6.37255E-01
 -1      4114 5.81050E-01
 -1      4115 7.68082E-01
 -1      4116 8.55882E-01
 -1      4117 8.01899E-01
 -1      4118 1.04996E+00
 -1      4119 1.16296E+00
 -1      4120 1.12680E+00
 -1      4121 1.45071E+00
 -1      4122 1.62434E+00
 -1      4123 1.60864E+00
 -1      4124 1.68974E+00
 -1      4125 1.98324E+00
 -1      4126 1.96180E+00
 -1      4127 2.60529E+00
 -1      4128 3.27129E+00
 -1      4129 2.64924E+00
 -1      4130 2.99496E-02
 -1      4131 3.14175E-02
 -1      4132 2.65682E-02
 -1      4133 2.52364E-02
 -1      4134 4.32688E-02
 -1      4135 3.65788E-02
 -1      4136 4.81826E-02
 -1      4137 3.17605E-02
 -1      4138 2.91644E-02
 -1      4139 2.91644E-02
 -1      4140 3.65788E-02
 -1      4141 8.12802E-02
 -1      4142 6.88271E-02
 -1      4143 6.41225E-02
 -1      4144 1.09414E-01
 -1      4145 9.34565E-02
 -1      4146 8.54530E-02
 -1      4147 1.45532E-01
 -1      4148 1.25290E-01
 -1      4149 1.13506E-01
 -1      4150 1.91293E-01
 -1      4151 1.65829E-01
 -1      4152 1.49678E-01
 -1      4153 2.48933E-01
 -1      4154 2.17050E-01
 -1      4155 1.95732E-01
 -1      4156 3.21561E-01
 -1      4157 2.81570E-01
 -1      4158 2.54126E-01
 -1      4159 4.13954E-01
 -1      4160 3.63164E-01
 -1      4161 3.28365E-01
 -1      4162 5.40890E-01
 -1      4163 4.74485E-01
 -1      4164 4.30499E-01
 -1      4165 7.22437E-01
 -1      4166 6.30911E-01
 -1      4167 5.81050E-01
 -1      4168 9.87229E-01
 -1      4169 8.53264E-01
 -1      4170 8.01899E-01
 -1      4171 1.41144E+00
 -1      4172 1.20151E+00
 -1      4173 1.14701E+00
 -1      4174 2.24325E+00
 -1      4175 1.74439E+00
 -1      4176 1.69425E+00
 -1      4177 4.80857E+00
 -1      4178 2.39046E-02
 -1      4179 2.36888E-02
 -1      4180 2.52364E-02
 -1      4181 7.82282E-02
 -1      4182 8.41846E-02
 -1      4183 1.22883E-01
 -1      4184 2.93242E+00
 -1      4185 2.45930E+00
 -1      4186 2.24325E+00
 -1      4187 2.81911E+00
 -1      4188 9.72487E-02
 -1      4189 9.15018E-02
 -1      4190 9.21482E-02
 -1      4191 8.26269E-02
 -1      4192 1.03611E-01
 -1      4193 1.11443E-01
 -1      4194 9.24463E-02
 -1      4195 1.01827E-01
 -1      4196 1.01519E-01
 -1      4197 3.87941E+00
 -1      4198 4.97676E+00
 -1      4199 9.67544E-02
 -1      4200 9.10731E-02
 -1      4201 8.21851E-02
 -1      4202 9.88286E-02
 -1      4203 1.04380E-01
 -1      4204 3.01655E-02
 -1      4205 3.31436E+00
 -1      4206 3.17891E+00
 -1      4207 3.09303E+00
 -1      4208 3.02952E-02
 -1      4209 3.39538E-02
 -1      4210 3.53041E-02
 -1      4211 7.41478E-02
 -1      4212 7.78621E-02
 -1      4213 8.37440E-02
 -1      4214 7.23463E-02
 -1      4215 6.47375E-02
 -1      4216 7.01830E-02
 -1      4217 9.62728E-02
 -1      4218 8.15261E-02
 -1      4219 8.78384E-02
 -1      4220 7.82936E-02
 -1      4221 4.54914E-02
 -1      4222 5.03001E-02
 -1      4223 1.02436E-01
 -1      4224 8.75597E-02
 -1      4225 9.90384E-02
 -1      4226 5.49704E-02
 -1      4227 6.02825E-02
 -1      4228 6.24955E-02
 -1      4229 5.33702E-02
 -1      4230 8.35819E-02
 -1      4231 8.35819E-02
 -1      4232 1.03146E-01
 -1      4233 9.13207E-02
 -1      4234 9.68482E-02
 -1      4235 8.59791E-02
 -1      4236 8.48171E-02
 -1      4237 8.59791E-02
 -1      4238 8.06761E-02
 -1      4239 8.96367E-02
 -1      4240 8.96367E-02
 -1      4241 7.82936E-02
 -1      4242 6.69505E-02
 -1      4243 6.24955E-02
 -1      4244 5.80405E-02
 -1      4245 5.33702E-02
 -1      4246 4.86998E-02
 -1      4247 4.40318E-02
 -1      4248 3.44382E-02
 -1      4249 3.64263E-02
 -1      4250 3.64263E-02
 -1      4251 3.10328E-02
 -1      4252 2.47720E-02
 -1      4253 2.48021E-02
 -1      4254 2.61339E-02
 -1      4255 2.79439E-02
 -1      4256 3.05401E-02
 -1      4257 3.38745E-02
 -1      4258 3.86927E-02
 -1      4259 4.41825E-02
 -1      4260 5.09681E-02
 -1      4261 5.84779E-02
 -1      4262 6.76321E-02
 -1      4263 7.83204E-02
 -1      4264 9.04966E-02
 -1      4265 1.05163E-01
 -1      4266 1.21039E-01
 -1      4267 1.40427E-01
 -1      4268 1.60723E-01
 -1      4269 1.86382E-01
 -1      4270 2.12139E-01
 -1      4271 2.46345E-01
 -1      4272 2.78982E-01
 -1      4273 3.25200E-01
 -1      4274 3.66804E-01
 -1      4275 4.30499E-01
 -1      4276 4.91029E-01
 -1      4277 5.81050E-01
 -1      4278 6.71071E-01
 -1      4279 8.01899E-01
 -1      4280 9.32726E-01
 -1      4281 1.12680E+00
 -1      4282 1.34109E+00
 -1      4283 1.62884E+00
 -1      4284 1.96180E+00
 -1      4285 2.02720E+00
 -1      4286 8.51617E-02
 -1      4287 8.37889E-02
 -1      4288 7.77522E-02
 -1      4289 7.17297E-02
 -1      4290 8.97143E-02
 -1      4291 4.08233E-02
 -1      4292 4.40318E-02
 -1      4293 3.65447E-02
 -1      4294 7.68903E-02
 -1      4295 8.42075E-02
 -1      4296 8.66081E-02
 -1      4297 9.30143E-02
 -1      4298 8.54825E-02
 -1      4299 8.84064E-02
 -1      4300 3.93637E-02
 -1      4301 7.21253E-02
 -1      4302 3.64263E-02
 -1      4303 3.59069E-02
 -1      4304 3.78950E-02
 -1      4305 6.62140E-02
 -1      4306 2.02720E+00
 -1      4307 2.02720E+00
 -1      4308 2.64924E+00
 -1      4309 8.44206E-02
 -1      4310 3.13922E+00
 -1      4311 7.15087E-02
 -1      4312 2.81911E+00
 -1      4313 8.96367E-02
 -1      4314 3.67728E-02
 -1      4315 3.22510E+00
 -1      4316 8.67128E-02
 -1      4317 3.53041E-02
 -1      4318 2.24325E+00
 -1      4319 2.60306E+00
 -1      4320 8.84064E-02
 -3
 9999
