    1C
    1UUSER                                                              
    1UDATE              27.october.2022                                 
    1UTIME              00:31:12                                        
    1UHOST                                                              
    1UPGM               CalculiX                                        
    1UVERSION           Version 2.17                             
    1UCOMPILETIME       Thu Jul 23 21:43:50 CEST 2020                    
    1UDIR                                                               
    1UDBN                                                               
    1UMAT    1SOLIDMATERIAL                                             
    2C                          4361                                     1
 -1         1 9.48317E+01 3.54545E+01 0.00000E+00
 -1         2 1.00231E+02 2.86400E+01 0.00000E+00
 -1         3 1.50000E+02 0.00000E+00 0.00000E+00
 -1         4 1.50000E+02 5.00000E+01 0.00000E+00
 -1         5 0.00000E+00 0.00000E+00 0.00000E+00
 -1         6 0.00000E+00 5.00000E+01 0.00000E+00
 -1         7 0.00000E+00 4.70500E+01 0.00000E+00
 -1         8 0.00000E+00 4.41000E+01 0.00000E+00
 -1         9 0.00000E+00 4.11500E+01 0.00000E+00
 -1        10 0.00000E+00 3.82000E+01 0.00000E+00
 -1        11 0.00000E+00 3.52500E+01 0.00000E+00
 -1        12 0.00000E+00 3.23500E+01 0.00000E+00
 -1        13 0.00000E+00 2.94000E+01 0.00000E+00
 -1        14 0.00000E+00 2.64500E+01 0.00000E+00
 -1        15 0.00000E+00 2.35000E+01 0.00000E+00
 -1        16 0.00000E+00 2.05500E+01 0.00000E+00
 -1        17 0.00000E+00 1.76000E+01 0.00000E+00
 -1        18 0.00000E+00 1.47000E+01 0.00000E+00
 -1        19 0.00000E+00 1.17500E+01 0.00000E+00
 -1        20 0.00000E+00 8.80000E+00 0.00000E+00
 -1        21 0.00000E+00 5.85000E+00 0.00000E+00
 -1        22 0.00000E+00 2.90000E+00 0.00000E+00
 -1        23 3.15000E+00 5.00000E+01 0.00000E+00
 -1        24 6.15000E+00 5.00000E+01 0.00000E+00
 -1        25 9.15000E+00 5.00000E+01 0.00000E+00
 -1        26 1.21500E+01 5.00000E+01 0.00000E+00
 -1        27 1.51500E+01 5.00000E+01 0.00000E+00
 -1        28 1.81500E+01 5.00000E+01 0.00000E+00
 -1        29 2.11500E+01 5.00000E+01 0.00000E+00
 -1        30 2.41500E+01 5.00000E+01 0.00000E+00
 -1        31 2.71500E+01 5.00000E+01 0.00000E+00
 -1        32 3.01500E+01 5.00000E+01 0.00000E+00
 -1        33 3.31500E+01 5.00000E+01 0.00000E+00
 -1        34 3.61500E+01 5.00000E+01 0.00000E+00
 -1        35 3.91500E+01 5.00000E+01 0.00000E+00
 -1        36 4.21500E+01 5.00000E+01 0.00000E+00
 -1        37 4.51500E+01 5.00000E+01 0.00000E+00
 -1        38 4.81500E+01 5.00000E+01 0.00000E+00
 -1        39 5.11500E+01 5.00000E+01 0.00000E+00
 -1        40 5.41500E+01 5.00000E+01 0.00000E+00
 -1        41 5.71500E+01 5.00000E+01 0.00000E+00
 -1        42 6.01500E+01 5.00000E+01 0.00000E+00
 -1        43 6.31500E+01 5.00000E+01 0.00000E+00
 -1        44 6.61500E+01 5.00000E+01 0.00000E+00
 -1        45 6.91500E+01 5.00000E+01 0.00000E+00
 -1        46 7.21500E+01 5.00000E+01 0.00000E+00
 -1        47 7.51500E+01 5.00000E+01 0.00000E+00
 -1        48 7.81500E+01 5.00000E+01 0.00000E+00
 -1        49 8.11500E+01 5.00000E+01 0.00000E+00
 -1        50 8.41500E+01 5.00000E+01 0.00000E+00
 -1        51 8.71500E+01 5.00000E+01 0.00000E+00
 -1        52 9.01500E+01 5.00000E+01 0.00000E+00
 -1        53 9.31500E+01 5.00000E+01 0.00000E+00
 -1        54 9.61500E+01 5.00000E+01 0.00000E+00
 -1        55 9.91500E+01 5.00000E+01 0.00000E+00
 -1        56 1.02150E+02 5.00000E+01 0.00000E+00
 -1        57 1.05150E+02 5.00000E+01 0.00000E+00
 -1        58 1.08150E+02 5.00000E+01 0.00000E+00
 -1        59 1.11150E+02 5.00000E+01 0.00000E+00
 -1        60 1.14150E+02 5.00000E+01 0.00000E+00
 -1        61 1.17150E+02 5.00000E+01 0.00000E+00
 -1        62 1.20150E+02 5.00000E+01 0.00000E+00
 -1        63 1.23150E+02 5.00000E+01 0.00000E+00
 -1        64 1.26150E+02 5.00000E+01 0.00000E+00
 -1        65 1.29150E+02 5.00000E+01 0.00000E+00
 -1        66 1.32150E+02 5.00000E+01 0.00000E+00
 -1        67 1.35150E+02 5.00000E+01 0.00000E+00
 -1        68 1.38150E+02 5.00000E+01 0.00000E+00
 -1        69 1.41150E+02 5.00000E+01 0.00000E+00
 -1        70 1.44150E+02 5.00000E+01 0.00000E+00
 -1        71 1.47150E+02 5.00000E+01 0.00000E+00
 -1        72 3.15000E+00 0.00000E+00 0.00000E+00
 -1        73 6.15000E+00 0.00000E+00 0.00000E+00
 -1        74 9.15000E+00 0.00000E+00 0.00000E+00
 -1        75 1.21500E+01 0.00000E+00 0.00000E+00
 -1        76 1.51500E+01 0.00000E+00 0.00000E+00
 -1        77 1.81500E+01 0.00000E+00 0.00000E+00
 -1        78 2.11500E+01 0.00000E+00 0.00000E+00
 -1        79 2.41500E+01 0.00000E+00 0.00000E+00
 -1        80 2.71500E+01 0.00000E+00 0.00000E+00
 -1        81 3.01500E+01 0.00000E+00 0.00000E+00
 -1        82 3.31500E+01 0.00000E+00 0.00000E+00
 -1        83 3.61500E+01 0.00000E+00 0.00000E+00
 -1        84 3.91500E+01 0.00000E+00 0.00000E+00
 -1        85 4.21500E+01 0.00000E+00 0.00000E+00
 -1        86 4.51500E+01 0.00000E+00 0.00000E+00
 -1        87 4.81500E+01 0.00000E+00 0.00000E+00
 -1        88 5.11500E+01 0.00000E+00 0.00000E+00
 -1        89 5.41500E+01 0.00000E+00 0.00000E+00
 -1        90 5.71500E+01 0.00000E+00 0.00000E+00
 -1        91 6.01500E+01 0.00000E+00 0.00000E+00
 -1        92 6.31500E+01 0.00000E+00 0.00000E+00
 -1        93 6.61500E+01 0.00000E+00 0.00000E+00
 -1        94 6.91500E+01 0.00000E+00 0.00000E+00
 -1        95 7.21500E+01 0.00000E+00 0.00000E+00
 -1        96 7.51500E+01 0.00000E+00 0.00000E+00
 -1        97 7.81500E+01 0.00000E+00 0.00000E+00
 -1        98 8.11500E+01 0.00000E+00 0.00000E+00
 -1        99 8.41500E+01 0.00000E+00 0.00000E+00
 -1       100 8.71500E+01 0.00000E+00 0.00000E+00
 -1       101 9.01500E+01 0.00000E+00 0.00000E+00
 -1       102 9.31500E+01 0.00000E+00 0.00000E+00
 -1       103 9.61500E+01 0.00000E+00 0.00000E+00
 -1       104 9.91500E+01 0.00000E+00 0.00000E+00
 -1       105 1.02150E+02 0.00000E+00 0.00000E+00
 -1       106 1.05150E+02 0.00000E+00 0.00000E+00
 -1       107 1.08150E+02 0.00000E+00 0.00000E+00
 -1       108 1.11150E+02 0.00000E+00 0.00000E+00
 -1       109 1.14150E+02 0.00000E+00 0.00000E+00
 -1       110 1.17150E+02 0.00000E+00 0.00000E+00
 -1       111 1.20150E+02 0.00000E+00 0.00000E+00
 -1       112 1.23150E+02 0.00000E+00 0.00000E+00
 -1       113 1.26150E+02 0.00000E+00 0.00000E+00
 -1       114 1.29150E+02 0.00000E+00 0.00000E+00
 -1       115 1.32150E+02 0.00000E+00 0.00000E+00
 -1       116 1.35150E+02 0.00000E+00 0.00000E+00
 -1       117 1.38150E+02 0.00000E+00 0.00000E+00
 -1       118 1.41150E+02 0.00000E+00 0.00000E+00
 -1       119 1.44150E+02 0.00000E+00 0.00000E+00
 -1       120 1.47150E+02 0.00000E+00 0.00000E+00
 -1       121 1.50000E+02 2.95000E+00 0.00000E+00
 -1       122 1.50000E+02 5.90000E+00 0.00000E+00
 -1       123 1.50000E+02 8.85000E+00 0.00000E+00
 -1       124 1.50000E+02 1.18000E+01 0.00000E+00
 -1       125 1.50000E+02 1.47500E+01 0.00000E+00
 -1       126 1.50000E+02 1.76500E+01 0.00000E+00
 -1       127 1.50000E+02 2.06000E+01 0.00000E+00
 -1       128 1.50000E+02 2.35500E+01 0.00000E+00
 -1       129 1.50000E+02 2.65000E+01 0.00000E+00
 -1       130 1.50000E+02 2.94500E+01 0.00000E+00
 -1       131 1.50000E+02 3.24000E+01 0.00000E+00
 -1       132 1.50000E+02 3.53000E+01 0.00000E+00
 -1       133 1.50000E+02 3.82500E+01 0.00000E+00
 -1       134 1.50000E+02 4.12000E+01 0.00000E+00
 -1       135 1.50000E+02 4.41500E+01 0.00000E+00
 -1       136 1.50000E+02 4.71000E+01 0.00000E+00
 -1       137 1.00075E+02 2.71671E+01 0.00000E+00
 -1       138 9.96103E+01 2.57578E+01 0.00000E+00
 -1       139 9.88779E+01 2.45029E+01 0.00000E+00
 -1       140 9.77542E+01 2.32974E+01 0.00000E+00
 -1       141 9.65559E+01 2.24799E+01 0.00000E+00
 -1       142 9.50742E+01 2.18869E+01 0.00000E+00
 -1       143 9.36177E+01 2.16506E+01 0.00000E+00
 -1       144 9.20874E+01 2.17341E+01 0.00000E+00
 -1       145 9.06211E+01 2.21448E+01 0.00000E+00
 -1       146 8.93230E+01 2.28326E+01 0.00000E+00
 -1       147 8.81484E+01 2.38270E+01 0.00000E+00
 -1       148 8.72888E+01 2.49403E+01 0.00000E+00
 -1       149 8.66615E+01 2.62238E+01 0.00000E+00
 -1       150 8.62936E+01 2.77073E+01 0.00000E+00
 -1       151 8.62502E+01 2.91544E+01 0.00000E+00
 -1       152 8.65430E+01 3.07059E+01 0.00000E+00
 -1       153 8.70942E+01 3.20070E+01 0.00000E+00
 -1       154 8.79634E+01 3.32497E+01 0.00000E+00
 -1       155 8.90523E+01 3.42557E+01 0.00000E+00
 -1       156 9.03645E+01 3.50260E+01 0.00000E+00
 -1       157 9.18382E+01 3.55000E+01 0.00000E+00
 -1       158 9.33189E+01 3.56394E+01 0.00000E+00
 -1       159 9.62827E+01 3.49398E+01 0.00000E+00
 -1       160 9.76014E+01 3.41082E+01 0.00000E+00
 -1       161 9.86747E+01 3.30410E+01 0.00000E+00
 -1       162 9.95448E+01 3.16629E+01 0.00000E+00
 -1       163 1.00049E+02 3.02288E+01 0.00000E+00
 -1       164 2.59800E+00 4.55750E+01 0.00000E+00
 -1       165 2.59800E+00 4.26250E+01 0.00000E+00
 -1       166 2.59800E+00 3.96750E+01 0.00000E+00
 -1       167 2.59800E+00 3.67250E+01 0.00000E+00
 -1       168 2.59800E+00 3.38250E+01 0.00000E+00
 -1       169 2.59800E+00 3.08750E+01 0.00000E+00
 -1       170 2.59800E+00 2.79250E+01 0.00000E+00
 -1       171 2.59800E+00 2.49750E+01 0.00000E+00
 -1       172 2.59800E+00 2.20250E+01 0.00000E+00
 -1       173 2.59800E+00 1.90750E+01 0.00000E+00
 -1       174 2.59800E+00 1.61750E+01 0.00000E+00
 -1       175 2.59800E+00 1.32250E+01 0.00000E+00
 -1       176 2.59800E+00 1.02750E+01 0.00000E+00
 -1       177 2.59800E+00 7.32500E+00 0.00000E+00
 -1       178 2.59800E+00 4.37500E+00 0.00000E+00
 -1       179 2.87400E+00 2.18750E+00 0.00000E+00
 -1       180 4.65000E+00 4.74020E+01 0.00000E+00
 -1       181 7.65000E+00 4.74020E+01 0.00000E+00
 -1       182 1.06500E+01 4.74020E+01 0.00000E+00
 -1       183 1.36500E+01 4.74020E+01 0.00000E+00
 -1       184 1.66500E+01 4.74020E+01 0.00000E+00
 -1       185 1.96500E+01 4.74020E+01 0.00000E+00
 -1       186 2.26500E+01 4.74020E+01 0.00000E+00
 -1       187 2.56500E+01 4.74020E+01 0.00000E+00
 -1       188 2.86500E+01 4.74020E+01 0.00000E+00
 -1       189 3.16500E+01 4.74020E+01 0.00000E+00
 -1       190 3.46500E+01 4.74020E+01 0.00000E+00
 -1       191 3.76500E+01 4.74020E+01 0.00000E+00
 -1       192 4.06500E+01 4.74020E+01 0.00000E+00
 -1       193 4.36500E+01 4.74020E+01 0.00000E+00
 -1       194 4.66500E+01 4.74020E+01 0.00000E+00
 -1       195 4.96500E+01 4.74020E+01 0.00000E+00
 -1       196 5.26500E+01 4.74020E+01 0.00000E+00
 -1       197 5.56500E+01 4.74020E+01 0.00000E+00
 -1       198 5.86500E+01 4.74020E+01 0.00000E+00
 -1       199 6.16500E+01 4.74020E+01 0.00000E+00
 -1       200 6.46500E+01 4.74020E+01 0.00000E+00
 -1       201 6.76500E+01 4.74020E+01 0.00000E+00
 -1       202 7.06500E+01 4.74020E+01 0.00000E+00
 -1       203 7.36500E+01 4.74020E+01 0.00000E+00
 -1       204 7.66500E+01 4.74020E+01 0.00000E+00
 -1       205 7.96500E+01 4.74020E+01 0.00000E+00
 -1       206 8.26500E+01 4.74020E+01 0.00000E+00
 -1       207 8.56500E+01 4.74020E+01 0.00000E+00
 -1       208 8.86500E+01 4.74020E+01 0.00000E+00
 -1       209 9.16500E+01 4.74020E+01 0.00000E+00
 -1       210 9.46500E+01 4.74020E+01 0.00000E+00
 -1       211 9.76500E+01 4.74020E+01 0.00000E+00
 -1       212 1.00650E+02 4.74020E+01 0.00000E+00
 -1       213 1.03650E+02 4.74020E+01 0.00000E+00
 -1       214 1.06650E+02 4.74020E+01 0.00000E+00
 -1       215 1.09650E+02 4.74020E+01 0.00000E+00
 -1       216 1.12650E+02 4.74020E+01 0.00000E+00
 -1       217 1.15650E+02 4.74020E+01 0.00000E+00
 -1       218 1.18650E+02 4.74020E+01 0.00000E+00
 -1       219 1.21650E+02 4.74020E+01 0.00000E+00
 -1       220 1.24650E+02 4.74020E+01 0.00000E+00
 -1       221 1.27650E+02 4.74020E+01 0.00000E+00
 -1       222 1.30650E+02 4.74020E+01 0.00000E+00
 -1       223 1.33650E+02 4.74020E+01 0.00000E+00
 -1       224 1.36650E+02 4.74020E+01 0.00000E+00
 -1       225 1.39650E+02 4.74020E+01 0.00000E+00
 -1       226 1.42650E+02 4.74020E+01 0.00000E+00
 -1       227 1.45650E+02 4.74020E+01 0.00000E+00
 -1       228 5.87400E+00 2.18750E+00 0.00000E+00
 -1       229 8.87400E+00 2.18750E+00 0.00000E+00
 -1       230 1.18740E+01 2.18750E+00 0.00000E+00
 -1       231 1.48740E+01 2.18750E+00 0.00000E+00
 -1       232 1.78740E+01 2.18750E+00 0.00000E+00
 -1       233 2.08740E+01 2.18750E+00 0.00000E+00
 -1       234 2.38740E+01 2.18750E+00 0.00000E+00
 -1       235 2.68740E+01 2.18750E+00 0.00000E+00
 -1       236 2.98740E+01 2.18750E+00 0.00000E+00
 -1       237 3.28740E+01 2.18750E+00 0.00000E+00
 -1       238 3.58740E+01 2.18750E+00 0.00000E+00
 -1       239 3.88740E+01 2.18750E+00 0.00000E+00
 -1       240 4.18740E+01 2.18750E+00 0.00000E+00
 -1       241 4.48740E+01 2.18750E+00 0.00000E+00
 -1       242 4.78740E+01 2.18750E+00 0.00000E+00
 -1       243 5.08740E+01 2.18750E+00 0.00000E+00
 -1       244 5.38740E+01 2.18750E+00 0.00000E+00
 -1       245 5.68740E+01 2.18750E+00 0.00000E+00
 -1       246 5.98740E+01 2.18750E+00 0.00000E+00
 -1       247 6.28740E+01 2.18750E+00 0.00000E+00
 -1       248 6.58740E+01 2.18750E+00 0.00000E+00
 -1       249 6.88740E+01 2.18750E+00 0.00000E+00
 -1       250 7.18740E+01 2.18750E+00 0.00000E+00
 -1       251 7.48740E+01 2.18750E+00 0.00000E+00
 -1       252 7.78740E+01 2.18750E+00 0.00000E+00
 -1       253 8.08740E+01 2.18750E+00 0.00000E+00
 -1       254 8.38740E+01 2.18750E+00 0.00000E+00
 -1       255 8.68740E+01 2.18750E+00 0.00000E+00
 -1       256 8.98740E+01 2.18750E+00 0.00000E+00
 -1       257 9.28740E+01 2.18750E+00 0.00000E+00
 -1       258 9.58740E+01 2.18750E+00 0.00000E+00
 -1       259 9.88740E+01 2.18750E+00 0.00000E+00
 -1       260 1.01874E+02 2.18750E+00 0.00000E+00
 -1       261 1.04874E+02 2.18750E+00 0.00000E+00
 -1       262 1.07874E+02 2.18750E+00 0.00000E+00
 -1       263 1.10874E+02 2.18750E+00 0.00000E+00
 -1       264 1.13874E+02 2.18750E+00 0.00000E+00
 -1       265 1.16874E+02 2.18750E+00 0.00000E+00
 -1       266 1.19874E+02 2.18750E+00 0.00000E+00
 -1       267 1.22874E+02 2.18750E+00 0.00000E+00
 -1       268 1.25874E+02 2.18750E+00 0.00000E+00
 -1       269 1.28874E+02 2.18750E+00 0.00000E+00
 -1       270 1.31874E+02 2.18750E+00 0.00000E+00
 -1       271 1.34874E+02 2.18750E+00 0.00000E+00
 -1       272 1.37874E+02 2.18750E+00 0.00000E+00
 -1       273 1.40874E+02 2.18750E+00 0.00000E+00
 -1       274 1.43874E+02 2.18750E+00 0.00000E+00
 -1       275 1.46874E+02 2.18750E+00 0.00000E+00
 -1       276 1.47402E+02 4.42500E+00 0.00000E+00
 -1       277 1.47402E+02 7.37500E+00 0.00000E+00
 -1       278 1.47402E+02 1.03250E+01 0.00000E+00
 -1       279 1.47402E+02 1.32750E+01 0.00000E+00
 -1       280 1.47402E+02 1.61750E+01 0.00000E+00
 -1       281 1.47402E+02 1.91250E+01 0.00000E+00
 -1       282 1.47402E+02 2.20750E+01 0.00000E+00
 -1       283 1.47402E+02 2.50250E+01 0.00000E+00
 -1       284 1.47402E+02 2.79750E+01 0.00000E+00
 -1       285 1.47402E+02 3.09250E+01 0.00000E+00
 -1       286 1.47402E+02 3.38250E+01 0.00000E+00
 -1       287 1.47402E+02 3.67750E+01 0.00000E+00
 -1       288 1.47402E+02 3.97250E+01 0.00000E+00
 -1       289 1.47402E+02 4.26750E+01 0.00000E+00
 -1       290 1.46526E+02 4.50385E+01 0.00000E+00
 -1       291 1.01358E+02 2.77752E+01 0.00000E+00
 -1       292 1.01074E+02 2.60569E+01 0.00000E+00
 -1       293 1.00364E+02 2.44769E+01 0.00000E+00
 -1       294 9.93867E+01 2.29021E+01 0.00000E+00
 -1       295 9.78383E+01 2.18871E+01 0.00000E+00
 -1       296 9.63589E+01 2.08244E+01 0.00000E+00
 -1       297 9.45401E+01 2.05720E+01 0.00000E+00
 -1       298 9.27775E+01 2.03144E+01 0.00000E+00
 -1       299 9.10272E+01 2.07720E+01 0.00000E+00
 -1       300 8.94044E+01 2.14174E+01 0.00000E+00
 -1       301 8.78440E+01 2.22766E+01 0.00000E+00
 -1       302 8.67589E+01 2.36427E+01 0.00000E+00
 -1       303 8.58859E+01 2.50496E+01 0.00000E+00
 -1       304 8.52195E+01 2.66536E+01 0.00000E+00
 -1       305 8.48088E+01 2.83869E+01 0.00000E+00
 -1       306 8.48759E+01 3.02172E+01 0.00000E+00
 -1       307 8.57023E+01 3.18294E+01 0.00000E+00
 -1       308 8.63980E+01 3.34193E+01 0.00000E+00
 -1       309 8.74577E+01 3.48894E+01 0.00000E+00
 -1       310 8.90522E+01 3.57587E+01 0.00000E+00
 -1       311 9.06275E+01 3.67362E+01 0.00000E+00
 -1       312 9.24648E+01 3.67767E+01 0.00000E+00
 -1       313 9.42325E+01 3.68336E+01 0.00000E+00
 -1       314 9.59625E+01 3.63398E+01 0.00000E+00
 -1       315 9.75888E+01 3.55495E+01 0.00000E+00
 -1       316 9.89929E+01 3.44343E+01 0.00000E+00
 -1       317 1.00277E+02 3.30887E+01 0.00000E+00
 -1       318 1.00941E+02 3.13476E+01 0.00000E+00
 -1       319 1.01428E+02 2.95825E+01 0.00000E+00
 -1       320 5.19600E+00 4.11500E+01 0.00000E+00
 -1       321 5.19600E+00 4.41000E+01 0.00000E+00
 -1       322 5.19600E+00 3.52750E+01 0.00000E+00
 -1       323 5.19600E+00 3.23250E+01 0.00000E+00
 -1       324 5.19600E+00 2.93750E+01 0.00000E+00
 -1       325 5.19600E+00 2.64250E+01 0.00000E+00
 -1       326 5.19600E+00 2.34750E+01 0.00000E+00
 -1       327 5.19600E+00 2.05250E+01 0.00000E+00
 -1       328 5.19600E+00 1.76250E+01 0.00000E+00
 -1       329 5.19600E+00 1.46750E+01 0.00000E+00
 -1       330 5.19600E+00 1.17250E+01 0.00000E+00
 -1       331 5.19600E+00 8.77500E+00 0.00000E+00
 -1       332 5.19600E+00 5.82500E+00 0.00000E+00
 -1       333 5.53500E+00 4.00625E+00 0.00000E+00
 -1       334 8.53500E+00 4.00625E+00 0.00000E+00
 -1       335 9.15000E+00 4.48040E+01 0.00000E+00
 -1       336 1.21500E+01 4.48040E+01 0.00000E+00
 -1       337 1.51500E+01 4.48040E+01 0.00000E+00
 -1       338 1.81500E+01 4.48040E+01 0.00000E+00
 -1       339 2.11500E+01 4.48040E+01 0.00000E+00
 -1       340 2.41500E+01 4.48040E+01 0.00000E+00
 -1       341 2.71500E+01 4.48040E+01 0.00000E+00
 -1       342 3.01500E+01 4.48040E+01 0.00000E+00
 -1       343 3.31500E+01 4.48040E+01 0.00000E+00
 -1       344 3.61500E+01 4.48040E+01 0.00000E+00
 -1       345 3.91500E+01 4.48040E+01 0.00000E+00
 -1       346 4.21500E+01 4.48040E+01 0.00000E+00
 -1       347 4.51500E+01 4.48040E+01 0.00000E+00
 -1       348 4.81500E+01 4.48040E+01 0.00000E+00
 -1       349 5.11500E+01 4.48040E+01 0.00000E+00
 -1       350 5.41500E+01 4.48040E+01 0.00000E+00
 -1       351 5.71500E+01 4.48040E+01 0.00000E+00
 -1       352 6.01500E+01 4.48040E+01 0.00000E+00
 -1       353 6.31500E+01 4.48040E+01 0.00000E+00
 -1       354 6.61500E+01 4.48040E+01 0.00000E+00
 -1       355 6.91500E+01 4.48040E+01 0.00000E+00
 -1       356 7.21500E+01 4.48040E+01 0.00000E+00
 -1       357 7.51500E+01 4.48040E+01 0.00000E+00
 -1       358 7.81500E+01 4.48040E+01 0.00000E+00
 -1       359 8.11500E+01 4.48040E+01 0.00000E+00
 -1       360 8.41500E+01 4.48040E+01 0.00000E+00
 -1       361 8.71500E+01 4.48040E+01 0.00000E+00
 -1       362 9.01500E+01 4.48040E+01 0.00000E+00
 -1       363 9.31500E+01 4.48040E+01 0.00000E+00
 -1       364 9.61500E+01 4.48040E+01 0.00000E+00
 -1       365 9.91500E+01 4.48040E+01 0.00000E+00
 -1       366 1.02150E+02 4.48040E+01 0.00000E+00
 -1       367 1.05150E+02 4.48040E+01 0.00000E+00
 -1       368 1.08150E+02 4.48040E+01 0.00000E+00
 -1       369 1.11150E+02 4.48040E+01 0.00000E+00
 -1       370 1.14150E+02 4.48040E+01 0.00000E+00
 -1       371 1.17150E+02 4.48040E+01 0.00000E+00
 -1       372 1.20150E+02 4.48040E+01 0.00000E+00
 -1       373 1.23150E+02 4.48040E+01 0.00000E+00
 -1       374 1.26150E+02 4.48040E+01 0.00000E+00
 -1       375 1.29150E+02 4.48040E+01 0.00000E+00
 -1       376 1.32150E+02 4.48040E+01 0.00000E+00
 -1       377 1.35150E+02 4.48040E+01 0.00000E+00
 -1       378 1.38150E+02 4.48040E+01 0.00000E+00
 -1       379 1.41150E+02 4.48040E+01 0.00000E+00
 -1       380 1.43838E+02 4.49212E+01 0.00000E+00
 -1       381 1.15350E+01 4.00625E+00 0.00000E+00
 -1       382 1.45350E+01 4.00625E+00 0.00000E+00
 -1       383 1.75350E+01 4.00625E+00 0.00000E+00
 -1       384 2.05350E+01 4.00625E+00 0.00000E+00
 -1       385 2.35350E+01 4.00625E+00 0.00000E+00
 -1       386 2.65350E+01 4.00625E+00 0.00000E+00
 -1       387 2.95350E+01 4.00625E+00 0.00000E+00
 -1       388 3.25350E+01 4.00625E+00 0.00000E+00
 -1       389 3.55350E+01 4.00625E+00 0.00000E+00
 -1       390 3.85350E+01 4.00625E+00 0.00000E+00
 -1       391 4.15350E+01 4.00625E+00 0.00000E+00
 -1       392 4.45350E+01 4.00625E+00 0.00000E+00
 -1       393 4.75350E+01 4.00625E+00 0.00000E+00
 -1       394 5.05350E+01 4.00625E+00 0.00000E+00
 -1       395 5.35350E+01 4.00625E+00 0.00000E+00
 -1       396 5.65350E+01 4.00625E+00 0.00000E+00
 -1       397 5.95350E+01 4.00625E+00 0.00000E+00
 -1       398 6.25350E+01 4.00625E+00 0.00000E+00
 -1       399 6.55350E+01 4.00625E+00 0.00000E+00
 -1       400 6.85350E+01 4.00625E+00 0.00000E+00
 -1       401 7.15350E+01 4.00625E+00 0.00000E+00
 -1       402 7.45350E+01 4.00625E+00 0.00000E+00
 -1       403 7.75350E+01 4.00625E+00 0.00000E+00
 -1       404 8.05350E+01 4.00625E+00 0.00000E+00
 -1       405 8.35350E+01 4.00625E+00 0.00000E+00
 -1       406 8.65350E+01 4.00625E+00 0.00000E+00
 -1       407 8.95350E+01 4.00625E+00 0.00000E+00
 -1       408 9.25350E+01 4.00625E+00 0.00000E+00
 -1       409 9.55350E+01 4.00625E+00 0.00000E+00
 -1       410 9.85350E+01 4.00625E+00 0.00000E+00
 -1       411 1.01535E+02 4.00625E+00 0.00000E+00
 -1       412 1.04535E+02 4.00625E+00 0.00000E+00
 -1       413 1.07535E+02 4.00625E+00 0.00000E+00
 -1       414 1.10535E+02 4.00625E+00 0.00000E+00
 -1       415 1.13535E+02 4.00625E+00 0.00000E+00
 -1       416 1.16535E+02 4.00625E+00 0.00000E+00
 -1       417 1.19535E+02 4.00625E+00 0.00000E+00
 -1       418 1.22535E+02 4.00625E+00 0.00000E+00
 -1       419 1.25535E+02 4.00625E+00 0.00000E+00
 -1       420 1.28535E+02 4.00625E+00 0.00000E+00
 -1       421 1.31535E+02 4.00625E+00 0.00000E+00
 -1       422 1.34535E+02 4.00625E+00 0.00000E+00
 -1       423 1.37535E+02 4.00625E+00 0.00000E+00
 -1       424 1.40535E+02 4.00625E+00 0.00000E+00
 -1       425 1.43535E+02 4.00625E+00 0.00000E+00
 -1       426 1.45469E+02 4.21562E+00 0.00000E+00
 -1       427 1.44804E+02 1.18000E+01 0.00000E+00
 -1       428 1.44804E+02 8.85000E+00 0.00000E+00
 -1       429 1.45136E+02 6.53281E+00 0.00000E+00
 -1       430 1.44804E+02 1.47000E+01 0.00000E+00
 -1       431 1.44804E+02 1.76500E+01 0.00000E+00
 -1       432 1.44804E+02 2.06000E+01 0.00000E+00
 -1       433 1.44804E+02 2.35500E+01 0.00000E+00
 -1       434 1.44804E+02 2.65000E+01 0.00000E+00
 -1       435 1.44804E+02 2.94500E+01 0.00000E+00
 -1       436 1.44804E+02 3.23500E+01 0.00000E+00
 -1       437 1.44804E+02 3.53000E+01 0.00000E+00
 -1       438 1.44804E+02 3.82500E+01 0.00000E+00
 -1       439 1.44804E+02 4.12000E+01 0.00000E+00
 -1       440 1.02130E+02 2.46326E+01 0.00000E+00
 -1       441 1.02772E+02 2.86261E+01 0.00000E+00
 -1       442 1.02577E+02 2.66904E+01 0.00000E+00
 -1       443 1.01261E+02 2.28296E+01 0.00000E+00
 -1       444 9.94609E+01 2.11003E+01 0.00000E+00
 -1       445 5.19600E+00 3.82125E+01 0.00000E+00
 -1       446 9.56622E+01 1.91654E+01 0.00000E+00
 -1       447 9.38996E+01 1.89078E+01 0.00000E+00
 -1       448 9.15745E+01 1.92892E+01 0.00000E+00
 -1       449 8.96130E+01 1.95788E+01 0.00000E+00
 -1       450 8.79586E+01 2.06381E+01 0.00000E+00
 -1       451 8.62209E+01 2.21013E+01 0.00000E+00
 -1       452 8.52211E+01 2.36627E+01 0.00000E+00
 -1       453 8.42010E+01 2.52900E+01 0.00000E+00
 -1       454 8.35083E+01 2.71635E+01 0.00000E+00
 -1       455 8.32959E+01 2.93588E+01 0.00000E+00
 -1       456 8.40611E+01 3.16528E+01 0.00000E+00
 -1       457 8.47568E+01 3.32427E+01 0.00000E+00
 -1       458 8.57404E+01 3.50103E+01 0.00000E+00
 -1       459 8.76345E+01 3.64621E+01 0.00000E+00
 -1       460 8.92099E+01 3.74396E+01 0.00000E+00
 -1       461 9.15139E+01 3.82199E+01 0.00000E+00
 -1       462 9.32816E+01 3.82767E+01 0.00000E+00
 -1       463 9.54993E+01 3.79943E+01 0.00000E+00
 -1       464 9.73788E+01 3.71859E+01 0.00000E+00
 -1       465 9.92012E+01 3.61381E+01 0.00000E+00
 -1       466 1.00573E+02 3.46563E+01 0.00000E+00
 -1       467 1.01976E+02 3.27398E+01 0.00000E+00
 -1       468 1.02463E+02 3.09746E+01 0.00000E+00
 -1       469 9.79815E+01 2.00376E+01 0.00000E+00
 -1       470 1.02272E+02 3.43073E+01 0.00000E+00
 -1       471 9.00963E+01 3.89233E+01 0.00000E+00
 -1       472 8.59172E+01 3.65830E+01 0.00000E+00
 -1       473 1.00350E+01 6.60425E+00 0.00000E+00
 -1       474 7.79400E+00 3.08500E+01 0.00000E+00
 -1       475 7.79400E+00 3.38000E+01 0.00000E+00
 -1       476 7.79400E+00 2.49500E+01 0.00000E+00
 -1       477 7.79400E+00 2.20000E+01 0.00000E+00
 -1       478 7.79400E+00 1.91000E+01 0.00000E+00
 -1       479 7.79400E+00 1.61500E+01 0.00000E+00
 -1       480 7.79400E+00 1.32000E+01 0.00000E+00
 -1       481 7.79400E+00 1.02500E+01 0.00000E+00
 -1       482 1.01549E+02 2.07280E+01 0.00000E+00
 -1       483 1.30350E+01 6.60425E+00 0.00000E+00
 -1       484 1.06500E+01 4.22060E+01 0.00000E+00
 -1       485 9.73076E+01 1.83099E+01 0.00000E+00
 -1       486 1.36500E+01 4.22060E+01 0.00000E+00
 -1       487 1.66500E+01 4.22060E+01 0.00000E+00
 -1       488 1.96500E+01 4.22060E+01 0.00000E+00
 -1       489 2.26500E+01 4.22060E+01 0.00000E+00
 -1       490 2.56500E+01 4.22060E+01 0.00000E+00
 -1       491 2.86500E+01 4.22060E+01 0.00000E+00
 -1       492 3.16500E+01 4.22060E+01 0.00000E+00
 -1       493 3.46500E+01 4.22060E+01 0.00000E+00
 -1       494 3.76500E+01 4.22060E+01 0.00000E+00
 -1       495 4.06500E+01 4.22060E+01 0.00000E+00
 -1       496 4.36500E+01 4.22060E+01 0.00000E+00
 -1       497 4.66500E+01 4.22060E+01 0.00000E+00
 -1       498 4.96500E+01 4.22060E+01 0.00000E+00
 -1       499 5.26500E+01 4.22060E+01 0.00000E+00
 -1       500 5.56500E+01 4.22060E+01 0.00000E+00
 -1       501 5.86500E+01 4.22060E+01 0.00000E+00
 -1       502 6.16500E+01 4.22060E+01 0.00000E+00
 -1       503 6.46500E+01 4.22060E+01 0.00000E+00
 -1       504 6.76500E+01 4.22060E+01 0.00000E+00
 -1       505 7.06500E+01 4.22060E+01 0.00000E+00
 -1       506 7.36500E+01 4.22060E+01 0.00000E+00
 -1       507 7.66500E+01 4.22060E+01 0.00000E+00
 -1       508 7.96500E+01 4.22060E+01 0.00000E+00
 -1       509 8.26500E+01 4.22060E+01 0.00000E+00
 -1       510 8.56500E+01 4.22060E+01 0.00000E+00
 -1       511 8.86500E+01 4.22060E+01 0.00000E+00
 -1       512 9.16500E+01 4.22060E+01 0.00000E+00
 -1       513 9.46500E+01 4.22060E+01 0.00000E+00
 -1       514 9.76500E+01 4.22060E+01 0.00000E+00
 -1       515 1.00650E+02 4.22060E+01 0.00000E+00
 -1       516 1.03650E+02 4.22060E+01 0.00000E+00
 -1       517 1.06650E+02 4.22060E+01 0.00000E+00
 -1       518 1.09650E+02 4.22060E+01 0.00000E+00
 -1       519 1.12650E+02 4.22060E+01 0.00000E+00
 -1       520 1.15650E+02 4.22060E+01 0.00000E+00
 -1       521 1.18650E+02 4.22060E+01 0.00000E+00
 -1       522 1.21650E+02 4.22060E+01 0.00000E+00
 -1       523 1.24650E+02 4.22060E+01 0.00000E+00
 -1       524 1.27650E+02 4.22060E+01 0.00000E+00
 -1       525 1.30650E+02 4.22060E+01 0.00000E+00
 -1       526 1.33650E+02 4.22060E+01 0.00000E+00
 -1       527 1.36650E+02 4.22060E+01 0.00000E+00
 -1       528 1.39650E+02 4.22060E+01 0.00000E+00
 -1       529 1.90350E+01 6.60425E+00 0.00000E+00
 -1       530 2.20350E+01 6.60425E+00 0.00000E+00
 -1       531 2.50350E+01 6.60425E+00 0.00000E+00
 -1       532 2.80350E+01 6.60425E+00 0.00000E+00
 -1       533 3.10350E+01 6.60425E+00 0.00000E+00
 -1       534 3.40350E+01 6.60425E+00 0.00000E+00
 -1       535 3.70350E+01 6.60425E+00 0.00000E+00
 -1       536 4.00350E+01 6.60425E+00 0.00000E+00
 -1       537 4.30350E+01 6.60425E+00 0.00000E+00
 -1       538 4.60350E+01 6.60425E+00 0.00000E+00
 -1       539 4.90350E+01 6.60425E+00 0.00000E+00
 -1       540 5.20350E+01 6.60425E+00 0.00000E+00
 -1       541 5.50350E+01 6.60425E+00 0.00000E+00
 -1       542 5.80350E+01 6.60425E+00 0.00000E+00
 -1       543 6.10350E+01 6.60425E+00 0.00000E+00
 -1       544 6.40350E+01 6.60425E+00 0.00000E+00
 -1       545 6.70350E+01 6.60425E+00 0.00000E+00
 -1       546 7.00350E+01 6.60425E+00 0.00000E+00
 -1       547 7.30350E+01 6.60425E+00 0.00000E+00
 -1       548 7.60350E+01 6.60425E+00 0.00000E+00
 -1       549 7.90350E+01 6.60425E+00 0.00000E+00
 -1       550 8.20350E+01 6.60425E+00 0.00000E+00
 -1       551 8.50350E+01 6.60425E+00 0.00000E+00
 -1       552 8.80350E+01 6.60425E+00 0.00000E+00
 -1       553 9.10350E+01 6.60425E+00 0.00000E+00
 -1       554 9.40350E+01 6.60425E+00 0.00000E+00
 -1       555 9.70350E+01 6.60425E+00 0.00000E+00
 -1       556 1.00035E+02 6.60425E+00 0.00000E+00
 -1       557 1.03035E+02 6.60425E+00 0.00000E+00
 -1       558 1.06035E+02 6.60425E+00 0.00000E+00
 -1       559 1.09035E+02 6.60425E+00 0.00000E+00
 -1       560 1.12035E+02 6.60425E+00 0.00000E+00
 -1       561 1.15035E+02 6.60425E+00 0.00000E+00
 -1       562 1.18035E+02 6.60425E+00 0.00000E+00
 -1       563 1.21035E+02 6.60425E+00 0.00000E+00
 -1       564 1.24035E+02 6.60425E+00 0.00000E+00
 -1       565 1.27035E+02 6.60425E+00 0.00000E+00
 -1       566 1.30035E+02 6.60425E+00 0.00000E+00
 -1       567 1.33035E+02 6.60425E+00 0.00000E+00
 -1       568 1.36035E+02 6.60425E+00 0.00000E+00
 -1       569 1.39035E+02 6.60425E+00 0.00000E+00
 -1       570 1.42035E+02 6.60425E+00 0.00000E+00
 -1       571 1.42206E+02 1.61750E+01 0.00000E+00
 -1       572 1.42206E+02 1.91250E+01 0.00000E+00
 -1       573 1.42206E+02 1.03250E+01 0.00000E+00
 -1       574 1.42206E+02 1.32500E+01 0.00000E+00
 -1       575 1.42206E+02 2.20750E+01 0.00000E+00
 -1       576 1.42206E+02 2.50250E+01 0.00000E+00
 -1       577 1.42206E+02 2.79750E+01 0.00000E+00
 -1       578 1.42206E+02 3.08750E+01 0.00000E+00
 -1       579 1.42206E+02 3.38250E+01 0.00000E+00
 -1       580 1.42206E+02 3.67750E+01 0.00000E+00
 -1       581 1.42206E+02 3.97250E+01 0.00000E+00
 -1       582 1.04048E+02 2.75202E+01 0.00000E+00
 -1       583 1.03165E+02 2.30231E+01 0.00000E+00
 -1       584 1.60350E+01 6.60425E+00 0.00000E+00
 -1       585 1.04235E+02 3.00130E+01 0.00000E+00
 -1       586 1.03866E+02 2.53328E+01 0.00000E+00
 -1       587 9.95751E+01 1.93801E+01 0.00000E+00
 -1       588 8.38231E+01 3.49198E+01 0.00000E+00
 -1       589 8.22104E+01 3.09954E+01 0.00000E+00
 -1       590 7.79400E+00 2.79000E+01 0.00000E+00
 -1       591 9.03799E+01 1.79860E+01 0.00000E+00
 -1       592 9.49926E+01 1.75882E+01 0.00000E+00
 -1       593 9.24594E+01 1.74060E+01 0.00000E+00
 -1       594 8.79061E+01 1.87347E+01 0.00000E+00
 -1       595 8.60930E+01 2.01860E+01 0.00000E+00
 -1       596 8.44178E+01 2.20475E+01 0.00000E+00
 -1       597 8.33977E+01 2.36747E+01 0.00000E+00
 -1       598 8.22460E+01 2.56320E+01 0.00000E+00
 -1       599 8.20285E+01 2.81282E+01 0.00000E+00
 -1       600 8.30679E+01 3.30345E+01 0.00000E+00
 -1       601 9.70174E+01 3.89347E+01 0.00000E+00
 -1       602 8.75621E+01 3.83370E+01 0.00000E+00
 -1       603 9.23507E+01 3.97113E+01 0.00000E+00
 -1       604 9.46283E+01 4.00031E+01 0.00000E+00
 -1       605 9.90613E+01 3.80036E+01 0.00000E+00
 -1       606 1.01084E+02 3.65052E+01 0.00000E+00
 -1       607 1.03631E+02 3.22465E+01 0.00000E+00
 -1       608 7.92300E+00 4.16780E+01 0.00000E+00
 -1       609 7.61550E+00 6.21462E+00 0.00000E+00
 -1       610 7.79400E+00 3.67375E+01 0.00000E+00
 -1       611 8.84484E+01 3.98207E+01 0.00000E+00
 -1       612 8.09431E+01 2.97649E+01 0.00000E+00
 -1       613 1.03927E+02 3.38140E+01 0.00000E+00
 -1       614 8.39999E+01 3.64924E+01 0.00000E+00
 -1       615 1.41678E+02 4.22645E+01 0.00000E+00
 -1       616 1.03920E+01 2.05500E+01 0.00000E+00
 -1       617 1.03920E+01 2.35000E+01 0.00000E+00
 -1       618 1.03920E+01 1.46750E+01 0.00000E+00
 -1       619 1.03920E+01 1.17250E+01 0.00000E+00
 -1       620 1.03152E+02 3.62031E+01 0.00000E+00
 -1       621 1.15350E+01 9.20225E+00 0.00000E+00
 -1       622 1.51500E+01 3.96080E+01 0.00000E+00
 -1       623 1.81500E+01 3.96080E+01 0.00000E+00
 -1       624 2.11500E+01 3.96080E+01 0.00000E+00
 -1       625 2.41500E+01 3.96080E+01 0.00000E+00
 -1       626 2.71500E+01 3.96080E+01 0.00000E+00
 -1       627 3.01500E+01 3.96080E+01 0.00000E+00
 -1       628 3.31500E+01 3.96080E+01 0.00000E+00
 -1       629 3.61500E+01 3.96080E+01 0.00000E+00
 -1       630 3.91500E+01 3.96080E+01 0.00000E+00
 -1       631 4.21500E+01 3.96080E+01 0.00000E+00
 -1       632 4.51500E+01 3.96080E+01 0.00000E+00
 -1       633 4.81500E+01 3.96080E+01 0.00000E+00
 -1       634 5.11500E+01 3.96080E+01 0.00000E+00
 -1       635 5.41500E+01 3.96080E+01 0.00000E+00
 -1       636 5.71500E+01 3.96080E+01 0.00000E+00
 -1       637 6.01500E+01 3.96080E+01 0.00000E+00
 -1       638 6.31500E+01 3.96080E+01 0.00000E+00
 -1       639 6.61500E+01 3.96080E+01 0.00000E+00
 -1       640 6.91500E+01 3.96080E+01 0.00000E+00
 -1       641 7.21500E+01 3.96080E+01 0.00000E+00
 -1       642 7.51500E+01 3.96080E+01 0.00000E+00
 -1       643 7.81500E+01 3.96080E+01 0.00000E+00
 -1       644 8.11500E+01 3.96080E+01 0.00000E+00
 -1       645 8.41500E+01 3.96080E+01 0.00000E+00
 -1       646 9.91500E+01 3.98206E+01 0.00000E+00
 -1       647 1.02150E+02 3.98206E+01 0.00000E+00
 -1       648 1.05150E+02 3.98206E+01 0.00000E+00
 -1       649 1.08150E+02 3.98206E+01 0.00000E+00
 -1       650 1.11150E+02 3.98206E+01 0.00000E+00
 -1       651 1.14150E+02 3.98206E+01 0.00000E+00
 -1       652 1.17150E+02 3.98206E+01 0.00000E+00
 -1       653 1.20150E+02 3.98206E+01 0.00000E+00
 -1       654 1.23150E+02 3.98206E+01 0.00000E+00
 -1       655 1.26150E+02 3.98206E+01 0.00000E+00
 -1       656 1.29150E+02 3.98206E+01 0.00000E+00
 -1       657 1.32150E+02 3.98206E+01 0.00000E+00
 -1       658 1.35150E+02 3.98206E+01 0.00000E+00
 -1       659 1.38150E+02 3.98206E+01 0.00000E+00
 -1       660 2.35350E+01 9.20225E+00 0.00000E+00
 -1       661 1.39206E+02 1.03250E+01 0.00000E+00
 -1       662 2.05350E+01 9.20225E+00 0.00000E+00
 -1       663 2.95350E+01 9.20225E+00 0.00000E+00
 -1       664 3.25350E+01 9.20225E+00 0.00000E+00
 -1       665 3.55350E+01 9.20225E+00 0.00000E+00
 -1       666 3.85350E+01 9.20225E+00 0.00000E+00
 -1       667 4.15350E+01 9.20225E+00 0.00000E+00
 -1       668 4.45350E+01 9.20225E+00 0.00000E+00
 -1       669 4.75350E+01 9.20225E+00 0.00000E+00
 -1       670 5.05350E+01 9.20225E+00 0.00000E+00
 -1       671 5.35350E+01 9.20225E+00 0.00000E+00
 -1       672 5.65350E+01 9.20225E+00 0.00000E+00
 -1       673 5.95350E+01 9.20225E+00 0.00000E+00
 -1       674 6.25350E+01 9.20225E+00 0.00000E+00
 -1       675 6.55350E+01 9.20225E+00 0.00000E+00
 -1       676 6.85350E+01 9.20225E+00 0.00000E+00
 -1       677 7.15350E+01 9.20225E+00 0.00000E+00
 -1       678 7.45350E+01 9.20225E+00 0.00000E+00
 -1       679 7.75350E+01 9.20225E+00 0.00000E+00
 -1       680 8.05350E+01 9.20225E+00 0.00000E+00
 -1       681 8.35350E+01 9.20225E+00 0.00000E+00
 -1       682 8.65350E+01 9.20225E+00 0.00000E+00
 -1       683 8.95350E+01 9.20225E+00 0.00000E+00
 -1       684 9.25350E+01 9.20225E+00 0.00000E+00
 -1       685 9.55350E+01 9.20225E+00 0.00000E+00
 -1       686 9.85350E+01 9.20225E+00 0.00000E+00
 -1       687 1.01535E+02 9.20225E+00 0.00000E+00
 -1       688 1.04535E+02 9.20225E+00 0.00000E+00
 -1       689 1.07535E+02 9.20225E+00 0.00000E+00
 -1       690 1.10535E+02 9.20225E+00 0.00000E+00
 -1       691 1.13535E+02 9.20225E+00 0.00000E+00
 -1       692 1.16535E+02 9.20225E+00 0.00000E+00
 -1       693 1.19535E+02 9.20225E+00 0.00000E+00
 -1       694 1.22535E+02 9.20225E+00 0.00000E+00
 -1       695 1.25535E+02 9.20225E+00 0.00000E+00
 -1       696 1.28535E+02 9.20225E+00 0.00000E+00
 -1       697 1.31535E+02 9.20225E+00 0.00000E+00
 -1       698 1.34535E+02 9.20225E+00 0.00000E+00
 -1       699 1.36870E+02 9.76363E+00 0.00000E+00
 -1       700 1.39608E+02 2.35500E+01 0.00000E+00
 -1       701 1.40178E+02 3.97728E+01 0.00000E+00
 -1       702 1.39608E+02 1.76500E+01 0.00000E+00
 -1       703 1.39608E+02 2.65000E+01 0.00000E+00
 -1       704 1.39608E+02 2.06000E+01 0.00000E+00
 -1       705 1.01529E+02 1.86376E+01 0.00000E+00
 -1       706 1.05852E+02 2.86381E+01 0.00000E+00
 -1       707 1.39608E+02 2.94000E+01 0.00000E+00
 -1       708 1.39608E+02 3.23500E+01 0.00000E+00
 -1       709 1.39608E+02 3.53000E+01 0.00000E+00
 -1       710 1.39893E+02 3.75364E+01 0.00000E+00
 -1       711 8.37314E+01 1.97452E+01 0.00000E+00
 -1       712 1.05833E+02 2.62706E+01 0.00000E+00
 -1       713 1.05478E+02 2.35828E+01 0.00000E+00
 -1       714 8.11992E+01 2.36986E+01 0.00000E+00
 -1       715 1.01094E+02 3.86326E+01 0.00000E+00
 -1       716 1.05750E+02 3.16214E+01 0.00000E+00
 -1       717 8.18534E+01 3.46149E+01 0.00000E+00
 -1       718 1.75350E+01 9.20225E+00 0.00000E+00
 -1       719 2.65350E+01 9.20225E+00 0.00000E+00
 -1       720 1.21500E+01 3.96080E+01 0.00000E+00
 -1       721 1.03920E+01 1.76125E+01 0.00000E+00
 -1       722 1.03897E+02 2.07915E+01 0.00000E+00
 -1       723 1.03920E+01 3.23250E+01 0.00000E+00
 -1       724 9.38611E+01 1.56193E+01 0.00000E+00
 -1       725 8.54886E+01 3.86332E+01 0.00000E+00
 -1       726 9.67104E+01 1.61517E+01 0.00000E+00
 -1       727 1.45350E+01 9.20225E+00 0.00000E+00
 -1       728 8.57183E+01 1.78597E+01 0.00000E+00
 -1       729 8.22193E+01 2.20713E+01 0.00000E+00
 -1       730 8.09959E+01 3.25758E+01 0.00000E+00
 -1       731 8.04286E+01 2.67313E+01 0.00000E+00
 -1       732 8.85491E+01 1.63980E+01 0.00000E+00
 -1       733 9.10039E+01 1.62053E+01 0.00000E+00
 -1       734 9.91735E+01 1.72940E+01 0.00000E+00
 -1       735 1.03920E+01 3.52625E+01 0.00000E+00
 -1       736 1.03920E+01 2.64500E+01 0.00000E+00
 -1       737 1.05210E+01 3.87342E+01 0.00000E+00
 -1       738 7.97286E+01 3.13453E+01 0.00000E+00
 -1       739 9.61500E+01 4.03233E+01 0.00000E+00
 -1       740 1.39608E+02 1.47250E+01 0.00000E+00
 -1       741 1.03877E+02 1.87012E+01 0.00000E+00
 -1       742 1.06046E+02 3.31889E+01 0.00000E+00
 -1       743 8.20302E+01 3.61876E+01 0.00000E+00
 -1       744 7.93432E+01 2.83679E+01 0.00000E+00
 -1       745 7.93819E+01 2.47978E+01 0.00000E+00
 -1       746 1.03920E+01 2.93875E+01 0.00000E+00
 -1       747 1.29900E+01 1.32000E+01 0.00000E+00
 -1       748 1.96500E+01 3.70100E+01 0.00000E+00
 -1       749 2.26500E+01 3.70100E+01 0.00000E+00
 -1       750 2.56500E+01 3.70100E+01 0.00000E+00
 -1       751 2.86500E+01 3.70100E+01 0.00000E+00
 -1       752 3.16500E+01 3.70100E+01 0.00000E+00
 -1       753 3.46500E+01 3.70100E+01 0.00000E+00
 -1       754 3.76500E+01 3.70100E+01 0.00000E+00
 -1       755 4.06500E+01 3.70100E+01 0.00000E+00
 -1       756 4.36500E+01 3.70100E+01 0.00000E+00
 -1       757 4.66500E+01 3.70100E+01 0.00000E+00
 -1       758 4.96500E+01 3.70100E+01 0.00000E+00
 -1       759 5.26500E+01 3.70100E+01 0.00000E+00
 -1       760 5.56500E+01 3.70100E+01 0.00000E+00
 -1       761 5.86500E+01 3.70100E+01 0.00000E+00
 -1       762 6.16500E+01 3.70100E+01 0.00000E+00
 -1       763 6.46500E+01 3.70100E+01 0.00000E+00
 -1       764 6.76500E+01 3.70100E+01 0.00000E+00
 -1       765 7.06500E+01 3.70100E+01 0.00000E+00
 -1       766 7.36500E+01 3.70100E+01 0.00000E+00
 -1       767 7.66500E+01 3.70100E+01 0.00000E+00
 -1       768 1.06650E+02 3.72226E+01 0.00000E+00
 -1       769 1.09650E+02 3.72226E+01 0.00000E+00
 -1       770 1.12650E+02 3.72226E+01 0.00000E+00
 -1       771 1.15650E+02 3.72226E+01 0.00000E+00
 -1       772 1.18650E+02 3.72226E+01 0.00000E+00
 -1       773 1.21650E+02 3.72226E+01 0.00000E+00
 -1       774 1.24650E+02 3.72226E+01 0.00000E+00
 -1       775 1.27650E+02 3.72226E+01 0.00000E+00
 -1       776 1.30650E+02 3.72226E+01 0.00000E+00
 -1       777 1.33650E+02 3.72226E+01 0.00000E+00
 -1       778 1.36650E+02 3.72226E+01 0.00000E+00
 -1       779 2.20350E+01 1.18003E+01 0.00000E+00
 -1       780 3.40350E+01 1.18003E+01 0.00000E+00
 -1       781 3.10350E+01 1.18003E+01 0.00000E+00
 -1       782 4.00350E+01 1.18003E+01 0.00000E+00
 -1       783 4.30350E+01 1.18003E+01 0.00000E+00
 -1       784 4.60350E+01 1.18003E+01 0.00000E+00
 -1       785 4.90350E+01 1.18003E+01 0.00000E+00
 -1       786 5.20350E+01 1.18003E+01 0.00000E+00
 -1       787 5.50350E+01 1.18003E+01 0.00000E+00
 -1       788 5.80350E+01 1.18003E+01 0.00000E+00
 -1       789 6.10350E+01 1.18003E+01 0.00000E+00
 -1       790 6.40350E+01 1.18003E+01 0.00000E+00
 -1       791 6.70350E+01 1.18003E+01 0.00000E+00
 -1       792 7.00350E+01 1.18003E+01 0.00000E+00
 -1       793 7.30350E+01 1.18003E+01 0.00000E+00
 -1       794 7.60350E+01 1.18003E+01 0.00000E+00
 -1       795 7.90350E+01 1.18003E+01 0.00000E+00
 -1       796 8.20350E+01 1.18003E+01 0.00000E+00
 -1       797 8.50350E+01 1.18003E+01 0.00000E+00
 -1       798 8.80350E+01 1.18003E+01 0.00000E+00
 -1       799 9.10350E+01 1.18003E+01 0.00000E+00
 -1       800 9.40350E+01 1.18003E+01 0.00000E+00
 -1       801 9.70350E+01 1.18003E+01 0.00000E+00
 -1       802 1.00035E+02 1.18003E+01 0.00000E+00
 -1       803 1.03035E+02 1.18003E+01 0.00000E+00
 -1       804 1.06035E+02 1.18003E+01 0.00000E+00
 -1       805 1.09035E+02 1.18003E+01 0.00000E+00
 -1       806 1.12035E+02 1.18003E+01 0.00000E+00
 -1       807 1.15035E+02 1.18003E+01 0.00000E+00
 -1       808 1.18035E+02 1.18003E+01 0.00000E+00
 -1       809 1.21035E+02 1.18003E+01 0.00000E+00
 -1       810 1.24035E+02 1.18003E+01 0.00000E+00
 -1       811 1.27035E+02 1.18003E+01 0.00000E+00
 -1       812 1.30035E+02 1.18003E+01 0.00000E+00
 -1       813 1.33035E+02 1.18003E+01 0.00000E+00
 -1       814 1.29900E+01 2.20250E+01 0.00000E+00
 -1       815 1.37010E+02 3.08750E+01 0.00000E+00
 -1       816 1.37010E+02 2.50250E+01 0.00000E+00
 -1       817 1.37010E+02 2.79500E+01 0.00000E+00
 -1       818 1.07850E+02 3.01994E+01 0.00000E+00
 -1       819 1.37625E+01 1.12011E+01 0.00000E+00
 -1       820 1.90350E+01 1.18003E+01 0.00000E+00
 -1       821 8.11159E+01 1.96995E+01 0.00000E+00
 -1       822 1.05171E+02 3.55374E+01 0.00000E+00
 -1       823 9.56931E+01 1.37054E+01 0.00000E+00
 -1       824 1.27710E+01 3.74352E+01 0.00000E+00
 -1       825 1.37010E+02 3.38250E+01 0.00000E+00
 -1       826 9.20206E+01 1.39039E+01 0.00000E+00
 -1       827 3.70350E+01 1.18003E+01 0.00000E+00
 -1       828 9.87340E+01 1.50149E+01 0.00000E+00
 -1       829 1.07893E+02 2.74382E+01 0.00000E+00
 -1       830 8.00958E+01 2.13267E+01 0.00000E+00
 -1       831 1.07854E+02 2.46360E+01 0.00000E+00
 -1       832 7.98437E+01 3.42602E+01 0.00000E+00
 -1       833 1.66500E+01 3.70100E+01 0.00000E+00
 -1       834 9.06852E+01 4.08573E+01 0.00000E+00
 -1       835 8.61161E+01 1.51582E+01 0.00000E+00
 -1       836 1.01284E+02 1.63304E+01 0.00000E+00
 -1       837 8.31982E+01 1.71937E+01 0.00000E+00
 -1       838 1.06763E+02 2.10115E+01 0.00000E+00
 -1       839 1.29900E+01 2.49750E+01 0.00000E+00
 -1       840 1.06743E+02 1.89212E+01 0.00000E+00
 -1       841 7.85763E+01 3.30297E+01 0.00000E+00
 -1       842 1.37010E+02 1.61875E+01 0.00000E+00
 -1       843 7.96500E+01 3.72226E+01 0.00000E+00
 -1       844 1.03650E+02 3.72676E+01 0.00000E+00
 -1       845 2.50350E+01 1.18003E+01 0.00000E+00
 -1       846 1.03632E+02 1.63940E+01 0.00000E+00
 -1       847 2.80350E+01 1.18003E+01 0.00000E+00
 -1       848 1.35370E+02 1.23616E+01 0.00000E+00
 -1       849 1.37010E+02 1.91375E+01 0.00000E+00
 -1       850 1.29900E+01 1.90875E+01 0.00000E+00
 -1       851 1.37010E+02 2.20812E+01 0.00000E+00
 -1       852 1.29900E+01 3.37938E+01 0.00000E+00
 -1       853 1.08146E+02 3.17669E+01 0.00000E+00
 -1       854 1.63988E+01 1.15007E+01 0.00000E+00
 -1       855 7.81287E+01 2.99483E+01 0.00000E+00
 -1       856 7.82964E+01 2.64345E+01 0.00000E+00
 -1       857 1.29900E+01 3.08563E+01 0.00000E+00
 -1       858 7.82784E+01 2.24260E+01 0.00000E+00
 -1       859 1.29900E+01 1.61437E+01 0.00000E+00
 -1       860 8.96292E+01 1.44247E+01 0.00000E+00
 -1       861 1.36940E+02 1.29756E+01 0.00000E+00
 -1       862 1.34412E+02 3.23500E+01 0.00000E+00
 -1       863 1.10259E+02 2.60044E+01 0.00000E+00
 -1       864 2.41500E+01 3.44120E+01 0.00000E+00
 -1       865 2.71500E+01 3.44120E+01 0.00000E+00
 -1       866 3.01500E+01 3.44120E+01 0.00000E+00
 -1       867 3.31500E+01 3.44120E+01 0.00000E+00
 -1       868 3.61500E+01 3.44120E+01 0.00000E+00
 -1       869 3.91500E+01 3.44120E+01 0.00000E+00
 -1       870 4.21500E+01 3.44120E+01 0.00000E+00
 -1       871 4.51500E+01 3.44120E+01 0.00000E+00
 -1       872 4.81500E+01 3.44120E+01 0.00000E+00
 -1       873 5.11500E+01 3.44120E+01 0.00000E+00
 -1       874 5.41500E+01 3.44120E+01 0.00000E+00
 -1       875 5.71500E+01 3.44120E+01 0.00000E+00
 -1       876 6.01500E+01 3.44120E+01 0.00000E+00
 -1       877 6.31500E+01 3.44120E+01 0.00000E+00
 -1       878 6.61500E+01 3.44120E+01 0.00000E+00
 -1       879 6.91500E+01 3.44120E+01 0.00000E+00
 -1       880 7.21500E+01 3.44120E+01 0.00000E+00
 -1       881 7.51500E+01 3.44120E+01 0.00000E+00
 -1       882 8.01589E+01 1.67861E+01 0.00000E+00
 -1       883 1.11150E+02 3.46696E+01 0.00000E+00
 -1       884 1.14150E+02 3.46696E+01 0.00000E+00
 -1       885 1.17150E+02 3.46696E+01 0.00000E+00
 -1       886 1.20150E+02 3.46696E+01 0.00000E+00
 -1       887 1.23150E+02 3.46696E+01 0.00000E+00
 -1       888 1.26150E+02 3.46696E+01 0.00000E+00
 -1       889 1.29150E+02 3.46696E+01 0.00000E+00
 -1       890 1.32150E+02 3.46696E+01 0.00000E+00
 -1       891 4.45350E+01 1.43982E+01 0.00000E+00
 -1       892 4.15350E+01 1.43982E+01 0.00000E+00
 -1       893 5.05350E+01 1.43982E+01 0.00000E+00
 -1       894 5.35350E+01 1.43982E+01 0.00000E+00
 -1       895 5.65350E+01 1.43982E+01 0.00000E+00
 -1       896 5.95350E+01 1.43982E+01 0.00000E+00
 -1       897 6.25350E+01 1.43982E+01 0.00000E+00
 -1       898 6.55350E+01 1.43982E+01 0.00000E+00
 -1       899 6.85350E+01 1.43982E+01 0.00000E+00
 -1       900 7.15350E+01 1.43982E+01 0.00000E+00
 -1       901 7.45350E+01 1.43982E+01 0.00000E+00
 -1       902 7.75350E+01 1.43982E+01 0.00000E+00
 -1       903 1.01535E+02 1.41856E+01 0.00000E+00
 -1       904 1.10535E+02 1.43982E+01 0.00000E+00
 -1       905 1.13535E+02 1.43982E+01 0.00000E+00
 -1       906 1.16535E+02 1.43982E+01 0.00000E+00
 -1       907 1.19535E+02 1.43982E+01 0.00000E+00
 -1       908 1.22535E+02 1.43982E+01 0.00000E+00
 -1       909 1.25535E+02 1.43982E+01 0.00000E+00
 -1       910 1.28535E+02 1.43982E+01 0.00000E+00
 -1       911 1.31535E+02 1.43982E+01 0.00000E+00
 -1       912 1.09272E+02 2.22326E+01 0.00000E+00
 -1       913 1.44274E+01 3.46401E+01 0.00000E+00
 -1       914 1.10216E+02 2.87655E+01 0.00000E+00
 -1       915 4.75350E+01 1.43982E+01 0.00000E+00
 -1       916 3.25350E+01 1.43982E+01 0.00000E+00
 -1       917 1.07530E+02 3.50791E+01 0.00000E+00
 -1       918 1.29900E+01 2.79188E+01 0.00000E+00
 -1       919 7.74968E+01 3.43361E+01 0.00000E+00
 -1       920 2.11500E+01 3.44120E+01 0.00000E+00
 -1       921 7.91388E+01 1.84134E+01 0.00000E+00
 -1       922 1.81500E+01 3.44120E+01 0.00000E+00
 -1       923 2.05350E+01 1.43982E+01 0.00000E+00
 -1       924 1.06498E+02 1.66140E+01 0.00000E+00
 -1       925 1.55880E+01 2.05562E+01 0.00000E+00
 -1       926 1.55880E+01 2.35063E+01 0.00000E+00
 -1       927 3.85350E+01 1.43982E+01 0.00000E+00
 -1       928 3.55350E+01 1.43982E+01 0.00000E+00
 -1       929 2.95350E+01 1.43982E+01 0.00000E+00
 -1       930 1.33870E+02 1.49596E+01 0.00000E+00
 -1       931 1.09252E+02 2.01423E+01 0.00000E+00
 -1       932 1.34412E+02 2.94250E+01 0.00000E+00
 -1       933 1.34412E+02 1.76625E+01 0.00000E+00
 -1       934 1.34412E+02 2.35531E+01 0.00000E+00
 -1       935 1.10512E+02 3.03330E+01 0.00000E+00
 -1       936 1.34412E+02 2.64891E+01 0.00000E+00
 -1       937 2.35350E+01 1.43982E+01 0.00000E+00
 -1       938 1.78988E+01 1.40987E+01 0.00000E+00
 -1       939 1.46944E+01 1.38222E+01 0.00000E+00
 -1       940 7.69764E+01 3.16327E+01 0.00000E+00
 -1       941 7.70819E+01 2.80149E+01 0.00000E+00
 -1       942 7.71930E+01 2.40627E+01 0.00000E+00
 -1       943 7.73215E+01 1.95127E+01 0.00000E+00
 -1       944 1.44274E+01 3.17026E+01 0.00000E+00
 -1       945 1.55880E+01 1.76125E+01 0.00000E+00
 -1       946 2.26500E+01 3.18140E+01 0.00000E+00
 -1       947 2.86500E+01 3.18140E+01 0.00000E+00
 -1       948 3.16500E+01 3.18140E+01 0.00000E+00
 -1       949 3.46500E+01 3.18140E+01 0.00000E+00
 -1       950 3.76500E+01 3.18140E+01 0.00000E+00
 -1       951 4.06500E+01 3.18140E+01 0.00000E+00
 -1       952 4.36500E+01 3.18140E+01 0.00000E+00
 -1       953 4.66500E+01 3.18140E+01 0.00000E+00
 -1       954 4.96500E+01 3.18140E+01 0.00000E+00
 -1       955 5.26500E+01 3.18140E+01 0.00000E+00
 -1       956 5.56500E+01 3.18140E+01 0.00000E+00
 -1       957 5.86500E+01 3.18140E+01 0.00000E+00
 -1       958 6.16500E+01 3.18140E+01 0.00000E+00
 -1       959 6.46500E+01 3.18140E+01 0.00000E+00
 -1       960 6.76500E+01 3.18140E+01 0.00000E+00
 -1       961 7.06500E+01 3.18140E+01 0.00000E+00
 -1       962 7.36500E+01 3.18140E+01 0.00000E+00
 -1       963 1.96500E+01 3.18140E+01 0.00000E+00
 -1       964 1.15650E+02 3.20716E+01 0.00000E+00
 -1       965 1.18650E+02 3.20716E+01 0.00000E+00
 -1       966 1.21650E+02 3.20716E+01 0.00000E+00
 -1       967 1.24650E+02 3.20716E+01 0.00000E+00
 -1       968 1.27650E+02 3.20716E+01 0.00000E+00
 -1       969 1.30650E+02 3.20716E+01 0.00000E+00
 -1       970 4.30350E+01 1.69963E+01 0.00000E+00
 -1       971 2.65350E+01 1.43982E+01 0.00000E+00
 -1       972 5.50350E+01 1.69963E+01 0.00000E+00
 -1       973 5.20350E+01 1.69963E+01 0.00000E+00
 -1       974 6.10350E+01 1.69963E+01 0.00000E+00
 -1       975 6.40350E+01 1.69963E+01 0.00000E+00
 -1       976 6.70350E+01 1.69963E+01 0.00000E+00
 -1       977 7.00350E+01 1.69963E+01 0.00000E+00
 -1       978 7.30350E+01 1.69963E+01 0.00000E+00
 -1       979 7.74282E+01 1.69555E+01 0.00000E+00
 -1       980 1.12035E+02 1.69963E+01 0.00000E+00
 -1       981 1.21035E+02 1.69963E+01 0.00000E+00
 -1       982 1.24035E+02 1.69963E+01 0.00000E+00
 -1       983 1.27035E+02 1.69963E+01 0.00000E+00
 -1       984 1.30035E+02 1.69963E+01 0.00000E+00
 -1       985 1.34412E+02 2.06063E+01 0.00000E+00
 -1       986 1.12278E+02 2.34609E+01 0.00000E+00
 -1       987 1.32223E+02 1.73294E+01 0.00000E+00
 -1       988 5.80350E+01 1.69963E+01 0.00000E+00
 -1       989 1.70387E+01 3.17583E+01 0.00000E+00
 -1       990 1.12835E+02 2.74250E+01 0.00000E+00
 -1       991 1.18035E+02 1.69963E+01 0.00000E+00
 -1       992 1.15035E+02 1.69963E+01 0.00000E+00
 -1       993 1.44274E+01 2.87651E+01 0.00000E+00
 -1       994 7.61132E+01 3.24218E+01 0.00000E+00
 -1       995 1.12650E+02 3.20716E+01 0.00000E+00
 -1       996 1.55880E+01 2.64500E+01 0.00000E+00
 -1       997 1.09389E+02 1.79587E+01 0.00000E+00
 -1       998 2.56500E+01 3.18140E+01 0.00000E+00
 -1       999 4.60350E+01 1.69963E+01 0.00000E+00
 -1      1000 7.62360E+01 2.11494E+01 0.00000E+00
 -1      1001 1.81860E+01 2.20313E+01 0.00000E+00
 -1      1002 4.00350E+01 1.69963E+01 0.00000E+00
 -1      1003 1.81860E+01 1.90875E+01 0.00000E+00
 -1      1004 3.10350E+01 1.69963E+01 0.00000E+00
 -1      1005 1.13131E+02 2.89925E+01 0.00000E+00
 -1      1006 1.32223E+02 2.02731E+01 0.00000E+00
 -1      1007 1.12258E+02 2.13705E+01 0.00000E+00
 -1      1008 1.89235E+01 1.68299E+01 0.00000E+00
 -1      1009 3.40350E+01 1.69963E+01 0.00000E+00
 -1      1010 4.90350E+01 1.69963E+01 0.00000E+00
 -1      1011 1.31814E+02 2.50211E+01 0.00000E+00
 -1      1012 7.59297E+01 2.96993E+01 0.00000E+00
 -1      1013 7.59785E+01 2.56431E+01 0.00000E+00
 -1      1014 2.19235E+01 1.68299E+01 0.00000E+00
 -1      1015 1.32019E+02 2.26471E+01 0.00000E+00
 -1      1016 5.05350E+01 1.95942E+01 0.00000E+00
 -1      1017 2.11500E+01 2.92160E+01 0.00000E+00
 -1      1018 3.31500E+01 2.92160E+01 0.00000E+00
 -1      1019 3.61500E+01 2.92160E+01 0.00000E+00
 -1      1020 3.91500E+01 2.92160E+01 0.00000E+00
 -1      1021 4.21500E+01 2.92160E+01 0.00000E+00
 -1      1022 4.51500E+01 2.92160E+01 0.00000E+00
 -1      1023 4.81500E+01 2.92160E+01 0.00000E+00
 -1      1024 5.11500E+01 2.92160E+01 0.00000E+00
 -1      1025 5.41500E+01 2.92160E+01 0.00000E+00
 -1      1026 5.71500E+01 2.92160E+01 0.00000E+00
 -1      1027 6.01500E+01 2.92160E+01 0.00000E+00
 -1      1028 6.31500E+01 2.92160E+01 0.00000E+00
 -1      1029 6.61500E+01 2.92160E+01 0.00000E+00
 -1      1030 6.91500E+01 2.92160E+01 0.00000E+00
 -1      1031 7.21500E+01 2.92160E+01 0.00000E+00
 -1      1032 3.70350E+01 1.69963E+01 0.00000E+00
 -1      1033 1.17150E+02 2.94736E+01 0.00000E+00
 -1      1034 2.71500E+01 2.92160E+01 0.00000E+00
 -1      1035 1.20150E+02 2.94736E+01 0.00000E+00
 -1      1036 1.23150E+02 2.94736E+01 0.00000E+00
 -1      1037 1.26150E+02 2.94736E+01 0.00000E+00
 -1      1038 1.29150E+02 2.94736E+01 0.00000E+00
 -1      1039 2.49235E+01 1.68299E+01 0.00000E+00
 -1      1040 5.65350E+01 1.95942E+01 0.00000E+00
 -1      1041 6.55350E+01 1.95942E+01 0.00000E+00
 -1      1042 6.25350E+01 1.95942E+01 0.00000E+00
 -1      1043 7.15350E+01 1.95942E+01 0.00000E+00
 -1      1044 1.13535E+02 1.95942E+01 0.00000E+00
 -1      1045 1.25535E+02 1.95942E+01 0.00000E+00
 -1      1046 1.22535E+02 1.95942E+01 0.00000E+00
 -1      1047 5.95350E+01 1.95942E+01 0.00000E+00
 -1      1048 1.81860E+01 2.49750E+01 0.00000E+00
 -1      1049 1.30035E+02 1.99400E+01 0.00000E+00
 -1      1050 1.73302E+01 2.87719E+01 0.00000E+00
 -1      1051 1.31814E+02 2.79570E+01 0.00000E+00
 -1      1052 1.19535E+02 1.95942E+01 0.00000E+00
 -1      1053 1.16535E+02 1.95942E+01 0.00000E+00
 -1      1054 2.80350E+01 1.69963E+01 0.00000E+00
 -1      1055 5.35350E+01 1.95942E+01 0.00000E+00
 -1      1056 1.15129E+02 2.50817E+01 0.00000E+00
 -1      1057 3.01500E+01 2.92160E+01 0.00000E+00
 -1      1058 2.41500E+01 2.92160E+01 0.00000E+00
 -1      1059 6.85350E+01 1.95942E+01 0.00000E+00
 -1      1060 1.27785E+02 1.97671E+01 0.00000E+00
 -1      1061 7.46075E+01 2.32981E+01 0.00000E+00
 -1      1062 4.15350E+01 1.95942E+01 0.00000E+00
 -1      1063 7.52557E+01 1.95737E+01 0.00000E+00
 -1      1064 4.75350E+01 1.95942E+01 0.00000E+00
 -1      1065 2.07840E+01 2.35031E+01 0.00000E+00
 -1      1066 1.15110E+02 2.29914E+01 0.00000E+00
 -1      1067 1.29150E+02 2.65377E+01 0.00000E+00
 -1      1068 3.25350E+01 1.95942E+01 0.00000E+00
 -1      1069 7.48262E+01 2.73275E+01 0.00000E+00
 -1      1070 2.95350E+01 1.95942E+01 0.00000E+00
 -1      1071 1.29355E+02 2.41637E+01 0.00000E+00
 -1      1072 4.45350E+01 1.95942E+01 0.00000E+00
 -1      1073 2.07840E+01 2.05594E+01 0.00000E+00
 -1      1074 2.13538E+01 1.86946E+01 0.00000E+00
 -1      1075 6.70350E+01 2.21922E+01 0.00000E+00
 -1      1076 3.85350E+01 1.95942E+01 0.00000E+00
 -1      1077 2.56500E+01 2.66180E+01 0.00000E+00
 -1      1078 3.76500E+01 2.66180E+01 0.00000E+00
 -1      1079 4.06500E+01 2.66180E+01 0.00000E+00
 -1      1080 4.36500E+01 2.66180E+01 0.00000E+00
 -1      1081 4.66500E+01 2.66180E+01 0.00000E+00
 -1      1082 4.96500E+01 2.66180E+01 0.00000E+00
 -1      1083 5.26500E+01 2.66180E+01 0.00000E+00
 -1      1084 5.56500E+01 2.66180E+01 0.00000E+00
 -1      1085 5.86500E+01 2.66180E+01 0.00000E+00
 -1      1086 6.16500E+01 2.66180E+01 0.00000E+00
 -1      1087 6.46500E+01 2.66180E+01 0.00000E+00
 -1      1088 6.76500E+01 2.66180E+01 0.00000E+00
 -1      1089 7.06500E+01 2.66180E+01 0.00000E+00
 -1      1090 2.64235E+01 1.94279E+01 0.00000E+00
 -1      1091 2.38887E+01 1.90612E+01 0.00000E+00
 -1      1092 1.21650E+02 2.68756E+01 0.00000E+00
 -1      1093 1.24650E+02 2.68756E+01 0.00000E+00
 -1      1094 1.26900E+02 2.67067E+01 0.00000E+00
 -1      1095 7.36272E+01 2.17225E+01 0.00000E+00
 -1      1096 2.09670E+01 2.63596E+01 0.00000E+00
 -1      1097 5.80350E+01 2.21922E+01 0.00000E+00
 -1      1098 1.15536E+02 2.77266E+01 0.00000E+00
 -1      1099 1.24035E+02 2.21922E+01 0.00000E+00
 -1      1100 6.40350E+01 2.21922E+01 0.00000E+00
 -1      1101 7.00350E+01 2.21922E+01 0.00000E+00
 -1      1102 3.55350E+01 1.95942E+01 0.00000E+00
 -1      1103 1.21035E+02 2.21922E+01 0.00000E+00
 -1      1104 5.20350E+01 2.21922E+01 0.00000E+00
 -1      1105 1.18650E+02 2.68756E+01 0.00000E+00
 -1      1106 1.18035E+02 2.21922E+01 0.00000E+00
 -1      1107 6.10350E+01 2.21922E+01 0.00000E+00
 -1      1108 5.50350E+01 2.21922E+01 0.00000E+00
 -1      1109 3.46500E+01 2.66180E+01 0.00000E+00
 -1      1110 3.16500E+01 2.66180E+01 0.00000E+00
 -1      1111 2.86500E+01 2.66180E+01 0.00000E+00
 -1      1112 7.34552E+01 2.49825E+01 0.00000E+00
 -1      1113 2.33085E+01 2.64888E+01 0.00000E+00
 -1      1114 4.30350E+01 2.21922E+01 0.00000E+00
 -1      1115 4.60350E+01 2.21922E+01 0.00000E+00
 -1      1116 4.90350E+01 2.21922E+01 0.00000E+00
 -1      1117 2.31255E+01 2.36323E+01 0.00000E+00
 -1      1118 1.26285E+02 2.23651E+01 0.00000E+00
 -1      1119 7.17451E+01 2.35874E+01 0.00000E+00
 -1      1120 3.10350E+01 2.21922E+01 0.00000E+00
 -1      1121 4.00350E+01 2.21922E+01 0.00000E+00
 -1      1122 1.18055E+02 2.42826E+01 0.00000E+00
 -1      1123 3.40350E+01 2.21922E+01 0.00000E+00
 -1      1124 3.91500E+01 2.40200E+01 0.00000E+00
 -1      1125 2.79235E+01 2.20259E+01 0.00000E+00
 -1      1126 2.33189E+01 2.09260E+01 0.00000E+00
 -1      1127 1.23150E+02 2.42776E+01 0.00000E+00
 -1      1128 1.26252E+02 2.42207E+01 0.00000E+00
 -1      1129 1.20602E+02 2.42801E+01 0.00000E+00
 -1      1130 3.65925E+01 2.31061E+01 0.00000E+00
 -1      1131 2.47693E+01 2.28396E+01 0.00000E+00
 -1      1132 0.00000E+00 4.85250E+01 0.00000E+00
 -1      1133 0.00000E+00 4.55750E+01 0.00000E+00
 -1      1134 0.00000E+00 4.26250E+01 0.00000E+00
 -1      1135 0.00000E+00 3.96750E+01 0.00000E+00
 -1      1136 0.00000E+00 3.67250E+01 0.00000E+00
 -1      1137 0.00000E+00 3.38000E+01 0.00000E+00
 -1      1138 0.00000E+00 3.08750E+01 0.00000E+00
 -1      1139 0.00000E+00 2.79250E+01 0.00000E+00
 -1      1140 0.00000E+00 2.49750E+01 0.00000E+00
 -1      1141 0.00000E+00 2.20250E+01 0.00000E+00
 -1      1142 0.00000E+00 1.90750E+01 0.00000E+00
 -1      1143 0.00000E+00 1.61500E+01 0.00000E+00
 -1      1144 0.00000E+00 1.32250E+01 0.00000E+00
 -1      1145 0.00000E+00 1.02750E+01 0.00000E+00
 -1      1146 0.00000E+00 7.32500E+00 0.00000E+00
 -1      1147 0.00000E+00 4.37500E+00 0.00000E+00
 -1      1148 0.00000E+00 1.45000E+00 0.00000E+00
 -1      1149 1.57500E+00 5.00000E+01 0.00000E+00
 -1      1150 4.65000E+00 5.00000E+01 0.00000E+00
 -1      1151 7.65000E+00 5.00000E+01 0.00000E+00
 -1      1152 1.06500E+01 5.00000E+01 0.00000E+00
 -1      1153 1.36500E+01 5.00000E+01 0.00000E+00
 -1      1154 1.66500E+01 5.00000E+01 0.00000E+00
 -1      1155 1.96500E+01 5.00000E+01 0.00000E+00
 -1      1156 2.26500E+01 5.00000E+01 0.00000E+00
 -1      1157 2.56500E+01 5.00000E+01 0.00000E+00
 -1      1158 2.86500E+01 5.00000E+01 0.00000E+00
 -1      1159 3.16500E+01 5.00000E+01 0.00000E+00
 -1      1160 3.46500E+01 5.00000E+01 0.00000E+00
 -1      1161 3.76500E+01 5.00000E+01 0.00000E+00
 -1      1162 4.06500E+01 5.00000E+01 0.00000E+00
 -1      1163 4.36500E+01 5.00000E+01 0.00000E+00
 -1      1164 4.66500E+01 5.00000E+01 0.00000E+00
 -1      1165 4.96500E+01 5.00000E+01 0.00000E+00
 -1      1166 5.26500E+01 5.00000E+01 0.00000E+00
 -1      1167 5.56500E+01 5.00000E+01 0.00000E+00
 -1      1168 5.86500E+01 5.00000E+01 0.00000E+00
 -1      1169 6.16500E+01 5.00000E+01 0.00000E+00
 -1      1170 6.46500E+01 5.00000E+01 0.00000E+00
 -1      1171 6.76500E+01 5.00000E+01 0.00000E+00
 -1      1172 7.06500E+01 5.00000E+01 0.00000E+00
 -1      1173 7.36500E+01 5.00000E+01 0.00000E+00
 -1      1174 7.66500E+01 5.00000E+01 0.00000E+00
 -1      1175 7.96500E+01 5.00000E+01 0.00000E+00
 -1      1176 8.26500E+01 5.00000E+01 0.00000E+00
 -1      1177 8.56500E+01 5.00000E+01 0.00000E+00
 -1      1178 8.86500E+01 5.00000E+01 0.00000E+00
 -1      1179 9.16500E+01 5.00000E+01 0.00000E+00
 -1      1180 9.46500E+01 5.00000E+01 0.00000E+00
 -1      1181 9.76500E+01 5.00000E+01 0.00000E+00
 -1      1182 1.00650E+02 5.00000E+01 0.00000E+00
 -1      1183 1.03650E+02 5.00000E+01 0.00000E+00
 -1      1184 1.06650E+02 5.00000E+01 0.00000E+00
 -1      1185 1.09650E+02 5.00000E+01 0.00000E+00
 -1      1186 1.12650E+02 5.00000E+01 0.00000E+00
 -1      1187 1.15650E+02 5.00000E+01 0.00000E+00
 -1      1188 1.18650E+02 5.00000E+01 0.00000E+00
 -1      1189 1.21650E+02 5.00000E+01 0.00000E+00
 -1      1190 1.24650E+02 5.00000E+01 0.00000E+00
 -1      1191 1.27650E+02 5.00000E+01 0.00000E+00
 -1      1192 1.30650E+02 5.00000E+01 0.00000E+00
 -1      1193 1.33650E+02 5.00000E+01 0.00000E+00
 -1      1194 1.36650E+02 5.00000E+01 0.00000E+00
 -1      1195 1.39650E+02 5.00000E+01 0.00000E+00
 -1      1196 1.42650E+02 5.00000E+01 0.00000E+00
 -1      1197 1.45650E+02 5.00000E+01 0.00000E+00
 -1      1198 1.48575E+02 5.00000E+01 0.00000E+00
 -1      1199 1.57500E+00 0.00000E+00 0.00000E+00
 -1      1200 4.65000E+00 0.00000E+00 0.00000E+00
 -1      1201 7.65000E+00 0.00000E+00 0.00000E+00
 -1      1202 1.06500E+01 0.00000E+00 0.00000E+00
 -1      1203 1.36500E+01 0.00000E+00 0.00000E+00
 -1      1204 1.66500E+01 0.00000E+00 0.00000E+00
 -1      1205 1.96500E+01 0.00000E+00 0.00000E+00
 -1      1206 2.26500E+01 0.00000E+00 0.00000E+00
 -1      1207 2.56500E+01 0.00000E+00 0.00000E+00
 -1      1208 2.86500E+01 0.00000E+00 0.00000E+00
 -1      1209 3.16500E+01 0.00000E+00 0.00000E+00
 -1      1210 3.46500E+01 0.00000E+00 0.00000E+00
 -1      1211 3.76500E+01 0.00000E+00 0.00000E+00
 -1      1212 4.06500E+01 0.00000E+00 0.00000E+00
 -1      1213 4.36500E+01 0.00000E+00 0.00000E+00
 -1      1214 4.66500E+01 0.00000E+00 0.00000E+00
 -1      1215 4.96500E+01 0.00000E+00 0.00000E+00
 -1      1216 5.26500E+01 0.00000E+00 0.00000E+00
 -1      1217 5.56500E+01 0.00000E+00 0.00000E+00
 -1      1218 5.86500E+01 0.00000E+00 0.00000E+00
 -1      1219 6.16500E+01 0.00000E+00 0.00000E+00
 -1      1220 6.46500E+01 0.00000E+00 0.00000E+00
 -1      1221 6.76500E+01 0.00000E+00 0.00000E+00
 -1      1222 7.06500E+01 0.00000E+00 0.00000E+00
 -1      1223 7.36500E+01 0.00000E+00 0.00000E+00
 -1      1224 7.66500E+01 0.00000E+00 0.00000E+00
 -1      1225 7.96500E+01 0.00000E+00 0.00000E+00
 -1      1226 8.26500E+01 0.00000E+00 0.00000E+00
 -1      1227 8.56500E+01 0.00000E+00 0.00000E+00
 -1      1228 8.86500E+01 0.00000E+00 0.00000E+00
 -1      1229 9.16500E+01 0.00000E+00 0.00000E+00
 -1      1230 9.46500E+01 0.00000E+00 0.00000E+00
 -1      1231 9.76500E+01 0.00000E+00 0.00000E+00
 -1      1232 1.00650E+02 0.00000E+00 0.00000E+00
 -1      1233 1.03650E+02 0.00000E+00 0.00000E+00
 -1      1234 1.06650E+02 0.00000E+00 0.00000E+00
 -1      1235 1.09650E+02 0.00000E+00 0.00000E+00
 -1      1236 1.12650E+02 0.00000E+00 0.00000E+00
 -1      1237 1.15650E+02 0.00000E+00 0.00000E+00
 -1      1238 1.18650E+02 0.00000E+00 0.00000E+00
 -1      1239 1.21650E+02 0.00000E+00 0.00000E+00
 -1      1240 1.24650E+02 0.00000E+00 0.00000E+00
 -1      1241 1.27650E+02 0.00000E+00 0.00000E+00
 -1      1242 1.30650E+02 0.00000E+00 0.00000E+00
 -1      1243 1.33650E+02 0.00000E+00 0.00000E+00
 -1      1244 1.36650E+02 0.00000E+00 0.00000E+00
 -1      1245 1.39650E+02 0.00000E+00 0.00000E+00
 -1      1246 1.42650E+02 0.00000E+00 0.00000E+00
 -1      1247 1.45650E+02 0.00000E+00 0.00000E+00
 -1      1248 1.48575E+02 0.00000E+00 0.00000E+00
 -1      1249 1.50000E+02 1.47500E+00 0.00000E+00
 -1      1250 1.50000E+02 4.42500E+00 0.00000E+00
 -1      1251 1.50000E+02 7.37500E+00 0.00000E+00
 -1      1252 1.50000E+02 1.03250E+01 0.00000E+00
 -1      1253 1.50000E+02 1.32750E+01 0.00000E+00
 -1      1254 1.50000E+02 1.62000E+01 0.00000E+00
 -1      1255 1.50000E+02 1.91250E+01 0.00000E+00
 -1      1256 1.50000E+02 2.20750E+01 0.00000E+00
 -1      1257 1.50000E+02 2.50250E+01 0.00000E+00
 -1      1258 1.50000E+02 2.79750E+01 0.00000E+00
 -1      1259 1.50000E+02 3.09250E+01 0.00000E+00
 -1      1260 1.50000E+02 3.38500E+01 0.00000E+00
 -1      1261 1.50000E+02 3.67750E+01 0.00000E+00
 -1      1262 1.50000E+02 3.97250E+01 0.00000E+00
 -1      1263 1.50000E+02 4.26750E+01 0.00000E+00
 -1      1264 1.50000E+02 4.56250E+01 0.00000E+00
 -1      1265 1.50000E+02 4.85500E+01 0.00000E+00
 -1      1266 1.00192E+02 2.78994E+01 0.00000E+00
 -1      1267 9.98799E+01 2.64501E+01 0.00000E+00
 -1      1268 9.92768E+01 2.51113E+01 0.00000E+00
 -1      1269 9.83516E+01 2.38670E+01 0.00000E+00
 -1      1270 9.71763E+01 2.28575E+01 0.00000E+00
 -1      1271 9.58320E+01 2.21411E+01 0.00000E+00
 -1      1272 9.43522E+01 2.17303E+01 0.00000E+00
 -1      1273 9.28503E+01 2.16503E+01 0.00000E+00
 -1      1274 9.13431E+01 2.18994E+01 0.00000E+00
 -1      1275 8.99540E+01 2.24545E+01 0.00000E+00
 -1      1276 8.87083E+01 2.32974E+01 0.00000E+00
 -1      1277 8.76906E+01 2.43620E+01 0.00000E+00
 -1      1278 8.69423E+01 2.55660E+01 0.00000E+00
 -1      1279 8.64369E+01 2.69554E+01 0.00000E+00
 -1      1280 8.62344E+01 2.84297E+01 0.00000E+00
 -1      1281 8.63527E+01 2.99385E+01 0.00000E+00
 -1      1282 8.67857E+01 3.13704E+01 0.00000E+00
 -1      1283 8.74950E+01 3.26520E+01 0.00000E+00
 -1      1284 8.84811E+01 3.37816E+01 0.00000E+00
 -1      1285 8.96874E+01 3.46766E+01 0.00000E+00
 -1      1286 9.10882E+01 3.53039E+01 0.00000E+00
 -1      1287 9.25748E+01 3.56091E+01 0.00000E+00
 -1      1288 9.40804E+01 3.55883E+01 0.00000E+00
 -1      1289 9.55714E+01 3.52372E+01 0.00000E+00
 -1      1290 9.69653E+01 3.45609E+01 0.00000E+00
 -1      1291 9.81670E+01 3.36037E+01 0.00000E+00
 -1      1292 9.91500E+01 3.23774E+01 0.00000E+00
 -1      1293 9.98357E+01 3.09596E+01 0.00000E+00
 -1      1294 1.00185E+02 2.94396E+01 0.00000E+00
 -1      1295 1.57500E+00 4.85250E+01 0.00000E+00
 -1      1296 1.29900E+00 4.48375E+01 0.00000E+00
 -1      1297 1.29900E+00 4.63125E+01 0.00000E+00
 -1      1298 1.29900E+00 4.18875E+01 0.00000E+00
 -1      1299 1.29900E+00 4.33625E+01 0.00000E+00
 -1      1300 2.59800E+00 4.41000E+01 0.00000E+00
 -1      1301 1.29900E+00 3.89375E+01 0.00000E+00
 -1      1302 1.29900E+00 4.04125E+01 0.00000E+00
 -1      1303 2.59800E+00 4.11500E+01 0.00000E+00
 -1      1304 1.29900E+00 3.59875E+01 0.00000E+00
 -1      1305 1.29900E+00 3.74625E+01 0.00000E+00
 -1      1306 2.59800E+00 3.82000E+01 0.00000E+00
 -1      1307 1.29900E+00 3.30875E+01 0.00000E+00
 -1      1308 1.29900E+00 3.45375E+01 0.00000E+00
 -1      1309 2.59800E+00 3.52750E+01 0.00000E+00
 -1      1310 1.29900E+00 3.01375E+01 0.00000E+00
 -1      1311 1.29900E+00 3.16125E+01 0.00000E+00
 -1      1312 2.59800E+00 3.23500E+01 0.00000E+00
 -1      1313 1.29900E+00 2.71875E+01 0.00000E+00
 -1      1314 1.29900E+00 2.86625E+01 0.00000E+00
 -1      1315 2.59800E+00 2.94000E+01 0.00000E+00
 -1      1316 1.29900E+00 2.42375E+01 0.00000E+00
 -1      1317 1.29900E+00 2.57125E+01 0.00000E+00
 -1      1318 2.59800E+00 2.64500E+01 0.00000E+00
 -1      1319 1.29900E+00 2.12875E+01 0.00000E+00
 -1      1320 1.29900E+00 2.27625E+01 0.00000E+00
 -1      1321 2.59800E+00 2.35000E+01 0.00000E+00
 -1      1322 1.29900E+00 1.83375E+01 0.00000E+00
 -1      1323 1.29900E+00 1.98125E+01 0.00000E+00
 -1      1324 2.59800E+00 2.05500E+01 0.00000E+00
 -1      1325 1.29900E+00 1.54375E+01 0.00000E+00
 -1      1326 1.29900E+00 1.68875E+01 0.00000E+00
 -1      1327 2.59800E+00 1.76250E+01 0.00000E+00
 -1      1328 1.29900E+00 1.24875E+01 0.00000E+00
 -1      1329 1.29900E+00 1.39625E+01 0.00000E+00
 -1      1330 2.59800E+00 1.47000E+01 0.00000E+00
 -1      1331 1.29900E+00 9.53750E+00 0.00000E+00
 -1      1332 1.29900E+00 1.10125E+01 0.00000E+00
 -1      1333 2.59800E+00 1.17500E+01 0.00000E+00
 -1      1334 1.29900E+00 6.58750E+00 0.00000E+00
 -1      1335 1.29900E+00 8.06250E+00 0.00000E+00
 -1      1336 2.59800E+00 8.80000E+00 0.00000E+00
 -1      1337 1.29900E+00 3.63750E+00 0.00000E+00
 -1      1338 1.29900E+00 5.11250E+00 0.00000E+00
 -1      1339 2.59800E+00 5.85000E+00 0.00000E+00
 -1      1340 1.43700E+00 1.09375E+00 0.00000E+00
 -1      1341 1.43700E+00 2.54375E+00 0.00000E+00
 -1      1342 2.73600E+00 3.28125E+00 0.00000E+00
 -1      1343 3.01200E+00 1.09375E+00 0.00000E+00
 -1      1344 3.90000E+00 4.87010E+01 0.00000E+00
 -1      1345 5.40000E+00 4.87010E+01 0.00000E+00
 -1      1346 6.90000E+00 4.87010E+01 0.00000E+00
 -1      1347 8.40000E+00 4.87010E+01 0.00000E+00
 -1      1348 6.15000E+00 4.74020E+01 0.00000E+00
 -1      1349 9.90000E+00 4.87010E+01 0.00000E+00
 -1      1350 1.14000E+01 4.87010E+01 0.00000E+00
 -1      1351 9.15000E+00 4.74020E+01 0.00000E+00
 -1      1352 1.29000E+01 4.87010E+01 0.00000E+00
 -1      1353 1.44000E+01 4.87010E+01 0.00000E+00
 -1      1354 1.21500E+01 4.74020E+01 0.00000E+00
 -1      1355 1.59000E+01 4.87010E+01 0.00000E+00
 -1      1356 1.74000E+01 4.87010E+01 0.00000E+00
 -1      1357 1.51500E+01 4.74020E+01 0.00000E+00
 -1      1358 1.89000E+01 4.87010E+01 0.00000E+00
 -1      1359 2.04000E+01 4.87010E+01 0.00000E+00
 -1      1360 1.81500E+01 4.74020E+01 0.00000E+00
 -1      1361 2.19000E+01 4.87010E+01 0.00000E+00
 -1      1362 2.34000E+01 4.87010E+01 0.00000E+00
 -1      1363 2.11500E+01 4.74020E+01 0.00000E+00
 -1      1364 2.49000E+01 4.87010E+01 0.00000E+00
 -1      1365 2.64000E+01 4.87010E+01 0.00000E+00
 -1      1366 2.41500E+01 4.74020E+01 0.00000E+00
 -1      1367 2.79000E+01 4.87010E+01 0.00000E+00
 -1      1368 2.94000E+01 4.87010E+01 0.00000E+00
 -1      1369 2.71500E+01 4.74020E+01 0.00000E+00
 -1      1370 3.09000E+01 4.87010E+01 0.00000E+00
 -1      1371 3.24000E+01 4.87010E+01 0.00000E+00
 -1      1372 3.01500E+01 4.74020E+01 0.00000E+00
 -1      1373 3.39000E+01 4.87010E+01 0.00000E+00
 -1      1374 3.54000E+01 4.87010E+01 0.00000E+00
 -1      1375 3.31500E+01 4.74020E+01 0.00000E+00
 -1      1376 3.69000E+01 4.87010E+01 0.00000E+00
 -1      1377 3.84000E+01 4.87010E+01 0.00000E+00
 -1      1378 3.61500E+01 4.74020E+01 0.00000E+00
 -1      1379 3.99000E+01 4.87010E+01 0.00000E+00
 -1      1380 4.14000E+01 4.87010E+01 0.00000E+00
 -1      1381 3.91500E+01 4.74020E+01 0.00000E+00
 -1      1382 4.29000E+01 4.87010E+01 0.00000E+00
 -1      1383 4.44000E+01 4.87010E+01 0.00000E+00
 -1      1384 4.21500E+01 4.74020E+01 0.00000E+00
 -1      1385 4.59000E+01 4.87010E+01 0.00000E+00
 -1      1386 4.74000E+01 4.87010E+01 0.00000E+00
 -1      1387 4.51500E+01 4.74020E+01 0.00000E+00
 -1      1388 4.89000E+01 4.87010E+01 0.00000E+00
 -1      1389 5.04000E+01 4.87010E+01 0.00000E+00
 -1      1390 4.81500E+01 4.74020E+01 0.00000E+00
 -1      1391 5.19000E+01 4.87010E+01 0.00000E+00
 -1      1392 5.34000E+01 4.87010E+01 0.00000E+00
 -1      1393 5.11500E+01 4.74020E+01 0.00000E+00
 -1      1394 5.49000E+01 4.87010E+01 0.00000E+00
 -1      1395 5.64000E+01 4.87010E+01 0.00000E+00
 -1      1396 5.41500E+01 4.74020E+01 0.00000E+00
 -1      1397 5.79000E+01 4.87010E+01 0.00000E+00
 -1      1398 5.94000E+01 4.87010E+01 0.00000E+00
 -1      1399 5.71500E+01 4.74020E+01 0.00000E+00
 -1      1400 6.09000E+01 4.87010E+01 0.00000E+00
 -1      1401 6.24000E+01 4.87010E+01 0.00000E+00
 -1      1402 6.01500E+01 4.74020E+01 0.00000E+00
 -1      1403 6.39000E+01 4.87010E+01 0.00000E+00
 -1      1404 6.54000E+01 4.87010E+01 0.00000E+00
 -1      1405 6.31500E+01 4.74020E+01 0.00000E+00
 -1      1406 6.69000E+01 4.87010E+01 0.00000E+00
 -1      1407 6.84000E+01 4.87010E+01 0.00000E+00
 -1      1408 6.61500E+01 4.74020E+01 0.00000E+00
 -1      1409 6.99000E+01 4.87010E+01 0.00000E+00
 -1      1410 7.14000E+01 4.87010E+01 0.00000E+00
 -1      1411 6.91500E+01 4.74020E+01 0.00000E+00
 -1      1412 7.29000E+01 4.87010E+01 0.00000E+00
 -1      1413 7.44000E+01 4.87010E+01 0.00000E+00
 -1      1414 7.21500E+01 4.74020E+01 0.00000E+00
 -1      1415 7.59000E+01 4.87010E+01 0.00000E+00
 -1      1416 7.74000E+01 4.87010E+01 0.00000E+00
 -1      1417 7.51500E+01 4.74020E+01 0.00000E+00
 -1      1418 7.89000E+01 4.87010E+01 0.00000E+00
 -1      1419 8.04000E+01 4.87010E+01 0.00000E+00
 -1      1420 7.81500E+01 4.74020E+01 0.00000E+00
 -1      1421 8.19000E+01 4.87010E+01 0.00000E+00
 -1      1422 8.34000E+01 4.87010E+01 0.00000E+00
 -1      1423 8.11500E+01 4.74020E+01 0.00000E+00
 -1      1424 8.49000E+01 4.87010E+01 0.00000E+00
 -1      1425 8.64000E+01 4.87010E+01 0.00000E+00
 -1      1426 8.41500E+01 4.74020E+01 0.00000E+00
 -1      1427 8.79000E+01 4.87010E+01 0.00000E+00
 -1      1428 8.94000E+01 4.87010E+01 0.00000E+00
 -1      1429 8.71500E+01 4.74020E+01 0.00000E+00
 -1      1430 9.09000E+01 4.87010E+01 0.00000E+00
 -1      1431 9.24000E+01 4.87010E+01 0.00000E+00
 -1      1432 9.01500E+01 4.74020E+01 0.00000E+00
 -1      1433 9.39000E+01 4.87010E+01 0.00000E+00
 -1      1434 9.54000E+01 4.87010E+01 0.00000E+00
 -1      1435 9.31500E+01 4.74020E+01 0.00000E+00
 -1      1436 9.69000E+01 4.87010E+01 0.00000E+00
 -1      1437 9.84000E+01 4.87010E+01 0.00000E+00
 -1      1438 9.61500E+01 4.74020E+01 0.00000E+00
 -1      1439 9.99000E+01 4.87010E+01 0.00000E+00
 -1      1440 1.01400E+02 4.87010E+01 0.00000E+00
 -1      1441 9.91500E+01 4.74020E+01 0.00000E+00
 -1      1442 1.02900E+02 4.87010E+01 0.00000E+00
 -1      1443 1.04400E+02 4.87010E+01 0.00000E+00
 -1      1444 1.02150E+02 4.74020E+01 0.00000E+00
 -1      1445 1.05900E+02 4.87010E+01 0.00000E+00
 -1      1446 1.07400E+02 4.87010E+01 0.00000E+00
 -1      1447 1.05150E+02 4.74020E+01 0.00000E+00
 -1      1448 1.08900E+02 4.87010E+01 0.00000E+00
 -1      1449 1.10400E+02 4.87010E+01 0.00000E+00
 -1      1450 1.08150E+02 4.74020E+01 0.00000E+00
 -1      1451 1.11900E+02 4.87010E+01 0.00000E+00
 -1      1452 1.13400E+02 4.87010E+01 0.00000E+00
 -1      1453 1.11150E+02 4.74020E+01 0.00000E+00
 -1      1454 1.14900E+02 4.87010E+01 0.00000E+00
 -1      1455 1.16400E+02 4.87010E+01 0.00000E+00
 -1      1456 1.14150E+02 4.74020E+01 0.00000E+00
 -1      1457 1.17900E+02 4.87010E+01 0.00000E+00
 -1      1458 1.19400E+02 4.87010E+01 0.00000E+00
 -1      1459 1.17150E+02 4.74020E+01 0.00000E+00
 -1      1460 1.20900E+02 4.87010E+01 0.00000E+00
 -1      1461 1.22400E+02 4.87010E+01 0.00000E+00
 -1      1462 1.20150E+02 4.74020E+01 0.00000E+00
 -1      1463 1.23900E+02 4.87010E+01 0.00000E+00
 -1      1464 1.25400E+02 4.87010E+01 0.00000E+00
 -1      1465 1.23150E+02 4.74020E+01 0.00000E+00
 -1      1466 1.26900E+02 4.87010E+01 0.00000E+00
 -1      1467 1.28400E+02 4.87010E+01 0.00000E+00
 -1      1468 1.26150E+02 4.74020E+01 0.00000E+00
 -1      1469 1.29900E+02 4.87010E+01 0.00000E+00
 -1      1470 1.31400E+02 4.87010E+01 0.00000E+00
 -1      1471 1.29150E+02 4.74020E+01 0.00000E+00
 -1      1472 1.32900E+02 4.87010E+01 0.00000E+00
 -1      1473 1.34400E+02 4.87010E+01 0.00000E+00
 -1      1474 1.32150E+02 4.74020E+01 0.00000E+00
 -1      1475 1.35900E+02 4.87010E+01 0.00000E+00
 -1      1476 1.37400E+02 4.87010E+01 0.00000E+00
 -1      1477 1.35150E+02 4.74020E+01 0.00000E+00
 -1      1478 1.38900E+02 4.87010E+01 0.00000E+00
 -1      1479 1.40400E+02 4.87010E+01 0.00000E+00
 -1      1480 1.38150E+02 4.74020E+01 0.00000E+00
 -1      1481 1.41900E+02 4.87010E+01 0.00000E+00
 -1      1482 1.43400E+02 4.87010E+01 0.00000E+00
 -1      1483 1.41150E+02 4.74020E+01 0.00000E+00
 -1      1484 1.44900E+02 4.87010E+01 0.00000E+00
 -1      1485 1.46400E+02 4.87010E+01 0.00000E+00
 -1      1486 1.44150E+02 4.74020E+01 0.00000E+00
 -1      1487 1.48575E+02 4.85500E+01 0.00000E+00
 -1      1488 1.47825E+02 4.72510E+01 0.00000E+00
 -1      1489 6.01200E+00 1.09375E+00 0.00000E+00
 -1      1490 4.51200E+00 1.09375E+00 0.00000E+00
 -1      1491 4.37400E+00 2.18750E+00 0.00000E+00
 -1      1492 9.01200E+00 1.09375E+00 0.00000E+00
 -1      1493 7.51200E+00 1.09375E+00 0.00000E+00
 -1      1494 7.37400E+00 2.18750E+00 0.00000E+00
 -1      1495 1.20120E+01 1.09375E+00 0.00000E+00
 -1      1496 1.05120E+01 1.09375E+00 0.00000E+00
 -1      1497 1.03740E+01 2.18750E+00 0.00000E+00
 -1      1498 1.50120E+01 1.09375E+00 0.00000E+00
 -1      1499 1.35120E+01 1.09375E+00 0.00000E+00
 -1      1500 1.33740E+01 2.18750E+00 0.00000E+00
 -1      1501 1.80120E+01 1.09375E+00 0.00000E+00
 -1      1502 1.65120E+01 1.09375E+00 0.00000E+00
 -1      1503 1.63740E+01 2.18750E+00 0.00000E+00
 -1      1504 2.10120E+01 1.09375E+00 0.00000E+00
 -1      1505 1.95120E+01 1.09375E+00 0.00000E+00
 -1      1506 1.93740E+01 2.18750E+00 0.00000E+00
 -1      1507 2.40120E+01 1.09375E+00 0.00000E+00
 -1      1508 2.25120E+01 1.09375E+00 0.00000E+00
 -1      1509 2.23740E+01 2.18750E+00 0.00000E+00
 -1      1510 2.70120E+01 1.09375E+00 0.00000E+00
 -1      1511 2.55120E+01 1.09375E+00 0.00000E+00
 -1      1512 2.53740E+01 2.18750E+00 0.00000E+00
 -1      1513 3.00120E+01 1.09375E+00 0.00000E+00
 -1      1514 2.85120E+01 1.09375E+00 0.00000E+00
 -1      1515 2.83740E+01 2.18750E+00 0.00000E+00
 -1      1516 3.30120E+01 1.09375E+00 0.00000E+00
 -1      1517 3.15120E+01 1.09375E+00 0.00000E+00
 -1      1518 3.13740E+01 2.18750E+00 0.00000E+00
 -1      1519 3.60120E+01 1.09375E+00 0.00000E+00
 -1      1520 3.45120E+01 1.09375E+00 0.00000E+00
 -1      1521 3.43740E+01 2.18750E+00 0.00000E+00
 -1      1522 3.90120E+01 1.09375E+00 0.00000E+00
 -1      1523 3.75120E+01 1.09375E+00 0.00000E+00
 -1      1524 3.73740E+01 2.18750E+00 0.00000E+00
 -1      1525 4.20120E+01 1.09375E+00 0.00000E+00
 -1      1526 4.05120E+01 1.09375E+00 0.00000E+00
 -1      1527 4.03740E+01 2.18750E+00 0.00000E+00
 -1      1528 4.50120E+01 1.09375E+00 0.00000E+00
 -1      1529 4.35120E+01 1.09375E+00 0.00000E+00
 -1      1530 4.33740E+01 2.18750E+00 0.00000E+00
 -1      1531 4.80120E+01 1.09375E+00 0.00000E+00
 -1      1532 4.65120E+01 1.09375E+00 0.00000E+00
 -1      1533 4.63740E+01 2.18750E+00 0.00000E+00
 -1      1534 5.10120E+01 1.09375E+00 0.00000E+00
 -1      1535 4.95120E+01 1.09375E+00 0.00000E+00
 -1      1536 4.93740E+01 2.18750E+00 0.00000E+00
 -1      1537 5.40120E+01 1.09375E+00 0.00000E+00
 -1      1538 5.25120E+01 1.09375E+00 0.00000E+00
 -1      1539 5.23740E+01 2.18750E+00 0.00000E+00
 -1      1540 5.70120E+01 1.09375E+00 0.00000E+00
 -1      1541 5.55120E+01 1.09375E+00 0.00000E+00
 -1      1542 5.53740E+01 2.18750E+00 0.00000E+00
 -1      1543 6.00120E+01 1.09375E+00 0.00000E+00
 -1      1544 5.85120E+01 1.09375E+00 0.00000E+00
 -1      1545 5.83740E+01 2.18750E+00 0.00000E+00
 -1      1546 6.30120E+01 1.09375E+00 0.00000E+00
 -1      1547 6.15120E+01 1.09375E+00 0.00000E+00
 -1      1548 6.13740E+01 2.18750E+00 0.00000E+00
 -1      1549 6.60120E+01 1.09375E+00 0.00000E+00
 -1      1550 6.45120E+01 1.09375E+00 0.00000E+00
 -1      1551 6.43740E+01 2.18750E+00 0.00000E+00
 -1      1552 6.90120E+01 1.09375E+00 0.00000E+00
 -1      1553 6.75120E+01 1.09375E+00 0.00000E+00
 -1      1554 6.73740E+01 2.18750E+00 0.00000E+00
 -1      1555 7.20120E+01 1.09375E+00 0.00000E+00
 -1      1556 7.05120E+01 1.09375E+00 0.00000E+00
 -1      1557 7.03740E+01 2.18750E+00 0.00000E+00
 -1      1558 7.50120E+01 1.09375E+00 0.00000E+00
 -1      1559 7.35120E+01 1.09375E+00 0.00000E+00
 -1      1560 7.33740E+01 2.18750E+00 0.00000E+00
 -1      1561 7.80120E+01 1.09375E+00 0.00000E+00
 -1      1562 7.65120E+01 1.09375E+00 0.00000E+00
 -1      1563 7.63740E+01 2.18750E+00 0.00000E+00
 -1      1564 8.10120E+01 1.09375E+00 0.00000E+00
 -1      1565 7.95120E+01 1.09375E+00 0.00000E+00
 -1      1566 7.93740E+01 2.18750E+00 0.00000E+00
 -1      1567 8.40120E+01 1.09375E+00 0.00000E+00
 -1      1568 8.25120E+01 1.09375E+00 0.00000E+00
 -1      1569 8.23740E+01 2.18750E+00 0.00000E+00
 -1      1570 8.70120E+01 1.09375E+00 0.00000E+00
 -1      1571 8.55120E+01 1.09375E+00 0.00000E+00
 -1      1572 8.53740E+01 2.18750E+00 0.00000E+00
 -1      1573 9.00120E+01 1.09375E+00 0.00000E+00
 -1      1574 8.85120E+01 1.09375E+00 0.00000E+00
 -1      1575 8.83740E+01 2.18750E+00 0.00000E+00
 -1      1576 9.30120E+01 1.09375E+00 0.00000E+00
 -1      1577 9.15120E+01 1.09375E+00 0.00000E+00
 -1      1578 9.13740E+01 2.18750E+00 0.00000E+00
 -1      1579 9.60120E+01 1.09375E+00 0.00000E+00
 -1      1580 9.45120E+01 1.09375E+00 0.00000E+00
 -1      1581 9.43740E+01 2.18750E+00 0.00000E+00
 -1      1582 9.90120E+01 1.09375E+00 0.00000E+00
 -1      1583 9.75120E+01 1.09375E+00 0.00000E+00
 -1      1584 9.73740E+01 2.18750E+00 0.00000E+00
 -1      1585 1.02012E+02 1.09375E+00 0.00000E+00
 -1      1586 1.00512E+02 1.09375E+00 0.00000E+00
 -1      1587 1.00374E+02 2.18750E+00 0.00000E+00
 -1      1588 1.05012E+02 1.09375E+00 0.00000E+00
 -1      1589 1.03512E+02 1.09375E+00 0.00000E+00
 -1      1590 1.03374E+02 2.18750E+00 0.00000E+00
 -1      1591 1.08012E+02 1.09375E+00 0.00000E+00
 -1      1592 1.06512E+02 1.09375E+00 0.00000E+00
 -1      1593 1.06374E+02 2.18750E+00 0.00000E+00
 -1      1594 1.11012E+02 1.09375E+00 0.00000E+00
 -1      1595 1.09512E+02 1.09375E+00 0.00000E+00
 -1      1596 1.09374E+02 2.18750E+00 0.00000E+00
 -1      1597 1.14012E+02 1.09375E+00 0.00000E+00
 -1      1598 1.12512E+02 1.09375E+00 0.00000E+00
 -1      1599 1.12374E+02 2.18750E+00 0.00000E+00
 -1      1600 1.17012E+02 1.09375E+00 0.00000E+00
 -1      1601 1.15512E+02 1.09375E+00 0.00000E+00
 -1      1602 1.15374E+02 2.18750E+00 0.00000E+00
 -1      1603 1.20012E+02 1.09375E+00 0.00000E+00
 -1      1604 1.18512E+02 1.09375E+00 0.00000E+00
 -1      1605 1.18374E+02 2.18750E+00 0.00000E+00
 -1      1606 1.23012E+02 1.09375E+00 0.00000E+00
 -1      1607 1.21512E+02 1.09375E+00 0.00000E+00
 -1      1608 1.21374E+02 2.18750E+00 0.00000E+00
 -1      1609 1.26012E+02 1.09375E+00 0.00000E+00
 -1      1610 1.24512E+02 1.09375E+00 0.00000E+00
 -1      1611 1.24374E+02 2.18750E+00 0.00000E+00
 -1      1612 1.29012E+02 1.09375E+00 0.00000E+00
 -1      1613 1.27512E+02 1.09375E+00 0.00000E+00
 -1      1614 1.27374E+02 2.18750E+00 0.00000E+00
 -1      1615 1.32012E+02 1.09375E+00 0.00000E+00
 -1      1616 1.30512E+02 1.09375E+00 0.00000E+00
 -1      1617 1.30374E+02 2.18750E+00 0.00000E+00
 -1      1618 1.35012E+02 1.09375E+00 0.00000E+00
 -1      1619 1.33512E+02 1.09375E+00 0.00000E+00
 -1      1620 1.33374E+02 2.18750E+00 0.00000E+00
 -1      1621 1.38012E+02 1.09375E+00 0.00000E+00
 -1      1622 1.36512E+02 1.09375E+00 0.00000E+00
 -1      1623 1.36374E+02 2.18750E+00 0.00000E+00
 -1      1624 1.41012E+02 1.09375E+00 0.00000E+00
 -1      1625 1.39512E+02 1.09375E+00 0.00000E+00
 -1      1626 1.39374E+02 2.18750E+00 0.00000E+00
 -1      1627 1.44012E+02 1.09375E+00 0.00000E+00
 -1      1628 1.42512E+02 1.09375E+00 0.00000E+00
 -1      1629 1.42374E+02 2.18750E+00 0.00000E+00
 -1      1630 1.47012E+02 1.09375E+00 0.00000E+00
 -1      1631 1.45512E+02 1.09375E+00 0.00000E+00
 -1      1632 1.45374E+02 2.18750E+00 0.00000E+00
 -1      1633 1.48575E+02 1.47500E+00 0.00000E+00
 -1      1634 1.48701E+02 5.16250E+00 0.00000E+00
 -1      1635 1.48701E+02 3.68750E+00 0.00000E+00
 -1      1636 1.48701E+02 8.11250E+00 0.00000E+00
 -1      1637 1.48701E+02 6.63750E+00 0.00000E+00
 -1      1638 1.47402E+02 5.90000E+00 0.00000E+00
 -1      1639 1.48701E+02 1.10625E+01 0.00000E+00
 -1      1640 1.48701E+02 9.58750E+00 0.00000E+00
 -1      1641 1.47402E+02 8.85000E+00 0.00000E+00
 -1      1642 1.48701E+02 1.40125E+01 0.00000E+00
 -1      1643 1.48701E+02 1.25375E+01 0.00000E+00
 -1      1644 1.47402E+02 1.18000E+01 0.00000E+00
 -1      1645 1.48701E+02 1.69125E+01 0.00000E+00
 -1      1646 1.48701E+02 1.54625E+01 0.00000E+00
 -1      1647 1.47402E+02 1.47250E+01 0.00000E+00
 -1      1648 1.48701E+02 1.98625E+01 0.00000E+00
 -1      1649 1.48701E+02 1.83875E+01 0.00000E+00
 -1      1650 1.47402E+02 1.76500E+01 0.00000E+00
 -1      1651 1.48701E+02 2.28125E+01 0.00000E+00
 -1      1652 1.48701E+02 2.13375E+01 0.00000E+00
 -1      1653 1.47402E+02 2.06000E+01 0.00000E+00
 -1      1654 1.48701E+02 2.57625E+01 0.00000E+00
 -1      1655 1.48701E+02 2.42875E+01 0.00000E+00
 -1      1656 1.47402E+02 2.35500E+01 0.00000E+00
 -1      1657 1.48701E+02 2.87125E+01 0.00000E+00
 -1      1658 1.48701E+02 2.72375E+01 0.00000E+00
 -1      1659 1.47402E+02 2.65000E+01 0.00000E+00
 -1      1660 1.48701E+02 3.16625E+01 0.00000E+00
 -1      1661 1.48701E+02 3.01875E+01 0.00000E+00
 -1      1662 1.47402E+02 2.94500E+01 0.00000E+00
 -1      1663 1.48701E+02 3.45625E+01 0.00000E+00
 -1      1664 1.48701E+02 3.31125E+01 0.00000E+00
 -1      1665 1.47402E+02 3.23750E+01 0.00000E+00
 -1      1666 1.48701E+02 3.75125E+01 0.00000E+00
 -1      1667 1.48701E+02 3.60375E+01 0.00000E+00
 -1      1668 1.47402E+02 3.53000E+01 0.00000E+00
 -1      1669 1.48701E+02 4.04625E+01 0.00000E+00
 -1      1670 1.48701E+02 3.89875E+01 0.00000E+00
 -1      1671 1.47402E+02 3.82500E+01 0.00000E+00
 -1      1672 1.48701E+02 4.34125E+01 0.00000E+00
 -1      1673 1.48701E+02 4.19375E+01 0.00000E+00
 -1      1674 1.47402E+02 4.12000E+01 0.00000E+00
 -1      1675 1.48263E+02 4.60692E+01 0.00000E+00
 -1      1676 1.48263E+02 4.45942E+01 0.00000E+00
 -1      1677 1.46964E+02 4.38568E+01 0.00000E+00
 -1      1678 1.46088E+02 4.62202E+01 0.00000E+00
 -1      1679 1.00716E+02 2.74712E+01 0.00000E+00
 -1      1680 1.00795E+02 2.82076E+01 0.00000E+00
 -1      1681 1.00342E+02 2.59074E+01 0.00000E+00
 -1      1682 1.00574E+02 2.66120E+01 0.00000E+00
 -1      1683 9.96207E+01 2.44899E+01 0.00000E+00
 -1      1684 9.99869E+01 2.51174E+01 0.00000E+00
 -1      1685 9.85704E+01 2.30997E+01 0.00000E+00
 -1      1686 9.91323E+01 2.37025E+01 0.00000E+00
 -1      1687 9.71971E+01 2.21835E+01 0.00000E+00
 -1      1688 9.77962E+01 2.25923E+01 0.00000E+00
 -1      1689 9.57165E+01 2.13557E+01 0.00000E+00
 -1      1690 9.64574E+01 2.16522E+01 0.00000E+00
 -1      1691 9.40789E+01 2.11113E+01 0.00000E+00
 -1      1692 9.48072E+01 2.12295E+01 0.00000E+00
 -1      1693 9.24324E+01 2.10242E+01 0.00000E+00
 -1      1694 9.31976E+01 2.09825E+01 0.00000E+00
 -1      1695 9.08242E+01 2.14584E+01 0.00000E+00
 -1      1696 9.15573E+01 2.12530E+01 0.00000E+00
 -1      1697 8.93637E+01 2.21250E+01 0.00000E+00
 -1      1698 9.00128E+01 2.17811E+01 0.00000E+00
 -1      1699 8.79962E+01 2.30518E+01 0.00000E+00
 -1      1700 8.85835E+01 2.25546E+01 0.00000E+00
 -1      1701 8.70239E+01 2.42915E+01 0.00000E+00
 -1      1702 8.74537E+01 2.37349E+01 0.00000E+00
 -1      1703 8.62737E+01 2.56367E+01 0.00000E+00
 -1      1704 8.65874E+01 2.49949E+01 0.00000E+00
 -1      1705 8.57566E+01 2.71804E+01 0.00000E+00
 -1      1706 8.59405E+01 2.64387E+01 0.00000E+00
 -1      1707 8.55295E+01 2.87707E+01 0.00000E+00
 -1      1708 8.55512E+01 2.80471E+01 0.00000E+00
 -1      1709 8.57095E+01 3.04616E+01 0.00000E+00
 -1      1710 8.55630E+01 2.96858E+01 0.00000E+00
 -1      1711 8.63982E+01 3.19182E+01 0.00000E+00
 -1      1712 8.61227E+01 3.12676E+01 0.00000E+00
 -1      1713 8.71807E+01 3.33345E+01 0.00000E+00
 -1      1714 8.67461E+01 3.27131E+01 0.00000E+00
 -1      1715 8.82550E+01 3.45726E+01 0.00000E+00
 -1      1716 8.77106E+01 3.40696E+01 0.00000E+00
 -1      1717 8.97083E+01 3.53924E+01 0.00000E+00
 -1      1718 8.90522E+01 3.50072E+01 0.00000E+00
 -1      1719 9.12328E+01 3.61181E+01 0.00000E+00
 -1      1720 9.04960E+01 3.58811E+01 0.00000E+00
 -1      1721 9.28919E+01 3.62081E+01 0.00000E+00
 -1      1722 9.21515E+01 3.61383E+01 0.00000E+00
 -1      1723 9.45321E+01 3.61441E+01 0.00000E+00
 -1      1724 9.37757E+01 3.62365E+01 0.00000E+00
 -1      1725 9.61226E+01 3.56398E+01 0.00000E+00
 -1      1726 9.53971E+01 3.58972E+01 0.00000E+00
 -1      1727 9.75951E+01 3.48289E+01 0.00000E+00
 -1      1728 9.69358E+01 3.52447E+01 0.00000E+00
 -1      1729 9.88338E+01 3.37377E+01 0.00000E+00
 -1      1730 9.82971E+01 3.42713E+01 0.00000E+00
 -1      1731 9.99107E+01 3.23758E+01 0.00000E+00
 -1      1732 9.94756E+01 3.30649E+01 0.00000E+00
 -1      1733 1.00495E+02 3.07882E+01 0.00000E+00
 -1      1734 1.00243E+02 3.15053E+01 0.00000E+00
 -1      1735 1.00829E+02 2.91112E+01 0.00000E+00
 -1      1736 1.00738E+02 2.99056E+01 0.00000E+00
 -1      1737 9.86125E+01 2.23946E+01 0.00000E+00
 -1      1738 9.98752E+01 2.36895E+01 0.00000E+00
 -1      1739 1.48437E+02 2.56875E+00 0.00000E+00
 -1      1740 1.47138E+02 3.30625E+00 0.00000E+00
 -1      1741 1.01216E+02 2.69161E+01 0.00000E+00
 -1      1742 1.00719E+02 2.52669E+01 0.00000E+00
 -1      1743 1.01393E+02 2.86789E+01 0.00000E+00
 -1      1744 9.70986E+01 2.13558E+01 0.00000E+00
 -1      1745 9.54495E+01 2.06982E+01 0.00000E+00
 -1      1746 9.36588E+01 2.04432E+01 0.00000E+00
 -1      1747 9.19024E+01 2.05432E+01 0.00000E+00
 -1      1748 9.02158E+01 2.10947E+01 0.00000E+00
 -1      1749 8.86242E+01 2.18470E+01 0.00000E+00
 -1      1750 8.73015E+01 2.29596E+01 0.00000E+00
 -1      1751 8.63224E+01 2.43462E+01 0.00000E+00
 -1      1752 8.55527E+01 2.58516E+01 0.00000E+00
 -1      1753 8.50141E+01 2.75202E+01 0.00000E+00
 -1      1754 8.48424E+01 2.93021E+01 0.00000E+00
 -1      1755 8.52891E+01 3.10233E+01 0.00000E+00
 -1      1756 8.60501E+01 3.26243E+01 0.00000E+00
 -1      1757 8.69278E+01 3.41544E+01 0.00000E+00
 -1      1758 8.82550E+01 3.53241E+01 0.00000E+00
 -1      1759 8.98399E+01 3.62474E+01 0.00000E+00
 -1      1760 9.15462E+01 3.67565E+01 0.00000E+00
 -1      1761 9.33487E+01 3.68052E+01 0.00000E+00
 -1      1762 9.50975E+01 3.65867E+01 0.00000E+00
 -1      1763 9.67757E+01 3.59447E+01 0.00000E+00
 -1      1764 9.82908E+01 3.49919E+01 0.00000E+00
 -1      1765 9.96347E+01 3.37615E+01 0.00000E+00
 -1      1766 1.00609E+02 3.22182E+01 0.00000E+00
 -1      1767 1.01184E+02 3.04650E+01 0.00000E+00
 -1      1768 2.87400E+00 4.77875E+01 0.00000E+00
 -1      1769 3.89700E+00 4.04125E+01 0.00000E+00
 -1      1770 3.89700E+00 4.18875E+01 0.00000E+00
 -1      1771 3.89700E+00 4.33625E+01 0.00000E+00
 -1      1772 3.89700E+00 4.48375E+01 0.00000E+00
 -1      1773 5.19600E+00 4.26250E+01 0.00000E+00
 -1      1774 3.89700E+00 3.45500E+01 0.00000E+00
 -1      1775 3.89700E+00 3.60000E+01 0.00000E+00
 -1      1776 3.89700E+00 3.16000E+01 0.00000E+00
 -1      1777 3.89700E+00 3.30750E+01 0.00000E+00
 -1      1778 5.19600E+00 3.38000E+01 0.00000E+00
 -1      1779 3.89700E+00 2.86500E+01 0.00000E+00
 -1      1780 3.89700E+00 3.01250E+01 0.00000E+00
 -1      1781 5.19600E+00 3.08500E+01 0.00000E+00
 -1      1782 3.89700E+00 2.57000E+01 0.00000E+00
 -1      1783 3.89700E+00 2.71750E+01 0.00000E+00
 -1      1784 5.19600E+00 2.79000E+01 0.00000E+00
 -1      1785 3.89700E+00 2.27500E+01 0.00000E+00
 -1      1786 3.89700E+00 2.42250E+01 0.00000E+00
 -1      1787 5.19600E+00 2.49500E+01 0.00000E+00
 -1      1788 3.89700E+00 1.98000E+01 0.00000E+00
 -1      1789 3.89700E+00 2.12750E+01 0.00000E+00
 -1      1790 5.19600E+00 2.20000E+01 0.00000E+00
 -1      1791 3.89700E+00 1.69000E+01 0.00000E+00
 -1      1792 3.89700E+00 1.83500E+01 0.00000E+00
 -1      1793 5.19600E+00 1.90750E+01 0.00000E+00
 -1      1794 3.89700E+00 1.39500E+01 0.00000E+00
 -1      1795 3.89700E+00 1.54250E+01 0.00000E+00
 -1      1796 5.19600E+00 1.61500E+01 0.00000E+00
 -1      1797 3.89700E+00 1.10000E+01 0.00000E+00
 -1      1798 3.89700E+00 1.24750E+01 0.00000E+00
 -1      1799 5.19600E+00 1.32000E+01 0.00000E+00
 -1      1800 3.89700E+00 8.05000E+00 0.00000E+00
 -1      1801 3.89700E+00 9.52500E+00 0.00000E+00
 -1      1802 5.19600E+00 1.02500E+01 0.00000E+00
 -1      1803 3.89700E+00 5.10000E+00 0.00000E+00
 -1      1804 3.89700E+00 6.57500E+00 0.00000E+00
 -1      1805 5.19600E+00 7.30000E+00 0.00000E+00
 -1      1806 4.20450E+00 3.09687E+00 0.00000E+00
 -1      1807 4.06650E+00 4.19063E+00 0.00000E+00
 -1      1808 5.36550E+00 4.91563E+00 0.00000E+00
 -1      1809 5.70450E+00 3.09687E+00 0.00000E+00
 -1      1810 3.62400E+00 4.64885E+01 0.00000E+00
 -1      1811 8.70450E+00 3.09687E+00 0.00000E+00
 -1      1812 7.20450E+00 3.09687E+00 0.00000E+00
 -1      1813 7.03500E+00 4.00625E+00 0.00000E+00
 -1      1814 4.92300E+00 4.57510E+01 0.00000E+00
 -1      1815 8.40000E+00 4.61030E+01 0.00000E+00
 -1      1816 9.90000E+00 4.61030E+01 0.00000E+00
 -1      1817 1.14000E+01 4.61030E+01 0.00000E+00
 -1      1818 1.29000E+01 4.61030E+01 0.00000E+00
 -1      1819 1.06500E+01 4.48040E+01 0.00000E+00
 -1      1820 1.44000E+01 4.61030E+01 0.00000E+00
 -1      1821 1.59000E+01 4.61030E+01 0.00000E+00
 -1      1822 1.36500E+01 4.48040E+01 0.00000E+00
 -1      1823 1.74000E+01 4.61030E+01 0.00000E+00
 -1      1824 1.89000E+01 4.61030E+01 0.00000E+00
 -1      1825 1.66500E+01 4.48040E+01 0.00000E+00
 -1      1826 2.04000E+01 4.61030E+01 0.00000E+00
 -1      1827 2.19000E+01 4.61030E+01 0.00000E+00
 -1      1828 1.96500E+01 4.48040E+01 0.00000E+00
 -1      1829 2.34000E+01 4.61030E+01 0.00000E+00
 -1      1830 2.49000E+01 4.61030E+01 0.00000E+00
 -1      1831 2.26500E+01 4.48040E+01 0.00000E+00
 -1      1832 2.64000E+01 4.61030E+01 0.00000E+00
 -1      1833 2.79000E+01 4.61030E+01 0.00000E+00
 -1      1834 2.56500E+01 4.48040E+01 0.00000E+00
 -1      1835 2.94000E+01 4.61030E+01 0.00000E+00
 -1      1836 3.09000E+01 4.61030E+01 0.00000E+00
 -1      1837 2.86500E+01 4.48040E+01 0.00000E+00
 -1      1838 3.24000E+01 4.61030E+01 0.00000E+00
 -1      1839 3.39000E+01 4.61030E+01 0.00000E+00
 -1      1840 3.16500E+01 4.48040E+01 0.00000E+00
 -1      1841 3.54000E+01 4.61030E+01 0.00000E+00
 -1      1842 3.69000E+01 4.61030E+01 0.00000E+00
 -1      1843 3.46500E+01 4.48040E+01 0.00000E+00
 -1      1844 3.84000E+01 4.61030E+01 0.00000E+00
 -1      1845 3.99000E+01 4.61030E+01 0.00000E+00
 -1      1846 3.76500E+01 4.48040E+01 0.00000E+00
 -1      1847 4.14000E+01 4.61030E+01 0.00000E+00
 -1      1848 4.29000E+01 4.61030E+01 0.00000E+00
 -1      1849 4.06500E+01 4.48040E+01 0.00000E+00
 -1      1850 4.44000E+01 4.61030E+01 0.00000E+00
 -1      1851 4.59000E+01 4.61030E+01 0.00000E+00
 -1      1852 4.36500E+01 4.48040E+01 0.00000E+00
 -1      1853 4.74000E+01 4.61030E+01 0.00000E+00
 -1      1854 4.89000E+01 4.61030E+01 0.00000E+00
 -1      1855 4.66500E+01 4.48040E+01 0.00000E+00
 -1      1856 5.04000E+01 4.61030E+01 0.00000E+00
 -1      1857 5.19000E+01 4.61030E+01 0.00000E+00
 -1      1858 4.96500E+01 4.48040E+01 0.00000E+00
 -1      1859 5.34000E+01 4.61030E+01 0.00000E+00
 -1      1860 5.49000E+01 4.61030E+01 0.00000E+00
 -1      1861 5.26500E+01 4.48040E+01 0.00000E+00
 -1      1862 5.64000E+01 4.61030E+01 0.00000E+00
 -1      1863 5.79000E+01 4.61030E+01 0.00000E+00
 -1      1864 5.56500E+01 4.48040E+01 0.00000E+00
 -1      1865 5.94000E+01 4.61030E+01 0.00000E+00
 -1      1866 6.09000E+01 4.61030E+01 0.00000E+00
 -1      1867 5.86500E+01 4.48040E+01 0.00000E+00
 -1      1868 6.24000E+01 4.61030E+01 0.00000E+00
 -1      1869 6.39000E+01 4.61030E+01 0.00000E+00
 -1      1870 6.16500E+01 4.48040E+01 0.00000E+00
 -1      1871 6.54000E+01 4.61030E+01 0.00000E+00
 -1      1872 6.69000E+01 4.61030E+01 0.00000E+00
 -1      1873 6.46500E+01 4.48040E+01 0.00000E+00
 -1      1874 6.84000E+01 4.61030E+01 0.00000E+00
 -1      1875 6.99000E+01 4.61030E+01 0.00000E+00
 -1      1876 6.76500E+01 4.48040E+01 0.00000E+00
 -1      1877 7.14000E+01 4.61030E+01 0.00000E+00
 -1      1878 7.29000E+01 4.61030E+01 0.00000E+00
 -1      1879 7.06500E+01 4.48040E+01 0.00000E+00
 -1      1880 7.44000E+01 4.61030E+01 0.00000E+00
 -1      1881 7.59000E+01 4.61030E+01 0.00000E+00
 -1      1882 7.36500E+01 4.48040E+01 0.00000E+00
 -1      1883 7.74000E+01 4.61030E+01 0.00000E+00
 -1      1884 7.89000E+01 4.61030E+01 0.00000E+00
 -1      1885 7.66500E+01 4.48040E+01 0.00000E+00
 -1      1886 8.04000E+01 4.61030E+01 0.00000E+00
 -1      1887 8.19000E+01 4.61030E+01 0.00000E+00
 -1      1888 7.96500E+01 4.48040E+01 0.00000E+00
 -1      1889 8.34000E+01 4.61030E+01 0.00000E+00
 -1      1890 8.49000E+01 4.61030E+01 0.00000E+00
 -1      1891 8.26500E+01 4.48040E+01 0.00000E+00
 -1      1892 8.64000E+01 4.61030E+01 0.00000E+00
 -1      1893 8.79000E+01 4.61030E+01 0.00000E+00
 -1      1894 8.56500E+01 4.48040E+01 0.00000E+00
 -1      1895 8.94000E+01 4.61030E+01 0.00000E+00
 -1      1896 9.09000E+01 4.61030E+01 0.00000E+00
 -1      1897 8.86500E+01 4.48040E+01 0.00000E+00
 -1      1898 9.24000E+01 4.61030E+01 0.00000E+00
 -1      1899 9.39000E+01 4.61030E+01 0.00000E+00
 -1      1900 9.16500E+01 4.48040E+01 0.00000E+00
 -1      1901 9.54000E+01 4.61030E+01 0.00000E+00
 -1      1902 9.69000E+01 4.61030E+01 0.00000E+00
 -1      1903 9.46500E+01 4.48040E+01 0.00000E+00
 -1      1904 9.84000E+01 4.61030E+01 0.00000E+00
 -1      1905 9.99000E+01 4.61030E+01 0.00000E+00
 -1      1906 9.76500E+01 4.48040E+01 0.00000E+00
 -1      1907 1.01400E+02 4.61030E+01 0.00000E+00
 -1      1908 1.02900E+02 4.61030E+01 0.00000E+00
 -1      1909 1.00650E+02 4.48040E+01 0.00000E+00
 -1      1910 1.04400E+02 4.61030E+01 0.00000E+00
 -1      1911 1.05900E+02 4.61030E+01 0.00000E+00
 -1      1912 1.03650E+02 4.48040E+01 0.00000E+00
 -1      1913 1.07400E+02 4.61030E+01 0.00000E+00
 -1      1914 1.08900E+02 4.61030E+01 0.00000E+00
 -1      1915 1.06650E+02 4.48040E+01 0.00000E+00
 -1      1916 1.10400E+02 4.61030E+01 0.00000E+00
 -1      1917 1.11900E+02 4.61030E+01 0.00000E+00
 -1      1918 1.09650E+02 4.48040E+01 0.00000E+00
 -1      1919 1.13400E+02 4.61030E+01 0.00000E+00
 -1      1920 1.14900E+02 4.61030E+01 0.00000E+00
 -1      1921 1.12650E+02 4.48040E+01 0.00000E+00
 -1      1922 1.16400E+02 4.61030E+01 0.00000E+00
 -1      1923 1.17900E+02 4.61030E+01 0.00000E+00
 -1      1924 1.15650E+02 4.48040E+01 0.00000E+00
 -1      1925 1.19400E+02 4.61030E+01 0.00000E+00
 -1      1926 1.20900E+02 4.61030E+01 0.00000E+00
 -1      1927 1.18650E+02 4.48040E+01 0.00000E+00
 -1      1928 1.22400E+02 4.61030E+01 0.00000E+00
 -1      1929 1.23900E+02 4.61030E+01 0.00000E+00
 -1      1930 1.21650E+02 4.48040E+01 0.00000E+00
 -1      1931 1.25400E+02 4.61030E+01 0.00000E+00
 -1      1932 1.26900E+02 4.61030E+01 0.00000E+00
 -1      1933 1.24650E+02 4.48040E+01 0.00000E+00
 -1      1934 1.28400E+02 4.61030E+01 0.00000E+00
 -1      1935 1.29900E+02 4.61030E+01 0.00000E+00
 -1      1936 1.27650E+02 4.48040E+01 0.00000E+00
 -1      1937 1.31400E+02 4.61030E+01 0.00000E+00
 -1      1938 1.32900E+02 4.61030E+01 0.00000E+00
 -1      1939 1.30650E+02 4.48040E+01 0.00000E+00
 -1      1940 1.34400E+02 4.61030E+01 0.00000E+00
 -1      1941 1.35900E+02 4.61030E+01 0.00000E+00
 -1      1942 1.33650E+02 4.48040E+01 0.00000E+00
 -1      1943 1.37400E+02 4.61030E+01 0.00000E+00
 -1      1944 1.38900E+02 4.61030E+01 0.00000E+00
 -1      1945 1.36650E+02 4.48040E+01 0.00000E+00
 -1      1946 1.40400E+02 4.61030E+01 0.00000E+00
 -1      1947 1.41900E+02 4.61030E+01 0.00000E+00
 -1      1948 1.39650E+02 4.48040E+01 0.00000E+00
 -1      1949 1.43244E+02 4.61616E+01 0.00000E+00
 -1      1950 1.44744E+02 4.61616E+01 0.00000E+00
 -1      1951 1.45182E+02 4.49799E+01 0.00000E+00
 -1      1952 1.42494E+02 4.48626E+01 0.00000E+00
 -1      1953 1.17045E+01 3.09687E+00 0.00000E+00
 -1      1954 1.02045E+01 3.09687E+00 0.00000E+00
 -1      1955 1.00350E+01 4.00625E+00 0.00000E+00
 -1      1956 1.47045E+01 3.09687E+00 0.00000E+00
 -1      1957 1.32045E+01 3.09687E+00 0.00000E+00
 -1      1958 1.30350E+01 4.00625E+00 0.00000E+00
 -1      1959 1.77045E+01 3.09687E+00 0.00000E+00
 -1      1960 1.62045E+01 3.09687E+00 0.00000E+00
 -1      1961 1.60350E+01 4.00625E+00 0.00000E+00
 -1      1962 2.07045E+01 3.09687E+00 0.00000E+00
 -1      1963 1.92045E+01 3.09687E+00 0.00000E+00
 -1      1964 1.90350E+01 4.00625E+00 0.00000E+00
 -1      1965 2.37045E+01 3.09687E+00 0.00000E+00
 -1      1966 2.22045E+01 3.09687E+00 0.00000E+00
 -1      1967 2.20350E+01 4.00625E+00 0.00000E+00
 -1      1968 2.67045E+01 3.09687E+00 0.00000E+00
 -1      1969 2.52045E+01 3.09687E+00 0.00000E+00
 -1      1970 2.50350E+01 4.00625E+00 0.00000E+00
 -1      1971 2.97045E+01 3.09687E+00 0.00000E+00
 -1      1972 2.82045E+01 3.09687E+00 0.00000E+00
 -1      1973 2.80350E+01 4.00625E+00 0.00000E+00
 -1      1974 3.27045E+01 3.09687E+00 0.00000E+00
 -1      1975 3.12045E+01 3.09687E+00 0.00000E+00
 -1      1976 3.10350E+01 4.00625E+00 0.00000E+00
 -1      1977 3.57045E+01 3.09687E+00 0.00000E+00
 -1      1978 3.42045E+01 3.09687E+00 0.00000E+00
 -1      1979 3.40350E+01 4.00625E+00 0.00000E+00
 -1      1980 3.87045E+01 3.09687E+00 0.00000E+00
 -1      1981 3.72045E+01 3.09687E+00 0.00000E+00
 -1      1982 3.70350E+01 4.00625E+00 0.00000E+00
 -1      1983 4.17045E+01 3.09687E+00 0.00000E+00
 -1      1984 4.02045E+01 3.09687E+00 0.00000E+00
 -1      1985 4.00350E+01 4.00625E+00 0.00000E+00
 -1      1986 4.47045E+01 3.09687E+00 0.00000E+00
 -1      1987 4.32045E+01 3.09687E+00 0.00000E+00
 -1      1988 4.30350E+01 4.00625E+00 0.00000E+00
 -1      1989 4.77045E+01 3.09687E+00 0.00000E+00
 -1      1990 4.62045E+01 3.09687E+00 0.00000E+00
 -1      1991 4.60350E+01 4.00625E+00 0.00000E+00
 -1      1992 5.07045E+01 3.09687E+00 0.00000E+00
 -1      1993 4.92045E+01 3.09687E+00 0.00000E+00
 -1      1994 4.90350E+01 4.00625E+00 0.00000E+00
 -1      1995 5.37045E+01 3.09687E+00 0.00000E+00
 -1      1996 5.22045E+01 3.09687E+00 0.00000E+00
 -1      1997 5.20350E+01 4.00625E+00 0.00000E+00
 -1      1998 5.67045E+01 3.09687E+00 0.00000E+00
 -1      1999 5.52045E+01 3.09687E+00 0.00000E+00
 -1      2000 5.50350E+01 4.00625E+00 0.00000E+00
 -1      2001 5.97045E+01 3.09687E+00 0.00000E+00
 -1      2002 5.82045E+01 3.09687E+00 0.00000E+00
 -1      2003 5.80350E+01 4.00625E+00 0.00000E+00
 -1      2004 6.27045E+01 3.09687E+00 0.00000E+00
 -1      2005 6.12045E+01 3.09687E+00 0.00000E+00
 -1      2006 6.10350E+01 4.00625E+00 0.00000E+00
 -1      2007 6.57045E+01 3.09687E+00 0.00000E+00
 -1      2008 6.42045E+01 3.09687E+00 0.00000E+00
 -1      2009 6.40350E+01 4.00625E+00 0.00000E+00
 -1      2010 6.87045E+01 3.09687E+00 0.00000E+00
 -1      2011 6.72045E+01 3.09687E+00 0.00000E+00
 -1      2012 6.70350E+01 4.00625E+00 0.00000E+00
 -1      2013 7.17045E+01 3.09687E+00 0.00000E+00
 -1      2014 7.02045E+01 3.09687E+00 0.00000E+00
 -1      2015 7.00350E+01 4.00625E+00 0.00000E+00
 -1      2016 7.47045E+01 3.09687E+00 0.00000E+00
 -1      2017 7.32045E+01 3.09687E+00 0.00000E+00
 -1      2018 7.30350E+01 4.00625E+00 0.00000E+00
 -1      2019 7.77045E+01 3.09687E+00 0.00000E+00
 -1      2020 7.62045E+01 3.09687E+00 0.00000E+00
 -1      2021 7.60350E+01 4.00625E+00 0.00000E+00
 -1      2022 8.07045E+01 3.09687E+00 0.00000E+00
 -1      2023 7.92045E+01 3.09687E+00 0.00000E+00
 -1      2024 7.90350E+01 4.00625E+00 0.00000E+00
 -1      2025 8.37045E+01 3.09687E+00 0.00000E+00
 -1      2026 8.22045E+01 3.09687E+00 0.00000E+00
 -1      2027 8.20350E+01 4.00625E+00 0.00000E+00
 -1      2028 8.67045E+01 3.09687E+00 0.00000E+00
 -1      2029 8.52045E+01 3.09687E+00 0.00000E+00
 -1      2030 8.50350E+01 4.00625E+00 0.00000E+00
 -1      2031 8.97045E+01 3.09687E+00 0.00000E+00
 -1      2032 8.82045E+01 3.09687E+00 0.00000E+00
 -1      2033 8.80350E+01 4.00625E+00 0.00000E+00
 -1      2034 9.27045E+01 3.09687E+00 0.00000E+00
 -1      2035 9.12045E+01 3.09687E+00 0.00000E+00
 -1      2036 9.10350E+01 4.00625E+00 0.00000E+00
 -1      2037 9.57045E+01 3.09687E+00 0.00000E+00
 -1      2038 9.42045E+01 3.09687E+00 0.00000E+00
 -1      2039 9.40350E+01 4.00625E+00 0.00000E+00
 -1      2040 9.87045E+01 3.09687E+00 0.00000E+00
 -1      2041 9.72045E+01 3.09687E+00 0.00000E+00
 -1      2042 9.70350E+01 4.00625E+00 0.00000E+00
 -1      2043 1.01704E+02 3.09687E+00 0.00000E+00
 -1      2044 1.00204E+02 3.09687E+00 0.00000E+00
 -1      2045 1.00035E+02 4.00625E+00 0.00000E+00
 -1      2046 1.04704E+02 3.09687E+00 0.00000E+00
 -1      2047 1.03204E+02 3.09687E+00 0.00000E+00
 -1      2048 1.03035E+02 4.00625E+00 0.00000E+00
 -1      2049 1.07704E+02 3.09687E+00 0.00000E+00
 -1      2050 1.06204E+02 3.09687E+00 0.00000E+00
 -1      2051 1.06035E+02 4.00625E+00 0.00000E+00
 -1      2052 1.10704E+02 3.09687E+00 0.00000E+00
 -1      2053 1.09204E+02 3.09687E+00 0.00000E+00
 -1      2054 1.09035E+02 4.00625E+00 0.00000E+00
 -1      2055 1.13704E+02 3.09687E+00 0.00000E+00
 -1      2056 1.12204E+02 3.09687E+00 0.00000E+00
 -1      2057 1.12035E+02 4.00625E+00 0.00000E+00
 -1      2058 1.16704E+02 3.09687E+00 0.00000E+00
 -1      2059 1.15204E+02 3.09687E+00 0.00000E+00
 -1      2060 1.15035E+02 4.00625E+00 0.00000E+00
 -1      2061 1.19704E+02 3.09687E+00 0.00000E+00
 -1      2062 1.18204E+02 3.09687E+00 0.00000E+00
 -1      2063 1.18035E+02 4.00625E+00 0.00000E+00
 -1      2064 1.22704E+02 3.09687E+00 0.00000E+00
 -1      2065 1.21204E+02 3.09687E+00 0.00000E+00
 -1      2066 1.21035E+02 4.00625E+00 0.00000E+00
 -1      2067 1.25704E+02 3.09687E+00 0.00000E+00
 -1      2068 1.24204E+02 3.09687E+00 0.00000E+00
 -1      2069 1.24035E+02 4.00625E+00 0.00000E+00
 -1      2070 1.28704E+02 3.09687E+00 0.00000E+00
 -1      2071 1.27204E+02 3.09687E+00 0.00000E+00
 -1      2072 1.27035E+02 4.00625E+00 0.00000E+00
 -1      2073 1.31704E+02 3.09687E+00 0.00000E+00
 -1      2074 1.30204E+02 3.09687E+00 0.00000E+00
 -1      2075 1.30035E+02 4.00625E+00 0.00000E+00
 -1      2076 1.34704E+02 3.09687E+00 0.00000E+00
 -1      2077 1.33204E+02 3.09687E+00 0.00000E+00
 -1      2078 1.33035E+02 4.00625E+00 0.00000E+00
 -1      2079 1.37704E+02 3.09687E+00 0.00000E+00
 -1      2080 1.36204E+02 3.09687E+00 0.00000E+00
 -1      2081 1.36035E+02 4.00625E+00 0.00000E+00
 -1      2082 1.40704E+02 3.09687E+00 0.00000E+00
 -1      2083 1.39204E+02 3.09687E+00 0.00000E+00
 -1      2084 1.39035E+02 4.00625E+00 0.00000E+00
 -1      2085 1.43704E+02 3.09687E+00 0.00000E+00
 -1      2086 1.42204E+02 3.09687E+00 0.00000E+00
 -1      2087 1.42035E+02 4.00625E+00 0.00000E+00
 -1      2088 1.46171E+02 3.20156E+00 0.00000E+00
 -1      2089 1.44671E+02 3.20156E+00 0.00000E+00
 -1      2090 1.44502E+02 4.11094E+00 0.00000E+00
 -1      2091 1.46435E+02 4.32031E+00 0.00000E+00
 -1      2092 1.46103E+02 1.25375E+01 0.00000E+00
 -1      2093 1.46103E+02 1.10625E+01 0.00000E+00
 -1      2094 1.46103E+02 9.58750E+00 0.00000E+00
 -1      2095 1.46103E+02 8.11250E+00 0.00000E+00
 -1      2096 1.44804E+02 1.03250E+01 0.00000E+00
 -1      2097 1.46269E+02 6.95391E+00 0.00000E+00
 -1      2098 1.46269E+02 5.47891E+00 0.00000E+00
 -1      2099 1.45302E+02 5.37422E+00 0.00000E+00
 -1      2100 1.44970E+02 7.69141E+00 0.00000E+00
 -1      2101 1.46103E+02 1.54375E+01 0.00000E+00
 -1      2102 1.46103E+02 1.39875E+01 0.00000E+00
 -1      2103 1.44804E+02 1.32500E+01 0.00000E+00
 -1      2104 1.46103E+02 1.83875E+01 0.00000E+00
 -1      2105 1.46103E+02 1.69125E+01 0.00000E+00
 -1      2106 1.44804E+02 1.61750E+01 0.00000E+00
 -1      2107 1.46103E+02 2.13375E+01 0.00000E+00
 -1      2108 1.46103E+02 1.98625E+01 0.00000E+00
 -1      2109 1.44804E+02 1.91250E+01 0.00000E+00
 -1      2110 1.46103E+02 2.42875E+01 0.00000E+00
 -1      2111 1.46103E+02 2.28125E+01 0.00000E+00
 -1      2112 1.44804E+02 2.20750E+01 0.00000E+00
 -1      2113 1.46103E+02 2.72375E+01 0.00000E+00
 -1      2114 1.46103E+02 2.57625E+01 0.00000E+00
 -1      2115 1.44804E+02 2.50250E+01 0.00000E+00
 -1      2116 1.46103E+02 3.01875E+01 0.00000E+00
 -1      2117 1.46103E+02 2.87125E+01 0.00000E+00
 -1      2118 1.44804E+02 2.79750E+01 0.00000E+00
 -1      2119 1.46103E+02 3.30875E+01 0.00000E+00
 -1      2120 1.46103E+02 3.16375E+01 0.00000E+00
 -1      2121 1.44804E+02 3.09000E+01 0.00000E+00
 -1      2122 1.46103E+02 3.60375E+01 0.00000E+00
 -1      2123 1.46103E+02 3.45625E+01 0.00000E+00
 -1      2124 1.44804E+02 3.38250E+01 0.00000E+00
 -1      2125 1.46103E+02 3.89875E+01 0.00000E+00
 -1      2126 1.46103E+02 3.75125E+01 0.00000E+00
 -1      2127 1.44804E+02 3.67750E+01 0.00000E+00
 -1      2128 1.46103E+02 4.19375E+01 0.00000E+00
 -1      2129 1.46103E+02 4.04625E+01 0.00000E+00
 -1      2130 1.44804E+02 3.97250E+01 0.00000E+00
 -1      2131 1.01247E+02 2.45548E+01 0.00000E+00
 -1      2132 1.01602E+02 2.53448E+01 0.00000E+00
 -1      2133 1.02065E+02 2.82007E+01 0.00000E+00
 -1      2134 1.02100E+02 2.91043E+01 0.00000E+00
 -1      2135 1.01825E+02 2.63736E+01 0.00000E+00
 -1      2136 1.01968E+02 2.72328E+01 0.00000E+00
 -1      2137 1.00324E+02 2.28659E+01 0.00000E+00
 -1      2138 1.00813E+02 2.36533E+01 0.00000E+00
 -1      2139 9.86496E+01 2.14937E+01 0.00000E+00
 -1      2140 9.94238E+01 2.20012E+01 0.00000E+00
 -1      2141 3.89700E+00 3.74688E+01 0.00000E+00
 -1      2142 3.89700E+00 3.89437E+01 0.00000E+00
 -1      2143 5.19600E+00 3.96813E+01 0.00000E+00
 -1      2144 5.19600E+00 3.67438E+01 0.00000E+00
 -1      2145 9.51012E+01 1.98687E+01 0.00000E+00
 -1      2146 9.60106E+01 1.99949E+01 0.00000E+00
 -1      2147 9.33385E+01 1.96111E+01 0.00000E+00
 -1      2148 9.42198E+01 1.97399E+01 0.00000E+00
 -1      2149 9.47809E+01 1.90366E+01 0.00000E+00
 -1      2150 9.13009E+01 2.00306E+01 0.00000E+00
 -1      2151 9.21760E+01 1.98018E+01 0.00000E+00
 -1      2152 8.95087E+01 2.04981E+01 0.00000E+00
 -1      2153 9.03201E+01 2.01754E+01 0.00000E+00
 -1      2154 8.79013E+01 2.14574E+01 0.00000E+00
 -1      2155 8.86815E+01 2.10278E+01 0.00000E+00
 -1      2156 8.64899E+01 2.28720E+01 0.00000E+00
 -1      2157 8.70325E+01 2.21890E+01 0.00000E+00
 -1      2158 8.55535E+01 2.43562E+01 0.00000E+00
 -1      2159 8.59900E+01 2.36527E+01 0.00000E+00
 -1      2160 8.47102E+01 2.59718E+01 0.00000E+00
 -1      2161 8.50434E+01 2.51698E+01 0.00000E+00
 -1      2162 8.41586E+01 2.77752E+01 0.00000E+00
 -1      2163 8.43639E+01 2.69085E+01 0.00000E+00
 -1      2164 8.40859E+01 2.97880E+01 0.00000E+00
 -1      2165 8.40523E+01 2.88728E+01 0.00000E+00
 -1      2166 8.48817E+01 3.17411E+01 0.00000E+00
 -1      2167 8.44685E+01 3.09350E+01 0.00000E+00
 -1      2168 8.55774E+01 3.33310E+01 0.00000E+00
 -1      2169 8.52295E+01 3.25360E+01 0.00000E+00
 -1      2170 8.44089E+01 3.24477E+01 0.00000E+00
 -1      2171 8.65991E+01 3.49499E+01 0.00000E+00
 -1      2172 8.60692E+01 3.42148E+01 0.00000E+00
 -1      2173 8.83434E+01 3.61104E+01 0.00000E+00
 -1      2174 8.75461E+01 3.56758E+01 0.00000E+00
 -1      2175 8.99187E+01 3.70879E+01 0.00000E+00
 -1      2176 8.91310E+01 3.65992E+01 0.00000E+00
 -1      2177 8.84222E+01 3.69509E+01 0.00000E+00
 -1      2178 9.19894E+01 3.74983E+01 0.00000E+00
 -1      2179 9.10707E+01 3.74781E+01 0.00000E+00
 -1      2180 9.37571E+01 3.75552E+01 0.00000E+00
 -1      2181 9.28732E+01 3.75267E+01 0.00000E+00
 -1      2182 9.23978E+01 3.82483E+01 0.00000E+00
 -1      2183 9.57309E+01 3.71670E+01 0.00000E+00
 -1      2184 9.48659E+01 3.74139E+01 0.00000E+00
 -1      2185 9.74838E+01 3.63677E+01 0.00000E+00
 -1      2186 9.66707E+01 3.67628E+01 0.00000E+00
 -1      2187 9.90971E+01 3.52862E+01 0.00000E+00
 -1      2188 9.83950E+01 3.58438E+01 0.00000E+00
 -1      2189 1.00425E+02 3.38725E+01 0.00000E+00
 -1      2190 9.97828E+01 3.45453E+01 0.00000E+00
 -1      2191 1.01458E+02 3.20437E+01 0.00000E+00
 -1      2192 1.01126E+02 3.29143E+01 0.00000E+00
 -1      2193 1.01945E+02 3.02785E+01 0.00000E+00
 -1      2194 1.01702E+02 3.11611E+01 0.00000E+00
 -1      2195 1.02220E+02 3.18572E+01 0.00000E+00
 -1      2196 9.71702E+01 2.04310E+01 0.00000E+00
 -1      2197 9.79099E+01 2.09624E+01 0.00000E+00
 -1      2198 9.87212E+01 2.05690E+01 0.00000E+00
 -1      2199 1.00361E+02 2.19650E+01 0.00000E+00
 -1      2200 6.42300E+00 4.57510E+01 0.00000E+00
 -1      2201 9.68219E+01 1.96015E+01 0.00000E+00
 -1      2202 7.17300E+00 4.44520E+01 0.00000E+00
 -1      2203 1.02354E+02 2.56615E+01 0.00000E+00
 -1      2204 1.02675E+02 2.76582E+01 0.00000E+00
 -1      2205 1.45665E+02 4.31193E+01 0.00000E+00
 -1      2206 1.01696E+02 2.37311E+01 0.00000E+00
 -1      2207 1.02618E+02 2.98004E+01 0.00000E+00
 -1      2208 1.01274E+02 3.36980E+01 0.00000E+00
 -1      2209 1.01422E+02 3.44818E+01 0.00000E+00
 -1      2210 1.02124E+02 3.35235E+01 0.00000E+00
 -1      2211 9.98869E+01 3.53972E+01 0.00000E+00
 -1      2212 9.82900E+01 3.66620E+01 0.00000E+00
 -1      2213 9.43904E+01 3.81355E+01 0.00000E+00
 -1      2214 9.03619E+01 3.78298E+01 0.00000E+00
 -1      2215 8.96531E+01 3.81815E+01 0.00000E+00
 -1      2216 9.08051E+01 3.85716E+01 0.00000E+00
 -1      2217 8.52486E+01 3.41265E+01 0.00000E+00
 -1      2218 8.36785E+01 3.05058E+01 0.00000E+00
 -1      2219 8.34021E+01 2.82611E+01 0.00000E+00
 -1      2220 8.38546E+01 2.62267E+01 0.00000E+00
 -1      2221 8.47110E+01 2.44763E+01 0.00000E+00
 -1      2222 8.57210E+01 2.28820E+01 0.00000E+00
 -1      2223 8.70898E+01 2.13697E+01 0.00000E+00
 -1      2224 8.87858E+01 2.01085E+01 0.00000E+00
 -1      2225 9.27371E+01 1.90985E+01 0.00000E+00
 -1      2226 9.05937E+01 1.94340E+01 0.00000E+00
 -1      2227 8.66875E+01 3.57362E+01 0.00000E+00
 -1      2228 8.58288E+01 3.57966E+01 0.00000E+00
 -1      2229 8.67759E+01 3.65225E+01 0.00000E+00
 -1      2230 9.64390E+01 3.75901E+01 0.00000E+00
 -1      2231 1.07850E+01 5.30525E+00 0.00000E+00
 -1      2232 9.28500E+00 5.30525E+00 0.00000E+00
 -1      2233 6.49500E+00 3.01125E+01 0.00000E+00
 -1      2234 6.49500E+00 3.15875E+01 0.00000E+00
 -1      2235 6.49500E+00 3.30625E+01 0.00000E+00
 -1      2236 6.49500E+00 3.45375E+01 0.00000E+00
 -1      2237 7.79400E+00 3.23250E+01 0.00000E+00
 -1      2238 6.49500E+00 2.42125E+01 0.00000E+00
 -1      2239 6.49500E+00 2.56875E+01 0.00000E+00
 -1      2240 6.49500E+00 2.12625E+01 0.00000E+00
 -1      2241 6.49500E+00 2.27375E+01 0.00000E+00
 -1      2242 7.79400E+00 2.34750E+01 0.00000E+00
 -1      2243 6.49500E+00 1.83625E+01 0.00000E+00
 -1      2244 6.49500E+00 1.98125E+01 0.00000E+00
 -1      2245 7.79400E+00 2.05500E+01 0.00000E+00
 -1      2246 6.49500E+00 1.54125E+01 0.00000E+00
 -1      2247 6.49500E+00 1.68875E+01 0.00000E+00
 -1      2248 7.79400E+00 1.76250E+01 0.00000E+00
 -1      2249 6.49500E+00 1.24625E+01 0.00000E+00
 -1      2250 6.49500E+00 1.39375E+01 0.00000E+00
 -1      2251 7.79400E+00 1.46750E+01 0.00000E+00
 -1      2252 6.49500E+00 9.51250E+00 0.00000E+00
 -1      2253 6.49500E+00 1.09875E+01 0.00000E+00
 -1      2254 7.79400E+00 1.17250E+01 0.00000E+00
 -1      2255 1.00505E+02 2.09142E+01 0.00000E+00
 -1      2256 1.01405E+02 2.17788E+01 0.00000E+00
 -1      2257 1.37850E+01 5.30525E+00 0.00000E+00
 -1      2258 1.22850E+01 5.30525E+00 0.00000E+00
 -1      2259 1.15350E+01 6.60425E+00 0.00000E+00
 -1      2260 9.90000E+00 4.35050E+01 0.00000E+00
 -1      2261 1.14000E+01 4.35050E+01 0.00000E+00
 -1      2262 9.64849E+01 1.87376E+01 0.00000E+00
 -1      2263 9.76446E+01 1.91738E+01 0.00000E+00
 -1      2264 1.29000E+01 4.35050E+01 0.00000E+00
 -1      2265 1.44000E+01 4.35050E+01 0.00000E+00
 -1      2266 1.21500E+01 4.22060E+01 0.00000E+00
 -1      2267 1.59000E+01 4.35050E+01 0.00000E+00
 -1      2268 1.74000E+01 4.35050E+01 0.00000E+00
 -1      2269 1.51500E+01 4.22060E+01 0.00000E+00
 -1      2270 1.89000E+01 4.35050E+01 0.00000E+00
 -1      2271 2.04000E+01 4.35050E+01 0.00000E+00
 -1      2272 1.81500E+01 4.22060E+01 0.00000E+00
 -1      2273 2.19000E+01 4.35050E+01 0.00000E+00
 -1      2274 2.34000E+01 4.35050E+01 0.00000E+00
 -1      2275 2.11500E+01 4.22060E+01 0.00000E+00
 -1      2276 2.49000E+01 4.35050E+01 0.00000E+00
 -1      2277 2.64000E+01 4.35050E+01 0.00000E+00
 -1      2278 2.41500E+01 4.22060E+01 0.00000E+00
 -1      2279 2.79000E+01 4.35050E+01 0.00000E+00
 -1      2280 2.94000E+01 4.35050E+01 0.00000E+00
 -1      2281 2.71500E+01 4.22060E+01 0.00000E+00
 -1      2282 3.09000E+01 4.35050E+01 0.00000E+00
 -1      2283 3.24000E+01 4.35050E+01 0.00000E+00
 -1      2284 3.01500E+01 4.22060E+01 0.00000E+00
 -1      2285 3.39000E+01 4.35050E+01 0.00000E+00
 -1      2286 3.54000E+01 4.35050E+01 0.00000E+00
 -1      2287 3.31500E+01 4.22060E+01 0.00000E+00
 -1      2288 3.69000E+01 4.35050E+01 0.00000E+00
 -1      2289 3.84000E+01 4.35050E+01 0.00000E+00
 -1      2290 3.61500E+01 4.22060E+01 0.00000E+00
 -1      2291 3.99000E+01 4.35050E+01 0.00000E+00
 -1      2292 4.14000E+01 4.35050E+01 0.00000E+00
 -1      2293 3.91500E+01 4.22060E+01 0.00000E+00
 -1      2294 4.29000E+01 4.35050E+01 0.00000E+00
 -1      2295 4.44000E+01 4.35050E+01 0.00000E+00
 -1      2296 4.21500E+01 4.22060E+01 0.00000E+00
 -1      2297 4.59000E+01 4.35050E+01 0.00000E+00
 -1      2298 4.74000E+01 4.35050E+01 0.00000E+00
 -1      2299 4.51500E+01 4.22060E+01 0.00000E+00
 -1      2300 4.89000E+01 4.35050E+01 0.00000E+00
 -1      2301 5.04000E+01 4.35050E+01 0.00000E+00
 -1      2302 4.81500E+01 4.22060E+01 0.00000E+00
 -1      2303 5.19000E+01 4.35050E+01 0.00000E+00
 -1      2304 5.34000E+01 4.35050E+01 0.00000E+00
 -1      2305 5.11500E+01 4.22060E+01 0.00000E+00
 -1      2306 5.49000E+01 4.35050E+01 0.00000E+00
 -1      2307 5.64000E+01 4.35050E+01 0.00000E+00
 -1      2308 5.41500E+01 4.22060E+01 0.00000E+00
 -1      2309 5.79000E+01 4.35050E+01 0.00000E+00
 -1      2310 5.94000E+01 4.35050E+01 0.00000E+00
 -1      2311 5.71500E+01 4.22060E+01 0.00000E+00
 -1      2312 6.09000E+01 4.35050E+01 0.00000E+00
 -1      2313 6.24000E+01 4.35050E+01 0.00000E+00
 -1      2314 6.01500E+01 4.22060E+01 0.00000E+00
 -1      2315 6.39000E+01 4.35050E+01 0.00000E+00
 -1      2316 6.54000E+01 4.35050E+01 0.00000E+00
 -1      2317 6.31500E+01 4.22060E+01 0.00000E+00
 -1      2318 6.69000E+01 4.35050E+01 0.00000E+00
 -1      2319 6.84000E+01 4.35050E+01 0.00000E+00
 -1      2320 6.61500E+01 4.22060E+01 0.00000E+00
 -1      2321 6.99000E+01 4.35050E+01 0.00000E+00
 -1      2322 7.14000E+01 4.35050E+01 0.00000E+00
 -1      2323 6.91500E+01 4.22060E+01 0.00000E+00
 -1      2324 7.29000E+01 4.35050E+01 0.00000E+00
 -1      2325 7.44000E+01 4.35050E+01 0.00000E+00
 -1      2326 7.21500E+01 4.22060E+01 0.00000E+00
 -1      2327 7.59000E+01 4.35050E+01 0.00000E+00
 -1      2328 7.74000E+01 4.35050E+01 0.00000E+00
 -1      2329 7.51500E+01 4.22060E+01 0.00000E+00
 -1      2330 7.89000E+01 4.35050E+01 0.00000E+00
 -1      2331 8.04000E+01 4.35050E+01 0.00000E+00
 -1      2332 7.81500E+01 4.22060E+01 0.00000E+00
 -1      2333 8.19000E+01 4.35050E+01 0.00000E+00
 -1      2334 8.34000E+01 4.35050E+01 0.00000E+00
 -1      2335 8.11500E+01 4.22060E+01 0.00000E+00
 -1      2336 8.49000E+01 4.35050E+01 0.00000E+00
 -1      2337 8.64000E+01 4.35050E+01 0.00000E+00
 -1      2338 8.41500E+01 4.22060E+01 0.00000E+00
 -1      2339 8.79000E+01 4.35050E+01 0.00000E+00
 -1      2340 8.94000E+01 4.35050E+01 0.00000E+00
 -1      2341 8.71500E+01 4.22060E+01 0.00000E+00
 -1      2342 9.09000E+01 4.35050E+01 0.00000E+00
 -1      2343 9.24000E+01 4.35050E+01 0.00000E+00
 -1      2344 9.01500E+01 4.22060E+01 0.00000E+00
 -1      2345 9.39000E+01 4.35050E+01 0.00000E+00
 -1      2346 9.54000E+01 4.35050E+01 0.00000E+00
 -1      2347 9.31500E+01 4.22060E+01 0.00000E+00
 -1      2348 9.69000E+01 4.35050E+01 0.00000E+00
 -1      2349 9.84000E+01 4.35050E+01 0.00000E+00
 -1      2350 9.61500E+01 4.22060E+01 0.00000E+00
 -1      2351 9.99000E+01 4.35050E+01 0.00000E+00
 -1      2352 1.01400E+02 4.35050E+01 0.00000E+00
 -1      2353 9.91500E+01 4.22060E+01 0.00000E+00
 -1      2354 1.02900E+02 4.35050E+01 0.00000E+00
 -1      2355 1.04400E+02 4.35050E+01 0.00000E+00
 -1      2356 1.02150E+02 4.22060E+01 0.00000E+00
 -1      2357 1.05900E+02 4.35050E+01 0.00000E+00
 -1      2358 1.07400E+02 4.35050E+01 0.00000E+00
 -1      2359 1.05150E+02 4.22060E+01 0.00000E+00
 -1      2360 1.08900E+02 4.35050E+01 0.00000E+00
 -1      2361 1.10400E+02 4.35050E+01 0.00000E+00
 -1      2362 1.08150E+02 4.22060E+01 0.00000E+00
 -1      2363 1.11900E+02 4.35050E+01 0.00000E+00
 -1      2364 1.13400E+02 4.35050E+01 0.00000E+00
 -1      2365 1.11150E+02 4.22060E+01 0.00000E+00
 -1      2366 1.14900E+02 4.35050E+01 0.00000E+00
 -1      2367 1.16400E+02 4.35050E+01 0.00000E+00
 -1      2368 1.14150E+02 4.22060E+01 0.00000E+00
 -1      2369 1.17900E+02 4.35050E+01 0.00000E+00
 -1      2370 1.19400E+02 4.35050E+01 0.00000E+00
 -1      2371 1.17150E+02 4.22060E+01 0.00000E+00
 -1      2372 1.20900E+02 4.35050E+01 0.00000E+00
 -1      2373 1.22400E+02 4.35050E+01 0.00000E+00
 -1      2374 1.20150E+02 4.22060E+01 0.00000E+00
 -1      2375 1.23900E+02 4.35050E+01 0.00000E+00
 -1      2376 1.25400E+02 4.35050E+01 0.00000E+00
 -1      2377 1.23150E+02 4.22060E+01 0.00000E+00
 -1      2378 1.26900E+02 4.35050E+01 0.00000E+00
 -1      2379 1.28400E+02 4.35050E+01 0.00000E+00
 -1      2380 1.26150E+02 4.22060E+01 0.00000E+00
 -1      2381 1.29900E+02 4.35050E+01 0.00000E+00
 -1      2382 1.31400E+02 4.35050E+01 0.00000E+00
 -1      2383 1.29150E+02 4.22060E+01 0.00000E+00
 -1      2384 1.32900E+02 4.35050E+01 0.00000E+00
 -1      2385 1.34400E+02 4.35050E+01 0.00000E+00
 -1      2386 1.32150E+02 4.22060E+01 0.00000E+00
 -1      2387 1.35900E+02 4.35050E+01 0.00000E+00
 -1      2388 1.37400E+02 4.35050E+01 0.00000E+00
 -1      2389 1.35150E+02 4.22060E+01 0.00000E+00
 -1      2390 1.38900E+02 4.35050E+01 0.00000E+00
 -1      2391 1.40400E+02 4.35050E+01 0.00000E+00
 -1      2392 1.38150E+02 4.22060E+01 0.00000E+00
 -1      2393 1.97850E+01 5.30525E+00 0.00000E+00
 -1      2394 1.82850E+01 5.30525E+00 0.00000E+00
 -1      2395 2.27850E+01 5.30525E+00 0.00000E+00
 -1      2396 2.12850E+01 5.30525E+00 0.00000E+00
 -1      2397 2.05350E+01 6.60425E+00 0.00000E+00
 -1      2398 2.57850E+01 5.30525E+00 0.00000E+00
 -1      2399 2.42850E+01 5.30525E+00 0.00000E+00
 -1      2400 2.35350E+01 6.60425E+00 0.00000E+00
 -1      2401 2.87850E+01 5.30525E+00 0.00000E+00
 -1      2402 2.72850E+01 5.30525E+00 0.00000E+00
 -1      2403 2.65350E+01 6.60425E+00 0.00000E+00
 -1      2404 3.17850E+01 5.30525E+00 0.00000E+00
 -1      2405 3.02850E+01 5.30525E+00 0.00000E+00
 -1      2406 2.95350E+01 6.60425E+00 0.00000E+00
 -1      2407 3.47850E+01 5.30525E+00 0.00000E+00
 -1      2408 3.32850E+01 5.30525E+00 0.00000E+00
 -1      2409 3.25350E+01 6.60425E+00 0.00000E+00
 -1      2410 3.77850E+01 5.30525E+00 0.00000E+00
 -1      2411 3.62850E+01 5.30525E+00 0.00000E+00
 -1      2412 3.55350E+01 6.60425E+00 0.00000E+00
 -1      2413 4.07850E+01 5.30525E+00 0.00000E+00
 -1      2414 3.92850E+01 5.30525E+00 0.00000E+00
 -1      2415 3.85350E+01 6.60425E+00 0.00000E+00
 -1      2416 4.37850E+01 5.30525E+00 0.00000E+00
 -1      2417 4.22850E+01 5.30525E+00 0.00000E+00
 -1      2418 4.15350E+01 6.60425E+00 0.00000E+00
 -1      2419 4.67850E+01 5.30525E+00 0.00000E+00
 -1      2420 4.52850E+01 5.30525E+00 0.00000E+00
 -1      2421 4.45350E+01 6.60425E+00 0.00000E+00
 -1      2422 4.97850E+01 5.30525E+00 0.00000E+00
 -1      2423 4.82850E+01 5.30525E+00 0.00000E+00
 -1      2424 4.75350E+01 6.60425E+00 0.00000E+00
 -1      2425 5.27850E+01 5.30525E+00 0.00000E+00
 -1      2426 5.12850E+01 5.30525E+00 0.00000E+00
 -1      2427 5.05350E+01 6.60425E+00 0.00000E+00
 -1      2428 5.57850E+01 5.30525E+00 0.00000E+00
 -1      2429 5.42850E+01 5.30525E+00 0.00000E+00
 -1      2430 5.35350E+01 6.60425E+00 0.00000E+00
 -1      2431 5.87850E+01 5.30525E+00 0.00000E+00
 -1      2432 5.72850E+01 5.30525E+00 0.00000E+00
 -1      2433 5.65350E+01 6.60425E+00 0.00000E+00
 -1      2434 6.17850E+01 5.30525E+00 0.00000E+00
 -1      2435 6.02850E+01 5.30525E+00 0.00000E+00
 -1      2436 5.95350E+01 6.60425E+00 0.00000E+00
 -1      2437 6.47850E+01 5.30525E+00 0.00000E+00
 -1      2438 6.32850E+01 5.30525E+00 0.00000E+00
 -1      2439 6.25350E+01 6.60425E+00 0.00000E+00
 -1      2440 6.77850E+01 5.30525E+00 0.00000E+00
 -1      2441 6.62850E+01 5.30525E+00 0.00000E+00
 -1      2442 6.55350E+01 6.60425E+00 0.00000E+00
 -1      2443 7.07850E+01 5.30525E+00 0.00000E+00
 -1      2444 6.92850E+01 5.30525E+00 0.00000E+00
 -1      2445 6.85350E+01 6.60425E+00 0.00000E+00
 -1      2446 7.37850E+01 5.30525E+00 0.00000E+00
 -1      2447 7.22850E+01 5.30525E+00 0.00000E+00
 -1      2448 7.15350E+01 6.60425E+00 0.00000E+00
 -1      2449 7.67850E+01 5.30525E+00 0.00000E+00
 -1      2450 7.52850E+01 5.30525E+00 0.00000E+00
 -1      2451 7.45350E+01 6.60425E+00 0.00000E+00
 -1      2452 7.97850E+01 5.30525E+00 0.00000E+00
 -1      2453 7.82850E+01 5.30525E+00 0.00000E+00
 -1      2454 7.75350E+01 6.60425E+00 0.00000E+00
 -1      2455 8.27850E+01 5.30525E+00 0.00000E+00
 -1      2456 8.12850E+01 5.30525E+00 0.00000E+00
 -1      2457 8.05350E+01 6.60425E+00 0.00000E+00
 -1      2458 8.57850E+01 5.30525E+00 0.00000E+00
 -1      2459 8.42850E+01 5.30525E+00 0.00000E+00
 -1      2460 8.35350E+01 6.60425E+00 0.00000E+00
 -1      2461 8.87850E+01 5.30525E+00 0.00000E+00
 -1      2462 8.72850E+01 5.30525E+00 0.00000E+00
 -1      2463 8.65350E+01 6.60425E+00 0.00000E+00
 -1      2464 9.17850E+01 5.30525E+00 0.00000E+00
 -1      2465 9.02850E+01 5.30525E+00 0.00000E+00
 -1      2466 8.95350E+01 6.60425E+00 0.00000E+00
 -1      2467 9.47850E+01 5.30525E+00 0.00000E+00
 -1      2468 9.32850E+01 5.30525E+00 0.00000E+00
 -1      2469 9.25350E+01 6.60425E+00 0.00000E+00
 -1      2470 9.77850E+01 5.30525E+00 0.00000E+00
 -1      2471 9.62850E+01 5.30525E+00 0.00000E+00
 -1      2472 9.55350E+01 6.60425E+00 0.00000E+00
 -1      2473 1.00785E+02 5.30525E+00 0.00000E+00
 -1      2474 9.92850E+01 5.30525E+00 0.00000E+00
 -1      2475 9.85350E+01 6.60425E+00 0.00000E+00
 -1      2476 1.03785E+02 5.30525E+00 0.00000E+00
 -1      2477 1.02285E+02 5.30525E+00 0.00000E+00
 -1      2478 1.01535E+02 6.60425E+00 0.00000E+00
 -1      2479 1.06785E+02 5.30525E+00 0.00000E+00
 -1      2480 1.05285E+02 5.30525E+00 0.00000E+00
 -1      2481 1.04535E+02 6.60425E+00 0.00000E+00
 -1      2482 1.09785E+02 5.30525E+00 0.00000E+00
 -1      2483 1.08285E+02 5.30525E+00 0.00000E+00
 -1      2484 1.07535E+02 6.60425E+00 0.00000E+00
 -1      2485 1.12785E+02 5.30525E+00 0.00000E+00
 -1      2486 1.11285E+02 5.30525E+00 0.00000E+00
 -1      2487 1.10535E+02 6.60425E+00 0.00000E+00
 -1      2488 1.15785E+02 5.30525E+00 0.00000E+00
 -1      2489 1.14285E+02 5.30525E+00 0.00000E+00
 -1      2490 1.13535E+02 6.60425E+00 0.00000E+00
 -1      2491 1.18785E+02 5.30525E+00 0.00000E+00
 -1      2492 1.17285E+02 5.30525E+00 0.00000E+00
 -1      2493 1.16535E+02 6.60425E+00 0.00000E+00
 -1      2494 1.21785E+02 5.30525E+00 0.00000E+00
 -1      2495 1.20285E+02 5.30525E+00 0.00000E+00
 -1      2496 1.19535E+02 6.60425E+00 0.00000E+00
 -1      2497 1.24785E+02 5.30525E+00 0.00000E+00
 -1      2498 1.23285E+02 5.30525E+00 0.00000E+00
 -1      2499 1.22535E+02 6.60425E+00 0.00000E+00
 -1      2500 1.27785E+02 5.30525E+00 0.00000E+00
 -1      2501 1.26285E+02 5.30525E+00 0.00000E+00
 -1      2502 1.25535E+02 6.60425E+00 0.00000E+00
 -1      2503 1.30785E+02 5.30525E+00 0.00000E+00
 -1      2504 1.29285E+02 5.30525E+00 0.00000E+00
 -1      2505 1.28535E+02 6.60425E+00 0.00000E+00
 -1      2506 1.33785E+02 5.30525E+00 0.00000E+00
 -1      2507 1.32285E+02 5.30525E+00 0.00000E+00
 -1      2508 1.31535E+02 6.60425E+00 0.00000E+00
 -1      2509 1.36785E+02 5.30525E+00 0.00000E+00
 -1      2510 1.35285E+02 5.30525E+00 0.00000E+00
 -1      2511 1.34535E+02 6.60425E+00 0.00000E+00
 -1      2512 1.39785E+02 5.30525E+00 0.00000E+00
 -1      2513 1.38285E+02 5.30525E+00 0.00000E+00
 -1      2514 1.37535E+02 6.60425E+00 0.00000E+00
 -1      2515 1.42785E+02 5.30525E+00 0.00000E+00
 -1      2516 1.41285E+02 5.30525E+00 0.00000E+00
 -1      2517 1.40535E+02 6.60425E+00 0.00000E+00
 -1      2518 1.44336E+02 5.26953E+00 0.00000E+00
 -1      2519 1.43505E+02 1.69125E+01 0.00000E+00
 -1      2520 1.43505E+02 1.54375E+01 0.00000E+00
 -1      2521 1.43505E+02 1.98625E+01 0.00000E+00
 -1      2522 1.43505E+02 1.83875E+01 0.00000E+00
 -1      2523 1.42206E+02 1.76500E+01 0.00000E+00
 -1      2524 1.43505E+02 1.10625E+01 0.00000E+00
 -1      2525 1.43505E+02 9.58750E+00 0.00000E+00
 -1      2526 1.43505E+02 1.39750E+01 0.00000E+00
 -1      2527 1.43505E+02 1.25250E+01 0.00000E+00
 -1      2528 1.42206E+02 1.17875E+01 0.00000E+00
 -1      2529 1.42206E+02 1.47125E+01 0.00000E+00
 -1      2530 1.43505E+02 2.28125E+01 0.00000E+00
 -1      2531 1.43505E+02 2.13375E+01 0.00000E+00
 -1      2532 1.42206E+02 2.06000E+01 0.00000E+00
 -1      2533 1.43505E+02 2.57625E+01 0.00000E+00
 -1      2534 1.43505E+02 2.42875E+01 0.00000E+00
 -1      2535 1.42206E+02 2.35500E+01 0.00000E+00
 -1      2536 1.43505E+02 2.87125E+01 0.00000E+00
 -1      2537 1.43505E+02 2.72375E+01 0.00000E+00
 -1      2538 1.42206E+02 2.65000E+01 0.00000E+00
 -1      2539 1.43505E+02 3.16125E+01 0.00000E+00
 -1      2540 1.43505E+02 3.01625E+01 0.00000E+00
 -1      2541 1.42206E+02 2.94250E+01 0.00000E+00
 -1      2542 1.43505E+02 3.45625E+01 0.00000E+00
 -1      2543 1.43505E+02 3.30875E+01 0.00000E+00
 -1      2544 1.42206E+02 3.23500E+01 0.00000E+00
 -1      2545 1.43505E+02 3.75125E+01 0.00000E+00
 -1      2546 1.43505E+02 3.60375E+01 0.00000E+00
 -1      2547 1.42206E+02 3.53000E+01 0.00000E+00
 -1      2548 1.43505E+02 4.04625E+01 0.00000E+00
 -1      2549 1.43505E+02 3.89875E+01 0.00000E+00
 -1      2550 1.42206E+02 3.82500E+01 0.00000E+00
 -1      2551 1.03313E+02 2.71053E+01 0.00000E+00
 -1      2552 1.03410E+02 2.80732E+01 0.00000E+00
 -1      2553 1.02213E+02 2.29264E+01 0.00000E+00
 -1      2554 1.02648E+02 2.38278E+01 0.00000E+00
 -1      2555 1.67850E+01 5.30525E+00 0.00000E+00
 -1      2556 1.52850E+01 5.30525E+00 0.00000E+00
 -1      2557 1.75350E+01 6.60425E+00 0.00000E+00
 -1      2558 1.44321E+02 4.30606E+01 0.00000E+00
 -1      2559 1.03504E+02 2.93196E+01 0.00000E+00
 -1      2560 1.03349E+02 3.04938E+01 0.00000E+00
 -1      2561 1.02998E+02 2.49827E+01 0.00000E+00
 -1      2562 1.03222E+02 2.60116E+01 0.00000E+00
 -1      2563 9.87783E+01 1.97089E+01 0.00000E+00
 -1      2564 9.95180E+01 2.02402E+01 0.00000E+00
 -1      2565 8.47818E+01 3.49650E+01 0.00000E+00
 -1      2566 8.42900E+01 3.40812E+01 0.00000E+00
 -1      2567 8.31357E+01 3.13241E+01 0.00000E+00
 -1      2568 8.27532E+01 3.01771E+01 0.00000E+00
 -1      2569 6.49500E+00 2.71625E+01 0.00000E+00
 -1      2570 6.49500E+00 2.86375E+01 0.00000E+00
 -1      2571 7.79400E+00 2.93750E+01 0.00000E+00
 -1      2572 7.79400E+00 2.64250E+01 0.00000E+00
 -1      2573 8.99964E+01 1.87824E+01 0.00000E+00
 -1      2574 9.09772E+01 1.86376E+01 0.00000E+00
 -1      2575 9.44461E+01 1.82480E+01 0.00000E+00
 -1      2576 9.53274E+01 1.83768E+01 0.00000E+00
 -1      2577 9.20170E+01 1.83476E+01 0.00000E+00
 -1      2578 9.31795E+01 1.81569E+01 0.00000E+00
 -1      2579 8.79324E+01 1.96864E+01 0.00000E+00
 -1      2580 8.87595E+01 1.91568E+01 0.00000E+00
 -1      2581 8.61570E+01 2.11437E+01 0.00000E+00
 -1      2582 8.70258E+01 2.04121E+01 0.00000E+00
 -1      2583 8.48194E+01 2.28551E+01 0.00000E+00
 -1      2584 8.53193E+01 2.20744E+01 0.00000E+00
 -1      2585 8.37993E+01 2.44823E+01 0.00000E+00
 -1      2586 8.43094E+01 2.36687E+01 0.00000E+00
 -1      2587 8.39077E+01 2.28611E+01 0.00000E+00
 -1      2588 8.28771E+01 2.63977E+01 0.00000E+00
 -1      2589 8.32235E+01 2.54610E+01 0.00000E+00
 -1      2590 8.26622E+01 2.87435E+01 0.00000E+00
 -1      2591 8.27684E+01 2.76458E+01 0.00000E+00
 -1      2592 8.39123E+01 3.31386E+01 0.00000E+00
 -1      2593 8.35645E+01 3.23436E+01 0.00000E+00
 -1      2594 9.71981E+01 3.80603E+01 0.00000E+00
 -1      2595 9.62583E+01 3.84645E+01 0.00000E+00
 -1      2596 8.83860E+01 3.78883E+01 0.00000E+00
 -1      2597 8.75983E+01 3.73996E+01 0.00000E+00
 -1      2598 9.28162E+01 3.89940E+01 0.00000E+00
 -1      2599 9.19323E+01 3.89656E+01 0.00000E+00
 -1      2600 9.50638E+01 3.89987E+01 0.00000E+00
 -1      2601 9.39550E+01 3.91399E+01 0.00000E+00
 -1      2602 9.91313E+01 3.70709E+01 0.00000E+00
 -1      2603 9.82201E+01 3.75947E+01 0.00000E+00
 -1      2604 1.00828E+02 3.55807E+01 0.00000E+00
 -1      2605 1.00143E+02 3.63217E+01 0.00000E+00
 -1      2606 1.03047E+02 3.16106E+01 0.00000E+00
 -1      2607 1.02804E+02 3.24931E+01 0.00000E+00
 -1      2608 6.55950E+00 4.28890E+01 0.00000E+00
 -1      2609 8.53650E+00 4.32410E+01 0.00000E+00
 -1      2610 9.28650E+00 4.19420E+01 0.00000E+00
 -1      2611 6.55950E+00 4.14140E+01 0.00000E+00
 -1      2612 8.07525E+00 5.11044E+00 0.00000E+00
 -1      2613 6.57525E+00 5.11044E+00 0.00000E+00
 -1      2614 6.40575E+00 6.01981E+00 0.00000E+00
 -1      2615 8.82525E+00 6.40944E+00 0.00000E+00
 -1      2616 9.14197E+01 1.76960E+01 0.00000E+00
 -1      2617 7.79400E+00 3.52687E+01 0.00000E+00
 -1      2618 6.49500E+00 3.60062E+01 0.00000E+00
 -1      2619 6.49500E+00 3.74750E+01 0.00000E+00
 -1      2620 1.02357E+02 2.18755E+01 0.00000E+00
 -1      2621 1.00562E+02 2.00541E+01 0.00000E+00
 -1      2622 6.40575E+00 7.49481E+00 0.00000E+00
 -1      2623 8.88292E+01 3.86302E+01 0.00000E+00
 -1      2624 8.80053E+01 3.90788E+01 0.00000E+00
 -1      2625 8.92723E+01 3.93720E+01 0.00000E+00
 -1      2626 9.80394E+01 3.84692E+01 0.00000E+00
 -1      2627 9.84414E+01 1.88450E+01 0.00000E+00
 -1      2628 8.34455E+01 3.39771E+01 0.00000E+00
 -1      2629 8.21195E+01 2.95618E+01 0.00000E+00
 -1      2630 8.14858E+01 2.89465E+01 0.00000E+00
 -1      2631 8.15768E+01 3.03801E+01 0.00000E+00
 -1      2632 1.03933E+02 3.11297E+01 0.00000E+00
 -1      2633 8.28218E+01 2.46533E+01 0.00000E+00
 -1      2634 1.43586E+02 6.56853E+00 0.00000E+00
 -1      2635 1.43419E+02 7.72713E+00 0.00000E+00
 -1      2636 1.04141E+02 2.87666E+01 0.00000E+00
 -1      2637 1.03957E+02 2.64265E+01 0.00000E+00
 -1      2638 1.03516E+02 2.41779E+01 0.00000E+00
 -1      2639 8.52554E+01 2.11167E+01 0.00000E+00
 -1      2640 8.69996E+01 1.94603E+01 0.00000E+00
 -1      2641 1.45350E+01 6.60425E+00 0.00000E+00
 -1      2642 6.55950E+00 3.99453E+01 0.00000E+00
 -1      2643 1.02952E+02 3.32769E+01 0.00000E+00
 -1      2644 1.03100E+02 3.40606E+01 0.00000E+00
 -1      2645 1.03779E+02 3.30302E+01 0.00000E+00
 -1      2646 7.70475E+00 8.23231E+00 0.00000E+00
 -1      2647 1.01678E+02 3.54063E+01 0.00000E+00
 -1      2648 1.00073E+02 3.72544E+01 0.00000E+00
 -1      2649 9.58229E+01 3.94689E+01 0.00000E+00
 -1      2650 8.26392E+01 3.20150E+01 0.00000E+00
 -1      2651 9.12235E+01 3.93173E+01 0.00000E+00
 -1      2652 8.48702E+01 3.57514E+01 0.00000E+00
 -1      2653 8.39115E+01 3.57061E+01 0.00000E+00
 -1      2654 8.49586E+01 3.65377E+01 0.00000E+00
 -1      2655 9.61501E+01 1.79490E+01 0.00000E+00
 -1      2656 9.37260E+01 1.74971E+01 0.00000E+00
 -1      2657 8.67397E+01 3.74600E+01 0.00000E+00
 -1      2658 8.91430E+01 1.83603E+01 0.00000E+00
 -1      2659 8.21372E+01 2.68801E+01 0.00000E+00
 -1      2660 9.34895E+01 3.98572E+01 0.00000E+00
 -1      2661 1.42758E+02 4.35929E+01 0.00000E+00
 -1      2662 1.43241E+02 4.17323E+01 0.00000E+00
 -1      2663 1.41942E+02 4.09948E+01 0.00000E+00
 -1      2664 1.41414E+02 4.35342E+01 0.00000E+00
 -1      2665 1.42120E+02 8.46463E+00 0.00000E+00
 -1      2666 1.40664E+02 4.22352E+01 0.00000E+00
 -1      2667 9.09300E+00 1.98250E+01 0.00000E+00
 -1      2668 9.09300E+00 2.12750E+01 0.00000E+00
 -1      2669 9.09300E+00 2.27500E+01 0.00000E+00
 -1      2670 9.09300E+00 2.42250E+01 0.00000E+00
 -1      2671 1.03920E+01 2.20250E+01 0.00000E+00
 -1      2672 9.09300E+00 1.39375E+01 0.00000E+00
 -1      2673 9.09300E+00 1.54125E+01 0.00000E+00
 -1      2674 9.09300E+00 1.09875E+01 0.00000E+00
 -1      2675 9.09300E+00 1.24625E+01 0.00000E+00
 -1      2676 1.03920E+01 1.32000E+01 0.00000E+00
 -1      2677 1.02712E+02 3.52552E+01 0.00000E+00
 -1      2678 1.02118E+02 3.63541E+01 0.00000E+00
 -1      2679 1.22850E+01 7.90325E+00 0.00000E+00
 -1      2680 1.07850E+01 7.90325E+00 0.00000E+00
 -1      2681 8.91450E+00 8.42712E+00 0.00000E+00
 -1      2682 1.44000E+01 4.09070E+01 0.00000E+00
 -1      2683 1.59000E+01 4.09070E+01 0.00000E+00
 -1      2684 1.74000E+01 4.09070E+01 0.00000E+00
 -1      2685 1.89000E+01 4.09070E+01 0.00000E+00
 -1      2686 1.66500E+01 3.96080E+01 0.00000E+00
 -1      2687 2.04000E+01 4.09070E+01 0.00000E+00
 -1      2688 2.19000E+01 4.09070E+01 0.00000E+00
 -1      2689 1.96500E+01 3.96080E+01 0.00000E+00
 -1      2690 2.34000E+01 4.09070E+01 0.00000E+00
 -1      2691 2.49000E+01 4.09070E+01 0.00000E+00
 -1      2692 2.26500E+01 3.96080E+01 0.00000E+00
 -1      2693 2.64000E+01 4.09070E+01 0.00000E+00
 -1      2694 2.79000E+01 4.09070E+01 0.00000E+00
 -1      2695 2.56500E+01 3.96080E+01 0.00000E+00
 -1      2696 2.94000E+01 4.09070E+01 0.00000E+00
 -1      2697 3.09000E+01 4.09070E+01 0.00000E+00
 -1      2698 2.86500E+01 3.96080E+01 0.00000E+00
 -1      2699 3.24000E+01 4.09070E+01 0.00000E+00
 -1      2700 3.39000E+01 4.09070E+01 0.00000E+00
 -1      2701 3.16500E+01 3.96080E+01 0.00000E+00
 -1      2702 3.54000E+01 4.09070E+01 0.00000E+00
 -1      2703 3.69000E+01 4.09070E+01 0.00000E+00
 -1      2704 3.46500E+01 3.96080E+01 0.00000E+00
 -1      2705 3.84000E+01 4.09070E+01 0.00000E+00
 -1      2706 3.99000E+01 4.09070E+01 0.00000E+00
 -1      2707 3.76500E+01 3.96080E+01 0.00000E+00
 -1      2708 4.14000E+01 4.09070E+01 0.00000E+00
 -1      2709 4.29000E+01 4.09070E+01 0.00000E+00
 -1      2710 4.06500E+01 3.96080E+01 0.00000E+00
 -1      2711 4.44000E+01 4.09070E+01 0.00000E+00
 -1      2712 4.59000E+01 4.09070E+01 0.00000E+00
 -1      2713 4.36500E+01 3.96080E+01 0.00000E+00
 -1      2714 4.74000E+01 4.09070E+01 0.00000E+00
 -1      2715 4.89000E+01 4.09070E+01 0.00000E+00
 -1      2716 4.66500E+01 3.96080E+01 0.00000E+00
 -1      2717 5.04000E+01 4.09070E+01 0.00000E+00
 -1      2718 5.19000E+01 4.09070E+01 0.00000E+00
 -1      2719 4.96500E+01 3.96080E+01 0.00000E+00
 -1      2720 5.34000E+01 4.09070E+01 0.00000E+00
 -1      2721 5.49000E+01 4.09070E+01 0.00000E+00
 -1      2722 5.26500E+01 3.96080E+01 0.00000E+00
 -1      2723 5.64000E+01 4.09070E+01 0.00000E+00
 -1      2724 5.79000E+01 4.09070E+01 0.00000E+00
 -1      2725 5.56500E+01 3.96080E+01 0.00000E+00
 -1      2726 5.94000E+01 4.09070E+01 0.00000E+00
 -1      2727 6.09000E+01 4.09070E+01 0.00000E+00
 -1      2728 5.86500E+01 3.96080E+01 0.00000E+00
 -1      2729 6.24000E+01 4.09070E+01 0.00000E+00
 -1      2730 6.39000E+01 4.09070E+01 0.00000E+00
 -1      2731 6.16500E+01 3.96080E+01 0.00000E+00
 -1      2732 6.54000E+01 4.09070E+01 0.00000E+00
 -1      2733 6.69000E+01 4.09070E+01 0.00000E+00
 -1      2734 6.46500E+01 3.96080E+01 0.00000E+00
 -1      2735 6.84000E+01 4.09070E+01 0.00000E+00
 -1      2736 6.99000E+01 4.09070E+01 0.00000E+00
 -1      2737 6.76500E+01 3.96080E+01 0.00000E+00
 -1      2738 7.14000E+01 4.09070E+01 0.00000E+00
 -1      2739 7.29000E+01 4.09070E+01 0.00000E+00
 -1      2740 7.06500E+01 3.96080E+01 0.00000E+00
 -1      2741 7.44000E+01 4.09070E+01 0.00000E+00
 -1      2742 7.59000E+01 4.09070E+01 0.00000E+00
 -1      2743 7.36500E+01 3.96080E+01 0.00000E+00
 -1      2744 7.74000E+01 4.09070E+01 0.00000E+00
 -1      2745 7.89000E+01 4.09070E+01 0.00000E+00
 -1      2746 7.66500E+01 3.96080E+01 0.00000E+00
 -1      2747 8.04000E+01 4.09070E+01 0.00000E+00
 -1      2748 8.19000E+01 4.09070E+01 0.00000E+00
 -1      2749 7.96500E+01 3.96080E+01 0.00000E+00
 -1      2750 8.34000E+01 4.09070E+01 0.00000E+00
 -1      2751 8.49000E+01 4.09070E+01 0.00000E+00
 -1      2752 8.26500E+01 3.96080E+01 0.00000E+00
 -1      2753 8.70492E+01 4.10133E+01 0.00000E+00
 -1      2754 8.85492E+01 4.10133E+01 0.00000E+00
 -1      2755 9.00492E+01 4.10133E+01 0.00000E+00
 -1      2756 9.84000E+01 4.10133E+01 0.00000E+00
 -1      2757 9.99000E+01 4.10133E+01 0.00000E+00
 -1      2758 1.01400E+02 4.10133E+01 0.00000E+00
 -1      2759 1.02900E+02 4.10133E+01 0.00000E+00
 -1      2760 1.00650E+02 3.98206E+01 0.00000E+00
 -1      2761 1.04400E+02 4.10133E+01 0.00000E+00
 -1      2762 1.05900E+02 4.10133E+01 0.00000E+00
 -1      2763 1.03650E+02 3.98206E+01 0.00000E+00
 -1      2764 1.07400E+02 4.10133E+01 0.00000E+00
 -1      2765 1.08900E+02 4.10133E+01 0.00000E+00
 -1      2766 1.06650E+02 3.98206E+01 0.00000E+00
 -1      2767 1.10400E+02 4.10133E+01 0.00000E+00
 -1      2768 1.11900E+02 4.10133E+01 0.00000E+00
 -1      2769 1.09650E+02 3.98206E+01 0.00000E+00
 -1      2770 1.13400E+02 4.10133E+01 0.00000E+00
 -1      2771 1.14900E+02 4.10133E+01 0.00000E+00
 -1      2772 1.12650E+02 3.98206E+01 0.00000E+00
 -1      2773 1.16400E+02 4.10133E+01 0.00000E+00
 -1      2774 1.17900E+02 4.10133E+01 0.00000E+00
 -1      2775 1.15650E+02 3.98206E+01 0.00000E+00
 -1      2776 1.19400E+02 4.10133E+01 0.00000E+00
 -1      2777 1.20900E+02 4.10133E+01 0.00000E+00
 -1      2778 1.18650E+02 3.98206E+01 0.00000E+00
 -1      2779 1.22400E+02 4.10133E+01 0.00000E+00
 -1      2780 1.23900E+02 4.10133E+01 0.00000E+00
 -1      2781 1.21650E+02 3.98206E+01 0.00000E+00
 -1      2782 1.25400E+02 4.10133E+01 0.00000E+00
 -1      2783 1.26900E+02 4.10133E+01 0.00000E+00
 -1      2784 1.24650E+02 3.98206E+01 0.00000E+00
 -1      2785 1.28400E+02 4.10133E+01 0.00000E+00
 -1      2786 1.29900E+02 4.10133E+01 0.00000E+00
 -1      2787 1.27650E+02 3.98206E+01 0.00000E+00
 -1      2788 1.31400E+02 4.10133E+01 0.00000E+00
 -1      2789 1.32900E+02 4.10133E+01 0.00000E+00
 -1      2790 1.30650E+02 3.98206E+01 0.00000E+00
 -1      2791 1.34400E+02 4.10133E+01 0.00000E+00
 -1      2792 1.35900E+02 4.10133E+01 0.00000E+00
 -1      2793 1.33650E+02 3.98206E+01 0.00000E+00
 -1      2794 1.37400E+02 4.10133E+01 0.00000E+00
 -1      2795 1.38900E+02 4.10133E+01 0.00000E+00
 -1      2796 1.36650E+02 3.98206E+01 0.00000E+00
 -1      2797 2.42850E+01 7.90325E+00 0.00000E+00
 -1      2798 2.27850E+01 7.90325E+00 0.00000E+00
 -1      2799 1.40706E+02 1.03250E+01 0.00000E+00
 -1      2800 1.40620E+02 8.46463E+00 0.00000E+00
 -1      2801 1.39120E+02 8.46463E+00 0.00000E+00
 -1      2802 2.12850E+01 7.90325E+00 0.00000E+00
 -1      2803 1.97850E+01 7.90325E+00 0.00000E+00
 -1      2804 2.20350E+01 9.20225E+00 0.00000E+00
 -1      2805 3.02850E+01 7.90325E+00 0.00000E+00
 -1      2806 2.87850E+01 7.90325E+00 0.00000E+00
 -1      2807 3.32850E+01 7.90325E+00 0.00000E+00
 -1      2808 3.17850E+01 7.90325E+00 0.00000E+00
 -1      2809 3.10350E+01 9.20225E+00 0.00000E+00
 -1      2810 3.62850E+01 7.90325E+00 0.00000E+00
 -1      2811 3.47850E+01 7.90325E+00 0.00000E+00
 -1      2812 3.40350E+01 9.20225E+00 0.00000E+00
 -1      2813 3.92850E+01 7.90325E+00 0.00000E+00
 -1      2814 3.77850E+01 7.90325E+00 0.00000E+00
 -1      2815 3.70350E+01 9.20225E+00 0.00000E+00
 -1      2816 4.22850E+01 7.90325E+00 0.00000E+00
 -1      2817 4.07850E+01 7.90325E+00 0.00000E+00
 -1      2818 4.00350E+01 9.20225E+00 0.00000E+00
 -1      2819 4.52850E+01 7.90325E+00 0.00000E+00
 -1      2820 4.37850E+01 7.90325E+00 0.00000E+00
 -1      2821 4.30350E+01 9.20225E+00 0.00000E+00
 -1      2822 4.82850E+01 7.90325E+00 0.00000E+00
 -1      2823 4.67850E+01 7.90325E+00 0.00000E+00
 -1      2824 4.60350E+01 9.20225E+00 0.00000E+00
 -1      2825 5.12850E+01 7.90325E+00 0.00000E+00
 -1      2826 4.97850E+01 7.90325E+00 0.00000E+00
 -1      2827 4.90350E+01 9.20225E+00 0.00000E+00
 -1      2828 5.42850E+01 7.90325E+00 0.00000E+00
 -1      2829 5.27850E+01 7.90325E+00 0.00000E+00
 -1      2830 5.20350E+01 9.20225E+00 0.00000E+00
 -1      2831 5.72850E+01 7.90325E+00 0.00000E+00
 -1      2832 5.57850E+01 7.90325E+00 0.00000E+00
 -1      2833 5.50350E+01 9.20225E+00 0.00000E+00
 -1      2834 6.02850E+01 7.90325E+00 0.00000E+00
 -1      2835 5.87850E+01 7.90325E+00 0.00000E+00
 -1      2836 5.80350E+01 9.20225E+00 0.00000E+00
 -1      2837 6.32850E+01 7.90325E+00 0.00000E+00
 -1      2838 6.17850E+01 7.90325E+00 0.00000E+00
 -1      2839 6.10350E+01 9.20225E+00 0.00000E+00
 -1      2840 6.62850E+01 7.90325E+00 0.00000E+00
 -1      2841 6.47850E+01 7.90325E+00 0.00000E+00
 -1      2842 6.40350E+01 9.20225E+00 0.00000E+00
 -1      2843 6.92850E+01 7.90325E+00 0.00000E+00
 -1      2844 6.77850E+01 7.90325E+00 0.00000E+00
 -1      2845 6.70350E+01 9.20225E+00 0.00000E+00
 -1      2846 7.22850E+01 7.90325E+00 0.00000E+00
 -1      2847 7.07850E+01 7.90325E+00 0.00000E+00
 -1      2848 7.00350E+01 9.20225E+00 0.00000E+00
 -1      2849 7.52850E+01 7.90325E+00 0.00000E+00
 -1      2850 7.37850E+01 7.90325E+00 0.00000E+00
 -1      2851 7.30350E+01 9.20225E+00 0.00000E+00
 -1      2852 7.82850E+01 7.90325E+00 0.00000E+00
 -1      2853 7.67850E+01 7.90325E+00 0.00000E+00
 -1      2854 7.60350E+01 9.20225E+00 0.00000E+00
 -1      2855 8.12850E+01 7.90325E+00 0.00000E+00
 -1      2856 7.97850E+01 7.90325E+00 0.00000E+00
 -1      2857 7.90350E+01 9.20225E+00 0.00000E+00
 -1      2858 8.42850E+01 7.90325E+00 0.00000E+00
 -1      2859 8.27850E+01 7.90325E+00 0.00000E+00
 -1      2860 8.20350E+01 9.20225E+00 0.00000E+00
 -1      2861 8.72850E+01 7.90325E+00 0.00000E+00
 -1      2862 8.57850E+01 7.90325E+00 0.00000E+00
 -1      2863 8.50350E+01 9.20225E+00 0.00000E+00
 -1      2864 9.02850E+01 7.90325E+00 0.00000E+00
 -1      2865 8.87850E+01 7.90325E+00 0.00000E+00
 -1      2866 8.80350E+01 9.20225E+00 0.00000E+00
 -1      2867 9.32850E+01 7.90325E+00 0.00000E+00
 -1      2868 9.17850E+01 7.90325E+00 0.00000E+00
 -1      2869 9.10350E+01 9.20225E+00 0.00000E+00
 -1      2870 9.62850E+01 7.90325E+00 0.00000E+00
 -1      2871 9.47850E+01 7.90325E+00 0.00000E+00
 -1      2872 9.40350E+01 9.20225E+00 0.00000E+00
 -1      2873 9.92850E+01 7.90325E+00 0.00000E+00
 -1      2874 9.77850E+01 7.90325E+00 0.00000E+00
 -1      2875 9.70350E+01 9.20225E+00 0.00000E+00
 -1      2876 1.02285E+02 7.90325E+00 0.00000E+00
 -1      2877 1.00785E+02 7.90325E+00 0.00000E+00
 -1      2878 1.00035E+02 9.20225E+00 0.00000E+00
 -1      2879 1.05285E+02 7.90325E+00 0.00000E+00
 -1      2880 1.03785E+02 7.90325E+00 0.00000E+00
 -1      2881 1.03035E+02 9.20225E+00 0.00000E+00
 -1      2882 1.08285E+02 7.90325E+00 0.00000E+00
 -1      2883 1.06785E+02 7.90325E+00 0.00000E+00
 -1      2884 1.06035E+02 9.20225E+00 0.00000E+00
 -1      2885 1.11285E+02 7.90325E+00 0.00000E+00
 -1      2886 1.09785E+02 7.90325E+00 0.00000E+00
 -1      2887 1.09035E+02 9.20225E+00 0.00000E+00
 -1      2888 1.14285E+02 7.90325E+00 0.00000E+00
 -1      2889 1.12785E+02 7.90325E+00 0.00000E+00
 -1      2890 1.12035E+02 9.20225E+00 0.00000E+00
 -1      2891 1.17285E+02 7.90325E+00 0.00000E+00
 -1      2892 1.15785E+02 7.90325E+00 0.00000E+00
 -1      2893 1.15035E+02 9.20225E+00 0.00000E+00
 -1      2894 1.20285E+02 7.90325E+00 0.00000E+00
 -1      2895 1.18785E+02 7.90325E+00 0.00000E+00
 -1      2896 1.18035E+02 9.20225E+00 0.00000E+00
 -1      2897 1.23285E+02 7.90325E+00 0.00000E+00
 -1      2898 1.21785E+02 7.90325E+00 0.00000E+00
 -1      2899 1.21035E+02 9.20225E+00 0.00000E+00
 -1      2900 1.26285E+02 7.90325E+00 0.00000E+00
 -1      2901 1.24785E+02 7.90325E+00 0.00000E+00
 -1      2902 1.24035E+02 9.20225E+00 0.00000E+00
 -1      2903 1.29285E+02 7.90325E+00 0.00000E+00
 -1      2904 1.27785E+02 7.90325E+00 0.00000E+00
 -1      2905 1.27035E+02 9.20225E+00 0.00000E+00
 -1      2906 1.32285E+02 7.90325E+00 0.00000E+00
 -1      2907 1.30785E+02 7.90325E+00 0.00000E+00
 -1      2908 1.30035E+02 9.20225E+00 0.00000E+00
 -1      2909 1.35285E+02 7.90325E+00 0.00000E+00
 -1      2910 1.33785E+02 7.90325E+00 0.00000E+00
 -1      2911 1.33035E+02 9.20225E+00 0.00000E+00
 -1      2912 1.37953E+02 8.18394E+00 0.00000E+00
 -1      2913 1.36453E+02 8.18394E+00 0.00000E+00
 -1      2914 1.35703E+02 9.48294E+00 0.00000E+00
 -1      2915 1.38038E+02 1.00443E+01 0.00000E+00
 -1      2916 1.40907E+02 2.42875E+01 0.00000E+00
 -1      2917 1.40907E+02 2.28125E+01 0.00000E+00
 -1      2918 1.39914E+02 4.09894E+01 0.00000E+00
 -1      2919 1.40928E+02 4.10187E+01 0.00000E+00
 -1      2920 1.41192E+02 3.97489E+01 0.00000E+00
 -1      2921 1.39164E+02 3.97967E+01 0.00000E+00
 -1      2922 1.40907E+02 1.83875E+01 0.00000E+00
 -1      2923 1.40907E+02 1.69125E+01 0.00000E+00
 -1      2924 1.40907E+02 2.72375E+01 0.00000E+00
 -1      2925 1.40907E+02 2.57625E+01 0.00000E+00
 -1      2926 1.39608E+02 2.50250E+01 0.00000E+00
 -1      2927 1.40907E+02 2.13375E+01 0.00000E+00
 -1      2928 1.40907E+02 1.98625E+01 0.00000E+00
 -1      2929 1.39608E+02 1.91250E+01 0.00000E+00
 -1      2930 1.39608E+02 2.20750E+01 0.00000E+00
 -1      2931 1.00552E+02 1.90089E+01 0.00000E+00
 -1      2932 1.01539E+02 1.96828E+01 0.00000E+00
 -1      2933 1.04950E+02 2.80792E+01 0.00000E+00
 -1      2934 1.05043E+02 2.93255E+01 0.00000E+00
 -1      2935 1.40907E+02 3.01375E+01 0.00000E+00
 -1      2936 1.40907E+02 2.86875E+01 0.00000E+00
 -1      2937 1.39608E+02 2.79500E+01 0.00000E+00
 -1      2938 1.40907E+02 3.30875E+01 0.00000E+00
 -1      2939 1.40907E+02 3.16125E+01 0.00000E+00
 -1      2940 1.39608E+02 3.08750E+01 0.00000E+00
 -1      2941 1.40907E+02 3.60375E+01 0.00000E+00
 -1      2942 1.40907E+02 3.45625E+01 0.00000E+00
 -1      2943 1.39608E+02 3.38250E+01 0.00000E+00
 -1      2944 1.41049E+02 3.86307E+01 0.00000E+00
 -1      2945 1.41049E+02 3.71557E+01 0.00000E+00
 -1      2946 1.39751E+02 3.64182E+01 0.00000E+00
 -1      2947 1.40036E+02 3.86546E+01 0.00000E+00
 -1      2948 8.40746E+01 2.08964E+01 0.00000E+00
 -1      2949 8.49122E+01 1.99656E+01 0.00000E+00
 -1      2950 1.04850E+02 2.58017E+01 0.00000E+00
 -1      2951 1.04940E+02 2.68954E+01 0.00000E+00
 -1      2952 1.04322E+02 2.33030E+01 0.00000E+00
 -1      2953 1.04672E+02 2.44578E+01 0.00000E+00
 -1      2954 8.17226E+01 2.46653E+01 0.00000E+00
 -1      2955 8.22984E+01 2.36866E+01 0.00000E+00
 -1      2956 1.01089E+02 3.75689E+01 0.00000E+00
 -1      2957 1.00077E+02 3.83181E+01 0.00000E+00
 -1      2958 1.04993E+02 3.08172E+01 0.00000E+00
 -1      2959 1.04691E+02 3.19339E+01 0.00000E+00
 -1      2960 8.28383E+01 3.47673E+01 0.00000E+00
 -1      2961 8.24607E+01 3.38247E+01 0.00000E+00
 -1      2962 1.82850E+01 7.90325E+00 0.00000E+00
 -1      2963 1.67850E+01 7.90325E+00 0.00000E+00
 -1      2964 1.90350E+01 9.20225E+00 0.00000E+00
 -1      2965 2.72850E+01 7.90325E+00 0.00000E+00
 -1      2966 2.57850E+01 7.90325E+00 0.00000E+00
 -1      2967 2.50350E+01 9.20225E+00 0.00000E+00
 -1      2968 2.80350E+01 9.20225E+00 0.00000E+00
 -1      2969 1.14000E+01 4.09070E+01 0.00000E+00
 -1      2970 1.29000E+01 4.09070E+01 0.00000E+00
 -1      2971 1.36500E+01 3.96080E+01 0.00000E+00
 -1      2972 7.85850E+00 3.92077E+01 0.00000E+00
 -1      2973 9.09300E+00 1.68813E+01 0.00000E+00
 -1      2974 9.09300E+00 1.83563E+01 0.00000E+00
 -1      2975 1.03920E+01 1.90812E+01 0.00000E+00
 -1      2976 1.03920E+01 1.61437E+01 0.00000E+00
 -1      2977 1.02723E+02 2.07598E+01 0.00000E+00
 -1      2978 1.03531E+02 2.19073E+01 0.00000E+00
 -1      2979 9.09300E+00 3.15875E+01 0.00000E+00
 -1      2980 9.09300E+00 3.30625E+01 0.00000E+00
 -1      2981 9.31603E+01 1.65126E+01 0.00000E+00
 -1      2982 9.44268E+01 1.66037E+01 0.00000E+00
 -1      2983 8.65253E+01 3.84851E+01 0.00000E+00
 -1      2984 8.57029E+01 3.76081E+01 0.00000E+00
 -1      2985 9.58515E+01 1.68699E+01 0.00000E+00
 -1      2986 9.70090E+01 1.72308E+01 0.00000E+00
 -1      2987 1.52850E+01 7.90325E+00 0.00000E+00
 -1      2988 1.37850E+01 7.90325E+00 0.00000E+00
 -1      2989 1.30350E+01 9.20225E+00 0.00000E+00
 -1      2990 1.60350E+01 9.20225E+00 0.00000E+00
 -1      2991 8.59057E+01 1.90228E+01 0.00000E+00
 -1      2992 8.68122E+01 1.82972E+01 0.00000E+00
 -1      2993 8.28085E+01 2.28730E+01 0.00000E+00
 -1      2994 8.33185E+01 2.20594E+01 0.00000E+00
 -1      2995 8.17093E+01 2.28849E+01 0.00000E+00
 -1      2996 8.20319E+01 3.28052E+01 0.00000E+00
 -1      2997 8.16032E+01 3.17856E+01 0.00000E+00
 -1      2998 8.14247E+01 3.35954E+01 0.00000E+00
 -1      2999 8.12286E+01 2.74297E+01 0.00000E+00
 -1      3000 8.13373E+01 2.61816E+01 0.00000E+00
 -1      3001 8.82276E+01 1.75663E+01 0.00000E+00
 -1      3002 8.94645E+01 1.71920E+01 0.00000E+00
 -1      3003 9.91057E+01 3.89121E+01 0.00000E+00
 -1      3004 9.80837E+01 3.93777E+01 0.00000E+00
 -1      3005 9.06919E+01 1.70956E+01 0.00000E+00
 -1      3006 9.17317E+01 1.68056E+01 0.00000E+00
 -1      3007 9.82406E+01 1.78019E+01 0.00000E+00
 -1      3008 9.93743E+01 1.83371E+01 0.00000E+00
 -1      3009 9.09300E+00 3.45313E+01 0.00000E+00
 -1      3010 9.09300E+00 3.60000E+01 0.00000E+00
 -1      3011 1.03920E+01 3.37938E+01 0.00000E+00
 -1      3012 1.03920E+01 2.49750E+01 0.00000E+00
 -1      3013 9.09300E+00 2.57000E+01 0.00000E+00
 -1      3014 9.09300E+00 2.71750E+01 0.00000E+00
 -1      3015 1.02123E+02 3.74178E+01 0.00000E+00
 -1      3016 1.03540E+02 3.50085E+01 0.00000E+00
 -1      3017 9.66450E+00 9.72612E+00 0.00000E+00
 -1      3018 9.15750E+00 3.77359E+01 0.00000E+00
 -1      3019 9.22200E+00 4.02061E+01 0.00000E+00
 -1      3020 1.05855E+01 4.04701E+01 0.00000E+00
 -1      3021 1.04565E+01 3.69984E+01 0.00000E+00
 -1      3022 1.04687E+02 2.21872E+01 0.00000E+00
 -1      3023 8.09695E+01 3.11704E+01 0.00000E+00
 -1      3024 8.03358E+01 3.05551E+01 0.00000E+00
 -1      3025 8.03623E+01 3.19606E+01 0.00000E+00
 -1      3026 9.73337E+01 4.05704E+01 0.00000E+00
 -1      3027 9.54000E+01 4.12647E+01 0.00000E+00
 -1      3028 9.69000E+01 4.12647E+01 0.00000E+00
 -1      3029 1.39608E+02 1.61875E+01 0.00000E+00
 -1      3030 1.40907E+02 1.54500E+01 0.00000E+00
 -1      3031 1.40907E+02 1.39875E+01 0.00000E+00
 -1      3032 1.13355E+01 3.91711E+01 0.00000E+00
 -1      3033 1.02703E+02 1.86694E+01 0.00000E+00
 -1      3034 1.02713E+02 1.97146E+01 0.00000E+00
 -1      3035 1.03887E+02 1.97464E+01 0.00000E+00
 -1      3036 8.47249E+01 1.88025E+01 0.00000E+00
 -1      3037 1.40706E+02 1.17875E+01 0.00000E+00
 -1      3038 1.05842E+02 2.74544E+01 0.00000E+00
 -1      3039 1.05801E+02 3.01297E+01 0.00000E+00
 -1      3040 8.29753E+01 2.09083E+01 0.00000E+00
 -1      3041 1.05655E+02 2.49267E+01 0.00000E+00
 -1      3042 1.09635E+01 1.04636E+01 0.00000E+00
 -1      3043 9.79419E+01 1.67228E+01 0.00000E+00
 -1      3044 8.97765E+01 1.63016E+01 0.00000E+00
 -1      3045 8.71337E+01 1.71288E+01 0.00000E+00
 -1      3046 1.04839E+02 3.27177E+01 0.00000E+00
 -1      3047 1.04987E+02 3.35015E+01 0.00000E+00
 -1      3048 1.05898E+02 3.24052E+01 0.00000E+00
 -1      3049 9.52858E+01 1.58855E+01 0.00000E+00
 -1      3050 8.29267E+01 3.55537E+01 0.00000E+00
 -1      3051 8.19418E+01 3.54013E+01 0.00000E+00
 -1      3052 8.30151E+01 3.63400E+01 0.00000E+00
 -1      3053 8.01431E+01 2.90664E+01 0.00000E+00
 -1      3054 8.06858E+01 2.82481E+01 0.00000E+00
 -1      3055 7.98859E+01 2.75496E+01 0.00000E+00
 -1      3056 8.08139E+01 2.52149E+01 0.00000E+00
 -1      3057 8.02905E+01 2.42482E+01 0.00000E+00
 -1      3058 7.99052E+01 2.57645E+01 0.00000E+00
 -1      3059 8.47443E+01 3.75628E+01 0.00000E+00
 -1      3060 9.09300E+00 2.86437E+01 0.00000E+00
 -1      3061 9.09300E+00 3.01187E+01 0.00000E+00
 -1      3062 1.03920E+01 3.08563E+01 0.00000E+00
 -1      3063 1.03920E+01 2.79188E+01 0.00000E+00
 -1      3064 9.24325E+01 1.59123E+01 0.00000E+00
 -1      3065 1.00351E+02 1.79658E+01 0.00000E+00
 -1      3066 1.16910E+01 1.24625E+01 0.00000E+00
 -1      3067 1.16910E+01 1.39375E+01 0.00000E+00
 -1      3068 8.62992E+01 3.97143E+01 0.00000E+00
 -1      3069 1.89000E+01 3.83090E+01 0.00000E+00
 -1      3070 2.04000E+01 3.83090E+01 0.00000E+00
 -1      3071 2.19000E+01 3.83090E+01 0.00000E+00
 -1      3072 2.34000E+01 3.83090E+01 0.00000E+00
 -1      3073 2.11500E+01 3.70100E+01 0.00000E+00
 -1      3074 2.49000E+01 3.83090E+01 0.00000E+00
 -1      3075 2.64000E+01 3.83090E+01 0.00000E+00
 -1      3076 2.41500E+01 3.70100E+01 0.00000E+00
 -1      3077 2.79000E+01 3.83090E+01 0.00000E+00
 -1      3078 2.94000E+01 3.83090E+01 0.00000E+00
 -1      3079 2.71500E+01 3.70100E+01 0.00000E+00
 -1      3080 3.09000E+01 3.83090E+01 0.00000E+00
 -1      3081 3.24000E+01 3.83090E+01 0.00000E+00
 -1      3082 3.01500E+01 3.70100E+01 0.00000E+00
 -1      3083 3.39000E+01 3.83090E+01 0.00000E+00
 -1      3084 3.54000E+01 3.83090E+01 0.00000E+00
 -1      3085 3.31500E+01 3.70100E+01 0.00000E+00
 -1      3086 3.69000E+01 3.83090E+01 0.00000E+00
 -1      3087 3.84000E+01 3.83090E+01 0.00000E+00
 -1      3088 3.61500E+01 3.70100E+01 0.00000E+00
 -1      3089 3.99000E+01 3.83090E+01 0.00000E+00
 -1      3090 4.14000E+01 3.83090E+01 0.00000E+00
 -1      3091 3.91500E+01 3.70100E+01 0.00000E+00
 -1      3092 4.29000E+01 3.83090E+01 0.00000E+00
 -1      3093 4.44000E+01 3.83090E+01 0.00000E+00
 -1      3094 4.21500E+01 3.70100E+01 0.00000E+00
 -1      3095 4.59000E+01 3.83090E+01 0.00000E+00
 -1      3096 4.74000E+01 3.83090E+01 0.00000E+00
 -1      3097 4.51500E+01 3.70100E+01 0.00000E+00
 -1      3098 4.89000E+01 3.83090E+01 0.00000E+00
 -1      3099 5.04000E+01 3.83090E+01 0.00000E+00
 -1      3100 4.81500E+01 3.70100E+01 0.00000E+00
 -1      3101 5.19000E+01 3.83090E+01 0.00000E+00
 -1      3102 5.34000E+01 3.83090E+01 0.00000E+00
 -1      3103 5.11500E+01 3.70100E+01 0.00000E+00
 -1      3104 5.49000E+01 3.83090E+01 0.00000E+00
 -1      3105 5.64000E+01 3.83090E+01 0.00000E+00
 -1      3106 5.41500E+01 3.70100E+01 0.00000E+00
 -1      3107 5.79000E+01 3.83090E+01 0.00000E+00
 -1      3108 5.94000E+01 3.83090E+01 0.00000E+00
 -1      3109 5.71500E+01 3.70100E+01 0.00000E+00
 -1      3110 6.09000E+01 3.83090E+01 0.00000E+00
 -1      3111 6.24000E+01 3.83090E+01 0.00000E+00
 -1      3112 6.01500E+01 3.70100E+01 0.00000E+00
 -1      3113 6.39000E+01 3.83090E+01 0.00000E+00
 -1      3114 6.54000E+01 3.83090E+01 0.00000E+00
 -1      3115 6.31500E+01 3.70100E+01 0.00000E+00
 -1      3116 6.69000E+01 3.83090E+01 0.00000E+00
 -1      3117 6.84000E+01 3.83090E+01 0.00000E+00
 -1      3118 6.61500E+01 3.70100E+01 0.00000E+00
 -1      3119 6.99000E+01 3.83090E+01 0.00000E+00
 -1      3120 7.14000E+01 3.83090E+01 0.00000E+00
 -1      3121 6.91500E+01 3.70100E+01 0.00000E+00
 -1      3122 7.29000E+01 3.83090E+01 0.00000E+00
 -1      3123 7.44000E+01 3.83090E+01 0.00000E+00
 -1      3124 7.21500E+01 3.70100E+01 0.00000E+00
 -1      3125 7.59000E+01 3.83090E+01 0.00000E+00
 -1      3126 7.74000E+01 3.83090E+01 0.00000E+00
 -1      3127 7.51500E+01 3.70100E+01 0.00000E+00
 -1      3128 8.15901E+01 3.78978E+01 0.00000E+00
 -1      3129 8.30901E+01 3.78978E+01 0.00000E+00
 -1      3130 9.20004E+01 4.09587E+01 0.00000E+00
 -1      3131 9.35004E+01 4.09587E+01 0.00000E+00
 -1      3132 1.05900E+02 3.85216E+01 0.00000E+00
 -1      3133 1.07400E+02 3.85216E+01 0.00000E+00
 -1      3134 1.08900E+02 3.85216E+01 0.00000E+00
 -1      3135 1.10400E+02 3.85216E+01 0.00000E+00
 -1      3136 1.08150E+02 3.72226E+01 0.00000E+00
 -1      3137 1.11900E+02 3.85216E+01 0.00000E+00
 -1      3138 1.13400E+02 3.85216E+01 0.00000E+00
 -1      3139 1.11150E+02 3.72226E+01 0.00000E+00
 -1      3140 1.14900E+02 3.85216E+01 0.00000E+00
 -1      3141 1.16400E+02 3.85216E+01 0.00000E+00
 -1      3142 1.14150E+02 3.72226E+01 0.00000E+00
 -1      3143 1.17900E+02 3.85216E+01 0.00000E+00
 -1      3144 1.19400E+02 3.85216E+01 0.00000E+00
 -1      3145 1.17150E+02 3.72226E+01 0.00000E+00
 -1      3146 1.20900E+02 3.85216E+01 0.00000E+00
 -1      3147 1.22400E+02 3.85216E+01 0.00000E+00
 -1      3148 1.20150E+02 3.72226E+01 0.00000E+00
 -1      3149 1.23900E+02 3.85216E+01 0.00000E+00
 -1      3150 1.25400E+02 3.85216E+01 0.00000E+00
 -1      3151 1.23150E+02 3.72226E+01 0.00000E+00
 -1      3152 1.26900E+02 3.85216E+01 0.00000E+00
 -1      3153 1.28400E+02 3.85216E+01 0.00000E+00
 -1      3154 1.26150E+02 3.72226E+01 0.00000E+00
 -1      3155 1.29900E+02 3.85216E+01 0.00000E+00
 -1      3156 1.31400E+02 3.85216E+01 0.00000E+00
 -1      3157 1.29150E+02 3.72226E+01 0.00000E+00
 -1      3158 1.32900E+02 3.85216E+01 0.00000E+00
 -1      3159 1.34400E+02 3.85216E+01 0.00000E+00
 -1      3160 1.32150E+02 3.72226E+01 0.00000E+00
 -1      3161 1.35900E+02 3.85216E+01 0.00000E+00
 -1      3162 1.37400E+02 3.85216E+01 0.00000E+00
 -1      3163 1.35150E+02 3.72226E+01 0.00000E+00
 -1      3164 2.27850E+01 1.05013E+01 0.00000E+00
 -1      3165 2.12850E+01 1.05013E+01 0.00000E+00
 -1      3166 3.47850E+01 1.05013E+01 0.00000E+00
 -1      3167 3.32850E+01 1.05013E+01 0.00000E+00
 -1      3168 3.17850E+01 1.05013E+01 0.00000E+00
 -1      3169 3.02850E+01 1.05013E+01 0.00000E+00
 -1      3170 3.25350E+01 1.18003E+01 0.00000E+00
 -1      3171 4.07850E+01 1.05013E+01 0.00000E+00
 -1      3172 3.92850E+01 1.05013E+01 0.00000E+00
 -1      3173 4.37850E+01 1.05013E+01 0.00000E+00
 -1      3174 4.22850E+01 1.05013E+01 0.00000E+00
 -1      3175 4.15350E+01 1.18003E+01 0.00000E+00
 -1      3176 4.67850E+01 1.05013E+01 0.00000E+00
 -1      3177 4.52850E+01 1.05013E+01 0.00000E+00
 -1      3178 4.45350E+01 1.18003E+01 0.00000E+00
 -1      3179 4.97850E+01 1.05013E+01 0.00000E+00
 -1      3180 4.82850E+01 1.05013E+01 0.00000E+00
 -1      3181 4.75350E+01 1.18003E+01 0.00000E+00
 -1      3182 5.27850E+01 1.05013E+01 0.00000E+00
 -1      3183 5.12850E+01 1.05013E+01 0.00000E+00
 -1      3184 5.05350E+01 1.18003E+01 0.00000E+00
 -1      3185 5.57850E+01 1.05013E+01 0.00000E+00
 -1      3186 5.42850E+01 1.05013E+01 0.00000E+00
 -1      3187 5.35350E+01 1.18003E+01 0.00000E+00
 -1      3188 5.87850E+01 1.05013E+01 0.00000E+00
 -1      3189 5.72850E+01 1.05013E+01 0.00000E+00
 -1      3190 5.65350E+01 1.18003E+01 0.00000E+00
 -1      3191 6.17850E+01 1.05013E+01 0.00000E+00
 -1      3192 6.02850E+01 1.05013E+01 0.00000E+00
 -1      3193 5.95350E+01 1.18003E+01 0.00000E+00
 -1      3194 6.47850E+01 1.05013E+01 0.00000E+00
 -1      3195 6.32850E+01 1.05013E+01 0.00000E+00
 -1      3196 6.25350E+01 1.18003E+01 0.00000E+00
 -1      3197 6.77850E+01 1.05013E+01 0.00000E+00
 -1      3198 6.62850E+01 1.05013E+01 0.00000E+00
 -1      3199 6.55350E+01 1.18003E+01 0.00000E+00
 -1      3200 7.07850E+01 1.05013E+01 0.00000E+00
 -1      3201 6.92850E+01 1.05013E+01 0.00000E+00
 -1      3202 6.85350E+01 1.18003E+01 0.00000E+00
 -1      3203 7.37850E+01 1.05013E+01 0.00000E+00
 -1      3204 7.22850E+01 1.05013E+01 0.00000E+00
 -1      3205 7.15350E+01 1.18003E+01 0.00000E+00
 -1      3206 7.67850E+01 1.05013E+01 0.00000E+00
 -1      3207 7.52850E+01 1.05013E+01 0.00000E+00
 -1      3208 7.45350E+01 1.18003E+01 0.00000E+00
 -1      3209 7.97850E+01 1.05013E+01 0.00000E+00
 -1      3210 7.82850E+01 1.05013E+01 0.00000E+00
 -1      3211 7.75350E+01 1.18003E+01 0.00000E+00
 -1      3212 8.27850E+01 1.05013E+01 0.00000E+00
 -1      3213 8.12850E+01 1.05013E+01 0.00000E+00
 -1      3214 8.05350E+01 1.18003E+01 0.00000E+00
 -1      3215 8.57850E+01 1.05013E+01 0.00000E+00
 -1      3216 8.42850E+01 1.05013E+01 0.00000E+00
 -1      3217 8.35350E+01 1.18003E+01 0.00000E+00
 -1      3218 8.87850E+01 1.05013E+01 0.00000E+00
 -1      3219 8.72850E+01 1.05013E+01 0.00000E+00
 -1      3220 8.65350E+01 1.18003E+01 0.00000E+00
 -1      3221 9.17850E+01 1.05013E+01 0.00000E+00
 -1      3222 9.02850E+01 1.05013E+01 0.00000E+00
 -1      3223 8.95350E+01 1.18003E+01 0.00000E+00
 -1      3224 9.47850E+01 1.05013E+01 0.00000E+00
 -1      3225 9.32850E+01 1.05013E+01 0.00000E+00
 -1      3226 9.25350E+01 1.18003E+01 0.00000E+00
 -1      3227 9.77850E+01 1.05013E+01 0.00000E+00
 -1      3228 9.62850E+01 1.05013E+01 0.00000E+00
 -1      3229 9.55350E+01 1.18003E+01 0.00000E+00
 -1      3230 1.00785E+02 1.05013E+01 0.00000E+00
 -1      3231 9.92850E+01 1.05013E+01 0.00000E+00
 -1      3232 9.85350E+01 1.18003E+01 0.00000E+00
 -1      3233 1.03785E+02 1.05013E+01 0.00000E+00
 -1      3234 1.02285E+02 1.05013E+01 0.00000E+00
 -1      3235 1.01535E+02 1.18003E+01 0.00000E+00
 -1      3236 1.06785E+02 1.05013E+01 0.00000E+00
 -1      3237 1.05285E+02 1.05013E+01 0.00000E+00
 -1      3238 1.04535E+02 1.18003E+01 0.00000E+00
 -1      3239 1.09785E+02 1.05013E+01 0.00000E+00
 -1      3240 1.08285E+02 1.05013E+01 0.00000E+00
 -1      3241 1.07535E+02 1.18003E+01 0.00000E+00
 -1      3242 1.12785E+02 1.05013E+01 0.00000E+00
 -1      3243 1.11285E+02 1.05013E+01 0.00000E+00
 -1      3244 1.10535E+02 1.18003E+01 0.00000E+00
 -1      3245 1.15785E+02 1.05013E+01 0.00000E+00
 -1      3246 1.14285E+02 1.05013E+01 0.00000E+00
 -1      3247 1.13535E+02 1.18003E+01 0.00000E+00
 -1      3248 1.18785E+02 1.05013E+01 0.00000E+00
 -1      3249 1.17285E+02 1.05013E+01 0.00000E+00
 -1      3250 1.16535E+02 1.18003E+01 0.00000E+00
 -1      3251 1.21785E+02 1.05013E+01 0.00000E+00
 -1      3252 1.20285E+02 1.05013E+01 0.00000E+00
 -1      3253 1.19535E+02 1.18003E+01 0.00000E+00
 -1      3254 1.24785E+02 1.05013E+01 0.00000E+00
 -1      3255 1.23285E+02 1.05013E+01 0.00000E+00
 -1      3256 1.22535E+02 1.18003E+01 0.00000E+00
 -1      3257 1.27785E+02 1.05013E+01 0.00000E+00
 -1      3258 1.26285E+02 1.05013E+01 0.00000E+00
 -1      3259 1.25535E+02 1.18003E+01 0.00000E+00
 -1      3260 1.30785E+02 1.05013E+01 0.00000E+00
 -1      3261 1.29285E+02 1.05013E+01 0.00000E+00
 -1      3262 1.28535E+02 1.18003E+01 0.00000E+00
 -1      3263 1.33785E+02 1.05013E+01 0.00000E+00
 -1      3264 1.32285E+02 1.05013E+01 0.00000E+00
 -1      3265 1.31535E+02 1.18003E+01 0.00000E+00
 -1      3266 1.39021E+02 3.86785E+01 0.00000E+00
 -1      3267 1.16910E+01 2.12875E+01 0.00000E+00
 -1      3268 1.16910E+01 2.27625E+01 0.00000E+00
 -1      3269 1.38309E+02 3.16125E+01 0.00000E+00
 -1      3270 1.38309E+02 3.01375E+01 0.00000E+00
 -1      3271 1.38309E+02 2.57625E+01 0.00000E+00
 -1      3272 1.38309E+02 2.42875E+01 0.00000E+00
 -1      3273 1.38309E+02 2.86750E+01 0.00000E+00
 -1      3274 1.38309E+02 2.72250E+01 0.00000E+00
 -1      3275 1.37010E+02 2.64875E+01 0.00000E+00
 -1      3276 1.37010E+02 2.94125E+01 0.00000E+00
 -1      3277 1.00122E+02 3.92266E+01 0.00000E+00
 -1      3278 1.06851E+02 2.94188E+01 0.00000E+00
 -1      3279 1.06800E+02 3.09104E+01 0.00000E+00
 -1      3280 1.26488E+01 1.02017E+01 0.00000E+00
 -1      3281 1.20772E+01 1.14631E+01 0.00000E+00
 -1      3282 1.33763E+01 1.22006E+01 0.00000E+00
 -1      3283 1.41488E+01 1.02017E+01 0.00000E+00
 -1      3284 1.97850E+01 1.05013E+01 0.00000E+00
 -1      3285 1.82850E+01 1.05013E+01 0.00000E+00
 -1      3286 2.05350E+01 1.18003E+01 0.00000E+00
 -1      3287 8.16676E+01 2.08854E+01 0.00000E+00
 -1      3288 8.24236E+01 1.97224E+01 0.00000E+00
 -1      3289 1.04549E+02 3.46757E+01 0.00000E+00
 -1      3290 1.04162E+02 3.58703E+01 0.00000E+00
 -1      3291 9.47771E+01 1.46623E+01 0.00000E+00
 -1      3292 9.62018E+01 1.49285E+01 0.00000E+00
 -1      3293 1.16460E+01 3.80848E+01 0.00000E+00
 -1      3294 1.24605E+01 3.85216E+01 0.00000E+00
 -1      3295 1.39605E+01 3.85216E+01 0.00000E+00
 -1      3296 1.15815E+01 3.63489E+01 0.00000E+00
 -1      3297 1.38309E+02 3.45625E+01 0.00000E+00
 -1      3298 1.38309E+02 3.30875E+01 0.00000E+00
 -1      3299 1.37010E+02 3.23500E+01 0.00000E+00
 -1      3300 9.46392E+01 4.11045E+01 0.00000E+00
 -1      3301 9.53892E+01 4.01632E+01 0.00000E+00
 -1      3302 9.15122E+01 1.50546E+01 0.00000E+00
 -1      3303 9.29408E+01 1.47616E+01 0.00000E+00
 -1      3304 3.77850E+01 1.05013E+01 0.00000E+00
 -1      3305 3.62850E+01 1.05013E+01 0.00000E+00
 -1      3306 3.55350E+01 1.18003E+01 0.00000E+00
 -1      3307 3.85350E+01 1.18003E+01 0.00000E+00
 -1      3308 9.77222E+01 1.55833E+01 0.00000E+00
 -1      3309 9.89538E+01 1.61544E+01 0.00000E+00
 -1      3310 1.06863E+02 2.68544E+01 0.00000E+00
 -1      3311 1.06872E+02 2.80382E+01 0.00000E+00
 -1      3312 8.06475E+01 2.25126E+01 0.00000E+00
 -1      3313 8.11575E+01 2.16990E+01 0.00000E+00
 -1      3314 8.06058E+01 2.05131E+01 0.00000E+00
 -1      3315 1.06666E+02 2.41094E+01 0.00000E+00
 -1      3316 1.06844E+02 2.54533E+01 0.00000E+00
 -1      3317 8.08486E+01 3.44376E+01 0.00000E+00
 -1      3318 8.04198E+01 3.34180E+01 0.00000E+00
 -1      3319 1.59000E+01 3.83090E+01 0.00000E+00
 -1      3320 1.74000E+01 3.83090E+01 0.00000E+00
 -1      3321 1.81500E+01 3.70100E+01 0.00000E+00
 -1      3322 9.65837E+01 3.96290E+01 0.00000E+00
 -1      3323 9.15180E+01 4.02843E+01 0.00000E+00
 -1      3324 9.03907E+01 3.98903E+01 0.00000E+00
 -1      3325 8.59172E+01 1.65090E+01 0.00000E+00
 -1      3326 8.73326E+01 1.57781E+01 0.00000E+00
 -1      3327 1.00229E+02 1.68122E+01 0.00000E+00
 -1      3328 1.01407E+02 1.74840E+01 0.00000E+00
 -1      3329 8.34648E+01 1.84695E+01 0.00000E+00
 -1      3330 8.44583E+01 1.75267E+01 0.00000E+00
 -1      3331 1.39407E+02 1.25250E+01 0.00000E+00
 -1      3332 1.05330E+02 2.09015E+01 0.00000E+00
 -1      3333 1.06120E+02 2.22972E+01 0.00000E+00
 -1      3334 1.16910E+01 2.42375E+01 0.00000E+00
 -1      3335 1.16910E+01 2.57125E+01 0.00000E+00
 -1      3336 1.29900E+01 2.35000E+01 0.00000E+00
 -1      3337 1.05310E+02 1.88112E+01 0.00000E+00
 -1      3338 1.05320E+02 1.98564E+01 0.00000E+00
 -1      3339 1.06753E+02 1.99664E+01 0.00000E+00
 -1      3340 8.95668E+01 4.03390E+01 0.00000E+00
 -1      3341 7.97861E+01 3.28028E+01 0.00000E+00
 -1      3342 7.91525E+01 3.21875E+01 0.00000E+00
 -1      3343 7.92100E+01 3.36450E+01 0.00000E+00
 -1      3344 1.38309E+02 1.69188E+01 0.00000E+00
 -1      3345 1.38309E+02 1.54563E+01 0.00000E+00
 -1      3346 7.89000E+01 3.84153E+01 0.00000E+00
 -1      3347 8.04000E+01 3.84153E+01 0.00000E+00
 -1      3348 9.38568E+01 1.38046E+01 0.00000E+00
 -1      3349 1.38271E+02 3.73795E+01 0.00000E+00
 -1      3350 1.07308E+02 2.28238E+01 0.00000E+00
 -1      3351 1.02900E+02 3.85441E+01 0.00000E+00
 -1      3352 1.04400E+02 3.85441E+01 0.00000E+00
 -1      3353 8.21571E+01 1.84466E+01 0.00000E+00
 -1      3354 2.42850E+01 1.05013E+01 0.00000E+00
 -1      3355 2.35350E+01 1.18003E+01 0.00000E+00
 -1      3356 2.57850E+01 1.05013E+01 0.00000E+00
 -1      3357 1.02580E+02 1.75158E+01 0.00000E+00
 -1      3358 1.03754E+02 1.75476E+01 0.00000E+00
 -1      3359 1.02458E+02 1.63622E+01 0.00000E+00
 -1      3360 1.00009E+02 1.56727E+01 0.00000E+00
 -1      3361 2.95350E+01 1.18003E+01 0.00000E+00
 -1      3362 2.87850E+01 1.05013E+01 0.00000E+00
 -1      3363 2.72850E+01 1.05013E+01 0.00000E+00
 -1      3364 1.34953E+02 1.07819E+01 0.00000E+00
 -1      3365 1.34203E+02 1.20809E+01 0.00000E+00
 -1      3366 1.36120E+02 1.10626E+01 0.00000E+00
 -1      3367 1.38309E+02 1.98687E+01 0.00000E+00
 -1      3368 1.38309E+02 1.83937E+01 0.00000E+00
 -1      3369 1.37010E+02 1.76625E+01 0.00000E+00
 -1      3370 1.16910E+01 1.98188E+01 0.00000E+00
 -1      3371 1.29900E+01 2.05562E+01 0.00000E+00
 -1      3372 1.16910E+01 1.83500E+01 0.00000E+00
 -1      3373 1.01622E+02 3.92266E+01 0.00000E+00
 -1      3374 1.38309E+02 2.28156E+01 0.00000E+00
 -1      3375 1.38309E+02 2.13406E+01 0.00000E+00
 -1      3376 1.37010E+02 2.06094E+01 0.00000E+00
 -1      3377 1.37010E+02 2.35531E+01 0.00000E+00
 -1      3378 1.47105E+01 3.72226E+01 0.00000E+00
 -1      3379 1.38129E+02 3.62613E+01 0.00000E+00
 -1      3380 1.16910E+01 3.30594E+01 0.00000E+00
 -1      3381 1.16910E+01 3.45281E+01 0.00000E+00
 -1      3382 1.07871E+02 2.88188E+01 0.00000E+00
 -1      3383 1.06948E+02 3.16942E+01 0.00000E+00
 -1      3384 1.07096E+02 3.24779E+01 0.00000E+00
 -1      3385 1.07998E+02 3.09832E+01 0.00000E+00
 -1      3386 1.69669E+01 1.03515E+01 0.00000E+00
 -1      3387 1.54669E+01 1.03515E+01 0.00000E+00
 -1      3388 1.50806E+01 1.13509E+01 0.00000E+00
 -1      3389 1.77169E+01 1.16505E+01 0.00000E+00
 -1      3390 9.72136E+01 1.43601E+01 0.00000E+00
 -1      3391 1.05609E+02 3.43632E+01 0.00000E+00
 -1      3392 7.81500E+01 3.71163E+01 0.00000E+00
 -1      3393 1.07873E+02 2.60371E+01 0.00000E+00
 -1      3394 7.95359E+01 2.98566E+01 0.00000E+00
 -1      3395 7.87359E+01 2.91581E+01 0.00000E+00
 -1      3396 7.89286E+01 3.06468E+01 0.00000E+00
 -1      3397 1.36830E+02 3.55238E+01 0.00000E+00
 -1      3398 7.93625E+01 2.65829E+01 0.00000E+00
 -1      3399 7.88391E+01 2.56162E+01 0.00000E+00
 -1      3400 7.88198E+01 2.74012E+01 0.00000E+00
 -1      3401 1.02372E+02 3.79501E+01 0.00000E+00
 -1      3402 1.16910E+01 3.15906E+01 0.00000E+00
 -1      3403 1.29900E+01 3.23250E+01 0.00000E+00
 -1      3404 1.16910E+01 3.01219E+01 0.00000E+00
 -1      3405 1.05150E+02 3.72451E+01 0.00000E+00
 -1      3406 8.07517E+01 3.59188E+01 0.00000E+00
 -1      3407 7.97468E+01 3.57414E+01 0.00000E+00
 -1      3408 8.69685E+01 3.92269E+01 0.00000E+00
 -1      3409 7.97388E+01 2.30623E+01 0.00000E+00
 -1      3410 7.91871E+01 2.18764E+01 0.00000E+00
 -1      3411 7.88301E+01 2.36119E+01 0.00000E+00
 -1      3412 1.16910E+01 1.54094E+01 0.00000E+00
 -1      3413 1.16910E+01 1.68781E+01 0.00000E+00
 -1      3414 1.29900E+01 1.76156E+01 0.00000E+00
 -1      3415 1.29900E+01 1.46719E+01 0.00000E+00
 -1      3416 8.90891E+01 1.54114E+01 0.00000E+00
 -1      3417 9.03166E+01 1.53150E+01 0.00000E+00
 -1      3418 8.46572E+01 1.61760E+01 0.00000E+00
 -1      3419 8.78727E+01 1.47915E+01 0.00000E+00
 -1      3420 1.38274E+02 1.38503E+01 0.00000E+00
 -1      3421 1.38073E+02 1.16503E+01 0.00000E+00
 -1      3422 1.36905E+02 1.13696E+01 0.00000E+00
 -1      3423 1.36975E+02 1.45815E+01 0.00000E+00
 -1      3424 9.08249E+01 1.41643E+01 0.00000E+00
 -1      3425 1.35711E+02 3.30875E+01 0.00000E+00
 -1      3426 1.35711E+02 3.16125E+01 0.00000E+00
 -1      3427 1.09056E+02 2.53202E+01 0.00000E+00
 -1      3428 1.09076E+02 2.67213E+01 0.00000E+00
 -1      3429 2.34000E+01 3.57110E+01 0.00000E+00
 -1      3430 2.49000E+01 3.57110E+01 0.00000E+00
 -1      3431 2.64000E+01 3.57110E+01 0.00000E+00
 -1      3432 2.79000E+01 3.57110E+01 0.00000E+00
 -1      3433 2.56500E+01 3.44120E+01 0.00000E+00
 -1      3434 2.94000E+01 3.57110E+01 0.00000E+00
 -1      3435 3.09000E+01 3.57110E+01 0.00000E+00
 -1      3436 2.86500E+01 3.44120E+01 0.00000E+00
 -1      3437 3.24000E+01 3.57110E+01 0.00000E+00
 -1      3438 3.39000E+01 3.57110E+01 0.00000E+00
 -1      3439 3.16500E+01 3.44120E+01 0.00000E+00
 -1      3440 3.54000E+01 3.57110E+01 0.00000E+00
 -1      3441 3.69000E+01 3.57110E+01 0.00000E+00
 -1      3442 3.46500E+01 3.44120E+01 0.00000E+00
 -1      3443 3.84000E+01 3.57110E+01 0.00000E+00
 -1      3444 3.99000E+01 3.57110E+01 0.00000E+00
 -1      3445 3.76500E+01 3.44120E+01 0.00000E+00
 -1      3446 4.14000E+01 3.57110E+01 0.00000E+00
 -1      3447 4.29000E+01 3.57110E+01 0.00000E+00
 -1      3448 4.06500E+01 3.44120E+01 0.00000E+00
 -1      3449 4.44000E+01 3.57110E+01 0.00000E+00
 -1      3450 4.59000E+01 3.57110E+01 0.00000E+00
 -1      3451 4.36500E+01 3.44120E+01 0.00000E+00
 -1      3452 4.74000E+01 3.57110E+01 0.00000E+00
 -1      3453 4.89000E+01 3.57110E+01 0.00000E+00
 -1      3454 4.66500E+01 3.44120E+01 0.00000E+00
 -1      3455 5.04000E+01 3.57110E+01 0.00000E+00
 -1      3456 5.19000E+01 3.57110E+01 0.00000E+00
 -1      3457 4.96500E+01 3.44120E+01 0.00000E+00
 -1      3458 5.34000E+01 3.57110E+01 0.00000E+00
 -1      3459 5.49000E+01 3.57110E+01 0.00000E+00
 -1      3460 5.26500E+01 3.44120E+01 0.00000E+00
 -1      3461 5.64000E+01 3.57110E+01 0.00000E+00
 -1      3462 5.79000E+01 3.57110E+01 0.00000E+00
 -1      3463 5.56500E+01 3.44120E+01 0.00000E+00
 -1      3464 5.94000E+01 3.57110E+01 0.00000E+00
 -1      3465 6.09000E+01 3.57110E+01 0.00000E+00
 -1      3466 5.86500E+01 3.44120E+01 0.00000E+00
 -1      3467 6.24000E+01 3.57110E+01 0.00000E+00
 -1      3468 6.39000E+01 3.57110E+01 0.00000E+00
 -1      3469 6.16500E+01 3.44120E+01 0.00000E+00
 -1      3470 6.54000E+01 3.57110E+01 0.00000E+00
 -1      3471 6.69000E+01 3.57110E+01 0.00000E+00
 -1      3472 6.46500E+01 3.44120E+01 0.00000E+00
 -1      3473 6.84000E+01 3.57110E+01 0.00000E+00
 -1      3474 6.99000E+01 3.57110E+01 0.00000E+00
 -1      3475 6.76500E+01 3.44120E+01 0.00000E+00
 -1      3476 7.14000E+01 3.57110E+01 0.00000E+00
 -1      3477 7.29000E+01 3.57110E+01 0.00000E+00
 -1      3478 7.06500E+01 3.44120E+01 0.00000E+00
 -1      3479 7.44000E+01 3.57110E+01 0.00000E+00
 -1      3480 7.59000E+01 3.57110E+01 0.00000E+00
 -1      3481 7.36500E+01 3.44120E+01 0.00000E+00
 -1      3482 8.08401E+01 3.67051E+01 0.00000E+00
 -1      3483 9.30278E+01 1.28521E+01 0.00000E+00
 -1      3484 9.48641E+01 1.27528E+01 0.00000E+00
 -1      3485 8.40750E+01 3.80502E+01 0.00000E+00
 -1      3486 8.06374E+01 1.82428E+01 0.00000E+00
 -1      3487 8.16786E+01 1.69899E+01 0.00000E+00
 -1      3488 1.10400E+02 3.59461E+01 0.00000E+00
 -1      3489 1.11900E+02 3.59461E+01 0.00000E+00
 -1      3490 1.13400E+02 3.59461E+01 0.00000E+00
 -1      3491 1.14900E+02 3.59461E+01 0.00000E+00
 -1      3492 1.12650E+02 3.46696E+01 0.00000E+00
 -1      3493 1.16400E+02 3.59461E+01 0.00000E+00
 -1      3494 1.17900E+02 3.59461E+01 0.00000E+00
 -1      3495 1.15650E+02 3.46696E+01 0.00000E+00
 -1      3496 1.19400E+02 3.59461E+01 0.00000E+00
 -1      3497 1.20900E+02 3.59461E+01 0.00000E+00
 -1      3498 1.18650E+02 3.46696E+01 0.00000E+00
 -1      3499 1.22400E+02 3.59461E+01 0.00000E+00
 -1      3500 1.23900E+02 3.59461E+01 0.00000E+00
 -1      3501 1.21650E+02 3.46696E+01 0.00000E+00
 -1      3502 1.25400E+02 3.59461E+01 0.00000E+00
 -1      3503 1.26900E+02 3.59461E+01 0.00000E+00
 -1      3504 1.24650E+02 3.46696E+01 0.00000E+00
 -1      3505 1.28400E+02 3.59461E+01 0.00000E+00
 -1      3506 1.29900E+02 3.59461E+01 0.00000E+00
 -1      3507 1.27650E+02 3.46696E+01 0.00000E+00
 -1      3508 1.31400E+02 3.59461E+01 0.00000E+00
 -1      3509 1.32900E+02 3.59461E+01 0.00000E+00
 -1      3510 1.30650E+02 3.46696E+01 0.00000E+00
 -1      3511 1.35330E+02 3.55238E+01 0.00000E+00
 -1      3512 4.52850E+01 1.30992E+01 0.00000E+00
 -1      3513 4.37850E+01 1.30992E+01 0.00000E+00
 -1      3514 4.22850E+01 1.30992E+01 0.00000E+00
 -1      3515 4.07850E+01 1.30992E+01 0.00000E+00
 -1      3516 4.30350E+01 1.43982E+01 0.00000E+00
 -1      3517 5.12850E+01 1.30992E+01 0.00000E+00
 -1      3518 4.97850E+01 1.30992E+01 0.00000E+00
 -1      3519 5.42850E+01 1.30992E+01 0.00000E+00
 -1      3520 5.27850E+01 1.30992E+01 0.00000E+00
 -1      3521 5.20350E+01 1.43982E+01 0.00000E+00
 -1      3522 5.72850E+01 1.30992E+01 0.00000E+00
 -1      3523 5.57850E+01 1.30992E+01 0.00000E+00
 -1      3524 5.50350E+01 1.43982E+01 0.00000E+00
 -1      3525 6.02850E+01 1.30992E+01 0.00000E+00
 -1      3526 5.87850E+01 1.30992E+01 0.00000E+00
 -1      3527 5.80350E+01 1.43982E+01 0.00000E+00
 -1      3528 6.32850E+01 1.30992E+01 0.00000E+00
 -1      3529 6.17850E+01 1.30992E+01 0.00000E+00
 -1      3530 6.10350E+01 1.43982E+01 0.00000E+00
 -1      3531 6.62850E+01 1.30992E+01 0.00000E+00
 -1      3532 6.47850E+01 1.30992E+01 0.00000E+00
 -1      3533 6.40350E+01 1.43982E+01 0.00000E+00
 -1      3534 6.92850E+01 1.30992E+01 0.00000E+00
 -1      3535 6.77850E+01 1.30992E+01 0.00000E+00
 -1      3536 6.70350E+01 1.43982E+01 0.00000E+00
 -1      3537 7.22850E+01 1.30992E+01 0.00000E+00
 -1      3538 7.07850E+01 1.30992E+01 0.00000E+00
 -1      3539 7.00350E+01 1.43982E+01 0.00000E+00
 -1      3540 7.52850E+01 1.30992E+01 0.00000E+00
 -1      3541 7.37850E+01 1.30992E+01 0.00000E+00
 -1      3542 7.30350E+01 1.43982E+01 0.00000E+00
 -1      3543 7.82850E+01 1.30992E+01 0.00000E+00
 -1      3544 7.67850E+01 1.30992E+01 0.00000E+00
 -1      3545 7.60350E+01 1.43982E+01 0.00000E+00
 -1      3546 8.10970E+01 1.42932E+01 0.00000E+00
 -1      3547 7.95970E+01 1.42932E+01 0.00000E+00
 -1      3548 8.70756E+01 1.34792E+01 0.00000E+00
 -1      3549 8.55756E+01 1.34792E+01 0.00000E+00
 -1      3550 9.03321E+01 1.31125E+01 0.00000E+00
 -1      3551 8.88321E+01 1.31125E+01 0.00000E+00
 -1      3552 9.15278E+01 1.28521E+01 0.00000E+00
 -1      3553 9.63641E+01 1.27528E+01 0.00000E+00
 -1      3554 1.02285E+02 1.29929E+01 0.00000E+00
 -1      3555 1.00785E+02 1.29929E+01 0.00000E+00
 -1      3556 1.04833E+02 1.40971E+01 0.00000E+00
 -1      3557 1.03333E+02 1.40971E+01 0.00000E+00
 -1      3558 1.11285E+02 1.30992E+01 0.00000E+00
 -1      3559 1.09785E+02 1.30992E+01 0.00000E+00
 -1      3560 1.14285E+02 1.30992E+01 0.00000E+00
 -1      3561 1.12785E+02 1.30992E+01 0.00000E+00
 -1      3562 1.12035E+02 1.43982E+01 0.00000E+00
 -1      3563 1.17285E+02 1.30992E+01 0.00000E+00
 -1      3564 1.15785E+02 1.30992E+01 0.00000E+00
 -1      3565 1.15035E+02 1.43982E+01 0.00000E+00
 -1      3566 1.20285E+02 1.30992E+01 0.00000E+00
 -1      3567 1.18785E+02 1.30992E+01 0.00000E+00
 -1      3568 1.18035E+02 1.43982E+01 0.00000E+00
 -1      3569 1.23285E+02 1.30992E+01 0.00000E+00
 -1      3570 1.21785E+02 1.30992E+01 0.00000E+00
 -1      3571 1.21035E+02 1.43982E+01 0.00000E+00
 -1      3572 1.26285E+02 1.30992E+01 0.00000E+00
 -1      3573 1.24785E+02 1.30992E+01 0.00000E+00
 -1      3574 1.24035E+02 1.43982E+01 0.00000E+00
 -1      3575 1.29285E+02 1.30992E+01 0.00000E+00
 -1      3576 1.27785E+02 1.30992E+01 0.00000E+00
 -1      3577 1.27035E+02 1.43982E+01 0.00000E+00
 -1      3578 1.32285E+02 1.30992E+01 0.00000E+00
 -1      3579 1.30785E+02 1.30992E+01 0.00000E+00
 -1      3580 1.30035E+02 1.43982E+01 0.00000E+00
 -1      3581 1.08017E+02 2.16221E+01 0.00000E+00
 -1      3582 1.08563E+02 2.34343E+01 0.00000E+00
 -1      3583 1.35992E+01 3.60377E+01 0.00000E+00
 -1      3584 1.55387E+01 3.58251E+01 0.00000E+00
 -1      3585 1.09054E+02 2.81019E+01 0.00000E+00
 -1      3586 1.09033E+02 2.94825E+01 0.00000E+00
 -1      3587 1.10237E+02 2.73849E+01 0.00000E+00
 -1      3588 4.82850E+01 1.30992E+01 0.00000E+00
 -1      3589 4.67850E+01 1.30992E+01 0.00000E+00
 -1      3590 4.60350E+01 1.43982E+01 0.00000E+00
 -1      3591 4.90350E+01 1.43982E+01 0.00000E+00
 -1      3592 3.32850E+01 1.30992E+01 0.00000E+00
 -1      3593 3.17850E+01 1.30992E+01 0.00000E+00
 -1      3594 1.04411E+02 3.64025E+01 0.00000E+00
 -1      3595 1.03401E+02 3.67354E+01 0.00000E+00
 -1      3596 1.06788E+02 3.41340E+01 0.00000E+00
 -1      3597 1.06351E+02 3.53083E+01 0.00000E+00
 -1      3598 1.07090E+02 3.61508E+01 0.00000E+00
 -1      3599 1.08590E+02 3.61508E+01 0.00000E+00
 -1      3600 1.16910E+01 2.71844E+01 0.00000E+00
 -1      3601 1.16910E+01 2.86531E+01 0.00000E+00
 -1      3602 1.29900E+01 2.93875E+01 0.00000E+00
 -1      3603 8.48193E+01 3.91206E+01 0.00000E+00
 -1      3604 7.70734E+01 3.56731E+01 0.00000E+00
 -1      3605 7.85734E+01 3.57794E+01 0.00000E+00
 -1      3606 7.86703E+01 3.42982E+01 0.00000E+00
 -1      3607 7.63234E+01 3.43741E+01 0.00000E+00
 -1      3608 2.04000E+01 3.57110E+01 0.00000E+00
 -1      3609 2.19000E+01 3.57110E+01 0.00000E+00
 -1      3610 2.26500E+01 3.44120E+01 0.00000E+00
 -1      3611 9.11676E+01 4.15316E+01 0.00000E+00
 -1      3612 1.05911E+02 3.63800E+01 0.00000E+00
 -1      3613 7.96173E+01 1.98701E+01 0.00000E+00
 -1      3614 8.01274E+01 1.90564E+01 0.00000E+00
 -1      3615 7.96489E+01 1.75998E+01 0.00000E+00
 -1      3616 9.78845E+01 1.34076E+01 0.00000E+00
 -1      3617 1.74000E+01 3.57110E+01 0.00000E+00
 -1      3618 1.89000E+01 3.57110E+01 0.00000E+00
 -1      3619 1.96500E+01 3.44120E+01 0.00000E+00
 -1      3620 1.00135E+02 1.46003E+01 0.00000E+00
 -1      3621 1.01410E+02 1.52580E+01 0.00000E+00
 -1      3622 9.93845E+01 1.34076E+01 0.00000E+00
 -1      3623 1.34031E+02 3.47863E+01 0.00000E+00
 -1      3624 2.12850E+01 1.30992E+01 0.00000E+00
 -1      3625 1.97850E+01 1.30992E+01 0.00000E+00
 -1      3626 1.05187E+02 1.76576E+01 0.00000E+00
 -1      3627 1.06620E+02 1.77676E+01 0.00000E+00
 -1      3628 1.05065E+02 1.65040E+01 0.00000E+00
 -1      3629 7.80366E+01 3.36829E+01 0.00000E+00
 -1      3630 1.42890E+01 1.98219E+01 0.00000E+00
 -1      3631 1.42890E+01 2.12906E+01 0.00000E+00
 -1      3632 1.09340E+02 3.48744E+01 0.00000E+00
 -1      3633 1.55880E+01 2.20313E+01 0.00000E+00
 -1      3634 1.42890E+01 2.27656E+01 0.00000E+00
 -1      3635 1.42890E+01 2.42406E+01 0.00000E+00
 -1      3636 3.92850E+01 1.30992E+01 0.00000E+00
 -1      3637 3.77850E+01 1.30992E+01 0.00000E+00
 -1      3638 4.00350E+01 1.43982E+01 0.00000E+00
 -1      3639 2.65350E+01 1.18003E+01 0.00000E+00
 -1      3640 3.47850E+01 1.30992E+01 0.00000E+00
 -1      3641 3.40350E+01 1.43982E+01 0.00000E+00
 -1      3642 3.62850E+01 1.30992E+01 0.00000E+00
 -1      3643 1.02583E+02 1.52898E+01 0.00000E+00
 -1      3644 3.02850E+01 1.30992E+01 0.00000E+00
 -1      3645 2.87850E+01 1.30992E+01 0.00000E+00
 -1      3646 3.10350E+01 1.43982E+01 0.00000E+00
 -1      3647 1.36155E+02 1.26686E+01 0.00000E+00
 -1      3648 8.26166E+01 1.44970E+01 0.00000E+00
 -1      3649 8.41166E+01 1.44970E+01 0.00000E+00
 -1      3650 1.06266E+02 1.42071E+01 0.00000E+00
 -1      3651 1.07766E+02 1.42071E+01 0.00000E+00
 -1      3652 1.09765E+02 2.41185E+01 0.00000E+00
 -1      3653 1.33453E+02 1.33799E+01 0.00000E+00
 -1      3654 1.32703E+02 1.46789E+01 0.00000E+00
 -1      3655 1.34620E+02 1.36606E+01 0.00000E+00
 -1      3656 1.08007E+02 2.05769E+01 0.00000E+00
 -1      3657 1.09262E+02 2.11875E+01 0.00000E+00
 -1      3658 1.07997E+02 1.95317E+01 0.00000E+00
 -1      3659 1.62887E+01 3.45261E+01 0.00000E+00
 -1      3660 1.34412E+02 3.08875E+01 0.00000E+00
 -1      3661 1.35711E+02 3.01500E+01 0.00000E+00
 -1      3662 1.35711E+02 2.86875E+01 0.00000E+00
 -1      3663 1.35711E+02 1.84000E+01 0.00000E+00
 -1      3664 1.35711E+02 1.69250E+01 0.00000E+00
 -1      3665 1.35711E+02 2.42891E+01 0.00000E+00
 -1      3666 1.35711E+02 2.28172E+01 0.00000E+00
 -1      3667 1.10364E+02 2.95493E+01 0.00000E+00
 -1      3668 1.09181E+02 3.02662E+01 0.00000E+00
 -1      3669 1.09329E+02 3.10500E+01 0.00000E+00
 -1      3670 1.35711E+02 2.72195E+01 0.00000E+00
 -1      3671 1.35711E+02 2.57570E+01 0.00000E+00
 -1      3672 1.34412E+02 2.50211E+01 0.00000E+00
 -1      3673 1.34412E+02 2.79570E+01 0.00000E+00
 -1      3674 2.42850E+01 1.30992E+01 0.00000E+00
 -1      3675 2.27850E+01 1.30992E+01 0.00000E+00
 -1      3676 2.20350E+01 1.43982E+01 0.00000E+00
 -1      3677 1.28805E+01 3.56145E+01 0.00000E+00
 -1      3678 1.34141E+02 1.63111E+01 0.00000E+00
 -1      3679 1.35440E+02 1.55736E+01 0.00000E+00
 -1      3680 1.84669E+01 1.29495E+01 0.00000E+00
 -1      3681 1.71488E+01 1.27997E+01 0.00000E+00
 -1      3682 1.92169E+01 1.42485E+01 0.00000E+00
 -1      3683 1.42284E+01 1.25117E+01 0.00000E+00
 -1      3684 1.38422E+01 1.35111E+01 0.00000E+00
 -1      3685 1.38422E+01 1.49830E+01 0.00000E+00
 -1      3686 1.55466E+01 1.26615E+01 0.00000E+00
 -1      3687 7.83525E+01 3.14890E+01 0.00000E+00
 -1      3688 7.75525E+01 3.07905E+01 0.00000E+00
 -1      3689 7.77764E+01 3.23312E+01 0.00000E+00
 -1      3690 1.07838E+02 3.34230E+01 0.00000E+00
 -1      3691 7.82125E+01 2.81914E+01 0.00000E+00
 -1      3692 7.76892E+01 2.72247E+01 0.00000E+00
 -1      3693 7.76053E+01 2.89816E+01 0.00000E+00
 -1      3694 1.29900E+01 2.64469E+01 0.00000E+00
 -1      3695 7.82874E+01 2.44303E+01 0.00000E+00
 -1      3696 7.77357E+01 2.32444E+01 0.00000E+00
 -1      3697 7.77447E+01 2.52486E+01 0.00000E+00
 -1      3698 7.78000E+01 2.09694E+01 0.00000E+00
 -1      3699 7.87086E+01 2.04197E+01 0.00000E+00
 -1      3700 7.82302E+01 1.89630E+01 0.00000E+00
 -1      3701 1.08516E+02 1.55061E+01 0.00000E+00
 -1      3702 1.37087E+01 3.42169E+01 0.00000E+00
 -1      3703 1.37087E+01 3.27482E+01 0.00000E+00
 -1      3704 1.44274E+01 3.31713E+01 0.00000E+00
 -1      3705 1.37087E+01 3.12794E+01 0.00000E+00
 -1      3706 1.42890E+01 1.83500E+01 0.00000E+00
 -1      3707 1.55880E+01 1.90844E+01 0.00000E+00
 -1      3708 1.42890E+01 1.68781E+01 0.00000E+00
 -1      3709 1.09648E+02 3.32183E+01 0.00000E+00
 -1      3710 2.19000E+01 3.31130E+01 0.00000E+00
 -1      3711 2.34000E+01 3.31130E+01 0.00000E+00
 -1      3712 2.79000E+01 3.31130E+01 0.00000E+00
 -1      3713 2.94000E+01 3.31130E+01 0.00000E+00
 -1      3714 3.09000E+01 3.31130E+01 0.00000E+00
 -1      3715 3.24000E+01 3.31130E+01 0.00000E+00
 -1      3716 3.01500E+01 3.18140E+01 0.00000E+00
 -1      3717 3.39000E+01 3.31130E+01 0.00000E+00
 -1      3718 3.54000E+01 3.31130E+01 0.00000E+00
 -1      3719 3.31500E+01 3.18140E+01 0.00000E+00
 -1      3720 3.69000E+01 3.31130E+01 0.00000E+00
 -1      3721 3.84000E+01 3.31130E+01 0.00000E+00
 -1      3722 3.61500E+01 3.18140E+01 0.00000E+00
 -1      3723 3.99000E+01 3.31130E+01 0.00000E+00
 -1      3724 4.14000E+01 3.31130E+01 0.00000E+00
 -1      3725 3.91500E+01 3.18140E+01 0.00000E+00
 -1      3726 4.29000E+01 3.31130E+01 0.00000E+00
 -1      3727 4.44000E+01 3.31130E+01 0.00000E+00
 -1      3728 4.21500E+01 3.18140E+01 0.00000E+00
 -1      3729 4.59000E+01 3.31130E+01 0.00000E+00
 -1      3730 4.74000E+01 3.31130E+01 0.00000E+00
 -1      3731 4.51500E+01 3.18140E+01 0.00000E+00
 -1      3732 4.89000E+01 3.31130E+01 0.00000E+00
 -1      3733 5.04000E+01 3.31130E+01 0.00000E+00
 -1      3734 4.81500E+01 3.18140E+01 0.00000E+00
 -1      3735 5.19000E+01 3.31130E+01 0.00000E+00
 -1      3736 5.34000E+01 3.31130E+01 0.00000E+00
 -1      3737 5.11500E+01 3.18140E+01 0.00000E+00
 -1      3738 5.49000E+01 3.31130E+01 0.00000E+00
 -1      3739 5.64000E+01 3.31130E+01 0.00000E+00
 -1      3740 5.41500E+01 3.18140E+01 0.00000E+00
 -1      3741 5.79000E+01 3.31130E+01 0.00000E+00
 -1      3742 5.94000E+01 3.31130E+01 0.00000E+00
 -1      3743 5.71500E+01 3.18140E+01 0.00000E+00
 -1      3744 6.09000E+01 3.31130E+01 0.00000E+00
 -1      3745 6.24000E+01 3.31130E+01 0.00000E+00
 -1      3746 6.01500E+01 3.18140E+01 0.00000E+00
 -1      3747 6.39000E+01 3.31130E+01 0.00000E+00
 -1      3748 6.54000E+01 3.31130E+01 0.00000E+00
 -1      3749 6.31500E+01 3.18140E+01 0.00000E+00
 -1      3750 6.69000E+01 3.31130E+01 0.00000E+00
 -1      3751 6.84000E+01 3.31130E+01 0.00000E+00
 -1      3752 6.61500E+01 3.18140E+01 0.00000E+00
 -1      3753 6.99000E+01 3.31130E+01 0.00000E+00
 -1      3754 7.14000E+01 3.31130E+01 0.00000E+00
 -1      3755 6.91500E+01 3.18140E+01 0.00000E+00
 -1      3756 7.29000E+01 3.31130E+01 0.00000E+00
 -1      3757 7.44000E+01 3.31130E+01 0.00000E+00
 -1      3758 7.21500E+01 3.18140E+01 0.00000E+00
 -1      3759 1.89000E+01 3.31130E+01 0.00000E+00
 -1      3760 2.04000E+01 3.31130E+01 0.00000E+00
 -1      3761 2.11500E+01 3.18140E+01 0.00000E+00
 -1      3762 1.33281E+02 3.35098E+01 0.00000E+00
 -1      3763 1.14900E+02 3.33706E+01 0.00000E+00
 -1      3764 1.16400E+02 3.33706E+01 0.00000E+00
 -1      3765 1.17900E+02 3.33706E+01 0.00000E+00
 -1      3766 1.19400E+02 3.33706E+01 0.00000E+00
 -1      3767 1.17150E+02 3.20716E+01 0.00000E+00
 -1      3768 1.20900E+02 3.33706E+01 0.00000E+00
 -1      3769 1.22400E+02 3.33706E+01 0.00000E+00
 -1      3770 1.20150E+02 3.20716E+01 0.00000E+00
 -1      3771 1.23900E+02 3.33706E+01 0.00000E+00
 -1      3772 1.25400E+02 3.33706E+01 0.00000E+00
 -1      3773 1.23150E+02 3.20716E+01 0.00000E+00
 -1      3774 1.26900E+02 3.33706E+01 0.00000E+00
 -1      3775 1.28400E+02 3.33706E+01 0.00000E+00
 -1      3776 1.26150E+02 3.20716E+01 0.00000E+00
 -1      3777 1.29900E+02 3.33706E+01 0.00000E+00
 -1      3778 1.31400E+02 3.33706E+01 0.00000E+00
 -1      3779 1.29150E+02 3.20716E+01 0.00000E+00
 -1      3780 4.37850E+01 1.56973E+01 0.00000E+00
 -1      3781 4.22850E+01 1.56973E+01 0.00000E+00
 -1      3782 2.72850E+01 1.30992E+01 0.00000E+00
 -1      3783 2.57850E+01 1.30992E+01 0.00000E+00
 -1      3784 2.50350E+01 1.43982E+01 0.00000E+00
 -1      3785 5.57850E+01 1.56973E+01 0.00000E+00
 -1      3786 5.42850E+01 1.56973E+01 0.00000E+00
 -1      3787 5.27850E+01 1.56973E+01 0.00000E+00
 -1      3788 5.12850E+01 1.56973E+01 0.00000E+00
 -1      3789 5.35350E+01 1.69963E+01 0.00000E+00
 -1      3790 6.17850E+01 1.56973E+01 0.00000E+00
 -1      3791 6.02850E+01 1.56973E+01 0.00000E+00
 -1      3792 6.47850E+01 1.56973E+01 0.00000E+00
 -1      3793 6.32850E+01 1.56973E+01 0.00000E+00
 -1      3794 6.25350E+01 1.69963E+01 0.00000E+00
 -1      3795 6.77850E+01 1.56973E+01 0.00000E+00
 -1      3796 6.62850E+01 1.56973E+01 0.00000E+00
 -1      3797 6.55350E+01 1.69963E+01 0.00000E+00
 -1      3798 7.07850E+01 1.56973E+01 0.00000E+00
 -1      3799 6.92850E+01 1.56973E+01 0.00000E+00
 -1      3800 6.85350E+01 1.69963E+01 0.00000E+00
 -1      3801 7.37850E+01 1.56973E+01 0.00000E+00
 -1      3802 7.22850E+01 1.56973E+01 0.00000E+00
 -1      3803 7.15350E+01 1.69963E+01 0.00000E+00
 -1      3804 7.88470E+01 1.55922E+01 0.00000E+00
 -1      3805 7.82835E+01 1.76844E+01 0.00000E+00
 -1      3806 7.87936E+01 1.68708E+01 0.00000E+00
 -1      3807 7.74816E+01 1.56769E+01 0.00000E+00
 -1      3808 7.73749E+01 1.82341E+01 0.00000E+00
 -1      3809 1.12785E+02 1.56973E+01 0.00000E+00
 -1      3810 1.11285E+02 1.56973E+01 0.00000E+00
 -1      3811 1.21785E+02 1.56973E+01 0.00000E+00
 -1      3812 1.20285E+02 1.56973E+01 0.00000E+00
 -1      3813 1.24785E+02 1.56973E+01 0.00000E+00
 -1      3814 1.23285E+02 1.56973E+01 0.00000E+00
 -1      3815 1.22535E+02 1.69963E+01 0.00000E+00
 -1      3816 1.27785E+02 1.56973E+01 0.00000E+00
 -1      3817 1.26285E+02 1.56973E+01 0.00000E+00
 -1      3818 1.25535E+02 1.69963E+01 0.00000E+00
 -1      3819 1.30785E+02 1.56973E+01 0.00000E+00
 -1      3820 1.29285E+02 1.56973E+01 0.00000E+00
 -1      3821 1.28535E+02 1.69963E+01 0.00000E+00
 -1      3822 1.35711E+02 1.98719E+01 0.00000E+00
 -1      3823 1.34412E+02 1.91344E+01 0.00000E+00
 -1      3824 1.35711E+02 2.13438E+01 0.00000E+00
 -1      3825 1.34412E+02 2.20797E+01 0.00000E+00
 -1      3826 1.10775E+02 2.28468E+01 0.00000E+00
 -1      3827 1.11268E+02 2.47326E+01 0.00000E+00
 -1      3828 1.33047E+02 1.61445E+01 0.00000E+00
 -1      3829 1.31879E+02 1.58638E+01 0.00000E+00
 -1      3830 1.31129E+02 1.71628E+01 0.00000E+00
 -1      3831 1.33318E+02 1.74959E+01 0.00000E+00
 -1      3832 5.87850E+01 1.56973E+01 0.00000E+00
 -1      3833 5.72850E+01 1.56973E+01 0.00000E+00
 -1      3834 5.95350E+01 1.69963E+01 0.00000E+00
 -1      3835 1.35405E+02 1.39676E+01 0.00000E+00
 -1      3836 1.57330E+01 3.31992E+01 0.00000E+00
 -1      3837 1.75943E+01 3.30851E+01 0.00000E+00
 -1      3838 1.83443E+01 3.17861E+01 0.00000E+00
 -1      3839 1.57330E+01 3.17304E+01 0.00000E+00
 -1      3840 1.11547E+02 2.67147E+01 0.00000E+00
 -1      3841 1.11525E+02 2.80952E+01 0.00000E+00
 -1      3842 1.18785E+02 1.56973E+01 0.00000E+00
 -1      3843 1.17285E+02 1.56973E+01 0.00000E+00
 -1      3844 1.19535E+02 1.69963E+01 0.00000E+00
 -1      3845 1.15785E+02 1.56973E+01 0.00000E+00
 -1      3846 1.14285E+02 1.56973E+01 0.00000E+00
 -1      3847 1.16535E+02 1.69963E+01 0.00000E+00
 -1      3848 1.37087E+01 2.83419E+01 0.00000E+00
 -1      3849 1.37087E+01 2.98107E+01 0.00000E+00
 -1      3850 1.44274E+01 3.02338E+01 0.00000E+00
 -1      3851 7.56316E+01 3.34169E+01 0.00000E+00
 -1      3852 7.68050E+01 3.33790E+01 0.00000E+00
 -1      3853 7.73448E+01 3.27258E+01 0.00000E+00
 -1      3854 7.48816E+01 3.21179E+01 0.00000E+00
 -1      3855 1.11900E+02 3.33706E+01 0.00000E+00
 -1      3856 1.13400E+02 3.33706E+01 0.00000E+00
 -1      3857 1.14150E+02 3.20716E+01 0.00000E+00
 -1      3858 1.42890E+01 2.57125E+01 0.00000E+00
 -1      3859 1.42890E+01 2.71844E+01 0.00000E+00
 -1      3860 1.55880E+01 2.49781E+01 0.00000E+00
 -1      3861 1.09962E+02 1.61785E+01 0.00000E+00
 -1      3862 1.07943E+02 1.72863E+01 0.00000E+00
 -1      3863 1.08066E+02 1.84399E+01 0.00000E+00
 -1      3864 1.10712E+02 1.74775E+01 0.00000E+00
 -1      3865 2.49000E+01 3.31130E+01 0.00000E+00
 -1      3866 2.64000E+01 3.31130E+01 0.00000E+00
 -1      3867 2.41500E+01 3.18140E+01 0.00000E+00
 -1      3868 1.10831E+02 3.25013E+01 0.00000E+00
 -1      3869 1.32531E+02 3.22108E+01 0.00000E+00
 -1      3870 2.71500E+01 3.18140E+01 0.00000E+00
 -1      3871 4.67850E+01 1.56973E+01 0.00000E+00
 -1      3872 4.52850E+01 1.56973E+01 0.00000E+00
 -1      3873 4.45350E+01 1.69963E+01 0.00000E+00
 -1      3874 7.67145E+01 2.26060E+01 0.00000E+00
 -1      3875 7.72572E+01 2.17877E+01 0.00000E+00
 -1      3876 7.67788E+01 2.03310E+01 0.00000E+00
 -1      3877 1.12557E+02 2.54429E+01 0.00000E+00
 -1      3878 1.68870E+01 2.12938E+01 0.00000E+00
 -1      3879 1.68870E+01 2.27687E+01 0.00000E+00
 -1      3880 4.07850E+01 1.56973E+01 0.00000E+00
 -1      3881 3.92850E+01 1.56973E+01 0.00000E+00
 -1      3882 4.15350E+01 1.69963E+01 0.00000E+00
 -1      3883 1.68870E+01 1.83500E+01 0.00000E+00
 -1      3884 1.68870E+01 1.98219E+01 0.00000E+00
 -1      3885 1.81860E+01 2.05594E+01 0.00000E+00
 -1      3886 3.70350E+01 1.43982E+01 0.00000E+00
 -1      3887 1.50077E+01 2.76075E+01 0.00000E+00
 -1      3888 3.17850E+01 1.56973E+01 0.00000E+00
 -1      3889 3.02850E+01 1.56973E+01 0.00000E+00
 -1      3890 5.65350E+01 1.69963E+01 0.00000E+00
 -1      3891 7.59816E+01 1.56769E+01 0.00000E+00
 -1      3892 1.13535E+02 1.69963E+01 0.00000E+00
 -1      3893 1.51412E+01 1.57174E+01 0.00000E+00
 -1      3894 1.11673E+02 2.88790E+01 0.00000E+00
 -1      3895 1.11821E+02 2.96627E+01 0.00000E+00
 -1      3896 1.12983E+02 2.82087E+01 0.00000E+00
 -1      3897 1.33318E+02 2.04397E+01 0.00000E+00
 -1      3898 1.33318E+02 1.89678E+01 0.00000E+00
 -1      3899 1.32223E+02 1.88013E+01 0.00000E+00
 -1      3900 1.09320E+02 1.90505E+01 0.00000E+00
 -1      3901 1.32531E+02 3.07483E+01 0.00000E+00
 -1      3902 1.10765E+02 2.18016E+01 0.00000E+00
 -1      3903 1.12268E+02 2.24157E+01 0.00000E+00
 -1      3904 1.10755E+02 2.07564E+01 0.00000E+00
 -1      3905 1.97293E+01 1.56141E+01 0.00000E+00
 -1      3906 1.84111E+01 1.54643E+01 0.00000E+00
 -1      3907 3.47850E+01 1.56973E+01 0.00000E+00
 -1      3908 3.32850E+01 1.56973E+01 0.00000E+00
 -1      3909 3.25350E+01 1.69963E+01 0.00000E+00
 -1      3910 7.52316E+01 1.69759E+01 0.00000E+00
 -1      3911 1.62966E+01 1.39605E+01 0.00000E+00
 -1      3912 4.97850E+01 1.56973E+01 0.00000E+00
 -1      3913 4.82850E+01 1.56973E+01 0.00000E+00
 -1      3914 4.75350E+01 1.69963E+01 0.00000E+00
 -1      3915 1.33113E+02 2.57551E+01 0.00000E+00
 -1      3916 1.33113E+02 2.42871E+01 0.00000E+00
 -1      3917 7.64530E+01 3.06660E+01 0.00000E+00
 -1      3918 7.70292E+01 2.98238E+01 0.00000E+00
 -1      3919 7.65058E+01 2.88571E+01 0.00000E+00
 -1      3920 2.80350E+01 1.43982E+01 0.00000E+00
 -1      3921 7.65302E+01 2.68290E+01 0.00000E+00
 -1      3922 7.71375E+01 2.60388E+01 0.00000E+00
 -1      3923 7.65857E+01 2.48529E+01 0.00000E+00
 -1      3924 2.27293E+01 1.56141E+01 0.00000E+00
 -1      3925 2.12293E+01 1.56141E+01 0.00000E+00
 -1      3926 2.04235E+01 1.68299E+01 0.00000E+00
 -1      3927 1.33215E+02 2.31001E+01 0.00000E+00
 -1      3928 1.33215E+02 2.16267E+01 0.00000E+00
 -1      3929 1.32121E+02 2.14601E+01 0.00000E+00
 -1      3930 1.31916E+02 2.38341E+01 0.00000E+00
 -1      3931 5.05350E+01 1.69963E+01 0.00000E+00
 -1      3932 5.12850E+01 1.82952E+01 0.00000E+00
 -1      3933 4.97850E+01 1.82952E+01 0.00000E+00
 -1      3934 2.04000E+01 3.05150E+01 0.00000E+00
 -1      3935 2.19000E+01 3.05150E+01 0.00000E+00
 -1      3936 3.24000E+01 3.05150E+01 0.00000E+00
 -1      3937 3.39000E+01 3.05150E+01 0.00000E+00
 -1      3938 3.54000E+01 3.05150E+01 0.00000E+00
 -1      3939 3.69000E+01 3.05150E+01 0.00000E+00
 -1      3940 3.46500E+01 2.92160E+01 0.00000E+00
 -1      3941 3.84000E+01 3.05150E+01 0.00000E+00
 -1      3942 3.99000E+01 3.05150E+01 0.00000E+00
 -1      3943 3.76500E+01 2.92160E+01 0.00000E+00
 -1      3944 4.14000E+01 3.05150E+01 0.00000E+00
 -1      3945 4.29000E+01 3.05150E+01 0.00000E+00
 -1      3946 4.06500E+01 2.92160E+01 0.00000E+00
 -1      3947 4.44000E+01 3.05150E+01 0.00000E+00
 -1      3948 4.59000E+01 3.05150E+01 0.00000E+00
 -1      3949 4.36500E+01 2.92160E+01 0.00000E+00
 -1      3950 4.74000E+01 3.05150E+01 0.00000E+00
 -1      3951 4.89000E+01 3.05150E+01 0.00000E+00
 -1      3952 4.66500E+01 2.92160E+01 0.00000E+00
 -1      3953 5.04000E+01 3.05150E+01 0.00000E+00
 -1      3954 5.19000E+01 3.05150E+01 0.00000E+00
 -1      3955 4.96500E+01 2.92160E+01 0.00000E+00
 -1      3956 5.34000E+01 3.05150E+01 0.00000E+00
 -1      3957 5.49000E+01 3.05150E+01 0.00000E+00
 -1      3958 5.26500E+01 2.92160E+01 0.00000E+00
 -1      3959 5.64000E+01 3.05150E+01 0.00000E+00
 -1      3960 5.79000E+01 3.05150E+01 0.00000E+00
 -1      3961 5.56500E+01 2.92160E+01 0.00000E+00
 -1      3962 5.94000E+01 3.05150E+01 0.00000E+00
 -1      3963 6.09000E+01 3.05150E+01 0.00000E+00
 -1      3964 5.86500E+01 2.92160E+01 0.00000E+00
 -1      3965 6.24000E+01 3.05150E+01 0.00000E+00
 -1      3966 6.39000E+01 3.05150E+01 0.00000E+00
 -1      3967 6.16500E+01 2.92160E+01 0.00000E+00
 -1      3968 6.54000E+01 3.05150E+01 0.00000E+00
 -1      3969 6.69000E+01 3.05150E+01 0.00000E+00
 -1      3970 6.46500E+01 2.92160E+01 0.00000E+00
 -1      3971 6.84000E+01 3.05150E+01 0.00000E+00
 -1      3972 6.99000E+01 3.05150E+01 0.00000E+00
 -1      3973 6.76500E+01 2.92160E+01 0.00000E+00
 -1      3974 7.14000E+01 3.05150E+01 0.00000E+00
 -1      3975 7.29000E+01 3.05150E+01 0.00000E+00
 -1      3976 7.06500E+01 2.92160E+01 0.00000E+00
 -1      3977 3.77850E+01 1.56973E+01 0.00000E+00
 -1      3978 3.62850E+01 1.56973E+01 0.00000E+00
 -1      3979 3.55350E+01 1.69963E+01 0.00000E+00
 -1      3980 3.85350E+01 1.69963E+01 0.00000E+00
 -1      3981 1.16400E+02 3.07726E+01 0.00000E+00
 -1      3982 1.17900E+02 3.07726E+01 0.00000E+00
 -1      3983 2.64000E+01 3.05150E+01 0.00000E+00
 -1      3984 2.79000E+01 3.05150E+01 0.00000E+00
 -1      3985 1.19400E+02 3.07726E+01 0.00000E+00
 -1      3986 1.20900E+02 3.07726E+01 0.00000E+00
 -1      3987 1.18650E+02 2.94736E+01 0.00000E+00
 -1      3988 1.22400E+02 3.07726E+01 0.00000E+00
 -1      3989 1.23900E+02 3.07726E+01 0.00000E+00
 -1      3990 1.21650E+02 2.94736E+01 0.00000E+00
 -1      3991 1.25400E+02 3.07726E+01 0.00000E+00
 -1      3992 1.26900E+02 3.07726E+01 0.00000E+00
 -1      3993 1.24650E+02 2.94736E+01 0.00000E+00
 -1      3994 1.28400E+02 3.07726E+01 0.00000E+00
 -1      3995 1.29900E+02 3.07726E+01 0.00000E+00
 -1      3996 1.27650E+02 2.94736E+01 0.00000E+00
 -1      3997 2.57293E+01 1.56141E+01 0.00000E+00
 -1      3998 2.42293E+01 1.56141E+01 0.00000E+00
 -1      3999 2.34235E+01 1.68299E+01 0.00000E+00
 -1      4000 5.72850E+01 1.82952E+01 0.00000E+00
 -1      4001 5.57850E+01 1.82952E+01 0.00000E+00
 -1      4002 6.62850E+01 1.82952E+01 0.00000E+00
 -1      4003 6.47850E+01 1.82952E+01 0.00000E+00
 -1      4004 6.32850E+01 1.82952E+01 0.00000E+00
 -1      4005 6.17850E+01 1.82952E+01 0.00000E+00
 -1      4006 6.40350E+01 1.95942E+01 0.00000E+00
 -1      4007 7.22850E+01 1.82952E+01 0.00000E+00
 -1      4008 7.07850E+01 1.82952E+01 0.00000E+00
 -1      4009 1.67434E+01 1.58556E+01 0.00000E+00
 -1      4010 1.14285E+02 1.82952E+01 0.00000E+00
 -1      4011 1.12785E+02 1.82952E+01 0.00000E+00
 -1      4012 1.26285E+02 1.82952E+01 0.00000E+00
 -1      4013 1.24785E+02 1.82952E+01 0.00000E+00
 -1      4014 1.23285E+02 1.82952E+01 0.00000E+00
 -1      4015 1.21785E+02 1.82952E+01 0.00000E+00
 -1      4016 1.24035E+02 1.95942E+01 0.00000E+00
 -1      4017 6.02850E+01 1.82952E+01 0.00000E+00
 -1      4018 5.87850E+01 1.82952E+01 0.00000E+00
 -1      4019 5.80350E+01 1.95942E+01 0.00000E+00
 -1      4020 1.81860E+01 2.35031E+01 0.00000E+00
 -1      4021 1.68870E+01 2.42406E+01 0.00000E+00
 -1      4022 1.68870E+01 2.57125E+01 0.00000E+00
 -1      4023 1.31129E+02 1.86347E+01 0.00000E+00
 -1      4024 1.30035E+02 1.84681E+01 0.00000E+00
 -1      4025 1.31129E+02 2.01066E+01 0.00000E+00
 -1      4026 1.64591E+01 2.76109E+01 0.00000E+00
 -1      4027 1.58788E+01 2.87685E+01 0.00000E+00
 -1      4028 1.33113E+02 2.86910E+01 0.00000E+00
 -1      4029 1.33113E+02 2.72230E+01 0.00000E+00
 -1      4030 1.31814E+02 2.64891E+01 0.00000E+00
 -1      4031 1.20285E+02 1.82952E+01 0.00000E+00
 -1      4032 1.18785E+02 1.82952E+01 0.00000E+00
 -1      4033 1.21035E+02 1.95942E+01 0.00000E+00
 -1      4034 1.58788E+01 3.02372E+01 0.00000E+00
 -1      4035 1.17285E+02 1.82952E+01 0.00000E+00
 -1      4036 1.15785E+02 1.82952E+01 0.00000E+00
 -1      4037 1.18035E+02 1.95942E+01 0.00000E+00
 -1      4038 2.95350E+01 1.69963E+01 0.00000E+00
 -1      4039 2.87850E+01 1.56973E+01 0.00000E+00
 -1      4040 2.72850E+01 1.56973E+01 0.00000E+00
 -1      4041 5.42850E+01 1.82952E+01 0.00000E+00
 -1      4042 5.27850E+01 1.82952E+01 0.00000E+00
 -1      4043 5.50350E+01 1.95942E+01 0.00000E+00
 -1      4044 1.11581E+02 3.12023E+01 0.00000E+00
 -1      4045 1.13704E+02 2.42713E+01 0.00000E+00
 -1      4046 1.13982E+02 2.62533E+01 0.00000E+00
 -1      4047 7.65448E+01 3.20273E+01 0.00000E+00
 -1      4048 1.11462E+02 1.87765E+01 0.00000E+00
 -1      4049 1.12890E+02 3.05321E+01 0.00000E+00
 -1      4050 2.94000E+01 3.05150E+01 0.00000E+00
 -1      4051 3.09000E+01 3.05150E+01 0.00000E+00
 -1      4052 3.16500E+01 2.92160E+01 0.00000E+00
 -1      4053 1.31232E+02 3.00143E+01 0.00000E+00
 -1      4054 2.34000E+01 3.05150E+01 0.00000E+00
 -1      4055 2.49000E+01 3.05150E+01 0.00000E+00
 -1      4056 2.26500E+01 2.92160E+01 0.00000E+00
 -1      4057 6.92850E+01 1.82952E+01 0.00000E+00
 -1      4058 6.77850E+01 1.82952E+01 0.00000E+00
 -1      4059 6.70350E+01 1.95942E+01 0.00000E+00
 -1      4060 1.28910E+02 1.83817E+01 0.00000E+00
 -1      4061 1.27410E+02 1.83817E+01 0.00000E+00
 -1      4062 1.26660E+02 1.96807E+01 0.00000E+00
 -1      4063 1.28910E+02 1.98536E+01 0.00000E+00
 -1      4064 7.59002E+01 2.36804E+01 0.00000E+00
 -1      4065 7.54217E+01 2.22237E+01 0.00000E+00
 -1      4066 4.22850E+01 1.82952E+01 0.00000E+00
 -1      4067 4.07850E+01 1.82952E+01 0.00000E+00
 -1      4068 1.14390E+02 3.05321E+01 0.00000E+00
 -1      4069 7.40398E+01 2.94577E+01 0.00000E+00
 -1      4070 7.47898E+01 3.07567E+01 0.00000E+00
 -1      4071 2.56500E+01 2.92160E+01 0.00000E+00
 -1      4072 1.30482E+02 2.87153E+01 0.00000E+00
 -1      4073 2.86500E+01 2.92160E+01 0.00000E+00
 -1      4074 7.63420E+01 1.82646E+01 0.00000E+00
 -1      4075 7.41454E+01 1.82850E+01 0.00000E+00
 -1      4076 2.64793E+01 1.69131E+01 0.00000E+00
 -1      4077 7.57459E+01 2.03616E+01 0.00000E+00
 -1      4078 7.62886E+01 1.95432E+01 0.00000E+00
 -1      4079 1.77581E+01 2.68734E+01 0.00000E+00
 -1      4080 7.00350E+01 1.95942E+01 0.00000E+00
 -1      4081 4.90350E+01 1.95942E+01 0.00000E+00
 -1      4082 4.82850E+01 1.82952E+01 0.00000E+00
 -1      4083 4.67850E+01 1.82952E+01 0.00000E+00
 -1      4084 6.10350E+01 1.95942E+01 0.00000E+00
 -1      4085 7.33954E+01 1.95840E+01 0.00000E+00
 -1      4086 1.72558E+01 1.72212E+01 0.00000E+00
 -1      4087 1.15035E+02 1.95942E+01 0.00000E+00
 -1      4088 1.71844E+01 3.02651E+01 0.00000E+00
 -1      4089 1.94850E+01 2.27672E+01 0.00000E+00
 -1      4090 1.94850E+01 2.42391E+01 0.00000E+00
 -1      4091 1.15140E+02 2.92331E+01 0.00000E+00
 -1      4092 1.11393E+02 1.98683E+01 0.00000E+00
 -1      4093 7.52930E+01 2.44706E+01 0.00000E+00
 -1      4094 1.13684E+02 2.21809E+01 0.00000E+00
 -1      4095 1.13694E+02 2.32261E+01 0.00000E+00
 -1      4096 1.15119E+02 2.40365E+01 0.00000E+00
 -1      4097 1.30482E+02 2.72474E+01 0.00000E+00
 -1      4098 1.30482E+02 2.57794E+01 0.00000E+00
 -1      4099 1.29150E+02 2.80057E+01 0.00000E+00
 -1      4100 3.32850E+01 1.82952E+01 0.00000E+00
 -1      4101 3.17850E+01 1.82952E+01 0.00000E+00
 -1      4102 5.20350E+01 1.95942E+01 0.00000E+00
 -1      4103 7.53780E+01 2.85134E+01 0.00000E+00
 -1      4104 7.59541E+01 2.76712E+01 0.00000E+00
 -1      4105 7.54024E+01 2.64853E+01 0.00000E+00
 -1      4106 3.02850E+01 1.82952E+01 0.00000E+00
 -1      4107 2.87850E+01 1.82952E+01 0.00000E+00
 -1      4108 3.10350E+01 1.95942E+01 0.00000E+00
 -1      4109 1.29252E+02 2.53507E+01 0.00000E+00
 -1      4110 1.30584E+02 2.45924E+01 0.00000E+00
 -1      4111 1.30687E+02 2.34054E+01 0.00000E+00
 -1      4112 4.52850E+01 1.82952E+01 0.00000E+00
 -1      4113 4.37850E+01 1.82952E+01 0.00000E+00
 -1      4114 4.60350E+01 1.95942E+01 0.00000E+00
 -1      4115 1.85548E+01 1.79587E+01 0.00000E+00
 -1      4116 1.94850E+01 2.12953E+01 0.00000E+00
 -1      4117 2.07840E+01 2.20313E+01 0.00000E+00
 -1      4118 1.94850E+01 1.98234E+01 0.00000E+00
 -1      4119 4.30350E+01 1.95942E+01 0.00000E+00
 -1      4120 1.84901E+01 3.02929E+01 0.00000E+00
 -1      4121 2.01387E+01 1.77622E+01 0.00000E+00
 -1      4122 1.97699E+01 1.88911E+01 0.00000E+00
 -1      4123 2.10689E+01 1.96270E+01 0.00000E+00
 -1      4124 2.16387E+01 1.77622E+01 0.00000E+00
 -1      4125 1.92401E+01 2.89939E+01 0.00000E+00
 -1      4126 6.77850E+01 2.08932E+01 0.00000E+00
 -1      4127 6.62850E+01 2.08932E+01 0.00000E+00
 -1      4128 4.00350E+01 1.95942E+01 0.00000E+00
 -1      4129 3.92850E+01 1.82952E+01 0.00000E+00
 -1      4130 3.77850E+01 1.82952E+01 0.00000E+00
 -1      4131 1.12897E+02 2.04824E+01 0.00000E+00
 -1      4132 7.34881E+01 2.82718E+01 0.00000E+00
 -1      4133 2.49000E+01 2.79170E+01 0.00000E+00
 -1      4134 2.64000E+01 2.79170E+01 0.00000E+00
 -1      4135 3.69000E+01 2.79170E+01 0.00000E+00
 -1      4136 3.84000E+01 2.79170E+01 0.00000E+00
 -1      4137 3.99000E+01 2.79170E+01 0.00000E+00
 -1      4138 4.14000E+01 2.79170E+01 0.00000E+00
 -1      4139 3.91500E+01 2.66180E+01 0.00000E+00
 -1      4140 4.29000E+01 2.79170E+01 0.00000E+00
 -1      4141 4.44000E+01 2.79170E+01 0.00000E+00
 -1      4142 4.21500E+01 2.66180E+01 0.00000E+00
 -1      4143 4.59000E+01 2.79170E+01 0.00000E+00
 -1      4144 4.74000E+01 2.79170E+01 0.00000E+00
 -1      4145 4.51500E+01 2.66180E+01 0.00000E+00
 -1      4146 4.89000E+01 2.79170E+01 0.00000E+00
 -1      4147 5.04000E+01 2.79170E+01 0.00000E+00
 -1      4148 4.81500E+01 2.66180E+01 0.00000E+00
 -1      4149 5.19000E+01 2.79170E+01 0.00000E+00
 -1      4150 5.34000E+01 2.79170E+01 0.00000E+00
 -1      4151 5.11500E+01 2.66180E+01 0.00000E+00
 -1      4152 5.49000E+01 2.79170E+01 0.00000E+00
 -1      4153 5.64000E+01 2.79170E+01 0.00000E+00
 -1      4154 5.41500E+01 2.66180E+01 0.00000E+00
 -1      4155 5.79000E+01 2.79170E+01 0.00000E+00
 -1      4156 5.94000E+01 2.79170E+01 0.00000E+00
 -1      4157 5.71500E+01 2.66180E+01 0.00000E+00
 -1      4158 6.09000E+01 2.79170E+01 0.00000E+00
 -1      4159 6.24000E+01 2.79170E+01 0.00000E+00
 -1      4160 6.01500E+01 2.66180E+01 0.00000E+00
 -1      4161 6.39000E+01 2.79170E+01 0.00000E+00
 -1      4162 6.54000E+01 2.79170E+01 0.00000E+00
 -1      4163 6.31500E+01 2.66180E+01 0.00000E+00
 -1      4164 6.69000E+01 2.79170E+01 0.00000E+00
 -1      4165 6.84000E+01 2.79170E+01 0.00000E+00
 -1      4166 6.61500E+01 2.66180E+01 0.00000E+00
 -1      4167 6.99000E+01 2.79170E+01 0.00000E+00
 -1      4168 7.14000E+01 2.79170E+01 0.00000E+00
 -1      4169 6.91500E+01 2.66180E+01 0.00000E+00
 -1      4170 1.14322E+02 2.12928E+01 0.00000E+00
 -1      4171 2.72293E+01 1.82121E+01 0.00000E+00
 -1      4172 2.56735E+01 1.81289E+01 0.00000E+00
 -1      4173 2.79793E+01 1.95111E+01 0.00000E+00
 -1      4174 2.44061E+01 1.79455E+01 0.00000E+00
 -1      4175 2.29061E+01 1.79455E+01 0.00000E+00
 -1      4176 2.26212E+01 1.88779E+01 0.00000E+00
 -1      4177 2.51561E+01 1.92445E+01 0.00000E+00
 -1      4178 1.20900E+02 2.81746E+01 0.00000E+00
 -1      4179 1.22400E+02 2.81746E+01 0.00000E+00
 -1      4180 1.23900E+02 2.81746E+01 0.00000E+00
 -1      4181 1.25400E+02 2.81746E+01 0.00000E+00
 -1      4182 1.23150E+02 2.68756E+01 0.00000E+00
 -1      4183 1.26525E+02 2.80902E+01 0.00000E+00
 -1      4184 1.28025E+02 2.80902E+01 0.00000E+00
 -1      4185 1.28025E+02 2.66222E+01 0.00000E+00
 -1      4186 1.25775E+02 2.67912E+01 0.00000E+00
 -1      4187 7.49316E+01 2.14359E+01 0.00000E+00
 -1      4188 7.44414E+01 2.06481E+01 0.00000E+00
 -1      4189 7.41173E+01 2.25103E+01 0.00000E+00
 -1      4190 1.95765E+01 2.56673E+01 0.00000E+00
 -1      4191 1.91486E+01 2.75657E+01 0.00000E+00
 -1      4192 2.10585E+01 2.77878E+01 0.00000E+00
 -1      4193 2.08755E+01 2.49313E+01 0.00000E+00
 -1      4194 5.87850E+01 2.08932E+01 0.00000E+00
 -1      4195 5.72850E+01 2.08932E+01 0.00000E+00
 -1      4196 1.14185E+02 2.75758E+01 0.00000E+00
 -1      4197 1.14333E+02 2.83595E+01 0.00000E+00
 -1      4198 7.25811E+01 2.06584E+01 0.00000E+00
 -1      4199 1.24785E+02 2.08932E+01 0.00000E+00
 -1      4200 1.23285E+02 2.08932E+01 0.00000E+00
 -1      4201 1.31027E+02 2.12936E+01 0.00000E+00
 -1      4202 6.47850E+01 2.08932E+01 0.00000E+00
 -1      4203 6.32850E+01 2.08932E+01 0.00000E+00
 -1      4204 6.55350E+01 2.21922E+01 0.00000E+00
 -1      4205 7.07850E+01 2.08932E+01 0.00000E+00
 -1      4206 6.92850E+01 2.08932E+01 0.00000E+00
 -1      4207 6.85350E+01 2.21922E+01 0.00000E+00
 -1      4208 3.47850E+01 1.82952E+01 0.00000E+00
 -1      4209 3.40350E+01 1.95942E+01 0.00000E+00
 -1      4210 3.62850E+01 1.82952E+01 0.00000E+00
 -1      4211 1.21785E+02 2.08932E+01 0.00000E+00
 -1      4212 1.20285E+02 2.08932E+01 0.00000E+00
 -1      4213 1.22535E+02 2.21922E+01 0.00000E+00
 -1      4214 5.27850E+01 2.08932E+01 0.00000E+00
 -1      4215 5.12850E+01 2.08932E+01 0.00000E+00
 -1      4216 1.17900E+02 2.81746E+01 0.00000E+00
 -1      4217 1.19400E+02 2.81746E+01 0.00000E+00
 -1      4218 1.20150E+02 2.68756E+01 0.00000E+00
 -1      4219 1.18785E+02 2.08932E+01 0.00000E+00
 -1      4220 1.17285E+02 2.08932E+01 0.00000E+00
 -1      4221 1.19535E+02 2.21922E+01 0.00000E+00
 -1      4222 6.17850E+01 2.08932E+01 0.00000E+00
 -1      4223 6.02850E+01 2.08932E+01 0.00000E+00
 -1      4224 6.25350E+01 2.21922E+01 0.00000E+00
 -1      4225 5.57850E+01 2.08932E+01 0.00000E+00
 -1      4226 5.42850E+01 2.08932E+01 0.00000E+00
 -1      4227 5.65350E+01 2.21922E+01 0.00000E+00
 -1      4228 3.39000E+01 2.79170E+01 0.00000E+00
 -1      4229 3.54000E+01 2.79170E+01 0.00000E+00
 -1      4230 3.61500E+01 2.66180E+01 0.00000E+00
 -1      4231 3.09000E+01 2.79170E+01 0.00000E+00
 -1      4232 3.24000E+01 2.79170E+01 0.00000E+00
 -1      4233 3.31500E+01 2.66180E+01 0.00000E+00
 -1      4234 7.60214E+01 3.10606E+01 0.00000E+00
 -1      4235 1.15822E+02 2.12928E+01 0.00000E+00
 -1      4236 2.79000E+01 2.79170E+01 0.00000E+00
 -1      4237 2.94000E+01 2.79170E+01 0.00000E+00
 -1      4238 2.71500E+01 2.66180E+01 0.00000E+00
 -1      4239 7.47169E+01 2.53128E+01 0.00000E+00
 -1      4240 7.40313E+01 2.41403E+01 0.00000E+00
 -1      4241 7.41407E+01 2.61550E+01 0.00000E+00
 -1      4242 2.22292E+01 2.78524E+01 0.00000E+00
 -1      4243 2.37292E+01 2.78524E+01 0.00000E+00
 -1      4244 2.44792E+01 2.65534E+01 0.00000E+00
 -1      4245 2.21378E+01 2.64242E+01 0.00000E+00
 -1      4246 4.37850E+01 2.08932E+01 0.00000E+00
 -1      4247 4.22850E+01 2.08932E+01 0.00000E+00
 -1      4248 1.15333E+02 2.64042E+01 0.00000E+00
 -1      4249 1.29695E+02 2.20519E+01 0.00000E+00
 -1      4250 5.95350E+01 2.21922E+01 0.00000E+00
 -1      4251 4.52850E+01 2.08932E+01 0.00000E+00
 -1      4252 4.45350E+01 2.21922E+01 0.00000E+00
 -1      4253 4.67850E+01 2.08932E+01 0.00000E+00
 -1      4254 7.27381E+01 2.69728E+01 0.00000E+00
 -1      4255 5.05350E+01 2.21922E+01 0.00000E+00
 -1      4256 4.97850E+01 2.08932E+01 0.00000E+00
 -1      4257 4.82850E+01 2.08932E+01 0.00000E+00
 -1      4258 2.19548E+01 2.35677E+01 0.00000E+00
 -1      4259 2.20462E+01 2.49960E+01 0.00000E+00
 -1      4260 2.32170E+01 2.50606E+01 0.00000E+00
 -1      4261 1.16343E+02 2.86001E+01 0.00000E+00
 -1      4262 7.18311E+01 2.19574E+01 0.00000E+00
 -1      4263 1.16572E+02 2.25918E+01 0.00000E+00
 -1      4264 1.25910E+02 2.09797E+01 0.00000E+00
 -1      4265 1.25160E+02 2.22787E+01 0.00000E+00
 -1      4266 1.27035E+02 2.10661E+01 0.00000E+00
 -1      4267 1.28127E+02 2.54352E+01 0.00000E+00
 -1      4268 5.35350E+01 2.21922E+01 0.00000E+00
 -1      4269 7.31763E+01 2.34428E+01 0.00000E+00
 -1      4270 7.26861E+01 2.26550E+01 0.00000E+00
 -1      4271 7.08901E+01 2.28898E+01 0.00000E+00
 -1      4272 7.26002E+01 2.42850E+01 0.00000E+00
 -1      4273 3.01500E+01 2.66180E+01 0.00000E+00
 -1      4274 3.17850E+01 2.08932E+01 0.00000E+00
 -1      4275 3.02850E+01 2.08932E+01 0.00000E+00
 -1      4276 4.15350E+01 2.21922E+01 0.00000E+00
 -1      4277 4.07850E+01 2.08932E+01 0.00000E+00
 -1      4278 3.92850E+01 2.08932E+01 0.00000E+00
 -1      4279 1.16582E+02 2.36370E+01 0.00000E+00
 -1      4280 1.16592E+02 2.46822E+01 0.00000E+00
 -1      4281 1.18045E+02 2.32374E+01 0.00000E+00
 -1      4282 1.17093E+02 2.73011E+01 0.00000E+00
 -1      4283 2.19548E+01 2.20959E+01 0.00000E+00
 -1      4284 1.16890E+02 2.59787E+01 0.00000E+00
 -1      4285 3.32850E+01 2.08932E+01 0.00000E+00
 -1      4286 3.25350E+01 2.21922E+01 0.00000E+00
 -1      4287 3.47850E+01 2.08932E+01 0.00000E+00
 -1      4288 1.18352E+02 2.55791E+01 0.00000E+00
 -1      4289 3.70350E+01 1.95942E+01 0.00000E+00
 -1      4290 3.84000E+01 2.53190E+01 0.00000E+00
 -1      4291 3.99000E+01 2.53190E+01 0.00000E+00
 -1      4292 3.28425E+01 2.44051E+01 0.00000E+00
 -1      4293 3.43425E+01 2.44051E+01 0.00000E+00
 -1      4294 4.18425E+01 2.44051E+01 0.00000E+00
 -1      4295 4.33425E+01 2.44051E+01 0.00000E+00
 -1      4296 4.48425E+01 2.44051E+01 0.00000E+00
 -1      4297 4.63425E+01 2.44051E+01 0.00000E+00
 -1      4298 4.78425E+01 2.44051E+01 0.00000E+00
 -1      4299 4.93425E+01 2.44051E+01 0.00000E+00
 -1      4300 5.08425E+01 2.44051E+01 0.00000E+00
 -1      4301 5.23425E+01 2.44051E+01 0.00000E+00
 -1      4302 5.38425E+01 2.44051E+01 0.00000E+00
 -1      4303 5.53425E+01 2.44051E+01 0.00000E+00
 -1      4304 5.68425E+01 2.44051E+01 0.00000E+00
 -1      4305 5.83425E+01 2.44051E+01 0.00000E+00
 -1      4306 5.98425E+01 2.44051E+01 0.00000E+00
 -1      4307 6.13425E+01 2.44051E+01 0.00000E+00
 -1      4308 6.28425E+01 2.44051E+01 0.00000E+00
 -1      4309 6.43425E+01 2.44051E+01 0.00000E+00
 -1      4310 6.58425E+01 2.44051E+01 0.00000E+00
 -1      4311 6.73425E+01 2.44051E+01 0.00000E+00
 -1      4312 2.87293E+01 2.08101E+01 0.00000E+00
 -1      4313 2.71735E+01 2.07269E+01 0.00000E+00
 -1      4314 2.94793E+01 2.21091E+01 0.00000E+00
 -1      4315 2.23363E+01 1.98103E+01 0.00000E+00
 -1      4316 2.20514E+01 2.07427E+01 0.00000E+00
 -1      4317 2.36038E+01 1.99936E+01 0.00000E+00
 -1      4318 1.22400E+02 2.55766E+01 0.00000E+00
 -1      4319 1.23900E+02 2.55766E+01 0.00000E+00
 -1      4320 1.25451E+02 2.55482E+01 0.00000E+00
 -1      4321 1.26576E+02 2.54637E+01 0.00000E+00
 -1      4322 1.27804E+02 2.41922E+01 0.00000E+00
 -1      4323 1.24701E+02 2.42492E+01 0.00000E+00
 -1      4324 2.32222E+01 2.22792E+01 0.00000E+00
 -1      4325 1.28570E+02 2.19654E+01 0.00000E+00
 -1      4326 6.88425E+01 2.44051E+01 0.00000E+00
 -1      4327 1.23592E+02 2.32349E+01 0.00000E+00
 -1      4328 1.22092E+02 2.32349E+01 0.00000E+00
 -1      4329 1.20819E+02 2.32362E+01 0.00000E+00
 -1      4330 1.19319E+02 2.32362E+01 0.00000E+00
 -1      4331 1.19329E+02 2.42814E+01 0.00000E+00
 -1      4332 1.21876E+02 2.42789E+01 0.00000E+00
 -1      4333 3.56213E+01 2.48621E+01 0.00000E+00
 -1      4334 3.71213E+01 2.48621E+01 0.00000E+00
 -1      4335 3.78713E+01 2.35631E+01 0.00000E+00
 -1      4336 3.53138E+01 2.26492E+01 0.00000E+00
 -1      4337 2.98425E+01 2.44051E+01 0.00000E+00
 -1      4338 3.13425E+01 2.44051E+01 0.00000E+00
 -1      4339 2.67868E+01 2.43219E+01 0.00000E+00
 -1      4340 2.82868E+01 2.43219E+01 0.00000E+00
 -1      4341 7.20526E+01 2.58003E+01 0.00000E+00
 -1      4342 1.19626E+02 2.55779E+01 0.00000E+00
 -1      4343 7.11975E+01 2.51027E+01 0.00000E+00
 -1      4344 4.75350E+01 2.21922E+01 0.00000E+00
 -1      4345 1.21126E+02 2.55779E+01 0.00000E+00
 -1      4346 1.25144E+02 2.32065E+01 0.00000E+00
 -1      4347 2.63464E+01 2.24327E+01 0.00000E+00
 -1      4348 2.55964E+01 2.11337E+01 0.00000E+00
 -1      4349 2.43290E+01 2.09504E+01 0.00000E+00
 -1      4350 2.52097E+01 2.47288E+01 0.00000E+00
 -1      4351 7.03425E+01 2.44051E+01 0.00000E+00
 -1      4352 2.43878E+01 2.51252E+01 0.00000E+00
 -1      4353 3.60638E+01 2.13502E+01 0.00000E+00
 -1      4354 2.39474E+01 2.32360E+01 0.00000E+00
 -1      4355 4.10925E+01 2.31061E+01 0.00000E+00
 -1      4356 1.27820E+02 2.32644E+01 0.00000E+00
 -1      4357 3.75638E+01 2.13502E+01 0.00000E+00
 -1      4358 1.26269E+02 2.32929E+01 0.00000E+00
 -1      4359 3.83138E+01 2.26492E+01 0.00000E+00
 -1      4360 3.95925E+01 2.31061E+01 0.00000E+00
 -1      4361 2.40441E+01 2.18828E+01 0.00000E+00
 -3
    3C                          2099                                     1
 -1       164    8    0    1
 -2         6         7        23      1132      1295      1149
 -1       165    8    0    1
 -2         7         8       164      1133      1296      1297
 -1       166    8    0    1
 -2         8         9       165      1134      1298      1299
 -1       167    8    0    1
 -2         8       165       164      1299      1300      1296
 -1       168    8    0    1
 -2         9        10       166      1135      1301      1302
 -1       169    8    0    1
 -2         9       166       165      1302      1303      1298
 -1       170    8    0    1
 -2        10        11       167      1136      1304      1305
 -1       171    8    0    1
 -2        10       167       166      1305      1306      1301
 -1       172    8    0    1
 -2        11        12       168      1137      1307      1308
 -1       173    8    0    1
 -2        11       168       167      1308      1309      1304
 -1       174    8    0    1
 -2        12        13       169      1138      1310      1311
 -1       175    8    0    1
 -2        12       169       168      1311      1312      1307
 -1       176    8    0    1
 -2        13        14       170      1139      1313      1314
 -1       177    8    0    1
 -2        13       170       169      1314      1315      1310
 -1       178    8    0    1
 -2        14        15       171      1140      1316      1317
 -1       179    8    0    1
 -2        14       171       170      1317      1318      1313
 -1       180    8    0    1
 -2        15        16       172      1141      1319      1320
 -1       181    8    0    1
 -2        15       172       171      1320      1321      1316
 -1       182    8    0    1
 -2        16        17       173      1142      1322      1323
 -1       183    8    0    1
 -2        16       173       172      1323      1324      1319
 -1       184    8    0    1
 -2        17        18       174      1143      1325      1326
 -1       185    8    0    1
 -2        17       174       173      1326      1327      1322
 -1       186    8    0    1
 -2        18        19       175      1144      1328      1329
 -1       187    8    0    1
 -2        18       175       174      1329      1330      1325
 -1       188    8    0    1
 -2        19        20       176      1145      1331      1332
 -1       189    8    0    1
 -2        19       176       175      1332      1333      1328
 -1       190    8    0    1
 -2        20        21       177      1146      1334      1335
 -1       191    8    0    1
 -2        20       177       176      1335      1336      1331
 -1       192    8    0    1
 -2        21        22       178      1147      1337      1338
 -1       193    8    0    1
 -2        21       178       177      1338      1339      1334
 -1       194    8    0    1
 -2        22         5       179      1148      1340      1341
 -1       195    8    0    1
 -2       178        22       179      1337      1341      1342
 -1       196    8    0    1
 -2         5        72       179      1199      1343      1340
 -1       197    8    0    1
 -2        24        23       180      1150      1344      1345
 -1       198    8    0    1
 -2        25        24       181      1151      1346      1347
 -1       199    8    0    1
 -2        24       180       181      1345      1348      1346
 -1       200    8    0    1
 -2        26        25       182      1152      1349      1350
 -1       201    8    0    1
 -2        25       181       182      1347      1351      1349
 -1       202    8    0    1
 -2        27        26       183      1153      1352      1353
 -1       203    8    0    1
 -2        26       182       183      1350      1354      1352
 -1       204    8    0    1
 -2        28        27       184      1154      1355      1356
 -1       205    8    0    1
 -2        27       183       184      1353      1357      1355
 -1       206    8    0    1
 -2        29        28       185      1155      1358      1359
 -1       207    8    0    1
 -2        28       184       185      1356      1360      1358
 -1       208    8    0    1
 -2        30        29       186      1156      1361      1362
 -1       209    8    0    1
 -2        29       185       186      1359      1363      1361
 -1       210    8    0    1
 -2        31        30       187      1157      1364      1365
 -1       211    8    0    1
 -2        30       186       187      1362      1366      1364
 -1       212    8    0    1
 -2        32        31       188      1158      1367      1368
 -1       213    8    0    1
 -2        31       187       188      1365      1369      1367
 -1       214    8    0    1
 -2        33        32       189      1159      1370      1371
 -1       215    8    0    1
 -2        32       188       189      1368      1372      1370
 -1       216    8    0    1
 -2        34        33       190      1160      1373      1374
 -1       217    8    0    1
 -2        33       189       190      1371      1375      1373
 -1       218    8    0    1
 -2        35        34       191      1161      1376      1377
 -1       219    8    0    1
 -2        34       190       191      1374      1378      1376
 -1       220    8    0    1
 -2        36        35       192      1162      1379      1380
 -1       221    8    0    1
 -2        35       191       192      1377      1381      1379
 -1       222    8    0    1
 -2        37        36       193      1163      1382      1383
 -1       223    8    0    1
 -2        36       192       193      1380      1384      1382
 -1       224    8    0    1
 -2        38        37       194      1164      1385      1386
 -1       225    8    0    1
 -2        37       193       194      1383      1387      1385
 -1       226    8    0    1
 -2        39        38       195      1165      1388      1389
 -1       227    8    0    1
 -2        38       194       195      1386      1390      1388
 -1       228    8    0    1
 -2        40        39       196      1166      1391      1392
 -1       229    8    0    1
 -2        39       195       196      1389      1393      1391
 -1       230    8    0    1
 -2        41        40       197      1167      1394      1395
 -1       231    8    0    1
 -2        40       196       197      1392      1396      1394
 -1       232    8    0    1
 -2        42        41       198      1168      1397      1398
 -1       233    8    0    1
 -2        41       197       198      1395      1399      1397
 -1       234    8    0    1
 -2        43        42       199      1169      1400      1401
 -1       235    8    0    1
 -2        42       198       199      1398      1402      1400
 -1       236    8    0    1
 -2        44        43       200      1170      1403      1404
 -1       237    8    0    1
 -2        43       199       200      1401      1405      1403
 -1       238    8    0    1
 -2        45        44       201      1171      1406      1407
 -1       239    8    0    1
 -2        44       200       201      1404      1408      1406
 -1       240    8    0    1
 -2        46        45       202      1172      1409      1410
 -1       241    8    0    1
 -2        45       201       202      1407      1411      1409
 -1       242    8    0    1
 -2        47        46       203      1173      1412      1413
 -1       243    8    0    1
 -2        46       202       203      1410      1414      1412
 -1       244    8    0    1
 -2        48        47       204      1174      1415      1416
 -1       245    8    0    1
 -2        47       203       204      1413      1417      1415
 -1       246    8    0    1
 -2        49        48       205      1175      1418      1419
 -1       247    8    0    1
 -2        48       204       205      1416      1420      1418
 -1       248    8    0    1
 -2        50        49       206      1176      1421      1422
 -1       249    8    0    1
 -2        49       205       206      1419      1423      1421
 -1       250    8    0    1
 -2        51        50       207      1177      1424      1425
 -1       251    8    0    1
 -2        50       206       207      1422      1426      1424
 -1       252    8    0    1
 -2        52        51       208      1178      1427      1428
 -1       253    8    0    1
 -2        51       207       208      1425      1429      1427
 -1       254    8    0    1
 -2        53        52       209      1179      1430      1431
 -1       255    8    0    1
 -2        52       208       209      1428      1432      1430
 -1       256    8    0    1
 -2        54        53       210      1180      1433      1434
 -1       257    8    0    1
 -2        53       209       210      1431      1435      1433
 -1       258    8    0    1
 -2        55        54       211      1181      1436      1437
 -1       259    8    0    1
 -2        54       210       211      1434      1438      1436
 -1       260    8    0    1
 -2        56        55       212      1182      1439      1440
 -1       261    8    0    1
 -2        55       211       212      1437      1441      1439
 -1       262    8    0    1
 -2        57        56       213      1183      1442      1443
 -1       263    8    0    1
 -2        56       212       213      1440      1444      1442
 -1       264    8    0    1
 -2        58        57       214      1184      1445      1446
 -1       265    8    0    1
 -2        57       213       214      1443      1447      1445
 -1       266    8    0    1
 -2        59        58       215      1185      1448      1449
 -1       267    8    0    1
 -2        58       214       215      1446      1450      1448
 -1       268    8    0    1
 -2        60        59       216      1186      1451      1452
 -1       269    8    0    1
 -2        59       215       216      1449      1453      1451
 -1       270    8    0    1
 -2        61        60       217      1187      1454      1455
 -1       271    8    0    1
 -2        60       216       217      1452      1456      1454
 -1       272    8    0    1
 -2        62        61       218      1188      1457      1458
 -1       273    8    0    1
 -2        61       217       218      1455      1459      1457
 -1       274    8    0    1
 -2        63        62       219      1189      1460      1461
 -1       275    8    0    1
 -2        62       218       219      1458      1462      1460
 -1       276    8    0    1
 -2        64        63       220      1190      1463      1464
 -1       277    8    0    1
 -2        63       219       220      1461      1465      1463
 -1       278    8    0    1
 -2        65        64       221      1191      1466      1467
 -1       279    8    0    1
 -2        64       220       221      1464      1468      1466
 -1       280    8    0    1
 -2        66        65       222      1192      1469      1470
 -1       281    8    0    1
 -2        65       221       222      1467      1471      1469
 -1       282    8    0    1
 -2        67        66       223      1193      1472      1473
 -1       283    8    0    1
 -2        66       222       223      1470      1474      1472
 -1       284    8    0    1
 -2        68        67       224      1194      1475      1476
 -1       285    8    0    1
 -2        67       223       224      1473      1477      1475
 -1       286    8    0    1
 -2        69        68       225      1195      1478      1479
 -1       287    8    0    1
 -2        68       224       225      1476      1480      1478
 -1       288    8    0    1
 -2        70        69       226      1196      1481      1482
 -1       289    8    0    1
 -2        69       225       226      1479      1483      1481
 -1       290    8    0    1
 -2        71        70       227      1197      1484      1485
 -1       291    8    0    1
 -2        70       226       227      1482      1486      1484
 -1       292    8    0    1
 -2         4        71       136      1198      1487      1265
 -1       293    8    0    1
 -2       136        71       227      1487      1485      1488
 -1       294    8    0    1
 -2        72        73       228      1200      1489      1490
 -1       295    8    0    1
 -2        72       228       179      1490      1491      1343
 -1       296    8    0    1
 -2        73        74       229      1201      1492      1493
 -1       297    8    0    1
 -2        73       229       228      1493      1494      1489
 -1       298    8    0    1
 -2        74        75       230      1202      1495      1496
 -1       299    8    0    1
 -2        74       230       229      1496      1497      1492
 -1       300    8    0    1
 -2        75        76       231      1203      1498      1499
 -1       301    8    0    1
 -2        75       231       230      1499      1500      1495
 -1       302    8    0    1
 -2        76        77       232      1204      1501      1502
 -1       303    8    0    1
 -2        76       232       231      1502      1503      1498
 -1       304    8    0    1
 -2        77        78       233      1205      1504      1505
 -1       305    8    0    1
 -2        77       233       232      1505      1506      1501
 -1       306    8    0    1
 -2        78        79       234      1206      1507      1508
 -1       307    8    0    1
 -2        78       234       233      1508      1509      1504
 -1       308    8    0    1
 -2        79        80       235      1207      1510      1511
 -1       309    8    0    1
 -2        79       235       234      1511      1512      1507
 -1       310    8    0    1
 -2        80        81       236      1208      1513      1514
 -1       311    8    0    1
 -2        80       236       235      1514      1515      1510
 -1       312    8    0    1
 -2        81        82       237      1209      1516      1517
 -1       313    8    0    1
 -2        81       237       236      1517      1518      1513
 -1       314    8    0    1
 -2        82        83       238      1210      1519      1520
 -1       315    8    0    1
 -2        82       238       237      1520      1521      1516
 -1       316    8    0    1
 -2        83        84       239      1211      1522      1523
 -1       317    8    0    1
 -2        83       239       238      1523      1524      1519
 -1       318    8    0    1
 -2        84        85       240      1212      1525      1526
 -1       319    8    0    1
 -2        84       240       239      1526      1527      1522
 -1       320    8    0    1
 -2        85        86       241      1213      1528      1529
 -1       321    8    0    1
 -2        85       241       240      1529      1530      1525
 -1       322    8    0    1
 -2        86        87       242      1214      1531      1532
 -1       323    8    0    1
 -2        86       242       241      1532      1533      1528
 -1       324    8    0    1
 -2        87        88       243      1215      1534      1535
 -1       325    8    0    1
 -2        87       243       242      1535      1536      1531
 -1       326    8    0    1
 -2        88        89       244      1216      1537      1538
 -1       327    8    0    1
 -2        88       244       243      1538      1539      1534
 -1       328    8    0    1
 -2        89        90       245      1217      1540      1541
 -1       329    8    0    1
 -2        89       245       244      1541      1542      1537
 -1       330    8    0    1
 -2        90        91       246      1218      1543      1544
 -1       331    8    0    1
 -2        90       246       245      1544      1545      1540
 -1       332    8    0    1
 -2        91        92       247      1219      1546      1547
 -1       333    8    0    1
 -2        91       247       246      1547      1548      1543
 -1       334    8    0    1
 -2        92        93       248      1220      1549      1550
 -1       335    8    0    1
 -2        92       248       247      1550      1551      1546
 -1       336    8    0    1
 -2        93        94       249      1221      1552      1553
 -1       337    8    0    1
 -2        93       249       248      1553      1554      1549
 -1       338    8    0    1
 -2        94        95       250      1222      1555      1556
 -1       339    8    0    1
 -2        94       250       249      1556      1557      1552
 -1       340    8    0    1
 -2        95        96       251      1223      1558      1559
 -1       341    8    0    1
 -2        95       251       250      1559      1560      1555
 -1       342    8    0    1
 -2        96        97       252      1224      1561      1562
 -1       343    8    0    1
 -2        96       252       251      1562      1563      1558
 -1       344    8    0    1
 -2        97        98       253      1225      1564      1565
 -1       345    8    0    1
 -2        97       253       252      1565      1566      1561
 -1       346    8    0    1
 -2        98        99       254      1226      1567      1568
 -1       347    8    0    1
 -2        98       254       253      1568      1569      1564
 -1       348    8    0    1
 -2        99       100       255      1227      1570      1571
 -1       349    8    0    1
 -2        99       255       254      1571      1572      1567
 -1       350    8    0    1
 -2       100       101       256      1228      1573      1574
 -1       351    8    0    1
 -2       100       256       255      1574      1575      1570
 -1       352    8    0    1
 -2       101       102       257      1229      1576      1577
 -1       353    8    0    1
 -2       101       257       256      1577      1578      1573
 -1       354    8    0    1
 -2       102       103       258      1230      1579      1580
 -1       355    8    0    1
 -2       102       258       257      1580      1581      1576
 -1       356    8    0    1
 -2       103       104       259      1231      1582      1583
 -1       357    8    0    1
 -2       103       259       258      1583      1584      1579
 -1       358    8    0    1
 -2       104       105       260      1232      1585      1586
 -1       359    8    0    1
 -2       104       260       259      1586      1587      1582
 -1       360    8    0    1
 -2       105       106       261      1233      1588      1589
 -1       361    8    0    1
 -2       105       261       260      1589      1590      1585
 -1       362    8    0    1
 -2       106       107       262      1234      1591      1592
 -1       363    8    0    1
 -2       106       262       261      1592      1593      1588
 -1       364    8    0    1
 -2       107       108       263      1235      1594      1595
 -1       365    8    0    1
 -2       107       263       262      1595      1596      1591
 -1       366    8    0    1
 -2       108       109       264      1236      1597      1598
 -1       367    8    0    1
 -2       108       264       263      1598      1599      1594
 -1       368    8    0    1
 -2       109       110       265      1237      1600      1601
 -1       369    8    0    1
 -2       109       265       264      1601      1602      1597
 -1       370    8    0    1
 -2       110       111       266      1238      1603      1604
 -1       371    8    0    1
 -2       110       266       265      1604      1605      1600
 -1       372    8    0    1
 -2       111       112       267      1239      1606      1607
 -1       373    8    0    1
 -2       111       267       266      1607      1608      1603
 -1       374    8    0    1
 -2       112       113       268      1240      1609      1610
 -1       375    8    0    1
 -2       112       268       267      1610      1611      1606
 -1       376    8    0    1
 -2       113       114       269      1241      1612      1613
 -1       377    8    0    1
 -2       113       269       268      1613      1614      1609
 -1       378    8    0    1
 -2       114       115       270      1242      1615      1616
 -1       379    8    0    1
 -2       114       270       269      1616      1617      1612
 -1       380    8    0    1
 -2       115       116       271      1243      1618      1619
 -1       381    8    0    1
 -2       115       271       270      1619      1620      1615
 -1       382    8    0    1
 -2       116       117       272      1244      1621      1622
 -1       383    8    0    1
 -2       116       272       271      1622      1623      1618
 -1       384    8    0    1
 -2       117       118       273      1245      1624      1625
 -1       385    8    0    1
 -2       117       273       272      1625      1626      1621
 -1       386    8    0    1
 -2       118       119       274      1246      1627      1628
 -1       387    8    0    1
 -2       118       274       273      1628      1629      1624
 -1       388    8    0    1
 -2       119       120       275      1247      1630      1631
 -1       389    8    0    1
 -2       119       275       274      1631      1632      1627
 -1       390    8    0    1
 -2       120         3       121      1248      1249      1633
 -1       391    8    0    1
 -2       121       122       276      1250      1634      1635
 -1       392    8    0    1
 -2       122       123       277      1251      1636      1637
 -1       393    8    0    1
 -2       122       277       276      1637      1638      1634
 -1       394    8    0    1
 -2       123       124       278      1252      1639      1640
 -1       395    8    0    1
 -2       123       278       277      1640      1641      1636
 -1       396    8    0    1
 -2       124       125       279      1253      1642      1643
 -1       397    8    0    1
 -2       124       279       278      1643      1644      1639
 -1       398    8    0    1
 -2       125       126       280      1254      1645      1646
 -1       399    8    0    1
 -2       125       280       279      1646      1647      1642
 -1       400    8    0    1
 -2       126       127       281      1255      1648      1649
 -1       401    8    0    1
 -2       126       281       280      1649      1650      1645
 -1       402    8    0    1
 -2       127       128       282      1256      1651      1652
 -1       403    8    0    1
 -2       127       282       281      1652      1653      1648
 -1       404    8    0    1
 -2       128       129       283      1257      1654      1655
 -1       405    8    0    1
 -2       128       283       282      1655      1656      1651
 -1       406    8    0    1
 -2       129       130       284      1258      1657      1658
 -1       407    8    0    1
 -2       129       284       283      1658      1659      1654
 -1       408    8    0    1
 -2       130       131       285      1259      1660      1661
 -1       409    8    0    1
 -2       130       285       284      1661      1662      1657
 -1       410    8    0    1
 -2       131       132       286      1260      1663      1664
 -1       411    8    0    1
 -2       131       286       285      1664      1665      1660
 -1       412    8    0    1
 -2       132       133       287      1261      1666      1667
 -1       413    8    0    1
 -2       132       287       286      1667      1668      1663
 -1       414    8    0    1
 -2       133       134       288      1262      1669      1670
 -1       415    8    0    1
 -2       133       288       287      1670      1671      1666
 -1       416    8    0    1
 -2       134       135       289      1263      1672      1673
 -1       417    8    0    1
 -2       134       289       288      1673      1674      1669
 -1       418    8    0    1
 -2       135       136       290      1264      1675      1676
 -1       419    8    0    1
 -2       289       135       290      1672      1676      1677
 -1       420    8    0    1
 -2       136       227       290      1488      1678      1675
 -1       421    8    0    1
 -2         2       137       291      1266      1679      1680
 -1       422    8    0    1
 -2       137       138       292      1267      1681      1682
 -1       423    8    0    1
 -2       138       139       293      1268      1683      1684
 -1       424    8    0    1
 -2       139       140       294      1269      1685      1686
 -1       425    8    0    1
 -2       140       141       295      1270      1687      1688
 -1       426    8    0    1
 -2       141       142       296      1271      1689      1690
 -1       427    8    0    1
 -2       142       143       297      1272      1691      1692
 -1       428    8    0    1
 -2       143       144       298      1273      1693      1694
 -1       429    8    0    1
 -2       144       145       299      1274      1695      1696
 -1       430    8    0    1
 -2       145       146       300      1275      1697      1698
 -1       431    8    0    1
 -2       146       147       301      1276      1699      1700
 -1       432    8    0    1
 -2       147       148       302      1277      1701      1702
 -1       433    8    0    1
 -2       148       149       303      1278      1703      1704
 -1       434    8    0    1
 -2       149       150       304      1279      1705      1706
 -1       435    8    0    1
 -2       150       151       305      1280      1707      1708
 -1       436    8    0    1
 -2       151       152       306      1281      1709      1710
 -1       437    8    0    1
 -2       152       153       307      1282      1711      1712
 -1       438    8    0    1
 -2       153       154       308      1283      1713      1714
 -1       439    8    0    1
 -2       154       155       309      1284      1715      1716
 -1       440    8    0    1
 -2       155       156       310      1285      1717      1718
 -1       441    8    0    1
 -2       156       157       311      1286      1719      1720
 -1       442    8    0    1
 -2       157       158       312      1287      1721      1722
 -1       443    8    0    1
 -2       158         1       313      1288      1723      1724
 -1       444    8    0    1
 -2         1       159       314      1289      1725      1726
 -1       445    8    0    1
 -2       159       160       315      1290      1727      1728
 -1       446    8    0    1
 -2       160       161       316      1291      1729      1730
 -1       447    8    0    1
 -2       161       162       317      1292      1731      1732
 -1       448    8    0    1
 -2       162       163       318      1293      1733      1734
 -1       449    8    0    1
 -2       163         2       319      1294      1735      1736
 -1       450    8    0    1
 -2       294       140       295      1685      1688      1737
 -1       451    8    0    1
 -2       293       139       294      1683      1686      1738
 -1       452    8    0    1
 -2       120       121       275      1633      1739      1630
 -1       453    8    0    1
 -2       121       276       275      1635      1740      1739
 -1       454    8    0    1
 -2       291       137       292      1679      1682      1741
 -1       455    8    0    1
 -2       292       138       293      1681      1684      1742
 -1       456    8    0    1
 -2         2       291       319      1680      1743      1735
 -1       457    8    0    1
 -2       141       296       295      1690      1744      1687
 -1       458    8    0    1
 -2       142       297       296      1692      1745      1689
 -1       459    8    0    1
 -2       143       298       297      1694      1746      1691
 -1       460    8    0    1
 -2       144       299       298      1696      1747      1693
 -1       461    8    0    1
 -2       145       300       299      1698      1748      1695
 -1       462    8    0    1
 -2       146       301       300      1700      1749      1697
 -1       463    8    0    1
 -2       147       302       301      1702      1750      1699
 -1       464    8    0    1
 -2       148       303       302      1704      1751      1701
 -1       465    8    0    1
 -2       149       304       303      1706      1752      1703
 -1       466    8    0    1
 -2       150       305       304      1708      1753      1705
 -1       467    8    0    1
 -2       151       306       305      1710      1754      1707
 -1       468    8    0    1
 -2       152       307       306      1712      1755      1709
 -1       469    8    0    1
 -2       153       308       307      1714      1756      1711
 -1       470    8    0    1
 -2       154       309       308      1716      1757      1713
 -1       471    8    0    1
 -2       155       310       309      1718      1758      1715
 -1       472    8    0    1
 -2       156       311       310      1720      1759      1717
 -1       473    8    0    1
 -2       157       312       311      1722      1760      1719
 -1       474    8    0    1
 -2       158       313       312      1724      1761      1721
 -1       475    8    0    1
 -2         1       314       313      1726      1762      1723
 -1       476    8    0    1
 -2       159       315       314      1728      1763      1725
 -1       477    8    0    1
 -2       160       316       315      1730      1764      1727
 -1       478    8    0    1
 -2       161       317       316      1732      1765      1729
 -1       479    8    0    1
 -2       162       318       317      1734      1766      1731
 -1       480    8    0    1
 -2       163       319       318      1736      1767      1733
 -1       481    8    0    1
 -2        23         7       164      1295      1297      1768
 -1       482    8    0    1
 -2       165       166       320      1303      1769      1770
 -1       483    8    0    1
 -2       164       165       321      1300      1771      1772
 -1       484    8    0    1
 -2       165       320       321      1770      1773      1771
 -1       485    8    0    1
 -2       167       168       322      1309      1774      1775
 -1       486    8    0    1
 -2       168       169       323      1312      1776      1777
 -1       487    8    0    1
 -2       168       323       322      1777      1778      1774
 -1       488    8    0    1
 -2       169       170       324      1315      1779      1780
 -1       489    8    0    1
 -2       169       324       323      1780      1781      1776
 -1       490    8    0    1
 -2       170       171       325      1318      1782      1783
 -1       491    8    0    1
 -2       170       325       324      1783      1784      1779
 -1       492    8    0    1
 -2       171       172       326      1321      1785      1786
 -1       493    8    0    1
 -2       171       326       325      1786      1787      1782
 -1       494    8    0    1
 -2       172       173       327      1324      1788      1789
 -1       495    8    0    1
 -2       172       327       326      1789      1790      1785
 -1       496    8    0    1
 -2       173       174       328      1327      1791      1792
 -1       497    8    0    1
 -2       173       328       327      1792      1793      1788
 -1       498    8    0    1
 -2       174       175       329      1330      1794      1795
 -1       499    8    0    1
 -2       174       329       328      1795      1796      1791
 -1       500    8    0    1
 -2       175       176       330      1333      1797      1798
 -1       501    8    0    1
 -2       175       330       329      1798      1799      1794
 -1       502    8    0    1
 -2       176       177       331      1336      1800      1801
 -1       503    8    0    1
 -2       176       331       330      1801      1802      1797
 -1       504    8    0    1
 -2       177       178       332      1339      1803      1804
 -1       505    8    0    1
 -2       177       332       331      1804      1805      1800
 -1       506    8    0    1
 -2       178       179       333      1342      1806      1807
 -1       507    8    0    1
 -2       332       178       333      1803      1807      1808
 -1       508    8    0    1
 -2       179       228       333      1491      1809      1806
 -1       509    8    0    1
 -2       180        23       164      1344      1768      1810
 -1       510    8    0    1
 -2       228       229       334      1494      1811      1812
 -1       511    8    0    1
 -2       228       334       333      1812      1813      1809
 -1       512    8    0    1
 -2       180       164       321      1810      1772      1814
 -1       513    8    0    1
 -2       182       181       335      1351      1815      1816
 -1       514    8    0    1
 -2       183       182       336      1354      1817      1818
 -1       515    8    0    1
 -2       182       335       336      1816      1819      1817
 -1       516    8    0    1
 -2       184       183       337      1357      1820      1821
 -1       517    8    0    1
 -2       183       336       337      1818      1822      1820
 -1       518    8    0    1
 -2       185       184       338      1360      1823      1824
 -1       519    8    0    1
 -2       184       337       338      1821      1825      1823
 -1       520    8    0    1
 -2       186       185       339      1363      1826      1827
 -1       521    8    0    1
 -2       185       338       339      1824      1828      1826
 -1       522    8    0    1
 -2       187       186       340      1366      1829      1830
 -1       523    8    0    1
 -2       186       339       340      1827      1831      1829
 -1       524    8    0    1
 -2       188       187       341      1369      1832      1833
 -1       525    8    0    1
 -2       187       340       341      1830      1834      1832
 -1       526    8    0    1
 -2       189       188       342      1372      1835      1836
 -1       527    8    0    1
 -2       188       341       342      1833      1837      1835
 -1       528    8    0    1
 -2       190       189       343      1375      1838      1839
 -1       529    8    0    1
 -2       189       342       343      1836      1840      1838
 -1       530    8    0    1
 -2       191       190       344      1378      1841      1842
 -1       531    8    0    1
 -2       190       343       344      1839      1843      1841
 -1       532    8    0    1
 -2       192       191       345      1381      1844      1845
 -1       533    8    0    1
 -2       191       344       345      1842      1846      1844
 -1       534    8    0    1
 -2       193       192       346      1384      1847      1848
 -1       535    8    0    1
 -2       192       345       346      1845      1849      1847
 -1       536    8    0    1
 -2       194       193       347      1387      1850      1851
 -1       537    8    0    1
 -2       193       346       347      1848      1852      1850
 -1       538    8    0    1
 -2       195       194       348      1390      1853      1854
 -1       539    8    0    1
 -2       194       347       348      1851      1855      1853
 -1       540    8    0    1
 -2       196       195       349      1393      1856      1857
 -1       541    8    0    1
 -2       195       348       349      1854      1858      1856
 -1       542    8    0    1
 -2       197       196       350      1396      1859      1860
 -1       543    8    0    1
 -2       196       349       350      1857      1861      1859
 -1       544    8    0    1
 -2       198       197       351      1399      1862      1863
 -1       545    8    0    1
 -2       197       350       351      1860      1864      1862
 -1       546    8    0    1
 -2       199       198       352      1402      1865      1866
 -1       547    8    0    1
 -2       198       351       352      1863      1867      1865
 -1       548    8    0    1
 -2       200       199       353      1405      1868      1869
 -1       549    8    0    1
 -2       199       352       353      1866      1870      1868
 -1       550    8    0    1
 -2       201       200       354      1408      1871      1872
 -1       551    8    0    1
 -2       200       353       354      1869      1873      1871
 -1       552    8    0    1
 -2       202       201       355      1411      1874      1875
 -1       553    8    0    1
 -2       201       354       355      1872      1876      1874
 -1       554    8    0    1
 -2       203       202       356      1414      1877      1878
 -1       555    8    0    1
 -2       202       355       356      1875      1879      1877
 -1       556    8    0    1
 -2       204       203       357      1417      1880      1881
 -1       557    8    0    1
 -2       203       356       357      1878      1882      1880
 -1       558    8    0    1
 -2       205       204       358      1420      1883      1884
 -1       559    8    0    1
 -2       204       357       358      1881      1885      1883
 -1       560    8    0    1
 -2       206       205       359      1423      1886      1887
 -1       561    8    0    1
 -2       205       358       359      1884      1888      1886
 -1       562    8    0    1
 -2       207       206       360      1426      1889      1890
 -1       563    8    0    1
 -2       206       359       360      1887      1891      1889
 -1       564    8    0    1
 -2       208       207       361      1429      1892      1893
 -1       565    8    0    1
 -2       207       360       361      1890      1894      1892
 -1       566    8    0    1
 -2       209       208       362      1432      1895      1896
 -1       567    8    0    1
 -2       208       361       362      1893      1897      1895
 -1       568    8    0    1
 -2       210       209       363      1435      1898      1899
 -1       569    8    0    1
 -2       209       362       363      1896      1900      1898
 -1       570    8    0    1
 -2       211       210       364      1438      1901      1902
 -1       571    8    0    1
 -2       210       363       364      1899      1903      1901
 -1       572    8    0    1
 -2       212       211       365      1441      1904      1905
 -1       573    8    0    1
 -2       211       364       365      1902      1906      1904
 -1       574    8    0    1
 -2       213       212       366      1444      1907      1908
 -1       575    8    0    1
 -2       212       365       366      1905      1909      1907
 -1       576    8    0    1
 -2       214       213       367      1447      1910      1911
 -1       577    8    0    1
 -2       213       366       367      1908      1912      1910
 -1       578    8    0    1
 -2       215       214       368      1450      1913      1914
 -1       579    8    0    1
 -2       214       367       368      1911      1915      1913
 -1       580    8    0    1
 -2       216       215       369      1453      1916      1917
 -1       581    8    0    1
 -2       215       368       369      1914      1918      1916
 -1       582    8    0    1
 -2       217       216       370      1456      1919      1920
 -1       583    8    0    1
 -2       216       369       370      1917      1921      1919
 -1       584    8    0    1
 -2       218       217       371      1459      1922      1923
 -1       585    8    0    1
 -2       217       370       371      1920      1924      1922
 -1       586    8    0    1
 -2       219       218       372      1462      1925      1926
 -1       587    8    0    1
 -2       218       371       372      1923      1927      1925
 -1       588    8    0    1
 -2       220       219       373      1465      1928      1929
 -1       589    8    0    1
 -2       219       372       373      1926      1930      1928
 -1       590    8    0    1
 -2       221       220       374      1468      1931      1932
 -1       591    8    0    1
 -2       220       373       374      1929      1933      1931
 -1       592    8    0    1
 -2       222       221       375      1471      1934      1935
 -1       593    8    0    1
 -2       221       374       375      1932      1936      1934
 -1       594    8    0    1
 -2       223       222       376      1474      1937      1938
 -1       595    8    0    1
 -2       222       375       376      1935      1939      1937
 -1       596    8    0    1
 -2       224       223       377      1477      1940      1941
 -1       597    8    0    1
 -2       223       376       377      1938      1942      1940
 -1       598    8    0    1
 -2       225       224       378      1480      1943      1944
 -1       599    8    0    1
 -2       224       377       378      1941      1945      1943
 -1       600    8    0    1
 -2       226       225       379      1483      1946      1947
 -1       601    8    0    1
 -2       225       378       379      1944      1948      1946
 -1       602    8    0    1
 -2       227       226       380      1486      1949      1950
 -1       603    8    0    1
 -2       290       227       380      1678      1950      1951
 -1       604    8    0    1
 -2       226       379       380      1947      1952      1949
 -1       605    8    0    1
 -2       229       230       381      1497      1953      1954
 -1       606    8    0    1
 -2       229       381       334      1954      1955      1811
 -1       607    8    0    1
 -2       230       231       382      1500      1956      1957
 -1       608    8    0    1
 -2       230       382       381      1957      1958      1953
 -1       609    8    0    1
 -2       231       232       383      1503      1959      1960
 -1       610    8    0    1
 -2       231       383       382      1960      1961      1956
 -1       611    8    0    1
 -2       232       233       384      1506      1962      1963
 -1       612    8    0    1
 -2       232       384       383      1963      1964      1959
 -1       613    8    0    1
 -2       233       234       385      1509      1965      1966
 -1       614    8    0    1
 -2       233       385       384      1966      1967      1962
 -1       615    8    0    1
 -2       234       235       386      1512      1968      1969
 -1       616    8    0    1
 -2       234       386       385      1969      1970      1965
 -1       617    8    0    1
 -2       235       236       387      1515      1971      1972
 -1       618    8    0    1
 -2       235       387       386      1972      1973      1968
 -1       619    8    0    1
 -2       236       237       388      1518      1974      1975
 -1       620    8    0    1
 -2       236       388       387      1975      1976      1971
 -1       621    8    0    1
 -2       237       238       389      1521      1977      1978
 -1       622    8    0    1
 -2       237       389       388      1978      1979      1974
 -1       623    8    0    1
 -2       238       239       390      1524      1980      1981
 -1       624    8    0    1
 -2       238       390       389      1981      1982      1977
 -1       625    8    0    1
 -2       239       240       391      1527      1983      1984
 -1       626    8    0    1
 -2       239       391       390      1984      1985      1980
 -1       627    8    0    1
 -2       240       241       392      1530      1986      1987
 -1       628    8    0    1
 -2       240       392       391      1987      1988      1983
 -1       629    8    0    1
 -2       241       242       393      1533      1989      1990
 -1       630    8    0    1
 -2       241       393       392      1990      1991      1986
 -1       631    8    0    1
 -2       242       243       394      1536      1992      1993
 -1       632    8    0    1
 -2       242       394       393      1993      1994      1989
 -1       633    8    0    1
 -2       243       244       395      1539      1995      1996
 -1       634    8    0    1
 -2       243       395       394      1996      1997      1992
 -1       635    8    0    1
 -2       244       245       396      1542      1998      1999
 -1       636    8    0    1
 -2       244       396       395      1999      2000      1995
 -1       637    8    0    1
 -2       245       246       397      1545      2001      2002
 -1       638    8    0    1
 -2       245       397       396      2002      2003      1998
 -1       639    8    0    1
 -2       246       247       398      1548      2004      2005
 -1       640    8    0    1
 -2       246       398       397      2005      2006      2001
 -1       641    8    0    1
 -2       247       248       399      1551      2007      2008
 -1       642    8    0    1
 -2       247       399       398      2008      2009      2004
 -1       643    8    0    1
 -2       248       249       400      1554      2010      2011
 -1       644    8    0    1
 -2       248       400       399      2011      2012      2007
 -1       645    8    0    1
 -2       249       250       401      1557      2013      2014
 -1       646    8    0    1
 -2       249       401       400      2014      2015      2010
 -1       647    8    0    1
 -2       250       251       402      1560      2016      2017
 -1       648    8    0    1
 -2       250       402       401      2017      2018      2013
 -1       649    8    0    1
 -2       251       252       403      1563      2019      2020
 -1       650    8    0    1
 -2       251       403       402      2020      2021      2016
 -1       651    8    0    1
 -2       252       253       404      1566      2022      2023
 -1       652    8    0    1
 -2       252       404       403      2023      2024      2019
 -1       653    8    0    1
 -2       253       254       405      1569      2025      2026
 -1       654    8    0    1
 -2       253       405       404      2026      2027      2022
 -1       655    8    0    1
 -2       254       255       406      1572      2028      2029
 -1       656    8    0    1
 -2       254       406       405      2029      2030      2025
 -1       657    8    0    1
 -2       255       256       407      1575      2031      2032
 -1       658    8    0    1
 -2       255       407       406      2032      2033      2028
 -1       659    8    0    1
 -2       256       257       408      1578      2034      2035
 -1       660    8    0    1
 -2       256       408       407      2035      2036      2031
 -1       661    8    0    1
 -2       257       258       409      1581      2037      2038
 -1       662    8    0    1
 -2       257       409       408      2038      2039      2034
 -1       663    8    0    1
 -2       258       259       410      1584      2040      2041
 -1       664    8    0    1
 -2       258       410       409      2041      2042      2037
 -1       665    8    0    1
 -2       259       260       411      1587      2043      2044
 -1       666    8    0    1
 -2       259       411       410      2044      2045      2040
 -1       667    8    0    1
 -2       260       261       412      1590      2046      2047
 -1       668    8    0    1
 -2       260       412       411      2047      2048      2043
 -1       669    8    0    1
 -2       261       262       413      1593      2049      2050
 -1       670    8    0    1
 -2       261       413       412      2050      2051      2046
 -1       671    8    0    1
 -2       262       263       414      1596      2052      2053
 -1       672    8    0    1
 -2       262       414       413      2053      2054      2049
 -1       673    8    0    1
 -2       263       264       415      1599      2055      2056
 -1       674    8    0    1
 -2       263       415       414      2056      2057      2052
 -1       675    8    0    1
 -2       264       265       416      1602      2058      2059
 -1       676    8    0    1
 -2       264       416       415      2059      2060      2055
 -1       677    8    0    1
 -2       265       266       417      1605      2061      2062
 -1       678    8    0    1
 -2       265       417       416      2062      2063      2058
 -1       679    8    0    1
 -2       266       267       418      1608      2064      2065
 -1       680    8    0    1
 -2       266       418       417      2065      2066      2061
 -1       681    8    0    1
 -2       267       268       419      1611      2067      2068
 -1       682    8    0    1
 -2       267       419       418      2068      2069      2064
 -1       683    8    0    1
 -2       268       269       420      1614      2070      2071
 -1       684    8    0    1
 -2       268       420       419      2071      2072      2067
 -1       685    8    0    1
 -2       269       270       421      1617      2073      2074
 -1       686    8    0    1
 -2       269       421       420      2074      2075      2070
 -1       687    8    0    1
 -2       270       271       422      1620      2076      2077
 -1       688    8    0    1
 -2       270       422       421      2077      2078      2073
 -1       689    8    0    1
 -2       271       272       423      1623      2079      2080
 -1       690    8    0    1
 -2       271       423       422      2080      2081      2076
 -1       691    8    0    1
 -2       272       273       424      1626      2082      2083
 -1       692    8    0    1
 -2       272       424       423      2083      2084      2079
 -1       693    8    0    1
 -2       273       274       425      1629      2085      2086
 -1       694    8    0    1
 -2       273       425       424      2086      2087      2082
 -1       695    8    0    1
 -2       274       275       426      1632      2088      2089
 -1       696    8    0    1
 -2       425       274       426      2085      2089      2090
 -1       697    8    0    1
 -2       275       276       426      1740      2091      2088
 -1       698    8    0    1
 -2       278       279       427      1644      2092      2093
 -1       699    8    0    1
 -2       277       278       428      1641      2094      2095
 -1       700    8    0    1
 -2       278       427       428      2093      2096      2094
 -1       701    8    0    1
 -2       276       277       429      1638      2097      2098
 -1       702    8    0    1
 -2       426       276       429      2091      2098      2099
 -1       703    8    0    1
 -2       277       428       429      2095      2100      2097
 -1       704    8    0    1
 -2       279       280       430      1647      2101      2102
 -1       705    8    0    1
 -2       279       430       427      2102      2103      2092
 -1       706    8    0    1
 -2       280       281       431      1650      2104      2105
 -1       707    8    0    1
 -2       280       431       430      2105      2106      2101
 -1       708    8    0    1
 -2       281       282       432      1653      2107      2108
 -1       709    8    0    1
 -2       281       432       431      2108      2109      2104
 -1       710    8    0    1
 -2       282       283       433      1656      2110      2111
 -1       711    8    0    1
 -2       282       433       432      2111      2112      2107
 -1       712    8    0    1
 -2       283       284       434      1659      2113      2114
 -1       713    8    0    1
 -2       283       434       433      2114      2115      2110
 -1       714    8    0    1
 -2       284       285       435      1662      2116      2117
 -1       715    8    0    1
 -2       284       435       434      2117      2118      2113
 -1       716    8    0    1
 -2       285       286       436      1665      2119      2120
 -1       717    8    0    1
 -2       285       436       435      2120      2121      2116
 -1       718    8    0    1
 -2       286       287       437      1668      2122      2123
 -1       719    8    0    1
 -2       286       437       436      2123      2124      2119
 -1       720    8    0    1
 -2       287       288       438      1671      2125      2126
 -1       721    8    0    1
 -2       287       438       437      2126      2127      2122
 -1       722    8    0    1
 -2       288       289       439      1674      2128      2129
 -1       723    8    0    1
 -2       288       439       438      2129      2130      2125
 -1       724    8    0    1
 -2       292       293       440      1742      2131      2132
 -1       725    8    0    1
 -2       319       291       441      1743      2133      2134
 -1       726    8    0    1
 -2       291       292       442      1741      2135      2136
 -1       727    8    0    1
 -2       293       294       443      1738      2137      2138
 -1       728    8    0    1
 -2       294       295       444      1737      2139      2140
 -1       729    8    0    1
 -2       166       167       445      1306      2141      2142
 -1       730    8    0    1
 -2       320       166       445      1769      2142      2143
 -1       731    8    0    1
 -2       167       322       445      1775      2144      2141
 -1       732    8    0    1
 -2       296       297       446      1745      2145      2146
 -1       733    8    0    1
 -2       297       298       447      1746      2147      2148
 -1       734    8    0    1
 -2       297       447       446      2148      2149      2145
 -1       735    8    0    1
 -2       298       299       448      1747      2150      2151
 -1       736    8    0    1
 -2       299       300       449      1748      2152      2153
 -1       737    8    0    1
 -2       300       301       450      1749      2154      2155
 -1       738    8    0    1
 -2       301       302       451      1750      2156      2157
 -1       739    8    0    1
 -2       302       303       452      1751      2158      2159
 -1       740    8    0    1
 -2       303       304       453      1752      2160      2161
 -1       741    8    0    1
 -2       304       305       454      1753      2162      2163
 -1       742    8    0    1
 -2       305       306       455      1754      2164      2165
 -1       743    8    0    1
 -2       306       307       456      1755      2166      2167
 -1       744    8    0    1
 -2       307       308       457      1756      2168      2169
 -1       745    8    0    1
 -2       307       457       456      2169      2170      2166
 -1       746    8    0    1
 -2       308       309       458      1757      2171      2172
 -1       747    8    0    1
 -2       309       310       459      1758      2173      2174
 -1       748    8    0    1
 -2       310       311       460      1759      2175      2176
 -1       749    8    0    1
 -2       310       460       459      2176      2177      2173
 -1       750    8    0    1
 -2       311       312       461      1760      2178      2179
 -1       751    8    0    1
 -2       312       313       462      1761      2180      2181
 -1       752    8    0    1
 -2       312       462       461      2181      2182      2178
 -1       753    8    0    1
 -2       313       314       463      1762      2183      2184
 -1       754    8    0    1
 -2       314       315       464      1763      2185      2186
 -1       755    8    0    1
 -2       315       316       465      1764      2187      2188
 -1       756    8    0    1
 -2       316       317       466      1765      2189      2190
 -1       757    8    0    1
 -2       317       318       467      1766      2191      2192
 -1       758    8    0    1
 -2       318       319       468      1767      2193      2194
 -1       759    8    0    1
 -2       318       468       467      2194      2195      2191
 -1       760    8    0    1
 -2       295       296       469      1744      2196      2197
 -1       761    8    0    1
 -2       295       469       444      2197      2198      2139
 -1       762    8    0    1
 -2       443       294       444      2137      2140      2199
 -1       763    8    0    1
 -2       180       321       181      1814      2200      1348
 -1       764    8    0    1
 -2       296       446       469      2146      2201      2196
 -1       765    8    0    1
 -2       335       181       321      1815      2200      2202
 -1       766    8    0    1
 -2       442       292       440      2135      2132      2203
 -1       767    8    0    1
 -2       441       291       442      2133      2136      2204
 -1       768    8    0    1
 -2       439       289       290      2128      1677      2205
 -1       769    8    0    1
 -2       440       293       443      2131      2138      2206
 -1       770    8    0    1
 -2       319       441       468      2134      2207      2193
 -1       771    8    0    1
 -2       466       317       470      2189      2208      2209
 -1       772    8    0    1
 -2       317       467       470      2192      2210      2208
 -1       773    8    0    1
 -2       465       316       466      2187      2190      2211
 -1       774    8    0    1
 -2       464       315       465      2185      2188      2212
 -1       775    8    0    1
 -2       462       313       463      2180      2184      2213
 -1       776    8    0    1
 -2       460       311       471      2175      2214      2215
 -1       777    8    0    1
 -2       311       461       471      2179      2216      2214
 -1       778    8    0    1
 -2       457       308       458      2168      2172      2217
 -1       779    8    0    1
 -2       455       306       456      2164      2167      2218
 -1       780    8    0    1
 -2       454       305       455      2162      2165      2219
 -1       781    8    0    1
 -2       453       304       454      2160      2163      2220
 -1       782    8    0    1
 -2       452       303       453      2158      2161      2221
 -1       783    8    0    1
 -2       451       302       452      2156      2159      2222
 -1       784    8    0    1
 -2       450       301       451      2154      2157      2223
 -1       785    8    0    1
 -2       449       300       450      2152      2155      2224
 -1       786    8    0    1
 -2       298       448       447      2151      2225      2147
 -1       787    8    0    1
 -2       448       299       449      2150      2153      2226
 -1       788    8    0    1
 -2       458       309       472      2171      2227      2228
 -1       789    8    0    1
 -2       309       459       472      2174      2229      2227
 -1       790    8    0    1
 -2       463       314       464      2183      2186      2230
 -1       791    8    0    1
 -2       334       381       473      1955      2231      2232
 -1       792    8    0    1
 -2       323       324       474      1781      2233      2234
 -1       793    8    0    1
 -2       322       323       475      1778      2235      2236
 -1       794    8    0    1
 -2       323       474       475      2234      2237      2235
 -1       795    8    0    1
 -2       325       326       476      1787      2238      2239
 -1       796    8    0    1
 -2       326       327       477      1790      2240      2241
 -1       797    8    0    1
 -2       326       477       476      2241      2242      2238
 -1       798    8    0    1
 -2       327       328       478      1793      2243      2244
 -1       799    8    0    1
 -2       327       478       477      2244      2245      2240
 -1       800    8    0    1
 -2       328       329       479      1796      2246      2247
 -1       801    8    0    1
 -2       328       479       478      2247      2248      2243
 -1       802    8    0    1
 -2       329       330       480      1799      2249      2250
 -1       803    8    0    1
 -2       329       480       479      2250      2251      2246
 -1       804    8    0    1
 -2       330       331       481      1802      2252      2253
 -1       805    8    0    1
 -2       330       481       480      2253      2254      2249
 -1       806    8    0    1
 -2       443       444       482      2199      2255      2256
 -1       807    8    0    1
 -2       381       382       483      1958      2257      2258
 -1       808    8    0    1
 -2       381       483       473      2258      2259      2231
 -1       809    8    0    1
 -2       336       335       484      1819      2260      2261
 -1       810    8    0    1
 -2       469       446       485      2201      2262      2263
 -1       811    8    0    1
 -2       337       336       486      1822      2264      2265
 -1       812    8    0    1
 -2       336       484       486      2261      2266      2264
 -1       813    8    0    1
 -2       338       337       487      1825      2267      2268
 -1       814    8    0    1
 -2       337       486       487      2265      2269      2267
 -1       815    8    0    1
 -2       339       338       488      1828      2270      2271
 -1       816    8    0    1
 -2       338       487       488      2268      2272      2270
 -1       817    8    0    1
 -2       340       339       489      1831      2273      2274
 -1       818    8    0    1
 -2       339       488       489      2271      2275      2273
 -1       819    8    0    1
 -2       341       340       490      1834      2276      2277
 -1       820    8    0    1
 -2       340       489       490      2274      2278      2276
 -1       821    8    0    1
 -2       342       341       491      1837      2279      2280
 -1       822    8    0    1
 -2       341       490       491      2277      2281      2279
 -1       823    8    0    1
 -2       343       342       492      1840      2282      2283
 -1       824    8    0    1
 -2       342       491       492      2280      2284      2282
 -1       825    8    0    1
 -2       344       343       493      1843      2285      2286
 -1       826    8    0    1
 -2       343       492       493      2283      2287      2285
 -1       827    8    0    1
 -2       345       344       494      1846      2288      2289
 -1       828    8    0    1
 -2       344       493       494      2286      2290      2288
 -1       829    8    0    1
 -2       346       345       495      1849      2291      2292
 -1       830    8    0    1
 -2       345       494       495      2289      2293      2291
 -1       831    8    0    1
 -2       347       346       496      1852      2294      2295
 -1       832    8    0    1
 -2       346       495       496      2292      2296      2294
 -1       833    8    0    1
 -2       348       347       497      1855      2297      2298
 -1       834    8    0    1
 -2       347       496       497      2295      2299      2297
 -1       835    8    0    1
 -2       349       348       498      1858      2300      2301
 -1       836    8    0    1
 -2       348       497       498      2298      2302      2300
 -1       837    8    0    1
 -2       350       349       499      1861      2303      2304
 -1       838    8    0    1
 -2       349       498       499      2301      2305      2303
 -1       839    8    0    1
 -2       351       350       500      1864      2306      2307
 -1       840    8    0    1
 -2       350       499       500      2304      2308      2306
 -1       841    8    0    1
 -2       352       351       501      1867      2309      2310
 -1       842    8    0    1
 -2       351       500       501      2307      2311      2309
 -1       843    8    0    1
 -2       353       352       502      1870      2312      2313
 -1       844    8    0    1
 -2       352       501       502      2310      2314      2312
 -1       845    8    0    1
 -2       354       353       503      1873      2315      2316
 -1       846    8    0    1
 -2       353       502       503      2313      2317      2315
 -1       847    8    0    1
 -2       355       354       504      1876      2318      2319
 -1       848    8    0    1
 -2       354       503       504      2316      2320      2318
 -1       849    8    0    1
 -2       356       355       505      1879      2321      2322
 -1       850    8    0    1
 -2       355       504       505      2319      2323      2321
 -1       851    8    0    1
 -2       357       356       506      1882      2324      2325
 -1       852    8    0    1
 -2       356       505       506      2322      2326      2324
 -1       853    8    0    1
 -2       358       357       507      1885      2327      2328
 -1       854    8    0    1
 -2       357       506       507      2325      2329      2327
 -1       855    8    0    1
 -2       359       358       508      1888      2330      2331
 -1       856    8    0    1
 -2       358       507       508      2328      2332      2330
 -1       857    8    0    1
 -2       360       359       509      1891      2333      2334
 -1       858    8    0    1
 -2       359       508       509      2331      2335      2333
 -1       859    8    0    1
 -2       361       360       510      1894      2336      2337
 -1       860    8    0    1
 -2       360       509       510      2334      2338      2336
 -1       861    8    0    1
 -2       362       361       511      1897      2339      2340
 -1       862    8    0    1
 -2       361       510       511      2337      2341      2339
 -1       863    8    0    1
 -2       363       362       512      1900      2342      2343
 -1       864    8    0    1
 -2       362       511       512      2340      2344      2342
 -1       865    8    0    1
 -2       364       363       513      1903      2345      2346
 -1       866    8    0    1
 -2       363       512       513      2343      2347      2345
 -1       867    8    0    1
 -2       365       364       514      1906      2348      2349
 -1       868    8    0    1
 -2       364       513       514      2346      2350      2348
 -1       869    8    0    1
 -2       366       365       515      1909      2351      2352
 -1       870    8    0    1
 -2       365       514       515      2349      2353      2351
 -1       871    8    0    1
 -2       367       366       516      1912      2354      2355
 -1       872    8    0    1
 -2       366       515       516      2352      2356      2354
 -1       873    8    0    1
 -2       368       367       517      1915      2357      2358
 -1       874    8    0    1
 -2       367       516       517      2355      2359      2357
 -1       875    8    0    1
 -2       369       368       518      1918      2360      2361
 -1       876    8    0    1
 -2       368       517       518      2358      2362      2360
 -1       877    8    0    1
 -2       370       369       519      1921      2363      2364
 -1       878    8    0    1
 -2       369       518       519      2361      2365      2363
 -1       879    8    0    1
 -2       371       370       520      1924      2366      2367
 -1       880    8    0    1
 -2       370       519       520      2364      2368      2366
 -1       881    8    0    1
 -2       372       371       521      1927      2369      2370
 -1       882    8    0    1
 -2       371       520       521      2367      2371      2369
 -1       883    8    0    1
 -2       373       372       522      1930      2372      2373
 -1       884    8    0    1
 -2       372       521       522      2370      2374      2372
 -1       885    8    0    1
 -2       374       373       523      1933      2375      2376
 -1       886    8    0    1
 -2       373       522       523      2373      2377      2375
 -1       887    8    0    1
 -2       375       374       524      1936      2378      2379
 -1       888    8    0    1
 -2       374       523       524      2376      2380      2378
 -1       889    8    0    1
 -2       376       375       525      1939      2381      2382
 -1       890    8    0    1
 -2       375       524       525      2379      2383      2381
 -1       891    8    0    1
 -2       377       376       526      1942      2384      2385
 -1       892    8    0    1
 -2       376       525       526      2382      2386      2384
 -1       893    8    0    1
 -2       378       377       527      1945      2387      2388
 -1       894    8    0    1
 -2       377       526       527      2385      2389      2387
 -1       895    8    0    1
 -2       379       378       528      1948      2390      2391
 -1       896    8    0    1
 -2       378       527       528      2388      2392      2390
 -1       897    8    0    1
 -2       383       384       529      1964      2393      2394
 -1       898    8    0    1
 -2       384       385       530      1967      2395      2396
 -1       899    8    0    1
 -2       384       530       529      2396      2397      2393
 -1       900    8    0    1
 -2       385       386       531      1970      2398      2399
 -1       901    8    0    1
 -2       385       531       530      2399      2400      2395
 -1       902    8    0    1
 -2       386       387       532      1973      2401      2402
 -1       903    8    0    1
 -2       386       532       531      2402      2403      2398
 -1       904    8    0    1
 -2       387       388       533      1976      2404      2405
 -1       905    8    0    1
 -2       387       533       532      2405      2406      2401
 -1       906    8    0    1
 -2       388       389       534      1979      2407      2408
 -1       907    8    0    1
 -2       388       534       533      2408      2409      2404
 -1       908    8    0    1
 -2       389       390       535      1982      2410      2411
 -1       909    8    0    1
 -2       389       535       534      2411      2412      2407
 -1       910    8    0    1
 -2       390       391       536      1985      2413      2414
 -1       911    8    0    1
 -2       390       536       535      2414      2415      2410
 -1       912    8    0    1
 -2       391       392       537      1988      2416      2417
 -1       913    8    0    1
 -2       391       537       536      2417      2418      2413
 -1       914    8    0    1
 -2       392       393       538      1991      2419      2420
 -1       915    8    0    1
 -2       392       538       537      2420      2421      2416
 -1       916    8    0    1
 -2       393       394       539      1994      2422      2423
 -1       917    8    0    1
 -2       393       539       538      2423      2424      2419
 -1       918    8    0    1
 -2       394       395       540      1997      2425      2426
 -1       919    8    0    1
 -2       394       540       539      2426      2427      2422
 -1       920    8    0    1
 -2       395       396       541      2000      2428      2429
 -1       921    8    0    1
 -2       395       541       540      2429      2430      2425
 -1       922    8    0    1
 -2       396       397       542      2003      2431      2432
 -1       923    8    0    1
 -2       396       542       541      2432      2433      2428
 -1       924    8    0    1
 -2       397       398       543      2006      2434      2435
 -1       925    8    0    1
 -2       397       543       542      2435      2436      2431
 -1       926    8    0    1
 -2       398       399       544      2009      2437      2438
 -1       927    8    0    1
 -2       398       544       543      2438      2439      2434
 -1       928    8    0    1
 -2       399       400       545      2012      2440      2441
 -1       929    8    0    1
 -2       399       545       544      2441      2442      2437
 -1       930    8    0    1
 -2       400       401       546      2015      2443      2444
 -1       931    8    0    1
 -2       400       546       545      2444      2445      2440
 -1       932    8    0    1
 -2       401       402       547      2018      2446      2447
 -1       933    8    0    1
 -2       401       547       546      2447      2448      2443
 -1       934    8    0    1
 -2       402       403       548      2021      2449      2450
 -1       935    8    0    1
 -2       402       548       547      2450      2451      2446
 -1       936    8    0    1
 -2       403       404       549      2024      2452      2453
 -1       937    8    0    1
 -2       403       549       548      2453      2454      2449
 -1       938    8    0    1
 -2       404       405       550      2027      2455      2456
 -1       939    8    0    1
 -2       404       550       549      2456      2457      2452
 -1       940    8    0    1
 -2       405       406       551      2030      2458      2459
 -1       941    8    0    1
 -2       405       551       550      2459      2460      2455
 -1       942    8    0    1
 -2       406       407       552      2033      2461      2462
 -1       943    8    0    1
 -2       406       552       551      2462      2463      2458
 -1       944    8    0    1
 -2       407       408       553      2036      2464      2465
 -1       945    8    0    1
 -2       407       553       552      2465      2466      2461
 -1       946    8    0    1
 -2       408       409       554      2039      2467      2468
 -1       947    8    0    1
 -2       408       554       553      2468      2469      2464
 -1       948    8    0    1
 -2       409       410       555      2042      2470      2471
 -1       949    8    0    1
 -2       409       555       554      2471      2472      2467
 -1       950    8    0    1
 -2       410       411       556      2045      2473      2474
 -1       951    8    0    1
 -2       410       556       555      2474      2475      2470
 -1       952    8    0    1
 -2       411       412       557      2048      2476      2477
 -1       953    8    0    1
 -2       411       557       556      2477      2478      2473
 -1       954    8    0    1
 -2       412       413       558      2051      2479      2480
 -1       955    8    0    1
 -2       412       558       557      2480      2481      2476
 -1       956    8    0    1
 -2       413       414       559      2054      2482      2483
 -1       957    8    0    1
 -2       413       559       558      2483      2484      2479
 -1       958    8    0    1
 -2       414       415       560      2057      2485      2486
 -1       959    8    0    1
 -2       414       560       559      2486      2487      2482
 -1       960    8    0    1
 -2       415       416       561      2060      2488      2489
 -1       961    8    0    1
 -2       415       561       560      2489      2490      2485
 -1       962    8    0    1
 -2       416       417       562      2063      2491      2492
 -1       963    8    0    1
 -2       416       562       561      2492      2493      2488
 -1       964    8    0    1
 -2       417       418       563      2066      2494      2495
 -1       965    8    0    1
 -2       417       563       562      2495      2496      2491
 -1       966    8    0    1
 -2       418       419       564      2069      2497      2498
 -1       967    8    0    1
 -2       418       564       563      2498      2499      2494
 -1       968    8    0    1
 -2       419       420       565      2072      2500      2501
 -1       969    8    0    1
 -2       419       565       564      2501      2502      2497
 -1       970    8    0    1
 -2       420       421       566      2075      2503      2504
 -1       971    8    0    1
 -2       420       566       565      2504      2505      2500
 -1       972    8    0    1
 -2       421       422       567      2078      2506      2507
 -1       973    8    0    1
 -2       421       567       566      2507      2508      2503
 -1       974    8    0    1
 -2       422       423       568      2081      2509      2510
 -1       975    8    0    1
 -2       422       568       567      2510      2511      2506
 -1       976    8    0    1
 -2       423       424       569      2084      2512      2513
 -1       977    8    0    1
 -2       423       569       568      2513      2514      2509
 -1       978    8    0    1
 -2       424       425       570      2087      2515      2516
 -1       979    8    0    1
 -2       424       570       569      2516      2517      2512
 -1       980    8    0    1
 -2       425       426       429      2090      2099      2518
 -1       981    8    0    1
 -2       430       431       571      2106      2519      2520
 -1       982    8    0    1
 -2       431       432       572      2109      2521      2522
 -1       983    8    0    1
 -2       431       572       571      2522      2523      2519
 -1       984    8    0    1
 -2       428       427       573      2096      2524      2525
 -1       985    8    0    1
 -2       427       430       574      2103      2526      2527
 -1       986    8    0    1
 -2       573       427       574      2524      2527      2528
 -1       987    8    0    1
 -2       430       571       574      2520      2529      2526
 -1       988    8    0    1
 -2       432       433       575      2112      2530      2531
 -1       989    8    0    1
 -2       432       575       572      2531      2532      2521
 -1       990    8    0    1
 -2       433       434       576      2115      2533      2534
 -1       991    8    0    1
 -2       433       576       575      2534      2535      2530
 -1       992    8    0    1
 -2       434       435       577      2118      2536      2537
 -1       993    8    0    1
 -2       434       577       576      2537      2538      2533
 -1       994    8    0    1
 -2       435       436       578      2121      2539      2540
 -1       995    8    0    1
 -2       435       578       577      2540      2541      2536
 -1       996    8    0    1
 -2       436       437       579      2124      2542      2543
 -1       997    8    0    1
 -2       436       579       578      2543      2544      2539
 -1       998    8    0    1
 -2       437       438       580      2127      2545      2546
 -1       999    8    0    1
 -2       437       580       579      2546      2547      2542
 -1      1000    8    0    1
 -2       438       439       581      2130      2548      2549
 -1      1001    8    0    1
 -2       438       581       580      2549      2550      2545
 -1      1002    8    0    1
 -2       441       442       582      2204      2551      2552
 -1      1003    8    0    1
 -2       440       443       583      2206      2553      2554
 -1      1004    8    0    1
 -2       382       383       584      1961      2555      2556
 -1      1005    8    0    1
 -2       383       529       584      2394      2557      2555
 -1      1006    8    0    1
 -2       439       290       380      2205      1951      2558
 -1      1007    8    0    1
 -2       468       441       585      2207      2559      2560
 -1      1008    8    0    1
 -2       442       440       586      2203      2561      2562
 -1      1009    8    0    1
 -2       444       469       587      2198      2563      2564
 -1      1010    8    0    1
 -2       457       458       588      2217      2565      2566
 -1      1011    8    0    1
 -2       455       456       589      2218      2567      2568
 -1      1012    8    0    1
 -2       324       325       590      1784      2569      2570
 -1      1013    8    0    1
 -2       474       324       590      2233      2570      2571
 -1      1014    8    0    1
 -2       325       476       590      2239      2572      2569
 -1      1015    8    0    1
 -2       448       449       591      2226      2573      2574
 -1      1016    8    0    1
 -2       446       447       592      2149      2575      2576
 -1      1017    8    0    1
 -2       447       448       593      2225      2577      2578
 -1      1018    8    0    1
 -2       449       450       594      2224      2579      2580
 -1      1019    8    0    1
 -2       450       451       595      2223      2581      2582
 -1      1020    8    0    1
 -2       451       452       596      2222      2583      2584
 -1      1021    8    0    1
 -2       452       453       597      2221      2585      2586
 -1      1022    8    0    1
 -2       452       597       596      2586      2587      2583
 -1      1023    8    0    1
 -2       453       454       598      2220      2588      2589
 -1      1024    8    0    1
 -2       454       455       599      2219      2590      2591
 -1      1025    8    0    1
 -2       456       457       600      2170      2592      2593
 -1      1026    8    0    1
 -2       463       464       601      2230      2594      2595
 -1      1027    8    0    1
 -2       459       460       602      2177      2596      2597
 -1      1028    8    0    1
 -2       461       462       603      2182      2598      2599
 -1      1029    8    0    1
 -2       462       463       604      2213      2600      2601
 -1      1030    8    0    1
 -2       464       465       605      2212      2602      2603
 -1      1031    8    0    1
 -2       465       466       606      2211      2604      2605
 -1      1032    8    0    1
 -2       467       468       607      2195      2606      2607
 -1      1033    8    0    1
 -2       335       321       608      2202      2608      2609
 -1      1034    8    0    1
 -2       484       335       608      2260      2609      2610
 -1      1035    8    0    1
 -2       321       320       608      1773      2611      2608
 -1      1036    8    0    1
 -2       333       334       609      1813      2612      2613
 -1      1037    8    0    1
 -2       332       333       609      1808      2613      2614
 -1      1038    8    0    1
 -2       334       473       609      2232      2615      2612
 -1      1039    8    0    1
 -2       448       591       593      2574      2616      2577
 -1      1040    8    0    1
 -2       322       475       610      2236      2617      2618
 -1      1041    8    0    1
 -2       322       610       445      2618      2619      2144
 -1      1042    8    0    1
 -2       443       482       583      2256      2620      2553
 -1      1043    8    0    1
 -2       482       444       587      2255      2564      2621
 -1      1044    8    0    1
 -2       331       332       609      1805      2614      2622
 -1      1045    8    0    1
 -2       602       460       611      2596      2623      2624
 -1      1046    8    0    1
 -2       460       471       611      2215      2625      2623
 -1      1047    8    0    1
 -2       601       464       605      2594      2603      2626
 -1      1048    8    0    1
 -2       469       485       587      2263      2627      2563
 -1      1049    8    0    1
 -2       600       457       588      2592      2566      2628
 -1      1050    8    0    1
 -2       599       455       612      2590      2629      2630
 -1      1051    8    0    1
 -2       455       589       612      2568      2631      2629
 -1      1052    8    0    1
 -2       468       585       607      2560      2632      2606
 -1      1053    8    0    1
 -2       597       453       598      2585      2589      2633
 -1      1054    8    0    1
 -2       425       429       570      2518      2634      2515
 -1      1055    8    0    1
 -2       429       428       570      2100      2635      2634
 -1      1056    8    0    1
 -2       441       582       585      2552      2636      2559
 -1      1057    8    0    1
 -2       582       442       586      2551      2562      2637
 -1      1058    8    0    1
 -2       440       583       586      2554      2638      2561
 -1      1059    8    0    1
 -2       595       451       596      2581      2584      2639
 -1      1060    8    0    1
 -2       594       450       595      2579      2582      2640
 -1      1061    8    0    1
 -2       382       584       483      2556      2641      2257
 -1      1062    8    0    1
 -2       608       320       445      2611      2143      2642
 -1      1063    8    0    1
 -2       470       467       613      2210      2643      2644
 -1      1064    8    0    1
 -2       467       607       613      2607      2645      2643
 -1      1065    8    0    1
 -2       331       609       481      2622      2646      2252
 -1      1066    8    0    1
 -2       606       466       470      2604      2209      2647
 -1      1067    8    0    1
 -2       605       465       606      2602      2605      2648
 -1      1068    8    0    1
 -2       604       463       601      2600      2595      2649
 -1      1069    8    0    1
 -2       589       456       600      2567      2593      2650
 -1      1070    8    0    1
 -2       471       461       603      2216      2599      2651
 -1      1071    8    0    1
 -2       588       458       614      2565      2652      2653
 -1      1072    8    0    1
 -2       458       472       614      2228      2654      2652
 -1      1073    8    0    1
 -2       485       446       592      2262      2576      2655
 -1      1074    8    0    1
 -2       592       447       593      2575      2578      2656
 -1      1075    8    0    1
 -2       472       459       602      2229      2597      2657
 -1      1076    8    0    1
 -2       449       594       591      2580      2658      2573
 -1      1077    8    0    1
 -2       598       454       599      2588      2591      2659
 -1      1078    8    0    1
 -2       462       604       603      2601      2660      2598
 -1      1079    8    0    1
 -2       439       380       615      2558      2661      2662
 -1      1080    8    0    1
 -2       581       439       615      2548      2662      2663
 -1      1081    8    0    1
 -2       380       379       615      1952      2664      2661
 -1      1082    8    0    1
 -2       570       428       573      2635      2525      2665
 -1      1083    8    0    1
 -2       615       379       528      2664      2391      2666
 -1      1084    8    0    1
 -2       477       478       616      2245      2667      2668
 -1      1085    8    0    1
 -2       476       477       617      2242      2669      2670
 -1      1086    8    0    1
 -2       477       616       617      2668      2671      2669
 -1      1087    8    0    1
 -2       479       480       618      2251      2672      2673
 -1      1088    8    0    1
 -2       480       481       619      2254      2674      2675
 -1      1089    8    0    1
 -2       480       619       618      2675      2676      2672
 -1      1090    8    0    1
 -2       606       470       620      2647      2677      2678
 -1      1091    8    0    1
 -2       473       483       621      2259      2679      2680
 -1      1092    8    0    1
 -2       609       473       481      2615      2681      2646
 -1      1093    8    0    1
 -2       487       486       622      2269      2682      2683
 -1      1094    8    0    1
 -2       488       487       623      2272      2684      2685
 -1      1095    8    0    1
 -2       487       622       623      2683      2686      2684
 -1      1096    8    0    1
 -2       489       488       624      2275      2687      2688
 -1      1097    8    0    1
 -2       488       623       624      2685      2689      2687
 -1      1098    8    0    1
 -2       490       489       625      2278      2690      2691
 -1      1099    8    0    1
 -2       489       624       625      2688      2692      2690
 -1      1100    8    0    1
 -2       491       490       626      2281      2693      2694
 -1      1101    8    0    1
 -2       490       625       626      2691      2695      2693
 -1      1102    8    0    1
 -2       492       491       627      2284      2696      2697
 -1      1103    8    0    1
 -2       491       626       627      2694      2698      2696
 -1      1104    8    0    1
 -2       493       492       628      2287      2699      2700
 -1      1105    8    0    1
 -2       492       627       628      2697      2701      2699
 -1      1106    8    0    1
 -2       494       493       629      2290      2702      2703
 -1      1107    8    0    1
 -2       493       628       629      2700      2704      2702
 -1      1108    8    0    1
 -2       495       494       630      2293      2705      2706
 -1      1109    8    0    1
 -2       494       629       630      2703      2707      2705
 -1      1110    8    0    1
 -2       496       495       631      2296      2708      2709
 -1      1111    8    0    1
 -2       495       630       631      2706      2710      2708
 -1      1112    8    0    1
 -2       497       496       632      2299      2711      2712
 -1      1113    8    0    1
 -2       496       631       632      2709      2713      2711
 -1      1114    8    0    1
 -2       498       497       633      2302      2714      2715
 -1      1115    8    0    1
 -2       497       632       633      2712      2716      2714
 -1      1116    8    0    1
 -2       499       498       634      2305      2717      2718
 -1      1117    8    0    1
 -2       498       633       634      2715      2719      2717
 -1      1118    8    0    1
 -2       500       499       635      2308      2720      2721
 -1      1119    8    0    1
 -2       499       634       635      2718      2722      2720
 -1      1120    8    0    1
 -2       501       500       636      2311      2723      2724
 -1      1121    8    0    1
 -2       500       635       636      2721      2725      2723
 -1      1122    8    0    1
 -2       502       501       637      2314      2726      2727
 -1      1123    8    0    1
 -2       501       636       637      2724      2728      2726
 -1      1124    8    0    1
 -2       503       502       638      2317      2729      2730
 -1      1125    8    0    1
 -2       502       637       638      2727      2731      2729
 -1      1126    8    0    1
 -2       504       503       639      2320      2732      2733
 -1      1127    8    0    1
 -2       503       638       639      2730      2734      2732
 -1      1128    8    0    1
 -2       505       504       640      2323      2735      2736
 -1      1129    8    0    1
 -2       504       639       640      2733      2737      2735
 -1      1130    8    0    1
 -2       506       505       641      2326      2738      2739
 -1      1131    8    0    1
 -2       505       640       641      2736      2740      2738
 -1      1132    8    0    1
 -2       507       506       642      2329      2741      2742
 -1      1133    8    0    1
 -2       506       641       642      2739      2743      2741
 -1      1134    8    0    1
 -2       508       507       643      2332      2744      2745
 -1      1135    8    0    1
 -2       507       642       643      2742      2746      2744
 -1      1136    8    0    1
 -2       509       508       644      2335      2747      2748
 -1      1137    8    0    1
 -2       508       643       644      2745      2749      2747
 -1      1138    8    0    1
 -2       510       509       645      2338      2750      2751
 -1      1139    8    0    1
 -2       509       644       645      2748      2752      2750
 -1      1140    8    0    1
 -2       511       510       611      2341      2753      2754
 -1      1141    8    0    1
 -2       512       511       611      2344      2754      2755
 -1      1142    8    0    1
 -2       515       514       646      2353      2756      2757
 -1      1143    8    0    1
 -2       516       515       647      2356      2758      2759
 -1      1144    8    0    1
 -2       515       646       647      2757      2760      2758
 -1      1145    8    0    1
 -2       517       516       648      2359      2761      2762
 -1      1146    8    0    1
 -2       516       647       648      2759      2763      2761
 -1      1147    8    0    1
 -2       518       517       649      2362      2764      2765
 -1      1148    8    0    1
 -2       517       648       649      2762      2766      2764
 -1      1149    8    0    1
 -2       519       518       650      2365      2767      2768
 -1      1150    8    0    1
 -2       518       649       650      2765      2769      2767
 -1      1151    8    0    1
 -2       520       519       651      2368      2770      2771
 -1      1152    8    0    1
 -2       519       650       651      2768      2772      2770
 -1      1153    8    0    1
 -2       521       520       652      2371      2773      2774
 -1      1154    8    0    1
 -2       520       651       652      2771      2775      2773
 -1      1155    8    0    1
 -2       522       521       653      2374      2776      2777
 -1      1156    8    0    1
 -2       521       652       653      2774      2778      2776
 -1      1157    8    0    1
 -2       523       522       654      2377      2779      2780
 -1      1158    8    0    1
 -2       522       653       654      2777      2781      2779
 -1      1159    8    0    1
 -2       524       523       655      2380      2782      2783
 -1      1160    8    0    1
 -2       523       654       655      2780      2784      2782
 -1      1161    8    0    1
 -2       525       524       656      2383      2785      2786
 -1      1162    8    0    1
 -2       524       655       656      2783      2787      2785
 -1      1163    8    0    1
 -2       526       525       657      2386      2788      2789
 -1      1164    8    0    1
 -2       525       656       657      2786      2790      2788
 -1      1165    8    0    1
 -2       527       526       658      2389      2791      2792
 -1      1166    8    0    1
 -2       526       657       658      2789      2793      2791
 -1      1167    8    0    1
 -2       528       527       659      2392      2794      2795
 -1      1168    8    0    1
 -2       527       658       659      2792      2796      2794
 -1      1169    8    0    1
 -2       530       531       660      2400      2797      2798
 -1      1170    8    0    1
 -2       570       573       661      2665      2799      2800
 -1      1171    8    0    1
 -2       570       661       569      2800      2801      2517
 -1      1172    8    0    1
 -2       529       530       662      2397      2802      2803
 -1      1173    8    0    1
 -2       530       660       662      2798      2804      2802
 -1      1174    8    0    1
 -2       532       533       663      2406      2805      2806
 -1      1175    8    0    1
 -2       533       534       664      2409      2807      2808
 -1      1176    8    0    1
 -2       533       664       663      2808      2809      2805
 -1      1177    8    0    1
 -2       534       535       665      2412      2810      2811
 -1      1178    8    0    1
 -2       534       665       664      2811      2812      2807
 -1      1179    8    0    1
 -2       535       536       666      2415      2813      2814
 -1      1180    8    0    1
 -2       535       666       665      2814      2815      2810
 -1      1181    8    0    1
 -2       536       537       667      2418      2816      2817
 -1      1182    8    0    1
 -2       536       667       666      2817      2818      2813
 -1      1183    8    0    1
 -2       537       538       668      2421      2819      2820
 -1      1184    8    0    1
 -2       537       668       667      2820      2821      2816
 -1      1185    8    0    1
 -2       538       539       669      2424      2822      2823
 -1      1186    8    0    1
 -2       538       669       668      2823      2824      2819
 -1      1187    8    0    1
 -2       539       540       670      2427      2825      2826
 -1      1188    8    0    1
 -2       539       670       669      2826      2827      2822
 -1      1189    8    0    1
 -2       540       541       671      2430      2828      2829
 -1      1190    8    0    1
 -2       540       671       670      2829      2830      2825
 -1      1191    8    0    1
 -2       541       542       672      2433      2831      2832
 -1      1192    8    0    1
 -2       541       672       671      2832      2833      2828
 -1      1193    8    0    1
 -2       542       543       673      2436      2834      2835
 -1      1194    8    0    1
 -2       542       673       672      2835      2836      2831
 -1      1195    8    0    1
 -2       543       544       674      2439      2837      2838
 -1      1196    8    0    1
 -2       543       674       673      2838      2839      2834
 -1      1197    8    0    1
 -2       544       545       675      2442      2840      2841
 -1      1198    8    0    1
 -2       544       675       674      2841      2842      2837
 -1      1199    8    0    1
 -2       545       546       676      2445      2843      2844
 -1      1200    8    0    1
 -2       545       676       675      2844      2845      2840
 -1      1201    8    0    1
 -2       546       547       677      2448      2846      2847
 -1      1202    8    0    1
 -2       546       677       676      2847      2848      2843
 -1      1203    8    0    1
 -2       547       548       678      2451      2849      2850
 -1      1204    8    0    1
 -2       547       678       677      2850      2851      2846
 -1      1205    8    0    1
 -2       548       549       679      2454      2852      2853
 -1      1206    8    0    1
 -2       548       679       678      2853      2854      2849
 -1      1207    8    0    1
 -2       549       550       680      2457      2855      2856
 -1      1208    8    0    1
 -2       549       680       679      2856      2857      2852
 -1      1209    8    0    1
 -2       550       551       681      2460      2858      2859
 -1      1210    8    0    1
 -2       550       681       680      2859      2860      2855
 -1      1211    8    0    1
 -2       551       552       682      2463      2861      2862
 -1      1212    8    0    1
 -2       551       682       681      2862      2863      2858
 -1      1213    8    0    1
 -2       552       553       683      2466      2864      2865
 -1      1214    8    0    1
 -2       552       683       682      2865      2866      2861
 -1      1215    8    0    1
 -2       553       554       684      2469      2867      2868
 -1      1216    8    0    1
 -2       553       684       683      2868      2869      2864
 -1      1217    8    0    1
 -2       554       555       685      2472      2870      2871
 -1      1218    8    0    1
 -2       554       685       684      2871      2872      2867
 -1      1219    8    0    1
 -2       555       556       686      2475      2873      2874
 -1      1220    8    0    1
 -2       555       686       685      2874      2875      2870
 -1      1221    8    0    1
 -2       556       557       687      2478      2876      2877
 -1      1222    8    0    1
 -2       556       687       686      2877      2878      2873
 -1      1223    8    0    1
 -2       557       558       688      2481      2879      2880
 -1      1224    8    0    1
 -2       557       688       687      2880      2881      2876
 -1      1225    8    0    1
 -2       558       559       689      2484      2882      2883
 -1      1226    8    0    1
 -2       558       689       688      2883      2884      2879
 -1      1227    8    0    1
 -2       559       560       690      2487      2885      2886
 -1      1228    8    0    1
 -2       559       690       689      2886      2887      2882
 -1      1229    8    0    1
 -2       560       561       691      2490      2888      2889
 -1      1230    8    0    1
 -2       560       691       690      2889      2890      2885
 -1      1231    8    0    1
 -2       561       562       692      2493      2891      2892
 -1      1232    8    0    1
 -2       561       692       691      2892      2893      2888
 -1      1233    8    0    1
 -2       562       563       693      2496      2894      2895
 -1      1234    8    0    1
 -2       562       693       692      2895      2896      2891
 -1      1235    8    0    1
 -2       563       564       694      2499      2897      2898
 -1      1236    8    0    1
 -2       563       694       693      2898      2899      2894
 -1      1237    8    0    1
 -2       564       565       695      2502      2900      2901
 -1      1238    8    0    1
 -2       564       695       694      2901      2902      2897
 -1      1239    8    0    1
 -2       565       566       696      2505      2903      2904
 -1      1240    8    0    1
 -2       565       696       695      2904      2905      2900
 -1      1241    8    0    1
 -2       566       567       697      2508      2906      2907
 -1      1242    8    0    1
 -2       566       697       696      2907      2908      2903
 -1      1243    8    0    1
 -2       567       568       698      2511      2909      2910
 -1      1244    8    0    1
 -2       567       698       697      2910      2911      2906
 -1      1245    8    0    1
 -2       568       569       699      2514      2912      2913
 -1      1246    8    0    1
 -2       698       568       699      2909      2913      2914
 -1      1247    8    0    1
 -2       569       661       699      2801      2915      2912
 -1      1248    8    0    1
 -2       575       576       700      2535      2916      2917
 -1      1249    8    0    1
 -2       615       528       701      2666      2918      2919
 -1      1250    8    0    1
 -2       581       615       701      2663      2919      2920
 -1      1251    8    0    1
 -2       528       659       701      2795      2921      2918
 -1      1252    8    0    1
 -2       571       572       702      2523      2922      2923
 -1      1253    8    0    1
 -2       576       577       703      2538      2924      2925
 -1      1254    8    0    1
 -2       576       703       700      2925      2926      2916
 -1      1255    8    0    1
 -2       572       575       704      2532      2927      2928
 -1      1256    8    0    1
 -2       702       572       704      2922      2928      2929
 -1      1257    8    0    1
 -2       575       700       704      2917      2930      2927
 -1      1258    8    0    1
 -2       482       587       705      2621      2931      2932
 -1      1259    8    0    1
 -2       585       582       706      2636      2933      2934
 -1      1260    8    0    1
 -2       577       578       707      2541      2935      2936
 -1      1261    8    0    1
 -2       577       707       703      2936      2937      2924
 -1      1262    8    0    1
 -2       578       579       708      2544      2938      2939
 -1      1263    8    0    1
 -2       578       708       707      2939      2940      2935
 -1      1264    8    0    1
 -2       579       580       709      2547      2941      2942
 -1      1265    8    0    1
 -2       579       709       708      2942      2943      2938
 -1      1266    8    0    1
 -2       580       581       710      2550      2944      2945
 -1      1267    8    0    1
 -2       709       580       710      2941      2945      2946
 -1      1268    8    0    1
 -2       581       701       710      2920      2947      2944
 -1      1269    8    0    1
 -2       595       596       711      2639      2948      2949
 -1      1270    8    0    1
 -2       582       586       712      2637      2950      2951
 -1      1271    8    0    1
 -2       586       583       713      2638      2952      2953
 -1      1272    8    0    1
 -2       597       598       714      2633      2954      2955
 -1      1273    8    0    1
 -2       605       606       715      2648      2956      2957
 -1      1274    8    0    1
 -2       607       585       716      2632      2958      2959
 -1      1275    8    0    1
 -2       600       588       717      2628      2960      2961
 -1      1276    8    0    1
 -2       584       529       718      2557      2962      2963
 -1      1277    8    0    1
 -2       529       662       718      2803      2964      2962
 -1      1278    8    0    1
 -2       531       532       719      2403      2965      2966
 -1      1279    8    0    1
 -2       660       531       719      2797      2966      2967
 -1      1280    8    0    1
 -2       532       663       719      2806      2968      2965
 -1      1281    8    0    1
 -2       486       484       720      2266      2969      2970
 -1      1282    8    0    1
 -2       486       720       622      2970      2971      2682
 -1      1283    8    0    1
 -2       608       445       610      2642      2619      2972
 -1      1284    8    0    1
 -2       478       479       721      2248      2973      2974
 -1      1285    8    0    1
 -2       616       478       721      2667      2974      2975
 -1      1286    8    0    1
 -2       479       618       721      2673      2976      2973
 -1      1287    8    0    1
 -2       583       482       722      2620      2977      2978
 -1      1288    8    0    1
 -2       475       474       723      2237      2979      2980
 -1      1289    8    0    1
 -2       592       593       724      2656      2981      2982
 -1      1290    8    0    1
 -2       472       602       725      2657      2983      2984
 -1      1291    8    0    1
 -2       485       592       726      2655      2985      2986
 -1      1292    8    0    1
 -2       483       584       727      2641      2987      2988
 -1      1293    8    0    1
 -2       621       483       727      2679      2988      2989
 -1      1294    8    0    1
 -2       584       718       727      2963      2990      2987
 -1      1295    8    0    1
 -2       594       595       728      2640      2991      2992
 -1      1296    8    0    1
 -2       596       597       729      2587      2993      2994
 -1      1297    8    0    1
 -2       597       714       729      2955      2995      2993
 -1      1298    8    0    1
 -2       589       600       730      2650      2996      2997
 -1      1299    8    0    1
 -2       600       717       730      2961      2998      2996
 -1      1300    8    0    1
 -2       598       599       731      2659      2999      3000
 -1      1301    8    0    1
 -2       591       594       732      2658      3001      3002
 -1      1302    8    0    1
 -2       601       605       646      2626      3003      3004
 -1      1303    8    0    1
 -2       593       591       733      2616      3005      3006
 -1      1304    8    0    1
 -2       587       485       734      2627      3007      3008
 -1      1305    8    0    1
 -2       610       475       735      2617      3009      3010
 -1      1306    8    0    1
 -2       475       723       735      2980      3011      3009
 -1      1307    8    0    1
 -2       476       617       736      2670      3012      3013
 -1      1308    8    0    1
 -2       476       736       590      3013      3014      2572
 -1      1309    8    0    1
 -2       606       620       715      2678      3015      2956
 -1      1310    8    0    1
 -2       620       470       613      2677      2644      3016
 -1      1311    8    0    1
 -2       481       473       621      2681      2680      3017
 -1      1312    8    0    1
 -2       608       610       737      2972      3018      3019
 -1      1313    8    0    1
 -2       484       608       737      2610      3019      3020
 -1      1314    8    0    1
 -2       610       735       737      3010      3021      3018
 -1      1315    8    0    1
 -2       583       722       713      2978      3022      2952
 -1      1316    8    0    1
 -2       612       589       738      2631      3023      3024
 -1      1317    8    0    1
 -2       589       730       738      2997      3025      3023
 -1      1318    8    0    1
 -2       646       514       601      2756      3026      3004
 -1      1319    8    0    1
 -2       514       513       739      2350      3027      3028
 -1      1320    8    0    1
 -2       571       702       740      2923      3029      3030
 -1      1321    8    0    1
 -2       571       740       574      3030      3031      2529
 -1      1322    8    0    1
 -2       720       484       737      2969      3020      3032
 -1      1323    8    0    1
 -2       482       705       741      2932      3033      3034
 -1      1324    8    0    1
 -2       482       741       722      3034      3035      2977
 -1      1325    8    0    1
 -2       595       711       728      2949      3036      2991
 -1      1326    8    0    1
 -2       573       574       661      2528      3037      2799
 -1      1327    8    0    1
 -2       706       582       712      2933      2951      3038
 -1      1328    8    0    1
 -2       585       706       716      2934      3039      2958
 -1      1329    8    0    1
 -2       711       596       729      2948      2994      3040
 -1      1330    8    0    1
 -2       712       586       713      2950      2953      3041
 -1      1331    8    0    1
 -2       619       481       621      2674      3017      3042
 -1      1332    8    0    1
 -2       734       485       726      3007      2986      3043
 -1      1333    8    0    1
 -2       733       591       732      3005      3002      3044
 -1      1334    8    0    1
 -2       732       594       728      3001      2992      3045
 -1      1335    8    0    1
 -2       613       607       742      2645      3046      3047
 -1      1336    8    0    1
 -2       607       716       742      2959      3048      3046
 -1      1337    8    0    1
 -2       726       592       724      2985      2982      3049
 -1      1338    8    0    1
 -2       717       588       743      2960      3050      3051
 -1      1339    8    0    1
 -2       588       614       743      2653      3052      3050
 -1      1340    8    0    1
 -2       599       612       744      2630      3053      3054
 -1      1341    8    0    1
 -2       599       744       731      3054      3055      2999
 -1      1342    8    0    1
 -2       714       598       745      2954      3056      3057
 -1      1343    8    0    1
 -2       598       731       745      3000      3058      3056
 -1      1344    8    0    1
 -2       614       472       725      2654      2984      3059
 -1      1345    8    0    1
 -2       474       590       746      2571      3060      3061
 -1      1346    8    0    1
 -2       723       474       746      2979      3061      3062
 -1      1347    8    0    1
 -2       590       736       746      3014      3063      3060
 -1      1348    8    0    1
 -2       724       593       733      2981      3006      3064
 -1      1349    8    0    1
 -2       587       734       705      3008      3065      2931
 -1      1350    8    0    1
 -2       618       619       747      2676      3066      3067
 -1      1351    8    0    1
 -2       510       645       611      2751      3068      2753
 -1      1352    8    0    1
 -2       624       623       748      2689      3069      3070
 -1      1353    8    0    1
 -2       625       624       749      2692      3071      3072
 -1      1354    8    0    1
 -2       624       748       749      3070      3073      3071
 -1      1355    8    0    1
 -2       626       625       750      2695      3074      3075
 -1      1356    8    0    1
 -2       625       749       750      3072      3076      3074
 -1      1357    8    0    1
 -2       627       626       751      2698      3077      3078
 -1      1358    8    0    1
 -2       626       750       751      3075      3079      3077
 -1      1359    8    0    1
 -2       628       627       752      2701      3080      3081
 -1      1360    8    0    1
 -2       627       751       752      3078      3082      3080
 -1      1361    8    0    1
 -2       629       628       753      2704      3083      3084
 -1      1362    8    0    1
 -2       628       752       753      3081      3085      3083
 -1      1363    8    0    1
 -2       630       629       754      2707      3086      3087
 -1      1364    8    0    1
 -2       629       753       754      3084      3088      3086
 -1      1365    8    0    1
 -2       631       630       755      2710      3089      3090
 -1      1366    8    0    1
 -2       630       754       755      3087      3091      3089
 -1      1367    8    0    1
 -2       632       631       756      2713      3092      3093
 -1      1368    8    0    1
 -2       631       755       756      3090      3094      3092
 -1      1369    8    0    1
 -2       633       632       757      2716      3095      3096
 -1      1370    8    0    1
 -2       632       756       757      3093      3097      3095
 -1      1371    8    0    1
 -2       634       633       758      2719      3098      3099
 -1      1372    8    0    1
 -2       633       757       758      3096      3100      3098
 -1      1373    8    0    1
 -2       635       634       759      2722      3101      3102
 -1      1374    8    0    1
 -2       634       758       759      3099      3103      3101
 -1      1375    8    0    1
 -2       636       635       760      2725      3104      3105
 -1      1376    8    0    1
 -2       635       759       760      3102      3106      3104
 -1      1377    8    0    1
 -2       637       636       761      2728      3107      3108
 -1      1378    8    0    1
 -2       636       760       761      3105      3109      3107
 -1      1379    8    0    1
 -2       638       637       762      2731      3110      3111
 -1      1380    8    0    1
 -2       637       761       762      3108      3112      3110
 -1      1381    8    0    1
 -2       639       638       763      2734      3113      3114
 -1      1382    8    0    1
 -2       638       762       763      3111      3115      3113
 -1      1383    8    0    1
 -2       640       639       764      2737      3116      3117
 -1      1384    8    0    1
 -2       639       763       764      3114      3118      3116
 -1      1385    8    0    1
 -2       641       640       765      2740      3119      3120
 -1      1386    8    0    1
 -2       640       764       765      3117      3121      3119
 -1      1387    8    0    1
 -2       642       641       766      2743      3122      3123
 -1      1388    8    0    1
 -2       641       765       766      3120      3124      3122
 -1      1389    8    0    1
 -2       643       642       767      2746      3125      3126
 -1      1390    8    0    1
 -2       642       766       767      3123      3127      3125
 -1      1391    8    0    1
 -2       645       644       743      2752      3128      3129
 -1      1392    8    0    1
 -2       513       512       603      2347      3130      3131
 -1      1393    8    0    1
 -2       649       648       768      2766      3132      3133
 -1      1394    8    0    1
 -2       650       649       769      2769      3134      3135
 -1      1395    8    0    1
 -2       649       768       769      3133      3136      3134
 -1      1396    8    0    1
 -2       651       650       770      2772      3137      3138
 -1      1397    8    0    1
 -2       650       769       770      3135      3139      3137
 -1      1398    8    0    1
 -2       652       651       771      2775      3140      3141
 -1      1399    8    0    1
 -2       651       770       771      3138      3142      3140
 -1      1400    8    0    1
 -2       653       652       772      2778      3143      3144
 -1      1401    8    0    1
 -2       652       771       772      3141      3145      3143
 -1      1402    8    0    1
 -2       654       653       773      2781      3146      3147
 -1      1403    8    0    1
 -2       653       772       773      3144      3148      3146
 -1      1404    8    0    1
 -2       655       654       774      2784      3149      3150
 -1      1405    8    0    1
 -2       654       773       774      3147      3151      3149
 -1      1406    8    0    1
 -2       656       655       775      2787      3152      3153
 -1      1407    8    0    1
 -2       655       774       775      3150      3154      3152
 -1      1408    8    0    1
 -2       657       656       776      2790      3155      3156
 -1      1409    8    0    1
 -2       656       775       776      3153      3157      3155
 -1      1410    8    0    1
 -2       658       657       777      2793      3158      3159
 -1      1411    8    0    1
 -2       657       776       777      3156      3160      3158
 -1      1412    8    0    1
 -2       659       658       778      2796      3161      3162
 -1      1413    8    0    1
 -2       658       777       778      3159      3163      3161
 -1      1414    8    0    1
 -2       662       660       779      2804      3164      3165
 -1      1415    8    0    1
 -2       664       665       780      2812      3166      3167
 -1      1416    8    0    1
 -2       663       664       781      2809      3168      3169
 -1      1417    8    0    1
 -2       664       780       781      3167      3170      3168
 -1      1418    8    0    1
 -2       666       667       782      2818      3171      3172
 -1      1419    8    0    1
 -2       667       668       783      2821      3173      3174
 -1      1420    8    0    1
 -2       667       783       782      3174      3175      3171
 -1      1421    8    0    1
 -2       668       669       784      2824      3176      3177
 -1      1422    8    0    1
 -2       668       784       783      3177      3178      3173
 -1      1423    8    0    1
 -2       669       670       785      2827      3179      3180
 -1      1424    8    0    1
 -2       669       785       784      3180      3181      3176
 -1      1425    8    0    1
 -2       670       671       786      2830      3182      3183
 -1      1426    8    0    1
 -2       670       786       785      3183      3184      3179
 -1      1427    8    0    1
 -2       671       672       787      2833      3185      3186
 -1      1428    8    0    1
 -2       671       787       786      3186      3187      3182
 -1      1429    8    0    1
 -2       672       673       788      2836      3188      3189
 -1      1430    8    0    1
 -2       672       788       787      3189      3190      3185
 -1      1431    8    0    1
 -2       673       674       789      2839      3191      3192
 -1      1432    8    0    1
 -2       673       789       788      3192      3193      3188
 -1      1433    8    0    1
 -2       674       675       790      2842      3194      3195
 -1      1434    8    0    1
 -2       674       790       789      3195      3196      3191
 -1      1435    8    0    1
 -2       675       676       791      2845      3197      3198
 -1      1436    8    0    1
 -2       675       791       790      3198      3199      3194
 -1      1437    8    0    1
 -2       676       677       792      2848      3200      3201
 -1      1438    8    0    1
 -2       676       792       791      3201      3202      3197
 -1      1439    8    0    1
 -2       677       678       793      2851      3203      3204
 -1      1440    8    0    1
 -2       677       793       792      3204      3205      3200
 -1      1441    8    0    1
 -2       678       679       794      2854      3206      3207
 -1      1442    8    0    1
 -2       678       794       793      3207      3208      3203
 -1      1443    8    0    1
 -2       679       680       795      2857      3209      3210
 -1      1444    8    0    1
 -2       679       795       794      3210      3211      3206
 -1      1445    8    0    1
 -2       680       681       796      2860      3212      3213
 -1      1446    8    0    1
 -2       680       796       795      3213      3214      3209
 -1      1447    8    0    1
 -2       681       682       797      2863      3215      3216
 -1      1448    8    0    1
 -2       681       797       796      3216      3217      3212
 -1      1449    8    0    1
 -2       682       683       798      2866      3218      3219
 -1      1450    8    0    1
 -2       682       798       797      3219      3220      3215
 -1      1451    8    0    1
 -2       683       684       799      2869      3221      3222
 -1      1452    8    0    1
 -2       683       799       798      3222      3223      3218
 -1      1453    8    0    1
 -2       684       685       800      2872      3224      3225
 -1      1454    8    0    1
 -2       684       800       799      3225      3226      3221
 -1      1455    8    0    1
 -2       685       686       801      2875      3227      3228
 -1      1456    8    0    1
 -2       685       801       800      3228      3229      3224
 -1      1457    8    0    1
 -2       686       687       802      2878      3230      3231
 -1      1458    8    0    1
 -2       686       802       801      3231      3232      3227
 -1      1459    8    0    1
 -2       687       688       803      2881      3233      3234
 -1      1460    8    0    1
 -2       687       803       802      3234      3235      3230
 -1      1461    8    0    1
 -2       688       689       804      2884      3236      3237
 -1      1462    8    0    1
 -2       688       804       803      3237      3238      3233
 -1      1463    8    0    1
 -2       689       690       805      2887      3239      3240
 -1      1464    8    0    1
 -2       689       805       804      3240      3241      3236
 -1      1465    8    0    1
 -2       690       691       806      2890      3242      3243
 -1      1466    8    0    1
 -2       690       806       805      3243      3244      3239
 -1      1467    8    0    1
 -2       691       692       807      2893      3245      3246
 -1      1468    8    0    1
 -2       691       807       806      3246      3247      3242
 -1      1469    8    0    1
 -2       692       693       808      2896      3248      3249
 -1      1470    8    0    1
 -2       692       808       807      3249      3250      3245
 -1      1471    8    0    1
 -2       693       694       809      2899      3251      3252
 -1      1472    8    0    1
 -2       693       809       808      3252      3253      3248
 -1      1473    8    0    1
 -2       694       695       810      2902      3254      3255
 -1      1474    8    0    1
 -2       694       810       809      3255      3256      3251
 -1      1475    8    0    1
 -2       695       696       811      2905      3257      3258
 -1      1476    8    0    1
 -2       695       811       810      3258      3259      3254
 -1      1477    8    0    1
 -2       696       697       812      2908      3260      3261
 -1      1478    8    0    1
 -2       696       812       811      3261      3262      3257
 -1      1479    8    0    1
 -2       697       698       813      2911      3263      3264
 -1      1480    8    0    1
 -2       697       813       812      3264      3265      3260
 -1      1481    8    0    1
 -2       701       659       710      2921      3266      2947
 -1      1482    8    0    1
 -2       617       616       814      2671      3267      3268
 -1      1483    8    0    1
 -2       707       708       815      2940      3269      3270
 -1      1484    8    0    1
 -2       700       703       816      2926      3271      3272
 -1      1485    8    0    1
 -2       703       707       817      2937      3273      3274
 -1      1486    8    0    1
 -2       816       703       817      3271      3274      3275
 -1      1487    8    0    1
 -2       707       815       817      3270      3276      3273
 -1      1488    8    0    1
 -2       646       605       715      3003      2957      3277
 -1      1489    8    0    1
 -2       716       706       818      3039      3278      3279
 -1      1490    8    0    1
 -2       619       621       819      3042      3280      3281
 -1      1491    8    0    1
 -2       747       619       819      3066      3281      3282
 -1      1492    8    0    1
 -2       621       727       819      2989      3283      3280
 -1      1493    8    0    1
 -2       718       662       820      2964      3284      3285
 -1      1494    8    0    1
 -2       662       779       820      3165      3286      3284
 -1      1495    8    0    1
 -2       711       729       821      3040      3287      3288
 -1      1496    8    0    1
 -2       620       613       822      3016      3289      3290
 -1      1497    8    0    1
 -2       726       724       823      3049      3291      3292
 -1      1498    8    0    1
 -2       720       737       824      3032      3293      3294
 -1      1499    8    0    1
 -2       622       720       824      2971      3294      3295
 -1      1500    8    0    1
 -2       737       735       824      3021      3296      3293
 -1      1501    8    0    1
 -2       708       709       825      2943      3297      3298
 -1      1502    8    0    1
 -2       708       825       815      3298      3299      3269
 -1      1503    8    0    1
 -2       513       603       604      3131      2660      3300
 -1      1504    8    0    1
 -2       513       604       739      3300      3301      3027
 -1      1505    8    0    1
 -2       724       733       826      3064      3302      3303
 -1      1506    8    0    1
 -2       665       666       827      2815      3304      3305
 -1      1507    8    0    1
 -2       780       665       827      3166      3305      3306
 -1      1508    8    0    1
 -2       666       782       827      3172      3307      3304
 -1      1509    8    0    1
 -2       734       726       828      3043      3308      3309
 -1      1510    8    0    1
 -2       706       712       829      3038      3310      3311
 -1      1511    8    0    1
 -2       729       714       830      2995      3312      3313
 -1      1512    8    0    1
 -2       729       830       821      3313      3314      3287
 -1      1513    8    0    1
 -2       712       713       831      3041      3315      3316
 -1      1514    8    0    1
 -2       730       717       832      2998      3317      3318
 -1      1515    8    0    1
 -2       623       622       833      2686      3319      3320
 -1      1516    8    0    1
 -2       623       833       748      3320      3321      3069
 -1      1517    8    0    1
 -2       739       604       601      3301      2649      3322
 -1      1518    8    0    1
 -2       471       603       834      2651      3323      3324
 -1      1519    8    0    1
 -2       732       728       835      3045      3325      3326
 -1      1520    8    0    1
 -2       705       734       836      3065      3327      3328
 -1      1521    8    0    1
 -2       728       711       837      3036      3329      3330
 -1      1522    8    0    1
 -2       661       574       740      3037      3031      3331
 -1      1523    8    0    1
 -2       713       722       838      3022      3332      3333
 -1      1524    8    0    1
 -2       736       617       839      3012      3334      3335
 -1      1525    8    0    1
 -2       617       814       839      3268      3336      3334
 -1      1526    8    0    1
 -2       722       741       840      3035      3337      3338
 -1      1527    8    0    1
 -2       722       840       838      3338      3339      3332
 -1      1528    8    0    1
 -2       611       471       834      2625      3324      3340
 -1      1529    8    0    1
 -2       738       730       841      3025      3341      3342
 -1      1530    8    0    1
 -2       730       832       841      3318      3343      3341
 -1      1531    8    0    1
 -2       740       702       842      3029      3344      3345
 -1      1532    8    0    1
 -2       739       601       514      3322      3026      3028
 -1      1533    8    0    1
 -2       644       643       843      2749      3346      3347
 -1      1534    8    0    1
 -2       724       826       823      3303      3348      3291
 -1      1535    8    0    1
 -2       659       778       710      3162      3349      3266
 -1      1536    8    0    1
 -2       713       838       831      3333      3350      3315
 -1      1537    8    0    1
 -2       648       647       844      2763      3351      3352
 -1      1538    8    0    1
 -2       711       821       837      3288      3353      3329
 -1      1539    8    0    1
 -2       779       660       845      3164      3354      3355
 -1      1540    8    0    1
 -2       660       719       845      2967      3356      3354
 -1      1541    8    0    1
 -2       741       705       846      3033      3357      3358
 -1      1542    8    0    1
 -2       705       836       846      3328      3359      3357
 -1      1543    8    0    1
 -2       734       828       836      3309      3360      3327
 -1      1544    8    0    1
 -2       663       781       847      3169      3361      3362
 -1      1545    8    0    1
 -2       663       847       719      3362      3363      2968
 -1      1546    8    0    1
 -2       813       698       848      3263      3364      3365
 -1      1547    8    0    1
 -2       698       699       848      2914      3366      3364
 -1      1548    8    0    1
 -2       702       704       849      2929      3367      3368
 -1      1549    8    0    1
 -2       702       849       842      3368      3369      3344
 -1      1550    8    0    1
 -2       814       616       850      3267      3370      3371
 -1      1551    8    0    1
 -2       616       721       850      2975      3372      3370
 -1      1552    8    0    1
 -2       646       715       647      3277      3373      2760
 -1      1553    8    0    1
 -2       704       700       851      2930      3374      3375
 -1      1554    8    0    1
 -2       849       704       851      3367      3375      3376
 -1      1555    8    0    1
 -2       700       816       851      3272      3377      3374
 -1      1556    8    0    1
 -2       833       622       824      3319      3295      3378
 -1      1557    8    0    1
 -2       709       710       778      2946      3349      3379
 -1      1558    8    0    1
 -2       735       723       852      3011      3380      3381
 -1      1559    8    0    1
 -2       818       706       829      3278      3311      3382
 -1      1560    8    0    1
 -2       742       716       853      3048      3383      3384
 -1      1561    8    0    1
 -2       716       818       853      3279      3385      3383
 -1      1562    8    0    1
 -2       727       718       854      2990      3386      3387
 -1      1563    8    0    1
 -2       819       727       854      3283      3387      3388
 -1      1564    8    0    1
 -2       718       820       854      3285      3389      3386
 -1      1565    8    0    1
 -2       828       726       823      3308      3292      3390
 -1      1566    8    0    1
 -2       822       613       742      3289      3047      3391
 -1      1567    8    0    1
 -2       843       643       767      3346      3126      3392
 -1      1568    8    0    1
 -2       712       831       829      3316      3393      3310
 -1      1569    8    0    1
 -2       744       612       855      3053      3394      3395
 -1      1570    8    0    1
 -2       612       738       855      3024      3396      3394
 -1      1571    8    0    1
 -2       709       778       825      3379      3397      3297
 -1      1572    8    0    1
 -2       745       731       856      3058      3398      3399
 -1      1573    8    0    1
 -2       731       744       856      3055      3400      3398
 -1      1574    8    0    1
 -2       647       715       844      3373      3401      3351
 -1      1575    8    0    1
 -2       852       723       857      3380      3402      3403
 -1      1576    8    0    1
 -2       723       746       857      3062      3404      3402
 -1      1577    8    0    1
 -2       768       648       844      3132      3352      3405
 -1      1578    8    0    1
 -2       832       717       843      3317      3406      3407
 -1      1579    8    0    1
 -2       725       602       611      2983      2624      3408
 -1      1580    8    0    1
 -2       830       714       858      3312      3409      3410
 -1      1581    8    0    1
 -2       714       745       858      3057      3411      3409
 -1      1582    8    0    1
 -2       721       618       859      2976      3412      3413
 -1      1583    8    0    1
 -2       850       721       859      3372      3413      3414
 -1      1584    8    0    1
 -2       618       747       859      3067      3415      3412
 -1      1585    8    0    1
 -2       733       732       860      3044      3416      3417
 -1      1586    8    0    1
 -2       835       728       837      3325      3330      3418
 -1      1587    8    0    1
 -2       732       835       860      3326      3419      3416
 -1      1588    8    0    1
 -2       661       740       861      3331      3420      3421
 -1      1589    8    0    1
 -2       699       661       861      2915      3421      3422
 -1      1590    8    0    1
 -2       740       842       861      3345      3423      3420
 -1      1591    8    0    1
 -2       733       860       826      3417      3424      3302
 -1      1592    8    0    1
 -2       815       825       862      3299      3425      3426
 -1      1593    8    0    1
 -2       829       831       863      3393      3427      3428
 -1      1594    8    0    1
 -2       750       749       864      3076      3429      3430
 -1      1595    8    0    1
 -2       751       750       865      3079      3431      3432
 -1      1596    8    0    1
 -2       750       864       865      3430      3433      3431
 -1      1597    8    0    1
 -2       752       751       866      3082      3434      3435
 -1      1598    8    0    1
 -2       751       865       866      3432      3436      3434
 -1      1599    8    0    1
 -2       753       752       867      3085      3437      3438
 -1      1600    8    0    1
 -2       752       866       867      3435      3439      3437
 -1      1601    8    0    1
 -2       754       753       868      3088      3440      3441
 -1      1602    8    0    1
 -2       753       867       868      3438      3442      3440
 -1      1603    8    0    1
 -2       755       754       869      3091      3443      3444
 -1      1604    8    0    1
 -2       754       868       869      3441      3445      3443
 -1      1605    8    0    1
 -2       756       755       870      3094      3446      3447
 -1      1606    8    0    1
 -2       755       869       870      3444      3448      3446
 -1      1607    8    0    1
 -2       757       756       871      3097      3449      3450
 -1      1608    8    0    1
 -2       756       870       871      3447      3451      3449
 -1      1609    8    0    1
 -2       758       757       872      3100      3452      3453
 -1      1610    8    0    1
 -2       757       871       872      3450      3454      3452
 -1      1611    8    0    1
 -2       759       758       873      3103      3455      3456
 -1      1612    8    0    1
 -2       758       872       873      3453      3457      3455
 -1      1613    8    0    1
 -2       760       759       874      3106      3458      3459
 -1      1614    8    0    1
 -2       759       873       874      3456      3460      3458
 -1      1615    8    0    1
 -2       761       760       875      3109      3461      3462
 -1      1616    8    0    1
 -2       760       874       875      3459      3463      3461
 -1      1617    8    0    1
 -2       762       761       876      3112      3464      3465
 -1      1618    8    0    1
 -2       761       875       876      3462      3466      3464
 -1      1619    8    0    1
 -2       763       762       877      3115      3467      3468
 -1      1620    8    0    1
 -2       762       876       877      3465      3469      3467
 -1      1621    8    0    1
 -2       764       763       878      3118      3470      3471
 -1      1622    8    0    1
 -2       763       877       878      3468      3472      3470
 -1      1623    8    0    1
 -2       765       764       879      3121      3473      3474
 -1      1624    8    0    1
 -2       764       878       879      3471      3475      3473
 -1      1625    8    0    1
 -2       766       765       880      3124      3476      3477
 -1      1626    8    0    1
 -2       765       879       880      3474      3478      3476
 -1      1627    8    0    1
 -2       767       766       881      3127      3479      3480
 -1      1628    8    0    1
 -2       766       880       881      3477      3481      3479
 -1      1629    8    0    1
 -2       743       644       843      3128      3347      3482
 -1      1630    8    0    1
 -2       823       826       800      3348      3483      3484
 -1      1631    8    0    1
 -2       645       743       614      3129      3052      3485
 -1      1632    8    0    1
 -2       837       821       882      3353      3486      3487
 -1      1633    8    0    1
 -2       770       769       883      3139      3488      3489
 -1      1634    8    0    1
 -2       771       770       884      3142      3490      3491
 -1      1635    8    0    1
 -2       770       883       884      3489      3492      3490
 -1      1636    8    0    1
 -2       772       771       885      3145      3493      3494
 -1      1637    8    0    1
 -2       771       884       885      3491      3495      3493
 -1      1638    8    0    1
 -2       773       772       886      3148      3496      3497
 -1      1639    8    0    1
 -2       772       885       886      3494      3498      3496
 -1      1640    8    0    1
 -2       774       773       887      3151      3499      3500
 -1      1641    8    0    1
 -2       773       886       887      3497      3501      3499
 -1      1642    8    0    1
 -2       775       774       888      3154      3502      3503
 -1      1643    8    0    1
 -2       774       887       888      3500      3504      3502
 -1      1644    8    0    1
 -2       776       775       889      3157      3505      3506
 -1      1645    8    0    1
 -2       775       888       889      3503      3507      3505
 -1      1646    8    0    1
 -2       777       776       890      3160      3508      3509
 -1      1647    8    0    1
 -2       776       889       890      3506      3510      3508
 -1      1648    8    0    1
 -2       778       777       825      3163      3511      3397
 -1      1649    8    0    1
 -2       783       784       891      3178      3512      3513
 -1      1650    8    0    1
 -2       782       783       892      3175      3514      3515
 -1      1651    8    0    1
 -2       783       891       892      3513      3516      3514
 -1      1652    8    0    1
 -2       785       786       893      3184      3517      3518
 -1      1653    8    0    1
 -2       786       787       894      3187      3519      3520
 -1      1654    8    0    1
 -2       786       894       893      3520      3521      3517
 -1      1655    8    0    1
 -2       787       788       895      3190      3522      3523
 -1      1656    8    0    1
 -2       787       895       894      3523      3524      3519
 -1      1657    8    0    1
 -2       788       789       896      3193      3525      3526
 -1      1658    8    0    1
 -2       788       896       895      3526      3527      3522
 -1      1659    8    0    1
 -2       789       790       897      3196      3528      3529
 -1      1660    8    0    1
 -2       789       897       896      3529      3530      3525
 -1      1661    8    0    1
 -2       790       791       898      3199      3531      3532
 -1      1662    8    0    1
 -2       790       898       897      3532      3533      3528
 -1      1663    8    0    1
 -2       791       792       899      3202      3534      3535
 -1      1664    8    0    1
 -2       791       899       898      3535      3536      3531
 -1      1665    8    0    1
 -2       792       793       900      3205      3537      3538
 -1      1666    8    0    1
 -2       792       900       899      3538      3539      3534
 -1      1667    8    0    1
 -2       793       794       901      3208      3540      3541
 -1      1668    8    0    1
 -2       793       901       900      3541      3542      3537
 -1      1669    8    0    1
 -2       794       795       902      3211      3543      3544
 -1      1670    8    0    1
 -2       794       902       901      3544      3545      3540
 -1      1671    8    0    1
 -2       795       796       882      3214      3546      3547
 -1      1672    8    0    1
 -2       797       798       835      3220      3548      3549
 -1      1673    8    0    1
 -2       798       799       860      3223      3550      3551
 -1      1674    8    0    1
 -2       799       800       826      3226      3483      3552
 -1      1675    8    0    1
 -2       800       801       823      3229      3553      3484
 -1      1676    8    0    1
 -2       802       803       903      3235      3554      3555
 -1      1677    8    0    1
 -2       803       804       846      3238      3556      3557
 -1      1678    8    0    1
 -2       805       806       904      3244      3558      3559
 -1      1679    8    0    1
 -2       806       807       905      3247      3560      3561
 -1      1680    8    0    1
 -2       806       905       904      3561      3562      3558
 -1      1681    8    0    1
 -2       807       808       906      3250      3563      3564
 -1      1682    8    0    1
 -2       807       906       905      3564      3565      3560
 -1      1683    8    0    1
 -2       808       809       907      3253      3566      3567
 -1      1684    8    0    1
 -2       808       907       906      3567      3568      3563
 -1      1685    8    0    1
 -2       809       810       908      3256      3569      3570
 -1      1686    8    0    1
 -2       809       908       907      3570      3571      3566
 -1      1687    8    0    1
 -2       810       811       909      3259      3572      3573
 -1      1688    8    0    1
 -2       810       909       908      3573      3574      3569
 -1      1689    8    0    1
 -2       811       812       910      3262      3575      3576
 -1      1690    8    0    1
 -2       811       910       909      3576      3577      3572
 -1      1691    8    0    1
 -2       812       813       911      3265      3578      3579
 -1      1692    8    0    1
 -2       812       911       910      3579      3580      3575
 -1      1693    8    0    1
 -2       831       838       912      3350      3581      3582
 -1      1694    8    0    1
 -2       833       824       913      3378      3583      3584
 -1      1695    8    0    1
 -2       818       829       914      3382      3585      3586
 -1      1696    8    0    1
 -2       829       863       914      3428      3587      3585
 -1      1697    8    0    1
 -2       784       785       915      3181      3588      3589
 -1      1698    8    0    1
 -2       891       784       915      3512      3589      3590
 -1      1699    8    0    1
 -2       785       893       915      3518      3591      3588
 -1      1700    8    0    1
 -2       781       780       916      3170      3592      3593
 -1      1701    8    0    1
 -2       860       799       826      3550      3552      3424
 -1      1702    8    0    1
 -2       620       822       844      3290      3594      3595
 -1      1703    8    0    1
 -2       822       742       917      3391      3596      3597
 -1      1704    8    0    1
 -2       835       798       860      3548      3551      3419
 -1      1705    8    0    1
 -2       715       620       844      3015      3595      3401
 -1      1706    8    0    1
 -2       769       768       917      3136      3598      3599
 -1      1707    8    0    1
 -2       746       736       918      3063      3600      3601
 -1      1708    8    0    1
 -2       746       918       857      3601      3602      3404
 -1      1709    8    0    1
 -2       614       725       645      3059      3603      3485
 -1      1710    8    0    1
 -2       843       767       919      3392      3604      3605
 -1      1711    8    0    1
 -2       832       843       919      3407      3605      3606
 -1      1712    8    0    1
 -2       767       881       919      3480      3607      3604
 -1      1713    8    0    1
 -2       749       748       920      3073      3608      3609
 -1      1714    8    0    1
 -2       749       920       864      3609      3610      3429
 -1      1715    8    0    1
 -2       603       512       834      3130      3611      3323
 -1      1716    8    0    1
 -2       768       844       822      3405      3594      3612
 -1      1717    8    0    1
 -2       821       830       921      3314      3613      3614
 -1      1718    8    0    1
 -2       821       921       882      3614      3615      3486
 -1      1719    8    0    1
 -2       828       823       801      3390      3553      3616
 -1      1720    8    0    1
 -2       748       833       922      3321      3617      3618
 -1      1721    8    0    1
 -2       748       922       920      3618      3619      3608
 -1      1722    8    0    1
 -2       768       822       917      3612      3597      3598
 -1      1723    8    0    1
 -2       836       828       903      3360      3620      3621
 -1      1724    8    0    1
 -2       828       801       802      3616      3232      3622
 -1      1725    8    0    1
 -2       825       777       862      3511      3623      3425
 -1      1726    8    0    1
 -2       828       802       903      3622      3555      3620
 -1      1727    8    0    1
 -2       820       779       923      3286      3624      3625
 -1      1728    8    0    1
 -2       840       741       924      3337      3626      3627
 -1      1729    8    0    1
 -2       741       846       924      3358      3628      3626
 -1      1730    8    0    1
 -2       611       645       725      3068      3603      3408
 -1      1731    8    0    1
 -2       841       832       919      3343      3606      3629
 -1      1732    8    0    1
 -2       814       850       925      3371      3630      3631
 -1      1733    8    0    1
 -2       883       769       917      3488      3599      3632
 -1      1734    8    0    1
 -2       814       925       926      3631      3633      3634
 -1      1735    8    0    1
 -2       814       926       839      3634      3635      3336
 -1      1736    8    0    1
 -2       827       782       927      3307      3636      3637
 -1      1737    8    0    1
 -2       782       892       927      3515      3638      3636
 -1      1738    8    0    1
 -2       845       719       847      3356      3363      3639
 -1      1739    8    0    1
 -2       916       780       928      3592      3640      3641
 -1      1740    8    0    1
 -2       780       827       928      3306      3642      3640
 -1      1741    8    0    1
 -2       846       836       903      3359      3621      3643
 -1      1742    8    0    1
 -2       847       781       929      3361      3644      3645
 -1      1743    8    0    1
 -2       781       916       929      3593      3646      3644
 -1      1744    8    0    1
 -2       848       699       861      3366      3422      3647
 -1      1745    8    0    1
 -2       882       796       837      3546      3648      3487
 -1      1746    8    0    1
 -2       797       835       837      3549      3418      3649
 -1      1747    8    0    1
 -2       796       797       837      3217      3649      3648
 -1      1748    8    0    1
 -2       846       804       924      3556      3650      3628
 -1      1749    8    0    1
 -2       804       805       924      3241      3651      3650
 -1      1750    8    0    1
 -2       831       912       863      3582      3652      3427
 -1      1751    8    0    1
 -2       911       813       930      3578      3653      3654
 -1      1752    8    0    1
 -2       813       848       930      3365      3655      3653
 -1      1753    8    0    1
 -2       912       838       931      3581      3656      3657
 -1      1754    8    0    1
 -2       838       840       931      3339      3658      3656
 -1      1755    8    0    1
 -2       833       913       922      3584      3659      3617
 -1      1756    8    0    1
 -2       815       862       932      3426      3660      3661
 -1      1757    8    0    1
 -2       815       932       817      3661      3662      3276
 -1      1758    8    0    1
 -2       842       849       933      3369      3663      3664
 -1      1759    8    0    1
 -2       851       816       934      3377      3665      3666
 -1      1760    8    0    1
 -2       818       914       935      3586      3667      3668
 -1      1761    8    0    1
 -2       818       935       853      3668      3669      3385
 -1      1762    8    0    1
 -2       816       817       936      3275      3670      3671
 -1      1763    8    0    1
 -2       934       816       936      3665      3671      3672
 -1      1764    8    0    1
 -2       817       932       936      3662      3673      3670
 -1      1765    8    0    1
 -2       779       845       937      3355      3674      3675
 -1      1766    8    0    1
 -2       779       937       923      3675      3676      3624
 -1      1767    8    0    1
 -2       735       852       824      3381      3677      3296
 -1      1768    8    0    1
 -2       842       933       930      3664      3678      3679
 -1      1769    8    0    1
 -2       854       820       938      3389      3680      3681
 -1      1770    8    0    1
 -2       820       923       938      3625      3682      3680
 -1      1771    8    0    1
 -2       747       819       939      3282      3683      3684
 -1      1772    8    0    1
 -2       859       747       939      3415      3684      3685
 -1      1773    8    0    1
 -2       819       854       939      3388      3686      3683
 -1      1774    8    0    1
 -2       855       738       940      3396      3687      3688
 -1      1775    8    0    1
 -2       738       841       940      3342      3689      3687
 -1      1776    8    0    1
 -2       917       742       853      3596      3384      3690
 -1      1777    8    0    1
 -2       856       744       941      3400      3691      3692
 -1      1778    8    0    1
 -2       744       855       941      3395      3693      3691
 -1      1779    8    0    1
 -2       918       736       839      3600      3335      3694
 -1      1780    8    0    1
 -2       843       717       743      3406      3051      3482
 -1      1781    8    0    1
 -2       858       745       942      3411      3695      3696
 -1      1782    8    0    1
 -2       745       856       942      3399      3697      3695
 -1      1783    8    0    1
 -2       830       858       943      3410      3698      3699
 -1      1784    8    0    1
 -2       830       943       921      3699      3700      3613
 -1      1785    8    0    1
 -2       924       805       904      3651      3559      3701
 -1      1786    8    0    1
 -2       824       852       913      3677      3702      3583
 -1      1787    8    0    1
 -2       913       852       944      3702      3703      3704
 -1      1788    8    0    1
 -2       852       857       944      3403      3705      3703
 -1      1789    8    0    1
 -2       925       850       945      3630      3706      3707
 -1      1790    8    0    1
 -2       850       859       945      3414      3708      3706
 -1      1791    8    0    1
 -2       883       917       853      3632      3690      3709
 -1      1792    8    0    1
 -2       864       920       946      3610      3710      3711
 -1      1793    8    0    1
 -2       866       865       947      3436      3712      3713
 -1      1794    8    0    1
 -2       867       866       948      3439      3714      3715
 -1      1795    8    0    1
 -2       866       947       948      3713      3716      3714
 -1      1796    8    0    1
 -2       868       867       949      3442      3717      3718
 -1      1797    8    0    1
 -2       867       948       949      3715      3719      3717
 -1      1798    8    0    1
 -2       869       868       950      3445      3720      3721
 -1      1799    8    0    1
 -2       868       949       950      3718      3722      3720
 -1      1800    8    0    1
 -2       870       869       951      3448      3723      3724
 -1      1801    8    0    1
 -2       869       950       951      3721      3725      3723
 -1      1802    8    0    1
 -2       871       870       952      3451      3726      3727
 -1      1803    8    0    1
 -2       870       951       952      3724      3728      3726
 -1      1804    8    0    1
 -2       872       871       953      3454      3729      3730
 -1      1805    8    0    1
 -2       871       952       953      3727      3731      3729
 -1      1806    8    0    1
 -2       873       872       954      3457      3732      3733
 -1      1807    8    0    1
 -2       872       953       954      3730      3734      3732
 -1      1808    8    0    1
 -2       874       873       955      3460      3735      3736
 -1      1809    8    0    1
 -2       873       954       955      3733      3737      3735
 -1      1810    8    0    1
 -2       875       874       956      3463      3738      3739
 -1      1811    8    0    1
 -2       874       955       956      3736      3740      3738
 -1      1812    8    0    1
 -2       876       875       957      3466      3741      3742
 -1      1813    8    0    1
 -2       875       956       957      3739      3743      3741
 -1      1814    8    0    1
 -2       877       876       958      3469      3744      3745
 -1      1815    8    0    1
 -2       876       957       958      3742      3746      3744
 -1      1816    8    0    1
 -2       878       877       959      3472      3747      3748
 -1      1817    8    0    1
 -2       877       958       959      3745      3749      3747
 -1      1818    8    0    1
 -2       879       878       960      3475      3750      3751
 -1      1819    8    0    1
 -2       878       959       960      3748      3752      3750
 -1      1820    8    0    1
 -2       880       879       961      3478      3753      3754
 -1      1821    8    0    1
 -2       879       960       961      3751      3755      3753
 -1      1822    8    0    1
 -2       881       880       962      3481      3756      3757
 -1      1823    8    0    1
 -2       880       961       962      3754      3758      3756
 -1      1824    8    0    1
 -2       920       922       963      3619      3759      3760
 -1      1825    8    0    1
 -2       920       963       946      3760      3761      3710
 -1      1826    8    0    1
 -2       777       890       862      3509      3762      3623
 -1      1827    8    0    1
 -2       885       884       964      3495      3763      3764
 -1      1828    8    0    1
 -2       886       885       965      3498      3765      3766
 -1      1829    8    0    1
 -2       885       964       965      3764      3767      3765
 -1      1830    8    0    1
 -2       887       886       966      3501      3768      3769
 -1      1831    8    0    1
 -2       886       965       966      3766      3770      3768
 -1      1832    8    0    1
 -2       888       887       967      3504      3771      3772
 -1      1833    8    0    1
 -2       887       966       967      3769      3773      3771
 -1      1834    8    0    1
 -2       889       888       968      3507      3774      3775
 -1      1835    8    0    1
 -2       888       967       968      3772      3776      3774
 -1      1836    8    0    1
 -2       890       889       969      3510      3777      3778
 -1      1837    8    0    1
 -2       889       968       969      3775      3779      3777
 -1      1838    8    0    1
 -2       892       891       970      3516      3780      3781
 -1      1839    8    0    1
 -2       845       847       971      3639      3782      3783
 -1      1840    8    0    1
 -2       845       971       937      3783      3784      3674
 -1      1841    8    0    1
 -2       894       895       972      3524      3785      3786
 -1      1842    8    0    1
 -2       893       894       973      3521      3787      3788
 -1      1843    8    0    1
 -2       894       972       973      3786      3789      3787
 -1      1844    8    0    1
 -2       896       897       974      3530      3790      3791
 -1      1845    8    0    1
 -2       897       898       975      3533      3792      3793
 -1      1846    8    0    1
 -2       897       975       974      3793      3794      3790
 -1      1847    8    0    1
 -2       898       899       976      3536      3795      3796
 -1      1848    8    0    1
 -2       898       976       975      3796      3797      3792
 -1      1849    8    0    1
 -2       899       900       977      3539      3798      3799
 -1      1850    8    0    1
 -2       899       977       976      3799      3800      3795
 -1      1851    8    0    1
 -2       900       901       978      3542      3801      3802
 -1      1852    8    0    1
 -2       900       978       977      3802      3803      3798
 -1      1853    8    0    1
 -2       795       882       902      3547      3804      3543
 -1      1854    8    0    1
 -2       882       921       979      3615      3805      3806
 -1      1855    8    0    1
 -2       902       882       979      3804      3806      3807
 -1      1856    8    0    1
 -2       921       943       979      3700      3808      3805
 -1      1857    8    0    1
 -2       903       803       846      3554      3557      3643
 -1      1858    8    0    1
 -2       904       905       980      3562      3809      3810
 -1      1859    8    0    1
 -2       907       908       981      3571      3811      3812
 -1      1860    8    0    1
 -2       908       909       982      3574      3813      3814
 -1      1861    8    0    1
 -2       908       982       981      3814      3815      3811
 -1      1862    8    0    1
 -2       909       910       983      3577      3816      3817
 -1      1863    8    0    1
 -2       909       983       982      3817      3818      3813
 -1      1864    8    0    1
 -2       910       911       984      3580      3819      3820
 -1      1865    8    0    1
 -2       910       984       983      3820      3821      3816
 -1      1866    8    0    1
 -2       933       849       985      3663      3822      3823
 -1      1867    8    0    1
 -2       849       851       985      3376      3824      3822
 -1      1868    8    0    1
 -2       851       934       985      3666      3825      3824
 -1      1869    8    0    1
 -2       863       912       986      3652      3826      3827
 -1      1870    8    0    1
 -2       911       930       987      3654      3828      3829
 -1      1871    8    0    1
 -2       984       911       987      3819      3829      3830
 -1      1872    8    0    1
 -2       930       933       987      3678      3831      3828
 -1      1873    8    0    1
 -2       895       896       988      3527      3832      3833
 -1      1874    8    0    1
 -2       896       974       988      3791      3834      3832
 -1      1875    8    0    1
 -2       842       930       861      3679      3835      3423
 -1      1876    8    0    1
 -2       922       913       989      3659      3836      3837
 -1      1877    8    0    1
 -2       963       922       989      3759      3837      3838
 -1      1878    8    0    1
 -2       913       944       989      3704      3839      3836
 -1      1879    8    0    1
 -2       914       863       990      3587      3840      3841
 -1      1880    8    0    1
 -2       906       907       991      3568      3842      3843
 -1      1881    8    0    1
 -2       907       981       991      3812      3844      3842
 -1      1882    8    0    1
 -2       905       906       992      3565      3845      3846
 -1      1883    8    0    1
 -2       906       991       992      3843      3847      3845
 -1      1884    8    0    1
 -2       857       918       993      3602      3848      3849
 -1      1885    8    0    1
 -2       857       993       944      3849      3850      3705
 -1      1886    8    0    1
 -2       919       881       994      3607      3851      3852
 -1      1887    8    0    1
 -2       841       919       994      3629      3852      3853
 -1      1888    8    0    1
 -2       881       962       994      3757      3854      3851
 -1      1889    8    0    1
 -2       884       883       995      3492      3855      3856
 -1      1890    8    0    1
 -2       884       995       964      3856      3857      3763
 -1      1891    8    0    1
 -2       918       839       996      3694      3858      3859
 -1      1892    8    0    1
 -2       839       926       996      3635      3860      3858
 -1      1893    8    0    1
 -2       924       904       997      3701      3861      3862
 -1      1894    8    0    1
 -2       840       924       997      3627      3862      3863
 -1      1895    8    0    1
 -2       904       980       997      3810      3864      3861
 -1      1896    8    0    1
 -2       865       864       998      3433      3865      3866
 -1      1897    8    0    1
 -2       864       946       998      3711      3867      3865
 -1      1898    8    0    1
 -2       883       853       935      3709      3669      3868
 -1      1899    8    0    1
 -2       862       890       969      3762      3778      3869
 -1      1900    8    0    1
 -2       947       865       998      3712      3866      3870
 -1      1901    8    0    1
 -2       891       915       999      3590      3871      3872
 -1      1902    8    0    1
 -2       891       999       970      3872      3873      3780
 -1      1903    8    0    1
 -2       858       942      1000      3696      3874      3875
 -1      1904    8    0    1
 -2       858      1000       943      3875      3876      3698
 -1      1905    8    0    1
 -2       990       863       986      3840      3827      3877
 -1      1906    8    0    1
 -2       926       925      1001      3633      3878      3879
 -1      1907    8    0    1
 -2       927       892      1002      3638      3880      3881
 -1      1908    8    0    1
 -2       892       970      1002      3781      3882      3880
 -1      1909    8    0    1
 -2       512       611       834      2755      3340      3611
 -1      1910    8    0    1
 -2       925       945      1003      3707      3883      3884
 -1      1911    8    0    1
 -2       925      1003      1001      3884      3885      3878
 -1      1912    8    0    1
 -2       928       827       927      3642      3637      3886
 -1      1913    8    0    1
 -2       918       996       993      3859      3887      3848
 -1      1914    8    0    1
 -2       929       916      1004      3646      3888      3889
 -1      1915    8    0    1
 -2       972       895       988      3785      3833      3890
 -1      1916    8    0    1
 -2       901       902       979      3545      3807      3891
 -1      1917    8    0    1
 -2       980       905       992      3809      3846      3892
 -1      1918    8    0    1
 -2       945       859       939      3708      3685      3893
 -1      1919    8    0    1
 -2       935       914      1005      3667      3894      3895
 -1      1920    8    0    1
 -2       914       990      1005      3841      3896      3894
 -1      1921    8    0    1
 -2       933       985      1006      3823      3897      3898
 -1      1922    8    0    1
 -2       933      1006       987      3898      3899      3831
 -1      1923    8    0    1
 -2       930       848       861      3655      3647      3835
 -1      1924    8    0    1
 -2       931       840       997      3658      3863      3900
 -1      1925    8    0    1
 -2       932       862       969      3660      3869      3901
 -1      1926    8    0    1
 -2       986       912      1007      3826      3902      3903
 -1      1927    8    0    1
 -2       912       931      1007      3657      3904      3902
 -1      1928    8    0    1
 -2       938       923      1008      3682      3905      3906
 -1      1929    8    0    1
 -2       916       928      1009      3641      3907      3908
 -1      1930    8    0    1
 -2       916      1009      1004      3908      3909      3888
 -1      1931    8    0    1
 -2       901       979       978      3891      3910      3801
 -1      1932    8    0    1
 -2       854       938       939      3681      3911      3686
 -1      1933    8    0    1
 -2       915       893      1010      3591      3912      3913
 -1      1934    8    0    1
 -2       915      1010       999      3913      3914      3871
 -1      1935    8    0    1
 -2       934       936      1011      3672      3915      3916
 -1      1936    8    0    1
 -2       855       940      1012      3688      3917      3918
 -1      1937    8    0    1
 -2       855      1012       941      3918      3919      3693
 -1      1938    8    0    1
 -2       971       847       929      3782      3645      3920
 -1      1939    8    0    1
 -2       856       941      1013      3692      3921      3922
 -1      1940    8    0    1
 -2       856      1013       942      3922      3923      3697
 -1      1941    8    0    1
 -2       923       937      1014      3676      3924      3925
 -1      1942    8    0    1
 -2       923      1014      1008      3925      3926      3905
 -1      1943    8    0    1
 -2       985       934      1015      3825      3927      3928
 -1      1944    8    0    1
 -2      1006       985      1015      3897      3928      3929
 -1      1945    8    0    1
 -2       934      1011      1015      3916      3930      3927
 -1      1946    8    0    1
 -2      1010       893       973      3912      3788      3931
 -1      1947    8    0    1
 -2      1010       973      1016      3931      3932      3933
 -1      1948    8    0    1
 -2       946       963      1017      3761      3934      3935
 -1      1949    8    0    1
 -2       949       948      1018      3719      3936      3937
 -1      1950    8    0    1
 -2       950       949      1019      3722      3938      3939
 -1      1951    8    0    1
 -2       949      1018      1019      3937      3940      3938
 -1      1952    8    0    1
 -2       951       950      1020      3725      3941      3942
 -1      1953    8    0    1
 -2       950      1019      1020      3939      3943      3941
 -1      1954    8    0    1
 -2       952       951      1021      3728      3944      3945
 -1      1955    8    0    1
 -2       951      1020      1021      3942      3946      3944
 -1      1956    8    0    1
 -2       953       952      1022      3731      3947      3948
 -1      1957    8    0    1
 -2       952      1021      1022      3945      3949      3947
 -1      1958    8    0    1
 -2       954       953      1023      3734      3950      3951
 -1      1959    8    0    1
 -2       953      1022      1023      3948      3952      3950
 -1      1960    8    0    1
 -2       955       954      1024      3737      3953      3954
 -1      1961    8    0    1
 -2       954      1023      1024      3951      3955      3953
 -1      1962    8    0    1
 -2       956       955      1025      3740      3956      3957
 -1      1963    8    0    1
 -2       955      1024      1025      3954      3958      3956
 -1      1964    8    0    1
 -2       957       956      1026      3743      3959      3960
 -1      1965    8    0    1
 -2       956      1025      1026      3957      3961      3959
 -1      1966    8    0    1
 -2       958       957      1027      3746      3962      3963
 -1      1967    8    0    1
 -2       957      1026      1027      3960      3964      3962
 -1      1968    8    0    1
 -2       959       958      1028      3749      3965      3966
 -1      1969    8    0    1
 -2       958      1027      1028      3963      3967      3965
 -1      1970    8    0    1
 -2       960       959      1029      3752      3968      3969
 -1      1971    8    0    1
 -2       959      1028      1029      3966      3970      3968
 -1      1972    8    0    1
 -2       961       960      1030      3755      3971      3972
 -1      1973    8    0    1
 -2       960      1029      1030      3969      3973      3971
 -1      1974    8    0    1
 -2       962       961      1031      3758      3974      3975
 -1      1975    8    0    1
 -2       961      1030      1031      3972      3976      3974
 -1      1976    8    0    1
 -2       928       927      1032      3886      3977      3978
 -1      1977    8    0    1
 -2      1009       928      1032      3907      3978      3979
 -1      1978    8    0    1
 -2       927      1002      1032      3881      3980      3977
 -1      1979    8    0    1
 -2       965       964      1033      3767      3981      3982
 -1      1980    8    0    1
 -2       947       998      1034      3870      3983      3984
 -1      1981    8    0    1
 -2       966       965      1035      3770      3985      3986
 -1      1982    8    0    1
 -2       965      1033      1035      3982      3987      3985
 -1      1983    8    0    1
 -2       967       966      1036      3773      3988      3989
 -1      1984    8    0    1
 -2       966      1035      1036      3986      3990      3988
 -1      1985    8    0    1
 -2       968       967      1037      3776      3991      3992
 -1      1986    8    0    1
 -2       967      1036      1037      3989      3993      3991
 -1      1987    8    0    1
 -2       969       968      1038      3779      3994      3995
 -1      1988    8    0    1
 -2       968      1037      1038      3992      3996      3994
 -1      1989    8    0    1
 -2       937       971      1039      3784      3997      3998
 -1      1990    8    0    1
 -2       937      1039      1014      3998      3999      3924
 -1      1991    8    0    1
 -2       972       988      1040      3890      4000      4001
 -1      1992    8    0    1
 -2       975       976      1041      3797      4002      4003
 -1      1993    8    0    1
 -2       974       975      1042      3794      4004      4005
 -1      1994    8    0    1
 -2       975      1041      1042      4003      4006      4004
 -1      1995    8    0    1
 -2       977       978      1043      3803      4007      4008
 -1      1996    8    0    1
 -2       939       938       945      3911      4009      3893
 -1      1997    8    0    1
 -2       980       992      1044      3892      4010      4011
 -1      1998    8    0    1
 -2       982       983      1045      3818      4012      4013
 -1      1999    8    0    1
 -2       981       982      1046      3815      4014      4015
 -1      2000    8    0    1
 -2       982      1045      1046      4013      4016      4014
 -1      2001    8    0    1
 -2       988       974      1047      3834      4017      4018
 -1      2002    8    0    1
 -2       988      1047      1040      4018      4019      4000
 -1      2003    8    0    1
 -2       926      1001      1048      3879      4020      4021
 -1      2004    8    0    1
 -2       926      1048       996      4021      4022      3860
 -1      2005    8    0    1
 -2       984       987      1049      3830      4023      4024
 -1      2006    8    0    1
 -2       987      1006      1049      3899      4025      4023
 -1      2007    8    0    1
 -2       993       996      1050      3887      4026      4027
 -1      2008    8    0    1
 -2       936       932      1051      3673      4028      4029
 -1      2009    8    0    1
 -2       936      1051      1011      4029      4030      3915
 -1      2010    8    0    1
 -2       991       981      1052      3844      4031      4032
 -1      2011    8    0    1
 -2       981      1046      1052      4015      4033      4031
 -1      2012    8    0    1
 -2       944       993      1050      3850      4027      4034
 -1      2013    8    0    1
 -2       992       991      1053      3847      4035      4036
 -1      2014    8    0    1
 -2       991      1052      1053      4032      4037      4035
 -1      2015    8    0    1
 -2       929      1004      1054      3889      4038      4039
 -1      2016    8    0    1
 -2       929      1054       971      4039      4040      3920
 -1      2017    8    0    1
 -2       973       972      1055      3789      4041      4042
 -1      2018    8    0    1
 -2       972      1040      1055      4001      4043      4041
 -1      2019    8    0    1
 -2       995       883       935      3855      3868      4044
 -1      2020    8    0    1
 -2       990       986      1056      3877      4045      4046
 -1      2021    8    0    1
 -2       940       841       994      3689      3853      4047
 -1      2022    8    0    1
 -2       997       980      1044      3864      4011      4048
 -1      2023    8    0    1
 -2       995       935      1005      4044      3895      4049
 -1      2024    8    0    1
 -2       948       947      1057      3716      4050      4051
 -1      2025    8    0    1
 -2       948      1057      1018      4051      4052      3936
 -1      2026    8    0    1
 -2       932       969      1051      3901      4053      4028
 -1      2027    8    0    1
 -2       998       946      1058      3867      4054      4055
 -1      2028    8    0    1
 -2       946      1017      1058      3935      4056      4054
 -1      2029    8    0    1
 -2       976       977      1059      3800      4057      4058
 -1      2030    8    0    1
 -2       976      1059      1041      4058      4059      4002
 -1      2031    8    0    1
 -2       983       984      1060      3821      4060      4061
 -1      2032    8    0    1
 -2      1045       983      1060      4012      4061      4062
 -1      2033    8    0    1
 -2       984      1049      1060      4024      4063      4060
 -1      2034    8    0    1
 -2      1000       942      1061      3874      4064      4065
 -1      2035    8    0    1
 -2      1002       970      1062      3882      4066      4067
 -1      2036    8    0    1
 -2       964       995      1005      3857      4049      4068
 -1      2037    8    0    1
 -2       962      1031      1012      3975      4069      4070
 -1      2038    8    0    1
 -2      1034       998      1058      3983      4055      4071
 -1      2039    8    0    1
 -2       969      1038      1051      3995      4072      4053
 -1      2040    8    0    1
 -2       947      1034      1057      3984      4073      4050
 -1      2041    8    0    1
 -2       978       979      1063      3910      4074      4075
 -1      2042    8    0    1
 -2      1039       971      1054      3997      4040      4076
 -1      2043    8    0    1
 -2       943      1000      1063      3876      4077      4078
 -1      2044    8    0    1
 -2       996      1048      1050      4022      4079      4026
 -1      2045    8    0    1
 -2       977      1043      1059      4008      4080      4057
 -1      2046    8    0    1
 -2      1010      1016      1064      3933      4081      4082
 -1      2047    8    0    1
 -2      1010      1064       999      4082      4083      3914
 -1      2048    8    0    1
 -2       974      1042      1047      4005      4084      4017
 -1      2049    8    0    1
 -2      1043       978      1063      4007      4075      4085
 -1      2050    8    0    1
 -2       945       938      1008      4009      3906      4086
 -1      2051    8    0    1
 -2      1044       992      1053      4010      4036      4087
 -1      2052    8    0    1
 -2       979       943      1063      3808      4078      4074
 -1      2053    8    0    1
 -2       944      1050       989      4034      4088      3839
 -1      2054    8    0    1
 -2      1048      1001      1065      4020      4089      4090
 -1      2055    8    0    1
 -2      1033       964      1005      3981      4068      4091
 -1      2056    8    0    1
 -2       931       997      1044      3900      4048      4092
 -1      2057    8    0    1
 -2      1061       942      1013      4064      3923      4093
 -1      2058    8    0    1
 -2       986      1007      1066      3903      4094      4095
 -1      2059    8    0    1
 -2       986      1066      1056      4095      4096      4045
 -1      2060    8    0    1
 -2      1011      1051      1067      4030      4097      4098
 -1      2061    8    0    1
 -2      1051      1038      1067      4072      4099      4097
 -1      2062    8    0    1
 -2      1004      1009      1068      3909      4100      4101
 -1      2063    8    0    1
 -2      1016       973      1055      3932      4042      4102
 -1      2064    8    0    1
 -2       941      1012      1069      3919      4103      4104
 -1      2065    8    0    1
 -2       941      1069      1013      4104      4105      3921
 -1      2066    8    0    1
 -2      1054      1004      1070      4038      4106      4107
 -1      2067    8    0    1
 -2      1004      1068      1070      4101      4108      4106
 -1      2068    8    0    1
 -2      1011      1067      1071      4098      4109      4110
 -1      2069    8    0    1
 -2      1011      1071      1015      4110      4111      3930
 -1      2070    8    0    1
 -2       970       999      1072      3873      4112      4113
 -1      2071    8    0    1
 -2       999      1064      1072      4083      4114      4112
 -1      2072    8    0    1
 -2       945      1008      1003      4086      4115      3883
 -1      2073    8    0    1
 -2      1065      1001      1073      4089      4116      4117
 -1      2074    8    0    1
 -2      1001      1003      1073      3885      4118      4116
 -1      2075    8    0    1
 -2       970      1072      1062      4113      4119      4066
 -1      2076    8    0    1
 -2       963       989      1050      3838      4088      4120
 -1      2077    8    0    1
 -2      1003      1008      1074      4115      4121      4122
 -1      2078    8    0    1
 -2      1073      1003      1074      4118      4122      4123
 -1      2079    8    0    1
 -2      1008      1014      1074      3926      4124      4121
 -1      2080    8    0    1
 -2       963      1050      1017      4120      4125      3934
 -1      2081    8    0    1
 -2      1041      1059      1075      4059      4126      4127
 -1      2082    8    0    1
 -2      1002      1062      1076      4067      4128      4129
 -1      2083    8    0    1
 -2      1002      1076      1032      4129      4130      3980
 -1      2084    8    0    1
 -2       931      1044      1007      4092      4131      3904
 -1      2085    8    0    1
 -2      1012      1031      1069      4069      4132      4103
 -1      2086    8    0    1
 -2      1034      1058      1077      4071      4133      4134
 -1      2087    8    0    1
 -2      1020      1019      1078      3943      4135      4136
 -1      2088    8    0    1
 -2      1021      1020      1079      3946      4137      4138
 -1      2089    8    0    1
 -2      1020      1078      1079      4136      4139      4137
 -1      2090    8    0    1
 -2      1022      1021      1080      3949      4140      4141
 -1      2091    8    0    1
 -2      1021      1079      1080      4138      4142      4140
 -1      2092    8    0    1
 -2      1023      1022      1081      3952      4143      4144
 -1      2093    8    0    1
 -2      1022      1080      1081      4141      4145      4143
 -1      2094    8    0    1
 -2      1024      1023      1082      3955      4146      4147
 -1      2095    8    0    1
 -2      1023      1081      1082      4144      4148      4146
 -1      2096    8    0    1
 -2      1025      1024      1083      3958      4149      4150
 -1      2097    8    0    1
 -2      1024      1082      1083      4147      4151      4149
 -1      2098    8    0    1
 -2      1026      1025      1084      3961      4152      4153
 -1      2099    8    0    1
 -2      1025      1083      1084      4150      4154      4152
 -1      2100    8    0    1
 -2      1027      1026      1085      3964      4155      4156
 -1      2101    8    0    1
 -2      1026      1084      1085      4153      4157      4155
 -1      2102    8    0    1
 -2      1028      1027      1086      3967      4158      4159
 -1      2103    8    0    1
 -2      1027      1085      1086      4156      4160      4158
 -1      2104    8    0    1
 -2      1029      1028      1087      3970      4161      4162
 -1      2105    8    0    1
 -2      1028      1086      1087      4159      4163      4161
 -1      2106    8    0    1
 -2      1030      1029      1088      3973      4164      4165
 -1      2107    8    0    1
 -2      1029      1087      1088      4162      4166      4164
 -1      2108    8    0    1
 -2      1031      1030      1089      3976      4167      4168
 -1      2109    8    0    1
 -2      1030      1088      1089      4165      4169      4167
 -1      2110    8    0    1
 -2      1007      1044      1066      4131      4170      4094
 -1      2111    8    0    1
 -2      1039      1054      1090      4076      4171      4172
 -1      2112    8    0    1
 -2      1054      1070      1090      4107      4173      4171
 -1      2113    8    0    1
 -2      1014      1039      1091      3999      4174      4175
 -1      2114    8    0    1
 -2      1074      1014      1091      4124      4175      4176
 -1      2115    8    0    1
 -2      1039      1090      1091      4172      4177      4174
 -1      2116    8    0    1
 -2      1036      1035      1092      3990      4178      4179
 -1      2117    8    0    1
 -2      1037      1036      1093      3993      4180      4181
 -1      2118    8    0    1
 -2      1036      1092      1093      4179      4182      4180
 -1      2119    8    0    1
 -2      1038      1037      1094      3996      4183      4184
 -1      2120    8    0    1
 -2      1067      1038      1094      4099      4184      4185
 -1      2121    8    0    1
 -2      1037      1093      1094      4181      4186      4183
 -1      2122    8    0    1
 -2      1063      1000      1095      4077      4187      4188
 -1      2123    8    0    1
 -2      1000      1061      1095      4065      4189      4187
 -1      2124    8    0    1
 -2      1050      1048      1096      4079      4190      4191
 -1      2125    8    0    1
 -2      1017      1050      1096      4125      4191      4192
 -1      2126    8    0    1
 -2      1048      1065      1096      4090      4193      4190
 -1      2127    8    0    1
 -2      1040      1047      1097      4019      4194      4195
 -1      2128    8    0    1
 -2      1005       990      1098      3896      4196      4197
 -1      2129    8    0    1
 -2      1043      1063      1095      4085      4188      4198
 -1      2130    8    0    1
 -2      1046      1045      1099      4016      4199      4200
 -1      2131    8    0    1
 -2      1049      1006      1015      4025      3929      4201
 -1      2132    8    0    1
 -2      1042      1041      1100      4006      4202      4203
 -1      2133    8    0    1
 -2      1041      1075      1100      4127      4204      4202
 -1      2134    8    0    1
 -2      1059      1043      1101      4080      4205      4206
 -1      2135    8    0    1
 -2      1059      1101      1075      4206      4207      4126
 -1      2136    8    0    1
 -2      1068      1009      1102      4100      4208      4209
 -1      2137    8    0    1
 -2      1009      1032      1102      3979      4210      4208
 -1      2138    8    0    1
 -2      1052      1046      1103      4033      4211      4212
 -1      2139    8    0    1
 -2      1046      1099      1103      4200      4213      4211
 -1      2140    8    0    1
 -2      1016      1055      1104      4102      4214      4215
 -1      2141    8    0    1
 -2      1035      1033      1105      3987      4216      4217
 -1      2142    8    0    1
 -2      1035      1105      1092      4217      4218      4178
 -1      2143    8    0    1
 -2      1053      1052      1106      4037      4219      4220
 -1      2144    8    0    1
 -2      1052      1103      1106      4212      4221      4219
 -1      2145    8    0    1
 -2      1047      1042      1107      4084      4222      4223
 -1      2146    8    0    1
 -2      1042      1100      1107      4203      4224      4222
 -1      2147    8    0    1
 -2      1055      1040      1108      4043      4225      4226
 -1      2148    8    0    1
 -2      1040      1097      1108      4195      4227      4225
 -1      2149    8    0    1
 -2      1019      1018      1109      3940      4228      4229
 -1      2150    8    0    1
 -2      1019      1109      1078      4229      4230      4135
 -1      2151    8    0    1
 -2      1018      1057      1110      4052      4231      4232
 -1      2152    8    0    1
 -2      1018      1110      1109      4232      4233      4228
 -1      2153    8    0    1
 -2       994       962      1012      3854      4070      4234
 -1      2154    8    0    1
 -2      1044      1053      1066      4087      4235      4170
 -1      2155    8    0    1
 -2       940       994      1012      4047      4234      3917
 -1      2156    8    0    1
 -2      1057      1034      1111      4073      4236      4237
 -1      2157    8    0    1
 -2      1034      1077      1111      4134      4238      4236
 -1      2158    8    0    1
 -2      1061      1013      1112      4093      4239      4240
 -1      2159    8    0    1
 -2      1013      1069      1112      4105      4241      4239
 -1      2160    8    0    1
 -2      1058      1017      1113      4056      4242      4243
 -1      2161    8    0    1
 -2      1077      1058      1113      4133      4243      4244
 -1      2162    8    0    1
 -2      1017      1096      1113      4192      4245      4242
 -1      2163    8    0    1
 -2      1062      1072      1114      4119      4246      4247
 -1      2164    8    0    1
 -2       990      1056      1098      4046      4248      4196
 -1      2165    8    0    1
 -2      1049      1015      1071      4201      4111      4249
 -1      2166    8    0    1
 -2      1047      1107      1097      4223      4250      4194
 -1      2167    8    0    1
 -2      1114      1072      1115      4246      4251      4252
 -1      2168    8    0    1
 -2      1072      1064      1115      4114      4253      4251
 -1      2169    8    0    1
 -2      1031      1089      1069      4168      4254      4132
 -1      2170    8    0    1
 -2      1016      1104      1116      4215      4255      4256
 -1      2171    8    0    1
 -2      1016      1116      1064      4256      4257      4081
 -1      2172    8    0    1
 -2      1096      1065      1117      4193      4258      4259
 -1      2173    8    0    1
 -2      1096      1117      1113      4259      4260      4245
 -1      2174    8    0    1
 -2      1005      1098      1033      4197      4261      4091
 -1      2175    8    0    1
 -2      1043      1095      1101      4198      4262      4205
 -1      2176    8    0    1
 -2      1066      1053      1106      4235      4220      4263
 -1      2177    8    0    1
 -2      1099      1045      1118      4199      4264      4265
 -1      2178    8    0    1
 -2      1045      1060      1118      4062      4266      4264
 -1      2179    8    0    1
 -2      1067      1094      1071      4185      4267      4109
 -1      2180    8    0    1
 -2      1055      1108      1104      4226      4268      4214
 -1      2181    8    0    1
 -2      1095      1061      1119      4189      4269      4270
 -1      2182    8    0    1
 -2      1101      1095      1119      4262      4270      4271
 -1      2183    8    0    1
 -2      1061      1112      1119      4240      4272      4269
 -1      2184    8    0    1
 -2      1057      1111      1110      4237      4273      4231
 -1      2185    8    0    1
 -2      1070      1068      1120      4108      4274      4275
 -1      2186    8    0    1
 -2      1062      1114      1121      4247      4276      4277
 -1      2187    8    0    1
 -2      1062      1121      1076      4277      4278      4128
 -1      2188    8    0    1
 -2      1056      1066      1122      4096      4279      4280
 -1      2189    8    0    1
 -2      1066      1106      1122      4263      4281      4279
 -1      2190    8    0    1
 -2      1033      1098      1105      4261      4282      4216
 -1      2191    8    0    1
 -2      1117      1065      1073      4258      4117      4283
 -1      2192    8    0    1
 -2      1105      1098      1056      4282      4248      4284
 -1      2193    8    0    1
 -2      1120      1068      1123      4274      4285      4286
 -1      2194    8    0    1
 -2      1068      1102      1123      4209      4287      4285
 -1      2195    8    0    1
 -2      1056      1122      1105      4280      4288      4284
 -1      2196    8    0    1
 -2      1032      1076      1102      4130      4289      4210
 -1      2197    8    0    1
 -2      1079      1078      1124      4139      4290      4291
 -1      2198    8    0    1
 -2      1109      1110      1123      4233      4292      4293
 -1      2199    8    0    1
 -2      1080      1079      1114      4142      4294      4295
 -1      2200    8    0    1
 -2      1081      1080      1115      4145      4296      4297
 -1      2201    8    0    1
 -2      1082      1081      1116      4148      4298      4299
 -1      2202    8    0    1
 -2      1083      1082      1104      4151      4300      4301
 -1      2203    8    0    1
 -2      1084      1083      1108      4154      4302      4303
 -1      2204    8    0    1
 -2      1085      1084      1097      4157      4304      4305
 -1      2205    8    0    1
 -2      1086      1085      1107      4160      4306      4307
 -1      2206    8    0    1
 -2      1087      1086      1100      4163      4308      4309
 -1      2207    8    0    1
 -2      1088      1087      1075      4166      4310      4311
 -1      2208    8    0    1
 -2      1090      1070      1125      4173      4312      4313
 -1      2209    8    0    1
 -2      1070      1120      1125      4275      4314      4312
 -1      2210    8    0    1
 -2      1073      1074      1126      4123      4315      4316
 -1      2211    8    0    1
 -2      1074      1091      1126      4176      4317      4315
 -1      2212    8    0    1
 -2      1093      1092      1127      4182      4318      4319
 -1      2213    8    0    1
 -2      1094      1093      1128      4186      4320      4321
 -1      2214    8    0    1
 -2      1071      1094      1128      4267      4321      4322
 -1      2215    8    0    1
 -2      1093      1127      1128      4319      4323      4320
 -1      2216    8    0    1
 -2      1117      1073      1126      4283      4316      4324
 -1      2217    8    0    1
 -2      1049      1071      1060      4249      4325      4063
 -1      2218    8    0    1
 -2      1075      1087      1100      4310      4309      4204
 -1      2219    8    0    1
 -2      1097      1107      1085      4250      4306      4305
 -1      2220    8    0    1
 -2      1100      1086      1107      4308      4307      4224
 -1      2221    8    0    1
 -2      1075      1101      1088      4207      4326      4311
 -1      2222    8    0    1
 -2      1097      1084      1108      4304      4303      4227
 -1      2223    8    0    1
 -2      1108      1083      1104      4302      4301      4268
 -1      2224    8    0    1
 -2      1103      1099      1127      4213      4327      4328
 -1      2225    8    0    1
 -2      1106      1103      1129      4221      4329      4330
 -1      2226    8    0    1
 -2      1122      1106      1129      4281      4330      4331
 -1      2227    8    0    1
 -2      1103      1127      1129      4328      4332      4329
 -1      2228    8    0    1
 -2      1078      1109      1130      4230      4333      4334
 -1      2229    8    0    1
 -2      1124      1078      1130      4290      4334      4335
 -1      2230    8    0    1
 -2      1109      1123      1130      4293      4336      4333
 -1      2231    8    0    1
 -2      1110      1111      1120      4273      4337      4338
 -1      2232    8    0    1
 -2      1111      1077      1125      4238      4339      4340
 -1      2233    8    0    1
 -2      1069      1089      1112      4254      4341      4241
 -1      2234    8    0    1
 -2      1104      1082      1116      4300      4299      4255
 -1      2235    8    0    1
 -2      1105      1122      1129      4288      4331      4342
 -1      2236    8    0    1
 -2      1120      1111      1125      4337      4340      4314
 -1      2237    8    0    1
 -2      1110      1120      1123      4338      4286      4292
 -1      2238    8    0    1
 -2      1080      1114      1115      4295      4252      4296
 -1      2239    8    0    1
 -2      1112      1089      1119      4341      4343      4272
 -1      2240    8    0    1
 -2      1115      1064      1116      4253      4257      4344
 -1      2241    8    0    1
 -2      1105      1129      1092      4342      4345      4218
 -1      2242    8    0    1
 -2      1081      1115      1116      4297      4344      4298
 -1      2243    8    0    1
 -2      1127      1099      1128      4327      4346      4323
 -1      2244    8    0    1
 -2      1090      1125      1131      4313      4347      4348
 -1      2245    8    0    1
 -2      1091      1090      1131      4177      4348      4349
 -1      2246    8    0    1
 -2      1125      1077      1131      4339      4350      4347
 -1      2247    8    0    1
 -2      1089      1088      1101      4169      4326      4351
 -1      2248    8    0    1
 -2      1127      1092      1129      4318      4345      4332
 -1      2249    8    0    1
 -2      1113      1117      1077      4260      4352      4244
 -1      2250    8    0    1
 -2      1123      1102      1130      4287      4353      4336
 -1      2251    8    0    1
 -2      1077      1117      1131      4352      4354      4350
 -1      2252    8    0    1
 -2      1114      1079      1124      4294      4291      4355
 -1      2253    8    0    1
 -2      1060      1071      1118      4325      4356      4266
 -1      2254    8    0    1
 -2      1130      1102      1076      4353      4289      4357
 -1      2255    8    0    1
 -2      1099      1118      1128      4265      4358      4346
 -1      2256    8    0    1
 -2      1118      1071      1128      4356      4322      4358
 -1      2257    8    0    1
 -2      1130      1076      1121      4357      4278      4359
 -1      2258    8    0    1
 -2      1089      1101      1119      4351      4271      4343
 -1      2259    8    0    1
 -2      1124      1130      1121      4335      4359      4360
 -1      2260    8    0    1
 -2      1131      1117      1126      4354      4324      4361
 -1      2261    8    0    1
 -2      1114      1124      1121      4355      4360      4276
 -1      2262    8    0    1
 -2      1091      1131      1126      4349      4361      4317
 -3
    1PSTEP                         1           1           1          
  100CL  101 1.000000000        4361                     0    1           1
 -4  DISP        4    1
 -5  D1          1    2    1    0
 -5  D2          1    2    2    0
 -5  D3          1    2    3    0
 -5  ALL         1    2    0    0    1ALL
 -1         1 9.91292E-03-1.16017E-03-3.82206E-14
 -1         2 1.15434E-02-3.39322E-04-4.20051E-14
 -1         3 1.47486E-02-2.96882E-04-8.47791E-14
 -1         4 1.56037E-02-1.63916E-03-9.11775E-14
 -1         5 0.00000E+00 0.00000E+00 0.00000E+00
 -1         6 0.00000E+00 0.00000E+00 0.00000E+00
 -1         7 0.00000E+00 0.00000E+00 0.00000E+00
 -1         8 0.00000E+00 0.00000E+00 0.00000E+00
 -1         9 0.00000E+00 0.00000E+00 0.00000E+00
 -1        10 0.00000E+00 0.00000E+00 0.00000E+00
 -1        11 0.00000E+00 0.00000E+00 0.00000E+00
 -1        12 0.00000E+00 0.00000E+00 0.00000E+00
 -1        13 0.00000E+00 0.00000E+00 0.00000E+00
 -1        14 0.00000E+00 0.00000E+00 0.00000E+00
 -1        15 0.00000E+00 0.00000E+00 0.00000E+00
 -1        16 0.00000E+00 0.00000E+00 0.00000E+00
 -1        17 0.00000E+00 0.00000E+00 0.00000E+00
 -1        18 0.00000E+00 0.00000E+00 0.00000E+00
 -1        19 0.00000E+00 0.00000E+00 0.00000E+00
 -1        20 0.00000E+00 0.00000E+00 0.00000E+00
 -1        21 0.00000E+00 0.00000E+00 0.00000E+00
 -1        22 0.00000E+00 0.00000E+00 0.00000E+00
 -1        23 4.11061E-04-2.60621E-04 1.51314E-17
 -1        24 7.02735E-04-4.00742E-04-7.10898E-17
 -1        25 9.72464E-04-4.97897E-04-2.53686E-16
 -1        26 1.23659E-03-5.66286E-04-5.28806E-16
 -1        27 1.49973E-03-6.15020E-04-8.93247E-16
 -1        28 1.76401E-03-6.49442E-04-1.34688E-15
 -1        29 2.03038E-03-6.73213E-04-1.88947E-15
 -1        30 2.29926E-03-6.88969E-04-2.51951E-15
 -1        31 2.57076E-03-6.98658E-04-3.23657E-15
 -1        32 2.84483E-03-7.03731E-04-4.03738E-15
 -1        33 3.12137E-03-7.05259E-04-4.92059E-15
 -1        34 3.40031E-03-7.04028E-04-5.87800E-15
 -1        35 3.68162E-03-7.00609E-04-6.90771E-15
 -1        36 3.96541E-03-6.95424E-04-8.00880E-15
 -1        37 4.25192E-03-6.88818E-04-9.17632E-15
 -1        38 4.54160E-03-6.81122E-04-1.04114E-14
 -1        39 4.83514E-03-6.72745E-04-1.17146E-14
 -1        40 5.13352E-03-6.64274E-04-1.30872E-14
 -1        41 5.43805E-03-6.56619E-04-1.45331E-14
 -1        42 5.75038E-03-6.51204E-04-1.60527E-14
 -1        43 6.07251E-03-6.50208E-04-1.76532E-14
 -1        44 6.40660E-03-6.56881E-04-1.93277E-14
 -1        45 6.75467E-03-6.75848E-04-2.10735E-14
 -1        46 7.11780E-03-7.13278E-04-2.28927E-14
 -1        47 7.49488E-03-7.76515E-04-2.47812E-14
 -1        48 7.88079E-03-8.72518E-04-2.67368E-14
 -1        49 8.26474E-03-1.00422E-03-2.87548E-14
 -1        50 8.63061E-03-1.16471E-03-3.08338E-14
 -1        51 8.96193E-03-1.33171E-03-3.29861E-14
 -1        52 9.25194E-03-1.46873E-03-3.52092E-14
 -1        53 9.51265E-03-1.53859E-03-3.74958E-14
 -1        54 9.77244E-03-1.52465E-03-3.98563E-14
 -1        55 1.00602E-02-1.44189E-03-4.22927E-14
 -1        56 1.03891E-02-1.32690E-03-4.47911E-14
 -1        57 1.07533E-02-1.21668E-03-4.73543E-14
 -1        58 1.11364E-02-1.13441E-03-4.99897E-14
 -1        59 1.15222E-02-1.08771E-03-5.26876E-14
 -1        60 1.18995E-02-1.07401E-03-5.54269E-14
 -1        61 1.22628E-02-1.08641E-03-5.82138E-14
 -1        62 1.26110E-02-1.11748E-03-6.10517E-14
 -1        63 1.29449E-02-1.16092E-03-6.39512E-14
 -1        64 1.32665E-02-1.21190E-03-6.68937E-14
 -1        65 1.35781E-02-1.26702E-03-6.98797E-14
 -1        66 1.38816E-02-1.32388E-03-7.29041E-14
 -1        67 1.41789E-02-1.38087E-03-7.59515E-14
 -1        68 1.44713E-02-1.43686E-03-7.90114E-14
 -1        69 1.47603E-02-1.49111E-03-8.20768E-14
 -1        70 1.50469E-02-1.54315E-03-8.51429E-14
 -1        71 1.53324E-02-1.59301E-03-8.82301E-14
 -1        72 4.13509E-04 2.61324E-04 5.15436E-17
 -1        73 7.02561E-04 4.03444E-04 2.92531E-17
 -1        74 9.73007E-04 4.99663E-04-6.74069E-17
 -1        75 1.23743E-03 5.67991E-04-2.40591E-16
 -1        76 1.50071E-03 6.16775E-04-4.92434E-16
 -1        77 1.76507E-03 6.51292E-04-8.24637E-16
 -1        78 2.03150E-03 6.75184E-04-1.23724E-15
 -1        79 2.30043E-03 6.91081E-04-1.72796E-15
 -1        80 2.57198E-03 7.00936E-04-2.30022E-15
 -1        81 2.84612E-03 7.06208E-04-2.95701E-15
 -1        82 3.12274E-03 7.07989E-04-3.69173E-15
 -1        83 3.40175E-03 7.07090E-04-4.50164E-15
 -1        84 3.68314E-03 7.04126E-04-5.38509E-15
 -1        85 3.96696E-03 6.99583E-04-6.34662E-15
 -1        86 4.25339E-03 6.93886E-04-7.39051E-15
 -1        87 4.54275E-03 6.87473E-04-8.51515E-15
 -1        88 4.83549E-03 6.80874E-04-9.71237E-15
 -1        89 5.13221E-03 6.74793E-04-1.09799E-14
 -1        90 5.43356E-03 6.70195E-04-1.23230E-14
 -1        91 5.74020E-03 6.68393E-04-1.37387E-14
 -1        92 6.05264E-03 6.71094E-04-1.52242E-14
 -1        93 6.37100E-03 6.80396E-04-1.67778E-14
 -1        94 6.69469E-03 6.98624E-04-1.84048E-14
 -1        95 7.02204E-03 7.27965E-04-2.01024E-14
 -1        96 7.34994E-03 7.69759E-04-2.18709E-14
 -1        97 7.67378E-03 8.23461E-04-2.37134E-14
 -1        98 7.98791E-03 8.85414E-04-2.56206E-14
 -1        99 8.28695E-03 9.47984E-04-2.75819E-14
 -1       100 8.56785E-03 9.99868E-04-2.96026E-14
 -1       101 8.83193E-03 1.02828E-03-3.16830E-14
 -1       102 9.08564E-03 1.02280E-03-3.38266E-14
 -1       103 9.33902E-03 9.79211E-04-3.60483E-14
 -1       104 9.60221E-03 9.01292E-04-3.83495E-14
 -1       105 9.88194E-03 7.99210E-04-4.07197E-14
 -1       106 1.01798E-02 6.85717E-04-4.31694E-14
 -1       107 1.04930E-02 5.72263E-04-4.56940E-14
 -1       108 1.08162E-02 4.66694E-04-4.82748E-14
 -1       109 1.11436E-02 3.72851E-04-5.09071E-14
 -1       110 1.14705E-02 2.91391E-04-5.35901E-14
 -1       111 1.17937E-02 2.20995E-04-5.63264E-14
 -1       112 1.21115E-02 1.59431E-04-5.91090E-14
 -1       113 1.24233E-02 1.04272E-04-6.19183E-14
 -1       114 1.27290E-02 5.32868E-05-6.47512E-14
 -1       115 1.30293E-02 4.60031E-06-6.76045E-14
 -1       116 1.33248E-02-4.32852E-05-7.04667E-14
 -1       117 1.36165E-02-9.15267E-05-7.33334E-14
 -1       118 1.39051E-02-1.40985E-04-7.62287E-14
 -1       119 1.41917E-02-1.92220E-04-7.91346E-14
 -1       120 1.44773E-02-2.45345E-04-8.20341E-14
 -1       121 1.48021E-02-3.81347E-04-8.51317E-14
 -1       122 1.48568E-02-4.65733E-04-8.54815E-14
 -1       123 1.49132E-02-5.49102E-04-8.58278E-14
 -1       124 1.49708E-02-6.30597E-04-8.61837E-14
 -1       125 1.50288E-02-7.09757E-04-8.65508E-14
 -1       126 1.50853E-02-7.85246E-04-8.69461E-14
 -1       127 1.51411E-02-8.59980E-04-8.73674E-14
 -1       128 1.51945E-02-9.33264E-04-8.77920E-14
 -1       129 1.52451E-02-1.00594E-03-8.82233E-14
 -1       130 1.52928E-02-1.07897E-03-8.86321E-14
 -1       131 1.53379E-02-1.15327E-03-8.90388E-14
 -1       132 1.53805E-02-1.22829E-03-8.94533E-14
 -1       133 1.54231E-02-1.30706E-03-8.98716E-14
 -1       134 1.54661E-02-1.38835E-03-9.02368E-14
 -1       135 1.55106E-02-1.47171E-03-9.05623E-14
 -1       136 1.55569E-02-1.55608E-03-9.08732E-14
 -1       137 1.14748E-02-1.66273E-04-4.17606E-14
 -1       138 1.13123E-02 8.37524E-07-4.12756E-14
 -1       139 1.10693E-02 1.53517E-04-4.05939E-14
 -1       140 1.07063E-02 3.05575E-04-3.96155E-14
 -1       141 1.03231E-02 4.13780E-04-3.86143E-14
 -1       142 9.85662E-03 4.99070E-04-3.74271E-14
 -1       143 9.39763E-03 5.40310E-04-3.63026E-14
 -1       144 8.92179E-03 5.43052E-04-3.51671E-14
 -1       145 8.46615E-03 5.05291E-04-3.41197E-14
 -1       146 8.06590E-03 4.33132E-04-3.32233E-14
 -1       147 7.70679E-03 3.24762E-04-3.24464E-14
 -1       148 7.44515E-03 2.01460E-04-3.19099E-14
 -1       149 7.25602E-03 5.73585E-05-3.15566E-14
 -1       150 7.14756E-03-1.11862E-04-3.13956E-14
 -1       151 7.13898E-03-2.79652E-04-3.14509E-14
 -1       152 7.23532E-03-4.64802E-04-3.17477E-14
 -1       153 7.41209E-03-6.30240E-04-3.22107E-14
 -1       154 7.69108E-03-7.95566E-04-3.29114E-14
 -1       155 8.04085E-03-9.39565E-04-3.37686E-14
 -1       156 8.46683E-03-1.05876E-03-3.47912E-14
 -1       157 8.94263E-03-1.14141E-03-3.59346E-14
 -1       158 9.42548E-03-1.17484E-03-3.70724E-14
 -1       159 1.03759E-02-1.09777E-03-3.93108E-14
 -1       160 1.07882E-02-9.93001E-04-4.02943E-14
 -1       161 1.11151E-02-8.60488E-04-4.10806E-14
 -1       162 1.13707E-02-6.94550E-04-4.16866E-14
 -1       163 1.15083E-02-5.24555E-04-4.19859E-14
 -1       164 2.40265E-04-1.25514E-04-2.32799E-17
 -1       165 2.25207E-04-9.46379E-05-3.48198E-17
 -1       166 2.19516E-04-7.28008E-05-4.05695E-17
 -1       167 2.16755E-04-5.51281E-05-4.34968E-17
 -1       168 2.15305E-04-3.99817E-05-4.43032E-17
 -1       169 2.14497E-04-2.59222E-05-4.43269E-17
 -1       170 2.14093E-04-1.26460E-05-4.36527E-17
 -1       171 2.13976E-04 2.74553E-07-4.27345E-17
 -1       172 2.14111E-04 1.32072E-05-4.13386E-17
 -1       173 2.14536E-04 2.65223E-05-3.92651E-17
 -1       174 2.15352E-04 4.04077E-05-3.62124E-17
 -1       175 2.16862E-04 5.59336E-05-3.20178E-17
 -1       176 2.19667E-04 7.38389E-05-2.56922E-17
 -1       177 2.25376E-04 9.60345E-05-1.54804E-17
 -1       178 2.39195E-04 1.27590E-04 8.50421E-19
 -1       179 2.97487E-04 1.85450E-04 1.90820E-17
 -1       180 4.68275E-04-2.63456E-04-6.25415E-17
 -1       181 7.66176E-04-3.81882E-04-2.12666E-16
 -1       182 1.04978E-03-4.64481E-04-4.51540E-16
 -1       183 1.32692E-03-5.22820E-04-7.78162E-16
 -1       184 1.60129E-03-5.63884E-04-1.19207E-15
 -1       185 1.87498E-03-5.92312E-04-1.69295E-15
 -1       186 2.14915E-03-6.11348E-04-2.28017E-15
 -1       187 2.42445E-03-6.23344E-04-2.95158E-15
 -1       188 2.70122E-03-6.30031E-04-3.70687E-15
 -1       189 2.97962E-03-6.32678E-04-4.54321E-15
 -1       190 3.25975E-03-6.32206E-04-5.45646E-15
 -1       191 3.54170E-03-6.29275E-04-6.44297E-15
 -1       192 3.82559E-03-6.24350E-04-7.50242E-15
 -1       193 4.11164E-03-6.17773E-04-8.63188E-15
 -1       194 4.40015E-03-6.09830E-04-9.82859E-15
 -1       195 4.69160E-03-6.00829E-04-1.10941E-14
 -1       196 4.98662E-03-5.91189E-04-1.24275E-14
 -1       197 5.28605E-03-5.81570E-04-1.38318E-14
 -1       198 5.59094E-03-5.73036E-04-1.53087E-14
 -1       199 5.90254E-03-5.67286E-04-1.68605E-14
 -1       200 6.22220E-03-5.66948E-04-1.84907E-14
 -1       201 6.55127E-03-5.75944E-04-2.01938E-14
 -1       202 6.89079E-03-5.99828E-04-2.19712E-14
 -1       203 7.24097E-03-6.45848E-04-2.38179E-14
 -1       204 7.60046E-03-7.22223E-04-2.57319E-14
 -1       205 7.96549E-03-8.35698E-04-2.77095E-14
 -1       206 8.32923E-03-9.86470E-04-2.97488E-14
 -1       207 8.68262E-03-1.16098E-03-3.18564E-14
 -1       208 9.01793E-03-1.32730E-03-3.40350E-14
 -1       209 9.33467E-03-1.44158E-03-3.62849E-14
 -1       210 9.64308E-03-1.46988E-03-3.86043E-14
 -1       211 9.95896E-03-1.41115E-03-4.09973E-14
 -1       212 1.02930E-02-1.29795E-03-4.34573E-14
 -1       213 1.06455E-02-1.17428E-03-4.59789E-14
 -1       214 1.10087E-02-1.07305E-03-4.85686E-14
 -1       215 1.13736E-02-1.00875E-03-5.12253E-14
 -1       216 1.17332E-02-9.81712E-04-5.39317E-14
 -1       217 1.20835E-02-9.85381E-04-5.66824E-14
 -1       218 1.24231E-02-1.01149E-03-5.94836E-14
 -1       219 1.27521E-02-1.05264E-03-6.23438E-14
 -1       220 1.30716E-02-1.10312E-03-6.52501E-14
 -1       221 1.33828E-02-1.15880E-03-6.81987E-14
 -1       222 1.36871E-02-1.21686E-03-7.11852E-14
 -1       223 1.39860E-02-1.27539E-03-7.42068E-14
 -1       224 1.42805E-02-1.33311E-03-7.72447E-14
 -1       225 1.45716E-02-1.38913E-03-8.03006E-14
 -1       226 1.48602E-02-1.44288E-03-8.33557E-14
 -1       227 1.51472E-02-1.49410E-03-8.64247E-14
 -1       228 6.04094E-04 3.30871E-04-1.96173E-17
 -1       229 8.92931E-04 4.32274E-04-1.28190E-16
 -1       230 1.17156E-03 5.03676E-04-3.11268E-16
 -1       231 1.44565E-03 5.54255E-04-5.69918E-16
 -1       232 1.71822E-03 5.89790E-04-9.07836E-16
 -1       233 1.99092E-03 6.14211E-04-1.32535E-15
 -1       234 2.26464E-03 6.30330E-04-1.82245E-15
 -1       235 2.53983E-03 6.40212E-04-2.39951E-15
 -1       236 2.81672E-03 6.45388E-04-3.05750E-15
 -1       237 3.09542E-03 6.46988E-04-3.79307E-15
 -1       238 3.37597E-03 6.45847E-04-4.60412E-15
 -1       239 3.65844E-03 6.42583E-04-5.48867E-15
 -1       240 3.94294E-03 6.37670E-04-6.44986E-15
 -1       241 4.22966E-03 6.31514E-04-7.49022E-15
 -1       242 4.51886E-03 6.24523E-04-8.61069E-15
 -1       243 4.81090E-03 6.17190E-04-9.80529E-15
 -1       244 5.10623E-03 6.10176E-04-1.10723E-14
 -1       245 5.40533E-03 6.04411E-04-1.24102E-14
 -1       246 5.70869E-03 6.01182E-04-1.38212E-14
 -1       247 6.01664E-03 6.02204E-04-1.53060E-14
 -1       248 6.32927E-03 6.09632E-04-1.68603E-14
 -1       249 6.64618E-03 6.25945E-04-1.84853E-14
 -1       250 6.96625E-03 6.53594E-04-2.01765E-14
 -1       251 7.28747E-03 6.94326E-04-2.19373E-14
 -1       252 7.60687E-03 7.48102E-04-2.37758E-14
 -1       253 7.92080E-03 8.11747E-04-2.56805E-14
 -1       254 8.22572E-03 8.77836E-04-2.76402E-14
 -1       255 8.51943E-03 9.34732E-04-2.96599E-14
 -1       256 8.80240E-03 9.68660E-04-3.17407E-14
 -1       257 9.07838E-03 9.67808E-04-3.38892E-14
 -1       258 9.35354E-03 9.26823E-04-3.61115E-14
 -1       259 9.63434E-03 8.49088E-04-3.84103E-14
 -1       260 9.92524E-03 7.45254E-04-4.07816E-14
 -1       261 1.02275E-02 6.29035E-04-4.32280E-14
 -1       262 1.05394E-02 5.12817E-04-4.57459E-14
 -1       263 1.08575E-02 4.05056E-04-4.83220E-14
 -1       264 1.11783E-02 3.09835E-04-5.09484E-14
 -1       265 1.14984E-02 2.27784E-04-5.36242E-14
 -1       266 1.18156E-02 1.57426E-04-5.63533E-14
 -1       267 1.21286E-02 9.63317E-05-5.91301E-14
 -1       268 1.24369E-02 4.18996E-05-6.19366E-14
 -1       269 1.27405E-02-8.23621E-06-6.47672E-14
 -1       270 1.30397E-02-5.60444E-05-6.76148E-14
 -1       271 1.33350E-02-1.03083E-04-7.04742E-14
 -1       272 1.36270E-02-1.50548E-04-7.33411E-14
 -1       273 1.39165E-02-1.99332E-04-7.62314E-14
 -1       274 1.42041E-02-2.50038E-04-7.91290E-14
 -1       275 1.44904E-02-3.02860E-04-8.20250E-14
 -1       276 1.45818E-02-3.76033E-04-8.27987E-14
 -1       277 1.46376E-02-4.59224E-04-8.31510E-14
 -1       278 1.46952E-02-5.41080E-04-8.35083E-14
 -1       279 1.47537E-02-6.21263E-04-8.38775E-14
 -1       280 1.48112E-02-6.98339E-04-8.42550E-14
 -1       281 1.48684E-02-7.75090E-04-8.46578E-14
 -1       282 1.49235E-02-8.50527E-04-8.50666E-14
 -1       283 1.49756E-02-9.25191E-04-8.54789E-14
 -1       284 1.50246E-02-9.99741E-04-8.58810E-14
 -1       285 1.50707E-02-1.07487E-03-8.62742E-14
 -1       286 1.51136E-02-1.14988E-03-8.66573E-14
 -1       287 1.51558E-02-1.22784E-03-8.70347E-14
 -1       288 1.51979E-02-1.30766E-03-8.73925E-14
 -1       289 1.52410E-02-1.38929E-03-8.77276E-14
 -1       290 1.51935E-02-1.44147E-03-8.70820E-14
 -1       291 1.15410E-02-3.05824E-04-4.28900E-14
 -1       292 1.13827E-02-2.04378E-04-4.25171E-14
 -1       293 1.11139E-02-7.17458E-05-4.18063E-14
 -1       294 1.07379E-02 9.31540E-05-4.08881E-14
 -1       295 1.03524E-02 2.98137E-04-3.95705E-14
 -1       296 9.93041E-03 4.67867E-04-3.83262E-14
 -1       297 9.55160E-03 5.83713E-04-3.69126E-14
 -1       298 9.17277E-03 6.26229E-04-3.55702E-14
 -1       299 8.78665E-03 5.70916E-04-3.43188E-14
 -1       300 8.40595E-03 4.54658E-04-3.31930E-14
 -1       301 8.03645E-03 2.93330E-04-3.21469E-14
 -1       302 7.67525E-03 1.43497E-04-3.14789E-14
 -1       303 7.39184E-03 9.90624E-06-3.09688E-14
 -1       304 7.18749E-03-1.06979E-04-3.06183E-14
 -1       305 7.10206E-03-1.99591E-04-3.04477E-14
 -1       306 7.16186E-03-2.84850E-04-3.06015E-14
 -1       307 7.35443E-03-4.18129E-04-3.12567E-14
 -1       308 7.65600E-03-5.57457E-04-3.18333E-14
 -1       309 8.04312E-03-7.38460E-04-3.26689E-14
 -1       310 8.42741E-03-9.54106E-04-3.38674E-14
 -1       311 8.85797E-03-1.13494E-03-3.50857E-14
 -1       312 9.23635E-03-1.23472E-03-3.64767E-14
 -1       313 9.62508E-03-1.24727E-03-3.78369E-14
 -1       314 1.00260E-02-1.15843E-03-3.91552E-14
 -1       315 1.04335E-02-1.00357E-03-4.03926E-14
 -1       316 1.08239E-02-8.23842E-04-4.14493E-14
 -1       317 1.11689E-02-6.41187E-04-4.24031E-14
 -1       318 1.14355E-02-5.12252E-04-4.28208E-14
 -1       319 1.15637E-02-4.02254E-04-4.30891E-14
 -1       320 4.55324E-04-1.64755E-04-1.37897E-16
 -1       321 4.74043E-04-2.12916E-04-1.19977E-16
 -1       322 4.40587E-04-9.39852E-05-1.52300E-16
 -1       323 4.37687E-04-6.48839E-05-1.53357E-16
 -1       324 4.36106E-04-3.78859E-05-1.52622E-16
 -1       325 4.35414E-04-1.20084E-05-1.50121E-16
 -1       326 4.35443E-04 1.35324E-05-1.46384E-16
 -1       327 4.36199E-04 3.94667E-05-1.41177E-16
 -1       328 4.37823E-04 6.61153E-05-1.33950E-16
 -1       329 4.40814E-04 9.53858E-05-1.23809E-16
 -1       330 4.46110E-04 1.28294E-04-1.10070E-16
 -1       331 4.55825E-04 1.67264E-04-8.98973E-17
 -1       332 4.75674E-04 2.16980E-04-6.05764E-17
 -1       333 5.31681E-04 2.69863E-04-4.47538E-17
 -1       334 8.23969E-04 3.73197E-04-1.60838E-16
 -1       335 8.62820E-04-3.57068E-04-3.67992E-16
 -1       336 1.14903E-03-4.25468E-04-6.59530E-16
 -1       337 1.43169E-03-4.74110E-04-1.03592E-15
 -1       338 1.71232E-03-5.08103E-04-1.49683E-15
 -1       339 1.99206E-03-5.31183E-04-2.04270E-15
 -1       340 2.27172E-03-5.46107E-04-2.67157E-15
 -1       341 2.55180E-03-5.54908E-04-3.38192E-15
 -1       342 2.83265E-03-5.59084E-04-4.17339E-15
 -1       343 3.11447E-03-5.59725E-04-5.04271E-15
 -1       344 3.39741E-03-5.57607E-04-5.98604E-15
 -1       345 3.68162E-03-5.53273E-04-7.00391E-15
 -1       346 3.96725E-03-5.47104E-04-8.09327E-15
 -1       347 4.25452E-03-5.39381E-04-9.25105E-15
 -1       348 4.54370E-03-5.30360E-04-1.04787E-14
 -1       349 4.83516E-03-5.20354E-04-1.17734E-14
 -1       350 5.12936E-03-5.09840E-04-1.31363E-14
 -1       351 5.42689E-03-4.99593E-04-1.45693E-14
 -1       352 5.72845E-03-4.90879E-04-1.60772E-14
 -1       353 6.03491E-03-4.85701E-04-1.76635E-14
 -1       354 6.34725E-03-4.87126E-04-1.93245E-14
 -1       355 6.66667E-03-4.99650E-04-2.10584E-14
 -1       356 6.99457E-03-5.29507E-04-2.28662E-14
 -1       357 7.33245E-03-5.84647E-04-2.47399E-14
 -1       358 7.68155E-03-6.73779E-04-2.66763E-14
 -1       359 8.04155E-03-8.03416E-04-2.86758E-14
 -1       360 8.40837E-03-9.71516E-04-3.07384E-14
 -1       361 8.77309E-03-1.15776E-03-3.28727E-14
 -1       362 9.12586E-03-1.31850E-03-3.50785E-14
 -1       363 9.46589E-03-1.39998E-03-3.73556E-14
 -1       364 9.80555E-03-1.37555E-03-3.97069E-14
 -1       365 1.01574E-02-1.26936E-03-4.21296E-14
 -1       366 1.05216E-02-1.13452E-03-4.46146E-14
 -1       367 1.08885E-02-1.01610E-03-4.71621E-14
 -1       368 1.12488E-02-9.35513E-04-4.97764E-14
 -1       369 1.15984E-02-8.95566E-04-5.24438E-14
 -1       370 1.19366E-02-8.89995E-04-5.51664E-14
 -1       371 1.22647E-02-9.10069E-04-5.79304E-14
 -1       372 1.25842E-02-9.47712E-04-6.07472E-14
 -1       373 1.28965E-02-9.96518E-04-6.36192E-14
 -1       374 1.32028E-02-1.05181E-03-6.65360E-14
 -1       375 1.35041E-02-1.11033E-03-6.94896E-14
 -1       376 1.38013E-02-1.16987E-03-7.24777E-14
 -1       377 1.40952E-02-1.22895E-03-7.54915E-14
 -1       378 1.43864E-02-1.28657E-03-7.85263E-14
 -1       379 1.46756E-02-1.34204E-03-8.15727E-14
 -1       380 1.49350E-02-1.39287E-03-8.43193E-14
 -1       381 1.10926E-03 4.47189E-04-3.49100E-16
 -1       382 1.38984E-03 4.99763E-04-6.11951E-16
 -1       383 1.66800E-03 5.36681E-04-9.51933E-16
 -1       384 1.94531E-03 5.62017E-04-1.37129E-15
 -1       385 2.22272E-03 5.78717E-04-1.86921E-15
 -1       386 2.50084E-03 5.88946E-04-2.44679E-15
 -1       387 2.78000E-03 5.94307E-04-3.10424E-15
 -1       388 3.06040E-03 5.95979E-04-3.83857E-15
 -1       389 3.34219E-03 5.94826E-04-4.64747E-15
 -1       390 3.62547E-03 5.91481E-04-5.53027E-15
 -1       391 3.91037E-03 5.86419E-04-6.48798E-15
 -1       392 4.19707E-03 5.80036E-04-7.52319E-15
 -1       393 4.48578E-03 5.72718E-04-8.63813E-15
 -1       394 4.77682E-03 5.64923E-04-9.82777E-15
 -1       395 5.07053E-03 5.57271E-04-1.10913E-14
 -1       396 5.36733E-03 5.50637E-04-1.24240E-14
 -1       397 5.66763E-03 5.46254E-04-1.38306E-14
 -1       398 5.97180E-03 5.45790E-04-1.53102E-14
 -1       399 6.28005E-03 5.51384E-04-1.68627E-14
 -1       400 6.59234E-03 5.65562E-04-1.84821E-14
 -1       401 6.90817E-03 5.90947E-04-2.01691E-14
 -1       402 7.22640E-03 6.29638E-04-2.19220E-14
 -1       403 7.54514E-03 6.82174E-04-2.37521E-14
 -1       404 7.86166E-03 7.46122E-04-2.56515E-14
 -1       405 8.17289E-03 8.14692E-04-2.76085E-14
 -1       406 8.47629E-03 8.76327E-04-2.96248E-14
 -1       407 8.77121E-03 9.16403E-04-3.17049E-14
 -1       408 9.05997E-03 9.21451E-04-3.38510E-14
 -1       409 9.34742E-03 8.84460E-04-3.60710E-14
 -1       410 9.63898E-03 8.08088E-04-3.83656E-14
 -1       411 9.93829E-03 7.03410E-04-4.07329E-14
 -1       412 1.02460E-02 5.85181E-04-4.31747E-14
 -1       413 1.05603E-02 4.66758E-04-4.56881E-14
 -1       414 1.08782E-02 3.57176E-04-4.82578E-14
 -1       415 1.11966E-02 2.60720E-04-5.08811E-14
 -1       416 1.15134E-02 1.78004E-04-5.35510E-14
 -1       417 1.18270E-02 1.07442E-04-5.62739E-14
 -1       418 1.21367E-02 4.64795E-05-5.90455E-14
 -1       419 1.24422E-02-7.59602E-06-6.18485E-14
 -1       420 1.27436E-02-5.72379E-05-6.46773E-14
 -1       421 1.30413E-02-1.04478E-04-6.75184E-14
 -1       422 1.33358E-02-1.50915E-04-7.03740E-14
 -1       423 1.36276E-02-1.97776E-04-7.32433E-14
 -1       424 1.39171E-02-2.45972E-04-7.61274E-14
 -1       425 1.42049E-02-2.96140E-04-7.90181E-14
 -1       426 1.43936E-02-3.35633E-04-8.09084E-14
 -1       427 1.44779E-02-5.35251E-04-8.11917E-14
 -1       428 1.44191E-02-4.54216E-04-8.08245E-14
 -1       429 1.44056E-02-3.95291E-04-8.08658E-14
 -1       430 1.45362E-02-6.13334E-04-8.15599E-14
 -1       431 1.45948E-02-6.91214E-04-8.19478E-14
 -1       432 1.46515E-02-7.67757E-04-8.23431E-14
 -1       433 1.47055E-02-8.43355E-04-8.27372E-14
 -1       434 1.47562E-02-9.18520E-04-8.31305E-14
 -1       435 1.48035E-02-9.93835E-04-8.35140E-14
 -1       436 1.48470E-02-1.06859E-03-8.38785E-14
 -1       437 1.48892E-02-1.14585E-03-8.42375E-14
 -1       438 1.49305E-02-1.22471E-03-8.45808E-14
 -1       439 1.49722E-02-1.30533E-03-8.49081E-14
 -1       440 1.12383E-02-2.17572E-04-4.32828E-14
 -1       441 1.15875E-02-3.65822E-04-4.41460E-14
 -1       442 1.14881E-02-3.08552E-04-4.38279E-14
 -1       443 1.09053E-02-7.98852E-05-4.24114E-14
 -1       444 1.04333E-02 1.63327E-04-4.08004E-14
 -1       445 4.45646E-04-1.26454E-04-1.47628E-16
 -1       446 9.64906E-03 5.63089E-04-3.76534E-14
 -1       447 9.36016E-03 6.44971E-04-3.62954E-14
 -1       448 8.98185E-03 6.31237E-04-3.46063E-14
 -1       449 8.65323E-03 5.28159E-04-3.32109E-14
 -1       450 8.30158E-03 3.66767E-04-3.21167E-14
 -1       451 7.87955E-03 1.60501E-04-3.10136E-14
 -1       452 7.55560E-03 1.84856E-05-3.04361E-14
 -1       453 7.28714E-03-9.48267E-05-2.98548E-14
 -1       454 7.11795E-03-1.65332E-04-2.95104E-14
 -1       455 7.09301E-03-2.15336E-04-2.94989E-14
 -1       456 7.27145E-03-3.01233E-04-3.01420E-14
 -1       457 7.51233E-03-4.02657E-04-3.07008E-14
 -1       458 7.87230E-03-5.67036E-04-3.14745E-14
 -1       459 8.33572E-03-8.30495E-04-3.28868E-14
 -1       460 8.69728E-03-1.03438E-03-3.40763E-14
 -1       461 9.13455E-03-1.23507E-03-3.58300E-14
 -1       462 9.42766E-03-1.29047E-03-3.71808E-14
 -1       463 9.80276E-03-1.23618E-03-3.88890E-14
 -1       464 1.01703E-02-1.08378E-03-4.03315E-14
 -1       465 1.05666E-02-8.77604E-04-4.17370E-14
 -1       466 1.09448E-02-6.87652E-04-4.27620E-14
 -1       467 1.13202E-02-5.13679E-04-4.37911E-14
 -1       468 1.15117E-02-4.34202E-04-4.40679E-14
 -1       469 1.00858E-02 3.51133E-04-3.95299E-14
 -1       470 1.11563E-02-5.75764E-04-4.41503E-14
 -1       471 8.95069E-03-1.16017E-03-3.48027E-14
 -1       472 8.11356E-03-6.73740E-04-3.16811E-14
 -1       473 9.30909E-04 3.45621E-04-3.11400E-16
 -1       474 6.66177E-04-7.50434E-05-3.25149E-16
 -1       475 6.70062E-04-1.15770E-04-3.24746E-16
 -1       476 6.63562E-04 1.10794E-06-3.16079E-16
 -1       477 6.64265E-04 3.87225E-05-3.07144E-16
 -1       478 6.66359E-04 7.67344E-05-2.95144E-16
 -1       479 6.70370E-04 1.17612E-04-2.78806E-16
 -1       480 6.77259E-04 1.62204E-04-2.57342E-16
 -1       481 6.89009E-04 2.12545E-04-2.28164E-16
 -1       482 1.06523E-02 1.62795E-05-4.24657E-14
 -1       483 1.21670E-03 4.05709E-04-5.54773E-16
 -1       484 9.76052E-04-3.28195E-04-5.39021E-16
 -1       485 9.83851E-03 4.69813E-04-3.88543E-14
 -1       486 1.26193E-03-3.82619E-04-8.79647E-16
 -1       487 1.54692E-03-4.21756E-04-1.30259E-15
 -1       488 1.83105E-03-4.48953E-04-1.80818E-15
 -1       489 2.11466E-03-4.67055E-04-2.39596E-15
 -1       490 2.39807E-03-4.78278E-04-3.06389E-15
 -1       491 2.68158E-03-4.84300E-04-3.81100E-15
 -1       492 2.96539E-03-4.86369E-04-4.63646E-15
 -1       493 3.24966E-03-4.85386E-04-5.53796E-15
 -1       494 3.53450E-03-4.81989E-04-6.51335E-15
 -1       495 3.82003E-03-4.76616E-04-7.56115E-15
 -1       496 4.10636E-03-4.69577E-04-8.67998E-15
 -1       497 4.39360E-03-4.61118E-04-9.86780E-15
 -1       498 4.68192E-03-4.51492E-04-1.11238E-14
 -1       499 4.97148E-03-4.41049E-04-1.24471E-14
 -1       500 5.26251E-03-4.30343E-04-1.38393E-14
 -1       501 5.55529E-03-4.20274E-04-1.53030E-14
 -1       502 5.85021E-03-4.12271E-04-1.68462E-14
 -1       503 6.14787E-03-4.08527E-04-1.84661E-14
 -1       504 6.44925E-03-4.12296E-04-2.01581E-14
 -1       505 6.75604E-03-4.28226E-04-2.19225E-14
 -1       506 7.07107E-03-4.62712E-04-2.37565E-14
 -1       507 7.39859E-03-5.24114E-04-2.56528E-14
 -1       508 7.74381E-03-6.22353E-04-2.76127E-14
 -1       509 8.11056E-03-7.66382E-04-2.96341E-14
 -1       510 8.49457E-03-9.55352E-04-3.17201E-14
 -1       511 8.88343E-03-1.16087E-03-3.38796E-14
 -1       512 9.25930E-03-1.31366E-03-3.61155E-14
 -1       513 9.62605E-03-1.34323E-03-3.84247E-14
 -1       514 1.00020E-02-1.24707E-03-4.08053E-14
 -1       515 1.03895E-02-1.09395E-03-4.32539E-14
 -1       516 1.07746E-02-9.54340E-04-4.57637E-14
 -1       517 1.11424E-02-8.59040E-04-4.83365E-14
 -1       518 1.14886E-02-8.09808E-04-5.09725E-14
 -1       519 1.18169E-02-7.97920E-04-5.36590E-14
 -1       520 1.21323E-02-8.13368E-04-5.63899E-14
 -1       521 1.24393E-02-8.47648E-04-5.91678E-14
 -1       522 1.27408E-02-8.94207E-04-6.20019E-14
 -1       523 1.30384E-02-9.48230E-04-6.48845E-14
 -1       524 1.33332E-02-1.00629E-03-6.78044E-14
 -1       525 1.36259E-02-1.06602E-03-7.07615E-14
 -1       526 1.39167E-02-1.12579E-03-7.37488E-14
 -1       527 1.42061E-02-1.18449E-03-7.67622E-14
 -1       528 1.44942E-02-1.24135E-03-7.97880E-14
 -1       529 1.78346E-03 4.78877E-04-1.26780E-15
 -1       530 2.06548E-03 4.99130E-04-1.74136E-15
 -1       531 2.34734E-03 5.11990E-04-2.29210E-15
 -1       532 2.62943E-03 5.19291E-04-2.92097E-15
 -1       533 2.91202E-03 5.22395E-04-3.62892E-15
 -1       534 3.19528E-03 5.22304E-04-4.41143E-15
 -1       535 3.47936E-03 5.19744E-04-5.26659E-15
 -1       536 3.76439E-03 5.15245E-04-6.19503E-15
 -1       537 4.05049E-03 5.09212E-04-7.19922E-15
 -1       538 4.33783E-03 5.02002E-04-8.28024E-15
 -1       539 4.62661E-03 4.93993E-04-9.43846E-15
 -1       540 4.91710E-03 4.85671E-04-1.06702E-14
 -1       541 5.20960E-03 4.77717E-04-1.19737E-14
 -1       542 5.50451E-03 4.71113E-04-1.33484E-14
 -1       543 5.80228E-03 4.67228E-04-1.47984E-14
 -1       544 6.10341E-03 4.67905E-04-1.63217E-14
 -1       545 6.40845E-03 4.75476E-04-1.79125E-14
 -1       546 6.71787E-03 4.92656E-04-1.95711E-14
 -1       547 7.03194E-03 5.22206E-04-2.12939E-14
 -1       548 7.35036E-03 5.66215E-04-2.30881E-14
 -1       549 7.67187E-03 6.24876E-04-2.49537E-14
 -1       550 7.99383E-03 6.94727E-04-2.68861E-14
 -1       551 8.31253E-03 7.66817E-04-2.88780E-14
 -1       552 8.62452E-03 8.26423E-04-3.09319E-14
 -1       553 8.92898E-03 8.55916E-04-3.30513E-14
 -1       554 9.22914E-03 8.41463E-04-3.52412E-14
 -1       555 9.53095E-03 7.80025E-04-3.75053E-14
 -1       556 9.83926E-03 6.81104E-04-3.98406E-14
 -1       557 1.01551E-02 5.61524E-04-4.22519E-14
 -1       558 1.04760E-02 4.37996E-04-4.47350E-14
 -1       559 1.07980E-02 3.22241E-04-4.72819E-14
 -1       560 1.11179E-02 2.20044E-04-4.98804E-14
 -1       561 1.14339E-02 1.32661E-04-5.25283E-14
 -1       562 1.17453E-02 5.86511E-05-5.52293E-14
 -1       563 1.20520E-02-4.61352E-06-5.79800E-14
 -1       564 1.23546E-02-6.00073E-05-6.07714E-14
 -1       565 1.26535E-02-1.10164E-04-6.35891E-14
 -1       566 1.29494E-02-1.57283E-04-6.64179E-14
 -1       567 1.32426E-02-2.03104E-04-6.92606E-14
 -1       568 1.35336E-02-2.48959E-04-7.21273E-14
 -1       569 1.38229E-02-2.95855E-04-7.50048E-14
 -1       570 1.41107E-02-3.44536E-04-7.78858E-14
 -1       571 1.43204E-02-6.08702E-04-7.92412E-14
 -1       572 1.43791E-02-6.85845E-04-7.96201E-14
 -1       573 1.42012E-02-4.51063E-04-7.85036E-14
 -1       574 1.42609E-02-5.30695E-04-7.88684E-14
 -1       575 1.44351E-02-7.61767E-04-8.00014E-14
 -1       576 1.44877E-02-8.36916E-04-8.03808E-14
 -1       577 1.45366E-02-9.11846E-04-8.07515E-14
 -1       578 1.45812E-02-9.85884E-04-8.11064E-14
 -1       579 1.46235E-02-1.06217E-03-8.14525E-14
 -1       580 1.46641E-02-1.13992E-03-8.17891E-14
 -1       581 1.47042E-02-1.21950E-03-8.21138E-14
 -1       582 1.15779E-02-3.58582E-04-4.51365E-14
 -1       583 1.11057E-02-1.94475E-04-4.40075E-14
 -1       584 1.50075E-03 4.48799E-04-8.72952E-16
 -1       585 1.16059E-02-4.01364E-04-4.54911E-14
 -1       586 1.14120E-02-3.04992E-04-4.47982E-14
 -1       587 1.02455E-02 2.40901E-04-4.07437E-14
 -1       588 7.65886E-03-4.32907E-04-3.01568E-14
 -1       589 7.14510E-03-2.31933E-04-2.88720E-14
 -1       590 6.64158E-04-3.64715E-05-3.22198E-16
 -1       591 8.84438E-03 6.10738E-04-3.36379E-14
 -1       592 9.48256E-03 6.24906E-04-3.70119E-14
 -1       593 9.13791E-03 6.72395E-04-3.51039E-14
 -1       594 8.45979E-03 4.46025E-04-3.19392E-14
 -1       595 8.09202E-03 2.55477E-04-3.07911E-14
 -1       596 7.68849E-03 6.13094E-05-2.97864E-14
 -1       597 7.41259E-03-5.15362E-05-2.92162E-14
 -1       598 7.16777E-03-1.32885E-04-2.85827E-14
 -1       599 7.05642E-03-1.81416E-04-2.85910E-14
 -1       600 7.37151E-03-3.13682E-04-2.95509E-14
 -1       601 9.99510E-03-1.17481E-03-4.01427E-14
 -1       602 8.53232E-03-9.18532E-04-3.29299E-14
 -1       603 9.30781E-03-1.29472E-03-3.65391E-14
 -1       604 9.62668E-03-1.30574E-03-3.83097E-14
 -1       605 1.03550E-02-9.87840E-04-4.17375E-14
 -1       606 1.07740E-02-7.59983E-04-4.33076E-14
 -1       607 1.14608E-02-4.56993E-04-4.51463E-14
 -1       608 7.12484E-04-2.51638E-04-3.05650E-16
 -1       609 7.03520E-04 2.90696E-04-1.60957E-16
 -1       610 6.76775E-04-1.59907E-04-3.20131E-16
 -1       611 8.76102E-03-1.06183E-03-3.36350E-14
 -1       612 7.04236E-03-1.94714E-04-2.79730E-14
 -1       613 1.13456E-02-5.10994E-04-4.55088E-14
 -1       614 7.86240E-03-5.31464E-04-3.03508E-14
 -1       615 1.46892E-02-1.28009E-03-8.18470E-14
 -1       616 9.00243E-04 7.39611E-05-5.20387E-16
 -1       617 8.98193E-04 2.51295E-05-5.37243E-16
 -1       618 9.12109E-04 1.77918E-04-4.69168E-16
 -1       619 9.24296E-04 2.36429E-04-4.31634E-16
 -1       620 1.10530E-02-6.47043E-04-4.50129E-14
 -1       621 1.04877E-03 3.13381E-04-4.84337E-16
 -1       622 1.38332E-03-3.35976E-04-1.11156E-15
 -1       623 1.66954E-03-3.66188E-04-1.57840E-15
 -1       624 1.95579E-03-3.87009E-04-2.12614E-15
 -1       625 2.24189E-03-4.00522E-04-2.75321E-15
 -1       626 2.52784E-03-4.08437E-04-3.45786E-15
 -1       627 2.81367E-03-4.12080E-04-4.23973E-15
 -1       628 3.09945E-03-4.12444E-04-5.09855E-15
 -1       629 3.38522E-03-4.10247E-04-6.03098E-15
 -1       630 3.67103E-03-4.05992E-04-7.03770E-15
 -1       631 3.95689E-03-4.00032E-04-8.11517E-15
 -1       632 4.24279E-03-3.92624E-04-9.26219E-15
 -1       633 4.52873E-03-3.83999E-04-1.04794E-14
 -1       634 4.81467E-03-3.74434E-04-1.17637E-14
 -1       635 5.10054E-03-3.64326E-04-1.31159E-14
 -1       636 5.38628E-03-3.54303E-04-1.45392E-14
 -1       637 5.67186E-03-3.45338E-04-1.60379E-14
 -1       638 5.95738E-03-3.38895E-04-1.76164E-14
 -1       639 6.24323E-03-3.37103E-04-1.92651E-14
 -1       640 6.53052E-03-3.42971E-04-2.09865E-14
 -1       641 6.82159E-03-3.60708E-04-2.27803E-14
 -1       642 7.12095E-03-3.96315E-04-2.46369E-14
 -1       643 7.43623E-03-4.58784E-04-2.65563E-14
 -1       644 7.77714E-03-5.61427E-04-2.85385E-14
 -1       645 8.15505E-03-7.21331E-04-3.05801E-14
 -1       646 1.02639E-02-1.07079E-03-4.19078E-14
 -1       647 1.06744E-02-8.97094E-04-4.43822E-14
 -1       648 1.10543E-02-7.83761E-04-4.69181E-14
 -1       649 1.13993E-02-7.27884E-04-4.95196E-14
 -1       650 1.17178E-02-7.13436E-04-5.21716E-14
 -1       651 1.20197E-02-7.26839E-04-5.48733E-14
 -1       652 1.23128E-02-7.58859E-04-5.76202E-14
 -1       653 1.26016E-02-8.03185E-04-6.04168E-14
 -1       654 1.28886E-02-8.55337E-04-6.32631E-14
 -1       655 1.31749E-02-9.12082E-04-6.61515E-14
 -1       656 1.34611E-02-9.71092E-04-6.90764E-14
 -1       657 1.37473E-02-1.03071E-03-7.20363E-14
 -1       658 1.40334E-02-1.08977E-03-7.50268E-14
 -1       659 1.43193E-02-1.14744E-03-7.80339E-14
 -1       660 2.19063E-03 4.33619E-04-2.12739E-15
 -1       661 1.39153E-02-4.02653E-04-7.56197E-14
 -1       662 1.90557E-03 4.18099E-04-1.60197E-15
 -1       663 2.76039E-03 4.47782E-04-3.40949E-15
 -1       664 3.04537E-03 4.49016E-04-4.16527E-15
 -1       665 3.33057E-03 4.47536E-04-4.99446E-15
 -1       666 3.61606E-03 4.43932E-04-5.89588E-15
 -1       667 3.90195E-03 4.38632E-04-6.87108E-15
 -1       668 4.18832E-03 4.31977E-04-7.92042E-15
 -1       669 4.47530E-03 4.24283E-04-9.04581E-15
 -1       670 4.76305E-03 4.15913E-04-1.02454E-14
 -1       671 5.05181E-03 4.07362E-04-1.15201E-14
 -1       672 5.34188E-03 3.99339E-04-1.28656E-14
 -1       673 5.63375E-03 3.92865E-04-1.42839E-14
 -1       674 5.92804E-03 3.89366E-04-1.57782E-14
 -1       675 6.22566E-03 3.90759E-04-1.73416E-14
 -1       676 6.52777E-03 3.99495E-04-1.89719E-14
 -1       677 6.83572E-03 4.18504E-04-2.06673E-14
 -1       678 7.15079E-03 4.50921E-04-2.24276E-14
 -1       679 7.47355E-03 4.99351E-04-2.42609E-14
 -1       680 7.80301E-03 5.64409E-04-2.61613E-14
 -1       681 8.13548E-03 6.42001E-04-2.81269E-14
 -1       682 8.46499E-03 7.20339E-04-3.01540E-14
 -1       683 8.78624E-03 7.78863E-04-3.22461E-14
 -1       684 9.09908E-03 7.94410E-04-3.44072E-14
 -1       685 9.40989E-03 7.53354E-04-3.66383E-14
 -1       686 9.72680E-03 6.61004E-04-3.89436E-14
 -1       687 1.00529E-02 5.37782E-04-4.13255E-14
 -1       688 1.03848E-02 4.06621E-04-4.37820E-14
 -1       689 1.07162E-02 2.83680E-04-4.63039E-14
 -1       690 1.10423E-02 1.76194E-04-4.88795E-14
 -1       691 1.13609E-02 8.53392E-05-5.15073E-14
 -1       692 1.16720E-02 9.15692E-06-5.41864E-14
 -1       693 1.19765E-02-5.54289E-05-5.69207E-14
 -1       694 1.22760E-02-1.11560E-04-5.96920E-14
 -1       695 1.25716E-02-1.62007E-04-6.24966E-14
 -1       696 1.28643E-02-2.09038E-04-6.53177E-14
 -1       697 1.31550E-02-2.54431E-04-6.81506E-14
 -1       698 1.34442E-02-2.99543E-04-7.10051E-14
 -1       699 1.36803E-02-3.50762E-04-7.33099E-14
 -1       700 1.42195E-02-7.56005E-04-7.76468E-14
 -1       701 1.45119E-02-1.18401E-03-8.00687E-14
 -1       702 1.41059E-02-6.05188E-04-7.69106E-14
 -1       703 1.42705E-02-8.30148E-04-7.80078E-14
 -1       704 1.41644E-02-6.81203E-04-7.72803E-14
 -1       705 1.04439E-02 1.36329E-04-4.22597E-14
 -1       706 1.16633E-02-3.93218E-04-4.67622E-14
 -1       707 1.43164E-02-9.03036E-04-7.83506E-14
 -1       708 1.43593E-02-9.77888E-04-7.86884E-14
 -1       709 1.43992E-02-1.05413E-03-7.90166E-14
 -1       710 1.44554E-02-1.11841E-03-7.95451E-14
 -1       711 7.82843E-03 1.64345E-04-2.91582E-14
 -1       712 1.15758E-02-3.58281E-04-4.65481E-14
 -1       713 1.13487E-02-2.82373E-04-4.60067E-14
 -1       714 7.24720E-03-7.64905E-05-2.77709E-14
 -1       715 1.05991E-02-8.86722E-04-4.34403E-14
 -1       716 1.16073E-02-4.38437E-04-4.69061E-14
 -1       717 7.44269E-03-3.40998E-04-2.88145E-14
 -1       718 1.62020E-03 3.94537E-04-1.15346E-15
 -1       719 2.47552E-03 4.43019E-04-2.72919E-15
 -1       720 1.09773E-03-2.94064E-04-7.25179E-16
 -1       721 9.04614E-04 1.24378E-04-4.97988E-16
 -1       722 1.09312E-02-1.10689E-04-4.44159E-14
 -1       723 9.04255E-04-1.21962E-04-5.58747E-16
 -1       724 9.30137E-03 6.79492E-04-3.59905E-14
 -1       725 8.26222E-03-7.61378E-04-3.14746E-14
 -1       726 9.66267E-03 5.64655E-04-3.82014E-14
 -1       727 1.33449E-03 3.60545E-04-7.81422E-16
 -1       728 8.20957E-03 3.58444E-04-3.03571E-14
 -1       729 7.46560E-03-1.34333E-07-2.83249E-14
 -1       730 7.19957E-03-2.50884E-04-2.81511E-14
 -1       731 7.03278E-03-1.49366E-04-2.74641E-14
 -1       732 8.64018E-03 5.66214E-04-3.22058E-14
 -1       733 8.95524E-03 6.62921E-04-3.39423E-14
 -1       734 1.00348E-02 3.67978E-04-4.02354E-14
 -1       735 9.11526E-04-1.75310E-04-5.55715E-16
 -1       736 8.98133E-04-2.30999E-05-5.49165E-16
 -1       737 9.38291E-04-2.46769E-04-5.55132E-16
 -1       738 7.05269E-03-2.08297E-04-2.72634E-14
 -1       739 9.83148E-03-1.26192E-03-3.95222E-14
 -1       740 1.40456E-02-5.28224E-04-7.65446E-14
 -1       741 1.07437E-02 3.08579E-06-4.42041E-14
 -1       742 1.15439E-02-4.78781E-04-4.72742E-14
 -1       743 7.60948E-03-4.20774E-04-2.90025E-14
 -1       744 6.96114E-03-1.63544E-04-2.68575E-14
 -1       745 7.05773E-03-1.03771E-04-2.66682E-14
 -1       746 9.00045E-04-7.16683E-05-5.56396E-16
 -1       747 1.16178E-03 2.43007E-04-7.00703E-16
 -1       748 1.79761E-03-3.07469E-04-1.86282E-15
 -1       749 2.08526E-03-3.22540E-04-2.44954E-15
 -1       750 2.37300E-03-3.31974E-04-3.11389E-15
 -1       751 2.66058E-03-3.37047E-04-3.85334E-15
 -1       752 2.94785E-03-3.38762E-04-4.66944E-15
 -1       753 3.23473E-03-3.37873E-04-5.56033E-15
 -1       754 3.52114E-03-3.34925E-04-6.52303E-15
 -1       755 3.80702E-03-3.30307E-04-7.55890E-15
 -1       756 4.09226E-03-3.24300E-04-8.66562E-15
 -1       757 4.37672E-03-3.17131E-04-9.84229E-15
 -1       758 4.66021E-03-3.09038E-04-1.10871E-14
 -1       759 4.94248E-03-3.00327E-04-1.23988E-14
 -1       760 5.22320E-03-2.91447E-04-1.37829E-14
 -1       761 5.50201E-03-2.83061E-04-1.52405E-14
 -1       762 5.77852E-03-2.76128E-04-1.67741E-14
 -1       763 6.05245E-03-2.71976E-04-1.83812E-14
 -1       764 6.32387E-03-2.72368E-04-2.00603E-14
 -1       765 6.59356E-03-2.79613E-04-2.18112E-14
 -1       766 6.86384E-03-2.96889E-04-2.36297E-14
 -1       767 7.13975E-03-3.29184E-04-2.55086E-14
 -1       768 1.13575E-02-6.30233E-04-4.80603E-14
 -1       769 1.16541E-02-6.20365E-04-5.06817E-14
 -1       770 1.19337E-02-6.36857E-04-5.33525E-14
 -1       771 1.22064E-02-6.69433E-04-5.60663E-14
 -1       772 1.24777E-02-7.12546E-04-5.88315E-14
 -1       773 1.27503E-02-7.62722E-04-6.16414E-14
 -1       774 1.30252E-02-8.17446E-04-6.44922E-14
 -1       775 1.33024E-02-8.74787E-04-6.73850E-14
 -1       776 1.35817E-02-9.33260E-04-7.03185E-14
 -1       777 1.38627E-02-9.91728E-04-7.32834E-14
 -1       778 1.41451E-02-1.04939E-03-7.62670E-14
 -1       779 2.03292E-03 3.54705E-04-1.95389E-15
 -1       780 3.18002E-03 3.74703E-04-4.71449E-15
 -1       781 2.89355E-03 3.74936E-04-3.91185E-15
 -1       782 3.75234E-03 3.67977E-04-6.53726E-15
 -1       783 4.03822E-03 3.62267E-04-7.55735E-15
 -1       784 4.32395E-03 3.55372E-04-8.65089E-15
 -1       785 4.60960E-03 3.47556E-04-9.81988E-15
 -1       786 4.89529E-03 3.39146E-04-1.10626E-14
 -1       787 5.18123E-03 3.30597E-04-1.23786E-14
 -1       788 5.46778E-03 3.22577E-04-1.37675E-14
 -1       789 5.75555E-03 3.16050E-04-1.52295E-14
 -1       790 6.04547E-03 3.12378E-04-1.67662E-14
 -1       791 6.33897E-03 3.13440E-04-1.83697E-14
 -1       792 6.63802E-03 3.21771E-04-2.00373E-14
 -1       793 6.94514E-03 3.40687E-04-2.17706E-14
 -1       794 7.26295E-03 3.74299E-04-2.35699E-14
 -1       795 7.59273E-03 4.26811E-04-2.54383E-14
 -1       796 7.93485E-03 5.00690E-04-2.73741E-14
 -1       797 8.28192E-03 5.90927E-04-2.93726E-14
 -1       798 8.62486E-03 6.80737E-04-3.14386E-14
 -1       799 8.95659E-03 7.38055E-04-3.35695E-14
 -1       800 9.27965E-03 7.30187E-04-3.57694E-14
 -1       801 9.60633E-03 6.48838E-04-3.80443E-14
 -1       802 9.94424E-03 5.18430E-04-4.03957E-14
 -1       803 1.02912E-02 3.73748E-04-4.28239E-14
 -1       804 1.06362E-02 2.39908E-04-4.53211E-14
 -1       805 1.09723E-02 1.26605E-04-4.78776E-14
 -1       806 1.12956E-02 3.34247E-05-5.04841E-14
 -1       807 1.16074E-02-4.30416E-05-5.31447E-14
 -1       808 1.19099E-02-1.07201E-04-5.58596E-14
 -1       809 1.22058E-02-1.62804E-04-5.86142E-14
 -1       810 1.24972E-02-2.12798E-04-6.13995E-14
 -1       811 1.27859E-02-2.59431E-04-6.42090E-14
 -1       812 1.30729E-02-3.04395E-04-6.70382E-14
 -1       813 1.33590E-02-3.48955E-04-6.98893E-14
 -1       814 1.13884E-03 5.88654E-05-8.09242E-16
 -1       815 1.40970E-02-8.94108E-04-7.59485E-14
 -1       816 1.40051E-02-7.49650E-04-7.52806E-14
 -1       817 1.40535E-02-8.21720E-04-7.56194E-14
 -1       818 1.17491E-02-4.31480E-04-4.86091E-14
 -1       819 1.24630E-03 3.00041E-04-7.45033E-16
 -1       820 1.74586E-03 3.37144E-04-1.45358E-15
 -1       821 7.52960E-03 9.86951E-05-2.74250E-14
 -1       822 1.13155E-02-5.70487E-04-4.66825E-14
 -1       823 9.48645E-03 6.57139E-04-3.71992E-14
 -1       824 1.14368E-03-2.52960E-04-8.13084E-16
 -1       825 1.41367E-02-9.68318E-04-7.62707E-14
 -1       826 9.07513E-03 7.09937E-04-3.44794E-14
 -1       827 3.46628E-03 3.72233E-04-5.58943E-15
 -1       828 9.87883E-03 4.80436E-04-3.96780E-14
 -1       829 1.17238E-02-3.96010E-04-4.84190E-14
 -1       830 7.32091E-03 1.15379E-05-2.68867E-14
 -1       831 1.15913E-02-3.45137E-04-4.81397E-14
 -1       832 7.24583E-03-2.84468E-04-2.74713E-14
 -1       833 1.51051E-03-2.85234E-04-1.35473E-15
 -1       834 9.10792E-03-1.24458E-03-3.53314E-14
 -1       835 8.35849E-03 5.00830E-04-3.04079E-14
 -1       836 1.02590E-02 2.70321E-04-4.18446E-14
 -1       837 7.91900E-03 2.85081E-04-2.86005E-14
 -1       838 1.12417E-02-2.08140E-04-4.68638E-14
 -1       839 1.13750E-03 1.20195E-06-8.29791E-16
 -1       840 1.10849E-02-1.14185E-04-4.66478E-14
 -1       841 7.07272E-03-2.33337E-04-2.65943E-14
 -1       842 1.38318E-02-5.26148E-04-7.42188E-14
 -1       843 7.44677E-03-3.95727E-04-2.74596E-14
 -1       844 1.10236E-02-6.91034E-04-4.54978E-14
 -1       845 2.31997E-03 3.65940E-04-2.53024E-15
 -1       846 1.05577E-02 1.36462E-04-4.37806E-14
 -1       847 2.60686E-03 3.72303E-04-3.18264E-15
 -1       848 1.35938E-02-3.99257E-04-7.21840E-14
 -1       849 1.38934E-02-6.02339E-04-7.45796E-14
 -1       850 1.14289E-03 1.17439E-04-7.81706E-16
 -1       851 1.39514E-02-6.76609E-04-7.49295E-14
 -1       852 1.14966E-03-1.75585E-04-8.51336E-16
 -1       853 1.17356E-02-4.59286E-04-4.89863E-14
 -1       854 1.49572E-03 3.22813E-04-1.06898E-15
 -1       855 6.92186E-03-1.74241E-04-2.61612E-14
 -1       856 6.93541E-03-1.28132E-04-2.60749E-14
 -1       857 1.14257E-03-1.14820E-04-8.50892E-16
 -1       858 7.09747E-03-3.12897E-05-2.58048E-14
 -1       859 1.15019E-03 1.78471E-04-7.45938E-16
 -1       860 8.79921E-03 6.58913E-04-3.28022E-14
 -1       861 1.37562E-02-4.39751E-04-7.37638E-14
 -1       862 1.38772E-02-8.83535E-04-7.35418E-14
 -1       863 1.18108E-02-3.95032E-04-5.03554E-14
 -1       864 2.21861E-03-2.55749E-04-2.77816E-15
 -1       865 2.50740E-03-2.61741E-04-3.47713E-15
 -1       866 2.79592E-03-2.64532E-04-4.25139E-15
 -1       867 3.08390E-03-2.64841E-04-5.10001E-15
 -1       868 3.37114E-03-2.63209E-04-6.02116E-15
 -1       869 3.65745E-03-2.60033E-04-7.01384E-15
 -1       870 3.94264E-03-2.55605E-04-8.07894E-15
 -1       871 4.22648E-03-2.50156E-04-9.21432E-15
 -1       872 4.50868E-03-2.43903E-04-1.04184E-14
 -1       873 4.78888E-03-2.37100E-04-1.16902E-14
 -1       874 5.06660E-03-2.30092E-04-1.30333E-14
 -1       875 5.34126E-03-2.23359E-04-1.44500E-14
 -1       876 5.61215E-03-2.17564E-04-1.59405E-14
 -1       877 5.87847E-03-2.13575E-04-1.75050E-14
 -1       878 6.13937E-03-2.12450E-04-1.91430E-14
 -1       879 6.39407E-03-2.15397E-04-2.08521E-14
 -1       880 6.64210E-03-2.23755E-04-2.26305E-14
 -1       881 6.88388E-03-2.39298E-04-2.44722E-14
 -1       882 7.57321E-03 2.25384E-04-2.65777E-14
 -1       883 1.18697E-02-5.53735E-04-5.18372E-14
 -1       884 1.21147E-02-5.88147E-04-5.45237E-14
 -1       885 1.23645E-02-6.30441E-04-5.72584E-14
 -1       886 1.26206E-02-6.78329E-04-6.00366E-14
 -1       887 1.28824E-02-7.30318E-04-6.28557E-14
 -1       888 1.31495E-02-7.85073E-04-6.57110E-14
 -1       889 1.34210E-02-8.41413E-04-6.86126E-14
 -1       890 1.36961E-02-8.98336E-04-7.15491E-14
 -1       891 4.17334E-03 2.86767E-04-8.25349E-15
 -1       892 3.88827E-03 2.92470E-04-7.18969E-15
 -1       893 4.74105E-03 2.72453E-04-1.06037E-14
 -1       894 5.02374E-03 2.64282E-04-1.18896E-14
 -1       895 5.30586E-03 2.55874E-04-1.32489E-14
 -1       896 5.58782E-03 2.47762E-04-1.46803E-14
 -1       897 5.87032E-03 2.40736E-04-1.61860E-14
 -1       898 6.15461E-03 2.35956E-04-1.77629E-14
 -1       899 6.44262E-03 2.35149E-04-1.94048E-14
 -1       900 6.73722E-03 2.40915E-04-2.11108E-14
 -1       901 7.04238E-03 2.57183E-04-2.28822E-14
 -1       902 7.36267E-03 2.89698E-04-2.47205E-14
 -1       903 1.01942E-02 3.52206E-04-4.18406E-14
 -1       904 1.12427E-02-2.54143E-05-4.94565E-14
 -1       905 1.15543E-02-9.96124E-05-5.20995E-14
 -1       906 1.18534E-02-1.60978E-04-5.47939E-14
 -1       907 1.21443E-02-2.14243E-04-5.75323E-14
 -1       908 1.24302E-02-2.62615E-04-6.03045E-14
 -1       909 1.27135E-02-3.08237E-04-6.31020E-14
 -1       910 1.29957E-02-3.52584E-04-6.59236E-14
 -1       911 1.32778E-02-3.96691E-04-6.87670E-14
 -1       912 1.15488E-02-2.95440E-04-4.91456E-14
 -1       913 1.28814E-03-2.07754E-04-1.03752E-15
 -1       914 1.18756E-02-4.36140E-04-5.05573E-14
 -1       915 4.45760E-03 2.80031E-04-9.39191E-15
 -1       916 3.02869E-03 3.01234E-04-4.42733E-15
 -1       917 1.15556E-02-5.42504E-04-4.86857E-14
 -1       918 1.13869E-03-5.63245E-05-8.43767E-16
 -1       919 7.06604E-03-2.56725E-04-2.59530E-14
 -1       920 1.92996E-03-2.45646E-04-2.15436E-15
 -1       921 7.38740E-03 1.32960E-04-2.60550E-14
 -1       922 1.64206E-03-2.30358E-04-1.60837E-15
 -1       923 1.87625E-03 2.76639E-04-1.77384E-15
 -1       924 1.09107E-02 3.56810E-06-4.62116E-14
 -1       925 1.38478E-03 9.95136E-05-1.12915E-15
 -1       926 1.38166E-03 3.38175E-05-1.16110E-15
 -1       927 3.60243E-03 2.96951E-04-6.19672E-15
 -1       928 3.31588E-03 2.99979E-04-5.27585E-15
 -1       929 2.74096E-03 3.00261E-04-3.65133E-15
 -1       930 1.35103E-02-4.46200E-04-7.10580E-14
 -1       931 1.14173E-02-2.23724E-04-4.89278E-14
 -1       932 1.38375E-02-8.12433E-04-7.32283E-14
 -1       933 1.36208E-02-5.24532E-04-7.18967E-14
 -1       934 1.37403E-02-6.71029E-04-7.25730E-14
 -1       935 1.18995E-02-4.61622E-04-5.09448E-14
 -1       936 1.37920E-02-7.41860E-04-7.29047E-14
 -1       937 2.16447E-03 2.88912E-04-2.32478E-15
 -1       938 1.62490E-03 2.68622E-04-1.34456E-15
 -1       939 1.32045E-03 2.47913E-04-9.06386E-16
 -1       940 6.90465E-03-1.92567E-04-2.55075E-14
 -1       941 6.84851E-03-1.41271E-04-2.53942E-14
 -1       942 6.94176E-03-7.19137E-05-2.52283E-14
 -1       943 7.15136E-03 7.41876E-05-2.49916E-14
 -1       944 1.27933E-03-1.41964E-04-1.03948E-15
 -1       945 1.39123E-03 1.66579E-04-1.08760E-15
 -1       946 2.06590E-03-1.80845E-04-2.45238E-15
 -1       947 2.64463E-03-1.90163E-04-3.84263E-15
 -1       948 2.93357E-03-1.91311E-04-4.64968E-15
 -1       949 3.22168E-03-1.90794E-04-5.52929E-15
 -1       950 3.50868E-03-1.88974E-04-6.48028E-15
 -1       951 3.79429E-03-1.86124E-04-7.50247E-15
 -1       952 4.07823E-03-1.82466E-04-8.59488E-15
 -1       953 4.36015E-03-1.78198E-04-9.75857E-15
 -1       954 4.63963E-03-1.73541E-04-1.09904E-14
 -1       955 4.91614E-03-1.68774E-04-1.22928E-14
 -1       956 5.18901E-03-1.64274E-04-1.36683E-14
 -1       957 5.45742E-03-1.60547E-04-1.51174E-14
 -1       958 5.72033E-03-1.58236E-04-1.66390E-14
 -1       959 5.97643E-03-1.58097E-04-1.82342E-14
 -1       960 6.22409E-03-1.60934E-04-1.99019E-14
 -1       961 6.46113E-03-1.67473E-04-2.16397E-14
 -1       962 6.68441E-03-1.78272E-04-2.34419E-14
 -1       963 1.77728E-03-1.71358E-04-1.87061E-15
 -1       964 1.22557E-02-5.56179E-04-5.56884E-14
 -1       965 1.24936E-02-6.00814E-04-5.84382E-14
 -1       966 1.27419E-02-6.49099E-04-6.12252E-14
 -1       967 1.29985E-02-7.00283E-04-6.40510E-14
 -1       968 1.32619E-02-7.53500E-04-6.69122E-14
 -1       969 1.35306E-02-8.07905E-04-6.98175E-14
 -1       970 4.02402E-03 2.17973E-04-7.85160E-15
 -1       971 2.45282E-03 2.96432E-04-2.94983E-15
 -1       972 5.14907E-03 1.91851E-04-1.27274E-14
 -1       973 4.87019E-03 1.99538E-04-1.13978E-14
 -1       974 5.70262E-03 1.75270E-04-1.56029E-14
 -1       975 5.97837E-03 1.67174E-04-1.71504E-14
 -1       976 6.25500E-03 1.60190E-04-1.87663E-14
 -1       977 6.53480E-03 1.55745E-04-2.04468E-14
 -1       978 6.82141E-03 1.56589E-04-2.21924E-14
 -1       979 7.26666E-03 1.79555E-04-2.48617E-14
 -1       980 1.15180E-02-1.61247E-04-5.10491E-14
 -1       981 1.23705E-02-3.11260E-04-5.92056E-14
 -1       982 1.26467E-02-3.55123E-04-6.19930E-14
 -1       983 1.29228E-02-3.98559E-04-6.48049E-14
 -1       984 1.31998E-02-4.42255E-04-6.76403E-14
 -1       985 1.36828E-02-5.98719E-04-7.22385E-14
 -1       986 1.18508E-02-3.62886E-04-5.19106E-14
 -1       987 1.34103E-02-4.83088E-04-6.97618E-14
 -1       988 5.42643E-03 1.83659E-04-1.41291E-14
 -1       989 1.52724E-03-1.58403E-04-1.42583E-15
 -1       990 1.20197E-02-4.43825E-04-5.27664E-14
 -1       991 1.20924E-02-2.65863E-04-5.64441E-14
 -1       992 1.18098E-02-2.17024E-04-5.37217E-14
 -1       993 1.27415E-03-7.85954E-05-1.03283E-15
 -1       994 6.87612E-03-2.02037E-04-2.49961E-14
 -1       995 1.20311E-02-5.16188E-04-5.29811E-14
 -1       996 1.38157E-03-3.12439E-05-1.18400E-15
 -1       997 1.13012E-02-1.41089E-04-4.88300E-14
 -1       998 2.35525E-03-1.86875E-04-3.11035E-15
 -1       999 4.30760E-03 2.12708E-04-8.96059E-15
 -1      1000 6.98154E-03 1.56364E-05-2.44347E-14
 -1      1001 1.62985E-03 7.27016E-05-1.53938E-15
 -1      1002 3.73906E-03 2.22230E-04-6.81491E-15
 -1      1003 1.63499E-03 1.44736E-04-1.49361E-15
 -1      1004 2.87750E-03 2.27300E-04-4.13493E-15
 -1      1005 1.20636E-02-4.71532E-04-5.31642E-14
 -1      1006 1.34751E-02-5.56809E-04-7.00937E-14
 -1      1007 1.17531E-02-3.08873E-04-5.16922E-14
 -1      1008 1.71203E-03 2.04791E-04-1.56705E-15
 -1      1009 3.16563E-03 2.27137E-04-4.95647E-15
 -1      1010 4.58970E-03 2.06532E-04-1.01432E-14
 -1      1011 1.35314E-02-6.64158E-04-7.02159E-14
 -1      1012 6.79280E-03-1.56323E-04-2.47558E-14
 -1      1013 6.81247E-03-9.57407E-05-2.45665E-14
 -1      1014 2.00031E-03 2.17214E-04-2.08823E-15
 -1      1015 1.35052E-02-6.11192E-04-7.01583E-14
 -1      1016 4.72089E-03 1.35377E-04-1.09031E-14
 -1      1017 1.91576E-03-1.08463E-04-2.13948E-15
 -1      1018 3.07331E-03-1.17800E-04-5.04712E-15
 -1      1019 3.36111E-03-1.17061E-04-5.95667E-15
 -1      1020 3.64744E-03-1.15615E-04-6.93679E-15
 -1      1021 3.93198E-03-1.13641E-04-7.98670E-15
 -1      1022 4.21437E-03-1.11309E-04-9.10715E-15
 -1      1023 4.49418E-03-1.08800E-04-1.02993E-14
 -1      1024 4.77089E-03-1.06343E-04-1.15612E-14
 -1      1025 5.04388E-03-1.04243E-04-1.28951E-14
 -1      1026 5.31233E-03-1.02907E-04-1.43023E-14
 -1      1027 5.57526E-03-1.02859E-04-1.57826E-14
 -1      1028 5.83136E-03-1.04734E-04-1.73345E-14
 -1      1029 6.07892E-03-1.09241E-04-1.89589E-14
 -1      1030 6.31553E-03-1.17101E-04-2.06531E-14
 -1      1031 6.53744E-03-1.28773E-04-2.24173E-14
 -1      1032 3.45288E-03 2.25350E-04-5.85008E-15
 -1      1033 1.23605E-02-5.31151E-04-5.68439E-14
 -1      1034 2.49481E-03-1.16233E-04-3.44483E-15
 -1      1035 1.25970E-02-5.74570E-04-5.96041E-14
 -1      1036 1.28447E-02-6.21292E-04-6.24039E-14
 -1      1037 1.31010E-02-6.70586E-04-6.52361E-14
 -1      1038 1.33641E-02-7.21681E-04-6.81018E-14
 -1      1039 2.28932E-03 2.25314E-04-2.68340E-15
 -1      1040 5.27225E-03 1.22353E-04-1.35740E-14
 -1      1041 6.08024E-03 9.60676E-05-1.81217E-14
 -1      1042 5.81315E-03 1.05679E-04-1.65333E-14
 -1      1043 6.61336E-03 7.64100E-05-2.14978E-14
 -1      1044 1.17824E-02-2.73938E-04-5.26493E-14
 -1      1045 1.28532E-02-4.41771E-04-6.36857E-14
 -1      1046 1.25847E-02-3.99443E-04-6.08802E-14
 -1      1047 5.54397E-03 1.14474E-04-1.50177E-14
 -1      1048 1.62810E-03 1.49011E-06-1.57401E-15
 -1      1049 1.32682E-02-5.15732E-04-6.79648E-14
 -1      1050 1.54907E-03-8.81517E-05-1.46255E-15
 -1      1051 1.35802E-02-7.32631E-04-7.05275E-14
 -1      1052 1.23179E-02-3.57930E-04-5.80999E-14
 -1      1053 1.20514E-02-3.16679E-04-5.53504E-14
 -1      1054 2.58870E-03 2.25419E-04-3.38586E-15
 -1      1055 4.99787E-03 1.29310E-04-1.22029E-14
 -1      1056 1.21258E-02-4.27701E-04-5.46174E-14
 -1      1057 2.78441E-03-1.17615E-04-4.20923E-15
 -1      1058 2.20503E-03-1.13317E-04-2.75439E-15
 -1      1059 6.34627E-03 8.59701E-05-1.97773E-14
 -1      1060 1.30602E-02-4.78404E-04-6.58166E-14
 -1      1061 6.77369E-03-3.64402E-05-2.35767E-14
 -1      1062 3.87631E-03 1.48559E-04-7.44389E-15
 -1      1063 6.95246E-03 6.95159E-05-2.37187E-14
 -1      1064 4.44148E-03 1.40591E-04-9.67775E-15
 -1      1065 1.87763E-03 3.94461E-05-2.01059E-15
 -1      1066 1.20564E-02-3.83695E-04-5.43998E-14
 -1      1067 1.33199E-02-6.55809E-04-6.78078E-14
 -1      1068 3.01622E-03 1.53829E-04-4.63245E-15
 -1      1069 6.71538E-03-1.14986E-04-2.39474E-14
 -1      1070 2.72725E-03 1.53253E-04-3.83743E-15
 -1      1071 1.32954E-02-6.05202E-04-6.77626E-14
 -1      1072 4.15988E-03 1.44983E-04-8.52423E-15
 -1      1073 1.88114E-03 1.15451E-04-1.96241E-15
 -1      1074 1.94000E-03 1.65738E-04-2.02822E-15
 -1      1075 6.17751E-03 2.85963E-05-1.90996E-14
 -1      1076 3.59102E-03 1.51291E-04-6.43620E-15
 -1      1077 2.34708E-03-4.34330E-05-3.05853E-15
 -1      1078 3.50219E-03-4.40182E-05-6.38045E-15
 -1      1079 3.78764E-03-4.34633E-05-7.38810E-15
 -1      1080 4.07096E-03-4.28594E-05-8.46569E-15
 -1      1081 4.35181E-03-4.23167E-05-9.61578E-15
 -1      1082 4.62972E-03-4.20155E-05-1.08370E-14
 -1      1083 4.90413E-03-4.21877E-05-1.21302E-14
 -1      1084 5.17439E-03-4.31484E-05-1.34947E-14
 -1      1085 5.43969E-03-4.53143E-05-1.49326E-14
 -1      1086 5.69904E-03-4.92144E-05-1.64425E-14
 -1      1087 5.95113E-03-5.54870E-05-1.80265E-14
 -1      1088 6.19419E-03-6.48504E-05-1.96773E-14
 -1      1089 6.42543E-03-7.80398E-05-2.13995E-14
 -1      1090 2.42730E-03 1.55552E-04-3.08656E-15
 -1      1091 2.18342E-03 1.61905E-04-2.52962E-15
 -1      1092 1.26823E-02-5.46722E-04-6.07693E-14
 -1      1093 1.29342E-02-5.91715E-04-6.35810E-14
 -1      1094 1.31252E-02-6.23386E-04-6.56851E-14
 -1      1095 6.73898E-03 9.04922E-06-2.28815E-14
 -1      1096 1.89510E-03-3.41021E-05-2.08002E-15
 -1      1097 5.39472E-03 5.62200E-05-1.44293E-14
 -1      1098 1.22165E-02-4.80088E-04-5.52238E-14
 -1      1099 1.27851E-02-4.81513E-04-6.25519E-14
 -1      1100 5.92111E-03 3.97577E-05-1.74703E-14
 -1      1101 6.42928E-03 1.51800E-05-2.07959E-14
 -1      1102 3.30424E-03 1.53098E-04-5.49853E-15
 -1      1103 1.25258E-02-4.40164E-04-5.97547E-14
 -1      1104 4.85209E-03 6.69444E-05-1.16750E-14
 -1      1105 1.24397E-02-5.04782E-04-5.79902E-14
 -1      1106 1.22711E-02-4.01025E-04-5.69831E-14
 -1      1107 5.66012E-03 4.88602E-05-1.59134E-14
 -1      1108 5.12525E-03 6.21563E-05-1.30153E-14
 -1      1109 3.21503E-03-4.44010E-05-5.44247E-15
 -1      1110 2.92650E-03-4.45094E-05-4.57522E-15
 -1      1111 2.63702E-03-4.42302E-05-3.78001E-15
 -1      1112 6.64938E-03-6.50177E-05-2.29795E-14
 -1      1113 2.12082E-03-3.88903E-05-2.54652E-15
 -1      1114 4.01444E-03 7.63541E-05-8.08537E-15
 -1      1115 4.29631E-03 7.39025E-05-9.20852E-15
 -1      1116 4.57565E-03 7.08045E-05-1.04058E-14
 -1      1117 2.10314E-03 3.75871E-05-2.46786E-15
 -1      1118 1.29864E-02-5.17775E-04-6.46787E-14
 -1      1119 6.54346E-03-2.53697E-05-2.18775E-14
 -1      1120 2.86822E-03 8.03384E-05-4.30382E-15
 -1      1121 3.73038E-03 7.82290E-05-7.03349E-15
 -1      1122 1.23336E-02-4.46528E-04-5.72045E-14
 -1      1123 3.15695E-03 8.02706E-05-5.14313E-15
 -1      1124 3.64500E-03 2.80613E-05-6.79897E-15
 -1      1125 2.56806E-03 8.42128E-05-3.50569E-15
 -1      1126 2.12475E-03 1.10407E-04-2.45641E-15
 -1      1127 1.27568E-02-5.14836E-04-6.19295E-14
 -1      1128 1.30231E-02-5.59008E-04-6.48328E-14
 -1      1129 1.25425E-02-4.79590E-04-5.95536E-14
 -1      1130 3.40142E-03 5.40851E-05-5.94416E-15
 -1      1131 2.26245E-03 5.99820E-05-2.79941E-15
 -1      1132 0.00000E+00 0.00000E+00 0.00000E+00
 -1      1133 0.00000E+00 0.00000E+00 0.00000E+00
 -1      1134 0.00000E+00 0.00000E+00 0.00000E+00
 -1      1135 0.00000E+00 0.00000E+00 0.00000E+00
 -1      1136 0.00000E+00 0.00000E+00 0.00000E+00
 -1      1137 0.00000E+00 0.00000E+00 0.00000E+00
 -1      1138 0.00000E+00 0.00000E+00 0.00000E+00
 -1      1139 0.00000E+00 0.00000E+00 0.00000E+00
 -1      1140 0.00000E+00 0.00000E+00 0.00000E+00
 -1      1141 0.00000E+00 0.00000E+00 0.00000E+00
 -1      1142 0.00000E+00 0.00000E+00 0.00000E+00
 -1      1143 0.00000E+00 0.00000E+00 0.00000E+00
 -1      1144 0.00000E+00 0.00000E+00 0.00000E+00
 -1      1145 0.00000E+00 0.00000E+00 0.00000E+00
 -1      1146 0.00000E+00 0.00000E+00 0.00000E+00
 -1      1147 0.00000E+00 0.00000E+00 0.00000E+00
 -1      1148 0.00000E+00 0.00000E+00 0.00000E+00
 -1      1149 2.11509E-04-1.48276E-04 5.88180E-18
 -1      1150 5.51155E-04-3.37365E-04-4.12403E-17
 -1      1151 8.32643E-04-4.58687E-04-1.73432E-16
 -1      1152 1.10186E-03-5.40083E-04-4.02917E-16
 -1      1153 1.36690E-03-5.96898E-04-7.23515E-16
 -1      1154 1.63133E-03-6.36990E-04-1.13329E-15
 -1      1155 1.89701E-03-6.64961E-04-1.63095E-15
 -1      1156 2.16483E-03-6.83876E-04-2.21688E-15
 -1      1157 2.43512E-03-6.95954E-04-2.88972E-15
 -1      1158 2.70797E-03-7.02844E-04-3.64788E-15
 -1      1159 2.98332E-03-7.05771E-04-4.48902E-15
 -1      1160 3.26110E-03-7.05635E-04-5.41035E-15
 -1      1161 3.54126E-03-7.03086E-04-6.40388E-15
 -1      1162 3.82385E-03-6.98598E-04-7.46938E-15
 -1      1163 4.10906E-03-6.92524E-04-8.60408E-15
 -1      1164 4.39723E-03-6.85173E-04-9.80439E-15
 -1      1165 4.68893E-03-6.76876E-04-1.10738E-14
 -1      1166 4.98501E-03-6.68081E-04-1.24108E-14
 -1      1167 5.28659E-03-6.59478E-04-1.38196E-14
 -1      1168 5.59515E-03-6.52156E-04-1.53029E-14
 -1      1169 5.91248E-03-6.47831E-04-1.68649E-14
 -1      1170 6.24062E-03-6.49141E-04-1.85044E-14
 -1      1171 6.58162E-03-6.60005E-04-2.02116E-14
 -1      1172 6.93697E-03-6.85958E-04-2.19916E-14
 -1      1173 7.30669E-03-7.34219E-04-2.38477E-14
 -1      1174 7.68780E-03-8.12901E-04-2.57705E-14
 -1      1175 8.07267E-03-9.28438E-04-2.77569E-14
 -1      1176 8.44808E-03-1.08028E-03-2.98043E-14
 -1      1177 8.79752E-03-1.25398E-03-3.19209E-14
 -1      1178 9.10855E-03-1.41753E-03-3.41101E-14
 -1      1179 9.38309E-03-1.52904E-03-3.63622E-14
 -1      1180 9.64182E-03-1.55725E-03-3.86835E-14
 -1      1181 9.91472E-03-1.50118E-03-4.10819E-14
 -1      1182 1.02234E-02-1.39082E-03-4.35505E-14
 -1      1183 1.05708E-02-1.26807E-03-4.60821E-14
 -1      1184 1.09449E-02-1.16583E-03-4.86807E-14
 -1      1185 1.13293E-02-1.09949E-03-5.13452E-14
 -1      1186 1.17105E-02-1.07013E-03-5.40645E-14
 -1      1187 1.20804E-02-1.07154E-03-5.68308E-14
 -1      1188 1.24359E-02-1.09555E-03-5.96410E-14
 -1      1189 1.27768E-02-1.13481E-03-6.25047E-14
 -1      1190 1.31047E-02-1.18361E-03-6.54249E-14
 -1      1191 1.34214E-02-1.23785E-03-6.83924E-14
 -1      1192 1.37291E-02-1.29470E-03-7.13985E-14
 -1      1193 1.40296E-02-1.35223E-03-7.44362E-14
 -1      1194 1.43246E-02-1.40914E-03-7.74823E-14
 -1      1195 1.46154E-02-1.46452E-03-8.05438E-14
 -1      1196 1.49033E-02-1.51777E-03-8.36100E-14
 -1      1197 1.51894E-02-1.56864E-03-8.66920E-14
 -1      1198 1.54677E-02-1.61641E-03-8.97119E-14
 -1      1199 2.28259E-04 1.60647E-04 2.60480E-17
 -1      1200 5.53330E-04 3.41993E-04 3.20653E-17
 -1      1201 8.33578E-04 4.60849E-04-2.80402E-17
 -1      1202 1.10277E-03 5.41763E-04-1.63986E-16
 -1      1203 1.36782E-03 5.98573E-04-3.77438E-16
 -1      1204 1.63231E-03 6.38755E-04-6.70064E-16
 -1      1205 1.89806E-03 6.66838E-04-1.04327E-15
 -1      1206 2.16594E-03 6.85884E-04-1.49460E-15
 -1      1207 2.43630E-03 6.98115E-04-2.02552E-15
 -1      1208 2.70921E-03 7.05186E-04-2.63960E-15
 -1      1209 2.98463E-03 7.08335E-04-3.33501E-15
 -1      1210 3.26248E-03 7.08482E-04-4.10644E-15
 -1      1211 3.54272E-03 7.06315E-04-4.95409E-15
 -1      1212 3.82535E-03 7.02357E-04-5.87727E-15
 -1      1213 4.11051E-03 6.97037E-04-6.87994E-15
 -1      1214 4.39844E-03 6.90761E-04-7.96436E-15
 -1      1215 4.68954E-03 6.83982E-04-9.12496E-15
 -1      1216 4.98431E-03 6.77290E-04-1.03560E-14
 -1      1217 5.28338E-03 6.71493E-04-1.16623E-14
 -1      1218 5.58738E-03 6.67717E-04-1.30431E-14
 -1      1219 5.89690E-03 6.67479E-04-1.44939E-14
 -1      1220 6.21222E-03 6.72731E-04-1.60112E-14
 -1      1221 6.53310E-03 6.85801E-04-1.75991E-14
 -1      1222 6.85843E-03 7.09150E-04-1.92633E-14
 -1      1223 7.18585E-03 7.44840E-04-2.09998E-14
 -1      1224 7.51156E-03 7.93617E-04-2.28059E-14
 -1      1225 7.83048E-03 8.53653E-04-2.46758E-14
 -1      1226 8.13713E-03 9.19303E-04-2.66099E-14
 -1      1227 8.42724E-03 9.80621E-04-2.86022E-14
 -1      1228 8.69985E-03 1.02458E-03-3.06525E-14
 -1      1229 8.95879E-03 1.03839E-03-3.27639E-14
 -1      1230 9.21234E-03 1.01388E-03-3.49485E-14
 -1      1231 9.47066E-03 9.50820E-04-3.72094E-14
 -1      1232 9.74223E-03 8.56994E-04-3.95459E-14
 -1      1233 1.00312E-02 7.45076E-04-4.19529E-14
 -1      1234 1.03368E-02 6.28181E-04-4.44376E-14
 -1      1235 1.06549E-02 5.16454E-04-4.69885E-14
 -1      1236 1.09800E-02 4.15738E-04-4.95961E-14
 -1      1237 1.13070E-02 3.27999E-04-5.22562E-14
 -1      1238 1.16319E-02 2.52549E-04-5.49691E-14
 -1      1239 1.19522E-02 1.87309E-04-5.77256E-14
 -1      1240 1.22669E-02 1.29745E-04-6.05203E-14
 -1      1241 1.25756E-02 7.74109E-05-6.33409E-14
 -1      1242 1.28786E-02 2.82047E-05-6.61806E-14
 -1      1243 1.31766E-02-1.95731E-05-6.90332E-14
 -1      1244 1.34703E-02-6.72479E-05-7.18966E-14
 -1      1245 1.37605E-02-1.15830E-04-7.47828E-14
 -1      1246 1.40482E-02-1.66047E-04-7.76847E-14
 -1      1247 1.43343E-02-2.18275E-04-8.05860E-14
 -1      1248 1.46127E-02-2.70820E-04-8.34077E-14
 -1      1249 1.47750E-02-3.38860E-04-8.49564E-14
 -1      1250 1.48290E-02-4.23341E-04-8.53074E-14
 -1      1251 1.48845E-02-5.07252E-04-8.56555E-14
 -1      1252 1.49417E-02-5.89684E-04-8.60043E-14
 -1      1253 1.49999E-02-6.70009E-04-8.63653E-14
 -1      1254 1.50574E-02-7.47336E-04-8.67446E-14
 -1      1255 1.51139E-02-8.22490E-04-8.71554E-14
 -1      1256 1.51687E-02-8.96551E-04-8.75780E-14
 -1      1257 1.52208E-02-9.69595E-04-8.80106E-14
 -1      1258 1.52698E-02-1.04251E-03-8.84290E-14
 -1      1259 1.53160E-02-1.11623E-03-8.88296E-14
 -1      1260 1.53596E-02-1.19094E-03-8.92413E-14
 -1      1261 1.54018E-02-1.26784E-03-8.96647E-14
 -1      1262 1.54443E-02-1.34787E-03-9.00572E-14
 -1      1263 1.54878E-02-1.43020E-03-9.03958E-14
 -1      1264 1.55332E-02-1.51411E-03-9.07179E-14
 -1      1265 1.55799E-02-1.59791E-03-9.10325E-14
 -1      1266 1.15601E-02-2.66206E-04-4.19110E-14
 -1      1267 1.14281E-02-1.16349E-04-4.15476E-14
 -1      1268 1.11989E-02 3.67262E-05-4.09670E-14
 -1      1269 1.08711E-02 1.99683E-04-4.01511E-14
 -1      1270 1.04800E-02 3.53031E-04-3.91585E-14
 -1      1271 1.00566E-02 4.76730E-04-3.80599E-14
 -1      1272 9.60915E-03 5.60233E-04-3.68964E-14
 -1      1273 9.16538E-03 5.86311E-04-3.57574E-14
 -1      1274 8.72048E-03 5.56727E-04-3.46559E-14
 -1      1275 8.30191E-03 4.77169E-04-3.36752E-14
 -1      1276 7.91401E-03 3.60623E-04-3.28253E-14
 -1      1277 7.58401E-03 2.26918E-04-3.21620E-14
 -1      1278 7.33246E-03 9.03335E-05-3.17131E-14
 -1      1279 7.15911E-03-5.34884E-05-3.14500E-14
 -1      1280 7.09106E-03-1.98991E-04-3.13977E-14
 -1      1281 7.13871E-03-3.50352E-04-3.15729E-14
 -1      1282 7.29677E-03-5.08483E-04-3.19625E-14
 -1      1283 7.55080E-03-6.72185E-04-3.25465E-14
 -1      1284 7.89046E-03-8.41635E-04-3.33392E-14
 -1      1285 8.28944E-03-1.00095E-03-3.42904E-14
 -1      1286 8.73558E-03-1.12972E-03-3.53861E-14
 -1      1287 9.19583E-03-1.20520E-03-3.65330E-14
 -1      1288 9.65590E-03-1.21290E-03-3.76767E-14
 -1      1289 1.01130E-02-1.15581E-03-3.87973E-14
 -1      1290 1.05482E-02-1.04344E-03-3.98329E-14
 -1      1291 1.09324E-02-8.98413E-04-4.07192E-14
 -1      1292 1.12523E-02-7.36669E-04-4.14276E-14
 -1      1293 1.14750E-02-5.74513E-04-4.18748E-14
 -1      1294 1.15787E-02-4.18663E-04-4.20324E-14
 -1      1295 1.66569E-04-1.10321E-04-7.42678E-18
 -1      1296 1.12482E-04-5.69993E-05-2.15350E-17
 -1      1297 1.17545E-04-6.75962E-05-1.75776E-17
 -1      1298 1.08400E-04-4.35274E-05-2.80131E-17
 -1      1299 1.10245E-04-4.96385E-05-2.61428E-17
 -1      1300 2.26228E-04-1.07659E-04-6.17182E-17
 -1      1301 1.06846E-04-3.36431E-05-3.11573E-17
 -1      1302 1.07680E-04-3.83673E-05-3.03441E-17
 -1      1303 2.19078E-04-8.25062E-05-7.28177E-17
 -1      1304 1.06090E-04-2.53830E-05-3.30140E-17
 -1      1305 1.06509E-04-2.94166E-05-3.26209E-17
 -1      1306 2.15886E-04-6.33214E-05-7.89028E-17
 -1      1307 1.05709E-04-1.81127E-05-3.34747E-17
 -1      1308 1.05930E-04-2.16842E-05-3.33528E-17
 -1      1309 2.14279E-04-4.72281E-05-8.17488E-17
 -1      1310 1.05499E-04-1.12519E-05-3.35561E-17
 -1      1311 1.05617E-04-1.46402E-05-3.36103E-17
 -1      1312 2.13400E-04-3.27778E-05-8.25213E-17
 -1      1313 1.05406E-04-4.69415E-06-3.30275E-17
 -1      1314 1.05456E-04-7.94994E-06-3.31224E-17
 -1      1315 2.12923E-04-1.92031E-05-8.21148E-17
 -1      1316 1.05396E-04 1.74511E-06-3.24176E-17
 -1      1317 1.05394E-04-1.47056E-06-3.26480E-17
 -1      1318 2.12719E-04-6.16318E-06-8.08950E-17
 -1      1319 1.05464E-04 8.23400E-06-3.13877E-17
 -1      1320 1.05410E-04 4.97186E-06-3.16858E-17
 -1      1321 2.12726E-04 6.71500E-06-7.90654E-17
 -1      1322 1.05632E-04 1.49488E-05-2.98291E-17
 -1      1323 1.05510E-04 1.15462E-05-3.03306E-17
 -1      1324 2.12947E-04 1.97803E-05-7.61652E-17
 -1      1325 1.05950E-04 2.19753E-05-2.74439E-17
 -1      1326 1.05723E-04 1.83815E-05-2.81486E-17
 -1      1327 2.13436E-04 3.32931E-05-7.18962E-17
 -1      1328 1.06553E-04 2.98491E-05-2.44488E-17
 -1      1329 1.06125E-04 2.57700E-05-2.55194E-17
 -1      1330 2.14344E-04 4.78318E-05-6.61092E-17
 -1      1331 1.07716E-04 3.89518E-05-2.01255E-17
 -1      1332 1.06879E-04 3.41577E-05-2.18060E-17
 -1      1333 2.16003E-04 6.42535E-05-5.85334E-17
 -1      1334 1.10224E-04 5.03753E-05-1.33221E-17
 -1      1335 1.08402E-04 4.41949E-05-1.62088E-17
 -1      1336 2.19171E-04 8.37532E-05-4.74067E-17
 -1      1337 1.16862E-04 6.76308E-05-2.88669E-18
 -1      1338 1.12129E-04 5.77971E-05-7.92823E-18
 -1      1339 2.26215E-04 1.09476E-04-3.11708E-17
 -1      1340 1.57456E-04 1.09832E-04 1.29156E-17
 -1      1341 1.35561E-04 8.60881E-05 3.44234E-18
 -1      1342 2.55860E-04 1.52087E-04-1.18449E-17
 -1      1343 3.34813E-04 2.20672E-04 1.48942E-17
 -1      1344 4.21192E-04-2.61655E-04-4.75829E-17
 -1      1345 5.74145E-04-3.36654E-04-9.27399E-17
 -1      1346 7.21188E-04-3.97172E-04-1.63904E-16
 -1      1347 8.64208E-04-4.46357E-04-2.58365E-16
 -1      1348 6.11596E-04-3.30744E-04-1.51165E-16
 -1      1349 1.00408E-03-4.87288E-04-3.75134E-16
 -1      1350 1.14177E-03-5.21100E-04-5.14861E-16
 -1      1351 9.04582E-04-4.31221E-04-3.45413E-16
 -1      1352 1.27811E-03-5.49657E-04-6.76420E-16
 -1      1353 1.41360E-03-5.73434E-04-8.60382E-16
 -1      1354 1.18676E-03-5.00288E-04-6.28349E-16
 -1      1355 1.54870E-03-5.93488E-04-1.06633E-15
 -1      1356 1.68364E-03-6.10151E-04-1.29410E-15
 -1      1357 1.46346E-03-5.48537E-04-9.98645E-16
 -1      1358 1.81869E-03-6.24042E-04-1.54386E-15
 -1      1359 1.95395E-03-6.35447E-04-1.81508E-15
 -1      1360 1.73793E-03-5.82107E-04-1.45614E-15
 -1      1361 2.08955E-03-6.44760E-04-2.10792E-15
 -1      1362 2.22555E-03-6.52223E-04-2.42276E-15
 -1      1363 2.01209E-03-6.04923E-04-1.99961E-15
 -1      1364 2.36200E-03-6.58099E-04-2.75883E-15
 -1      1365 2.49892E-03-6.62586E-04-3.11600E-15
 -1      1366 2.28694E-03-6.19732E-04-2.62846E-15
 -1      1367 2.63635E-03-6.65866E-04-3.49417E-15
 -1      1368 2.77428E-03-6.68096E-04-3.89281E-15
 -1      1369 2.56304E-03-6.28530E-04-3.34120E-15
 -1      1370 2.91274E-03-6.69397E-04-4.31172E-15
 -1      1371 3.05170E-03-6.69896E-04-4.75096E-15
 -1      1372 2.84066E-03-6.32779E-04-4.13630E-15
 -1      1373 3.19119E-03-6.69669E-04-5.20917E-15
 -1      1374 3.33120E-03-6.68817E-04-5.68627E-15
 -1      1375 3.11996E-03-6.33547E-04-5.01057E-15
 -1      1376 3.47175E-03-6.67384E-04-6.18150E-15
 -1      1377 3.61284E-03-6.65452E-04-6.69461E-15
 -1      1378 3.40102E-03-6.31597E-04-5.96052E-15
 -1      1379 3.75450E-03-6.63042E-04-7.22607E-15
 -1      1380 3.89674E-03-6.60224E-04-7.77462E-15
 -1      1381 3.68398E-03-6.27467E-04-6.98431E-15
 -1      1382 4.03961E-03-6.57005E-04-8.33978E-15
 -1      1383 4.18314E-03-6.53452E-04-8.92265E-15
 -1      1384 3.96900E-03-6.21536E-04-8.07843E-15
 -1      1385 4.32740E-03-6.49563E-04-9.52218E-15
 -1      1386 4.47243E-03-6.45416E-04-1.01385E-14
 -1      1387 4.25634E-03-6.14090E-04-9.24047E-15
 -1      1388 4.61834E-03-6.41009E-04-1.07716E-14
 -1      1389 4.76519E-03-6.36439E-04-1.14224E-14
 -1      1390 4.54641E-03-6.05390E-04-1.04714E-14
 -1      1391 4.91312E-03-6.31719E-04-1.20904E-14
 -1      1392 5.06223E-03-6.26983E-04-1.27755E-14
 -1      1393 4.83976E-03-5.95760E-04-1.17707E-14
 -1      1394 5.21267E-03-6.22273E-04-1.34793E-14
 -1      1395 5.36459E-03-6.17780E-04-1.42008E-14
 -1      1396 5.13713E-03-5.85687E-04-1.31395E-14
 -1      1397 5.51818E-03-6.13604E-04-1.49408E-14
 -1      1398 5.67360E-03-6.10015E-04-1.57000E-14
 -1      1399 5.43945E-03-5.75965E-04-1.45801E-14
 -1      1400 5.83107E-03-6.07209E-04-1.64798E-14
 -1      1401 5.99079E-03-6.05567E-04-1.72791E-14
 -1      1402 5.74785E-03-5.67898E-04-1.60963E-14
 -1      1403 6.15296E-03-6.05438E-04-1.80944E-14
 -1      1404 6.31778E-03-6.07342E-04-1.89292E-14
 -1      1405 6.06360E-03-5.63564E-04-1.76882E-14
 -1      1406 6.48544E-03-6.11857E-04-1.97832E-14
 -1      1407 6.65606E-03-6.19663E-04-2.06527E-14
 -1      1408 6.38800E-03-5.66181E-04-1.93544E-14
 -1      1409 6.82973E-03-6.31635E-04-2.15426E-14
 -1      1410 7.00642E-03-6.48608E-04-2.24501E-14
 -1      1411 6.72217E-03-5.80513E-04-2.10947E-14
 -1      1412 7.18603E-03-6.71768E-04-2.33741E-14
 -1      1413 7.36822E-03-7.02007E-04-2.43183E-14
 -1      1414 7.06665E-03-6.13195E-04-2.29061E-14
 -1      1415 7.55257E-03-7.40652E-04-2.52766E-14
 -1      1416 7.73830E-03-7.88375E-04-2.62512E-14
 -1      1417 7.42091E-03-6.72593E-04-2.47852E-14
 -1      1418 7.92454E-03-8.46115E-04-2.72420E-14
 -1      1419 8.11002E-03-9.13747E-04-2.82478E-14
 -1      1420 7.78256E-03-7.67387E-04-2.67306E-14
 -1      1421 8.29347E-03-9.90829E-04-2.92708E-14
 -1      1422 8.47326E-03-1.07551E-03-3.03106E-14
 -1      1423 8.14671E-03-9.02756E-04-2.87396E-14
 -1      1424 8.64811E-03-1.16489E-03-3.13661E-14
 -1      1425 8.81678E-03-1.25491E-03-3.24397E-14
 -1      1426 8.50568E-03-1.07333E-03-3.08133E-14
 -1      1427 8.97868E-03-1.34011E-03-3.35314E-14
 -1      1428 9.13385E-03-1.41477E-03-3.46401E-14
 -1      1429 8.85082E-03-1.25565E-03-3.29555E-14
 -1      1430 9.28313E-03-1.47306E-03-3.57669E-14
 -1      1431 9.42867E-03-1.51067E-03-3.69089E-14
 -1      1432 9.17708E-03-1.40756E-03-3.51699E-14
 -1      1433 9.57249E-03-1.52486E-03-3.80705E-14
 -1      1434 9.71772E-03-1.51550E-03-3.92486E-14
 -1      1435 9.48889E-03-1.48394E-03-3.74556E-14
 -1      1436 9.86645E-03-1.48501E-03-4.04442E-14
 -1      1437 1.00209E-02-1.43760E-03-4.16590E-14
 -1      1438 9.80026E-03-1.46415E-03-3.98097E-14
 -1      1439 1.01819E-02-1.37902E-03-4.28911E-14
 -1      1440 1.03498E-02-1.31496E-03-4.41399E-14
 -1      1441 1.01254E-02-1.36680E-03-4.22348E-14
 -1      1442 1.05239E-02-1.25094E-03-4.54062E-14
 -1      1443 1.07032E-02-1.19125E-03-4.66855E-14
 -1      1444 1.04694E-02-1.23632E-03-4.47288E-14
 -1      1445 1.08862E-02-1.13891E-03-4.79817E-14
 -1      1446 1.10714E-02-1.09588E-03-4.92937E-14
 -1      1447 1.08277E-02-1.11566E-03-4.72850E-14
 -1      1448 1.12574E-02-1.06268E-03-5.06235E-14
 -1      1449 1.14431E-02-1.03953E-03-5.19658E-14
 -1      1450 1.11915E-02-1.02943E-03-4.99050E-14
 -1      1451 1.16275E-02-1.02553E-03-5.33221E-14
 -1      1452 1.18097E-02-1.02004E-03-5.46935E-14
 -1      1453 1.15532E-02-9.83759E-04-5.25852E-14
 -1      1454 1.19894E-02-1.02171E-03-5.60719E-14
 -1      1455 1.21661E-02-1.02966E-03-5.74616E-14
 -1      1456 1.19076E-02-9.73837E-04-5.53159E-14
 -1      1457 1.23398E-02-1.04268E-03-5.88657E-14
 -1      1458 1.25105E-02-1.05993E-03-6.02823E-14
 -1      1459 1.22522E-02-9.91009E-04-5.80924E-14
 -1      1460 1.26781E-02-1.08049E-03-6.17123E-14
 -1      1461 1.28428E-02-1.10368E-03-6.31542E-14
 -1      1462 1.25863E-02-1.02679E-03-6.09199E-14
 -1      1463 1.30049E-02-1.12888E-03-6.46121E-14
 -1      1464 1.31644E-02-1.15556E-03-6.60804E-14
 -1      1465 1.29106E-02-1.07438E-03-6.38032E-14
 -1      1466 1.33216E-02-1.18334E-03-6.75588E-14
 -1      1467 1.34767E-02-1.21182E-03-6.90484E-14
 -1      1468 1.32260E-02-1.12880E-03-6.67309E-14
 -1      1469 1.36300E-02-1.24077E-03-7.05459E-14
 -1      1470 1.37816E-02-1.26990E-03-7.20521E-14
 -1      1471 1.35340E-02-1.18666E-03-6.96989E-14
 -1      1472 1.39316E-02-1.29909E-03-7.35640E-14
 -1      1473 1.40803E-02-1.32811E-03-7.50840E-14
 -1      1474 1.38358E-02-1.24567E-03-7.27002E-14
 -1      1475 1.42279E-02-1.35688E-03-7.66063E-14
 -1      1476 1.43744E-02-1.38526E-03-7.81270E-14
 -1      1477 1.41326E-02-1.30430E-03-7.57279E-14
 -1      1478 1.45200E-02-1.41319E-03-7.96550E-14
 -1      1479 1.46649E-02-1.44056E-03-8.11860E-14
 -1      1480 1.44256E-02-1.36151E-03-7.87723E-14
 -1      1481 1.48092E-02-1.46736E-03-8.27187E-14
 -1      1482 1.49530E-02-1.49350E-03-8.42510E-14
 -1      1483 1.47156E-02-1.41660E-03-8.18265E-14
 -1      1484 1.50964E-02-1.51902E-03-8.57893E-14
 -1      1485 1.52395E-02-1.54391E-03-8.73331E-14
 -1      1486 1.50034E-02-1.46914E-03-8.48903E-14
 -1      1487 1.54442E-02-1.57499E-03-8.95595E-14
 -1      1488 1.53518E-02-1.52579E-03-8.86504E-14
 -1      1489 6.42518E-04 3.71825E-04-1.53686E-17
 -1      1490 4.92538E-04 3.03574E-04 8.90401E-18
 -1      1491 4.44532E-04 2.65813E-04-1.09098E-17
 -1      1492 9.27804E-04 4.71569E-04-1.19249E-16
 -1      1493 7.87092E-04 4.26203E-04-5.78151E-17
 -1      1494 7.44136E-04 3.90473E-04-8.36326E-17
 -1      1495 1.20238E-03 5.40641E-04-2.98061E-16
 -1      1496 1.06587E-03 5.09154E-04-1.99249E-16
 -1      1497 1.02992E-03 4.75639E-04-2.30068E-16
 -1      1498 1.47262E-03 5.89325E-04-5.54746E-16
 -1      1499 1.33772E-03 5.67145E-04-4.16618E-16
 -1      1500 1.30758E-03 5.35044E-04-4.51895E-16
 -1      1501 1.74185E-03 6.23503E-04-8.90374E-16
 -1      1502 1.60719E-03 6.07989E-04-7.12443E-16
 -1      1503 1.58156E-03 5.76730E-04-7.50864E-16
 -1      1504 2.01179E-03 6.46992E-04-1.30512E-15
 -1      1505 1.87664E-03 6.36414E-04-1.08766E-15
 -1      1506 1.85451E-03 6.05627E-04-1.12884E-15
 -1      1507 2.28330E-03 6.62481E-04-1.79888E-15
 -1      1508 2.14731E-03 6.55609E-04-1.54228E-15
 -1      1509 2.12788E-03 6.25061E-04-1.58582E-15
 -1      1510 2.55675E-03 6.71945E-04-2.37352E-15
 -1      1511 2.41976E-03 6.67868E-04-2.07572E-15
 -1      1512 2.40242E-03 6.37418E-04-2.12230E-15
 -1      1513 2.83229E-03 6.76852E-04-3.02990E-15
 -1      1514 2.69425E-03 6.74893E-04-2.69167E-15
 -1      1515 2.67851E-03 6.44449E-04-2.73937E-15
 -1      1516 3.10995E-03 6.78292E-04-3.76400E-15
 -1      1517 2.97086E-03 6.77949E-04-3.38762E-15
 -1      1518 2.95633E-03 6.47453E-04-3.43599E-15
 -1      1519 3.38976E-03 6.77071E-04-4.57369E-15
 -1      1520 3.24959E-03 6.77970E-04-4.15905E-15
 -1      1521 3.23597E-03 6.47383E-04-4.20859E-15
 -1      1522 3.67173E-03 6.73785E-04-5.45922E-15
 -1      1523 3.53047E-03 6.75650E-04-5.00718E-15
 -1      1524 3.51750E-03 6.44938E-04-5.05672E-15
 -1      1525 3.95596E-03 6.68897E-04-6.42184E-15
 -1      1526 3.81356E-03 6.71509E-04-5.93072E-15
 -1      1527 3.80102E-03 6.40641E-04-5.98034E-15
 -1      1528 4.24265E-03 6.62805E-04-7.46380E-15
 -1      1529 4.09898E-03 6.65968E-04-6.93251E-15
 -1      1530 4.08666E-03 6.34907E-04-6.98135E-15
 -1      1531 4.53207E-03 6.55912E-04-8.58466E-15
 -1      1532 4.38700E-03 6.59419E-04-8.01488E-15
 -1      1533 4.37466E-03 6.28115E-04-8.06195E-15
 -1      1534 4.82465E-03 6.48711E-04-9.77996E-15
 -1      1535 4.67794E-03 6.52299E-04-9.17315E-15
 -1      1536 4.66534E-03 6.20689E-04-9.21871E-15
 -1      1537 5.12086E-03 6.41867E-04-1.10464E-14
 -1      1538 4.97226E-03 6.45177E-04-1.04042E-14
 -1      1539 4.95908E-03 6.13178E-04-1.04486E-14
 -1      1540 5.42125E-03 6.36317E-04-1.23894E-14
 -1      1541 5.27050E-03 6.38843E-04-1.17090E-14
 -1      1542 5.25634E-03 6.06353E-04-1.17525E-14
 -1      1543 5.72635E-03 6.33361E-04-1.38037E-14
 -1      1544 5.57318E-03 6.34405E-04-1.30868E-14
 -1      1545 5.55760E-03 6.01307E-04-1.31286E-14
 -1      1546 6.03650E-03 6.34737E-04-1.52860E-14
 -1      1547 5.88077E-03 6.33378E-04-1.45362E-14
 -1      1548 5.86324E-03 5.99545E-04-1.45758E-14
 -1      1549 6.35171E-03 6.42631E-04-1.68395E-14
 -1      1550 6.19348E-03 6.37730E-04-1.60545E-14
 -1      1551 6.17346E-03 6.03045E-04-1.60940E-14
 -1      1552 6.67142E-03 6.59559E-04-1.84635E-14
 -1      1553 6.51106E-03 6.49840E-04-1.76426E-14
 -1      1554 6.48807E-03 6.14223E-04-1.76825E-14
 -1      1555 6.99418E-03 6.88010E-04-2.01602E-14
 -1      1556 6.83253E-03 6.72273E-04-1.93029E-14
 -1      1557 6.80632E-03 6.35729E-04-1.93407E-14
 -1      1558 7.31746E-03 7.29738E-04-2.19311E-14
 -1      1559 7.15595E-03 7.07258E-04-2.10366E-14
 -1      1560 7.12666E-03 6.69940E-04-2.10698E-14
 -1      1561 7.63767E-03 7.84645E-04-2.37654E-14
 -1      1562 7.47821E-03 7.55776E-04-2.28388E-14
 -1      1563 7.44666E-03 7.18051E-04-2.28698E-14
 -1      1564 7.95051E-03 8.49387E-04-2.56657E-14
 -1      1565 7.79530E-03 8.16264E-04-2.47084E-14
 -1      1566 7.76310E-03 7.78760E-04-2.47377E-14
 -1      1567 8.25198E-03 9.16256E-04-2.76291E-14
 -1      1568 8.10290E-03 8.83274E-04-2.66401E-14
 -1      1569 8.07245E-03 8.46837E-04-2.66690E-14
 -1      1570 8.53985E-03 9.73302E-04-2.96503E-14
 -1      1571 8.39768E-03 9.46851E-04-2.86322E-14
 -1      1572 8.37187E-03 9.12373E-04-2.86593E-14
 -1      1573 8.81508E-03 1.00655E-03-3.17309E-14
 -1      1574 8.67886E-03 9.93636E-04-3.06832E-14
 -1      1575 8.66044E-03 9.61742E-04-3.07109E-14
 -1      1576 9.08236E-03 1.00423E-03-3.38806E-14
 -1      1577 8.94929E-03 1.01019E-03-3.27967E-14
 -1      1578 8.94020E-03 9.80926E-04-3.28258E-14
 -1      1579 9.34902E-03 9.61272E-04-3.61029E-14
 -1      1580 9.21523E-03 9.87648E-04-3.49819E-14
 -1      1581 9.21607E-03 9.60374E-04-3.50122E-14
 -1      1582 9.62261E-03 8.81481E-04-3.84001E-14
 -1      1583 9.48450E-03 9.25322E-04-3.72421E-14
 -1      1584 9.49435E-03 8.98946E-04-3.72718E-14
 -1      1585 9.90833E-03 7.75886E-04-4.07731E-14
 -1      1586 9.76373E-03 8.31021E-04-3.95768E-14
 -1      1587 9.78045E-03 8.04427E-04-3.96056E-14
 -1      1588 1.02077E-02 6.58436E-04-4.32171E-14
 -1      1589 1.00563E-02 7.17813E-04-4.19861E-14
 -1      1590 1.00772E-02 6.90234E-04-4.20138E-14
 -1      1591 1.05189E-02 5.41577E-04-4.57344E-14
 -1      1592 1.03620E-02 5.99350E-04-4.44678E-14
 -1      1593 1.03842E-02 5.70486E-04-4.44952E-14
 -1      1594 1.08380E-02 4.33674E-04-4.83110E-14
 -1      1595 1.06777E-02 4.86215E-04-4.70154E-14
 -1      1596 1.06990E-02 4.56154E-04-4.70400E-14
 -1      1597 1.11607E-02 3.38631E-04-5.09407E-14
 -1      1598 1.09991E-02 3.84488E-04-4.96202E-14
 -1      1599 1.10181E-02 3.53538E-04-4.96419E-14
 -1      1600 1.14832E-02 2.56904E-04-5.36246E-14
 -1      1601 1.13222E-02 2.96193E-04-5.22754E-14
 -1      1602 1.13383E-02 2.64723E-04-5.22937E-14
 -1      1603 1.18028E-02 1.86876E-04-5.63566E-14
 -1      1604 1.16435E-02 2.20584E-04-5.49846E-14
 -1      1605 1.16567E-02 1.88934E-04-5.49980E-14
 -1      1606 1.21180E-02 1.26041E-04-5.91296E-14
 -1      1607 1.19610E-02 1.55479E-04-5.77382E-14
 -1      1608 1.19716E-02 1.23910E-04-5.77504E-14
 -1      1609 1.24280E-02 7.17642E-05-6.19371E-14
 -1      1610 1.22737E-02 9.82382E-05-6.05305E-14
 -1      1611 1.22822E-02 6.69240E-05-6.05404E-14
 -1      1612 1.27328E-02 2.16817E-05-6.47663E-14
 -1      1613 1.25810E-02 4.63286E-05-6.33479E-14
 -1      1614 1.25881E-02 1.53723E-05-6.33573E-14
 -1      1615 1.30328E-02-2.61583E-05-6.76113E-14
 -1      1616 1.28834E-02-2.41573E-06-6.61879E-14
 -1      1617 1.28895E-02-3.29681E-05-6.61933E-14
 -1      1618 1.33285E-02-7.32930E-05-7.04692E-14
 -1      1619 1.31811E-02-4.97352E-05-6.90409E-14
 -1      1620 1.31868E-02-7.98762E-05-6.90461E-14
 -1      1621 1.36206E-02-1.20903E-04-7.33432E-14
 -1      1622 1.34750E-02-9.69808E-05-7.19023E-14
 -1      1623 1.34806E-02-1.26728E-04-7.19084E-14
 -1      1624 1.39100E-02-1.69872E-04-7.62331E-14
 -1      1625 1.37656E-02-1.45179E-04-7.47854E-14
 -1      1626 1.37714E-02-1.74566E-04-7.47886E-14
 -1      1627 1.41974E-02-2.20796E-04-7.91316E-14
 -1      1628 1.40539E-02-1.95073E-04-7.76821E-14
 -1      1629 1.40600E-02-2.24147E-04-7.76810E-14
 -1      1630 1.44836E-02-2.73831E-04-8.20284E-14
 -1      1631 1.43406E-02-2.47073E-04-8.05812E-14
 -1      1632 1.43471E-02-2.75906E-04-8.05765E-14
 -1      1633 1.46393E-02-3.12959E-04-8.35820E-14
 -1      1634 1.47190E-02-4.20328E-04-8.41398E-14
 -1      1635 1.46916E-02-3.78402E-04-8.39661E-14
 -1      1636 1.47752E-02-5.03415E-04-8.44906E-14
 -1      1637 1.47468E-02-4.62028E-04-8.43154E-14
 -1      1638 1.46092E-02-4.17459E-04-8.29751E-14
 -1      1639 1.48329E-02-5.84999E-04-8.48463E-14
 -1      1640 1.48039E-02-5.44425E-04-8.46678E-14
 -1      1641 1.46660E-02-4.99971E-04-8.33288E-14
 -1      1642 1.48915E-02-6.64709E-04-8.52162E-14
 -1      1643 1.48622E-02-6.25102E-04-8.50300E-14
 -1      1644 1.47244E-02-5.80973E-04-8.36913E-14
 -1      1645 1.49487E-02-7.41149E-04-8.56014E-14
 -1      1646 1.49202E-02-7.03162E-04-8.54050E-14
 -1      1647 1.47827E-02-6.59594E-04-8.40640E-14
 -1      1648 1.50054E-02-8.17150E-04-8.60099E-14
 -1      1649 1.49773E-02-7.79350E-04-8.58053E-14
 -1      1650 1.48403E-02-7.36542E-04-8.44547E-14
 -1      1651 1.50597E-02-8.91828E-04-8.64244E-14
 -1      1652 1.50329E-02-8.54619E-04-8.62149E-14
 -1      1653 1.48967E-02-8.12688E-04-8.48564E-14
 -1      1654 1.51111E-02-9.65832E-04-8.68436E-14
 -1      1655 1.50858E-02-9.28870E-04-8.66351E-14
 -1      1656 1.49505E-02-8.87810E-04-8.52637E-14
 -1      1657 1.51593E-02-1.03992E-03-8.72480E-14
 -1      1658 1.51356E-02-1.00282E-03-8.70491E-14
 -1      1659 1.50011E-02-9.62496E-04-8.56721E-14
 -1      1660 1.52047E-02-1.11486E-03-8.76489E-14
 -1      1661 1.51823E-02-1.07724E-03-8.74467E-14
 -1      1662 1.50485E-02-1.03741E-03-8.60669E-14
 -1      1663 1.52472E-02-1.18998E-03-8.80406E-14
 -1      1664 1.52262E-02-1.15221E-03-8.78462E-14
 -1      1665 1.50927E-02-1.11254E-03-8.64527E-14
 -1      1666 1.52894E-02-1.26831E-03-8.84460E-14
 -1      1667 1.52683E-02-1.22889E-03-8.82452E-14
 -1      1668 1.51349E-02-1.18905E-03-8.68397E-14
 -1      1669 1.53317E-02-1.34871E-03-8.88075E-14
 -1      1670 1.53104E-02-1.30826E-03-8.86347E-14
 -1      1671 1.51767E-02-1.26795E-03-8.72135E-14
 -1      1672 1.53753E-02-1.43097E-03-8.91417E-14
 -1      1673 1.53533E-02-1.38964E-03-8.89785E-14
 -1      1674 1.52190E-02-1.34867E-03-8.75614E-14
 -1      1675 1.53748E-02-1.49921E-03-8.89769E-14
 -1      1676 1.53517E-02-1.45737E-03-8.88178E-14
 -1      1677 1.52167E-02-1.41568E-03-8.74057E-14
 -1      1678 1.51698E-02-1.46806E-03-8.67566E-14
 -1      1679 1.15481E-02-2.73523E-04-4.23218E-14
 -1      1680 1.15903E-02-3.20281E-04-4.24451E-14
 -1      1681 1.13614E-02-1.61198E-04-4.18998E-14
 -1      1682 1.14628E-02-2.17092E-04-4.21408E-14
 -1      1683 1.10737E-02-1.83270E-05-4.12094E-14
 -1      1684 1.12164E-02-8.76021E-05-4.15506E-14
 -1      1685 1.06753E-02 1.61285E-04-4.02720E-14
 -1      1686 1.08675E-02 6.89030E-05-4.07605E-14
 -1      1687 1.02891E-02 3.55065E-04-3.91210E-14
 -1      1688 1.04691E-02 2.74327E-04-3.96232E-14
 -1      1689 9.85995E-03 5.16697E-04-3.79067E-14
 -1      1690 1.00522E-02 4.43658E-04-3.85023E-14
 -1      1691 9.47533E-03 6.12491E-04-3.66389E-14
 -1      1692 9.65259E-03 5.77878E-04-3.72012E-14
 -1      1693 9.08668E-03 6.31079E-04-3.53962E-14
 -1      1694 9.26415E-03 6.35000E-04-3.59637E-14
 -1      1695 8.68904E-03 5.59767E-04-3.42435E-14
 -1      1696 8.87121E-03 6.00868E-04-3.47673E-14
 -1      1697 8.30249E-03 4.32436E-04-3.32284E-14
 -1      1698 8.47940E-03 4.96801E-04-3.36751E-14
 -1      1699 7.92439E-03 2.65506E-04-3.23105E-14
 -1      1700 8.10275E-03 3.43894E-04-3.26977E-14
 -1      1701 7.57807E-03 1.19054E-04-3.17032E-14
 -1      1702 7.72432E-03 1.86510E-04-3.19700E-14
 -1      1703 7.30830E-03-1.23666E-05-3.12691E-14
 -1      1704 7.42406E-03 4.57618E-05-3.14442E-14
 -1      1705 7.12567E-03-1.28441E-04-3.10090E-14
 -1      1706 7.19731E-03-7.88804E-05-3.10908E-14
 -1      1707 7.07240E-03-2.23230E-04-3.09513E-14
 -1      1708 7.07930E-03-1.83665E-04-3.09227E-14
 -1      1709 7.16590E-03-3.22768E-04-3.11797E-14
 -1      1710 7.10356E-03-2.74572E-04-3.10304E-14
 -1      1711 7.37798E-03-4.62530E-04-3.17395E-14
 -1      1712 7.26823E-03-4.01530E-04-3.15100E-14
 -1      1713 7.70266E-03-6.18797E-04-3.23826E-14
 -1      1714 7.54225E-03-5.36901E-04-3.20342E-14
 -1      1715 8.09666E-03-8.06937E-04-3.32354E-14
 -1      1716 7.91715E-03-7.14449E-04-3.28097E-14
 -1      1717 8.49503E-03-1.01690E-03-3.43535E-14
 -1      1718 8.30226E-03-9.25897E-04-3.38427E-14
 -1      1719 8.92741E-03-1.18254E-03-3.55397E-14
 -1      1720 8.73913E-03-1.11249E-03-3.49720E-14
 -1      1721 9.31785E-03-1.25921E-03-3.68016E-14
 -1      1722 9.13480E-03-1.23387E-03-3.62361E-14
 -1      1723 9.71833E-03-1.24564E-03-3.80516E-14
 -1      1724 9.53369E-03-1.26520E-03-3.74765E-14
 -1      1725 1.01322E-02-1.13898E-03-3.92531E-14
 -1      1726 9.94138E-03-1.19777E-03-3.87062E-14
 -1      1727 1.05475E-02-9.72817E-04-4.03548E-14
 -1      1728 1.03558E-02-1.05518E-03-3.98635E-14
 -1      1729 1.09336E-02-7.92356E-04-4.12738E-14
 -1      1730 1.07607E-02-8.75155E-04-4.08768E-14
 -1      1731 1.12719E-02-6.13049E-04-4.20526E-14
 -1      1732 1.11198E-02-6.89768E-04-4.17485E-14
 -1      1733 1.15068E-02-4.86663E-04-4.24082E-14
 -1      1734 1.14175E-02-5.43428E-04-4.22586E-14
 -1      1735 1.16021E-02-3.75526E-04-4.25472E-14
 -1      1736 1.15759E-02-4.23636E-04-4.25379E-14
 -1      1737 1.05143E-02 1.72496E-04-4.02505E-14
 -1      1738 1.09167E-02-3.13759E-05-4.13608E-14
 -1      1739 1.46460E-02-3.41692E-04-8.35787E-14
 -1      1740 1.45357E-02-3.39208E-04-8.24114E-14
 -1      1741 1.15058E-02-2.81194E-04-4.27037E-14
 -1      1742 1.12682E-02-1.81250E-04-4.21671E-14
 -1      1743 1.16066E-02-3.55117E-04-4.29883E-14
 -1      1744 1.00967E-02 3.86453E-04-3.89765E-14
 -1      1745 9.71544E-03 5.58075E-04-3.76478E-14
 -1      1746 9.35150E-03 6.49599E-04-3.62663E-14
 -1      1747 9.00345E-03 6.38212E-04-3.49666E-14
 -1      1748 8.63398E-03 5.31852E-04-3.37752E-14
 -1      1749 8.25843E-03 3.65004E-04-3.26831E-14
 -1      1750 7.88071E-03 1.84296E-04-3.18231E-14
 -1      1751 7.53200E-03 3.21915E-05-3.12308E-14
 -1      1752 7.26024E-03-8.82226E-05-3.07982E-14
 -1      1753 7.09597E-03-1.73852E-04-3.05359E-14
 -1      1754 7.07939E-03-2.33250E-04-3.05283E-14
 -1      1755 7.22021E-03-3.12489E-04-3.09339E-14
 -1      1756 7.49333E-03-4.42064E-04-3.15527E-14
 -1      1757 7.86737E-03-6.07804E-04-3.22639E-14
 -1      1758 8.27021E-03-8.29795E-04-3.32853E-14
 -1      1759 8.68762E-03-1.05831E-03-3.45012E-14
 -1      1760 9.06494E-03-1.22679E-03-3.58073E-14
 -1      1761 9.43052E-03-1.28997E-03-3.71788E-14
 -1      1762 9.79586E-03-1.23965E-03-3.85144E-14
 -1      1763 1.01893E-02-1.09110E-03-3.97864E-14
 -1      1764 1.05946E-02-8.92452E-04-4.09279E-14
 -1      1765 1.09870E-02-6.89488E-04-4.19310E-14
 -1      1766 1.13239E-02-5.32711E-04-4.26177E-14
 -1      1767 1.15453E-02-4.27941E-04-4.29584E-14
 -1      1768 2.85018E-04-1.76203E-04-4.10506E-17
 -1      1769 3.32166E-04-1.16795E-04-1.14953E-16
 -1      1770 3.36255E-04-1.33037E-04-1.09233E-16
 -1      1771 3.42080E-04-1.52017E-04-1.01861E-16
 -1      1772 3.51575E-04-1.74004E-04-9.11272E-17
 -1      1773 4.58197E-04-1.88045E-04-1.58754E-16
 -1      1774 3.24691E-04-6.53905E-05-1.25347E-16
 -1      1775 3.25799E-04-7.66936E-05-1.24304E-16
 -1      1776 3.23242E-04-4.38920E-05-1.25944E-16
 -1      1777 3.23875E-04-5.43845E-05-1.25754E-16
 -1      1778 4.36696E-04-7.92623E-05-1.85168E-16
 -1      1779 3.22487E-04-2.37706E-05-1.24995E-16
 -1      1780 3.22806E-04-3.36854E-05-1.25822E-16
 -1      1781 4.34751E-04-5.12966E-05-1.85480E-16
 -1      1782 3.22205E-04-4.33482E-06-1.22881E-16
 -1      1783 3.22298E-04-1.39875E-05-1.24006E-16
 -1      1784 4.33763E-04-2.49106E-05-1.83691E-16
 -1      1785 3.22322E-04 1.49836E-05-1.19601E-16
 -1      1786 3.22213E-04 5.32104E-06-1.21458E-16
 -1      1787 4.33475E-04 7.60283E-07-1.80100E-16
 -1      1788 3.22866E-04 3.47342E-05-1.14925E-16
 -1      1789 3.22528E-04 2.47874E-05-1.17541E-16
 -1      1790 4.33819E-04 2.64597E-05-1.74882E-16
 -1      1791 3.23956E-04 5.51751E-05-1.08136E-16
 -1      1792 3.23314E-04 4.48106E-05-1.12012E-16
 -1      1793 4.34860E-04 5.27068E-05-1.67550E-16
 -1      1794 3.25955E-04 7.78311E-05-9.90148E-17
 -1      1795 3.24788E-04 6.62478E-05-1.03975E-16
 -1      1796 4.36857E-04 8.05817E-05-1.57467E-16
 -1      1797 3.29565E-04 1.03672E-04-8.68039E-17
 -1      1798 3.27458E-04 9.03208E-05-9.36480E-17
 -1      1799 4.40421E-04 1.11549E-04-1.43928E-16
 -1      1800 3.36502E-04 1.35123E-04-6.85758E-17
 -1      1801 3.32371E-04 1.18630E-04-7.86995E-17
 -1      1802 4.46779E-04 1.47313E-04-1.25225E-16
 -1      1803 3.52113E-04 1.77591E-04-4.25956E-17
 -1      1804 3.42677E-04 1.54762E-04-5.70697E-17
 -1      1805 4.59175E-04 1.91419E-04-9.84049E-17
 -1      1806 4.07404E-04 2.33628E-04-2.29038E-17
 -1      1807 3.77853E-04 2.02630E-04-3.53179E-17
 -1      1808 4.95580E-04 2.43922E-04-7.36580E-17
 -1      1809 5.58139E-04 3.02379E-04-5.23128E-17
 -1      1810 3.39786E-04-1.90885E-04-6.82641E-17
 -1      1811 8.52936E-04 4.06780E-04-1.65517E-16
 -1      1812 7.06644E-04 3.59159E-04-9.99363E-17
 -1      1813 6.72965E-04 3.28623E-04-1.13638E-16
 -1      1814 4.58667E-04-2.36658E-04-1.19100E-16
 -1      1815 8.06695E-04-3.73828E-04-3.13538E-16
 -1      1816 9.51864E-04-4.14869E-04-4.35483E-16
 -1      1817 1.09461E-03-4.49378E-04-5.78693E-16
 -1      1818 1.23618E-03-4.78052E-04-7.43925E-16
 -1      1819 1.00340E-03-3.97427E-04-5.28562E-16
 -1      1820 1.37650E-03-5.02268E-04-9.30733E-16
 -1      1821 1.51611E-03-5.22324E-04-1.13878E-15
 -1      1822 1.28896E-03-4.54944E-04-8.62307E-16
 -1      1823 1.65521E-03-5.39130E-04-1.36810E-15
 -1      1824 1.79399E-03-5.52917E-04-1.61935E-15
 -1      1825 1.57127E-03-4.95255E-04-1.28047E-15
 -1      1826 1.93267E-03-5.64285E-04-1.89135E-15
 -1      1827 2.07131E-03-5.73431E-04-2.18437E-15
 -1      1828 1.85183E-03-5.22921E-04-1.78327E-15
 -1      1829 2.21007E-03-5.80760E-04-2.49905E-15
 -1      1830 2.34896E-03-5.86436E-04-2.83405E-15
 -1      1831 2.13176E-03-5.41213E-04-2.37017E-15
 -1      1832 2.48809E-03-5.90741E-04-3.18968E-15
 -1      1833 2.62745E-03-5.93808E-04-3.56590E-15
 -1      1834 2.41177E-03-5.52509E-04-3.03959E-15
 -1      1835 2.76713E-03-5.95832E-04-3.96285E-15
 -1      1836 2.90709E-03-5.96917E-04-4.37890E-15
 -1      1837 2.69233E-03-5.58553E-04-3.79041E-15
 -1      1838 3.04741E-03-5.97197E-04-4.81439E-15
 -1      1839 3.18807E-03-5.96753E-04-5.26876E-15
 -1      1840 2.97372E-03-5.60612E-04-4.62022E-15
 -1      1841 3.32911E-03-5.95670E-04-5.74211E-15
 -1      1842 3.47052E-03-5.94016E-04-6.23433E-15
 -1      1843 3.25615E-03-5.59599E-04-5.52580E-15
 -1      1844 3.61235E-03-5.91838E-04-6.74423E-15
 -1      1845 3.75460E-03-5.89192E-04-7.27281E-15
 -1      1846 3.53977E-03-5.56150E-04-6.50674E-15
 -1      1847 3.89731E-03-5.86104E-04-7.81798E-15
 -1      1848 4.04050E-03-5.82622E-04-8.38071E-15
 -1      1849 3.82475E-03-5.50705E-04-7.55934E-15
 -1      1850 4.18421E-03-5.78759E-04-8.96126E-15
 -1      1851 4.32849E-03-5.74565E-04-9.55869E-15
 -1      1852 4.11125E-03-5.43568E-04-8.68313E-15
 -1      1853 4.47336E-03-5.70050E-04-1.01725E-14
 -1      1854 4.61894E-03-5.65274E-04-1.08035E-14
 -1      1855 4.39955E-03-5.34980E-04-9.87510E-15
 -1      1856 4.76521E-03-5.60258E-04-1.14528E-14
 -1      1857 4.91234E-03-5.55081E-04-1.21186E-14
 -1      1858 4.68994E-03-5.25190E-04-1.11358E-14
 -1      1859 5.06032E-03-5.49793E-04-1.28012E-14
 -1      1860 5.20935E-03-5.44510E-04-1.35016E-14
 -1      1861 4.98286E-03-5.14550E-04-1.24647E-14
 -1      1862 5.35940E-03-5.39334E-04-1.42215E-14
 -1      1863 5.51074E-03-5.34433E-04-1.49583E-14
 -1      1864 5.27882E-03-5.03631E-04-1.38634E-14
 -1      1865 5.66332E-03-5.30000E-04-1.57146E-14
 -1      1866 5.81745E-03-5.26280E-04-1.64909E-14
 -1      1867 5.57845E-03-4.93389E-04-1.53360E-14
 -1      1868 5.97308E-03-5.23608E-04-1.72850E-14
 -1      1869 6.13053E-03-5.22335E-04-1.80974E-14
 -1      1870 5.88249E-03-4.85386E-04-1.68832E-14
 -1      1871 6.28976E-03-5.22998E-04-1.89289E-14
 -1      1872 6.45107E-03-5.26104E-04-1.97794E-14
 -1      1873 6.19184E-03-4.82090E-04-1.85071E-14
 -1      1874 6.61447E-03-5.32445E-04-2.06480E-14
 -1      1875 6.78011E-03-5.42734E-04-2.15346E-14
 -1      1876 6.50755E-03-4.87255E-04-2.02039E-14
 -1      1877 6.94816E-03-5.58038E-04-2.24388E-14
 -1      1878 7.11846E-03-5.79306E-04-2.33593E-14
 -1      1879 6.83087E-03-5.06326E-04-2.19734E-14
 -1      1880 7.29145E-03-6.07771E-04-2.42976E-14
 -1      1881 7.46639E-03-6.44567E-04-2.52520E-14
 -1      1882 7.16332E-03-5.46699E-04-2.38125E-14
 -1      1883 7.64414E-03-6.90738E-04-2.62224E-14
 -1      1884 7.82305E-03-7.47273E-04-2.72079E-14
 -1      1885 7.50652E-03-6.17428E-04-2.57167E-14
 -1      1886 8.00437E-03-8.14315E-04-2.82112E-14
 -1      1887 8.18543E-03-8.91873E-04-2.92298E-14
 -1      1888 7.86147E-03-7.27469E-04-2.76853E-14
 -1      1889 8.36745E-03-9.78229E-04-3.02647E-14
 -1      1890 8.54713E-03-1.07074E-03-3.13157E-14
 -1      1891 8.22662E-03-8.81100E-04-2.97179E-14
 -1      1892 8.72496E-03-1.16506E-03-3.23852E-14
 -1      1893 8.89905E-03-1.25559E-03-3.34716E-14
 -1      1894 8.59498E-03-1.06841E-03-3.18161E-14
 -1      1895 9.06845E-03-1.33617E-03-3.45761E-14
 -1      1896 9.23482E-03-1.39900E-03-3.56998E-14
 -1      1897 8.95505E-03-1.25608E-03-3.39860E-14
 -1      1898 9.39608E-03-1.43934E-03-3.68408E-14
 -1      1899 9.55861E-03-1.45369E-03-3.79996E-14
 -1      1900 9.29870E-03-1.38847E-03-3.62279E-14
 -1      1901 9.71979E-03-1.44180E-03-3.91778E-14
 -1      1902 9.88579E-03-1.40696E-03-4.03695E-14
 -1      1903 9.63315E-03-1.41726E-03-3.85429E-14
 -1      1904 1.00545E-02-1.35383E-03-4.15800E-14
 -1      1905 1.02281E-02-1.28986E-03-4.28092E-14
 -1      1906 9.97597E-03-1.34125E-03-4.09284E-14
 -1      1907 1.04056E-02-1.22120E-03-4.40535E-14
 -1      1908 1.05850E-02-1.15392E-03-4.53150E-14
 -1      1909 1.03351E-02-1.20649E-03-4.33822E-14
 -1      1910 1.07668E-02-1.09247E-03-4.65919E-14
 -1      1911 1.09478E-02-1.03955E-03-4.78827E-14
 -1      1912 1.07032E-02-1.06933E-03-4.58976E-14
 -1      1913 1.11292E-02-9.96995E-04-4.91892E-14
 -1      1914 1.13082E-02-9.64949E-04-5.05126E-14
 -1      1915 1.10686E-02-9.64846E-04-4.84782E-14
 -1      1916 1.14860E-02-9.43337E-04-5.18512E-14
 -1      1917 1.16611E-02-9.31181E-04-5.32013E-14
 -1      1918 1.14241E-02-9.03750E-04-5.11200E-14
 -1      1919 1.18342E-02-9.27466E-04-5.45623E-14
 -1      1920 1.20046E-02-9.31049E-04-5.59360E-14
 -1      1921 1.17677E-02-8.82341E-04-5.38134E-14
 -1      1922 1.21727E-02-9.40691E-04-5.73217E-14
 -1      1923 1.23384E-02-9.55424E-04-5.87201E-14
 -1      1924 1.21004E-02-8.91718E-04-5.65545E-14
 -1      1925 1.25018E-02-9.74157E-04-6.01345E-14
 -1      1926 1.26631E-02-9.96161E-04-6.15583E-14
 -1      1927 1.24239E-02-9.22729E-04-5.93469E-14
 -1      1928 1.28223E-02-1.02061E-03-6.29951E-14
 -1      1929 1.29796E-02-1.04699E-03-6.44450E-14
 -1      1930 1.27396E-02-9.67811E-04-6.21927E-14
 -1      1931 1.31351E-02-1.07472E-03-6.59048E-14
 -1      1932 1.32891E-02-1.10344E-03-6.73761E-14
 -1      1933 1.30488E-02-1.02133E-03-6.50830E-14
 -1      1934 1.34415E-02-1.13279E-03-6.88568E-14
 -1      1935 1.35927E-02-1.16248E-03-7.03449E-14
 -1      1936 1.33526E-02-1.07936E-03-6.80164E-14
 -1      1937 1.37426E-02-1.19231E-03-7.18420E-14
 -1      1938 1.38914E-02-1.22208E-03-7.33454E-14
 -1      1939 1.36520E-02-1.13921E-03-7.09859E-14
 -1      1940 1.40392E-02-1.25165E-03-7.48551E-14
 -1      1941 1.41861E-02-1.28089E-03-7.63695E-14
 -1      1942 1.39477E-02-1.19911E-03-7.39868E-14
 -1      1943 1.43323E-02-1.30970E-03-7.78907E-14
 -1      1944 1.44778E-02-1.33799E-03-7.94116E-14
 -1      1945 1.42404E-02-1.25789E-03-7.70086E-14
 -1      1946 1.46227E-02-1.36570E-03-8.09378E-14
 -1      1947 1.47670E-02-1.39275E-03-8.24661E-14
 -1      1948 1.45307E-02-1.31472E-03-8.00509E-14
 -1      1949 1.48969E-02-1.41811E-03-8.38405E-14
 -1      1950 1.50405E-02-1.44386E-03-8.53739E-14
 -1      1951 1.50640E-02-1.41775E-03-8.56982E-14
 -1      1952 1.48050E-02-1.36797E-03-8.29462E-14
 -1      1953 1.13777E-03 4.79403E-04-3.51810E-16
 -1      1954 9.96107E-04 4.46340E-04-2.49258E-16
 -1      1955 9.63844E-04 4.16924E-04-2.65968E-16
 -1      1956 1.41667E-03 5.30381E-04-6.13726E-16
 -1      1957 1.27762E-03 5.07206E-04-4.73037E-16
 -1      1958 1.24814E-03 4.79117E-04-4.91794E-16
 -1      1959 1.69287E-03 5.65967E-04-9.53651E-16
 -1      1960 1.55492E-03 5.49855E-04-7.73876E-16
 -1      1961 1.52825E-03 5.22742E-04-7.93988E-16
 -1      1962 1.96831E-03 5.90287E-04-1.37146E-15
 -1      1963 1.83059E-03 5.79368E-04-1.15259E-15
 -1      1964 1.80638E-03 5.52904E-04-1.17397E-15
 -1      1965 2.24411E-03 6.06236E-04-1.86891E-15
 -1      1966 2.10612E-03 5.99186E-04-1.61035E-15
 -1      1967 2.08396E-03 5.73141E-04-1.63239E-15
 -1      1968 2.52089E-03 6.15919E-04-2.44591E-15
 -1      1969 2.38236E-03 6.11771E-04-2.14743E-15
 -1      1970 2.36185E-03 5.85986E-04-2.16961E-15
 -1      1971 2.79898E-03 6.20887E-04-3.10253E-15
 -1      1972 2.65976E-03 6.18925E-04-2.76389E-15
 -1      1973 2.64056E-03 5.93293E-04-2.78622E-15
 -1      1974 3.07857E-03 6.22279E-04-3.83676E-15
 -1      1975 2.93859E-03 6.21980E-04-3.46000E-15
 -1      1976 2.92040E-03 5.96428E-04-3.48135E-15
 -1      1977 3.35978E-03 6.20930E-04-4.64589E-15
 -1      1978 3.21897E-03 6.21910E-04-4.23212E-15
 -1      1979 3.20153E-03 5.96385E-04-4.25282E-15
 -1      1980 3.64270E-03 6.17449E-04-5.53075E-15
 -1      1981 3.50102E-03 6.19427E-04-5.07911E-15
 -1      1982 3.48410E-03 5.93890E-04-5.09923E-15
 -1      1983 3.92746E-03 6.12296E-04-6.49147E-15
 -1      1984 3.78484E-03 6.15056E-04-6.00125E-15
 -1      1985 3.76822E-03 5.89475E-04-6.01990E-15
 -1      1986 4.21425E-03 6.05856E-04-7.53018E-15
 -1      1987 4.07059E-03 6.09212E-04-7.00098E-15
 -1      1988 4.05405E-03 5.83550E-04-7.01753E-15
 -1      1989 4.50331E-03 5.98508E-04-8.64586E-15
 -1      1990 4.35847E-03 6.02266E-04-8.07844E-15
 -1      1991 4.34180E-03 5.76482E-04-8.09314E-15
 -1      1992 4.79498E-03 5.90713E-04-9.83726E-15
 -1      1993 4.64879E-03 5.94628E-04-9.23218E-15
 -1      1994 4.63171E-03 5.68666E-04-9.24388E-15
 -1      1995 5.08963E-03 5.83096E-04-1.11012E-14
 -1      1996 4.94189E-03 5.86830E-04-1.04601E-14
 -1      1997 4.92413E-03 5.60616E-04-1.04699E-14
 -1      1998 5.38769E-03 5.76554E-04-1.24397E-14
 -1      1999 5.23819E-03 5.79620E-04-1.17616E-14
 -1      2000 5.21941E-03 5.53055E-04-1.17686E-14
 -1      2001 5.68958E-03 5.72349E-04-1.38489E-14
 -1      2002 5.53812E-03 5.74067E-04-1.31348E-14
 -1      2003 5.51797E-03 5.47022E-04-1.31393E-14
 -1      2004 5.99560E-03 5.72199E-04-1.53293E-14
 -1      2005 5.84204E-03 5.71652E-04-1.45806E-14
 -1      2006 5.82017E-03 5.43969E-04-1.45827E-14
 -1      2007 6.30585E-03 5.78308E-04-1.68819E-14
 -1      2008 6.15019E-03 5.74338E-04-1.60968E-14
 -1      2009 6.12629E-03 5.45834E-04-1.60981E-14
 -1      2010 6.62007E-03 5.93280E-04-1.85027E-14
 -1      2011 6.46251E-03 5.84550E-04-1.76837E-14
 -1      2012 6.43641E-03 5.55038E-04-1.76832E-14
 -1      2013 6.93743E-03 6.19799E-04-2.01924E-14
 -1      2014 6.77846E-03 6.04990E-04-1.93391E-14
 -1      2015 6.75027E-03 5.74321E-04-1.93363E-14
 -1      2016 7.25640E-03 6.59969E-04-2.19563E-14
 -1      2017 7.09689E-03 6.38156E-04-2.10645E-14
 -1      2018 7.06710E-03 6.06303E-04-2.10585E-14
 -1      2019 7.57465E-03 7.14206E-04-2.37853E-14
 -1      2020 7.41587E-03 6.85469E-04-2.28618E-14
 -1      2021 7.38545E-03 6.52639E-04-2.28516E-14
 -1      2022 7.88923E-03 7.79761E-04-2.56834E-14
 -1      2023 7.73270E-03 7.45948E-04-2.47270E-14
 -1      2024 7.70310E-03 7.12711E-04-2.47143E-14
 -1      2025 8.19703E-03 8.49367E-04-2.76424E-14
 -1      2026 8.04424E-03 8.14706E-04-2.66557E-14
 -1      2027 8.01718E-03 7.82038E-04-2.66412E-14
 -1      2028 8.49586E-03 9.11012E-04-2.96615E-14
 -1      2029 8.34767E-03 8.82020E-04-2.86435E-14
 -1      2030 8.32477E-03 8.51139E-04-2.86276E-14
 -1      2031 8.78568E-03 9.49889E-04-3.17429E-14
 -1      2032 8.64174E-03 9.34087E-04-3.06946E-14
 -1      2033 8.62409E-03 9.06044E-04-3.06761E-14
 -1      2034 9.06930E-03 9.52810E-04-3.38929E-14
 -1      2035 8.92784E-03 9.56287E-04-3.28083E-14
 -1      2036 8.91582E-03 9.31447E-04-3.27896E-14
 -1      2037 9.35188E-03 9.13342E-04-3.61137E-14
 -1      2038 9.21017E-03 9.38262E-04-3.49934E-14
 -1      2039 9.20362E-03 9.16057E-04-3.49729E-14
 -1      2040 9.63902E-03 8.34660E-04-3.84079E-14
 -1      2041 9.49442E-03 8.78272E-04-3.72523E-14
 -1      2042 9.49288E-03 8.57472E-04-3.72296E-14
 -1      2043 9.93447E-03 7.28133E-04-4.07779E-14
 -1      2044 9.78548E-03 7.83999E-04-3.95838E-14
 -1      2045 9.78835E-03 7.63314E-04-3.95591E-14
 -1      2046 1.02392E-02 6.08583E-04-4.32215E-14
 -1      2047 1.00857E-02 6.69168E-04-4.19914E-14
 -1      2048 1.00921E-02 6.47743E-04-4.19653E-14
 -1      2049 1.05515E-02 4.89360E-04-4.57329E-14
 -1      2050 1.03946E-02 5.48372E-04-4.44691E-14
 -1      2051 1.04034E-02 5.25892E-04-4.44411E-14
 -1      2052 1.08686E-02 3.79432E-04-4.83032E-14
 -1      2053 1.07097E-02 4.32971E-04-4.70107E-14
 -1      2054 1.07195E-02 4.09511E-04-4.69803E-14
 -1      2055 1.11873E-02 2.82978E-04-5.09278E-14
 -1      2056 1.10280E-02 3.29487E-04-4.96097E-14
 -1      2057 1.10376E-02 3.05294E-04-4.95762E-14
 -1      2058 1.15050E-02 2.00486E-04-5.36047E-14
 -1      2059 1.13464E-02 2.40090E-04-5.22593E-14
 -1      2060 1.13551E-02 2.15439E-04-5.22232E-14
 -1      2061 1.18200E-02 1.30244E-04-5.63293E-14
 -1      2062 1.16630E-02 1.63993E-04-5.49596E-14
 -1      2063 1.16701E-02 1.39126E-04-5.49226E-14
 -1      2064 1.21311E-02 6.96057E-05-5.90982E-14
 -1      2065 1.19761E-02 9.88906E-05-5.77097E-14
 -1      2066 1.19815E-02 7.39924E-05-5.76673E-14
 -1      2067 1.24379E-02 1.57979E-05-6.19023E-14
 -1      2068 1.22851E-02 4.19950E-05-6.04962E-14
 -1      2069 1.22890E-02 1.71990E-05-6.04535E-14
 -1      2070 1.27405E-02-3.36583E-05-6.47259E-14
 -1      2071 1.25898E-02-9.35485E-06-6.33111E-14
 -1      2072 1.25924E-02-3.39591E-05-6.32665E-14
 -1      2073 1.30392E-02-8.07997E-05-6.75700E-14
 -1      2074 1.28903E-02-5.74264E-05-6.61480E-14
 -1      2075 1.28920E-02-8.17834E-05-6.60994E-14
 -1      2076 1.33343E-02-1.27221E-04-7.04267E-14
 -1      2077 1.31871E-02-1.04031E-04-6.89971E-14
 -1      2078 1.31882E-02-1.28110E-04-6.89484E-14
 -1      2079 1.36264E-02-1.74140E-04-7.32968E-14
 -1      2080 1.34807E-02-1.50568E-04-7.18585E-14
 -1      2081 1.34813E-02-1.74353E-04-7.18103E-14
 -1      2082 1.39161E-02-2.22467E-04-7.61819E-14
 -1      2083 1.37715E-02-1.98091E-04-7.47375E-14
 -1      2084 1.37721E-02-2.21580E-04-7.46863E-14
 -1      2085 1.42040E-02-2.72829E-04-7.90735E-14
 -1      2086 1.40602E-02-2.47375E-04-7.76279E-14
 -1      2087 1.40608E-02-2.70571E-04-7.75730E-14
 -1      2088 1.44416E-02-3.18942E-04-8.14666E-14
 -1      2089 1.42984E-02-2.92533E-04-8.00189E-14
 -1      2090 1.42990E-02-3.15503E-04-7.99645E-14
 -1      2091 1.44874E-02-3.55440E-04-8.18544E-14
 -1      2092 1.46159E-02-5.77632E-04-8.25368E-14
 -1      2093 1.45864E-02-5.37551E-04-8.23513E-14
 -1      2094 1.45571E-02-4.97049E-04-8.21678E-14
 -1      2095 1.45281E-02-4.56183E-04-8.19884E-14
 -1      2096 1.44483E-02-4.94654E-04-8.10085E-14
 -1      2097 1.45214E-02-4.26755E-04-8.20083E-14
 -1      2098 1.44933E-02-3.85284E-04-8.18320E-14
 -1      2099 1.43991E-02-3.65263E-04-8.08873E-14
 -1      2100 1.44120E-02-4.24579E-04-8.08447E-14
 -1      2101 1.46740E-02-6.55267E-04-8.29088E-14
 -1      2102 1.46450E-02-6.16645E-04-8.27202E-14
 -1      2103 1.45071E-02-5.74206E-04-8.13765E-14
 -1      2104 1.47321E-02-7.32716E-04-8.33010E-14
 -1      2105 1.47032E-02-6.94164E-04-8.31029E-14
 -1      2106 1.45659E-02-6.52201E-04-8.17514E-14
 -1      2107 1.47881E-02-8.08901E-04-8.36976E-14
 -1      2108 1.47604E-02-7.70930E-04-8.34999E-14
 -1      2109 1.46238E-02-7.29429E-04-8.21393E-14
 -1      2110 1.48412E-02-8.84261E-04-8.41000E-14
 -1      2111 1.48150E-02-8.46636E-04-8.38985E-14
 -1      2112 1.46794E-02-8.05525E-04-8.25324E-14
 -1      2113 1.48910E-02-9.59351E-04-8.44979E-14
 -1      2114 1.48665E-02-9.21786E-04-8.43007E-14
 -1      2115 1.47318E-02-8.80935E-04-8.29266E-14
 -1      2116 1.49375E-02-1.03478E-03-8.48821E-14
 -1      2117 1.49146E-02-9.96968E-04-8.46907E-14
 -1      2118 1.47807E-02-9.56203E-04-8.33126E-14
 -1      2119 1.49805E-02-1.10980E-03-8.52556E-14
 -1      2120 1.49593E-02-1.07214E-03-8.50699E-14
 -1      2121 1.48259E-02-1.03126E-03-8.36858E-14
 -1      2122 1.50225E-02-1.18748E-03-8.56292E-14
 -1      2123 1.50017E-02-1.14844E-03-8.54433E-14
 -1      2124 1.48685E-02-1.10728E-03-8.40512E-14
 -1      2125 1.50639E-02-1.26681E-03-8.59810E-14
 -1      2126 1.50432E-02-1.22693E-03-8.58070E-14
 -1      2127 1.49099E-02-1.18535E-03-8.44070E-14
 -1      2128 1.51062E-02-1.34788E-03-8.63161E-14
 -1      2129 1.50849E-02-1.30715E-03-8.61513E-14
 -1      2130 1.49510E-02-1.26509E-03-8.47467E-14
 -1      2131 1.11755E-02-1.99019E-04-4.25532E-14
 -1      2132 1.13211E-02-2.51997E-04-4.29098E-14
 -1      2133 1.16029E-02-3.51307E-04-4.35170E-14
 -1      2134 1.16145E-02-3.69427E-04-4.36186E-14
 -1      2135 1.14611E-02-2.97490E-04-4.31759E-14
 -1      2136 1.15481E-02-3.24304E-04-4.33606E-14
 -1      2137 1.07965E-02-4.06717E-05-4.16661E-14
 -1      2138 1.09888E-02-1.24921E-04-4.21243E-14
 -1      2139 1.03468E-02 2.08306E-04-4.02080E-14
 -1      2140 1.05389E-02 9.43415E-05-4.08664E-14
 -1      2141 3.27189E-04-8.90043E-05-1.22135E-16
 -1      2142 3.29261E-04-1.02150E-04-1.19032E-16
 -1      2143 4.46313E-04-1.45084E-04-1.73743E-16
 -1      2144 4.40102E-04-1.09926E-04-1.81739E-16
 -1      2145 9.58108E-03 6.07467E-04-3.73117E-14
 -1      2146 9.73786E-03 5.35281E-04-3.80200E-14
 -1      2147 9.27891E-03 6.76154E-04-3.59584E-14
 -1      2148 9.42600E-03 6.52975E-04-3.66321E-14
 -1      2149 9.48694E-03 6.38904E-04-3.69980E-14
 -1      2150 8.92697E-03 6.31491E-04-3.44861E-14
 -1      2151 9.08184E-03 6.67130E-04-3.51104E-14
 -1      2152 8.59212E-03 4.96611E-04-3.32223E-14
 -1      2153 8.75289E-03 5.71721E-04-3.37840E-14
 -1      2154 8.22315E-03 3.08230E-04-3.21488E-14
 -1      2155 8.39903E-03 4.04591E-04-3.26713E-14
 -1      2156 7.81320E-03 1.07720E-04-3.12593E-14
 -1      2157 7.99356E-03 1.92012E-04-3.15906E-14
 -1      2158 7.47982E-03-3.29530E-05-3.07115E-14
 -1      2159 7.63199E-03 2.99157E-05-3.09644E-14
 -1      2160 7.21682E-03-1.34629E-04-3.02421E-14
 -1      2161 7.33131E-03-9.48448E-05-3.04172E-14
 -1      2162 7.07327E-03-1.89576E-04-2.99838E-14
 -1      2163 7.12373E-03-1.70881E-04-3.00692E-14
 -1      2164 7.09198E-03-2.26144E-04-3.00563E-14
 -1      2165 7.05992E-03-2.11254E-04-2.99786E-14
 -1      2166 7.29786E-03-3.10042E-04-3.07053E-14
 -1      2167 7.18805E-03-2.66601E-04-3.03791E-14
 -1      2168 7.59149E-03-4.25990E-04-3.12748E-14
 -1      2169 7.43095E-03-3.63735E-04-3.09883E-14
 -1      2170 7.37285E-03-3.11934E-04-3.04290E-14
 -1      2171 7.98746E-03-6.11743E-04-3.20846E-14
 -1      2172 7.79254E-03-5.15080E-04-3.16689E-14
 -1      2173 8.42761E-03-8.78594E-04-3.33957E-14
 -1      2174 8.23772E-03-7.57911E-04-3.27974E-14
 -1      2175 8.81281E-03-1.10119E-03-3.46060E-14
 -1      2176 8.62427E-03-9.92942E-04-3.39974E-14
 -1      2177 8.55648E-03-9.30032E-04-3.34996E-14
 -1      2178 9.19515E-03-1.27474E-03-3.61788E-14
 -1      2179 9.04027E-03-1.21445E-03-3.54855E-14
 -1      2180 9.50227E-03-1.31106E-03-3.75290E-14
 -1      2181 9.35115E-03-1.30641E-03-3.68517E-14
 -1      2182 9.28970E-03-1.30393E-03-3.65245E-14
 -1      2183 9.86161E-03-1.22186E-03-3.90413E-14
 -1      2184 9.69991E-03-1.27894E-03-3.83793E-14
 -1      2185 1.02397E-02-1.03819E-03-4.03759E-14
 -1      2186 1.00590E-02-1.13502E-03-3.97572E-14
 -1      2187 1.06440E-02-8.15877E-04-4.16045E-14
 -1      2188 1.04545E-02-9.20757E-04-4.10747E-14
 -1      2189 1.10377E-02-6.17833E-04-4.25911E-14
 -1      2190 1.08534E-02-7.10090E-04-4.21114E-14
 -1      2191 1.13890E-02-4.70683E-04-4.33137E-14
 -1      2192 1.12455E-02-5.23324E-04-4.31026E-14
 -1      2193 1.15729E-02-4.00858E-04-4.35837E-14
 -1      2194 1.14968E-02-4.29895E-04-4.34494E-14
 -1      2195 1.14430E-02-4.38351E-04-4.39376E-14
 -1      2196 9.96940E-03 4.15986E-04-3.89562E-14
 -1      2197 1.01551E-02 3.13737E-04-3.95800E-14
 -1      2198 1.02218E-02 2.47559E-04-4.01873E-14
 -1      2199 1.06507E-02 8.10340E-06-4.16224E-14
 -1      2200 6.07497E-04-2.97992E-04-1.91606E-16
 -1      2201 9.83224E-03 4.77689E-04-3.86138E-14
 -1      2202 6.63275E-04-2.92251E-04-2.53324E-16
 -1      2203 1.13940E-02-2.96694E-04-4.35645E-14
 -1      2204 1.15838E-02-3.50451E-04-4.39912E-14
 -1      2205 1.50819E-02-1.37352E-03-8.59961E-14
 -1      2206 1.10752E-02-1.89719E-04-4.28617E-14
 -1      2207 1.16032E-02-3.84163E-04-4.41116E-14
 -1      2208 1.11405E-02-5.51406E-04-4.32831E-14
 -1      2209 1.10405E-02-5.87303E-04-4.34632E-14
 -1      2210 1.12363E-02-5.06368E-04-4.39806E-14
 -1      2211 1.07299E-02-7.50207E-04-4.22591E-14
 -1      2212 1.03303E-02-9.74262E-04-4.10441E-14
 -1      2213 9.59984E-03-1.30846E-03-3.80479E-14
 -1      2214 8.95149E-03-1.16781E-03-3.49742E-14
 -1      2215 8.86641E-03-1.11304E-03-3.44645E-14
 -1      2216 9.06215E-03-1.22277E-03-3.53394E-14
 -1      2217 7.69624E-03-4.42607E-04-3.10978E-14
 -1      2218 7.13327E-03-2.32056E-04-2.98280E-14
 -1      2219 7.05523E-03-1.96445E-04-2.95136E-14
 -1      2220 7.16669E-03-1.60607E-04-2.96903E-14
 -1      2221 7.40781E-03-8.10392E-05-3.01525E-14
 -1      2222 7.73114E-03 5.04407E-05-3.07350E-14
 -1      2223 8.12220E-03 2.41759E-04-3.15777E-14
 -1      2224 8.51823E-03 4.52130E-04-3.26795E-14
 -1      2225 9.18140E-03 6.83487E-04-3.54697E-14
 -1      2226 8.84396E-03 6.07876E-04-3.39248E-14
 -1      2227 8.13020E-03-6.67482E-04-3.21933E-14
 -1      2228 8.02326E-03-5.90552E-04-3.15940E-14
 -1      2229 8.25563E-03-7.27866E-04-3.22985E-14
 -1      2230 9.94972E-03-1.18318E-03-3.96216E-14
 -1      2231 1.01607E-03 3.99301E-04-3.53057E-16
 -1      2232 8.71677E-04 3.63082E-04-2.53988E-16
 -1      2233 5.48093E-04-5.52594E-05-2.62784E-16
 -1      2234 5.49104E-04-7.19672E-05-2.63244E-16
 -1      2235 5.50490E-04-8.92818E-05-2.63014E-16
 -1      2236 5.52323E-04-1.07250E-04-2.62133E-16
 -1      2237 6.65605E-04-9.53910E-05-3.56323E-16
 -1      2238 5.46746E-04 8.85379E-06-2.54123E-16
 -1      2239 5.46727E-04-6.97197E-06-2.57254E-16
 -1      2240 5.47480E-04 4.08425E-05-2.46222E-16
 -1      2241 5.46993E-04 2.47789E-05-2.50546E-16
 -1      2242 6.61742E-04 1.99115E-05-3.42161E-16
 -1      2243 5.49261E-04 7.34462E-05-2.35462E-16
 -1      2244 5.48224E-04 5.69623E-05-2.41249E-16
 -1      2245 6.63038E-04 5.77254E-05-3.30804E-16
 -1      2246 5.52578E-04 1.08906E-04-2.20662E-16
 -1      2247 5.50696E-04 9.08367E-05-2.28645E-16
 -1      2248 6.65838E-04 9.71589E-05-3.15571E-16
 -1      2249 5.58350E-04 1.48230E-04-2.01255E-16
 -1      2250 5.55090E-04 1.28010E-04-2.11677E-16
 -1      2251 6.70832E-04 1.39902E-04-2.95350E-16
 -1      2252 5.68535E-04 1.93815E-04-1.74340E-16
 -1      2253 5.62773E-04 1.70105E-04-1.89044E-16
 -1      2254 6.79343E-04 1.87425E-04-2.68611E-16
 -1      2255 1.05168E-02 6.05613E-05-4.16507E-14
 -1      2256 1.07510E-02-6.32406E-05-4.24595E-14
 -1      2257 1.30140E-03 4.55790E-04-6.06638E-16
 -1      2258 1.15914E-03 4.30096E-04-4.70273E-16
 -1      2259 1.07138E-03 3.80746E-04-4.45350E-16
 -1      2260 9.14826E-04-3.46001E-04-4.77794E-16
 -1      2261 1.05887E-03-3.79144E-04-6.25110E-16
 -1      2262 9.72003E-03 5.33749E-04-3.82802E-14
 -1      2263 9.91771E-03 4.17797E-04-3.92206E-14
 -1      2264 1.20209E-03-4.07294E-04-7.93257E-16
 -1      2265 1.34486E-03-4.30901E-04-9.82992E-16
 -1      2266 1.11671E-03-3.59862E-04-7.24965E-16
 -1      2267 1.48701E-03-4.50803E-04-1.19330E-15
 -1      2268 1.62877E-03-4.67268E-04-1.42436E-15
 -1      2269 1.40300E-03-4.06098E-04-1.10620E-15
 -1      2270 1.77018E-03-4.80958E-04-1.67631E-15
 -1      2271 1.91137E-03-4.92083E-04-1.94911E-15
 -1      2272 1.68812E-03-4.38592E-04-1.57003E-15
 -1      2273 2.05242E-03-5.01126E-04-2.24240E-15
 -1      2274 2.19339E-03-5.08257E-04-2.55647E-15
 -1      2275 1.97235E-03-4.60615E-04-2.11606E-15
 -1      2276 2.33437E-03-5.13822E-04-2.89074E-15
 -1      2277 2.47537E-03-5.17956E-04-3.24515E-15
 -1      2278 2.25610E-03-4.74741E-04-2.74330E-15
 -1      2279 2.61647E-03-5.20906E-04-3.61951E-15
 -1      2280 2.75768E-03-5.22779E-04-4.01378E-15
 -1      2281 2.53972E-03-4.82922E-04-3.45069E-15
 -1      2282 2.89904E-03-5.23747E-04-4.42741E-15
 -1      2283 3.04056E-03-5.23893E-04-4.86013E-15
 -1      2284 2.82350E-03-4.86610E-04-4.23648E-15
 -1      2285 3.18229E-03-5.23332E-04-5.31143E-15
 -1      2286 3.32421E-03-5.22129E-04-5.78202E-15
 -1      2287 3.10763E-03-4.86866E-04-5.09957E-15
 -1      2288 3.46637E-03-5.20357E-04-6.27115E-15
 -1      2289 3.60877E-03-5.18064E-04-6.77838E-15
 -1      2290 3.39225E-03-4.84440E-04-6.03754E-15
 -1      2291 3.75143E-03-5.15297E-04-7.30309E-15
 -1      2292 3.89438E-03-5.12094E-04-7.84579E-15
 -1      2293 3.67750E-03-4.79852E-04-7.04867E-15
 -1      2294 4.03762E-03-5.08481E-04-8.40578E-15
 -1      2295 4.18121E-03-5.04494E-04-8.98402E-15
 -1      2296 3.96349E-03-4.73455E-04-8.13106E-15
 -1      2297 4.32513E-03-5.00151E-04-9.57937E-15
 -1      2298 4.46946E-03-4.95491E-04-1.01912E-14
 -1      2299 4.25033E-03-4.65501E-04-9.28366E-15
 -1      2300 4.61417E-03-4.90538E-04-1.08199E-14
 -1      2301 4.75937E-03-4.85341E-04-1.14664E-14
 -1      2302 4.53817E-03-4.56213E-04-1.05059E-14
 -1      2303 4.90503E-03-4.79946E-04-1.21294E-14
 -1      2304 5.05127E-03-4.74422E-04-1.28092E-14
 -1      2305 4.82716E-03-4.45856E-04-1.17950E-14
 -1      2306 5.19805E-03-4.68857E-04-1.35076E-14
 -1      2307 5.34553E-03-4.63357E-04-1.42241E-14
 -1      2308 5.11750E-03-4.34841E-04-1.31540E-14
 -1      2309 5.49365E-03-4.58079E-04-1.49590E-14
 -1      2310 5.64262E-03-4.53183E-04-1.57124E-14
 -1      2311 5.40942E-03-4.23842E-04-1.45838E-14
 -1      2312 5.79236E-03-4.48931E-04-1.64843E-14
 -1      2313 5.94313E-03-4.45572E-04-1.72764E-14
 -1      2314 5.70324E-03-4.13967E-04-1.60879E-14
 -1      2315 6.09486E-03-4.43510E-04-1.80861E-14
 -1      2316 6.24784E-03-4.43128E-04-1.89148E-14
 -1      2317 5.99940E-03-4.06963E-04-1.76682E-14
 -1      2318 6.40208E-03-4.45012E-04-1.97634E-14
 -1      2319 6.55787E-03-4.49751E-04-2.06288E-14
 -1      2320 6.29865E-03-4.05499E-04-1.93237E-14
 -1      2321 6.71539E-03-4.58122E-04-2.15115E-14
 -1      2322 6.87491E-03-4.71026E-04-2.24119E-14
 -1      2323 6.60230E-03-4.13497E-04-2.10516E-14
 -1      2324 7.03689E-03-4.89378E-04-2.33293E-14
 -1      2325 7.20145E-03-5.14505E-04-2.42635E-14
 -1      2326 6.91266E-03-4.36525E-04-2.28484E-14
 -1      2327 7.36955E-03-5.47275E-04-2.52148E-14
 -1      2328 7.54085E-03-5.89499E-04-2.61804E-14
 -1      2329 7.23351E-03-4.82165E-04-2.47130E-14
 -1      2330 7.71691E-03-6.41641E-04-2.71625E-14
 -1      2331 7.89633E-03-7.05563E-04-2.81610E-14
 -1      2332 7.57025E-03-5.60207E-04-2.66426E-14
 -1      2333 8.08106E-03-7.80736E-04-2.91740E-14
 -1      2334 8.26787E-03-8.67759E-04-3.02038E-14
 -1      2335 7.92846E-03-6.81595E-04-2.86330E-14
 -1      2336 8.45826E-03-9.64125E-04-3.12503E-14
 -1      2337 8.64727E-03-1.06539E-03-3.23146E-14
 -1      2338 8.30919E-03-8.54232E-04-3.06871E-14
 -1      2339 8.83449E-03-1.16672E-03-3.33977E-14
 -1      2340 9.01784E-03-1.25813E-03-3.44978E-14
 -1      2341 8.70051E-03-1.06508E-03-3.28108E-14
 -1      2342 9.19504E-03-1.33347E-03-3.56171E-14
 -1      2343 9.36988E-03-1.37973E-03-3.67556E-14
 -1      2344 9.08155E-03-1.26508E-03-3.50076E-14
 -1      2345 9.53918E-03-1.39381E-03-3.79102E-14
 -1      2346 9.71387E-03-1.37670E-03-3.90853E-14
 -1      2347 9.44327E-03-1.36774E-03-3.72802E-14
 -1      2348 9.89045E-03-1.33063E-03-4.02780E-14
 -1      2349 1.00732E-02-1.26660E-03-4.14852E-14
 -1      2350 9.80381E-03-1.32383E-03-3.96260E-14
 -1      2351 1.02601E-02-1.19104E-03-4.27089E-14
 -1      2352 1.04491E-02-1.11510E-03-4.39501E-14
 -1      2353 1.01842E-02-1.17919E-03-4.20394E-14
 -1      2354 1.06394E-02-1.04375E-03-4.52078E-14
 -1      2355 1.08264E-02-9.81366E-04-4.64812E-14
 -1      2356 1.05754E-02-1.01786E-03-4.45179E-14
 -1      2357 1.10115E-02-9.30503E-04-4.77691E-14
 -1      2358 1.11913E-02-8.90934E-04-4.90709E-14
 -1      2359 1.09569E-02-8.94231E-04-4.70602E-14
 -1      2360 1.13678E-02-8.63282E-04-5.03891E-14
 -1      2361 1.15395E-02-8.45622E-04-5.17225E-14
 -1      2362 1.13164E-02-8.21358E-04-4.96633E-14
 -1      2363 1.17079E-02-8.37550E-04-5.30664E-14
 -1      2364 1.18727E-02-8.37227E-04-5.44221E-14
 -1      2365 1.16541E-02-7.92533E-04-5.23209E-14
 -1      2366 1.20348E-02-8.43802E-04-5.57906E-14
 -1      2367 1.21945E-02-8.55904E-04-5.71705E-14
 -1      2368 1.19755E-02-7.96620E-04-5.50297E-14
 -1      2369 1.23521E-02-8.72608E-04-5.85661E-14
 -1      2370 1.25079E-02-8.92995E-04-5.99745E-14
 -1      2371 1.22862E-02-8.23698E-04-5.77874E-14
 -1      2372 1.26622E-02-9.16259E-04-6.13910E-14
 -1      2373 1.28152E-02-9.41798E-04-6.28210E-14
 -1      2374 1.25900E-02-8.66010E-04-6.05945E-14
 -1      2375 1.29669E-02-9.68992E-04-6.42638E-14
 -1      2376 1.31176E-02-9.97447E-04-6.57177E-14
 -1      2377 1.28893E-02-9.17826E-04-6.34490E-14
 -1      2378 1.32672E-02-1.02672E-03-6.71812E-14
 -1      2379 1.34161E-02-1.05656E-03-6.86538E-14
 -1      2380 1.31854E-02-9.75051E-04-6.63493E-14
 -1      2381 1.35642E-02-1.08666E-03-7.01351E-14
 -1      2382 1.37115E-02-1.11685E-03-7.16245E-14
 -1      2383 1.34791E-02-1.03484E-03-6.92859E-14
 -1      2384 1.38582E-02-1.14693E-03-7.31221E-14
 -1      2385 1.40044E-02-1.17678E-03-7.46243E-14
 -1      2386 1.37709E-02-1.09525E-03-7.22583E-14
 -1      2387 1.41499E-02-1.20627E-03-7.61302E-14
 -1      2388 1.42951E-02-1.23531E-03-7.76434E-14
 -1      2389 1.40610E-02-1.15497E-03-7.52566E-14
 -1      2390 1.44397E-02-1.26383E-03-7.91604E-14
 -1      2391 1.45840E-02-1.29174E-03-8.06816E-14
 -1      2392 1.43499E-02-1.21311E-03-7.82744E-14
 -1      2393 1.86441E-03 5.22740E-04-1.34319E-15
 -1      2394 1.72421E-03 5.10478E-04-1.13016E-15
 -1      2395 2.14451E-03 5.40797E-04-1.82856E-15
 -1      2396 2.00450E-03 5.32788E-04-1.57598E-15
 -1      2397 1.92403E-03 4.91881E-04-1.51679E-15
 -1      2398 2.42471E-03 5.51970E-04-2.39256E-15
 -1      2399 2.28458E-03 5.47142E-04-2.10082E-15
 -1      2400 2.20620E-03 5.07830E-04-2.02902E-15
 -1      2401 2.70543E-03 5.57983E-04-3.03479E-15
 -1      2402 2.56499E-03 5.55544E-04-2.70400E-15
 -1      2403 2.48833E-03 5.17417E-04-2.61867E-15
 -1      2404 2.98698E-03 5.60102E-04-3.75494E-15
 -1      2405 2.84610E-03 5.59471E-04-3.38499E-15
 -1      2406 2.77077E-03 5.22223E-04-3.28653E-15
 -1      2407 3.26952E-03 5.59248E-04-4.54984E-15
 -1      2408 3.12812E-03 5.60002E-04-4.14317E-15
 -1      2409 3.05377E-03 5.23411E-04-4.03083E-15
 -1      2410 3.55321E-03 5.56086E-04-5.41913E-15
 -1      2411 3.41122E-03 5.57921E-04-4.97511E-15
 -1      2412 3.33750E-03 5.21827E-04-4.84932E-15
 -1      2413 3.83818E-03 5.51106E-04-6.36345E-15
 -1      2414 3.69553E-03 5.53796E-04-5.88169E-15
 -1      2415 3.62209E-03 5.18077E-04-5.74177E-15
 -1      2416 4.12460E-03 5.44693E-04-7.38320E-15
 -1      2417 3.98120E-03 5.48054E-04-6.86327E-15
 -1      2418 3.90769E-03 5.12610E-04-6.70868E-15
 -1      2419 4.41265E-03 5.37199E-04-8.48066E-15
 -1      2420 4.26840E-03 5.41055E-04-7.92298E-15
 -1      2421 4.19445E-03 5.05783E-04-7.75125E-15
 -1      2422 4.70258E-03 5.29028E-04-9.65355E-15
 -1      2423 4.55736E-03 5.33167E-04-9.05760E-15
 -1      2424 4.48254E-03 4.97942E-04-8.87079E-15
 -1      2425 4.99470E-03 5.20717E-04-1.09000E-14
 -1      2426 4.84834E-03 5.24848E-04-1.02679E-14
 -1      2427 4.77219E-03 4.89494E-04-1.00649E-14
 -1      2428 5.28935E-03 5.13039E-04-1.22205E-14
 -1      2429 5.14168E-03 5.16741E-04-1.15513E-14
 -1      2430 5.06369E-03 4.81001E-04-1.13335E-14
 -1      2431 5.58692E-03 5.07101E-04-1.36113E-14
 -1      2432 5.43774E-03 5.09773E-04-1.29063E-14
 -1      2433 5.35737E-03 4.73276E-04-1.26733E-14
 -1      2434 5.88779E-03 5.04448E-04-1.50760E-14
 -1      2435 5.73691E-03 5.05258E-04-1.43350E-14
 -1      2436 5.65365E-03 4.67486E-04-1.40861E-14
 -1      2437 6.19234E-03 5.07128E-04-1.66125E-14
 -1      2438 6.03960E-03 5.04986E-04-1.58352E-14
 -1      2439 5.95300E-03 4.65249E-04-1.55719E-14
 -1      2440 6.50082E-03 5.17671E-04-1.82162E-14
 -1      2441 6.34611E-03 5.11256E-04-1.74059E-14
 -1      2442 6.25595E-03 4.68700E-04-1.71284E-14
 -1      2443 6.81327E-03 5.38909E-04-1.98892E-14
 -1      2444 6.65662E-03 5.26787E-04-1.90442E-14
 -1      2445 6.56304E-03 4.80463E-04-1.87520E-14
 -1      2446 7.12931E-03 5.73479E-04-2.16319E-14
 -1      2447 6.97098E-03 5.54396E-04-2.07509E-14
 -1      2448 6.87469E-03 5.03460E-04-2.04453E-14
 -1      2449 7.44792E-03 6.22909E-04-2.34404E-14
 -1      2450 7.28852E-03 5.96312E-04-2.25277E-14
 -1      2451 7.19099E-03 5.40388E-04-2.22037E-14
 -1      2452 7.76718E-03 6.86207E-04-2.53224E-14
 -1      2453 7.60778E-03 6.53022E-04-2.43739E-14
 -1      2454 7.51128E-03 5.92759E-04-2.40335E-14
 -1      2455 8.08417E-03 7.58089E-04-2.72650E-14
 -1      2456 7.92628E-03 7.21610E-04-2.62854E-14
 -1      2457 7.83367E-03 6.59318E-04-2.59319E-14
 -1      2458 8.39562E-03 8.27764E-04-2.92704E-14
 -1      2459 8.24079E-03 7.94085E-04-2.82604E-14
 -1      2460 8.15478E-03 7.33959E-04-2.78924E-14
 -1      2461 8.69938E-03 8.79748E-04-3.13382E-14
 -1      2462 8.54839E-03 8.57037E-04-3.02959E-14
 -1      2463 8.47058E-03 8.04358E-04-2.99157E-14
 -1      2464 8.99615E-03 8.97826E-04-3.34721E-14
 -1      2465 8.84821E-03 8.93902E-04-3.23961E-14
 -1      2466 8.77841E-03 8.53094E-04-3.20022E-14
 -1      2467 9.29008E-03 8.71429E-04-3.56761E-14
 -1      2468 9.14282E-03 8.90455E-04-3.45648E-14
 -1      2469 9.07943E-03 8.62807E-04-3.41560E-14
 -1      2470 9.58692E-03 8.00740E-04-3.79551E-14
 -1      2471 9.43757E-03 8.41132E-04-3.68073E-14
 -1      2472 9.37890E-03 8.24029E-04-3.63826E-14
 -1      2473 9.89076E-03 6.96655E-04-4.03084E-14
 -1      2474 9.73772E-03 7.51890E-04-3.91226E-14
 -1      2475 9.68310E-03 7.40381E-04-3.86845E-14
 -1      2476 1.02023E-02 5.75492E-04-4.27333E-14
 -1      2477 1.00457E-02 6.37175E-04-4.15112E-14
 -1      2478 9.99529E-03 6.26540E-04-4.10582E-14
 -1      2479 1.05192E-02 4.52625E-04-4.52287E-14
 -1      2480 1.03604E-02 5.13501E-04-4.39729E-14
 -1      2481 1.03144E-02 5.00815E-04-4.35039E-14
 -1      2482 1.08383E-02 3.38593E-04-4.77829E-14
 -1      2483 1.06788E-02 3.94085E-04-4.64987E-14
 -1      2484 1.06365E-02 3.78250E-04-4.60175E-14
 -1      2485 1.11567E-02 2.38463E-04-5.03946E-14
 -1      2486 1.09979E-02 2.86662E-04-4.90829E-14
 -1      2487 1.09580E-02 2.67700E-04-4.85888E-14
 -1      2488 1.14724E-02 1.53100E-04-5.30557E-14
 -1      2489 1.13150E-02 1.93993E-04-5.17180E-14
 -1      2490 1.12761E-02 1.72408E-04-5.12136E-14
 -1      2491 1.17844E-02 8.08558E-05-5.57668E-14
 -1      2492 1.16290E-02 1.15481E-04-5.44053E-14
 -1      2493 1.15898E-02 9.19002E-05-5.38875E-14
 -1      2494 1.20924E-02 1.90082E-05-5.85242E-14
 -1      2495 1.19389E-02 4.87999E-05-5.71400E-14
 -1      2496 1.18987E-02 2.38135E-05-5.66139E-14
 -1      2497 1.23964E-02-3.53489E-05-6.13188E-14
 -1      2498 1.22449E-02-8.94833E-06-5.99175E-14
 -1      2499 1.22032E-02-3.48259E-05-5.93817E-14
 -1      2500 1.26967E-02-8.48389E-05-6.41335E-14
 -1      2501 1.25470E-02-6.05673E-05-6.27228E-14
 -1      2502 1.25039E-02-8.69076E-05-6.21809E-14
 -1      2503 1.29937E-02-1.31628E-04-6.69701E-14
 -1      2504 1.28456E-02-1.08462E-04-6.55505E-14
 -1      2505 1.28012E-02-1.34918E-04-6.50025E-14
 -1      2506 1.32878E-02-1.77412E-04-6.98236E-14
 -1      2507 1.31411E-02-1.54561E-04-6.83958E-14
 -1      2508 1.30957E-02-1.80855E-04-6.78410E-14
 -1      2509 1.35795E-02-2.23488E-04-7.26889E-14
 -1      2510 1.34340E-02-2.00347E-04-7.12532E-14
 -1      2511 1.33878E-02-2.26258E-04-7.06975E-14
 -1      2512 1.38692E-02-2.70823E-04-7.55654E-14
 -1      2513 1.37246E-02-2.46945E-04-7.41258E-14
 -1      2514 1.36780E-02-2.72297E-04-7.35664E-14
 -1      2515 1.41572E-02-3.20120E-04-7.84545E-14
 -1      2516 1.40134E-02-2.95184E-04-7.70103E-14
 -1      2517 1.39666E-02-3.19838E-04-7.64459E-14
 -1      2518 1.43048E-02-3.45498E-04-7.99418E-14
 -1      2519 1.44580E-02-6.49601E-04-8.05912E-14
 -1      2520 1.44284E-02-6.10627E-04-8.04025E-14
 -1      2521 1.45157E-02-7.26529E-04-8.09771E-14
 -1      2522 1.44871E-02-6.88212E-04-8.07849E-14
 -1      2523 1.43503E-02-6.47339E-04-7.94300E-14
 -1      2524 1.43396E-02-4.92744E-04-7.98503E-14
 -1      2525 1.43099E-02-4.52206E-04-7.96662E-14
 -1      2526 1.43988E-02-5.71615E-04-8.02167E-14
 -1      2527 1.43693E-02-5.32547E-04-8.00329E-14
 -1      2528 1.42310E-02-4.90940E-04-7.86886E-14
 -1      2529 1.42909E-02-5.69771E-04-7.90555E-14
 -1      2530 1.45708E-02-8.02404E-04-8.13629E-14
 -1      2531 1.45436E-02-7.64559E-04-8.11696E-14
 -1      2532 1.44078E-02-7.23855E-04-7.98095E-14
 -1      2533 1.46224E-02-8.77694E-04-8.17487E-14
 -1      2534 1.45970E-02-8.40074E-04-8.15570E-14
 -1      2535 1.44623E-02-7.99366E-04-8.01900E-14
 -1      2536 1.46704E-02-9.52952E-04-8.21231E-14
 -1      2537 1.46468E-02-9.15276E-04-8.19371E-14
 -1      2538 1.45131E-02-8.74374E-04-8.05642E-14
 -1      2539 1.47143E-02-1.02746E-03-8.24833E-14
 -1      2540 1.46927E-02-9.90096E-04-8.23045E-14
 -1      2541 1.45597E-02-9.48825E-04-8.09267E-14
 -1      2542 1.47564E-02-1.10433E-03-8.28419E-14
 -1      2543 1.47356E-02-1.06573E-03-8.26637E-14
 -1      2544 1.46029E-02-1.02395E-03-8.12792E-14
 -1      2545 1.47971E-02-1.18271E-03-8.31821E-14
 -1      2546 1.47768E-02-1.14331E-03-8.30127E-14
 -1      2547 1.46440E-02-1.10094E-03-8.16232E-14
 -1      2548 1.48378E-02-1.26285E-03-8.35088E-14
 -1      2549 1.48173E-02-1.22255E-03-8.33450E-14
 -1      2550 1.46840E-02-1.17960E-03-8.19517E-14
 -1      2551 1.15621E-02-3.54555E-04-4.44865E-14
 -1      2552 1.16141E-02-3.65614E-04-4.46447E-14
 -1      2553 1.09997E-02-1.77305E-04-4.32254E-14
 -1      2554 1.11676E-02-2.41640E-04-4.36620E-14
 -1      2555 1.58372E-03 4.95465E-04-9.36520E-16
 -1      2556 1.44283E-03 4.77493E-04-7.61882E-16
 -1      2557 1.64130E-03 4.67437E-04-1.08287E-15
 -1      2558 1.49529E-02-1.34909E-03-8.46192E-14
 -1      2559 1.16290E-02-3.80607E-04-4.48248E-14
 -1      2560 1.15882E-02-3.92560E-04-4.47872E-14
 -1      2561 1.13405E-02-2.98710E-04-4.40491E-14
 -1      2562 1.14681E-02-3.31508E-04-4.43205E-14
 -1      2563 1.01321E-02 2.88371E-04-4.01623E-14
 -1      2564 1.02970E-02 1.86958E-04-4.07972E-14
 -1      2565 7.77685E-03-4.59178E-04-3.08236E-14
 -1      2566 7.59735E-03-3.79359E-04-3.04392E-14
 -1      2567 7.18561E-03-2.35337E-04-2.95132E-14
 -1      2568 7.08884E-03-2.11502E-04-2.91954E-14
 -1      2569 5.46935E-04-2.28805E-05-2.59639E-16
 -1      2570 5.47381E-04-3.89108E-05-2.61591E-16
 -1      2571 6.62895E-04-5.57488E-05-3.54968E-16
 -1      2572 6.61692E-04-1.76796E-05-3.50238E-16
 -1      2573 8.78757E-03 5.87689E-04-3.34429E-14
 -1      2574 8.93137E-03 6.46043E-04-3.41408E-14
 -1      2575 9.41465E-03 6.64419E-04-3.66794E-14
 -1      2576 9.53780E-03 6.19656E-04-3.73594E-14
 -1      2577 9.08352E-03 6.83381E-04-3.48779E-14
 -1      2578 9.23959E-03 6.92767E-04-3.57217E-14
 -1      2579 8.42851E-03 4.01371E-04-3.20461E-14
 -1      2580 8.58764E-03 4.91475E-04-3.25890E-14
 -1      2581 8.02503E-03 1.81958E-04-3.09190E-14
 -1      2582 8.22938E-03 2.92449E-04-3.14681E-14
 -1      2583 7.64145E-03 1.59583E-06-3.01226E-14
 -1      2584 7.80312E-03 7.32424E-05-3.04100E-14
 -1      2585 7.34572E-03-1.07805E-04-2.95437E-14
 -1      2586 7.48689E-03-6.00744E-05-2.98327E-14
 -1      2587 7.55091E-03-2.97011E-05-2.95111E-14
 -1      2588 7.12049E-03-1.68717E-04-2.90560E-14
 -1      2589 7.21128E-03-1.48407E-04-2.92257E-14
 -1      2590 7.04231E-03-1.94258E-04-2.90539E-14
 -1      2591 7.05739E-03-1.87411E-04-2.90586E-14
 -1      2592 7.43623E-03-3.16669E-04-3.01341E-14
 -1      2593 7.31112E-03-2.75142E-04-2.98565E-14
 -1      2594 1.00366E-02-1.13953E-03-4.02531E-14
 -1      2595 9.87531E-03-1.22621E-03-3.95296E-14
 -1      2596 8.64862E-03-9.75434E-04-3.35203E-14
 -1      2597 8.48121E-03-8.64540E-04-3.29266E-14
 -1      2598 9.36545E-03-1.32643E-03-3.68789E-14
 -1      2599 9.24184E-03-1.29601E-03-3.62061E-14
 -1      2600 9.68414E-03-1.30183E-03-3.86174E-14
 -1      2601 9.52853E-03-1.33306E-03-3.77625E-14
 -1      2602 1.04139E-02-9.18886E-04-4.17509E-14
 -1      2603 1.02272E-02-1.03184E-03-4.10445E-14
 -1      2604 1.08264E-02-6.89761E-04-4.30472E-14
 -1      2605 1.06413E-02-7.89457E-04-4.25318E-14
 -1      2606 1.15032E-02-4.18004E-04-4.46178E-14
 -1      2607 1.14042E-02-4.46484E-04-4.44792E-14
 -1      2608 5.88313E-04-2.37874E-04-2.31030E-16
 -1      2609 7.81024E-04-3.04575E-04-3.65417E-16
 -1      2610 8.40552E-04-2.93298E-04-4.41568E-16
 -1      2611 5.78873E-04-2.10088E-04-2.42319E-16
 -1      2612 7.57477E-04 3.33982E-04-1.83284E-16
 -1      2613 6.11141E-04 2.84727E-04-1.17162E-16
 -1      2614 5.84489E-04 2.57982E-04-1.25591E-16
 -1      2615 8.13388E-04 3.22610E-04-2.51155E-16
 -1      2616 9.00881E-03 6.74090E-04-3.43869E-14
 -1      2617 6.70463E-04-1.37829E-04-3.53518E-16
 -1      2618 5.54780E-04-1.26145E-04-2.59761E-16
 -1      2619 5.57878E-04-1.46140E-04-2.56116E-16
 -1      2620 1.08745E-02-1.22831E-04-4.32534E-14
 -1      2621 1.04252E-02 1.10569E-04-4.16244E-14
 -1      2622 5.72085E-04 2.27803E-04-1.46611E-16
 -1      2623 8.77339E-03-1.05304E-03-3.38807E-14
 -1      2624 8.67970E-03-9.94610E-04-3.32995E-14
 -1      2625 8.87890E-03-1.12314E-03-3.42399E-14
 -1      2626 1.01427E-02-1.08964E-03-4.09508E-14
 -1      2627 1.00101E-02 3.60782E-04-3.98197E-14
 -1      2628 7.50818E-03-3.38145E-04-2.98633E-14
 -1      2629 7.04701E-03-1.96779E-04-2.87422E-14
 -1      2630 7.01954E-03-1.87308E-04-2.82920E-14
 -1      2631 7.06689E-03-1.99071E-04-2.84308E-14
 -1      2632 1.15700E-02-4.05483E-04-4.53332E-14
 -1      2633 7.26735E-03-1.24858E-04-2.89093E-14
 -1      2634 1.42580E-02-3.69348E-04-7.93775E-14
 -1      2635 1.42648E-02-3.99032E-04-7.93581E-14
 -1      2636 1.16391E-02-3.79820E-04-4.53249E-14
 -1      2637 1.15294E-02-3.51845E-04-4.49760E-14
 -1      2638 1.12759E-02-2.82421E-04-4.44170E-14
 -1      2639 7.90900E-03 1.30645E-04-3.03015E-14
 -1      2640 8.30875E-03 3.44334E-04-3.13785E-14
 -1      2641 1.35732E-03 4.31655E-04-7.26361E-16
 -1      2642 5.71807E-04-1.85123E-04-2.50762E-16
 -1      2643 1.13295E-02-4.73880E-04-4.46579E-14
 -1      2644 1.12545E-02-5.07214E-04-4.48377E-14
 -1      2645 1.14130E-02-4.55702E-04-4.53416E-14
 -1      2646 6.89388E-04 2.51076E-04-2.19686E-16
 -1      2647 1.09533E-02-6.32879E-04-4.37410E-14
 -1      2648 1.05376E-02-8.56470E-04-4.25319E-14
 -1      2649 9.78446E-03-1.27540E-03-3.92381E-14
 -1      2650 7.22966E-03-2.43441E-04-2.92210E-14
 -1      2651 9.15134E-03-1.26386E-03-3.56881E-14
 -1      2652 7.89510E-03-5.13715E-04-3.09255E-14
 -1      2653 7.77315E-03-4.54042E-04-3.02643E-14
 -1      2654 8.00437E-03-5.73194E-04-3.10261E-14
 -1      2655 9.63556E-03 5.75097E-04-3.79539E-14
 -1      2656 9.30484E-03 6.88309E-04-3.60744E-14
 -1      2657 8.35704E-03-7.84303E-04-3.23186E-14
 -1      2658 8.68134E-03 5.46160E-04-3.27998E-14
 -1      2659 7.07206E-03-1.73019E-04-2.85991E-14
 -1      2660 9.46734E-03-1.34075E-03-3.74371E-14
 -1      2661 1.48113E-02-1.33676E-03-8.30816E-14
 -1      2662 1.48306E-02-1.29329E-03-8.33781E-14
 -1      2663 1.46963E-02-1.24978E-03-8.19791E-14
 -1      2664 1.46817E-02-1.31108E-03-8.17115E-14
 -1      2665 1.41554E-02-3.97954E-04-7.81991E-14
 -1      2666 1.45914E-02-1.26096E-03-8.08170E-14
 -1      2667 7.80616E-04 7.72195E-05-4.28029E-16
 -1      2668 7.79381E-04 5.53890E-05-4.36378E-16
 -1      2669 7.78552E-04 3.35107E-05-4.43561E-16
 -1      2670 7.78138E-04 1.18819E-05-4.49673E-16
 -1      2671 8.97008E-04 4.95808E-05-5.57768E-16
 -1      2672 7.91751E-04 1.72920E-04-3.80785E-16
 -1      2673 7.87814E-04 1.47525E-04-3.95137E-16
 -1      2674 8.03436E-04 2.28085E-04-3.45630E-16
 -1      2675 7.96909E-04 1.99709E-04-3.64482E-16
 -1      2676 9.15037E-04 2.07494E-04-4.76493E-16
 -1      2677 1.10881E-02-5.80618E-04-4.45938E-14
 -1      2678 1.09025E-02-6.72869E-04-4.41697E-14
 -1      2679 1.12954E-03 3.61301E-04-5.43063E-16
 -1      2680 9.85971E-04 3.32432E-04-4.16957E-16
 -1      2681 8.02928E-04 2.77981E-04-2.94496E-16
 -1      2682 1.32002E-03-3.61785E-04-1.01961E-15
 -1      2683 1.46324E-03-3.80464E-04-1.23211E-15
 -1      2684 1.60628E-03-3.96183E-04-1.46478E-15
 -1      2685 1.74923E-03-4.09164E-04-1.71762E-15
 -1      2686 1.52502E-03-3.54011E-04-1.36036E-15
 -1      2687 1.89203E-03-4.19868E-04-1.99092E-15
 -1      2688 2.03472E-03-4.28479E-04-2.28428E-15
 -1      2689 1.81174E-03-3.79075E-04-1.86712E-15
 -1      2690 2.17732E-03-4.35359E-04-2.59752E-15
 -1      2691 2.31985E-03-4.40652E-04-2.93088E-15
 -1      2692 2.09826E-03-3.95794E-04-2.45371E-15
 -1      2693 2.46235E-03-4.44632E-04-3.28357E-15
 -1      2694 2.60482E-03-4.47415E-04-3.65583E-15
 -1      2695 2.38452E-03-4.06109E-04-3.11882E-15
 -1      2696 2.74730E-03-4.49199E-04-4.04849E-15
 -1      2697 2.88979E-03-4.50072E-04-4.45965E-15
 -1      2698 2.67059E-03-4.11548E-04-3.86208E-15
 -1      2699 3.03233E-03-4.50175E-04-4.88949E-15
 -1      2700 3.17491E-03-4.49574E-04-5.33846E-15
 -1      2701 2.95652E-03-4.13269E-04-4.68222E-15
 -1      2702 3.31756E-03-4.48365E-04-5.80628E-15
 -1      2703 3.46028E-03-4.46595E-04-6.29271E-15
 -1      2704 3.24240E-03-4.12118E-04-5.57771E-15
 -1      2705 3.60308E-03-4.44328E-04-6.79646E-15
 -1      2706 3.74597E-03-4.41597E-04-7.31836E-15
 -1      2707 3.52828E-03-4.08690E-04-6.54663E-15
 -1      2708 3.88896E-03-4.38445E-04-7.85887E-15
 -1      2709 4.03207E-03-4.34898E-04-8.41597E-15
 -1      2710 3.81418E-03-4.03396E-04-7.58799E-15
 -1      2711 4.17528E-03-4.30986E-04-8.99049E-15
 -1      2712 4.31863E-03-4.26732E-04-9.58336E-15
 -1      2713 4.10012E-03-3.96523E-04-8.70003E-15
 -1      2714 4.46209E-03-4.22169E-04-1.01929E-14
 -1      2715 4.60571E-03-4.17321E-04-1.08190E-14
 -1      2716 4.38609E-03-3.88291E-04-9.88170E-15
 -1      2717 4.74944E-03-4.12236E-04-1.14628E-14
 -1      2718 4.89336E-03-4.06949E-04-1.21231E-14
 -1      2719 4.67207E-03-3.78928E-04-1.11318E-14
 -1      2720 5.03741E-03-4.01538E-04-1.28015E-14
 -1      2721 5.18166E-03-3.96058E-04-1.34974E-14
 -1      2722 4.95799E-03-3.68738E-04-1.24508E-14
 -1      2723 5.32604E-03-3.90639E-04-1.42105E-14
 -1      2724 5.47068E-03-3.85371E-04-1.49428E-14
 -1      2725 5.24378E-03-3.58197E-04-1.38397E-14
 -1      2726 5.61547E-03-3.80456E-04-1.56935E-14
 -1      2727 5.76057E-03-3.76039E-04-1.64637E-14
 -1      2728 5.52936E-03-3.48059E-04-1.53012E-14
 -1      2729 5.90590E-03-3.72422E-04-1.72529E-14
 -1      2730 6.05167E-03-3.69838E-04-1.80595E-14
 -1      2731 5.81473E-03-3.39494E-04-1.68389E-14
 -1      2732 6.19783E-03-3.68707E-04-1.88860E-14
 -1      2733 6.34470E-03-3.69409E-04-1.97317E-14
 -1      2734 6.10010E-03-3.34242E-04-1.84518E-14
 -1      2735 6.49232E-03-3.72478E-04-2.05939E-14
 -1      2736 6.64117E-03-3.78553E-04-2.14729E-14
 -1      2737 6.38617E-03-3.34802E-04-2.01370E-14
 -1      2738 6.79152E-03-3.88237E-04-2.23705E-14
 -1      2739 6.94402E-03-4.02631E-04-2.32841E-14
 -1      2740 6.67464E-03-3.44688E-04-2.18934E-14
 -1      2741 7.09939E-03-4.22306E-04-2.42142E-14
 -1      2742 7.25837E-03-4.49135E-04-2.51606E-14
 -1      2743 6.96910E-03-3.68861E-04-2.37181E-14
 -1      2744 7.42238E-03-4.83481E-04-2.61231E-14
 -1      2745 7.59185E-03-5.28416E-04-2.71010E-14
 -1      2746 7.27609E-03-4.14606E-04-2.56054E-14
 -1      2747 7.76919E-03-5.83760E-04-2.80930E-14
 -1      2748 7.95313E-03-6.53685E-04-2.91009E-14
 -1      2749 7.60581E-03-4.93490E-04-2.75561E-14
 -1      2750 8.14719E-03-7.36917E-04-3.01261E-14
 -1      2751 8.34602E-03-8.37265E-04-3.11680E-14
 -1      2752 7.97050E-03-6.22097E-04-2.95676E-14
 -1      2753 8.64383E-03-1.00638E-03-3.26948E-14
 -1      2754 8.84546E-03-1.12224E-03-3.37792E-14
 -1      2755 9.04289E-03-1.22709E-03-3.48831E-14
 -1      2756 1.01048E-02-1.17277E-03-4.13747E-14
 -1      2757 1.03076E-02-1.08178E-03-4.25949E-14
 -1      2758 1.05122E-02-9.94605E-04-4.38345E-14
 -1      2759 1.07109E-02-9.19386E-04-4.50900E-14
 -1      2760 1.04542E-02-9.74425E-04-4.31529E-14
 -1      2761 1.09056E-02-8.59464E-04-4.63598E-14
 -1      2762 1.10905E-02-8.13222E-04-4.76440E-14
 -1      2763 1.08595E-02-8.22630E-04-4.56594E-14
 -1      2764 1.12689E-02-7.81619E-04-4.89435E-14
 -1      2765 1.14395E-02-7.60815E-04-5.02580E-14
 -1      2766 1.12277E-02-7.39211E-04-4.82265E-14
 -1      2767 1.16045E-02-7.50730E-04-5.15854E-14
 -1      2768 1.17643E-02-7.48423E-04-5.29246E-14
 -1      2769 1.15610E-02-7.07592E-04-5.08520E-14
 -1      2770 1.19204E-02-7.53451E-04-5.42791E-14
 -1      2771 1.20736E-02-7.63909E-04-5.56421E-14
 -1      2772 1.18709E-02-7.10293E-04-5.35292E-14
 -1      2773 1.22245E-02-7.79191E-04-5.70180E-14
 -1      2774 1.23738E-02-7.98178E-04-5.84094E-14
 -1      2775 1.21677E-02-7.35563E-04-5.62541E-14
 -1      2776 1.25219E-02-8.20239E-04-5.98103E-14
 -1      2777 1.26691E-02-8.44702E-04-6.12206E-14
 -1      2778 1.24579E-02-7.75711E-04-5.90273E-14
 -1      2779 1.28155E-02-8.71015E-04-6.26462E-14
 -1      2780 1.29615E-02-8.98764E-04-6.40818E-14
 -1      2781 1.27453E-02-8.25488E-04-6.18470E-14
 -1      2782 1.31071E-02-9.27513E-04-6.55286E-14
 -1      2783 1.32524E-02-9.57001E-04-6.69858E-14
 -1      2784 1.30317E-02-8.81129E-04-6.47133E-14
 -1      2785 1.33973E-02-9.86906E-04-6.84501E-14
 -1      2786 1.35420E-02-1.01706E-03-6.99243E-14
 -1      2787 1.33178E-02-9.39923E-04-6.76183E-14
 -1      2788 1.36865E-02-1.04723E-03-7.14079E-14
 -1      2789 1.38308E-02-1.07730E-03-7.28978E-14
 -1      2790 1.36039E-02-9.99933E-04-7.05606E-14
 -1      2791 1.39749E-02-1.10712E-03-7.43944E-14
 -1      2792 1.41188E-02-1.13661E-03-7.58941E-14
 -1      2793 1.38900E-02-1.05980E-03-7.35336E-14
 -1      2794 1.42625E-02-1.16566E-03-7.74001E-14
 -1      2795 1.44060E-02-1.19421E-03-7.89101E-14
 -1      2796 1.41761E-02-1.11856E-03-7.65301E-14
 -1      2797 2.26900E-03 4.74227E-04-2.23324E-15
 -1      2798 2.12711E-03 4.68118E-04-1.95436E-15
 -1      2799 1.40582E-02-4.26501E-04-7.70657E-14
 -1      2800 1.40120E-02-3.73515E-04-7.67576E-14
 -1      2801 1.38684E-02-3.49605E-04-7.53149E-14
 -1      2802 1.98516E-03 4.60291E-04-1.69526E-15
 -1      2803 1.84309E-03 4.50589E-04-1.45528E-15
 -1      2804 2.04756E-03 4.28124E-04-1.87773E-15
 -1      2805 2.83659E-03 4.86028E-04-3.54110E-15
 -1      2806 2.69463E-03 4.84663E-04-3.18520E-15
 -1      2807 3.12079E-03 4.86386E-04-4.30954E-15
 -1      2808 2.97864E-03 4.86577E-04-3.91604E-15
 -1      2809 2.90286E-03 4.49509E-04-3.79915E-15
 -1      2810 3.40547E-03 4.84169E-04-5.15142E-15
 -1      2811 3.26307E-03 4.85565E-04-4.72138E-15
 -1      2812 3.18804E-03 4.49126E-04-4.59118E-15
 -1      2813 3.69075E-03 4.79925E-04-6.06713E-15
 -1      2814 3.54803E-03 4.82275E-04-5.59993E-15
 -1      2815 3.47345E-03 4.46363E-04-5.45636E-15
 -1      2816 3.97675E-03 4.74063E-04-7.05664E-15
 -1      2817 3.83365E-03 4.77176E-04-6.55281E-15
 -1      2818 3.75919E-03 4.41715E-04-6.39492E-15
 -1      2819 4.26360E-03 4.66916E-04-8.12248E-15
 -1      2820 4.12006E-03 4.70631E-04-7.57963E-15
 -1      2821 4.04536E-03 4.35547E-04-7.40762E-15
 -1      2822 4.55147E-03 4.58817E-04-9.26304E-15
 -1      2823 4.40739E-03 4.62964E-04-8.68367E-15
 -1      2824 4.33206E-03 4.28167E-04-8.49536E-15
 -1      2825 4.84055E-03 4.50177E-04-1.04789E-14
 -1      2826 4.69583E-03 4.54535E-04-9.86219E-15
 -1      2827 4.61943E-03 4.19896E-04-9.65832E-15
 -1      2828 5.13113E-03 4.41575E-04-1.17679E-14
 -1      2829 4.98563E-03 4.45829E-04-1.11136E-14
 -1      2830 4.90767E-03 4.11141E-04-1.08947E-14
 -1      2831 5.42355E-03 4.33849E-04-1.31285E-14
 -1      2832 5.27708E-03 4.37541E-04-1.24392E-14
 -1      2833 5.19704E-03 4.02486E-04-1.22039E-14
 -1      2834 5.71828E-03 4.28205E-04-1.45637E-14
 -1      2835 5.57059E-03 4.30679E-04-1.38370E-14
 -1      2836 5.48792E-03 3.94780E-04-1.35868E-14
 -1      2837 6.01593E-03 4.26308E-04-1.60700E-14
 -1      2838 5.86670E-03 4.26667E-04-1.53072E-14
 -1      2839 5.78087E-03 3.89241E-04-1.50423E-14
 -1      2840 6.31724E-03 4.30350E-04-1.76462E-14
 -1      2841 6.16609E-03 4.27427E-04-1.68497E-14
 -1      2842 6.07666E-03 3.87553E-04-1.65701E-14
 -1      2843 6.62312E-03 4.43034E-04-1.92901E-14
 -1      2844 6.46959E-03 4.35414E-04-1.84604E-14
 -1      2845 6.37635E-03 3.91940E-04-1.81672E-14
 -1      2846 6.93448E-03 4.67396E-04-2.10017E-14
 -1      2847 6.77814E-03 4.53538E-04-2.01375E-14
 -1      2848 6.68126E-03 4.05187E-04-1.98306E-14
 -1      2849 7.25189E-03 5.06296E-04-2.27787E-14
 -1      2850 7.09253E-03 4.84845E-04-2.18816E-14
 -1      2851 6.99286E-03 4.30513E-04-2.15591E-14
 -1      2852 7.57505E-03 5.61397E-04-2.46276E-14
 -1      2853 7.41297E-03 5.31760E-04-2.36941E-14
 -1      2854 7.31223E-03 4.71086E-04-2.33562E-14
 -1      2855 7.90196E-03 6.31462E-04-2.65421E-14
 -1      2856 7.73842E-03 5.94832E-04-2.55773E-14
 -1      2857 7.63936E-03 5.29031E-04-2.52218E-14
 -1      2858 8.22844E-03 7.09627E-04-2.85213E-14
 -1      2859 8.06571E-03 6.70333E-04-2.75237E-14
 -1      2860 7.97188E-03 6.03332E-04-2.71555E-14
 -1      2861 8.54921E-03 7.81599E-04-3.05625E-14
 -1      2862 8.38983E-03 7.47674E-04-2.95344E-14
 -1      2863 8.30438E-03 6.86040E-04-2.91514E-14
 -1      2864 8.86092E-03 8.27290E-04-3.26684E-14
 -1      2865 8.70601E-03 8.09230E-04-3.16066E-14
 -1      2866 8.62999E-03 7.60298E-04-3.12109E-14
 -1      2867 9.16556E-03 8.27548E-04-3.48442E-14
 -1      2868 9.01337E-03 8.34034E-04-3.37484E-14
 -1      2869 8.94510E-03 8.02105E-04-3.33378E-14
 -1      2870 9.47028E-03 7.74410E-04-3.70918E-14
 -1      2871 9.31703E-03 8.07421E-04-3.59585E-14
 -1      2872 9.25353E-03 7.90427E-04-3.55346E-14
 -1      2873 9.78207E-03 6.76290E-04-3.94156E-14
 -1      2874 9.62481E-03 7.29752E-04-3.82442E-14
 -1      2875 9.56460E-03 7.20404E-04-3.78031E-14
 -1      2876 1.01029E-02 5.52463E-04-4.18098E-14
 -1      2877 9.94147E-03 6.16068E-04-4.06032E-14
 -1      2878 9.88536E-03 6.06878E-04-4.01469E-14
 -1      2879 1.04294E-02 4.23249E-04-4.42766E-14
 -1      2880 1.02659E-02 4.87442E-04-4.30343E-14
 -1      2881 1.02154E-02 4.74197E-04-4.25644E-14
 -1      2882 1.07561E-02 3.02500E-04-4.68073E-14
 -1      2883 1.05932E-02 3.61263E-04-4.55355E-14
 -1      2884 1.05487E-02 3.43464E-04-4.50519E-14
 -1      2885 1.10790E-02 1.96704E-04-4.93956E-14
 -1      2886 1.09184E-02 2.47581E-04-4.80951E-14
 -1      2887 1.08788E-02 2.26348E-04-4.76010E-14
 -1      2888 1.13962E-02 1.07111E-04-5.20344E-14
 -1      2889 1.12385E-02 1.49994E-04-5.07086E-14
 -1      2890 1.12019E-02 1.26573E-04-5.02036E-14
 -1      2891 1.17072E-02 3.18769E-05-5.47240E-14
 -1      2892 1.15525E-02 6.78955E-05-5.33718E-14
 -1      2893 1.15169E-02 4.32614E-05-5.28571E-14
 -1      2894 1.20128E-02-3.19451E-05-5.74607E-14
 -1      2895 1.18607E-02-1.25214E-06-5.60859E-14
 -1      2896 1.18247E-02-2.65589E-05-5.55603E-14
 -1      2897 1.23138E-02-8.74543E-05-6.02410E-14
 -1      2898 1.21638E-02-6.05532E-05-5.88474E-14
 -1      2899 1.21265E-02-8.62266E-05-5.83112E-14
 -1      2900 1.26111E-02-1.37429E-04-6.30423E-14
 -1      2901 1.24628E-02-1.12982E-04-6.16389E-14
 -1      2902 1.24239E-02-1.38827E-04-6.10957E-14
 -1      2903 1.29055E-02-1.84157E-04-6.58676E-14
 -1      2904 1.27586E-02-1.61081E-04-6.44538E-14
 -1      2905 1.27179E-02-1.86941E-04-6.39049E-14
 -1      2906 1.31977E-02-2.29432E-04-6.87119E-14
 -1      2907 1.30518E-02-2.06886E-04-6.72868E-14
 -1      2908 1.30096E-02-2.32617E-04-6.67326E-14
 -1      2909 1.34880E-02-2.74617E-04-7.15714E-14
 -1      2910 1.33430E-02-2.51970E-04-7.01402E-14
 -1      2911 1.32995E-02-2.77424E-04-6.95813E-14
 -1      2912 1.37507E-02-3.23457E-04-7.41582E-14
 -1      2913 1.36064E-02-3.00328E-04-7.27210E-14
 -1      2914 1.35622E-02-3.25341E-04-7.21595E-14
 -1      2915 1.37978E-02-3.76688E-04-7.44670E-14
 -1      2916 1.43540E-02-7.96310E-04-7.90094E-14
 -1      2917 1.43276E-02-7.58881E-04-7.88229E-14
 -1      2918 1.45026E-02-1.21253E-03-7.99328E-14
 -1      2919 1.45999E-02-1.23203E-03-8.09596E-14
 -1      2920 1.46079E-02-1.20198E-03-8.10908E-14
 -1      2921 1.44154E-02-1.16580E-03-7.90526E-14
 -1      2922 1.42429E-02-6.45307E-04-7.82647E-14
 -1      2923 1.42132E-02-6.06799E-04-7.80767E-14
 -1      2924 1.44039E-02-8.70897E-04-7.93744E-14
 -1      2925 1.43795E-02-8.33604E-04-7.91947E-14
 -1      2926 1.42460E-02-7.93103E-04-7.78261E-14
 -1      2927 1.43002E-02-7.21298E-04-7.86393E-14
 -1      2928 1.42719E-02-6.83444E-04-7.84530E-14
 -1      2929 1.41358E-02-6.43382E-04-7.70980E-14
 -1      2930 1.41928E-02-7.18721E-04-7.74639E-14
 -1      2931 1.03214E-02 1.74479E-04-4.15243E-14
 -1      2932 1.05200E-02 6.10424E-05-4.23861E-14
 -1      2933 1.16462E-02-3.82298E-04-4.59548E-14
 -1      2934 1.16624E-02-3.89898E-04-4.61369E-14
 -1      2935 1.44490E-02-9.44418E-04-7.97218E-14
 -1      2936 1.44269E-02-9.07580E-04-7.95491E-14
 -1      2937 1.42944E-02-8.66518E-04-7.81787E-14
 -1      2938 1.44914E-02-1.02005E-03-8.00693E-14
 -1      2939 1.44706E-02-9.82079E-04-7.98975E-14
 -1      2940 1.43386E-02-9.40284E-04-7.85205E-14
 -1      2941 1.45314E-02-1.09712E-03-8.04021E-14
 -1      2942 1.45116E-02-1.05837E-03-8.02372E-14
 -1      2943 1.43797E-02-1.01574E-03-7.88572E-14
 -1      2944 1.45794E-02-1.16900E-03-8.08256E-14
 -1      2945 1.45598E-02-1.12939E-03-8.06681E-14
 -1      2946 1.44273E-02-1.08606E-03-7.92841E-14
 -1      2947 1.44834E-02-1.15105E-03-7.98104E-14
 -1      2948 7.78399E-03 8.88587E-05-2.94878E-14
 -1      2949 7.97864E-03 1.85670E-04-2.99870E-14
 -1      2950 1.15149E-02-3.53493E-04-4.56806E-14
 -1      2951 1.15958E-02-3.69893E-04-4.58495E-14
 -1      2952 1.12353E-02-2.68917E-04-4.50186E-14
 -1      2953 1.13848E-02-3.17019E-04-4.54126E-14
 -1      2954 7.19800E-03-1.26546E-04-2.81889E-14
 -1      2955 7.32466E-03-9.41358E-05-2.85002E-14
 -1      2956 1.06556E-02-8.06457E-04-4.33901E-14
 -1      2957 1.04532E-02-9.23577E-04-4.25993E-14
 -1      2958 1.16265E-02-4.06283E-04-4.62097E-14
 -1      2959 1.15524E-02-4.22607E-04-4.60369E-14
 -1      2960 7.54881E-03-3.54062E-04-2.94934E-14
 -1      2961 7.40757E-03-2.99371E-04-2.91955E-14
 -1      2962 1.70087E-03 4.38602E-04-1.23458E-15
 -1      2963 1.55841E-03 4.24136E-04-1.03343E-15
 -1      2964 1.76200E-03 4.09103E-04-1.39117E-15
 -1      2965 2.55272E-03 4.82327E-04-2.84851E-15
 -1      2966 2.41086E-03 4.78922E-04-2.53144E-15
 -1      2967 2.33277E-03 4.40128E-04-2.44126E-15
 -1      2968 2.61782E-03 4.46827E-04-3.08172E-15
 -1      2969 1.03360E-03-3.13738E-04-6.56742E-16
 -1      2970 1.17682E-03-3.39634E-04-8.27870E-16
 -1      2971 1.23843E-03-3.18251E-04-9.34243E-16
 -1      2972 6.88569E-04-2.03860E-04-3.45115E-16
 -1      2973 7.84725E-04 1.23292E-04-4.07565E-16
 -1      2974 7.82384E-04 9.98812E-05-4.18543E-16
 -1      2975 9.00063E-04 9.92559E-05-5.37358E-16
 -1      2976 9.05698E-04 1.51317E-04-5.10890E-16
 -1      2977 1.07831E-02-7.55676E-05-4.34568E-14
 -1      2978 1.10056E-02-1.78321E-04-4.42331E-14
 -1      2979 7.82127E-04-9.78223E-05-4.64675E-16
 -1      2980 7.84392E-04-1.21153E-04-4.64445E-16
 -1      2981 9.22599E-03 7.02704E-04-3.55700E-14
 -1      2982 9.37727E-03 6.78091E-04-3.65258E-14
 -1      2983 8.42031E-03-8.29428E-04-3.22135E-14
 -1      2984 8.22171E-03-7.01405E-04-3.15962E-14
 -1      2985 9.56040E-03 6.14731E-04-3.76305E-14
 -1      2986 9.71993E-03 5.33069E-04-3.85553E-14
 -1      2987 1.41575E-03 4.06663E-04-8.51180E-16
 -1      2988 1.27271E-03 3.85924E-04-6.87642E-16
 -1      2989 1.18954E-03 3.40756E-04-6.46334E-16
 -1      2990 1.47597E-03 3.80881E-04-9.80959E-16
 -1      2991 8.18688E-03 2.96639E-04-3.05929E-14
 -1      2992 8.35840E-03 3.95350E-04-3.11602E-14
 -1      2993 7.44600E-03-5.37930E-05-2.87830E-14
 -1      2994 7.58165E-03-1.92838E-06-2.90660E-14
 -1      2995 7.34891E-03-6.33221E-05-2.80619E-14
 -1      2996 7.27211E-03-2.53344E-04-2.88583E-14
 -1      2997 7.15782E-03-2.22538E-04-2.85224E-14
 -1      2998 7.30556E-03-2.69818E-04-2.84942E-14
 -1      2999 7.02349E-03-1.72396E-04-2.80367E-14
 -1      3000 7.07766E-03-1.59489E-04-2.80330E-14
 -1      3001 8.58597E-03 5.15251E-04-3.20887E-14
 -1      3002 8.76141E-03 6.00754E-04-3.29350E-14
 -1      3003 1.02754E-02-1.02787E-03-4.18372E-14
 -1      3004 1.01070E-02-1.12826E-03-4.10365E-14
 -1      3005 8.92250E-03 6.58211E-04-3.38091E-14
 -1      3006 9.05238E-03 6.92230E-04-3.45417E-14
 -1      3007 9.91315E-03 4.22674E-04-3.95697E-14
 -1      3008 1.01042E-02 3.04143E-04-4.05171E-14
 -1      3009 7.87392E-04-1.45290E-04-4.62724E-16
 -1      3010 7.91236E-04-1.70446E-04-4.59458E-16
 -1      3011 9.05253E-04-1.48800E-04-5.87041E-16
 -1      3012 8.96003E-04 1.01431E-06-5.72798E-16
 -1      3013 7.78110E-04-9.69953E-06-4.54728E-16
 -1      3014 7.78467E-04-3.13120E-05-4.58902E-16
 -1      3015 1.08102E-02-7.42484E-04-4.42393E-14
 -1      3016 1.12000E-02-5.47871E-04-4.52744E-14
 -1      3017 8.64792E-04 2.66245E-04-3.67653E-16
 -1      3018 8.03201E-04-2.03106E-04-4.59160E-16
 -1      3019 8.21632E-04-2.53594E-04-4.50635E-16
 -1      3020 9.52734E-04-2.87857E-04-5.76511E-16
 -1      3021 9.21370E-04-2.10945E-04-5.85185E-16
 -1      3022 1.11501E-02-2.26394E-04-4.52273E-14
 -1      3023 7.08645E-03-2.03962E-04-2.80740E-14
 -1      3024 7.02787E-03-1.91827E-04-2.76280E-14
 -1      3025 7.10698E-03-2.12759E-04-2.77162E-14
 -1      3026 9.96875E-03-1.22244E-03-4.04962E-14
 -1      3027 9.71093E-03-1.32804E-03-3.89916E-14
 -1      3028 9.90278E-03-1.26767E-03-4.01825E-14
 -1      3029 1.40761E-02-5.66933E-04-7.67305E-14
 -1      3030 1.41833E-02-5.68244E-04-7.78927E-14
 -1      3031 1.41531E-02-5.29271E-04-7.77113E-14
 -1      3032 1.01525E-03-2.71925E-04-6.64575E-16
 -1      3033 1.05825E-02 5.27918E-05-4.32505E-14
 -1      3034 1.06750E-02-1.21651E-05-4.33537E-14
 -1      3035 1.08237E-02-6.99054E-05-4.43328E-14
 -1      3036 8.03929E-03 2.48368E-04-2.97719E-14
 -1      3037 1.40885E-02-4.66589E-04-7.72451E-14
 -1      3038 1.16523E-02-3.83268E-04-4.66661E-14
 -1      3039 1.16754E-02-4.05191E-04-4.68466E-14
 -1      3040 7.65292E-03 5.62654E-05-2.87560E-14
 -1      3041 1.14860E-02-3.41372E-04-4.62900E-14
 -1      3042 9.82946E-04 2.75351E-04-4.82633E-16
 -1      3043 9.82396E-03 4.82618E-04-3.92378E-14
 -1      3044 8.81418E-03 6.35612E-04-3.30848E-14
 -1      3045 8.45093E-03 4.69606E-04-3.12902E-14
 -1      3046 1.15070E-02-4.42920E-04-4.62197E-14
 -1      3047 1.14570E-02-4.67880E-04-4.63992E-14
 -1      3048 1.15905E-02-4.41322E-04-4.71020E-14
 -1      3049 9.46924E-03 6.53638E-04-3.71124E-14
 -1      3050 7.64560E-03-3.98882E-04-2.95893E-14
 -1      3051 7.52682E-03-3.57456E-04-2.89212E-14
 -1      3052 7.74056E-03-4.49245E-04-2.96849E-14
 -1      3053 6.97883E-03-1.75577E-04-2.74237E-14
 -1      3054 6.99332E-03-1.75232E-04-2.77308E-14
 -1      3055 6.97321E-03-1.62535E-04-2.71720E-14
 -1      3056 7.10697E-03-1.37271E-04-2.76306E-14
 -1      3057 7.13781E-03-1.09237E-04-2.72286E-14
 -1      3058 7.03007E-03-1.39163E-04-2.70765E-14
 -1      3059 8.08156E-03-6.26226E-04-3.09242E-14
 -1      3060 7.79231E-04-5.30641E-05-4.61843E-16
 -1      3061 7.80424E-04-7.52223E-05-4.63795E-16
 -1      3062 8.99792E-04-9.68992E-05-5.87692E-16
 -1      3063 8.96885E-04-4.74206E-05-5.82772E-16
 -1      3064 9.13556E-03 7.06513E-04-3.49801E-14
 -1      3065 1.02155E-02 2.48257E-04-4.12670E-14
 -1      3066 1.04044E-03 2.42786E-04-5.81986E-16
 -1      3067 1.03392E-03 2.11096E-04-6.04809E-16
 -1      3068 8.47152E-03-8.81525E-04-3.21091E-14
 -1      3069 1.73188E-03-3.38551E-04-1.74486E-15
 -1      3070 1.87557E-03-3.48292E-04-2.01836E-15
 -1      3071 2.01925E-03-3.56238E-04-2.31148E-15
 -1      3072 2.16291E-03-3.62538E-04-2.62407E-15
 -1      3073 1.94050E-03-3.16855E-04-2.17093E-15
 -1      3074 2.30652E-03-3.67456E-04-2.95628E-15
 -1      3075 2.45008E-03-3.71110E-04-3.30762E-15
 -1      3076 2.22852E-03-3.28785E-04-2.79562E-15
 -1      3077 2.59358E-03-3.73708E-04-3.67841E-15
 -1      3078 2.73701E-03-3.75339E-04-4.06896E-15
 -1      3079 2.51641E-03-3.35744E-04-3.49750E-15
 -1      3080 2.88038E-03-3.76161E-04-4.47762E-15
 -1      3081 3.02368E-03-3.76239E-04-4.90500E-15
 -1      3082 2.80402E-03-3.38881E-04-4.27521E-15
 -1      3083 3.16693E-03-3.75687E-04-5.35147E-15
 -1      3084 3.31010E-03-3.74551E-04-5.81631E-15
 -1      3085 3.09123E-03-3.39074E-04-5.12830E-15
 -1      3086 3.45322E-03-3.72911E-04-6.29923E-15
 -1      3087 3.59626E-03-3.70798E-04-6.80001E-15
 -1      3088 3.37799E-03-3.36966E-04-6.05446E-15
 -1      3089 3.73923E-03-3.68269E-04-7.31934E-15
 -1      3090 3.88214E-03-3.65343E-04-7.85655E-15
 -1      3091 3.66422E-03-3.33011E-04-7.05343E-15
 -1      3092 4.02495E-03-3.62064E-04-8.41102E-15
 -1      3093 4.16767E-03-3.58445E-04-8.98294E-15
 -1      3094 3.94985E-03-3.27529E-04-8.12444E-15
 -1      3095 4.31028E-03-3.54527E-04-9.57250E-15
 -1      3096 4.45279E-03-3.50319E-04-1.01793E-14
 -1      3097 4.23475E-03-3.20758E-04-9.26570E-15
 -1      3098 4.59514E-03-3.45873E-04-1.08022E-14
 -1      3099 4.73736E-03-3.41200E-04-1.14428E-14
 -1      3100 4.51876E-03-3.12910E-04-1.04759E-14
 -1      3101 4.87937E-03-3.36374E-04-1.21021E-14
 -1      3102 5.02121E-03-3.31415E-04-1.27777E-14
 -1      3103 4.80165E-03-3.04233E-04-1.17543E-14
 -1      3104 5.16277E-03-3.26435E-04-1.34703E-14
 -1      3105 5.30411E-03-3.21469E-04-1.41821E-14
 -1      3106 5.08311E-03-2.95077E-04-1.31035E-14
 -1      3107 5.44510E-03-3.16683E-04-1.49117E-14
 -1      3108 5.58582E-03-3.12137E-04-1.56602E-14
 -1      3109 5.36278E-03-2.85968E-04-1.45239E-14
 -1      3110 5.72614E-03-3.08065E-04-1.64287E-14
 -1      3111 5.86618E-03-3.04570E-04-1.72145E-14
 -1      3112 5.64026E-03-2.77683E-04-1.60186E-14
 -1      3113 6.00580E-03-3.01963E-04-1.80182E-14
 -1      3114 6.14523E-03-3.00415E-04-1.88415E-14
 -1      3115 5.91516E-03-2.71321E-04-1.75884E-14
 -1      3116 6.28435E-03-3.00308E-04-1.96836E-14
 -1      3117 6.42356E-03-3.01940E-04-2.05420E-14
 -1      3118 6.18732E-03-2.68369E-04-1.92303E-14
 -1      3119 6.56284E-03-3.05724E-04-2.14195E-14
 -1      3120 6.70291E-03-3.12233E-04-2.23131E-14
 -1      3121 6.45711E-03-2.70745E-04-2.09466E-14
 -1      3122 6.84393E-03-3.21826E-04-2.32219E-14
 -1      3123 6.98717E-03-3.35691E-04-2.41481E-14
 -1      3124 6.72607E-03-2.80941E-04-2.27299E-14
 -1      3125 7.13316E-03-3.54015E-04-2.50911E-14
 -1      3126 7.28392E-03-3.79330E-04-2.60492E-14
 -1      3127 6.99808E-03-3.02605E-04-2.45784E-14
 -1      3128 7.71291E-03-4.76353E-04-2.87874E-14
 -1      3129 7.89480E-03-5.46695E-04-2.98035E-14
 -1      3130 9.28925E-03-1.32725E-03-3.63487E-14
 -1      3131 9.47788E-03-1.35342E-03-3.74969E-14
 -1      3132 1.12037E-02-6.89133E-04-4.75055E-14
 -1      3133 1.13713E-02-6.67983E-04-4.88021E-14
 -1      3134 1.15303E-02-6.59328E-04-5.01134E-14
 -1      3135 1.16830E-02-6.58037E-04-5.14375E-14
 -1      3136 1.15100E-02-6.09022E-04-4.93769E-14
 -1      3137 1.18307E-02-6.64088E-04-5.27736E-14
 -1      3138 1.19753E-02-6.74839E-04-5.41229E-14
 -1      3139 1.17977E-02-6.17667E-04-5.20217E-14
 -1      3140 1.21176E-02-6.90076E-04-5.54856E-14
 -1      3141 1.22587E-02-7.08542E-04-5.68571E-14
 -1      3142 1.20727E-02-6.45625E-04-5.47164E-14
 -1      3143 1.23988E-02-7.29868E-04-5.82402E-14
 -1      3144 1.25388E-02-7.53419E-04-5.96363E-14
 -1      3145 1.23437E-02-6.85615E-04-5.74562E-14
 -1      3146 1.26785E-02-7.78766E-04-6.10437E-14
 -1      3147 1.28185E-02-8.05567E-04-6.24613E-14
 -1      3148 1.26149E-02-7.33771E-04-6.02436E-14
 -1      3149 1.29586E-02-8.33425E-04-6.38916E-14
 -1      3150 1.30991E-02-8.62139E-04-6.53300E-14
 -1      3151 1.28881E-02-7.87352E-04-6.30733E-14
 -1      3152 1.32398E-02-8.91379E-04-6.67809E-14
 -1      3153 1.33808E-02-9.21018E-04-6.82404E-14
 -1      3154 1.31638E-02-8.44255E-04-6.59451E-14
 -1      3155 1.35221E-02-9.50802E-04-6.97060E-14
 -1      3156 1.36637E-02-9.80645E-04-7.11827E-14
 -1      3157 1.34419E-02-9.02834E-04-6.88569E-14
 -1      3158 1.38054E-02-1.01036E-03-7.26656E-14
 -1      3159 1.39474E-02-1.03989E-03-7.41552E-14
 -1      3160 1.37220E-02-9.61835E-04-7.18002E-14
 -1      3161 1.40894E-02-1.06910E-03-7.56521E-14
 -1      3162 1.42316E-02-1.09794E-03-7.71507E-14
 -1      3163 1.40037E-02-1.02032E-03-7.47744E-14
 -1      3164 2.11118E-03 3.95350E-04-2.06412E-15
 -1      3165 1.96793E-03 3.88037E-04-1.79865E-15
 -1      3166 3.25551E-03 4.11672E-04-4.87632E-15
 -1      3167 3.11255E-03 4.12495E-04-4.45936E-15
 -1      3168 2.96959E-03 4.12694E-04-4.06020E-15
 -1      3169 2.82661E-03 4.12214E-04-3.68012E-15
 -1      3170 3.03673E-03 3.75678E-04-4.32532E-15
 -1      3171 3.82742E-03 4.03517E-04-6.72562E-15
 -1      3172 3.68441E-03 4.06192E-04-6.23541E-15
 -1      3173 4.11353E-03 3.97145E-04-7.76041E-15
 -1      3174 3.97045E-03 4.00494E-04-7.23412E-15
 -1      3175 3.89544E-03 3.65415E-04-7.05921E-15
 -1      3176 4.39984E-03 3.89632E-04-8.87040E-15
 -1      3177 4.25665E-03 3.93517E-04-8.30613E-15
 -1      3178 4.18127E-03 3.58936E-04-8.11590E-15
 -1      3179 4.68648E-03 3.81281E-04-1.00550E-14
 -1      3180 4.54310E-03 3.85543E-04-9.45332E-15
 -1      3181 4.46697E-03 3.51384E-04-9.24799E-15
 -1      3182 4.97360E-03 3.72487E-04-1.13125E-14
 -1      3183 4.82995E-03 3.76912E-04-1.06748E-14
 -1      3184 4.75262E-03 3.43035E-04-1.04537E-14
 -1      3185 5.26149E-03 3.63823E-04-1.26429E-14
 -1      3186 5.11742E-03 3.68097E-04-1.19682E-14
 -1      3187 5.03837E-03 3.34264E-04-1.17327E-14
 -1      3188 5.55057E-03 3.56126E-04-1.40477E-14
 -1      3189 5.40584E-03 3.59791E-04-1.33362E-14
 -1      3190 5.32452E-03 3.25613E-04-1.30847E-14
 -1      3191 5.84148E-03 3.50597E-04-1.55252E-14
 -1      3192 5.69574E-03 3.52997E-04-1.47780E-14
 -1      3193 5.61152E-03 3.17882E-04-1.45112E-14
 -1      3194 6.13522E-03 3.48904E-04-1.70731E-14
 -1      3195 5.98793E-03 3.49137E-04-1.62904E-14
 -1      3196 5.90016E-03 3.12221E-04-1.60099E-14
 -1      3197 6.43316E-03 3.53277E-04-1.86898E-14
 -1      3198 6.28358E-03 3.50145E-04-1.78730E-14
 -1      3199 6.19164E-03 3.10246E-04-1.75784E-14
 -1      3200 6.73713E-03 3.66583E-04-2.03718E-14
 -1      3201 6.58430E-03 3.58563E-04-1.95223E-14
 -1      3202 6.48770E-03 3.14174E-04-1.92141E-14
 -1      3203 7.04921E-03 3.92304E-04-2.21192E-14
 -1      3204 6.89210E-03 3.77588E-04-2.12375E-14
 -1      3205 6.79072E-03 3.26982E-04-2.09147E-14
 -1      3206 7.37108E-03 4.34138E-04-2.39347E-14
 -1      3207 7.20897E-03 4.10929E-04-2.30183E-14
 -1      3208 7.10349E-03 3.52571E-04-2.26808E-14
 -1      3209 7.70299E-03 4.94918E-04-2.58188E-14
 -1      3210 7.53599E-03 4.61971E-04-2.48691E-14
 -1      3211 7.42831E-03 3.95444E-04-2.45159E-14
 -1      3212 8.04253E-03 5.74259E-04-2.77691E-14
 -1      3213 7.87257E-03 5.32758E-04-2.67862E-14
 -1      3214 7.76598E-03 4.59486E-04-2.64174E-14
 -1      3215 8.38263E-03 6.63287E-04-2.97839E-14
 -1      3216 8.21351E-03 6.18757E-04-2.87680E-14
 -1      3217 8.11382E-03 5.45571E-04-2.83852E-14
 -1      3218 8.71365E-03 7.41265E-04-3.18622E-14
 -1      3219 8.54952E-03 7.05747E-04-3.08151E-14
 -1      3220 8.46148E-03 6.43370E-04-3.04184E-14
 -1      3221 9.03193E-03 7.78759E-04-3.40087E-14
 -1      3222 8.87370E-03 7.67320E-04-3.29261E-14
 -1      3223 8.79758E-03 7.25631E-04-3.25159E-14
 -1      3224 9.34423E-03 7.52046E-04-3.62249E-14
 -1      3225 9.18745E-03 7.73994E-04-3.51077E-14
 -1      3226 9.11964E-03 7.55448E-04-3.46811E-14
 -1      3227 9.66280E-03 6.61745E-04-3.85168E-14
 -1      3228 9.50167E-03 7.13436E-04-3.73616E-14
 -1      3229 9.43828E-03 7.08686E-04-3.69195E-14
 -1      3230 9.99395E-03 5.31508E-04-4.08843E-14
 -1      3231 9.82677E-03 5.99287E-04-3.96922E-14
 -1      3232 9.76756E-03 5.95140E-04-3.92350E-14
 -1      3233 1.03336E-02 3.91093E-04-4.33220E-14
 -1      3234 1.01633E-02 4.60731E-04-4.20930E-14
 -1      3235 1.01108E-02 4.48959E-04-4.16227E-14
 -1      3236 1.06730E-02 2.61392E-04-4.58281E-14
 -1      3237 1.05042E-02 3.24188E-04-4.45670E-14
 -1      3238 1.04597E-02 3.04275E-04-4.40821E-14
 -1      3239 1.10049E-02 1.49986E-04-4.83939E-14
 -1      3240 1.08405E-02 2.03303E-04-4.71041E-14
 -1      3241 1.08031E-02 1.78489E-04-4.66077E-14
 -1      3242 1.13264E-02 5.75193E-05-5.10118E-14
 -1      3243 1.11671E-02 1.01581E-04-4.96961E-14
 -1      3244 1.11342E-02 7.49285E-05-4.91881E-14
 -1      3245 1.16382E-02-1.89602E-05-5.36819E-14
 -1      3246 1.14835E-02 1.75877E-05-5.23406E-14
 -1      3247 1.14523E-02-9.36254E-06-5.18227E-14
 -1      3248 1.19419E-02-8.32782E-05-5.63997E-14
 -1      3249 1.17910E-02-5.23640E-05-5.50348E-14
 -1      3250 1.17595E-02-7.88773E-05-5.45084E-14
 -1      3251 1.22397E-02-1.38951E-04-5.91612E-14
 -1      3252 1.20915E-02-1.11975E-04-5.77749E-14
 -1      3253 1.20585E-02-1.37942E-04-5.72413E-14
 -1      3254 1.25333E-02-1.88898E-04-6.19499E-14
 -1      3255 1.23869E-02-1.64475E-04-6.05542E-14
 -1      3256 1.23520E-02-1.90001E-04-6.00081E-14
 -1      3257 1.28241E-02-2.35423E-04-6.47658E-14
 -1      3258 1.26790E-02-2.12467E-04-6.33568E-14
 -1      3259 1.26418E-02-2.37679E-04-6.28070E-14
 -1      3260 1.31131E-02-2.80291E-04-6.75999E-14
 -1      3261 1.29688E-02-2.57975E-04-6.61789E-14
 -1      3262 1.29295E-02-2.82945E-04-6.56267E-14
 -1      3263 1.34009E-02-3.24830E-04-7.04526E-14
 -1      3264 1.32571E-02-3.02537E-04-6.90231E-14
 -1      3265 1.32160E-02-3.27268E-04-6.84656E-14
 -1      3266 1.43875E-02-1.13281E-03-7.87914E-14
 -1      3267 1.01711E-03 6.80303E-05-6.84579E-16
 -1      3268 1.01596E-03 4.11189E-05-6.95150E-16
 -1      3269 1.42282E-02-9.35765E-04-7.73172E-14
 -1      3270 1.42071E-02-8.98671E-04-7.71480E-14
 -1      3271 1.41382E-02-7.89687E-04-7.66431E-14
 -1      3272 1.41126E-02-7.52934E-04-7.64641E-14
 -1      3273 1.41852E-02-8.62147E-04-7.69817E-14
 -1      3274 1.41624E-02-8.26041E-04-7.68147E-14
 -1      3275 1.40304E-02-7.85650E-04-7.54531E-14
 -1      3276 1.40763E-02-8.57700E-04-7.57857E-14
 -1      3277 1.04079E-02-9.73797E-04-4.26866E-14
 -1      3278 1.17244E-02-4.08642E-04-4.76932E-14
 -1      3279 1.16996E-02-4.22406E-04-4.77677E-14
 -1      3280 1.14499E-03 3.09918E-04-6.31128E-16
 -1      3281 1.08245E-03 2.71086E-04-6.01434E-16
 -1      3282 1.20162E-03 2.72329E-04-7.47449E-16
 -1      3283 1.28815E-03 3.31647E-04-7.87375E-16
 -1      3284 1.82463E-03 3.78895E-04-1.55204E-15
 -1      3285 1.68126E-03 3.67754E-04-1.32446E-15
 -1      3286 1.88846E-03 3.48031E-04-1.71757E-15
 -1      3287 7.51038E-03 3.10017E-05-2.78942E-14
 -1      3288 7.68435E-03 1.10117E-04-2.83041E-14
 -1      3289 1.13268E-02-5.16263E-04-4.61068E-14
 -1      3290 1.11859E-02-5.81001E-04-4.58562E-14
 -1      3291 9.39140E-03 6.87629E-04-3.66162E-14
 -1      3292 9.55772E-03 6.29013E-04-3.77244E-14
 -1      3293 1.03843E-03-2.52577E-04-7.05870E-16
 -1      3294 1.11812E-03-2.74941E-04-7.96265E-16
 -1      3295 1.26091E-03-2.95573E-04-9.83697E-16
 -1      3296 1.02429E-03-2.14099E-04-7.07022E-16
 -1      3297 1.42678E-02-1.01102E-03-7.76435E-14
 -1      3298 1.42483E-02-9.73169E-04-7.74820E-14
 -1      3299 1.41176E-02-9.30819E-04-7.61116E-14
 -1      3300 9.61721E-03-1.34755E-03-3.83868E-14
 -1      3301 9.71663E-03-1.30940E-03-3.89314E-14
 -1      3302 9.02704E-03 7.06444E-04-3.42329E-14
 -1      3303 9.18545E-03 7.17265E-04-3.52555E-14
 -1      3304 3.54143E-03 4.08468E-04-5.76362E-15
 -1      3305 3.39847E-03 4.10317E-04-5.31044E-15
 -1      3306 3.32319E-03 3.74117E-04-5.16372E-15
 -1      3307 3.60942E-03 3.70570E-04-6.07446E-15
 -1      3308 9.75707E-03 5.32604E-04-3.89613E-14
 -1      3309 9.93174E-03 4.31921E-04-3.99835E-14
 -1      3310 1.16692E-02-3.85967E-04-4.74934E-14
 -1      3311 1.17106E-02-3.96496E-04-4.76001E-14
 -1      3312 7.28631E-03-5.09153E-05-2.73435E-14
 -1      3313 7.39581E-03-1.45425E-05-2.76178E-14
 -1      3314 7.42579E-03 3.82787E-05-2.71746E-14
 -1      3315 1.14847E-02-3.32119E-04-4.70807E-14
 -1      3316 1.15927E-02-3.63899E-04-4.73534E-14
 -1      3317 7.33700E-03-2.89570E-04-2.81516E-14
 -1      3318 7.21704E-03-2.49486E-04-2.78229E-14
 -1      3319 1.44475E-03-3.12581E-04-1.25759E-15
 -1      3320 1.58828E-03-3.26699E-04-1.49148E-15
 -1      3321 1.65269E-03-2.98527E-04-1.62443E-15
 -1      3322 9.88601E-03-1.23717E-03-3.98503E-14
 -1      3323 9.21476E-03-1.29655E-03-3.59530E-14
 -1      3324 9.05622E-03-1.22307E-03-3.50912E-14
 -1      3325 8.31096E-03 4.31809E-04-3.04016E-14
 -1      3326 8.51399E-03 5.36272E-04-3.13172E-14
 -1      3327 1.01295E-02 3.15489E-04-4.10623E-14
 -1      3328 1.03259E-02 1.99417E-04-4.20767E-14
 -1      3329 7.89585E-03 2.14257E-04-2.88992E-14
 -1      3330 8.07782E-03 3.10469E-04-2.94936E-14
 -1      3331 1.39805E-02-4.65982E-04-7.60853E-14
 -1      3332 1.10888E-02-1.82834E-04-4.56542E-14
 -1      3333 1.12920E-02-2.63160E-04-4.64511E-14
 -1      3334 1.01537E-03 1.44157E-05-7.04067E-16
 -1      3335 1.01534E-03-1.21880E-05-7.11643E-16
 -1      3336 1.13609E-03 3.00718E-05-8.48131E-16
 -1      3337 1.09130E-02-7.30891E-05-4.54394E-14
 -1      3338 1.09972E-02-1.29859E-04-4.55466E-14
 -1      3339 1.11601E-02-1.74325E-04-4.67743E-14
 -1      3340 8.95776E-03-1.17600E-03-3.44968E-14
 -1      3341 7.12875E-03-2.25684E-04-2.73812E-14
 -1      3342 7.05099E-03-2.08341E-04-2.69406E-14
 -1      3343 7.14700E-03-2.42493E-04-2.70440E-14
 -1      3344 1.39693E-02-5.65598E-04-7.55678E-14
 -1      3345 1.39386E-02-5.27217E-04-7.53874E-14
 -1      3346 7.44736E-03-4.16135E-04-2.70245E-14
 -1      3347 7.61360E-03-4.61091E-04-2.80124E-14
 -1      3348 9.27906E-03 7.16479E-04-3.58471E-14
 -1      3349 1.43000E-02-1.08399E-03-7.79060E-14
 -1      3350 1.14340E-02-2.98816E-04-4.75173E-14
 -1      3351 1.08335E-02-7.77564E-04-4.49563E-14
 -1      3352 1.10236E-02-7.23534E-04-4.62246E-14
 -1      3353 7.73361E-03 1.76239E-04-2.80312E-14
 -1      3354 2.25436E-03 4.01136E-04-2.34938E-15
 -1      3355 2.17584E-03 3.62058E-04-2.25561E-15
 -1      3356 2.39749E-03 4.05526E-04-2.65373E-15
 -1      3357 1.04819E-02 1.25787E-04-4.30402E-14
 -1      3358 1.06350E-02 6.19980E-05-4.40149E-14
 -1      3359 1.03974E-02 1.96333E-04-4.28288E-14
 -1      3360 1.00495E-02 3.81083E-04-4.07778E-14
 -1      3361 2.75002E-03 3.74724E-04-3.55988E-15
 -1      3362 2.68360E-03 4.10926E-04-3.31897E-15
 -1      3363 2.54057E-03 4.08755E-04-2.97679E-15
 -1      3364 1.35189E-02-3.50053E-04-7.16018E-14
 -1      3365 1.34765E-02-3.74427E-04-7.10403E-14
 -1      3366 1.36366E-02-3.75386E-04-7.27501E-14
 -1      3367 1.40293E-02-6.41650E-04-7.59297E-14
 -1      3368 1.39997E-02-6.03828E-04-7.57481E-14
 -1      3369 1.38632E-02-5.64620E-04-7.44047E-14
 -1      3370 1.01888E-03 9.52251E-05-6.72395E-16
 -1      3371 1.13871E-03 8.82774E-05-8.23370E-16
 -1      3372 1.02131E-03 1.22935E-04-6.58504E-16
 -1      3373 1.06183E-02-8.81454E-04-4.39267E-14
 -1      3374 1.40859E-02-7.16135E-04-7.62863E-14
 -1      3375 1.40581E-02-6.78996E-04-7.61104E-14
 -1      3376 1.39233E-02-6.39751E-04-7.47588E-14
 -1      3377 1.39793E-02-7.13265E-04-7.51097E-14
 -1      3378 1.32491E-03-2.72691E-04-1.09388E-15
 -1      3379 1.42725E-02-1.05182E-03-7.76474E-14
 -1      3380 1.02411E-03-1.48744E-04-7.26551E-16
 -1      3381 1.02811E-03-1.77935E-04-7.24437E-16
 -1      3382 1.17650E-02-4.12644E-04-4.85294E-14
 -1      3383 1.16824E-02-4.36018E-04-4.79541E-14
 -1      3384 1.16582E-02-4.52481E-04-4.81399E-14
 -1      3385 1.17588E-02-4.37131E-04-4.88102E-14
 -1      3386 1.55633E-03 3.60002E-04-1.13547E-15
 -1      3387 1.41294E-03 3.44167E-04-9.43662E-16
 -1      3388 1.36922E-03 3.14051E-04-9.22642E-16
 -1      3389 1.61945E-03 3.32289E-04-1.27700E-15
 -1      3390 9.66607E-03 5.90994E-04-3.84511E-14
 -1      3391 1.14427E-02-5.00006E-04-4.69902E-14
 -1      3392 7.28816E-03-3.46329E-04-2.64922E-14
 -1      3393 1.16810E-02-3.80969E-04-4.82950E-14
 -1      3394 6.97018E-03-1.78113E-04-2.70732E-14
 -1      3395 6.92266E-03-1.66651E-04-2.65213E-14
 -1      3396 6.96784E-03-1.82505E-04-2.67213E-14
 -1      3397 1.41414E-02-1.00825E-03-7.62729E-14
 -1      3398 6.97237E-03-1.46744E-04-2.67781E-14
 -1      3399 6.97867E-03-1.26733E-04-2.63826E-14
 -1      3400 6.92874E-03-1.50114E-04-2.64777E-14
 -1      3401 1.08025E-02-7.64744E-04-4.44794E-14
 -1      3402 1.02097E-03-1.20397E-04-7.26497E-16
 -1      3403 1.14378E-03-1.45441E-04-8.80060E-16
 -1      3404 1.01863E-03-9.27419E-05-7.24952E-16
 -1      3405 1.11922E-02-6.36218E-04-4.67853E-14
 -1      3406 7.45560E-03-3.49181E-04-2.81513E-14
 -1      3407 7.34510E-03-3.21288E-04-2.74812E-14
 -1      3408 8.53603E-03-9.10535E-04-3.25632E-14
 -1      3409 7.17368E-03-7.03986E-05-2.67945E-14
 -1      3410 7.20193E-03-2.57162E-05-2.63590E-14
 -1      3411 7.07185E-03-8.10852E-05-2.62485E-14
 -1      3412 1.02866E-03 1.80697E-04-6.24907E-16
 -1      3413 1.02455E-03 1.51421E-04-6.42769E-16
 -1      3414 1.14421E-03 1.48195E-04-7.90831E-16
 -1      3415 1.15340E-03 2.11165E-04-7.49346E-16
 -1      3416 8.73963E-03 6.27429E-04-3.25200E-14
 -1      3417 8.88715E-03 6.75566E-04-3.33891E-14
 -1      3418 8.15673E-03 3.90523E-04-2.95175E-14
 -1      3419 8.59542E-03 5.94466E-04-3.16111E-14
 -1      3420 1.39012E-02-4.83973E-04-7.51565E-14
 -1      3421 1.38353E-02-4.21375E-04-7.46975E-14
 -1      3422 1.37180E-02-3.95744E-04-7.35401E-14
 -1      3423 1.37943E-02-4.83433E-04-7.39969E-14
 -1      3424 8.94625E-03 7.06122E-04-3.36556E-14
 -1      3425 1.40068E-02-9.25436E-04-7.49067E-14
 -1      3426 1.39876E-02-8.88782E-04-7.47480E-14
 -1      3427 1.17156E-02-3.78670E-04-4.92576E-14
 -1      3428 1.17767E-02-4.00060E-04-4.93995E-14
 -1      3429 2.15075E-03-2.90262E-04-2.63724E-15
 -1      3430 2.29505E-03-2.94533E-04-2.96823E-15
 -1      3431 2.43931E-03-2.97758E-04-3.31827E-15
 -1      3432 2.58351E-03-3.00023E-04-3.68763E-15
 -1      3433 2.36239E-03-2.59841E-04-3.14171E-15
 -1      3434 2.72762E-03-3.01483E-04-4.07492E-15
 -1      3435 2.87161E-03-3.02201E-04-4.48166E-15
 -1      3436 2.65128E-03-2.64021E-04-3.87730E-15
 -1      3437 3.01547E-03-3.02299E-04-4.90710E-15
 -1      3438 3.15917E-03-3.01818E-04-5.35056E-15
 -1      3439 2.93972E-03-2.65382E-04-4.68827E-15
 -1      3440 3.30272E-03-3.00850E-04-5.81222E-15
 -1      3441 3.44608E-03-2.99421E-04-6.29198E-15
 -1      3442 3.22747E-03-2.64554E-04-5.57256E-15
 -1      3443 3.58924E-03-2.97601E-04-6.78990E-15
 -1      3444 3.73220E-03-2.95402E-04-7.30596E-15
 -1      3445 3.51435E-03-2.62000E-04-6.52936E-15
 -1      3446 3.87491E-03-2.92882E-04-7.84023E-15
 -1      3447 4.01738E-03-2.90043E-04-8.39172E-15
 -1      3448 3.80018E-03-2.58055E-04-7.55847E-15
 -1      3449 4.15957E-03-2.86938E-04-8.96036E-15
 -1      3450 4.30145E-03-2.83565E-04-9.54689E-15
 -1      3451 4.08476E-03-2.52966E-04-8.65806E-15
 -1      3452 4.44298E-03-2.79981E-04-1.01502E-14
 -1      3453 4.58415E-03-2.76182E-04-1.07700E-14
 -1      3454 4.36782E-03-2.46946E-04-9.82696E-15
 -1      3455 4.72487E-03-2.72241E-04-1.14085E-14
 -1      3456 4.86514E-03-2.68157E-04-1.20648E-14
 -1      3457 4.64903E-03-2.40211E-04-1.10654E-14
 -1      3458 5.00485E-03-2.64030E-04-1.27383E-14
 -1      3459 5.14400E-03-2.59862E-04-1.34290E-14
 -1      3460 4.92796E-03-2.33044E-04-1.23741E-14
 -1      3461 5.28245E-03-2.55797E-04-1.41383E-14
 -1      3462 5.42022E-03-2.51839E-04-1.48662E-14
 -1      3463 5.20405E-03-2.25836E-04-1.37545E-14
 -1      3464 5.55712E-03-2.48188E-04-1.56119E-14
 -1      3465 5.69320E-03-2.44853E-04-1.63774E-14
 -1      3466 5.47665E-03-2.19139E-04-1.52078E-14
 -1      3467 5.82824E-03-2.42094E-04-1.71612E-14
 -1      3468 5.96233E-03-2.39929E-04-1.79616E-14
 -1      3469 5.74496E-03-2.13693E-04-1.67347E-14
 -1      3470 6.09524E-03-2.38673E-04-1.87808E-14
 -1      3471 6.22716E-03-2.38357E-04-1.96202E-14
 -1      3472 6.00810E-03-2.10425E-04-1.83349E-14
 -1      3473 6.35780E-03-2.39339E-04-2.04763E-14
 -1      3474 6.48761E-03-2.41679E-04-2.13504E-14
 -1      3475 6.26518E-03-2.10403E-04-2.00083E-14
 -1      3476 6.61622E-03-2.45729E-04-2.22398E-14
 -1      3477 6.74463E-03-2.51731E-04-2.31446E-14
 -1      3478 6.51547E-03-2.14711E-04-2.17513E-14
 -1      3479 6.87230E-03-2.59987E-04-2.40672E-14
 -1      3480 7.00132E-03-2.71360E-04-2.50059E-14
 -1      3481 6.75882E-03-2.24450E-04-2.35595E-14
 -1      3482 7.53190E-03-3.88884E-04-2.82407E-14
 -1      3483 9.18107E-03 7.38153E-04-3.51439E-14
 -1      3484 9.37642E-03 7.10687E-04-3.65031E-14
 -1      3485 8.03610E-03-6.10271E-04-3.04839E-14
 -1      3486 7.56586E-03 1.52793E-04-2.70238E-14
 -1      3487 7.75125E-03 2.42832E-04-2.76001E-14
 -1      3488 1.17720E-02-5.73467E-04-5.12707E-14
 -1      3489 1.19029E-02-5.87050E-04-5.26036E-14
 -1      3490 1.20322E-02-6.03698E-04-5.39499E-14
 -1      3491 1.21619E-02-6.22753E-04-5.53095E-14
 -1      3492 1.19963E-02-5.63430E-04-5.31853E-14
 -1      3493 1.22915E-02-6.43947E-04-5.66774E-14
 -1      3494 1.24222E-02-6.66904E-04-5.80560E-14
 -1      3495 1.22422E-02-6.04224E-04-5.58984E-14
 -1      3496 1.25535E-02-6.91286E-04-5.94478E-14
 -1      3497 1.26861E-02-7.16977E-04-6.08494E-14
 -1      3498 1.24941E-02-6.50754E-04-5.86545E-14
 -1      3499 1.28195E-02-7.43617E-04-6.22609E-14
 -1      3500 1.29541E-02-7.71149E-04-6.36823E-14
 -1      3501 1.27524E-02-7.01689E-04-6.14512E-14
 -1      3502 1.30895E-02-7.99244E-04-6.51170E-14
 -1      3503 1.32259E-02-8.27862E-04-6.65604E-14
 -1      3504 1.30164E-02-7.55822E-04-6.42919E-14
 -1      3505 1.33632E-02-8.56731E-04-6.80130E-14
 -1      3506 1.35012E-02-8.85818E-04-6.94735E-14
 -1      3507 1.32854E-02-8.11970E-04-6.71700E-14
 -1      3508 1.36399E-02-9.14909E-04-7.09406E-14
 -1      3509 1.37792E-02-9.43988E-04-7.24179E-14
 -1      3510 1.35585E-02-8.69084E-04-7.00843E-14
 -1      3511 1.40011E-02-9.79847E-04-7.47809E-14
 -1      3512 4.24863E-03 3.21003E-04-8.47431E-15
 -1      3513 4.10601E-03 3.24387E-04-7.92534E-15
 -1      3514 3.96328E-03 3.27481E-04-7.39462E-15
 -1      3515 3.82041E-03 3.30278E-04-6.88216E-15
 -1      3516 4.03094E-03 2.89793E-04-7.73306E-15
 -1      3517 4.81794E-03 3.05252E-04-1.08551E-14
 -1      3518 4.67576E-03 3.09465E-04-1.02323E-14
 -1      3519 5.10209E-03 2.96562E-04-1.21549E-14
 -1      3520 4.96003E-03 3.00940E-04-1.14959E-14
 -1      3521 4.88247E-03 2.67988E-04-1.12584E-14
 -1      3522 5.38622E-03 2.87936E-04-1.35289E-14
 -1      3523 5.24412E-03 2.92205E-04-1.28326E-14
 -1      3524 5.16478E-03 2.59422E-04-1.25807E-14
 -1      3525 5.67087E-03 2.80107E-04-1.49776E-14
 -1      3526 5.52843E-03 2.83864E-04-1.42443E-14
 -1      3527 5.44665E-03 2.50810E-04-1.39767E-14
 -1      3528 5.95692E-03 2.74142E-04-1.64964E-14
 -1      3529 5.81364E-03 2.76801E-04-1.57279E-14
 -1      3530 5.72865E-03 2.42788E-04-1.54446E-14
 -1      3531 6.24578E-03 2.71569E-04-1.80850E-14
 -1      3532 6.10087E-03 2.72290E-04-1.72816E-14
 -1      3533 6.01175E-03 2.36299E-04-1.69852E-14
 -1      3534 6.53956E-03 2.74561E-04-1.97401E-14
 -1      3535 6.39189E-03 2.72153E-04-1.89047E-14
 -1      3536 6.29758E-03 2.32742E-04-1.85939E-14
 -1      3537 6.84123E-03 2.86208E-04-2.14594E-14
 -1      3538 6.68921E-03 2.78971E-04-2.05910E-14
 -1      3539 6.58861E-03 2.34221E-04-2.02674E-14
 -1      3540 7.15445E-03 3.10964E-04-2.32457E-14
 -1      3541 6.99622E-03 2.96491E-04-2.23446E-14
 -1      3542 6.88842E-03 2.44002E-04-2.20064E-14
 -1      3543 7.48296E-03 3.54330E-04-2.50986E-14
 -1      3544 7.31677E-03 3.29720E-04-2.41637E-14
 -1      3545 7.20180E-03 2.67201E-04-2.38125E-14
 -1      3546 7.77517E-03 3.61736E-04-2.69984E-14
 -1      3547 7.60073E-03 3.26010E-04-2.60327E-14
 -1      3548 8.51397E-03 6.05320E-04-3.09419E-14
 -1      3549 8.33504E-03 5.48963E-04-2.99099E-14
 -1      3550 8.88964E-03 7.14705E-04-3.32046E-14
 -1      3551 8.72071E-03 6.77370E-04-3.21381E-14
 -1      3552 9.01882E-03 7.37091E-04-3.40460E-14
 -1      3553 9.54076E-03 6.64104E-04-3.76440E-14
 -1      3554 1.02333E-02 3.63117E-04-4.23541E-14
 -1      3555 1.00551E-02 4.42084E-04-4.11415E-14
 -1      3556 1.05815E-02 1.87535E-04-4.45721E-14
 -1      3557 1.04012E-02 2.59574E-04-4.33255E-14
 -1      3558 1.12660E-02 1.63644E-06-4.99875E-14
 -1      3559 1.11043E-02 4.60551E-05-4.86809E-14
 -1      3560 1.15789E-02-7.37230E-05-5.26373E-14
 -1      3561 1.14242E-02-3.78393E-05-5.13045E-14
 -1      3562 1.13996E-02-6.80806E-05-5.07867E-14
 -1      3563 1.18804E-02-1.36298E-04-5.53367E-14
 -1      3564 1.17309E-02-1.06215E-04-5.39815E-14
 -1      3565 1.17052E-02-1.34623E-04-5.34527E-14
 -1      3566 1.21741E-02-1.90466E-04-5.80800E-14
 -1      3567 1.20280E-02-1.64163E-04-5.67039E-14
 -1      3568 1.20000E-02-1.90802E-04-5.61654E-14
 -1      3569 1.24630E-02-2.39356E-04-6.08586E-14
 -1      3570 1.23190E-02-2.15394E-04-5.94667E-14
 -1      3571 1.22881E-02-2.40739E-04-5.89217E-14
 -1      3572 1.27491E-02-2.85179E-04-6.36615E-14
 -1      3573 1.26063E-02-2.62532E-04-6.22563E-14
 -1      3574 1.25724E-02-2.87056E-04-6.17074E-14
 -1      3575 1.30338E-02-3.29532E-04-6.64863E-14
 -1      3576 1.28916E-02-3.07459E-04-6.50712E-14
 -1      3577 1.28550E-02-3.31508E-04-6.45164E-14
 -1      3578 1.33180E-02-3.73577E-04-6.93312E-14
 -1      3579 1.31759E-02-3.51538E-04-6.79054E-14
 -1      3580 1.31370E-02-3.75312E-04-6.73460E-14
 -1      3581 1.14047E-02-2.67893E-04-4.80166E-14
 -1      3582 1.15744E-02-3.31623E-04-4.86562E-14
 -1      3583 1.21349E-03-2.32294E-04-9.50425E-16
 -1      3584 1.39705E-03-2.46920E-04-1.21837E-15
 -1      3585 1.18131E-02-4.16904E-04-4.94992E-14
 -1      3586 1.18264E-02-4.30288E-04-4.95932E-14
 -1      3587 1.18622E-02-4.18625E-04-5.04733E-14
 -1      3588 4.53350E-03 3.13512E-04-9.62786E-15
 -1      3589 4.39112E-03 3.17375E-04-9.04172E-15
 -1      3590 4.31563E-03 2.83418E-04-8.83511E-15
 -1      3591 4.59946E-03 2.76082E-04-1.00102E-14
 -1      3592 3.10428E-03 3.38497E-04-4.59288E-15
 -1      3593 2.96072E-03 3.38692E-04-4.18884E-15
 -1      3594 1.11710E-02-6.05375E-04-4.61019E-14
 -1      3595 1.10275E-02-6.47828E-04-4.52696E-14
 -1      3596 1.15530E-02-4.94273E-04-4.79911E-14
 -1      3597 1.14429E-02-5.35210E-04-4.76918E-14
 -1      3598 1.14622E-02-5.68650E-04-4.83872E-14
 -1      3599 1.16026E-02-5.69324E-04-4.96932E-14
 -1      3600 1.01586E-03-3.88223E-05-7.17457E-16
 -1      3601 1.01693E-03-6.55938E-05-7.22079E-16
 -1      3602 1.13846E-03-8.56902E-05-8.76266E-16
 -1      3603 8.22590E-03-7.29891E-04-3.10437E-14
 -1      3604 7.10047E-03-2.81258E-04-2.57493E-14
 -1      3605 7.24047E-03-3.03893E-04-2.67181E-14
 -1      3606 7.14944E-03-2.55304E-04-2.67220E-14
 -1      3607 6.96910E-03-2.38096E-04-2.52236E-14
 -1      3608 1.86227E-03-2.77897E-04-2.03291E-15
 -1      3609 2.00648E-03-2.84753E-04-2.32537E-15
 -1      3610 2.07337E-03-2.52022E-04-2.48103E-15
 -1      3611 9.19620E-03-1.30225E-03-3.57429E-14
 -1      3612 1.13318E-02-5.83281E-04-4.73816E-14
 -1      3613 7.36266E-03 6.01962E-05-2.64872E-14
 -1      3614 7.46421E-03 1.03934E-04-2.67561E-14
 -1      3615 7.48497E-03 1.69694E-04-2.63349E-14
 -1      3616 9.72340E-03 5.81159E-04-3.88830E-14
 -1      3617 1.57441E-03-2.59370E-04-1.50615E-15
 -1      3618 1.71823E-03-2.69480E-04-1.75977E-15
 -1      3619 1.78472E-03-2.39553E-04-1.89719E-15
 -1      3620 1.00256E-02 4.17658E-04-4.07761E-14
 -1      3621 1.02101E-02 3.11663E-04-4.18679E-14
 -1      3622 9.89928E-03 5.03593E-04-4.00638E-14
 -1      3623 1.38716E-02-9.36495E-04-7.34197E-14
 -1      3624 1.95346E-03 3.16496E-04-1.88788E-15
 -1      3625 1.80948E-03 3.08383E-04-1.63487E-15
 -1      3626 1.08165E-02-7.66630E-06-4.52243E-14
 -1      3627 1.09908E-02-6.42829E-05-4.64468E-14
 -1      3628 1.07301E-02 5.91579E-05-4.50072E-14
 -1      3629 7.06263E-03-2.33334E-04-2.62879E-14
 -1      3630 1.26171E-03 1.10128E-04-9.73641E-16
 -1      3631 1.25954E-03 7.87603E-05-9.89999E-16
 -1      3632 1.17210E-02-5.33211E-04-5.02643E-14
 -1      3633 1.38126E-03 6.67815E-05-1.17217E-15
 -1      3634 1.25809E-03 4.76017E-05-1.00431E-15
 -1      3635 1.25737E-03 1.66626E-05-1.01652E-15
 -1      3636 3.67743E-03 3.32730E-04-6.38797E-15
 -1      3637 3.53432E-03 3.34826E-04-5.91176E-15
 -1      3638 3.74545E-03 2.95030E-04-6.70387E-15
 -1      3639 2.46305E-03 3.70518E-04-2.86968E-15
 -1      3640 3.24774E-03 3.37758E-04-5.01504E-15
 -1      3641 3.17222E-03 3.01236E-04-4.86368E-15
 -1      3642 3.39109E-03 3.36509E-04-5.45440E-15
 -1      3643 1.03608E-02 2.43096E-04-4.28284E-14
 -1      3644 2.81704E-03 3.38242E-04-3.80369E-15
 -1      3645 2.67328E-03 3.37093E-04-3.43753E-15
 -1      3646 2.88462E-03 3.01563E-04-4.05170E-15
 -1      3647 1.36751E-02-4.19700E-04-7.29789E-14
 -1      3648 7.95280E-03 3.95628E-04-2.80110E-14
 -1      3649 8.13602E-03 4.48285E-04-2.90121E-14
 -1      3650 1.07564E-02 1.21242E-04-4.57869E-14
 -1      3651 1.09280E-02 6.44073E-05-4.70619E-14
 -1      3652 1.17010E-02-3.58884E-04-4.97688E-14
 -1      3653 1.34350E-02-3.98373E-04-7.04796E-14
 -1      3654 1.33943E-02-4.21855E-04-6.99161E-14
 -1      3655 1.35518E-02-4.23262E-04-7.16284E-14
 -1      3656 1.13293E-02-2.27686E-04-4.79102E-14
 -1      3657 1.14865E-02-2.69876E-04-4.90536E-14
 -1      3658 1.12560E-02-1.83146E-04-4.77998E-14
 -1      3659 1.46314E-03-2.21429E-04-1.33433E-15
 -1      3660 1.38585E-02-8.47525E-04-7.33883E-14
 -1      3661 1.39674E-02-8.52848E-04-7.45873E-14
 -1      3662 1.39459E-02-8.17135E-04-7.44265E-14
 -1      3663 1.37576E-02-5.63473E-04-7.32392E-14
 -1      3664 1.37262E-02-5.25569E-04-7.30643E-14
 -1      3665 1.38732E-02-7.10120E-04-7.39292E-14
 -1      3666 1.38461E-02-6.74008E-04-7.37597E-14
 -1      3667 1.19008E-02-4.46410E-04-5.07658E-14
 -1      3668 1.18329E-02-4.41369E-04-4.97846E-14
 -1      3669 1.18324E-02-4.53195E-04-4.99751E-14
 -1      3670 1.39231E-02-7.81453E-04-7.42630E-14
 -1      3671 1.38989E-02-7.45890E-04-7.40970E-14
 -1      3672 1.37675E-02-7.06541E-04-7.27464E-14
 -1      3673 1.38160E-02-7.76973E-04-7.30714E-14
 -1      3674 2.24150E-03 3.28237E-04-2.45125E-15
 -1      3675 2.09748E-03 3.23071E-04-2.15976E-15
 -1      3676 2.01944E-03 2.84321E-04-2.06303E-15
 -1      3677 1.14371E-03-2.14632E-04-8.61629E-16
 -1      3678 1.35662E-02-4.85920E-04-7.14843E-14
 -1      3679 1.36715E-02-4.86257E-04-7.26421E-14
 -1      3680 1.68385E-03 3.03738E-04-1.42388E-15
 -1      3681 1.55837E-03 2.97448E-04-1.22768E-15
 -1      3682 1.74930E-03 2.74338E-04-1.57544E-15
 -1      3683 1.28100E-03 2.75435E-04-8.48808E-16
 -1      3684 1.23913E-03 2.47148E-04-8.24265E-16
 -1      3685 1.23281E-03 2.13248E-04-8.50448E-16
 -1      3686 1.40593E-03 2.86101E-04-1.01117E-15
 -1      3687 6.97009E-03-1.90725E-04-2.63918E-14
 -1      3688 6.89969E-03-1.76910E-04-2.58474E-14
 -1      3689 6.97381E-03-2.01968E-04-2.60623E-14
 -1      3690 1.16664E-02-4.82605E-04-4.88516E-14
 -1      3691 6.89314E-03-1.53192E-04-2.61342E-14
 -1      3692 6.87510E-03-1.38571E-04-2.57473E-14
 -1      3693 6.86643E-03-1.56207E-04-2.57899E-14
 -1      3694 1.13601E-03-2.75987E-05-8.65586E-16
 -1      3695 6.99365E-03-9.79478E-05-2.59562E-14
 -1      3696 7.00918E-03-6.31169E-05-2.55308E-14
 -1      3697 6.92642E-03-1.08912E-04-2.56649E-14
 -1      3698 7.12603E-03 1.04770E-05-2.54140E-14
 -1      3699 7.24100E-03 3.15998E-05-2.59497E-14
 -1      3700 7.26759E-03 9.22627E-05-2.55384E-14
 -1      3701 1.10741E-02-1.79100E-05-4.78419E-14
 -1      3702 1.21686E-03-1.92356E-04-9.69765E-16
 -1      3703 1.21243E-03-1.60168E-04-9.71296E-16
 -1      3704 1.28151E-03-1.75214E-04-1.06681E-15
 -1      3705 1.20898E-03-1.28701E-04-9.70551E-16
 -1      3706 1.26472E-03 1.42052E-04-9.54938E-16
 -1      3707 1.38598E-03 1.33303E-04-1.13485E-15
 -1      3708 1.26861E-03 1.74594E-04-9.33756E-16
 -1      3709 1.18038E-02-4.95839E-04-5.04167E-14
 -1      3710 1.99655E-03-2.14265E-04-2.32759E-15
 -1      3711 2.14115E-03-2.18671E-04-2.63795E-15
 -1      3712 2.57517E-03-2.26583E-04-3.68260E-15
 -1      3713 2.71972E-03-2.27762E-04-4.06801E-15
 -1      3714 2.86412E-03-2.28374E-04-4.47227E-15
 -1      3715 3.00835E-03-2.28456E-04-4.89529E-15
 -1      3716 2.78875E-03-1.91316E-04-4.25917E-15
 -1      3717 3.15236E-03-2.28100E-04-5.33596E-15
 -1      3718 3.29613E-03-2.27327E-04-5.79480E-15
 -1      3719 3.07745E-03-1.91500E-04-5.10166E-15
 -1      3720 3.43964E-03-2.26210E-04-6.27174E-15
 -1      3721 3.58284E-03-2.24757E-04-6.76647E-15
 -1      3722 3.36514E-03-1.90212E-04-6.01679E-15
 -1      3723 3.72572E-03-2.23031E-04-7.27913E-15
 -1      3724 3.86824E-03-2.21030E-04-7.80982E-15
 -1      3725 3.65155E-03-1.87765E-04-7.00294E-15
 -1      3726 4.01037E-03-2.18811E-04-8.35795E-15
 -1      3727 4.15207E-03-2.16367E-04-8.92344E-15
 -1      3728 3.93640E-03-1.84398E-04-8.05972E-15
 -1      3729 4.29329E-03-2.13758E-04-9.50653E-15
 -1      3730 4.43400E-03-2.10972E-04-1.01063E-14
 -1      3731 4.21938E-03-1.80310E-04-9.18777E-15
 -1      3732 4.57412E-03-2.08081E-04-1.07240E-14
 -1      3733 4.71362E-03-2.05071E-04-1.13598E-14
 -1      3734 4.50009E-03-1.75701E-04-1.03857E-14
 -1      3735 4.85239E-03-2.02037E-04-1.20134E-14
 -1      3736 4.99040E-03-1.98963E-04-1.26851E-14
 -1      3737 4.77806E-03-1.70809E-04-1.16540E-14
 -1      3738 5.12752E-03-1.95978E-04-1.33728E-14
 -1      3739 5.26369E-03-1.93060E-04-1.40797E-14
 -1      3740 5.05267E-03-1.65950E-04-1.29936E-14
 -1      3741 5.39875E-03-1.90384E-04-1.48057E-14
 -1      3742 5.53265E-03-1.87919E-04-1.55491E-14
 -1      3743 5.32316E-03-1.61556E-04-1.44051E-14
 -1      3744 5.66518E-03-1.85895E-04-1.63115E-14
 -1      3745 5.79630E-03-1.84254E-04-1.70914E-14
 -1      3746 5.58856E-03-1.58190E-04-1.58901E-14
 -1      3747 5.92572E-03-1.83292E-04-1.78907E-14
 -1      3748 6.05344E-03-1.82902E-04-1.87080E-14
 -1      3749 5.84767E-03-1.56540E-04-1.74484E-14
 -1      3750 6.17907E-03-1.83449E-04-1.95422E-14
 -1      3751 6.30267E-03-1.84733E-04-2.03952E-14
 -1      3752 6.09894E-03-1.57366E-04-1.90790E-14
 -1      3753 6.42369E-03-1.87199E-04-2.12649E-14
 -1      3754 6.54236E-03-1.90464E-04-2.21508E-14
 -1      3755 6.34036E-03-1.61382E-04-2.07795E-14
 -1      3756 6.65785E-03-1.95039E-04-2.30535E-14
 -1      3757 6.77085E-03-2.00465E-04-2.39722E-14
 -1      3758 6.56915E-03-1.68913E-04-2.25487E-14
 -1      3759 1.70800E-03-2.02080E-04-1.76396E-15
 -1      3760 1.85214E-03-2.08764E-04-2.03612E-15
 -1      3761 1.92039E-03-1.77136E-04-2.17674E-15
 -1      3762 1.37876E-02-8.90627E-04-7.25497E-14
 -1      3763 1.21945E-02-5.66654E-04-5.51175E-14
 -1      3764 1.23139E-02-5.88885E-04-5.64831E-14
 -1      3765 1.24355E-02-6.11986E-04-5.78604E-14
 -1      3766 1.25597E-02-6.36229E-04-5.92466E-14
 -1      3767 1.23769E-02-5.75503E-04-5.70670E-14
 -1      3768 1.26858E-02-6.61215E-04-6.06434E-14
 -1      3769 1.28139E-02-6.87117E-04-6.20486E-14
 -1      3770 1.26191E-02-6.22726E-04-5.98368E-14
 -1      3771 1.29437E-02-7.13571E-04-6.34647E-14
 -1      3772 1.30751E-02-7.40668E-04-6.48925E-14
 -1      3773 1.28710E-02-6.73032E-04-6.26438E-14
 -1      3774 1.32079E-02-7.68103E-04-6.63293E-14
 -1      3775 1.33421E-02-7.95921E-04-6.77736E-14
 -1      3776 1.31306E-02-7.25697E-04-6.54897E-14
 -1      3777 1.34774E-02-8.23884E-04-6.92293E-14
 -1      3778 1.36138E-02-8.52005E-04-7.06907E-14
 -1      3779 1.33964E-02-7.79894E-04-6.83740E-14
 -1      3780 4.09849E-03 2.52417E-04-8.07441E-15
 -1      3781 3.95614E-03 2.55119E-04-7.53935E-15
 -1      3782 2.52942E-03 3.35110E-04-3.08981E-15
 -1      3783 2.38549E-03 3.32217E-04-2.76103E-15
 -1      3784 2.30803E-03 2.93952E-04-2.65070E-15
 -1      3785 5.22658E-03 2.22932E-04-1.30092E-14
 -1      3786 5.08659E-03 2.27186E-04-1.23279E-14
 -1      3787 4.94634E-03 2.31325E-04-1.16653E-14
 -1      3788 4.80579E-03 2.35340E-04-1.10213E-14
 -1      3789 5.00961E-03 1.95314E-04-1.20748E-14
 -1      3790 5.78494E-03 2.06027E-04-1.59152E-14
 -1      3791 5.64541E-03 2.10097E-04-1.51621E-14
 -1      3792 6.06465E-03 1.98817E-04-1.74755E-14
 -1      3793 5.92459E-03 2.02209E-04-1.66868E-14
 -1      3794 5.83978E-03 1.69822E-04-1.63872E-14
 -1      3795 6.34681E-03 1.93927E-04-1.91042E-14
 -1      3796 6.20525E-03 1.95944E-04-1.82813E-14
 -1      3797 6.11558E-03 1.61650E-04-1.79680E-14
 -1      3798 6.63424E-03 1.93359E-04-2.07973E-14
 -1      3799 6.48961E-03 1.92858E-04-1.99427E-14
 -1      3800 6.39335E-03 1.55004E-04-1.96164E-14
 -1      3801 6.93105E-03 2.00452E-04-2.25558E-14
 -1      3802 6.78115E-03 1.95554E-04-2.16679E-14
 -1      3803 6.67615E-03 1.51736E-04-2.13293E-14
 -1      3804 7.47388E-03 2.52227E-04-2.56638E-14
 -1      3805 7.33082E-03 1.48883E-04-2.54730E-14
 -1      3806 7.42063E-03 1.92452E-04-2.57331E-14
 -1      3807 7.31914E-03 2.29447E-04-2.48109E-14
 -1      3808 7.21152E-03 1.18537E-04-2.49460E-14
 -1      3809 1.15337E-02-1.33761E-04-5.15885E-14
 -1      3810 1.13802E-02-9.99631E-05-5.02677E-14
 -1      3811 1.24001E-02-2.88796E-04-5.97618E-14
 -1      3812 1.22593E-02-2.65897E-04-5.83731E-14
 -1      3813 1.26800E-02-3.33171E-04-6.25544E-14
 -1      3814 1.25402E-02-3.11140E-04-6.11566E-14
 -1      3815 1.25095E-02-3.34800E-04-6.06026E-14
 -1      3816 1.29592E-02-3.76743E-04-6.53694E-14
 -1      3817 1.28196E-02-3.54995E-04-6.39582E-14
 -1      3818 1.27854E-02-3.77908E-04-6.34016E-14
 -1      3819 1.32388E-02-4.20355E-04-6.82091E-14
 -1      3820 1.30989E-02-3.98509E-04-6.67876E-14
 -1      3821 1.30617E-02-4.21091E-04-6.62245E-14
 -1      3822 1.37882E-02-6.00748E-04-7.34141E-14
 -1      3823 1.36527E-02-5.62125E-04-7.20756E-14
 -1      3824 1.38177E-02-6.37571E-04-7.35875E-14
 -1      3825 1.37127E-02-6.35197E-04-7.24148E-14
 -1      3826 1.17096E-02-3.38294E-04-5.05367E-14
 -1      3827 1.18368E-02-3.84961E-04-5.11466E-14
 -1      3828 1.34603E-02-4.65274E-04-7.04177E-14
 -1      3829 1.33448E-02-4.40733E-04-6.92690E-14
 -1      3830 1.33054E-02-4.63125E-04-6.87049E-14
 -1      3831 1.35158E-02-5.04074E-04-7.08331E-14
 -1      3832 5.50593E-03 2.14328E-04-1.44259E-14
 -1      3833 5.36633E-03 2.18633E-04-1.37078E-14
 -1      3834 5.56412E-03 1.78511E-04-1.48771E-14
 -1      3835 1.36328E-02-4.43254E-04-7.24160E-14
 -1      3836 1.40551E-03-1.85512E-04-1.25255E-15
 -1      3837 1.58279E-03-1.94501E-04-1.54289E-15
 -1      3838 1.65073E-03-1.65839E-04-1.66681E-15
 -1      3839 1.40139E-03-1.51178E-04-1.25213E-15
 -1      3840 1.19254E-02-4.21630E-04-5.15698E-14
 -1      3841 1.19552E-02-4.40161E-04-5.16710E-14
 -1      3842 1.21178E-02-2.42338E-04-5.69964E-14
 -1      3843 1.19749E-02-2.17676E-04-5.56284E-14
 -1      3844 1.22328E-02-2.90936E-04-5.78276E-14
 -1      3845 1.18304E-02-1.91824E-04-5.42701E-14
 -1      3846 1.16835E-02-1.63916E-04-5.29230E-14
 -1      3847 1.19529E-02-2.44956E-04-5.50878E-14
 -1      3848 1.20450E-03-6.74446E-05-9.63720E-16
 -1      3849 1.20635E-03-9.78513E-05-9.68098E-16
 -1      3850 1.27465E-03-1.10479E-04-1.06437E-15
 -1      3851 6.87289E-03-2.12605E-04-2.47500E-14
 -1      3852 6.95730E-03-2.18030E-04-2.54887E-14
 -1      3853 6.96391E-03-2.07074E-04-2.58039E-14
 -1      3854 6.77250E-03-1.84029E-04-2.42288E-14
 -1      3855 1.19643E-02-5.25985E-04-5.24210E-14
 -1      3856 1.20782E-02-5.45908E-04-5.37652E-14
 -1      3857 1.21471E-02-5.31841E-04-5.43389E-14
 -1      3858 1.25733E-03-1.41448E-05-1.02671E-15
 -1      3859 1.25797E-03-4.50001E-05-1.03471E-15
 -1      3860 1.37969E-03 1.29461E-06-1.20021E-15
 -1      3861 1.12652E-02-8.74647E-05-4.91609E-14
 -1      3862 1.11077E-02-8.10999E-05-4.75282E-14
 -1      3863 1.11915E-02-1.37392E-04-4.77493E-14
 -1      3864 1.14095E-02-1.56913E-04-4.99505E-14
 -1      3865 2.28583E-03-2.22132E-04-2.96764E-15
 -1      3866 2.43053E-03-2.24725E-04-3.31603E-15
 -1      3867 2.20972E-03-1.84739E-04-2.79621E-15
 -1      3868 1.19033E-02-4.96214E-04-5.14076E-14
 -1      3869 1.37036E-02-8.45179E-04-7.16823E-14
 -1      3870 2.49937E-03-1.89243E-04-3.49059E-15
 -1      3871 4.38233E-03 2.46255E-04-9.19729E-15
 -1      3872 4.24055E-03 2.49466E-04-8.62654E-15
 -1      3873 4.16594E-03 2.15426E-04-8.41699E-15
 -1      3874 6.95703E-03-3.81650E-05-2.48484E-14
 -1      3875 7.03849E-03-1.67072E-05-2.51315E-14
 -1      3876 7.06222E-03 3.52077E-05-2.47306E-14
 -1      3877 1.19532E-02-4.09745E-04-5.23548E-14
 -1      3878 1.50549E-03 8.73652E-05-1.35154E-15
 -1      3879 1.50385E-03 5.28155E-05-1.37004E-15
 -1      3880 3.81352E-03 2.57528E-04-7.02300E-15
 -1      3881 3.67063E-03 2.59650E-04-6.52463E-15
 -1      3882 3.88163E-03 2.20300E-04-7.34497E-15
 -1      3883 1.51132E-03 1.57306E-04-1.30725E-15
 -1      3884 1.50797E-03 1.22132E-04-1.33091E-15
 -1      3885 1.63063E-03 1.08941E-04-1.54260E-15
 -1      3886 3.45918E-03 2.98932E-04-5.74830E-15
 -1      3887 1.32596E-03-5.57211E-05-1.13492E-15
 -1      3888 2.95275E-03 2.64717E-04-4.30297E-15
 -1      3889 2.80860E-03 2.64342E-04-3.91266E-15
 -1      3890 5.28757E-03 1.87129E-04-1.34399E-14
 -1      3891 7.15858E-03 2.14323E-04-2.38836E-14
 -1      3892 1.16661E-02-1.94318E-04-5.23931E-14
 -1      3893 1.35330E-03 2.08218E-04-1.02159E-15
 -1      3894 1.19754E-02-4.52298E-04-5.18665E-14
 -1      3895 1.19906E-02-4.64157E-04-5.20623E-14
 -1      3896 1.20510E-02-4.57558E-04-5.29767E-14
 -1      3897 1.35794E-02-5.77895E-04-7.11699E-14
 -1      3898 1.35481E-02-5.41284E-04-7.10020E-14
 -1      3899 1.34436E-02-5.20646E-04-6.99340E-14
 -1      3900 1.13583E-02-1.90911E-04-4.88954E-14
 -1      3901 1.36851E-02-8.10302E-04-7.15293E-14
 -1      3902 1.16527E-02-3.09300E-04-5.04268E-14
 -1      3903 1.18077E-02-3.42246E-04-5.18161E-14
 -1      3904 1.15933E-02-2.76512E-04-5.03184E-14
 -1      3905 1.79266E-03 2.41169E-04-1.69430E-15
 -1      3906 1.66671E-03 2.37816E-04-1.47911E-15
 -1      3907 3.24053E-03 2.63935E-04-5.13821E-15
 -1      3908 3.09673E-03 2.64572E-04-4.71190E-15
 -1      3909 3.02137E-03 2.27781E-04-4.55796E-15
 -1      3910 7.03980E-03 1.58517E-04-2.35266E-14
 -1      3911 1.47087E-03 2.60623E-04-1.13860E-15
 -1      3912 4.66495E-03 2.39172E-04-1.03949E-14
 -1      3913 4.52379E-03 2.42827E-04-9.78731E-15
 -1      3914 4.44877E-03 2.09579E-04-9.56279E-15
 -1      3915 1.36622E-02-7.02671E-04-7.15612E-14
 -1      3916 1.36362E-02-6.67810E-04-7.14020E-14
 -1      3917 6.83299E-03-1.69168E-04-2.51466E-14
 -1      3918 6.84705E-03-1.61750E-04-2.54689E-14
 -1      3919 6.80645E-03-1.47738E-04-2.50898E-14
 -1      3920 2.59651E-03 2.99379E-04-3.31358E-15
 -1      3921 6.81565E-03-1.22650E-04-2.49945E-14
 -1      3922 6.86631E-03-1.17078E-04-2.53302E-14
 -1      3923 6.86462E-03-9.12018E-05-2.49121E-14
 -1      3924 2.08132E-03 2.53604E-04-2.22926E-15
 -1      3925 1.93690E-03 2.48037E-04-1.95227E-15
 -1      3926 1.85495E-03 2.12294E-04-1.84187E-15
 -1      3927 1.36233E-02-6.41051E-04-7.13705E-14
 -1      3928 1.35943E-02-6.05388E-04-7.12051E-14
 -1      3929 1.34912E-02-5.84448E-04-7.01314E-14
 -1      3930 1.35195E-02-6.37935E-04-7.01935E-14
 -1      3931 4.73002E-03 2.02844E-04-1.07828E-14
 -1      3932 4.79481E-03 1.67162E-04-1.11727E-14
 -1      3933 4.65519E-03 1.70424E-04-1.05431E-14
 -1      3934 1.84500E-03-1.40832E-04-2.02931E-15
 -1      3935 1.98947E-03-1.44697E-04-2.31869E-15
 -1      3936 3.00284E-03-1.54798E-04-4.87005E-15
 -1      3937 3.14704E-03-1.54548E-04-5.30806E-15
 -1      3938 3.29095E-03-1.54030E-04-5.76388E-15
 -1      3939 3.43453E-03-1.53249E-04-6.23784E-15
 -1      3940 3.21708E-03-1.17667E-04-5.51386E-15
 -1      3941 3.57773E-03-1.52262E-04-6.72929E-15
 -1      3942 3.72053E-03-1.51065E-04-7.23832E-15
 -1      3943 3.50427E-03-1.16499E-04-6.45786E-15
 -1      3944 3.86288E-03-1.49713E-04-7.76516E-15
 -1      3945 4.00475E-03-1.48197E-04-8.30941E-15
 -1      3946 3.78979E-03-1.14713E-04-7.47290E-15
 -1      3947 4.14607E-03-1.46575E-04-8.87203E-15
 -1      3948 4.28681E-03-1.44829E-04-9.45170E-15
 -1      3949 4.07332E-03-1.12478E-04-8.55834E-15
 -1      3950 4.42689E-03-1.43031E-04-1.00488E-14
 -1      3951 4.56628E-03-1.41159E-04-1.06638E-14
 -1      3952 4.35444E-03-1.09965E-04-9.71452E-15
 -1      3953 4.70487E-03-1.39301E-04-1.12968E-14
 -1      3954 4.84262E-03-1.37435E-04-1.19482E-14
 -1      3955 4.63269E-03-1.07370E-04-1.09419E-14
 -1      3956 4.97940E-03-1.35675E-04-1.26161E-14
 -1      3957 5.11514E-03-1.33992E-04-1.33019E-14
 -1      3958 4.90747E-03-1.04957E-04-1.22402E-14
 -1      3959 5.24971E-03-1.32541E-04-1.40067E-14
 -1      3960 5.38299E-03-1.31278E-04-1.47300E-14
 -1      3961 5.17806E-03-1.03075E-04-1.36103E-14
 -1      3962 5.51483E-03-1.30410E-04-1.54708E-14
 -1      3963 5.64509E-03-1.29865E-04-1.62304E-14
 -1      3964 5.44353E-03-1.02191E-04-1.50539E-14
 -1      3965 5.77355E-03-1.29915E-04-1.70076E-14
 -1      3966 5.90004E-03-1.30430E-04-1.78036E-14
 -1      3967 5.70271E-03-1.02889E-04-1.65693E-14
 -1      3968 6.02424E-03-1.31768E-04-1.86176E-14
 -1      3969 6.14596E-03-1.33689E-04-1.94482E-14
 -1      3970 5.95404E-03-1.05852E-04-1.81575E-14
 -1      3971 6.26472E-03-1.36690E-04-2.02975E-14
 -1      3972 6.38023E-03-1.40294E-04-2.11630E-14
 -1      3973 6.19536E-03-1.11801E-04-1.98165E-14
 -1      3974 6.49176E-03-1.45164E-04-2.20457E-14
 -1      3975 6.59903E-03-1.50418E-04-2.29450E-14
 -1      3976 6.42351E-03-1.21413E-04-2.15447E-14
 -1      3977 3.52749E-03 2.61437E-04-6.04436E-15
 -1      3978 3.38412E-03 2.62886E-04-5.58254E-15
 -1      3979 3.30919E-03 2.26673E-04-5.41547E-15
 -1      3980 3.59600E-03 2.24100E-04-6.34411E-15
 -1      3981 1.23164E-02-5.41365E-04-5.62754E-14
 -1      3982 1.24321E-02-5.63454E-04-5.76483E-14
 -1      3983 2.42401E-03-1.52110E-04-3.30061E-15
 -1      3984 2.56892E-03-1.53422E-04-3.66516E-15
 -1      3985 1.25510E-02-5.86134E-04-5.90337E-14
 -1      3986 1.26729E-02-6.09843E-04-6.04263E-14
 -1      3987 1.24807E-02-5.51366E-04-5.82299E-14
 -1      3988 1.27973E-02-6.34108E-04-6.18248E-14
 -1      3989 1.29240E-02-6.59174E-04-6.32351E-14
 -1      3990 1.27221E-02-5.96739E-04-6.10112E-14
 -1      3991 1.30526E-02-6.84683E-04-6.46542E-14
 -1      3992 1.31830E-02-7.10743E-04-6.60836E-14
 -1      3993 1.29735E-02-6.45002E-04-6.38258E-14
 -1      3994 1.33150E-02-7.37089E-04-6.75244E-14
 -1      3995 1.34485E-02-7.63773E-04-6.89709E-14
 -1      3996 1.32329E-02-6.95439E-04-6.66758E-14
 -1      3997 2.37033E-03 2.61430E-04-2.83959E-15
 -1      3998 2.22581E-03 2.58033E-04-2.52522E-15
 -1      3999 2.14394E-03 2.22365E-04-2.39950E-15
 -1      4000 5.34794E-03 1.52106E-04-1.38726E-14
 -1      4001 5.21044E-03 1.56173E-04-1.31708E-14
 -1      4002 6.16460E-03 1.25080E-04-1.84623E-14
 -1      4003 6.02891E-03 1.29689E-04-1.76523E-14
 -1      4004 5.89333E-03 1.34352E-04-1.68612E-14
 -1      4005 5.75750E-03 1.38966E-04-1.60879E-14
 -1      4006 5.94567E-03 9.96402E-05-1.73371E-14
 -1      4007 6.71359E-03 1.10010E-04-2.18633E-14
 -1      4008 6.57440E-03 1.12711E-04-2.09895E-14
 -1      4009 1.50553E-03 2.17131E-04-1.24045E-15
 -1      4010 1.17954E-02-2.49376E-04-5.31989E-14
 -1      4011 1.16541E-02-2.25206E-04-5.18636E-14
 -1      4012 1.28885E-02-4.21417E-04-6.42466E-14
 -1      4013 1.27521E-02-4.00102E-04-6.28418E-14
 -1      4014 1.26162E-02-3.78919E-04-6.14422E-14
 -1      4015 1.24803E-02-3.57814E-04-6.00457E-14
 -1      4016 1.27198E-02-4.21538E-04-6.22791E-14
 -1      4017 5.62142E-03 1.43483E-04-1.53311E-14
 -1      4018 5.48489E-03 1.47880E-04-1.45921E-14
 -1      4019 5.40778E-03 1.17903E-04-1.43073E-14
 -1      4020 1.62722E-03 3.71675E-05-1.58312E-15
 -1      4021 1.50302E-03 1.85194E-05-1.38595E-15
 -1      4022 1.50299E-03-1.57065E-05-1.39915E-15
 -1      4023 1.33393E-02-5.00192E-04-6.88724E-14
 -1      4024 1.32351E-02-4.79930E-04-6.78123E-14
 -1      4025 1.33721E-02-5.36518E-04-6.90336E-14
 -1      4026 1.46340E-03-5.90884E-05-1.34662E-15
 -1      4027 1.40960E-03-8.40145E-05-1.26543E-15
 -1      4028 1.37092E-02-7.71985E-04-7.18816E-14
 -1      4029 1.36866E-02-7.37317E-04-7.17252E-14
 -1      4030 1.35575E-02-6.98363E-04-7.03818E-14
 -1      4031 1.23446E-02-3.36735E-04-5.86590E-14
 -1      4032 1.22085E-02-3.15510E-04-5.72796E-14
 -1      4033 1.24526E-02-3.80162E-04-5.94910E-14
 -1      4034 1.41196E-03-1.17515E-04-1.27063E-15
 -1      4035 1.20720E-02-2.94103E-04-5.59108E-14
 -1      4036 1.19343E-02-2.72076E-04-5.45495E-14
 -1      4037 1.21865E-02-3.39641E-04-5.67317E-14
 -1      4038 2.73273E-03 2.27074E-04-3.77313E-15
 -1      4039 2.66431E-03 2.63343E-04-3.54167E-15
 -1      4040 2.51990E-03 2.61676E-04-3.18888E-15
 -1      4041 5.07245E-03 1.60031E-04-1.24863E-14
 -1      4042 4.93389E-03 1.63709E-04-1.18206E-14
 -1      4043 5.13494E-03 1.25522E-04-1.29005E-14
 -1      4044 1.19717E-02-4.83386E-04-5.19732E-14
 -1      4045 1.19964E-02-3.99104E-04-5.32710E-14
 -1      4046 1.20784E-02-4.37947E-04-5.37023E-14
 -1      4047 6.88117E-03-1.90482E-04-2.52654E-14
 -1      4048 1.15512E-02-2.19575E-04-5.07419E-14
 -1      4049 1.20619E-02-4.89794E-04-5.30856E-14
 -1      4050 2.71373E-03-1.54281E-04-4.04857E-15
 -1      4051 2.85839E-03-1.54714E-04-4.44999E-15
 -1      4052 2.92857E-03-1.18025E-04-4.64091E-15
 -1      4053 1.35581E-02-7.69972E-04-7.01875E-14
 -1      4054 2.13420E-03-1.47813E-04-2.62737E-15
 -1      4055 2.27908E-03-1.50256E-04-2.95488E-15
 -1      4056 2.05932E-03-1.11465E-04-2.46178E-15
 -1      4057 6.43699E-03 1.16413E-04-2.01304E-14
 -1      4058 6.30042E-03 1.20558E-04-1.92881E-14
 -1      4059 6.21171E-03 8.90988E-05-1.89588E-14
 -1      4060 1.31301E-02-4.61361E-04-6.67342E-14
 -1      4061 1.29931E-02-4.39689E-04-6.53188E-14
 -1      4062 1.29575E-02-4.60746E-04-6.47522E-14
 -1      4063 1.31648E-02-4.97481E-04-6.68970E-14
 -1      4064 6.85385E-03-6.02994E-05-2.44110E-14
 -1      4065 6.86763E-03-1.94617E-05-2.40225E-14
 -1      4066 3.94985E-03 1.83397E-04-7.66908E-15
 -1      4067 3.80748E-03 1.85314E-04-7.14892E-15
 -1      4068 1.21673E-02-5.09926E-04-5.44318E-14
 -1      4069 6.66125E-03-1.40253E-04-2.35893E-14
 -1      4070 6.73070E-03-1.62580E-04-2.41125E-14
 -1      4071 2.34916E-03-1.15269E-04-3.11382E-15
 -1      4072 1.34729E-02-7.27044E-04-6.93257E-14
 -1      4073 2.63911E-03-1.17328E-04-3.84030E-15
 -1      4074 7.10558E-03 1.13217E-04-2.43073E-14
 -1      4075 6.88966E-03 1.08561E-04-2.29696E-14
 -1      4076 2.43841E-03 2.26313E-04-3.04726E-15
 -1      4077 6.96590E-03 3.58130E-05-2.40945E-14
 -1      4078 7.04959E-03 6.40194E-05-2.43698E-14
 -1      4079 1.58653E-03-4.39576E-05-1.54606E-15
 -1      4080 6.47759E-03 7.80726E-05-2.06470E-14
 -1      4081 4.58127E-03 1.37931E-04-1.03020E-14
 -1      4082 4.51507E-03 1.73452E-04-9.93151E-15
 -1      4083 4.37445E-03 1.76281E-04-9.33773E-15
 -1      4084 5.67793E-03 1.09278E-04-1.57865E-14
 -1      4085 6.77936E-03 6.71140E-05-2.26145E-14
 -1      4086 1.54980E-03 1.86770E-04-1.34137E-15
 -1      4087 1.19195E-02-2.99155E-04-5.40093E-14
 -1      4088 1.53628E-03-1.23680E-04-1.47178E-15
 -1      4089 1.75219E-03 5.69372E-05-1.79192E-15
 -1      4090 1.75130E-03 1.99911E-05-1.81134E-15
 -1      4091 1.22135E-02-4.98966E-04-5.50030E-14
 -1      4092 1.16028E-02-2.56580E-04-5.07936E-14
 -1      4093 6.78584E-03-7.21028E-05-2.40861E-14
 -1      4094 1.19125E-02-3.51796E-04-5.30527E-14
 -1      4095 1.19565E-02-3.76636E-04-5.31641E-14
 -1      4096 1.20971E-02-4.08840E-04-5.45204E-14
 -1      4097 1.34506E-02-6.93664E-04-6.91782E-14
 -1      4098 1.34262E-02-6.60144E-04-6.90231E-14
 -1      4099 1.33442E-02-6.88487E-04-6.79741E-14
 -1      4100 3.09049E-03 1.90787E-04-4.81653E-15
 -1      4101 2.94624E-03 1.90907E-04-4.40311E-15
 -1      4102 4.85939E-03 1.32180E-04-1.15648E-14
 -1      4103 6.73912E-03-1.35496E-04-2.43687E-14
 -1      4104 6.77363E-03-1.29213E-04-2.46817E-14
 -1      4105 6.75160E-03-1.08632E-04-2.42738E-14
 -1      4106 2.80179E-03 1.90597E-04-4.00870E-15
 -1      4107 2.65716E-03 1.89838E-04-3.63285E-15
 -1      4108 2.87141E-03 1.53984E-04-4.24800E-15
 -1      4109 1.33093E-02-6.30666E-04-6.78041E-14
 -1      4110 1.34140E-02-6.34526E-04-6.89952E-14
 -1      4111 1.34006E-02-6.08546E-04-6.89694E-14
 -1      4112 4.23336E-03 1.78874E-04-8.76373E-15
 -1      4113 4.09182E-03 1.81258E-04-8.20751E-15
 -1      4114 4.30079E-03 1.42823E-04-9.11290E-15
 -1      4115 1.67192E-03 1.75039E-04-1.55555E-15
 -1      4116 1.75394E-03 9.40084E-05-1.76958E-15
 -1      4117 1.87782E-03 7.76040E-05-2.01191E-15
 -1      4118 1.75655E-03 1.31315E-04-1.74436E-15
 -1      4119 4.01819E-03 1.46884E-04-7.99668E-15
 -1      4120 1.66116E-03-1.29176E-04-1.68733E-15
 -1      4121 1.82458E-03 1.86694E-04-1.81422E-15
 -1      4122 1.78605E-03 1.56087E-04-1.77487E-15
 -1      4123 1.90930E-03 1.40862E-04-2.01933E-15
 -1      4124 1.96898E-03 1.91915E-04-2.08176E-15
 -1      4125 1.73073E-03-9.88626E-05-1.81123E-15
 -1      4126 6.25725E-03 5.41837E-05-1.94575E-14
 -1      4127 6.12743E-03 6.02666E-05-1.86282E-14
 -1      4128 3.73371E-03 1.50110E-04-6.95208E-15
 -1      4129 3.66474E-03 1.86968E-04-6.64651E-15
 -1      4130 3.52164E-03 1.88375E-04-6.16220E-15
 -1      4131 1.17693E-02-2.96322E-04-5.21844E-14
 -1      4132 6.61804E-03-1.20984E-04-2.31949E-14
 -1      4133 2.27490E-03-7.88356E-05-2.93038E-15
 -1      4134 2.41994E-03-7.98271E-05-3.27340E-15
 -1      4135 3.43120E-03-8.05017E-05-6.18947E-15
 -1      4136 3.57440E-03-7.99920E-05-6.67737E-15
 -1      4137 3.71715E-03-7.94053E-05-7.18262E-15
 -1      4138 3.85941E-03-7.87281E-05-7.70598E-15
 -1      4139 3.64493E-03-4.37714E-05-6.89546E-15
 -1      4140 4.00111E-03-7.80171E-05-8.24704E-15
 -1      4141 4.14222E-03-7.72509E-05-8.80548E-15
 -1      4142 3.92940E-03-4.31542E-05-7.93804E-15
 -1      4143 4.28268E-03-7.64866E-05-9.38266E-15
 -1      4144 4.42244E-03-7.57079E-05-9.97698E-15
 -1      4145 4.21152E-03-4.25384E-05-9.05225E-15
 -1      4146 4.56141E-03-7.49867E-05-1.05884E-14
 -1      4147 4.69955E-03-7.43026E-05-1.12194E-14
 -1      4148 4.49089E-03-4.20699E-05-1.02384E-14
 -1      4149 4.83675E-03-7.37508E-05-1.18673E-14
 -1      4150 4.97294E-03-7.33051E-05-1.25323E-14
 -1      4151 4.76700E-03-4.19504E-05-1.14956E-14
 -1      4152 5.10801E-03-7.30937E-05-1.32163E-14
 -1      4153 5.24186E-03-7.30794E-05-1.39186E-14
 -1      4154 5.03922E-03-4.24552E-05-1.28241E-14
 -1      4155 5.37435E-03-7.34357E-05-1.46389E-14
 -1      4156 5.50536E-03-7.41034E-05-1.53773E-14
 -1      4157 5.30681E-03-4.39562E-05-1.42261E-14
 -1      4158 5.63470E-03-7.53176E-05-1.61332E-14
 -1      4159 5.76222E-03-7.69743E-05-1.69077E-14
 -1      4160 5.56884E-03-4.69405E-05-1.56990E-14
 -1      4161 5.88767E-03-7.93970E-05-1.77011E-14
 -1      4162 6.01081E-03-8.23903E-05-1.85107E-14
 -1      4163 5.82413E-03-5.20200E-05-1.72457E-14
 -1      4164 6.13133E-03-8.64160E-05-1.93384E-14
 -1      4165 6.24883E-03-9.10965E-05-2.01839E-14
 -1      4166 6.07107E-03-5.99252E-05-1.88631E-14
 -1      4167 6.36291E-03-9.71531E-05-2.10466E-14
 -1      4168 6.47295E-03-1.03912E-04-2.19257E-14
 -1      4169 6.30735E-03-7.14730E-05-2.05504E-14
 -1      4170 1.19285E-02-3.36294E-04-5.35380E-14
 -1      4171 2.50723E-03 1.90814E-04-3.25944E-15
 -1      4172 2.35725E-03 1.91119E-04-2.90623E-15
 -1      4173 2.57673E-03 1.54995E-04-3.47521E-15
 -1      4174 2.23539E-03 1.93963E-04-2.63094E-15
 -1      4175 2.09064E-03 1.90569E-04-2.32820E-15
 -1      4176 2.06068E-03 1.64642E-04-2.29585E-15
 -1      4177 2.30456E-03 1.59387E-04-2.82513E-15
 -1      4178 1.26441E-02-5.60538E-04-6.01988E-14
 -1      4179 1.27671E-02-5.83192E-04-6.15937E-14
 -1      4180 1.28926E-02-6.06414E-04-6.29997E-14
 -1      4181 1.30201E-02-6.30368E-04-6.44131E-14
 -1      4182 1.28092E-02-5.68754E-04-6.21779E-14
 -1      4183 1.31158E-02-6.46825E-04-6.54717E-14
 -1      4184 1.32464E-02-6.71591E-04-6.69012E-14
 -1      4185 1.32233E-02-6.39389E-04-6.67596E-14
 -1      4186 1.30307E-02-6.07293E-04-6.46396E-14
 -1      4187 6.85475E-03 5.31107E-06-2.36704E-14
 -1      4188 6.83922E-03 3.11740E-05-2.33184E-14
 -1      4189 6.75247E-03-1.88451E-05-2.32455E-14
 -1      4190 1.76003E-03-1.58399E-05-1.84344E-15
 -1      4191 1.72012E-03-6.29353E-05-1.78541E-15
 -1      4192 1.90391E-03-7.13701E-05-2.13551E-15
 -1      4193 1.88482E-03 2.74613E-06-2.07077E-15
 -1      4194 5.46740E-03 8.46170E-05-1.47432E-14
 -1      4195 5.33277E-03 8.83962E-05-1.40206E-14
 -1      4196 1.21226E-02-4.61733E-04-5.39997E-14
 -1      4197 1.21458E-02-4.75301E-04-5.41986E-14
 -1      4198 6.67591E-03 3.87266E-05-2.22038E-14
 -1      4199 1.28203E-02-4.62901E-04-6.31175E-14
 -1      4200 1.26880E-02-4.42019E-04-6.17163E-14
 -1      4201 1.33884E-02-5.63742E-04-6.90665E-14
 -1      4202 5.99715E-03 6.59548E-05-1.78150E-14
 -1      4203 5.86592E-03 7.12025E-05-1.70212E-14
 -1      4204 6.04798E-03 3.33876E-05-1.82958E-14
 -1      4205 6.51529E-03 4.07654E-05-2.11651E-14
 -1      4206 6.38624E-03 4.76308E-05-2.03024E-14
 -1      4207 6.30137E-03 2.04453E-05-1.99576E-14
 -1      4208 3.23449E-03 1.90313E-04-5.24762E-15
 -1      4209 3.16006E-03 1.53810E-04-5.07779E-15
 -1      4210 3.37822E-03 1.89490E-04-5.69576E-15
 -1      4211 1.25567E-02-4.21518E-04-6.03196E-14
 -1      4212 1.24260E-02-4.01495E-04-5.89305E-14
 -1      4213 1.26566E-02-4.61462E-04-6.11481E-14
 -1      4214 4.92396E-03 9.79447E-05-1.19595E-14
 -1      4215 4.78610E-03 1.00624E-04-1.13082E-14
 -1      4216 1.24062E-02-5.17898E-04-5.74261E-14
 -1      4217 1.25236E-02-5.38876E-04-5.88094E-14
 -1      4218 1.25625E-02-5.25297E-04-5.93851E-14
 -1      4219 1.22961E-02-3.81889E-04-5.75505E-14
 -1      4220 1.21666E-02-3.62727E-04-5.61792E-14
 -1      4221 1.24002E-02-4.21740E-04-5.83685E-14
 -1      4222 5.73399E-03 7.60506E-05-1.62440E-14
 -1      4223 5.60109E-03 8.05174E-05-1.54847E-14
 -1      4224 5.78979E-03 4.38779E-05-1.67033E-14
 -1      4225 5.19734E-03 9.18518E-05-1.33161E-14
 -1      4226 5.06103E-03 9.50391E-05-1.26291E-14
 -1      4227 5.25977E-03 5.90759E-05-1.37325E-14
 -1      4228 3.14360E-03-8.11653E-05-5.26634E-15
 -1      4229 3.28758E-03-8.08908E-05-5.71877E-15
 -1      4230 3.35853E-03-4.42703E-05-5.92308E-15
 -1      4231 2.85473E-03-8.12421E-05-4.41436E-15
 -1      4232 2.99930E-03-8.12827E-05-4.83138E-15
 -1      4233 3.07054E-03-4.45427E-05-5.02131E-15
 -1      4234 6.81698E-03-1.72883E-04-2.48939E-14
 -1      4235 1.20561E-02-3.54374E-04-5.48907E-14
 -1      4236 2.56499E-03-8.05420E-05-3.63515E-15
 -1      4237 2.70993E-03-8.09983E-05-4.01576E-15
 -1      4238 2.49139E-03-4.39825E-05-3.43340E-15
 -1      4239 6.72596E-03-8.36745E-05-2.37832E-14
 -1      4240 6.70262E-03-5.55782E-05-2.32950E-14
 -1      4241 6.67301E-03-9.31151E-05-2.34799E-14
 -1      4242 2.01683E-03-7.45274E-05-2.36478E-15
 -1      4243 2.16166E-03-7.60821E-05-2.67467E-15
 -1      4244 2.23305E-03-4.12831E-05-2.82063E-15
 -1      4245 2.00684E-03-3.66241E-05-2.33156E-15
 -1      4246 4.08673E-03 1.10800E-04-8.32642E-15
 -1      4247 3.94509E-03 1.12279E-04-7.78418E-15
 -1      4248 1.21800E-02-4.55424E-04-5.49303E-14
 -1      4249 1.32841E-02-5.61584E-04-6.78798E-14
 -1      4250 5.52695E-03 5.23104E-05-1.51823E-14
 -1      4251 4.22782E-03 1.09156E-04-8.88653E-15
 -1      4252 4.15548E-03 7.51978E-05-8.65898E-15
 -1      4253 4.36835E-03 1.07312E-04-9.46408E-15
 -1      4254 6.56915E-03-9.67006E-05-2.26763E-14
 -1      4255 4.71393E-03 6.88808E-05-1.10512E-14
 -1      4256 4.64753E-03 1.03056E-04-1.06759E-14
 -1      4257 4.50826E-03 1.05293E-04-1.00606E-14
 -1      4258 1.98923E-03 3.87200E-05-2.25736E-15
 -1      4259 1.99763E-03 1.09716E-06-2.29583E-15
 -1      4260 2.11064E-03-6.09734E-07-2.53240E-15
 -1      4261 1.22941E-02-5.04518E-04-5.60393E-14
 -1      4262 6.57989E-03 8.56408E-06-2.18449E-14
 -1      4263 1.21654E-02-3.94276E-04-5.56967E-14
 -1      4264 1.29221E-02-4.80886E-04-6.41837E-14
 -1      4265 1.28868E-02-5.00064E-04-6.36144E-14
 -1      4266 1.30243E-02-4.99102E-04-6.52535E-14
 -1      4267 1.32116E-02-6.14788E-04-6.67367E-14
 -1      4268 4.98863E-03 6.45098E-05-1.23561E-14
 -1      4269 6.65377E-03-3.46714E-05-2.27360E-14
 -1      4270 6.63368E-03-1.32479E-05-2.23956E-14
 -1      4271 6.48354E-03-7.66842E-06-2.13506E-14
 -1      4272 6.59229E-03-4.82279E-05-2.24432E-14
 -1      4273 2.78134E-03-4.44879E-05-4.19090E-15
 -1      4274 2.94160E-03 1.17265E-04-4.49035E-15
 -1      4275 2.79697E-03 1.17076E-04-4.09149E-15
 -1      4276 3.87248E-03 7.73810E-05-7.57117E-15
 -1      4277 3.80295E-03 1.13562E-04-7.26020E-15
 -1      4278 3.66035E-03 1.14686E-04-6.75390E-15
 -1      4279 1.22000E-02-4.17136E-04-5.58070E-14
 -1      4280 1.22316E-02-4.38338E-04-5.59157E-14
 -1      4281 1.23066E-02-4.25945E-04-5.71039E-14
 -1      4282 1.23305E-02-4.92167E-04-5.66103E-14
 -1      4283 1.99054E-03 7.75587E-05-2.23289E-15
 -1      4284 1.22876E-02-4.66379E-04-5.63079E-14
 -1      4285 3.08600E-03 1.17202E-04-4.90679E-15
 -1      4286 3.01231E-03 8.05052E-05-4.73590E-15
 -1      4287 3.23010E-03 1.16882E-04-5.34203E-15
 -1      4288 1.23927E-02-4.76943E-04-5.76084E-14
 -1      4289 3.44759E-03 1.52455E-04-5.97951E-15
 -1      4290 3.57315E-03-7.84229E-06-6.61095E-15
 -1      4291 3.71590E-03-7.85389E-06-7.11261E-15
 -1      4292 3.04062E-03 1.79431E-05-4.88228E-15
 -1      4293 3.18488E-03 1.79104E-05-5.31729E-15
 -1      4294 3.90010E-03 1.69083E-05-7.75869E-15
 -1      4295 4.04164E-03 1.65419E-05-8.30073E-15
 -1      4296 4.18257E-03 1.60579E-05-8.85968E-15
 -1      4297 4.32284E-03 1.55113E-05-9.43767E-15
 -1      4298 4.46239E-03 1.48114E-05-1.00330E-14
 -1      4299 4.60117E-03 1.40165E-05-1.06462E-14
 -1      4300 4.73911E-03 1.30139E-05-1.12772E-14
 -1      4301 4.87616E-03 1.18705E-05-1.19277E-14
 -1      4302 5.01224E-03 1.04432E-05-1.25953E-14
 -1      4303 5.14725E-03 8.81277E-06-1.32806E-14
 -1      4304 5.28115E-03 6.79550E-06-1.39840E-14
 -1      4305 5.41381E-03 4.49363E-06-1.47058E-14
 -1      4306 5.54518E-03 1.66911E-06-1.54460E-14
 -1      4307 5.67508E-03-1.54080E-06-1.62028E-14
 -1      4308 5.80350E-03-5.44817E-06-1.69788E-14
 -1      4309 5.93017E-03-9.85603E-06-1.77730E-14
 -1      4310 6.05515E-03-1.51810E-05-1.85838E-14
 -1      4311 6.17802E-03-2.11155E-05-1.94127E-14
 -1      4312 2.64689E-03 1.18887E-04-3.69431E-15
 -1      4313 2.49670E-03 1.20320E-04-3.31748E-15
 -1      4314 2.71767E-03 8.25513E-05-3.91715E-15
 -1      4315 2.03108E-03 1.38971E-04-2.26131E-15
 -1      4316 2.00182E-03 1.13545E-04-2.22614E-15
 -1      4317 2.15304E-03 1.36415E-04-2.51763E-15
 -1      4318 1.27226E-02-5.31518E-04-6.13559E-14
 -1      4319 1.28488E-02-5.53353E-04-6.27586E-14
 -1      4320 1.29809E-02-5.75916E-04-6.42122E-14
 -1      4321 1.30765E-02-5.91317E-04-6.52668E-14
 -1      4322 1.31597E-02-5.82095E-04-6.63021E-14
 -1      4323 1.28906E-02-5.36979E-04-6.33823E-14
 -1      4324 2.11266E-03 7.41058E-05-2.48717E-15
 -1      4325 1.31815E-02-5.42714E-04-6.68012E-14
 -1      4326 6.29897E-03-2.82291E-05-2.02579E-14
 -1      4327 1.27730E-02-4.99107E-04-6.22415E-14
 -1      4328 1.26447E-02-4.78385E-04-6.08415E-14
 -1      4329 1.25371E-02-4.61266E-04-5.96567E-14
 -1      4330 1.24117E-02-4.41905E-04-5.82735E-14
 -1      4331 1.24401E-02-4.63834E-04-5.83821E-14
 -1      4332 1.26511E-02-4.97585E-04-6.07424E-14
 -1      4333 3.30751E-03 4.98670E-06-5.71560E-15
 -1      4334 3.45109E-03 4.93517E-06-6.18413E-15
 -1      4335 3.52310E-03 4.10763E-05-6.38569E-15
 -1      4336 3.27898E-03 6.72609E-05-5.55774E-15
 -1      4337 2.75130E-03 1.78903E-05-4.06602E-15
 -1      4338 2.89608E-03 1.79535E-05-4.46529E-15
 -1      4339 2.45591E-03 1.99369E-05-3.30748E-15
 -1      4340 2.60098E-03 2.01277E-05-3.66933E-15
 -1      4341 6.53022E-03-7.29028E-05-2.22040E-14
 -1      4342 1.24946E-02-4.93302E-04-5.87792E-14
 -1      4343 6.47482E-03-5.48771E-05-2.16597E-14
 -1      4344 4.43608E-03 7.23939E-05-9.81843E-15
 -1      4345 1.26169E-02-5.13680E-04-6.01690E-14
 -1      4346 1.29064E-02-5.20606E-04-6.36922E-14
 -1      4347 2.41450E-03 7.22586E-05-3.16615E-15
 -1      4348 2.34361E-03 1.07692E-04-2.96771E-15
 -1      4349 2.22138E-03 1.11387E-04-2.68965E-15
 -1      4350 2.30327E-03 8.51060E-06-2.95392E-15
 -1      4351 6.41737E-03-3.59506E-05-2.11210E-14
 -1      4352 2.22378E-03-2.35963E-06-2.78042E-15
 -1      4353 3.35214E-03 1.03597E-04-5.74372E-15
 -1      4354 2.18186E-03 4.88267E-05-2.65478E-15
 -1      4355 3.82977E-03 5.26144E-05-7.45060E-15
 -1      4356 1.31424E-02-5.61413E-04-6.62229E-14
 -1      4357 3.49562E-03 1.02947E-04-6.21165E-15
 -1      4358 1.30065E-02-5.38925E-04-6.47592E-14
 -1      4359 3.56591E-03 6.63838E-05-6.49876E-15
 -1      4360 3.68737E-03 5.32320E-05-6.93758E-15
 -1      4361 2.19252E-03 8.56521E-05-2.64900E-15
 -3
    1PSTEP                         2           1           1          
  100CL  101 1.000000000        4361                     0    1           1
 -4  STRESS      6    1
 -5  SXX         1    4    1    1
 -5  SYY         1    4    2    2
 -5  SZZ         1    4    3    3
 -5  SXY         1    4    1    2
 -5  SYZ         1    4    2    3
 -5  SZX         1    4    3    1
 -1         1 5.97929E+01 3.79566E+00 3.37249E+00-1.33685E+01-3.79939E-13 1.42314E-12
 -1         2-6.98689E-01-2.46237E+01-3.38152E+00 1.16089E-01-3.44105E-13 1.04208E-13
 -1         3 1.99961E+01-3.95305E-03 1.41508E-02-3.99677E-03-3.36658E-13-2.44201E-13
 -1         4 1.99960E+01-3.99548E-03 1.64912E-02 4.12531E-03 3.68502E-13-1.60470E-13
 -1         5 3.27439E+01 6.13799E+00 2.74076E+00 6.22149E+00-3.01495E-14 2.07238E-12
 -1         6 3.57272E+01 1.22550E+01 5.12260E+00-8.64260E+00-1.24345E-13 1.62294E-12
 -1         7 2.08034E+01 6.09538E+00-1.28984E-01-4.72548E+00-1.92624E-14 1.74881E-13
 -1         8 1.96629E+01 5.93232E+00 5.08729E-02-3.27647E+00-1.89154E-14-2.29179E-13
 -1         9 1.91344E+01 5.77100E+00 4.92281E-02-2.52868E+00-1.45908E-14-4.41759E-13
 -1        10 1.88968E+01 5.69261E+00 5.10827E-02-1.95319E+00-7.19130E-15-5.29017E-13
 -1        11 1.87797E+01 5.65297E+00 5.04399E-02-1.45780E+00-7.12017E-15-5.65827E-13
 -1        12 1.87193E+01 5.63228E+00 4.89909E-02-1.01628E+00-1.58554E-15-5.73822E-13
 -1        13 1.86877E+01 5.62142E+00 4.75752E-02-5.95955E-01-6.83806E-16-5.58349E-13
 -1        14 1.86746E+01 5.61687E+00 4.68361E-02-1.91352E-01 3.72947E-15-5.47293E-13
 -1        15 1.86750E+01 5.61702E+00 4.68744E-02 2.08477E-01 8.90222E-15-5.23530E-13
 -1        16 1.86891E+01 5.62187E+00 4.76992E-02 6.13884E-01 1.19877E-14-4.97841E-13
 -1        17 1.87219E+01 5.63297E+00 4.92197E-02 1.03611E+00 1.27255E-14-4.51646E-13
 -1        18 1.87837E+01 5.65410E+00 5.09669E-02 1.48065E+00 1.68017E-14-3.83432E-13
 -1        19 1.89028E+01 5.69425E+00 5.16511E-02 1.98216E+00 2.18037E-14-2.79435E-13
 -1        20 1.91392E+01 5.77348E+00 4.88373E-02 2.56588E+00 2.55160E-14-1.01938E-13
 -1        21 1.96584E+01 5.94689E+00 4.58359E-02 3.31042E+00 3.08364E-14 2.19656E-13
 -1        22 2.11865E+01 6.37713E+00 1.39376E-01 4.52308E+00 2.62290E-15 8.30157E-13
 -1        23 2.30069E+01-1.37806E+00-9.37811E-01-7.11432E-01-9.07330E-14 1.19191E-12
 -1        24 1.93430E+01-9.94686E-02-3.09757E-01 6.30262E-02-2.41395E-14 7.99990E-13
 -1        25 1.86527E+01-5.63529E-02-6.88012E-02 6.05505E-02-9.00235E-15 4.57480E-13
 -1        26 1.84487E+01-2.21555E-02-6.50643E-03 3.27919E-02-7.81992E-15 2.42461E-13
 -1        27 1.84591E+01-1.19157E-02 1.54802E-03 2.23673E-02-5.64110E-15 1.08981E-13
 -1        28 1.85733E+01-6.42734E-03 1.68337E-03 1.60112E-02 1.10686E-15 6.61433E-14
 -1        29 1.87353E+01-3.37421E-03 1.53325E-03 1.18142E-02-2.26021E-15 1.21756E-14
 -1        30 1.89150E+01-1.65814E-03 1.58901E-03 8.81558E-03 1.64340E-14-1.29701E-13
 -1        31 1.90967E+01-7.49393E-04 1.56950E-03 6.56593E-03-4.57340E-15-2.38081E-13
 -1        32 1.92732E+01-3.69856E-04 1.35199E-03 4.84633E-03-2.45375E-14-4.48895E-13
 -1        33 1.94430E+01-3.64768E-04 9.23758E-04 3.54504E-03 1.16312E-14-6.13810E-13
 -1        34 1.96090E+01-6.45498E-04 2.96549E-04 2.60665E-03-3.25202E-15-5.90423E-13
 -1        35 1.97775E+01-1.16192E-03-5.26886E-04 2.01252E-03 5.88812E-15-5.74427E-13
 -1        36 1.99580E+01-1.88713E-03-1.56082E-03 1.77562E-03 4.70726E-14-4.86314E-13
 -1        37 2.01626E+01-2.80629E-03-2.83593E-03 1.94357E-03-4.63364E-14-2.83337E-13
 -1        38 2.04066E+01-3.90439E-03-4.39379E-03 2.60687E-03-5.57595E-14-3.64415E-13
 -1        39 2.07086E+01-5.14805E-03-6.27280E-03 3.91077E-03-3.85499E-15-3.71461E-13
 -1        40 2.10900E+01-6.45509E-03-8.47441E-03 6.06718E-03 2.74179E-14-2.61012E-13
 -1        41 2.15750E+01-7.64333E-03-1.08873E-02 9.35589E-03 4.40105E-15-4.08195E-13
 -1        42 2.21878E+01-8.34948E-03-1.31299E-02 1.40878E-02-6.97726E-14-6.28567E-13
 -1        43 2.29476E+01-7.91755E-03-1.42558E-02 2.04661E-02 1.99376E-14-6.79671E-13
 -1        44 2.38577E+01-5.29100E-03-1.22955E-02 2.82194E-02 7.03068E-14-2.97241E-13
 -1        45 2.48845E+01 9.64719E-04-3.79183E-03 3.58066E-02-5.36690E-14-2.92275E-13
 -1        46 2.59258E+01 1.21920E-02 1.59586E-02 3.90393E-02-1.44161E-14-6.00953E-13
 -1        47 2.67702E+01 2.82455E-02 5.03165E-02 2.95015E-02-3.43202E-14-5.15801E-13
 -1        48 2.70740E+01 4.48683E-02 9.40597E-02-5.05790E-03 4.51705E-14-3.29853E-13
 -1        49 2.64205E+01 5.17646E-02 1.23447E-01-7.29882E-02 4.38052E-14-1.42542E-13
 -1        50 2.45485E+01 3.52626E-02 9.56236E-02-1.59188E-01-2.43334E-14-1.24435E-13
 -1        51 2.17396E+01-8.28972E-03-1.33675E-02-2.10621E-01-4.67166E-14-6.15549E-14
 -1        52 1.90470E+01-5.96238E-02-1.61969E-01-1.59370E-01 1.19106E-14-8.06993E-15
 -1        53 1.78769E+01-8.38310E-02-2.35562E-01-4.87202E-03-2.22695E-14-1.70845E-13
 -1        54 1.89270E+01-6.19328E-02-1.68357E-01 1.52768E-01 5.40878E-14-5.35259E-13
 -1        55 2.15654E+01-1.11766E-02-2.14863E-02 2.10872E-01-1.00291E-13-8.62595E-13
 -1        56 2.43992E+01 3.35473E-02 9.23383E-02 1.63760E-01 7.32916E-14-7.28521E-13
 -1        57 2.63324E+01 5.15882E-02 1.23744E-01 7.73993E-02 9.64550E-15-4.54376E-13
 -1        58 2.70438E+01 4.57089E-02 9.64716E-02 7.81629E-03 3.51177E-14-7.59138E-13
 -1        59 2.67755E+01 2.92758E-02 5.26889E-02-2.85087E-02-9.72378E-15-7.51343E-13
 -1        60 2.59430E+01 1.30386E-02 1.75999E-02-3.91657E-02-5.20301E-14-7.06074E-13
 -1        61 2.48965E+01 1.49988E-03-2.89154E-03-3.64622E-02 1.24861E-13-4.22194E-13
 -1        62 2.38547E+01-5.03623E-03-1.18894E-02-2.90790E-02-8.68317E-14-3.89770E-13
 -1        63 2.29251E+01-7.89176E-03-1.41451E-02-2.14021E-02-8.12136E-14-8.55532E-13
 -1        64 2.21447E+01-8.52815E-03-1.32164E-02-1.50724E-02 1.12940E-14-1.09979E-12
 -1        65 2.15132E+01-8.04824E-03-1.11818E-02-1.03935E-02-8.58391E-14-1.04212E-12
 -1        66 2.10146E+01-7.15844E-03-9.10879E-03-7.14301E-03 5.60613E-14-9.73490E-13
 -1        67 2.06289E+01-6.26978E-03-7.54347E-03-4.92355E-03 6.97491E-14-5.48287E-13
 -1        68 2.03391E+01-5.59237E-03-6.81068E-03-3.24931E-03 5.52956E-14-1.09766E-13
 -1        69 2.01347E+01-5.12833E-03-6.97133E-03-1.46489E-03-6.26090E-14-4.48572E-13
 -1        70 2.00139E+01-4.10610E-03-6.68243E-03 1.82320E-03 2.64782E-14-7.20312E-13
 -1        71 1.99813E+01 7.12172E-04 4.29276E-04 6.17158E-03 1.33065E-14-3.10772E-13
 -1        72 2.10205E+01-4.04604E-01-9.79966E-01-3.11048E-01 2.34188E-14 1.96251E-12
 -1        73 1.93076E+01-6.58839E-02-2.91080E-01-5.36849E-02 1.56086E-14 1.58235E-12
 -1        74 1.86625E+01-2.05403E-02-6.42763E-02-2.01990E-02 7.42017E-15 1.33101E-12
 -1        75 1.84582E+01-9.94260E-03-9.33751E-03-1.52517E-02-4.50399E-15 1.16892E-12
 -1        76 1.84686E+01-5.27148E-03 6.14889E-04-1.21168E-02 1.63302E-14 1.00291E-12
 -1        77 1.85824E+01-2.77908E-03 1.61334E-03-9.76159E-03 1.68528E-14 8.55565E-13
 -1        78 1.87438E+01-1.38836E-03 1.64763E-03-7.92292E-03-1.47597E-14 9.21781E-13
 -1        79 1.89231E+01-6.28795E-04 1.70044E-03-6.37969E-03 1.67224E-14 9.40490E-13
 -1        80 1.91047E+01-2.63756E-04 1.64938E-03-5.02919E-03-1.62282E-15 7.53275E-13
 -1        81 1.92811E+01-1.61882E-04 1.40566E-03-3.83788E-03 2.31590E-14 6.34714E-13
 -1        82 1.94508E+01-2.43638E-04 9.67952E-04-2.80145E-03 1.90471E-14 5.92709E-13
 -1        83 1.96163E+01-4.55743E-04 3.63543E-04-1.93072E-03 2.27673E-14 4.64230E-13
 -1        84 1.97827E+01-7.56712E-04-3.77597E-04-1.24914E-03 1.62628E-15 3.61695E-13
 -1        85 1.99577E+01-1.10656E-03-1.22407E-03-7.95090E-04-4.47853E-15 2.45831E-13
 -1        86 2.01503E+01-1.45746E-03-2.13333E-03-6.26112E-04-5.87621E-15 1.22440E-13
 -1        87 2.03703E+01-1.74389E-03-3.03506E-03-8.22864E-04-3.68476E-14 1.76135E-13
 -1        88 2.06271E+01-1.87186E-03-3.80692E-03-1.48975E-03-1.00465E-14 1.31420E-13
 -1        89 2.09284E+01-1.70919E-03-4.24155E-03-2.74640E-03 5.61135E-14-9.01649E-14
 -1        90 2.12774E+01-1.08165E-03-4.00728E-03-4.69947E-03-3.56231E-14-2.36166E-13
 -1        91 2.16691E+01 2.13696E-04-2.61551E-03-7.37757E-03-7.46060E-16 1.87051E-14
 -1        92 2.20853E+01 2.35848E-03 5.68956E-04-1.06066E-02-1.58775E-15 3.80683E-13
 -1        93 2.24882E+01 5.40044E-03 6.19942E-03-1.38093E-02 1.28302E-15 2.04638E-13
 -1        94 2.28148E+01 9.06214E-03 1.45866E-02-1.57563E-02 2.35733E-14-2.17816E-13
 -1        95 2.29751E+01 1.25026E-02 2.50155E-02-1.44002E-02-3.00107E-16-1.99558E-13
 -1        96 2.28617E+01 1.41759E-02 3.48213E-02-7.10761E-03 4.73459E-14 8.51038E-14
 -1        97 2.23772E+01 1.21495E-02 3.88605E-02 8.14194E-03-3.39138E-14 3.68684E-13
 -1        98 2.14863E+01 5.18303E-03 3.07643E-02 3.03495E-02 1.21810E-15 3.44275E-13
 -1        99 2.02773E+01-5.81688E-03 7.02468E-03 5.32003E-02-1.21067E-14 1.26694E-13
 -1       100 1.89960E+01-1.70826E-02-2.78536E-02 6.56384E-02-8.04893E-14 5.10474E-13
 -1       101 1.80002E+01-2.35378E-02-5.99898E-02 5.74675E-02 3.47062E-14 5.83950E-13
 -1       102 1.76213E+01-2.20564E-02-7.27207E-02 2.77958E-02-4.48151E-14 4.94932E-13
 -1       103 1.79955E+01-1.36568E-02-5.87447E-02-1.16845E-02 1.67063E-14 4.07022E-13
 -1       104 1.89873E+01-2.49649E-03-2.60410E-02-4.38686E-02 2.78339E-14 2.82191E-13
 -1       105 2.02656E+01 6.98474E-03 8.75770E-03-5.77741E-02-5.97183E-14 4.23116E-13
 -1       106 2.14716E+01 1.22826E-02 3.19328E-02-5.34980E-02-4.90476E-14 2.72022E-13
 -1       107 2.23589E+01 1.32857E-02 3.94501E-02-3.85817E-02-3.86813E-14-1.00928E-13
 -1       108 2.28388E+01 1.13133E-02 3.50555E-02-2.13917E-02 6.26972E-15-3.45945E-13
 -1       109 2.29463E+01 8.01150E-03 2.50362E-02-7.15581E-03 4.40584E-14-5.03220E-13
 -1       110 2.27782E+01 4.64448E-03 1.44957E-02 2.33860E-03 4.33098E-14-8.52785E-13
 -1       111 2.24420E+01 1.87994E-03 6.05337E-03 7.48160E-03-5.35718E-14-4.08894E-13
 -1       112 2.20279E+01-7.93097E-05 3.89484E-04 9.49676E-03-2.94247E-14-9.17448E-14
 -1       113 2.15998E+01-1.30690E-03-2.85476E-03 9.62556E-03 9.08720E-14-1.48698E-13
 -1       114 2.11970E+01-1.99150E-03-4.39196E-03 8.82106E-03-9.63066E-14 4.62486E-13
 -1       115 2.08405E+01-2.33622E-03-4.93968E-03 7.69908E-03-9.03184E-14 5.19307E-13
 -1       116 2.05399E+01-2.51866E-03-5.11915E-03 6.58692E-03 2.05632E-13 3.07504E-13
 -1       117 2.02990E+01-2.66393E-03-5.48348E-03 5.58264E-03 2.76988E-14-8.20509E-13
 -1       118 2.01212E+01-2.75688E-03-6.27518E-03 4.43424E-03-4.68213E-16-6.18116E-13
 -1       119 2.00136E+01-2.24834E-03-6.25690E-03 1.94380E-03-1.32637E-13-4.34022E-13
 -1       120 1.99851E+01 2.47953E-03 7.39833E-04-3.82823E-03 1.97615E-13-2.79972E-13
 -1       121 1.99999E+01-1.22464E-02 1.66682E-04-5.83025E-03-1.68017E-13 4.03776E-14
 -1       122 1.99968E+01 1.91037E-02-6.12917E-03 1.47840E-04 3.52110E-13-5.45009E-15
 -1       123 1.99975E+01 1.25693E-01-4.75324E-03 3.80770E-03 5.87641E-13 2.33050E-13
 -1       124 1.99989E+01 2.79412E-01-1.94651E-03 5.44863E-03 1.82122E-13-1.01213E-13
 -1       125 2.00005E+01 4.50888E-01 7.43558E-04 5.67740E-03-2.90198E-15-1.89348E-13
 -1       126 2.00020E+01 6.09977E-01 2.97273E-03 4.97765E-03-7.32452E-13 8.19941E-14
 -1       127 2.00031E+01 7.37677E-01 4.65985E-03 3.48993E-03-7.47368E-13 1.94181E-14
 -1       128 2.00038E+01 8.12202E-01 5.71090E-03 1.46337E-03-1.41297E-12 7.70200E-14
 -1       129 2.00040E+01 8.21724E-01 5.99203E-03-8.50426E-04-1.19070E-12 3.89029E-14
 -1       130 2.00036E+01 7.63230E-01 5.40079E-03-3.14718E-03-5.59603E-13 1.55946E-13
 -1       131 2.00025E+01 6.43646E-01 3.86804E-03-5.13136E-03-1.51661E-12-2.07938E-13
 -1       132 2.00010E+01 4.82798E-01 1.49956E-03-6.21700E-03-2.45122E-12 1.96745E-13
 -1       133 1.99992E+01 3.01171E-01-1.69929E-03-6.20752E-03-1.67305E-12-3.85906E-14
 -1       134 1.99970E+01 1.33430E-01-5.49485E-03-4.90761E-03-4.66743E-13 2.62603E-14
 -1       135 1.99972E+01 1.92936E-02-6.09819E-03-2.43681E-04 1.59889E-14-9.63663E-14
 -1       136 1.99972E+01-1.32109E-02 4.84092E-04 1.12347E-02 1.40572E-13 1.86096E-13
 -1       137-1.35144E+00-1.94785E+01-3.02650E+00-3.76327E+00 7.59670E-13 1.80377E-13
 -1       138-1.37471E+00-7.97824E+00-2.19639E+00-2.73031E+00 1.45250E-12 7.29028E-13
 -1       139 3.25648E+00 3.77967E+00-1.00005E+00 3.84388E+00 1.97076E-12 1.65457E-12
 -1       140 1.70415E+01 1.08485E+01 5.22642E-01 1.34497E+01 1.22041E-12 1.19882E-12
 -1       141 3.59958E+01 9.77954E+00 1.90494E+00 1.81620E+01 4.08285E-13 9.20153E-13
 -1       142 5.53170E+01 4.68536E+00 2.97970E+00 1.46514E+01 1.13028E-13 3.75810E-14
 -1       143 6.52439E+01 9.89235E-01 3.46741E+00 3.28292E+00-2.69090E-14-7.09807E-13
 -1       144 6.17190E+01 2.34419E+00 3.29816E+00-9.64978E+00 1.97217E-13-1.27159E-12
 -1       145 4.61587E+01 7.43688E+00 2.48042E+00-1.77954E+01 7.70384E-13-1.75382E-12
 -1       146 2.64687E+01 1.11701E+01 1.26660E+00-1.68661E+01 1.29280E-12-1.85479E-12
 -1       147 9.51593E+00 8.69804E+00-1.66476E-01-9.13583E+00 1.60161E-12-1.45206E-12
 -1       148 6.89880E-01-9.27993E-02-1.46653E+00-8.04659E-01 9.67226E-13-7.17759E-13
 -1       149-1.66811E+00-1.22997E+01-2.52711E+00 3.74082E+00 2.94487E-13-9.29395E-14
 -1       150-1.07023E+00-2.22483E+01-3.20422E+00 2.50427E+00 1.92985E-13 7.46287E-14
 -1       151-1.03202E+00-2.38372E+01-3.32550E+00-1.65463E+00-1.39541E-13-5.50844E-14
 -1       152-1.74758E+00-1.66689E+01-2.92069E+00-4.16921E+00-6.30884E-13-1.61746E-13
 -1       153-9.49506E-01-4.71948E+00-2.02471E+00-1.68509E+00-1.30240E-12-8.99419E-13
 -1       154 6.65973E+00 6.07088E+00-6.98447E-01 6.51656E+00-2.04242E-12-1.80367E-12
 -1       155 2.19781E+01 1.06405E+01 8.02862E-01 1.51253E+01-1.68549E-12-2.20479E-12
 -1       156 4.32961E+01 8.31584E+00 2.33441E+00 1.80088E+01-1.12246E-12-2.32453E-12
 -1       157 6.14878E+01 3.29258E+00 3.44348E+00 1.21349E+01-3.67161E-13-1.13509E-12
 -1       158 6.81996E+01 8.68728E-01 3.84231E+00-9.26026E-01 2.85813E-14 3.94327E-13
 -1       159 4.01712E+01 9.15224E+00 2.15764E+00-1.85842E+01-7.91422E-13 1.62231E-12
 -1       160 1.87217E+01 1.07664E+01 5.66992E-01-1.41008E+01-8.58369E-13 1.45656E-12
 -1       161 4.35082E+00 4.66396E+00-9.73836E-01-4.79972E+00-4.22440E-13 3.28404E-13
 -1       162-1.68169E+00-7.99576E+00-2.30414E+00 3.06798E+00-9.17100E-13 4.82975E-13
 -1       163-1.51736E+00-1.98898E+01-3.13532E+00 4.11298E+00-1.16282E-12 5.15143E-14
 -1       164 2.10003E+01 3.69269E+00-5.73324E-02-3.61096E+00-2.68348E-13-2.06120E-14
 -1       165 1.99847E+01 4.20677E+00-4.56984E-02-2.81049E+00-2.26229E-13-2.66204E-13
 -1       166 1.95085E+01 4.47687E+00-3.15623E-02-2.19537E+00-1.57213E-13-3.94284E-13
 -1       167 1.92717E+01 4.61593E+00-2.37112E-02-1.67640E+00-1.00803E-13-4.53033E-13
 -1       168 1.91453E+01 4.69856E+00-1.94607E-02-1.21967E+00-5.65162E-14-4.65885E-13
 -1       169 1.90739E+01 4.75049E+00-1.73897E-02-7.92337E-01-9.97710E-15-4.71595E-13
 -1       170 1.90382E+01 4.77892E+00-1.63973E-02-3.86969E-01 3.56297E-14-4.60480E-13
 -1       171 1.90277E+01 4.78764E+00-1.61100E-02 8.32882E-03 7.84507E-14-4.40619E-13
 -1       172 1.90398E+01 4.77764E+00-1.64436E-02 4.03958E-01 1.18505E-13-4.16634E-13
 -1       173 1.90774E+01 4.74756E+00-1.74970E-02 8.10387E-01 1.58129E-13-3.97083E-13
 -1       174 1.91495E+01 4.69432E+00-1.96642E-02 1.23211E+00 1.92504E-13-3.48337E-13
 -1       175 1.92813E+01 4.60617E+00-2.39816E-02 1.69908E+00 2.44319E-13-2.61761E-13
 -1       176 1.95234E+01 4.45937E+00-3.28230E-02 2.22765E+00 2.81439E-13-1.38738E-13
 -1       177 2.00070E+01 4.18285E+00-4.71835E-02 2.84787E+00 2.94636E-13 8.31626E-14
 -1       178 2.11219E+01 3.46246E+00-5.97713E-02 3.53737E+00 2.57863E-13 4.65558E-13
 -1       179 2.24009E+01 1.14337E+00-3.36323E-01 3.01525E+00 1.69628E-13 9.36293E-13
 -1       180 2.19538E+01 8.58130E-01 6.53972E-04-1.95983E+00-2.44315E-13 2.93914E-13
 -1       181 2.04293E+01 1.90210E-01-9.98002E-03-7.65279E-01-1.90870E-13 1.84377E-13
 -1       182 1.96536E+01 1.01870E-01 1.35770E-02-2.86511E-01-1.43153E-13 9.54176E-14
 -1       183 1.93144E+01 4.74244E-02 1.00411E-02-6.81516E-02-8.34651E-14 1.95317E-14
 -1       184 1.91863E+01 2.30476E-02 5.20759E-03 4.02136E-02-4.39108E-14-2.83430E-14
 -1       185 1.91765E+01 1.03722E-02 2.50544E-03 9.47665E-02-4.08888E-14-5.83365E-14
 -1       186 1.92317E+01 3.46610E-03 1.23951E-03 1.20234E-01-6.21206E-14-5.25744E-14
 -1       187 1.93219E+01-9.33016E-05 6.51778E-04 1.29813E-01-6.31072E-14-6.29267E-14
 -1       188 1.94302E+01-1.48422E-03 3.76398E-04 1.31475E-01-1.15947E-13-9.56920E-14
 -1       189 1.95481E+01-1.34385E-03 2.66934E-04 1.30527E-01-9.01292E-14-8.87105E-14
 -1       190 1.96726E+01-3.10645E-05 2.63818E-04 1.30803E-01-6.45509E-14-2.69295E-13
 -1       191 1.98047E+01 2.26069E-03 3.39142E-04 1.35308E-01-3.61829E-15-3.40229E-13
 -1       192 1.99484E+01 5.44818E-03 4.77243E-04 1.46606E-01 3.78496E-14-2.96423E-13
 -1       193 2.01107E+01 9.52331E-03 6.67120E-04 1.67076E-01 6.57254E-14-2.99800E-13
 -1       194 2.03006E+01 1.45185E-02 8.97320E-04 1.99055E-01 3.83238E-15-2.23915E-13
 -1       195 2.05294E+01 2.04548E-02 1.14983E-03 2.44874E-01 9.11283E-15-1.33080E-13
 -1       196 2.08101E+01 2.72464E-02 1.39113E-03 3.06688E-01 1.61003E-14-1.42847E-13
 -1       197 2.11567E+01 3.45188E-02 1.55934E-03 3.85959E-01-9.57322E-14-2.29862E-13
 -1       198 2.15830E+01 4.12709E-02 1.54913E-03 4.82307E-01-1.69297E-13-3.26148E-13
 -1       199 2.20998E+01 4.52882E-02 1.20269E-03 5.91261E-01-7.78187E-14-2.92963E-13
 -1       200 2.27098E+01 4.22425E-02 3.29579E-04 7.00307E-01 1.64114E-13-2.32584E-13
 -1       201 2.33997E+01 2.46388E-02-1.20176E-03 7.82792E-01-3.24469E-15-3.33003E-13
 -1       202 2.41282E+01-1.84721E-02-3.26045E-03 7.90516E-01-2.92594E-14-1.90589E-13
 -1       203 2.48123E+01-9.84112E-02-5.20180E-03 6.49845E-01 3.25614E-14 2.99023E-14
 -1       204 2.53168E+01-2.15326E-01-5.77754E-03 2.74536E-01 5.71622E-14 9.26008E-14
 -1       205 2.54616E+01-3.33980E-01-4.02673E-03-3.81169E-01 4.05240E-14-5.08360E-14
 -1       206 2.50735E+01-3.58648E-01-5.60744E-04-1.21289E+00 4.86711E-14-1.09543E-13
 -1       207 2.41160E+01-1.71450E-01-1.43877E-03-1.86041E+00 2.08355E-14-6.84869E-15
 -1       208 2.28615E+01 2.37422E-01-6.97692E-03-1.80370E+00-6.19270E-14-2.94226E-14
 -1       209 2.19225E+01 6.16131E-01-1.56565E-02-7.88849E-01-1.19633E-13-2.17630E-13
 -1       210 2.18930E+01 6.27335E-01-1.57629E-02 7.07513E-01-1.59173E-13-1.34909E-13
 -1       211 2.27887E+01 2.63215E-01-7.52629E-03 1.76749E+00-1.63996E-13-1.25623E-13
 -1       212 2.40414E+01-1.53252E-01-1.06787E-03 1.87801E+00 1.32301E-13-7.83523E-14
 -1       213 2.50225E+01-3.55647E-01-7.65333E-04 1.25417E+00 1.01604E-13-4.75306E-14
 -1       214 2.54390E+01-3.38992E-01-3.79812E-03 4.20120E-01-9.43022E-14 6.56400E-14
 -1       215 2.53152E+01-2.22790E-01-5.81977E-03-2.50667E-01-5.39950E-14 2.26490E-14
 -1       216 2.48203E+01-1.04458E-01-5.33305E-03-6.42043E-01-1.15916E-13-3.58652E-13
 -1       217 2.41360E+01-2.22760E-02-3.41069E-03-7.94494E-01 1.81872E-13 7.62992E-14
 -1       218 2.34006E+01 2.26721E-02-1.30331E-03-7.93730E-01-3.14785E-14-7.42774E-14
 -1       219 2.27002E+01 4.15363E-02 2.88911E-04-7.14457E-01-3.33272E-13-3.80268E-13
 -1       220 2.20786E+01 4.54855E-02 1.22867E-03-6.05897E-01-1.10406E-13-5.71116E-13
 -1       221 2.15513E+01 4.23004E-02 1.64819E-03-4.95159E-01 1.84852E-13-4.10363E-13
 -1       222 2.11180E+01 3.66046E-02 1.74129E-03-3.94537E-01 1.80519E-13-3.41368E-15
 -1       223 2.07708E+01 3.09410E-02 1.66140E-03-3.07555E-01 3.13107E-13 1.38171E-13
 -1       224 2.04996E+01 2.66940E-02 1.48893E-03-2.32862E-01 1.89998E-13 1.76561E-13
 -1       225 2.02951E+01 2.46212E-02 1.22472E-03-1.66498E-01-1.23109E-13-2.79003E-14
 -1       226 2.01499E+01 2.49580E-02 9.89115E-04-1.03684E-01-8.09823E-15 1.26573E-13
 -1       227 2.00543E+01 2.59197E-02 7.04847E-04-4.21415E-02 1.09988E-13 1.22665E-13
 -1       228 2.09447E+01 2.77034E-01-5.13229E-02 1.16575E+00 1.94053E-13 8.23002E-13
 -1       229 1.98496E+01 1.26882E-01 8.31927E-03 4.44016E-01 1.34500E-13 6.71407E-13
 -1       230 1.93431E+01 5.81829E-02 1.27549E-02 1.50655E-01 1.14837E-13 5.31064E-13
 -1       231 1.91342E+01 2.79677E-02 7.66026E-03 1.07004E-02 1.01061E-13 4.40983E-13
 -1       232 1.90866E+01 1.35146E-02 3.86869E-03-5.96476E-02 5.93128E-14 4.13805E-13
 -1       233 1.91270E+01 5.85380E-03 1.96849E-03-9.40773E-02-3.17189E-14 4.10727E-13
 -1       234 1.92142E+01 1.70241E-03 1.08853E-03-1.08930E-01 5.72405E-14 3.38654E-13
 -1       235 1.93252E+01-3.62600E-04 6.54992E-04-1.13285E-01 8.51798E-14 3.00647E-13
 -1       236 1.94474E+01-1.05821E-03 4.22831E-04-1.12792E-01 7.45470E-14 2.40549E-13
 -1       237 1.95751E+01-7.95044E-04 2.97163E-04-1.11244E-01 5.14872E-14 2.75853E-13
 -1       238 1.97070E+01 1.68840E-04 2.36088E-04-1.11327E-01 1.03469E-13 1.66892E-13
 -1       239 1.98450E+01 1.65384E-03 2.14926E-04-1.14992E-01 5.62696E-14 8.42693E-14
 -1       240 1.99933E+01 3.51213E-03 2.14551E-04-1.23642E-01 5.42256E-15 7.47559E-14
 -1       241 2.01575E+01 5.58757E-03 2.17067E-04-1.38168E-01-6.74591E-16 1.16584E-13
 -1       242 2.03440E+01 7.67153E-03 2.03733E-04-1.58862E-01 7.76462E-15 1.85497E-13
 -1       243 2.05589E+01 9.44853E-03 1.54408E-04-1.85171E-01 1.08891E-13 6.29148E-14
 -1       244 2.08066E+01 1.04293E-02 4.93221E-05-2.15287E-01 1.36081E-13-7.58221E-15
 -1       245 2.10882E+01 9.87732E-03-1.25059E-04-2.45523E-01 6.90341E-14-5.31524E-14
 -1       246 2.13988E+01 6.75489E-03-3.64011E-04-2.69540E-01-1.26808E-13-7.68964E-14
 -1       247 2.17244E+01-2.48085E-04-6.26182E-04-2.77566E-01-1.53663E-13-5.21581E-14
 -1       248 2.20385E+01-1.24700E-02-8.13705E-04-2.56071E-01 1.07653E-13 3.95616E-14
 -1       249 2.22991E+01-3.06177E-02-7.70378E-04-1.88809E-01 1.73679E-13 1.22196E-14
 -1       250 2.24493E+01-5.35121E-02-3.38697E-04-6.06743E-02-3.69513E-14-7.87659E-14
 -1       251 2.24234E+01-7.62721E-02 5.30069E-04 1.34117E-01-1.43508E-13 4.68716E-14
 -1       252 2.21638E+01-8.87905E-02 1.58882E-03 3.79239E-01-1.42168E-13 2.38836E-13
 -1       253 2.16501E+01-7.71785E-02 2.13430E-03 6.23258E-01 4.72534E-14 3.02652E-13
 -1       254 2.09333E+01-3.13066E-02 1.34861E-03 7.79703E-01 4.50028E-14 3.59788E-13
 -1       255 2.01563E+01 4.38880E-02-8.70619E-04 7.55003E-01-2.21154E-13 3.15104E-13
 -1       256 1.95318E+01 1.21397E-01-3.32326E-03 5.03495E-01 2.33494E-14 2.89819E-13
 -1       257 1.92647E+01 1.62508E-01-4.06631E-03 7.81993E-02-2.48729E-14 2.60944E-13
 -1       258 1.94513E+01 1.43771E-01-2.32789E-03-3.74992E-01-2.15938E-14 3.10233E-13
 -1       259 2.00238E+01 7.65120E-02 6.57238E-04-6.94272E-01 1.43504E-13 4.20344E-13
 -1       260 2.07893E+01-3.15716E-03 2.88900E-03-7.92055E-01-2.99229E-14 1.43580E-13
 -1       261 2.15280E+01-6.17734E-02 3.20990E-03-6.85549E-01 5.23986E-14-2.08280E-14
 -1       262 2.20808E+01-8.61581E-02 2.01312E-03-4.59557E-01 1.68668E-13-1.09645E-13
 -1       263 2.23812E+01-8.20832E-02 3.73704E-04-2.07185E-01 1.65616E-13-2.28440E-13
 -1       264 2.24397E+01-6.27377E-02-8.63359E-04 8.04058E-03 9.34099E-14-4.71330E-13
 -1       265 2.23097E+01-3.96710E-02-1.38762E-03 1.59223E-01-8.48169E-14-2.59551E-13
 -1       266 2.20573E+01-1.96400E-02-1.34138E-03 2.46075E-01-3.38656E-13 1.92669E-13
 -1       267 2.17419E+01-5.07181E-03-9.87463E-04 2.81444E-01-2.70636E-14 4.25928E-13
 -1       268 2.14090E+01 4.15506E-03-5.45393E-04 2.81379E-01-5.70511E-14 2.92038E-13
 -1       269 2.10890E+01 9.24183E-03-1.44522E-04 2.59926E-01-3.54712E-13 7.33666E-13
 -1       270 2.08002E+01 1.16295E-02 1.61482E-04 2.27249E-01 1.86041E-13 5.55841E-13
 -1       271 2.05521E+01 1.25984E-02 3.41936E-04 1.89493E-01 2.99083E-13 4.80545E-14
 -1       272 2.03493E+01 1.32129E-02 3.46745E-04 1.49461E-01 2.30775E-13 2.99921E-13
 -1       273 2.01937E+01 1.43723E-02 1.40861E-04 1.07242E-01-5.49268E-14 2.30740E-13
 -1       274 2.00864E+01 1.66688E-02 2.03132E-04 6.14941E-02-6.36481E-14 1.81242E-14
 -1       275 2.00242E+01 1.46370E-02 9.63413E-04 1.55468E-02 1.10304E-13 2.79549E-14
 -1       276 2.00225E+01 5.07536E-02 5.68874E-04 4.14954E-02 1.55221E-13 2.66343E-13
 -1       277 2.00183E+01 1.28104E-01 2.24255E-04 8.87164E-02 2.91679E-13 1.17760E-13
 -1       278 2.00095E+01 2.34192E-01 1.10064E-04 1.21979E-01 7.82785E-14-3.47132E-13
 -1       279 2.00007E+01 3.56203E-01-2.89537E-05 1.34344E-01-1.99165E-13-1.13097E-13
 -1       280 1.99927E+01 4.75970E-01-2.85601E-04 1.26276E-01-4.48953E-13-4.79874E-13
 -1       281 1.99859E+01 5.81129E-01-5.25564E-04 9.95835E-02-3.91885E-13-1.68698E-13
 -1       282 1.99810E+01 6.54643E-01-7.08321E-04 5.82227E-02-4.11529E-13-4.94391E-13
 -1       283 1.99787E+01 6.85867E-01-7.87520E-04 7.74506E-03-4.23830E-13 1.59578E-13
 -1       284 1.99792E+01 6.69585E-01-7.48961E-04-4.50351E-02-2.38762E-13 3.31169E-13
 -1       285 1.99829E+01 6.07088E-01-5.94435E-04-9.25112E-02-3.89982E-13-5.66094E-13
 -1       286 1.99895E+01 5.08502E-01-3.48404E-04-1.26547E-01-2.96328E-13-3.24654E-13
 -1       287 1.99987E+01 3.84379E-01-1.03333E-04-1.41561E-01-1.12890E-13 3.85821E-13
 -1       288 2.00094E+01 2.54784E-01 5.59589E-05-1.32010E-01-1.58306E-13 5.31230E-13
 -1       289 2.00206E+01 1.40990E-01 5.65185E-04-9.68497E-02-2.23846E-13 3.13905E-13
 -1       290 2.00412E+01 7.90261E-02 6.20207E-04-7.78179E-02-1.00322E-13 2.69013E-13
 -1       291-8.14753E-01-1.08367E+01-9.86565E-01 1.30636E+00 8.88178E-15 3.73646E-13
 -1       292 2.90573E+00-8.14079E+00-7.28799E-01 3.77031E+00 1.79606E-13 6.77361E-13
 -1       293 9.69753E+00-4.80547E+00-4.36836E-01 5.89006E+00 5.32074E-13 6.22613E-13
 -1       294 1.98685E+01-1.54443E+00-6.56201E-02 7.08022E+00 5.37265E-13-6.27831E-14
 -1       295 2.94928E+01 2.90568E+00 3.49426E-01 7.70065E+00 5.60163E-13 4.26825E-13
 -1       296 3.79746E+01 4.93517E+00 5.54769E-01 4.88127E+00 6.04648E-13-1.04916E-14
 -1       297 4.51774E+01 6.40936E+00 9.56444E-01 2.99912E+00 3.60059E-13-1.23568E-13
 -1       298 4.49607E+01 6.98745E+00 8.56353E-01-8.26995E-01 2.96346E-13-4.52041E-13
 -1       299 4.26886E+01 5.95522E+00 8.89886E-01-4.93182E+00 3.88328E-13-6.22807E-13
 -1       300 3.46443E+01 4.26479E+00 5.68601E-01-7.23627E+00 6.13086E-13-6.62248E-13
 -1       301 2.49356E+01 7.64498E-01 1.30226E-01-7.27808E+00 4.02733E-13-7.21478E-13
 -1       302 1.45003E+01-2.17261E+00-2.51077E-01-6.76989E+00 2.49106E-13-6.90614E-13
 -1       303 6.56644E+00-6.11314E+00-6.17888E-01-4.86048E+00 1.05582E-13-5.44675E-13
 -1       304 1.22786E+00-9.07354E+00-7.98012E-01-2.96151E+00-1.18766E-13-6.10345E-14
 -1       305-9.89241E-01-9.27312E+00-6.98797E-01-7.15099E-01-1.45550E-13-5.35683E-14
 -1       306 4.24218E-01-8.56788E+00-6.28360E-01 2.34380E+00-1.35322E-13-3.07920E-13
 -1       307 4.47440E+00-7.62001E+00-7.44015E-01 3.85268E+00-3.20188E-13-7.41866E-13
 -1       308 1.31127E+01-4.31050E+00-3.46348E-01 6.24345E+00-4.19914E-13-1.06470E-12
 -1       309 2.39343E+01-1.75435E+00-1.42326E-02 6.41397E+00-6.33771E-13-8.77770E-13
 -1       310 3.32570E+01 2.85405E+00 4.19842E-01 6.59358E+00-7.67733E-13-9.02556E-13
 -1       311 4.04829E+01 5.22698E+00 5.66412E-01 3.07518E+00-8.05980E-13-5.19973E-13
 -1       312 4.75203E+01 6.61427E+00 1.10558E+00 1.62951E+00-7.17065E-13-2.56531E-13
 -1       313 4.65244E+01 6.68730E+00 1.03620E+00-1.92778E+00-5.11119E-13 1.25774E-13
 -1       314 4.16546E+01 5.22464E+00 8.66883E-01-5.55114E+00-2.55643E-13 4.45921E-13
 -1       315 3.17249E+01 2.83084E+00 4.19270E-01-7.36305E+00-2.72976E-13 4.97269E-13
 -1       316 2.04447E+01-6.26382E-01-7.78271E-02-7.16228E+00-5.37625E-14 7.86454E-13
 -1       317 1.11672E+01-5.20344E+00-4.27717E-01-5.89738E+00-2.22933E-13-8.27671E-14
 -1       318 2.74188E+00-8.68262E+00-8.43483E-01-3.14328E+00-4.00208E-13-5.48173E-16
 -1       319-8.83000E-01-1.05134E+01-9.47127E-01-9.45341E-01-2.86035E-13 4.19803E-13
 -1       320 2.01425E+01 3.01528E+00-1.78980E-02-2.11055E+00-2.29770E-13-2.13523E-13
 -1       321 2.07462E+01 2.20803E+00-1.78387E-02-2.36423E+00-2.77200E-13-9.02854E-14
 -1       322 1.95910E+01 3.69360E+00-1.51048E-02-1.31650E+00-9.86098E-14-3.42731E-13
 -1       323 1.94700E+01 3.85185E+00-1.35735E-02-9.23102E-01-4.63507E-14-3.61639E-13
 -1       324 1.94028E+01 3.94342E+00-1.26844E-02-5.43494E-01 1.24694E-14-3.56853E-13
 -1       325 1.93731E+01 3.98520E+00-1.22877E-02-1.73058E-01 7.33807E-14-3.45921E-13
 -1       326 1.93744E+01 3.98360E+00-1.23103E-02 1.94332E-01 1.20740E-13-3.20754E-13
 -1       327 1.94068E+01 3.93823E+00-1.27575E-02 5.65098E-01 1.66322E-13-2.99139E-13
 -1       328 1.94757E+01 3.84412E+00-1.37657E-02 9.38976E-01 2.14859E-13-2.83831E-13
 -1       329 1.95997E+01 3.68078E+00-1.56520E-02 1.33313E+00 2.75998E-13-2.15597E-13
 -1       330 1.98110E+01 3.41099E+00-1.88264E-02 1.73873E+00 3.20087E-13-1.25876E-13
 -1       331 2.01760E+01 2.95537E+00-2.29264E-02 2.12766E+00 3.34420E-13 4.91274E-15
 -1       332 2.07391E+01 2.12924E+00-3.04502E-02 2.32296E+00 3.09894E-13 2.47715E-13
 -1       333 2.10812E+01 1.18762E+00-2.49091E-02 1.92288E+00 2.59497E-13 4.73682E-13
 -1       334 2.03778E+01 4.89475E-01 8.34671E-03 9.28192E-01 2.04010E-13 3.77638E-13
 -1       335 2.04476E+01 6.75652E-01 1.23648E-02-1.02611E+00-1.98499E-13-6.13240E-14
 -1       336 2.00272E+01 3.37963E-01 7.20840E-03-4.57214E-01-1.41296E-13-6.26022E-14
 -1       337 1.97750E+01 1.78289E-01 4.14779E-03-1.46720E-01-7.45814E-14-6.72901E-14
 -1       338 1.96430E+01 9.36693E-02 1.91697E-03 2.76463E-02-5.72002E-14-6.69438E-14
 -1       339 1.95934E+01 4.63527E-02 8.48345E-04 1.23785E-01-5.62599E-14-6.97853E-14
 -1       340 1.95971E+01 1.98720E-02 3.64997E-04 1.74372E-01-5.69627E-14-8.11532E-14
 -1       341 1.96346E+01 6.24270E-03 1.48862E-04 1.99189E-01-7.95383E-14-9.84021E-14
 -1       342 1.96936E+01 1.23356E-03 6.82064E-05 2.11059E-01-1.12481E-13-1.05096E-13
 -1       343 1.97673E+01 2.45620E-03 7.11322E-05 2.18895E-01-1.75184E-13-1.02244E-13
 -1       344 1.98527E+01 8.53353E-03 1.35437E-04 2.29315E-01-9.06292E-14-1.13964E-13
 -1       345 1.99499E+01 1.87069E-02 2.50246E-04 2.47573E-01 1.70599E-14-1.15056E-13
 -1       346 2.00609E+01 3.26179E-02 4.09871E-04 2.78142E-01 7.70399E-14-9.01927E-14
 -1       347 2.01900E+01 5.01436E-02 6.10675E-04 3.25076E-01 1.64311E-14-1.01064E-13
 -1       348 2.03425E+01 7.12090E-02 8.47722E-04 3.92155E-01 4.50903E-14-1.45065E-13
 -1       349 2.05250E+01 9.54985E-02 1.10956E-03 4.82790E-01-2.16850E-14-1.54194E-13
 -1       350 2.07446E+01 1.21948E-01 1.36951E-03 5.99528E-01-1.18501E-14-1.84850E-13
 -1       351 2.10089E+01 1.47848E-01 1.57178E-03 7.42904E-01-1.35958E-13-6.34153E-14
 -1       352 2.13249E+01 1.67307E-01 1.61209E-03 9.09219E-01-1.15930E-13-8.19128E-14
 -1       353 2.16989E+01 1.68868E-01 1.31745E-03 1.08666E+00 6.04975E-14-6.15023E-15
 -1       354 2.21364E+01 1.32429E-01 4.42256E-04 1.24917E+00 1.18620E-13-7.38209E-14
 -1       355 2.26422E+01 2.69979E-02-1.26910E-03 1.34795E+00 1.24443E-13 1.45726E-14
 -1       356 2.32198E+01-1.85617E-01-3.89388E-03 1.30290E+00 1.69799E-13 1.13609E-13
 -1       357 2.38657E+01-5.29793E-01-7.08587E-03 1.00197E+00 8.56305E-14 1.40232E-13
 -1       358 2.45475E+01-9.60961E-01-9.63120E-03 3.28080E-01 5.38575E-14 5.88417E-14
 -1       359 2.51540E+01-1.27535E+00-1.09638E-02-7.50585E-01 6.69408E-14 1.22867E-13
 -1       360 2.54531E+01-1.06866E+00-1.06203E-02-1.98733E+00 3.12970E-14 1.20411E-14
 -1       361 2.52082E+01-2.57668E-02-2.42075E-02-2.70774E+00-1.06784E-13-2.03597E-14
 -1       362 2.45666E+01 1.52586E+00-3.29886E-02-2.07085E+00-1.80123E-13-2.22919E-13
 -1       363 2.41740E+01 2.34992E+00-4.32252E-02-6.40842E-02-9.92227E-14-2.55066E-13
 -1       364 2.45226E+01 1.60837E+00-3.47625E-02 1.98010E+00 5.96745E-15-1.69595E-13
 -1       365 2.51764E+01 5.94093E-02-2.22704E-02 2.70784E+00 6.23650E-14 1.28038E-13
 -1       366 2.54454E+01-1.03650E+00-1.27840E-02 2.04330E+00 7.85587E-14 8.55769E-14
 -1       367 2.51704E+01-1.28102E+00-1.02830E-02 8.11467E-01 5.68859E-14 2.02157E-13
 -1       368 2.45717E+01-9.85303E-01-9.85759E-03-2.86283E-01 5.38094E-14 1.95989E-13
 -1       369 2.38870E+01-5.53868E-01-7.40993E-03-9.84823E-01-1.77379E-13 4.27321E-13
 -1       370 2.32340E+01-2.02704E-01-4.20930E-03-1.30499E+00 1.53491E-13 5.65570E-13
 -1       371 2.26486E+01 1.70704E-02-1.44399E-03-1.36224E+00 3.25667E-14 1.21733E-13
 -1       372 2.21352E+01 1.27967E-01 3.57234E-04-1.26978E+00-2.96112E-13 1.25454E-13
 -1       373 2.16907E+01 1.68427E-01 1.29756E-03-1.10907E+00-2.92419E-13 5.01029E-13
 -1       374 2.13110E+01 1.70277E-01 1.64893E-03-9.29664E-01 1.31325E-13 7.89749E-13
 -1       375 2.09917E+01 1.54594E-01 1.67038E-03-7.57616E-01 2.48858E-13 6.72136E-13
 -1       376 2.07276E+01 1.33838E-01 1.54087E-03-6.03839E-01 3.35354E-13 6.61782E-13
 -1       377 2.05130E+01 1.15000E-01 1.36457E-03-4.70276E-01 1.42816E-13 3.87152E-13
 -1       378 2.03418E+01 1.01677E-01 1.20738E-03-3.53949E-01-8.63656E-14 4.11683E-13
 -1       379 2.02088E+01 9.53724E-02 1.26537E-03-2.49866E-01-6.25683E-14 5.28550E-13
 -1       380 2.01161E+01 8.79865E-02 8.67056E-04-1.60057E-01 1.61634E-14 5.13229E-13
 -1       381 1.98768E+01 2.28995E-01 1.08127E-02 3.98922E-01 1.84657E-13 2.90866E-13
 -1       382 1.95897E+01 1.16341E-01 6.20042E-03 1.18939E-01 1.15065E-13 2.34501E-13
 -1       383 1.94580E+01 5.93432E-02 2.84679E-03-3.21050E-02 6.42284E-14 2.24202E-13
 -1       384 1.94233E+01 2.84682E-02 1.23842E-03-1.12515E-01 1.26596E-14 1.78152E-13
 -1       385 1.94473E+01 1.13884E-02 5.43555E-04-1.53085E-01 6.51370E-14 9.75141E-14
 -1       386 1.95062E+01 2.50102E-03 2.35250E-04-1.71338E-01 1.22809E-13 8.99535E-14
 -1       387 1.95854E+01-1.06538E-03 1.02293E-04-1.78204E-01 1.16228E-13 7.26930E-14
 -1       388 1.96773E+01-9.56549E-04 6.64426E-05-1.80967E-01 2.68908E-14 8.83089E-14
 -1       389 1.97783E+01 1.79510E-03 9.38065E-05-1.84724E-01 1.13444E-13 7.72991E-14
 -1       390 1.98882E+01 6.47218E-03 1.64050E-04-1.93133E-01 5.80578E-14 1.48403E-13
 -1       391 2.00089E+01 1.24911E-02 2.60647E-04-2.08778E-01 3.75510E-14 1.53749E-13
 -1       392 2.01439E+01 1.92555E-02 3.66629E-04-2.33293E-01-9.76240E-15 1.90461E-13
 -1       393 2.02973E+01 2.60060E-02 4.61274E-04-2.67251E-01 2.40200E-14 1.63380E-13
 -1       394 2.04735E+01 3.16432E-02 5.17010E-04-3.09833E-01 1.05987E-13 6.14960E-14
 -1       395 2.06757E+01 3.45217E-02 4.96971E-04-3.58223E-01 1.70480E-13-2.66823E-14
 -1       396 2.09054E+01 3.22372E-02 3.54790E-04-4.06738E-01 1.11466E-13 1.54037E-14
 -1       397 2.11602E+01 2.14913E-02 3.95387E-05-4.45736E-01-8.08325E-14 1.66256E-14
 -1       398 2.14324E+01-1.76585E-03-4.89948E-04-4.60559E-01-1.13587E-13-1.18343E-13
 -1       399 2.17067E+01-4.15326E-02-1.23752E-03-4.31116E-01-5.31824E-14-8.62410E-14
 -1       400 2.19580E+01-9.97073E-02-2.12476E-03-3.33361E-01 1.90934E-13 9.58768E-14
 -1       401 2.21506E+01-1.72280E-01-2.95838E-03-1.44620E-01-3.17001E-14 9.03383E-14
 -1       402 2.22394E+01-2.44120E-01-3.44117E-03 1.45079E-01-3.18118E-13 1.60542E-13
 -1       403 2.21766E+01-2.84438E-01-3.09537E-03 5.15125E-01-1.27301E-13 3.20966E-13
 -1       404 2.19273E+01-2.50303E-01-1.69146E-03 8.94324E-01 3.74529E-14 1.88600E-13
 -1       405 2.14983E+01-1.08961E-01 3.06995E-04 1.15618E+00 1.14035E-13 3.41358E-13
 -1       406 2.09681E+01 1.27433E-01 2.21785E-03 1.15538E+00-1.85519E-13 2.87349E-13
 -1       407 2.04916E+01 3.77743E-01 3.59760E-03 8.07774E-01 2.55906E-14 3.12777E-13
 -1       408 2.02492E+01 5.18971E-01 4.62903E-03 1.76958E-01 6.21465E-14 4.15974E-13
 -1       409 2.03457E+01 4.69942E-01 5.07960E-03-5.19882E-01 2.14386E-14 1.28777E-13
 -1       410 2.07387E+01 2.59419E-01 4.26020E-03-1.02581E+00 1.93089E-13 4.03236E-15
 -1       411 2.12684E+01 1.15695E-03 2.26536E-03-1.19362E+00 5.29039E-14 4.97341E-14
 -1       412 2.17564E+01-1.94304E-01-3.53818E-04-1.04208E+00 1.90703E-13 6.41631E-14
 -1       413 2.20865E+01-2.80071E-01-2.57267E-03-6.99846E-01 2.18962E-13 7.48410E-14
 -1       414 2.22242E+01-2.71771E-01-3.72334E-03-3.11062E-01 2.69392E-13 1.14176E-13
 -1       415 2.21905E+01-2.11072E-01-3.74600E-03 2.49261E-02 6.88594E-14 1.38977E-13
 -1       416 2.20310E+01-1.35813E-01-2.96631E-03 2.64496E-01-1.17083E-13 2.54647E-13
 -1       417 2.17940E+01-6.89612E-02-1.92281E-03 4.05040E-01-4.95770E-13 5.33090E-14
 -1       418 2.15204E+01-1.93567E-02-9.48809E-04 4.64726E-01-1.00683E-13-2.25839E-16
 -1       419 2.12403E+01 1.27500E-02-1.93164E-04 4.67456E-01-8.65680E-14 3.25050E-13
 -1       420 2.09740E+01 3.09455E-02 3.20601E-04 4.34800E-01-5.02407E-13 4.21896E-13
 -1       421 2.07338E+01 3.97989E-02 6.34465E-04 3.82863E-01 2.62851E-13 5.00384E-13
 -1       422 2.05259E+01 4.35222E-02 8.09421E-04 3.21832E-01 2.99196E-13 4.87591E-13
 -1       423 2.03532E+01 4.53343E-02 8.45326E-04 2.56957E-01 3.90055E-14 5.39535E-13
 -1       424 2.02156E+01 4.78426E-02 7.78144E-04 1.89836E-01 1.35307E-13 4.45183E-13
 -1       425 2.01117E+01 5.09270E-02 6.74001E-04 1.20596E-01 7.46056E-14 4.44074E-13
 -1       426 2.00616E+01 5.43533E-02 4.91763E-04 8.08323E-02-1.03921E-13 3.53589E-13
 -1       427 2.00178E+01 2.94477E-01 1.69047E-04 2.30153E-01-1.54358E-13-3.58914E-13
 -1       428 2.00501E+01 1.91285E-01 5.73994E-04 1.97545E-01-6.72317E-14-1.70268E-13
 -1       429 2.00625E+01 1.17092E-01 7.15390E-04 1.42757E-01-1.78359E-14 3.04446E-13
 -1       430 1.99862E+01 3.97202E-01-1.23518E-04 2.30627E-01-3.91367E-13-7.52020E-13
 -1       431 1.99569E+01 4.92679E-01-3.98910E-04 1.98908E-01-4.14393E-13-1.09099E-13
 -1       432 1.99337E+01 5.67810E-01-6.24660E-04 1.39346E-01-1.45091E-13-1.72693E-13
 -1       433 1.99192E+01 6.13176E-01-7.61226E-04 5.95149E-02-1.68105E-13-2.46498E-13
 -1       434 1.99154E+01 6.22374E-01-7.89658E-04-3.03504E-02-2.04330E-13 3.52873E-13
 -1       435 1.99237E+01 5.93218E-01-6.95882E-04-1.18101E-01-2.13868E-13 3.16650E-14
 -1       436 1.99436E+01 5.29843E-01-4.86347E-04-1.89777E-01-4.28989E-14-2.80433E-13
 -1       437 1.99744E+01 4.37403E-01-2.06794E-04-2.36006E-01 1.20044E-13 4.11748E-13
 -1       438 2.00127E+01 3.27899E-01 1.44309E-04-2.46297E-01 9.49575E-14 4.35228E-13
 -1       439 2.00532E+01 2.14086E-01 5.60649E-04-2.17162E-01-7.41554E-14 2.38098E-13
 -1       440 1.07434E+01-5.24187E+00 6.76959E-04 7.13217E+00-3.01759E-13 5.65256E-13
 -1       441 9.65452E-01-4.55331E+00-9.03241E-02 3.75771E-01-2.42757E-14 5.72264E-13
 -1       442 3.50778E+00-4.83650E+00-7.14777E-02 4.48156E+00-4.43950E-14 4.68542E-13
 -1       443 1.89938E+01-5.41156E+00-1.14816E-02 6.79511E+00 3.08087E-15-3.61364E-13
 -1       444 2.75409E+01-2.76980E+00 2.31812E-02 3.95865E+00 9.17946E-14-6.31301E-14
 -1       445 1.97889E+01 3.44079E+00-2.09220E-02-1.72663E+00-1.61807E-13-3.06941E-13
 -1       446 3.44102E+01 5.93798E+00 1.99267E-02-2.32035E-01 4.85015E-13-3.30472E-13
 -1       447 3.50270E+01 8.01807E+00 1.86096E-02-1.37567E-01 5.16337E-13-1.69992E-13
 -1       448 3.59734E+01 7.06795E+00 8.10663E-02-4.82245E-02 4.04995E-13-1.62648E-13
 -1       449 3.33959E+01 3.55562E+00 7.26778E-03-3.78766E-01 2.24827E-13-2.05710E-13
 -1       450 3.03212E+01-4.95008E-01 3.86900E-02-2.90048E+00 2.42365E-13-2.07334E-14
 -1       451 2.30454E+01-4.19630E+00-2.27704E-02-5.80856E+00-6.02851E-14-4.93536E-13
 -1       452 1.51204E+01-5.37656E+00-5.54680E-02-7.14270E+00-1.80300E-13-6.72670E-13
 -1       453 7.99146E+00-5.18116E+00-3.51519E-02-6.54830E+00-2.02685E-13-4.22287E-13
 -1       454 2.99486E+00-3.94138E+00 1.20184E-02-3.61004E+00-1.25920E-13 5.66075E-14
 -1       455 2.18629E+00-3.42297E+00 5.26033E-02 1.28475E+00-1.78576E-13-3.12875E-13
 -1       456 6.43723E+00-5.13332E+00-4.21659E-02 5.59907E+00-2.22308E-13-6.45858E-13
 -1       457 1.31208E+01-5.80624E+00-5.09387E-02 6.86946E+00 2.49106E-14-8.64510E-13
 -1       458 2.19525E+01-5.43765E+00-6.39075E-03 5.78986E+00-6.68493E-14-5.96155E-13
 -1       459 2.98511E+01-1.89955E+00 6.87685E-03 2.78336E+00-4.40557E-13-3.14318E-13
 -1       460 3.39338E+01 1.82317E+00 1.90476E-02 2.81949E-01-6.24320E-13-4.54872E-13
 -1       461 3.57014E+01 6.71797E+00 2.09791E-02-5.80209E-01-8.89872E-13-1.59345E-13
 -1       462 3.66100E+01 7.94485E+00 7.78426E-02 4.05022E-02-7.40630E-13-2.56309E-13
 -1       463 3.61050E+01 5.80431E+00 6.03702E-02 4.98555E-01-9.44939E-14-4.66405E-13
 -1       464 3.40095E+01 1.58525E+00 5.84703E-02-1.03509E+00 8.22883E-14-3.87801E-13
 -1       465 2.85327E+01-2.93320E+00 9.18980E-04-3.58792E+00 2.40578E-13-7.44960E-14
 -1       466 2.04861E+01-5.14822E+00-4.15019E-02-6.10636E+00 1.13312E-13 3.50615E-13
 -1       467 1.08187E+01-5.50502E+00-1.34396E-02-6.69338E+00 7.59254E-14-3.12847E-13
 -1       468 4.11362E+00-5.09686E+00-8.31922E-02-4.51217E+00 1.29355E-13-2.83232E-13
 -1       469 3.15987E+01 7.89122E-01-2.54508E-02 1.39432E+00 3.74192E-13-2.53478E-13
 -1       470 1.78220E+01-5.77672E+00 4.12646E-02-6.59843E+00 4.12309E-14-1.70992E-14
 -1       471 3.22456E+01 3.92325E+00-1.13963E-01-1.92185E+00-8.03121E-13-2.16292E-13
 -1       472 2.69706E+01-5.01436E+00-2.39596E-02 2.97335E+00-5.28397E-14-4.54310E-13
 -1       473 2.03665E+01 8.33059E-01 4.03510E-03 9.71718E-01 2.30268E-13 1.01220E-13
 -1       474 1.97435E+01 3.10974E+00-5.33450E-03-6.32742E-01-5.54404E-15-3.16821E-13
 -1       475 1.98372E+01 2.93534E+00-5.76647E-03-9.49460E-01-6.92002E-14-2.97081E-13
 -1       476 1.96773E+01 3.23374E+00-5.02374E-03 8.88989E-03 8.71560E-14-3.00798E-13
 -1       477 1.96953E+01 3.20040E+00-5.10340E-03 3.29783E-01 1.24859E-13-2.73782E-13
 -1       478 1.97478E+01 3.10271E+00-5.41683E-03 6.44679E-01 1.81589E-13-2.57059E-13
 -1       479 1.98441E+01 2.92355E+00-5.95600E-03 9.60073E-01 2.41802E-13-2.02722E-13
 -1       480 1.99962E+01 2.63692E+00-6.52983E-03 1.25554E+00 2.87627E-13-1.49261E-13
 -1       481 2.02336E+01 2.18947E+00-5.70153E-03 1.50089E+00 3.01135E-13-5.93590E-14
 -1       482 2.47863E+01-5.14853E+00 1.86374E-02 4.11799E+00 1.13562E-13-6.30468E-14
 -1       483 2.01062E+01 4.55927E-01 5.09280E-03 4.62224E-01 1.78754E-13 8.29457E-14
 -1       484 2.03394E+01 9.77518E-01 2.95860E-03-9.42783E-01-1.63760E-13-1.26289E-13
 -1       485 3.05540E+01 2.64866E+00-1.16579E-01-1.33436E+00 3.45383E-13-5.97432E-13
 -1       486 2.01696E+01 5.46446E-01 1.83590E-03-4.65186E-01-1.12243E-13-1.15699E-13
 -1       487 2.00250E+01 3.09619E-01 1.03116E-03-1.59861E-01-6.30959E-14-1.10391E-13
 -1       488 1.99285E+01 1.70855E-01 4.58264E-04 2.73220E-02-6.37470E-14-1.21460E-13
 -1       489 1.98759E+01 8.91864E-02 1.89090E-04 1.38375E-01-6.07177E-14-1.09795E-13
 -1       490 1.98573E+01 4.27213E-02 6.85695E-05 2.01979E-01-7.30460E-14-1.33073E-13
 -1       491 1.98634E+01 1.95046E-02 1.98067E-05 2.37881E-01-8.54174E-14-1.20953E-13
 -1       492 1.98875E+01 1.26467E-02 1.08117E-05 2.60112E-01-1.21601E-13-6.24299E-14
 -1       493 1.99251E+01 1.80279E-02 2.97221E-05 2.79001E-01-8.55335E-14 1.28586E-14
 -1       494 1.99737E+01 3.31883E-02 7.12019E-05 3.02479E-01-3.05327E-14 8.37811E-14
 -1       495 2.00324E+01 5.67287E-02 1.32581E-04 3.36947E-01 3.80552E-14 7.27494E-14
 -1       496 2.01017E+01 8.79160E-02 2.12557E-04 3.87839E-01 6.25785E-15-4.19140E-14
 -1       497 2.01827E+01 1.26325E-01 3.10185E-04 4.59952E-01-9.76525E-15-7.70811E-14
 -1       498 2.02769E+01 1.71385E-01 4.23380E-04 5.57528E-01-4.64850E-14 2.40218E-14
 -1       499 2.03864E+01 2.21665E-01 5.46246E-04 6.84031E-01-7.14028E-14-5.22744E-14
 -1       500 2.05133E+01 2.73680E-01 6.64461E-04 8.41505E-01-4.88337E-14-1.86109E-13
 -1       501 2.06608E+01 3.19879E-01 7.47828E-04 1.02927E+00-8.90937E-14-1.58758E-13
 -1       502 2.08344E+01 3.45441E-01 7.39583E-04 1.24165E+00 4.82020E-14 2.54230E-14
 -1       503 2.10458E+01 3.23718E-01 5.44306E-04 1.46433E+00 5.85517E-14-3.32386E-14
 -1       504 2.13193E+01 2.11094E-01 2.50591E-05 1.66864E+00 1.25976E-13 3.53422E-14
 -1       505 2.17014E+01-5.48399E-02-9.11935E-04 1.80296E+00 1.43109E-13-1.10229E-14
 -1       506 2.22697E+01-5.42531E-01-2.11523E-03 1.78049E+00 1.18358E-13-1.22273E-13
 -1       507 2.31229E+01-1.27463E+00-3.64468E-03 1.46730E+00-5.34089E-14-1.70964E-13
 -1       508 2.43293E+01-2.10899E+00-4.98157E-03 6.92737E-01 7.31895E-14-5.93721E-14
 -1       509 2.57646E+01-2.52768E+00-1.23823E-02-6.72759E-01 1.72391E-14 4.76459E-14
 -1       510 2.68428E+01-1.63617E+00-3.82078E-02-2.23015E+00 8.94520E-14 1.70283E-13
 -1       511 2.71740E+01 1.18373E+00-7.69264E-02-3.00529E+00-4.35076E-13 2.37747E-13
 -1       512 2.67862E+01 4.09445E+00-1.57370E-01-1.54160E+00-3.83381E-13-1.18442E-13
 -1       513 2.66840E+01 4.19738E+00-1.53394E-01 1.35062E+00-9.12395E-14-5.48417E-13
 -1       514 2.70891E+01 1.31526E+00-1.06091E-01 3.02006E+00 1.62280E-13-4.96421E-13
 -1       515 2.69247E+01-1.48984E+00-4.18110E-02 2.34274E+00 8.38678E-14-2.60195E-13
 -1       516 2.58180E+01-2.51475E+00-1.05418E-02 7.37100E-01 1.81807E-13-1.05208E-13
 -1       517 2.43920E+01-2.14868E+00-4.98958E-03-6.41851E-01 8.15293E-14 1.35383E-14
 -1       518 2.31699E+01-1.32209E+00-3.74525E-03-1.45031E+00 1.35544E-13 1.48504E-13
 -1       519 2.22969E+01-5.78101E-01-2.56303E-03-1.78458E+00-4.15946E-15 2.49862E-13
 -1       520 2.17151E+01-7.69725E-02-1.05374E-03-1.81974E+00-1.97456E-13 7.15191E-14
 -1       521 2.13241E+01 1.99869E-01-3.01197E-05-1.69221E+00 3.99586E-14 1.10580E-13
 -1       522 2.10452E+01 3.20760E-01 5.17638E-04-1.49009E+00-8.03003E-14 3.05773E-13
 -1       523 2.08307E+01 3.49231E-01 7.31745E-04-1.26578E+00 1.98933E-13 2.17117E-13
 -1       524 2.06560E+01 3.30527E-01 7.61345E-04-1.04795E+00 3.01561E-13 5.53650E-13
 -1       525 2.05091E+01 2.92946E-01 7.13415E-04-8.50171E-01 3.68043E-13 7.17367E-13
 -1       526 2.03845E+01 2.52913E-01 6.17312E-04-6.76789E-01 1.41146E-13 7.47699E-13
 -1       527 2.02787E+01 2.19779E-01 5.42916E-04-5.26331E-01 4.94411E-15 7.57986E-13
 -1       528 2.01898E+01 1.97316E-01 5.67521E-04-3.94935E-01-2.64185E-13 5.48657E-13
 -1       529 1.98106E+01 1.35130E-01 1.01497E-03-2.90301E-02 7.81077E-14 8.13528E-15
 -1       530 1.97588E+01 6.88863E-02 4.10660E-04-1.34500E-01 7.75939E-14-2.25966E-14
 -1       531 1.97491E+01 3.13321E-02 1.52872E-04-1.92697E-01 9.11669E-14-4.15929E-14
 -1       532 1.97681E+01 1.20267E-02 4.35035E-05-2.23460E-01 8.75947E-14 1.68518E-14
 -1       533 1.98067E+01 5.05534E-03 7.21663E-06-2.40204E-01 1.60660E-14 8.00117E-14
 -1       534 1.98593E+01 6.78228E-03 1.57203E-05-2.52328E-01 1.01690E-13 3.74351E-14
 -1       535 1.99231E+01 1.47819E-02 5.46460E-05-2.66571E-01 5.53071E-14 3.74288E-14
 -1       536 1.99972E+01 2.72410E-02 1.13749E-04-2.87767E-01 3.17217E-14 3.63480E-14
 -1       537 2.00825E+01 4.25447E-02 1.83641E-04-3.19220E-01-3.38073E-14 1.84756E-15
 -1       538 2.01809E+01 5.89076E-02 2.53593E-04-3.62767E-01-1.62622E-15-1.68562E-14
 -1       539 2.02948E+01 7.39829E-02 3.09571E-04-4.18557E-01 1.18668E-13 4.31962E-14
 -1       540 2.04271E+01 8.44170E-02 3.32157E-04-4.84525E-01 1.69857E-13-4.41480E-14
 -1       541 2.05810E+01 8.53727E-02 2.95007E-04-5.55542E-01 1.03880E-13 1.38676E-13
 -1       542 2.07589E+01 7.01321E-02 1.64816E-04-6.22256E-01 7.88781E-15 1.38527E-13
 -1       543 2.09631E+01 3.00716E-02-9.52578E-05-6.69756E-01-1.88162E-14 2.96161E-14
 -1       544 2.11940E+01-4.43812E-02-5.15052E-04-6.76433E-01-7.02366E-14-1.19130E-14
 -1       545 2.14498E+01-1.60761E-01-1.09546E-03-6.13908E-01-5.32326E-14-4.83409E-14
 -1       546 2.17227E+01-3.18140E-01-1.75445E-03-4.49726E-01 5.19638E-14 1.18032E-13
 -1       547 2.19938E+01-4.96568E-01-2.32712E-03-1.55825E-01-1.65820E-13 2.16522E-13
 -1       548 2.22271E+01-6.45113E-01-2.57275E-03 2.74505E-01-2.41036E-13 5.52744E-14
 -1       549 2.23644E+01-6.74678E-01-1.58595E-03 7.99886E-01 3.06648E-14 3.17683E-14
 -1       550 2.23353E+01-4.79817E-01 7.79424E-04 1.29736E+00 1.74611E-15 1.23879E-13
 -1       551 2.21060E+01-1.89146E-02 2.09878E-03 1.56364E+00-6.88953E-14 2.19035E-13
 -1       552 2.17387E+01 6.08558E-01 1.80514E-03 1.38754E+00-9.16008E-14 1.36842E-13
 -1       553 2.14178E+01 1.12794E+00 1.32737E-03 7.07519E-01-2.39414E-14 1.82226E-13
 -1       554 2.13441E+01 1.24429E+00 1.45660E-03-2.64417E-01 1.45098E-13 7.64636E-14
 -1       555 2.15678E+01 8.83199E-01 1.63672E-03-1.12284E+00 1.90932E-13 2.50754E-15
 -1       556 2.19390E+01 2.64378E-01 1.14029E-03-1.54039E+00 8.15253E-14 3.43093E-14
 -1       557 2.22476E+01-3.00787E-01 2.16328E-04-1.45719E+00 8.84504E-14-3.13622E-15
 -1       558 2.23683E+01-6.20386E-01-7.94768E-04-1.03628E+00 1.28367E-13 1.32921E-13
 -1       559 2.22977E+01-6.82554E-01-2.03802E-03-5.01947E-01 1.76783E-13 1.72567E-13
 -1       560 2.20982E+01-5.77303E-01-2.64432E-03-1.64016E-02 2.71394E-13 1.80938E-13
 -1       561 2.18357E+01-4.03409E-01-2.22893E-03 3.43966E-01 4.75325E-14 1.17795E-13
 -1       562 2.15576E+01-2.31060E-01-1.51078E-03 5.66602E-01-1.74015E-13 7.71009E-14
 -1       563 2.12901E+01-9.31814E-02-8.06243E-04 6.72380E-01-4.48225E-13-8.33523E-14
 -1       564 2.10455E+01 2.41120E-03-2.47907E-04 6.92650E-01-2.70673E-13 1.76762E-13
 -1       565 2.08285E+01 6.08873E-02 1.33476E-04 6.57379E-01-3.25441E-13 2.67437E-13
 -1       566 2.06398E+01 9.21005E-02 3.63262E-04 5.90155E-01 9.35867E-14-1.54901E-13
 -1       567 2.04790E+01 1.06140E-01 5.19220E-04 5.07308E-01 1.72225E-13 2.20130E-14
 -1       568 2.03444E+01 1.12036E-01 7.71987E-04 4.18933E-01 1.93992E-13 9.07315E-14
 -1       569 2.02334E+01 1.15169E-01 7.69758E-04 3.28569E-01 2.32508E-14 1.51723E-13
 -1       570 2.01403E+01 1.18707E-01 6.08890E-04 2.37852E-01 7.67142E-14 2.60291E-13
 -1       571 1.99372E+01 4.37344E-01-1.19966E-04 3.00197E-01 4.72281E-14-3.29106E-13
 -1       572 1.98823E+01 5.20143E-01-2.40913E-04 2.36880E-01 1.19072E-13 2.07764E-13
 -1       573 2.00643E+01 2.40806E-01 3.79348E-05 3.09216E-01 3.74024E-14-4.77436E-13
 -1       574 2.00003E+01 3.41212E-01 2.30193E-04 3.24171E-01-3.18304E-13-6.54769E-13
 -1       575 1.98422E+01 5.80391E-01-3.17941E-04 1.41370E-01-7.56049E-14-3.22195E-13
 -1       576 1.98221E+01 6.10556E-01-3.56053E-04 2.48860E-02 4.19477E-14 1.12928E-13
 -1       577 1.98260E+01 6.05896E-01-3.42368E-04-9.80085E-02-9.04875E-14 1.53996E-13
 -1       578 1.98547E+01 5.66390E-01-2.72818E-04-2.08968E-01 6.84462E-14 1.51812E-13
 -1       579 1.99076E+01 4.93796E-01-1.52920E-04-2.95263E-01 1.88101E-13-2.03252E-13
 -1       580 1.99794E+01 3.95539E-01-1.67025E-04-3.41108E-01-6.38320E-14 1.99939E-13
 -1       581 2.00605E+01 2.82802E-01 1.30844E-04-3.37190E-01-1.67503E-13 4.50557E-13
 -1       582 4.54291E+00-1.95027E+00 1.49359E-01 2.71675E+00-1.26132E-13 3.46403E-13
 -1       583 1.69217E+01-4.94807E+00 8.24468E-02 6.88959E+00-3.24192E-13 1.19533E-13
 -1       584 1.99215E+01 2.50157E-01 2.45765E-03 1.53924E-01 1.20118E-13 4.70009E-14
 -1       585 5.02631E+00-1.71962E+00 1.61163E-01-2.49481E+00 2.05152E-13 1.44620E-13
 -1       586 9.34992E+00-3.15248E+00 1.33546E-01 6.16443E+00-3.61045E-13 3.68226E-13
 -1       587 2.88458E+01-2.28580E+00-7.04873E-02 8.56255E-01 1.40648E-13-4.19879E-13
 -1       588 1.94853E+01-5.49851E+00 7.30483E-02 6.00840E+00 9.73041E-14-6.30501E-13
 -1       589 7.11102E+00-2.11526E+00 1.64090E-01 4.18177E+00-1.16844E-13-4.86403E-13
 -1       590 1.96926E+01 3.20477E+00-5.09405E-03-3.12110E-01 5.38873E-14-3.14106E-13
 -1       591 3.07391E+01 4.97975E+00-1.35546E-01 1.48203E+00 2.83773E-13-5.62050E-16
 -1       592 3.02071E+01 6.50238E+00-1.59213E-01-1.19720E+00 3.33109E-13-6.38132E-13
 -1       593 2.98982E+01 7.30975E+00-1.74575E-01 5.90838E-01 2.75571E-13-2.47288E-13
 -1       594 2.98367E+01-5.15746E-02-1.03873E-01 5.70633E-01-1.22506E-14 1.37952E-13
 -1       595 2.72898E+01-3.87830E+00-2.54337E-02-2.61329E+00-1.27936E-13 2.11386E-13
 -1       596 2.09475E+01-5.50566E+00 2.57048E-02-6.02358E+00-3.65694E-13-3.38559E-13
 -1       597 1.47267E+01-4.74124E+00 1.00170E-01-7.10029E+00-2.80012E-13-4.08229E-13
 -1       598 8.85311E+00-2.56042E+00 1.60097E-01-5.67756E+00-2.16667E-13-2.63997E-13
 -1       599 4.77798E+00-1.30256E+00 1.67618E-01-1.45758E+00-1.56809E-13 5.13201E-14
 -1       600 1.25473E+01-4.22532E+00 1.16290E-01 6.49667E+00-1.31430E-13-6.81281E-13
 -1       601 3.18103E+01 2.50664E+00-1.05608E-01 2.06063E+00 8.94909E-14-4.42410E-13
 -1       602 3.04252E+01-1.46084E+00-7.90434E-02-6.28619E-01-3.74173E-13-1.64008E-13
 -1       603 3.11359E+01 6.69344E+00-1.62800E-01-8.46675E-01-7.04742E-13-3.16384E-13
 -1       604 3.05029E+01 5.99936E+00-1.84068E-01 1.40113E+00-2.26708E-13-5.80435E-13
 -1       605 3.04566E+01-2.09995E+00-7.25911E-02 1.79752E-01 1.64462E-13-4.94715E-13
 -1       606 2.58624E+01-5.38407E+00-8.26192E-03-3.56349E+00 1.74395E-13-2.42167E-15
 -1       607 9.96062E+00-3.48322E+00 1.47309E-01-5.93985E+00 8.99350E-14-1.85053E-13
 -1       608 2.03884E+01 1.77244E+00-5.65243E-03-1.54635E+00-2.22496E-13-1.61223E-13
 -1       609 2.05766E+01 1.30560E+00-9.94145E-04 1.54840E+00 2.83125E-13 1.57716E-13
 -1       610 1.99845E+01 2.66534E+00-6.53888E-03-1.25324E+00-1.20922E-13-2.87975E-13
 -1       611 2.99496E+01 5.87714E-01-9.76340E-02-2.65790E+00-4.11012E-13 1.81778E-13
 -1       612 7.26639E+00-4.20329E-01 1.71678E-01 1.63015E+00-1.32727E-13-4.11025E-13
 -1       613 1.52922E+01-4.17740E+00 1.04040E-01-6.28193E+00 3.44308E-14-9.66796E-14
 -1       614 2.37693E+01-5.49253E+00 9.25626E-03 4.03479E+00 1.83114E-13-4.49262E-13
 -1       615 2.01381E+01 1.86117E-01 5.98147E-04-3.12264E-01-1.47931E-13 3.54776E-13
 -1       616 1.99708E+01 2.45949E+00-1.58884E-03 3.92292E-01 1.21314E-13-2.23410E-13
 -1       617 1.99396E+01 2.53529E+00-1.52132E-03 1.35128E-01 1.04524E-13-2.69478E-13
 -1       618 2.01272E+01 2.05252E+00-1.58441E-03 8.47261E-01 2.17905E-13-1.36230E-13
 -1       619 2.02420E+01 1.68022E+00-2.23058E-03 9.89553E-01 2.67527E-13-9.85472E-14
 -1       620 2.23631E+01-5.34067E+00 4.78617E-02-4.69993E+00 1.41054E-13-2.12655E-14
 -1       621 2.03188E+01 1.03980E+00 2.88349E-03 8.29336E-01 2.23259E-13-5.00956E-14
 -1       622 2.02438E+01 6.77308E-01-3.47248E-04-3.86612E-01-9.59949E-14-1.73385E-13
 -1       623 2.01739E+01 4.04354E-01 1.96228E-04-1.27554E-01-6.35383E-14-1.82293E-13
 -1       624 2.01114E+01 2.31633E-01 5.55678E-05 4.23597E-02-4.49708E-14-1.80179E-13
 -1       625 2.00655E+01 1.26302E-01 1.71240E-05 1.49253E-01-5.95453E-14-1.85175E-13
 -1       626 2.00361E+01 6.64274E-02 1.46054E-06 2.14746E-01-6.35891E-14-1.41419E-13
 -1       627 2.00209E+01 3.85434E-02-2.60958E-06 2.55849E-01-2.00031E-14-1.09880E-13
 -1       628 2.00169E+01 3.41951E-02 1.11596E-06 2.85604E-01-1.87372E-14-1.65839E-14
 -1       629 2.00216E+01 4.80394E-02 1.15203E-05 3.14090E-01-1.14272E-14 3.76901E-14
 -1       630 2.00328E+01 7.67616E-02 2.81051E-05 3.49258E-01-4.03161E-14 8.15720E-15
 -1       631 2.00487E+01 1.18384E-01 5.06418E-05 3.97576E-01-4.60826E-14-1.32037E-14
 -1       632 2.00676E+01 1.71715E-01 7.91134E-05 4.64476E-01 2.29175E-16 1.44597E-14
 -1       633 2.00877E+01 2.35768E-01 1.13689E-04 5.54603E-01 2.96732E-14-7.58180E-14
 -1       634 2.01069E+01 3.08985E-01 1.54317E-04 6.71869E-01-1.12039E-13-8.77590E-14
 -1       635 2.01229E+01 3.88033E-01 1.99881E-04 8.19311E-01-1.39855E-13-2.98940E-14
 -1       636 2.01340E+01 4.65869E-01 2.46746E-04 9.98738E-01 2.52786E-15 1.10723E-13
 -1       637 2.01406E+01 5.28662E-01 2.86002E-04 1.21017E+00 2.22291E-14 8.18462E-14
 -1       638 2.01493E+01 5.51149E-01 2.99484E-04 1.45104E+00 1.35885E-14 9.40397E-14
 -1       639 2.01799E+01 4.90310E-01 2.57045E-04 1.71498E+00 7.57937E-14-1.99820E-15
 -1       640 2.02790E+01 2.78473E-01 1.42117E-04 1.98902E+00 8.84538E-14-1.97923E-13
 -1       641 2.05388E+01-1.79034E-01 2.75791E-04 2.24553E+00 3.86283E-14-1.48523E-13
 -1       642 2.11230E+01-9.87082E-01 2.03153E-03 2.41940E+00 2.77776E-14-1.86197E-13
 -1       643 2.22610E+01-2.16757E+00 7.44138E-03 2.34737E+00 1.00653E-13-1.27277E-14
 -1       644 2.41853E+01-3.46630E+00 3.57544E-03 1.72082E+00 2.10780E-13-6.80228E-15
 -1       645 2.69481E+01-3.99155E+00-8.49970E-03 1.80061E-01 1.87059E-13 3.34040E-13
 -1       646 2.91487E+01-1.15121E+00-9.07864E-02 2.03219E+00 1.65867E-13-4.06210E-13
 -1       647 2.69370E+01-3.71620E+00-1.24314E-02 4.60419E-02 1.45760E-13-3.46109E-13
 -1       648 2.44168E+01-3.46764E+00 4.94926E-03-1.53047E+00 2.21240E-13-2.93608E-13
 -1       649 2.24884E+01-2.22970E+00 3.04699E-03-2.24209E+00 2.01986E-13-2.13888E-13
 -1       650 2.13052E+01-1.04809E+00-3.31067E-04-2.37403E+00 1.58078E-13-1.84523E-13
 -1       651 2.06821E+01-2.31403E-01-2.99716E-04-2.24087E+00 1.25014E-13 1.34135E-13
 -1       652 2.03883E+01 2.39557E-01 2.57239E-06-2.00479E+00-2.14984E-13 3.70272E-13
 -1       653 2.02634E+01 4.63919E-01 2.46598E-04-1.73902E+00 1.14314E-13 2.62778E-13
 -1       654 2.02136E+01 5.35884E-01 3.35930E-04-1.47598E+00-5.49541E-15 7.01067E-13
 -1       655 2.01907E+01 5.24642E-01 3.38785E-04-1.23103E+00 2.08441E-13 3.08438E-13
 -1       656 2.01733E+01 4.75103E-01 3.02569E-04-1.01107E+00 4.87623E-13 9.29978E-14
 -1       657 2.01540E+01 4.14089E-01 2.81371E-04-8.17862E-01 3.23299E-13 6.60147E-14
 -1       658 2.01306E+01 3.58191E-01 2.55275E-04-6.50980E-01 2.49827E-13 1.88688E-13
 -1       659 2.01039E+01 3.14010E-01 2.17690E-04-5.05608E-01-3.21705E-13 1.80399E-13
 -1       660 1.99858E+01 1.08866E-01 7.79554E-05-1.46859E-01 8.78302E-14-4.68468E-14
 -1       661 2.01066E+01 2.37918E-01 9.24309E-05 4.14718E-01-7.57020E-14-6.84556E-13
 -1       662 2.00342E+01 2.03725E-01 1.81998E-04-3.80258E-02 8.34098E-14-6.36745E-14
 -1       663 1.99550E+01 2.74855E-02 8.88452E-06-2.49717E-01 4.56083E-14 4.59653E-15
 -1       664 1.99634E+01 1.98616E-02 5.60488E-06-2.74912E-01 9.55571E-14-5.35841E-14
 -1       665 1.99828E+01 2.61759E-02 1.44752E-05-2.96733E-01 6.75631E-14 3.23243E-15
 -1       666 2.00116E+01 4.25666E-02 3.19294E-05-3.22340E-01 4.09748E-14-3.15256E-14
 -1       667 2.00488E+01 6.59133E-02 5.51778E-05-3.56903E-01-1.04832E-14 3.64546E-14
 -1       668 2.00947E+01 9.31959E-02 8.11098E-05-4.03892E-01 7.95269E-15-1.27061E-15
 -1       669 2.01504E+01 1.20875E-01 1.05932E-04-4.65068E-01 4.13562E-14-6.73636E-14
 -1       670 2.02182E+01 1.44214E-01 1.24136E-04-5.40210E-01 1.15113E-13-3.60274E-14
 -1       671 2.03015E+01 1.56527E-01 1.27945E-04-6.26527E-01 1.56835E-14 7.38742E-14
 -1       672 2.04054E+01 1.48442E-01 1.06622E-04-7.17755E-01 1.87238E-14 1.72253E-13
 -1       673 2.05376E+01 1.07418E-01 4.55597E-05-8.02914E-01 6.37912E-14 1.60044E-13
 -1       674 2.07090E+01 1.81059E-02-7.42300E-05-8.64797E-01-1.29039E-14 1.46911E-13
 -1       675 2.09337E+01-1.35295E-01-2.73897E-04-8.78372E-01-4.59411E-14 1.27493E-13
 -1       676 2.12274E+01-3.62752E-01-5.66536E-04-8.09755E-01-9.29947E-14 7.11673E-14
 -1       677 2.16010E+01-6.55443E-01-8.62990E-04-6.17391E-01-8.31809E-14 2.32131E-13
 -1       678 2.20456E+01-9.64547E-01-1.27861E-03-2.61243E-01-2.19690E-13 2.65278E-13
 -1       679 2.25196E+01-1.18519E+00-1.91930E-03 2.75651E-01-8.14281E-14 1.87763E-13
 -1       680 2.29145E+01-1.12906E+00-2.84587E-04 9.49994E-01 7.44966E-15 2.18939E-13
 -1       681 2.30928E+01-6.19894E-01 2.10508E-03 1.57034E+00 5.62801E-14 2.10547E-13
 -1       682 2.29342E+01 3.94818E-01-2.05210E-03 1.82739E+00-7.65369E-14 1.23651E-13
 -1       683 2.25712E+01 1.55469E+00-6.67911E-03 1.40049E+00 2.70227E-15 2.18564E-13
 -1       684 2.23177E+01 2.22866E+00-9.69371E-03 3.06911E-01 1.51800E-13 1.27847E-13
 -1       685 2.24170E+01 1.96640E+00-8.76495E-03-9.48507E-01 1.36227E-13 2.93306E-14
 -1       686 2.27751E+01 9.45532E-01-4.67815E-03-1.71669E+00 2.53912E-13 1.44999E-14
 -1       687 2.30493E+01-1.96637E-01-3.42476E-03-1.75359E+00 1.18051E-13-2.35454E-13
 -1       688 2.30329E+01-9.62304E-01 2.38112E-04-1.25158E+00-3.15676E-14-1.90887E-13
 -1       689 2.27176E+01-1.20552E+00 7.98221E-04-5.66538E-01 1.24522E-13-1.21578E-13
 -1       690 2.22640E+01-1.09243E+00-1.19510E-03 4.54818E-02 2.42118E-13-1.60703E-13
 -1       691 2.17944E+01-8.05364E-01-1.11944E-03 4.88828E-01 1.15915E-13 9.68675E-14
 -1       692 2.13843E+01-4.94649E-01-7.39158E-04 7.53562E-01-9.36766E-14 1.33427E-13
 -1       693 2.10540E+01-2.32404E-01-4.27821E-04 8.74453E-01-3.80688E-13 2.51587E-13
 -1       694 2.07993E+01-4.22042E-02-1.75382E-04 8.93345E-01-3.45755E-13 1.41529E-13
 -1       695 2.06057E+01 7.99164E-02-1.04842E-05 8.47216E-01-8.39052E-14-7.86684E-14
 -1       696 2.04581E+01 1.49013E-01 8.57837E-05 7.64085E-01 1.28241E-13-4.29244E-13
 -1       697 2.03441E+01 1.82224E-01 1.67825E-04 6.63307E-01 2.46271E-15-4.60082E-13
 -1       698 2.02540E+01 1.94688E-01 1.84414E-04 5.57194E-01 1.25888E-13-5.29352E-13
 -1       699 2.01701E+01 2.17718E-01 2.82148E-04 4.86939E-01 1.68139E-13-5.64529E-13
 -1       700 1.97135E+01 6.20319E-01-1.27244E-04 1.14388E-01 6.94969E-14 5.47133E-14
 -1       701 2.00821E+01 2.95882E-01 2.22171E-04-4.18302E-01-3.80112E-13 3.44471E-13
 -1       702 1.98452E+01 4.88732E-01-6.95329E-05 3.48542E-01 1.89365E-13 1.08088E-13
 -1       703 1.96980E+01 6.39917E-01-1.20941E-04-3.83367E-02 1.35645E-13 1.72415E-13
 -1       704 1.97653E+01 5.67438E-01-1.05861E-04 2.48367E-01 3.16897E-15-3.48537E-13
 -1       705 2.65351E+01-3.85095E+00-4.17862E-02 1.26086E+00 1.14509E-14-3.48775E-13
 -1       706 7.12975E+00-8.05161E-02 1.63775E-01 3.08729E-01-8.40604E-14 6.96526E-14
 -1       707 1.97230E+01 6.22510E-01-1.16734E-04-1.88405E-01 1.62644E-13 3.83754E-13
 -1       708 1.97898E+01 5.67056E-01-7.35910E-05-3.20624E-01 2.13837E-13-1.18959E-13
 -1       709 1.98917E+01 4.78542E-01 1.23759E-04-4.10750E-01-5.21133E-14-2.07464E-13
 -1       710 1.99896E+01 3.89414E-01 5.33331E-05-4.33672E-01-1.25984E-13 1.32154E-13
 -1       711 2.45170E+01-4.89771E+00 5.48177E-03-3.29548E+00-3.32975E-13 5.67081E-14
 -1       712 9.27704E+00-8.54139E-01 1.45159E-01 3.99838E+00-3.09990E-13 2.19755E-13
 -1       713 1.47380E+01-2.87332E+00 9.31999E-02 5.97992E+00-3.58095E-13 3.97651E-13
 -1       714 1.45222E+01-2.91502E+00 9.88527E-02-5.99113E+00-2.21396E-13-2.99899E-13
 -1       715 2.79502E+01-4.15459E+00-3.14943E-02-4.83221E-01 2.38984E-13-4.90455E-13
 -1       716 1.01624E+01-1.08154E+00 1.55085E-01-4.13572E+00 5.67636E-14-1.21965E-13
 -1       717 1.73042E+01-3.85953E+00 1.10339E-01 5.65105E+00 4.10297E-14-5.29705E-13
 -1       718 2.01090E+01 3.62409E-01 5.61297E-04 1.39467E-01 1.05797E-13-3.90946E-14
 -1       719 1.99610E+01 5.44405E-02 2.87487E-05-2.11432E-01 4.53785E-14 1.31904E-15
 -1       720 2.02939E+01 1.12711E+00 1.60400E-03-7.58289E-01-1.25488E-13-1.69630E-13
 -1       721 2.00331E+01 2.30344E+00-1.65626E-03 6.35264E-01 1.69962E-13-1.89581E-13
 -1       722 2.16549E+01-4.78500E+00 5.77654E-02 4.84932E+00-2.50067E-13-8.29675E-15
 -1       723 2.00282E+01 2.31337E+00-1.65308E-03-6.26226E-01-3.95792E-14-2.48926E-13
 -1       724 2.66529E+01 6.08937E+00-1.49373E-01-5.06780E-01 1.08080E-13 3.21618E-14
 -1       725 2.81652E+01-4.21579E+00-8.11593E-02 3.82139E-01-1.53488E-14 1.40610E-13
 -1       726 2.74702E+01 3.67112E+00-1.32981E-01-2.15671E+00 4.44554E-13-2.56604E-13
 -1       727 2.02067E+01 6.20405E-01 1.07269E-03 4.15006E-01 1.65056E-13-4.90784E-14
 -1       728 2.73742E+01-2.73380E+00-6.13060E-02 1.04987E-01-1.56076E-13 1.90487E-13
 -1       729 1.88512E+01-4.49944E+00 6.66135E-02-5.88524E+00-4.26981E-13-1.23441E-13
 -1       730 1.21132E+01-1.96935E+00 1.32293E-01 5.05469E+00-1.07483E-14-6.20809E-13
 -1       731 8.86991E+00-4.82005E-01 1.43798E-01-3.23556E+00-4.93407E-14-5.16254E-15
 -1       732 2.77072E+01 1.84577E+00-9.91646E-02 2.19624E+00 1.20529E-14 1.30777E-13
 -1       733 2.75355E+01 5.24992E+00-1.56728E-01 1.63201E+00 2.40079E-13-1.25816E-13
 -1       734 2.81605E+01-3.92211E-01-9.07191E-02-1.43815E+00 2.76858E-13-3.77250E-13
 -1       735 2.01202E+01 2.07062E+00-1.70242E-03-8.44468E-01-9.88695E-14-2.64055E-13
 -1       736 1.99386E+01 2.53705E+00-1.52246E-03-1.25693E-01 5.64543E-14-2.61632E-13
 -1       737 2.02581E+01 1.60542E+00-9.15159E-04-9.90732E-01-1.47576E-13-1.88584E-13
 -1       738 1.08331E+01-4.00363E-01 1.20184E-01 3.26290E+00-1.92901E-14-4.45793E-13
 -1       739 2.94868E+01 3.89280E+00-1.72551E-01 2.23489E+00-1.02279E-13-5.23397E-13
 -1       740 1.99421E+01 3.93801E-01-6.34968E-05 4.05653E-01 1.46460E-13-2.14452E-13
 -1       741 2.40660E+01-4.35322E+00 4.72247E-04 2.59918E+00-7.51881E-14-3.34925E-13
 -1       742 1.37466E+01-1.95131E+00 9.46697E-02-4.96171E+00 1.82701E-13-2.70034E-13
 -1       743 2.11759E+01-4.61227E+00 5.02313E-02 4.63229E+00 1.36224E-13-1.81611E-13
 -1       744 9.23611E+00 4.43774E-01 1.23681E-01-6.90429E-01-1.90889E-13-2.05780E-13
 -1       745 1.29048E+01-1.05571E+00 8.74373E-02-4.50301E+00-1.22211E-13-2.50709E-13
 -1       746 1.99678E+01 2.46518E+00-1.56612E-03-3.82274E-01 1.33857E-14-2.61135E-13
 -1       747 2.02702E+01 1.31593E+00-4.79478E-04 6.26048E-01 1.68376E-13-1.02845E-13
 -1       748 2.02701E+01 4.55861E-01 5.30034E-05-7.59066E-02-6.17177E-14-1.63170E-13
 -1       749 2.02305E+01 2.68049E-01-7.36466E-06 6.35613E-02-7.15670E-14-1.53319E-13
 -1       750 2.01895E+01 1.52124E-01-8.11998E-06 1.55245E-01-5.29466E-14-1.73269E-13
 -1       751 2.01515E+01 8.80163E-02-6.20260E-06 2.14751E-01 1.74047E-14-1.57512E-13
 -1       752 2.01180E+01 6.22253E-02-4.00567E-06 2.55626E-01 4.60812E-14-1.55315E-13
 -1       753 2.00883E+01 6.56621E-02-1.32498E-06 2.88845E-01 1.91916E-14-9.41917E-14
 -1       754 2.00609E+01 9.23017E-02 2.13361E-06 3.23156E-01 7.98914E-16-6.62596E-14
 -1       755 2.00332E+01 1.38250E-01 6.78227E-06 3.65541E-01-2.87215E-14 6.25137E-15
 -1       756 2.00024E+01 2.01031E-01 1.27905E-05 4.21633E-01-8.64122E-16 1.52117E-14
 -1       757 1.99646E+01 2.78896E-01 2.05383E-05 4.96036E-01-3.72660E-14 3.07032E-14
 -1       758 1.99150E+01 3.70045E-01 3.07265E-05 5.92518E-01-9.22581E-14-1.38315E-14
 -1       759 1.98481E+01 4.71583E-01 4.41415E-05 7.14159E-01-1.12025E-13-3.71361E-14
 -1       760 1.97576E+01 5.77966E-01 6.18687E-05 8.63548E-01-4.95556E-14 2.87561E-14
 -1       761 1.96375E+01 6.78635E-01 8.47515E-05 1.04324E+00 5.42896E-14-6.30555E-14
 -1       762 1.94846E+01 7.54450E-01 1.12090E-04 1.25677E+00 2.32155E-14 2.54227E-14
 -1       763 1.93023E+01 7.72518E-01 1.42739E-04 1.51068E+00-3.95244E-14-5.83035E-14
 -1       764 1.91099E+01 6.79040E-01 1.91332E-04 1.81782E+00 4.23605E-14-1.07868E-13
 -1       765 1.89586E+01 3.89966E-01 4.25610E-04 2.20033E+00 1.39929E-13-6.02196E-14
 -1       766 1.89617E+01-2.16602E-01 2.83114E-03 2.68405E+00 1.17257E-14 2.33038E-15
 -1       767 1.93287E+01-1.30154E+00 1.00443E-02 3.28425E+00 6.60921E-14-7.79017E-14
 -1       768 2.08921E+01-3.08542E+00 3.13728E-02-3.70795E+00 3.42290E-13-3.09705E-13
 -1       769 1.96103E+01-1.42347E+00 7.95098E-03-3.24959E+00 1.30262E-13-1.90017E-13
 -1       770 1.91336E+01-3.03615E-01 1.66998E-03-2.71495E+00 1.54066E-13-4.37040E-13
 -1       771 1.90806E+01 3.30501E-01 3.38227E-04-2.24306E+00 9.96667E-14-4.08292E-13
 -1       772 1.91976E+01 6.42906E-01 8.02461E-05-1.86299E+00 3.34437E-15-2.57832E-14
 -1       773 1.93698E+01 7.53318E-01 1.05732E-04-1.55230E+00 1.78950E-13-2.78881E-14
 -1       774 1.95392E+01 7.49724E-01 1.02881E-04-1.29187E+00 9.11860E-14 1.17195E-13
 -1       775 1.96833E+01 6.89134E-01 8.80903E-05-1.06911E+00 1.46684E-13 2.97049E-13
 -1       776 1.97969E+01 6.07044E-01 2.67277E-04-8.77784E-01 2.29210E-13-1.49668E-13
 -1       777 1.98727E+01 5.28749E-01 3.16904E-04-7.14537E-01 3.01673E-13-5.23110E-13
 -1       778 1.99369E+01 4.55072E-01 3.27389E-04-5.67286E-01 1.55810E-13-2.24862E-13
 -1       779 2.01794E+01 2.50841E-01 1.41757E-05-5.70751E-02 7.83261E-14-4.68175E-14
 -1       780 2.00609E+01 4.35231E-02 3.11445E-07-2.87791E-01 7.96375E-14 1.03615E-14
 -1       781 2.00781E+01 4.72666E-02-1.90820E-06-2.57301E-01 8.12111E-14-9.82558E-15
 -1       782 2.00445E+01 8.60395E-02 1.10449E-05-3.52705E-01-8.11785E-16-2.37134E-14
 -1       783 2.00434E+01 1.22725E-01 1.85656E-05-3.98867E-01-7.68997E-15-1.45368E-13
 -1       784 2.00468E+01 1.63589E-01 2.73456E-05-4.59237E-01 5.50249E-14-5.18749E-14
 -1       785 2.00558E+01 2.02993E-01 3.61250E-05-5.35654E-01 6.40114E-14-4.27659E-14
 -1       786 2.00730E+01 2.33322E-01 4.33666E-05-6.28156E-01 1.41819E-14 6.86714E-14
 -1       787 2.01036E+01 2.43959E-01 4.74518E-05-7.34503E-01-3.03504E-14 2.30292E-14
 -1       788 2.01567E+01 2.20327E-01 4.48674E-05-8.49389E-01-2.33606E-14 7.31814E-14
 -1       789 2.02467E+01 1.43360E-01 2.79669E-05-9.63219E-01 2.16982E-14 1.64543E-13
 -1       790 2.03959E+01-9.76021E-03-2.15558E-05-1.06018E+00 6.22157E-15 1.72057E-13
 -1       791 2.06352E+01-2.61868E-01-1.38867E-04-1.11522E+00-8.88964E-14 2.27652E-13
 -1       792 2.10022E+01-6.26203E-01-3.84978E-04-1.08980E+00-1.69755E-13 2.99921E-13
 -1       793 2.15338E+01-1.08576E+00-4.55861E-04-9.26015E-01-1.74328E-13 2.88689E-13
 -1       794 2.22349E+01-1.54915E+00-2.44418E-04-5.47952E-01-1.67720E-13 2.32277E-13
 -1       795 2.30526E+01-1.82712E+00-9.22756E-03 1.24031E-01-4.77006E-15 2.53651E-13
 -1       796 2.38789E+01-1.59619E+00-8.74324E-04 1.04890E+00 6.33382E-14 1.43017E-13
 -1       797 2.41653E+01-5.15827E-01-2.74466E-02 1.88339E+00 1.55737E-14 2.00140E-13
 -1       798 2.39877E+01 1.31552E+00-3.22949E-02 2.05676E+00-1.11199E-13 3.08549E-13
 -1       799 2.35873E+01 3.06195E+00-3.90521E-02 1.17714E+00 3.18686E-14 3.71278E-13
 -1       800 2.34953E+01 3.50359E+00-3.47312E-02-4.48557E-01 1.75741E-13 3.70429E-13
 -1       801 2.37997E+01 2.22623E+00-3.75369E-02-1.78003E+00 2.84128E-13 1.87101E-13
 -1       802 2.41536E+01 2.35993E-01-1.49040E-02-2.02636E+00 3.38392E-13 1.77798E-13
 -1       803 2.39968E+01-1.21757E+00-1.73340E-02-1.41236E+00 5.30661E-14 1.54610E-13
 -1       804 2.34354E+01-1.81590E+00-2.45051E-03-5.08545E-01-2.81075E-14-9.14329E-14
 -1       805 2.26163E+01-1.72813E+00-4.00813E-03 2.75493E-01 1.33388E-13 3.76600E-14
 -1       806 2.18392E+01-1.31361E+00-9.21561E-04 7.95523E-01 5.30101E-14 2.12916E-13
 -1       807 2.12288E+01-8.34300E-01-5.26715E-04 1.04917E+00-9.50602E-14 2.47223E-13
 -1       808 2.07906E+01-4.19051E-01-2.51742E-04 1.13114E+00-1.93502E-13 1.46228E-13
 -1       809 2.04984E+01-1.11953E-01-6.99137E-05 1.10725E+00-2.34619E-13-4.38096E-13
 -1       810 2.03133E+01 9.01846E-02 8.72935E-06 1.02378E+00-9.83193E-14-5.64219E-13
 -1       811 2.02006E+01 2.08352E-01 3.57331E-05 9.10677E-01 9.12031E-14-3.89285E-13
 -1       812 2.01338E+01 2.67405E-01 7.28580E-05 7.86692E-01-1.52828E-14-1.30513E-13
 -1       813 2.00942E+01 2.89594E-01 9.96934E-05 6.63145E-01 1.19250E-13-2.92910E-13
 -1       814 2.01484E+01 1.90542E+00-3.18735E-04 1.97022E-01 9.94198E-14-2.30305E-13
 -1       815 1.96186E+01 6.58653E-01-1.15113E-04-3.07868E-01-9.94307E-15 3.85604E-13
 -1       816 1.95511E+01 6.84326E-01-6.26493E-05 6.07065E-02-6.07712E-14 2.68962E-13
 -1       817 1.95546E+01 6.92928E-01-3.25794E-05-1.28052E-01-8.22066E-14 2.86409E-13
 -1       818 1.06670E+01 4.87994E-01 9.93304E-02-1.58826E+00-4.19391E-14-1.26080E-14
 -1       819 2.02819E+01 9.52585E-01 3.78108E-04 5.50077E-01 1.47852E-13-5.92400E-14
 -1       820 2.02272E+01 4.32625E-01 5.24869E-05 9.52994E-02 9.56943E-14-5.35334E-14
 -1       821 2.18846E+01-4.12313E+00 1.18695E-02-3.81927E+00-3.68763E-13-1.55791E-13
 -1       822 1.90434E+01-3.81380E+00 6.27484E-02-5.03084E+00 3.44474E-13-3.15947E-13
 -1       823 2.48685E+01 3.86776E+00-8.07515E-02-1.54716E+00 2.81736E-13 1.92710E-13
 -1       824 2.02781E+01 1.28958E+00 4.10742E-04-6.63027E-01-1.09318E-13-2.17352E-13
 -1       825 1.97402E+01 5.81518E-01 7.60043E-05-4.53475E-01 2.56154E-13-4.65503E-13
 -1       826 2.48920E+01 4.66715E+00-8.73716E-02 8.13561E-01 1.44069E-13 6.86950E-14
 -1       827 2.00501E+01 5.81531E-02 4.74373E-06-3.17342E-01 4.18897E-14 1.95048E-14
 -1       828 2.62490E+01 9.94899E-01-6.16683E-02-2.23139E+00 3.12673E-13 1.83135E-14
 -1       829 1.04750E+01 4.98056E-01 9.07437E-02 1.73036E+00-2.55924E-14 9.98819E-14
 -1       830 1.89635E+01-3.27489E+00 3.87406E-02-4.80823E+00-3.53966E-13-1.74078E-13
 -1       831 1.34368E+01-8.03539E-01 6.10486E-02 4.24018E+00-1.90007E-13 1.70563E-13
 -1       832 1.59751E+01-2.16554E+00 5.34876E-02 4.78155E+00 1.05737E-13-3.81289E-13
 -1       833 2.02970E+01 7.41959E-01 2.32449E-04-2.78716E-01-7.10922E-14-1.81855E-13
 -1       834 2.88587E+01 4.17386E+00-1.21665E-01-2.34510E+00-5.27495E-13 1.01801E-13
 -1       835 2.62416E+01-7.79174E-01-2.84786E-02 1.79660E+00-1.35189E-13 2.44528E-13
 -1       836 2.63817E+01-2.16833E+00-4.12842E-02-7.87260E-01 6.65579E-14-2.60543E-13
 -1       837 2.53529E+01-3.63711E+00-1.18695E-02-8.30588E-01-1.70412E-13 2.02596E-13
 -1       838 1.91388E+01-3.12557E+00 4.89372E-02 4.66431E+00-2.05740E-13 9.63361E-14
 -1       839 2.01369E+01 1.94444E+00-2.98410E-04 3.54008E-03 6.61831E-14-2.15751E-13
 -1       840 2.15305E+01-3.44394E+00 9.52148E-03 3.31732E+00-6.10150E-14 1.03315E-13
 -1       841 1.41493E+01-7.18148E-01 7.30193E-02 3.83099E+00 1.52682E-13-4.35006E-13
 -1       842 1.98383E+01 4.56962E-01 6.55146E-05 4.71199E-01-1.49489E-14 2.47556E-14
 -1       843 2.08588E+01-3.00674E+00 1.97836E-02 3.71969E+00 2.59051E-13 3.81390E-15
 -1       844 2.36193E+01-4.87494E+00 4.27234E-02-3.45485E+00 2.68757E-13-4.17260E-13
 -1       845 2.01368E+01 1.39340E-01 4.95334E-06-1.55187E-01 3.65633E-14-2.63877E-14
 -1       846 2.50258E+01-3.27614E+00-3.30852E-03 4.89279E-01 8.95733E-14-3.69175E-14
 -1       847 2.01030E+01 7.60714E-02-1.11407E-07-2.16957E-01-1.37361E-15-2.42892E-14
 -1       848 2.00378E+01 3.14113E-01-7.23578E-04 5.71814E-01 2.13893E-13-2.56143E-13
 -1       849 1.97053E+01 5.56846E-01-1.80567E-05 3.77619E-01 9.91855E-14-6.94449E-14
 -1       850 2.01804E+01 1.79060E+00-2.63509E-04 3.76933E-01 1.20101E-13-1.88336E-13
 -1       851 1.96048E+01 6.36214E-01-7.24128E-05 2.36303E-01 1.23660E-13-2.56315E-13
 -1       852 2.02198E+01 1.61133E+00-6.45356E-04-5.26122E-01-6.59172E-14-1.88770E-13
 -1       853 1.25267E+01-4.51952E-02 5.73680E-02-3.03580E+00 8.51133E-14-1.43923E-13
 -1       854 2.02563E+01 6.46074E-01-2.81743E-04 2.86302E-01 1.32086E-13-5.17693E-14
 -1       855 1.10895E+01 6.42505E-01 7.46920E-02 1.20884E+00 4.38191E-15-2.27096E-13
 -1       856 1.15806E+01 1.95592E-01 7.85502E-02-2.69296E+00-1.23635E-13-1.72966E-13
 -1       857 2.01757E+01 1.80002E+00-5.26491E-04-3.71259E-01-7.24214E-15-2.32239E-13
 -1       858 1.68179E+01-1.80844E+00 3.94700E-02-4.41846E+00-3.10419E-13-7.44951E-14
 -1       859 2.02274E+01 1.59704E+00 1.21696E-04 5.29120E-01 1.54262E-13-1.21020E-13
 -1       860 2.56550E+01 3.07717E+00-7.05765E-02 2.06414E+00-3.33067E-15 1.70792E-13
 -1       861 2.00033E+01 3.36523E-01-1.66864E-04 5.12790E-01 4.08229E-13-4.38919E-13
 -1       862 1.95256E+01 7.03002E-01-3.66756E-05-4.59905E-01 1.55475E-13 1.70860E-13
 -1       863 1.34487E+01 5.24557E-01 2.55076E-02 2.29640E+00 6.12870E-14 1.56455E-14
 -1       864 2.03064E+01 2.80180E-01-1.24939E-05 8.01458E-02-7.46826E-14-8.09106E-14
 -1       865 2.02646E+01 1.65883E-01-9.02945E-06 1.51407E-01-5.83855E-14-8.52538E-14
 -1       866 2.02164E+01 1.06661E-01-6.23967E-06 2.00069E-01 8.19004E-15-1.34823E-13
 -1       867 2.01648E+01 8.95967E-02-4.03785E-06 2.36283E-01 5.29657E-14-1.51367E-13
 -1       868 2.01100E+01 1.05549E-01-2.66513E-06 2.68477E-01 5.82727E-14-1.04529E-13
 -1       869 2.00506E+01 1.48200E-01-2.42572E-06 3.03418E-01 3.02064E-14-1.04289E-13
 -1       870 1.99836E+01 2.13289E-01-2.92867E-06 3.46417E-01 9.27309E-15-7.99571E-14
 -1       871 1.99046E+01 2.97879E-01-3.11048E-06 4.01603E-01 3.98577E-15-7.79326E-14
 -1       872 1.98076E+01 3.99546E-01-2.39689E-06 4.72108E-01-7.74264E-14-1.04185E-13
 -1       873 1.96852E+01 5.15509E-01-9.59153E-07 5.60242E-01-1.49914E-13-1.29188E-13
 -1       874 1.95284E+01 6.41498E-01 1.35137E-06 6.67827E-01-4.78903E-14-1.96866E-13
 -1       875 1.93266E+01 7.70177E-01 4.39687E-06 7.96876E-01-2.61806E-14-2.77428E-14
 -1       876 1.90678E+01 8.88956E-01 6.14465E-06 9.51020E-01 1.04005E-13-2.33389E-14
 -1       877 1.87401E+01 9.76944E-01 1.00212E-06 1.13835E+00-6.36656E-14 3.65194E-14
 -1       878 1.83328E+01 1.00073E+00-6.01299E-06 1.37659E+00 9.00604E-14 4.46050E-14
 -1       879 1.78411E+01 9.08081E-01 8.00209E-05 1.70208E+00 1.03494E-13 4.72775E-14
 -1       880 1.72787E+01 6.14411E-01 1.03001E-03 2.18120E+00 5.55638E-14-1.44983E-13
 -1       881 1.67025E+01-2.25270E-02 9.79989E-03 2.91269E+00 4.73402E-14-2.55486E-13
 -1       882 2.31797E+01-3.28340E+00 4.74902E-03-1.73244E+00-1.92446E-13-6.20207E-14
 -1       883 1.69271E+01-1.40551E-01 1.29606E-02-3.08303E+00 2.00833E-14-5.49638E-13
 -1       884 1.74112E+01 5.31961E-01 3.75891E-04-2.28107E+00 1.36368E-13-4.91146E-13
 -1       885 1.79354E+01 8.61636E-01 1.35743E-04-1.78076E+00 1.71100E-13-5.20192E-13
 -1       886 1.84050E+01 9.76071E-01 1.74018E-05-1.44123E+00 6.24533E-14-4.57956E-13
 -1       887 1.87995E+01 9.69322E-01 1.44805E-05-1.19100E+00 2.76495E-13-1.77977E-13
 -1       888 1.91193E+01 8.97793E-01 1.70170E-05-9.91922E-01 1.35548E-13-4.17636E-14
 -1       889 1.93717E+01 7.98482E-01 7.40913E-05-8.25044E-01-1.76399E-13-1.17058E-13
 -1       890 1.95630E+01 6.93798E-01-1.03303E-03-6.79505E-01 4.50189E-14-2.12876E-13
 -1       891 1.99859E+01 1.96259E-01 6.18299E-06-4.10520E-01-2.76363E-14-9.87049E-14
 -1       892 2.00266E+01 1.44429E-01 2.69402E-06-3.55982E-01 1.01613E-13-5.71747E-14
 -1       893 1.99031E+01 3.03066E-01 1.40574E-05-5.69781E-01-5.83389E-14 2.97241E-14
 -1       894 1.98653E+01 3.39810E-01 1.93144E-05-6.78308E-01 2.84580E-14 5.86522E-14
 -1       895 1.98379E+01 3.47481E-01 2.62168E-05-8.06631E-01-9.86327E-14 7.90463E-15
 -1       896 1.98336E+01 3.06440E-01 3.32738E-05-9.53076E-01-6.83306E-14 2.68937E-14
 -1       897 1.98739E+01 1.91114E-01 3.15233E-05-1.11313E+00-2.79574E-14 1.62118E-13
 -1       898 1.99924E+01-2.94988E-02-8.74231E-06-1.27695E+00-1.83519E-14 1.86327E-13
 -1       899 2.02389E+01-3.87773E-01-1.05608E-04-1.42371E+00-5.22018E-14 8.73451E-14
 -1       900 2.06781E+01-9.04958E-01-6.05711E-04-1.51255E+00-1.94619E-13 1.94964E-14
 -1       901 2.13932E+01-1.56995E+00-6.72396E-04-1.45964E+00-1.77472E-13-1.40043E-14
 -1       902 2.24429E+01-2.24026E+00 3.24920E-03-1.16572E+00-1.28558E-13-6.28547E-14
 -1       903 2.53269E+01-1.31555E+00-1.17315E-02-1.42403E+00 2.18473E-13 3.20561E-13
 -1       904 2.18432E+01-1.88802E+00 2.82783E-03 1.37907E+00-5.82783E-14 2.29147E-13
 -1       905 2.09827E+01-1.20396E+00 1.26015E-05 1.52384E+00 6.17856E-14 1.86884E-13
 -1       906 2.04255E+01-6.11693E-01-2.42451E-04 1.48927E+00 3.43933E-14-1.24893E-13
 -1       907 2.01002E+01-1.77013E-01-2.74276E-05 1.36215E+00 5.61801E-14-2.71790E-13
 -1       908 1.99320E+01 1.09421E-01 3.66487E-05 1.20147E+00-1.31035E-13-2.31733E-13
 -1       909 1.98625E+01 2.78764E-01 5.50661E-05 1.03488E+00-1.10934E-13-2.09933E-13
 -1       910 1.98509E+01 3.64148E-01 1.98089E-05 8.75841E-01-6.10367E-14-1.51927E-13
 -1       911 1.98693E+01 3.96004E-01-1.21529E-05 7.30207E-01 1.38723E-13-4.43817E-13
 -1       912 1.68910E+01-1.35542E+00 3.00873E-02 3.97358E+00-1.31243E-13 4.81087E-13
 -1       913 2.02873E+01 1.26299E+00-1.97831E-05-4.38210E-01-5.17948E-14-2.08792E-13
 -1       914 1.25735E+01 1.02044E+00 3.97976E-02 9.11550E-02 8.76248E-14 1.42237E-13
 -1       915 1.99444E+01 2.51719E-01 1.03163E-05-4.80971E-01 1.85625E-14-8.04243E-14
 -1       916 2.01476E+01 7.07612E-02-1.32396E-06-2.47223E-01 8.64593E-15-9.41633E-14
 -1       917 1.73572E+01-1.90911E+00 5.47938E-02-4.38139E+00 2.93908E-13-5.17910E-13
 -1       918 2.01454E+01 1.91045E+00-4.43470E-04-1.88251E-01 8.65365E-15-2.25042E-13
 -1       919 1.62483E+01-8.52081E-01 3.71470E-02 3.74982E+00 1.75907E-13-2.63714E-13
 -1       920 2.03356E+01 4.67260E-01-1.51479E-05-2.51514E-02-3.14190E-14-1.09702E-13
 -1       921 2.16326E+01-3.16875E+00 1.25805E-02-2.97998E+00-2.93810E-13-7.92994E-14
 -1       922 2.03408E+01 7.50690E-01 1.96865E-04-1.74301E-01-3.28586E-14-1.50028E-13
 -1       923 2.03062E+01 4.60539E-01-8.34352E-06 4.36552E-02 4.86336E-14-9.00203E-14
 -1       924 2.30964E+01-3.21421E+00 6.17024E-03 1.71540E+00 1.41491E-13 3.62924E-14
 -1       925 2.02925E+01 1.36157E+00 7.09892E-06 1.91982E-01 1.13671E-13-1.83400E-13
 -1       926 2.02824E+01 1.43187E+00 5.67243E-05 6.78412E-02 7.75335E-14-2.11046E-13
 -1       927 2.00666E+01 1.02386E-01 1.36970E-06-3.13884E-01 5.40055E-14-3.62552E-14
 -1       928 2.01066E+01 7.58093E-02 1.54735E-07-2.79615E-01 5.79350E-14-3.78633E-15
 -1       929 2.01899E+01 9.47447E-02-1.11987E-06-2.09175E-01 4.60561E-14-1.32296E-13
 -1       930 1.98541E+01 4.22935E-01 3.77262E-04 6.19492E-01 2.78046E-13-7.89316E-13
 -1       931 1.91330E+01-2.08750E+00 9.80158E-03 3.58682E+00 1.58083E-13 3.20769E-13
 -1       932 1.93984E+01 7.61556E-01-6.32460E-05-2.50331E-01 8.77950E-14 6.22079E-13
 -1       933 1.96818E+01 5.31804E-01 7.29980E-05 5.26951E-01 1.10099E-13 2.63348E-13
 -1       934 1.94019E+01 7.23521E-01-5.93077E-05 2.01382E-01 1.40443E-13-2.53893E-13
 -1       935 1.32028E+01 9.37404E-01 2.77654E-02-1.22804E+00-1.23374E-14 4.06498E-14
 -1       936 1.93589E+01 7.67101E-01-6.92049E-05-2.13479E-02-1.15825E-13-1.38333E-14
 -1       937 2.02734E+01 2.73154E-01-6.12426E-06-7.61886E-02 4.13577E-14-3.01607E-14
 -1       938 2.03159E+01 6.83230E-01 5.55102E-05 1.92735E-01 8.91132E-14-1.06956E-13
 -1       939 2.02965E+01 1.08672E+00-5.67604E-06 4.48199E-01 1.34134E-13-1.13249E-13
 -1       940 1.33566E+01 4.23066E-01 4.20876E-02 2.35570E+00 6.15705E-14-3.44235E-13
 -1       941 1.18545E+01 8.59856E-01 5.12937E-02-8.39342E-01-5.14872E-14-1.81920E-13
 -1       942 1.48322E+01-5.64615E-01 3.41765E-02-3.68061E+00-1.85353E-13-3.10646E-14
 -1       943 1.97975E+01-2.29222E+00 3.02538E-03-3.38918E+00-2.09991E-13-8.46768E-14
 -1       944 2.02583E+01 1.47128E+00 4.71015E-05-3.33059E-01-3.79547E-14-1.84377E-13
 -1       945 2.03092E+01 1.22092E+00-1.91985E-04 2.96214E-01 1.15364E-13-1.49118E-13
 -1       946 2.03786E+01 4.45945E-01-2.72584E-05 1.26693E-02-3.68002E-14-1.20857E-13
 -1       947 2.03012E+01 1.69412E-01-7.06874E-06 1.32758E-01-2.46286E-15-5.46518E-14
 -1       948 2.02405E+01 1.22675E-01-6.23667E-06 1.67977E-01 1.16113E-14-6.55133E-14
 -1       949 2.01706E+01 1.19518E-01-3.78990E-06 1.96058E-01 9.33075E-14-8.95384E-14
 -1       950 2.00917E+01 1.51091E-01-3.76023E-06 2.22701E-01 8.85603E-14-6.80118E-14
 -1       951 2.00020E+01 2.10962E-01-1.19016E-05 2.52323E-01 2.47322E-14-2.63145E-14
 -1       952 1.98976E+01 2.94685E-01-1.96349E-05 2.88123E-01 8.51805E-15-1.21874E-14
 -1       953 1.97727E+01 3.98767E-01-2.71540E-05 3.32305E-01-5.44080E-14-4.14608E-14
 -1       954 1.96196E+01 5.19950E-01-3.54175E-05 3.85985E-01-8.97902E-14-8.30313E-14
 -1       955 1.94286E+01 6.54390E-01-4.71884E-05 4.49448E-01-1.31784E-13 6.02718E-14
 -1       956 1.91873E+01 7.96593E-01-6.45761E-05 5.22560E-01-3.61923E-14-3.61251E-14
 -1       957 1.88800E+01 9.38244E-01-9.15575E-05 6.05679E-01 8.68495E-14-7.90217E-14
 -1       958 1.84866E+01 1.06685E+00-1.32279E-04 7.01607E-01 9.75603E-14-1.13229E-13
 -1       959 1.79802E+01 1.16415E+00-1.69079E-04 8.19234E-01 1.12119E-13 2.07614E-14
 -1       960 1.73222E+01 1.20447E+00-4.12722E-05 9.79738E-01 5.24600E-14 1.18518E-14
 -1       961 1.64544E+01 1.15263E+00 1.53010E-03 1.23003E+00-1.12562E-13-5.66550E-14
 -1       962 1.52833E+01 9.49131E-01 8.32423E-03 1.65337E+00-1.24043E-13-2.29020E-13
 -1       963 2.03795E+01 7.09499E-01-2.98874E-04-8.89650E-02 1.81146E-15-1.10184E-13
 -1       964 1.65091E+01 1.11350E+00 1.24935E-03-1.34704E+00 1.78032E-13-2.38533E-13
 -1       965 1.73658E+01 1.18506E+00-6.22578E-05-1.06407E+00-2.91937E-14-2.48562E-13
 -1       966 1.80199E+01 1.16095E+00-8.53342E-05-8.84418E-01 2.35986E-13-3.98325E-13
 -1       967 1.85255E+01 1.07834E+00-4.87785E-05-7.52419E-01 3.81116E-13-4.38506E-13
 -1       968 1.89185E+01 9.66894E-01-1.61713E-05-6.43772E-01-4.49258E-14-1.01438E-13
 -1       969 1.92210E+01 8.48572E-01-9.92043E-05-5.46372E-01-1.34223E-13 2.53532E-13
 -1       970 1.99656E+01 2.15510E-01 2.65725E-07-3.29928E-01 9.20281E-14 1.86084E-15
 -1       971 2.02326E+01 1.57584E-01-3.35387E-05-1.55962E-01 2.40917E-14-6.38157E-14
 -1       972 1.96014E+01 4.63906E-01-7.92236E-06-6.85107E-01-1.36463E-14 1.27435E-14
 -1       973 1.97007E+01 4.19088E-01-6.19965E-06-5.62362E-01-1.66689E-15 2.05358E-14
 -1       974 1.94267E+01 4.19080E-01-1.44568E-05-1.02340E+00-9.92473E-14 2.92343E-14
 -1       975 1.93904E+01 2.74629E-01-3.97813E-05-1.24834E+00 5.72221E-14-5.28196E-14
 -1       976 1.94382E+01-1.36643E-03-8.80340E-05-1.51428E+00-2.50495E-14-3.47116E-14
 -1       977 1.96371E+01-4.55632E-01-2.65536E-04-1.81357E+00-8.24138E-14 1.25112E-14
 -1       978 2.00815E+01-1.11983E+00 2.92441E-03-2.10963E+00-1.59858E-13-1.44765E-13
 -1       979 2.15195E+01-2.47982E+00 1.15117E-02-2.27670E+00-1.20382E-13-1.91340E-13
 -1       980 2.04456E+01-1.53147E+00 2.33192E-03 2.22225E+00 2.93207E-14-1.79166E-13
 -1       981 1.94204E+01 1.68856E-01-3.23237E-05 1.37710E+00-1.33995E-13-2.61134E-13
 -1       982 1.94270E+01 3.77732E-01 4.97683E-05 1.13151E+00-1.65024E-13-1.33788E-13
 -1       983 1.94926E+01 4.81469E-01 6.79413E-05 9.24649E-01-1.41615E-13 7.32564E-14
 -1       984 1.95851E+01 5.17099E-01 1.85435E-04 7.52182E-01 3.85717E-13-2.56073E-13
 -1       985 1.95150E+01 6.40709E-01-2.02761E-04 3.91653E-01 1.00080E-13-3.15044E-13
 -1       986 1.61493E+01 5.27464E-02 1.05537E-02 2.66328E+00 2.92111E-13 2.52164E-13
 -1       987 1.96276E+01 5.32345E-01-3.07363E-05 6.33190E-01 2.29293E-13-4.77413E-14
 -1       988 1.95053E+01 4.71779E-01-9.21543E-06-8.37223E-01-9.77611E-14-1.39229E-14
 -1       989 2.03411E+01 1.04038E+00 3.33655E-04-1.99223E-01-7.34631E-15-1.60251E-13
 -1       990 1.45055E+01 1.10355E+00 8.17684E-03 8.22541E-01-5.85230E-14 3.27276E-13
 -1       991 1.95256E+01-1.88911E-01-7.36874E-05 1.66040E+00 7.87473E-14-2.59156E-13
 -1       992 1.98191E+01-7.41881E-01-1.27094E-03 1.96681E+00 2.00174E-13-7.82452E-14
 -1       993 2.02337E+01 1.59876E+00-6.63727E-05-1.97794E-01 2.71282E-14-2.38571E-13
 -1       994 1.45213E+01 3.84718E-01 3.10162E-02 2.56447E+00 8.22528E-14-3.63621E-13
 -1       995 1.54065E+01 8.51249E-01 1.58440E-02-1.79680E+00 2.03179E-14-3.05708E-13
 -1       996 2.02830E+01 1.43263E+00 1.94694E-04-6.30729E-02 8.02437E-14-1.83221E-13
 -1       997 2.08133E+01-2.36101E+00 5.53298E-03 2.72996E+00-7.81840E-14-5.00879E-14
 -1       998 2.03494E+01 2.71882E-01-1.16316E-05 8.35653E-02-5.61281E-14-8.99982E-14
 -1       999 1.98847E+01 2.83782E-01 7.90310E-07-3.88544E-01-2.21354E-14-3.56737E-14
 -1      1000 1.80015E+01-1.37950E+00 1.45634E-02-3.51732E+00-2.35455E-13-2.69005E-13
 -1      1001 2.03712E+01 1.00464E+00 3.24668E-05 7.42114E-02 9.28594E-14-1.85137E-13
 -1      1002 2.00398E+01 1.57374E-01-3.73115E-06-2.85048E-01 8.02490E-14-3.74744E-14
 -1      1003 2.03661E+01 9.14734E-01-3.20497E-04 1.32943E-01 9.40107E-14-1.75937E-13
 -1      1004 2.02324E+01 1.10785E-01 9.74345E-06-1.85936E-01 1.55488E-14-1.48227E-13
 -1      1005 1.46299E+01 1.23038E+00 9.12116E-03-1.43070E-01 3.94080E-14 1.44339E-13
 -1      1006 1.94094E+01 6.60417E-01 3.29617E-06 4.94297E-01 1.83173E-14-3.12574E-13
 -1      1007 1.76752E+01-6.15121E-01 4.09021E-03 2.88404E+00 2.05292E-13 5.20831E-13
 -1      1008 2.03606E+01 7.29045E-01 5.66204E-04 1.28072E-01 6.51288E-14-1.74621E-13
 -1      1009 2.01726E+01 9.77213E-02 3.97035E-06-2.18557E-01-1.11704E-14-1.60493E-13
 -1      1010 1.97962E+01 3.54793E-01-3.41102E-06-4.64783E-01-9.20349E-14-9.08167E-15
 -1      1011 1.91545E+01 8.27153E-01-1.80992E-05 1.39865E-01 1.93653E-13-9.12656E-14
 -1      1012 1.29616E+01 1.01214E+00 2.52859E-02 6.91277E-01-2.38459E-14-2.20597E-13
 -1      1013 1.39163E+01 4.23024E-01 2.88634E-02-2.40838E+00-1.20212E-13-9.42527E-14
 -1      1014 2.03565E+01 4.55954E-01 1.03839E-04 2.24781E-03-2.21381E-15-1.77833E-13
 -1      1015 1.92557E+01 7.55565E-01-1.01259E-05 3.33419E-01 2.35962E-14-2.72181E-13
 -1      1016 1.96137E+01 4.69405E-01-3.61118E-05-4.05851E-01-2.40226E-14 6.98670E-15
 -1      1017 2.04087E+01 6.38111E-01 5.03599E-04-2.60301E-02-7.84708E-16-1.50454E-13
 -1      1018 2.02325E+01 1.36431E-01-3.87478E-05 1.16905E-01 5.25513E-14-3.87231E-14
 -1      1019 2.01455E+01 1.50223E-01-8.67994E-06 1.34190E-01 4.16926E-14-6.80193E-14
 -1      1020 2.00452E+01 1.98342E-01-3.40618E-06 1.51003E-01 6.11112E-14-1.37571E-13
 -1      1021 1.99295E+01 2.74016E-01-5.08193E-05 1.69119E-01 8.73780E-14-1.36852E-13
 -1      1022 1.97931E+01 3.73241E-01-7.76442E-05 1.89807E-01-8.00893E-14-2.19805E-13
 -1      1023 1.96297E+01 4.91287E-01-8.97835E-05 2.12751E-01-1.11846E-13-2.16593E-13
 -1      1024 1.94303E+01 6.24036E-01-1.13636E-04 2.36709E-01-4.71308E-14-2.60636E-13
 -1      1025 1.91835E+01 7.66311E-01-1.48106E-04 2.59337E-01-1.05911E-13-1.03551E-13
 -1      1026 1.88746E+01 9.11285E-01-1.99149E-04 2.77312E-01 5.40253E-15-1.74610E-14
 -1      1027 1.84835E+01 1.04992E+00-2.73690E-04 2.86902E-01 6.24716E-14-1.49100E-14
 -1      1028 1.79816E+01 1.17069E+00-3.63067E-04 2.85231E-01 1.18831E-13-1.39613E-13
 -1      1029 1.73254E+01 1.25916E+00-3.96443E-04 2.72698E-01 1.13106E-13-1.65285E-13
 -1      1030 1.64499E+01 1.29766E+00 9.00018E-04 2.50608E-01-6.73787E-14-2.10424E-13
 -1      1031 1.52405E+01 1.27317E+00 2.48266E-03 2.44841E-01-1.54749E-13-2.04194E-13
 -1      1032 2.01085E+01 1.15811E-01-5.56155E-06-2.49629E-01 3.97390E-14-9.60691E-14
 -1      1033 1.64581E+01 1.28746E+00-1.64839E-03-3.43595E-01 4.22582E-14-1.82709E-13
 -1      1034 2.03650E+01 2.48332E-01-6.52953E-05 6.80413E-02-2.74956E-14-6.38105E-14
 -1      1035 1.73342E+01 1.26286E+00-8.76889E-05-3.41320E-01 3.04310E-14 7.33873E-14
 -1      1036 1.79986E+01 1.18571E+00-1.63771E-04-3.38952E-01 3.41298E-13 2.51723E-13
 -1      1037 1.85064E+01 1.07829E+00-5.19745E-04-3.29448E-01 3.86955E-13 9.21194E-14
 -1      1038 1.88984E+01 9.61078E-01-7.28345E-04-3.10800E-01 2.04974E-13 9.22608E-14
 -1      1039 2.03281E+01 2.75077E-01 2.26942E-05-8.52687E-02 6.30985E-14-1.96625E-13
 -1      1040 1.92894E+01 6.06615E-01-4.34416E-05-6.38716E-01-2.88704E-14 8.66708E-14
 -1      1041 1.87595E+01 4.23844E-01-1.69970E-04-1.33755E+00 2.42459E-14 6.98104E-16
 -1      1042 1.89241E+01 5.73767E-01-7.32599E-05-1.03902E+00-6.00610E-14-3.59253E-14
 -1      1043 1.86786E+01-3.80191E-01 1.36955E-03-2.22475E+00-1.41569E-14-1.98644E-13
 -1      1044 1.87527E+01-7.06441E-01 2.83606E-03 2.52545E+00 6.45991E-14 1.73983E-13
 -1      1045 1.90544E+01 6.29276E-01 2.60492E-04 9.16424E-01-1.54112E-13-2.61182E-13
 -1      1046 1.88725E+01 5.26591E-01-2.69745E-05 1.17443E+00-1.15318E-13 5.76871E-14
 -1      1047 1.91075E+01 6.23325E-01-4.80442E-05-8.11896E-01-9.86403E-14 2.12345E-14
 -1      1048 2.03706E+01 1.03588E+00-1.57418E-04 9.90286E-04 5.79639E-14-1.60460E-13
 -1      1049 1.92975E+01 6.71118E-01 2.94197E-04 6.15814E-01 9.73159E-14-2.76332E-13
 -1      1050 2.03517E+01 1.10379E+00-2.32393E-04-1.11098E-01 4.20947E-14-1.79979E-13
 -1      1051 1.91394E+01 8.63140E-01 2.05253E-04-1.37814E-01 3.05985E-13 4.80254E-13
 -1      1052 1.87239E+01 3.07253E-01-3.03257E-04 1.51443E+00 4.98346E-14 3.38778E-13
 -1      1053 1.86641E+01-9.01427E-02-1.62312E-03 1.96303E+00 1.21502E-13 2.48999E-13
 -1      1054 2.02864E+01 1.64900E-01-1.22276E-06-1.44532E-01 2.73561E-14-1.51701E-13
 -1      1055 1.94596E+01 5.49036E-01-4.08560E-05-5.06531E-01-1.63352E-15 5.39993E-14
 -1      1056 1.61817E+01 8.44016E-01 1.46233E-04 1.42011E+00-1.84681E-13 4.43949E-13
 -1      1057 2.03065E+01 1.65450E-01-5.06543E-05 9.61015E-02 2.78954E-16-5.57685E-14
 -1      1058 2.04017E+01 4.00613E-01-2.44920E-06 2.84814E-02-3.14981E-14-1.12632E-13
 -1      1059 1.86515E+01 1.25667E-01-5.68340E-04-1.73125E+00 2.78159E-14-1.54395E-13
 -1      1060 1.91711E+01 6.68621E-01 3.64242E-04 7.52743E-01 2.64006E-13-6.27521E-13
 -1      1061 1.62124E+01-1.15269E-01 1.01825E-02-2.81529E+00-6.21183E-14 4.94625E-14
 -1      1062 1.99796E+01 2.20339E-01-2.50515E-05-2.29530E-01 3.76614E-14-1.05182E-13
 -1      1063 1.91198E+01-1.42839E+00 8.81770E-03-2.97347E+00-1.70401E-13-1.72597E-13
 -1      1064 1.97507E+01 3.81592E-01-2.90159E-05-3.29614E-01-5.43826E-14 2.15362E-14
 -1      1065 2.04131E+01 7.17783E-01 2.63546E-04 1.44150E-02 5.60013E-14-1.36475E-13
 -1      1066 1.70436E+01 3.82130E-01 1.63362E-03 1.97449E+00-1.15504E-14 4.98788E-13
 -1      1067 1.88589E+01 9.41574E-01 9.34155E-04 3.70183E-02 4.10131E-13 3.90730E-13
 -1      1068 2.02389E+01 1.25161E-01-1.86355E-05-1.45332E-01-7.05145E-15-1.84859E-13
 -1      1069 1.38334E+01 1.00646E+00 2.01467E-02-1.03670E+00-7.29125E-14-1.04539E-13
 -1      1070 2.03058E+01 1.63796E-01-3.05381E-05-1.16717E-01 5.48763E-14-2.09116E-13
 -1      1071 1.89385E+01 8.75655E-01-4.00047E-05 2.95531E-01 1.97294E-13 3.03885E-13
 -1      1072 1.98720E+01 2.95900E-01-1.11106E-05-2.72362E-01-1.73966E-14 4.11221E-14
 -1      1073 2.04036E+01 6.67753E-01 1.35138E-05 3.59535E-02 8.47612E-14-1.95921E-13
 -1      1074 2.03880E+01 5.62638E-01 7.29609E-06 2.57444E-02 2.44841E-14-2.31513E-13
 -1      1075 1.79367E+01 6.60793E-01-1.03851E-04-1.32126E+00 1.05997E-13-1.26671E-13
 -1      1076 2.00754E+01 1.62172E-01-5.41788E-05-1.96900E-01 1.25365E-14-1.23437E-13
 -1      1077 2.04058E+01 3.39843E-01 3.58580E-05 1.77377E-02 3.11509E-14-8.35812E-14
 -1      1078 2.01003E+01 1.79581E-01 3.97931E-06 5.19993E-02-4.01268E-14-6.72785E-14
 -1      1079 1.99843E+01 2.42608E-01 2.22150E-04 5.58682E-02-3.26740E-14-2.01576E-13
 -1      1080 1.98480E+01 3.31927E-01 9.95353E-05 5.74207E-02-2.67819E-14-3.29898E-13
 -1      1081 1.96886E+01 4.40462E-01 5.73195E-05 5.55729E-02-6.46619E-14-3.27332E-13
 -1      1082 1.94982E+01 5.64273E-01 5.12574E-05 4.82933E-02-7.11965E-14-3.30803E-13
 -1      1083 1.92678E+01 6.97412E-01 3.41573E-05 3.15631E-02 1.47837E-14-2.04849E-13
 -1      1084 1.89861E+01 8.32709E-01-1.66541E-06-3.34421E-04 2.40681E-14-1.06656E-13
 -1      1085 1.86380E+01 9.61060E-01-7.00051E-05-5.54143E-02 7.78234E-14-9.90817E-14
 -1      1086 1.82029E+01 1.07114E+00-1.89357E-04-1.44815E-01-2.10369E-14-9.14979E-14
 -1      1087 1.76496E+01 1.14948E+00-3.78007E-04-2.84455E-01 3.22913E-14-1.82918E-13
 -1      1088 1.69265E+01 1.18024E+00-1.00818E-03-4.98520E-01 1.06952E-14-2.60647E-13
 -1      1089 1.60014E+01 1.11883E+00-5.80461E-03-8.10371E-01-2.64117E-15-1.83271E-13
 -1      1090 2.03589E+01 2.58701E-01-6.61142E-05-7.94537E-02 4.59866E-16-1.99784E-13
 -1      1091 2.03813E+01 3.86316E-01 1.05310E-05-3.73935E-02 3.22423E-14-2.87501E-13
 -1      1092 1.76597E+01 1.16071E+00-1.81771E-04 2.31827E-01 4.26564E-13 9.82215E-14
 -1      1093 1.82216E+01 1.09702E+00 3.97957E-04 1.05176E-01 4.41987E-13 3.74137E-13
 -1      1094 1.85661E+01 1.02366E+00 5.42099E-04 6.48495E-02 4.30185E-13 3.99501E-13
 -1      1095 1.74451E+01-3.70966E-01 2.23990E-03-2.71329E+00-8.17152E-14-1.41867E-13
 -1      1096 2.04179E+01 6.96555E-01 1.06787E-04-8.34369E-03 2.34132E-14-1.34045E-13
 -1      1097 1.89351E+01 7.67675E-01-7.31266E-05-5.25621E-01 1.56193E-15-2.82826E-14
 -1      1098 1.58146E+01 1.21885E+00 1.19129E-03 3.76122E-01-2.49771E-14-3.36211E-16
 -1      1099 1.85409E+01 8.14537E-01-1.54214E-04 8.11881E-01 1.71185E-13 7.59379E-14
 -1      1100 1.83086E+01 7.80840E-01-1.00544E-04-9.63758E-01-2.47935E-14-1.90613E-13
 -1      1101 1.75297E+01 4.09412E-01 6.02926E-04-1.82793E+00 3.09950E-14-1.39478E-13
 -1      1102 2.01618E+01 1.28140E-01 4.29627E-05-1.70395E-01-3.76703E-14-1.54985E-13
 -1      1103 1.81912E+01 7.35408E-01-1.06309E-03 1.10676E+00 3.01440E-13 5.63511E-13
 -1      1104 1.94080E+01 5.92001E-01-7.11828E-05-2.99159E-01 5.72097E-15-1.80119E-14
 -1      1105 1.69219E+01 1.19197E+00 1.38336E-04 4.19418E-01 1.64527E-14-4.05532E-14
 -1      1106 1.78127E+01 5.48014E-01-1.80388E-04 1.51947E+00-1.75178E-14 7.46797E-13
 -1      1107 1.86421E+01 8.05810E-01-6.97179E-05-7.08529E-01-3.68398E-14-1.06451E-13
 -1      1108 1.91892E+01 6.90421E-01-7.57387E-05-3.94022E-01 2.69003E-14 2.11704E-14
 -1      1109 2.02008E+01 1.49613E-01 3.26677E-05 4.75266E-02 1.97423E-14-7.29148E-14
 -1      1110 2.02873E+01 1.58625E-01 8.67921E-05 4.13542E-02 2.62624E-14-5.01677E-14
 -1      1111 2.03570E+01 2.17979E-01 8.51795E-05 3.24040E-02 1.36157E-14-5.48203E-14
 -1      1112 1.54688E+01 6.22247E-01 4.76854E-03-1.93719E+00-1.38532E-13-1.30600E-13
 -1      1113 2.04202E+01 4.93138E-01 1.25783E-04 4.77368E-03 3.85845E-14-1.19617E-13
 -1      1114 1.98963E+01 2.88503E-01-5.22882E-05-1.45749E-01-6.93849E-14-8.27437E-14
 -1      1115 1.97568E+01 3.82314E-01-5.57038E-05-1.81843E-01-7.49455E-14-4.59141E-14
 -1      1116 1.95956E+01 4.85896E-01-6.26764E-05-2.30848E-01-4.73492E-14-4.65517E-14
 -1      1117 2.04238E+01 5.04529E-01-1.39359E-04-3.81236E-03 5.41159E-14-1.12442E-13
 -1      1118 1.87559E+01 8.30800E-01-1.44108E-03 6.30077E-01 2.85319E-13-6.93644E-14
 -1      1119 1.66800E+01 4.83840E-01 8.88804E-03-1.90653E+00-6.49219E-14-3.90191E-14
 -1      1120 2.02981E+01 1.59362E-01 3.08351E-05-7.03434E-02 2.89893E-14-2.10236E-13
 -1      1121 2.00183E+01 2.12757E-01 2.75838E-04-1.20754E-01 7.78022E-15-1.90938E-13
 -1      1122 1.72244E+01 8.77063E-01 2.65411E-03 1.13803E+00-1.59660E-13 6.81630E-13
 -1      1123 2.02178E+01 1.40379E-01-6.82329E-06-8.62448E-02-4.37189E-14-2.13709E-13
 -1      1124 2.00456E+01 2.03609E-01-2.10324E-04-4.67703E-02-6.42383E-14-1.12929E-13
 -1      1125 2.03636E+01 2.32173E-01-5.17917E-05-5.32887E-02 2.40337E-14-2.13912E-13
 -1      1126 2.04057E+01 4.60940E-01-1.40795E-04-1.48568E-02 5.88310E-14-2.03480E-13
 -1      1127 1.81522E+01 9.78559E-01 4.54686E-04 6.07540E-01 4.36549E-13 5.13924E-13
 -1      1128 1.85915E+01 9.39443E-01-2.73895E-04 4.19021E-01 2.95016E-13 4.36042E-13
 -1      1129 1.77196E+01 9.61815E-01 6.25480E-04 8.36145E-01 3.40847E-13 6.63119E-13
 -1      1130 2.01389E+01 1.60106E-01-7.90186E-05-6.98005E-02-4.64610E-14-2.50610E-13
 -1      1131 2.04104E+01 3.88622E-01 2.94634E-05-1.74156E-02 1.84918E-14-1.52409E-13
 -1      1132 2.79432E+01 9.08014E+00 2.32375E+00-6.69617E+00-3.69704E-14 8.80351E-13
 -1      1133 2.05352E+01 6.22338E+00 2.09358E-01-3.90515E+00-1.78468E-14 1.86240E-14
 -1      1134 1.94286E+01 5.85119E+00 7.53326E-02-2.89011E+00-1.21014E-14-3.23196E-13
 -1      1135 1.90253E+01 5.72573E+00 6.04142E-02-2.23723E+00-6.72379E-15-4.75322E-13
 -1      1136 1.88435E+01 5.67036E+00 5.76890E-02-1.70347E+00-3.90486E-15-5.39410E-13
 -1      1137 1.87536E+01 5.64282E+00 5.57701E-02-1.23567E+00-1.62717E-15-5.60721E-13
 -1      1138 1.87072E+01 5.62837E+00 5.40027E-02-8.05279E-01 3.43909E-16-5.57054E-13
 -1      1139 1.86847E+01 5.62123E+00 5.27293E-02-3.93255E-01 1.56602E-15-5.40943E-13
 -1      1140 1.86783E+01 5.61918E+00 5.23227E-02 8.54315E-03 2.11257E-15-5.25370E-13
 -1      1141 1.86856E+01 5.62155E+00 5.28344E-02 4.10738E-01 5.15647E-15-5.01894E-13
 -1      1142 1.87092E+01 5.62904E+00 5.42247E-02 8.24060E-01 5.40800E-15-4.65811E-13
 -1      1143 1.87573E+01 5.64414E+00 5.64277E-02 1.25697E+00 6.80705E-15-4.07341E-13
 -1      1144 1.88490E+01 5.67228E+00 5.86120E-02 1.72922E+00 9.75782E-15-3.21205E-13
 -1      1145 1.90308E+01 5.72739E+00 6.04958E-02 2.27056E+00 1.02106E-14-1.80058E-13
 -1      1146 1.94249E+01 5.84824E+00 6.91670E-02 2.93058E+00 1.46966E-14 7.19095E-14
 -1      1147 2.04414E+01 6.17832E+00 1.52944E-01 3.87964E+00 1.43219E-14 5.27068E-13
 -1      1148 2.51983E+01 7.98827E+00 1.42913E+00 5.84506E+00 2.33147E-14 1.41173E-12
 -1      1149 2.87896E+01 3.61432E+00 1.27068E+00-4.21555E+00-1.42414E-13 1.41304E-12
 -1      1150 2.02050E+01-1.77632E-01-6.16066E-01-1.10183E-01-5.21805E-14 1.06684E-12
 -1      1151 1.88087E+01-9.63763E-02-2.36334E-01 6.23446E-02-1.78538E-14 6.25125E-13
 -1      1152 1.84729E+01-4.81605E-02-5.96655E-02 4.03346E-02-1.11326E-14 3.33997E-13
 -1      1153 1.84164E+01-2.47462E-02-1.53007E-02 2.65879E-02-1.34196E-14 1.77108E-13
 -1      1154 1.84976E+01-1.32978E-02-5.17270E-03 1.88071E-02 9.09429E-16 9.00391E-14
 -1      1155 1.86454E+01-6.99952E-03-1.82937E-03 1.38142E-02 2.98481E-15 4.53682E-14
 -1      1156 1.88215E+01-3.42797E-03-8.06615E-06 1.03449E-02-1.08937E-14-5.27946E-14
 -1      1157 1.90050E+01-1.46537E-03 1.01000E-03 7.78071E-03 2.62198E-15-2.00073E-13
 -1      1158 1.91853E+01-5.32131E-04 1.34440E-03 5.82498E-03-3.82090E-15-3.23544E-13
 -1      1159 1.93584E+01-3.09506E-04 1.10040E-03 4.33034E-03-5.21914E-15-5.77914E-13
 -1      1160 1.95256E+01-6.14965E-04 3.73498E-04 3.22291E-03 6.24481E-15-6.03489E-13
 -1      1161 1.96914E+01-1.34413E-03-7.75839E-04 2.47152E-03-4.52306E-15-5.89191E-13
 -1      1162 1.98639E+01-2.44105E-03-2.32633E-03 2.07740E-03 1.86529E-14-5.60857E-13
 -1      1163 2.00538E+01-3.87949E-03-4.28963E-03 2.07387E-03 2.24038E-14-3.73311E-13
 -1      1164 2.02749E+01-5.64605E-03-6.69844E-03 2.53206E-03-5.54078E-14-3.30490E-13
 -1      1165 2.05441E+01-7.71769E-03-9.58458E-03 3.57034E-03-1.45112E-14-3.81869E-13
 -1      1166 2.08816E+01-1.00251E-02-1.29348E-02 5.36470E-03 9.05103E-15-3.08972E-13
 -1      1167 2.13103E+01-1.23886E-02-1.66001E-02 8.15245E-03 8.96234E-15-3.68674E-13
 -1      1168 2.18552E+01-1.44097E-02-2.01155E-02 1.22101E-02-3.91427E-14-4.75111E-13
 -1      1169 2.25397E+01-1.52981E-02-2.23729E-02 1.77600E-02-1.42334E-15-7.10237E-13
 -1      1170 2.33776E+01-1.36366E-02-2.10997E-02 2.47156E-02 1.39982E-14-5.08461E-13
 -1      1171 2.43585E+01-7.16062E-03-1.22501E-02 3.21107E-02 1.90301E-14-2.23117E-13
 -1      1172 2.54209E+01 7.15492E-03 1.00888E-02 3.70567E-02-3.34193E-14-4.75481E-13
 -1      1173 2.64136E+01 3.19664E-02 5.16699E-02 3.33424E-02-1.47105E-14-6.09006E-13
 -1      1174 2.70562E+01 6.62827E-02 1.11192E-01 1.09022E-02-4.41661E-15-4.04590E-13
 -1      1175 2.69442E+01 9.90945E-02 1.67744E-01-4.03875E-02 4.48704E-14-2.27179E-13
 -1      1176 2.56837E+01 1.04172E-01 1.71852E-01-1.17370E-01 1.28821E-14-1.05721E-13
 -1      1177 2.32264E+01 4.86566E-02 7.00389E-02-1.86686E-01-5.93015E-15-7.24421E-14
 -1      1178 2.02503E+01-6.65603E-02-1.28613E-01-1.87465E-01 3.46875E-14-9.83935E-14
 -1      1179 1.81217E+01-1.73578E-01-3.04295E-01-8.34922E-02-3.49738E-14-3.50484E-14
 -1      1180 1.80556E+01-1.76508E-01-3.09265E-01 7.51852E-02 5.62571E-15-3.36481E-13
 -1      1181 2.00898E+01-7.40048E-02-1.40337E-01 1.84265E-01 1.19089E-15-7.33108E-13
 -1      1182 2.30542E+01 4.38080E-02 6.13461E-02 1.89171E-01-3.15026E-15-8.32417E-13
 -1      1183 2.55624E+01 1.02922E-01 1.69660E-01 1.21857E-01 5.98644E-14-5.39041E-13
 -1      1184 2.68875E+01 1.00525E-01 1.69950E-01 4.39477E-02-2.98433E-14-4.92682E-13
 -1      1185 2.70479E+01 6.84069E-02 1.14866E-01-9.01100E-03 6.95373E-14-8.70042E-13
 -1      1186 2.64285E+01 3.37971E-02 5.47549E-02-3.28878E-02-1.87415E-14-7.77794E-13
 -1      1187 2.54380E+01 8.35633E-03 1.20593E-02-3.74231E-02 2.09196E-14-5.53856E-13
 -1      1188 2.43643E+01-6.51675E-03-1.12258E-02-3.28531E-02 1.14624E-14-3.15668E-13
 -1      1189 2.33653E+01-1.34227E-02-2.07138E-02-2.56072E-02-6.55899E-14-5.57502E-13
 -1      1190 2.25067E+01-1.54260E-02-2.24220E-02-1.87185E-02-2.48239E-15-1.05996E-12
 -1      1191 2.18021E+01-1.48712E-02-2.05485E-02-1.32171E-02-3.44004E-14-1.12230E-12
 -1      1192 2.12403E+01-1.32633E-02-1.75328E-02-9.19562E-03-2.09951E-14-9.86164E-13
 -1      1193 2.08015E+01-1.14843E-02-1.46803E-02-6.37843E-03 3.56253E-14-6.89645E-13
 -1      1194 2.04664E+01-1.00176E-02-1.26997E-02-4.34378E-03 6.95209E-14-2.53864E-13
 -1      1195 2.02207E+01-9.07794E-03-1.19134E-02-2.54456E-03-1.24844E-14-3.87176E-13
 -1      1196 2.00583E+01-8.46301E-03-1.17562E-02-1.39939E-04-4.71564E-14-4.36065E-13
 -1      1197 1.99838E+01-8.53616E-03-8.27737E-03 4.41727E-03 8.99860E-14-6.80335E-13
 -1      1198 1.99881E+01 4.20002E-03 9.24850E-03 4.12801E-03 1.34273E-13-1.99528E-13
 -1      1199 2.77701E+01 5.25451E-01 3.77067E-01 1.96592E+00-2.46539E-14 2.11309E-12
 -1      1200 2.00626E+01-6.62112E-02-5.73441E-01 1.29571E-01 1.02175E-14 1.79828E-12
 -1      1201 1.88836E+01-4.06182E-02-1.93201E-01 1.95237E-02 1.43288E-14 1.45530E-12
 -1      1202 1.85023E+01-2.14747E-02-5.05850E-02 1.60477E-03-4.46258E-16 1.27284E-12
 -1      1203 1.84298E+01-1.25213E-02-1.34915E-02-3.87225E-03 2.35185E-15 1.09742E-12
 -1      1204 1.85049E+01-7.60215E-03-4.83699E-03-5.24620E-03 1.87964E-14 9.34305E-13
 -1      1205 1.86501E+01-4.64782E-03-2.24865E-03-5.33021E-03 2.09078E-15 8.87172E-13
 -1      1206 1.88252E+01-2.84344E-03-8.65288E-04-4.92157E-03-1.17729E-14 9.71410E-13
 -1      1207 1.90085E+01-1.79574E-03-2.60359E-05-4.27273E-03 8.52329E-15 8.58513E-13
 -1      1208 1.91892E+01-1.28417E-03 3.07952E-04-3.49888E-03 1.84365E-14 6.95297E-13
 -1      1209 1.93631E+01-1.17316E-03 1.80616E-04-2.67312E-03 7.53017E-15 6.03574E-13
 -1      1210 1.95308E+01-1.37282E-03-3.39471E-04-1.84994E-03 1.59122E-14 5.31276E-13
 -1      1211 1.96962E+01-1.81695E-03-1.18634E-03-1.07689E-03 8.82749E-15 4.49559E-13
 -1      1212 1.98660E+01-2.44660E-03-2.29969E-03-4.03942E-04-1.09319E-14 3.06729E-13
 -1      1213 2.00484E+01-3.19401E-03-3.61132E-03 1.07209E-04 5.86312E-15 1.84888E-13
 -1      1214 2.02529E+01-3.96377E-03-5.02133E-03 3.73653E-04-1.31602E-14 1.30621E-13
 -1      1215 2.04895E+01-4.60958E-03-6.36394E-03 2.82373E-04-1.26041E-14 1.60912E-13
 -1      1216 2.07670E+01-4.90659E-03-7.36112E-03-3.14977E-04 3.13272E-14 4.47004E-14
 -1      1217 2.10914E+01-4.52418E-03-7.56569E-03-1.59656E-03 3.89277E-15-1.96375E-13
 -1      1218 2.14624E+01-3.01349E-03-6.30704E-03-3.74035E-03 1.50029E-14-1.30233E-13
 -1      1219 2.18698E+01 1.58384E-04-2.67885E-03-6.84673E-03-1.93392E-14 2.48914E-13
 -1      1220 2.22867E+01 5.47179E-03 4.34607E-03-1.07842E-02-1.50758E-16 3.34975E-13
 -1      1221 2.26640E+01 1.30445E-02 1.55336E-02-1.49410E-02 2.13641E-14 2.87739E-14
 -1      1222 2.29256E+01 2.21103E-02 3.05916E-02-1.79267E-02 5.90240E-15-2.48067E-13
 -1      1223 2.29706E+01 3.04043E-02 4.69646E-02-1.74020E-02 2.89786E-15-8.57101E-14
 -1      1224 2.26908E+01 3.39129E-02 5.87430E-02-1.04725E-02 1.03723E-14 1.98234E-13
 -1      1225 2.20099E+01 2.79843E-02 5.71892E-02 4.77875E-03-1.61772E-14 4.26700E-13
 -1      1226 2.09444E+01 1.03862E-02 3.47300E-02 2.67883E-02-2.07777E-15 1.37543E-13
 -1      1227 1.96579E+01-1.52498E-02-8.18950E-03 4.86882E-02-3.76967E-14 3.19987E-13
 -1      1228 1.84626E+01-3.88323E-02-5.82686E-02 5.98233E-02-4.43656E-15 5.72806E-13
 -1      1229 1.77259E+01-4.90459E-02-9.31694E-02 5.18455E-02-3.80754E-14 5.37393E-13
 -1      1230 1.77037E+01-4.15669E-02-9.53261E-02 2.55483E-02 1.27459E-14 4.49158E-13
 -1      1231 1.84029E+01-2.20616E-02-6.49624E-02-8.20996E-03-3.63988E-15 3.02432E-13
 -1      1232 1.95772E+01-9.45805E-04-1.92217E-02-3.54942E-02-5.41563E-14 3.46431E-13
 -1      1233 2.08613E+01 1.38574E-02 2.09235E-02-4.79433E-02 1.29042E-15 4.23744E-13
 -1      1234 2.19374E+01 2.01008E-02 4.32730E-02-4.57233E-02-1.41243E-14 8.91578E-14
 -1      1235 2.26342E+01 1.96467E-02 4.73809E-02-3.45414E-02 2.85588E-14-2.84297E-13
 -1      1236 2.29284E+01 1.55886E-02 3.96099E-02-2.08115E-02-2.08043E-14-3.61951E-13
 -1      1237 2.28915E+01 1.05028E-02 2.72626E-02-8.79162E-03 4.95725E-14-6.29837E-13
 -1      1238 2.26306E+01 5.88876E-03 1.53699E-02-2.17186E-04 3.08506E-14-6.77293E-13
 -1      1239 2.22474E+01 2.34398E-03 6.20055E-03 4.91749E-03-2.30614E-14-2.87617E-13
 -1      1240 2.18200E+01-8.24896E-05 1.32816E-04 7.39300E-03 3.92142E-14-2.85744E-14
 -1      1241 2.14001E+01-1.60467E-03-3.38046E-03 8.13507E-03-2.66979E-14 1.18757E-13
 -1      1242 2.10176E+01-2.52588E-03-5.17319E-03 7.92406E-03-3.88086E-14 4.93140E-13
 -1      1243 2.06871E+01-3.14285E-03-6.06672E-03 7.30881E-03-2.08193E-14 4.96288E-13
 -1      1244 2.04148E+01-3.73055E-03-6.80824E-03 6.61041E-03 1.28765E-13-2.29965E-13
 -1      1245 2.02035E+01-4.48619E-03-7.96561E-03 5.89024E-03 3.34812E-14-7.58739E-13
 -1      1246 2.00579E+01-5.13044E-03-9.13388E-03 4.63229E-03-3.43529E-14-5.42453E-13
 -1      1247 1.99875E+01-3.54632E-03-6.41209E-03 1.19978E-03 1.49217E-14-3.67255E-13
 -1      1248 1.99909E+01 3.20342E-03 8.16379E-03-3.26902E-03 1.71553E-14-2.93421E-13
 -1      1249 2.00029E+01-9.57157E-03 7.55694E-03-3.23871E-03-3.62390E-13-3.71989E-14
 -1      1250 1.99945E+01-1.04162E-02-7.19072E-03-3.11747E-03 1.29215E-13 2.77312E-15
 -1      1251 1.99944E+01 6.17456E-02-8.66991E-03 2.04020E-03 5.43217E-13 6.31051E-14
 -1      1252 1.99967E+01 1.96592E-01-5.13651E-03 4.61382E-03 3.95423E-13-6.87996E-14
 -1      1253 1.99996E+01 3.64637E-01-7.06502E-04 5.51995E-03 2.25149E-13-1.30636E-13
 -1      1254 2.00024E+01 5.34936E-01 3.33652E-03 5.24795E-03-4.79788E-13 3.49511E-14
 -1      1255 2.00048E+01 6.82551E-01 6.60536E-03 4.20392E-03-7.23152E-13 3.91932E-14
 -1      1256 2.00066E+01 7.86740E-01 8.95523E-03 2.45124E-03-9.84590E-13-2.25285E-14
 -1      1257 2.00074E+01 8.30236E-01 1.00923E-02 2.93688E-04-1.36526E-12 9.83079E-15
 -1      1258 2.00072E+01 8.05372E-01 9.82069E-03-1.99970E-03-8.52456E-13 1.95316E-13
 -1      1259 2.00058E+01 7.13966E-01 8.01194E-03-4.09877E-03-9.91454E-13-1.15397E-13
 -1      1260 2.00036E+01 5.69489E-01 4.76986E-03-5.64341E-03-1.97468E-12 7.71870E-14
 -1      1261 2.00004E+01 3.92698E-01 2.14554E-04-6.17557E-03-2.36572E-12 8.91494E-14
 -1      1262 1.99969E+01 2.11632E-01-5.22824E-03-5.38804E-03-1.00786E-12-1.40638E-14
 -1      1263 1.99941E+01 6.17851E-02-1.01519E-02-2.86664E-03-1.22144E-13 4.00764E-14
 -1      1264 1.99925E+01-9.95228E-03-6.96720E-03 6.55716E-03 1.83952E-13-1.51964E-13
 -1      1265 2.00037E+01-1.23823E-02 8.66810E-03 4.31065E-03 1.65878E-13 1.12495E-13
 -1      1266-1.00566E+00-2.37882E+01-3.66861E+00-2.14844E+00 2.44416E-13 1.64542E-13
 -1      1267-1.68141E+00-1.47540E+01-2.96916E+00-3.88958E+00 1.18883E-12 4.02067E-13
 -1      1268 3.88761E-01-2.30522E+00-1.79349E+00-4.41157E-02 1.81499E-12 1.28197E-12
 -1      1269 9.64774E+00 7.92767E+00-2.01600E-01 8.62645E+00 1.74571E-12 1.50457E-12
 -1      1270 2.68960E+01 1.11610E+01 1.56159E+00 1.65521E+01 7.40297E-13 1.05116E-12
 -1      1271 4.69201E+01 7.91164E+00 2.97308E+00 1.72049E+01 2.75280E-13 5.85754E-13
 -1      1272 6.27735E+01 2.90267E+00 3.93698E+00 9.54317E+00 3.12181E-14-4.21552E-13
 -1      1273 6.57627E+01 1.90462E+00 4.07534E+00-3.33361E+00 5.52822E-14-9.48602E-13
 -1      1274 5.58348E+01 5.16558E+00 3.48958E+00-1.45415E+01 4.67071E-13-1.56974E-12
 -1      1275 3.70697E+01 9.98979E+00 2.27318E+00-1.81288E+01 1.09068E-12-1.90736E-12
 -1      1276 1.78623E+01 1.07053E+01 7.33644E-01-1.33099E+01 1.45306E-12-1.69087E-12
 -1      1277 4.62190E+00 4.62199E+00-8.46354E-01-4.71432E+00 1.35847E-12-1.15863E-12
 -1      1278-9.75836E-01-6.68129E+00-2.26290E+00 2.08209E+00 5.54445E-13-3.15636E-13
 -1      1279-1.56511E+00-1.88145E+01-3.33293E+00 3.74219E+00 2.15161E-13-3.38340E-14
 -1      1280-1.20538E+00-2.50992E+01-3.87861E+00 4.98095E-01 1.52350E-13-7.79654E-14
 -1      1281-1.64310E+00-2.20139E+01-3.66094E+00-3.37165E+00-5.38125E-13-1.30812E-13
 -1      1282-1.80123E+00-1.17525E+01-2.89343E+00-3.75076E+00-8.45102E-13-4.84668E-13
 -1      1283 2.23467E+00 8.31931E-01-1.46580E+00 1.97692E+00-1.82121E-12-1.44784E-12
 -1      1284 1.39591E+01 9.05165E+00 1.51682E-01 1.09358E+01-1.93912E-12-2.01661E-12
 -1      1285 3.33156E+01 1.03480E+01 2.00553E+00 1.75263E+01-1.41320E-12-2.45071E-12
 -1      1286 5.40253E+01 6.47948E+00 3.52068E+00 1.58346E+01-7.53952E-13-1.88161E-12
 -1      1287 6.76852E+01 2.06565E+00 4.42549E+00 6.02643E+00-1.72303E-13-3.11862E-13
 -1      1288 6.63772E+01 2.54075E+00 4.31902E+00-7.54169E+00-1.17212E-13 9.66449E-13
 -1      1289 5.15889E+01 6.90763E+00 3.32617E+00-1.68972E+01-5.71154E-13 1.61648E-12
 -1      1290 2.97514E+01 1.07176E+01 1.65565E+00-1.70368E+01-9.54348E-13 1.60538E-12
 -1      1291 1.10496E+01 8.29162E+00-1.78470E-01-9.46478E+00-6.01741E-13 9.02389E-13
 -1      1292 7.08184E-01-1.79960E+00-1.82810E+00-3.03374E-01-6.27498E-13 3.63043E-13
 -1      1293-1.87314E+00-1.50937E+01-3.09844E+00 4.35037E+00-1.04827E-12 3.51441E-13
 -1      1294-1.11014E+00-2.39729E+01-3.70658E+00 2.41190E+00-9.58122E-13 1.56958E-13
 -1      1295 2.22479E+01 1.83722E+00-7.25576E-01-2.79073E+00-5.70655E-14 6.68687E-13
 -1      1296 2.03484E+01 4.68839E+00-4.85934E-02-3.30830E+00-1.33601E-13-1.43205E-13
 -1      1297 2.08526E+01 4.80804E+00-1.13486E-01-4.16179E+00-1.79828E-13 3.58463E-14
 -1      1298 1.95272E+01 4.99240E+00-1.95357E-02-2.65640E+00-1.20973E-13-3.89390E-13
 -1      1299 1.98220E+01 5.08841E+00 2.17943E-04-3.04721E+00-1.39798E-13-2.86479E-13
 -1      1300 2.05162E+01 3.95163E+00-2.59056E-02-3.07601E+00-2.28127E-13-1.24512E-13
 -1      1301 1.91848E+01 5.08432E+00-3.57409E-03-2.07208E+00-8.43492E-14-4.99635E-13
 -1      1302 1.93315E+01 5.13881E+00 1.06169E-02-2.36525E+00-1.02217E-13-4.51052E-13
 -1      1303 1.97509E+01 4.36548E+00-2.42436E-02-2.49082E+00-1.85980E-13-3.21257E-13
 -1      1304 1.90141E+01 5.13208E+00 3.35181E-03-1.56624E+00-5.45683E-14-5.51338E-13
 -1      1305 1.90895E+01 5.16136E+00 1.26098E-02-1.81635E+00-6.22731E-14-5.31891E-13
 -1      1306 1.93946E+01 4.55605E+00-1.94961E-02-1.93236E+00-1.20528E-13-4.22280E-13
 -1      1307 1.89242E+01 5.16274E+00 6.66429E-03-1.11804E+00-2.35866E-14-5.58314E-13
 -1      1308 1.89650E+01 5.17858E+00 1.27952E-02-1.33973E+00-3.75056E-14-5.51507E-13
 -1      1309 1.92120E+01 4.66273E+00-1.60022E-02-1.44579E+00-8.16855E-14-4.53727E-13
 -1      1310 1.88750E+01 5.18329E+00 8.25527E-03-6.94348E-01-3.44364E-15-5.54497E-13
 -1      1311 1.88970E+01 5.19185E+00 1.20992E-02-9.04748E-01-8.74778E-15-5.63296E-13
 -1      1312 1.91123E+01 4.72905E+00-1.38861E-02-1.00472E+00-2.85978E-14-4.68608E-13
 -1      1313 1.88522E+01 5.19564E+00 9.34009E-03-2.89338E-01 2.60681E-14-5.42075E-13
 -1      1314 1.88616E+01 5.19932E+00 1.11300E-02-4.91606E-01 1.69504E-14-5.47585E-13
 -1      1315 1.90585E+01 4.76875E+00-1.28458E-02-5.88981E-01 8.58753E-15-4.60638E-13
 -1      1316 1.88487E+01 5.20068E+00 1.02721E-02 1.08345E-01 4.80436E-14-5.20670E-13
 -1      1317 1.88484E+01 5.20055E+00 1.02026E-02-9.14584E-02 4.01057E-14-5.34118E-13
 -1      1318 1.90353E+01 4.78714E+00-1.24071E-02-1.89116E-01 5.48353E-14-4.47989E-13
 -1      1319 1.88633E+01 5.19895E+00 1.12150E-02 5.09065E-01 7.25145E-14-4.95744E-13
 -1      1320 1.88532E+01 5.19500E+00 9.27449E-03 3.06388E-01 6.57043E-14-5.09917E-13
 -1      1321 1.90361E+01 4.78650E+00-1.24269E-02 2.05904E-01 9.26971E-14-4.23515E-13
 -1      1322 1.89000E+01 5.19069E+00 1.21530E-02 9.23661E-01 9.40229E-14-4.61275E-13
 -1      1323 1.88773E+01 5.18197E+00 8.18402E-03 7.12322E-01 8.80513E-14-4.84128E-13
 -1      1324 1.90610E+01 4.76670E+00-1.29160E-02 6.06449E-01 1.31351E-13-4.02917E-13
 -1      1325 1.89691E+01 5.17684E+00 1.29567E-02 1.35724E+00 1.18396E-13-3.96305E-13
 -1      1326 1.89274E+01 5.16055E+00 6.50338E-03 1.13418E+00 1.05583E-13-4.33757E-13
 -1      1327 1.91164E+01 4.72558E+00-1.39426E-02 1.01998E+00 1.63529E-13-3.70703E-13
 -1      1328 1.90979E+01 5.15728E+00 1.28710E-02 1.84225E+00 1.49396E-13-3.03594E-13
 -1      1329 1.90205E+01 5.12755E+00 3.20569E-03 1.58930E+00 1.33961E-13-3.56819E-13
 -1      1330 1.92187E+01 4.65629E+00-1.60953E-02 1.46336E+00 2.08396E-13-2.98404E-13
 -1      1331 1.93416E+01 5.13279E+00 1.01824E-02 2.39953E+00 1.74014E-13-1.50709E-13
 -1      1332 1.91941E+01 5.07644E+00-4.31020E-03 2.10222E+00 1.60438E-13-2.43514E-13
 -1      1333 1.94071E+01 4.54282E+00-1.99450E-02 1.95930E+00 2.53649E-13-1.97720E-13
 -1      1334 1.98473E+01 5.09753E+00 5.99876E-03 3.08544E+00 1.84866E-13 1.23748E-13
 -1      1335 1.95384E+01 4.98341E+00-2.04791E-02 2.69828E+00 1.68116E-13-3.94754E-14
 -1      1336 1.97711E+01 4.34584E+00-2.45414E-02 2.52927E+00 2.73517E-13-2.02893E-14
 -1      1337 2.10887E+01 4.90434E+00 8.18638E-03 4.05448E+00 1.42442E-13 6.12094E-13
 -1      1338 2.03229E+01 4.73196E+00-4.79347E-02 3.41758E+00 1.47188E-13 3.17114E-13
 -1      1339 2.05545E+01 3.91471E+00-2.24310E-02 3.17942E+00 2.65003E-13 2.82080E-13
 -1      1340 2.71812E+01 3.20345E+00 9.28424E-01 4.58120E+00 5.49005E-14 1.45933E-12
 -1      1341 2.20030E+01 3.52047E+00-1.81911E-01 3.88519E+00 6.41986E-14 8.77798E-13
 -1      1342 2.20959E+01 2.56083E+00-3.26528E-02 3.45721E+00 2.25472E-13 7.12319E-13
 -1      1343 2.14065E+01 3.59655E-01-7.63249E-01 1.18461E+00 1.09447E-13 1.43285E-12
 -1      1344 2.19806E+01 1.31452E-01-4.00756E-01-1.28631E+00-1.57124E-13 7.27030E-13
 -1      1345 2.06572E+01 3.06707E-01-1.64797E-01-8.06370E-01-1.41144E-13 5.39763E-13
 -1      1346 2.00594E+01 1.53470E-01-7.35096E-02-4.02802E-01-1.03310E-13 4.76998E-13
 -1      1347 1.95887E+01 9.12315E-02-1.49209E-02-3.30630E-01-9.47298E-14 3.24879E-13
 -1      1348 2.09542E+01 3.69173E-01-1.04220E-01-1.27503E+00-2.33348E-13 2.44391E-13
 -1      1349 1.92311E+01 6.45722E-02 3.04770E-03-1.35894E-01-7.87686E-14 2.72692E-13
 -1      1350 1.90760E+01 4.13859E-02 1.32339E-02-1.18041E-01-7.48030E-14 1.68161E-13
 -1      1351 1.99031E+01 1.33951E-01-3.51779E-02-5.05059E-01-1.71300E-13 1.46227E-13
 -1      1352 1.89158E+01 3.16316E-02 1.32783E-02-2.82595E-02-4.94015E-14 1.33605E-13
 -1      1353 1.88960E+01 1.95514E-02 1.11085E-02-1.88293E-02-4.72721E-14 5.55025E-14
 -1      1354 1.94259E+01 5.56267E-02-8.55061E-03-1.70588E-01-1.17593E-13 6.10172E-14
 -1      1355 1.88405E+01 1.62115E-02 8.83440E-03 2.52501E-02-1.88276E-14 3.92516E-14
 -1      1356 1.88831E+01 9.38168E-03 6.50178E-03 2.99928E-02-1.98656E-14 1.24345E-14
 -1      1357 1.92178E+01 2.46357E-02-3.57951E-03-1.09393E-02-6.15766E-14-8.55913E-15
 -1      1358 1.88847E+01 8.21896E-03 4.74767E-03 5.19384E-02-1.77401E-14 2.05912E-15
 -1      1359 1.89563E+01 4.00575E-03 3.73423E-03 5.40324E-02-1.50950E-14-2.19347E-14
 -1      1360 1.91633E+01 1.06646E-02-2.34036E-03 6.92243E-02-4.40988E-14-4.98052E-14
 -1      1361 1.89889E+01 3.77287E-03 2.54251E-03 6.40874E-02-3.24560E-14-2.01662E-14
 -1      1362 1.90725E+01 1.09556E-03 2.33944E-03 6.46777E-02-3.13954E-14-7.61414E-14
 -1      1363 1.91941E+01 3.57734E-03-1.50439E-03 1.08534E-01-4.58028E-14-5.69397E-14
 -1      1364 1.91213E+01 1.33398E-03 1.45853E-03 6.82681E-02-2.21688E-14-1.03970E-13
 -1      1365 1.92080E+01-3.41902E-04 1.61057E-03 6.80735E-02-4.24320E-14-1.50036E-13
 -1      1366 1.92714E+01-5.96906E-05-8.24644E-04 1.25632E-01-7.06210E-14-4.83270E-14
 -1      1367 1.92650E+01 1.66063E-04 9.01626E-04 6.84740E-02-6.07219E-14-1.69039E-13
 -1      1368 1.93504E+01-8.07616E-04 1.19436E-03 6.79859E-02-7.60310E-14-2.70877E-13
 -1      1369 1.93732E+01-1.65120E-03-3.81247E-04 1.30968E-01-8.84510E-14-8.62755E-14
 -1      1370 1.94115E+01-1.24494E-04 5.95076E-04 6.73744E-02-7.11400E-14-2.83244E-13
 -1      1371 1.94947E+01-5.78943E-04 9.47192E-04 6.69516E-02-4.34685E-14-3.60351E-13
 -1      1372 1.94876E+01-1.88405E-03-1.81541E-04 1.31119E-01-1.10175E-13-1.05165E-13
 -1      1373 1.95585E+01 2.40833E-04 4.21090E-04 6.69026E-02-2.45726E-14-4.18045E-13
 -1      1374 1.96407E+01 1.85720E-04 8.08835E-04 6.68254E-02-2.71872E-14-4.34318E-13
 -1      1375 1.96090E+01-1.12357E-03-1.89758E-04 1.30625E-01-7.44144E-14-1.79893E-13
 -1      1376 1.97079E+01 1.13918E-03 3.23363E-04 6.85748E-02-1.06937E-14-4.50847E-13
 -1      1377 1.97920E+01 1.40033E-03 7.48369E-04 6.90803E-02-2.57390E-16-4.54324E-13
 -1      1378 1.97367E+01 4.35382E-04-3.68187E-04 1.32887E-01-3.39295E-14-3.23312E-13
 -1      1379 1.98649E+01 2.51106E-03 2.67234E-04 7.36865E-02 2.49811E-14-4.16389E-13
 -1      1380 1.99553E+01 3.02665E-03 7.44373E-04 7.49943E-02 3.97039E-14-3.87726E-13
 -1      1381 1.98735E+01 2.70324E-03-6.90531E-04 1.40678E-01 1.88340E-14-3.33513E-13
 -1      1382 2.00373E+01 4.33998E-03 2.24193E-04 8.34427E-02 8.06307E-14-3.79136E-13
 -1      1383 2.01401E+01 5.05667E-03 7.76415E-04 8.57732E-02 8.99611E-15-2.98809E-13
 -1      1384 2.00248E+01 5.66210E-03-1.14239E-03 1.56462E-01 5.47829E-14-2.97372E-13
 -1      1385 2.02361E+01 6.63534E-03 1.64121E-04 9.90385E-02-2.56418E-14-2.70571E-13
 -1      1386 2.03587E+01 7.49321E-03 8.18896E-04 1.02624E-01-3.50050E-14-2.98403E-13
 -1      1387 2.01988E+01 9.33987E-03-1.71803E-03 1.82594E-01 2.32321E-14-2.78942E-13
 -1      1388 2.04745E+01 9.40982E-03 4.93467E-05 1.21683E-01-2.27217E-14-2.28617E-13
 -1      1389 2.06258E+01 1.03196E-02 8.34388E-04 1.26768E-01 2.21394E-15-2.43456E-13
 -1      1390 2.04057E+01 1.37767E-02-2.41578E-03 2.21411E-01-3.25586E-15-1.67887E-13
 -1      1391 2.07681E+01 1.26398E-02-1.70640E-04 1.52528E-01 1.00657E-14-2.53510E-13
 -1      1392 2.09586E+01 1.34454E-02 7.66412E-04 1.59350E-01 2.21559E-14-2.04491E-13
 -1      1393 2.06576E+01 1.89653E-02-3.23104E-03 2.75171E-01 1.33209E-14-1.52931E-13
 -1      1394 2.11348E+01 1.61908E-02-5.61482E-04 1.92433E-01-2.46771E-14-2.46447E-13
 -1      1395 2.13758E+01 1.66059E-02 5.35258E-04 2.01154E-01-5.16657E-14-3.00839E-13
 -1      1396 2.09683E+01 2.47350E-02-4.14389E-03 3.45716E-01-3.38275E-14-2.02421E-13
 -1      1397 2.15932E+01 1.96777E-02-1.19502E-03 2.41409E-01-5.59498E-14-3.77133E-13
 -1      1398 2.18960E+01 1.91846E-02 4.81509E-05 2.51975E-01-1.15098E-13-4.87886E-13
 -1      1399 2.13522E+01 3.05297E-02-5.09520E-03 4.33659E-01-1.29211E-13-2.64158E-13
 -1      1400 2.21605E+01 2.22193E-02-2.10957E-03 2.97522E-01-6.29039E-14-4.76487E-13
 -1      1401 2.25329E+01 1.99234E-02-7.51190E-04 3.09374E-01-1.37091E-14-4.83317E-13
 -1      1402 2.18223E+01 3.50071E-02-5.94040E-03 5.36708E-01-1.48761E-13-3.11111E-13
 -1      1403 2.28463E+01 2.20465E-02-3.20368E-03 3.54920E-01 8.86225E-14-4.36018E-13
 -1      1404 2.32879E+01 1.65188E-02-1.75292E-03 3.66454E-01 1.20584E-13-2.80387E-13
 -1      1405 2.23867E+01 3.53870E-02-6.36452E-03 6.46598E-01 4.42198E-14-2.80138E-13
 -1      1406 2.36437E+01 1.60024E-02-4.02096E-03 4.00689E-01 4.49530E-14-3.12911E-13
 -1      1407 2.41352E+01 5.25904E-03-2.44241E-03 4.08399E-01-3.68572E-14-3.18461E-13
 -1      1408 2.30421E+01 2.65883E-02-5.74572E-03 7.44083E-01 8.73928E-14-2.76544E-13
 -1      1409 2.45120E+01-7.55056E-04-3.44749E-03 4.10841E-01-5.07103E-14-2.91343E-13
 -1      1410 2.50008E+01-1.87180E-02-1.64180E-03 4.08240E-01-2.68082E-14-3.84120E-13
 -1      1411 2.37641E+01 6.37535E-04-2.99746E-03 7.92102E-01-3.22023E-14-2.81476E-13
 -1      1412 2.53547E+01-3.38653E-02 4.07302E-04 3.47626E-01-1.33114E-14-2.94764E-13
 -1      1413 2.57380E+01-5.91560E-02 2.38816E-03 3.24720E-01-1.38466E-14-2.88419E-13
 -1      1414 2.44931E+01-5.20501E-02 3.42575E-03 7.29770E-01 4.29864E-15-6.20649E-14
 -1      1415 2.59964E+01-8.55482E-02 9.42815E-03 1.64663E-01 3.32234E-14-1.84117E-13
 -1      1416 2.61154E+01-1.12187E-01 1.06086E-02 1.10274E-01 5.21753E-14-1.53257E-13
 -1      1417 2.51200E+01-1.36153E-01 1.48676E-02 4.75916E-01 7.57085E-14 5.32066E-14
 -1      1418 2.61804E+01-1.44690E-01 2.26033E-02-1.67736E-01 3.12059E-14-1.92740E-13
 -1      1419 2.58550E+01-1.55243E-01 2.02361E-02-2.56765E-01 3.78760E-14-1.79343E-13
 -1      1420 2.54804E+01-2.35375E-01 3.03997E-02-3.95052E-02 1.00423E-14 5.62042E-14
 -1      1421 2.56312E+01-1.73358E-01 3.20261E-02-6.06401E-01 4.43777E-14-1.30104E-13
 -1      1422 2.47656E+01-1.41344E-01 2.11303E-02-7.06744E-01-4.32692E-14-1.50532E-13
 -1      1423 2.53790E+01-2.91404E-01 4.30837E-02-7.94698E-01 8.75671E-14-1.35003E-13
 -1      1424 2.42323E+01-1.15855E-01 2.21257E-02-9.74893E-01 2.87097E-14-6.60583E-14
 -1      1425 2.29763E+01-2.76767E-02 1.87276E-03-1.02756E+00-2.41014E-14-5.39568E-14
 -1      1426 2.46808E+01-2.13902E-01 3.68531E-02-1.56109E+00 4.35173E-14-3.88925E-14
 -1      1427 2.22816E+01 5.14445E-02-1.23311E-02-9.97286E-01-9.51079E-14-8.25728E-15
 -1      1428 2.11027E+01 1.61893E-01-3.61570E-02-9.35103E-01-3.53086E-14-5.67324E-14
 -1      1429 2.34866E+01 4.08823E-02-2.93584E-03-1.88568E+00-7.33181E-14 2.06779E-15
 -1      1430 2.05844E+01 2.41322E-01-5.42913E-02-5.07200E-01-5.15629E-14-8.29475E-14
 -1      1431 2.00780E+01 2.95291E-01-6.52760E-02-3.35423E-01-8.41376E-14-1.40920E-13
 -1      1432 2.22701E+01 3.65183E-01-6.22991E-02-1.34677E+00-4.28303E-14-2.04892E-13
 -1      1433 2.00615E+01 2.97695E-01-6.57765E-02 2.90336E-01-9.99548E-14-1.84019E-13
 -1      1434 2.05157E+01 2.48936E-01-5.55508E-02 4.65460E-01-5.23678E-14-2.86993E-13
 -1      1435 2.17252E+01 5.18767E-01-9.53895E-02-4.21905E-02-1.74853E-13-1.87923E-13
 -1      1436 2.10106E+01 1.72290E-01-3.80912E-02 9.12040E-01-4.53006E-14-3.58547E-13
 -1      1437 2.21643E+01 6.29939E-02-1.48325E-02 9.81547E-01-1.26392E-13-5.28605E-13
 -1      1438 2.22131E+01 3.79155E-01-6.56323E-02 1.28602E+00-1.27939E-13-5.00086E-14
 -1      1439 2.28578E+01-1.80616E-02 2.95954E-04 1.03417E+00-1.41857E-14-4.60548E-13
 -1      1440 2.41230E+01-1.09172E-01 2.12477E-02 9.86551E-01 1.01849E-13-4.47586E-13
 -1      1441 2.34061E+01 5.98905E-02-5.58499E-03 1.87749E+00-4.55903E-14-1.64500E-13
 -1      1442 2.46695E+01-1.38289E-01 2.08560E-02 7.28787E-01 9.64437E-14-3.54675E-13
 -1      1443 2.55611E+01-1.73320E-01 3.19742E-02 6.28897E-01 6.73749E-14-2.56024E-13
 -1      1444 2.46150E+01-2.04793E-01 3.55859E-02 1.59239E+00 1.31199E-13-7.02632E-14
 -1      1445 2.58003E+01-1.56536E-01 2.05691E-02 2.78374E-01-9.85670E-14-2.31717E-13
 -1      1446 2.61518E+01-1.47561E-01 2.33433E-02 1.87819E-01-7.99725E-14-3.06437E-13
 -1      1447 2.53423E+01-2.91849E-01 4.33470E-02 8.35813E-01-5.66214E-15-5.21232E-14
 -1      1448 2.60983E+01-1.15305E-01 1.11643E-02-9.64340E-02 3.02709E-14-3.66442E-13
 -1      1449 2.59960E+01-8.90106E-02 1.00389E-02-1.52905E-01-8.55219E-15-3.68414E-13
 -1      1450 2.54702E+01-2.40515E-01 3.13080E-02 7.12211E-02-7.22686E-14 1.19595E-13
 -1      1451 2.57429E+01-6.20650E-02 2.72153E-03-3.19750E-01-6.08871E-14-5.53948E-13
 -1      1452 2.53657E+01-3.64415E-02 7.45645E-04-3.44232E-01-6.32506E-14-5.15643E-13
 -1      1453 2.51253E+01-1.41870E-01 1.56545E-02-4.60243E-01-8.90885E-14-3.02532E-13
 -1      1454 2.50118E+01-2.07235E-02-1.50021E-03-4.09845E-01 3.56184E-14-2.84085E-13
 -1      1455 2.45210E+01-2.27979E-03-3.33131E-03-4.13390E-01 1.24556E-13-2.34510E-13
 -1      1456 2.45027E+01-5.62716E-02 3.93086E-03-7.28116E-01 3.77927E-14-1.20810E-13
 -1      1457 2.41407E+01 4.11795E-03-2.40136E-03-4.13908E-01 5.66110E-14-2.41078E-13
 -1      1458 2.36423E+01 1.52906E-02-4.00006E-03-4.06665E-01-1.27511E-13-2.88339E-13
 -1      1459 2.37696E+01-1.83345E-03-2.72588E-03-7.99775E-01 1.37310E-13 2.74208E-14
 -1      1460 2.32810E+01 1.60111E-02-1.72678E-03-3.73803E-01-1.54476E-13-4.26065E-13
 -1      1461 2.28303E+01 2.18936E-02-3.19492E-03-3.62428E-01-1.82812E-13-6.05410E-13
 -1      1462 2.30383E+01 2.54234E-02-5.64027E-03-7.56784E-01-2.09438E-13-2.67721E-13
 -1      1463 2.25108E+01 1.98738E-02-6.94273E-04-3.17107E-01-1.31930E-13-7.65726E-13
 -1      1464 2.21287E+01 2.24911E-02-2.06458E-03-3.05202E-01-2.18944E-14-8.34504E-13
 -1      1465 2.23712E+01 3.51174E-02-6.37650E-03-6.61111E-01-2.87362E-13-4.57513E-13
 -1      1466 2.18586E+01 1.95360E-02 1.55320E-04-2.58929E-01 5.95307E-14-7.51912E-13
 -1      1467 2.15472E+01 2.03750E-02-1.09169E-03-2.48119E-01 5.15690E-14-7.95451E-13
 -1      1468 2.17953E+01 3.54364E-02-6.05013E-03-5.50566E-01 4.83290E-14-4.94880E-13
 -1      1469 2.13260E+01 1.74340E-02 6.89478E-04-2.06097E-01 4.60894E-15-5.02274E-13
 -1      1470 2.10789E+01 1.74516E-02-4.02969E-04-1.96886E-01 8.95662E-14-5.23331E-13
 -1      1471 2.13160E+01 3.17115E-02-5.31575E-03-4.44513E-01 2.12299E-13-2.17820E-13
 -1      1472 2.09021E+01 1.49743E-02 9.30760E-04-1.60596E-01 1.81632E-13-4.64444E-13
 -1      1473 2.07104E+01 1.47510E-02-4.68908E-06-1.52898E-01 1.73354E-13-2.45351E-13
 -1      1474 2.09276E+01 2.69957E-02-4.52448E-03-3.50636E-01 2.50255E-13 5.26760E-15
 -1      1475 2.05726E+01 1.29456E-02 9.03920E-04-1.21753E-01 1.28546E-13-1.53676E-13
 -1      1476 2.04285E+01 1.28171E-02 9.42765E-05-1.15160E-01 1.13303E-13 7.77468E-14
 -1      1477 2.06204E+01 2.29410E-02-3.86843E-03-2.69892E-01 2.44310E-13 1.99733E-13
 -1      1478 2.03249E+01 1.17859E-02 5.70208E-04-8.74653E-02-3.81344E-14-1.13104E-13
 -1      1479 2.02232E+01 1.18800E-02-1.17242E-04-8.13753E-02-9.04055E-14-2.61954E-13
 -1      1480 2.03843E+01 2.04809E-02-3.44688E-03-1.99557E-01 3.14171E-14-3.72274E-15
 -1      1481 2.01500E+01 1.15993E-02-7.38038E-05-5.51469E-02-4.56045E-14-1.87110E-13
 -1      1482 2.00889E+01 1.16898E-02-3.21081E-04-4.88218E-02 1.21810E-14-2.54038E-13
 -1      1483 2.02109E+01 2.00496E-02-3.18927E-03-1.35161E-01-9.18998E-14 3.94939E-14
 -1      1484 2.00421E+01 1.30408E-02-1.96398E-04-2.27684E-02 8.66964E-14-2.63199E-13
 -1      1485 2.00210E+01 1.02936E-02 1.07086E-03-1.59614E-02 8.48904E-14-6.16703E-14
 -1      1486 2.00928E+01 2.11482E-02-2.77341E-03-7.33556E-02 9.60948E-14 1.39588E-13
 -1      1487 1.99958E+01 2.80949E-05 2.95071E-03 5.12214E-03 1.62422E-14 4.39607E-14
 -1      1488 2.00182E+01 1.14359E-02-3.90808E-04-1.29701E-02 1.44621E-13 9.58036E-14
 -1      1489 2.02377E+01 7.54944E-02-1.52088E-01 4.84460E-01 1.09142E-13 1.19449E-12
 -1      1490 2.15088E+01 2.16049E-01-2.29261E-01 7.21437E-01 9.73388E-14 1.35127E-12
 -1      1491 2.17098E+01 8.81667E-01-8.53882E-02 2.06558E+00 1.83062E-13 9.20278E-13
 -1      1492 1.93082E+01 3.24062E-02-2.13401E-02 1.86569E-01 7.51205E-14 9.88699E-13
 -1      1493 1.97298E+01 1.13602E-01-6.26985E-02 2.38567E-01 7.75699E-14 1.09966E-12
 -1      1494 2.02840E+01 1.87721E-01-5.51595E-02 7.87150E-01 1.67380E-13 7.68687E-13
 -1      1495 1.89256E+01 1.51621E-02 5.66116E-03 5.39120E-02 5.10078E-14 8.47038E-13
 -1      1496 1.90649E+01 5.16588E-02 9.83009E-04 8.02243E-02 5.39586E-14 9.22547E-13
 -1      1497 1.95385E+01 7.19130E-02-1.21438E-02 2.99789E-01 1.19455E-13 6.10723E-13
 -1      1498 1.88149E+01 7.22932E-03 6.96605E-03-8.91938E-03 6.49433E-14 7.18876E-13
 -1      1499 1.88299E+01 2.59597E-02 1.11056E-02 5.51383E-03 4.33403E-14 7.93823E-13
 -1      1500 1.92032E+01 3.11892E-02-2.46323E-03 8.38116E-02 9.95801E-14 4.93074E-13
 -1      1501 1.88422E+01 3.39500E-03 4.76098E-03-3.97791E-02 3.70580E-14 6.20910E-13
 -1      1502 1.87981E+01 1.40100E-02 8.54842E-03-3.15676E-02 4.07454E-14 6.85264E-13
 -1      1503 1.90879E+01 1.35432E-02-1.63747E-03-2.20925E-02 8.77189E-14 4.32092E-13
 -1      1504 1.89398E+01 1.34877E-03 3.25147E-03-5.42163E-02-1.15617E-14 6.49683E-13
 -1      1505 1.88679E+01 7.63349E-03 5.40764E-03-4.95594E-02-2.27021E-15 6.27862E-13
 -1      1506 1.90922E+01 5.00617E-03-1.68409E-03-7.51482E-02 9.47202E-15 4.28489E-13
 -1      1507 1.90712E+01 2.51772E-04 2.44121E-03-5.97332E-02 3.14158E-14 6.30745E-13
 -1      1508 1.89878E+01 4.01554E-03 3.48547E-03-5.71993E-02 3.97772E-15 6.19189E-13
 -1      1509 1.91609E+01 6.19316E-04-1.47513E-03-1.00270E-01-2.50993E-15 3.78883E-13
 -1      1510 1.92164E+01-2.54923E-04 1.93733E-03-6.05541E-02 4.01031E-14 5.20390E-13
 -1      1511 1.91302E+01 1.97937E-03 2.40189E-03-5.92514E-02 5.34444E-14 5.95746E-13
 -1      1512 1.92631E+01-1.54154E-03-1.16732E-03-1.10194E-01 7.95323E-14 3.20812E-13
 -1      1513 1.93652E+01-3.57772E-04 1.54038E-03-5.93480E-02 5.61879E-14 4.40707E-13
 -1      1514 1.92802E+01 9.66127E-04 1.74588E-03-5.86665E-02 3.84481E-14 4.85939E-13
 -1      1515 1.93816E+01-2.34138E-03-9.20513E-04-1.12321E-01 8.08770E-14 2.75175E-13
 -1      1516 1.95137E+01-1.69037E-04 1.18121E-03-5.79298E-02 3.54774E-14 4.35436E-13
 -1      1517 1.94312E+01 6.70247E-04 1.31166E-03-5.74253E-02 3.07380E-14 4.58809E-13
 -1      1518 1.95076E+01-2.24034E-03-7.87044E-04-1.11402E-01 5.47577E-14 2.60949E-13
 -1      1519 1.96625E+01 2.36903E-04 8.39075E-04-5.75956E-02 6.28315E-14 2.99152E-13
 -1      1520 1.95814E+01 9.06297E-04 1.00920E-03-5.69271E-02 5.76777E-14 3.88340E-13
 -1      1521 1.96378E+01-1.51226E-03-7.70783E-04-1.10695E-01 8.09886E-14 2.36118E-13
 -1      1522 1.98151E+01 8.04730E-04 5.07066E-04-5.92968E-02 4.17602E-14 2.17066E-13
 -1      1523 1.97330E+01 1.55067E-03 7.94941E-04-5.81909E-02 4.78630E-14 2.68420E-13
 -1      1524 1.97727E+01-3.35963E-04-8.63528E-04-1.12531E-01 7.85001E-14 1.38456E-13
 -1      1525 1.99773E+01 1.48448E-03 1.82551E-04-6.37210E-02-3.03766E-15 1.73094E-13
 -1      1526 1.98906E+01 2.50842E-03 6.42186E-04-6.19558E-02 2.79036E-15 1.99669E-13
 -1      1527 1.99154E+01 1.15604E-03-1.05558E-03-1.18600E-01 3.20837E-14 7.77894E-14
 -1      1528 2.01563E+01 2.21808E-03-1.33390E-04-7.13060E-02-8.37264E-15 1.31472E-13
 -1      1529 2.00609E+01 3.68738E-03 5.30358E-04-6.87097E-02 8.13157E-15 1.67370E-13
 -1      1530 2.00708E+01 2.84273E-03-1.33520E-03-1.30062E-01 3.83466E-15 9.93036E-14
 -1      1531 2.03602E+01 2.92345E-03-4.32702E-04-8.21851E-02-3.64728E-14 2.02024E-13
 -1      1532 2.02513E+01 4.97124E-03 4.41093E-04-7.86524E-02-3.47666E-15 1.51038E-13
 -1      1533 2.02452E+01 4.58114E-03-1.68350E-03-1.47526E-01 5.78780E-15 1.58509E-13
 -1      1534 2.05966E+01 3.47468E-03-6.93804E-04-9.60535E-02 4.14805E-14 8.80368E-14
 -1      1535 2.04699E+01 6.18682E-03 3.57303E-04-9.15853E-02 3.26288E-14 1.11568E-13
 -1      1536 2.04448E+01 6.16752E-03-2.06606E-03-1.70894E-01 7.02362E-14 1.27428E-13
 -1      1537 2.08714E+01 3.67829E-03-8.70866E-04-1.11940E-01 8.90713E-14-4.35737E-14
 -1      1538 2.07233E+01 7.06319E-03 2.64876E-04-1.06712E-01 5.61905E-14 2.67087E-14
 -1      1539 2.06751E+01 7.28938E-03-2.42049E-03-1.99030E-01 1.04198E-13 1.05574E-14
 -1      1540 2.11864E+01 3.24937E-03-8.78172E-04-1.27868E-01-1.22005E-15-1.81453E-13
 -1      1541 2.10158E+01 7.18448E-03 1.58224E-04-1.22338E-01 6.35465E-14-8.10615E-14
 -1      1542 2.09394E+01 7.46948E-03-2.63951E-03-2.29260E-01 1.25320E-13 1.14466E-14
 -1      1543 2.15365E+01 1.79939E-03-5.71712E-04-1.40427E-01-5.19443E-14-5.72563E-14
 -1      1544 2.13461E+01 5.94836E-03 5.13677E-05-1.35481E-01-6.51758E-14-1.47245E-13
 -1      1545 2.12360E+01 6.01310E-03-2.55124E-03-2.56669E-01-2.64035E-14-1.01097E-13
 -1      1546 2.19049E+01-1.13662E-03 2.61797E-04-1.44339E-01-8.66697E-14 1.54481E-13
 -1      1547 2.17042E+01 2.56288E-03-5.45127E-06-1.41452E-01-1.06023E-13 3.58723E-14
 -1      1548 2.15564E+01 1.99278E-03-1.90464E-03-2.73325E-01-1.64031E-13-2.45619E-14
 -1      1549 2.22592E+01-5.98215E-03 1.88146E-03-1.32268E-01 5.55709E-14 1.21687E-13
 -1      1550 2.20668E+01-3.84950E-03 9.05637E-05-1.33627E-01 5.90312E-14 2.12157E-13
 -1      1551 2.18811E+01-5.65421E-03-3.80574E-04-2.67697E-01-3.48484E-15-1.58476E-14
 -1      1552 2.25468E+01-1.28387E-02 4.48356E-03-9.53982E-02 1.05104E-13-9.63526E-14
 -1      1553 2.23932E+01-1.39287E-02 4.90831E-04-1.03803E-01 8.44472E-14 6.18568E-14
 -1      1554 2.21763E+01-1.77797E-02 2.33331E-03-2.24943E-01 1.44857E-13 2.48317E-14
 -1      1555 2.26948E+01-2.10001E-02 7.94982E-03-2.55579E-02-4.31643E-15-1.21819E-13
 -1      1556 2.26225E+01-2.74197E-02 1.33130E-03-4.38720E-02-3.33501E-16-1.32580E-13
 -1      1557 2.23928E+01-3.42671E-02 6.34868E-03-1.29241E-01 7.16077E-14 1.35014E-14
 -1      1558 2.26184E+01-2.83234E-02 1.14555E-02 8.02280E-02-4.22336E-14 7.05339E-14
 -1      1559 2.26771E+01-4.21679E-02 2.57885E-03 5.04069E-02-6.86638E-14-7.87777E-14
 -1      1560 2.24679E+01-5.27961E-02 1.12417E-02 3.03374E-02-7.77668E-14-4.55044E-14
 -1      1561 2.22432E+01-3.08608E-02 1.31197E-02 2.12638E-01-9.62203E-14 2.88498E-13
 -1      1562 2.24764E+01-5.31345E-02 3.78372E-03 1.73213E-01-3.94320E-14 1.76713E-13
 -1      1563 2.23368E+01-6.73609E-02 1.57037E-02 2.49450E-01-1.39608E-13 1.70230E-13
 -1      1564 2.15449E+01-2.38471E-02 1.02404E-02 3.43028E-01 2.49393E-14 3.76935E-13
 -1      1565 2.19659E+01-5.26865E-02 3.87595E-03 3.01733E-01-2.07343E-14 3.57214E-13
 -1      1566 2.19552E+01-6.80080E-02 1.74226E-02 4.95323E-01-7.82846E-14 2.76767E-13
 -1      1567 2.05953E+01-4.79542E-03 9.19869E-04 4.23891E-01 1.56247E-14 2.30496E-13
 -1      1568 2.11599E+01-3.38593E-02 1.51127E-03 3.94382E-01 6.54346E-14 3.14054E-13
 -1      1569 2.13327E+01-4.41363E-02 1.39504E-02 6.99454E-01 1.10684E-13 3.51965E-13
 -1      1570 1.95863E+01 2.26452E-02-1.34596E-02 4.04802E-01-1.71791E-13 4.02046E-13
 -1      1571 2.01795E+01 3.69467E-03-3.78335E-03 4.02152E-01-1.42889E-13 2.32508E-13
 -1      1572 2.05645E+01 7.54478E-03 4.61791E-03 7.70791E-01-1.21175E-13 3.18282E-13
 -1      1573 1.87959E+01 4.74563E-02-2.70350E-02 2.62781E-01 5.74540E-14 4.58134E-13
 -1      1574 1.92539E+01 4.88943E-02-1.03622E-02 2.94587E-01-2.37822E-14 3.85747E-13
 -1      1575 1.98333E+01 7.45154E-02-7.78338E-03 6.37016E-01-1.14141E-13 3.01197E-13
 -1      1576 1.84834E+01 5.66923E-02-3.19316E-02 2.91778E-02-4.08215E-14 3.71870E-13
 -1      1577 1.86563E+01 8.18704E-02-1.45756E-02 8.79209E-02-4.68375E-16 3.92485E-13
 -1      1578 1.93594E+01 1.28175E-01-1.76534E-02 2.99232E-01 1.25039E-14 2.99173E-13
 -1      1579 1.87604E+01 4.50249E-02-2.43298E-02-2.15148E-01 2.96499E-14 3.74908E-13
 -1      1580 1.85868E+01 8.61048E-02-1.31609E-02-1.50582E-01 2.54310E-15 4.01692E-13
 -1      1581 1.93047E+01 1.39029E-01-2.04414E-02-1.43171E-01-1.27502E-14 2.58104E-13
 -1      1582 1.95280E+01 1.92498E-02-8.05510E-03-3.82915E-01 8.59274E-14 3.53578E-13
 -1      1583 1.90694E+01 6.07324E-02-6.22578E-03-3.35408E-01 5.99416E-14 4.51732E-13
 -1      1584 1.96873E+01 9.92105E-02-1.60407E-02-5.33691E-01 2.37857E-14 4.10802E-13
 -1      1585 2.05317E+01-7.40475E-03 8.52762E-03-4.29121E-01-7.30835E-14 2.34514E-13
 -1      1586 1.99386E+01 2.05629E-02 2.62981E-03-4.10697E-01 4.38408E-15 2.32710E-13
 -1      1587 2.03720E+01 2.99775E-02-8.05344E-03-7.44923E-01 9.10049E-14 2.50971E-13
 -1      1588 2.14897E+01-2.47860E-02 1.85755E-02-3.66018E-01-1.22580E-14 1.60399E-13
 -1      1589 2.09265E+01-1.57177E-02 9.15082E-03-3.74437E-01 8.74301E-16 2.05044E-13
 -1      1590 2.11439E+01-3.53053E-02-6.65471E-04-7.41076E-01-3.28019E-14 3.88353E-14
 -1      1591 2.22023E+01-3.02505E-02 2.04869E-02-2.41301E-01 6.82865E-14-4.00929E-14
 -1      1592 2.17842E+01-3.69044E-02 1.12361E-02-2.65635E-01 7.74858E-14 9.78176E-14
 -1      1593 2.18064E+01-7.36779E-02 3.89206E-03-5.74108E-01 1.44280E-13-5.32924E-14
 -1      1594 2.25914E+01-2.69090E-02 1.67113E-02-1.05450E-01 8.81270E-14-2.95547E-13
 -1      1595 2.23621E+01-4.20775E-02 9.56823E-03-1.34006E-01 5.15872E-14-1.81384E-13
 -1      1596 2.22434E+01-8.15900E-02 5.55002E-03-3.34115E-01 1.45418E-13-1.42607E-13
 -1      1597 2.26774E+01-1.94714E-02 1.07547E-02 8.25524E-03 7.51820E-14-5.16514E-13
 -1      1598 2.26233E+01-3.64355E-02 6.12424E-03-1.66992E-02 3.19736E-14-4.27582E-13
 -1      1599 2.24269E+01-6.87153E-02 5.26657E-03-9.98724E-02 1.32561E-13-3.47698E-13
 -1      1600 2.25330E+01-1.15693E-02 5.20805E-03 8.66282E-02 4.40576E-15-5.53985E-13
 -1      1601 2.26105E+01-2.61454E-02 2.68550E-03 6.86023E-02 2.58322E-14-4.45273E-13
 -1      1602 2.23907E+01-4.73343E-02 4.12350E-03 8.34618E-02 2.53729E-14-4.04906E-13
 -1      1603 2.22432E+01-5.10819E-03 1.18638E-03 1.30538E-01-1.88029E-13-1.22429E-13
 -1      1604 2.24024E+01-1.56352E-02 1.96868E-04 1.19593E-01-1.04241E-13-4.02934E-13
 -1      1605 2.21966E+01-2.63035E-02 2.84145E-03 2.02467E-01-2.06010E-13-7.90175E-14
 -1      1606 2.18820E+01-6.16834E-04-1.20909E-03 1.47453E-01-3.03561E-14 1.15455E-13
 -1      1607 2.20803E+01-7.10283E-03-1.18439E-03 1.42223E-01-6.52067E-14 1.39680E-14
 -1      1608 2.19089E+01-9.85682E-03 1.74979E-03 2.63561E-01-2.02972E-13 3.77908E-13
 -1      1609 2.15041E+01 2.10632E-03-2.33957E-03 1.46157E-01 4.57354E-14 6.96752E-14
 -1      1610 2.17106E+01-1.11880E-03-1.69208E-03 1.44908E-01-2.30671E-14 1.14787E-13
 -1      1611 2.15811E+01 1.13998E-03 9.43367E-04 2.81240E-01-4.22364E-15 2.81637E-13
 -1      1612 2.11444E+01 3.53252E-03-2.65997E-03 1.34115E-01-2.16769E-13 5.63712E-13
 -1      1613 2.13397E+01 2.60794E-03-1.65927E-03 1.35334E-01-1.75762E-13 3.01138E-13
 -1      1614 2.12517E+01 7.50340E-03 3.93487E-04 2.70551E-01-2.62739E-13 5.40222E-13
 -1      1615 2.08227E+01 4.16150E-03-2.56071E-03 1.16602E-01 2.63818E-14 5.77355E-13
 -1      1616 2.09963E+01 4.70093E-03-1.36763E-03 1.19210E-01 1.66056E-14 6.10235E-13
 -1      1617 2.09451E+01 1.05957E-02 2.21674E-05 2.43593E-01-8.24078E-14 6.80743E-13
 -1      1618 2.05490E+01 4.41121E-03-2.34797E-03 9.67186E-02 2.56344E-13 1.44168E-13
 -1      1619 2.06958E+01 5.82648E-03-1.01854E-03 1.00092E-01 7.46504E-14 2.41257E-13
 -1      1620 2.06751E+01 1.17571E-02-2.67968E-04 2.08519E-01 2.48420E-13 2.43629E-13
 -1      1621 2.03276E+01 4.62060E-03-2.28229E-03 7.57729E-02 2.14433E-13-2.90727E-13
 -1      1622 2.04454E+01 6.58627E-03-7.65443E-04 7.96979E-02 3.26791E-13 1.97984E-13
 -1      1623 2.04483E+01 1.20810E-02-6.00227E-04 1.69811E-01 2.68880E-13 2.09589E-13
 -1      1624 2.01616E+01 5.04833E-03-2.46586E-03 5.36017E-02-6.84781E-14-2.20332E-13
 -1      1625 2.02486E+01 7.50761E-03-7.31895E-04 5.82766E-02-6.90561E-14-2.79668E-13
 -1      1626 2.02678E+01 1.24827E-02-1.09252E-03 1.28943E-01 4.88732E-14 2.64117E-13
 -1      1627 2.00542E+01 5.71662E-03-2.29186E-03 2.91829E-02-1.13457E-13-2.03291E-13
 -1      1628 2.01076E+01 8.84871E-03-8.09100E-04 3.52439E-02-1.38679E-14-2.85910E-13
 -1      1629 2.01349E+01 1.37103E-02-1.59771E-03 8.53860E-02-9.20704E-16 6.60429E-14
 -1      1630 2.00077E+01 5.57026E-03 1.00527E-03 5.03628E-03 9.04579E-14-1.62074E-13
 -1      1631 2.00244E+01 8.95189E-03-2.12562E-04 1.13824E-02 1.82905E-15-1.80392E-13
 -1      1632 2.00491E+01 1.40783E-02-1.52860E-03 3.89743E-02 4.47594E-14 2.91374E-14
 -1      1633 1.99979E+01 4.04861E-04 2.59912E-03-3.15286E-03-2.72280E-14-9.72048E-14
 -1      1634 2.00095E+01 4.02210E-02-1.28368E-03 2.26031E-02 2.27278E-13 1.57622E-13
 -1      1635 2.00097E+01 2.02272E-02 8.66501E-04 1.63731E-02 6.06921E-14 1.84723E-13
 -1      1636 2.00071E+01 1.30621E-01-1.00694E-03 4.74897E-02 4.25875E-13 2.00072E-13
 -1      1637 2.00089E+01 7.93258E-02-8.80974E-04 4.28941E-02 3.40554E-13 8.88980E-14
 -1      1638 2.00183E+01 8.34075E-02-1.79871E-03 6.52295E-02 2.29274E-13 1.54461E-13
 -1      1639 2.00031E+01 2.57541E-01-4.55781E-04 6.39128E-02 1.15452E-13-2.58508E-13
 -1      1640 2.00055E+01 1.84761E-01-7.08483E-04 6.14414E-02 3.21118E-13-8.82064E-15
 -1      1641 2.00114E+01 1.76404E-01-1.76894E-03 1.06339E-01 1.83052E-13-9.79902E-14
 -1      1642 1.99990E+01 4.01577E-01-8.26220E-05 6.93972E-02-8.63654E-14-1.40995E-13
 -1      1643 2.00014E+01 3.20401E-01-3.37522E-04 6.92019E-02-5.58572E-14 1.69577E-14
 -1      1644 2.00044E+01 2.93418E-01-6.47709E-04 1.29248E-01-9.42726E-14-2.47796E-13
 -1      1645 1.99953E+01 5.38727E-01 7.24839E-05 6.42792E-02-5.87017E-13-1.73732E-13
 -1      1646 1.99975E+01 4.63381E-01-1.11032E-04 6.60724E-02-2.11374E-13-3.40161E-13
 -1      1647 1.99975E+01 4.17911E-01 5.35321E-04 1.31287E-01-2.54189E-13-3.82216E-13
 -1      1648 1.99923E+01 6.53614E-01 1.39135E-04 4.96435E-02-5.63258E-13-6.51117E-14
 -1      1649 1.99941E+01 5.93130E-01 3.15081E-05 5.31882E-02-5.22054E-13-8.20880E-14
 -1      1650 1.99916E+01 5.33768E-01 1.58998E-03 1.13803E-01-4.78301E-13-2.84307E-13
 -1      1651 1.99904E+01 7.26859E-01 1.59232E-04 2.76595E-02-8.45444E-13-2.91740E-13
 -1      1652 1.99914E+01 6.91627E-01 1.12948E-04 3.24326E-02-5.70734E-13-2.53616E-13
 -1      1653 1.99869E+01 6.25834E-01 2.43348E-03 7.95205E-02-4.07793E-13-2.05286E-13
 -1      1654 1.99897E+01 7.47376E-01 1.64275E-04 1.26948E-03-7.04715E-13 7.13336E-14
 -1      1655 1.99899E+01 7.42992E-01 1.80492E-04 6.65383E-03-9.14847E-13 1.78623E-13
 -1      1656 1.99841E+01 6.79923E-01 2.96749E-03 3.32814E-02-4.71727E-13-1.76322E-13
 -1      1657 1.99904E+01 7.11084E-01 1.46547E-04-2.59488E-02-4.73022E-13 2.93032E-13
 -1      1658 1.99897E+01 7.38917E-01 2.31617E-04-2.06892E-02-7.28842E-13 2.13370E-13
 -1      1659 1.99834E+01 6.87821E-01 3.11890E-03-1.87246E-02-2.79322E-13 1.90549E-13
 -1      1660 1.99926E+01 6.22028E-01 8.07878E-05-5.00221E-02-9.26223E-13-5.11216E-13
 -1      1661 1.99910E+01 6.78711E-01 2.54855E-04-4.56891E-02-5.21667E-13-2.32144E-13
 -1      1662 1.99851E+01 6.47440E-01 2.83107E-03-6.92526E-02-3.72279E-13 9.03401E-15
 -1      1663 1.99961E+01 4.95003E-01-4.72222E-05-6.67757E-02-1.28218E-12-9.56940E-14
 -1      1664 1.99938E+01 5.70950E-01 1.71029E-04-6.41698E-02-8.65042E-13-3.69634E-13
 -1      1665 1.99893E+01 5.64403E-01 2.13130E-03-1.10359E-01-3.63599E-13-4.88510E-13
 -1      1666 2.00007E+01 3.45143E-01-3.44067E-04-7.32950E-02-9.77057E-13 1.49622E-13
 -1      1667 1.99978E+01 4.30749E-01-6.04166E-05-7.29392E-02-1.26512E-12 2.93674E-13
 -1      1668 1.99955E+01 4.49614E-01 1.00010E-03-1.35206E-01-2.58959E-13 1.50912E-13
 -1      1669 2.00055E+01 1.99456E-01-9.10572E-04-6.68297E-02-4.01671E-13 2.69025E-13
 -1      1670 2.00027E+01 2.78322E-01-5.43878E-04-6.91711E-02-8.27952E-13 1.89567E-13
 -1      1671 2.00036E+01 3.18566E-01-4.21843E-04-1.38152E-01-2.16790E-13 3.77337E-13
 -1      1672 2.00110E+01 8.62917E-02-3.76006E-04-4.72157E-02-1.17446E-13 1.95246E-13
 -1      1673 2.00073E+01 1.41219E-01-1.25911E-03-5.25050E-02-3.06216E-13 1.66026E-13
 -1      1674 2.00119E+01 1.92951E-01-1.79838E-03-1.15737E-01-2.50391E-13 3.56605E-13
 -1      1675 2.00176E+01 3.41814E-02 1.46464E-03-2.92964E-02 8.16482E-14 1.19780E-13
 -1      1676 2.00168E+01 5.71912E-02-1.09756E-03-3.92748E-02 1.73635E-14 7.65897E-14
 -1      1677 2.00293E+01 1.06642E-01-1.08818E-03-8.75315E-02-1.33698E-13 3.46988E-13
 -1      1678 2.00495E+01 5.26730E-02 9.85689E-04-6.06211E-02-1.13430E-14 9.67730E-14
 -1      1679-6.00438E-01-1.46634E+01-1.69701E+00-9.27199E-01 3.16080E-13 2.67897E-13
 -1      1680-6.09976E-01-1.69464E+01-1.91078E+00 4.07458E-01-7.09988E-14 2.06613E-13
 -1      1681 1.41601E+00-7.87408E+00-1.17239E+00 6.50234E-01 7.81708E-13 6.25944E-13
 -1      1682 6.48873E-01-1.29842E+01-1.69372E+00 2.83654E-02 5.15921E-13 2.99444E-13
 -1      1683 6.88703E+00-4.62604E-01-5.27690E-01 4.63521E+00 1.22102E-12 1.08513E-12
 -1      1684 3.90901E+00-5.86083E+00-1.27111E+00 1.84784E+00 9.93650E-13 7.54397E-13
 -1      1685 1.84963E+01 4.56850E+00 2.82398E-01 9.75033E+00 9.26148E-13 5.50227E-13
 -1      1686 1.16084E+01 1.04034E+00-6.08653E-01 5.96226E+00 1.13753E-12 7.56395E-13
 -1      1687 3.19130E+01 6.57217E+00 9.87119E-01 1.26520E+01 4.84612E-13 6.48370E-13
 -1      1688 2.29991E+01 6.43285E+00 1.77283E-01 1.08232E+01 8.30891E-13 8.43769E-13
 -1      1689 4.54425E+01 4.89525E+00 1.47090E+00 9.62983E+00 3.75054E-13 5.55112E-15
 -1      1690 3.68888E+01 6.38111E+00 8.54275E-01 1.12841E+01 4.65156E-13 4.19220E-13
 -1      1691 5.41042E+01 3.53066E+00 1.83430E+00 3.50199E+00 1.66978E-13-3.97848E-13
 -1      1692 4.95935E+01 4.82389E+00 1.53064E+00 8.45463E+00 2.43222E-13-7.81597E-14
 -1      1693 5.24855E+01 4.10405E+00 1.63908E+00-4.71588E+00 2.04115E-13-7.86038E-13
 -1      1694 5.40116E+01 3.64756E+00 1.73304E+00 7.35887E-01 1.18072E-13-5.68552E-13
 -1      1695 4.40323E+01 5.88400E+00 1.29021E+00-1.10554E+01 5.89626E-13-1.20592E-12
 -1      1696 5.10571E+01 4.09788E+00 1.75156E+00-7.48208E+00 3.30305E-13-9.76219E-13
 -1      1697 3.03720E+01 7.02811E+00 6.12144E-01-1.21507E+01 9.02722E-13-1.30207E-12
 -1      1698 3.95117E+01 6.11121E+00 1.37270E+00-1.23815E+01 6.79901E-13-1.21125E-12
 -1      1699 1.73154E+01 4.28407E+00-1.85154E-01-8.56747E+00 9.74110E-13-1.01874E-12
 -1      1700 2.53650E+01 5.96295E+00 6.55199E-01-1.15579E+01 8.43325E-13-1.18416E-12
 -1      1701 7.37629E+00-9.47373E-01-9.09579E-01-4.13651E+00 6.20615E-13-7.33857E-13
 -1      1702 1.21066E+01 3.28393E+00-1.23129E-01-7.59453E+00 8.93285E-13-9.99201E-13
 -1      1703 2.25008E+00-8.51276E+00-1.46109E+00-7.24509E-01 2.12386E-13-2.90157E-13
 -1      1704 4.16074E+00-3.00995E+00-8.15302E-01-2.73610E+00 5.19806E-13-6.28719E-13
 -1      1705 9.02610E-02-1.46924E+01-1.72246E+00-9.95044E-02 2.07612E-14 7.54952E-14
 -1      1706 4.01003E-01-1.03802E+01-1.34830E+00 1.76788E-01 9.18154E-14-8.40161E-14
 -1      1707-6.53126E-01-1.55655E+01-1.60778E+00-8.43808E-01-1.12257E-13-9.20930E-14
 -1      1708-6.18140E-01-1.49361E+01-1.56869E+00 5.24698E-01-1.55431E-14 2.00395E-14
 -1      1709-2.23345E-02-1.20763E+01-1.38764E+00-5.37130E-01-3.73923E-13-2.51479E-13
 -1      1710-1.74943E-01-1.50502E+01-1.60576E+00 1.92103E-01-1.24512E-13-1.59484E-13
 -1      1711 2.32800E+00-5.92614E+00-1.10525E+00 1.08358E+00-7.60614E-13-7.81208E-13
 -1      1712 1.20627E+00-1.12418E+01-1.63468E+00-9.58244E-02-4.71179E-13-3.86718E-13
 -1      1713 1.01536E+01 8.16845E-01-3.99372E-01 6.07159E+00-1.21125E-12-1.36358E-12
 -1      1714 5.89804E+00-4.15246E+00-1.17676E+00 2.70403E+00-8.38218E-13-1.00475E-12
 -1      1715 2.27461E+01 4.35954E+00 3.76284E-01 1.01774E+01-1.16995E-12-1.43896E-12
 -1      1716 1.54457E+01 1.96032E+00-4.44054E-01 6.98052E+00-1.25211E-12-1.25810E-12
 -1      1717 3.72010E+01 5.73999E+00 1.14591E+00 1.20231E+01-9.66782E-13-1.58384E-12
 -1      1718 2.73869E+01 6.19926E+00 3.29334E-01 1.10271E+01-1.16818E-12-1.58984E-12
 -1      1719 4.95279E+01 4.34256E+00 1.62079E+00 7.57703E+00-6.43825E-13-8.03912E-13
 -1      1720 4.16752E+01 5.81173E+00 1.03372E+00 1.02001E+01-8.92592E-13-1.33515E-12
 -1      1721 5.67887E+01 3.50288E+00 2.07752E+00 8.24480E-01-3.35648E-13 2.60625E-14
 -1      1722 5.36545E+01 4.28250E+00 1.79853E+00 6.47959E+00-5.03125E-13-6.45151E-13
 -1      1723 5.24784E+01 4.51342E+00 1.75811E+00-7.11077E+00-4.08978E-13 7.04437E-13
 -1      1724 5.61784E+01 3.51421E+00 2.01245E+00-1.85363E+00-2.83107E-13 2.31537E-13
 -1      1725 4.06716E+01 6.32596E+00 1.13989E+00-1.19009E+01-4.70596E-13 1.01075E-12
 -1      1726 4.95002E+01 4.59177E+00 1.80647E+00-9.57172E+00-3.60215E-13 9.11715E-13
 -1      1727 2.51434E+01 6.18993E+00 2.33673E-01-1.09557E+01-5.26579E-13 9.04388E-13
 -1      1728 3.51785E+01 6.21891E+00 1.17299E+00-1.26864E+01-5.67213E-13 1.03584E-12
 -1      1729 1.22357E+01 2.04985E+00-6.17210E-01-6.40198E+00-2.72449E-13 5.37570E-13
 -1      1730 1.94724E+01 5.25888E+00 3.20804E-01-1.02172E+01-4.25215E-13 1.08269E-12
 -1      1731 4.49762E+00-5.94770E+00-1.28956E+00-1.79220E+00-5.20917E-13 9.01501E-14
 -1      1732 8.18046E+00-2.91323E-01-5.12240E-01-5.03934E+00-3.27960E-13 1.74194E-13
 -1      1733 4.26452E-01-1.34583E+01-1.81704E+00 5.42729E-01-7.27640E-13 6.70887E-14
 -1      1734 1.14458E+00-8.11648E+00-1.28585E+00-1.21852E-01-6.45262E-13 2.79887E-13
 -1      1735-6.19915E-01-1.67706E+01-1.87687E+00-1.21995E-01-3.23463E-13 3.35787E-13
 -1      1736-6.66289E-01-1.47054E+01-1.71380E+00 1.21722E+00-7.19813E-13 1.73445E-13
 -1      1737 2.47975E+01 8.54935E-01 2.54973E-01 7.30253E+00 6.22891E-13 2.48912E-13
 -1      1738 1.47844E+01-3.20708E+00-2.67398E-01 6.62166E+00 5.31908E-13 2.77833E-13
 -1      1739 2.00087E+01 4.70230E-03 1.71194E-04 3.88419E-03-4.24994E-14-4.32057E-14
 -1      1740 2.00223E+01 3.18693E-02-4.30046E-05 2.78073E-02 1.15403E-13 2.46735E-13
 -1      1741 5.92448E-01-1.02267E+01-1.17731E+00 2.47227E+00 9.09273E-14 4.16112E-13
 -1      1742 5.97094E+00-6.96345E+00-7.95649E-01 4.73621E+00 3.58824E-13 7.85760E-13
 -1      1743-1.33049E+00-1.15808E+01-1.33288E+00 1.89239E-01-6.53505E-14 5.10758E-13
 -1      1744 3.48051E+01 4.40562E+00 8.61454E-01 6.57638E+00 5.37348E-13 1.91291E-13
 -1      1745 4.25525E+01 6.36817E+00 1.23009E+00 4.07175E+00 5.09703E-13-6.30607E-14
 -1      1746 4.64513E+01 7.41330E+00 1.48476E+00 1.08927E+00 3.15081E-13-3.36703E-13
 -1      1747 4.52277E+01 7.06153E+00 1.41386E+00-2.97827E+00 3.17413E-13-4.89830E-13
 -1      1748 3.96209E+01 5.71017E+00 1.15859E+00-6.25163E+00 5.50369E-13-6.56475E-13
 -1      1749 3.01602E+01 2.85841E+00 5.68140E-01-7.28763E+00 5.54945E-13-7.46514E-13
 -1      1750 1.99608E+01-5.34448E-01 4.56275E-02-7.21532E+00 3.35842E-13-7.17204E-13
 -1      1751 1.03156E+01-4.37375E+00-5.49550E-01-5.75407E+00 1.78968E-13-6.91447E-13
 -1      1752 3.48176E+00-8.31697E+00-1.00850E+00-3.79742E+00-2.74225E-14-2.97012E-13
 -1      1753-4.30843E-01-1.01635E+01-1.16236E+00-1.78286E+00-1.27121E-13-5.10703E-15
 -1      1754-8.27411E-01-9.85454E+00-1.06991E+00 7.82987E-01-1.07359E-13-2.17160E-13
 -1      1755 1.96364E+00-9.07678E+00-1.06336E+00 2.93974E+00-2.88103E-13-4.99739E-13
 -1      1756 8.47163E+00-6.21814E+00-7.05253E-01 5.05922E+00-3.34621E-13-9.74554E-13
 -1      1757 1.86957E+01-2.84411E+00-8.46657E-02 6.56291E+00-6.07514E-13-9.81548E-13
 -1      1758 2.86046E+01 7.29939E-01 2.83420E-01 6.44046E+00-7.37965E-13-9.71445E-13
 -1      1759 3.81672E+01 4.55217E+00 9.60745E-01 5.16166E+00-7.60676E-13-7.32969E-13
 -1      1760 4.49303E+01 6.60342E+00 1.28108E+00 2.49242E+00-8.40661E-13-4.19442E-13
 -1      1761 4.85141E+01 7.37865E+00 1.67941E+00-1.68858E-01-6.28830E-13-3.04340E-14
 -1      1762 4.54247E+01 6.63280E+00 1.50119E+00-3.84924E+00-3.38507E-13 2.94487E-13
 -1      1763 3.75614E+01 4.53123E+00 1.02125E+00-6.64957E+00-3.22020E-13 5.54667E-13
 -1      1764 2.64101E+01 1.33768E+00 3.27340E-01-7.37568E+00-1.40554E-13 6.29052E-13
 -1      1765 1.55161E+01-3.21036E+00-3.84276E-01-6.33963E+00-1.69087E-13 4.75953E-13
 -1      1766 6.57361E+00-7.15896E+00-7.89052E-01-4.57411E+00-2.98872E-13-1.16018E-13
 -1      1767 4.55866E-01-1.04433E+01-1.23547E+00-1.91927E+00-4.23939E-13 1.78524E-13
 -1      1768 2.28413E+01 1.98419E+00-2.36169E-02-2.72275E+00-1.86500E-13 5.39901E-13
 -1      1769 1.98236E+01 3.71358E+00-3.54317E-02-2.15363E+00-1.85665E-13-2.75613E-13
 -1      1770 2.00534E+01 3.56222E+00-4.02354E-02-2.44588E+00-2.34793E-13-2.13211E-13
 -1      1771 2.03557E+01 3.18096E+00-4.57326E-02-2.58585E+00-2.40709E-13-1.34642E-13
 -1      1772 2.05724E+01 2.80901E+00-1.42519E-01-2.85403E+00-2.67786E-13-2.68813E-14
 -1      1773 2.04179E+01 2.69273E+00-4.23297E-03-2.22507E+00-2.52086E-13-1.46713E-13
 -1      1774 1.93623E+01 4.19065E+00-2.00538E-02-1.27061E+00-8.46387E-14-3.69609E-13
 -1      1775 1.94345E+01 4.15061E+00-1.68802E-02-1.49512E+00-1.00396E-13-3.59934E-13
 -1      1776 1.92682E+01 4.29751E+00-1.67619E-02-8.59517E-01-2.65077E-14-3.77054E-13
 -1      1777 1.93098E+01 4.27317E+00-1.42324E-02-1.07033E+00-5.48392E-14-3.78270E-13
 -1      1778 1.95352E+01 3.78586E+00-8.91930E-03-1.11905E+00-8.00281E-14-3.55617E-13
 -1      1779 1.92183E+01 4.35860E+00-1.48077E-02-4.66649E-01 2.21333E-14-3.73448E-13
 -1      1780 1.92396E+01 4.34550E+00-1.33029E-02-6.66951E-01 1.18460E-15-3.76244E-13
 -1      1781 1.94401E+01 3.90704E+00-9.10687E-03-7.32730E-01-1.20229E-14-3.58984E-13
 -1      1782 1.91996E+01 4.38454E+00-1.36816E-02-8.35387E-02 7.94314E-14-3.52215E-13
 -1      1783 1.92058E+01 4.38054E+00-1.32210E-02-2.78958E-01 5.26144E-14-3.66160E-13
 -1      1784 1.93912E+01 3.97214E+00-9.09652E-03-3.57982E-01 3.94895E-14-3.55653E-13
 -1      1785 1.92074E+01 4.37917E+00-1.31795E-02 2.98134E-01 1.24488E-13-3.27641E-13
 -1      1786 1.92000E+01 4.38372E+00-1.37654E-02 1.02557E-01 1.00504E-13-3.42736E-13
 -1      1787 1.93768E+01 3.99180E+00-9.08841E-03 1.06259E-02 9.27862E-14-3.37185E-13
 -1      1788 1.92435E+01 4.34149E+00-1.33321E-02 6.86837E-01 1.65197E-13-3.10821E-13
 -1      1789 1.92209E+01 4.35543E+00-1.49331E-02 4.86036E-01 1.44810E-13-3.23236E-13
 -1      1790 1.93937E+01 3.96885E+00-9.13561E-03 3.79415E-01 1.42217E-13-3.11227E-13
 -1      1791 1.93148E+01 4.26728E+00-1.44073E-02 1.08457E+00 2.03414E-13-2.86590E-13
 -1      1792 1.92727E+01 4.29213E+00-1.69878E-02 8.76560E-01 1.87192E-13-3.05001E-13
 -1      1793 1.94452E+01 3.90069E+00-9.14864E-03 7.51421E-01 1.88381E-13-2.87810E-13
 -1      1794 1.94432E+01 4.13907E+00-1.73959E-02 1.51476E+00 2.61852E-13-2.05037E-13
 -1      1795 1.93685E+01 4.18212E+00-2.05090E-02 1.28515E+00 2.32371E-13-2.50154E-13
 -1      1796 1.95424E+01 3.77581E+00-9.20643E-03 1.13519E+00 2.36887E-13-2.51490E-13
 -1      1797 1.96680E+01 3.92150E+00-2.51850E-02 1.98008E+00 3.02151E-13-1.06668E-13
 -1      1798 1.95375E+01 3.99875E+00-2.68933E-02 1.72268E+00 2.83044E-13-1.68029E-13
 -1      1799 1.97123E+01 3.56761E+00-8.68058E-03 1.53510E+00 2.96137E-13-1.72105E-13
 -1      1800 2.00712E+01 3.52237E+00-4.51728E-02 2.47270E+00 3.17829E-13 6.70193E-14
 -1      1801 1.98340E+01 3.68325E+00-3.96877E-02 2.18360E+00 3.02249E-13-3.86011E-14
 -1      1802 2.00040E+01 3.22347E+00-5.26994E-03 1.93476E+00 3.21311E-13-5.50827E-14
 -1      1803 2.09100E+01 2.68116E+00-5.76283E-02 2.85840E+00 2.85350E-13 3.73188E-13
 -1      1804 2.04059E+01 3.09642E+00-5.03745E-02 2.61676E+00 2.97063E-13 1.87864E-13
 -1      1805 2.05113E+01 2.60986E+00 3.18384E-03 2.24509E+00 3.19032E-13 1.25833E-13
 -1      1806 2.17155E+01 1.21280E+00-1.22043E-01 2.33049E+00 2.23689E-13 7.23005E-13
 -1      1807 2.12616E+01 2.26246E+00 1.28272E-04 2.74109E+00 2.54579E-13 4.96742E-13
 -1      1808 2.09260E+01 1.68486E+00-2.29547E-02 2.14096E+00 2.83020E-13 3.62699E-13
 -1      1809 2.09367E+01 7.78613E-01-6.24488E-02 1.52502E+00 2.33910E-13 6.51944E-13
 -1      1810 2.17822E+01 2.45750E+00 9.09183E-02-3.04878E+00-2.43557E-13 1.82271E-13
 -1      1811 2.00859E+01 2.98089E-01-8.90719E-03 6.57767E-01 1.71550E-13 5.28973E-13
 -1      1812 2.06381E+01 4.40491E-01-1.24482E-02 1.03481E+00 1.93637E-13 6.00517E-13
 -1      1813 2.07315E+01 8.45164E-01 2.25318E-03 1.41593E+00 2.32297E-13 4.33788E-13
 -1      1814 2.14943E+01 1.74203E+00 7.94175E-02-2.33790E+00-2.57697E-13 9.56249E-14
 -1      1815 2.05074E+01 5.00789E-01 3.24223E-02-9.22431E-01-1.90129E-13 5.43020E-14
 -1      1816 2.00757E+01 3.52451E-01 7.60964E-03-6.30405E-01-1.63310E-13 6.21031E-15
 -1      1817 1.98818E+01 2.57945E-01 2.74573E-02-3.91429E-01-1.44341E-13 1.26999E-14
 -1      1818 1.96912E+01 1.78776E-01 1.04990E-02-2.53208E-01-1.10323E-13-2.43677E-14
 -1      1819 2.01894E+01 4.84130E-01-6.00611E-03-7.22817E-01-1.72871E-13-5.40549E-14
 -1      1820 1.95702E+01 1.33645E-01 1.67103E-02-1.19008E-01-7.72863E-14-1.87792E-14
 -1      1821 1.94930E+01 9.43696E-02 7.08378E-03-4.75298E-02-5.87638E-14-3.90855E-14
 -1      1822 1.98651E+01 2.45125E-01-5.83416E-03-2.94355E-01-1.13233E-13-8.01134E-14
 -1      1823 1.94297E+01 7.00905E-02 8.76182E-03 2.73019E-02-5.65331E-14-4.40824E-14
 -1      1824 1.94171E+01 4.89217E-02 4.29423E-03 6.46608E-02-5.01856E-14-6.13017E-14
 -1      1825 1.96849E+01 1.27464E-01-4.76516E-03-5.53039E-02-6.64733E-14-6.95288E-14
 -1      1826 1.93938E+01 3.51015E-02 4.35959E-03 1.05452E-01-4.95448E-14-5.03848E-14
 -1      1827 1.94170E+01 2.33735E-02 2.71851E-03 1.24079E-01-4.74169E-14-7.02383E-14
 -1      1828 1.96027E+01 6.46410E-02-3.61885E-03 7.81818E-02-5.99443E-14-6.79956E-14
 -1      1829 1.94195E+01 1.54498E-02 2.02982E-03 1.45128E-01-6.50520E-14-7.42973E-14
 -1      1830 1.94622E+01 9.25514E-03 1.86776E-03 1.53341E-01-5.23726E-14-5.94749E-14
 -1      1831 1.95855E+01 2.97446E-02-2.55034E-03 1.50509E-01-6.50740E-14-7.42314E-14
 -1      1832 1.94811E+01 5.02521E-03 7.92893E-04 1.63298E-01-7.05220E-14-7.30643E-14
 -1      1833 1.95342E+01 2.37440E-03 1.42913E-03 1.66136E-01-9.21238E-14-8.15338E-14
 -1      1834 1.96096E+01 1.09557E-02-1.72769E-03 1.87563E-01-6.49352E-14-7.84744E-14
 -1      1835 1.95636E+01 6.59619E-04 1.50915E-04 1.70604E-01-1.06746E-13-8.62611E-14
 -1      1836 1.96223E+01 4.66492E-04 1.26270E-03 1.71418E-01-8.97091E-14-6.96721E-14
 -1      1837 1.96600E+01 2.38122E-03-1.18109E-03 2.05466E-01-9.15923E-14-1.25856E-13
 -1      1838 1.96588E+01 5.89135E-04-1.38319E-04 1.74293E-01-1.28846E-13-7.80502E-14
 -1      1839 1.97215E+01 2.23858E-03 1.30750E-03 1.75497E-01-1.24803E-13-1.67950E-13
 -1      1840 1.97275E+01 8.54077E-04-8.71498E-04 2.14999E-01-1.49600E-13-1.05583E-13
 -1      1841 1.97636E+01 3.79793E-03-2.02819E-04 1.79674E-01-9.97682E-14-1.92506E-13
 -1      1842 1.98305E+01 6.95024E-03 1.53544E-03 1.83141E-01-4.46248E-14-2.30240E-13
 -1      1843 1.98074E+01 4.58678E-03-7.47817E-04 2.23880E-01-1.39915E-13-1.03324E-13
 -1      1844 1.98783E+01 9.71671E-03-1.18841E-04 1.90928E-01 1.26814E-14-2.38393E-13
 -1      1845 1.99516E+01 1.42086E-02 1.93360E-03 1.98235E-01 3.29834E-14-2.20494E-13
 -1      1846 1.98984E+01 1.25760E-02-7.66576E-04 2.38013E-01-2.05687E-14-1.33947E-13
 -1      1847 2.00061E+01 1.80640E-02 6.29294E-05 2.11610E-01 4.91082E-14-2.06422E-13
 -1      1848 2.00891E+01 2.38465E-02 2.49615E-03 2.24187E-01 5.58445E-14-1.83119E-13
 -1      1849 2.00018E+01 2.43080E-02-8.94202E-04 2.62246E-01 5.13292E-14-1.03899E-13
 -1      1850 2.01524E+01 2.87378E-02 3.04845E-04 2.44957E-01 2.44376E-14-2.00143E-13
 -1      1851 2.02496E+01 3.58188E-02 3.21673E-03 2.64178E-01 1.68018E-14-1.56252E-13
 -1      1852 2.01208E+01 3.95753E-02-1.10425E-03 3.00829E-01 2.95472E-14-9.78421E-14
 -1      1853 2.03245E+01 4.17039E-02 5.74485E-04 2.94046E-01 3.65185E-14-1.58923E-13
 -1      1854 2.04415E+01 5.00703E-02 4.07714E-03 3.21244E-01 3.59873E-14-1.36314E-13
 -1      1855 2.02603E+01 5.83077E-02-1.37414E-03 3.57678E-01 3.67331E-14-1.36412E-13
 -1      1856 2.05310E+01 5.68342E-02 8.38496E-04 3.61770E-01 1.71846E-15-1.36706E-13
 -1      1857 2.06742E+01 6.63188E-02 5.02812E-03 3.98129E-01-5.50992E-16-1.38845E-13
 -1      1858 2.04263E+01 8.03420E-02-1.68291E-03 4.36400E-01 1.45534E-14-1.53225E-13
 -1      1859 2.07821E+01 7.36253E-02 1.05764E-03 4.50506E-01-1.01605E-14-1.63319E-13
 -1      1860 2.09585E+01 8.36677E-02 5.95772E-03 4.96766E-01-5.88494E-14-2.30211E-13
 -1      1861 2.06259E+01 1.05033E-01-2.01125E-03 5.40005E-01-3.09303E-14-1.82400E-13
 -1      1862 2.10884E+01 9.06948E-02 1.18480E-03 5.61300E-01-1.20304E-13-1.63218E-13
 -1      1863 2.13045E+01 9.99185E-02 6.64255E-03 6.17098E-01-1.54545E-13-1.91903E-13
 -1      1864 2.08665E+01 1.30561E-01-2.34592E-03 6.70104E-01-7.13279E-14-1.17273E-13
 -1      1865 2.14602E+01 1.04903E-01 1.17149E-03 6.92184E-01-1.57552E-13-1.70080E-13
 -1      1866 2.17207E+01 1.10415E-01 6.68311E-03 7.54811E-01-1.00193E-13-1.50617E-13
 -1      1867 2.11556E+01 1.52725E-01-2.69168E-03 8.25245E-01-1.35555E-13-9.80010E-14
 -1      1868 2.19059E+01 1.09938E-01 9.93530E-04 8.35122E-01-1.22439E-14-1.15446E-13
 -1      1869 2.22110E+01 1.06308E-01 5.44096E-03 8.97389E-01 1.21335E-13-1.24413E-13
 -1      1870 2.15004E+01 1.62989E-01-3.09266E-03 9.97895E-01-4.28435E-14-5.44934E-14
 -1      1871 2.24293E+01 9.43498E-02 7.08767E-04 9.70962E-01 1.24407E-13-1.26025E-13
 -1      1872 2.27705E+01 7.24965E-02 2.03816E-03 1.01800E+00 5.33908E-14-2.06600E-13
 -1      1873 2.19068E+01 1.45731E-01-3.65664E-03 1.16946E+00 1.06442E-13-3.40320E-14
 -1      1874 2.30257E+01 3.97249E-02 5.43594E-04 1.06215E+00 2.94911E-14-1.36255E-13
 -1      1875 2.33801E+01-1.32119E-02-4.44102E-03 1.06764E+00 3.12978E-14-8.14448E-14
 -1      1876 2.23801E+01 7.55303E-02-4.54217E-03 1.30299E+00 1.07127E-13-5.03232E-14
 -1      1877 2.36762E+01-7.83953E-02 9.13410E-04 1.04473E+00 7.42453E-14-3.00662E-14
 -1      1878 2.39998E+01-1.75292E-01-1.43322E-02 9.69162E-01 1.39419E-13 8.09222E-14
 -1      1879 2.29245E+01-8.21965E-02-5.80198E-03 1.33444E+00 1.21134E-13 6.26207E-14
 -1      1880 2.43369E+01-2.80408E-01 2.04878E-03 8.26301E-01 1.07892E-13 1.17795E-13
 -1      1881 2.45615E+01-4.21087E-01-2.60967E-02 6.23858E-01 8.16023E-14 1.44714E-13
 -1      1882 2.35402E+01-3.58750E-01-6.95338E-03 1.16758E+00 1.77037E-13 1.07061E-13
 -1      1883 2.49226E+01-5.52436E-01 3.00323E-03 3.06281E-01 1.90958E-14 8.60085E-14
 -1      1884 2.49637E+01-6.96553E-01-3.46252E-02-4.79110E-02 2.11203E-14 9.48204E-14
 -1      1885 2.42108E+01-7.43959E-01-6.30270E-03 6.85838E-01 5.63369E-14 8.34495E-14
 -1      1886 2.52859E+01-7.91345E-01-3.73121E-04-5.51790E-01 5.96658E-14 9.28415E-14
 -1      1887 2.50766E+01-8.27995E-01-3.00751E-02-1.00678E+00 7.76497E-14 4.66268E-14
 -1      1888 2.48693E+01-1.11198E+00-9.40630E-04-1.91469E-01 4.61827E-14 1.22366E-13
 -1      1889 2.52246E+01-7.58877E-01-1.25975E-02-1.57298E+00 5.62068E-14 4.92922E-15
 -1      1890 2.47733E+01-5.47707E-01-8.96307E-03-1.93754E+00 1.07050E-14 3.69947E-14
 -1      1891 2.53440E+01-1.15156E+00 1.02305E-02-1.37153E+00 6.96188E-14 5.70117E-14
 -1      1892 2.46227E+01-2.19755E-01-3.57421E-02-2.25052E+00-5.54218E-14-9.59996E-15
 -1      1893 2.40735E+01 2.56816E-01 1.45566E-02-2.24191E+00-7.38715E-14 1.02279E-14
 -1      1894 2.53848E+01-5.19311E-01 8.79358E-03-2.39800E+00-5.00060E-14-6.08027E-14
 -1      1895 2.37002E+01 7.47867E-01-4.20303E-02-1.93127E+00-7.62168E-14-1.29875E-13
 -1      1896 2.33054E+01 1.19533E+00 1.36802E-02-1.38622E+00-1.37661E-13-2.79711E-13
 -1      1897 2.49093E+01 7.55084E-01-2.47875E-02-2.47838E+00-1.59719E-13-2.69116E-14
 -1      1898 2.30840E+01 1.45185E+00-2.20002E-02-4.62832E-01-1.54002E-13-2.72385E-13
 -1      1899 2.30751E+01 1.46556E+00-1.92297E-02 3.59750E-01-1.52413E-13-2.34535E-13
 -1      1900 2.43400E+01 1.92934E+00-5.74738E-02-1.12303E+00-1.18613E-13-2.83875E-13
 -1      1901 2.32720E+01 1.23194E+00 1.17051E-02 1.29820E+00-6.90281E-14-1.43963E-13
 -1      1902 2.36460E+01 8.01896E-01-4.23785E-02 1.86964E+00-8.02206E-14-4.85688E-14
 -1      1903 2.43207E+01 1.95290E+00-6.34575E-02 1.00456E+00-5.05498E-14-2.19124E-13
 -1      1904 2.40212E+01 3.15374E-01 1.61738E-02 2.22162E+00-8.85750E-14 1.71148E-14
 -1      1905 2.45683E+01-1.70595E-01-3.56930E-02 2.26092E+00 1.36272E-13 8.68125E-14
 -1      1906 2.48712E+01 8.44724E-01-2.29107E-02 2.43709E+00 2.42514E-15-6.46228E-14
 -1      1907 2.47362E+01-5.17686E-01-7.67181E-03 1.97418E+00 1.42526E-13 7.45289E-14
 -1      1908 2.51962E+01-7.46526E-01-1.44597E-02 1.62091E+00 9.37774E-14 1.10774E-13
 -1      1909 2.53642E+01-4.60486E-01 7.80034E-03 2.42803E+00 1.06814E-13 9.90011E-14
 -1      1910 2.50595E+01-8.26497E-01-2.95099E-02 1.05716E+00 5.53307E-14 5.00069E-14
 -1      1911 2.52817E+01-7.99154E-01-5.96388E-04 6.01146E-01 3.95673E-14 1.48175E-13
 -1      1912 2.53512E+01-1.13925E+00 1.03142E-02 1.43174E+00 4.65409E-14 1.18762E-13
 -1      1913 2.49646E+01-7.10240E-01-3.46564E-02 8.88128E-02 6.11195E-14 1.72332E-13
 -1      1914 2.49332E+01-5.68997E-01 2.77872E-03-2.73843E-01 9.38832E-15 1.83303E-13
 -1      1915 2.48911E+01-1.12591E+00 7.69236E-05 2.43888E-01 8.41141E-14 1.61017E-13
 -1      1916 2.45705E+01-4.37437E-01-2.68199E-02-6.02890E-01-1.91598E-13 1.81400E-13
 -1      1917 2.43512E+01-2.95064E-01 1.97317E-03-8.14012E-01-1.95005E-13 2.49835E-14
 -1      1918 2.42343E+01-7.67707E-01-6.13184E-03-6.56485E-01-8.58853E-14 2.90898E-13
 -1      1919 2.40102E+01-1.87808E-01-1.50385E-02-9.65908E-01 3.19618E-14 9.78124E-14
 -1      1920 2.36870E+01-8.82379E-02 8.40358E-04-1.04788E+00 1.86355E-13 3.06430E-13
 -1      1921 2.35583E+01-3.79129E-01-7.10453E-03-1.16039E+00 1.25030E-14 4.63917E-13
 -1      1922 2.33867E+01-2.08779E-02-4.92647E-03-1.07649E+00 1.50257E-13 2.08846E-13
 -1      1923 2.30293E+01 3.43093E-02 5.07255E-04-1.07481E+00 2.81696E-14 1.06619E-13
 -1      1924 2.29350E+01-9.55354E-02-5.95560E-03-1.34295E+00 8.26687E-14 3.77118E-13
 -1      1925 2.27700E+01 6.87217E-02 1.78404E-03-1.03362E+00-1.62224E-13 8.32290E-14
 -1      1926 2.24239E+01 9.22029E-02 7.15346E-04-9.88331E-01-3.25977E-13-6.43164E-14
 -1      1927 2.23828E+01 6.83893E-02-4.65573E-03-1.32070E+00-1.05963E-13 5.23824E-14
 -1      1928 2.22020E+01 1.05359E-01 5.36868E-03-9.15626E-01-4.03683E-13 6.49235E-14
 -1      1929 2.18914E+01 1.10228E-01 1.07802E-03-8.53548E-01-1.97375E-13 3.37535E-14
 -1      1930 2.19019E+01 1.43236E-01-3.76321E-03-1.19119E+00-3.51870E-13 2.76881E-13
 -1      1931 2.17033E+01 1.11718E-01 6.74950E-03-7.72413E-01 2.51988E-14 8.34320E-14
 -1      1932 2.14379E+01 1.07392E-01 1.38264E-03-7.08636E-01 1.78273E-13 1.99788E-13
 -1      1933 2.14890E+01 1.64109E-01-3.21681E-03-1.01951E+00-5.63035E-14 6.57804E-13
 -1      1934 2.12804E+01 1.03527E-01 6.81785E-03-6.31039E-01 2.32274E-13 1.29616E-13
 -1      1935 2.10612E+01 9.57921E-02 1.58462E-03-5.72609E-01 2.90406E-13 3.70757E-13
 -1      1936 2.11395E+01 1.57320E-01-2.85417E-03-8.43031E-01 1.65598E-13 6.80748E-13
 -1      1937 2.09312E+01 9.02926E-02 6.21985E-03-5.03477E-01 3.09119E-13 4.08937E-13
 -1      1938 2.07550E+01 8.24226E-02 1.71973E-03-4.52576E-01 3.56784E-13 6.01444E-13
 -1      1939 2.08484E+01 1.39467E-01-2.56183E-03-6.79876E-01 3.64091E-13 6.52325E-13
 -1      1940 2.06493E+01 7.73854E-02 5.34569E-03-3.92696E-01 1.92683E-13 4.32017E-13
 -1      1941 2.05116E+01 7.11499E-02 1.82648E-03-3.48753E-01 1.75821E-13 2.67468E-13
 -1      1942 2.06100E+01 1.20147E-01-2.28771E-03-5.36264E-01 1.95070E-13 5.82075E-13
 -1      1943 2.04271E+01 6.76831E-02 4.38983E-03-2.96659E-01 5.04655E-14 2.43099E-13
 -1      1944 2.03232E+01 6.39521E-02 1.90827E-03-2.57690E-01-1.09605E-13 1.36491E-13
 -1      1945 2.04182E+01 1.04547E-01-2.01736E-03-4.11509E-01 9.13169E-14 3.00962E-13
 -1      1946 2.02566E+01 6.23875E-02 3.35757E-03-2.10958E-01-6.68471E-14 2.30491E-13
 -1      1947 2.01828E+01 6.10076E-02 1.90228E-03-1.74553E-01-2.07820E-15 3.88850E-13
 -1      1948 2.02670E+01 9.52553E-02-1.63292E-03-3.01557E-01-1.18270E-13 3.82326E-13
 -1      1949 2.01365E+01 5.93272E-02 2.52695E-03-1.33493E-01 6.30930E-14 3.25545E-13
 -1      1950 2.00879E+01 5.81066E-02 2.00190E-03-9.95971E-02 9.07733E-14 3.42258E-13
 -1      1951 2.00762E+01 7.88717E-02-1.32593E-03-1.18538E-01-9.54731E-14 4.95897E-13
 -1      1952 2.01547E+01 8.83016E-02-2.07929E-03-2.04132E-01 2.31995E-14 4.91804E-13
 -1      1953 1.96035E+01 1.42407E-01 7.90634E-03 2.59640E-01 1.63349E-13 4.02773E-13
 -1      1954 1.98756E+01 2.04371E-01 1.64624E-02 4.32821E-01 1.55334E-13 4.71307E-13
 -1      1955 2.00896E+01 3.50897E-01-1.53908E-03 6.55384E-01 1.93932E-13 3.38081E-13
 -1      1956 1.93624E+01 7.26209E-02 6.99200E-03 5.56356E-02 1.10428E-13 3.23772E-13
 -1      1957 1.94770E+01 1.02366E-01 1.42456E-02 1.44565E-01 1.15193E-13 3.72405E-13
 -1      1958 1.96979E+01 1.65902E-01-1.97608E-03 2.55662E-01 1.47537E-13 2.72608E-13
 -1      1959 1.92746E+01 3.73432E-02 4.50554E-03-5.16041E-02 6.13038E-14 3.28554E-13
 -1      1960 1.93036E+01 5.29576E-02 8.41447E-03-3.65142E-03 8.15780E-14 3.24859E-13
 -1      1961 1.94999E+01 8.19683E-02-2.87407E-03 4.18982E-02 9.39041E-14 2.31769E-13
 -1      1962 1.92779E+01 1.81030E-02 2.98031E-03-1.06956E-01-1.17976E-14 2.98365E-13
 -1      1963 1.92602E+01 2.66911E-02 4.46878E-03-8.10980E-02 2.66972E-14 3.18823E-13
 -1      1964 1.94247E+01 3.95767E-02-2.92195E-03-7.29069E-02 2.78365E-14 2.13465E-13
 -1      1965 1.93335E+01 7.41599E-03 2.16724E-03-1.33390E-01 7.49774E-14 2.21354E-13
 -1      1966 1.92909E+01 1.20903E-02 2.31738E-03-1.20049E-01 2.96464E-15 2.58585E-13
 -1      1967 1.94248E+01 1.68859E-02-2.42551E-03-1.32950E-01 3.80711E-14 1.37450E-13
 -1      1968 1.94182E+01 1.87564E-03 1.70450E-03-1.43909E-01 9.57703E-14 1.96555E-13
 -1      1969 1.93628E+01 4.16089E-03 1.18722E-03-1.37589E-01 1.01562E-13 2.23611E-13
 -1      1970 1.94697E+01 4.81852E-03-1.85182E-03-1.62109E-01 1.04396E-13 8.86208E-14
 -1      1971 1.95188E+01-2.83721E-04 1.42569E-03-1.46639E-01 8.92759E-14 1.42459E-13
 -1      1972 1.94573E+01 4.61587E-04 5.99176E-04-1.43848E-01 1.01028E-13 1.85013E-13
 -1      1973 1.95410E+01-8.05316E-04-1.39204E-03-1.74508E-01 1.13934E-13 8.12655E-14
 -1      1974 1.96285E+01-8.54365E-05 1.26972E-03-1.47028E-01 3.51435E-14 1.67953E-13
 -1      1975 1.95639E+01-3.62277E-04 3.19899E-04-1.45374E-01 4.21471E-14 1.55533E-13
 -1      1976 1.96278E+01-2.18475E-03-1.07971E-03-1.79204E-01 6.63378E-14 9.53698E-14
 -1      1977 1.97449E+01 1.82087E-03 1.21092E-03-1.48908E-01 1.11333E-13 1.17439E-13
 -1      1978 1.96780E+01 8.63275E-04 2.34594E-04-1.46668E-01 9.65078E-14 1.67597E-13
 -1      1979 1.97248E+01-6.06425E-04-8.98232E-04-1.82364E-01 7.61016E-14 9.33589E-14
 -1      1980 1.98689E+01 4.97697E-03 1.23182E-03-1.55044E-01 5.38118E-14 1.34730E-13
 -1      1981 1.97988E+01 3.58563E-03 2.77894E-04-1.50936E-01 7.97985E-14 1.43680E-13
 -1      1982 1.98304E+01 3.09671E-03-8.23501E-04-1.88351E-01 7.44996E-14 1.04237E-13
 -1      1983 2.00036E+01 9.00133E-03 1.31352E-03-1.67399E-01 3.15334E-14 9.85954E-14
 -1      1984 1.99283E+01 7.38233E-03 4.04775E-04-1.60476E-01 4.43216E-14 1.23506E-13
 -1      1985 1.99455E+01 8.30879E-03-8.34442E-04-2.00286E-01 6.19403E-14 1.58206E-13
 -1      1986 2.01535E+01 1.34931E-02 1.43022E-03-1.87204E-01-4.80003E-15 1.26224E-13
 -1      1987 2.00702E+01 1.18559E-02 5.77684E-04-1.76833E-01-1.06807E-14 1.31243E-13
 -1      1988 2.00728E+01 1.44717E-02-9.13192E-04-2.20281E-01-5.37005E-16 1.87687E-13
 -1      1989 2.03237E+01 1.79309E-02 1.54350E-03-2.14852E-01 9.13110E-15 1.42525E-13
 -1      1990 2.02295E+01 1.65333E-02 7.58976E-04-2.00770E-01-6.81280E-15 1.43672E-13
 -1      1991 2.02164E+01 2.09422E-02-1.04288E-03-2.49454E-01 1.19966E-14 1.82986E-13
 -1      1992 2.05194E+01 2.15525E-02 1.59612E-03-2.49602E-01 1.28586E-13 7.95217E-14
 -1      1993 2.04112E+01 2.07509E-02 9.05094E-04-2.32067E-01 7.39672E-14 9.68703E-14
 -1      1994 2.03805E+01 2.68344E-02-1.20473E-03-2.87710E-01 6.62932E-14 7.63268E-14
 -1      1995 2.07444E+01 2.32158E-02 1.50656E-03-2.89057E-01 1.36615E-13-7.99079E-15
 -1      1996 2.06202E+01 2.35199E-02 9.61991E-04-2.69108E-01 1.23017E-13 3.20792E-14
 -1      1997 2.05693E+01 3.08368E-02-1.37434E-03-3.33275E-01 1.50317E-13 3.44828E-14
 -1      1998 2.09997E+01 2.12582E-02 1.16799E-03-3.28409E-01 9.63989E-14 2.40228E-14
 -1      1999 2.08592E+01 2.33774E-02 8.62969E-04-3.08250E-01 1.38839E-13 7.83716E-15
 -1      2000 2.07852E+01 3.10112E-02-1.51655E-03-3.81967E-01 1.40012E-13-3.78577E-14
 -1      2001 2.12813E+01 1.34179E-02 4.59300E-04-3.59499E-01-1.21899E-13-4.23936E-14
 -1      2002 2.11275E+01 1.82667E-02 5.31698E-04-3.42983E-01-1.66105E-15-1.18466E-14
 -1      2003 2.10281E+01 2.46271E-02-1.57797E-03-4.26208E-01 3.88564E-14 3.07111E-14
 -1      2004 2.15782E+01-3.03681E-03-7.20189E-04-3.69896E-01-1.18375E-13-1.37182E-13
 -1      2005 2.14183E+01 5.55208E-03-1.05333E-04-3.63017E-01-1.28069E-13-6.62619E-14
 -1      2006 2.12933E+01 8.17069E-03-1.47644E-03-4.53941E-01-1.13036E-13-2.92304E-14
 -1      2007 2.18692E+01-3.06994E-02-2.37889E-03-3.42565E-01 1.11246E-14-6.10317E-14
 -1      2008 2.17168E+01-1.76149E-02-1.09264E-03-3.53680E-01-9.29606E-14-1.03529E-13
 -1      2009 2.15698E+01-2.21882E-02-1.08929E-03-4.47859E-01-9.21311E-14-1.38309E-13
 -1      2010 2.21208E+01-7.05416E-02-4.32170E-03-2.57219E-01 1.94465E-13 4.00493E-14
 -1      2011 2.19968E+01-5.32172E-02-2.40182E-03-2.96442E-01 1.46091E-13 6.64234E-14
 -1      2012 2.18375E+01-6.92030E-02-2.47758E-04-3.85847E-01 7.04341E-14 5.52338E-14
 -1      2013 2.22876E+01-1.19254E-01-6.05065E-03-9.50894E-02-4.64737E-14-2.82190E-14
 -1      2014 2.22193E+01-1.00183E-01-3.88331E-03-1.71965E-01 6.50023E-14 3.72116E-14
 -1      2015 2.20660E+01-1.31697E-01 1.23539E-03-2.44251E-01 7.37665E-14 6.89668E-14
 -1      2016 2.23156E+01-1.65731E-01-6.74523E-03 1.51082E-01-2.19446E-13 7.73979E-14
 -1      2017 2.23334E+01-1.51076E-01-5.24109E-03 3.25220E-02-1.74440E-13-4.31611E-14
 -1      2018 2.22143E+01-2.00243E-01 3.44088E-03-6.07148E-03-1.58941E-13 1.18118E-13
 -1      2019 2.21546E+01-1.88465E-01-5.47870E-03 4.61462E-01-1.24284E-13 2.61041E-13
 -1      2020 2.22837E+01-1.88560E-01-5.96857E-03 3.10530E-01-1.72710E-13 2.29747E-13
 -1      2021 2.22341E+01-2.52555E-01 6.18925E-03 3.24518E-01-2.64560E-13 3.28847E-13
 -1      2022 2.17784E+01-1.59212E-01-2.13696E-03 7.72691E-01 3.13898E-14 1.95259E-13
 -1      2023 2.20258E+01-1.85440E-01-5.49630E-03 6.20209E-01-6.65076E-14 2.19323E-13
 -1      2024 2.20813E+01-2.53072E-01 8.75686E-03 7.02914E-01-2.10483E-14 2.23261E-13
 -1      2025 2.12148E+01-5.88845E-02 1.80481E-03 9.76762E-01 6.62799E-14 3.91331E-13
 -1      2026 2.15553E+01-1.15270E-01-3.45955E-03 8.75039E-01 1.12101E-13 3.06784E-13
 -1      2027 2.17379E+01-1.66483E-01 9.28003E-03 1.03024E+00 9.12126E-14 2.41890E-13
 -1      2028 2.05698E+01 9.97376E-02 3.81148E-03 9.54619E-01-1.59736E-13 2.98487E-13
 -1      2029 2.09387E+01 2.58738E-02 1.79196E-04 9.60374E-01-1.28642E-13 3.25686E-13
 -1      2030 2.12446E+01 1.53892E-02 5.92294E-03 1.16806E+00-6.55274E-14 3.15111E-13
 -1      2031 2.00219E+01 2.59149E-01 2.25298E-03 6.44959E-01 1.47165E-14 2.86033E-13
 -1      2032 2.03238E+01 1.98846E-01 4.96202E-03 7.85503E-01-9.12291E-14 3.15580E-13
 -1      2033 2.07207E+01 2.46453E-01-1.11168E-03 9.96671E-01-8.84449E-14 2.85219E-13
 -1      2034 1.97625E+01 3.40030E-01-1.34184E-03 1.10927E-01 3.26917E-14 3.24972E-13
 -1      2035 1.99032E+01 3.26607E-01 9.57888E-03 3.54000E-01 4.96478E-14 3.11694E-13
 -1      2036 2.03429E+01 4.30907E-01-7.78396E-03 5.02006E-01 5.05767E-14 3.62721E-13
 -1      2037 1.98973E+01 2.96448E-01-3.46217E-03-4.63588E-01-1.31735E-14 1.98232E-13
 -1      2038 1.98264E+01 3.40046E-01 1.18383E-02-2.04080E-01 1.63931E-15 2.00946E-13
 -1      2039 2.02636E+01 4.74458E-01-9.24585E-03-1.73127E-01 6.13572E-14 2.69145E-13
 -1      2040 2.03777E+01 1.54121E-01-2.11031E-03-8.70986E-01 1.71844E-13 1.53086E-13
 -1      2041 2.01171E+01 2.31947E-01 1.00477E-02-6.87432E-01 3.84146E-14 1.45502E-13
 -1      2042 2.05161E+01 3.52435E-01-5.02019E-03-7.83892E-01 7.62645E-14 5.93588E-14
 -1      2043 2.10286E+01-1.15572E-02 1.59223E-03-9.97229E-01 2.48921E-14 1.19790E-13
 -1      2044 2.06627E+01 6.27696E-02 4.87308E-03-9.37229E-01 1.45813E-13 1.82004E-13
 -1      2045 2.09921E+01 1.29118E-01 6.05229E-04-1.12270E+00 1.66564E-13-7.09155E-15
 -1      2046 2.16476E+01-1.32364E-01 4.77697E-03-8.62821E-01 9.11827E-14 4.78870E-15
 -1      2047 2.12813E+01-8.81453E-02-1.24592E-03-9.15356E-01 4.14313E-14 1.26506E-13
 -1      2048 2.15142E+01-9.01654E-02 3.73786E-03-1.12642E+00 1.05685E-13 3.84493E-14
 -1      2049 2.20930E+01-1.82133E-01 5.74268E-03-5.75399E-01 1.58076E-13-4.30389E-14
 -1      2050 2.18086E+01-1.72831E-01-5.92141E-03-6.93645E-01 1.31291E-13-5.91914E-14
 -1      2051 2.19310E+01-2.28750E-01 3.59441E-03-8.73295E-01 1.95143E-13-3.75871E-15
 -1      2052 2.23125E+01-1.73192E-01 4.67914E-03-2.53485E-01 2.07102E-13-7.31032E-14
 -1      2053 2.21492E+01-1.88237E-01-8.05324E-03-3.87378E-01 1.79348E-13-4.71760E-14
 -1      2054 2.21676E+01-2.68936E-01 1.88533E-03-5.03349E-01 2.54277E-13 1.98068E-13
 -1      2055 2.23228E+01-1.32671E-01 2.73691E-03 2.19583E-02 3.48770E-14-1.33941E-13
 -1      2056 2.22806E+01-1.58039E-01-7.89986E-03-9.36138E-02 1.54919E-13-2.26091E-13
 -1      2057 2.22192E+01-2.36735E-01 3.54042E-04-1.39112E-01 2.14495E-13 5.93834E-15
 -1      2058 2.21750E+01-8.42324E-02 9.42347E-04 2.16317E-01-1.85374E-13 1.07945E-13
 -1      2059 2.22298E+01-1.09554E-01-6.31199E-03 1.33784E-01-6.25667E-14-4.44937E-14
 -1      2060 2.21205E+01-1.70792E-01-4.21263E-04 1.48658E-01-5.57315E-14 2.86722E-13
 -1      2061 2.19274E+01-4.18670E-02-2.86146E-04 3.28681E-01-4.72077E-13 1.61763E-13
 -1      2062 2.20471E+01-6.19346E-02-4.18743E-03 2.79897E-01-3.48960E-13-6.90637E-15
 -1      2063 2.19196E+01-1.01196E-01-5.86398E-04 3.37813E-01-2.98958E-13 1.99360E-13
 -1      2064 2.16307E+01-1.07345E-02-9.12095E-04 3.74922E-01-9.95402E-14 3.03557E-13
 -1      2065 2.17851E+01-2.42943E-02-2.16583E-03 3.53599E-01-2.64651E-13 2.12038E-13
 -1      2066 2.16615E+01-4.39472E-02-5.00702E-04 4.36859E-01-3.33269E-13 1.23471E-14
 -1      2067 2.13230E+01 9.26273E-03-1.08182E-03 3.75198E-01-5.57327E-14 3.28346E-13
 -1      2068 2.14885E+01 1.40055E-03-5.49959E-04 3.73162E-01 3.18138E-14 3.71349E-13
 -1      2069 2.13821E+01-3.72414E-03-3.78463E-04 4.67166E-01-3.70408E-14 1.48567E-13
 -1      2070 2.10294E+01 2.05239E-02-9.67168E-04 3.47363E-01-3.88656E-13 5.47798E-13
 -1      2071 2.11899E+01 1.68116E-02 5.85420E-04 3.57309E-01-3.54163E-13 4.23563E-13
 -1      2072 2.11069E+01 2.10246E-02-3.05520E-04 4.51577E-01-3.48229E-13 3.64898E-13
 -1      2073 2.07649E+01 2.60018E-02-6.95956E-04 3.04512E-01 2.24169E-13 4.49721E-13
 -1      2074 2.09105E+01 2.48591E-02 1.29502E-03 3.21068E-01-5.63620E-14 6.01793E-13
 -1      2075 2.08521E+01 3.42940E-02-2.91190E-04 4.08920E-01-1.22939E-13 4.55037E-13
 -1      2076 2.05373E+01 2.83795E-02-3.62727E-04 2.54721E-01 3.22611E-13 2.45596E-13
 -1      2077 2.06628E+01 2.85113E-02 1.68460E-03 2.74612E-01 3.50448E-13 3.59070E-13
 -1      2078 2.06270E+01 4.04310E-02-3.15952E-04 3.52301E-01 3.29956E-13 5.03137E-13
 -1      2079 2.03502E+01 2.97596E-02-5.80537E-05 2.01964E-01 6.68966E-14 4.83630E-13
 -1      2080 2.04530E+01 3.01704E-02 1.82964E-03 2.23644E-01 1.51218E-13 3.82048E-13
 -1      2081 2.04360E+01 4.30067E-02-4.17053E-04 2.89352E-01 1.03641E-13 5.56126E-13
 -1      2082 2.02044E+01 3.17266E-02 1.37394E-04 1.47033E-01 2.59508E-14 3.06716E-13
 -1      2083 2.02834E+01 3.17801E-02 1.76444E-03 1.70427E-01 4.89279E-14 4.03507E-13
 -1      2084 2.02805E+01 4.49887E-02-5.68540E-04 2.23507E-01 9.22205E-14 4.84674E-13
 -1      2085 2.01001E+01 3.45477E-02 6.61773E-04 8.97215E-02-1.06751E-15 1.74243E-13
 -1      2086 2.01540E+01 3.39029E-02 1.42296E-03 1.15050E-01 1.35761E-13 2.88642E-13
 -1      2087 2.01596E+01 4.79823E-02-6.39927E-04 1.55434E-01 1.75699E-13 3.95586E-13
 -1      2088 2.00433E+01 3.50288E-02 1.24456E-03 4.67581E-02 7.18491E-14 2.59811E-13
 -1      2089 2.00761E+01 3.68011E-02 1.03222E-03 7.16420E-02-1.03558E-13 2.41041E-13
 -1      2090 2.00839E+01 5.16345E-02-6.05837E-04 1.00592E-01-1.05420E-13 3.96897E-13
 -1      2091 2.00418E+01 5.17395E-02 6.05630E-05 6.07265E-02 4.64572E-14 2.61283E-13
 -1      2092 2.00062E+01 3.24479E-01-5.50500E-04 1.81932E-01-1.45400E-13-3.41280E-13
 -1      2093 2.00172E+01 2.66061E-01 1.10110E-03 1.75214E-01-3.07472E-14-3.66077E-13
 -1      2094 2.00275E+01 2.12860E-01 2.83490E-07 1.60404E-01-1.31386E-14-3.72148E-13
 -1      2095 2.00372E+01 1.61465E-01 1.33170E-03 1.41389E-01 1.41909E-13-3.09249E-14
 -1      2096 2.00332E+01 2.41444E-01-2.81833E-04 2.15757E-01-1.74736E-13-3.46477E-13
 -1      2097 2.00395E+01 1.23675E-01 3.93325E-04 1.15942E-01 1.21116E-13 1.76225E-13
 -1      2098 2.00445E+01 8.38601E-02 1.16474E-03 8.99528E-02 1.13685E-13 2.93169E-13
 -1      2099 2.00634E+01 8.51202E-02 7.51692E-04 1.11261E-01-5.06234E-14 3.55280E-13
 -1      2100 2.00538E+01 1.52785E-01-5.34195E-04 1.69894E-01-2.44507E-14 9.23547E-14
 -1      2101 1.99860E+01 4.34398E-01-1.21206E-03 1.77329E-01-4.75745E-13-6.62742E-13
 -1      2102 1.99964E+01 3.77030E-01 3.60897E-04 1.82255E-01-2.31344E-13-3.78834E-13
 -1      2103 2.00020E+01 3.46376E-01 1.56966E-04 2.31883E-01-1.92282E-13-5.54354E-13
 -1      2104 1.99679E+01 5.33537E-01-1.82471E-03 1.47480E-01-4.12915E-13-2.15129E-13
 -1      2105 1.99768E+01 4.83308E-01-4.32561E-04 1.63263E-01-4.81892E-13-2.42256E-13
 -1      2106 1.99728E+01 4.47889E-01 8.68198E-04 2.16205E-01-4.35192E-13-4.86368E-13
 -1      2107 1.99543E+01 6.07059E-01-2.24064E-03 9.65466E-02-2.87342E-13-3.00374E-13
 -1      2108 1.99607E+01 5.72014E-01-1.18819E-03 1.20883E-01-2.80114E-13-1.46495E-13
 -1      2109 1.99475E+01 5.35384E-01 1.46665E-03 1.70276E-01-2.94378E-13-1.98380E-13
 -1      2110 1.99466E+01 6.45081E-01-2.37335E-03 3.11968E-02-3.39024E-13-1.08205E-13
 -1      2111 1.99498E+01 6.30343E-01-1.77981E-03 6.08823E-02-2.55913E-13-3.89331E-13
 -1      2112 1.99294E+01 5.97294E-01 1.93755E-03 1.00161E-01-1.05256E-13-1.95108E-13
 -1      2113 1.99461E+01 6.41872E-01-2.17091E-03-3.99938E-02-1.49346E-13 2.17409E-13
 -1      2114 1.99455E+01 6.49885E-01-2.14106E-03-8.94255E-03-3.35663E-13 2.54462E-13
 -1      2115 1.99207E+01 6.25443E-01 2.20076E-03 1.47804E-02-2.42053E-13 9.14414E-14
 -1      2116 1.99535E+01 5.96981E-01-1.63646E-03-1.07116E-01-2.82575E-13-1.81823E-13
 -1      2117 1.99488E+01 6.27063E-01-2.21544E-03-7.91683E-02-2.20263E-13 2.25144E-13
 -1      2118 1.99229E+01 6.15378E-01 2.19638E-03-7.46276E-02-2.01431E-13 1.83602E-13
 -1      2119 1.99683E+01 5.17414E-01-7.94751E-04-1.59201E-01-1.63555E-13-2.52929E-13
 -1      2120 1.99597E+01 5.64575E-01-2.02586E-03-1.39059E-01-2.32984E-13-4.09404E-13
 -1      2121 1.99366E+01 5.67909E-01 1.94573E-03-1.54912E-01-1.30089E-13-2.08563E-13
 -1      2122 1.99898E+01 4.10875E-01 2.13287E-04-1.88902E-01 5.74428E-14 4.51127E-13
 -1      2123 1.99780E+01 4.70033E-01-1.58578E-03-1.79735E-01-7.91862E-14 1.14889E-13
 -1      2124 1.99610E+01 4.88102E-01 1.38547E-03-2.14399E-01-6.74103E-16 7.29624E-14
 -1      2125 2.00152E+01 2.92857E-01 1.14653E-03-1.88326E-01 5.70594E-14 5.69421E-13
 -1      2126 2.00017E+01 3.54581E-01-9.94582E-04-1.93206E-01 3.05910E-14 3.88786E-13
 -1      2127 1.99943E+01 3.84608E-01 6.92534E-04-2.43011E-01 7.26406E-14 4.38324E-13
 -1      2128 2.00395E+01 1.76006E-01 4.84890E-04-1.55360E-01-1.51678E-13 2.18974E-13
 -1      2129 2.00275E+01 2.34383E-01-3.72974E-04-1.74591E-01-1.11012E-13 3.50808E-13
 -1      2130 2.00321E+01 2.71100E-01 1.09406E-04-2.33224E-01 1.68685E-14 3.82939E-13
 -1      2131 1.04041E+01-5.03502E+00-1.32994E-01 6.62325E+00 1.06248E-13 4.92939E-13
 -1      2132 6.82538E+00-6.47752E+00-3.58017E-01 5.43480E+00-7.28306E-14 7.93199E-13
 -1      2133 2.06787E-01-7.42082E+00-4.40946E-01 1.08666E+00 2.49800E-15 5.13867E-13
 -1      2134 1.54259E-01-7.23588E+00-4.12963E-01-5.14740E-01-1.46549E-13 5.24358E-13
 -1      2135 3.34895E+00-6.30784E+00-2.92845E-01 4.29714E+00 8.27671E-14 5.84532E-13
 -1      2136 1.37094E+00-7.51893E+00-4.68569E-01 2.75179E+00-7.15261E-14 2.95819E-13
 -1      2137 1.93571E+01-3.49008E+00-3.47780E-03 6.98104E+00 2.85327E-13-2.60320E-13
 -1      2138 1.44566E+01-5.13768E+00-2.67905E-01 6.37230E+00 2.20213E-13 9.81437E-14
 -1      2139 2.84088E+01-5.43663E-02 1.78036E-01 5.72438E+00 3.65818E-13 1.80189E-13
 -1      2140 2.36368E+01-2.23748E+00-1.28831E-01 5.44542E+00 3.05256E-13-5.90084E-14
 -1      2141 1.95219E+01 4.01643E+00-2.70030E-02-1.70344E+00-1.29412E-13-3.41002E-13
 -1      2142 1.96474E+01 3.94636E+00-2.46339E-02-1.95486E+00-1.64308E-13-3.14592E-13
 -1      2143 1.99713E+01 3.24741E+00-1.38880E-02-1.91882E+00-1.88436E-13-2.59933E-13
 -1      2144 1.97018E+01 3.58644E+00-7.24511E-03-1.52087E+00-1.21403E-13-3.26426E-13
 -1      2145 3.92284E+01 6.15382E+00 3.74328E-01 1.53045E+00 4.22329E-13-1.81577E-13
 -1      2146 3.58514E+01 5.20064E+00 9.20089E-02 2.04940E+00 5.50476E-13-1.48159E-13
 -1      2147 3.94706E+01 7.38229E+00 2.64862E-01-1.51365E-01 4.31544E-13-3.25937E-13
 -1      2148 3.96544E+01 6.95234E+00 3.03459E-01 1.02621E+00 4.48419E-13-1.91513E-13
 -1      2149 3.51909E+01 7.36292E+00 2.73240E-01-2.02965E-01 5.27856E-13-2.28872E-13
 -1      2150 3.90321E+01 6.23934E+00 3.22295E-01-2.14932E+00 3.37952E-13-3.99236E-13
 -1      2151 3.99377E+01 6.92516E+00 3.02045E-01-6.93051E-01 3.79585E-13-3.43781E-13
 -1      2152 3.39488E+01 3.44749E+00 9.21122E-02-3.44950E+00 3.99882E-13-3.76921E-13
 -1      2153 3.74279E+01 4.72826E+00 3.25404E-01-2.68055E+00 2.90379E-13-4.07785E-13
 -1      2154 2.74924E+01-4.79743E-02-5.57972E-02-4.97687E+00 3.06144E-13-3.57048E-13
 -1      2155 3.21746E+01 1.86804E+00 2.63232E-01-5.01602E+00 4.55636E-13-2.88769E-13
 -1      2156 1.88407E+01-3.36488E+00-2.22462E-01-6.27236E+00 1.18350E-13-5.61218E-13
 -1      2157 2.37926E+01-1.69396E+00 5.69995E-02-6.55235E+00 1.24012E-13-6.45484E-13
 -1      2158 1.07683E+01-5.62808E+00-3.74582E-01-6.00879E+00-6.48370E-14-6.10581E-13
 -1      2159 1.49156E+01-3.75032E+00-7.50006E-02-6.97943E+00 4.40759E-14-6.80095E-13
 -1      2160 4.62039E+00-6.78450E+00-3.65405E-01-4.71412E+00-2.07556E-13-2.72504E-13
 -1      2161 7.55971E+00-5.56562E+00-1.94354E-01-5.89736E+00-3.93019E-14-4.67862E-13
 -1      2162 1.05622E+00-6.28429E+00-2.64996E-01-2.04287E+00-1.14520E-13 1.79856E-14
 -1      2163 2.34145E+00-6.29619E+00-2.74489E-01-3.56090E+00-1.11688E-13-5.84532E-14
 -1      2164 1.43834E+00-5.79323E+00-1.92956E-01 2.00266E+00-2.08278E-13-3.28459E-13
 -1      2165 6.75432E-01-6.11012E+00-2.55795E-01 8.03553E-02-1.37296E-13-1.88349E-13
 -1      2166 5.79394E+00-6.39144E+00-2.97597E-01 4.94171E+00-3.06977E-13-6.61082E-13
 -1      2167 3.40403E+00-6.58256E+00-2.95624E-01 3.88043E+00-2.39808E-13-4.56801E-13
 -1      2168 1.31579E+01-5.02405E+00-1.31112E-01 6.59127E+00-2.07390E-13-9.52849E-13
 -1      2169 8.79882E+00-6.58236E+00-4.18987E-01 5.38225E+00-1.16906E-13-8.79699E-13
 -1      2170 9.68675E+00-5.67945E+00-1.27952E-01 6.24504E+00-7.91589E-14-7.47125E-13
 -1      2171 2.25816E+01-3.69691E+00-8.66518E-02 6.00233E+00-3.60101E-13-6.98663E-13
 -1      2172 1.75374E+01-4.99979E+00-2.73806E-01 5.89891E+00-2.48912E-13-8.11878E-13
 -1      2173 3.15065E+01 4.70106E-01 2.63189E-01 4.79253E+00-6.04961E-13-6.50924E-13
 -1      2174 2.69387E+01-1.75861E+00-2.03532E-02 4.69547E+00-5.25913E-13-6.45095E-13
 -1      2175 3.65750E+01 3.46052E+00 1.34472E-01 1.80728E+00-6.73794E-13-5.21083E-13
 -1      2176 3.38091E+01 2.07937E+00 1.47098E-01 3.22478E+00-6.71921E-13-6.01408E-13
 -1      2177 3.24262E+01 1.34127E-01 1.90351E-01 1.56753E+00-5.48801E-13-3.59379E-13
 -1      2178 4.13562E+01 6.70125E+00 5.44681E-01 7.71538E-01-8.44491E-13-2.36894E-13
 -1      2179 3.79769E+01 5.82269E+00 1.95920E-01 1.09125E+00-8.39773E-13-3.83749E-13
 -1      2180 4.10284E+01 7.15646E+00 3.55845E-01-5.55518E-01-6.36213E-13-2.86993E-14
 -1      2181 4.15941E+01 7.01804E+00 3.97654E-01 4.58215E-01-7.49012E-13-2.38642E-13
 -1      2182 3.67876E+01 7.68875E+00 3.22078E-01-3.24935E-01-8.20788E-13-1.92069E-13
 -1      2183 3.86231E+01 5.17166E+00 2.77812E-01-2.10295E+00-1.03362E-13 8.71525E-15
 -1      2184 4.06293E+01 6.17214E+00 3.68946E-01-9.82033E-01-2.76779E-13-1.39555E-13
 -1      2185 3.27659E+01 1.84826E+00 6.13289E-02-3.94695E+00-1.06665E-13 5.82867E-14
 -1      2186 3.72705E+01 3.38046E+00 3.48124E-01-3.33489E+00-1.10148E-13 8.65974E-15
 -1      2187 2.45832E+01-2.04828E+00-1.56738E-01-5.32778E+00 8.37663E-14 3.58713E-13
 -1      2188 2.98915E+01-1.00593E-01 1.95325E-01-5.40512E+00-2.83107E-14 2.44249E-13
 -1      2189 1.58769E+01-4.96085E+00-2.14709E-01-6.14756E+00-9.88098E-14 2.00423E-13
 -1      2190 2.05610E+01-2.89856E+00 2.27545E-02-6.71057E+00 5.10703E-15 6.58362E-13
 -1      2191 6.71131E+00-6.98978E+00-4.69040E-01-4.86764E+00-1.38167E-13-1.80606E-13
 -1      2192 1.09466E+01-5.53057E+00-2.34711E-01-6.27552E+00-6.07292E-14-2.09187E-13
 -1      2193 1.55799E+00-7.46149E+00-4.58230E-01-2.58711E+00-1.54654E-13 9.94760E-14
 -1      2194 3.72246E+00-6.75581E+00-3.45475E-01-4.05097E+00-1.22291E-13-2.31565E-13
 -1      2195 7.37515E+00-5.52576E+00-1.26923E-01-5.63559E+00 1.24789E-13-3.23019E-13
 -1      2196 3.42436E+01 2.81853E+00 1.50864E-01 3.19104E+00 5.31790E-13-1.07636E-13
 -1      2197 3.06713E+01 1.40172E+00 3.17487E-02 4.28918E+00 4.17583E-13 1.42331E-13
 -1      2198 2.99095E+01-8.17077E-01 1.42489E-01 2.66926E+00 2.16424E-13-8.51541E-14
 -1      2199 2.34891E+01-4.22450E+00 4.93569E-02 5.42129E+00 4.48530E-14-2.35895E-13
 -1      2200 2.07223E+01 1.10843E+00-2.07406E-02-1.61680E+00-2.36009E-13 4.01259E-14
 -1      2201 3.36034E+01 3.56637E+00 1.73925E-01 5.99251E-01 4.58716E-13-3.33567E-13
 -1      2202 2.06163E+01 1.33016E+00-1.86804E-02-1.67847E+00-2.45913E-13-6.27519E-14
 -1      2203 6.96559E+00-5.24644E+00-1.12441E-01 5.90206E+00-1.25788E-13 7.00690E-13
 -1      2204 2.02827E+00-5.00191E+00-2.02430E-01 2.44796E+00-5.87863E-14 4.28324E-13
 -1      2205 2.00517E+01 1.44480E-01 8.65967E-04-1.47960E-01-1.13005E-13 2.90608E-13
 -1      2206 1.49532E+01-5.42491E+00-3.67964E-03 7.04438E+00-1.69753E-13 2.61527E-14
 -1      2207 2.17828E+00-5.16597E+00-2.11995E-01-2.08985E+00-1.91513E-15 2.53908E-13
 -1      2208 1.49775E+01-5.53632E+00-9.95379E-02-6.37367E+00-9.41469E-14-7.36078E-14
 -1      2209 1.87611E+01-5.89140E+00-2.04728E-01-6.36503E+00 7.65499E-14 1.48853E-13
 -1      2210 1.46101E+01-5.37378E+00 1.49245E-01-6.76468E+00 5.25691E-14-2.00021E-13
 -1      2211 2.48055E+01-4.10161E+00 4.85496E-02-4.95240E+00 1.92346E-13 1.80633E-13
 -1      2212 3.16843E+01-5.33416E-01 1.83193E-01-2.29620E+00 1.40749E-13-2.60458E-13
 -1      2213 3.70818E+01 7.32864E+00 3.52933E-01 2.73974E-01-4.75842E-13-3.39700E-13
 -1      2214 3.60921E+01 4.50728E+00 2.03976E-01 2.90351E-01-7.65832E-13-3.69038E-13
 -1      2215 3.34373E+01 3.05972E+00 9.74352E-02-8.02529E-01-6.98386E-13-3.35287E-13
 -1      2216 3.37730E+01 5.11620E+00-1.48512E-01-1.29356E+00-8.52873E-13-2.20296E-13
 -1      2217 1.76742E+01-5.64910E+00 1.16734E-02 6.43368E+00-2.95319E-14-7.70162E-13
 -1      2218 3.92954E+00-4.62230E+00-1.16219E-01 3.47388E+00-2.28123E-13-4.88221E-13
 -1      2219 2.28058E+00-3.98248E+00-8.95466E-02-1.18082E+00-1.33199E-13-9.32587E-14
 -1      2220 5.30096E+00-4.90163E+00-1.36370E-01-5.07790E+00-2.15272E-13-2.12330E-13
 -1      2221 1.14162E+01-5.56301E+00-1.31751E-01-6.83382E+00-1.60372E-13-5.67657E-13
 -1      2222 1.92247E+01-4.79224E+00 5.50099E-04-6.57051E+00-6.61138E-14-5.51698E-13
 -1      2223 2.70111E+01-2.32649E+00 1.03043E-01-4.42145E+00 7.65221E-14-3.00593E-13
 -1      2224 3.23935E+01 1.73702E+00 2.07764E-01-1.66597E+00 2.49287E-13-1.46438E-13
 -1      2225 3.62263E+01 7.92685E+00 2.95387E-01-9.28551E-02 4.34097E-13-1.08739E-13
 -1      2226 3.51809E+01 5.67618E+00 2.88571E-01-1.95801E-01 3.27127E-13-2.53630E-13
 -1      2227 2.56954E+01-3.55668E+00 1.35957E-02 4.56217E+00-3.17912E-13-6.28497E-13
 -1      2228 2.48025E+01-4.94807E+00 1.42708E-01 4.47899E+00-8.47100E-14-5.15421E-13
 -1      2229 2.80232E+01-3.89468E+00-2.11996E-01 2.84763E+00-2.36838E-13-3.24296E-13
 -1      2230 3.57103E+01 4.00634E+00 3.05251E-01-2.80804E-01 8.24341E-15-4.08451E-13
 -1      2231 2.01381E+01 5.07389E-01 3.79993E-03 6.77857E-01 2.05452E-13 2.00400E-13
 -1      2232 2.04056E+01 7.00590E-01 2.08090E-02 9.69847E-01 2.13208E-13 2.37386E-13
 -1      2233 1.95709E+01 3.52093E+00-1.11150E-02-5.90796E-01 4.23064E-15-3.32413E-13
 -1      2234 1.96055E+01 3.47475E+00-1.04161E-02-7.75053E-01-2.60393E-14-3.38297E-13
 -1      2235 1.96509E+01 3.38610E+00-1.26887E-02-9.39474E-01-5.27933E-14-3.31330E-13
 -1      2236 1.97105E+01 3.30463E+00-1.26459E-02-1.12887E+00-9.11651E-14-3.16695E-13
 -1      2237 1.97963E+01 3.03867E+00 3.87696E-04-7.91134E-01-3.12684E-14-3.10019E-13
 -1      2238 1.95247E+01 3.60430E+00-9.64472E-03 9.94173E-02 1.04842E-13-3.13333E-13
 -1      2239 1.95241E+01 3.60512E+00-9.64779E-03-7.98762E-02 7.52637E-14-3.27102E-13
 -1      2240 1.95501E+01 3.56451E+00-9.73685E-03 4.45089E-01 1.48835E-13-2.84737E-13
 -1      2241 1.95331E+01 3.58729E+00-1.01725E-02 2.64409E-01 1.23040E-13-3.00619E-13
 -1      2242 1.96906E+01 3.22847E+00-8.36268E-04 1.69318E-01 1.07418E-13-2.93548E-13
 -1      2243 1.96105E+01 3.46715E+00-1.06149E-02 7.88856E-01 2.01038E-13-2.72277E-13
 -1      2244 1.95750E+01 3.51453E+00-1.12470E-02 6.07491E-01 1.72682E-13-2.78540E-13
 -1      2245 1.97266E+01 3.16433E+00-4.44739E-04 4.87213E-01 1.50456E-13-2.59195E-13
 -1      2246 1.97186E+01 3.29224E+00-1.29429E-02 1.14224E+00 2.63727E-13-2.08021E-13
 -1      2247 1.96574E+01 3.37605E+00-1.29118E-02 9.52938E-01 2.22114E-13-2.44863E-13
 -1      2248 1.98019E+01 3.02954E+00 3.10434E-04 8.02596E-01 2.03526E-13-2.35693E-13
 -1      2249 1.98941E+01 3.00539E+00-1.81556E-02 1.48960E+00 3.09090E-13-1.36631E-13
 -1      2250 1.97966E+01 3.14716E+00-1.52072E-02 1.29906E+00 2.80839E-13-1.87061E-13
 -1      2251 1.99284E+01 2.80293E+00 1.97692E-03 1.10889E+00 2.63066E-13-1.77614E-13
 -1      2252 2.01675E+01 2.54473E+00-2.83989E-02 1.79446E+00 3.23292E-13-2.79898E-14
 -1      2253 2.00190E+01 2.78452E+00-1.70967E-02 1.61980E+00 3.09062E-13-8.81326E-14
 -1      2254 2.01192E+01 2.45082E+00 5.85152E-03 1.37511E+00 2.95541E-13-1.01015E-13
 -1      2255 2.58451E+01-4.15904E+00-7.39406E-02 4.14276E+00 9.10383E-14-1.04083E-13
 -1      2256 2.21202E+01-5.10219E+00 6.41465E-02 5.35998E+00 9.54237E-14-2.36811E-13
 -1      2257 1.98626E+01 2.70060E-01 4.82709E-03 2.83773E-01 1.52601E-13 1.60063E-13
 -1      2258 2.00224E+01 3.69332E-01 2.01959E-02 4.41712E-01 1.76705E-13 1.92054E-13
 -1      2259 2.02044E+01 6.36284E-01-2.27396E-03 7.03785E-01 2.08015E-13 9.88541E-14
 -1      2260 2.03940E+01 8.56076E-01 1.30056E-02-1.00068E+00-1.78038E-13-8.83941E-14
 -1      2261 2.01839E+01 6.29663E-01-3.92914E-03-6.90007E-01-1.44520E-13-8.73759E-14
 -1      2262 3.22565E+01 4.12244E+00-1.34100E-01-6.38988E-01 4.12670E-13-5.24747E-13
 -1      2263 3.11843E+01 1.85209E+00-3.31144E-02-6.43808E-02 3.93269E-13-4.62796E-13
 -1      2264 2.01190E+01 4.71064E-01 1.61495E-02-4.73696E-01-1.27062E-13-8.23898E-14
 -1      2265 1.99789E+01 3.47088E-01 1.20601E-04-3.01210E-01-9.21650E-14-9.38555E-14
 -1      2266 2.02416E+01 7.47278E-01-1.90478E-03-6.92347E-01-1.43870E-13-1.22233E-13
 -1      2267 1.99167E+01 2.63242E-01 1.08699E-02-1.61894E-01-6.55889E-14-7.84298E-14
 -1      2268 1.98398E+01 1.92850E-01 8.40936E-04-6.29027E-02-5.44502E-14-8.17647E-14
 -1      2269 2.00790E+01 4.20540E-01-3.95242E-03-3.05977E-01-8.54699E-14-1.17137E-13
 -1      2270 1.97974E+01 1.44481E-01 6.40252E-03 2.17769E-02-5.68997E-14-8.04046E-14
 -1      2271 1.97654E+01 1.03632E-01 9.59518E-04 7.77937E-02-5.67307E-14-9.70656E-14
 -1      2272 1.99619E+01 2.34598E-01-3.77480E-03-6.22318E-02-6.31849E-14-1.08689E-13
 -1      2273 1.97424E+01 7.53231E-02 3.60283E-03 1.27329E-01-6.24387E-14-8.88744E-14
 -1      2274 1.97398E+01 5.18678E-02 9.80053E-04 1.57922E-01-5.00089E-14-1.04145E-13
 -1      2275 1.98911E+01 1.25940E-01-3.09746E-03 8.53730E-02-7.02696E-14-1.22788E-13
 -1      2276 1.97322E+01 3.57739E-02 1.89163E-03 1.85747E-01-6.53154E-14-1.09682E-13
 -1      2277 1.97484E+01 2.33193E-02 1.00230E-03 2.01690E-01-7.74583E-14-1.17039E-13
 -1      2278 1.98586E+01 6.30957E-02-2.33564E-03 1.71705E-01-6.55448E-14-1.08971E-13
 -1      2279 1.97521E+01 1.52714E-02 8.37004E-04 2.16975E-01-8.45132E-14-1.18341E-13
 -1      2280 1.97806E+01 1.02800E-02 1.07018E-03 2.25335E-01-9.67334E-14-1.20531E-13
 -1      2281 1.98547E+01 2.91048E-02-1.71052E-03 2.20765E-01-8.52572E-14-1.35449E-13
 -1      2282 1.97925E+01 7.90104E-03 1.91634E-04 2.34572E-01-1.26934E-13-9.55573E-14
 -1      2283 1.98293E+01 8.31131E-03 1.20833E-03 2.40283E-01-1.47485E-13-8.27802E-14
 -1      2284 1.98714E+01 1.46179E-02-1.26534E-03 2.49332E-01-9.78036E-14-9.83118E-14
 -1      2285 1.98475E+01 1.01860E-02-1.91237E-04 2.48250E-01-1.23149E-13-6.52984E-14
 -1      2286 1.98909E+01 1.47776E-02 1.43233E-03 2.54973E-01-7.26107E-14-4.94715E-14
 -1      2287 1.99031E+01 1.41955E-02-9.81444E-04 2.69516E-01-1.07437E-13-3.56379E-14
 -1      2288 1.99141E+01 2.00617E-02-4.05551E-04 2.65348E-01-4.32349E-14-2.09028E-14
 -1      2289 1.99640E+01 2.81367E-02 1.75223E-03 2.75971E-01-3.88612E-15-2.08601E-14
 -1      2290 1.99466E+01 2.46028E-02-8.24917E-04 2.90402E-01-5.72573E-14 3.63176E-14
 -1      2291 1.99919E+01 3.63504E-02-5.16108E-04 2.91738E-01 1.98807E-14 7.23343E-15
 -1      2292 2.00493E+01 4.75492E-02 2.17458E-03 3.08692E-01 6.89721E-14 9.45569E-15
 -1      2293 2.00004E+01 4.39558E-02-7.61680E-04 3.19128E-01 1.04552E-15 8.90031E-14
 -1      2294 2.00821E+01 5.84417E-02-5.69772E-04 3.32408E-01 3.71082E-14-5.03491E-14
 -1      2295 2.01491E+01 7.26020E-02 2.70155E-03 3.57860E-01 1.48277E-14-3.94147E-14
 -1      2296 2.00643E+01 7.12275E-02-7.60500E-04 3.61593E-01 2.42802E-14 1.11200E-14
 -1      2297 2.01872E+01 8.60268E-02-6.00830E-04 3.91810E-01 7.17200E-17-8.70610E-14
 -1      2298 2.02664E+01 1.03032E-01 3.32666E-03 4.27738E-01 7.72087E-15-8.21694E-14
 -1      2299 2.01391E+01 1.05874E-01-7.92744E-04 4.22904E-01-1.32713E-14-9.68523E-14
 -1      2300 2.03108E+01 1.18784E-01-6.32423E-04 4.73977E-01-1.40773E-15-8.14328E-14
 -1      2301 2.04054E+01 1.38337E-01 4.02626E-03 5.22119E-01-2.11377E-14-8.12230E-14
 -1      2302 2.02263E+01 1.47432E-01-8.32690E-04 5.07582E-01-2.69969E-14-4.86620E-15
 -1      2303 2.04569E+01 1.55893E-01-6.73460E-04 5.82366E-01-5.11419E-14-1.32175E-13
 -1      2304 2.05705E+01 1.77147E-01 4.74523E-03 6.43962E-01-2.46612E-14-1.20272E-13
 -1      2305 2.03279E+01 1.94937E-01-8.61613E-04 6.19496E-01-5.73628E-14-3.37054E-14
 -1      2306 2.06304E+01 1.95221E-01-7.08568E-04 7.19282E-01 4.92661E-15-1.64044E-13
 -1      2307 2.07665E+01 2.16134E-01 5.37516E-03 7.94493E-01-6.00496E-14-1.10380E-13
 -1      2308 2.04459E+01 2.45962E-01-8.79728E-04 7.61443E-01-6.30964E-14-1.16890E-13
 -1      2309 2.08366E+01 2.31912E-01-6.76813E-04 8.84637E-01-1.34856E-13-1.07250E-13
 -1      2310 2.09983E+01 2.48185E-01 5.72428E-03 9.71454E-01-1.25947E-13-1.20391E-13
 -1      2311 2.05829E+01 2.94999E-01-9.32404E-04 9.34174E-01-7.27405E-14-2.06495E-13
 -1      2312 2.10820E+01 2.56112E-01-4.33623E-04 1.07368E+00-3.14283E-14-5.68267E-14
 -1      2313 2.12718E+01 2.59553E-01 5.48082E-03 1.16606E+00 4.95369E-14-7.72799E-15
 -1      2314 2.07431E+01 3.30819E-01-1.15964E-03 1.13464E+00-2.77962E-14-8.46134E-14
 -1      2315 2.13761E+01 2.49578E-01 3.06947E-04 1.27316E+00 5.37762E-14 1.21398E-15
 -1      2316 2.15957E+01 2.25981E-01 4.17510E-03 1.35814E+00 1.03717E-13-1.48459E-14
 -1      2317 2.09345E+01 3.32512E-01-1.87518E-03 1.35304E+00 5.78162E-14-1.40172E-14
 -1      2318 2.17347E+01 1.81632E-01 2.03409E-03 1.45533E+00 1.19804E-13-4.57928E-14
 -1      2319 2.19845E+01 1.09041E-01 1.16320E-03 1.50918E+00 1.54344E-13 1.88994E-14
 -1      2320 2.11737E+01 2.64514E-01-3.65922E-03 1.56819E+00 9.19364E-14-1.70426E-14
 -1      2321 2.21844E+01 6.95612E-03 5.44975E-03 1.56931E+00 1.67084E-13-1.58517E-14
 -1      2322 2.24634E+01-1.42622E-01-4.30357E-03 1.55378E+00 1.30791E-13 4.59693E-14
 -1      2323 2.14938E+01 7.29484E-02-7.35502E-03 1.74041E+00 1.52539E-13 4.72971E-14
 -1      2324 2.27665E+01-3.27101E-01 1.11641E-02 1.53098E+00 1.63160E-13 1.83059E-14
 -1      2325 2.30690E+01-5.75033E-01-1.27810E-02 1.39299E+00 1.08084E-13 3.67848E-15
 -1      2326 2.19545E+01-3.09049E-01-1.36792E-02 1.80123E+00 1.29048E-13-5.36665E-14
 -1      2327 2.35264E+01-8.47139E-01 1.82262E-02 1.21782E+00-1.43839E-14-3.10104E-14
 -1      2328 2.38328E+01-1.17205E+00-2.36124E-02 9.00939E-01 3.35895E-14-2.70064E-14
 -1      2329 2.26440E+01-9.28126E-01-2.21247E-02 1.64092E+00 2.05853E-14-1.64339E-13
 -1      2330 2.44706E+01-1.46973E+00 2.18220E-02 4.90020E-01 7.89017E-14-6.95902E-14
 -1      2331 2.47288E+01-1.74203E+00-3.36495E-02-2.55608E-02 8.12492E-14 1.81452E-14
 -1      2332 2.36515E+01-1.72167E+00-2.92517E-02 1.10744E+00 4.66380E-15-1.44990E-13
 -1      2333 2.54660E+01-1.86980E+00 6.83717E-03-7.18067E-01 6.90610E-14 3.29658E-14
 -1      2334 2.56006E+01-1.77138E+00-2.42529E-02-1.33993E+00 3.43549E-14 5.71097E-14
 -1      2335 2.49784E+01-2.36119E+00-2.95117E-02 4.51198E-02 8.03487E-14 3.28463E-14
 -1      2336 2.61131E+01-1.39920E+00-4.12982E-02-2.08680E+00 6.75484E-14 1.64382E-14
 -1      2337 2.60640E+01-6.66809E-01-1.12839E-02-2.47545E+00-1.08403E-14 3.88769E-14
 -1      2338 2.63020E+01-2.02751E+00-1.13007E-02-1.48206E+00 2.95250E-14 6.50365E-14
 -1      2339 2.61012E+01 3.67332E-01-1.01510E-01-2.81103E+00-2.10575E-13 5.46924E-14
 -1      2340 2.58520E+01 1.56929E+00-2.22190E-02-2.51924E+00-3.15581E-13 5.34989E-15
 -1      2341 2.70953E+01-3.81467E-01-4.68451E-02-2.68524E+00-1.34438E-13 2.55969E-13
 -1      2342 2.56243E+01 2.61883E+00-1.11152E-01-1.76255E+00-2.45373E-13-2.55956E-13
 -1      2343 2.54823E+01 3.29319E+00-5.62811E-02-7.80927E-01-1.67213E-13-2.32502E-13
 -1      2344 2.70659E+01 2.74202E+00-1.07092E-01-2.39194E+00-5.03333E-13 1.42664E-13
 -1      2345 2.54120E+01 3.30353E+00-8.80990E-02 6.48125E-01-4.81143E-14-4.16721E-13
 -1      2346 2.55879E+01 2.71318E+00-1.16890E-01 1.65167E+00 1.84852E-14-3.38783E-13
 -1      2347 2.68448E+01 4.28519E+00-1.04770E-01-1.27113E-01-2.16618E-13-3.65380E-13
 -1      2348 2.58503E+01 1.69613E+00-1.57622E-02 2.44893E+00 5.46160E-14-3.61745E-13
 -1      2349 2.60694E+01 4.94202E-01-1.07036E-01 2.77144E+00 9.33455E-14-1.94419E-13
 -1      2350 2.70917E+01 2.79401E+00-8.29584E-02 2.27264E+00 2.40086E-14-5.25205E-13
 -1      2351 2.60542E+01-5.58420E-01-1.52477E-02 2.53197E+00 5.09835E-14-9.04832E-14
 -1      2352 2.61384E+01-1.34112E+00-4.44103E-02 2.16089E+00 5.28032E-14-1.78812E-13
 -1      2353 2.70868E+01-9.54187E-02-5.38459E-02 2.76375E+00 1.18738E-13-3.66263E-13
 -1      2354 2.56242E+01-1.75400E+00-2.78198E-02 1.40014E+00 1.33448E-13-4.14850E-14
 -1      2355 2.55021E+01-1.87182E+00 5.54691E-03 7.82113E-01 1.33891E-13 8.22051E-14
 -1      2356 2.63798E+01-2.01165E+00-1.28774E-02 1.54559E+00 1.43687E-13-2.03837E-13
 -1      2357 2.47755E+01-1.76270E+00-3.17560E-02 8.53187E-02 2.21238E-14 1.40332E-13
 -1      2358 2.45158E+01-1.50642E+00 2.04060E-02-4.43734E-01 2.54180E-14 1.21672E-13
 -1      2359 2.50497E+01-2.36355E+00-2.20522E-02 1.74538E-02 9.21680E-14-1.00837E-14
 -1      2360 2.38706E+01-1.20927E+00-2.41209E-02-8.70614E-01 4.95819E-14 2.11239E-13
 -1      2361 2.35619E+01-8.83621E-01 1.79268E-02-1.20022E+00 7.67702E-15 3.55218E-13
 -1      2362 2.37147E+01-1.76297E+00-2.61672E-02-1.07355E+00 1.33009E-13 5.72519E-14
 -1      2363 2.30944E+01-6.06552E-01-1.34873E-02-1.38644E+00-2.04637E-14 4.37657E-13
 -1      2364 2.27888E+01-3.53430E-01 1.11707E-02-1.53396E+00 8.40738E-14 5.50981E-13
 -1      2365 2.26837E+01-9.67716E-01-2.10938E-02-1.63474E+00 6.05592E-14 2.00170E-13
 -1      2366 2.24776E+01-1.63573E-01-4.88530E-03-1.56361E+00-1.68251E-14 3.64990E-13
 -1      2367 2.21957E+01-8.63949E-03 5.73639E-03-1.58502E+00-8.06865E-14 9.23580E-14
 -1      2368 2.19760E+01-3.36928E-01-1.33587E-02-1.81182E+00-1.01441E-13 1.40632E-13
 -1      2369 2.19898E+01 9.74566E-02 7.39831E-04-1.52863E+00-6.56282E-15 3.07384E-14
 -1      2370 2.17374E+01 1.74384E-01 2.37651E-03-1.47773E+00-1.15176E-13 7.46008E-14
 -1      2371 2.15033E+01 5.65320E-02-7.31322E-03-1.76078E+00-9.51002E-14 1.41822E-13
 -1      2372 2.15942E+01 2.21515E-01 3.86181E-03-1.38188E+00-1.95363E-13 1.80049E-13
 -1      2373 2.13725E+01 2.48530E-01 6.56002E-04-1.29757E+00-1.32740E-13 3.88443E-13
 -1      2374 2.11756E+01 2.57385E-01-3.76497E-03-1.59308E+00-3.50398E-14 2.61305E-13
 -1      2375 2.12654E+01 2.60611E-01 5.25268E-03-1.18985E+00 9.55475E-15 4.12471E-13
 -1      2376 2.10741E+01 2.60208E-01-5.50737E-05-1.09623E+00 1.61077E-13 5.76847E-13
 -1      2377 2.09320E+01 3.32767E-01-2.02936E-03-1.37822E+00 7.50011E-14 2.43572E-13
 -1      2378 2.09886E+01 2.54400E-01 5.55524E-03-9.91500E-01 1.73024E-13 6.86650E-13
 -1      2379 2.08265E+01 2.41453E-01-2.18409E-04-9.01478E-01 2.20287E-13 6.11826E-13
 -1      2380 2.07384E+01 3.37816E-01-1.32019E-03-1.15631E+00 1.96532E-13 3.82017E-13
 -1      2381 2.07556E+01 2.28471E-01 5.24215E-03-8.06617E-01 3.39320E-13 7.88961E-13
 -1      2382 2.06208E+01 2.11848E-01-1.15348E-04-7.25757E-01 3.52950E-13 6.57056E-13
 -1      2383 2.05779E+01 3.09691E-01-1.08223E-03-9.48169E-01 3.56438E-13 6.80517E-13
 -1      2384 2.05609E+01 1.97886E-01 4.60446E-03-6.42864E-01 1.55460E-13 5.42458E-13
 -1      2385 2.04511E+01 1.82647E-01 1.05678E-04-5.72325E-01 1.47580E-13 5.82670E-13
 -1      2386 2.04423E+01 2.70918E-01-1.00794E-03-7.62525E-01 2.12918E-13 6.72775E-13
 -1      2387 2.04001E+01 1.71201E-01 3.82856E-03-5.00584E-01 1.25386E-13 5.20209E-13
 -1      2388 2.03126E+01 1.59921E-01 3.85737E-04-4.39008E-01 3.03211E-14 5.53713E-13
 -1      2389 2.03273E+01 2.34433E-01-9.57953E-04-6.00761E-01 7.78438E-14 8.16179E-13
 -1      2390 2.02688E+01 1.52275E-01 3.00061E-03-3.76199E-01-1.67386E-13 5.02769E-13
 -1      2391 2.02017E+01 1.46155E-01 9.99869E-04-3.21401E-01-1.94997E-13 5.62387E-13
 -1      2392 2.02300E+01 2.07025E-01-7.48087E-04-4.59944E-01-1.27122E-13 6.24179E-13
 -1      2393 1.96227E+01 7.73820E-02 2.28542E-03-7.44725E-02 4.75951E-14 8.28519E-14
 -1      2394 1.96473E+01 1.08119E-01 6.96093E-03-2.62630E-02 7.94844E-14 1.16232E-13
 -1      2395 1.96065E+01 3.79194E-02 1.65776E-03-1.46441E-01 6.83057E-14 2.61002E-14
 -1      2396 1.95990E+01 5.55084E-02 3.76297E-03-1.20844E-01 5.39025E-14 5.38835E-14
 -1      2397 1.97719E+01 9.74248E-02-3.33546E-03-8.42659E-02 6.94275E-14-2.23406E-14
 -1      2398 1.96297E+01 1.60301E-02 1.31726E-03-1.83959E-01 1.05221E-13 1.56964E-14
 -1      2399 1.96029E+01 2.55321E-02 1.93121E-03-1.71275E-01 7.53722E-14 1.92509E-14
 -1      2400 1.97452E+01 4.70289E-02-2.49261E-03-1.65090E-01 8.93550E-14-3.01794E-14
 -1      2401 1.96781E+01 5.48210E-03 1.15428E-03-2.02338E-01 1.08064E-13 2.92372E-14
 -1      2402 1.96398E+01 9.66822E-03 8.71552E-04-1.96447E-01 1.19706E-13 5.70228E-14
 -1      2403 1.97526E+01 1.96077E-02-1.78747E-03-2.08913E-01 9.07048E-14 2.20069E-15
 -1      2404 1.97431E+01 2.69374E-03 1.12367E-03-2.11869E-01 2.46957E-14 8.53373E-14
 -1      2405 1.96976E+01 3.19862E-03 2.65881E-04-2.08659E-01 7.17907E-14 7.70793E-14
 -1      2406 1.97832E+01 7.10441E-03-1.29005E-03-2.32209E-01 4.84564E-14 3.16957E-14
 -1      2407 1.98199E+01 5.42933E-03 1.20173E-03-2.19756E-01 9.99954E-14 4.78186E-14
 -1      2408 1.97692E+01 3.29420E-03-5.35275E-05-2.16335E-01 7.06487E-14 6.69522E-14
 -1      2409 1.98299E+01 4.83688E-03-9.79807E-04-2.46315E-01 6.66930E-14 7.77060E-14
 -1      2410 1.99070E+01 1.21620E-02 1.36739E-03-2.31157E-01 5.76092E-14 9.91451E-14
 -1      2411 1.98514E+01 8.11418E-03-1.84864E-04-2.25449E-01 8.92507E-14 6.19576E-14
 -1      2412 1.98886E+01 9.84558E-03-8.17732E-04-2.59261E-01 8.35127E-14 2.31870E-14
 -1      2413 2.00048E+01 2.17024E-02 1.59551E-03-2.49749E-01 4.08861E-14 9.40609E-14
 -1      2414 1.99435E+01 1.63297E-02-1.91416E-04-2.40282E-01 5.37203E-14 9.88067E-14
 -1      2415 1.99576E+01 2.00672E-02-7.67355E-04-2.76810E-01 3.55925E-14 3.81011E-14
 -1      2416 2.01153E+01 3.29236E-02 1.85204E-03-2.77962E-01-2.88446E-14 9.89061E-14
 -1      2417 2.00468E+01 2.68129E-02-1.16528E-04-2.63809E-01-8.62320E-15 1.05288E-13
 -1      2418 2.00372E+01 3.38335E-02-7.98454E-04-3.03026E-01 4.92991E-15 4.29601E-14
 -1      2419 2.02415E+01 4.44988E-02 2.08771E-03-3.16958E-01 4.55974E-14 1.06966E-13
 -1      2420 2.01638E+01 3.83748E-02 9.10919E-06-2.97784E-01 2.39542E-14 9.34492E-14
 -1      2421 2.01286E+01 4.94845E-02-8.86392E-04-3.40482E-01-2.05308E-14-2.67924E-14
 -1      2422 2.03867E+01 5.46131E-02 2.23064E-03-3.66340E-01 7.82022E-14 7.14434E-14
 -1      2423 2.02978E+01 4.94948E-02 1.63565E-04-3.42583E-01 7.59115E-14 9.75964E-14
 -1      2424 2.02343E+01 6.49926E-02-1.01131E-03-3.90187E-01 7.06959E-14 5.32060E-15
 -1      2425 2.05538E+01 6.06331E-02 2.17860E-03-4.23586E-01 1.90515E-13-1.93841E-14
 -1      2426 2.04523E+01 5.80117E-02 3.31703E-04-3.96774E-01 1.45421E-13 1.41236E-14
 -1      2427 2.03571E+01 7.75467E-02-1.15797E-03-4.51214E-01 1.44134E-13 4.51583E-15
 -1      2428 2.07449E+01 5.87660E-02 1.79424E-03-4.83178E-01 9.48556E-14 4.94632E-14
 -1      2429 2.06305E+01 6.07809E-02 5.04422E-04-4.56388E-01 1.45890E-13 4.12769E-14
 -1      2430 2.04999E+01 8.30927E-02-1.31611E-03-5.20009E-01 1.27285E-13 4.28783E-14
 -1      2431 2.09600E+01 4.38158E-02 9.08973E-04-5.35484E-01-2.14255E-14 7.86761E-14
 -1      2432 2.08342E+01 5.33592E-02 6.78152E-04-5.13900E-01 6.05841E-14 8.92742E-14
 -1      2433 2.06658E+01 7.58959E-02-1.48033E-03-5.89390E-01 4.76376E-14 1.40899E-13
 -1      2434 2.11961E+01 9.30832E-03-6.53284E-04-5.65564E-01-7.16391E-14-3.75393E-14
 -1      2435 2.10633E+01 2.98889E-02 8.51929E-04-5.57020E-01-4.30760E-14 2.66760E-14
 -1      2436 2.08572E+01 4.83282E-02-1.64574E-03-6.47287E-01 2.03083E-15 9.05614E-14
 -1      2437 2.14459E+01-5.14891E-02-3.01516E-03-5.52432E-01-8.29912E-14-8.64924E-14
 -1      2438 2.13140E+01-1.64369E-02 1.01639E-03-5.67594E-01-1.02989E-13-6.69380E-14
 -1      2439 2.10755E+01-8.66416E-03-1.79194E-03-6.75481E-01-3.39757E-14-2.44325E-15
 -1      2440 2.16959E+01-1.42796E-01-6.11936E-03-4.69819E-01 8.86851E-14-5.30609E-15
 -1      2441 2.15776E+01-9.16444E-02 1.12515E-03-5.21393E-01-6.76098E-15-6.33633E-14
 -1      2442 2.13202E+01-1.03576E-01-1.84409E-03-6.48954E-01-6.52827E-14-2.16555E-14
 -1      2443 2.19248E+01-2.60844E-01-9.52425E-03-2.90308E-01 8.36982E-15 1.20260E-13
 -1      2444 2.18376E+01-1.97008E-01 1.05067E-03-3.90259E-01 1.14136E-13 1.09788E-13
 -1      2445 2.15867E+01-2.39607E-01-1.59819E-03-5.37095E-01-7.36173E-15 2.22574E-14
 -1      2446 2.21019E+01-3.85775E-01-1.22453E-02 4.55843E-03-2.50257E-13 1.94470E-13
 -1      2447 2.20666E+01-3.22129E-01 5.06780E-04-1.49079E-01-1.11010E-13 1.84849E-13
 -1      2448 2.18621E+01-4.06040E-01-6.51229E-04-3.09093E-01-4.61230E-14 1.79476E-13
 -1      2449 2.21869E+01-4.73412E-01-1.25076E-02 4.06851E-01-2.09920E-13 1.81943E-13
 -1      2450 2.22239E+01-4.36325E-01-9.62291E-04 2.10012E-01-3.23020E-13 1.81953E-13
 -1      2451 2.21195E+01-5.67220E-01 1.42167E-03 5.33413E-02-2.32434E-13 1.52979E-13
 -1      2452 2.21358E+01-4.55166E-01-8.04572E-03 8.58634E-01 4.15314E-14 1.49709E-13
 -1      2453 2.22571E+01-4.82310E-01-3.43719E-03 6.55375E-01-1.18035E-14 1.27946E-13
 -1      2454 2.23118E+01-6.53124E-01 5.13858E-03 5.34461E-01-9.56190E-14 1.44804E-14
 -1      2455 2.19182E+01-2.64904E-01 1.34874E-03 1.23298E+00 5.67849E-14 2.40707E-13
 -1      2456 2.21154E+01-3.86129E-01-6.54327E-03 1.09031E+00 3.64908E-14 1.62204E-13
 -1      2457 2.23725E+01-5.66343E-01 1.01934E-02 1.05393E+00 2.60235E-14 8.64066E-14
 -1      2458 2.15546E+01 1.02591E-01 1.20591E-02 1.35555E+00-1.47583E-13 2.89465E-13
 -1      2459 2.17887E+01-1.03592E-01-9.14184E-03 1.35141E+00-6.36557E-15 2.65422E-13
 -1      2460 2.22431E+01-2.36152E-01 1.24244E-02 1.44669E+00-3.52132E-14 1.44336E-13
 -1      2461 2.11456E+01 5.40258E-01 1.76771E-02 1.08289E+00-3.94216E-14 2.43231E-13
 -1      2462 2.13506E+01 3.21088E-01-7.99723E-03 1.26461E+00-1.49010E-13 2.27990E-13
 -1      2463 2.19311E+01 3.00590E-01 5.83660E-03 1.50105E+00-9.14748E-14 1.81846E-13
 -1      2464 2.08642E+01 8.42298E-01 1.41485E-02 4.23525E-01 9.93129E-15 3.57548E-13
 -1      2465 2.09691E+01 7.21109E-01-3.65235E-04 7.57622E-01-1.69829E-15 3.25555E-13
 -1      2466 2.15647E+01 8.60658E-01-6.11943E-03 1.07027E+00-6.83529E-14 1.55766E-13
 -1      2467 2.08613E+01 8.35251E-01 3.80953E-03-4.03864E-01 1.03612E-13 1.72758E-13
 -1      2468 2.08257E+01 8.83870E-01 1.09502E-02-3.61741E-02 9.36855E-14 3.03696E-13
 -1      2469 2.13523E+01 1.16849E+00-1.42979E-02 2.26755E-01 6.14148E-14 1.01889E-13
 -1      2470 2.11496E+01 5.22700E-01-5.91723E-03-1.07357E+00 1.57171E-13 5.13227E-14
 -1      2471 2.09876E+01 7.11114E-01 1.79579E-02-8.11845E-01 7.02129E-14 6.12605E-14
 -1      2472 2.14334E+01 1.04995E+00-1.09679E-02-7.10023E-01 1.64918E-13 4.99728E-14
 -1      2473 2.15853E+01 8.38301E-02-9.57935E-03-1.35797E+00 5.65578E-14 1.43881E-13
 -1      2474 2.13567E+01 3.07492E-01 1.51960E-02-1.27741E+00 1.53823E-13 6.44164E-14
 -1      2475 2.17523E+01 5.73934E-01 2.53091E-04-1.35758E+00 1.33132E-13-4.47483E-14
 -1      2476 2.19785E+01-2.77735E-01-7.61249E-03-1.23967E+00 1.38059E-13 4.92119E-14
 -1      2477 2.17570E+01-1.14706E-01 5.59642E-03-1.32525E+00 6.01315E-14 6.03658E-14
 -1      2478 2.21107E+01-8.26194E-03 8.78998E-03-1.52016E+00 1.08139E-13 7.04724E-14
 -1      2479 2.22067E+01-4.58268E-01-3.65991E-03-8.61663E-01 1.83545E-13 1.07984E-13
 -1      2480 2.20466E+01-3.92043E-01-4.55156E-03-1.04274E+00 2.08175E-13 8.71169E-14
 -1      2481 2.23310E+01-4.48249E-01 1.08024E-02-1.25666E+00 1.21359E-13 2.72128E-14
 -1      2482 2.22463E+01-4.69852E-01-7.80129E-04-4.03823E-01 2.23231E-13 1.74835E-13
 -1      2483 2.21704E+01-4.82682E-01-1.08168E-02-6.05649E-01 1.99344E-13 1.95615E-13
 -1      2484 2.23515E+01-6.42797E-01 7.26676E-03-7.69257E-01 1.09363E-13 1.65822E-13
 -1      2485 2.21358E+01-3.80052E-01 6.22801E-04 4.63690E-03 1.90022E-13 2.31344E-13
 -1      2486 2.21407E+01-4.34888E-01-1.23412E-02-1.68336E-01 2.86506E-13 2.19610E-13
 -1      2487 2.22093E+01-6.25286E-01 2.63369E-03-2.54340E-01 2.48837E-13 1.85433E-13
 -1      2488 2.19296E+01-2.55033E-01 1.15400E-03 3.03583E-01-1.02735E-14 1.29663E-13
 -1      2489 2.19973E+01-3.20278E-01-1.05661E-02 1.80817E-01 2.97210E-14 3.04492E-13
 -1      2490 2.19722E+01-4.88421E-01-3.55205E-04 1.70195E-01 1.66027E-13 1.24133E-13
 -1      2491 2.16756E+01-1.38064E-01 1.17123E-03 4.84898E-01-2.92155E-13-1.13331E-14
 -1      2492 2.17843E+01-1.95182E-01-7.36984E-03 4.13092E-01-5.40535E-14 1.33063E-13
 -1      2493 2.16980E+01-3.16964E-01-1.62153E-03 4.61067E-01-4.08514E-14 1.00678E-13
 -1      2494 2.14072E+01-4.77721E-02 1.02273E-03 5.67612E-01-2.44568E-13-1.24157E-13
 -1      2495 2.15372E+01-8.99514E-02-4.14972E-03 5.37406E-01-4.64020E-13-7.21423E-14
 -1      2496 2.14228E+01-1.62875E-01-1.96362E-03 6.23926E-01-3.49005E-13-6.25173E-15
 -1      2497 2.11462E+01 1.29832E-02 8.82731E-04 5.79133E-01-2.47406E-13 2.56159E-13
 -1      2498 2.12820E+01-1.43012E-02-1.52500E-03 5.78345E-01-1.27880E-13-2.05859E-14
 -1      2499 2.11651E+01-4.67577E-02-1.90052E-03 6.85529E-01-2.98928E-13 2.05478E-15
 -1      2500 2.09052E+01 4.90165E-02 8.10691E-04 5.45156E-01-4.16351E-13 3.41400E-13
 -1      2501 2.10361E+01 3.35458E-02 3.27441E-04 5.62782E-01-2.55683E-13 3.18043E-13
 -1      2502 2.09332E+01 2.98932E-02-1.72814E-03 6.76849E-01-3.18494E-13 3.25745E-13
 -1      2503 2.06911E+01 6.75686E-02 8.12250E-04 4.85516E-01 1.60804E-13 1.41431E-13
 -1      2504 2.08103E+01 6.00892E-02 1.46998E-03 5.13304E-01-2.20769E-13 1.50504E-13
 -1      2505 2.07298E+01 7.45199E-02-1.55936E-03 6.24755E-01-1.44105E-13 5.89218E-14
 -1      2506 2.05067E+01 7.57588E-02 9.23668E-04 4.13472E-01 2.59075E-13 3.11771E-13
 -1      2507 2.06105E+01 7.27182E-02 2.06115E-03 4.46135E-01 2.74979E-13 3.18191E-13
 -1      2508 2.05546E+01 9.70484E-02-1.41528E-03 5.49141E-01 1.14730E-13-4.24865E-14
 -1      2509 2.03523E+01 7.91940E-02 9.94780E-04 3.36155E-01 1.00881E-13 2.53955E-13
 -1      2510 2.04390E+01 7.80839E-02 2.25911E-03 3.71108E-01 1.71337E-13 3.58090E-13
 -1      2511 2.04061E+01 1.06819E-01-1.38268E-03 4.63249E-01 2.13300E-13 8.54813E-14
 -1      2512 2.02268E+01 8.20306E-02 1.04502E-03 2.57015E-01 6.70370E-14 3.34417E-13
 -1      2513 2.02966E+01 8.09074E-02 2.25061E-03 2.93327E-01-6.25476E-16 3.03028E-13
 -1      2514 2.02821E+01 1.10573E-01-1.80131E-03 3.73522E-01 6.07785E-14 2.82101E-14
 -1      2515 2.01278E+01 8.57586E-02 1.16883E-03 1.77593E-01 4.26885E-14 4.13712E-13
 -1      2516 2.01816E+01 8.40748E-02 2.09378E-03 2.14575E-01 1.55832E-13 3.66346E-13
 -1      2517 2.01810E+01 1.13602E-01-1.89012E-03 2.82488E-01 9.48391E-14 2.14084E-13
 -1      2518 2.00896E+01 8.42789E-02 1.37591E-03 1.32449E-01-2.29918E-14 4.30471E-13
 -1      2519 1.99423E+01 4.62022E-01-2.02616E-03 2.48127E-01-2.03743E-13-2.13627E-13
 -1      2520 1.99656E+01 4.17821E-01 7.51437E-04 2.65297E-01-2.34202E-13-6.13763E-13
 -1      2521 1.99038E+01 5.40495E-01-2.26215E-03 1.86324E-01-1.66786E-14 1.35317E-14
 -1      2522 1.99224E+01 5.05770E-01 2.90299E-05 2.18308E-01-1.63334E-13 1.11390E-13
 -1      2523 1.99111E+01 4.81958E-01 1.08709E-03 2.70219E-01 9.90016E-14-1.89596E-14
 -1      2524 2.00365E+01 2.66701E-01-1.03278E-03 2.68803E-01-1.15335E-13-3.85882E-13
 -1      2525 2.00620E+01 2.17517E-01 1.73963E-03 2.53093E-01-7.76409E-14-2.90284E-13
 -1      2526 1.99893E+01 3.66836E-01-1.45898E-03 2.76395E-01-3.80313E-13-7.19484E-13
 -1      2527 2.00139E+01 3.19207E-01 1.43963E-03 2.75887E-01-2.72732E-13-4.44365E-13
 -1      2528 2.00284E+01 2.91057E-01-7.67148E-04 3.17078E-01-1.09240E-13-5.91597E-13
 -1      2529 1.99701E+01 3.90673E-01 6.38869E-04 3.14554E-01-1.65459E-13-5.25194E-13
 -1      2530 1.98775E+01 5.93148E-01-2.24498E-03 9.85285E-02-8.54149E-14-2.70332E-13
 -1      2531 1.98893E+01 5.72359E-01-6.90072E-04 1.41367E-01-6.99544E-14-2.09432E-13
 -1      2532 1.98642E+01 5.54920E-01 1.58762E-03 1.90375E-01 1.19889E-14-1.96780E-14
 -1      2533 1.98671E+01 6.13117E-01-1.93776E-03-4.53517E-03-8.00359E-14 2.33186E-13
 -1      2534 1.98704E+01 6.09153E-01-1.36168E-03 4.37211E-02-1.01431E-13-3.08903E-14
 -1      2535 1.98347E+01 6.01185E-01 1.96992E-03 8.37760E-02-3.06090E-14-1.99809E-13
 -1      2536 1.98750E+01 5.96933E-01-1.35229E-03-1.09489E-01-1.75504E-13 2.63669E-14
 -1      2537 1.98686E+01 6.10734E-01-1.89082E-03-6.23029E-02-1.54586E-13 1.97463E-13
 -1      2538 1.98268E+01 6.14419E-01 2.14980E-03-3.66349E-02 3.80610E-14 1.24915E-13
 -1      2539 1.99013E+01 5.46595E-01-4.99791E-04-2.00251E-01 2.53016E-14-9.41444E-14
 -1      2540 1.98855E+01 5.76030E-01-2.23827E-03-1.61541E-01-1.05752E-13 3.64273E-14
 -1      2541 1.98431E+01 5.91994E-01 2.12119E-03-1.54305E-01-5.74585E-14 1.71752E-13
 -1      2542 1.99449E+01 4.65338E-01 4.43319E-04-2.65802E-01 1.39181E-13 8.98631E-14
 -1      2543 1.99206E+01 5.08127E-01-2.32069E-03-2.40589E-01 8.24522E-14-1.84781E-13
 -1      2544 1.98833E+01 5.35047E-01 1.79343E-03-2.53711E-01 1.36129E-13-1.47228E-13
 -1      2545 2.00009E+01 3.62554E-01 1.22610E-03-2.93266E-01-1.18920E-14 3.24893E-13
 -1      2546 1.99709E+01 4.13578E-01-2.12781E-03-2.86929E-01 5.35009E-14 3.98605E-13
 -1      2547 1.99444E+01 4.48374E-01 1.18890E-03-3.20232E-01 5.90925E-14 5.89458E-14
 -1      2548 2.00604E+01 2.49810E-01 1.61044E-03-2.75300E-01-6.81511E-14 3.09581E-13
 -1      2549 2.00307E+01 3.03407E-01-1.48734E-03-2.90537E-01-7.37771E-14 3.99368E-13
 -1      2550 2.00208E+01 3.41823E-01 9.80586E-04-3.41548E-01-1.34897E-13 3.23687E-13
 -1      2551 3.97181E+00-3.38804E+00 1.90562E-02 3.67372E+00-5.96467E-14 3.76421E-13
 -1      2552 2.80028E+00-3.16520E+00 4.18966E-02 1.46111E+00-4.57898E-14 3.56215E-13
 -1      2553 1.76435E+01-5.29268E+00-6.30811E-02 6.93000E+00-1.33810E-13-1.36492E-13
 -1      2554 1.40606E+01-4.97242E+00 9.54651E-02 6.88459E+00-3.12639E-13 3.62446E-13
 -1      2555 1.96990E+01 1.46371E-01 3.41174E-03 5.57796E-02 8.94189E-14 1.33430E-13
 -1      2556 1.97759E+01 2.00502E-01 1.24189E-02 1.43290E-01 1.08964E-13 1.47293E-13
 -1      2557 1.98480E+01 1.85819E-01-3.98980E-03 5.83880E-02 1.04417E-13 3.26163E-14
 -1      2558 2.00864E+01 1.51635E-01 1.56516E-03-1.91491E-01-8.04112E-14 4.51216E-13
 -1      2559 3.00051E+00-3.01576E+00 5.25078E-02-1.01352E+00 1.15893E-13 3.19078E-13
 -1      2560 4.50823E+00-3.38689E+00 3.05698E-02-3.58119E+00 1.89043E-13-7.27751E-14
 -1      2561 9.80180E+00-4.26538E+00 1.04195E-03 6.68365E+00-2.96124E-13 4.93300E-13
 -1      2562 6.60595E+00-3.87282E+00 7.65982E-02 5.25392E+00-1.72973E-13 5.13034E-13
 -1      2563 2.99255E+01-9.13961E-01-1.39843E-01 1.27788E+00 2.41214E-13-4.02262E-13
 -1      2564 2.82246E+01-2.41870E+00-7.10092E-03 2.25223E+00 1.18537E-13-1.43913E-13
 -1      2565 2.04631E+01-5.59156E+00-3.18348E-02 5.90169E+00 4.10783E-14-6.10716E-13
 -1      2566 1.64941E+01-5.61321E+00 2.93119E-02 6.37657E+00 5.45397E-14-6.91898E-13
 -1      2567 6.71126E+00-3.62501E+00 6.65248E-02 4.94633E+00-1.65451E-13-6.09512E-13
 -1      2568 4.61762E+00-2.69300E+00 1.10098E-01 2.77843E+00-1.62606E-13-3.25795E-13
 -1      2569 1.95312E+01 3.59030E+00-1.01220E-02-2.44884E-01 6.50062E-14-3.36420E-13
 -1      2570 1.95469E+01 3.56943E+00-9.65875E-03-4.25455E-01 2.85484E-14-3.33003E-13
 -1      2571 1.97229E+01 3.17000E+00-4.89508E-04-4.72407E-01 2.28960E-14-3.08678E-13
 -1      2572 1.96893E+01 3.23057E+00-8.45519E-04-1.51593E-01 6.56666E-14-3.16764E-13
 -1      2573 3.19989E+01 4.33387E+00-8.31893E-02 6.58813E-01 2.43139E-13-9.10938E-14
 -1      2574 3.30682E+01 5.88333E+00-1.06750E-01 5.86118E-01 3.48166E-13-7.10820E-14
 -1      2575 3.23982E+01 7.13705E+00-1.31766E-01-5.17149E-01 4.28990E-13-4.08867E-13
 -1      2576 3.22156E+01 6.20618E+00-8.58016E-02-8.68264E-01 4.28158E-13-4.81420E-13
 -1      2577 3.27950E+01 7.13465E+00-8.90186E-02 4.51659E-01 3.65041E-13-1.15644E-13
 -1      2578 3.22741E+01 7.62875E+00-1.39122E-01 1.07295E-01 3.70870E-13-2.10118E-13
 -1      2579 3.01716E+01-2.55282E-01-2.02819E-02-9.73068E-01 6.40044E-14 4.82947E-14
 -1      2580 3.13018E+01 1.56775E+00-1.50010E-01-3.91955E-02 1.31076E-13-3.58602E-14
 -1      2581 2.53491E+01-3.93395E+00 1.15798E-02-4.10047E+00-1.14297E-13-1.64424E-13
 -1      2582 2.84576E+01-2.37656E+00-9.88602E-02-2.82621E+00 1.96232E-14 1.23040E-13
 -1      2583 1.81792E+01-5.34471E+00 8.36784E-03-6.51615E+00-2.89713E-13-5.01627E-13
 -1      2584 2.17279E+01-4.97086E+00-7.13702E-02-5.99809E+00-2.06224E-13-4.17527E-13
 -1      2585 1.14015E+01-4.83354E+00 4.16061E-02-6.77919E+00-2.15439E-13-4.22828E-13
 -1      2586 1.48838E+01-5.12509E+00 1.42120E-02-7.19769E+00-2.15716E-13-5.99756E-13
 -1      2587 1.78946E+01-5.18031E+00 7.60547E-02-6.62961E+00-3.26239E-13-3.73767E-13
 -1      2588 5.97902E+00-3.12113E+00 1.09389E-01-4.60677E+00-1.57291E-13-9.48130E-14
 -1      2589 8.41756E+00-3.86215E+00 7.03731E-02-6.20349E+00-2.09166E-13-3.46917E-13
 -1      2590 3.43789E+00-2.33584E+00 9.38573E-02-8.00342E-02-1.46700E-13-1.82632E-13
 -1      2591 3.82992E+00-2.64149E+00 7.76869E-02-2.57430E+00-1.39277E-13 8.31557E-14
 -1      2592 1.27386E+01-5.04659E+00 7.32309E-03 6.73388E+00-4.30211E-14-7.48249E-13
 -1      2593 9.56840E+00-4.56792E+00 4.51854E-02 5.96509E+00-1.32810E-13-6.69520E-13
 -1      2594 3.29053E+01 2.10183E+00-3.31980E-02 6.52183E-01 8.92619E-14-3.87357E-13
 -1      2595 3.35752E+01 4.01660E+00-1.45071E-01 1.14408E+00 2.49800E-15-5.10203E-13
 -1      2596 3.17704E+01 6.87451E-02-1.25370E-01-1.65003E-01-4.79339E-13-3.82472E-13
 -1      2597 3.03541E+01-1.71726E+00-1.88859E-02 8.25001E-01-4.17229E-13-2.05058E-13
 -1      2598 3.35973E+01 7.14579E+00-1.41570E-01-2.37193E-01-6.79290E-13-3.77514E-13
 -1      2599 3.34580E+01 6.61077E+00-9.97705E-02-9.18569E-01-7.81819E-13-2.07778E-13
 -1      2600 3.31279E+01 5.92781E+00-1.06029E-01 1.15989E+00-1.76137E-13-6.11788E-13
 -1      2601 3.32803E+01 6.92307E+00-1.11002E-01 5.23239E-01-4.61353E-13-4.60354E-13
 -1      2602 2.95983E+01-2.39936E+00-1.64126E-02-1.53629E+00 1.96516E-13-3.53162E-13
 -1      2603 3.19226E+01-4.44940E-01-9.97752E-02-5.37498E-01 1.39722E-13-4.07674E-13
 -1      2604 2.34642E+01-5.23482E+00 2.54792E-02-4.70028E+00 1.52545E-13 1.45606E-13
 -1      2605 2.68418E+01-4.35747E+00-1.11425E-01-3.65825E+00 2.16105E-13-3.78031E-14
 -1      2606 7.14813E+00-4.23383E+00 4.30137E-02-5.15557E+00 1.06665E-13-3.29625E-13
 -1      2607 1.02565E+01-4.58886E+00 2.22009E-02-6.32837E+00 8.57370E-14-3.08559E-13
 -1      2608 2.05410E+01 1.95541E+00-1.36642E-02-1.89877E+00-2.43434E-13-1.29247E-13
 -1      2609 2.04038E+01 1.21492E+00-7.20582E-03-1.28741E+00-2.14349E-13-1.14402E-13
 -1      2610 2.03778E+01 1.38153E+00 7.21436E-03-1.23679E+00-1.93523E-13-1.39931E-13
 -1      2611 2.02864E+01 2.38539E+00-4.84668E-03-1.84270E+00-2.26725E-13-1.77171E-13
 -1      2612 2.04792E+01 8.75277E-01-7.27476E-03 1.22742E+00 2.44520E-13 2.68298E-13
 -1      2613 2.08295E+01 1.25704E+00-6.03513E-03 1.72820E+00 2.67002E-13 3.12953E-13
 -1      2614 2.06375E+01 1.71570E+00-1.57935E-02 1.92227E+00 2.98348E-13 2.05742E-13
 -1      2615 2.04413E+01 1.05870E+00-9.42207E-03 1.24166E+00 2.58356E-13 1.32156E-13
 -1      2616 3.05696E+01 6.28823E+00-6.59121E-02 1.04898E+00 3.29237E-13-8.99836E-14
 -1      2617 1.99201E+01 2.81977E+00 2.65158E-03-1.09743E+00-9.72340E-14-2.92171E-13
 -1      2618 1.97884E+01 3.16270E+00-1.45561E-02-1.28374E+00-1.02871E-13-3.17472E-13
 -1      2619 1.98807E+01 3.03868E+00-1.74992E-02-1.48279E+00-1.46152E-13-3.01106E-13
 -1      2620 2.10985E+01-5.12368E+00 1.07631E-01 5.60192E+00-8.26006E-14-8.28781E-14
 -1      2621 2.69357E+01-3.81041E+00-4.28953E-03 2.49267E+00 9.26620E-14-1.24428E-13
 -1      2622 2.04166E+01 2.11607E+00-1.27504E-02 1.87507E+00 3.05733E-13 7.99638E-14
 -1      2623 3.18840E+01 1.07084E+00-5.74678E-02-1.26259E+00-4.97075E-13-2.50827E-13
 -1      2624 3.04687E+01-1.91655E-01 6.02773E-02-1.74301E+00-3.56340E-13-5.55667E-14
 -1      2625 3.05964E+01 2.03015E+00-2.86047E-01-2.20097E+00-5.80036E-13-9.32865E-14
 -1      2626 3.13726E+01 2.68533E-01-2.21296E-02 1.10452E+00 1.43913E-13-4.02040E-13
 -1      2627 2.99703E+01 2.18616E-01-2.82687E-02-3.03040E-01 2.72379E-13-5.86003E-13
 -1      2628 1.61477E+01-4.91865E+00 1.20324E-01 6.33290E+00-4.60743E-14-6.61776E-13
 -1      2629 5.02399E+00-1.79844E+00 1.58761E-01 1.47207E+00-1.39527E-13-4.14474E-13
 -1      2630 5.97120E+00-8.66617E-01 1.56357E-01 2.43028E-01-1.41873E-13-2.46192E-13
 -1      2631 7.06684E+00-1.28050E+00 1.33675E-01 2.79617E+00-1.07359E-13-3.91021E-13
 -1      2632 7.45836E+00-2.70648E+00 1.58861E-01-4.29826E+00 1.23485E-13-4.89331E-14
 -1      2633 1.16787E+01-3.80410E+00 1.00051E-01-6.43010E+00-2.90101E-13-3.23019E-13
 -1      2634 2.00985E+01 1.18128E-01 2.32998E-04 1.89830E-01-2.55311E-14 2.51414E-13
 -1      2635 2.00910E+01 1.54406E-01 7.23892E-06 2.18013E-01 6.55910E-15 1.04563E-13
 -1      2636 4.61841E+00-1.86732E+00 1.52603E-01 8.81053E-02 3.72792E-14 2.70228E-13
 -1      2637 6.91853E+00-2.59166E+00 1.45079E-01 4.53420E+00-2.57933E-13 4.39204E-13
 -1      2638 1.31941E+01-4.08751E+00 1.34803E-01 6.66064E+00-3.34982E-13 3.18218E-13
 -1      2639 2.43882E+01-4.76875E+00 5.79171E-02-4.39005E+00-2.17104E-13-1.08524E-13
 -1      2640 2.88549E+01-1.96615E+00 2.39053E-03-1.03809E+00-1.15130E-13 2.09804E-13
 -1      2641 1.99904E+01 3.43183E-01-3.64005E-03 3.01280E-01 1.55472E-13 6.88759E-14
 -1      2642 2.01126E+01 2.62229E+00-1.16914E-02-1.67854E+00-1.86023E-13-2.32959E-13
 -1      2643 1.33860E+01-4.77957E+00 1.16933E-01-6.48718E+00 8.86513E-14-2.58321E-13
 -1      2644 1.61127E+01-5.12275E+00-8.15747E-02-6.37888E+00 6.40044E-14-9.36057E-14
 -1      2645 1.27373E+01-3.75869E+00 1.60580E-01-6.17500E+00 1.03667E-13-1.56430E-13
 -1      2646 2.04324E+01 1.80902E+00 1.25431E-02 1.56231E+00 2.87147E-13 4.12274E-14
 -1      2647 2.20459E+01-5.57553E+00 7.19341E-02-5.27834E+00 9.91707E-14 1.21264E-13
 -1      2648 2.84258E+01-3.76579E+00 2.53752E-02-1.62786E+00 1.56694E-13-3.44724E-13
 -1      2649 3.14483E+01 4.50644E+00-6.86583E-02 1.81159E+00-2.44804E-14-5.81007E-13
 -1      2650 9.70603E+00-3.27246E+00 1.27155E-01 5.40033E+00-1.29924E-13-6.30329E-13
 -1      2651 3.20697E+01 5.44354E+00-6.72189E-02-1.39625E+00-8.18345E-13-2.72407E-13
 -1      2652 2.30406E+01-5.50336E+00 4.43552E-02 4.89394E+00 3.77476E-14-5.14006E-13
 -1      2653 2.17234E+01-5.44645E+00 7.98108E-02 5.13958E+00 1.64757E-13-5.42353E-13
 -1      2654 2.48464E+01-5.41301E+00-1.65459E-01 3.49212E+00 5.58303E-14-4.90066E-13
 -1      2655 3.06095E+01 4.67738E+00-7.67946E-02-1.29656E+00 3.26100E-13-5.50116E-13
 -1      2656 3.03017E+01 7.09440E+00-8.78251E-02-3.34771E-01 2.56073E-13-4.97036E-13
 -1      2657 2.90910E+01-3.23274E+00 1.88659E-02 1.25479E+00-2.37602E-13-2.70284E-13
 -1      2658 3.05529E+01 2.57579E+00-4.21380E-02 1.12593E+00 1.64813E-13 1.76525E-14
 -1      2659 6.57360E+00-1.98629E+00 1.45963E-01-3.65051E+00-1.65520E-13-4.50751E-14
 -1      2660 3.10560E+01 6.59485E+00-4.94550E-02 2.05002E-01-4.86056E-13-4.74284E-13
 -1      2661 2.01313E+01 1.37866E-01 1.80901E-03-2.35297E-01-7.89864E-14 4.04860E-13
 -1      2662 2.00891E+01 1.98449E-01-1.24823E-03-2.64081E-01-8.43012E-14 2.71168E-13
 -1      2663 2.01000E+01 2.36012E-01 1.22565E-03-3.26496E-01-1.25157E-13 2.88407E-13
 -1      2664 2.01786E+01 1.43155E-01 2.94383E-03-2.81976E-01-1.54196E-13 5.75260E-13
 -1      2665 2.01066E+01 1.79380E-01 9.97477E-04 2.75525E-01 8.28700E-14-1.21360E-13
 -1      2666 2.01598E+01 1.88493E-01-1.58389E-03-3.52507E-01-1.99824E-13 4.80256E-13
 -1      2667 1.98555E+01 2.77295E+00-6.30702E-03 5.14735E-01 1.51305E-13-2.32730E-13
 -1      2668 1.98313E+01 2.82310E+00-5.74881E-03 3.64206E-01 1.21278E-13-2.46968E-13
 -1      2669 1.98147E+01 2.86109E+00-5.64035E-03 2.29188E-01 1.15676E-13-2.76397E-13
 -1      2670 1.98063E+01 2.87812E+00-5.48063E-03 7.50149E-02 9.99556E-14-2.79020E-13
 -1      2671 1.99607E+01 2.51189E+00 3.72554E-03 2.63980E-01 1.12979E-13-2.56863E-13
 -1      2672 2.00497E+01 2.32874E+00-1.06770E-02 1.04395E+00 2.60069E-13-1.46581E-13
 -1      2673 1.99869E+01 2.47830E+00-6.39016E-03 9.08307E-01 2.30329E-13-1.71974E-13
 -1      2674 2.02186E+01 1.91147E+00-1.19213E-02 1.22592E+00 2.87298E-13-8.43292E-14
 -1      2675 2.01284E+01 2.14979E+00-4.89176E-03 1.13230E+00 2.77277E-13-1.20073E-13
 -1      2676 2.01945E+01 1.89199E+00 6.41227E-03 9.23836E-01 2.47453E-13-1.11336E-13
 -1      2677 2.04030E+01-5.28346E+00 1.74343E-01-5.48053E+00 8.68194E-14 6.39480E-14
 -1      2678 2.37272E+01-5.60742E+00-1.34794E-01-4.24208E+00 1.67963E-13 1.03834E-13
 -1      2679 2.02100E+01 7.29872E-01-3.36737E-03 6.40762E-01 1.95718E-13 1.83513E-14
 -1      2680 2.03511E+01 9.53786E-01 9.18298E-03 9.05370E-01 2.22705E-13 2.35454E-14
 -1      2681 2.03347E+01 1.50176E+00-1.85595E-03 1.26659E+00 2.63195E-13 1.84657E-14
 -1      2682 2.02179E+01 6.32873E-01 8.52914E-03-4.33428E-01-9.54444E-14-1.49268E-13
 -1      2683 2.01343E+01 4.83404E-01-3.23481E-03-2.71790E-01-7.32422E-14-1.67702E-13
 -1      2684 2.01099E+01 3.71763E-01 6.60126E-03-1.49204E-01-6.63940E-14-1.54270E-13
 -1      2685 2.00530E+01 2.79184E-01-1.59940E-03-4.85167E-02-6.02909E-14-1.68315E-13
 -1      2686 2.01998E+01 5.40162E-01-1.57446E-03-2.52015E-01-8.06056E-14-1.73232E-13
 -1      2687 2.00282E+01 2.11500E-01 4.43203E-03 3.06229E-02-5.45726E-14-1.61001E-13
 -1      2688 1.99959E+01 1.55198E-01-5.50110E-04 9.17128E-02-4.99603E-14-1.40427E-13
 -1      2689 2.01341E+01 3.14627E-01-2.17537E-03-3.93699E-02-5.46463E-14-1.84938E-13
 -1      2690 1.99767E+01 1.14536E-01 2.79734E-03 1.40788E-01-5.50731E-14-1.34670E-13
 -1      2691 1.99635E+01 8.15917E-02 9.61890E-05 1.76723E-01-5.39325E-14-1.32352E-13
 -1      2692 2.00812E+01 1.76213E-01-2.01692E-03 9.80038E-02-5.52371E-14-1.86580E-13
 -1      2693 1.99508E+01 5.87393E-02 1.59003E-03 2.06259E-01-7.42232E-14-1.29181E-13
 -1      2694 1.99517E+01 4.16971E-02 5.25819E-04 2.27248E-01-7.57784E-14-1.24505E-13
 -1      2695 2.00450E+01 9.42233E-02-1.66285E-03 1.83358E-01-6.69060E-14-1.48886E-13
 -1      2696 1.99449E+01 3.12395E-02 7.25908E-04 2.45436E-01-4.65353E-14-1.26546E-13
 -1      2697 1.99561E+01 2.55612E-02 8.46951E-04 2.58814E-01-6.72395E-14-8.37115E-14
 -1      2698 2.00240E+01 5.08495E-02-1.30685E-03 2.36025E-01-3.43813E-14-1.41008E-13
 -1      2699 1.99539E+01 2.41813E-02 1.07763E-04 2.71908E-01-6.52198E-14-4.78305E-14
 -1      2700 1.99728E+01 2.70483E-02 1.12590E-03 2.83099E-01-4.98692E-14 3.69532E-15
 -1      2701 2.00155E+01 3.51168E-02-1.00834E-03 2.70973E-01-2.29835E-14-6.14021E-14
 -1      2702 1.99743E+01 3.26848E-02-3.43626E-04 2.95925E-01-5.94808E-14 3.44481E-14
 -1      2703 1.99996E+01 4.23566E-02 1.40257E-03 3.09096E-01-2.93584E-14 5.06359E-14
 -1      2704 2.00166E+01 4.01427E-02-7.73654E-04 2.99720E-01-2.10641E-14 1.42788E-14
 -1      2705 2.00037E+01 5.37497E-02-6.91620E-04 3.25472E-01-1.79024E-14 7.33296E-14
 -1      2706 2.00347E+01 6.91927E-02 1.70083E-03 3.43963E-01 1.40441E-14 4.95932E-14
 -1      2707 2.00251E+01 6.16254E-02-5.88519E-04 3.31247E-01-1.36545E-14 1.75435E-14
 -1      2708 2.00406E+01 8.56045E-02-9.86269E-04 3.67020E-01-8.27947E-15-7.30587E-15
 -1      2709 2.00775E+01 1.06236E-01 2.03392E-03 3.93634E-01-5.01849E-15-5.74776E-14
 -1      2710 2.00391E+01 9.69500E-02-4.30724E-04 3.72743E-01-5.68063E-14-2.38362E-15
 -1      2711 2.00844E+01 1.27232E-01-1.26598E-03 4.26033E-01-8.39042E-15-5.62038E-14
 -1      2712 2.01276E+01 1.52688E-01 2.40621E-03 4.63202E-01-2.78452E-15-9.25199E-14
 -1      2713 2.00569E+01 1.44565E-01-2.75436E-04 4.30142E-01-9.04812E-15 1.62096E-14
 -1      2714 2.01346E+01 1.77901E-01-1.55726E-03 5.07257E-01 1.80944E-14-5.24618E-14
 -1      2715 2.01849E+01 2.07749E-01 2.81350E-03 5.57080E-01-2.08041E-14-3.45741E-15
 -1      2716 2.00769E+01 2.03415E-01-9.77743E-05 5.08477E-01 3.39018E-15-4.87587E-14
 -1      2717 2.01910E+01 2.36555E-01-1.87122E-03 6.14790E-01-7.10507E-14 7.31172E-15
 -1      2718 2.02493E+01 2.69871E-01 3.24293E-03 6.78930E-01-8.62090E-14-1.10685E-14
 -1      2719 2.00971E+01 2.72261E-01 1.22247E-04 6.12027E-01-3.43710E-14-1.18053E-13
 -1      2720 2.02534E+01 3.00875E-01-2.19421E-03 7.51892E-01-1.06635E-13-1.17526E-14
 -1      2721 2.03207E+01 3.35554E-01 3.67404E-03 8.31266E-01-1.09422E-13-8.40174E-14
 -1      2722 2.01155E+01 3.48683E-01 3.88003E-04 7.44280E-01-1.29388E-13-8.14661E-14
 -1      2723 2.03221E+01 3.65735E-01-2.46917E-03 9.20467E-01-5.42233E-14-3.80349E-14
 -1      2724 2.04000E+01 3.97366E-01 4.08361E-03 1.01465E+00-1.78451E-14-2.44735E-14
 -1      2725 2.01299E+01 4.27491E-01 6.62681E-04 9.07679E-01-8.13578E-14 3.58252E-14
 -1      2726 2.03992E+01 4.20707E-01-2.56228E-03 1.12010E+00-1.04233E-14-1.37702E-14
 -1      2727 2.04902E+01 4.40802E-01 4.45592E-03 1.22633E+00 1.85502E-14 7.24479E-14
 -1      2728 2.01395E+01 4.98180E-01 8.24335E-04 1.10317E+00 2.83404E-14 1.05335E-13
 -1      2729 2.04914E+01 4.46216E-01-2.20646E-03 1.34644E+00 4.99412E-14 1.01523E-13
 -1      2730 2.06011E+01 4.39663E-01 4.79209E-03 1.45807E+00 5.72510E-14 2.72089E-14
 -1      2731 2.01469E+01 5.40999E-01 5.87454E-04 1.32951E+00 1.93800E-14 4.97698E-14
 -1      2732 2.06154E+01 4.08242E-01-9.07726E-04 1.58867E+00 6.91789E-14-1.72961E-14
 -1      2733 2.07556E+01 3.50216E-01 5.08261E-03 1.69282E+00 9.55944E-14-2.79657E-14
 -1      2734 2.01640E+01 5.21335E-01-6.19141E-04 1.58229E+00 5.15484E-14 9.52021E-14
 -1      2735 2.08086E+01 2.52600E-01 2.20357E-03 1.82502E+00 9.76825E-14-3.62294E-14
 -1      2736 2.10016E+01 1.06482E-01 5.20491E-03 1.89918E+00 9.69450E-14-1.04721E-13
 -1      2737 2.02210E+01 3.82902E-01-3.80029E-03 1.85196E+00 7.53421E-14-9.52056E-14
 -1      2738 2.11430E+01-9.67031E-02 8.65392E-03 2.01424E+00 1.04482E-13-9.91399E-14
 -1      2739 2.14250E+01-3.75453E-01 4.63771E-03 2.02114E+00 8.32754E-14-1.39451E-13
 -1      2740 2.03825E+01 4.28137E-02-1.03629E-02 2.11869E+00 8.18852E-14-2.34548E-13
 -1      2741 2.17408E+01-7.22267E-01 2.05792E-02 2.07776E+00 5.76521E-14-1.99294E-13
 -1      2742 2.21542E+01-1.16376E+00 1.09603E-03 1.95968E+00-2.37362E-14-1.99197E-13
 -1      2743 2.07697E+01-6.01142E-01-2.14024E-02 2.33766E+00 1.24055E-14-1.72356E-13
 -1      2744 2.27641E+01-1.64818E+00 3.76536E-02 1.86635E+00 6.70948E-15-1.45169E-13
 -1      2745 2.33385E+01-2.19335E+00-4.36878E-03 1.54395E+00 7.98805E-14-3.42005E-14
 -1      2746 2.15826E+01-1.61965E+00-3.52142E-02 2.39932E+00 6.08916E-14-1.23173E-13
 -1      2747 2.43252E+01-2.68751E+00 4.67648E-02 1.17145E+00 1.27728E-13 4.98939E-14
 -1      2748 2.50042E+01-3.07840E+00-2.44702E-02 5.84454E-01 8.22068E-14 5.42487E-14
 -1      2749 2.30169E+01-2.87251E+00-5.26565E-02 2.06924E+00 1.44809E-13 2.59098E-14
 -1      2750 2.63680E+01-3.21390E+00 9.07234E-03-2.99138E-01 4.52208E-14 2.07948E-13
 -1      2751 2.68970E+01-2.68774E+00-8.42829E-03-1.10592E+00 8.09335E-14 2.39505E-13
 -1      2752 2.53290E+01-3.86679E+00-7.89141E-02 1.07239E+00 2.12399E-13 1.37968E-13
 -1      2753 2.81896E+01-8.48574E-01-1.01379E-01-2.34835E+00-1.14873E-13 2.59633E-13
 -1      2754 2.84339E+01 1.07413E+00-8.89216E-02-2.79265E+00-4.63476E-13 2.83079E-13
 -1      2755 2.85342E+01 2.84837E+00-1.03564E-01-2.24978E+00-5.24525E-13 1.63113E-13
 -1      2756 2.82458E+01 2.83712E-01-5.32694E-02 2.53377E+00 1.74749E-13-4.09839E-13
 -1      2757 2.80353E+01-1.44584E+00-8.07566E-02 2.16564E+00 1.53315E-13-3.13319E-13
 -1      2758 2.69677E+01-2.56542E+00-3.70890E-02 1.21887E+00 1.46588E-13-2.64674E-13
 -1      2759 2.64302E+01-3.07596E+00 1.61098E-02 4.38908E-01 1.56558E-13-3.11815E-13
 -1      2760 2.80056E+01-2.55855E+00-5.70356E-02 1.06678E+00 1.84717E-13-3.87995E-13
 -1      2761 2.51314E+01-3.05133E+00-2.54938E-02-4.28213E-01 1.52692E-13-2.76217E-13
 -1      2762 2.44790E+01-2.70628E+00 4.72240E-02-1.03724E+00 1.61748E-13-1.67901E-13
 -1      2763 2.55375E+01-3.67288E+00-4.34542E-02-7.98526E-01 1.64774E-13-3.61572E-13
 -1      2764 2.34601E+01-2.24720E+00-1.29253E-02-1.47135E+00 1.93470E-13-1.05908E-13
 -1      2765 2.28923E+01-1.69612E+00 3.66700E-02-1.80903E+00 1.98986E-13-7.87693E-14
 -1      2766 2.32904E+01-2.91655E+00-4.99528E-02-1.92295E+00 2.09280E-13-2.25776E-13
 -1      2767 2.22584E+01-1.21896E+00-3.29424E-03-1.92951E+00 1.48324E-13-5.46247E-14
 -1      2768 2.18414E+01-7.67206E-01 1.98363E-02-2.05766E+00 3.80453E-14-6.77336E-14
 -1      2769 2.17864E+01-1.67922E+00-3.79372E-02-2.32503E+00 1.73342E-13-1.90633E-13
 -1      2770 2.15047E+01-4.21022E-01 1.74662E-03-2.02030E+00 2.92990E-14 5.97763E-14
 -1      2771 2.12192E+01-1.30962E-01 8.77875E-03-2.01911E+00-3.96771E-14 1.06403E-13
 -1      2772 2.09350E+01-6.58963E-01-2.22772E-02-2.31342E+00 1.13385E-13-1.20696E-13
 -1      2773 2.10612E+01 7.45784E-02 3.78080E-03-1.91433E+00-2.04242E-13 2.10800E-13
 -1      2774 2.08647E+01 2.29685E-01 2.56451E-03-1.84314E+00 6.02497E-15 2.31092E-13
 -1      2775 2.05088E+01-3.05406E-03-1.06589E-02-2.12477E+00-4.90445E-14 3.02987E-13
 -1      2776 2.07995E+01 3.30278E-01 4.37820E-03-1.71541E+00 1.34194E-13 1.68044E-13
 -1      2777 2.06564E+01 3.95161E-01-5.23574E-04-1.61202E+00-3.38230E-16 3.06290E-13
 -1      2778 2.03167E+01 3.49911E-01-4.07108E-03-1.87231E+00-1.00818E-14 3.24594E-13
 -1      2779 2.06334E+01 4.29614E-01 4.44397E-03-1.48225E+00-6.57360E-14 4.19914E-13
 -1      2780 2.05215E+01 4.41754E-01-1.84324E-03-1.36955E+00 1.58499E-13 3.49570E-13
 -1      2781 2.02371E+01 5.00226E-01-8.38198E-04-1.60713E+00-1.70458E-15 4.73431E-13
 -1      2782 2.05140E+01 4.39829E-01 4.25284E-03-1.24779E+00 2.43231E-13 1.37136E-13
 -1      2783 2.04217E+01 4.25183E-01-2.20140E-03-1.13860E+00 3.38810E-13 3.36067E-13
 -1      2784 2.02034E+01 5.31111E-01 4.19257E-04-1.35273E+00 1.19637E-13 5.56315E-13
 -1      2785 2.04177E+01 4.06420E-01 3.90773E-03-1.02928E+00 4.23008E-13 2.92260E-13
 -1      2786 2.03396E+01 3.81169E-01-2.06496E-03-9.29847E-01 4.23858E-13 3.38229E-13
 -1      2787 2.01835E+01 5.00575E-01 7.08866E-04-1.12009E+00 3.54528E-13 1.67741E-13
 -1      2788 2.03343E+01 3.57290E-01 3.45657E-03-8.34183E-01 2.91218E-13 3.24776E-13
 -1      2789 2.02680E+01 3.30801E-01-1.72811E-03-7.46594E-01 2.17295E-13 4.40811E-13
 -1      2790 2.01645E+01 4.45082E-01 6.16010E-04-9.13472E-01 4.08651E-13 7.34798E-14
 -1      2791 2.02601E+01 3.08780E-01 2.89837E-03-6.64241E-01 2.27259E-13 5.21816E-13
 -1      2792 2.02038E+01 2.86814E-01-1.28193E-03-5.87880E-01 1.34380E-13 5.27297E-13
 -1      2793 2.01426E+01 3.86122E-01 4.52774E-04-7.33607E-01 2.83195E-13 1.31547E-13
 -1      2794 2.01933E+01 2.69345E-01 2.22356E-03-5.16246E-01-1.55073E-13 5.31680E-13
 -1      2795 2.01475E+01 2.54686E-01-3.12714E-04-4.49992E-01-3.06289E-13 4.58439E-13
 -1      2796 2.01171E+01 3.36424E-01 4.01557E-04-5.77375E-01-9.84404E-15 1.40598E-13
 -1      2797 1.98700E+01 6.72561E-02 4.19638E-04-1.71037E-01 1.01558E-13-4.44711E-14
 -1      2798 1.98790E+01 9.60448E-02 3.12090E-03-1.37334E-01 8.97736E-14-1.22477E-14
 -1      2799 2.00851E+01 2.38854E-01 1.74235E-05 3.60643E-01 2.31119E-15-5.41412E-13
 -1      2800 2.01314E+01 1.79609E-01 1.26514E-03 3.25525E-01 9.73408E-15-1.73834E-13
 -1      2801 2.01761E+01 1.78184E-01 2.15617E-03 3.73685E-01 3.12927E-14-2.06575E-13
 -1      2802 1.98996E+01 1.31162E-01 1.14574E-05-8.79231E-02 7.48732E-14-4.40974E-14
 -1      2803 1.99319E+01 1.80456E-01 5.16665E-03-2.86780E-02 7.54095E-14-2.33814E-14
 -1      2804 2.00012E+01 1.53006E-01-2.47533E-03-9.47859E-02 8.06457E-14-5.97124E-14
 -1      2805 1.98827E+01 1.61345E-02 8.88647E-04-2.45771E-01 2.49853E-14 3.59757E-14
 -1      2806 1.98645E+01 2.21756E-02 8.01479E-04-2.35102E-01 6.79770E-14 1.84626E-14
 -1      2807 1.99131E+01 1.40290E-02 1.07501E-03-2.64357E-01 1.09788E-13 2.25376E-14
 -1      2808 1.98869E+01 1.34811E-02 1.91261E-04-2.56581E-01 6.32622E-14 2.45111E-14
 -1      2809 1.99555E+01 2.23373E-02-1.12267E-03-2.62638E-01 5.90406E-14-4.23016E-14
 -1      2810 1.99547E+01 2.18341E-02 1.26819E-03-2.82385E-01 5.90413E-14 2.27782E-14
 -1      2811 1.99222E+01 1.65167E-02-2.00485E-04-2.73875E-01 9.46127E-14 1.78652E-14
 -1      2812 1.99702E+01 2.19729E-02-8.79954E-04-2.85796E-01 9.32430E-14-2.32801E-14
 -1      2813 2.00062E+01 3.67558E-02 1.47393E-03-3.05830E-01 2.70988E-14 1.29369E-14
 -1      2814 1.99680E+01 2.80341E-02-4.40273E-04-2.93983E-01 3.84180E-14 2.24924E-14
 -1      2815 1.99948E+01 3.34896E-02-7.32025E-04-3.09253E-01 5.02018E-14-3.29882E-15
 -1      2816 2.00677E+01 5.64333E-02 1.68452E-03-3.38906E-01-8.41686E-15 2.43356E-14
 -1      2817 2.00235E+01 4.55073E-02-5.71333E-04-3.21943E-01 1.70073E-14 1.68300E-14
 -1      2818 2.00280E+01 5.34263E-02-6.60946E-04-3.39157E-01 1.88504E-14-1.84787E-14
 -1      2819 2.01399E+01 7.84367E-02 1.87880E-03-3.84243E-01-3.47635E-14-5.06748E-14
 -1      2820 2.00891E+01 6.65992E-02-6.17492E-04-3.61166E-01-2.11214E-14-1.31775E-14
 -1      2821 2.00696E+01 7.87372E-02-6.52736E-04-3.79823E-01 9.69194E-15 6.52370E-14
 -1      2822 2.02249E+01 9.97609E-02 2.01994E-03-4.42772E-01 8.34336E-14-4.36395E-14
 -1      2823 2.01662E+01 8.86670E-02-5.84350E-04-4.13467E-01-5.21003E-15-6.21312E-14
 -1      2824 2.01204E+01 1.06161E-01-7.00696E-04-4.33870E-01 1.91727E-14-6.12608E-14
 -1      2825 2.03250E+01 1.16260E-01 2.05177E-03-5.13326E-01 1.44595E-13-3.79952E-14
 -1      2826 2.02572E+01 1.08230E-01-4.58105E-04-4.78812E-01 1.35597E-13-1.28359E-14
 -1      2827 2.01819E+01 1.31566E-01-8.09304E-04-5.02089E-01 8.53408E-14-4.53353E-14
 -1      2828 2.04434E+01 1.22033E-01 1.89525E-03-5.91921E-01 5.56649E-14 9.66115E-14
 -1      2829 2.03654E+01 1.20376E-01-2.03125E-04-5.54766E-01 6.59086E-14 1.93336E-14
 -1      2830 2.02571E+01 1.49235E-01-9.98074E-04-5.83006E-01 6.06204E-14 2.60630E-14
 -1      2831 2.05840E+01 1.08861E-01 1.44580E-03-6.70736E-01-9.33552E-16 1.53922E-13
 -1      2832 2.04949E+01 1.18153E-01 2.40074E-04-6.35608E-01 6.84831E-14 1.60875E-13
 -1      2833 2.03501E+01 1.51116E-01-1.30624E-03-6.72138E-01 1.90331E-14 1.20245E-13
 -1      2834 2.07516E+01 6.59742E-02 5.73439E-04-7.36823E-01 3.38742E-14 1.16685E-13
 -1      2835 2.06510E+01 9.21137E-02 9.52164E-04-7.11131E-01 3.82462E-14 1.55376E-13
 -1      2836 2.04672E+01 1.26199E-01-1.79477E-03-7.60927E-01 2.74519E-14 1.75720E-13
 -1      2837 2.09520E+01-1.92342E-02-8.68547E-04-7.70788E-01-4.37180E-14 6.43398E-14
 -1      2838 2.08401E+01 3.04446E-02 2.01803E-03-7.65220E-01-1.91083E-14 3.88887E-14
 -1      2839 2.06175E+01 6.04563E-02-2.53672E-03-8.35350E-01 5.88905E-14 1.24334E-13
 -1      2840 2.11909E+01-1.58411E-01-3.01358E-03-7.45944E-01-7.00923E-14 6.19164E-14
 -1      2841 2.10697E+01-7.94926E-02 3.47867E-03-7.74519E-01-3.76736E-14 8.28737E-14
 -1      2842 2.08134E+01-6.17746E-02-3.57793E-03-8.74359E-01-4.65234E-14 1.74168E-13
 -1      2843 2.14723E+01-3.55612E-01-5.87649E-03-6.29101E-01-3.56680E-14 7.53284E-14
 -1      2844 2.13465E+01-2.46768E-01 5.22400E-03-7.07965E-01-1.05369E-13 4.89864E-14
 -1      2845 2.10698E+01-2.53400E-01-4.83888E-03-8.48535E-01-5.47483E-14 8.80005E-14
 -1      2846 2.17921E+01-5.94886E-01-9.05629E-03-3.85280E-01-1.12264E-13 2.21767E-13
 -1      2847 2.16712E+01-4.67698E-01 6.83587E-03-5.28926E-01-2.14558E-14 1.43687E-13
 -1      2848 2.14009E+01-5.14880E-01-5.90903E-03-7.20092E-01-8.46121E-14 1.14483E-13
 -1      2849 2.21283E+01-8.23713E-01-1.17275E-02 8.75611E-03-1.99780E-13 1.50079E-13
 -1      2850 2.20286E+01-7.10625E-01 7.25914E-03-2.04188E-01-1.78190E-13 2.51162E-13
 -1      2851 2.18101E+01-8.16324E-01-5.78002E-03-4.47421E-01-1.62943E-13 2.76333E-13
 -1      2852 2.24311E+01-9.38790E-01-1.15175E-02 5.40813E-01-6.43817E-14 7.26761E-14
 -1      2853 2.23761E+01-9.00223E-01 4.80531E-03 2.76535E-01-1.36045E-13 1.24811E-13
 -1      2854 2.22728E+01-1.07874E+00-3.71876E-03-1.95487E-03-1.36346E-13 2.32809E-13
 -1      2855 2.26166E+01-7.89731E-01-4.31310E-03 1.12788E+00 1.30950E-14 1.86409E-13
 -1      2856 2.26332E+01-9.06945E-01-6.13839E-04 8.69223E-01 4.57308E-14 1.26122E-13
 -1      2857 2.27203E+01-1.16242E+00 8.91303E-04 6.08245E-01-4.58559E-14 1.86831E-13
 -1      2858 2.26002E+01-2.68199E-01 9.00455E-03 1.57028E+00 9.54445E-15 2.20744E-13
 -1      2859 2.26903E+01-5.82923E-01-9.67574E-03 1.41942E+00 1.35326E-14 1.64391E-13
 -1      2860 2.30223E+01-8.65716E-01 1.10813E-02 1.26419E+00 2.89959E-14 2.31095E-13
 -1      2861 2.23543E+01 5.73308E-01 1.86824E-02 1.60117E+00-8.01759E-14 1.26723E-13
 -1      2862 2.24877E+01 1.18418E-01-2.17589E-02 1.67611E+00-4.08386E-14 1.71325E-13
 -1      2863 2.30454E+01-9.13434E-02 1.58587E-02 1.72865E+00 2.30718E-15 1.59135E-13
 -1      2864 2.20178E+01 1.39681E+00 1.68035E-02 1.03948E+00-2.33147E-15 1.50638E-13
 -1      2865 2.21305E+01 1.00761E+00-2.32444E-02 1.38011E+00-1.89564E-14 1.94291E-13
 -1      2866 2.27796E+01 9.88868E-01 4.75214E-03 1.65408E+00-4.86343E-14 2.14302E-13
 -1      2867 2.18394E+01 1.73648E+00 5.72223E-04 1.14715E-02 1.17678E-13 3.13362E-14
 -1      2868 2.18647E+01 1.64779E+00-9.18233E-03 5.09611E-01 4.59077E-14 1.01974E-13
 -1      2869 2.24458E+01 1.88870E+00-1.45041E-02 8.78531E-01 7.83965E-14 1.21872E-13
 -1      2870 2.19769E+01 1.36530E+00-1.85531E-02-1.02884E+00 1.57859E-13 4.12979E-14
 -1      2871 2.18996E+01 1.63888E+00 1.07392E-02-5.92246E-01 1.22520E-13 4.56462E-14
 -1      2872 2.23600E+01 2.08800E+00-2.10409E-02-3.30406E-01 1.52757E-13 8.85674E-14
 -1      2873 2.23252E+01 5.29416E-01-2.50489E-02-1.61001E+00 1.73486E-13-5.77758E-14
 -1      2874 2.21933E+01 9.85576E-01 1.96353E-02-1.40907E+00 2.91025E-13 2.01681E-14
 -1      2875 2.26098E+01 1.46167E+00-5.37591E-03-1.37021E+00 1.99113E-13 2.21594E-14
 -1      2876 2.26210E+01-3.03264E-01-1.84667E-02-1.58716E+00 1.11434E-13-1.48503E-13
 -1      2877 2.25052E+01 9.57609E-02 1.22982E-02-1.64542E+00 1.13907E-13-9.20451E-14
 -1      2878 2.29459E+01 3.93092E-01 1.02592E-02-1.76934E+00 1.94271E-13-6.17705E-14
 -1      2879 2.26848E+01-8.07949E-01-5.18283E-03-1.13424E+00 2.55763E-14-6.79227E-14
 -1      2880 2.26353E+01-6.00072E-01 4.76400E-04-1.35837E+00 3.52587E-14-1.58069E-13
 -1      2881 2.30716E+01-5.64007E-01 1.33409E-02-1.52113E+00 3.07822E-14-2.41893E-13
 -1      2882 2.25070E+01-9.36865E-01 3.79552E-03-5.33528E-01 1.31702E-13-4.05992E-14
 -1      2883 2.25328E+01-9.13567E-01-8.34148E-03-8.05771E-01 1.02036E-13-8.61781E-15
 -1      2884 2.28871E+01-1.07866E+00 8.25692E-03-9.07107E-01 7.11328E-14-7.72420E-14
 -1      2885 2.21876E+01-8.15375E-01 6.77803E-03 1.13648E-02 2.55872E-13-1.56681E-14
 -1      2886 2.22708E+01-9.02087E-01-1.16431E-02-2.31029E-01 2.28054E-13 3.08164E-14
 -1      2887 2.24862E+01-1.15421E+00-8.21479E-04-2.53797E-01 1.53860E-13-1.59380E-13
 -1      2888 2.18245E+01-5.83879E-01 7.22069E-03 4.11625E-01 8.02595E-14 5.15792E-14
 -1      2889 2.19395E+01-7.10724E-01-1.05181E-02 2.34506E-01 1.99307E-13 6.28112E-14
 -1      2890 2.20163E+01-9.54845E-01-5.26806E-03 2.76512E-01 2.13172E-13-1.51761E-14
 -1      2891 2.14797E+01-3.45540E-01 5.99534E-03 6.55725E-01-1.31621E-13 1.49412E-13
 -1      2892 2.16061E+01-4.65949E-01-7.37026E-03 5.47741E-01 1.03264E-14 1.33986E-13
 -1      2893 2.15755E+01-6.56176E-01-6.13828E-03 6.28535E-01-1.70142E-14 1.07126E-13
 -1      2894 2.11790E+01-1.50121E-01 4.27750E-03 7.69972E-01-4.35199E-13 6.55667E-14
 -1      2895 2.13041E+01-2.44274E-01-4.27942E-03 7.20069E-01-2.79496E-13 1.67166E-13
 -1      2896 2.12069E+01-3.68595E-01-5.46093E-03 8.19436E-01-2.05739E-13 1.68473E-13
 -1      2897 2.09275E+01-1.15458E-02 2.72978E-03 7.90427E-01-2.91088E-13 1.11950E-13
 -1      2898 2.10446E+01-7.58103E-02-1.79119E-03 7.82850E-01-4.29667E-13 3.21459E-14
 -1      2899 2.09172E+01-1.41078E-01-4.22899E-03 8.87482E-01-4.12880E-13 1.86125E-13
 -1      2900 2.07207E+01 7.54008E-02 1.57512E-03 7.50382E-01-2.21888E-13 2.20867E-14
 -1      2901 2.08266E+01 3.66579E-02-4.43521E-05 7.70304E-01-2.03102E-13 9.72394E-14
 -1      2902 2.06955E+01 1.60752E-02-3.07798E-03 8.72428E-01-1.95894E-13 1.26774E-13
 -1      2903 2.05516E+01 1.23248E-01 8.24405E-04 6.75643E-01 1.06705E-13-3.37742E-13
 -1      2904 2.06450E+01 1.03046E-01 1.04738E-03 7.11410E-01-1.08731E-13-1.65421E-13
 -1      2905 2.05266E+01 1.12354E-01-2.20824E-03 8.06783E-01 8.08877E-15-2.57728E-13
 -1      2906 2.04136E+01 1.45588E-01 5.12107E-04 5.84049E-01 5.40130E-14-2.84371E-13
 -1      2907 2.04940E+01 1.36957E-01 1.63562E-03 6.27571E-01 9.88354E-14-3.28939E-13
 -1      2908 2.03969E+01 1.63895E-01-1.61768E-03 7.14123E-01 7.07415E-14-4.73551E-13
 -1      2909 2.03028E+01 1.54369E-01 1.11561E-03 4.86494E-01 2.54144E-13-1.71803E-13
 -1      2910 2.03689E+01 1.51032E-01 1.87937E-03 5.32463E-01 1.25981E-13-2.22726E-13
 -1      2911 2.02947E+01 1.86876E-01-1.49792E-03 6.10196E-01 3.54318E-14-4.19309E-13
 -1      2912 2.02078E+01 1.67269E-01 1.46175E-03 4.07070E-01 1.35249E-13-2.08966E-13
 -1      2913 2.02610E+01 1.65603E-01 2.06703E-03 4.54431E-01 2.41705E-13-2.35220E-13
 -1      2914 2.02041E+01 2.02878E-01-2.66121E-03 5.21616E-01 2.03918E-13-6.21854E-13
 -1      2915 2.01299E+01 2.23427E-01-3.51887E-03 4.49335E-01 1.54680E-14-7.02621E-13
 -1      2916 1.97651E+01 6.12229E-01-1.88657E-03 6.79940E-02 4.40815E-14 8.11802E-14
 -1      2917 1.97793E+01 5.98939E-01-3.20502E-04 1.28708E-01 2.15447E-14-1.33985E-13
 -1      2918 2.01390E+01 2.49383E-01 2.12523E-03-4.07455E-01-3.72717E-13 3.62118E-13
 -1      2919 2.01118E+01 2.40396E-01 1.79423E-04-3.65239E-01-2.92082E-13 2.67042E-13
 -1      2920 2.00688E+01 2.86371E-01-1.48260E-03-3.77145E-01-2.39149E-13 4.54459E-13
 -1      2921 2.00919E+01 3.05039E-01 1.52285E-04-4.61540E-01-3.54362E-13 2.88958E-13
 -1      2922 1.98584E+01 5.01020E-01-2.35152E-03 2.91058E-01 1.39483E-13 8.83241E-14
 -1      2923 1.98959E+01 4.63656E-01 1.10170E-03 3.24131E-01 1.80521E-13-3.44009E-14
 -1      2924 1.97614E+01 6.20330E-01-1.27096E-03-6.95278E-02 5.20341E-14 2.09173E-13
 -1      2925 1.97594E+01 6.22757E-01-1.11201E-03-5.35768E-03 1.21652E-13 2.04881E-13
 -1      2926 1.97080E+01 6.35268E-01 2.10943E-03 3.84686E-02 8.58613E-14 1.59774E-13
 -1      2927 1.97994E+01 5.70450E-01-2.25156E-03 1.93154E-01-8.86651E-14-2.42961E-13
 -1      2928 1.98271E+01 5.43473E-01 4.37451E-04 2.42881E-01 5.98609E-14-4.18173E-14
 -1      2929 1.98066E+01 5.31159E-01 1.23966E-03 3.00198E-01 8.33989E-14-1.20200E-13
 -1      2930 1.97413E+01 5.98152E-01 1.73994E-03 1.82601E-01 5.24302E-14-1.58727E-13
 -1      2931 2.75205E+01-3.24794E+00-1.22866E-01 1.18356E+00 6.63775E-14-4.00707E-13
 -1      2932 2.57428E+01-4.31018E+00 2.80021E-02 2.62528E+00 6.10900E-14-1.51074E-13
 -1      2933 5.81291E+00-1.00589E+00 1.37515E-01 1.52725E+00-1.39007E-13 2.14079E-13
 -1      2934 5.95632E+00-9.13687E-01 1.18297E-01-1.09061E+00 4.70284E-14 1.57374E-13
 -1      2935 1.97906E+01 5.92889E-01-4.07100E-04-1.99607E-01 1.36383E-13 2.71301E-13
 -1      2936 1.97716E+01 6.10802E-01-1.85905E-03-1.41481E-01 4.64566E-14 2.85054E-13
 -1      2937 1.97131E+01 6.36601E-01 2.27264E-03-1.13799E-01 1.53530E-13 2.60207E-13
 -1      2938 1.98529E+01 5.30134E-01 6.17475E-04-3.08247E-01 2.30086E-13-2.25768E-13
 -1      2939 1.98172E+01 5.62724E-01-2.44032E-03-2.62729E-01 1.95611E-13 8.17411E-14
 -1      2940 1.97587E+01 5.99975E-01 2.17667E-03-2.55901E-01 1.50010E-13 2.28941E-13
 -1      2941 1.99407E+01 4.37339E-01 9.91988E-04-3.75334E-01-6.46652E-14-1.40468E-14
 -1      2942 1.98940E+01 4.81779E-01-2.54790E-03-3.51407E-01 1.13002E-13-1.40684E-13
 -1      2943 1.98430E+01 5.26444E-01 1.69714E-03-3.68629E-01 7.11236E-14-3.02416E-13
 -1      2944 2.00292E+01 3.36159E-01 4.35843E-04-3.85166E-01-1.57016E-13 4.14088E-13
 -1      2945 1.99799E+01 3.88876E-01-2.32985E-03-3.86412E-01-7.83689E-14 9.96292E-14
 -1      2946 1.99396E+01 4.36484E-01 5.49125E-04-4.24412E-01-1.08049E-13 5.80803E-15
 -1      2947 2.00363E+01 3.43682E-01 5.47801E-04-4.26440E-01-2.15216E-13 3.30715E-13
 -1      2948 2.29761E+01-5.04503E+00 8.72810E-02-4.56022E+00-3.54272E-13-1.71904E-13
 -1      2949 2.55560E+01-4.59783E+00-1.24766E-01-3.04614E+00-2.16188E-13 1.29140E-13
 -1      2950 9.05705E+00-2.05826E+00 5.48074E-02 5.08491E+00-3.82583E-13 2.65232E-13
 -1      2951 7.07155E+00-1.31813E+00 1.77942E-01 3.32498E+00-2.31190E-13 3.48721E-13
 -1      2952 1.54301E+01-4.04624E+00-4.57759E-02 6.49056E+00-3.22770E-13 2.61291E-13
 -1      2953 1.23229E+01-2.87513E+00 1.87276E-01 5.99932E+00-3.84082E-13 3.68997E-13
 -1      2954 1.17353E+01-2.70567E+00 1.24737E-01-5.87636E+00-2.28373E-13-3.52995E-13
 -1      2955 1.45180E+01-3.81324E+00 9.17293E-02-6.58626E+00-2.35784E-13-3.39700E-13
 -1      2956 2.71543E+01-4.52706E+00 8.26758E-02-1.80728E+00 2.08805E-13-3.88301E-13
 -1      2957 2.89103E+01-3.27126E+00-1.37689E-01-2.52839E-01 1.89054E-13-5.06664E-13
 -1      2958 7.71777E+00-1.35586E+00 1.78154E-01-3.33585E+00 1.06394E-13-3.98570E-14
 -1      2959 9.96226E+00-2.32315E+00 1.12463E-01-5.04204E+00 6.87506E-14-1.04111E-13
 -1      2960 1.81137E+01-4.77615E+00 1.06784E-02 5.82150E+00 5.60524E-14-5.79842E-13
 -1      2961 1.50351E+01-3.98024E+00 1.33782E-01 6.04076E+00-3.23769E-14-5.85074E-13
 -1      2962 1.99638E+01 2.39357E-01-6.46521E-04 5.29025E-02 8.31884E-14-1.59628E-15
 -1      2963 2.00274E+01 3.21475E-01 7.80394E-03 1.53137E-01 1.09445E-13 5.35284E-15
 -1      2964 2.00615E+01 2.77887E-01-2.80812E-03 4.72061E-02 1.02501E-13-4.49438E-14
 -1      2965 1.98667E+01 3.19688E-02 6.85923E-04-2.18424E-01 5.89403E-14 1.76982E-14
 -1      2966 1.98596E+01 4.72770E-02 1.72849E-03-1.99817E-01 8.27218E-14-1.74992E-15
 -1      2967 1.99668E+01 7.92192E-02-1.94521E-03-1.80593E-01 7.29768E-14-2.17706E-14
 -1      2968 1.99531E+01 3.91750E-02-1.47731E-03-2.31373E-01 4.92664E-14 6.56563E-15
 -1      2969 2.03122E+01 1.06348E+00 3.23944E-03-8.55421E-01-1.46710E-13-1.47685E-13
 -1      2970 2.02258E+01 8.20677E-01-5.52419E-03-6.08950E-01-1.23118E-13-1.46184E-13
 -1      2971 2.02617E+01 8.90212E-01-2.84508E-03-5.64522E-01-1.17433E-13-1.63392E-13
 -1      2972 2.01815E+01 2.27463E+00 3.39224E-04-1.42279E+00-1.69749E-13-2.20663E-13
 -1      2973 1.99323E+01 2.60248E+00-7.87544E-03 7.92502E-01 2.14819E-13-1.98479E-13
 -1      2974 1.98895E+01 2.69517E+00-6.18609E-03 6.43682E-01 1.76268E-13-2.23460E-13
 -1      2975 2.00084E+01 2.39802E+00 4.39623E-03 5.14537E-01 1.35909E-13-2.01207E-13
 -1      2976 2.00880E+01 2.19842E+00 5.67868E-03 7.42863E-01 1.89164E-13-1.63220E-13
 -1      2977 2.28981E+01-5.09962E+00-5.68429E-02 4.52510E+00-5.61773E-14-1.85962E-15
 -1      2978 1.95918E+01-4.77895E+00 1.42701E-01 5.77914E+00-2.75086E-13 4.02595E-14
 -1      2979 1.98848E+01 2.70348E+00-6.16750E-03-6.33235E-01-1.62051E-14-2.89798E-13
 -1      2980 1.99268E+01 2.61318E+00-7.69537E-03-7.82574E-01-5.54273E-14-2.73677E-13
 -1      2981 2.81877E+01 6.65979E+00-1.81459E-01 9.69290E-02 1.78801E-13-1.62004E-13
 -1      2982 2.83633E+01 6.35795E+00-1.40720E-01-9.32340E-01 2.14218E-13-3.26877E-13
 -1      2983 2.90114E+01-3.04211E+00-1.93991E-01-3.08602E-03-1.91517E-13 3.34455E-14
 -1      2984 2.78048E+01-4.35562E+00 5.89092E-02 1.54071E+00-1.18794E-14-2.24432E-13
 -1      2985 2.86470E+01 4.96448E+00-2.02595E-01-1.62232E+00 3.91270E-13-4.67182E-13
 -1      2986 2.90147E+01 3.29086E+00-8.53412E-02-1.84776E+00 3.62932E-13-4.52430E-13
 -1      2987 2.00692E+01 4.20694E-01-1.47441E-03 2.82697E-01 1.52740E-13 5.86011E-17
 -1      2988 2.01690E+01 5.57953E-01 1.04539E-02 4.47144E-01 1.66805E-13 1.78606E-14
 -1      2989 2.02537E+01 8.26117E-01 6.16164E-04 6.13729E-01 1.94733E-13-5.16968E-14
 -1      2990 2.01484E+01 4.85230E-01-2.01551E-03 2.72879E-01 1.35175E-13-4.74722E-14
 -1      2991 2.74739E+01-3.12105E+00 2.84687E-02-1.10692E+00-1.40134E-13 2.14731E-13
 -1      2992 2.83020E+01-1.64076E+00-1.99277E-01 2.40092E-01-9.14477E-14 1.92235E-13
 -1      2993 1.68691E+01-4.51206E+00 1.06853E-01-6.38546E+00-3.18356E-13-2.11747E-13
 -1      2994 1.96255E+01-5.10772E+00-3.02976E-02-6.04102E+00-3.96627E-13-2.44124E-13
 -1      2995 1.66954E+01-3.71976E+00 1.04441E-01-5.94623E+00-3.06866E-13-1.31471E-13
 -1      2996 1.21692E+01-3.10838E+00 9.25877E-02 5.80502E+00-9.02889E-14-6.38600E-13
 -1      2997 9.66053E+00-2.00560E+00 1.51607E-01 4.62267E+00-6.21725E-14-6.07875E-13
 -1      2998 1.47012E+01-2.93956E+00 1.45132E-01 5.47839E+00 6.85563E-15-5.65561E-13
 -1      2999 6.85857E+00-8.71109E-01 1.59720E-01-2.38489E+00-9.18085E-14 8.38496E-14
 -1      3000 8.70608E+00-1.51119E+00 1.24177E-01-4.40651E+00-1.39722E-13-1.13159E-13
 -1      3001 2.88575E+01 1.12359E+00-3.71153E-02 1.51629E+00 2.15522E-14 1.39971E-13
 -1      3002 2.89796E+01 3.19920E+00-2.00388E-01 1.77212E+00 1.59067E-13 5.97439E-14
 -1      3003 2.98151E+01-1.47933E+00-5.00448E-02 1.23785E+00 1.62627E-13-4.51167E-13
 -1      3004 3.02245E+01 5.69519E-01-1.58348E-01 2.01899E+00 1.34767E-13-3.69260E-13
 -1      3005 2.91046E+01 5.16699E+00-1.29972E-01 1.63293E+00 2.91184E-13-5.01821E-14
 -1      3006 2.85994E+01 6.21185E+00-2.04539E-01 1.04801E+00 2.50966E-13-1.71363E-13
 -1      3007 2.91070E+01 9.07362E-01-1.98410E-01-1.30213E+00 3.10640E-13-4.82128E-13
 -1      3008 2.86158E+01-1.11883E+00-1.26356E-02-4.02600E-01 2.08430E-13-4.50834E-13
 -1      3009 1.99792E+01 2.49072E+00-6.85012E-03-8.99980E-01-8.31336E-14-2.73653E-13
 -1      3010 2.00322E+01 2.34534E+00-1.41498E-02-1.03812E+00-1.08193E-13-2.74485E-13
 -1      3011 2.00825E+01 2.21055E+00 5.63231E-03-7.35535E-01-7.55538E-14-2.48288E-13
 -1      3012 1.99443E+01 2.54988E+00 3.49471E-03 4.68031E-03 8.12458E-14-2.58834E-13
 -1      3013 1.98057E+01 2.87897E+00-5.53098E-03-6.15071E-02 7.35048E-14-2.80742E-13
 -1      3014 1.98131E+01 2.86416E+00-5.56415E-03-2.15756E-01 5.15927E-14-2.94361E-13
 -1      3015 2.53225E+01-4.88745E+00 4.61631E-04-2.60937E+00 1.70253E-13-3.12042E-13
 -1      3016 1.89730E+01-4.73600E+00 1.24114E-01-5.59522E+00 9.39249E-14-3.70190E-14
 -1      3017 2.02900E+01 1.59004E+00-1.26605E-03 1.16455E+00 2.63535E-13-4.48018E-14
 -1      3018 2.01447E+01 2.13289E+00 1.22891E-03-1.14001E+00-1.29016E-13-2.38091E-13
 -1      3019 2.02909E+01 1.68370E+00-1.09648E-02-1.24713E+00-1.85549E-13-1.74845E-13
 -1      3020 2.02869E+01 1.30587E+00-1.27767E-03-9.73580E-01-1.58774E-13-1.55546E-13
 -1      3021 2.02079E+01 1.86191E+00 8.80114E-03-9.26571E-01-1.19527E-13-2.33334E-13
 -1      3022 1.83917E+01-3.92307E+00 1.31508E-01 5.53395E+00-2.64039E-13 1.83766E-13
 -1      3023 9.17799E+00-1.20770E+00 1.72131E-01 3.70704E+00-8.91578E-14-4.55386E-13
 -1      3024 8.99632E+00-4.31643E-01 1.24868E-01 2.53641E+00-9.83658E-14-3.85247E-13
 -1      3025 1.14166E+01-1.19508E+00 1.16974E-01 4.08087E+00 4.91274E-15-5.57526E-13
 -1      3026 2.92760E+01 1.82582E+00-1.17131E-01 2.61988E+00 1.33032E-13-4.37900E-13
 -1      3027 2.81291E+01 4.20067E+00-1.18792E-01 1.84939E+00-1.08413E-13-5.46410E-13
 -1      3028 2.80424E+01 2.42524E+00-2.18273E-01 2.63743E+00 7.38021E-14-5.02626E-13
 -1      3029 1.98949E+01 4.43147E-01 7.89120E-04 3.78111E-01 1.51406E-13-3.09498E-14
 -1      3030 1.99329E+01 4.12557E-01-2.57905E-03 3.50690E-01 9.69007E-14-3.60439E-13
 -1      3031 1.99771E+01 3.69850E-01 2.05899E-03 3.65356E-01-2.65556E-14-5.41174E-13
 -1      3032 2.02779E+01 1.37132E+00 2.24759E-03-8.77698E-01-1.33741E-13-1.76754E-13
 -1      3033 2.52035E+01-4.13932E+00-3.29464E-02 1.90886E+00-9.42996E-15-2.93963E-13
 -1      3034 2.44665E+01-4.74794E+00 2.06365E-02 3.27636E+00 2.79013E-14-1.44405E-13
 -1      3035 2.29151E+01-4.53395E+00 3.18959E-02 3.73688E+00-1.50525E-13-1.77178E-13
 -1      3036 2.61464E+01-3.88315E+00 8.48041E-03-1.63070E+00-2.06078E-13 1.59969E-13
 -1      3037 2.00444E+01 2.87522E-01-1.36939E-03 3.69652E-01-1.64423E-13-6.52771E-13
 -1      3038 8.24695E+00-4.44767E-01 1.93751E-01 2.21016E+00-1.89029E-13 1.58068E-13
 -1      3039 8.48830E+00-5.34596E-01 1.84096E-01-2.01539E+00 2.93793E-14 4.82392E-14
 -1      3040 2.18238E+01-4.77205E+00 6.27199E-02-4.72380E+00-4.25465E-13-8.55739E-14
 -1      3041 1.20422E+01-1.83311E+00 1.57372E-01 5.11002E+00-3.85247E-13 3.29486E-13
 -1      3042 2.02808E+01 1.37016E+00 2.03702E-03 9.17180E-01 2.47457E-13-7.64096E-14
 -1      3043 2.79659E+01 1.63825E+00-9.55526E-02-1.83544E+00 3.71286E-13-3.27377E-13
 -1      3044 2.77074E+01 3.57589E+00-9.64893E-02 1.97225E+00 1.67144E-13-2.82135E-14
 -1      3045 2.77739E+01-4.70124E-01-5.13055E-02 1.24366E+00-1.16643E-13 1.32727E-13
 -1      3046 1.20917E+01-2.64086E+00 1.60041E-01-5.37231E+00 1.51587E-13-1.62037E-13
 -1      3047 1.42172E+01-3.12858E+00 7.44212E-03-5.57875E+00 8.87623E-14-1.63383E-13
 -1      3048 1.19714E+01-1.54417E+00 1.06183E-01-4.60095E+00 8.51125E-14-2.05599E-13
 -1      3049 2.71710E+01 4.93235E+00-1.23755E-01-1.37709E+00 2.73295E-13-5.97855E-14
 -1      3050 2.04586E+01-4.94693E+00 1.31270E-01 5.21913E+00 1.19238E-13-4.03719E-13
 -1      3051 1.93278E+01-4.09438E+00 1.52143E-01 5.13088E+00 2.92544E-14-3.87801E-13
 -1      3052 2.21415E+01-5.27687E+00-1.06753E-01 4.40642E+00 2.04836E-13-2.68074E-13
 -1      3053 8.15645E+00 1.19904E-02 1.22795E-01 3.90911E-01-1.65819E-13-3.16358E-13
 -1      3054 7.24487E+00-3.38961E-01 1.83852E-01-1.06173E+00-1.81993E-13-8.50986E-14
 -1      3055 8.99547E+00-6.42549E-02 1.15918E-01-1.87746E+00-1.15506E-13-9.98923E-14
 -1      3056 1.11525E+01-1.75240E+00 1.52454E-01-5.03200E+00-1.65548E-13-3.05589E-13
 -1      3057 1.35923E+01-1.97681E+00 7.17411E-02-5.18104E+00-2.05867E-13-3.36051E-13
 -1      3058 1.08753E+01-7.89425E-01 9.80528E-02-3.97546E+00-8.26561E-14-1.64743E-13
 -1      3059 2.63582E+01-4.69435E+00 9.78653E-02 2.12808E+00 8.17540E-14-2.09388E-13
 -1      3060 1.98284E+01 2.82814E+00-5.74895E-03-3.50439E-01 3.73856E-14-2.76572E-13
 -1      3061 1.98521E+01 2.77938E+00-6.18961E-03-5.03744E-01 5.40092E-15-2.84318E-13
 -1      3062 2.00042E+01 2.40554E+00 4.27261E-03-5.05060E-01-7.61392E-15-2.61868E-13
 -1      3063 1.99588E+01 2.51535E+00 3.68016E-03-2.54238E-01 2.98339E-14-2.63401E-13
 -1      3064 2.71839E+01 5.80672E+00-1.34546E-01 5.64749E-01 1.62981E-13-1.21746E-13
 -1      3065 2.75419E+01-2.21586E+00-4.57782E-02-1.09545E-01 1.34630E-13-4.05537E-13
 -1      3066 2.02455E+01 1.48788E+00-5.84820E-03 7.98560E-01 2.18759E-13-9.61828E-14
 -1      3067 2.02068E+01 1.67633E+00-7.26865E-04 7.42317E-01 1.93698E-13-1.09545E-13
 -1      3068 2.83636E+01-2.08518E+00-7.73570E-02-1.27998E+00-8.29579E-14 2.95042E-13
 -1      3069 2.02284E+01 4.40755E-01 4.16603E-03-1.05189E-01-6.45707E-14-1.70254E-13
 -1      3070 2.01906E+01 3.36731E-01-2.11319E-03-1.62820E-02-5.81309E-14-1.73118E-13
 -1      3071 2.01765E+01 2.57660E-01 3.00318E-03 5.00865E-02-6.94229E-14-1.74933E-13
 -1      3072 2.01488E+01 1.92615E-01-1.02467E-03 1.07117E-01-7.24844E-14-1.93534E-13
 -1      3073 2.02458E+01 3.60101E-01-8.66125E-04-3.81890E-03-7.38949E-14-1.53382E-13
 -1      3074 2.01318E+01 1.44587E-01 2.00968E-03 1.50029E-01-5.62918E-14-1.87359E-13
 -1      3075 2.01140E+01 1.06679E-01-2.58536E-04 1.85728E-01-4.90137E-14-1.69120E-13
 -1      3076 2.02056E+01 2.08407E-01-1.03215E-03 1.11111E-01-5.35250E-14-1.57844E-13
 -1      3077 2.00969E+01 8.05328E-02 1.15288E-03 2.13129E-01-1.97678E-14-1.49726E-13
 -1      3078 2.00876E+01 6.22071E-02 2.81040E-04 2.36017E-01-5.80759E-15-1.30986E-13
 -1      3079 2.01666E+01 1.18629E-01-9.68271E-04 1.86059E-01-1.93739E-14-1.64846E-13
 -1      3080 2.00715E+01 5.20369E-02 4.55928E-04 2.54619E-01 8.46986E-15-1.04577E-13
 -1      3081 2.00689E+01 4.83128E-02 6.73329E-04 2.71305E-01 9.46890E-15-8.29639E-14
 -1      3082 2.01316E+01 7.39579E-02-8.09320E-04 2.35727E-01 2.63118E-14-1.50864E-13
 -1      3083 2.00538E+01 5.02608E-02-1.08516E-04 2.86514E-01-1.24769E-15-5.24938E-14
 -1      3084 2.00565E+01 5.78703E-02 9.75011E-04 3.02125E-01 1.71439E-14-2.36755E-14
 -1      3085 2.01008E+01 6.30611E-02-6.11211E-04 2.72359E-01 2.60345E-14-1.44659E-13
 -1      3086 2.00417E+01 6.94366E-02-5.81309E-04 3.18247E-01-1.00923E-14-1.31988E-16
 -1      3087 2.00483E+01 8.62798E-02 1.22372E-03 3.36824E-01-4.99588E-14-4.02904E-14
 -1      3088 2.00730E+01 7.83755E-02-3.91970E-04 3.05797E-01 1.32653E-14-6.79915E-14
 -1      3089 2.00328E+01 1.05884E-01-1.00360E-03 3.57313E-01-6.88895E-14-2.69392E-15
 -1      3090 2.00424E+01 1.30654E-01 1.44312E-03 3.82116E-01-3.97269E-14 1.66488E-14
 -1      3091 2.00462E+01 1.14954E-01-1.48783E-04 3.43883E-01-1.97252E-14-2.46012E-14
 -1      3092 2.00247E+01 1.57312E-01-1.41213E-03 4.09790E-01-2.50721E-14 3.80167E-14
 -1      3093 2.00363E+01 1.89184E-01 1.64611E-03 4.43517E-01 1.33641E-14 6.22997E-14
 -1      3094 2.00178E+01 1.69633E-01 1.32066E-04 3.92909E-01-6.64945E-15 2.01560E-14
 -1      3095 2.00146E+01 2.22209E-01-1.83671E-03 4.80724E-01-2.49052E-14 5.94954E-14
 -1      3096 2.00272E+01 2.60510E-01 1.83871E-03 5.25630E-01-1.12542E-14-1.86170E-15
 -1      3097 1.99844E+01 2.40328E-01 4.69521E-04 4.57984E-01-1.73360E-14 3.78719E-15
 -1      3098 1.99991E+01 2.99156E-01-2.29879E-03 5.74344E-01-1.88272E-14-5.11094E-14
 -1      3099 2.00117E+01 3.42946E-01 2.02629E-03 6.32271E-01-1.05629E-13-9.21631E-14
 -1      3100 1.99420E+01 3.25297E-01 8.85208E-04 5.43288E-01-6.78196E-14 1.44646E-14
 -1      3101 1.99744E+01 3.85914E-01-2.80857E-03 6.94168E-01-1.31844E-13-1.05527E-13
 -1      3102 1.99858E+01 4.33377E-01 2.22404E-03 7.66484E-01-1.36436E-13-5.47531E-14
 -1      3103 1.98852E+01 4.22226E-01 1.39425E-03 6.52240E-01-1.03255E-13-8.36495E-14
 -1      3104 1.99363E+01 4.78051E-01-3.35824E-03 8.43012E-01-7.33839E-14-1.60366E-14
 -1      3105 1.99455E+01 5.25536E-01 2.47697E-03 9.30478E-01-8.87991E-15 5.64633E-14
 -1      3106 1.98083E+01 5.26912E-01 1.99132E-03 7.87665E-01-7.47771E-14 1.54965E-15
 -1      3107 1.98810E+01 5.66784E-01-3.90996E-03 1.02302E+00 3.81350E-14 4.93657E-14
 -1      3108 1.98885E+01 6.07331E-01 2.89454E-03 1.12561E+00 3.75309E-14 2.05021E-14
 -1      3109 1.97051E+01 6.31286E-01 2.62471E-03 9.52108E-01 4.23592E-15-2.33200E-14
 -1      3110 1.98074E+01 6.35666E-01-4.37191E-03 1.23587E+00 3.19593E-14 7.21888E-14
 -1      3111 1.98168E+01 6.56796E-01 3.70400E-03 1.35257E+00 2.16371E-14 5.79630E-14
 -1      3112 1.95706E+01 7.20403E-01 3.14834E-03 1.14855E+00 2.13783E-14-1.39203E-14
 -1      3113 1.97213E+01 6.55735E-01-4.54135E-03 1.48326E+00-4.05325E-14 4.60652E-14
 -1      3114 1.97432E+01 6.36365E-01 5.31415E-03 1.61186E+00 1.86103E-15-5.51618E-15
 -1      3115 1.94039E+01 7.68001E-01 3.24012E-03 1.38191E+00 1.37044E-14-2.03261E-14
 -1      3116 1.96437E+01 5.79013E-01-3.94945E-03 1.76781E+00 2.47808E-14-6.42630E-14
 -1      3117 1.97023E+01 4.85579E-01 8.32152E-03 1.90426E+00 6.46920E-14-1.43655E-13
 -1      3118 1.92147E+01 7.30211E-01 2.26613E-03 1.66166E+00-3.03947E-14-1.07009E-13
 -1      3119 1.96263E+01 3.31127E-01-1.43459E-03 2.09274E+00 1.11340E-13-1.46315E-13
 -1      3120 1.97688E+01 1.14265E-01 1.35073E-02 2.22844E+00 7.52423E-14-1.03869E-13
 -1      3121 1.90343E+01 5.37069E-01-9.21911E-04 2.00508E+00 1.00897E-13-8.27692E-14
 -1      3122 1.97770E+01-1.92190E-01 6.25691E-03 2.45492E+00 6.81172E-15-6.05900E-14
 -1      3123 2.00855E+01-5.93787E-01 2.28465E-02 2.56695E+00 2.30666E-14-5.05712E-14
 -1      3124 1.89379E+01 8.30296E-02-7.73537E-03 2.43708E+00 7.64415E-14-4.57256E-14
 -1      3125 2.02968E+01-1.11683E+00 2.40461E-02 2.82069E+00 4.45869E-14-8.97572E-14
 -1      3126 2.08704E+01-1.75753E+00 2.77974E-02 2.84726E+00 8.36779E-14-4.19072E-14
 -1      3127 1.90781E+01-7.69611E-01-1.82147E-02 2.97577E+00 3.07350E-14-3.08122E-14
 -1      3128 2.29488E+01-3.96294E+00 7.61886E-02 3.09419E+00 2.19970E-13-1.26127E-13
 -1      3129 2.43778E+01-4.38086E+00 5.91884E-02 2.56551E+00 2.68965E-13-1.53280E-14
 -1      3130 2.87216E+01 5.20258E+00-1.98468E-01-1.11346E+00-5.37792E-13-1.43748E-13
 -1      3131 2.87321E+01 5.60052E+00-1.50913E-01 2.16637E-01-3.84998E-13-3.75422E-13
 -1      3132 2.27537E+01-3.36522E+00 1.74833E-02-2.67561E+00 3.00315E-13-2.24047E-13
 -1      3133 2.18302E+01-2.57400E+00 6.32696E-02-2.90949E+00 2.78829E-13-1.95806E-13
 -1      3134 2.11173E+01-1.84569E+00 2.40996E-02-2.78547E+00 1.39935E-13-2.06554E-13
 -1      3135 2.05318E+01-1.19359E+00 2.92895E-02-2.78309E+00 1.67694E-13-1.50835E-13
 -1      3136 2.00752E+01-2.30482E+00-4.45534E-02-3.48457E+00 2.35081E-13-2.28104E-13
 -1      3137 2.02627E+01-6.77889E-01 1.77782E-02-2.56273E+00 2.13759E-13-2.34864E-13
 -1      3138 1.99410E+01-2.59084E-01 7.92224E-03-2.46672E+00 1.76900E-13-1.33496E-13
 -1      3139 1.92950E+01-8.96733E-01-2.59808E-02-2.98612E+00 1.55323E-13-2.83804E-13
 -1      3140 1.99026E+01 5.60119E-02 1.27945E-02-2.24895E+00 9.54886E-14-1.28758E-13
 -1      3141 1.97446E+01 2.84024E-01-2.57371E-04-2.12194E+00-1.11698E-13-5.19216E-14
 -1      3142 1.90809E+01 7.35784E-03-9.89804E-03-2.47257E+00 1.06646E-13-5.12071E-13
 -1      3143 1.98011E+01 4.46573E-01 7.95412E-03-1.93610E+00-1.43621E-13 1.90001E-13
 -1      3144 1.97312E+01 5.49012E-01-3.13337E-03-1.80258E+00 7.15736E-14 8.60202E-14
 -1      3145 1.91357E+01 4.88069E-01-2.21749E-03-2.04963E+00 5.86203E-14-1.44566E-13
 -1      3146 1.98186E+01 6.12778E-01 5.15446E-03-1.64578E+00 1.76805E-13 1.70592E-13
 -1      3147 1.97886E+01 6.39424E-01-3.93239E-03-1.51681E+00 1.01887E-13 3.72220E-13
 -1      3148 1.92902E+01 7.01861E-01 1.48570E-03-1.70524E+00 1.12191E-13 2.84143E-14
 -1      3149 1.98760E+01 6.46232E-01 3.57790E-03-1.38346E+00-1.98380E-14 5.28840E-13
 -1      3150 1.98609E+01 6.32094E-01-3.87302E-03-1.26410E+00 5.05886E-14 3.76732E-13
 -1      3151 1.94636E+01 7.55548E-01 2.75432E-03-1.42044E+00 9.43783E-14-1.99857E-14
 -1      3152 1.99362E+01 6.10040E-01 2.74716E-03-1.14967E+00 1.18126E-13 4.49757E-13
 -1      3153 1.99245E+01 5.77399E-01-3.49395E-03-1.04232E+00 3.22271E-13 2.57504E-13
 -1      3154 1.96198E+01 7.22938E-01 2.83212E-03-1.17922E+00 1.28362E-13 2.49136E-13
 -1      3155 1.99842E+01 5.44221E-01 2.29455E-03-9.44098E-01 3.38641E-13 8.97762E-14
 -1      3156 1.99721E+01 5.06991E-01-2.72575E-03-8.49446E-01 3.01085E-13-2.66905E-15
 -1      3157 1.97468E+01 6.50712E-01 2.43528E-03-9.72113E-01 1.86616E-13 1.63596E-14
 -1      3158 2.00154E+01 4.71574E-01 1.39803E-03-7.64173E-01 3.65289E-13-1.81331E-13
 -1      3159 2.00022E+01 4.38033E-01-2.57573E-03-6.82600E-01 2.86356E-13-1.07559E-13
 -1      3160 1.98412E+01 5.67779E-01 1.28216E-03-7.94911E-01 2.72183E-13-3.76921E-13
 -1      3161 2.00341E+01 4.09249E-01 1.55095E-03-6.08468E-01 1.76901E-13-1.25628E-13
 -1      3162 2.00207E+01 3.82725E-01-1.15880E-03-5.37178E-01-7.73915E-14-6.93078E-14
 -1      3163 1.99127E+01 4.94393E-01 3.08740E-03-6.37907E-01 2.54364E-13-3.59962E-13
 -1      3164 2.00839E+01 1.75004E-01-8.47549E-04-1.02927E-01 7.46798E-14-4.95947E-14
 -1      3165 2.01134E+01 2.36059E-01 3.55076E-03-4.41032E-02 8.26196E-14-4.42081E-14
 -1      3166 2.00235E+01 3.56640E-02 9.84765E-04-2.92960E-01 5.37990E-14-2.63459E-15
 -1      3167 2.00136E+01 3.23678E-02 6.35328E-05-2.80514E-01 7.84635E-14-3.83983E-14
 -1      3168 2.00223E+01 3.35005E-02 7.12600E-04-2.66839E-01 6.72168E-14-4.79007E-14
 -1      3169 2.00190E+01 3.93622E-02 6.16590E-04-2.52250E-01 5.27525E-14-1.65298E-15
 -1      3170 2.00666E+01 4.43269E-02-8.23061E-04-2.72755E-01 8.99672E-14-9.17795E-15
 -1      3171 2.00483E+01 7.79412E-02 1.41127E-03-3.55486E-01-2.96692E-14-2.21282E-15
 -1      3172 2.00284E+01 6.33027E-02-6.37591E-04-3.37203E-01 2.13365E-14-4.82637E-14
 -1      3173 2.00708E+01 1.10246E-01 1.59071E-03-4.02064E-01 9.85832E-15-2.34238E-14
 -1      3174 2.00461E+01 9.28495E-02-8.42384E-04-3.77703E-01-2.96814E-14-1.69077E-14
 -1      3175 2.00425E+01 1.03869E-01-4.09196E-04-3.75249E-01-1.31702E-14-8.83280E-14
 -1      3176 2.01005E+01 1.44657E-01 1.74620E-03-4.62840E-01 5.16886E-14-5.40904E-14
 -1      3177 2.00706E+01 1.26685E-01-9.60672E-04-4.31451E-01 5.13607E-14-2.46147E-14
 -1      3178 2.00439E+01 1.42727E-01-3.63854E-04-4.28405E-01 3.18669E-14-1.03922E-13
 -1      3179 2.01389E+01 1.75940E-01 1.86410E-03-5.38621E-01 7.67256E-14-1.94344E-14
 -1      3180 2.01030E+01 1.60257E-01-9.76171E-04-5.00240E-01 5.27178E-14-4.83006E-14
 -1      3181 2.00502E+01 1.82884E-01-3.88160E-04-4.96758E-01 4.89976E-14-6.70890E-14
 -1      3182 2.01893E+01 1.96874E-01 1.92113E-03-6.28039E-01 1.90658E-14 8.36278E-14
 -1      3183 2.01458E+01 1.87467E-01-8.47560E-04-5.83956E-01 4.83729E-14 2.70101E-14
 -1      3184 2.00631E+01 2.17684E-01-5.19490E-04-5.81263E-01 4.29946E-14 3.49596E-14
 -1      3185 2.02567E+01 1.97360E-01 1.88254E-03-7.26869E-01 1.00897E-15 9.04093E-14
 -1      3186 2.02033E+01 1.99799E-01-5.02891E-04-6.80034E-01 1.61823E-14 8.04804E-14
 -1      3187 2.00865E+01 2.37954E-01-8.21284E-04-6.80842E-01-1.10775E-15 6.59397E-14
 -1      3188 2.03497E+01 1.63698E-01 1.69361E-03-8.27017E-01-2.23951E-15 1.19670E-13
 -1      3189 2.02829E+01 1.85471E-01 1.65981E-04-7.82606E-01 9.26515E-15 9.58639E-14
 -1      3190 2.01270E+01 2.31001E-01-1.39293E-03-7.91763E-01-1.79870E-14-1.38045E-14
 -1      3191 2.04809E+01 7.84827E-02 1.25929E-03-9.15153E-01 1.35811E-14 1.87599E-13
 -1      3192 2.03959E+01 1.28944E-01 1.30440E-03-8.81264E-01 3.55771E-14 1.57051E-13
 -1      3193 2.01962E+01 1.79850E-01-2.37503E-03-9.06638E-01-1.49076E-14 1.40895E-13
 -1      3194 2.06685E+01-7.78640E-02 4.07025E-04-9.70932E-01-2.68612E-14 1.56232E-13
 -1      3195 2.05591E+01 1.14662E-02 3.07841E-03-9.59339E-01 5.59877E-15 1.91965E-13
 -1      3196 2.03120E+01 6.33513E-02-3.93961E-03-1.01286E+00 2.38178E-14 1.56602E-13
 -1      3197 2.09356E+01-3.22051E-01-1.15859E-03-9.64907E-01-8.98856E-14 1.57862E-13
 -1      3198 2.07952E+01-1.85960E-01 5.61699E-03-9.91643E-01-6.16140E-14 1.56248E-13
 -1      3199 2.05003E+01-1.41563E-01-6.23355E-03-1.09017E+00-3.24477E-14 1.78426E-13
 -1      3200 2.13056E+01-6.56536E-01-3.88146E-03-8.56914E-01-1.11334E-13 2.97064E-13
 -1      3201 2.11305E+01-4.74835E-01 8.85810E-03-9.41958E-01-1.26128E-13 2.02386E-13
 -1      3202 2.07955E+01-4.52997E-01-9.22379E-03-1.10699E+00-1.27394E-13 2.65407E-13
 -1      3203 2.17908E+01-1.04699E+00-7.97988E-03-5.96834E-01-2.30739E-13 3.16065E-13
 -1      3204 2.15873E+01-8.43276E-01 1.23047E-02-7.61032E-01-1.43703E-13 2.82636E-13
 -1      3205 2.12361E+01-8.69589E-01-1.23975E-02-1.01561E+00-1.64149E-13 2.53869E-13
 -1      3206 2.23740E+01-1.38940E+00-1.14404E-02-1.40427E-01-8.62707E-14 1.93357E-13
 -1      3207 2.21590E+01-1.22502E+00 1.39422E-02-3.93675E-01-1.72482E-13 2.52415E-13
 -1      3208 2.18479E+01-1.33543E+00-1.34033E-02-7.48447E-01-1.78585E-13 3.03314E-13
 -1      3209 2.29585E+01-1.50149E+00-1.77717E-02 4.98086E-01-1.86224E-14 1.92168E-13
 -1      3210 2.27801E+01-1.47819E+00 8.24091E-03 1.82463E-01-2.13325E-14 2.58564E-13
 -1      3211 2.25718E+01-1.71379E+00-2.37695E-02-2.26514E-01-8.01668E-14 2.95277E-13
 -1      3212 2.34117E+01-1.08357E+00-7.23517E-03 1.26244E+00 4.55324E-14 1.80691E-13
 -1      3213 2.33684E+01-1.34929E+00 1.44469E-02 9.68299E-01 1.31731E-14 2.02119E-13
 -1      3214 2.34150E+01-1.79219E+00-3.37844E-02 5.63472E-01 1.32160E-14 1.66082E-13
 -1      3215 2.35479E+01 1.16028E-02 9.41901E-03 1.82641E+00-7.59288E-15 1.32406E-13
 -1      3216 2.36090E+01-6.39441E-01-1.47162E-02 1.67436E+00 9.20479E-14 2.05925E-13
 -1      3217 2.39877E+01-1.05904E+00-1.94426E-02 1.45442E+00 4.56475E-14 1.90194E-13
 -1      3218 2.33115E+01 1.52598E+00 1.18580E-02 1.71139E+00-5.28952E-14 2.58198E-13
 -1      3219 2.34139E+01 7.32245E-01-5.12494E-02 1.88820E+00-9.18285E-14 2.04396E-13
 -1      3220 2.41552E+01 4.80059E-01 2.44937E-02 2.01389E+00-7.06622E-14 2.07823E-13
 -1      3221 2.29669E+01 2.69127E+00-4.40284E-03 7.28146E-01 1.08871E-13 2.43392E-13
 -1      3222 2.30411E+01 2.21417E+00-4.72148E-02 1.26881E+00 4.66857E-14 2.61152E-13
 -1      3223 2.38548E+01 2.20225E+00-1.47456E-02 1.67780E+00-1.33123E-14 3.45860E-13
 -1      3224 2.29245E+01 2.67078E+00-3.50173E-02-6.97833E-01 1.81638E-13 2.06331E-13
 -1      3225 2.28905E+01 2.85750E+00-1.96033E-02-6.33494E-02 1.87891E-13 3.31941E-13
 -1      3226 2.35574E+01 3.30292E+00-4.07581E-02 3.85592E-01 7.26294E-14 3.93945E-13
 -1      3227 2.32386E+01 1.46134E+00-5.32840E-02-1.70679E+00 2.10832E-13 1.23373E-13
 -1      3228 2.31352E+01 2.17188E+00 7.20671E-03-1.34290E+00 2.23467E-13 1.59519E-13
 -1      3229 2.36901E+01 2.86875E+00-3.06673E-02-1.15868E+00 2.47274E-13 2.29258E-13
 -1      3230 2.35529E+01-6.29202E-02-3.87564E-02-1.85869E+00 2.36404E-13-4.57079E-14
 -1      3231 2.34718E+01 6.96478E-01 1.12660E-02-1.87236E+00 2.74640E-13 9.56176E-14
 -1      3232 2.40281E+01 1.27859E+00-9.14295E-04-1.96713E+00 2.80307E-13 1.48187E-13
 -1      3233 2.35048E+01-1.12748E+00-1.09568E-02-1.30060E+00-1.50255E-14-1.08045E-13
 -1      3234 2.35330E+01-6.67548E-01-1.18216E-03-1.56925E+00 8.94406E-14-1.45074E-13
 -1      3235 2.41479E+01-4.88723E-01 1.24646E-02-1.73868E+00 2.15630E-13 1.86590E-13
 -1      3236 2.30813E+01-1.49494E+00 1.30606E-02-5.23328E-01 6.74894E-14-1.34185E-13
 -1      3237 2.32065E+01-1.39258E+00-1.15439E-02-8.60079E-01 2.75387E-15-1.84681E-13
 -1      3238 2.37154E+01-1.49937E+00 3.79459E-03-9.66163E-01-1.76872E-14 6.53288E-14
 -1      3239 2.24465E+01-1.37370E+00 1.34508E-02 1.65250E-01 2.05128E-13-6.84930E-14
 -1      3240 2.26525E+01-1.48475E+00-1.17258E-02-1.20547E-01 1.48549E-13-9.74290E-14
 -1      3241 2.30053E+01-1.78805E+00-1.09154E-02-1.06289E-01 4.51536E-14-1.28383E-13
 -1      3242 2.18372E+01-1.02888E+00 1.32941E-02 6.31068E-01 9.96467E-14 1.75958E-13
 -1      3243 2.20511E+01-1.22671E+00-9.90724E-03 4.25453E-01 1.59373E-13-1.39799E-14
 -1      3244 2.21653E+01-1.54709E+00-2.22893E-02 5.50430E-01 1.07109E-13 1.38563E-13
 -1      3245 2.13245E+01-6.41170E-01 1.04457E-02 8.92201E-01-1.03615E-13 1.55382E-13
 -1      3246 2.15147E+01-8.38447E-01-5.65662E-03 7.72455E-01 2.27401E-14 2.17531E-13
 -1      3247 2.14988E+01-1.08963E+00-1.36469E-02 9.31557E-01-1.75855E-14 2.01539E-13
 -1      3248 2.09354E+01-3.09876E-01 7.06699E-03 9.96415E-01-3.50534E-13 1.78713E-13
 -1      3249 2.10918E+01-4.69247E-01-2.27526E-03 9.45204E-01-2.17181E-13 1.64196E-13
 -1      3250 2.09824E+01-6.37689E-01-1.08017E-02 1.09598E+00-1.41806E-13 2.26913E-13
 -1      3251 2.06574E+01-6.72568E-02 4.22875E-03 9.96207E-01-3.05162E-13-1.39927E-13
 -1      3252 2.07802E+01-1.79526E-01-2.40505E-04 9.92855E-01-3.48903E-13-1.80754E-14
 -1      3253 2.06257E+01-2.72699E-01-7.60763E-03 1.12255E+00-2.17564E-13-1.47786E-13
 -1      3254 2.04647E+01 9.05533E-02 2.16349E-03 9.33011E-01-5.34520E-14-2.92715E-13
 -1      3255 2.05596E+01 2.02166E-02 8.77003E-04 9.59931E-01-1.86020E-13-1.57723E-13
 -1      3256 2.03938E+01-1.53581E-02-4.96112E-03 1.06730E+00-1.86379E-13-5.04793E-13
 -1      3257 2.03323E+01 1.81323E-01 8.11293E-04 8.35921E-01 1.96936E-13-3.69065E-13
 -1      3258 2.04058E+01 1.42746E-01 1.43331E-03 8.79931E-01 1.17305E-13-2.96775E-13
 -1      3259 2.02497E+01 1.46592E-01-3.07175E-03 9.68028E-01 4.36230E-14-4.88731E-13
 -1      3260 2.02406E+01 2.25809E-01 1.13170E-04 7.24086E-01-4.08767E-14-2.87460E-13
 -1      3261 2.02981E+01 2.08332E-01 1.66169E-03 7.76118E-01 7.90160E-14-2.83379E-13
 -1      3262 2.01629E+01 2.36302E-01-1.82192E-03 8.48850E-01 4.84783E-14-2.66747E-13
 -1      3263 2.01770E+01 2.43115E-01 5.86558E-04 6.09336E-01 5.14835E-14-3.95205E-13
 -1      3264 2.02213E+01 2.36827E-01 1.74985E-03 6.63131E-01-2.25929E-14-3.22988E-13
 -1      3265 2.01107E+01 2.77431E-01-1.32025E-03 7.24602E-01 1.72210E-14-2.51779E-13
 -1      3266 2.00446E+01 3.52119E-01 3.15514E-04-4.69011E-01-2.50947E-13 7.66609E-14
 -1      3267 2.00550E+01 2.17391E+00-4.32126E-03 2.90591E-01 1.15417E-13-2.31122E-13
 -1      3268 2.00421E+01 2.21312E+00-3.38726E-03 1.69589E-01 9.77718E-14-2.56572E-13
 -1      3269 1.97081E+01 6.12499E-01 4.97042E-04-3.14912E-01 9.65209E-14 1.41682E-13
 -1      3270 1.96664E+01 6.36658E-01-2.31822E-03-2.46196E-01 7.71378E-14 3.79501E-13
 -1      3271 1.96226E+01 6.59315E-01-1.58615E-03 9.72644E-03 5.32093E-14 2.43534E-13
 -1      3272 1.96334E+01 6.50923E-01-2.95262E-04 8.83429E-02-1.98189E-14 2.31030E-13
 -1      3273 1.96395E+01 6.55777E-01-7.02225E-04-1.59215E-01 6.97222E-14 4.29916E-13
 -1      3274 1.96247E+01 6.63710E-01-1.28988E-03-8.18045E-02 6.07949E-14 1.42860E-13
 -1      3275 1.95552E+01 6.93610E-01 2.34615E-03-3.35510E-02-2.03062E-14 1.68648E-13
 -1      3276 1.95892E+01 6.80999E-01 2.44756E-03-2.18826E-01-4.57371E-14 4.43103E-13
 -1      3277 2.85963E+01-2.66879E+00-5.96443E-02 7.65956E-01 2.02709E-13-4.73011E-13
 -1      3278 8.90890E+00 2.35863E-01 1.31297E-01-7.06017E-01-8.17094E-14-8.60700E-14
 -1      3279 1.02842E+01-3.22028E-01 9.46527E-02-2.83066E+00 5.59448E-14-7.02910E-14
 -1      3280 2.02929E+01 9.95205E-01-1.52929E-04 6.86938E-01 1.85737E-13-6.42848E-14
 -1      3281 2.02705E+01 1.31185E+00 2.59292E-03 7.68310E-01 2.04382E-13-8.17852E-14
 -1      3282 2.02789E+01 1.13727E+00 1.05478E-03 5.92006E-01 1.58882E-13-8.82300E-14
 -1      3283 2.02335E+01 7.83476E-01-3.84751E-03 4.78670E-01 1.57522E-13-5.49505E-14
 -1      3284 2.01318E+01 3.10380E-01-1.79965E-03 2.75875E-02 9.32402E-14-5.73458E-14
 -1      3285 2.01750E+01 4.08783E-01 4.45174E-03 1.21688E-01 1.10030E-13-5.33150E-14
 -1      3286 2.01975E+01 3.38335E-01-1.50539E-03 1.62036E-02 9.20544E-14-3.70807E-14
 -1      3287 2.05130E+01-4.20584E+00 8.18649E-02-4.79212E+00-3.99035E-13-1.29171E-13
 -1      3288 2.29052E+01-4.66083E+00-8.69435E-02-3.65506E+00-3.62883E-13-4.01814E-14
 -1      3289 1.74106E+01-3.87253E+00 1.63407E-01-5.60677E+00 1.66839E-13-1.73292E-13
 -1      3290 2.03234E+01-4.68729E+00-6.34025E-02-4.92044E+00 2.57377E-13-1.09232E-13
 -1      3291 2.56764E+01 4.87765E+00-1.43664E-01-9.95661E-01 1.87989E-13 1.68183E-13
 -1      3292 2.62079E+01 3.89238E+00-5.30153E-02-1.90378E+00 3.56312E-13 2.21698E-14
 -1      3293 2.02521E+01 1.43639E+00-6.91627E-03-8.19515E-01-1.30713E-13-1.99231E-13
 -1      3294 2.02939E+01 1.22577E+00 8.58626E-03-7.14116E-01-1.11948E-13-1.88152E-13
 -1      3295 2.02588E+01 9.64599E-01-5.15740E-03-5.24695E-01-1.02542E-13-1.86180E-13
 -1      3296 2.02074E+01 1.67614E+00-6.85189E-04-7.64668E-01-1.02705E-13-2.43121E-13
 -1      3297 1.98239E+01 5.32148E-01 2.25502E-03-4.31736E-01 7.50659E-14-3.87458E-13
 -1      3298 1.97604E+01 5.68654E-01-3.03705E-03-3.85156E-01 1.46321E-13-3.25352E-13
 -1      3299 1.96848E+01 6.23809E-01 2.35981E-03-3.83881E-01 5.36720E-14-4.51831E-14
 -1      3300 2.83650E+01 4.87334E+00-2.57842E-01 1.40382E+00-2.13579E-13-4.99767E-13
 -1      3301 3.00430E+01 4.92008E+00-1.81020E-01 1.86064E+00-1.60622E-13-5.13284E-13
 -1      3302 2.61906E+01 4.97965E+00-1.09060E-01 1.25579E+00 1.99868E-13-2.88727E-14
 -1      3303 2.57273E+01 5.43545E+00-1.08549E-01 1.53117E-01 1.44065E-13 5.37466E-14
 -1      3304 2.00325E+01 5.18374E-02 1.21133E-03-3.20524E-01 4.58067E-14-3.19301E-14
 -1      3305 2.00173E+01 4.18672E-02-3.42506E-04-3.06506E-01 5.63776E-14 1.73238E-14
 -1      3306 2.00533E+01 5.00096E-02-6.44254E-04-3.02449E-01 5.10547E-14 1.75362E-14
 -1      3307 2.00455E+01 7.14519E-02-5.04656E-04-3.34662E-01 2.62803E-14-1.77312E-14
 -1      3308 2.67246E+01 2.18353E+00-1.59432E-01-2.12670E+00 3.96405E-13-1.34774E-13
 -1      3309 2.72795E+01 4.68098E-01-1.71531E-02-1.89585E+00 2.82684E-13-1.99951E-13
 -1      3310 9.70287E+00-2.41823E-01 4.57388E-02 2.83938E+00-1.57555E-13 5.86892E-14
 -1      3311 8.86715E+00 2.05797E-01 1.17648E-01 1.01675E+00-6.10050E-14-1.30451E-15
 -1      3312 1.67852E+01-3.11136E+00 5.26846E-02-5.43003E+00-3.16844E-13-1.27280E-13
 -1      3313 1.88073E+01-3.88585E+00 2.14808E-02-5.36636E+00-3.91298E-13-1.30229E-13
 -1      3314 2.04938E+01-3.65464E+00 6.56373E-02-4.30214E+00-3.21066E-13-1.99589E-13
 -1      3315 1.37436E+01-1.95060E+00-4.77146E-02 5.11680E+00-2.99476E-13 2.64871E-13
 -1      3316 1.15842E+01-7.55814E-01 1.56751E-01 4.06539E+00-2.12379E-13 1.38292E-13
 -1      3317 1.65202E+01-3.05232E+00 4.42094E-02 5.23890E+00 4.75314E-14-4.38635E-13
 -1      3318 1.41307E+01-2.08151E+00 9.85617E-02 4.92078E+00 2.44388E-14-4.83225E-13
 -1      3319 2.02799E+01 7.26443E-01 6.82429E-03-3.35673E-01-8.58736E-14-1.83337E-13
 -1      3320 2.02332E+01 5.63382E-01-4.06759E-03-2.04194E-01-6.42125E-14-1.80384E-13
 -1      3321 2.02790E+01 5.99342E-01-2.92833E-04-1.75134E-01-6.96525E-14-1.69408E-13
 -1      3322 3.08705E+01 3.22442E+00-8.56258E-02 2.18493E+00-4.10783E-14-5.04541E-13
 -1      3323 2.99318E+01 5.27929E+00-1.81706E-01-1.61582E+00-6.37823E-13-1.17698E-13
 -1      3324 3.05895E+01 4.14430E+00-8.25198E-02-2.19912E+00-6.80705E-13-6.83897E-14
 -1      3325 2.69555E+01-1.51259E+00 5.34677E-02 1.07357E+00-1.53030E-13 2.20747E-13
 -1      3326 2.67790E+01 2.36422E-01-1.69680E-01 1.90045E+00-6.84869E-14 2.37546E-13
 -1      3327 2.71325E+01-1.45268E+00-1.26345E-01-1.02634E+00 1.60028E-13-2.92599E-13
 -1      3328 2.65471E+01-2.88533E+00-4.55415E-03 1.89435E-01 3.99125E-14-2.76300E-13
 -1      3329 2.50598E+01-4.07635E+00 8.15826E-02-2.01790E+00-2.38209E-13 1.53780E-13
 -1      3330 2.59858E+01-3.42799E+00-1.69001E-01-5.54447E-01-1.53638E-13 1.98775E-13
 -1      3331 2.00228E+01 3.17219E-01 3.91285E-04 4.14956E-01 8.00462E-14-4.86315E-13
 -1      3332 2.01430E+01-4.04852E+00-2.38700E-02 4.77832E+00-2.53388E-13-1.08559E-14
 -1      3333 1.72378E+01-2.93494E+00 1.43907E-01 5.28327E+00-2.81851E-13 2.34361E-13
 -1      3334 2.00352E+01 2.23220E+00-3.70976E-03 6.57015E-02 8.70702E-14-2.39493E-13
 -1      3335 2.00347E+01 2.23314E+00-3.68969E-03-5.76253E-02 6.02366E-14-2.31128E-13
 -1      3336 2.01484E+01 1.93969E+00 5.05698E-03 1.00514E-01 8.05692E-14-2.33230E-13
 -1      3337 2.26917E+01-3.91211E+00-1.22069E-02 2.94691E+00-1.26133E-13-1.56577E-13
 -1      3338 2.16643E+01-4.06034E+00 5.42871E-02 3.97889E+00-1.75870E-13-1.76569E-14
 -1      3339 2.03468E+01-3.31366E+00 1.16436E-02 3.97632E+00-9.53560E-14 7.50337E-14
 -1      3340 2.95935E+01 2.61807E+00-6.08531E-02-2.50017E+00-5.63022E-13 1.75554E-13
 -1      3341 1.32415E+01-1.33513E+00 1.12995E-01 4.42417E+00 5.10841E-14-5.26801E-13
 -1      3342 1.24633E+01-6.03828E-01 7.08984E-02 3.60336E+00 4.49987E-14-4.52943E-13
 -1      3343 1.51074E+01-1.42583E+00 9.09949E-02 4.24761E+00 1.48159E-13-4.10325E-13
 -1      3344 1.98349E+01 4.69596E-01-2.61124E-03 4.08321E-01 8.30590E-14 3.78008E-14
 -1      3345 1.98984E+01 4.27588E-01 2.59267E-03 4.36906E-01 7.73652E-14 2.96236E-14
 -1      3346 2.16603E+01-2.50409E+00 6.12506E-02 2.96252E+00 1.29097E-13-6.13658E-16
 -1      3347 2.27038E+01-3.24265E+00 5.85453E-02 2.70649E+00 1.85168E-13-3.54751E-14
 -1      3348 2.48745E+01 4.40391E+00-8.52064E-02-3.90097E-01 2.33862E-13 9.61661E-14
 -1      3349 1.99678E+01 4.21758E-01 1.22667E-03-4.99070E-01 8.29752E-15-1.28662E-14
 -1      3350 1.63862E+01-1.98817E+00 9.92006E-02 4.59114E+00-2.49405E-13 1.66599E-13
 -1      3351 2.53793E+01-4.40140E+00-1.71791E-02-1.74341E+00 1.70794E-13-3.44082E-13
 -1      3352 2.41845E+01-4.04133E+00 8.31953E-02-2.37924E+00 2.39700E-13-3.05698E-13
 -1      3353 2.37135E+01-4.00173E+00 1.60981E-02-2.50460E+00-2.98775E-13 6.08975E-14
 -1      3354 2.00663E+01 1.30101E-01 2.34785E-03-1.48473E-01 6.17756E-14-4.32729E-14
 -1      3355 2.01525E+01 1.92971E-01-1.44015E-03-1.08071E-01 5.34669E-14-5.85959E-14
 -1      3356 2.00505E+01 9.41036E-02-1.33220E-04-1.84179E-01 3.88530E-14-1.64648E-14
 -1      3357 2.57434E+01-3.61764E+00-2.50029E-02 9.14770E-01 1.31128E-14-2.78486E-13
 -1      3358 2.45214E+01-3.78346E+00-7.85384E-03 1.61625E+00 2.56045E-15-2.49223E-13
 -1      3359 2.56138E+01-2.77949E+00-4.46388E-02-1.28443E-01 6.26634E-14-2.21968E-13
 -1      3360 2.64652E+01-6.78213E-01-4.68378E-02-1.53795E+00 1.35648E-13-7.98042E-14
 -1      3361 2.00869E+01 6.03014E-02-1.03470E-03-2.37769E-01 2.86579E-14-1.77785E-14
 -1      3362 2.00306E+01 5.05504E-02 3.59688E-04-2.34131E-01 1.86850E-14-7.76310E-15
 -1      3363 2.00356E+01 6.89805E-02 1.36194E-03-2.12373E-01 2.56688E-14-2.00572E-14
 -1      3364 2.01493E+01 2.55696E-01 1.61418E-03 5.67214E-01 1.52023E-13-4.38673E-13
 -1      3365 2.00609E+01 3.00324E-01-1.93265E-03 6.17408E-01 2.04868E-13-2.96494E-13
 -1      3366 2.01093E+01 2.67482E-01 1.41804E-03 5.29727E-01 1.65793E-13-3.19875E-13
 -1      3367 1.97295E+01 5.58721E-01-2.51176E-03 3.11408E-01 5.60045E-14-2.18004E-13
 -1      3368 1.97803E+01 5.23863E-01 1.37489E-03 3.62574E-01 9.22069E-14 5.72066E-14
 -1      3369 1.97724E+01 5.08528E-01 8.20429E-04 4.26464E-01-2.41343E-14-3.27003E-14
 -1      3370 2.00751E+01 2.11749E+00-3.13401E-03 3.88262E-01 1.19242E-13-2.01124E-13
 -1      3371 2.01705E+01 1.86375E+00 5.39502E-03 2.87856E-01 1.13286E-13-2.08196E-13
 -1      3372 2.01000E+01 2.03667E+00-5.29346E-03 5.01079E-01 1.40177E-13-1.85426E-13
 -1      3373 2.75229E+01-3.85936E+00 3.47953E-02-2.10818E-01 2.17132E-13-3.70905E-13
 -1      3374 1.96550E+01 6.24934E-01-2.21778E-03 1.73746E-01 5.21937E-14-2.16821E-14
 -1      3375 1.96885E+01 6.01744E-01 6.29268E-04 2.42507E-01 8.12081E-14-3.49139E-13
 -1      3376 1.96563E+01 5.99506E-01 1.38573E-03 3.08858E-01 1.94058E-13-2.34044E-13
 -1      3377 1.95797E+01 6.64404E-01 1.88581E-03 1.49645E-01-1.14310E-14 7.09261E-14
 -1      3378 2.02835E+01 1.00258E+00-1.39938E-03-4.62519E-01-8.87566E-14-2.02411E-13
 -1      3379 1.99054E+01 4.63080E-01-2.44842E-03-4.87371E-01 1.75548E-14-1.40715E-13
 -1      3380 2.01275E+01 1.95097E+00-2.83609E-03-5.78949E-01-5.32160E-14-2.09150E-13
 -1      3381 2.01610E+01 1.82704E+00-6.61509E-03-6.78561E-01-8.89150E-14-2.48609E-13
 -1      3382 1.05555E+01 5.48652E-01 1.35350E-01 4.83084E-02-6.30685E-14 1.05888E-14
 -1      3383 1.15493E+01-5.21591E-01 1.50738E-01-3.46411E+00 5.38736E-14-1.91083E-13
 -1      3384 1.28639E+01-1.05795E+00-1.30642E-03-3.97197E+00 1.50702E-13-2.16271E-13
 -1      3385 1.15792E+01 2.23752E-01 7.50905E-02-2.36771E+00 7.13058E-14-4.43118E-14
 -1      3386 2.01804E+01 4.97620E-01-2.79584E-03 2.11934E-01 1.24952E-13-5.09469E-14
 -1      3387 2.02361E+01 6.43408E-01 4.09327E-03 3.53765E-01 1.46334E-13-4.90362E-14
 -1      3388 2.02636E+01 7.99490E-01-7.21200E-04 4.13494E-01 1.42499E-13-4.77029E-14
 -1      3389 2.02354E+01 5.40822E-01-7.98988E-04 1.87689E-01 1.13321E-13-5.40473E-14
 -1      3390 2.56581E+01 2.50592E+00-5.49840E-02-1.95835E+00 3.37522E-13 1.19293E-13
 -1      3391 1.65215E+01-2.89434E+00 1.27733E-01-5.10250E+00 2.61013E-13-3.36176E-13
 -1      3392 1.99130E+01-2.16659E+00-1.90304E-02 3.52892E+00 1.70178E-13-8.12753E-14
 -1      3393 1.19977E+01-1.01638E-01 1.17176E-01 3.04048E+00-7.16718E-14 1.52704E-13
 -1      3394 9.38068E+00 1.57681E-01 1.60090E-01 1.40201E+00-7.05304E-14-3.06269E-13
 -1      3395 1.00726E+01 4.94590E-01 6.28503E-02 3.39536E-01-9.80813E-14-2.37740E-13
 -1      3396 1.08820E+01 1.17637E-01 8.12864E-02 2.17123E+00 5.73239E-15-3.37758E-13
 -1      3397 1.98291E+01 5.20648E-01-1.17299E-03-5.14164E-01 2.42299E-13-3.33390E-13
 -1      3398 1.04171E+01-7.79941E-02 1.70342E-01-2.97143E+00-8.65696E-14-1.04736E-13
 -1      3399 1.21012E+01-4.78979E-01 4.89032E-02-3.55058E+00-1.06947E-13-2.10380E-13
 -1      3400 1.03177E+01 2.87481E-01 7.88165E-02-1.75080E+00-1.46109E-13-1.23401E-13
 -1      3401 2.56639E+01-4.68758E+00-5.48788E-02-2.01269E+00 2.37498E-13-3.69191E-13
 -1      3402 2.00968E+01 2.04529E+00-4.99723E-03-4.94694E-01-2.60102E-14-2.30816E-13
 -1      3403 2.02034E+01 1.71596E+00 3.52618E-03-4.49631E-01-4.09548E-14-1.84808E-13
 -1      3404 2.00726E+01 2.12321E+00-3.13977E-03-3.80047E-01 7.88996E-15-2.52559E-13
 -1      3405 2.19992E+01-4.05306E+00-2.86749E-02-3.64810E+00 2.92644E-13-3.24810E-13
 -1      3406 1.92914E+01-3.39818E+00 7.96988E-02 4.57483E+00 1.72154E-13-2.56618E-13
 -1      3407 1.85098E+01-2.61432E+00 4.40737E-02 4.34545E+00 2.10852E-13-1.67789E-13
 -1      3408 2.91213E+01-1.86556E+00-7.42675E-02-1.14083E+00-2.00515E-13 1.77719E-13
 -1      3409 1.58301E+01-2.32742E+00 9.58123E-02-5.15711E+00-2.53284E-13-1.41595E-13
 -1      3410 1.78118E+01-2.51527E+00 3.98566E-02-4.59465E+00-3.40061E-13-5.82069E-14
 -1      3411 1.48357E+01-1.46161E+00 4.16917E-02-4.52161E+00-2.21059E-13-1.35586E-13
 -1      3412 2.01661E+01 1.81164E+00-6.65798E-03 6.81311E-01 1.85027E-13-1.30378E-13
 -1      3413 2.01313E+01 1.94067E+00-2.91044E-03 5.86435E-01 1.57349E-13-1.57895E-13
 -1      3414 2.02113E+01 1.70919E+00 5.87958E-03 4.54454E-01 1.29962E-13-1.56320E-13
 -1      3415 2.02579E+01 1.47252E+00 5.79098E-03 5.82163E-01 1.64297E-13-1.07436E-13
 -1      3416 2.67341E+01 2.66528E+00-1.86579E-02 2.18444E+00 1.64729E-14 1.40894E-13
 -1      3417 2.64864E+01 3.98714E+00-1.64879E-01 1.77751E+00 1.36460E-13 2.56462E-14
 -1      3418 2.60246E+01-2.20716E+00 3.86512E-02 5.70499E-01-1.86417E-13 1.45994E-13
 -1      3419 2.60644E+01 1.14103E+00-2.97031E-02 2.02162E+00-8.31418E-14 2.29088E-13
 -1      3420 1.99629E+01 3.61358E-01-3.28083E-03 4.59137E-01 2.70520E-13-2.18204E-13
 -1      3421 2.00622E+01 2.90068E-01 2.27675E-03 4.62930E-01 1.78392E-13-5.92849E-13
 -1      3422 2.00916E+01 2.79924E-01 2.38931E-03 5.01977E-01 2.51962E-13-4.59824E-13
 -1      3423 1.99202E+01 3.97833E-01 3.91599E-04 4.95341E-01 2.42837E-13-1.86001E-13
 -1      3424 2.53331E+01 3.87587E+00-6.87753E-02 1.46263E+00 8.15667E-14 5.92790E-14
 -1      3425 1.96416E+01 6.44920E-01 2.78627E-03-4.58402E-01 2.46719E-13-1.34280E-13
 -1      3426 1.95638E+01 6.74219E-01-4.51414E-03-3.81717E-01 2.83957E-14 2.73963E-13
 -1      3427 1.31937E+01-2.21775E-01-5.15243E-02 3.23563E+00-3.81778E-14 1.21972E-13
 -1      3428 1.20889E+01 5.27505E-01 7.63328E-02 1.98989E+00-6.93803E-15 1.62523E-13
 -1      3429 2.02720E+01 2.79641E-01 1.90803E-03 7.00017E-02-6.56994E-14-9.42806E-14
 -1      3430 2.02480E+01 2.12573E-01-1.04727E-03 1.18010E-01-6.40408E-14-1.07914E-13
 -1      3431 2.02298E+01 1.62838E-01 1.27894E-03 1.51818E-01-6.08127E-14-1.18756E-13
 -1      3432 2.02087E+01 1.24940E-01-3.56234E-04 1.83529E-01-1.28959E-14-1.07711E-13
 -1      3433 2.02831E+01 2.22128E-01-3.14738E-04 1.16987E-01-6.86728E-14-7.85858E-14
 -1      3434 2.01860E+01 9.96308E-02 6.72323E-04 2.06286E-01 1.88231E-14-1.65222E-13
 -1      3435 2.01681E+01 8.36910E-02 1.45146E-04 2.28345E-01 3.53186E-14-1.63495E-13
 -1      3436 2.02382E+01 1.35418E-01-3.99110E-04 1.76472E-01-2.62315E-14-1.02100E-13
 -1      3437 2.01426E+01 7.68857E-02 1.25997E-04 2.45205E-01 4.74096E-14-1.76548E-13
 -1      3438 2.01275E+01 7.78484E-02 4.99090E-04 2.63044E-01 3.03796E-14-1.41880E-13
 -1      3439 2.01887E+01 9.74368E-02-3.39617E-04 2.18513E-01 2.96901E-14-1.46093E-13
 -1      3440 2.00997E+01 8.54759E-02-3.63404E-04 2.78267E-01 2.83355E-14-1.10546E-13
 -1      3441 2.00864E+01 9.98743E-02 7.42842E-04 2.96226E-01 4.14872E-14-1.01981E-13
 -1      3442 2.01362E+01 9.71260E-02-1.76999E-04 2.52396E-01 6.06724E-14-1.31072E-13
 -1      3443 2.00555E+01 1.19191E-01-8.16182E-04 3.13237E-01 2.21271E-14-8.61191E-14
 -1      3444 2.00427E+01 1.44707E-01 9.03774E-04 3.34762E-01 4.80905E-16-6.34231E-14
 -1      3445 2.00799E+01 1.26739E-01 6.69650E-05 2.85711E-01 3.78948E-14-8.27377E-14
 -1      3446 2.00074E+01 1.73903E-01-1.25841E-03 3.56278E-01-6.33164E-15-7.54495E-14
 -1      3447 1.99934E+01 2.09010E-01 1.00003E-03 3.84118E-01 6.55903E-15-4.38158E-14
 -1      3448 2.00177E+01 1.80997E-01 3.92525E-04 3.24485E-01 2.05114E-14-1.15634E-13
 -1      3449 1.99516E+01 2.46862E-01-1.71597E-03 4.12294E-01 1.67949E-15-4.57626E-14
 -1      3450 1.99345E+01 2.90454E-01 1.04086E-03 4.48645E-01-3.33942E-15-3.82424E-14
 -1      3451 1.99460E+01 2.56314E-01 8.06915E-04 3.73428E-01 1.78940E-14-5.77457E-14
 -1      3452 1.98833E+01 3.35944E-01-2.21317E-03 4.85177E-01-6.53775E-14-2.92691E-14
 -1      3453 1.98606E+01 3.86940E-01 1.03369E-03 5.31769E-01-1.09780E-13-1.92775E-14
 -1      3454 1.98595E+01 3.50038E-01 1.33012E-03 4.36165E-01-2.76492E-14-9.76559E-14
 -1      3455 1.97962E+01 4.38814E-01-2.77629E-03 5.77996E-01-1.34441E-13-5.25915E-14
 -1      3456 1.97651E+01 4.95655E-01 9.94424E-04 6.36165E-01-1.31253E-13-5.83988E-14
 -1      3457 1.97518E+01 4.59602E-01 1.98566E-03 5.15408E-01-1.27518E-13-1.22200E-13
 -1      3458 1.96831E+01 5.51825E-01-3.43563E-03 6.93231E-01-7.41424E-14-7.43057E-14
 -1      3459 1.96404E+01 6.11769E-01 9.66207E-04 7.64033E-01-8.35308E-14-3.63854E-14
 -1      3460 1.96146E+01 5.81518E-01 2.79568E-03 6.13207E-01-7.96312E-14-2.05954E-13
 -1      3461 1.95354E+01 6.68420E-01-4.23254E-03 8.33207E-01-8.70337E-14 2.64115E-14
 -1      3462 1.94784E+01 7.26515E-01 1.05232E-03 9.17679E-01 3.71122E-15-6.23769E-14
 -1      3463 1.94384E+01 7.10021E-01 3.77710E-03 7.31441E-01-5.51002E-14-8.85695E-14
 -1      3464 1.93443E+01 7.76808E-01-5.23131E-03 1.00103E+00 7.45590E-14-6.72778E-14
 -1      3465 1.92716E+01 8.24412E-01 1.46930E-03 1.10078E+00 6.13020E-14-4.78032E-14
 -1      3466 1.92117E+01 8.35174E-01 4.92783E-03 8.72849E-01 3.67984E-14-3.02137E-14
 -1      3467 1.91021E+01 8.56600E-01-6.52945E-03 1.20248E+00-5.04120E-14 1.31445E-14
 -1      3468 1.90164E+01 8.79280E-01 2.63339E-03 1.32086E+00-4.62506E-14-2.64700E-14
 -1      3469 1.89228E+01 9.40233E-01 6.20556E-03 1.04313E+00 2.61065E-14 2.29027E-15
 -1      3470 1.88058E+01 8.74077E-01-8.23190E-03 1.44960E+00 2.85167E-14-2.43737E-14
 -1      3471 1.87183E+01 8.48673E-01 5.31306E-03 1.59360E+00 7.25600E-14-4.48394E-14
 -1      3472 1.85598E+01 9.97985E-01 7.49973E-03 1.25489E+00 2.38781E-14 2.97605E-14
 -1      3473 1.84638E+01 7.75694E-01-1.02273E-02 1.76658E+00 8.95260E-14 5.68561E-15
 -1      3474 1.84028E+01 6.65664E-01 1.07552E-02 1.94920E+00 1.33359E-13 1.60543E-15
 -1      3475 1.81146E+01 9.65506E-01 8.59556E-03 1.53454E+00 9.74751E-14 6.79640E-14
 -1      3476 1.81112E+01 4.78429E-01-1.12011E-02 2.19694E+00 1.12702E-13-7.06418E-14
 -1      3477 1.81364E+01 2.27286E-01 2.17300E-02 2.43674E+00 3.04652E-14-3.78686E-14
 -1      3478 1.75882E+01 7.74101E-01 8.95592E-03 1.93301E+00 7.83939E-14-6.85155E-14
 -1      3479 1.78434E+01-1.44596E-01-5.12157E-03 2.80132E+00 1.56760E-14-8.94744E-14
 -1      3480 1.80453E+01-6.22051E-01 3.93585E-02 3.11876E+00 7.38298E-14-9.44795E-14
 -1      3481 1.70068E+01 3.04726E-01 6.48223E-03 2.53297E+00 3.57631E-14-2.03293E-13
 -1      3482 2.07380E+01-3.86125E+00-7.36760E-02 4.14964E+00 1.43538E-13-7.64042E-14
 -1      3483 2.41632E+01 4.10895E+00-6.32591E-02 1.62317E-01 1.45044E-13 2.64819E-13
 -1      3484 2.41841E+01 3.77799E+00-3.17698E-02-9.90587E-01 2.27748E-13 2.20403E-13
 -1      3485 2.57669E+01-4.48629E+00 1.17165E-01 2.02347E+00 2.36845E-13-9.03930E-14
 -1      3486 2.26548E+01-3.62117E+00 5.33252E-02-2.73871E+00-3.14945E-13-8.69842E-14
 -1      3487 2.40688E+01-3.58756E+00-5.97541E-02-1.38021E+00-1.48461E-13 1.27202E-13
 -1      3488 1.82905E+01-7.68925E-01 3.34221E-02-3.17103E+00 7.48785E-14-3.56467E-13
 -1      3489 1.80574E+01-2.25599E-01 8.83186E-03-2.86227E+00 2.52678E-14-4.79720E-13
 -1      3490 1.82957E+01 1.37611E-01 2.10301E-02-2.49890E+00 7.94308E-14-5.44403E-13
 -1      3491 1.82455E+01 4.08283E-01-9.85049E-03-2.26418E+00 1.31499E-13-4.65714E-13
 -1      3492 1.72050E+01 2.03404E-01 1.69201E-02-2.65065E+00 5.56135E-14-5.04785E-13
 -1      3493 1.85146E+01 6.12697E-01 1.17895E-02-2.01013E+00 1.68231E-13-4.45692E-13
 -1      3494 1.85568E+01 7.35130E-01-9.63843E-03-1.82725E+00 1.22320E-13-3.28628E-13
 -1      3495 1.76989E+01 7.09849E-01 7.92057E-03-2.02061E+00 1.43825E-13-4.88989E-13
 -1      3496 1.88001E+01 8.18472E-01 5.81653E-03-1.64850E+00 5.22731E-14-2.75326E-13
 -1      3497 1.88768E+01 8.52705E-01-7.89762E-03-1.50199E+00 9.46957E-14-2.30783E-13
 -1      3498 1.81956E+01 9.29260E-01 7.84855E-03-1.60602E+00 1.32429E-13-5.06440E-13
 -1      3499 1.90810E+01 8.65876E-01 2.94520E-03-1.36795E+00 1.64898E-13-1.97872E-13
 -1      3500 1.91599E+01 8.50868E-01-6.28694E-03-1.24584E+00 2.55961E-13-6.98587E-14
 -1      3501 1.86241E+01 9.81389E-01 7.01169E-03-1.31356E+00 1.14610E-13-3.15504E-13
 -1      3502 1.93254E+01 8.26324E-01 1.64742E-03-1.13872E+00 1.99654E-13 5.56974E-15
 -1      3503 1.93935E+01 7.86927E-01-5.01186E-03-1.03402E+00 1.37930E-13 7.94783E-14
 -1      3504 1.89772E+01 9.40535E-01 5.91733E-03-1.08996E+00 2.71533E-13-6.05681E-14
 -1      3505 1.95245E+01 7.45543E-01 1.16217E-03-9.44518E-01 2.02873E-14-7.35411E-14
 -1      3506 1.95791E+01 6.97825E-01-3.57828E-03-8.53898E-01 6.99860E-14-2.39463E-13
 -1      3507 1.92595E+01 8.53395E-01 4.77443E-03-9.07445E-01-7.68321E-14-1.33649E-13
 -1      3508 1.96819E+01 6.51653E-01 1.47219E-03-7.75593E-01 1.24676E-13-2.55715E-13
 -1      3509 1.97230E+01 6.11994E-01 6.60049E-04-7.00758E-01 1.25180E-13-4.16772E-13
 -1      3510 1.94778E+01 7.50715E-01 3.26666E-03-7.51516E-01-7.28152E-14-1.27101E-13
 -1      3511 1.97882E+01 5.53823E-01-2.89061E-03-5.80934E-01 3.46106E-13-4.96351E-13
 -1      3512 2.00177E+01 1.82217E-01 1.44510E-03-4.35309E-01-8.83609E-15-8.24753E-14
 -1      3513 2.00141E+01 1.57614E-01-1.11182E-03-4.04818E-01-8.24863E-15-1.41070E-13
 -1      3514 2.00363E+01 1.35562E-01 1.27264E-03-3.77900E-01 3.44113E-14-1.40411E-13
 -1      3515 2.00353E+01 1.13856E-01-8.64358E-04-3.54286E-01 4.96273E-14-3.79131E-14
 -1      3516 2.00060E+01 1.70270E-01-2.80938E-05-3.82652E-01 3.90255E-14-7.76260E-14
 -1      3517 1.99896E+01 2.70712E-01 1.81014E-03-5.99376E-01-2.77234E-14 3.16894E-14
 -1      3518 1.99786E+01 2.50763E-01-1.35170E-03-5.52999E-01 1.14618E-14-1.33020E-14
 -1      3519 1.99863E+01 2.94291E-01 2.03783E-03-7.06906E-01-5.98433E-15 7.51891E-14
 -1      3520 1.99686E+01 2.84524E-01-1.26226E-03-6.53417E-01 3.03362E-14 7.91493E-14
 -1      3521 1.98843E+01 3.21563E-01-9.75742E-05-6.23216E-01-3.43304E-14 4.50810E-14
 -1      3522 1.99998E+01 2.85998E-01 2.32053E-03-8.28763E-01-7.43397E-14 4.14315E-14
 -1      3523 1.99709E+01 2.94341E-01-9.25503E-04-7.70438E-01-7.54224E-14 1.11008E-14
 -1      3524 1.98509E+01 3.43493E-01-5.10108E-04-7.41671E-01-8.35534E-15 1.13516E-14
 -1      3525 2.00440E+01 2.26373E-01 2.65884E-03-9.59426E-01-2.31500E-14 7.41261E-14
 -1      3526 1.99969E+01 2.63330E-01-2.01315E-04-9.00436E-01-5.90330E-14 4.82985E-14
 -1      3527 1.98331E+01 3.26141E-01-1.33822E-03-8.79167E-01-9.62234E-14-1.87938E-14
 -1      3528 2.01408E+01 9.09538E-02 2.98206E-03-1.08889E+00-2.60341E-14 1.93727E-13
 -1      3529 2.00648E+01 1.69550E-01 1.12074E-03-1.03614E+00 8.17707E-15 1.60124E-13
 -1      3530 1.98475E+01 2.46658E-01-2.81380E-03-1.03267E+00-5.26947E-14 1.07815E-13
 -1      3531 2.03224E+01-1.47761E-01 3.03767E-03-1.19985E+00-6.55444E-14 2.07856E-13
 -1      3532 2.02031E+01-1.32725E-02 3.33681E-03-1.16442E+00-2.87343E-14 1.97024E-13
 -1      3533 1.99205E+01 7.63972E-02-5.25938E-03-1.19514E+00-3.50658E-14 1.99097E-13
 -1      3534 2.06326E+01-5.13435E-01 2.33192E-03-1.26270E+00-1.17081E-13 1.71996E-13
 -1      3535 2.04527E+01-3.11786E-01 6.82533E-03-1.26201E+00-7.21558E-14 1.68030E-13
 -1      3536 2.00929E+01-2.16880E-01-9.04444E-03-1.35162E+00-3.24088E-14 1.40078E-13
 -1      3537 2.11203E+01-1.01096E+00-5.54404E-04-1.22874E+00-1.46260E-13 1.14585E-13
 -1      3538 2.08657E+01-7.42138E-01 1.19785E-02-1.28914E+00-1.73722E-13 1.52267E-13
 -1      3539 2.04213E+01-6.60406E-01-1.44531E-02-1.47147E+00-1.18944E-13 3.81740E-14
 -1      3540 2.18353E+01-1.58341E+00-2.76262E-03-1.01181E+00-2.18189E-13 5.43701E-14
 -1      3541 2.15022E+01-1.29055E+00 1.92934E-02-1.17636E+00-1.69449E-13 1.14362E-13
 -1      3542 2.09797E+01-1.26614E+00-2.27208E-02-1.49903E+00-1.82445E-13 3.57328E-14
 -1      3543 2.28456E+01-2.04725E+00 1.17690E-02-4.82701E-01-7.36145E-14 1.14171E-13
 -1      3544 2.23997E+01-1.85863E+00 2.77672E-02-8.35269E-01-1.69573E-13 7.36191E-14
 -1      3545 2.18583E+01-1.90248E+00-1.03279E-02-1.32054E+00-1.51870E-13-3.82207E-14
 -1      3546 2.37438E+01-2.51746E+00-1.63029E-03-2.83283E-01-6.65787E-15 5.60650E-14
 -1      3547 2.32735E+01-2.49599E+00 2.47504E-02-7.19952E-01-7.62793E-14 6.10228E-14
 -1      3548 2.50440E+01 4.41597E-01-3.41347E-02 1.92784E+00-1.24279E-13 2.71414E-13
 -1      3549 2.50646E+01-7.29925E-01-9.23285E-02 1.80613E+00-8.43631E-14 1.86798E-13
 -1      3550 2.45803E+01 3.20897E+00-2.80419E-02 1.60301E+00 9.38138E-15 3.04429E-13
 -1      3551 2.46904E+01 2.03077E+00-1.11977E-01 2.04412E+00-7.37847E-14 3.03797E-13
 -1      3552 2.41894E+01 3.76680E+00-8.68845E-02 9.66153E-01 5.12507E-14 2.61546E-13
 -1      3553 2.42620E+01 2.91527E+00-1.03511E-01-1.63554E+00 2.99507E-13 2.26772E-13
 -1      3554 2.45683E+01-1.33285E+00-6.18090E-02-1.40794E+00 1.66209E-13 3.19222E-13
 -1      3555 2.46716E+01-5.00485E-01-2.88190E-02-1.69962E+00 2.86970E-13 2.74758E-13
 -1      3556 2.42390E+01-2.50428E+00 6.15904E-03-5.94814E-02 6.30646E-14 1.41046E-13
 -1      3557 2.45867E+01-2.16471E+00-1.05147E-02-5.44619E-01 9.91377E-14 1.80026E-13
 -1      3558 2.18892E+01-1.56416E+00 2.36126E-02 1.06935E+00 3.02349E-14 2.63075E-13
 -1      3559 2.22948E+01-1.83506E+00 7.45272E-03 8.20515E-01 4.63778E-14 1.88225E-13
 -1      3560 2.11357E+01-9.89825E-01 1.49537E-02 1.27177E+00-6.75282E-14 1.47266E-13
 -1      3561 2.14299E+01-1.27696E+00-5.68061E-04 1.16765E+00 3.25712E-14 2.47533E-13
 -1      3562 2.13438E+01-1.57057E+00-2.17170E-02 1.46309E+00 4.01643E-14 2.94805E-13
 -1      3563 2.06278E+01-4.97854E-01 8.98402E-03 1.30054E+00-3.18957E-14-1.26340E-14
 -1      3564 2.08406E+01-7.33069E-01 1.37077E-03 1.27640E+00-5.89628E-14 1.02644E-13
 -1      3565 2.06585E+01-9.26469E-01-1.73782E-02 1.51284E+00 2.40996E-14-5.11258E-14
 -1      3566 2.03112E+01-1.35242E-01 4.83937E-03 1.22910E+00-5.32515E-14-3.55109E-13
 -1      3567 2.04557E+01-3.01924E-01 2.85667E-03 1.25136E+00 1.90230E-14-1.13193E-13
 -1      3568 2.02337E+01-4.04774E-01-1.13344E-02 1.42783E+00 4.62361E-14-2.01982E-13
 -1      3569 2.01291E+01 1.04039E-01 2.12049E-03 1.10965E+00-1.83249E-13-3.92331E-13
 -1      3570 2.02222E+01-2.06298E-03 3.03969E-03 1.15723E+00-1.70230E-13-4.08045E-13
 -1      3571 1.99992E+01-3.98250E-02-6.84484E-03 1.28240E+00-1.35157E-14-2.43412E-13
 -1      3572 2.00345E+01 2.44817E-01 4.46808E-04 9.71354E-01-1.07174E-13-2.76897E-13
 -1      3573 2.00925E+01 1.85204E-01 2.74874E-03 1.03099E+00-8.43288E-14-4.04801E-13
 -1      3574 1.98882E+01 1.91009E-01-3.81023E-03 1.11806E+00-1.11420E-13-1.91220E-13
 -1      3575 1.99935E+01 3.15619E-01-3.95634E-04 8.30729E-01 6.13075E-15-7.17032E-14
 -1      3576 2.00287E+01 2.87791E-01 2.33750E-03 8.94118E-01-7.82146E-14-2.46332E-13
 -1      3577 1.98524E+01 3.20022E-01-1.96364E-03 9.54781E-01-1.11917E-13-2.64681E-13
 -1      3578 1.99836E+01 3.42659E-01-7.25563E-05 6.96278E-01 1.37143E-13-4.02074E-13
 -1      3579 2.00037E+01 3.33531E-01 2.00075E-03 7.58274E-01 5.73224E-14-2.70084E-13
 -1      3580 1.98577E+01 3.79693E-01-1.10242E-03 8.02276E-01 4.79615E-14-2.06741E-13
 -1      3581 1.78103E+01-2.33106E+00-2.92430E-02 4.34616E+00-1.42577E-13 3.17427E-13
 -1      3582 1.53630E+01-1.03567E+00 1.02795E-01 4.13535E+00-2.37026E-13 3.14044E-13
 -1      3583 2.02804E+01 1.28588E+00 1.54484E-03-5.49286E-01-9.40317E-14-2.27461E-13
 -1      3584 2.02906E+01 9.87461E-01-4.32861E-03-3.58997E-01-6.90190E-14-2.07002E-13
 -1      3585 1.14675E+01 7.45597E-01 4.03328E-02 8.64236E-01 4.07278E-14 1.46612E-13
 -1      3586 1.15972E+01 7.42486E-01 5.45801E-02-7.11801E-01-8.87138E-15 3.42781E-14
 -1      3587 1.30526E+01 8.17879E-01 7.08838E-02 1.19976E+00 3.97442E-14 2.21111E-13
 -1      3588 2.00015E+01 2.29830E-01 1.61911E-03-5.08712E-01 3.71327E-14-8.11024E-14
 -1      3589 1.99948E+01 2.05468E-01-1.28353E-03-4.70350E-01 2.10087E-14-6.77836E-14
 -1      3590 1.99653E+01 2.24073E-01 5.87367E-05-4.45024E-01-1.07828E-14-1.06493E-13
 -1      3591 1.99241E+01 2.77562E-01 5.74005E-05-5.24577E-01-1.01678E-14-1.87789E-14
 -1      3592 2.01055E+01 5.72774E-02 5.82846E-04-2.68092E-01 6.40875E-14-1.59781E-14
 -1      3593 2.01145E+01 6.03512E-02 3.18839E-04-2.51335E-01 6.20979E-14-3.60193E-14
 -1      3594 2.12910E+01-4.40803E+00 4.54661E-02-4.34784E+00 3.35974E-13-3.20922E-13
 -1      3595 2.31486E+01-4.95479E+00 1.36883E-01-4.03910E+00 2.00562E-13-3.70412E-13
 -1      3596 1.57437E+01-1.84142E+00 1.45628E-01-4.67891E+00 2.42133E-13-3.95087E-13
 -1      3597 1.79795E+01-2.93733E+00-2.00930E-02-4.72251E+00 3.23026E-13-4.52131E-13
 -1      3598 1.91710E+01-2.52969E+00 4.98631E-02-4.06251E+00 3.19893E-13-4.71219E-13
 -1      3599 1.85568E+01-1.61478E+00 4.72597E-02-3.71828E+00 2.17103E-13-3.60956E-13
 -1      3600 2.00412E+01 2.21534E+00-3.38229E-03-1.61407E-01 3.71441E-14-2.42565E-13
 -1      3601 2.00533E+01 2.17910E+00-3.95478E-03-2.82742E-01 7.12188E-15-2.55859E-13
 -1      3602 2.01641E+01 1.86676E+00 3.19792E-03-2.80035E-01 6.16792E-15-2.48450E-13
 -1      3603 2.73354E+01-4.24981E+00-1.35483E-01 3.04840E-01 7.82707E-14 2.81483E-13
 -1      3604 1.78109E+01-1.10540E+00 1.64881E-02 3.53272E+00 1.36568E-13-1.22928E-13
 -1      3605 1.84702E+01-1.93697E+00 4.35797E-02 3.86903E+00 2.72844E-13-8.31175E-14
 -1      3606 1.61126E+01-1.47830E+00 5.41874E-02 4.26765E+00 1.53599E-13-3.47597E-13
 -1      3607 1.64916E+01-4.53721E-01 1.53782E-02 3.31122E+00 1.30909E-13-2.63116E-13
 -1      3608 2.03066E+01 4.68590E-01 2.44745E-03-5.26806E-02-5.33841E-14-1.34843E-13
 -1      3609 2.02823E+01 3.62277E-01-1.94929E-03 1.92430E-02-5.87103E-14-1.20299E-13
 -1      3610 2.03190E+01 3.72979E-01-8.08520E-06 2.92319E-02-5.03546E-14-9.34965E-14
 -1      3611 2.76535E+01 4.13030E+00-2.00868E-01-1.85831E+00-4.22884E-13 2.00916E-14
 -1      3612 2.00812E+01-3.31164E+00 1.08119E-01-4.28414E+00 3.23755E-13-4.11310E-13
 -1      3613 2.03500E+01-3.25113E+00 1.14041E-02-3.88013E+00-2.61301E-13-1.55259E-13
 -1      3614 2.16661E+01-3.65311E+00-2.30796E-02-3.39830E+00-2.97134E-13-1.41594E-13
 -1      3615 2.24258E+01-3.22774E+00 2.30557E-02-2.37712E+00-3.00093E-13-9.57637E-14
 -1      3616 2.50124E+01 1.80798E+00-2.27981E-02-2.02839E+00 3.33664E-13 1.25271E-13
 -1      3617 2.03235E+01 7.57511E-01 3.99448E-03-2.28842E-01-5.29003E-14-1.79430E-13
 -1      3618 2.03037E+01 5.95335E-01-3.15926E-03-1.25884E-01-4.29767E-14-1.64816E-13
 -1      3619 2.03374E+01 6.08255E-01 5.08393E-04-9.80333E-02-3.40237E-14-1.20095E-13
 -1      3620 2.57397E+01-2.74199E-01-4.92406E-02-1.80934E+00 1.98258E-13 1.81070E-13
 -1      3621 2.59772E+01-1.69876E+00 1.88293E-02-1.14537E+00 1.18249E-13-1.48562E-14
 -1      3622 2.51052E+01 5.05486E-01-6.37182E-02-2.08706E+00 3.08798E-13 1.10604E-13
 -1      3623 1.96854E+01 6.23103E-01 2.12973E-04-5.94843E-01 2.18514E-13-2.74262E-13
 -1      3624 2.02425E+01 3.49967E-01-1.82801E-03-6.90026E-03 6.81777E-14-6.27087E-14
 -1      3625 2.02714E+01 4.54384E-01 2.88390E-03 7.19740E-02 7.41059E-14-6.95079E-14
 -1      3626 2.35915E+01-3.76249E+00 1.75086E-02 2.16593E+00 3.83513E-14-1.77789E-13
 -1      3627 2.22956E+01-3.35004E+00-6.22038E-03 2.57018E+00 2.45706E-14 8.99740E-14
 -1      3628 2.40104E+01-3.26428E+00 9.35168E-04 1.12412E+00 1.36000E-13 4.77873E-14
 -1      3629 1.51550E+01-8.02604E-01 3.19015E-02 3.75810E+00 1.65807E-13-3.74312E-13
 -1      3630 2.02303E+01 1.56700E+00-4.09404E-03 2.80116E-01 1.21062E-13-1.96025E-13
 -1      3631 2.02197E+01 1.62657E+00-2.13507E-03 1.98037E-01 1.07624E-13-2.07739E-13
 -1      3632 1.69636E+01-1.04569E+00-2.88647E-02-3.70350E+00 1.65148E-13-5.38153E-13
 -1      3633 2.02931E+01 1.41113E+00 5.17990E-03 1.30467E-01 9.15504E-14-1.92663E-13
 -1      3634 2.02112E+01 1.66058E+00-3.33580E-03 1.28439E-01 8.91614E-14-2.18386E-13
 -1      3635 2.02075E+01 1.68124E+00-2.48115E-03 3.93364E-02 7.20673E-14-2.17470E-13
 -1      3636 2.00568E+01 9.57532E-02 1.08622E-03-3.33815E-01 3.63482E-14-3.62516E-15
 -1      3637 2.00586E+01 7.95791E-02-5.48174E-04-3.15322E-01 4.57030E-14 2.07139E-14
 -1      3638 2.00458E+01 1.23133E-01-1.60755E-04-3.34499E-01 8.63496E-14-5.50554E-14
 -1      3639 2.01153E+01 1.05977E-01-1.25634E-03-1.87272E-01 3.23575E-14-1.53538E-14
 -1      3640 2.00847E+01 5.98669E-02-1.58804E-04-2.83123E-01 7.81568E-14 1.50382E-14
 -1      3641 2.01252E+01 7.25767E-02-4.56968E-04-2.63487E-01 4.30840E-14-4.74644E-14
 -1      3642 2.00797E+01 6.79150E-02 8.64449E-04-2.99038E-01 3.55546E-14 1.97367E-14
 -1      3643 2.53567E+01-2.29057E+00 2.66732E-02-5.32073E-01 1.77753E-13 1.36495E-13
 -1      3644 2.01351E+01 7.00898E-02 2.02880E-04-2.33828E-01 6.59222E-14-6.01669E-14
 -1      3645 2.01490E+01 8.81829E-02 9.08783E-04-2.11736E-01 2.07731E-14-6.35024E-14
 -1      3646 2.01663E+01 8.18339E-02-5.81147E-04-2.28621E-01 1.96889E-14-1.28435E-13
 -1      3647 2.00156E+01 3.22441E-01-2.89395E-03 5.40587E-01 2.81544E-13-3.51508E-13
 -1      3648 2.47149E+01-2.47225E+00 2.50907E-02 2.88640E-01 4.64385E-15 1.24324E-13
 -1      3649 2.49887E+01-1.95789E+00-9.39332E-03 7.41854E-01-1.01072E-13 1.81488E-13
 -1      3650 2.33652E+01-2.53457E+00-8.70824E-03 5.44814E-01 7.84847E-14 2.64350E-14
 -1      3651 2.28956E+01-2.40610E+00 8.22147E-03 9.08582E-01 9.01562E-14 5.48446E-14
 -1      3652 1.51830E+01-3.65156E-01 7.19567E-02 3.23559E+00-4.34201E-14 1.79523E-13
 -1      3653 1.99748E+01 3.57078E-01 1.39036E-03 6.44207E-01 3.04469E-13-4.71206E-13
 -1      3654 1.98561E+01 4.06897E-01-1.95125E-03 6.74307E-01 2.36031E-13-6.18094E-13
 -1      3655 1.99514E+01 3.69739E-01 1.13406E-03 5.96621E-01 2.69052E-13-5.33006E-13
 -1      3656 1.92227E+01-2.55356E+00 6.26072E-02 4.05403E+00-2.23328E-14 1.89255E-13
 -1      3657 1.79741E+01-1.79338E+00-1.79585E-02 3.81060E+00 6.39749E-14 4.75429E-13
 -1      3658 2.03113E+01-2.75685E+00 1.78271E-02 3.44986E+00 6.60912E-14 1.62619E-13
 -1      3659 2.03165E+01 9.97985E-01 4.53267E-04-3.01126E-01-4.36559E-14-1.90022E-13
 -1      3660 1.94638E+01 7.35868E-01 1.57670E-03-3.56227E-01 8.28185E-14 3.87963E-13
 -1      3661 1.95122E+01 7.09506E-01 2.82815E-04-2.80067E-01-1.55762E-14 5.63700E-13
 -1      3662 1.94745E+01 7.23182E-01-1.89684E-03-1.87812E-01-7.75829E-14 4.33611E-13
 -1      3663 1.96861E+01 5.41968E-01-2.49294E-03 4.50518E-01 9.41376E-14 3.93119E-14
 -1      3664 1.97652E+01 4.95572E-01 1.52152E-03 4.97331E-01 1.31364E-14 9.69183E-14
 -1      3665 1.94725E+01 7.00965E-01-2.16827E-03 1.29474E-01 2.98400E-14-4.62655E-14
 -1      3666 1.95064E+01 6.79501E-01 4.44920E-04 2.18754E-01 1.63242E-13-2.54761E-13
 -1      3667 1.29324E+01 9.49438E-01 3.90637E-02-5.77594E-01 1.20081E-13 8.17332E-14
 -1      3668 1.21295E+01 7.15090E-01 9.56431E-02-1.31908E+00-1.25572E-14 9.15032E-14
 -1      3669 1.27253E+01 4.08445E-01-1.27917E-02-2.11397E+00-1.65718E-14-4.16056E-14
 -1      3670 1.94561E+01 7.27628E-01-1.24261E-03-7.60802E-02-1.39666E-13 1.53763E-13
 -1      3671 1.94555E+01 7.23970E-01-5.80711E-04 2.06193E-02-1.33130E-13 9.15941E-14
 -1      3672 1.93818E+01 7.49783E-01 2.11115E-03 9.11452E-02-1.41962E-14-1.94870E-13
 -1      3673 1.93832E+01 7.69037E-01 2.92469E-03-1.36527E-01-1.45771E-16 2.44436E-13
 -1      3674 2.02055E+01 2.02314E-01-1.03948E-03-1.16142E-01 2.67494E-14-3.36765E-14
 -1      3675 2.02308E+01 2.68529E-01 2.36730E-03-6.43665E-02 5.38943E-14-6.04670E-14
 -1      3676 2.02868E+01 3.65143E-01-4.97038E-04-1.84527E-02 5.01139E-14-6.47560E-14
 -1      3677 2.02551E+01 1.46813E+00 4.01024E-03-5.99784E-01-9.25103E-14-2.27991E-13
 -1      3678 1.97686E+01 4.79190E-01 1.49627E-03 5.74385E-01 1.47929E-13-2.45708E-13
 -1      3679 1.98379E+01 4.38114E-01-2.31357E-03 5.43101E-01 5.25012E-14-4.25510E-13
 -1      3680 2.02685E+01 5.53537E-01-2.49235E-03 1.44033E-01 9.75200E-14-8.30247E-14
 -1      3681 2.02923E+01 6.75606E-01 4.25304E-03 2.41417E-01 1.19514E-13-8.35277E-14
 -1      3682 2.03058E+01 5.73357E-01-4.11100E-04 1.15501E-01 6.17088E-14-1.00644E-13
 -1      3683 2.02923E+01 1.03020E+00 2.82016E-03 5.03043E-01 1.41239E-13-8.54567E-14
 -1      3684 2.02763E+01 1.20262E+00-2.05752E-03 5.34579E-01 1.52991E-13-1.16172E-13
 -1      3685 2.02645E+01 1.33853E+00-1.03542E-03 4.93575E-01 1.46301E-13-1.12707E-13
 -1      3686 2.02755E+01 8.55941E-01-3.33676E-03 3.67184E-01 1.31146E-13-8.19193E-14
 -1      3687 1.22199E+01 3.93973E-02 1.05026E-01 2.77848E+00 2.86750E-14-4.23141E-13
 -1      3688 1.21470E+01 4.92133E-01 2.56268E-02 1.83893E+00 2.06137E-14-2.92863E-13
 -1      3689 1.37324E+01-1.33792E-01 6.37581E-02 3.06634E+00 1.03977E-13-3.85310E-13
 -1      3690 1.49892E+01-9.73280E-01 9.50323E-02-3.83179E+00 1.96974E-13-3.40832E-13
 -1      3691 1.07111E+01 6.98165E-01 1.38147E-01-7.56094E-01-1.02277E-13-1.73771E-13
 -1      3692 1.15840E+01 4.90449E-01 2.22296E-02-1.71579E+00-1.10753E-13-1.79877E-13
 -1      3693 1.14020E+01 7.35201E-01 5.26881E-02 1.46531E-01 8.20871E-15-1.78746E-13
 -1      3694 2.01468E+01 1.94003E+00 4.36999E-03-9.26724E-02 3.93324E-14-2.12160E-13
 -1      3695 1.39904E+01-7.53733E-01 1.07877E-01-4.08477E+00-1.54845E-13-1.31367E-13
 -1      3696 1.57284E+01-1.20593E+00 1.75480E-02-4.03393E+00-2.30843E-13-5.60593E-14
 -1      3697 1.31679E+01-2.20988E-01 3.35027E-02-3.24437E+00-1.75183E-13-1.25816E-13
 -1      3698 1.83422E+01-2.09749E+00 7.27151E-03-3.92719E+00-2.52845E-13-1.57473E-13
 -1      3699 1.94587E+01-2.76030E+00 3.79675E-02-4.05504E+00-2.71169E-13-1.72291E-13
 -1      3700 2.06844E+01-2.69180E+00 1.84742E-02-3.16786E+00-2.81020E-13-5.14476E-14
 -1      3701 2.23444E+01-2.53449E+00-1.53330E-02 1.55770E+00-1.42716E-14 8.68992E-14
 -1      3702 2.02536E+01 1.44669E+00 1.75439E-03-4.88922E-01-5.43070E-14-1.84166E-13
 -1      3703 2.02313E+01 1.53734E+00-3.88739E-03-4.27456E-01-4.94219E-14-1.64230E-13
 -1      3704 2.02718E+01 1.37643E+00 1.22013E-03-3.86244E-01-3.70517E-14-1.78686E-13
 -1      3705 2.02184E+01 1.63809E+00 7.99135E-04-3.56290E-01-2.27329E-14-2.05123E-13
 -1      3706 2.02441E+01 1.50083E+00-1.43995E-03 3.39469E-01 1.10966E-13-1.72997E-13
 -1      3707 2.03054E+01 1.30695E+00 5.15284E-03 2.44890E-01 1.08267E-13-1.71338E-13
 -1      3708 2.02588E+01 1.40480E+00-3.59727E-03 4.06153E-01 1.33598E-13-1.32498E-13
 -1      3709 1.49416E+01-3.91542E-02 7.68626E-02-3.08461E+00 9.91512E-14-3.96462E-13
 -1      3710 2.03592E+01 4.61265E-01 1.33962E-03-7.34804E-03-1.81528E-14-1.16284E-13
 -1      3711 2.03415E+01 3.59214E-01-1.59663E-03 4.61744E-02-5.11298E-14-1.22625E-13
 -1      3712 2.02845E+01 1.70076E-01 6.51277E-04 1.41144E-01-2.76179E-14-6.53398E-14
 -1      3713 2.02590E+01 1.36661E-01-3.44489E-04 1.66671E-01-7.14535E-15-8.31531E-14
 -1      3714 2.02296E+01 1.16010E-01 2.39936E-04 1.83333E-01 1.16265E-14-8.74212E-14
 -1      3715 2.02031E+01 1.05678E-01 4.33902E-05 2.02424E-01 3.94510E-14-9.48869E-14
 -1      3716 2.02698E+01 1.45638E-01 2.03697E-05 1.50807E-01-5.34272E-15-7.62375E-14
 -1      3717 2.01682E+01 1.04930E-01-1.67595E-04 2.15778E-01 7.30687E-14-1.05823E-13
 -1      3718 2.01407E+01 1.12756E-01 2.93277E-04 2.32503E-01 8.46787E-14-8.69919E-14
 -1      3719 2.02048E+01 1.20824E-01 5.83391E-05 1.82192E-01 5.89727E-14-7.92416E-14
 -1      3720 2.01007E+01 1.27846E-01-5.68816E-04 2.45519E-01 7.39222E-14-5.99973E-14
 -1      3721 2.00714E+01 1.50321E-01 4.22738E-04 2.63153E-01 5.75281E-14-4.42146E-14
 -1      3722 2.01311E+01 1.35290E-01 2.33151E-04 2.09334E-01 9.04753E-14-1.00295E-13
 -1      3723 2.00254E+01 1.78379E-01-9.72858E-04 2.78157E-01 3.30188E-14-6.71497E-14
 -1      3724 1.99926E+01 2.13061E-01 4.49438E-04 2.99229E-01 9.60531E-15-4.28238E-14
 -1      3725 2.00477E+01 1.81383E-01 5.23070E-04 2.37314E-01 5.05121E-14-3.90793E-14
 -1      3726 1.99388E+01 2.52128E-01-1.39521E-03 3.17957E-01-2.85535E-15-4.89395E-14
 -1      3727 1.99003E+01 2.97292E-01 3.85010E-04 3.44400E-01-5.92786E-15-5.63903E-14
 -1      3728 1.99520E+01 2.53680E-01 9.32757E-04 2.69908E-01 9.41073E-15-1.15525E-14
 -1      3729 1.98359E+01 3.45866E-01-1.84902E-03 3.68102E-01-4.89632E-14-7.08686E-14
 -1      3730 1.97885E+01 4.00057E-01 2.30865E-04 4.01300E-01-4.86172E-14-9.58087E-14
 -1      3731 1.98389E+01 3.48198E-01 1.46258E-03 3.09832E-01-1.94698E-14-2.53913E-14
 -1      3732 1.97097E+01 4.56709E-01-2.36069E-03 4.30749E-01-8.08704E-14-8.93218E-14
 -1      3733 1.96497E+01 5.18356E-01-9.78471E-06 4.71624E-01-1.41865E-13-8.35416E-14
 -1      3734 1.97020E+01 4.61624E-01 2.14658E-03 3.58743E-01-5.54721E-14-8.39893E-14
 -1      3735 1.95516E+01 5.81272E-01-2.97107E-03 5.07230E-01-1.27871E-13-5.33556E-14
 -1      3736 1.94744E+01 6.48180E-01-3.24688E-04 5.56399E-01-8.79749E-14-8.54228E-14
 -1      3737 1.95326E+01 5.90427E-01 3.00877E-03 4.17324E-01-1.15029E-13-2.53114E-14
 -1      3738 1.93508E+01 7.14544E-01-3.74630E-03 5.98444E-01-3.93824E-14-1.13463E-13
 -1      3739 1.92510E+01 7.83237E-01-6.72876E-04 6.56538E-01-4.34369E-15-6.95282E-14
 -1      3740 1.93197E+01 7.30010E-01 4.10101E-03 4.85633E-01-8.85836E-14 4.46416E-14
 -1      3741 1.90939E+01 8.48443E-01-4.80917E-03 7.05660E-01 4.39920E-14-8.85755E-14
 -1      3742 1.89659E+01 9.13348E-01-9.55413E-04 7.74017E-01 9.13586E-14-4.43105E-14
 -1      3743 1.90498E+01 8.73559E-01 5.50308E-03 5.63728E-01 2.31264E-14-9.62369E-14
 -1      3744 1.87646E+01 9.69958E-01-6.38137E-03 8.32219E-01 1.01523E-13-4.18998E-14
 -1      3745 1.86028E+01 1.02234E+00-9.71903E-04 9.14280E-01 4.01525E-14-3.34569E-14
 -1      3746 1.87054E+01 1.01081E+00 7.34601E-03 6.53075E-01 9.15168E-14-9.78479E-14
 -1      3747 1.83431E+01 1.05870E+00-8.84209E-03 9.86813E-01 3.70637E-14 4.66403E-14
 -1      3748 1.81431E+01 1.08532E+00-3.31512E-04 1.09063E+00 9.85654E-14 5.86220E-14
 -1      3749 1.82635E+01 1.12662E+00 9.86121E-03 7.59323E-01 1.01563E-13-8.54899E-14
 -1      3750 1.78040E+01 1.08369E+00-1.27616E-02 1.18926E+00 7.50626E-14 6.47269E-14
 -1      3751 1.75655E+01 1.06511E+00 1.89707E-03 1.33163E+00 8.03266E-14 3.34460E-14
 -1      3752 1.76930E+01 1.19928E+00 1.35281E-02 8.97173E-01 8.84972E-14 2.89833E-14
 -1      3753 1.71152E+01 9.99347E-01-1.83958E-02 1.48146E+00 1.12048E-14-2.71941E-14
 -1      3754 1.68499E+01 9.04177E-01 8.59258E-03 1.69441E+00-7.38125E-15-9.80779E-14
 -1      3755 1.69475E+01 1.19935E+00 1.97334E-02 1.09950E+00-4.00077E-14-3.55547E-14
 -1      3756 1.62410E+01 7.38178E-01-2.12406E-02 1.94696E+00-3.72015E-14-1.98116E-13
 -1      3757 1.59666E+01 4.99343E-01 2.52167E-02 2.28793E+00-5.69411E-14-2.79493E-13
 -1      3758 1.59465E+01 1.07796E+00 2.84340E-02 1.42949E+00-8.92110E-14-1.35681E-13
 -1      3759 2.03614E+01 7.35266E-01 1.05810E-03-1.32869E-01-1.70189E-14-1.15399E-13
 -1      3760 2.03550E+01 5.84309E-01-2.36421E-03-5.73879E-02-9.73188E-15-1.22107E-13
 -1      3761 2.03790E+01 5.79194E-01 1.09199E-03-3.64318E-02-1.62248E-14-1.08723E-13
 -1      3762 1.95334E+01 6.95112E-01-3.84914E-03-5.69144E-01 1.33158E-13 1.15741E-14
 -1      3763 1.69338E+01 8.37240E-01 4.62152E-03-1.79907E+00 1.30244E-13-3.58427E-13
 -1      3764 1.71900E+01 9.53135E-01-1.89141E-02-1.57501E+00 1.74532E-13-4.08263E-13
 -1      3765 1.76350E+01 1.03355E+00 2.65473E-03-1.41358E+00 1.00511E-13-3.79483E-13
 -1      3766 1.78624E+01 1.06145E+00-1.28014E-02-1.26358E+00 4.66772E-14-3.97332E-13
 -1      3767 1.69990E+01 1.17119E+00 2.12832E-02-1.19844E+00 1.21743E-13-2.81908E-13
 -1      3768 1.81997E+01 1.07202E+00 1.96200E-04-1.15601E+00 1.55756E-13-4.71275E-13
 -1      3769 1.83930E+01 1.05314E+00-8.81515E-03-1.04567E+00 2.80025E-13-2.83533E-13
 -1      3770 1.77339E+01 1.18838E+00 1.34718E-02-9.71789E-01 6.39979E-14-3.71643E-13
 -1      3771 1.86522E+01 1.02456E+00-6.76807E-04-9.66258E-01 3.11313E-13-2.63617E-13
 -1      3772 1.88100E+01 9.80190E-01-6.33923E-03-8.78012E-01 2.29682E-13-2.05840E-13
 -1      3773 1.83026E+01 1.13060E+00 9.86186E-03-8.17168E-01 3.25802E-13-4.16144E-13
 -1      3774 1.90107E+01 9.32293E-01-8.18223E-04-8.13632E-01 2.64518E-14-6.83033E-14
 -1      3775 1.91356E+01 8.77184E-01-4.76537E-03-7.38725E-01-1.67470E-13-6.12180E-14
 -1      3776 1.87437E+01 1.03085E+00 7.35577E-03-6.97368E-01 1.84349E-13-3.09549E-13
 -1      3777 1.92920E+01 8.22338E-01-6.86469E-04-6.83959E-01-1.86662E-13 9.29236E-14
 -1      3778 1.93884E+01 7.68296E-01-3.27050E-03-6.19227E-01-7.61652E-17-1.95156E-14
 -1      3779 1.90875E+01 9.12902E-01 5.49043E-03-5.95754E-01-1.66559E-13 8.15430E-14
 -1      3780 1.99765E+01 2.07801E-01 1.07338E-03-3.70414E-01 2.66079E-14-4.71860E-14
 -1      3781 1.99953E+01 1.78195E-01-1.10057E-03-3.43227E-01 9.23441E-14-2.83166E-14
 -1      3782 2.01687E+01 1.14580E-01-3.30583E-04-1.87022E-01 5.56968E-15-2.84517E-14
 -1      3783 2.01882E+01 1.53000E-01 1.59994E-03-1.53801E-01 2.11299E-14-3.19224E-14
 -1      3784 2.02499E+01 2.14031E-01-6.44655E-04-1.17544E-01 3.09930E-14-3.46615E-14
 -1      3785 1.97212E+01 4.09059E-01 2.30860E-03-7.46124E-01-5.19126E-14 2.59722E-14
 -1      3786 1.97316E+01 3.98541E-01-1.90451E-03-6.82486E-01 2.04494E-14 2.66111E-14
 -1      3787 1.97840E+01 3.82388E-01 1.81408E-03-6.20408E-01 1.48177E-15 4.34666E-14
 -1      3788 1.98001E+01 3.57938E-01-1.83491E-03-5.66878E-01-3.53642E-14 5.03965E-14
 -1      3789 1.96532E+01 4.42438E-01 5.37039E-04-6.22610E-01 3.25087E-15 1.32139E-14
 -1      3790 1.96555E+01 3.09628E-01 4.12230E-03-1.06988E+00-7.25829E-14 3.99151E-14
 -1      3791 1.96308E+01 3.60093E-01-1.30059E-03-9.88054E-01-9.56177E-14 5.64955E-14
 -1      3792 1.97003E+01 1.27478E-01 5.52447E-03-1.26587E+00 4.50527E-15 1.37093E-14
 -1      3793 1.96360E+01 2.31733E-01-2.07699E-04-1.17913E+00 7.56756E-15 1.91739E-14
 -1      3794 1.94036E+01 3.45462E-01-2.52514E-03-1.13410E+00-1.60806E-14-1.46905E-14
 -1      3795 1.98531E+01-1.90539E-01 7.03564E-03-1.47493E+00-2.73487E-14 5.29899E-14
 -1      3796 1.97249E+01-1.29947E-02 2.01803E-03-1.39133E+00 2.82312E-14 6.47888E-14
 -1      3797 1.94012E+01 1.32553E-01-5.60618E-03-1.37944E+00 1.46284E-14-7.20418E-14
 -1      3798 2.01796E+01-6.81771E-01 7.19262E-03-1.67284E+00-1.53729E-13 1.99170E-14
 -1      3799 1.99582E+01-4.11699E-01 6.40185E-03-1.60917E+00-5.59703E-14 7.72624E-14
 -1      3800 1.95106E+01-2.37881E-01-1.08903E-02-1.66207E+00-4.33889E-14-1.02194E-14
 -1      3801 2.07457E+01-1.36810E+00-3.82901E-04-1.81405E+00-1.77248E-13-4.94103E-14
 -1      3802 2.04211E+01-9.79838E-01 1.83512E-02-1.79123E+00-1.97959E-13-4.57888E-14
 -1      3803 1.98155E+01-8.13662E-01-1.91647E-02-1.95920E+00-1.19579E-13-6.52165E-14
 -1      3804 2.27053E+01-2.75509E+00-1.83842E-02-1.45809E+00-1.57927E-13-8.51159E-14
 -1      3805 2.16332E+01-2.79392E+00 4.15541E-02-2.60692E+00-2.40802E-13-1.42942E-13
 -1      3806 2.22361E+01-2.87160E+00 1.57791E-03-2.01843E+00-1.83519E-13-1.74487E-13
 -1      3807 2.19510E+01-2.37655E+00-1.06364E-02-1.71597E+00-1.14648E-13-1.29747E-13
 -1      3808 2.06826E+01-2.40896E+00 7.03471E-03-2.83894E+00-2.04725E-13-1.28340E-13
 -1      3809 2.07603E+01-1.34115E+00 1.74824E-02 1.84960E+00 7.33563E-14 5.37031E-14
 -1      3810 2.11955E+01-1.69747E+00 1.83461E-02 1.79776E+00-3.72272E-14 5.63711E-14
 -1      3811 1.96824E+01 1.39501E-01 7.30052E-04 1.28654E+00-1.22527E-13-2.33283E-13
 -1      3812 1.97715E+01 5.14205E-04 6.20130E-03 1.37396E+00-5.45500E-14-2.70473E-13
 -1      3813 1.96468E+01 3.26475E-01-7.37900E-04 1.08239E+00-1.15504E-13-1.42067E-13
 -1      3814 1.96861E+01 2.48140E-01 4.70790E-03 1.16875E+00-9.02529E-14-2.13880E-13
 -1      3815 1.94154E+01 2.70801E-01-3.70594E-03 1.25251E+00-1.10878E-13-2.47963E-13
 -1      3816 1.96713E+01 4.20361E-01-1.42166E-03 8.99849E-01-5.52150E-14-5.90990E-14
 -1      3817 1.96807E+01 3.84517E-01 3.48353E-03 9.80570E-01-8.47379E-14-3.40967E-14
 -1      3818 1.94568E+01 4.29523E-01-1.39542E-03 1.02649E+00-2.22068E-13 2.99271E-14
 -1      3819 1.97267E+01 4.55332E-01-7.81916E-04 7.41131E-01 2.74755E-13-3.30110E-13
 -1      3820 1.97188E+01 4.44308E-01 2.51035E-03 8.14044E-01 1.44895E-13-1.91157E-13
 -1      3821 1.95362E+01 4.98465E-01-1.37412E-03 8.36837E-01 1.36521E-13-4.59677E-14
 -1      3822 1.96153E+01 5.99594E-01 1.25105E-03 3.83858E-01 1.22600E-13-2.06911E-13
 -1      3823 1.96003E+01 5.88964E-01 1.58324E-03 4.61499E-01 1.16348E-13-8.20790E-14
 -1      3824 1.95537E+01 6.36050E-01-2.50478E-03 3.11930E-01 1.19176E-13-3.01095E-13
 -1      3825 1.94585E+01 6.85944E-01 1.49213E-03 2.98073E-01 1.42040E-13-2.62390E-13
 -1      3826 1.64036E+01-6.75866E-01-1.58336E-02 3.30450E+00 7.69990E-14 3.29660E-13
 -1      3827 1.48811E+01 3.08013E-01 3.95117E-02 2.52155E+00 1.91447E-13-1.26305E-14
 -1      3828 1.97415E+01 4.77908E-01 1.66897E-04 6.25558E-01 2.68453E-13-3.80167E-13
 -1      3829 1.97503E+01 4.66637E-01 1.96623E-03 6.83499E-01 2.38827E-13-3.22977E-13
 -1      3830 1.96021E+01 5.21733E-01-2.01935E-03 6.92014E-01 3.09046E-13-1.99926E-13
 -1      3831 1.96513E+01 5.28593E-01-2.05360E-03 5.79295E-01 1.54878E-13 2.16827E-13
 -1      3832 1.96724E+01 3.93020E-01 3.05103E-03-8.95859E-01-8.68543E-14-1.19668E-14
 -1      3833 1.96706E+01 4.06398E-01-1.77571E-03-8.22434E-01-1.07670E-13 1.91393E-14
 -1      3834 1.94653E+01 4.45465E-01-7.91870E-04-9.28774E-01-1.15283E-13-7.12054E-15
 -1      3835 1.99353E+01 3.80246E-01 1.08706E-03 5.64438E-01 3.07277E-13-6.97256E-13
 -1      3836 2.03121E+01 1.15019E+00-7.32391E-04-3.14098E-01-2.34568E-14-1.78198E-13
 -1      3837 2.03368E+01 8.92801E-01-2.21037E-03-1.86342E-01-2.24592E-14-1.48776E-13
 -1      3838 2.03612E+01 8.75499E-01 8.68593E-04-1.42194E-01-4.42880E-15-1.26364E-13
 -1      3839 2.03027E+01 1.25170E+00 7.25683E-04-2.67894E-01-1.77926E-14-1.73400E-13
 -1      3840 1.38948E+01 7.73707E-01-2.18525E-02 1.52844E+00-4.83680E-14 1.58084E-13
 -1      3841 1.35820E+01 1.04800E+00 2.24534E-02 4.64456E-01 9.07109E-15 2.92079E-13
 -1      3842 1.98264E+01-1.77652E-01 3.68784E-03 1.50505E+00 5.10111E-14-2.33909E-13
 -1      3843 1.99935E+01-3.97153E-01 7.70350E-03 1.58228E+00 1.02172E-13-1.59545E-13
 -1      3844 1.94542E+01-1.62484E-02-7.68228E-03 1.51720E+00-3.44556E-14-2.50281E-13
 -1      3845 2.01498E+01-6.61893E-01 8.96017E-03 1.71578E+00 1.62379E-13-1.59593E-13
 -1      3846 2.04260E+01-9.79833E-01 6.39291E-03 1.75946E+00 1.80017E-13 7.78107E-14
 -1      3847 1.96371E+01-4.76581E-01-1.39348E-02 1.81173E+00 1.63136E-13-1.91699E-13
 -1      3848 2.01883E+01 1.75101E+00-1.66216E-03-1.93416E-01 1.39399E-14-2.32962E-13
 -1      3849 2.01998E+01 1.69694E+00-2.88473E-03-2.81234E-01 1.18121E-14-2.51754E-13
 -1      3850 2.02459E+01 1.54219E+00 1.39832E-03-2.65276E-01-3.62438E-15-2.22581E-13
 -1      3851 1.55608E+01 1.40562E-01-9.98560E-03 2.73827E+00 3.63268E-14-3.43664E-13
 -1      3852 1.53808E+01-1.93466E-01 5.08322E-02 3.13137E+00 1.17297E-13-4.04616E-13
 -1      3853 1.43091E+01-1.47471E-01 4.92943E-02 3.17619E+00 1.35293E-13-4.58553E-13
 -1      3854 1.49221E+01 6.64112E-01 2.02050E-02 2.10070E+00-4.41557E-14-2.37359E-13
 -1      3855 1.60114E+01 3.31111E-01-1.89655E-02-2.45826E+00 5.77316E-15-4.06562E-13
 -1      3856 1.63240E+01 6.67210E-01-2.58894E-02-2.05066E+00 9.53532E-14-3.74598E-13
 -1      3857 1.60128E+01 9.96853E-01 2.15696E-02-1.56353E+00 7.66362E-14-2.58624E-13
 -1      3858 2.02076E+01 1.68182E+00-2.39590E-03-3.47360E-02 7.60185E-14-1.99290E-13
 -1      3859 2.02112E+01 1.66687E+00-1.79804E-03-1.22699E-01 4.59303E-14-1.95080E-13
 -1      3860 2.02885E+01 1.44508E+00 4.88406E-03 2.35223E-03 7.35238E-14-1.93335E-13
 -1      3861 2.13506E+01-2.13677E+00-5.97879E-03 2.02290E+00-1.09164E-13 5.44703E-16
 -1      3862 2.19779E+01-2.80552E+00 2.31879E-02 2.25818E+00 5.54949E-14 5.41579E-14
 -1      3863 2.11774E+01-2.86808E+00 1.95228E-02 3.02492E+00-6.03120E-14 1.54492E-13
 -1      3864 2.06117E+01-1.92624E+00 3.29325E-03 2.46702E+00-3.52639E-14-1.76318E-13
 -1      3865 2.03299E+01 2.79590E-01 1.02751E-03 8.07318E-02-6.08714E-14-1.08548E-13
 -1      3866 2.03067E+01 2.16349E-01-8.92462E-04 1.17580E-01-4.95186E-14-1.01700E-13
 -1      3867 2.03635E+01 3.58638E-01 4.52092E-04 4.91616E-02-5.10689E-14-1.20136E-13
 -1      3868 1.50371E+01 4.17021E-01 3.52425E-02-2.28407E+00-2.93481E-14-3.40852E-13
 -1      3869 1.93905E+01 7.74503E-01 2.87858E-03-4.99217E-01 4.84500E-14 2.65982E-13
 -1      3870 2.03242E+01 2.20263E-01 1.54304E-04 1.08923E-01-2.78353E-14-4.48621E-14
 -1      3871 1.99152E+01 2.70016E-01 1.25602E-03-4.34858E-01 6.10582E-16-4.55187E-14
 -1      3872 1.99340E+01 2.37682E-01-1.39692E-03-4.00037E-01-1.94666E-14-4.55153E-14
 -1      3873 1.99262E+01 2.50113E-01 4.48751E-04-3.58584E-01 3.89669E-14-1.72955E-14
 -1      3874 1.64255E+01-1.03013E+00 2.98473E-03-3.64545E+00-1.81912E-13-9.76007E-14
 -1      3875 1.74913E+01-1.58730E+00 4.65203E-02-3.94521E+00-3.07733E-13-1.69854E-13
 -1      3876 1.89030E+01-1.84650E+00 1.12634E-02-3.44047E+00-2.24416E-13-1.72155E-13
 -1      3877 1.52878E+01 6.34049E-01 3.40153E-02 1.79522E+00 5.59726E-14 2.08571E-13
 -1      3878 2.03270E+01 1.17541E+00-3.27813E-03 1.29281E-01 1.03707E-13-1.76394E-13
 -1      3879 2.03255E+01 1.21196E+00-1.84076E-03 7.43026E-02 8.12646E-14-1.95509E-13
 -1      3880 2.00340E+01 1.52407E-01 9.01891E-04-3.20797E-01 9.92392E-14-3.87891E-14
 -1      3881 2.00529E+01 1.28764E-01-7.73670E-04-2.99467E-01 5.91094E-14-5.19398E-14
 -1      3882 2.00031E+01 1.86642E-01 2.63638E-04-3.07010E-01 8.72278E-14-1.84751E-14
 -1      3883 2.03336E+01 1.05981E+00-3.00236E-03 2.09902E-01 1.12586E-13-1.68886E-13
 -1      3884 2.03307E+01 1.13353E+00-9.44412E-04 1.66507E-01 1.03786E-13-1.85521E-13
 -1      3885 2.03734E+01 9.72709E-01 4.07579E-03 1.04744E-01 9.20542E-14-1.96758E-13
 -1      3886 2.00853E+01 8.86120E-02-3.08185E-04-2.96538E-01 5.21845E-14-1.51515E-14
 -1      3887 2.02597E+01 1.52022E+00 1.81349E-03-1.30206E-01 5.53398E-14-2.05793E-13
 -1      3888 2.01907E+01 9.02491E-02 1.36261E-04-2.16988E-01-1.29903E-15-1.31262E-13
 -1      3889 2.02127E+01 1.04522E-01 4.56911E-04-1.96673E-01 2.79712E-14-1.40849E-13
 -1      3890 1.95547E+01 4.68557E-01 1.21714E-04-7.59849E-01-6.01544E-14 2.09114E-14
 -1      3891 2.14690E+01-1.97183E+00 1.79279E-02-1.82287E+00-1.13028E-13-7.32214E-14
 -1      3892 2.00730E+01-1.17112E+00-2.48693E-02 2.10732E+00 1.06636E-13-6.19136E-14
 -1      3893 2.03084E+01 1.16985E+00 4.34804E-03 3.76373E-01 1.24440E-13-1.25594E-13
 -1      3894 1.36748E+01 1.11264E+00 2.71763E-02 1.52725E-02-5.66496E-15 9.37393E-14
 -1      3895 1.38300E+01 1.06528E+00-1.67818E-02-6.32306E-01-1.33196E-14 1.09674E-13
 -1      3896 1.46216E+01 1.15004E+00 1.98394E-02 3.16805E-01 5.91341E-14 2.60407E-13
 -1      3897 1.94593E+01 6.46732E-01-2.30472E-03 4.43094E-01 9.13068E-14-3.04305E-13
 -1      3898 1.95484E+01 5.96205E-01 1.94247E-04 5.11525E-01 7.85831E-14-6.55178E-14
 -1      3899 1.95220E+01 5.99139E-01 2.07955E-03 5.64341E-01 9.32869E-14-1.58956E-13
 -1      3900 1.99344E+01-2.24919E+00-1.43095E-02 3.17336E+00 5.23626E-15 8.08511E-14
 -1      3901 1.93028E+01 8.04173E-01-1.52497E-03-3.90929E-01 7.08448E-14 4.85847E-13
 -1      3902 1.73854E+01-9.24944E-01 4.98640E-02 3.34729E+00 7.48381E-14 5.10242E-13
 -1      3903 1.68992E+01-3.29867E-01-1.23907E-02 2.81370E+00 2.43243E-13 4.05419E-13
 -1      3904 1.83815E+01-1.32013E+00 1.57155E-02 3.21425E+00 1.79723E-13 4.77916E-13
 -1      3905 2.03332E+01 5.89255E-01-1.79253E-03 8.66466E-02 4.87105E-14-1.39615E-13
 -1      3906 2.03403E+01 7.13145E-01 1.88787E-03 1.63541E-01 6.81796E-14-1.37170E-13
 -1      3907 2.01405E+01 8.71021E-02 4.70188E-04-2.49497E-01 1.71459E-14-7.71574E-14
 -1      3908 2.01610E+01 8.48678E-02 3.14464E-07-2.32318E-01 1.02402E-15-1.32329E-13
 -1      3909 2.02011E+01 1.03744E-01-1.72986E-04-2.02458E-01-4.83275E-15-1.53348E-13
 -1      3910 2.06866E+01-1.79942E+00-1.50015E-02-2.21993E+00-1.31191E-13-1.37090E-13
 -1      3911 2.03035E+01 8.78389E-01-1.03385E-03 3.14259E-01 1.17096E-13-1.05486E-13
 -1      3912 1.98504E+01 3.31518E-01 1.48513E-03-5.17328E-01-8.45241E-14 6.53272E-14
 -1      3913 1.98686E+01 3.00457E-01-1.64992E-03-4.73572E-01-3.76689E-14-2.59562E-14
 -1      3914 1.98421E+01 3.20006E-01 5.96303E-04-4.25855E-01-5.87087E-14-6.70080E-14
 -1      3915 1.92534E+01 7.94398E-01-1.98217E-03 5.77285E-02-4.09530E-15-9.24676E-14
 -1      3916 1.92812E+01 7.74652E-01 2.66239E-04 1.70736E-01 1.48337E-13-2.70988E-13
 -1      3917 1.30670E+01 7.11136E-01 2.16207E-02 1.51878E+00 2.04279E-14-2.60864E-13
 -1      3918 1.21404E+01 8.60346E-01 8.98074E-02 9.39762E-01-7.64146E-15-1.97089E-13
 -1      3919 1.23014E+01 8.76789E-01-5.41772E-03-4.37936E-02-8.05779E-15-1.70645E-13
 -1      3920 2.02084E+01 1.25181E-01-6.30414E-04-1.83455E-01 4.54676E-14-8.86647E-14
 -1      3921 1.28393E+01 6.28252E-01 2.86367E-02-1.68299E+00-9.45320E-14-1.54637E-13
 -1      3922 1.29087E+01 3.66357E-01 1.03551E-01-2.54641E+00-1.15801E-13-1.43413E-13
 -1      3923 1.42812E+01-7.65899E-02 1.15822E-02-3.00881E+00-1.87002E-13-3.94546E-14
 -1      3924 2.03147E+01 3.59630E-01-1.54034E-03-3.66147E-02 2.43385E-14-1.05677E-13
 -1      3925 2.03336E+01 4.63172E-01 1.59013E-03 2.44804E-02 1.83272E-14-1.29825E-13
 -1      3926 2.03583E+01 5.90129E-01 4.59142E-04 6.33542E-02 2.56116E-14-1.69276E-13
 -1      3927 1.93270E+01 7.34962E-01-2.21950E-03 2.66715E-01 5.89866E-14-2.53818E-13
 -1      3928 1.93878E+01 6.98382E-01 1.32946E-04 3.62522E-01 7.88380E-14-3.37698E-13
 -1      3929 1.93266E+01 7.09258E-01-7.57630E-04 4.14512E-01 2.17590E-14-3.17770E-13
 -1      3930 1.92123E+01 7.92844E-01 2.61548E-03 2.39147E-01 1.78627E-13-1.66464E-13
 -1      3931 1.97506E+01 3.87844E-01 6.53111E-04-5.12612E-01-6.08125E-14 3.42902E-14
 -1      3932 1.96571E+01 4.46874E-01 1.26295E-03-4.83680E-01 2.41303E-15-1.12490E-14
 -1      3933 1.97022E+01 4.08448E-01-2.12708E-03-4.36534E-01-3.19750E-14-5.31325E-15
 -1      3934 2.03933E+01 6.76248E-01 3.11941E-04-5.90197E-02 8.73632E-15-1.32537E-13
 -1      3935 2.03919E+01 5.39364E-01-1.37654E-03-7.08077E-03-1.54716E-14-1.32102E-13
 -1      3936 2.02369E+01 1.30220E-01-8.68536E-05 1.42094E-01 2.99451E-14-6.33092E-14
 -1      3937 2.02016E+01 1.27753E-01-6.50873E-05 1.56564E-01 7.34334E-14-6.55753E-14
 -1      3938 2.01579E+01 1.34866E-01-3.61894E-04 1.65013E-01 6.92015E-14-8.79317E-14
 -1      3939 2.01185E+01 1.50752E-01 4.52733E-05 1.78404E-01 7.45194E-14-9.78264E-14
 -1      3940 2.01890E+01 1.43308E-01 2.86609E-04 1.25579E-01 4.41738E-14-5.71606E-14
 -1      3941 2.00678E+01 1.74089E-01-6.61716E-04 1.87042E-01 7.79930E-14-1.22321E-13
 -1      3942 2.00231E+01 2.04793E-01 1.33283E-05 2.01401E-01 4.70159E-14-7.96754E-14
 -1      3943 2.00963E+01 1.74604E-01 5.61785E-04 1.42506E-01 4.77198E-14-1.11446E-13
 -1      3944 1.99643E+01 2.41418E-01-1.01031E-03 2.11309E-01 6.57600E-14-7.35963E-14
 -1      3945 1.99124E+01 2.84514E-01-1.26604E-04 2.28035E-01 6.80533E-14-4.63412E-14
 -1      3946 1.99894E+01 2.37024E-01 9.30989E-04 1.60027E-01 7.06108E-14-1.28467E-13
 -1      3947 1.98430E+01 3.32392E-01-1.38617E-03 2.39950E-01-2.93846E-14-8.80223E-14
 -1      3948 1.97809E+01 3.85840E-01-3.81925E-04 2.60001E-01-6.69253E-14-1.02728E-13
 -1      3949 1.98648E+01 3.25029E-01 1.35531E-03 1.79298E-01 6.21054E-15-1.64029E-13
 -1      3950 1.96978E+01 4.43040E-01-1.78666E-03 2.74027E-01-7.97298E-14-1.16937E-13
 -1      3951 1.96215E+01 5.04937E-01-7.62272E-04 2.97717E-01-9.06926E-14-1.50398E-13
 -1      3952 1.97169E+01 4.34413E-01 2.01094E-03 2.01171E-01-8.60622E-14-2.34980E-13
 -1      3953 1.95203E+01 5.69578E-01-2.25728E-03 3.13467E-01-4.79906E-14-1.84483E-13
 -1      3954 1.94247E+01 6.37783E-01-1.28778E-03 3.40658E-01-7.62865E-14-1.09575E-13
 -1      3955 1.95381E+01 5.60754E-01 2.83004E-03 2.24698E-01-8.57838E-14-2.45675E-13
 -1      3956 1.92998E+01 7.07433E-01-2.84162E-03 3.57297E-01-1.05309E-13-1.38816E-14
 -1      3957 1.91787E+01 7.79060E-01-1.97841E-03 3.87531E-01-7.59272E-14-5.08549E-14
 -1      3958 1.93182E+01 6.99462E-01 3.87121E-03 2.48122E-01-6.04302E-14-1.85921E-13
 -1      3959 1.90225E+01 8.50280E-01-3.63910E-03 4.03876E-01-3.29943E-14-4.70795E-14
 -1      3960 1.88679E+01 9.21268E-01-2.85370E-03 4.36778E-01 4.71592E-14-3.44873E-14
 -1      3961 1.90446E+01 8.44628E-01 5.22752E-03 2.68594E-01-6.73674E-14-8.78035E-14
 -1      3962 1.86702E+01 9.89119E-01-4.83816E-03 4.51673E-01 9.74722E-14-5.59636E-14
 -1      3963 1.84720E+01 1.05381E+00-3.92645E-03 4.87804E-01 8.05486E-14-6.98180E-14
 -1      3964 1.87003E+01 9.88482E-01 7.06686E-03 2.82555E-01 4.71544E-14-8.86476E-15
 -1      3965 1.82180E+01 1.11135E+00-6.77338E-03 5.00932E-01 9.42200E-14-1.40728E-13
 -1      3966 1.79627E+01 1.16208E+00-5.18839E-03 5.43398E-01 1.29049E-13-9.25573E-14
 -1      3967 1.82623E+01 1.12103E+00 9.70652E-03 2.86626E-01 6.56195E-14-1.10417E-13
 -1      3968 1.76293E+01 1.19977E+00-9.97881E-03 5.56714E-01 1.17896E-13-6.52031E-14
 -1      3969 1.72976E+01 1.22611E+00-6.77258E-03 6.14007E-01 8.41150E-14-1.03357E-13
 -1      3970 1.76959E+01 1.22991E+00 1.37394E-02 2.79390E-01 1.21273E-13-1.25680E-13
 -1      3971 1.68481E+01 1.23179E+00-1.50965E-02 6.32312E-01-1.05842E-14-8.32817E-14
 -1      3972 1.64131E+01 1.22470E+00-6.15902E-03 7.21768E-01-1.23856E-13-1.38905E-13
 -1      3973 1.69488E+01 1.29906E+00 2.03245E-02 2.63547E-01 3.92208E-14-1.96235E-13
 -1      3974 1.57809E+01 1.17417E+00-2.27296E-02 7.68851E-01-1.50622E-13-1.77361E-13
 -1      3975 1.52449E+01 1.12135E+00 9.25522E-03 9.10048E-01-1.13087E-13-2.64878E-13
 -1      3976 1.59251E+01 1.32074E+00 3.27117E-02 2.46036E-01-1.35896E-13-2.03135E-13
 -1      3977 2.00884E+01 1.10108E-01 7.12908E-04-2.82111E-01 4.88572E-14-5.96974E-14
 -1      3978 2.01079E+01 9.55156E-02-4.06449E-04-2.64345E-01 5.81246E-14-5.02456E-14
 -1      3979 2.01396E+01 1.06458E-01-8.77471E-05-2.34041E-01 1.86012E-14-1.24196E-13
 -1      3980 2.00738E+01 1.36490E-01 5.91384E-05-2.67027E-01 4.49166E-14-6.24287E-14
 -1      3981 1.64429E+01 1.20504E+00-6.41803E-03-8.29831E-01 1.47211E-13-1.12819E-13
 -1      3982 1.68609E+01 1.21806E+00-1.74601E-02-7.21735E-01 1.97319E-15-1.63110E-13
 -1      3983 2.03580E+01 2.62128E-01 3.36170E-04 7.52178E-02-3.76665E-14-5.94980E-14
 -1      3984 2.03328E+01 2.07438E-01-6.70671E-04 1.00412E-01-1.21800E-14-6.26353E-14
 -1      3985 1.73234E+01 1.22101E+00-5.83430E-03-6.90938E-01-7.76863E-14-3.12018E-14
 -1      3986 1.76521E+01 1.20025E+00-1.02241E-02-6.24192E-01 9.38514E-14-8.54324E-14
 -1      3987 1.69440E+01 1.29886E+00 1.85210E-02-3.40295E-01-1.24569E-14-1.38059E-13
 -1      3988 1.79911E+01 1.16906E+00-4.67620E-03-6.02987E-01 2.55207E-13 3.03687E-14
 -1      3989 1.82454E+01 1.12442E+00-6.95238E-03-5.53366E-01 3.79570E-13-8.08541E-14
 -1      3990 1.77076E+01 1.23884E+00 1.35344E-02-3.40787E-01 1.77301E-13 2.63083E-13
 -1      3991 1.85040E+01 1.07551E+00-3.23439E-03-5.34581E-01 4.01807E-13-8.18279E-14
 -1      3992 1.87010E+01 1.01865E+00-4.78419E-03-4.91601E-01 1.69706E-13-2.01623E-14
 -1      3993 1.82825E+01 1.14194E+00 9.46962E-03-3.34435E-01 3.70551E-13 1.62059E-13
 -1      3994 1.89013E+01 9.61512E-01-2.26567E-03-4.70958E-01 8.17338E-14 5.75391E-14
 -1      3995 1.90508E+01 9.01240E-01-4.05552E-03-4.30795E-01-1.93378E-14 2.86826E-13
 -1      3996 1.87238E+01 1.02739E+00 6.46025E-03-3.21848E-01 2.68381E-13 5.52016E-15
 -1      3997 2.02802E+01 2.12735E-01-1.02048E-03-1.20718E-01 4.35983E-14-1.35978E-13
 -1      3998 2.03030E+01 2.78491E-01 1.41653E-03-7.92256E-02 5.64811E-14-9.74355E-14
 -1      3999 2.03416E+01 3.63689E-01 6.01168E-05-4.26329E-02 3.92554E-14-1.87314E-13
 -1      4000 1.93984E+01 5.43589E-01 2.50478E-03-7.37726E-01-3.61908E-14 5.91801E-14
 -1      4001 1.94419E+01 5.29841E-01-2.95170E-03-6.63509E-01-1.76733E-14 5.45132E-14
 -1      4002 1.91100E+01 2.22100E-01 8.40863E-03-1.42914E+00-5.61821E-14-2.15176E-14
 -1      4003 1.90753E+01 3.41029E-01-3.44281E-03-1.29293E+00 4.43157E-14-1.65764E-14
 -1      4004 1.91629E+01 4.32329E-01 5.59703E-03-1.14496E+00 1.75683E-14 1.28811E-14
 -1      4005 1.91730E+01 4.88914E-01-3.57491E-03-1.03232E+00-6.77211E-14 1.58437E-14
 -1      4006 1.88442E+01 5.00644E-01 6.25666E-05-1.18436E+00-1.21162E-14 5.56808E-15
 -1      4007 1.94121E+01-7.53989E-01 1.23335E-02-2.18208E+00-6.82605E-14-1.79641E-13
 -1      4008 1.91802E+01-4.14089E-01 5.22565E-03-2.01231E+00-4.51150E-14-1.07081E-13
 -1      4009 2.03178E+01 9.43904E-01-1.87926E-03 2.51371E-01 9.67474E-14-1.21817E-13
 -1      4010 1.93261E+01-7.10353E-01 8.58281E-03 2.22172E+00 8.37668E-14 5.86762E-14
 -1      4011 1.95681E+01-1.14649E+00-7.70399E-03 2.40975E+00 6.88928E-14-3.48367E-14
 -1      4012 1.92715E+01 5.50414E-01-2.42367E-03 9.21149E-01-2.20899E-13-1.54466E-13
 -1      4013 1.92436E+01 5.10877E-01 4.42728E-03 1.02383E+00-2.56713E-13-1.32627E-13
 -1      4014 1.91486E+01 4.44953E-01-3.27391E-03 1.15370E+00-1.26619E-13-1.05425E-13
 -1      4015 1.91538E+01 3.57262E-01 6.70287E-03 1.27783E+00-7.68781E-14-1.14445E-13
 -1      4016 1.89657E+01 5.80049E-01 3.61751E-04 1.04197E+00-2.02277E-13-1.24761E-13
 -1      4017 1.92698E+01 5.27147E-01 3.72339E-03-9.17907E-01-1.14348E-13 4.43119E-14
 -1      4018 1.93030E+01 5.41093E-01-3.32702E-03-8.26098E-01-9.87558E-14 2.02240E-14
 -1      4019 1.92043E+01 6.17551E-01 1.68230E-03-7.23177E-01-3.30022E-14 6.81228E-14
 -1      4020 2.03764E+01 1.03256E+00 4.53350E-03 3.74458E-02 7.56745E-14-1.68686E-13
 -1      4021 2.03228E+01 1.22710E+00-2.70551E-03 3.06788E-02 7.27815E-14-1.88324E-13
 -1      4022 2.03257E+01 1.23256E+00-7.10333E-04-2.59084E-02 6.36151E-14-1.77847E-13
 -1      4023 1.94684E+01 6.00963E-01 3.59734E-04 6.24327E-01 1.80689E-13-1.54771E-13
 -1      4024 1.94490E+01 5.95041E-01 2.70830E-03 6.83675E-01 2.54535E-13-2.95368E-13
 -1      4025 1.93561E+01 6.67755E-01 1.21369E-03 5.53028E-01 2.54775E-14-2.19658E-13
 -1      4026 2.03144E+01 1.26548E+00-2.24415E-03-9.05340E-02 7.26384E-14-1.79167E-13
 -1      4027 2.02939E+01 1.34822E+00 2.59239E-04-1.55210E-01 4.02101E-14-2.02457E-13
 -1      4028 1.92691E+01 8.09324E-01-1.13856E-03-1.94473E-01 2.02910E-13 5.88147E-13
 -1      4029 1.92489E+01 8.11658E-01-1.44572E-03-7.94515E-02 1.18886E-13 2.09280E-13
 -1      4030 1.91479E+01 8.49041E-01 2.06947E-03 8.74735E-04 1.95155E-13 2.46681E-13
 -1      4031 1.90754E+01 2.30538E-01-2.80220E-03 1.44486E+00-5.41796E-14 1.81162E-15
 -1      4032 1.91392E+01 7.12427E-02 9.92313E-03 1.59210E+00 2.91555E-14-3.58629E-14
 -1      4033 1.87973E+01 4.17253E-01-1.40154E-03 1.34035E+00 1.48562E-14 2.33434E-13
 -1      4034 2.03013E+01 1.28522E+00-1.52899E-03-2.15041E-01-1.92989E-15-1.97141E-13
 -1      4035 1.91073E+01-1.44368E-01-1.04007E-03 1.80427E+00 6.99694E-14-2.76748E-14
 -1      4036 1.92690E+01-4.03367E-01 1.29276E-02 1.96896E+00 1.25375E-13-3.90366E-14
 -1      4037 1.86837E+01 1.09336E-01-4.55171E-03 1.73280E+00 1.09086E-13 3.34276E-13
 -1      4038 2.02577E+01 1.37376E-01-1.59234E-04-1.65738E-01 3.33822E-14-1.27262E-13
 -1      4039 2.02385E+01 1.28178E-01-3.61282E-04-1.77141E-01 3.59199E-14-1.29747E-13
 -1      4040 2.02617E+01 1.64537E-01 9.97853E-04-1.49120E-01 3.58648E-14-1.26859E-13
 -1      4041 1.95307E+01 5.09809E-01 1.73591E-03-5.95391E-01-1.61595E-14 1.85979E-14
 -1      4042 1.95769E+01 4.79578E-01-2.54001E-03-5.35905E-01 4.56009E-15 2.53680E-14
 -1      4043 1.93801E+01 5.80208E-01 1.74395E-03-5.71023E-01-2.60136E-14 6.40527E-14
 -1      4044 1.43679E+01 9.42497E-01 5.09460E-02-1.55731E+00-1.26071E-14-1.38342E-13
 -1      4045 1.61104E+01 4.40187E-01-8.62850E-03 2.01956E+00 8.55171E-14 4.42827E-13
 -1      4046 1.53658E+01 9.87720E-01 1.39366E-02 1.16512E+00-1.26981E-13 3.34447E-13
 -1      4047 1.39370E+01 3.96317E-01 3.92659E-02 2.46146E+00 9.61627E-14-3.40693E-13
 -1      4048 1.97076E+01-1.51397E+00 5.19473E-03 2.66209E+00 7.60980E-15-5.17728E-15
 -1      4049 1.49918E+01 1.07160E+00 2.74693E-02-9.86983E-01 1.85704E-14-7.98788E-14
 -1      4050 2.03046E+01 1.68789E-01 1.60962E-04 1.13914E-01-9.54193E-16-7.02006E-14
 -1      4051 2.02735E+01 1.43322E-01-2.99558E-04 1.32142E-01 3.13523E-15-6.32504E-14
 -1      4052 2.02690E+01 1.50773E-01 1.88379E-04 1.06682E-01 3.01177E-14-4.17493E-14
 -1      4053 1.91697E+01 8.62321E-01 1.27402E-03-3.41596E-01 4.75952E-14 4.02124E-13
 -1      4054 2.03904E+01 4.25289E-01 2.15903E-04 1.97095E-02-4.82835E-14-1.17581E-13
 -1      4055 2.03748E+01 3.33873E-01-1.06428E-03 5.58676E-02-5.02470E-14-9.33711E-14
 -1      4056 2.04059E+01 5.17772E-01 6.82707E-04 1.98487E-03-1.61621E-14-1.36626E-13
 -1      4057 1.91634E+01-1.54319E-01 1.10143E-02-1.77919E+00-2.40606E-14-7.80566E-14
 -1      4058 1.90518E+01 5.53152E-02-2.10436E-03-1.61971E+00-8.54980E-15-8.87440E-14
 -1      4059 1.87011E+01 2.75336E-01-2.60740E-03-1.52842E+00 2.69239E-14-7.74133E-14
 -1      4060 1.93807E+01 5.90005E-01-1.41400E-03 7.53086E-01 3.45455E-13-4.03962E-13
 -1      4061 1.93381E+01 5.76840E-01 3.00962E-03 8.39186E-01 4.64122E-14-3.17114E-13
 -1      4062 1.91156E+01 6.44972E-01-6.41879E-04 8.33009E-01 7.95023E-14-4.56349E-13
 -1      4063 1.92344E+01 6.72321E-01 8.67584E-04 6.81611E-01 1.89761E-13-4.88516E-13
 -1      4064 1.56158E+01-3.14499E-01 4.80908E-02-3.23106E+00-1.36582E-13 2.27283E-14
 -1      4065 1.70504E+01-7.36524E-01 1.11691E-02-3.18803E+00-1.07627E-13-1.27564E-13
 -1      4066 1.99727E+01 2.19332E-01 6.46040E-04-2.79680E-01 7.73886E-14-4.89178E-14
 -1      4067 2.00087E+01 1.87438E-01-9.74913E-04-2.57624E-01 6.18809E-14-6.53216E-14
 -1      4068 1.55276E+01 1.16646E+00-7.18095E-03-8.11604E-01 1.22310E-13-5.21978E-15
 -1      4069 1.42296E+01 1.17669E+00 3.78491E-02 4.63800E-01-6.50721E-14-2.58359E-13
 -1      4070 1.41072E+01 9.62498E-01-3.04785E-03 1.20971E+00-9.20605E-14-2.38667E-13
 -1      4071 2.03834E+01 3.23956E-01 5.10776E-04 4.90047E-02-1.79456E-14-7.44076E-14
 -1      4072 1.90232E+01 9.14119E-01 1.68012E-03-2.21744E-01 2.91664E-13 2.77599E-13
 -1      4073 2.03352E+01 2.06728E-01 2.67466E-04 8.24260E-02-2.48447E-14-7.05483E-14
 -1      4074 2.03403E+01-2.00906E+00 8.82037E-03-2.69073E+00-1.68606E-13-1.62109E-13
 -1      4075 1.96503E+01-1.24992E+00 1.95252E-02-2.51323E+00-1.73614E-13-1.63893E-13
 -1      4076 2.03060E+01 2.18617E-01-1.31231E-04-1.16083E-01 3.59896E-14-1.89484E-13
 -1      4077 1.85697E+01-1.38473E+00 1.82844E-02-3.20453E+00-2.09424E-13-2.92558E-13
 -1      4078 1.94103E+01-1.89208E+00-9.11947E-03-3.18779E+00-1.75144E-13-1.14583E-13
 -1      4079 2.03633E+01 1.08623E+00 3.71906E-03-5.40801E-02 5.25211E-14-1.72303E-13
 -1      4080 1.86485E+01-1.42806E-01-9.46263E-03-1.97415E+00 8.85620E-15-1.70159E-13
 -1      4081 1.96861E+01 4.27106E-01 1.33748E-03-3.66791E-01-5.46534E-14 1.18744E-14
 -1      4082 1.97734E+01 3.70321E-01 9.74891E-04-3.96872E-01-6.16376E-14-3.01814E-14
 -1      4083 1.98155E+01 3.29792E-01-1.72656E-03-3.60006E-01-4.19594E-14-7.43851E-15
 -1      4084 1.90208E+01 6.01030E-01 1.23330E-03-9.22585E-01-9.14156E-14-3.47503E-14
 -1      4085 1.88288E+01-9.05321E-01-1.66402E-02-2.59823E+00-1.09998E-13-1.63119E-13
 -1      4086 2.03359E+01 9.67622E-01-2.62158E-04 2.11054E-01 1.02051E-13-1.55968E-13
 -1      4087 1.87029E+01-4.15713E-01-9.63520E-03 2.23175E+00 9.99149E-14 1.88888E-13
 -1      4088 2.03473E+01 1.08243E+00 2.37798E-03-1.56718E-01 1.41109E-14-1.83917E-13
 -1      4089 2.03900E+01 8.53473E-01-2.33287E-03 4.13922E-02 7.75280E-14-1.67065E-13
 -1      4090 2.03913E+01 8.67655E-01-2.20419E-03 1.00491E-02 5.82800E-14-1.40820E-13
 -1      4091 1.56383E+01 1.25976E+00 1.66234E-02-2.60509E-01 1.29762E-13 2.38624E-14
 -1      4092 1.89369E+01-1.34859E+00 1.51136E-02 3.02860E+00 1.01364E-13 2.22974E-13
 -1      4093 1.50500E+01 1.15988E-01-1.07609E-03-2.64926E+00-1.12370E-13 6.51215E-15
 -1      4094 1.72874E+01-1.26681E-01-1.49424E-02 2.43769E+00 1.58964E-13 4.89745E-13
 -1      4095 1.66800E+01 2.54513E-01 3.25440E-02 2.25916E+00 1.29676E-13 4.16949E-13
 -1      4096 1.66087E+01 5.92700E-01-4.86238E-03 1.71623E+00-1.30587E-13 5.11980E-13
 -1      4097 1.89953E+01 8.98978E-01-2.34093E-03-5.10052E-02 4.00456E-13 4.29845E-13
 -1      4098 1.90066E+01 8.82644E-01-5.61504E-04 8.80520E-02 3.12175E-13 1.99873E-13
 -1      4099 1.88738E+01 9.52909E-01 2.64189E-04-1.35928E-01 3.07314E-13 2.08323E-13
 -1      4100 2.02061E+01 1.11313E-01 7.92730E-05-1.82163E-01-2.26675E-14-2.07288E-13
 -1      4101 2.02364E+01 1.18901E-01 7.97647E-05-1.65131E-01 6.66311E-15-1.91037E-13
 -1      4102 1.95415E+01 5.11250E-01 1.59522E-03-4.54968E-01-1.03704E-14 4.10858E-14
 -1      4103 1.33728E+01 1.02617E+00 2.83895E-02-2.30458E-01-1.89562E-14-1.75407E-13
 -1      4104 1.29613E+01 9.92653E-01 8.30973E-02-9.51032E-01-5.59886E-14-1.62294E-13
 -1      4105 1.37601E+01 6.73204E-01-1.00459E-02-1.70012E+00-9.91951E-14-1.27714E-13
 -1      4106 2.02692E+01 1.36390E-01-2.99076E-04-1.51478E-01 4.38339E-14-1.87475E-13
 -1      4107 2.02973E+01 1.66463E-01 4.95130E-04-1.29963E-01 3.79293E-14-1.72296E-13
 -1      4108 2.02714E+01 1.44333E-01 6.96126E-05-1.31256E-01 3.92450E-14-1.92460E-13
 -1      4109 1.88997E+01 9.07576E-01 5.94592E-04 1.65381E-01 3.16426E-13 3.01014E-13
 -1      4110 1.90459E+01 8.46194E-01-2.70554E-03 2.15675E-01 2.68348E-13 1.20233E-13
 -1      4111 1.91088E+01 8.16922E-01 2.92096E-03 3.14959E-01 1.32352E-13 4.21726E-14
 -1      4112 1.98783E+01 2.91593E-01 7.95739E-04-3.30268E-01-1.01380E-14 1.28293E-14
 -1      4113 1.99172E+01 2.53546E-01-1.34133E-03-3.01765E-01 4.76888E-14 4.47349E-14
 -1      4114 1.98141E+01 3.39908E-01 1.03271E-03-3.00256E-01-3.12952E-14 4.18865E-14
 -1      4115 2.03633E+01 8.27413E-01 1.52923E-03 1.31141E-01 7.98641E-14-1.75305E-13
 -1      4116 2.03874E+01 8.30840E-01-1.06665E-03 5.85503E-02 8.25799E-14-1.93101E-13
 -1      4117 2.04110E+01 7.00331E-01 2.31221E-03 2.45466E-02 6.72349E-14-1.73804E-13
 -1      4118 2.03809E+01 7.85583E-01-2.50052E-03 8.20422E-02 8.32790E-14-1.77587E-13
 -1      4119 1.99275E+01 2.58898E-01 7.24870E-04-2.50408E-01 1.47699E-14-3.11389E-14
 -1      4120 2.03671E+01 9.02808E-01-1.24498E-03-1.06130E-01 2.18276E-14-1.51052E-13
 -1      4121 2.03724E+01 6.42430E-01-1.13118E-03 7.51405E-02 3.92598E-14-1.98435E-13
 -1      4122 2.03783E+01 7.35882E-01 4.16850E-04 7.93996E-02 5.51848E-14-1.92500E-13
 -1      4123 2.03973E+01 6.18657E-01 1.43191E-03 3.16227E-02 5.30110E-14-2.10829E-13
 -1      4124 2.03701E+01 5.11010E-01-4.08987E-04 1.35637E-02 8.82926E-15-2.00803E-13
 -1      4125 2.03818E+01 8.61676E-01-3.78456E-04-7.00819E-02 1.79893E-14-1.60912E-13
 -1      4126 1.83204E+01 4.06998E-01 1.11401E-02-1.51541E+00 5.54849E-14-1.57826E-13
 -1      4127 1.83474E+01 5.14871E-01-1.24085E-02-1.33101E+00 1.02768E-13-1.10203E-13
 -1      4128 2.00283E+01 1.91549E-01 4.22820E-04-2.12908E-01 8.74467E-15-1.12045E-13
 -1      4129 2.00579E+01 1.60754E-01 5.03637E-04-2.41083E-01 2.89752E-14-9.37532E-14
 -1      4130 2.00915E+01 1.38190E-01-6.74152E-04-2.23271E-01 3.40681E-15-1.24798E-13
 -1      4131 1.82176E+01-6.70054E-01-1.94462E-03 2.70011E+00 7.18930E-14 3.89306E-13
 -1      4132 1.44788E+01 1.11755E+00-1.76483E-02-3.52818E-01-1.05250E-13-1.31747E-13
 -1      4133 2.04034E+01 3.70911E-01 1.07006E-06 2.32432E-02-9.59920E-15-8.59289E-14
 -1      4134 2.03846E+01 2.93145E-01-3.77119E-04 4.36093E-02-1.76703E-14-6.98834E-14
 -1      4135 2.01223E+01 1.64569E-01-4.53151E-04 9.31277E-02 9.03298E-15-4.74305E-14
 -1      4136 2.00722E+01 1.88705E-01-1.87106E-04 1.01255E-01 2.13128E-14-8.38549E-14
 -1      4137 2.00140E+01 2.19518E-01-5.87161E-04 1.03354E-01 2.39698E-14-1.58708E-13
 -1      4138 1.99556E+01 2.57276E-01-5.66537E-04 1.11227E-01 2.79167E-14-2.02364E-13
 -1      4139 2.00449E+01 2.11361E-01 1.12171E-03 5.39601E-02-3.68902E-14-1.06052E-13
 -1      4140 1.98877E+01 3.01310E-01-9.89019E-04 1.13574E-01 1.40121E-14-2.60885E-13
 -1      4141 1.98194E+01 3.50910E-01-7.64857E-04 1.22027E-01-5.98821E-14-2.99117E-13
 -1      4142 1.99204E+01 2.89685E-01 2.07822E-03 5.67495E-02-1.87972E-14-2.94227E-13
 -1      4143 1.97396E+01 4.04528E-01-1.35779E-03 1.23621E-01-6.50689E-14-3.05994E-13
 -1      4144 1.96574E+01 4.63172E-01-1.31465E-03 1.31884E-01-8.56730E-14-2.68277E-13
 -1      4145 1.97770E+01 3.89673E-01 3.45482E-03 5.70661E-02-4.16609E-14-3.42056E-13
 -1      4146 1.95625E+01 5.24881E-01-1.69098E-03 1.32140E-01-9.57629E-14-2.77567E-13
 -1      4147 1.94616E+01 5.90040E-01-2.06848E-03 1.39300E-01-7.35597E-14-2.83556E-13
 -1      4148 1.96062E+01 5.07757E-01 4.96721E-03 5.30609E-02-8.21138E-14-3.23594E-13
 -1      4149 1.93474E+01 6.57201E-01-2.07680E-03 1.36664E-01-1.75953E-14-2.07755E-13
 -1      4150 1.92218E+01 7.25859E-01-3.10273E-03 1.41110E-01-3.42407E-14-1.31454E-13
 -1      4151 1.94011E+01 6.38524E-01 6.84182E-03 4.17859E-02-3.42256E-14-2.77988E-13
 -1      4152 1.90829E+01 7.95239E-01-2.54824E-03 1.33278E-01-6.34753E-14-7.69549E-14
 -1      4153 1.89246E+01 8.63492E-01-4.52753E-03 1.32724E-01 2.49084E-14-4.42421E-14
 -1      4154 1.91517E+01 7.75667E-01 9.22749E-03 1.84794E-02 1.74168E-14-1.37159E-13
 -1      4155 1.87540E+01 9.30882E-01-3.19025E-03 1.16514E-01 3.67921E-14-6.25829E-16
 -1      4156 1.85524E+01 9.93661E-01-6.52889E-03 1.08143E-01 3.70019E-14-1.25280E-16
 -1      4157 1.88457E+01 9.11338E-01 1.23593E-02-2.36128E-02 5.56269E-14-9.64981E-14
 -1      4158 1.83402E+01 1.05370E+00-4.16612E-03 7.93295E-02-1.50949E-14 5.41558E-15
 -1      4159 1.80798E+01 1.10461E+00-9.42729E-03 6.01684E-02 3.33995E-14-1.01028E-13
 -1      4160 1.84663E+01 1.03577E+00 1.66257E-02-9.38825E-02 3.04826E-14-8.29846E-14
 -1      4161 1.78109E+01 1.15092E+00-5.72290E-03 1.32750E-02 1.06049E-13-1.15664E-13
 -1      4162 1.74680E+01 1.18205E+00-1.36922E-02-1.90884E-02 1.11059E-13-1.71845E-13
 -1      4163 1.79895E+01 1.13716E+00 2.26135E-02-2.05515E-01 8.88168E-15-1.65656E-13
 -1      4164 1.71179E+01 1.20812E+00-7.93502E-03-9.02478E-02 5.22423E-14-2.12131E-13
 -1      4165 1.66584E+01 1.20923E+00-1.87491E-02-1.37326E-01-2.36664E-14-2.46686E-13
 -1      4166 1.73762E+01 1.20116E+00 3.05683E-02-3.77992E-01 3.55146E-14-2.27369E-13
 -1      4167 1.61914E+01 1.19842E+00-1.14349E-02-2.38580E-01-5.34902E-14-2.03465E-13
 -1      4168 1.56150E+01 1.18770E+00-5.21863E-03-3.04257E-01-1.21271E-13-1.61931E-13
 -1      4169 1.65458E+01 1.19894E+00 3.30088E-02-6.42528E-01 1.06707E-15-2.42660E-13
 -1      4170 1.78841E+01-1.62439E-01 6.65658E-03 2.28770E+00 1.03687E-13 3.87082E-13
 -1      4171 2.03218E+01 2.09566E-01-7.84788E-04-1.11969E-01 3.35036E-15-1.80651E-13
 -1      4172 2.03447E+01 2.69830E-01 7.00028E-04-8.15006E-02 2.63175E-14-1.98772E-13
 -1      4173 2.03314E+01 2.10548E-01 1.63785E-04-9.90466E-02 2.32651E-14-1.98632E-13
 -1      4174 2.03536E+01 3.28466E-01-9.80204E-04-6.17897E-02 4.83842E-14-2.48364E-13
 -1      4175 2.03693E+01 4.21127E-01 4.97512E-05-1.75982E-02 1.17961E-14-2.47466E-13
 -1      4176 2.03843E+01 4.75259E-01 6.39638E-04-5.99902E-03 3.30370E-14-2.60174E-13
 -1      4177 2.03694E+01 3.22925E-01 1.67646E-04-5.97527E-02 1.47748E-14-2.28175E-13
 -1      4178 1.74722E+01 1.20024E+00-9.20131E-03-4.39902E-02 2.72199E-13 4.59910E-14
 -1      4179 1.78104E+01 1.17170E+00-5.02006E-03-6.28158E-02 4.13126E-13 2.15509E-13
 -1      4180 1.80928E+01 1.13200E+00-6.66413E-03-1.08933E-01 4.30088E-13 2.04694E-13
 -1      4181 1.83487E+01 1.08339E+00-5.08925E-03-1.17460E-01 4.44762E-13 2.30211E-13
 -1      4182 1.79735E+01 1.14057E+00 1.08856E-02 1.65561E-01 4.68893E-13 2.44080E-13
 -1      4183 1.85231E+01 1.04673E+00-3.73880E-03-1.28343E-01 4.54022E-13 1.65224E-13
 -1      4184 1.87231E+01 9.91238E-01-3.24720E-03-1.31193E-01 3.09108E-13 1.44298E-13
 -1      4185 1.87206E+01 9.84241E-01 2.86658E-03 5.11573E-02 3.83184E-13 3.85909E-13
 -1      4186 1.84147E+01 1.06915E+00 8.58208E-03 8.41735E-02 4.23544E-13 4.45771E-13
 -1      4187 1.76684E+01-8.75225E-01-5.11463E-04-3.12032E+00-1.48704E-13-2.14505E-13
 -1      4188 1.82898E+01-8.83223E-01 1.89707E-02-2.86770E+00-1.45792E-13-1.57885E-13
 -1      4189 1.68106E+01-2.53819E-01-1.03218E-03-2.74713E+00-3.21761E-14-2.95397E-14
 -1      4190 2.03929E+01 8.56628E-01-2.60779E-03-6.32621E-03 4.30538E-14-1.47421E-13
 -1      4191 2.03845E+01 8.93054E-01-1.34799E-03-5.33903E-02 2.91213E-14-1.63288E-13
 -1      4192 2.04151E+01 6.73830E-01 2.22962E-03-1.69164E-02 2.94873E-15-1.47796E-13
 -1      4193 2.04191E+01 7.16795E-01 3.43710E-03 3.90761E-03 3.91923E-14-1.19677E-13
 -1      4194 1.90268E+01 6.98683E-01 2.45220E-03-6.64525E-01-4.48527E-14 1.68769E-14
 -1      4195 1.91095E+01 6.75626E-01-5.44186E-03-5.84991E-01-1.85490E-14 2.31458E-14
 -1      4196 1.51808E+01 1.13494E+00-4.03576E-03 6.07805E-01 2.00861E-14 2.48431E-13
 -1      4197 1.52185E+01 1.20371E+00-5.75902E-03 1.37960E-01 3.46278E-14 1.73678E-13
 -1      4198 1.80885E+01-3.71177E-01 4.02771E-03-2.45526E+00-7.02867E-14-2.14048E-13
 -1      4199 1.87930E+01 7.12479E-01-4.35368E-03 8.69211E-01 1.34899E-14-1.40059E-13
 -1      4200 1.87068E+01 6.78472E-01 3.91435E-03 9.92567E-01-2.88846E-14 8.17320E-14
 -1      4201 1.92633E+01 7.14039E-01-2.30398E-03 4.75234E-01 1.94838E-15-2.27107E-13
 -1      4202 1.85497E+01 6.10628E-01 6.71556E-03-1.14289E+00 3.77382E-14-7.39439E-14
 -1      4203 1.86142E+01 6.56676E-01-9.43039E-03-1.00397E+00-4.23773E-14-5.15798E-14
 -1      4204 1.81734E+01 7.48170E-01 1.94171E-02-1.13102E+00 6.26292E-14-2.14719E-13
 -1      4205 1.81325E+01 1.39992E-02 1.02902E-02-2.02654E+00-5.18574E-16-1.91709E-13
 -1      4206 1.80965E+01 2.35157E-01-1.32713E-02-1.78207E+00 1.96643E-14-1.61291E-13
 -1      4207 1.77951E+01 5.66235E-01 2.34129E-02-1.55611E+00 6.34091E-14-1.10723E-13
 -1      4208 2.01674E+01 1.12872E-01-2.38320E-04-1.94137E-01-1.10406E-14-1.77654E-13
 -1      4209 2.01998E+01 1.26261E-01 1.16859E-04-1.57866E-01-3.32859E-14-1.81496E-13
 -1      4210 2.01355E+01 1.22363E-01 3.60364E-04-2.10184E-01 8.08632E-15-1.28514E-13
 -1      4211 1.85254E+01 6.16928E-01-7.22681E-03 1.14638E+00 6.62786E-14 3.80297E-13
 -1      4212 1.84594E+01 5.34530E-01 6.06682E-03 1.31115E+00 1.61479E-13 4.52472E-13
 -1      4213 1.83809E+01 7.80744E-01 3.67475E-03 9.53964E-01 2.41318E-13 4.11690E-13
 -1      4214 1.94356E+01 5.71782E-01 8.57566E-04-4.00592E-01-1.04641E-14 1.85705E-14
 -1      4215 1.95087E+01 5.24200E-01-3.16555E-03-3.54528E-01-3.42821E-14 6.40319E-15
 -1      4216 1.66711E+01 1.22318E+00-7.09969E-03 5.87738E-02-1.46688E-14-1.84477E-13
 -1      4217 1.71041E+01 1.21752E+00-7.33350E-03 2.55602E-02 6.11279E-14-4.05588E-14
 -1      4218 1.73349E+01 1.18676E+00 1.33769E-02 3.24413E-01 2.21991E-13 3.93137E-14
 -1      4219 1.82600E+01 4.09187E-01-9.20868E-03 1.52201E+00 8.69339E-14 6.58103E-13
 -1      4220 1.82366E+01 2.44971E-01 6.49154E-03 1.74532E+00 8.85017E-14 5.36663E-13
 -1      4221 1.80202E+01 6.50551E-01 5.39674E-03 1.30323E+00 1.69420E-13 6.50564E-13
 -1      4222 1.87926E+01 6.94953E-01 4.10181E-03-8.68051E-01-5.34240E-14-8.88793E-14
 -1      4223 1.88721E+01 6.99178E-01-7.14085E-03-7.63142E-01-6.18731E-14-1.10929E-14
 -1      4224 1.85150E+01 8.13942E-01 1.50181E-02-8.28169E-01-4.66564E-14-1.45701E-13
 -1      4225 1.92425E+01 6.50486E-01 1.44518E-03-5.13254E-01-2.85342E-14 3.28452E-14
 -1      4226 1.93219E+01 6.11070E-01-4.15812E-03-4.52754E-01 1.40987E-14 1.18048E-14
 -1      4227 1.90857E+01 7.40563E-01 8.82296E-03-4.56024E-01 1.13934E-14-1.31593E-14
 -1      4228 2.02161E+01 1.42647E-01-3.51621E-04 8.16776E-02 3.07337E-14-5.54149E-14
 -1      4229 2.01730E+01 1.49521E-01-3.02487E-05 9.08436E-02 1.70113E-14-6.59067E-14
 -1      4230 2.01511E+01 1.64448E-01 5.08355E-04 4.97604E-02-4.78956E-15-7.91198E-14
 -1      4231 2.02963E+01 1.62055E-01-2.18263E-04 6.78567E-02 1.07109E-14-4.37224E-14
 -1      4232 2.02598E+01 1.47063E-01 5.92892E-06 7.92819E-02 4.15465E-14-4.16884E-14
 -1      4233 2.02437E+01 1.53292E-01 2.16754E-04 4.40737E-02 2.62072E-14-7.26518E-14
 -1      4234 1.36991E+01 7.11103E-01 3.75817E-02 1.64960E+00 3.98067E-14-2.51507E-13
 -1      4235 1.78677E+01 1.22787E-01-5.56892E-03 1.99775E+00 5.95797E-14 4.25364E-13
 -1      4236 2.03602E+01 2.33405E-01-1.63167E-04 4.91795E-02-1.12196E-14-4.77711E-14
 -1      4237 2.03315E+01 1.90894E-01-1.16800E-04 6.44273E-02 5.43015E-15-4.70675E-14
 -1      4238 2.03801E+01 2.78225E-01 2.22240E-04 2.51779E-02 1.99975E-14-7.29248E-14
 -1      4239 1.47987E+01 5.45374E-01 4.65970E-02-2.16901E+00-1.41631E-13-1.28769E-13
 -1      4240 1.58252E+01 2.47139E-01 5.88308E-03-2.36211E+00-1.17112E-13-1.73036E-14
 -1      4241 1.46349E+01 7.93336E-01 1.55480E-03-1.54011E+00-1.21284E-13-9.64012E-14
 -1      4242 2.04143E+01 5.62787E-01-9.67388E-04-8.73209E-03 1.20689E-14-1.35266E-13
 -1      4243 2.04105E+01 4.47280E-01-3.67186E-04 1.72134E-02 1.10855E-14-1.20054E-13
 -1      4244 2.04116E+01 4.15096E-01-9.41878E-05 1.13618E-02 3.90221E-14-8.32154E-14
 -1      4245 2.04172E+01 5.94134E-01-3.64317E-04-4.72229E-03 3.29431E-14-1.30066E-13
 -1      4246 1.98841E+01 2.93179E-01 3.18481E-04-2.08825E-01-4.96695E-14-6.42384E-14
 -1      4247 1.99373E+01 2.52450E-01-1.03361E-03-1.88386E-01-1.91533E-14-1.25824E-13
 -1      4248 1.60085E+01 1.03673E+00 1.08668E-02 9.03367E-01-7.19650E-14 1.42599E-13
 -1      4249 1.91057E+01 7.71061E-01-2.04622E-03 4.65129E-01 1.20818E-13-2.24639E-14
 -1      4250 1.88192E+01 8.02149E-01 1.15237E-02-6.11561E-01-8.03784E-15 1.29128E-15
 -1      4251 1.98131E+01 3.35638E-01-1.71908E-03-2.28094E-01-4.56144E-14-1.88496E-14
 -1      4252 1.98322E+01 3.38334E-01 2.29026E-03-1.63769E-01-8.26445E-14-5.14243E-14
 -1      4253 1.97542E+01 3.82652E-01 3.73901E-04-2.54680E-01-2.98025E-14-8.22031E-15
 -1      4254 1.50688E+01 1.07555E+00 2.97242E-02-8.90388E-01-5.95728E-14-1.32360E-13
 -1      4255 1.95151E+01 5.45110E-01 4.98691E-03-2.63289E-01-6.07134E-15-2.48846E-14
 -1      4256 1.96056E+01 4.78533E-01 5.34737E-04-3.16775E-01-6.28396E-14-3.17421E-14
 -1      4257 1.96715E+01 4.28915E-01-2.37857E-03-2.81757E-01-6.15220E-14-3.82847E-14
 -1      4258 2.04166E+01 6.09478E-01-6.24980E-04 5.61842E-03 5.70511E-14-1.13640E-13
 -1      4259 2.04196E+01 5.99454E-01-9.15731E-04-2.71231E-03 3.83774E-14-1.13134E-13
 -1      4260 2.04241E+01 5.03749E-01 1.67469E-03 6.78877E-04 4.51598E-14-1.27322E-13
 -1      4261 1.61220E+01 1.25160E+00-6.28988E-03-4.73368E-03-1.86543E-14-1.40448E-13
 -1      4262 1.74803E+01 2.33912E-02-6.04878E-03-2.24992E+00-1.41931E-14-1.80892E-13
 -1      4263 1.74737E+01 4.68077E-01 8.07955E-03 1.73168E+00-9.26096E-14 5.48543E-13
 -1      4264 1.89085E+01 7.35628E-01 3.29018E-03 7.72747E-01 1.37580E-13-2.49217E-13
 -1      4265 1.86571E+01 8.27337E-01 2.49017E-03 7.17560E-01 2.29744E-13-8.80937E-14
 -1      4266 1.89610E+01 7.46055E-01-2.16208E-03 6.93201E-01 3.04771E-13-3.63390E-13
 -1      4267 1.87533E+01 9.42950E-01-2.28162E-03 1.86267E-01 3.07471E-13 3.92749E-13
 -1      4268 1.93165E+01 6.49736E-01 6.69962E-03-3.44005E-01 1.78081E-14 1.14434E-14
 -1      4269 1.64538E+01 1.84327E-01 8.78422E-03-2.35440E+00-7.22581E-14 8.35605E-15
 -1      4270 1.70727E+01 7.33378E-02 1.66160E-02-2.31152E+00-7.27040E-14-6.64891E-14
 -1      4271 1.71558E+01 4.65666E-01 2.34179E-02-1.86199E+00-1.15921E-14-8.65644E-14
 -1      4272 1.60564E+01 5.37731E-01-4.21699E-03-1.90295E+00-9.95031E-14-9.23094E-14
 -1      4273 2.03211E+01 1.87080E-01 1.29804E-04 3.62525E-02 1.83281E-14-4.00334E-14
 -1      4274 2.02676E+01 1.41660E-01-2.31283E-04-1.08539E-01 1.68788E-14-1.75199E-13
 -1      4275 2.03024E+01 1.62631E-01 3.67352E-04-9.30239E-02 4.12169E-14-2.13485E-13
 -1      4276 1.99588E+01 2.48448E-01-1.32831E-04-1.32715E-01-2.91584E-14-1.49267E-13
 -1      4277 1.99983E+01 2.17230E-01 1.52605E-04-1.75384E-01 1.60419E-14-1.58451E-13
 -1      4278 2.00458E+01 1.86296E-01-7.52114E-04-1.59001E-01 1.52752E-14-1.67645E-13
 -1      4279 1.71032E+01 6.27092E-01-9.11793E-03 1.53665E+00-1.59220E-13 6.38368E-13
 -1      4280 1.67455E+01 8.74799E-01 1.21156E-02 1.25856E+00-2.39453E-13 6.03764E-13
 -1      4281 1.74851E+01 7.02892E-01-9.72399E-03 1.34383E+00-8.53951E-14 6.59916E-13
 -1      4282 1.64133E+01 1.21869E+00 1.43087E-02 3.89558E-01-4.01554E-14-9.13570E-14
 -1      4283 2.04136E+01 5.86929E-01-3.57271E-04 1.26860E-02 7.89159E-14-1.60490E-13
 -1      4284 1.65324E+01 1.03133E+00-4.62851E-03 8.85244E-01-1.25151E-13 1.48731E-13
 -1      4285 2.02283E+01 1.32820E-01-3.45171E-05-1.15306E-01-2.47201E-14-1.82487E-13
 -1      4286 2.02567E+01 1.49080E-01-3.32998E-05-7.91339E-02 8.98474E-15-1.98526E-13
 -1      4287 2.01889E+01 1.33793E-01-1.78565E-04-1.28626E-01-5.96402E-14-2.08860E-13
 -1      4288 1.70603E+01 1.03022E+00 1.37153E-04 7.85375E-01-7.84786E-14 2.78766E-13
 -1      4289 2.01186E+01 1.45409E-01 2.72506E-04-1.83647E-01 8.80708E-16-1.19702E-13
 -1      4290 2.00718E+01 1.91346E-01-6.99196E-04 2.61110E-03-6.75648E-14-1.08548E-13
 -1      4291 2.00130E+01 2.22395E-01-7.67682E-04 4.87856E-03-6.33295E-14-1.28929E-13
 -1      4292 2.02541E+01 1.49032E-01-3.18872E-04-2.09632E-02 4.20698E-16-1.30596E-13
 -1      4293 2.02104E+01 1.47326E-01 1.79701E-04-1.89781E-02-7.47994E-15-1.44049E-13
 -1      4294 1.99360E+01 2.66802E-01-7.31080E-04-4.40256E-02-5.84258E-14-1.02603E-13
 -1      4295 1.98662E+01 3.10265E-01-1.55578E-03-4.58080E-02-3.71233E-14-1.45008E-13
 -1      4296 1.97948E+01 3.56754E-01-1.90722E-03-6.10423E-02-6.28282E-14-1.57232E-13
 -1      4297 1.97128E+01 4.10145E-01-2.62494E-03-6.50860E-02-7.45245E-14-1.84085E-13
 -1      4298 1.96301E+01 4.62870E-01-2.77002E-03-8.64597E-02-6.08072E-14-1.70308E-13
 -1      4299 1.95324E+01 5.22529E-01-3.87581E-03-9.43519E-02-4.17593E-14-1.64590E-13
 -1      4300 1.94359E+01 5.77975E-01-3.73165E-03-1.24428E-01-1.46008E-14-2.03874E-13
 -1      4301 1.93176E+01 6.40366E-01-5.48440E-03-1.38423E-01 7.72264E-15-1.32231E-13
 -1      4302 1.92047E+01 6.94079E-01-4.88739E-03-1.80702E-01 2.82931E-14-9.40474E-14
 -1      4303 1.90600E+01 7.54756E-01-7.62121E-03-2.03966E-01 4.10236E-14-5.63162E-14
 -1      4304 1.89280E+01 8.00933E-01-6.32507E-03-2.63412E-01 1.29147E-14-1.21370E-13
 -1      4305 1.87491E+01 8.54103E-01-1.05363E-02-3.00398E-01 6.75579E-14-1.08103E-13
 -1      4306 1.85955E+01 8.85131E-01-8.17771E-03-3.84122E-01 4.33023E-14-1.62779E-13
 -1      4307 1.83719E+01 9.23288E-01-1.46106E-02-4.41127E-01-9.12974E-15-1.47963E-13
 -1      4308 1.81947E+01 9.29262E-01-1.05782E-02-5.59366E-01-1.97736E-14-1.78032E-13
 -1      4309 1.79108E+01 9.42758E-01-2.03170E-02-6.45690E-01-3.44180E-14-2.28374E-13
 -1      4310 1.77102E+01 9.11209E-01-1.31425E-02-8.12825E-01 2.49679E-14-1.31270E-13
 -1      4311 1.73441E+01 8.87528E-01-2.74132E-02-9.43646E-01 7.09326E-14-1.49382E-13
 -1      4312 2.03331E+01 1.95980E-01-7.54375E-04-8.60232E-02 3.44731E-14-2.18518E-13
 -1      4313 2.03618E+01 2.46052E-01 3.08952E-04-6.60026E-02 1.57146E-14-2.18158E-13
 -1      4314 2.03296E+01 1.94551E-01-1.15587E-05-6.34778E-02 2.02546E-14-2.07732E-13
 -1      4315 2.03958E+01 5.10596E-01-9.45507E-04 5.26751E-03 4.71737E-14-2.26341E-13
 -1      4316 2.04041E+01 5.64332E-01 3.20118E-04 1.08116E-02 7.85568E-14-1.96567E-13
 -1      4317 2.03936E+01 4.23877E-01-2.24643E-04-2.54280E-02 4.99773E-14-2.46589E-13
 -1      4318 1.78880E+01 1.05425E+00-8.85675E-03 4.31299E-01 4.76930E-13 3.14199E-13
 -1      4319 1.81764E+01 1.03862E+00-1.32562E-03 3.51177E-01 4.92476E-13 3.93605E-13
 -1      4320 1.83945E+01 1.00794E+00-5.88907E-03 2.70831E-01 3.13225E-13 4.74278E-13
 -1      4321 1.85723E+01 9.80814E-01-1.01823E-03 2.41237E-01 3.24413E-13 4.32677E-13
 -1      4322 1.87821E+01 9.12148E-01 4.50893E-03 3.50977E-01 2.30474E-13 3.31535E-13
 -1      4323 1.83933E+01 9.66724E-01 6.83506E-03 5.09385E-01 3.81473E-13 4.62779E-13
 -1      4324 2.04154E+01 4.87336E-01 9.86377E-04-1.02272E-02 5.52970E-14-1.53361E-13
 -1      4325 1.90360E+01 7.79682E-01 3.92100E-04 5.29406E-01 1.98641E-13-9.36996E-14
 -1      4326 1.71295E+01 8.08094E-01-1.08491E-02-1.17572E+00 2.93894E-14-1.81644E-13
 -1      4327 1.83332E+01 8.84656E-01-7.44511E-03 7.13423E-01 2.43768E-13 3.46991E-13
 -1      4328 1.81643E+01 8.63151E-01 5.56786E-04 8.51905E-01 3.38249E-13 5.87668E-13
 -1      4329 1.79312E+01 8.32731E-01-1.13806E-02 9.76238E-01 3.81275E-13 5.85554E-13
 -1      4330 1.77456E+01 7.59146E-01-2.16147E-03 1.17087E+00 1.51228E-13 7.33522E-13
 -1      4331 1.74982E+01 9.31220E-01 1.21676E-02 9.85002E-01 1.29803E-13 6.79544E-13
 -1      4332 1.79645E+01 9.83619E-01 1.17080E-02 7.16476E-01 4.03901E-13 5.43019E-13
 -1      4333 2.01699E+01 1.54464E-01-5.17084E-04-1.02336E-02 1.90712E-15-1.60907E-13
 -1      4334 2.01196E+01 1.70873E-01-5.56779E-05-8.75711E-03-4.19393E-14-1.68538E-13
 -1      4335 2.00925E+01 1.80759E-01-2.26002E-04-5.87775E-02-4.99158E-14-1.87678E-13
 -1      4336 2.01785E+01 1.50907E-01 3.24007E-04-7.93259E-02-6.29334E-14-2.55351E-13
 -1      4337 2.03299E+01 1.87755E-01-4.47956E-04-1.70338E-02 1.56120E-14-1.44995E-13
 -1      4338 2.02946E+01 1.61846E-01 3.34476E-04-1.34667E-02 2.59040E-14-1.36552E-13
 -1      4339 2.03871E+01 2.85879E-01-4.88946E-04-1.44905E-02 3.64234E-14-1.67199E-13
 -1      4340 2.03630E+01 2.29059E-01 4.64821E-04-9.43481E-03 1.68937E-14-1.50229E-13
 -1      4341 1.56980E+01 8.78607E-01-1.14888E-02-1.35869E+00-4.25688E-14-1.58892E-13
 -1      4342 1.73104E+01 1.06376E+00-6.21725E-03 6.49713E-01 1.60930E-13 3.81431E-13
 -1      4343 1.62370E+01 7.91576E-01-1.93243E-02-1.38985E+00 1.21884E-14-1.20049E-13
 -1      4344 1.96856E+01 4.38347E-01 3.56921E-03-2.05274E-01-5.03511E-14-6.10462E-14
 -1      4345 1.76797E+01 1.06053E+00-1.07581E-03 5.29059E-01 3.07351E-13 3.22746E-13
 -1      4346 1.85617E+01 8.81600E-01 3.40378E-04 6.11026E-01 2.98444E-13 2.41758E-13
 -1      4347 2.03866E+01 3.08472E-01 2.94736E-04-3.53479E-02 2.31187E-14-1.83198E-13
 -1      4348 2.03852E+01 3.21846E-01-7.72215E-04-4.76737E-02 1.25450E-14-1.81552E-13
 -1      4349 2.03973E+01 3.91587E-01 3.91999E-04-2.71615E-02 3.03501E-14-2.13813E-13
 -1      4350 2.04100E+01 3.68038E-01 9.07982E-04-5.02875E-04 3.60179E-14-1.36751E-13
 -1      4351 1.66854E+01 7.39397E-01-1.97006E-02-1.38136E+00 2.20587E-14-1.27947E-13
 -1      4352 2.04138E+01 4.22096E-01-2.96074E-04 2.80778E-03 5.67195E-14-9.80441E-14
 -1      4353 2.01507E+01 1.44878E-01-1.58245E-04-1.20547E-01-6.22306E-14-2.06786E-13
 -1      4354 2.04153E+01 4.44669E-01-7.21799E-04-9.74335E-03 2.88427E-14-1.30608E-13
 -1      4355 1.99729E+01 2.46607E-01 8.09894E-04-9.40823E-02-5.49538E-14-8.63616E-14
 -1      4356 1.88435E+01 8.57006E-01-9.06864E-04 4.57310E-01 2.16966E-13 1.87581E-13
 -1      4357 2.01069E+01 1.61749E-01 8.26066E-05-1.33432E-01 2.09297E-15-1.81765E-13
 -1      4358 1.86662E+01 8.80075E-01-4.38002E-03 5.26768E-01 2.91486E-13 2.55533E-13
 -1      4359 2.00788E+01 1.85583E-01 3.64393E-04-9.44571E-02-1.59492E-14-2.11317E-13
 -1      4360 2.00333E+01 2.08920E-01 7.31903E-04-8.36173E-02-1.90351E-14-1.38447E-13
 -1      4361 2.04078E+01 4.25221E-01-2.29103E-04-1.75625E-02 3.64983E-14-1.69929E-13
 -3
    1PSTEP                         3           1           1          
  100CL  101 1.000000000        4361                     0    1           1
 -4  TOSTRAIN    6    1
 -5  EXX         1    4    1    1
 -5  EYY         1    4    2    2
 -5  EZZ         1    4    3    3
 -5  EXY         1    4    1    2
 -5  EYZ         1    4    2    3
 -5  EZX         1    4    3    1
 -1         1 2.74488E-04-7.21618E-05-7.47814E-05-8.27575E-05-2.35189E-18 8.81105E-18
 -1         2 3.66804E-05-1.11427E-04 2.00724E-05 7.18645E-07-2.13002E-18 6.45069E-19
 -1         3 9.52052E-05-2.86050E-05-2.84929E-05-2.47419E-08-2.08407E-18-1.51172E-18
 -1         4 9.52011E-05-2.86083E-05-2.84815E-05 2.55376E-08 2.28121E-18-9.93385E-19
 -1         5 1.43239E-04-2.14639E-05-4.24943E-05 3.85140E-05-1.86718E-19 1.28291E-17
 -1         6 1.45305E-04 2.57323E-10-4.41527E-05-5.35018E-05-7.69529E-19 1.00475E-17
 -1         7 9.05405E-05-5.09304E-07-3.90411E-05-2.92530E-05-1.19114E-19 1.08269E-18
 -1         8 8.50852E-05 8.66522E-08-3.63223E-05-2.02829E-05-1.17235E-19-1.41872E-18
 -1         9 8.28016E-05 7.57628E-08-3.53447E-05-1.56537E-05-9.03017E-20-2.73470E-18
 -1        10 8.17796E-05 3.92301E-08-3.48845E-05-1.20912E-05-4.45023E-20-3.27488E-18
 -1        11 8.12794E-05 1.87400E-08-3.46636E-05-9.02445E-06-4.40755E-20-3.50275E-18
 -1        12 8.10235E-05 8.53634E-09-3.45547E-05-6.29129E-06-9.80871E-21-3.55224E-18
 -1        13 8.08906E-05 3.97744E-09-3.45008E-05-3.68925E-06-4.23186E-21-3.45645E-18
 -1        14 8.08355E-05 2.13840E-09-3.44790E-05-1.18456E-06 2.30862E-20-3.38800E-18
 -1        15 8.08374E-05 2.13061E-09-3.44797E-05 1.29057E-06 5.51099E-20-3.24089E-18
 -1        16 8.08965E-05 3.92446E-09-3.45029E-05 3.80024E-06 7.42105E-20-3.08188E-18
 -1        17 8.10343E-05 7.82332E-09-3.45582E-05 6.41401E-06 7.87873E-20-2.79591E-18
 -1        18 8.12960E-05 1.76297E-08-3.46684E-05 9.16593E-06 1.03987E-19-2.37362E-18
 -1        19 8.18048E-05 3.77490E-08-3.48927E-05 1.22705E-05 1.34969E-19-1.72982E-18
 -1        20 8.28214E-05 8.12737E-08-3.53570E-05 1.58840E-05 1.58011E-19-6.31056E-19
 -1        21 8.50503E-05 1.69646E-07-3.63607E-05 2.04931E-05 1.90715E-19 1.35976E-18
 -1        22 9.15786E-05-9.81819E-08-3.87129E-05 2.80000E-05 1.63054E-20 5.13912E-18
 -1        23 1.12865E-04-3.80895E-05-3.53642E-05-4.40410E-06-5.61662E-19 7.37840E-18
 -1        24 9.26941E-05-2.76640E-05-2.89658E-05 3.90162E-07-1.49445E-19 4.95238E-18
 -1        25 8.90014E-05-2.68168E-05-2.68939E-05 3.74837E-07-5.57354E-20 2.83201E-18
 -1        26 8.78919E-05-2.64515E-05-2.63546E-05 2.02997E-07-4.84141E-20 1.50092E-18
 -1        27 8.79152E-05-2.64291E-05-2.63457E-05 1.38464E-07-3.49198E-20 6.74635E-19
 -1        28 8.84512E-05-2.65663E-05-2.65161E-05 9.91172E-08 6.85236E-21 4.09435E-19
 -1        29 8.92182E-05-2.67829E-05-2.67526E-05 7.31353E-08-1.39910E-20 7.53694E-20
 -1        30 9.00717E-05-2.70316E-05-2.70115E-05 5.45726E-08 1.01734E-19-8.02911E-19
 -1        31 9.09357E-05-2.72869E-05-2.72725E-05 4.06462E-08-2.83115E-20-1.47384E-18
 -1        32 9.17757E-05-2.75368E-05-2.75262E-05 3.00011E-08-1.51899E-19-2.77887E-18
 -1        33 9.25847E-05-2.77787E-05-2.77707E-05 2.19455E-08 7.20028E-20-3.79977E-18
 -1        34 9.33765E-05-2.80163E-05-2.80105E-05 1.61364E-08-2.01313E-20-3.65500E-18
 -1        35 9.41810E-05-2.82584E-05-2.82544E-05 1.24584E-08 3.64504E-20-3.55597E-18
 -1        36 9.50428E-05-2.85181E-05-2.85161E-05 1.09919E-08 2.91402E-19-3.01051E-18
 -1        37 9.60202E-05-2.88130E-05-2.88132E-05 1.20316E-08-2.86845E-19-1.75399E-18
 -1        38 9.71862E-05-2.91646E-05-2.91677E-05 1.61378E-08-3.45177E-19-2.25590E-18
 -1        39 9.86286E-05-2.95992E-05-2.96062E-05 2.42096E-08-2.38637E-20-2.29952E-18
 -1        40 1.00450E-04-3.01472E-05-3.01597E-05 3.75587E-08 1.69729E-19-1.61580E-18
 -1        41 1.02765E-04-3.08423E-05-3.08623E-05 5.79174E-08 2.72444E-20-2.52692E-18
 -1        42 1.05687E-04-3.17178E-05-3.17474E-05 8.72101E-08-4.31925E-19-3.89111E-18
 -1        43 1.09306E-04-3.27997E-05-3.28389E-05 1.26695E-07 1.23423E-19-4.20752E-18
 -1        44 1.13633E-04-3.40900E-05-3.41334E-05 1.74692E-07 4.35233E-19-1.84003E-18
 -1        45 1.18502E-04-3.55393E-05-3.55687E-05 2.21660E-07-3.32237E-19-1.80934E-18
 -1        46 1.23416E-04-3.70016E-05-3.69783E-05 2.41672E-07-8.92416E-20-3.72020E-18
 -1        47 1.27365E-04-3.81805E-05-3.80439E-05 1.82628E-07-2.12463E-19-3.19302E-18
 -1        48 1.28726E-04-3.85979E-05-3.82934E-05-3.13108E-08 2.79628E-19-2.04193E-18
 -1        49 1.25561E-04-3.76734E-05-3.72296E-05-4.51832E-07 2.71183E-19-8.82476E-19
 -1        50 1.16711E-04-3.50380E-05-3.46644E-05-9.85448E-07-1.50640E-19-7.70535E-19
 -1        51 1.03553E-04-3.10769E-05-3.11084E-05-1.30385E-06-2.89200E-19-3.81165E-19
 -1        52 9.10166E-05-2.72626E-05-2.78961E-05-9.86577E-07 7.37283E-20-4.99220E-20
 -1        53 8.55844E-05-2.56011E-05-2.65404E-05-3.01601E-08-1.37861E-19-1.05762E-18
 -1        54 9.04576E-05-2.70930E-05-2.77518E-05 9.45709E-07 3.34826E-19-3.31351E-18
 -1        55 1.02739E-04-3.08303E-05-3.08941E-05 1.30540E-06-6.20853E-19-5.33985E-18
 -1        56 1.16007E-04-3.48282E-05-3.44642E-05 1.01375E-06 4.53709E-19-4.50976E-18
 -1        57 1.25142E-04-3.75489E-05-3.71022E-05 4.79139E-07 5.97125E-20-2.81276E-18
 -1        58 1.28577E-04-3.85542E-05-3.82399E-05 4.83866E-08 2.17390E-19-4.69943E-18
 -1        59 1.27385E-04-3.81865E-05-3.80416E-05-1.76482E-07-6.01956E-20-4.65116E-18
 -1        60 1.23494E-04-3.70245E-05-3.69963E-05-2.42455E-07-3.22091E-19-4.37097E-18
 -1        61 1.18557E-04-3.55552E-05-3.55824E-05-2.25718E-07 7.72950E-19-2.61359E-18
 -1        62 1.13618E-04-3.40851E-05-3.41276E-05-1.80013E-07-5.37529E-19-2.41289E-18
 -1        63 1.09198E-04-3.27675E-05-3.28062E-05-1.32489E-07-5.02750E-19-5.29617E-18
 -1        64 1.05482E-04-3.16570E-05-3.16860E-05-9.33051E-08 6.99154E-20-6.80819E-18
 -1        65 1.02471E-04-3.07555E-05-3.07749E-05-6.43410E-08-5.31385E-19-6.45123E-18
 -1        66 1.00093E-04-3.00420E-05-3.00540E-05-4.42186E-08 3.47044E-19-6.02636E-18
 -1        67 9.82527E-05-2.94890E-05-2.94968E-05-3.04791E-08 4.31782E-19-3.39416E-18
 -1        68 9.68707E-05-2.90728E-05-2.90803E-05-2.01148E-08 3.42305E-19-6.79503E-19
 -1        69 9.58968E-05-2.87783E-05-2.87897E-05-9.06839E-09-3.87579E-19-2.77687E-18
 -1        70 9.53196E-05-2.86013E-05-2.86172E-05 1.12865E-08 1.63912E-19-4.45907E-18
 -1        71 9.51474E-05-2.85419E-05-2.85437E-05 3.82050E-08 8.23731E-20-1.92384E-18
 -1        72 1.02076E-04-3.05560E-05-3.41178E-05-1.92554E-06 1.45054E-19 1.21490E-17
 -1        73 9.24508E-05-2.74802E-05-2.88742E-05-3.32335E-07 9.66015E-20 9.79561E-18
 -1        74 8.89900E-05-2.66667E-05-2.69374E-05-1.25042E-07 4.59300E-20 8.23958E-18
 -1        75 8.79237E-05-2.64029E-05-2.63991E-05-9.44153E-08-2.78797E-20 7.23620E-18
 -1        76 8.79524E-05-2.64097E-05-2.63733E-05-7.50087E-08 1.01091E-19 6.20849E-18
 -1        77 8.84891E-05-2.65618E-05-2.65346E-05-6.04289E-08 1.04328E-19 5.29635E-18
 -1        78 8.92557E-05-2.67858E-05-2.67670E-05-4.90467E-08-9.13703E-20 5.70627E-18
 -1        79 9.01087E-05-2.70385E-05-2.70241E-05-3.94933E-08 1.03520E-19 5.82207E-18
 -1        80 9.09727E-05-2.72960E-05-2.72842E-05-3.11331E-08-1.00461E-20 4.66312E-18
 -1        81 9.18130E-05-2.75472E-05-2.75375E-05-2.37583E-08 1.43365E-19 3.92919E-18
 -1        82 9.26220E-05-2.77894E-05-2.77819E-05-1.73423E-08 1.17911E-19 3.66914E-18
 -1        83 9.34109E-05-2.80259E-05-2.80208E-05-1.19521E-08 1.40940E-19 2.87381E-18
 -1        84 9.42050E-05-2.82641E-05-2.82617E-05-7.73277E-09 1.00673E-20 2.23907E-18
 -1        85 9.50401E-05-2.85145E-05-2.85153E-05-4.92199E-09-2.77241E-20 1.52181E-18
 -1        86 9.59589E-05-2.87900E-05-2.87942E-05-3.87593E-09-3.63763E-20 7.57966E-19
 -1        87 9.70080E-05-2.91043E-05-2.91123E-05-5.09392E-09-2.28104E-19 1.09036E-18
 -1        88 9.82323E-05-2.94707E-05-2.94827E-05-9.22227E-09-6.21926E-20 8.13549E-19
 -1        89 9.96676E-05-2.98998E-05-2.99155E-05-1.70015E-08 3.47368E-19-5.58172E-19
 -1        90 1.01328E-04-3.03957E-05-3.04139E-05-2.90920E-08-2.20524E-19-1.46198E-18
 -1        91 1.03190E-04-3.09512E-05-3.09687E-05-4.56707E-08-4.61830E-21 1.15809E-19
 -1        92 1.05164E-04-3.15401E-05-3.15511E-05-6.56602E-08-9.82828E-21 2.35659E-18
 -1        93 1.07070E-04-3.21092E-05-3.21042E-05-8.54863E-08 7.94280E-21 1.26681E-18
 -1        94 1.08608E-04-3.25702E-05-3.25360E-05-9.75391E-08 1.45932E-19-1.34839E-18
 -1        95 1.09352E-04-3.27978E-05-3.27203E-05-8.91442E-08-1.85702E-21-1.23536E-18
 -1        96 1.08795E-04-3.26418E-05-3.25140E-05-4.39995E-08 2.93097E-19 5.26845E-19
 -1        97 1.06485E-04-3.19651E-05-3.17998E-05 5.04025E-08-2.09939E-19 2.28234E-18
 -1        98 1.02264E-04-3.07139E-05-3.05556E-05 1.87878E-07 7.54141E-21 2.13117E-18
 -1        99 9.65568E-05-2.90053E-05-2.89258E-05 3.29335E-07-7.49459E-20 7.84313E-19
 -1       100 9.05212E-05-2.71787E-05-2.72453E-05 4.06333E-07-4.98265E-19 3.16005E-18
 -1       101 8.58348E-05-2.57410E-05-2.59667E-05 3.55751E-07 2.14854E-19 3.61491E-18
 -1       102 8.40462E-05-2.51744E-05-2.54880E-05 1.72069E-07-2.77428E-19 3.06386E-18
 -1       103 8.57963E-05-2.56890E-05-2.59681E-05-7.23325E-08 1.03417E-19 2.51966E-18
 -1       104 9.04566E-05-2.70995E-05-2.72452E-05-2.71567E-07 1.72306E-19 1.74686E-18
 -1       105 9.64805E-05-2.89301E-05-2.89192E-05-3.57649E-07-3.69687E-19 2.61924E-18
 -1       106 1.02182E-04-3.06608E-05-3.05392E-05-3.31178E-07-3.03625E-19 1.68398E-18
 -1       107 1.06395E-04-3.19343E-05-3.17723E-05-2.38839E-07-2.39456E-19-6.24779E-19
 -1       108 1.08690E-04-3.26231E-05-3.24761E-05-1.32425E-07 3.88113E-20-2.14155E-18
 -1       109 1.09221E-04-3.27781E-05-3.26727E-05-4.42979E-08 2.72741E-19-3.11517E-18
 -1       110 1.08440E-04-3.25389E-05-3.24779E-05 1.44770E-08 2.68110E-19-5.27915E-18
 -1       111 1.06855E-04-3.20597E-05-3.20339E-05 4.63147E-08-3.31635E-19-2.53124E-18
 -1       112 1.04894E-04-3.14694E-05-3.14665E-05 5.87895E-08-1.82152E-19-5.67969E-19
 -1       113 1.02862E-04-3.08590E-05-3.08685E-05 5.95868E-08 5.62541E-19-9.20513E-19
 -1       114 1.00947E-04-3.02846E-05-3.02995E-05 5.46066E-08-5.96184E-19 2.86300E-18
 -1       115 9.92510E-05-2.97762E-05-2.97924E-05 4.76610E-08-5.59114E-19 3.21475E-18
 -1       116 9.78200E-05-2.93474E-05-2.93635E-05 4.07762E-08 1.27296E-18 1.90360E-18
 -1       117 9.66736E-05-2.90035E-05-2.90209E-05 3.45592E-08 1.71468E-19-5.07934E-18
 -1       118 9.58283E-05-2.87488E-05-2.87706E-05 2.74500E-08-2.89896E-21-3.82643E-18
 -1       119 9.53148E-05-2.85926E-05-2.86174E-05 1.20331E-08-8.21084E-19-2.68680E-18
 -1       120 9.51624E-05-2.85394E-05-2.85501E-05-2.36986E-08 1.22333E-18-1.73316E-18
 -1       121 9.52548E-05-2.86298E-05-2.85530E-05-3.60920E-08-1.04011E-18 2.49957E-19
 -1       122 9.52043E-05-2.84671E-05-2.86233E-05 9.15200E-10 2.17973E-18-3.37388E-20
 -1       123 9.50533E-05-2.79625E-05-2.87700E-05 2.35715E-08 3.63778E-18 1.44269E-18
 -1       124 9.48364E-05-2.72365E-05-2.89783E-05 3.37296E-08 1.12742E-18-6.26560E-19
 -1       125 9.45951E-05-2.64261E-05-2.92127E-05 3.51458E-08-1.79647E-20-1.17216E-18
 -1       126 9.43719E-05-2.56739E-05-2.94315E-05 3.08140E-08-4.53423E-18 5.07583E-19
 -1       127 9.41925E-05-2.50698E-05-2.96075E-05 2.16043E-08-4.62656E-18 1.20207E-19
 -1       128 9.40879E-05-2.47174E-05-2.97100E-05 9.05896E-09-8.74698E-18 4.76790E-19
 -1       129 9.40747E-05-2.46727E-05-2.97225E-05-5.26454E-09-7.37102E-18 2.40828E-19
 -1       130 9.41571E-05-2.49498E-05-2.96412E-05-1.94825E-08-3.46421E-18 9.65383E-19
 -1       131 9.43250E-05-2.55156E-05-2.94761E-05-3.17656E-08-9.38855E-18-1.28723E-18
 -1       132 9.45511E-05-2.62760E-05-2.92554E-05-3.84862E-08-1.51742E-17 1.21795E-18
 -1       133 9.48063E-05-2.71337E-05-2.90086E-05-3.84275E-08-1.03569E-17-2.38894E-19
 -1       134 9.50410E-05-2.79239E-05-2.87839E-05-3.03804E-08-2.88937E-18 1.62564E-19
 -1       135 9.52060E-05-2.84669E-05-2.86241E-05-1.50850E-09 9.89791E-20-5.96553E-19
 -1       136 9.52431E-05-2.86311E-05-2.85463E-05 6.95482E-08 8.70206E-19 1.15203E-18
 -1       137 2.57146E-05-8.65006E-05 1.53452E-05-2.32964E-05 4.70167E-18 1.11673E-18
 -1       138 7.98894E-06-3.28900E-05 2.90238E-06-1.69019E-05 8.99253E-18 4.51299E-18
 -1       139 1.15361E-05 1.47750E-05-1.48138E-05 2.37954E-05 1.22007E-17 1.02432E-17
 -1       140 6.49056E-05 2.65678E-05-3.73541E-05 8.32598E-05 7.55469E-18 7.42297E-18
 -1       141 1.54716E-04-7.57462E-06-5.63221E-05 1.12432E-04 2.52776E-18 5.69503E-18
 -1       142 2.52464E-04-6.09698E-05-7.15286E-05 9.06993E-05 6.99596E-19 2.34628E-19
 -1       143 3.04318E-04-9.34483E-05-7.81072E-05 2.03228E-05-1.66574E-19-4.39425E-18
 -1       144 2.85839E-04-8.17188E-05-7.58132E-05-5.97367E-05 1.22096E-18-7.87148E-18
 -1       145 2.05636E-04-3.40708E-05-6.47537E-05-1.10162E-04 4.76890E-18-1.08560E-17
 -1       146 1.08275E-04 1.35689E-05-4.77382E-05-1.04409E-04 8.00298E-18-1.14836E-17
 -1       147 3.31260E-05 2.80629E-05-2.68127E-05-5.65551E-05 9.91621E-18-8.98914E-18
 -1       148 5.51275E-06 6.67596E-07-7.83644E-06-4.98122E-06 5.98852E-18-4.44353E-18
 -1       149 1.32378E-05-5.25769E-05 7.92019E-06 2.31575E-05 1.82239E-18-5.75029E-19
 -1       150 3.12644E-05-9.98379E-05 1.80540E-05 1.55026E-05 1.19474E-18 4.62133E-19
 -1       151 3.38895E-05-1.07285E-04 1.96917E-05-1.02430E-05-8.63497E-19-3.41037E-19
 -1       152 1.96633E-05-7.27067E-05 1.24012E-05-2.58094E-05-3.90461E-18-1.00156E-18
 -1       153 5.11310E-06-1.82248E-05-1.54291E-06-1.04315E-05-8.06545E-18-5.56839E-18
 -1       154 2.40381E-05 2.03928E-05-2.15125E-05 4.03406E-05-1.26437E-17-1.11647E-17
 -1       155 8.83098E-05 1.81250E-05-4.27749E-05 9.36328E-05-1.04338E-17-1.36495E-17
 -1       156 1.90957E-04-2.55872E-05-6.26151E-05 1.11483E-04-6.94863E-18-1.43898E-17
 -1       157 2.83176E-04-7.70800E-05-7.61459E-05 7.51208E-05-2.27277E-18-7.02614E-18
 -1       158 3.18030E-04-9.87801E-05-8.03723E-05-5.73254E-06 1.76898E-19 2.44133E-18
 -1       159 1.75135E-04-1.68877E-05-6.01876E-05-1.15045E-04-4.89987E-18 1.00454E-17
 -1       160 7.29603E-05 2.37135E-05-3.94260E-05-8.72906E-05-5.31386E-18 9.01624E-18
 -1       161 1.54466E-05 1.73851E-05-1.75156E-05-2.97125E-05-2.61437E-18 2.03288E-18
 -1       162 6.70611E-06-3.23810E-05 2.85283E-06 1.89923E-05-5.67681E-18 2.99024E-18
 -1       163 2.56676E-05-8.80669E-05 1.56516E-05 2.54613E-05-7.19766E-18 3.19014E-19
 -1       164 9.48081E-05-1.23343E-05-3.55487E-05-2.23536E-05-1.66115E-18-1.27664E-19
 -1       165 8.92207E-05-8.45198E-06-3.47768E-05-1.73983E-05-1.40045E-18-1.64796E-18
 -1       166 8.65471E-05-6.50573E-06-3.44151E-05-1.35904E-05-9.73218E-19-2.44075E-18
 -1       167 8.52099E-05-5.51657E-06-3.42381E-05-1.03777E-05-6.24013E-19-2.80449E-18
 -1       168 8.44838E-05-4.94858E-06-3.41553E-05-7.55034E-06-3.49862E-19-2.88404E-18
 -1       169 8.40667E-05-4.60226E-06-3.41177E-05-4.90494E-06-6.17635E-20-2.91941E-18
 -1       170 8.38543E-05-4.41721E-06-3.41025E-05-2.39552E-06 2.20564E-19-2.85060E-18
 -1       171 8.37917E-05-4.36116E-06-3.40987E-05 5.15593E-08 4.85647E-19-2.72765E-18
 -1       172 8.38638E-05-4.42548E-06-3.41032E-05 2.50069E-06 7.33601E-19-2.57916E-18
 -1       173 8.40876E-05-4.62103E-06-3.41190E-05 5.01668E-06 9.78893E-19-2.45814E-18
 -1       174 8.45098E-05-4.97437E-06-3.41562E-05 7.62736E-06 1.19169E-18-2.15636E-18
 -1       175 8.52699E-05-5.57633E-06-3.42392E-05 1.05181E-05 1.51245E-18-1.62039E-18
 -1       176 8.66448E-05-6.60852E-06-3.44174E-05 1.37902E-05 1.74224E-18-8.58838E-19
 -1       177 8.93632E-05-8.59565E-06-3.47816E-05 1.76297E-05 1.82394E-18 5.14745E-19
 -1       178 9.57194E-05-1.36008E-05-3.54051E-05 2.18980E-05 1.59625E-18 2.88214E-18
 -1       179 1.05518E-04-2.60762E-05-3.52362E-05 1.86659E-05 1.05008E-18 5.79625E-18
 -1       180 1.03315E-04-2.72772E-05-3.25854E-05-1.21323E-05-1.51254E-18 1.81948E-18
 -1       181 9.70250E-05-2.82647E-05-2.95040E-05-4.73744E-06-1.18162E-18 1.14137E-18
 -1       182 9.34236E-05-2.76108E-05-2.81574E-05-1.77364E-06-8.86198E-19 5.90686E-19
 -1       183 9.18913E-05-2.73805E-05-2.76120E-05-4.21891E-07-5.16693E-19 1.20904E-19
 -1       184 9.13232E-05-2.73068E-05-2.74172E-05 2.48941E-07-2.71826E-19-1.75458E-19
 -1       185 9.12982E-05-2.73492E-05-2.73979E-05 5.86650E-07-2.53121E-19-3.61131E-19
 -1       186 9.15727E-05-2.74591E-05-2.74729E-05 7.44304E-07-3.84556E-19-3.25461E-19
 -1       187 9.20081E-05-2.76040E-05-2.75994E-05 8.03602E-07-3.90664E-19-3.89546E-19
 -1       188 9.25264E-05-2.77650E-05-2.77535E-05 8.13895E-07-7.17770E-19-5.92380E-19
 -1       189 9.30879E-05-2.79327E-05-2.79227E-05 8.08025E-07-5.57943E-19-5.49161E-19
 -1       190 9.36788E-05-2.81043E-05-2.81025E-05 8.09732E-07-3.99601E-19-1.66707E-18
 -1       191 9.43043E-05-2.82821E-05-2.82940E-05 8.37618E-07-2.23993E-20-2.10618E-18
 -1       192 9.49841E-05-2.84725E-05-2.85033E-05 9.07562E-07 2.34307E-19-1.83500E-18
 -1       193 9.57508E-05-2.86852E-05-2.87400E-05 1.03428E-06 4.06871E-19-1.85590E-18
 -1       194 9.66477E-05-2.89331E-05-2.90174E-05 1.23224E-06 2.37244E-20-1.38614E-18
 -1       195 9.77283E-05-2.92320E-05-2.93515E-05 1.51589E-06 5.64121E-20-8.23826E-19
 -1       196 9.90546E-05-2.96009E-05-2.97610E-05 1.89854E-06 9.96691E-20-8.84293E-19
 -1       197 1.00694E-04-3.00617E-05-3.02657E-05 2.38927E-06-5.92628E-19-1.42295E-18
 -1       198 1.02715E-04-3.06385E-05-3.08844E-05 2.98571E-06-1.04803E-18-2.01901E-18
 -1       199 1.05171E-04-3.13572E-05-3.16301E-05 3.66019E-06-4.81732E-19-1.81358E-18
 -1       200 1.08081E-04-3.22419E-05-3.25014E-05 4.33524E-06 1.01594E-18-1.43980E-18
 -1       201 1.11394E-04-3.33091E-05-3.34690E-05 4.84586E-06-2.00862E-20-2.06145E-18
 -1       202 1.14927E-04-3.45522E-05-3.44580E-05 4.89367E-06-1.81129E-19-1.17984E-18
 -1       203 1.18302E-04-3.59074E-05-3.53304E-05 4.02285E-06 2.01569E-19 1.85110E-19
 -1       204 1.20872E-04-3.71839E-05-3.58867E-05 1.69951E-06 3.53861E-19 5.73239E-19
 -1       205 1.21728E-04-3.79583E-05-3.59157E-05-2.35962E-06 2.50861E-19-3.14695E-19
 -1       206 1.19911E-04-3.75264E-05-3.53097E-05-7.50838E-06 3.01292E-19-6.78103E-19
 -1       207 1.15085E-04-3.52657E-05-3.42133E-05-1.15168E-05 1.28979E-19-4.23847E-20
 -1       208 1.08535E-04-3.15187E-05-3.30317E-05-1.11658E-05-3.83378E-19-1.82139E-19
 -1       209 1.03535E-04-2.83615E-05-3.22726E-05-4.88335E-06-7.40545E-19-1.34725E-18
 -1       210 1.03379E-04-2.82658E-05-3.22469E-05 4.37984E-06-9.85390E-19-8.35148E-19
 -1       211 1.08152E-04-3.12911E-05-3.29671E-05 1.09416E-05-1.01523E-18-7.77669E-19
 -1       212 1.14704E-04-3.50732E-05-3.41311E-05 1.16258E-05 8.19016E-19-4.85039E-19
 -1       213 1.19664E-04-3.74389E-05-3.52421E-05 7.76391E-06 6.28998E-19-2.94245E-19
 -1       214 1.21628E-04-3.79503E-05-3.58752E-05 2.60075E-06-5.83758E-19 4.06343E-19
 -1       215 1.20875E-04-3.72171E-05-3.58740E-05-1.55175E-06-3.34247E-19 1.40207E-19
 -1       216 1.18349E-04-3.59474E-05-3.53338E-05-3.97455E-06-7.17568E-19-2.22023E-18
 -1       217 1.14970E-04-3.45812E-05-3.44644E-05-4.91829E-06 1.12588E-18 4.72325E-19
 -1       218 1.11401E-04-3.33196E-05-3.34680E-05-4.91357E-06-1.94867E-19-4.59815E-19
 -1       219 1.08036E-04-3.22315E-05-3.24868E-05-4.42283E-06-2.06311E-18-2.35404E-18
 -1       220 1.05069E-04-3.13260E-05-3.15999E-05-3.75079E-06-6.83462E-19-3.53548E-18
 -1       221 1.02562E-04-3.05885E-05-3.08401E-05-3.06527E-06 1.14432E-18-2.54035E-18
 -1       222 1.00507E-04-2.99968E-05-3.02126E-05-2.44237E-06 1.11750E-18-2.11329E-20
 -1       223 9.88620E-05-2.95276E-05-2.97089E-05-1.90391E-06 1.93828E-18 8.55344E-19
 -1       224 9.75769E-05-2.91601E-05-2.93162E-05-1.44153E-06 1.17618E-18 1.09300E-18
 -1       225 9.66064E-05-2.88775E-05-2.90223E-05-1.03070E-06-7.62104E-19-1.72716E-19
 -1       226 9.59150E-05-2.86682E-05-2.88166E-05-6.41856E-07-5.01317E-20 7.83546E-19
 -1       227 9.54589E-05-2.85266E-05-2.86827E-05-2.60876E-07 6.80877E-19 7.59356E-19
 -1       228 9.94142E-05-2.85285E-05-3.05612E-05 7.21656E-06 1.20129E-18 5.09483E-18
 -1       229 9.43286E-05-2.77642E-05-2.84982E-05 2.74867E-06 8.32607E-19 4.15634E-18
 -1       230 9.20087E-05-2.73742E-05-2.76554E-05 9.32626E-07 7.10899E-19 3.28753E-18
 -1       231 9.10642E-05-2.72123E-05-2.73380E-05 6.62409E-08 6.25612E-19 2.72990E-18
 -1       232 9.08637E-05-2.72077E-05-2.72675E-05-3.69247E-07 3.67176E-19 2.56166E-18
 -1       233 9.10696E-05-2.72992E-05-2.73232E-05-5.82383E-07-1.96355E-19 2.54259E-18
 -1       234 9.14922E-05-2.74423E-05-2.74461E-05-6.74327E-07 3.54346E-19 2.09643E-18
 -1       235 9.20243E-05-2.76101E-05-2.76038E-05-7.01288E-07 5.27304E-19 1.86115E-18
 -1       236 9.26077E-05-2.77877E-05-2.77785E-05-6.98235E-07 4.61482E-19 1.48912E-18
 -1       237 9.32156E-05-2.79687E-05-2.79619E-05-6.88655E-07 3.18730E-19 1.70766E-18
 -1       238 9.38422E-05-2.81524E-05-2.81520E-05-6.89167E-07 6.40525E-19 1.03314E-18
 -1       239 9.44972E-05-2.83424E-05-2.83513E-05-7.11857E-07 3.48336E-19 5.21667E-19
 -1       240 9.52007E-05-2.85454E-05-2.85658E-05-7.65403E-07 3.35685E-20 4.62775E-19
 -1       241 9.59798E-05-2.87701E-05-2.88034E-05-8.55327E-07-4.17581E-21 7.21712E-19
 -1       242 9.68650E-05-2.90266E-05-2.90729E-05-9.83429E-07 4.80668E-20 1.14832E-18
 -1       243 9.78857E-05-2.93251E-05-2.93826E-05-1.14630E-06 6.74086E-19 3.89472E-19
 -1       244 9.90640E-05-2.96741E-05-2.97383E-05-1.33273E-06 8.42409E-19-4.69371E-20
 -1       245 1.00406E-04-3.00787E-05-3.01406E-05-1.51990E-06 4.27353E-19-3.29037E-19
 -1       246 1.01890E-04-3.05370E-05-3.05810E-05-1.66858E-06-7.84999E-19-4.76026E-19
 -1       247 1.03451E-04-3.10351E-05-3.10375E-05-1.71826E-06-9.51249E-19-3.22883E-19
 -1       248 1.04964E-04-3.15418E-05-3.14696E-05-1.58520E-06 6.66427E-19 2.44906E-19
 -1       249 1.06231E-04-3.20006E-05-3.18158E-05-1.16882E-06 1.07516E-18 7.56473E-20
 -1       250 1.06978E-04-3.23248E-05-3.19956E-05-3.75603E-07-2.28750E-19-4.87598E-19
 -1       251 1.06886E-04-3.23973E-05-3.19219E-05 8.30249E-07-8.88377E-19 2.90159E-19
 -1       252 1.05667E-04-3.20877E-05-3.15282E-05 2.34767E-06-8.80090E-19 1.47851E-18
 -1       253 1.03203E-04-3.12993E-05-3.08083E-05 3.85827E-06 2.92519E-19 1.87355E-18
 -1       254 9.97254E-05-3.00558E-05-2.98536E-05 4.82673E-06 2.78588E-19 2.22725E-18
 -1       255 9.59211E-05-2.85845E-05-2.88616E-05 4.67383E-06-1.36905E-18 1.95064E-18
 -1       256 9.28398E-05-2.73197E-05-2.80918E-05 3.11687E-06 1.44545E-19 1.79412E-18
 -1       257 9.15104E-05-2.67414E-05-2.77725E-05 4.84091E-07-1.54001E-19 1.61537E-18
 -1       258 9.24229E-05-2.70995E-05-2.80040E-05-2.32138E-06-1.33662E-19 1.92049E-18
 -1       259 9.52411E-05-2.82420E-05-2.87116E-05-4.29787E-06 8.88352E-19 2.60213E-18
 -1       260 9.89969E-05-2.97181E-05-2.96807E-05-4.90320E-06-1.85237E-19 8.88829E-19
 -1       261 1.02598E-04-3.10531E-05-3.06508E-05-4.24387E-06 3.24379E-19-1.28924E-19
 -1       262 1.05267E-04-3.19572E-05-3.14114E-05-2.84488E-06 1.04412E-18-6.78760E-19
 -1       263 1.06694E-04-3.23646E-05-3.18541E-05-1.28257E-06 1.02524E-18-1.41415E-18
 -1       264 1.06947E-04-3.23542E-05-3.19712E-05 4.97750E-08 5.78254E-19-2.91776E-18
 -1       265 1.06296E-04-3.20580E-05-3.18210E-05 9.85668E-07-5.25060E-19-1.60675E-18
 -1       266 1.05065E-04-3.16020E-05-3.14887E-05 1.52332E-06-2.09644E-18 1.19271E-18
 -1       267 1.03541E-04-3.10826E-05-3.10573E-05 1.74227E-06-1.67537E-19 2.63670E-18
 -1       268 1.01942E-04-3.05636E-05-3.05927E-05 1.74187E-06-3.53173E-19 1.80785E-18
 -1       269 1.00411E-04-3.00829E-05-3.01410E-05 1.60907E-06-2.19584E-18 4.54174E-18
 -1       270 9.90317E-05-2.96594E-05-2.97304E-05 1.40678E-06 1.15168E-18 3.44092E-18
 -1       271 9.78487E-05-2.93007E-05-2.93765E-05 1.17305E-06 1.85147E-18 2.97480E-19
 -1       272 9.68819E-05-2.90080E-05-2.90876E-05 9.25234E-07 1.42861E-18 1.85665E-18
 -1       273 9.61396E-05-2.87799E-05-2.88680E-05 6.63880E-07-3.40024E-19 1.42839E-18
 -1       274 9.56256E-05-2.86158E-05-2.87177E-05 3.80678E-07-3.94012E-19 1.12197E-19
 -1       275 9.53309E-05-2.85376E-05-2.86223E-05 9.62422E-08 6.82832E-19 1.73055E-19
 -1       276 9.52721E-05-2.83627E-05-2.86734E-05 2.56876E-07 9.60890E-19 1.64879E-18
 -1       277 9.51418E-05-2.79878E-05-2.87795E-05 5.49197E-07 1.80563E-18 7.28988E-19
 -1       278 9.49486E-05-2.74700E-05-2.89190E-05 7.55110E-07 4.84581E-19-2.14891E-18
 -1       279 9.47327E-05-2.68762E-05-2.90814E-05 8.31656E-07-1.23293E-18-7.00123E-19
 -1       280 9.45238E-05-2.62941E-05-2.92423E-05 7.81709E-07-2.77923E-18-2.97065E-18
 -1       281 9.43415E-05-2.57832E-05-2.93840E-05 6.16469E-07-2.42596E-18-1.04432E-18
 -1       282 9.42136E-05-2.54260E-05-2.94829E-05 3.60426E-07-2.54756E-18-3.06051E-18
 -1       283 9.41578E-05-2.52738E-05-2.95245E-05 4.79456E-08-2.62371E-18 9.87864E-19
 -1       284 9.41836E-05-2.53522E-05-2.95018E-05-2.78788E-07-1.47805E-18 2.05010E-18
 -1       285 9.42903E-05-2.56553E-05-2.94171E-05-5.72688E-07-2.41417E-18-3.50440E-18
 -1       286 9.44621E-05-2.61345E-05-2.92845E-05-7.83383E-07-1.83441E-18-2.00976E-18
 -1       287 9.46829E-05-2.67390E-05-2.91192E-05-8.76331E-07-6.98844E-19 2.38842E-18
 -1       288 9.49186E-05-2.73716E-05-2.89485E-05-8.17207E-07-9.79990E-19 3.28856E-18
 -1       289 9.51338E-05-2.79302E-05-2.87995E-05-5.99546E-07-1.38571E-18 1.94323E-18
 -1       290 9.53205E-05-2.82548E-05-2.87402E-05-4.81730E-07-6.21042E-19 1.66532E-18
 -1       291 1.30106E-05-4.90301E-05 1.19470E-05 8.08697E-06 5.51630E-20 2.31304E-18
 -1       292 2.65077E-05-4.18756E-05 4.00819E-06 2.33400E-05 1.11152E-18 4.19318E-18
 -1       293 5.36677E-05-3.61128E-05-9.06882E-06 3.64623E-05 3.29263E-18 3.85432E-18
 -1       294 9.69118E-05-3.56442E-05-2.64897E-05 4.38299E-05 3.32672E-18-3.87941E-19
 -1       295 1.35792E-04-2.87952E-05-4.46196E-05 4.76707E-05 3.46775E-18 2.64253E-18
 -1       296 1.72989E-04-3.15412E-05-5.86580E-05 3.02174E-05 3.74304E-18-6.45863E-20
 -1       297 2.04608E-04-3.53848E-05-6.91409E-05 1.85660E-05 2.22939E-18-7.65083E-19
 -1       298 2.02893E-04-3.21794E-05-7.01338E-05-5.11949E-06 1.83393E-18-2.79831E-18
 -1       299 1.93500E-04-3.38967E-05-6.52536E-05-3.05303E-05 2.40420E-18-3.85527E-18
 -1       300 1.58068E-04-2.99956E-05-5.28768E-05-4.47960E-05 3.79518E-18-4.09943E-18
 -1       301 1.17463E-04-3.21679E-05-3.60943E-05-4.50548E-05 2.49282E-18-4.46577E-18
 -1       302 7.25114E-05-3.07018E-05-1.88066E-05-4.19088E-05 1.54202E-18-4.27582E-18
 -1       303 4.08845E-05-3.76081E-05-3.58990E-06-3.00887E-05 6.53909E-19-3.37180E-18
 -1       304 1.99492E-05-4.38214E-05 7.40805E-06-1.83331E-05-7.35860E-19-3.77671E-19
 -1       305 9.53492E-06-4.17462E-05 1.13329E-05-4.42680E-06-9.01031E-19-3.31402E-19
 -1       306 1.51576E-05-4.05078E-05 8.64162E-06 1.45092E-05-8.37504E-19-1.90646E-18
 -1       307 3.32553E-05-4.16149E-05 9.50795E-07 2.38499E-05-1.98290E-18-4.59235E-18
 -1       308 6.90942E-05-3.87639E-05-1.42239E-05 3.86500E-05-2.59933E-18-6.59087E-18
 -1       309 1.16499E-04-4.25255E-05-3.17533E-05 3.97055E-05-3.92346E-18-5.43393E-18
 -1       310 1.53690E-04-3.45191E-05-4.95880E-05 4.08174E-05-4.75249E-18-5.58661E-18
 -1       311 1.84499E-04-3.37515E-05-6.26026E-05 1.90368E-05-4.98913E-18-3.21894E-18
 -1       312 2.15259E-04-3.79690E-05-7.20704E-05 1.00874E-05-4.43877E-18-1.58840E-18
 -1       313 2.10511E-04-3.60994E-05-7.10824E-05-1.19339E-05-3.16388E-18 7.78953E-19
 -1       314 1.89653E-04-3.58657E-05-6.28423E-05-3.43642E-05-1.58247E-18 2.76048E-18
 -1       315 1.46428E-04-3.24400E-05-4.73688E-05-4.55808E-05-1.68983E-18 3.07875E-18
 -1       316 9.83616E-05-3.20783E-05-2.86825E-05-4.43379E-05-3.32460E-19 4.86811E-18
 -1       317 6.12214E-05-4.01203E-05-1.05563E-05-3.65076E-05-1.38066E-18-5.12296E-19
 -1       318 2.66653E-05-4.40578E-05 4.47018E-06-1.94584E-05-2.47736E-18-3.30872E-21
 -1       319 1.21674E-05-4.74494E-05 1.17705E-05-5.85211E-06-1.77083E-18 2.59880E-18
 -1       320 9.16345E-05-1.43909E-05-3.31677E-05-1.30653E-05-1.42238E-18-1.32181E-18
 -1       321 9.56626E-05-1.90975E-05-3.28767E-05-1.46357E-05-1.71602E-18-5.58896E-19
 -1       322 8.80354E-05-1.03770E-05-3.33356E-05-8.14979E-06-6.10441E-19-2.12167E-18
 -1       323 8.72309E-05-9.45272E-06-3.33815E-05-5.71444E-06-2.86932E-19-2.23872E-18
 -1       324 8.67791E-05-8.92201E-06-3.34122E-05-3.36449E-06 7.71917E-20-2.20909E-18
 -1       325 8.65775E-05-8.68122E-06-3.34276E-05-1.07131E-06 4.54261E-19-2.14142E-18
 -1       326 8.65858E-05-8.69061E-06-3.34272E-05 1.20301E-06 7.47440E-19-1.98562E-18
 -1       327 8.68056E-05-8.95232E-06-3.34108E-05 3.49823E-06 1.02961E-18-1.85182E-18
 -1       328 8.72697E-05-9.49750E-06-3.33796E-05 5.81271E-06 1.33008E-18-1.75703E-18
 -1       329 8.80958E-05-1.04496E-05-3.33323E-05 8.25274E-06 1.70856E-18-1.33465E-18
 -1       330 8.94920E-05-1.20317E-05-3.32639E-05 1.07636E-05 1.98149E-18-7.79227E-19
 -1       331 9.18872E-05-1.47170E-05-3.31540E-05 1.31712E-05 2.07022E-18 3.03939E-20
 -1       332 9.57595E-05-1.94446E-05-3.28141E-05 1.43802E-05 1.91839E-18 1.53347E-18
 -1       333 9.87257E-05-2.44251E-05-3.19312E-05 1.19036E-05 1.60641E-18 2.93232E-18
 -1       334 9.63259E-05-2.67922E-05-2.97706E-05 5.74595E-06 1.26293E-18 2.33775E-18
 -1       335 9.63865E-05-2.60111E-05-3.01171E-05-6.35213E-06-1.22879E-18-3.79620E-19
 -1       336 9.48743E-05-2.70112E-05-2.90587E-05-2.83038E-06-8.74691E-19-3.87540E-19
 -1       337 9.39062E-05-2.74070E-05-2.84850E-05-9.08268E-07-4.61694E-19-4.16556E-19
 -1       338 9.34015E-05-2.76181E-05-2.81861E-05 1.71144E-07-3.54095E-19-4.14413E-19
 -1       339 9.32345E-05-2.77711E-05-2.80528E-05 7.66289E-07-3.48276E-19-4.32004E-19
 -1       340 9.32906E-05-2.79017E-05-2.80225E-05 1.07945E-06-3.52626E-19-5.02377E-19
 -1       341 9.34888E-05-2.80199E-05-2.80576E-05 1.23308E-06-4.92380E-19-6.09156E-19
 -1       342 9.37772E-05-2.81279E-05-2.81352E-05 1.30655E-06-6.96308E-19-6.50593E-19
 -1       343 9.41265E-05-2.82274E-05-2.82422E-05 1.35507E-06-1.08447E-18-6.32942E-19
 -1       344 9.45245E-05-2.83206E-05-2.83726E-05 1.41957E-06-5.61038E-19-7.05493E-19
 -1       345 9.49722E-05-2.84111E-05-2.85253E-05 1.53259E-06 1.05609E-19-7.12251E-19
 -1       346 9.54810E-05-2.85037E-05-2.87031E-05 1.72183E-06 4.76914E-19-5.58336E-19
 -1       347 9.60702E-05-2.86049E-05-2.89115E-05 2.01237E-06 1.01717E-19-6.25633E-19
 -1       348 9.67660E-05-2.87228E-05-2.91584E-05 2.42762E-06 2.79130E-19-8.98019E-19
 -1       349 9.75999E-05-2.88682E-05-2.94525E-05 2.98870E-06-1.34240E-19-9.54536E-19
 -1       350 9.86078E-05-2.90564E-05-2.98029E-05 3.71136E-06-7.33564E-20-1.14431E-18
 -1       351 9.98289E-05-2.93109E-05-3.02164E-05 4.59893E-06-8.41641E-19-3.92570E-19
 -1       352 1.01306E-04-2.96697E-05-3.06954E-05 5.62850E-06-7.17659E-19-5.07079E-19
 -1       353 1.03085E-04-3.01962E-05-3.12334E-05 6.72696E-06 3.74508E-19-3.80726E-20
 -1       354 1.05222E-04-3.09935E-05-3.18105E-05 7.73295E-06 7.34313E-19-4.56986E-19
 -1       355 1.07783E-04-3.22156E-05-3.23906E-05 8.34445E-06 7.70360E-19 9.02119E-20
 -1       356 1.10841E-04-3.40495E-05-3.29245E-05 8.06557E-06 1.05114E-18 7.03295E-19
 -1       357 1.14413E-04-3.66066E-05-3.33707E-05 6.20267E-06 5.30092E-19 8.68104E-19
 -1       358 1.18280E-04-3.96301E-05-3.37410E-05 2.03097E-06 3.33410E-19 3.64262E-19
 -1       359 1.21618E-04-4.19917E-05-3.41645E-05-4.64648E-06 4.14399E-19 7.60609E-19
 -1       360 1.22747E-04-4.14352E-05-3.48855E-05-1.23025E-05 1.93749E-19 7.45414E-20
 -1       361 1.20110E-04-3.60998E-05-3.60902E-05-1.67622E-05-6.61050E-19-1.26028E-19
 -1       362 1.14851E-04-2.77820E-05-3.74320E-05-1.28195E-05-1.11499E-18-1.37999E-18
 -1       363 1.11819E-04-2.32824E-05-3.80971E-05-3.96712E-07-6.14284E-19-1.57898E-18
 -1       364 1.14526E-04-2.73237E-05-3.74954E-05 1.22578E-05 3.69650E-20-1.04987E-18
 -1       365 1.19835E-04-3.56516E-05-3.61572E-05 1.67628E-05 3.86065E-19 7.92619E-19
 -1       366 1.22668E-04-4.12680E-05-3.49308E-05 1.26490E-05 4.86316E-19 5.29759E-19
 -1       367 1.21704E-04-4.20430E-05-3.41766E-05 5.02337E-06 3.52147E-19 1.25145E-18
 -1       368 1.18430E-04-3.97802E-05-3.37418E-05-1.77223E-06 3.33104E-19 1.21326E-18
 -1       369 1.14549E-04-3.67511E-05-3.33683E-05-6.09652E-06-1.09806E-18 2.64532E-18
 -1       370 1.10934E-04-3.41507E-05-3.29219E-05-8.07854E-06 9.50178E-19 3.50115E-18
 -1       371 1.07828E-04-3.22718E-05-3.23865E-05-8.43289E-06 2.01604E-19 7.53588E-19
 -1       372 1.05222E-04-3.10129E-05-3.18028E-05-7.86055E-06-1.83307E-18 7.76618E-19
 -1       373 1.03047E-04-3.01865E-05-3.12211E-05-6.86564E-06-1.81021E-18 3.10161E-18
 -1       374 1.01236E-04-2.96359E-05-3.06798E-05-5.75506E-06 8.12965E-19 4.88892E-18
 -1       375 9.97374E-05-2.92544E-05-3.02011E-05-4.69000E-06 1.54055E-18 4.16084E-18
 -1       376 9.85096E-05-2.89758E-05-2.97948E-05-3.73805E-06 2.07600E-18 4.09675E-18
 -1       377 9.75145E-05-2.87586E-05-2.94620E-05-2.91123E-06 8.84098E-19 2.39665E-18
 -1       378 9.67188E-05-2.85773E-05-2.91992E-05-2.19111E-06-5.34644E-19 2.54851E-18
 -1       379 9.60941E-05-2.84173E-05-2.89999E-05-1.54679E-06-3.87327E-19 3.27197E-18
 -1       380 9.56642E-05-2.83196E-05-2.88589E-05-9.90831E-07 1.00059E-19 3.17713E-18
 -1       381 9.43090E-05-2.73205E-05-2.86711E-05 2.46952E-06 1.14310E-18 1.80060E-18
 -1       382 9.31094E-05-2.74402E-05-2.81220E-05 7.36292E-07 7.12311E-19 1.45167E-18
 -1       383 9.25685E-05-2.75187E-05-2.78684E-05-1.98745E-07 3.97603E-19 1.38792E-18
 -1       384 9.24495E-05-2.76138E-05-2.77823E-05-6.96524E-07 7.83694E-20 1.10285E-18
 -1       385 9.25893E-05-2.77284E-05-2.77956E-05-9.47670E-07 4.03229E-19 6.03659E-19
 -1       386 9.28826E-05-2.78544E-05-2.78684E-05-1.06067E-06 7.60244E-19 5.56855E-19
 -1       387 9.32654E-05-2.79844E-05-2.79772E-05-1.10317E-06 7.19508E-19 4.50004E-19
 -1       388 9.37027E-05-2.81151E-05-2.81088E-05-1.12027E-06 1.66467E-19 5.46674E-19
 -1       389 9.41797E-05-2.82463E-05-2.82568E-05-1.14353E-06 7.02270E-19 4.78518E-19
 -1       390 9.46962E-05-2.83811E-05-2.84202E-05-1.19558E-06 3.59405E-19 9.18684E-19
 -1       391 9.52624E-05-2.85251E-05-2.86008E-05-1.29244E-06 2.32459E-19 9.51780E-19
 -1       392 9.58953E-05-2.86858E-05-2.88028E-05-1.44419E-06-6.04338E-20 1.17904E-18
 -1       393 9.66162E-05-2.88730E-05-2.90311E-05-1.65441E-06 1.48695E-19 1.01140E-18
 -1       394 9.74469E-05-2.90979E-05-2.92906E-05-1.91801E-06 6.56109E-19 3.80689E-19
 -1       395 9.84059E-05-2.93731E-05-2.95837E-05-2.21757E-06 1.05535E-18-1.65176E-19
 -1       396 9.95030E-05-2.97119E-05-2.99092E-05-2.51790E-06 6.90027E-19 9.53561E-20
 -1       397 1.00732E-04-3.01266E-05-3.02594E-05-2.75932E-06-5.00391E-19 1.02919E-19
 -1       398 1.02062E-04-3.06255E-05-3.06176E-05-2.85108E-06-7.03155E-19-7.32596E-19
 -1       399 1.03426E-04-3.12056E-05-3.09561E-05-2.66881E-06-3.29224E-19-5.33872E-19
 -1       400 1.04708E-04-3.18404E-05-3.12363E-05-2.06366E-06 1.18197E-18 5.93524E-19
 -1       401 1.05729E-04-3.24599E-05-3.14117E-05-8.95265E-07-1.96240E-19 5.59238E-19
 -1       402 1.06255E-04-3.29281E-05-3.14382E-05 8.98105E-07-1.96930E-18 9.93831E-19
 -1       403 1.06013E-04-3.30308E-05-3.12892E-05 3.18887E-06-7.88053E-19 1.98694E-18
 -1       404 1.04776E-04-3.25142E-05-3.09752E-05 5.53629E-06 2.31850E-19 1.16751E-18
 -1       405 1.02528E-04-3.12312E-05-3.05548E-05 7.15731E-06 7.05928E-19 2.11317E-18
 -1       406 9.96627E-05-2.93507E-05-3.01259E-05 7.15236E-06-1.14845E-18 1.77883E-18
 -1       407 9.70343E-05-2.74801E-05-2.97962E-05 5.00051E-06 1.58427E-19 1.93624E-18
 -1       408 9.56769E-05-2.64628E-05-2.96468E-05 1.09545E-06 3.84718E-19 2.57508E-18
 -1       409 9.62057E-05-2.68347E-05-2.97125E-05-3.21832E-06 1.32716E-19 7.97192E-19
 -1       410 9.83791E-05-2.83975E-05-2.99771E-05-6.35027E-06 1.19531E-18 2.49676E-20
 -1       411 1.01273E-04-3.03812E-05-3.03743E-05-7.38907E-06 3.27500E-19 3.07877E-19
 -1       412 1.03880E-04-3.20053E-05-3.08046E-05-6.45095E-06 1.18054E-18 3.97206E-19
 -1       413 1.05578E-04-3.28822E-05-3.11643E-05-4.33238E-06 1.35548E-18 4.63301E-19
 -1       414 1.06223E-04-3.30377E-05-3.13783E-05-1.92562E-06 1.66766E-18 7.06805E-19
 -1       415 1.05976E-04-3.27005E-05-3.14170E-05 1.54304E-07 4.26271E-19 8.60333E-19
 -1       416 1.05108E-04-3.21154E-05-3.12930E-05 1.63736E-06-7.24798E-19 1.57638E-18
 -1       417 1.03882E-04-3.14600E-05-3.10450E-05 2.50739E-06-3.06905E-18 3.30008E-19
 -1       418 1.02507E-04-3.08342E-05-3.07203E-05 2.87687E-06-6.23275E-19-1.39876E-21
 -1       419 1.01126E-04-3.02823E-05-3.03624E-05 2.89377E-06-5.35897E-19 2.01222E-18
 -1       420 9.98315E-05-2.98160E-05-3.00055E-05 2.69162E-06-3.11014E-18 2.61174E-18
 -1       421 9.86744E-05-2.94310E-05-2.96735E-05 2.37010E-06 1.62718E-18 3.09761E-18
 -1       422 9.76792E-05-2.91167E-05-2.93811E-05 1.99229E-06 1.85217E-18 3.01842E-18
 -1       423 9.68541E-05-2.88613E-05-2.91367E-05 1.59069E-06 2.41461E-19 3.33998E-18
 -1       424 9.61955E-05-2.86528E-05-2.89441E-05 1.17518E-06 8.37616E-19 2.75589E-18
 -1       425 9.56961E-05-2.84894E-05-2.88005E-05 7.46544E-07 4.61845E-19 2.74903E-18
 -1       426 9.54531E-05-2.84013E-05-2.87347E-05 5.00390E-07-6.43321E-19 2.18889E-18
 -1       427 9.49020E-05-2.71948E-05-2.90167E-05 1.42476E-06-9.55547E-19-2.22185E-18
 -1       428 9.52025E-05-2.77329E-05-2.89135E-05 1.22290E-06-4.16196E-19-1.05404E-18
 -1       429 9.53676E-05-2.81042E-05-2.88247E-05 8.83734E-07-1.10413E-19 1.88467E-18
 -1       430 9.46049E-05-2.66600E-05-2.91197E-05 1.42769E-06-2.42275E-18-4.65536E-18
 -1       431 9.43294E-05-2.61631E-05-2.92155E-05 1.23134E-06-2.56529E-18-6.75377E-19
 -1       432 9.41121E-05-2.57720E-05-2.92908E-05 8.62621E-07-8.98186E-19-1.06905E-18
 -1       433 9.39783E-05-2.55350E-05-2.93355E-05 3.68426E-07-1.04065E-18-1.52594E-18
 -1       434 9.39471E-05-2.54857E-05-2.93434E-05-1.87883E-07-1.26490E-18 2.18445E-18
 -1       435 9.40281E-05-2.56365E-05-2.93131E-05-7.31100E-07-1.32394E-18 1.96023E-19
 -1       436 9.42133E-05-2.59671E-05-2.92501E-05-1.17481E-06-2.65565E-19-1.73602E-18
 -1       437 9.44918E-05-2.64518E-05-2.91608E-05-1.46099E-06 7.43133E-19 2.54891E-18
 -1       438 9.48301E-05-2.70284E-05-2.90574E-05-1.52469E-06 5.87832E-19 2.69427E-18
 -1       439 9.51846E-05-2.76287E-05-2.89505E-05-1.34434E-06-4.59058E-19 1.47394E-18
 -1       440 5.86466E-05-4.03100E-05-7.85615E-06 4.41515E-05-1.86803E-18 3.49904E-18
 -1       441 1.12312E-05-2.29326E-05 4.69540E-06 2.32620E-06-1.50242E-19 3.54229E-18
 -1       442 2.37151E-05-2.79400E-05 1.55780E-06 2.77430E-05-2.74968E-19 2.90013E-18
 -1       443 9.81940E-05-5.28870E-05-1.94579E-05 4.20650E-05 1.90582E-20-2.23704E-18
 -1       444 1.35071E-04-5.25667E-05-3.52768E-05 2.45059E-05 5.68306E-19-3.90694E-19
 -1       445 8.93472E-05-1.18552E-05-3.32849E-05-1.06887E-05-1.00166E-18-1.90012E-18
 -1       446 1.55347E-04-2.09099E-05-5.75454E-05-1.43641E-06 3.00210E-18-2.04569E-18
 -1       447 1.55314E-04-1.18839E-05-6.14043E-05-8.51608E-07 3.19596E-18-1.05241E-18
 -1       448 1.61089E-04-1.78495E-05-6.11016E-05-2.98532E-07 2.50711E-18-1.00718E-18
 -1       449 1.53938E-04-3.07873E-05-5.27533E-05-2.34474E-06 1.39194E-18-1.27341E-18
 -1       450 1.45039E-04-4.57284E-05-4.24246E-05-1.79554E-05 1.50049E-18-1.28220E-19
 -1       451 1.15767E-04-5.28718E-05-2.70357E-05-3.59578E-05-3.73436E-19-3.05535E-18
 -1       452 7.97621E-05-4.71241E-05-1.41840E-05-4.42167E-05-1.11597E-18-4.16417E-18
 -1       453 4.55064E-05-3.60383E-05-4.18210E-06-4.05371E-05-1.25477E-18-2.61400E-18
 -1       454 1.98746E-05-2.30640E-05 1.40940E-06-2.23479E-05-7.79323E-19 3.50248E-19
 -1       455 1.52257E-05-1.94983E-05 2.01718E-06 7.95323E-06-1.10550E-18-1.93674E-18
 -1       456 3.80470E-05-3.35802E-05-2.06352E-06 3.46609E-05-1.37601E-18-3.99800E-18
 -1       457 7.08475E-05-4.63200E-05-1.06920E-05 4.25252E-05 1.53842E-19-5.35182E-18
 -1       458 1.12313E-04-5.72452E-05-2.36231E-05 3.58420E-05-4.13564E-19-3.69047E-18
 -1       459 1.44852E-04-5.16997E-05-3.98980E-05 1.72303E-05-2.72726E-18-1.94606E-18
 -1       460 1.58958E-04-3.98222E-05-5.09906E-05 1.74540E-06-3.86469E-18-2.81564E-18
 -1       461 1.60380E-04-1.90417E-05-6.04992E-05-3.59177E-06-5.50868E-18-9.86423E-19
 -1       462 1.62872E-04-1.45786E-05-6.32791E-05 2.50728E-07-4.58510E-18-1.58667E-18
 -1       463 1.63551E-04-2.40253E-05-5.95830E-05 3.08629E-06-5.85723E-19-2.88732E-18
 -1       464 1.59602E-04-4.11197E-05-5.05712E-05-6.40773E-06 5.09464E-19-2.39996E-18
 -1       465 1.40059E-04-5.47300E-05-3.65664E-05-2.22109E-05 1.48919E-18-4.61633E-19
 -1       466 1.04967E-04-5.37219E-05-2.21089E-05-3.78013E-05 7.01661E-19 2.17036E-18
 -1       467 5.94011E-05-4.16505E-05-7.65494E-06-4.14352E-05 4.69997E-19-1.93663E-18
 -1       468 2.69887E-05-3.00285E-05 1.00848E-06-2.79325E-05 8.00870E-19-1.75336E-18
 -1       469 1.49379E-04-4.13469E-05-4.63895E-05 8.63149E-06 2.31652E-18-1.56923E-18
 -1       470 9.30602E-05-5.30271E-05-1.70111E-05-4.08474E-05 2.55222E-19-1.05786E-19
 -1       471 1.48109E-04-2.72202E-05-5.22125E-05-1.18971E-05-4.97155E-18-1.33900E-18
 -1       472 1.35629E-04-6.23730E-05-3.14801E-05 1.84064E-05-3.26955E-19-2.81226E-18
 -1       473 9.57873E-05-2.51338E-05-3.02658E-05 6.01540E-06 1.42547E-18 6.26597E-19
 -1       474 8.95818E-05-1.33891E-05-3.26729E-05-3.91697E-06-3.43200E-20-1.96127E-18
 -1       475 9.02776E-05-1.43528E-05-3.25596E-05-5.87761E-06-4.28382E-19-1.83907E-18
 -1       476 8.90888E-05-1.27044E-05-3.27539E-05 5.50327E-08 5.39537E-19-1.86208E-18
 -1       477 8.92225E-05-1.28888E-05-3.27325E-05 2.04152E-06 7.72934E-19-1.69483E-18
 -1       478 8.96125E-05-1.34286E-05-3.26694E-05 3.99087E-06 1.12413E-18-1.59132E-18
 -1       479 9.03280E-05-1.44186E-05-3.25536E-05 5.94331E-06 1.49687E-18-1.25495E-18
 -1       480 9.14625E-05-1.59999E-05-3.23642E-05 7.77238E-06 1.78055E-18-9.23992E-19
 -1       481 9.32308E-05-1.84710E-05-3.20601E-05 9.29122E-06 1.86417E-18-3.67463E-19
 -1       482 1.25359E-04-5.99525E-05-2.79653E-05 2.54923E-05 7.02984E-19-3.90350E-19
 -1       483 9.50853E-05-2.65594E-05-2.93502E-05 2.86139E-06 1.10658E-18 5.13473E-19
 -1       484 9.54538E-05-2.44057E-05-3.04387E-05-5.83628E-06-1.01375E-18-7.81788E-19
 -1       485 1.41878E-04-3.08694E-05-4.79875E-05-8.26034E-06 2.13802E-18-3.69825E-18
 -1       486 9.52622E-05-2.62141E-05-2.95855E-05-2.87972E-06-6.94836E-19-7.16230E-19
 -1       487 9.49131E-05-2.71342E-05-2.90445E-05-9.89618E-07-3.90594E-19-6.83375E-19
 -1       488 9.46530E-05-2.76564E-05-2.87112E-05 1.69136E-07-3.94624E-19-7.51895E-19
 -1       489 9.45194E-05-2.79697E-05-2.85206E-05 8.56604E-07-3.75871E-19-6.79686E-19
 -1       490 9.44973E-05-2.81642E-05-2.84282E-05 1.25035E-06-4.52190E-19-8.23783E-19
 -1       491 9.45599E-05-2.82835E-05-2.84041E-05 1.47260E-06-5.28775E-19-7.48757E-19
 -1       492 9.46845E-05-2.83506E-05-2.84288E-05 1.61022E-06-7.52767E-19-3.86470E-19
 -1       493 9.48556E-05-2.83786E-05-2.84900E-05 1.72715E-06-5.29493E-19 7.96006E-20
 -1       494 9.50652E-05-2.83759E-05-2.85809E-05 1.87249E-06-1.89012E-19 5.18645E-19
 -1       495 9.53114E-05-2.83478E-05-2.86982E-05 2.08586E-06 2.35580E-19 4.50354E-19
 -1       496 9.55967E-05-2.82984E-05-2.88414E-05 2.40091E-06 3.87392E-20-2.59468E-19
 -1       497 9.59272E-05-2.82313E-05-2.90114E-05 2.84732E-06-6.04515E-20-4.77168E-19
 -1       498 9.63115E-05-2.81516E-05-2.92099E-05 3.45136E-06-2.87764E-19 1.48706E-19
 -1       499 9.67607E-05-2.80687E-05-2.94375E-05 4.23448E-06-4.42017E-19-3.23603E-19
 -1       500 9.72906E-05-2.80025E-05-2.96926E-05 5.20932E-06-3.02304E-19-1.15210E-18
 -1       501 9.79267E-05-2.79933E-05-2.99688E-05 6.37165E-06-5.51532E-19-9.82790E-19
 -1       502 9.87170E-05-2.81196E-05-3.02534E-05 7.68639E-06 2.98393E-19 1.57380E-19
 -1       503 9.97550E-05-2.85247E-05-3.05253E-05 9.06489E-06 3.62463E-19-2.05762E-19
 -1       504 1.01219E-04-2.94509E-05-3.07576E-05 1.03297E-05 7.79850E-19 2.18785E-19
 -1       505 1.03420E-04-3.12618E-05-3.09280E-05 1.11612E-05 8.85911E-19-6.82364E-20
 -1       506 1.06824E-04-3.43944E-05-3.10490E-05 1.10221E-05 7.32692E-19-7.56927E-19
 -1       507 1.11935E-04-3.90971E-05-3.12291E-05 9.08330E-06-3.30624E-19-1.05835E-18
 -1       508 1.18874E-04-4.47919E-05-3.17670E-05 4.28837E-06 4.53080E-19-3.67549E-19
 -1       509 1.26317E-04-4.88255E-05-3.32546E-05-4.16470E-06 1.06718E-19 2.94949E-19
 -1       510 1.30215E-04-4.60836E-05-3.61915E-05-1.38057E-05 5.53766E-19 1.05413E-18
 -1       511 1.27819E-04-3.30732E-05-4.08773E-05-1.86042E-05-2.69325E-18 1.47172E-18
 -1       512 1.21929E-04-1.85438E-05-4.48646E-05-9.54325E-06-2.37325E-18-7.33189E-19
 -1       513 1.21289E-04-1.79133E-05-4.48467E-05 8.36097E-06-5.64812E-19-3.39494E-18
 -1       514 1.27269E-04-3.22841E-05-4.10829E-05 1.86956E-05 1.00466E-18-3.07311E-18
 -1       515 1.30401E-04-4.54986E-05-3.65346E-05 1.45027E-05 5.19185E-19-1.61074E-18
 -1       516 1.26550E-04-4.88427E-05-3.33405E-05 4.56300E-06 1.12548E-18-6.51292E-19
 -1       517 1.19229E-04-4.50704E-05-3.17999E-05-3.97336E-06 5.04703E-19 8.38108E-20
 -1       518 1.12227E-04-3.93902E-05-3.12290E-05-8.97809E-06 8.39077E-19 9.19312E-19
 -1       519 1.07005E-04-3.46019E-05-3.10390E-05-1.10474E-05-2.57461E-20 1.54677E-18
 -1       520 1.03517E-04-3.13867E-05-3.09167E-05-1.12651E-05-1.22235E-18 4.42737E-19
 -1       521 1.01258E-04-2.95112E-05-3.07487E-05-1.04756E-05 2.47363E-19 6.84543E-19
 -1       522 9.97561E-05-2.85378E-05-3.05203E-05-9.22435E-06-4.97097E-19 1.89288E-18
 -1       523 9.86940E-05-2.80962E-05-3.02536E-05-7.83575E-06 1.23149E-18 1.34406E-18
 -1       524 9.78884E-05-2.79357E-05-2.99771E-05-6.48733E-06 1.86681E-18 3.42736E-18
 -1       525 9.72428E-05-2.79047E-05-2.97138E-05-5.26296E-06 2.27836E-18 4.44084E-18
 -1       526 9.67069E-05-2.79173E-05-2.94791E-05-4.18964E-06 8.73760E-19 4.62861E-18
 -1       527 9.62507E-05-2.79238E-05-2.92810E-05-3.25824E-06 3.06068E-20 4.69229E-18
 -1       528 9.58592E-05-2.79038E-05-2.91217E-05-2.44483E-06-1.63543E-18 3.39645E-18
 -1       529 9.41419E-05-2.76589E-05-2.84891E-05-1.79710E-07 4.83524E-19 5.03607E-20
 -1       530 9.39908E-05-2.78995E-05-2.83234E-05-8.32619E-07 4.80343E-19-1.39884E-19
 -1       531 9.39983E-05-2.80640E-05-2.82570E-05-1.19288E-06 5.64366E-19-2.57479E-19
 -1       532 9.41165E-05-2.81829E-05-2.82571E-05-1.38332E-06 5.42253E-19 1.04321E-19
 -1       533 9.43104E-05-2.82712E-05-2.83025E-05-1.48698E-06 9.94563E-20 4.95310E-19
 -1       534 9.45584E-05-2.83382E-05-2.83801E-05-1.56203E-06 6.29512E-19 2.31741E-19
 -1       535 9.48506E-05-2.83912E-05-2.84824E-05-1.65020E-06 3.42377E-19 2.31702E-19
 -1       536 9.51858E-05-2.84379E-05-2.86058E-05-1.78141E-06 1.96373E-19 2.25011E-19
 -1       537 9.55701E-05-2.84870E-05-2.87492E-05-1.97612E-06-2.09283E-19 1.14373E-20
 -1       538 9.60148E-05-2.85497E-05-2.89128E-05-2.24570E-06-1.00669E-20-1.04348E-19
 -1       539 9.65356E-05-2.86407E-05-2.90967E-05-2.59107E-06 7.34614E-19 2.67405E-19
 -1       540 9.71511E-05-2.87801E-05-2.93007E-05-2.99944E-06 1.05149E-18-2.73297E-19
 -1       541 9.78823E-05-2.89953E-05-2.95220E-05-3.43907E-06 6.43069E-19 8.58473E-19
 -1       542 9.87517E-05-2.93219E-05-2.97550E-05-3.85206E-06 4.88295E-20 8.57547E-19
 -1       543 9.97813E-05-2.98039E-05-2.99907E-05-4.14611E-06-1.16481E-19 1.83338E-19
 -1       544 1.00988E-04-3.04878E-05-3.02163E-05-4.18744E-06-4.34798E-19-7.37470E-20
 -1       545 1.02373E-04-3.14066E-05-3.04182E-05-3.80038E-06-3.29535E-19-2.99253E-19
 -1       546 1.03898E-04-3.25448E-05-3.05862E-05-2.78402E-06 3.21680E-19 7.30676E-19
 -1       547 1.05445E-04-3.37810E-05-3.07214E-05-9.64632E-07-1.02650E-18 1.34038E-18
 -1       548 1.06769E-04-3.48213E-05-3.08437E-05 1.69932E-06-1.49213E-18 3.42176E-19
 -1       549 1.07463E-04-3.51596E-05-3.09929E-05 4.95167E-06 1.89832E-19 1.96661E-19
 -1       550 1.07043E-04-3.41935E-05-3.12184E-05 8.03130E-06 1.08071E-20 7.66868E-19
 -1       551 1.05291E-04-3.16731E-05-3.15430E-05 9.67970E-06-4.26497E-19 1.35594E-18
 -1       552 1.02646E-04-2.81600E-05-3.19161E-05 8.58956E-06-5.67053E-19 8.47118E-19
 -1       553 1.00376E-04-2.52276E-05-3.22019E-05 4.37988E-06-1.48201E-19 1.12806E-18
 -1       554 9.98589E-05-2.45684E-05-3.22622E-05-1.63687E-06 8.98226E-19 4.73346E-19
 -1       555 1.01440E-04-2.66078E-05-3.20651E-05-6.95093E-06 1.18196E-18 1.55233E-20
 -1       556 1.04092E-04-3.00841E-05-3.17137E-05-9.53573E-06 5.04680E-19 2.12389E-19
 -1       557 1.06370E-04-3.32149E-05-3.13516E-05-9.02070E-06 5.47549E-19-1.94156E-20
 -1       558 1.07403E-04-3.49077E-05-3.10722E-05-6.41509E-06 7.94650E-19 8.22843E-19
 -1       559 1.07157E-04-3.51012E-05-3.08885E-05-3.10729E-06 1.09437E-18 1.06827E-18
 -1       560 1.06058E-04-3.43142E-05-3.07568E-05-1.01534E-07 1.68006E-18 1.12009E-18
 -1       561 1.04559E-04-3.31117E-05-3.06282E-05 2.12931E-06 2.94248E-19 7.29209E-19
 -1       562 1.02988E-04-3.18948E-05-3.04737E-05 3.50754E-06-1.07724E-18 4.77291E-19
 -1       563 1.01516E-04-3.08571E-05-3.02852E-05 4.16235E-06-2.77472E-18-5.15990E-19
 -1       564 1.00214E-04-3.00532E-05-3.00697E-05 4.28784E-06-1.67559E-18 1.09424E-18
 -1       565 9.90960E-05-2.94652E-05-2.98413E-05 4.06949E-06-2.01464E-18 1.65556E-18
 -1       566 9.81529E-05-2.90474E-05-2.96153E-05 3.65334E-06 5.79347E-19-9.58913E-19
 -1       567 9.73666E-05-2.87510E-05-2.94049E-05 3.14048E-06 1.06615E-18 1.36271E-19
 -1       568 9.67170E-05-2.85310E-05-2.92198E-05 2.59340E-06 1.20091E-18 5.61671E-19
 -1       569 9.61841E-05-2.83576E-05-2.90658E-05 2.03400E-06 1.43933E-19 9.39240E-19
 -1       570 9.57358E-05-2.82075E-05-2.89386E-05 1.47241E-06 4.74898E-19 1.61133E-18
 -1       571 9.43143E-05-2.63989E-05-2.91070E-05 1.85836E-06 2.92365E-19-2.03732E-18
 -1       572 9.39347E-05-2.59260E-05-2.91474E-05 1.46640E-06 7.37112E-19 1.28616E-18
 -1       573 9.52004E-05-2.75167E-05-2.90072E-05 1.91419E-06 2.31539E-19-2.95555E-18
 -1       574 9.47519E-05-2.69474E-05-2.90583E-05 2.00677E-06-1.97045E-18-4.05333E-18
 -1       575 9.36578E-05-2.55817E-05-2.91766E-05 8.75146E-07-4.68031E-19-1.99454E-18
 -1       576 9.35193E-05-2.54094E-05-2.91912E-05 1.54056E-07 2.59676E-19 6.99078E-19
 -1       577 9.35446E-05-2.54372E-05-2.91901E-05-6.06719E-07-5.60161E-19 9.53306E-19
 -1       578 9.37374E-05-2.56664E-05-2.91743E-05-1.29361E-06 4.23715E-19 9.39788E-19
 -1       579 9.40930E-05-2.60878E-05-2.91456E-05-1.82782E-06 1.16443E-18-1.25823E-18
 -1       580 9.45751E-05-2.66582E-05-2.91078E-05-2.11162E-06-3.95151E-19 1.23772E-18
 -1       581 9.51219E-05-2.73113E-05-2.90612E-05-2.08737E-06-1.03693E-18 2.78916E-18
 -1       582 2.42056E-05-1.59902E-05-2.99253E-06 1.68180E-05-7.80806E-19 2.14426E-18
 -1       583 8.75306E-05-4.78539E-05-1.67126E-05 4.26498E-05-2.00678E-18 7.39989E-19
 -1       584 9.45034E-05-2.72716E-05-2.88049E-05 9.52865E-07 7.43585E-19 2.90959E-19
 -1       585 2.61612E-05-1.55993E-05-3.95640E-06-1.54441E-05 1.26997E-18 8.95208E-19
 -1       586 4.88362E-05-2.85596E-05-8.21755E-06 3.81608E-05-2.23500E-18 2.27958E-18
 -1       587 1.40727E-04-5.19924E-05-3.82785E-05 5.30063E-06 8.70710E-19-2.59944E-18
 -1       588 1.00538E-04-5.41239E-05-1.96333E-05 3.71948E-05 6.02346E-19-3.90307E-18
 -1       589 3.66494E-05-2.04657E-05-6.35542E-06 2.58872E-05-7.23366E-19-3.01110E-18
 -1       590 8.92033E-05-1.28642E-05-3.27348E-05-1.93211E-06 3.33588E-19-1.94447E-18
 -1       591 1.39457E-04-2.00063E-05-5.16724E-05 9.17450E-06 1.75653E-18-3.44107E-21
 -1       592 1.34782E-04-1.19618E-05-5.32003E-05-7.41126E-06 2.06210E-18-3.95040E-18
 -1       593 1.32179E-04-7.65397E-06-5.39855E-05 3.65757E-06 1.70614E-18-1.53088E-18
 -1       594 1.42301E-04-4.27210E-05-4.30448E-05 3.53249E-06-7.58624E-20 8.53862E-19
 -1       595 1.35528E-04-5.74171E-05-3.35661E-05-1.61775E-05-7.92029E-19 1.30867E-18
 -1       596 1.07579E-04-5.61791E-05-2.19374E-05-3.72888E-05-2.26380E-18-2.09588E-18
 -1       597 7.67571E-05-4.37585E-05-1.37879E-05-4.39541E-05-1.73340E-18-2.52718E-18
 -1       598 4.55867E-05-2.50685E-05-8.22719E-06-3.51468E-05-1.34106E-18-1.63424E-18
 -1       599 2.43736E-05-1.32678E-05-4.16669E-06-9.02313E-06-9.70753E-19 3.17637E-19
 -1       600 6.56190E-05-3.82114E-05-1.13348E-05 4.02175E-05-8.13628E-19-4.21754E-18
 -1       601 1.48048E-04-3.33561E-05-4.95271E-05 1.27563E-05 5.53960E-19-2.73840E-18
 -1       602 1.47082E-04-5.03081E-05-4.17541E-05-3.89145E-06-2.31628E-18-1.01512E-18
 -1       603 1.38937E-04-1.23738E-05-5.48171E-05-5.24132E-06-4.36254E-18-1.95855E-18
 -1       604 1.36944E-04-1.47442E-05-5.30225E-05 8.67363E-06-1.40332E-18-3.59317E-18
 -1       605 1.48135E-04-5.34056E-05-4.08552E-05 1.11275E-06 1.01811E-18-3.06266E-18
 -1       606 1.30858E-04-6.25730E-05-2.92942E-05-2.20597E-05 1.07938E-18-1.50084E-20
 -1       607 5.21971E-05-3.10267E-05-8.55195E-06-3.67705E-05 5.56712E-19-1.14545E-18
 -1       608 9.45636E-05-2.06780E-05-3.16852E-05-9.57265E-06-1.37736E-18-9.98050E-19
 -1       609 9.61199E-05-2.31765E-05-3.12650E-05 9.58530E-06 1.75268E-18 9.76346E-19
 -1       610 9.13660E-05-1.58479E-05-3.23881E-05-7.75816E-06-7.48565E-19-1.78270E-18
 -1       611 1.41917E-04-3.98470E-05-4.40896E-05-1.64536E-05-2.54435E-18 1.12518E-18
 -1       612 3.49571E-05-1.26274E-05-8.96257E-06 1.00914E-05-8.21642E-19-2.54428E-18
 -1       613 7.86393E-05-4.18870E-05-1.53829E-05-3.88881E-05 2.13241E-19-5.98508E-19
 -1       614 1.21020E-04-6.01242E-05-2.60655E-05 2.49772E-05 1.13341E-18-2.78116E-18
 -1       615 9.56292E-05-2.78834E-05-2.90318E-05-1.93306E-06-9.15766E-19 2.19623E-18
 -1       616 9.15877E-05-1.68156E-05-3.20508E-05 2.42847E-06 7.50991E-19-1.38302E-18
 -1       617 9.13306E-05-1.64101E-05-3.21142E-05 8.36506E-07 6.47051E-19-1.66819E-18
 -1       618 9.29139E-05-1.89770E-05-3.16929E-05 5.24495E-06 1.34894E-18-8.43329E-19
 -1       619 9.39935E-05-2.09130E-05-3.13281E-05 6.12581E-06 1.65612E-18-6.10054E-19
 -1       620 1.14052E-04-5.74474E-05-2.40898E-05-2.90948E-05 8.73264E-19-1.31626E-19
 -1       621 9.52664E-05-2.40795E-05-3.04985E-05 5.13398E-06 1.38208E-18-3.10114E-19
 -1       622 9.54317E-05-2.56939E-05-2.98889E-05-2.39331E-06-5.94255E-19-1.07334E-18
 -1       623 9.54881E-05-2.68946E-05-2.93965E-05-7.89623E-07-3.93332E-19-1.12848E-18
 -1       624 9.54376E-05-2.76276E-05-2.90612E-05 2.62227E-07-2.78391E-19-1.11539E-18
 -1       625 9.53695E-05-2.80636E-05-2.88453E-05 9.23946E-07-3.68614E-19-1.14632E-18
 -1       626 9.53152E-05-2.83067E-05-2.87179E-05 1.32938E-06-3.93647E-19-8.75450E-19
 -1       627 9.52825E-05-2.84177E-05-2.86563E-05 1.58382E-06-1.23828E-19-6.80208E-19
 -1       628 9.52698E-05-2.84328E-05-2.86444E-05 1.76803E-06-1.15992E-19-1.02662E-19
 -1       629 9.52723E-05-2.83735E-05-2.86708E-05 1.94437E-06-7.07400E-20 2.33320E-19
 -1       630 9.52846E-05-2.82528E-05-2.87278E-05 2.16207E-06-2.49576E-19 5.04970E-20
 -1       631 9.53008E-05-2.80773E-05-2.88099E-05 2.46118E-06-2.85273E-19-8.17372E-20
 -1       632 9.53146E-05-2.78504E-05-2.89129E-05 2.87533E-06 1.41879E-21 8.95122E-20
 -1       633 9.53187E-05-2.75742E-05-2.90330E-05 3.43326E-06 1.83691E-19-4.69350E-19
 -1       634 9.53054E-05-2.72530E-05-2.91648E-05 4.15919E-06-6.93575E-19-5.43270E-19
 -1       635 9.52687E-05-2.68995E-05-2.93004E-05 5.07192E-06-8.65770E-19-1.85058E-19
 -1       636 9.52102E-05-2.65448E-05-2.94272E-05 6.18267E-06 1.56488E-20 6.85426E-19
 -1       637 9.51520E-05-2.62553E-05-2.95262E-05 7.49153E-06 1.37609E-19 5.06667E-19
 -1       638 9.51611E-05-2.61606E-05-2.95706E-05 8.98265E-06 8.41190E-20 5.82150E-19
 -1       639 9.53942E-05-2.64941E-05-2.95277E-05 1.06166E-05 4.69199E-19-1.23706E-20
 -1       640 9.61686E-05-2.76441E-05-2.93671E-05 1.23130E-05 5.47571E-19-1.22524E-18
 -1       641 9.80590E-05-3.01940E-05-2.90840E-05 1.39009E-05 2.39127E-19-9.19425E-19
 -1       642 1.01993E-04-3.48789E-05-2.87559E-05 1.49772E-05 1.71957E-19-1.15265E-18
 -1       643 1.09091E-04-4.21338E-05-2.86694E-05 1.45313E-05 6.23100E-19-7.87856E-20
 -1       644 1.20115E-04-5.10618E-05-2.95816E-05 1.06527E-05 1.30483E-18-4.21002E-20
 -1       645 1.34039E-04-5.74925E-05-3.28355E-05 1.11466E-06 1.15800E-18 2.06789E-18
 -1       646 1.40578E-04-4.69933E-05-4.04288E-05 1.25802E-05 1.02682E-18-2.51473E-18
 -1       647 1.33598E-04-5.61598E-05-3.32318E-05 2.85021E-07 9.02328E-19-2.14259E-18
 -1       648 1.21217E-04-5.14008E-05-2.99038E-05-9.47431E-06 1.36957E-18-1.81759E-18
 -1       649 1.10268E-04-4.27482E-05-2.89265E-05-1.38796E-05 1.25039E-18-1.32407E-18
 -1       650 1.02951E-04-3.54264E-05-2.89403E-05-1.46964E-05 9.78577E-19-1.14228E-18
 -1       651 9.88173E-05-3.06474E-05-2.92167E-05-1.38721E-05 7.73899E-19 8.30359E-19
 -1       652 9.67449E-05-2.79854E-05-2.94683E-05-1.24106E-05-1.33085E-18 2.29216E-18
 -1       653 9.58292E-05-2.67389E-05-2.96092E-05-1.07654E-05 7.07659E-19 1.62672E-18
 -1       654 9.54890E-05-2.63252E-05-2.96405E-05-9.13701E-06-3.40190E-20 4.33994E-18
 -1       655 9.53962E-05-2.63460E-05-2.95917E-05-7.62066E-06 1.29035E-18 1.90938E-18
 -1       656 9.53843E-05-2.65571E-05-2.94963E-05-6.25900E-06 3.01862E-18 5.75701E-19
 -1       657 9.53794E-05-2.68200E-05-2.93816E-05-5.06296E-06 2.00138E-18 4.08663E-19
 -1       658 9.53477E-05-2.70526E-05-2.92684E-05-4.02988E-06 1.54655E-18 1.16807E-18
 -1       659 9.52841E-05-2.72249E-05-2.91674E-05-3.12995E-06-1.99151E-18 1.11676E-18
 -1       660 9.50147E-05-2.80328E-05-2.87063E-05-9.09128E-07 5.43711E-19-2.90004E-19
 -1       661 9.54057E-05-2.75909E-05-2.90632E-05 2.56730E-06-4.68631E-19-4.23773E-18
 -1       662 9.51099E-05-2.76505E-05-2.89105E-05-2.35398E-07 5.16346E-19-3.94175E-19
 -1       663 9.49847E-05-2.83763E-05-2.85464E-05-1.54587E-06 2.82337E-19 2.84548E-20
 -1       664 9.50352E-05-2.84245E-05-2.85474E-05-1.70183E-06 5.91544E-19-3.31711E-19
 -1       665 9.51189E-05-2.84223E-05-2.85842E-05-1.83692E-06 4.18248E-19 2.00103E-20
 -1       666 9.52323E-05-2.83853E-05-2.86486E-05-1.99544E-06 2.53653E-19-1.95158E-19
 -1       667 9.53761E-05-2.83273E-05-2.87350E-05-2.20940E-06-6.48963E-20 2.25672E-19
 -1       668 9.55557E-05-2.82630E-05-2.88394E-05-2.50029E-06 4.92309E-20-7.86571E-21
 -1       669 9.57816E-05-2.82109E-05-2.89585E-05-2.87900E-06 2.56015E-19-4.17013E-19
 -1       670 9.60710E-05-2.81966E-05-2.90886E-05-3.34416E-06 7.12605E-19-2.23027E-19
 -1       671 9.64499E-05-2.82569E-05-2.92251E-05-3.87850E-06 9.70886E-20 4.57316E-19
 -1       672 9.69563E-05-2.84438E-05-2.93621E-05-4.44324E-06 1.15910E-19 1.06633E-18
 -1       673 9.76448E-05-2.88280E-05-2.94927E-05-4.97042E-06 3.94898E-19 9.90747E-19
 -1       674 9.85887E-05-2.94980E-05-2.96106E-05-5.35351E-06-7.98813E-20 9.09450E-19
 -1       675 9.98782E-05-3.05492E-05-2.97134E-05-5.43754E-06-2.84397E-19 7.89243E-19
 -1       676 1.01602E-04-3.20515E-05-2.98094E-05-5.01277E-06-5.75681E-19 4.40560E-19
 -1       677 1.03800E-04-3.39786E-05-2.99264E-05-3.82194E-06-5.14929E-19 1.43700E-18
 -1       678 1.06359E-04-3.60850E-05-3.01219E-05-1.61722E-06-1.35998E-18 1.64220E-18
 -1       679 1.08932E-04-3.78119E-05-3.04869E-05 1.70641E-06-5.04079E-19 1.16234E-18
 -1       680 1.10730E-04-3.81110E-05-3.11234E-05 5.88092E-06 4.61161E-20 1.35534E-18
 -1       681 1.10848E-04-3.59446E-05-3.20941E-05 9.72113E-06 3.48395E-19 1.30338E-18
 -1       682 1.08649E-04-3.08801E-05-3.33369E-05 1.13124E-05-4.73801E-19 7.65459E-19
 -1       683 1.05270E-04-2.48317E-05-3.44973E-05 8.66972E-06 1.67256E-20 1.35301E-18
 -1       684 1.03105E-04-2.12559E-05-3.51124E-05 1.89993E-06 9.39710E-19 7.91432E-19
 -1       685 1.03951E-04-2.26480E-05-3.48751E-05-5.87171E-06 8.43304E-19 1.81568E-19
 -1       686 1.07109E-04-2.80266E-05-3.39088E-05-1.06271E-05 1.57184E-18 8.97644E-20
 -1       687 1.10044E-04-3.38591E-05-3.26630E-05-1.08556E-05 7.30792E-19-1.45757E-18
 -1       688 1.11055E-04-3.74868E-05-3.15282E-05-7.74790E-06-1.95421E-19-1.18168E-18
 -1       689 1.09900E-04-3.81954E-05-3.07277E-05-3.50714E-06 7.70850E-19-7.52626E-19
 -1       690 1.07581E-04-3.70061E-05-3.02508E-05 2.81554E-07 1.49883E-18-9.94826E-19
 -1       691 1.04935E-04-3.49683E-05-2.99896E-05 3.02608E-06 7.17567E-19 5.99656E-19
 -1       692 1.02538E-04-3.29034E-05-2.98459E-05 4.66491E-06-5.79903E-19 8.25977E-19
 -1       693 1.00590E-04-3.11832E-05-2.97471E-05 5.41328E-06-2.35664E-18 1.55744E-18
 -1       694 9.91047E-05-2.99140E-05-2.96538E-05 5.53023E-06-2.14039E-18 8.76131E-19
 -1       695 9.80083E-05-2.90562E-05-2.95509E-05 5.24467E-06-5.19413E-19-4.86995E-19
 -1       696 9.72065E-05-2.85164E-05-2.94383E-05 4.73005E-06 7.93873E-19-2.65722E-18
 -1       697 9.66159E-05-2.81954E-05-2.93225E-05 4.10619E-06 1.52452E-20-2.84813E-18
 -1       698 9.61692E-05-2.80074E-05-2.92115E-05 3.44929E-06 7.79307E-19-3.27694E-18
 -1       699 9.57366E-05-2.77781E-05-2.91241E-05 3.01439E-06 1.04086E-18-3.49470E-18
 -1       700 9.29876E-05-2.52080E-05-2.90489E-05 7.08114E-07 4.30219E-19 3.38701E-19
 -1       701 9.52060E-05-2.72801E-05-2.91103E-05-2.58949E-06-2.35307E-18 2.13244E-18
 -1       702 9.38030E-05-2.60229E-05-2.90488E-05 2.15764E-06 1.17226E-18 6.69118E-19
 -1       703 9.28861E-05-2.50926E-05-2.90548E-05-2.37322E-07 8.39709E-19 1.06733E-18
 -1       704 9.33098E-05-2.55338E-05-2.90472E-05 1.53751E-06 1.96174E-20-2.15761E-18
 -1       705 1.31919E-04-5.61854E-05-3.26049E-05 7.80535E-06 7.08563E-20-2.15915E-18
 -1       706 3.38322E-05-1.08027E-05-9.29045E-06 1.91118E-06-5.20373E-19 4.30981E-19
 -1       707 9.30297E-05-2.52111E-05-2.90655E-05-1.16632E-06 1.00684E-18 2.37562E-18
 -1       708 9.34271E-05-2.55707E-05-2.90815E-05-1.98482E-06 1.32375E-18-7.36411E-19
 -1       709 9.40386E-05-2.61381E-05-2.90998E-05-2.54274E-06-3.22606E-19-1.28430E-18
 -1       710 9.46322E-05-2.67023E-05-2.91126E-05-2.68464E-06-7.79900E-19 8.18098E-19
 -1       711 1.23737E-04-5.83546E-05-2.80015E-05-2.04006E-05-2.06120E-18 3.51082E-19
 -1       712 4.51892E-05-1.75276E-05-1.13415E-05 2.47519E-05-1.91887E-18 1.36039E-18
 -1       713 7.41526E-05-3.48699E-05-1.65058E-05 3.70186E-05-2.21684E-18 2.46164E-18
 -1       714 7.31762E-05-3.47682E-05-1.61109E-05-3.70880E-05-1.37055E-18-1.85651E-18
 -1       715 1.39076E-04-5.96676E-05-3.41437E-05-2.99137E-06 1.47942E-18-3.03606E-18
 -1       716 4.97160E-05-1.98895E-05-1.22342E-05-2.56021E-05 3.51386E-19-7.55183E-19
 -1       717 8.77567E-05-4.32566E-05-1.86812E-05 3.49827E-05 2.54030E-19-3.27905E-18
 -1       718 9.52385E-05-2.70021E-05-2.92422E-05 8.63367E-07 6.54932E-19-2.42014E-19
 -1       719 9.49748E-05-2.82566E-05-2.85934E-05-1.30887E-06 2.80915E-19 8.16536E-21
 -1       720 9.50254E-05-2.36265E-05-3.05939E-05-4.69417E-06-7.76830E-19-1.05009E-18
 -1       721 9.21076E-05-1.76476E-05-3.19173E-05 3.93259E-06 1.05214E-18-1.17360E-18
 -1       722 1.09872E-04-5.38038E-05-2.38248E-05 3.00196E-05-1.54811E-18-5.13778E-20
 -1       723 9.20700E-05-1.75933E-05-3.19244E-05-3.87664E-06-2.45014E-19-1.54097E-18
 -1       724 1.18433E-04-8.86523E-06-4.74860E-05-3.13721E-06 6.69103E-19 1.99106E-19
 -1       725 1.40258E-04-6.01952E-05-3.45999E-05 2.36562E-06-9.49206E-20 8.70379E-19
 -1       726 1.25756E-04-2.15716E-05-4.51208E-05-1.33511E-05 2.75198E-18-1.58845E-18
 -1       727 9.53346E-05-2.59140E-05-2.97479E-05 2.56909E-06 1.02178E-18-3.03819E-19
 -1       728 1.34346E-04-5.20365E-05-3.54925E-05 6.49921E-07-9.66187E-19 1.17926E-18
 -1       729 9.61004E-05-4.84514E-05-2.01853E-05-3.64324E-05-2.64319E-18-7.64183E-19
 -1       730 6.03065E-05-2.68715E-05-1.38613E-05 3.12910E-05-6.65450E-20-3.84315E-18
 -1       731 4.27208E-05-1.51720E-05-1.12980E-05-2.00296E-05-3.05474E-19-3.18167E-20
 -1       732 1.29444E-04-3.06507E-05-4.26908E-05 1.35958E-05 7.45918E-20 8.09605E-19
 -1       733 1.23846E-04-1.41130E-05-4.75827E-05 1.01029E-05 1.48617E-18-7.78873E-19
 -1       734 1.34788E-04-4.19674E-05-4.01010E-05-8.90283E-06 1.71389E-18-2.33546E-18
 -1       735 9.28549E-05-1.88806E-05-3.17093E-05-5.22766E-06-6.12049E-19-1.63463E-18
 -1       736 9.13233E-05-1.64003E-05-3.21153E-05-7.78098E-07 3.49479E-19-1.61963E-18
 -1       737 9.41749E-05-2.12939E-05-3.12379E-05-6.13310E-06-9.13567E-19-1.16743E-18
 -1       738 5.19864E-05-1.75540E-05-1.43316E-05 2.01989E-05-1.19432E-19-2.75974E-18
 -1       739 1.35099E-04-2.33404E-05-4.85068E-05 1.38350E-05-6.33157E-19-3.24009E-18
 -1       740 9.43998E-05-2.66134E-05-2.90516E-05 2.51118E-06 9.06656E-19-1.32756E-18
 -1       741 1.20818E-04-5.51103E-05-2.81589E-05 1.60901E-05-4.65471E-19-2.07334E-18
 -1       742 6.81121E-05-2.90651E-05-1.63996E-05-3.07154E-05 1.13108E-18-1.67159E-18
 -1       743 1.07355E-04-5.22861E-05-2.34231E-05 2.86761E-05 8.43274E-19-1.12424E-18
 -1       744 4.31708E-05-1.12579E-05-1.32395E-05-4.27409E-06-1.18171E-18-1.27394E-18
 -1       745 6.28344E-05-2.35875E-05-1.65108E-05-2.78758E-05-7.56566E-19-1.55203E-18
 -1       746 9.15655E-05-1.67843E-05-3.20546E-05-2.36646E-06 8.28642E-20-1.61655E-18
 -1       747 9.46456E-05-2.26904E-05-3.08396E-05 3.87554E-06 1.04233E-18-6.36659E-19
 -1       748 9.58729E-05-2.67866E-05-2.96082E-05-4.69898E-07-3.82062E-19-1.01010E-18
 -1       749 9.59530E-05-2.76244E-05-2.92837E-05 3.93474E-07-4.43034E-19-9.49118E-19
 -1       750 9.59230E-05-2.81177E-05-2.90594E-05 9.61040E-07-3.27764E-19-1.07262E-18
 -1       751 9.58340E-05-2.83688E-05-2.89137E-05 1.32941E-06 1.07743E-19-9.75074E-19
 -1       752 9.57113E-05-2.84437E-05-2.88290E-05 1.58245E-06 2.85265E-19-9.61472E-19
 -1       753 9.55650E-05-2.83850E-05-2.87914E-05 1.78809E-06 1.18805E-19-5.83092E-19
 -1       754 9.53961E-05-2.82189E-05-2.87902E-05 2.00049E-06 4.94566E-21-4.10178E-19
 -1       755 9.51989E-05-2.79606E-05-2.88164E-05 2.26287E-06-1.77800E-19 3.86990E-20
 -1       756 9.49623E-05-2.76176E-05-2.88620E-05 2.61011E-06-5.34946E-21 9.41676E-20
 -1       757 9.46708E-05-2.71927E-05-2.89191E-05 3.07070E-06-2.30694E-19 1.90067E-19
 -1       758 9.43045E-05-2.66879E-05-2.89784E-05 3.66797E-06-5.71121E-19-8.56237E-20
 -1       759 9.38408E-05-2.61088E-05-2.90278E-05 4.42098E-06-6.93489E-19-2.29890E-19
 -1       760 9.32578E-05-2.54729E-05-2.90504E-05 5.34577E-06-3.06773E-19 1.78014E-19
 -1       761 9.25425E-05-2.48222E-05-2.90227E-05 6.45815E-06 3.36078E-19-3.90344E-19
 -1       762 9.17059E-05-2.42427E-05-2.89124E-05 7.77999E-06 1.43715E-19 1.57378E-19
 -1       763 9.08121E-05-2.38963E-05-2.86777E-05 9.35186E-06-2.44675E-19-3.60927E-19
 -1       764 9.00294E-05-2.40667E-05-2.82691E-05 1.12532E-05 2.62232E-19-6.67755E-19
 -1       765 8.97214E-05-2.52274E-05-2.76388E-05 1.36211E-05 8.66225E-19-3.72789E-19
 -1       766 9.05990E-05-2.81236E-05-2.67652E-05 1.66155E-05 7.25861E-20 1.44252E-20
 -1       767 9.38865E-05-3.38246E-05-2.57053E-05 2.03311E-05 4.09132E-19-4.82236E-19
 -1       768 1.03849E-04-4.45832E-05-2.52887E-05-2.29540E-05 2.11894E-18-1.91722E-18
 -1       769 9.54047E-05-3.48045E-05-2.59434E-05-2.01165E-05 8.06380E-19-1.17631E-18
 -1       770 9.15436E-05-2.87818E-05-2.68920E-05-1.68068E-05 9.53740E-19-2.70549E-18
 -1       771 9.03873E-05-2.56846E-05-2.77285E-05-1.38856E-05 6.16986E-19-2.52752E-18
 -1       772 9.04987E-05-2.43638E-05-2.83432E-05-1.15328E-05 2.07029E-20-1.59611E-19
 -1       773 9.11610E-05-2.40841E-05-2.87469E-05-9.60945E-06 1.10779E-18-1.72641E-19
 -1       774 9.19727E-05-2.43432E-05-2.89837E-05-7.99730E-06 5.64485E-19 7.25490E-19
 -1       775 9.27452E-05-2.48375E-05-2.91030E-05-6.61829E-06 9.08044E-19 1.83887E-18
 -1       776 9.34036E-05-2.53910E-05-2.91473E-05-5.43390E-06 1.41892E-18-9.26518E-19
 -1       777 9.38760E-05-2.58721E-05-2.91434E-05-4.42333E-06 1.86750E-18-3.23830E-18
 -1       778 9.42872E-05-2.63148E-05-2.91299E-05-3.51177E-06 9.64537E-19-1.39201E-18
 -1       779 9.57338E-05-2.76332E-05-2.91859E-05-3.53322E-07 4.84876E-19-2.89823E-19
 -1       780 9.54661E-05-2.84512E-05-2.87206E-05-1.78156E-06 4.92994E-19 6.41429E-20
 -1       781 9.55426E-05-2.84580E-05-2.87506E-05-1.59281E-06 5.02736E-19-6.08250E-20
 -1       782 9.53270E-05-2.82253E-05-2.87578E-05-2.18341E-06-5.02530E-21-1.46797E-19
 -1       783 9.52693E-05-2.80490E-05-2.88086E-05-2.46918E-06-4.76046E-20-8.99896E-19
 -1       784 9.52272E-05-2.78593E-05-2.88719E-05-2.84290E-06 3.40631E-19-3.21130E-19
 -1       785 9.52138E-05-2.76846E-05-2.89410E-05-3.31595E-06 3.96261E-19-2.64741E-19
 -1       786 9.52524E-05-2.75647E-05-2.90088E-05-3.88859E-06 8.77926E-20 4.25109E-19
 -1       787 9.53830E-05-2.75578E-05-2.90678E-05-4.54693E-06-1.87883E-19 1.42562E-19
 -1       788 9.56693E-05-2.77461E-05-2.91098E-05-5.25812E-06-1.44614E-19 4.53028E-19
 -1       789 9.62081E-05-2.82413E-05-2.91286E-05-5.96279E-06 1.34322E-19 1.01860E-18
 -1       790 9.71375E-05-2.91835E-05-2.91232E-05-6.56304E-06 3.85145E-20 1.06511E-18
 -1       791 9.86369E-05-3.07256E-05-2.91054E-05-6.90376E-06-5.50311E-19 1.40928E-18
 -1       792 1.00906E-04-3.29846E-05-2.91105E-05-6.74638E-06-1.05086E-18 1.85665E-18
 -1       793 1.04093E-04-3.59321E-05-2.92136E-05-5.73248E-06-1.07917E-18 1.78712E-18
 -1       794 1.08094E-04-3.91407E-05-2.95523E-05-3.39208E-06-1.03827E-18 1.43791E-18
 -1       795 1.12398E-04-4.16197E-05-3.03660E-05 7.67813E-07-2.95303E-20 1.57022E-18
 -1       796 1.15991E-04-4.17124E-05-3.18366E-05 6.49316E-06 3.92094E-19 8.85345E-19
 -1       797 1.15849E-04-3.69390E-05-3.39157E-05 1.16591E-05 9.64046E-20 1.23896E-18
 -1       798 1.12394E-04-2.79576E-05-3.63012E-05 1.27323E-05-6.88386E-19 1.91006E-18
 -1       799 1.08002E-04-1.90596E-05-3.82563E-05 7.28706E-06 1.97299E-19 2.29839E-18
 -1       800 1.06927E-04-1.68313E-05-3.87352E-05-2.77678E-06 1.08795E-18 2.29314E-18
 -1       801 1.10205E-04-2.33448E-05-3.73586E-05-1.10192E-05 1.75888E-18 1.15824E-18
 -1       802 1.14701E-04-3.33600E-05-3.49132E-05-1.25441E-05 2.09480E-18 1.10065E-18
 -1       803 1.16035E-04-4.00544E-05-3.26243E-05-8.74316E-06 3.28497E-19 9.57112E-19
 -1       804 1.14195E-04-4.21228E-05-3.08967E-05-3.14814E-06-1.73998E-19-5.66013E-19
 -1       805 1.10171E-04-4.05325E-05-2.98594E-05 1.70543E-06 8.25734E-19 2.33131E-19
 -1       806 1.05874E-04-3.74529E-05-2.93267E-05 4.92467E-06 3.28160E-19 1.31805E-18
 -1       807 1.02282E-04-3.42989E-05-2.91375E-05 6.49489E-06-5.88469E-19 1.53043E-18
 -1       808 9.96020E-05-3.16960E-05-2.91035E-05 7.00231E-06-1.19787E-18 9.05223E-19
 -1       809 9.77713E-05-2.98164E-05-2.91238E-05 6.85438E-06-1.45240E-18-2.71202E-18
 -1       810 9.66010E-05-2.85895E-05-2.91478E-05 6.33770E-06-6.08643E-19-3.49278E-18
 -1       811 9.58955E-05-2.78659E-05-2.91554E-05 5.63752E-06 5.64591E-19-2.40986E-18
 -1       812 9.54932E-05-2.74893E-05-2.91443E-05 4.87000E-06-9.46075E-20-8.07939E-19
 -1       813 9.52729E-05-2.73271E-05-2.91193E-05 4.10518E-06 7.38213E-19-1.81325E-18
 -1       814 9.32232E-05-1.97095E-05-3.15070E-05 1.21966E-06 6.15456E-19-1.42570E-18
 -1       815 9.24811E-05-2.48899E-05-2.89680E-05-1.90585E-06-6.15523E-20 2.38707E-18
 -1       816 9.21231E-05-2.46714E-05-2.89081E-05 3.75802E-07-3.76203E-19 1.66500E-18
 -1       817 9.21272E-05-2.46354E-05-2.89252E-05-7.92704E-07-5.08898E-19 1.77301E-18
 -1       818 4.99564E-05-1.30567E-05-1.54627E-05-9.83209E-06-2.59615E-19-7.81123E-20
 -1       819 9.52191E-05-2.44386E-05-3.03332E-05 3.40524E-06 9.15275E-19-3.66724E-19
 -1       820 9.57021E-05-2.68360E-05-2.95138E-05 5.89948E-07 5.92394E-19-3.31397E-19
 -1       821 1.10086E-04-5.09146E-05-2.53170E-05-2.36431E-05-2.28280E-18-9.64412E-19
 -1       822 9.60413E-05-4.54554E-05-2.14577E-05-3.11433E-05 2.13239E-18-1.95592E-18
 -1       823 1.13011E-04-1.69931E-05-4.14363E-05-9.57764E-06 1.74409E-18 1.19297E-18
 -1       824 9.47195E-05-2.28284E-05-3.08090E-05-4.10445E-06-6.76730E-19-1.34551E-18
 -1       825 9.31699E-05-2.54312E-05-2.90306E-05-2.80722E-06 1.58572E-18-2.88169E-18
 -1       826 1.11991E-04-1.32107E-05-4.26435E-05 5.03633E-06 8.91926E-19 4.25252E-19
 -1       827 9.53936E-05-2.83661E-05-2.87260E-05-1.96450E-06 2.59317E-19 1.20744E-19
 -1       828 1.23662E-04-3.26729E-05-3.92136E-05-1.38133E-05 1.93556E-18 1.13317E-19
 -1       829 4.90399E-05-1.27223E-05-1.52437E-05 1.07118E-05-1.58438E-19 6.18361E-19
 -1       830 9.49254E-05-4.27408E-05-2.22278E-05-2.97652E-05-2.19123E-18-1.07761E-18
 -1       831 6.50453E-05-2.31090E-05-1.77568E-05 2.62487E-05-1.17626E-18 1.05595E-18
 -1       832 7.90892E-05-3.32101E-05-1.94733E-05 2.96000E-05 6.54584E-19-2.36031E-18
 -1       833 9.55922E-05-2.54629E-05-3.00546E-05-1.72539E-06-4.40095E-19-1.12577E-18
 -1       834 1.31634E-04-2.11774E-05-4.77687E-05-1.45173E-05-3.26526E-18 6.30087E-19
 -1       835 1.26114E-04-4.11577E-05-3.65105E-05 1.11218E-05-8.36855E-19 1.51375E-18
 -1       836 1.28784E-04-4.79546E-05-3.47872E-05-4.87352E-06 4.12055E-19-1.61286E-18
 -1       837 1.25941E-04-5.35211E-05-3.10791E-05-5.14173E-06-1.05494E-18 1.25415E-18
 -1       838 9.55325E-05-4.22948E-05-2.26431E-05 2.88743E-05-1.27363E-18 5.96358E-19
 -1       839 9.31126E-05-1.95073E-05-3.15462E-05 2.19148E-08 4.09705E-19-1.33560E-18
 -1       840 1.07432E-04-4.71711E-05-2.57925E-05 2.05358E-05-3.77711E-19 6.39572E-19
 -1       841 6.82992E-05-2.37374E-05-1.88397E-05 2.37157E-05 9.45156E-19-2.69294E-18
 -1       842 9.38151E-05-2.61645E-05-2.89929E-05 2.91694E-06-9.25404E-20 1.53249E-19
 -1       843 1.03595E-04-4.41444E-05-2.54088E-05 2.30267E-05 1.60365E-18 2.36193E-20
 -1       844 1.19376E-04-5.70169E-05-2.65742E-05-2.13872E-05 1.66372E-18-2.58307E-18
 -1       845 9.56903E-05-2.81033E-05-2.89659E-05-9.60679E-07 2.26344E-19-1.63353E-19
 -1       846 1.23856E-04-5.13471E-05-3.10868E-05 3.02887E-06 5.54509E-19-2.28540E-19
 -1       847 9.56200E-05-2.83564E-05-2.88273E-05-1.34307E-06-8.50344E-21-1.50362E-19
 -1       848 9.49702E-05-2.71285E-05-2.90775E-05 3.53980E-06 1.32410E-18-1.58565E-18
 -1       849 9.30392E-05-2.54987E-05-2.89460E-05 2.33764E-06 6.14006E-19-4.29897E-19
 -1       850 9.35393E-05-2.03020E-05-3.13883E-05 2.33340E-06 7.43484E-19-1.16589E-18
 -1       851 9.24473E-05-2.49771E-05-2.89160E-05 1.46283E-06 7.65512E-19-1.58671E-18
 -1       852 9.39836E-05-2.12114E-05-3.11904E-05-3.25695E-06-4.08059E-19-1.16857E-18
 -1       853 5.96338E-05-1.81925E-05-1.75576E-05-1.87930E-05 5.26898E-19-8.90999E-19
 -1       854 9.55362E-05-2.58607E-05-2.98619E-05 1.77235E-06 8.17672E-19-3.20477E-19
 -1       855 5.17824E-05-1.28892E-05-1.64043E-05 7.48329E-06 2.71233E-20-1.40580E-18
 -1       856 5.47540E-05-1.57245E-05-1.64491E-05-1.66707E-05-7.65374E-19-1.07083E-18
 -1       857 9.35040E-05-2.02501E-05-3.13964E-05-2.29827E-06-4.48323E-20-1.43767E-18
 -1       858 8.26121E-05-3.26935E-05-2.12541E-05-2.73524E-05-1.92165E-18-4.61130E-19
 -1       859 9.40394E-05-2.12915E-05-3.11772E-05 3.27550E-06 9.54957E-19-7.49169E-19
 -1       860 1.17872E-04-2.18961E-05-4.13821E-05 1.27780E-05-2.06332E-20 1.05732E-18
 -1       861 9.47731E-05-2.69734E-05-2.90576E-05 3.17442E-06 2.52713E-18-2.71712E-18
 -1       862 9.19749E-05-2.45461E-05-2.88982E-05-2.84703E-06 9.62467E-19 1.05771E-18
 -1       863 6.32558E-05-1.67510E-05-1.98404E-05 1.42158E-05 3.79398E-19 9.68331E-20
 -1       864 9.62969E-05-2.76749E-05-2.94095E-05 4.96141E-07-4.62321E-19-5.00875E-19
 -1       865 9.62610E-05-2.81595E-05-2.91864E-05 9.37282E-07-3.61434E-19-5.27761E-19
 -1       866 9.61163E-05-2.83727E-05-2.90330E-05 1.23852E-06 5.07002E-20-8.34621E-19
 -1       867 9.58947E-05-2.83802E-05-2.89348E-05 1.46271E-06 3.27883E-19-9.37036E-19
 -1       868 9.56111E-05-2.82259E-05-2.88794E-05 1.66200E-06 3.60736E-19-6.47087E-19
 -1       869 9.52674E-05-2.79380E-05-2.88555E-05 1.87830E-06 1.86992E-19-6.45597E-19
 -1       870 9.48553E-05-2.75323E-05-2.88527E-05 2.14448E-06 5.74047E-20-4.94972E-19
 -1       871 9.43580E-05-2.70166E-05-2.88606E-05 2.48612E-06 2.46738E-20-4.82440E-19
 -1       872 9.37509E-05-2.63939E-05-2.88673E-05 2.92257E-06-4.79307E-19-6.44953E-19
 -1       873 9.30026E-05-2.56669E-05-2.88582E-05 3.46816E-06-9.28039E-19-7.99734E-19
 -1       874 9.20760E-05-2.48430E-05-2.88142E-05 4.13417E-06-2.96464E-19-1.21870E-18
 -1       875 9.09311E-05-2.39419E-05-2.87096E-05 4.93304E-06-1.62070E-19-1.71741E-19
 -1       876 8.95293E-05-2.30067E-05-2.85097E-05 5.88726E-06 6.43840E-19-1.44479E-19
 -1       877 8.78428E-05-2.21194E-05-2.81672E-05 7.04693E-06-3.94120E-19 2.26073E-19
 -1       878 8.58694E-05-2.14243E-05-2.76193E-05 8.52175E-06 5.57516E-19 2.76125E-19
 -1       879 8.36604E-05-2.11633E-05-2.67842E-05 1.05367E-05 6.40675E-19 2.92671E-19
 -1       880 8.14001E-05-2.17595E-05-2.55566E-05 1.35027E-05 3.43968E-19-8.97516E-19
 -1       881 7.95541E-05-2.39820E-05-2.37819E-05 1.80309E-05 2.93057E-19-1.58158E-18
 -1       882 1.15063E-04-4.87559E-05-2.84007E-05-1.07246E-05-1.19133E-18-3.83938E-19
 -1       883 8.07874E-05-2.48694E-05-2.39190E-05-1.90854E-05 1.24329E-19-3.40252E-18
 -1       884 8.21499E-05-2.23405E-05-2.56313E-05-1.41209E-05 8.44182E-19-3.04043E-18
 -1       885 8.41753E-05-2.15191E-05-2.68522E-05-1.10238E-05 1.05919E-18-3.22024E-18
 -1       886 8.62484E-05-2.16449E-05-2.76872E-05-8.92187E-06 3.86615E-19-2.83497E-18
 -1       887 8.81365E-05-2.22406E-05-2.82410E-05-7.37284E-06 1.71163E-18-1.10176E-18
 -1       888 8.97615E-05-2.30380E-05-2.85957E-05-6.14047E-06 8.39104E-19-2.58536E-19
 -1       889 9.11055E-05-2.38717E-05-2.88142E-05-5.10742E-06-1.09199E-18-7.24646E-19
 -1       890 9.21674E-05-2.46418E-05-2.89432E-05-4.20646E-06 2.78688E-19-1.31780E-18
 -1       891 9.48908E-05-2.76168E-05-2.88317E-05-2.54131E-06-1.71082E-19-6.11030E-19
 -1       892 9.51583E-05-2.79216E-05-2.88157E-05-2.20370E-06 6.29034E-19-3.53938E-19
 -1       893 9.43438E-05-2.69899E-05-2.88659E-05-3.52721E-06-3.61146E-19 1.84007E-19
 -1       894 9.41111E-05-2.67609E-05-2.88643E-05-4.19905E-06 1.76169E-19 3.63085E-19
 -1       895 9.39696E-05-2.66852E-05-2.88361E-05-4.99343E-06-6.10583E-19 4.89334E-20
 -1       896 9.40080E-05-2.68746E-05-2.87714E-05-5.90000E-06-4.22999E-19 1.66485E-19
 -1       897 9.43646E-05-2.74813E-05-2.86642E-05-6.89082E-06-1.73070E-19 1.00359E-18
 -1       898 9.52442E-05-2.87011E-05-2.85185E-05-7.90492E-06-1.13607E-19 1.15345E-18
 -1       899 9.69299E-05-3.07591E-05-2.83593E-05-8.81344E-06-3.23154E-19 5.40708E-19
 -1       900 9.97606E-05-3.38485E-05-2.82502E-05-9.36341E-06-1.20479E-18 1.20692E-19
 -1       901 1.04116E-04-3.80367E-05-2.83221E-05-9.03587E-06-1.09864E-18-8.66927E-20
 -1       902 1.10067E-04-4.27339E-05-2.88455E-05-7.21634E-06-7.95834E-19-3.89102E-19
 -1       903 1.22500E-04-4.24290E-05-3.43578E-05-8.81540E-06 1.35245E-18 1.98443E-18
 -1       904 1.06708E-04-4.01992E-05-2.84939E-05 8.53712E-06-3.60768E-19 1.41853E-18
 -1       905 1.01637E-04-3.57084E-05-2.82553E-05 9.43330E-06 3.82483E-19 1.15690E-18
 -1       906 9.81387E-05-3.20918E-05-2.83066E-05 9.21931E-06 2.12909E-19-7.73145E-19
 -1       907 9.59682E-05-2.95575E-05-2.84618E-05 8.43238E-06 3.47782E-19-1.68251E-18
 -1       908 9.47578E-05-2.79533E-05-2.86304E-05 7.43770E-06-8.11169E-19-1.43454E-18
 -1       909 9.41849E-05-2.70476E-05-2.87729E-05 6.40639E-06-6.86737E-19-1.29959E-18
 -1       910 9.40080E-05-2.66245E-05-2.88786E-05 5.42187E-06-3.77846E-19-9.40498E-19
 -1       911 9.40498E-05-2.64989E-05-2.89504E-05 4.52033E-06 8.58761E-19-2.74744E-18
 -1       912 8.23268E-05-3.06274E-05-2.20504E-05 2.45983E-05-8.12453E-19 2.97815E-18
 -1       913 9.48020E-05-2.29676E-05-3.07863E-05-2.71273E-06-3.20635E-19-1.29252E-18
 -1       914 5.83591E-05-1.31597E-05-1.92304E-05 5.64293E-07 5.42438E-19 8.80544E-19
 -1       915 9.46139E-05-2.72934E-05-2.88516E-05-2.97744E-06 1.14911E-19-4.97864E-19
 -1       916 9.58401E-05-2.84454E-05-2.88835E-05-1.53043E-06 5.35225E-20-5.82916E-19
 -1       917 8.53024E-05-3.39653E-05-2.18078E-05-2.71229E-05 1.81943E-18-3.20611E-18
 -1       918 9.32017E-05-1.96811E-05-3.15104E-05-1.16536E-06 5.35702E-20-1.39312E-18
 -1       919 7.85371E-05-2.73225E-05-2.18177E-05 2.32132E-05 1.08893E-18-1.63250E-18
 -1       920 9.61687E-05-2.68258E-05-2.97184E-05-1.55699E-07-1.94499E-19-6.79108E-19
 -1       921 1.07521E-04-4.60109E-05-2.63170E-05-1.84475E-05-1.81882E-18-4.90902E-19
 -1       922 9.57883E-05-2.54839E-05-3.01298E-05-1.07900E-06-2.03410E-19-9.28746E-19
 -1       923 9.60385E-05-2.68159E-05-2.96669E-05 2.70247E-07 3.01065E-19-5.57268E-19
 -1       924 1.14566E-04-4.83095E-05-2.83738E-05 1.06191E-05 8.75896E-19 2.24667E-19
 -1       925 9.46859E-05-2.25057E-05-3.09344E-05 1.18846E-06 7.03680E-19-1.13533E-18
 -1       926 9.45374E-05-2.21565E-05-3.10202E-05 4.19970E-07 4.79969E-19-1.30648E-18
 -1       927 9.54088E-05-2.81790E-05-2.88128E-05-1.94309E-06 3.34320E-19-2.24437E-19
 -1       928 9.56377E-05-2.83628E-05-2.88321E-05-1.73095E-06 3.58645E-19-2.34391E-20
 -1       929 9.60071E-05-2.83916E-05-2.89781E-05-1.29489E-06 2.85109E-19-8.18977E-19
 -1       930 9.39388E-05-2.63496E-05-2.89655E-05 3.83495E-06 1.72124E-18-4.88624E-18
 -1       931 9.40775E-05-3.72873E-05-2.43040E-05 2.22041E-05 9.78611E-19 1.98572E-18
 -1       932 9.12856E-05-2.40855E-05-2.88003E-05-1.54967E-06 5.43493E-19 3.85096E-18
 -1       933 9.29629E-05-2.55845E-05-2.88762E-05 3.26208E-06 6.81565E-19 1.63025E-18
 -1       934 9.13563E-05-2.42715E-05-2.87508E-05 1.24665E-06 8.69408E-19-1.57172E-18
 -1       935 6.14915E-05-1.44369E-05-2.00680E-05-7.60216E-06-7.63852E-20 2.51615E-19
 -1       936 9.10896E-05-2.40026E-05-2.87518E-05-1.32153E-07-7.17011E-19-8.56347E-20
 -1       937 9.61497E-05-2.76612E-05-2.93522E-05-4.71644E-07 2.56024E-19-1.86709E-19
 -1       938 9.57665E-05-2.57694E-05-2.99986E-05 1.19312E-06 5.51653E-19-6.62111E-19
 -1       939 9.50975E-05-2.38201E-05-3.05475E-05 2.77457E-06 8.30351E-19-7.01068E-19
 -1       940 6.29383E-05-1.71264E-05-1.94848E-05 1.45829E-05 3.81146E-19-2.13098E-18
 -1       941 5.51483E-05-1.29137E-05-1.79191E-05-5.19593E-06-3.18730E-19-1.12616E-18
 -1       942 7.13871E-05-2.39263E-05-2.02195E-05-2.27847E-05-1.14743E-18-1.92310E-19
 -1       943 9.75443E-05-3.92019E-05-2.49932E-05-2.09807E-05-1.29994E-18-5.24194E-19
 -1       944 9.43660E-05-2.19343E-05-3.10420E-05-2.06179E-06-2.34958E-19-1.14138E-18
 -1       945 9.49665E-05-2.31990E-05-3.07582E-05 1.83370E-06 7.14159E-19-9.23110E-19
 -1       946 9.64042E-05-2.69888E-05-2.97495E-05 7.84287E-08-2.27811E-19-7.48165E-19
 -1       947 9.64304E-05-2.81950E-05-2.92438E-05 8.21837E-07-1.52463E-20-3.38321E-19
 -1       948 9.62083E-05-2.83309E-05-2.90903E-05 1.03986E-06 7.18797E-20-4.05559E-19
 -1       949 9.58797E-05-2.82460E-05-2.89859E-05 1.21369E-06 5.77618E-19-5.54285E-19
 -1       950 9.54589E-05-2.79829E-05-2.89183E-05 1.37863E-06 5.48231E-19-4.21025E-19
 -1       951 9.49463E-05-2.75697E-05-2.88757E-05 1.56200E-06 1.53104E-19-1.62899E-19
 -1       952 9.43294E-05-2.70218E-05-2.88462E-05 1.78362E-06 5.27307E-20-7.54459E-20
 -1       953 9.35859E-05-2.63477E-05-2.88165E-05 2.05712E-06-3.36811E-19-2.56662E-19
 -1       954 9.26840E-05-2.55520E-05-2.87710E-05 2.38943E-06-5.55844E-19-5.14003E-19
 -1       955 9.15823E-05-2.46389E-05-2.86902E-05 2.78230E-06-8.15808E-19 3.73111E-19
 -1       956 9.02300E-05-2.36170E-05-2.85487E-05 3.23490E-06-2.24048E-19-2.23631E-19
 -1       957 8.85645E-05-2.25034E-05-2.83122E-05 3.74944E-06 5.37640E-19-4.89181E-19
 -1       958 8.65077E-05-2.13290E-05-2.79342E-05 4.34328E-06 6.03944E-19-7.00943E-19
 -1       959 8.39571E-05-2.01422E-05-2.73498E-05 5.07145E-06 6.94069E-19 1.28523E-19
 -1       960 8.07658E-05-1.90103E-05-2.64668E-05 6.06505E-06 3.24753E-19 7.33670E-20
 -1       961 7.67056E-05-1.80198E-05-2.51456E-05 7.61448E-06-6.96808E-19-3.50725E-19
 -1       962 7.14096E-05-1.73254E-05-2.31495E-05 1.02352E-05-7.67887E-19-1.41774E-18
 -1       963 9.60321E-05-2.57346E-05-3.01286E-05-5.50736E-07 1.12139E-20-6.82091E-19
 -1       964 7.70222E-05-1.82838E-05-2.51692E-05-8.33884E-06 1.10210E-18-1.47663E-18
 -1       965 8.10015E-05-1.91651E-05-2.65015E-05-6.58707E-06-1.80722E-19-1.53872E-18
 -1       966 8.41507E-05-2.02143E-05-2.74016E-05-5.47497E-06 1.46087E-18-2.46582E-18
 -1       967 8.66763E-05-2.13300E-05-2.80057E-05-4.65783E-06 2.35929E-18-2.71456E-18
 -1       968 8.87068E-05-2.24221E-05-2.84078E-05-3.98525E-06-2.78112E-19-6.27947E-19
 -1       969 9.03163E-05-2.34176E-05-2.86712E-05-3.38230E-06-8.30907E-19 1.56948E-18
 -1       970 9.47664E-05-2.74960E-05-2.88302E-05-2.04241E-06 5.69698E-19 1.15194E-20
 -1       971 9.61207E-05-2.81533E-05-2.91290E-05-9.65482E-07 1.49139E-19-3.95049E-19
 -1       972 9.26771E-05-2.57928E-05-2.86647E-05-4.24114E-06-8.44770E-20 7.88885E-20
 -1       973 9.32144E-05-2.61482E-05-2.87426E-05-3.48129E-06-1.03188E-20 1.27126E-19
 -1       974 9.19095E-05-2.57568E-05-2.83512E-05-6.33534E-06-6.14388E-19 1.80974E-19
 -1       975 9.19429E-05-2.63927E-05-2.80931E-05-7.72782E-06 3.54232E-19-3.26979E-19
 -1       976 9.25648E-05-2.77752E-05-2.77673E-05-9.37411E-06-1.55068E-19-2.14882E-19
 -1       977 9.41612E-05-3.02223E-05-2.74033E-05-1.12268E-05-5.10180E-19 7.74516E-20
 -1       978 9.72218E-05-3.40246E-05-2.70742E-05-1.30596E-05-9.89599E-19-8.96167E-19
 -1       979 1.06000E-04-4.25672E-05-2.71447E-05-1.40938E-05-7.45220E-19-1.18448E-18
 -1       980 9.95443E-05-3.65040E-05-2.70090E-05 1.37568E-05 1.81507E-19-1.10913E-18
 -1       981 9.22368E-05-2.69393E-05-2.79848E-05 8.52493E-06-8.29492E-19-1.61654E-18
 -1       982 9.19699E-05-2.59542E-05-2.82923E-05 7.00459E-06-1.02158E-18-8.28209E-19
 -1       983 9.21338E-05-2.55539E-05-2.85340E-05 5.72402E-06-8.76663E-19 4.53492E-19
 -1       984 9.25233E-05-2.55166E-05-2.87165E-05 4.65636E-06 2.38777E-18-1.58521E-18
 -1       985 9.20137E-05-2.48273E-05-2.87949E-05 2.42452E-06 6.19545E-19-1.95027E-18
 -1       986 7.68110E-05-2.28343E-05-2.30955E-05 1.64870E-05 1.80831E-18 1.56101E-18
 -1       987 9.27044E-05-2.55044E-05-2.88001E-05 3.91975E-06 1.41943E-18-2.95541E-19
 -1       988 9.22085E-05-2.56182E-05-2.85388E-05-5.18281E-06-6.05188E-19-8.61892E-20
 -1       989 9.53756E-05-2.41050E-05-3.05434E-05-1.23329E-06-4.54770E-20-9.92028E-19
 -1       990 6.74858E-05-1.54789E-05-2.22598E-05 5.09192E-06-3.62284E-19 2.02600E-18
 -1       991 9.32489E-05-2.87931E-05-2.76241E-05 1.02787E-05 4.87483E-19-1.60430E-18
 -1       992 9.54383E-05-3.18440E-05-2.72592E-05 1.21755E-05 1.23917E-18-4.84376E-19
 -1       993 9.40672E-05-2.12921E-05-3.11896E-05-1.22444E-06 1.67936E-19-1.47687E-18
 -1       994 6.85553E-05-1.89571E-05-2.11467E-05 1.58753E-05 5.09189E-19-2.25099E-18
 -1       995 7.21255E-05-1.79783E-05-2.31499E-05-1.11230E-05 1.25781E-19-1.89247E-18
 -1       996 9.45387E-05-2.21539E-05-3.10214E-05-3.90451E-07 4.96747E-19-1.13423E-18
 -1       997 1.02476E-04-4.09840E-05-2.63340E-05 1.68998E-05-4.84000E-19-3.10066E-19
 -1       998 9.65136E-05-2.77759E-05-2.94591E-05 5.17309E-07-3.47459E-19-5.57132E-19
 -1       999 9.42834E-05-2.70553E-05-2.88120E-05-2.40527E-06-1.37028E-19-2.20837E-19
 -1      1000 8.76714E-05-3.23063E-05-2.36764E-05-2.17739E-05-1.45758E-18-1.66526E-18
 -1      1001 9.55702E-05-2.43177E-05-3.05367E-05 4.59404E-07 5.74844E-19-1.14609E-18
 -1      1002 9.52027E-05-2.78789E-05-2.88531E-05-1.76459E-06 4.96780E-19-2.31985E-19
 -1      1003 9.56752E-05-2.47381E-05-3.04027E-05 8.22982E-07 5.81971E-19-1.08913E-18
 -1      1004 9.61865E-05-2.83759E-05-2.90616E-05-1.15103E-06 9.62541E-20-9.17595E-19
 -1      1005 6.78955E-05-1.50539E-05-2.26141E-05-8.85674E-07 2.43954E-19 8.93527E-19
 -1      1006 9.14823E-05-2.45829E-05-2.86712E-05 3.05993E-06 1.13393E-19-1.93498E-18
 -1      1007 8.50407E-05-2.81853E-05-2.43521E-05 1.78536E-05 1.27086E-18 3.22420E-18
 -1      1008 9.59128E-05-2.56157E-05-3.01253E-05 7.92828E-07 4.03178E-19-1.08099E-18
 -1      1009 9.59205E-05-2.83527E-05-2.89576E-05-1.35297E-06-6.91502E-20-9.93526E-19
 -1      1010 9.37607E-05-2.65908E-05-2.87871E-05-2.87723E-06-5.69740E-19-5.62199E-20
 -1      1011 9.00304E-05-2.34248E-05-2.85453E-05 8.65828E-07 1.19880E-18-5.64977E-19
 -1      1012 6.02401E-05-1.37330E-05-1.98421E-05 4.27933E-06-1.47610E-19-1.36558E-18
 -1      1013 6.56225E-05-1.79072E-05-2.03473E-05-1.49090E-05-7.44168E-19-5.83473E-19
 -1      1014 9.62842E-05-2.69097E-05-2.97316E-05 1.39150E-08-1.37046E-20-1.10087E-18
 -1      1015 9.06147E-05-2.39103E-05-2.85876E-05 2.06402E-06 1.46071E-19-1.68493E-18
 -1      1016 9.27281E-05-2.57843E-05-2.86903E-05-2.51241E-06-1.48711E-19 4.32510E-20
 -1      1017 9.62720E-05-2.61174E-05-3.00645E-05-1.61138E-07-4.85763E-21-9.31384E-19
 -1      1018 9.61503E-05-2.82538E-05-2.90986E-05 7.23695E-07 3.25318E-19-2.39715E-19
 -1      1019 9.57162E-05-2.80639E-05-2.89939E-05 8.30701E-07 2.58097E-19-4.21072E-19
 -1      1020 9.51701E-05-2.76916E-05-2.89194E-05 9.34784E-07 3.78307E-19-8.51631E-19
 -1      1021 9.45109E-05-2.71658E-05-2.88624E-05 1.04693E-06 5.40911E-19-8.47180E-19
 -1      1022 9.37196E-05-2.64984E-05-2.88094E-05 1.17500E-06-4.95791E-19-1.36070E-18
 -1      1023 9.27731E-05-2.57029E-05-2.87447E-05 1.31703E-06-6.92380E-19-1.34082E-18
 -1      1024 9.16340E-05-2.47858E-05-2.86496E-05 1.46534E-06-2.91762E-19-1.61346E-18
 -1      1025 9.02556E-05-2.37557E-05-2.85005E-05 1.60542E-06-6.55639E-19-6.41030E-19
 -1      1026 8.85773E-05-2.26239E-05-2.82664E-05 1.71669E-06 3.34439E-20-1.08091E-19
 -1      1027 8.65169E-05-2.14049E-05-2.79061E-05 1.77606E-06 3.86729E-19-9.22999E-20
 -1      1028 8.39546E-05-2.01127E-05-2.73621E-05 1.76571E-06 7.35622E-19-8.64268E-19
 -1      1029 8.07035E-05-1.87540E-05-2.65512E-05 1.68813E-06 7.00180E-19-1.02319E-18
 -1      1030 7.64778E-05-1.73218E-05-2.53494E-05 1.55138E-06-4.17105E-19-1.30262E-18
 -1      1031 7.07514E-05-1.57130E-05-2.35791E-05 1.51568E-06-9.57963E-19-1.26405E-18
 -1      1032 9.55894E-05-2.81750E-05-2.88919E-05-1.54532E-06 2.46004E-19-5.94713E-19
 -1      1033 7.65350E-05-1.73784E-05-2.53586E-05-2.12702E-06 2.61600E-19-1.13106E-18
 -1      1034 9.66216E-05-2.79103E-05-2.94480E-05 4.21208E-07-1.70211E-19-3.95018E-19
 -1      1035 8.07400E-05-1.87495E-05-2.65677E-05-2.11293E-06 1.88383E-19 4.54302E-19
 -1      1036 8.40141E-05-2.00658E-05-2.74070E-05-2.09828E-06 2.11280E-18 1.55829E-18
 -1      1037 8.65862E-05-2.13023E-05-2.79807E-05-2.03944E-06 2.39544E-18 5.70263E-19
 -1      1038 8.86204E-05-2.24201E-05-2.83741E-05-1.92400E-06 1.26889E-18 5.71138E-19
 -1      1039 9.64076E-05-2.77303E-05-2.94330E-05-5.27854E-07 3.90610E-19-1.21720E-18
 -1      1040 9.09880E-05-2.46676E-05-2.84232E-05-3.95396E-06-1.78722E-19 5.36534E-19
 -1      1041 8.87255E-05-2.47807E-05-2.74055E-05-8.28007E-06 1.50094E-19 4.32161E-21
 -1      1042 8.92954E-05-2.43022E-05-2.78545E-05-6.43201E-06-3.71806E-19-2.22395E-19
 -1      1043 8.94869E-05-2.84961E-05-2.61341E-05-1.37722E-05-8.76392E-20-1.22970E-18
 -1      1044 9.03037E-05-3.01576E-05-2.57668E-05 1.56337E-05 3.99900E-19 1.07704E-18
 -1      1045 8.98358E-05-2.42244E-05-2.81183E-05 5.67310E-06-9.54027E-19-1.61684E-18
 -1      1046 8.91166E-05-2.44530E-05-2.77131E-05 7.27026E-06-7.13876E-19 3.57111E-19
 -1      1047 9.00977E-05-2.43282E-05-2.81871E-05-5.02602E-06-6.10630E-19 1.31452E-19
 -1      1048 9.55233E-05-2.41679E-05-3.05814E-05 6.13034E-09 3.58824E-19-9.93322E-19
 -1      1049 9.09339E-05-2.43725E-05-2.85253E-05 3.81218E-06 6.02432E-19-1.71062E-18
 -1      1050 9.53366E-05-2.38175E-05-3.06519E-05-6.87749E-07 2.60586E-19-1.11416E-18
 -1      1051 8.99064E-05-2.32320E-05-2.85740E-05-8.53137E-07 1.89419E-18 2.97300E-18
 -1      1052 8.87230E-05-2.52849E-05-2.71888E-05 9.37504E-06 3.08499E-19 2.09720E-18
 -1      1053 8.90077E-05-2.70899E-05-2.65419E-05 1.21521E-05 7.52157E-19 1.54142E-18
 -1      1054 9.63662E-05-2.81953E-05-2.92161E-05-8.94725E-07 1.69347E-19-9.39101E-19
 -1      1055 9.18807E-05-2.51850E-05-2.85840E-05-3.13567E-06-1.01121E-20 3.34282E-19
 -1      1056 7.58496E-05-1.90977E-05-2.43217E-05 8.79117E-06-1.14326E-18 2.74826E-18
 -1      1057 9.64614E-05-2.82214E-05-2.92459E-05 5.94914E-07 1.72680E-21-3.45234E-19
 -1      1058 9.65785E-05-2.72376E-05-2.97176E-05 1.76313E-07-1.94989E-19-6.97244E-19
 -1      1059 8.86380E-05-2.60458E-05-2.68273E-05-1.07173E-05 1.72194E-19-9.55781E-19
 -1      1060 9.03355E-05-2.42040E-05-2.83408E-05 4.65984E-06 1.63432E-18-3.88465E-18
 -1      1061 7.73522E-05-2.37241E-05-2.29475E-05-1.74280E-05-3.84543E-19 3.06197E-19
 -1      1062 9.48260E-05-2.74930E-05-2.88571E-05-1.42090E-06 2.33142E-19-6.51129E-19
 -1      1063 9.30746E-05-3.41284E-05-2.52314E-05-1.84072E-05-1.05487E-18-1.06845E-18
 -1      1064 9.35061E-05-2.63982E-05-2.87606E-05-2.04046E-06-3.36654E-19 1.33320E-19
 -1      1065 9.61795E-05-2.57440E-05-3.01857E-05 8.92360E-08 3.46675E-19-8.44847E-19
 -1      1066 8.06118E-05-2.25307E-05-2.48861E-05 1.22230E-05-7.15023E-20 3.08773E-18
 -1      1067 8.84577E-05-2.24589E-05-2.82819E-05 2.29161E-07 2.53891E-18 2.41880E-18
 -1      1068 9.61968E-05-2.83166E-05-2.90916E-05-8.99675E-07-4.36518E-20-1.14436E-18
 -1      1069 6.44069E-05-1.49981E-05-2.11039E-05-6.41764E-06-4.51364E-19-6.47130E-19
 -1      1070 9.64606E-05-2.82283E-05-2.92425E-05-7.22535E-07 3.39711E-19-1.29453E-18
 -1      1071 8.89323E-05-2.28851E-05-2.83061E-05 1.82948E-06 1.22134E-18 1.88120E-18
 -1      1072 9.42059E-05-2.69795E-05-2.88113E-05-1.68605E-06-1.07693E-19 2.54565E-19
 -1      1073 9.62058E-05-2.59682E-05-3.01018E-05 2.22569E-07 5.24712E-19-1.21285E-18
 -1      1074 9.62820E-05-2.64465E-05-2.99295E-05 1.59370E-07 1.51568E-19-1.43318E-18
 -1      1075 8.44691E-05-2.24771E-05-2.65684E-05-8.17921E-06 6.56173E-19-7.84149E-19
 -1      1076 9.53654E-05-2.79068E-05-2.89110E-05-1.21891E-06 7.76071E-20-7.64133E-19
 -1      1077 9.66850E-05-2.75329E-05-2.96365E-05 1.09805E-07 1.92839E-19-5.17407E-19
 -1      1078 9.54591E-05-2.78596E-05-2.89712E-05 3.21900E-07-2.48404E-19-4.16486E-19
 -1      1079 9.48166E-05-2.73941E-05-2.88946E-05 3.45851E-07-2.02268E-19-1.24785E-18
 -1      1080 9.40398E-05-2.67738E-05-2.88280E-05 3.55462E-07-1.65793E-19-2.04222E-18
 -1      1081 9.31258E-05-2.60292E-05-2.87555E-05 3.44023E-07-4.00288E-19-2.02634E-18
 -1      1082 9.20423E-05-2.51676E-05-2.86604E-05 2.98958E-07-4.40740E-19-2.04783E-18
 -1      1083 9.07552E-05-2.42045E-05-2.85216E-05 1.95391E-07 9.15177E-20-1.26811E-18
 -1      1084 8.92203E-05-2.31577E-05-2.83126E-05-2.07022E-09 1.48994E-19-6.60252E-19
 -1      1085 8.73797E-05-2.20492E-05-2.79990E-05-3.43041E-07 4.81762E-19-6.13362E-19
 -1      1086 8.51506E-05-2.09033E-05-2.75353E-05-8.96471E-07-1.30228E-19-5.66416E-19
 -1      1087 8.24039E-05-1.97394E-05-2.68576E-05-1.76091E-06 1.99898E-19-1.13235E-18
 -1      1088 7.89178E-05-1.85591E-05-2.58716E-05-3.08607E-06 6.62081E-20-1.61353E-18
 -1      1089 7.46070E-05-1.75231E-05-2.44851E-05-5.01658E-06-1.63480E-20-1.13453E-18
 -1      1090 9.65775E-05-2.78521E-05-2.94540E-05-4.91856E-07 2.84665E-21-1.23676E-18
 -1      1091 9.65019E-05-2.72765E-05-2.96680E-05-2.31484E-07 1.99595E-19-1.77977E-18
 -1      1092 8.24359E-05-1.97007E-05-2.68872E-05 1.43512E-06 2.64064E-18 6.08037E-19
 -1      1093 8.52017E-05-2.08075E-05-2.75961E-05 6.51089E-07 2.73611E-18 2.31609E-18
 -1      1094 8.69470E-05-2.16492E-05-2.79828E-05 4.01449E-07 2.66305E-18 2.47310E-18
 -1      1095 8.35987E-05-2.66913E-05-2.43810E-05-1.67966E-05-5.05857E-19-8.78223E-19
 -1      1096 9.62327E-05-2.58516E-05-3.01630E-05-5.16514E-08 1.44939E-19-8.29803E-19
 -1      1097 8.90704E-05-2.33944E-05-2.81471E-05-3.25384E-06 9.66829E-21-1.75083E-19
 -1      1098 7.35647E-05-1.67899E-05-2.43278E-05 2.32837E-06-1.54620E-19-2.08077E-21
 -1      1099 8.71266E-05-2.26080E-05-2.76514E-05 5.02593E-06 1.05972E-18 4.70091E-19
 -1      1100 8.60686E-05-2.24368E-05-2.72711E-05-5.96612E-06-1.53485E-19-1.17998E-18
 -1      1101 8.28891E-05-2.30937E-05-2.56245E-05-1.13158E-05 1.91873E-19-8.63440E-19
 -1      1102 9.58253E-05-2.81924E-05-2.89854E-05-1.05483E-06-2.33197E-19-9.59428E-19
 -1      1103 8.55757E-05-2.24840E-05-2.70431E-05 6.85138E-06 1.86606E-18 3.48840E-18
 -1      1104 9.15733E-05-2.49065E-05-2.85717E-05-1.85194E-06 3.54152E-20-1.11502E-19
 -1      1105 7.88773E-05-1.84982E-05-2.58763E-05 2.59640E-06 1.01850E-19-2.51042E-19
 -1      1106 8.40397E-05-2.28368E-05-2.62304E-05 9.40626E-06-1.08444E-19 4.62303E-18
 -1      1107 8.76209E-05-2.27943E-05-2.77831E-05-4.38613E-06-2.28056E-19-6.58984E-19
 -1      1108 9.03910E-05-2.41253E-05-2.83998E-05-2.43918E-06 1.66526E-19 1.31055E-19
 -1      1109 9.59803E-05-2.81458E-05-2.90718E-05 2.94212E-07 1.22215E-19-4.51378E-19
 -1      1110 9.63795E-05-2.82266E-05-2.92081E-05 2.56002E-07 1.62576E-19-3.10562E-19
 -1      1111 9.66267E-05-2.80436E-05-2.93925E-05 2.00596E-07 8.42875E-20-3.39364E-19
 -1      1112 7.27650E-05-1.91419E-05-2.29644E-05-1.19921E-05-8.57580E-19-8.08471E-19
 -1      1113 9.65342E-05-2.68236E-05-2.98755E-05 2.95514E-08 2.38857E-19-7.40488E-19
 -1      1114 9.43323E-05-2.70494E-05-2.88357E-05-9.02253E-07-4.29525E-19-5.12222E-19
 -1      1115 9.35337E-05-2.64033E-05-2.87704E-05-1.12569E-06-4.63949E-19-2.84230E-19
 -1      1116 9.26185E-05-2.56799E-05-2.86882E-05-1.42906E-06-2.93115E-19-2.88177E-19
 -1      1117 9.65356E-05-2.67741E-05-2.98983E-05-2.36003E-08 3.35003E-19-6.96068E-19
 -1      1118 8.81289E-05-2.28359E-05-2.79878E-05 3.90048E-06 1.76626E-18-4.29398E-19
 -1      1119 7.87247E-05-2.15373E-05-2.44775E-05-1.18023E-05-4.01900E-19-2.41547E-19
 -1      1120 9.64301E-05-2.82385E-05-2.92249E-05-4.35459E-07 1.79458E-19-1.30146E-18
 -1      1121 9.50209E-05-2.75848E-05-2.89002E-05-7.47525E-07 4.81633E-20-1.18199E-18
 -1      1122 8.07644E-05-2.04337E-05-2.58467E-05 7.04494E-06-9.88369E-19 4.21961E-18
 -1      1123 9.60746E-05-2.82140E-05-2.90831E-05-5.33896E-07-2.70641E-19-1.32296E-18
 -1      1124 9.51647E-05-2.76667E-05-2.89284E-05-2.89530E-07-3.97666E-19-6.99086E-19
 -1      1125 9.66379E-05-2.79852E-05-2.94228E-05-3.29882E-07 1.48780E-19-1.32422E-18
 -1      1126 9.65118E-05-2.69559E-05-2.98102E-05-9.19706E-08 3.64192E-19-1.25964E-18
 -1      1127 8.50402E-05-2.12725E-05-2.73274E-05 3.76096E-06 2.70245E-18 3.18144E-18
 -1      1128 8.71893E-05-2.20854E-05-2.79027E-05 2.59394E-06 1.82629E-18 2.69931E-18
 -1      1129 8.30042E-05-2.07346E-05-2.66848E-05 5.17614E-06 2.11001E-18 4.10502E-18
 -1      1130 9.56710E-05-2.80074E-05-2.89990E-05-4.32098E-07-2.87615E-19-1.55139E-18
 -1      1131 9.66372E-05-2.73072E-05-2.97128E-05-1.07811E-07 1.14473E-19-9.43486E-19
 -1      1132 1.16772E-04 2.57323E-10-4.18250E-05-4.14525E-05-2.28699E-19 5.45066E-18
 -1      1133 8.85970E-05 7.18430E-11-3.72296E-05-2.41747E-05-1.10432E-19 1.15355E-19
 -1      1134 8.40507E-05 4.14312E-11-3.57553E-05-1.78912E-05-7.49624E-20-2.00072E-18
 -1      1135 8.23309E-05 3.20288E-11-3.50710E-05-1.38495E-05-4.16105E-20-2.94248E-18
 -1      1136 8.15480E-05 2.73464E-11-3.47451E-05-1.05453E-05-2.41669E-20-3.33920E-18
 -1      1137 8.11621E-05 2.46304E-11-3.45865E-05-7.64940E-06-1.00585E-20-3.47114E-18
 -1      1138 8.09644E-05 2.29712E-11-3.45080E-05-4.98506E-06 2.12420E-21-3.44843E-18
 -1      1139 8.08690E-05 2.20732E-11-3.44716E-05-2.43444E-06 9.69290E-21-3.34869E-18
 -1      1140 8.08420E-05 2.18012E-11-3.44615E-05 5.28862E-08 1.30777E-20-3.25228E-18
 -1      1141 8.08730E-05 2.21162E-11-3.44730E-05 2.54267E-06 3.19226E-20-3.10696E-18
 -1      1142 8.09726E-05 2.30681E-11-3.45107E-05 5.10132E-06 3.34843E-20-2.88359E-18
 -1      1143 8.11770E-05 2.47854E-11-3.45906E-05 7.78126E-06 4.21399E-20-2.52164E-18
 -1      1144 8.15700E-05 2.76552E-11-3.47512E-05 1.07047E-05 6.04040E-20-1.98841E-18
 -1      1145 8.23544E-05 3.25024E-11-3.50808E-05 1.40559E-05 6.31569E-20-1.11464E-18
 -1      1146 8.40463E-05 4.19013E-11-3.57752E-05 1.81417E-05 9.11090E-20 4.45142E-19
 -1      1147 8.82954E-05 6.66689E-11-3.72999E-05 2.40168E-05 8.84091E-20 3.26285E-18
 -1      1148 1.06539E-04 1.63750E-10-4.06040E-05 3.61837E-05 1.43996E-19 8.73937E-18
 -1      1149 1.30115E-04-2.57322E-05-4.02404E-05-2.60963E-05-8.81550E-19 8.74816E-18
 -1      1150 9.73482E-05-2.88301E-05-3.15442E-05-6.82088E-07-3.23064E-19 6.60432E-18
 -1      1151 9.00405E-05-2.69909E-05-2.78573E-05 3.85942E-07-1.10538E-19 3.86983E-18
 -1      1152 8.81201E-05-2.65339E-05-2.66052E-05 2.49690E-07-6.89174E-20 2.06761E-18
 -1      1153 8.77544E-05-2.64051E-05-2.63467E-05 1.64592E-07-8.30737E-20 1.09638E-18
 -1      1154 8.81102E-05-2.64811E-05-2.64308E-05 1.16425E-07 5.63145E-21 5.57374E-19
 -1      1155 8.88003E-05-2.66670E-05-2.66350E-05 8.55164E-08 1.84784E-20 2.80844E-19
 -1      1156 8.96312E-05-2.69042E-05-2.68830E-05 6.40397E-08-6.74380E-20-3.26836E-19
 -1      1157 9.05007E-05-2.71584E-05-2.71431E-05 4.81663E-08 1.62311E-20-1.23856E-18
 -1      1158 9.13572E-05-2.74120E-05-2.74004E-05 3.60594E-08-2.36531E-20-2.00289E-18
 -1      1159 9.21819E-05-2.76580E-05-2.76492E-05 2.68069E-08-3.23089E-20-3.57756E-18
 -1      1160 9.29793E-05-2.78972E-05-2.78910E-05 1.99513E-08 3.86584E-20-3.73589E-18
 -1      1161 9.37718E-05-2.81359E-05-2.81324E-05 1.52999E-08-2.79997E-20-3.64737E-18
 -1      1162 9.45968E-05-2.83853E-05-2.83846E-05 1.28601E-08 1.15470E-19-3.47197E-18
 -1      1163 9.55060E-05-2.86606E-05-2.86632E-05 1.28383E-08 1.38690E-19-2.31098E-18
 -1      1164 9.65649E-05-2.89815E-05-2.89880E-05 1.56747E-08-3.43001E-19-2.04589E-18
 -1      1165 9.78539E-05-2.93718E-05-2.93834E-05 2.21021E-08-8.98314E-20-2.36395E-18
 -1      1166 9.94688E-05-2.98601E-05-2.98781E-05 3.32100E-08 5.60291E-20-1.91268E-18
 -1      1167 1.01519E-04-3.04786E-05-3.05046E-05 5.04676E-08 5.54815E-20-2.28226E-18
 -1      1168 1.04122E-04-3.12616E-05-3.12970E-05 7.55860E-08-2.42313E-19-2.94116E-18
 -1      1169 1.07386E-04-3.22404E-05-3.22842E-05 1.09943E-07-8.81113E-21-4.39674E-18
 -1      1170 1.11371E-04-3.34313E-05-3.34775E-05 1.53001E-07 8.66571E-20-3.14760E-18
 -1      1171 1.16021E-04-3.48144E-05-3.48460E-05 1.98780E-07 1.17806E-19-1.38125E-18
 -1      1172 1.21027E-04-3.62960E-05-3.62778E-05 2.29399E-07-2.06882E-19-2.94344E-18
 -1      1173 1.25659E-04-3.76552E-05-3.75333E-05 2.06405E-07-9.10693E-20-3.76998E-18
 -1      1174 1.28586E-04-3.84949E-05-3.82169E-05 6.74898E-08-2.73565E-20-2.50460E-18
 -1      1175 1.27924E-04-3.82594E-05-3.78344E-05-2.50018E-07 2.77774E-19-1.40634E-18
 -1      1176 1.21909E-04-3.64405E-05-3.60215E-05-7.26578E-07 7.97468E-20-6.54439E-19
 -1      1177 1.10432E-04-3.30489E-05-3.29165E-05-1.15567E-06-3.67169E-20-4.48716E-19
 -1      1178 9.67088E-05-2.90622E-05-2.94464E-05-1.16050E-06 2.14729E-19-6.09440E-19
 -1      1179 8.69767E-05-2.62801E-05-2.70893E-05-5.16856E-07-2.16510E-19-2.16946E-19
 -1      1180 8.66729E-05-2.61924E-05-2.70142E-05 4.65432E-07 3.47945E-20-2.08301E-18
 -1      1181 9.59717E-05-2.88516E-05-2.92622E-05 1.14069E-06 7.36522E-21-4.53840E-18
 -1      1182 1.09632E-04-3.28136E-05-3.27050E-05 1.17106E-06-1.95082E-20-5.15314E-18
 -1      1183 1.21336E-04-3.62699E-05-3.58568E-05 7.54353E-07 3.70584E-19-3.33667E-18
 -1      1184 1.27649E-04-3.81748E-05-3.77450E-05 2.72057E-07-1.84739E-19-3.04995E-18
 -1      1185 1.28538E-04-3.84782E-05-3.81906E-05-5.57824E-08 4.30465E-19-5.38600E-18
 -1      1186 1.25723E-04-3.76722E-05-3.75425E-05-2.03591E-07-1.16020E-19-4.81496E-18
 -1      1187 1.21104E-04-3.63174E-05-3.62945E-05-2.31667E-07 1.29503E-19-3.42860E-18
 -1      1188 1.16046E-04-3.48212E-05-3.48503E-05-2.03376E-07 7.09584E-20-1.95416E-18
 -1      1189 1.11312E-04-3.34133E-05-3.34584E-05-1.58521E-07-4.06034E-19-3.45129E-18
 -1      1190 1.07229E-04-3.21938E-05-3.22371E-05-1.15877E-07-1.53682E-20-6.56163E-18
 -1      1191 1.03870E-04-3.11873E-05-3.12224E-05-8.18201E-08-2.12955E-19-6.94754E-18
 -1      1192 1.01188E-04-3.03813E-05-3.04078E-05-5.69253E-08-1.29971E-19-6.10482E-18
 -1      1193 9.90921E-05-2.97501E-05-2.97699E-05-3.94855E-08 2.20538E-19-4.26923E-18
 -1      1194 9.74914E-05-2.92672E-05-2.92839E-05-2.68901E-08 4.30368E-19-1.57153E-18
 -1      1195 9.63192E-05-2.89130E-05-2.89305E-05-1.57521E-08-7.72843E-20-2.39680E-18
 -1      1196 9.55448E-05-2.86783E-05-2.86987E-05-8.66290E-10-2.91920E-19-2.69945E-18
 -1      1197 9.51850E-05-2.85771E-05-2.85755E-05 2.73450E-08 5.57056E-19-4.21160E-18
 -1      1198 9.51620E-05-2.85476E-05-2.85163E-05 2.55544E-08 8.31216E-19-1.23518E-18
 -1      1199 1.30949E-04-3.77081E-05-3.86267E-05 1.21700E-05-1.52651E-19 1.30824E-17
 -1      1200 9.64498E-05-2.81569E-05-3.12969E-05 8.02109E-07 6.32892E-20 1.11321E-17
 -1      1201 9.02557E-05-2.68939E-05-2.78385E-05 1.20861E-07 8.86804E-20 9.00899E-18
 -1      1202 8.82089E-05-2.64618E-05-2.66420E-05 9.93428E-09-2.75617E-21 7.87947E-18
 -1      1203 8.77979E-05-2.63686E-05-2.63746E-05-2.39711E-08 1.45584E-20 6.79357E-18
 -1      1204 8.81364E-05-2.64649E-05-2.64478E-05-3.24765E-08 1.16359E-19 5.78381E-18
 -1      1205 8.88198E-05-2.66619E-05-2.66471E-05-3.29966E-08 1.29425E-20 5.49203E-18
 -1      1206 8.96490E-05-2.69054E-05-2.68932E-05-3.04668E-08-7.28796E-20 6.01350E-18
 -1      1207 9.05194E-05-2.71636E-05-2.71526E-05-2.64502E-08 5.27632E-20 5.31460E-18
 -1      1208 9.13786E-05-2.74197E-05-2.74099E-05-2.16597E-08 1.14131E-19 4.30422E-18
 -1      1209 9.22066E-05-2.76674E-05-2.76590E-05-1.65479E-08 4.66153E-20 3.73642E-18
 -1      1210 9.30061E-05-2.79071E-05-2.79007E-05-1.14520E-08 9.85039E-20 3.28884E-18
 -1      1211 9.37958E-05-2.81444E-05-2.81405E-05-6.66646E-09 5.46462E-20 2.78299E-18
 -1      1212 9.46066E-05-2.83883E-05-2.83874E-05-2.50059E-09-6.76740E-20 1.89880E-18
 -1      1213 9.54781E-05-2.86506E-05-2.86531E-05 6.63678E-10 3.62959E-20 1.14455E-18
 -1      1214 9.64554E-05-2.89445E-05-2.89510E-05 2.31309E-09-8.14680E-20 8.08609E-19
 -1      1215 9.75849E-05-2.92836E-05-2.92945E-05 1.74802E-09-7.80251E-20 9.96114E-19
 -1      1216 9.89082E-05-2.96800E-05-2.96952E-05-1.94986E-09 1.93930E-19 2.76708E-19
 -1      1217 1.00452E-04-3.01413E-05-3.01601E-05-9.88345E-09 2.40983E-20-1.21566E-18
 -1      1218 1.02215E-04-3.06660E-05-3.06864E-05-2.31545E-08 9.28748E-20-8.06197E-19
 -1      1219 1.04145E-04-3.12379E-05-3.12555E-05-4.23845E-08-1.19719E-19 1.54090E-18
 -1      1220 1.06113E-04-3.18183E-05-3.18252E-05-6.67592E-08-9.32646E-22 2.07363E-18
 -1      1221 1.07883E-04-3.23373E-05-3.23219E-05-9.24919E-08 1.32256E-19 1.78122E-19
 -1      1222 1.09094E-04-3.26893E-05-3.26368E-05-1.10975E-07 3.65399E-20-1.53565E-18
 -1      1223 1.09273E-04-3.27375E-05-3.26350E-05-1.07727E-07 1.79415E-20-5.30593E-19
 -1      1224 1.07919E-04-3.23378E-05-3.21841E-05-6.48300E-08 6.42157E-20 1.22722E-18
 -1      1225 1.04688E-04-3.13912E-05-3.12104E-05 2.95827E-08-1.00142E-19 2.64142E-18
 -1      1226 9.96709E-05-2.99207E-05-2.97700E-05 1.65832E-07-1.28627E-20 8.51374E-19
 -1      1227 9.36427E-05-2.81437E-05-2.81000E-05 3.01403E-07-2.33360E-19 1.98095E-18
 -1      1228 8.80561E-05-2.64769E-05-2.65972E-05 3.70335E-07-2.74591E-20 3.54594E-18
 -1      1229 8.46120E-05-2.54231E-05-2.56963E-05 3.20949E-07-2.35697E-19 3.32670E-18
 -1      1230 8.44988E-05-2.53527E-05-2.56855E-05 1.58156E-07 7.88899E-20 2.78049E-18
 -1      1231 8.77570E-05-2.63021E-05-2.65676E-05-5.08236E-08-2.25324E-20 1.87215E-18
 -1      1232 9.32538E-05-2.79445E-05-2.80577E-05-2.19726E-07-3.35253E-19 2.14453E-18
 -1      1233 9.92896E-05-2.97657E-05-2.97220E-05-2.96792E-07 7.98560E-21 2.62316E-18
 -1      1234 1.04373E-04-3.13053E-05-3.11619E-05-2.83049E-07-8.74330E-20 5.51842E-19
 -1      1235 1.07686E-04-3.23088E-05-3.21371E-05-2.13828E-07 1.76790E-19-1.75992E-18
 -1      1236 1.09104E-04-3.27372E-05-3.25885E-05-1.28833E-07-1.28789E-19-2.24064E-18
 -1      1237 1.08953E-04-3.26911E-05-3.25873E-05-5.44243E-08 3.06877E-19-3.89901E-18
 -1      1238 1.07734E-04-3.23233E-05-3.22646E-05-1.34449E-09 1.90981E-19-4.19275E-18
 -1      1239 1.05928E-04-3.17796E-05-3.17558E-05 3.04416E-08-1.42761E-19-1.78050E-18
 -1      1240 1.03904E-04-3.11719E-05-3.11706E-05 4.57662E-08 2.42754E-19-1.76911E-19
 -1      1241 1.01912E-04-3.05744E-05-3.05854E-05 5.03600E-08-1.65272E-19 7.35152E-19
 -1      1242 1.00095E-04-3.00298E-05-3.00462E-05 4.90537E-08-2.40244E-19 3.05278E-18
 -1      1243 9.85234E-05-2.95594E-05-2.95775E-05 4.52450E-08-1.28881E-19 3.07225E-18
 -1      1244 9.72283E-05-2.91720E-05-2.91911E-05 4.09216E-08 7.97114E-19-1.42359E-18
 -1      1245 9.62247E-05-2.88721E-05-2.88936E-05 3.64634E-08 2.07264E-19-4.69695E-18
 -1      1246 9.55340E-05-2.86655E-05-2.86903E-05 2.86761E-08-2.12662E-19-3.35805E-18
 -1      1247 9.51930E-05-2.85614E-05-2.85791E-05 7.42719E-09 9.23725E-20-2.27348E-18
 -1      1248 9.51784E-05-2.85548E-05-2.85241E-05-2.02368E-08 1.06200E-19-1.81641E-18
 -1      1249 9.52546E-05-2.86319E-05-2.85258E-05-2.00491E-08-2.24337E-18-2.30279E-19
 -1      1250 9.52370E-05-2.86029E-05-2.85829E-05-1.92986E-08 7.99904E-19 1.71665E-20
 -1      1251 9.51357E-05-2.82570E-05-2.86930E-05 1.26298E-08 3.36278E-18 3.90651E-19
 -1      1252 9.49490E-05-2.76233E-05-2.88721E-05 2.85617E-08 2.44787E-18-4.25902E-19
 -1      1253 9.47165E-05-2.68336E-05-2.90952E-05 3.41711E-08 1.39377E-18-8.08700E-19
 -1      1254 9.44807E-05-2.60324E-05-2.93232E-05 3.24873E-08-2.97012E-18 2.16364E-19
 -1      1255 9.42766E-05-2.53375E-05-2.95220E-05 2.60243E-08-4.47666E-18 2.42624E-19
 -1      1256 9.41327E-05-2.48472E-05-2.96621E-05 1.51743E-08-6.09508E-18-1.39463E-19
 -1      1257 9.40729E-05-2.46429E-05-2.97200E-05 1.81807E-09-8.45163E-18 6.08590E-20
 -1      1258 9.41079E-05-2.47606E-05-2.96855E-05-1.23791E-08-5.27711E-18 1.20910E-18
 -1      1259 9.42345E-05-2.51914E-05-2.95616E-05-2.53734E-08-6.13757E-18-7.14363E-19
 -1      1260 9.44350E-05-2.58716E-05-2.93674E-05-3.49354E-08-1.22242E-17 4.77824E-19
 -1      1261 9.46788E-05-2.67023E-05-2.91320E-05-3.82297E-08-1.46450E-17 5.51878E-19
 -1      1262 9.49283E-05-2.75517E-05-2.88942E-05-3.33546E-08-6.23915E-18-8.70622E-20
 -1      1263 9.51361E-05-2.82543E-05-2.86996E-05-1.77459E-08-7.56132E-19 2.48092E-19
 -1      1264 9.52265E-05-2.85981E-05-2.85797E-05 4.05919E-08 1.13875E-18-9.40729E-19
 -1      1265 9.52611E-05-2.86481E-05-2.85178E-05 2.66850E-08 1.02687E-18 6.96399E-19
 -1      1266 3.44352E-05-1.06600E-04 1.79502E-05-1.32999E-05 1.51238E-18 1.01866E-18
 -1      1267 1.73120E-05-6.36133E-05 9.34024E-06-2.40783E-05 7.35902E-18 2.48879E-18
 -1      1268 7.70654E-06-8.97048E-06-5.80262E-06-2.73097E-07 1.12367E-17 7.93670E-18
 -1      1269 3.49044E-05 2.42563E-05-2.60677E-05 5.34018E-05 1.08081E-17 9.31397E-18
 -1      1270 1.09901E-04 1.24938E-05-4.69310E-05 1.02465E-04 4.58245E-18 6.50691E-18
 -1      1271 2.07879E-04-3.36015E-05-6.41735E-05 1.06507E-04 1.70423E-18 3.62869E-18
 -1      1272 2.89150E-04-8.14784E-05-7.50755E-05 5.90768E-05 1.93229E-19-2.60971E-18
 -1      1273 3.04613E-04-9.06990E-05-7.72612E-05-2.06366E-05 3.42413E-19-5.87227E-18
 -1      1274 2.53515E-04-6.01511E-05-7.05263E-05-9.00186E-05 2.89135E-18-9.71716E-18
 -1      1275 1.59004E-04-8.63370E-06-5.64032E-05-1.12226E-04 6.75255E-18-1.18059E-17
 -1      1276 6.87171E-05 2.44118E-05-3.73172E-05-8.23943E-05 8.99464E-18-1.04676E-17
 -1      1277 1.66153E-05 1.66159E-05-1.72358E-05-2.91839E-05 8.40934E-18-7.17437E-18
 -1      1278 8.13058E-06-2.71889E-05 1.63060E-07 1.28891E-05 3.43218E-18-1.95283E-18
 -1      1279 2.41863E-05-8.25958E-05 1.32427E-05 2.31659E-05 1.33323E-18-2.09852E-19
 -1      1280 3.56570E-05-1.12257E-04 1.91085E-05 3.08344E-06 9.43171E-19-4.82756E-19
 -1      1281 2.88540E-05-9.72509E-05 1.63627E-05-2.08721E-05-3.33011E-18-8.09869E-19
 -1      1282 1.23455E-05-4.92579E-05 5.58432E-06-2.32190E-05-5.23212E-18-3.00061E-18
 -1      1283 1.15468E-05 2.86319E-06-1.13609E-05 1.22381E-05-1.12757E-17-8.96330E-18
 -1      1284 5.33244E-05 2.29448E-05-3.21502E-05 6.76977E-05-1.20042E-17-1.24853E-17
 -1      1285 1.40998E-04-1.18248E-06-5.28264E-05 1.08496E-04-8.74646E-18-1.51704E-17
 -1      1286 2.42978E-04-5.13539E-05-6.96703E-05 9.80235E-05-4.66694E-18-1.16484E-17
 -1      1287 3.13037E-04-9.31788E-05-7.85703E-05 3.73064E-05-1.06668E-18-1.93039E-18
 -1      1288 3.06282E-04-8.88958E-05-7.78875E-05-4.66867E-05-7.25537E-19 5.98344E-18
 -1      1289 2.31042E-04-4.55567E-05-6.77276E-05-1.04602E-04-3.53594E-18 1.00068E-17
 -1      1290 1.23997E-04 6.16893E-06-4.99287E-05-1.05466E-04-5.90805E-18 9.93739E-18
 -1      1291 4.10271E-05 2.39537E-05-2.84802E-05-5.85915E-05-3.72525E-18 5.58872E-18
 -1      1292 8.55473E-06-6.96964E-06-7.14606E-06-1.87803E-06-3.88449E-18 2.24803E-18
 -1      1293 1.70691E-05-6.47727E-05 9.48394E-06 2.69308E-05-6.48912E-18 2.17603E-18
 -1      1294 3.42557E-05-1.07275E-04 1.81824E-05 1.49308E-05-5.93092E-18 9.71759E-19
 -1      1295 1.04354E-04-2.19975E-05-3.78624E-05-1.72760E-05-3.52789E-19 4.13987E-18
 -1      1296 9.02690E-05-6.67411E-06-3.59983E-05-2.04799E-05-8.27075E-19-8.86420E-19
 -1      1297 9.25914E-05-6.73181E-06-3.71984E-05-2.57635E-05-1.11279E-18 2.21817E-19
 -1      1298 8.58825E-05-4.09473E-06-3.51210E-05-1.64444E-05-7.48857E-19-2.41050E-18
 -1      1299 8.71212E-05-4.08699E-06-3.55853E-05-1.88637E-05-8.65456E-19-1.77350E-18
 -1      1300 9.20882E-05-1.04546E-05-3.50774E-05-1.90420E-05-1.41222E-18-7.70800E-19
 -1      1301 8.40980E-05-3.19073E-06-3.46872E-05-1.28271E-05-5.22143E-19-3.09295E-18
 -1      1302 8.46986E-05-3.16114E-06-3.49071E-05-1.46420E-05-6.32734E-19-2.79222E-18
 -1      1303 8.78501E-05-7.39295E-06-3.45674E-05-1.54194E-05-1.15130E-18-1.98878E-18
 -1      1304 8.32071E-05-2.72931E-06-3.44786E-05-9.69576E-06-3.37801E-19-3.41305E-18
 -1      1305 8.35109E-05-2.71081E-06-3.45840E-05-1.12441E-05-3.85506E-19-3.29264E-18
 -1      1306 8.58742E-05-5.98318E-06-3.43080E-05-1.19622E-05-7.46117E-19-2.61408E-18
 -1      1307 8.27303E-05-2.45958E-06-3.43782E-05-6.92120E-06-1.46007E-19-3.45624E-18
 -1      1308 8.28930E-05-2.45116E-06-3.44298E-05-8.29356E-06-2.32180E-19-3.41409E-18
 -1      1309 8.48477E-05-5.21944E-06-3.41830E-05-8.95011E-06-5.05672E-19-2.80876E-18
 -1      1310 8.24644E-05-2.29373E-06-3.43296E-05-4.29835E-06-2.13181E-20-3.43257E-18
 -1      1311 8.25513E-05-2.28982E-06-3.43550E-05-5.60082E-06-5.41572E-20-3.48710E-18
 -1      1312 8.42752E-05-4.76421E-06-3.41253E-05-6.21969E-06-1.77035E-19-2.90096E-18
 -1      1313 8.23369E-05-2.20399E-06-3.43096E-05-1.79114E-06 1.61374E-19-3.35569E-18
 -1      1314 8.23739E-05-2.20243E-06-3.43198E-05-3.04327E-06 1.04930E-19-3.38979E-18
 -1      1315 8.39607E-05-4.49977E-06-3.41001E-05-3.64607E-06 5.31596E-20-2.85158E-18
 -1      1316 8.23117E-05-2.17632E-06-3.43074E-05 6.70710E-07 2.97413E-19-3.22319E-18
 -1      1317 8.23104E-05-2.17637E-06-3.43071E-05-5.66171E-07 2.48272E-19-3.30647E-18
 -1      1318 8.38232E-05-4.37966E-06-3.40911E-05-1.17072E-06 3.39457E-19-2.77329E-18
 -1      1319 8.23820E-05-2.20663E-06-3.43212E-05 3.15135E-06 4.48898E-19-3.06889E-18
 -1      1320 8.23423E-05-2.20826E-06-3.43104E-05 1.89669E-06 4.06741E-19-3.15663E-18
 -1      1321 8.38279E-05-4.38378E-06-3.40914E-05 1.27464E-06 5.73840E-19-2.62177E-18
 -1      1322 8.25675E-05-2.29983E-06-3.43574E-05 5.71790E-06 5.82051E-19-2.85552E-18
 -1      1323 8.24774E-05-2.30322E-06-3.43314E-05 4.40961E-06 5.45079E-19-2.99700E-18
 -1      1324 8.39755E-05-4.51299E-06-3.41011E-05 3.75421E-06 8.13125E-19-2.49427E-18
 -1      1325 8.29151E-05-2.46562E-06-3.44325E-05 8.40196E-06 7.32922E-19-2.45333E-18
 -1      1326 8.27489E-05-2.47435E-06-3.43804E-05 7.02110E-06 6.53618E-19-2.68516E-18
 -1      1327 8.42995E-05-4.78644E-06-3.41263E-05 6.31414E-06 1.01233E-18-2.29482E-18
 -1      1328 8.35563E-05-2.74259E-06-3.45889E-05 1.14044E-05 9.24828E-19-1.87938E-18
 -1      1329 8.32440E-05-2.75977E-06-3.44819E-05 9.83852E-06 8.29258E-19-2.20886E-18
 -1      1330 8.48890E-05-5.25956E-06-3.41838E-05 9.05887E-06 1.29007E-18-1.84730E-18
 -1      1331 8.47557E-05-3.20355E-06-3.49149E-05 1.48542E-05 1.07724E-18-9.32954E-19
 -1      1332 8.41546E-05-3.24046E-06-3.46927E-05 1.30137E-05 9.93186E-19-1.50741E-18
 -1      1333 8.59536E-05-6.06350E-06-3.43092E-05 1.21290E-05 1.57021E-18-1.22396E-18
 -1      1334 8.72203E-05-4.08794E-06-3.56069E-05 1.91003E-05 1.14439E-18 7.66088E-19
 -1      1335 8.59499E-05-4.15219E-06-3.51286E-05 1.67036E-05 1.04069E-18-2.44369E-19
 -1      1336 8.79746E-05-7.51485E-06-3.45696E-05 1.56574E-05 1.69321E-18-1.25493E-19
 -1      1337 9.34046E-05-6.78442E-06-3.70940E-05 2.50992E-05 8.81761E-19 3.78920E-18
 -1      1338 9.00845E-05-6.43115E-06-3.60210E-05 2.11565E-05 9.11037E-19 1.96316E-18
 -1      1339 9.23180E-05-1.06900E-05-3.50628E-05 1.96821E-05 1.64049E-18 1.74616E-18
 -1      1340 1.23532E-04-2.49021E-05-3.89856E-05 2.83598E-05 3.39766E-19 9.03361E-18
 -1      1341 1.00007E-04-1.44088E-05-3.73283E-05 2.40512E-05 3.97682E-19 5.43393E-18
 -1      1342 1.01607E-04-1.93245E-05-3.53794E-05 2.14018E-05 1.39578E-18 4.40965E-18
 -1      1343 1.02512E-04-2.77777E-05-3.47290E-05 7.33329E-06 6.77573E-19 8.86992E-18
 -1      1344 1.05054E-04-3.02024E-05-3.34970E-05-7.96289E-06-9.72711E-19 4.50050E-18
 -1      1345 9.81649E-05-2.78144E-05-3.07332E-05-4.99182E-06-8.73767E-19 3.34144E-18
 -1      1346 9.54065E-05-2.78204E-05-2.92255E-05-2.49354E-06-6.39563E-19 2.95286E-18
 -1      1347 9.31703E-05-2.75280E-05-2.81852E-05-2.04676E-06-5.86438E-19 2.01115E-18
 -1      1348 9.94035E-05-2.80277E-05-3.09583E-05-7.89306E-06-1.44461E-18 1.51285E-18
 -1      1349 9.14799E-05-2.71698E-05-2.75507E-05-8.41246E-07-4.87613E-19 1.68808E-18
 -1      1350 9.07601E-05-2.70733E-05-2.72475E-05-7.30728E-07-4.63082E-19 1.04100E-18
 -1      1351 9.46356E-05-2.77449E-05-2.87919E-05-3.12656E-06-1.06043E-18 9.05214E-19
 -1      1352 9.00111E-05-2.68909E-05-2.70045E-05-1.74940E-07-3.05822E-19 8.27075E-19
 -1      1353 8.99369E-05-2.69170E-05-2.69693E-05-1.16562E-07-2.92633E-19 3.43578E-19
 -1      1354 9.24369E-05-2.74741E-05-2.78714E-05-1.05602E-06-7.27959E-19 3.77737E-19
 -1      1355 8.96811E-05-2.68505E-05-2.68962E-05 1.56310E-07-1.16550E-19 2.42966E-19
 -1      1356 8.98968E-05-2.69405E-05-2.69583E-05 1.85670E-07-1.22975E-19 7.69741E-20
 -1      1357 9.14833E-05-2.73316E-05-2.75063E-05-6.77193E-08-3.81185E-19-5.29859E-20
 -1      1358 8.99087E-05-2.69458E-05-2.69673E-05 3.21523E-07-1.09819E-19 1.27452E-20
 -1      1359 9.02572E-05-2.70667E-05-2.70684E-05 3.34486E-07-9.34433E-20-1.35783E-19
 -1      1360 9.12418E-05-2.73220E-05-2.74025E-05 4.28531E-07-2.72994E-19-3.08317E-19
 -1      1361 9.04143E-05-2.71127E-05-2.71203E-05 3.96731E-07-2.00918E-19-1.24825E-19
 -1      1362 9.08165E-05-2.72445E-05-2.72368E-05 4.00386E-07-1.94353E-19-4.71354E-19
 -1      1363 9.13975E-05-2.74010E-05-2.74324E-05 6.71878E-07-2.83539E-19-3.52485E-19
 -1      1364 9.10500E-05-2.73119E-05-2.73111E-05 4.22612E-07-1.37236E-19-6.43623E-19
 -1      1365 9.14646E-05-2.74439E-05-2.74318E-05 4.21408E-07-2.62675E-19-9.28801E-19
 -1      1366 9.17700E-05-2.75297E-05-2.75345E-05 7.77724E-07-4.37179E-19-2.99167E-19
 -1      1367 9.17364E-05-2.75219E-05-2.75173E-05 4.23886E-07-3.75897E-19-1.04643E-18
 -1      1368 9.21443E-05-2.76490E-05-2.76366E-05 4.20865E-07-4.70668E-19-1.67685E-18
 -1      1369 9.22565E-05-2.76834E-05-2.76755E-05 8.10755E-07-5.47554E-19-5.34087E-19
 -1      1370 9.24350E-05-2.77322E-05-2.77277E-05 4.17079E-07-4.40390E-19-1.75341E-18
 -1      1371 9.28314E-05-2.78537E-05-2.78442E-05 4.14462E-07-2.69091E-19-2.23075E-18
 -1      1372 9.28008E-05-2.78481E-05-2.78375E-05 8.11690E-07-6.82035E-19-6.51019E-19
 -1      1373 9.31350E-05-2.79402E-05-2.79391E-05 4.14159E-07-1.52116E-19-2.58790E-18
 -1      1374 9.35257E-05-2.80584E-05-2.80546E-05 4.13681E-07-1.68301E-19-2.68864E-18
 -1      1375 9.33779E-05-2.80179E-05-2.80121E-05 8.08629E-07-4.60660E-19-1.11363E-18
 -1      1376 9.38452E-05-2.81492E-05-2.81543E-05 4.24511E-07-6.61989E-20-2.79095E-18
 -1      1377 9.42445E-05-2.82687E-05-2.82727E-05 4.27640E-07-1.59356E-21-2.81248E-18
 -1      1378 9.39841E-05-2.81927E-05-2.81976E-05 8.22632E-07-2.10039E-19-2.00146E-18
 -1      1379 9.45906E-05-2.83668E-05-2.83807E-05 4.56155E-07 1.54645E-19-2.57765E-18
 -1      1380 9.50198E-05-2.84942E-05-2.85083E-05 4.64251E-07 2.45786E-19-2.40021E-18
 -1      1381 9.46327E-05-2.83768E-05-2.83978E-05 8.70864E-07 1.16592E-19-2.06460E-18
 -1      1382 9.54094E-05-2.86044E-05-2.86299E-05 5.16550E-07 4.99142E-19-2.34703E-18
 -1      1383 9.58971E-05-2.87487E-05-2.87751E-05 5.30977E-07 5.56908E-20-1.84977E-18
 -1      1384 9.53499E-05-2.85783E-05-2.86204E-05 9.68575E-07 3.39132E-19-1.84088E-18
 -1      1385 9.63528E-05-2.88774E-05-2.89174E-05 6.13096E-07-1.58735E-19-1.67497E-18
 -1      1386 9.69344E-05-2.90494E-05-2.90907E-05 6.35293E-07-2.16698E-19-1.84726E-18
 -1      1387 9.61741E-05-2.88086E-05-2.88770E-05 1.13034E-06 1.43818E-19-1.72678E-18
 -1      1388 9.74839E-05-2.92045E-05-2.92624E-05 7.53274E-07-1.40659E-19-1.41525E-18
 -1      1389 9.82022E-05-2.94175E-05-2.94762E-05 7.84757E-07 1.37056E-20-1.50711E-18
 -1      1390 9.71537E-05-2.90819E-05-2.91822E-05 1.37064E-06-2.01559E-20-1.03930E-18
 -1      1391 9.88778E-05-2.96083E-05-2.96876E-05 9.44223E-07 6.23132E-20-1.56935E-18
 -1      1392 9.97825E-05-2.98779E-05-2.99564E-05 9.86451E-07 1.37156E-19-1.26590E-18
 -1      1393 9.83470E-05-2.94159E-05-2.95533E-05 1.70344E-06 8.24633E-20-9.46716E-19
 -1      1394 1.00619E-04-3.01146E-05-3.02183E-05 1.19125E-06-1.52762E-19-1.52563E-18
 -1      1395 1.01765E-04-3.04586E-05-3.05581E-05 1.24524E-06-3.19834E-19-1.86234E-18
 -1      1396 9.98196E-05-2.98310E-05-3.00098E-05 2.14015E-06-2.09407E-19-1.25308E-18
 -1      1397 1.02799E-04-3.07521E-05-3.08813E-05 1.49443E-06-3.46357E-19-2.33463E-18
 -1      1398 1.04239E-04-3.11887E-05-3.13071E-05 1.55985E-06-7.12510E-19-3.02024E-18
 -1      1399 1.01641E-04-3.03504E-05-3.05710E-05 2.68456E-06-7.99877E-19-1.63526E-18
 -1      1400 1.05497E-04-3.15490E-05-3.16996E-05 1.84180E-06-3.89402E-19-2.94967E-18
 -1      1401 1.07272E-04-3.20940E-05-3.22219E-05 1.91517E-06-8.48638E-20-2.99200E-18
 -1      1402 1.03874E-04-3.09995E-05-3.12530E-05 3.32248E-06-9.20903E-19-1.92592E-18
 -1      1403 1.08765E-04-3.25280E-05-3.26844E-05 2.19712E-06 5.48616E-19-2.69916E-18
 -1      1404 1.10874E-04-3.31873E-05-3.33004E-05 2.26852E-06 7.46473E-19-1.73572E-18
 -1      1405 1.06562E-04-3.18033E-05-3.20618E-05 4.00275E-06 2.73741E-19-1.73419E-18
 -1      1406 1.12572E-04-3.36947E-05-3.38187E-05 2.48046E-06 2.78280E-19-1.93707E-18
 -1      1407 1.14926E-04-3.44503E-05-3.44980E-05 2.52818E-06-2.28165E-19-1.97147E-18
 -1      1408 1.09695E-04-3.27825E-05-3.29827E-05 4.60623E-06 5.41004E-19-1.71194E-18
 -1      1409 1.16730E-04-3.50158E-05-3.50324E-05 2.54330E-06-3.13922E-19-1.80354E-18
 -1      1410 1.19081E-04-3.58022E-05-3.56965E-05 2.52720E-06-1.65954E-19-2.37786E-18
 -1      1411 1.13166E-04-3.39414E-05-3.39639E-05 4.90349E-06-1.99348E-19-1.74248E-18
 -1      1412 1.20784E-04-3.63828E-05-3.61707E-05 2.15197E-06-8.24070E-20-1.82472E-18
 -1      1413 1.22643E-04-3.70537E-05-3.66727E-05 2.01017E-06-8.57224E-20-1.78541E-18
 -1      1414 1.16703E-04-3.52429E-05-3.48995E-05 4.51762E-06 2.66087E-20-3.84215E-19
 -1      1415 1.23901E-04-3.75585E-05-3.69706E-05 1.01934E-06 2.05670E-19-1.13978E-18
 -1      1416 1.24504E-04-3.78571E-05-3.70969E-05 6.82646E-07 3.22997E-19-9.48720E-19
 -1      1417 1.19792E-04-3.65553E-05-3.56204E-05 2.94615E-06 4.68674E-19 3.29377E-19
 -1      1418 1.24843E-04-3.81219E-05-3.70863E-05-1.03836E-06 1.93176E-19-1.19311E-18
 -1      1419 1.23312E-04-3.77039E-05-3.66176E-05-1.58950E-06 2.34483E-19-1.11025E-18
 -1      1420 1.21628E-04-3.75648E-05-3.59195E-05-2.44556E-07 6.21643E-20 3.47930E-19
 -1      1421 1.22255E-04-3.74873E-05-3.62159E-05-3.75391E-06 2.74730E-19-8.05422E-19
 -1      1422 1.18103E-04-3.60827E-05-3.50769E-05-4.37508E-06-2.67874E-19-9.31948E-19
 -1      1423 1.21207E-04-3.77049E-05-3.56342E-05-4.91956E-06 5.42088E-19-8.35730E-19
 -1      1424 1.15526E-04-3.52008E-05-3.43467E-05-6.03505E-06 1.77725E-19-4.08905E-19
 -1      1425 1.09448E-04-3.29578E-05-3.27748E-05-6.36107E-06-1.49200E-19-3.34049E-19
 -1      1426 1.17780E-04-3.63295E-05-3.47772E-05-9.66389E-06 2.69376E-19-2.40769E-19
 -1      1427 1.06047E-04-3.15683E-05-3.19631E-05-6.17367E-06-5.88774E-19-5.10337E-20
 -1      1428 1.00309E-04-2.93241E-05-3.05501E-05-5.78874E-06-2.18587E-19-3.51201E-19
 -1      1429 1.11787E-04-3.33534E-05-3.36247E-05-1.16732E-05-4.53877E-19 1.28378E-20
 -1      1430 9.77536E-05-2.81795E-05-3.00095E-05-3.13981E-06-3.19173E-19-5.13355E-19
 -1      1431 9.52808E-05-2.71834E-05-2.94155E-05-2.07643E-06-5.20819E-19-8.72378E-19
 -1      1432 1.05615E-04-2.99864E-05-3.26328E-05-8.33717E-06-2.65095E-19-1.26842E-18
 -1      1433 9.51995E-05-2.71477E-05-2.93977E-05 1.79732E-06-6.18784E-19-1.13917E-18
 -1      1434 9.74176E-05-2.80434E-05-2.99283E-05 2.88142E-06-3.24202E-19-1.77665E-18
 -1      1435 1.02848E-04-2.84294E-05-3.22313E-05-2.61179E-07-1.08248E-18-1.16334E-18
 -1      1436 9.98585E-05-2.91402E-05-3.04426E-05 5.64596E-06-2.80434E-19-2.21954E-18
 -1      1437 1.05476E-04-3.13422E-05-3.18239E-05 6.07624E-06-7.82440E-19-3.27230E-18
 -1      1438 1.05329E-04-2.98338E-05-3.25872E-05 7.96110E-06-7.92029E-19-3.09538E-19
 -1      1439 1.08872E-04-3.27404E-05-3.26268E-05 6.40198E-06-8.78135E-20-2.85101E-18
 -1      1440 1.14997E-04-3.50116E-05-3.42042E-05 6.10722E-06 6.30494E-19-2.77064E-18
 -1      1441 1.11380E-04-3.31441E-05-3.35494E-05 1.16225E-05-2.82214E-19-1.01832E-18
 -1      1442 1.17642E-04-3.59305E-05-3.49453E-05 4.51154E-06 5.97052E-19-2.19562E-18
 -1      1443 1.21921E-04-3.73868E-05-3.61160E-05 3.89317E-06 4.17058E-19-1.58490E-18
 -1      1444 1.17456E-04-3.61904E-05-3.47023E-05 9.85765E-06 8.12185E-19-4.34978E-19
 -1      1445 1.23053E-04-3.76324E-05-3.65360E-05 1.72327E-06-6.10181E-19-1.43440E-18
 -1      1446 1.24710E-04-3.80958E-05-3.70378E-05 1.16269E-06-4.95064E-19-1.89701E-18
 -1      1447 1.21033E-04-3.76550E-05-3.55799E-05 5.17408E-06-3.50328E-20-3.22680E-19
 -1      1448 1.24426E-04-3.78483E-05-3.70654E-05-5.96972E-07 1.87393E-19-2.26846E-18
 -1      1449 1.23903E-04-3.75753E-05-3.69622E-05-9.46554E-07-5.29462E-20-2.28065E-18
 -1      1450 1.21585E-04-3.75760E-05-3.58933E-05 4.40892E-07-4.47366E-19 7.40350E-19
 -1      1451 1.22670E-04-3.70750E-05-3.66739E-05-1.97940E-06-3.76923E-19-3.42921E-18
 -1      1452 1.20840E-04-3.64114E-05-3.61812E-05-2.13096E-06-3.91548E-19-3.19207E-18
 -1      1453 1.19825E-04-3.65913E-05-3.56161E-05-2.84913E-06-5.51491E-19-1.87283E-18
 -1      1454 1.19136E-04-3.58277E-05-3.57087E-05-2.53713E-06 2.20492E-19-1.75863E-18
 -1      1455 1.16775E-04-3.50362E-05-3.50427E-05-2.55908E-06 7.71063E-19-1.45174E-18
 -1      1456 1.16754E-04-3.52774E-05-3.49048E-05-4.50738E-06 2.33960E-19-7.47864E-19
 -1      1457 1.14953E-04-3.44636E-05-3.45040E-05-2.56229E-06 3.50448E-19-1.49241E-18
 -1      1458 1.12566E-04-3.36962E-05-3.38156E-05-2.51745E-06-7.89355E-19-1.78494E-18
 -1      1459 1.13195E-04-3.39614E-05-3.39669E-05-4.95099E-06 8.50017E-19 1.69751E-19
 -1      1460 1.10842E-04-3.31799E-05-3.32897E-05-2.31402E-06-9.56279E-19-2.63757E-18
 -1      1461 1.08689E-04-3.25059E-05-3.26612E-05-2.24360E-06-1.13170E-18-3.74780E-18
 -1      1462 1.09678E-04-3.27827E-05-3.29750E-05-4.68485E-06-1.29652E-18-1.65732E-18
 -1      1463 1.07167E-04-3.20626E-05-3.21899E-05-1.96304E-06-8.16713E-19-4.74019E-18
 -1      1464 1.05346E-04-3.15024E-05-3.16544E-05-1.88935E-06-1.35537E-19-5.16597E-18
 -1      1465 1.06489E-04-3.17826E-05-3.20394E-05-4.09259E-06-1.77891E-18-2.83223E-18
 -1      1466 1.04060E-04-3.11337E-05-3.12537E-05-1.60290E-06 3.68524E-19-4.65468E-18
 -1      1467 1.02578E-04-3.06832E-05-3.08161E-05-1.53597E-06 3.19235E-19-4.92423E-18
 -1      1468 1.03745E-04-3.09588E-05-3.12156E-05-3.40827E-06 2.99185E-19-3.06355E-18
 -1      1469 1.01526E-04-3.03836E-05-3.04873E-05-1.27584E-06 2.85295E-20-3.10933E-18
 -1      1470 1.00351E-04-3.00291E-05-3.01396E-05-1.21882E-06 5.54456E-19-3.23966E-18
 -1      1471 1.01467E-04-3.02928E-05-3.05220E-05-2.75175E-06 1.31423E-18-1.34841E-18
 -1      1472 9.95109E-05-2.97901E-05-2.98770E-05-9.94167E-07 1.12439E-18-2.87514E-18
 -1      1473 9.86000E-05-2.95161E-05-2.96074E-05-9.46510E-07 1.07314E-18-1.51884E-18
 -1      1474 9.96234E-05-2.97616E-05-2.99568E-05-2.17061E-06 1.54920E-18 3.26085E-20
 -1      1475 9.79450E-05-2.93291E-05-2.94036E-05-7.53707E-07 7.95763E-19-9.51322E-19
 -1      1476 9.72601E-05-2.91227E-05-2.92014E-05-7.12893E-07 7.01400E-19 4.81288E-19
 -1      1477 9.81654E-05-2.93430E-05-2.95090E-05-1.67076E-06 1.51239E-18 1.23644E-18
 -1      1478 9.67674E-05-2.89802E-05-2.90496E-05-5.41452E-07-2.36070E-19-7.00162E-19
 -1      1479 9.62839E-05-2.88335E-05-2.89078E-05-5.03752E-07-5.59653E-19-1.62162E-18
 -1      1480 9.70438E-05-2.90180E-05-2.91661E-05-1.23535E-06 1.94490E-19-2.30455E-20
 -1      1481 9.59358E-05-2.87303E-05-2.88026E-05-3.41386E-07-2.82313E-19-1.15830E-18
 -1      1482 9.56453E-05-2.86423E-05-2.87167E-05-3.02230E-07 7.54050E-20-1.57262E-18
 -1      1483 9.62184E-05-2.87727E-05-2.89166E-05-8.36710E-07-5.68903E-19 2.44486E-19
 -1      1484 9.54200E-05-2.85691E-05-2.86511E-05-1.40948E-07 5.36691E-19-1.62933E-18
 -1      1485 9.53220E-05-2.85540E-05-2.86111E-05-9.88089E-08 5.25512E-19-3.81769E-19
 -1      1486 9.56538E-05-2.85994E-05-2.87474E-05-4.54106E-07 5.94874E-19 8.64114E-19
 -1      1487 9.52136E-05-2.85694E-05-2.85514E-05 3.17085E-08 1.00547E-19 2.72134E-19
 -1      1488 9.53089E-05-2.85424E-05-2.86156E-05-8.02911E-08 8.95271E-19 5.93070E-19
 -1      1489 9.64794E-05-2.83342E-05-2.97431E-05 2.99904E-06 6.75668E-19 7.39449E-18
 -1      1490 1.02442E-04-2.93705E-05-3.21272E-05 4.46604E-06 6.02717E-19 8.36477E-18
 -1      1491 1.02242E-04-2.66935E-05-3.26801E-05 1.27869E-05 1.13328E-18 5.69714E-18
 -1      1492 9.19282E-05-2.73984E-05-2.77311E-05 1.15495E-06 4.65008E-19 6.12053E-18
 -1      1493 9.38785E-05-2.75548E-05-2.86462E-05 1.47684E-06 4.80188E-19 6.80748E-18
 -1      1494 9.64009E-05-2.80044E-05-2.95079E-05 4.87283E-06 1.03619E-18 4.75858E-18
 -1      1495 9.00920E-05-2.69724E-05-2.70312E-05 3.33741E-07 3.15771E-19 5.24356E-18
 -1      1496 9.07099E-05-2.69909E-05-2.73047E-05 4.96626E-07 3.34035E-19 5.71101E-18
 -1      1497 9.29549E-05-2.75523E-05-2.80726E-05 1.85584E-06 7.39486E-19 3.78067E-18
 -1      1498 8.95746E-05-2.68540E-05-2.68556E-05-5.52152E-08 4.02030E-19 4.45017E-18
 -1      1499 8.96133E-05-2.67921E-05-2.68841E-05 3.41333E-08 2.68299E-19 4.91415E-18
 -1      1500 9.14029E-05-2.72811E-05-2.74895E-05 5.18834E-07 6.16455E-19 3.05239E-18
 -1      1501 8.97129E-05-2.69080E-05-2.68995E-05-2.46251E-07 2.29409E-19 3.84370E-18
 -1      1502 8.94825E-05-2.67999E-05-2.68337E-05-1.95419E-07 2.52234E-19 4.24213E-18
 -1      1503 9.08776E-05-2.72016E-05-2.72955E-05-1.36763E-07 5.43021E-19 2.67486E-18
 -1      1504 9.01828E-05-2.70550E-05-2.70433E-05-3.35625E-07-7.15718E-20 4.02184E-18
 -1      1505 8.98284E-05-2.69255E-05-2.69393E-05-3.06796E-07-1.40530E-20 3.88676E-18
 -1      1506 9.09103E-05-2.72483E-05-2.72897E-05-4.65203E-07 5.86355E-20 2.65255E-18
 -1      1507 9.08113E-05-2.72468E-05-2.72333E-05-3.69777E-07 1.94479E-19 3.90462E-18
 -1      1508 9.04074E-05-2.71113E-05-2.71146E-05-3.54091E-07 2.46243E-20 3.83308E-18
 -1      1509 9.12434E-05-2.73676E-05-2.73806E-05-6.20722E-07-1.55369E-20 2.34547E-18
 -1      1510 9.15041E-05-2.74559E-05-2.74424E-05-3.74859E-07 2.48257E-19 3.22146E-18
 -1      1511 9.10898E-05-2.73228E-05-2.73202E-05-3.66794E-07 3.30846E-19 3.68794E-18
 -1      1512 9.17328E-05-2.75243E-05-2.75220E-05-6.82151E-07 4.92344E-19 1.98598E-18
 -1      1513 9.22134E-05-2.76684E-05-2.76567E-05-3.67393E-07 3.47830E-19 2.72819E-18
 -1      1514 9.18068E-05-2.75411E-05-2.75363E-05-3.63174E-07 2.38012E-19 3.00820E-18
 -1      1515 9.22980E-05-2.76978E-05-2.76890E-05-6.95321E-07 5.00667E-19 1.70347E-18
 -1      1516 9.29211E-05-2.78792E-05-2.78709E-05-3.58613E-07 2.19622E-19 2.69555E-18
 -1      1517 9.25266E-05-2.77575E-05-2.77535E-05-3.55490E-07 1.90283E-19 2.84025E-18
 -1      1518 9.28978E-05-2.78776E-05-2.78686E-05-6.89632E-07 3.38976E-19 1.61540E-18
 -1      1519 9.36295E-05-2.80894E-05-2.80856E-05-3.56544E-07 3.88957E-19 1.85189E-18
 -1      1520 9.32421E-05-2.79706E-05-2.79699E-05-3.52406E-07 3.57053E-19 2.40401E-18
 -1      1521 9.35168E-05-2.80602E-05-2.80556E-05-6.85254E-07 5.01358E-19 1.46168E-18
 -1      1522 9.43557E-05-2.83042E-05-2.83060E-05-3.67075E-07 2.58515E-19 1.34374E-18
 -1      1523 9.39633E-05-2.81838E-05-2.81884E-05-3.60229E-07 2.96295E-19 1.66165E-18
 -1      1524 9.41575E-05-2.82471E-05-2.82504E-05-6.96622E-07 4.85953E-19 8.57109E-19
 -1      1525 9.51274E-05-2.85321E-05-2.85402E-05-3.94463E-07-1.88047E-20 1.07153E-18
 -1      1526 9.47129E-05-2.84042E-05-2.84157E-05-3.83536E-07 1.72736E-20 1.23605E-18
 -1      1527 9.48349E-05-2.84435E-05-2.84572E-05-7.34191E-07 1.98613E-19 4.81554E-19
 -1      1528 9.59794E-05-2.87839E-05-2.87985E-05-4.41418E-07-5.18299E-20 8.13880E-19
 -1      1529 9.55220E-05-2.86416E-05-2.86611E-05-4.25346E-07 5.03385E-20 1.03610E-18
 -1      1530 9.55732E-05-2.86572E-05-2.86830E-05-8.05144E-07 2.37384E-20 6.14737E-19
 -1      1531 9.69497E-05-2.90714E-05-2.90922E-05-5.08765E-07-2.25784E-19 1.25063E-18
 -1      1532 9.64272E-05-2.89074E-05-2.89355E-05-4.86896E-07-2.15220E-20 9.35002E-19
 -1      1533 9.64015E-05-2.88975E-05-2.89363E-05-9.13258E-07 3.58302E-20 9.81248E-19
 -1      1534 9.80750E-05-2.94062E-05-2.94320E-05-5.94617E-07 2.56785E-19 5.44986E-19
 -1      1535 9.74662E-05-2.92137E-05-2.92498E-05-5.66957E-07 2.01988E-19 6.90661E-19
 -1      1536 9.73503E-05-2.91745E-05-2.92255E-05-1.05791E-06 4.34796E-19 7.88837E-19
 -1      1537 9.93836E-05-2.97975E-05-2.98257E-05-6.92962E-07 5.51393E-19-2.69737E-19
 -1      1538 9.86720E-05-2.95715E-05-2.96136E-05-6.60598E-07 3.47846E-19 1.65340E-19
 -1      1539 9.84461E-05-2.94977E-05-2.95579E-05-1.23209E-06 6.45037E-19 6.53555E-20
 -1      1540 1.00884E-04-3.02496E-05-3.02752E-05-7.91565E-07-7.55299E-21-1.12328E-18
 -1      1541 1.00065E-04-2.99886E-05-3.00321E-05-7.57332E-07 3.93383E-19-5.01807E-19
 -1      1542 9.97043E-05-2.98740E-05-2.99366E-05-1.41923E-06 7.75794E-19 7.08596E-20
 -1      1543 1.02553E-04-3.07570E-05-3.07717E-05-8.69312E-07-3.21560E-19-3.54430E-19
 -1      1544 1.01640E-04-3.04662E-05-3.05027E-05-8.38689E-07-4.03469E-19-9.11507E-19
 -1      1545 1.01119E-04-3.03049E-05-3.03579E-05-1.58890E-06-1.63449E-19-6.25833E-19
 -1      1546 1.04310E-04-3.12985E-05-3.12899E-05-8.93524E-07-5.36526E-19 9.56307E-19
 -1      1547 1.03350E-04-3.09938E-05-3.10097E-05-8.75657E-07-6.56334E-19 2.22068E-19
 -1      1548 1.02650E-04-3.07827E-05-3.08068E-05-1.69201E-06-1.01543E-18-1.52051E-19
 -1      1549 1.06002E-04-3.18301E-05-3.17814E-05-8.18803E-07 3.44010E-19 7.53297E-19
 -1      1550 1.05086E-04-3.15425E-05-3.15181E-05-8.27215E-07 3.65433E-19 1.31336E-18
 -1      1551 1.04204E-04-3.12850E-05-3.12524E-05-1.65717E-06-2.15704E-20-9.81036E-20
 -1      1552 1.07378E-04-3.22773E-05-3.21701E-05-5.90560E-07 6.50647E-19-5.96463E-19
 -1      1553 1.06653E-04-3.20573E-05-3.19680E-05-6.42590E-07 5.22770E-19 3.82925E-19
 -1      1554 1.05624E-04-3.17684E-05-3.16439E-05-1.39250E-06 8.96733E-19 1.53723E-19
 -1      1555 1.08089E-04-3.25325E-05-3.23533E-05-1.58215E-07-2.67212E-20-7.54119E-19
 -1      1556 1.07763E-04-3.24503E-05-3.22723E-05-2.71589E-07-2.06464E-21-8.20725E-19
 -1      1557 1.06672E-04-3.21619E-05-3.19105E-05-8.00065E-07 4.43283E-19 8.35767E-20
 -1      1558 1.07731E-04-3.24632E-05-3.22169E-05 4.96650E-07-2.61449E-19 4.36645E-19
 -1      1559 1.08043E-04-3.26004E-05-3.23234E-05 3.12043E-07-4.25062E-19-4.87671E-19
 -1      1560 1.07049E-04-3.23644E-05-3.19680E-05 1.87803E-07-4.81419E-19-2.81695E-19
 -1      1561 1.05945E-04-3.19417E-05-3.16694E-05 1.31633E-06-5.95646E-19 1.78594E-18
 -1      1562 1.07101E-04-3.23676E-05-3.20152E-05 1.07227E-06-2.44104E-19 1.09394E-18
 -1      1563 1.06440E-04-3.22529E-05-3.17387E-05 1.54421E-06-8.64232E-19 1.05380E-18
 -1      1564 1.02614E-04-3.09066E-05-3.06956E-05 2.12351E-06 1.54385E-19 2.33339E-18
 -1      1565 1.04669E-04-3.16363E-05-3.12861E-05 1.86787E-06-1.28355E-19 2.21131E-18
 -1      1566 1.04621E-04-3.17133E-05-3.11844E-05 3.06629E-06-4.84622E-19 1.71334E-18
 -1      1567 9.80784E-05-2.94460E-05-2.94106E-05 2.62409E-06 9.67231E-20 1.42683E-18
 -1      1568 1.00808E-04-3.03918E-05-3.01729E-05 2.44141E-06 4.05074E-19 1.94410E-18
 -1      1569 1.01628E-04-3.07055E-05-3.03459E-05 4.32995E-06 6.85190E-19 2.17882E-18
 -1      1570 9.32550E-05-2.78534E-05-2.80769E-05 2.50592E-06-1.06347E-18 2.48885E-18
 -1      1571 9.60932E-05-2.88049E-05-2.88512E-05 2.48951E-06-8.84549E-19 1.43937E-18
 -1      1572 9.79088E-05-2.93485E-05-2.93666E-05 4.77156E-06-7.50132E-19 1.97032E-18
 -1      1573 8.94752E-05-2.65867E-05-2.70479E-05 1.62674E-06 3.55668E-19 2.83608E-18
 -1      1574 9.16302E-05-2.72580E-05-2.76248E-05 1.82363E-06-1.47218E-19 2.38794E-18
 -1      1575 9.43489E-05-2.79673E-05-2.84768E-05 3.94343E-06-7.06584E-19 1.86453E-18
 -1      1576 8.79808E-05-2.60893E-05-2.66379E-05 1.80624E-07-2.52720E-19 2.30204E-18
 -1      1577 8.87432E-05-2.62411E-05-2.68382E-05 5.44273E-07-2.89844E-21 2.42963E-18
 -1      1578 9.20298E-05-2.70207E-05-2.79235E-05 1.85239E-06 7.73844E-20 1.85203E-18
 -1      1579 8.93055E-05-2.65514E-05-2.69807E-05-1.33187E-06 1.83555E-19 2.32087E-18
 -1      1580 8.84043E-05-2.61237E-05-2.67382E-05-9.32172E-07 1.57429E-20 2.48666E-18
 -1      1581 9.17579E-05-2.68870E-05-2.78741E-05-8.86294E-07-7.89196E-20 1.59779E-18
 -1      1582 9.29743E-05-2.77939E-05-2.79629E-05-2.37043E-06 5.31923E-19 2.18884E-18
 -1      1583 9.07290E-05-2.69440E-05-2.73585E-05-2.07634E-06 3.71067E-19 2.79645E-18
 -1      1584 9.36303E-05-2.76294E-05-2.83428E-05-3.30380E-06 1.47245E-19 2.54307E-18
 -1      1585 9.77686E-05-2.93785E-05-2.92799E-05-2.65647E-06-4.52422E-19 1.45174E-18
 -1      1586 9.49128E-05-2.83896E-05-2.85006E-05-2.54241E-06 2.71398E-20 1.44056E-18
 -1      1587 9.69783E-05-2.89486E-05-2.91841E-05-4.61143E-06 5.63363E-19 1.55364E-18
 -1      1588 1.02341E-04-3.08441E-05-3.05757E-05-2.26582E-06-7.58806E-20 9.92934E-19
 -1      1589 9.96595E-05-2.99830E-05-2.98290E-05-2.31795E-06 5.41307E-21 1.26931E-18
 -1      1590 1.00737E-04-3.03727E-05-3.01583E-05-4.58761E-06-2.03056E-19 2.40425E-19
 -1      1591 1.05739E-04-3.18908E-05-3.15768E-05-1.49377E-06 4.22722E-19-2.48194E-19
 -1      1592 1.03771E-04-3.13120E-05-3.10140E-05-1.64441E-06 4.79679E-19 6.05523E-19
 -1      1593 1.03940E-04-3.15084E-05-3.10282E-05-3.55400E-06 8.93176E-19-3.29899E-19
 -1      1594 1.07593E-04-3.24254E-05-3.21554E-05-6.52783E-07 5.45542E-19-1.82957E-18
 -1      1595 1.06533E-04-3.21599E-05-3.18402E-05-8.29561E-07 3.19348E-19-1.12285E-18
 -1      1596 1.06029E-04-3.21727E-05-3.16332E-05-2.06833E-06 9.00191E-19-8.82810E-19
 -1      1597 1.08000E-04-3.25044E-05-3.23173E-05 5.11039E-08 4.65408E-19-3.19747E-18
 -1      1598 1.07773E-04-3.25012E-05-3.22378E-05-1.03376E-07 1.97931E-19-2.64693E-18
 -1      1599 1.06885E-04-3.23732E-05-3.19152E-05-6.18258E-07 8.20609E-19-2.15241E-18
 -1      1600 1.07309E-04-3.22525E-05-3.21486E-05 5.36270E-07 2.72755E-20-3.42945E-18
 -1      1601 1.07703E-04-3.24290E-05-3.22506E-05 4.24681E-07 1.59914E-19-2.75645E-18
 -1      1602 1.06684E-04-3.22180E-05-3.18995E-05 5.16668E-07 1.57068E-19-2.50656E-18
 -1      1603 1.05925E-04-3.18020E-05-3.17630E-05 8.08093E-07-1.16399E-18-7.57883E-19
 -1      1604 1.06700E-04-3.20782E-05-3.19802E-05 7.40338E-07-6.45300E-19-2.49436E-18
 -1      1605 1.05731E-04-3.18387E-05-3.16583E-05 1.25336E-06-1.27530E-18-4.89155E-19
 -1      1606 1.04203E-04-3.12613E-05-3.12649E-05 9.12805E-07-1.87919E-19 7.14697E-19
 -1      1607 1.05156E-04-3.15754E-05-3.15388E-05 8.80425E-07-4.03661E-19 8.64635E-20
 -1      1608 1.04339E-04-3.13478E-05-3.12759E-05 1.63157E-06-1.25649E-18 2.33943E-18
 -1      1609 1.02401E-04-3.07068E-05-3.07343E-05 9.04779E-07 2.83124E-19 4.31312E-19
 -1      1610 1.03388E-04-3.10180E-05-3.10216E-05 8.97048E-07-1.42796E-19 7.10561E-19
 -1      1611 1.02764E-04-3.08261E-05-3.08273E-05 1.74101E-06-2.61461E-20 1.74347E-18
 -1      1612 1.00686E-04-3.01856E-05-3.02239E-05 8.30234E-07-1.34191E-18 3.48964E-18
 -1      1613 1.01616E-04-3.04705E-05-3.04970E-05 8.37783E-07-1.08805E-18 1.86419E-18
 -1      1614 1.01187E-04-3.03244E-05-3.03685E-05 1.67484E-06-1.62648E-18 3.34423E-18
 -1      1615 9.91535E-05-2.97233E-05-2.97649E-05 7.21822E-07 1.63316E-19 3.57410E-18
 -1      1616 9.99777E-05-2.99704E-05-3.00080E-05 7.37967E-07 1.02795E-19 3.77764E-18
 -1      1617 9.97236E-05-2.98712E-05-2.99367E-05 1.50796E-06-5.10145E-19 4.21413E-18
 -1      1618 9.78493E-05-2.93313E-05-2.93732E-05 5.98734E-07 1.58689E-18 8.92468E-19
 -1      1619 9.85446E-05-2.95362E-05-2.95786E-05 6.19615E-07 4.62121E-19 1.49349E-18
 -1      1620 9.84362E-05-2.94794E-05-2.95539E-05 1.29083E-06 1.53784E-18 1.50818E-18
 -1      1621 9.67949E-05-2.90142E-05-2.90569E-05 4.69070E-07 1.32744E-18-1.79973E-18
 -1      1622 9.73509E-05-2.91753E-05-2.92208E-05 4.93368E-07 2.02299E-18 1.22561E-18
 -1      1623 9.73563E-05-2.91534E-05-2.92319E-05 1.05121E-06 1.66450E-18 1.29746E-18
 -1      1624 9.60038E-05-2.87747E-05-2.88212E-05 3.31820E-07-4.23914E-19-1.36396E-18
 -1      1625 9.64122E-05-2.88898E-05-2.89408E-05 3.60760E-07-4.27492E-19-1.73128E-18
 -1      1626 9.64970E-05-2.88930E-05-2.89770E-05 7.98220E-07 3.02548E-19 1.63501E-18
 -1      1627 9.54915E-05-2.86184E-05-2.86680E-05 1.80656E-07-7.02356E-19-1.25847E-18
 -1      1628 9.57390E-05-2.86819E-05-2.87416E-05 2.18177E-07-8.58489E-20-1.76992E-18
 -1      1629 9.58634E-05-2.86966E-05-2.87914E-05 5.28580E-07-5.69927E-21 4.08838E-19
 -1      1630 9.52655E-05-2.85574E-05-2.85856E-05 3.11770E-08 5.59977E-19-1.00332E-18
 -1      1631 9.53419E-05-2.85634E-05-2.86201E-05 7.04624E-08 1.13227E-20-1.11671E-18
 -1      1632 9.54539E-05-2.85723E-05-2.86689E-05 2.41270E-07 2.77081E-19 1.80375E-19
 -1      1633 9.52236E-05-2.85702E-05-2.85566E-05-1.95177E-08-1.68556E-19-6.01744E-19
 -1      1634 9.52277E-05-2.83916E-05-2.86486E-05 1.39924E-07 1.40696E-18 9.75753E-19
 -1      1635 9.52541E-05-2.84902E-05-2.86100E-05 1.01357E-07 3.75712E-19 1.14352E-18
 -1      1636 9.50867E-05-2.79581E-05-2.87730E-05 2.93984E-07 2.63637E-18 1.23854E-18
 -1      1637 9.51685E-05-2.82052E-05-2.87017E-05 2.65535E-07 2.10819E-18 5.50321E-19
 -1      1638 9.52088E-05-2.81979E-05-2.87253E-05 4.03801E-07 1.41932E-18 9.56186E-19
 -1      1639 9.48856E-05-2.73488E-05-2.89459E-05 3.95651E-07 7.14707E-19-1.60029E-18
 -1      1640 9.50015E-05-2.76985E-05-2.88466E-05 3.80351E-07 1.98788E-18-5.46034E-20
 -1      1641 9.50428E-05-2.77452E-05-2.88481E-05 6.58290E-07 1.13318E-18-6.06604E-19
 -1      1642 9.46597E-05-2.66576E-05-2.91440E-05 4.29602E-07-5.34640E-19-8.72828E-19
 -1      1643 9.47877E-05-2.70473E-05-2.90328E-05 4.28393E-07-3.45785E-19 1.04976E-19
 -1      1644 9.48406E-05-2.71795E-05-2.89999E-05 8.00105E-07-5.83594E-19-1.53397E-18
 -1      1645 9.44461E-05-2.59995E-05-2.93340E-05 3.97919E-07-3.63391E-18-1.07549E-18
 -1      1646 9.45643E-05-2.63611E-05-2.92303E-05 4.09019E-07-1.30850E-18-2.10576E-18
 -1      1647 9.46282E-05-2.65785E-05-2.91623E-05 8.12727E-07-1.57355E-18-2.36610E-18
 -1      1648 9.42676E-05-2.54482E-05-2.94935E-05 3.07317E-07-3.48683E-18-4.03072E-19
 -1      1649 9.43626E-05-2.57386E-05-2.94102E-05 3.29260E-07-3.23176E-18-5.08164E-19
 -1      1650 9.44332E-05-2.60199E-05-2.93144E-05 7.04495E-07-2.96091E-18-1.75999E-18
 -1      1651 9.41536E-05-2.50967E-05-2.95953E-05 1.71225E-07-5.23370E-18-1.80601E-18
 -1      1652 9.42092E-05-2.52659E-05-2.95467E-05 2.00774E-07-3.53311E-18-1.57000E-18
 -1      1653 9.42784E-05-2.55761E-05-2.94352E-05 4.92270E-07-2.52443E-18-1.27082E-18
 -1      1654 9.41210E-05-2.49980E-05-2.96236E-05 7.85866E-09-4.36252E-18 4.41588E-19
 -1      1655 9.41283E-05-2.50192E-05-2.96176E-05 4.11903E-08-5.66334E-18 1.10576E-18
 -1      1656 9.41868E-05-2.53152E-05-2.95059E-05 2.06027E-07-2.92022E-18-1.09152E-18
 -1      1657 9.41763E-05-2.51718E-05-2.95728E-05-1.60635E-07-2.92823E-18 1.81401E-18
 -1      1658 9.41331E-05-2.50384E-05-2.96112E-05-1.28076E-07-4.51188E-18 1.32086E-18
 -1      1659 9.41719E-05-2.52768E-05-2.95154E-05-1.15914E-07-1.72914E-18 1.17959E-18
 -1      1660 9.43140E-05-2.55989E-05-2.94490E-05-3.09661E-07-5.73376E-18-3.16467E-18
 -1      1661 9.42255E-05-2.53270E-05-2.95270E-05-2.82837E-07-3.22937E-18-1.43708E-18
 -1      1662 9.42380E-05-2.54711E-05-2.94615E-05-4.28707E-07-2.30458E-18 5.59249E-20
 -1      1663 9.45123E-05-2.62086E-05-2.92732E-05-4.13373E-07-7.93728E-18-5.92391E-19
 -1      1664 9.43925E-05-2.58439E-05-2.93773E-05-3.97241E-07-5.35502E-18-2.28821E-18
 -1      1665 9.43777E-05-2.58715E-05-2.93523E-05-6.83176E-07-2.25085E-18-3.02411E-18
 -1      1666 9.47488E-05-2.69284E-05-2.90671E-05-4.53731E-07-6.04844E-18 9.26232E-19
 -1      1667 9.46124E-05-2.65170E-05-2.91839E-05-4.51528E-07-7.83172E-18 1.81798E-18
 -1      1668 9.45730E-05-2.64254E-05-2.92026E-05-8.36992E-07-1.60308E-18 9.34219E-19
 -1      1669 9.49808E-05-2.76282E-05-2.88686E-05-4.13708E-07-2.48654E-18 1.66540E-18
 -1      1670 9.48543E-05-2.72492E-05-2.89755E-05-4.28202E-07-5.12542E-18 1.17351E-18
 -1      1671 9.48008E-05-2.70590E-05-2.90337E-05-8.55230E-07-1.34203E-18 2.33590E-18
 -1      1672 9.51677E-05-2.81757E-05-2.87122E-05-2.92288E-07-7.27049E-19 1.20867E-18
 -1      1673 9.50728E-05-2.79076E-05-2.87896E-05-3.25031E-07-1.89562E-18 1.02778E-18
 -1      1674 9.50216E-05-2.76670E-05-2.88726E-05-7.16470E-07-1.55004E-18 2.20755E-18
 -1      1675 9.52712E-05-2.84360E-05-2.86385E-05-1.81358E-07 5.05441E-19 7.41493E-19
 -1      1676 9.52381E-05-2.83216E-05-2.86824E-05-2.43130E-07 1.07489E-19 4.74127E-19
 -1      1677 9.52269E-05-2.81039E-05-2.87708E-05-5.41862E-07-8.27654E-19 2.14802E-18
 -1      1678 9.53973E-05-2.83928E-05-2.87127E-05-3.75273E-07-7.02188E-20 5.99071E-19
 -1      1679 2.05128E-05-6.65437E-05 1.37245E-05-5.73980E-06 1.95580E-18 1.65828E-18
 -1      1680 2.40342E-05-7.70962E-05 1.59816E-05 2.52236E-06-4.39398E-19 1.27881E-18
 -1      1681 1.96664E-05-3.78437E-05 3.64299E-06 4.02526E-06 4.83995E-18 3.87454E-18
 -1      1682 2.40583E-05-6.03369E-05 9.55654E-06 1.75596E-07 3.19331E-18 1.85368E-18
 -1      1683 3.42101E-05-1.12877E-05-1.16906E-05 2.86942E-05 7.55807E-18 6.71782E-18
 -1      1684 2.88028E-05-3.16771E-05-3.26460E-06 1.14390E-05 6.15285E-18 4.67012E-18
 -1      1685 8.11479E-05-5.07202E-06-3.16050E-05 6.03592E-05 5.73357E-18 3.40677E-18
 -1      1686 5.46615E-05-1.07600E-05-2.09680E-05 3.69093E-05 7.04393E-18 4.68240E-18
 -1      1687 1.41168E-04-1.57042E-05-5.02783E-05 7.83218E-05 3.00019E-18 4.01155E-18
 -1      1688 1.00076E-04-2.47650E-06-4.12014E-05 6.70011E-05 5.14234E-18 5.22535E-18
 -1      1689 2.07298E-04-4.37084E-05-6.49067E-05 5.96132E-05 2.32177E-18 3.47284E-20
 -1      1690 1.65325E-04-2.35324E-05-5.77462E-05 6.98538E-05 2.87970E-18 2.59616E-18
 -1      1691 2.49975E-04-6.30995E-05-7.36008E-05 2.16790E-05 1.03338E-18-2.46275E-18
 -1      1692 2.27082E-04-5.00636E-05-7.04504E-05 5.23382E-05 1.50592E-18-4.81962E-19
 -1      1693 2.41727E-04-5.77778E-05-7.30371E-05-2.91935E-05 1.26335E-18-4.86578E-18
 -1      1694 2.49511E-04-6.22658E-05-7.41176E-05 4.55549E-06 7.31413E-19-3.51966E-18
 -1      1695 1.99429E-04-3.67274E-05-6.51651E-05-6.84382E-05 3.65008E-18-7.46575E-18
 -1      1696 2.34772E-04-5.59272E-05-7.04520E-05-4.63176E-05 2.04484E-18-6.04316E-18
 -1      1697 1.33714E-04-1.07959E-05-5.05138E-05-7.52188E-05 5.58788E-18-8.06206E-18
 -1      1698 1.77460E-04-2.93052E-05-5.86389E-05-7.66477E-05 4.20912E-18-7.49794E-18
 -1      1699 7.65987E-05-4.07146E-06-3.17381E-05-5.30367E-05 6.03087E-18-6.30701E-18
 -1      1700 1.11331E-04-8.77670E-06-4.16342E-05-7.15491E-05 5.22026E-18-7.33107E-18
 -1      1701 3.77780E-05-1.37495E-05-1.35155E-05-2.56070E-05 3.84214E-18-4.54348E-18
 -1      1702 5.31352E-05-1.48155E-06-2.25728E-05-4.70137E-05 5.52858E-18-6.18673E-18
 -1      1703 2.49630E-05-4.16641E-05 1.98911E-06-4.48505E-06 1.31460E-18-1.79613E-18
 -1      1704 2.52777E-05-1.91123E-05-5.52637E-06-1.69378E-05 3.21873E-18-3.89169E-18
 -1      1705 2.38796E-05-6.76319E-05 1.26580E-05-6.15980E-07 1.28325E-19 4.67350E-19
 -1      1706 1.86645E-05-4.80761E-05 7.83547E-06 1.09440E-06 5.67512E-19-5.19919E-19
 -1      1707 2.14232E-05-7.08916E-05 1.55134E-05-5.22357E-06-6.94885E-19-5.70265E-19
 -1      1708 2.06347E-05-6.80000E-05 1.47503E-05 3.24813E-06-9.61382E-20 1.23879E-19
 -1      1709 1.91279E-05-5.54922E-05 1.06760E-05-3.32509E-06-2.31494E-18-1.55685E-18
 -1      1710 2.29611E-05-6.91236E-05 1.41037E-05 1.18921E-06-7.70376E-19-9.87217E-19
 -1      1711 2.11306E-05-2.99665E-05-1.22886E-07 6.70788E-06-4.70950E-18-4.83635E-18
 -1      1712 2.41392E-05-5.29205E-05 6.55233E-06-5.93198E-07-2.91803E-18-2.39414E-18
 -1      1713 4.77539E-05-1.00448E-05-1.75738E-05 3.75860E-05-7.49709E-18-8.43984E-18
 -1      1714 3.56991E-05-2.65183E-05-8.09730E-06 1.67392E-05-5.19062E-18-6.21976E-18
 -1      1715 1.01549E-04-1.22722E-05-3.69305E-05 6.30028E-05-7.24298E-18-8.90909E-18
 -1      1716 7.13848E-05-1.20960E-05-2.69803E-05 4.32128E-05-7.75120E-18-7.78931E-18
 -1      1717 1.67311E-04-2.74480E-05-5.58876E-05 7.44287E-05-5.98429E-18-9.80356E-18
 -1      1718 1.21087E-04-1.00743E-05-4.64119E-05 6.82632E-05-7.23112E-18-9.84168E-18
 -1      1719 2.27328E-04-5.23908E-05-6.92398E-05 4.69054E-05-3.98550E-18-4.97717E-18
 -1      1720 1.88674E-04-3.33378E-05-6.29160E-05 6.31433E-05-5.52541E-18-8.26619E-18
 -1      1721 2.62450E-04-6.74142E-05-7.62379E-05 5.10392E-06-2.07777E-18 1.61254E-19
 -1      1722 2.46810E-04-5.88257E-05-7.42027E-05 4.01118E-05-3.11454E-18-3.99376E-18
 -1      1723 2.40938E-04-5.59883E-05-7.30450E-05-4.40191E-05-2.53199E-18 4.36222E-18
 -1      1724 2.59621E-04-6.63955E-05-7.56921E-05-1.14748E-05-1.75251E-18 1.43360E-18
 -1      1725 1.83009E-04-2.96071E-05-6.17113E-05-7.36721E-05-2.91337E-18 6.25957E-18
 -1      1726 2.26575E-04-5.14297E-05-6.86720E-05-5.92535E-05-2.22981E-18 5.64378E-18
 -1      1727 1.10554E-04-6.77716E-06-4.36492E-05-6.78207E-05-3.26023E-18 5.59804E-18
 -1      1728 1.56957E-04-2.23168E-05-5.35535E-05-7.85347E-05-3.51180E-18 6.41627E-18
 -1      1729 5.62188E-05-6.83669E-06-2.33471E-05-3.96313E-05-1.68644E-18 3.32715E-18
 -1      1730 8.47545E-05-3.23366E-06-3.38027E-05-6.32495E-05-2.63173E-18 6.70342E-18
 -1      1731 3.17562E-05-3.29053E-05-4.06922E-06-1.10946E-05-3.22465E-18 5.58195E-19
 -1      1732 4.01025E-05-1.23418E-05-1.37094E-05-3.11959E-05-2.02949E-18 1.07743E-18
 -1      1733 2.38526E-05-6.21006E-05 9.96436E-06 3.35975E-06-4.50452E-18 4.15351E-19
 -1      1734 1.88823E-05-3.84481E-05 3.83678E-06-7.54324E-07-3.99376E-18 1.73261E-18
 -1      1735 2.36873E-05-7.62934E-05 1.59062E-05-7.55205E-07-2.00239E-18 2.07883E-18
 -1      1736 2.02832E-05-6.66255E-05 1.37986E-05 7.53517E-06-4.45539E-18 1.07361E-18
 -1      1737 1.16498E-04-3.17181E-05-3.54321E-05 4.52061E-05 3.85612E-18 1.53991E-18
 -1      1738 7.53656E-05-3.60104E-05-1.78124E-05 4.09912E-05 3.29242E-18 1.72075E-18
 -1      1739 9.52723E-05-2.85616E-05-2.85897E-05 2.40450E-08-2.63095E-19-2.67464E-19
 -1      1740 9.52987E-05-2.84514E-05-2.86490E-05 1.72140E-07 7.14401E-19 1.52741E-18
 -1      1741 1.91127E-05-4.78632E-05 8.15704E-06 1.53046E-05 5.62430E-19 2.57583E-18
 -1      1742 3.95175E-05-4.05526E-05-2.37093E-06 2.93194E-05 2.22007E-18 4.86430E-18
 -1      1743 1.21124E-05-5.13417E-05 1.20976E-05 1.17148E-06-4.04564E-19 3.16155E-18
 -1      1744 1.58214E-04-2.99730E-05-5.19131E-05 4.07109E-05 3.32640E-18 1.18500E-18
 -1      1745 1.91776E-04-3.22220E-05-6.40291E-05 2.52061E-05 3.15562E-18-3.90482E-19
 -1      1746 2.08485E-04-3.31786E-05-6.98791E-05 6.74311E-06 1.95072E-18-2.08434E-18
 -1      1747 2.03262E-04-3.30045E-05-6.79663E-05-1.84369E-05 1.96469E-18-3.03238E-18
 -1      1748 1.78859E-04-3.10652E-05-5.92416E-05-3.87006E-05 3.40703E-18-4.06322E-18
 -1      1749 1.38725E-04-3.02861E-05-4.44640E-05-4.51139E-05 3.43557E-18-4.62141E-18
 -1      1750 9.57497E-05-3.11256E-05-2.75347E-05-4.46662E-05 2.07862E-18-4.43972E-18
 -1      1751 5.61553E-05-3.47789E-05-1.11053E-05-3.56205E-05 1.10792E-18-4.28006E-18
 -1      1752 2.99019E-05-4.31378E-05 2.10506E-06-2.35078E-05-1.71948E-19-1.83849E-18
 -1      1753 1.41281E-05-4.61215E-05 9.59970E-06-1.10367E-05-7.87317E-19-3.21873E-20
 -1      1754 1.16663E-05-4.42159E-05 1.01651E-05 4.84706E-06-6.64391E-19-1.34382E-18
 -1      1755 2.38366E-05-4.45089E-05 5.09799E-06 1.81984E-05-1.78385E-18-3.09336E-18
 -1      1756 5.02317E-05-4.07050E-05-6.57762E-06 3.13190E-05-2.07269E-18-6.03289E-18
 -1      1757 9.32109E-05-4.01305E-05-2.30483E-05 4.06276E-05-3.76167E-18-6.07661E-18
 -1      1758 1.34765E-04-3.77926E-05-4.05568E-05 3.98695E-05-4.56805E-18-6.01393E-18
 -1      1759 1.73873E-04-3.42201E-05-5.64527E-05 3.19531E-05-4.70876E-18-4.53671E-18
 -1      1760 2.02690E-04-3.45713E-05-6.75192E-05 1.54293E-05-5.20375E-18-2.59700E-18
 -1      1761 2.18080E-04-3.65687E-05-7.18496E-05-1.04531E-06-3.89212E-18-1.88518E-19
 -1      1762 2.04688E-04-3.54522E-05-6.72193E-05-2.38286E-05-2.09535E-18 1.82281E-18
 -1      1763 1.70932E-04-3.35409E-05-5.52693E-05-4.11640E-05-1.99339E-18 3.43387E-18
 -1      1764 1.23384E-04-3.18264E-05-3.80809E-05-4.56590E-05-8.70326E-19 3.89466E-18
 -1      1765 7.90212E-05-3.69043E-05-1.94095E-05-3.92453E-05-1.04693E-18 2.94598E-18
 -1      1766 4.26572E-05-4.23539E-05-2.92117E-06-2.83159E-05-1.85077E-18-7.18496E-19
 -1      1767 1.88547E-05-4.86162E-05 8.38454E-06-1.18812E-05-2.62496E-18 1.10538E-18
 -1      1768 1.05967E-04-2.31481E-05-3.55774E-05-1.68551E-05-1.15447E-18 3.34218E-18
 -1      1769 8.91438E-05-1.05852E-05-3.37933E-05-1.33320E-05-1.14935E-18-1.70614E-18
 -1      1770 9.04611E-05-1.16273E-05-3.39282E-05-1.51412E-05-1.45350E-18-1.31989E-18
 -1      1771 9.24529E-05-1.38668E-05-3.38415E-05-1.60076E-05-1.49010E-18-8.33427E-19
 -1      1772 9.41544E-05-1.58093E-05-3.40806E-05-1.76678E-05-1.65774E-18-1.66442E-19
 -1      1773 9.33876E-05-1.63399E-05-3.30354E-05-1.37742E-05-1.56053E-18-9.08231E-19
 -1      1774 8.62435E-05-7.67632E-06-3.37426E-05-7.86568E-06-5.23953E-19-2.28805E-18
 -1      1775 8.66401E-05-7.97470E-06-3.37734E-05-9.25549E-06-6.21494E-19-2.22815E-18
 -1      1776 8.56381E-05-7.03776E-06-3.37451E-05-5.32082E-06-1.64095E-19-2.33413E-18
 -1      1777 8.58674E-05-7.21672E-06-3.37578E-05-6.62585E-06-3.39481E-19-2.34168E-18
 -1      1778 8.76290E-05-9.86674E-06-3.33582E-05-6.92745E-06-4.95412E-19-2.20144E-18
 -1      1779 8.53104E-05-6.67834E-06-3.37518E-05-2.88878E-06 1.37015E-19-2.31182E-18
 -1      1780 8.54282E-05-6.77326E-06-3.37563E-05-4.12875E-06 7.33337E-21-2.32914E-18
 -1      1781 8.70034E-05-9.15360E-06-3.33964E-05-4.53595E-06-7.44264E-20-2.22227E-18
 -1      1782 8.51824E-05-6.52963E-06-3.37567E-05-5.17145E-07 4.91718E-19-2.18042E-18
 -1      1783 8.52171E-05-6.55827E-06-3.37577E-05-1.72688E-06 3.25708E-19-2.26671E-18
 -1      1784 8.66774E-05-8.77372E-06-3.34195E-05-2.21608E-06 2.44458E-19-2.20166E-18
 -1      1785 8.52265E-05-6.56709E-06-3.37578E-05 1.84559E-06 7.70640E-19-2.02826E-18
 -1      1786 8.51859E-05-6.53411E-06-3.37566E-05 6.34876E-07 6.22166E-19-2.12169E-18
 -1      1787 8.65809E-05-8.65961E-06-3.34270E-05 6.57793E-08 5.74391E-19-2.08733E-18
 -1      1788 8.54524E-05-6.79784E-06-3.37563E-05 4.25185E-06 1.02265E-18-1.92411E-18
 -1      1789 8.53276E-05-6.69700E-06-3.37517E-05 3.00879E-06 8.96443E-19-2.00098E-18
 -1      1790 8.66944E-05-8.79301E-06-3.34186E-05 2.34876E-06 8.80389E-19-1.92665E-18
 -1      1791 8.58999E-05-7.25165E-06-3.37574E-05 6.71398E-06 1.25923E-18-1.77411E-18
 -1      1792 8.56672E-05-7.06938E-06-3.37449E-05 5.42632E-06 1.15881E-18-1.88808E-18
 -1      1793 8.70366E-05-9.19100E-06-3.33948E-05 4.65165E-06 1.16617E-18-1.78167E-18
 -1      1794 8.66987E-05-8.04136E-06-3.37718E-05 9.37708E-06 1.62099E-18-1.26925E-18
 -1      1795 8.62858E-05-7.72514E-06-3.37414E-05 7.95569E-06 1.43849E-18-1.54856E-18
 -1      1796 8.76783E-05-9.92456E-06-3.33556E-05 7.02735E-06 1.46644E-18-1.55683E-18
 -1      1797 8.80912E-05-9.38743E-06-3.38193E-05 1.22577E-05 1.87047E-18-6.60315E-19
 -1      1798 8.73618E-05-8.83067E-06-3.37513E-05 1.06642E-05 1.75218E-18-1.04016E-18
 -1      1799 8.87839E-05-1.11594E-05-3.32983E-05 9.50302E-06 1.83323E-18-1.06544E-18
 -1      1800 9.06095E-05-1.18354E-05-3.39202E-05 1.53072E-05 1.96753E-18 4.14808E-19
 -1      1801 8.92426E-05-1.07383E-05-3.37851E-05 1.35175E-05 1.87106E-18-2.38969E-19
 -1      1802 9.06596E-05-1.32197E-05-3.32072E-05 1.19771E-05 1.98907E-18-3.40997E-19
 -1      1803 9.58233E-05-1.70216E-05-3.39760E-05 1.76949E-05 1.76646E-18 2.31018E-18
 -1      1804 9.28196E-05-1.43345E-05-3.38147E-05 1.61990E-05 1.83896E-18 1.16290E-18
 -1      1805 9.39398E-05-1.68784E-05-3.30150E-05 1.38982E-05 1.97496E-18 7.78953E-19
 -1      1806 1.01849E-04-2.50726E-05-3.33359E-05 1.44269E-05 1.38474E-18 4.47583E-18
 -1      1807 9.80133E-05-1.96002E-05-3.36052E-05 1.69687E-05 1.57593E-18 3.07526E-18
 -1      1808 9.72735E-05-2.18383E-05-3.24105E-05 1.32535E-05 1.75202E-18 2.24530E-18
 -1      1809 9.86755E-05-2.61127E-05-3.13193E-05 9.44062E-06 1.44803E-18 4.03585E-18
 -1      1810 1.00084E-04-1.95450E-05-3.41953E-05-1.88734E-05-1.50778E-18 1.12825E-18
 -1      1811 9.52339E-05-2.72619E-05-2.91624E-05 4.07189E-06 1.06201E-18 3.27459E-18
 -1      1812 9.76653E-05-2.73677E-05-3.01716E-05 6.40596E-06 1.19874E-18 3.71751E-18
 -1      1813 9.75108E-05-2.55950E-05-3.08131E-05 8.76526E-06 1.43810E-18 2.68536E-18
 -1      1814 9.97515E-05-2.25242E-05-3.28165E-05-1.44727E-05-1.59531E-18 5.91970E-19
 -1      1815 9.68926E-05-2.69579E-05-2.98573E-05-5.71029E-06-1.17701E-18 3.36159E-19
 -1      1816 9.50841E-05-2.70121E-05-2.91468E-05-3.90251E-06-1.01093E-18 3.84540E-20
 -1      1817 9.42674E-05-2.72134E-05-2.86403E-05-2.42313E-06-8.93540E-19 7.86152E-20
 -1      1818 9.34974E-05-2.72940E-05-2.83357E-05-1.56748E-06-6.82953E-19-1.50851E-19
 -1      1819 9.54569E-05-2.65280E-05-2.95622E-05-4.47458E-06-1.07015E-18-3.34631E-19
 -1      1820 9.29765E-05-2.73449E-05-2.80687E-05-7.36719E-07-4.78441E-19-1.16245E-19
 -1      1821 9.26787E-05-2.74078E-05-2.79482E-05-2.94232E-07-3.63777E-19-2.41954E-19
 -1      1822 9.42538E-05-2.72031E-05-2.87566E-05-1.82220E-06-7.00966E-19-4.95941E-19
 -1      1823 9.24099E-05-2.74355E-05-2.78152E-05 1.69012E-07-3.49968E-19-2.72892E-19
 -1      1824 9.23864E-05-2.75119E-05-2.77882E-05 4.00281E-07-3.10672E-19-3.79486E-19
 -1      1825 9.35623E-05-2.75075E-05-2.83261E-05-3.42357E-07-4.11498E-19-4.30415E-19
 -1      1826 9.22950E-05-2.75445E-05-2.77348E-05 6.52798E-07-3.06705E-19-3.11906E-19
 -1      1827 9.24245E-05-2.76311E-05-2.77590E-05 7.68109E-07-2.93532E-19-4.34808E-19
 -1      1828 9.32591E-05-2.76909E-05-2.81135E-05 4.83983E-07-3.71083E-19-4.20924E-19
 -1      1829 9.24489E-05-2.76715E-05-2.77546E-05 8.98411E-07-4.02703E-19-4.59936E-19
 -1      1830 9.26613E-05-2.77618E-05-2.78075E-05 9.49254E-07-3.24212E-19-3.68178E-19
 -1      1831 9.32252E-05-2.78339E-05-2.80339E-05 9.31721E-07-4.02839E-19-4.59528E-19
 -1      1832 9.27589E-05-2.78074E-05-2.78336E-05 1.01089E-06-4.36565E-19-4.52304E-19
 -1      1833 9.30146E-05-2.78967E-05-2.79026E-05 1.02846E-06-5.70290E-19-5.04733E-19
 -1      1834 9.33660E-05-2.79591E-05-2.80376E-05 1.16110E-06-4.01980E-19-4.85794E-19
 -1      1835 9.31586E-05-2.79450E-05-2.79482E-05 1.05612E-06-6.60810E-19-5.33997E-19
 -1      1836 9.34372E-05-2.80315E-05-2.80265E-05 1.06116E-06-5.55342E-19-4.31304E-19
 -1      1837 9.36174E-05-2.80727E-05-2.80948E-05 1.27193E-06-5.67000E-19-7.79111E-19
 -1      1838 9.36125E-05-2.80809E-05-2.80854E-05 1.07896E-06-7.97615E-19-4.83168E-19
 -1      1839 9.39066E-05-2.81647E-05-2.81705E-05 1.08641E-06-7.72593E-19-1.03969E-18
 -1      1840 9.39404E-05-2.81768E-05-2.81875E-05 1.33095E-06-9.26098E-19-6.53607E-19
 -1      1841 9.41070E-05-2.82153E-05-2.82400E-05 1.11227E-06-6.17613E-19-1.19170E-18
 -1      1842 9.44190E-05-2.82984E-05-2.83320E-05 1.13373E-06-2.76249E-19-1.42529E-18
 -1      1843 9.43154E-05-2.82734E-05-2.83064E-05 1.38592E-06-8.66142E-19-6.39622E-19
 -1      1844 9.46449E-05-2.83511E-05-2.84120E-05 1.18194E-06 7.85036E-20-1.47577E-18
 -1      1845 9.49846E-05-2.84374E-05-2.85134E-05 1.22717E-06 2.04183E-19-1.36496E-18
 -1      1846 9.47375E-05-2.83653E-05-2.84479E-05 1.47342E-06-1.27330E-19-8.29198E-19
 -1      1847 9.52415E-05-2.84943E-05-2.86057E-05 1.30997E-06 3.04002E-19-1.27785E-18
 -1      1848 9.56248E-05-2.85887E-05-2.87209E-05 1.38782E-06 3.45704E-19-1.13359E-18
 -1      1849 9.52133E-05-2.84570E-05-2.86130E-05 1.62343E-06 3.17752E-19-6.43184E-19
 -1      1850 9.59225E-05-2.86528E-05-2.88288E-05 1.51640E-06 1.51280E-19-1.23898E-18
 -1      1851 9.63711E-05-2.87621E-05-2.89639E-05 1.63539E-06 1.04011E-19-9.67275E-19
 -1      1852 9.57585E-05-2.85540E-05-2.88058E-05 1.86228E-06 1.82912E-19-6.05689E-19
 -1      1853 9.67227E-05-2.88372E-05-2.90918E-05 1.82029E-06 2.26067E-19-9.83812E-19
 -1      1854 9.72629E-05-2.89695E-05-2.92542E-05 1.98865E-06 2.22778E-19-8.43846E-19
 -1      1855 9.63963E-05-2.86637E-05-2.90331E-05 2.21420E-06 2.27394E-19-8.44458E-19
 -1      1856 9.76842E-05-2.90605E-05-2.94072E-05 2.23953E-06 1.06409E-20-8.46272E-19
 -1      1857 9.83469E-05-2.92260E-05-2.96054E-05 2.46461E-06-3.40964E-21-8.59518E-19
 -1      1858 9.71558E-05-2.87955E-05-2.93032E-05 2.70152E-06 9.00924E-20-9.48538E-19
 -1      1859 9.88556E-05-2.93396E-05-2.97888E-05 2.78885E-06-6.28988E-20-1.01102E-18
 -1      1860 9.96743E-05-2.95508E-05-3.00319E-05 3.07522E-06-3.64305E-19-1.42512E-18
 -1      1861 9.80714E-05-2.89625E-05-2.96252E-05 3.34289E-06-1.91474E-19-1.12914E-18
 -1      1862 1.00290E-04-2.96961E-05-3.02502E-05 3.47471E-06-7.44739E-19-1.01040E-18
 -1      1863 1.01298E-04-2.99687E-05-3.05461E-05 3.82013E-06-9.56707E-19-1.18797E-18
 -1      1864 9.91811E-05-2.91842E-05-3.00070E-05 4.14826E-06-4.41552E-19-7.25973E-19
 -1      1865 1.02040E-04-3.01596E-05-3.08017E-05 4.28495E-06-9.75324E-19-1.05288E-18
 -1      1866 1.03265E-04-3.05134E-05-3.11555E-05 4.67264E-06-6.20243E-19-9.32391E-19
 -1      1867 1.00527E-04-2.94912E-05-3.04533E-05 5.10866E-06-8.39150E-19-6.06673E-19
 -1      1868 1.04155E-04-3.07721E-05-3.14465E-05 5.16981E-06-7.57962E-20-7.14664E-19
 -1      1869 1.05607E-04-3.12316E-05-3.18560E-05 5.55526E-06 7.51120E-19-7.70173E-19
 -1      1870 1.02154E-04-2.99342E-05-3.09624E-05 6.17745E-06-2.65221E-19-3.37340E-19
 -1      1871 1.06670E-04-3.15935E-05-3.21732E-05 6.01072E-06 7.70138E-19-7.80154E-19
 -1      1872 1.08325E-04-3.21870E-05-3.26232E-05 6.30188E-06 3.30517E-19-1.27895E-18
 -1      1873 1.04115E-04-3.05962E-05-3.15210E-05 7.23954E-06 6.58925E-19-2.10674E-19
 -1      1874 1.09589E-04-3.27055E-05-3.29481E-05 6.57520E-06 1.82563E-19-8.43483E-19
 -1      1875 1.11359E-04-3.34568E-05-3.34025E-05 6.60917E-06 1.93749E-19-5.04190E-19
 -1      1876 1.06471E-04-3.16055E-05-3.21012E-05 8.06610E-06 6.63165E-19-3.11521E-19
 -1      1877 1.12855E-04-3.41978E-05-3.37069E-05 6.46741E-06 4.59611E-19-1.86132E-19
 -1      1878 1.14556E-04-3.50996E-05-3.41032E-05 5.99958E-06 8.63067E-19 5.00941E-19
 -1      1879 1.09290E-04-3.31324E-05-3.26595E-05 8.26081E-06 7.49877E-19 3.87652E-19
 -1      1880 1.16288E-04-3.61052E-05-3.43567E-05 5.11520E-06 6.67905E-19 7.29203E-19
 -1      1881 1.17598E-04-3.70557E-05-3.46105E-05 3.86198E-06 5.05163E-19 8.95853E-19
 -1      1882 1.12619E-04-3.53272E-05-3.31494E-05 7.22786E-06 1.09594E-18 6.62765E-19
 -1      1883 1.19464E-04-3.82386E-05-3.48002E-05 1.89602E-06 1.18214E-19 5.32433E-19
 -1      1884 1.19920E-04-3.89299E-05-3.48323E-05-2.96592E-07 1.30747E-19 5.86981E-19
 -1      1885 1.16361E-04-3.81205E-05-3.35540E-05 4.24566E-06 3.48759E-19 5.16596E-19
 -1      1886 1.21540E-04-3.98904E-05-3.49939E-05-3.41584E-06 3.69359E-19 5.74732E-19
 -1      1887 1.20638E-04-3.97235E-05-3.47840E-05-6.23243E-06 4.80691E-19 2.88626E-19
 -1      1888 1.20015E-04-4.08215E-05-3.39436E-05-1.18529E-06 2.85900E-19 7.57507E-19
 -1      1889 1.21219E-04-3.96309E-05-3.50111E-05-9.73748E-06 3.47945E-19 3.05130E-20
 -1      1890 1.18763E-04-3.79857E-05-3.46506E-05-1.19943E-05 6.62671E-20 2.29003E-19
 -1      1891 1.22316E-04-4.17039E-05-3.45119E-05-8.49045E-06 4.30981E-19 3.52927E-19
 -1      1892 1.17616E-04-3.61706E-05-3.50315E-05-1.39318E-05-3.43081E-19-5.94247E-20
 -1      1893 1.14248E-04-3.31885E-05-3.46882E-05-1.38785E-05-4.57292E-19 6.33157E-20
 -1      1894 1.21609E-04-3.87495E-05-3.54803E-05-1.48447E-05-3.09571E-19-3.76389E-19
 -1      1895 1.11850E-04-3.02361E-05-3.51260E-05-1.19555E-05-4.71824E-19-8.04006E-19
 -1      1896 1.09251E-04-2.76209E-05-3.49359E-05-8.58139E-06-8.52115E-19-1.73153E-18
 -1      1897 1.17573E-04-3.19537E-05-3.67815E-05-1.53423E-05-9.88699E-19-1.66588E-19
 -1      1898 1.07881E-04-2.60321E-05-3.51560E-05-2.86515E-06-9.53336E-19-1.68619E-18
 -1      1899 1.07815E-04-2.59581E-05-3.51496E-05 2.22702E-06-9.43542E-19-1.45189E-18
 -1      1900 1.13231E-04-2.55020E-05-3.78013E-05-6.95206E-06-7.34272E-19-1.75732E-18
 -1      1901 1.09042E-04-2.73960E-05-3.49498E-05 8.03646E-06-4.27355E-19-8.91191E-19
 -1      1902 1.11515E-04-2.99009E-05-3.51273E-05 1.15739E-05-4.96626E-19-3.00644E-19
 -1      1903 1.13114E-04-2.53537E-05-3.78359E-05 6.21874E-06-3.12926E-19-1.35648E-18
 -1      1904 1.13913E-04-3.28374E-05-3.46896E-05 1.37529E-05-5.48335E-19 1.05972E-19
 -1      1905 1.17287E-04-3.58590E-05-3.50239E-05 1.39961E-05 8.43605E-19 5.37389E-19
 -1      1906 1.17260E-04-3.14750E-05-3.68461E-05 1.50868E-05 1.49819E-20-4.00044E-19
 -1      1907 1.18542E-04-3.77916E-05-3.46344E-05 1.22211E-05 8.82301E-19 4.61342E-19
 -1      1908 1.21069E-04-3.95287E-05-3.49969E-05 1.00342E-05 5.80535E-19 6.85746E-19
 -1      1909 1.21428E-04-3.84385E-05-3.55395E-05 1.50307E-05 6.61215E-19 6.12863E-19
 -1      1910 1.20554E-04-3.96929E-05-3.47591E-05 6.54432E-06 3.42519E-19 3.09571E-19
 -1      1911 1.21532E-04-3.99213E-05-3.49779E-05 3.72138E-06 2.44938E-19 9.17275E-19
 -1      1912 1.22333E-04-4.16557E-05-3.45394E-05 8.86314E-06 2.88104E-19 7.35195E-19
 -1      1913 1.19943E-04-3.89962E-05-3.48140E-05 5.49794E-07 3.78372E-19 1.06681E-18
 -1      1914 1.19538E-04-3.83323E-05-3.47927E-05-1.69522E-06 5.81210E-20 1.13473E-18
 -1      1915 1.20137E-04-4.09202E-05-3.39499E-05 1.50978E-06 5.20707E-19 9.96774E-19
 -1      1916 1.17666E-04-3.71455E-05-3.46036E-05-3.73217E-06-1.18609E-18 1.12295E-18
 -1      1917 1.16377E-04-3.61953E-05-3.43565E-05-5.03912E-06-1.20715E-18 1.54650E-19
 -1      1918 1.16507E-04-3.82674E-05-3.35529E-05-4.06396E-06-5.31672E-19 1.80080E-18
 -1      1919 1.14624E-04-3.51731E-05-3.41035E-05-5.97943E-06 1.97855E-19 6.05500E-19
 -1      1920 1.12920E-04-3.42600E-05-3.37086E-05-6.48688E-06 1.15363E-18 1.89695E-18
 -1      1921 1.12734E-04-3.54499E-05-3.31469E-05-7.18337E-06 7.74009E-20 2.87187E-18
 -1      1922 1.11402E-04-3.35019E-05-3.34032E-05-6.66398E-06 9.30164E-19 1.29286E-18
 -1      1923 1.09614E-04-3.27364E-05-3.29457E-05-6.65361E-06 1.74384E-19 6.60027E-19
 -1      1924 1.09359E-04-3.32108E-05-3.26562E-05-8.31352E-06 5.11755E-19 2.33454E-18
 -1      1925 1.08328E-04-3.22039E-05-3.26183E-05-6.39859E-06-1.00424E-18 5.15231E-19
 -1      1926 1.06648E-04-3.15961E-05-3.21625E-05-6.11824E-06-2.01795E-18-3.98150E-19
 -1      1927 1.06494E-04-3.16431E-05-3.20953E-05-8.17578E-06-6.55961E-19 3.24273E-19
 -1      1928 1.05566E-04-3.12231E-05-3.18421E-05-5.66816E-06-2.49899E-18 4.01909E-19
 -1      1929 1.04086E-04-3.07501E-05-3.14258E-05-5.28387E-06-1.22185E-18 2.08951E-19
 -1      1930 1.04096E-04-3.06010E-05-3.15110E-05-7.37401E-06-2.17824E-18 1.71403E-18
 -1      1931 1.03180E-04-3.04824E-05-3.11322E-05-4.78160E-06 1.55995E-19 5.16484E-19
 -1      1932 1.01930E-04-3.01162E-05-3.07724E-05-4.38679E-06 1.10359E-18 1.23678E-18
 -1      1933 1.02099E-04-2.99125E-05-3.09483E-05-6.31126E-06-3.48545E-19 4.07212E-18
 -1      1934 1.01177E-04-2.99173E-05-3.05159E-05-3.90643E-06 1.43788E-18 8.02386E-19
 -1      1935 1.00152E-04-2.96336E-05-3.02168E-05-3.54472E-06 1.79775E-18 2.29516E-18
 -1      1936 1.00444E-04-2.94461E-05-3.04376E-05-5.21877E-06 1.02513E-18 4.21415E-18
 -1      1937 9.95343E-05-2.94806E-05-3.00010E-05-3.11676E-06 1.91359E-18 2.53152E-18
 -1      1938 9.87133E-05-2.92600E-05-2.97596E-05-2.80166E-06 2.20866E-18 3.72322E-18
 -1      1939 9.90825E-05-2.91156E-05-2.99949E-05-4.20876E-06 2.25390E-18 4.03820E-18
 -1      1940 9.82120E-05-2.91382E-05-2.95841E-05-2.43098E-06 1.19280E-18 2.67439E-18
 -1      1941 9.75698E-05-2.89660E-05-2.93952E-05-2.15895E-06 1.08841E-18 1.65576E-18
 -1      1942 9.79744E-05-2.88674E-05-2.96254E-05-3.31973E-06 1.20757E-18 3.60332E-18
 -1      1943 9.71690E-05-2.88656E-05-2.92574E-05-1.83646E-06 3.12407E-19 1.50490E-18
 -1      1944 9.66829E-05-2.87313E-05-2.91154E-05-1.59523E-06-6.78506E-19 8.44944E-19
 -1      1945 9.70831E-05-2.86681E-05-2.93278E-05-2.54743E-06 5.65295E-19 1.86310E-18
 -1      1946 9.63661E-05-2.86457E-05-2.90112E-05-1.30593E-06-4.13817E-19 1.42685E-18
 -1      1947 9.60188E-05-2.85448E-05-2.89107E-05-1.08057E-06-1.28651E-20 2.40717E-18
 -1      1948 9.63760E-05-2.84970E-05-2.90968E-05-1.86678E-06-7.32147E-19 2.36678E-18
 -1      1949 9.57996E-05-2.84875E-05-2.88391E-05-8.26385E-07 3.90576E-19 2.01528E-18
 -1      1950 9.55706E-05-2.84231E-05-2.87704E-05-6.16553E-07 5.61932E-19 2.11874E-18
 -1      1951 9.54901E-05-2.83028E-05-2.87992E-05-7.33805E-07-5.91024E-19 3.06984E-18
 -1      1952 9.58517E-05-2.83690E-05-2.89285E-05-1.26367E-06 1.43616E-19 3.04450E-18
 -1      1953 9.31354E-05-2.73382E-05-2.81708E-05 1.60729E-06 1.01120E-18 2.49335E-18
 -1      1954 9.43302E-05-2.74440E-05-2.86073E-05 2.67937E-06 9.61568E-19 2.91762E-18
 -1      1955 9.51658E-05-2.70263E-05-2.92081E-05 4.05714E-06 1.20051E-18 2.09289E-18
 -1      1956 9.20882E-05-2.73248E-05-2.77310E-05 3.44411E-07 6.83602E-19 2.00431E-18
 -1      1957 9.25808E-05-2.73571E-05-2.79026E-05 8.94928E-07 7.13099E-19 2.30536E-18
 -1      1958 9.35656E-05-2.73471E-05-2.83863E-05 1.58267E-06 9.13320E-19 1.68758E-18
 -1      1959 9.17242E-05-2.73638E-05-2.75671E-05-3.19454E-07 3.79499E-19 2.03391E-18
 -1      1960 9.18341E-05-2.73364E-05-2.76121E-05-2.26040E-08 5.05007E-19 2.01102E-18
 -1      1961 9.27435E-05-2.74625E-05-2.79877E-05 2.59370E-07 5.81311E-19 1.43475E-18
 -1      1962 9.17693E-05-2.74579E-05-2.75515E-05-6.62106E-07-7.30318E-20 1.84702E-18
 -1      1963 9.16709E-05-2.73939E-05-2.75315E-05-5.02035E-07 1.65269E-19 1.97367E-18
 -1      1964 9.24464E-05-2.75570E-05-2.78201E-05-4.51329E-07 1.72319E-19 1.32145E-18
 -1      1965 9.20505E-05-2.75870E-05-2.76195E-05-8.25746E-07 4.64145E-19 1.37029E-18
 -1      1966 9.18408E-05-2.75041E-05-2.75646E-05-7.43159E-07 1.83531E-20 1.60077E-18
 -1      1967 9.24783E-05-2.76658E-05-2.77854E-05-8.23022E-07 2.35678E-19 8.50883E-19
 -1      1968 9.24627E-05-2.77338E-05-2.77349E-05-8.90864E-07 5.92864E-19 1.21677E-18
 -1      1969 9.21964E-05-2.76431E-05-2.76615E-05-8.51741E-07 6.28715E-19 1.38426E-18
 -1      1970 9.27087E-05-2.77883E-05-2.78296E-05-1.00353E-06 6.46264E-19 5.48606E-19
 -1      1971 9.29452E-05-2.78874E-05-2.78768E-05-9.07766E-07 5.52660E-19 8.81888E-19
 -1      1972 9.26521E-05-2.77948E-05-2.77939E-05-8.90486E-07 6.25408E-19 1.14532E-18
 -1      1973 9.30553E-05-2.79175E-05-2.79211E-05-1.08029E-06 7.05306E-19 5.03072E-19
 -1      1974 9.34673E-05-2.80429E-05-2.80345E-05-9.10172E-07 2.17555E-19 1.03971E-18
 -1      1975 9.31614E-05-2.79506E-05-2.79463E-05-8.99935E-07 2.60911E-19 9.62826E-19
 -1      1976 9.34704E-05-2.80486E-05-2.80417E-05-1.10936E-06 4.10663E-19 5.90385E-19
 -1      1977 9.40191E-05-2.82001E-05-2.82039E-05-9.21809E-07 6.89202E-19 7.27004E-19
 -1      1978 9.37032E-05-2.81077E-05-2.81115E-05-9.07942E-07 5.97429E-19 1.03750E-18
 -1      1979 9.39300E-05-2.81799E-05-2.81818E-05-1.12892E-06 4.71105E-19 5.77936E-19
 -1      1980 9.46051E-05-2.83622E-05-2.83854E-05-9.59795E-07 3.33121E-19 8.34040E-19
 -1      1981 9.42747E-05-2.82674E-05-2.82879E-05-9.34363E-07 4.93991E-19 8.89447E-19
 -1      1982 9.44273E-05-2.83132E-05-2.83375E-05-1.16598E-06 4.61188E-19 6.45274E-19
 -1      1983 9.52406E-05-2.85356E-05-2.85832E-05-1.03628E-06 1.95207E-19 6.10352E-19
 -1      1984 9.48857E-05-2.84345E-05-2.84777E-05-9.93423E-07 2.74371E-19 7.64564E-19
 -1      1985 9.49677E-05-2.84528E-05-2.85094E-05-1.23986E-06 3.83440E-19 9.79371E-19
 -1      1986 9.59476E-05-2.87285E-05-2.88031E-05-1.15888E-06-2.97152E-20 7.81386E-19
 -1      1987 9.55548E-05-2.86161E-05-2.86859E-05-1.09468E-06-6.61182E-20 8.12459E-19
 -1      1988 9.55655E-05-2.86052E-05-2.87005E-05-1.36364E-06-3.32403E-21 1.16187E-18
 -1      1989 9.67518E-05-2.89507E-05-2.90521E-05-1.33004E-06 5.65262E-20 8.82298E-19
 -1      1990 9.63060E-05-2.88216E-05-2.89192E-05-1.24286E-06-4.21750E-20 8.89400E-19
 -1      1991 9.62401E-05-2.87793E-05-2.89154E-05-1.54424E-06 7.42643E-20 1.13277E-18
 -1      1992 9.76786E-05-2.92131E-05-2.93367E-05-1.54515E-06 7.96005E-19 4.92278E-19
 -1      1993 9.71654E-05-2.90614E-05-2.91842E-05-1.43660E-06 4.57892E-19 5.99673E-19
 -1      1994 9.70136E-05-2.89856E-05-2.91591E-05-1.78106E-06 4.10387E-19 4.72499E-19
 -1      1995 9.87477E-05-2.95265E-05-2.96609E-05-1.78940E-06 8.45712E-19-4.94671E-20
 -1      1996 9.81566E-05-2.93469E-05-2.94865E-05-1.66590E-06 7.61534E-19 1.98585E-19
 -1      1997 9.79069E-05-2.92359E-05-2.94353E-05-2.06313E-06 9.30531E-19 2.13465E-19
 -1      1998 9.99664E-05-2.99000E-05-3.00243E-05-2.03301E-06 5.96755E-19 1.48712E-19
 -1      1999 9.92951E-05-2.96888E-05-2.98282E-05-1.90821E-06 8.59483E-19 4.85141E-20
 -1      2000 9.89350E-05-2.95433E-05-2.97447E-05-2.36456E-06 8.66740E-19-2.34358E-19
 -1      2001 1.01320E-04-3.03386E-05-3.04189E-05-2.22547E-06-7.54613E-19-2.62438E-19
 -1      2002 1.00580E-04-3.00959E-05-3.02056E-05-2.12323E-06-1.02835E-20-7.33370E-20
 -1      2003 1.00101E-04-2.99206E-05-3.00828E-05-2.63843E-06 2.40539E-19 1.90117E-19
 -1      2004 1.02759E-04-3.08394E-05-3.08251E-05-2.28983E-06-7.32797E-19-8.49223E-19
 -1      2005 1.01984E-04-3.05710E-05-3.06060E-05-2.24725E-06-7.92807E-19-4.10192E-19
 -1      2006 1.01387E-04-3.03780E-05-3.04378E-05-2.81011E-06-6.99744E-19-1.80951E-19
 -1      2007 1.04186E-04-3.13844E-05-3.12091E-05-2.12064E-06 6.88669E-20-3.77816E-19
 -1      2008 1.03440E-04-3.11063E-05-3.10040E-05-2.18945E-06-5.75470E-19-6.40891E-19
 -1      2009 1.02746E-04-3.09181E-05-3.07875E-05-2.77246E-06-5.70334E-19-8.56201E-19
 -1      2010 1.05444E-04-3.19309E-05-3.15210E-05-1.59231E-06 1.20383E-18 2.47924E-19
 -1      2011 1.04826E-04-3.16740E-05-3.13594E-05-1.83511E-06 9.04375E-19 4.11193E-19
 -1      2012 1.04087E-04-3.15256E-05-3.10987E-05-2.38857E-06 4.36022E-19 3.41922E-19
 -1      2013 1.06310E-04-3.23986E-05-3.16978E-05-5.88648E-07-2.87693E-19-1.74689E-19
 -1      2014 1.05955E-04-3.22133E-05-3.16172E-05-1.06455E-06 4.02394E-19 2.30353E-19
 -1      2015 1.05263E-04-3.21518E-05-3.13289E-05-1.51203E-06 4.56647E-19 4.26936E-19
 -1      2016 1.06511E-04-3.26590E-05-3.16748E-05 9.35273E-07-1.35847E-18 4.79130E-19
 -1      2017 1.06573E-04-3.26168E-05-3.17140E-05 2.01327E-07-1.07987E-18-2.67188E-19
 -1      2018 1.06063E-04-3.26931E-05-3.14322E-05-3.75854E-08-9.83921E-19 7.31205E-19
 -1      2019 1.05775E-04-3.25390E-05-3.14063E-05 2.85667E-06-7.69377E-19 1.61597E-18
 -1      2020 1.06391E-04-3.27232E-05-3.15929E-05 1.92233E-06-1.06915E-18 1.42224E-18
 -1      2021 1.06229E-04-3.29745E-05-3.13727E-05 2.00892E-06-1.63774E-18 2.03572E-18
 -1      2022 1.03937E-04-3.18670E-05-3.08947E-05 4.78333E-06 1.94315E-19 1.20875E-18
 -1      2023 1.05158E-04-3.23406E-05-3.12267E-05 3.83939E-06-4.11724E-19 1.35771E-18
 -1      2024 1.05498E-04-3.27623E-05-3.11414E-05 4.35137E-06-1.30307E-19 1.38209E-18
 -1      2025 1.01104E-04-3.05898E-05-3.02141E-05 6.04662E-06 4.10303E-19 2.42252E-18
 -1      2026 1.02814E-04-3.13373E-05-3.06452E-05 5.41691E-06 6.93955E-19 1.89913E-18
 -1      2027 1.03738E-04-3.18602E-05-3.07721E-05 6.37766E-06 5.64647E-19 1.49741E-18
 -1      2028 9.78037E-05-2.89160E-05-2.95098E-05 5.90954E-06-9.88838E-19 1.84777E-18
 -1      2029 9.96707E-05-2.97894E-05-2.99485E-05 5.94517E-06-7.96355E-19 2.01614E-18
 -1      2030 1.01134E-04-3.02845E-05-3.03431E-05 7.23086E-06-4.05650E-19 1.95068E-18
 -1      2031 9.49689E-05-2.73719E-05-2.89622E-05 3.99261E-06 9.10957E-20 1.77068E-18
 -1      2032 9.64890E-05-2.80943E-05-2.92945E-05 4.86264E-06-5.64746E-19 1.95359E-18
 -1      2033 9.83193E-05-2.84258E-05-2.99583E-05 6.16987E-06-5.47514E-19 1.76565E-18
 -1      2034 9.36233E-05-2.66110E-05-2.87243E-05 6.86693E-07 2.02375E-19 2.01173E-18
 -1      2035 9.42970E-05-2.68916E-05-2.88542E-05 2.19143E-06 3.07354E-19 1.92953E-18
 -1      2036 9.62667E-05-2.69983E-05-2.97140E-05 3.10766E-06 3.13104E-19 2.24541E-18
 -1      2037 9.43305E-05-2.70081E-05-2.88647E-05-2.86983E-06-8.15468E-20 1.22717E-18
 -1      2038 9.39086E-05-2.67210E-05-2.87528E-05-1.26335E-06 1.01379E-20 1.24395E-18
 -1      2039 9.58289E-05-2.66755E-05-2.96699E-05-1.07174E-06 3.79848E-19 1.66614E-18
 -1      2040 9.68195E-05-2.83741E-05-2.93412E-05-5.39182E-06 1.06379E-18 9.47671E-19
 -1      2041 9.54498E-05-2.76485E-05-2.90222E-05-4.25553E-06 2.37798E-19 9.00727E-19
 -1      2042 9.71993E-05-2.76233E-05-2.98361E-05-4.85266E-06 4.72108E-19 3.67460E-19
 -1      2043 1.00151E-04-3.00982E-05-3.00168E-05-6.17332E-06 1.54093E-19 7.41551E-19
 -1      2044 9.82970E-05-2.92261E-05-2.95845E-05-5.80189E-06 9.02654E-19 1.12668E-18
 -1      2045 9.97772E-05-2.93748E-05-3.01703E-05-6.95007E-06 1.03111E-18-4.38935E-20
 -1      2046 1.03266E-04-3.15623E-05-3.07134E-05-5.34127E-06 5.64468E-19 2.96528E-20
 -1      2047 1.01467E-04-3.08198E-05-3.02818E-05-5.66649E-06 2.56472E-19 7.83148E-19
 -1      2048 1.02572E-04-3.11692E-05-3.05879E-05-6.97305E-06 6.54234E-19 2.38010E-19
 -1      2049 1.05457E-04-3.24369E-05-3.12739E-05-3.56200E-06 9.78558E-19-2.66428E-19
 -1      2050 1.04106E-04-3.19697E-05-3.09364E-05-4.29399E-06 8.12768E-19-3.66418E-19
 -1      2051 1.04755E-04-3.24244E-05-3.09861E-05-5.40611E-06 1.20803E-18-2.32603E-20
 -1      2052 1.06491E-04-3.27063E-05-3.16052E-05-1.56919E-06 1.28206E-18-4.52543E-19
 -1      2053 1.05753E-04-3.25266E-05-3.14112E-05-2.39805E-06 1.11025E-18-2.92046E-19
 -1      2054 1.05941E-04-3.29513E-05-3.12748E-05-3.11597E-06 1.57410E-18 1.22613E-18
 -1      2055 1.06484E-04-3.25253E-05-3.16871E-05 1.35932E-07 2.15907E-19-8.29158E-19
 -1      2056 1.06335E-04-3.25707E-05-3.16412E-05-5.79514E-07 9.59013E-19-1.39961E-18
 -1      2057 1.06143E-04-3.28695E-05-3.14018E-05-8.61171E-07 1.32782E-18 3.67616E-20
 -1      2058 1.05714E-04-3.20810E-05-3.15537E-05 1.33911E-06-1.14756E-18 6.68230E-19
 -1      2059 1.06022E-04-3.22696E-05-3.16304E-05 8.28186E-07-3.87312E-19-2.75440E-19
 -1      2060 1.05581E-04-3.24135E-05-3.13588E-05 9.20266E-07-3.45004E-19 1.77495E-18
 -1      2061 1.04476E-04-3.15238E-05-3.12664E-05 2.03469E-06-2.92238E-18 1.00139E-18
 -1      2062 1.05081E-04-3.17848E-05-3.14273E-05 1.73270E-06-2.16024E-18-4.27520E-20
 -1      2063 1.04524E-04-3.17948E-05-3.11719E-05 2.09122E-06-1.85069E-18 1.23414E-18
 -1      2064 1.03020E-04-3.09509E-05-3.08901E-05 2.32095E-06-6.16200E-19 1.87916E-18
 -1      2065 1.03777E-04-3.12342E-05-3.10972E-05 2.18894E-06-1.63831E-18 1.31261E-18
 -1      2066 1.03213E-04-3.11535E-05-3.08846E-05 2.70437E-06-2.06310E-18 7.64348E-20
 -1      2067 1.01526E-04-3.04158E-05-3.04798E-05 2.32266E-06-3.45012E-19 2.03262E-18
 -1      2068 1.02325E-04-3.06904E-05-3.07025E-05 2.31005E-06 1.96942E-19 2.29883E-18
 -1      2069 1.01825E-04-3.05630E-05-3.05423E-05 2.89198E-06-2.29300E-19 9.19702E-19
 -1      2070 1.00112E-04-2.99429E-05-3.00759E-05 2.15034E-06-2.40596E-18 3.39113E-18
 -1      2071 1.00879E-04-3.01920E-05-3.02925E-05 2.21192E-06-2.19244E-18 2.62205E-18
 -1      2072 1.00479E-04-3.00521E-05-3.01841E-05 2.79548E-06-2.15571E-18 2.25889E-18
 -1      2073 9.88444E-05-2.95393E-05-2.97046E-05 1.88508E-06 1.38771E-18 2.78399E-18
 -1      2074 9.95367E-05-2.97557E-05-2.99016E-05 1.98756E-06-3.48907E-19 3.72539E-18
 -1      2075 9.92472E-05-2.96250E-05-2.98391E-05 2.53141E-06-7.61048E-19 2.81690E-18
 -1      2076 9.77568E-05-2.92034E-05-2.93813E-05 1.57685E-06 1.99711E-18 1.52036E-18
 -1      2077 9.83513E-05-2.93850E-05-2.95510E-05 1.69998E-06 2.16944E-18 2.22282E-18
 -1      2078 9.81666E-05-2.92742E-05-2.95264E-05 2.18091E-06 2.04259E-18 3.11466E-18
 -1      2079 9.68633E-05-2.89299E-05-2.91145E-05 1.25025E-06 4.14121E-19 2.99390E-18
 -1      2080 9.73495E-05-2.90775E-05-2.92529E-05 1.38446E-06 9.36110E-19 2.36506E-18
 -1      2081 9.72535E-05-2.89889E-05-2.92577E-05 1.79122E-06 6.41584E-19 3.44268E-18
 -1      2082 9.61658E-05-2.87125E-05-2.89081E-05 9.10203E-07 1.60647E-19 1.89872E-18
 -1      2083 9.65395E-05-2.88274E-05-2.90132E-05 1.05502E-06 3.02885E-19 2.49790E-18
 -1      2084 9.65102E-05-2.87570E-05-2.90391E-05 1.38362E-06 5.70889E-19 3.00036E-18
 -1      2085 9.56645E-05-2.85509E-05-2.87606E-05 5.55419E-07-6.60917E-21 1.07865E-18
 -1      2086 9.59208E-05-2.86320E-05-2.88331E-05 7.12214E-07 8.40426E-19 1.78683E-18
 -1      2087 9.59303E-05-2.85700E-05-2.88710E-05 9.62210E-07 1.08766E-18 2.44887E-18
 -1      2088 9.53924E-05-2.84682E-05-2.86774E-05 2.89455E-07 4.44780E-19 1.60835E-18
 -1      2089 9.55466E-05-2.85064E-05-2.87278E-05 4.43498E-07-6.41075E-19 1.49216E-18
 -1      2090 9.55649E-05-2.84446E-05-2.87680E-05 6.22714E-07-6.52600E-19 2.45698E-18
 -1      2091 9.53633E-05-2.83849E-05-2.87048E-05 3.75926E-07 2.87592E-19 1.61747E-18
 -1      2092 9.48049E-05-2.70344E-05-2.90465E-05 1.12625E-06-9.00096E-19-2.11268E-18
 -1      2093 9.49383E-05-2.73306E-05-2.89708E-05 1.08466E-06-1.90340E-19-2.26619E-18
 -1      2094 9.50651E-05-2.75971E-05-2.89148E-05 9.92980E-07-8.13338E-20-2.30377E-18
 -1      2095 9.51828E-05-2.78576E-05-2.88489E-05 8.75267E-07 8.78487E-19-1.91439E-19
 -1      2096 9.50518E-05-2.74688E-05-2.89652E-05 1.33564E-06-1.08170E-18-2.14486E-18
 -1      2097 9.52491E-05-2.80395E-05-2.88027E-05 7.17737E-07 7.49766E-19 1.09092E-18
 -1      2098 9.53283E-05-2.82373E-05-2.87492E-05 5.56851E-07 7.03764E-19 1.81486E-18
 -1      2099 9.54172E-05-2.82577E-05-2.87800E-05 6.88757E-07-3.13383E-19 2.19935E-18
 -1      2100 9.52769E-05-2.79200E-05-2.88691E-05 1.05172E-06-1.51361E-19 5.71719E-19
 -1      2101 9.45526E-05-2.64811E-05-2.91778E-05 1.09775E-06-2.94509E-18-4.10269E-18
 -1      2102 9.46817E-05-2.67714E-05-2.91031E-05 1.12824E-06-1.43213E-18-2.34517E-18
 -1      2103 9.47527E-05-2.69251E-05-2.90684E-05 1.43547E-06-1.19031E-18-3.43171E-18
 -1      2104 9.43256E-05-2.59823E-05-2.92964E-05 9.12974E-07-2.55614E-18-1.33175E-18
 -1      2105 9.44380E-05-2.62363E-05-2.92308E-05 1.01068E-06-2.98314E-18-1.49968E-18
 -1      2106 9.44675E-05-2.64010E-05-2.91683E-05 1.33841E-06-2.69405E-18-3.01085E-18
 -1      2107 9.41563E-05-2.56121E-05-2.93840E-05 5.97669E-07-1.77878E-18-1.85946E-18
 -1      2108 9.42356E-05-2.57897E-05-2.93381E-05 7.48326E-07-1.73404E-18-9.06875E-19
 -1      2109 9.42213E-05-2.59491E-05-2.92543E-05 1.05409E-06-1.82234E-18-1.22807E-18
 -1      2110 9.40657E-05-2.54200E-05-2.94280E-05 1.93123E-07-2.09872E-18-6.69841E-19
 -1      2111 9.41011E-05-2.54955E-05-2.94087E-05 3.76891E-07-1.58423E-18-2.41014E-18
 -1      2112 9.40461E-05-2.56292E-05-2.93147E-05 6.20041E-07-6.51585E-19-1.20781E-18
 -1      2113 9.40677E-05-2.54348E-05-2.94218E-05-2.47580E-07-9.24521E-19 1.34586E-18
 -1      2114 9.40530E-05-2.53958E-05-2.94321E-05-5.53586E-08-2.07792E-18 1.57524E-18
 -1      2115 9.39638E-05-2.54830E-05-2.93411E-05 9.14979E-08-1.49843E-18 5.66065E-19
 -1      2116 9.41663E-05-2.56599E-05-2.93656E-05-6.63097E-07-1.74927E-18-1.12557E-18
 -1      2117 9.41015E-05-2.55091E-05-2.94046E-05-4.90089E-07-1.36353E-18 1.39375E-18
 -1      2118 9.39885E-05-2.55340E-05-2.93299E-05-4.61980E-07-1.24695E-18 1.13658E-18
 -1      2119 9.43491E-05-2.60611E-05-2.92691E-05-9.85531E-07-1.01248E-18-1.56575E-18
 -1      2120 9.42428E-05-2.58226E-05-2.93301E-05-8.60843E-07-1.44228E-18-2.53441E-18
 -1      2121 9.41222E-05-2.57793E-05-2.92829E-05-9.58979E-07-8.05314E-19-1.29110E-18
 -1      2122 9.46021E-05-2.66006E-05-2.91428E-05-1.16939E-06 3.55599E-19 2.79269E-18
 -1      2123 9.44639E-05-2.62994E-05-2.92190E-05-1.11265E-06-4.90200E-19 7.11218E-19
 -1      2124 9.43529E-05-2.61933E-05-2.92063E-05-1.32723E-06-4.17271E-21 4.51673E-19
 -1      2125 9.48905E-05-2.72002E-05-2.90061E-05-1.16583E-06 3.53225E-19 3.52499E-18
 -1      2126 9.47409E-05-2.68839E-05-2.90851E-05-1.19604E-06 1.89373E-19 2.40677E-18
 -1      2127 9.46608E-05-2.67329E-05-2.91095E-05-1.50435E-06 4.49679E-19 2.71343E-18
 -1      2128 9.51742E-05-2.77905E-05-2.88770E-05-9.61754E-07-9.38960E-19 1.35555E-18
 -1      2129 9.50348E-05-2.74941E-05-2.89473E-05-1.08080E-06-6.87218E-19 2.17167E-18
 -1      2130 9.50033E-05-2.73264E-05-2.90040E-05-1.44377E-06 1.04423E-19 2.37058E-18
 -1      2131 5.69260E-05-3.86493E-05-8.30335E-06 4.10011E-05 6.58145E-19 3.05138E-18
 -1      2132 4.22669E-05-4.00844E-05-2.20179E-06 3.36440E-05-4.51469E-19 4.91004E-18
 -1      2133 1.22158E-05-3.50027E-05 8.20602E-06 6.72694E-06 1.55642E-20 3.18061E-18
 -1      2134 1.16615E-05-3.40870E-05 8.15011E-06-3.18649E-06-9.07278E-19 3.24625E-18
 -1      2135 2.53769E-05-3.44032E-05 2.83248E-06 2.66013E-05 5.12031E-19 3.61916E-18
 -1      2136 1.79390E-05-3.70935E-05 6.55157E-06 1.70349E-05-4.42998E-19 1.83086E-18
 -1      2137 9.71674E-05-4.42674E-05-2.26837E-05 4.32160E-05 1.76606E-18-1.61127E-18
 -1      2138 7.65631E-05-4.47347E-05-1.45885E-05 3.94476E-05 1.36330E-18 6.07534E-19
 -1      2139 1.35103E-04-4.10972E-05-3.96585E-05 3.54366E-05 2.26454E-18 1.11512E-18
 -1      2140 1.15937E-04-4.42375E-05-3.11840E-05 3.37097E-05 1.89015E-18-3.64648E-19
 -1      2141 8.72624E-05-8.72403E-06-3.37548E-05-1.05451E-05-8.01114E-19-2.11098E-18
 -1      2142 8.79566E-05-9.24033E-06-3.38227E-05-1.21015E-05-1.01714E-18-1.94746E-18
 -1      2143 9.04821E-05-1.30467E-05-3.32357E-05-1.18784E-05-1.16651E-18-1.60910E-18
 -1      2144 8.87050E-05-1.10568E-05-3.33034E-05-9.41492E-06-7.51542E-19-2.02073E-18
 -1      2145 1.77476E-04-2.72715E-05-6.30493E-05 9.47421E-06 2.61437E-18-1.12422E-18
 -1      2146 1.63160E-04-2.65827E-05-5.82076E-05 1.26868E-05 3.40761E-18-9.17337E-19
 -1      2147 1.77031E-04-2.16113E-05-6.56715E-05-9.37021E-07 2.67154E-18-2.01774E-18
 -1      2148 1.78465E-04-2.39763E-05-6.51361E-05 6.35274E-06 2.77573E-18-1.18585E-18
 -1      2149 1.56667E-04-1.56016E-05-5.94901E-05-1.25645E-06 3.26701E-18-1.41687E-18
 -1      2150 1.76493E-04-2.65094E-05-6.31387E-05-1.33053E-05 2.09196E-18-2.47122E-18
 -1      2151 1.79855E-04-2.45084E-05-6.55087E-05-4.29031E-06 2.34925E-18-2.12817E-18
 -1      2152 1.56604E-04-3.22132E-05-5.29846E-05-2.13541E-05 2.47551E-18-2.33315E-18
 -1      2153 1.71008E-04-3.14177E-05-5.86735E-05-1.65939E-05 1.79740E-18-2.52501E-18
 -1      2154 1.31064E-04-3.94235E-05-3.94720E-05-3.08092E-05 1.89545E-18-2.21076E-18
 -1      2155 1.50168E-04-3.74444E-05-4.73789E-05-3.10516E-05 2.82062E-18-1.78766E-18
 -1      2156 9.48424E-05-4.26207E-05-2.31677E-05-3.88289E-05 7.33107E-19-3.47453E-18
 -1      2157 1.15637E-04-4.21373E-05-3.12980E-05-4.05622E-05 7.68259E-19-3.99672E-18
 -1      2158 5.98529E-05-4.16485E-05-9.12691E-06-3.71973E-05-4.00647E-19-3.77978E-18
 -1      2159 7.64912E-05-3.90595E-05-1.63075E-05-4.32060E-05 2.73592E-19-4.20975E-18
 -1      2160 3.22160E-05-3.83857E-05 1.35157E-06-2.91826E-05-1.28537E-18-1.68665E-18
 -1      2161 4.42271E-05-3.70249E-05-3.77419E-06-3.65075E-05-2.43098E-19-2.89622E-18
 -1      2162 1.43857E-05-3.10555E-05 6.20678E-06-1.26463E-05-7.08861E-19 1.10961E-19
 -1      2163 2.05365E-05-3.29347E-05 4.34253E-06-2.20437E-05-6.92026E-19-3.62107E-19
 -1      2164 1.54010E-05-2.93660E-05 5.30243E-06 1.23974E-05-1.28918E-18-2.03330E-18
 -1      2165 1.23105E-05-2.96953E-05 6.54578E-06 4.97438E-07-8.49892E-19-1.16594E-18
 -1      2166 3.71459E-05-3.82873E-05-5.63554E-07 3.05916E-05-1.90032E-18-4.09233E-18
 -1      2167 2.60357E-05-3.57861E-05 3.13301E-06 2.40217E-05-1.48485E-18-2.82782E-18
 -1      2168 7.00213E-05-4.25338E-05-1.22442E-05 4.08031E-05-1.28368E-18-5.89884E-18
 -1      2169 5.19011E-05-4.33158E-05-5.16155E-06 3.33187E-05-7.24637E-19-5.44571E-18
 -1      2170 5.44237E-05-4.07004E-05-6.33400E-06 3.86598E-05-4.90432E-19-4.62501E-18
 -1      2171 1.12936E-04-4.97399E-05-2.73907E-05 3.71573E-05-2.22897E-18-4.32537E-18
 -1      2172 9.10450E-05-4.84708E-05-1.92147E-05 3.65171E-05-1.54118E-18-5.02566E-18
 -1      2173 1.48983E-04-4.31467E-05-4.44276E-05 2.96680E-05-3.74516E-18-4.02934E-18
 -1      2174 1.30821E-04-4.68292E-05-3.60685E-05 2.90672E-05-3.25536E-18-3.99334E-18
 -1      2175 1.69031E-04-3.59634E-05-5.65532E-05 1.11879E-05-4.17079E-18-3.22635E-18
 -1      2176 1.57815E-04-3.86070E-05-5.05687E-05 1.99629E-05-4.15946E-18-3.72271E-18
 -1      2177 1.53947E-04-4.59564E-05-4.56083E-05 9.70376E-06-3.39753E-18-2.22516E-18
 -1      2178 1.86583E-04-2.79477E-05-6.60598E-05 4.77619E-06-5.22746E-18-1.46664E-18
 -1      2179 1.72244E-04-2.68055E-05-6.16379E-05 6.75536E-06-5.19866E-18-2.37593E-18
 -1      2180 1.84641E-04-2.50420E-05-6.71410E-05-3.43892E-06-3.93870E-18-1.77453E-19
 -1      2181 1.87473E-04-2.65690E-05-6.75524E-05 2.83657E-06-4.63666E-18-1.47754E-18
 -1      2182 1.63735E-04-1.64008E-05-6.20040E-05-2.01150E-06-5.08050E-18-1.18892E-18
 -1      2183 1.76134E-04-3.09458E-05-6.12410E-05-1.30182E-05-6.39933E-19 5.42101E-20
 -1      2184 1.84128E-04-2.91777E-05-6.51022E-05-6.07925E-06-1.71355E-18-8.63550E-19
 -1      2185 1.53300E-04-3.80948E-05-4.91567E-05-2.44335E-05-6.60262E-19 3.61683E-19
 -1      2186 1.72152E-04-3.76435E-05-5.64151E-05-2.06446E-05-6.81914E-19 5.33631E-20
 -1      2187 1.20213E-04-4.46487E-05-3.29391E-05-3.29815E-05 5.18384E-19 2.22050E-18
 -1      2188 1.42205E-04-4.34601E-05-4.16283E-05-3.34603E-05-1.74912E-19 1.51195E-18
 -1      2189 8.29980E-05-4.59977E-05-1.66168E-05-3.80563E-05-6.11981E-19 1.24090E-18
 -1      2190 1.02018E-04-4.32080E-05-2.51237E-05-4.15416E-05 3.09167E-20 4.07465E-18
 -1      2191 4.26141E-05-4.22022E-05-1.83572E-06-3.01330E-05-8.55927E-19-1.11830E-18
 -1      2192 6.03627E-05-4.16387E-05-8.85484E-06-3.88485E-05-3.76083E-19-1.29506E-18
 -1      2193 1.87329E-05-3.71020E-05 6.25152E-06-1.60155E-05-9.57571E-19 6.15369E-19
 -1      2194 2.78707E-05-3.69948E-05 2.68824E-06-2.50774E-05-7.57247E-19-1.43339E-18
 -1      2195 4.31950E-05-3.66678E-05-3.24637E-06-3.48870E-05 7.72494E-19-1.99984E-18
 -1      2196 1.58823E-04-3.57134E-05-5.22275E-05 1.97540E-05 3.29210E-18-6.65768E-19
 -1      2197 1.44006E-04-3.71867E-05-4.56674E-05 2.65520E-05 2.58493E-18 8.79644E-19
 -1      2198 1.43390E-04-4.68223E-05-4.08821E-05 1.65240E-05 1.33964E-18-5.26431E-19
 -1      2199 1.17817E-04-5.37430E-05-2.72858E-05 3.35604E-05 2.77615E-19-1.46028E-18
 -1      2200 9.71238E-05-2.42954E-05-3.12855E-05-1.00088E-05-1.46108E-18 2.48419E-19
 -1      2201 1.54673E-04-3.12706E-05-5.22715E-05 3.70965E-06 2.83968E-18-2.06507E-18
 -1      2202 9.62993E-05-2.30911E-05-3.14410E-05-1.03905E-05-1.52236E-18-3.88470E-19
 -1      2203 4.08250E-05-3.47733E-05-2.99135E-06 3.65366E-05-7.78423E-19 4.33766E-18
 -1      2204 1.70932E-05-2.64270E-05 3.28410E-06 1.51541E-05-3.63907E-19 2.65164E-18
 -1      2205 9.52765E-05-2.79585E-05-2.88475E-05-9.15943E-07-6.99553E-19 1.79900E-18
 -1      2206 7.89606E-05-4.71893E-05-1.36293E-05 4.36080E-05-1.05032E-18 1.61836E-19
 -1      2207 1.80556E-05-2.74088E-05 3.25862E-06-1.29372E-05-1.19643E-20 1.57209E-18
 -1      2208 7.93728E-05-4.76177E-05-1.39614E-05-3.94561E-05-5.83606E-19-4.55704E-19
 -1      2209 9.80474E-05-5.45634E-05-1.93602E-05-3.94026E-05 4.73280E-19 9.21439E-19
 -1      2210 7.70356E-05-4.66742E-05-1.24841E-05-4.18766E-05 3.25684E-19-1.23836E-18
 -1      2211 1.23911E-04-5.50372E-05-2.93458E-05-3.06577E-05 1.19093E-18 1.11851E-18
 -1      2212 1.51378E-04-4.80650E-05-4.36289E-05-1.42146E-05 8.71173E-19-1.61190E-18
 -1      2213 1.65606E-04-1.85799E-05-6.17628E-05 1.69603E-06-2.94598E-18-2.10287E-18
 -1      2214 1.65137E-04-3.03883E-05-5.70278E-05 1.79741E-06-4.74106E-18-2.28487E-18
 -1      2215 1.54715E-04-3.33367E-05-5.16746E-05-4.96804E-06-4.32283E-18-2.07565E-18
 -1      2216 1.53727E-04-2.36721E-05-5.62632E-05-8.00774E-06-5.27998E-18-1.36351E-18
 -1      2217 9.22164E-05-5.21660E-05-1.71231E-05 3.98275E-05-1.82959E-19-4.76763E-18
 -1      2218 2.54814E-05-2.74586E-05 4.36233E-07 2.15050E-05-1.41200E-18-3.02221E-18
 -1      2219 1.66771E-05-2.20942E-05 2.00487E-06-7.30986E-06-8.24428E-19-5.78100E-19
 -1      2220 3.24398E-05-3.07191E-05-1.21986E-06-3.14346E-05-1.33238E-18-1.31460E-18
 -1      2221 6.24982E-05-4.26112E-05-8.98906E-06-4.23046E-05-9.92723E-19-3.51392E-18
 -1      2222 9.83915E-05-5.02849E-05-2.06152E-05-4.06746E-05-4.09117E-19-3.41545E-18
 -1      2223 1.31801E-04-4.98130E-05-3.47731E-05-2.73709E-05 4.74127E-19-1.86093E-18
 -1      2224 1.51477E-04-3.83017E-05-4.77685E-05-1.03132E-05 1.54329E-18-9.05902E-19
 -1      2225 1.60760E-04-1.44270E-05-6.16694E-05-5.74817E-07 2.68764E-18-6.73285E-19
 -1      2226 1.59007E-04-2.36413E-05-5.69932E-05-1.21210E-06 2.02526E-18-1.57040E-18
 -1      2227 1.27421E-04-5.36637E-05-3.15620E-05 2.82420E-05-1.96766E-18-3.89042E-18
 -1      2228 1.24972E-04-5.91982E-05-2.76839E-05 2.77271E-05-5.23890E-19-3.19035E-18
 -1      2229 1.39311E-04-5.82765E-05-3.54789E-05 1.76282E-05-1.46611E-18-2.00789E-18
 -1      2230 1.63889E-04-3.23729E-05-5.52844E-05-1.73831E-06 5.08220E-20-2.52839E-18
 -1      2231 9.51655E-05-2.63580E-05-2.94755E-05 4.19626E-06 1.27185E-18 1.24057E-18
 -1      2232 9.61389E-05-2.58444E-05-3.00526E-05 6.00382E-06 1.31988E-18 1.46953E-18
 -1      2233 8.81806E-05-1.11762E-05-3.30412E-05-3.65731E-06 2.61896E-20-2.05777E-18
 -1      2234 8.84105E-05-1.14466E-05-3.30214E-05-4.79795E-06-1.61196E-19-2.09422E-18
 -1      2235 8.87565E-05-1.19303E-05-3.29704E-05-5.81579E-06-3.26816E-19-2.05110E-18
 -1      2236 8.91569E-05-1.24035E-05-3.29391E-05-6.98827E-06-5.64355E-19-1.96049E-18
 -1      2237 8.99268E-05-1.38112E-05-3.26196E-05-4.89750E-06-1.93566E-19-1.91916E-18
 -1      2238 8.78396E-05-1.07153E-05-3.30874E-05 6.15440E-07 6.49020E-19-1.93969E-18
 -1      2239 8.78353E-05-1.07105E-05-3.30876E-05-4.94471E-07 4.65918E-19-2.02492E-18
 -1      2240 8.80177E-05-1.09410E-05-3.30673E-05 2.75531E-06 9.21357E-19-1.76266E-18
 -1      2241 8.79048E-05-1.08076E-05-3.30776E-05 1.63682E-06 7.61676E-19-1.86098E-18
 -1      2242 8.91539E-05-1.27546E-05-3.27455E-05 1.04816E-06 6.64966E-19-1.81720E-18
 -1      2243 8.84454E-05-1.14896E-05-3.30186E-05 4.88339E-06 1.24452E-18-1.68551E-18
 -1      2244 8.82098E-05-1.12124E-05-3.30387E-05 3.76066E-06 1.06898E-18-1.72429E-18
 -1      2245 8.94164E-05-1.31120E-05-3.27034E-05 3.01608E-06 9.31394E-19-1.60454E-18
 -1      2246 8.92135E-05-1.24737E-05-3.29343E-05 7.07098E-06 1.63260E-18-1.28774E-18
 -1      2247 8.88020E-05-1.19870E-05-3.29664E-05 5.89914E-06 1.37499E-18-1.51581E-18
 -1      2248 8.99666E-05-1.38626E-05-3.26149E-05 4.96845E-06 1.25992E-18-1.45905E-18
 -1      2249 9.04665E-05-1.40829E-05-3.28001E-05 9.22135E-06 1.91341E-18-8.45815E-19
 -1      2250 8.97953E-05-1.32727E-05-3.28492E-05 8.04177E-06 1.73853E-18-1.15800E-18
 -1      2251 9.08902E-05-1.51247E-05-3.24639E-05 6.86458E-06 1.62851E-18-1.09951E-18
 -1      2252 9.24411E-05-1.66524E-05-3.25813E-05 1.11085E-05 2.00133E-18-1.73271E-19
 -1      2253 9.13751E-05-1.53145E-05-3.26578E-05 1.00274E-05 1.91324E-18-5.45582E-19
 -1      2254 9.22960E-05-1.70794E-05-3.22150E-05 8.51261E-06 1.82954E-18-6.25325E-19
 -1      2255 1.29119E-04-5.66209E-05-3.13322E-05 2.56456E-05 5.63595E-19-6.44169E-19
 -1      2256 1.12532E-04-5.59881E-05-2.40060E-05 3.31808E-05 5.90805E-19-1.46590E-18
 -1      2257 9.41911E-05-2.70960E-05-2.87379E-05 1.75669E-06 9.44680E-19 9.90863E-19
 -1      2258 9.47884E-05-2.68736E-05-2.90349E-05 2.73441E-06 1.09389E-18 1.18890E-18
 -1      2259 9.53059E-05-2.58303E-05-2.97833E-05 4.35676E-06 1.28772E-18 6.11955E-19
 -1      2260 9.58727E-05-2.50763E-05-3.02953E-05-6.19467E-06-1.10214E-18-5.47201E-19
 -1      2261 9.52198E-05-2.58301E-05-2.97523E-05-4.27147E-06-8.94649E-19-5.40898E-19
 -1      2262 1.47905E-04-2.62585E-05-5.26085E-05-3.95564E-06 2.55507E-18-3.24858E-18
 -1      2263 1.45898E-04-3.56822E-05-4.73526E-05-3.98548E-07 2.43458E-18-2.86509E-18
 -1      2264 9.51086E-05-2.65213E-05-2.93374E-05-2.93241E-06-7.86573E-19-5.10033E-19
 -1      2265 9.46415E-05-2.68886E-05-2.90365E-05-1.86463E-06-5.70548E-19-5.81009E-19
 -1      2266 9.53238E-05-2.53554E-05-2.99932E-05-4.28596E-06-8.90618E-19-7.56680E-19
 -1      2267 9.44498E-05-2.72144E-05-2.87767E-05-1.00220E-06-4.06027E-19-4.85517E-19
 -1      2268 9.41984E-05-2.74254E-05-2.86140E-05-3.89398E-07-3.37072E-19-5.06163E-19
 -1      2269 9.50191E-05-2.66760E-05-2.93039E-05-1.89415E-06-5.29100E-19-7.25131E-19
 -1      2270 9.40577E-05-2.76031E-05-2.84579E-05 1.34809E-07-3.52236E-19-4.97743E-19
 -1      2271 9.39717E-05-2.77442E-05-2.83798E-05 4.81580E-07-3.51189E-19-6.00882E-19
 -1      2272 9.47267E-05-2.73944E-05-2.88700E-05-3.85244E-07-3.91144E-19-6.72835E-19
 -1      2273 9.38985E-05-2.78498E-05-2.82938E-05 7.88225E-07-3.86525E-19-5.50175E-19
 -1      2274 9.39236E-05-2.79541E-05-2.82692E-05 9.77611E-07-3.09579E-19-6.44708E-19
 -1      2275 9.45442E-05-2.78118E-05-2.86106E-05 5.28499E-07-4.35002E-19-7.60113E-19
 -1      2276 9.39088E-05-2.80211E-05-2.82309E-05 1.14986E-06-4.04333E-19-6.78981E-19
 -1      2277 9.40055E-05-2.81025E-05-2.82406E-05 1.24856E-06-4.79504E-19-7.24529E-19
 -1      2278 9.44781E-05-2.80657E-05-2.84707E-05 1.06293E-06-4.05754E-19-6.74583E-19
 -1      2279 9.40348E-05-2.81458E-05-2.82352E-05 1.34318E-06-5.23177E-19-7.32588E-19
 -1      2280 9.41771E-05-2.82106E-05-2.82676E-05 1.39493E-06-5.98826E-19-7.46143E-19
 -1      2281 9.45071E-05-2.82228E-05-2.84136E-05 1.36664E-06-5.27783E-19-8.38492E-19
 -1      2282 9.42386E-05-2.82377E-05-2.82854E-05 1.45211E-06-7.85782E-19-5.91545E-19
 -1      2283 9.44118E-05-2.82898E-05-2.83337E-05 1.48747E-06-9.13000E-19-5.12449E-19
 -1      2284 9.46065E-05-2.83162E-05-2.84146E-05 1.54348E-06-6.05451E-19-6.08597E-19
 -1      2285 9.44974E-05-2.83047E-05-2.83690E-05 1.53679E-06-7.62352E-19-4.04228E-19
 -1      2286 9.46954E-05-2.83472E-05-2.84299E-05 1.57840E-06-4.49495E-19-3.06252E-19
 -1      2287 9.47578E-05-2.83640E-05-2.84580E-05 1.66843E-06-6.65088E-19-2.20616E-19
 -1      2288 9.48009E-05-2.83526E-05-2.84793E-05 1.64263E-06-2.67644E-19-1.29399E-19
 -1      2289 9.50240E-05-2.83885E-05-2.85519E-05 1.70839E-06-2.40570E-20-1.29134E-19
 -1      2290 9.49499E-05-2.83768E-05-2.85342E-05 1.79773E-06-3.54450E-19 2.24823E-19
 -1      2291 9.51483E-05-2.83860E-05-2.86142E-05 1.80599E-06 1.23071E-19 4.47783E-20
 -1      2292 9.54020E-05-2.84186E-05-2.86995E-05 1.91095E-06 4.26971E-19 5.85351E-20
 -1      2293 9.51782E-05-2.83616E-05-2.86384E-05 1.97556E-06 6.47227E-21 5.50972E-19
 -1      2294 9.55463E-05-2.84096E-05-2.87749E-05 2.05776E-06 2.29717E-19-3.11685E-19
 -1      2295 9.58403E-05-2.84425E-05-2.88752E-05 2.21533E-06 9.17900E-20-2.43996E-19
 -1      2296 9.54434E-05-2.83230E-05-2.87686E-05 2.23843E-06 1.50306E-19 6.88383E-20
 -1      2297 9.60075E-05-2.84284E-05-2.89646E-05 2.42549E-06 4.43782E-22-5.38949E-19
 -1      2298 9.63547E-05-2.84661E-05-2.90833E-05 2.64790E-06 4.77953E-20-5.08668E-19
 -1      2299 9.57503E-05-2.82648E-05-2.89251E-05 2.61798E-06-8.21553E-20-5.99562E-19
 -1      2300 9.65491E-05-2.84488E-05-2.91881E-05 2.93414E-06-8.71476E-21-5.04108E-19
 -1      2301 9.69651E-05-2.84976E-05-2.93290E-05 3.23216E-06-1.30852E-19-5.02809E-19
 -1      2302 9.61065E-05-2.81915E-05-2.91094E-05 3.14217E-06-1.67123E-19-3.01241E-20
 -1      2303 9.71922E-05-2.84809E-05-2.94501E-05 3.60513E-06-3.16591E-19-8.18224E-19
 -1      2304 9.76949E-05-2.85496E-05-2.96169E-05 3.98643E-06-1.52664E-19-7.44539E-19
 -1      2305 9.65222E-05-2.81103E-05-2.93224E-05 3.83498E-06-3.55102E-19-2.08652E-19
 -1      2306 9.79623E-05-2.85414E-05-2.97543E-05 4.45270E-06 3.04990E-20-1.01551E-18
 -1      2307 9.85715E-05-2.86448E-05-2.99495E-05 4.91829E-06-3.71736E-19-6.83305E-19
 -1      2308 9.70111E-05-2.80359E-05-2.95639E-05 4.71369E-06-3.90598E-19-7.23606E-19
 -1      2309 9.88916E-05-2.86613E-05-3.01011E-05 5.47632E-06-8.34825E-19-6.63926E-19
 -1      2310 9.96290E-05-2.88239E-05-3.03248E-05 6.01376E-06-7.79670E-19-7.45278E-19
 -1      2311 9.75937E-05-2.79980E-05-2.98300E-05 5.78298E-06-4.50299E-19-1.27830E-18
 -1      2312 1.00025E-04-2.88970E-05-3.04851E-05 6.64659E-06-1.94555E-19-3.51784E-19
 -1      2313 1.00916E-04-2.91602E-05-3.07330E-05 7.21844E-06 3.06657E-19-4.78399E-20
 -1      2314 9.83058E-05-2.80560E-05-3.01111E-05 7.02396E-06-1.72072E-19-5.23797E-19
 -1      2315 1.01434E-04-2.93493E-05-3.08924E-05 7.88149E-06 3.32900E-19 7.51540E-21
 -1      2316 1.02508E-04-2.97808E-05-3.11539E-05 8.40750E-06 6.42054E-19-9.19035E-20
 -1      2317 9.92158E-05-2.83204E-05-3.03904E-05 8.37599E-06 3.57910E-19-8.67727E-20
 -1      2318 1.03236E-04-3.01875E-05-3.12993E-05 9.00916E-06 7.41645E-19-2.83478E-19
 -1      2319 1.04531E-04-3.08888E-05-3.15566E-05 9.34253E-06 9.55465E-19 1.16997E-19
 -1      2320 1.00454E-04-2.89833E-05-3.06434E-05 9.70786E-06 5.69130E-19-1.05502E-19
 -1      2321 1.05622E-04-3.16667E-05-3.16760E-05 9.71479E-06 1.03433E-18-9.81293E-20
 -1      2322 1.07179E-04-3.27636E-05-3.19074E-05 9.61864E-06 8.09659E-19 2.84573E-19
 -1      2323 1.02258E-04-3.03476E-05-3.08447E-05 1.07740E-05 9.44286E-19 2.92792E-19
 -1      2324 1.08863E-04-3.40972E-05-3.20031E-05 9.47749E-06 1.01004E-18 1.13324E-19
 -1      2325 1.10692E-04-3.56756E-05-3.21950E-05 8.62327E-06 6.69083E-19 2.27706E-20
 -1      2326 1.05006E-04-3.28157E-05-3.09872E-05 1.11505E-05 7.98870E-19-3.32221E-19
 -1      2327 1.13215E-04-3.76692E-05-3.23122E-05 7.53891E-06-8.90443E-20-1.91969E-19
 -1      2328 1.15198E-04-3.95944E-05-3.24850E-05 5.57724E-06 2.07940E-19-1.67175E-19
 -1      2329 1.09186E-04-3.67367E-05-3.11281E-05 1.01581E-05 1.27430E-19-1.01734E-18
 -1      2330 1.18595E-04-4.19880E-05-3.27545E-05 3.03346E-06 4.88437E-19-4.30796E-19
 -1      2331 1.20293E-04-4.35741E-05-3.29985E-05-1.58233E-07 5.02972E-19 1.12331E-19
 -1      2332 1.15128E-04-4.19445E-05-3.14677E-05 6.85555E-06 2.88736E-20-8.97557E-19
 -1      2333 1.23928E-04-4.52935E-05-3.36762E-05-4.44518E-06 4.27521E-19 2.04075E-19
 -1      2334 1.24473E-04-4.49729E-05-3.41573E-05-8.29478E-06 2.12678E-19 3.53537E-19
 -1      2335 1.22360E-04-4.68851E-05-3.24509E-05 2.79313E-07 4.97400E-19 2.03341E-19
 -1      2336 1.26406E-04-4.39083E-05-3.55023E-05-1.29183E-05 4.18150E-19 1.01760E-19
 -1      2337 1.25083E-04-4.03934E-05-3.63354E-05-1.53242E-05-6.71141E-20 2.40647E-19
 -1      2338 1.28160E-04-4.72130E-05-3.47317E-05-9.17466E-06 1.82800E-19 4.02592E-19
 -1      2339 1.23912E-04-3.53932E-05-3.82956E-05-1.74016E-05-1.30348E-18 3.38628E-19
 -1      2340 1.20895E-04-2.94269E-05-3.92791E-05-1.55953E-05-1.95352E-18 3.30872E-20
 -1      2341 1.29637E-04-4.04572E-05-3.83857E-05-1.66229E-05-8.32210E-19 1.58453E-18
 -1      2342 1.18438E-04-2.39768E-05-4.08767E-05-1.09110E-05-1.51899E-18-1.58451E-18
 -1      2343 1.16720E-04-2.06410E-05-4.13758E-05-4.83431E-06-1.03507E-18-1.43929E-18
 -1      2344 1.25121E-04-2.54553E-05-4.30927E-05-1.48073E-05-3.11581E-18 8.83138E-19
 -1      2345 1.16416E-04-2.04459E-05-4.14416E-05 4.01220E-06-2.97944E-19-2.57969E-18
 -1      2346 1.18138E-04-2.34673E-05-4.09868E-05 1.02246E-05 1.14455E-19-2.09722E-18
 -1      2347 1.21861E-04-1.77944E-05-4.49704E-05-7.86889E-07-1.34085E-18-2.26187E-18
 -1      2348 1.20696E-04-2.88297E-05-3.94271E-05 1.51600E-05 3.38125E-19-2.23942E-18
 -1      2349 1.23587E-04-3.47358E-05-3.84578E-05 1.71565E-05 5.77888E-19-1.20354E-18
 -1      2350 1.25135E-04-2.52791E-05-4.30888E-05 1.40687E-05 1.48548E-19-3.25128E-18
 -1      2351 1.24887E-04-3.98577E-05-3.64952E-05 1.56741E-05 3.15599E-19-5.60153E-19
 -1      2352 1.26448E-04-4.36634E-05-3.56362E-05 1.33769E-05 3.26875E-19-1.10691E-18
 -1      2353 1.29198E-04-3.90729E-05-3.88155E-05 1.71090E-05 7.35066E-19-2.26740E-18
 -1      2354 1.24566E-04-4.49186E-05-3.42328E-05 8.66753E-06 8.26112E-19-2.56813E-19
 -1      2355 1.24105E-04-4.53530E-05-3.37312E-05 4.84165E-06 8.28848E-19 5.08888E-19
 -1      2356 1.28510E-04-4.72463E-05-3.48730E-05 9.56791E-06 8.89484E-19-1.26185E-18
 -1      2357 1.20542E-04-4.37421E-05-3.30267E-05 5.28164E-07 1.36961E-19 8.68727E-19
 -1      2358 1.18865E-04-4.22251E-05-3.27733E-05-2.74692E-06 1.57353E-19 7.53211E-19
 -1      2359 1.22692E-04-4.70087E-05-3.25137E-05 1.08047E-07 5.70569E-19-6.24232E-20
 -1      2360 1.15432E-04-3.98248E-05-3.24882E-05-5.38951E-06 3.06930E-19 1.30767E-18
 -1      2361 1.13436E-04-3.78931E-05-3.23121E-05-7.42991E-06 4.75265E-20 2.19896E-18
 -1      2362 1.15483E-04-4.22359E-05-3.14842E-05-6.64579E-06 8.23386E-19 3.54415E-19
 -1      2363 1.10859E-04-3.58610E-05-3.21897E-05-8.58272E-06-1.26681E-19 2.70930E-18
 -1      2364 1.09007E-04-3.42544E-05-3.19973E-05-9.49595E-06 5.20456E-19 3.41083E-18
 -1      2365 1.09430E-04-3.69833E-05-3.11232E-05-1.01198E-05 3.74888E-19 1.23914E-18
 -1      2366 1.07277E-04-3.28828E-05-3.19004E-05-9.67946E-06-1.04157E-19 2.25946E-18
 -1      2367 1.05698E-04-3.17575E-05-3.16685E-05-9.81204E-06-4.99488E-19 5.71740E-19
 -1      2368 1.05148E-04-3.29796E-05-3.09766E-05-1.12160E-05-6.27964E-19 8.70577E-19
 -1      2369 1.04573E-04-3.09510E-05-3.15497E-05-9.46295E-06-4.06272E-20 1.90286E-19
 -1      2370 1.03259E-04-3.02265E-05-3.12913E-05-9.14785E-06-7.12996E-19 4.61814E-19
 -1      2371 1.02326E-04-3.04393E-05-3.08346E-05-1.09001E-05-5.88715E-19 8.77948E-19
 -1      2372 1.02508E-04-2.97996E-05-3.11470E-05-8.55447E-06-1.20939E-18 1.11459E-18
 -1      2373 1.01418E-04-2.93496E-05-3.08841E-05-8.03260E-06-8.21724E-19 2.40465E-18
 -1      2374 1.00474E-04-2.90198E-05-3.06364E-05-9.86190E-06-2.16913E-19 1.61761E-18
 -1      2375 1.00884E-04-2.91457E-05-3.07265E-05-7.36571E-06 5.91467E-20 2.55339E-18
 -1      2376 9.99811E-05-2.88667E-05-3.04778E-05-6.78620E-06 9.97141E-19 3.57096E-18
 -1      2377 9.92036E-05-2.83153E-05-3.03879E-05-8.53184E-06 4.64293E-19 1.50783E-18
 -1      2378 9.95745E-05-2.87803E-05-3.03207E-05-6.13786E-06 1.07110E-18 4.25069E-18
 -1      2379 9.88292E-05-2.86021E-05-3.00981E-05-5.58058E-06 1.36368E-18 3.78749E-18
 -1      2380 9.82737E-05-2.80158E-05-3.01152E-05-7.15813E-06 1.21663E-18 2.36487E-18
 -1      2381 9.85022E-05-2.85704E-05-2.99523E-05-4.99335E-06 2.10055E-18 4.88405E-18
 -1      2382 9.78920E-05-2.84494E-05-2.97615E-05-4.49278E-06 2.18493E-18 4.06749E-18
 -1      2383 9.75490E-05-2.79207E-05-2.98445E-05-5.86962E-06 2.20652E-18 4.21273E-18
 -1      2384 9.76200E-05-2.84370E-05-2.96335E-05-3.97963E-06 9.62373E-19 3.35807E-18
 -1      2385 9.71253E-05-2.83463E-05-2.94763E-05-3.54297E-06 9.13589E-19 3.60701E-18
 -1      2386 9.69585E-05-2.79117E-05-2.95950E-05-4.72039E-06 1.31806E-18 4.16480E-18
 -1      2387 9.68935E-05-2.83333E-05-2.93694E-05-3.09886E-06 7.76198E-19 3.22034E-18
 -1      2388 9.64975E-05-2.82570E-05-2.92446E-05-2.71767E-06 1.87701E-19 3.42775E-18
 -1      2389 9.64631E-05-2.79213E-05-2.93785E-05-3.71900E-06 4.81891E-19 5.05254E-18
 -1      2390 9.62965E-05-2.82347E-05-2.91587E-05-2.32885E-06-1.03620E-18 3.11238E-18
 -1      2391 9.59886E-05-2.81651E-05-2.90637E-05-1.98963E-06-1.20712E-18 3.48144E-18
 -1      2392 9.60388E-05-2.79131E-05-2.91993E-05-2.84727E-06-7.86947E-19 3.86397E-18
 -1      2393 9.33274E-05-2.76672E-05-2.81320E-05-4.61020E-07 2.94637E-19 5.12893E-19
 -1      2394 9.33941E-05-2.75626E-05-2.81889E-05-1.62581E-07 4.92045E-19 7.19530E-19
 -1      2395 9.33078E-05-2.78311E-05-2.80556E-05-9.06538E-07 4.22844E-19 1.61573E-19
 -1      2396 9.32439E-05-2.77396E-05-2.80599E-05-7.48085E-07 3.33683E-19 3.33565E-19
 -1      2397 9.40177E-05-2.77769E-05-2.84007E-05-5.21646E-07 4.29790E-19-1.38300E-19
 -1      2398 9.34499E-05-2.79680E-05-2.80590E-05-1.13879E-06 6.51371E-19 9.71680E-20
 -1      2399 9.33079E-05-2.78853E-05-2.80314E-05-1.06027E-06 4.66590E-19 1.19173E-19
 -1      2400 9.39612E-05-2.79799E-05-2.82865E-05-1.02199E-06 5.53150E-19-1.86825E-19
 -1      2401 9.36958E-05-2.80871E-05-2.81139E-05-1.25257E-06 6.68970E-19 1.80992E-19
 -1      2402 9.35078E-05-2.80121E-05-2.80665E-05-1.21610E-06 7.41039E-19 3.52998E-19
 -1      2403 9.40347E-05-2.81221E-05-2.82546E-05-1.29327E-06 5.61506E-19 1.36235E-20
 -1      2404 9.40092E-05-2.81932E-05-2.82029E-05-1.31157E-06 1.52878E-19 5.28279E-19
 -1      2405 9.37930E-05-2.81245E-05-2.81427E-05-1.29170E-06 4.44418E-19 4.77158E-19
 -1      2406 9.41976E-05-2.82261E-05-2.82781E-05-1.43748E-06 2.99968E-19 1.96211E-19
 -1      2407 9.43711E-05-2.82900E-05-2.83162E-05-1.36039E-06 6.19019E-19 2.96020E-19
 -1      2408 9.41345E-05-2.82260E-05-2.82467E-05-1.33922E-06 4.37349E-19 4.14466E-19
 -1      2409 9.44226E-05-2.83040E-05-2.83400E-05-1.52481E-06 4.12861E-19 4.81037E-19
 -1      2410 9.47758E-05-2.83826E-05-2.84494E-05-1.43097E-06 3.56628E-19 6.13755E-19
 -1      2411 9.45192E-05-2.83202E-05-2.83716E-05-1.39563E-06 5.52504E-19 3.83547E-19
 -1      2412 9.46946E-05-2.83642E-05-2.84302E-05-1.60495E-06 5.16983E-19 1.43539E-19
 -1      2413 9.52275E-05-2.84772E-05-2.86016E-05-1.54606E-06 2.53104E-19 5.82282E-19
 -1      2414 9.49460E-05-2.84127E-05-2.85150E-05-1.48746E-06 3.32554E-19 6.11661E-19
 -1      2415 9.50087E-05-2.84142E-05-2.85432E-05-1.71359E-06 2.20335E-19 2.35864E-19
 -1      2416 9.57374E-05-2.85820E-05-2.87743E-05-1.72072E-06-1.78562E-19 6.12276E-19
 -1      2417 9.54227E-05-2.85104E-05-2.86771E-05-1.63310E-06-5.33815E-20 6.51781E-19
 -1      2418 9.53678E-05-2.84622E-05-2.86766E-05-1.87588E-06 3.05184E-20 2.65943E-19
 -1      2419 9.63215E-05-2.87075E-05-2.89700E-05-1.96212E-06 2.82270E-19 6.62169E-19
 -1      2420 9.59631E-05-2.86226E-05-2.88601E-05-1.84342E-06 1.48288E-19 5.78495E-19
 -1      2421 9.57811E-05-2.85183E-05-2.88301E-05-2.10775E-06-1.27095E-19-1.65858E-19
 -1      2422 9.69981E-05-2.88669E-05-2.91912E-05-2.26782E-06 4.84110E-19 4.42269E-19
 -1      2423 9.65852E-05-2.87614E-05-2.90668E-05-2.12075E-06 4.69928E-19 6.04168E-19
 -1      2424 9.62625E-05-2.85952E-05-2.90038E-05-2.41544E-06 4.37641E-19 3.29371E-20
 -1      2425 9.77855E-05-2.90770E-05-2.94388E-05-2.62220E-06 1.17938E-18-1.19997E-19
 -1      2426 9.73088E-05-2.89419E-05-2.92989E-05-2.45622E-06 9.00228E-19 8.74317E-20
 -1      2427 9.68293E-05-2.87106E-05-2.91978E-05-2.79323E-06 8.92257E-19 2.79551E-20
 -1      2428 9.86988E-05-2.93583E-05-2.97110E-05-2.99110E-06 5.87201E-19 3.06200E-19
 -1      2429 9.81531E-05-2.91835E-05-2.95566E-05-2.82526E-06 9.03129E-19 2.55523E-19
 -1      2430 9.75020E-05-2.88881E-05-2.94106E-05-3.21911E-06 7.87956E-19 2.65437E-19
 -1      2431 9.97457E-05-2.97355E-05-3.00012E-05-3.31490E-06-1.32634E-19 4.87043E-19
 -1      2432 9.91335E-05-2.95101E-05-2.98362E-05-3.18129E-06 3.75045E-19 5.52650E-19
 -1      2433 9.83025E-05-2.91591E-05-2.96381E-05-3.64861E-06 2.94899E-19 8.72232E-19
 -1      2434 1.00922E-04-3.02349E-05-3.02966E-05-3.50111E-06-4.43480E-19-2.32386E-19
 -1      2435 1.00257E-04-2.99493E-05-3.01290E-05-3.44822E-06-2.66661E-19 1.65137E-19
 -1      2436 9.92534E-05-2.95635E-05-2.98729E-05-4.00701E-06 1.25721E-20 5.60618E-19
 -1      2437 1.02201E-04-3.08779E-05-3.05778E-05-3.41982E-06-5.13755E-19-5.35429E-19
 -1      2438 1.01517E-04-3.05283E-05-3.04203E-05-3.51368E-06-6.37553E-19-4.14378E-19
 -1      2439 1.00375E-04-3.01466E-05-3.01040E-05-4.18155E-06-2.10325E-19-1.51246E-20
 -1      2440 1.03526E-04-3.16653E-05-3.08192E-05-2.90841E-06 5.49004E-19-3.28457E-20
 -1      2441 1.02880E-04-3.12632E-05-3.06889E-05-3.22767E-06-4.18537E-20-3.92249E-19
 -1      2442 1.01675E-04-3.09480E-05-3.03183E-05-4.01734E-06-4.04131E-19-1.34058E-19
 -1      2443 1.04790E-04-3.25497E-05-3.09939E-05-1.79714E-06 5.18162E-20 7.44469E-19
 -1      2444 1.04268E-04-3.21362E-05-3.09101E-05-2.41589E-06 7.06561E-19 6.79640E-19
 -1      2445 1.03138E-04-3.19768E-05-3.05034E-05-3.32487E-06-4.55727E-20 1.37785E-19
 -1      2446 1.05816E-04-3.33937E-05-3.10813E-05 2.82189E-08-1.54921E-18 1.20386E-18
 -1      2447 1.05538E-04-3.30583E-05-3.10611E-05-9.22871E-07-6.87205E-19 1.14430E-18
 -1      2448 1.04686E-04-3.31642E-05-3.06547E-05-1.91343E-06-2.85523E-19 1.11104E-18
 -1      2449 1.06346E-04-3.39321E-05-3.10788E-05 2.51860E-06-1.29950E-18 1.12631E-18
 -1      2450 1.06453E-04-3.38247E-05-3.11296E-05 1.30007E-06-1.99965E-18 1.12638E-18
 -1      2451 1.06139E-04-3.43024E-05-3.07822E-05 3.30208E-07-1.43888E-18 9.47014E-19
 -1      2452 1.06070E-04-3.37785E-05-3.10106E-05 5.31535E-06 2.57104E-19 9.26770E-19
 -1      2453 1.06680E-04-3.40877E-05-3.11232E-05 4.05708E-06-7.30632E-20 7.92046E-19
 -1      2454 1.07173E-04-3.49915E-05-3.09165E-05 3.30857E-06-5.91924E-19 8.96416E-20
 -1      2455 1.04749E-04-3.25751E-05-3.09269E-05 7.63272E-06 3.51520E-19 1.49009E-18
 -1      2456 1.05873E-04-3.34229E-05-3.10730E-05 6.74952E-06 2.25896E-19 1.00411E-18
 -1      2457 1.07330E-04-3.46722E-05-3.11032E-05 6.52432E-06 1.61100E-19 5.34900E-19
 -1      2458 1.02477E-04-3.03210E-05-3.08814E-05 8.39151E-06-9.13607E-19 1.79192E-18
 -1      2459 1.03917E-04-3.16069E-05-3.10223E-05 8.36587E-06-3.94085E-20 1.64308E-18
 -1      2460 1.06239E-04-3.29181E-05-3.13793E-05 8.95571E-06-2.17985E-19 8.93506E-19
 -1      2461 9.98961E-05-2.76605E-05-3.08956E-05 6.70361E-06-2.44032E-19 1.50572E-18
 -1      2462 1.01222E-04-2.89605E-05-3.09977E-05 7.82856E-06-9.22440E-19 1.41137E-18
 -1      2463 1.03996E-04-2.99070E-05-3.17317E-05 9.29224E-06-5.66277E-19 1.12571E-18
 -1      2464 9.81299E-05-2.58153E-05-3.09419E-05 2.62182E-06 6.14893E-20 2.21339E-18
 -1      2465 9.88234E-05-2.65216E-05-3.09878E-05 4.69004E-06-1.05052E-20 2.01533E-18
 -1      2466 1.01468E-04-2.66996E-05-3.20653E-05 6.62548E-06-4.23129E-19 9.64264E-19
 -1      2467 9.81409E-05-2.58299E-05-3.09769E-05-2.50011E-06 6.41409E-19 1.06946E-18
 -1      2468 9.78918E-05-2.55578E-05-3.09615E-05-2.23935E-07 5.79966E-19 1.88002E-18
 -1      2469 1.00029E-04-2.49186E-05-3.22406E-05 1.40372E-06 3.80192E-19 6.30742E-19
 -1      2470 9.99739E-05-2.77162E-05-3.09885E-05-6.64588E-06 9.72966E-19 3.17717E-19
 -1      2471 9.88995E-05-2.66217E-05-3.09127E-05-5.02571E-06 4.34640E-19 3.79233E-19
 -1      2472 1.00580E-04-2.56037E-05-3.21713E-05-4.39538E-06 1.02092E-18 3.09357E-19
 -1      2473 1.02681E-04-3.04233E-05-3.10015E-05-8.40649E-06 3.50119E-19 8.90685E-19
 -1      2474 1.01238E-04-2.90671E-05-3.08766E-05-7.90780E-06 9.52240E-19 3.98774E-19
 -1      2475 1.02762E-04-2.83421E-05-3.18934E-05-8.40405E-06 8.24148E-19-2.77013E-19
 -1      2476 1.05067E-04-3.27095E-05-3.10373E-05-7.67416E-06 8.54653E-19 3.04647E-19
 -1      2477 1.03761E-04-3.16357E-05-3.08910E-05-8.20390E-06 3.72242E-19 3.73690E-19
 -1      2478 1.05288E-04-3.16386E-05-3.15330E-05-9.41049E-06 6.69429E-19 4.36256E-19
 -1      2479 1.06406E-04-3.39009E-05-3.10866E-05-5.33410E-06 1.13624E-18 6.68471E-19
 -1      2480 1.05550E-04-3.33555E-05-3.09568E-05-6.45509E-06 1.28870E-18 5.39297E-19
 -1      2481 1.06963E-04-3.40514E-05-3.12097E-05-7.77930E-06 7.51269E-19 1.68460E-19
 -1      2482 1.06607E-04-3.40167E-05-3.11129E-05-2.49986E-06 1.38190E-18 1.08231E-18
 -1      2483 1.06278E-04-3.39550E-05-3.10339E-05-3.74926E-06 1.23404E-18 1.21095E-18
 -1      2484 1.07344E-04-3.50021E-05-3.09779E-05-4.76207E-06 6.77014E-19 1.02652E-18
 -1      2485 1.05950E-04-3.34332E-05-3.10766E-05 2.87046E-08 1.17633E-18 1.43213E-18
 -1      2486 1.06071E-04-3.36828E-05-3.10670E-05-1.04208E-06 1.77361E-18 1.35949E-18
 -1      2487 1.06648E-04-3.47089E-05-3.08217E-05-1.57448E-06 1.54042E-18 1.14791E-18
 -1      2488 1.04790E-04-3.25442E-05-3.09582E-05 1.87933E-06-6.35970E-20 8.02672E-19
 -1      2489 1.05222E-04-3.29348E-05-3.10175E-05 1.11934E-06 1.83991E-19 1.88495E-18
 -1      2490 1.05328E-04-3.37142E-05-3.06928E-05 1.05359E-06 1.02779E-18 7.68444E-19
 -1      2491 1.03412E-04-3.16242E-05-3.07623E-05 3.00175E-06-1.80858E-18-7.01582E-20
 -1      2492 1.04024E-04-3.20393E-05-3.08767E-05 2.55724E-06-3.34614E-19 8.23720E-19
 -1      2493 1.03779E-04-3.25042E-05-3.05521E-05 2.85422E-06-2.52890E-19 6.23246E-19
 -1      2494 1.02006E-04-3.08107E-05-3.05086E-05 3.51379E-06-1.51399E-18-7.68591E-19
 -1      2495 1.02692E-04-3.11898E-05-3.06586E-05 3.32680E-06-2.87251E-18-4.46596E-19
 -1      2496 1.02249E-04-3.13767E-05-3.03806E-05 3.86240E-06-2.16051E-18-3.87005E-20
 -1      2497 1.00676E-04-3.01483E-05-3.02232E-05 3.58511E-06-1.53156E-18 1.58575E-18
 -1      2498 1.01365E-04-3.04687E-05-3.03896E-05 3.58023E-06-7.91636E-19-1.27436E-19
 -1      2499 1.00856E-04-3.04558E-05-3.01781E-05 4.24375E-06-1.85051E-18 1.27200E-20
 -1      2500 9.94775E-05-2.96323E-05-2.99308E-05 3.37477E-06-2.57741E-18 2.11343E-18
 -1      2501 1.00123E-04-2.98923E-05-3.00979E-05 3.48389E-06-1.58280E-18 1.96884E-18
 -1      2502 9.96419E-05-2.97598E-05-2.99556E-05 4.19002E-06-1.97163E-18 2.01651E-18
 -1      2503 9.84312E-05-2.92381E-05-2.96513E-05 3.00557E-06 9.95453E-19 8.75522E-19
 -1      2504 9.90086E-05-2.94449E-05-2.98078E-05 3.17760E-06-1.36667E-18 9.31690E-19
 -1      2505 9.86089E-05-2.92569E-05-2.97278E-05 3.86753E-06-8.92076E-19 3.64754E-19
 -1      2506 9.75414E-05-2.89358E-05-2.93991E-05 2.55959E-06 1.60380E-18 1.93001E-18
 -1      2507 9.80383E-05-2.91002E-05-2.95376E-05 2.76179E-06 1.70225E-18 1.96975E-18
 -1      2508 9.77426E-05-2.88996E-05-2.95091E-05 3.39944E-06 7.10232E-19-2.63011E-19
 -1      2509 9.68010E-05-2.86990E-05-2.91831E-05 2.08096E-06 6.24499E-19 1.57210E-18
 -1      2510 9.72138E-05-2.88300E-05-2.92994E-05 2.29733E-06 1.06066E-18 2.21675E-18
 -1      2511 9.70213E-05-2.86410E-05-2.93108E-05 2.86773E-06 1.32043E-18 5.29170E-19
 -1      2512 9.61996E-05-2.85064E-05-2.90077E-05 1.59105E-06 4.14990E-19 2.07020E-18
 -1      2513 9.65316E-05-2.86131E-05-2.91000E-05 1.81584E-06-3.87203E-21 1.87588E-18
 -1      2514 9.64262E-05-2.84454E-05-2.91410E-05 2.31228E-06 3.76248E-19 1.74634E-19
 -1      2515 9.57223E-05-2.83472E-05-2.88709E-05 1.09939E-06 2.64263E-19 2.56108E-18
 -1      2516 9.59799E-05-2.84335E-05-2.89410E-05 1.32832E-06 9.64677E-19 2.26786E-18
 -1      2517 9.59405E-05-2.82864E-05-2.90013E-05 1.74873E-06 5.87099E-19 1.32528E-18
 -1      2518 9.55422E-05-2.83000E-05-2.88132E-05 8.19924E-07-1.42330E-19 2.66482E-18
 -1      2519 9.43061E-05-2.62860E-05-2.91587E-05 1.53602E-06-1.26127E-18-1.32245E-18
 -1      2520 9.44761E-05-2.65337E-05-2.91155E-05 1.64232E-06-1.44982E-18-3.79949E-18
 -1      2521 9.40110E-05-2.58570E-05-2.92169E-05 1.15343E-06-1.03248E-19 8.37669E-20
 -1      2522 9.41460E-05-2.60522E-05-2.91830E-05 1.35143E-06-1.01111E-18 6.89559E-19
 -1      2523 9.41245E-05-2.61509E-05-2.91277E-05 1.67279E-06 6.12867E-19-1.17369E-19
 -1      2524 9.50326E-05-2.73521E-05-2.90095E-05 1.66402E-06-7.13981E-19-2.38880E-18
 -1      2525 9.52202E-05-2.76267E-05-2.89625E-05 1.56677E-06-4.80634E-19-1.79700E-18
 -1      2526 9.46652E-05-2.68072E-05-2.90871E-05 1.71101E-06-2.35432E-18-4.45395E-18
 -1      2527 9.48463E-05-2.70733E-05-2.90405E-05 1.70787E-06-1.68834E-18-2.75083E-18
 -1      2528 9.49588E-05-2.72250E-05-2.90315E-05 1.96286E-06-6.76246E-19-3.66227E-18
 -1      2529 9.45366E-05-2.66693E-05-2.90838E-05 1.94724E-06-1.02427E-18-3.25120E-18
 -1      2530 9.38107E-05-2.55687E-05-2.92545E-05 6.09938E-07-5.28759E-19-1.67348E-18
 -1      2531 9.38944E-05-2.56868E-05-2.92343E-05 8.75130E-07-4.33051E-19-1.29648E-18
 -1      2532 9.37967E-05-2.57373E-05-2.91627E-05 1.17851E-06 7.42171E-20-1.21816E-19
 -1      2533 9.37321E-05-2.54592E-05-2.92667E-05-2.80748E-08-4.95460E-19 1.44353E-18
 -1      2534 9.37525E-05-2.54835E-05-2.92629E-05 2.70654E-07-6.27906E-19-1.91226E-19
 -1      2535 9.35892E-05-2.54753E-05-2.91847E-05 5.18613E-07-1.89485E-19-1.23691E-18
 -1      2536 9.37920E-05-2.55484E-05-2.92520E-05-6.77790E-07-1.08645E-18 1.63224E-19
 -1      2537 9.37428E-05-2.54728E-05-2.92653E-05-3.85685E-07-9.56963E-19 1.22239E-18
 -1      2538 9.35325E-05-2.54013E-05-2.91915E-05-2.26787E-07 2.35616E-19 7.73283E-19
 -1      2539 9.39878E-05-2.58268E-05-2.92136E-05-1.23965E-06 1.56629E-19-5.82798E-19
 -1      2540 9.38732E-05-2.56617E-05-2.92414E-05-1.00002E-06-6.54658E-19 2.25503E-19
 -1      2541 9.36424E-05-2.55313E-05-2.91829E-05-9.55220E-07-3.55695E-19 1.06323E-18
 -1      2542 9.43105E-05-2.62775E-05-2.91554E-05-1.64544E-06 8.61599E-19 5.56295E-19
 -1      2543 9.41375E-05-2.60351E-05-2.91950E-05-1.48936E-06 5.10419E-19-1.14388E-18
 -1      2544 9.39156E-05-2.58595E-05-2.91606E-05-1.57059E-06 8.42700E-19-9.11412E-19
 -1      2545 9.47228E-05-2.68480E-05-2.90848E-05-1.81546E-06-7.36172E-20 2.01124E-18
 -1      2546 9.45120E-05-2.65575E-05-2.91309E-05-1.77623E-06 3.31196E-19 2.46756E-18
 -1      2547 9.43309E-05-2.63585E-05-2.91268E-05-1.98239E-06 3.65810E-19 3.64902E-19
 -1      2548 9.51668E-05-2.74705E-05-2.90070E-05-1.70424E-06-4.21888E-19 1.91645E-18
 -1      2549 9.49532E-05-2.71684E-05-2.90559E-05-1.79856E-06-4.56716E-19 2.47228E-18
 -1      2550 9.48476E-05-2.69749E-05-2.90849E-05-2.11435E-06-8.35076E-19 2.00377E-18
 -1      2551 2.37262E-05-2.18347E-05-7.43211E-07 2.27420E-05-3.69306E-19 2.32998E-18
 -1      2552 1.77965E-05-1.91326E-05 7.20819E-07 9.04495E-06-2.83359E-19 2.20525E-18
 -1      2553 9.16678E-05-5.03182E-05-1.79444E-05 4.29000E-05-8.28186E-19-8.44862E-19
 -1      2554 7.39225E-05-4.39012E-05-1.25286E-05 4.26189E-05-1.93547E-18 2.24368E-18
 -1      2555 9.35908E-05-2.74493E-05-2.83343E-05 3.45302E-07 5.53544E-19 8.25994E-19
 -1      2556 9.38670E-05-2.73143E-05-2.84786E-05 8.87036E-07 6.74536E-19 9.11813E-19
 -1      2557 9.42543E-05-2.74637E-05-2.86387E-05 3.61449E-07 6.46390E-19 2.01911E-19
 -1      2558 9.54308E-05-2.79751E-05-2.89041E-05-1.18542E-06-4.97784E-19 2.79324E-18
 -1      2559 1.85213E-05-1.87222E-05 2.71832E-07-6.27418E-06 7.17384E-19 1.97570E-18
 -1      2560 2.62625E-05-2.26120E-05-1.45634E-06-2.21693E-05 1.17039E-18-4.50622E-19
 -1      2561 5.27671E-05-3.43154E-05-7.90421E-06 4.13749E-05-1.83340E-18 3.05355E-18
 -1      2562 3.68801E-05-2.79885E-05-3.53972E-06 3.25243E-05-1.07107E-18 3.17553E-18
 -1      2563 1.44008E-04-4.69032E-05-4.21110E-05 7.91066E-06 1.49333E-18-2.49007E-18
 -1      2564 1.37868E-04-5.18283E-05-3.68994E-05 1.39424E-05 7.33742E-19-8.91079E-19
 -1      2565 1.05477E-04-5.58139E-05-2.13966E-05 3.65343E-05 2.54322E-19-3.78060E-18
 -1      2566 8.65205E-05-5.03345E-05-1.54046E-05 3.94740E-05 3.37543E-19-4.28321E-18
 -1      2567 3.70419E-05-2.69445E-05-4.09216E-06 3.06201E-05-1.02406E-18-3.77311E-18
 -1      2568 2.56785E-05-1.95777E-05-2.22518E-06 1.71998E-05-1.00659E-18-2.01679E-18
 -1      2569 8.78912E-05-1.07906E-05-3.30789E-05-1.51595E-06 4.02419E-19-2.08260E-18
 -1      2570 8.79949E-05-1.09130E-05-3.30692E-05-2.63377E-06 1.76728E-19-2.06144E-18
 -1      2571 8.93905E-05-1.30796E-05-3.27064E-05-2.92443E-06 1.41737E-19-1.91086E-18
 -1      2572 8.91446E-05-1.27427E-05-3.27467E-05-9.38433E-07 4.06508E-19-1.96092E-18
 -1      2573 1.46303E-04-2.49564E-05-5.23001E-05 4.07837E-06 1.50518E-18-5.64124E-19
 -1      2574 1.49215E-04-1.90719E-05-5.61534E-05 3.62835E-06 2.15506E-18-4.39822E-19
 -1      2575 1.44270E-04-1.21090E-05-5.71064E-05-3.20140E-06 2.65566E-18-2.53115E-18
 -1      2576 1.44664E-04-1.63465E-05-5.52968E-05-5.37497E-06 2.65037E-18-2.98029E-18
 -1      2577 1.46101E-04-1.27483E-05-5.74662E-05 2.79598E-06 2.25988E-18-7.15955E-19
 -1      2578 1.42987E-04-9.57972E-06-5.76666E-05 6.64204E-07 2.29588E-18-1.30075E-18
 -1      2579 1.44068E-04-4.42890E-05-4.28342E-05-6.02375E-06 3.96147E-19 2.99003E-19
 -1      2580 1.47031E-04-3.70371E-05-4.76708E-05-2.42639E-07 8.11458E-19-2.21923E-19
 -1      2581 1.26314E-04-5.49627E-05-3.05380E-05-2.53839E-05-7.07802E-19-1.01771E-18
 -1      2582 1.39049E-04-5.18295E-05-3.77294E-05-1.74956E-05 1.21549E-19 7.61906E-19
 -1      2583 9.41909E-05-5.14332E-05-1.82951E-05-4.03381E-05-1.79338E-18-3.10528E-18
 -1      2584 1.10669E-04-5.46086E-05-2.42785E-05-3.71310E-05-1.27648E-18-2.58493E-18
 -1      2585 6.11383E-05-3.93641E-05-9.18461E-06-4.19664E-05-1.33408E-18-2.61754E-18
 -1      2586 7.81765E-05-4.56880E-05-1.38733E-05-4.45571E-05-1.33598E-18-3.71286E-18
 -1      2587 9.25040E-05-5.03405E-05-1.78011E-05-4.10405E-05-2.01954E-18-2.31375E-18
 -1      2588 3.27740E-05-2.35603E-05-3.56181E-06-2.85181E-05-9.73664E-19-5.87417E-19
 -1      2589 4.55004E-05-3.05168E-05-6.17261E-06-3.84026E-05-1.29469E-18-2.14765E-18
 -1      2590 1.95737E-05-1.61684E-05-1.12741E-06-4.95450E-07-9.08172E-19-1.13121E-18
 -1      2591 2.19003E-05-1.81608E-05-1.32782E-06-1.59361E-05-8.62280E-19 5.15420E-19
 -1      2592 6.78592E-05-4.22399E-05-1.09538E-05 4.16860E-05-2.66392E-19-4.63221E-18
 -1      2593 5.20249E-05-3.54857E-05-6.92838E-06 3.69268E-05-8.22045E-19-4.14453E-18
 -1      2594 1.53737E-04-3.69514E-05-5.01682E-05 4.03732E-06 5.52689E-19-2.39753E-18
 -1      2595 1.54351E-04-2.86307E-05-5.43934E-05 7.08241E-06 1.54584E-20-3.15837E-18
 -1      2596 1.51368E-04-4.48798E-05-4.60815E-05-1.02145E-06-2.96737E-18-2.36767E-18
 -1      2597 1.47024E-04-5.15135E-05-4.09997E-05 5.10715E-06-2.58295E-18-1.26970E-18
 -1      2598 1.49981E-04-1.37664E-05-5.88786E-05-1.46834E-06-4.20552E-18-2.33696E-18
 -1      2599 1.50023E-04-1.61748E-05-5.77162E-05-5.68638E-06-4.83952E-18-1.28601E-18
 -1      2600 1.49435E-04-1.89465E-05-5.62988E-05 7.18026E-06-1.09055E-18-3.78751E-18
 -1      2601 1.48746E-04-1.44177E-05-5.79619E-05 3.23910E-06-2.85577E-18-2.84984E-18
 -1      2602 1.44395E-04-5.36854E-05-3.89338E-05-9.51038E-06 1.21645E-18-2.18640E-18
 -1      2603 1.52791E-04-4.75800E-05-4.54432E-05-3.32737E-06 8.64979E-19-2.52310E-18
 -1      2604 1.19176E-04-5.84844E-05-2.59206E-05-2.90970E-05 9.44018E-19 9.01243E-19
 -1      2605 1.34202E-04-5.89361E-05-3.26511E-05-2.26463E-05 1.33768E-18-2.33993E-19
 -1      2606 4.00256E-05-3.04342E-05-3.95846E-06-3.19154E-05 6.60474E-19-2.04071E-18
 -1      2607 5.53645E-05-3.65356E-05-7.99098E-06-3.91756E-05 5.30878E-19-1.91006E-18
 -1      2608 9.50406E-05-2.00134E-05-3.22029E-05-1.17543E-05-1.50699E-18-8.00128E-19
 -1      2609 9.54358E-05-2.33527E-05-3.09183E-05-7.96969E-06-1.32692E-18-7.08194E-19
 -1      2610 9.50530E-05-2.25427E-05-3.10503E-05-7.65631E-06-1.19800E-18-8.66237E-19
 -1      2611 9.32009E-05-1.76146E-05-3.24113E-05-1.14072E-05-1.40353E-18-1.09680E-18
 -1      2612 9.62799E-05-2.50776E-05-3.05410E-05 7.59829E-06 1.51366E-18 1.66090E-18
 -1      2613 9.74010E-05-2.37619E-05-3.15809E-05 1.06984E-05 1.65288E-18 1.93734E-18
 -1      2614 9.58455E-05-2.12896E-05-3.20084E-05 1.18997E-05 1.84690E-18 1.27366E-18
 -1      2615 9.58404E-05-2.41469E-05-3.07591E-05 7.68646E-06 1.59935E-18 8.18109E-19
 -1      2616 1.36680E-04-1.36327E-05-5.29679E-05 6.49369E-06 2.03775E-18-5.56818E-19
 -1      2617 9.08254E-05-1.50336E-05-3.24728E-05-6.79363E-06-6.01924E-19-1.80867E-18
 -1      2618 8.97330E-05-1.31879E-05-3.28566E-05-7.94698E-06-6.36822E-19-1.96530E-18
 -1      2619 9.03542E-05-1.39061E-05-3.28254E-05-9.17920E-06-9.04747E-19-1.86399E-18
 -1      2620 1.07635E-04-5.46930E-05-2.23087E-05 3.46786E-05-5.11184E-19-5.12984E-19
 -1      2621 1.33715E-04-5.66183E-05-3.30566E-05 1.54308E-05 5.73759E-19-7.70376E-19
 -1      2622 9.42173E-05-1.90719E-05-3.22503E-05 1.16076E-05 1.89263E-18 4.95025E-19
 -1      2623 1.50381E-04-4.03672E-05-4.73519E-05-7.81605E-06-3.07695E-18-1.55261E-18
 -1      2624 1.45277E-04-4.45254E-05-4.29659E-05-1.07901E-05-2.20578E-18-3.44213E-19
 -1      2625 1.43205E-04-3.36331E-05-4.79715E-05-1.36251E-05-3.59057E-18-5.77571E-19
 -1      2626 1.49041E-04-4.35077E-05-4.53070E-05 6.83748E-06 8.90867E-19-2.48858E-18
 -1      2627 1.42444E-04-4.17334E-05-4.32617E-05-1.87596E-06 1.68612E-18-3.62742E-18
 -1      2628 8.37485E-05-4.66622E-05-1.54685E-05 3.92037E-05-2.85238E-19-4.09673E-18
 -1      2629 2.62662E-05-1.59680E-05-3.85192E-06 9.11284E-06-8.63815E-19-2.56566E-18
 -1      2630 2.94489E-05-1.28804E-05-6.54770E-06 1.50446E-06-8.78254E-19-1.52402E-18
 -1      2631 3.52899E-05-1.63841E-05-7.62964E-06 1.73096E-05-6.64603E-19-2.42040E-18
 -1      2632 3.91554E-05-2.37697E-05-6.03192E-06-2.66083E-05 7.64553E-19-3.02814E-19
 -1      2633 6.09041E-05-3.49415E-05-1.07729E-05-3.98054E-05-1.79550E-18-1.99984E-18
 -1      2634 9.55381E-05-2.81500E-05-2.88798E-05 1.17514E-06-1.58050E-19 1.55637E-18
 -1      2635 9.54510E-05-2.79662E-05-2.89220E-05 1.34960E-06 4.06038E-20 6.47292E-19
 -1      2636 2.44420E-05-1.57077E-05-3.20346E-06 5.45414E-07 2.30750E-19 1.67268E-18
 -1      2637 3.64405E-05-2.24321E-05-5.49039E-06 2.80688E-05-1.59655E-18 2.71855E-18
 -1      2638 6.84756E-05-3.85056E-05-1.23675E-05 4.12325E-05-2.07396E-18 1.96978E-18
 -1      2639 1.22864E-04-5.76314E-05-2.77520E-05-2.71765E-05-1.34403E-18-6.71909E-19
 -1      2640 1.40210E-04-5.05873E-05-3.84011E-05-6.42625E-06-7.12712E-19 1.29850E-18
 -1      2641 9.47074E-05-2.69183E-05-2.90653E-05 1.86507E-06 9.62444E-19 4.26375E-19
 -1      2642 9.20450E-05-1.62285E-05-3.25341E-05-1.03910E-05-1.15157E-18-1.44214E-18
 -1      2643 7.04039E-05-4.20498E-05-1.17381E-05-4.01587E-05 5.48877E-19-1.59920E-18
 -1      2644 8.41621E-05-4.72957E-05-1.60884E-05-3.94883E-05 3.96411E-19-5.79476E-19
 -1      2645 6.57938E-05-3.63240E-05-1.20619E-05-3.82262E-05 6.41310E-19-9.67947E-19
 -1      2646 9.46948E-05-2.05927E-05-3.17137E-05 9.67142E-06 1.77758E-18 2.55235E-19
 -1      2647 1.12843E-04-5.81471E-05-2.31866E-05-3.26754E-05 6.13887E-19 7.50683E-19
 -1      2648 1.40704E-04-5.85768E-05-3.51077E-05-1.00772E-05 9.69853E-19-2.13410E-18
 -1      2649 1.43414E-04-2.33689E-05-5.16909E-05 1.12146E-05-1.51619E-19-3.59661E-18
 -1      2650 5.07125E-05-2.96306E-05-8.58532E-06 3.34306E-05-8.04364E-19-3.90228E-18
 -1      2651 1.45033E-04-1.97963E-05-5.39105E-05-8.64345E-06-5.06568E-18-1.68623E-18
 -1      2652 1.17516E-04-5.91850E-05-2.48420E-05 3.02958E-05 2.34205E-19-3.18188E-18
 -1      2653 1.11111E-04-5.70829E-05-2.28728E-05 3.18164E-05 1.01962E-18-3.35743E-18
 -1      2654 1.26285E-04-6.10347E-05-2.85499E-05 2.16179E-05 3.45589E-19-3.03365E-18
 -1      2655 1.39187E-04-2.13449E-05-5.07755E-05-8.02635E-06 2.01869E-18-3.40539E-18
 -1      2656 1.34285E-04-9.37989E-06-5.38412E-05-2.07239E-06 1.58543E-18-3.07695E-18
 -1      2657 1.43120E-04-5.69795E-05-3.68506E-05 7.76775E-06-1.47082E-18-1.67310E-18
 -1      2658 1.41870E-04-3.13211E-05-4.75273E-05 6.97002E-06 1.02025E-18 1.09267E-19
 -1      2659 3.39319E-05-1.90579E-05-5.85824E-06-2.25984E-05-1.02459E-18-2.79097E-19
 -1      2660 1.38535E-04-1.28910E-05-5.40224E-05 1.26906E-06-3.00845E-18-2.93603E-18
 -1      2661 9.56638E-05-2.81051E-05-2.89473E-05-1.45660E-06-4.88964E-19 2.50628E-18
 -1      2662 9.53807E-05-2.77519E-05-2.89882E-05-1.63479E-06-5.21864E-19 1.67866E-18
 -1      2663 9.53755E-05-2.75922E-05-2.90456E-05-2.02117E-06-7.74778E-19 1.78538E-18
 -1      2664 9.58797E-05-2.81490E-05-2.90170E-05-1.74557E-06-9.54545E-19 3.56113E-18
 -1      2665 9.54878E-05-2.78709E-05-2.89752E-05 1.70563E-06 5.13005E-19-7.51276E-19
 -1      2666 9.57322E-05-2.78999E-05-2.90766E-05-2.18218E-06-1.23700E-18 2.97301E-18
 -1      2667 9.05979E-05-1.51515E-05-3.23565E-05 3.18646E-06 9.36649E-19-1.44071E-18
 -1      2668 9.04097E-05-1.48788E-05-3.23907E-05 2.25461E-06 7.50769E-19-1.52885E-18
 -1      2669 9.02765E-05-1.46744E-05-3.24208E-05 1.41879E-06 7.16092E-19-1.71103E-18
 -1      2670 9.02121E-05-1.45816E-05-3.24325E-05 4.64378E-07 6.18773E-19-1.72726E-18
 -1      2671 9.14572E-05-1.65592E-05-3.20860E-05 1.63416E-06 6.99394E-19-1.59010E-18
 -1      2672 9.21631E-05-1.75379E-05-3.20200E-05 6.46256E-06 1.60995E-18-9.07409E-19
 -1      2673 9.16443E-05-1.67421E-05-3.21236E-05 5.62285E-06 1.42584E-18-1.06460E-18
 -1      2674 9.35653E-05-1.97644E-05-3.16711E-05 7.58905E-06 1.77851E-18-5.22044E-19
 -1      2675 9.27852E-05-1.85107E-05-3.18492E-05 7.00946E-06 1.71648E-18-7.43311E-19
 -1      2676 9.34523E-05-1.98490E-05-3.15216E-05 5.71899E-06 1.53185E-18-6.89219E-19
 -1      2677 1.04456E-04-5.45555E-05-2.07691E-05-3.39271E-05 5.37548E-19 3.95935E-19
 -1      2678 1.21190E-04-6.04055E-05-2.65273E-05-2.62605E-05 1.03973E-18 6.42872E-19
 -1      2679 9.52001E-05-2.53910E-05-2.99301E-05 3.96662E-06 1.21159E-18 1.13605E-19
 -1      2680 9.55346E-05-2.45443E-05-3.03919E-05 5.60467E-06 1.37865E-18 1.45757E-19
 -1      2681 9.46894E-05-2.18958E-05-3.12038E-05 7.84077E-06 1.62930E-18 1.14316E-19
 -1      2682 9.53596E-05-2.58813E-05-2.97463E-05-2.68313E-06-5.90845E-19-9.24041E-19
 -1      2683 9.51915E-05-2.64567E-05-2.94692E-05-1.68251E-06-4.53405E-19-1.03816E-18
 -1      2684 9.52211E-05-2.69676E-05-2.92281E-05-9.23647E-07-4.11011E-19-9.55004E-19
 -1      2685 9.50939E-05-2.73154E-05-2.90536E-05-3.00341E-07-3.73229E-19-1.04195E-18
 -1      2686 9.54202E-05-2.62824E-05-2.96361E-05-1.56009E-06-4.98987E-19-1.07239E-18
 -1      2687 9.50640E-05-2.76109E-05-2.88928E-05 1.89570E-07-3.37830E-19-9.96676E-19
 -1      2688 9.49974E-05-2.78257E-05-2.87898E-05 5.67746E-07-3.09278E-19-8.69311E-19
 -1      2689 9.54302E-05-2.72616E-05-2.92228E-05-2.43718E-07-3.38286E-19-1.14485E-18
 -1      2690 9.49595E-05-2.79967E-05-2.86884E-05 8.71546E-07-3.40929E-19-8.33672E-19
 -1      2691 9.49475E-05-2.81309E-05-2.86354E-05 1.09400E-06-3.33868E-19-8.19323E-19
 -1      2692 9.53758E-05-2.78454E-05-2.89487E-05 6.06690E-07-3.41944E-19-1.15502E-18
 -1      2693 9.49178E-05-2.82238E-05-2.85775E-05 1.27684E-06-4.59477E-19-7.99691E-19
 -1      2694 9.49479E-05-2.83047E-05-2.85595E-05 1.40677E-06-4.69104E-19-7.70746E-19
 -1      2695 9.53202E-05-2.81847E-05-2.87783E-05 1.13508E-06-4.14180E-19-9.21677E-19
 -1      2696 9.49301E-05-2.83450E-05-2.85339E-05 1.51936E-06-2.88076E-19-7.83377E-19
 -1      2697 9.49912E-05-2.83882E-05-2.85412E-05 1.60218E-06-4.16244E-19-5.18214E-19
 -1      2698 9.52817E-05-2.83617E-05-2.86846E-05 1.46111E-06-2.12837E-19-8.72905E-19
 -1      2699 9.49841E-05-2.83906E-05-2.85397E-05 1.68324E-06-4.03742E-19-2.96094E-19
 -1      2700 9.50686E-05-2.84054E-05-2.85659E-05 1.75252E-06-3.08714E-19 2.28757E-20
 -1      2701 9.52630E-05-2.84248E-05-2.86485E-05 1.67745E-06-1.42279E-19-3.80108E-19
 -1      2702 9.50697E-05-2.83786E-05-2.85831E-05 1.83192E-06-3.68215E-19 2.13250E-19
 -1      2703 9.51735E-05-2.83711E-05-2.86246E-05 1.91345E-06-1.81743E-19 3.13460E-19
 -1      2704 9.52608E-05-2.84029E-05-2.86561E-05 1.85541E-06-1.30397E-19 8.83927E-20
 -1      2705 9.51799E-05-2.83198E-05-2.86568E-05 2.01483E-06-1.10825E-19 4.53945E-19
 -1      2706 9.53020E-05-2.82939E-05-2.87117E-05 2.12929E-06 8.69397E-20 3.07006E-19
 -1      2707 9.52704E-05-2.83130E-05-2.86981E-05 2.05058E-06-8.45281E-20 1.08603E-19
 -1      2708 9.53107E-05-2.82204E-05-2.87565E-05 2.27203E-06-5.12538E-20-4.52267E-20
 -1      2709 9.54523E-05-2.81791E-05-2.88242E-05 2.43679E-06-3.10669E-20-3.55813E-19
 -1      2710 9.52864E-05-2.81650E-05-2.87678E-05 2.30746E-06-3.51659E-19-1.47557E-20
 -1      2711 9.54600E-05-2.80843E-05-2.88798E-05 2.63734E-06-5.19408E-20-3.47928E-19
 -1      2712 9.56240E-05-2.80300E-05-2.89603E-05 2.86744E-06-1.72374E-20-5.72742E-19
 -1      2713 9.53030E-05-2.79640E-05-2.88606E-05 2.66279E-06-5.60120E-20 1.00345E-19
 -1      2714 9.56271E-05-2.79143E-05-2.90253E-05 3.14016E-06 1.12013E-19-3.24764E-19
 -1      2715 9.58177E-05-2.78503E-05-2.91189E-05 3.44859E-06-1.28787E-19-2.14031E-20
 -1      2716 9.53138E-05-2.77125E-05-2.89723E-05 3.14771E-06 2.09867E-20-3.01840E-19
 -1      2717 9.58122E-05-2.77151E-05-2.91911E-05 3.80584E-06-4.39837E-19 4.52631E-20
 -1      2718 9.60350E-05-2.76471E-05-2.92976E-05 4.20290E-06-5.33675E-19-6.85192E-20
 -1      2719 9.53114E-05-2.74139E-05-2.90985E-05 3.78874E-06-2.12773E-19-7.30807E-19
 -1      2720 9.60179E-05-2.74975E-05-2.93736E-05 4.65457E-06-6.60118E-19-7.27542E-20
 -1      2721 9.62808E-05-2.74370E-05-2.94915E-05 5.14593E-06-6.77376E-19-5.20108E-19
 -1      2722 9.52893E-05-2.70766E-05-2.92327E-05 4.60745E-06-8.00976E-19-5.04314E-19
 -1      2723 9.62529E-05-2.72864E-05-2.95658E-05 5.69813E-06-3.35668E-19-2.35454E-19
 -1      2724 9.65693E-05-2.72564E-05-2.96910E-05 6.28117E-06-1.10470E-19-1.51503E-19
 -1      2725 9.52451E-05-2.67223E-05-2.93646E-05 5.61897E-06-5.03643E-19 2.21775E-19
 -1      2726 9.65418E-05-2.71347E-05-2.97550E-05 6.93392E-06-6.45253E-20-8.52447E-20
 -1      2727 9.69364E-05-2.71791E-05-2.98803E-05 7.59155E-06 1.14834E-19 4.48487E-19
 -1      2728 9.51894E-05-2.63996E-05-2.94784E-05 6.82914E-06 1.75441E-19 6.52072E-19
 -1      2729 9.69436E-05-2.71454E-05-2.99213E-05 8.33510E-06 3.09160E-19 6.28475E-19
 -1      2730 9.74655E-05-2.73433E-05-3.00354E-05 9.02613E-06 3.54411E-19 1.68437E-19
 -1      2731 9.51641E-05-2.62060E-05-2.95514E-05 8.23030E-06 1.19971E-19 3.08099E-19
 -1      2732 9.75868E-05-2.75053E-05-3.00381E-05 9.83461E-06 4.28250E-19-1.07070E-19
 -1      2733 9.83286E-05-2.79904E-05-3.01270E-05 1.04794E-05 5.91775E-19-1.73121E-19
 -1      2734 9.52754E-05-2.63223E-05-2.95535E-05 9.79510E-06 3.19109E-19 5.89346E-19
 -1      2735 9.87245E-05-2.85269E-05-3.00769E-05 1.12977E-05 6.04701E-19-2.24277E-19
 -1      2736 9.98479E-05-2.95026E-05-3.01296E-05 1.17568E-05 6.00136E-19-6.48272E-19
 -1      2737 9.57491E-05-2.70584E-05-2.94523E-05 1.14645E-05 4.66403E-19-5.89369E-19
 -1      2738 1.00807E-04-3.06772E-05-3.00249E-05 1.24691E-05 6.46793E-19-6.13723E-19
 -1      2739 1.02554E-04-3.24016E-05-3.00487E-05 1.25118E-05 5.15512E-19-8.63266E-19
 -1      2740 9.70134E-05-2.88992E-05-2.92284E-05 1.31157E-05 5.06910E-19-1.45197E-18
 -1      2741 1.04530E-04-3.45270E-05-2.99285E-05 1.28623E-05 3.56893E-19-1.23372E-18
 -1      2742 1.07157E-04-3.71922E-05-2.99812E-05 1.21314E-05-1.46944E-19-1.23313E-18
 -1      2743 9.97928E-05-3.25030E-05-2.89142E-05 1.44712E-05 7.67954E-20-1.06696E-18
 -1      2744 1.10701E-04-4.04224E-05-2.99863E-05 1.15536E-05 4.15377E-20-8.98666E-19
 -1      2745 1.14275E-04-4.37790E-05-3.02282E-05 9.55777E-06 4.94495E-19-2.11720E-19
 -1      2746 1.05138E-04-3.84946E-05-2.86862E-05 1.48529E-05 3.76951E-19-7.62502E-19
 -1      2747 1.19607E-04-4.76147E-05-3.06883E-05 7.25184E-06 7.90703E-19 3.08859E-19
 -1      2748 1.23500E-04-5.03444E-05-3.14391E-05 3.61805E-06 5.08882E-19 3.35824E-19
 -1      2749 1.13783E-04-4.64847E-05-2.90284E-05 1.28096E-05 8.96452E-19 1.60407E-19
 -1      2750 1.30140E-04-5.29858E-05-3.30341E-05-1.85180E-06 2.79938E-19 1.28725E-18
 -1      2751 1.31933E-04-5.12110E-05-3.46248E-05-6.84619E-06 5.01033E-19 1.48264E-18
 -1      2752 1.26251E-04-5.44849E-05-3.10361E-05 6.63859E-06 1.31487E-18 8.54074E-19
 -1      2753 1.35593E-04-4.41668E-05-3.95413E-05-1.45374E-05-7.11071E-19 1.60719E-18
 -1      2754 1.33992E-04-3.53779E-05-4.25777E-05-1.72878E-05-2.86911E-18 1.75230E-18
 -1      2755 1.31956E-04-2.70515E-05-4.53254E-05-1.39272E-05-3.24710E-18 1.00977E-18
 -1      2756 1.34175E-04-3.89241E-05-4.10102E-05 1.56853E-05 1.08156E-18-2.53718E-18
 -1      2757 1.35682E-04-4.68200E-05-3.83695E-05 1.34064E-05 9.49127E-19-1.93971E-18
 -1      2758 1.32136E-04-5.06886E-05-3.50371E-05 7.54539E-06 9.07460E-19-1.63845E-18
 -1      2759 1.30229E-04-5.24278E-05-3.32865E-05 2.71705E-06 9.69168E-19-1.93028E-18
 -1      2760 1.37096E-04-5.21101E-05-3.66245E-05 6.60387E-06 1.14349E-18-2.40192E-18
 -1      2761 1.24069E-04-5.03957E-05-3.16643E-05-2.65084E-06 9.45236E-19-1.70992E-18
 -1      2762 1.20365E-04-4.79244E-05-3.08789E-05-6.42098E-06 1.00129E-18-1.03940E-18
 -1      2763 1.26916E-04-5.39100E-05-3.14421E-05-4.94325E-06 1.02003E-18-2.23831E-18
 -1      2764 1.14943E-04-4.41968E-05-3.03656E-05-9.10837E-06 1.19766E-18-6.55623E-19
 -1      2765 1.11381E-04-4.08323E-05-3.01056E-05-1.11987E-05 1.23181E-18-4.87620E-19
 -1      2766 1.15145E-04-4.70891E-05-2.93434E-05-1.19040E-05 1.29552E-18-1.39768E-18
 -1      2767 1.07739E-04-3.75976E-05-3.00720E-05-1.19446E-05 9.18190E-19-3.38151E-19
 -1      2768 1.05074E-04-3.48837E-05-3.00115E-05-1.27379E-05 2.35519E-19-4.19303E-19
 -1      2769 1.06198E-04-3.90655E-05-2.89052E-05-1.43930E-05 1.07307E-18-1.18011E-18
 -1      2770 1.03002E-04-3.27283E-05-3.01112E-05-1.25066E-05 1.81376E-19 3.70044E-19
 -1      2771 1.01218E-04-3.09493E-05-3.00842E-05-1.24992E-05-2.45619E-19 6.58685E-19
 -1      2772 1.00664E-04-3.30132E-05-2.90718E-05-1.43212E-05 7.01910E-19-7.47166E-19
 -1      2773 1.00180E-04-2.97377E-05-3.01760E-05-1.18506E-05-1.26435E-18 1.30495E-18
 -1      2774 9.90239E-05-2.87166E-05-3.01226E-05-1.14099E-05 3.72972E-20 1.43057E-18
 -1      2775 9.76804E-05-2.92976E-05-2.93447E-05-1.31534E-05-3.03608E-19 1.87563E-18
 -1      2776 9.85674E-05-2.81471E-05-3.01646E-05-1.06192E-05 8.30723E-19 1.04027E-18
 -1      2777 9.78001E-05-2.76267E-05-3.00762E-05-9.97918E-06-2.09390E-21 1.89608E-18
 -1      2778 9.62520E-05-2.73518E-05-2.95431E-05-1.15905E-05-6.24110E-20 2.00939E-18
 -1      2779 9.76340E-05-2.74368E-05-3.00688E-05-9.17584E-06-4.06937E-19 2.59947E-18
 -1      2780 9.70929E-05-2.72102E-05-2.99562E-05-8.47816E-06 9.81184E-19 2.16401E-18
 -1      2781 9.56535E-05-2.65268E-05-2.96287E-05-9.94888E-06-1.05522E-20 2.93076E-18
 -1      2782 9.70512E-05-2.72173E-05-2.99138E-05-7.72442E-06 1.50572E-18 8.48935E-19
 -1      2783 9.66421E-05-2.71461E-05-2.97918E-05-7.04847E-06 2.09740E-18 2.08042E-18
 -1      2784 9.54471E-05-2.63334E-05-2.96187E-05-8.37404E-06 7.40609E-19 3.44386E-18
 -1      2785 9.66408E-05-2.72383E-05-2.97301E-05-6.37174E-06 2.61862E-18 1.80923E-18
 -1      2786 9.63137E-05-2.72386E-05-2.96110E-05-5.75620E-06 2.62388E-18 2.09380E-18
 -1      2787 9.53959E-05-2.64509E-05-2.95454E-05-6.93391E-06 2.19470E-18 1.03840E-18
 -1      2788 9.63148E-05-2.73526E-05-2.95430E-05-5.16399E-06 1.80278E-18 2.01052E-18
 -1      2789 9.60441E-05-2.73766E-05-2.94351E-05-4.62177E-06 1.34516E-18 2.72883E-18
 -1      2790 9.53849E-05-2.66879E-05-2.94394E-05-5.65482E-06 2.52974E-18 4.54875E-19
 -1      2791 9.60313E-05-2.74767E-05-2.93703E-05-4.11197E-06 1.40684E-18 3.23029E-18
 -1      2792 9.58007E-05-2.74950E-05-2.92784E-05-3.63926E-06 8.31879E-19 3.26422E-18
 -1      2793 9.53651E-05-2.69372E-05-2.93246E-05-4.54138E-06 1.75311E-18 8.14336E-19
 -1      2794 9.57707E-05-2.75682E-05-2.92218E-05-3.19581E-06-9.59974E-19 3.29135E-18
 -1      2795 9.55773E-05-2.75690E-05-2.91475E-05-2.78567E-06-1.89607E-18 2.83796E-18
 -1      2796 9.53144E-05-2.71372E-05-2.92174E-05-3.57422E-06-6.09390E-20 8.70367E-19
 -1      2797 9.45223E-05-2.80660E-05-2.84798E-05-1.05880E-06 6.28693E-19-2.75297E-19
 -1      2798 9.45203E-05-2.79457E-05-2.85209E-05-8.50163E-07 5.55742E-19-7.58190E-20
 -1      2799 9.53022E-05-2.75557E-05-2.90342E-05 2.23255E-06 1.43075E-20-3.35160E-18
 -1      2800 9.56056E-05-2.79057E-05-2.90097E-05 2.01515E-06 6.02589E-20-1.07611E-18
 -1      2801 9.58190E-05-2.79776E-05-2.90673E-05 2.31329E-06 1.93717E-19-1.27880E-18
 -1      2802 9.45728E-05-2.78035E-05-2.86154E-05-5.44286E-07 4.63501E-19-2.72984E-19
 -1      2803 9.46488E-05-2.76222E-05-2.87074E-05-1.77530E-07 4.66821E-19-1.44743E-19
 -1      2804 9.50289E-05-2.78411E-05-2.88036E-05-5.86770E-07 4.99236E-19-3.69648E-19
 -1      2805 9.46554E-05-2.83283E-05-2.84227E-05-1.52144E-06 1.54671E-19 2.22707E-19
 -1      2806 9.45599E-05-2.82734E-05-2.84057E-05-1.45539E-06 4.20810E-19 1.14292E-19
 -1      2807 9.48026E-05-2.83820E-05-2.84622E-05-1.63649E-06 6.79637E-19 1.39518E-19
 -1      2808 9.46798E-05-2.83459E-05-2.84282E-05-1.58836E-06 3.91623E-19 1.51735E-19
 -1      2809 9.49958E-05-2.83999E-05-2.85451E-05-1.62585E-06 3.65489E-19-2.61867E-19
 -1      2810 9.49894E-05-2.84046E-05-2.85319E-05-1.74810E-06 3.65494E-19 1.41008E-19
 -1      2811 9.48443E-05-2.83814E-05-2.84848E-05-1.69542E-06 5.85698E-19 1.10594E-19
 -1      2812 9.50661E-05-2.84230E-05-2.85644E-05-1.76921E-06 5.77219E-19-1.44115E-19
 -1      2813 9.52132E-05-2.84074E-05-2.86258E-05-1.89323E-06 1.67754E-19 8.00858E-20
 -1      2814 9.50464E-05-2.83916E-05-2.85679E-05-1.81990E-06 2.37825E-19 1.39239E-19
 -1      2815 9.51665E-05-2.84035E-05-2.86153E-05-1.91442E-06 3.10773E-19-2.04213E-20
 -1      2816 9.54773E-05-2.84018E-05-2.87407E-05-2.09799E-06-5.21044E-20 1.50649E-19
 -1      2817 9.52858E-05-2.83875E-05-2.86727E-05-1.99298E-06 1.05283E-19 1.04186E-19
 -1      2818 9.52961E-05-2.83561E-05-2.86909E-05-2.09954E-06 1.16693E-19-1.14392E-19
 -1      2819 9.57897E-05-2.84005E-05-2.88744E-05-2.37865E-06-2.15202E-19-3.13701E-19
 -1      2820 9.55679E-05-2.83806E-05-2.87967E-05-2.23579E-06-1.30751E-19-8.15747E-20
 -1      2821 9.54581E-05-2.82950E-05-2.87865E-05-2.35128E-06 5.99977E-20 4.03848E-19
 -1      2822 9.61636E-05-2.84205E-05-2.90256E-05-2.74097E-06 5.16494E-19-2.70149E-19
 -1      2823 9.59036E-05-2.83858E-05-2.89383E-05-2.55956E-06-3.22526E-20-3.84622E-19
 -1      2824 9.56606E-05-2.82369E-05-2.88984E-05-2.68586E-06 1.18688E-19-3.79234E-19
 -1      2825 9.66166E-05-2.84850E-05-2.91920E-05-3.17773E-06 8.95109E-19-2.35208E-19
 -1      2826 9.63090E-05-2.84229E-05-2.90957E-05-2.96407E-06 8.39410E-19-7.94602E-20
 -1      2827 9.59176E-05-2.82037E-05-2.90231E-05-3.10817E-06 5.28301E-19-2.80647E-19
 -1      2828 9.71725E-05-2.86265E-05-2.93702E-05-3.66427E-06 3.44592E-19 5.98071E-19
 -1      2829 9.68065E-05-2.85200E-05-2.92664E-05-3.43427E-06 4.08006E-19 1.19684E-19
 -1      2830 9.62505E-05-2.82266E-05-2.91566E-05-3.60908E-06 3.75269E-19 1.61342E-19
 -1      2831 9.78616E-05-2.88894E-05-2.95544E-05-4.15217E-06-5.77910E-21 9.52852E-19
 -1      2832 9.74257E-05-2.87162E-05-2.94461E-05-3.93472E-06 4.23943E-19 9.95894E-19
 -1      2833 9.66911E-05-2.83501E-05-2.92936E-05-4.16086E-06 1.17824E-19 7.44374E-19
 -1      2834 9.87223E-05-2.93319E-05-2.97367E-05-4.56129E-06 2.09698E-19 7.22333E-19
 -1      2835 9.82049E-05-2.90641E-05-2.96284E-05-4.40224E-06 2.36762E-19 9.61852E-19
 -1      2836 9.72852E-05-2.86354E-05-2.94277E-05-4.71050E-06 1.69940E-19 1.08779E-18
 -1      2837 9.97999E-05-3.00217E-05-2.99080E-05-4.77155E-06-2.70635E-19 3.98294E-19
 -1      2838 9.91921E-05-2.96295E-05-2.98054E-05-4.73708E-06-1.18289E-19 2.40740E-19
 -1      2839 9.80960E-05-2.91621E-05-2.95521E-05-5.17122E-06 3.64560E-19 7.69684E-19
 -1      2840 1.01140E-04-3.10227E-05-3.00608E-05-4.61775E-06-4.33905E-19 3.83292E-19
 -1      2841 1.00441E-04-3.04831E-05-2.99695E-05-4.79464E-06-2.33218E-19 5.13028E-19
 -1      2842 9.92047E-05-3.00225E-05-2.96622E-05-5.41270E-06-2.88002E-19 1.07819E-18
 -1      2843 1.02765E-04-3.23597E-05-3.01946E-05-3.89443E-06-2.20802E-19 4.66319E-19
 -1      2844 1.01995E-04-3.16776E-05-3.01176E-05-4.38264E-06-6.52286E-19 3.03249E-19
 -1      2845 1.00701E-04-3.12995E-05-2.97607E-05-5.25284E-06-3.38919E-19 5.44765E-19
 -1      2846 1.04635E-04-3.39514E-05-3.03249E-05-2.38506E-06-6.94969E-19 1.37284E-18
 -1      2847 1.03854E-04-3.31957E-05-3.02581E-05-3.27431E-06-1.32821E-19 8.89493E-19
 -1      2848 1.02653E-04-3.30161E-05-2.98654E-05-4.45771E-06-5.23789E-19 7.08705E-19
 -1      2849 1.06566E-04-3.55176E-05-3.04910E-05 5.42045E-08-1.23673E-18 9.29059E-19
 -1      2850 1.05903E-04-3.48638E-05-3.04197E-05-1.26402E-06-1.10308E-18 1.55481E-18
 -1      2851 1.05032E-04-3.50363E-05-3.00187E-05-2.76975E-06-1.00870E-18 1.71063E-18
 -1      2852 1.08173E-04-3.64985E-05-3.07582E-05 3.34789E-06-3.98551E-19 4.49900E-19
 -1      2853 1.07832E-04-3.62596E-05-3.06570E-05 1.71188E-06-8.42187E-19 7.72642E-19
 -1      2854 1.07607E-04-3.69498E-05-3.02949E-05-1.21015E-08-8.44049E-19 1.44120E-18
 -1      2855 1.08832E-04-3.60639E-05-3.12018E-05 6.98209E-06 8.10620E-20 1.15396E-18
 -1      2856 1.09073E-04-3.66510E-05-3.10404E-05 5.38090E-06 2.83094E-19 7.80756E-19
 -1      2857 1.09851E-04-3.79942E-05-3.07927E-05 3.76533E-06-2.83869E-19 1.15657E-18
 -1      2858 1.07990E-04-3.35760E-05-3.18600E-05 9.72078E-06 5.90839E-20 1.36651E-18
 -1      2859 1.08896E-04-3.51767E-05-3.16280E-05 8.78688E-06 8.37735E-20 1.01766E-18
 -1      2860 1.10851E-04-3.70273E-05-3.15995E-05 7.82596E-06 1.79495E-19 1.43059E-18
 -1      2861 1.05603E-04-2.92313E-05-3.26647E-05 9.91202E-06-4.96328E-19 7.84480E-19
 -1      2862 1.06946E-04-3.15303E-05-3.23981E-05 1.03759E-05-2.52813E-19 1.06058E-18
 -1      2863 1.09848E-04-3.33796E-05-3.27160E-05 1.07012E-05 1.42838E-20 9.85116E-19
 -1      2864 1.02827E-04-2.48265E-05-3.33694E-05 6.43486E-06-1.44260E-20 9.32524E-19
 -1      2865 1.03977E-04-2.67837E-05-3.31652E-05 8.54351E-06-1.17347E-19 1.20275E-18
 -1      2866 1.07055E-04-2.78402E-05-3.39324E-05 1.02395E-05-3.01077E-19 1.32663E-18
 -1      2867 1.01515E-04-2.29309E-05-3.36771E-05 7.10142E-08 7.28481E-19 1.93985E-19
 -1      2868 1.01777E-04-2.33756E-05-3.36331E-05 3.15473E-06 2.84193E-19 6.31270E-19
 -1      2869 1.04207E-04-2.30509E-05-3.48326E-05 5.43853E-06 4.85304E-19 7.54442E-19
 -1      2870 1.02728E-04-2.48676E-05-3.34343E-05-6.36901E-06 9.77225E-19 2.55653E-19
 -1      2871 1.01927E-04-2.34963E-05-3.35753E-05-3.66629E-06 7.58465E-19 2.82572E-19
 -1      2872 1.03523E-04-2.19699E-05-3.50259E-05-2.04537E-06 9.45646E-19 5.48275E-19
 -1      2873 1.05590E-04-2.93364E-05-3.27688E-05-9.96675E-06 1.07396E-18-3.57660E-19
 -1      2874 1.04246E-04-2.70395E-05-3.30191E-05-8.72283E-06 1.80158E-18 1.24853E-19
 -1      2875 1.05585E-04-2.53317E-05-3.44134E-05-8.48225E-06 1.23261E-18 1.37180E-19
 -1      2876 1.08179E-04-3.37334E-05-3.19704E-05-9.82527E-06 6.89825E-19-9.19302E-19
 -1      2877 1.07013E-04-3.17119E-05-3.22286E-05-1.01859E-05 7.05142E-19-5.69802E-19
 -1      2878 1.08690E-04-3.09227E-05-3.32926E-05-1.09531E-05 1.20263E-18-3.82387E-19
 -1      2879 1.09185E-04-3.62468E-05-3.12773E-05-7.02147E-06 1.58327E-19-4.20474E-19
 -1      2880 1.08644E-04-3.51944E-05-3.14767E-05-8.40897E-06 2.18268E-19-9.78523E-19
 -1      2881 1.10651E-04-3.56642E-05-3.20902E-05-9.41654E-06 1.90559E-19-1.49743E-18
 -1      2882 1.08509E-04-3.66196E-05-3.07964E-05-3.30279E-06 8.15296E-19-2.51328E-19
 -1      2883 1.08616E-04-3.65281E-05-3.09243E-05-4.98811E-06 6.31648E-19-5.33490E-20
 -1      2884 1.10515E-04-3.78441E-05-3.11156E-05-5.61543E-06 4.40341E-19-4.78164E-19
 -1      2885 1.06810E-04-3.55890E-05-3.04994E-05 7.03538E-08 1.58397E-18-9.69940E-20
 -1      2886 1.07357E-04-3.60944E-05-3.05822E-05-1.43018E-06 1.41176E-18 1.90768E-19
 -1      2887 1.08727E-04-3.76182E-05-3.04782E-05-1.57112E-06 9.52467E-19-9.86635E-19
 -1      2888 1.04750E-04-3.39686E-05-3.03094E-05 2.54815E-06 4.96844E-19 3.19301E-19
 -1      2889 1.05504E-04-3.47116E-05-3.03770E-05 1.45170E-06 1.23380E-18 3.88830E-19
 -1      2890 1.06211E-04-3.59912E-05-3.01129E-05 1.71174E-06 1.31964E-18-9.39479E-20
 -1      2891 1.02769E-04-3.23393E-05-3.01631E-05 4.05925E-06-8.14796E-19 9.24933E-19
 -1      2892 1.03562E-04-3.30741E-05-3.02353E-05 3.39078E-06 6.39237E-20 8.29437E-19
 -1      2893 1.03687E-04-3.39380E-05-2.99139E-05 3.89093E-06-1.05326E-19 6.63161E-19
 -1      2894 1.01061E-04-3.09766E-05-3.00208E-05 4.76649E-06-2.69409E-18 4.05889E-19
 -1      2895 1.01803E-04-3.15916E-05-3.01059E-05 4.45757E-06-1.73021E-18 1.03484E-18
 -1      2896 1.01520E-04-3.20430E-05-2.97951E-05 5.07270E-06-1.27362E-18 1.04293E-18
 -1      2897 9.96672E-05-2.99552E-05-2.98669E-05 4.89312E-06-1.80197E-18 6.93024E-19
 -1      2898 1.00323E-04-3.04222E-05-2.99640E-05 4.84622E-06-2.65984E-18 1.98998E-19
 -1      2899 9.98132E-05-3.05474E-05-2.97003E-05 5.49394E-06-2.55592E-18 1.15220E-18
 -1      2900 9.85600E-05-2.92442E-05-2.97012E-05 4.64522E-06-1.37359E-18 1.36727E-19
 -1      2901 9.91222E-05-2.95777E-05-2.98049E-05 4.76855E-06-1.25730E-18 6.01958E-19
 -1      2902 9.85313E-05-2.94840E-05-2.96026E-05 5.40075E-06-1.21268E-18 7.84793E-19
 -1      2903 9.76874E-05-2.87737E-05-2.95315E-05 4.18255E-06 6.60556E-19-2.09079E-18
 -1      2904 9.81609E-05-2.90037E-05-2.96351E-05 4.40397E-06-6.73099E-19-1.02403E-18
 -1      2905 9.75884E-05-2.87856E-05-2.94948E-05 4.99437E-06 5.00732E-20-1.59546E-18
 -1      2906 9.69991E-05-2.84698E-05-2.93679E-05 3.61554E-06 3.34366E-19-1.76039E-18
 -1      2907 9.73927E-05-2.86274E-05-2.94651E-05 3.88496E-06 6.11838E-19-2.03629E-18
 -1      2908 9.68962E-05-2.83556E-05-2.93802E-05 4.42076E-06 4.37924E-19-2.93151E-18
 -1      2909 9.64578E-05-2.82705E-05-2.92192E-05 3.01163E-06 1.57327E-18-1.06354E-18
 -1      2910 9.67761E-05-2.83819E-05-2.93052E-05 3.29620E-06 7.79885E-19-1.37878E-18
 -1      2911 9.63764E-05-2.81003E-05-2.92665E-05 3.77740E-06 2.19339E-19-2.59572E-18
 -1      2912 9.59865E-05-2.80738E-05-2.91003E-05 2.51996E-06 8.37254E-19-1.29360E-18
 -1      2913 9.62414E-05-2.81586E-05-2.91710E-05 2.81314E-06 1.49627E-18-1.45612E-18
 -1      2914 9.59238E-05-2.78931E-05-2.91655E-05 3.22905E-06 1.26235E-18-3.84957E-18
 -1      2915 9.55425E-05-2.76880E-05-2.90929E-05 2.78160E-06 9.57538E-20-4.34956E-18
 -1      2916 9.32478E-05-2.53178E-05-2.91195E-05 4.20915E-07 2.72886E-19 5.02544E-19
 -1      2917 9.33318E-05-2.54036E-05-2.91133E-05 7.96762E-07 1.33372E-19-8.29428E-19
 -1      2918 9.55407E-05-2.75855E-05-2.91161E-05-2.52234E-06-2.30730E-18 2.24168E-18
 -1      2919 9.54269E-05-2.75867E-05-2.90737E-05-2.26100E-06-1.80813E-18 1.65312E-18
 -1      2920 9.51587E-05-2.73039E-05-2.90859E-05-2.33471E-06-1.48045E-18 2.81332E-18
 -1      2921 9.52397E-05-2.72504E-05-2.91378E-05-2.85715E-06-2.19367E-18 1.78879E-18
 -1      2922 9.38515E-05-2.59800E-05-2.90961E-05 1.80179E-06 8.63467E-19 5.46768E-19
 -1      2923 9.40785E-05-2.62164E-05-2.90799E-05 2.00653E-06 1.11751E-18-2.12958E-19
 -1      2924 9.32177E-05-2.52749E-05-2.91229E-05-4.30410E-07 3.22116E-19 1.29488E-18
 -1      2925 9.32042E-05-2.52606E-05-2.91226E-05-3.31666E-08 7.53085E-19 1.26831E-18
 -1      2926 9.29372E-05-2.51322E-05-2.90518E-05 2.38139E-07 5.31522E-19 9.89077E-19
 -1      2927 9.34712E-05-2.55652E-05-2.91105E-05 1.19571E-06-5.48879E-19-1.50404E-18
 -1      2928 9.36375E-05-2.57370E-05-2.90987E-05 1.50355E-06 3.70568E-19-2.58869E-19
 -1      2929 9.35565E-05-2.57676E-05-2.90480E-05 1.85837E-06 5.16279E-19-7.44095E-19
 -1      2930 9.31490E-05-2.53559E-05-2.90480E-05 1.13039E-06 3.24568E-19-9.82598E-19
 -1      2931 1.35866E-04-5.46059E-05-3.52602E-05 7.32679E-06 4.10864E-19-2.48054E-18
 -1      2932 1.28702E-04-5.73402E-05-3.04847E-05 1.62517E-05 3.78200E-19-9.35389E-19
 -1      2933 2.89210E-05-1.32905E-05-6.21234E-06 9.45438E-06-8.60506E-19 1.32497E-18
 -1      2934 2.94997E-05-1.30289E-05-6.64045E-06-6.75137E-06 2.91062E-19 9.74088E-19
 -1      2935 9.33946E-05-2.54484E-05-2.91212E-05-1.23566E-06 8.44278E-19 1.67948E-18
 -1      2936 9.32805E-05-2.53339E-05-2.91265E-05-8.75832E-07 2.87588E-19 1.76462E-18
 -1      2937 9.29590E-05-2.51333E-05-2.90601E-05-7.04471E-07 9.50424E-19 1.61081E-18
 -1      2938 9.37795E-05-2.58377E-05-2.91157E-05-1.90820E-06 1.42434E-18-1.39761E-18
 -1      2939 9.35672E-05-2.56272E-05-2.91258E-05-1.62642E-06 1.21092E-18 5.06017E-19
 -1      2940 9.32290E-05-2.53729E-05-2.90735E-05-1.58415E-06 9.28632E-19 1.41726E-18
 -1      2941 9.43294E-05-2.64055E-05-2.91067E-05-2.32350E-06-4.00308E-19-8.69565E-20
 -1      2942 9.40485E-05-2.61221E-05-2.91203E-05-2.17538E-06 6.99535E-19-8.70900E-19
 -1      2943 9.37360E-05-2.58427E-05-2.90911E-05-2.28199E-06 4.40289E-19-1.87210E-18
 -1      2944 9.48965E-05-2.70131E-05-2.90914E-05-2.38436E-06-9.72005E-19 2.56340E-18
 -1      2945 9.45903E-05-2.66876E-05-2.91094E-05-2.39208E-06-4.85141E-19 6.16752E-19
 -1      2946 9.43263E-05-2.64075E-05-2.91061E-05-2.62732E-06-6.68872E-19 3.59543E-20
 -1      2947 9.49193E-05-2.69875E-05-2.91117E-05-2.63987E-06-1.33229E-18 2.04728E-18
 -1      2948 1.16492E-04-5.69716E-05-2.52002E-05-2.82299E-05-2.19307E-18-1.06419E-18
 -1      2949 1.28442E-04-5.82247E-05-3.05343E-05-1.88571E-05-1.33831E-18 7.99493E-19
 -1      2950 4.59909E-05-2.28182E-05-9.73729E-06 3.14780E-05-2.36820E-18 1.64197E-18
 -1      2951 3.53029E-05-1.66332E-05-7.37183E-06 2.05832E-05-1.43122E-18 2.15866E-18
 -1      2952 7.93222E-05-4.12454E-05-1.64806E-05 4.01797E-05-1.99804E-18 1.61752E-18
 -1      2953 6.25201E-05-3.15627E-05-1.26050E-05 3.71387E-05-2.37762E-18 2.28424E-18
 -1      2954 5.95696E-05-2.98271E-05-1.23055E-05-3.63775E-05-1.41359E-18-2.18524E-18
 -1      2955 7.44496E-05-3.90293E-05-1.48557E-05-4.07721E-05-1.45944E-18-2.10287E-18
 -1      2956 1.35655E-04-6.04674E-05-3.19309E-05-1.11880E-05 1.29257E-18-2.40388E-18
 -1      2957 1.42538E-04-5.66812E-05-3.72829E-05-1.56520E-06 1.17031E-18-3.13635E-18
 -1      2958 3.84337E-05-1.77364E-05-8.24010E-06-2.06505E-05 6.58621E-19-2.46487E-19
 -1      2959 5.05974E-05-2.54551E-05-1.03775E-05-3.12126E-05 4.25634E-19-6.44380E-19
 -1      2960 9.30633E-05-4.86355E-05-1.90027E-05 3.60379E-05 3.47072E-19-3.58946E-18
 -1      2961 7.70908E-05-4.06234E-05-1.51557E-05 3.73952E-05-2.00217E-19-3.62191E-18
 -1      2962 9.47249E-05-2.73791E-05-2.88648E-05 3.27492E-07 5.14975E-19-9.88119E-21
 -1      2963 9.48980E-05-2.70908E-05-2.90326E-05 9.47992E-07 6.77515E-19 3.31371E-20
 -1      2964 9.51378E-05-2.73320E-05-2.90696E-05 2.92228E-07 6.34532E-19-2.78224E-19
 -1      2965 9.45567E-05-2.82298E-05-2.84234E-05-1.35215E-06 3.64868E-19 1.09560E-19
 -1      2966 9.44993E-05-2.81481E-05-2.84301E-05-1.23696E-06 5.12087E-19-1.08329E-20
 -1      2967 9.49694E-05-2.81439E-05-2.86464E-05-1.11796E-06 4.51761E-19-1.34771E-19
 -1      2968 9.49609E-05-2.83158E-05-2.85674E-05-1.43231E-06 3.04982E-19 4.06443E-20
 -1      2969 9.52008E-05-2.39578E-05-3.05212E-05-5.29546E-06-9.08207E-19-9.14242E-19
 -1      2970 9.51490E-05-2.49782E-05-3.00928E-05-3.76969E-06-7.62158E-19-9.04949E-19
 -1      2971 9.52167E-05-2.47021E-05-3.02306E-05-3.49466E-06-7.26964E-19-1.01147E-18
 -1      2972 9.28522E-05-1.79996E-05-3.20785E-05-8.80776E-06-1.05083E-18-1.36600E-18
 -1      2973 9.12089E-05-1.60706E-05-3.22300E-05 4.90596E-06 1.32983E-18-1.22868E-18
 -1      2974 9.08703E-05-1.55705E-05-3.22932E-05 3.98470E-06 1.09118E-18-1.38333E-18
 -1      2975 9.18459E-05-1.71705E-05-3.19882E-05 3.18523E-06 8.41342E-19-1.24557E-18
 -1      2976 9.25083E-05-1.82366E-05-3.18107E-05 4.59868E-06 1.17101E-18-1.01041E-18
 -1      2977 1.16405E-04-5.69142E-05-2.56970E-05 2.80125E-05-3.47813E-19-1.14879E-20
 -1      2978 9.99175E-05-5.09491E-05-2.04817E-05 3.57756E-05-1.70296E-18 2.49160E-19
 -1      2979 9.08364E-05-1.55244E-05-3.22984E-05-3.92002E-06-1.00317E-19-1.79399E-18
 -1      2980 9.11674E-05-1.60121E-05-3.22366E-05-4.84451E-06-3.43121E-19-1.69419E-18
 -1      2981 1.24973E-04-8.29569E-06-5.06462E-05 6.00037E-07 1.10728E-18-1.00290E-18
 -1      2982 1.26181E-04-1.00420E-05-5.02719E-05-5.77163E-06 1.32603E-18-2.02356E-18
 -1      2983 1.42773E-04-5.56540E-05-3.80227E-05-1.91039E-08-1.18554E-18 2.06994E-19
 -1      2984 1.38542E-04-6.05464E-05-3.32183E-05 9.53772E-06-7.33742E-20-1.38913E-18
 -1      2985 1.29612E-04-1.69945E-05-4.89811E-05-1.00429E-05 2.42230E-18-2.89219E-18
 -1      2986 1.33586E-04-2.56569E-05-4.65572E-05-1.14385E-05 2.24686E-18-2.80071E-18
 -1      2987 9.49689E-05-2.66649E-05-2.92784E-05 1.75003E-06 9.45531E-19 3.62512E-22
 -1      2988 9.52311E-05-2.61709E-05-2.95602E-05 2.76804E-06 1.03260E-18 1.10564E-19
 -1      2989 9.52654E-05-2.50009E-05-3.01112E-05 3.79927E-06 1.20549E-18-3.20028E-19
 -1      2990 9.52542E-05-2.64699E-05-2.94861E-05 1.68925E-06 8.36796E-19-2.93875E-19
 -1      2991 1.35246E-04-5.41512E-05-3.46542E-05-6.85236E-06-8.67514E-19 1.32931E-18
 -1      2992 1.37400E-04-4.79598E-05-3.90364E-05 1.48629E-06-5.66109E-19 1.18998E-18
 -1      2993 8.66223E-05-4.57374E-05-1.71441E-05-3.95290E-05-1.97073E-18-1.31084E-18
 -1      2994 1.00795E-04-5.23156E-05-2.08839E-05-3.73968E-05-2.45534E-18-1.51121E-18
 -1      2995 8.46666E-05-4.17129E-05-1.80393E-05-3.68100E-05-1.89979E-18-8.13893E-19
 -1      2996 6.22571E-05-3.23187E-05-1.25032E-05 3.59359E-05-5.58936E-19-3.95342E-18
 -1      2997 4.86511E-05-2.35678E-05-1.02137E-05 2.86165E-05-3.84976E-19-3.76294E-18
 -1      2998 7.39979E-05-3.52070E-05-1.61113E-05 3.39139E-05 4.23516E-20-3.50100E-18
 -1      2999 3.36761E-05-1.41743E-05-7.79295E-06-1.47636E-05-5.68333E-19 5.19231E-19
 -1      3000 4.34390E-05-1.98108E-05-9.68708E-06-2.72784E-05-8.64979E-19-7.00496E-19
 -1      3001 1.35864E-04-3.58215E-05-4.30068E-05 9.38658E-06 1.33302E-19 8.66515E-19
 -1      3002 1.33714E-04-2.58790E-05-4.69240E-05 1.09702E-05 9.84676E-19 3.69730E-19
 -1      3003 1.44161E-04-4.95659E-05-4.07179E-05 7.66285E-06 1.00680E-18-2.79288E-18
 -1      3004 1.43339E-04-4.02396E-05-4.47455E-05 1.24985E-05 8.34222E-19-2.28593E-18
 -1      3005 1.31398E-04-1.67876E-05-4.95783E-05 1.01086E-05 1.80249E-18-3.10649E-19
 -1      3006 1.27606E-04-1.09838E-05-5.07043E-05 6.48770E-06 1.55367E-18-1.06086E-18
 -1      3007 1.37592E-04-3.69772E-05-4.38224E-05-8.06079E-06 1.92308E-18-2.98463E-18
 -1      3008 1.37882E-04-4.61894E-05-3.93415E-05-2.49228E-06 1.29030E-18-2.79087E-18
 -1      3009 9.15907E-05-1.66714E-05-3.21325E-05-5.57130E-06-5.14636E-19-1.69404E-18
 -1      3010 9.20613E-05-1.74289E-05-3.20353E-05-6.42644E-06-6.69764E-19-1.69919E-18
 -1      3011 9.24649E-05-1.81709E-05-3.18204E-05-4.55331E-06-4.67714E-19-1.53702E-18
 -1      3012 9.13254E-05-1.63547E-05-3.21180E-05 2.89733E-08 5.02950E-19-1.60231E-18
 -1      3013 9.02080E-05-1.45766E-05-3.24330E-05-3.80758E-07 4.55029E-19-1.73793E-18
 -1      3014 9.02644E-05-1.46576E-05-3.24226E-05-1.33563E-06 3.19383E-19-1.82224E-18
 -1      3015 1.27565E-04-5.94493E-05-2.91908E-05-1.61532E-05 1.05403E-18-1.93166E-18
 -1      3016 9.69360E-05-4.98339E-05-1.97475E-05-3.46371E-05 5.81382E-19-2.29202E-19
 -1      3017 9.43495E-05-2.14123E-05-3.12633E-05 7.20914E-06 1.63140E-18-2.77344E-19
 -1      3018 9.28784E-05-1.86233E-05-3.18193E-05-7.05721E-06-7.98668E-19-1.47389E-18
 -1      3019 9.42336E-05-2.09537E-05-3.14445E-05-7.72036E-06-1.14864E-18-1.08237E-18
 -1      3020 9.47406E-05-2.27610E-05-3.08529E-05-6.02692E-06-9.82886E-19-9.62904E-19
 -1      3021 9.35557E-05-2.00148E-05-3.14864E-05-5.73591E-06-7.39929E-19-1.44445E-18
 -1      3022 9.29959E-05-4.51430E-05-2.00432E-05 3.42578E-05-1.63456E-18 1.13759E-18
 -1      3023 4.51841E-05-1.91083E-05-1.05665E-05 2.29483E-05-5.51948E-19-2.81882E-18
 -1      3024 4.32779E-05-1.50857E-05-1.16406E-05 1.57016E-05-6.08964E-19-2.38482E-18
 -1      3025 5.59048E-05-2.21673E-05-1.40451E-05 2.52625E-05 3.04402E-20-3.45145E-18
 -1      3026 1.36969E-04-3.29612E-05-4.49890E-05 1.62183E-05 8.23528E-19-2.71093E-18
 -1      3027 1.28117E-04-2.00115E-05-4.67510E-05 1.14486E-05-6.71274E-19-3.38252E-18
 -1      3028 1.30382E-04-2.82000E-05-4.45646E-05 1.63270E-05 4.56974E-19-3.11147E-18
 -1      3029 9.41034E-05-2.63122E-05-2.90506E-05 2.34069E-06 9.37273E-19-1.91594E-19
 -1      3030 9.43330E-05-2.65074E-05-2.90773E-05 2.17094E-06 5.99861E-19-2.23129E-18
 -1      3031 9.45976E-05-2.67804E-05-2.90572E-05 2.26173E-06-1.64392E-19-3.35012E-18
 -1      3032 9.45992E-05-2.24415E-05-3.09168E-05-5.43337E-06-8.27920E-19-1.09419E-18
 -1      3033 1.25977E-04-5.56689E-05-3.02485E-05 1.18168E-05-5.83923E-20-1.81980E-18
 -1      3034 1.23260E-04-5.75908E-05-2.80711E-05 2.02822E-05 1.72583E-19-8.93937E-19
 -1      3035 1.15551E-04-5.43717E-05-2.61069E-05 2.31331E-05-9.31869E-19-1.09682E-18
 -1      3036 1.30042E-04-5.58553E-05-3.17643E-05-1.00948E-05-1.27563E-18 9.90393E-19
 -1      3037 9.50409E-05-2.72638E-05-2.90522E-05 2.28832E-06-1.01786E-18-4.04097E-18
 -1      3038 3.96298E-05-1.41761E-05-1.02234E-05 1.36819E-05-1.17012E-18 9.78535E-19
 -1      3039 4.09212E-05-1.49348E-05-1.04858E-05-1.24762E-05 1.81847E-19 2.98685E-19
 -1      3040 1.10651E-04-5.39905E-05-2.40610E-05-2.92426E-05-2.63385E-18-5.29753E-19
 -1      3041 5.97377E-05-2.61570E-05-1.38350E-05 3.16335E-05-2.38482E-18 2.03966E-18
 -1      3042 9.46150E-05-2.24509E-05-3.09202E-05 5.67778E-06 1.53188E-18-4.73012E-19
 -1      3043 1.30967E-04-3.20136E-05-4.27467E-05-1.13623E-05 2.29842E-18-2.02663E-18
 -1      3044 1.26969E-04-2.24161E-05-4.51498E-05 1.22092E-05 1.03465E-18-1.74542E-19
 -1      3045 1.33002E-04-4.18424E-05-3.92497E-05 7.69885E-06-7.22096E-19 8.21516E-19
 -1      3046 6.11235E-05-3.00780E-05-1.27391E-05-3.32572E-05 9.38195E-19-1.00289E-18
 -1      3047 7.21597E-05-3.52189E-05-1.58054E-05-3.45351E-05 5.49513E-19-1.01136E-18
 -1      3048 5.90608E-05-2.46068E-05-1.43904E-05-2.84821E-05 5.27013E-19-1.27288E-18
 -1      3049 1.22516E-04-1.51515E-05-4.64512E-05-8.52484E-06 1.69184E-18-3.69995E-19
 -1      3050 1.04302E-04-5.29710E-05-2.15345E-05 3.23089E-05 7.38189E-19-2.49922E-18
 -1      3051 9.76688E-05-4.73255E-05-2.10375E-05 3.17626E-05 1.81053E-19-2.40065E-18
 -1      3052 1.13126E-04-5.66061E-05-2.46006E-05 2.72778E-05 1.26811E-18-1.65948E-18
 -1      3053 3.86477E-05-1.17704E-05-1.10845E-05 2.41993E-06-1.02650E-18-1.95834E-18
 -1      3054 3.47210E-05-1.22266E-05-8.99010E-06-6.57264E-06-1.12662E-18-5.26854E-19
 -1      3055 4.27618E-05-1.33222E-05-1.22069E-05-1.16223E-05-7.15031E-19-6.18440E-19
 -1      3056 5.53927E-05-2.44947E-05-1.27027E-05-3.11505E-05-1.02480E-18-1.89164E-18
 -1      3057 6.74467E-05-2.89334E-05-1.62519E-05-3.20731E-05-1.27439E-18-2.08021E-18
 -1      3058 5.27746E-05-1.94353E-05-1.39414E-05-2.46100E-05-5.11687E-19-1.01983E-18
 -1      3059 1.32082E-04-6.01484E-05-3.04823E-05 1.31739E-05 5.06049E-19-1.29638E-18
 -1      3060 9.03890E-05-1.48507E-05-3.23939E-05-2.16938E-06 2.31435E-19-1.71211E-18
 -1      3061 9.05720E-05-1.51161E-05-3.23601E-05-3.11841E-06 3.34345E-20-1.76006E-18
 -1      3062 9.18156E-05-1.71286E-05-3.19936E-05-3.12656E-06-4.71336E-20-1.62109E-18
 -1      3063 9.14432E-05-1.65400E-05-3.20884E-05-1.57386E-06 1.84686E-19-1.63058E-18
 -1      3064 1.21344E-04-1.09908E-05-4.77701E-05 3.49606E-06 1.00882E-18-7.53687E-19
 -1      3065 1.34383E-04-4.98318E-05-3.63980E-05-6.78137E-07 8.33322E-19-2.51061E-18
 -1      3066 9.42898E-05-2.18286E-05-3.10755E-05 4.94346E-06 1.35422E-18-5.95418E-19
 -1      3067 9.38292E-05-2.08833E-05-3.12651E-05 4.59529E-06 1.19908E-18-6.78138E-19
 -1      3068 1.38154E-04-5.03383E-05-3.79089E-05-7.92369E-06-5.13553E-19 1.82652E-18
 -1      3069 9.56903E-05-2.68049E-05-2.95076E-05-6.51171E-07-3.99723E-19-1.05395E-18
 -1      3070 9.56679E-05-2.72373E-05-2.93349E-05-1.00793E-07-3.59857E-19-1.07168E-18
 -1      3071 9.57061E-05-2.76009E-05-2.91773E-05 3.10060E-07-4.29761E-19-1.08292E-18
 -1      3072 9.56731E-05-2.78654E-05-2.90641E-05 6.63103E-07-4.48713E-19-1.19807E-18
 -1      3073 9.58956E-05-2.72066E-05-2.94412E-05-2.36408E-08-4.57444E-19-9.49506E-19
 -1      3074 9.56561E-05-2.80740E-05-2.89566E-05 9.28753E-07-3.48473E-19-1.15984E-18
 -1      3075 9.56289E-05-2.82259E-05-2.88879E-05 1.14974E-06-3.03418E-19-1.04694E-18
 -1      3076 9.59209E-05-2.78712E-05-2.91678E-05 6.87831E-07-3.31345E-19-9.77128E-19
 -1      3077 9.55829E-05-2.83280E-05-2.88194E-05 1.31937E-06-1.22372E-19-9.26873E-19
 -1      3078 9.55659E-05-2.84007E-05-2.87841E-05 1.46106E-06-3.59517E-20-8.10868E-19
 -1      3079 9.58636E-05-2.82432E-05-2.89836E-05 1.15180E-06-1.19934E-19-1.02047E-18
 -1      3080 9.55036E-05-2.84264E-05-2.87457E-05 1.57621E-06 5.24325E-20-6.47383E-19
 -1      3081 9.54963E-05-2.84408E-05-2.87357E-05 1.67951E-06 5.86170E-20-5.13586E-19
 -1      3082 9.57605E-05-2.84062E-05-2.88690E-05 1.45926E-06 1.62883E-19-9.33922E-19
 -1      3083 9.54226E-05-2.84088E-05-2.87206E-05 1.77366E-06-7.72385E-21-3.24962E-19
 -1      3084 9.54229E-05-2.83779E-05-2.87301E-05 1.87030E-06 1.06129E-19-1.46563E-19
 -1      3085 9.56288E-05-2.84143E-05-2.88084E-05 1.68603E-06 1.61166E-19-8.95506E-19
 -1      3086 9.53381E-05-2.82995E-05-2.87329E-05 1.97010E-06-6.24761E-20-8.17048E-22
 -1      3087 9.53431E-05-2.82313E-05-2.87579E-05 2.08510E-06-3.09269E-19-2.49417E-19
 -1      3088 9.54741E-05-2.83019E-05-2.87895E-05 1.89303E-06 8.21187E-20-4.20900E-19
 -1      3089 9.52444E-05-2.81126E-05-2.87743E-05 2.21194E-06-4.26459E-19-1.66767E-20
 -1      3090 9.52512E-05-2.80119E-05-2.88118E-05 2.36548E-06-2.45929E-19 1.03064E-19
 -1      3091 9.52939E-05-2.80898E-05-2.88023E-05 2.12880E-06-1.22109E-19-1.52293E-19
 -1      3092 9.51330E-05-2.78556E-05-2.88382E-05 2.53680E-06-1.55208E-19 2.35341E-19
 -1      3093 9.51383E-05-2.77248E-05-2.88857E-05 2.74558E-06 8.27301E-20 3.85665E-19
 -1      3094 9.50803E-05-2.77893E-05-2.88385E-05 2.43229E-06-4.11633E-20 1.24775E-19
 -1      3095 9.49927E-05-2.75315E-05-2.89184E-05 2.97591E-06-1.54175E-19 3.68305E-19
 -1      3096 9.49928E-05-2.73724E-05-2.89737E-05 3.25390E-06-6.96689E-20-1.15250E-20
 -1      3097 9.48200E-05-2.74055E-05-2.88903E-05 2.83514E-06-1.07318E-19 2.34445E-20
 -1      3098 9.48098E-05-2.71423E-05-2.90085E-05 3.55546E-06-1.16549E-19-3.16392E-19
 -1      3099 9.48008E-05-2.69579E-05-2.90684E-05 3.91406E-06-6.53897E-19-5.70533E-19
 -1      3100 9.44957E-05-2.69407E-05-2.89490E-05 3.36321E-06-4.19835E-19 8.95426E-20
 -1      3101 9.45690E-05-2.66932E-05-2.90996E-05 4.29723E-06-8.16176E-19-6.53260E-19
 -1      3102 9.45480E-05-2.64906E-05-2.91596E-05 4.74490E-06-8.44602E-19-3.38947E-19
 -1      3103 9.40864E-05-2.63989E-05-2.90040E-05 4.03768E-06-6.39194E-19-5.17830E-19
 -1      3104 9.42567E-05-2.61992E-05-2.91794E-05 5.21865E-06-4.54281E-19-9.92739E-20
 -1      3105 9.42245E-05-2.59946E-05-2.92326E-05 5.76010E-06-5.49709E-20 3.49535E-19
 -1      3106 9.35699E-05-2.57914E-05-2.90409E-05 4.87602E-06-4.62906E-19 9.59302E-21
 -1      3107 9.38675E-05-2.56969E-05-2.92298E-05 6.33301E-06 2.36074E-19 3.05598E-19
 -1      3108 9.38356E-05-2.55243E-05-2.92660E-05 6.96806E-06 2.32334E-19 1.26918E-19
 -1      3109 9.29284E-05-2.51478E-05-2.90395E-05 5.89400E-06 2.62227E-20-1.44362E-19
 -1      3110 9.34193E-05-2.52631E-05-2.92253E-05 7.65063E-06 1.97843E-19 4.46883E-19
 -1      3111 9.34221E-05-2.51874E-05-2.92304E-05 8.37302E-06 1.33943E-19 3.58818E-19
 -1      3112 9.21596E-05-2.45320E-05-2.89721E-05 7.11008E-06 1.32342E-19-8.61736E-20
 -1      3113 9.29807E-05-2.50443E-05-2.91317E-05 9.18211E-06-2.50916E-19 2.85165E-19
 -1      3114 9.30984E-05-2.51818E-05-2.90883E-05 9.97816E-06 1.15206E-20-3.41485E-20
 -1      3115 9.12977E-05-2.40673E-05-2.88016E-05 8.55469E-06 8.48356E-20-1.25828E-19
 -1      3116 9.27200E-05-2.52996E-05-2.89084E-05 1.09436E-05 1.53405E-19-3.97819E-19
 -1      3117 9.31148E-05-2.58457E-05-2.88002E-05 1.17883E-05 4.00474E-19-8.89291E-19
 -1      3118 9.04520E-05-2.39756E-05-2.84819E-05 1.02864E-05-1.88158E-19-6.62436E-19
 -1      3119 9.29876E-05-2.64587E-05-2.85175E-05 1.29550E-05 6.89250E-19-9.05762E-19
 -1      3120 9.39544E-05-2.77163E-05-2.83400E-05 1.37951E-05 4.65787E-19-6.42998E-19
 -1      3121 8.98738E-05-2.46331E-05-2.79635E-05 1.24124E-05 6.24603E-19-5.12380E-19
 -1      3122 9.44416E-05-2.91769E-05-2.79484E-05 1.51971E-05 4.21688E-20-3.75079E-19
 -1      3123 9.64607E-05-3.15537E-05-2.77365E-05 1.58906E-05 1.42791E-19-3.13055E-19
 -1      3124 9.00731E-05-2.66478E-05-2.72096E-05 1.50867E-05 4.73209E-19-2.83065E-19
 -1      3125 9.82123E-05-3.43480E-05-2.72854E-05 1.74614E-05 2.76019E-19-5.55637E-19
 -1      3126 1.01854E-04-3.82238E-05-2.71718E-05 1.76259E-05 5.17987E-19-2.59427E-19
 -1      3127 9.19737E-05-3.08933E-05-2.62418E-05 1.84215E-05 1.90261E-19-1.90735E-19
 -1      3128 1.14832E-04-5.17639E-05-2.67598E-05 1.91545E-05 1.36168E-18-7.80779E-19
 -1      3129 1.22259E-04-5.57713E-05-2.82853E-05 1.58817E-05 1.66506E-18-9.48677E-20
 -1      3130 1.29621E-04-1.59732E-05-4.94082E-05-6.89288E-06-3.32905E-18-8.89835E-19
 -1      3131 1.29034E-04-1.41611E-05-4.97652E-05 1.34109E-06-2.38313E-18-2.32401E-18
 -1      3132 1.13133E-04-4.85551E-05-2.76145E-05-1.65633E-05 1.85910E-18-1.38698E-18
 -1      3133 1.07540E-04-4.35336E-05-2.72076E-05-1.80112E-05 1.72608E-18-1.21214E-18
 -1      3134 1.03161E-04-3.89909E-05-2.74160E-05-1.72434E-05 8.66270E-19-1.27867E-18
 -1      3135 9.94338E-05-3.50568E-05-2.74865E-05-1.72287E-05 1.03811E-18-9.33746E-19
 -1      3136 9.89523E-05-3.95905E-05-2.55984E-05-2.15711E-05 1.45526E-18-1.41208E-18
 -1      3137 9.74321E-05-3.22002E-05-2.78937E-05-1.58645E-05 1.32327E-18-1.45392E-18
 -1      3138 9.53158E-05-2.97322E-05-2.80793E-05-1.52702E-05 1.09510E-18-8.26405E-19
 -1      3139 9.31993E-05-3.17974E-05-2.64070E-05-1.84855E-05 9.61521E-19-1.75690E-18
 -1      3140 9.46761E-05-2.81839E-05-2.84514E-05-1.39221E-05 5.91121E-19-7.97075E-19
 -1      3141 9.36166E-05-2.68537E-05-2.86136E-05-1.31358E-05-6.91465E-19-3.21419E-19
 -1      3142 9.08652E-05-2.72093E-05-2.73161E-05-1.53064E-05 6.60194E-19-3.16996E-18
 -1      3143 9.36418E-05-2.61722E-05-2.88874E-05-1.19854E-05-8.89081E-19 1.17619E-18
 -1      3144 9.31785E-05-2.55687E-05-2.89867E-05-1.11589E-05 4.43075E-19 5.32506E-19
 -1      3145 9.04284E-05-2.50094E-05-2.80445E-05-1.26882E-05 3.62888E-19-8.94931E-19
 -1      3146 9.34915E-05-2.54016E-05-2.91631E-05-1.01882E-05 1.09451E-18 1.05605E-18
 -1      3147 9.33236E-05-2.52189E-05-2.92016E-05-9.38979E-06 6.30729E-19 2.30422E-18
 -1      3148 9.08535E-05-2.42174E-05-2.85531E-05-1.05563E-05 6.94517E-19 1.75898E-19
 -1      3149 9.37195E-05-2.53221E-05-2.93005E-05-8.56425E-06-1.22807E-19 3.27377E-18
 -1      3150 9.36783E-05-2.53572E-05-2.92942E-05-7.82540E-06 3.13168E-19 2.33215E-18
 -1      3151 9.16006E-05-2.42113E-05-2.88714E-05-8.79318E-06 5.84247E-19-1.23721E-19
 -1      3152 9.40586E-05-2.55792E-05-2.93386E-05-7.11699E-06 7.31259E-19 2.78421E-18
 -1      3153 9.40585E-05-2.57090E-05-2.93050E-05-6.45244E-06 1.99501E-18 1.59407E-18
 -1      3154 9.23908E-05-2.45898E-05-2.90476E-05-7.29991E-06 7.94623E-19 1.54227E-18
 -1      3155 9.43819E-05-2.59605E-05-2.93153E-05-5.84442E-06 2.09635E-18 5.55757E-19
 -1      3156 9.43849E-05-2.61134E-05-2.92688E-05-5.25847E-06 1.86386E-18-1.65226E-20
 -1      3157 9.30993E-05-2.51146E-05-2.91277E-05-6.01784E-06 1.15524E-18 1.01274E-19
 -1      3158 9.46360E-05-2.63499E-05-2.92605E-05-4.73059E-06 2.26131E-18-1.12252E-18
 -1      3159 9.46264E-05-2.64850E-05-2.92126E-05-4.22562E-06 1.77268E-18-6.65839E-19
 -1      3160 9.36688E-05-2.56426E-05-2.91495E-05-4.92088E-06 1.68494E-18-2.33332E-18
 -1      3161 9.48135E-05-2.66735E-05-2.91974E-05-3.76671E-06 1.09510E-18-7.77698E-19
 -1      3162 9.47917E-05-2.67769E-05-2.91533E-05-3.32538E-06-4.79090E-19-4.29048E-19
 -1      3163 9.41116E-05-2.60968E-05-2.91382E-05-3.94895E-06 1.57463E-18-2.22834E-18
 -1      3164 9.53889E-05-2.78568E-05-2.89454E-05-6.37170E-07 4.62303E-19-3.07015E-19
 -1      3165 9.54358E-05-2.76144E-05-2.90537E-05-2.73020E-07 5.11455E-19-2.73669E-19
 -1      3166 9.52976E-05-2.84366E-05-2.86512E-05-1.81356E-06 3.33041E-19-1.63094E-20
 -1      3167 9.52566E-05-2.84368E-05-2.86368E-05-1.73651E-06 4.85726E-19-2.37704E-19
 -1      3168 9.52956E-05-2.84448E-05-2.86478E-05-1.65186E-06 4.16104E-19-2.96528E-19
 -1      3169 9.52712E-05-2.84119E-05-2.86518E-05-1.56155E-06 3.26563E-19-1.02327E-20
 -1      3170 9.54932E-05-2.84543E-05-2.87338E-05-1.68848E-06 5.56940E-19-5.68158E-20
 -1      3171 9.53548E-05-2.82713E-05-2.87451E-05-2.20063E-06-1.83666E-19-1.36984E-20
 -1      3172 9.52837E-05-2.83096E-05-2.87054E-05-2.08745E-06 1.32083E-19-2.98775E-19
 -1      3173 9.54154E-05-2.81498E-05-2.88225E-05-2.48897E-06 6.10277E-20-1.45004E-19
 -1      3174 9.53263E-05-2.81940E-05-2.87740E-05-2.33816E-06-1.83742E-19-1.04667E-19
 -1      3175 9.52929E-05-2.81370E-05-2.87825E-05-2.32297E-06-8.15301E-20-5.46792E-19
 -1      3176 9.55073E-05-2.80286E-05-2.89133E-05-2.86520E-06 3.19977E-19-3.34845E-19
 -1      3177 9.53948E-05-2.80677E-05-2.88579E-05-2.67089E-06 3.17947E-19-1.52377E-19
 -1      3178 9.52440E-05-2.79540E-05-2.88398E-05-2.65203E-06 1.97271E-19-6.43327E-19
 -1      3179 9.56456E-05-2.79347E-05-2.90124E-05-3.33432E-06 4.74968E-19-1.20308E-19
 -1      3180 9.55011E-05-2.79541E-05-2.89522E-05-3.09672E-06 3.26348E-19-2.99004E-19
 -1      3181 9.52165E-05-2.77717E-05-2.89063E-05-3.07517E-06 3.03318E-19-4.15313E-19
 -1      3182 9.58553E-05-2.79071E-05-2.91139E-05-3.88786E-06 1.18026E-19 5.17696E-19
 -1      3183 9.56655E-05-2.78857E-05-2.90515E-05-3.61496E-06 2.99452E-19 1.67205E-19
 -1      3184 9.52285E-05-2.76243E-05-2.89751E-05-3.59829E-06 2.66157E-19 2.16417E-19
 -1      3185 9.61759E-05-2.80010E-05-2.92111E-05-4.49967E-06 6.24604E-21 5.59677E-19
 -1      3186 9.59214E-05-2.79097E-05-2.91496E-05-4.20973E-06 1.00176E-19 4.98212E-19
 -1      3187 9.53110E-05-2.75606E-05-2.90388E-05-4.21474E-06-6.85753E-21 4.08198E-19
 -1      3188 9.66668E-05-2.82938E-05-2.92967E-05-5.11963E-06-1.38638E-20 7.40814E-19
 -1      3189 9.63199E-05-2.80926E-05-2.92397E-05-4.84470E-06 5.73557E-20 5.93444E-19
 -1      3190 9.55149E-05-2.76509E-05-2.90895E-05-4.90139E-06-1.11348E-19-8.54565E-20
 -1      3191 9.74141E-05-2.88865E-05-2.93645E-05-5.66523E-06 8.40734E-20 1.16132E-18
 -1      3192 9.69373E-05-2.85248E-05-2.93150E-05-5.45544E-06 2.20239E-19 9.72223E-19
 -1      3193 9.59190E-05-2.79919E-05-2.91200E-05-5.61252E-06-9.22855E-20 8.72208E-19
 -1      3194 9.85321E-05-2.98978E-05-2.94133E-05-6.01053E-06-1.66284E-19 9.67151E-19
 -1      3195 9.78798E-05-2.93200E-05-2.93719E-05-5.93877E-06 3.46589E-20 1.18835E-18
 -1      3196 9.66389E-05-2.87098E-05-2.91264E-05-6.27011E-06 1.47444E-19 9.69441E-19
 -1      3197 1.00155E-04-3.14399E-05-2.94534E-05-5.97323E-06-5.56435E-19 9.77242E-19
 -1      3198 9.92822E-05-3.06009E-05-2.94150E-05-6.13874E-06-3.81420E-19 9.67251E-19
 -1      3199 9.78318E-05-2.99514E-05-2.91136E-05-6.74867E-06-2.00867E-19 1.10454E-18
 -1      3200 1.02399E-04-3.35574E-05-2.95171E-05-5.30471E-06-6.89209E-19 1.83897E-18
 -1      3201 1.01287E-04-3.24602E-05-2.94659E-05-5.83117E-06-7.80795E-19 1.25287E-18
 -1      3202 9.96866E-05-3.18518E-05-2.91047E-05-6.85276E-06-7.88632E-19 1.64300E-18
 -1      3203 1.05273E-04-3.61040E-05-2.96720E-05-3.69469E-06-1.42838E-18 1.95659E-18
 -1      3204 1.03984E-04-3.48721E-05-2.95757E-05-4.71115E-06-8.89587E-19 1.74965E-18
 -1      3205 1.02384E-04-3.44605E-05-2.91540E-05-6.28713E-06-1.01616E-18 1.57157E-18
 -1      3206 1.08544E-04-3.85628E-05-3.00325E-05-8.69308E-07-5.34057E-19 1.19697E-18
 -1      3207 1.07249E-04-3.75091E-05-2.98393E-05-2.43704E-06-1.06774E-18 1.56257E-18
 -1      3208 1.05964E-04-3.75513E-05-2.93673E-05-4.63324E-06-1.10553E-18 1.87766E-18
 -1      3209 1.11497E-04-3.99225E-05-3.07376E-05 3.08339E-06-1.15282E-19 1.18962E-18
 -1      3210 1.10576E-04-3.95937E-05-3.03920E-05 1.12954E-06-1.32059E-19 1.60063E-18
 -1      3211 1.09967E-04-4.03724E-05-2.99103E-05-1.40223E-06-4.96272E-19 1.82791E-18
 -1      3212 1.13042E-04-3.85948E-05-3.19317E-05 7.81513E-06 2.81863E-19 1.11856E-18
 -1      3213 1.13185E-04-3.98292E-05-3.13870E-05 5.99423E-06 8.15435E-20 1.25121E-18
 -1      3214 1.14109E-04-4.19360E-05-3.10506E-05 3.48816E-06 8.18148E-20 1.02812E-18
 -1      3215 1.12103E-04-3.35981E-05-3.36116E-05 1.13064E-05-4.69971E-20 8.19663E-19
 -1      3216 1.13358E-04-3.67510E-05-3.28837E-05 1.03651E-05 5.69822E-19 1.27477E-18
 -1      3217 1.15768E-04-3.92834E-05-3.28478E-05 9.00357E-06 2.82578E-19 1.17739E-18
 -1      3218 1.08810E-04-2.60525E-05-3.54257E-05 1.05943E-05-3.27444E-19 1.59836E-18
 -1      3219 1.10522E-04-2.98883E-05-3.47385E-05 1.16889E-05-5.68468E-19 1.26532E-18
 -1      3220 1.14304E-04-3.22564E-05-3.50766E-05 1.24669E-05-4.37413E-19 1.28653E-18
 -1      3221 1.05528E-04-1.99880E-05-3.66755E-05 4.50757E-06 6.73974E-19 1.50671E-18
 -1      3222 1.06624E-04-2.23047E-05-3.63037E-05 7.85457E-06 2.89010E-19 1.61666E-18
 -1      3223 1.10469E-04-2.35703E-05-3.72946E-05 1.03864E-05-8.24004E-20 2.14103E-18
 -1      3224 1.05399E-04-1.99812E-05-3.67314E-05-4.31992E-06 1.12441E-18 1.27728E-18
 -1      3225 1.04948E-04-1.90656E-05-3.68763E-05-3.92163E-07 1.16314E-18 2.05487E-18
 -1      3226 1.07518E-04-1.78671E-05-3.85660E-05 2.38700E-06 4.49616E-19 2.43871E-18
 -1      3227 1.08649E-04-2.61631E-05-3.55394E-05-1.05659E-05 1.30515E-18 7.63742E-19
 -1      3228 1.07055E-04-2.27183E-05-3.61187E-05-8.31319E-06 1.38336E-18 9.87492E-19
 -1      3229 1.08756E-04-2.01385E-05-3.80873E-05-7.17279E-06 1.53072E-18 1.41922E-18
 -1      3230 1.12302E-04-3.38913E-05-3.37417E-05-1.15062E-05 1.46345E-18-2.82950E-19
 -1      3231 1.10759E-04-3.02306E-05-3.44724E-05-1.15908E-05 1.70015E-18 5.91912E-19
 -1      3232 1.12594E-04-2.82361E-05-3.61568E-05-1.21775E-05 1.73521E-18 9.17350E-19
 -1      3233 1.13554E-04-3.89316E-05-3.20198E-05-8.05133E-06-9.30173E-20-6.68850E-19
 -1      3234 1.13017E-04-3.67957E-05-3.26705E-05-9.71439E-06 5.53682E-19-8.98073E-19
 -1      3235 1.15670E-04-3.68421E-05-3.37395E-05-1.07633E-05 1.33485E-18 1.15508E-18
 -1      3236 1.12028E-04-4.01106E-05-3.07754E-05-3.23965E-06 4.17791E-19-8.30673E-19
 -1      3237 1.12513E-04-3.97671E-05-3.12178E-05-5.32430E-06 1.70498E-20-1.14326E-18
 -1      3238 1.15067E-04-4.10244E-05-3.17191E-05-5.98101E-06-1.09499E-19 4.04415E-19
 -1      3239 1.08831E-04-3.86270E-05-3.00399E-05 1.02297E-06 1.26984E-18-4.24003E-19
 -1      3240 1.10007E-04-3.94142E-05-3.02955E-05-7.46244E-07 9.19587E-19-6.03140E-19
 -1      3241 1.12119E-04-4.13636E-05-3.03623E-05-6.57979E-07 2.79524E-19-7.94755E-19
 -1      3242 1.05438E-04-3.61144E-05-2.96629E-05 3.90661E-06 6.16861E-19 1.08926E-18
 -1      3243 1.06772E-04-3.73289E-05-2.97963E-05 2.63375E-06 9.86596E-19-8.65413E-20
 -1      3244 1.07791E-04-3.90000E-05-2.95608E-05 3.40743E-06 6.63059E-19 8.57770E-19
 -1      3245 1.02446E-04-3.35316E-05-2.94978E-05 5.52315E-06-6.41424E-19 9.61889E-19
 -1      3246 1.03657E-04-3.47198E-05-2.95644E-05 4.78186E-06 1.40771E-19 1.34662E-18
 -1      3247 1.03951E-04-3.58818E-05-2.92209E-05 5.76678E-06-1.08865E-19 1.24762E-18
 -1      3248 1.00125E-04-3.13933E-05-2.94313E-05 6.16829E-06-2.16997E-18 1.10632E-18
 -1      3249 1.01111E-04-3.23624E-05-2.94716E-05 5.85126E-06-1.34446E-18 1.01645E-18
 -1      3250 1.00842E-04-3.29960E-05-2.91153E-05 6.78467E-06-8.77845E-19 1.40470E-18
 -1      3251 9.84585E-05-2.98369E-05-2.93943E-05 6.16699E-06-1.88910E-18-8.66212E-19
 -1      3252 9.92100E-05-3.05405E-05-2.94306E-05 6.14624E-06-2.15987E-18-1.11895E-19
 -1      3253 9.86178E-05-3.07529E-05-2.91119E-05 6.94913E-06-1.34682E-18-9.14863E-19
 -1      3254 9.73183E-05-2.88071E-05-2.93543E-05 5.77578E-06-3.30893E-19-1.81204E-18
 -1      3255 9.78726E-05-2.92758E-05-2.93955E-05 5.94243E-06-1.15155E-18-9.76382E-19
 -1      3256 9.71425E-05-2.92001E-05-2.91357E-05 6.60709E-06-1.15377E-18-3.12491E-18
 -1      3257 9.65601E-05-2.81838E-05-2.93013E-05 5.17475E-06 1.21913E-18-2.28469E-18
 -1      3258 9.69647E-05-2.84735E-05-2.93483E-05 5.44719E-06 7.26176E-19-1.83718E-18
 -1      3259 9.62219E-05-2.82256E-05-2.91521E-05 5.99255E-06 2.70047E-19-3.02548E-18
 -1      3260 9.60610E-05-2.78400E-05-2.92372E-05 4.48244E-06-2.53046E-19-1.77951E-18
 -1      3261 9.63578E-05-2.80077E-05-2.92871E-05 4.80454E-06 4.89147E-19-1.75425E-18
 -1      3262 9.56789E-05-2.76763E-05-2.91504E-05 5.25479E-06 3.00104E-19-1.65129E-18
 -1      3263 9.57328E-05-2.76674E-05-2.91688E-05 3.77208E-06 3.18707E-19-2.44651E-18
 -1      3264 9.59509E-05-2.77623E-05-2.92175E-05 4.10510E-06-1.39861E-19-1.99945E-18
 -1      3265 9.53708E-05-2.74066E-05-2.91322E-05 4.48563E-06 1.06607E-19-1.55863E-18
 -1      3266 9.49468E-05-2.69588E-05-2.91366E-05-2.90340E-06-1.55348E-18 4.74568E-19
 -1      3267 9.24006E-05-1.82919E-05-3.17762E-05 1.79889E-06 7.14488E-19-1.43076E-18
 -1      3268 9.22817E-05-1.80880E-05-3.18092E-05 1.04984E-06 6.05254E-19-1.58830E-18
 -1      3269 9.29724E-05-2.52385E-05-2.90271E-05-1.94946E-06 5.97510E-19 8.77077E-19
 -1      3270 9.27435E-05-2.50599E-05-2.90155E-05-1.52407E-06 4.77520E-19 2.34929E-18
 -1      3271 9.25016E-05-2.48905E-05-2.89818E-05 6.02113E-08 3.29390E-19 1.50759E-18
 -1      3272 9.25630E-05-2.49477E-05-2.89790E-05 5.46885E-07-1.22688E-19 1.43018E-18
 -1      3273 9.25856E-05-2.49327E-05-2.89966E-05-9.85614E-07 4.31614E-19 2.66139E-18
 -1      3274 9.25048E-05-2.48730E-05-2.89896E-05-5.06409E-07 3.76350E-19 8.84372E-19
 -1      3275 9.21260E-05-2.46365E-05-2.89158E-05-2.07697E-07-1.25705E-19 1.04401E-18
 -1      3276 9.23054E-05-2.47452E-05-2.89457E-05-1.35464E-06-2.83135E-19 2.74302E-18
 -1      3277 1.40071E-04-5.34752E-05-3.73234E-05 4.74163E-06 1.25488E-18-2.92809E-18
 -1      3278 4.18988E-05-1.17914E-05-1.24387E-05-4.37058E-06-5.05815E-19-5.32995E-19
 -1      3279 4.92973E-05-1.63604E-05-1.37810E-05-1.75232E-05 3.46357E-19-4.35057E-19
 -1      3280 9.52116E-05-2.42506E-05-3.04124E-05 4.25247E-06 1.14980E-18-3.97954E-19
 -1      3281 9.46485E-05-2.27147E-05-3.08196E-05 4.75621E-06 1.26522E-18-5.06290E-19
 -1      3282 9.49398E-05-2.35558E-05-3.05894E-05 3.66480E-06 9.83555E-19-5.46187E-19
 -1      3283 9.52362E-05-2.51687E-05-3.00426E-05 2.96320E-06 9.75138E-19-3.40170E-19
 -1      3284 9.54246E-05-2.72791E-05-2.92116E-05 1.70780E-07 5.77201E-19-3.54998E-19
 -1      3285 9.54812E-05-2.68812E-05-2.93843E-05 7.53307E-07 6.81140E-19-3.30045E-19
 -1      3286 9.56973E-05-2.72403E-05-2.93441E-05 1.00308E-07 5.69860E-19-2.29547E-19
 -1      3287 1.03572E-04-4.94491E-05-2.29061E-05-2.96655E-05-2.47011E-18-7.99626E-19
 -1      3288 1.15855E-04-5.47919E-05-2.64774E-05-2.26266E-05-2.24638E-18-2.48737E-19
 -1      3289 8.82062E-05-4.35463E-05-1.85619E-05-3.47086E-05 1.03296E-18-1.07277E-18
 -1      3290 1.03565E-04-5.12633E-05-2.26393E-05-3.04599E-05 1.59322E-18-6.76276E-19
 -1      3291 1.15506E-04-1.32485E-05-4.43328E-05-6.16362E-06 1.16372E-18 1.04114E-18
 -1      3292 1.19315E-04-1.88290E-05-4.32529E-05-1.17853E-05 2.20578E-18 1.37246E-19
 -1      3293 9.43967E-05-2.20818E-05-3.10166E-05-5.07319E-06-8.09173E-19-1.23333E-18
 -1      3294 9.48744E-05-2.31666E-05-3.07016E-05-4.42072E-06-6.93012E-19-1.16475E-18
 -1      3295 9.50999E-05-2.43405E-05-3.03437E-05-3.24811E-06-6.34783E-19-1.15254E-18
 -1      3296 9.38323E-05-2.08852E-05-3.12655E-05-4.73366E-06-6.35790E-19-1.50504E-18
 -1      3297 9.36361E-05-2.57890E-05-2.90693E-05-2.67265E-06 4.64693E-19-2.39855E-18
 -1      3298 9.32891E-05-2.55169E-05-2.90560E-05-2.38430E-06 9.05799E-19-2.01408E-18
 -1      3299 9.28424E-05-2.51539E-05-2.90010E-05-2.37640E-06 3.32255E-19-2.79705E-19
 -1      3300 1.28478E-04-1.69467E-05-4.87112E-05 8.69032E-06-1.32201E-18-3.09379E-18
 -1      3301 1.36292E-04-1.92310E-05-5.08093E-05 1.15182E-05-9.94417E-19-3.17754E-18
 -1      3302 1.17759E-04-1.35468E-05-4.50483E-05 7.77395E-06 1.23741E-18-1.78724E-19
 -1      3303 1.14901E-04-1.07152E-05-4.50352E-05 9.47865E-07 8.91820E-19 3.32717E-19
 -1      3304 9.53169E-05-2.83727E-05-2.86861E-05-1.98419E-06 2.83565E-19-1.97662E-19
 -1      3305 9.52611E-05-2.83963E-05-2.86576E-05-1.89742E-06 3.49004E-19 1.07243E-19
 -1      3306 9.54212E-05-2.84084E-05-2.87220E-05-1.87230E-06 3.16053E-19 1.08558E-19
 -1      3307 9.53536E-05-2.82955E-05-2.87410E-05-2.07172E-06 1.62687E-19-1.09765E-19
 -1      3308 1.24369E-04-2.75525E-05-4.20566E-05-1.31653E-05 2.45396E-18-8.34327E-19
 -1      3309 1.29258E-04-3.67172E-05-3.97211E-05-1.17362E-05 1.74997E-18-1.23778E-18
 -1      3310 4.64843E-05-1.50781E-05-1.32980E-05 1.75771E-05-9.75305E-19 3.63271E-19
 -1      3311 4.17624E-05-1.18554E-05-1.24011E-05 6.29414E-06-3.77644E-19-8.15269E-21
 -1      3312 8.42989E-05-3.88700E-05-1.92831E-05-3.36145E-05-1.96141E-18-7.87952E-19
 -1      3313 9.50791E-05-4.54023E-05-2.12141E-05-3.32203E-05-2.42236E-18-8.06190E-19
 -1      3314 1.02717E-04-4.67736E-05-2.37434E-05-2.66323E-05-1.98754E-18-1.23555E-18
 -1      3315 6.83004E-05-2.88541E-05-1.70743E-05 3.16754E-05-1.85394E-18 1.63980E-18
 -1      3316 5.60187E-05-2.03719E-05-1.47227E-05 2.51667E-05-1.31467E-18 8.56139E-19
 -1      3317 8.29647E-05-3.81982E-05-1.90292E-05 3.24313E-05 2.94238E-19-2.71532E-18
 -1      3318 7.01219E-05-3.02395E-05-1.67438E-05 3.04620E-05 1.51248E-19-2.99140E-18
 -1      3319 9.55236E-05-2.55218E-05-2.99766E-05-2.07798E-06-5.31598E-19-1.13495E-18
 -1      3320 9.55497E-05-2.62160E-05-2.97288E-05-1.26406E-06-3.97506E-19-1.11667E-18
 -1      3321 9.57108E-05-2.61156E-05-2.98276E-05-1.08416E-06-4.31182E-19-1.04871E-18
 -1      3322 1.42519E-04-2.86241E-05-4.91148E-05 1.35258E-05-2.54322E-19-3.12322E-18
 -1      3323 1.35250E-04-1.73607E-05-5.11669E-05-1.00027E-05-3.94823E-18-7.28766E-19
 -1      3324 1.39862E-04-2.38467E-05-5.00127E-05-1.36136E-05-4.21378E-18-4.23516E-19
 -1      3325 1.30444E-04-4.57871E-05-3.60924E-05 6.64593E-06-9.47274E-19 1.36648E-18
 -1      3326 1.27424E-04-3.68875E-05-3.94014E-05 1.17647E-05-4.23940E-19 1.47050E-18
 -1      3327 1.31458E-04-4.54977E-05-3.72871E-05-6.35351E-06 9.90684E-19-1.81127E-18
 -1      3328 1.30543E-04-5.16576E-05-3.38243E-05 1.17269E-06 2.47069E-19-1.71045E-18
 -1      3329 1.25039E-04-5.53274E-05-2.95878E-05-1.24917E-05-1.47460E-18 9.51986E-19
 -1      3330 1.28881E-04-5.32050E-05-3.30303E-05-3.43229E-06-9.51112E-19 1.23058E-18
 -1      3331 9.48927E-05-2.70939E-05-2.90553E-05 2.56878E-06 4.95524E-19-3.01052E-18
 -1      3332 1.01737E-04-4.80203E-05-2.31058E-05 2.95801E-05-1.56871E-18-6.71803E-20
 -1      3333 8.60719E-05-3.88069E-05-1.97474E-05 3.27060E-05-1.74489E-18 1.45084E-18
 -1      3334 9.22222E-05-1.79869E-05-3.18282E-05 4.06723E-07 5.39006E-19-1.48258E-18
 -1      3335 9.22184E-05-1.79817E-05-3.18288E-05-3.56728E-07 3.72893E-19-1.43079E-18
 -1      3336 9.31668E-05-1.95541E-05-3.15304E-05 6.22228E-07 4.98762E-19-1.44381E-18
 -1      3337 1.13662E-04-5.10283E-05-2.68861E-05 1.82428E-05-7.80812E-19-9.69290E-19
 -1      3338 1.08886E-04-5.03615E-05-2.48900E-05 2.46312E-05-1.08875E-18-1.09300E-19
 -1      3339 1.01607E-04-4.48629E-05-2.42776E-05 2.46153E-05-5.90303E-19 4.64478E-19
 -1      3340 1.37268E-04-2.97224E-05-4.63062E-05-1.54773E-05-3.48554E-18 1.08674E-18
 -1      3341 6.48008E-05-2.54356E-05-1.64711E-05 2.73877E-05 3.16155E-19-3.26124E-18
 -1      3342 6.01102E-05-2.07813E-05-1.66044E-05 2.23065E-05 2.78568E-19-2.80400E-18
 -1      3343 7.38468E-05-2.85016E-05-1.91118E-05 2.62947E-05 9.17178E-19-2.54020E-18
 -1      3344 9.37849E-05-2.60957E-05-2.90189E-05 2.52770E-06 5.14175E-19 2.34005E-19
 -1      3345 9.41396E-05-2.63938E-05-2.90247E-05 2.70466E-06 4.78927E-19 1.83384E-19
 -1      3346 1.06634E-04-4.29550E-05-2.70743E-05 1.83394E-05 7.99179E-19-3.80172E-21
 -1      3347 1.12662E-04-4.79588E-05-2.75228E-05 1.67544E-05 1.14627E-18-2.19580E-19
 -1      3348 1.12281E-04-1.44423E-05-4.22321E-05-2.41489E-06 1.44763E-18 5.95319E-19
 -1      3349 9.44806E-05-2.65188E-05-2.91221E-05-3.08948E-06 5.13656E-20-7.96476E-20
 -1      3350 8.07280E-05-3.30180E-05-2.00962E-05 2.84213E-05-1.54393E-18 1.03132E-18
 -1      3351 1.27166E-04-5.71906E-05-3.00502E-05-1.07926E-05 1.05728E-18-2.13005E-18
 -1      3352 1.20819E-04-5.39125E-05-2.83797E-05-1.47286E-05 1.48382E-18-1.89243E-18
 -1      3353 1.18615E-04-5.29553E-05-2.80830E-05-1.55047E-05-1.84952E-18 3.76983E-19
 -1      3354 9.53645E-05-2.80499E-05-2.88408E-05-9.19116E-07 3.82420E-19-2.67880E-19
 -1      3355 9.56907E-05-2.78683E-05-2.90718E-05-6.69013E-07 3.30986E-19-3.62737E-19
 -1      3356 9.53441E-05-2.81952E-05-2.87786E-05-1.14015E-06 2.40518E-19-1.01925E-19
 -1      3357 1.27791E-04-5.39674E-05-3.17273E-05 5.66286E-06 8.11696E-20-1.72395E-18
 -1      3358 1.22185E-04-5.30358E-05-2.96630E-05 1.00054E-05 1.58686E-20-1.54280E-18
 -1      3359 1.26005E-04-4.97630E-05-3.28330E-05-7.95125E-07 3.87901E-19-1.37407E-18
 -1      3360 1.27060E-04-4.09701E-05-3.70616E-05-9.52066E-06 8.39780E-19-4.94005E-19
 -1      3361 9.55670E-05-2.84069E-05-2.87866E-05-1.47190E-06 1.77406E-19-1.10057E-19
 -1      3362 9.53112E-05-2.83750E-05-2.86857E-05-1.44938E-06 1.15668E-19-4.80572E-20
 -1      3363 9.53070E-05-2.82957E-05-2.87143E-05-1.31469E-06 1.58902E-19-1.24163E-19
 -1      3364 9.55814E-05-2.75694E-05-2.91423E-05 3.51132E-06 9.41095E-19-2.71560E-18
 -1      3365 9.51020E-05-2.72256E-05-2.90967E-05 3.82205E-06 1.26823E-18-1.83544E-18
 -1      3366 9.53746E-05-2.74559E-05-2.91030E-05 3.27926E-06 1.02633E-18-1.98018E-18
 -1      3367 9.31556E-05-2.55209E-05-2.89952E-05 1.92776E-06 3.46694E-19-1.34955E-18
 -1      3368 9.34418E-05-2.57650E-05-2.89995E-05 2.24450E-06 5.70805E-19 3.54136E-19
 -1      3369 9.34267E-05-2.58259E-05-2.89689E-05 2.64001E-06-1.49403E-19-2.02430E-19
 -1      3370 9.25750E-05-1.85909E-05-3.17186E-05 2.40353E-06 7.38166E-19-1.24506E-18
 -1      3371 9.33799E-05-1.99477E-05-3.14519E-05 1.78197E-06 7.01297E-19-1.28883E-18
 -1      3372 9.28121E-05-1.90082E-05-3.16490E-05 3.10192E-06 8.67760E-19-1.14788E-18
 -1      3373 1.36525E-04-5.77460E-05-3.36393E-05-1.30506E-06 1.34416E-18-2.29609E-18
 -1      3374 9.27055E-05-2.50995E-05-2.89819E-05 1.07557E-06 3.23104E-19-1.34222E-19
 -1      3375 9.28941E-05-2.52618E-05-2.89830E-05 1.50123E-06 5.02717E-19-2.16134E-18
 -1      3376 9.27431E-05-2.52276E-05-2.89303E-05 1.91198E-06 1.20131E-18-1.44884E-18
 -1      3377 9.22849E-05-2.48099E-05-2.89112E-05 9.26372E-07-7.07630E-20 4.39067E-19
 -1      3378 9.51579E-05-2.42002E-05-3.04154E-05-2.86321E-06-5.49446E-19-1.25302E-18
 -1      3379 9.41295E-05-2.62276E-05-2.91095E-05-3.01706E-06 1.08672E-19-8.71090E-19
 -1      3380 9.30624E-05-1.94592E-05-3.15542E-05-3.58397E-06-3.29432E-19-1.29474E-18
 -1      3381 9.34042E-05-2.00918E-05-3.14430E-05-4.20061E-06-5.50426E-19-1.53901E-18
 -1      3382 4.92873E-05-1.26601E-05-1.52186E-05 2.99052E-07-3.90423E-19 6.55392E-20
 -1      3383 5.55262E-05-1.91980E-05-1.50360E-05-2.14445E-05 3.33413E-19-1.18288E-18
 -1      3384 6.27700E-05-2.34130E-05-1.68719E-05-2.45884E-05 9.32927E-19-1.33884E-18
 -1      3385 5.47122E-05-1.55835E-05-1.65038E-05-1.46572E-05 4.41410E-19-2.74333E-19
 -1      3386 9.53901E-05-2.64555E-05-2.95533E-05 1.31197E-06 7.73509E-19-3.15385E-19
 -1      3387 9.54371E-05-2.58506E-05-2.98083E-05 2.18997E-06 9.05875E-19-3.03557E-19
 -1      3388 9.53524E-05-2.51399E-05-3.00936E-05 2.55973E-06 8.82135E-19-2.95304E-19
 -1      3389 9.55878E-05-2.63313E-05-2.96842E-05 1.16189E-06 7.01512E-19-3.34579E-19
 -1      3390 1.18680E-04-2.46429E-05-4.04962E-05-1.21231E-05 2.08937E-18 7.38454E-19
 -1      3391 8.26260E-05-3.75672E-05-1.88591E-05-3.15869E-05 1.61582E-18-2.08116E-18
 -1      3392 9.79463E-05-3.87371E-05-2.54427E-05 2.18457E-05 1.05346E-18-5.03124E-19
 -1      3393 5.71098E-05-1.77910E-05-1.64364E-05 1.88220E-05-4.43739E-19 9.45289E-19
 -1      3394 4.42160E-05-1.28788E-05-1.28639E-05 8.67913E-06-4.36659E-19-1.89587E-18
 -1      3395 4.71682E-05-1.21240E-05-1.47966E-05 2.10189E-06-6.07190E-19-1.47177E-18
 -1      3396 5.15350E-05-1.51017E-05-1.53267E-05 1.34409E-05 3.54761E-20-2.09090E-18
 -1      3397 9.36821E-05-2.58463E-05-2.90766E-05-3.18292E-06 1.49995E-18-2.06384E-18
 -1      3398 4.94733E-05-1.54963E-05-1.39590E-05-1.83946E-05-5.35934E-19-6.48404E-19
 -1      3399 5.82389E-05-1.96381E-05-1.63702E-05-2.19798E-05-6.62062E-19-1.30231E-18
 -1      3400 4.86087E-05-1.34832E-05-1.47750E-05-1.08383E-05-9.04486E-19-7.64024E-19
 -1      3401 1.28984E-04-5.89061E-05-3.02275E-05-1.24595E-05 1.47024E-18-2.28545E-18
 -1      3402 9.27845E-05-1.89632E-05-3.16554E-05-3.06239E-06-1.61016E-19-1.42886E-18
 -1      3403 9.37502E-05-2.06958E-05-3.12966E-05-2.78343E-06-2.53530E-19-1.14405E-18
 -1      3404 9.25554E-05-1.85602E-05-3.17233E-05-2.35267E-06 4.88426E-20-1.56346E-18
 -1      3405 1.10589E-04-5.06867E-05-2.57739E-05-2.25835E-05 1.81162E-18-2.01072E-18
 -1      3406 9.66045E-05-4.38548E-05-2.23251E-05 2.83204E-05 1.06573E-18-1.58858E-18
 -1      3407 9.18139E-05-3.89547E-05-2.24980E-05 2.69004E-05 1.30525E-18-1.03867E-18
 -1      3408 1.41444E-04-5.03794E-05-3.92904E-05-7.06230E-06-1.24129E-18 1.09998E-18
 -1      3409 7.85695E-05-3.38343E-05-1.88333E-05-3.19250E-05-1.56796E-18-8.76520E-19
 -1      3410 8.83544E-05-3.74798E-05-2.16624E-05-2.84430E-05-2.10517E-18-3.60307E-19
 -1      3411 7.26746E-05-2.82135E-05-1.89073E-05-2.79909E-05-1.36846E-18-8.39357E-19
 -1      3412 9.34503E-05-2.01723E-05-3.14284E-05 4.21764E-06 1.14541E-18-8.07098E-19
 -1      3413 9.30950E-05-1.95135E-05-3.15452E-05 3.63031E-06 9.74065E-19-9.77447E-19
 -1      3414 9.37941E-05-2.07427E-05-3.12870E-05 2.81329E-06 8.04526E-19-9.67697E-19
 -1      3415 9.43546E-05-2.19362E-05-3.10160E-05 3.60386E-06 1.01708E-18-6.65080E-19
 -1      3416 1.23524E-04-2.54731E-05-4.20880E-05 1.35227E-05 1.01962E-19 8.72232E-19
 -1      3417 1.20665E-04-1.86158E-05-4.43187E-05 1.10037E-05 8.44915E-19 1.58766E-19
 -1      3418 1.27025E-04-4.77435E-05-3.38409E-05 3.53166E-06-1.15400E-18 9.03784E-19
 -1      3419 1.22529E-04-3.17590E-05-3.90064E-05 1.25148E-05-5.14678E-19 1.41825E-18
 -1      3420 9.45500E-05-2.67930E-05-2.90503E-05 2.84228E-06 1.67465E-18-1.35078E-18
 -1      3421 9.51166E-05-2.72823E-05-2.90638E-05 2.86576E-06 1.10433E-18-3.67002E-18
 -1      3422 9.52709E-05-2.73727E-05-2.90908E-05 3.10748E-06 1.55976E-18-2.84653E-18
 -1      3423 9.42893E-05-2.65636E-05-2.90239E-05 3.06640E-06 1.50328E-18-1.15144E-18
 -1      3424 1.15195E-04-1.76354E-05-4.20546E-05 9.05435E-06 5.04938E-19 3.66990E-19
 -1      3425 9.26062E-05-2.49924E-05-2.89675E-05-2.83773E-06 1.52731E-18-8.31257E-19
 -1      3426 9.22041E-05-2.47312E-05-2.89329E-05-2.36301E-06 1.75783E-19 1.69596E-18
 -1      3427 6.32177E-05-1.98306E-05-1.87767E-05 2.00301E-05-2.36349E-19 7.55077E-19
 -1      3428 5.67035E-05-1.48669E-05-1.76599E-05 1.23184E-05-4.29588E-20 1.00604E-18
 -1      3429 9.61309E-05-2.76310E-05-2.93503E-05 4.33344E-07-4.06710E-19-5.83642E-19
 -1      3430 9.61169E-05-2.79120E-05-2.92344E-05 7.30540E-07-3.96443E-19-6.68039E-19
 -1      3431 9.60980E-05-2.81261E-05-2.91263E-05 9.39828E-07-3.76459E-19-7.35156E-19
 -1      3432 9.60537E-05-2.82740E-05-2.90497E-05 1.13613E-06-7.98320E-20-6.66783E-19
 -1      3433 9.62692E-05-2.79176E-05-2.92946E-05 7.24208E-07-4.25117E-19-4.86483E-19
 -1      3434 9.59805E-05-2.83637E-05-2.89763E-05 1.27701E-06 1.16524E-19-1.02280E-18
 -1      3435 9.59188E-05-2.84133E-05-2.89304E-05 1.41356E-06 2.18639E-19-1.01211E-18
 -1      3436 9.61795E-05-2.82663E-05-2.91071E-05 1.09245E-06-1.62385E-19-6.32049E-19
 -1      3437 9.58073E-05-2.84093E-05-2.88844E-05 1.51794E-06 2.93488E-19-1.09292E-18
 -1      3438 9.57335E-05-2.83836E-05-2.88624E-05 1.62837E-06 1.88064E-19-8.78307E-19
 -1      3439 9.59981E-05-2.83766E-05-2.89818E-05 1.35270E-06 1.83796E-19-9.04386E-19
 -1      3440 9.55910E-05-2.83062E-05-2.88376E-05 1.72261E-06 1.75410E-19-6.84333E-19
 -1      3441 9.55056E-05-2.82203E-05-2.88339E-05 1.83378E-06 2.56826E-19-6.31313E-19
 -1      3442 9.57479E-05-2.83032E-05-2.89055E-05 1.56245E-06 3.75591E-19-8.11398E-19
 -1      3443 9.53332E-05-2.80819E-05-2.88248E-05 1.93908E-06 1.36977E-19-5.33118E-19
 -1      3444 9.52333E-05-2.79446E-05-2.88348E-05 2.07234E-06 2.97707E-21-3.92619E-19
 -1      3445 9.54374E-05-2.80821E-05-2.88663E-05 1.76868E-06 2.34587E-19-5.12186E-19
 -1      3446 9.50267E-05-2.77521E-05-2.88364E-05 2.20553E-06-3.91958E-20-4.67068E-19
 -1      3447 9.49069E-05-2.75682E-05-2.88559E-05 2.37788E-06 4.06035E-20-2.71241E-19
 -1      3448 9.50634E-05-2.77354E-05-2.88535E-05 2.00872E-06 1.26975E-19-7.15831E-19
 -1      3449 9.46576E-05-2.73244E-05-2.88632E-05 2.55230E-06 1.03968E-20-2.83292E-19
 -1      3450 9.45099E-05-2.70963E-05-2.88879E-05 2.77733E-06-2.06727E-20-2.36739E-19
 -1      3451 9.46134E-05-2.72748E-05-2.88565E-05 2.31170E-06 1.10772E-19-3.57473E-19
 -1      3452 9.42056E-05-2.68018E-05-2.88952E-05 3.00348E-06-4.04718E-19-1.81190E-19
 -1      3453 9.40200E-05-2.65312E-05-2.89201E-05 3.29190E-06-6.79592E-19-1.19337E-19
 -1      3454 9.40670E-05-2.67057E-05-2.88644E-05 2.70007E-06-1.71162E-19-6.04536E-19
 -1      3455 9.36449E-05-2.61868E-05-2.89204E-05 3.57807E-06-8.32253E-19-3.25567E-19
 -1      3456 9.34100E-05-2.58770E-05-2.89392E-05 3.93816E-06-8.12521E-19-3.61516E-19
 -1      3457 9.33966E-05-2.60311E-05-2.88639E-05 3.19062E-06-7.89399E-19-7.56477E-19
 -1      3458 9.29456E-05-2.54861E-05-2.89234E-05 4.29143E-06-4.58976E-19-4.59988E-19
 -1      3459 9.26504E-05-2.51459E-05-2.89271E-05 4.72973E-06-5.17096E-19-2.25242E-19
 -1      3460 9.25683E-05-2.52558E-05-2.88383E-05 3.79604E-06-4.92955E-19-1.27495E-18
 -1      3461 9.20769E-05-2.47187E-05-2.88828E-05 5.15794E-06-5.38780E-19 1.63500E-19
 -1      3462 9.17148E-05-2.43681E-05-2.88591E-05 5.68087E-06 2.29741E-20-3.86142E-19
 -1      3463 9.15439E-05-2.43934E-05-2.87654E-05 4.52797E-06-3.41097E-19-5.48288E-19
 -1      3464 9.10135E-05-2.39282E-05-2.87694E-05 6.19684E-06 4.61556E-19-4.16482E-19
 -1      3465 9.05897E-05-2.36072E-05-2.87016E-05 6.81434E-06 3.79488E-19-2.95925E-19
 -1      3466 9.02843E-05-2.34754E-05-2.86150E-05 5.40335E-06 2.27800E-19-1.87038E-19
 -1      3467 8.97481E-05-2.32004E-05-2.85435E-05 7.44395E-06-3.12075E-19 8.13698E-20
 -1      3468 8.92944E-05-2.29830E-05-2.84099E-05 8.17674E-06-2.86314E-19-1.63862E-19
 -1      3469 8.87563E-05-2.25641E-05-2.83461E-05 6.45748E-06 1.61611E-19 1.41775E-20
 -1      3470 8.83144E-05-2.26914E-05-2.81533E-05 8.97374E-06 1.76532E-19-1.50884E-19
 -1      3471 8.79150E-05-2.27068E-05-2.79276E-05 9.86516E-06 4.49181E-19-2.77577E-19
 -1      3472 8.69438E-05-2.17725E-05-2.79040E-05 7.76838E-06 1.47818E-19 1.84232E-19
 -1      3473 8.68293E-05-2.26684E-05-2.75337E-05 1.09360E-05 5.54210E-19 3.51967E-20
 -1      3474 8.66660E-05-2.31352E-05-2.71894E-05 1.20665E-05 8.25559E-19 9.93795E-21
 -1      3475 8.48686E-05-2.12927E-05-2.72164E-05 9.49953E-06 6.03418E-19 4.20728E-19
 -1      3476 8.55765E-05-2.35790E-05-2.66100E-05 1.36001E-05 6.97679E-19-4.37307E-19
 -1      3477 8.60082E-05-2.48579E-05-2.61304E-05 1.50846E-05 1.88593E-19-2.34427E-19
 -1      3478 8.26346E-05-2.14526E-05-2.61892E-05 1.19663E-05 4.85294E-19-4.24142E-19
 -1      3479 8.51823E-05-2.61718E-05-2.53084E-05 1.73415E-05 9.70395E-20-5.53890E-19
 -1      3480 8.67623E-05-2.87973E-05-2.47029E-05 1.93066E-05 4.57047E-19-5.84863E-19
 -1      3481 8.05402E-05-2.28536E-05-2.46999E-05 1.56803E-05 2.21392E-19-1.25848E-18
 -1      3482 1.04373E-04-4.79073E-05-2.44604E-05 2.56883E-05 8.88511E-19-4.72936E-19
 -1      3483 1.09283E-04-1.48620E-05-4.06900E-05 1.00482E-06 8.97908E-19 1.63935E-18
 -1      3484 1.09811E-04-1.65129E-05-4.00971E-05-6.13220E-06 1.40983E-18 1.36440E-18
 -1      3485 1.28941E-04-5.83405E-05-2.98429E-05 1.25262E-05 1.46617E-18-5.59571E-19
 -1      3486 1.12977E-04-4.96838E-05-2.69370E-05-1.69539E-05-1.94967E-18-5.38471E-19
 -1      3487 1.19824E-04-5.13822E-05-2.95434E-05-8.54416E-06-9.19051E-19 7.87449E-19
 -1      3488 8.81484E-05-2.98386E-05-2.48717E-05-1.96302E-05 4.63532E-19-2.20671E-18
 -1      3489 8.62972E-05-2.68832E-05-2.54319E-05-1.77188E-05 1.56420E-19-2.96970E-18
 -1      3490 8.68959E-05-2.55115E-05-2.62332E-05-1.54694E-05 4.91714E-19-3.37011E-18
 -1      3491 8.63140E-05-2.41067E-05-2.66951E-05-1.40163E-05 8.14042E-19-2.88299E-18
 -1      3492 8.16139E-05-2.36342E-05-2.47886E-05-1.64088E-05 3.44273E-19-3.12486E-18
 -1      3493 8.72725E-05-2.35486E-05-2.72685E-05-1.24437E-05 1.04143E-18-2.75904E-18
 -1      3494 8.73294E-05-2.29954E-05-2.76058E-05-1.13116E-05 7.57216E-19-2.03436E-18
 -1      3495 8.32553E-05-2.19153E-05-2.62605E-05-1.25085E-05 8.90346E-19-3.02707E-18
 -1      3496 8.83468E-05-2.29681E-05-2.79989E-05-1.02050E-05 3.23595E-19-1.70440E-18
 -1      3497 8.86826E-05-2.28951E-05-2.82226E-05-9.29800E-06 5.86212E-19-1.42865E-18
 -1      3498 8.53069E-05-2.15799E-05-2.72838E-05-9.94200E-06 8.19795E-19-3.13510E-18
 -1      3499 8.96208E-05-2.31396E-05-2.84815E-05-8.46829E-06 1.02080E-18-1.22492E-18
 -1      3500 9.00313E-05-2.33106E-05-2.86168E-05-7.71233E-06 1.58452E-18-4.32458E-19
 -1      3501 8.72743E-05-2.19426E-05-2.79745E-05-8.13157E-06 7.09491E-19-1.95312E-18
 -1      3502 9.08429E-05-2.36752E-05-2.87803E-05-7.04919E-06 1.23596E-18 3.44796E-20
 -1      3503 9.12332E-05-2.39506E-05-2.88531E-05-6.40106E-06 8.53849E-19 4.92009E-19
 -1      3504 8.90155E-05-2.26400E-05-2.84257E-05-6.74739E-06 1.68092E-18-3.74944E-19
 -1      3505 9.19070E-05-2.43436E-05-2.89516E-05-5.84701E-06 1.25588E-19-4.55255E-19
 -1      3506 9.22423E-05-2.46421E-05-2.89841E-05-5.28603E-06 4.33247E-19-1.48239E-18
 -1      3507 9.04858E-05-2.34566E-05-2.87099E-05-5.61752E-06-4.75627E-19-8.27351E-19
 -1      3508 9.27902E-05-2.50160E-05-2.90409E-05-4.80129E-06 7.71805E-19-1.58300E-18
 -1      3509 9.30438E-05-2.52624E-05-2.90468E-05-4.33802E-06 7.74925E-19-2.58002E-18
 -1      3510 9.16745E-05-2.42553E-05-2.88824E-05-4.65224E-06-4.50761E-19-7.86815E-19
 -1      3511 9.34423E-05-2.56274E-05-2.90737E-05-3.59626E-06 2.14256E-18-3.07265E-18
 -1      3512 9.50599E-05-2.77310E-05-2.88501E-05-2.69477E-06-5.46996E-20-5.10562E-19
 -1      3513 9.50816E-05-2.78394E-05-2.88220E-05-2.50602E-06-5.10629E-20-8.73293E-19
 -1      3514 9.52153E-05-2.79795E-05-2.88108E-05-2.33938E-06 2.13022E-19-8.69212E-19
 -1      3515 9.52449E-05-2.80785E-05-2.87887E-05-2.19320E-06 3.07217E-19-2.34700E-19
 -1      3516 9.50233E-05-2.77691E-05-2.88233E-05-2.36880E-06 2.41586E-19-4.80542E-19
 -1      3517 9.47992E-05-2.72700E-05-2.89347E-05-3.71042E-06-1.71621E-19 1.96173E-19
 -1      3518 9.47800E-05-2.73448E-05-2.89055E-05-3.42333E-06 7.09540E-20-8.23458E-20
 -1      3519 9.47496E-05-2.71534E-05-2.89626E-05-4.37608E-06-3.70460E-20 4.65456E-19
 -1      3520 9.46837E-05-2.71698E-05-2.89390E-05-4.04497E-06 1.87796E-19 4.89972E-19
 -1      3521 9.42280E-05-2.68748E-05-2.88660E-05-3.85800E-06-2.12522E-19 2.79073E-19
 -1      3522 9.48255E-05-2.72126E-05-2.89687E-05-5.13044E-06-4.60198E-19 2.56480E-19
 -1      3523 9.46805E-05-2.71270E-05-2.89548E-05-4.76938E-06-4.66901E-19 6.87188E-20
 -1      3524 9.40379E-05-2.67220E-05-2.88515E-05-4.59129E-06-5.17236E-20 7.02718E-20
 -1      3525 9.51204E-05-2.75601E-05-2.89450E-05-5.93931E-06-1.43309E-19 4.58876E-19
 -1      3526 9.48473E-05-2.73127E-05-2.89441E-05-5.57412E-06-3.65442E-19 2.98991E-19
 -1      3527 9.39794E-05-2.67781E-05-2.88053E-05-5.44246E-06-5.95669E-19-1.16343E-19
 -1      3528 9.57742E-05-2.83437E-05-2.88882E-05-6.74075E-06-1.61164E-19 1.19926E-18
 -1      3529 9.53027E-05-2.78582E-05-2.89008E-05-6.41423E-06 5.06201E-20 9.91244E-19
 -1      3530 9.41634E-05-2.71750E-05-2.87193E-05-6.39272E-06-3.26206E-19 6.67423E-19
 -1      3531 9.69802E-05-2.97400E-05-2.88065E-05-7.42766E-06-4.05750E-19 1.28672E-18
 -1      3532 9.62195E-05-2.89295E-05-2.88267E-05-7.20834E-06-1.77879E-19 1.21967E-18
 -1      3533 9.47581E-05-2.80866E-05-2.85921E-05-7.39849E-06-2.17074E-19 1.23250E-18
 -1      3534 9.89806E-05-3.19234E-05-2.87306E-05-7.81669E-06-7.24788E-19 1.06474E-18
 -1      3535 9.78293E-05-3.07125E-05-2.87402E-05-7.81247E-06-4.46679E-19 1.04018E-18
 -1      3536 9.60034E-05-2.97240E-05-2.84374E-05-8.36714E-06-2.00626E-19 8.67152E-19
 -1      3537 1.02018E-04-3.49851E-05-2.87302E-05-7.60646E-06-9.05417E-19 7.09332E-19
 -1      3538 1.00403E-04-3.33592E-05-2.86908E-05-7.98042E-06-1.07542E-18 9.42604E-19
 -1      3539 9.82085E-05-3.22975E-05-2.82987E-05-9.10909E-06-7.36321E-19 2.36315E-19
 -1      3540 1.06244E-04-3.87294E-05-2.89445E-05-6.26358E-06-1.35070E-18 3.36583E-19
 -1      3541 1.04208E-04-3.68905E-05-2.87820E-05-7.28221E-06-1.04897E-18 7.07951E-19
 -1      3542 1.01745E-04-3.59678E-05-2.82704E-05-9.27971E-06-1.12942E-18 2.21203E-19
 -1      3543 1.11696E-04-4.24022E-05-2.96559E-05-2.98815E-06-4.55709E-19 7.06770E-19
 -1      3544 1.09281E-04-4.08899E-05-2.92122E-05-5.17072E-06-1.04974E-18 4.55740E-19
 -1      3545 1.06820E-04-4.02708E-05-2.85575E-05-8.17479E-06-9.40147E-19-2.36608E-19
 -1      3546 1.16664E-04-4.59052E-05-3.03310E-05-1.75366E-06-4.12134E-20 3.47088E-19
 -1      3547 1.14357E-04-4.51689E-05-2.95643E-05-4.45685E-06-4.72208E-19 3.77757E-19
 -1      3548 1.18675E-04-3.36255E-05-3.65705E-05 1.19342E-05-7.69371E-19 1.68020E-18
 -1      3549 1.20530E-04-3.91505E-05-3.52035E-05 1.11808E-05-5.22249E-19 1.15638E-18
 -1      3550 1.12505E-04-1.97938E-05-3.98324E-05 9.92338E-06 5.81276E-20 1.88456E-18
 -1      3551 1.14832E-04-2.54417E-05-3.87063E-05 1.26541E-05-4.56815E-19 1.88066E-18
 -1      3552 1.09931E-04-1.64950E-05-4.03511E-05 5.98094E-06 3.17293E-19 1.61910E-18
 -1      3553 1.11517E-04-2.06299E-05-3.93176E-05-1.01247E-05 1.85410E-18 1.40384E-18
 -1      3554 1.18984E-04-4.13562E-05-3.34878E-05-8.71581E-06 1.02891E-18 1.97613E-18
 -1      3555 1.18240E-04-3.75872E-05-3.46674E-05-1.05215E-05 1.77647E-18 1.70088E-18
 -1      3556 1.18993E-04-4.65611E-05-3.10203E-05-3.68218E-07 3.90403E-19 8.73145E-19
 -1      3557 1.20187E-04-4.54170E-05-3.20815E-05-3.37145E-06 6.13715E-19 1.11445E-18
 -1      3558 1.06435E-04-3.87523E-05-2.89233E-05 6.61978E-06 1.87172E-19 1.62856E-18
 -1      3559 1.08776E-04-4.05987E-05-2.91927E-05 5.07938E-06 2.87098E-19 1.16520E-18
 -1      3560 1.02039E-04-3.49287E-05-2.87087E-05 7.87287E-06-4.18034E-19 9.11649E-19
 -1      3561 1.03872E-04-3.66940E-05-2.87926E-05 7.22828E-06 2.01633E-19 1.53235E-18
 -1      3562 1.03912E-04-3.79390E-05-2.83508E-05 9.05725E-06 2.48637E-19 1.82498E-18
 -1      3563 9.89260E-05-3.18519E-05-2.87143E-05 8.05095E-06-1.97450E-19-7.82112E-20
 -1      3564 1.00286E-04-3.32651E-05-2.87186E-05 7.90150E-06-3.65010E-19 6.35413E-19
 -1      3565 9.97221E-05-3.38990E-05-2.82713E-05 9.36522E-06 1.49187E-19-3.16493E-19
 -1      3566 9.69063E-05-2.96669E-05-2.87997E-05 7.60873E-06-3.29651E-19-2.19830E-18
 -1      3567 9.78353E-05-3.06642E-05-2.87775E-05 7.74651E-06 1.17763E-19-7.00722E-19
 -1      3568 9.69454E-05-3.08166E-05-2.83810E-05 8.83896E-06 2.86225E-19-1.25037E-18
 -1      3569 9.57012E-05-2.82635E-05-2.88944E-05 6.86927E-06-1.13440E-18-2.42872E-18
 -1      3570 9.62950E-05-2.89031E-05-2.88715E-05 7.16381E-06-1.05380E-18-2.52600E-18
 -1      3571 9.53008E-05-2.87501E-05-2.85459E-05 7.93867E-06-8.36689E-20-1.50684E-18
 -1      3572 9.50522E-05-2.74556E-05-2.89684E-05 6.01314E-06-6.63459E-19-1.71412E-18
 -1      3573 9.54101E-05-2.78256E-05-2.89551E-05 6.38232E-06-5.22035E-19-2.50591E-18
 -1      3574 9.44384E-05-2.74967E-05-2.87028E-05 6.92129E-06-6.89740E-19-1.18374E-18
 -1      3575 9.47568E-05-2.70586E-05-2.90149E-05 5.14261E-06 3.79523E-20-4.43877E-19
 -1      3576 9.49602E-05-2.72453E-05-2.90124E-05 5.53502E-06-4.84186E-19-1.52491E-18
 -1      3577 9.40809E-05-2.68338E-05-2.88271E-05 5.91055E-06-6.92818E-19-1.63850E-18
 -1      3578 9.46704E-05-2.69161E-05-2.90378E-05 4.31029E-06 8.48979E-19-2.48903E-18
 -1      3579 9.47763E-05-2.69913E-05-2.90436E-05 4.69408E-06 3.54853E-19-1.67195E-18
 -1      3580 9.40197E-05-2.65585E-05-2.89158E-05 4.96647E-06 2.96905E-19-1.27982E-18
 -1      3581 8.81830E-05-3.65019E-05-2.22525E-05 2.69048E-05-8.82608E-19 1.96498E-18
 -1      3582 7.44900E-05-2.70258E-05-1.99782E-05 2.55998E-05-1.46729E-18 1.94405E-18
 -1      3583 9.47342E-05-2.28510E-05-3.08016E-05-3.40034E-06-5.82101E-19-1.40809E-18
 -1      3584 9.52172E-05-2.42781E-05-3.04178E-05-2.22236E-06-4.27261E-19-1.28144E-18
 -1      3585 5.34844E-05-1.28893E-05-1.72552E-05 5.35003E-06 2.52131E-19 9.07596E-19
 -1      3586 5.40859E-05-1.31097E-05-1.73682E-05-4.40639E-06-5.49182E-20 2.12182E-19
 -1      3587 6.08855E-05-1.48531E-05-1.94774E-05 7.42710E-06 2.46040E-19 1.36881E-18
 -1      3588 9.49145E-05-2.74814E-05-2.88942E-05-3.14917E-06 2.29869E-19-5.02063E-19
 -1      3589 9.49217E-05-2.75838E-05-2.88637E-05-2.91169E-06 1.30054E-19-4.19613E-19
 -1      3590 9.47527E-05-2.74549E-05-2.88417E-05-2.75491E-06-6.67505E-20-6.59241E-19
 -1      3591 9.44800E-05-2.71413E-05-2.88592E-05-3.24738E-06-6.29437E-20-1.16250E-19
 -1      3592 9.56579E-05-2.84503E-05-2.88012E-05-1.65962E-06 3.96732E-19-9.89121E-20
 -1      3593 9.56968E-05-2.84481E-05-2.88197E-05-1.55588E-06 3.84415E-19-2.22977E-19
 -1      3594 1.07618E-04-5.14713E-05-2.39020E-05-2.69152E-05 2.07978E-18-1.98668E-18
 -1      3595 1.17114E-04-5.68592E-05-2.53393E-05-2.50039E-05 1.24154E-18-2.29301E-18
 -1      3596 7.73924E-05-3.14677E-05-1.91669E-05-2.89647E-05 1.49896E-18-2.44581E-18
 -1      3597 8.98415E-05-3.96436E-05-2.15845E-05-2.92346E-05 1.99958E-18-2.79897E-18
 -1      3598 9.48331E-05-3.95045E-05-2.35359E-05-2.51489E-05 1.98028E-18-2.91705E-18
 -1      3599 9.06052E-05-3.42667E-05-2.39779E-05-2.30179E-05 1.34396E-18-2.23449E-18
 -1      3600 9.22742E-05-1.80762E-05-3.18111E-05-9.99187E-07 2.29940E-19-1.50159E-18
 -1      3601 9.23848E-05-1.82653E-05-3.17795E-05-1.75031E-06 4.40878E-20-1.58389E-18
 -1      3602 9.33483E-05-1.99211E-05-3.14575E-05-1.73355E-06 3.81822E-20-1.53802E-18
 -1      3603 1.36433E-04-5.90942E-05-3.36245E-05 1.88710E-06 4.84556E-19 1.74245E-18
 -1      3604 8.63695E-05-3.07316E-05-2.37865E-05 2.18692E-05 8.45418E-19-7.60966E-19
 -1      3605 9.06581E-05-3.56719E-05-2.34114E-05 2.39511E-05 1.68904E-18-5.14506E-19
 -1      3606 7.87612E-05-3.01350E-05-2.06481E-05 2.64188E-05 9.50821E-19-2.15183E-18
 -1      3607 7.91576E-05-2.57420E-05-2.28380E-05 2.04980E-05 8.10379E-19-1.62879E-18
 -1      3608 9.60253E-05-2.67816E-05-2.96672E-05-3.26118E-07-3.30473E-19-8.34741E-19
 -1      3609 9.60675E-05-2.72468E-05-2.95015E-05 1.19123E-07-3.63445E-19-7.44709E-19
 -1      3610 9.62242E-05-2.72510E-05-2.95600E-05 1.80959E-07-3.11719E-19-5.78788E-19
 -1      3611 1.26070E-04-1.95499E-05-4.63619E-05-1.15038E-05-2.61776E-18 1.24381E-19
 -1      3612 1.00201E-04-4.46116E-05-2.34417E-05-2.65209E-05 2.00416E-18-2.54621E-18
 -1      3613 1.01533E-04-4.45693E-05-2.43727E-05-2.40198E-05-1.61758E-18-9.61124E-19
 -1      3614 1.08423E-04-4.83143E-05-2.58427E-05-2.10371E-05-1.83938E-18-8.76540E-19
 -1      3615 1.11368E-04-4.74400E-05-2.73160E-05-1.47155E-05-1.85772E-18-5.92824E-19
 -1      3616 1.16556E-04-2.70900E-05-3.84234E-05-1.25567E-05 2.06549E-18 7.75465E-19
 -1      3617 9.56908E-05-2.54321E-05-3.00967E-05-1.41664E-06-3.27478E-19-1.11076E-18
 -1      3618 9.58381E-05-2.61658E-05-2.98708E-05-7.79284E-07-2.66046E-19-1.02029E-18
 -1      3619 9.59753E-05-2.61578E-05-2.99200E-05-6.06873E-07-2.10623E-19-7.43448E-19
 -1      3620 1.23032E-04-3.80064E-05-3.66138E-05-1.12007E-05 1.22727E-18 1.12089E-18
 -1      3621 1.26101E-04-4.52265E-05-3.45938E-05-7.09038E-06 7.32022E-19-9.19560E-20
 -1      3622 1.18917E-04-3.33664E-05-3.68901E-05-1.29199E-05 1.91161E-18 6.84681E-19
 -1      3623 9.28494E-05-2.51551E-05-2.90111E-05-3.68236E-06 1.35271E-18-1.69781E-18
 -1      3624 9.58956E-05-2.72488E-05-2.94265E-05-4.27159E-08 4.22052E-19-3.88197E-19
 -1      3625 9.58773E-05-2.67996E-05-2.95945E-05 4.45553E-07 4.58750E-19-4.30287E-19
 -1      3626 1.17690E-04-5.16437E-05-2.82437E-05 1.34081E-05 2.37414E-19-1.10060E-18
 -1      3627 1.10964E-04-4.77945E-05-2.70947E-05 1.59107E-05 1.52109E-19 5.56980E-19
 -1      3628 1.18997E-04-4.98461E-05-2.96328E-05 6.95883E-06 8.41908E-19 2.95826E-19
 -1      3629 7.32678E-05-2.55175E-05-2.03515E-05 2.32644E-05 1.02641E-18-2.31719E-18
 -1      3630 9.41021E-05-2.14327E-05-3.11585E-05 1.73405E-06 7.49431E-19-1.21349E-18
 -1      3631 9.39635E-05-2.11366E-05-3.12191E-05 1.22594E-06 6.66244E-19-1.28600E-18
 -1      3632 8.23142E-05-2.91720E-05-2.28773E-05-2.29264E-05 1.02236E-18-3.33143E-18
 -1      3633 9.46106E-05-2.22779E-05-3.09814E-05 8.07652E-07 5.66740E-19-1.19268E-18
 -1      3634 9.38765E-05-2.09609E-05-3.12613E-05 7.95100E-07 5.51952E-19-1.35192E-18
 -1      3635 9.38278E-05-2.08583E-05-3.12814E-05 2.43511E-07 4.46131E-19-1.34624E-18
 -1      3636 9.53703E-05-2.81982E-05-2.87842E-05-2.06647E-06 2.25013E-19-2.24415E-20
 -1      3637 9.54044E-05-2.82755E-05-2.87715E-05-1.95199E-06 2.82923E-19 1.28229E-19
 -1      3638 9.52804E-05-2.80502E-05-2.88135E-05-2.07071E-06 5.34545E-19-3.40819E-19
 -1      3639 9.56374E-05-2.82296E-05-2.88935E-05-1.15931E-06 2.00308E-19-9.50472E-20
 -1      3640 9.55562E-05-2.84071E-05-2.87787E-05-1.75266E-06 4.83827E-19 9.30937E-20
 -1      3641 9.57313E-05-2.84040E-05-2.88562E-05-1.63111E-06 2.66711E-19-2.93827E-19
 -1      3642 9.55191E-05-2.83631E-05-2.87781E-05-1.85119E-06 2.20100E-19 1.22179E-19
 -1      3643 1.23980E-04-4.71694E-05-3.28246E-05-3.29378E-06 1.10039E-18 8.44995E-19
 -1      3644 9.57811E-05-2.84310E-05-2.88636E-05-1.44751E-06 4.08090E-19-3.72462E-19
 -1      3645 9.58202E-05-2.83656E-05-2.89059E-05-1.31075E-06 1.28595E-19-3.93110E-19
 -1      3646 9.59138E-05-2.84185E-05-2.89286E-05-1.41527E-06 1.21884E-19-7.95072E-19
 -1      3647 9.48558E-05-2.70541E-05-2.90681E-05 3.34649E-06 1.74289E-18-2.17600E-18
 -1      3648 1.21186E-04-4.71155E-05-3.16558E-05 1.78682E-06 2.87594E-20 7.69635E-19
 -1      3649 1.21804E-04-4.50080E-05-3.29458E-05 4.59243E-06-6.25706E-19 1.12348E-18
 -1      3650 1.14896E-04-4.54357E-05-2.97995E-05 3.37266E-06 4.85857E-19 1.63644E-19
 -1      3651 1.12452E-04-4.41773E-05-2.92315E-05 5.62455E-06 5.58109E-19 3.39510E-19
 -1      3652 7.27186E-05-2.35316E-05-2.08256E-05 2.00299E-05-2.68801E-19 1.11132E-18
 -1      3653 9.46060E-05-2.68371E-05-2.90389E-05 3.98795E-06 1.88481E-18-2.91699E-18
 -1      3654 9.39745E-05-2.64255E-05-2.89565E-05 4.17428E-06 1.46114E-18-3.82630E-18
 -1      3655 9.44768E-05-2.67430E-05-2.90248E-05 3.69337E-06 1.66556E-18-3.29956E-18
 -1      3656 9.50952E-05-3.97102E-05-2.35149E-05 2.50964E-05-1.38252E-19 1.17158E-18
 -1      3657 8.81787E-05-3.41916E-05-2.32009E-05 2.35894E-05 3.96034E-19 2.94314E-18
 -1      3658 1.00633E-04-4.21695E-05-2.49929E-05 2.13563E-05 4.09130E-19 1.00669E-18
 -1      3659 9.53189E-05-2.42719E-05-3.04471E-05-1.86411E-06-2.70251E-19-1.17633E-18
 -1      3660 9.16311E-05-2.43035E-05-2.88491E-05-2.20521E-06 5.12686E-19 2.40168E-18
 -1      3661 9.19015E-05-2.44964E-05-2.88869E-05-1.73375E-06-9.64244E-20 3.48957E-18
 -1      3662 9.17054E-05-2.43743E-05-2.88629E-05-1.16265E-06-4.80275E-19 2.68426E-18
 -1      3663 9.29727E-05-2.55386E-05-2.89091E-05 2.78892E-06 5.82757E-19 2.43359E-19
 -1      3664 9.34098E-05-2.58783E-05-2.89367E-05 3.07871E-06 8.13207E-20 5.99970E-19
 -1      3665 9.17278E-05-2.44768E-05-2.88295E-05 8.01506E-07 1.84724E-19-2.86405E-19
 -1      3666 9.19161E-05-2.46312E-05-2.88348E-05 1.35419E-06 1.01055E-18-1.57709E-18
 -1      3667 6.01707E-05-1.40095E-05-1.96452E-05-3.57558E-06 7.43354E-19 5.05943E-19
 -1      3668 5.66014E-05-1.40593E-05-1.78940E-05-8.16575E-06-7.77351E-20 5.66400E-19
 -1      3669 6.00314E-05-1.62157E-05-1.88234E-05-1.30865E-05-1.02594E-19-2.57604E-19
 -1      3670 9.16103E-05-2.43277E-05-2.88398E-05-4.70973E-07-8.64600E-19 9.51866E-19
 -1      3671 9.16118E-05-2.43452E-05-2.88306E-05 1.27644E-07-8.24136E-19 5.67011E-19
 -1      3672 9.12199E-05-2.41208E-05-2.87493E-05 5.64232E-07-8.78815E-20-1.20634E-18
 -1      3673 9.11980E-05-2.40323E-05-2.87749E-05-8.45168E-07-9.02402E-22 1.51317E-18
 -1      3674 9.59292E-05-2.79001E-05-2.91590E-05-7.18975E-07 1.65592E-19-2.08474E-19
 -1      3675 9.59500E-05-2.76258E-05-2.92735E-05-3.98459E-07 3.33632E-19-3.74319E-19
 -1      3676 9.60827E-05-2.72416E-05-2.95051E-05-1.14231E-07 3.10229E-19-4.00870E-19
 -1      3677 9.43497E-05-2.19505E-05-3.10141E-05-3.71295E-06-5.72682E-19-1.41137E-18
 -1      3678 9.34493E-05-2.59611E-05-2.89182E-05 3.55572E-06 9.15749E-19-1.52105E-18
 -1      3679 9.38436E-05-2.62503E-05-2.89767E-05 3.36205E-06 3.25007E-19-2.63411E-18
 -1      3680 9.57293E-05-2.63155E-05-2.97576E-05 8.91630E-07 6.03695E-19-5.13963E-19
 -1      3681 9.56588E-05-2.57779E-05-2.99339E-05 1.49448E-06 7.39846E-19-5.17076E-19
 -1      3682 9.58757E-05-2.62774E-05-2.98293E-05 7.15009E-07 3.82007E-19-6.23035E-19
 -1      3683 9.51544E-05-2.40873E-05-3.04473E-05 3.11408E-06 8.74335E-19-5.29018E-19
 -1      3684 9.48387E-05-2.32364E-05-3.06940E-05 3.30930E-06 9.47089E-19-7.19163E-19
 -1      3685 9.45871E-05-2.25739E-05-3.08665E-05 3.05546E-06 9.05671E-19-6.97713E-19
 -1      3686 9.53320E-05-2.48843E-05-3.02037E-05 2.27304E-06 8.11854E-19-5.07119E-19
 -1      3687 5.79838E-05-1.74195E-05-1.70132E-05 1.72001E-05 1.77533E-19-2.61956E-18
 -1      3688 5.71033E-05-1.50460E-05-1.79339E-05 1.13839E-05 1.27617E-19-1.81292E-18
 -1      3689 6.54925E-05-2.03459E-05-1.91230E-05 1.89821E-05 6.43657E-19-2.38530E-18
 -1      3690 7.26316E-05-2.61835E-05-1.95701E-05-2.37206E-05 1.21944E-18-2.10996E-18
 -1      3691 4.98107E-05-1.21744E-05-1.56412E-05-4.68058E-06-6.33144E-19-1.07578E-18
 -1      3692 5.44297E-05-1.42449E-05-1.71434E-05-1.06215E-05-6.85620E-19-1.11364E-18
 -1      3693 5.31695E-05-1.28628E-05-1.70879E-05 9.07099E-07 5.08187E-20-1.10649E-18
 -1      3694 9.31592E-05-1.95491E-05-3.15318E-05-5.73686E-07 2.43486E-19-1.31337E-18
 -1      3695 6.75436E-05-2.37296E-05-1.83958E-05-2.52867E-05-9.58577E-19-8.13258E-19
 -1      3696 7.65950E-05-2.82368E-05-2.06629E-05-2.49720E-05-1.42901E-18-3.47019E-19
 -1      3697 6.29719E-05-1.99114E-05-1.83360E-05-2.00842E-05-1.08447E-18-7.78926E-19
 -1      3698 9.03299E-05-3.62016E-05-2.31721E-05-2.43112E-05-1.56524E-18-9.74803E-19
 -1      3699 9.65497E-05-4.09967E-05-2.36741E-05-2.51027E-05-1.67869E-18-1.06653E-18
 -1      3700 1.02316E-04-4.23937E-05-2.56158E-05-1.96106E-05-1.73965E-18-3.18484E-19
 -1      3701 1.10045E-04-4.39677E-05-2.83729E-05 9.64289E-06-8.83528E-20 5.37959E-19
 -1      3702 9.43766E-05-2.20473E-05-3.09921E-05-3.02666E-06-3.36186E-19-1.14007E-18
 -1      3703 9.41488E-05-2.15756E-05-3.11166E-05-2.64616E-06-3.05945E-19-1.01666E-18
 -1      3704 9.45643E-05-2.24070E-05-3.09202E-05-2.39104E-06-2.29368E-19-1.10615E-18
 -1      3705 9.39368E-05-2.10841E-05-3.12198E-05-2.20561E-06-1.40728E-19-1.26981E-18
 -1      3706 9.42585E-05-2.17713E-05-3.10710E-05 2.10148E-06 6.86932E-19-1.07093E-18
 -1      3707 9.48178E-05-2.27914E-05-3.08502E-05 1.51599E-06 6.70223E-19-1.06067E-18
 -1      3708 9.44688E-05-2.22465E-05-3.09652E-05 2.51428E-06 8.27036E-19-8.20228E-19
 -1      3709 7.10966E-05-2.16414E-05-2.09232E-05-1.90952E-05 6.13798E-19-2.45432E-18
 -1      3710 9.62875E-05-2.68899E-05-2.97371E-05-4.54879E-08-1.12375E-19-7.19856E-19
 -1      3711 9.63535E-05-2.73465E-05-2.95801E-05 2.85841E-07-3.16518E-19-7.59108E-19
 -1      3712 9.63490E-05-2.81689E-05-2.92177E-05 8.73751E-07-1.70968E-19-4.04484E-19
 -1      3713 9.62769E-05-2.82902E-05-2.91384E-05 1.03177E-06-4.42332E-20-5.14757E-19
 -1      3714 9.61653E-05-2.83473E-05-2.90640E-05 1.13492E-06 7.19733E-20-5.41179E-19
 -1      3715 9.60542E-05-2.83584E-05-2.90123E-05 1.25310E-06 2.44220E-19-5.87395E-19
 -1      3716 9.63145E-05-2.82633E-05-2.91647E-05 9.33569E-07-3.30740E-20-4.71946E-19
 -1      3717 9.58893E-05-2.83118E-05-2.89624E-05 1.33577E-06 4.52330E-19-6.55096E-19
 -1      3718 9.57467E-05-2.82359E-05-2.89321E-05 1.43931E-06 5.24202E-19-5.38521E-19
 -1      3719 9.60406E-05-2.82887E-05-2.90363E-05 1.12785E-06 3.65069E-19-4.90543E-19
 -1      3720 9.55356E-05-2.81056E-05-2.89006E-05 1.51988E-06 4.57614E-19-3.71412E-19
 -1      3721 9.53627E-05-2.79582E-05-2.88861E-05 1.62905E-06 3.56126E-19-2.73709E-19
 -1      3722 9.56685E-05-2.81147E-05-2.89508E-05 1.29588E-06 5.60085E-19-6.20875E-19
 -1      3723 9.51055E-05-2.77569E-05-2.88671E-05 1.72192E-06 2.04402E-19-4.15689E-19
 -1      3724 9.48980E-05-2.75470E-05-2.88631E-05 1.85237E-06 5.94614E-20-2.65100E-19
 -1      3725 9.52055E-05-2.77766E-05-2.88962E-05 1.46909E-06 3.12694E-19-2.41920E-19
 -1      3726 9.45886E-05-2.72814E-05-2.88509E-05 1.96831E-06-1.76760E-20-3.02958E-19
 -1      3727 9.43381E-05-2.70139E-05-2.88519E-05 2.13200E-06-3.66963E-20-3.49083E-19
 -1      3728 9.46456E-05-2.72961E-05-2.88607E-05 1.67086E-06 5.82569E-20-7.15158E-20
 -1      3729 9.39651E-05-2.66874E-05-2.88399E-05 2.27873E-06-3.03105E-19-4.38710E-19
 -1      3730 9.36592E-05-2.63646E-05-2.88397E-05 2.48424E-06-3.00964E-19-5.93102E-19
 -1      3731 9.39715E-05-2.66853E-05-2.88318E-05 1.91801E-06-1.20527E-19-1.57184E-19
 -1      3732 9.32067E-05-2.59786E-05-2.88204E-05 2.66654E-06-5.00626E-19-5.52944E-19
 -1      3733 9.28296E-05-2.56026E-05-2.88116E-05 2.91958E-06-8.78212E-19-5.17162E-19
 -1      3734 9.31565E-05-2.59506E-05-2.87949E-05 2.22079E-06-3.43399E-19-5.19934E-19
 -1      3735 9.22767E-05-2.51587E-05-2.87754E-05 3.13999E-06-7.91580E-19-3.30297E-19
 -1      3736 9.18097E-05-2.47335E-05-2.87481E-05 3.44438E-06-5.44607E-19-5.28808E-19
 -1      3737 9.21645E-05-2.50964E-05-2.87328E-05 2.58344E-06-7.12086E-19-1.56690E-19
 -1      3738 9.11310E-05-2.42360E-05-2.86826E-05 3.70466E-06-2.43796E-19-7.02390E-19
 -1      3739 9.05536E-05-2.37708E-05-2.86236E-05 4.06428E-06-2.68896E-20-4.30412E-19
 -1      3740 9.09501E-05-2.41293E-05-2.86230E-05 3.00630E-06-5.48375E-19 2.76352E-19
 -1      3741 8.97180E-05-2.32299E-05-2.85119E-05 4.36837E-06 2.72331E-19-5.48325E-19
 -1      3742 8.90103E-05-2.27435E-05-2.84034E-05 4.79153E-06 5.65553E-19-2.74304E-19
 -1      3743 8.94576E-05-2.30621E-05-2.84358E-05 3.48974E-06 1.43163E-19-5.95752E-19
 -1      3744 8.79789E-05-2.21787E-05-2.82227E-05 5.15183E-06 6.28476E-19-2.59380E-19
 -1      3745 8.71257E-05-2.17058E-05-2.80406E-05 5.65983E-06 2.48562E-19-2.07114E-19
 -1      3746 8.76186E-05-2.19190E-05-2.81310E-05 4.04285E-06 5.66532E-19-6.05725E-19
 -1      3747 8.58482E-05-2.11503E-05-2.77589E-05 6.10884E-06 2.29442E-19 2.88726E-19
 -1      3748 8.48459E-05-2.07501E-05-2.74708E-05 6.75151E-06 6.10166E-19 3.62897E-19
 -1      3749 8.53456E-05-2.07400E-05-2.76532E-05 4.70057E-06 6.28723E-19-5.29224E-19
 -1      3750 8.32512E-05-2.02557E-05-2.70432E-05 7.36206E-06 4.64673E-19 4.00688E-19
 -1      3751 8.21208E-05-2.00243E-05-2.66061E-05 8.24339E-06 4.97260E-19 2.07047E-19
 -1      3752 8.25197E-05-1.95842E-05-2.69245E-05 5.55393E-06 5.47841E-19 1.79422E-19
 -1      3753 8.00994E-05-1.96652E-05-2.59655E-05 9.17091E-06 6.93624E-20-1.68343E-19
 -1      3754 7.89339E-05-1.97780E-05-2.53221E-05 1.04892E-05-4.56918E-20-6.07149E-19
 -1      3755 7.89610E-05-1.85278E-05-2.58301E-05 6.80642E-06-2.47665E-19-2.20103E-19
 -1      3756 7.63140E-05-1.96560E-05-2.43571E-05 1.20526E-05-2.30293E-19-1.22643E-18
 -1      3757 7.52822E-05-2.04677E-05-2.34027E-05 1.41634E-05-3.52491E-19-1.73020E-18
 -1      3758 7.43554E-05-1.76883E-05-2.41853E-05 8.84922E-06-5.52261E-19-8.39928E-19
 -1      3759 9.59071E-05-2.55879E-05-3.01330E-05-8.22524E-07-1.05355E-19-7.14375E-19
 -1      3760 9.60970E-05-2.62927E-05-2.99245E-05-3.55258E-07-6.02450E-20-7.55901E-19
 -1      3761 9.62137E-05-2.63563E-05-2.99350E-05-2.25530E-07-1.00439E-19-6.73046E-19
 -1      3762 9.20287E-05-2.45893E-05-2.89162E-05-3.52327E-06 8.24309E-19 7.16485E-20
 -1      3763 7.94346E-05-2.02109E-05-2.53652E-05-1.11371E-05 8.06271E-19-2.21883E-18
 -1      3764 8.05224E-05-1.99913E-05-2.60088E-05-9.75004E-06 1.08044E-18-2.52734E-18
 -1      3765 8.24960E-05-2.02750E-05-2.66567E-05-8.75072E-06 6.22213E-19-2.34918E-18
 -1      3766 8.35608E-05-2.04448E-05-2.70950E-05-7.82216E-06 2.88954E-19-2.45968E-18
 -1      3767 7.92442E-05-1.87376E-05-2.58561E-05-7.41888E-06 7.53644E-19-1.74514E-18
 -1      3768 8.51334E-05-2.08950E-05-2.75301E-05-7.15626E-06 9.64204E-19-2.91742E-18
 -1      3769 8.60939E-05-2.12482E-05-2.78222E-05-6.47318E-06 1.73349E-18-1.75520E-18
 -1      3770 8.27300E-05-1.96944E-05-2.69676E-05-6.01584E-06 3.96176E-19-2.30065E-18
 -1      3771 8.73573E-05-2.17662E-05-2.81129E-05-5.98160E-06 1.92718E-18-1.63191E-18
 -1      3772 8.81802E-05-2.21948E-05-2.83019E-05-5.43531E-06 1.42184E-18-1.27424E-18
 -1      3773 8.55259E-05-2.07768E-05-2.77147E-05-5.05866E-06 2.01687E-18-2.57613E-18
 -1      3774 8.91966E-05-2.27175E-05-2.84939E-05-5.03677E-06 1.63750E-19-4.22830E-19
 -1      3775 8.98754E-05-2.31526E-05-2.86123E-05-4.57306E-06-1.03672E-18-3.78969E-19
 -1      3776 8.77725E-05-2.18784E-05-2.82143E-05-4.31704E-06 1.14121E-18-1.91626E-18
 -1      3777 9.06930E-05-2.36432E-05-2.87381E-05-4.23403E-06-1.15552E-18 5.75241E-19
 -1      3778 9.12328E-05-2.40345E-05-2.88109E-05-3.83331E-06-4.71907E-22-1.20811E-19
 -1      3779 8.95806E-05-2.29285E-05-2.85458E-05-3.68800E-06-1.03108E-18 5.04790E-19
 -1      3780 9.48278E-05-2.75499E-05-2.88296E-05-2.29304E-06 1.64716E-19-2.92104E-19
 -1      3781 9.49625E-05-2.77145E-05-2.88245E-05-2.12474E-06 5.71654E-19-1.75293E-19
 -1      3782 9.58783E-05-2.82664E-05-2.89777E-05-1.15776E-06 3.44790E-20-1.76129E-19
 -1      3783 9.59134E-05-2.81140E-05-2.90512E-05-9.52103E-07 1.30804E-19-1.97615E-19
 -1      3784 9.61231E-05-2.79083E-05-2.92372E-05-7.27650E-07 1.91861E-19-2.14571E-19
 -1      3785 9.33230E-05-2.62286E-05-2.87466E-05-4.61886E-06-3.21364E-19 1.60780E-19
 -1      3786 9.33934E-05-2.62875E-05-2.87664E-05-4.22491E-06 1.26592E-19 1.64735E-19
 -1      3787 9.36607E-05-2.64446E-05-2.88005E-05-3.84062E-06 9.17297E-21 2.69079E-19
 -1      3788 9.37774E-05-2.65787E-05-2.88059E-05-3.50924E-06-2.18921E-19 3.11978E-19
 -1      3789 9.29536E-05-2.59699E-05-2.87054E-05-3.85425E-06 2.01244E-20 8.18005E-20
 -1      3790 9.31494E-05-2.66107E-05-2.85020E-05-6.62305E-06-4.49323E-19 2.47093E-19
 -1      3791 9.29673E-05-2.63274E-05-2.85646E-05-6.11652E-06-5.91919E-19 3.49734E-19
 -1      3792 9.36211E-05-2.75442E-05-2.82991E-05-7.83631E-06 2.78898E-20 8.48670E-20
 -1      3793 9.31738E-05-2.69476E-05-2.83834E-05-7.29940E-06 4.68469E-20 1.18696E-19
 -1      3794 9.19080E-05-2.60707E-05-2.82249E-05-7.02060E-06-9.95467E-20-9.09414E-20
 -1      3795 9.48008E-05-2.92790E-05-2.80559E-05-9.13051E-06-1.69302E-19 3.28033E-19
 -1      3796 9.39437E-05-2.82432E-05-2.81502E-05-8.61297E-06 1.74763E-19 4.01074E-19
 -1      3797 9.22054E-05-2.70768E-05-2.79321E-05-8.53938E-06 9.05566E-20-4.45973E-19
 -1      3798 9.70571E-05-3.20848E-05-2.78198E-05-1.03557E-05-9.51658E-19 1.23297E-19
 -1      3799 9.56179E-05-3.04813E-05-2.78930E-05-9.96150E-06-3.46483E-19 4.78291E-19
 -1      3800 9.32631E-05-2.89895E-05-2.75843E-05-1.02890E-05-2.68598E-19-6.32636E-20
 -1      3801 1.00744E-04-3.61509E-05-2.76841E-05-1.12299E-05-1.09726E-18-3.05875E-19
 -1      3802 9.86171E-05-3.38652E-05-2.76859E-05-1.10886E-05-1.22545E-18-2.83454E-19
 -1      3803 9.55492E-05-3.21550E-05-2.72367E-05-1.21284E-05-7.40252E-19-4.03719E-19
 -1      3804 1.12083E-04-4.55294E-05-2.85879E-05-9.02628E-06-9.77641E-19-5.26901E-19
 -1      3805 1.06947E-04-4.42683E-05-2.67153E-05-1.61381E-05-1.49068E-18-8.84876E-19
 -1      3806 1.09986E-04-4.54424E-05-2.76561E-05-1.24950E-05-1.13607E-18-1.08015E-18
 -1      3807 1.07939E-04-4.26604E-05-2.80142E-05-1.06227E-05-7.09721E-19-8.03192E-19
 -1      3808 1.01920E-04-4.10279E-05-2.60717E-05-1.75744E-05-1.26735E-18-7.94500E-19
 -1      3809 1.00750E-04-3.60690E-05-2.76584E-05 1.14499E-05 4.54111E-19 3.32451E-19
 -1      3810 1.03330E-04-3.83887E-05-2.77670E-05 1.11290E-05-2.30459E-19 3.48958E-19
 -1      3811 9.35256E-05-2.74545E-05-2.83136E-05 7.96432E-06-7.58501E-19-1.44413E-18
 -1      3812 9.41406E-05-2.82515E-05-2.82163E-05 8.50548E-06-3.37690E-19-1.67436E-18
 -1      3813 9.30907E-05-2.65111E-05-2.85367E-05 6.70053E-06-7.15026E-19-8.79466E-19
 -1      3814 9.33823E-05-2.69482E-05-2.84551E-05 7.23510E-06-5.58708E-19-1.32402E-18
 -1      3815 9.20728E-05-2.64415E-05-2.81408E-05 7.75361E-06-6.86390E-19-1.53501E-18
 -1      3816 9.30742E-05-2.60980E-05-2.87091E-05 5.57050E-06-3.41807E-19-3.65851E-19
 -1      3817 9.31635E-05-2.62893E-05-2.86481E-05 6.07019E-06-5.24568E-19-2.11075E-19
 -1      3818 9.20397E-05-2.57481E-05-2.84156E-05 6.35446E-06-1.37471E-18 1.85263E-19
 -1      3819 9.32873E-05-2.60116E-05-2.88352E-05 4.58795E-06 1.70086E-18-2.04354E-18
 -1      3820 9.32609E-05-2.60576E-05-2.87925E-05 5.03932E-06 8.96969E-19-1.18335E-18
 -1      3821 9.23196E-05-2.55333E-05-2.86275E-05 5.18042E-06 8.45128E-19-2.84562E-19
 -1      3822 9.25479E-05-2.51684E-05-2.88725E-05 2.37626E-06 7.58951E-19-1.28088E-18
 -1      3823 9.24910E-05-2.51981E-05-2.88342E-05 2.85690E-06 7.20247E-19-5.08108E-19
 -1      3824 9.22077E-05-2.49014E-05-2.88544E-05 1.93100E-06 7.37759E-19-1.86392E-18
 -1      3825 9.16776E-05-2.45336E-05-2.87707E-05 1.84521E-06 8.79294E-19-1.62432E-18
 -1      3826 7.91007E-05-2.66295E-05-2.25436E-05 2.04564E-05 4.76660E-19 2.04075E-18
 -1      3827 7.03661E-05-1.98485E-05-2.15106E-05 1.56096E-05 1.18515E-18-7.81851E-20
 -1      3828 9.33242E-05-2.59266E-05-2.88841E-05 3.87250E-06 1.66185E-18-2.35341E-18
 -1      3829 9.33797E-05-2.59955E-05-2.88720E-05 4.23118E-06 1.47845E-18-1.99938E-18
 -1      3830 9.26007E-05-2.55156E-05-2.87579E-05 4.28390E-06 1.91314E-18-1.23764E-18
 -1      3831 9.28255E-05-2.55533E-05-2.88382E-05 3.58611E-06 9.58769E-19 1.34226E-18
 -1      3832 9.31122E-05-2.62362E-05-2.86503E-05-5.54579E-06-5.37669E-19-7.40805E-20
 -1      3833 9.30914E-05-2.61631E-05-2.86898E-05-5.09126E-06-6.66531E-19 1.18481E-19
 -1      3834 9.20567E-05-2.56852E-05-2.84477E-05-5.74955E-06-7.13655E-19-4.40796E-20
 -1      3835 9.43854E-05-2.66699E-05-2.90171E-05 3.49414E-06 1.90219E-18-4.31635E-18
 -1      3836 9.50821E-05-2.35391E-05-3.06639E-05-1.94441E-06-1.45209E-19-1.10313E-18
 -1      3837 9.55697E-05-2.47980E-05-3.03386E-05-1.15354E-06-1.39033E-19-9.20991E-19
 -1      3838 9.57062E-05-2.49196E-05-3.03340E-05-8.80247E-07-2.74166E-20-7.82254E-19
 -1      3839 9.48904E-05-2.30444E-05-3.07886E-05-1.65839E-06-1.10145E-19-1.07343E-18
 -1      3840 6.50917E-05-1.61342E-05-2.10591E-05 9.46177E-06-2.99420E-19 9.78588E-19
 -1      3841 6.31472E-05-1.44445E-05-2.07932E-05 2.87520E-06 5.61556E-20 1.80812E-18
 -1      3842 9.46600E-05-2.91747E-05-2.80521E-05 9.31698E-06 3.15783E-19-1.44801E-18
 -1      3843 9.57637E-05-3.04644E-05-2.79581E-05 9.79507E-06 6.32495E-19-9.87657E-19
 -1      3844 9.26731E-05-2.78581E-05-2.78051E-05 9.39217E-06-2.13297E-19-1.54936E-18
 -1      3845 9.68843E-05-3.19501E-05-2.77972E-05 1.06215E-05 1.00520E-18-9.87957E-19
 -1      3846 9.86572E-05-3.38550E-05-2.77498E-05 1.08919E-05 1.11439E-18 4.81683E-19
 -1      3847 9.42109E-05-3.03026E-05-2.74386E-05 1.12154E-05 1.00989E-18-1.18671E-18
 -1      3848 9.36359E-05-2.05000E-05-3.13498E-05-1.19734E-06 8.62949E-20-1.44215E-18
 -1      3849 9.37693E-05-2.07721E-05-3.12948E-05-1.74097E-06 7.31223E-20-1.55848E-18
 -1      3850 9.42041E-05-2.15810E-05-3.11192E-05-1.64218E-06-2.24366E-20-1.37788E-18
 -1      3851 7.39123E-05-2.15461E-05-2.24780E-05 1.69512E-05 2.24887E-19-2.12746E-18
 -1      3852 7.34459E-05-2.29665E-05-2.14542E-05 1.93847E-05 7.26132E-19-2.50473E-18
 -1      3853 6.82789E-05-2.12143E-05-1.99962E-05 1.96621E-05 8.37537E-19-2.83859E-18
 -1      3854 7.00800E-05-1.81837E-05-2.21698E-05 1.30043E-05-2.73347E-19-1.46937E-18
 -1      3855 7.57990E-05-2.12697E-05-2.34368E-05-1.52178E-05 3.57425E-20-2.51681E-18
 -1      3856 7.68171E-05-2.01058E-05-2.43964E-05-1.26946E-05 5.90281E-19-2.31894E-18
 -1      3857 7.47967E-05-1.81594E-05-2.41968E-05-9.67898E-06 4.74411E-19-1.60100E-18
 -1      3858 9.38273E-05-2.08558E-05-3.12819E-05-2.15032E-07 4.70591E-19-1.23370E-18
 -1      3859 9.38653E-05-2.09332E-05-3.12630E-05-7.59564E-07 2.84331E-19-1.20764E-18
 -1      3860 9.45406E-05-2.21093E-05-3.10247E-05 1.45614E-08 4.55147E-19-1.19684E-18
 -1      3861 1.04731E-04-4.06674E-05-2.74768E-05 1.25227E-05-6.75787E-19 3.38151E-21
 -1      3862 1.08632E-04-4.47898E-05-2.72788E-05 1.39792E-05 3.43545E-19 3.35265E-19
 -1      3863 1.04914E-04-4.39389E-05-2.60633E-05 1.87257E-05-3.73356E-19 9.56377E-19
 -1      3864 1.00898E-04-3.86226E-05-2.66779E-05 1.52720E-05-2.18310E-19-1.09150E-18
 -1      3865 9.64079E-05-2.77127E-05-2.94372E-05 4.99768E-07-3.76823E-19-6.71966E-19
 -1      3866 9.63910E-05-2.79781E-05-2.93230E-05 7.27874E-07-3.06544E-19-6.29568E-19
 -1      3867 9.64561E-05-2.73836E-05-2.96009E-05 3.04334E-07-3.16141E-19-7.43699E-19
 -1      3868 7.09591E-05-1.95461E-05-2.19095E-05-1.41395E-05-1.81689E-19-2.11004E-18
 -1      3869 9.12253E-05-2.40168E-05-2.87935E-05-3.09039E-06 2.99927E-19 1.64655E-18
 -1      3870 9.64672E-05-2.79860E-05-2.93486E-05 6.74283E-07-1.72314E-19-2.77718E-19
 -1      3871 9.44469E-05-2.71663E-05-2.88301E-05-2.69198E-06 3.77991E-21-2.81782E-19
 -1      3872 9.45862E-05-2.73433E-05-2.88233E-05-2.47642E-06-1.20508E-19-2.81762E-19
 -1      3873 9.45288E-05-2.72756E-05-2.88212E-05-2.21981E-06 2.41224E-19-1.07068E-19
 -1      3874 7.96841E-05-2.83747E-05-2.19792E-05-2.25671E-05-1.12613E-18-6.04186E-19
 -1      3875 8.54929E-05-3.26126E-05-2.24984E-05-2.44227E-05-1.90502E-18-1.05145E-18
 -1      3876 9.26362E-05-3.58133E-05-2.43128E-05-2.12981E-05-1.38924E-18-1.06573E-18
 -1      3877 7.18446E-05-1.88690E-05-2.25835E-05 1.11132E-05 3.46499E-19 1.29115E-18
 -1      3878 9.51206E-05-2.34366E-05-3.07333E-05 8.00314E-07 6.41995E-19-1.09197E-18
 -1      3879 9.50592E-05-2.32625E-05-3.07765E-05 4.59969E-07 5.03066E-19-1.21029E-18
 -1      3880 9.51809E-05-2.78955E-05-2.88334E-05-1.98589E-06 6.14338E-19-2.40123E-19
 -1      3881 9.53070E-05-2.80327E-05-2.88346E-05-1.85385E-06 3.65915E-19-3.21532E-19
 -1      3882 9.49858E-05-2.76874E-05-2.88412E-05-1.90054E-06 5.39982E-19-1.14370E-19
 -1      3883 9.53170E-05-2.39970E-05-3.05763E-05 1.29940E-06 6.96962E-19-1.04549E-18
 -1      3884 9.51948E-05-2.36447E-05-3.06677E-05 1.03076E-06 6.42485E-19-1.14846E-18
 -1      3885 9.56209E-05-2.44788E-05-3.04751E-05 6.48414E-07 5.69859E-19-1.21803E-18
 -1      3886 9.55179E-05-2.82708E-05-2.88213E-05-1.83571E-06 3.23047E-19-9.37949E-20
 -1      3887 9.43003E-05-2.17058E-05-3.11055E-05-8.06038E-07 3.42579E-19-1.27396E-18
 -1      3888 9.60172E-05-2.84143E-05-2.89722E-05-1.34326E-06-8.04164E-21-8.12575E-19
 -1      3889 9.61010E-05-2.83782E-05-2.90224E-05-1.21750E-06 1.73155E-19-8.71920E-19
 -1      3890 9.24480E-05-2.57042E-05-2.86041E-05-4.70383E-06-3.72384E-19 1.29451E-19
 -1      3891 1.05025E-04-4.00853E-05-2.77677E-05-1.12844E-05-6.99701E-19-4.53275E-19
 -1      3892 9.72943E-05-3.42170E-05-2.71211E-05 1.30453E-05 6.60130E-19-3.83275E-19
 -1      3893 9.50292E-05-2.34475E-05-3.06625E-05 2.32993E-06 7.70340E-19-7.77486E-19
 -1      3894 6.34897E-05-1.42759E-05-2.09955E-05 9.45443E-08-3.50691E-20 5.80297E-19
 -1      3895 6.43594E-05-1.46605E-05-2.13589E-05-3.91427E-06-8.24600E-20 6.78950E-19
 -1      3896 6.79555E-05-1.54400E-05-2.24365E-05 1.96117E-06 3.66067E-19 1.61205E-18
 -1      3897 9.17428E-05-2.47161E-05-2.87339E-05 2.74296E-06 5.65232E-19-1.88379E-18
 -1      3898 9.22356E-05-2.50875E-05-2.87771E-05 3.16658E-06 4.86466E-19-4.05586E-19
 -1      3899 9.21030E-05-2.50385E-05-2.87346E-05 3.49354E-06 5.77490E-19-9.84013E-19
 -1      3900 9.81592E-05-3.91677E-05-2.53327E-05 1.96446E-05 3.24156E-20 5.00510E-19
 -1      3901 9.07714E-05-2.37438E-05-2.87315E-05-2.42004E-06 4.38563E-19 3.00762E-18
 -1      3902 8.40376E-05-2.93120E-05-2.32774E-05 2.07213E-05 4.63286E-19 3.15864E-18
 -1      3903 8.09614E-05-2.56948E-05-2.37295E-05 1.74182E-05 1.50579E-18 2.50974E-18
 -1      3904 8.93943E-05-3.25680E-05-2.42985E-05 1.98978E-05 1.11257E-18 2.95854E-18
 -1      3905 9.59855E-05-2.62389E-05-2.98977E-05 5.36384E-07 3.01541E-19-8.64282E-19
 -1      3906 9.58369E-05-2.56643E-05-3.00673E-05 1.01240E-06 4.22064E-19-8.49145E-19
 -1      3907 9.57819E-05-2.83580E-05-2.88943E-05-1.54451E-06 1.06141E-19-4.77641E-19
 -1      3908 9.58837E-05-2.83974E-05-2.89227E-05-1.43816E-06 6.33920E-21-8.19179E-19
 -1      3909 9.60478E-05-2.83645E-05-2.90078E-05-1.25331E-06-2.99171E-20-9.49298E-19
 -1      3910 1.01100E-04-3.80996E-05-2.70531E-05-1.37424E-05-8.12130E-19-8.48648E-19
 -1      3911 9.54299E-05-2.48207E-05-3.02648E-05 1.94541E-06 7.24881E-19-6.53012E-19
 -1      3912 9.40499E-05-2.67812E-05-2.88242E-05-3.20251E-06-5.23245E-19 4.04407E-19
 -1      3913 9.41857E-05-2.69507E-05-2.88209E-05-2.93164E-06-2.33188E-19-1.60681E-19
 -1      3914 9.40282E-05-2.68229E-05-2.88002E-05-2.63625E-06-3.63434E-19-4.14811E-19
 -1      3915 9.05506E-05-2.37191E-05-2.86491E-05 3.57367E-07-2.53518E-20-5.72419E-19
 -1      3916 9.07082E-05-2.38561E-05-2.86499E-05 1.05694E-06 9.18274E-19-1.67755E-18
 -1      3917 6.11772E-05-1.53117E-05-1.95801E-05 9.40199E-06 1.26454E-19-1.61489E-18
 -1      3918 5.64539E-05-1.33748E-05-1.81448E-05 5.81758E-06-4.73081E-20-1.22002E-18
 -1      3919 5.73335E-05-1.33906E-05-1.88518E-05-2.71103E-07-4.98889E-20-1.05636E-18
 -1      3920 9.60524E-05-2.82721E-05-2.90509E-05-1.13567E-06 2.81466E-19-5.48877E-19
 -1      3921 6.02010E-05-1.53911E-05-1.91030E-05-1.04185E-05-5.85201E-19-9.57306E-19
 -1      3922 6.07988E-05-1.68444E-05-1.84713E-05-1.57635E-05-7.16855E-19-8.87849E-19
 -1      3923 6.80984E-05-2.07829E-05-2.02371E-05-1.86260E-05-1.15762E-18-2.44290E-19
 -1      3924 9.62250E-05-2.73062E-05-2.95420E-05-2.26662E-07 1.50667E-19-6.54189E-19
 -1      3925 9.61625E-05-2.68446E-05-2.97020E-05 1.51546E-07 1.13454E-19-8.03677E-19
 -1      3926 9.61008E-05-2.62739E-05-2.99242E-05 3.92193E-07 1.58548E-19-1.04790E-18
 -1      3927 9.09868E-05-2.41071E-05-2.86706E-05 1.65109E-06 3.65155E-19-1.57125E-18
 -1      3928 9.13252E-05-2.43715E-05-2.86940E-05 2.24418E-06 4.88045E-19-2.09051E-18
 -1      3929 9.10193E-05-2.42309E-05-2.86263E-05 2.56603E-06 1.34698E-19-1.96715E-18
 -1      3930 9.03507E-05-2.36744E-05-2.85663E-05 1.48043E-06 1.10579E-18-1.03049E-18
 -1      3931 9.34953E-05-2.63692E-05-2.87661E-05-3.17332E-06-3.76458E-19 2.12273E-19
 -1      3932 9.29653E-05-2.59555E-05-2.87140E-05-2.99421E-06 1.49380E-20-6.96368E-20
 -1      3933 9.32394E-05-2.61979E-05-2.87396E-05-2.70235E-06-1.97940E-19-3.28917E-20
 -1      3934 9.61445E-05-2.59135E-05-3.00979E-05-3.65360E-07 5.40821E-20-8.20467E-19
 -1      3935 9.63358E-05-2.65610E-05-2.99084E-05-4.38334E-08-9.57762E-20-8.17771E-19
 -1      3936 9.61801E-05-2.82896E-05-2.90963E-05 8.79631E-07 1.85375E-19-3.91914E-19
 -1      3937 9.60157E-05-2.82510E-05-2.90422E-05 9.69207E-07 4.54587E-19-4.05942E-19
 -1      3938 9.57979E-05-2.81543E-05-2.89914E-05 1.02151E-06 4.28390E-19-5.44339E-19
 -1      3939 9.55868E-05-2.80229E-05-2.89558E-05 1.10441E-06 4.61311E-19-6.05592E-19
 -1      3940 9.59328E-05-2.81594E-05-2.90447E-05 7.77394E-07 2.73457E-19-3.53851E-19
 -1      3941 9.53131E-05-2.78383E-05-2.89201E-05 1.15788E-06 4.82814E-19-7.57224E-19
 -1      3942 9.50556E-05-2.76293E-05-2.88969E-05 1.24677E-06 2.91051E-19-4.93229E-19
 -1      3943 9.54462E-05-2.78783E-05-2.89557E-05 8.82181E-07 2.95408E-19-6.89901E-19
 -1      3944 9.47246E-05-2.73693E-05-2.88701E-05 1.30810E-06 4.07086E-19-4.55596E-19
 -1      3945 9.44145E-05-2.70912E-05-2.88533E-05 1.41165E-06 4.21282E-19-2.86874E-19
 -1      3946 9.48478E-05-2.74290E-05-2.88905E-05 9.90643E-07 4.37114E-19-7.95273E-19
 -1      3947 9.40176E-05-2.67623E-05-2.88286E-05 1.48540E-06-1.81905E-19-5.44900E-19
 -1      3948 9.36440E-05-2.64205E-05-2.88114E-05 1.60953E-06-4.14299E-19-6.35934E-19
 -1      3949 9.41280E-05-2.68324E-05-2.88361E-05 1.10994E-06 3.84462E-20-1.01541E-18
 -1      3950 9.31689E-05-2.60275E-05-2.87812E-05 1.69636E-06-4.93566E-19-7.23896E-19
 -1      3951 9.27154E-05-2.56252E-05-2.87557E-05 1.84301E-06-5.61431E-19-9.31038E-19
 -1      3952 9.32667E-05-2.61013E-05-2.87781E-05 1.24535E-06-5.32765E-19-1.45464E-18
 -1      3953 9.21436E-05-2.51707E-05-2.87106E-05 1.94051E-06-2.97085E-19-1.14203E-18
 -1      3954 9.15895E-05-2.47107E-05-2.86669E-05 2.10883E-06-4.72249E-19-6.78321E-19
 -1      3955 9.22333E-05-2.52453E-05-2.86991E-05 1.39099E-06-5.31043E-19-1.52085E-18
 -1      3956 9.08974E-05-2.41984E-05-2.85953E-05 2.21184E-06-6.51913E-19-8.59340E-20
 -1      3957 9.02169E-05-2.36855E-05-2.85205E-05 2.39900E-06-4.70025E-19-3.14816E-19
 -1      3958 9.09866E-05-2.42722E-05-2.85782E-05 1.53599E-06-3.74092E-19-1.15094E-18
 -1      3959 8.93738E-05-2.31209E-05-2.84070E-05 2.50018E-06-2.04250E-19-2.91444E-19
 -1      3960 8.85350E-05-2.25630E-05-2.82838E-05 2.70387E-06 2.91938E-19-2.13492E-19
 -1      3961 8.94743E-05-2.31919E-05-2.83882E-05 1.66273E-06-4.17036E-19-5.43545E-19
 -1      3962 8.74997E-05-2.19548E-05-2.81078E-05 2.79607E-06 6.03399E-19-3.46440E-19
 -1      3963 8.64621E-05-2.13648E-05-2.79127E-05 3.01974E-06 4.98634E-19-4.32207E-19
 -1      3964 8.76270E-05-2.20178E-05-2.80932E-05 1.74915E-06 2.91908E-19-5.48760E-20
 -1      3965 8.51742E-05-2.07238E-05-2.76456E-05 3.10101E-06 5.83267E-19-8.71172E-19
 -1      3966 8.38841E-05-2.01199E-05-2.73459E-05 3.36389E-06 7.98875E-19-5.72974E-19
 -1      3967 8.53478E-05-2.07645E-05-2.76442E-05 1.77435E-06 4.06216E-19-6.83537E-19
 -1      3968 8.22492E-05-1.94573E-05-2.69461E-05 3.44632E-06 7.29831E-19-4.03637E-19
 -1      3969 8.06276E-05-1.88625E-05-2.64947E-05 3.80100E-06 5.20711E-19-6.39830E-19
 -1      3970 8.24894E-05-1.94427E-05-2.69714E-05 1.72956E-06 7.50740E-19-7.78019E-19
 -1      3971 7.84910E-05-1.81815E-05-2.59003E-05 3.91431E-06-6.55177E-20-5.15553E-19
 -1      3972 7.64170E-05-1.76066E-05-2.52262E-05 4.46809E-06-7.66724E-19-8.59890E-19
 -1      3973 7.88236E-05-1.80556E-05-2.59716E-05 1.63148E-06 2.42796E-19-1.21479E-18
 -1      3974 7.35023E-05-1.69204E-05-2.43298E-05 4.75956E-06-9.32418E-19-1.09795E-18
 -1      3975 7.09796E-05-1.64519E-05-2.33363E-05 5.63363E-06-7.00063E-19-1.63971E-18
 -1      3976 7.39002E-05-1.65076E-05-2.44811E-05 1.52308E-06-8.41263E-19-1.25750E-18
 -1      3977 9.55007E-05-2.81744E-05-2.88516E-05-1.74640E-06 3.02450E-19-3.69555E-19
 -1      3978 9.56158E-05-2.82701E-05-2.88639E-05-1.63642E-06 3.59819E-19-3.11044E-19
 -1      3979 9.57510E-05-2.82638E-05-2.89234E-05-1.44883E-06 1.15150E-19-7.68835E-19
 -1      3980 9.53946E-05-2.80270E-05-2.88716E-05-1.65302E-06 2.78055E-19-3.86463E-19
 -1      3981 7.65871E-05-1.77424E-05-2.52419E-05-5.13705E-06 9.11302E-19-6.98403E-19
 -1      3982 7.85747E-05-1.82617E-05-2.59102E-05-4.46788E-06 1.22154E-20-1.00973E-18
 -1      3983 9.65681E-05-2.78352E-05-2.94558E-05 4.65634E-07-2.33173E-19-3.68321E-19
 -1      3984 9.65273E-05-2.80581E-05-2.93463E-05 6.21597E-07-7.54001E-20-3.87742E-19
 -1      3985 8.07562E-05-1.89250E-05-2.65197E-05-4.27724E-06-4.80915E-19-1.93154E-19
 -1      3986 8.23575E-05-1.94872E-05-2.69806E-05-3.86404E-06 5.80984E-19-5.28866E-19
 -1      3987 7.88040E-05-1.80472E-05-2.59731E-05-2.10659E-06-7.71123E-20-8.54650E-19
 -1      3988 8.40085E-05-2.01279E-05-2.73939E-05-3.73278E-06 1.57986E-18 1.87997E-19
 -1      3989 8.52863E-05-2.07005E-05-2.77042E-05-3.42560E-06 2.34972E-18-5.00526E-19
 -1      3990 8.25327E-05-1.94166E-05-2.70019E-05-2.10963E-06 1.09758E-18 1.62861E-18
 -1      3991 8.65823E-05-2.13082E-05-2.79861E-05-3.30931E-06 2.48738E-18-5.06554E-19
 -1      3992 8.76042E-05-2.18582E-05-2.81938E-05-3.04325E-06 1.05056E-18-1.24814E-19
 -1      3993 8.54146E-05-2.06935E-05-2.77041E-05-2.07031E-06 2.29389E-18 1.00322E-18
 -1      3994 8.86356E-05-2.24199E-05-2.83862E-05-2.91546E-06 5.05971E-19 3.56194E-19
 -1      3995 8.94362E-05-2.29180E-05-2.85222E-05-2.66683E-06-1.19710E-19 1.77559E-18
 -1      3996 8.76840E-05-2.18652E-05-2.81852E-05-1.99239E-06 1.66141E-18 3.41725E-20
 -1      3997 9.62701E-05-2.79573E-05-2.92805E-05-7.47299E-07 2.69894E-19-8.41767E-19
 -1      3998 9.62809E-05-2.76801E-05-2.93953E-05-4.90444E-07 3.49645E-19-6.03172E-19
 -1      3999 9.63451E-05-2.73277E-05-2.95787E-05-2.63918E-07 2.43009E-19-1.15956E-18
 -1      4000 9.15932E-05-2.51271E-05-2.84766E-05-4.56687E-06-2.24038E-19 3.66353E-19
 -1      4001 9.18276E-05-2.52468E-05-2.85451E-05-4.10743E-06-1.09406E-19 3.37463E-19
 -1      4002 9.06706E-05-2.62544E-05-2.75772E-05-8.84706E-06-3.47794E-19-1.33204E-19
 -1      4003 9.03523E-05-2.56215E-05-2.77539E-05-8.00385E-06 2.74335E-19-1.02615E-19
 -1      4004 9.06264E-05-2.53249E-05-2.79666E-05-7.08788E-06 1.08756E-19 7.97405E-20
 -1      4005 9.06068E-05-2.50568E-05-2.81055E-05-6.39054E-06-4.19226E-19 9.80796E-20
 -1      4006 8.90189E-05-2.45363E-05-2.76352E-05-7.33176E-06-7.50051E-20 3.44690E-20
 -1      4007 9.34980E-05-3.13396E-05-2.65957E-05-1.35081E-05-4.22565E-19-1.11207E-18
 -1      4008 9.19184E-05-2.93796E-05-2.67839E-05-1.24572E-05-2.79282E-19-6.62881E-19
 -1      4009 9.54058E-05-2.45280E-05-3.03828E-05 1.55611E-06 5.98912E-19-7.54107E-19
 -1      4010 9.30318E-05-3.10037E-05-2.65531E-05 1.37535E-05 5.18558E-19 3.63235E-19
 -1      4011 9.48302E-05-3.34029E-05-2.63533E-05 1.49175E-05 4.26474E-19-2.15654E-19
 -1      4012 9.09861E-05-2.49062E-05-2.83285E-05 5.70235E-06-1.36747E-18-9.56221E-19
 -1      4013 9.08999E-05-2.50644E-05-2.81996E-05 6.33798E-06-1.58918E-18-8.21024E-19
 -1      4014 9.05529E-05-2.52317E-05-2.80064E-05 7.14194E-06-7.83833E-19-6.52631E-19
 -1      4015 9.06884E-05-2.56708E-05-2.78410E-05 7.91039E-06-4.75912E-19-7.08472E-19
 -1      4016 8.94836E-05-2.43322E-05-2.79208E-05 6.45027E-06-1.25219E-18-7.72329E-19
 -1      4017 9.10023E-05-2.50233E-05-2.82636E-05-5.68228E-06-7.07866E-19 2.74311E-19
 -1      4018 9.11509E-05-2.49944E-05-2.83646E-05-5.11394E-06-6.11346E-19 1.25197E-19
 -1      4019 9.05642E-05-2.44963E-05-2.83089E-05-4.47681E-06-2.04300E-19 4.21713E-19
 -1      4020 9.55489E-05-2.41987E-05-3.05626E-05 2.31808E-07 4.68461E-19-1.04425E-18
 -1      4021 9.50261E-05-2.31854E-05-3.07985E-05 1.89916E-07 4.50552E-19-1.16582E-18
 -1      4022 9.50294E-05-2.31664E-05-3.08009E-05-1.60386E-07 3.93808E-19-1.10096E-18
 -1      4023 9.18476E-05-2.49508E-05-2.86688E-05 3.86488E-06 1.11855E-18-9.58103E-19
 -1      4024 9.17605E-05-2.49547E-05-2.86215E-05 4.23227E-06 1.57569E-18-1.82847E-18
 -1      4025 9.12161E-05-2.44735E-05-2.85997E-05 3.42350E-06 1.57718E-19-1.35979E-18
 -1      4026 9.49304E-05-2.29912E-05-3.08390E-05-5.60448E-07 4.49666E-19-1.10913E-18
 -1      4027 9.47114E-05-2.25716E-05-3.09161E-05-9.60826E-07 2.48920E-19-1.25331E-18
 -1      4028 9.06031E-05-2.36718E-05-2.86889E-05-1.20388E-06 1.25611E-18 3.64091E-18
 -1      4029 9.05041E-05-2.36314E-05-2.86649E-05-4.91843E-07 7.35958E-19 1.29554E-18
 -1      4030 8.99648E-05-2.33141E-05-2.85573E-05 5.41503E-09 1.20810E-18 1.52707E-18
 -1      4031 9.05100E-05-2.61488E-05-2.75933E-05 8.94434E-06-3.35398E-19 1.12149E-20
 -1      4032 9.10231E-05-2.70167E-05-2.73962E-05 9.85584E-06 1.80486E-19-2.22008E-19
 -1      4033 8.89166E-05-2.48643E-05-2.74560E-05 8.29743E-06 9.19664E-20 1.44507E-18
 -1      4034 9.48391E-05-2.28796E-05-3.08452E-05-1.33121E-06-1.19469E-20-1.22040E-18
 -1      4035 9.11948E-05-2.79821E-05-2.70948E-05 1.11693E-05 4.33143E-19-1.71321E-19
 -1      4036 9.23150E-05-2.94664E-05-2.68894E-05 1.21888E-05 7.76133E-19-2.41655E-19
 -1      4037 8.88201E-05-2.61638E-05-2.68688E-05 1.07269E-05 6.75296E-19 2.06933E-18
 -1      4038 9.62692E-05-2.82852E-05-2.91366E-05-1.02599E-06 2.06652E-19-7.87813E-19
 -1      4039 9.61914E-05-2.83013E-05-2.90970E-05-1.09659E-06 2.22361E-19-8.03195E-19
 -1      4040 9.62476E-05-2.81631E-05-2.91755E-05-9.23124E-07 2.22020E-19-7.85318E-19
 -1      4041 9.22727E-05-2.54759E-05-2.86211E-05-3.68575E-06-1.00035E-19 1.15130E-19
 -1      4042 9.25420E-05-2.56797E-05-2.86643E-05-3.31750E-06 2.82292E-20 1.57040E-19
 -1      4043 9.14549E-05-2.49255E-05-2.85064E-05-3.53490E-06-1.61037E-19 3.96517E-19
 -1      4044 6.69996E-05-1.61103E-05-2.16295E-05-9.64048E-06-7.80461E-20-8.56397E-19
 -1      4045 7.60996E-05-2.09064E-05-2.36848E-05 1.25020E-05 5.29392E-19 2.74131E-18
 -1      4046 7.17395E-05-1.72676E-05-2.32958E-05 7.21266E-06-7.86072E-19 2.07039E-18
 -1      4047 6.57446E-05-1.80789E-05-2.02892E-05 1.52376E-05 5.95292E-19-2.10903E-18
 -1      4048 9.60013E-05-3.53706E-05-2.59662E-05 1.64796E-05 4.71063E-20-3.20549E-20
 -1      4049 6.98193E-05-1.63532E-05-2.28169E-05-6.10990E-06 1.14965E-19-4.94481E-19
 -1      4050 9.64470E-05-2.82030E-05-2.92469E-05 7.05181E-07-5.90695E-21-4.34575E-19
 -1      4051 9.63363E-05-2.82793E-05-2.91683E-05 8.18020E-07 1.94084E-20-3.91550E-19
 -1      4052 9.63035E-05-2.82381E-05-2.91702E-05 6.60411E-07 1.86443E-19-2.58448E-19
 -1      4053 9.00504E-05-2.32808E-05-2.86111E-05-2.11464E-06 2.94637E-19 2.48934E-18
 -1      4054 9.64893E-05-2.71043E-05-2.97357E-05 1.22011E-07-2.98898E-19-7.27885E-19
 -1      4055 9.65473E-05-2.75154E-05-2.95889E-05 3.45847E-07-3.11053E-19-5.78011E-19
 -1      4056 9.64303E-05-2.66867E-05-2.98877E-05 1.22873E-08-1.00051E-19-8.45782E-19
 -1      4057 9.14588E-05-2.81268E-05-2.71033E-05-1.10140E-05-1.48947E-19-4.83208E-19
 -1      4058 9.06469E-05-2.69505E-05-2.73059E-05-1.00268E-05-5.29267E-20-5.49369E-19
 -1      4059 8.86633E-05-2.54010E-05-2.71216E-05-9.46165E-06 1.66673E-19-4.79225E-19
 -1      4060 9.14482E-05-2.48751E-05-2.85363E-05 4.66196E-06 2.13853E-18-2.50072E-18
 -1      4061 9.12578E-05-2.48833E-05-2.84356E-05 5.19496E-06 2.87314E-19-1.96309E-18
 -1      4062 9.01062E-05-2.42358E-05-2.82324E-05 5.15672E-06 4.92157E-19-2.82502E-18
 -1      4063 9.06308E-05-2.42775E-05-2.84341E-05 4.21949E-06 1.17471E-18-3.02414E-18
 -1      4064 7.47416E-05-2.38746E-05-2.16300E-05-2.00018E-05-8.45511E-19 1.40700E-19
 -1      4065 8.22284E-05-2.78809E-05-2.32523E-05-1.97354E-05-6.66268E-19-7.89673E-19
 -1      4066 9.47940E-05-2.74890E-05-2.88427E-05-1.73135E-06 4.79072E-19-3.02825E-19
 -1      4067 9.50133E-05-2.76899E-05-2.88563E-05-1.59482E-06 3.83072E-19-4.04372E-19
 -1      4068 7.22850E-05-1.66175E-05-2.38829E-05-5.02422E-06 7.57155E-19-3.23130E-20
 -1      4069 6.60247E-05-1.47787E-05-2.18287E-05 2.87114E-06-4.02814E-19-1.59936E-18
 -1      4070 6.58063E-05-1.55654E-05-2.15426E-05 7.48868E-06-5.69898E-19-1.47744E-18
 -1      4071 9.66004E-05-2.75773E-05-2.95795E-05 3.03362E-07-1.11092E-19-4.60618E-19
 -1      4072 8.92785E-05-2.28255E-05-2.84739E-05-1.37270E-06 1.80554E-18 1.71847E-18
 -1      4073 9.65388E-05-2.80663E-05-2.93444E-05 5.10256E-07-1.53801E-19-4.36727E-19
 -1      4074 9.97161E-05-3.86372E-05-2.61455E-05-1.66569E-05-1.04374E-18-1.00352E-18
 -1      4075 9.53304E-05-3.40517E-05-2.61932E-05-1.55581E-05-1.07475E-18-1.01458E-18
 -1      4076 9.63831E-05-2.79673E-05-2.93215E-05-7.18607E-07 2.22792E-19-1.17300E-18
 -1      4077 9.03790E-05-3.31482E-05-2.44628E-05-1.98376E-05-1.29644E-18-1.81107E-18
 -1      4078 9.51462E-05-3.67259E-05-2.50695E-05-1.97340E-05-1.08423E-18-7.09324E-19
 -1      4079 9.54112E-05-2.39233E-05-3.06245E-05-3.34781E-07 3.25130E-19-1.06664E-18
 -1      4080 8.90197E-05-2.73072E-05-2.64817E-05-1.22209E-05 5.48239E-20-1.05337E-18
 -1      4081 9.31311E-05-2.60910E-05-2.87267E-05-2.27061E-06-3.38331E-19 7.35086E-20
 -1      4082 9.36285E-05-2.64856E-05-2.87721E-05-2.45683E-06-3.81566E-19-1.86838E-19
 -1      4083 9.38909E-05-2.67350E-05-2.87872E-05-2.22861E-06-2.59749E-19-4.60480E-20
 -1      4084 8.97150E-05-2.43123E-05-2.80254E-05-5.71124E-06-5.65906E-19-2.15121E-19
 -1      4085 9.09778E-05-3.11855E-05-2.56841E-05-1.60843E-05-6.80943E-19-1.00978E-18
 -1      4086 9.54558E-05-2.44432E-05-3.04349E-05 1.30652E-06 6.31747E-19-9.65518E-19
 -1      4087 8.96692E-05-2.86843E-05-2.61705E-05 1.38156E-05 6.18519E-19 1.16931E-18
 -1      4088 9.53424E-05-2.39166E-05-3.06026E-05-9.70162E-07 8.73534E-20-1.13853E-18
 -1      4089 9.58792E-05-2.50610E-05-3.03589E-05 2.56237E-07 4.79935E-19-1.03421E-18
 -1      4090 9.58651E-05-2.49956E-05-3.03804E-05 6.22085E-08 3.60781E-19-8.71745E-19
 -1      4091 7.26448E-05-1.63653E-05-2.40610E-05-1.61267E-06 8.03291E-19 1.47721E-19
 -1      4092 9.20805E-05-3.34961E-05-2.50541E-05 1.87485E-05 6.27493E-19 1.38031E-18
 -1      4093 7.15023E-05-2.09461E-05-2.16708E-05-1.64002E-05-6.95626E-19 4.03135E-20
 -1      4094 8.25232E-05-2.52782E-05-2.45864E-05 1.50905E-05 9.84057E-19 3.03176E-18
 -1      4095 7.90184E-05-2.26631E-05-2.40372E-05 1.39853E-05 8.02759E-19 2.58112E-18
 -1      4096 7.82493E-05-2.08974E-05-2.45966E-05 1.06243E-05-8.08394E-19 3.16940E-18
 -1      4097 8.91730E-05-2.28520E-05-2.84316E-05-3.15746E-07 2.47901E-18 2.66095E-18
 -1      4098 8.92477E-05-2.29485E-05-2.84159E-05 5.45084E-07 1.93251E-18 1.23731E-18
 -1      4099 8.85135E-05-2.24253E-05-2.83226E-05-8.41456E-07 1.90242E-18 1.28962E-18
 -1      4100 9.60604E-05-2.83359E-05-2.90245E-05-1.12768E-06-1.40322E-19-1.28321E-18
 -1      4101 9.61937E-05-2.83430E-05-2.90786E-05-1.02224E-06 4.12478E-20-1.18261E-18
 -1      4102 9.23221E-05-2.54842E-05-2.86392E-05-2.81647E-06-6.41972E-20 2.54341E-19
 -1      4103 6.21736E-05-1.42581E-05-2.04348E-05-1.42664E-06-1.17354E-19-1.08584E-18
 -1      4104 6.01837E-05-1.39079E-05-1.95385E-05-5.88734E-06-3.46600E-19-1.00465E-18
 -1      4105 6.45768E-05-1.64372E-05-2.06668E-05-1.05246E-05-6.14065E-19-7.90586E-19
 -1      4106 9.63257E-05-2.83061E-05-2.91523E-05-9.37722E-07 2.71353E-19-1.16056E-18
 -1      4107 9.64155E-05-2.82042E-05-2.92316E-05-8.04535E-07 2.34800E-19-1.06659E-18
 -1      4108 9.63243E-05-2.82720E-05-2.91650E-05-8.12536E-07 2.42945E-19-1.19142E-18
 -1      4109 8.87011E-05-2.26786E-05-2.82933E-05 1.02379E-06 1.95883E-18 1.86342E-18
 -1      4110 8.94896E-05-2.31750E-05-2.84301E-05 1.33513E-06 1.66120E-18 7.44301E-19
 -1      4111 8.98231E-05-2.34124E-05-2.84514E-05 1.94975E-06 8.19324E-19 2.61069E-19
 -1      4112 9.42411E-05-2.70102E-05-2.88104E-05-2.04451E-06-6.27591E-20 7.94197E-20
 -1      4113 9.44836E-05-2.72439E-05-2.88218E-05-1.86807E-06 2.95216E-19 2.76930E-19
 -1      4114 9.38660E-05-2.66888E-05-2.87866E-05-1.85873E-06-1.93733E-19 2.59297E-19
 -1      4115 9.57841E-05-2.51526E-05-3.02652E-05 8.11828E-07 4.94397E-19-1.08522E-18
 -1      4116 9.58973E-05-2.51669E-05-3.03168E-05 3.62454E-07 5.11209E-19-1.19539E-18
 -1      4117 9.61914E-05-2.58270E-05-3.01480E-05 1.51955E-07 4.16216E-19-1.07593E-18
 -1      4118 9.59332E-05-2.53711E-05-3.02497E-05 5.07880E-07 5.15537E-19-1.09935E-18
 -1      4119 9.45219E-05-2.72360E-05-2.88342E-05-1.55015E-06 9.14326E-20-1.92765E-19
 -1      4120 9.56980E-05-2.47949E-05-3.03914E-05-6.56997E-07 1.35123E-19-9.35085E-19
 -1      4121 9.60952E-05-2.60426E-05-3.00265E-05 4.65155E-07 2.43037E-19-1.22841E-18
 -1      4122 9.59875E-05-2.56082E-05-3.01611E-05 4.91522E-07 3.41620E-19-1.19167E-18
 -1      4123 9.62442E-05-2.61951E-05-3.00160E-05 1.95759E-07 3.28164E-19-1.30513E-18
 -1      4124 9.62710E-05-2.66662E-05-2.98321E-05 8.39656E-08 5.46573E-20-1.24307E-18
 -1      4125 9.58255E-05-2.50130E-05-3.03496E-05-4.33840E-07 1.11362E-19-9.96124E-19
 -1      4126 8.66427E-05-2.42498E-05-2.67004E-05-9.38111E-06 3.43479E-19-9.77020E-19
 -1      4127 8.66507E-05-2.37411E-05-2.70052E-05-8.23961E-06 6.36181E-19-6.82207E-19
 -1      4128 9.50986E-05-2.77003E-05-2.88835E-05-1.31800E-06 5.41337E-20-6.93609E-19
 -1      4129 9.52836E-05-2.78894E-05-2.88814E-05-1.49242E-06 1.79370E-19-5.80377E-19
 -1      4130 9.54776E-05-2.80432E-05-2.89028E-05-1.38216E-06 2.10899E-20-7.72560E-19
 -1      4131 8.77105E-05-2.92131E-05-2.50772E-05 1.67149E-05 4.45053E-19 2.40999E-18
 -1      4132 6.73755E-05-1.53372E-05-2.23646E-05-2.18411E-06-6.51544E-19-8.15580E-19
 -1      4133 9.66294E-05-2.73815E-05-2.96776E-05 1.43886E-07-5.94236E-20-5.31941E-19
 -1      4134 9.66512E-05-2.77244E-05-2.95414E-05 2.69962E-07-1.09388E-19-4.32612E-19
 -1      4135 9.55858E-05-2.79618E-05-2.89833E-05 5.76505E-07 5.59184E-20-2.93617E-19
 -1      4136 9.53126E-05-2.77757E-05-2.89451E-05 6.26814E-07 1.31936E-19-5.19102E-19
 -1      4137 9.49922E-05-2.75453E-05-2.89079E-05 6.39813E-07 1.48385E-19-9.82477E-19
 -1      4138 9.46600E-05-2.72821E-05-2.88782E-05 6.88545E-07 1.72817E-19-1.25273E-18
 -1      4139 9.51483E-05-2.76307E-05-2.89322E-05 3.34039E-07-2.28368E-19-6.56513E-19
 -1      4140 9.42741E-05-2.69747E-05-2.88461E-05 7.03079E-07 8.67415E-20-1.61500E-18
 -1      4141 9.38779E-05-2.66413E-05-2.88184E-05 7.55403E-07-3.70699E-19-1.85168E-18
 -1      4142 9.44420E-05-2.70812E-05-2.88616E-05 3.51307E-07-1.16364E-19-1.82140E-18
 -1      4143 9.34220E-05-2.62711E-05-2.87838E-05 7.65271E-07-4.02808E-19-1.89425E-18
 -1      4144 9.29471E-05-2.58746E-05-2.87500E-05 8.16426E-07-5.30357E-19-1.66076E-18
 -1      4145 9.36144E-05-2.64021E-05-2.87930E-05 3.53267E-07-2.57901E-19-2.11749E-18
 -1      4146 9.24073E-05-2.54446E-05-2.87043E-05 8.18008E-07-5.92818E-19-1.71827E-18
 -1      4147 9.18345E-05-2.49897E-05-2.86551E-05 8.62333E-07-4.55370E-19-1.75534E-18
 -1      4148 9.26306E-05-2.55981E-05-2.87106E-05 3.28473E-07-5.08324E-19-2.00320E-18
 -1      4149 9.11946E-05-2.45066E-05-2.85879E-05 8.46013E-07-1.08924E-19-1.28610E-18
 -1      4150 9.04998E-05-2.39988E-05-2.85114E-05 8.73540E-07-2.11966E-19-8.13760E-19
 -1      4151 9.14641E-05-2.46850E-05-2.85954E-05 2.58675E-07-2.11872E-19-1.72088E-18
 -1      4152 8.97385E-05-2.34708E-05-2.84095E-05 8.25056E-07-3.92942E-19-4.76388E-19
 -1      4153 8.88902E-05-2.29169E-05-2.82903E-05 8.21622E-07 1.54196E-19-2.73880E-19
 -1      4154 9.00773E-05-2.36791E-05-2.84237E-05 1.14396E-07 1.07819E-19-8.49077E-19
 -1      4155 8.79796E-05-2.23541E-05-2.81365E-05 7.21278E-07 2.27761E-19-3.87400E-21
 -1      4156 8.69347E-05-2.17624E-05-2.79541E-05 6.69459E-07 2.29059E-19-7.75895E-22
 -1      4157 8.84217E-05-2.26003E-05-2.81654E-05-1.46174E-07 3.44358E-19-5.97368E-19
 -1      4158 8.58349E-05-2.11767E-05-2.77254E-05 4.91087E-07-9.34445E-20 3.35251E-20
 -1      4159 8.45297E-05-2.05547E-05-2.74512E-05 3.72471E-07 2.06760E-19-6.25410E-19
 -1      4160 8.64313E-05-2.14720E-05-2.77809E-05-5.81177E-07 1.88700E-19-5.13715E-19
 -1      4161 8.31778E-05-1.99554E-05-2.71156E-05 8.21788E-08 6.56493E-19-7.16012E-19
 -1      4162 8.15121E-05-1.93060E-05-2.67082E-05-1.18166E-07 6.87510E-19-1.06380E-18
 -1      4163 8.40077E-05-2.03166E-05-2.72162E-05-1.27224E-06 5.49827E-20-1.02549E-18
 -1      4164 7.97991E-05-1.86898E-05-2.62177E-05-5.58677E-07 3.23405E-19-1.31319E-18
 -1      4165 7.76250E-05-1.80127E-05-2.56144E-05-8.50112E-07-1.46507E-19-1.52710E-18
 -1      4166 8.09840E-05-1.91469E-05-2.63935E-05-2.33995E-06 2.19850E-19-1.40753E-18
 -1      4167 7.54062E-05-1.74075E-05-2.48971E-05-1.47692E-06-3.31129E-19-1.25955E-18
 -1      4168 7.26677E-05-1.66439E-05-2.40287E-05-1.88349E-06-7.50729E-19-1.00242E-18
 -1      4169 7.70296E-05-1.79748E-05-2.51924E-05-3.97755E-06 6.61000E-21-1.50218E-18
 -1      4170 8.53850E-05-2.63318E-05-2.52850E-05 1.41620E-05 6.41869E-19 2.39622E-18
 -1      4171 9.64724E-05-2.80321E-05-2.93343E-05-6.93141E-07 2.07402E-20-1.11832E-18
 -1      4172 9.64932E-05-2.77800E-05-2.94461E-05-5.04527E-07 1.62918E-19-1.23049E-18
 -1      4173 9.65150E-05-2.80424E-05-2.93448E-05-6.13145E-07 1.44022E-19-1.22962E-18
 -1      4174 9.64540E-05-2.75110E-05-2.95505E-05-3.82508E-07 2.99521E-19-1.53749E-18
 -1      4175 9.63950E-05-2.70937E-05-2.97004E-05-1.08941E-07 7.30234E-20-1.53193E-18
 -1      4176 9.63882E-05-2.68582E-05-2.97963E-05-3.71368E-08 2.04515E-19-1.61060E-18
 -1      4177 9.65357E-05-2.75617E-05-2.95597E-05-3.69898E-07 9.14626E-20-1.41251E-18
 -1      4178 8.14993E-05-1.92317E-05-2.67187E-05-2.72321E-07 1.68504E-18 2.84705E-19
 -1      4179 8.31450E-05-1.98568E-05-2.71413E-05-3.88860E-07 2.55745E-18 1.33410E-18
 -1      4180 8.45484E-05-2.04468E-05-2.74957E-05-6.74347E-07 2.66245E-18 1.26715E-18
 -1      4181 8.58341E-05-2.10461E-05-2.77843E-05-7.27134E-07 2.75329E-18 1.42512E-18
 -1      4182 8.39434E-05-2.02608E-05-2.72540E-05 1.02490E-06 2.90267E-18 1.51097E-18
 -1      4183 8.67152E-05-2.14718E-05-2.79747E-05-7.94504E-07 2.81061E-18 1.02282E-18
 -1      4184 8.77464E-05-2.20225E-05-2.81789E-05-8.12146E-07 1.91353E-18 8.93271E-19
 -1      4185 8.77357E-05-2.20610E-05-2.81362E-05 3.16688E-07 2.37209E-18 2.38896E-18
 -1      4186 8.61492E-05-2.12277E-05-2.77931E-05 5.21074E-07 2.62194E-18 2.75953E-18
 -1      4187 8.53862E-05-2.94075E-05-2.39927E-05-1.93163E-05-9.20546E-19-1.32788E-18
 -1      4188 8.83287E-05-3.03611E-05-2.47761E-05-1.77524E-05-9.02521E-19-9.77383E-19
 -1      4189 8.04144E-05-2.52223E-05-2.36574E-05-1.70060E-05-1.99187E-19-1.82866E-19
 -1      4190 9.58889E-05-2.50498E-05-3.03689E-05-3.91622E-08 2.66524E-19-9.12606E-19
 -1      4191 9.57950E-05-2.48661E-05-3.04029E-05-3.30511E-07 1.80274E-19-1.01083E-18
 -1      4192 9.62488E-05-2.59589E-05-3.01164E-05-1.04721E-07 1.82541E-20-9.14930E-19
 -1      4193 9.62051E-05-2.57618E-05-3.01778E-05 2.41900E-08 2.42619E-19-7.40857E-19
 -1      4194 8.96024E-05-2.38577E-05-2.81677E-05-4.11373E-06-2.77660E-19 1.04476E-19
 -1      4195 9.00402E-05-2.40743E-05-2.82904E-05-3.62137E-06-1.14828E-19 1.43284E-19
 -1      4196 7.06742E-05-1.62767E-05-2.33275E-05 3.76260E-06 1.24345E-19 1.53790E-18
 -1      4197 7.07579E-05-1.60006E-05-2.34878E-05 8.54036E-07 2.14362E-19 1.07515E-18
 -1      4198 8.66602E-05-2.76140E-05-2.52913E-05-1.51992E-05-4.35107E-19-1.32506E-18
 -1      4199 8.84788E-05-2.34481E-05-2.78857E-05 5.38083E-06 8.35091E-20-8.67032E-19
 -1      4200 8.81050E-05-2.34987E-05-2.76746E-05 6.14446E-06-1.78809E-19 5.05960E-19
 -1      4201 9.07132E-05-2.41155E-05-2.85500E-05 2.94192E-06 1.20609E-20-1.40590E-18
 -1      4202 8.74502E-05-2.36015E-05-2.73400E-05-7.07506E-06 2.33617E-19-4.57750E-19
 -1      4203 8.77143E-05-2.34512E-05-2.75747E-05-6.21503E-06-2.62336E-19-3.19304E-19
 -1      4204 8.54436E-05-2.24271E-05-2.69384E-05-7.00153E-06 3.87703E-19-1.32921E-18
 -1      4205 8.63105E-05-2.58516E-05-2.58746E-05-1.25452E-05-3.21194E-21-1.18677E-18
 -1      4206 8.58569E-05-2.47134E-05-2.62513E-05-1.10319E-05 1.21732E-19-9.98467E-19
 -1      4207 8.38963E-05-2.27587E-05-2.61190E-05-9.63307E-06 3.92532E-19-6.85430E-19
 -1      4208 9.58745E-05-2.82728E-05-2.89730E-05-1.20180E-06-6.83463E-20-1.09977E-18
 -1      4209 9.60089E-05-2.82558E-05-2.90366E-05-9.77266E-07-2.06055E-19-1.12355E-18
 -1      4210 9.57082E-05-2.81829E-05-2.89382E-05-1.30114E-06 5.00582E-20-7.95564E-19
 -1      4211 8.73452E-05-2.35168E-05-2.73806E-05 7.09666E-06 4.10296E-19 2.35422E-18
 -1      4212 8.71296E-05-2.38338E-05-2.71053E-05 8.11664E-06 9.99629E-19 2.80102E-18
 -1      4213 8.64075E-05-2.25458E-05-2.73563E-05 5.90549E-06 1.49388E-18 2.54856E-18
 -1      4214 9.17324E-05-2.50436E-05-2.85779E-05-2.47985E-06-6.47778E-20 1.14960E-19
 -1      4215 9.21544E-05-2.53689E-05-2.86335E-05-2.19470E-06-2.12223E-19 3.96384E-20
 -1      4216 7.76489E-05-1.79811E-05-2.55970E-05 3.63838E-07-9.08013E-20-1.14200E-18
 -1      4217 7.97194E-05-1.86263E-05-2.62087E-05 1.58230E-07 3.78412E-19-2.51077E-19
 -1      4218 8.08326E-05-1.91320E-05-2.63958E-05 2.00827E-06 1.37423E-18 2.43370E-19
 -1      4219 8.63808E-05-2.41240E-05-2.67141E-05 9.42194E-06 5.38162E-19 4.07397E-18
 -1      4220 8.64815E-05-2.48950E-05-2.63713E-05 1.08043E-05 5.47867E-19 3.32220E-18
 -1      4221 8.48734E-05-2.26530E-05-2.66468E-05 8.06760E-06 1.04879E-18 4.02730E-18
 -1      4222 8.84897E-05-2.35431E-05-2.78198E-05-5.37365E-06-3.30720E-19-5.50205E-19
 -1      4223 8.88783E-05-2.36205E-05-2.79929E-05-4.72421E-06-3.83024E-19-6.86698E-20
 -1      4224 8.69824E-05-2.25955E-05-2.75413E-05-5.12676E-06-2.88827E-19-9.01959E-19
 -1      4225 9.06998E-05-2.43938E-05-2.84117E-05-3.17729E-06-1.76641E-19 2.03328E-19
 -1      4226 9.11422E-05-2.46870E-05-2.84955E-05-2.80276E-06 8.72776E-20 7.30771E-20
 -1      4227 8.98137E-05-2.37514E-05-2.82812E-05-2.82300E-06 7.05300E-20-8.14620E-20
 -1      4228 9.60640E-05-2.82004E-05-2.90856E-05 5.05623E-07 1.90256E-19-3.43045E-19
 -1      4229 9.58482E-05-2.81065E-05-2.90323E-05 5.62365E-07 1.05308E-19-4.07994E-19
 -1      4230 9.57218E-05-2.80049E-05-2.90197E-05 3.08041E-07-2.96496E-20-4.89789E-19
 -1      4231 9.64177E-05-2.82227E-05-2.92272E-05 4.20065E-07 6.63054E-20-2.70662E-19
 -1      4232 9.62650E-05-2.82422E-05-2.91526E-05 4.90793E-07 2.57193E-19-2.58071E-19
 -1      4233 9.61792E-05-2.81899E-05-2.91375E-05 2.72837E-07 1.62235E-19-4.49749E-19
 -1      4234 6.41642E-05-1.62376E-05-2.04070E-05 1.02118E-05 2.46414E-19-1.55694E-18
 -1      4235 8.49166E-05-2.49326E-05-2.57272E-05 1.23670E-05 3.68827E-19 2.63320E-18
 -1      4236 9.66202E-05-2.79743E-05-2.94202E-05 3.04444E-07-6.94549E-20-2.95726E-19
 -1      4237 9.65440E-05-2.81358E-05-2.93182E-05 3.98836E-07 3.36152E-20-2.91370E-19
 -1      4238 9.66502E-05-2.77898E-05-2.95108E-05 1.55863E-07 1.23794E-19-4.51439E-19
 -1      4239 6.96241E-05-1.86105E-05-2.16982E-05-1.34272E-05-8.76768E-19-7.97121E-19
 -1      4240 7.49967E-05-2.14390E-05-2.29325E-05-1.46226E-05-7.24984E-19-1.07119E-19
 -1      4241 6.85543E-05-1.71314E-05-2.20329E-05-9.53401E-06-7.50809E-19-5.96748E-19
 -1      4242 9.64085E-05-2.64820E-05-2.99719E-05-5.40558E-08 7.47122E-20-8.37361E-19
 -1      4243 9.65544E-05-2.70274E-05-2.97986E-05 1.06559E-07 6.86243E-20-7.43189E-19
 -1      4244 9.66054E-05-2.71827E-05-2.97529E-05 7.03352E-08 2.41565E-19-5.15143E-19
 -1      4245 9.63765E-05-2.63377E-05-3.00179E-05-2.92332E-08 2.03933E-19-8.05172E-19
 -1      4246 9.42671E-05-2.70103E-05-2.88232E-05-1.29273E-06-3.07478E-19-3.97666E-19
 -1      4247 9.45804E-05-2.72782E-05-2.88474E-05-1.16620E-06-1.18568E-19-7.78910E-19
 -1      4248 7.47346E-05-1.79480E-05-2.42987E-05 5.59227E-06-4.45495E-19 8.82757E-19
 -1      4249 8.98811E-05-2.36193E-05-2.84052E-05 2.87937E-06 7.47923E-19-1.39063E-19
 -1      4250 8.84529E-05-2.30813E-05-2.79756E-05-3.78585E-06-4.97586E-20 7.99346E-21
 -1      4251 9.38710E-05-2.67037E-05-2.87921E-05-1.41201E-06-2.82375E-19-1.16688E-19
 -1      4252 9.39527E-05-2.67239E-05-2.88042E-05-1.01381E-06-5.11609E-19-3.18340E-19
 -1      4253 9.35204E-05-2.63987E-05-2.87651E-05-1.57659E-06-1.84492E-19-5.08875E-20
 -1      4254 7.01773E-05-1.64477E-05-2.29218E-05-5.51192E-06-3.68780E-19-8.19362E-19
 -1      4255 9.21431E-05-2.52900E-05-2.86337E-05-1.62989E-06-3.75848E-20-1.54048E-19
 -1      4256 9.26756E-05-2.57300E-05-2.86891E-05-1.96099E-06-3.89007E-19-1.96499E-19
 -1      4257 9.30644E-05-2.60563E-05-2.87262E-05-1.74421E-06-3.80851E-19-2.37000E-19
 -1      4258 9.63520E-05-2.62634E-05-3.00402E-05 3.47807E-08 3.53174E-19-7.03484E-19
 -1      4259 9.63812E-05-2.63150E-05-3.00316E-05-1.67905E-08 2.37574E-19-7.00354E-19
 -1      4260 9.65358E-05-2.67809E-05-2.98890E-05 4.20257E-09 2.79561E-19-7.88183E-19
 -1      4261 7.49924E-05-1.70625E-05-2.48494E-05-2.93037E-08-1.15483E-19-8.69441E-19
 -1      4262 8.32149E-05-2.48519E-05-2.50341E-05-1.39281E-05-8.78615E-20-1.11980E-18
 -1      4263 8.25278E-05-2.27450E-05-2.55926E-05 1.07199E-05-5.73296E-19 3.39574E-18
 -1      4264 8.89850E-05-2.35139E-05-2.80474E-05 4.78367E-06 8.51687E-19-1.54277E-18
 -1      4265 8.76577E-05-2.27168E-05-2.78230E-05 4.44204E-06 1.42222E-18-5.45342E-19
 -1      4266 8.92276E-05-2.35314E-05-2.81632E-05 4.29124E-06 1.88668E-18-2.24956E-18
 -1      4267 8.79577E-05-2.22969E-05-2.81484E-05 1.15308E-06 1.90339E-18 2.43130E-18
 -1      4268 9.10455E-05-2.45106E-05-2.84913E-05-2.12955E-06 1.10241E-19 7.08404E-20
 -1      4269 7.80756E-05-2.26402E-05-2.37269E-05-1.45748E-05-4.47313E-19 5.17273E-20
 -1      4270 8.11702E-05-2.40641E-05-2.44153E-05-1.43094E-05-4.50072E-19-4.11600E-19
 -1      4271 8.09957E-05-2.23243E-05-2.50620E-05-1.15266E-05-7.17612E-20-5.35877E-19
 -1      4272 7.56970E-05-2.03711E-05-2.37260E-05-1.17802E-05-6.15975E-19-5.71435E-19
 -1      4273 9.64999E-05-2.81395E-05-2.92969E-05 2.24421E-07 1.13460E-19-2.47826E-19
 -1      4274 9.63104E-05-2.82788E-05-2.91572E-05-6.71910E-07 1.04488E-19-1.08457E-18
 -1      4275 9.64450E-05-2.82295E-05-2.92340E-05-5.75862E-07 2.55153E-19-1.32157E-18
 -1      4276 9.46870E-05-2.73293E-05-2.88681E-05-8.21567E-07-1.80505E-19-9.24032E-19
 -1      4277 9.49193E-05-2.75347E-05-2.88785E-05-1.08571E-06 9.93067E-20-9.80890E-19
 -1      4278 9.51913E-05-2.77487E-05-2.89066E-05-9.84293E-07 9.45610E-20-1.03780E-18
 -1      4279 8.05612E-05-2.14340E-05-2.53725E-05 9.51257E-06-9.85648E-19 3.95180E-18
 -1      4280 7.84734E-05-1.97737E-05-2.51141E-05 7.79110E-06-1.48233E-18 3.73759E-18
 -1      4281 8.22723E-05-2.16178E-05-2.60292E-05 8.31893E-06-5.28638E-19 4.08519E-18
 -1      4282 7.63969E-05-1.76647E-05-2.51204E-05 2.41155E-06-2.48581E-19-5.65543E-19
 -1      4283 9.63698E-05-2.63669E-05-3.00025E-05 7.85321E-08 4.88527E-19-9.93507E-19
 -1      4284 7.72591E-05-1.87000E-05-2.51131E-05 5.48008E-06-7.74747E-19 9.20712E-19
 -1      4285 9.61355E-05-2.82650E-05-2.90875E-05-7.13799E-07-1.53029E-19-1.12968E-18
 -1      4286 9.62474E-05-2.82281E-05-2.91512E-05-4.89876E-07 5.56197E-20-1.22897E-18
 -1      4287 9.59468E-05-2.82039E-05-2.90333E-05-7.96259E-07-3.69201E-19-1.29294E-18
 -1      4288 7.97677E-05-1.94663E-05-2.58430E-05 4.86184E-06-4.85821E-19 1.72569E-18
 -1      4289 9.55946E-05-2.80488E-05-2.89473E-05-1.13686E-06 5.45195E-21-7.41012E-19
 -1      4290 9.53076E-05-2.77618E-05-2.89507E-05 1.61640E-08-4.18259E-19-6.71961E-19
 -1      4291 9.49835E-05-2.75299E-05-2.89114E-05 3.02006E-08-3.92040E-19-7.98130E-19
 -1      4292 9.62355E-05-2.82243E-05-2.91488E-05-1.29772E-07 2.60417E-21-8.08450E-19
 -1      4293 9.60292E-05-2.81707E-05-2.90816E-05-1.17484E-07-4.63043E-20-8.91733E-19
 -1      4294 9.45530E-05-2.72084E-05-2.88646E-05-2.72539E-07-3.61684E-19-6.35163E-19
 -1      4295 9.41600E-05-2.69006E-05-2.88310E-05-2.83573E-07-2.29811E-19-8.97671E-19
 -1      4296 9.37538E-05-2.65767E-05-2.87970E-05-3.77881E-07-3.88937E-19-9.73344E-19
 -1      4297 9.32885E-05-2.62044E-05-2.87596E-05-4.02913E-07-4.61343E-19-1.13957E-18
 -1      4298 9.28196E-05-2.58350E-05-2.87175E-05-5.35226E-07-3.76425E-19-1.05429E-18
 -1      4299 9.22705E-05-2.54097E-05-2.86684E-05-5.84083E-07-2.58510E-19-1.01889E-18
 -1      4300 9.17315E-05-2.50080E-05-2.86090E-05-7.70271E-07-9.03864E-20-1.26208E-18
 -1      4301 9.10816E-05-2.45394E-05-2.85375E-05-8.56901E-07 4.78059E-20-8.18574E-19
 -1      4302 9.04662E-05-2.41231E-05-2.84500E-05-1.11863E-06 1.75148E-19-5.82198E-19
 -1      4303 8.96944E-05-2.36235E-05-2.83430E-05-1.26265E-06 2.53956E-19-3.48624E-19
 -1      4304 8.89980E-05-2.32169E-05-2.82142E-05-1.63065E-06 7.99468E-20-7.51338E-19
 -1      4305 8.80763E-05-2.27022E-05-2.80547E-05-1.85961E-06 4.18215E-19-6.69209E-19
 -1      4306 8.72973E-05-2.23384E-05-2.78684E-05-2.37790E-06 2.68061E-19-1.00768E-18
 -1      4307 8.61869E-05-2.18280E-05-2.76341E-05-2.73079E-06-5.65188E-20-9.15963E-19
 -1      4308 8.53289E-05-2.15522E-05-2.73703E-05-3.46274E-06-1.22410E-19-1.10210E-18
 -1      4309 8.39719E-05-2.10686E-05-2.70304E-05-3.99713E-06-2.13066E-19-1.41374E-18
 -1      4310 8.30514E-05-2.09425E-05-2.66646E-05-5.03177E-06 1.54561E-19-8.12622E-19
 -1      4311 8.13623E-05-2.05118E-05-2.61758E-05-5.84161E-06 4.39104E-19-9.24738E-19
 -1      4312 9.65454E-05-2.81130E-05-2.93308E-05-5.32524E-07 2.13405E-19-1.35273E-18
 -1      4313 9.66088E-05-2.79170E-05-2.94383E-05-4.08588E-07 9.72806E-20-1.35050E-18
 -1      4314 9.65295E-05-2.81158E-05-2.93202E-05-3.92958E-07 1.25385E-19-1.28596E-18
 -1      4315 9.63947E-05-2.67041E-05-2.98708E-05 3.26084E-08 2.92027E-19-1.40116E-18
 -1      4316 9.63557E-05-2.64619E-05-2.99534E-05 6.69292E-08 4.86304E-19-1.21684E-18
 -1      4317 9.65073E-05-2.71150E-05-2.97404E-05-1.57412E-07 3.09383E-19-1.52651E-18
 -1      4318 8.36873E-05-2.05213E-05-2.71025E-05 2.66995E-06 2.95242E-18 1.94504E-18
 -1      4319 8.50724E-05-2.10186E-05-2.74563E-05 2.17395E-06 3.04866E-18 2.43660E-18
 -1      4320 8.61615E-05-2.14698E-05-2.77458E-05 1.67657E-06 1.93901E-18 2.93600E-18
 -1      4321 8.70396E-05-2.18598E-05-2.79378E-05 1.49337E-06 2.00827E-18 2.67848E-18
 -1      4322 8.81293E-05-2.24945E-05-2.81132E-05 2.17272E-06 1.42674E-18 2.05236E-18
 -1      4323 8.61962E-05-2.16824E-05-2.76246E-05 3.15334E-06 2.36150E-18 2.86482E-18
 -1      4324 9.65187E-05-2.68457E-05-2.98564E-05-6.33111E-08 3.42315E-19-9.49378E-19
 -1      4325 8.95331E-05-2.34820E-05-2.83062E-05 3.27727E-06 1.22968E-18-5.80046E-19
 -1      4326 8.04301E-05-2.06071E-05-2.56768E-05-7.27827E-06 1.81938E-19-1.12446E-18
 -1      4327 8.60478E-05-2.19670E-05-2.74895E-05 4.41643E-06 1.50904E-18 2.14804E-18
 -1      4328 8.52629E-05-2.18396E-05-2.71794E-05 5.27370E-06 2.09392E-18 3.63795E-18
 -1      4329 8.42134E-05-2.16344E-05-2.68598E-05 6.04338E-06 2.36028E-18 3.62486E-18
 -1      4330 8.34212E-05-2.17327E-05-2.64456E-05 7.24825E-06 9.36175E-19 4.54085E-18
 -1      4331 8.19770E-05-2.05804E-05-2.62698E-05 6.09763E-06 8.03542E-19 4.20670E-18
 -1      4332 8.41235E-05-2.09964E-05-2.70130E-05 4.43533E-06 2.50034E-18 3.36155E-18
 -1      4333 9.58271E-05-2.80778E-05-2.90372E-05-6.33509E-08 1.18060E-20-9.96090E-19
 -1      4334 9.55635E-05-2.79285E-05-2.89866E-05-5.42107E-08-2.59624E-19-1.04333E-18
 -1      4335 9.54206E-05-2.78425E-05-2.89628E-05-3.63861E-07-3.09002E-19-1.16182E-18
 -1      4336 9.58722E-05-2.81083E-05-2.90405E-05-4.91065E-07-3.89588E-19-1.58075E-18
 -1      4337 9.65414E-05-2.81480E-05-2.93130E-05-1.05447E-07 9.66457E-20-8.97589E-19
 -1      4338 9.64091E-05-2.82220E-05-2.92219E-05-8.33656E-08 1.60358E-19-8.45323E-19
 -1      4339 9.66739E-05-2.77625E-05-2.95352E-05-8.97029E-08 2.25478E-19-1.03504E-18
 -1      4340 9.66386E-05-2.79998E-05-2.94149E-05-5.84060E-08 1.04580E-19-9.29992E-19
 -1      4341 7.35138E-05-1.82255E-05-2.37356E-05-8.41095E-06-2.63520E-19-9.83609E-19
 -1      4342 8.09197E-05-1.96547E-05-2.62784E-05 4.02203E-06 9.96231E-19 2.36124E-18
 -1      4343 7.62158E-05-1.93987E-05-2.44185E-05-8.60383E-06 7.54513E-20-7.43162E-19
 -1      4344 9.31096E-05-2.60400E-05-2.87315E-05-1.27075E-06-3.11697E-19-3.77905E-19
 -1      4345 8.26756E-05-2.02050E-05-2.67769E-05 3.27513E-06 1.90265E-18 1.99795E-18
 -1      4346 8.71293E-05-2.23192E-05-2.77746E-05 3.78254E-06 1.84751E-18 1.49660E-18
 -1      4347 9.66379E-05-2.76552E-05-2.95630E-05-2.18820E-07 1.43116E-19-1.13408E-18
 -1      4348 9.66135E-05-2.75879E-05-2.95851E-05-2.95123E-07 7.76596E-20-1.12389E-18
 -1      4349 9.65701E-05-2.72749E-05-2.96966E-05-1.68142E-07 1.87881E-19-1.32361E-18
 -1      4350 9.66634E-05-2.74059E-05-2.96786E-05-3.11303E-09 2.22968E-19-8.46555E-19
 -1      4351 7.84264E-05-2.02873E-05-2.49864E-05-8.55130E-06 1.36558E-19-7.92060E-19
 -1      4352 9.66062E-05-2.71522E-05-2.97670E-05 1.73815E-08 3.51120E-19-6.06940E-19
 -1      4353 9.57487E-05-2.80965E-05-2.89944E-05-7.46240E-07-3.85237E-19-1.28010E-18
 -1      4354 9.65815E-05-2.70462E-05-2.98034E-05-6.03159E-08 1.78550E-19-8.08528E-19
 -1      4355 9.47554E-05-2.73595E-05-2.88811E-05-5.82414E-07-3.40190E-19-5.34619E-19
 -1      4356 8.85081E-05-2.28371E-05-2.81479E-05 2.83097E-06 1.34312E-18 1.16121E-18
 -1      4357 9.55158E-05-2.79540E-05-2.89548E-05-8.26007E-07 1.29564E-20-1.12521E-18
 -1      4358 8.76357E-05-2.24689E-05-2.79441E-05 3.26095E-06 1.80444E-18 1.58187E-18
 -1      4359 9.53475E-05-2.78007E-05-2.89473E-05-5.84734E-07-9.87328E-20-1.30815E-18
 -1      4360 9.50973E-05-2.76252E-05-2.89140E-05-5.17631E-07-1.17836E-19-8.57053E-19
 -1      4361 9.65728E-05-2.71288E-05-2.97625E-05-1.08720E-07 2.25942E-19-1.05194E-18
 -3
    1PSTEP                         4           1           1          
  100CL  101 1.000000000        4361                     0    1           1
 -4  ERROR       1    1
 -5  STR(%)      1    1    0    0
 -1         1 1.23483E+01
 -1         2 2.44857E+01
 -1         3 2.86669E-02
 -1         4 3.71529E-02
 -1         5 1.40458E+01
 -1         6 1.31500E+01
 -1         7 1.31500E+01
 -1         8 3.65758E+00
 -1         9 1.81640E+00
 -1        10 1.28726E+00
 -1        11 1.04242E+00
 -1        12 8.96499E-01
 -1        13 8.06781E-01
 -1        14 7.53317E-01
 -1        15 7.55206E-01
 -1        16 8.10968E-01
 -1        17 8.98037E-01
 -1        18 1.04901E+00
 -1        19 1.30345E+00
 -1        20 1.82832E+00
 -1        21 3.49933E+00
 -1        22 8.64272E+00
 -1        23 1.31500E+01
 -1        24 4.32788E+00
 -1        25 3.35396E+00
 -1        26 2.12620E+00
 -1        27 1.37949E+00
 -1        28 1.03392E+00
 -1        29 8.00591E-01
 -1        30 6.28085E-01
 -1        31 4.96994E-01
 -1        32 3.97766E-01
 -1        33 3.24614E-01
 -1        34 2.73204E-01
 -1        35 2.39823E-01
 -1        36 2.45984E-01
 -1        37 2.94240E-01
 -1        38 3.61307E-01
 -1        39 4.48241E-01
 -1        40 5.53981E-01
 -1        41 6.73405E-01
 -1        42 8.07529E-01
 -1        43 1.06187E+00
 -1        44 1.33583E+00
 -1        45 1.68923E+00
 -1        46 1.98623E+00
 -1        47 2.04757E+00
 -1        48 2.04757E+00
 -1        49 2.04594E+00
 -1        50 2.53802E+00
 -1        51 4.63997E+00
 -1        52 5.86601E+00
 -1        53 5.86601E+00
 -1        54 5.86459E+00
 -1        55 4.75790E+00
 -1        56 2.56614E+00
 -1        57 2.04583E+00
 -1        58 2.04583E+00
 -1        59 2.03963E+00
 -1        60 1.99788E+00
 -1        61 1.70684E+00
 -1        62 1.34589E+00
 -1        63 1.06781E+00
 -1        64 8.15561E-01
 -1        65 6.95294E-01
 -1        66 5.73457E-01
 -1        67 4.60934E-01
 -1        68 3.60086E-01
 -1        69 2.73656E-01
 -1        70 2.40157E-01
 -1        71 1.49257E-01
 -1        72 1.40458E+01
 -1        73 3.40298E+00
 -1        74 2.42347E+00
 -1        75 1.67802E+00
 -1        76 1.15905E+00
 -1        77 9.23838E-01
 -1        78 7.55321E-01
 -1        79 6.20054E-01
 -1        80 5.11074E-01
 -1        81 4.24872E-01
 -1        82 3.59244E-01
 -1        83 3.12193E-01
 -1        84 2.81500E-01
 -1        85 2.64507E-01
 -1        86 2.57864E-01
 -1        87 2.97154E-01
 -1        88 3.41116E-01
 -1        89 3.83204E-01
 -1        90 4.13396E-01
 -1        91 4.23538E-01
 -1        92 4.76755E-01
 -1        93 6.04179E-01
 -1        94 6.98600E-01
 -1        95 8.00379E-01
 -1        96 1.00243E+00
 -1        97 1.03350E+00
 -1        98 1.26189E+00
 -1        99 1.42365E+00
 -1       100 2.07899E+00
 -1       101 2.50165E+00
 -1       102 2.77601E+00
 -1       103 2.80865E+00
 -1       104 2.80865E+00
 -1       105 2.22189E+00
 -1       106 1.40618E+00
 -1       107 9.51783E-01
 -1       108 7.11345E-01
 -1       109 8.05843E-01
 -1       110 8.40233E-01
 -1       111 8.40233E-01
 -1       112 7.78618E-01
 -1       113 6.66702E-01
 -1       114 5.54994E-01
 -1       115 4.41840E-01
 -1       116 3.47579E-01
 -1       117 2.91016E-01
 -1       118 2.26955E-01
 -1       119 1.50563E-01
 -1       120 1.00075E-01
 -1       121 4.36190E-02
 -1       122 4.36190E-02
 -1       123 3.93747E-02
 -1       124 2.33324E-02
 -1       125 1.55229E-02
 -1       126 3.02619E-02
 -1       127 4.06380E-02
 -1       128 4.53860E-02
 -1       129 4.53860E-02
 -1       130 4.44260E-02
 -1       131 3.63743E-02
 -1       132 2.24101E-02
 -1       133 2.38576E-02
 -1       134 4.34804E-02
 -1       135 6.51685E-02
 -1       136 7.06577E-02
 -1       137 2.45739E+01
 -1       138 4.74317E+01
 -1       139 4.74317E+01
 -1       140 2.05600E+01
 -1       141 1.27025E+01
 -1       142 1.27025E+01
 -1       143 1.22951E+01
 -1       144 1.22951E+01
 -1       145 1.20540E+01
 -1       146 1.31391E+01
 -1       147 2.94836E+01
 -1       148 3.07313E+01
 -1       149 2.84985E+01
 -1       150 2.63848E+01
 -1       151 2.72108E+01
 -1       152 2.72108E+01
 -1       153 4.21939E+01
 -1       154 4.21939E+01
 -1       155 1.54138E+01
 -1       156 1.33620E+01
 -1       157 1.33620E+01
 -1       158 1.23483E+01
 -1       159 1.21316E+01
 -1       160 1.88187E+01
 -1       161 4.66120E+01
 -1       162 4.66120E+01
 -1       163 2.48306E+01
 -1       164 6.07132E+00
 -1       165 2.29116E+00
 -1       166 1.50390E+00
 -1       167 1.15391E+00
 -1       168 9.70540E-01
 -1       169 8.62236E-01
 -1       170 7.94870E-01
 -1       171 7.55206E-01
 -1       172 7.98171E-01
 -1       173 8.65309E-01
 -1       174 9.78264E-01
 -1       175 1.16890E+00
 -1       176 1.52315E+00
 -1       177 2.25597E+00
 -1       178 3.92702E+00
 -1       179 1.40458E+01
 -1       180 4.32788E+00
 -1       181 3.35396E+00
 -1       182 2.12620E+00
 -1       183 1.46064E+00
 -1       184 1.04090E+00
 -1       185 8.00591E-01
 -1       186 6.28085E-01
 -1       187 4.99383E-01
 -1       188 4.06301E-01
 -1       189 3.32103E-01
 -1       190 2.74360E-01
 -1       191 2.39823E-01
 -1       192 2.20990E-01
 -1       193 2.45984E-01
 -1       194 2.94240E-01
 -1       195 3.61307E-01
 -1       196 4.48241E-01
 -1       197 6.04832E-01
 -1       198 7.97324E-01
 -1       199 1.00965E+00
 -1       200 1.21735E+00
 -1       201 1.40514E+00
 -1       202 1.68923E+00
 -1       203 1.98623E+00
 -1       204 2.04757E+00
 -1       205 2.04594E+00
 -1       206 1.75472E+00
 -1       207 2.66869E+00
 -1       208 4.63997E+00
 -1       209 5.86601E+00
 -1       210 5.86459E+00
 -1       211 4.75790E+00
 -1       212 2.74859E+00
 -1       213 1.75781E+00
 -1       214 2.04583E+00
 -1       215 2.03963E+00
 -1       216 1.99788E+00
 -1       217 1.70684E+00
 -1       218 1.41348E+00
 -1       219 1.21757E+00
 -1       220 1.00721E+00
 -1       221 7.89278E-01
 -1       222 5.89514E-01
 -1       223 4.60934E-01
 -1       224 3.60086E-01
 -1       225 2.73656E-01
 -1       226 2.40157E-01
 -1       227 1.49257E-01
 -1       228 3.40298E+00
 -1       229 2.42347E+00
 -1       230 1.67802E+00
 -1       231 1.15905E+00
 -1       232 9.23838E-01
 -1       233 7.55321E-01
 -1       234 6.20054E-01
 -1       235 5.11074E-01
 -1       236 4.24872E-01
 -1       237 3.59244E-01
 -1       238 3.12193E-01
 -1       239 2.81500E-01
 -1       240 2.64507E-01
 -1       241 2.57864E-01
 -1       242 2.59682E-01
 -1       243 2.97154E-01
 -1       244 3.41116E-01
 -1       245 3.83204E-01
 -1       246 4.13396E-01
 -1       247 4.23538E-01
 -1       248 4.98383E-01
 -1       249 6.04179E-01
 -1       250 6.98600E-01
 -1       251 8.00379E-01
 -1       252 1.00243E+00
 -1       253 1.03350E+00
 -1       254 1.26189E+00
 -1       255 1.52710E+00
 -1       256 2.07899E+00
 -1       257 2.50165E+00
 -1       258 2.77601E+00
 -1       259 2.80865E+00
 -1       260 2.22189E+00
 -1       261 1.40618E+00
 -1       262 9.51783E-01
 -1       263 6.55089E-01
 -1       264 7.11345E-01
 -1       265 8.05843E-01
 -1       266 8.40233E-01
 -1       267 7.78618E-01
 -1       268 6.66702E-01
 -1       269 5.54994E-01
 -1       270 4.48469E-01
 -1       271 3.47579E-01
 -1       272 2.91016E-01
 -1       273 2.26955E-01
 -1       274 1.52964E-01
 -1       275 1.00075E-01
 -1       276 6.09806E-02
 -1       277 6.33865E-02
 -1       278 6.33865E-02
 -1       279 3.18400E-02
 -1       280 5.33696E-02
 -1       281 7.45234E-02
 -1       282 8.62046E-02
 -1       283 8.76200E-02
 -1       284 8.76200E-02
 -1       285 8.33276E-02
 -1       286 6.76522E-02
 -1       287 4.04717E-02
 -1       288 6.91324E-02
 -1       289 6.91324E-02
 -1       290 8.94802E-02
 -1       291 2.96072E+01
 -1       292 2.84001E+01
 -1       293 4.74317E+01
 -1       294 2.23571E+01
 -1       295 1.08023E+01
 -1       296 1.27025E+01
 -1       297 1.20029E+01
 -1       298 1.22951E+01
 -1       299 1.20540E+01
 -1       300 1.13206E+01
 -1       301 1.31391E+01
 -1       302 3.07313E+01
 -1       303 3.07313E+01
 -1       304 2.54530E+01
 -1       305 3.09421E+01
 -1       306 3.09421E+01
 -1       307 3.73943E+01
 -1       308 4.21939E+01
 -1       309 1.70652E+01
 -1       310 1.16764E+01
 -1       311 1.33620E+01
 -1       312 1.20395E+01
 -1       313 1.23483E+01
 -1       314 1.21316E+01
 -1       315 1.12602E+01
 -1       316 1.96286E+01
 -1       317 4.66120E+01
 -1       318 2.84806E+01
 -1       319 2.96072E+01
 -1       320 1.03969E+00
 -1       321 2.47313E+00
 -1       322 7.88495E-01
 -1       323 6.91548E-01
 -1       324 6.29785E-01
 -1       325 5.86191E-01
 -1       326 5.89340E-01
 -1       327 6.32500E-01
 -1       328 6.98635E-01
 -1       329 7.93283E-01
 -1       330 9.28219E-01
 -1       331 1.15309E+00
 -1       332 1.32191E+00
 -1       333 2.20327E+00
 -1       334 1.91670E+00
 -1       335 1.73958E+00
 -1       336 1.27918E+00
 -1       337 9.20058E-01
 -1       338 6.70040E-01
 -1       339 5.60991E-01
 -1       340 4.69030E-01
 -1       341 3.89380E-01
 -1       342 3.22571E-01
 -1       343 2.68156E-01
 -1       344 2.24806E-01
 -1       345 1.90491E-01
 -1       346 2.01216E-01
 -1       347 2.37994E-01
 -1       348 2.87999E-01
 -1       349 4.00611E-01
 -1       350 5.46863E-01
 -1       351 7.19274E-01
 -1       352 9.12592E-01
 -1       353 1.11139E+00
 -1       354 1.28506E+00
 -1       355 1.41574E+00
 -1       356 1.57176E+00
 -1       357 1.65403E+00
 -1       358 1.62860E+00
 -1       359 1.78943E+00
 -1       360 1.80877E+00
 -1       361 2.45976E+00
 -1       362 3.24700E+00
 -1       363 4.07429E+00
 -1       364 3.33775E+00
 -1       365 2.49744E+00
 -1       366 1.87086E+00
 -1       367 1.77680E+00
 -1       368 1.60556E+00
 -1       369 1.65057E+00
 -1       370 1.57303E+00
 -1       371 1.41469E+00
 -1       372 1.28230E+00
 -1       373 1.10855E+00
 -1       374 9.07009E-01
 -1       375 7.09672E-01
 -1       376 5.33413E-01
 -1       377 3.85111E-01
 -1       378 2.72103E-01
 -1       379 1.99177E-01
 -1       380 1.30759E-01
 -1       381 1.13879E+00
 -1       382 9.00946E-01
 -1       383 7.13849E-01
 -1       384 5.54909E-01
 -1       385 4.56495E-01
 -1       386 3.92888E-01
 -1       387 3.31833E-01
 -1       388 2.88558E-01
 -1       389 2.54425E-01
 -1       390 2.29156E-01
 -1       391 2.11965E-01
 -1       392 2.01219E-01
 -1       393 2.26534E-01
 -1       394 2.69809E-01
 -1       395 3.48011E-01
 -1       396 4.23823E-01
 -1       397 4.86774E-01
 -1       398 5.48588E-01
 -1       399 5.71414E-01
 -1       400 5.71414E-01
 -1       401 5.27363E-01
 -1       402 4.04730E-01
 -1       403 4.72985E-01
 -1       404 7.92875E-01
 -1       405 1.23816E+00
 -1       406 1.53273E+00
 -1       407 1.55834E+00
 -1       408 1.55834E+00
 -1       409 1.58797E+00
 -1       410 1.76624E+00
 -1       411 1.56244E+00
 -1       412 1.10907E+00
 -1       413 6.89973E-01
 -1       414 4.51603E-01
 -1       415 4.64291E-01
 -1       416 5.55438E-01
 -1       417 6.05718E-01
 -1       418 6.04315E-01
 -1       419 5.50246E-01
 -1       420 4.87097E-01
 -1       421 4.12851E-01
 -1       422 3.30290E-01
 -1       423 2.62234E-01
 -1       424 2.10748E-01
 -1       425 1.52964E-01
 -1       426 9.08208E-02
 -1       427 6.96469E-02
 -1       428 1.16217E-01
 -1       429 1.16217E-01
 -1       430 6.90386E-02
 -1       431 1.00076E-01
 -1       432 1.19767E-01
 -1       433 1.23989E-01
 -1       434 1.25823E-01
 -1       435 1.25823E-01
 -1       436 1.18626E-01
 -1       437 9.33561E-02
 -1       438 7.33150E-02
 -1       439 1.15511E-01
 -1       440 2.84001E+01
 -1       441 3.00218E+01
 -1       442 2.81970E+01
 -1       443 1.62945E+01
 -1       444 9.21993E+00
 -1       445 9.14763E-01
 -1       446 1.03186E+01
 -1       447 1.07448E+01
 -1       448 9.54241E+00
 -1       449 9.32266E+00
 -1       450 7.66692E+00
 -1       451 1.18194E+01
 -1       452 2.06310E+01
 -1       453 2.27018E+01
 -1       454 3.47841E+01
 -1       455 3.47841E+01
 -1       456 2.70165E+01
 -1       457 2.47236E+01
 -1       458 1.38255E+01
 -1       459 7.94152E+00
 -1       460 7.10718E+00
 -1       461 1.03175E+01
 -1       462 1.08049E+01
 -1       463 1.01055E+01
 -1       464 8.04518E+00
 -1       465 9.07157E+00
 -1       466 1.61097E+01
 -1       467 2.84806E+01
 -1       468 3.00218E+01
 -1       469 7.18405E+00
 -1       470 1.49690E+01
 -1       471 7.87983E+00
 -1       472 7.38117E+00
 -1       473 1.05683E+00
 -1       474 4.83767E-01
 -1       475 5.08206E-01
 -1       476 4.30082E-01
 -1       477 4.55575E-01
 -1       478 4.84725E-01
 -1       479 5.08476E-01
 -1       480 5.08476E-01
 -1       481 5.99510E-01
 -1       482 9.56388E+00
 -1       483 9.00946E-01
 -1       484 8.02837E-01
 -1       485 4.84677E+00
 -1       486 7.11289E-01
 -1       487 5.97120E-01
 -1       488 4.84142E-01
 -1       489 3.88074E-01
 -1       490 3.41844E-01
 -1       491 2.93180E-01
 -1       492 2.46101E-01
 -1       493 2.02100E-01
 -1       494 1.60967E-01
 -1       495 1.42223E-01
 -1       496 1.66855E-01
 -1       497 2.24583E-01
 -1       498 3.29114E-01
 -1       499 4.55544E-01
 -1       500 6.07189E-01
 -1       501 7.85400E-01
 -1       502 9.87554E-01
 -1       503 1.20404E+00
 -1       504 1.41422E+00
 -1       505 1.58204E+00
 -1       506 1.90691E+00
 -1       507 2.29530E+00
 -1       508 2.68655E+00
 -1       509 3.24956E+00
 -1       510 3.08286E+00
 -1       511 3.08013E+00
 -1       512 4.99207E+00
 -1       513 6.45002E+00
 -1       514 5.10296E+00
 -1       515 2.73759E+00
 -1       516 3.20137E+00
 -1       517 2.46269E+00
 -1       518 2.14881E+00
 -1       519 1.77015E+00
 -1       520 1.53820E+00
 -1       521 1.35875E+00
 -1       522 1.14633E+00
 -1       523 9.23359E-01
 -1       524 7.26943E-01
 -1       525 5.59875E-01
 -1       526 4.18764E-01
 -1       527 3.03392E-01
 -1       528 2.11461E-01
 -1       529 5.54909E-01
 -1       530 4.56495E-01
 -1       531 3.92888E-01
 -1       532 3.31833E-01
 -1       533 2.76318E-01
 -1       534 2.27237E-01
 -1       535 1.84067E-01
 -1       536 1.46756E-01
 -1       537 1.64765E-01
 -1       538 1.87402E-01
 -1       539 2.32386E-01
 -1       540 3.06402E-01
 -1       541 3.80145E-01
 -1       542 4.46128E-01
 -1       543 5.06308E-01
 -1       544 5.48588E-01
 -1       545 5.74605E-01
 -1       546 5.65740E-01
 -1       547 5.38776E-01
 -1       548 6.11226E-01
 -1       549 7.39924E-01
 -1       550 1.02529E+00
 -1       551 1.31390E+00
 -1       552 1.53273E+00
 -1       553 1.57306E+00
 -1       554 1.47933E+00
 -1       555 1.57038E+00
 -1       556 1.40476E+00
 -1       557 1.19362E+00
 -1       558 8.77187E-01
 -1       559 6.25712E-01
 -1       560 5.83278E-01
 -1       561 5.30118E-01
 -1       562 5.66801E-01
 -1       563 5.52267E-01
 -1       564 5.11378E-01
 -1       565 4.54351E-01
 -1       566 3.93940E-01
 -1       567 3.22387E-01
 -1       568 2.47956E-01
 -1       569 1.81321E-01
 -1       570 1.38759E-01
 -1       571 1.20791E-01
 -1       572 1.52490E-01
 -1       573 1.49135E-01
 -1       574 1.49135E-01
 -1       575 1.65811E-01
 -1       576 1.65811E-01
 -1       577 1.71497E-01
 -1       578 1.71497E-01
 -1       579 1.55779E-01
 -1       580 1.16670E-01
 -1       581 1.16670E-01
 -1       582 2.81970E+01
 -1       583 1.37127E+01
 -1       584 7.13849E-01
 -1       585 3.00218E+01
 -1       586 2.06763E+01
 -1       587 5.01981E+00
 -1       588 1.11615E+01
 -1       589 2.70165E+01
 -1       590 4.55466E-01
 -1       591 6.58128E+00
 -1       592 7.01649E+00
 -1       593 8.24668E+00
 -1       594 3.96541E+00
 -1       595 7.48303E+00
 -1       596 9.61161E+00
 -1       597 1.50466E+01
 -1       598 2.27018E+01
 -1       599 3.47841E+01
 -1       600 1.65714E+01
 -1       601 5.42299E+00
 -1       602 4.82172E+00
 -1       603 7.70228E+00
 -1       604 8.08534E+00
 -1       605 5.52223E+00
 -1       606 1.02057E+01
 -1       607 1.99740E+01
 -1       608 8.76207E-01
 -1       609 1.32911E+00
 -1       610 7.12630E-01
 -1       611 5.09683E+00
 -1       612 1.89605E+01
 -1       613 1.22245E+01
 -1       614 7.08175E+00
 -1       615 1.28721E-01
 -1       616 3.57413E-01
 -1       617 3.42099E-01
 -1       618 3.60598E-01
 -1       619 3.36397E-01
 -1       620 1.00201E+01
 -1       621 5.42904E-01
 -1       622 4.03002E-01
 -1       623 3.87973E-01
 -1       624 3.44727E-01
 -1       625 2.91010E-01
 -1       626 2.41993E-01
 -1       627 2.08968E-01
 -1       628 1.71770E-01
 -1       629 1.31882E-01
 -1       630 8.91013E-02
 -1       631 9.69329E-02
 -1       632 1.56811E-01
 -1       633 2.40924E-01
 -1       634 3.42458E-01
 -1       635 4.66174E-01
 -1       636 6.18037E-01
 -1       637 8.09591E-01
 -1       638 1.04778E+00
 -1       639 1.33359E+00
 -1       640 1.69859E+00
 -1       641 2.13404E+00
 -1       642 2.59155E+00
 -1       643 3.44115E+00
 -1       644 4.09371E+00
 -1       645 7.08175E+00
 -1       646 2.99849E+00
 -1       647 5.04166E+00
 -1       648 4.47245E+00
 -1       649 3.49619E+00
 -1       650 2.52061E+00
 -1       651 2.09280E+00
 -1       652 1.69139E+00
 -1       653 1.33855E+00
 -1       654 1.04895E+00
 -1       655 8.10672E-01
 -1       656 6.19818E-01
 -1       657 4.66370E-01
 -1       658 3.43399E-01
 -1       659 2.43069E-01
 -1       660 3.28097E-01
 -1       661 2.34046E-01
 -1       662 4.00028E-01
 -1       663 2.43116E-01
 -1       664 2.02178E-01
 -1       665 1.61206E-01
 -1       666 1.20517E-01
 -1       667 1.09840E-01
 -1       668 1.26029E-01
 -1       669 1.86489E-01
 -1       670 2.57841E-01
 -1       671 3.33536E-01
 -1       672 4.09944E-01
 -1       673 4.80475E-01
 -1       674 5.38116E-01
 -1       675 6.23657E-01
 -1       676 7.02866E-01
 -1       677 7.46459E-01
 -1       678 8.52386E-01
 -1       679 9.56202E-01
 -1       680 1.24233E+00
 -1       681 1.49563E+00
 -1       682 1.45841E+00
 -1       683 2.05720E+00
 -1       684 2.02120E+00
 -1       685 2.10751E+00
 -1       686 1.64539E+00
 -1       687 1.33257E+00
 -1       688 1.29066E+00
 -1       689 1.17714E+00
 -1       690 9.06209E-01
 -1       691 7.30758E-01
 -1       692 7.19127E-01
 -1       693 6.52185E-01
 -1       694 5.62427E-01
 -1       695 4.94706E-01
 -1       696 4.29452E-01
 -1       697 3.55207E-01
 -1       698 2.77979E-01
 -1       699 2.26744E-01
 -1       700 2.11468E-01
 -1       701 1.54508E-01
 -1       702 1.83576E-01
 -1       703 2.19710E-01
 -1       704 2.10842E-01
 -1       705 3.76343E+00
 -1       706 1.42154E+01
 -1       707 2.27116E-01
 -1       708 2.27116E-01
 -1       709 1.95215E-01
 -1       710 1.74738E-01
 -1       711 6.98880E+00
 -1       712 1.57224E+01
 -1       713 1.18847E+01
 -1       714 1.17687E+01
 -1       715 6.84145E+00
 -1       716 1.58508E+01
 -1       717 9.01940E+00
 -1       718 4.69511E-01
 -1       719 2.82194E-01
 -1       720 4.06776E-01
 -1       721 3.60598E-01
 -1       722 9.27009E+00
 -1       723 3.60948E-01
 -1       724 5.80212E+00
 -1       725 6.06974E+00
 -1       726 4.48576E+00
 -1       727 5.21758E-01
 -1       728 4.23874E+00
 -1       729 7.84131E+00
 -1       730 1.34165E+01
 -1       731 1.57495E+01
 -1       732 3.52961E+00
 -1       733 5.22612E+00
 -1       734 2.65070E+00
 -1       735 4.19077E-01
 -1       736 3.41767E-01
 -1       737 4.39907E-01
 -1       738 1.19058E+01
 -1       739 5.10296E+00
 -1       740 2.34046E-01
 -1       741 4.31170E+00
 -1       742 8.56888E+00
 -1       743 7.08175E+00
 -1       744 1.20040E+01
 -1       745 9.93625E+00
 -1       746 3.57078E-01
 -1       747 2.39268E-01
 -1       748 2.54685E-01
 -1       749 2.44664E-01
 -1       750 2.17235E-01
 -1       751 1.80593E-01
 -1       752 1.52005E-01
 -1       753 1.18715E-01
 -1       754 7.96958E-02
 -1       755 8.21845E-02
 -1       756 1.20167E-01
 -1       757 1.96210E-01
 -1       758 2.94553E-01
 -1       759 4.16694E-01
 -1       760 5.68410E-01
 -1       761 7.55702E-01
 -1       762 9.83621E-01
 -1       763 1.25328E+00
 -1       764 1.60577E+00
 -1       765 2.16510E+00
 -1       766 3.17239E+00
 -1       767 5.11624E+00
 -1       768 4.90971E+00
 -1       769 3.58248E+00
 -1       770 3.09889E+00
 -1       771 2.13096E+00
 -1       772 1.58956E+00
 -1       773 1.24092E+00
 -1       774 9.74302E-01
 -1       775 7.45987E-01
 -1       776 5.56847E-01
 -1       777 4.97948E-01
 -1       778 2.86878E-01
 -1       779 2.84588E-01
 -1       780 1.33369E-01
 -1       781 1.70721E-01
 -1       782 5.49724E-02
 -1       783 7.66672E-02
 -1       784 1.34572E-01
 -1       785 2.00357E-01
 -1       786 2.74941E-01
 -1       787 3.60928E-01
 -1       788 4.53136E-01
 -1       789 5.46883E-01
 -1       790 6.40209E-01
 -1       791 7.70679E-01
 -1       792 9.35942E-01
 -1       793 1.09379E+00
 -1       794 1.26880E+00
 -1       795 1.24233E+00
 -1       796 2.40871E+00
 -1       797 2.54727E+00
 -1       798 2.54188E+00
 -1       799 3.12111E+00
 -1       800 2.47161E+00
 -1       801 3.16222E+00
 -1       802 2.31194E+00
 -1       803 1.84757E+00
 -1       804 2.28575E+00
 -1       805 1.21644E+00
 -1       806 1.14002E+00
 -1       807 1.00812E+00
 -1       808 8.38923E-01
 -1       809 6.76152E-01
 -1       810 5.79786E-01
 -1       811 4.83269E-01
 -1       812 3.89249E-01
 -1       813 3.07299E-01
 -1       814 2.87484E-01
 -1       815 3.06905E-01
 -1       816 2.70487E-01
 -1       817 2.91519E-01
 -1       818 1.02108E+01
 -1       819 2.81568E-01
 -1       820 3.06649E-01
 -1       821 4.92342E+00
 -1       822 8.42249E+00
 -1       823 4.02533E+00
 -1       824 2.59049E-01
 -1       825 3.43839E-01
 -1       826 4.24461E+00
 -1       827 9.52911E-02
 -1       828 3.16222E+00
 -1       829 1.02108E+01
 -1       830 6.13277E+00
 -1       831 8.81578E+00
 -1       832 7.72739E+00
 -1       833 2.35340E-01
 -1       834 5.05805E+00
 -1       835 2.56293E+00
 -1       836 2.04003E+00
 -1       837 4.40220E+00
 -1       838 8.72235E+00
 -1       839 2.80448E-01
 -1       840 3.68727E+00
 -1       841 7.26708E+00
 -1       842 2.29995E-01
 -1       843 6.42386E+00
 -1       844 6.19691E+00
 -1       845 2.46920E-01
 -1       846 3.11239E+00
 -1       847 2.02673E-01
 -1       848 2.70142E-01
 -1       849 2.53783E-01
 -1       850 2.87484E-01
 -1       851 2.70487E-01
 -1       852 2.79286E-01
 -1       853 8.55558E+00
 -1       854 2.73917E-01
 -1       855 9.19076E+00
 -1       856 7.59682E+00
 -1       857 2.86859E-01
 -1       858 6.83183E+00
 -1       859 2.78142E-01
 -1       860 3.12111E+00
 -1       861 2.34046E-01
 -1       862 4.97948E-01
 -1       863 6.90559E+00
 -1       864 1.75270E-01
 -1       865 1.61696E-01
 -1       866 1.37104E-01
 -1       867 1.17393E-01
 -1       868 9.88603E-02
 -1       869 1.08341E-01
 -1       870 1.21804E-01
 -1       871 1.77711E-01
 -1       872 2.62608E-01
 -1       873 3.68874E-01
 -1       874 5.03353E-01
 -1       875 6.75744E-01
 -1       876 9.00397E-01
 -1       877 1.19919E+00
 -1       878 1.60577E+00
 -1       879 2.16510E+00
 -1       880 2.97965E+00
 -1       881 3.61256E+00
 -1       882 2.63542E+00
 -1       883 7.60294E+00
 -1       884 3.14554E+00
 -1       885 2.15583E+00
 -1       886 1.58956E+00
 -1       887 1.18959E+00
 -1       888 8.92014E-01
 -1       889 6.66737E-01
 -1       890 4.99449E-01
 -1       891 1.20563E-01
 -1       892 8.93754E-02
 -1       893 2.46846E-01
 -1       894 3.19225E-01
 -1       895 4.06299E-01
 -1       896 5.14243E-01
 -1       897 6.54717E-01
 -1       898 8.27283E-01
 -1       899 1.00423E+00
 -1       900 1.29339E+00
 -1       901 1.77377E+00
 -1       902 2.01166E+00
 -1       903 2.31194E+00
 -1       904 2.43464E+00
 -1       905 1.44092E+00
 -1       906 1.10470E+00
 -1       907 9.04538E-01
 -1       908 7.23246E-01
 -1       909 5.62417E-01
 -1       910 4.39639E-01
 -1       911 3.58432E-01
 -1       912 6.74384E+00
 -1       913 1.33335E-01
 -1       914 6.90559E+00
 -1       915 1.80680E-01
 -1       916 1.31145E-01
 -1       917 8.55558E+00
 -1       918 2.86859E-01
 -1       919 5.39311E+00
 -1       920 1.71887E-01
 -1       921 3.26292E+00
 -1       922 1.44829E-01
 -1       923 2.05516E-01
 -1       924 3.14448E+00
 -1       925 2.15304E-01
 -1       926 2.15304E-01
 -1       927 8.58848E-02
 -1       928 1.02166E-01
 -1       929 1.54933E-01
 -1       930 3.07299E-01
 -1       931 3.71627E+00
 -1       932 3.90184E-01
 -1       933 3.54512E-01
 -1       934 3.34117E-01
 -1       935 7.60294E+00
 -1       936 3.59519E-01
 -1       937 2.03363E-01
 -1       938 1.69353E-01
 -1       939 1.40960E-01
 -1       940 5.34212E+00
 -1       941 6.52081E+00
 -1       942 6.67996E+00
 -1       943 4.10682E+00
 -1       944 1.56655E-01
 -1       945 2.02505E-01
 -1       946 1.19489E-01
 -1       947 1.21686E-01
 -1       948 1.05656E-01
 -1       949 1.09298E-01
 -1       950 1.21135E-01
 -1       951 1.35494E-01
 -1       952 1.58090E-01
 -1       953 2.13013E-01
 -1       954 2.95171E-01
 -1       955 3.98993E-01
 -1       956 5.32959E-01
 -1       957 7.11337E-01
 -1       958 9.59520E-01
 -1       959 1.32437E+00
 -1       960 1.89781E+00
 -1       961 2.88112E+00
 -1       962 4.07547E+00
 -1       963 9.09653E-02
 -1       964 3.42576E+00
 -1       965 1.92676E+00
 -1       966 1.35896E+00
 -1       967 9.81663E-01
 -1       968 7.24057E-01
 -1       969 5.36017E-01
 -1       970 1.25298E-01
 -1       971 1.84312E-01
 -1       972 4.06299E-01
 -1       973 3.19225E-01
 -1       974 6.36300E-01
 -1       975 8.03656E-01
 -1       976 1.10243E+00
 -1       977 1.47784E+00
 -1       978 2.28367E+00
 -1       979 2.78993E+00
 -1       980 2.74848E+00
 -1       981 9.22363E-01
 -1       982 7.01191E-01
 -1       983 5.61224E-01
 -1       984 5.49302E-01
 -1       985 3.54512E-01
 -1       986 4.98650E+00
 -1       987 4.18739E-01
 -1       988 5.01230E-01
 -1       989 1.35022E-01
 -1       990 4.98650E+00
 -1       991 1.25657E+00
 -1       992 1.69285E+00
 -1       993 2.00066E-01
 -1       994 4.30112E+00
 -1       995 4.97818E+00
 -1       996 2.11751E-01
 -1       997 3.01042E+00
 -1       998 1.28002E-01
 -1       999 1.75299E-01
 -1      1000 4.82067E+00
 -1      1001 1.50396E-01
 -1      1002 1.15077E-01
 -1      1003 1.39451E-01
 -1      1004 1.17869E-01
 -1      1005 4.63642E+00
 -1      1006 4.18739E-01
 -1      1007 2.63244E+00
 -1      1008 1.14640E-01
 -1      1009 1.02325E-01
 -1      1010 2.42146E-01
 -1      1011 4.38841E-01
 -1      1012 4.70267E+00
 -1      1013 5.43096E+00
 -1      1014 1.39080E-01
 -1      1015 4.38841E-01
 -1      1016 2.91753E-01
 -1      1017 1.12444E-01
 -1      1018 1.12812E-01
 -1      1019 1.24555E-01
 -1      1020 1.36153E-01
 -1      1021 1.58090E-01
 -1      1022 1.95369E-01
 -1      1023 2.44840E-01
 -1      1024 3.11406E-01
 -1      1025 4.02185E-01
 -1      1026 5.25591E-01
 -1      1027 6.97644E-01
 -1      1028 9.47362E-01
 -1      1029 1.32821E+00
 -1      1030 1.98332E+00
 -1      1031 4.07547E+00
 -1      1032 1.07277E-01
 -1      1033 3.02127E+00
 -1      1034 9.64552E-02
 -1      1035 1.35478E+00
 -1      1036 9.54955E-01
 -1      1037 7.00852E-01
 -1      1038 5.39628E-01
 -1      1039 1.44123E-01
 -1      1040 4.97460E-01
 -1      1041 1.06088E+00
 -1      1042 8.03656E-01
 -1      1043 1.96885E+00
 -1      1044 2.74848E+00
 -1      1045 7.01191E-01
 -1      1046 8.83038E-01
 -1      1047 6.36300E-01
 -1      1048 1.50396E-01
 -1      1049 5.49302E-01
 -1      1050 1.64064E-01
 -1      1051 4.01767E-01
 -1      1052 1.18257E+00
 -1      1053 2.22381E+00
 -1      1054 1.38006E-01
 -1      1055 3.83975E-01
 -1      1056 2.98035E+00
 -1      1057 9.90239E-02
 -1      1058 8.72897E-02
 -1      1059 1.46148E+00
 -1      1060 5.61224E-01
 -1      1061 3.91572E+00
 -1      1062 1.38035E-01
 -1      1063 2.78993E+00
 -1      1064 2.16889E-01
 -1      1065 1.01840E-01
 -1      1066 2.63244E+00
 -1      1067 4.84614E-01
 -1      1068 1.01055E-01
 -1      1069 4.39642E+00
 -1      1070 1.05121E-01
 -1      1071 5.44999E-01
 -1      1072 1.64600E-01
 -1      1073 9.31896E-02
 -1      1074 8.05957E-02
 -1      1075 1.96484E+00
 -1      1076 1.42235E-01
 -1      1077 7.75956E-02
 -1      1078 1.36153E-01
 -1      1079 1.72612E-01
 -1      1080 1.87414E-01
 -1      1081 2.28873E-01
 -1      1082 2.83107E-01
 -1      1083 3.55723E-01
 -1      1084 4.51129E-01
 -1      1085 6.14869E-01
 -1      1086 8.94922E-01
 -1      1087 1.32097E+00
 -1      1088 1.96484E+00
 -1      1089 3.76226E+00
 -1      1090 1.08393E-01
 -1      1091 9.19223E-02
 -1      1092 1.08429E+00
 -1      1093 8.05451E-01
 -1      1094 5.44999E-01
 -1      1095 2.59546E+00
 -1      1096 1.12444E-01
 -1      1097 6.14869E-01
 -1      1098 3.02127E+00
 -1      1099 8.81500E-01
 -1      1100 1.32097E+00
 -1      1101 2.91677E+00
 -1      1102 1.07277E-01
 -1      1103 1.18257E+00
 -1      1104 3.21941E-01
 -1      1105 1.89238E+00
 -1      1106 1.95158E+00
 -1      1107 8.94922E-01
 -1      1108 4.31867E-01
 -1      1109 1.24555E-01
 -1      1110 1.12812E-01
 -1      1111 9.83365E-02
 -1      1112 3.57531E+00
 -1      1113 5.07296E-02
 -1      1114 1.72612E-01
 -1      1115 1.98699E-01
 -1      1116 2.39752E-01
 -1      1117 5.39161E-02
 -1      1118 6.79047E-01
 -1      1119 2.91677E+00
 -1      1120 1.03286E-01
 -1      1121 1.71049E-01
 -1      1122 1.55124E+00
 -1      1123 1.10886E-01
 -1      1124 1.72612E-01
 -1      1125 9.12339E-02
 -1      1126 5.76711E-02
 -1      1127 8.33199E-01
 -1      1128 6.10057E-01
 -1      1129 1.28196E+00
 -1      1130 1.42235E-01
 -1      1131 8.73218E-02
 -1      1132 1.31500E+01
 -1      1133 8.40378E+00
 -1      1134 2.73699E+00
 -1      1135 1.55183E+00
 -1      1136 1.16484E+00
 -1      1137 9.69461E-01
 -1      1138 8.51640E-01
 -1      1139 7.80049E-01
 -1      1140 7.54261E-01
 -1      1141 7.83087E-01
 -1      1142 8.54502E-01
 -1      1143 9.73525E-01
 -1      1144 1.17623E+00
 -1      1145 1.56588E+00
 -1      1146 2.66382E+00
 -1      1147 6.07102E+00
 -1      1148 1.13442E+01
 -1      1149 1.31500E+01
 -1      1150 8.73893E+00
 -1      1151 3.84092E+00
 -1      1152 2.74008E+00
 -1      1153 1.75285E+00
 -1      1154 1.20671E+00
 -1      1155 9.17256E-01
 -1      1156 7.14338E-01
 -1      1157 5.62540E-01
 -1      1158 4.47380E-01
 -1      1159 3.61190E-01
 -1      1160 2.98909E-01
 -1      1161 2.56514E-01
 -1      1162 2.42903E-01
 -1      1163 2.70112E-01
 -1      1164 3.27774E-01
 -1      1165 4.04774E-01
 -1      1166 5.01111E-01
 -1      1167 6.13693E-01
 -1      1168 7.40467E-01
 -1      1169 9.34697E-01
 -1      1170 1.19885E+00
 -1      1171 1.51253E+00
 -1      1172 1.83773E+00
 -1      1173 2.01690E+00
 -1      1174 2.04757E+00
 -1      1175 2.04675E+00
 -1      1176 2.29198E+00
 -1      1177 3.58900E+00
 -1      1178 5.25299E+00
 -1      1179 5.86601E+00
 -1      1180 5.86530E+00
 -1      1181 5.31124E+00
 -1      1182 3.66202E+00
 -1      1183 2.30599E+00
 -1      1184 2.04583E+00
 -1      1185 2.04273E+00
 -1      1186 2.01876E+00
 -1      1187 1.85236E+00
 -1      1188 1.52636E+00
 -1      1189 1.20685E+00
 -1      1190 9.41685E-01
 -1      1191 7.55428E-01
 -1      1192 6.34376E-01
 -1      1193 5.17196E-01
 -1      1194 4.10510E-01
 -1      1195 3.16871E-01
 -1      1196 2.56907E-01
 -1      1197 1.94707E-01
 -1      1198 9.32050E-02
 -1      1199 1.40458E+01
 -1      1200 8.72438E+00
 -1      1201 2.91323E+00
 -1      1202 2.05075E+00
 -1      1203 1.41854E+00
 -1      1204 1.04145E+00
 -1      1205 8.39579E-01
 -1      1206 6.87687E-01
 -1      1207 5.65564E-01
 -1      1208 4.67973E-01
 -1      1209 3.92058E-01
 -1      1210 3.35719E-01
 -1      1211 2.96846E-01
 -1      1212 2.73004E-01
 -1      1213 2.61185E-01
 -1      1214 2.77509E-01
 -1      1215 3.19135E-01
 -1      1216 3.62160E-01
 -1      1217 3.98300E-01
 -1      1218 4.18467E-01
 -1      1219 4.50147E-01
 -1      1220 5.40467E-01
 -1      1221 6.51389E-01
 -1      1222 7.49489E-01
 -1      1223 9.01405E-01
 -1      1224 1.01796E+00
 -1      1225 1.14769E+00
 -1      1226 1.34277E+00
 -1      1227 1.75132E+00
 -1      1228 2.29032E+00
 -1      1229 2.63883E+00
 -1      1230 2.79233E+00
 -1      1231 2.80865E+00
 -1      1232 2.51527E+00
 -1      1233 1.81403E+00
 -1      1234 1.17898E+00
 -1      1235 8.31564E-01
 -1      1236 7.58594E-01
 -1      1237 8.23038E-01
 -1      1238 8.40233E-01
 -1      1239 8.09425E-01
 -1      1240 7.22660E-01
 -1      1241 6.10848E-01
 -1      1242 4.98417E-01
 -1      1243 3.94709E-01
 -1      1244 3.19297E-01
 -1      1245 2.58986E-01
 -1      1246 1.88759E-01
 -1      1247 1.25319E-01
 -1      1248 6.43711E-02
 -1      1249 3.61429E-02
 -1      1250 4.36190E-02
 -1      1251 4.14968E-02
 -1      1252 3.13536E-02
 -1      1253 1.94276E-02
 -1      1254 2.28924E-02
 -1      1255 3.54499E-02
 -1      1256 4.30120E-02
 -1      1257 4.53860E-02
 -1      1258 4.49060E-02
 -1      1259 4.04002E-02
 -1      1260 2.93922E-02
 -1      1261 2.31339E-02
 -1      1262 3.36690E-02
 -1      1263 5.43244E-02
 -1      1264 6.79131E-02
 -1      1265 5.39053E-02
 -1      1266 2.45298E+01
 -1      1267 3.60028E+01
 -1      1268 4.74317E+01
 -1      1269 3.39959E+01
 -1      1270 1.66313E+01
 -1      1271 1.27025E+01
 -1      1272 1.24988E+01
 -1      1273 1.22951E+01
 -1      1274 1.21745E+01
 -1      1275 1.25966E+01
 -1      1276 2.13114E+01
 -1      1277 3.01075E+01
 -1      1278 2.96149E+01
 -1      1279 2.74416E+01
 -1      1280 2.67978E+01
 -1      1281 2.72108E+01
 -1      1282 3.47024E+01
 -1      1283 4.21939E+01
 -1      1284 2.88038E+01
 -1      1285 1.43879E+01
 -1      1286 1.33620E+01
 -1      1287 1.28551E+01
 -1      1288 1.23483E+01
 -1      1289 1.22399E+01
 -1      1290 1.54751E+01
 -1      1291 3.27153E+01
 -1      1292 4.66120E+01
 -1      1293 3.57213E+01
 -1      1294 2.46582E+01
 -1      1295 1.31500E+01
 -1      1296 4.86445E+00
 -1      1297 9.61066E+00
 -1      1298 2.05378E+00
 -1      1299 2.97437E+00
 -1      1300 4.18124E+00
 -1      1301 1.39558E+00
 -1      1302 1.66015E+00
 -1      1303 1.89753E+00
 -1      1304 1.09816E+00
 -1      1305 1.22058E+00
 -1      1306 1.32890E+00
 -1      1307 9.33519E-01
 -1      1308 1.00648E+00
 -1      1309 1.06222E+00
 -1      1310 8.34508E-01
 -1      1311 8.79368E-01
 -1      1312 9.16388E-01
 -1      1313 7.74093E-01
 -1      1314 8.00825E-01
 -1      1315 8.28553E-01
 -1      1316 7.55206E-01
 -1      1317 7.54261E-01
 -1      1318 7.75038E-01
 -1      1319 8.04569E-01
 -1      1320 7.76688E-01
 -1      1321 7.76688E-01
 -1      1322 8.81673E-01
 -1      1323 8.38138E-01
 -1      1324 8.31740E-01
 -1      1325 1.01364E+00
 -1      1326 9.38150E-01
 -1      1327 9.21786E-01
 -1      1328 1.23617E+00
 -1      1329 1.10896E+00
 -1      1330 1.07358E+00
 -1      1331 1.67574E+00
 -1      1332 1.41330E+00
 -1      1333 1.34603E+00
 -1      1334 2.87765E+00
 -1      1335 2.04214E+00
 -1      1336 1.88956E+00
 -1      1337 6.28487E+00
 -1      1338 3.71318E+00
 -1      1339 3.09150E+00
 -1      1340 1.40458E+01
 -1      1341 1.13442E+01
 -1      1342 8.98640E+00
 -1      1343 1.40458E+01
 -1      1344 8.73893E+00
 -1      1345 4.32788E+00
 -1      1346 3.84092E+00
 -1      1347 3.35396E+00
 -1      1348 3.84092E+00
 -1      1349 2.74008E+00
 -1      1350 2.12620E+00
 -1      1351 2.74008E+00
 -1      1352 1.79342E+00
 -1      1353 1.42006E+00
 -1      1354 1.79342E+00
 -1      1355 1.21020E+00
 -1      1356 1.03741E+00
 -1      1357 1.25077E+00
 -1      1358 9.17256E-01
 -1      1359 8.00591E-01
 -1      1360 9.20747E-01
 -1      1361 7.14338E-01
 -1      1362 6.28085E-01
 -1      1363 7.14338E-01
 -1      1364 5.63734E-01
 -1      1365 4.98188E-01
 -1      1366 5.63734E-01
 -1      1367 4.51648E-01
 -1      1368 4.02034E-01
 -1      1369 4.52842E-01
 -1      1370 3.64935E-01
 -1      1371 3.28359E-01
 -1      1372 3.69202E-01
 -1      1373 2.99487E-01
 -1      1374 2.73782E-01
 -1      1375 3.03231E-01
 -1      1376 2.56514E-01
 -1      1377 2.39823E-01
 -1      1378 2.57091E-01
 -1      1379 2.30407E-01
 -1      1380 2.33487E-01
 -1      1381 2.30407E-01
 -1      1382 2.45984E-01
 -1      1383 2.70112E-01
 -1      1384 2.33487E-01
 -1      1385 2.94240E-01
 -1      1386 3.27774E-01
 -1      1387 2.70112E-01
 -1      1388 3.61307E-01
 -1      1389 4.04774E-01
 -1      1390 3.27774E-01
 -1      1391 4.48241E-01
 -1      1392 5.01111E-01
 -1      1393 4.04774E-01
 -1      1394 5.79406E-01
 -1      1395 6.39119E-01
 -1      1396 5.26537E-01
 -1      1397 7.35365E-01
 -1      1398 8.02426E-01
 -1      1399 7.01078E-01
 -1      1400 9.08592E-01
 -1      1401 1.03576E+00
 -1      1402 9.03489E-01
 -1      1403 1.13961E+00
 -1      1404 1.27659E+00
 -1      1405 1.11350E+00
 -1      1406 1.37049E+00
 -1      1407 1.54719E+00
 -1      1408 1.31125E+00
 -1      1409 1.68923E+00
 -1      1410 1.83773E+00
 -1      1411 1.54719E+00
 -1      1412 1.98623E+00
 -1      1413 2.01690E+00
 -1      1414 1.83773E+00
 -1      1415 2.04757E+00
 -1      1416 2.04757E+00
 -1      1417 2.01690E+00
 -1      1418 2.04675E+00
 -1      1419 2.04594E+00
 -1      1420 2.04675E+00
 -1      1421 1.90033E+00
 -1      1422 2.14637E+00
 -1      1423 1.90033E+00
 -1      1424 2.60336E+00
 -1      1425 3.65433E+00
 -1      1426 2.21171E+00
 -1      1427 4.63997E+00
 -1      1428 5.25299E+00
 -1      1429 3.65433E+00
 -1      1430 5.86601E+00
 -1      1431 5.86601E+00
 -1      1432 5.25299E+00
 -1      1433 5.86530E+00
 -1      1434 5.86459E+00
 -1      1435 5.86530E+00
 -1      1436 5.31124E+00
 -1      1437 4.75790E+00
 -1      1438 5.31124E+00
 -1      1439 3.75324E+00
 -1      1440 2.65736E+00
 -1      1441 3.75324E+00
 -1      1442 2.16198E+00
 -1      1443 1.90182E+00
 -1      1444 2.25320E+00
 -1      1445 2.04583E+00
 -1      1446 2.04583E+00
 -1      1447 1.90182E+00
 -1      1448 2.04273E+00
 -1      1449 2.03963E+00
 -1      1450 2.04273E+00
 -1      1451 2.01876E+00
 -1      1452 1.99788E+00
 -1      1453 2.01876E+00
 -1      1454 1.85236E+00
 -1      1455 1.70684E+00
 -1      1456 1.85236E+00
 -1      1457 1.56016E+00
 -1      1458 1.37968E+00
 -1      1459 1.56016E+00
 -1      1460 1.28173E+00
 -1      1461 1.14269E+00
 -1      1462 1.31552E+00
 -1      1463 1.03751E+00
 -1      1464 9.11385E-01
 -1      1465 1.11239E+00
 -1      1466 8.02419E-01
 -1      1467 7.42286E-01
 -1      1468 8.98244E-01
 -1      1469 6.42404E-01
 -1      1470 5.81486E-01
 -1      1471 6.89396E-01
 -1      1472 5.17196E-01
 -1      1473 4.60934E-01
 -1      1474 5.25224E-01
 -1      1475 4.10510E-01
 -1      1476 3.60086E-01
 -1      1477 4.10510E-01
 -1      1478 3.16871E-01
 -1      1479 2.73656E-01
 -1      1480 3.16871E-01
 -1      1481 2.56907E-01
 -1      1482 2.40157E-01
 -1      1483 2.56907E-01
 -1      1484 1.94707E-01
 -1      1485 1.49257E-01
 -1      1486 1.94707E-01
 -1      1487 1.09957E-01
 -1      1488 1.09957E-01
 -1      1489 3.40298E+00
 -1      1490 8.72438E+00
 -1      1491 8.72438E+00
 -1      1492 2.42347E+00
 -1      1493 2.91323E+00
 -1      1494 2.91323E+00
 -1      1495 1.67802E+00
 -1      1496 2.05075E+00
 -1      1497 2.05075E+00
 -1      1498 1.15905E+00
 -1      1499 1.41854E+00
 -1      1500 1.41854E+00
 -1      1501 9.23838E-01
 -1      1502 1.04145E+00
 -1      1503 1.04145E+00
 -1      1504 7.55321E-01
 -1      1505 8.39579E-01
 -1      1506 8.39579E-01
 -1      1507 6.20054E-01
 -1      1508 6.87687E-01
 -1      1509 6.87687E-01
 -1      1510 5.11074E-01
 -1      1511 5.65564E-01
 -1      1512 5.65564E-01
 -1      1513 4.24872E-01
 -1      1514 4.67973E-01
 -1      1515 4.67973E-01
 -1      1516 3.59244E-01
 -1      1517 3.92058E-01
 -1      1518 3.92058E-01
 -1      1519 3.12193E-01
 -1      1520 3.35719E-01
 -1      1521 3.35719E-01
 -1      1522 2.81500E-01
 -1      1523 2.96846E-01
 -1      1524 2.96846E-01
 -1      1525 2.64507E-01
 -1      1526 2.73004E-01
 -1      1527 2.73004E-01
 -1      1528 2.57864E-01
 -1      1529 2.61185E-01
 -1      1530 2.61185E-01
 -1      1531 2.78418E-01
 -1      1532 2.58773E-01
 -1      1533 2.58773E-01
 -1      1534 3.19135E-01
 -1      1535 2.97154E-01
 -1      1536 2.78418E-01
 -1      1537 3.62160E-01
 -1      1538 3.41116E-01
 -1      1539 3.19135E-01
 -1      1540 3.98300E-01
 -1      1541 3.83204E-01
 -1      1542 3.62160E-01
 -1      1543 4.18467E-01
 -1      1544 4.13396E-01
 -1      1545 3.98300E-01
 -1      1546 4.50147E-01
 -1      1547 4.23538E-01
 -1      1548 4.18467E-01
 -1      1549 5.51281E-01
 -1      1550 4.87569E-01
 -1      1551 4.60961E-01
 -1      1552 6.51389E-01
 -1      1553 6.04179E-01
 -1      1554 5.51281E-01
 -1      1555 7.49489E-01
 -1      1556 6.98600E-01
 -1      1557 6.51389E-01
 -1      1558 9.01405E-01
 -1      1559 8.00379E-01
 -1      1560 7.49489E-01
 -1      1561 1.01796E+00
 -1      1562 1.00243E+00
 -1      1563 9.01405E-01
 -1      1564 1.14769E+00
 -1      1565 1.03350E+00
 -1      1566 1.01796E+00
 -1      1567 1.34277E+00
 -1      1568 1.26189E+00
 -1      1569 1.14769E+00
 -1      1570 1.80304E+00
 -1      1571 1.47537E+00
 -1      1572 1.39449E+00
 -1      1573 2.29032E+00
 -1      1574 2.07899E+00
 -1      1575 1.80304E+00
 -1      1576 2.63883E+00
 -1      1577 2.50165E+00
 -1      1578 2.29032E+00
 -1      1579 2.79233E+00
 -1      1580 2.77601E+00
 -1      1581 2.63883E+00
 -1      1582 2.80865E+00
 -1      1583 2.80865E+00
 -1      1584 2.79233E+00
 -1      1585 2.22189E+00
 -1      1586 2.51527E+00
 -1      1587 2.51527E+00
 -1      1588 1.40618E+00
 -1      1589 1.81403E+00
 -1      1590 1.81403E+00
 -1      1591 9.51783E-01
 -1      1592 1.17898E+00
 -1      1593 1.17898E+00
 -1      1594 6.83217E-01
 -1      1595 8.03436E-01
 -1      1596 8.03436E-01
 -1      1597 7.58594E-01
 -1      1598 7.11345E-01
 -1      1599 6.83217E-01
 -1      1600 8.23038E-01
 -1      1601 8.05843E-01
 -1      1602 7.58594E-01
 -1      1603 8.40233E-01
 -1      1604 8.40233E-01
 -1      1605 8.23038E-01
 -1      1606 7.78618E-01
 -1      1607 8.09425E-01
 -1      1608 8.09425E-01
 -1      1609 6.66702E-01
 -1      1610 7.22660E-01
 -1      1611 7.22660E-01
 -1      1612 5.54994E-01
 -1      1613 6.10848E-01
 -1      1614 6.10848E-01
 -1      1615 4.45155E-01
 -1      1616 5.01731E-01
 -1      1617 5.01731E-01
 -1      1618 3.47579E-01
 -1      1619 3.94709E-01
 -1      1620 3.98024E-01
 -1      1621 2.91016E-01
 -1      1622 3.19297E-01
 -1      1623 3.19297E-01
 -1      1624 2.26955E-01
 -1      1625 2.58986E-01
 -1      1626 2.58986E-01
 -1      1627 1.51764E-01
 -1      1628 1.89960E-01
 -1      1629 1.89960E-01
 -1      1630 1.00075E-01
 -1      1631 1.25319E-01
 -1      1632 1.26520E-01
 -1      1633 7.18471E-02
 -1      1634 5.22998E-02
 -1      1635 5.22998E-02
 -1      1636 5.13806E-02
 -1      1637 5.35027E-02
 -1      1638 6.21836E-02
 -1      1639 4.33595E-02
 -1      1640 5.13806E-02
 -1      1641 6.33865E-02
 -1      1642 2.36814E-02
 -1      1643 2.75862E-02
 -1      1644 4.76132E-02
 -1      1645 4.18157E-02
 -1      1646 3.44462E-02
 -1      1647 4.26048E-02
 -1      1648 5.75807E-02
 -1      1649 5.23926E-02
 -1      1650 6.39465E-02
 -1      1651 6.57953E-02
 -1      1652 6.34213E-02
 -1      1653 8.03640E-02
 -1      1654 6.65030E-02
 -1      1655 6.65030E-02
 -1      1656 8.69123E-02
 -1      1657 6.60230E-02
 -1      1658 6.65030E-02
 -1      1659 8.76200E-02
 -1      1660 5.98510E-02
 -1      1661 6.38768E-02
 -1      1662 8.54738E-02
 -1      1663 4.50312E-02
 -1      1664 5.20133E-02
 -1      1665 7.54899E-02
 -1      1666 3.21646E-02
 -1      1667 3.14409E-02
 -1      1668 5.40619E-02
 -1      1669 5.63064E-02
 -1      1670 4.64950E-02
 -1      1671 5.48020E-02
 -1      1672 6.71505E-02
 -1      1673 5.63064E-02
 -1      1674 6.91324E-02
 -1      1675 8.00689E-02
 -1      1676 7.73243E-02
 -1      1677 7.93063E-02
 -1      1678 1.19369E-01
 -1      1679 2.70906E+01
 -1      1680 2.70464E+01
 -1      1681 3.79159E+01
 -1      1682 2.64870E+01
 -1      1683 4.74317E+01
 -1      1684 4.74317E+01
 -1      1685 2.14586E+01
 -1      1686 3.48944E+01
 -1      1687 1.17524E+01
 -1      1688 1.56812E+01
 -1      1689 1.27025E+01
 -1      1690 1.27025E+01
 -1      1691 1.21490E+01
 -1      1692 1.23527E+01
 -1      1693 1.22951E+01
 -1      1694 1.22951E+01
 -1      1695 1.20540E+01
 -1      1696 1.21745E+01
 -1      1697 1.22299E+01
 -1      1698 1.16873E+01
 -1      1699 2.13114E+01
 -1      1700 1.31391E+01
 -1      1701 3.07313E+01
 -1      1702 3.01075E+01
 -1      1703 2.96149E+01
 -1      1704 3.07313E+01
 -1      1705 2.59189E+01
 -1      1706 2.69758E+01
 -1      1707 2.90764E+01
 -1      1708 2.86634E+01
 -1      1709 2.90764E+01
 -1      1710 2.90764E+01
 -1      1711 3.97941E+01
 -1      1712 3.23025E+01
 -1      1713 4.21939E+01
 -1      1714 4.21939E+01
 -1      1715 1.62395E+01
 -1      1716 2.96295E+01
 -1      1717 1.25192E+01
 -1      1718 1.35451E+01
 -1      1719 1.33620E+01
 -1      1720 1.33620E+01
 -1      1721 1.21939E+01
 -1      1722 1.27007E+01
 -1      1723 1.23483E+01
 -1      1724 1.23483E+01
 -1      1725 1.21316E+01
 -1      1726 1.22399E+01
 -1      1727 1.50395E+01
 -1      1728 1.16959E+01
 -1      1729 3.31203E+01
 -1      1730 1.92236E+01
 -1      1731 4.66120E+01
 -1      1732 4.66120E+01
 -1      1733 2.66556E+01
 -1      1734 3.75463E+01
 -1      1735 2.70464E+01
 -1      1736 2.72189E+01
 -1      1737 1.65797E+01
 -1      1738 3.48944E+01
 -1      1739 7.18471E-02
 -1      1740 8.05279E-02
 -1      1741 2.90036E+01
 -1      1742 3.79159E+01
 -1      1743 2.96072E+01
 -1      1744 1.17524E+01
 -1      1745 1.23527E+01
 -1      1746 1.21490E+01
 -1      1747 1.21745E+01
 -1      1748 1.16873E+01
 -1      1749 1.22299E+01
 -1      1750 2.19352E+01
 -1      1751 3.07313E+01
 -1      1752 2.80922E+01
 -1      1753 2.81975E+01
 -1      1754 3.09421E+01
 -1      1755 3.41682E+01
 -1      1756 3.97941E+01
 -1      1757 2.96295E+01
 -1      1758 1.43708E+01
 -1      1759 1.25192E+01
 -1      1760 1.27007E+01
 -1      1761 1.21939E+01
 -1      1762 1.22399E+01
 -1      1763 1.16959E+01
 -1      1764 1.54444E+01
 -1      1765 3.31203E+01
 -1      1766 3.75463E+01
 -1      1767 2.90439E+01
 -1      1768 9.61066E+00
 -1      1769 1.27179E+00
 -1      1770 1.66543E+00
 -1      1771 2.38215E+00
 -1      1772 4.27223E+00
 -1      1773 1.75641E+00
 -1      1774 8.79517E-01
 -1      1775 9.71201E-01
 -1      1776 7.76892E-01
 -1      1777 8.31044E-01
 -1      1778 7.40022E-01
 -1      1779 7.12327E-01
 -1      1780 7.46011E-01
 -1      1781 6.60667E-01
 -1      1782 6.70698E-01
 -1      1783 6.90530E-01
 -1      1784 6.07988E-01
 -1      1785 6.93756E-01
 -1      1786 6.72273E-01
 -1      1787 5.87765E-01
 -1      1788 7.48905E-01
 -1      1789 7.15336E-01
 -1      1790 6.10920E-01
 -1      1791 8.38449E-01
 -1      1792 7.81972E-01
 -1      1793 6.65567E-01
 -1      1794 9.81092E-01
 -1      1795 8.85773E-01
 -1      1796 7.45959E-01
 -1      1797 1.22569E+00
 -1      1798 1.04856E+00
 -1      1799 8.60751E-01
 -1      1800 1.70453E+00
 -1      1801 1.33812E+00
 -1      1802 1.04065E+00
 -1      1803 2.62447E+00
 -1      1804 1.78894E+00
 -1      1805 1.23750E+00
 -1      1806 8.12452E+00
 -1      1807 3.06514E+00
 -1      1808 1.76259E+00
 -1      1809 2.80312E+00
 -1      1810 5.19960E+00
 -1      1811 2.17009E+00
 -1      1812 2.65984E+00
 -1      1813 2.05998E+00
 -1      1814 3.40050E+00
 -1      1815 2.54677E+00
 -1      1816 1.93289E+00
 -1      1817 1.70269E+00
 -1      1818 1.36991E+00
 -1      1819 1.50938E+00
 -1      1820 1.19035E+00
 -1      1821 9.80480E-01
 -1      1822 1.09962E+00
 -1      1823 8.55471E-01
 -1      1824 7.35316E-01
 -1      1825 7.95049E-01
 -1      1826 6.80791E-01
 -1      1827 5.94538E-01
 -1      1828 6.15516E-01
 -1      1829 5.48557E-01
 -1      1830 4.84206E-01
 -1      1831 5.15010E-01
 -1      1832 4.44381E-01
 -1      1833 3.97840E-01
 -1      1834 4.29205E-01
 -1      1835 3.64436E-01
 -1      1836 3.27337E-01
 -1      1837 3.55975E-01
 -1      1838 3.00129E-01
 -1      1839 2.71258E-01
 -1      1840 2.95363E-01
 -1      1841 2.49583E-01
 -1      1842 2.32315E-01
 -1      1843 2.46481E-01
 -1      1844 2.15157E-01
 -1      1845 2.05741E-01
 -1      1846 2.07649E-01
 -1      1847 2.11103E-01
 -1      1848 2.23600E-01
 -1      1849 1.95854E-01
 -1      1850 2.41989E-01
 -1      1851 2.66117E-01
 -1      1852 2.19605E-01
 -1      1853 2.91120E-01
 -1      1854 3.24653E-01
 -1      1855 2.62997E-01
 -1      1856 3.80959E-01
 -1      1857 4.24426E-01
 -1      1858 3.44305E-01
 -1      1859 4.97552E-01
 -1      1860 5.75847E-01
 -1      1861 4.73737E-01
 -1      1862 6.62053E-01
 -1      1863 7.58299E-01
 -1      1864 6.33068E-01
 -1      1865 8.54958E-01
 -1      1866 9.61123E-01
 -1      1867 8.15933E-01
 -1      1868 1.06052E+00
 -1      1869 1.16437E+00
 -1      1870 1.01199E+00
 -1      1871 1.25121E+00
 -1      1872 1.34510E+00
 -1      1873 1.19823E+00
 -1      1874 1.41044E+00
 -1      1875 1.55248E+00
 -1      1876 1.35040E+00
 -1      1877 1.63050E+00
 -1      1878 1.77899E+00
 -1      1879 1.49375E+00
 -1      1880 1.82013E+00
 -1      1881 1.85080E+00
 -1      1882 1.61289E+00
 -1      1883 1.83808E+00
 -1      1884 1.83727E+00
 -1      1885 1.64131E+00
 -1      1886 1.91768E+00
 -1      1887 1.77208E+00
 -1      1888 1.70902E+00
 -1      1889 1.78175E+00
 -1      1890 2.23873E+00
 -1      1891 1.79910E+00
 -1      1892 2.56423E+00
 -1      1893 3.54986E+00
 -1      1894 2.13427E+00
 -1      1895 3.94349E+00
 -1      1896 4.55651E+00
 -1      1897 2.85338E+00
 -1      1898 4.97015E+00
 -1      1899 4.96944E+00
 -1      1900 3.66065E+00
 -1      1901 4.60117E+00
 -1      1902 4.04782E+00
 -1      1903 3.70602E+00
 -1      1904 3.62767E+00
 -1      1905 2.62301E+00
 -1      1906 2.91760E+00
 -1      1907 2.30973E+00
 -1      1908 1.81434E+00
 -1      1909 2.18415E+00
 -1      1910 1.76731E+00
 -1      1911 1.91132E+00
 -1      1912 1.82383E+00
 -1      1913 1.82570E+00
 -1      1914 1.82260E+00
 -1      1915 1.69118E+00
 -1      1916 1.84510E+00
 -1      1917 1.82422E+00
 -1      1918 1.62806E+00
 -1      1919 1.78546E+00
 -1      1920 1.63994E+00
 -1      1921 1.61180E+00
 -1      1922 1.56077E+00
 -1      1923 1.41409E+00
 -1      1924 1.49386E+00
 -1      1925 1.34789E+00
 -1      1926 1.24993E+00
 -1      1927 1.34850E+00
 -1      1928 1.16306E+00
 -1      1929 1.05788E+00
 -1      1930 1.19542E+00
 -1      1931 9.57109E-01
 -1      1932 8.48144E-01
 -1      1933 1.00778E+00
 -1      1934 7.49475E-01
 -1      1935 6.49593E-01
 -1      1936 8.08341E-01
 -1      1937 5.61463E-01
 -1      1938 4.97173E-01
 -1      1939 6.21542E-01
 -1      1940 4.23023E-01
 -1      1941 3.72598E-01
 -1      1942 4.59262E-01
 -1      1943 3.16094E-01
 -1      1944 2.72879E-01
 -1      1945 3.28607E-01
 -1      1946 2.36416E-01
 -1      1947 2.19667E-01
 -1      1948 2.35640E-01
 -1      1949 1.85458E-01
 -1      1950 1.40008E-01
 -1      1951 1.10119E-01
 -1      1952 1.64968E-01
 -1      1953 1.40841E+00
 -1      1954 1.78113E+00
 -1      1955 1.52774E+00
 -1      1956 1.03000E+00
 -1      1957 1.28949E+00
 -1      1958 1.01987E+00
 -1      1959 8.18844E-01
 -1      1960 9.36452E-01
 -1      1961 8.07398E-01
 -1      1962 6.55115E-01
 -1      1963 7.39374E-01
 -1      1964 6.34379E-01
 -1      1965 5.38274E-01
 -1      1966 6.05908E-01
 -1      1967 5.05702E-01
 -1      1968 4.51981E-01
 -1      1969 5.06471E-01
 -1      1970 4.24691E-01
 -1      1971 3.78352E-01
 -1      1972 4.21453E-01
 -1      1973 3.62360E-01
 -1      1974 3.23901E-01
 -1      1975 3.56715E-01
 -1      1976 3.10196E-01
 -1      1977 2.83309E-01
 -1      1978 3.06835E-01
 -1      1979 2.71492E-01
 -1      1980 2.55328E-01
 -1      1981 2.70674E-01
 -1      1982 2.41791E-01
 -1      1983 2.38236E-01
 -1      1984 2.46733E-01
 -1      1985 2.20561E-01
 -1      1986 2.29542E-01
 -1      1987 2.32863E-01
 -1      1988 2.06592E-01
 -1      1989 2.43108E-01
 -1      1990 2.42199E-01
 -1      1991 2.13877E-01
 -1      1992 2.83481E-01
 -1      1993 2.64745E-01
 -1      1994 2.48172E-01
 -1      1995 3.44563E-01
 -1      1996 3.22582E-01
 -1      1997 3.08910E-01
 -1      1998 4.03514E-01
 -1      1999 3.82470E-01
 -1      2000 3.85917E-01
 -1      2001 4.50085E-01
 -1      2002 4.34989E-01
 -1      2003 4.55299E-01
 -1      2004 4.86063E-01
 -1      2005 4.80992E-01
 -1      2006 5.17681E-01
 -1      2007 5.34898E-01
 -1      2008 4.97476E-01
 -1      2009 5.60001E-01
 -1      2010 5.87796E-01
 -1      2011 5.34898E-01
 -1      2012 5.71414E-01
 -1      2013 6.12982E-01
 -1      2014 5.65771E-01
 -1      2015 5.49389E-01
 -1      2016 6.02555E-01
 -1      2017 5.51665E-01
 -1      2018 4.66047E-01
 -1      2019 7.37708E-01
 -1      2020 6.36682E-01
 -1      2021 4.38858E-01
 -1      2022 9.13186E-01
 -1      2023 8.97653E-01
 -1      2024 6.32930E-01
 -1      2025 1.25002E+00
 -1      2026 1.13583E+00
 -1      2027 1.01552E+00
 -1      2028 1.52992E+00
 -1      2029 1.39731E+00
 -1      2030 1.38545E+00
 -1      2031 1.81866E+00
 -1      2032 1.54272E+00
 -1      2033 1.54554E+00
 -1      2034 2.03000E+00
 -1      2035 1.81866E+00
 -1      2036 1.55834E+00
 -1      2037 2.18199E+00
 -1      2038 2.04481E+00
 -1      2039 1.57315E+00
 -1      2040 2.28744E+00
 -1      2041 2.27113E+00
 -1      2042 1.67711E+00
 -1      2043 1.89216E+00
 -1      2044 2.18554E+00
 -1      2045 1.66434E+00
 -1      2046 1.25763E+00
 -1      2047 1.66548E+00
 -1      2048 1.33576E+00
 -1      2049 8.20878E-01
 -1      2050 1.04808E+00
 -1      2051 8.99524E-01
 -1      2052 5.53346E-01
 -1      2053 7.01693E-01
 -1      2054 5.70788E-01
 -1      2055 5.87818E-01
 -1      2056 5.59690E-01
 -1      2057 4.57947E-01
 -1      2058 6.80641E-01
 -1      2059 6.33391E-01
 -1      2060 5.09864E-01
 -1      2061 7.22975E-01
 -1      2062 7.05780E-01
 -1      2063 5.80578E-01
 -1      2064 6.91467E-01
 -1      2065 7.22274E-01
 -1      2066 6.05016E-01
 -1      2067 6.08474E-01
 -1      2068 6.64432E-01
 -1      2069 5.77280E-01
 -1      2070 5.21045E-01
 -1      2071 5.76899E-01
 -1      2072 5.18671E-01
 -1      2073 4.30660E-01
 -1      2074 4.83922E-01
 -1      2075 4.49974E-01
 -1      2076 3.38934E-01
 -1      2077 3.89379E-01
 -1      2078 3.71570E-01
 -1      2079 2.76625E-01
 -1      2080 3.04907E-01
 -1      2081 2.96262E-01
 -1      2082 2.18852E-01
 -1      2083 2.50882E-01
 -1      2084 2.36491E-01
 -1      2085 1.52964E-01
 -1      2086 1.89960E-01
 -1      2087 1.81856E-01
 -1      2088 9.54480E-02
 -1      2089 1.21893E-01
 -1      2090 1.21893E-01
 -1      2091 7.59007E-02
 -1      2092 5.07434E-02
 -1      2093 6.65167E-02
 -1      2094 8.98019E-02
 -1      2095 8.98019E-02
 -1      2096 9.29321E-02
 -1      2097 8.98019E-02
 -1      2098 8.85990E-02
 -1      2099 1.03519E-01
 -1      2100 1.16217E-01
 -1      2101 6.12041E-02
 -1      2102 5.04393E-02
 -1      2103 6.93428E-02
 -1      2104 8.72997E-02
 -1      2105 7.67228E-02
 -1      2106 8.45573E-02
 -1      2107 1.02986E-01
 -1      2108 9.71452E-02
 -1      2109 1.09921E-01
 -1      2110 1.05805E-01
 -1      2111 1.05097E-01
 -1      2112 1.21878E-01
 -1      2113 1.06721E-01
 -1      2114 1.06721E-01
 -1      2115 1.24906E-01
 -1      2116 1.04575E-01
 -1      2117 1.06721E-01
 -1      2118 1.25823E-01
 -1      2119 9.31389E-02
 -1      2120 1.00977E-01
 -1      2121 1.22224E-01
 -1      2122 6.69139E-02
 -1      2123 8.05042E-02
 -1      2124 1.05991E-01
 -1      2125 7.12237E-02
 -1      2126 5.68933E-02
 -1      2127 8.33356E-02
 -1      2128 9.23218E-02
 -1      2129 9.23218E-02
 -1      2130 9.44131E-02
 -1      2131 3.79159E+01
 -1      2132 2.84001E+01
 -1      2133 2.98145E+01
 -1      2134 2.98145E+01
 -1      2135 2.82985E+01
 -1      2136 2.89021E+01
 -1      2137 1.93258E+01
 -1      2138 3.18631E+01
 -1      2139 1.00111E+01
 -1      2140 1.57885E+01
 -1      2141 1.03434E+00
 -1      2142 1.20933E+00
 -1      2143 9.77227E-01
 -1      2144 8.51629E-01
 -1      2145 1.11608E+01
 -1      2146 1.15106E+01
 -1      2147 1.15199E+01
 -1      2148 1.13739E+01
 -1      2149 1.05317E+01
 -1      2150 1.07982E+01
 -1      2151 1.09187E+01
 -1      2152 1.03216E+01
 -1      2153 1.06883E+01
 -1      2154 1.04030E+01
 -1      2155 9.49377E+00
 -1      2156 2.12754E+01
 -1      2157 1.24793E+01
 -1      2158 2.56811E+01
 -1      2159 2.56811E+01
 -1      2160 2.40774E+01
 -1      2161 2.67166E+01
 -1      2162 3.28631E+01
 -1      2163 3.01186E+01
 -1      2164 3.28631E+01
 -1      2165 3.28631E+01
 -1      2166 3.22054E+01
 -1      2167 2.89793E+01
 -1      2168 3.34588E+01
 -1      2169 3.10590E+01
 -1      2170 2.58700E+01
 -1      2171 1.54454E+01
 -1      2172 2.80097E+01
 -1      2173 9.80896E+00
 -1      2174 1.25034E+01
 -1      2175 1.02346E+01
 -1      2176 9.39179E+00
 -1      2177 7.52435E+00
 -1      2178 1.11785E+01
 -1      2179 1.18397E+01
 -1      2180 1.15766E+01
 -1      2181 1.14222E+01
 -1      2182 1.05612E+01
 -1      2183 1.11185E+01
 -1      2184 1.12269E+01
 -1      2185 9.65269E+00
 -1      2186 1.00884E+01
 -1      2187 1.43501E+01
 -1      2188 1.01659E+01
 -1      2189 3.13608E+01
 -1      2190 1.78691E+01
 -1      2191 2.84806E+01
 -1      2192 3.75463E+01
 -1      2193 2.98145E+01
 -1      2194 2.92512E+01
 -1      2195 2.92512E+01
 -1      2196 9.94328E+00
 -1      2197 8.99318E+00
 -1      2198 8.20199E+00
 -1      2199 1.27572E+01
 -1      2200 2.91354E+00
 -1      2201 8.75134E+00
 -1      2202 2.10636E+00
 -1      2203 2.82985E+01
 -1      2204 2.91094E+01
 -1      2205 1.02496E-01
 -1      2206 2.23473E+01
 -1      2207 3.00218E+01
 -1      2208 3.07905E+01
 -1      2209 1.55394E+01
 -1      2210 2.17248E+01
 -1      2211 1.25906E+01
 -1      2212 8.55837E+00
 -1      2213 1.04552E+01
 -1      2214 1.06209E+01
 -1      2215 7.49351E+00
 -1      2216 9.09864E+00
 -1      2217 1.92746E+01
 -1      2218 3.09003E+01
 -1      2219 3.47841E+01
 -1      2220 2.87430E+01
 -1      2221 2.16664E+01
 -1      2222 1.62252E+01
 -1      2223 9.74317E+00
 -1      2224 8.49479E+00
 -1      2225 1.01436E+01
 -1      2226 9.43254E+00
 -1      2227 1.22232E+01
 -1      2228 1.06033E+01
 -1      2229 7.66135E+00
 -1      2230 9.07535E+00
 -1      2231 1.09781E+00
 -1      2232 1.48676E+00
 -1      2233 5.56776E-01
 -1      2234 5.87658E-01
 -1      2235 5.99877E-01
 -1      2236 6.48351E-01
 -1      2237 4.95987E-01
 -1      2238 5.09711E-01
 -1      2239 5.08136E-01
 -1      2240 5.44038E-01
 -1      2241 5.22457E-01
 -1      2242 4.42828E-01
 -1      2243 5.91680E-01
 -1      2244 5.58612E-01
 -1      2245 4.70150E-01
 -1      2246 6.50880E-01
 -1      2247 6.03556E-01
 -1      2248 4.96600E-01
 -1      2249 7.18348E-01
 -1      2250 6.50880E-01
 -1      2251 5.08476E-01
 -1      2252 8.76299E-01
 -1      2253 7.63864E-01
 -1      2254 5.53993E-01
 -1      2255 9.39191E+00
 -1      2256 1.29292E+01
 -1      2257 9.00946E-01
 -1      2258 1.01987E+00
 -1      2259 9.78886E-01
 -1      2260 1.27121E+00
 -1      2261 1.04101E+00
 -1      2262 7.58271E+00
 -1      2263 6.01541E+00
 -1      2264 9.95235E-01
 -1      2265 8.15673E-01
 -1      2266 7.57063E-01
 -1      2267 7.58589E-01
 -1      2268 6.33580E-01
 -1      2269 6.54204E-01
 -1      2270 5.77091E-01
 -1      2271 5.22566E-01
 -1      2272 5.40631E-01
 -1      2273 4.74532E-01
 -1      2274 4.28552E-01
 -1      2275 4.36108E-01
 -1      2276 4.05437E-01
 -1      2277 3.65612E-01
 -1      2278 3.64959E-01
 -1      2279 3.41280E-01
 -1      2280 3.07876E-01
 -1      2281 3.17512E-01
 -1      2282 2.84336E-01
 -1      2283 2.57128E-01
 -1      2284 2.69641E-01
 -1      2285 2.35128E-01
 -1      2286 2.13453E-01
 -1      2287 2.24100E-01
 -1      2288 1.92887E-01
 -1      2289 1.75729E-01
 -1      2290 1.81534E-01
 -1      2291 1.66357E-01
 -1      2292 1.71720E-01
 -1      2293 1.51595E-01
 -1      2294 1.84036E-01
 -1      2295 2.02425E-01
 -1      2296 1.54539E-01
 -1      2297 2.31288E-01
 -1      2298 2.56291E-01
 -1      2299 1.95719E-01
 -1      2300 3.08557E-01
 -1      2301 3.64863E-01
 -1      2302 2.76849E-01
 -1      2303 4.28078E-01
 -1      2304 5.01203E-01
 -1      2305 3.92329E-01
 -1      2306 5.77026E-01
 -1      2307 6.63232E-01
 -1      2308 5.31367E-01
 -1      2309 7.52337E-01
 -1      2310 8.48996E-01
 -1      2311 6.96295E-01
 -1      2312 9.50073E-01
 -1      2313 1.04947E+00
 -1      2314 8.86477E-01
 -1      2315 1.15772E+00
 -1      2316 1.24455E+00
 -1      2317 1.09580E+00
 -1      2318 1.34964E+00
 -1      2319 1.41498E+00
 -1      2320 1.30913E+00
 -1      2321 1.49889E+00
 -1      2322 1.57690E+00
 -1      2323 1.49813E+00
 -1      2324 1.73933E+00
 -1      2325 1.78047E+00
 -1      2326 1.74448E+00
 -1      2327 1.97466E+00
 -1      2328 1.96195E+00
 -1      2329 2.10110E+00
 -1      2330 2.15757E+00
 -1      2331 2.23799E+00
 -1      2332 2.49092E+00
 -1      2333 2.51950E+00
 -1      2334 2.52917E+00
 -1      2335 2.96805E+00
 -1      2336 2.44581E+00
 -1      2337 2.77131E+00
 -1      2338 3.16621E+00
 -1      2339 2.76995E+00
 -1      2340 3.16357E+00
 -1      2341 3.08149E+00
 -1      2342 4.11954E+00
 -1      2343 4.53318E+00
 -1      2344 4.03610E+00
 -1      2345 5.26216E+00
 -1      2346 4.89389E+00
 -1      2347 5.72105E+00
 -1      2348 4.22036E+00
 -1      2349 3.80020E+00
 -1      2350 5.77649E+00
 -1      2351 2.61751E+00
 -1      2352 2.30423E+00
 -1      2353 3.92027E+00
 -1      2354 2.53612E+00
 -1      2355 2.48908E+00
 -1      2356 2.96948E+00
 -1      2357 2.11974E+00
 -1      2358 2.03412E+00
 -1      2359 2.83203E+00
 -1      2360 1.87719E+00
 -1      2361 1.89969E+00
 -1      2362 2.30575E+00
 -1      2363 1.71036E+00
 -1      2364 1.67159E+00
 -1      2365 1.95948E+00
 -1      2366 1.55562E+00
 -1      2367 1.47645E+00
 -1      2368 1.65418E+00
 -1      2369 1.38672E+00
 -1      2370 1.32053E+00
 -1      2371 1.44848E+00
 -1      2372 1.21431E+00
 -1      2373 1.12744E+00
 -1      2374 1.25254E+00
 -1      2375 1.01595E+00
 -1      2376 9.15184E-01
 -1      2377 1.03484E+00
 -1      2378 8.16976E-01
 -1      2379 7.18308E-01
 -1      2380 8.25151E-01
 -1      2381 6.34773E-01
 -1      2382 5.46644E-01
 -1      2383 6.43409E-01
 -1      2384 4.76088E-01
 -1      2385 4.01938E-01
 -1      2386 4.89320E-01
 -1      2387 3.44251E-01
 -1      2388 2.87748E-01
 -1      2389 3.61078E-01
 -1      2390 2.41782E-01
 -1      2391 2.05319E-01
 -1      2392 2.57426E-01
 -1      2393 5.54909E-01
 -1      2394 6.34379E-01
 -1      2395 4.56495E-01
 -1      2396 5.05702E-01
 -1      2397 5.05702E-01
 -1      2398 3.92888E-01
 -1      2399 4.24691E-01
 -1      2400 4.24691E-01
 -1      2401 3.31833E-01
 -1      2402 3.62360E-01
 -1      2403 3.62360E-01
 -1      2404 2.82438E-01
 -1      2405 3.04075E-01
 -1      2406 3.04075E-01
 -1      2407 2.40831E-01
 -1      2408 2.57898E-01
 -1      2409 2.51777E-01
 -1      2410 2.06612E-01
 -1      2411 2.19246E-01
 -1      2412 2.05652E-01
 -1      2413 1.79361E-01
 -1      2414 1.87956E-01
 -1      2415 1.65412E-01
 -1      2416 1.82992E-01
 -1      2417 1.88365E-01
 -1      2418 1.55760E-01
 -1      2419 2.06968E-01
 -1      2420 1.94311E-01
 -1      2421 1.76083E-01
 -1      2422 2.51098E-01
 -1      2423 2.29460E-01
 -1      2424 2.09894E-01
 -1      2425 3.27206E-01
 -1      2426 2.88106E-01
 -1      2427 2.69394E-01
 -1      2428 4.01984E-01
 -1      2429 3.64078E-01
 -1      2430 3.43274E-01
 -1      2431 4.66451E-01
 -1      2432 4.34976E-01
 -1      2433 4.13137E-01
 -1      2434 5.27448E-01
 -1      2435 4.96541E-01
 -1      2436 4.76218E-01
 -1      2437 5.60001E-01
 -1      2438 5.48588E-01
 -1      2439 5.27448E-01
 -1      2440 5.73009E-01
 -1      2441 5.73009E-01
 -1      2442 5.61596E-01
 -1      2443 5.46552E-01
 -1      2444 5.68577E-01
 -1      2445 5.70172E-01
 -1      2446 4.71753E-01
 -1      2447 5.33070E-01
 -1      2448 5.52258E-01
 -1      2449 5.42106E-01
 -1      2450 5.07978E-01
 -1      2451 5.75001E-01
 -1      2452 7.66399E-01
 -1      2453 6.06454E-01
 -1      2454 6.75575E-01
 -1      2455 1.13172E+00
 -1      2456 9.09081E-01
 -1      2457 8.82605E-01
 -1      2458 1.42332E+00
 -1      2459 1.27603E+00
 -1      2460 1.16959E+00
 -1      2461 1.54554E+00
 -1      2462 1.53273E+00
 -1      2463 1.42332E+00
 -1      2464 1.56570E+00
 -1      2465 1.56570E+00
 -1      2466 1.55290E+00
 -1      2467 1.53365E+00
 -1      2468 1.51884E+00
 -1      2469 1.52620E+00
 -1      2470 1.66831E+00
 -1      2471 1.57918E+00
 -1      2472 1.52486E+00
 -1      2473 1.48360E+00
 -1      2474 1.58550E+00
 -1      2475 1.48757E+00
 -1      2476 1.15135E+00
 -1      2477 1.37803E+00
 -1      2478 1.29919E+00
 -1      2479 7.83580E-01
 -1      2480 9.93131E-01
 -1      2481 1.03540E+00
 -1      2482 5.38657E-01
 -1      2483 6.57843E-01
 -1      2484 7.51449E-01
 -1      2485 5.23784E-01
 -1      2486 5.17440E-01
 -1      2487 6.04495E-01
 -1      2488 5.42778E-01
 -1      2489 4.97204E-01
 -1      2490 5.56698E-01
 -1      2491 5.86259E-01
 -1      2492 5.61120E-01
 -1      2493 5.48459E-01
 -1      2494 5.78291E-01
 -1      2495 5.78992E-01
 -1      2496 5.59534E-01
 -1      2497 5.30812E-01
 -1      2498 5.57846E-01
 -1      2499 5.31822E-01
 -1      2500 4.70724E-01
 -1      2501 5.02298E-01
 -1      2502 4.82864E-01
 -1      2503 4.03395E-01
 -1      2504 4.40518E-01
 -1      2505 4.24145E-01
 -1      2506 3.26338E-01
 -1      2507 3.67619E-01
 -1      2508 3.58163E-01
 -1      2509 2.55095E-01
 -1      2510 2.89123E-01
 -1      2511 2.85172E-01
 -1      2512 1.96034E-01
 -1      2513 2.21777E-01
 -1      2514 2.14638E-01
 -1      2515 1.45862E-01
 -1      2516 1.74754E-01
 -1      2517 1.60040E-01
 -1      2518 1.34591E-01
 -1      2519 1.10434E-01
 -1      2520 9.49149E-02
 -1      2521 1.36129E-01
 -1      2522 1.26283E-01
 -1      2523 1.36641E-01
 -1      2524 1.09391E-01
 -1      2525 1.32676E-01
 -1      2526 1.09087E-01
 -1      2527 1.09391E-01
 -1      2528 1.49135E-01
 -1      2529 1.34963E-01
 -1      2530 1.44900E-01
 -1      2531 1.42789E-01
 -1      2532 1.59150E-01
 -1      2533 1.45817E-01
 -1      2534 1.44900E-01
 -1      2535 1.65811E-01
 -1      2536 1.48660E-01
 -1      2537 1.48660E-01
 -1      2538 1.68654E-01
 -1      2539 1.45061E-01
 -1      2540 1.48660E-01
 -1      2541 1.71497E-01
 -1      2542 1.24567E-01
 -1      2543 1.37202E-01
 -1      2544 1.63638E-01
 -1      2545 9.49926E-02
 -1      2546 1.05013E-01
 -1      2547 1.36224E-01
 -1      2548 1.16091E-01
 -1      2549 9.49926E-02
 -1      2550 1.16670E-01
 -1      2551 2.81970E+01
 -1      2552 2.91094E+01
 -1      2553 1.50036E+01
 -1      2554 2.10564E+01
 -1      2555 7.13849E-01
 -1      2556 8.07398E-01
 -1      2557 6.34379E-01
 -1      2558 1.23135E-01
 -1      2559 3.00218E+01
 -1      2560 3.00218E+01
 -1      2561 2.45382E+01
 -1      2562 2.44367E+01
 -1      2563 6.10193E+00
 -1      2564 7.11987E+00
 -1      2565 1.24935E+01
 -1      2566 1.79426E+01
 -1      2567 2.70165E+01
 -1      2568 3.09003E+01
 -1      2569 5.20829E-01
 -1      2570 5.42626E-01
 -1      2571 4.69617E-01
 -1      2572 4.42774E-01
 -1      2573 7.95197E+00
 -1      2574 8.06184E+00
 -1      2575 8.88066E+00
 -1      2576 8.66757E+00
 -1      2577 8.89454E+00
 -1      2578 9.49576E+00
 -1      2579 5.81617E+00
 -1      2580 6.64404E+00
 -1      2581 9.65122E+00
 -1      2582 7.57498E+00
 -1      2583 1.51213E+01
 -1      2584 1.07155E+01
 -1      2585 1.88742E+01
 -1      2586 1.78388E+01
 -1      2587 1.23291E+01
 -1      2588 2.87430E+01
 -1      2589 2.27018E+01
 -1      2590 3.47841E+01
 -1      2591 3.47841E+01
 -1      2592 2.06475E+01
 -1      2593 2.17939E+01
 -1      2594 6.73408E+00
 -1      2595 7.76425E+00
 -1      2596 5.96445E+00
 -1      2597 6.38162E+00
 -1      2598 9.25360E+00
 -1      2599 9.00987E+00
 -1      2600 9.09543E+00
 -1      2601 9.44513E+00
 -1      2602 7.29690E+00
 -1      2603 6.78370E+00
 -1      2604 1.31577E+01
 -1      2605 9.63866E+00
 -1      2606 2.49979E+01
 -1      2607 2.42273E+01
 -1      2608 1.67467E+00
 -1      2609 1.30790E+00
 -1      2610 8.39522E-01
 -1      2611 9.57949E-01
 -1      2612 1.62290E+00
 -1      2613 1.76619E+00
 -1      2614 1.32551E+00
 -1      2615 1.19297E+00
 -1      2616 7.41398E+00
 -1      2617 6.10418E-01
 -1      2618 7.50563E-01
 -1      2619 8.13697E-01
 -1      2620 1.16383E+01
 -1      2621 7.29185E+00
 -1      2622 1.24110E+00
 -1      2623 6.10200E+00
 -1      2624 4.95928E+00
 -1      2625 6.48833E+00
 -1      2626 5.47261E+00
 -1      2627 4.93329E+00
 -1      2628 1.38664E+01
 -1      2629 2.68723E+01
 -1      2630 2.68723E+01
 -1      2631 2.29885E+01
 -1      2632 2.49979E+01
 -1      2633 1.88742E+01
 -1      2634 1.27488E-01
 -1      2635 1.27488E-01
 -1      2636 2.91094E+01
 -1      2637 2.44367E+01
 -1      2638 1.71945E+01
 -1      2639 8.54732E+00
 -1      2640 5.72422E+00
 -1      2641 8.07398E-01
 -1      2642 8.95485E-01
 -1      2643 2.03525E+01
 -1      2644 1.35968E+01
 -1      2645 1.60993E+01
 -1      2646 9.64308E-01
 -1      2647 1.25874E+01
 -1      2648 7.86399E+00
 -1      2649 6.75416E+00
 -1      2650 2.17939E+01
 -1      2651 7.79106E+00
 -1      2652 1.04536E+01
 -1      2653 9.12165E+00
 -1      2654 7.23146E+00
 -1      2655 5.93163E+00
 -1      2656 7.63159E+00
 -1      2657 6.10145E+00
 -1      2658 5.27335E+00
 -1      2659 2.87430E+01
 -1      2660 7.89381E+00
 -1      2661 1.29740E-01
 -1      2662 1.22116E-01
 -1      2663 1.22696E-01
 -1      2664 1.63949E-01
 -1      2665 1.43947E-01
 -1      2666 1.70091E-01
 -1      2667 4.21069E-01
 -1      2668 4.06494E-01
 -1      2669 3.98837E-01
 -1      2670 3.86090E-01
 -1      2671 3.49756E-01
 -1      2672 4.34537E-01
 -1      2673 4.34537E-01
 -1      2674 4.67953E-01
 -1      2675 4.22437E-01
 -1      2676 3.48498E-01
 -1      2677 1.24946E+01
 -1      2678 1.01129E+01
 -1      2679 7.21925E-01
 -1      2680 7.99865E-01
 -1      2681 8.28168E-01
 -1      2682 5.57146E-01
 -1      2683 5.00061E-01
 -1      2684 4.92546E-01
 -1      2685 4.36057E-01
 -1      2686 3.95487E-01
 -1      2687 4.14434E-01
 -1      2688 3.66400E-01
 -1      2689 3.66350E-01
 -1      2690 3.39542E-01
 -1      2691 3.16427E-01
 -1      2692 3.17868E-01
 -1      2693 2.91918E-01
 -1      2694 2.67587E-01
 -1      2695 2.66501E-01
 -1      2696 2.51074E-01
 -1      2697 2.27534E-01
 -1      2698 2.25480E-01
 -1      2699 2.08935E-01
 -1      2700 1.86935E-01
 -1      2701 1.90369E-01
 -1      2702 1.66991E-01
 -1      2703 1.46425E-01
 -1      2704 1.51826E-01
 -1      2705 1.25034E-01
 -1      2706 1.15662E-01
 -1      2707 1.10492E-01
 -1      2708 1.19578E-01
 -1      2709 1.31894E-01
 -1      2710 9.30171E-02
 -1      2711 1.61833E-01
 -1      2712 1.90697E-01
 -1      2713 1.26872E-01
 -1      2714 2.32754E-01
 -1      2715 2.85019E-01
 -1      2716 1.98868E-01
 -1      2717 3.35786E-01
 -1      2718 3.99001E-01
 -1      2719 2.91691E-01
 -1      2720 4.60859E-01
 -1      2721 5.36682E-01
 -1      2722 4.04316E-01
 -1      2723 6.12613E-01
 -1      2724 7.01718E-01
 -1      2725 5.42105E-01
 -1      2726 7.97495E-01
 -1      2727 8.98573E-01
 -1      2728 7.13814E-01
 -1      2729 1.01767E+00
 -1      2730 1.12591E+00
 -1      2731 9.28685E-01
 -1      2732 1.26882E+00
 -1      2733 1.37390E+00
 -1      2734 1.19069E+00
 -1      2735 1.55640E+00
 -1      2736 1.64032E+00
 -1      2737 1.51609E+00
 -1      2738 1.85804E+00
 -1      2739 2.02048E+00
 -1      2740 1.91632E+00
 -1      2741 2.24923E+00
 -1      2742 2.44343E+00
 -1      2743 2.36280E+00
 -1      2744 2.86822E+00
 -1      2745 3.06385E+00
 -1      2746 3.01635E+00
 -1      2747 3.39013E+00
 -1      2748 3.67163E+00
 -1      2749 3.76743E+00
 -1      2750 5.16566E+00
 -1      2751 5.08231E+00
 -1      2752 5.58773E+00
 -1      2753 4.08984E+00
 -1      2754 4.08848E+00
 -1      2755 5.04445E+00
 -1      2756 4.05072E+00
 -1      2757 2.86804E+00
 -1      2758 3.88962E+00
 -1      2759 4.12151E+00
 -1      2760 4.02007E+00
 -1      2761 3.83691E+00
 -1      2762 3.46757E+00
 -1      2763 4.75705E+00
 -1      2764 2.97944E+00
 -1      2765 2.82250E+00
 -1      2766 3.98432E+00
 -1      2767 2.33471E+00
 -1      2768 2.14538E+00
 -1      2769 3.00840E+00
 -1      2770 1.93148E+00
 -1      2771 1.81550E+00
 -1      2772 2.30670E+00
 -1      2773 1.61479E+00
 -1      2774 1.52507E+00
 -1      2775 1.89209E+00
 -1      2776 1.34865E+00
 -1      2777 1.24244E+00
 -1      2778 1.51497E+00
 -1      2779 1.09764E+00
 -1      2780 9.86156E-01
 -1      2781 1.19375E+00
 -1      2782 8.67015E-01
 -1      2783 7.68808E-01
 -1      2784 9.29813E-01
 -1      2785 6.73381E-01
 -1      2786 5.89847E-01
 -1      2787 7.15245E-01
 -1      2788 5.13122E-01
 -1      2789 4.42567E-01
 -1      2790 5.43094E-01
 -1      2791 3.81082E-01
 -1      2792 3.23396E-01
 -1      2793 4.04885E-01
 -1      2794 2.73230E-01
 -1      2795 2.27265E-01
 -1      2796 2.93234E-01
 -1      2797 3.60492E-01
 -1      2798 3.92296E-01
 -1      2799 1.91591E-01
 -1      2800 1.86403E-01
 -1      2801 2.07683E-01
 -1      2802 4.28261E-01
 -1      2803 4.77469E-01
 -1      2804 3.64062E-01
 -1      2805 2.59717E-01
 -1      2806 2.87475E-01
 -1      2807 2.14708E-01
 -1      2808 2.39248E-01
 -1      2809 2.22647E-01
 -1      2810 1.72637E-01
 -1      2811 1.94222E-01
 -1      2812 1.81692E-01
 -1      2813 1.33637E-01
 -1      2814 1.52292E-01
 -1      2815 1.40862E-01
 -1      2816 1.37302E-01
 -1      2817 1.28298E-01
 -1      2818 1.15178E-01
 -1      2819 1.56715E-01
 -1      2820 1.45397E-01
 -1      2821 1.17934E-01
 -1      2822 2.09438E-01
 -1      2823 1.86945E-01
 -1      2824 1.56259E-01
 -1      2825 2.82122E-01
 -1      2826 2.45114E-01
 -1      2827 2.22165E-01
 -1      2828 3.56840E-01
 -1      2829 3.19969E-01
 -1      2830 2.95688E-01
 -1      2831 4.28036E-01
 -1      2832 3.95045E-01
 -1      2833 3.71740E-01
 -1      2834 4.93392E-01
 -1      2835 4.63302E-01
 -1      2836 4.45210E-01
 -1      2837 5.43352E-01
 -1      2838 5.22212E-01
 -1      2839 5.09296E-01
 -1      2840 5.99131E-01
 -1      2841 5.86122E-01
 -1      2842 5.80887E-01
 -1      2843 6.34303E-01
 -1      2844 6.38735E-01
 -1      2845 6.63262E-01
 -1      2846 6.42617E-01
 -1      2847 6.56099E-01
 -1      2848 7.24662E-01
 -1      2849 7.31806E-01
 -1      2850 6.95581E-01
 -1      2851 7.99422E-01
 -1      2852 8.48063E-01
 -1      2853 7.83714E-01
 -1      2854 9.04294E-01
 -1      2855 1.13381E+00
 -1      2856 9.91129E-01
 -1      2857 1.09927E+00
 -1      2858 1.40476E+00
 -1      2859 1.26046E+00
 -1      2860 1.36898E+00
 -1      2861 1.49557E+00
 -1      2862 1.38616E+00
 -1      2863 1.47702E+00
 -1      2864 1.81513E+00
 -1      2865 1.79497E+00
 -1      2866 1.75781E+00
 -1      2867 1.75027E+00
 -1      2868 1.79713E+00
 -1      2869 2.03920E+00
 -1      2870 1.83895E+00
 -1      2871 1.79342E+00
 -1      2872 2.06436E+00
 -1      2873 1.52508E+00
 -1      2874 1.60789E+00
 -1      2875 1.87645E+00
 -1      2876 1.26309E+00
 -1      2877 1.36867E+00
 -1      2878 1.48898E+00
 -1      2879 1.08392E+00
 -1      2880 1.24214E+00
 -1      2881 1.31161E+00
 -1      2882 9.01426E-01
 -1      2883 1.02716E+00
 -1      2884 1.23390E+00
 -1      2885 7.44743E-01
 -1      2886 7.65960E-01
 -1      2887 1.04167E+00
 -1      2888 6.30438E-01
 -1      2889 6.57018E-01
 -1      2890 8.18483E-01
 -1      2891 6.42964E-01
 -1      2892 6.24622E-01
 -1      2893 7.24942E-01
 -1      2894 6.02226E-01
 -1      2895 6.09493E-01
 -1      2896 6.85656E-01
 -1      2897 5.36903E-01
 -1      2898 5.57347E-01
 -1      2899 6.07306E-01
 -1      2900 4.74529E-01
 -1      2901 5.03042E-01
 -1      2902 5.28567E-01
 -1      2903 4.11696E-01
 -1      2904 4.41901E-01
 -1      2905 4.62079E-01
 -1      2906 3.38797E-01
 -1      2907 3.74573E-01
 -1      2908 3.92330E-01
 -1      2909 2.62967E-01
 -1      2910 3.00183E-01
 -1      2911 3.16593E-01
 -1      2912 2.04032E-01
 -1      2913 2.37350E-01
 -1      2914 2.52361E-01
 -1      2915 2.30395E-01
 -1      2916 1.88639E-01
 -1      2917 1.88639E-01
 -1      2918 1.82984E-01
 -1      2919 1.41615E-01
 -1      2920 1.35589E-01
 -1      2921 1.98788E-01
 -1      2922 1.68033E-01
 -1      2923 1.52183E-01
 -1      2924 1.95604E-01
 -1      2925 1.92760E-01
 -1      2926 2.15589E-01
 -1      2927 1.88326E-01
 -1      2928 1.81666E-01
 -1      2929 1.97209E-01
 -1      2930 2.11155E-01
 -1      2931 4.39162E+00
 -1      2932 6.66365E+00
 -1      2933 2.12062E+01
 -1      2934 2.21186E+01
 -1      2935 1.99307E-01
 -1      2936 1.99307E-01
 -1      2937 2.23413E-01
 -1      2938 1.91447E-01
 -1      2939 1.99307E-01
 -1      2940 2.27116E-01
 -1      2941 1.55942E-01
 -1      2942 1.75497E-01
 -1      2943 2.11165E-01
 -1      2944 1.45704E-01
 -1      2945 1.45704E-01
 -1      2946 1.84976E-01
 -1      2947 1.64623E-01
 -1      2948 8.30020E+00
 -1      2949 7.23591E+00
 -1      2950 1.81994E+01
 -1      2951 2.19597E+01
 -1      2952 1.27987E+01
 -1      2953 1.62805E+01
 -1      2954 1.72353E+01
 -1      2955 1.34076E+01
 -1      2956 8.52360E+00
 -1      2957 6.18184E+00
 -1      2958 2.29363E+01
 -1      2959 1.79124E+01
 -1      2960 1.00905E+01
 -1      2961 1.27954E+01
 -1      2962 5.12210E-01
 -1      2963 5.91680E-01
 -1      2964 4.34769E-01
 -1      2965 3.07014E-01
 -1      2966 3.37541E-01
 -1      2967 3.05145E-01
 -1      2968 2.62655E-01
 -1      2969 6.04806E-01
 -1      2970 5.59033E-01
 -1      2971 4.04889E-01
 -1      2972 7.94418E-01
 -1      2973 4.34537E-01
 -1      2974 4.22661E-01
 -1      2975 3.59006E-01
 -1      2976 3.60598E-01
 -1      2977 9.41699E+00
 -1      2978 1.14914E+01
 -1      2979 4.22358E-01
 -1      2980 4.34577E-01
 -1      2981 7.02440E+00
 -1      2982 6.40931E+00
 -1      2983 5.44573E+00
 -1      2984 6.72546E+00
 -1      2985 5.75113E+00
 -1      2986 4.66627E+00
 -1      2987 6.17804E-01
 -1      2988 7.11352E-01
 -1      2989 5.32331E-01
 -1      2990 4.95635E-01
 -1      2991 5.86089E+00
 -1      2992 4.10208E+00
 -1      2993 1.14439E+01
 -1      2994 8.72646E+00
 -1      2995 9.80501E+00
 -1      2996 1.49939E+01
 -1      2997 2.02165E+01
 -1      2998 1.12180E+01
 -1      2999 2.52668E+01
 -1      3000 1.92257E+01
 -1      3001 3.74751E+00
 -1      3002 5.05544E+00
 -1      3003 4.26036E+00
 -1      3004 4.21074E+00
 -1      3005 5.90370E+00
 -1      3006 6.73640E+00
 -1      3007 3.74873E+00
 -1      3008 3.83525E+00
 -1      3009 4.63642E-01
 -1      3010 5.65854E-01
 -1      3011 3.90013E-01
 -1      3012 3.41933E-01
 -1      3013 3.85925E-01
 -1      3014 3.98617E-01
 -1      3015 8.43077E+00
 -1      3016 1.11223E+01
 -1      3017 5.71207E-01
 -1      3018 5.76268E-01
 -1      3019 6.58057E-01
 -1      3020 6.21372E-01
 -1      3021 4.29492E-01
 -1      3022 1.05774E+01
 -1      3023 1.94611E+01
 -1      3024 1.54332E+01
 -1      3025 1.26612E+01
 -1      3026 5.26297E+00
 -1      3027 5.77649E+00
 -1      3028 5.10296E+00
 -1      3029 2.08811E-01
 -1      3030 1.77419E-01
 -1      3031 1.91591E-01
 -1      3032 4.23341E-01
 -1      3033 4.03756E+00
 -1      3034 6.93779E+00
 -1      3035 6.79089E+00
 -1      3036 5.61377E+00
 -1      3037 1.91591E-01
 -1      3038 1.49689E+01
 -1      3039 1.50331E+01
 -1      3040 7.41505E+00
 -1      3041 1.38035E+01
 -1      3042 4.39651E-01
 -1      3043 3.56823E+00
 -1      3044 4.37787E+00
 -1      3045 3.88418E+00
 -1      3046 1.42715E+01
 -1      3047 1.03967E+01
 -1      3048 1.22098E+01
 -1      3049 5.14394E+00
 -1      3050 9.12165E+00
 -1      3051 8.05058E+00
 -1      3052 7.08175E+00
 -1      3053 1.54823E+01
 -1      3054 2.33941E+01
 -1      3055 1.38768E+01
 -1      3056 1.63190E+01
 -1      3057 1.08525E+01
 -1      3058 1.28429E+01
 -1      3059 6.57575E+00
 -1      3060 4.06272E-01
 -1      3061 4.20422E-01
 -1      3062 3.59013E-01
 -1      3063 3.49423E-01
 -1      3064 5.51412E+00
 -1      3065 3.20706E+00
 -1      3066 2.87832E-01
 -1      3067 2.99933E-01
 -1      3068 6.08929E+00
 -1      3069 3.21329E-01
 -1      3070 2.99706E-01
 -1      3071 2.94695E-01
 -1      3072 2.67837E-01
 -1      3073 2.49675E-01
 -1      3074 2.54122E-01
 -1      3075 2.29614E-01
 -1      3076 2.30950E-01
 -1      3077 2.11293E-01
 -1      3078 1.94780E-01
 -1      3079 1.98914E-01
 -1      3080 1.80486E-01
 -1      3081 1.61887E-01
 -1      3082 1.66299E-01
 -1      3083 1.45242E-01
 -1      3084 1.25299E-01
 -1      3085 1.35360E-01
 -1      3086 1.05789E-01
 -1      3087 8.43986E-02
 -1      3088 9.92055E-02
 -1      3089 8.56429E-02
 -1      3090 8.95587E-02
 -1      3091 8.09402E-02
 -1      3092 1.08550E-01
 -1      3093 1.38489E-01
 -1      3094 1.01176E-01
 -1      3095 1.76511E-01
 -1      3096 2.18567E-01
 -1      3097 1.58188E-01
 -1      3098 2.67739E-01
 -1      3099 3.18505E-01
 -1      3100 2.45382E-01
 -1      3101 3.79576E-01
 -1      3102 4.41434E-01
 -1      3103 3.55624E-01
 -1      3104 5.17292E-01
 -1      3105 5.93223E-01
 -1      3106 4.92552E-01
 -1      3107 6.86870E-01
 -1      3108 7.82647E-01
 -1      3109 6.62056E-01
 -1      3110 8.96606E-01
 -1      3111 1.01570E+00
 -1      3112 8.69661E-01
 -1      3113 1.15053E+00
 -1      3114 1.29343E+00
 -1      3115 1.11845E+00
 -1      3116 1.46968E+00
 -1      3117 1.65218E+00
 -1      3118 1.42952E+00
 -1      3119 1.93184E+00
 -1      3120 2.14957E+00
 -1      3121 1.88543E+00
 -1      3122 2.65322E+00
 -1      3123 2.88197E+00
 -1      3124 2.66874E+00
 -1      3125 3.85390E+00
 -1      3126 4.27869E+00
 -1      3127 4.14432E+00
 -1      3128 5.58773E+00
 -1      3129 7.08175E+00
 -1      3130 6.34718E+00
 -1      3131 7.07615E+00
 -1      3132 4.69108E+00
 -1      3133 4.20295E+00
 -1      3134 3.53933E+00
 -1      3135 3.05154E+00
 -1      3136 4.24610E+00
 -1      3137 2.80975E+00
 -1      3138 2.59585E+00
 -1      3139 3.34069E+00
 -1      3140 2.11188E+00
 -1      3141 1.91117E+00
 -1      3142 2.61492E+00
 -1      3143 1.64047E+00
 -1      3144 1.46405E+00
 -1      3145 1.86026E+00
 -1      3146 1.28974E+00
 -1      3147 1.14494E+00
 -1      3148 1.41524E+00
 -1      3149 1.01163E+00
 -1      3150 8.92487E-01
 -1      3151 1.10761E+00
 -1      3152 7.78329E-01
 -1      3153 6.82903E-01
 -1      3154 8.60144E-01
 -1      3155 5.88332E-01
 -1      3156 5.11608E-01
 -1      3157 6.51417E-01
 -1      3158 4.82159E-01
 -1      3159 4.20674E-01
 -1      3160 5.27397E-01
 -1      3161 3.15139E-01
 -1      3162 2.64973E-01
 -1      3163 3.92413E-01
 -1      3164 3.06342E-01
 -1      3165 3.42308E-01
 -1      3166 1.47288E-01
 -1      3167 1.67774E-01
 -1      3168 1.86450E-01
 -1      3169 2.06918E-01
 -1      3170 1.52045E-01
 -1      3171 8.24061E-02
 -1      3172 8.77447E-02
 -1      3173 1.01348E-01
 -1      3174 9.32535E-02
 -1      3175 6.58198E-02
 -1      3176 1.60530E-01
 -1      3177 1.30300E-01
 -1      3178 1.05620E-01
 -1      3179 2.29099E-01
 -1      3180 1.93423E-01
 -1      3181 1.67464E-01
 -1      3182 3.04238E-01
 -1      3183 2.66391E-01
 -1      3184 2.37649E-01
 -1      3185 3.85436E-01
 -1      3186 3.47232E-01
 -1      3187 3.17934E-01
 -1      3188 4.66805E-01
 -1      3189 4.31540E-01
 -1      3190 4.07032E-01
 -1      3191 5.42500E-01
 -1      3192 5.13679E-01
 -1      3193 5.00009E-01
 -1      3194 6.31933E-01
 -1      3195 5.89163E-01
 -1      3196 5.93546E-01
 -1      3197 7.36773E-01
 -1      3198 6.97168E-01
 -1      3199 7.05444E-01
 -1      3200 8.41200E-01
 -1      3201 8.19404E-01
 -1      3202 8.53310E-01
 -1      3203 9.73088E-01
 -1      3204 9.20125E-01
 -1      3205 1.01487E+00
 -1      3206 1.11250E+00
 -1      3207 1.06059E+00
 -1      3208 1.18130E+00
 -1      3209 1.24233E+00
 -1      3210 1.09927E+00
 -1      3211 1.25557E+00
 -1      3212 1.95217E+00
 -1      3213 1.82552E+00
 -1      3214 1.82552E+00
 -1      3215 2.00284E+00
 -1      3216 2.02145E+00
 -1      3217 2.47799E+00
 -1      3218 2.29954E+00
 -1      3219 2.00015E+00
 -1      3220 2.54458E+00
 -1      3221 2.57116E+00
 -1      3222 2.58916E+00
 -1      3223 2.83150E+00
 -1      3224 2.28956E+00
 -1      3225 2.24641E+00
 -1      3226 2.79636E+00
 -1      3227 2.40381E+00
 -1      3228 2.63487E+00
 -1      3229 2.81692E+00
 -1      3230 1.82225E+00
 -1      3231 1.97867E+00
 -1      3232 2.73708E+00
 -1      3233 1.56912E+00
 -1      3234 1.59007E+00
 -1      3235 2.07976E+00
 -1      3236 1.73144E+00
 -1      3237 1.78821E+00
 -1      3238 2.06666E+00
 -1      3239 1.06133E+00
 -1      3240 1.19679E+00
 -1      3241 1.75110E+00
 -1      3242 9.35391E-01
 -1      3243 1.02312E+00
 -1      3244 1.17823E+00
 -1      3245 8.63621E-01
 -1      3246 8.69437E-01
 -1      3247 1.07407E+00
 -1      3248 7.45554E-01
 -1      3249 7.79025E-01
 -1      3250 9.23519E-01
 -1      3251 6.19290E-01
 -1      3252 6.64169E-01
 -1      3253 7.57538E-01
 -1      3254 5.37246E-01
 -1      3255 5.71107E-01
 -1      3256 6.27969E-01
 -1      3257 4.56361E-01
 -1      3258 4.88988E-01
 -1      3259 5.31528E-01
 -1      3260 3.72228E-01
 -1      3261 4.09351E-01
 -1      3262 4.36259E-01
 -1      3263 2.92639E-01
 -1      3264 3.31253E-01
 -1      3265 3.48274E-01
 -1      3266 2.08903E-01
 -1      3267 3.22449E-01
 -1      3268 3.14792E-01
 -1      3269 2.67011E-01
 -1      3270 2.67011E-01
 -1      3271 2.45098E-01
 -1      3272 2.40978E-01
 -1      3273 2.59317E-01
 -1      3274 2.55614E-01
 -1      3275 2.81003E-01
 -1      3276 2.99212E-01
 -1      3277 4.91997E+00
 -1      3278 1.22131E+01
 -1      3279 1.30308E+01
 -1      3280 4.12236E-01
 -1      3281 3.08982E-01
 -1      3282 2.60418E-01
 -1      3283 4.01663E-01
 -1      3284 3.53338E-01
 -1      3285 3.88080E-01
 -1      3286 2.95618E-01
 -1      3287 6.38236E+00
 -1      3288 5.95611E+00
 -1      3289 1.03235E+01
 -1      3290 9.22130E+00
 -1      3291 4.91373E+00
 -1      3292 4.25555E+00
 -1      3293 3.49478E-01
 -1      3294 3.32912E-01
 -1      3295 3.31025E-01
 -1      3296 3.39063E-01
 -1      3297 2.69527E-01
 -1      3298 2.85478E-01
 -1      3299 3.25372E-01
 -1      3300 7.26768E+00
 -1      3301 6.59415E+00
 -1      3302 4.73537E+00
 -1      3303 5.02337E+00
 -1      3304 1.07904E-01
 -1      3305 1.28249E-01
 -1      3306 1.14330E-01
 -1      3307 7.51318E-02
 -1      3308 3.82399E+00
 -1      3309 2.90646E+00
 -1      3310 1.29666E+01
 -1      3311 1.22131E+01
 -1      3312 8.95074E+00
 -1      3313 6.98704E+00
 -1      3314 5.52809E+00
 -1      3315 1.03503E+01
 -1      3316 1.22691E+01
 -1      3317 8.37340E+00
 -1      3318 1.05720E+01
 -1      3319 3.19171E-01
 -1      3320 3.11656E-01
 -1      3321 2.45013E-01
 -1      3322 5.26297E+00
 -1      3323 6.38017E+00
 -1      3324 6.46894E+00
 -1      3325 3.40084E+00
 -1      3326 3.04627E+00
 -1      3327 2.34536E+00
 -1      3328 2.90173E+00
 -1      3329 5.69550E+00
 -1      3330 4.32047E+00
 -1      3331 2.34046E-01
 -1      3332 8.99622E+00
 -1      3333 1.03035E+01
 -1      3334 3.11274E-01
 -1      3335 3.11108E-01
 -1      3336 2.83966E-01
 -1      3337 3.99948E+00
 -1      3338 6.47868E+00
 -1      3339 6.20481E+00
 -1      3340 5.07744E+00
 -1      3341 1.03418E+01
 -1      3342 9.58644E+00
 -1      3343 7.49724E+00
 -1      3344 2.06786E-01
 -1      3345 2.32021E-01
 -1      3346 4.93251E+00
 -1      3347 5.25878E+00
 -1      3348 4.13497E+00
 -1      3349 2.30808E-01
 -1      3350 8.76906E+00
 -1      3351 5.61929E+00
 -1      3352 5.33468E+00
 -1      3353 4.66281E+00
 -1      3354 2.87509E-01
 -1      3355 2.65754E-01
 -1      3356 2.64557E-01
 -1      3357 3.43791E+00
 -1      3358 3.71204E+00
 -1      3359 2.57621E+00
 -1      3360 2.60113E+00
 -1      3361 1.86697E-01
 -1      3362 2.22894E-01
 -1      3363 2.42433E-01
 -1      3364 2.74060E-01
 -1      3365 2.88721E-01
 -1      3366 2.48443E-01
 -1      3367 2.32312E-01
 -1      3368 2.18679E-01
 -1      3369 2.41889E-01
 -1      3370 3.22449E-01
 -1      3371 2.87484E-01
 -1      3372 3.24041E-01
 -1      3373 5.94155E+00
 -1      3374 2.40978E-01
 -1      3375 2.40665E-01
 -1      3376 2.62135E-01
 -1      3377 2.70487E-01
 -1      3378 2.47194E-01
 -1      3379 2.41046E-01
 -1      3380 3.20117E-01
 -1      3381 3.49181E-01
 -1      3382 1.02108E+01
 -1      3383 1.22032E+01
 -1      3384 8.56223E+00
 -1      3385 9.38320E+00
 -1      3386 3.71714E-01
 -1      3387 3.97838E-01
 -1      3388 2.77742E-01
 -1      3389 2.90283E-01
 -1      3390 3.59378E+00
 -1      3391 8.49568E+00
 -1      3392 5.77005E+00
 -1      3393 9.51330E+00
 -1      3394 1.40756E+01
 -1      3395 1.05974E+01
 -1      3396 1.05483E+01
 -1      3397 3.15359E-01
 -1      3398 1.16732E+01
 -1      3399 8.76654E+00
 -1      3400 9.80042E+00
 -1      3401 6.51918E+00
 -1      3402 3.23904E-01
 -1      3403 2.83072E-01
 -1      3404 3.21968E-01
 -1      3405 5.55331E+00
 -1      3406 7.72163E+00
 -1      3407 7.07563E+00
 -1      3408 5.58328E+00
 -1      3409 9.30027E+00
 -1      3410 6.48230E+00
 -1      3411 8.38404E+00
 -1      3412 3.19370E-01
 -1      3413 3.19370E-01
 -1      3414 2.82813E-01
 -1      3415 2.58705E-01
 -1      3416 3.32536E+00
 -1      3417 4.17362E+00
 -1      3418 3.48257E+00
 -1      3419 2.84202E+00
 -1      3420 2.34046E-01
 -1      3421 2.34046E-01
 -1      3422 2.30395E-01
 -1      3423 2.32021E-01
 -1      3424 3.68286E+00
 -1      3425 4.20894E-01
 -1      3426 4.02427E-01
 -1      3427 7.86068E+00
 -1      3428 8.55821E+00
 -1      3429 2.09967E-01
 -1      3430 1.96252E-01
 -1      3431 1.89465E-01
 -1      3432 1.71144E-01
 -1      3433 1.68483E-01
 -1      3434 1.58848E-01
 -1      3435 1.44554E-01
 -1      3436 1.49400E-01
 -1      3437 1.34699E-01
 -1      3438 1.18054E-01
 -1      3439 1.27248E-01
 -1      3440 1.08788E-01
 -1      3441 8.92781E-02
 -1      3442 1.08127E-01
 -1      3443 9.40185E-02
 -1      3444 9.52628E-02
 -1      3445 1.03601E-01
 -1      3446 1.01994E-01
 -1      3447 1.20985E-01
 -1      3448 1.15073E-01
 -1      3449 1.48939E-01
 -1      3450 1.86960E-01
 -1      3451 1.49757E-01
 -1      3452 2.29409E-01
 -1      3453 2.78580E-01
 -1      3454 2.20159E-01
 -1      3455 3.31714E-01
 -1      3456 3.92784E-01
 -1      3457 3.15741E-01
 -1      3458 4.60024E-01
 -1      3459 5.35882E-01
 -1      3460 4.36114E-01
 -1      3461 6.22077E-01
 -1      3462 7.15723E-01
 -1      3463 5.89549E-01
 -1      3464 8.28049E-01
 -1      3465 9.42009E-01
 -1      3466 7.88070E-01
 -1      3467 1.09141E+00
 -1      3468 1.22624E+00
 -1      3469 1.04979E+00
 -1      3470 1.42952E+00
 -1      3471 1.60577E+00
 -1      3472 1.40248E+00
 -1      3473 1.88543E+00
 -1      3474 2.16510E+00
 -1      3475 1.88543E+00
 -1      3476 2.57237E+00
 -1      3477 3.07602E+00
 -1      3478 2.57237E+00
 -1      3479 3.39248E+00
 -1      3480 4.36440E+00
 -1      3481 3.29610E+00
 -1      3482 6.75281E+00
 -1      3483 3.35811E+00
 -1      3484 3.24847E+00
 -1      3485 7.08175E+00
 -1      3486 3.77942E+00
 -1      3487 3.51881E+00
 -1      3488 5.59271E+00
 -1      3489 5.35091E+00
 -1      3490 3.12222E+00
 -1      3491 2.63825E+00
 -1      3492 5.37424E+00
 -1      3493 2.14339E+00
 -1      3494 1.87269E+00
 -1      3495 2.65068E+00
 -1      3496 1.58956E+00
 -1      3497 1.41524E+00
 -1      3498 1.87269E+00
 -1      3499 1.21526E+00
 -1      3500 1.08195E+00
 -1      3501 1.38958E+00
 -1      3502 9.33158E-01
 -1      3503 8.19001E-01
 -1      3504 1.04080E+00
 -1      3505 7.06362E-01
 -1      3506 6.11792E-01
 -1      3507 7.79376E-01
 -1      3508 5.28148E-01
 -1      3509 4.98699E-01
 -1      3510 5.83093E-01
 -1      3511 4.20894E-01
 -1      3512 1.27567E-01
 -1      3513 9.86150E-02
 -1      3514 8.30213E-02
 -1      3515 7.21739E-02
 -1      3516 1.04969E-01
 -1      3517 2.60893E-01
 -1      3518 2.23601E-01
 -1      3519 3.40077E-01
 -1      3520 2.97083E-01
 -1      3521 2.83036E-01
 -1      3522 4.29718E-01
 -1      3523 3.83614E-01
 -1      3524 3.62762E-01
 -1      3525 5.30563E-01
 -1      3526 4.83689E-01
 -1      3527 4.60271E-01
 -1      3528 6.47463E-01
 -1      3529 6.00800E-01
 -1      3530 5.84480E-01
 -1      3531 7.98981E-01
 -1      3532 7.33746E-01
 -1      3533 7.41000E-01
 -1      3534 9.70088E-01
 -1      3535 8.87457E-01
 -1      3536 9.15759E-01
 -1      3537 1.19359E+00
 -1      3538 1.11467E+00
 -1      3539 1.14881E+00
 -1      3540 1.52129E+00
 -1      3541 1.43378E+00
 -1      3542 1.53358E+00
 -1      3543 1.62700E+00
 -1      3544 1.64023E+00
 -1      3545 1.89272E+00
 -1      3546 2.52207E+00
 -1      3547 1.93888E+00
 -1      3548 2.55241E+00
 -1      3549 2.55510E+00
 -1      3550 3.12111E+00
 -1      3551 2.83150E+00
 -1      3552 3.68286E+00
 -1      3553 3.59378E+00
 -1      3554 2.07976E+00
 -1      3555 2.31194E+00
 -1      3556 2.69907E+00
 -1      3557 2.47998E+00
 -1      3558 1.78733E+00
 -1      3559 1.82554E+00
 -1      3560 1.22452E+00
 -1      3561 1.29047E+00
 -1      3562 1.93778E+00
 -1      3563 9.71813E-01
 -1      3564 1.05641E+00
 -1      3565 1.27281E+00
 -1      3566 7.90345E-01
 -1      3567 8.71731E-01
 -1      3568 1.00462E+00
 -1      3569 6.51516E-01
 -1      3570 6.99699E-01
 -1      3571 8.13892E-01
 -1      3572 5.22843E-01
 -1      3573 5.71101E-01
 -1      3574 6.42831E-01
 -1      3575 4.14444E-01
 -1      3576 4.61454E-01
 -1      3577 5.01028E-01
 -1      3578 3.32866E-01
 -1      3579 3.73841E-01
 -1      3580 3.99035E-01
 -1      3581 7.73309E+00
 -1      3582 7.77981E+00
 -1      3583 1.96192E-01
 -1      3584 1.84337E-01
 -1      3585 8.55821E+00
 -1      3586 8.55821E+00
 -1      3587 6.90559E+00
 -1      3588 1.90518E-01
 -1      3589 1.57626E-01
 -1      3590 1.50621E-01
 -1      3591 2.13763E-01
 -1      3592 1.32257E-01
 -1      3593 1.50933E-01
 -1      3594 7.30970E+00
 -1      3595 8.10851E+00
 -1      3596 8.56223E+00
 -1      3597 8.48903E+00
 -1      3598 6.73264E+00
 -1      3599 6.06903E+00
 -1      3600 3.14313E-01
 -1      3601 3.21968E-01
 -1      3602 2.86859E-01
 -1      3603 6.57575E+00
 -1      3604 5.25467E+00
 -1      3605 5.90848E+00
 -1      3606 6.56025E+00
 -1      3607 4.50283E+00
 -1      3608 2.13286E-01
 -1      3609 2.08276E-01
 -1      3610 1.73578E-01
 -1      3611 5.02506E+00
 -1      3612 6.66610E+00
 -1      3613 4.69784E+00
 -1      3614 4.09317E+00
 -1      3615 2.94917E+00
 -1      3616 3.16222E+00
 -1      3617 1.90085E-01
 -1      3618 1.99757E-01
 -1      3619 1.58358E-01
 -1      3620 2.73708E+00
 -1      3621 2.17599E+00
 -1      3622 2.73708E+00
 -1      3623 4.97948E-01
 -1      3624 2.45052E-01
 -1      3625 2.56082E-01
 -1      3626 3.72809E+00
 -1      3627 3.41587E+00
 -1      3628 3.12843E+00
 -1      3629 6.33009E+00
 -1      3630 2.51394E-01
 -1      3631 2.51394E-01
 -1      3632 8.07926E+00
 -1      3633 2.15304E-01
 -1      3634 2.51394E-01
 -1      3635 2.47876E-01
 -1      3636 7.04286E-02
 -1      3637 9.05880E-02
 -1      3638 8.76301E-02
 -1      3639 2.24797E-01
 -1      3640 1.17768E-01
 -1      3641 1.16655E-01
 -1      3642 9.87286E-02
 -1      3643 2.71217E+00
 -1      3644 1.62827E-01
 -1      3645 1.78803E-01
 -1      3646 1.43039E-01
 -1      3647 2.52094E-01
 -1      3648 3.40546E+00
 -1      3649 3.47474E+00
 -1      3650 2.71511E+00
 -1      3651 2.18046E+00
 -1      3652 6.82471E+00
 -1      3653 3.07299E-01
 -1      3654 3.32866E-01
 -1      3655 2.88721E-01
 -1      3656 6.21931E+00
 -1      3657 5.23005E+00
 -1      3658 3.70177E+00
 -1      3659 1.39082E-01
 -1      3660 4.44066E-01
 -1      3661 3.48544E-01
 -1      3662 3.40851E-01
 -1      3663 3.04147E-01
 -1      3664 2.92253E-01
 -1      3665 3.02302E-01
 -1      3666 3.02302E-01
 -1      3667 7.25426E+00
 -1      3668 8.90688E+00
 -1      3669 8.07926E+00
 -1      3670 3.25519E-01
 -1      3671 3.15003E-01
 -1      3672 3.46818E-01
 -1      3673 3.74851E-01
 -1      3674 2.25142E-01
 -1      3675 2.43975E-01
 -1      3676 2.04439E-01
 -1      3677 2.69167E-01
 -1      3678 3.30905E-01
 -1      3679 2.68647E-01
 -1      3680 2.38001E-01
 -1      3681 2.21635E-01
 -1      3682 1.87434E-01
 -1      3683 2.11264E-01
 -1      3684 1.90114E-01
 -1      3685 2.09551E-01
 -1      3686 2.07438E-01
 -1      3687 8.62397E+00
 -1      3688 7.26644E+00
 -1      3689 6.30460E+00
 -1      3690 8.55558E+00
 -1      3691 9.26242E+00
 -1      3692 7.05882E+00
 -1      3693 7.85579E+00
 -1      3694 2.83653E-01
 -1      3695 8.30810E+00
 -1      3696 6.75589E+00
 -1      3697 7.13839E+00
 -1      3698 5.46932E+00
 -1      3699 5.11979E+00
 -1      3700 3.68487E+00
 -1      3701 2.78956E+00
 -1      3702 2.06310E-01
 -1      3703 2.17971E-01
 -1      3704 1.44995E-01
 -1      3705 2.21757E-01
 -1      3706 2.44995E-01
 -1      3707 2.08905E-01
 -1      3708 2.40324E-01
 -1      3709 8.07926E+00
 -1      3710 1.45688E-01
 -1      3711 1.47379E-01
 -1      3712 1.41691E-01
 -1      3713 1.29395E-01
 -1      3714 1.21380E-01
 -1      3715 1.11524E-01
 -1      3716 1.13671E-01
 -1      3717 1.13345E-01
 -1      3718 1.04079E-01
 -1      3719 1.07477E-01
 -1      3720 1.09998E-01
 -1      3721 1.14738E-01
 -1      3722 1.15217E-01
 -1      3723 1.21918E-01
 -1      3724 1.28649E-01
 -1      3725 1.28315E-01
 -1      3726 1.39947E-01
 -1      3727 1.67900E-01
 -1      3728 1.46792E-01
 -1      3729 1.95362E-01
 -1      3730 2.37810E-01
 -1      3731 1.85551E-01
 -1      3732 2.78890E-01
 -1      3733 3.32023E-01
 -1      3734 2.54092E-01
 -1      3735 3.83934E-01
 -1      3736 4.51173E-01
 -1      3737 3.47082E-01
 -1      3738 5.18156E-01
 -1      3739 6.04351E-01
 -1      3740 4.65976E-01
 -1      3741 6.93541E-01
 -1      3742 8.05867E-01
 -1      3743 6.22148E-01
 -1      3744 9.29958E-01
 -1      3745 1.07936E+00
 -1      3746 8.35428E-01
 -1      3747 1.26178E+00
 -1      3748 1.46507E+00
 -1      3749 1.14194E+00
 -1      3750 1.75179E+00
 -1      3751 2.03145E+00
 -1      3752 1.61109E+00
 -1      3753 2.52311E+00
 -1      3754 2.93038E+00
 -1      3755 2.38947E+00
 -1      3756 3.52756E+00
 -1      3757 3.84401E+00
 -1      3758 3.47829E+00
 -1      3759 1.17897E-01
 -1      3760 1.31426E-01
 -1      3761 1.05227E-01
 -1      3762 4.98699E-01
 -1      3763 3.28565E+00
 -1      3764 2.79079E+00
 -1      3765 2.04129E+00
 -1      3766 1.75816E+00
 -1      3767 2.67626E+00
 -1      3768 1.47426E+00
 -1      3769 1.27427E+00
 -1      3770 1.64286E+00
 -1      3771 1.08563E+00
 -1      3772 9.36839E-01
 -1      3773 1.17031E+00
 -1      3774 8.08036E-01
 -1      3775 6.95397E-01
 -1      3776 8.52860E-01
 -1      3777 6.01377E-01
 -1      3778 5.17733E-01
 -1      3779 6.30037E-01
 -1      3780 1.22930E-01
 -1      3781 1.07337E-01
 -1      3782 1.93493E-01
 -1      3783 2.15616E-01
 -1      3784 1.93837E-01
 -1      3785 4.06299E-01
 -1      3786 3.62762E-01
 -1      3787 3.19225E-01
 -1      3788 2.83036E-01
 -1      3789 3.62762E-01
 -1      3790 6.45508E-01
 -1      3791 5.75271E-01
 -1      3792 8.15470E-01
 -1      3793 7.29186E-01
 -1      3794 7.19978E-01
 -1      3795 1.05333E+00
 -1      3796 9.64855E-01
 -1      3797 9.53041E-01
 -1      3798 1.38562E+00
 -1      3799 1.24104E+00
 -1      3800 1.29013E+00
 -1      3801 2.02872E+00
 -1      3802 1.78853E+00
 -1      3803 1.88076E+00
 -1      3804 2.32354E+00
 -1      3805 3.02643E+00
 -1      3806 2.71268E+00
 -1      3807 2.40079E+00
 -1      3808 3.44837E+00
 -1      3809 2.09470E+00
 -1      3810 2.59156E+00
 -1      3811 8.22804E-01
 -1      3812 9.13450E-01
 -1      3813 6.31804E-01
 -1      3814 7.12218E-01
 -1      3815 8.11777E-01
 -1      3816 5.00431E-01
 -1      3817 5.61820E-01
 -1      3818 6.31207E-01
 -1      3819 4.53867E-01
 -1      3820 4.94470E-01
 -1      3821 5.55263E-01
 -1      3822 3.04147E-01
 -1      3823 3.54512E-01
 -1      3824 3.12499E-01
 -1      3825 3.44314E-01
 -1      3826 5.86517E+00
 -1      3827 5.94604E+00
 -1      3828 3.63019E-01
 -1      3829 3.88586E-01
 -1      3830 4.84020E-01
 -1      3831 3.86625E-01
 -1      3832 5.07737E-01
 -1      3833 4.53765E-01
 -1      3834 5.68765E-01
 -1      3835 2.70673E-01
 -1      3836 1.34179E-01
 -1      3837 1.39926E-01
 -1      3838 1.12994E-01
 -1      3839 1.45839E-01
 -1      3840 5.94604E+00
 -1      3841 5.94604E+00
 -1      3842 1.08055E+00
 -1      3843 1.18064E+00
 -1      3844 1.08947E+00
 -1      3845 1.39877E+00
 -1      3846 1.56688E+00
 -1      3847 1.47471E+00
 -1      3848 2.43463E-01
 -1      3849 2.43463E-01
 -1      3850 1.78361E-01
 -1      3851 3.95684E+00
 -1      3852 4.84711E+00
 -1      3853 5.78410E+00
 -1      3854 4.18829E+00
 -1      3855 6.29056E+00
 -1      3856 4.06186E+00
 -1      3857 4.20197E+00
 -1      3858 2.46100E-01
 -1      3859 2.49305E-01
 -1      3860 2.13528E-01
 -1      3861 2.72253E+00
 -1      3862 3.07745E+00
 -1      3863 3.34884E+00
 -1      3864 2.87945E+00
 -1      3865 1.51636E-01
 -1      3866 1.44849E-01
 -1      3867 1.23746E-01
 -1      3868 7.60294E+00
 -1      3869 5.16983E-01
 -1      3870 1.24844E-01
 -1      3871 1.77989E-01
 -1      3872 1.47931E-01
 -1      3873 1.50298E-01
 -1      3874 5.75032E+00
 -1      3875 5.82625E+00
 -1      3876 4.46375E+00
 -1      3877 4.98650E+00
 -1      3878 1.82850E-01
 -1      3879 1.82850E-01
 -1      3880 1.02226E-01
 -1      3881 1.00481E-01
 -1      3882 1.20187E-01
 -1      3883 1.70978E-01
 -1      3884 1.77377E-01
 -1      3885 1.44924E-01
 -1      3886 9.40254E-02
 -1      3887 2.05909E-01
 -1      3888 1.24507E-01
 -1      3889 1.36401E-01
 -1      3890 4.53765E-01
 -1      3891 2.28185E+00
 -1      3892 2.22066E+00
 -1      3893 1.71733E-01
 -1      3894 5.77101E+00
 -1      3895 6.11968E+00
 -1      3896 4.81146E+00
 -1      3897 3.86625E-01
 -1      3898 3.86625E-01
 -1      3899 4.18739E-01
 -1      3900 3.36334E+00
 -1      3901 4.63100E-01
 -1      3902 4.68814E+00
 -1      3903 3.80947E+00
 -1      3904 3.17435E+00
 -1      3905 1.60078E-01
 -1      3906 1.41996E-01
 -1      3907 1.02245E-01
 -1      3908 1.16735E-01
 -1      3909 1.10097E-01
 -1      3910 2.53680E+00
 -1      3911 1.55157E-01
 -1      3912 2.44496E-01
 -1      3913 2.11413E-01
 -1      3914 2.08722E-01
 -1      3915 3.99180E-01
 -1      3916 3.86479E-01
 -1      3917 5.02240E+00
 -1      3918 6.94672E+00
 -1      3919 5.61174E+00
 -1      3920 1.69623E-01
 -1      3921 5.97589E+00
 -1      3922 6.51389E+00
 -1      3923 6.05546E+00
 -1      3924 1.71222E-01
 -1      3925 1.72298E-01
 -1      3926 1.26860E-01
 -1      3927 3.86479E-01
 -1      3928 3.96676E-01
 -1      3929 4.28790E-01
 -1      3930 4.38841E-01
 -1      3931 2.80686E-01
 -1      3932 3.05489E-01
 -1      3933 2.66950E-01
 -1      3934 1.01705E-01
 -1      3935 1.15966E-01
 -1      3936 1.09234E-01
 -1      3937 1.11055E-01
 -1      3938 1.16927E-01
 -1      3939 1.22845E-01
 -1      3940 1.18684E-01
 -1      3941 1.28644E-01
 -1      3942 1.35823E-01
 -1      3943 1.30354E-01
 -1      3944 1.46792E-01
 -1      3945 1.58090E-01
 -1      3946 1.47121E-01
 -1      3947 1.76729E-01
 -1      3948 2.04191E-01
 -1      3949 1.76729E-01
 -1      3950 2.28926E-01
 -1      3951 2.70006E-01
 -1      3952 2.20104E-01
 -1      3953 3.03288E-01
 -1      3954 3.55199E-01
 -1      3955 2.78123E-01
 -1      3956 4.00589E-01
 -1      3957 4.67572E-01
 -1      3958 3.56795E-01
 -1      3959 5.29275E-01
 -1      3960 6.18464E-01
 -1      3961 4.63888E-01
 -1      3962 7.04491E-01
 -1      3963 8.28582E-01
 -1      3964 6.11618E-01
 -1      3965 9.53441E-01
 -1      3966 1.13587E+00
 -1      3967 8.22503E-01
 -1      3968 1.32629E+00
 -1      3969 1.61301E+00
 -1      3970 1.13779E+00
 -1      3971 1.94057E+00
 -1      3972 2.43222E+00
 -1      3973 1.65577E+00
 -1      3974 3.47829E+00
 -1      3975 4.07547E+00
 -1      3976 3.02939E+00
 -1      3977 9.65807E-02
 -1      3978 1.04721E-01
 -1      3979 1.04801E-01
 -1      3980 1.11177E-01
 -1      3981 3.22351E+00
 -1      3982 2.47401E+00
 -1      3983 1.12229E-01
 -1      3984 1.09070E-01
 -1      3985 1.64077E+00
 -1      3986 1.35687E+00
 -1      3987 2.18802E+00
 -1      3988 1.15696E+00
 -1      3989 9.68309E-01
 -1      3990 1.15487E+00
 -1      3991 8.41258E-01
 -1      3992 7.12455E-01
 -1      3993 8.27904E-01
 -1      3994 6.31843E-01
 -1      3995 5.37823E-01
 -1      3996 6.20240E-01
 -1      3997 1.64218E-01
 -1      3998 1.73743E-01
 -1      3999 1.41602E-01
 -1      4000 4.99345E-01
 -1      4001 4.51880E-01
 -1      4002 1.08165E+00
 -1      4003 9.32270E-01
 -1      4004 8.03656E-01
 -1      4005 7.19978E-01
 -1      4006 9.32270E-01
 -1      4007 2.12626E+00
 -1      4008 1.72334E+00
 -1      4009 1.85929E-01
 -1      4010 2.22066E+00
 -1      4011 2.74848E+00
 -1      4012 6.31207E-01
 -1      4013 7.01191E-01
 -1      4014 7.92114E-01
 -1      4015 9.02700E-01
 -1      4016 7.92114E-01
 -1      4017 6.36300E-01
 -1      4018 5.68765E-01
 -1      4019 5.66880E-01
 -1      4020 1.50396E-01
 -1      4021 1.82850E-01
 -1      4022 1.81074E-01
 -1      4023 4.84020E-01
 -1      4024 5.49302E-01
 -1      4025 4.84020E-01
 -1      4026 1.87908E-01
 -1      4027 1.82065E-01
 -1      4028 3.95975E-01
 -1      4029 3.80643E-01
 -1      4030 4.20304E-01
 -1      4031 1.05247E+00
 -1      4032 1.21957E+00
 -1      4033 1.03281E+00
 -1      4034 1.60360E-01
 -1      4035 1.74019E+00
 -1      4036 1.95833E+00
 -1      4037 1.70319E+00
 -1      4038 1.27937E-01
 -1      4039 1.46470E-01
 -1      4040 1.61159E-01
 -1      4041 3.95137E-01
 -1      4042 3.51600E-01
 -1      4043 4.40717E-01
 -1      4044 6.29056E+00
 -1      4045 3.98342E+00
 -1      4046 3.98342E+00
 -1      4047 4.82162E+00
 -1      4048 2.87945E+00
 -1      4049 4.80730E+00
 -1      4050 1.10355E-01
 -1      4051 1.02340E-01
 -1      4052 1.05918E-01
 -1      4053 4.68892E-01
 -1      4054 1.03389E-01
 -1      4055 1.07646E-01
 -1      4056 9.98668E-02
 -1      4057 1.46966E+00
 -1      4058 1.28195E+00
 -1      4059 1.26118E+00
 -1      4060 5.55263E-01
 -1      4061 5.61224E-01
 -1      4062 6.31207E-01
 -1      4063 5.55263E-01
 -1      4064 5.29784E+00
 -1      4065 4.36820E+00
 -1      4066 1.31666E-01
 -1      4067 1.26556E-01
 -1      4068 4.03109E+00
 -1      4069 4.38907E+00
 -1      4070 4.38907E+00
 -1      4071 9.18725E-02
 -1      4072 4.70698E-01
 -1      4073 9.77396E-02
 -1      4074 2.78993E+00
 -1      4075 2.53680E+00
 -1      4076 1.41064E-01
 -1      4077 3.80530E+00
 -1      4078 3.44837E+00
 -1      4079 1.57230E-01
 -1      4080 1.71516E+00
 -1      4081 2.54321E-01
 -1      4082 2.29518E-01
 -1      4083 1.96094E-01
 -1      4084 7.19978E-01
 -1      4085 2.37939E+00
 -1      4086 1.58573E-01
 -1      4087 2.48614E+00
 -1      4088 1.49543E-01
 -1      4089 1.26118E-01
 -1      4090 1.26118E-01
 -1      4091 3.82885E+00
 -1      4092 3.23237E+00
 -1      4093 4.67334E+00
 -1      4094 2.63244E+00
 -1      4095 3.80947E+00
 -1      4096 2.80639E+00
 -1      4097 4.43191E-01
 -1      4098 4.61727E-01
 -1      4099 5.12121E-01
 -1      4100 1.01690E-01
 -1      4101 1.09462E-01
 -1      4102 3.37864E-01
 -1      4103 4.54955E+00
 -1      4104 5.45862E+00
 -1      4105 4.91369E+00
 -1      4106 1.11495E-01
 -1      4107 1.21563E-01
 -1      4108 1.03088E-01
 -1      4109 5.14807E-01
 -1      4110 4.91920E-01
 -1      4111 4.91920E-01
 -1      4112 1.69949E-01
 -1      4113 1.44949E-01
 -1      4114 1.90744E-01
 -1      4115 1.27046E-01
 -1      4116 1.21793E-01
 -1      4117 9.75149E-02
 -1      4118 1.16320E-01
 -1      4119 1.51317E-01
 -1      4120 1.27515E-01
 -1      4121 9.76179E-02
 -1      4122 1.10023E-01
 -1      4123 8.68927E-02
 -1      4124 1.09838E-01
 -1      4125 1.38254E-01
 -1      4126 1.71316E+00
 -1      4127 1.51286E+00
 -1      4128 1.40135E-01
 -1      4129 1.28656E-01
 -1      4130 1.24756E-01
 -1      4131 2.69046E+00
 -1      4132 4.23595E+00
 -1      4133 8.24426E-02
 -1      4134 8.70254E-02
 -1      4135 1.30354E-01
 -1      4136 1.36153E-01
 -1      4137 1.54383E-01
 -1      4138 1.65351E-01
 -1      4139 1.54383E-01
 -1      4140 1.72752E-01
 -1      4141 1.91391E-01
 -1      4142 1.80013E-01
 -1      4143 2.12121E-01
 -1      4144 2.36856E-01
 -1      4145 2.08143E-01
 -1      4146 2.63973E-01
 -1      4147 2.97256E-01
 -1      4148 2.55990E-01
 -1      4149 3.33564E-01
 -1      4150 3.78954E-01
 -1      4151 3.19415E-01
 -1      4152 4.26657E-01
 -1      4153 4.88360E-01
 -1      4154 4.03426E-01
 -1      4155 5.70230E-01
 -1      4156 6.56257E-01
 -1      4157 5.32999E-01
 -1      4158 7.96283E-01
 -1      4159 9.21142E-01
 -1      4160 7.54896E-01
 -1      4161 1.13417E+00
 -1      4162 1.32459E+00
 -1      4163 1.10795E+00
 -1      4164 1.64653E+00
 -1      4165 1.97408E+00
 -1      4166 1.64291E+00
 -1      4167 2.87279E+00
 -1      4168 3.91886E+00
 -1      4169 2.86355E+00
 -1      4170 2.69046E+00
 -1      4171 1.23199E-01
 -1      4172 1.26258E-01
 -1      4173 1.06757E-01
 -1      4174 1.18023E-01
 -1      4175 1.15501E-01
 -1      4176 8.62590E-02
 -1      4177 1.00158E-01
 -1      4178 1.21953E+00
 -1      4179 1.01962E+00
 -1      4180 8.80203E-01
 -1      4181 7.53152E-01
 -1      4182 9.44872E-01
 -1      4183 6.22926E-01
 -1      4184 5.42314E-01
 -1      4185 5.14807E-01
 -1      4186 6.75225E-01
 -1      4187 3.70807E+00
 -1      4188 2.69269E+00
 -1      4189 3.25559E+00
 -1      4190 1.31420E-01
 -1      4191 1.38254E-01
 -1      4192 1.12444E-01
 -1      4193 1.07142E-01
 -1      4194 6.25585E-01
 -1      4195 5.56165E-01
 -1      4196 4.00388E+00
 -1      4197 3.82885E+00
 -1      4198 2.28215E+00
 -1      4199 7.91346E-01
 -1      4200 8.82269E-01
 -1      4201 4.94071E-01
 -1      4202 1.19093E+00
 -1      4203 1.06231E+00
 -1      4204 1.64291E+00
 -1      4205 2.44281E+00
 -1      4206 2.18912E+00
 -1      4207 2.44081E+00
 -1      4208 1.04801E-01
 -1      4209 1.04166E-01
 -1      4210 1.07277E-01
 -1      4211 1.03281E+00
 -1      4212 1.18257E+00
 -1      4213 1.03204E+00
 -1      4214 3.52958E-01
 -1      4215 3.06847E-01
 -1      4216 2.45682E+00
 -1      4217 1.62358E+00
 -1      4218 1.48833E+00
 -1      4219 1.56708E+00
 -1      4220 2.08770E+00
 -1      4221 1.56708E+00
 -1      4222 8.49289E-01
 -1      4223 7.65611E-01
 -1      4224 1.10795E+00
 -1      4225 4.64663E-01
 -1      4226 4.07921E-01
 -1      4227 5.23368E-01
 -1      4228 1.18684E-01
 -1      4229 1.24555E-01
 -1      4230 1.30354E-01
 -1      4231 1.05918E-01
 -1      4232 1.12812E-01
 -1      4233 1.18684E-01
 -1      4234 4.50190E+00
 -1      4235 2.42813E+00
 -1      4236 9.73959E-02
 -1      4237 9.86802E-02
 -1      4238 8.79660E-02
 -1      4239 4.50313E+00
 -1      4240 3.74551E+00
 -1      4241 3.98587E+00
 -1      4242 8.15867E-02
 -1      4243 6.90097E-02
 -1      4244 6.41626E-02
 -1      4245 8.15867E-02
 -1      4246 1.68606E-01
 -1      4247 1.55324E-01
 -1      4248 3.00081E+00
 -1      4249 5.47150E-01
 -1      4250 7.54896E-01
 -1      4251 1.81649E-01
 -1      4252 1.85656E-01
 -1      4253 2.07794E-01
 -1      4254 4.07934E+00
 -1      4255 2.80847E-01
 -1      4256 2.65753E-01
 -1      4257 2.28320E-01
 -1      4258 7.78782E-02
 -1      4259 8.31800E-02
 -1      4260 5.23229E-02
 -1      4261 3.02127E+00
 -1      4262 2.75611E+00
 -1      4263 2.29201E+00
 -1      4264 6.90119E-01
 -1      4265 7.80274E-01
 -1      4266 6.20135E-01
 -1      4267 5.44999E-01
 -1      4268 3.76904E-01
 -1      4269 3.41624E+00
 -1      4270 2.75611E+00
 -1      4271 2.91677E+00
 -1      4272 3.24604E+00
 -1      4273 1.05574E-01
 -1      4274 1.02170E-01
 -1      4275 1.04203E-01
 -1      4276 1.71830E-01
 -1      4277 1.54542E-01
 -1      4278 1.56642E-01
 -1      4279 2.09184E+00
 -1      4280 2.26579E+00
 -1      4281 1.75141E+00
 -1      4282 2.45682E+00
 -1      4283 7.35529E-02
 -1      4284 2.43636E+00
 -1      4285 1.05970E-01
 -1      4286 1.07086E-01
 -1      4287 1.09081E-01
 -1      4288 1.72181E+00
 -1      4289 1.24756E-01
 -1      4290 1.54383E-01
 -1      4291 1.72612E-01
 -1      4292 1.11849E-01
 -1      4293 1.17721E-01
 -1      4294 1.72612E-01
 -1      4295 1.80013E-01
 -1      4296 1.93057E-01
 -1      4297 2.13786E-01
 -1      4298 2.34312E-01
 -1      4299 2.61429E-01
 -1      4300 3.02524E-01
 -1      4301 3.38832E-01
 -1      4302 3.93795E-01
 -1      4303 4.41498E-01
 -1      4304 5.32999E-01
 -1      4305 6.14869E-01
 -1      4306 7.54896E-01
 -1      4307 8.94922E-01
 -1      4308 1.10795E+00
 -1      4309 1.32097E+00
 -1      4310 1.64291E+00
 -1      4311 1.96484E+00
 -1      4312 9.81773E-02
 -1      4313 9.98134E-02
 -1      4314 9.72601E-02
 -1      4315 6.91334E-02
 -1      4316 7.54303E-02
 -1      4317 7.47967E-02
 -1      4318 9.58745E-01
 -1      4319 8.19325E-01
 -1      4320 7.07754E-01
 -1      4321 5.77528E-01
 -1      4322 5.77528E-01
 -1      4323 7.21628E-01
 -1      4324 5.57936E-02
 -1      4325 5.53111E-01
 -1      4326 2.44081E+00
 -1      4327 8.57350E-01
 -1      4328 1.00789E+00
 -1      4329 1.23227E+00
 -1      4330 1.61677E+00
 -1      4331 1.41660E+00
 -1      4332 1.05758E+00
 -1      4333 1.33395E-01
 -1      4334 1.39194E-01
 -1      4335 1.57424E-01
 -1      4336 1.26561E-01
 -1      4337 1.00811E-01
 -1      4338 1.08049E-01
 -1      4339 8.44148E-02
 -1      4340 9.47852E-02
 -1      4341 3.66878E+00
 -1      4342 1.58717E+00
 -1      4343 3.33951E+00
 -1      4344 2.19226E-01
 -1      4345 1.18313E+00
 -1      4346 7.45779E-01
 -1      4347 8.92779E-02
 -1      4348 9.78573E-02
 -1      4349 8.96220E-02
 -1      4350 8.24587E-02
 -1      4351 3.33951E+00
 -1      4352 6.57558E-02
 -1      4353 1.24756E-01
 -1      4354 7.06189E-02
 -1      4355 1.72612E-01
 -1      4356 6.12023E-01
 -1      4357 1.42235E-01
 -1      4358 6.44552E-01
 -1      4359 1.56642E-01
 -1      4360 1.71830E-01
 -1      4361 7.24964E-02
 -3
 9999
