    1C
    1UUSER                                                              
    1UDATE              27.october.2022                                 
    1UTIME              00:38:32                                        
    1UHOST                                                              
    1UPGM               CalculiX                                        
    1UVERSION           Version 2.17                             
    1UCOMPILETIME       Thu Jul 23 21:43:50 CEST 2020                    
    1UDIR                                                               
    1UDBN                                                               
    1UMAT    1SOLIDMATERIAL                                             
    2C                          4476                                     1
 -1         1 4.30216E+01 3.14131E+01 0.00000E+00
 -1         2 5.41679E+01 2.57732E+01 0.00000E+00
 -1         3 1.50000E+02 0.00000E+00 0.00000E+00
 -1         4 1.50000E+02 5.00000E+01 0.00000E+00
 -1         5 0.00000E+00 0.00000E+00 0.00000E+00
 -1         6 0.00000E+00 5.00000E+01 0.00000E+00
 -1         7 0.00000E+00 4.70500E+01 0.00000E+00
 -1         8 0.00000E+00 4.41000E+01 0.00000E+00
 -1         9 0.00000E+00 4.11500E+01 0.00000E+00
 -1        10 0.00000E+00 3.82000E+01 0.00000E+00
 -1        11 0.00000E+00 3.52500E+01 0.00000E+00
 -1        12 0.00000E+00 3.23500E+01 0.00000E+00
 -1        13 0.00000E+00 2.94000E+01 0.00000E+00
 -1        14 0.00000E+00 2.64500E+01 0.00000E+00
 -1        15 0.00000E+00 2.35000E+01 0.00000E+00
 -1        16 0.00000E+00 2.05500E+01 0.00000E+00
 -1        17 0.00000E+00 1.76000E+01 0.00000E+00
 -1        18 0.00000E+00 1.47000E+01 0.00000E+00
 -1        19 0.00000E+00 1.17500E+01 0.00000E+00
 -1        20 0.00000E+00 8.80000E+00 0.00000E+00
 -1        21 0.00000E+00 5.85000E+00 0.00000E+00
 -1        22 0.00000E+00 2.90000E+00 0.00000E+00
 -1        23 3.15000E+00 5.00000E+01 0.00000E+00
 -1        24 6.15000E+00 5.00000E+01 0.00000E+00
 -1        25 9.15000E+00 5.00000E+01 0.00000E+00
 -1        26 1.21500E+01 5.00000E+01 0.00000E+00
 -1        27 1.51500E+01 5.00000E+01 0.00000E+00
 -1        28 1.81500E+01 5.00000E+01 0.00000E+00
 -1        29 2.11500E+01 5.00000E+01 0.00000E+00
 -1        30 2.41500E+01 5.00000E+01 0.00000E+00
 -1        31 2.71500E+01 5.00000E+01 0.00000E+00
 -1        32 3.01500E+01 5.00000E+01 0.00000E+00
 -1        33 3.31500E+01 5.00000E+01 0.00000E+00
 -1        34 3.61500E+01 5.00000E+01 0.00000E+00
 -1        35 3.91500E+01 5.00000E+01 0.00000E+00
 -1        36 4.21500E+01 5.00000E+01 0.00000E+00
 -1        37 4.51500E+01 5.00000E+01 0.00000E+00
 -1        38 4.81500E+01 5.00000E+01 0.00000E+00
 -1        39 5.11500E+01 5.00000E+01 0.00000E+00
 -1        40 5.41500E+01 5.00000E+01 0.00000E+00
 -1        41 5.71500E+01 5.00000E+01 0.00000E+00
 -1        42 6.01500E+01 5.00000E+01 0.00000E+00
 -1        43 6.31500E+01 5.00000E+01 0.00000E+00
 -1        44 6.61500E+01 5.00000E+01 0.00000E+00
 -1        45 6.91500E+01 5.00000E+01 0.00000E+00
 -1        46 7.21500E+01 5.00000E+01 0.00000E+00
 -1        47 7.51500E+01 5.00000E+01 0.00000E+00
 -1        48 7.81500E+01 5.00000E+01 0.00000E+00
 -1        49 8.11500E+01 5.00000E+01 0.00000E+00
 -1        50 8.41500E+01 5.00000E+01 0.00000E+00
 -1        51 8.71500E+01 5.00000E+01 0.00000E+00
 -1        52 9.01500E+01 5.00000E+01 0.00000E+00
 -1        53 9.31500E+01 5.00000E+01 0.00000E+00
 -1        54 9.61500E+01 5.00000E+01 0.00000E+00
 -1        55 9.91500E+01 5.00000E+01 0.00000E+00
 -1        56 1.02150E+02 5.00000E+01 0.00000E+00
 -1        57 1.05150E+02 5.00000E+01 0.00000E+00
 -1        58 1.08150E+02 5.00000E+01 0.00000E+00
 -1        59 1.11150E+02 5.00000E+01 0.00000E+00
 -1        60 1.14150E+02 5.00000E+01 0.00000E+00
 -1        61 1.17150E+02 5.00000E+01 0.00000E+00
 -1        62 1.20150E+02 5.00000E+01 0.00000E+00
 -1        63 1.23150E+02 5.00000E+01 0.00000E+00
 -1        64 1.26150E+02 5.00000E+01 0.00000E+00
 -1        65 1.29150E+02 5.00000E+01 0.00000E+00
 -1        66 1.32150E+02 5.00000E+01 0.00000E+00
 -1        67 1.35150E+02 5.00000E+01 0.00000E+00
 -1        68 1.38150E+02 5.00000E+01 0.00000E+00
 -1        69 1.41150E+02 5.00000E+01 0.00000E+00
 -1        70 1.44150E+02 5.00000E+01 0.00000E+00
 -1        71 1.47150E+02 5.00000E+01 0.00000E+00
 -1        72 3.15000E+00 0.00000E+00 0.00000E+00
 -1        73 6.15000E+00 0.00000E+00 0.00000E+00
 -1        74 9.15000E+00 0.00000E+00 0.00000E+00
 -1        75 1.21500E+01 0.00000E+00 0.00000E+00
 -1        76 1.51500E+01 0.00000E+00 0.00000E+00
 -1        77 1.81500E+01 0.00000E+00 0.00000E+00
 -1        78 2.11500E+01 0.00000E+00 0.00000E+00
 -1        79 2.41500E+01 0.00000E+00 0.00000E+00
 -1        80 2.71500E+01 0.00000E+00 0.00000E+00
 -1        81 3.01500E+01 0.00000E+00 0.00000E+00
 -1        82 3.31500E+01 0.00000E+00 0.00000E+00
 -1        83 3.61500E+01 0.00000E+00 0.00000E+00
 -1        84 3.91500E+01 0.00000E+00 0.00000E+00
 -1        85 4.21500E+01 0.00000E+00 0.00000E+00
 -1        86 4.51500E+01 0.00000E+00 0.00000E+00
 -1        87 4.81500E+01 0.00000E+00 0.00000E+00
 -1        88 5.11500E+01 0.00000E+00 0.00000E+00
 -1        89 5.41500E+01 0.00000E+00 0.00000E+00
 -1        90 5.71500E+01 0.00000E+00 0.00000E+00
 -1        91 6.01500E+01 0.00000E+00 0.00000E+00
 -1        92 6.31500E+01 0.00000E+00 0.00000E+00
 -1        93 6.61500E+01 0.00000E+00 0.00000E+00
 -1        94 6.91500E+01 0.00000E+00 0.00000E+00
 -1        95 7.21500E+01 0.00000E+00 0.00000E+00
 -1        96 7.51500E+01 0.00000E+00 0.00000E+00
 -1        97 7.81500E+01 0.00000E+00 0.00000E+00
 -1        98 8.11500E+01 0.00000E+00 0.00000E+00
 -1        99 8.41500E+01 0.00000E+00 0.00000E+00
 -1       100 8.71500E+01 0.00000E+00 0.00000E+00
 -1       101 9.01500E+01 0.00000E+00 0.00000E+00
 -1       102 9.31500E+01 0.00000E+00 0.00000E+00
 -1       103 9.61500E+01 0.00000E+00 0.00000E+00
 -1       104 9.91500E+01 0.00000E+00 0.00000E+00
 -1       105 1.02150E+02 0.00000E+00 0.00000E+00
 -1       106 1.05150E+02 0.00000E+00 0.00000E+00
 -1       107 1.08150E+02 0.00000E+00 0.00000E+00
 -1       108 1.11150E+02 0.00000E+00 0.00000E+00
 -1       109 1.14150E+02 0.00000E+00 0.00000E+00
 -1       110 1.17150E+02 0.00000E+00 0.00000E+00
 -1       111 1.20150E+02 0.00000E+00 0.00000E+00
 -1       112 1.23150E+02 0.00000E+00 0.00000E+00
 -1       113 1.26150E+02 0.00000E+00 0.00000E+00
 -1       114 1.29150E+02 0.00000E+00 0.00000E+00
 -1       115 1.32150E+02 0.00000E+00 0.00000E+00
 -1       116 1.35150E+02 0.00000E+00 0.00000E+00
 -1       117 1.38150E+02 0.00000E+00 0.00000E+00
 -1       118 1.41150E+02 0.00000E+00 0.00000E+00
 -1       119 1.44150E+02 0.00000E+00 0.00000E+00
 -1       120 1.47150E+02 0.00000E+00 0.00000E+00
 -1       121 1.50000E+02 2.95000E+00 0.00000E+00
 -1       122 1.50000E+02 5.90000E+00 0.00000E+00
 -1       123 1.50000E+02 8.85000E+00 0.00000E+00
 -1       124 1.50000E+02 1.18000E+01 0.00000E+00
 -1       125 1.50000E+02 1.47500E+01 0.00000E+00
 -1       126 1.50000E+02 1.76500E+01 0.00000E+00
 -1       127 1.50000E+02 2.06000E+01 0.00000E+00
 -1       128 1.50000E+02 2.35500E+01 0.00000E+00
 -1       129 1.50000E+02 2.65000E+01 0.00000E+00
 -1       130 1.50000E+02 2.94500E+01 0.00000E+00
 -1       131 1.50000E+02 3.24000E+01 0.00000E+00
 -1       132 1.50000E+02 3.53000E+01 0.00000E+00
 -1       133 1.50000E+02 3.82500E+01 0.00000E+00
 -1       134 1.50000E+02 4.12000E+01 0.00000E+00
 -1       135 1.50000E+02 4.41500E+01 0.00000E+00
 -1       136 1.50000E+02 4.71000E+01 0.00000E+00
 -1       137 5.39888E+01 2.42002E+01 0.00000E+00
 -1       138 5.35001E+01 2.27895E+01 0.00000E+00
 -1       139 5.27146E+01 2.15030E+01 0.00000E+00
 -1       140 5.16398E+01 2.03878E+01 0.00000E+00
 -1       141 5.04341E+01 1.95819E+01 0.00000E+00
 -1       142 4.90197E+01 1.90226E+01 0.00000E+00
 -1       143 4.76150E+01 1.87875E+01 0.00000E+00
 -1       144 4.60705E+01 1.88597E+01 0.00000E+00
 -1       145 4.46548E+01 1.92398E+01 0.00000E+00
 -1       146 4.33145E+01 1.99292E+01 0.00000E+00
 -1       147 4.22053E+01 2.08362E+01 0.00000E+00
 -1       148 4.12499E+01 2.20345E+01 0.00000E+00
 -1       149 4.05626E+01 2.34558E+01 0.00000E+00
 -1       150 4.02119E+01 2.49889E+01 0.00000E+00
 -1       151 4.01953E+01 2.63921E+01 0.00000E+00
 -1       152 4.04773E+01 2.78313E+01 0.00000E+00
 -1       153 4.10624E+01 2.91972E+01 0.00000E+00
 -1       154 4.19006E+01 3.03836E+01 0.00000E+00
 -1       155 4.42696E+01 3.21450E+01 0.00000E+00
 -1       156 4.55997E+01 3.25953E+01 0.00000E+00
 -1       157 4.69800E+01 3.27707E+01 0.00000E+00
 -1       158 4.84796E+01 3.26492E+01 0.00000E+00
 -1       159 4.97916E+01 3.22629E+01 0.00000E+00
 -1       160 5.09944E+01 3.16347E+01 0.00000E+00
 -1       161 5.20671E+01 3.07729E+01 0.00000E+00
 -1       162 5.29973E+01 2.96485E+01 0.00000E+00
 -1       163 5.36400E+01 2.84399E+01 0.00000E+00
 -1       164 5.40333E+01 2.71390E+01 0.00000E+00
 -1       165 2.59800E+00 4.55750E+01 0.00000E+00
 -1       166 2.59800E+00 4.26250E+01 0.00000E+00
 -1       167 2.59800E+00 3.96750E+01 0.00000E+00
 -1       168 2.59800E+00 3.67250E+01 0.00000E+00
 -1       169 2.59800E+00 3.38250E+01 0.00000E+00
 -1       170 2.59800E+00 3.08750E+01 0.00000E+00
 -1       171 2.59800E+00 2.79250E+01 0.00000E+00
 -1       172 2.59800E+00 2.49750E+01 0.00000E+00
 -1       173 2.59800E+00 2.20250E+01 0.00000E+00
 -1       174 2.59800E+00 1.90750E+01 0.00000E+00
 -1       175 2.59800E+00 1.61750E+01 0.00000E+00
 -1       176 2.59800E+00 1.32250E+01 0.00000E+00
 -1       177 2.59800E+00 1.02750E+01 0.00000E+00
 -1       178 2.59800E+00 7.32500E+00 0.00000E+00
 -1       179 2.59800E+00 4.37500E+00 0.00000E+00
 -1       180 2.87400E+00 2.18750E+00 0.00000E+00
 -1       181 4.65000E+00 4.74020E+01 0.00000E+00
 -1       182 7.65000E+00 4.74020E+01 0.00000E+00
 -1       183 1.06500E+01 4.74020E+01 0.00000E+00
 -1       184 1.36500E+01 4.74020E+01 0.00000E+00
 -1       185 1.66500E+01 4.74020E+01 0.00000E+00
 -1       186 1.96500E+01 4.74020E+01 0.00000E+00
 -1       187 2.26500E+01 4.74020E+01 0.00000E+00
 -1       188 2.56500E+01 4.74020E+01 0.00000E+00
 -1       189 2.86500E+01 4.74020E+01 0.00000E+00
 -1       190 3.16500E+01 4.74020E+01 0.00000E+00
 -1       191 3.46500E+01 4.74020E+01 0.00000E+00
 -1       192 3.76500E+01 4.74020E+01 0.00000E+00
 -1       193 4.06500E+01 4.74020E+01 0.00000E+00
 -1       194 4.36500E+01 4.74020E+01 0.00000E+00
 -1       195 4.66500E+01 4.74020E+01 0.00000E+00
 -1       196 4.96500E+01 4.74020E+01 0.00000E+00
 -1       197 5.26500E+01 4.74020E+01 0.00000E+00
 -1       198 5.56500E+01 4.74020E+01 0.00000E+00
 -1       199 5.86500E+01 4.74020E+01 0.00000E+00
 -1       200 6.16500E+01 4.74020E+01 0.00000E+00
 -1       201 6.46500E+01 4.74020E+01 0.00000E+00
 -1       202 6.76500E+01 4.74020E+01 0.00000E+00
 -1       203 7.06500E+01 4.74020E+01 0.00000E+00
 -1       204 7.36500E+01 4.74020E+01 0.00000E+00
 -1       205 7.66500E+01 4.74020E+01 0.00000E+00
 -1       206 7.96500E+01 4.74020E+01 0.00000E+00
 -1       207 8.26500E+01 4.74020E+01 0.00000E+00
 -1       208 8.56500E+01 4.74020E+01 0.00000E+00
 -1       209 8.86500E+01 4.74020E+01 0.00000E+00
 -1       210 9.16500E+01 4.74020E+01 0.00000E+00
 -1       211 9.46500E+01 4.74020E+01 0.00000E+00
 -1       212 9.76500E+01 4.74020E+01 0.00000E+00
 -1       213 1.00650E+02 4.74020E+01 0.00000E+00
 -1       214 1.03650E+02 4.74020E+01 0.00000E+00
 -1       215 1.06650E+02 4.74020E+01 0.00000E+00
 -1       216 1.09650E+02 4.74020E+01 0.00000E+00
 -1       217 1.12650E+02 4.74020E+01 0.00000E+00
 -1       218 1.15650E+02 4.74020E+01 0.00000E+00
 -1       219 1.18650E+02 4.74020E+01 0.00000E+00
 -1       220 1.21650E+02 4.74020E+01 0.00000E+00
 -1       221 1.24650E+02 4.74020E+01 0.00000E+00
 -1       222 1.27650E+02 4.74020E+01 0.00000E+00
 -1       223 1.30650E+02 4.74020E+01 0.00000E+00
 -1       224 1.33650E+02 4.74020E+01 0.00000E+00
 -1       225 1.36650E+02 4.74020E+01 0.00000E+00
 -1       226 1.39650E+02 4.74020E+01 0.00000E+00
 -1       227 1.42650E+02 4.74020E+01 0.00000E+00
 -1       228 1.45650E+02 4.74020E+01 0.00000E+00
 -1       229 5.87400E+00 2.18750E+00 0.00000E+00
 -1       230 8.87400E+00 2.18750E+00 0.00000E+00
 -1       231 1.18740E+01 2.18750E+00 0.00000E+00
 -1       232 1.48740E+01 2.18750E+00 0.00000E+00
 -1       233 1.78740E+01 2.18750E+00 0.00000E+00
 -1       234 2.08740E+01 2.18750E+00 0.00000E+00
 -1       235 2.38740E+01 2.18750E+00 0.00000E+00
 -1       236 2.68740E+01 2.18750E+00 0.00000E+00
 -1       237 2.98740E+01 2.18750E+00 0.00000E+00
 -1       238 3.28740E+01 2.18750E+00 0.00000E+00
 -1       239 3.58740E+01 2.18750E+00 0.00000E+00
 -1       240 3.88740E+01 2.18750E+00 0.00000E+00
 -1       241 4.18740E+01 2.18750E+00 0.00000E+00
 -1       242 4.48740E+01 2.18750E+00 0.00000E+00
 -1       243 4.78740E+01 2.18750E+00 0.00000E+00
 -1       244 5.08740E+01 2.18750E+00 0.00000E+00
 -1       245 5.38740E+01 2.18750E+00 0.00000E+00
 -1       246 5.68740E+01 2.18750E+00 0.00000E+00
 -1       247 5.98740E+01 2.18750E+00 0.00000E+00
 -1       248 6.28740E+01 2.18750E+00 0.00000E+00
 -1       249 6.58740E+01 2.18750E+00 0.00000E+00
 -1       250 6.88740E+01 2.18750E+00 0.00000E+00
 -1       251 7.18740E+01 2.18750E+00 0.00000E+00
 -1       252 7.48740E+01 2.18750E+00 0.00000E+00
 -1       253 7.78740E+01 2.18750E+00 0.00000E+00
 -1       254 8.08740E+01 2.18750E+00 0.00000E+00
 -1       255 8.38740E+01 2.18750E+00 0.00000E+00
 -1       256 8.68740E+01 2.18750E+00 0.00000E+00
 -1       257 8.98740E+01 2.18750E+00 0.00000E+00
 -1       258 9.28740E+01 2.18750E+00 0.00000E+00
 -1       259 9.58740E+01 2.18750E+00 0.00000E+00
 -1       260 9.88740E+01 2.18750E+00 0.00000E+00
 -1       261 1.01874E+02 2.18750E+00 0.00000E+00
 -1       262 1.04874E+02 2.18750E+00 0.00000E+00
 -1       263 1.07874E+02 2.18750E+00 0.00000E+00
 -1       264 1.10874E+02 2.18750E+00 0.00000E+00
 -1       265 1.13874E+02 2.18750E+00 0.00000E+00
 -1       266 1.16874E+02 2.18750E+00 0.00000E+00
 -1       267 1.19874E+02 2.18750E+00 0.00000E+00
 -1       268 1.22874E+02 2.18750E+00 0.00000E+00
 -1       269 1.25874E+02 2.18750E+00 0.00000E+00
 -1       270 1.28874E+02 2.18750E+00 0.00000E+00
 -1       271 1.31874E+02 2.18750E+00 0.00000E+00
 -1       272 1.34874E+02 2.18750E+00 0.00000E+00
 -1       273 1.37874E+02 2.18750E+00 0.00000E+00
 -1       274 1.40874E+02 2.18750E+00 0.00000E+00
 -1       275 1.43874E+02 2.18750E+00 0.00000E+00
 -1       276 1.46874E+02 2.18750E+00 0.00000E+00
 -1       277 1.47402E+02 4.42500E+00 0.00000E+00
 -1       278 1.47402E+02 7.37500E+00 0.00000E+00
 -1       279 1.47402E+02 1.03250E+01 0.00000E+00
 -1       280 1.47402E+02 1.32750E+01 0.00000E+00
 -1       281 1.47402E+02 1.61750E+01 0.00000E+00
 -1       282 1.47402E+02 1.91250E+01 0.00000E+00
 -1       283 1.47402E+02 2.20750E+01 0.00000E+00
 -1       284 1.47402E+02 2.50250E+01 0.00000E+00
 -1       285 1.47402E+02 2.79750E+01 0.00000E+00
 -1       286 1.47402E+02 3.09250E+01 0.00000E+00
 -1       287 1.47402E+02 3.38250E+01 0.00000E+00
 -1       288 1.47402E+02 3.67750E+01 0.00000E+00
 -1       289 1.47402E+02 3.97250E+01 0.00000E+00
 -1       290 1.47402E+02 4.26750E+01 0.00000E+00
 -1       291 1.46526E+02 4.50385E+01 0.00000E+00
 -1       292 5.54495E+01 2.48306E+01 0.00000E+00
 -1       293 5.48901E+01 2.30980E+01 0.00000E+00
 -1       294 5.41421E+01 2.15144E+01 0.00000E+00
 -1       295 5.31708E+01 1.99878E+01 0.00000E+00
 -1       296 5.17107E+01 1.89769E+01 0.00000E+00
 -1       297 5.02344E+01 1.80190E+01 0.00000E+00
 -1       298 4.85175E+01 1.77092E+01 0.00000E+00
 -1       299 4.67822E+01 1.75288E+01 0.00000E+00
 -1       300 4.50483E+01 1.78788E+01 0.00000E+00
 -1       301 4.33535E+01 1.83574E+01 0.00000E+00
 -1       302 4.17803E+01 1.91847E+01 0.00000E+00
 -1       303 4.06486E+01 2.05751E+01 0.00000E+00
 -1       304 3.95885E+01 2.21079E+01 0.00000E+00
 -1       305 3.90420E+01 2.39147E+01 0.00000E+00
 -1       306 3.89913E+01 2.56761E+01 0.00000E+00
 -1       307 3.90643E+01 2.73609E+01 0.00000E+00
 -1       308 3.96554E+01 2.89917E+01 0.00000E+00
 -1       309 4.04913E+01 3.04899E+01 0.00000E+00
 -1       310 4.15277E+01 3.19147E+01 0.00000E+00
 -1       311 4.30322E+01 3.28248E+01 0.00000E+00
 -1       312 4.45459E+01 3.35185E+01 0.00000E+00
 -1       313 4.61370E+01 3.38857E+01 0.00000E+00
 -1       314 4.78412E+01 3.40854E+01 0.00000E+00
 -1       315 4.94780E+01 3.36191E+01 0.00000E+00
 -1       316 5.09542E+01 3.30235E+01 0.00000E+00
 -1       317 5.22901E+01 3.21490E+01 0.00000E+00
 -1       318 5.35955E+01 3.10903E+01 0.00000E+00
 -1       319 5.43891E+01 2.96135E+01 0.00000E+00
 -1       320 5.49972E+01 2.81403E+01 0.00000E+00
 -1       321 5.53072E+01 2.65749E+01 0.00000E+00
 -1       322 5.19600E+00 4.11500E+01 0.00000E+00
 -1       323 5.19600E+00 4.41000E+01 0.00000E+00
 -1       324 5.19600E+00 3.52750E+01 0.00000E+00
 -1       325 5.19600E+00 3.23250E+01 0.00000E+00
 -1       326 5.19600E+00 2.93750E+01 0.00000E+00
 -1       327 5.19600E+00 2.64250E+01 0.00000E+00
 -1       328 5.19600E+00 2.34750E+01 0.00000E+00
 -1       329 5.19600E+00 2.05250E+01 0.00000E+00
 -1       330 5.19600E+00 1.76250E+01 0.00000E+00
 -1       331 5.19600E+00 1.46750E+01 0.00000E+00
 -1       332 5.19600E+00 1.17250E+01 0.00000E+00
 -1       333 5.19600E+00 8.77500E+00 0.00000E+00
 -1       334 5.19600E+00 5.82500E+00 0.00000E+00
 -1       335 5.53500E+00 4.00625E+00 0.00000E+00
 -1       336 8.53500E+00 4.00625E+00 0.00000E+00
 -1       337 9.15000E+00 4.48040E+01 0.00000E+00
 -1       338 1.21500E+01 4.48040E+01 0.00000E+00
 -1       339 1.51500E+01 4.48040E+01 0.00000E+00
 -1       340 1.81500E+01 4.48040E+01 0.00000E+00
 -1       341 2.11500E+01 4.48040E+01 0.00000E+00
 -1       342 2.41500E+01 4.48040E+01 0.00000E+00
 -1       343 2.71500E+01 4.48040E+01 0.00000E+00
 -1       344 3.01500E+01 4.48040E+01 0.00000E+00
 -1       345 3.31500E+01 4.48040E+01 0.00000E+00
 -1       346 3.61500E+01 4.48040E+01 0.00000E+00
 -1       347 3.91500E+01 4.48040E+01 0.00000E+00
 -1       348 4.21500E+01 4.48040E+01 0.00000E+00
 -1       349 4.51500E+01 4.48040E+01 0.00000E+00
 -1       350 4.81500E+01 4.48040E+01 0.00000E+00
 -1       351 5.11500E+01 4.48040E+01 0.00000E+00
 -1       352 5.41500E+01 4.48040E+01 0.00000E+00
 -1       353 5.71500E+01 4.48040E+01 0.00000E+00
 -1       354 6.01500E+01 4.48040E+01 0.00000E+00
 -1       355 6.31500E+01 4.48040E+01 0.00000E+00
 -1       356 6.61500E+01 4.48040E+01 0.00000E+00
 -1       357 6.91500E+01 4.48040E+01 0.00000E+00
 -1       358 7.21500E+01 4.48040E+01 0.00000E+00
 -1       359 7.51500E+01 4.48040E+01 0.00000E+00
 -1       360 7.81500E+01 4.48040E+01 0.00000E+00
 -1       361 8.11500E+01 4.48040E+01 0.00000E+00
 -1       362 8.41500E+01 4.48040E+01 0.00000E+00
 -1       363 8.71500E+01 4.48040E+01 0.00000E+00
 -1       364 9.01500E+01 4.48040E+01 0.00000E+00
 -1       365 9.31500E+01 4.48040E+01 0.00000E+00
 -1       366 9.61500E+01 4.48040E+01 0.00000E+00
 -1       367 9.91500E+01 4.48040E+01 0.00000E+00
 -1       368 1.02150E+02 4.48040E+01 0.00000E+00
 -1       369 1.05150E+02 4.48040E+01 0.00000E+00
 -1       370 1.08150E+02 4.48040E+01 0.00000E+00
 -1       371 1.11150E+02 4.48040E+01 0.00000E+00
 -1       372 1.14150E+02 4.48040E+01 0.00000E+00
 -1       373 1.17150E+02 4.48040E+01 0.00000E+00
 -1       374 1.20150E+02 4.48040E+01 0.00000E+00
 -1       375 1.23150E+02 4.48040E+01 0.00000E+00
 -1       376 1.26150E+02 4.48040E+01 0.00000E+00
 -1       377 1.29150E+02 4.48040E+01 0.00000E+00
 -1       378 1.32150E+02 4.48040E+01 0.00000E+00
 -1       379 1.35150E+02 4.48040E+01 0.00000E+00
 -1       380 1.38150E+02 4.48040E+01 0.00000E+00
 -1       381 1.41150E+02 4.48040E+01 0.00000E+00
 -1       382 1.43838E+02 4.49212E+01 0.00000E+00
 -1       383 1.15350E+01 4.00625E+00 0.00000E+00
 -1       384 1.45350E+01 4.00625E+00 0.00000E+00
 -1       385 1.75350E+01 4.00625E+00 0.00000E+00
 -1       386 2.05350E+01 4.00625E+00 0.00000E+00
 -1       387 2.35350E+01 4.00625E+00 0.00000E+00
 -1       388 2.65350E+01 4.00625E+00 0.00000E+00
 -1       389 2.95350E+01 4.00625E+00 0.00000E+00
 -1       390 3.25350E+01 4.00625E+00 0.00000E+00
 -1       391 3.55350E+01 4.00625E+00 0.00000E+00
 -1       392 3.85350E+01 4.00625E+00 0.00000E+00
 -1       393 4.15350E+01 4.00625E+00 0.00000E+00
 -1       394 4.45350E+01 4.00625E+00 0.00000E+00
 -1       395 4.75350E+01 4.00625E+00 0.00000E+00
 -1       396 5.05350E+01 4.00625E+00 0.00000E+00
 -1       397 5.35350E+01 4.00625E+00 0.00000E+00
 -1       398 5.65350E+01 4.00625E+00 0.00000E+00
 -1       399 5.95350E+01 4.00625E+00 0.00000E+00
 -1       400 6.25350E+01 4.00625E+00 0.00000E+00
 -1       401 6.55350E+01 4.00625E+00 0.00000E+00
 -1       402 6.85350E+01 4.00625E+00 0.00000E+00
 -1       403 7.15350E+01 4.00625E+00 0.00000E+00
 -1       404 7.45350E+01 4.00625E+00 0.00000E+00
 -1       405 7.75350E+01 4.00625E+00 0.00000E+00
 -1       406 8.05350E+01 4.00625E+00 0.00000E+00
 -1       407 8.35350E+01 4.00625E+00 0.00000E+00
 -1       408 8.65350E+01 4.00625E+00 0.00000E+00
 -1       409 8.95350E+01 4.00625E+00 0.00000E+00
 -1       410 9.25350E+01 4.00625E+00 0.00000E+00
 -1       411 9.55350E+01 4.00625E+00 0.00000E+00
 -1       412 9.85350E+01 4.00625E+00 0.00000E+00
 -1       413 1.01535E+02 4.00625E+00 0.00000E+00
 -1       414 1.04535E+02 4.00625E+00 0.00000E+00
 -1       415 1.07535E+02 4.00625E+00 0.00000E+00
 -1       416 1.10535E+02 4.00625E+00 0.00000E+00
 -1       417 1.13535E+02 4.00625E+00 0.00000E+00
 -1       418 1.16535E+02 4.00625E+00 0.00000E+00
 -1       419 1.19535E+02 4.00625E+00 0.00000E+00
 -1       420 1.22535E+02 4.00625E+00 0.00000E+00
 -1       421 1.25535E+02 4.00625E+00 0.00000E+00
 -1       422 1.28535E+02 4.00625E+00 0.00000E+00
 -1       423 1.31535E+02 4.00625E+00 0.00000E+00
 -1       424 1.34535E+02 4.00625E+00 0.00000E+00
 -1       425 1.37535E+02 4.00625E+00 0.00000E+00
 -1       426 1.40535E+02 4.00625E+00 0.00000E+00
 -1       427 1.43535E+02 4.00625E+00 0.00000E+00
 -1       428 1.45469E+02 4.21562E+00 0.00000E+00
 -1       429 1.44804E+02 1.18000E+01 0.00000E+00
 -1       430 1.44804E+02 8.85000E+00 0.00000E+00
 -1       431 1.45136E+02 6.53281E+00 0.00000E+00
 -1       432 1.44804E+02 1.47000E+01 0.00000E+00
 -1       433 1.44804E+02 1.76500E+01 0.00000E+00
 -1       434 1.44804E+02 2.06000E+01 0.00000E+00
 -1       435 1.44804E+02 2.35500E+01 0.00000E+00
 -1       436 1.44804E+02 2.65000E+01 0.00000E+00
 -1       437 1.44804E+02 2.94500E+01 0.00000E+00
 -1       438 1.44804E+02 3.23500E+01 0.00000E+00
 -1       439 1.44804E+02 3.53000E+01 0.00000E+00
 -1       440 1.44804E+02 3.82500E+01 0.00000E+00
 -1       441 1.44804E+02 4.12000E+01 0.00000E+00
 -1       442 5.58396E+01 2.16810E+01 0.00000E+00
 -1       443 5.68372E+01 2.58218E+01 0.00000E+00
 -1       444 5.66425E+01 2.34888E+01 0.00000E+00
 -1       445 5.48207E+01 2.00103E+01 0.00000E+00
 -1       446 5.33216E+01 1.82100E+01 0.00000E+00
 -1       447 5.19600E+00 3.82125E+01 0.00000E+00
 -1       448 4.96209E+01 1.65060E+01 0.00000E+00
 -1       449 4.77838E+01 1.63298E+01 0.00000E+00
 -1       450 4.56256E+01 1.62690E+01 0.00000E+00
 -1       451 4.38259E+01 1.67901E+01 0.00000E+00
 -1       452 4.18856E+01 1.74755E+01 0.00000E+00
 -1       453 3.99493E+01 1.88501E+01 0.00000E+00
 -1       454 3.88891E+01 2.03829E+01 0.00000E+00
 -1       455 3.80746E+01 2.26361E+01 0.00000E+00
 -1       456 3.73860E+01 2.47484E+01 0.00000E+00
 -1       457 3.77328E+01 2.65746E+01 0.00000E+00
 -1       458 3.81412E+01 2.86180E+01 0.00000E+00
 -1       459 3.89414E+01 3.03723E+01 0.00000E+00
 -1       460 3.98935E+01 3.20141E+01 0.00000E+00
 -1       461 4.14790E+01 3.36939E+01 0.00000E+00
 -1       462 4.31793E+01 3.45023E+01 0.00000E+00
 -1       463 4.49935E+01 3.52100E+01 0.00000E+00
 -1       464 4.66977E+01 3.54097E+01 0.00000E+00
 -1       465 4.90607E+01 3.52600E+01 0.00000E+00
 -1       466 5.07011E+01 3.45233E+01 0.00000E+00
 -1       467 5.23780E+01 3.37408E+01 0.00000E+00
 -1       468 5.37593E+01 3.26264E+01 0.00000E+00
 -1       469 5.55031E+01 3.11637E+01 0.00000E+00
 -1       470 5.61112E+01 2.96905E+01 0.00000E+00
 -1       471 5.65059E+01 2.76257E+01 0.00000E+00
 -1       472 5.18453E+01 1.72521E+01 0.00000E+00
 -1       473 1.00350E+01 6.60425E+00 0.00000E+00
 -1       474 7.79400E+00 3.08500E+01 0.00000E+00
 -1       475 7.79400E+00 3.38000E+01 0.00000E+00
 -1       476 7.79400E+00 2.49500E+01 0.00000E+00
 -1       477 7.79400E+00 2.20000E+01 0.00000E+00
 -1       478 7.79400E+00 1.91000E+01 0.00000E+00
 -1       479 7.79400E+00 1.61500E+01 0.00000E+00
 -1       480 7.79400E+00 1.32000E+01 0.00000E+00
 -1       481 7.79400E+00 1.02500E+01 0.00000E+00
 -1       482 5.53892E+01 1.80127E+01 0.00000E+00
 -1       483 1.30350E+01 6.60425E+00 0.00000E+00
 -1       484 1.06500E+01 4.22060E+01 0.00000E+00
 -1       485 5.12518E+01 1.53324E+01 0.00000E+00
 -1       486 1.36500E+01 4.22060E+01 0.00000E+00
 -1       487 1.66500E+01 4.22060E+01 0.00000E+00
 -1       488 1.96500E+01 4.22060E+01 0.00000E+00
 -1       489 2.26500E+01 4.22060E+01 0.00000E+00
 -1       490 2.56500E+01 4.22060E+01 0.00000E+00
 -1       491 2.86500E+01 4.22060E+01 0.00000E+00
 -1       492 3.16500E+01 4.22060E+01 0.00000E+00
 -1       493 3.46500E+01 4.22060E+01 0.00000E+00
 -1       494 3.76500E+01 4.22060E+01 0.00000E+00
 -1       495 4.06500E+01 4.22060E+01 0.00000E+00
 -1       496 4.36500E+01 4.22060E+01 0.00000E+00
 -1       497 4.66500E+01 4.22060E+01 0.00000E+00
 -1       498 4.96500E+01 4.22060E+01 0.00000E+00
 -1       499 5.26500E+01 4.22060E+01 0.00000E+00
 -1       500 5.56500E+01 4.22060E+01 0.00000E+00
 -1       501 5.86500E+01 4.22060E+01 0.00000E+00
 -1       502 6.16500E+01 4.22060E+01 0.00000E+00
 -1       503 6.46500E+01 4.22060E+01 0.00000E+00
 -1       504 6.76500E+01 4.22060E+01 0.00000E+00
 -1       505 7.06500E+01 4.22060E+01 0.00000E+00
 -1       506 7.36500E+01 4.22060E+01 0.00000E+00
 -1       507 7.66500E+01 4.22060E+01 0.00000E+00
 -1       508 7.96500E+01 4.22060E+01 0.00000E+00
 -1       509 8.26500E+01 4.22060E+01 0.00000E+00
 -1       510 8.56500E+01 4.22060E+01 0.00000E+00
 -1       511 8.86500E+01 4.22060E+01 0.00000E+00
 -1       512 9.16500E+01 4.22060E+01 0.00000E+00
 -1       513 9.46500E+01 4.22060E+01 0.00000E+00
 -1       514 9.76500E+01 4.22060E+01 0.00000E+00
 -1       515 1.00650E+02 4.22060E+01 0.00000E+00
 -1       516 1.03650E+02 4.22060E+01 0.00000E+00
 -1       517 1.06650E+02 4.22060E+01 0.00000E+00
 -1       518 1.09650E+02 4.22060E+01 0.00000E+00
 -1       519 1.12650E+02 4.22060E+01 0.00000E+00
 -1       520 1.15650E+02 4.22060E+01 0.00000E+00
 -1       521 1.18650E+02 4.22060E+01 0.00000E+00
 -1       522 1.21650E+02 4.22060E+01 0.00000E+00
 -1       523 1.24650E+02 4.22060E+01 0.00000E+00
 -1       524 1.27650E+02 4.22060E+01 0.00000E+00
 -1       525 1.30650E+02 4.22060E+01 0.00000E+00
 -1       526 1.33650E+02 4.22060E+01 0.00000E+00
 -1       527 1.36650E+02 4.22060E+01 0.00000E+00
 -1       528 1.39650E+02 4.22060E+01 0.00000E+00
 -1       529 1.90350E+01 6.60425E+00 0.00000E+00
 -1       530 2.20350E+01 6.60425E+00 0.00000E+00
 -1       531 2.50350E+01 6.60425E+00 0.00000E+00
 -1       532 2.80350E+01 6.60425E+00 0.00000E+00
 -1       533 3.10350E+01 6.60425E+00 0.00000E+00
 -1       534 3.40350E+01 6.60425E+00 0.00000E+00
 -1       535 3.70350E+01 6.60425E+00 0.00000E+00
 -1       536 4.00350E+01 6.60425E+00 0.00000E+00
 -1       537 4.30350E+01 6.60425E+00 0.00000E+00
 -1       538 4.60350E+01 6.60425E+00 0.00000E+00
 -1       539 4.90350E+01 6.60425E+00 0.00000E+00
 -1       540 5.20350E+01 6.60425E+00 0.00000E+00
 -1       541 5.50350E+01 6.60425E+00 0.00000E+00
 -1       542 5.80350E+01 6.60425E+00 0.00000E+00
 -1       543 6.10350E+01 6.60425E+00 0.00000E+00
 -1       544 6.40350E+01 6.60425E+00 0.00000E+00
 -1       545 6.70350E+01 6.60425E+00 0.00000E+00
 -1       546 7.00350E+01 6.60425E+00 0.00000E+00
 -1       547 7.30350E+01 6.60425E+00 0.00000E+00
 -1       548 7.60350E+01 6.60425E+00 0.00000E+00
 -1       549 7.90350E+01 6.60425E+00 0.00000E+00
 -1       550 8.20350E+01 6.60425E+00 0.00000E+00
 -1       551 8.50350E+01 6.60425E+00 0.00000E+00
 -1       552 8.80350E+01 6.60425E+00 0.00000E+00
 -1       553 9.10350E+01 6.60425E+00 0.00000E+00
 -1       554 9.40350E+01 6.60425E+00 0.00000E+00
 -1       555 9.70350E+01 6.60425E+00 0.00000E+00
 -1       556 1.00035E+02 6.60425E+00 0.00000E+00
 -1       557 1.03035E+02 6.60425E+00 0.00000E+00
 -1       558 1.06035E+02 6.60425E+00 0.00000E+00
 -1       559 1.09035E+02 6.60425E+00 0.00000E+00
 -1       560 1.12035E+02 6.60425E+00 0.00000E+00
 -1       561 1.15035E+02 6.60425E+00 0.00000E+00
 -1       562 1.18035E+02 6.60425E+00 0.00000E+00
 -1       563 1.21035E+02 6.60425E+00 0.00000E+00
 -1       564 1.24035E+02 6.60425E+00 0.00000E+00
 -1       565 1.27035E+02 6.60425E+00 0.00000E+00
 -1       566 1.30035E+02 6.60425E+00 0.00000E+00
 -1       567 1.33035E+02 6.60425E+00 0.00000E+00
 -1       568 1.36035E+02 6.60425E+00 0.00000E+00
 -1       569 1.39035E+02 6.60425E+00 0.00000E+00
 -1       570 1.42035E+02 6.60425E+00 0.00000E+00
 -1       571 1.42206E+02 1.61750E+01 0.00000E+00
 -1       572 1.42206E+02 1.91250E+01 0.00000E+00
 -1       573 1.42206E+02 1.03250E+01 0.00000E+00
 -1       574 1.42206E+02 1.32500E+01 0.00000E+00
 -1       575 1.42206E+02 2.20750E+01 0.00000E+00
 -1       576 1.42206E+02 2.50250E+01 0.00000E+00
 -1       577 1.42206E+02 2.79750E+01 0.00000E+00
 -1       578 1.42206E+02 3.08750E+01 0.00000E+00
 -1       579 1.42206E+02 3.38250E+01 0.00000E+00
 -1       580 1.42206E+02 3.67750E+01 0.00000E+00
 -1       581 1.42206E+02 3.97250E+01 0.00000E+00
 -1       582 5.83655E+01 2.45196E+01 0.00000E+00
 -1       583 5.66514E+01 2.00399E+01 0.00000E+00
 -1       584 1.60350E+01 6.60425E+00 0.00000E+00
 -1       585 5.83584E+01 2.70336E+01 0.00000E+00
 -1       586 5.78085E+01 2.18888E+01 0.00000E+00
 -1       587 7.92300E+00 4.16780E+01 0.00000E+00
 -1       588 5.57334E+01 3.32091E+01 0.00000E+00
 -1       589 4.34631E+01 3.64540E+01 0.00000E+00
 -1       590 3.99246E+01 1.67643E+01 0.00000E+00
 -1       591 7.79400E+00 2.79000E+01 0.00000E+00
 -1       592 4.67530E+01 1.45850E+01 0.00000E+00
 -1       593 3.60997E+01 2.31607E+01 0.00000E+00
 -1       594 4.88502E+01 1.48774E+01 0.00000E+00
 -1       595 4.42954E+01 1.50430E+01 0.00000E+00
 -1       596 4.23403E+01 1.56736E+01 0.00000E+00
 -1       597 3.80086E+01 1.86409E+01 0.00000E+00
 -1       598 5.05835E+01 3.64562E+01 0.00000E+00
 -1       599 3.69142E+01 2.09076E+01 0.00000E+00
 -1       600 3.61214E+01 2.59345E+01 0.00000E+00
 -1       601 3.65298E+01 2.79780E+01 0.00000E+00
 -1       602 3.72096E+01 3.01026E+01 0.00000E+00
 -1       603 3.79338E+01 3.20536E+01 0.00000E+00
 -1       604 3.94390E+01 3.40312E+01 0.00000E+00
 -1       605 4.17629E+01 3.56456E+01 0.00000E+00
 -1       606 4.56460E+01 3.70133E+01 0.00000E+00
 -1       607 4.79982E+01 3.72137E+01 0.00000E+00
 -1       608 5.22604E+01 3.56737E+01 0.00000E+00
 -1       609 5.43521E+01 3.43236E+01 0.00000E+00
 -1       610 5.75474E+01 3.11455E+01 0.00000E+00
 -1       611 5.79529E+01 2.90896E+01 0.00000E+00
 -1       612 5.36995E+01 1.60111E+01 0.00000E+00
 -1       613 7.61550E+00 6.21462E+00 0.00000E+00
 -1       614 7.79400E+00 3.67375E+01 0.00000E+00
 -1       615 3.48350E+01 2.43468E+01 0.00000E+00
 -1       616 1.41678E+02 4.22645E+01 0.00000E+00
 -1       617 1.03920E+01 2.05500E+01 0.00000E+00
 -1       618 1.03920E+01 2.35000E+01 0.00000E+00
 -1       619 1.03920E+01 1.46750E+01 0.00000E+00
 -1       620 1.03920E+01 1.17250E+01 0.00000E+00
 -1       621 5.42364E+01 3.64396E+01 0.00000E+00
 -1       622 1.15350E+01 9.20225E+00 0.00000E+00
 -1       623 1.51500E+01 3.96080E+01 0.00000E+00
 -1       624 1.81500E+01 3.96080E+01 0.00000E+00
 -1       625 2.11500E+01 3.96080E+01 0.00000E+00
 -1       626 2.41500E+01 3.96080E+01 0.00000E+00
 -1       627 2.71500E+01 3.96080E+01 0.00000E+00
 -1       628 3.01500E+01 3.96080E+01 0.00000E+00
 -1       629 3.31500E+01 3.96080E+01 0.00000E+00
 -1       630 3.61500E+01 3.96080E+01 0.00000E+00
 -1       631 3.91500E+01 3.96080E+01 0.00000E+00
 -1       632 4.21500E+01 3.96080E+01 0.00000E+00
 -1       633 4.81500E+01 3.98206E+01 0.00000E+00
 -1       634 5.11500E+01 3.98206E+01 0.00000E+00
 -1       635 5.41500E+01 3.98206E+01 0.00000E+00
 -1       636 5.71500E+01 3.98206E+01 0.00000E+00
 -1       637 6.01500E+01 3.98206E+01 0.00000E+00
 -1       638 6.31500E+01 3.98206E+01 0.00000E+00
 -1       639 6.61500E+01 3.98206E+01 0.00000E+00
 -1       640 6.91500E+01 3.98206E+01 0.00000E+00
 -1       641 7.21500E+01 3.98206E+01 0.00000E+00
 -1       642 7.51500E+01 3.98206E+01 0.00000E+00
 -1       643 7.81500E+01 3.98206E+01 0.00000E+00
 -1       644 8.11500E+01 3.98206E+01 0.00000E+00
 -1       645 8.41500E+01 3.98206E+01 0.00000E+00
 -1       646 8.71500E+01 3.98206E+01 0.00000E+00
 -1       647 9.01500E+01 3.98206E+01 0.00000E+00
 -1       648 9.31500E+01 3.98206E+01 0.00000E+00
 -1       649 9.61500E+01 3.98206E+01 0.00000E+00
 -1       650 9.91500E+01 3.98206E+01 0.00000E+00
 -1       651 1.02150E+02 3.98206E+01 0.00000E+00
 -1       652 1.05150E+02 3.98206E+01 0.00000E+00
 -1       653 1.08150E+02 3.98206E+01 0.00000E+00
 -1       654 1.11150E+02 3.98206E+01 0.00000E+00
 -1       655 1.14150E+02 3.98206E+01 0.00000E+00
 -1       656 1.17150E+02 3.98206E+01 0.00000E+00
 -1       657 1.20150E+02 3.98206E+01 0.00000E+00
 -1       658 1.23150E+02 3.98206E+01 0.00000E+00
 -1       659 1.26150E+02 3.98206E+01 0.00000E+00
 -1       660 1.29150E+02 3.98206E+01 0.00000E+00
 -1       661 1.32150E+02 3.98206E+01 0.00000E+00
 -1       662 1.35150E+02 3.98206E+01 0.00000E+00
 -1       663 1.38150E+02 3.98206E+01 0.00000E+00
 -1       664 2.35350E+01 9.20225E+00 0.00000E+00
 -1       665 1.39206E+02 1.03250E+01 0.00000E+00
 -1       666 2.05350E+01 9.20225E+00 0.00000E+00
 -1       667 2.95350E+01 9.20225E+00 0.00000E+00
 -1       668 3.25350E+01 9.20225E+00 0.00000E+00
 -1       669 3.55350E+01 9.20225E+00 0.00000E+00
 -1       670 3.85350E+01 9.20225E+00 0.00000E+00
 -1       671 4.15350E+01 9.20225E+00 0.00000E+00
 -1       672 4.45350E+01 9.20225E+00 0.00000E+00
 -1       673 4.75350E+01 9.20225E+00 0.00000E+00
 -1       674 5.05350E+01 9.20225E+00 0.00000E+00
 -1       675 5.35350E+01 9.20225E+00 0.00000E+00
 -1       676 5.65350E+01 9.20225E+00 0.00000E+00
 -1       677 5.95350E+01 9.20225E+00 0.00000E+00
 -1       678 6.25350E+01 9.20225E+00 0.00000E+00
 -1       679 6.55350E+01 9.20225E+00 0.00000E+00
 -1       680 6.85350E+01 9.20225E+00 0.00000E+00
 -1       681 7.15350E+01 9.20225E+00 0.00000E+00
 -1       682 7.45350E+01 9.20225E+00 0.00000E+00
 -1       683 7.75350E+01 9.20225E+00 0.00000E+00
 -1       684 8.05350E+01 9.20225E+00 0.00000E+00
 -1       685 8.35350E+01 9.20225E+00 0.00000E+00
 -1       686 8.65350E+01 9.20225E+00 0.00000E+00
 -1       687 8.95350E+01 9.20225E+00 0.00000E+00
 -1       688 9.25350E+01 9.20225E+00 0.00000E+00
 -1       689 9.55350E+01 9.20225E+00 0.00000E+00
 -1       690 9.85350E+01 9.20225E+00 0.00000E+00
 -1       691 1.01535E+02 9.20225E+00 0.00000E+00
 -1       692 1.04535E+02 9.20225E+00 0.00000E+00
 -1       693 1.07535E+02 9.20225E+00 0.00000E+00
 -1       694 1.10535E+02 9.20225E+00 0.00000E+00
 -1       695 1.13535E+02 9.20225E+00 0.00000E+00
 -1       696 1.16535E+02 9.20225E+00 0.00000E+00
 -1       697 1.19535E+02 9.20225E+00 0.00000E+00
 -1       698 1.22535E+02 9.20225E+00 0.00000E+00
 -1       699 1.25535E+02 9.20225E+00 0.00000E+00
 -1       700 1.28535E+02 9.20225E+00 0.00000E+00
 -1       701 1.31535E+02 9.20225E+00 0.00000E+00
 -1       702 1.34535E+02 9.20225E+00 0.00000E+00
 -1       703 1.36870E+02 9.76363E+00 0.00000E+00
 -1       704 1.39608E+02 2.35500E+01 0.00000E+00
 -1       705 1.40178E+02 3.97728E+01 0.00000E+00
 -1       706 1.39608E+02 1.76500E+01 0.00000E+00
 -1       707 1.39608E+02 2.65000E+01 0.00000E+00
 -1       708 1.39608E+02 2.06000E+01 0.00000E+00
 -1       709 5.59829E+01 1.57974E+01 0.00000E+00
 -1       710 1.39608E+02 2.94000E+01 0.00000E+00
 -1       711 1.39608E+02 3.23500E+01 0.00000E+00
 -1       712 1.39608E+02 3.53000E+01 0.00000E+00
 -1       713 1.39893E+02 3.75364E+01 0.00000E+00
 -1       714 4.16606E+01 3.80527E+01 0.00000E+00
 -1       715 3.93368E+01 3.64384E+01 0.00000E+00
 -1       716 5.97649E+01 2.28490E+01 0.00000E+00
 -1       717 5.88259E+01 1.99655E+01 0.00000E+00
 -1       718 9.78035E+00 3.93914E+01 0.00000E+00
 -1       719 3.52361E+01 2.95630E+01 0.00000E+00
 -1       720 3.49728E+01 2.14795E+01 0.00000E+00
 -1       721 4.26885E+01 1.34071E+01 0.00000E+00
 -1       722 1.75350E+01 9.20225E+00 0.00000E+00
 -1       723 2.65350E+01 9.20225E+00 0.00000E+00
 -1       724 1.24652E+01 3.94997E+01 0.00000E+00
 -1       725 3.71883E+01 3.41827E+01 0.00000E+00
 -1       726 5.75637E+01 1.79383E+01 0.00000E+00
 -1       727 5.30683E+01 1.35346E+01 0.00000E+00
 -1       728 5.06666E+01 1.30796E+01 0.00000E+00
 -1       729 1.03920E+01 1.76125E+01 0.00000E+00
 -1       730 1.03920E+01 3.23250E+01 0.00000E+00
 -1       731 4.51461E+01 1.29490E+01 0.00000E+00
 -1       732 3.76492E+01 1.63576E+01 0.00000E+00
 -1       733 6.04122E+01 2.57824E+01 0.00000E+00
 -1       734 3.59604E+01 3.15140E+01 0.00000E+00
 -1       735 4.02728E+01 1.44977E+01 0.00000E+00
 -1       736 3.57660E+01 1.89556E+01 0.00000E+00
 -1       737 3.47259E+01 2.72760E+01 0.00000E+00
 -1       738 4.66623E+01 3.89894E+01 0.00000E+00
 -1       739 4.41614E+01 3.85211E+01 0.00000E+00
 -1       740 1.45350E+01 9.20225E+00 0.00000E+00
 -1       741 4.80153E+01 1.31985E+01 0.00000E+00
 -1       742 5.22181E+01 3.77710E+01 0.00000E+00
 -1       743 5.62249E+01 3.52316E+01 0.00000E+00
 -1       744 5.81802E+01 3.35309E+01 0.00000E+00
 -1       745 1.03920E+01 3.52625E+01 0.00000E+00
 -1       746 1.03920E+01 2.64500E+01 0.00000E+00
 -1       747 1.39608E+02 1.47250E+01 0.00000E+00
 -1       748 5.96740E+01 2.83611E+01 0.00000E+00
 -1       749 4.51500E+01 3.96530E+01 0.00000E+00
 -1       750 3.37081E+01 2.26657E+01 0.00000E+00
 -1       751 4.98674E+01 3.88025E+01 0.00000E+00
 -1       752 5.53517E+01 1.33209E+01 0.00000E+00
 -1       753 1.03920E+01 2.93875E+01 0.00000E+00
 -1       754 3.34395E+01 2.56883E+01 0.00000E+00
 -1       755 6.00075E+01 3.17695E+01 0.00000E+00
 -1       756 5.98407E+01 3.00653E+01 0.00000E+00
 -1       757 1.29900E+01 1.32000E+01 0.00000E+00
 -1       758 4.92491E+01 1.10909E+01 0.00000E+00
 -1       759 3.67779E+01 3.67245E+01 0.00000E+00
 -1       760 1.96500E+01 3.70100E+01 0.00000E+00
 -1       761 2.26500E+01 3.70100E+01 0.00000E+00
 -1       762 2.56500E+01 3.70100E+01 0.00000E+00
 -1       763 2.86500E+01 3.70100E+01 0.00000E+00
 -1       764 3.16500E+01 3.70100E+01 0.00000E+00
 -1       765 5.85575E+01 1.55505E+01 0.00000E+00
 -1       766 5.86500E+01 3.72226E+01 0.00000E+00
 -1       767 6.16500E+01 3.72226E+01 0.00000E+00
 -1       768 6.46500E+01 3.72226E+01 0.00000E+00
 -1       769 6.76500E+01 3.72226E+01 0.00000E+00
 -1       770 7.06500E+01 3.72226E+01 0.00000E+00
 -1       771 7.36500E+01 3.72226E+01 0.00000E+00
 -1       772 7.66500E+01 3.72226E+01 0.00000E+00
 -1       773 7.96500E+01 3.72226E+01 0.00000E+00
 -1       774 8.26500E+01 3.72226E+01 0.00000E+00
 -1       775 8.56500E+01 3.72226E+01 0.00000E+00
 -1       776 8.86500E+01 3.72226E+01 0.00000E+00
 -1       777 9.16500E+01 3.72226E+01 0.00000E+00
 -1       778 9.46500E+01 3.72226E+01 0.00000E+00
 -1       779 9.76500E+01 3.72226E+01 0.00000E+00
 -1       780 1.00650E+02 3.72226E+01 0.00000E+00
 -1       781 1.03650E+02 3.72226E+01 0.00000E+00
 -1       782 1.06650E+02 3.72226E+01 0.00000E+00
 -1       783 1.09650E+02 3.72226E+01 0.00000E+00
 -1       784 1.12650E+02 3.72226E+01 0.00000E+00
 -1       785 1.15650E+02 3.72226E+01 0.00000E+00
 -1       786 1.18650E+02 3.72226E+01 0.00000E+00
 -1       787 1.21650E+02 3.72226E+01 0.00000E+00
 -1       788 1.24650E+02 3.72226E+01 0.00000E+00
 -1       789 1.27650E+02 3.72226E+01 0.00000E+00
 -1       790 1.30650E+02 3.72226E+01 0.00000E+00
 -1       791 1.33650E+02 3.72226E+01 0.00000E+00
 -1       792 1.36650E+02 3.72226E+01 0.00000E+00
 -1       793 2.20350E+01 1.18003E+01 0.00000E+00
 -1       794 3.40350E+01 1.18003E+01 0.00000E+00
 -1       795 3.10350E+01 1.18003E+01 0.00000E+00
 -1       796 4.00350E+01 1.15876E+01 0.00000E+00
 -1       797 5.20350E+01 1.15876E+01 0.00000E+00
 -1       798 6.10350E+01 1.18003E+01 0.00000E+00
 -1       799 6.40350E+01 1.18003E+01 0.00000E+00
 -1       800 6.70350E+01 1.18003E+01 0.00000E+00
 -1       801 7.00350E+01 1.18003E+01 0.00000E+00
 -1       802 7.30350E+01 1.18003E+01 0.00000E+00
 -1       803 7.60350E+01 1.18003E+01 0.00000E+00
 -1       804 7.90350E+01 1.18003E+01 0.00000E+00
 -1       805 8.20350E+01 1.18003E+01 0.00000E+00
 -1       806 8.50350E+01 1.18003E+01 0.00000E+00
 -1       807 8.80350E+01 1.18003E+01 0.00000E+00
 -1       808 9.10350E+01 1.18003E+01 0.00000E+00
 -1       809 9.40350E+01 1.18003E+01 0.00000E+00
 -1       810 9.70350E+01 1.18003E+01 0.00000E+00
 -1       811 1.00035E+02 1.18003E+01 0.00000E+00
 -1       812 1.03035E+02 1.18003E+01 0.00000E+00
 -1       813 1.06035E+02 1.18003E+01 0.00000E+00
 -1       814 1.09035E+02 1.18003E+01 0.00000E+00
 -1       815 1.12035E+02 1.18003E+01 0.00000E+00
 -1       816 1.15035E+02 1.18003E+01 0.00000E+00
 -1       817 1.18035E+02 1.18003E+01 0.00000E+00
 -1       818 1.21035E+02 1.18003E+01 0.00000E+00
 -1       819 1.24035E+02 1.18003E+01 0.00000E+00
 -1       820 1.27035E+02 1.18003E+01 0.00000E+00
 -1       821 1.30035E+02 1.18003E+01 0.00000E+00
 -1       822 1.33035E+02 1.18003E+01 0.00000E+00
 -1       823 1.29900E+01 2.20250E+01 0.00000E+00
 -1       824 1.37010E+02 3.08750E+01 0.00000E+00
 -1       825 1.37010E+02 2.50250E+01 0.00000E+00
 -1       826 6.06331E+01 3.42470E+01 0.00000E+00
 -1       827 1.37010E+02 3.38250E+01 0.00000E+00
 -1       828 1.37010E+02 2.79500E+01 0.00000E+00
 -1       829 5.95424E+01 2.08292E+01 0.00000E+00
 -1       830 1.90350E+01 1.18003E+01 0.00000E+00
 -1       831 3.50476E+01 1.64533E+01 0.00000E+00
 -1       832 3.47118E+01 3.37053E+01 0.00000E+00
 -1       833 6.18531E+01 2.75899E+01 0.00000E+00
 -1       834 3.70350E+01 1.18003E+01 0.00000E+00
 -1       835 1.37625E+01 1.12011E+01 0.00000E+00
 -1       836 6.24179E+01 2.38017E+01 0.00000E+00
 -1       837 5.98197E+01 1.75777E+01 0.00000E+00
 -1       838 3.34135E+01 1.96029E+01 0.00000E+00
 -1       839 1.66500E+01 3.70100E+01 0.00000E+00
 -1       840 3.39875E+01 3.17543E+01 0.00000E+00
 -1       841 3.31435E+01 2.88295E+01 0.00000E+00
 -1       842 5.63821E+01 3.77311E+01 0.00000E+00
 -1       843 5.85076E+01 3.59890E+01 0.00000E+00
 -1       844 6.21954E+01 2.17819E+01 0.00000E+00
 -1       845 1.29900E+01 2.49750E+01 0.00000E+00
 -1       846 1.37010E+02 1.61875E+01 0.00000E+00
 -1       847 3.23126E+01 2.40071E+01 0.00000E+00
 -1       848 1.29900E+01 1.61375E+01 0.00000E+00
 -1       849 3.39309E+01 3.66567E+01 0.00000E+00
 -1       850 1.39652E+01 3.69017E+01 0.00000E+00
 -1       851 6.06331E+01 1.91953E+01 0.00000E+00
 -1       852 2.50350E+01 1.18003E+01 0.00000E+00
 -1       853 6.26331E+01 3.24242E+01 0.00000E+00
 -1       854 2.80350E+01 1.18003E+01 0.00000E+00
 -1       855 5.80350E+01 1.18003E+01 0.00000E+00
 -1       856 1.35370E+02 1.23616E+01 0.00000E+00
 -1       857 1.37010E+02 1.91375E+01 0.00000E+00
 -1       858 1.29900E+01 1.90875E+01 0.00000E+00
 -1       859 1.37010E+02 2.20812E+01 0.00000E+00
 -1       860 6.38588E+01 2.56092E+01 0.00000E+00
 -1       861 1.63988E+01 1.15007E+01 0.00000E+00
 -1       862 6.24663E+01 3.07200E+01 0.00000E+00
 -1       863 1.29900E+01 3.37938E+01 0.00000E+00
 -1       864 1.36940E+02 1.29756E+01 0.00000E+00
 -1       865 3.21488E+01 2.07890E+01 0.00000E+00
 -1       866 5.82962E+01 1.36754E+01 0.00000E+00
 -1       867 1.29900E+01 3.08563E+01 0.00000E+00
 -1       868 3.45413E+01 1.41268E+01 0.00000E+00
 -1       869 3.18571E+01 2.72417E+01 0.00000E+00
 -1       870 6.21597E+01 2.91550E+01 0.00000E+00
 -1       871 3.14347E+01 3.09068E+01 0.00000E+00
 -1       872 2.41500E+01 3.44120E+01 0.00000E+00
 -1       873 2.71500E+01 3.44120E+01 0.00000E+00
 -1       874 3.01500E+01 3.44120E+01 0.00000E+00
 -1       875 6.23575E+01 1.73149E+01 0.00000E+00
 -1       876 6.31500E+01 3.46246E+01 0.00000E+00
 -1       877 6.61500E+01 3.46246E+01 0.00000E+00
 -1       878 6.91500E+01 3.46246E+01 0.00000E+00
 -1       879 7.21500E+01 3.46246E+01 0.00000E+00
 -1       880 7.51500E+01 3.46246E+01 0.00000E+00
 -1       881 7.81500E+01 3.46246E+01 0.00000E+00
 -1       882 8.11500E+01 3.46246E+01 0.00000E+00
 -1       883 8.41500E+01 3.46246E+01 0.00000E+00
 -1       884 8.71500E+01 3.46246E+01 0.00000E+00
 -1       885 9.01500E+01 3.46246E+01 0.00000E+00
 -1       886 9.31500E+01 3.46246E+01 0.00000E+00
 -1       887 9.61500E+01 3.46246E+01 0.00000E+00
 -1       888 9.91500E+01 3.46246E+01 0.00000E+00
 -1       889 1.02150E+02 3.46246E+01 0.00000E+00
 -1       890 1.05150E+02 3.46246E+01 0.00000E+00
 -1       891 1.08150E+02 3.46246E+01 0.00000E+00
 -1       892 1.11150E+02 3.46246E+01 0.00000E+00
 -1       893 1.14150E+02 3.46246E+01 0.00000E+00
 -1       894 1.17150E+02 3.46246E+01 0.00000E+00
 -1       895 1.20150E+02 3.46246E+01 0.00000E+00
 -1       896 1.23150E+02 3.46246E+01 0.00000E+00
 -1       897 1.26150E+02 3.46246E+01 0.00000E+00
 -1       898 1.29150E+02 3.46246E+01 0.00000E+00
 -1       899 1.32150E+02 3.46246E+01 0.00000E+00
 -1       900 1.34580E+02 3.42248E+01 0.00000E+00
 -1       901 6.45111E+01 2.25489E+01 0.00000E+00
 -1       902 6.25350E+01 1.43982E+01 0.00000E+00
 -1       903 7.15350E+01 1.43982E+01 0.00000E+00
 -1       904 7.45350E+01 1.43982E+01 0.00000E+00
 -1       905 7.75350E+01 1.43982E+01 0.00000E+00
 -1       906 8.05350E+01 1.43982E+01 0.00000E+00
 -1       907 8.35350E+01 1.43982E+01 0.00000E+00
 -1       908 8.65350E+01 1.43982E+01 0.00000E+00
 -1       909 8.95350E+01 1.43982E+01 0.00000E+00
 -1       910 9.25350E+01 1.43982E+01 0.00000E+00
 -1       911 9.55350E+01 1.43982E+01 0.00000E+00
 -1       912 9.85350E+01 1.43982E+01 0.00000E+00
 -1       913 1.01535E+02 1.43982E+01 0.00000E+00
 -1       914 1.04535E+02 1.43982E+01 0.00000E+00
 -1       915 1.07535E+02 1.43982E+01 0.00000E+00
 -1       916 1.10535E+02 1.43982E+01 0.00000E+00
 -1       917 1.13535E+02 1.43982E+01 0.00000E+00
 -1       918 1.16535E+02 1.43982E+01 0.00000E+00
 -1       919 1.19535E+02 1.43982E+01 0.00000E+00
 -1       920 1.22535E+02 1.43982E+01 0.00000E+00
 -1       921 1.25535E+02 1.43982E+01 0.00000E+00
 -1       922 1.28535E+02 1.43982E+01 0.00000E+00
 -1       923 1.31535E+02 1.43982E+01 0.00000E+00
 -1       924 1.34580E+02 3.12748E+01 0.00000E+00
 -1       925 2.05350E+01 1.43982E+01 0.00000E+00
 -1       926 6.85350E+01 1.43982E+01 0.00000E+00
 -1       927 6.55350E+01 1.43982E+01 0.00000E+00
 -1       928 3.22619E+01 1.70067E+01 0.00000E+00
 -1       929 3.15413E+01 1.41268E+01 0.00000E+00
 -1       930 1.29900E+01 2.79188E+01 0.00000E+00
 -1       931 3.24309E+01 3.40587E+01 0.00000E+00
 -1       932 1.81500E+01 3.44120E+01 0.00000E+00
 -1       933 2.11500E+01 3.44120E+01 0.00000E+00
 -1       934 6.39198E+01 1.99015E+01 0.00000E+00
 -1       935 1.55880E+01 2.05562E+01 0.00000E+00
 -1       936 3.07303E+01 2.55606E+01 0.00000E+00
 -1       937 1.55880E+01 1.46687E+01 0.00000E+00
 -1       938 1.34580E+02 2.83498E+01 0.00000E+00
 -1       939 2.35350E+01 1.43982E+01 0.00000E+00
 -1       940 2.85413E+01 1.41268E+01 0.00000E+00
 -1       941 1.55880E+01 2.35063E+01 0.00000E+00
 -1       942 1.33870E+02 1.49596E+01 0.00000E+00
 -1       943 1.55700E+01 3.41029E+01 0.00000E+00
 -1       944 1.34580E+02 2.54248E+01 0.00000E+00
 -1       945 1.34412E+02 1.76625E+01 0.00000E+00
 -1       946 3.07533E+01 2.21305E+01 0.00000E+00
 -1       947 6.42965E+01 2.80584E+01 0.00000E+00
 -1       948 1.55700E+01 3.11654E+01 0.00000E+00
 -1       949 1.34580E+02 2.24811E+01 0.00000E+00
 -1       950 1.78988E+01 1.40987E+01 0.00000E+00
 -1       951 3.01483E+01 2.93191E+01 0.00000E+00
 -1       952 6.49238E+01 3.13398E+01 0.00000E+00
 -1       953 3.09972E+01 1.81928E+01 0.00000E+00
 -1       954 6.55369E+01 3.29822E+01 0.00000E+00
 -1       955 1.96500E+01 3.18140E+01 0.00000E+00
 -1       956 6.63800E+01 2.07417E+01 0.00000E+00
 -1       957 1.55880E+01 2.64500E+01 0.00000E+00
 -1       958 2.86500E+01 3.18140E+01 0.00000E+00
 -1       959 6.85369E+01 3.29822E+01 0.00000E+00
 -1       960 7.15369E+01 3.29822E+01 0.00000E+00
 -1       961 7.45369E+01 3.29822E+01 0.00000E+00
 -1       962 7.75369E+01 3.29822E+01 0.00000E+00
 -1       963 8.05369E+01 3.29822E+01 0.00000E+00
 -1       964 8.35369E+01 3.29822E+01 0.00000E+00
 -1       965 8.65369E+01 3.29822E+01 0.00000E+00
 -1       966 8.95369E+01 3.29822E+01 0.00000E+00
 -1       967 9.25369E+01 3.29822E+01 0.00000E+00
 -1       968 9.55369E+01 3.29822E+01 0.00000E+00
 -1       969 9.85369E+01 3.29822E+01 0.00000E+00
 -1       970 1.01537E+02 3.29822E+01 0.00000E+00
 -1       971 1.04537E+02 3.29822E+01 0.00000E+00
 -1       972 1.07537E+02 3.29822E+01 0.00000E+00
 -1       973 1.10537E+02 3.29822E+01 0.00000E+00
 -1       974 1.13537E+02 3.29822E+01 0.00000E+00
 -1       975 1.16537E+02 3.29822E+01 0.00000E+00
 -1       976 1.19537E+02 3.29822E+01 0.00000E+00
 -1       977 1.22537E+02 3.29822E+01 0.00000E+00
 -1       978 1.25537E+02 3.29822E+01 0.00000E+00
 -1       979 1.28537E+02 3.29822E+01 0.00000E+00
 -1       980 1.31537E+02 3.29822E+01 0.00000E+00
 -1       981 1.34496E+02 2.00718E+01 0.00000E+00
 -1       982 7.60350E+01 1.69963E+01 0.00000E+00
 -1       983 7.30350E+01 1.69963E+01 0.00000E+00
 -1       984 8.20350E+01 1.69963E+01 0.00000E+00
 -1       985 8.50350E+01 1.69963E+01 0.00000E+00
 -1       986 8.80350E+01 1.69963E+01 0.00000E+00
 -1       987 9.10350E+01 1.69963E+01 0.00000E+00
 -1       988 9.40350E+01 1.69963E+01 0.00000E+00
 -1       989 9.70350E+01 1.69963E+01 0.00000E+00
 -1       990 1.00035E+02 1.69963E+01 0.00000E+00
 -1       991 1.03035E+02 1.69963E+01 0.00000E+00
 -1       992 1.06035E+02 1.69963E+01 0.00000E+00
 -1       993 1.09035E+02 1.69963E+01 0.00000E+00
 -1       994 1.12035E+02 1.69963E+01 0.00000E+00
 -1       995 1.15035E+02 1.69963E+01 0.00000E+00
 -1       996 1.18035E+02 1.69963E+01 0.00000E+00
 -1       997 1.21035E+02 1.69963E+01 0.00000E+00
 -1       998 1.24035E+02 1.69963E+01 0.00000E+00
 -1       999 1.27035E+02 1.69963E+01 0.00000E+00
 -1      1000 1.30035E+02 1.69963E+01 0.00000E+00
 -1      1001 1.55880E+01 1.76125E+01 0.00000E+00
 -1      1002 6.62609E+01 2.64436E+01 0.00000E+00
 -1      1003 6.69132E+01 2.33833E+01 0.00000E+00
 -1      1004 6.46032E+01 2.96234E+01 0.00000E+00
 -1      1005 7.00350E+01 1.69963E+01 0.00000E+00
 -1      1006 7.90350E+01 1.69963E+01 0.00000E+00
 -1      1007 2.60382E+01 1.42625E+01 0.00000E+00
 -1      1008 1.76100E+01 3.14897E+01 0.00000E+00
 -1      1009 1.32223E+02 1.73294E+01 0.00000E+00
 -1      1010 2.26500E+01 3.18140E+01 0.00000E+00
 -1      1011 6.47274E+01 1.71499E+01 0.00000E+00
 -1      1012 1.55790E+01 2.88077E+01 0.00000E+00
 -1      1013 2.56500E+01 3.18140E+01 0.00000E+00
 -1      1014 2.97693E+01 1.61598E+01 0.00000E+00
 -1      1015 2.90214E+01 2.76379E+01 0.00000E+00
 -1      1016 1.81860E+01 2.20313E+01 0.00000E+00
 -1      1017 1.31982E+02 2.98123E+01 0.00000E+00
 -1      1018 2.96018E+01 1.95343E+01 0.00000E+00
 -1      1019 1.78988E+01 1.70424E+01 0.00000E+00
 -1      1020 2.91709E+01 2.36839E+01 0.00000E+00
 -1      1021 1.32307E+02 1.97387E+01 0.00000E+00
 -1      1022 6.65675E+01 2.80086E+01 0.00000E+00
 -1      1023 1.31982E+02 2.39529E+01 0.00000E+00
 -1      1024 6.73812E+01 1.70731E+01 0.00000E+00
 -1      1025 1.80424E+01 1.95368E+01 0.00000E+00
 -1      1026 6.79238E+01 3.13398E+01 0.00000E+00
 -1      1027 6.68806E+01 1.89074E+01 0.00000E+00
 -1      1028 2.20350E+01 1.69963E+01 0.00000E+00
 -1      1029 6.72456E+01 2.96742E+01 0.00000E+00
 -1      1030 1.31982E+02 2.68873E+01 0.00000E+00
 -1      1031 1.29384E+02 2.83498E+01 0.00000E+00
 -1      1032 7.09238E+01 3.13398E+01 0.00000E+00
 -1      1033 7.39238E+01 3.13398E+01 0.00000E+00
 -1      1034 7.69238E+01 3.13398E+01 0.00000E+00
 -1      1035 7.99238E+01 3.13398E+01 0.00000E+00
 -1      1036 8.29238E+01 3.13398E+01 0.00000E+00
 -1      1037 8.59238E+01 3.13398E+01 0.00000E+00
 -1      1038 8.89238E+01 3.13398E+01 0.00000E+00
 -1      1039 9.19238E+01 3.13398E+01 0.00000E+00
 -1      1040 9.49238E+01 3.13398E+01 0.00000E+00
 -1      1041 9.79238E+01 3.13398E+01 0.00000E+00
 -1      1042 1.00924E+02 3.13398E+01 0.00000E+00
 -1      1043 1.03924E+02 3.13398E+01 0.00000E+00
 -1      1044 1.06924E+02 3.13398E+01 0.00000E+00
 -1      1045 1.09924E+02 3.13398E+01 0.00000E+00
 -1      1046 1.12924E+02 3.13398E+01 0.00000E+00
 -1      1047 1.15924E+02 3.13398E+01 0.00000E+00
 -1      1048 1.18924E+02 3.13398E+01 0.00000E+00
 -1      1049 1.21924E+02 3.13398E+01 0.00000E+00
 -1      1050 1.24924E+02 3.13398E+01 0.00000E+00
 -1      1051 1.27924E+02 3.13398E+01 0.00000E+00
 -1      1052 8.95350E+01 1.95942E+01 0.00000E+00
 -1      1053 1.32145E+02 2.18458E+01 0.00000E+00
 -1      1054 7.45350E+01 1.95942E+01 0.00000E+00
 -1      1055 2.73357E+01 2.97260E+01 0.00000E+00
 -1      1056 1.81860E+01 2.49750E+01 0.00000E+00
 -1      1057 8.65350E+01 1.95942E+01 0.00000E+00
 -1      1058 8.35350E+01 1.95942E+01 0.00000E+00
 -1      1059 9.25350E+01 1.95942E+01 0.00000E+00
 -1      1060 9.55350E+01 1.95942E+01 0.00000E+00
 -1      1061 9.85350E+01 1.95942E+01 0.00000E+00
 -1      1062 1.01535E+02 1.95942E+01 0.00000E+00
 -1      1063 1.04535E+02 1.95942E+01 0.00000E+00
 -1      1064 1.07535E+02 1.95942E+01 0.00000E+00
 -1      1065 1.10535E+02 1.95942E+01 0.00000E+00
 -1      1066 1.13535E+02 1.95942E+01 0.00000E+00
 -1      1067 1.16535E+02 1.95942E+01 0.00000E+00
 -1      1068 1.19535E+02 1.95942E+01 0.00000E+00
 -1      1069 1.22535E+02 1.95942E+01 0.00000E+00
 -1      1070 1.25535E+02 1.95942E+01 0.00000E+00
 -1      1071 1.28535E+02 1.95942E+01 0.00000E+00
 -1      1072 2.11500E+01 2.92160E+01 0.00000E+00
 -1      1073 6.90839E+01 2.54457E+01 0.00000E+00
 -1      1074 1.30421E+02 1.96665E+01 0.00000E+00
 -1      1075 1.29384E+02 2.54154E+01 0.00000E+00
 -1      1076 7.15350E+01 1.95942E+01 0.00000E+00
 -1      1077 8.05350E+01 1.95942E+01 0.00000E+00
 -1      1078 7.75350E+01 1.95942E+01 0.00000E+00
 -1      1079 2.45382E+01 1.68605E+01 0.00000E+00
 -1      1080 6.89848E+01 2.15905E+01 0.00000E+00
 -1      1081 1.81770E+01 2.73327E+01 0.00000E+00
 -1      1082 2.83738E+01 1.75013E+01 0.00000E+00
 -1      1083 2.07840E+01 2.35031E+01 0.00000E+00
 -1      1084 2.80194E+01 2.10877E+01 0.00000E+00
 -1      1085 2.41500E+01 2.92160E+01 0.00000E+00
 -1      1086 1.29547E+02 2.33083E+01 0.00000E+00
 -1      1087 2.74621E+01 2.57613E+01 0.00000E+00
 -1      1088 2.34272E+01 1.95226E+01 0.00000E+00
 -1      1089 6.81648E+01 2.75599E+01 0.00000E+00
 -1      1090 7.02456E+01 2.96742E+01 0.00000E+00
 -1      1091 6.92078E+01 1.92508E+01 0.00000E+00
 -1      1092 2.72060E+01 1.58819E+01 0.00000E+00
 -1      1093 2.06404E+01 2.10087E+01 0.00000E+00
 -1      1094 7.60350E+01 2.21922E+01 0.00000E+00
 -1      1095 7.32456E+01 2.96742E+01 0.00000E+00
 -1      1096 7.62456E+01 2.96742E+01 0.00000E+00
 -1      1097 7.92456E+01 2.96742E+01 0.00000E+00
 -1      1098 8.22456E+01 2.96742E+01 0.00000E+00
 -1      1099 8.52456E+01 2.96742E+01 0.00000E+00
 -1      1100 8.82456E+01 2.96742E+01 0.00000E+00
 -1      1101 9.12456E+01 2.96742E+01 0.00000E+00
 -1      1102 9.42456E+01 2.96742E+01 0.00000E+00
 -1      1103 9.72456E+01 2.96742E+01 0.00000E+00
 -1      1104 1.00246E+02 2.96742E+01 0.00000E+00
 -1      1105 1.03246E+02 2.96742E+01 0.00000E+00
 -1      1106 1.06246E+02 2.96742E+01 0.00000E+00
 -1      1107 1.09246E+02 2.96742E+01 0.00000E+00
 -1      1108 1.12246E+02 2.96742E+01 0.00000E+00
 -1      1109 1.15246E+02 2.96742E+01 0.00000E+00
 -1      1110 1.18246E+02 2.96742E+01 0.00000E+00
 -1      1111 1.21246E+02 2.96742E+01 0.00000E+00
 -1      1112 1.24246E+02 2.96742E+01 0.00000E+00
 -1      1113 1.26815E+02 2.90120E+01 0.00000E+00
 -1      1114 9.40350E+01 2.21922E+01 0.00000E+00
 -1      1115 8.80350E+01 2.21922E+01 0.00000E+00
 -1      1116 8.50350E+01 2.21922E+01 0.00000E+00
 -1      1117 9.70350E+01 2.21922E+01 0.00000E+00
 -1      1118 1.00035E+02 2.21922E+01 0.00000E+00
 -1      1119 1.03035E+02 2.21922E+01 0.00000E+00
 -1      1120 1.06035E+02 2.21922E+01 0.00000E+00
 -1      1121 1.09035E+02 2.21922E+01 0.00000E+00
 -1      1122 1.12035E+02 2.21922E+01 0.00000E+00
 -1      1123 1.15035E+02 2.21922E+01 0.00000E+00
 -1      1124 1.18035E+02 2.21922E+01 0.00000E+00
 -1      1125 1.21035E+02 2.21922E+01 0.00000E+00
 -1      1126 1.24035E+02 2.21922E+01 0.00000E+00
 -1      1127 1.27035E+02 2.21922E+01 0.00000E+00
 -1      1128 1.26815E+02 2.60776E+01 0.00000E+00
 -1      1129 2.11590E+01 2.68583E+01 0.00000E+00
 -1      1130 2.63803E+01 1.91921E+01 0.00000E+00
 -1      1131 9.10350E+01 2.21922E+01 0.00000E+00
 -1      1132 7.30350E+01 2.21922E+01 0.00000E+00
 -1      1133 8.20350E+01 2.21922E+01 0.00000E+00
 -1      1134 2.35709E+01 2.20170E+01 0.00000E+00
 -1      1135 7.90350E+01 2.21922E+01 0.00000E+00
 -1      1136 7.16315E+01 2.34513E+01 0.00000E+00
 -1      1137 2.63105E+01 2.31651E+01 0.00000E+00
 -1      1138 2.58060E+01 2.74886E+01 0.00000E+00
 -1      1139 7.19592E+01 2.64942E+01 0.00000E+00
 -1      1140 2.38604E+01 2.56165E+01 0.00000E+00
 -1      1141 7.47456E+01 2.70762E+01 0.00000E+00
 -1      1142 7.77456E+01 2.70762E+01 0.00000E+00
 -1      1143 8.07456E+01 2.70762E+01 0.00000E+00
 -1      1144 8.37456E+01 2.70762E+01 0.00000E+00
 -1      1145 8.67456E+01 2.70762E+01 0.00000E+00
 -1      1146 8.97456E+01 2.70762E+01 0.00000E+00
 -1      1147 9.27456E+01 2.70762E+01 0.00000E+00
 -1      1148 9.57456E+01 2.70762E+01 0.00000E+00
 -1      1149 9.87456E+01 2.70762E+01 0.00000E+00
 -1      1150 1.01746E+02 2.70762E+01 0.00000E+00
 -1      1151 1.04746E+02 2.70762E+01 0.00000E+00
 -1      1152 1.07746E+02 2.70762E+01 0.00000E+00
 -1      1153 1.10746E+02 2.70762E+01 0.00000E+00
 -1      1154 1.13746E+02 2.70762E+01 0.00000E+00
 -1      1155 1.16746E+02 2.70762E+01 0.00000E+00
 -1      1156 1.19746E+02 2.70762E+01 0.00000E+00
 -1      1157 1.22746E+02 2.70762E+01 0.00000E+00
 -1      1158 1.24780E+02 2.65769E+01 0.00000E+00
 -1      1159 8.65350E+01 2.47903E+01 0.00000E+00
 -1      1160 1.01535E+02 2.47903E+01 0.00000E+00
 -1      1161 0.00000E+00 4.85250E+01 0.00000E+00
 -1      1162 0.00000E+00 4.55750E+01 0.00000E+00
 -1      1163 0.00000E+00 4.26250E+01 0.00000E+00
 -1      1164 0.00000E+00 3.96750E+01 0.00000E+00
 -1      1165 0.00000E+00 3.67250E+01 0.00000E+00
 -1      1166 0.00000E+00 3.38000E+01 0.00000E+00
 -1      1167 0.00000E+00 3.08750E+01 0.00000E+00
 -1      1168 0.00000E+00 2.79250E+01 0.00000E+00
 -1      1169 0.00000E+00 2.49750E+01 0.00000E+00
 -1      1170 0.00000E+00 2.20250E+01 0.00000E+00
 -1      1171 0.00000E+00 1.90750E+01 0.00000E+00
 -1      1172 0.00000E+00 1.61500E+01 0.00000E+00
 -1      1173 0.00000E+00 1.32250E+01 0.00000E+00
 -1      1174 0.00000E+00 1.02750E+01 0.00000E+00
 -1      1175 0.00000E+00 7.32500E+00 0.00000E+00
 -1      1176 0.00000E+00 4.37500E+00 0.00000E+00
 -1      1177 0.00000E+00 1.45000E+00 0.00000E+00
 -1      1178 1.57500E+00 5.00000E+01 0.00000E+00
 -1      1179 4.65000E+00 5.00000E+01 0.00000E+00
 -1      1180 7.65000E+00 5.00000E+01 0.00000E+00
 -1      1181 1.06500E+01 5.00000E+01 0.00000E+00
 -1      1182 1.36500E+01 5.00000E+01 0.00000E+00
 -1      1183 1.66500E+01 5.00000E+01 0.00000E+00
 -1      1184 1.96500E+01 5.00000E+01 0.00000E+00
 -1      1185 2.26500E+01 5.00000E+01 0.00000E+00
 -1      1186 2.56500E+01 5.00000E+01 0.00000E+00
 -1      1187 2.86500E+01 5.00000E+01 0.00000E+00
 -1      1188 3.16500E+01 5.00000E+01 0.00000E+00
 -1      1189 3.46500E+01 5.00000E+01 0.00000E+00
 -1      1190 3.76500E+01 5.00000E+01 0.00000E+00
 -1      1191 4.06500E+01 5.00000E+01 0.00000E+00
 -1      1192 4.36500E+01 5.00000E+01 0.00000E+00
 -1      1193 4.66500E+01 5.00000E+01 0.00000E+00
 -1      1194 4.96500E+01 5.00000E+01 0.00000E+00
 -1      1195 5.26500E+01 5.00000E+01 0.00000E+00
 -1      1196 5.56500E+01 5.00000E+01 0.00000E+00
 -1      1197 5.86500E+01 5.00000E+01 0.00000E+00
 -1      1198 6.16500E+01 5.00000E+01 0.00000E+00
 -1      1199 6.46500E+01 5.00000E+01 0.00000E+00
 -1      1200 6.76500E+01 5.00000E+01 0.00000E+00
 -1      1201 7.06500E+01 5.00000E+01 0.00000E+00
 -1      1202 7.36500E+01 5.00000E+01 0.00000E+00
 -1      1203 7.66500E+01 5.00000E+01 0.00000E+00
 -1      1204 7.96500E+01 5.00000E+01 0.00000E+00
 -1      1205 8.26500E+01 5.00000E+01 0.00000E+00
 -1      1206 8.56500E+01 5.00000E+01 0.00000E+00
 -1      1207 8.86500E+01 5.00000E+01 0.00000E+00
 -1      1208 9.16500E+01 5.00000E+01 0.00000E+00
 -1      1209 9.46500E+01 5.00000E+01 0.00000E+00
 -1      1210 9.76500E+01 5.00000E+01 0.00000E+00
 -1      1211 1.00650E+02 5.00000E+01 0.00000E+00
 -1      1212 1.03650E+02 5.00000E+01 0.00000E+00
 -1      1213 1.06650E+02 5.00000E+01 0.00000E+00
 -1      1214 1.09650E+02 5.00000E+01 0.00000E+00
 -1      1215 1.12650E+02 5.00000E+01 0.00000E+00
 -1      1216 1.15650E+02 5.00000E+01 0.00000E+00
 -1      1217 1.18650E+02 5.00000E+01 0.00000E+00
 -1      1218 1.21650E+02 5.00000E+01 0.00000E+00
 -1      1219 1.24650E+02 5.00000E+01 0.00000E+00
 -1      1220 1.27650E+02 5.00000E+01 0.00000E+00
 -1      1221 1.30650E+02 5.00000E+01 0.00000E+00
 -1      1222 1.33650E+02 5.00000E+01 0.00000E+00
 -1      1223 1.36650E+02 5.00000E+01 0.00000E+00
 -1      1224 1.39650E+02 5.00000E+01 0.00000E+00
 -1      1225 1.42650E+02 5.00000E+01 0.00000E+00
 -1      1226 1.45650E+02 5.00000E+01 0.00000E+00
 -1      1227 1.48575E+02 5.00000E+01 0.00000E+00
 -1      1228 1.57500E+00 0.00000E+00 0.00000E+00
 -1      1229 4.65000E+00 0.00000E+00 0.00000E+00
 -1      1230 7.65000E+00 0.00000E+00 0.00000E+00
 -1      1231 1.06500E+01 0.00000E+00 0.00000E+00
 -1      1232 1.36500E+01 0.00000E+00 0.00000E+00
 -1      1233 1.66500E+01 0.00000E+00 0.00000E+00
 -1      1234 1.96500E+01 0.00000E+00 0.00000E+00
 -1      1235 2.26500E+01 0.00000E+00 0.00000E+00
 -1      1236 2.56500E+01 0.00000E+00 0.00000E+00
 -1      1237 2.86500E+01 0.00000E+00 0.00000E+00
 -1      1238 3.16500E+01 0.00000E+00 0.00000E+00
 -1      1239 3.46500E+01 0.00000E+00 0.00000E+00
 -1      1240 3.76500E+01 0.00000E+00 0.00000E+00
 -1      1241 4.06500E+01 0.00000E+00 0.00000E+00
 -1      1242 4.36500E+01 0.00000E+00 0.00000E+00
 -1      1243 4.66500E+01 0.00000E+00 0.00000E+00
 -1      1244 4.96500E+01 0.00000E+00 0.00000E+00
 -1      1245 5.26500E+01 0.00000E+00 0.00000E+00
 -1      1246 5.56500E+01 0.00000E+00 0.00000E+00
 -1      1247 5.86500E+01 0.00000E+00 0.00000E+00
 -1      1248 6.16500E+01 0.00000E+00 0.00000E+00
 -1      1249 6.46500E+01 0.00000E+00 0.00000E+00
 -1      1250 6.76500E+01 0.00000E+00 0.00000E+00
 -1      1251 7.06500E+01 0.00000E+00 0.00000E+00
 -1      1252 7.36500E+01 0.00000E+00 0.00000E+00
 -1      1253 7.66500E+01 0.00000E+00 0.00000E+00
 -1      1254 7.96500E+01 0.00000E+00 0.00000E+00
 -1      1255 8.26500E+01 0.00000E+00 0.00000E+00
 -1      1256 8.56500E+01 0.00000E+00 0.00000E+00
 -1      1257 8.86500E+01 0.00000E+00 0.00000E+00
 -1      1258 9.16500E+01 0.00000E+00 0.00000E+00
 -1      1259 9.46500E+01 0.00000E+00 0.00000E+00
 -1      1260 9.76500E+01 0.00000E+00 0.00000E+00
 -1      1261 1.00650E+02 0.00000E+00 0.00000E+00
 -1      1262 1.03650E+02 0.00000E+00 0.00000E+00
 -1      1263 1.06650E+02 0.00000E+00 0.00000E+00
 -1      1264 1.09650E+02 0.00000E+00 0.00000E+00
 -1      1265 1.12650E+02 0.00000E+00 0.00000E+00
 -1      1266 1.15650E+02 0.00000E+00 0.00000E+00
 -1      1267 1.18650E+02 0.00000E+00 0.00000E+00
 -1      1268 1.21650E+02 0.00000E+00 0.00000E+00
 -1      1269 1.24650E+02 0.00000E+00 0.00000E+00
 -1      1270 1.27650E+02 0.00000E+00 0.00000E+00
 -1      1271 1.30650E+02 0.00000E+00 0.00000E+00
 -1      1272 1.33650E+02 0.00000E+00 0.00000E+00
 -1      1273 1.36650E+02 0.00000E+00 0.00000E+00
 -1      1274 1.39650E+02 0.00000E+00 0.00000E+00
 -1      1275 1.42650E+02 0.00000E+00 0.00000E+00
 -1      1276 1.45650E+02 0.00000E+00 0.00000E+00
 -1      1277 1.48575E+02 0.00000E+00 0.00000E+00
 -1      1278 1.50000E+02 1.47500E+00 0.00000E+00
 -1      1279 1.50000E+02 4.42500E+00 0.00000E+00
 -1      1280 1.50000E+02 7.37500E+00 0.00000E+00
 -1      1281 1.50000E+02 1.03250E+01 0.00000E+00
 -1      1282 1.50000E+02 1.32750E+01 0.00000E+00
 -1      1283 1.50000E+02 1.62000E+01 0.00000E+00
 -1      1284 1.50000E+02 1.91250E+01 0.00000E+00
 -1      1285 1.50000E+02 2.20750E+01 0.00000E+00
 -1      1286 1.50000E+02 2.50250E+01 0.00000E+00
 -1      1287 1.50000E+02 2.79750E+01 0.00000E+00
 -1      1288 1.50000E+02 3.09250E+01 0.00000E+00
 -1      1289 1.50000E+02 3.38500E+01 0.00000E+00
 -1      1290 1.50000E+02 3.67750E+01 0.00000E+00
 -1      1291 1.50000E+02 3.97250E+01 0.00000E+00
 -1      1292 1.50000E+02 4.26750E+01 0.00000E+00
 -1      1293 1.50000E+02 4.56250E+01 0.00000E+00
 -1      1294 1.50000E+02 4.85500E+01 0.00000E+00
 -1      1295 5.41230E+01 2.49816E+01 0.00000E+00
 -1      1296 5.37822E+01 2.34818E+01 0.00000E+00
 -1      1297 5.31421E+01 2.21250E+01 0.00000E+00
 -1      1298 5.22081E+01 2.09156E+01 0.00000E+00
 -1      1299 5.10578E+01 1.99535E+01 0.00000E+00
 -1      1300 4.97421E+01 1.92637E+01 0.00000E+00
 -1      1301 4.83233E+01 1.88692E+01 0.00000E+00
 -1      1302 4.68407E+01 1.87808E+01 0.00000E+00
 -1      1303 4.53527E+01 1.90126E+01 0.00000E+00
 -1      1304 4.39661E+01 1.95483E+01 0.00000E+00
 -1      1305 4.27367E+01 2.03543E+01 0.00000E+00
 -1      1306 4.16947E+01 2.14092E+01 0.00000E+00
 -1      1307 4.08660E+01 2.27257E+01 0.00000E+00
 -1      1308 4.03441E+01 2.42125E+01 0.00000E+00
 -1      1309 4.01684E+01 2.56901E+01 0.00000E+00
 -1      1310 4.02985E+01 2.71191E+01 0.00000E+00
 -1      1311 4.07335E+01 2.85298E+01 0.00000E+00
 -1      1312 4.14507E+01 2.98122E+01 0.00000E+00
 -1      1313 4.24330E+01 3.09289E+01 0.00000E+00
 -1      1314 4.36266E+01 3.18114E+01 0.00000E+00
 -1      1315 4.49233E+01 3.24036E+01 0.00000E+00
 -1      1316 4.62855E+01 3.27173E+01 0.00000E+00
 -1      1317 4.77331E+01 3.27503E+01 0.00000E+00
 -1      1318 4.91450E+01 3.24881E+01 0.00000E+00
 -1      1319 5.04082E+01 3.19780E+01 0.00000E+00
 -1      1320 5.15520E+01 3.12302E+01 0.00000E+00
 -1      1321 5.25616E+01 3.02350E+01 0.00000E+00
 -1      1322 5.33482E+01 2.90600E+01 0.00000E+00
 -1      1323 5.38683E+01 2.77990E+01 0.00000E+00
 -1      1324 5.41342E+01 2.64594E+01 0.00000E+00
 -1      1325 1.57500E+00 4.85250E+01 0.00000E+00
 -1      1326 1.29900E+00 4.48375E+01 0.00000E+00
 -1      1327 1.29900E+00 4.63125E+01 0.00000E+00
 -1      1328 1.29900E+00 4.18875E+01 0.00000E+00
 -1      1329 1.29900E+00 4.33625E+01 0.00000E+00
 -1      1330 2.59800E+00 4.41000E+01 0.00000E+00
 -1      1331 1.29900E+00 3.89375E+01 0.00000E+00
 -1      1332 1.29900E+00 4.04125E+01 0.00000E+00
 -1      1333 2.59800E+00 4.11500E+01 0.00000E+00
 -1      1334 1.29900E+00 3.59875E+01 0.00000E+00
 -1      1335 1.29900E+00 3.74625E+01 0.00000E+00
 -1      1336 2.59800E+00 3.82000E+01 0.00000E+00
 -1      1337 1.29900E+00 3.30875E+01 0.00000E+00
 -1      1338 1.29900E+00 3.45375E+01 0.00000E+00
 -1      1339 2.59800E+00 3.52750E+01 0.00000E+00
 -1      1340 1.29900E+00 3.01375E+01 0.00000E+00
 -1      1341 1.29900E+00 3.16125E+01 0.00000E+00
 -1      1342 2.59800E+00 3.23500E+01 0.00000E+00
 -1      1343 1.29900E+00 2.71875E+01 0.00000E+00
 -1      1344 1.29900E+00 2.86625E+01 0.00000E+00
 -1      1345 2.59800E+00 2.94000E+01 0.00000E+00
 -1      1346 1.29900E+00 2.42375E+01 0.00000E+00
 -1      1347 1.29900E+00 2.57125E+01 0.00000E+00
 -1      1348 2.59800E+00 2.64500E+01 0.00000E+00
 -1      1349 1.29900E+00 2.12875E+01 0.00000E+00
 -1      1350 1.29900E+00 2.27625E+01 0.00000E+00
 -1      1351 2.59800E+00 2.35000E+01 0.00000E+00
 -1      1352 1.29900E+00 1.83375E+01 0.00000E+00
 -1      1353 1.29900E+00 1.98125E+01 0.00000E+00
 -1      1354 2.59800E+00 2.05500E+01 0.00000E+00
 -1      1355 1.29900E+00 1.54375E+01 0.00000E+00
 -1      1356 1.29900E+00 1.68875E+01 0.00000E+00
 -1      1357 2.59800E+00 1.76250E+01 0.00000E+00
 -1      1358 1.29900E+00 1.24875E+01 0.00000E+00
 -1      1359 1.29900E+00 1.39625E+01 0.00000E+00
 -1      1360 2.59800E+00 1.47000E+01 0.00000E+00
 -1      1361 1.29900E+00 9.53750E+00 0.00000E+00
 -1      1362 1.29900E+00 1.10125E+01 0.00000E+00
 -1      1363 2.59800E+00 1.17500E+01 0.00000E+00
 -1      1364 1.29900E+00 6.58750E+00 0.00000E+00
 -1      1365 1.29900E+00 8.06250E+00 0.00000E+00
 -1      1366 2.59800E+00 8.80000E+00 0.00000E+00
 -1      1367 1.29900E+00 3.63750E+00 0.00000E+00
 -1      1368 1.29900E+00 5.11250E+00 0.00000E+00
 -1      1369 2.59800E+00 5.85000E+00 0.00000E+00
 -1      1370 1.43700E+00 1.09375E+00 0.00000E+00
 -1      1371 1.43700E+00 2.54375E+00 0.00000E+00
 -1      1372 2.73600E+00 3.28125E+00 0.00000E+00
 -1      1373 3.01200E+00 1.09375E+00 0.00000E+00
 -1      1374 3.90000E+00 4.87010E+01 0.00000E+00
 -1      1375 5.40000E+00 4.87010E+01 0.00000E+00
 -1      1376 6.90000E+00 4.87010E+01 0.00000E+00
 -1      1377 8.40000E+00 4.87010E+01 0.00000E+00
 -1      1378 6.15000E+00 4.74020E+01 0.00000E+00
 -1      1379 9.90000E+00 4.87010E+01 0.00000E+00
 -1      1380 1.14000E+01 4.87010E+01 0.00000E+00
 -1      1381 9.15000E+00 4.74020E+01 0.00000E+00
 -1      1382 1.29000E+01 4.87010E+01 0.00000E+00
 -1      1383 1.44000E+01 4.87010E+01 0.00000E+00
 -1      1384 1.21500E+01 4.74020E+01 0.00000E+00
 -1      1385 1.59000E+01 4.87010E+01 0.00000E+00
 -1      1386 1.74000E+01 4.87010E+01 0.00000E+00
 -1      1387 1.51500E+01 4.74020E+01 0.00000E+00
 -1      1388 1.89000E+01 4.87010E+01 0.00000E+00
 -1      1389 2.04000E+01 4.87010E+01 0.00000E+00
 -1      1390 1.81500E+01 4.74020E+01 0.00000E+00
 -1      1391 2.19000E+01 4.87010E+01 0.00000E+00
 -1      1392 2.34000E+01 4.87010E+01 0.00000E+00
 -1      1393 2.11500E+01 4.74020E+01 0.00000E+00
 -1      1394 2.49000E+01 4.87010E+01 0.00000E+00
 -1      1395 2.64000E+01 4.87010E+01 0.00000E+00
 -1      1396 2.41500E+01 4.74020E+01 0.00000E+00
 -1      1397 2.79000E+01 4.87010E+01 0.00000E+00
 -1      1398 2.94000E+01 4.87010E+01 0.00000E+00
 -1      1399 2.71500E+01 4.74020E+01 0.00000E+00
 -1      1400 3.09000E+01 4.87010E+01 0.00000E+00
 -1      1401 3.24000E+01 4.87010E+01 0.00000E+00
 -1      1402 3.01500E+01 4.74020E+01 0.00000E+00
 -1      1403 3.39000E+01 4.87010E+01 0.00000E+00
 -1      1404 3.54000E+01 4.87010E+01 0.00000E+00
 -1      1405 3.31500E+01 4.74020E+01 0.00000E+00
 -1      1406 3.69000E+01 4.87010E+01 0.00000E+00
 -1      1407 3.84000E+01 4.87010E+01 0.00000E+00
 -1      1408 3.61500E+01 4.74020E+01 0.00000E+00
 -1      1409 3.99000E+01 4.87010E+01 0.00000E+00
 -1      1410 4.14000E+01 4.87010E+01 0.00000E+00
 -1      1411 3.91500E+01 4.74020E+01 0.00000E+00
 -1      1412 4.29000E+01 4.87010E+01 0.00000E+00
 -1      1413 4.44000E+01 4.87010E+01 0.00000E+00
 -1      1414 4.21500E+01 4.74020E+01 0.00000E+00
 -1      1415 4.59000E+01 4.87010E+01 0.00000E+00
 -1      1416 4.74000E+01 4.87010E+01 0.00000E+00
 -1      1417 4.51500E+01 4.74020E+01 0.00000E+00
 -1      1418 4.89000E+01 4.87010E+01 0.00000E+00
 -1      1419 5.04000E+01 4.87010E+01 0.00000E+00
 -1      1420 4.81500E+01 4.74020E+01 0.00000E+00
 -1      1421 5.19000E+01 4.87010E+01 0.00000E+00
 -1      1422 5.34000E+01 4.87010E+01 0.00000E+00
 -1      1423 5.11500E+01 4.74020E+01 0.00000E+00
 -1      1424 5.49000E+01 4.87010E+01 0.00000E+00
 -1      1425 5.64000E+01 4.87010E+01 0.00000E+00
 -1      1426 5.41500E+01 4.74020E+01 0.00000E+00
 -1      1427 5.79000E+01 4.87010E+01 0.00000E+00
 -1      1428 5.94000E+01 4.87010E+01 0.00000E+00
 -1      1429 5.71500E+01 4.74020E+01 0.00000E+00
 -1      1430 6.09000E+01 4.87010E+01 0.00000E+00
 -1      1431 6.24000E+01 4.87010E+01 0.00000E+00
 -1      1432 6.01500E+01 4.74020E+01 0.00000E+00
 -1      1433 6.39000E+01 4.87010E+01 0.00000E+00
 -1      1434 6.54000E+01 4.87010E+01 0.00000E+00
 -1      1435 6.31500E+01 4.74020E+01 0.00000E+00
 -1      1436 6.69000E+01 4.87010E+01 0.00000E+00
 -1      1437 6.84000E+01 4.87010E+01 0.00000E+00
 -1      1438 6.61500E+01 4.74020E+01 0.00000E+00
 -1      1439 6.99000E+01 4.87010E+01 0.00000E+00
 -1      1440 7.14000E+01 4.87010E+01 0.00000E+00
 -1      1441 6.91500E+01 4.74020E+01 0.00000E+00
 -1      1442 7.29000E+01 4.87010E+01 0.00000E+00
 -1      1443 7.44000E+01 4.87010E+01 0.00000E+00
 -1      1444 7.21500E+01 4.74020E+01 0.00000E+00
 -1      1445 7.59000E+01 4.87010E+01 0.00000E+00
 -1      1446 7.74000E+01 4.87010E+01 0.00000E+00
 -1      1447 7.51500E+01 4.74020E+01 0.00000E+00
 -1      1448 7.89000E+01 4.87010E+01 0.00000E+00
 -1      1449 8.04000E+01 4.87010E+01 0.00000E+00
 -1      1450 7.81500E+01 4.74020E+01 0.00000E+00
 -1      1451 8.19000E+01 4.87010E+01 0.00000E+00
 -1      1452 8.34000E+01 4.87010E+01 0.00000E+00
 -1      1453 8.11500E+01 4.74020E+01 0.00000E+00
 -1      1454 8.49000E+01 4.87010E+01 0.00000E+00
 -1      1455 8.64000E+01 4.87010E+01 0.00000E+00
 -1      1456 8.41500E+01 4.74020E+01 0.00000E+00
 -1      1457 8.79000E+01 4.87010E+01 0.00000E+00
 -1      1458 8.94000E+01 4.87010E+01 0.00000E+00
 -1      1459 8.71500E+01 4.74020E+01 0.00000E+00
 -1      1460 9.09000E+01 4.87010E+01 0.00000E+00
 -1      1461 9.24000E+01 4.87010E+01 0.00000E+00
 -1      1462 9.01500E+01 4.74020E+01 0.00000E+00
 -1      1463 9.39000E+01 4.87010E+01 0.00000E+00
 -1      1464 9.54000E+01 4.87010E+01 0.00000E+00
 -1      1465 9.31500E+01 4.74020E+01 0.00000E+00
 -1      1466 9.69000E+01 4.87010E+01 0.00000E+00
 -1      1467 9.84000E+01 4.87010E+01 0.00000E+00
 -1      1468 9.61500E+01 4.74020E+01 0.00000E+00
 -1      1469 9.99000E+01 4.87010E+01 0.00000E+00
 -1      1470 1.01400E+02 4.87010E+01 0.00000E+00
 -1      1471 9.91500E+01 4.74020E+01 0.00000E+00
 -1      1472 1.02900E+02 4.87010E+01 0.00000E+00
 -1      1473 1.04400E+02 4.87010E+01 0.00000E+00
 -1      1474 1.02150E+02 4.74020E+01 0.00000E+00
 -1      1475 1.05900E+02 4.87010E+01 0.00000E+00
 -1      1476 1.07400E+02 4.87010E+01 0.00000E+00
 -1      1477 1.05150E+02 4.74020E+01 0.00000E+00
 -1      1478 1.08900E+02 4.87010E+01 0.00000E+00
 -1      1479 1.10400E+02 4.87010E+01 0.00000E+00
 -1      1480 1.08150E+02 4.74020E+01 0.00000E+00
 -1      1481 1.11900E+02 4.87010E+01 0.00000E+00
 -1      1482 1.13400E+02 4.87010E+01 0.00000E+00
 -1      1483 1.11150E+02 4.74020E+01 0.00000E+00
 -1      1484 1.14900E+02 4.87010E+01 0.00000E+00
 -1      1485 1.16400E+02 4.87010E+01 0.00000E+00
 -1      1486 1.14150E+02 4.74020E+01 0.00000E+00
 -1      1487 1.17900E+02 4.87010E+01 0.00000E+00
 -1      1488 1.19400E+02 4.87010E+01 0.00000E+00
 -1      1489 1.17150E+02 4.74020E+01 0.00000E+00
 -1      1490 1.20900E+02 4.87010E+01 0.00000E+00
 -1      1491 1.22400E+02 4.87010E+01 0.00000E+00
 -1      1492 1.20150E+02 4.74020E+01 0.00000E+00
 -1      1493 1.23900E+02 4.87010E+01 0.00000E+00
 -1      1494 1.25400E+02 4.87010E+01 0.00000E+00
 -1      1495 1.23150E+02 4.74020E+01 0.00000E+00
 -1      1496 1.26900E+02 4.87010E+01 0.00000E+00
 -1      1497 1.28400E+02 4.87010E+01 0.00000E+00
 -1      1498 1.26150E+02 4.74020E+01 0.00000E+00
 -1      1499 1.29900E+02 4.87010E+01 0.00000E+00
 -1      1500 1.31400E+02 4.87010E+01 0.00000E+00
 -1      1501 1.29150E+02 4.74020E+01 0.00000E+00
 -1      1502 1.32900E+02 4.87010E+01 0.00000E+00
 -1      1503 1.34400E+02 4.87010E+01 0.00000E+00
 -1      1504 1.32150E+02 4.74020E+01 0.00000E+00
 -1      1505 1.35900E+02 4.87010E+01 0.00000E+00
 -1      1506 1.37400E+02 4.87010E+01 0.00000E+00
 -1      1507 1.35150E+02 4.74020E+01 0.00000E+00
 -1      1508 1.38900E+02 4.87010E+01 0.00000E+00
 -1      1509 1.40400E+02 4.87010E+01 0.00000E+00
 -1      1510 1.38150E+02 4.74020E+01 0.00000E+00
 -1      1511 1.41900E+02 4.87010E+01 0.00000E+00
 -1      1512 1.43400E+02 4.87010E+01 0.00000E+00
 -1      1513 1.41150E+02 4.74020E+01 0.00000E+00
 -1      1514 1.44900E+02 4.87010E+01 0.00000E+00
 -1      1515 1.46400E+02 4.87010E+01 0.00000E+00
 -1      1516 1.44150E+02 4.74020E+01 0.00000E+00
 -1      1517 1.48575E+02 4.85500E+01 0.00000E+00
 -1      1518 1.47825E+02 4.72510E+01 0.00000E+00
 -1      1519 6.01200E+00 1.09375E+00 0.00000E+00
 -1      1520 4.51200E+00 1.09375E+00 0.00000E+00
 -1      1521 4.37400E+00 2.18750E+00 0.00000E+00
 -1      1522 9.01200E+00 1.09375E+00 0.00000E+00
 -1      1523 7.51200E+00 1.09375E+00 0.00000E+00
 -1      1524 7.37400E+00 2.18750E+00 0.00000E+00
 -1      1525 1.20120E+01 1.09375E+00 0.00000E+00
 -1      1526 1.05120E+01 1.09375E+00 0.00000E+00
 -1      1527 1.03740E+01 2.18750E+00 0.00000E+00
 -1      1528 1.50120E+01 1.09375E+00 0.00000E+00
 -1      1529 1.35120E+01 1.09375E+00 0.00000E+00
 -1      1530 1.33740E+01 2.18750E+00 0.00000E+00
 -1      1531 1.80120E+01 1.09375E+00 0.00000E+00
 -1      1532 1.65120E+01 1.09375E+00 0.00000E+00
 -1      1533 1.63740E+01 2.18750E+00 0.00000E+00
 -1      1534 2.10120E+01 1.09375E+00 0.00000E+00
 -1      1535 1.95120E+01 1.09375E+00 0.00000E+00
 -1      1536 1.93740E+01 2.18750E+00 0.00000E+00
 -1      1537 2.40120E+01 1.09375E+00 0.00000E+00
 -1      1538 2.25120E+01 1.09375E+00 0.00000E+00
 -1      1539 2.23740E+01 2.18750E+00 0.00000E+00
 -1      1540 2.70120E+01 1.09375E+00 0.00000E+00
 -1      1541 2.55120E+01 1.09375E+00 0.00000E+00
 -1      1542 2.53740E+01 2.18750E+00 0.00000E+00
 -1      1543 3.00120E+01 1.09375E+00 0.00000E+00
 -1      1544 2.85120E+01 1.09375E+00 0.00000E+00
 -1      1545 2.83740E+01 2.18750E+00 0.00000E+00
 -1      1546 3.30120E+01 1.09375E+00 0.00000E+00
 -1      1547 3.15120E+01 1.09375E+00 0.00000E+00
 -1      1548 3.13740E+01 2.18750E+00 0.00000E+00
 -1      1549 3.60120E+01 1.09375E+00 0.00000E+00
 -1      1550 3.45120E+01 1.09375E+00 0.00000E+00
 -1      1551 3.43740E+01 2.18750E+00 0.00000E+00
 -1      1552 3.90120E+01 1.09375E+00 0.00000E+00
 -1      1553 3.75120E+01 1.09375E+00 0.00000E+00
 -1      1554 3.73740E+01 2.18750E+00 0.00000E+00
 -1      1555 4.20120E+01 1.09375E+00 0.00000E+00
 -1      1556 4.05120E+01 1.09375E+00 0.00000E+00
 -1      1557 4.03740E+01 2.18750E+00 0.00000E+00
 -1      1558 4.50120E+01 1.09375E+00 0.00000E+00
 -1      1559 4.35120E+01 1.09375E+00 0.00000E+00
 -1      1560 4.33740E+01 2.18750E+00 0.00000E+00
 -1      1561 4.80120E+01 1.09375E+00 0.00000E+00
 -1      1562 4.65120E+01 1.09375E+00 0.00000E+00
 -1      1563 4.63740E+01 2.18750E+00 0.00000E+00
 -1      1564 5.10120E+01 1.09375E+00 0.00000E+00
 -1      1565 4.95120E+01 1.09375E+00 0.00000E+00
 -1      1566 4.93740E+01 2.18750E+00 0.00000E+00
 -1      1567 5.40120E+01 1.09375E+00 0.00000E+00
 -1      1568 5.25120E+01 1.09375E+00 0.00000E+00
 -1      1569 5.23740E+01 2.18750E+00 0.00000E+00
 -1      1570 5.70120E+01 1.09375E+00 0.00000E+00
 -1      1571 5.55120E+01 1.09375E+00 0.00000E+00
 -1      1572 5.53740E+01 2.18750E+00 0.00000E+00
 -1      1573 6.00120E+01 1.09375E+00 0.00000E+00
 -1      1574 5.85120E+01 1.09375E+00 0.00000E+00
 -1      1575 5.83740E+01 2.18750E+00 0.00000E+00
 -1      1576 6.30120E+01 1.09375E+00 0.00000E+00
 -1      1577 6.15120E+01 1.09375E+00 0.00000E+00
 -1      1578 6.13740E+01 2.18750E+00 0.00000E+00
 -1      1579 6.60120E+01 1.09375E+00 0.00000E+00
 -1      1580 6.45120E+01 1.09375E+00 0.00000E+00
 -1      1581 6.43740E+01 2.18750E+00 0.00000E+00
 -1      1582 6.90120E+01 1.09375E+00 0.00000E+00
 -1      1583 6.75120E+01 1.09375E+00 0.00000E+00
 -1      1584 6.73740E+01 2.18750E+00 0.00000E+00
 -1      1585 7.20120E+01 1.09375E+00 0.00000E+00
 -1      1586 7.05120E+01 1.09375E+00 0.00000E+00
 -1      1587 7.03740E+01 2.18750E+00 0.00000E+00
 -1      1588 7.50120E+01 1.09375E+00 0.00000E+00
 -1      1589 7.35120E+01 1.09375E+00 0.00000E+00
 -1      1590 7.33740E+01 2.18750E+00 0.00000E+00
 -1      1591 7.80120E+01 1.09375E+00 0.00000E+00
 -1      1592 7.65120E+01 1.09375E+00 0.00000E+00
 -1      1593 7.63740E+01 2.18750E+00 0.00000E+00
 -1      1594 8.10120E+01 1.09375E+00 0.00000E+00
 -1      1595 7.95120E+01 1.09375E+00 0.00000E+00
 -1      1596 7.93740E+01 2.18750E+00 0.00000E+00
 -1      1597 8.40120E+01 1.09375E+00 0.00000E+00
 -1      1598 8.25120E+01 1.09375E+00 0.00000E+00
 -1      1599 8.23740E+01 2.18750E+00 0.00000E+00
 -1      1600 8.70120E+01 1.09375E+00 0.00000E+00
 -1      1601 8.55120E+01 1.09375E+00 0.00000E+00
 -1      1602 8.53740E+01 2.18750E+00 0.00000E+00
 -1      1603 9.00120E+01 1.09375E+00 0.00000E+00
 -1      1604 8.85120E+01 1.09375E+00 0.00000E+00
 -1      1605 8.83740E+01 2.18750E+00 0.00000E+00
 -1      1606 9.30120E+01 1.09375E+00 0.00000E+00
 -1      1607 9.15120E+01 1.09375E+00 0.00000E+00
 -1      1608 9.13740E+01 2.18750E+00 0.00000E+00
 -1      1609 9.60120E+01 1.09375E+00 0.00000E+00
 -1      1610 9.45120E+01 1.09375E+00 0.00000E+00
 -1      1611 9.43740E+01 2.18750E+00 0.00000E+00
 -1      1612 9.90120E+01 1.09375E+00 0.00000E+00
 -1      1613 9.75120E+01 1.09375E+00 0.00000E+00
 -1      1614 9.73740E+01 2.18750E+00 0.00000E+00
 -1      1615 1.02012E+02 1.09375E+00 0.00000E+00
 -1      1616 1.00512E+02 1.09375E+00 0.00000E+00
 -1      1617 1.00374E+02 2.18750E+00 0.00000E+00
 -1      1618 1.05012E+02 1.09375E+00 0.00000E+00
 -1      1619 1.03512E+02 1.09375E+00 0.00000E+00
 -1      1620 1.03374E+02 2.18750E+00 0.00000E+00
 -1      1621 1.08012E+02 1.09375E+00 0.00000E+00
 -1      1622 1.06512E+02 1.09375E+00 0.00000E+00
 -1      1623 1.06374E+02 2.18750E+00 0.00000E+00
 -1      1624 1.11012E+02 1.09375E+00 0.00000E+00
 -1      1625 1.09512E+02 1.09375E+00 0.00000E+00
 -1      1626 1.09374E+02 2.18750E+00 0.00000E+00
 -1      1627 1.14012E+02 1.09375E+00 0.00000E+00
 -1      1628 1.12512E+02 1.09375E+00 0.00000E+00
 -1      1629 1.12374E+02 2.18750E+00 0.00000E+00
 -1      1630 1.17012E+02 1.09375E+00 0.00000E+00
 -1      1631 1.15512E+02 1.09375E+00 0.00000E+00
 -1      1632 1.15374E+02 2.18750E+00 0.00000E+00
 -1      1633 1.20012E+02 1.09375E+00 0.00000E+00
 -1      1634 1.18512E+02 1.09375E+00 0.00000E+00
 -1      1635 1.18374E+02 2.18750E+00 0.00000E+00
 -1      1636 1.23012E+02 1.09375E+00 0.00000E+00
 -1      1637 1.21512E+02 1.09375E+00 0.00000E+00
 -1      1638 1.21374E+02 2.18750E+00 0.00000E+00
 -1      1639 1.26012E+02 1.09375E+00 0.00000E+00
 -1      1640 1.24512E+02 1.09375E+00 0.00000E+00
 -1      1641 1.24374E+02 2.18750E+00 0.00000E+00
 -1      1642 1.29012E+02 1.09375E+00 0.00000E+00
 -1      1643 1.27512E+02 1.09375E+00 0.00000E+00
 -1      1644 1.27374E+02 2.18750E+00 0.00000E+00
 -1      1645 1.32012E+02 1.09375E+00 0.00000E+00
 -1      1646 1.30512E+02 1.09375E+00 0.00000E+00
 -1      1647 1.30374E+02 2.18750E+00 0.00000E+00
 -1      1648 1.35012E+02 1.09375E+00 0.00000E+00
 -1      1649 1.33512E+02 1.09375E+00 0.00000E+00
 -1      1650 1.33374E+02 2.18750E+00 0.00000E+00
 -1      1651 1.38012E+02 1.09375E+00 0.00000E+00
 -1      1652 1.36512E+02 1.09375E+00 0.00000E+00
 -1      1653 1.36374E+02 2.18750E+00 0.00000E+00
 -1      1654 1.41012E+02 1.09375E+00 0.00000E+00
 -1      1655 1.39512E+02 1.09375E+00 0.00000E+00
 -1      1656 1.39374E+02 2.18750E+00 0.00000E+00
 -1      1657 1.44012E+02 1.09375E+00 0.00000E+00
 -1      1658 1.42512E+02 1.09375E+00 0.00000E+00
 -1      1659 1.42374E+02 2.18750E+00 0.00000E+00
 -1      1660 1.47012E+02 1.09375E+00 0.00000E+00
 -1      1661 1.45512E+02 1.09375E+00 0.00000E+00
 -1      1662 1.45374E+02 2.18750E+00 0.00000E+00
 -1      1663 1.48575E+02 1.47500E+00 0.00000E+00
 -1      1664 1.48701E+02 5.16250E+00 0.00000E+00
 -1      1665 1.48701E+02 3.68750E+00 0.00000E+00
 -1      1666 1.48701E+02 8.11250E+00 0.00000E+00
 -1      1667 1.48701E+02 6.63750E+00 0.00000E+00
 -1      1668 1.47402E+02 5.90000E+00 0.00000E+00
 -1      1669 1.48701E+02 1.10625E+01 0.00000E+00
 -1      1670 1.48701E+02 9.58750E+00 0.00000E+00
 -1      1671 1.47402E+02 8.85000E+00 0.00000E+00
 -1      1672 1.48701E+02 1.40125E+01 0.00000E+00
 -1      1673 1.48701E+02 1.25375E+01 0.00000E+00
 -1      1674 1.47402E+02 1.18000E+01 0.00000E+00
 -1      1675 1.48701E+02 1.69125E+01 0.00000E+00
 -1      1676 1.48701E+02 1.54625E+01 0.00000E+00
 -1      1677 1.47402E+02 1.47250E+01 0.00000E+00
 -1      1678 1.48701E+02 1.98625E+01 0.00000E+00
 -1      1679 1.48701E+02 1.83875E+01 0.00000E+00
 -1      1680 1.47402E+02 1.76500E+01 0.00000E+00
 -1      1681 1.48701E+02 2.28125E+01 0.00000E+00
 -1      1682 1.48701E+02 2.13375E+01 0.00000E+00
 -1      1683 1.47402E+02 2.06000E+01 0.00000E+00
 -1      1684 1.48701E+02 2.57625E+01 0.00000E+00
 -1      1685 1.48701E+02 2.42875E+01 0.00000E+00
 -1      1686 1.47402E+02 2.35500E+01 0.00000E+00
 -1      1687 1.48701E+02 2.87125E+01 0.00000E+00
 -1      1688 1.48701E+02 2.72375E+01 0.00000E+00
 -1      1689 1.47402E+02 2.65000E+01 0.00000E+00
 -1      1690 1.48701E+02 3.16625E+01 0.00000E+00
 -1      1691 1.48701E+02 3.01875E+01 0.00000E+00
 -1      1692 1.47402E+02 2.94500E+01 0.00000E+00
 -1      1693 1.48701E+02 3.45625E+01 0.00000E+00
 -1      1694 1.48701E+02 3.31125E+01 0.00000E+00
 -1      1695 1.47402E+02 3.23750E+01 0.00000E+00
 -1      1696 1.48701E+02 3.75125E+01 0.00000E+00
 -1      1697 1.48701E+02 3.60375E+01 0.00000E+00
 -1      1698 1.47402E+02 3.53000E+01 0.00000E+00
 -1      1699 1.48701E+02 4.04625E+01 0.00000E+00
 -1      1700 1.48701E+02 3.89875E+01 0.00000E+00
 -1      1701 1.47402E+02 3.82500E+01 0.00000E+00
 -1      1702 1.48701E+02 4.34125E+01 0.00000E+00
 -1      1703 1.48701E+02 4.19375E+01 0.00000E+00
 -1      1704 1.47402E+02 4.12000E+01 0.00000E+00
 -1      1705 1.48263E+02 4.60692E+01 0.00000E+00
 -1      1706 1.48263E+02 4.45942E+01 0.00000E+00
 -1      1707 1.46964E+02 4.38568E+01 0.00000E+00
 -1      1708 1.46088E+02 4.62202E+01 0.00000E+00
 -1      1709 5.47192E+01 2.45154E+01 0.00000E+00
 -1      1710 5.48087E+01 2.53019E+01 0.00000E+00
 -1      1711 5.41951E+01 2.29437E+01 0.00000E+00
 -1      1712 5.44395E+01 2.36491E+01 0.00000E+00
 -1      1713 5.34283E+01 2.15087E+01 0.00000E+00
 -1      1714 5.38211E+01 2.21519E+01 0.00000E+00
 -1      1715 5.24053E+01 2.01878E+01 0.00000E+00
 -1      1716 5.29427E+01 2.07454E+01 0.00000E+00
 -1      1717 5.10724E+01 1.92794E+01 0.00000E+00
 -1      1718 5.16752E+01 1.96824E+01 0.00000E+00
 -1      1719 4.96270E+01 1.85208E+01 0.00000E+00
 -1      1720 5.03342E+01 1.88004E+01 0.00000E+00
 -1      1721 4.80662E+01 1.82484E+01 0.00000E+00
 -1      1722 4.87686E+01 1.83659E+01 0.00000E+00
 -1      1723 4.64263E+01 1.81943E+01 0.00000E+00
 -1      1724 4.71986E+01 1.81581E+01 0.00000E+00
 -1      1725 4.48516E+01 1.85593E+01 0.00000E+00
 -1      1726 4.55594E+01 1.83693E+01 0.00000E+00
 -1      1727 4.33340E+01 1.91433E+01 0.00000E+00
 -1      1728 4.40042E+01 1.87986E+01 0.00000E+00
 -1      1729 4.19928E+01 2.00105E+01 0.00000E+00
 -1      1730 4.25474E+01 1.95570E+01 0.00000E+00
 -1      1731 4.09493E+01 2.13048E+01 0.00000E+00
 -1      1732 4.14270E+01 2.07057E+01 0.00000E+00
 -1      1733 4.00755E+01 2.27819E+01 0.00000E+00
 -1      1734 4.04192E+01 2.20712E+01 0.00000E+00
 -1      1735 3.96270E+01 2.44518E+01 0.00000E+00
 -1      1736 3.98023E+01 2.36852E+01 0.00000E+00
 -1      1737 3.95933E+01 2.60341E+01 0.00000E+00
 -1      1738 3.96016E+01 2.53325E+01 0.00000E+00
 -1      1739 3.97708E+01 2.75961E+01 0.00000E+00
 -1      1740 3.96298E+01 2.68765E+01 0.00000E+00
 -1      1741 4.03589E+01 2.90944E+01 0.00000E+00
 -1      1742 4.00663E+01 2.84115E+01 0.00000E+00
 -1      1743 4.11960E+01 3.04368E+01 0.00000E+00
 -1      1744 4.07769E+01 2.98436E+01 0.00000E+00
 -1      1745 4.22746E+01 3.16639E+01 0.00000E+00
 -1      1746 4.17141E+01 3.11492E+01 0.00000E+00
 -1      1747 4.36509E+01 3.24849E+01 0.00000E+00
 -1      1748 4.30269E+01 3.21190E+01 0.00000E+00
 -1      1749 4.50728E+01 3.30569E+01 0.00000E+00
 -1      1750 4.44077E+01 3.28317E+01 0.00000E+00
 -1      1751 4.65585E+01 3.33282E+01 0.00000E+00
 -1      1752 4.58684E+01 3.32405E+01 0.00000E+00
 -1      1753 4.81604E+01 3.33673E+01 0.00000E+00
 -1      1754 4.74106E+01 3.34280E+01 0.00000E+00
 -1      1755 4.96348E+01 3.29410E+01 0.00000E+00
 -1      1756 4.89788E+01 3.31341E+01 0.00000E+00
 -1      1757 5.09743E+01 3.23291E+01 0.00000E+00
 -1      1758 5.03729E+01 3.26432E+01 0.00000E+00
 -1      1759 5.21786E+01 3.14609E+01 0.00000E+00
 -1      1760 5.16422E+01 3.18918E+01 0.00000E+00
 -1      1761 5.32964E+01 3.03694E+01 0.00000E+00
 -1      1762 5.28313E+01 3.09316E+01 0.00000E+00
 -1      1763 5.40145E+01 2.90267E+01 0.00000E+00
 -1      1764 5.36932E+01 2.96310E+01 0.00000E+00
 -1      1765 5.45153E+01 2.76396E+01 0.00000E+00
 -1      1766 5.43186E+01 2.82901E+01 0.00000E+00
 -1      1767 5.47375E+01 2.61740E+01 0.00000E+00
 -1      1768 5.46702E+01 2.68569E+01 0.00000E+00
 -1      1769 5.24407E+01 1.94823E+01 0.00000E+00
 -1      1770 5.36564E+01 2.07511E+01 0.00000E+00
 -1      1771 1.48437E+02 2.56875E+00 0.00000E+00
 -1      1772 1.47138E+02 3.30625E+00 0.00000E+00
 -1      1773 5.51698E+01 2.39643E+01 0.00000E+00
 -1      1774 5.45161E+01 2.23062E+01 0.00000E+00
 -1      1775 5.53783E+01 2.57028E+01 0.00000E+00
 -1      1776 5.09725E+01 1.84979E+01 0.00000E+00
 -1      1777 4.93759E+01 1.78641E+01 0.00000E+00
 -1      1778 4.76498E+01 1.76190E+01 0.00000E+00
 -1      1779 4.59152E+01 1.77038E+01 0.00000E+00
 -1      1780 4.42009E+01 1.81181E+01 0.00000E+00
 -1      1781 4.25669E+01 1.87710E+01 0.00000E+00
 -1      1782 4.12145E+01 1.98799E+01 0.00000E+00
 -1      1783 4.01186E+01 2.13415E+01 0.00000E+00
 -1      1784 3.93153E+01 2.30113E+01 0.00000E+00
 -1      1785 3.90167E+01 2.47954E+01 0.00000E+00
 -1      1786 3.90278E+01 2.65185E+01 0.00000E+00
 -1      1787 3.93598E+01 2.81763E+01 0.00000E+00
 -1      1788 4.00734E+01 2.97408E+01 0.00000E+00
 -1      1789 4.10095E+01 3.12023E+01 0.00000E+00
 -1      1790 4.22800E+01 3.23698E+01 0.00000E+00
 -1      1791 4.37891E+01 3.31717E+01 0.00000E+00
 -1      1792 4.53415E+01 3.37021E+01 0.00000E+00
 -1      1793 4.69891E+01 3.39855E+01 0.00000E+00
 -1      1794 4.86596E+01 3.38522E+01 0.00000E+00
 -1      1795 5.02161E+01 3.33213E+01 0.00000E+00
 -1      1796 5.16222E+01 3.25862E+01 0.00000E+00
 -1      1797 5.29428E+01 3.16196E+01 0.00000E+00
 -1      1798 5.39923E+01 3.03519E+01 0.00000E+00
 -1      1799 5.46931E+01 2.88769E+01 0.00000E+00
 -1      1800 5.51522E+01 2.73576E+01 0.00000E+00
 -1      1801 2.87400E+00 4.77875E+01 0.00000E+00
 -1      1802 3.89700E+00 4.04125E+01 0.00000E+00
 -1      1803 3.89700E+00 4.18875E+01 0.00000E+00
 -1      1804 3.89700E+00 4.33625E+01 0.00000E+00
 -1      1805 3.89700E+00 4.48375E+01 0.00000E+00
 -1      1806 5.19600E+00 4.26250E+01 0.00000E+00
 -1      1807 3.89700E+00 3.45500E+01 0.00000E+00
 -1      1808 3.89700E+00 3.60000E+01 0.00000E+00
 -1      1809 3.89700E+00 3.16000E+01 0.00000E+00
 -1      1810 3.89700E+00 3.30750E+01 0.00000E+00
 -1      1811 5.19600E+00 3.38000E+01 0.00000E+00
 -1      1812 3.89700E+00 2.86500E+01 0.00000E+00
 -1      1813 3.89700E+00 3.01250E+01 0.00000E+00
 -1      1814 5.19600E+00 3.08500E+01 0.00000E+00
 -1      1815 3.89700E+00 2.57000E+01 0.00000E+00
 -1      1816 3.89700E+00 2.71750E+01 0.00000E+00
 -1      1817 5.19600E+00 2.79000E+01 0.00000E+00
 -1      1818 3.89700E+00 2.27500E+01 0.00000E+00
 -1      1819 3.89700E+00 2.42250E+01 0.00000E+00
 -1      1820 5.19600E+00 2.49500E+01 0.00000E+00
 -1      1821 3.89700E+00 1.98000E+01 0.00000E+00
 -1      1822 3.89700E+00 2.12750E+01 0.00000E+00
 -1      1823 5.19600E+00 2.20000E+01 0.00000E+00
 -1      1824 3.89700E+00 1.69000E+01 0.00000E+00
 -1      1825 3.89700E+00 1.83500E+01 0.00000E+00
 -1      1826 5.19600E+00 1.90750E+01 0.00000E+00
 -1      1827 3.89700E+00 1.39500E+01 0.00000E+00
 -1      1828 3.89700E+00 1.54250E+01 0.00000E+00
 -1      1829 5.19600E+00 1.61500E+01 0.00000E+00
 -1      1830 3.89700E+00 1.10000E+01 0.00000E+00
 -1      1831 3.89700E+00 1.24750E+01 0.00000E+00
 -1      1832 5.19600E+00 1.32000E+01 0.00000E+00
 -1      1833 3.89700E+00 8.05000E+00 0.00000E+00
 -1      1834 3.89700E+00 9.52500E+00 0.00000E+00
 -1      1835 5.19600E+00 1.02500E+01 0.00000E+00
 -1      1836 3.89700E+00 5.10000E+00 0.00000E+00
 -1      1837 3.89700E+00 6.57500E+00 0.00000E+00
 -1      1838 5.19600E+00 7.30000E+00 0.00000E+00
 -1      1839 4.20450E+00 3.09687E+00 0.00000E+00
 -1      1840 4.06650E+00 4.19063E+00 0.00000E+00
 -1      1841 5.36550E+00 4.91563E+00 0.00000E+00
 -1      1842 5.70450E+00 3.09687E+00 0.00000E+00
 -1      1843 3.62400E+00 4.64885E+01 0.00000E+00
 -1      1844 8.70450E+00 3.09687E+00 0.00000E+00
 -1      1845 7.20450E+00 3.09687E+00 0.00000E+00
 -1      1846 7.03500E+00 4.00625E+00 0.00000E+00
 -1      1847 4.92300E+00 4.57510E+01 0.00000E+00
 -1      1848 8.40000E+00 4.61030E+01 0.00000E+00
 -1      1849 9.90000E+00 4.61030E+01 0.00000E+00
 -1      1850 1.14000E+01 4.61030E+01 0.00000E+00
 -1      1851 1.29000E+01 4.61030E+01 0.00000E+00
 -1      1852 1.06500E+01 4.48040E+01 0.00000E+00
 -1      1853 1.44000E+01 4.61030E+01 0.00000E+00
 -1      1854 1.59000E+01 4.61030E+01 0.00000E+00
 -1      1855 1.36500E+01 4.48040E+01 0.00000E+00
 -1      1856 1.74000E+01 4.61030E+01 0.00000E+00
 -1      1857 1.89000E+01 4.61030E+01 0.00000E+00
 -1      1858 1.66500E+01 4.48040E+01 0.00000E+00
 -1      1859 2.04000E+01 4.61030E+01 0.00000E+00
 -1      1860 2.19000E+01 4.61030E+01 0.00000E+00
 -1      1861 1.96500E+01 4.48040E+01 0.00000E+00
 -1      1862 2.34000E+01 4.61030E+01 0.00000E+00
 -1      1863 2.49000E+01 4.61030E+01 0.00000E+00
 -1      1864 2.26500E+01 4.48040E+01 0.00000E+00
 -1      1865 2.64000E+01 4.61030E+01 0.00000E+00
 -1      1866 2.79000E+01 4.61030E+01 0.00000E+00
 -1      1867 2.56500E+01 4.48040E+01 0.00000E+00
 -1      1868 2.94000E+01 4.61030E+01 0.00000E+00
 -1      1869 3.09000E+01 4.61030E+01 0.00000E+00
 -1      1870 2.86500E+01 4.48040E+01 0.00000E+00
 -1      1871 3.24000E+01 4.61030E+01 0.00000E+00
 -1      1872 3.39000E+01 4.61030E+01 0.00000E+00
 -1      1873 3.16500E+01 4.48040E+01 0.00000E+00
 -1      1874 3.54000E+01 4.61030E+01 0.00000E+00
 -1      1875 3.69000E+01 4.61030E+01 0.00000E+00
 -1      1876 3.46500E+01 4.48040E+01 0.00000E+00
 -1      1877 3.84000E+01 4.61030E+01 0.00000E+00
 -1      1878 3.99000E+01 4.61030E+01 0.00000E+00
 -1      1879 3.76500E+01 4.48040E+01 0.00000E+00
 -1      1880 4.14000E+01 4.61030E+01 0.00000E+00
 -1      1881 4.29000E+01 4.61030E+01 0.00000E+00
 -1      1882 4.06500E+01 4.48040E+01 0.00000E+00
 -1      1883 4.44000E+01 4.61030E+01 0.00000E+00
 -1      1884 4.59000E+01 4.61030E+01 0.00000E+00
 -1      1885 4.36500E+01 4.48040E+01 0.00000E+00
 -1      1886 4.74000E+01 4.61030E+01 0.00000E+00
 -1      1887 4.89000E+01 4.61030E+01 0.00000E+00
 -1      1888 4.66500E+01 4.48040E+01 0.00000E+00
 -1      1889 5.04000E+01 4.61030E+01 0.00000E+00
 -1      1890 5.19000E+01 4.61030E+01 0.00000E+00
 -1      1891 4.96500E+01 4.48040E+01 0.00000E+00
 -1      1892 5.34000E+01 4.61030E+01 0.00000E+00
 -1      1893 5.49000E+01 4.61030E+01 0.00000E+00
 -1      1894 5.26500E+01 4.48040E+01 0.00000E+00
 -1      1895 5.64000E+01 4.61030E+01 0.00000E+00
 -1      1896 5.79000E+01 4.61030E+01 0.00000E+00
 -1      1897 5.56500E+01 4.48040E+01 0.00000E+00
 -1      1898 5.94000E+01 4.61030E+01 0.00000E+00
 -1      1899 6.09000E+01 4.61030E+01 0.00000E+00
 -1      1900 5.86500E+01 4.48040E+01 0.00000E+00
 -1      1901 6.24000E+01 4.61030E+01 0.00000E+00
 -1      1902 6.39000E+01 4.61030E+01 0.00000E+00
 -1      1903 6.16500E+01 4.48040E+01 0.00000E+00
 -1      1904 6.54000E+01 4.61030E+01 0.00000E+00
 -1      1905 6.69000E+01 4.61030E+01 0.00000E+00
 -1      1906 6.46500E+01 4.48040E+01 0.00000E+00
 -1      1907 6.84000E+01 4.61030E+01 0.00000E+00
 -1      1908 6.99000E+01 4.61030E+01 0.00000E+00
 -1      1909 6.76500E+01 4.48040E+01 0.00000E+00
 -1      1910 7.14000E+01 4.61030E+01 0.00000E+00
 -1      1911 7.29000E+01 4.61030E+01 0.00000E+00
 -1      1912 7.06500E+01 4.48040E+01 0.00000E+00
 -1      1913 7.44000E+01 4.61030E+01 0.00000E+00
 -1      1914 7.59000E+01 4.61030E+01 0.00000E+00
 -1      1915 7.36500E+01 4.48040E+01 0.00000E+00
 -1      1916 7.74000E+01 4.61030E+01 0.00000E+00
 -1      1917 7.89000E+01 4.61030E+01 0.00000E+00
 -1      1918 7.66500E+01 4.48040E+01 0.00000E+00
 -1      1919 8.04000E+01 4.61030E+01 0.00000E+00
 -1      1920 8.19000E+01 4.61030E+01 0.00000E+00
 -1      1921 7.96500E+01 4.48040E+01 0.00000E+00
 -1      1922 8.34000E+01 4.61030E+01 0.00000E+00
 -1      1923 8.49000E+01 4.61030E+01 0.00000E+00
 -1      1924 8.26500E+01 4.48040E+01 0.00000E+00
 -1      1925 8.64000E+01 4.61030E+01 0.00000E+00
 -1      1926 8.79000E+01 4.61030E+01 0.00000E+00
 -1      1927 8.56500E+01 4.48040E+01 0.00000E+00
 -1      1928 8.94000E+01 4.61030E+01 0.00000E+00
 -1      1929 9.09000E+01 4.61030E+01 0.00000E+00
 -1      1930 8.86500E+01 4.48040E+01 0.00000E+00
 -1      1931 9.24000E+01 4.61030E+01 0.00000E+00
 -1      1932 9.39000E+01 4.61030E+01 0.00000E+00
 -1      1933 9.16500E+01 4.48040E+01 0.00000E+00
 -1      1934 9.54000E+01 4.61030E+01 0.00000E+00
 -1      1935 9.69000E+01 4.61030E+01 0.00000E+00
 -1      1936 9.46500E+01 4.48040E+01 0.00000E+00
 -1      1937 9.84000E+01 4.61030E+01 0.00000E+00
 -1      1938 9.99000E+01 4.61030E+01 0.00000E+00
 -1      1939 9.76500E+01 4.48040E+01 0.00000E+00
 -1      1940 1.01400E+02 4.61030E+01 0.00000E+00
 -1      1941 1.02900E+02 4.61030E+01 0.00000E+00
 -1      1942 1.00650E+02 4.48040E+01 0.00000E+00
 -1      1943 1.04400E+02 4.61030E+01 0.00000E+00
 -1      1944 1.05900E+02 4.61030E+01 0.00000E+00
 -1      1945 1.03650E+02 4.48040E+01 0.00000E+00
 -1      1946 1.07400E+02 4.61030E+01 0.00000E+00
 -1      1947 1.08900E+02 4.61030E+01 0.00000E+00
 -1      1948 1.06650E+02 4.48040E+01 0.00000E+00
 -1      1949 1.10400E+02 4.61030E+01 0.00000E+00
 -1      1950 1.11900E+02 4.61030E+01 0.00000E+00
 -1      1951 1.09650E+02 4.48040E+01 0.00000E+00
 -1      1952 1.13400E+02 4.61030E+01 0.00000E+00
 -1      1953 1.14900E+02 4.61030E+01 0.00000E+00
 -1      1954 1.12650E+02 4.48040E+01 0.00000E+00
 -1      1955 1.16400E+02 4.61030E+01 0.00000E+00
 -1      1956 1.17900E+02 4.61030E+01 0.00000E+00
 -1      1957 1.15650E+02 4.48040E+01 0.00000E+00
 -1      1958 1.19400E+02 4.61030E+01 0.00000E+00
 -1      1959 1.20900E+02 4.61030E+01 0.00000E+00
 -1      1960 1.18650E+02 4.48040E+01 0.00000E+00
 -1      1961 1.22400E+02 4.61030E+01 0.00000E+00
 -1      1962 1.23900E+02 4.61030E+01 0.00000E+00
 -1      1963 1.21650E+02 4.48040E+01 0.00000E+00
 -1      1964 1.25400E+02 4.61030E+01 0.00000E+00
 -1      1965 1.26900E+02 4.61030E+01 0.00000E+00
 -1      1966 1.24650E+02 4.48040E+01 0.00000E+00
 -1      1967 1.28400E+02 4.61030E+01 0.00000E+00
 -1      1968 1.29900E+02 4.61030E+01 0.00000E+00
 -1      1969 1.27650E+02 4.48040E+01 0.00000E+00
 -1      1970 1.31400E+02 4.61030E+01 0.00000E+00
 -1      1971 1.32900E+02 4.61030E+01 0.00000E+00
 -1      1972 1.30650E+02 4.48040E+01 0.00000E+00
 -1      1973 1.34400E+02 4.61030E+01 0.00000E+00
 -1      1974 1.35900E+02 4.61030E+01 0.00000E+00
 -1      1975 1.33650E+02 4.48040E+01 0.00000E+00
 -1      1976 1.37400E+02 4.61030E+01 0.00000E+00
 -1      1977 1.38900E+02 4.61030E+01 0.00000E+00
 -1      1978 1.36650E+02 4.48040E+01 0.00000E+00
 -1      1979 1.40400E+02 4.61030E+01 0.00000E+00
 -1      1980 1.41900E+02 4.61030E+01 0.00000E+00
 -1      1981 1.39650E+02 4.48040E+01 0.00000E+00
 -1      1982 1.43244E+02 4.61616E+01 0.00000E+00
 -1      1983 1.44744E+02 4.61616E+01 0.00000E+00
 -1      1984 1.45182E+02 4.49799E+01 0.00000E+00
 -1      1985 1.42494E+02 4.48626E+01 0.00000E+00
 -1      1986 1.17045E+01 3.09687E+00 0.00000E+00
 -1      1987 1.02045E+01 3.09687E+00 0.00000E+00
 -1      1988 1.00350E+01 4.00625E+00 0.00000E+00
 -1      1989 1.47045E+01 3.09687E+00 0.00000E+00
 -1      1990 1.32045E+01 3.09687E+00 0.00000E+00
 -1      1991 1.30350E+01 4.00625E+00 0.00000E+00
 -1      1992 1.77045E+01 3.09687E+00 0.00000E+00
 -1      1993 1.62045E+01 3.09687E+00 0.00000E+00
 -1      1994 1.60350E+01 4.00625E+00 0.00000E+00
 -1      1995 2.07045E+01 3.09687E+00 0.00000E+00
 -1      1996 1.92045E+01 3.09687E+00 0.00000E+00
 -1      1997 1.90350E+01 4.00625E+00 0.00000E+00
 -1      1998 2.37045E+01 3.09687E+00 0.00000E+00
 -1      1999 2.22045E+01 3.09687E+00 0.00000E+00
 -1      2000 2.20350E+01 4.00625E+00 0.00000E+00
 -1      2001 2.67045E+01 3.09687E+00 0.00000E+00
 -1      2002 2.52045E+01 3.09687E+00 0.00000E+00
 -1      2003 2.50350E+01 4.00625E+00 0.00000E+00
 -1      2004 2.97045E+01 3.09687E+00 0.00000E+00
 -1      2005 2.82045E+01 3.09687E+00 0.00000E+00
 -1      2006 2.80350E+01 4.00625E+00 0.00000E+00
 -1      2007 3.27045E+01 3.09687E+00 0.00000E+00
 -1      2008 3.12045E+01 3.09687E+00 0.00000E+00
 -1      2009 3.10350E+01 4.00625E+00 0.00000E+00
 -1      2010 3.57045E+01 3.09687E+00 0.00000E+00
 -1      2011 3.42045E+01 3.09687E+00 0.00000E+00
 -1      2012 3.40350E+01 4.00625E+00 0.00000E+00
 -1      2013 3.87045E+01 3.09687E+00 0.00000E+00
 -1      2014 3.72045E+01 3.09687E+00 0.00000E+00
 -1      2015 3.70350E+01 4.00625E+00 0.00000E+00
 -1      2016 4.17045E+01 3.09687E+00 0.00000E+00
 -1      2017 4.02045E+01 3.09687E+00 0.00000E+00
 -1      2018 4.00350E+01 4.00625E+00 0.00000E+00
 -1      2019 4.47045E+01 3.09687E+00 0.00000E+00
 -1      2020 4.32045E+01 3.09687E+00 0.00000E+00
 -1      2021 4.30350E+01 4.00625E+00 0.00000E+00
 -1      2022 4.77045E+01 3.09687E+00 0.00000E+00
 -1      2023 4.62045E+01 3.09687E+00 0.00000E+00
 -1      2024 4.60350E+01 4.00625E+00 0.00000E+00
 -1      2025 5.07045E+01 3.09687E+00 0.00000E+00
 -1      2026 4.92045E+01 3.09687E+00 0.00000E+00
 -1      2027 4.90350E+01 4.00625E+00 0.00000E+00
 -1      2028 5.37045E+01 3.09687E+00 0.00000E+00
 -1      2029 5.22045E+01 3.09687E+00 0.00000E+00
 -1      2030 5.20350E+01 4.00625E+00 0.00000E+00
 -1      2031 5.67045E+01 3.09687E+00 0.00000E+00
 -1      2032 5.52045E+01 3.09687E+00 0.00000E+00
 -1      2033 5.50350E+01 4.00625E+00 0.00000E+00
 -1      2034 5.97045E+01 3.09687E+00 0.00000E+00
 -1      2035 5.82045E+01 3.09687E+00 0.00000E+00
 -1      2036 5.80350E+01 4.00625E+00 0.00000E+00
 -1      2037 6.27045E+01 3.09687E+00 0.00000E+00
 -1      2038 6.12045E+01 3.09687E+00 0.00000E+00
 -1      2039 6.10350E+01 4.00625E+00 0.00000E+00
 -1      2040 6.57045E+01 3.09687E+00 0.00000E+00
 -1      2041 6.42045E+01 3.09687E+00 0.00000E+00
 -1      2042 6.40350E+01 4.00625E+00 0.00000E+00
 -1      2043 6.87045E+01 3.09687E+00 0.00000E+00
 -1      2044 6.72045E+01 3.09687E+00 0.00000E+00
 -1      2045 6.70350E+01 4.00625E+00 0.00000E+00
 -1      2046 7.17045E+01 3.09687E+00 0.00000E+00
 -1      2047 7.02045E+01 3.09687E+00 0.00000E+00
 -1      2048 7.00350E+01 4.00625E+00 0.00000E+00
 -1      2049 7.47045E+01 3.09687E+00 0.00000E+00
 -1      2050 7.32045E+01 3.09687E+00 0.00000E+00
 -1      2051 7.30350E+01 4.00625E+00 0.00000E+00
 -1      2052 7.77045E+01 3.09687E+00 0.00000E+00
 -1      2053 7.62045E+01 3.09687E+00 0.00000E+00
 -1      2054 7.60350E+01 4.00625E+00 0.00000E+00
 -1      2055 8.07045E+01 3.09687E+00 0.00000E+00
 -1      2056 7.92045E+01 3.09687E+00 0.00000E+00
 -1      2057 7.90350E+01 4.00625E+00 0.00000E+00
 -1      2058 8.37045E+01 3.09687E+00 0.00000E+00
 -1      2059 8.22045E+01 3.09687E+00 0.00000E+00
 -1      2060 8.20350E+01 4.00625E+00 0.00000E+00
 -1      2061 8.67045E+01 3.09687E+00 0.00000E+00
 -1      2062 8.52045E+01 3.09687E+00 0.00000E+00
 -1      2063 8.50350E+01 4.00625E+00 0.00000E+00
 -1      2064 8.97045E+01 3.09687E+00 0.00000E+00
 -1      2065 8.82045E+01 3.09687E+00 0.00000E+00
 -1      2066 8.80350E+01 4.00625E+00 0.00000E+00
 -1      2067 9.27045E+01 3.09687E+00 0.00000E+00
 -1      2068 9.12045E+01 3.09687E+00 0.00000E+00
 -1      2069 9.10350E+01 4.00625E+00 0.00000E+00
 -1      2070 9.57045E+01 3.09687E+00 0.00000E+00
 -1      2071 9.42045E+01 3.09687E+00 0.00000E+00
 -1      2072 9.40350E+01 4.00625E+00 0.00000E+00
 -1      2073 9.87045E+01 3.09687E+00 0.00000E+00
 -1      2074 9.72045E+01 3.09687E+00 0.00000E+00
 -1      2075 9.70350E+01 4.00625E+00 0.00000E+00
 -1      2076 1.01704E+02 3.09687E+00 0.00000E+00
 -1      2077 1.00204E+02 3.09687E+00 0.00000E+00
 -1      2078 1.00035E+02 4.00625E+00 0.00000E+00
 -1      2079 1.04704E+02 3.09687E+00 0.00000E+00
 -1      2080 1.03204E+02 3.09687E+00 0.00000E+00
 -1      2081 1.03035E+02 4.00625E+00 0.00000E+00
 -1      2082 1.07704E+02 3.09687E+00 0.00000E+00
 -1      2083 1.06204E+02 3.09687E+00 0.00000E+00
 -1      2084 1.06035E+02 4.00625E+00 0.00000E+00
 -1      2085 1.10704E+02 3.09687E+00 0.00000E+00
 -1      2086 1.09204E+02 3.09687E+00 0.00000E+00
 -1      2087 1.09035E+02 4.00625E+00 0.00000E+00
 -1      2088 1.13704E+02 3.09687E+00 0.00000E+00
 -1      2089 1.12204E+02 3.09687E+00 0.00000E+00
 -1      2090 1.12035E+02 4.00625E+00 0.00000E+00
 -1      2091 1.16704E+02 3.09687E+00 0.00000E+00
 -1      2092 1.15204E+02 3.09687E+00 0.00000E+00
 -1      2093 1.15035E+02 4.00625E+00 0.00000E+00
 -1      2094 1.19704E+02 3.09687E+00 0.00000E+00
 -1      2095 1.18204E+02 3.09687E+00 0.00000E+00
 -1      2096 1.18035E+02 4.00625E+00 0.00000E+00
 -1      2097 1.22704E+02 3.09687E+00 0.00000E+00
 -1      2098 1.21204E+02 3.09687E+00 0.00000E+00
 -1      2099 1.21035E+02 4.00625E+00 0.00000E+00
 -1      2100 1.25704E+02 3.09687E+00 0.00000E+00
 -1      2101 1.24204E+02 3.09687E+00 0.00000E+00
 -1      2102 1.24035E+02 4.00625E+00 0.00000E+00
 -1      2103 1.28704E+02 3.09687E+00 0.00000E+00
 -1      2104 1.27204E+02 3.09687E+00 0.00000E+00
 -1      2105 1.27035E+02 4.00625E+00 0.00000E+00
 -1      2106 1.31704E+02 3.09687E+00 0.00000E+00
 -1      2107 1.30204E+02 3.09687E+00 0.00000E+00
 -1      2108 1.30035E+02 4.00625E+00 0.00000E+00
 -1      2109 1.34704E+02 3.09687E+00 0.00000E+00
 -1      2110 1.33204E+02 3.09687E+00 0.00000E+00
 -1      2111 1.33035E+02 4.00625E+00 0.00000E+00
 -1      2112 1.37704E+02 3.09687E+00 0.00000E+00
 -1      2113 1.36204E+02 3.09687E+00 0.00000E+00
 -1      2114 1.36035E+02 4.00625E+00 0.00000E+00
 -1      2115 1.40704E+02 3.09687E+00 0.00000E+00
 -1      2116 1.39204E+02 3.09687E+00 0.00000E+00
 -1      2117 1.39035E+02 4.00625E+00 0.00000E+00
 -1      2118 1.43704E+02 3.09687E+00 0.00000E+00
 -1      2119 1.42204E+02 3.09687E+00 0.00000E+00
 -1      2120 1.42035E+02 4.00625E+00 0.00000E+00
 -1      2121 1.46171E+02 3.20156E+00 0.00000E+00
 -1      2122 1.44671E+02 3.20156E+00 0.00000E+00
 -1      2123 1.44502E+02 4.11094E+00 0.00000E+00
 -1      2124 1.46435E+02 4.32031E+00 0.00000E+00
 -1      2125 1.46103E+02 1.25375E+01 0.00000E+00
 -1      2126 1.46103E+02 1.10625E+01 0.00000E+00
 -1      2127 1.46103E+02 9.58750E+00 0.00000E+00
 -1      2128 1.46103E+02 8.11250E+00 0.00000E+00
 -1      2129 1.44804E+02 1.03250E+01 0.00000E+00
 -1      2130 1.46269E+02 6.95391E+00 0.00000E+00
 -1      2131 1.46269E+02 5.47891E+00 0.00000E+00
 -1      2132 1.45302E+02 5.37422E+00 0.00000E+00
 -1      2133 1.44970E+02 7.69141E+00 0.00000E+00
 -1      2134 1.46103E+02 1.54375E+01 0.00000E+00
 -1      2135 1.46103E+02 1.39875E+01 0.00000E+00
 -1      2136 1.44804E+02 1.32500E+01 0.00000E+00
 -1      2137 1.46103E+02 1.83875E+01 0.00000E+00
 -1      2138 1.46103E+02 1.69125E+01 0.00000E+00
 -1      2139 1.44804E+02 1.61750E+01 0.00000E+00
 -1      2140 1.46103E+02 2.13375E+01 0.00000E+00
 -1      2141 1.46103E+02 1.98625E+01 0.00000E+00
 -1      2142 1.44804E+02 1.91250E+01 0.00000E+00
 -1      2143 1.46103E+02 2.42875E+01 0.00000E+00
 -1      2144 1.46103E+02 2.28125E+01 0.00000E+00
 -1      2145 1.44804E+02 2.20750E+01 0.00000E+00
 -1      2146 1.46103E+02 2.72375E+01 0.00000E+00
 -1      2147 1.46103E+02 2.57625E+01 0.00000E+00
 -1      2148 1.44804E+02 2.50250E+01 0.00000E+00
 -1      2149 1.46103E+02 3.01875E+01 0.00000E+00
 -1      2150 1.46103E+02 2.87125E+01 0.00000E+00
 -1      2151 1.44804E+02 2.79750E+01 0.00000E+00
 -1      2152 1.46103E+02 3.30875E+01 0.00000E+00
 -1      2153 1.46103E+02 3.16375E+01 0.00000E+00
 -1      2154 1.44804E+02 3.09000E+01 0.00000E+00
 -1      2155 1.46103E+02 3.60375E+01 0.00000E+00
 -1      2156 1.46103E+02 3.45625E+01 0.00000E+00
 -1      2157 1.44804E+02 3.38250E+01 0.00000E+00
 -1      2158 1.46103E+02 3.89875E+01 0.00000E+00
 -1      2159 1.46103E+02 3.75125E+01 0.00000E+00
 -1      2160 1.44804E+02 3.67750E+01 0.00000E+00
 -1      2161 1.46103E+02 4.19375E+01 0.00000E+00
 -1      2162 1.46103E+02 4.04625E+01 0.00000E+00
 -1      2163 1.44804E+02 3.97250E+01 0.00000E+00
 -1      2164 5.49908E+01 2.15977E+01 0.00000E+00
 -1      2165 5.53648E+01 2.23895E+01 0.00000E+00
 -1      2166 5.61433E+01 2.53262E+01 0.00000E+00
 -1      2167 5.60722E+01 2.61984E+01 0.00000E+00
 -1      2168 5.57663E+01 2.32934E+01 0.00000E+00
 -1      2169 5.60460E+01 2.41597E+01 0.00000E+00
 -1      2170 5.39957E+01 1.99991E+01 0.00000E+00
 -1      2171 5.44814E+01 2.07624E+01 0.00000E+00
 -1      2172 5.25161E+01 1.85934E+01 0.00000E+00
 -1      2173 5.32462E+01 1.90989E+01 0.00000E+00
 -1      2174 3.89700E+00 3.74688E+01 0.00000E+00
 -1      2175 3.89700E+00 3.89437E+01 0.00000E+00
 -1      2176 5.19600E+00 3.96813E+01 0.00000E+00
 -1      2177 5.19600E+00 3.67438E+01 0.00000E+00
 -1      2178 4.90692E+01 1.71076E+01 0.00000E+00
 -1      2179 4.99276E+01 1.72625E+01 0.00000E+00
 -1      2180 4.72830E+01 1.69293E+01 0.00000E+00
 -1      2181 4.81506E+01 1.70195E+01 0.00000E+00
 -1      2182 4.53369E+01 1.70739E+01 0.00000E+00
 -1      2183 4.62039E+01 1.68989E+01 0.00000E+00
 -1      2184 4.35897E+01 1.75737E+01 0.00000E+00
 -1      2185 4.44371E+01 1.73345E+01 0.00000E+00
 -1      2186 4.18329E+01 1.83301E+01 0.00000E+00
 -1      2187 4.26195E+01 1.79164E+01 0.00000E+00
 -1      2188 4.02990E+01 1.97126E+01 0.00000E+00
 -1      2189 4.08648E+01 1.90174E+01 0.00000E+00
 -1      2190 3.92388E+01 2.12454E+01 0.00000E+00
 -1      2191 3.97689E+01 2.04790E+01 0.00000E+00
 -1      2192 3.94192E+01 1.96165E+01 0.00000E+00
 -1      2193 3.85583E+01 2.32754E+01 0.00000E+00
 -1      2194 3.88315E+01 2.23720E+01 0.00000E+00
 -1      2195 3.81887E+01 2.52122E+01 0.00000E+00
 -1      2196 3.82140E+01 2.43315E+01 0.00000E+00
 -1      2197 3.83985E+01 2.69677E+01 0.00000E+00
 -1      2198 3.83620E+01 2.61253E+01 0.00000E+00
 -1      2199 3.88983E+01 2.88048E+01 0.00000E+00
 -1      2200 3.86028E+01 2.79894E+01 0.00000E+00
 -1      2201 3.97164E+01 3.04311E+01 0.00000E+00
 -1      2202 3.92984E+01 2.96820E+01 0.00000E+00
 -1      2203 4.07106E+01 3.19644E+01 0.00000E+00
 -1      2204 4.01924E+01 3.12520E+01 0.00000E+00
 -1      2205 4.22556E+01 3.32594E+01 0.00000E+00
 -1      2206 4.15033E+01 3.28043E+01 0.00000E+00
 -1      2207 4.38626E+01 3.40104E+01 0.00000E+00
 -1      2208 4.31058E+01 3.36636E+01 0.00000E+00
 -1      2209 4.55653E+01 3.45478E+01 0.00000E+00
 -1      2210 4.47697E+01 3.43643E+01 0.00000E+00
 -1      2211 4.72695E+01 3.47475E+01 0.00000E+00
 -1      2212 4.64174E+01 3.46477E+01 0.00000E+00
 -1      2213 4.58456E+01 3.53098E+01 0.00000E+00
 -1      2214 4.92694E+01 3.44395E+01 0.00000E+00
 -1      2215 4.84510E+01 3.46727E+01 0.00000E+00
 -1      2216 5.08277E+01 3.37734E+01 0.00000E+00
 -1      2217 5.00896E+01 3.40712E+01 0.00000E+00
 -1      2218 5.23340E+01 3.29449E+01 0.00000E+00
 -1      2219 5.16661E+01 3.33821E+01 0.00000E+00
 -1      2220 5.36774E+01 3.18583E+01 0.00000E+00
 -1      2221 5.30247E+01 3.23877E+01 0.00000E+00
 -1      2222 5.49461E+01 3.03886E+01 0.00000E+00
 -1      2223 5.45493E+01 3.11270E+01 0.00000E+00
 -1      2224 5.55542E+01 2.89154E+01 0.00000E+00
 -1      2225 5.52501E+01 2.96520E+01 0.00000E+00
 -1      2226 5.58072E+01 3.04271E+01 0.00000E+00
 -1      2227 5.59065E+01 2.71003E+01 0.00000E+00
 -1      2228 5.57515E+01 2.78830E+01 0.00000E+00
 -1      2229 5.10398E+01 1.76355E+01 0.00000E+00
 -1      2230 5.17780E+01 1.81145E+01 0.00000E+00
 -1      2231 5.25835E+01 1.77310E+01 0.00000E+00
 -1      2232 5.40712E+01 1.91102E+01 0.00000E+00
 -1      2233 6.42300E+00 4.57510E+01 0.00000E+00
 -1      2234 5.07331E+01 1.68791E+01 0.00000E+00
 -1      2235 7.17300E+00 4.44520E+01 0.00000E+00
 -1      2236 5.62410E+01 2.25849E+01 0.00000E+00
 -1      2237 5.67398E+01 2.46553E+01 0.00000E+00
 -1      2238 1.45665E+02 4.31193E+01 0.00000E+00
 -1      2239 5.53302E+01 2.08457E+01 0.00000E+00
 -1      2240 5.66715E+01 2.67237E+01 0.00000E+00
 -1      2241 5.63085E+01 2.86581E+01 0.00000E+00
 -1      2242 5.46312E+01 3.18950E+01 0.00000E+00
 -1      2243 5.30686E+01 3.31836E+01 0.00000E+00
 -1      2244 5.15395E+01 3.41320E+01 0.00000E+00
 -1      2245 4.78792E+01 3.53348E+01 0.00000E+00
 -1      2246 4.40864E+01 3.48562E+01 0.00000E+00
 -1      2247 4.23291E+01 3.40981E+01 0.00000E+00
 -1      2248 4.06863E+01 3.28540E+01 0.00000E+00
 -1      2249 3.94175E+01 3.11932E+01 0.00000E+00
 -1      2250 3.85413E+01 2.94952E+01 0.00000E+00
 -1      2251 3.79370E+01 2.75963E+01 0.00000E+00
 -1      2252 3.75594E+01 2.56615E+01 0.00000E+00
 -1      2253 3.84818E+01 2.15095E+01 0.00000E+00
 -1      2254 4.09174E+01 1.81628E+01 0.00000E+00
 -1      2255 4.28557E+01 1.71328E+01 0.00000E+00
 -1      2256 4.47257E+01 1.65295E+01 0.00000E+00
 -1      2257 4.87024E+01 1.64179E+01 0.00000E+00
 -1      2258 4.67047E+01 1.62994E+01 0.00000E+00
 -1      2259 3.77303E+01 2.36922E+01 0.00000E+00
 -1      2260 4.98809E+01 3.48916E+01 0.00000E+00
 -1      2261 1.07850E+01 5.30525E+00 0.00000E+00
 -1      2262 9.28500E+00 5.30525E+00 0.00000E+00
 -1      2263 6.49500E+00 3.01125E+01 0.00000E+00
 -1      2264 6.49500E+00 3.15875E+01 0.00000E+00
 -1      2265 6.49500E+00 3.30625E+01 0.00000E+00
 -1      2266 6.49500E+00 3.45375E+01 0.00000E+00
 -1      2267 7.79400E+00 3.23250E+01 0.00000E+00
 -1      2268 6.49500E+00 2.42125E+01 0.00000E+00
 -1      2269 6.49500E+00 2.56875E+01 0.00000E+00
 -1      2270 6.49500E+00 2.12625E+01 0.00000E+00
 -1      2271 6.49500E+00 2.27375E+01 0.00000E+00
 -1      2272 7.79400E+00 2.34750E+01 0.00000E+00
 -1      2273 6.49500E+00 1.83625E+01 0.00000E+00
 -1      2274 6.49500E+00 1.98125E+01 0.00000E+00
 -1      2275 7.79400E+00 2.05500E+01 0.00000E+00
 -1      2276 6.49500E+00 1.54125E+01 0.00000E+00
 -1      2277 6.49500E+00 1.68875E+01 0.00000E+00
 -1      2278 7.79400E+00 1.76250E+01 0.00000E+00
 -1      2279 6.49500E+00 1.24625E+01 0.00000E+00
 -1      2280 6.49500E+00 1.39375E+01 0.00000E+00
 -1      2281 7.79400E+00 1.46750E+01 0.00000E+00
 -1      2282 6.49500E+00 9.51250E+00 0.00000E+00
 -1      2283 6.49500E+00 1.09875E+01 0.00000E+00
 -1      2284 7.79400E+00 1.17250E+01 0.00000E+00
 -1      2285 5.43554E+01 1.81113E+01 0.00000E+00
 -1      2286 5.51049E+01 1.90115E+01 0.00000E+00
 -1      2287 1.37850E+01 5.30525E+00 0.00000E+00
 -1      2288 1.22850E+01 5.30525E+00 0.00000E+00
 -1      2289 1.15350E+01 6.60425E+00 0.00000E+00
 -1      2290 9.90000E+00 4.35050E+01 0.00000E+00
 -1      2291 1.14000E+01 4.35050E+01 0.00000E+00
 -1      2292 5.04364E+01 1.59192E+01 0.00000E+00
 -1      2293 5.15486E+01 1.62922E+01 0.00000E+00
 -1      2294 1.29000E+01 4.35050E+01 0.00000E+00
 -1      2295 1.44000E+01 4.35050E+01 0.00000E+00
 -1      2296 1.21500E+01 4.22060E+01 0.00000E+00
 -1      2297 1.59000E+01 4.35050E+01 0.00000E+00
 -1      2298 1.74000E+01 4.35050E+01 0.00000E+00
 -1      2299 1.51500E+01 4.22060E+01 0.00000E+00
 -1      2300 1.89000E+01 4.35050E+01 0.00000E+00
 -1      2301 2.04000E+01 4.35050E+01 0.00000E+00
 -1      2302 1.81500E+01 4.22060E+01 0.00000E+00
 -1      2303 2.19000E+01 4.35050E+01 0.00000E+00
 -1      2304 2.34000E+01 4.35050E+01 0.00000E+00
 -1      2305 2.11500E+01 4.22060E+01 0.00000E+00
 -1      2306 2.49000E+01 4.35050E+01 0.00000E+00
 -1      2307 2.64000E+01 4.35050E+01 0.00000E+00
 -1      2308 2.41500E+01 4.22060E+01 0.00000E+00
 -1      2309 2.79000E+01 4.35050E+01 0.00000E+00
 -1      2310 2.94000E+01 4.35050E+01 0.00000E+00
 -1      2311 2.71500E+01 4.22060E+01 0.00000E+00
 -1      2312 3.09000E+01 4.35050E+01 0.00000E+00
 -1      2313 3.24000E+01 4.35050E+01 0.00000E+00
 -1      2314 3.01500E+01 4.22060E+01 0.00000E+00
 -1      2315 3.39000E+01 4.35050E+01 0.00000E+00
 -1      2316 3.54000E+01 4.35050E+01 0.00000E+00
 -1      2317 3.31500E+01 4.22060E+01 0.00000E+00
 -1      2318 3.69000E+01 4.35050E+01 0.00000E+00
 -1      2319 3.84000E+01 4.35050E+01 0.00000E+00
 -1      2320 3.61500E+01 4.22060E+01 0.00000E+00
 -1      2321 3.99000E+01 4.35050E+01 0.00000E+00
 -1      2322 4.14000E+01 4.35050E+01 0.00000E+00
 -1      2323 3.91500E+01 4.22060E+01 0.00000E+00
 -1      2324 4.29000E+01 4.35050E+01 0.00000E+00
 -1      2325 4.44000E+01 4.35050E+01 0.00000E+00
 -1      2326 4.21500E+01 4.22060E+01 0.00000E+00
 -1      2327 4.59000E+01 4.35050E+01 0.00000E+00
 -1      2328 4.74000E+01 4.35050E+01 0.00000E+00
 -1      2329 4.51500E+01 4.22060E+01 0.00000E+00
 -1      2330 4.89000E+01 4.35050E+01 0.00000E+00
 -1      2331 5.04000E+01 4.35050E+01 0.00000E+00
 -1      2332 4.81500E+01 4.22060E+01 0.00000E+00
 -1      2333 5.19000E+01 4.35050E+01 0.00000E+00
 -1      2334 5.34000E+01 4.35050E+01 0.00000E+00
 -1      2335 5.11500E+01 4.22060E+01 0.00000E+00
 -1      2336 5.49000E+01 4.35050E+01 0.00000E+00
 -1      2337 5.64000E+01 4.35050E+01 0.00000E+00
 -1      2338 5.41500E+01 4.22060E+01 0.00000E+00
 -1      2339 5.79000E+01 4.35050E+01 0.00000E+00
 -1      2340 5.94000E+01 4.35050E+01 0.00000E+00
 -1      2341 5.71500E+01 4.22060E+01 0.00000E+00
 -1      2342 6.09000E+01 4.35050E+01 0.00000E+00
 -1      2343 6.24000E+01 4.35050E+01 0.00000E+00
 -1      2344 6.01500E+01 4.22060E+01 0.00000E+00
 -1      2345 6.39000E+01 4.35050E+01 0.00000E+00
 -1      2346 6.54000E+01 4.35050E+01 0.00000E+00
 -1      2347 6.31500E+01 4.22060E+01 0.00000E+00
 -1      2348 6.69000E+01 4.35050E+01 0.00000E+00
 -1      2349 6.84000E+01 4.35050E+01 0.00000E+00
 -1      2350 6.61500E+01 4.22060E+01 0.00000E+00
 -1      2351 6.99000E+01 4.35050E+01 0.00000E+00
 -1      2352 7.14000E+01 4.35050E+01 0.00000E+00
 -1      2353 6.91500E+01 4.22060E+01 0.00000E+00
 -1      2354 7.29000E+01 4.35050E+01 0.00000E+00
 -1      2355 7.44000E+01 4.35050E+01 0.00000E+00
 -1      2356 7.21500E+01 4.22060E+01 0.00000E+00
 -1      2357 7.59000E+01 4.35050E+01 0.00000E+00
 -1      2358 7.74000E+01 4.35050E+01 0.00000E+00
 -1      2359 7.51500E+01 4.22060E+01 0.00000E+00
 -1      2360 7.89000E+01 4.35050E+01 0.00000E+00
 -1      2361 8.04000E+01 4.35050E+01 0.00000E+00
 -1      2362 7.81500E+01 4.22060E+01 0.00000E+00
 -1      2363 8.19000E+01 4.35050E+01 0.00000E+00
 -1      2364 8.34000E+01 4.35050E+01 0.00000E+00
 -1      2365 8.11500E+01 4.22060E+01 0.00000E+00
 -1      2366 8.49000E+01 4.35050E+01 0.00000E+00
 -1      2367 8.64000E+01 4.35050E+01 0.00000E+00
 -1      2368 8.41500E+01 4.22060E+01 0.00000E+00
 -1      2369 8.79000E+01 4.35050E+01 0.00000E+00
 -1      2370 8.94000E+01 4.35050E+01 0.00000E+00
 -1      2371 8.71500E+01 4.22060E+01 0.00000E+00
 -1      2372 9.09000E+01 4.35050E+01 0.00000E+00
 -1      2373 9.24000E+01 4.35050E+01 0.00000E+00
 -1      2374 9.01500E+01 4.22060E+01 0.00000E+00
 -1      2375 9.39000E+01 4.35050E+01 0.00000E+00
 -1      2376 9.54000E+01 4.35050E+01 0.00000E+00
 -1      2377 9.31500E+01 4.22060E+01 0.00000E+00
 -1      2378 9.69000E+01 4.35050E+01 0.00000E+00
 -1      2379 9.84000E+01 4.35050E+01 0.00000E+00
 -1      2380 9.61500E+01 4.22060E+01 0.00000E+00
 -1      2381 9.99000E+01 4.35050E+01 0.00000E+00
 -1      2382 1.01400E+02 4.35050E+01 0.00000E+00
 -1      2383 9.91500E+01 4.22060E+01 0.00000E+00
 -1      2384 1.02900E+02 4.35050E+01 0.00000E+00
 -1      2385 1.04400E+02 4.35050E+01 0.00000E+00
 -1      2386 1.02150E+02 4.22060E+01 0.00000E+00
 -1      2387 1.05900E+02 4.35050E+01 0.00000E+00
 -1      2388 1.07400E+02 4.35050E+01 0.00000E+00
 -1      2389 1.05150E+02 4.22060E+01 0.00000E+00
 -1      2390 1.08900E+02 4.35050E+01 0.00000E+00
 -1      2391 1.10400E+02 4.35050E+01 0.00000E+00
 -1      2392 1.08150E+02 4.22060E+01 0.00000E+00
 -1      2393 1.11900E+02 4.35050E+01 0.00000E+00
 -1      2394 1.13400E+02 4.35050E+01 0.00000E+00
 -1      2395 1.11150E+02 4.22060E+01 0.00000E+00
 -1      2396 1.14900E+02 4.35050E+01 0.00000E+00
 -1      2397 1.16400E+02 4.35050E+01 0.00000E+00
 -1      2398 1.14150E+02 4.22060E+01 0.00000E+00
 -1      2399 1.17900E+02 4.35050E+01 0.00000E+00
 -1      2400 1.19400E+02 4.35050E+01 0.00000E+00
 -1      2401 1.17150E+02 4.22060E+01 0.00000E+00
 -1      2402 1.20900E+02 4.35050E+01 0.00000E+00
 -1      2403 1.22400E+02 4.35050E+01 0.00000E+00
 -1      2404 1.20150E+02 4.22060E+01 0.00000E+00
 -1      2405 1.23900E+02 4.35050E+01 0.00000E+00
 -1      2406 1.25400E+02 4.35050E+01 0.00000E+00
 -1      2407 1.23150E+02 4.22060E+01 0.00000E+00
 -1      2408 1.26900E+02 4.35050E+01 0.00000E+00
 -1      2409 1.28400E+02 4.35050E+01 0.00000E+00
 -1      2410 1.26150E+02 4.22060E+01 0.00000E+00
 -1      2411 1.29900E+02 4.35050E+01 0.00000E+00
 -1      2412 1.31400E+02 4.35050E+01 0.00000E+00
 -1      2413 1.29150E+02 4.22060E+01 0.00000E+00
 -1      2414 1.32900E+02 4.35050E+01 0.00000E+00
 -1      2415 1.34400E+02 4.35050E+01 0.00000E+00
 -1      2416 1.32150E+02 4.22060E+01 0.00000E+00
 -1      2417 1.35900E+02 4.35050E+01 0.00000E+00
 -1      2418 1.37400E+02 4.35050E+01 0.00000E+00
 -1      2419 1.35150E+02 4.22060E+01 0.00000E+00
 -1      2420 1.38900E+02 4.35050E+01 0.00000E+00
 -1      2421 1.40400E+02 4.35050E+01 0.00000E+00
 -1      2422 1.38150E+02 4.22060E+01 0.00000E+00
 -1      2423 1.97850E+01 5.30525E+00 0.00000E+00
 -1      2424 1.82850E+01 5.30525E+00 0.00000E+00
 -1      2425 2.27850E+01 5.30525E+00 0.00000E+00
 -1      2426 2.12850E+01 5.30525E+00 0.00000E+00
 -1      2427 2.05350E+01 6.60425E+00 0.00000E+00
 -1      2428 2.57850E+01 5.30525E+00 0.00000E+00
 -1      2429 2.42850E+01 5.30525E+00 0.00000E+00
 -1      2430 2.35350E+01 6.60425E+00 0.00000E+00
 -1      2431 2.87850E+01 5.30525E+00 0.00000E+00
 -1      2432 2.72850E+01 5.30525E+00 0.00000E+00
 -1      2433 2.65350E+01 6.60425E+00 0.00000E+00
 -1      2434 3.17850E+01 5.30525E+00 0.00000E+00
 -1      2435 3.02850E+01 5.30525E+00 0.00000E+00
 -1      2436 2.95350E+01 6.60425E+00 0.00000E+00
 -1      2437 3.47850E+01 5.30525E+00 0.00000E+00
 -1      2438 3.32850E+01 5.30525E+00 0.00000E+00
 -1      2439 3.25350E+01 6.60425E+00 0.00000E+00
 -1      2440 3.77850E+01 5.30525E+00 0.00000E+00
 -1      2441 3.62850E+01 5.30525E+00 0.00000E+00
 -1      2442 3.55350E+01 6.60425E+00 0.00000E+00
 -1      2443 4.07850E+01 5.30525E+00 0.00000E+00
 -1      2444 3.92850E+01 5.30525E+00 0.00000E+00
 -1      2445 3.85350E+01 6.60425E+00 0.00000E+00
 -1      2446 4.37850E+01 5.30525E+00 0.00000E+00
 -1      2447 4.22850E+01 5.30525E+00 0.00000E+00
 -1      2448 4.15350E+01 6.60425E+00 0.00000E+00
 -1      2449 4.67850E+01 5.30525E+00 0.00000E+00
 -1      2450 4.52850E+01 5.30525E+00 0.00000E+00
 -1      2451 4.45350E+01 6.60425E+00 0.00000E+00
 -1      2452 4.97850E+01 5.30525E+00 0.00000E+00
 -1      2453 4.82850E+01 5.30525E+00 0.00000E+00
 -1      2454 4.75350E+01 6.60425E+00 0.00000E+00
 -1      2455 5.27850E+01 5.30525E+00 0.00000E+00
 -1      2456 5.12850E+01 5.30525E+00 0.00000E+00
 -1      2457 5.05350E+01 6.60425E+00 0.00000E+00
 -1      2458 5.57850E+01 5.30525E+00 0.00000E+00
 -1      2459 5.42850E+01 5.30525E+00 0.00000E+00
 -1      2460 5.35350E+01 6.60425E+00 0.00000E+00
 -1      2461 5.87850E+01 5.30525E+00 0.00000E+00
 -1      2462 5.72850E+01 5.30525E+00 0.00000E+00
 -1      2463 5.65350E+01 6.60425E+00 0.00000E+00
 -1      2464 6.17850E+01 5.30525E+00 0.00000E+00
 -1      2465 6.02850E+01 5.30525E+00 0.00000E+00
 -1      2466 5.95350E+01 6.60425E+00 0.00000E+00
 -1      2467 6.47850E+01 5.30525E+00 0.00000E+00
 -1      2468 6.32850E+01 5.30525E+00 0.00000E+00
 -1      2469 6.25350E+01 6.60425E+00 0.00000E+00
 -1      2470 6.77850E+01 5.30525E+00 0.00000E+00
 -1      2471 6.62850E+01 5.30525E+00 0.00000E+00
 -1      2472 6.55350E+01 6.60425E+00 0.00000E+00
 -1      2473 7.07850E+01 5.30525E+00 0.00000E+00
 -1      2474 6.92850E+01 5.30525E+00 0.00000E+00
 -1      2475 6.85350E+01 6.60425E+00 0.00000E+00
 -1      2476 7.37850E+01 5.30525E+00 0.00000E+00
 -1      2477 7.22850E+01 5.30525E+00 0.00000E+00
 -1      2478 7.15350E+01 6.60425E+00 0.00000E+00
 -1      2479 7.67850E+01 5.30525E+00 0.00000E+00
 -1      2480 7.52850E+01 5.30525E+00 0.00000E+00
 -1      2481 7.45350E+01 6.60425E+00 0.00000E+00
 -1      2482 7.97850E+01 5.30525E+00 0.00000E+00
 -1      2483 7.82850E+01 5.30525E+00 0.00000E+00
 -1      2484 7.75350E+01 6.60425E+00 0.00000E+00
 -1      2485 8.27850E+01 5.30525E+00 0.00000E+00
 -1      2486 8.12850E+01 5.30525E+00 0.00000E+00
 -1      2487 8.05350E+01 6.60425E+00 0.00000E+00
 -1      2488 8.57850E+01 5.30525E+00 0.00000E+00
 -1      2489 8.42850E+01 5.30525E+00 0.00000E+00
 -1      2490 8.35350E+01 6.60425E+00 0.00000E+00
 -1      2491 8.87850E+01 5.30525E+00 0.00000E+00
 -1      2492 8.72850E+01 5.30525E+00 0.00000E+00
 -1      2493 8.65350E+01 6.60425E+00 0.00000E+00
 -1      2494 9.17850E+01 5.30525E+00 0.00000E+00
 -1      2495 9.02850E+01 5.30525E+00 0.00000E+00
 -1      2496 8.95350E+01 6.60425E+00 0.00000E+00
 -1      2497 9.47850E+01 5.30525E+00 0.00000E+00
 -1      2498 9.32850E+01 5.30525E+00 0.00000E+00
 -1      2499 9.25350E+01 6.60425E+00 0.00000E+00
 -1      2500 9.77850E+01 5.30525E+00 0.00000E+00
 -1      2501 9.62850E+01 5.30525E+00 0.00000E+00
 -1      2502 9.55350E+01 6.60425E+00 0.00000E+00
 -1      2503 1.00785E+02 5.30525E+00 0.00000E+00
 -1      2504 9.92850E+01 5.30525E+00 0.00000E+00
 -1      2505 9.85350E+01 6.60425E+00 0.00000E+00
 -1      2506 1.03785E+02 5.30525E+00 0.00000E+00
 -1      2507 1.02285E+02 5.30525E+00 0.00000E+00
 -1      2508 1.01535E+02 6.60425E+00 0.00000E+00
 -1      2509 1.06785E+02 5.30525E+00 0.00000E+00
 -1      2510 1.05285E+02 5.30525E+00 0.00000E+00
 -1      2511 1.04535E+02 6.60425E+00 0.00000E+00
 -1      2512 1.09785E+02 5.30525E+00 0.00000E+00
 -1      2513 1.08285E+02 5.30525E+00 0.00000E+00
 -1      2514 1.07535E+02 6.60425E+00 0.00000E+00
 -1      2515 1.12785E+02 5.30525E+00 0.00000E+00
 -1      2516 1.11285E+02 5.30525E+00 0.00000E+00
 -1      2517 1.10535E+02 6.60425E+00 0.00000E+00
 -1      2518 1.15785E+02 5.30525E+00 0.00000E+00
 -1      2519 1.14285E+02 5.30525E+00 0.00000E+00
 -1      2520 1.13535E+02 6.60425E+00 0.00000E+00
 -1      2521 1.18785E+02 5.30525E+00 0.00000E+00
 -1      2522 1.17285E+02 5.30525E+00 0.00000E+00
 -1      2523 1.16535E+02 6.60425E+00 0.00000E+00
 -1      2524 1.21785E+02 5.30525E+00 0.00000E+00
 -1      2525 1.20285E+02 5.30525E+00 0.00000E+00
 -1      2526 1.19535E+02 6.60425E+00 0.00000E+00
 -1      2527 1.24785E+02 5.30525E+00 0.00000E+00
 -1      2528 1.23285E+02 5.30525E+00 0.00000E+00
 -1      2529 1.22535E+02 6.60425E+00 0.00000E+00
 -1      2530 1.27785E+02 5.30525E+00 0.00000E+00
 -1      2531 1.26285E+02 5.30525E+00 0.00000E+00
 -1      2532 1.25535E+02 6.60425E+00 0.00000E+00
 -1      2533 1.30785E+02 5.30525E+00 0.00000E+00
 -1      2534 1.29285E+02 5.30525E+00 0.00000E+00
 -1      2535 1.28535E+02 6.60425E+00 0.00000E+00
 -1      2536 1.33785E+02 5.30525E+00 0.00000E+00
 -1      2537 1.32285E+02 5.30525E+00 0.00000E+00
 -1      2538 1.31535E+02 6.60425E+00 0.00000E+00
 -1      2539 1.36785E+02 5.30525E+00 0.00000E+00
 -1      2540 1.35285E+02 5.30525E+00 0.00000E+00
 -1      2541 1.34535E+02 6.60425E+00 0.00000E+00
 -1      2542 1.39785E+02 5.30525E+00 0.00000E+00
 -1      2543 1.38285E+02 5.30525E+00 0.00000E+00
 -1      2544 1.37535E+02 6.60425E+00 0.00000E+00
 -1      2545 1.42785E+02 5.30525E+00 0.00000E+00
 -1      2546 1.41285E+02 5.30525E+00 0.00000E+00
 -1      2547 1.40535E+02 6.60425E+00 0.00000E+00
 -1      2548 1.44336E+02 5.26953E+00 0.00000E+00
 -1      2549 1.43505E+02 1.69125E+01 0.00000E+00
 -1      2550 1.43505E+02 1.54375E+01 0.00000E+00
 -1      2551 1.43505E+02 1.98625E+01 0.00000E+00
 -1      2552 1.43505E+02 1.83875E+01 0.00000E+00
 -1      2553 1.42206E+02 1.76500E+01 0.00000E+00
 -1      2554 1.43505E+02 1.10625E+01 0.00000E+00
 -1      2555 1.43505E+02 9.58750E+00 0.00000E+00
 -1      2556 1.43505E+02 1.39750E+01 0.00000E+00
 -1      2557 1.43505E+02 1.25250E+01 0.00000E+00
 -1      2558 1.42206E+02 1.17875E+01 0.00000E+00
 -1      2559 1.42206E+02 1.47125E+01 0.00000E+00
 -1      2560 1.43505E+02 2.28125E+01 0.00000E+00
 -1      2561 1.43505E+02 2.13375E+01 0.00000E+00
 -1      2562 1.42206E+02 2.06000E+01 0.00000E+00
 -1      2563 1.43505E+02 2.57625E+01 0.00000E+00
 -1      2564 1.43505E+02 2.42875E+01 0.00000E+00
 -1      2565 1.42206E+02 2.35500E+01 0.00000E+00
 -1      2566 1.43505E+02 2.87125E+01 0.00000E+00
 -1      2567 1.43505E+02 2.72375E+01 0.00000E+00
 -1      2568 1.42206E+02 2.65000E+01 0.00000E+00
 -1      2569 1.43505E+02 3.16125E+01 0.00000E+00
 -1      2570 1.43505E+02 3.01625E+01 0.00000E+00
 -1      2571 1.42206E+02 2.94250E+01 0.00000E+00
 -1      2572 1.43505E+02 3.45625E+01 0.00000E+00
 -1      2573 1.43505E+02 3.30875E+01 0.00000E+00
 -1      2574 1.42206E+02 3.23500E+01 0.00000E+00
 -1      2575 1.43505E+02 3.75125E+01 0.00000E+00
 -1      2576 1.43505E+02 3.60375E+01 0.00000E+00
 -1      2577 1.42206E+02 3.53000E+01 0.00000E+00
 -1      2578 1.43505E+02 4.04625E+01 0.00000E+00
 -1      2579 1.43505E+02 3.89875E+01 0.00000E+00
 -1      2580 1.42206E+02 3.82500E+01 0.00000E+00
 -1      2581 5.75040E+01 2.40042E+01 0.00000E+00
 -1      2582 5.76014E+01 2.51707E+01 0.00000E+00
 -1      2583 5.57360E+01 2.00251E+01 0.00000E+00
 -1      2584 5.62455E+01 2.08604E+01 0.00000E+00
 -1      2585 1.67850E+01 5.30525E+00 0.00000E+00
 -1      2586 1.52850E+01 5.30525E+00 0.00000E+00
 -1      2587 1.75350E+01 6.60425E+00 0.00000E+00
 -1      2588 1.44321E+02 4.30606E+01 0.00000E+00
 -1      2589 5.75978E+01 2.64277E+01 0.00000E+00
 -1      2590 5.74321E+01 2.73296E+01 0.00000E+00
 -1      2591 5.68241E+01 2.17849E+01 0.00000E+00
 -1      2592 5.72255E+01 2.26888E+01 0.00000E+00
 -1      2593 6.55950E+00 4.28890E+01 0.00000E+00
 -1      2594 8.53650E+00 4.32410E+01 0.00000E+00
 -1      2595 9.28650E+00 4.19420E+01 0.00000E+00
 -1      2596 6.55950E+00 4.14140E+01 0.00000E+00
 -1      2597 5.56182E+01 3.21864E+01 0.00000E+00
 -1      2598 5.47463E+01 3.29177E+01 0.00000E+00
 -1      2599 4.42283E+01 3.58320E+01 0.00000E+00
 -1      2600 4.33212E+01 3.54782E+01 0.00000E+00
 -1      2601 3.99369E+01 1.78072E+01 0.00000E+00
 -1      2602 4.09051E+01 1.71199E+01 0.00000E+00
 -1      2603 6.49500E+00 2.71625E+01 0.00000E+00
 -1      2604 6.49500E+00 2.86375E+01 0.00000E+00
 -1      2605 7.79400E+00 2.93750E+01 0.00000E+00
 -1      2606 7.79400E+00 2.64250E+01 0.00000E+00
 -1      2607 4.61893E+01 1.54270E+01 0.00000E+00
 -1      2608 4.72684E+01 1.54574E+01 0.00000E+00
 -1      2609 3.67428E+01 2.39545E+01 0.00000E+00
 -1      2610 3.70871E+01 2.28984E+01 0.00000E+00
 -1      2611 4.83170E+01 1.56036E+01 0.00000E+00
 -1      2612 4.92355E+01 1.56917E+01 0.00000E+00
 -1      2613 4.40606E+01 1.59166E+01 0.00000E+00
 -1      2614 4.49605E+01 1.56560E+01 0.00000E+00
 -1      2615 4.21129E+01 1.65746E+01 0.00000E+00
 -1      2616 4.30831E+01 1.62318E+01 0.00000E+00
 -1      2617 3.84489E+01 1.95119E+01 0.00000E+00
 -1      2618 3.89789E+01 1.87455E+01 0.00000E+00
 -1      2619 5.06423E+01 3.54898E+01 0.00000E+00
 -1      2620 4.98221E+01 3.58581E+01 0.00000E+00
 -1      2621 3.74944E+01 2.17718E+01 0.00000E+00
 -1      2622 3.79016E+01 2.06453E+01 0.00000E+00
 -1      2623 3.65069E+01 2.20341E+01 0.00000E+00
 -1      2624 3.69271E+01 2.62546E+01 0.00000E+00
 -1      2625 3.67537E+01 2.53415E+01 0.00000E+00
 -1      2626 3.73355E+01 2.82980E+01 0.00000E+00
 -1      2627 3.71313E+01 2.72763E+01 0.00000E+00
 -1      2628 3.63256E+01 2.69563E+01 0.00000E+00
 -1      2629 3.80755E+01 3.02375E+01 0.00000E+00
 -1      2630 3.76754E+01 2.93603E+01 0.00000E+00
 -1      2631 3.89137E+01 3.20339E+01 0.00000E+00
 -1      2632 3.84376E+01 3.12130E+01 0.00000E+00
 -1      2633 4.04590E+01 3.38626E+01 0.00000E+00
 -1      2634 3.96663E+01 3.30226E+01 0.00000E+00
 -1      2635 4.24711E+01 3.50740E+01 0.00000E+00
 -1      2636 4.16209E+01 3.46697E+01 0.00000E+00
 -1      2637 4.26130E+01 3.60498E+01 0.00000E+00
 -1      2638 4.61718E+01 3.62115E+01 0.00000E+00
 -1      2639 4.53197E+01 3.61116E+01 0.00000E+00
 -1      2640 4.85295E+01 3.62368E+01 0.00000E+00
 -1      2641 4.73480E+01 3.63117E+01 0.00000E+00
 -1      2642 5.23192E+01 3.47073E+01 0.00000E+00
 -1      2643 5.14807E+01 3.50985E+01 0.00000E+00
 -1      2644 5.14219E+01 3.60650E+01 0.00000E+00
 -1      2645 5.40557E+01 3.34750E+01 0.00000E+00
 -1      2646 5.33650E+01 3.40322E+01 0.00000E+00
 -1      2647 5.50427E+01 3.37663E+01 0.00000E+00
 -1      2648 5.68293E+01 3.04180E+01 0.00000E+00
 -1      2649 5.65252E+01 3.11546E+01 0.00000E+00
 -1      2650 5.72294E+01 2.83576E+01 0.00000E+00
 -1      2651 5.70321E+01 2.93901E+01 0.00000E+00
 -1      2652 5.77502E+01 3.01175E+01 0.00000E+00
 -1      2653 5.81557E+01 2.80616E+01 0.00000E+00
 -1      2654 5.27724E+01 1.66316E+01 0.00000E+00
 -1      2655 5.35105E+01 1.71106E+01 0.00000E+00
 -1      2656 8.07525E+00 5.11044E+00 0.00000E+00
 -1      2657 6.57525E+00 5.11044E+00 0.00000E+00
 -1      2658 6.40575E+00 6.01981E+00 0.00000E+00
 -1      2659 8.82525E+00 6.40944E+00 0.00000E+00
 -1      2660 4.78016E+01 1.47312E+01 0.00000E+00
 -1      2661 7.79400E+00 3.52687E+01 0.00000E+00
 -1      2662 6.49500E+00 3.60062E+01 0.00000E+00
 -1      2663 6.49500E+00 3.74750E+01 0.00000E+00
 -1      2664 5.60203E+01 1.90263E+01 0.00000E+00
 -1      2665 5.45443E+01 1.70119E+01 0.00000E+00
 -1      2666 6.40575E+00 7.49481E+00 0.00000E+00
 -1      2667 5.66404E+01 3.21773E+01 0.00000E+00
 -1      2668 5.24756E+01 1.56718E+01 0.00000E+00
 -1      2669 7.70475E+00 8.23231E+00 0.00000E+00
 -1      2670 5.33062E+01 3.49986E+01 0.00000E+00
 -1      2671 1.43586E+02 6.56853E+00 0.00000E+00
 -1      2672 1.43419E+02 7.72713E+00 0.00000E+00
 -1      2673 4.92909E+01 3.68350E+01 0.00000E+00
 -1      2674 5.83620E+01 2.57766E+01 0.00000E+00
 -1      2675 5.80870E+01 2.32042E+01 0.00000E+00
 -1      2676 5.72300E+01 2.09643E+01 0.00000E+00
 -1      2677 4.06009E+01 3.48384E+01 0.00000E+00
 -1      2678 1.45350E+01 6.60425E+00 0.00000E+00
 -1      2679 3.86864E+01 3.30424E+01 0.00000E+00
 -1      2680 4.45545E+01 3.67337E+01 0.00000E+00
 -1      2681 3.68697E+01 2.90403E+01 0.00000E+00
 -1      2682 3.74614E+01 1.97742E+01 0.00000E+00
 -1      2683 4.11324E+01 1.62190E+01 0.00000E+00
 -1      2684 4.33178E+01 1.53583E+01 0.00000E+00
 -1      2685 3.89666E+01 1.77026E+01 0.00000E+00
 -1      2686 6.55950E+00 3.99453E+01 0.00000E+00
 -1      2687 5.00510E+01 1.51049E+01 0.00000E+00
 -1      2688 3.61105E+01 2.45476E+01 0.00000E+00
 -1      2689 3.54673E+01 2.37538E+01 0.00000E+00
 -1      2690 3.54782E+01 2.51407E+01 0.00000E+00
 -1      2691 4.55242E+01 1.48140E+01 0.00000E+00
 -1      2692 3.75717E+01 3.10781E+01 0.00000E+00
 -1      2693 4.68221E+01 3.71135E+01 0.00000E+00
 -1      2694 1.42758E+02 4.35929E+01 0.00000E+00
 -1      2695 1.43241E+02 4.17323E+01 0.00000E+00
 -1      2696 1.41942E+02 4.09948E+01 0.00000E+00
 -1      2697 1.41414E+02 4.35342E+01 0.00000E+00
 -1      2698 1.42120E+02 8.46463E+00 0.00000E+00
 -1      2699 1.40664E+02 4.22352E+01 0.00000E+00
 -1      2700 9.09300E+00 1.98250E+01 0.00000E+00
 -1      2701 9.09300E+00 2.12750E+01 0.00000E+00
 -1      2702 9.09300E+00 2.27500E+01 0.00000E+00
 -1      2703 9.09300E+00 2.42250E+01 0.00000E+00
 -1      2704 1.03920E+01 2.20250E+01 0.00000E+00
 -1      2705 9.09300E+00 1.39375E+01 0.00000E+00
 -1      2706 9.09300E+00 1.54125E+01 0.00000E+00
 -1      2707 9.09300E+00 1.09875E+01 0.00000E+00
 -1      2708 9.09300E+00 1.24625E+01 0.00000E+00
 -1      2709 1.03920E+01 1.32000E+01 0.00000E+00
 -1      2710 5.42942E+01 3.53816E+01 0.00000E+00
 -1      2711 5.32484E+01 3.60567E+01 0.00000E+00
 -1      2712 1.22850E+01 7.90325E+00 0.00000E+00
 -1      2713 1.07850E+01 7.90325E+00 0.00000E+00
 -1      2714 1.44000E+01 4.09070E+01 0.00000E+00
 -1      2715 1.59000E+01 4.09070E+01 0.00000E+00
 -1      2716 1.74000E+01 4.09070E+01 0.00000E+00
 -1      2717 1.89000E+01 4.09070E+01 0.00000E+00
 -1      2718 1.66500E+01 3.96080E+01 0.00000E+00
 -1      2719 2.04000E+01 4.09070E+01 0.00000E+00
 -1      2720 2.19000E+01 4.09070E+01 0.00000E+00
 -1      2721 1.96500E+01 3.96080E+01 0.00000E+00
 -1      2722 2.34000E+01 4.09070E+01 0.00000E+00
 -1      2723 2.49000E+01 4.09070E+01 0.00000E+00
 -1      2724 2.26500E+01 3.96080E+01 0.00000E+00
 -1      2725 2.64000E+01 4.09070E+01 0.00000E+00
 -1      2726 2.79000E+01 4.09070E+01 0.00000E+00
 -1      2727 2.56500E+01 3.96080E+01 0.00000E+00
 -1      2728 2.94000E+01 4.09070E+01 0.00000E+00
 -1      2729 3.09000E+01 4.09070E+01 0.00000E+00
 -1      2730 2.86500E+01 3.96080E+01 0.00000E+00
 -1      2731 3.24000E+01 4.09070E+01 0.00000E+00
 -1      2732 3.39000E+01 4.09070E+01 0.00000E+00
 -1      2733 3.16500E+01 3.96080E+01 0.00000E+00
 -1      2734 3.54000E+01 4.09070E+01 0.00000E+00
 -1      2735 3.69000E+01 4.09070E+01 0.00000E+00
 -1      2736 3.46500E+01 3.96080E+01 0.00000E+00
 -1      2737 3.84000E+01 4.09070E+01 0.00000E+00
 -1      2738 3.99000E+01 4.09070E+01 0.00000E+00
 -1      2739 3.76500E+01 3.96080E+01 0.00000E+00
 -1      2740 4.14000E+01 4.09070E+01 0.00000E+00
 -1      2741 4.29000E+01 4.09070E+01 0.00000E+00
 -1      2742 4.06500E+01 3.96080E+01 0.00000E+00
 -1      2743 4.74000E+01 4.10133E+01 0.00000E+00
 -1      2744 4.89000E+01 4.10133E+01 0.00000E+00
 -1      2745 5.04000E+01 4.10133E+01 0.00000E+00
 -1      2746 5.19000E+01 4.10133E+01 0.00000E+00
 -1      2747 4.96500E+01 3.98206E+01 0.00000E+00
 -1      2748 5.34000E+01 4.10133E+01 0.00000E+00
 -1      2749 5.49000E+01 4.10133E+01 0.00000E+00
 -1      2750 5.26500E+01 3.98206E+01 0.00000E+00
 -1      2751 5.64000E+01 4.10133E+01 0.00000E+00
 -1      2752 5.79000E+01 4.10133E+01 0.00000E+00
 -1      2753 5.56500E+01 3.98206E+01 0.00000E+00
 -1      2754 5.94000E+01 4.10133E+01 0.00000E+00
 -1      2755 6.09000E+01 4.10133E+01 0.00000E+00
 -1      2756 5.86500E+01 3.98206E+01 0.00000E+00
 -1      2757 6.24000E+01 4.10133E+01 0.00000E+00
 -1      2758 6.39000E+01 4.10133E+01 0.00000E+00
 -1      2759 6.16500E+01 3.98206E+01 0.00000E+00
 -1      2760 6.54000E+01 4.10133E+01 0.00000E+00
 -1      2761 6.69000E+01 4.10133E+01 0.00000E+00
 -1      2762 6.46500E+01 3.98206E+01 0.00000E+00
 -1      2763 6.84000E+01 4.10133E+01 0.00000E+00
 -1      2764 6.99000E+01 4.10133E+01 0.00000E+00
 -1      2765 6.76500E+01 3.98206E+01 0.00000E+00
 -1      2766 7.14000E+01 4.10133E+01 0.00000E+00
 -1      2767 7.29000E+01 4.10133E+01 0.00000E+00
 -1      2768 7.06500E+01 3.98206E+01 0.00000E+00
 -1      2769 7.44000E+01 4.10133E+01 0.00000E+00
 -1      2770 7.59000E+01 4.10133E+01 0.00000E+00
 -1      2771 7.36500E+01 3.98206E+01 0.00000E+00
 -1      2772 7.74000E+01 4.10133E+01 0.00000E+00
 -1      2773 7.89000E+01 4.10133E+01 0.00000E+00
 -1      2774 7.66500E+01 3.98206E+01 0.00000E+00
 -1      2775 8.04000E+01 4.10133E+01 0.00000E+00
 -1      2776 8.19000E+01 4.10133E+01 0.00000E+00
 -1      2777 7.96500E+01 3.98206E+01 0.00000E+00
 -1      2778 8.34000E+01 4.10133E+01 0.00000E+00
 -1      2779 8.49000E+01 4.10133E+01 0.00000E+00
 -1      2780 8.26500E+01 3.98206E+01 0.00000E+00
 -1      2781 8.64000E+01 4.10133E+01 0.00000E+00
 -1      2782 8.79000E+01 4.10133E+01 0.00000E+00
 -1      2783 8.56500E+01 3.98206E+01 0.00000E+00
 -1      2784 8.94000E+01 4.10133E+01 0.00000E+00
 -1      2785 9.09000E+01 4.10133E+01 0.00000E+00
 -1      2786 8.86500E+01 3.98206E+01 0.00000E+00
 -1      2787 9.24000E+01 4.10133E+01 0.00000E+00
 -1      2788 9.39000E+01 4.10133E+01 0.00000E+00
 -1      2789 9.16500E+01 3.98206E+01 0.00000E+00
 -1      2790 9.54000E+01 4.10133E+01 0.00000E+00
 -1      2791 9.69000E+01 4.10133E+01 0.00000E+00
 -1      2792 9.46500E+01 3.98206E+01 0.00000E+00
 -1      2793 9.84000E+01 4.10133E+01 0.00000E+00
 -1      2794 9.99000E+01 4.10133E+01 0.00000E+00
 -1      2795 9.76500E+01 3.98206E+01 0.00000E+00
 -1      2796 1.01400E+02 4.10133E+01 0.00000E+00
 -1      2797 1.02900E+02 4.10133E+01 0.00000E+00
 -1      2798 1.00650E+02 3.98206E+01 0.00000E+00
 -1      2799 1.04400E+02 4.10133E+01 0.00000E+00
 -1      2800 1.05900E+02 4.10133E+01 0.00000E+00
 -1      2801 1.03650E+02 3.98206E+01 0.00000E+00
 -1      2802 1.07400E+02 4.10133E+01 0.00000E+00
 -1      2803 1.08900E+02 4.10133E+01 0.00000E+00
 -1      2804 1.06650E+02 3.98206E+01 0.00000E+00
 -1      2805 1.10400E+02 4.10133E+01 0.00000E+00
 -1      2806 1.11900E+02 4.10133E+01 0.00000E+00
 -1      2807 1.09650E+02 3.98206E+01 0.00000E+00
 -1      2808 1.13400E+02 4.10133E+01 0.00000E+00
 -1      2809 1.14900E+02 4.10133E+01 0.00000E+00
 -1      2810 1.12650E+02 3.98206E+01 0.00000E+00
 -1      2811 1.16400E+02 4.10133E+01 0.00000E+00
 -1      2812 1.17900E+02 4.10133E+01 0.00000E+00
 -1      2813 1.15650E+02 3.98206E+01 0.00000E+00
 -1      2814 1.19400E+02 4.10133E+01 0.00000E+00
 -1      2815 1.20900E+02 4.10133E+01 0.00000E+00
 -1      2816 1.18650E+02 3.98206E+01 0.00000E+00
 -1      2817 1.22400E+02 4.10133E+01 0.00000E+00
 -1      2818 1.23900E+02 4.10133E+01 0.00000E+00
 -1      2819 1.21650E+02 3.98206E+01 0.00000E+00
 -1      2820 1.25400E+02 4.10133E+01 0.00000E+00
 -1      2821 1.26900E+02 4.10133E+01 0.00000E+00
 -1      2822 1.24650E+02 3.98206E+01 0.00000E+00
 -1      2823 1.28400E+02 4.10133E+01 0.00000E+00
 -1      2824 1.29900E+02 4.10133E+01 0.00000E+00
 -1      2825 1.27650E+02 3.98206E+01 0.00000E+00
 -1      2826 1.31400E+02 4.10133E+01 0.00000E+00
 -1      2827 1.32900E+02 4.10133E+01 0.00000E+00
 -1      2828 1.30650E+02 3.98206E+01 0.00000E+00
 -1      2829 1.34400E+02 4.10133E+01 0.00000E+00
 -1      2830 1.35900E+02 4.10133E+01 0.00000E+00
 -1      2831 1.33650E+02 3.98206E+01 0.00000E+00
 -1      2832 1.37400E+02 4.10133E+01 0.00000E+00
 -1      2833 1.38900E+02 4.10133E+01 0.00000E+00
 -1      2834 1.36650E+02 3.98206E+01 0.00000E+00
 -1      2835 2.42850E+01 7.90325E+00 0.00000E+00
 -1      2836 2.27850E+01 7.90325E+00 0.00000E+00
 -1      2837 1.40706E+02 1.03250E+01 0.00000E+00
 -1      2838 1.40620E+02 8.46463E+00 0.00000E+00
 -1      2839 1.39120E+02 8.46463E+00 0.00000E+00
 -1      2840 2.12850E+01 7.90325E+00 0.00000E+00
 -1      2841 1.97850E+01 7.90325E+00 0.00000E+00
 -1      2842 2.20350E+01 9.20225E+00 0.00000E+00
 -1      2843 3.02850E+01 7.90325E+00 0.00000E+00
 -1      2844 2.87850E+01 7.90325E+00 0.00000E+00
 -1      2845 3.32850E+01 7.90325E+00 0.00000E+00
 -1      2846 3.17850E+01 7.90325E+00 0.00000E+00
 -1      2847 3.10350E+01 9.20225E+00 0.00000E+00
 -1      2848 3.62850E+01 7.90325E+00 0.00000E+00
 -1      2849 3.47850E+01 7.90325E+00 0.00000E+00
 -1      2850 3.40350E+01 9.20225E+00 0.00000E+00
 -1      2851 3.92850E+01 7.90325E+00 0.00000E+00
 -1      2852 3.77850E+01 7.90325E+00 0.00000E+00
 -1      2853 3.70350E+01 9.20225E+00 0.00000E+00
 -1      2854 4.22850E+01 7.90325E+00 0.00000E+00
 -1      2855 4.07850E+01 7.90325E+00 0.00000E+00
 -1      2856 4.00350E+01 9.20225E+00 0.00000E+00
 -1      2857 4.52850E+01 7.90325E+00 0.00000E+00
 -1      2858 4.37850E+01 7.90325E+00 0.00000E+00
 -1      2859 4.30350E+01 9.20225E+00 0.00000E+00
 -1      2860 4.82850E+01 7.90325E+00 0.00000E+00
 -1      2861 4.67850E+01 7.90325E+00 0.00000E+00
 -1      2862 4.60350E+01 9.20225E+00 0.00000E+00
 -1      2863 5.12850E+01 7.90325E+00 0.00000E+00
 -1      2864 4.97850E+01 7.90325E+00 0.00000E+00
 -1      2865 4.90350E+01 9.20225E+00 0.00000E+00
 -1      2866 5.42850E+01 7.90325E+00 0.00000E+00
 -1      2867 5.27850E+01 7.90325E+00 0.00000E+00
 -1      2868 5.20350E+01 9.20225E+00 0.00000E+00
 -1      2869 5.72850E+01 7.90325E+00 0.00000E+00
 -1      2870 5.57850E+01 7.90325E+00 0.00000E+00
 -1      2871 5.50350E+01 9.20225E+00 0.00000E+00
 -1      2872 6.02850E+01 7.90325E+00 0.00000E+00
 -1      2873 5.87850E+01 7.90325E+00 0.00000E+00
 -1      2874 5.80350E+01 9.20225E+00 0.00000E+00
 -1      2875 6.32850E+01 7.90325E+00 0.00000E+00
 -1      2876 6.17850E+01 7.90325E+00 0.00000E+00
 -1      2877 6.10350E+01 9.20225E+00 0.00000E+00
 -1      2878 6.62850E+01 7.90325E+00 0.00000E+00
 -1      2879 6.47850E+01 7.90325E+00 0.00000E+00
 -1      2880 6.40350E+01 9.20225E+00 0.00000E+00
 -1      2881 6.92850E+01 7.90325E+00 0.00000E+00
 -1      2882 6.77850E+01 7.90325E+00 0.00000E+00
 -1      2883 6.70350E+01 9.20225E+00 0.00000E+00
 -1      2884 7.22850E+01 7.90325E+00 0.00000E+00
 -1      2885 7.07850E+01 7.90325E+00 0.00000E+00
 -1      2886 7.00350E+01 9.20225E+00 0.00000E+00
 -1      2887 7.52850E+01 7.90325E+00 0.00000E+00
 -1      2888 7.37850E+01 7.90325E+00 0.00000E+00
 -1      2889 7.30350E+01 9.20225E+00 0.00000E+00
 -1      2890 7.82850E+01 7.90325E+00 0.00000E+00
 -1      2891 7.67850E+01 7.90325E+00 0.00000E+00
 -1      2892 7.60350E+01 9.20225E+00 0.00000E+00
 -1      2893 8.12850E+01 7.90325E+00 0.00000E+00
 -1      2894 7.97850E+01 7.90325E+00 0.00000E+00
 -1      2895 7.90350E+01 9.20225E+00 0.00000E+00
 -1      2896 8.42850E+01 7.90325E+00 0.00000E+00
 -1      2897 8.27850E+01 7.90325E+00 0.00000E+00
 -1      2898 8.20350E+01 9.20225E+00 0.00000E+00
 -1      2899 8.72850E+01 7.90325E+00 0.00000E+00
 -1      2900 8.57850E+01 7.90325E+00 0.00000E+00
 -1      2901 8.50350E+01 9.20225E+00 0.00000E+00
 -1      2902 9.02850E+01 7.90325E+00 0.00000E+00
 -1      2903 8.87850E+01 7.90325E+00 0.00000E+00
 -1      2904 8.80350E+01 9.20225E+00 0.00000E+00
 -1      2905 9.32850E+01 7.90325E+00 0.00000E+00
 -1      2906 9.17850E+01 7.90325E+00 0.00000E+00
 -1      2907 9.10350E+01 9.20225E+00 0.00000E+00
 -1      2908 9.62850E+01 7.90325E+00 0.00000E+00
 -1      2909 9.47850E+01 7.90325E+00 0.00000E+00
 -1      2910 9.40350E+01 9.20225E+00 0.00000E+00
 -1      2911 9.92850E+01 7.90325E+00 0.00000E+00
 -1      2912 9.77850E+01 7.90325E+00 0.00000E+00
 -1      2913 9.70350E+01 9.20225E+00 0.00000E+00
 -1      2914 1.02285E+02 7.90325E+00 0.00000E+00
 -1      2915 1.00785E+02 7.90325E+00 0.00000E+00
 -1      2916 1.00035E+02 9.20225E+00 0.00000E+00
 -1      2917 1.05285E+02 7.90325E+00 0.00000E+00
 -1      2918 1.03785E+02 7.90325E+00 0.00000E+00
 -1      2919 1.03035E+02 9.20225E+00 0.00000E+00
 -1      2920 1.08285E+02 7.90325E+00 0.00000E+00
 -1      2921 1.06785E+02 7.90325E+00 0.00000E+00
 -1      2922 1.06035E+02 9.20225E+00 0.00000E+00
 -1      2923 1.11285E+02 7.90325E+00 0.00000E+00
 -1      2924 1.09785E+02 7.90325E+00 0.00000E+00
 -1      2925 1.09035E+02 9.20225E+00 0.00000E+00
 -1      2926 1.14285E+02 7.90325E+00 0.00000E+00
 -1      2927 1.12785E+02 7.90325E+00 0.00000E+00
 -1      2928 1.12035E+02 9.20225E+00 0.00000E+00
 -1      2929 1.17285E+02 7.90325E+00 0.00000E+00
 -1      2930 1.15785E+02 7.90325E+00 0.00000E+00
 -1      2931 1.15035E+02 9.20225E+00 0.00000E+00
 -1      2932 1.20285E+02 7.90325E+00 0.00000E+00
 -1      2933 1.18785E+02 7.90325E+00 0.00000E+00
 -1      2934 1.18035E+02 9.20225E+00 0.00000E+00
 -1      2935 1.23285E+02 7.90325E+00 0.00000E+00
 -1      2936 1.21785E+02 7.90325E+00 0.00000E+00
 -1      2937 1.21035E+02 9.20225E+00 0.00000E+00
 -1      2938 1.26285E+02 7.90325E+00 0.00000E+00
 -1      2939 1.24785E+02 7.90325E+00 0.00000E+00
 -1      2940 1.24035E+02 9.20225E+00 0.00000E+00
 -1      2941 1.29285E+02 7.90325E+00 0.00000E+00
 -1      2942 1.27785E+02 7.90325E+00 0.00000E+00
 -1      2943 1.27035E+02 9.20225E+00 0.00000E+00
 -1      2944 1.32285E+02 7.90325E+00 0.00000E+00
 -1      2945 1.30785E+02 7.90325E+00 0.00000E+00
 -1      2946 1.30035E+02 9.20225E+00 0.00000E+00
 -1      2947 1.35285E+02 7.90325E+00 0.00000E+00
 -1      2948 1.33785E+02 7.90325E+00 0.00000E+00
 -1      2949 1.33035E+02 9.20225E+00 0.00000E+00
 -1      2950 1.37953E+02 8.18394E+00 0.00000E+00
 -1      2951 1.36453E+02 8.18394E+00 0.00000E+00
 -1      2952 1.35703E+02 9.48294E+00 0.00000E+00
 -1      2953 1.38038E+02 1.00443E+01 0.00000E+00
 -1      2954 1.40907E+02 2.42875E+01 0.00000E+00
 -1      2955 1.40907E+02 2.28125E+01 0.00000E+00
 -1      2956 1.39914E+02 4.09894E+01 0.00000E+00
 -1      2957 1.40928E+02 4.10187E+01 0.00000E+00
 -1      2958 1.41192E+02 3.97489E+01 0.00000E+00
 -1      2959 1.39164E+02 3.97967E+01 0.00000E+00
 -1      2960 1.40907E+02 1.83875E+01 0.00000E+00
 -1      2961 1.40907E+02 1.69125E+01 0.00000E+00
 -1      2962 1.40907E+02 2.72375E+01 0.00000E+00
 -1      2963 1.40907E+02 2.57625E+01 0.00000E+00
 -1      2964 1.39608E+02 2.50250E+01 0.00000E+00
 -1      2965 1.40907E+02 2.13375E+01 0.00000E+00
 -1      2966 1.40907E+02 1.98625E+01 0.00000E+00
 -1      2967 1.39608E+02 1.91250E+01 0.00000E+00
 -1      2968 1.39608E+02 2.20750E+01 0.00000E+00
 -1      2969 5.48412E+01 1.59043E+01 0.00000E+00
 -1      2970 5.56861E+01 1.69051E+01 0.00000E+00
 -1      2971 1.40907E+02 3.01375E+01 0.00000E+00
 -1      2972 1.40907E+02 2.86875E+01 0.00000E+00
 -1      2973 1.39608E+02 2.79500E+01 0.00000E+00
 -1      2974 1.40907E+02 3.30875E+01 0.00000E+00
 -1      2975 1.40907E+02 3.16125E+01 0.00000E+00
 -1      2976 1.39608E+02 3.08750E+01 0.00000E+00
 -1      2977 1.40907E+02 3.60375E+01 0.00000E+00
 -1      2978 1.40907E+02 3.45625E+01 0.00000E+00
 -1      2979 1.39608E+02 3.38250E+01 0.00000E+00
 -1      2980 1.41049E+02 3.86307E+01 0.00000E+00
 -1      2981 1.41049E+02 3.71557E+01 0.00000E+00
 -1      2982 1.39751E+02 3.64182E+01 0.00000E+00
 -1      2983 1.40036E+02 3.86546E+01 0.00000E+00
 -1      2984 4.25619E+01 3.72534E+01 0.00000E+00
 -1      2985 4.17117E+01 3.68492E+01 0.00000E+00
 -1      2986 4.05498E+01 3.60420E+01 0.00000E+00
 -1      2987 3.93879E+01 3.52348E+01 0.00000E+00
 -1      2988 4.04987E+01 3.72455E+01 0.00000E+00
 -1      2989 5.87867E+01 2.23689E+01 0.00000E+00
 -1      2990 5.90652E+01 2.36843E+01 0.00000E+00
 -1      2991 5.77386E+01 2.00027E+01 0.00000E+00
 -1      2992 5.83172E+01 2.09272E+01 0.00000E+00
 -1      2993 8.85168E+00 4.05347E+01 0.00000E+00
 -1      2994 1.02152E+01 4.07987E+01 0.00000E+00
 -1      2995 3.62229E+01 2.98328E+01 0.00000E+00
 -1      2996 3.58830E+01 2.87705E+01 0.00000E+00
 -1      2997 3.55362E+01 2.23201E+01 0.00000E+00
 -1      2998 3.59435E+01 2.11935E+01 0.00000E+00
 -1      2999 4.25144E+01 1.45403E+01 0.00000E+00
 -1      3000 4.34919E+01 1.42251E+01 0.00000E+00
 -1      3001 1.82850E+01 7.90325E+00 0.00000E+00
 -1      3002 1.67850E+01 7.90325E+00 0.00000E+00
 -1      3003 1.90350E+01 9.20225E+00 0.00000E+00
 -1      3004 2.72850E+01 7.90325E+00 0.00000E+00
 -1      3005 2.57850E+01 7.90325E+00 0.00000E+00
 -1      3006 2.50350E+01 9.20225E+00 0.00000E+00
 -1      3007 2.80350E+01 9.20225E+00 0.00000E+00
 -1      3008 1.15576E+01 4.08528E+01 0.00000E+00
 -1      3009 1.30576E+01 4.08528E+01 0.00000E+00
 -1      3010 1.38076E+01 3.95538E+01 0.00000E+00
 -1      3011 1.11228E+01 3.94455E+01 0.00000E+00
 -1      3012 3.83136E+01 3.41069E+01 0.00000E+00
 -1      3013 3.75611E+01 3.31181E+01 0.00000E+00
 -1      3014 5.64764E+01 1.79755E+01 0.00000E+00
 -1      3015 5.71075E+01 1.89891E+01 0.00000E+00
 -1      3016 5.81948E+01 1.89519E+01 0.00000E+00
 -1      3017 5.21600E+01 1.44335E+01 0.00000E+00
 -1      3018 5.33839E+01 1.47728E+01 0.00000E+00
 -1      3019 4.97584E+01 1.39785E+01 0.00000E+00
 -1      3020 5.09592E+01 1.42060E+01 0.00000E+00
 -1      3021 5.18675E+01 1.33071E+01 0.00000E+00
 -1      3022 9.09300E+00 1.68813E+01 0.00000E+00
 -1      3023 9.09300E+00 1.83563E+01 0.00000E+00
 -1      3024 1.03920E+01 1.90812E+01 0.00000E+00
 -1      3025 1.03920E+01 1.61437E+01 0.00000E+00
 -1      3026 9.09300E+00 3.15875E+01 0.00000E+00
 -1      3027 9.09300E+00 3.30625E+01 0.00000E+00
 -1      3028 4.47207E+01 1.39960E+01 0.00000E+00
 -1      3029 4.59495E+01 1.37670E+01 0.00000E+00
 -1      3030 4.39173E+01 1.31780E+01 0.00000E+00
 -1      3031 3.78289E+01 1.74992E+01 0.00000E+00
 -1      3032 3.87869E+01 1.65609E+01 0.00000E+00
 -1      3033 7.48818E+00 3.88019E+01 0.00000E+00
 -1      3034 5.93889E+01 2.51510E+01 0.00000E+00
 -1      3035 5.93853E+01 2.64080E+01 0.00000E+00
 -1      3036 3.69471E+01 3.17838E+01 0.00000E+00
 -1      3037 3.65850E+01 3.08083E+01 0.00000E+00
 -1      3038 3.55983E+01 3.05385E+01 0.00000E+00
 -1      3039 4.00987E+01 1.56310E+01 0.00000E+00
 -1      3040 4.13065E+01 1.50857E+01 0.00000E+00
 -1      3041 4.14806E+01 1.39524E+01 0.00000E+00
 -1      3042 3.63401E+01 1.99316E+01 0.00000E+00
 -1      3043 3.68873E+01 1.87983E+01 0.00000E+00
 -1      3044 3.56278E+01 2.76270E+01 0.00000E+00
 -1      3045 3.54236E+01 2.66053E+01 0.00000E+00
 -1      3046 4.73303E+01 3.81016E+01 0.00000E+00
 -1      3047 4.61541E+01 3.80013E+01 0.00000E+00
 -1      3048 4.49037E+01 3.77672E+01 0.00000E+00
 -1      3049 4.38123E+01 3.74875E+01 0.00000E+00
 -1      3050 4.29110E+01 3.82869E+01 0.00000E+00
 -1      3051 4.54119E+01 3.87552E+01 0.00000E+00
 -1      3052 1.52850E+01 7.90325E+00 0.00000E+00
 -1      3053 1.37850E+01 7.90325E+00 0.00000E+00
 -1      3054 1.30350E+01 9.20225E+00 0.00000E+00
 -1      3055 1.60350E+01 9.20225E+00 0.00000E+00
 -1      3056 4.73841E+01 1.38917E+01 0.00000E+00
 -1      3057 4.84327E+01 1.40380E+01 0.00000E+00
 -1      3058 5.22392E+01 3.67224E+01 0.00000E+00
 -1      3059 5.14008E+01 3.71136E+01 0.00000E+00
 -1      3060 5.59791E+01 3.42204E+01 0.00000E+00
 -1      3061 5.52885E+01 3.47776E+01 0.00000E+00
 -1      3062 8.91450E+00 8.42712E+00 0.00000E+00
 -1      3063 5.78638E+01 3.23382E+01 0.00000E+00
 -1      3064 5.69568E+01 3.33700E+01 0.00000E+00
 -1      3065 9.09300E+00 3.45313E+01 0.00000E+00
 -1      3066 9.09300E+00 3.60000E+01 0.00000E+00
 -1      3067 1.03920E+01 3.37938E+01 0.00000E+00
 -1      3068 1.03920E+01 2.49750E+01 0.00000E+00
 -1      3069 9.09300E+00 2.57000E+01 0.00000E+00
 -1      3070 9.09300E+00 2.71750E+01 0.00000E+00
 -1      3071 5.32272E+01 3.71053E+01 0.00000E+00
 -1      3072 5.52306E+01 3.58356E+01 0.00000E+00
 -1      3073 1.39608E+02 1.61875E+01 0.00000E+00
 -1      3074 1.40907E+02 1.54500E+01 0.00000E+00
 -1      3075 1.40907E+02 1.39875E+01 0.00000E+00
 -1      3076 5.90162E+01 2.76973E+01 0.00000E+00
 -1      3077 5.88134E+01 2.87253E+01 0.00000E+00
 -1      3078 4.66561E+01 4.05977E+01 0.00000E+00
 -1      3079 4.74061E+01 3.94050E+01 0.00000E+00
 -1      3080 4.44000E+01 4.09295E+01 0.00000E+00
 -1      3081 4.59000E+01 4.09295E+01 0.00000E+00
 -1      3082 5.67733E+01 1.68679E+01 0.00000E+00
 -1      3083 6.00886E+01 2.43157E+01 0.00000E+00
 -1      3084 1.40706E+02 1.17875E+01 0.00000E+00
 -1      3085 9.66450E+00 9.72612E+00 0.00000E+00
 -1      3086 1.09635E+01 1.04636E+01 0.00000E+00
 -1      3087 4.80741E+01 3.85172E+01 0.00000E+00
 -1      3088 3.82625E+01 3.53105E+01 0.00000E+00
 -1      3089 3.49810E+01 2.84195E+01 0.00000E+00
 -1      3090 3.65743E+01 3.28483E+01 0.00000E+00
 -1      3091 3.67076E+01 1.76566E+01 0.00000E+00
 -1      3092 3.49039E+01 2.29132E+01 0.00000E+00
 -1      3093 3.43404E+01 2.20726E+01 0.00000E+00
 -1      3094 3.42715E+01 2.35063E+01 0.00000E+00
 -1      3095 3.53694E+01 2.02176E+01 0.00000E+00
 -1      3096 3.89610E+01 1.54276E+01 0.00000E+00
 -1      3097 5.02254E+01 3.76294E+01 0.00000E+00
 -1      3098 4.89328E+01 3.80081E+01 0.00000E+00
 -1      3099 6.00431E+01 2.70717E+01 0.00000E+00
 -1      3100 4.93410E+01 1.31391E+01 0.00000E+00
 -1      3101 5.42100E+01 1.34277E+01 0.00000E+00
 -1      3102 5.45256E+01 1.46660E+01 0.00000E+00
 -1      3103 5.56673E+01 1.45592E+01 0.00000E+00
 -1      3104 8.78718E+00 3.80644E+01 0.00000E+00
 -1      3105 9.09300E+00 2.86437E+01 0.00000E+00
 -1      3106 9.09300E+00 3.01187E+01 0.00000E+00
 -1      3107 1.03920E+01 3.08563E+01 0.00000E+00
 -1      3108 1.03920E+01 2.79188E+01 0.00000E+00
 -1      3109 3.47804E+01 2.58114E+01 0.00000E+00
 -1      3110 3.41373E+01 2.50176E+01 0.00000E+00
 -1      3111 3.40827E+01 2.64822E+01 0.00000E+00
 -1      3112 4.65807E+01 1.30737E+01 0.00000E+00
 -1      3113 5.72026E+01 3.43813E+01 0.00000E+00
 -1      3114 5.10427E+01 3.82868E+01 0.00000E+00
 -1      3115 5.87774E+01 3.14575E+01 0.00000E+00
 -1      3116 5.90939E+01 3.26502E+01 0.00000E+00
 -1      3117 5.88968E+01 2.95774E+01 0.00000E+00
 -1      3118 5.86941E+01 3.06054E+01 0.00000E+00
 -1      3119 5.99241E+01 3.09174E+01 0.00000E+00
 -1      3120 5.97573E+01 2.92132E+01 0.00000E+00
 -1      3121 4.36500E+01 3.96305E+01 0.00000E+00
 -1      3122 1.16910E+01 1.24625E+01 0.00000E+00
 -1      3123 1.16910E+01 1.39375E+01 0.00000E+00
 -1      3124 4.86322E+01 1.21447E+01 0.00000E+00
 -1      3125 4.99579E+01 1.20853E+01 0.00000E+00
 -1      3126 3.80573E+01 3.65814E+01 0.00000E+00
 -1      3127 3.69831E+01 3.54536E+01 0.00000E+00
 -1      3128 1.89000E+01 3.83090E+01 0.00000E+00
 -1      3129 2.04000E+01 3.83090E+01 0.00000E+00
 -1      3130 2.19000E+01 3.83090E+01 0.00000E+00
 -1      3131 2.34000E+01 3.83090E+01 0.00000E+00
 -1      3132 2.11500E+01 3.70100E+01 0.00000E+00
 -1      3133 2.49000E+01 3.83090E+01 0.00000E+00
 -1      3134 2.64000E+01 3.83090E+01 0.00000E+00
 -1      3135 2.41500E+01 3.70100E+01 0.00000E+00
 -1      3136 2.79000E+01 3.83090E+01 0.00000E+00
 -1      3137 2.94000E+01 3.83090E+01 0.00000E+00
 -1      3138 2.71500E+01 3.70100E+01 0.00000E+00
 -1      3139 3.09000E+01 3.83090E+01 0.00000E+00
 -1      3140 3.24000E+01 3.83090E+01 0.00000E+00
 -1      3141 3.01500E+01 3.70100E+01 0.00000E+00
 -1      3142 3.64640E+01 3.81663E+01 0.00000E+00
 -1      3143 3.79640E+01 3.81663E+01 0.00000E+00
 -1      3144 5.72702E+01 1.56740E+01 0.00000E+00
 -1      3145 5.80606E+01 1.67444E+01 0.00000E+00
 -1      3146 5.79000E+01 3.85216E+01 0.00000E+00
 -1      3147 5.94000E+01 3.85216E+01 0.00000E+00
 -1      3148 6.09000E+01 3.85216E+01 0.00000E+00
 -1      3149 6.24000E+01 3.85216E+01 0.00000E+00
 -1      3150 6.01500E+01 3.72226E+01 0.00000E+00
 -1      3151 6.39000E+01 3.85216E+01 0.00000E+00
 -1      3152 6.54000E+01 3.85216E+01 0.00000E+00
 -1      3153 6.31500E+01 3.72226E+01 0.00000E+00
 -1      3154 6.69000E+01 3.85216E+01 0.00000E+00
 -1      3155 6.84000E+01 3.85216E+01 0.00000E+00
 -1      3156 6.61500E+01 3.72226E+01 0.00000E+00
 -1      3157 6.99000E+01 3.85216E+01 0.00000E+00
 -1      3158 7.14000E+01 3.85216E+01 0.00000E+00
 -1      3159 6.91500E+01 3.72226E+01 0.00000E+00
 -1      3160 7.29000E+01 3.85216E+01 0.00000E+00
 -1      3161 7.44000E+01 3.85216E+01 0.00000E+00
 -1      3162 7.21500E+01 3.72226E+01 0.00000E+00
 -1      3163 7.59000E+01 3.85216E+01 0.00000E+00
 -1      3164 7.74000E+01 3.85216E+01 0.00000E+00
 -1      3165 7.51500E+01 3.72226E+01 0.00000E+00
 -1      3166 7.89000E+01 3.85216E+01 0.00000E+00
 -1      3167 8.04000E+01 3.85216E+01 0.00000E+00
 -1      3168 7.81500E+01 3.72226E+01 0.00000E+00
 -1      3169 8.19000E+01 3.85216E+01 0.00000E+00
 -1      3170 8.34000E+01 3.85216E+01 0.00000E+00
 -1      3171 8.11500E+01 3.72226E+01 0.00000E+00
 -1      3172 8.49000E+01 3.85216E+01 0.00000E+00
 -1      3173 8.64000E+01 3.85216E+01 0.00000E+00
 -1      3174 8.41500E+01 3.72226E+01 0.00000E+00
 -1      3175 8.79000E+01 3.85216E+01 0.00000E+00
 -1      3176 8.94000E+01 3.85216E+01 0.00000E+00
 -1      3177 8.71500E+01 3.72226E+01 0.00000E+00
 -1      3178 9.09000E+01 3.85216E+01 0.00000E+00
 -1      3179 9.24000E+01 3.85216E+01 0.00000E+00
 -1      3180 9.01500E+01 3.72226E+01 0.00000E+00
 -1      3181 9.39000E+01 3.85216E+01 0.00000E+00
 -1      3182 9.54000E+01 3.85216E+01 0.00000E+00
 -1      3183 9.31500E+01 3.72226E+01 0.00000E+00
 -1      3184 9.69000E+01 3.85216E+01 0.00000E+00
 -1      3185 9.84000E+01 3.85216E+01 0.00000E+00
 -1      3186 9.61500E+01 3.72226E+01 0.00000E+00
 -1      3187 9.99000E+01 3.85216E+01 0.00000E+00
 -1      3188 1.01400E+02 3.85216E+01 0.00000E+00
 -1      3189 9.91500E+01 3.72226E+01 0.00000E+00
 -1      3190 1.02900E+02 3.85216E+01 0.00000E+00
 -1      3191 1.04400E+02 3.85216E+01 0.00000E+00
 -1      3192 1.02150E+02 3.72226E+01 0.00000E+00
 -1      3193 1.05900E+02 3.85216E+01 0.00000E+00
 -1      3194 1.07400E+02 3.85216E+01 0.00000E+00
 -1      3195 1.05150E+02 3.72226E+01 0.00000E+00
 -1      3196 1.08900E+02 3.85216E+01 0.00000E+00
 -1      3197 1.10400E+02 3.85216E+01 0.00000E+00
 -1      3198 1.08150E+02 3.72226E+01 0.00000E+00
 -1      3199 1.11900E+02 3.85216E+01 0.00000E+00
 -1      3200 1.13400E+02 3.85216E+01 0.00000E+00
 -1      3201 1.11150E+02 3.72226E+01 0.00000E+00
 -1      3202 1.14900E+02 3.85216E+01 0.00000E+00
 -1      3203 1.16400E+02 3.85216E+01 0.00000E+00
 -1      3204 1.14150E+02 3.72226E+01 0.00000E+00
 -1      3205 1.17900E+02 3.85216E+01 0.00000E+00
 -1      3206 1.19400E+02 3.85216E+01 0.00000E+00
 -1      3207 1.17150E+02 3.72226E+01 0.00000E+00
 -1      3208 1.20900E+02 3.85216E+01 0.00000E+00
 -1      3209 1.22400E+02 3.85216E+01 0.00000E+00
 -1      3210 1.20150E+02 3.72226E+01 0.00000E+00
 -1      3211 1.23900E+02 3.85216E+01 0.00000E+00
 -1      3212 1.25400E+02 3.85216E+01 0.00000E+00
 -1      3213 1.23150E+02 3.72226E+01 0.00000E+00
 -1      3214 1.26900E+02 3.85216E+01 0.00000E+00
 -1      3215 1.28400E+02 3.85216E+01 0.00000E+00
 -1      3216 1.26150E+02 3.72226E+01 0.00000E+00
 -1      3217 1.29900E+02 3.85216E+01 0.00000E+00
 -1      3218 1.31400E+02 3.85216E+01 0.00000E+00
 -1      3219 1.29150E+02 3.72226E+01 0.00000E+00
 -1      3220 1.32900E+02 3.85216E+01 0.00000E+00
 -1      3221 1.34400E+02 3.85216E+01 0.00000E+00
 -1      3222 1.32150E+02 3.72226E+01 0.00000E+00
 -1      3223 1.35900E+02 3.85216E+01 0.00000E+00
 -1      3224 1.37400E+02 3.85216E+01 0.00000E+00
 -1      3225 1.35150E+02 3.72226E+01 0.00000E+00
 -1      3226 2.27850E+01 1.05013E+01 0.00000E+00
 -1      3227 2.12850E+01 1.05013E+01 0.00000E+00
 -1      3228 3.47850E+01 1.05013E+01 0.00000E+00
 -1      3229 3.32850E+01 1.05013E+01 0.00000E+00
 -1      3230 3.17850E+01 1.05013E+01 0.00000E+00
 -1      3231 3.02850E+01 1.05013E+01 0.00000E+00
 -1      3232 3.25350E+01 1.18003E+01 0.00000E+00
 -1      3233 4.07850E+01 1.03949E+01 0.00000E+00
 -1      3234 3.92850E+01 1.03949E+01 0.00000E+00
 -1      3235 4.36117E+01 1.13047E+01 0.00000E+00
 -1      3236 4.21117E+01 1.13047E+01 0.00000E+00
 -1      3237 4.63405E+01 1.10756E+01 0.00000E+00
 -1      3238 4.48405E+01 1.10756E+01 0.00000E+00
 -1      3239 4.98921E+01 1.01466E+01 0.00000E+00
 -1      3240 4.83921E+01 1.01466E+01 0.00000E+00
 -1      3241 5.27850E+01 1.03949E+01 0.00000E+00
 -1      3242 5.12850E+01 1.03949E+01 0.00000E+00
 -1      3243 5.59434E+01 1.12616E+01 0.00000E+00
 -1      3244 5.44434E+01 1.12616E+01 0.00000E+00
 -1      3245 6.17850E+01 1.05013E+01 0.00000E+00
 -1      3246 6.02850E+01 1.05013E+01 0.00000E+00
 -1      3247 6.47850E+01 1.05013E+01 0.00000E+00
 -1      3248 6.32850E+01 1.05013E+01 0.00000E+00
 -1      3249 6.25350E+01 1.18003E+01 0.00000E+00
 -1      3250 6.77850E+01 1.05013E+01 0.00000E+00
 -1      3251 6.62850E+01 1.05013E+01 0.00000E+00
 -1      3252 6.55350E+01 1.18003E+01 0.00000E+00
 -1      3253 7.07850E+01 1.05013E+01 0.00000E+00
 -1      3254 6.92850E+01 1.05013E+01 0.00000E+00
 -1      3255 6.85350E+01 1.18003E+01 0.00000E+00
 -1      3256 7.37850E+01 1.05013E+01 0.00000E+00
 -1      3257 7.22850E+01 1.05013E+01 0.00000E+00
 -1      3258 7.15350E+01 1.18003E+01 0.00000E+00
 -1      3259 7.67850E+01 1.05013E+01 0.00000E+00
 -1      3260 7.52850E+01 1.05013E+01 0.00000E+00
 -1      3261 7.45350E+01 1.18003E+01 0.00000E+00
 -1      3262 7.97850E+01 1.05013E+01 0.00000E+00
 -1      3263 7.82850E+01 1.05013E+01 0.00000E+00
 -1      3264 7.75350E+01 1.18003E+01 0.00000E+00
 -1      3265 8.27850E+01 1.05013E+01 0.00000E+00
 -1      3266 8.12850E+01 1.05013E+01 0.00000E+00
 -1      3267 8.05350E+01 1.18003E+01 0.00000E+00
 -1      3268 8.57850E+01 1.05013E+01 0.00000E+00
 -1      3269 8.42850E+01 1.05013E+01 0.00000E+00
 -1      3270 8.35350E+01 1.18003E+01 0.00000E+00
 -1      3271 8.87850E+01 1.05013E+01 0.00000E+00
 -1      3272 8.72850E+01 1.05013E+01 0.00000E+00
 -1      3273 8.65350E+01 1.18003E+01 0.00000E+00
 -1      3274 9.17850E+01 1.05013E+01 0.00000E+00
 -1      3275 9.02850E+01 1.05013E+01 0.00000E+00
 -1      3276 8.95350E+01 1.18003E+01 0.00000E+00
 -1      3277 9.47850E+01 1.05013E+01 0.00000E+00
 -1      3278 9.32850E+01 1.05013E+01 0.00000E+00
 -1      3279 9.25350E+01 1.18003E+01 0.00000E+00
 -1      3280 9.77850E+01 1.05013E+01 0.00000E+00
 -1      3281 9.62850E+01 1.05013E+01 0.00000E+00
 -1      3282 9.55350E+01 1.18003E+01 0.00000E+00
 -1      3283 1.00785E+02 1.05013E+01 0.00000E+00
 -1      3284 9.92850E+01 1.05013E+01 0.00000E+00
 -1      3285 9.85350E+01 1.18003E+01 0.00000E+00
 -1      3286 1.03785E+02 1.05013E+01 0.00000E+00
 -1      3287 1.02285E+02 1.05013E+01 0.00000E+00
 -1      3288 1.01535E+02 1.18003E+01 0.00000E+00
 -1      3289 1.06785E+02 1.05013E+01 0.00000E+00
 -1      3290 1.05285E+02 1.05013E+01 0.00000E+00
 -1      3291 1.04535E+02 1.18003E+01 0.00000E+00
 -1      3292 1.09785E+02 1.05013E+01 0.00000E+00
 -1      3293 1.08285E+02 1.05013E+01 0.00000E+00
 -1      3294 1.07535E+02 1.18003E+01 0.00000E+00
 -1      3295 1.12785E+02 1.05013E+01 0.00000E+00
 -1      3296 1.11285E+02 1.05013E+01 0.00000E+00
 -1      3297 1.10535E+02 1.18003E+01 0.00000E+00
 -1      3298 1.15785E+02 1.05013E+01 0.00000E+00
 -1      3299 1.14285E+02 1.05013E+01 0.00000E+00
 -1      3300 1.13535E+02 1.18003E+01 0.00000E+00
 -1      3301 1.18785E+02 1.05013E+01 0.00000E+00
 -1      3302 1.17285E+02 1.05013E+01 0.00000E+00
 -1      3303 1.16535E+02 1.18003E+01 0.00000E+00
 -1      3304 1.21785E+02 1.05013E+01 0.00000E+00
 -1      3305 1.20285E+02 1.05013E+01 0.00000E+00
 -1      3306 1.19535E+02 1.18003E+01 0.00000E+00
 -1      3307 1.24785E+02 1.05013E+01 0.00000E+00
 -1      3308 1.23285E+02 1.05013E+01 0.00000E+00
 -1      3309 1.22535E+02 1.18003E+01 0.00000E+00
 -1      3310 1.27785E+02 1.05013E+01 0.00000E+00
 -1      3311 1.26285E+02 1.05013E+01 0.00000E+00
 -1      3312 1.25535E+02 1.18003E+01 0.00000E+00
 -1      3313 1.30785E+02 1.05013E+01 0.00000E+00
 -1      3314 1.29285E+02 1.05013E+01 0.00000E+00
 -1      3315 1.28535E+02 1.18003E+01 0.00000E+00
 -1      3316 1.33785E+02 1.05013E+01 0.00000E+00
 -1      3317 1.32285E+02 1.05013E+01 0.00000E+00
 -1      3318 1.31535E+02 1.18003E+01 0.00000E+00
 -1      3319 1.39021E+02 3.86785E+01 0.00000E+00
 -1      3320 1.16910E+01 2.12875E+01 0.00000E+00
 -1      3321 1.16910E+01 2.27625E+01 0.00000E+00
 -1      3322 1.38309E+02 3.16125E+01 0.00000E+00
 -1      3323 1.38309E+02 3.01375E+01 0.00000E+00
 -1      3324 1.38309E+02 2.57625E+01 0.00000E+00
 -1      3325 1.38309E+02 2.42875E+01 0.00000E+00
 -1      3326 6.03203E+01 3.30082E+01 0.00000E+00
 -1      3327 5.94067E+01 3.38890E+01 0.00000E+00
 -1      3328 1.38309E+02 3.45625E+01 0.00000E+00
 -1      3329 1.38309E+02 3.30875E+01 0.00000E+00
 -1      3330 1.37010E+02 3.23500E+01 0.00000E+00
 -1      3331 1.38309E+02 2.86750E+01 0.00000E+00
 -1      3332 1.38309E+02 2.72250E+01 0.00000E+00
 -1      3333 1.37010E+02 2.64875E+01 0.00000E+00
 -1      3334 1.37010E+02 2.94125E+01 0.00000E+00
 -1      3335 5.86755E+01 2.13590E+01 0.00000E+00
 -1      3336 5.96537E+01 2.18391E+01 0.00000E+00
 -1      3337 1.97850E+01 1.05013E+01 0.00000E+00
 -1      3338 1.82850E+01 1.05013E+01 0.00000E+00
 -1      3339 2.05350E+01 1.18003E+01 0.00000E+00
 -1      3340 5.91841E+01 2.03974E+01 0.00000E+00
 -1      3341 3.54068E+01 1.77045E+01 0.00000E+00
 -1      3342 3.63484E+01 1.64054E+01 0.00000E+00
 -1      3343 3.59500E+01 3.39440E+01 0.00000E+00
 -1      3344 3.53361E+01 3.26096E+01 0.00000E+00
 -1      3345 6.11326E+01 2.66862E+01 0.00000E+00
 -1      3346 6.07635E+01 2.79755E+01 0.00000E+00
 -1      3347 4.01539E+01 1.30427E+01 0.00000E+00
 -1      3348 4.13617E+01 1.24974E+01 0.00000E+00
 -1      3349 3.77850E+01 1.05013E+01 0.00000E+00
 -1      3350 3.62850E+01 1.05013E+01 0.00000E+00
 -1      3351 3.55350E+01 1.18003E+01 0.00000E+00
 -1      3352 1.26488E+01 1.02017E+01 0.00000E+00
 -1      3353 1.20772E+01 1.14631E+01 0.00000E+00
 -1      3354 1.33763E+01 1.22006E+01 0.00000E+00
 -1      3355 1.41488E+01 1.02017E+01 0.00000E+00
 -1      3356 6.10914E+01 2.33253E+01 0.00000E+00
 -1      3357 6.14151E+01 2.47921E+01 0.00000E+00
 -1      3358 5.86917E+01 1.77580E+01 0.00000E+00
 -1      3359 5.93228E+01 1.87716E+01 0.00000E+00
 -1      3360 5.91886E+01 1.65641E+01 0.00000E+00
 -1      3361 5.13508E+01 1.23336E+01 0.00000E+00
 -1      3362 5.25516E+01 1.25611E+01 0.00000E+00
 -1      3363 3.41931E+01 2.05412E+01 0.00000E+00
 -1      3364 3.45897E+01 1.92793E+01 0.00000E+00
 -1      3365 1.59000E+01 3.83090E+01 0.00000E+00
 -1      3366 1.74000E+01 3.83090E+01 0.00000E+00
 -1      3367 1.81500E+01 3.70100E+01 0.00000E+00
 -1      3368 1.39407E+02 1.25250E+01 0.00000E+00
 -1      3369 3.49740E+01 3.16341E+01 0.00000E+00
 -1      3370 3.46118E+01 3.06586E+01 0.00000E+00
 -1      3371 3.43497E+01 3.27298E+01 0.00000E+00
 -1      3372 3.73421E+01 1.40789E+01 0.00000E+00
 -1      3373 3.86539E+01 1.31490E+01 0.00000E+00
 -1      3374 3.41898E+01 2.91962E+01 0.00000E+00
 -1      3375 3.39347E+01 2.80527E+01 0.00000E+00
 -1      3376 5.63035E+01 3.64813E+01 0.00000E+00
 -1      3377 5.53093E+01 3.70853E+01 0.00000E+00
 -1      3378 1.00862E+01 3.73269E+01 0.00000E+00
 -1      3379 5.83439E+01 3.47600E+01 0.00000E+00
 -1      3380 5.73663E+01 3.56103E+01 0.00000E+00
 -1      3381 5.74449E+01 3.68600E+01 0.00000E+00
 -1      3382 5.95704E+01 3.51180E+01 0.00000E+00
 -1      3383 6.08689E+01 2.13056E+01 0.00000E+00
 -1      3384 6.09802E+01 2.23155E+01 0.00000E+00
 -1      3385 6.23067E+01 2.27918E+01 0.00000E+00
 -1      3386 1.16910E+01 2.42375E+01 0.00000E+00
 -1      3387 1.16910E+01 2.57125E+01 0.00000E+00
 -1      3388 1.29900E+01 2.35000E+01 0.00000E+00
 -1      3389 4.59061E+01 3.93212E+01 0.00000E+00
 -1      3390 5.06421E+01 1.13393E+01 0.00000E+00
 -1      3391 1.38309E+02 1.69188E+01 0.00000E+00
 -1      3392 1.38309E+02 1.54563E+01 0.00000E+00
 -1      3393 3.57449E+01 3.52149E+01 0.00000E+00
 -1      3394 3.28761E+01 2.48477E+01 0.00000E+00
 -1      3395 3.35738E+01 2.41770E+01 0.00000E+00
 -1      3396 3.30104E+01 2.33364E+01 0.00000E+00
 -1      3397 1.29900E+01 1.46687E+01 0.00000E+00
 -1      3398 1.16910E+01 1.54063E+01 0.00000E+00
 -1      3399 1.16910E+01 1.68750E+01 0.00000E+00
 -1      3400 3.92434E+01 3.80232E+01 0.00000E+00
 -1      3401 3.50404E+01 3.81323E+01 0.00000E+00
 -1      3402 3.53544E+01 3.66906E+01 0.00000E+00
 -1      3403 3.43213E+01 3.51810E+01 0.00000E+00
 -1      3404 3.35404E+01 3.81323E+01 0.00000E+00
 -1      3405 4.04053E+01 3.88304E+01 0.00000E+00
 -1      3406 4.19053E+01 3.88304E+01 0.00000E+00
 -1      3407 1.38271E+02 3.73795E+01 0.00000E+00
 -1      3408 1.32152E+01 3.82007E+01 0.00000E+00
 -1      3409 1.45576E+01 3.82548E+01 0.00000E+00
 -1      3410 1.53076E+01 3.69558E+01 0.00000E+00
 -1      3411 5.16840E+01 3.87958E+01 0.00000E+00
 -1      3412 5.31840E+01 3.87958E+01 0.00000E+00
 -1      3413 5.52661E+01 3.87758E+01 0.00000E+00
 -1      3414 5.67661E+01 3.87758E+01 0.00000E+00
 -1      3415 5.97295E+01 1.95804E+01 0.00000E+00
 -1      3416 6.00877E+01 2.00122E+01 0.00000E+00
 -1      3417 2.42850E+01 1.05013E+01 0.00000E+00
 -1      3418 2.35350E+01 1.18003E+01 0.00000E+00
 -1      3419 2.57850E+01 1.05013E+01 0.00000E+00
 -1      3420 1.14286E+01 3.73811E+01 0.00000E+00
 -1      3421 6.13203E+01 3.20969E+01 0.00000E+00
 -1      3422 6.16331E+01 3.33356E+01 0.00000E+00
 -1      3423 3.85350E+01 1.16939E+01 0.00000E+00
 -1      3424 2.95350E+01 1.18003E+01 0.00000E+00
 -1      3425 2.87850E+01 1.05013E+01 0.00000E+00
 -1      3426 2.72850E+01 1.05013E+01 0.00000E+00
 -1      3427 5.87850E+01 1.05013E+01 0.00000E+00
 -1      3428 5.72850E+01 1.05013E+01 0.00000E+00
 -1      3429 1.34953E+02 1.07819E+01 0.00000E+00
 -1      3430 1.34203E+02 1.20809E+01 0.00000E+00
 -1      3431 1.36120E+02 1.10626E+01 0.00000E+00
 -1      3432 1.38309E+02 1.98687E+01 0.00000E+00
 -1      3433 1.38309E+02 1.83937E+01 0.00000E+00
 -1      3434 1.37010E+02 1.76625E+01 0.00000E+00
 -1      3435 1.16910E+01 1.98188E+01 0.00000E+00
 -1      3436 1.29900E+01 2.05562E+01 0.00000E+00
 -1      3437 1.16910E+01 1.83500E+01 0.00000E+00
 -1      3438 1.38309E+02 2.28156E+01 0.00000E+00
 -1      3439 1.38309E+02 2.13406E+01 0.00000E+00
 -1      3440 1.37010E+02 2.06094E+01 0.00000E+00
 -1      3441 1.37010E+02 2.35531E+01 0.00000E+00
 -1      3442 6.21355E+01 2.56958E+01 0.00000E+00
 -1      3443 6.28559E+01 2.65996E+01 0.00000E+00
 -1      3444 6.31384E+01 2.47055E+01 0.00000E+00
 -1      3445 1.38129E+02 3.62613E+01 0.00000E+00
 -1      3446 1.69669E+01 1.03515E+01 0.00000E+00
 -1      3447 1.54669E+01 1.03515E+01 0.00000E+00
 -1      3448 1.50806E+01 1.13509E+01 0.00000E+00
 -1      3449 1.77169E+01 1.16505E+01 0.00000E+00
 -1      3450 5.41932E+01 3.81301E+01 0.00000E+00
 -1      3451 4.31557E+01 3.90645E+01 0.00000E+00
 -1      3452 6.02264E+01 1.83865E+01 0.00000E+00
 -1      3453 3.27904E+01 3.68333E+01 0.00000E+00
 -1      3454 5.95350E+01 1.18003E+01 0.00000E+00
 -1      3455 5.05087E+01 3.93116E+01 0.00000E+00
 -1      3456 6.14142E+01 2.04886E+01 0.00000E+00
 -1      3457 6.12369E+01 3.12448E+01 0.00000E+00
 -1      3458 6.25497E+01 3.15721E+01 0.00000E+00
 -1      3459 6.11535E+01 3.03926E+01 0.00000E+00
 -1      3460 4.46557E+01 3.90871E+01 0.00000E+00
 -1      3461 1.16910E+01 3.30594E+01 0.00000E+00
 -1      3462 1.16910E+01 3.45281E+01 0.00000E+00
 -1      3463 4.90087E+01 3.93116E+01 0.00000E+00
 -1      3464 5.66934E+01 1.25606E+01 0.00000E+00
 -1      3465 3.42305E+01 1.80281E+01 0.00000E+00
 -1      3466 4.77752E+01 1.12004E+01 0.00000E+00
 -1      3467 1.38274E+02 1.38503E+01 0.00000E+00
 -1      3468 1.38073E+02 1.16503E+01 0.00000E+00
 -1      3469 1.36905E+02 1.13696E+01 0.00000E+00
 -1      3470 1.36975E+02 1.45815E+01 0.00000E+00
 -1      3471 3.35608E+01 2.11343E+01 0.00000E+00
 -1      3472 3.27811E+01 2.01959E+01 0.00000E+00
 -1      3473 3.29284E+01 2.17274E+01 0.00000E+00
 -1      3474 5.68240E+01 1.34981E+01 0.00000E+00
 -1      3475 5.71396E+01 1.47364E+01 0.00000E+00
 -1      3476 5.84269E+01 1.46130E+01 0.00000E+00
 -1      3477 5.81656E+01 1.27378E+01 0.00000E+00
 -1      3478 1.16910E+01 3.15906E+01 0.00000E+00
 -1      3479 1.29900E+01 3.23250E+01 0.00000E+00
 -1      3480 1.16910E+01 3.01219E+01 0.00000E+00
 -1      3481 3.35655E+01 3.02919E+01 0.00000E+00
 -1      3482 3.60953E+01 1.52422E+01 0.00000E+00
 -1      3483 3.57882E+01 1.29635E+01 0.00000E+00
 -1      3484 3.42882E+01 1.29635E+01 0.00000E+00
 -1      3485 3.47945E+01 1.52901E+01 0.00000E+00
 -1      3486 3.25003E+01 2.80356E+01 0.00000E+00
 -1      3487 3.32915E+01 2.72589E+01 0.00000E+00
 -1      3488 3.26483E+01 2.64650E+01 0.00000E+00
 -1      3489 1.36830E+02 3.55238E+01 0.00000E+00
 -1      3490 6.09168E+01 2.87580E+01 0.00000E+00
 -1      3491 6.10002E+01 2.96101E+01 0.00000E+00
 -1      3492 6.23130E+01 2.99375E+01 0.00000E+00
 -1      3493 6.20064E+01 2.83724E+01 0.00000E+00
 -1      3494 3.27111E+01 3.13305E+01 0.00000E+00
 -1      3495 3.22891E+01 2.98681E+01 0.00000E+00
 -1      3496 5.96656E+01 1.27378E+01 0.00000E+00
 -1      3497 2.34000E+01 3.57110E+01 0.00000E+00
 -1      3498 2.49000E+01 3.57110E+01 0.00000E+00
 -1      3499 2.64000E+01 3.57110E+01 0.00000E+00
 -1      3500 2.79000E+01 3.57110E+01 0.00000E+00
 -1      3501 2.56500E+01 3.44120E+01 0.00000E+00
 -1      3502 2.94000E+01 3.57110E+01 0.00000E+00
 -1      3503 3.09000E+01 3.57110E+01 0.00000E+00
 -1      3504 2.86500E+01 3.44120E+01 0.00000E+00
 -1      3505 6.10886E+01 1.74463E+01 0.00000E+00
 -1      3506 6.14953E+01 1.82551E+01 0.00000E+00
 -1      3507 5.75161E+01 3.74768E+01 0.00000E+00
 -1      3508 6.24000E+01 3.59236E+01 0.00000E+00
 -1      3509 6.39000E+01 3.59236E+01 0.00000E+00
 -1      3510 6.54000E+01 3.59236E+01 0.00000E+00
 -1      3511 6.69000E+01 3.59236E+01 0.00000E+00
 -1      3512 6.46500E+01 3.46246E+01 0.00000E+00
 -1      3513 6.84000E+01 3.59236E+01 0.00000E+00
 -1      3514 6.99000E+01 3.59236E+01 0.00000E+00
 -1      3515 6.76500E+01 3.46246E+01 0.00000E+00
 -1      3516 7.14000E+01 3.59236E+01 0.00000E+00
 -1      3517 7.29000E+01 3.59236E+01 0.00000E+00
 -1      3518 7.06500E+01 3.46246E+01 0.00000E+00
 -1      3519 7.44000E+01 3.59236E+01 0.00000E+00
 -1      3520 7.59000E+01 3.59236E+01 0.00000E+00
 -1      3521 7.36500E+01 3.46246E+01 0.00000E+00
 -1      3522 7.74000E+01 3.59236E+01 0.00000E+00
 -1      3523 7.89000E+01 3.59236E+01 0.00000E+00
 -1      3524 7.66500E+01 3.46246E+01 0.00000E+00
 -1      3525 8.04000E+01 3.59236E+01 0.00000E+00
 -1      3526 8.19000E+01 3.59236E+01 0.00000E+00
 -1      3527 7.96500E+01 3.46246E+01 0.00000E+00
 -1      3528 8.34000E+01 3.59236E+01 0.00000E+00
 -1      3529 8.49000E+01 3.59236E+01 0.00000E+00
 -1      3530 8.26500E+01 3.46246E+01 0.00000E+00
 -1      3531 8.64000E+01 3.59236E+01 0.00000E+00
 -1      3532 8.79000E+01 3.59236E+01 0.00000E+00
 -1      3533 8.56500E+01 3.46246E+01 0.00000E+00
 -1      3534 8.94000E+01 3.59236E+01 0.00000E+00
 -1      3535 9.09000E+01 3.59236E+01 0.00000E+00
 -1      3536 8.86500E+01 3.46246E+01 0.00000E+00
 -1      3537 9.24000E+01 3.59236E+01 0.00000E+00
 -1      3538 9.39000E+01 3.59236E+01 0.00000E+00
 -1      3539 9.16500E+01 3.46246E+01 0.00000E+00
 -1      3540 9.54000E+01 3.59236E+01 0.00000E+00
 -1      3541 9.69000E+01 3.59236E+01 0.00000E+00
 -1      3542 9.46500E+01 3.46246E+01 0.00000E+00
 -1      3543 9.84000E+01 3.59236E+01 0.00000E+00
 -1      3544 9.99000E+01 3.59236E+01 0.00000E+00
 -1      3545 9.76500E+01 3.46246E+01 0.00000E+00
 -1      3546 1.01400E+02 3.59236E+01 0.00000E+00
 -1      3547 1.02900E+02 3.59236E+01 0.00000E+00
 -1      3548 1.00650E+02 3.46246E+01 0.00000E+00
 -1      3549 1.04400E+02 3.59236E+01 0.00000E+00
 -1      3550 1.05900E+02 3.59236E+01 0.00000E+00
 -1      3551 1.03650E+02 3.46246E+01 0.00000E+00
 -1      3552 1.07400E+02 3.59236E+01 0.00000E+00
 -1      3553 1.08900E+02 3.59236E+01 0.00000E+00
 -1      3554 1.06650E+02 3.46246E+01 0.00000E+00
 -1      3555 1.10400E+02 3.59236E+01 0.00000E+00
 -1      3556 1.11900E+02 3.59236E+01 0.00000E+00
 -1      3557 1.09650E+02 3.46246E+01 0.00000E+00
 -1      3558 1.13400E+02 3.59236E+01 0.00000E+00
 -1      3559 1.14900E+02 3.59236E+01 0.00000E+00
 -1      3560 1.12650E+02 3.46246E+01 0.00000E+00
 -1      3561 1.16400E+02 3.59236E+01 0.00000E+00
 -1      3562 1.17900E+02 3.59236E+01 0.00000E+00
 -1      3563 1.15650E+02 3.46246E+01 0.00000E+00
 -1      3564 1.19400E+02 3.59236E+01 0.00000E+00
 -1      3565 1.20900E+02 3.59236E+01 0.00000E+00
 -1      3566 1.18650E+02 3.46246E+01 0.00000E+00
 -1      3567 1.22400E+02 3.59236E+01 0.00000E+00
 -1      3568 1.23900E+02 3.59236E+01 0.00000E+00
 -1      3569 1.21650E+02 3.46246E+01 0.00000E+00
 -1      3570 1.25400E+02 3.59236E+01 0.00000E+00
 -1      3571 1.26900E+02 3.59236E+01 0.00000E+00
 -1      3572 1.24650E+02 3.46246E+01 0.00000E+00
 -1      3573 1.28400E+02 3.59236E+01 0.00000E+00
 -1      3574 1.29900E+02 3.59236E+01 0.00000E+00
 -1      3575 1.27650E+02 3.46246E+01 0.00000E+00
 -1      3576 1.31400E+02 3.59236E+01 0.00000E+00
 -1      3577 1.32900E+02 3.59236E+01 0.00000E+00
 -1      3578 1.30650E+02 3.46246E+01 0.00000E+00
 -1      3579 1.34115E+02 3.57237E+01 0.00000E+00
 -1      3580 1.35615E+02 3.57237E+01 0.00000E+00
 -1      3581 1.35795E+02 3.40249E+01 0.00000E+00
 -1      3582 1.33365E+02 3.44247E+01 0.00000E+00
 -1      3583 6.33533E+01 2.21654E+01 0.00000E+00
 -1      3584 6.34645E+01 2.31753E+01 0.00000E+00
 -1      3585 5.36934E+01 1.24543E+01 0.00000E+00
 -1      3586 6.32850E+01 1.30992E+01 0.00000E+00
 -1      3587 6.17850E+01 1.30992E+01 0.00000E+00
 -1      3588 7.22850E+01 1.30992E+01 0.00000E+00
 -1      3589 7.07850E+01 1.30992E+01 0.00000E+00
 -1      3590 7.52850E+01 1.30992E+01 0.00000E+00
 -1      3591 7.37850E+01 1.30992E+01 0.00000E+00
 -1      3592 7.30350E+01 1.43982E+01 0.00000E+00
 -1      3593 7.82850E+01 1.30992E+01 0.00000E+00
 -1      3594 7.67850E+01 1.30992E+01 0.00000E+00
 -1      3595 7.60350E+01 1.43982E+01 0.00000E+00
 -1      3596 8.12850E+01 1.30992E+01 0.00000E+00
 -1      3597 7.97850E+01 1.30992E+01 0.00000E+00
 -1      3598 7.90350E+01 1.43982E+01 0.00000E+00
 -1      3599 8.42850E+01 1.30992E+01 0.00000E+00
 -1      3600 8.27850E+01 1.30992E+01 0.00000E+00
 -1      3601 8.20350E+01 1.43982E+01 0.00000E+00
 -1      3602 8.72850E+01 1.30992E+01 0.00000E+00
 -1      3603 8.57850E+01 1.30992E+01 0.00000E+00
 -1      3604 8.50350E+01 1.43982E+01 0.00000E+00
 -1      3605 9.02850E+01 1.30992E+01 0.00000E+00
 -1      3606 8.87850E+01 1.30992E+01 0.00000E+00
 -1      3607 8.80350E+01 1.43982E+01 0.00000E+00
 -1      3608 9.32850E+01 1.30992E+01 0.00000E+00
 -1      3609 9.17850E+01 1.30992E+01 0.00000E+00
 -1      3610 9.10350E+01 1.43982E+01 0.00000E+00
 -1      3611 9.62850E+01 1.30992E+01 0.00000E+00
 -1      3612 9.47850E+01 1.30992E+01 0.00000E+00
 -1      3613 9.40350E+01 1.43982E+01 0.00000E+00
 -1      3614 9.92850E+01 1.30992E+01 0.00000E+00
 -1      3615 9.77850E+01 1.30992E+01 0.00000E+00
 -1      3616 9.70350E+01 1.43982E+01 0.00000E+00
 -1      3617 1.02285E+02 1.30992E+01 0.00000E+00
 -1      3618 1.00785E+02 1.30992E+01 0.00000E+00
 -1      3619 1.00035E+02 1.43982E+01 0.00000E+00
 -1      3620 1.05285E+02 1.30992E+01 0.00000E+00
 -1      3621 1.03785E+02 1.30992E+01 0.00000E+00
 -1      3622 1.03035E+02 1.43982E+01 0.00000E+00
 -1      3623 1.08285E+02 1.30992E+01 0.00000E+00
 -1      3624 1.06785E+02 1.30992E+01 0.00000E+00
 -1      3625 1.06035E+02 1.43982E+01 0.00000E+00
 -1      3626 1.11285E+02 1.30992E+01 0.00000E+00
 -1      3627 1.09785E+02 1.30992E+01 0.00000E+00
 -1      3628 1.09035E+02 1.43982E+01 0.00000E+00
 -1      3629 1.14285E+02 1.30992E+01 0.00000E+00
 -1      3630 1.12785E+02 1.30992E+01 0.00000E+00
 -1      3631 1.12035E+02 1.43982E+01 0.00000E+00
 -1      3632 1.17285E+02 1.30992E+01 0.00000E+00
 -1      3633 1.15785E+02 1.30992E+01 0.00000E+00
 -1      3634 1.15035E+02 1.43982E+01 0.00000E+00
 -1      3635 1.20285E+02 1.30992E+01 0.00000E+00
 -1      3636 1.18785E+02 1.30992E+01 0.00000E+00
 -1      3637 1.18035E+02 1.43982E+01 0.00000E+00
 -1      3638 1.23285E+02 1.30992E+01 0.00000E+00
 -1      3639 1.21785E+02 1.30992E+01 0.00000E+00
 -1      3640 1.21035E+02 1.43982E+01 0.00000E+00
 -1      3641 1.26285E+02 1.30992E+01 0.00000E+00
 -1      3642 1.24785E+02 1.30992E+01 0.00000E+00
 -1      3643 1.24035E+02 1.43982E+01 0.00000E+00
 -1      3644 1.29285E+02 1.30992E+01 0.00000E+00
 -1      3645 1.27785E+02 1.30992E+01 0.00000E+00
 -1      3646 1.27035E+02 1.43982E+01 0.00000E+00
 -1      3647 1.32285E+02 1.30992E+01 0.00000E+00
 -1      3648 1.30785E+02 1.30992E+01 0.00000E+00
 -1      3649 1.30035E+02 1.43982E+01 0.00000E+00
 -1      3650 1.21786E+01 3.60821E+01 0.00000E+00
 -1      3651 1.35795E+02 3.25499E+01 0.00000E+00
 -1      3652 1.35795E+02 3.10749E+01 0.00000E+00
 -1      3653 1.34580E+02 3.27498E+01 0.00000E+00
 -1      3654 2.12850E+01 1.30992E+01 0.00000E+00
 -1      3655 1.97850E+01 1.30992E+01 0.00000E+00
 -1      3656 1.34776E+01 3.53477E+01 0.00000E+00
 -1      3657 6.92850E+01 1.30992E+01 0.00000E+00
 -1      3658 6.77850E+01 1.30992E+01 0.00000E+00
 -1      3659 7.00350E+01 1.43982E+01 0.00000E+00
 -1      3660 6.62850E+01 1.30992E+01 0.00000E+00
 -1      3661 6.47850E+01 1.30992E+01 0.00000E+00
 -1      3662 6.40350E+01 1.43982E+01 0.00000E+00
 -1      3663 6.70350E+01 1.43982E+01 0.00000E+00
 -1      3664 3.28377E+01 1.83048E+01 0.00000E+00
 -1      3665 3.36548E+01 1.67300E+01 0.00000E+00
 -1      3666 3.27882E+01 1.29635E+01 0.00000E+00
 -1      3667 3.12882E+01 1.29635E+01 0.00000E+00
 -1      3668 3.30413E+01 1.41268E+01 0.00000E+00
 -1      3669 1.16910E+01 2.71844E+01 0.00000E+00
 -1      3670 1.16910E+01 2.86531E+01 0.00000E+00
 -1      3671 1.29900E+01 2.93875E+01 0.00000E+00
 -1      3672 6.05462E+01 1.49744E+01 0.00000E+00
 -1      3673 6.11773E+01 1.59880E+01 0.00000E+00
 -1      3674 3.20404E+01 3.55343E+01 0.00000E+00
 -1      3675 3.31809E+01 3.53577E+01 0.00000E+00
 -1      3676 3.35713E+01 3.38820E+01 0.00000E+00
 -1      3677 3.12904E+01 3.42353E+01 0.00000E+00
 -1      3678 1.74000E+01 3.57110E+01 0.00000E+00
 -1      3679 1.89000E+01 3.57110E+01 0.00000E+00
 -1      3680 3.32092E+01 3.29065E+01 0.00000E+00
 -1      3681 6.28915E+01 3.35244E+01 0.00000E+00
 -1      3682 6.18915E+01 3.44358E+01 0.00000E+00
 -1      3683 2.04000E+01 3.57110E+01 0.00000E+00
 -1      3684 2.19000E+01 3.57110E+01 0.00000E+00
 -1      3685 2.26500E+01 3.44120E+01 0.00000E+00
 -1      3686 6.22764E+01 1.95484E+01 0.00000E+00
 -1      3687 6.30576E+01 2.08417E+01 0.00000E+00
 -1      3688 6.31386E+01 1.86082E+01 0.00000E+00
 -1      3689 1.29900E+01 2.64469E+01 0.00000E+00
 -1      3690 2.65350E+01 1.18003E+01 0.00000E+00
 -1      3691 1.42890E+01 1.98219E+01 0.00000E+00
 -1      3692 1.42890E+01 2.12906E+01 0.00000E+00
 -1      3693 1.96500E+01 3.44120E+01 0.00000E+00
 -1      3694 3.20849E+01 2.56244E+01 0.00000E+00
 -1      3695 3.15215E+01 2.47839E+01 0.00000E+00
 -1      3696 3.12937E+01 2.64012E+01 0.00000E+00
 -1      3697 1.42890E+01 1.39344E+01 0.00000E+00
 -1      3698 1.42890E+01 1.54031E+01 0.00000E+00
 -1      3699 6.42155E+01 2.12252E+01 0.00000E+00
 -1      3700 6.24462E+01 1.58566E+01 0.00000E+00
 -1      3701 1.34580E+02 2.98123E+01 0.00000E+00
 -1      3702 1.35795E+02 2.96124E+01 0.00000E+00
 -1      3703 1.35795E+02 2.81499E+01 0.00000E+00
 -1      3704 6.11415E+01 3.57348E+01 0.00000E+00
 -1      3705 3.19328E+01 3.24827E+01 0.00000E+00
 -1      3706 2.42850E+01 1.30992E+01 0.00000E+00
 -1      3707 2.27850E+01 1.30992E+01 0.00000E+00
 -1      3708 2.20350E+01 1.43982E+01 0.00000E+00
 -1      3709 6.41850E+01 2.40791E+01 0.00000E+00
 -1      3710 2.97882E+01 1.29635E+01 0.00000E+00
 -1      3711 2.82882E+01 1.29635E+01 0.00000E+00
 -1      3712 3.00413E+01 1.41268E+01 0.00000E+00
 -1      3713 1.55880E+01 2.20313E+01 0.00000E+00
 -1      3714 1.42890E+01 2.27656E+01 0.00000E+00
 -1      3715 1.42890E+01 2.42406E+01 0.00000E+00
 -1      3716 1.36155E+02 1.26686E+01 0.00000E+00
 -1      3717 1.34620E+02 1.36606E+01 0.00000E+00
 -1      3718 1.33453E+02 1.33799E+01 0.00000E+00
 -1      3719 1.32703E+02 1.46789E+01 0.00000E+00
 -1      3720 3.34016E+01 1.55667E+01 0.00000E+00
 -1      3721 1.47676E+01 3.55023E+01 0.00000E+00
 -1      3722 1.61100E+01 3.55564E+01 0.00000E+00
 -1      3723 1.68600E+01 3.42574E+01 0.00000E+00
 -1      3724 1.42800E+01 3.39483E+01 0.00000E+00
 -1      3725 1.35795E+02 2.66874E+01 0.00000E+00
 -1      3726 1.35795E+02 2.52249E+01 0.00000E+00
 -1      3727 1.34580E+02 2.68873E+01 0.00000E+00
 -1      3728 1.35711E+02 1.84000E+01 0.00000E+00
 -1      3729 1.35711E+02 1.69250E+01 0.00000E+00
 -1      3730 1.29900E+01 1.76125E+01 0.00000E+00
 -1      3731 3.22307E+01 2.23981E+01 0.00000E+00
 -1      3732 3.14510E+01 2.14598E+01 0.00000E+00
 -1      3733 3.15330E+01 2.30688E+01 0.00000E+00
 -1      3734 6.40777E+01 2.68338E+01 0.00000E+00
 -1      3735 6.30748E+01 2.78242E+01 0.00000E+00
 -1      3736 1.42800E+01 3.24796E+01 0.00000E+00
 -1      3737 1.55700E+01 3.26341E+01 0.00000E+00
 -1      3738 1.42800E+01 3.10108E+01 0.00000E+00
 -1      3739 6.00788E+01 3.66058E+01 0.00000E+00
 -1      3740 1.34580E+02 2.39529E+01 0.00000E+00
 -1      3741 1.35795E+02 2.37530E+01 0.00000E+00
 -1      3742 1.35795E+02 2.22812E+01 0.00000E+00
 -1      3743 1.84669E+01 1.29495E+01 0.00000E+00
 -1      3744 1.71488E+01 1.27997E+01 0.00000E+00
 -1      3745 1.92169E+01 1.42485E+01 0.00000E+00
 -1      3746 6.32281E+01 2.86067E+01 0.00000E+00
 -1      3747 3.07915E+01 3.01129E+01 0.00000E+00
 -1      3748 3.16459E+01 2.90743E+01 0.00000E+00
 -1      3749 3.10027E+01 2.82804E+01 0.00000E+00
 -1      3750 6.36950E+01 3.10299E+01 0.00000E+00
 -1      3751 6.37784E+01 3.18820E+01 0.00000E+00
 -1      3752 1.34141E+02 1.63111E+01 0.00000E+00
 -1      3753 1.35440E+02 1.55736E+01 0.00000E+00
 -1      3754 3.15730E+01 1.94909E+01 0.00000E+00
 -1      3755 3.22054E+01 1.88978E+01 0.00000E+00
 -1      3756 3.16296E+01 1.75998E+01 0.00000E+00
 -1      3757 6.40850E+01 3.27032E+01 0.00000E+00
 -1      3758 6.43434E+01 3.38034E+01 0.00000E+00
 -1      3759 6.58434E+01 3.38034E+01 0.00000E+00
 -1      3760 6.52303E+01 3.21610E+01 0.00000E+00
 -1      3761 1.89000E+01 3.31130E+01 0.00000E+00
 -1      3762 2.04000E+01 3.31130E+01 0.00000E+00
 -1      3763 6.04156E+01 1.40368E+01 0.00000E+00
 -1      3764 1.46944E+01 1.23503E+01 0.00000E+00
 -1      3765 1.59934E+01 1.30847E+01 0.00000E+00
 -1      3766 6.51499E+01 2.03216E+01 0.00000E+00
 -1      3767 6.54455E+01 2.16453E+01 0.00000E+00
 -1      3768 1.42890E+01 2.57125E+01 0.00000E+00
 -1      3769 1.42890E+01 2.71844E+01 0.00000E+00
 -1      3770 1.55880E+01 2.49781E+01 0.00000E+00
 -1      3771 2.79000E+01 3.31130E+01 0.00000E+00
 -1      3772 2.94000E+01 3.31130E+01 0.00000E+00
 -1      3773 5.85788E+01 3.66058E+01 0.00000E+00
 -1      3774 6.73434E+01 3.38034E+01 0.00000E+00
 -1      3775 6.88434E+01 3.38034E+01 0.00000E+00
 -1      3776 6.70369E+01 3.29822E+01 0.00000E+00
 -1      3777 7.03434E+01 3.38034E+01 0.00000E+00
 -1      3778 7.18434E+01 3.38034E+01 0.00000E+00
 -1      3779 7.00369E+01 3.29822E+01 0.00000E+00
 -1      3780 7.33434E+01 3.38034E+01 0.00000E+00
 -1      3781 7.48434E+01 3.38034E+01 0.00000E+00
 -1      3782 7.30369E+01 3.29822E+01 0.00000E+00
 -1      3783 7.63434E+01 3.38034E+01 0.00000E+00
 -1      3784 7.78434E+01 3.38034E+01 0.00000E+00
 -1      3785 7.60369E+01 3.29822E+01 0.00000E+00
 -1      3786 7.93434E+01 3.38034E+01 0.00000E+00
 -1      3787 8.08434E+01 3.38034E+01 0.00000E+00
 -1      3788 7.90369E+01 3.29822E+01 0.00000E+00
 -1      3789 8.23434E+01 3.38034E+01 0.00000E+00
 -1      3790 8.38434E+01 3.38034E+01 0.00000E+00
 -1      3791 8.20369E+01 3.29822E+01 0.00000E+00
 -1      3792 8.53434E+01 3.38034E+01 0.00000E+00
 -1      3793 8.68434E+01 3.38034E+01 0.00000E+00
 -1      3794 8.50369E+01 3.29822E+01 0.00000E+00
 -1      3795 8.83434E+01 3.38034E+01 0.00000E+00
 -1      3796 8.98434E+01 3.38034E+01 0.00000E+00
 -1      3797 8.80369E+01 3.29822E+01 0.00000E+00
 -1      3798 9.13434E+01 3.38034E+01 0.00000E+00
 -1      3799 9.28434E+01 3.38034E+01 0.00000E+00
 -1      3800 9.10369E+01 3.29822E+01 0.00000E+00
 -1      3801 9.43434E+01 3.38034E+01 0.00000E+00
 -1      3802 9.58434E+01 3.38034E+01 0.00000E+00
 -1      3803 9.40369E+01 3.29822E+01 0.00000E+00
 -1      3804 9.73434E+01 3.38034E+01 0.00000E+00
 -1      3805 9.88434E+01 3.38034E+01 0.00000E+00
 -1      3806 9.70369E+01 3.29822E+01 0.00000E+00
 -1      3807 1.00343E+02 3.38034E+01 0.00000E+00
 -1      3808 1.01843E+02 3.38034E+01 0.00000E+00
 -1      3809 1.00037E+02 3.29822E+01 0.00000E+00
 -1      3810 1.03343E+02 3.38034E+01 0.00000E+00
 -1      3811 1.04843E+02 3.38034E+01 0.00000E+00
 -1      3812 1.03037E+02 3.29822E+01 0.00000E+00
 -1      3813 1.06343E+02 3.38034E+01 0.00000E+00
 -1      3814 1.07843E+02 3.38034E+01 0.00000E+00
 -1      3815 1.06037E+02 3.29822E+01 0.00000E+00
 -1      3816 1.09343E+02 3.38034E+01 0.00000E+00
 -1      3817 1.10843E+02 3.38034E+01 0.00000E+00
 -1      3818 1.09037E+02 3.29822E+01 0.00000E+00
 -1      3819 1.12343E+02 3.38034E+01 0.00000E+00
 -1      3820 1.13843E+02 3.38034E+01 0.00000E+00
 -1      3821 1.12037E+02 3.29822E+01 0.00000E+00
 -1      3822 1.15343E+02 3.38034E+01 0.00000E+00
 -1      3823 1.16843E+02 3.38034E+01 0.00000E+00
 -1      3824 1.15037E+02 3.29822E+01 0.00000E+00
 -1      3825 1.18343E+02 3.38034E+01 0.00000E+00
 -1      3826 1.19843E+02 3.38034E+01 0.00000E+00
 -1      3827 1.18037E+02 3.29822E+01 0.00000E+00
 -1      3828 1.21343E+02 3.38034E+01 0.00000E+00
 -1      3829 1.22843E+02 3.38034E+01 0.00000E+00
 -1      3830 1.21037E+02 3.29822E+01 0.00000E+00
 -1      3831 1.24343E+02 3.38034E+01 0.00000E+00
 -1      3832 1.25843E+02 3.38034E+01 0.00000E+00
 -1      3833 1.24037E+02 3.29822E+01 0.00000E+00
 -1      3834 1.27343E+02 3.38034E+01 0.00000E+00
 -1      3835 1.28843E+02 3.38034E+01 0.00000E+00
 -1      3836 1.27037E+02 3.29822E+01 0.00000E+00
 -1      3837 1.30343E+02 3.38034E+01 0.00000E+00
 -1      3838 1.31843E+02 3.38034E+01 0.00000E+00
 -1      3839 1.30037E+02 3.29822E+01 0.00000E+00
 -1      3840 1.33365E+02 3.29497E+01 0.00000E+00
 -1      3841 1.35753E+02 2.10765E+01 0.00000E+00
 -1      3842 1.35753E+02 1.96046E+01 0.00000E+00
 -1      3843 1.34454E+02 1.88671E+01 0.00000E+00
 -1      3844 1.34538E+02 2.12764E+01 0.00000E+00
 -1      3845 7.67850E+01 1.56973E+01 0.00000E+00
 -1      3846 7.52850E+01 1.56973E+01 0.00000E+00
 -1      3847 7.37850E+01 1.56973E+01 0.00000E+00
 -1      3848 7.22850E+01 1.56973E+01 0.00000E+00
 -1      3849 7.45350E+01 1.69963E+01 0.00000E+00
 -1      3850 8.27850E+01 1.56973E+01 0.00000E+00
 -1      3851 8.12850E+01 1.56973E+01 0.00000E+00
 -1      3852 8.57850E+01 1.56973E+01 0.00000E+00
 -1      3853 8.42850E+01 1.56973E+01 0.00000E+00
 -1      3854 8.35350E+01 1.69963E+01 0.00000E+00
 -1      3855 8.87850E+01 1.56973E+01 0.00000E+00
 -1      3856 8.72850E+01 1.56973E+01 0.00000E+00
 -1      3857 8.65350E+01 1.69963E+01 0.00000E+00
 -1      3858 9.17850E+01 1.56973E+01 0.00000E+00
 -1      3859 9.02850E+01 1.56973E+01 0.00000E+00
 -1      3860 8.95350E+01 1.69963E+01 0.00000E+00
 -1      3861 9.47850E+01 1.56973E+01 0.00000E+00
 -1      3862 9.32850E+01 1.56973E+01 0.00000E+00
 -1      3863 9.25350E+01 1.69963E+01 0.00000E+00
 -1      3864 9.77850E+01 1.56973E+01 0.00000E+00
 -1      3865 9.62850E+01 1.56973E+01 0.00000E+00
 -1      3866 9.55350E+01 1.69963E+01 0.00000E+00
 -1      3867 1.00785E+02 1.56973E+01 0.00000E+00
 -1      3868 9.92850E+01 1.56973E+01 0.00000E+00
 -1      3869 9.85350E+01 1.69963E+01 0.00000E+00
 -1      3870 1.03785E+02 1.56973E+01 0.00000E+00
 -1      3871 1.02285E+02 1.56973E+01 0.00000E+00
 -1      3872 1.01535E+02 1.69963E+01 0.00000E+00
 -1      3873 1.06785E+02 1.56973E+01 0.00000E+00
 -1      3874 1.05285E+02 1.56973E+01 0.00000E+00
 -1      3875 1.04535E+02 1.69963E+01 0.00000E+00
 -1      3876 1.09785E+02 1.56973E+01 0.00000E+00
 -1      3877 1.08285E+02 1.56973E+01 0.00000E+00
 -1      3878 1.07535E+02 1.69963E+01 0.00000E+00
 -1      3879 1.12785E+02 1.56973E+01 0.00000E+00
 -1      3880 1.11285E+02 1.56973E+01 0.00000E+00
 -1      3881 1.10535E+02 1.69963E+01 0.00000E+00
 -1      3882 1.15785E+02 1.56973E+01 0.00000E+00
 -1      3883 1.14285E+02 1.56973E+01 0.00000E+00
 -1      3884 1.13535E+02 1.69963E+01 0.00000E+00
 -1      3885 1.18785E+02 1.56973E+01 0.00000E+00
 -1      3886 1.17285E+02 1.56973E+01 0.00000E+00
 -1      3887 1.16535E+02 1.69963E+01 0.00000E+00
 -1      3888 1.21785E+02 1.56973E+01 0.00000E+00
 -1      3889 1.20285E+02 1.56973E+01 0.00000E+00
 -1      3890 1.19535E+02 1.69963E+01 0.00000E+00
 -1      3891 1.24785E+02 1.56973E+01 0.00000E+00
 -1      3892 1.23285E+02 1.56973E+01 0.00000E+00
 -1      3893 1.22535E+02 1.69963E+01 0.00000E+00
 -1      3894 1.27785E+02 1.56973E+01 0.00000E+00
 -1      3895 1.26285E+02 1.56973E+01 0.00000E+00
 -1      3896 1.25535E+02 1.69963E+01 0.00000E+00
 -1      3897 1.30785E+02 1.56973E+01 0.00000E+00
 -1      3898 1.29285E+02 1.56973E+01 0.00000E+00
 -1      3899 1.28535E+02 1.69963E+01 0.00000E+00
 -1      3900 3.19016E+01 1.55667E+01 0.00000E+00
 -1      3901 3.07923E+01 3.26594E+01 0.00000E+00
 -1      3902 1.42890E+01 1.68750E+01 0.00000E+00
 -1      3903 1.42890E+01 1.83500E+01 0.00000E+00
 -1      3904 1.55880E+01 1.90844E+01 0.00000E+00
 -1      3905 1.55880E+01 1.61406E+01 0.00000E+00
 -1      3906 6.50598E+01 2.60264E+01 0.00000E+00
 -1      3907 6.52787E+01 2.72510E+01 0.00000E+00
 -1      3908 6.57122E+01 2.29661E+01 0.00000E+00
 -1      3909 6.53860E+01 2.44962E+01 0.00000E+00
 -1      3910 6.65871E+01 2.49134E+01 0.00000E+00
 -1      3911 6.33814E+01 2.93892E+01 0.00000E+00
 -1      3912 6.35347E+01 3.01717E+01 0.00000E+00
 -1      3913 6.44499E+01 2.88409E+01 0.00000E+00
 -1      3914 1.67434E+01 1.43837E+01 0.00000E+00
 -1      3915 7.07850E+01 1.56973E+01 0.00000E+00
 -1      3916 6.92850E+01 1.56973E+01 0.00000E+00
 -1      3917 7.15350E+01 1.69963E+01 0.00000E+00
 -1      3918 3.00423E+01 3.13604E+01 0.00000E+00
 -1      3919 7.97850E+01 1.56973E+01 0.00000E+00
 -1      3920 7.82850E+01 1.56973E+01 0.00000E+00
 -1      3921 8.05350E+01 1.69963E+01 0.00000E+00
 -1      3922 6.47635E+01 3.04816E+01 0.00000E+00
 -1      3923 1.35405E+02 1.39676E+01 0.00000E+00
 -1      3924 2.70366E+01 1.30314E+01 0.00000E+00
 -1      3925 2.55366E+01 1.30314E+01 0.00000E+00
 -1      3926 2.47866E+01 1.43304E+01 0.00000E+00
 -1      3927 2.72897E+01 1.41947E+01 0.00000E+00
 -1      3928 1.65900E+01 3.27963E+01 0.00000E+00
 -1      3929 1.78800E+01 3.29508E+01 0.00000E+00
 -1      3930 1.86300E+01 3.16518E+01 0.00000E+00
 -1      3931 1.65900E+01 3.13275E+01 0.00000E+00
 -1      3932 1.33047E+02 1.61445E+01 0.00000E+00
 -1      3933 1.31879E+02 1.58638E+01 0.00000E+00
 -1      3934 1.31129E+02 1.71628E+01 0.00000E+00
 -1      3935 1.33318E+02 1.74959E+01 0.00000E+00
 -1      3936 2.19000E+01 3.31130E+01 0.00000E+00
 -1      3937 2.34000E+01 3.31130E+01 0.00000E+00
 -1      3938 2.11500E+01 3.18140E+01 0.00000E+00
 -1      3939 6.36312E+01 1.57741E+01 0.00000E+00
 -1      3940 6.35424E+01 1.72324E+01 0.00000E+00
 -1      3941 6.43236E+01 1.85257E+01 0.00000E+00
 -1      3942 6.51312E+01 1.57741E+01 0.00000E+00
 -1      3943 1.42845E+01 2.83632E+01 0.00000E+00
 -1      3944 1.42845E+01 2.98320E+01 0.00000E+00
 -1      3945 1.55745E+01 2.99865E+01 0.00000E+00
 -1      3946 1.55835E+01 2.76288E+01 0.00000E+00
 -1      3947 2.49000E+01 3.31130E+01 0.00000E+00
 -1      3948 2.64000E+01 3.31130E+01 0.00000E+00
 -1      3949 2.71500E+01 3.18140E+01 0.00000E+00
 -1      3950 2.41500E+01 3.18140E+01 0.00000E+00
 -1      3951 3.10156E+01 1.65832E+01 0.00000E+00
 -1      3952 3.06553E+01 1.51433E+01 0.00000E+00
 -1      3953 2.91553E+01 1.51433E+01 0.00000E+00
 -1      3954 3.03833E+01 1.71763E+01 0.00000E+00
 -1      3955 3.04393E+01 2.74398E+01 0.00000E+00
 -1      3956 2.98758E+01 2.65992E+01 0.00000E+00
 -1      3957 2.95848E+01 2.84785E+01 0.00000E+00
 -1      3958 6.66466E+01 2.20625E+01 0.00000E+00
 -1      3959 1.68870E+01 2.12938E+01 0.00000E+00
 -1      3960 1.68870E+01 2.27687E+01 0.00000E+00
 -1      3961 1.33281E+02 3.05436E+01 0.00000E+00
 -1      3962 1.33281E+02 2.90811E+01 0.00000E+00
 -1      3963 2.93991E+01 3.05665E+01 0.00000E+00
 -1      3964 3.08753E+01 2.01617E+01 0.00000E+00
 -1      3965 3.02995E+01 1.88636E+01 0.00000E+00
 -1      3966 3.01775E+01 2.08324E+01 0.00000E+00
 -1      3967 1.67434E+01 1.58556E+01 0.00000E+00
 -1      3968 1.67434E+01 1.73275E+01 0.00000E+00
 -1      3969 1.78988E+01 1.55706E+01 0.00000E+00
 -1      3970 7.75350E+01 1.69963E+01 0.00000E+00
 -1      3971 3.07418E+01 2.38455E+01 0.00000E+00
 -1      3972 2.99621E+01 2.29072E+01 0.00000E+00
 -1      3973 2.99506E+01 2.46223E+01 0.00000E+00
 -1      3974 1.33402E+02 1.99052E+01 0.00000E+00
 -1      3975 1.33360E+02 1.87006E+01 0.00000E+00
 -1      3976 1.32266E+02 1.85340E+01 0.00000E+00
 -1      3977 6.64142E+01 2.72261E+01 0.00000E+00
 -1      3978 6.54320E+01 2.80335E+01 0.00000E+00
 -1      3979 6.55853E+01 2.88160E+01 0.00000E+00
 -1      3980 1.33281E+02 2.46889E+01 0.00000E+00
 -1      3981 1.33281E+02 2.32170E+01 0.00000E+00
 -1      3982 1.92169E+01 1.57203E+01 0.00000E+00
 -1      3983 6.79581E+01 1.57357E+01 0.00000E+00
 -1      3984 6.64581E+01 1.57357E+01 0.00000E+00
 -1      3985 6.60543E+01 1.71115E+01 0.00000E+00
 -1      3986 6.87081E+01 1.70347E+01 0.00000E+00
 -1      3987 1.68152E+01 1.85747E+01 0.00000E+00
 -1      3988 1.68152E+01 2.00465E+01 0.00000E+00
 -1      3989 1.81142E+01 2.07840E+01 0.00000E+00
 -1      3990 1.79706E+01 1.82896E+01 0.00000E+00
 -1      3991 6.64238E+01 3.13398E+01 0.00000E+00
 -1      3992 6.67303E+01 3.21610E+01 0.00000E+00
 -1      3993 6.82303E+01 3.21610E+01 0.00000E+00
 -1      3994 6.58040E+01 1.80287E+01 0.00000E+00
 -1      3995 6.54002E+01 1.94045E+01 0.00000E+00
 -1      3996 6.66303E+01 1.98246E+01 0.00000E+00
 -1      3997 6.71309E+01 1.79902E+01 0.00000E+00
 -1      3998 2.27850E+01 1.56973E+01 0.00000E+00
 -1      3999 2.12850E+01 1.56973E+01 0.00000E+00
 -1      4000 6.59244E+01 2.96488E+01 0.00000E+00
 -1      4001 6.60847E+01 3.05070E+01 0.00000E+00
 -1      4002 6.75847E+01 3.05070E+01 0.00000E+00
 -1      4003 6.69066E+01 2.88414E+01 0.00000E+00
 -1      4004 1.33281E+02 2.76186E+01 0.00000E+00
 -1      4005 1.33281E+02 2.61561E+01 0.00000E+00
 -1      4006 1.31982E+02 2.83498E+01 0.00000E+00
 -1      4007 1.32066E+02 3.22185E+01 0.00000E+00
 -1      4008 1.99669E+01 1.70193E+01 0.00000E+00
 -1      4009 1.31982E+02 2.54201E+01 0.00000E+00
 -1      4010 2.00387E+01 1.82665E+01 0.00000E+00
 -1      4011 1.30683E+02 2.90811E+01 0.00000E+00
 -1      4012 1.30683E+02 2.76186E+01 0.00000E+00
 -1      4013 6.97303E+01 3.21610E+01 0.00000E+00
 -1      4014 7.12303E+01 3.21610E+01 0.00000E+00
 -1      4015 6.94238E+01 3.13398E+01 0.00000E+00
 -1      4016 7.27303E+01 3.21610E+01 0.00000E+00
 -1      4017 7.42303E+01 3.21610E+01 0.00000E+00
 -1      4018 7.24238E+01 3.13398E+01 0.00000E+00
 -1      4019 7.57303E+01 3.21610E+01 0.00000E+00
 -1      4020 7.72303E+01 3.21610E+01 0.00000E+00
 -1      4021 7.54238E+01 3.13398E+01 0.00000E+00
 -1      4022 7.87303E+01 3.21610E+01 0.00000E+00
 -1      4023 8.02303E+01 3.21610E+01 0.00000E+00
 -1      4024 7.84238E+01 3.13398E+01 0.00000E+00
 -1      4025 8.17303E+01 3.21610E+01 0.00000E+00
 -1      4026 8.32303E+01 3.21610E+01 0.00000E+00
 -1      4027 8.14238E+01 3.13398E+01 0.00000E+00
 -1      4028 8.47303E+01 3.21610E+01 0.00000E+00
 -1      4029 8.62303E+01 3.21610E+01 0.00000E+00
 -1      4030 8.44238E+01 3.13398E+01 0.00000E+00
 -1      4031 8.77303E+01 3.21610E+01 0.00000E+00
 -1      4032 8.92303E+01 3.21610E+01 0.00000E+00
 -1      4033 8.74238E+01 3.13398E+01 0.00000E+00
 -1      4034 9.07303E+01 3.21610E+01 0.00000E+00
 -1      4035 9.22303E+01 3.21610E+01 0.00000E+00
 -1      4036 9.04238E+01 3.13398E+01 0.00000E+00
 -1      4037 9.37303E+01 3.21610E+01 0.00000E+00
 -1      4038 9.52303E+01 3.21610E+01 0.00000E+00
 -1      4039 9.34238E+01 3.13398E+01 0.00000E+00
 -1      4040 9.67303E+01 3.21610E+01 0.00000E+00
 -1      4041 9.82303E+01 3.21610E+01 0.00000E+00
 -1      4042 9.64238E+01 3.13398E+01 0.00000E+00
 -1      4043 9.97303E+01 3.21610E+01 0.00000E+00
 -1      4044 1.01230E+02 3.21610E+01 0.00000E+00
 -1      4045 9.94238E+01 3.13398E+01 0.00000E+00
 -1      4046 1.02730E+02 3.21610E+01 0.00000E+00
 -1      4047 1.04230E+02 3.21610E+01 0.00000E+00
 -1      4048 1.02424E+02 3.13398E+01 0.00000E+00
 -1      4049 1.05730E+02 3.21610E+01 0.00000E+00
 -1      4050 1.07230E+02 3.21610E+01 0.00000E+00
 -1      4051 1.05424E+02 3.13398E+01 0.00000E+00
 -1      4052 1.08730E+02 3.21610E+01 0.00000E+00
 -1      4053 1.10230E+02 3.21610E+01 0.00000E+00
 -1      4054 1.08424E+02 3.13398E+01 0.00000E+00
 -1      4055 1.11730E+02 3.21610E+01 0.00000E+00
 -1      4056 1.13230E+02 3.21610E+01 0.00000E+00
 -1      4057 1.11424E+02 3.13398E+01 0.00000E+00
 -1      4058 1.14730E+02 3.21610E+01 0.00000E+00
 -1      4059 1.16230E+02 3.21610E+01 0.00000E+00
 -1      4060 1.14424E+02 3.13398E+01 0.00000E+00
 -1      4061 1.17730E+02 3.21610E+01 0.00000E+00
 -1      4062 1.19230E+02 3.21610E+01 0.00000E+00
 -1      4063 1.17424E+02 3.13398E+01 0.00000E+00
 -1      4064 1.20730E+02 3.21610E+01 0.00000E+00
 -1      4065 1.22230E+02 3.21610E+01 0.00000E+00
 -1      4066 1.20424E+02 3.13398E+01 0.00000E+00
 -1      4067 1.23730E+02 3.21610E+01 0.00000E+00
 -1      4068 1.25230E+02 3.21610E+01 0.00000E+00
 -1      4069 1.23424E+02 3.13398E+01 0.00000E+00
 -1      4070 1.26730E+02 3.21610E+01 0.00000E+00
 -1      4071 1.28230E+02 3.21610E+01 0.00000E+00
 -1      4072 1.26424E+02 3.13398E+01 0.00000E+00
 -1      4073 9.02850E+01 1.82952E+01 0.00000E+00
 -1      4074 8.87850E+01 1.82952E+01 0.00000E+00
 -1      4075 1.33362E+02 2.21634E+01 0.00000E+00
 -1      4076 1.33320E+02 2.09588E+01 0.00000E+00
 -1      4077 1.32226E+02 2.07922E+01 0.00000E+00
 -1      4078 1.32063E+02 2.28994E+01 0.00000E+00
 -1      4079 7.52850E+01 1.82952E+01 0.00000E+00
 -1      4080 7.37850E+01 1.82952E+01 0.00000E+00
 -1      4081 2.79928E+01 3.07700E+01 0.00000E+00
 -1      4082 2.87420E+01 2.95225E+01 0.00000E+00
 -1      4083 2.81785E+01 2.86819E+01 0.00000E+00
 -1      4084 2.64928E+01 3.07700E+01 0.00000E+00
 -1      4085 1.68870E+01 2.42406E+01 0.00000E+00
 -1      4086 1.68870E+01 2.57125E+01 0.00000E+00
 -1      4087 1.81860E+01 2.35031E+01 0.00000E+00
 -1      4088 8.72850E+01 1.82952E+01 0.00000E+00
 -1      4089 8.57850E+01 1.82952E+01 0.00000E+00
 -1      4090 8.80350E+01 1.95942E+01 0.00000E+00
 -1      4091 8.42850E+01 1.82952E+01 0.00000E+00
 -1      4092 8.27850E+01 1.82952E+01 0.00000E+00
 -1      4093 8.50350E+01 1.95942E+01 0.00000E+00
 -1      4094 9.32850E+01 1.82952E+01 0.00000E+00
 -1      4095 9.17850E+01 1.82952E+01 0.00000E+00
 -1      4096 9.10350E+01 1.95942E+01 0.00000E+00
 -1      4097 9.62850E+01 1.82952E+01 0.00000E+00
 -1      4098 9.47850E+01 1.82952E+01 0.00000E+00
 -1      4099 9.40350E+01 1.95942E+01 0.00000E+00
 -1      4100 9.92850E+01 1.82952E+01 0.00000E+00
 -1      4101 9.77850E+01 1.82952E+01 0.00000E+00
 -1      4102 9.70350E+01 1.95942E+01 0.00000E+00
 -1      4103 1.02285E+02 1.82952E+01 0.00000E+00
 -1      4104 1.00785E+02 1.82952E+01 0.00000E+00
 -1      4105 1.00035E+02 1.95942E+01 0.00000E+00
 -1      4106 1.05285E+02 1.82952E+01 0.00000E+00
 -1      4107 1.03785E+02 1.82952E+01 0.00000E+00
 -1      4108 1.03035E+02 1.95942E+01 0.00000E+00
 -1      4109 1.08285E+02 1.82952E+01 0.00000E+00
 -1      4110 1.06785E+02 1.82952E+01 0.00000E+00
 -1      4111 1.06035E+02 1.95942E+01 0.00000E+00
 -1      4112 1.11285E+02 1.82952E+01 0.00000E+00
 -1      4113 1.09785E+02 1.82952E+01 0.00000E+00
 -1      4114 1.09035E+02 1.95942E+01 0.00000E+00
 -1      4115 1.14285E+02 1.82952E+01 0.00000E+00
 -1      4116 1.12785E+02 1.82952E+01 0.00000E+00
 -1      4117 1.12035E+02 1.95942E+01 0.00000E+00
 -1      4118 1.17285E+02 1.82952E+01 0.00000E+00
 -1      4119 1.15785E+02 1.82952E+01 0.00000E+00
 -1      4120 1.15035E+02 1.95942E+01 0.00000E+00
 -1      4121 1.20285E+02 1.82952E+01 0.00000E+00
 -1      4122 1.18785E+02 1.82952E+01 0.00000E+00
 -1      4123 1.18035E+02 1.95942E+01 0.00000E+00
 -1      4124 1.23285E+02 1.82952E+01 0.00000E+00
 -1      4125 1.21785E+02 1.82952E+01 0.00000E+00
 -1      4126 1.21035E+02 1.95942E+01 0.00000E+00
 -1      4127 1.26285E+02 1.82952E+01 0.00000E+00
 -1      4128 1.24785E+02 1.82952E+01 0.00000E+00
 -1      4129 1.24035E+02 1.95942E+01 0.00000E+00
 -1      4130 1.29285E+02 1.82952E+01 0.00000E+00
 -1      4131 1.27785E+02 1.82952E+01 0.00000E+00
 -1      4132 1.27035E+02 1.95942E+01 0.00000E+00
 -1      4133 2.04000E+01 3.05150E+01 0.00000E+00
 -1      4134 2.19000E+01 3.05150E+01 0.00000E+00
 -1      4135 6.79986E+01 2.44145E+01 0.00000E+00
 -1      4136 6.76724E+01 2.59446E+01 0.00000E+00
 -1      4137 1.31322E+02 1.84979E+01 0.00000E+00
 -1      4138 1.30228E+02 1.83314E+01 0.00000E+00
 -1      4139 1.29478E+02 1.96304E+01 0.00000E+00
 -1      4140 1.31364E+02 1.97026E+01 0.00000E+00
 -1      4141 1.30683E+02 2.61514E+01 0.00000E+00
 -1      4142 1.30683E+02 2.46842E+01 0.00000E+00
 -1      4143 1.29384E+02 2.68826E+01 0.00000E+00
 -1      4144 7.22850E+01 1.82952E+01 0.00000E+00
 -1      4145 7.07850E+01 1.82952E+01 0.00000E+00
 -1      4146 7.30350E+01 1.95942E+01 0.00000E+00
 -1      4147 8.12850E+01 1.82952E+01 0.00000E+00
 -1      4148 7.97850E+01 1.82952E+01 0.00000E+00
 -1      4149 8.20350E+01 1.95942E+01 0.00000E+00
 -1      4150 7.82850E+01 1.82952E+01 0.00000E+00
 -1      4151 7.67850E+01 1.82952E+01 0.00000E+00
 -1      4152 7.60350E+01 1.95942E+01 0.00000E+00
 -1      4153 2.40366E+01 1.56294E+01 0.00000E+00
 -1      4154 2.32866E+01 1.69284E+01 0.00000E+00
 -1      4155 2.52882E+01 1.55615E+01 0.00000E+00
 -1      4156 6.76824E+01 2.11661E+01 0.00000E+00
 -1      4157 6.79490E+01 2.24869E+01 0.00000E+00
 -1      4158 1.29953E+02 3.05760E+01 0.00000E+00
 -1      4159 1.28654E+02 2.98448E+01 0.00000E+00
 -1      4160 1.81815E+01 2.61538E+01 0.00000E+00
 -1      4161 1.68825E+01 2.68913E+01 0.00000E+00
 -1      4162 1.68780E+01 2.80702E+01 0.00000E+00
 -1      4163 2.96855E+01 1.78471E+01 0.00000E+00
 -1      4164 2.90715E+01 1.68305E+01 0.00000E+00
 -1      4165 2.89878E+01 1.85178E+01 0.00000E+00
 -1      4166 1.65945E+01 3.01487E+01 0.00000E+00
 -1      4167 6.79327E+01 2.02489E+01 0.00000E+00
 -1      4168 6.90344E+01 2.35181E+01 0.00000E+00
 -1      4169 1.94850E+01 2.27672E+01 0.00000E+00
 -1      4170 1.94850E+01 2.42391E+01 0.00000E+00
 -1      4171 2.93864E+01 2.16091E+01 0.00000E+00
 -1      4172 2.88106E+01 2.03110E+01 0.00000E+00
 -1      4173 2.85952E+01 2.23858E+01 0.00000E+00
 -1      4174 2.26500E+01 2.92160E+01 0.00000E+00
 -1      4175 2.34000E+01 3.05150E+01 0.00000E+00
 -1      4176 2.49000E+01 3.05150E+01 0.00000E+00
 -1      4177 1.89135E+01 2.95733E+01 0.00000E+00
 -1      4178 1.96635E+01 2.82743E+01 0.00000E+00
 -1      4179 1.30764E+02 2.36306E+01 0.00000E+00
 -1      4180 1.30846E+02 2.25770E+01 0.00000E+00
 -1      4181 1.29465E+02 2.43619E+01 0.00000E+00
 -1      4182 2.90962E+01 2.56609E+01 0.00000E+00
 -1      4183 2.83165E+01 2.47226E+01 0.00000E+00
 -1      4184 2.82417E+01 2.66996E+01 0.00000E+00
 -1      4185 2.39827E+01 1.81915E+01 0.00000E+00
 -1      4186 2.27311E+01 1.82594E+01 0.00000E+00
 -1      4187 6.72128E+01 2.70018E+01 0.00000E+00
 -1      4188 6.73661E+01 2.77843E+01 0.00000E+00
 -1      4189 6.77052E+01 2.86171E+01 0.00000E+00
 -1      4190 6.86244E+01 2.65028E+01 0.00000E+00
 -1      4191 6.90847E+01 3.05070E+01 0.00000E+00
 -1      4192 7.05847E+01 3.05070E+01 0.00000E+00
 -1      4193 6.87456E+01 2.96742E+01 0.00000E+00
 -1      4194 7.90350E+01 1.95942E+01 0.00000E+00
 -1      4195 6.96214E+01 1.81235E+01 0.00000E+00
 -1      4196 6.82945E+01 1.81620E+01 0.00000E+00
 -1      4197 6.80442E+01 1.90791E+01 0.00000E+00
 -1      4198 7.03714E+01 1.94225E+01 0.00000E+00
 -1      4199 2.84876E+01 1.60209E+01 0.00000E+00
 -1      4200 2.78736E+01 1.50043E+01 0.00000E+00
 -1      4201 2.66221E+01 1.50722E+01 0.00000E+00
 -1      4202 2.77899E+01 1.66916E+01 0.00000E+00
 -1      4203 1.93414E+01 2.02728E+01 0.00000E+00
 -1      4204 1.94132E+01 2.15200E+01 0.00000E+00
 -1      4205 2.07122E+01 2.22559E+01 0.00000E+00
 -1      4206 2.13377E+01 1.90025E+01 0.00000E+00
 -1      4207 2.20338E+01 2.02656E+01 0.00000E+00
 -1      4208 7.67850E+01 2.08932E+01 0.00000E+00
 -1      4209 7.52850E+01 2.08932E+01 0.00000E+00
 -1      4210 7.20847E+01 3.05070E+01 0.00000E+00
 -1      4211 7.35847E+01 3.05070E+01 0.00000E+00
 -1      4212 7.17456E+01 2.96742E+01 0.00000E+00
 -1      4213 7.50847E+01 3.05070E+01 0.00000E+00
 -1      4214 7.65847E+01 3.05070E+01 0.00000E+00
 -1      4215 7.47456E+01 2.96742E+01 0.00000E+00
 -1      4216 7.80847E+01 3.05070E+01 0.00000E+00
 -1      4217 7.95847E+01 3.05070E+01 0.00000E+00
 -1      4218 7.77456E+01 2.96742E+01 0.00000E+00
 -1      4219 8.10847E+01 3.05070E+01 0.00000E+00
 -1      4220 8.25847E+01 3.05070E+01 0.00000E+00
 -1      4221 8.07456E+01 2.96742E+01 0.00000E+00
 -1      4222 8.40847E+01 3.05070E+01 0.00000E+00
 -1      4223 8.55847E+01 3.05070E+01 0.00000E+00
 -1      4224 8.37456E+01 2.96742E+01 0.00000E+00
 -1      4225 8.70847E+01 3.05070E+01 0.00000E+00
 -1      4226 8.85847E+01 3.05070E+01 0.00000E+00
 -1      4227 8.67456E+01 2.96742E+01 0.00000E+00
 -1      4228 9.00847E+01 3.05070E+01 0.00000E+00
 -1      4229 9.15847E+01 3.05070E+01 0.00000E+00
 -1      4230 8.97456E+01 2.96742E+01 0.00000E+00
 -1      4231 9.30847E+01 3.05070E+01 0.00000E+00
 -1      4232 9.45847E+01 3.05070E+01 0.00000E+00
 -1      4233 9.27456E+01 2.96742E+01 0.00000E+00
 -1      4234 9.60847E+01 3.05070E+01 0.00000E+00
 -1      4235 9.75847E+01 3.05070E+01 0.00000E+00
 -1      4236 9.57456E+01 2.96742E+01 0.00000E+00
 -1      4237 9.90847E+01 3.05070E+01 0.00000E+00
 -1      4238 1.00585E+02 3.05070E+01 0.00000E+00
 -1      4239 9.87456E+01 2.96742E+01 0.00000E+00
 -1      4240 1.02085E+02 3.05070E+01 0.00000E+00
 -1      4241 1.03585E+02 3.05070E+01 0.00000E+00
 -1      4242 1.01746E+02 2.96742E+01 0.00000E+00
 -1      4243 1.05085E+02 3.05070E+01 0.00000E+00
 -1      4244 1.06585E+02 3.05070E+01 0.00000E+00
 -1      4245 1.04746E+02 2.96742E+01 0.00000E+00
 -1      4246 1.08085E+02 3.05070E+01 0.00000E+00
 -1      4247 1.09585E+02 3.05070E+01 0.00000E+00
 -1      4248 1.07746E+02 2.96742E+01 0.00000E+00
 -1      4249 1.11085E+02 3.05070E+01 0.00000E+00
 -1      4250 1.12585E+02 3.05070E+01 0.00000E+00
 -1      4251 1.10746E+02 2.96742E+01 0.00000E+00
 -1      4252 1.14085E+02 3.05070E+01 0.00000E+00
 -1      4253 1.15585E+02 3.05070E+01 0.00000E+00
 -1      4254 1.13746E+02 2.96742E+01 0.00000E+00
 -1      4255 1.17085E+02 3.05070E+01 0.00000E+00
 -1      4256 1.18585E+02 3.05070E+01 0.00000E+00
 -1      4257 1.16746E+02 2.96742E+01 0.00000E+00
 -1      4258 1.20085E+02 3.05070E+01 0.00000E+00
 -1      4259 1.21585E+02 3.05070E+01 0.00000E+00
 -1      4260 1.19746E+02 2.96742E+01 0.00000E+00
 -1      4261 1.23085E+02 3.05070E+01 0.00000E+00
 -1      4262 1.24585E+02 3.05070E+01 0.00000E+00
 -1      4263 1.22746E+02 2.96742E+01 0.00000E+00
 -1      4264 1.25869E+02 3.01759E+01 0.00000E+00
 -1      4265 1.27369E+02 3.01759E+01 0.00000E+00
 -1      4266 1.28099E+02 2.86809E+01 0.00000E+00
 -1      4267 1.25530E+02 2.93431E+01 0.00000E+00
 -1      4268 9.47850E+01 2.08932E+01 0.00000E+00
 -1      4269 9.32850E+01 2.08932E+01 0.00000E+00
 -1      4270 1.29730E+02 3.21610E+01 0.00000E+00
 -1      4271 1.31283E+02 2.07561E+01 0.00000E+00
 -1      4272 8.87850E+01 2.08932E+01 0.00000E+00
 -1      4273 8.72850E+01 2.08932E+01 0.00000E+00
 -1      4274 6.90963E+01 2.04206E+01 0.00000E+00
 -1      4275 8.57850E+01 2.08932E+01 0.00000E+00
 -1      4276 8.42850E+01 2.08932E+01 0.00000E+00
 -1      4277 8.65350E+01 2.21922E+01 0.00000E+00
 -1      4278 9.77850E+01 2.08932E+01 0.00000E+00
 -1      4279 9.62850E+01 2.08932E+01 0.00000E+00
 -1      4280 9.55350E+01 2.21922E+01 0.00000E+00
 -1      4281 1.00785E+02 2.08932E+01 0.00000E+00
 -1      4282 9.92850E+01 2.08932E+01 0.00000E+00
 -1      4283 9.85350E+01 2.21922E+01 0.00000E+00
 -1      4284 1.03785E+02 2.08932E+01 0.00000E+00
 -1      4285 1.02285E+02 2.08932E+01 0.00000E+00
 -1      4286 1.01535E+02 2.21922E+01 0.00000E+00
 -1      4287 1.06785E+02 2.08932E+01 0.00000E+00
 -1      4288 1.05285E+02 2.08932E+01 0.00000E+00
 -1      4289 1.04535E+02 2.21922E+01 0.00000E+00
 -1      4290 1.09785E+02 2.08932E+01 0.00000E+00
 -1      4291 1.08285E+02 2.08932E+01 0.00000E+00
 -1      4292 1.07535E+02 2.21922E+01 0.00000E+00
 -1      4293 1.12785E+02 2.08932E+01 0.00000E+00
 -1      4294 1.11285E+02 2.08932E+01 0.00000E+00
 -1      4295 1.10535E+02 2.21922E+01 0.00000E+00
 -1      4296 1.15785E+02 2.08932E+01 0.00000E+00
 -1      4297 1.14285E+02 2.08932E+01 0.00000E+00
 -1      4298 1.13535E+02 2.21922E+01 0.00000E+00
 -1      4299 1.18785E+02 2.08932E+01 0.00000E+00
 -1      4300 1.17285E+02 2.08932E+01 0.00000E+00
 -1      4301 1.16535E+02 2.21922E+01 0.00000E+00
 -1      4302 1.21785E+02 2.08932E+01 0.00000E+00
 -1      4303 1.20285E+02 2.08932E+01 0.00000E+00
 -1      4304 1.19535E+02 2.21922E+01 0.00000E+00
 -1      4305 1.24785E+02 2.08932E+01 0.00000E+00
 -1      4306 1.23285E+02 2.08932E+01 0.00000E+00
 -1      4307 1.22535E+02 2.21922E+01 0.00000E+00
 -1      4308 1.27785E+02 2.08932E+01 0.00000E+00
 -1      4309 1.26285E+02 2.08932E+01 0.00000E+00
 -1      4310 1.25535E+02 2.21922E+01 0.00000E+00
 -1      4311 1.76145E+01 3.03108E+01 0.00000E+00
 -1      4312 1.28099E+02 2.72137E+01 0.00000E+00
 -1      4313 1.28099E+02 2.57465E+01 0.00000E+00
 -1      4314 1.26815E+02 2.75448E+01 0.00000E+00
 -1      4315 1.96680E+01 2.70955E+01 0.00000E+00
 -1      4316 2.11545E+01 2.80372E+01 0.00000E+00
 -1      4317 1.96725E+01 2.59167E+01 0.00000E+00
 -1      4318 2.54592E+01 1.80263E+01 0.00000E+00
 -1      4319 2.49038E+01 1.93573E+01 0.00000E+00
 -1      4320 9.17850E+01 2.08932E+01 0.00000E+00
 -1      4321 9.02850E+01 2.08932E+01 0.00000E+00
 -1      4322 8.95350E+01 2.21922E+01 0.00000E+00
 -1      4323 9.25350E+01 2.21922E+01 0.00000E+00
 -1      4324 7.37850E+01 2.08932E+01 0.00000E+00
 -1      4325 7.22850E+01 2.08932E+01 0.00000E+00
 -1      4326 7.45350E+01 2.21922E+01 0.00000E+00
 -1      4327 8.27850E+01 2.08932E+01 0.00000E+00
 -1      4328 8.12850E+01 2.08932E+01 0.00000E+00
 -1      4329 8.35350E+01 2.21922E+01 0.00000E+00
 -1      4330 2.34991E+01 2.07698E+01 0.00000E+00
 -1      4331 2.21056E+01 2.15128E+01 0.00000E+00
 -1      4332 2.21774E+01 2.27601E+01 0.00000E+00
 -1      4333 2.09715E+01 2.51807E+01 0.00000E+00
 -1      4334 2.58721E+01 1.63712E+01 0.00000E+00
 -1      4335 7.97850E+01 2.08932E+01 0.00000E+00
 -1      4336 7.82850E+01 2.08932E+01 0.00000E+00
 -1      4337 8.05350E+01 2.21922E+01 0.00000E+00
 -1      4338 7.03082E+01 2.25209E+01 0.00000E+00
 -1      4339 7.03577E+01 2.44485E+01 0.00000E+00
 -1      4340 1.26925E+02 2.41349E+01 0.00000E+00
 -1      4341 1.28210E+02 2.38038E+01 0.00000E+00
 -1      4342 2.26545E+01 2.80372E+01 0.00000E+00
 -1      4343 2.79910E+01 1.93632E+01 0.00000E+00
 -1      4344 2.73771E+01 1.83467E+01 0.00000E+00
 -1      4345 2.77407E+01 2.34245E+01 0.00000E+00
 -1      4346 2.71650E+01 2.21264E+01 0.00000E+00
 -1      4347 2.68863E+01 2.44632E+01 0.00000E+00
 -1      4348 2.57428E+01 2.94710E+01 0.00000E+00
 -1      4349 2.65709E+01 2.86073E+01 0.00000E+00
 -1      4350 2.74137E+01 2.75633E+01 0.00000E+00
 -1      4351 2.66341E+01 2.66249E+01 0.00000E+00
 -1      4352 2.49780E+01 2.83523E+01 0.00000E+00
 -1      4353 7.75350E+01 2.21922E+01 0.00000E+00
 -1      4354 2.71999E+01 2.01399E+01 0.00000E+00
 -1      4355 7.02599E+01 2.05924E+01 0.00000E+00
 -1      4356 2.67931E+01 1.75370E+01 0.00000E+00
 -1      4357 1.29984E+02 2.14874E+01 0.00000E+00
 -1      4358 6.92052E+01 2.86171E+01 0.00000E+00
 -1      4359 7.17953E+01 2.49727E+01 0.00000E+00
 -1      4360 7.05216E+01 2.59699E+01 0.00000E+00
 -1      4361 2.49756E+01 2.06045E+01 0.00000E+00
 -1      4362 7.00620E+01 2.70271E+01 0.00000E+00
 -1      4363 2.23222E+01 2.45598E+01 0.00000E+00
 -1      4364 2.25097E+01 2.62374E+01 0.00000E+00
 -1      4365 2.40052E+01 2.74162E+01 0.00000E+00
 -1      4366 2.37157E+01 2.38167E+01 0.00000E+00
 -1      4367 7.15833E+01 2.15228E+01 0.00000E+00
 -1      4368 7.39956E+01 2.83752E+01 0.00000E+00
 -1      4369 7.54956E+01 2.83752E+01 0.00000E+00
 -1      4370 7.69956E+01 2.83752E+01 0.00000E+00
 -1      4371 7.84956E+01 2.83752E+01 0.00000E+00
 -1      4372 7.62456E+01 2.70762E+01 0.00000E+00
 -1      4373 7.99956E+01 2.83752E+01 0.00000E+00
 -1      4374 8.14956E+01 2.83752E+01 0.00000E+00
 -1      4375 7.92456E+01 2.70762E+01 0.00000E+00
 -1      4376 8.29956E+01 2.83752E+01 0.00000E+00
 -1      4377 8.44956E+01 2.83752E+01 0.00000E+00
 -1      4378 8.22456E+01 2.70762E+01 0.00000E+00
 -1      4379 8.59956E+01 2.83752E+01 0.00000E+00
 -1      4380 8.74956E+01 2.83752E+01 0.00000E+00
 -1      4381 8.52456E+01 2.70762E+01 0.00000E+00
 -1      4382 8.89956E+01 2.83752E+01 0.00000E+00
 -1      4383 9.04956E+01 2.83752E+01 0.00000E+00
 -1      4384 8.82456E+01 2.70762E+01 0.00000E+00
 -1      4385 9.19956E+01 2.83752E+01 0.00000E+00
 -1      4386 9.34956E+01 2.83752E+01 0.00000E+00
 -1      4387 9.12456E+01 2.70762E+01 0.00000E+00
 -1      4388 9.49956E+01 2.83752E+01 0.00000E+00
 -1      4389 9.64956E+01 2.83752E+01 0.00000E+00
 -1      4390 9.42456E+01 2.70762E+01 0.00000E+00
 -1      4391 9.79956E+01 2.83752E+01 0.00000E+00
 -1      4392 9.94956E+01 2.83752E+01 0.00000E+00
 -1      4393 9.72456E+01 2.70762E+01 0.00000E+00
 -1      4394 1.00996E+02 2.83752E+01 0.00000E+00
 -1      4395 1.02496E+02 2.83752E+01 0.00000E+00
 -1      4396 1.00246E+02 2.70762E+01 0.00000E+00
 -1      4397 1.03996E+02 2.83752E+01 0.00000E+00
 -1      4398 1.05496E+02 2.83752E+01 0.00000E+00
 -1      4399 1.03246E+02 2.70762E+01 0.00000E+00
 -1      4400 1.06996E+02 2.83752E+01 0.00000E+00
 -1      4401 1.08496E+02 2.83752E+01 0.00000E+00
 -1      4402 1.06246E+02 2.70762E+01 0.00000E+00
 -1      4403 1.09996E+02 2.83752E+01 0.00000E+00
 -1      4404 1.11496E+02 2.83752E+01 0.00000E+00
 -1      4405 1.09246E+02 2.70762E+01 0.00000E+00
 -1      4406 1.12996E+02 2.83752E+01 0.00000E+00
 -1      4407 1.14496E+02 2.83752E+01 0.00000E+00
 -1      4408 1.12246E+02 2.70762E+01 0.00000E+00
 -1      4409 1.15996E+02 2.83752E+01 0.00000E+00
 -1      4410 1.17496E+02 2.83752E+01 0.00000E+00
 -1      4411 1.15246E+02 2.70762E+01 0.00000E+00
 -1      4412 1.18996E+02 2.83752E+01 0.00000E+00
 -1      4413 1.20496E+02 2.83752E+01 0.00000E+00
 -1      4414 1.18246E+02 2.70762E+01 0.00000E+00
 -1      4415 1.21996E+02 2.83752E+01 0.00000E+00
 -1      4416 1.23496E+02 2.83752E+01 0.00000E+00
 -1      4417 1.21246E+02 2.70762E+01 0.00000E+00
 -1      4418 1.24513E+02 2.81256E+01 0.00000E+00
 -1      4419 1.25798E+02 2.77945E+01 0.00000E+00
 -1      4420 1.25798E+02 2.63273E+01 0.00000E+00
 -1      4421 1.23763E+02 2.68266E+01 0.00000E+00
 -1      4422 7.53903E+01 2.46342E+01 0.00000E+00
 -1      4423 7.38903E+01 2.46342E+01 0.00000E+00
 -1      4424 8.72850E+01 2.34912E+01 0.00000E+00
 -1      4425 8.57850E+01 2.34912E+01 0.00000E+00
 -1      4426 1.02285E+02 2.34912E+01 0.00000E+00
 -1      4427 1.00785E+02 2.34912E+01 0.00000E+00
 -1      4428 1.05390E+02 2.46342E+01 0.00000E+00
 -1      4429 1.03890E+02 2.46342E+01 0.00000E+00
 -1      4430 1.08390E+02 2.46342E+01 0.00000E+00
 -1      4431 1.06890E+02 2.46342E+01 0.00000E+00
 -1      4432 1.11390E+02 2.46342E+01 0.00000E+00
 -1      4433 1.09890E+02 2.46342E+01 0.00000E+00
 -1      4434 1.14390E+02 2.46342E+01 0.00000E+00
 -1      4435 1.12890E+02 2.46342E+01 0.00000E+00
 -1      4436 1.17390E+02 2.46342E+01 0.00000E+00
 -1      4437 1.15890E+02 2.46342E+01 0.00000E+00
 -1      4438 1.20390E+02 2.46342E+01 0.00000E+00
 -1      4439 1.18890E+02 2.46342E+01 0.00000E+00
 -1      4440 1.23390E+02 2.46342E+01 0.00000E+00
 -1      4441 1.21890E+02 2.46342E+01 0.00000E+00
 -1      4442 1.25425E+02 2.41349E+01 0.00000E+00
 -1      4443 1.29041E+02 2.14513E+01 0.00000E+00
 -1      4444 1.28291E+02 2.27503E+01 0.00000E+00
 -1      4445 7.23333E+01 2.28218E+01 0.00000E+00
 -1      4446 2.57951E+01 2.15524E+01 0.00000E+00
 -1      4447 8.43903E+01 2.46342E+01 0.00000E+00
 -1      4448 8.28903E+01 2.46342E+01 0.00000E+00
 -1      4449 7.11024E+01 2.80842E+01 0.00000E+00
 -1      4450 7.83903E+01 2.46342E+01 0.00000E+00
 -1      4451 7.68903E+01 2.46342E+01 0.00000E+00
 -1      4452 8.13903E+01 2.46342E+01 0.00000E+00
 -1      4453 7.98903E+01 2.46342E+01 0.00000E+00
 -1      4454 7.26024E+01 2.80842E+01 0.00000E+00
 -1      4455 9.93903E+01 2.46342E+01 0.00000E+00
 -1      4456 9.78903E+01 2.46342E+01 0.00000E+00
 -1      4457 9.63903E+01 2.46342E+01 0.00000E+00
 -1      4458 9.48903E+01 2.46342E+01 0.00000E+00
 -1      4459 7.33524E+01 2.67852E+01 0.00000E+00
 -1      4460 2.48332E+01 2.65526E+01 0.00000E+00
 -1      4461 1.31759E+02 3.13973E+01 0.00000E+00
 -1      4462 1.24408E+02 2.43846E+01 0.00000E+00
 -1      4463 2.49407E+01 2.25910E+01 0.00000E+00
 -1      4464 9.33903E+01 2.46342E+01 0.00000E+00
 -1      4465 9.18903E+01 2.46342E+01 0.00000E+00
 -1      4466 9.03903E+01 2.46342E+01 0.00000E+00
 -1      4467 8.88903E+01 2.46342E+01 0.00000E+00
 -1      4468 7.31886E+01 2.52637E+01 0.00000E+00
 -1      4469 2.56613E+01 2.56889E+01 0.00000E+00
 -1      4470 2.50855E+01 2.43908E+01 0.00000E+00
 -1      4471 8.81403E+01 2.59332E+01 0.00000E+00
 -1      4472 8.66403E+01 2.59332E+01 0.00000E+00
 -1      4473 1.01640E+02 2.59332E+01 0.00000E+00
 -1      4474 1.03140E+02 2.59332E+01 0.00000E+00
 -1      4475 1.00140E+02 2.59332E+01 0.00000E+00
 -1      4476 8.51403E+01 2.59332E+01 0.00000E+00
 -3
    3C                          2156                                     1
 -1       165    8    0    1
 -2         6         7        23      1161      1325      1178
 -1       166    8    0    1
 -2         7         8       165      1162      1326      1327
 -1       167    8    0    1
 -2         8         9       166      1163      1328      1329
 -1       168    8    0    1
 -2         8       166       165      1329      1330      1326
 -1       169    8    0    1
 -2         9        10       167      1164      1331      1332
 -1       170    8    0    1
 -2         9       167       166      1332      1333      1328
 -1       171    8    0    1
 -2        10        11       168      1165      1334      1335
 -1       172    8    0    1
 -2        10       168       167      1335      1336      1331
 -1       173    8    0    1
 -2        11        12       169      1166      1337      1338
 -1       174    8    0    1
 -2        11       169       168      1338      1339      1334
 -1       175    8    0    1
 -2        12        13       170      1167      1340      1341
 -1       176    8    0    1
 -2        12       170       169      1341      1342      1337
 -1       177    8    0    1
 -2        13        14       171      1168      1343      1344
 -1       178    8    0    1
 -2        13       171       170      1344      1345      1340
 -1       179    8    0    1
 -2        14        15       172      1169      1346      1347
 -1       180    8    0    1
 -2        14       172       171      1347      1348      1343
 -1       181    8    0    1
 -2        15        16       173      1170      1349      1350
 -1       182    8    0    1
 -2        15       173       172      1350      1351      1346
 -1       183    8    0    1
 -2        16        17       174      1171      1352      1353
 -1       184    8    0    1
 -2        16       174       173      1353      1354      1349
 -1       185    8    0    1
 -2        17        18       175      1172      1355      1356
 -1       186    8    0    1
 -2        17       175       174      1356      1357      1352
 -1       187    8    0    1
 -2        18        19       176      1173      1358      1359
 -1       188    8    0    1
 -2        18       176       175      1359      1360      1355
 -1       189    8    0    1
 -2        19        20       177      1174      1361      1362
 -1       190    8    0    1
 -2        19       177       176      1362      1363      1358
 -1       191    8    0    1
 -2        20        21       178      1175      1364      1365
 -1       192    8    0    1
 -2        20       178       177      1365      1366      1361
 -1       193    8    0    1
 -2        21        22       179      1176      1367      1368
 -1       194    8    0    1
 -2        21       179       178      1368      1369      1364
 -1       195    8    0    1
 -2        22         5       180      1177      1370      1371
 -1       196    8    0    1
 -2       179        22       180      1367      1371      1372
 -1       197    8    0    1
 -2         5        72       180      1228      1373      1370
 -1       198    8    0    1
 -2        24        23       181      1179      1374      1375
 -1       199    8    0    1
 -2        25        24       182      1180      1376      1377
 -1       200    8    0    1
 -2        24       181       182      1375      1378      1376
 -1       201    8    0    1
 -2        26        25       183      1181      1379      1380
 -1       202    8    0    1
 -2        25       182       183      1377      1381      1379
 -1       203    8    0    1
 -2        27        26       184      1182      1382      1383
 -1       204    8    0    1
 -2        26       183       184      1380      1384      1382
 -1       205    8    0    1
 -2        28        27       185      1183      1385      1386
 -1       206    8    0    1
 -2        27       184       185      1383      1387      1385
 -1       207    8    0    1
 -2        29        28       186      1184      1388      1389
 -1       208    8    0    1
 -2        28       185       186      1386      1390      1388
 -1       209    8    0    1
 -2        30        29       187      1185      1391      1392
 -1       210    8    0    1
 -2        29       186       187      1389      1393      1391
 -1       211    8    0    1
 -2        31        30       188      1186      1394      1395
 -1       212    8    0    1
 -2        30       187       188      1392      1396      1394
 -1       213    8    0    1
 -2        32        31       189      1187      1397      1398
 -1       214    8    0    1
 -2        31       188       189      1395      1399      1397
 -1       215    8    0    1
 -2        33        32       190      1188      1400      1401
 -1       216    8    0    1
 -2        32       189       190      1398      1402      1400
 -1       217    8    0    1
 -2        34        33       191      1189      1403      1404
 -1       218    8    0    1
 -2        33       190       191      1401      1405      1403
 -1       219    8    0    1
 -2        35        34       192      1190      1406      1407
 -1       220    8    0    1
 -2        34       191       192      1404      1408      1406
 -1       221    8    0    1
 -2        36        35       193      1191      1409      1410
 -1       222    8    0    1
 -2        35       192       193      1407      1411      1409
 -1       223    8    0    1
 -2        37        36       194      1192      1412      1413
 -1       224    8    0    1
 -2        36       193       194      1410      1414      1412
 -1       225    8    0    1
 -2        38        37       195      1193      1415      1416
 -1       226    8    0    1
 -2        37       194       195      1413      1417      1415
 -1       227    8    0    1
 -2        39        38       196      1194      1418      1419
 -1       228    8    0    1
 -2        38       195       196      1416      1420      1418
 -1       229    8    0    1
 -2        40        39       197      1195      1421      1422
 -1       230    8    0    1
 -2        39       196       197      1419      1423      1421
 -1       231    8    0    1
 -2        41        40       198      1196      1424      1425
 -1       232    8    0    1
 -2        40       197       198      1422      1426      1424
 -1       233    8    0    1
 -2        42        41       199      1197      1427      1428
 -1       234    8    0    1
 -2        41       198       199      1425      1429      1427
 -1       235    8    0    1
 -2        43        42       200      1198      1430      1431
 -1       236    8    0    1
 -2        42       199       200      1428      1432      1430
 -1       237    8    0    1
 -2        44        43       201      1199      1433      1434
 -1       238    8    0    1
 -2        43       200       201      1431      1435      1433
 -1       239    8    0    1
 -2        45        44       202      1200      1436      1437
 -1       240    8    0    1
 -2        44       201       202      1434      1438      1436
 -1       241    8    0    1
 -2        46        45       203      1201      1439      1440
 -1       242    8    0    1
 -2        45       202       203      1437      1441      1439
 -1       243    8    0    1
 -2        47        46       204      1202      1442      1443
 -1       244    8    0    1
 -2        46       203       204      1440      1444      1442
 -1       245    8    0    1
 -2        48        47       205      1203      1445      1446
 -1       246    8    0    1
 -2        47       204       205      1443      1447      1445
 -1       247    8    0    1
 -2        49        48       206      1204      1448      1449
 -1       248    8    0    1
 -2        48       205       206      1446      1450      1448
 -1       249    8    0    1
 -2        50        49       207      1205      1451      1452
 -1       250    8    0    1
 -2        49       206       207      1449      1453      1451
 -1       251    8    0    1
 -2        51        50       208      1206      1454      1455
 -1       252    8    0    1
 -2        50       207       208      1452      1456      1454
 -1       253    8    0    1
 -2        52        51       209      1207      1457      1458
 -1       254    8    0    1
 -2        51       208       209      1455      1459      1457
 -1       255    8    0    1
 -2        53        52       210      1208      1460      1461
 -1       256    8    0    1
 -2        52       209       210      1458      1462      1460
 -1       257    8    0    1
 -2        54        53       211      1209      1463      1464
 -1       258    8    0    1
 -2        53       210       211      1461      1465      1463
 -1       259    8    0    1
 -2        55        54       212      1210      1466      1467
 -1       260    8    0    1
 -2        54       211       212      1464      1468      1466
 -1       261    8    0    1
 -2        56        55       213      1211      1469      1470
 -1       262    8    0    1
 -2        55       212       213      1467      1471      1469
 -1       263    8    0    1
 -2        57        56       214      1212      1472      1473
 -1       264    8    0    1
 -2        56       213       214      1470      1474      1472
 -1       265    8    0    1
 -2        58        57       215      1213      1475      1476
 -1       266    8    0    1
 -2        57       214       215      1473      1477      1475
 -1       267    8    0    1
 -2        59        58       216      1214      1478      1479
 -1       268    8    0    1
 -2        58       215       216      1476      1480      1478
 -1       269    8    0    1
 -2        60        59       217      1215      1481      1482
 -1       270    8    0    1
 -2        59       216       217      1479      1483      1481
 -1       271    8    0    1
 -2        61        60       218      1216      1484      1485
 -1       272    8    0    1
 -2        60       217       218      1482      1486      1484
 -1       273    8    0    1
 -2        62        61       219      1217      1487      1488
 -1       274    8    0    1
 -2        61       218       219      1485      1489      1487
 -1       275    8    0    1
 -2        63        62       220      1218      1490      1491
 -1       276    8    0    1
 -2        62       219       220      1488      1492      1490
 -1       277    8    0    1
 -2        64        63       221      1219      1493      1494
 -1       278    8    0    1
 -2        63       220       221      1491      1495      1493
 -1       279    8    0    1
 -2        65        64       222      1220      1496      1497
 -1       280    8    0    1
 -2        64       221       222      1494      1498      1496
 -1       281    8    0    1
 -2        66        65       223      1221      1499      1500
 -1       282    8    0    1
 -2        65       222       223      1497      1501      1499
 -1       283    8    0    1
 -2        67        66       224      1222      1502      1503
 -1       284    8    0    1
 -2        66       223       224      1500      1504      1502
 -1       285    8    0    1
 -2        68        67       225      1223      1505      1506
 -1       286    8    0    1
 -2        67       224       225      1503      1507      1505
 -1       287    8    0    1
 -2        69        68       226      1224      1508      1509
 -1       288    8    0    1
 -2        68       225       226      1506      1510      1508
 -1       289    8    0    1
 -2        70        69       227      1225      1511      1512
 -1       290    8    0    1
 -2        69       226       227      1509      1513      1511
 -1       291    8    0    1
 -2        71        70       228      1226      1514      1515
 -1       292    8    0    1
 -2        70       227       228      1512      1516      1514
 -1       293    8    0    1
 -2         4        71       136      1227      1517      1294
 -1       294    8    0    1
 -2       136        71       228      1517      1515      1518
 -1       295    8    0    1
 -2        72        73       229      1229      1519      1520
 -1       296    8    0    1
 -2        72       229       180      1520      1521      1373
 -1       297    8    0    1
 -2        73        74       230      1230      1522      1523
 -1       298    8    0    1
 -2        73       230       229      1523      1524      1519
 -1       299    8    0    1
 -2        74        75       231      1231      1525      1526
 -1       300    8    0    1
 -2        74       231       230      1526      1527      1522
 -1       301    8    0    1
 -2        75        76       232      1232      1528      1529
 -1       302    8    0    1
 -2        75       232       231      1529      1530      1525
 -1       303    8    0    1
 -2        76        77       233      1233      1531      1532
 -1       304    8    0    1
 -2        76       233       232      1532      1533      1528
 -1       305    8    0    1
 -2        77        78       234      1234      1534      1535
 -1       306    8    0    1
 -2        77       234       233      1535      1536      1531
 -1       307    8    0    1
 -2        78        79       235      1235      1537      1538
 -1       308    8    0    1
 -2        78       235       234      1538      1539      1534
 -1       309    8    0    1
 -2        79        80       236      1236      1540      1541
 -1       310    8    0    1
 -2        79       236       235      1541      1542      1537
 -1       311    8    0    1
 -2        80        81       237      1237      1543      1544
 -1       312    8    0    1
 -2        80       237       236      1544      1545      1540
 -1       313    8    0    1
 -2        81        82       238      1238      1546      1547
 -1       314    8    0    1
 -2        81       238       237      1547      1548      1543
 -1       315    8    0    1
 -2        82        83       239      1239      1549      1550
 -1       316    8    0    1
 -2        82       239       238      1550      1551      1546
 -1       317    8    0    1
 -2        83        84       240      1240      1552      1553
 -1       318    8    0    1
 -2        83       240       239      1553      1554      1549
 -1       319    8    0    1
 -2        84        85       241      1241      1555      1556
 -1       320    8    0    1
 -2        84       241       240      1556      1557      1552
 -1       321    8    0    1
 -2        85        86       242      1242      1558      1559
 -1       322    8    0    1
 -2        85       242       241      1559      1560      1555
 -1       323    8    0    1
 -2        86        87       243      1243      1561      1562
 -1       324    8    0    1
 -2        86       243       242      1562      1563      1558
 -1       325    8    0    1
 -2        87        88       244      1244      1564      1565
 -1       326    8    0    1
 -2        87       244       243      1565      1566      1561
 -1       327    8    0    1
 -2        88        89       245      1245      1567      1568
 -1       328    8    0    1
 -2        88       245       244      1568      1569      1564
 -1       329    8    0    1
 -2        89        90       246      1246      1570      1571
 -1       330    8    0    1
 -2        89       246       245      1571      1572      1567
 -1       331    8    0    1
 -2        90        91       247      1247      1573      1574
 -1       332    8    0    1
 -2        90       247       246      1574      1575      1570
 -1       333    8    0    1
 -2        91        92       248      1248      1576      1577
 -1       334    8    0    1
 -2        91       248       247      1577      1578      1573
 -1       335    8    0    1
 -2        92        93       249      1249      1579      1580
 -1       336    8    0    1
 -2        92       249       248      1580      1581      1576
 -1       337    8    0    1
 -2        93        94       250      1250      1582      1583
 -1       338    8    0    1
 -2        93       250       249      1583      1584      1579
 -1       339    8    0    1
 -2        94        95       251      1251      1585      1586
 -1       340    8    0    1
 -2        94       251       250      1586      1587      1582
 -1       341    8    0    1
 -2        95        96       252      1252      1588      1589
 -1       342    8    0    1
 -2        95       252       251      1589      1590      1585
 -1       343    8    0    1
 -2        96        97       253      1253      1591      1592
 -1       344    8    0    1
 -2        96       253       252      1592      1593      1588
 -1       345    8    0    1
 -2        97        98       254      1254      1594      1595
 -1       346    8    0    1
 -2        97       254       253      1595      1596      1591
 -1       347    8    0    1
 -2        98        99       255      1255      1597      1598
 -1       348    8    0    1
 -2        98       255       254      1598      1599      1594
 -1       349    8    0    1
 -2        99       100       256      1256      1600      1601
 -1       350    8    0    1
 -2        99       256       255      1601      1602      1597
 -1       351    8    0    1
 -2       100       101       257      1257      1603      1604
 -1       352    8    0    1
 -2       100       257       256      1604      1605      1600
 -1       353    8    0    1
 -2       101       102       258      1258      1606      1607
 -1       354    8    0    1
 -2       101       258       257      1607      1608      1603
 -1       355    8    0    1
 -2       102       103       259      1259      1609      1610
 -1       356    8    0    1
 -2       102       259       258      1610      1611      1606
 -1       357    8    0    1
 -2       103       104       260      1260      1612      1613
 -1       358    8    0    1
 -2       103       260       259      1613      1614      1609
 -1       359    8    0    1
 -2       104       105       261      1261      1615      1616
 -1       360    8    0    1
 -2       104       261       260      1616      1617      1612
 -1       361    8    0    1
 -2       105       106       262      1262      1618      1619
 -1       362    8    0    1
 -2       105       262       261      1619      1620      1615
 -1       363    8    0    1
 -2       106       107       263      1263      1621      1622
 -1       364    8    0    1
 -2       106       263       262      1622      1623      1618
 -1       365    8    0    1
 -2       107       108       264      1264      1624      1625
 -1       366    8    0    1
 -2       107       264       263      1625      1626      1621
 -1       367    8    0    1
 -2       108       109       265      1265      1627      1628
 -1       368    8    0    1
 -2       108       265       264      1628      1629      1624
 -1       369    8    0    1
 -2       109       110       266      1266      1630      1631
 -1       370    8    0    1
 -2       109       266       265      1631      1632      1627
 -1       371    8    0    1
 -2       110       111       267      1267      1633      1634
 -1       372    8    0    1
 -2       110       267       266      1634      1635      1630
 -1       373    8    0    1
 -2       111       112       268      1268      1636      1637
 -1       374    8    0    1
 -2       111       268       267      1637      1638      1633
 -1       375    8    0    1
 -2       112       113       269      1269      1639      1640
 -1       376    8    0    1
 -2       112       269       268      1640      1641      1636
 -1       377    8    0    1
 -2       113       114       270      1270      1642      1643
 -1       378    8    0    1
 -2       113       270       269      1643      1644      1639
 -1       379    8    0    1
 -2       114       115       271      1271      1645      1646
 -1       380    8    0    1
 -2       114       271       270      1646      1647      1642
 -1       381    8    0    1
 -2       115       116       272      1272      1648      1649
 -1       382    8    0    1
 -2       115       272       271      1649      1650      1645
 -1       383    8    0    1
 -2       116       117       273      1273      1651      1652
 -1       384    8    0    1
 -2       116       273       272      1652      1653      1648
 -1       385    8    0    1
 -2       117       118       274      1274      1654      1655
 -1       386    8    0    1
 -2       117       274       273      1655      1656      1651
 -1       387    8    0    1
 -2       118       119       275      1275      1657      1658
 -1       388    8    0    1
 -2       118       275       274      1658      1659      1654
 -1       389    8    0    1
 -2       119       120       276      1276      1660      1661
 -1       390    8    0    1
 -2       119       276       275      1661      1662      1657
 -1       391    8    0    1
 -2       120         3       121      1277      1278      1663
 -1       392    8    0    1
 -2       121       122       277      1279      1664      1665
 -1       393    8    0    1
 -2       122       123       278      1280      1666      1667
 -1       394    8    0    1
 -2       122       278       277      1667      1668      1664
 -1       395    8    0    1
 -2       123       124       279      1281      1669      1670
 -1       396    8    0    1
 -2       123       279       278      1670      1671      1666
 -1       397    8    0    1
 -2       124       125       280      1282      1672      1673
 -1       398    8    0    1
 -2       124       280       279      1673      1674      1669
 -1       399    8    0    1
 -2       125       126       281      1283      1675      1676
 -1       400    8    0    1
 -2       125       281       280      1676      1677      1672
 -1       401    8    0    1
 -2       126       127       282      1284      1678      1679
 -1       402    8    0    1
 -2       126       282       281      1679      1680      1675
 -1       403    8    0    1
 -2       127       128       283      1285      1681      1682
 -1       404    8    0    1
 -2       127       283       282      1682      1683      1678
 -1       405    8    0    1
 -2       128       129       284      1286      1684      1685
 -1       406    8    0    1
 -2       128       284       283      1685      1686      1681
 -1       407    8    0    1
 -2       129       130       285      1287      1687      1688
 -1       408    8    0    1
 -2       129       285       284      1688      1689      1684
 -1       409    8    0    1
 -2       130       131       286      1288      1690      1691
 -1       410    8    0    1
 -2       130       286       285      1691      1692      1687
 -1       411    8    0    1
 -2       131       132       287      1289      1693      1694
 -1       412    8    0    1
 -2       131       287       286      1694      1695      1690
 -1       413    8    0    1
 -2       132       133       288      1290      1696      1697
 -1       414    8    0    1
 -2       132       288       287      1697      1698      1693
 -1       415    8    0    1
 -2       133       134       289      1291      1699      1700
 -1       416    8    0    1
 -2       133       289       288      1700      1701      1696
 -1       417    8    0    1
 -2       134       135       290      1292      1702      1703
 -1       418    8    0    1
 -2       134       290       289      1703      1704      1699
 -1       419    8    0    1
 -2       135       136       291      1293      1705      1706
 -1       420    8    0    1
 -2       290       135       291      1702      1706      1707
 -1       421    8    0    1
 -2       136       228       291      1518      1708      1705
 -1       422    8    0    1
 -2         2       137       292      1295      1709      1710
 -1       423    8    0    1
 -2       137       138       293      1296      1711      1712
 -1       424    8    0    1
 -2       138       139       294      1297      1713      1714
 -1       425    8    0    1
 -2       139       140       295      1298      1715      1716
 -1       426    8    0    1
 -2       140       141       296      1299      1717      1718
 -1       427    8    0    1
 -2       141       142       297      1300      1719      1720
 -1       428    8    0    1
 -2       142       143       298      1301      1721      1722
 -1       429    8    0    1
 -2       143       144       299      1302      1723      1724
 -1       430    8    0    1
 -2       144       145       300      1303      1725      1726
 -1       431    8    0    1
 -2       145       146       301      1304      1727      1728
 -1       432    8    0    1
 -2       146       147       302      1305      1729      1730
 -1       433    8    0    1
 -2       147       148       303      1306      1731      1732
 -1       434    8    0    1
 -2       148       149       304      1307      1733      1734
 -1       435    8    0    1
 -2       149       150       305      1308      1735      1736
 -1       436    8    0    1
 -2       150       151       306      1309      1737      1738
 -1       437    8    0    1
 -2       151       152       307      1310      1739      1740
 -1       438    8    0    1
 -2       152       153       308      1311      1741      1742
 -1       439    8    0    1
 -2       153       154       309      1312      1743      1744
 -1       440    8    0    1
 -2       154         1       310      1313      1745      1746
 -1       441    8    0    1
 -2         1       155       311      1314      1747      1748
 -1       442    8    0    1
 -2       155       156       312      1315      1749      1750
 -1       443    8    0    1
 -2       156       157       313      1316      1751      1752
 -1       444    8    0    1
 -2       157       158       314      1317      1753      1754
 -1       445    8    0    1
 -2       158       159       315      1318      1755      1756
 -1       446    8    0    1
 -2       159       160       316      1319      1757      1758
 -1       447    8    0    1
 -2       160       161       317      1320      1759      1760
 -1       448    8    0    1
 -2       161       162       318      1321      1761      1762
 -1       449    8    0    1
 -2       162       163       319      1322      1763      1764
 -1       450    8    0    1
 -2       163       164       320      1323      1765      1766
 -1       451    8    0    1
 -2       164         2       321      1324      1767      1768
 -1       452    8    0    1
 -2       295       140       296      1715      1718      1769
 -1       453    8    0    1
 -2       294       139       295      1713      1716      1770
 -1       454    8    0    1
 -2       120       121       276      1663      1771      1660
 -1       455    8    0    1
 -2       121       277       276      1665      1772      1771
 -1       456    8    0    1
 -2       292       137       293      1709      1712      1773
 -1       457    8    0    1
 -2       293       138       294      1711      1714      1774
 -1       458    8    0    1
 -2         2       292       321      1710      1775      1767
 -1       459    8    0    1
 -2       141       297       296      1720      1776      1717
 -1       460    8    0    1
 -2       142       298       297      1722      1777      1719
 -1       461    8    0    1
 -2       143       299       298      1724      1778      1721
 -1       462    8    0    1
 -2       144       300       299      1726      1779      1723
 -1       463    8    0    1
 -2       145       301       300      1728      1780      1725
 -1       464    8    0    1
 -2       146       302       301      1730      1781      1727
 -1       465    8    0    1
 -2       147       303       302      1732      1782      1729
 -1       466    8    0    1
 -2       148       304       303      1734      1783      1731
 -1       467    8    0    1
 -2       149       305       304      1736      1784      1733
 -1       468    8    0    1
 -2       150       306       305      1738      1785      1735
 -1       469    8    0    1
 -2       151       307       306      1740      1786      1737
 -1       470    8    0    1
 -2       152       308       307      1742      1787      1739
 -1       471    8    0    1
 -2       153       309       308      1744      1788      1741
 -1       472    8    0    1
 -2       154       310       309      1746      1789      1743
 -1       473    8    0    1
 -2         1       311       310      1748      1790      1745
 -1       474    8    0    1
 -2       155       312       311      1750      1791      1747
 -1       475    8    0    1
 -2       156       313       312      1752      1792      1749
 -1       476    8    0    1
 -2       157       314       313      1754      1793      1751
 -1       477    8    0    1
 -2       158       315       314      1756      1794      1753
 -1       478    8    0    1
 -2       159       316       315      1758      1795      1755
 -1       479    8    0    1
 -2       160       317       316      1760      1796      1757
 -1       480    8    0    1
 -2       161       318       317      1762      1797      1759
 -1       481    8    0    1
 -2       162       319       318      1764      1798      1761
 -1       482    8    0    1
 -2       163       320       319      1766      1799      1763
 -1       483    8    0    1
 -2       164       321       320      1768      1800      1765
 -1       484    8    0    1
 -2        23         7       165      1325      1327      1801
 -1       485    8    0    1
 -2       166       167       322      1333      1802      1803
 -1       486    8    0    1
 -2       165       166       323      1330      1804      1805
 -1       487    8    0    1
 -2       166       322       323      1803      1806      1804
 -1       488    8    0    1
 -2       168       169       324      1339      1807      1808
 -1       489    8    0    1
 -2       169       170       325      1342      1809      1810
 -1       490    8    0    1
 -2       169       325       324      1810      1811      1807
 -1       491    8    0    1
 -2       170       171       326      1345      1812      1813
 -1       492    8    0    1
 -2       170       326       325      1813      1814      1809
 -1       493    8    0    1
 -2       171       172       327      1348      1815      1816
 -1       494    8    0    1
 -2       171       327       326      1816      1817      1812
 -1       495    8    0    1
 -2       172       173       328      1351      1818      1819
 -1       496    8    0    1
 -2       172       328       327      1819      1820      1815
 -1       497    8    0    1
 -2       173       174       329      1354      1821      1822
 -1       498    8    0    1
 -2       173       329       328      1822      1823      1818
 -1       499    8    0    1
 -2       174       175       330      1357      1824      1825
 -1       500    8    0    1
 -2       174       330       329      1825      1826      1821
 -1       501    8    0    1
 -2       175       176       331      1360      1827      1828
 -1       502    8    0    1
 -2       175       331       330      1828      1829      1824
 -1       503    8    0    1
 -2       176       177       332      1363      1830      1831
 -1       504    8    0    1
 -2       176       332       331      1831      1832      1827
 -1       505    8    0    1
 -2       177       178       333      1366      1833      1834
 -1       506    8    0    1
 -2       177       333       332      1834      1835      1830
 -1       507    8    0    1
 -2       178       179       334      1369      1836      1837
 -1       508    8    0    1
 -2       178       334       333      1837      1838      1833
 -1       509    8    0    1
 -2       179       180       335      1372      1839      1840
 -1       510    8    0    1
 -2       334       179       335      1836      1840      1841
 -1       511    8    0    1
 -2       180       229       335      1521      1842      1839
 -1       512    8    0    1
 -2       181        23       165      1374      1801      1843
 -1       513    8    0    1
 -2       229       230       336      1524      1844      1845
 -1       514    8    0    1
 -2       229       336       335      1845      1846      1842
 -1       515    8    0    1
 -2       181       165       323      1843      1805      1847
 -1       516    8    0    1
 -2       183       182       337      1381      1848      1849
 -1       517    8    0    1
 -2       184       183       338      1384      1850      1851
 -1       518    8    0    1
 -2       183       337       338      1849      1852      1850
 -1       519    8    0    1
 -2       185       184       339      1387      1853      1854
 -1       520    8    0    1
 -2       184       338       339      1851      1855      1853
 -1       521    8    0    1
 -2       186       185       340      1390      1856      1857
 -1       522    8    0    1
 -2       185       339       340      1854      1858      1856
 -1       523    8    0    1
 -2       187       186       341      1393      1859      1860
 -1       524    8    0    1
 -2       186       340       341      1857      1861      1859
 -1       525    8    0    1
 -2       188       187       342      1396      1862      1863
 -1       526    8    0    1
 -2       187       341       342      1860      1864      1862
 -1       527    8    0    1
 -2       189       188       343      1399      1865      1866
 -1       528    8    0    1
 -2       188       342       343      1863      1867      1865
 -1       529    8    0    1
 -2       190       189       344      1402      1868      1869
 -1       530    8    0    1
 -2       189       343       344      1866      1870      1868
 -1       531    8    0    1
 -2       191       190       345      1405      1871      1872
 -1       532    8    0    1
 -2       190       344       345      1869      1873      1871
 -1       533    8    0    1
 -2       192       191       346      1408      1874      1875
 -1       534    8    0    1
 -2       191       345       346      1872      1876      1874
 -1       535    8    0    1
 -2       193       192       347      1411      1877      1878
 -1       536    8    0    1
 -2       192       346       347      1875      1879      1877
 -1       537    8    0    1
 -2       194       193       348      1414      1880      1881
 -1       538    8    0    1
 -2       193       347       348      1878      1882      1880
 -1       539    8    0    1
 -2       195       194       349      1417      1883      1884
 -1       540    8    0    1
 -2       194       348       349      1881      1885      1883
 -1       541    8    0    1
 -2       196       195       350      1420      1886      1887
 -1       542    8    0    1
 -2       195       349       350      1884      1888      1886
 -1       543    8    0    1
 -2       197       196       351      1423      1889      1890
 -1       544    8    0    1
 -2       196       350       351      1887      1891      1889
 -1       545    8    0    1
 -2       198       197       352      1426      1892      1893
 -1       546    8    0    1
 -2       197       351       352      1890      1894      1892
 -1       547    8    0    1
 -2       199       198       353      1429      1895      1896
 -1       548    8    0    1
 -2       198       352       353      1893      1897      1895
 -1       549    8    0    1
 -2       200       199       354      1432      1898      1899
 -1       550    8    0    1
 -2       199       353       354      1896      1900      1898
 -1       551    8    0    1
 -2       201       200       355      1435      1901      1902
 -1       552    8    0    1
 -2       200       354       355      1899      1903      1901
 -1       553    8    0    1
 -2       202       201       356      1438      1904      1905
 -1       554    8    0    1
 -2       201       355       356      1902      1906      1904
 -1       555    8    0    1
 -2       203       202       357      1441      1907      1908
 -1       556    8    0    1
 -2       202       356       357      1905      1909      1907
 -1       557    8    0    1
 -2       204       203       358      1444      1910      1911
 -1       558    8    0    1
 -2       203       357       358      1908      1912      1910
 -1       559    8    0    1
 -2       205       204       359      1447      1913      1914
 -1       560    8    0    1
 -2       204       358       359      1911      1915      1913
 -1       561    8    0    1
 -2       206       205       360      1450      1916      1917
 -1       562    8    0    1
 -2       205       359       360      1914      1918      1916
 -1       563    8    0    1
 -2       207       206       361      1453      1919      1920
 -1       564    8    0    1
 -2       206       360       361      1917      1921      1919
 -1       565    8    0    1
 -2       208       207       362      1456      1922      1923
 -1       566    8    0    1
 -2       207       361       362      1920      1924      1922
 -1       567    8    0    1
 -2       209       208       363      1459      1925      1926
 -1       568    8    0    1
 -2       208       362       363      1923      1927      1925
 -1       569    8    0    1
 -2       210       209       364      1462      1928      1929
 -1       570    8    0    1
 -2       209       363       364      1926      1930      1928
 -1       571    8    0    1
 -2       211       210       365      1465      1931      1932
 -1       572    8    0    1
 -2       210       364       365      1929      1933      1931
 -1       573    8    0    1
 -2       212       211       366      1468      1934      1935
 -1       574    8    0    1
 -2       211       365       366      1932      1936      1934
 -1       575    8    0    1
 -2       213       212       367      1471      1937      1938
 -1       576    8    0    1
 -2       212       366       367      1935      1939      1937
 -1       577    8    0    1
 -2       214       213       368      1474      1940      1941
 -1       578    8    0    1
 -2       213       367       368      1938      1942      1940
 -1       579    8    0    1
 -2       215       214       369      1477      1943      1944
 -1       580    8    0    1
 -2       214       368       369      1941      1945      1943
 -1       581    8    0    1
 -2       216       215       370      1480      1946      1947
 -1       582    8    0    1
 -2       215       369       370      1944      1948      1946
 -1       583    8    0    1
 -2       217       216       371      1483      1949      1950
 -1       584    8    0    1
 -2       216       370       371      1947      1951      1949
 -1       585    8    0    1
 -2       218       217       372      1486      1952      1953
 -1       586    8    0    1
 -2       217       371       372      1950      1954      1952
 -1       587    8    0    1
 -2       219       218       373      1489      1955      1956
 -1       588    8    0    1
 -2       218       372       373      1953      1957      1955
 -1       589    8    0    1
 -2       220       219       374      1492      1958      1959
 -1       590    8    0    1
 -2       219       373       374      1956      1960      1958
 -1       591    8    0    1
 -2       221       220       375      1495      1961      1962
 -1       592    8    0    1
 -2       220       374       375      1959      1963      1961
 -1       593    8    0    1
 -2       222       221       376      1498      1964      1965
 -1       594    8    0    1
 -2       221       375       376      1962      1966      1964
 -1       595    8    0    1
 -2       223       222       377      1501      1967      1968
 -1       596    8    0    1
 -2       222       376       377      1965      1969      1967
 -1       597    8    0    1
 -2       224       223       378      1504      1970      1971
 -1       598    8    0    1
 -2       223       377       378      1968      1972      1970
 -1       599    8    0    1
 -2       225       224       379      1507      1973      1974
 -1       600    8    0    1
 -2       224       378       379      1971      1975      1973
 -1       601    8    0    1
 -2       226       225       380      1510      1976      1977
 -1       602    8    0    1
 -2       225       379       380      1974      1978      1976
 -1       603    8    0    1
 -2       227       226       381      1513      1979      1980
 -1       604    8    0    1
 -2       226       380       381      1977      1981      1979
 -1       605    8    0    1
 -2       228       227       382      1516      1982      1983
 -1       606    8    0    1
 -2       291       228       382      1708      1983      1984
 -1       607    8    0    1
 -2       227       381       382      1980      1985      1982
 -1       608    8    0    1
 -2       230       231       383      1527      1986      1987
 -1       609    8    0    1
 -2       230       383       336      1987      1988      1844
 -1       610    8    0    1
 -2       231       232       384      1530      1989      1990
 -1       611    8    0    1
 -2       231       384       383      1990      1991      1986
 -1       612    8    0    1
 -2       232       233       385      1533      1992      1993
 -1       613    8    0    1
 -2       232       385       384      1993      1994      1989
 -1       614    8    0    1
 -2       233       234       386      1536      1995      1996
 -1       615    8    0    1
 -2       233       386       385      1996      1997      1992
 -1       616    8    0    1
 -2       234       235       387      1539      1998      1999
 -1       617    8    0    1
 -2       234       387       386      1999      2000      1995
 -1       618    8    0    1
 -2       235       236       388      1542      2001      2002
 -1       619    8    0    1
 -2       235       388       387      2002      2003      1998
 -1       620    8    0    1
 -2       236       237       389      1545      2004      2005
 -1       621    8    0    1
 -2       236       389       388      2005      2006      2001
 -1       622    8    0    1
 -2       237       238       390      1548      2007      2008
 -1       623    8    0    1
 -2       237       390       389      2008      2009      2004
 -1       624    8    0    1
 -2       238       239       391      1551      2010      2011
 -1       625    8    0    1
 -2       238       391       390      2011      2012      2007
 -1       626    8    0    1
 -2       239       240       392      1554      2013      2014
 -1       627    8    0    1
 -2       239       392       391      2014      2015      2010
 -1       628    8    0    1
 -2       240       241       393      1557      2016      2017
 -1       629    8    0    1
 -2       240       393       392      2017      2018      2013
 -1       630    8    0    1
 -2       241       242       394      1560      2019      2020
 -1       631    8    0    1
 -2       241       394       393      2020      2021      2016
 -1       632    8    0    1
 -2       242       243       395      1563      2022      2023
 -1       633    8    0    1
 -2       242       395       394      2023      2024      2019
 -1       634    8    0    1
 -2       243       244       396      1566      2025      2026
 -1       635    8    0    1
 -2       243       396       395      2026      2027      2022
 -1       636    8    0    1
 -2       244       245       397      1569      2028      2029
 -1       637    8    0    1
 -2       244       397       396      2029      2030      2025
 -1       638    8    0    1
 -2       245       246       398      1572      2031      2032
 -1       639    8    0    1
 -2       245       398       397      2032      2033      2028
 -1       640    8    0    1
 -2       246       247       399      1575      2034      2035
 -1       641    8    0    1
 -2       246       399       398      2035      2036      2031
 -1       642    8    0    1
 -2       247       248       400      1578      2037      2038
 -1       643    8    0    1
 -2       247       400       399      2038      2039      2034
 -1       644    8    0    1
 -2       248       249       401      1581      2040      2041
 -1       645    8    0    1
 -2       248       401       400      2041      2042      2037
 -1       646    8    0    1
 -2       249       250       402      1584      2043      2044
 -1       647    8    0    1
 -2       249       402       401      2044      2045      2040
 -1       648    8    0    1
 -2       250       251       403      1587      2046      2047
 -1       649    8    0    1
 -2       250       403       402      2047      2048      2043
 -1       650    8    0    1
 -2       251       252       404      1590      2049      2050
 -1       651    8    0    1
 -2       251       404       403      2050      2051      2046
 -1       652    8    0    1
 -2       252       253       405      1593      2052      2053
 -1       653    8    0    1
 -2       252       405       404      2053      2054      2049
 -1       654    8    0    1
 -2       253       254       406      1596      2055      2056
 -1       655    8    0    1
 -2       253       406       405      2056      2057      2052
 -1       656    8    0    1
 -2       254       255       407      1599      2058      2059
 -1       657    8    0    1
 -2       254       407       406      2059      2060      2055
 -1       658    8    0    1
 -2       255       256       408      1602      2061      2062
 -1       659    8    0    1
 -2       255       408       407      2062      2063      2058
 -1       660    8    0    1
 -2       256       257       409      1605      2064      2065
 -1       661    8    0    1
 -2       256       409       408      2065      2066      2061
 -1       662    8    0    1
 -2       257       258       410      1608      2067      2068
 -1       663    8    0    1
 -2       257       410       409      2068      2069      2064
 -1       664    8    0    1
 -2       258       259       411      1611      2070      2071
 -1       665    8    0    1
 -2       258       411       410      2071      2072      2067
 -1       666    8    0    1
 -2       259       260       412      1614      2073      2074
 -1       667    8    0    1
 -2       259       412       411      2074      2075      2070
 -1       668    8    0    1
 -2       260       261       413      1617      2076      2077
 -1       669    8    0    1
 -2       260       413       412      2077      2078      2073
 -1       670    8    0    1
 -2       261       262       414      1620      2079      2080
 -1       671    8    0    1
 -2       261       414       413      2080      2081      2076
 -1       672    8    0    1
 -2       262       263       415      1623      2082      2083
 -1       673    8    0    1
 -2       262       415       414      2083      2084      2079
 -1       674    8    0    1
 -2       263       264       416      1626      2085      2086
 -1       675    8    0    1
 -2       263       416       415      2086      2087      2082
 -1       676    8    0    1
 -2       264       265       417      1629      2088      2089
 -1       677    8    0    1
 -2       264       417       416      2089      2090      2085
 -1       678    8    0    1
 -2       265       266       418      1632      2091      2092
 -1       679    8    0    1
 -2       265       418       417      2092      2093      2088
 -1       680    8    0    1
 -2       266       267       419      1635      2094      2095
 -1       681    8    0    1
 -2       266       419       418      2095      2096      2091
 -1       682    8    0    1
 -2       267       268       420      1638      2097      2098
 -1       683    8    0    1
 -2       267       420       419      2098      2099      2094
 -1       684    8    0    1
 -2       268       269       421      1641      2100      2101
 -1       685    8    0    1
 -2       268       421       420      2101      2102      2097
 -1       686    8    0    1
 -2       269       270       422      1644      2103      2104
 -1       687    8    0    1
 -2       269       422       421      2104      2105      2100
 -1       688    8    0    1
 -2       270       271       423      1647      2106      2107
 -1       689    8    0    1
 -2       270       423       422      2107      2108      2103
 -1       690    8    0    1
 -2       271       272       424      1650      2109      2110
 -1       691    8    0    1
 -2       271       424       423      2110      2111      2106
 -1       692    8    0    1
 -2       272       273       425      1653      2112      2113
 -1       693    8    0    1
 -2       272       425       424      2113      2114      2109
 -1       694    8    0    1
 -2       273       274       426      1656      2115      2116
 -1       695    8    0    1
 -2       273       426       425      2116      2117      2112
 -1       696    8    0    1
 -2       274       275       427      1659      2118      2119
 -1       697    8    0    1
 -2       274       427       426      2119      2120      2115
 -1       698    8    0    1
 -2       275       276       428      1662      2121      2122
 -1       699    8    0    1
 -2       427       275       428      2118      2122      2123
 -1       700    8    0    1
 -2       276       277       428      1772      2124      2121
 -1       701    8    0    1
 -2       279       280       429      1674      2125      2126
 -1       702    8    0    1
 -2       278       279       430      1671      2127      2128
 -1       703    8    0    1
 -2       279       429       430      2126      2129      2127
 -1       704    8    0    1
 -2       277       278       431      1668      2130      2131
 -1       705    8    0    1
 -2       428       277       431      2124      2131      2132
 -1       706    8    0    1
 -2       278       430       431      2128      2133      2130
 -1       707    8    0    1
 -2       280       281       432      1677      2134      2135
 -1       708    8    0    1
 -2       280       432       429      2135      2136      2125
 -1       709    8    0    1
 -2       281       282       433      1680      2137      2138
 -1       710    8    0    1
 -2       281       433       432      2138      2139      2134
 -1       711    8    0    1
 -2       282       283       434      1683      2140      2141
 -1       712    8    0    1
 -2       282       434       433      2141      2142      2137
 -1       713    8    0    1
 -2       283       284       435      1686      2143      2144
 -1       714    8    0    1
 -2       283       435       434      2144      2145      2140
 -1       715    8    0    1
 -2       284       285       436      1689      2146      2147
 -1       716    8    0    1
 -2       284       436       435      2147      2148      2143
 -1       717    8    0    1
 -2       285       286       437      1692      2149      2150
 -1       718    8    0    1
 -2       285       437       436      2150      2151      2146
 -1       719    8    0    1
 -2       286       287       438      1695      2152      2153
 -1       720    8    0    1
 -2       286       438       437      2153      2154      2149
 -1       721    8    0    1
 -2       287       288       439      1698      2155      2156
 -1       722    8    0    1
 -2       287       439       438      2156      2157      2152
 -1       723    8    0    1
 -2       288       289       440      1701      2158      2159
 -1       724    8    0    1
 -2       288       440       439      2159      2160      2155
 -1       725    8    0    1
 -2       289       290       441      1704      2161      2162
 -1       726    8    0    1
 -2       289       441       440      2162      2163      2158
 -1       727    8    0    1
 -2       293       294       442      1774      2164      2165
 -1       728    8    0    1
 -2       321       292       443      1775      2166      2167
 -1       729    8    0    1
 -2       292       293       444      1773      2168      2169
 -1       730    8    0    1
 -2       294       295       445      1770      2170      2171
 -1       731    8    0    1
 -2       295       296       446      1769      2172      2173
 -1       732    8    0    1
 -2       167       168       447      1336      2174      2175
 -1       733    8    0    1
 -2       322       167       447      1802      2175      2176
 -1       734    8    0    1
 -2       168       324       447      1808      2177      2174
 -1       735    8    0    1
 -2       297       298       448      1777      2178      2179
 -1       736    8    0    1
 -2       298       299       449      1778      2180      2181
 -1       737    8    0    1
 -2       299       300       450      1779      2182      2183
 -1       738    8    0    1
 -2       300       301       451      1780      2184      2185
 -1       739    8    0    1
 -2       301       302       452      1781      2186      2187
 -1       740    8    0    1
 -2       302       303       453      1782      2188      2189
 -1       741    8    0    1
 -2       303       304       454      1783      2190      2191
 -1       742    8    0    1
 -2       303       454       453      2191      2192      2188
 -1       743    8    0    1
 -2       304       305       455      1784      2193      2194
 -1       744    8    0    1
 -2       305       306       456      1785      2195      2196
 -1       745    8    0    1
 -2       306       307       457      1786      2197      2198
 -1       746    8    0    1
 -2       307       308       458      1787      2199      2200
 -1       747    8    0    1
 -2       308       309       459      1788      2201      2202
 -1       748    8    0    1
 -2       309       310       460      1789      2203      2204
 -1       749    8    0    1
 -2       310       311       461      1790      2205      2206
 -1       750    8    0    1
 -2       311       312       462      1791      2207      2208
 -1       751    8    0    1
 -2       312       313       463      1792      2209      2210
 -1       752    8    0    1
 -2       313       314       464      1793      2211      2212
 -1       753    8    0    1
 -2       313       464       463      2212      2213      2209
 -1       754    8    0    1
 -2       314       315       465      1794      2214      2215
 -1       755    8    0    1
 -2       315       316       466      1795      2216      2217
 -1       756    8    0    1
 -2       316       317       467      1796      2218      2219
 -1       757    8    0    1
 -2       317       318       468      1797      2220      2221
 -1       758    8    0    1
 -2       318       319       469      1798      2222      2223
 -1       759    8    0    1
 -2       319       320       470      1799      2224      2225
 -1       760    8    0    1
 -2       319       470       469      2225      2226      2222
 -1       761    8    0    1
 -2       320       321       471      1800      2227      2228
 -1       762    8    0    1
 -2       296       297       472      1776      2229      2230
 -1       763    8    0    1
 -2       296       472       446      2230      2231      2172
 -1       764    8    0    1
 -2       445       295       446      2170      2173      2232
 -1       765    8    0    1
 -2       181       323       182      1847      2233      1378
 -1       766    8    0    1
 -2       297       448       472      2179      2234      2229
 -1       767    8    0    1
 -2       337       182       323      1848      2233      2235
 -1       768    8    0    1
 -2       444       293       442      2168      2165      2236
 -1       769    8    0    1
 -2       443       292       444      2166      2169      2237
 -1       770    8    0    1
 -2       441       290       291      2161      1707      2238
 -1       771    8    0    1
 -2       442       294       445      2164      2171      2239
 -1       772    8    0    1
 -2       321       443       471      2167      2240      2227
 -1       773    8    0    1
 -2       470       320       471      2224      2228      2241
 -1       774    8    0    1
 -2       468       318       469      2220      2223      2242
 -1       775    8    0    1
 -2       467       317       468      2218      2221      2243
 -1       776    8    0    1
 -2       466       316       467      2216      2219      2244
 -1       777    8    0    1
 -2       464       314       465      2211      2215      2245
 -1       778    8    0    1
 -2       462       312       463      2207      2210      2246
 -1       779    8    0    1
 -2       461       311       462      2205      2208      2247
 -1       780    8    0    1
 -2       460       310       461      2203      2206      2248
 -1       781    8    0    1
 -2       459       309       460      2201      2204      2249
 -1       782    8    0    1
 -2       458       308       459      2199      2202      2250
 -1       783    8    0    1
 -2       457       307       458      2197      2200      2251
 -1       784    8    0    1
 -2       456       306       457      2195      2198      2252
 -1       785    8    0    1
 -2       454       304       455      2190      2194      2253
 -1       786    8    0    1
 -2       452       302       453      2186      2189      2254
 -1       787    8    0    1
 -2       451       301       452      2184      2187      2255
 -1       788    8    0    1
 -2       450       300       451      2182      2185      2256
 -1       789    8    0    1
 -2       448       298       449      2178      2181      2257
 -1       790    8    0    1
 -2       449       299       450      2180      2183      2258
 -1       791    8    0    1
 -2       455       305       456      2193      2196      2259
 -1       792    8    0    1
 -2       465       315       466      2214      2217      2260
 -1       793    8    0    1
 -2       336       383       473      1988      2261      2262
 -1       794    8    0    1
 -2       325       326       474      1814      2263      2264
 -1       795    8    0    1
 -2       324       325       475      1811      2265      2266
 -1       796    8    0    1
 -2       325       474       475      2264      2267      2265
 -1       797    8    0    1
 -2       327       328       476      1820      2268      2269
 -1       798    8    0    1
 -2       328       329       477      1823      2270      2271
 -1       799    8    0    1
 -2       328       477       476      2271      2272      2268
 -1       800    8    0    1
 -2       329       330       478      1826      2273      2274
 -1       801    8    0    1
 -2       329       478       477      2274      2275      2270
 -1       802    8    0    1
 -2       330       331       479      1829      2276      2277
 -1       803    8    0    1
 -2       330       479       478      2277      2278      2273
 -1       804    8    0    1
 -2       331       332       480      1832      2279      2280
 -1       805    8    0    1
 -2       331       480       479      2280      2281      2276
 -1       806    8    0    1
 -2       332       333       481      1835      2282      2283
 -1       807    8    0    1
 -2       332       481       480      2283      2284      2279
 -1       808    8    0    1
 -2       445       446       482      2232      2285      2286
 -1       809    8    0    1
 -2       383       384       483      1991      2287      2288
 -1       810    8    0    1
 -2       383       483       473      2288      2289      2261
 -1       811    8    0    1
 -2       338       337       484      1852      2290      2291
 -1       812    8    0    1
 -2       472       448       485      2234      2292      2293
 -1       813    8    0    1
 -2       339       338       486      1855      2294      2295
 -1       814    8    0    1
 -2       338       484       486      2291      2296      2294
 -1       815    8    0    1
 -2       340       339       487      1858      2297      2298
 -1       816    8    0    1
 -2       339       486       487      2295      2299      2297
 -1       817    8    0    1
 -2       341       340       488      1861      2300      2301
 -1       818    8    0    1
 -2       340       487       488      2298      2302      2300
 -1       819    8    0    1
 -2       342       341       489      1864      2303      2304
 -1       820    8    0    1
 -2       341       488       489      2301      2305      2303
 -1       821    8    0    1
 -2       343       342       490      1867      2306      2307
 -1       822    8    0    1
 -2       342       489       490      2304      2308      2306
 -1       823    8    0    1
 -2       344       343       491      1870      2309      2310
 -1       824    8    0    1
 -2       343       490       491      2307      2311      2309
 -1       825    8    0    1
 -2       345       344       492      1873      2312      2313
 -1       826    8    0    1
 -2       344       491       492      2310      2314      2312
 -1       827    8    0    1
 -2       346       345       493      1876      2315      2316
 -1       828    8    0    1
 -2       345       492       493      2313      2317      2315
 -1       829    8    0    1
 -2       347       346       494      1879      2318      2319
 -1       830    8    0    1
 -2       346       493       494      2316      2320      2318
 -1       831    8    0    1
 -2       348       347       495      1882      2321      2322
 -1       832    8    0    1
 -2       347       494       495      2319      2323      2321
 -1       833    8    0    1
 -2       349       348       496      1885      2324      2325
 -1       834    8    0    1
 -2       348       495       496      2322      2326      2324
 -1       835    8    0    1
 -2       350       349       497      1888      2327      2328
 -1       836    8    0    1
 -2       349       496       497      2325      2329      2327
 -1       837    8    0    1
 -2       351       350       498      1891      2330      2331
 -1       838    8    0    1
 -2       350       497       498      2328      2332      2330
 -1       839    8    0    1
 -2       352       351       499      1894      2333      2334
 -1       840    8    0    1
 -2       351       498       499      2331      2335      2333
 -1       841    8    0    1
 -2       353       352       500      1897      2336      2337
 -1       842    8    0    1
 -2       352       499       500      2334      2338      2336
 -1       843    8    0    1
 -2       354       353       501      1900      2339      2340
 -1       844    8    0    1
 -2       353       500       501      2337      2341      2339
 -1       845    8    0    1
 -2       355       354       502      1903      2342      2343
 -1       846    8    0    1
 -2       354       501       502      2340      2344      2342
 -1       847    8    0    1
 -2       356       355       503      1906      2345      2346
 -1       848    8    0    1
 -2       355       502       503      2343      2347      2345
 -1       849    8    0    1
 -2       357       356       504      1909      2348      2349
 -1       850    8    0    1
 -2       356       503       504      2346      2350      2348
 -1       851    8    0    1
 -2       358       357       505      1912      2351      2352
 -1       852    8    0    1
 -2       357       504       505      2349      2353      2351
 -1       853    8    0    1
 -2       359       358       506      1915      2354      2355
 -1       854    8    0    1
 -2       358       505       506      2352      2356      2354
 -1       855    8    0    1
 -2       360       359       507      1918      2357      2358
 -1       856    8    0    1
 -2       359       506       507      2355      2359      2357
 -1       857    8    0    1
 -2       361       360       508      1921      2360      2361
 -1       858    8    0    1
 -2       360       507       508      2358      2362      2360
 -1       859    8    0    1
 -2       362       361       509      1924      2363      2364
 -1       860    8    0    1
 -2       361       508       509      2361      2365      2363
 -1       861    8    0    1
 -2       363       362       510      1927      2366      2367
 -1       862    8    0    1
 -2       362       509       510      2364      2368      2366
 -1       863    8    0    1
 -2       364       363       511      1930      2369      2370
 -1       864    8    0    1
 -2       363       510       511      2367      2371      2369
 -1       865    8    0    1
 -2       365       364       512      1933      2372      2373
 -1       866    8    0    1
 -2       364       511       512      2370      2374      2372
 -1       867    8    0    1
 -2       366       365       513      1936      2375      2376
 -1       868    8    0    1
 -2       365       512       513      2373      2377      2375
 -1       869    8    0    1
 -2       367       366       514      1939      2378      2379
 -1       870    8    0    1
 -2       366       513       514      2376      2380      2378
 -1       871    8    0    1
 -2       368       367       515      1942      2381      2382
 -1       872    8    0    1
 -2       367       514       515      2379      2383      2381
 -1       873    8    0    1
 -2       369       368       516      1945      2384      2385
 -1       874    8    0    1
 -2       368       515       516      2382      2386      2384
 -1       875    8    0    1
 -2       370       369       517      1948      2387      2388
 -1       876    8    0    1
 -2       369       516       517      2385      2389      2387
 -1       877    8    0    1
 -2       371       370       518      1951      2390      2391
 -1       878    8    0    1
 -2       370       517       518      2388      2392      2390
 -1       879    8    0    1
 -2       372       371       519      1954      2393      2394
 -1       880    8    0    1
 -2       371       518       519      2391      2395      2393
 -1       881    8    0    1
 -2       373       372       520      1957      2396      2397
 -1       882    8    0    1
 -2       372       519       520      2394      2398      2396
 -1       883    8    0    1
 -2       374       373       521      1960      2399      2400
 -1       884    8    0    1
 -2       373       520       521      2397      2401      2399
 -1       885    8    0    1
 -2       375       374       522      1963      2402      2403
 -1       886    8    0    1
 -2       374       521       522      2400      2404      2402
 -1       887    8    0    1
 -2       376       375       523      1966      2405      2406
 -1       888    8    0    1
 -2       375       522       523      2403      2407      2405
 -1       889    8    0    1
 -2       377       376       524      1969      2408      2409
 -1       890    8    0    1
 -2       376       523       524      2406      2410      2408
 -1       891    8    0    1
 -2       378       377       525      1972      2411      2412
 -1       892    8    0    1
 -2       377       524       525      2409      2413      2411
 -1       893    8    0    1
 -2       379       378       526      1975      2414      2415
 -1       894    8    0    1
 -2       378       525       526      2412      2416      2414
 -1       895    8    0    1
 -2       380       379       527      1978      2417      2418
 -1       896    8    0    1
 -2       379       526       527      2415      2419      2417
 -1       897    8    0    1
 -2       381       380       528      1981      2420      2421
 -1       898    8    0    1
 -2       380       527       528      2418      2422      2420
 -1       899    8    0    1
 -2       385       386       529      1997      2423      2424
 -1       900    8    0    1
 -2       386       387       530      2000      2425      2426
 -1       901    8    0    1
 -2       386       530       529      2426      2427      2423
 -1       902    8    0    1
 -2       387       388       531      2003      2428      2429
 -1       903    8    0    1
 -2       387       531       530      2429      2430      2425
 -1       904    8    0    1
 -2       388       389       532      2006      2431      2432
 -1       905    8    0    1
 -2       388       532       531      2432      2433      2428
 -1       906    8    0    1
 -2       389       390       533      2009      2434      2435
 -1       907    8    0    1
 -2       389       533       532      2435      2436      2431
 -1       908    8    0    1
 -2       390       391       534      2012      2437      2438
 -1       909    8    0    1
 -2       390       534       533      2438      2439      2434
 -1       910    8    0    1
 -2       391       392       535      2015      2440      2441
 -1       911    8    0    1
 -2       391       535       534      2441      2442      2437
 -1       912    8    0    1
 -2       392       393       536      2018      2443      2444
 -1       913    8    0    1
 -2       392       536       535      2444      2445      2440
 -1       914    8    0    1
 -2       393       394       537      2021      2446      2447
 -1       915    8    0    1
 -2       393       537       536      2447      2448      2443
 -1       916    8    0    1
 -2       394       395       538      2024      2449      2450
 -1       917    8    0    1
 -2       394       538       537      2450      2451      2446
 -1       918    8    0    1
 -2       395       396       539      2027      2452      2453
 -1       919    8    0    1
 -2       395       539       538      2453      2454      2449
 -1       920    8    0    1
 -2       396       397       540      2030      2455      2456
 -1       921    8    0    1
 -2       396       540       539      2456      2457      2452
 -1       922    8    0    1
 -2       397       398       541      2033      2458      2459
 -1       923    8    0    1
 -2       397       541       540      2459      2460      2455
 -1       924    8    0    1
 -2       398       399       542      2036      2461      2462
 -1       925    8    0    1
 -2       398       542       541      2462      2463      2458
 -1       926    8    0    1
 -2       399       400       543      2039      2464      2465
 -1       927    8    0    1
 -2       399       543       542      2465      2466      2461
 -1       928    8    0    1
 -2       400       401       544      2042      2467      2468
 -1       929    8    0    1
 -2       400       544       543      2468      2469      2464
 -1       930    8    0    1
 -2       401       402       545      2045      2470      2471
 -1       931    8    0    1
 -2       401       545       544      2471      2472      2467
 -1       932    8    0    1
 -2       402       403       546      2048      2473      2474
 -1       933    8    0    1
 -2       402       546       545      2474      2475      2470
 -1       934    8    0    1
 -2       403       404       547      2051      2476      2477
 -1       935    8    0    1
 -2       403       547       546      2477      2478      2473
 -1       936    8    0    1
 -2       404       405       548      2054      2479      2480
 -1       937    8    0    1
 -2       404       548       547      2480      2481      2476
 -1       938    8    0    1
 -2       405       406       549      2057      2482      2483
 -1       939    8    0    1
 -2       405       549       548      2483      2484      2479
 -1       940    8    0    1
 -2       406       407       550      2060      2485      2486
 -1       941    8    0    1
 -2       406       550       549      2486      2487      2482
 -1       942    8    0    1
 -2       407       408       551      2063      2488      2489
 -1       943    8    0    1
 -2       407       551       550      2489      2490      2485
 -1       944    8    0    1
 -2       408       409       552      2066      2491      2492
 -1       945    8    0    1
 -2       408       552       551      2492      2493      2488
 -1       946    8    0    1
 -2       409       410       553      2069      2494      2495
 -1       947    8    0    1
 -2       409       553       552      2495      2496      2491
 -1       948    8    0    1
 -2       410       411       554      2072      2497      2498
 -1       949    8    0    1
 -2       410       554       553      2498      2499      2494
 -1       950    8    0    1
 -2       411       412       555      2075      2500      2501
 -1       951    8    0    1
 -2       411       555       554      2501      2502      2497
 -1       952    8    0    1
 -2       412       413       556      2078      2503      2504
 -1       953    8    0    1
 -2       412       556       555      2504      2505      2500
 -1       954    8    0    1
 -2       413       414       557      2081      2506      2507
 -1       955    8    0    1
 -2       413       557       556      2507      2508      2503
 -1       956    8    0    1
 -2       414       415       558      2084      2509      2510
 -1       957    8    0    1
 -2       414       558       557      2510      2511      2506
 -1       958    8    0    1
 -2       415       416       559      2087      2512      2513
 -1       959    8    0    1
 -2       415       559       558      2513      2514      2509
 -1       960    8    0    1
 -2       416       417       560      2090      2515      2516
 -1       961    8    0    1
 -2       416       560       559      2516      2517      2512
 -1       962    8    0    1
 -2       417       418       561      2093      2518      2519
 -1       963    8    0    1
 -2       417       561       560      2519      2520      2515
 -1       964    8    0    1
 -2       418       419       562      2096      2521      2522
 -1       965    8    0    1
 -2       418       562       561      2522      2523      2518
 -1       966    8    0    1
 -2       419       420       563      2099      2524      2525
 -1       967    8    0    1
 -2       419       563       562      2525      2526      2521
 -1       968    8    0    1
 -2       420       421       564      2102      2527      2528
 -1       969    8    0    1
 -2       420       564       563      2528      2529      2524
 -1       970    8    0    1
 -2       421       422       565      2105      2530      2531
 -1       971    8    0    1
 -2       421       565       564      2531      2532      2527
 -1       972    8    0    1
 -2       422       423       566      2108      2533      2534
 -1       973    8    0    1
 -2       422       566       565      2534      2535      2530
 -1       974    8    0    1
 -2       423       424       567      2111      2536      2537
 -1       975    8    0    1
 -2       423       567       566      2537      2538      2533
 -1       976    8    0    1
 -2       424       425       568      2114      2539      2540
 -1       977    8    0    1
 -2       424       568       567      2540      2541      2536
 -1       978    8    0    1
 -2       425       426       569      2117      2542      2543
 -1       979    8    0    1
 -2       425       569       568      2543      2544      2539
 -1       980    8    0    1
 -2       426       427       570      2120      2545      2546
 -1       981    8    0    1
 -2       426       570       569      2546      2547      2542
 -1       982    8    0    1
 -2       427       428       431      2123      2132      2548
 -1       983    8    0    1
 -2       432       433       571      2139      2549      2550
 -1       984    8    0    1
 -2       433       434       572      2142      2551      2552
 -1       985    8    0    1
 -2       433       572       571      2552      2553      2549
 -1       986    8    0    1
 -2       430       429       573      2129      2554      2555
 -1       987    8    0    1
 -2       429       432       574      2136      2556      2557
 -1       988    8    0    1
 -2       573       429       574      2554      2557      2558
 -1       989    8    0    1
 -2       432       571       574      2550      2559      2556
 -1       990    8    0    1
 -2       434       435       575      2145      2560      2561
 -1       991    8    0    1
 -2       434       575       572      2561      2562      2551
 -1       992    8    0    1
 -2       435       436       576      2148      2563      2564
 -1       993    8    0    1
 -2       435       576       575      2564      2565      2560
 -1       994    8    0    1
 -2       436       437       577      2151      2566      2567
 -1       995    8    0    1
 -2       436       577       576      2567      2568      2563
 -1       996    8    0    1
 -2       437       438       578      2154      2569      2570
 -1       997    8    0    1
 -2       437       578       577      2570      2571      2566
 -1       998    8    0    1
 -2       438       439       579      2157      2572      2573
 -1       999    8    0    1
 -2       438       579       578      2573      2574      2569
 -1      1000    8    0    1
 -2       439       440       580      2160      2575      2576
 -1      1001    8    0    1
 -2       439       580       579      2576      2577      2572
 -1      1002    8    0    1
 -2       440       441       581      2163      2578      2579
 -1      1003    8    0    1
 -2       440       581       580      2579      2580      2575
 -1      1004    8    0    1
 -2       443       444       582      2237      2581      2582
 -1      1005    8    0    1
 -2       442       445       583      2239      2583      2584
 -1      1006    8    0    1
 -2       384       385       584      1994      2585      2586
 -1      1007    8    0    1
 -2       385       529       584      2424      2587      2585
 -1      1008    8    0    1
 -2       441       291       382      2238      1984      2588
 -1      1009    8    0    1
 -2       471       443       585      2240      2589      2590
 -1      1010    8    0    1
 -2       444       442       586      2236      2591      2592
 -1      1011    8    0    1
 -2       337       323       587      2235      2593      2594
 -1      1012    8    0    1
 -2       484       337       587      2290      2594      2595
 -1      1013    8    0    1
 -2       323       322       587      1806      2596      2593
 -1      1014    8    0    1
 -2       468       469       588      2242      2597      2598
 -1      1015    8    0    1
 -2       462       463       589      2246      2599      2600
 -1      1016    8    0    1
 -2       452       453       590      2254      2601      2602
 -1      1017    8    0    1
 -2       326       327       591      1817      2603      2604
 -1      1018    8    0    1
 -2       474       326       591      2263      2604      2605
 -1      1019    8    0    1
 -2       327       476       591      2269      2606      2603
 -1      1020    8    0    1
 -2       449       450       592      2258      2607      2608
 -1      1021    8    0    1
 -2       455       456       593      2259      2609      2610
 -1      1022    8    0    1
 -2       448       449       594      2257      2611      2612
 -1      1023    8    0    1
 -2       450       451       595      2256      2613      2614
 -1      1024    8    0    1
 -2       451       452       596      2255      2615      2616
 -1      1025    8    0    1
 -2       453       454       597      2192      2617      2618
 -1      1026    8    0    1
 -2       465       466       598      2260      2619      2620
 -1      1027    8    0    1
 -2       454       455       599      2253      2621      2622
 -1      1028    8    0    1
 -2       455       593       599      2610      2623      2621
 -1      1029    8    0    1
 -2       456       457       600      2252      2624      2625
 -1      1030    8    0    1
 -2       457       458       601      2251      2626      2627
 -1      1031    8    0    1
 -2       457       601       600      2627      2628      2624
 -1      1032    8    0    1
 -2       458       459       602      2250      2629      2630
 -1      1033    8    0    1
 -2       459       460       603      2249      2631      2632
 -1      1034    8    0    1
 -2       460       461       604      2248      2633      2634
 -1      1035    8    0    1
 -2       461       462       605      2247      2635      2636
 -1      1036    8    0    1
 -2       462       589       605      2600      2637      2635
 -1      1037    8    0    1
 -2       463       464       606      2213      2638      2639
 -1      1038    8    0    1
 -2       464       465       607      2245      2640      2641
 -1      1039    8    0    1
 -2       466       467       608      2244      2642      2643
 -1      1040    8    0    1
 -2       466       608       598      2643      2644      2619
 -1      1041    8    0    1
 -2       467       468       609      2243      2645      2646
 -1      1042    8    0    1
 -2       468       588       609      2598      2647      2645
 -1      1043    8    0    1
 -2       469       470       610      2226      2648      2649
 -1      1044    8    0    1
 -2       470       471       611      2241      2650      2651
 -1      1045    8    0    1
 -2       610       470       611      2648      2651      2652
 -1      1046    8    0    1
 -2       471       585       611      2590      2653      2650
 -1      1047    8    0    1
 -2       446       472       612      2231      2654      2655
 -1      1048    8    0    1
 -2       335       336       613      1846      2656      2657
 -1      1049    8    0    1
 -2       334       335       613      1841      2657      2658
 -1      1050    8    0    1
 -2       336       473       613      2262      2659      2656
 -1      1051    8    0    1
 -2       449       592       594      2608      2660      2611
 -1      1052    8    0    1
 -2       324       475       614      2266      2661      2662
 -1      1053    8    0    1
 -2       324       614       447      2662      2663      2177
 -1      1054    8    0    1
 -2       445       482       583      2286      2664      2583
 -1      1055    8    0    1
 -2       482       446       612      2285      2655      2665
 -1      1056    8    0    1
 -2       333       334       613      1838      2658      2666
 -1      1057    8    0    1
 -2       588       469       610      2597      2649      2667
 -1      1058    8    0    1
 -2       472       485       612      2293      2668      2654
 -1      1059    8    0    1
 -2       333       613       481      2666      2669      2282
 -1      1060    8    0    1
 -2       608       467       609      2642      2646      2670
 -1      1061    8    0    1
 -2       427       431       570      2548      2671      2545
 -1      1062    8    0    1
 -2       431       430       570      2133      2672      2671
 -1      1063    8    0    1
 -2       607       465       598      2640      2620      2673
 -1      1064    8    0    1
 -2       443       582       585      2582      2674      2589
 -1      1065    8    0    1
 -2       582       444       586      2581      2592      2675
 -1      1066    8    0    1
 -2       442       583       586      2584      2676      2591
 -1      1067    8    0    1
 -2       604       461       605      2633      2636      2677
 -1      1068    8    0    1
 -2       384       584       483      2586      2678      2287
 -1      1069    8    0    1
 -2       603       460       604      2631      2634      2679
 -1      1070    8    0    1
 -2       589       463       606      2599      2639      2680
 -1      1071    8    0    1
 -2       601       458       602      2626      2630      2681
 -1      1072    8    0    1
 -2       597       454       599      2617      2622      2682
 -1      1073    8    0    1
 -2       596       452       590      2615      2602      2683
 -1      1074    8    0    1
 -2       595       451       596      2613      2616      2684
 -1      1075    8    0    1
 -2       590       453       597      2601      2618      2685
 -1      1076    8    0    1
 -2       587       322       447      2596      2176      2686
 -1      1077    8    0    1
 -2       485       448       594      2292      2612      2687
 -1      1078    8    0    1
 -2       593       456       615      2609      2688      2689
 -1      1079    8    0    1
 -2       456       600       615      2625      2690      2688
 -1      1080    8    0    1
 -2       450       595       592      2614      2691      2607
 -1      1081    8    0    1
 -2       602       459       603      2629      2632      2692
 -1      1082    8    0    1
 -2       606       464       607      2638      2641      2693
 -1      1083    8    0    1
 -2       441       382       616      2588      2694      2695
 -1      1084    8    0    1
 -2       581       441       616      2578      2695      2696
 -1      1085    8    0    1
 -2       382       381       616      1985      2697      2694
 -1      1086    8    0    1
 -2       570       430       573      2672      2555      2698
 -1      1087    8    0    1
 -2       616       381       528      2697      2421      2699
 -1      1088    8    0    1
 -2       477       478       617      2275      2700      2701
 -1      1089    8    0    1
 -2       476       477       618      2272      2702      2703
 -1      1090    8    0    1
 -2       477       617       618      2701      2704      2702
 -1      1091    8    0    1
 -2       479       480       619      2281      2705      2706
 -1      1092    8    0    1
 -2       480       481       620      2284      2707      2708
 -1      1093    8    0    1
 -2       480       620       619      2708      2709      2705
 -1      1094    8    0    1
 -2       608       609       621      2670      2710      2711
 -1      1095    8    0    1
 -2       473       483       622      2289      2712      2713
 -1      1096    8    0    1
 -2       487       486       623      2299      2714      2715
 -1      1097    8    0    1
 -2       488       487       624      2302      2716      2717
 -1      1098    8    0    1
 -2       487       623       624      2715      2718      2716
 -1      1099    8    0    1
 -2       489       488       625      2305      2719      2720
 -1      1100    8    0    1
 -2       488       624       625      2717      2721      2719
 -1      1101    8    0    1
 -2       490       489       626      2308      2722      2723
 -1      1102    8    0    1
 -2       489       625       626      2720      2724      2722
 -1      1103    8    0    1
 -2       491       490       627      2311      2725      2726
 -1      1104    8    0    1
 -2       490       626       627      2723      2727      2725
 -1      1105    8    0    1
 -2       492       491       628      2314      2728      2729
 -1      1106    8    0    1
 -2       491       627       628      2726      2730      2728
 -1      1107    8    0    1
 -2       493       492       629      2317      2731      2732
 -1      1108    8    0    1
 -2       492       628       629      2729      2733      2731
 -1      1109    8    0    1
 -2       494       493       630      2320      2734      2735
 -1      1110    8    0    1
 -2       493       629       630      2732      2736      2734
 -1      1111    8    0    1
 -2       495       494       631      2323      2737      2738
 -1      1112    8    0    1
 -2       494       630       631      2735      2739      2737
 -1      1113    8    0    1
 -2       496       495       632      2326      2740      2741
 -1      1114    8    0    1
 -2       495       631       632      2738      2742      2740
 -1      1115    8    0    1
 -2       498       497       633      2332      2743      2744
 -1      1116    8    0    1
 -2       499       498       634      2335      2745      2746
 -1      1117    8    0    1
 -2       498       633       634      2744      2747      2745
 -1      1118    8    0    1
 -2       500       499       635      2338      2748      2749
 -1      1119    8    0    1
 -2       499       634       635      2746      2750      2748
 -1      1120    8    0    1
 -2       501       500       636      2341      2751      2752
 -1      1121    8    0    1
 -2       500       635       636      2749      2753      2751
 -1      1122    8    0    1
 -2       502       501       637      2344      2754      2755
 -1      1123    8    0    1
 -2       501       636       637      2752      2756      2754
 -1      1124    8    0    1
 -2       503       502       638      2347      2757      2758
 -1      1125    8    0    1
 -2       502       637       638      2755      2759      2757
 -1      1126    8    0    1
 -2       504       503       639      2350      2760      2761
 -1      1127    8    0    1
 -2       503       638       639      2758      2762      2760
 -1      1128    8    0    1
 -2       505       504       640      2353      2763      2764
 -1      1129    8    0    1
 -2       504       639       640      2761      2765      2763
 -1      1130    8    0    1
 -2       506       505       641      2356      2766      2767
 -1      1131    8    0    1
 -2       505       640       641      2764      2768      2766
 -1      1132    8    0    1
 -2       507       506       642      2359      2769      2770
 -1      1133    8    0    1
 -2       506       641       642      2767      2771      2769
 -1      1134    8    0    1
 -2       508       507       643      2362      2772      2773
 -1      1135    8    0    1
 -2       507       642       643      2770      2774      2772
 -1      1136    8    0    1
 -2       509       508       644      2365      2775      2776
 -1      1137    8    0    1
 -2       508       643       644      2773      2777      2775
 -1      1138    8    0    1
 -2       510       509       645      2368      2778      2779
 -1      1139    8    0    1
 -2       509       644       645      2776      2780      2778
 -1      1140    8    0    1
 -2       511       510       646      2371      2781      2782
 -1      1141    8    0    1
 -2       510       645       646      2779      2783      2781
 -1      1142    8    0    1
 -2       512       511       647      2374      2784      2785
 -1      1143    8    0    1
 -2       511       646       647      2782      2786      2784
 -1      1144    8    0    1
 -2       513       512       648      2377      2787      2788
 -1      1145    8    0    1
 -2       512       647       648      2785      2789      2787
 -1      1146    8    0    1
 -2       514       513       649      2380      2790      2791
 -1      1147    8    0    1
 -2       513       648       649      2788      2792      2790
 -1      1148    8    0    1
 -2       515       514       650      2383      2793      2794
 -1      1149    8    0    1
 -2       514       649       650      2791      2795      2793
 -1      1150    8    0    1
 -2       516       515       651      2386      2796      2797
 -1      1151    8    0    1
 -2       515       650       651      2794      2798      2796
 -1      1152    8    0    1
 -2       517       516       652      2389      2799      2800
 -1      1153    8    0    1
 -2       516       651       652      2797      2801      2799
 -1      1154    8    0    1
 -2       518       517       653      2392      2802      2803
 -1      1155    8    0    1
 -2       517       652       653      2800      2804      2802
 -1      1156    8    0    1
 -2       519       518       654      2395      2805      2806
 -1      1157    8    0    1
 -2       518       653       654      2803      2807      2805
 -1      1158    8    0    1
 -2       520       519       655      2398      2808      2809
 -1      1159    8    0    1
 -2       519       654       655      2806      2810      2808
 -1      1160    8    0    1
 -2       521       520       656      2401      2811      2812
 -1      1161    8    0    1
 -2       520       655       656      2809      2813      2811
 -1      1162    8    0    1
 -2       522       521       657      2404      2814      2815
 -1      1163    8    0    1
 -2       521       656       657      2812      2816      2814
 -1      1164    8    0    1
 -2       523       522       658      2407      2817      2818
 -1      1165    8    0    1
 -2       522       657       658      2815      2819      2817
 -1      1166    8    0    1
 -2       524       523       659      2410      2820      2821
 -1      1167    8    0    1
 -2       523       658       659      2818      2822      2820
 -1      1168    8    0    1
 -2       525       524       660      2413      2823      2824
 -1      1169    8    0    1
 -2       524       659       660      2821      2825      2823
 -1      1170    8    0    1
 -2       526       525       661      2416      2826      2827
 -1      1171    8    0    1
 -2       525       660       661      2824      2828      2826
 -1      1172    8    0    1
 -2       527       526       662      2419      2829      2830
 -1      1173    8    0    1
 -2       526       661       662      2827      2831      2829
 -1      1174    8    0    1
 -2       528       527       663      2422      2832      2833
 -1      1175    8    0    1
 -2       527       662       663      2830      2834      2832
 -1      1176    8    0    1
 -2       530       531       664      2430      2835      2836
 -1      1177    8    0    1
 -2       570       573       665      2698      2837      2838
 -1      1178    8    0    1
 -2       570       665       569      2838      2839      2547
 -1      1179    8    0    1
 -2       529       530       666      2427      2840      2841
 -1      1180    8    0    1
 -2       530       664       666      2836      2842      2840
 -1      1181    8    0    1
 -2       532       533       667      2436      2843      2844
 -1      1182    8    0    1
 -2       533       534       668      2439      2845      2846
 -1      1183    8    0    1
 -2       533       668       667      2846      2847      2843
 -1      1184    8    0    1
 -2       534       535       669      2442      2848      2849
 -1      1185    8    0    1
 -2       534       669       668      2849      2850      2845
 -1      1186    8    0    1
 -2       535       536       670      2445      2851      2852
 -1      1187    8    0    1
 -2       535       670       669      2852      2853      2848
 -1      1188    8    0    1
 -2       536       537       671      2448      2854      2855
 -1      1189    8    0    1
 -2       536       671       670      2855      2856      2851
 -1      1190    8    0    1
 -2       537       538       672      2451      2857      2858
 -1      1191    8    0    1
 -2       537       672       671      2858      2859      2854
 -1      1192    8    0    1
 -2       538       539       673      2454      2860      2861
 -1      1193    8    0    1
 -2       538       673       672      2861      2862      2857
 -1      1194    8    0    1
 -2       539       540       674      2457      2863      2864
 -1      1195    8    0    1
 -2       539       674       673      2864      2865      2860
 -1      1196    8    0    1
 -2       540       541       675      2460      2866      2867
 -1      1197    8    0    1
 -2       540       675       674      2867      2868      2863
 -1      1198    8    0    1
 -2       541       542       676      2463      2869      2870
 -1      1199    8    0    1
 -2       541       676       675      2870      2871      2866
 -1      1200    8    0    1
 -2       542       543       677      2466      2872      2873
 -1      1201    8    0    1
 -2       542       677       676      2873      2874      2869
 -1      1202    8    0    1
 -2       543       544       678      2469      2875      2876
 -1      1203    8    0    1
 -2       543       678       677      2876      2877      2872
 -1      1204    8    0    1
 -2       544       545       679      2472      2878      2879
 -1      1205    8    0    1
 -2       544       679       678      2879      2880      2875
 -1      1206    8    0    1
 -2       545       546       680      2475      2881      2882
 -1      1207    8    0    1
 -2       545       680       679      2882      2883      2878
 -1      1208    8    0    1
 -2       546       547       681      2478      2884      2885
 -1      1209    8    0    1
 -2       546       681       680      2885      2886      2881
 -1      1210    8    0    1
 -2       547       548       682      2481      2887      2888
 -1      1211    8    0    1
 -2       547       682       681      2888      2889      2884
 -1      1212    8    0    1
 -2       548       549       683      2484      2890      2891
 -1      1213    8    0    1
 -2       548       683       682      2891      2892      2887
 -1      1214    8    0    1
 -2       549       550       684      2487      2893      2894
 -1      1215    8    0    1
 -2       549       684       683      2894      2895      2890
 -1      1216    8    0    1
 -2       550       551       685      2490      2896      2897
 -1      1217    8    0    1
 -2       550       685       684      2897      2898      2893
 -1      1218    8    0    1
 -2       551       552       686      2493      2899      2900
 -1      1219    8    0    1
 -2       551       686       685      2900      2901      2896
 -1      1220    8    0    1
 -2       552       553       687      2496      2902      2903
 -1      1221    8    0    1
 -2       552       687       686      2903      2904      2899
 -1      1222    8    0    1
 -2       553       554       688      2499      2905      2906
 -1      1223    8    0    1
 -2       553       688       687      2906      2907      2902
 -1      1224    8    0    1
 -2       554       555       689      2502      2908      2909
 -1      1225    8    0    1
 -2       554       689       688      2909      2910      2905
 -1      1226    8    0    1
 -2       555       556       690      2505      2911      2912
 -1      1227    8    0    1
 -2       555       690       689      2912      2913      2908
 -1      1228    8    0    1
 -2       556       557       691      2508      2914      2915
 -1      1229    8    0    1
 -2       556       691       690      2915      2916      2911
 -1      1230    8    0    1
 -2       557       558       692      2511      2917      2918
 -1      1231    8    0    1
 -2       557       692       691      2918      2919      2914
 -1      1232    8    0    1
 -2       558       559       693      2514      2920      2921
 -1      1233    8    0    1
 -2       558       693       692      2921      2922      2917
 -1      1234    8    0    1
 -2       559       560       694      2517      2923      2924
 -1      1235    8    0    1
 -2       559       694       693      2924      2925      2920
 -1      1236    8    0    1
 -2       560       561       695      2520      2926      2927
 -1      1237    8    0    1
 -2       560       695       694      2927      2928      2923
 -1      1238    8    0    1
 -2       561       562       696      2523      2929      2930
 -1      1239    8    0    1
 -2       561       696       695      2930      2931      2926
 -1      1240    8    0    1
 -2       562       563       697      2526      2932      2933
 -1      1241    8    0    1
 -2       562       697       696      2933      2934      2929
 -1      1242    8    0    1
 -2       563       564       698      2529      2935      2936
 -1      1243    8    0    1
 -2       563       698       697      2936      2937      2932
 -1      1244    8    0    1
 -2       564       565       699      2532      2938      2939
 -1      1245    8    0    1
 -2       564       699       698      2939      2940      2935
 -1      1246    8    0    1
 -2       565       566       700      2535      2941      2942
 -1      1247    8    0    1
 -2       565       700       699      2942      2943      2938
 -1      1248    8    0    1
 -2       566       567       701      2538      2944      2945
 -1      1249    8    0    1
 -2       566       701       700      2945      2946      2941
 -1      1250    8    0    1
 -2       567       568       702      2541      2947      2948
 -1      1251    8    0    1
 -2       567       702       701      2948      2949      2944
 -1      1252    8    0    1
 -2       568       569       703      2544      2950      2951
 -1      1253    8    0    1
 -2       702       568       703      2947      2951      2952
 -1      1254    8    0    1
 -2       569       665       703      2839      2953      2950
 -1      1255    8    0    1
 -2       575       576       704      2565      2954      2955
 -1      1256    8    0    1
 -2       616       528       705      2699      2956      2957
 -1      1257    8    0    1
 -2       581       616       705      2696      2957      2958
 -1      1258    8    0    1
 -2       528       663       705      2833      2959      2956
 -1      1259    8    0    1
 -2       571       572       706      2553      2960      2961
 -1      1260    8    0    1
 -2       576       577       707      2568      2962      2963
 -1      1261    8    0    1
 -2       576       707       704      2963      2964      2954
 -1      1262    8    0    1
 -2       572       575       708      2562      2965      2966
 -1      1263    8    0    1
 -2       706       572       708      2960      2966      2967
 -1      1264    8    0    1
 -2       575       704       708      2955      2968      2965
 -1      1265    8    0    1
 -2       482       612       709      2665      2969      2970
 -1      1266    8    0    1
 -2       577       578       710      2571      2971      2972
 -1      1267    8    0    1
 -2       577       710       707      2972      2973      2962
 -1      1268    8    0    1
 -2       578       579       711      2574      2974      2975
 -1      1269    8    0    1
 -2       578       711       710      2975      2976      2971
 -1      1270    8    0    1
 -2       579       580       712      2577      2977      2978
 -1      1271    8    0    1
 -2       579       712       711      2978      2979      2974
 -1      1272    8    0    1
 -2       580       581       713      2580      2980      2981
 -1      1273    8    0    1
 -2       712       580       713      2977      2981      2982
 -1      1274    8    0    1
 -2       581       705       713      2958      2983      2980
 -1      1275    8    0    1
 -2       605       589       714      2637      2984      2985
 -1      1276    8    0    1
 -2       604       605       715      2677      2986      2987
 -1      1277    8    0    1
 -2       605       714       715      2985      2988      2986
 -1      1278    8    0    1
 -2       582       586       716      2675      2989      2990
 -1      1279    8    0    1
 -2       586       583       717      2676      2991      2992
 -1      1280    8    0    1
 -2       484       587       718      2595      2993      2994
 -1      1281    8    0    1
 -2       601       602       719      2681      2995      2996
 -1      1282    8    0    1
 -2       599       593       720      2623      2997      2998
 -1      1283    8    0    1
 -2       595       596       721      2684      2999      3000
 -1      1284    8    0    1
 -2       584       529       722      2587      3001      3002
 -1      1285    8    0    1
 -2       529       666       722      2841      3003      3001
 -1      1286    8    0    1
 -2       531       532       723      2433      3004      3005
 -1      1287    8    0    1
 -2       664       531       723      2835      3005      3006
 -1      1288    8    0    1
 -2       532       667       723      2844      3007      3004
 -1      1289    8    0    1
 -2       486       484       724      2296      3008      3009
 -1      1290    8    0    1
 -2       623       486       724      2714      3009      3010
 -1      1291    8    0    1
 -2       484       718       724      2994      3011      3008
 -1      1292    8    0    1
 -2       603       604       725      2679      3012      3013
 -1      1293    8    0    1
 -2       583       482       726      2664      3014      3015
 -1      1294    8    0    1
 -2       583       726       717      3015      3016      2991
 -1      1295    8    0    1
 -2       612       485       727      2668      3017      3018
 -1      1296    8    0    1
 -2       485       594       728      2687      3019      3020
 -1      1297    8    0    1
 -2       485       728       727      3020      3021      3017
 -1      1298    8    0    1
 -2       478       479       729      2278      3022      3023
 -1      1299    8    0    1
 -2       617       478       729      2700      3023      3024
 -1      1300    8    0    1
 -2       479       619       729      2706      3025      3022
 -1      1301    8    0    1
 -2       475       474       730      2267      3026      3027
 -1      1302    8    0    1
 -2       592       595       731      2691      3028      3029
 -1      1303    8    0    1
 -2       595       721       731      3000      3030      3028
 -1      1304    8    0    1
 -2       590       597       732      2685      3031      3032
 -1      1305    8    0    1
 -2       587       447       718      2686      3033      2993
 -1      1306    8    0    1
 -2       585       582       733      2674      3034      3035
 -1      1307    8    0    1
 -2       602       603       734      2692      3036      3037
 -1      1308    8    0    1
 -2       602       734       719      3037      3038      2995
 -1      1309    8    0    1
 -2       596       590       735      2683      3039      3040
 -1      1310    8    0    1
 -2       596       735       721      3040      3041      2999
 -1      1311    8    0    1
 -2       597       599       736      2682      3042      3043
 -1      1312    8    0    1
 -2       600       601       737      2628      3044      3045
 -1      1313    8    0    1
 -2       606       607       738      2693      3046      3047
 -1      1314    8    0    1
 -2       589       606       739      2680      3048      3049
 -1      1315    8    0    1
 -2       714       589       739      2984      3049      3050
 -1      1316    8    0    1
 -2       606       738       739      3047      3051      3048
 -1      1317    8    0    1
 -2       483       584       740      2678      3052      3053
 -1      1318    8    0    1
 -2       622       483       740      2712      3053      3054
 -1      1319    8    0    1
 -2       584       722       740      3002      3055      3052
 -1      1320    8    0    1
 -2       594       592       741      2660      3056      3057
 -1      1321    8    0    1
 -2       598       608       742      2644      3058      3059
 -1      1322    8    0    1
 -2       609       588       743      2647      3060      3061
 -1      1323    8    0    1
 -2       481       613       473      2669      2659      3062
 -1      1324    8    0    1
 -2       588       610       744      2667      3063      3064
 -1      1325    8    0    1
 -2       614       475       745      2661      3065      3066
 -1      1326    8    0    1
 -2       475       730       745      3027      3067      3065
 -1      1327    8    0    1
 -2       476       618       746      2703      3068      3069
 -1      1328    8    0    1
 -2       476       746       591      3069      3070      2606
 -1      1329    8    0    1
 -2       608       621       742      2711      3071      3058
 -1      1330    8    0    1
 -2       621       609       743      2710      3061      3072
 -1      1331    8    0    1
 -2       571       706       747      2961      3073      3074
 -1      1332    8    0    1
 -2       571       747       574      3074      3075      2559
 -1      1333    8    0    1
 -2       611       585       748      2653      3076      3077
 -1      1334    8    0    1
 -2       633       497       738      2743      3078      3079
 -1      1335    8    0    1
 -2       497       496       749      2329      3080      3081
 -1      1336    8    0    1
 -2       482       709       726      2970      3082      3014
 -1      1337    8    0    1
 -2       582       716       733      2990      3083      3034
 -1      1338    8    0    1
 -2       573       574       665      2558      3084      2837
 -1      1339    8    0    1
 -2       620       481       622      2707      3085      3086
 -1      1340    8    0    1
 -2       738       607       633      3046      3087      3079
 -1      1341    8    0    1
 -2       604       715       725      2987      3088      3012
 -1      1342    8    0    1
 -2       737       601       719      3044      2996      3089
 -1      1343    8    0    1
 -2       734       603       725      3036      3013      3090
 -1      1344    8    0    1
 -2       597       736       732      3043      3091      3031
 -1      1345    8    0    1
 -2       720       593       750      2997      3092      3093
 -1      1346    8    0    1
 -2       593       615       750      2689      3094      3092
 -1      1347    8    0    1
 -2       599       720       736      2998      3095      3042
 -1      1348    8    0    1
 -2       590       732       735      3032      3096      3039
 -1      1349    8    0    1
 -2       607       598       751      2673      3097      3098
 -1      1350    8    0    1
 -2       585       733       748      3035      3099      3076
 -1      1351    8    0    1
 -2       594       741       728      3057      3100      3019
 -1      1352    8    0    1
 -2       612       727       752      3018      3101      3102
 -1      1353    8    0    1
 -2       612       752       709      3102      3103      2969
 -1      1354    8    0    1
 -2       447       614       718      2663      3104      3033
 -1      1355    8    0    1
 -2       474       591       753      2605      3105      3106
 -1      1356    8    0    1
 -2       730       474       753      3026      3106      3107
 -1      1357    8    0    1
 -2       591       746       753      3070      3108      3105
 -1      1358    8    0    1
 -2       615       600       754      2690      3109      3110
 -1      1359    8    0    1
 -2       600       737       754      3045      3111      3109
 -1      1360    8    0    1
 -2       592       731       741      3029      3112      3056
 -1      1361    8    0    1
 -2       743       588       744      3060      3064      3113
 -1      1362    8    0    1
 -2       598       742       751      3059      3114      3097
 -1      1363    8    0    1
 -2       481       473       622      3062      2713      3085
 -1      1364    8    0    1
 -2       744       610       755      3063      3115      3116
 -1      1365    8    0    1
 -2       610       611       756      2652      3117      3118
 -1      1366    8    0    1
 -2       755       610       756      3115      3118      3119
 -1      1367    8    0    1
 -2       611       748       756      3077      3120      3117
 -1      1368    8    0    1
 -2       749       496       632      3080      2741      3121
 -1      1369    8    0    1
 -2       619       620       757      2709      3122      3123
 -1      1370    8    0    1
 -2       728       741       758      3100      3124      3125
 -1      1371    8    0    1
 -2       725       715       759      3088      3126      3127
 -1      1372    8    0    1
 -2       625       624       760      2721      3128      3129
 -1      1373    8    0    1
 -2       626       625       761      2724      3130      3131
 -1      1374    8    0    1
 -2       625       760       761      3129      3132      3130
 -1      1375    8    0    1
 -2       627       626       762      2727      3133      3134
 -1      1376    8    0    1
 -2       626       761       762      3131      3135      3133
 -1      1377    8    0    1
 -2       628       627       763      2730      3136      3137
 -1      1378    8    0    1
 -2       627       762       763      3134      3138      3136
 -1      1379    8    0    1
 -2       629       628       764      2733      3139      3140
 -1      1380    8    0    1
 -2       628       763       764      3137      3141      3139
 -1      1381    8    0    1
 -2       631       630       759      2739      3142      3143
 -1      1382    8    0    1
 -2       726       709       765      3082      3144      3145
 -1      1383    8    0    1
 -2       637       636       766      2756      3146      3147
 -1      1384    8    0    1
 -2       638       637       767      2759      3148      3149
 -1      1385    8    0    1
 -2       637       766       767      3147      3150      3148
 -1      1386    8    0    1
 -2       639       638       768      2762      3151      3152
 -1      1387    8    0    1
 -2       638       767       768      3149      3153      3151
 -1      1388    8    0    1
 -2       640       639       769      2765      3154      3155
 -1      1389    8    0    1
 -2       639       768       769      3152      3156      3154
 -1      1390    8    0    1
 -2       641       640       770      2768      3157      3158
 -1      1391    8    0    1
 -2       640       769       770      3155      3159      3157
 -1      1392    8    0    1
 -2       642       641       771      2771      3160      3161
 -1      1393    8    0    1
 -2       641       770       771      3158      3162      3160
 -1      1394    8    0    1
 -2       643       642       772      2774      3163      3164
 -1      1395    8    0    1
 -2       642       771       772      3161      3165      3163
 -1      1396    8    0    1
 -2       644       643       773      2777      3166      3167
 -1      1397    8    0    1
 -2       643       772       773      3164      3168      3166
 -1      1398    8    0    1
 -2       645       644       774      2780      3169      3170
 -1      1399    8    0    1
 -2       644       773       774      3167      3171      3169
 -1      1400    8    0    1
 -2       646       645       775      2783      3172      3173
 -1      1401    8    0    1
 -2       645       774       775      3170      3174      3172
 -1      1402    8    0    1
 -2       647       646       776      2786      3175      3176
 -1      1403    8    0    1
 -2       646       775       776      3173      3177      3175
 -1      1404    8    0    1
 -2       648       647       777      2789      3178      3179
 -1      1405    8    0    1
 -2       647       776       777      3176      3180      3178
 -1      1406    8    0    1
 -2       649       648       778      2792      3181      3182
 -1      1407    8    0    1
 -2       648       777       778      3179      3183      3181
 -1      1408    8    0    1
 -2       650       649       779      2795      3184      3185
 -1      1409    8    0    1
 -2       649       778       779      3182      3186      3184
 -1      1410    8    0    1
 -2       651       650       780      2798      3187      3188
 -1      1411    8    0    1
 -2       650       779       780      3185      3189      3187
 -1      1412    8    0    1
 -2       652       651       781      2801      3190      3191
 -1      1413    8    0    1
 -2       651       780       781      3188      3192      3190
 -1      1414    8    0    1
 -2       653       652       782      2804      3193      3194
 -1      1415    8    0    1
 -2       652       781       782      3191      3195      3193
 -1      1416    8    0    1
 -2       654       653       783      2807      3196      3197
 -1      1417    8    0    1
 -2       653       782       783      3194      3198      3196
 -1      1418    8    0    1
 -2       655       654       784      2810      3199      3200
 -1      1419    8    0    1
 -2       654       783       784      3197      3201      3199
 -1      1420    8    0    1
 -2       656       655       785      2813      3202      3203
 -1      1421    8    0    1
 -2       655       784       785      3200      3204      3202
 -1      1422    8    0    1
 -2       657       656       786      2816      3205      3206
 -1      1423    8    0    1
 -2       656       785       786      3203      3207      3205
 -1      1424    8    0    1
 -2       658       657       787      2819      3208      3209
 -1      1425    8    0    1
 -2       657       786       787      3206      3210      3208
 -1      1426    8    0    1
 -2       659       658       788      2822      3211      3212
 -1      1427    8    0    1
 -2       658       787       788      3209      3213      3211
 -1      1428    8    0    1
 -2       660       659       789      2825      3214      3215
 -1      1429    8    0    1
 -2       659       788       789      3212      3216      3214
 -1      1430    8    0    1
 -2       661       660       790      2828      3217      3218
 -1      1431    8    0    1
 -2       660       789       790      3215      3219      3217
 -1      1432    8    0    1
 -2       662       661       791      2831      3220      3221
 -1      1433    8    0    1
 -2       661       790       791      3218      3222      3220
 -1      1434    8    0    1
 -2       663       662       792      2834      3223      3224
 -1      1435    8    0    1
 -2       662       791       792      3221      3225      3223
 -1      1436    8    0    1
 -2       666       664       793      2842      3226      3227
 -1      1437    8    0    1
 -2       668       669       794      2850      3228      3229
 -1      1438    8    0    1
 -2       667       668       795      2847      3230      3231
 -1      1439    8    0    1
 -2       668       794       795      3229      3232      3230
 -1      1440    8    0    1
 -2       670       671       796      2856      3233      3234
 -1      1441    8    0    1
 -2       671       672       721      2859      3235      3236
 -1      1442    8    0    1
 -2       672       673       731      2862      3237      3238
 -1      1443    8    0    1
 -2       673       674       758      2865      3239      3240
 -1      1444    8    0    1
 -2       674       675       797      2868      3241      3242
 -1      1445    8    0    1
 -2       675       676       752      2871      3243      3244
 -1      1446    8    0    1
 -2       677       678       798      2877      3245      3246
 -1      1447    8    0    1
 -2       678       679       799      2880      3247      3248
 -1      1448    8    0    1
 -2       678       799       798      3248      3249      3245
 -1      1449    8    0    1
 -2       679       680       800      2883      3250      3251
 -1      1450    8    0    1
 -2       679       800       799      3251      3252      3247
 -1      1451    8    0    1
 -2       680       681       801      2886      3253      3254
 -1      1452    8    0    1
 -2       680       801       800      3254      3255      3250
 -1      1453    8    0    1
 -2       681       682       802      2889      3256      3257
 -1      1454    8    0    1
 -2       681       802       801      3257      3258      3253
 -1      1455    8    0    1
 -2       682       683       803      2892      3259      3260
 -1      1456    8    0    1
 -2       682       803       802      3260      3261      3256
 -1      1457    8    0    1
 -2       683       684       804      2895      3262      3263
 -1      1458    8    0    1
 -2       683       804       803      3263      3264      3259
 -1      1459    8    0    1
 -2       684       685       805      2898      3265      3266
 -1      1460    8    0    1
 -2       684       805       804      3266      3267      3262
 -1      1461    8    0    1
 -2       685       686       806      2901      3268      3269
 -1      1462    8    0    1
 -2       685       806       805      3269      3270      3265
 -1      1463    8    0    1
 -2       686       687       807      2904      3271      3272
 -1      1464    8    0    1
 -2       686       807       806      3272      3273      3268
 -1      1465    8    0    1
 -2       687       688       808      2907      3274      3275
 -1      1466    8    0    1
 -2       687       808       807      3275      3276      3271
 -1      1467    8    0    1
 -2       688       689       809      2910      3277      3278
 -1      1468    8    0    1
 -2       688       809       808      3278      3279      3274
 -1      1469    8    0    1
 -2       689       690       810      2913      3280      3281
 -1      1470    8    0    1
 -2       689       810       809      3281      3282      3277
 -1      1471    8    0    1
 -2       690       691       811      2916      3283      3284
 -1      1472    8    0    1
 -2       690       811       810      3284      3285      3280
 -1      1473    8    0    1
 -2       691       692       812      2919      3286      3287
 -1      1474    8    0    1
 -2       691       812       811      3287      3288      3283
 -1      1475    8    0    1
 -2       692       693       813      2922      3289      3290
 -1      1476    8    0    1
 -2       692       813       812      3290      3291      3286
 -1      1477    8    0    1
 -2       693       694       814      2925      3292      3293
 -1      1478    8    0    1
 -2       693       814       813      3293      3294      3289
 -1      1479    8    0    1
 -2       694       695       815      2928      3295      3296
 -1      1480    8    0    1
 -2       694       815       814      3296      3297      3292
 -1      1481    8    0    1
 -2       695       696       816      2931      3298      3299
 -1      1482    8    0    1
 -2       695       816       815      3299      3300      3295
 -1      1483    8    0    1
 -2       696       697       817      2934      3301      3302
 -1      1484    8    0    1
 -2       696       817       816      3302      3303      3298
 -1      1485    8    0    1
 -2       697       698       818      2937      3304      3305
 -1      1486    8    0    1
 -2       697       818       817      3305      3306      3301
 -1      1487    8    0    1
 -2       698       699       819      2940      3307      3308
 -1      1488    8    0    1
 -2       698       819       818      3308      3309      3304
 -1      1489    8    0    1
 -2       699       700       820      2943      3310      3311
 -1      1490    8    0    1
 -2       699       820       819      3311      3312      3307
 -1      1491    8    0    1
 -2       700       701       821      2946      3313      3314
 -1      1492    8    0    1
 -2       700       821       820      3314      3315      3310
 -1      1493    8    0    1
 -2       701       702       822      2949      3316      3317
 -1      1494    8    0    1
 -2       701       822       821      3317      3318      3313
 -1      1495    8    0    1
 -2       705       663       713      2959      3319      2983
 -1      1496    8    0    1
 -2       618       617       823      2704      3320      3321
 -1      1497    8    0    1
 -2       710       711       824      2976      3322      3323
 -1      1498    8    0    1
 -2       704       707       825      2964      3324      3325
 -1      1499    8    0    1
 -2       744       755       826      3116      3326      3327
 -1      1500    8    0    1
 -2       711       712       827      2979      3328      3329
 -1      1501    8    0    1
 -2       711       827       824      3329      3330      3322
 -1      1502    8    0    1
 -2       707       710       828      2973      3331      3332
 -1      1503    8    0    1
 -2       825       707       828      3324      3332      3333
 -1      1504    8    0    1
 -2       710       824       828      3323      3334      3331
 -1      1505    8    0    1
 -2       716       586       829      2989      3335      3336
 -1      1506    8    0    1
 -2       722       666       830      3003      3337      3338
 -1      1507    8    0    1
 -2       666       793       830      3227      3339      3337
 -1      1508    8    0    1
 -2       586       717       829      2992      3340      3335
 -1      1509    8    0    1
 -2       732       736       831      3091      3341      3342
 -1      1510    8    0    1
 -2       734       725       832      3090      3343      3344
 -1      1511    8    0    1
 -2       748       733       833      3099      3345      3346
 -1      1512    8    0    1
 -2       721       735       796      3041      3347      3348
 -1      1513    8    0    1
 -2       721       672       731      3235      3238      3030
 -1      1514    8    0    1
 -2       669       670       834      2853      3349      3350
 -1      1515    8    0    1
 -2       669       834       794      3350      3351      3228
 -1      1516    8    0    1
 -2       620       622       835      3086      3352      3353
 -1      1517    8    0    1
 -2       757       620       835      3122      3353      3354
 -1      1518    8    0    1
 -2       622       740       835      3054      3355      3352
 -1      1519    8    0    1
 -2       733       716       836      3083      3356      3357
 -1      1520    8    0    1
 -2       717       726       837      3016      3358      3359
 -1      1521    8    0    1
 -2       726       765       837      3145      3360      3358
 -1      1522    8    0    1
 -2       727       728       797      3021      3361      3362
 -1      1523    8    0    1
 -2       736       720       838      3095      3363      3364
 -1      1524    8    0    1
 -2       624       623       839      2718      3365      3366
 -1      1525    8    0    1
 -2       624       839       760      3366      3367      3128
 -1      1526    8    0    1
 -2       665       574       747      3084      3075      3368
 -1      1527    8    0    1
 -2       719       734       840      3038      3369      3370
 -1      1528    8    0    1
 -2       734       832       840      3344      3371      3369
 -1      1529    8    0    1
 -2       735       732       834      3096      3372      3373
 -1      1530    8    0    1
 -2       737       719       841      3089      3374      3375
 -1      1531    8    0    1
 -2       621       743       842      3072      3376      3377
 -1      1532    8    0    1
 -2       718       614       745      3104      3066      3378
 -1      1533    8    0    1
 -2       743       744       843      3113      3379      3380
 -1      1534    8    0    1
 -2       842       743       843      3376      3380      3381
 -1      1535    8    0    1
 -2       744       826       843      3327      3382      3379
 -1      1536    8    0    1
 -2       671       721       796      3236      3348      3233
 -1      1537    8    0    1
 -2       716       829       844      3336      3383      3384
 -1      1538    8    0    1
 -2       716       844       836      3384      3385      3356
 -1      1539    8    0    1
 -2       746       618       845      3068      3386      3387
 -1      1540    8    0    1
 -2       618       823       845      3321      3388      3386
 -1      1541    8    0    1
 -2       738       497       749      3078      3081      3389
 -1      1542    8    0    1
 -2       728       758       797      3125      3390      3361
 -1      1543    8    0    1
 -2       747       706       846      3073      3391      3392
 -1      1544    8    0    1
 -2       725       759       832      3127      3393      3343
 -1      1545    8    0    1
 -2       615       754       847      3110      3394      3395
 -1      1546    8    0    1
 -2       615       847       750      3395      3396      3094
 -1      1547    8    0    1
 -2       619       757       848      3123      3397      3398
 -1      1548    8    0    1
 -2       619       848       729      3398      3399      3025
 -1      1549    8    0    1
 -2       631       759       715      3143      3126      3400
 -1      1550    8    0    1
 -2       759       630       849      3142      3401      3402
 -1      1551    8    0    1
 -2       832       759       849      3393      3402      3403
 -1      1552    8    0    1
 -2       630       629       849      2736      3404      3401
 -1      1553    8    0    1
 -2       632       631       714      2742      3405      3406
 -1      1554    8    0    1
 -2       663       792       713      3224      3407      3319
 -1      1555    8    0    1
 -2       623       724       850      3010      3408      3409
 -1      1556    8    0    1
 -2       623       850       839      3409      3410      3365
 -1      1557    8    0    1
 -2       635       634       742      2750      3411      3412
 -1      1558    8    0    1
 -2       636       635       842      2753      3413      3414
 -1      1559    8    0    1
 -2       829       717       851      3340      3415      3416
 -1      1560    8    0    1
 -2       793       664       852      3226      3417      3418
 -1      1561    8    0    1
 -2       664       723       852      3006      3419      3417
 -1      1562    8    0    1
 -2       724       718       745      3011      3378      3420
 -1      1563    8    0    1
 -2       826       755       853      3326      3421      3422
 -1      1564    8    0    1
 -2       670       796       834      3234      3423      3349
 -1      1565    8    0    1
 -2       667       795       854      3231      3424      3425
 -1      1566    8    0    1
 -2       667       854       723      3425      3426      3007
 -1      1567    8    0    1
 -2       674       797       758      3242      3390      3239
 -1      1568    8    0    1
 -2       676       677       855      2874      3427      3428
 -1      1569    8    0    1
 -2       822       702       856      3316      3429      3430
 -1      1570    8    0    1
 -2       702       703       856      2952      3431      3429
 -1      1571    8    0    1
 -2       706       708       857      2967      3432      3433
 -1      1572    8    0    1
 -2       706       857       846      3433      3434      3391
 -1      1573    8    0    1
 -2       823       617       858      3320      3435      3436
 -1      1574    8    0    1
 -2       617       729       858      3024      3437      3435
 -1      1575    8    0    1
 -2       796       735       834      3347      3373      3423
 -1      1576    8    0    1
 -2       708       704       859      2968      3438      3439
 -1      1577    8    0    1
 -2       857       708       859      3432      3439      3440
 -1      1578    8    0    1
 -2       704       825       859      3325      3441      3438
 -1      1579    8    0    1
 -2       833       733       860      3345      3442      3443
 -1      1580    8    0    1
 -2       733       836       860      3357      3444      3442
 -1      1581    8    0    1
 -2       712       713       792      2982      3407      3445
 -1      1582    8    0    1
 -2       740       722       861      3055      3446      3447
 -1      1583    8    0    1
 -2       835       740       861      3355      3447      3448
 -1      1584    8    0    1
 -2       722       830       861      3338      3449      3446
 -1      1585    8    0    1
 -2       635       742       621      3412      3071      3450
 -1      1586    8    0    1
 -2       631       715       714      3400      2988      3405
 -1      1587    8    0    1
 -2       632       714       739      3406      3050      3451
 -1      1588    8    0    1
 -2       635       621       842      3450      3377      3413
 -1      1589    8    0    1
 -2       851       717       837      3415      3359      3452
 -1      1590    8    0    1
 -2       849       629       764      3404      3140      3453
 -1      1591    8    0    1
 -2       855       677       798      3427      3246      3454
 -1      1592    8    0    1
 -2       742       634       751      3411      3455      3114
 -1      1593    8    0    1
 -2       829       851       844      3416      3456      3383
 -1      1594    8    0    1
 -2       853       755       862      3421      3457      3458
 -1      1595    8    0    1
 -2       755       756       862      3119      3459      3457
 -1      1596    8    0    1
 -2       738       749       739      3389      3460      3051
 -1      1597    8    0    1
 -2       745       730       863      3067      3461      3462
 -1      1598    8    0    1
 -2       633       607       751      3087      3098      3463
 -1      1599    8    0    1
 -2       752       676       855      3243      3428      3464
 -1      1600    8    0    1
 -2       831       736       838      3341      3364      3465
 -1      1601    8    0    1
 -2       731       673       741      3237      3466      3112
 -1      1602    8    0    1
 -2       665       747       864      3368      3467      3468
 -1      1603    8    0    1
 -2       703       665       864      2953      3468      3469
 -1      1604    8    0    1
 -2       747       846       864      3392      3470      3467
 -1      1605    8    0    1
 -2       838       720       865      3363      3471      3472
 -1      1606    8    0    1
 -2       720       750       865      3093      3473      3471
 -1      1607    8    0    1
 -2       749       632       739      3121      3451      3460
 -1      1608    8    0    1
 -2       709       752       866      3103      3474      3475
 -1      1609    8    0    1
 -2       765       709       866      3144      3475      3476
 -1      1610    8    0    1
 -2       752       855       866      3464      3477      3474
 -1      1611    8    0    1
 -2       863       730       867      3461      3478      3479
 -1      1612    8    0    1
 -2       730       753       867      3107      3480      3478
 -1      1613    8    0    1
 -2       741       673       758      3466      3240      3124
 -1      1614    8    0    1
 -2       841       719       840      3374      3370      3481
 -1      1615    8    0    1
 -2       834       732       868      3372      3482      3483
 -1      1616    8    0    1
 -2       794       834       868      3351      3483      3484
 -1      1617    8    0    1
 -2       732       831       868      3342      3485      3482
 -1      1618    8    0    1
 -2       737       841       869      3375      3486      3487
 -1      1619    8    0    1
 -2       737       869       754      3487      3488      3111
 -1      1620    8    0    1
 -2       712       792       827      3445      3489      3328
 -1      1621    8    0    1
 -2       756       748       870      3120      3490      3491
 -1      1622    8    0    1
 -2       862       756       870      3459      3491      3492
 -1      1623    8    0    1
 -2       748       833       870      3346      3493      3490
 -1      1624    8    0    1
 -2       841       840       871      3481      3494      3495
 -1      1625    8    0    1
 -2       855       798       866      3454      3496      3477
 -1      1626    8    0    1
 -2       762       761       872      3135      3497      3498
 -1      1627    8    0    1
 -2       763       762       873      3138      3499      3500
 -1      1628    8    0    1
 -2       762       872       873      3498      3501      3499
 -1      1629    8    0    1
 -2       764       763       874      3141      3502      3503
 -1      1630    8    0    1
 -2       763       873       874      3500      3504      3502
 -1      1631    8    0    1
 -2       851       837       875      3452      3505      3506
 -1      1632    8    0    1
 -2       636       842       766      3414      3507      3146
 -1      1633    8    0    1
 -2       768       767       876      3153      3508      3509
 -1      1634    8    0    1
 -2       769       768       877      3156      3510      3511
 -1      1635    8    0    1
 -2       768       876       877      3509      3512      3510
 -1      1636    8    0    1
 -2       770       769       878      3159      3513      3514
 -1      1637    8    0    1
 -2       769       877       878      3511      3515      3513
 -1      1638    8    0    1
 -2       771       770       879      3162      3516      3517
 -1      1639    8    0    1
 -2       770       878       879      3514      3518      3516
 -1      1640    8    0    1
 -2       772       771       880      3165      3519      3520
 -1      1641    8    0    1
 -2       771       879       880      3517      3521      3519
 -1      1642    8    0    1
 -2       773       772       881      3168      3522      3523
 -1      1643    8    0    1
 -2       772       880       881      3520      3524      3522
 -1      1644    8    0    1
 -2       774       773       882      3171      3525      3526
 -1      1645    8    0    1
 -2       773       881       882      3523      3527      3525
 -1      1646    8    0    1
 -2       775       774       883      3174      3528      3529
 -1      1647    8    0    1
 -2       774       882       883      3526      3530      3528
 -1      1648    8    0    1
 -2       776       775       884      3177      3531      3532
 -1      1649    8    0    1
 -2       775       883       884      3529      3533      3531
 -1      1650    8    0    1
 -2       777       776       885      3180      3534      3535
 -1      1651    8    0    1
 -2       776       884       885      3532      3536      3534
 -1      1652    8    0    1
 -2       778       777       886      3183      3537      3538
 -1      1653    8    0    1
 -2       777       885       886      3535      3539      3537
 -1      1654    8    0    1
 -2       779       778       887      3186      3540      3541
 -1      1655    8    0    1
 -2       778       886       887      3538      3542      3540
 -1      1656    8    0    1
 -2       780       779       888      3189      3543      3544
 -1      1657    8    0    1
 -2       779       887       888      3541      3545      3543
 -1      1658    8    0    1
 -2       781       780       889      3192      3546      3547
 -1      1659    8    0    1
 -2       780       888       889      3544      3548      3546
 -1      1660    8    0    1
 -2       782       781       890      3195      3549      3550
 -1      1661    8    0    1
 -2       781       889       890      3547      3551      3549
 -1      1662    8    0    1
 -2       783       782       891      3198      3552      3553
 -1      1663    8    0    1
 -2       782       890       891      3550      3554      3552
 -1      1664    8    0    1
 -2       784       783       892      3201      3555      3556
 -1      1665    8    0    1
 -2       783       891       892      3553      3557      3555
 -1      1666    8    0    1
 -2       785       784       893      3204      3558      3559
 -1      1667    8    0    1
 -2       784       892       893      3556      3560      3558
 -1      1668    8    0    1
 -2       786       785       894      3207      3561      3562
 -1      1669    8    0    1
 -2       785       893       894      3559      3563      3561
 -1      1670    8    0    1
 -2       787       786       895      3210      3564      3565
 -1      1671    8    0    1
 -2       786       894       895      3562      3566      3564
 -1      1672    8    0    1
 -2       788       787       896      3213      3567      3568
 -1      1673    8    0    1
 -2       787       895       896      3565      3569      3567
 -1      1674    8    0    1
 -2       789       788       897      3216      3570      3571
 -1      1675    8    0    1
 -2       788       896       897      3568      3572      3570
 -1      1676    8    0    1
 -2       790       789       898      3219      3573      3574
 -1      1677    8    0    1
 -2       789       897       898      3571      3575      3573
 -1      1678    8    0    1
 -2       791       790       899      3222      3576      3577
 -1      1679    8    0    1
 -2       790       898       899      3574      3578      3576
 -1      1680    8    0    1
 -2       792       791       900      3225      3579      3580
 -1      1681    8    0    1
 -2       827       792       900      3489      3580      3581
 -1      1682    8    0    1
 -2       791       899       900      3577      3582      3579
 -1      1683    8    0    1
 -2       836       844       901      3385      3583      3584
 -1      1684    8    0    1
 -2       675       752       797      3244      3585      3241
 -1      1685    8    0    1
 -2       751       634       633      3455      2747      3463
 -1      1686    8    0    1
 -2       798       799       902      3249      3586      3587
 -1      1687    8    0    1
 -2       801       802       903      3258      3588      3589
 -1      1688    8    0    1
 -2       802       803       904      3261      3590      3591
 -1      1689    8    0    1
 -2       802       904       903      3591      3592      3588
 -1      1690    8    0    1
 -2       803       804       905      3264      3593      3594
 -1      1691    8    0    1
 -2       803       905       904      3594      3595      3590
 -1      1692    8    0    1
 -2       804       805       906      3267      3596      3597
 -1      1693    8    0    1
 -2       804       906       905      3597      3598      3593
 -1      1694    8    0    1
 -2       805       806       907      3270      3599      3600
 -1      1695    8    0    1
 -2       805       907       906      3600      3601      3596
 -1      1696    8    0    1
 -2       806       807       908      3273      3602      3603
 -1      1697    8    0    1
 -2       806       908       907      3603      3604      3599
 -1      1698    8    0    1
 -2       807       808       909      3276      3605      3606
 -1      1699    8    0    1
 -2       807       909       908      3606      3607      3602
 -1      1700    8    0    1
 -2       808       809       910      3279      3608      3609
 -1      1701    8    0    1
 -2       808       910       909      3609      3610      3605
 -1      1702    8    0    1
 -2       809       810       911      3282      3611      3612
 -1      1703    8    0    1
 -2       809       911       910      3612      3613      3608
 -1      1704    8    0    1
 -2       810       811       912      3285      3614      3615
 -1      1705    8    0    1
 -2       810       912       911      3615      3616      3611
 -1      1706    8    0    1
 -2       811       812       913      3288      3617      3618
 -1      1707    8    0    1
 -2       811       913       912      3618      3619      3614
 -1      1708    8    0    1
 -2       812       813       914      3291      3620      3621
 -1      1709    8    0    1
 -2       812       914       913      3621      3622      3617
 -1      1710    8    0    1
 -2       813       814       915      3294      3623      3624
 -1      1711    8    0    1
 -2       813       915       914      3624      3625      3620
 -1      1712    8    0    1
 -2       814       815       916      3297      3626      3627
 -1      1713    8    0    1
 -2       814       916       915      3627      3628      3623
 -1      1714    8    0    1
 -2       815       816       917      3300      3629      3630
 -1      1715    8    0    1
 -2       815       917       916      3630      3631      3626
 -1      1716    8    0    1
 -2       816       817       918      3303      3632      3633
 -1      1717    8    0    1
 -2       816       918       917      3633      3634      3629
 -1      1718    8    0    1
 -2       817       818       919      3306      3635      3636
 -1      1719    8    0    1
 -2       817       919       918      3636      3637      3632
 -1      1720    8    0    1
 -2       818       819       920      3309      3638      3639
 -1      1721    8    0    1
 -2       818       920       919      3639      3640      3635
 -1      1722    8    0    1
 -2       819       820       921      3312      3641      3642
 -1      1723    8    0    1
 -2       819       921       920      3642      3643      3638
 -1      1724    8    0    1
 -2       820       821       922      3315      3644      3645
 -1      1725    8    0    1
 -2       820       922       921      3645      3646      3641
 -1      1726    8    0    1
 -2       821       822       923      3318      3647      3648
 -1      1727    8    0    1
 -2       821       923       922      3648      3649      3644
 -1      1728    8    0    1
 -2       724       745       850      3420      3650      3408
 -1      1729    8    0    1
 -2       824       827       924      3330      3651      3652
 -1      1730    8    0    1
 -2       827       900       924      3581      3653      3651
 -1      1731    8    0    1
 -2       830       793       925      3339      3654      3655
 -1      1732    8    0    1
 -2       745       863       850      3462      3656      3650
 -1      1733    8    0    1
 -2       800       801       926      3255      3657      3658
 -1      1734    8    0    1
 -2       801       903       926      3589      3659      3657
 -1      1735    8    0    1
 -2       799       800       927      3252      3660      3661
 -1      1736    8    0    1
 -2       902       799       927      3586      3661      3662
 -1      1737    8    0    1
 -2       800       926       927      3658      3663      3660
 -1      1738    8    0    1
 -2       831       838       928      3465      3664      3665
 -1      1739    8    0    1
 -2       795       794       929      3232      3666      3667
 -1      1740    8    0    1
 -2       794       868       929      3484      3668      3666
 -1      1741    8    0    1
 -2       753       746       930      3108      3669      3670
 -1      1742    8    0    1
 -2       753       930       867      3670      3671      3480
 -1      1743    8    0    1
 -2       837       765       902      3360      3672      3673
 -1      1744    8    0    1
 -2       849       764       931      3453      3674      3675
 -1      1745    8    0    1
 -2       832       849       931      3403      3675      3676
 -1      1746    8    0    1
 -2       764       874       931      3503      3677      3674
 -1      1747    8    0    1
 -2       760       839       932      3367      3678      3679
 -1      1748    8    0    1
 -2       840       832       931      3371      3676      3680
 -1      1749    8    0    1
 -2       826       853       876      3422      3681      3682
 -1      1750    8    0    1
 -2       761       760       933      3132      3683      3684
 -1      1751    8    0    1
 -2       761       933       872      3684      3685      3497
 -1      1752    8    0    1
 -2       844       851       934      3456      3686      3687
 -1      1753    8    0    1
 -2       851       875       934      3506      3688      3686
 -1      1754    8    0    1
 -2       746       845       930      3387      3689      3669
 -1      1755    8    0    1
 -2       852       723       854      3419      3426      3690
 -1      1756    8    0    1
 -2       823       858       935      3436      3691      3692
 -1      1757    8    0    1
 -2       760       932       933      3679      3693      3683
 -1      1758    8    0    1
 -2       847       754       936      3394      3694      3695
 -1      1759    8    0    1
 -2       754       869       936      3488      3696      3694
 -1      1760    8    0    1
 -2       848       757       937      3397      3697      3698
 -1      1761    8    0    1
 -2       844       934       901      3687      3699      3583
 -1      1762    8    0    1
 -2       875       837       902      3505      3673      3700
 -1      1763    8    0    1
 -2       727       797       752      3362      3585      3101
 -1      1764    8    0    1
 -2       824       924       938      3652      3701      3702
 -1      1765    8    0    1
 -2       824       938       828      3702      3703      3334
 -1      1766    8    0    1
 -2       876       767       826      3508      3704      3682
 -1      1767    8    0    1
 -2       871       840       931      3494      3680      3705
 -1      1768    8    0    1
 -2       793       852       939      3418      3706      3707
 -1      1769    8    0    1
 -2       793       939       925      3707      3708      3654
 -1      1770    8    0    1
 -2       836       901       860      3584      3709      3444
 -1      1771    8    0    1
 -2       854       795       940      3424      3710      3711
 -1      1772    8    0    1
 -2       795       929       940      3667      3712      3710
 -1      1773    8    0    1
 -2       823       935       941      3692      3713      3714
 -1      1774    8    0    1
 -2       823       941       845      3714      3715      3388
 -1      1775    8    0    1
 -2       856       703       864      3431      3469      3716
 -1      1776    8    0    1
 -2       822       856       942      3430      3717      3718
 -1      1777    8    0    1
 -2       822       942       923      3718      3719      3647
 -1      1778    8    0    1
 -2       831       928       868      3665      3720      3485
 -1      1779    8    0    1
 -2       839       850       943      3410      3721      3722
 -1      1780    8    0    1
 -2       932       839       943      3678      3722      3723
 -1      1781    8    0    1
 -2       850       863       943      3656      3724      3721
 -1      1782    8    0    1
 -2       825       828       944      3333      3725      3726
 -1      1783    8    0    1
 -2       828       938       944      3703      3727      3725
 -1      1784    8    0    1
 -2       846       857       945      3434      3728      3729
 -1      1785    8    0    1
 -2       858       729       848      3437      3399      3730
 -1      1786    8    0    1
 -2       865       750       946      3473      3731      3732
 -1      1787    8    0    1
 -2       750       847       946      3396      3733      3731
 -1      1788    8    0    1
 -2       833       860       947      3443      3734      3735
 -1      1789    8    0    1
 -2       943       863       948      3724      3736      3737
 -1      1790    8    0    1
 -2       863       867       948      3479      3738      3736
 -1      1791    8    0    1
 -2       826       767       843      3704      3739      3382
 -1      1792    8    0    1
 -2       825       944       949      3726      3740      3741
 -1      1793    8    0    1
 -2       825       949       859      3741      3742      3441
 -1      1794    8    0    1
 -2       861       830       950      3449      3743      3744
 -1      1795    8    0    1
 -2       830       925       950      3655      3745      3743
 -1      1796    8    0    1
 -2       833       947       870      3735      3746      3493
 -1      1797    8    0    1
 -2       841       871       951      3495      3747      3748
 -1      1798    8    0    1
 -2       841       951       869      3748      3749      3486
 -1      1799    8    0    1
 -2       853       862       952      3458      3750      3751
 -1      1800    8    0    1
 -2       846       945       942      3729      3752      3753
 -1      1801    8    0    1
 -2       838       865       953      3472      3754      3755
 -1      1802    8    0    1
 -2       838       953       928      3755      3756      3664
 -1      1803    8    0    1
 -2       876       853       954      3681      3757      3758
 -1      1804    8    0    1
 -2       877       876       954      3512      3758      3759
 -1      1805    8    0    1
 -2       853       952       954      3751      3760      3757
 -1      1806    8    0    1
 -2       933       932       955      3693      3761      3762
 -1      1807    8    0    1
 -2       866       798       902      3496      3587      3763
 -1      1808    8    0    1
 -2       937       757       861      3697      3764      3765
 -1      1809    8    0    1
 -2       901       934       956      3699      3766      3767
 -1      1810    8    0    1
 -2       930       845       957      3689      3768      3769
 -1      1811    8    0    1
 -2       845       941       957      3715      3770      3768
 -1      1812    8    0    1
 -2       874       873       958      3504      3771      3772
 -1      1813    8    0    1
 -2       766       842       843      3507      3381      3773
 -1      1814    8    0    1
 -2       878       877       959      3515      3774      3775
 -1      1815    8    0    1
 -2       877       954       959      3759      3776      3774
 -1      1816    8    0    1
 -2       879       878       960      3518      3777      3778
 -1      1817    8    0    1
 -2       878       959       960      3775      3779      3777
 -1      1818    8    0    1
 -2       880       879       961      3521      3780      3781
 -1      1819    8    0    1
 -2       879       960       961      3778      3782      3780
 -1      1820    8    0    1
 -2       881       880       962      3524      3783      3784
 -1      1821    8    0    1
 -2       880       961       962      3781      3785      3783
 -1      1822    8    0    1
 -2       882       881       963      3527      3786      3787
 -1      1823    8    0    1
 -2       881       962       963      3784      3788      3786
 -1      1824    8    0    1
 -2       883       882       964      3530      3789      3790
 -1      1825    8    0    1
 -2       882       963       964      3787      3791      3789
 -1      1826    8    0    1
 -2       884       883       965      3533      3792      3793
 -1      1827    8    0    1
 -2       883       964       965      3790      3794      3792
 -1      1828    8    0    1
 -2       885       884       966      3536      3795      3796
 -1      1829    8    0    1
 -2       884       965       966      3793      3797      3795
 -1      1830    8    0    1
 -2       886       885       967      3539      3798      3799
 -1      1831    8    0    1
 -2       885       966       967      3796      3800      3798
 -1      1832    8    0    1
 -2       887       886       968      3542      3801      3802
 -1      1833    8    0    1
 -2       886       967       968      3799      3803      3801
 -1      1834    8    0    1
 -2       888       887       969      3545      3804      3805
 -1      1835    8    0    1
 -2       887       968       969      3802      3806      3804
 -1      1836    8    0    1
 -2       889       888       970      3548      3807      3808
 -1      1837    8    0    1
 -2       888       969       970      3805      3809      3807
 -1      1838    8    0    1
 -2       890       889       971      3551      3810      3811
 -1      1839    8    0    1
 -2       889       970       971      3808      3812      3810
 -1      1840    8    0    1
 -2       891       890       972      3554      3813      3814
 -1      1841    8    0    1
 -2       890       971       972      3811      3815      3813
 -1      1842    8    0    1
 -2       892       891       973      3557      3816      3817
 -1      1843    8    0    1
 -2       891       972       973      3814      3818      3816
 -1      1844    8    0    1
 -2       893       892       974      3560      3819      3820
 -1      1845    8    0    1
 -2       892       973       974      3817      3821      3819
 -1      1846    8    0    1
 -2       894       893       975      3563      3822      3823
 -1      1847    8    0    1
 -2       893       974       975      3820      3824      3822
 -1      1848    8    0    1
 -2       895       894       976      3566      3825      3826
 -1      1849    8    0    1
 -2       894       975       976      3823      3827      3825
 -1      1850    8    0    1
 -2       896       895       977      3569      3828      3829
 -1      1851    8    0    1
 -2       895       976       977      3826      3830      3828
 -1      1852    8    0    1
 -2       897       896       978      3572      3831      3832
 -1      1853    8    0    1
 -2       896       977       978      3829      3833      3831
 -1      1854    8    0    1
 -2       898       897       979      3575      3834      3835
 -1      1855    8    0    1
 -2       897       978       979      3832      3836      3834
 -1      1856    8    0    1
 -2       899       898       980      3578      3837      3838
 -1      1857    8    0    1
 -2       898       979       980      3835      3839      3837
 -1      1858    8    0    1
 -2       900       899       924      3582      3840      3653
 -1      1859    8    0    1
 -2       857       859       981      3440      3841      3842
 -1      1860    8    0    1
 -2       945       857       981      3728      3842      3843
 -1      1861    8    0    1
 -2       859       949       981      3742      3844      3841
 -1      1862    8    0    1
 -2       904       905       982      3595      3845      3846
 -1      1863    8    0    1
 -2       903       904       983      3592      3847      3848
 -1      1864    8    0    1
 -2       904       982       983      3846      3849      3847
 -1      1865    8    0    1
 -2       906       907       984      3601      3850      3851
 -1      1866    8    0    1
 -2       907       908       985      3604      3852      3853
 -1      1867    8    0    1
 -2       907       985       984      3853      3854      3850
 -1      1868    8    0    1
 -2       908       909       986      3607      3855      3856
 -1      1869    8    0    1
 -2       908       986       985      3856      3857      3852
 -1      1870    8    0    1
 -2       909       910       987      3610      3858      3859
 -1      1871    8    0    1
 -2       909       987       986      3859      3860      3855
 -1      1872    8    0    1
 -2       910       911       988      3613      3861      3862
 -1      1873    8    0    1
 -2       910       988       987      3862      3863      3858
 -1      1874    8    0    1
 -2       911       912       989      3616      3864      3865
 -1      1875    8    0    1
 -2       911       989       988      3865      3866      3861
 -1      1876    8    0    1
 -2       912       913       990      3619      3867      3868
 -1      1877    8    0    1
 -2       912       990       989      3868      3869      3864
 -1      1878    8    0    1
 -2       913       914       991      3622      3870      3871
 -1      1879    8    0    1
 -2       913       991       990      3871      3872      3867
 -1      1880    8    0    1
 -2       914       915       992      3625      3873      3874
 -1      1881    8    0    1
 -2       914       992       991      3874      3875      3870
 -1      1882    8    0    1
 -2       915       916       993      3628      3876      3877
 -1      1883    8    0    1
 -2       915       993       992      3877      3878      3873
 -1      1884    8    0    1
 -2       916       917       994      3631      3879      3880
 -1      1885    8    0    1
 -2       916       994       993      3880      3881      3876
 -1      1886    8    0    1
 -2       917       918       995      3634      3882      3883
 -1      1887    8    0    1
 -2       917       995       994      3883      3884      3879
 -1      1888    8    0    1
 -2       918       919       996      3637      3885      3886
 -1      1889    8    0    1
 -2       918       996       995      3886      3887      3882
 -1      1890    8    0    1
 -2       919       920       997      3640      3888      3889
 -1      1891    8    0    1
 -2       919       997       996      3889      3890      3885
 -1      1892    8    0    1
 -2       920       921       998      3643      3891      3892
 -1      1893    8    0    1
 -2       920       998       997      3892      3893      3888
 -1      1894    8    0    1
 -2       921       922       999      3646      3894      3895
 -1      1895    8    0    1
 -2       921       999       998      3895      3896      3891
 -1      1896    8    0    1
 -2       922       923      1000      3649      3897      3898
 -1      1897    8    0    1
 -2       922      1000       999      3898      3899      3894
 -1      1898    8    0    1
 -2       868       928       929      3720      3900      3668
 -1      1899    8    0    1
 -2       931       874       871      3677      3901      3705
 -1      1900    8    0    1
 -2       858       848      1001      3730      3902      3903
 -1      1901    8    0    1
 -2       935       858      1001      3691      3903      3904
 -1      1902    8    0    1
 -2       848       937      1001      3698      3905      3902
 -1      1903    8    0    1
 -2       947       860      1002      3734      3906      3907
 -1      1904    8    0    1
 -2       860       901      1003      3709      3908      3909
 -1      1905    8    0    1
 -2       860      1003      1002      3909      3910      3906
 -1      1906    8    0    1
 -2       862       870      1004      3492      3911      3912
 -1      1907    8    0    1
 -2       870       947      1004      3746      3913      3911
 -1      1908    8    0    1
 -2       937       861       950      3765      3744      3914
 -1      1909    8    0    1
 -2       926       903      1005      3659      3915      3916
 -1      1910    8    0    1
 -2       903       983      1005      3848      3917      3915
 -1      1911    8    0    1
 -2       871       874       958      3901      3772      3918
 -1      1912    8    0    1
 -2       905       906      1006      3598      3919      3920
 -1      1913    8    0    1
 -2       906       984      1006      3851      3921      3919
 -1      1914    8    0    1
 -2       952       862      1004      3750      3912      3922
 -1      1915    8    0    1
 -2       864       846       942      3470      3753      3923
 -1      1916    8    0    1
 -2       852       854      1007      3690      3924      3925
 -1      1917    8    0    1
 -2       939       852      1007      3706      3925      3926
 -1      1918    8    0    1
 -2       854       940      1007      3711      3927      3924
 -1      1919    8    0    1
 -2       902       765       866      3672      3476      3763
 -1      1920    8    0    1
 -2       757       835       861      3354      3448      3764
 -1      1921    8    0    1
 -2       767       766       843      3150      3773      3739
 -1      1922    8    0    1
 -2       932       943      1008      3723      3928      3929
 -1      1923    8    0    1
 -2       955       932      1008      3761      3929      3930
 -1      1924    8    0    1
 -2       943       948      1008      3737      3931      3928
 -1      1925    8    0    1
 -2       923       942      1009      3719      3932      3933
 -1      1926    8    0    1
 -2      1000       923      1009      3897      3933      3934
 -1      1927    8    0    1
 -2       942       945      1009      3752      3935      3932
 -1      1928    8    0    1
 -2       872       933      1010      3685      3936      3937
 -1      1929    8    0    1
 -2       933       955      1010      3762      3938      3936
 -1      1930    8    0    1
 -2       875       902      1011      3700      3939      3940
 -1      1931    8    0    1
 -2       934       875      1011      3688      3940      3941
 -1      1932    8    0    1
 -2       902       927      1011      3662      3942      3939
 -1      1933    8    0    1
 -2       867       930      1012      3671      3943      3944
 -1      1934    8    0    1
 -2       948       867      1012      3738      3944      3945
 -1      1935    8    0    1
 -2       930       957      1012      3769      3946      3943
 -1      1936    8    0    1
 -2       873       872      1013      3501      3947      3948
 -1      1937    8    0    1
 -2       958       873      1013      3771      3948      3949
 -1      1938    8    0    1
 -2       872      1010      1013      3937      3950      3947
 -1      1939    8    0    1
 -2       929       928      1014      3900      3951      3952
 -1      1940    8    0    1
 -2       940       929      1014      3712      3952      3953
 -1      1941    8    0    1
 -2       928       953      1014      3756      3954      3951
 -1      1942    8    0    1
 -2       864       942       856      3923      3717      3716
 -1      1943    8    0    1
 -2       936       869      1015      3696      3955      3956
 -1      1944    8    0    1
 -2       869       951      1015      3749      3957      3955
 -1      1945    8    0    1
 -2       901       956      1003      3767      3958      3908
 -1      1946    8    0    1
 -2       941       935      1016      3713      3959      3960
 -1      1947    8    0    1
 -2       938       924      1017      3701      3961      3962
 -1      1948    8    0    1
 -2       871       958       951      3918      3963      3747
 -1      1949    8    0    1
 -2       953       865      1018      3754      3964      3965
 -1      1950    8    0    1
 -2       865       946      1018      3732      3966      3964
 -1      1951    8    0    1
 -2      1001       937      1019      3905      3967      3968
 -1      1952    8    0    1
 -2       937       950      1019      3914      3969      3967
 -1      1953    8    0    1
 -2       982       905      1006      3845      3920      3970
 -1      1954    8    0    1
 -2       946       847      1020      3733      3971      3972
 -1      1955    8    0    1
 -2       847       936      1020      3695      3973      3971
 -1      1956    8    0    1
 -2       945       981      1021      3843      3974      3975
 -1      1957    8    0    1
 -2       945      1021      1009      3975      3976      3935
 -1      1958    8    0    1
 -2       947      1002      1022      3907      3977      3978
 -1      1959    8    0    1
 -2       947      1022      1004      3978      3979      3913
 -1      1960    8    0    1
 -2       949       944      1023      3740      3980      3981
 -1      1961    8    0    1
 -2       950       925      1019      3745      3982      3969
 -1      1962    8    0    1
 -2       927       926      1024      3663      3983      3984
 -1      1963    8    0    1
 -2      1011       927      1024      3942      3984      3985
 -1      1964    8    0    1
 -2       926      1005      1024      3916      3986      3983
 -1      1965    8    0    1
 -2       935      1001      1025      3904      3987      3988
 -1      1966    8    0    1
 -2      1016       935      1025      3959      3988      3989
 -1      1967    8    0    1
 -2      1001      1019      1025      3968      3990      3987
 -1      1968    8    0    1
 -2       954       952      1026      3760      3991      3992
 -1      1969    8    0    1
 -2       954      1026       959      3992      3993      3776
 -1      1970    8    0    1
 -2       934      1011      1027      3941      3994      3995
 -1      1971    8    0    1
 -2       956       934      1027      3766      3995      3996
 -1      1972    8    0    1
 -2      1011      1024      1027      3985      3997      3994
 -1      1973    8    0    1
 -2       925       939      1028      3708      3998      3999
 -1      1974    8    0    1
 -2       952      1004      1029      3922      4000      4001
 -1      1975    8    0    1
 -2      1026       952      1029      3991      4001      4002
 -1      1976    8    0    1
 -2      1004      1022      1029      3979      4003      4000
 -1      1977    8    0    1
 -2       944       938      1030      3727      4004      4005
 -1      1978    8    0    1
 -2       938      1017      1030      3962      4006      4004
 -1      1979    8    0    1
 -2       924       899      1017      3840      4007      3961
 -1      1980    8    0    1
 -2       925      1028      1019      3999      4008      3982
 -1      1981    8    0    1
 -2      1023       944      1030      3980      4005      4009
 -1      1982    8    0    1
 -2      1019      1028      1025      4008      4010      3990
 -1      1983    8    0    1
 -2      1030      1017      1031      4006      4011      4012
 -1      1984    8    0    1
 -2       960       959      1032      3779      4013      4014
 -1      1985    8    0    1
 -2       959      1026      1032      3993      4015      4013
 -1      1986    8    0    1
 -2       961       960      1033      3782      4016      4017
 -1      1987    8    0    1
 -2       960      1032      1033      4014      4018      4016
 -1      1988    8    0    1
 -2       962       961      1034      3785      4019      4020
 -1      1989    8    0    1
 -2       961      1033      1034      4017      4021      4019
 -1      1990    8    0    1
 -2       963       962      1035      3788      4022      4023
 -1      1991    8    0    1
 -2       962      1034      1035      4020      4024      4022
 -1      1992    8    0    1
 -2       964       963      1036      3791      4025      4026
 -1      1993    8    0    1
 -2       963      1035      1036      4023      4027      4025
 -1      1994    8    0    1
 -2       965       964      1037      3794      4028      4029
 -1      1995    8    0    1
 -2       964      1036      1037      4026      4030      4028
 -1      1996    8    0    1
 -2       966       965      1038      3797      4031      4032
 -1      1997    8    0    1
 -2       965      1037      1038      4029      4033      4031
 -1      1998    8    0    1
 -2       967       966      1039      3800      4034      4035
 -1      1999    8    0    1
 -2       966      1038      1039      4032      4036      4034
 -1      2000    8    0    1
 -2       968       967      1040      3803      4037      4038
 -1      2001    8    0    1
 -2       967      1039      1040      4035      4039      4037
 -1      2002    8    0    1
 -2       969       968      1041      3806      4040      4041
 -1      2003    8    0    1
 -2       968      1040      1041      4038      4042      4040
 -1      2004    8    0    1
 -2       970       969      1042      3809      4043      4044
 -1      2005    8    0    1
 -2       969      1041      1042      4041      4045      4043
 -1      2006    8    0    1
 -2       971       970      1043      3812      4046      4047
 -1      2007    8    0    1
 -2       970      1042      1043      4044      4048      4046
 -1      2008    8    0    1
 -2       972       971      1044      3815      4049      4050
 -1      2009    8    0    1
 -2       971      1043      1044      4047      4051      4049
 -1      2010    8    0    1
 -2       973       972      1045      3818      4052      4053
 -1      2011    8    0    1
 -2       972      1044      1045      4050      4054      4052
 -1      2012    8    0    1
 -2       974       973      1046      3821      4055      4056
 -1      2013    8    0    1
 -2       973      1045      1046      4053      4057      4055
 -1      2014    8    0    1
 -2       975       974      1047      3824      4058      4059
 -1      2015    8    0    1
 -2       974      1046      1047      4056      4060      4058
 -1      2016    8    0    1
 -2       976       975      1048      3827      4061      4062
 -1      2017    8    0    1
 -2       975      1047      1048      4059      4063      4061
 -1      2018    8    0    1
 -2       977       976      1049      3830      4064      4065
 -1      2019    8    0    1
 -2       976      1048      1049      4062      4066      4064
 -1      2020    8    0    1
 -2       978       977      1050      3833      4067      4068
 -1      2021    8    0    1
 -2       977      1049      1050      4065      4069      4067
 -1      2022    8    0    1
 -2       979       978      1051      3836      4070      4071
 -1      2023    8    0    1
 -2       978      1050      1051      4068      4072      4070
 -1      2024    8    0    1
 -2       986       987      1052      3860      4073      4074
 -1      2025    8    0    1
 -2       981       949      1053      3844      4075      4076
 -1      2026    8    0    1
 -2      1021       981      1053      3974      4076      4077
 -1      2027    8    0    1
 -2       949      1023      1053      3981      4078      4075
 -1      2028    8    0    1
 -2       983       982      1054      3849      4079      4080
 -1      2029    8    0    1
 -2       951       958      1055      3963      4081      4082
 -1      2030    8    0    1
 -2      1015       951      1055      3957      4082      4083
 -1      2031    8    0    1
 -2       958      1013      1055      3949      4084      4081
 -1      2032    8    0    1
 -2       957       941      1056      3770      4085      4086
 -1      2033    8    0    1
 -2       941      1016      1056      3960      4087      4085
 -1      2034    8    0    1
 -2       985       986      1057      3857      4088      4089
 -1      2035    8    0    1
 -2       986      1052      1057      4074      4090      4088
 -1      2036    8    0    1
 -2       984       985      1058      3854      4091      4092
 -1      2037    8    0    1
 -2       985      1057      1058      4089      4093      4091
 -1      2038    8    0    1
 -2       987       988      1059      3863      4094      4095
 -1      2039    8    0    1
 -2       987      1059      1052      4095      4096      4073
 -1      2040    8    0    1
 -2       988       989      1060      3866      4097      4098
 -1      2041    8    0    1
 -2       988      1060      1059      4098      4099      4094
 -1      2042    8    0    1
 -2       989       990      1061      3869      4100      4101
 -1      2043    8    0    1
 -2       989      1061      1060      4101      4102      4097
 -1      2044    8    0    1
 -2       990       991      1062      3872      4103      4104
 -1      2045    8    0    1
 -2       990      1062      1061      4104      4105      4100
 -1      2046    8    0    1
 -2       991       992      1063      3875      4106      4107
 -1      2047    8    0    1
 -2       991      1063      1062      4107      4108      4103
 -1      2048    8    0    1
 -2       992       993      1064      3878      4109      4110
 -1      2049    8    0    1
 -2       992      1064      1063      4110      4111      4106
 -1      2050    8    0    1
 -2       993       994      1065      3881      4112      4113
 -1      2051    8    0    1
 -2       993      1065      1064      4113      4114      4109
 -1      2052    8    0    1
 -2       994       995      1066      3884      4115      4116
 -1      2053    8    0    1
 -2       994      1066      1065      4116      4117      4112
 -1      2054    8    0    1
 -2       995       996      1067      3887      4118      4119
 -1      2055    8    0    1
 -2       995      1067      1066      4119      4120      4115
 -1      2056    8    0    1
 -2       996       997      1068      3890      4121      4122
 -1      2057    8    0    1
 -2       996      1068      1067      4122      4123      4118
 -1      2058    8    0    1
 -2       997       998      1069      3893      4124      4125
 -1      2059    8    0    1
 -2       997      1069      1068      4125      4126      4121
 -1      2060    8    0    1
 -2       998       999      1070      3896      4127      4128
 -1      2061    8    0    1
 -2       998      1070      1069      4128      4129      4124
 -1      2062    8    0    1
 -2       999      1000      1071      3899      4130      4131
 -1      2063    8    0    1
 -2       999      1071      1070      4131      4132      4127
 -1      2064    8    0    1
 -2      1010       955      1072      3938      4133      4134
 -1      2065    8    0    1
 -2      1002      1003      1073      3910      4135      4136
 -1      2066    8    0    1
 -2      1000      1009      1074      3934      4137      4138
 -1      2067    8    0    1
 -2      1071      1000      1074      4130      4138      4139
 -1      2068    8    0    1
 -2      1009      1021      1074      3976      4140      4137
 -1      2069    8    0    1
 -2      1023      1030      1075      4009      4141      4142
 -1      2070    8    0    1
 -2      1030      1031      1075      4012      4143      4141
 -1      2071    8    0    1
 -2      1005       983      1076      3917      4144      4145
 -1      2072    8    0    1
 -2       983      1054      1076      4080      4146      4144
 -1      2073    8    0    1
 -2      1006       984      1077      3921      4147      4148
 -1      2074    8    0    1
 -2       984      1058      1077      4092      4149      4147
 -1      2075    8    0    1
 -2       982      1006      1078      3970      4150      4151
 -1      2076    8    0    1
 -2       982      1078      1054      4151      4152      4079
 -1      2077    8    0    1
 -2      1028       939      1079      3998      4153      4154
 -1      2078    8    0    1
 -2       939      1007      1079      3926      4155      4153
 -1      2079    8    0    1
 -2      1003       956      1080      3958      4156      4157
 -1      2080    8    0    1
 -2      1031      1017      1051      4011      4158      4159
 -1      2081    8    0    1
 -2       957      1056      1081      4086      4160      4161
 -1      2082    8    0    1
 -2       957      1081      1012      4161      4162      3946
 -1      2083    8    0    1
 -2      1014       953      1082      3954      4163      4164
 -1      2084    8    0    1
 -2       953      1018      1082      3965      4165      4163
 -1      2085    8    0    1
 -2      1008       948      1012      3931      3945      4166
 -1      2086    8    0    1
 -2       956      1027      1080      3996      4167      4156
 -1      2087    8    0    1
 -2      1073      1003      1080      4135      4157      4168
 -1      2088    8    0    1
 -2      1056      1016      1083      4087      4169      4170
 -1      2089    8    0    1
 -2      1018       946      1084      3966      4171      4172
 -1      2090    8    0    1
 -2       946      1020      1084      3972      4173      4171
 -1      2091    8    0    1
 -2      1010      1072      1085      4134      4174      4175
 -1      2092    8    0    1
 -2      1010      1085      1013      4175      4176      3950
 -1      2093    8    0    1
 -2      1072       955      1081      4133      4177      4178
 -1      2094    8    0    1
 -2      1053      1023      1086      4078      4179      4180
 -1      2095    8    0    1
 -2      1023      1075      1086      4142      4181      4179
 -1      2096    8    0    1
 -2      1020       936      1087      3973      4182      4183
 -1      2097    8    0    1
 -2       936      1015      1087      3956      4184      4182
 -1      2098    8    0    1
 -2      1028      1079      1088      4154      4185      4186
 -1      2099    8    0    1
 -2      1022      1002      1089      3977      4187      4188
 -1      2100    8    0    1
 -2      1029      1022      1089      4003      4188      4189
 -1      2101    8    0    1
 -2      1002      1073      1089      4136      4190      4187
 -1      2102    8    0    1
 -2      1032      1026      1090      4015      4191      4192
 -1      2103    8    0    1
 -2      1026      1029      1090      4002      4193      4191
 -1      2104    8    0    1
 -2      1006      1077      1078      4148      4194      4150
 -1      2105    8    0    1
 -2      1024      1005      1091      3986      4195      4196
 -1      2106    8    0    1
 -2      1027      1024      1091      3997      4196      4197
 -1      2107    8    0    1
 -2      1005      1076      1091      4145      4198      4195
 -1      2108    8    0    1
 -2       940      1014      1092      3953      4199      4200
 -1      2109    8    0    1
 -2      1007       940      1092      3927      4200      4201
 -1      2110    8    0    1
 -2      1014      1082      1092      4164      4202      4199
 -1      2111    8    0    1
 -2      1016      1025      1093      3989      4203      4204
 -1      2112    8    0    1
 -2      1016      1093      1083      4204      4205      4169
 -1      2113    8    0    1
 -2      1025      1028      1093      4010      4206      4203
 -1      2114    8    0    1
 -2      1093      1028      1088      4206      4186      4207
 -1      2115    8    0    1
 -2      1054      1078      1094      4152      4208      4209
 -1      2116    8    0    1
 -2      1033      1032      1095      4018      4210      4211
 -1      2117    8    0    1
 -2      1032      1090      1095      4192      4212      4210
 -1      2118    8    0    1
 -2      1034      1033      1096      4021      4213      4214
 -1      2119    8    0    1
 -2      1033      1095      1096      4211      4215      4213
 -1      2120    8    0    1
 -2      1035      1034      1097      4024      4216      4217
 -1      2121    8    0    1
 -2      1034      1096      1097      4214      4218      4216
 -1      2122    8    0    1
 -2      1036      1035      1098      4027      4219      4220
 -1      2123    8    0    1
 -2      1035      1097      1098      4217      4221      4219
 -1      2124    8    0    1
 -2      1037      1036      1099      4030      4222      4223
 -1      2125    8    0    1
 -2      1036      1098      1099      4220      4224      4222
 -1      2126    8    0    1
 -2      1038      1037      1100      4033      4225      4226
 -1      2127    8    0    1
 -2      1037      1099      1100      4223      4227      4225
 -1      2128    8    0    1
 -2      1039      1038      1101      4036      4228      4229
 -1      2129    8    0    1
 -2      1038      1100      1101      4226      4230      4228
 -1      2130    8    0    1
 -2      1040      1039      1102      4039      4231      4232
 -1      2131    8    0    1
 -2      1039      1101      1102      4229      4233      4231
 -1      2132    8    0    1
 -2      1041      1040      1103      4042      4234      4235
 -1      2133    8    0    1
 -2      1040      1102      1103      4232      4236      4234
 -1      2134    8    0    1
 -2      1042      1041      1104      4045      4237      4238
 -1      2135    8    0    1
 -2      1041      1103      1104      4235      4239      4237
 -1      2136    8    0    1
 -2      1043      1042      1105      4048      4240      4241
 -1      2137    8    0    1
 -2      1042      1104      1105      4238      4242      4240
 -1      2138    8    0    1
 -2      1044      1043      1106      4051      4243      4244
 -1      2139    8    0    1
 -2      1043      1105      1106      4241      4245      4243
 -1      2140    8    0    1
 -2      1045      1044      1107      4054      4246      4247
 -1      2141    8    0    1
 -2      1044      1106      1107      4244      4248      4246
 -1      2142    8    0    1
 -2      1046      1045      1108      4057      4249      4250
 -1      2143    8    0    1
 -2      1045      1107      1108      4247      4251      4249
 -1      2144    8    0    1
 -2      1047      1046      1109      4060      4252      4253
 -1      2145    8    0    1
 -2      1046      1108      1109      4250      4254      4252
 -1      2146    8    0    1
 -2      1048      1047      1110      4063      4255      4256
 -1      2147    8    0    1
 -2      1047      1109      1110      4253      4257      4255
 -1      2148    8    0    1
 -2      1049      1048      1111      4066      4258      4259
 -1      2149    8    0    1
 -2      1048      1110      1111      4256      4260      4258
 -1      2150    8    0    1
 -2      1050      1049      1112      4069      4261      4262
 -1      2151    8    0    1
 -2      1049      1111      1112      4259      4263      4261
 -1      2152    8    0    1
 -2      1051      1050      1113      4072      4264      4265
 -1      2153    8    0    1
 -2      1031      1051      1113      4159      4265      4266
 -1      2154    8    0    1
 -2      1050      1112      1113      4262      4267      4264
 -1      2155    8    0    1
 -2      1059      1060      1114      4099      4268      4269
 -1      2156    8    0    1
 -2       980       979      1051      3839      4071      4270
 -1      2157    8    0    1
 -2      1021      1053      1074      4077      4271      4140
 -1      2158    8    0    1
 -2      1057      1052      1115      4090      4272      4273
 -1      2159    8    0    1
 -2      1080      1027      1091      4167      4197      4274
 -1      2160    8    0    1
 -2      1058      1057      1116      4093      4275      4276
 -1      2161    8    0    1
 -2      1057      1115      1116      4273      4277      4275
 -1      2162    8    0    1
 -2      1060      1061      1117      4102      4278      4279
 -1      2163    8    0    1
 -2      1060      1117      1114      4279      4280      4268
 -1      2164    8    0    1
 -2      1061      1062      1118      4105      4281      4282
 -1      2165    8    0    1
 -2      1061      1118      1117      4282      4283      4278
 -1      2166    8    0    1
 -2      1062      1063      1119      4108      4284      4285
 -1      2167    8    0    1
 -2      1062      1119      1118      4285      4286      4281
 -1      2168    8    0    1
 -2      1063      1064      1120      4111      4287      4288
 -1      2169    8    0    1
 -2      1063      1120      1119      4288      4289      4284
 -1      2170    8    0    1
 -2      1064      1065      1121      4114      4290      4291
 -1      2171    8    0    1
 -2      1064      1121      1120      4291      4292      4287
 -1      2172    8    0    1
 -2      1065      1066      1122      4117      4293      4294
 -1      2173    8    0    1
 -2      1065      1122      1121      4294      4295      4290
 -1      2174    8    0    1
 -2      1066      1067      1123      4120      4296      4297
 -1      2175    8    0    1
 -2      1066      1123      1122      4297      4298      4293
 -1      2176    8    0    1
 -2      1067      1068      1124      4123      4299      4300
 -1      2177    8    0    1
 -2      1067      1124      1123      4300      4301      4296
 -1      2178    8    0    1
 -2      1068      1069      1125      4126      4302      4303
 -1      2179    8    0    1
 -2      1068      1125      1124      4303      4304      4299
 -1      2180    8    0    1
 -2      1069      1070      1126      4129      4305      4306
 -1      2181    8    0    1
 -2      1069      1126      1125      4306      4307      4302
 -1      2182    8    0    1
 -2      1070      1071      1127      4132      4308      4309
 -1      2183    8    0    1
 -2      1070      1127      1126      4309      4310      4305
 -1      2184    8    0    1
 -2      1081       955      1012      4177      4311      4162
 -1      2185    8    0    1
 -2      1075      1031      1128      4143      4312      4313
 -1      2186    8    0    1
 -2      1031      1113      1128      4266      4314      4312
 -1      2187    8    0    1
 -2      1072      1081      1129      4178      4315      4316
 -1      2188    8    0    1
 -2      1081      1056      1129      4160      4317      4315
 -1      2189    8    0    1
 -2      1088      1079      1130      4185      4318      4319
 -1      2190    8    0    1
 -2      1052      1059      1131      4096      4320      4321
 -1      2191    8    0    1
 -2      1115      1052      1131      4272      4321      4322
 -1      2192    8    0    1
 -2      1059      1114      1131      4269      4323      4320
 -1      2193    8    0    1
 -2      1076      1054      1132      4146      4324      4325
 -1      2194    8    0    1
 -2      1054      1094      1132      4209      4326      4324
 -1      2195    8    0    1
 -2      1077      1058      1133      4149      4327      4328
 -1      2196    8    0    1
 -2      1058      1116      1133      4276      4329      4327
 -1      2197    8    0    1
 -2      1093      1088      1134      4207      4330      4331
 -1      2198    8    0    1
 -2      1093      1134      1083      4331      4332      4205
 -1      2199    8    0    1
 -2      1056      1083      1129      4170      4333      4317
 -1      2200    8    0    1
 -2      1079      1007      1092      4155      4201      4334
 -1      2201    8    0    1
 -2      1078      1077      1135      4194      4335      4336
 -1      2202    8    0    1
 -2      1077      1133      1135      4328      4337      4335
 -1      2203    8    0    1
 -2      1073      1080      1136      4168      4338      4339
 -1      2204    8    0    1
 -2      1075      1128      1127      4313      4340      4341
 -1      2205    8    0    1
 -2      1072      1129      1085      4316      4342      4174
 -1      2206    8    0    1
 -2      1082      1018      1130      4165      4343      4344
 -1      2207    8    0    1
 -2      1084      1020      1137      4173      4345      4346
 -1      2208    8    0    1
 -2      1020      1087      1137      4183      4347      4345
 -1      2209    8    0    1
 -2      1055      1013      1085      4084      4176      4348
 -1      2210    8    0    1
 -2      1015      1055      1138      4083      4349      4350
 -1      2211    8    0    1
 -2      1087      1015      1138      4184      4350      4351
 -1      2212    8    0    1
 -2      1055      1085      1138      4348      4352      4349
 -1      2213    8    0    1
 -2      1094      1078      1135      4208      4336      4353
 -1      2214    8    0    1
 -2      1018      1084      1130      4172      4354      4343
 -1      2215    8    0    1
 -2      1080      1091      1076      4274      4198      4355
 -1      2216    8    0    1
 -2      1079      1092      1130      4334      4356      4318
 -1      2217    8    0    1
 -2      1053      1086      1074      4180      4357      4271
 -1      2218    8    0    1
 -2      1029      1089      1090      4189      4358      4193
 -1      2219    8    0    1
 -2      1073      1136      1139      4339      4359      4360
 -1      2220    8    0    1
 -2      1134      1088      1130      4330      4319      4361
 -1      2221    8    0    1
 -2      1073      1139      1089      4360      4362      4190
 -1      2222    8    0    1
 -2      1129      1083      1140      4333      4363      4364
 -1      2223    8    0    1
 -2      1085      1129      1140      4342      4364      4365
 -1      2224    8    0    1
 -2      1083      1134      1140      4332      4366      4363
 -1      2225    8    0    1
 -2      1080      1076      1136      4355      4367      4338
 -1      2226    8    0    1
 -2      1096      1095      1141      4215      4368      4369
 -1      2227    8    0    1
 -2      1097      1096      1142      4218      4370      4371
 -1      2228    8    0    1
 -2      1096      1141      1142      4369      4372      4370
 -1      2229    8    0    1
 -2      1098      1097      1143      4221      4373      4374
 -1      2230    8    0    1
 -2      1097      1142      1143      4371      4375      4373
 -1      2231    8    0    1
 -2      1099      1098      1144      4224      4376      4377
 -1      2232    8    0    1
 -2      1098      1143      1144      4374      4378      4376
 -1      2233    8    0    1
 -2      1100      1099      1145      4227      4379      4380
 -1      2234    8    0    1
 -2      1099      1144      1145      4377      4381      4379
 -1      2235    8    0    1
 -2      1101      1100      1146      4230      4382      4383
 -1      2236    8    0    1
 -2      1100      1145      1146      4380      4384      4382
 -1      2237    8    0    1
 -2      1102      1101      1147      4233      4385      4386
 -1      2238    8    0    1
 -2      1101      1146      1147      4383      4387      4385
 -1      2239    8    0    1
 -2      1103      1102      1148      4236      4388      4389
 -1      2240    8    0    1
 -2      1102      1147      1148      4386      4390      4388
 -1      2241    8    0    1
 -2      1104      1103      1149      4239      4391      4392
 -1      2242    8    0    1
 -2      1103      1148      1149      4389      4393      4391
 -1      2243    8    0    1
 -2      1105      1104      1150      4242      4394      4395
 -1      2244    8    0    1
 -2      1104      1149      1150      4392      4396      4394
 -1      2245    8    0    1
 -2      1106      1105      1151      4245      4397      4398
 -1      2246    8    0    1
 -2      1105      1150      1151      4395      4399      4397
 -1      2247    8    0    1
 -2      1107      1106      1152      4248      4400      4401
 -1      2248    8    0    1
 -2      1106      1151      1152      4398      4402      4400
 -1      2249    8    0    1
 -2      1108      1107      1153      4251      4403      4404
 -1      2250    8    0    1
 -2      1107      1152      1153      4401      4405      4403
 -1      2251    8    0    1
 -2      1109      1108      1154      4254      4406      4407
 -1      2252    8    0    1
 -2      1108      1153      1154      4404      4408      4406
 -1      2253    8    0    1
 -2      1110      1109      1155      4257      4409      4410
 -1      2254    8    0    1
 -2      1109      1154      1155      4407      4411      4409
 -1      2255    8    0    1
 -2      1111      1110      1156      4260      4412      4413
 -1      2256    8    0    1
 -2      1110      1155      1156      4410      4414      4412
 -1      2257    8    0    1
 -2      1112      1111      1157      4263      4415      4416
 -1      2258    8    0    1
 -2      1111      1156      1157      4413      4417      4415
 -1      2259    8    0    1
 -2      1113      1112      1158      4267      4418      4419
 -1      2260    8    0    1
 -2      1128      1113      1158      4314      4419      4420
 -1      2261    8    0    1
 -2      1112      1157      1158      4416      4421      4418
 -1      2262    8    0    1
 -2      1132      1094      1141      4326      4422      4423
 -1      2263    8    0    1
 -2      1082      1130      1092      4344      4356      4202
 -1      2264    8    0    1
 -2      1116      1115      1159      4277      4424      4425
 -1      2265    8    0    1
 -2      1118      1119      1160      4286      4426      4427
 -1      2266    8    0    1
 -2      1119      1120      1151      4289      4428      4429
 -1      2267    8    0    1
 -2      1120      1121      1152      4292      4430      4431
 -1      2268    8    0    1
 -2      1121      1122      1153      4295      4432      4433
 -1      2269    8    0    1
 -2      1122      1123      1154      4298      4434      4435
 -1      2270    8    0    1
 -2      1123      1124      1155      4301      4436      4437
 -1      2271    8    0    1
 -2      1124      1125      1156      4304      4438      4439
 -1      2272    8    0    1
 -2      1125      1126      1157      4307      4440      4441
 -1      2273    8    0    1
 -2      1126      1127      1128      4310      4340      4442
 -1      2274    8    0    1
 -2      1127      1071      1086      4308      4443      4444
 -1      2275    8    0    1
 -2      1076      1132      1136      4325      4445      4367
 -1      2276    8    0    1
 -2      1071      1074      1086      4139      4357      4443
 -1      2277    8    0    1
 -2      1134      1130      1084      4361      4354      4446
 -1      2278    8    0    1
 -2      1133      1116      1144      4329      4447      4448
 -1      2279    8    0    1
 -2      1090      1089      1139      4358      4362      4449
 -1      2280    8    0    1
 -2      1094      1135      1142      4353      4450      4451
 -1      2281    8    0    1
 -2      1135      1133      1143      4337      4452      4453
 -1      2282    8    0    1
 -2      1095      1090      1139      4212      4449      4454
 -1      2283    8    0    1
 -2      1117      1118      1149      4283      4455      4456
 -1      2284    8    0    1
 -2      1114      1117      1148      4280      4457      4458
 -1      2285    8    0    1
 -2      1095      1139      1141      4454      4459      4368
 -1      2286    8    0    1
 -2      1085      1140      1138      4365      4460      4352
 -1      2287    8    0    1
 -2      1086      1075      1127      4181      4341      4444
 -1      2288    8    0    1
 -2      1152      1121      1153      4430      4433      4405
 -1      2289    8    0    1
 -2      1151      1120      1152      4428      4431      4402
 -1      2290    8    0    1
 -2      1017       899       980      4007      3838      4461
 -1      2291    8    0    1
 -2      1126      1128      1158      4442      4420      4462
 -1      2292    8    0    1
 -2      1134      1084      1137      4446      4346      4463
 -1      2293    8    0    1
 -2      1012       955      1008      4311      3930      4166
 -1      2294    8    0    1
 -2      1131      1114      1147      4323      4464      4465
 -1      2295    8    0    1
 -2      1141      1094      1142      4422      4451      4372
 -1      2296    8    0    1
 -2      1156      1125      1157      4438      4441      4417
 -1      2297    8    0    1
 -2      1155      1124      1156      4436      4439      4414
 -1      2298    8    0    1
 -2      1143      1133      1144      4452      4448      4378
 -1      2299    8    0    1
 -2      1115      1131      1146      4322      4466      4467
 -1      2300    8    0    1
 -2      1139      1136      1141      4359      4468      4459
 -1      2301    8    0    1
 -2      1148      1117      1149      4457      4456      4393
 -1      2302    8    0    1
 -2      1051      1017       980      4158      4461      4270
 -1      2303    8    0    1
 -2      1154      1123      1155      4434      4437      4411
 -1      2304    8    0    1
 -2      1142      1135      1143      4450      4453      4375
 -1      2305    8    0    1
 -2      1087      1138      1140      4351      4460      4469
 -1      2306    8    0    1
 -2      1137      1087      1140      4347      4469      4470
 -1      2307    8    0    1
 -2      1140      1134      1137      4366      4463      4470
 -1      2308    8    0    1
 -2      1147      1114      1148      4464      4458      4390
 -1      2309    8    0    1
 -2      1153      1122      1154      4432      4435      4408
 -1      2310    8    0    1
 -2      1115      1146      1159      4467      4471      4424
 -1      2311    8    0    1
 -2      1146      1145      1159      4384      4472      4471
 -1      2312    8    0    1
 -2      1147      1146      1131      4387      4466      4465
 -1      2313    8    0    1
 -2      1151      1150      1160      4399      4473      4474
 -1      2314    8    0    1
 -2      1160      1119      1151      4426      4429      4474
 -1      2315    8    0    1
 -2      1118      1160      1149      4427      4475      4455
 -1      2316    8    0    1
 -2      1136      1132      1141      4445      4423      4468
 -1      2317    8    0    1
 -2      1144      1116      1159      4447      4425      4476
 -1      2318    8    0    1
 -2      1159      1145      1144      4472      4381      4476
 -1      2319    8    0    1
 -2      1149      1160      1150      4475      4473      4396
 -1      2320    8    0    1
 -2      1157      1126      1158      4440      4462      4421
 -3
    1PSTEP                         1           1           1          
  100CL  101 1.000000000        4476                     0    1           1
 -4  DISP        4    1
 -5  D1          1    2    1    0
 -5  D2          1    2    2    0
 -5  D3          1    2    3    0
 -5  ALL         1    2    0    0    1ALL
 -1         1 3.61959E-03-7.37224E-04-1.18051E-14
 -1         2 7.11628E-03-6.94395E-05-1.89936E-14
 -1         3 1.51142E-02 3.47427E-04-1.27233E-13
 -1         4 1.52944E-02-1.08311E-03-1.27003E-13
 -1         5 0.00000E+00 0.00000E+00 0.00000E+00
 -1         6 0.00000E+00 0.00000E+00 0.00000E+00
 -1         7 0.00000E+00 0.00000E+00 0.00000E+00
 -1         8 0.00000E+00 0.00000E+00 0.00000E+00
 -1         9 0.00000E+00 0.00000E+00 0.00000E+00
 -1        10 0.00000E+00 0.00000E+00 0.00000E+00
 -1        11 0.00000E+00 0.00000E+00 0.00000E+00
 -1        12 0.00000E+00 0.00000E+00 0.00000E+00
 -1        13 0.00000E+00 0.00000E+00 0.00000E+00
 -1        14 0.00000E+00 0.00000E+00 0.00000E+00
 -1        15 0.00000E+00 0.00000E+00 0.00000E+00
 -1        16 0.00000E+00 0.00000E+00 0.00000E+00
 -1        17 0.00000E+00 0.00000E+00 0.00000E+00
 -1        18 0.00000E+00 0.00000E+00 0.00000E+00
 -1        19 0.00000E+00 0.00000E+00 0.00000E+00
 -1        20 0.00000E+00 0.00000E+00 0.00000E+00
 -1        21 0.00000E+00 0.00000E+00 0.00000E+00
 -1        22 0.00000E+00 0.00000E+00 0.00000E+00
 -1        23 4.13149E-04-2.48068E-04 4.88806E-17
 -1        24 7.16073E-04-3.72883E-04-3.01476E-17
 -1        25 1.00464E-03-4.56409E-04-2.35838E-16
 -1        26 1.29450E-03-5.14752E-04-5.67590E-16
 -1        27 1.59095E-03-5.58590E-04-1.02365E-15
 -1        28 1.89717E-03-5.95447E-04-1.60270E-15
 -1        29 2.21514E-03-6.32035E-04-2.30514E-15
 -1        30 2.54553E-03-6.74952E-04-3.12998E-15
 -1        31 2.88724E-03-7.30678E-04-4.07911E-15
 -1        32 3.23652E-03-8.04762E-04-5.14722E-15
 -1        33 3.58628E-03-8.99975E-04-6.33437E-15
 -1        34 3.92632E-03-1.01346E-03-7.64072E-15
 -1        35 4.24569E-03-1.13391E-03-9.07241E-15
 -1        36 4.53735E-03-1.24122E-03-1.06334E-14
 -1        37 4.80357E-03-1.31131E-03-1.23302E-14
 -1        38 5.05765E-03-1.32603E-03-1.41642E-14
 -1        39 5.31901E-03-1.28255E-03-1.61357E-14
 -1        40 5.60391E-03-1.19501E-03-1.82456E-14
 -1        41 5.91848E-03-1.08713E-03-2.04784E-14
 -1        42 6.25841E-03-9.81628E-04-2.28242E-14
 -1        43 6.61357E-03-8.93474E-04-2.52766E-14
 -1        44 6.97329E-03-8.28816E-04-2.78364E-14
 -1        45 7.32951E-03-7.87370E-04-3.04996E-14
 -1        46 7.67749E-03-7.65504E-04-3.32696E-14
 -1        47 8.01530E-03-7.58558E-04-3.61346E-14
 -1        48 8.34288E-03-7.62131E-04-3.90991E-14
 -1        49 8.66115E-03-7.72613E-04-4.21563E-14
 -1        50 8.97149E-03-7.87276E-04-4.52996E-14
 -1        51 9.27535E-03-8.04180E-04-4.85205E-14
 -1        52 9.57409E-03-8.22012E-04-5.18171E-14
 -1        53 9.86889E-03-8.39930E-04-5.51808E-14
 -1        54 1.01607E-02-8.57430E-04-5.85981E-14
 -1        55 1.04504E-02-8.74240E-04-6.20646E-14
 -1        56 1.07385E-02-8.90245E-04-6.55657E-14
 -1        57 1.10255E-02-9.05429E-04-6.91079E-14
 -1        58 1.13117E-02-9.19836E-04-7.26920E-14
 -1        59 1.15975E-02-9.33545E-04-7.63139E-14
 -1        60 1.18830E-02-9.46646E-04-7.99701E-14
 -1        61 1.21683E-02-9.59234E-04-8.36574E-14
 -1        62 1.24536E-02-9.71400E-04-8.73959E-14
 -1        63 1.27388E-02-9.83228E-04-9.11958E-14
 -1        64 1.30241E-02-9.94789E-04-9.50526E-14
 -1        65 1.33095E-02-1.00615E-03-9.89677E-14
 -1        66 1.35949E-02-1.01736E-03-1.02932E-13
 -1        67 1.38804E-02-1.02847E-03-1.06934E-13
 -1        68 1.41659E-02-1.03951E-03-1.10950E-13
 -1        69 1.44516E-02-1.05053E-03-1.14979E-13
 -1        70 1.47372E-02-1.06155E-03-1.19027E-13
 -1        71 1.50229E-02-1.07259E-03-1.23108E-13
 -1        72 4.15266E-04 2.49202E-04 4.88602E-17
 -1        73 7.15727E-04 3.76526E-04-3.33019E-17
 -1        74 1.00445E-03 4.59831E-04-2.41391E-16
 -1        75 1.29362E-03 5.18859E-04-5.76995E-16
 -1        76 1.58858E-03 5.63539E-04-1.04122E-15
 -1        77 1.89224E-03 6.01188E-04-1.63210E-15
 -1        78 2.20609E-03 6.38159E-04-2.34744E-15
 -1        79 2.53027E-03 6.80410E-04-3.18236E-15
 -1        80 2.86318E-03 7.33397E-04-4.13882E-15
 -1        81 3.20086E-03 8.01263E-04-5.21567E-15
 -1        82 3.53679E-03 8.85267E-04-6.41698E-15
 -1        83 3.86241E-03 9.81669E-04-7.74079E-15
 -1        84 4.16926E-03 1.08002E-03-9.18931E-15
 -1        85 4.45270E-03 1.16362E-03-1.07711E-14
 -1        86 4.71550E-03 1.21367E-03-1.24937E-14
 -1        87 4.96865E-03 1.21651E-03-1.43573E-14
 -1        88 5.22763E-03 1.17002E-03-1.63594E-14
 -1        89 5.50568E-03 1.08477E-03-1.84935E-14
 -1        90 5.80864E-03 9.79039E-04-2.07555E-14
 -1        91 6.13419E-03 8.71314E-04-2.31334E-14
 -1        92 6.47486E-03 7.74936E-04-2.56295E-14
 -1        93 6.82197E-03 6.96546E-04-2.82363E-14
 -1        94 7.16833E-03 6.37318E-04-3.09599E-14
 -1        95 7.50920E-03 5.95143E-04-3.37808E-14
 -1        96 7.84221E-03 5.66536E-04-3.67015E-14
 -1        97 8.16671E-03 5.47861E-04-3.97141E-14
 -1        98 8.48310E-03 5.35937E-04-4.28146E-14
 -1        99 8.79234E-03 5.28245E-04-4.59985E-14
 -1       100 9.09559E-03 5.22925E-04-4.92705E-14
 -1       101 9.39402E-03 5.18677E-04-5.26280E-14
 -1       102 9.68867E-03 5.14644E-04-5.60557E-14
 -1       103 9.98045E-03 5.10293E-04-5.95501E-14
 -1       104 1.02701E-02 5.05328E-04-6.30871E-14
 -1       105 1.05582E-02 4.99611E-04-6.66649E-14
 -1       106 1.08452E-02 4.93110E-04-7.02955E-14
 -1       107 1.11315E-02 4.85856E-04-7.39758E-14
 -1       108 1.14173E-02 4.77918E-04-7.76916E-14
 -1       109 1.17027E-02 4.69383E-04-8.14518E-14
 -1       110 1.19881E-02 4.60341E-04-8.52597E-14
 -1       111 1.22734E-02 4.50880E-04-8.90995E-14
 -1       112 1.25586E-02 4.41081E-04-9.29651E-14
 -1       113 1.28439E-02 4.31018E-04-9.68466E-14
 -1       114 1.31293E-02 4.20752E-04-1.00726E-13
 -1       115 1.34147E-02 4.10339E-04-1.04593E-13
 -1       116 1.37002E-02 3.99824E-04-1.08433E-13
 -1       117 1.39857E-02 3.89246E-04-1.12242E-13
 -1       118 1.42714E-02 3.78641E-04-1.16045E-13
 -1       119 1.45570E-02 3.68037E-04-1.19843E-13
 -1       120 1.48427E-02 3.57456E-04-1.23635E-13
 -1       121 1.51245E-02 2.63143E-04-1.27220E-13
 -1       122 1.51349E-02 1.78849E-04-1.27228E-13
 -1       123 1.51452E-02 9.45218E-05-1.27214E-13
 -1       124 1.51555E-02 1.01507E-05-1.27204E-13
 -1       125 1.51659E-02-7.42669E-05-1.27225E-13
 -1       126 1.51761E-02-1.57294E-04-1.27295E-13
 -1       127 1.51866E-02-2.41786E-04-1.27378E-13
 -1       128 1.51972E-02-3.26298E-04-1.27433E-13
 -1       129 1.52078E-02-4.10816E-04-1.27474E-13
 -1       130 1.52185E-02-4.95328E-04-1.27492E-13
 -1       131 1.52293E-02-5.79819E-04-1.27490E-13
 -1       132 1.52400E-02-6.62846E-04-1.27488E-13
 -1       133 1.52509E-02-7.47263E-04-1.27440E-13
 -1       134 1.52618E-02-8.31633E-04-1.27360E-13
 -1       135 1.52727E-02-9.15959E-04-1.27251E-13
 -1       136 1.52837E-02-1.00025E-03-1.27130E-13
 -1       137 7.05651E-03 1.13272E-04-1.88650E-14
 -1       138 6.90180E-03 2.80798E-04-1.85218E-14
 -1       139 6.65489E-03 4.36372E-04-1.79741E-14
 -1       140 6.31819E-03 5.75093E-04-1.72361E-14
 -1       141 5.93887E-03 6.78800E-04-1.64269E-14
 -1       142 5.49495E-03 7.54108E-04-1.54965E-14
 -1       143 5.05107E-03 7.87975E-04-1.45959E-14
 -1       144 4.56454E-03 7.82165E-04-1.36388E-14
 -1       145 4.11742E-03 7.36200E-04-1.27894E-14
 -1       146 3.69633E-03 6.50821E-04-1.20111E-14
 -1       147 3.34931E-03 5.39739E-04-1.13831E-14
 -1       148 3.05046E-03 3.95259E-04-1.08530E-14
 -1       149 2.83648E-03 2.26577E-04-1.04766E-14
 -1       150 2.72821E-03 4.60449E-05-1.02854E-14
 -1       151 2.72450E-03-1.20530E-04-1.02727E-14
 -1       152 2.81442E-03-2.91569E-04-1.04174E-14
 -1       153 2.99955E-03-4.57648E-04-1.07260E-14
 -1       154 3.26494E-03-6.05235E-04-1.11797E-14
 -1       155 4.01601E-03-8.34258E-04-1.25228E-14
 -1       156 4.43905E-03-8.95907E-04-1.33123E-14
 -1       157 4.87877E-03-9.21056E-04-1.41564E-14
 -1       158 5.35283E-03-9.05902E-04-1.51024E-14
 -1       159 5.76787E-03-8.55454E-04-1.59565E-14
 -1       160 6.14523E-03-7.74285E-04-1.67626E-14
 -1       161 6.47900E-03-6.65473E-04-1.75008E-14
 -1       162 6.76537E-03-5.27763E-04-1.81536E-14
 -1       163 6.96107E-03-3.82890E-04-1.86150E-14
 -1       164 7.07884E-03-2.29529E-04-1.88992E-14
 -1       165 2.47795E-04-1.11383E-04-1.64629E-17
 -1       166 2.31270E-04-7.79758E-05-3.70391E-17
 -1       167 2.22586E-04-5.52446E-05-4.89178E-17
 -1       168 2.16357E-04-3.84683E-05-5.59177E-17
 -1       169 2.11621E-04-2.58697E-05-5.95972E-17
 -1       170 2.08100E-04-1.58216E-05-6.17826E-17
 -1       171 2.05968E-04-7.56679E-06-6.29549E-17
 -1       172 2.05312E-04-1.55701E-07-6.34428E-17
 -1       173 2.06153E-04 7.34972E-06-6.33445E-17
 -1       174 2.08424E-04 1.58687E-05-6.22061E-17
 -1       175 2.11929E-04 2.61078E-05-5.99293E-17
 -1       176 2.16709E-04 3.93489E-05-5.57856E-17
 -1       177 2.22862E-04 5.66054E-05-4.89924E-17
 -1       178 2.31399E-04 7.98319E-05-3.72356E-17
 -1       179 2.46640E-04 1.13893E-04-1.68322E-17
 -1       180 3.04750E-04 1.72622E-04 4.76710E-18
 -1       181 4.82610E-04-2.39875E-04-4.69798E-17
 -1       182 7.94604E-04-3.42255E-04-2.18016E-16
 -1       183 1.09702E-03-4.11351E-04-5.08806E-16
 -1       184 1.39839E-03-4.60286E-04-9.20718E-16
 -1       185 1.70314E-03-4.97826E-04-1.45307E-15
 -1       186 2.01404E-03-5.31231E-04-2.10661E-15
 -1       187 2.33271E-03-5.67400E-04-2.88011E-15
 -1       188 2.65956E-03-6.13302E-04-3.77357E-15
 -1       189 2.99358E-03-6.75663E-04-4.78599E-15
 -1       190 3.33198E-03-7.59669E-04-5.91662E-15
 -1       191 3.67003E-03-8.66434E-04-7.16517E-15
 -1       192 4.00158E-03-9.89532E-04-8.53602E-15
 -1       193 4.32092E-03-1.11237E-03-1.00332E-14
 -1       194 4.62575E-03-1.20980E-03-1.16620E-14
 -1       195 4.91991E-03-1.25655E-03-1.34276E-14
 -1       196 5.21278E-03-1.23966E-03-1.53313E-14
 -1       197 5.51472E-03-1.16607E-03-1.73727E-14
 -1       198 5.83171E-03-1.05865E-03-1.95461E-14
 -1       199 6.16337E-03-9.44269E-04-2.18387E-14
 -1       200 6.50479E-03-8.43342E-04-2.42399E-14
 -1       201 6.84975E-03-7.66163E-04-2.67510E-14
 -1       202 7.19293E-03-7.14583E-04-2.93650E-14
 -1       203 7.53081E-03-6.85548E-04-3.20836E-14
 -1       204 7.86159E-03-6.74117E-04-3.49011E-14
 -1       205 8.18478E-03-6.75290E-04-3.78160E-14
 -1       206 8.50071E-03-6.84836E-04-4.08249E-14
 -1       207 8.81016E-03-6.99508E-04-4.39195E-14
 -1       208 9.11408E-03-7.16978E-04-4.70975E-14
 -1       209 9.41345E-03-7.35661E-04-5.03495E-14
 -1       210 9.70918E-03-7.54537E-04-5.36739E-14
 -1       211 1.00021E-02-7.72992E-04-5.70584E-14
 -1       212 1.02928E-02-7.90689E-04-6.04948E-14
 -1       213 1.05818E-02-8.07482E-04-6.39750E-14
 -1       214 1.08697E-02-8.23342E-04-6.74944E-14
 -1       215 1.11567E-02-8.38315E-04-7.10556E-14
 -1       216 1.14431E-02-8.52484E-04-7.46621E-14
 -1       217 1.17291E-02-8.65954E-04-7.83058E-14
 -1       218 1.20149E-02-8.78831E-04-8.19805E-14
 -1       219 1.23005E-02-8.91220E-04-8.56972E-14
 -1       220 1.25860E-02-9.03213E-04-8.94664E-14
 -1       221 1.28714E-02-9.14895E-04-9.32948E-14
 -1       222 1.31569E-02-9.26338E-04-9.71740E-14
 -1       223 1.34424E-02-9.37604E-04-1.01100E-13
 -1       224 1.37280E-02-9.48744E-04-1.05067E-13
 -1       225 1.40135E-02-9.59802E-04-1.09063E-13
 -1       226 1.42992E-02-9.70817E-04-1.13079E-13
 -1       227 1.45848E-02-9.81822E-04-1.17119E-13
 -1       228 1.48705E-02-9.92843E-04-1.21183E-13
 -1       229 6.22639E-04 3.02131E-04-9.47254E-17
 -1       230 9.27285E-04 3.89197E-04-3.12704E-16
 -1       231 1.22673E-03 4.49643E-04-6.53337E-16
 -1       232 1.52713E-03 4.94151E-04-1.11828E-15
 -1       233 1.83201E-03 5.30486E-04-1.70765E-15
 -1       234 2.14333E-03 5.65312E-04-2.41888E-15
 -1       235 2.46176E-03 6.04912E-04-3.24981E-15
 -1       236 2.78665E-03 6.55187E-04-4.19990E-15
 -1       237 3.11578E-03 7.20936E-04-5.26970E-15
 -1       238 3.44528E-03 8.04274E-04-6.46063E-15
 -1       239 3.76994E-03 9.02335E-04-7.77499E-15
 -1       240 4.08443E-03 1.00512E-03-9.21283E-15
 -1       241 4.38543E-03 1.09536E-03-1.07825E-14
 -1       242 4.67393E-03 1.15249E-03-1.24903E-14
 -1       243 4.95605E-03 1.16055E-03-1.43373E-14
 -1       244 5.24098E-03 1.11585E-03-1.63220E-14
 -1       245 5.53689E-03 1.02903E-03-1.84398E-14
 -1       246 5.84755E-03 9.19679E-04-2.06868E-14
 -1       247 6.17173E-03 8.07932E-04-2.30513E-14
 -1       248 6.50490E-03 7.08270E-04-2.55358E-14
 -1       249 6.84164E-03 6.27799E-04-2.81340E-14
 -1       250 7.17732E-03 5.67661E-04-3.08429E-14
 -1       251 7.50874E-03 5.25479E-04-3.36472E-14
 -1       252 7.83417E-03 4.97455E-04-3.65505E-14
 -1       253 8.15305E-03 4.79679E-04-3.95485E-14
 -1       254 8.46557E-03 4.68774E-04-4.26339E-14
 -1       255 8.77233E-03 4.62093E-04-4.58032E-14
 -1       256 9.07417E-03 4.57703E-04-4.90608E-14
 -1       257 9.37192E-03 4.54267E-04-5.24012E-14
 -1       258 9.66640E-03 4.50917E-04-5.58127E-14
 -1       259 9.95832E-03 4.47126E-04-5.92873E-14
 -1       260 1.02483E-02 4.42607E-04-6.28118E-14
 -1       261 1.05368E-02 4.37239E-04-6.63831E-14
 -1       262 1.08243E-02 4.31004E-04-7.00050E-14
 -1       263 1.11110E-02 4.23949E-04-7.36702E-14
 -1       264 1.13971E-02 4.16157E-04-7.73722E-14
 -1       265 1.16830E-02 4.07726E-04-8.11181E-14
 -1       266 1.19686E-02 3.98755E-04-8.49072E-14
 -1       267 1.22541E-02 3.89341E-04-8.87320E-14
 -1       268 1.25396E-02 3.79572E-04-9.25896E-14
 -1       269 1.28251E-02 3.69525E-04-9.64579E-14
 -1       270 1.31105E-02 3.59266E-04-1.00330E-13
 -1       271 1.33960E-02 3.48852E-04-1.04190E-13
 -1       272 1.36816E-02 3.38332E-04-1.08031E-13
 -1       273 1.39671E-02 3.27746E-04-1.11853E-13
 -1       274 1.42528E-02 3.17131E-04-1.15669E-13
 -1       275 1.45384E-02 3.06517E-04-1.19475E-13
 -1       276 1.48241E-02 2.95928E-04-1.23272E-13
 -1       277 1.48823E-02 2.30132E-04-1.23934E-13
 -1       278 1.48926E-02 1.45818E-04-1.23921E-13
 -1       279 1.49029E-02 6.14763E-05-1.23908E-13
 -1       280 1.49133E-02-2.28965E-05-1.23908E-13
 -1       281 1.49235E-02-1.05868E-04-1.23927E-13
 -1       282 1.49339E-02-1.90295E-04-1.23956E-13
 -1       283 1.49444E-02-2.74739E-04-1.23985E-13
 -1       284 1.49550E-02-3.59193E-04-1.24007E-13
 -1       285 1.49656E-02-4.43647E-04-1.24016E-13
 -1       286 1.49764E-02-5.28091E-04-1.24003E-13
 -1       287 1.49871E-02-6.11087E-04-1.23977E-13
 -1       288 1.49980E-02-6.95489E-04-1.23928E-13
 -1       289 1.50089E-02-7.79862E-04-1.23855E-13
 -1       290 1.50198E-02-8.64203E-04-1.23756E-13
 -1       291 1.49452E-02-9.28530E-04-1.22473E-13
 -1       292 7.12235E-03-2.66246E-05-2.00354E-14
 -1       293 6.96974E-03 8.75046E-05-1.96111E-14
 -1       294 6.70599E-03 2.23917E-04-1.90602E-14
 -1       295 6.34403E-03 3.83313E-04-1.83603E-14
 -1       296 5.97208E-03 5.71892E-04-1.73212E-14
 -1       297 5.57083E-03 7.31750E-04-1.63126E-14
 -1       298 5.20238E-03 8.36214E-04-1.51780E-14
 -1       299 4.82586E-03 8.67684E-04-1.40808E-14
 -1       300 4.44129E-03 8.06238E-04-1.30336E-14
 -1       301 4.06746E-03 6.76514E-04-1.20601E-14
 -1       302 3.69687E-03 4.99528E-04-1.12008E-14
 -1       303 3.31639E-03 3.31256E-04-1.06004E-14
 -1       304 2.99043E-03 1.68846E-04-1.00628E-14
 -1       305 2.76400E-03 5.12368E-05-9.78602E-15
 -1       306 2.68818E-03-4.01116E-05-9.74871E-15
 -1       307 2.74721E-03-1.31152E-04-9.78203E-15
 -1       308 2.93611E-03-2.50666E-04-1.00639E-14
 -1       309 3.22618E-03-3.96613E-04-1.04805E-14
 -1       310 3.59920E-03-5.62081E-04-1.10177E-14
 -1       311 3.97514E-03-7.49477E-04-1.18268E-14
 -1       312 4.35210E-03-8.94436E-04-1.26820E-14
 -1       313 4.71377E-03-9.80440E-04-1.36234E-14
 -1       314 5.08053E-03-9.97377E-04-1.46781E-14
 -1       315 5.45123E-03-9.21263E-04-1.57415E-14
 -1       316 5.80656E-03-7.96360E-04-1.67391E-14
 -1       317 6.16207E-03-6.39518E-04-1.76764E-14
 -1       318 6.50118E-03-4.62754E-04-1.86254E-14
 -1       319 6.80977E-03-3.26136E-04-1.92138E-14
 -1       320 7.02082E-03-2.10626E-04-1.96759E-14
 -1       321 7.13087E-03-1.16283E-04-1.99155E-14
 -1       322 4.65091E-04-1.32171E-04-1.67306E-16
 -1       323 4.89613E-04-1.82266E-04-1.32459E-16
 -1       324 4.34836E-04-6.56736E-05-2.03518E-16
 -1       325 4.24970E-04-4.28038E-05-2.11884E-16
 -1       326 4.18308E-04-2.41550E-05-2.17050E-16
 -1       327 4.15057E-04-7.93367E-06-2.19480E-16
 -1       328 4.15337E-04 7.61382E-06-2.20015E-16
 -1       329 4.19085E-04 2.42118E-05-2.17881E-16
 -1       330 4.25925E-04 4.31863E-05-2.12880E-16
 -1       331 4.35858E-04 6.68492E-05-2.04243E-16
 -1       332 4.48833E-04 9.67686E-05-1.90484E-16
 -1       333 4.65848E-04 1.35453E-04-1.68431E-16
 -1       334 4.91054E-04 1.87250E-04-1.33794E-16
 -1       335 5.49807E-04 2.40442E-04-1.20892E-16
 -1       336 8.55764E-04 3.28627E-04-3.43431E-16
 -1       337 8.96036E-04-3.06235E-04-4.32410E-16
 -1       338 1.19833E-03-3.62108E-04-8.03340E-16
 -1       339 1.50092E-03-4.02722E-04-1.29226E-15
 -1       340 1.80611E-03-4.35299E-04-1.89916E-15
 -1       341 2.11584E-03-4.66645E-04-2.62404E-15
 -1       342 2.43167E-03-5.03677E-04-3.46610E-15
 -1       343 2.75471E-03-5.53515E-04-4.42510E-15
 -1       344 3.08532E-03-6.22916E-04-5.49987E-15
 -1       345 3.42259E-03-7.16600E-04-6.69146E-15
 -1       346 3.76350E-03-8.34112E-04-8.00147E-15
 -1       347 4.10253E-03-9.65433E-04-9.43398E-15
 -1       348 4.43342E-03-1.08804E-03-1.09953E-14
 -1       349 4.75351E-03-1.17068E-03-1.26925E-14
 -1       350 5.06756E-03-1.18731E-03-1.45289E-14
 -1       351 5.38532E-03-1.13360E-03-1.65028E-14
 -1       352 5.71389E-03-1.03017E-03-1.86129E-14
 -1       353 6.05286E-03-9.08854E-04-2.08516E-14
 -1       354 6.39659E-03-7.96453E-04-2.32029E-14
 -1       355 6.73899E-03-7.07567E-04-2.56653E-14
 -1       356 7.07610E-03-6.46093E-04-2.82337E-14
 -1       357 7.40629E-03-6.09592E-04-3.09028E-14
 -1       358 7.72934E-03-5.93032E-04-3.36741E-14
 -1       359 8.04573E-03-5.91027E-04-3.65409E-14
 -1       360 8.35622E-03-5.98883E-04-3.94998E-14
 -1       361 8.66162E-03-6.12921E-04-4.25506E-14
 -1       362 8.96273E-03-6.30453E-04-4.56837E-14
 -1       363 9.26029E-03-6.49621E-04-4.88931E-14
 -1       364 9.55496E-03-6.69206E-04-5.21744E-14
 -1       365 9.84733E-03-6.88457E-04-5.55206E-14
 -1       366 1.01379E-02-7.06951E-04-5.89271E-14
 -1       367 1.04270E-02-7.24489E-04-6.23852E-14
 -1       368 1.07151E-02-7.41014E-04-6.58832E-14
 -1       369 1.10024E-02-7.56560E-04-6.94239E-14
 -1       370 1.12891E-02-7.71212E-04-7.30092E-14
 -1       371 1.15754E-02-7.85077E-04-7.66363E-14
 -1       372 1.18614E-02-7.98272E-04-8.03021E-14
 -1       373 1.21472E-02-8.10910E-04-8.40023E-14
 -1       374 1.24330E-02-8.23096E-04-8.77459E-14
 -1       375 1.27186E-02-8.34923E-04-9.15413E-14
 -1       376 1.30042E-02-8.46472E-04-9.53910E-14
 -1       377 1.32898E-02-8.57810E-04-9.92839E-14
 -1       378 1.35754E-02-8.68996E-04-1.03216E-13
 -1       379 1.38610E-02-8.80079E-04-1.07186E-13
 -1       380 1.41467E-02-8.91101E-04-1.11181E-13
 -1       381 1.44323E-02-9.02096E-04-1.15204E-13
 -1       382 1.46887E-02-9.15302E-04-1.18831E-13
 -1       383 1.15828E-03 3.90504E-04-6.84630E-16
 -1       384 1.46030E-03 4.35461E-04-1.14675E-15
 -1       385 1.76472E-03 4.71172E-04-1.73105E-15
 -1       386 2.07356E-03 5.04369E-04-2.43573E-15
 -1       387 2.38801E-03 5.41460E-04-3.25829E-15
 -1       388 2.70834E-03 5.88606E-04-4.19925E-15
 -1       389 3.03380E-03 6.51128E-04-5.25818E-15
 -1       390 3.36229E-03 7.32072E-04-6.43746E-15
 -1       391 3.69027E-03 8.29877E-04-7.73784E-15
 -1       392 4.01319E-03 9.35766E-04-9.16114E-15
 -1       393 4.32707E-03 1.03266E-03-1.07148E-14
 -1       394 4.63098E-03 1.09828E-03-1.24049E-14
 -1       395 4.92885E-03 1.11361E-03-1.42338E-14
 -1       396 5.22816E-03 1.07250E-03-1.62008E-14
 -1       397 5.53582E-03 9.85267E-04-1.83011E-14
 -1       398 5.85448E-03 8.73148E-04-2.05309E-14
 -1       399 6.18225E-03 7.58084E-04-2.28835E-14
 -1       400 6.51481E-03 6.55674E-04-2.53542E-14
 -1       401 6.84778E-03 5.73372E-04-2.79405E-14
 -1       402 7.17791E-03 5.12248E-04-3.06335E-14
 -1       403 7.50327E-03 4.69721E-04-3.34230E-14
 -1       404 7.82304E-03 4.41787E-04-3.63097E-14
 -1       405 8.13710E-03 4.24373E-04-3.92911E-14
 -1       406 8.44581E-03 4.13977E-04-4.23603E-14
 -1       407 8.74974E-03 4.07865E-04-4.55142E-14
 -1       408 9.04959E-03 4.04043E-04-4.87561E-14
 -1       409 9.34602E-03 4.01140E-04-5.20817E-14
 -1       410 9.63970E-03 3.98267E-04-5.54787E-14
 -1       411 9.93119E-03 3.94886E-04-5.89387E-14
 -1       412 1.02210E-02 3.90712E-04-6.24502E-14
 -1       413 1.05095E-02 3.85626E-04-6.60097E-14
 -1       414 1.07970E-02 3.79618E-04-6.96209E-14
 -1       415 1.10839E-02 3.72742E-04-7.32762E-14
 -1       416 1.13703E-02 3.65087E-04-7.69674E-14
 -1       417 1.16563E-02 3.56759E-04-8.07009E-14
 -1       418 1.19421E-02 3.47864E-04-8.44730E-14
 -1       419 1.22278E-02 3.38506E-04-8.82882E-14
 -1       420 1.25133E-02 3.28775E-04-9.21362E-14
 -1       421 1.27989E-02 3.18752E-04-9.59965E-14
 -1       422 1.30845E-02 3.08509E-04-9.98619E-14
 -1       423 1.33700E-02 2.98102E-04-1.03715E-13
 -1       424 1.36556E-02 2.87584E-04-1.07558E-13
 -1       425 1.39412E-02 2.76996E-04-1.11388E-13
 -1       426 1.42269E-02 2.66375E-04-1.15212E-13
 -1       427 1.45125E-02 2.55753E-04-1.19028E-13
 -1       428 1.46974E-02 2.42935E-04-1.21481E-13
 -1       429 1.46606E-02 2.84901E-05-1.20591E-13
 -1       430 1.46503E-02 1.12831E-04-1.20607E-13
 -1       431 1.46739E-02 1.77889E-04-1.21045E-13
 -1       432 1.46708E-02-5.44432E-05-1.20579E-13
 -1       433 1.46812E-02-1.38825E-04-1.20573E-13
 -1       434 1.46917E-02-2.23221E-04-1.20570E-13
 -1       435 1.47022E-02-3.07626E-04-1.20564E-13
 -1       436 1.47128E-02-3.92033E-04-1.20556E-13
 -1       437 1.47235E-02-4.76438E-04-1.20537E-13
 -1       438 1.47342E-02-5.59404E-04-1.20501E-13
 -1       439 1.47450E-02-6.43786E-04-1.20440E-13
 -1       440 1.47560E-02-7.28149E-04-1.20368E-13
 -1       441 1.47669E-02-8.12490E-04-1.20278E-13
 -1       442 6.82865E-03 8.40948E-05-2.03824E-14
 -1       443 7.16259E-03-7.74188E-05-2.11473E-14
 -1       444 7.05918E-03-1.20694E-05-2.10059E-14
 -1       445 6.50685E-03 2.26857E-04-1.96064E-14
 -1       446 6.06318E-03 4.45812E-04-1.84948E-14
 -1       447 4.47882E-04-9.45108E-05-1.89508E-16
 -1       448 5.31790E-03 8.17354E-04-1.59085E-14
 -1       449 5.00881E-03 8.92885E-04-1.47123E-14
 -1       450 4.65314E-03 8.74476E-04-1.33823E-14
 -1       451 4.33209E-03 7.64756E-04-1.23358E-14
 -1       452 3.96639E-03 5.81999E-04-1.12720E-14
 -1       453 3.52777E-03 3.49631E-04-1.02757E-14
 -1       454 3.19876E-03 1.96405E-04-9.75574E-15
 -1       455 2.85663E-03 6.02301E-05-9.36457E-15
 -1       456 2.68432E-03-1.82959E-05-9.04674E-15
 -1       457 2.68485E-03-6.57816E-05-9.19278E-15
 -1       458 2.83561E-03-1.40651E-04-9.37290E-15
 -1       459 3.10074E-03-2.53646E-04-9.74176E-15
 -1       460 3.43905E-03-4.05165E-04-1.01985E-14
 -1       461 3.88692E-03-6.33871E-04-1.09939E-14
 -1       462 4.23640E-03-8.21836E-04-1.19017E-14
 -1       463 4.58214E-03-9.69932E-04-1.29265E-14
 -1       464 4.86557E-03-1.03100E-03-1.39465E-14
 -1       465 5.25384E-03-9.89119E-04-1.54471E-14
 -1       466 5.56942E-03-8.67740E-04-1.65537E-14
 -1       467 5.91401E-03-6.93618E-04-1.77329E-14
 -1       468 6.25580E-03-5.14492E-04-1.87457E-14
 -1       469 6.65226E-03-3.10389E-04-2.00719E-14
 -1       470 6.88775E-03-2.13642E-04-2.05533E-14
 -1       471 7.09906E-03-1.29145E-04-2.08730E-14
 -1       472 5.73342E-03 6.23409E-04-1.74348E-14
 -1       473 9.62356E-04 2.91269E-04-5.76213E-16
 -1       474 6.38872E-04-5.00872E-05-4.57181E-16
 -1       475 6.52968E-04-8.04614E-05-4.44418E-16
 -1       476 6.27905E-04-3.70325E-07-4.67173E-16
 -1       477 6.31423E-04 2.37302E-05-4.65485E-16
 -1       478 6.40472E-04 4.99611E-05-4.59021E-16
 -1       479 6.54881E-04 8.14114E-05-4.46729E-16
 -1       480 6.74175E-04 1.19817E-04-4.27132E-16
 -1       481 6.98680E-04 1.67439E-04-3.97136E-16
 -1       482 6.30490E-03 2.99610E-04-2.00497E-14
 -1       483 1.26158E-03 3.40563E-04-9.95833E-16
 -1       484 1.00395E-03-2.68516E-04-6.74943E-16
 -1       485 5.49512E-03 7.41702E-04-1.70181E-14
 -1       486 1.30052E-03-3.11984E-04-1.12164E-15
 -1       487 1.59870E-03-3.44896E-04-1.68434E-15
 -1       488 1.89948E-03-3.72965E-04-2.36237E-15
 -1       489 2.20452E-03-4.02339E-04-3.15631E-15
 -1       490 2.51597E-03-4.39672E-04-4.06428E-15
 -1       491 2.83637E-03-4.92127E-04-5.08561E-15
 -1       492 3.16818E-03-5.66855E-04-6.22005E-15
 -1       493 3.51238E-03-6.69255E-04-7.47045E-15
 -1       494 3.86612E-03-7.98838E-04-8.84010E-15
 -1       495 4.22112E-03-9.42024E-04-1.03327E-14
 -1       496 4.56724E-03-1.06635E-03-1.19582E-14
 -1       497 4.90165E-03-1.12871E-03-1.37242E-14
 -1       498 5.23393E-03-1.10340E-03-1.56315E-14
 -1       499 5.57633E-03-1.00417E-03-1.76795E-14
 -1       500 5.93020E-03-8.72409E-04-1.98617E-14
 -1       501 6.28666E-03-7.46544E-04-2.21654E-14
 -1       502 6.63606E-03-6.46595E-04-2.45797E-14
 -1       503 6.97374E-03-5.77180E-04-2.71012E-14
 -1       504 7.29957E-03-5.35091E-04-2.97257E-14
 -1       505 7.61556E-03-5.14570E-04-3.24491E-14
 -1       506 7.92407E-03-5.09813E-04-3.52689E-14
 -1       507 8.22707E-03-5.15877E-04-3.81835E-14
 -1       508 8.52602E-03-5.28893E-04-4.11866E-14
 -1       509 8.82191E-03-5.45997E-04-4.42765E-14
 -1       510 9.11545E-03-5.65163E-04-4.74440E-14
 -1       511 9.40716E-03-5.85028E-04-5.06825E-14
 -1       512 9.69742E-03-6.04726E-04-5.39910E-14
 -1       513 9.98654E-03-6.23747E-04-5.73637E-14
 -1       514 1.02748E-02-6.41828E-04-6.07933E-14
 -1       515 1.05623E-02-6.58874E-04-6.42709E-14
 -1       516 1.08493E-02-6.74895E-04-6.77899E-14
 -1       517 1.11359E-02-6.89963E-04-7.13535E-14
 -1       518 1.14222E-02-7.04183E-04-7.49637E-14
 -1       519 1.17082E-02-7.17673E-04-7.86152E-14
 -1       520 1.19941E-02-7.30551E-04-8.23049E-14
 -1       521 1.22800E-02-7.42927E-04-8.60288E-14
 -1       522 1.25657E-02-7.54902E-04-8.97955E-14
 -1       523 1.28514E-02-7.66561E-04-9.36128E-14
 -1       524 1.31371E-02-7.77981E-04-9.74780E-14
 -1       525 1.34228E-02-7.89223E-04-1.01378E-13
 -1       526 1.37085E-02-8.00339E-04-1.05316E-13
 -1       527 1.39941E-02-8.11375E-04-1.09290E-13
 -1       528 1.42798E-02-8.22368E-04-1.13288E-13
 -1       529 1.86507E-03 4.08898E-04-2.18946E-15
 -1       530 2.17212E-03 4.40244E-04-2.96192E-15
 -1       531 2.48472E-03 4.77997E-04-3.85040E-15
 -1       532 2.80414E-03 5.28298E-04-4.85481E-15
 -1       533 3.13098E-03 5.96438E-04-5.97616E-15
 -1       534 3.46437E-03 6.85126E-04-7.21571E-15
 -1       535 3.80102E-03 7.91479E-04-8.57609E-15
 -1       536 4.13517E-03 9.03323E-04-1.00604E-14
 -1       537 4.46102E-03 9.97775E-04-1.16782E-14
 -1       538 4.77755E-03 1.04708E-03-1.34342E-14
 -1       539 5.09094E-03 1.03263E-03-1.53294E-14
 -1       540 5.41012E-03 9.57656E-04-1.73615E-14
 -1       541 5.73951E-03 8.44748E-04-1.95271E-14
 -1       542 6.07640E-03 7.21964E-04-2.18204E-14
 -1       543 6.41470E-03 6.09951E-04-2.42349E-14
 -1       544 6.74913E-03 5.18898E-04-2.67654E-14
 -1       545 7.07696E-03 4.50753E-04-2.94032E-14
 -1       546 7.39762E-03 4.03003E-04-3.21400E-14
 -1       547 7.71169E-03 3.71438E-04-3.49727E-14
 -1       548 8.02010E-03 3.51709E-04-3.78997E-14
 -1       549 8.32381E-03 3.40027E-04-4.09163E-14
 -1       550 8.62367E-03 3.33392E-04-4.40195E-14
 -1       551 8.92039E-03 3.29577E-04-4.72080E-14
 -1       552 9.21456E-03 3.27021E-04-5.04873E-14
 -1       553 9.50669E-03 3.24687E-04-5.38444E-14
 -1       554 9.79718E-03 3.21935E-04-5.72618E-14
 -1       555 1.00864E-02 3.18404E-04-6.07378E-14
 -1       556 1.03746E-02 3.13929E-04-6.42643E-14
 -1       557 1.06621E-02 3.08475E-04-6.78426E-14
 -1       558 1.09490E-02 3.02082E-04-7.14673E-14
 -1       559 1.12354E-02 2.94837E-04-7.51354E-14
 -1       560 1.15216E-02 2.86848E-04-7.88390E-14
 -1       561 1.18076E-02 2.78228E-04-8.25792E-14
 -1       562 1.20934E-02 2.69086E-04-8.63661E-14
 -1       563 1.23791E-02 2.59523E-04-9.01912E-14
 -1       564 1.26648E-02 2.49627E-04-9.40373E-14
 -1       565 1.29505E-02 2.39475E-04-9.78859E-14
 -1       566 1.32361E-02 2.29133E-04-1.01736E-13
 -1       567 1.35218E-02 2.18654E-04-1.05583E-13
 -1       568 1.38074E-02 2.08085E-04-1.09423E-13
 -1       569 1.40931E-02 1.97465E-04-1.13262E-13
 -1       570 1.43788E-02 1.86829E-04-1.17093E-13
 -1       571 1.44285E-02-8.73715E-05-1.17211E-13
 -1       572 1.44389E-02-1.71730E-04-1.17184E-13
 -1       573 1.44080E-02 7.98812E-05-1.17273E-13
 -1       574 1.44183E-02-3.73822E-06-1.17242E-13
 -1       575 1.44494E-02-2.56096E-04-1.17159E-13
 -1       576 1.44600E-02-3.40466E-04-1.17128E-13
 -1       577 1.44707E-02-4.24835E-04-1.17091E-13
 -1       578 1.44813E-02-5.07771E-04-1.17043E-13
 -1       579 1.44921E-02-5.92131E-04-1.16979E-13
 -1       580 1.45030E-02-6.76479E-04-1.16901E-13
 -1       581 1.45140E-02-7.60813E-04-1.16811E-13
 -1       582 7.16791E-03-5.88353E-05-2.23908E-14
 -1       583 6.68126E-03 1.22601E-04-2.10313E-14
 -1       584 1.56207E-03 3.77726E-04-1.53340E-15
 -1       585 7.17438E-03-9.91073E-05-2.23674E-14
 -1       586 6.96703E-03 1.19057E-05-2.19508E-14
 -1       587 7.30040E-04-2.04533E-04-3.77946E-16
 -1       588 6.41906E-03-4.10027E-04-2.02246E-14
 -1       589 4.41569E-03-9.07611E-04-1.20327E-14
 -1       590 3.76267E-03 4.66530E-04-1.02631E-14
 -1       591 6.30406E-04-2.41812E-05-4.64540E-16
 -1       592 4.84768E-03 9.19330E-04-1.40639E-14
 -1       593 2.72986E-03 8.33916E-06-8.48835E-15
 -1       594 5.13870E-03 8.84459E-04-1.53977E-14
 -1       595 4.49871E-03 8.38908E-04-1.26024E-14
 -1       596 4.18899E-03 6.95825E-04-1.15153E-14
 -1       597 3.32862E-03 2.45836E-04-9.34428E-15
 -1       598 5.43234E-03-9.34312E-04-1.64426E-14
 -1       599 2.97427E-03 9.43478E-05-8.84818E-15
 -1       600 2.64173E-03-4.31913E-05-8.49086E-15
 -1       601 2.72553E-03-8.47258E-05-8.66019E-15
 -1       602 2.94849E-03-1.64685E-04-8.95019E-15
 -1       603 3.23981E-03-2.83713E-04-9.26524E-15
 -1       604 3.64840E-03-4.86379E-04-9.96053E-15
 -1       605 4.12296E-03-7.52090E-04-1.11216E-14
 -1       606 4.73862E-03-1.02872E-03-1.32816E-14
 -1       607 5.05773E-03-1.05011E-03-1.47263E-14
 -1       608 5.71509E-03-7.90663E-04-1.76217E-14
 -1       609 6.12541E-03-5.62750E-04-1.91640E-14
 -1       610 6.82635E-03-2.30322E-04-2.16703E-14
 -1       611 7.04346E-03-1.47967E-04-2.20205E-14
 -1       612 5.88649E-03 5.30433E-04-1.87725E-14
 -1       613 7.26870E-04 2.47847E-04-3.15350E-16
 -1       614 6.72265E-04-1.17527E-04-4.24397E-16
 -1       615 2.62424E-03-1.80248E-05-7.94349E-15
 -1       616 1.44732E-02-8.31464E-04-1.16011E-13
 -1       617 8.54879E-04 4.73161E-05-7.95218E-16
 -1       618 8.45328E-04 1.45396E-05-8.01327E-16
 -1       619 8.96872E-04 1.28247E-04-7.57874E-16
 -1       620 9.27887E-04 1.81114E-04-7.22258E-16
 -1       621 5.94467E-03-6.87448E-04-1.90333E-14
 -1       622 1.07054E-03 2.51989E-04-8.37221E-16
 -1       623 1.39910E-03-2.62120E-04-1.46435E-15
 -1       624 1.68977E-03-2.87881E-04-2.09737E-15
 -1       625 1.98300E-03-3.11248E-04-2.84427E-15
 -1       626 2.28073E-03-3.37560E-04-3.70370E-15
 -1       627 2.58617E-03-3.73039E-04-4.67357E-15
 -1       628 2.90391E-03-4.25140E-04-5.75432E-15
 -1       629 3.23903E-03-5.02683E-04-6.94698E-15
 -1       630 3.59532E-03-6.14745E-04-8.25364E-15
 -1       631 3.96879E-03-7.62962E-04-9.67845E-15
 -1       632 4.34659E-03-9.28103E-04-1.12301E-14
 -1       633 5.06818E-03-1.08337E-03-1.47518E-14
 -1       634 5.42716E-03-9.95783E-04-1.67361E-14
 -1       635 5.80019E-03-8.47940E-04-1.88601E-14
 -1       636 6.17509E-03-7.01657E-04-2.11132E-14
 -1       637 6.53751E-03-5.88082E-04-2.34816E-14
 -1       638 6.87996E-03-5.11825E-04-2.59571E-14
 -1       639 7.20382E-03-4.66419E-04-2.85362E-14
 -1       640 7.51370E-03-4.43899E-04-3.12150E-14
 -1       641 7.81425E-03-4.37561E-04-3.39897E-14
 -1       642 8.10905E-03-4.42269E-04-3.68571E-14
 -1       643 8.40043E-03-4.54192E-04-3.98153E-14
 -1       644 8.68982E-03-4.70511E-04-4.28607E-14
 -1       645 8.97805E-03-4.89203E-04-4.59873E-14
 -1       646 9.26557E-03-5.08865E-04-4.91875E-14
 -1       647 9.55263E-03-5.28568E-04-5.24571E-14
 -1       648 9.83937E-03-5.47738E-04-5.57944E-14
 -1       649 1.01259E-02-5.66056E-04-5.91937E-14
 -1       650 1.04122E-02-5.83383E-04-6.26461E-14
 -1       651 1.06984E-02-5.99696E-04-6.61444E-14
 -1       652 1.09844E-02-6.15045E-04-6.96862E-14
 -1       653 1.12704E-02-6.29522E-04-7.32761E-14
 -1       654 1.15563E-02-6.43237E-04-7.69125E-14
 -1       655 1.18421E-02-6.56308E-04-8.05880E-14
 -1       656 1.21279E-02-6.68844E-04-8.42980E-14
 -1       657 1.24137E-02-6.80949E-04-8.80442E-14
 -1       658 1.26995E-02-6.92711E-04-9.18291E-14
 -1       659 1.29852E-02-7.04208E-04-9.56657E-14
 -1       660 1.32709E-02-7.15506E-04-9.95397E-14
 -1       661 1.35566E-02-7.26660E-04-1.03451E-13
 -1       662 1.38424E-02-7.37716E-04-1.07398E-13
 -1       663 1.41281E-02-7.48713E-04-1.11372E-13
 -1       664 2.26118E-03 3.74909E-04-3.50261E-15
 -1       665 1.41223E-02 9.05367E-05-1.13424E-13
 -1       666 1.95790E-03 3.46142E-04-2.66357E-15
 -1       667 2.89180E-03 4.63591E-04-5.51929E-15
 -1       668 3.22415E-03 5.35975E-04-6.69979E-15
 -1       669 3.56860E-03 6.32942E-04-7.99666E-15
 -1       670 3.92055E-03 7.51446E-04-9.41311E-15
 -1       671 4.27080E-03 8.74502E-04-1.09576E-14
 -1       672 4.60945E-03 9.67164E-04-1.26384E-14
 -1       673 4.93837E-03 9.92207E-04-1.44609E-14
 -1       674 5.26949E-03 9.35490E-04-1.64241E-14
 -1       675 5.61229E-03 8.19121E-04-1.85262E-14
 -1       676 5.96381E-03 6.84047E-04-2.07620E-14
 -1       677 6.31524E-03 5.59651E-04-2.31223E-14
 -1       678 6.65754E-03 4.60206E-04-2.55980E-14
 -1       679 6.98742E-03 3.86985E-04-2.81811E-14
 -1       680 7.30560E-03 3.36095E-04-3.08669E-14
 -1       681 7.61446E-03 3.02435E-04-3.36449E-14
 -1       682 7.91653E-03 2.81233E-04-3.65167E-14
 -1       683 8.21387E-03 2.68544E-04-3.94847E-14
 -1       684 8.50796E-03 2.61296E-04-4.25373E-14
 -1       685 8.79980E-03 2.57201E-04-4.56748E-14
 -1       686 9.09004E-03 2.54628E-04-4.89019E-14
 -1       687 9.37913E-03 2.52468E-04-5.22136E-14
 -1       688 9.66736E-03 2.50014E-04-5.55948E-14
 -1       689 9.95494E-03 2.46848E-04-5.90348E-14
 -1       690 1.02420E-02 2.42763E-04-6.25284E-14
 -1       691 1.05287E-02 2.37690E-04-6.60698E-14
 -1       692 1.08152E-02 2.31652E-04-6.96637E-14
 -1       693 1.11014E-02 2.24724E-04-7.33047E-14
 -1       694 1.13874E-02 2.17009E-04-7.69846E-14
 -1       695 1.16734E-02 2.08619E-04-8.06978E-14
 -1       696 1.19592E-02 1.99667E-04-8.44566E-14
 -1       697 1.22450E-02 1.90256E-04-8.82559E-14
 -1       698 1.25307E-02 1.80479E-04-9.20809E-14
 -1       699 1.28165E-02 1.70417E-04-9.59160E-14
 -1       700 1.31022E-02 1.60140E-04-9.97587E-14
 -1       701 1.33879E-02 1.49705E-04-1.03603E-13
 -1       702 1.36736E-02 1.39161E-04-1.07449E-13
 -1       703 1.38979E-02 1.14864E-04-1.10436E-13
 -1       704 1.42072E-02-2.88935E-04-1.13735E-13
 -1       705 1.43210E-02-7.54764E-04-1.14082E-13
 -1       706 1.41863E-02-1.20268E-04-1.13829E-13
 -1       707 1.42179E-02-3.73270E-04-1.13683E-13
 -1       708 1.41967E-02-2.04600E-04-1.13785E-13
 -1       709 6.17764E-03 3.94092E-04-2.04893E-14
 -1       710 1.42284E-02-4.56175E-04-1.13619E-13
 -1       711 1.42392E-02-5.40508E-04-1.13549E-13
 -1       712 1.42501E-02-6.24836E-04-1.13465E-13
 -1       713 1.42856E-02-6.89802E-04-1.13775E-13
 -1       714 4.23659E-03-8.44801E-04-1.10156E-14
 -1       715 3.84001E-03-6.17658E-04-9.86585E-15
 -1       716 7.14336E-03-3.47330E-05-2.35400E-14
 -1       717 6.86192E-03 6.54186E-05-2.27678E-14
 -1       718 8.81442E-04-1.91883E-04-6.19506E-16
 -1       719 2.77743E-03-1.11344E-04-8.08664E-15
 -1       720 2.78810E-03 4.67784E-05-7.99833E-15
 -1       721 4.33442E-03 7.96258E-04-1.16851E-14
 -1       722 1.65936E-03 3.19652E-04-1.93956E-15
 -1       723 2.57156E-03 4.11941E-04-4.45405E-15
 -1       724 1.13890E-03-2.30785E-04-9.97029E-16
 -1       725 3.38282E-03-3.69782E-04-8.88877E-15
 -1       726 6.55098E-03 1.98435E-04-2.17440E-14
 -1       727 5.66225E-03 6.86188E-04-1.82889E-14
 -1       728 5.33761E-03 8.38510E-04-1.65971E-14
 -1       729 8.72366E-04 8.43990E-05-7.81100E-16
 -1       730 8.69275E-04-8.40841E-05-7.77424E-16
 -1       731 4.65418E-03 9.10766E-04-1.30802E-14
 -1       732 3.49954E-03 3.61675E-04-9.15724E-15
 -1       733 7.25958E-03-8.28492E-05-2.40616E-14
 -1       734 2.99849E-03-1.92510E-04-8.37956E-15
 -1       735 3.96811E-03 6.08860E-04-1.04198E-14
 -1       736 3.06404E-03 1.57444E-04-8.32725E-15
 -1       737 2.62573E-03-5.91625E-05-7.88715E-15
 -1       738 4.88951E-03-1.07419E-03-1.38475E-14
 -1       739 4.57464E-03-9.97466E-04-1.23805E-14
 -1       740 1.36387E-03 2.89940E-04-1.33060E-15
 -1       741 5.00710E-03 9.27179E-04-1.48471E-14
 -1       742 5.60905E-03-8.76304E-04-1.75422E-14
 -1       743 6.29270E-03-5.03227E-04-2.05582E-14
 -1       744 6.66332E-03-3.30486E-04-2.21255E-14
 -1       745 8.93575E-04-1.26290E-04-7.53097E-16
 -1       746 8.44541E-04-1.64355E-05-8.00395E-16
 -1       747 1.41760E-02-3.66540E-05-1.13872E-13
 -1       748 7.17110E-03-1.21158E-04-2.34260E-14
 -1       749 4.71344E-03-1.05619E-03-1.29194E-14
 -1       750 2.63936E-03 1.28754E-05-7.46852E-15
 -1       751 5.28215E-03-1.02329E-03-1.59028E-14
 -1       752 5.95103E-03 5.60258E-04-1.99723E-14
 -1       753 8.52661E-04-4.83296E-05-7.92857E-16
 -1       754 2.54888E-03-3.46650E-05-7.35697E-15
 -1       755 6.97562E-03-2.17997E-04-2.36403E-14
 -1       756 7.08179E-03-1.62285E-04-2.35371E-14
 -1       757 1.15241E-03 1.80859E-04-1.14140E-15
 -1       758 5.13919E-03 9.31857E-04-1.56140E-14
 -1       759 3.52569E-03-4.94729E-04-8.63805E-15
 -1       760 1.77348E-03-2.32015E-04-2.53137E-15
 -1       761 2.05634E-03-2.50063E-04-3.34359E-15
 -1       762 2.34336E-03-2.71486E-04-4.26472E-15
 -1       763 2.63889E-03-3.01975E-04-5.29425E-15
 -1       764 2.94974E-03-3.49614E-04-6.43241E-15
 -1       765 6.47900E-03 2.91725E-04-2.25055E-14
 -1       766 6.46972E-03-5.11095E-04-2.23893E-14
 -1       767 6.81592E-03-4.29912E-04-2.48211E-14
 -1       768 7.13429E-03-3.86005E-04-2.73570E-14
 -1       769 7.43412E-03-3.65824E-04-2.99938E-14
 -1       770 7.72307E-03-3.60886E-04-3.27239E-14
 -1       771 8.00646E-03-3.65893E-04-3.55474E-14
 -1       772 8.28750E-03-3.77384E-04-3.84595E-14
 -1       773 8.56798E-03-3.92946E-04-4.14627E-14
 -1       774 8.84879E-03-4.10837E-04-4.45460E-14
 -1       775 9.13033E-03-4.29803E-04-4.77088E-14
 -1       776 9.41266E-03-4.48974E-04-5.09421E-14
 -1       777 9.69576E-03-4.67779E-04-5.42429E-14
 -1       778 9.97951E-03-4.85878E-04-5.76078E-14
 -1       779 1.02638E-02-5.03098E-04-6.10323E-14
 -1       780 1.05485E-02-5.19384E-04-6.45098E-14
 -1       781 1.08335E-02-5.34759E-04-6.80312E-14
 -1       782 1.11188E-02-5.49294E-04-7.15987E-14
 -1       783 1.14042E-02-5.63083E-04-7.52181E-14
 -1       784 1.16898E-02-5.76232E-04-7.88792E-14
 -1       785 1.19754E-02-5.88845E-04-8.25753E-14
 -1       786 1.22611E-02-6.01020E-04-8.63061E-14
 -1       787 1.25468E-02-6.12843E-04-9.00664E-14
 -1       788 1.28325E-02-6.24391E-04-9.38722E-14
 -1       789 1.31183E-02-6.35728E-04-9.77201E-14
 -1       790 1.34040E-02-6.46911E-04-1.01604E-13
 -1       791 1.36898E-02-6.57983E-04-1.05526E-13
 -1       792 1.39755E-02-6.68984E-04-1.09476E-13
 -1       793 2.04253E-03 2.82461E-04-3.15518E-15
 -1       794 3.30743E-03 4.66917E-04-7.42717E-15
 -1       795 2.96769E-03 3.91158E-04-6.19247E-15
 -1       796 4.04582E-03 7.23782E-04-1.02423E-14
 -1       797 5.47622E-03 8.12310E-04-1.75197E-14
 -1       798 6.57850E-03 3.93579E-04-2.44342E-14
 -1       799 6.91223E-03 3.17472E-04-2.69652E-14
 -1       800 7.22813E-03 2.66460E-04-2.95980E-14
 -1       801 7.53106E-03 2.33322E-04-3.23268E-14
 -1       802 7.82559E-03 2.12411E-04-3.51485E-14
 -1       803 8.11511E-03 1.99654E-04-3.80601E-14
 -1       804 8.40191E-03 1.92115E-04-4.10637E-14
 -1       805 8.68735E-03 1.87670E-04-4.41542E-14
 -1       806 8.97225E-03 1.84794E-04-4.73293E-14
 -1       807 9.25701E-03 1.82429E-04-5.05927E-14
 -1       808 9.54185E-03 1.79875E-04-5.39321E-14
 -1       809 9.82684E-03 1.76703E-04-5.73350E-14
 -1       810 1.01120E-02 1.72682E-04-6.07967E-14
 -1       811 1.03973E-02 1.67720E-04-6.43092E-14
 -1       812 1.06828E-02 1.61817E-04-6.78679E-14
 -1       813 1.09683E-02 1.55034E-04-7.14781E-14
 -1       814 1.12539E-02 1.47461E-04-7.51363E-14
 -1       815 1.15396E-02 1.39204E-04-7.88271E-14
 -1       816 1.18253E-02 1.30369E-04-8.25587E-14
 -1       817 1.21110E-02 1.21060E-04-8.63297E-14
 -1       818 1.23967E-02 1.11368E-04-9.01285E-14
 -1       819 1.26825E-02 1.01375E-04-9.39477E-14
 -1       820 1.29682E-02 9.11505E-05-9.77791E-14
 -1       821 1.32540E-02 8.07535E-05-1.01623E-13
 -1       822 1.35397E-02 7.02332E-05-1.05470E-13
 -1       823 1.06845E-03 3.60735E-05-1.21797E-15
 -1       824 1.39863E-02-4.88907E-04-1.10152E-13
 -1       825 1.39651E-02-3.21739E-04-1.10302E-13
 -1       826 6.86666E-03-3.13615E-04-2.40880E-14
 -1       827 1.39972E-02-5.73208E-04-1.10066E-13
 -1       828 1.39756E-02-4.05322E-04-1.10230E-13
 -1       829 6.98990E-03 2.26193E-05-2.33547E-14
 -1       830 1.75071E-03 2.61412E-04-2.36556E-15
 -1       831 3.18321E-03 2.66134E-04-7.97933E-15
 -1       832 3.06906E-03-2.65293E-04-7.79475E-15
 -1       833 7.30476E-03-1.10193E-04-2.52457E-14
 -1       834 3.66656E-03 5.75458E-04-8.77600E-15
 -1       835 1.25501E-03 2.32373E-04-1.23926E-15
 -1       836 7.32110E-03-5.89010E-05-2.57494E-14
 -1       837 6.76112E-03 1.52308E-04-2.35546E-14
 -1       838 2.80180E-03 1.00172E-04-7.32591E-15
 -1       839 1.49254E-03-2.12974E-04-1.83086E-15
 -1       840 2.85312E-03-1.70214E-04-7.52451E-15
 -1       841 2.61192E-03-8.22755E-05-7.21421E-15
 -1       842 6.16149E-03-6.33522E-04-2.06048E-14
 -1       843 6.52249E-03-4.51013E-04-2.23183E-14
 -1       844 7.23074E-03-1.94804E-05-2.55605E-14
 -1       845 1.06110E-03-1.67286E-06-1.22177E-15
 -1       846 1.39336E-02-6.91979E-05-1.10495E-13
 -1       847 2.51585E-03-9.26815E-06-6.90034E-15
 -1       848 1.11581E-03 1.25085E-04-1.17950E-15
 -1       849 3.18204E-03-3.88128E-04-7.38042E-15
 -1       850 1.24051E-03-1.89893E-04-1.30165E-15
 -1       851 6.95550E-03 6.93675E-05-2.42399E-14
 -1       852 2.34003E-03 3.06973E-04-4.05733E-15
 -1       853 7.15677E-03-2.26018E-04-2.58063E-14
 -1       854 2.64682E-03 3.40771E-04-5.06952E-15
 -1       855 6.22452E-03 5.03066E-04-2.20100E-14
 -1       856 1.37641E-02 4.59455E-05-1.08457E-13
 -1       857 1.39440E-02-1.53499E-04-1.10436E-13
 -1       858 1.08715E-03 7.73288E-05-1.20449E-15
 -1       859 1.39545E-02-2.37619E-04-1.10373E-13
 -1       860 7.42875E-03-8.71068E-05-2.69702E-14
 -1       861 1.50281E-03 2.49351E-04-1.75758E-15
 -1       862 7.22769E-03-1.75936E-04-2.57073E-14
 -1       863 1.11074E-03-1.24099E-04-1.17368E-15
 -1       864 1.39158E-02 2.28361E-05-1.10463E-13
 -1       865 2.63252E-03 5.84582E-05-6.82028E-15
 -1       866 6.33905E-03 3.99607E-04-2.22621E-14
 -1       867 1.08297E-03-7.85776E-05-1.20025E-15
 -1       868 3.26310E-03 3.69882E-04-7.71095E-15
 -1       869 2.48861E-03-5.32186E-05-6.70851E-15
 -1       870 7.27395E-03-1.38978E-04-2.54800E-14
 -1       871 2.59898E-03-1.26154E-04-6.49862E-15
 -1       872 2.11929E-03-1.89922E-04-3.85901E-15
 -1       873 2.39003E-03-2.04666E-04-4.84006E-15
 -1       874 2.66720E-03-2.26844E-04-5.92715E-15
 -1       875 6.99528E-03 1.21826E-04-2.56588E-14
 -1       876 7.09466E-03-3.00896E-04-2.61750E-14
 -1       877 7.37582E-03-2.87256E-04-2.87694E-14
 -1       878 7.64737E-03-2.86525E-04-3.14564E-14
 -1       879 7.91561E-03-2.93404E-04-3.42346E-14
 -1       880 8.18384E-03-3.05132E-04-3.71063E-14
 -1       881 8.45368E-03-3.20007E-04-4.00634E-14
 -1       882 8.72577E-03-3.36805E-04-4.31064E-14
 -1       883 9.00023E-03-3.54596E-04-4.62295E-14
 -1       884 9.27693E-03-3.72680E-04-4.94284E-14
 -1       885 9.55559E-03-3.90561E-04-5.26962E-14
 -1       886 9.83590E-03-4.07920E-04-5.60267E-14
 -1       887 1.01176E-02-4.24574E-04-5.94191E-14
 -1       888 1.04003E-02-4.40442E-04-6.28698E-14
 -1       889 1.06839E-02-4.55519E-04-6.63740E-14
 -1       890 1.09681E-02-4.69849E-04-6.99212E-14
 -1       891 1.12528E-02-4.83503E-04-7.35205E-14
 -1       892 1.15379E-02-4.96569E-04-7.71674E-14
 -1       893 1.18232E-02-5.09135E-04-8.08510E-14
 -1       894 1.21087E-02-5.21287E-04-8.45670E-14
 -1       895 1.23943E-02-5.33104E-04-8.83110E-14
 -1       896 1.26800E-02-5.44654E-04-9.20893E-14
 -1       897 1.29657E-02-5.55999E-04-9.59078E-14
 -1       898 1.32515E-02-5.67188E-04-9.97644E-14
 -1       899 1.35372E-02-5.78265E-04-1.03655E-13
 -1       900 1.37672E-02-5.75758E-04-1.06854E-13
 -1       901 7.41315E-03-3.92394E-05-2.75424E-14
 -1       902 6.86003E-03 2.40072E-04-2.57563E-14
 -1       903 7.74722E-03 1.44929E-04-3.37896E-14
 -1       904 8.02671E-03 1.33464E-04-3.66512E-14
 -1       905 8.30445E-03 1.26256E-04-3.96027E-14
 -1       906 8.58206E-03 1.21577E-04-4.26449E-14
 -1       907 8.86038E-03 1.18206E-04-4.57724E-14
 -1       908 9.13976E-03 1.15278E-04-4.89860E-14
 -1       909 9.42028E-03 1.12200E-04-5.22797E-14
 -1       910 9.70189E-03 1.08591E-04-5.56421E-14
 -1       911 9.98446E-03 1.04235E-04-5.90685E-14
 -1       912 1.02678E-02 9.90307E-05-6.25501E-14
 -1       913 1.05518E-02 9.29657E-05-6.60813E-14
 -1       914 1.08363E-02 8.60817E-05-6.96632E-14
 -1       915 1.11212E-02 7.84544E-05-7.32935E-14
 -1       916 1.14064E-02 7.01757E-05-7.69624E-14
 -1       917 1.16918E-02 6.13419E-05-8.06698E-14
 -1       918 1.19773E-02 5.20463E-05-8.44131E-14
 -1       919 1.22629E-02 4.23754E-05-8.81876E-14
 -1       920 1.25486E-02 3.24056E-05-9.19836E-14
 -1       921 1.28343E-02 2.22032E-05-9.58005E-14
 -1       922 1.31201E-02 1.18246E-05-9.96346E-14
 -1       923 1.34059E-02 1.31686E-06-1.03487E-13
 -1       924 1.37563E-02-4.91489E-04-1.06946E-13
 -1       925 1.83534E-03 2.02930E-04-2.81094E-15
 -1       926 7.46313E-03 1.63206E-04-3.10176E-14
 -1       927 7.16974E-03 1.92477E-04-2.83379E-14
 -1       928 2.85500E-03 1.91164E-04-6.81563E-15
 -1       929 2.92663E-03 3.02297E-04-6.46195E-15
 -1       930 1.06605E-03-3.88029E-05-1.21598E-15
 -1       931 2.86622E-03-2.40238E-04-6.83205E-15
 -1       932 1.58121E-03-1.64963E-04-2.22099E-15
 -1       933 1.85033E-03-1.77742E-04-2.98602E-15
 -1       934 7.26776E-03 2.31625E-05-2.70209E-14
 -1       935 1.29863E-03 6.25214E-05-1.71457E-15
 -1       936 2.41079E-03-2.82103E-05-6.27552E-15
 -1       937 1.37153E-03 1.70398E-04-1.65187E-15
 -1       938 1.37456E-02-4.07941E-04-1.07034E-13
 -1       939 2.11767E-03 2.17488E-04-3.66367E-15
 -1       940 2.61467E-03 2.62187E-04-5.32197E-15
 -1       941 1.28105E-03 1.81973E-05-1.72526E-15
 -1       942 1.36303E-02-2.29625E-05-1.06474E-13
 -1       943 1.34485E-03-1.45673E-04-1.65648E-15
 -1       944 1.37350E-02-3.24399E-04-1.07119E-13
 -1       945 1.36913E-02-1.02091E-04-1.07111E-13
 -1       946 2.47649E-03 2.76009E-05-6.27996E-15
 -1       947 7.43637E-03-1.24821E-04-2.73194E-14
 -1       948 1.30793E-03-9.40109E-05-1.69128E-15
 -1       949 1.37244E-02-2.40322E-04-1.07202E-13
 -1       950 1.59551E-03 1.96744E-04-2.14721E-15
 -1       951 2.44091E-03-8.70316E-05-6.02411E-15
 -1       952 7.38865E-03-1.94288E-04-2.77962E-14
 -1       953 2.67205E-03 1.36210E-04-6.33319E-15
 -1       954 7.38007E-03-2.38838E-04-2.82859E-14
 -1       955 1.66726E-03-1.18647E-04-2.63272E-15
 -1       956 7.49134E-03-4.04057E-06-2.91744E-14
 -1       957 1.27922E-03-2.34405E-05-1.72398E-15
 -1       958 2.41977E-03-1.40429E-04-5.42824E-15
 -1       959 7.63579E-03-2.42446E-04-3.09563E-14
 -1       960 7.89200E-03-2.51408E-04-3.37180E-14
 -1       961 8.15103E-03-2.63724E-04-3.65714E-14
 -1       962 8.41372E-03-2.78308E-04-3.95109E-14
 -1       963 8.68018E-03-2.94357E-04-4.25369E-14
 -1       964 8.95019E-03-3.11205E-04-4.56452E-14
 -1       965 9.22336E-03-3.28316E-04-4.88293E-14
 -1       966 9.49925E-03-3.45284E-04-5.20840E-14
 -1       967 9.77740E-03-3.61835E-04-5.54022E-14
 -1       968 1.00574E-02-3.77801E-04-5.87819E-14
 -1       969 1.03389E-02-3.93102E-04-6.22215E-14
 -1       970 1.06215E-02-4.07722E-04-6.57177E-14
 -1       971 1.09050E-02-4.21691E-04-6.92600E-14
 -1       972 1.11893E-02-4.35066E-04-7.28531E-14
 -1       973 1.14740E-02-4.47920E-04-7.64926E-14
 -1       974 1.17590E-02-4.60328E-04-8.01721E-14
 -1       975 1.20444E-02-4.72365E-04-8.38842E-14
 -1       976 1.23299E-02-4.84099E-04-8.76202E-14
 -1       977 1.26155E-02-4.95592E-04-9.13913E-14
 -1       978 1.29012E-02-5.06897E-04-9.51956E-14
 -1       979 1.31870E-02-5.18060E-04-9.90371E-14
 -1       980 1.34727E-02-5.29119E-04-1.02915E-13
 -1       981 1.37079E-02-1.71207E-04-1.07159E-13
 -1       982 8.21413E-03 6.42361E-05-3.81570E-14
 -1       983 7.94767E-03 7.05230E-05-3.52545E-14
 -1       984 8.75309E-03 5.54153E-05-4.42312E-14
 -1       985 9.02627E-03 5.15796E-05-4.73938E-14
 -1       986 9.30182E-03 4.75434E-05-5.06390E-14
 -1       987 9.57949E-03 4.30384E-05-5.39627E-14
 -1       988 9.85897E-03 3.79011E-05-5.73498E-14
 -1       989 1.01400E-02 3.20483E-05-6.07977E-14
 -1       990 1.04222E-02 2.54639E-05-6.42966E-14
 -1       991 1.07053E-02 1.81756E-05-6.78522E-14
 -1       992 1.09893E-02 1.02427E-05-7.14556E-14
 -1       993 1.12738E-02 1.73982E-06-7.51026E-14
 -1       994 1.15587E-02-7.25397E-06-7.87846E-14
 -1       995 1.18439E-02-1.66600E-05-8.25055E-14
 -1       996 1.21293E-02-2.64044E-05-8.62571E-14
 -1       997 1.24149E-02-3.64209E-05-9.00309E-14
 -1       998 1.27006E-02-4.66513E-05-9.38238E-14
 -1       999 1.29863E-02-5.70463E-05-9.76465E-14
 -1      1000 1.32721E-02-6.75641E-05-1.01492E-13
 -1      1001 1.32975E-03 1.12509E-04-1.69064E-15
 -1      1002 7.57778E-03-1.05179E-04-2.90557E-14
 -1      1003 7.59643E-03-5.72592E-05-2.96530E-14
 -1      1004 7.41988E-03-1.54609E-04-2.75568E-14
 -1      1005 7.68169E-03 7.93947E-05-3.24411E-14
 -1      1006 8.48241E-03 5.94525E-05-4.11503E-14
 -1      1007 2.36208E-03 2.36440E-04-4.45577E-15
 -1      1008 1.48742E-03-1.06654E-04-2.13659E-15
 -1      1009 1.34817E-02-8.48055E-05-1.04298E-13
 -1      1010 1.92246E-03-1.26145E-04-3.45821E-15
 -1      1011 7.20950E-03 1.03411E-04-2.76864E-14
 -1      1012 1.28864E-03-5.74699E-05-1.71165E-15
 -1      1013 2.17318E-03-1.32802E-04-4.39113E-15
 -1      1014 2.65282E-03 1.99942E-04-5.82465E-15
 -1      1015 2.32385E-03-5.65325E-05-5.62087E-15
 -1      1016 1.50602E-03 4.18721E-05-2.30818E-15
 -1      1017 1.35035E-02-4.40257E-04-1.03605E-13
 -1      1018 2.49017E-03 9.09978E-05-5.81822E-15
 -1      1019 1.54313E-03 1.32093E-04-2.19576E-15
 -1      1020 2.33244E-03 2.83367E-06-5.68791E-15
 -1      1021 1.34982E-02-1.53889E-04-1.04338E-13
 -1      1022 7.58699E-03-1.31321E-04-2.93064E-14
 -1      1023 1.34822E-02-2.73018E-04-1.03794E-13
 -1      1024 7.44746E-03 8.86694E-05-3.00276E-14
 -1      1025 1.51961E-03 8.45464E-05-2.25723E-15
 -1      1026 7.62544E-03-2.01597E-04-3.04502E-14
 -1      1027 7.46938E-03 3.95946E-05-2.96039E-14
 -1      1028 1.91319E-03 1.44718E-04-3.27489E-15
 -1      1029 7.60902E-03-1.64223E-04-2.98801E-14
 -1      1030 1.34928E-02-3.56769E-04-1.03702E-13
 -1      1031 1.32507E-02-3.89059E-04-1.00299E-13
 -1      1032 7.86840E-03-2.12120E-04-3.31944E-14
 -1      1033 8.11781E-03-2.24638E-04-3.60298E-14
 -1      1034 8.37331E-03-2.38633E-04-3.89533E-14
 -1      1035 8.63424E-03-2.53687E-04-4.19610E-14
 -1      1036 8.89993E-03-2.69368E-04-4.50542E-14
 -1      1037 9.16971E-03-2.85298E-04-4.82244E-14
 -1      1038 9.44292E-03-3.01152E-04-5.14658E-14
 -1      1039 9.71898E-03-3.16708E-04-5.47739E-14
 -1      1040 9.99735E-03-3.31817E-04-5.81420E-14
 -1      1041 1.02776E-02-3.46400E-04-6.15702E-14
 -1      1042 1.05593E-02-3.60433E-04-6.50576E-14
 -1      1043 1.08421E-02-3.73930E-04-6.85953E-14
 -1      1044 1.11258E-02-3.86934E-04-7.21812E-14
 -1      1045 1.14101E-02-3.99502E-04-7.58155E-14
 -1      1046 1.16950E-02-4.11692E-04-7.94889E-14
 -1      1047 1.19801E-02-4.23567E-04-8.31955E-14
 -1      1048 1.22655E-02-4.35182E-04-8.69295E-14
 -1      1049 1.25511E-02-4.46591E-04-9.06911E-14
 -1      1050 1.28368E-02-4.57837E-04-9.44842E-14
 -1      1051 1.31225E-02-4.68959E-04-9.83116E-14
 -1      1052 9.45862E-03-1.95754E-05-5.22970E-14
 -1      1053 1.34902E-02-2.13458E-04-1.04067E-13
 -1      1054 8.12852E-03 6.86164E-06-3.67227E-14
 -1      1055 2.24998E-03-9.18765E-05-4.99454E-15
 -1      1056 1.49285E-03-4.09499E-06-2.31353E-15
 -1      1057 9.18515E-03-1.37031E-05-4.90177E-14
 -1      1058 8.91489E-03-8.26607E-06-4.58212E-14
 -1      1059 9.73480E-03-2.59544E-05-5.56475E-14
 -1      1060 1.00132E-02-3.28894E-05-5.90559E-14
 -1      1061 1.02934E-02-4.03857E-05-6.25200E-14
 -1      1062 1.05751E-02-4.84180E-05-6.60440E-14
 -1      1063 1.08580E-02-5.69472E-05-6.96211E-14
 -1      1064 1.11416E-02-6.59143E-05-7.32433E-14
 -1      1065 1.14260E-02-7.52632E-05-7.69057E-14
 -1      1066 1.17108E-02-8.49350E-05-8.06021E-14
 -1      1067 1.19960E-02-9.48739E-05-8.43310E-14
 -1      1068 1.22814E-02-1.05029E-04-8.80860E-14
 -1      1069 1.25669E-02-1.15357E-04-9.18620E-14
 -1      1070 1.28526E-02-1.25818E-04-9.56608E-14
 -1      1071 1.31383E-02-1.36381E-04-9.94895E-14
 -1      1072 1.75532E-03-7.49555E-05-3.06297E-15
 -1      1073 7.77170E-03-9.59759E-05-3.15998E-14
 -1      1074 1.33183E-02-1.45122E-04-1.01910E-13
 -1      1075 1.32400E-02-3.05384E-04-1.00398E-13
 -1      1076 7.87578E-03 1.22122E-05-3.38657E-14
 -1      1077 8.64837E-03-3.13152E-06-4.27035E-14
 -1      1078 8.38610E-03 1.85315E-06-3.96684E-14
 -1      1079 2.14112E-03 1.54383E-04-4.02615E-15
 -1      1080 7.71348E-03-2.62454E-05-3.15201E-14
 -1      1081 1.49665E-03-3.99418E-05-2.30516E-15
 -1      1082 2.46565E-03 1.47423E-04-5.33630E-15
 -1      1083 1.70875E-03 1.75475E-05-2.98232E-15
 -1      1084 2.31097E-03 5.39405E-05-5.25608E-15
 -1      1085 1.99509E-03-7.89257E-05-3.94689E-15
 -1      1086 1.32479E-02-2.45885E-04-1.00675E-13
 -1      1087 2.20368E-03-2.61558E-05-5.07118E-15
 -1      1088 1.97826E-03 8.97903E-05-3.72086E-15
 -1      1089 7.70324E-03-1.28974E-04-3.07431E-14
 -1      1090 7.83796E-03-1.75204E-04-3.26053E-14
 -1      1091 7.67392E-03 2.47603E-05-3.17081E-14
 -1      1092 2.41851E-03 1.92504E-04-4.89141E-15
 -1      1093 1.72067E-03 6.02137E-05-2.93239E-15
 -1      1094 8.28955E-03-5.07842E-05-3.81963E-14
 -1      1095 8.07751E-03-1.87257E-04-3.54200E-14
 -1      1096 8.32596E-03-2.00214E-04-3.83259E-14
 -1      1097 8.58154E-03-2.13957E-04-4.13176E-14
 -1      1098 8.84310E-03-2.28208E-04-4.43908E-14
 -1      1099 9.10964E-03-2.42727E-04-4.75457E-14
 -1      1100 9.38030E-03-2.57267E-04-5.07729E-14
 -1      1101 9.65434E-03-2.71642E-04-5.40680E-14
 -1      1102 9.93113E-03-2.85729E-04-5.74253E-14
 -1      1103 1.02101E-02-2.99444E-04-6.08417E-14
 -1      1104 1.04909E-02-3.12761E-04-6.43197E-14
 -1      1105 1.07730E-02-3.25677E-04-6.78511E-14
 -1      1106 1.10562E-02-3.38218E-04-7.14287E-14
 -1      1107 1.13402E-02-3.50424E-04-7.50566E-14
 -1      1108 1.16247E-02-3.62336E-04-7.87233E-14
 -1      1109 1.19097E-02-3.74001E-04-8.24255E-14
 -1      1110 1.21950E-02-3.85462E-04-8.61560E-14
 -1      1111 1.24805E-02-3.96757E-04-8.99093E-14
 -1      1112 1.27661E-02-4.07924E-04-9.36903E-14
 -1      1113 1.30084E-02-3.98542E-04-9.69810E-14
 -1      1114 9.88677E-03-9.55855E-05-5.73246E-14
 -1      1115 9.33793E-03-7.90833E-05-5.06451E-14
 -1      1116 9.06835E-03-7.13895E-05-4.74117E-14
 -1      1117 1.01651E-02-1.04385E-04-6.07510E-14
 -1      1118 1.04452E-02-1.13515E-04-6.42396E-14
 -1      1119 1.07270E-02-1.22947E-04-6.77877E-14
 -1      1120 1.10098E-02-1.32635E-04-7.13866E-14
 -1      1121 1.12935E-02-1.42556E-04-7.50246E-14
 -1      1122 1.15779E-02-1.52670E-04-7.86991E-14
 -1      1123 1.18628E-02-1.62944E-04-8.24057E-14
 -1      1124 1.21480E-02-1.73349E-04-8.61402E-14
 -1      1125 1.24334E-02-1.83858E-04-8.99010E-14
 -1      1126 1.27190E-02-1.94448E-04-9.36848E-14
 -1      1127 1.30047E-02-2.05102E-04-9.74950E-14
 -1      1128 1.29977E-02-3.14967E-04-9.70874E-14
 -1      1129 1.73605E-03-3.62009E-05-3.08168E-15
 -1      1130 2.23420E-03 9.80428E-05-4.66558E-15
 -1      1131 9.61086E-03-8.71408E-05-5.39538E-14
 -1      1132 8.04343E-03-4.48360E-05-3.52949E-14
 -1      1133 8.80329E-03-6.40994E-05-4.42570E-14
 -1      1134 1.94586E-03 4.10168E-05-3.78571E-15
 -1      1135 8.54332E-03-5.72170E-05-4.11846E-14
 -1      1136 7.94716E-03-6.64324E-05-3.39683E-14
 -1      1137 2.13988E-03 1.69452E-05-4.67424E-15
 -1      1138 2.09736E-03-5.12022E-05-4.49625E-15
 -1      1139 7.98928E-03-1.22439E-04-3.42542E-14
 -1      1140 1.94274E-03-1.92809E-05-3.88015E-15
 -1      1141 8.21002E-03-1.42533E-04-3.69081E-14
 -1      1142 8.45750E-03-1.53587E-04-3.98591E-14
 -1      1143 8.71286E-03-1.65133E-04-4.28911E-14
 -1      1144 8.97445E-03-1.77045E-04-4.60090E-14
 -1      1145 9.24124E-03-1.89238E-04-4.92008E-14
 -1      1146 9.51215E-03-2.01439E-04-5.24706E-14
 -1      1147 9.78641E-03-2.13653E-04-5.57987E-14
 -1      1148 1.00634E-02-2.25766E-04-5.91894E-14
 -1      1149 1.03426E-02-2.37736E-04-6.26402E-14
 -1      1150 1.06236E-02-2.49568E-04-6.61556E-14
 -1      1151 1.09059E-02-2.61218E-04-6.97183E-14
 -1      1152 1.11892E-02-2.72727E-04-7.33276E-14
 -1      1153 1.14733E-02-2.84096E-04-7.69790E-14
 -1      1154 1.17579E-02-2.95347E-04-8.06660E-14
 -1      1155 1.20430E-02-3.06497E-04-8.43863E-14
 -1      1156 1.23283E-02-3.17564E-04-8.81339E-14
 -1      1157 1.26138E-02-3.28565E-04-9.18970E-14
 -1      1158 1.28057E-02-3.21795E-04-9.44815E-14
 -1      1159 9.21544E-03-1.35469E-04-4.90036E-14
 -1      1160 1.05959E-02-1.87643E-04-6.59592E-14
 -1      1161 0.00000E+00 0.00000E+00 0.00000E+00
 -1      1162 0.00000E+00 0.00000E+00 0.00000E+00
 -1      1163 0.00000E+00 0.00000E+00 0.00000E+00
 -1      1164 0.00000E+00 0.00000E+00 0.00000E+00
 -1      1165 0.00000E+00 0.00000E+00 0.00000E+00
 -1      1166 0.00000E+00 0.00000E+00 0.00000E+00
 -1      1167 0.00000E+00 0.00000E+00 0.00000E+00
 -1      1168 0.00000E+00 0.00000E+00 0.00000E+00
 -1      1169 0.00000E+00 0.00000E+00 0.00000E+00
 -1      1170 0.00000E+00 0.00000E+00 0.00000E+00
 -1      1171 0.00000E+00 0.00000E+00 0.00000E+00
 -1      1172 0.00000E+00 0.00000E+00 0.00000E+00
 -1      1173 0.00000E+00 0.00000E+00 0.00000E+00
 -1      1174 0.00000E+00 0.00000E+00 0.00000E+00
 -1      1175 0.00000E+00 0.00000E+00 0.00000E+00
 -1      1176 0.00000E+00 0.00000E+00 0.00000E+00
 -1      1177 0.00000E+00 0.00000E+00 0.00000E+00
 -1      1178 2.11754E-04-1.43332E-04 2.20364E-17
 -1      1179 5.59076E-04-3.17150E-04-7.61652E-18
 -1      1180 8.56064E-04-4.22939E-04-1.47790E-16
 -1      1181 1.14769E-03-4.91695E-04-4.17594E-16
 -1      1182 1.44228E-03-5.40201E-04-8.12948E-16
 -1      1183 1.74432E-03-5.78035E-04-1.33080E-15
 -1      1184 2.05668E-03-6.12376E-04-1.97126E-15
 -1      1185 2.38086E-03-6.49892E-04-2.73443E-15
 -1      1186 2.71672E-03-6.97335E-04-3.62164E-15
 -1      1187 3.06195E-03-7.61211E-04-4.63068E-15
 -1      1188 3.41128E-03-8.46421E-04-5.75893E-15
 -1      1189 3.75622E-03-9.53685E-04-7.00710E-15
 -1      1190 4.08624E-03-1.07616E-03-8.37572E-15
 -1      1191 4.39209E-03-1.19722E-03-9.87205E-15
 -1      1192 4.67104E-03-1.29246E-03-1.15016E-14
 -1      1193 4.93078E-03-1.33803E-03-1.32666E-14
 -1      1194 5.18801E-03-1.32192E-03-1.51697E-14
 -1      1195 5.46099E-03-1.25056E-03-1.72103E-14
 -1      1196 5.76099E-03-1.14541E-03-1.93795E-14
 -1      1197 6.08859E-03-1.03227E-03-2.16675E-14
 -1      1198 6.43627E-03-9.31379E-04-2.40678E-14
 -1      1199 6.79356E-03-8.53367E-04-2.65750E-14
 -1      1200 7.15123E-03-8.00479E-04-2.91838E-14
 -1      1201 7.50303E-03-7.69936E-04-3.18990E-14
 -1      1202 7.84572E-03-7.56966E-04-3.47169E-14
 -1      1203 8.17832E-03-7.56667E-04-3.76309E-14
 -1      1204 8.50123E-03-7.64867E-04-4.06412E-14
 -1      1205 8.81560E-03-7.78351E-04-4.37397E-14
 -1      1206 9.12279E-03-7.94803E-04-4.69232E-14
 -1      1207 9.42419E-03-8.12639E-04-5.01816E-14
 -1      1208 9.72106E-03-8.30826E-04-5.35071E-14
 -1      1209 1.00145E-02-8.48731E-04-5.68935E-14
 -1      1210 1.03053E-02-8.65999E-04-6.03350E-14
 -1      1211 1.05942E-02-8.82464E-04-6.38207E-14
 -1      1212 1.08818E-02-8.98078E-04-6.73434E-14
 -1      1213 1.11685E-02-9.12870E-04-7.09075E-14
 -1      1214 1.14545E-02-9.26910E-04-7.45080E-14
 -1      1215 1.17402E-02-9.40290E-04-7.81469E-14
 -1      1216 1.20256E-02-9.53107E-04-8.18196E-14
 -1      1217 1.23109E-02-9.65456E-04-8.55306E-14
 -1      1218 1.25962E-02-9.77427E-04-8.93029E-14
 -1      1219 1.28815E-02-9.89097E-04-9.31347E-14
 -1      1220 1.31668E-02-1.00054E-03-9.70179E-14
 -1      1221 1.34522E-02-1.01180E-03-1.00956E-13
 -1      1222 1.37376E-02-1.02295E-03-1.04940E-13
 -1      1223 1.40232E-02-1.03401E-03-1.08947E-13
 -1      1224 1.43087E-02-1.04503E-03-1.12966E-13
 -1      1225 1.45944E-02-1.05604E-03-1.17006E-13
 -1      1226 1.48801E-02-1.06707E-03-1.21069E-13
 -1      1227 1.51587E-02-1.07785E-03-1.25062E-13
 -1      1228 2.28266E-04 1.55633E-04 2.53432E-17
 -1      1229 5.61023E-04 3.22264E-04-6.93889E-18
 -1      1230 8.56450E-04 4.26362E-04-1.52195E-16
 -1      1231 1.14727E-03 4.95413E-04-4.25807E-16
 -1      1232 1.44055E-03 5.44745E-04-8.26853E-16
 -1      1233 1.74049E-03 5.83527E-04-1.35463E-15
 -1      1234 2.04950E-03 6.18654E-04-2.00779E-15
 -1      1235 2.36853E-03 6.56330E-04-2.78217E-15
 -1      1236 2.69693E-03 7.02474E-04-3.67742E-15
 -1      1237 3.03202E-03 7.62305E-04-4.69469E-15
 -1      1238 3.36868E-03 8.39091E-04-5.83499E-15
 -1      1239 3.69948E-03 9.32093E-04-7.09759E-15
 -1      1240 4.01591E-03 1.03425E-03-8.48381E-15
 -1      1241 4.31128E-03 1.13114E-03-9.99960E-15
 -1      1242 4.58443E-03 1.20318E-03-1.16516E-14
 -1      1243 4.84221E-03 1.23208E-03-1.34455E-14
 -1      1244 5.09803E-03 1.20883E-03-1.53771E-14
 -1      1245 5.36649E-03 1.13822E-03-1.74439E-14
 -1      1246 5.65716E-03 1.03658E-03-1.96428E-14
 -1      1247 5.97162E-03 9.24323E-04-2.19634E-14
 -1      1248 6.30479E-03 8.18567E-04-2.44004E-14
 -1      1249 6.64857E-03 7.29483E-04-2.69495E-14
 -1      1250 6.99507E-03 6.60513E-04-2.96116E-14
 -1      1251 7.33844E-03 6.10560E-04-3.23836E-14
 -1      1252 7.67519E-03 5.76299E-04-3.52566E-14
 -1      1253 8.00384E-03 5.53826E-04-3.82229E-14
 -1      1254 8.32425E-03 5.39557E-04-4.12763E-14
 -1      1255 8.63709E-03 5.30577E-04-4.44184E-14
 -1      1256 8.94340E-03 5.24695E-04-4.76459E-14
 -1      1257 9.24432E-03 5.20357E-04-5.09601E-14
 -1      1258 9.54094E-03 5.16518E-04-5.43511E-14
 -1      1259 9.83423E-03 5.12518E-04-5.78149E-14
 -1      1260 1.01250E-02 5.07973E-04-6.13299E-14
 -1      1261 1.04139E-02 5.02690E-04-6.48808E-14
 -1      1262 1.07015E-02 4.96601E-04-6.84813E-14
 -1      1263 1.09882E-02 4.89720E-04-7.21358E-14
 -1      1264 1.12743E-02 4.82106E-04-7.58361E-14
 -1      1265 1.15599E-02 4.73845E-04-7.95770E-14
 -1      1266 1.18454E-02 4.65028E-04-8.33628E-14
 -1      1267 1.21307E-02 4.55748E-04-8.71891E-14
 -1      1268 1.24160E-02 4.46092E-04-9.10385E-14
 -1      1269 1.27013E-02 4.36138E-04-9.49090E-14
 -1      1270 1.29866E-02 4.25952E-04-9.87854E-14
 -1      1271 1.32720E-02 4.15594E-04-1.02655E-13
 -1      1272 1.35574E-02 4.05114E-04-1.06509E-13
 -1      1273 1.38430E-02 3.94553E-04-1.10334E-13
 -1      1274 1.41285E-02 3.83951E-04-1.14144E-13
 -1      1275 1.44142E-02 3.73337E-04-1.17949E-13
 -1      1276 1.46999E-02 3.62740E-04-1.21741E-13
 -1      1277 1.49784E-02 3.52435E-04-1.25436E-13
 -1      1278 1.51194E-02 3.05280E-04-1.27226E-13
 -1      1279 1.51297E-02 2.20993E-04-1.27226E-13
 -1      1280 1.51400E-02 1.36683E-04-1.27225E-13
 -1      1281 1.51504E-02 5.23338E-05-1.27205E-13
 -1      1282 1.51607E-02-3.20607E-05-1.27209E-13
 -1      1283 1.51710E-02-1.15783E-04-1.27253E-13
 -1      1284 1.51813E-02-1.99542E-04-1.27339E-13
 -1      1285 1.51918E-02-2.84043E-04-1.27409E-13
 -1      1286 1.52024E-02-3.68557E-04-1.27452E-13
 -1      1287 1.52131E-02-4.53071E-04-1.27483E-13
 -1      1288 1.52239E-02-5.37572E-04-1.27487E-13
 -1      1289 1.52346E-02-6.21330E-04-1.27491E-13
 -1      1290 1.52454E-02-7.05052E-04-1.27469E-13
 -1      1291 1.52563E-02-7.89446E-04-1.27403E-13
 -1      1292 1.52673E-02-8.73794E-04-1.27306E-13
 -1      1293 1.52782E-02-9.58104E-04-1.27189E-13
 -1      1294 1.52890E-02-1.04168E-03-1.27072E-13
 -1      1295 7.13781E-03 8.29574E-06-1.89679E-14
 -1      1296 7.01267E-03 1.62907E-04-1.87302E-14
 -1      1297 6.78585E-03 3.18353E-04-1.82913E-14
 -1      1298 6.46803E-03 4.76418E-04-1.76570E-14
 -1      1299 6.09383E-03 6.21141E-04-1.68891E-14
 -1      1300 5.68339E-03 7.37519E-04-1.60227E-14
 -1      1301 5.25437E-03 8.11987E-04-1.51052E-14
 -1      1302 4.81288E-03 8.31153E-04-1.41730E-14
 -1      1303 4.36796E-03 7.92898E-04-1.32616E-14
 -1      1304 3.94328E-03 7.02737E-04-1.24348E-14
 -1      1305 3.55327E-03 5.77388E-04-1.17219E-14
 -1      1306 3.20812E-03 4.31486E-04-1.11281E-14
 -1      1307 2.92270E-03 2.71258E-04-1.06604E-14
 -1      1308 2.73702E-03 1.10549E-04-1.03670E-14
 -1      1309 2.67308E-03-3.90382E-05-1.02663E-14
 -1      1310 2.72251E-03-1.83654E-04-1.03323E-14
 -1      1311 2.88068E-03-3.36227E-04-1.05654E-14
 -1      1312 3.13360E-03-4.92110E-04-1.09577E-14
 -1      1313 3.46680E-03-6.47313E-04-1.15091E-14
 -1      1314 3.85423E-03-7.87805E-04-1.21953E-14
 -1      1315 4.25932E-03-8.92783E-04-1.29619E-14
 -1      1316 4.67318E-03-9.52373E-04-1.37882E-14
 -1      1317 5.10668E-03-9.58688E-04-1.46876E-14
 -1      1318 5.53124E-03-9.11909E-04-1.55899E-14
 -1      1319 5.91941E-03-8.22925E-04-1.64164E-14
 -1      1320 6.28126E-03-7.02845E-04-1.71825E-14
 -1      1321 6.61125E-03-5.61074E-04-1.78722E-14
 -1      1322 6.87716E-03-4.14409E-04-1.84203E-14
 -1      1323 7.05677E-03-2.74543E-04-1.87922E-14
 -1      1324 7.14777E-03-1.37859E-04-1.89793E-14
 -1      1325 1.69770E-04-1.04649E-04 3.04932E-18
 -1      1326 1.16110E-04-4.95004E-05-2.13452E-17
 -1      1327 1.21185E-04-6.11154E-05-1.46774E-17
 -1      1328 1.11074E-04-3.43984E-05-3.24583E-17
 -1      1329 1.13453E-04-4.10873E-05-2.88533E-17
 -1      1330 2.33599E-04-9.16992E-05-6.77762E-17
 -1      1331 1.08057E-04-2.40079E-05-3.89771E-17
 -1      1332 1.09647E-04-2.87841E-05-3.70391E-17
 -1      1333 2.23912E-04-6.44111E-05-8.81727E-17
 -1      1334 1.05706E-04-1.63463E-05-4.31241E-17
 -1      1335 1.06926E-04-1.99356E-05-4.20941E-17
 -1      1336 2.17394E-04-4.50433E-05-1.01007E-16
 -1      1337 1.03877E-04-1.06471E-05-4.54416E-17
 -1      1338 1.04799E-04-1.33541E-05-4.49131E-17
 -1      1339 2.12363E-04-3.06990E-05-1.08935E-16
 -1      1340 1.02532E-04-6.17460E-06-4.70137E-17
 -1      1341 1.03174E-04-8.34691E-06-4.67156E-17
 -1      1342 2.08469E-04-1.97276E-05-1.13746E-16
 -1      1343 1.01779E-04-2.53336E-06-4.78675E-17
 -1      1344 1.02097E-04-4.36653E-06-4.77320E-17
 -1      1345 2.05771E-04-1.10042E-05-1.16769E-16
 -1      1346 1.01663E-04 7.79161E-07-4.81521E-17
 -1      1347 1.01643E-04-9.58112E-07-4.80979E-17
 -1      1348 2.04433E-04-3.64397E-06-1.18246E-16
 -1      1349 1.02187E-04 4.26418E-06-4.79082E-17
 -1      1350 1.01834E-04 2.38201E-06-4.80166E-17
 -1      1351 2.04523E-04 3.33060E-06-1.18422E-16
 -1      1352 1.03308E-04 8.41033E-06-4.70137E-17
 -1      1353 1.02647E-04 6.14915E-06-4.73661E-17
 -1      1354 2.06019E-04 1.08849E-05-1.17311E-16
 -1      1355 1.04927E-04 1.35896E-05-4.51299E-17
 -1      1356 1.04005E-04 1.07780E-05-4.57398E-17
 -1      1357 2.08780E-04 1.98725E-05-1.14451E-16
 -1      1358 1.07049E-04 2.04650E-05-4.20535E-17
 -1      1359 1.05842E-04 1.67551E-05-4.31512E-17
 -1      1360 2.12675E-04 3.12630E-05-1.09382E-16
 -1      1361 1.09706E-04 2.95813E-05-3.72830E-17
 -1      1362 1.08143E-04 2.46828E-05-3.91533E-17
 -1      1363 2.17678E-04 4.62097E-05-1.01441E-16
 -1      1364 1.13387E-04 4.20847E-05-2.91108E-17
 -1      1365 1.11062E-04 3.53130E-05-3.26616E-17
 -1      1366 2.24036E-04 6.60972E-05-8.89452E-17
 -1      1367 1.20403E-04 6.14304E-05-1.56938E-17
 -1      1368 1.15688E-04 5.05468E-05-2.22126E-17
 -1      1369 2.33451E-04 9.39988E-05-6.91179E-17
 -1      1370 1.59860E-04 1.05103E-04 5.90890E-18
 -1      1371 1.39321E-04 8.02632E-05-7.80626E-18
 -1      1372 2.64095E-04 1.38804E-04-4.52383E-17
 -1      1373 3.41157E-04 2.08564E-04-9.96111E-18
 -1      1374 4.31085E-04-2.44036E-04-2.82028E-17
 -1      1375 5.90239E-04-3.10484E-04-7.35902E-17
 -1      1376 7.44817E-04-3.62850E-04-1.52276E-16
 -1      1377 8.96742E-04-4.04491E-04-2.61970E-16
 -1      1378 6.33668E-04-2.98440E-04-1.50135E-16
 -1      1379 1.04700E-03-4.38686E-04-4.02063E-16
 -1      1380 1.19661E-03-4.66750E-04-5.73313E-16
 -1      1381 9.43259E-04-3.83314E-04-3.81205E-16
 -1      1382 1.34650E-03-4.90666E-04-7.74744E-16
 -1      1383 1.49726E-03-5.11164E-04-1.00707E-15
 -1      1384 1.24703E-03-4.40179E-04-7.32921E-16
 -1      1385 1.64945E-03-5.29526E-04-1.26976E-15
 -1      1386 1.80342E-03-5.46425E-04-1.56288E-15
 -1      1387 1.55105E-03-4.81071E-04-1.20536E-15
 -1      1388 1.95948E-03-5.62869E-04-1.88611E-15
 -1      1389 2.11781E-03-5.79582E-04-2.23972E-15
 -1      1390 1.85929E-03-5.14245E-04-1.79824E-15
 -1      1391 2.27854E-03-5.97537E-04-2.62419E-15
 -1      1392 2.44165E-03-6.17489E-04-3.03882E-15
 -1      1393 2.17418E-03-5.46785E-04-2.51180E-15
 -1      1394 2.60708E-03-6.40454E-04-3.48388E-15
 -1      1395 2.77457E-03-6.67142E-04-3.95917E-15
 -1      1396 2.49678E-03-5.85742E-04-3.34514E-15
 -1      1397 2.94382E-03-6.98541E-04-4.46442E-15
 -1      1398 3.11429E-03-7.35149E-04-4.99968E-15
 -1      1399 2.82686E-03-6.38298E-04-4.29814E-15
 -1      1400 3.28537E-03-7.77663E-04-5.56372E-15
 -1      1401 3.45622E-03-8.26080E-04-6.15865E-15
 -1      1402 3.16262E-03-7.11027E-04-5.36936E-15
 -1      1403 3.62599E-03-8.80323E-04-6.78244E-15
 -1      1404 3.79365E-03-9.39488E-04-7.43718E-15
 -1      1405 3.50050E-03-8.07917E-04-6.55881E-15
 -1      1406 3.95826E-03-1.00218E-03-8.12291E-15
 -1      1407 4.11894E-03-1.06628E-03-8.83924E-15
 -1      1408 3.83525E-03-9.27022E-04-7.86915E-15
 -1      1409 4.27507E-03-1.12889E-03-9.58797E-15
 -1      1410 4.42638E-03-1.18688E-03-1.03697E-14
 -1      1411 4.16097E-03-1.05671E-03-9.30404E-15
 -1      1412 4.57302E-03-1.23651E-03-1.11845E-14
 -1      1413 4.71573E-03-1.27467E-03-1.20334E-14
 -1      1414 4.47340E-03-1.17450E-03-1.08674E-14
 -1      1415 4.85557E-03-1.29844E-03-1.29162E-14
 -1      1416 4.99422E-03-1.30625E-03-1.38330E-14
 -1      1417 4.77300E-03-1.25220E-03-1.25649E-14
 -1      1418 5.13322E-03-1.29762E-03-1.47843E-14
 -1      1419 5.27442E-03-1.27339E-03-1.57709E-14
 -1      1420 5.06638E-03-1.26798E-03-1.43994E-14
 -1      1421 5.41911E-03-1.23585E-03-1.67911E-14
 -1      1422 5.56841E-03-1.18780E-03-1.78440E-14
 -1      1423 5.36377E-03-1.21835E-03-1.63715E-14
 -1      1424 5.72278E-03-1.13297E-03-1.89288E-14
 -1      1425 5.88227E-03-1.07469E-03-2.00433E-14
 -1      1426 5.67354E-03-1.12036E-03-1.84778E-14
 -1      1427 6.04647E-03-1.01630E-03-2.11878E-14
 -1      1428 6.21467E-03-9.60404E-04-2.23607E-14
 -1      1429 5.99821E-03-1.00197E-03-2.07089E-14
 -1      1430 6.38600E-03-9.08957E-04-2.35615E-14
 -1      1431 6.55944E-03-8.63338E-04-2.47902E-14
 -1      1432 6.33482E-03-8.88990E-04-2.30560E-14
 -1      1433 6.73409E-03-8.24089E-04-2.60447E-14
 -1      1434 6.90903E-03-7.91578E-04-2.73246E-14
 -1      1435 6.67774E-03-7.97310E-04-2.55133E-14
 -1      1436 7.08356E-03-7.65418E-04-2.86305E-14
 -1      1437 7.25706E-03-7.45375E-04-2.99617E-14
 -1      1438 7.02135E-03-7.32461E-04-2.80763E-14
 -1      1439 7.42910E-03-7.30674E-04-3.13201E-14
 -1      1440 7.59932E-03-7.20823E-04-3.27038E-14
 -1      1441 7.36144E-03-6.92968E-04-3.07418E-14
 -1      1442 7.76755E-03-7.15016E-04-3.41111E-14
 -1      1443 7.93365E-03-7.12709E-04-3.55451E-14
 -1      1444 7.69546E-03-6.74094E-04-3.35087E-14
 -1      1445 8.09763E-03-7.13233E-04-3.70033E-14
 -1      1446 8.25949E-03-7.16096E-04-3.84828E-14
 -1      1447 8.02229E-03-6.70399E-04-3.63738E-14
 -1      1448 8.41932E-03-7.20805E-04-3.99871E-14
 -1      1449 8.57722E-03-7.26957E-04-4.15138E-14
 -1      1450 8.34183E-03-6.77030E-04-3.93356E-14
 -1      1451 8.73333E-03-7.34219E-04-4.30617E-14
 -1      1452 8.88779E-03-7.42280E-04-4.46318E-14
 -1      1453 8.65457E-03-6.90162E-04-4.23866E-14
 -1      1454 9.04074E-03-7.50933E-04-4.62203E-14
 -1      1455 9.19231E-03-7.59947E-04-4.78296E-14
 -1      1456 8.96136E-03-7.07005E-04-4.55212E-14
 -1      1457 9.34267E-03-7.69203E-04-4.94580E-14
 -1      1458 9.49192E-03-7.78538E-04-5.11021E-14
 -1      1459 9.26313E-03-7.25636E-04-4.87351E-14
 -1      1460 9.64021E-03-7.87894E-04-5.27640E-14
 -1      1461 9.78765E-03-7.97157E-04-5.44410E-14
 -1      1462 9.56080E-03-7.44796E-04-5.20217E-14
 -1      1463 9.93434E-03-8.06308E-04-5.61344E-14
 -1      1464 1.00804E-02-8.15272E-04-5.78398E-14
 -1      1465 9.85521E-03-7.63710E-04-5.53741E-14
 -1      1466 1.02259E-02-8.24053E-04-5.95577E-14
 -1      1467 1.03708E-02-8.32605E-04-6.12891E-14
 -1      1468 1.01471E-02-7.81938E-04-5.87828E-14
 -1      1469 1.05154E-02-8.40942E-04-6.30304E-14
 -1      1470 1.06596E-02-8.49042E-04-6.47813E-14
 -1      1471 1.04371E-02-7.99268E-04-6.22411E-14
 -1      1472 1.08036E-02-8.56923E-04-6.65416E-14
 -1      1473 1.09472E-02-8.64575E-04-6.83140E-14
 -1      1474 1.07256E-02-8.15633E-04-6.57420E-14
 -1      1475 1.10907E-02-8.72021E-04-7.00965E-14
 -1      1476 1.12340E-02-8.79259E-04-7.18865E-14
 -1      1477 1.10131E-02-8.31058E-04-6.92836E-14
 -1      1478 1.13771E-02-8.86312E-04-7.36875E-14
 -1      1479 1.15202E-02-8.93183E-04-7.54985E-14
 -1      1480 1.12998E-02-8.45620E-04-7.28665E-14
 -1      1481 1.16631E-02-8.99892E-04-7.73175E-14
 -1      1482 1.18060E-02-9.06448E-04-7.91486E-14
 -1      1483 1.15861E-02-8.59419E-04-7.64894E-14
 -1      1484 1.19488E-02-9.12867E-04-8.09859E-14
 -1      1485 1.20916E-02-9.19158E-04-8.28285E-14
 -1      1486 1.18719E-02-8.72567E-04-8.01483E-14
 -1      1487 1.22343E-02-9.25338E-04-8.46889E-14
 -1      1488 1.23770E-02-9.31414E-04-8.65625E-14
 -1      1489 1.21576E-02-8.85174E-04-8.38460E-14
 -1      1490 1.25197E-02-9.37400E-04-8.84457E-14
 -1      1491 1.26624E-02-9.43304E-04-9.03467E-14
 -1      1492 1.24432E-02-8.97338E-04-8.75910E-14
 -1      1493 1.28051E-02-9.49137E-04-9.22614E-14
 -1      1494 1.29478E-02-9.54907E-04-9.41887E-14
 -1      1495 1.27287E-02-9.09152E-04-9.13886E-14
 -1      1496 1.30905E-02-9.60623E-04-9.61292E-14
 -1      1497 1.32332E-02-9.66292E-04-9.80820E-14
 -1      1498 1.30142E-02-9.20693E-04-9.52416E-14
 -1      1499 1.33760E-02-9.71921E-04-1.00049E-13
 -1      1500 1.35187E-02-9.77516E-04-1.02025E-13
 -1      1501 1.32997E-02-9.32028E-04-9.91444E-14
 -1      1502 1.36614E-02-9.83083E-04-1.04011E-13
 -1      1503 1.38042E-02-9.88628E-04-1.06008E-13
 -1      1504 1.35852E-02-9.43214E-04-1.03089E-13
 -1      1505 1.39470E-02-9.94155E-04-1.08007E-13
 -1      1506 1.40898E-02-9.99670E-04-1.10008E-13
 -1      1507 1.38707E-02-9.54298E-04-1.07068E-13
 -1      1508 1.42326E-02-1.00518E-03-1.12019E-13
 -1      1509 1.43754E-02-1.01068E-03-1.14034E-13
 -1      1510 1.41563E-02-9.65322E-04-1.11074E-13
 -1      1511 1.45182E-02-1.01618E-03-1.16054E-13
 -1      1512 1.46610E-02-1.02168E-03-1.18078E-13
 -1      1513 1.44420E-02-9.76322E-04-1.15101E-13
 -1      1514 1.48039E-02-1.02720E-03-1.20111E-13
 -1      1515 1.49467E-02-1.03271E-03-1.22151E-13
 -1      1516 1.47277E-02-9.87327E-04-1.19153E-13
 -1      1517 1.51533E-02-1.03642E-03-1.25122E-13
 -1      1518 1.50771E-02-9.96535E-04-1.24155E-13
 -1      1519 6.60487E-04 3.43531E-04-9.79983E-17
 -1      1520 5.04017E-04 2.83292E-04-3.79200E-17
 -1      1521 4.57879E-04 2.44881E-04-6.40628E-17
 -1      1522 9.62939E-04 4.28985E-04-3.12467E-16
 -1      1523 8.12940E-04 3.90398E-04-1.89654E-16
 -1      1524 7.71291E-04 3.53500E-04-2.20581E-16
 -1      1525 1.26044E-03 4.87351E-04-6.51795E-16
 -1      1526 1.11173E-03 4.60675E-04-4.66356E-16
 -1      1527 1.07548E-03 4.25293E-04-5.01010E-16
 -1      1528 1.55980E-03 5.30341E-04-1.11674E-15
 -1      1529 1.40953E-03 5.10257E-04-8.68365E-16
 -1      1530 1.37672E-03 4.75444E-04-9.04333E-16
 -1      1531 1.86485E-03 5.65803E-04-1.70587E-15
 -1      1532 1.71140E-03 5.48608E-04-1.39557E-15
 -1      1533 1.67999E-03 5.13626E-04-1.43135E-15
 -1      1534 2.17756E-03 6.00321E-04-2.41811E-15
 -1      1535 2.02015E-03 5.82811E-04-2.04696E-15
 -1      1536 1.98832E-03 5.47107E-04-2.08111E-15
 -1      1537 2.49837E-03 6.40124E-04-3.25122E-15
 -1      1538 2.33695E-03 6.19230E-04-2.82005E-15
 -1      1539 2.30315E-03 5.82416E-04-2.85224E-15
 -1      1540 2.82613E-03 6.91116E-04-4.20391E-15
 -1      1541 2.66150E-03 6.63973E-04-3.71220E-15
 -1      1542 2.62458E-03 6.25835E-04-3.74254E-15
 -1      1543 3.15781E-03 7.58095E-04-5.27868E-15
 -1      1544 2.99173E-03 7.22533E-04-4.72624E-15
 -1      1545 2.95123E-03 6.83100E-04-4.75261E-15
 -1      1546 3.48849E-03 8.43089E-04-6.47572E-15
 -1      1547 3.32366E-03 7.98564E-04-5.86178E-15
 -1      1548 3.28016E-03 7.58218E-04-5.88368E-15
 -1      1549 3.81188E-03 9.42940E-04-7.79399E-15
 -1      1550 3.65155E-03 8.91793E-04-7.11924E-15
 -1      1551 3.60698E-03 8.51367E-04-7.13631E-15
 -1      1552 4.12186E-03 1.04712E-03-9.23980E-15
 -1      1553 3.96891E-03 9.95545E-04-8.50075E-15
 -1      1554 3.92653E-03 9.56297E-04-8.51230E-15
 -1      1555 4.41503E-03 1.13777E-03-1.08163E-14
 -1      1556 4.27062E-03 1.09540E-03-1.00110E-14
 -1      1557 4.23447E-03 1.05871E-03-1.00167E-14
 -1      1558 4.69325E-03 1.19396E-03-1.25320E-14
 -1      1559 4.55566E-03 1.17119E-03-1.16562E-14
 -1      1560 4.52949E-03 1.13795E-03-1.16552E-14
 -1      1561 4.96426E-03 1.19986E-03-1.43867E-14
 -1      1562 4.82896E-03 1.20349E-03-1.34421E-14
 -1      1563 4.81502E-03 1.17356E-03-1.34327E-14
 -1      1564 5.23905E-03 1.15237E-03-1.63774E-14
 -1      1565 5.10043E-03 1.18218E-03-1.53655E-14
 -1      1566 5.09874E-03 1.15431E-03-1.53478E-14
 -1      1567 5.52731E-03 1.06278E-03-1.85045E-14
 -1      1568 5.38101E-03 1.11159E-03-1.74248E-14
 -1      1569 5.38942E-03 1.08404E-03-1.74000E-14
 -1      1570 5.83362E-03 9.51286E-04-2.07562E-14
 -1      1571 5.67813E-03 1.00842E-03-1.96146E-14
 -1      1572 5.69298E-03 9.79758E-04-1.95821E-14
 -1      1573 6.15672E-03 8.38264E-04-2.31293E-14
 -1      1574 5.99333E-03 8.93955E-04-2.19277E-14
 -1      1575 6.01050E-03 8.63507E-04-2.18886E-14
 -1      1576 6.49144E-03 7.38192E-04-2.56169E-14
 -1      1577 6.32304E-03 7.86098E-04-2.43585E-14
 -1      1578 6.33902E-03 7.53889E-04-2.43124E-14
 -1      1579 6.83139E-03 6.57914E-04-2.82176E-14
 -1      1580 6.66117E-03 6.95479E-04-2.69032E-14
 -1      1581 6.67362E-03 6.61943E-04-2.68527E-14
 -1      1582 7.17100E-03 5.98269E-04-3.09274E-14
 -1      1583 7.00156E-03 6.25660E-04-2.95594E-14
 -1      1584 7.00941E-03 5.91344E-04-2.95030E-14
 -1      1585 7.50635E-03 5.56634E-04-3.37428E-14
 -1      1586 7.33940E-03 5.75449E-04-3.23230E-14
 -1      1587 7.34260E-03 5.40845E-04-3.22587E-14
 -1      1588 7.83528E-03 5.29062E-04-3.66560E-14
 -1      1589 7.67171E-03 5.41349E-04-3.51871E-14
 -1      1590 7.67079E-03 5.06823E-04-3.51143E-14
 -1      1591 8.15704E-03 5.11587E-04-3.96566E-14
 -1      1592 7.99708E-03 5.19287E-04-3.81453E-14
 -1      1593 7.99283E-03 4.85071E-04-3.80643E-14
 -1      1594 8.47176E-03 5.00829E-04-4.27485E-14
 -1      1595 8.31525E-03 5.05545E-04-4.11917E-14
 -1      1596 8.30852E-03 4.71761E-04-4.11042E-14
 -1      1597 8.78013E-03 4.94172E-04-4.59260E-14
 -1      1598 8.62668E-03 4.97118E-04-4.43267E-14
 -1      1599 8.61821E-03 4.63807E-04-4.42317E-14
 -1      1600 9.08305E-03 4.89717E-04-4.91900E-14
 -1      1601 8.93221E-03 4.91759E-04-4.75461E-14
 -1      1602 8.92260E-03 4.58912E-04-4.74438E-14
 -1      1603 9.38151E-03 4.86163E-04-5.25340E-14
 -1      1604 9.23278E-03 4.87887E-04-5.08530E-14
 -1      1605 9.22250E-03 4.55462E-04-5.07423E-14
 -1      1606 9.67640E-03 4.82668E-04-5.59536E-14
 -1      1607 9.52934E-03 4.84445E-04-5.42351E-14
 -1      1608 9.51871E-03 4.52388E-04-5.41172E-14
 -1      1609 9.96852E-03 4.78724E-04-5.94359E-14
 -1      1610 9.82276E-03 4.80773E-04-5.76867E-14
 -1      1611 9.81201E-03 4.49024E-04-5.75593E-14
 -1      1612 1.02586E-02 4.74058E-04-6.29622E-14
 -1      1613 1.01138E-02 4.76492E-04-6.11944E-14
 -1      1614 1.01030E-02 4.44994E-04-6.10573E-14
 -1      1615 1.05470E-02 4.68556E-04-6.65375E-14
 -1      1616 1.04030E-02 4.71415E-04-6.47439E-14
 -1      1617 1.03923E-02 4.40118E-04-6.46039E-14
 -1      1618 1.08344E-02 4.62203E-04-7.01577E-14
 -1      1619 1.06908E-02 4.65484E-04-6.83414E-14
 -1      1620 1.06804E-02 4.34344E-04-6.81979E-14
 -1      1621 1.11210E-02 4.55049E-04-7.38297E-14
 -1      1622 1.09778E-02 4.58722E-04-7.19894E-14
 -1      1623 1.09675E-02 4.27702E-04-7.18405E-14
 -1      1624 1.14071E-02 4.47175E-04-7.75450E-14
 -1      1625 1.12641E-02 4.51197E-04-7.56815E-14
 -1      1626 1.12540E-02 4.20265E-04-7.55256E-14
 -1      1627 1.16928E-02 4.38676E-04-8.12972E-14
 -1      1628 1.15500E-02 4.42998E-04-7.94159E-14
 -1      1629 1.15400E-02 4.12131E-04-7.92524E-14
 -1      1630 1.19783E-02 4.29653E-04-8.50961E-14
 -1      1631 1.18356E-02 4.34224E-04-8.31913E-14
 -1      1632 1.18258E-02 4.03404E-04-8.30187E-14
 -1      1633 1.22637E-02 4.20198E-04-8.89283E-14
 -1      1634 1.21210E-02 4.24974E-04-8.70084E-14
 -1      1635 1.21114E-02 3.94186E-04-8.68279E-14
 -1      1636 1.25491E-02 4.10398E-04-9.27835E-14
 -1      1637 1.24064E-02 4.15336E-04-9.08526E-14
 -1      1638 1.23969E-02 3.84569E-04-9.06666E-14
 -1      1639 1.28345E-02 4.00327E-04-9.66528E-14
 -1      1640 1.26918E-02 4.05392E-04-9.47175E-14
 -1      1641 1.26823E-02 3.74637E-04-9.45264E-14
 -1      1642 1.31199E-02 3.90051E-04-1.00522E-13
 -1      1643 1.29772E-02 3.95211E-04-9.85891E-14
 -1      1644 1.29678E-02 3.64463E-04-9.83934E-14
 -1      1645 1.34054E-02 3.79625E-04-1.04385E-13
 -1      1646 1.32626E-02 3.84854E-04-1.02457E-13
 -1      1647 1.32533E-02 3.54109E-04-1.02257E-13
 -1      1648 1.36909E-02 3.69097E-04-1.08226E-13
 -1      1649 1.35481E-02 3.74371E-04-1.06309E-13
 -1      1650 1.35388E-02 3.43626E-04-1.06108E-13
 -1      1651 1.39765E-02 3.58507E-04-1.12047E-13
 -1      1652 1.38337E-02 3.63807E-04-1.10138E-13
 -1      1653 1.38244E-02 3.33059E-04-1.09942E-13
 -1      1654 1.42621E-02 3.47889E-04-1.15856E-13
 -1      1655 1.41193E-02 3.53199E-04-1.13951E-13
 -1      1656 1.41100E-02 3.22447E-04-1.13760E-13
 -1      1657 1.45477E-02 3.37275E-04-1.19659E-13
 -1      1658 1.44049E-02 3.42580E-04-1.17758E-13
 -1      1659 1.43956E-02 3.11823E-04-1.17570E-13
 -1      1660 1.48334E-02 3.26688E-04-1.23453E-13
 -1      1661 1.46906E-02 3.31978E-04-1.21559E-13
 -1      1662 1.46813E-02 3.01216E-04-1.21373E-13
 -1      1663 1.49836E-02 3.10292E-04-1.25428E-13
 -1      1664 1.50086E-02 2.04479E-04-1.25578E-13
 -1      1665 1.50034E-02 2.46630E-04-1.25580E-13
 -1      1666 1.50189E-02 1.20157E-04-1.25568E-13
 -1      1667 1.50137E-02 1.62322E-04-1.25574E-13
 -1      1668 1.48875E-02 1.87973E-04-1.23926E-13
 -1      1669 1.50292E-02 3.58008E-05-1.25553E-13
 -1      1670 1.50241E-02 7.79833E-05-1.25558E-13
 -1      1671 1.48978E-02 1.03644E-04-1.23910E-13
 -1      1672 1.50396E-02-4.85917E-05-1.25563E-13
 -1      1673 1.50344E-02-6.39092E-06-1.25556E-13
 -1      1674 1.49081E-02 1.92865E-05-1.23901E-13
 -1      1675 1.50498E-02-1.31587E-04-1.25602E-13
 -1      1676 1.50447E-02-9.00856E-05-1.25579E-13
 -1      1677 1.49183E-02-6.43857E-05-1.23909E-13
 -1      1678 1.50602E-02-2.16041E-04-1.25660E-13
 -1      1679 1.50550E-02-1.73811E-04-1.25631E-13
 -1      1680 1.49286E-02-1.48084E-04-1.23937E-13
 -1      1681 1.50707E-02-3.00514E-04-1.25702E-13
 -1      1682 1.50655E-02-2.58276E-04-1.25684E-13
 -1      1683 1.49391E-02-2.32519E-04-1.23969E-13
 -1      1684 1.50814E-02-3.84996E-04-1.25732E-13
 -1      1685 1.50760E-02-3.42754E-04-1.25719E-13
 -1      1686 1.49496E-02-3.16967E-04-1.23993E-13
 -1      1687 1.50921E-02-4.69474E-04-1.25746E-13
 -1      1688 1.50867E-02-4.27236E-04-1.25743E-13
 -1      1689 1.49603E-02-4.01419E-04-1.24007E-13
 -1      1690 1.51028E-02-5.53939E-04-1.25738E-13
 -1      1691 1.50974E-02-5.11709E-04-1.25744E-13
 -1      1692 1.49710E-02-4.85867E-04-1.24006E-13
 -1      1693 1.51135E-02-6.36948E-04-1.25724E-13
 -1      1694 1.51082E-02-5.95447E-04-1.25733E-13
 -1      1695 1.49817E-02-5.69586E-04-1.23987E-13
 -1      1696 1.51244E-02-7.21358E-04-1.25680E-13
 -1      1697 1.51189E-02-6.79157E-04-1.25707E-13
 -1      1698 1.49925E-02-6.53285E-04-1.23952E-13
 -1      1699 1.51353E-02-8.05732E-04-1.25605E-13
 -1      1700 1.51299E-02-7.63550E-04-1.25645E-13
 -1      1701 1.50034E-02-7.37672E-04-1.23893E-13
 -1      1702 1.51463E-02-8.90070E-04-1.25503E-13
 -1      1703 1.51408E-02-8.47905E-04-1.25558E-13
 -1      1704 1.50144E-02-8.22029E-04-1.23810E-13
 -1      1705 1.51144E-02-9.64382E-04-1.24802E-13
 -1      1706 1.51090E-02-9.22230E-04-1.24860E-13
 -1      1707 1.49825E-02-8.96363E-04-1.23119E-13
 -1      1708 1.49078E-02-9.60684E-04-1.21834E-13
 -1      1709 7.12798E-03 2.37171E-06-1.94587E-14
 -1      1710 7.16725E-03-4.47403E-05-1.95235E-14
 -1      1711 6.94876E-03 1.25726E-04-1.90781E-14
 -1      1712 7.04617E-03 6.86558E-05-1.92508E-14
 -1      1713 6.66157E-03 2.73114E-04-1.85365E-14
 -1      1714 6.80642E-03 2.00967E-04-1.88125E-14
 -1      1715 6.28441E-03 4.42583E-04-1.78288E-14
 -1      1716 6.46242E-03 3.56959E-04-1.82010E-14
 -1      1717 5.90628E-03 6.25077E-04-1.69179E-14
 -1      1718 6.08408E-03 5.46422E-04-1.73244E-14
 -1      1719 5.49855E-03 7.75925E-04-1.59542E-14
 -1      1720 5.68219E-03 7.09360E-04-1.64234E-14
 -1      1721 5.12484E-03 8.62791E-04-1.49430E-14
 -1      1722 5.29643E-03 8.31717E-04-1.53928E-14
 -1      1723 4.73308E-03 8.72188E-04-1.39187E-14
 -1      1724 4.91610E-03 8.79737E-04-1.43965E-14
 -1      1725 4.34153E-03 7.95055E-04-1.29659E-14
 -1      1726 4.51938E-03 8.39169E-04-1.33907E-14
 -1      1727 3.95471E-03 6.52226E-04-1.20838E-14
 -1      1728 4.13764E-03 7.25578E-04-1.24698E-14
 -1      1729 3.58327E-03 4.75067E-04-1.13335E-14
 -1      1730 3.75329E-03 5.55201E-04-1.16426E-14
 -1      1731 3.20452E-03 3.07159E-04-1.07583E-14
 -1      1732 3.37021E-03 3.86671E-04-1.10196E-14
 -1      1733 2.89631E-03 1.49823E-04-1.02905E-14
 -1      1734 3.02815E-03 2.15701E-04-1.04757E-14
 -1      1735 2.70169E-03 3.26384E-05-1.00469E-14
 -1      1736 2.77307E-03 8.40772E-05-1.01414E-14
 -1      1737 2.65812E-03-6.27219E-05-1.00177E-14
 -1      1738 2.66104E-03-1.97227E-05-1.00245E-14
 -1      1739 2.74902E-03-1.62454E-04-1.01084E-14
 -1      1740 2.69005E-03-1.14288E-04-1.00371E-14
 -1      1741 2.96497E-03-2.92829E-04-1.04088E-14
 -1      1742 2.85020E-03-2.30397E-04-1.02563E-14
 -1      1743 3.27336E-03-4.47733E-04-1.08525E-14
 -1      1744 3.12182E-03-3.72877E-04-1.06280E-14
 -1      1745 3.66030E-03-6.21899E-04-1.14437E-14
 -1      1746 3.47906E-03-5.34739E-04-1.11356E-14
 -1      1747 4.04319E-03-8.01437E-04-1.22170E-14
 -1      1748 3.86308E-03-7.24613E-04-1.18612E-14
 -1      1749 4.42330E-03-9.33771E-04-1.30487E-14
 -1      1750 4.25006E-03-8.78829E-04-1.26549E-14
 -1      1751 4.79111E-03-1.00311E-03-1.39463E-14
 -1      1752 4.62279E-03-9.80004E-04-1.35255E-14
 -1      1753 5.17208E-03-9.96755E-04-1.49475E-14
 -1      1754 4.99526E-03-1.01243E-03-1.44733E-14
 -1      1755 5.54630E-03-9.09239E-04-1.59044E-14
 -1      1756 5.37963E-03-9.55751E-04-1.54763E-14
 -1      1757 5.90840E-03-7.74634E-04-1.67996E-14
 -1      1758 5.74138E-03-8.41996E-04-1.63951E-14
 -1      1759 6.26810E-03-6.13868E-04-1.76263E-14
 -1      1760 6.10308E-03-6.90262E-04-1.72555E-14
 -1      1761 6.60816E-03-4.39021E-04-1.84155E-14
 -1      1762 6.44991E-03-5.15973E-04-1.80866E-14
 -1      1763 6.89648E-03-3.05418E-04-1.89324E-14
 -1      1764 6.77808E-03-3.66646E-04-1.86989E-14
 -1      1765 7.08638E-03-1.91880E-04-1.93022E-14
 -1      1766 7.01025E-03-2.41053E-04-1.91567E-14
 -1      1767 7.17125E-03-9.64283E-05-1.94655E-14
 -1      1768 7.14620E-03-1.38855E-04-1.94168E-14
 -1      1769 6.12578E-03 4.54766E-04-1.78741E-14
 -1      1770 6.51448E-03 2.61928E-04-1.87344E-14
 -1      1771 1.49743E-02 2.79526E-04-1.25250E-13
 -1      1772 1.48532E-02 2.63027E-04-1.23602E-13
 -1      1773 7.08938E-03 3.16064E-07-1.98319E-14
 -1      1774 6.85706E-03 1.12105E-04-1.93501E-14
 -1      1775 7.17895E-03-7.05043E-05-1.99842E-14
 -1      1776 5.72769E-03 6.55942E-04-1.68609E-14
 -1      1777 5.35868E-03 8.15755E-04-1.57923E-14
 -1      1778 5.00454E-03 8.97371E-04-1.46794E-14
 -1      1779 4.65436E-03 8.78166E-04-1.36072E-14
 -1      1780 4.28911E-03 7.63106E-04-1.25905E-14
 -1      1781 3.92096E-03 5.80090E-04-1.16674E-14
 -1      1782 3.53356E-03 3.81677E-04-1.09325E-14
 -1      1783 3.15014E-03 2.03961E-04-1.03532E-14
 -1      1784 2.84359E-03 7.23269E-05-9.93807E-15
 -1      1785 2.67476E-03-8.32232E-06-9.77550E-15
 -1      1786 2.66618E-03-7.48634E-05-9.77292E-15
 -1      1787 2.80523E-03-1.54453E-04-9.93349E-15
 -1      1788 3.07109E-03-2.77961E-04-1.02894E-14
 -1      1789 3.43178E-03-4.40703E-04-1.07762E-14
 -1      1790 3.82334E-03-6.40175E-04-1.14560E-14
 -1      1791 4.20412E-03-8.34530E-04-1.22975E-14
 -1      1792 4.56009E-03-9.73285E-04-1.32016E-14
 -1      1793 4.90386E-03-1.03490E-03-1.42011E-14
 -1      1794 5.23973E-03-9.97511E-04-1.52594E-14
 -1      1795 5.58990E-03-8.76580E-04-1.62867E-14
 -1      1796 5.94367E-03-7.08959E-04-1.72458E-14
 -1      1797 6.30546E-03-5.18580E-04-1.81767E-14
 -1      1798 6.65264E-03-3.49764E-04-1.89386E-14
 -1      1799 6.93873E-03-2.26382E-04-1.94585E-14
 -1      1800 7.11930E-03-1.38452E-04-1.98069E-14
 -1      1801 2.93151E-04-1.63178E-04-3.05609E-17
 -1      1802 3.38329E-04-9.05651E-05-1.42288E-16
 -1      1803 3.44912E-04-1.07391E-04-1.30592E-16
 -1      1804 3.52906E-04-1.27501E-04-1.16660E-16
 -1      1805 3.63855E-04-1.51171E-04-9.80119E-17
 -1      1806 4.71757E-04-1.55320E-04-1.88936E-16
 -1      1807 3.19842E-04-4.32076E-05-1.68946E-16
 -1      1808 3.23583E-04-5.25872E-05-1.64460E-16
 -1      1809 3.13758E-04-2.72217E-05-1.75356E-16
 -1      1810 3.16547E-04-3.47121E-05-1.72361E-16
 -1      1811 4.27446E-04-5.28171E-05-2.52321E-16
 -1      1812 3.09822E-04-1.42809E-05-1.79124E-16
 -1      1813 3.11511E-04-2.04424E-05-1.77484E-16
 -1      1814 4.19374E-04-3.24693E-05-2.60303E-16
 -1      1815 3.08203E-04-2.94915E-06-1.80628E-16
 -1      1816 3.08716E-04-8.48761E-06-1.80032E-16
 -1      1817 4.14504E-04-1.55374E-05-2.64667E-16
 -1      1818 3.08969E-04 8.18101E-06-1.80506E-16
 -1      1819 3.08290E-04 2.56803E-06-1.80845E-16
 -1      1820 4.13047E-04-1.98030E-07-2.66388E-16
 -1      1821 3.12042E-04 2.04907E-05-1.78229E-16
 -1      1822 3.10227E-04 1.41198E-05-1.79666E-16
 -1      1823 4.15040E-04 1.53408E-05-2.65453E-16
 -1      1824 3.17126E-04 3.50498E-05-1.73215E-16
 -1      1825 3.14339E-04 2.74076E-05-1.76129E-16
 -1      1826 4.20264E-04 3.26709E-05-2.61225E-16
 -1      1827 3.24209E-04 5.37219E-05-1.64961E-16
 -1      1828 3.20426E-04 4.38475E-05-1.69773E-16
 -1      1829 4.28440E-04 5.36007E-05-2.53392E-16
 -1      1830 3.33269E-04 7.79204E-05-1.52195E-16
 -1      1831 3.28461E-04 6.50768E-05-1.59513E-16
 -1      1832 4.39472E-04 8.01353E-05-2.40856E-16
 -1      1833 3.45190E-04 1.10145E-04-1.31554E-16
 -1      1834 3.38722E-04 9.29481E-05-1.43318E-16
 -1      1835 4.53557E-04 1.14318E-04-2.21096E-16
 -1      1836 3.64140E-04 1.55476E-04-9.94891E-17
 -1      1837 3.53374E-04 1.30958E-04-1.17555E-16
 -1      1838 4.72681E-04 1.59600E-04-1.90386E-16
 -1      1839 4.20919E-04 2.12438E-04-7.79948E-17
 -1      1840 3.90952E-04 1.80699E-04-9.24147E-17
 -1      1841 5.13291E-04 2.13693E-04-1.63091E-16
 -1      1842 5.77909E-04 2.72792E-04-1.41868E-16
 -1      1843 3.51718E-04-1.71865E-04-6.47811E-17
 -1      1844 8.87672E-04 3.61849E-04-3.63452E-16
 -1      1845 7.33410E-04 3.21610E-04-2.37752E-16
 -1      1846 6.98542E-04 2.90582E-04-2.51223E-16
 -1      1847 4.75605E-04-2.09043E-04-1.25510E-16
 -1      1848 8.39965E-04-3.27395E-04-3.55442E-16
 -1      1849 9.93610E-04-3.61158E-04-5.06675E-16
 -1      1850 1.14585E-03-3.89299E-04-6.87140E-16
 -1      1851 1.29808E-03-4.12644E-04-8.97543E-16
 -1      1852 1.04533E-03-3.38405E-04-6.37890E-16
 -1      1853 1.45026E-03-4.32812E-04-1.13772E-15
 -1      1854 1.60310E-03-4.50324E-04-1.40815E-15
 -1      1855 1.34888E-03-3.84876E-04-1.06752E-15
 -1      1856 1.75679E-03-4.66456E-04-1.70785E-15
 -1      1857 1.91169E-03-4.81779E-04-2.03726E-15
 -1      1858 1.65336E-03-4.19509E-04-1.61501E-15
 -1      1859 2.06802E-03-4.97428E-04-2.39693E-15
 -1      1860 2.22590E-03-5.14058E-04-2.78622E-15
 -1      1861 1.96105E-03-4.49431E-04-2.28048E-15
 -1      1862 2.38558E-03-5.32781E-04-3.20513E-15
 -1      1863 2.54687E-03-5.54331E-04-3.65338E-15
 -1      1864 2.27382E-03-4.81600E-04-3.06385E-15
 -1      1865 2.71013E-03-5.79788E-04-4.13111E-15
 -1      1866 2.87479E-03-6.09895E-04-4.63845E-15
 -1      1867 2.59309E-03-5.23238E-04-3.96429E-15
 -1      1868 3.04134E-03-6.45522E-04-5.17551E-15
 -1      1869 3.20869E-03-6.87233E-04-5.74124E-15
 -1      1870 2.91976E-03-5.81700E-04-4.98130E-15
 -1      1871 3.37748E-03-7.35325E-04-6.33655E-15
 -1      1872 3.54606E-03-7.89783E-04-6.96112E-15
 -1      1873 3.25383E-03-6.63420E-04-6.11462E-15
 -1      1874 3.71508E-03-8.49828E-04-7.61636E-15
 -1      1875 3.88258E-03-9.14237E-04-8.30305E-15
 -1      1876 3.59360E-03-7.71451E-04-7.36504E-15
 -1      1877 4.04890E-03-9.80754E-04-9.02020E-15
 -1      1878 4.21259E-03-1.04652E-03-9.76897E-15
 -1      1879 3.93480E-03-9.01267E-04-8.73731E-15
 -1      1880 4.37342E-03-1.10794E-03-1.05511E-14
 -1      1881 4.53154E-03-1.16102E-03-1.13659E-14
 -1      1882 4.27081E-03-1.03612E-03-1.02345E-14
 -1      1883 4.68615E-03-1.20207E-03-1.22146E-14
 -1      1884 4.83966E-03-1.22766E-03-1.30976E-14
 -1      1885 4.59601E-03-1.14667E-03-1.18642E-14
 -1      1886 4.99093E-03-1.23589E-03-1.40152E-14
 -1      1887 5.14385E-03-1.22621E-03-1.49669E-14
 -1      1888 4.91103E-03-1.20040E-03-1.36309E-14
 -1      1889 5.29722E-03-1.19963E-03-1.59543E-14
 -1      1890 5.45412E-03-1.15883E-03-1.69753E-14
 -1      1891 5.22455E-03-1.17964E-03-1.55361E-14
 -1      1892 5.61360E-03-1.10717E-03-1.80283E-14
 -1      1893 5.77658E-03-1.04876E-03-1.91132E-14
 -1      1894 5.54680E-03-1.09383E-03-1.75780E-14
 -1      1895 5.94260E-03-9.87466E-04-2.02300E-14
 -1      1896 6.11064E-03-9.26688E-04-2.13762E-14
 -1      1897 5.88129E-03-9.72999E-04-1.97509E-14
 -1      1898 6.28084E-03-8.69259E-04-2.25505E-14
 -1      1899 6.45134E-03-8.16981E-04-2.37534E-14
 -1      1900 6.22391E-03-8.49581E-04-2.20457E-14
 -1      1901 6.62268E-03-7.71190E-04-2.49833E-14
 -1      1902 6.79309E-03-7.32303E-04-2.62401E-14
 -1      1903 6.56784E-03-7.45317E-04-2.44525E-14
 -1      1904 6.96320E-03-7.00452E-04-2.75216E-14
 -1      1905 7.13175E-03-6.75302E-04-2.88296E-14
 -1      1906 6.90785E-03-6.69003E-04-2.69673E-14
 -1      1907 7.29923E-03-6.56299E-04-3.01630E-14
 -1      1908 7.46491E-03-6.42842E-04-3.15219E-14
 -1      1909 7.24135E-03-6.20433E-04-2.95849E-14
 -1      1910 7.62911E-03-6.34133E-04-3.29063E-14
 -1      1911 7.79153E-03-6.29562E-04-3.43137E-14
 -1      1912 7.56769E-03-5.95060E-04-3.23042E-14
 -1      1913 7.95231E-03-6.28354E-04-3.57467E-14
 -1      1914 8.11144E-03-6.29992E-04-3.72043E-14
 -1      1915 7.88715E-03-5.87146E-04-3.51215E-14
 -1      1916 8.26896E-03-6.33842E-04-3.86849E-14
 -1      1917 8.42502E-03-6.39502E-04-4.01869E-14
 -1      1918 8.20044E-03-5.91362E-04-3.80350E-14
 -1      1919 8.57961E-03-6.46505E-04-4.17120E-14
 -1      1920 8.73293E-03-6.54551E-04-4.32581E-14
 -1      1921 8.50832E-03-6.03397E-04-4.10391E-14
 -1      1922 8.88498E-03-6.63323E-04-4.48242E-14
 -1      1923 9.03596E-03-6.72605E-04-4.64104E-14
 -1      1924 8.81158E-03-6.20037E-04-4.41289E-14
 -1      1925 9.18587E-03-6.82197E-04-4.80160E-14
 -1      1926 9.33491E-03-6.91948E-04-4.96406E-14
 -1      1927 9.11097E-03-6.39025E-04-4.72993E-14
 -1      1928 9.48308E-03-7.01744E-04-5.12826E-14
 -1      1929 9.63054E-03-7.11481E-04-5.29399E-14
 -1      1930 9.40715E-03-6.58858E-04-5.05441E-14
 -1      1931 9.77731E-03-7.21103E-04-5.46138E-14
 -1      1932 9.92353E-03-7.30543E-04-5.63030E-14
 -1      1933 9.70075E-03-6.78588E-04-5.38560E-14
 -1      1934 1.00692E-02-7.39782E-04-5.80083E-14
 -1      1935 1.02144E-02-7.48778E-04-5.97244E-14
 -1      1936 9.99227E-03-6.97664E-04-5.72331E-14
 -1      1937 1.03593E-02-7.57534E-04-6.14507E-14
 -1      1938 1.05038E-02-7.66029E-04-6.31909E-14
 -1      1939 1.02822E-02-7.15806E-04-6.06632E-14
 -1      1940 1.06480E-02-7.74278E-04-6.49408E-14
 -1      1941 1.07919E-02-7.82271E-04-6.67001E-14
 -1      1942 1.05709E-02-7.32907E-04-6.41397E-14
 -1      1943 1.09357E-02-7.90030E-04-6.84715E-14
 -1      1944 1.10792E-02-7.97554E-04-7.02536E-14
 -1      1945 1.08586E-02-7.48974E-04-6.76591E-14
 -1      1946 1.12226E-02-8.04867E-04-7.20445E-14
 -1      1947 1.13659E-02-8.11971E-04-7.38466E-14
 -1      1948 1.11456E-02-7.64080E-04-7.12225E-14
 -1      1949 1.15091E-02-8.18892E-04-7.56593E-14
 -1      1950 1.16521E-02-8.25634E-04-7.74812E-14
 -1      1951 1.14322E-02-7.78330E-04-7.48290E-14
 -1      1952 1.17951E-02-8.32221E-04-7.93116E-14
 -1      1953 1.19381E-02-8.38660E-04-8.11509E-14
 -1      1954 1.17183E-02-7.91843E-04-7.84742E-14
 -1      1955 1.20810E-02-8.44970E-04-8.30003E-14
 -1      1956 1.22238E-02-8.51160E-04-8.48628E-14
 -1      1957 1.20043E-02-8.04738E-04-8.21567E-14
 -1      1958 1.23666E-02-8.57245E-04-8.67373E-14
 -1      1959 1.25094E-02-8.63235E-04-8.86216E-14
 -1      1960 1.22901E-02-8.17127E-04-8.58815E-14
 -1      1961 1.26522E-02-8.69142E-04-9.05192E-14
 -1      1962 1.27950E-02-8.74974E-04-9.24313E-14
 -1      1963 1.25758E-02-8.29112E-04-8.96524E-14
 -1      1964 1.29378E-02-8.80744E-04-9.43561E-14
 -1      1965 1.30806E-02-8.86456E-04-9.62939E-14
 -1      1966 1.28614E-02-8.40778E-04-9.34719E-14
 -1      1967 1.32233E-02-8.92122E-04-9.82435E-14
 -1      1968 1.33661E-02-8.97745E-04-1.00201E-13
 -1      1969 1.31470E-02-8.52203E-04-9.73443E-14
 -1      1970 1.35089E-02-9.03336E-04-1.02172E-13
 -1      1971 1.36517E-02-9.08897E-04-1.04150E-13
 -1      1972 1.34326E-02-8.63449E-04-1.01256E-13
 -1      1973 1.37945E-02-9.14436E-04-1.06135E-13
 -1      1974 1.39373E-02-9.19958E-04-1.08128E-13
 -1      1975 1.37182E-02-8.74569E-04-1.05206E-13
 -1      1976 1.40801E-02-9.25467E-04-1.10128E-13
 -1      1977 1.42229E-02-9.30968E-04-1.12135E-13
 -1      1978 1.40039E-02-8.85609E-04-1.09186E-13
 -1      1979 1.43658E-02-9.36464E-04-1.14152E-13
 -1      1980 1.45086E-02-9.41961E-04-1.16171E-13
 -1      1981 1.42895E-02-8.96606E-04-1.13197E-13
 -1      1982 1.46368E-02-9.48563E-04-1.17978E-13
 -1      1983 1.47796E-02-9.54069E-04-1.20009E-13
 -1      1984 1.48170E-02-9.21909E-04-1.20650E-13
 -1      1985 1.45605E-02-9.08698E-04-1.17020E-13
 -1      1986 1.19164E-03 4.22382E-04-7.05057E-16
 -1      1987 1.03984E-03 3.94885E-04-5.18831E-16
 -1      1988 1.00495E-03 3.64578E-04-5.33278E-16
 -1      1989 1.49449E-03 4.65945E-04-1.16884E-15
 -1      1990 1.34282E-03 4.45795E-04-9.21463E-16
 -1      1991 1.30857E-03 4.16194E-04-9.34989E-16
 -1      1992 1.79995E-03 5.00708E-04-1.75463E-15
 -1      1993 1.64667E-03 4.84043E-04-1.44647E-15
 -1      1994 1.61248E-03 4.54570E-04-1.45794E-15
 -1      1995 2.11028E-03 5.33537E-04-2.46171E-15
 -1      1996 1.95439E-03 5.17014E-04-2.09331E-15
 -1      1997 1.91938E-03 4.87077E-04-2.10212E-15
 -1      1998 2.42652E-03 5.70919E-04-3.28913E-15
 -1      1999 2.26765E-03 5.51327E-04-2.86057E-15
 -1      2000 2.23104E-03 5.20391E-04-2.86580E-15
 -1      2001 2.74852E-03 6.19097E-04-4.23381E-15
 -1      2002 2.58689E-03 5.93373E-04-3.74670E-15
 -1      2003 2.54827E-03 5.60987E-04-3.74746E-15
 -1      2004 3.07488E-03 6.83423E-04-5.29904E-15
 -1      2005 2.91138E-03 6.49078E-04-4.75116E-15
 -1      2006 2.87096E-03 6.14967E-04-4.74719E-15
 -1      2007 3.40282E-03 7.66772E-04-6.48478E-15
 -1      2008 3.23902E-03 7.22804E-04-5.87644E-15
 -1      2009 3.19781E-03 6.87057E-04-5.86618E-15
 -1      2010 3.72828E-03 8.67062E-04-7.79156E-15
 -1      2011 3.56632E-03 8.15283E-04-7.12307E-15
 -1      2012 3.52619E-03 7.78602E-04-7.10605E-15
 -1      2013 4.04668E-03 9.74647E-04-9.22432E-15
 -1      2014 3.88878E-03 9.20906E-04-8.49177E-15
 -1      2015 3.85210E-03 8.84746E-04-8.46831E-15
 -1      2016 4.35456E-03 1.07158E-03-1.07866E-14
 -1      2017 4.20208E-03 1.02574E-03-9.98855E-15
 -1      2018 4.17103E-03 9.92058E-04-9.95681E-15
 -1      2019 4.65188E-03 1.13535E-03-1.24859E-14
 -1      2020 4.50422E-03 1.10877E-03-1.16191E-14
 -1      2021 4.48001E-03 1.07916E-03-1.15788E-14
 -1      2022 4.94336E-03 1.14758E-03-1.43239E-14
 -1      2023 4.79763E-03 1.14836E-03-1.33877E-14
 -1      2024 4.78033E-03 1.12304E-03-1.33384E-14
 -1      2025 5.23683E-03 1.10314E-03-1.62978E-14
 -1      2026 5.08905E-03 1.13191E-03-1.52936E-14
 -1      2027 5.07807E-03 1.10951E-03-1.52358E-14
 -1      2028 5.53938E-03 1.01309E-03-1.84080E-14
 -1      2029 5.38647E-03 1.06257E-03-1.73366E-14
 -1      2030 5.38112E-03 1.04095E-03-1.72702E-14
 -1      2031 5.85396E-03 8.98840E-04-2.06438E-14
 -1      2032 5.69511E-03 9.57626E-04-1.95101E-14
 -1      2033 5.69451E-03 9.35108E-04-1.94349E-14
 -1      2034 6.17911E-03 7.82373E-04-2.30038E-14
 -1      2035 6.01549E-03 8.39891E-04-2.18094E-14
 -1      2036 6.01826E-03 8.15789E-04-2.17270E-14
 -1      2037 6.51074E-03 6.79293E-04-2.54795E-14
 -1      2038 6.34452E-03 7.28691E-04-2.42272E-14
 -1      2039 6.34881E-03 7.03087E-04-2.41387E-14
 -1      2040 6.84437E-03 5.96913E-04-2.80687E-14
 -1      2041 6.67769E-03 6.35453E-04-2.67599E-14
 -1      2042 6.68162E-03 6.08763E-04-2.66655E-14
 -1      2043 7.17630E-03 5.36115E-04-3.07644E-14
 -1      2044 7.01084E-03 5.63986E-04-2.94043E-14
 -1      2045 7.01297E-03 5.36636E-04-2.93021E-14
 -1      2046 7.50409E-03 4.94111E-04-3.35632E-14
 -1      2047 7.34089E-03 5.13019E-04-3.21518E-14
 -1      2048 7.34043E-03 4.85348E-04-3.20428E-14
 -1      2049 7.82643E-03 4.66727E-04-3.64592E-14
 -1      2050 7.66602E-03 4.78845E-04-3.49983E-14
 -1      2051 7.66275E-03 4.51096E-04-3.48815E-14
 -1      2052 8.14290E-03 4.49786E-04-3.94452E-14
 -1      2053 7.98541E-03 4.57164E-04-3.79413E-14
 -1      2054 7.97951E-03 4.29502E-04-3.78159E-14
 -1      2055 8.45367E-03 4.39739E-04-4.25219E-14
 -1      2056 8.29897E-03 4.44063E-04-4.09730E-14
 -1      2057 8.29083E-03 4.16590E-04-4.08399E-14
 -1      2058 8.75927E-03 4.33850E-04-4.56841E-14
 -1      2059 8.60707E-03 4.36390E-04-4.40925E-14
 -1      2060 8.59716E-03 4.09163E-04-4.39515E-14
 -1      2061 9.06039E-03 4.30143E-04-4.89327E-14
 -1      2062 8.91033E-03 4.31801E-04-4.72970E-14
 -1      2063 8.89909E-03 4.04841E-04-4.71485E-14
 -1      2064 9.35776E-03 4.27271E-04-5.22626E-14
 -1      2065 9.20949E-03 4.28652E-04-5.05886E-14
 -1      2066 9.19730E-03 4.01955E-04-5.04321E-14
 -1      2067 9.65209E-03 4.24372E-04-5.56644E-14
 -1      2068 9.50525E-03 4.25854E-04-5.39547E-14
 -1      2069 9.49244E-03 3.99402E-04-5.37923E-14
 -1      2070 9.94401E-03 4.20931E-04-5.91270E-14
 -1      2071 9.79831E-03 4.22734E-04-5.73874E-14
 -1      2072 9.78510E-03 3.96500E-04-5.72162E-14
 -1      2073 1.02341E-02 4.16677E-04-6.26446E-14
 -1      2074 1.00892E-02 4.18911E-04-6.08809E-14
 -1      2075 1.00758E-02 3.92864E-04-6.07011E-14
 -1      2076 1.05227E-02 4.11506E-04-6.62104E-14
 -1      2077 1.03786E-02 4.14206E-04-6.44213E-14
 -1      2078 1.03650E-02 3.88316E-04-6.42374E-14
 -1      2079 1.08104E-02 4.05413E-04-6.98228E-14
 -1      2080 1.06666E-02 4.08570E-04-6.80113E-14
 -1      2081 1.06531E-02 3.82809E-04-6.78220E-14
 -1      2082 1.10972E-02 3.98458E-04-7.34823E-14
 -1      2083 1.09539E-02 4.02037E-04-7.16479E-14
 -1      2084 1.09404E-02 3.76378E-04-7.14542E-14
 -1      2085 1.13836E-02 3.90734E-04-7.71816E-14
 -1      2086 1.12404E-02 3.94686E-04-7.53254E-14
 -1      2087 1.12270E-02 3.69107E-04-7.51270E-14
 -1      2088 1.16695E-02 3.82346E-04-8.09205E-14
 -1      2089 1.15266E-02 3.86616E-04-7.90467E-14
 -1      2090 1.15132E-02 3.61099E-04-7.88398E-14
 -1      2091 1.19553E-02 3.73402E-04-8.47035E-14
 -1      2092 1.18124E-02 3.77937E-04-8.28066E-14
 -1      2093 1.17991E-02 3.52467E-04-8.25939E-14
 -1      2094 1.22409E-02 3.64002E-04-8.85229E-14
 -1      2095 1.20981E-02 3.68753E-04-8.66081E-14
 -1      2096 1.20849E-02 3.43317E-04-8.63903E-14
 -1      2097 1.25265E-02 3.54238E-04-9.23680E-14
 -1      2098 1.23837E-02 3.59161E-04-9.04420E-14
 -1      2099 1.23705E-02 3.33749E-04-9.02180E-14
 -1      2100 1.28120E-02 3.44191E-04-9.62260E-14
 -1      2101 1.26692E-02 3.49246E-04-9.42957E-14
 -1      2102 1.26561E-02 3.23851E-04-9.40682E-14
 -1      2103 1.30975E-02 3.33927E-04-1.00090E-13
 -1      2104 1.29547E-02 3.39083E-04-9.81598E-14
 -1      2105 1.29417E-02 3.13698E-04-9.79245E-14
 -1      2106 1.33830E-02 3.23506E-04-1.03948E-13
 -1      2107 1.32403E-02 3.28734E-04-1.02022E-13
 -1      2108 1.32272E-02 3.03356E-04-1.01786E-13
 -1      2109 1.36686E-02 3.12977E-04-1.07791E-13
 -1      2110 1.35258E-02 3.18253E-04-1.05871E-13
 -1      2111 1.35128E-02 2.92878E-04-1.05636E-13
 -1      2112 1.39542E-02 3.02382E-04-1.11619E-13
 -1      2113 1.38114E-02 3.07686E-04-1.09706E-13
 -1      2114 1.37984E-02 2.82312E-04-1.09472E-13
 -1      2115 1.42398E-02 2.91758E-04-1.15440E-13
 -1      2116 1.40970E-02 2.97072E-04-1.13531E-13
 -1      2117 1.40841E-02 2.71695E-04-1.13299E-13
 -1      2118 1.45255E-02 2.81134E-04-1.19248E-13
 -1      2119 1.43827E-02 2.86444E-04-1.17344E-13
 -1      2120 1.43697E-02 2.61064E-04-1.17119E-13
 -1      2121 1.47608E-02 2.69427E-04-1.22377E-13
 -1      2122 1.46179E-02 2.74725E-04-1.20474E-13
 -1      2123 1.46050E-02 2.49341E-04-1.20252E-13
 -1      2124 1.47898E-02 2.36528E-04-1.22706E-13
 -1      2125 1.47869E-02 2.79015E-06-1.22244E-13
 -1      2126 1.47818E-02 4.49715E-05-1.22248E-13
 -1      2127 1.47766E-02 8.71464E-05-1.22252E-13
 -1      2128 1.47715E-02 1.29315E-04-1.22261E-13
 -1      2129 1.46555E-02 7.06605E-05-1.20590E-13
 -1      2130 1.47832E-02 1.61846E-04-1.22479E-13
 -1      2131 1.47781E-02 2.04004E-04-1.22487E-13
 -1      2132 1.46856E-02 2.10411E-04-1.21258E-13
 -1      2133 1.46621E-02 1.45359E-04-1.20818E-13
 -1      2134 1.47971E-02-8.01601E-05-1.22246E-13
 -1      2135 1.47920E-02-3.86824E-05-1.22243E-13
 -1      2136 1.46657E-02-1.29774E-05-1.20577E-13
 -1      2137 1.48075E-02-1.64561E-04-1.22260E-13
 -1      2138 1.48023E-02-1.22359E-04-1.22252E-13
 -1      2139 1.46760E-02-9.66350E-05-1.20570E-13
 -1      2140 1.48180E-02-2.48978E-04-1.22274E-13
 -1      2141 1.48127E-02-2.06769E-04-1.22269E-13
 -1      2142 1.46864E-02-1.81024E-04-1.20571E-13
 -1      2143 1.48286E-02-3.33404E-04-1.22283E-13
 -1      2144 1.48233E-02-2.91191E-04-1.22281E-13
 -1      2145 1.46969E-02-2.65424E-04-1.20572E-13
 -1      2146 1.48392E-02-4.17832E-04-1.22283E-13
 -1      2147 1.48339E-02-3.75619E-04-1.22283E-13
 -1      2148 1.47075E-02-3.49829E-04-1.20566E-13
 -1      2149 1.48500E-02-5.02254E-04-1.22264E-13
 -1      2150 1.48446E-02-4.60044E-04-1.22274E-13
 -1      2151 1.47182E-02-4.34235E-04-1.20548E-13
 -1      2152 1.48606E-02-5.85233E-04-1.22232E-13
 -1      2153 1.48553E-02-5.43746E-04-1.22248E-13
 -1      2154 1.47288E-02-5.17920E-04-1.20517E-13
 -1      2155 1.48715E-02-6.69625E-04-1.22182E-13
 -1      2156 1.48660E-02-6.27432E-04-1.22211E-13
 -1      2157 1.47396E-02-6.01594E-04-1.20471E-13
 -1      2158 1.48824E-02-7.53993E-04-1.22110E-13
 -1      2159 1.48770E-02-7.11812E-04-1.22148E-13
 -1      2160 1.47505E-02-6.85966E-04-1.20409E-13
 -1      2161 1.48934E-02-8.38337E-04-1.22018E-13
 -1      2162 1.48879E-02-7.96168E-04-1.22066E-13
 -1      2163 1.47614E-02-7.70319E-04-1.20326E-13
 -1      2164 6.76519E-03 9.90479E-05-1.97376E-14
 -1      2165 6.90936E-03 4.39789E-05-2.00154E-14
 -1      2166 7.18044E-03-6.70090E-05-2.06025E-14
 -1      2167 7.18402E-03-8.29014E-05-2.05418E-14
 -1      2168 7.03638E-03-6.98145E-06-2.03197E-14
 -1      2169 7.12307E-03-3.74365E-05-2.05335E-14
 -1      2170 6.39971E-03 2.59740E-04-1.90089E-14
 -1      2171 6.58593E-03 1.76838E-04-1.93612E-14
 -1      2172 5.97129E-03 4.86806E-04-1.79460E-14
 -1      2173 6.15522E-03 3.80299E-04-1.84668E-14
 -1      2174 3.27840E-04-6.35337E-05-1.58646E-16
 -1      2175 3.32693E-04-7.60042E-05-1.51084E-16
 -1      2176 4.52674E-04-1.11488E-04-2.19524E-16
 -1      2177 4.38464E-04-7.84072E-05-2.39500E-16
 -1      2178 5.23936E-03 8.60170E-04-1.55934E-14
 -1      2179 5.39312E-03 7.94070E-04-1.61617E-14
 -1      2180 4.92765E-03 9.21657E-04-1.44498E-14
 -1      2181 5.07659E-03 9.03356E-04-1.49980E-14
 -1      2182 4.59005E-03 8.72167E-04-1.32604E-14
 -1      2183 4.74222E-03 9.10799E-04-1.37832E-14
 -1      2184 4.25666E-03 7.28957E-04-1.22460E-14
 -1      2185 4.41842E-03 8.09657E-04-1.27327E-14
 -1      2186 3.88670E-03 5.21123E-04-1.12794E-14
 -1      2187 4.06236E-03 6.24054E-04-1.17064E-14
 -1      2188 3.46173E-03 2.96502E-04-1.04742E-14
 -1      2189 3.64874E-03 3.89717E-04-1.07692E-14
 -1      2190 3.10208E-03 1.35861E-04-9.93669E-15
 -1      2191 3.27696E-03 2.11768E-04-1.02029E-14
 -1      2192 3.37758E-03 2.35746E-04-1.00449E-14
 -1      2193 2.78684E-03 2.46619E-05-9.59178E-15
 -1      2194 2.91080E-03 6.53769E-05-9.72976E-15
 -1      2195 2.64867E-03-3.20629E-05-9.40976E-15
 -1      2196 2.68988E-03-1.44302E-05-9.42800E-15
 -1      2197 2.68020E-03-7.25306E-05-9.49831E-15
 -1      2198 2.64714E-03-5.39588E-05-9.48193E-15
 -1      2199 2.86994E-03-1.46741E-04-9.73232E-15
 -1      2200 2.76379E-03-1.07985E-04-9.59261E-15
 -1      2201 3.17347E-03-2.71265E-04-1.01309E-14
 -1      2202 3.01634E-03-2.05993E-04-9.92468E-15
 -1      2203 3.55112E-03-4.43151E-04-1.06349E-14
 -1      2204 3.36231E-03-3.53388E-04-1.03694E-14
 -1      2205 3.97887E-03-6.77859E-04-1.14476E-14
 -1      2206 3.79708E-03-5.69774E-04-1.10470E-14
 -1      2207 4.33201E-03-8.74087E-04-1.23355E-14
 -1      2208 4.16761E-03-7.84674E-04-1.19104E-14
 -1      2209 4.66261E-03-1.01243E-03-1.33247E-14
 -1      2210 4.51777E-03-9.57526E-04-1.28556E-14
 -1      2211 4.95640E-03-1.05580E-03-1.43626E-14
 -1      2212 4.81311E-03-1.04605E-03-1.38382E-14
 -1      2213 4.73915E-03-1.03779E-03-1.34795E-14
 -1      2214 5.30662E-03-9.83970E-04-1.56469E-14
 -1      2215 5.15882E-03-1.03059E-03-1.51121E-14
 -1      2216 5.62991E-03-8.37390E-04-1.66953E-14
 -1      2217 5.47602E-03-9.15563E-04-1.61950E-14
 -1      2218 5.98104E-03-6.44649E-04-1.77450E-14
 -1      2219 5.81453E-03-7.38493E-04-1.72757E-14
 -1      2220 6.34165E-03-4.48576E-04-1.87155E-14
 -1      2221 6.16795E-03-5.44384E-04-1.82408E-14
 -1      2222 6.71669E-03-2.67464E-04-1.96676E-14
 -1      2223 6.55700E-03-3.33708E-04-1.93678E-14
 -1      2224 6.96884E-03-1.72856E-04-2.01350E-14
 -1      2225 6.85029E-03-2.15645E-04-1.99000E-14
 -1      2226 6.77511E-03-2.21813E-04-2.03356E-14
 -1      2227 7.14950E-03-1.07725E-04-2.04096E-14
 -1      2228 7.08692E-03-1.31049E-04-2.02873E-14
 -1      2229 5.61271E-03 6.84582E-04-1.69164E-14
 -1      2230 5.79014E-03 5.87137E-04-1.74260E-14
 -1      2231 5.86068E-03 5.24436E-04-1.80021E-14
 -1      2232 6.26211E-03 3.03744E-04-1.90796E-14
 -1      2233 6.30780E-04-2.61630E-04-2.10511E-16
 -1      2234 5.49066E-03 7.39863E-04-1.67079E-14
 -1      2235 6.87719E-04-2.50084E-04-2.95133E-16
 -1      2236 6.97209E-03-9.45368E-07-2.07087E-14
 -1      2237 7.16168E-03-5.91665E-05-2.10890E-14
 -1      2238 1.48561E-02-8.70507E-04-1.21379E-13
 -1      2239 6.67045E-03 1.12573E-04-2.00157E-14
 -1      2240 7.17496E-03-9.01303E-05-2.10238E-14
 -1      2241 7.02657E-03-1.38769E-04-2.07320E-14
 -1      2242 6.44339E-03-3.71584E-04-1.94304E-14
 -1      2243 6.05021E-03-5.83565E-04-1.82704E-14
 -1      2244 5.70275E-03-7.84387E-04-1.71802E-14
 -1      2245 5.05074E-03-1.05634E-03-1.47344E-14
 -1      2246 4.44372E-03-9.19506E-04-1.24536E-14
 -1      2247 4.09941E-03-7.26079E-04-1.14834E-14
 -1      2248 3.69233E-03-4.92550E-04-1.06254E-14
 -1      2249 3.27671E-03-2.87390E-04-9.99418E-15
 -1      2250 2.94724E-03-1.55710E-04-9.57547E-15
 -1      2251 2.71589E-03-7.86982E-05-9.29718E-15
 -1      2252 2.63835E-03-4.10048E-05-9.13401E-15
 -1      2253 3.00997E-03 8.64072E-05-9.58161E-15
 -1      2254 3.77739E-03 4.45250E-04-1.08038E-14
 -1      2255 4.18533E-03 6.80595E-04-1.18402E-14
 -1      2256 4.52122E-03 8.49203E-04-1.29008E-14
 -1      2257 5.14571E-03 8.91973E-04-1.53538E-14
 -1      2258 4.83430E-03 9.28156E-04-1.40877E-14
 -1      2259 2.72721E-03-7.06134E-06-9.22099E-15
 -1      2260 5.37777E-03-9.54609E-04-1.60427E-14
 -1      2261 1.05729E-03 3.41906E-04-6.66893E-16
 -1      2262 9.05446E-04 3.12175E-04-4.91198E-16
 -1      2263 5.25472E-04-3.55265E-05-3.71637E-16
 -1      2264 5.29850E-04-4.70454E-05-3.67477E-16
 -1      2265 5.35338E-04-5.97564E-05-3.62015E-16
 -1      2266 5.41791E-04-7.38483E-05-3.55225E-16
 -1      2267 6.42997E-04-6.40077E-05-4.94667E-16
 -1      2268 5.19251E-04 4.54756E-06-3.77994E-16
 -1      2269 5.19056E-04-5.08018E-06-3.77750E-16
 -1      2270 5.23096E-04 2.46811E-05-3.75527E-16
 -1      2271 5.20615E-04 1.44028E-05-3.77221E-16
 -1      2272 6.26813E-04 1.13433E-05-5.11269E-16
 -1      2273 5.31121E-04 4.72407E-05-3.68873E-16
 -1      2274 5.26622E-04 3.55155E-05-3.72898E-16
 -1      2275 6.33131E-04 3.59992E-05-5.06905E-16
 -1      2276 5.43215E-04 7.50027E-05-3.57001E-16
 -1      2277 5.36721E-04 6.04163E-05-3.63641E-16
 -1      2278 6.44802E-04 6.44118E-05-4.96809E-16
 -1      2279 5.59096E-04 1.09721E-04-3.38352E-16
 -1      2280 5.50718E-04 9.13879E-05-3.48639E-16
 -1      2281 6.61488E-04 9.90916E-05-4.79909E-16
 -1      2282 5.79362E-04 1.53945E-04-3.09513E-16
 -1      2283 5.68679E-04 1.30501E-04-3.25505E-16
 -1      2284 6.82958E-04 1.42083E-04-4.53630E-16
 -1      2285 6.15847E-03 3.42959E-04-1.93007E-14
 -1      2286 6.37460E-03 2.29390E-04-1.98616E-14
 -1      2287 1.35997E-03 3.88542E-04-1.10757E-15
 -1      2288 1.20858E-03 3.67209E-04-8.72173E-16
 -1      2289 1.11003E-03 3.18930E-04-8.06890E-16
 -1      2290 9.47498E-04-2.88994E-04-5.85754E-16
 -1      2291 1.09813E-03-3.15490E-04-7.75706E-16
 -1      2292 5.38146E-03 7.96279E-04-1.65061E-14
 -1      2293 5.56694E-03 6.90120E-04-1.72728E-14
 -1      2294 1.24854E-03-3.37983E-04-9.94634E-16
 -1      2295 1.39931E-03-3.57019E-04-1.24302E-15
 -1      2296 1.15040E-03-2.92475E-04-9.19715E-16
 -1      2297 1.55029E-03-3.73749E-04-1.52016E-15
 -1      2298 1.70190E-03-3.88707E-04-1.82681E-15
 -1      2299 1.44851E-03-3.29330E-04-1.42365E-15
 -1      2300 1.85424E-03-4.02971E-04-2.16262E-15
 -1      2301 2.00760E-03-4.17154E-04-2.52786E-15
 -1      2302 1.74834E-03-3.58158E-04-2.04350E-15
 -1      2303 2.16222E-03-4.32285E-04-2.92161E-15
 -1      2304 2.31825E-03-4.49121E-04-3.34501E-15
 -1      2305 2.05131E-03-3.85062E-04-2.77896E-15
 -1      2306 2.47611E-03-4.68647E-04-3.79693E-15
 -1      2307 2.63574E-03-4.91791E-04-4.27754E-15
 -1      2308 2.35944E-03-4.16559E-04-3.62918E-15
 -1      2309 2.79778E-03-5.19423E-04-4.78719E-15
 -1      2310 2.96184E-03-5.52582E-04-5.32579E-15
 -1      2311 2.67528E-03-4.59765E-04-4.59372E-15
 -1      2312 3.12878E-03-5.91826E-04-5.89296E-15
 -1      2313 3.29764E-03-6.38057E-04-6.48896E-15
 -1      2314 3.00165E-03-5.22264E-04-5.67185E-15
 -1      2315 3.46937E-03-6.91193E-04-7.11421E-15
 -1      2316 3.64220E-03-7.51338E-04-7.76923E-15
 -1      2317 3.34078E-03-6.11135E-04-6.86468E-15
 -1      2318 3.81682E-03-8.17347E-04-8.45500E-15
 -1      2319 3.99076E-03-8.87232E-04-9.17151E-15
 -1      2320 3.69211E-03-7.30288E-04-8.17432E-15
 -1      2321 4.16399E-03-9.58417E-04-9.91975E-15
 -1      2322 4.33465E-03-1.02610E-03-1.07008E-14
 -1      2323 4.04950E-03-8.73935E-04-9.60660E-15
 -1      2324 4.50176E-03-1.08651E-03-1.15146E-14
 -1      2325 4.66623E-03-1.13338E-03-1.23629E-14
 -1      2326 4.40129E-03-1.01826E-03-1.11659E-14
 -1      2327 4.82659E-03-1.16352E-03-1.32468E-14
 -1      2328 4.98705E-03-1.17274E-03-1.41648E-14
 -1      2329 4.73852E-03-1.12115E-03-1.28620E-14
 -1      2330 5.14619E-03-1.16059E-03-1.51180E-14
 -1      2331 5.30900E-03-1.12932E-03-1.61068E-14
 -1      2332 5.06568E-03-1.14130E-03-1.46996E-14
 -1      2333 5.47402E-03-1.08141E-03-1.71281E-14
 -1      2334 5.64322E-03-1.02306E-03-1.81829E-14
 -1      2335 5.39858E-03-1.07129E-03-1.66771E-14
 -1      2336 5.81544E-03-9.58094E-04-1.92709E-14
 -1      2337 5.98955E-03-8.92200E-04-2.03902E-14
 -1      2338 5.74669E-03-9.44725E-04-1.87907E-14
 -1      2339 6.16514E-03-8.28515E-04-2.15383E-14
 -1      2340 6.33975E-03-7.69900E-04-2.27158E-14
 -1      2341 6.10457E-03-8.07143E-04-2.10315E-14
 -1      2342 6.51387E-03-7.18090E-04-2.39216E-14
 -1      2343 6.68546E-03-6.73557E-04-2.51542E-14
 -1      2344 6.46019E-03-6.89645E-04-2.33899E-14
 -1      2345 6.85540E-03-6.36831E-04-2.64123E-14
 -1      2346 7.02249E-03-6.07233E-04-2.76963E-14
 -1      2347 6.80521E-03-6.03613E-04-2.58572E-14
 -1      2348 7.18759E-03-5.84551E-04-2.90080E-14
 -1      2349 7.35015E-03-5.67825E-04-3.03430E-14
 -1      2350 7.13739E-03-5.48277E-04-2.84299E-14
 -1      2351 7.51084E-03-5.56485E-04-3.17036E-14
 -1      2352 7.66949E-03-5.49662E-04-3.30886E-14
 -1      2353 7.45817E-03-5.18141E-04-3.11031E-14
 -1      2354 7.82650E-03-5.46693E-04-3.44978E-14
 -1      2355 7.98195E-03-5.46907E-04-3.59310E-14
 -1      2356 7.77011E-03-5.06869E-04-3.38745E-14
 -1      2357 8.13602E-03-5.49693E-04-3.73879E-14
 -1      2358 8.28887E-03-5.54566E-04-3.88672E-14
 -1      2359 8.07557E-03-5.08821E-04-3.67414E-14
 -1      2360 8.44057E-03-5.61035E-04-4.03684E-14
 -1      2361 8.59133E-03-5.68760E-04-4.18922E-14
 -1      2362 8.37634E-03-5.19475E-04-3.96992E-14
 -1      2363 8.74113E-03-5.77376E-04-4.34363E-14
 -1      2364 8.89017E-03-5.86655E-04-4.50001E-14
 -1      2365 8.67364E-03-5.35434E-04-4.27443E-14
 -1      2366 9.03842E-03-5.96344E-04-4.65836E-14
 -1      2367 9.18607E-03-6.06292E-04-4.81865E-14
 -1      2368 8.96830E-03-5.54260E-04-4.58697E-14
 -1      2369 9.33308E-03-6.16337E-04-4.98082E-14
 -1      2370 9.47959E-03-6.26382E-04-5.14459E-14
 -1      2371 9.26093E-03-5.74287E-04-4.90731E-14
 -1      2372 9.62559E-03-6.36333E-04-5.31014E-14
 -1      2373 9.77120E-03-6.46129E-04-5.47725E-14
 -1      2374 9.55194E-03-5.94434E-04-5.23468E-14
 -1      2375 9.91640E-03-6.55724E-04-5.64580E-14
 -1      2376 1.00613E-02-6.65083E-04-5.81608E-14
 -1      2377 9.84167E-03-6.14043E-04-5.56867E-14
 -1      2378 1.02059E-02-6.74190E-04-5.98756E-14
 -1      2379 1.03502E-02-6.83028E-04-6.16008E-14
 -1      2380 1.01304E-02-6.32757E-04-5.90862E-14
 -1      2381 1.04943E-02-6.91602E-04-6.33383E-14
 -1      2382 1.06382E-02-6.99905E-04-6.50873E-14
 -1      2383 1.04183E-02-6.50422E-04-6.25378E-14
 -1      2384 1.07819E-02-7.07953E-04-6.68474E-14
 -1      2385 1.09254E-02-7.15746E-04-6.86189E-14
 -1      2386 1.07056E-02-6.67012E-04-6.60353E-14
 -1      2387 1.10689E-02-7.23307E-04-7.04020E-14
 -1      2388 1.12122E-02-7.30640E-04-7.21944E-14
 -1      2389 1.09924E-02-6.82582E-04-6.95780E-14
 -1      2390 1.13554E-02-7.37768E-04-7.39971E-14
 -1      2391 1.14986E-02-7.44699E-04-7.58109E-14
 -1      2392 1.12789E-02-6.97232E-04-7.31649E-14
 -1      2393 1.16417E-02-7.51456E-04-7.76347E-14
 -1      2394 1.17847E-02-7.58046E-04-7.94683E-14
 -1      2395 1.15651E-02-7.11079E-04-7.67943E-14
 -1      2396 1.19277E-02-7.64493E-04-8.13110E-14
 -1      2397 1.20706E-02-7.70802E-04-8.31634E-14
 -1      2398 1.18511E-02-7.24249E-04-8.04637E-14
 -1      2399 1.22135E-02-7.76995E-04-8.50258E-14
 -1      2400 1.23564E-02-7.83077E-04-8.69005E-14
 -1      2401 1.21370E-02-7.36858E-04-8.41712E-14
 -1      2402 1.24993E-02-7.89067E-04-8.87874E-14
 -1      2403 1.26421E-02-7.94970E-04-9.06831E-14
 -1      2404 1.24228E-02-7.49015E-04-8.79196E-14
 -1      2405 1.27850E-02-8.00800E-04-9.25923E-14
 -1      2406 1.29278E-02-8.06564E-04-9.45143E-14
 -1      2407 1.27085E-02-7.60814E-04-9.17128E-14
 -1      2408 1.30706E-02-8.12274E-04-9.64444E-14
 -1      2409 1.32135E-02-8.17933E-04-9.83887E-14
 -1      2410 1.29942E-02-7.72336E-04-9.55509E-14
 -1      2411 1.33563E-02-8.23553E-04-1.00345E-13
 -1      2412 1.34991E-02-8.29138E-04-1.02308E-13
 -1      2413 1.32799E-02-7.83651E-04-9.94320E-14
 -1      2414 1.36419E-02-8.34695E-04-1.04278E-13
 -1      2415 1.37847E-02-8.40229E-04-1.06258E-13
 -1      2416 1.35656E-02-7.94817E-04-1.03353E-13
 -1      2417 1.39276E-02-8.45746E-04-1.08246E-13
 -1      2418 1.40704E-02-8.51250E-04-1.10239E-13
 -1      2419 1.38513E-02-8.05881E-04-1.07307E-13
 -1      2420 1.42132E-02-8.56746E-04-1.12244E-13
 -1      2421 1.43561E-02-8.62237E-04-1.14259E-13
 -1      2422 1.41370E-02-8.16884E-04-1.11295E-13
 -1      2423 1.96989E-03 4.54967E-04-2.34685E-15
 -1      2424 1.81623E-03 4.39652E-04-1.99240E-15
 -1      2425 2.28076E-03 4.88144E-04-3.14442E-15
 -1      2426 2.12473E-03 4.70926E-04-2.73074E-15
 -1      2427 2.01819E-03 4.22850E-04-2.59525E-15
 -1      2428 2.59721E-03 5.29930E-04-4.05824E-15
 -1      2429 2.43833E-03 5.07592E-04-3.58672E-15
 -1      2430 2.32799E-03 4.55795E-04-3.42565E-15
 -1      2431 2.91967E-03 5.86409E-04-5.09000E-15
 -1      2432 2.75784E-03 5.55999E-04-4.55963E-15
 -1      2433 2.64396E-03 4.98544E-04-4.37203E-15
 -1      2434 3.24762E-03 6.62164E-04-6.24029E-15
 -1      2435 3.08326E-03 6.21687E-04-5.64994E-15
 -1      2436 2.96725E-03 5.57221E-04-5.43470E-15
 -1      2437 3.57894E-03 7.58065E-04-7.51035E-15
 -1      2438 3.41331E-03 7.07750E-04-6.86048E-15
 -1      2439 3.29798E-03 6.36450E-04-6.61530E-15
 -1      2440 3.90956E-03 8.68090E-04-8.90264E-15
 -1      2441 3.74486E-03 8.12041E-04-8.19044E-15
 -1      2442 3.63422E-03 7.36881E-04-7.91497E-15
 -1      2443 4.23420E-03 9.76657E-04-1.04233E-14
 -1      2444 4.07299E-03 9.23964E-04-9.64684E-15
 -1      2445 3.97110E-03 8.51382E-04-9.33726E-15
 -1      2446 4.54905E-03 1.05962E-03-1.20774E-14
 -1      2447 4.39268E-03 1.02312E-03-1.12332E-14
 -1      2448 4.30183E-03 9.61703E-04-1.08887E-14
 -1      2449 4.85566E-03 1.09231E-03-1.38707E-14
 -1      2450 4.70256E-03 1.08346E-03-1.29569E-14
 -1      2451 4.62180E-03 1.03973E-03-1.25757E-14
 -1      2452 5.16144E-03 1.06260E-03-1.57999E-14
 -1      2453 5.00760E-03 1.08521E-03-1.48183E-14
 -1      2454 4.93387E-03 1.05913E-03-1.44011E-14
 -1      2455 5.47456E-03 9.78184E-04-1.78668E-14
 -1      2456 5.31642E-03 1.02593E-03-1.68167E-14
 -1      2457 5.24762E-03 1.01102E-03-1.63645E-14
 -1      2458 5.79832E-03 8.62208E-04-2.00634E-14
 -1      2459 5.63513E-03 9.22421E-04-1.89493E-14
 -1      2460 5.57121E-03 9.10196E-04-1.84636E-14
 -1      2461 6.13010E-03 7.40192E-04-2.23860E-14
 -1      2462 5.96368E-03 8.00542E-04-2.12083E-14
 -1      2463 5.90539E-03 7.85363E-04-2.06934E-14
 -1      2464 6.46461E-03 6.30836E-04-2.48286E-14
 -1      2465 6.29755E-03 6.83210E-04-2.35928E-14
 -1      2466 6.24445E-03 6.62914E-04-2.30475E-14
 -1      2467 6.79729E-03 5.42915E-04-2.73821E-14
 -1      2468 6.63159E-03 5.83999E-04-2.60912E-14
 -1      2469 6.58184E-03 5.58821E-04-2.55188E-14
 -1      2470 7.12541E-03 4.77811E-04-3.00445E-14
 -1      2471 6.96216E-03 5.07624E-04-2.87013E-14
 -1      2472 6.91338E-03 4.78504E-04-2.81011E-14
 -1      2473 7.44787E-03 4.32767E-04-3.28082E-14
 -1      2474 7.28745E-03 4.53026E-04-3.14136E-14
 -1      2475 7.23762E-03 4.20940E-04-3.07884E-14
 -1      2476 7.76455E-03 4.03440E-04-3.56675E-14
 -1      2477 7.60695E-03 4.16403E-04-3.42253E-14
 -1      2478 7.55479E-03 3.82190E-04-3.35723E-14
 -1      2479 8.07581E-03 3.85436E-04-3.86181E-14
 -1      2480 7.92083E-03 3.93259E-04-3.71306E-14
 -1      2481 7.86581E-03 3.57602E-04-3.64493E-14
 -1      2482 8.38223E-03 3.74983E-04-4.16617E-14
 -1      2483 8.22958E-03 3.79455E-04-4.01298E-14
 -1      2484 8.17170E-03 3.42904E-04-3.94214E-14
 -1      2485 8.68444E-03 3.69141E-04-4.47902E-14
 -1      2486 8.53381E-03 3.71629E-04-4.32155E-14
 -1      2487 8.47339E-03 3.34611E-04-4.24823E-14
 -1      2488 8.98306E-03 3.65769E-04-4.80065E-14
 -1      2489 8.83414E-03 3.67249E-04-4.63880E-14
 -1      2490 8.77163E-03 3.30080E-04-4.56294E-14
 -1      2491 9.27871E-03 3.63392E-04-5.13058E-14
 -1      2492 9.13121E-03 3.64526E-04-4.96457E-14
 -1      2493 9.06708E-03 3.27424E-04-4.88629E-14
 -1      2494 9.57193E-03 3.61055E-04-5.46774E-14
 -1      2495 9.42558E-03 3.62264E-04-5.29820E-14
 -1      2496 9.36026E-03 3.25364E-04-5.21763E-14
 -1      2497 9.86320E-03 3.58181E-04-5.81106E-14
 -1      2498 9.71777E-03 3.59713E-04-5.63867E-14
 -1      2499 9.65161E-03 3.23090E-04-5.55602E-14
 -1      2500 1.01529E-02 3.54462E-04-6.16046E-14
 -1      2501 1.00082E-02 3.56442E-04-5.98508E-14
 -1      2502 9.94151E-03 3.20127E-04-5.90048E-14
 -1      2503 1.04415E-02 3.49769E-04-6.51509E-14
 -1      2504 1.02973E-02 3.52244E-04-6.33727E-14
 -1      2505 1.02303E-02 3.16236E-04-6.25078E-14
 -1      2506 1.07291E-02 3.44092E-04-6.87422E-14
 -1      2507 1.05854E-02 3.47055E-04-6.69406E-14
 -1      2508 1.05182E-02 3.11334E-04-6.60617E-14
 -1      2509 1.10161E-02 3.37487E-04-7.23820E-14
 -1      2510 1.08727E-02 3.40903E-04-7.05563E-14
 -1      2511 1.08054E-02 3.05440E-04-6.96609E-14
 -1      2512 1.13026E-02 3.30051E-04-7.60605E-14
 -1      2513 1.11594E-02 3.33869E-04-7.42162E-14
 -1      2514 1.10921E-02 2.98629E-04-7.33070E-14
 -1      2515 1.15888E-02 3.21894E-04-7.97788E-14
 -1      2516 1.14458E-02 3.26057E-04-7.79141E-14
 -1      2517 1.13784E-02 2.91006E-04-7.69914E-14
 -1      2518 1.18748E-02 3.13132E-04-8.35378E-14
 -1      2519 1.17318E-02 3.17583E-04-8.16533E-14
 -1      2520 1.16645E-02 2.82686E-04-8.07152E-14
 -1      2521 1.21605E-02 3.03873E-04-8.73394E-14
 -1      2522 1.20177E-02 3.08559E-04-8.54343E-14
 -1      2523 1.19504E-02 2.73787E-04-8.44803E-14
 -1      2524 1.24462E-02 2.94215E-04-9.11660E-14
 -1      2525 1.23034E-02 2.99089E-04-8.92477E-14
 -1      2526 1.22362E-02 2.64414E-04-8.82840E-14
 -1      2527 1.27319E-02 2.84244E-04-9.50131E-14
 -1      2528 1.25890E-02 2.89265E-04-9.30905E-14
 -1      2529 1.25220E-02 2.54665E-04-9.21126E-14
 -1      2530 1.30175E-02 2.74035E-04-9.88686E-14
 -1      2531 1.28747E-02 2.79166E-04-9.69404E-14
 -1      2532 1.28076E-02 2.44623E-04-9.59590E-14
 -1      2533 1.33031E-02 2.63650E-04-1.02722E-13
 -1      2534 1.31603E-02 2.68862E-04-1.00796E-13
 -1      2535 1.30933E-02 2.34359E-04-9.98092E-14
 -1      2536 1.35887E-02 2.53142E-04-1.06568E-13
 -1      2537 1.34459E-02 2.58409E-04-1.04647E-13
 -1      2538 1.33789E-02 2.23933E-04-1.03658E-13
 -1      2539 1.38743E-02 2.42555E-04-1.10405E-13
 -1      2540 1.37315E-02 2.47856E-04-1.08487E-13
 -1      2541 1.36646E-02 2.13396E-04-1.07501E-13
 -1      2542 1.41600E-02 2.31927E-04-1.14238E-13
 -1      2543 1.40172E-02 2.37244E-04-1.12322E-13
 -1      2544 1.39503E-02 2.02790E-04-1.11343E-13
 -1      2545 1.44457E-02 2.21291E-04-1.18059E-13
 -1      2546 1.43028E-02 2.26608E-04-1.16150E-13
 -1      2547 1.42359E-02 1.92152E-04-1.15177E-13
 -1      2548 1.45932E-02 2.16821E-04-1.20030E-13
 -1      2549 1.45548E-02-1.13097E-04-1.18887E-13
 -1      2550 1.45497E-02-7.09139E-05-1.18895E-13
 -1      2551 1.45653E-02-1.97473E-04-1.18876E-13
 -1      2552 1.45600E-02-1.55284E-04-1.18881E-13
 -1      2553 1.44337E-02-1.29550E-04-1.17200E-13
 -1      2554 1.45343E-02 5.41847E-05-1.18926E-13
 -1      2555 1.45292E-02 9.63516E-05-1.18938E-13
 -1      2556 1.45445E-02-2.90910E-05-1.18903E-13
 -1      2557 1.45394E-02 1.23702E-05-1.18913E-13
 -1      2558 1.44131E-02 3.80741E-05-1.17253E-13
 -1      2559 1.44234E-02-4.55530E-05-1.17224E-13
 -1      2560 1.45758E-02-2.81857E-04-1.18863E-13
 -1      2561 1.45705E-02-2.39665E-04-1.18870E-13
 -1      2562 1.44442E-02-2.13913E-04-1.17177E-13
 -1      2563 1.45864E-02-3.66244E-04-1.18843E-13
 -1      2564 1.45811E-02-3.24051E-04-1.18854E-13
 -1      2565 1.44547E-02-2.98281E-04-1.17151E-13
 -1      2566 1.45971E-02-4.50630E-04-1.18810E-13
 -1      2567 1.45917E-02-4.08438E-04-1.18828E-13
 -1      2568 1.44653E-02-3.82651E-04-1.17116E-13
 -1      2569 1.46077E-02-5.33581E-04-1.18768E-13
 -1      2570 1.46024E-02-4.92107E-04-1.18792E-13
 -1      2571 1.44760E-02-4.66304E-04-1.17073E-13
 -1      2572 1.46186E-02-6.17952E-04-1.18711E-13
 -1      2573 1.46131E-02-5.75768E-04-1.18740E-13
 -1      2574 1.44867E-02-5.49952E-04-1.17019E-13
 -1      2575 1.46295E-02-7.02308E-04-1.18636E-13
 -1      2576 1.46240E-02-6.60132E-04-1.18675E-13
 -1      2577 1.44976E-02-6.34307E-04-1.16948E-13
 -1      2578 1.46405E-02-7.86647E-04-1.18545E-13
 -1      2579 1.46350E-02-7.44480E-04-1.18591E-13
 -1      2580 1.45085E-02-7.18649E-04-1.16864E-13
 -1      2581 7.14246E-03-5.84930E-05-2.17122E-14
 -1      2582 7.19556E-03-7.08975E-05-2.17829E-14
 -1      2583 6.58453E-03 1.32499E-04-2.03412E-14
 -1      2584 6.74933E-03 6.60093E-05-2.07310E-14
 -1      2585 1.66349E-03 4.23940E-04-1.66756E-15
 -1      2586 1.51147E-03 4.07287E-04-1.37274E-15
 -1      2587 1.71302E-03 3.93293E-04-1.88148E-15
 -1      2588 1.47278E-02-8.63899E-04-1.19556E-13
 -1      2589 7.19848E-03-8.51799E-05-2.17735E-14
 -1      2590 7.16333E-03-9.38225E-05-2.16359E-14
 -1      2591 6.90740E-03 7.97282E-06-2.11816E-14
 -1      2592 7.02896E-03-2.70077E-05-2.14954E-14
 -1      2593 6.06585E-04-1.97636E-04-2.77461E-16
 -1      2594 8.07266E-04-2.54003E-04-4.44631E-16
 -1      2595 8.63503E-04-2.38351E-04-5.52347E-16
 -1      2596 5.92724E-04-1.69081E-04-2.99917E-16
 -1      2597 6.51451E-03-3.25702E-04-2.01802E-14
 -1      2598 6.31160E-03-4.25892E-04-1.95114E-14
 -1      2599 4.52118E-03-9.58870E-04-1.25214E-14
 -1      2600 4.37116E-03-8.76828E-04-1.20132E-14
 -1      2601 3.68385E-03 3.85611E-04-1.03080E-14
 -1      2602 3.89650E-03 5.07359E-04-1.08006E-14
 -1      2603 5.20035E-04-1.48110E-05-3.76489E-16
 -1      2604 5.22171E-04-2.48474E-05-3.74565E-16
 -1      2605 6.31757E-04-3.63345E-05-5.05414E-16
 -1      2606 6.26288E-04-1.20338E-05-5.10686E-16
 -1      2607 4.77133E-03 9.29752E-04-1.37704E-14
 -1      2608 4.91777E-03 9.40180E-04-1.44369E-14
 -1      2609 2.68063E-03-2.01821E-05-8.78560E-15
 -1      2610 2.77350E-03 1.10900E-06-8.94180E-15
 -1      2611 5.06721E-03 9.20135E-04-1.51031E-14
 -1      2612 5.19732E-03 8.77985E-04-1.57015E-14
 -1      2613 4.45455E-03 8.20806E-04-1.25162E-14
 -1      2614 4.59236E-03 8.82236E-04-1.30366E-14
 -1      2615 4.12309E-03 6.38539E-04-1.14371E-14
 -1      2616 4.29227E-03 7.38064E-04-1.19672E-14
 -1      2617 3.28373E-03 1.86037E-04-9.58161E-15
 -1      2618 3.44668E-03 2.62649E-04-9.83733E-15
 -1      2619 5.45751E-03-9.15919E-04-1.65454E-14
 -1      2620 5.32324E-03-9.84446E-04-1.59873E-14
 -1      2621 2.91075E-03 4.33392E-05-9.12938E-15
 -1      2622 3.08354E-03 1.02705E-04-9.32257E-15
 -1      2623 2.82600E-03 2.09208E-05-8.69004E-15
 -1      2624 2.63387E-03-4.59285E-05-8.85682E-15
 -1      2625 2.62957E-03-3.88704E-05-8.78496E-15
 -1      2626 2.75718E-03-8.14684E-05-9.03212E-15
 -1      2627 2.67584E-03-6.16550E-05-8.94326E-15
 -1      2628 2.64398E-03-5.18289E-05-8.59492E-15
 -1      2629 3.01993E-03-1.65669E-04-9.36480E-15
 -1      2630 2.88117E-03-1.19689E-04-9.18287E-15
 -1      2631 3.35388E-03-3.02834E-04-9.75398E-15
 -1      2632 3.18485E-03-2.28894E-04-9.53062E-15
 -1      2633 3.79682E-03-5.36004E-04-1.05073E-14
 -1      2634 3.58073E-03-4.15324E-04-1.01151E-14
 -1      2635 4.21512E-03-7.87595E-04-1.15512E-14
 -1      2636 4.05187E-03-6.86121E-04-1.11006E-14
 -1      2637 4.29975E-03-8.40543E-04-1.16136E-14
 -1      2638 4.80583E-03-1.06126E-03-1.36605E-14
 -1      2639 4.68776E-03-1.02740E-03-1.31520E-14
 -1      2640 5.12959E-03-1.05160E-03-1.51334E-14
 -1      2641 4.96963E-03-1.07524E-03-1.43822E-14
 -1      2642 5.76538E-03-7.37978E-04-1.77200E-14
 -1      2643 5.60809E-03-8.33792E-04-1.71277E-14
 -1      2644 5.54355E-03-8.75761E-04-1.70689E-14
 -1      2645 6.15019E-03-5.12893E-04-1.89897E-14
 -1      2646 5.98674E-03-6.08254E-04-1.84794E-14
 -1      2647 6.25203E-03-4.62008E-04-1.97246E-14
 -1      2648 6.85449E-03-1.86209E-04-2.11373E-14
 -1      2649 6.73706E-03-2.29214E-04-2.08925E-14
 -1      2650 7.08989E-03-1.14924E-04-2.14671E-14
 -1      2651 6.98164E-03-1.43612E-04-2.13045E-14
 -1      2652 6.95090E-03-1.59311E-04-2.18718E-14
 -1      2653 7.14227E-03-1.04044E-04-2.22159E-14
 -1      2654 5.77441E-03 5.67729E-04-1.81415E-14
 -1      2655 5.92805E-03 4.73184E-04-1.86770E-14
 -1      2656 7.86189E-04 2.89098E-04-3.66474E-16
 -1      2657 6.33422E-04 2.47655E-04-2.44081E-16
 -1      2658 6.04496E-04 2.20734E-04-2.50505E-16
 -1      2659 8.41557E-04 2.72625E-04-4.71601E-16
 -1      2660 4.98593E-03 9.38685E-04-1.47689E-14
 -1      2661 6.59525E-04-9.74095E-05-4.77090E-16
 -1      2662 5.49269E-04-8.96368E-05-3.46782E-16
 -1      2663 5.57662E-04-1.07388E-04-3.36076E-16
 -1      2664 6.48401E-03 1.78181E-04-2.05669E-14
 -1      2665 6.06712E-03 3.99075E-04-1.94420E-14
 -1      2666 5.88692E-04 1.89184E-04-2.75753E-16
 -1      2667 6.62612E-03-2.82660E-04-2.09722E-14
 -1      2668 5.66305E-03 6.40511E-04-1.79258E-14
 -1      2669 7.07317E-04 2.05365E-04-3.97550E-16
 -1      2670 5.88897E-03-6.70243E-04-1.84224E-14
 -1      2671 1.45263E-02 1.82355E-04-1.19066E-13
 -1      2672 1.45146E-02 1.49831E-04-1.18844E-13
 -1      2673 5.22403E-03-1.02897E-03-1.56153E-14
 -1      2674 7.21663E-03-7.92577E-05-2.23998E-14
 -1      2675 7.10642E-03-4.72440E-05-2.21896E-14
 -1      2676 6.83849E-03 3.21015E-05-2.15109E-14
 -1      2677 3.91514E-03-6.08742E-04-1.05685E-14
 -1      2678 1.41083E-03 3.60781E-04-1.28523E-15
 -1      2679 3.45757E-03-3.54169E-04-9.64026E-15
 -1      2680 4.59876E-03-9.97681E-04-1.26916E-14
 -1      2681 2.80765E-03-9.47183E-05-8.82584E-15
 -1      2682 3.14890E-03 1.35388E-04-9.12227E-15
 -1      2683 4.00454E-03 5.77208E-04-1.09170E-14
 -1      2684 4.37184E-03 7.85106E-04-1.20939E-14
 -1      2685 3.56315E-03 3.30822E-04-9.83018E-15
 -1      2686 5.80609E-04-1.44201E-04-3.18159E-16
 -1      2687 5.29390E-03 8.41473E-04-1.62417E-14
 -1      2688 2.63554E-03-3.02019E-05-8.50945E-15
 -1      2689 2.65147E-03-2.05614E-05-8.23577E-15
 -1      2690 2.60455E-03-3.37589E-05-8.23731E-15
 -1      2691 4.68904E-03 9.16319E-04-1.33661E-14
 -1      2692 3.08870E-03-1.89009E-04-9.13244E-15
 -1      2693 4.90204E-03-1.07864E-03-1.40381E-14
 -1      2694 1.45810E-02-8.73382E-04-1.17425E-13
 -1      2695 1.46200E-02-8.21975E-04-1.18147E-13
 -1      2696 1.44936E-02-7.96142E-04-1.16419E-13
 -1      2697 1.44528E-02-8.66785E-04-1.15620E-13
 -1      2698 1.43934E-02 1.33360E-04-1.17180E-13
 -1      2699 1.43765E-02-8.26920E-04-1.14658E-13
 -1      2700 7.45469E-04 4.93234E-05-6.58870E-16
 -1      2701 7.39904E-04 3.43080E-05-6.63247E-16
 -1      2702 7.35915E-04 1.99177E-05-6.65809E-16
 -1      2703 7.33747E-04 6.12777E-06-6.67123E-16
 -1      2704 8.46678E-04 3.02539E-05-8.41341E-16
 -1      2705 7.83494E-04 1.25233E-04-6.21343E-16
 -1      2706 7.71858E-04 1.03413E-04-6.34204E-16
 -1      2707 8.11135E-04 1.76183E-04-5.86513E-16
 -1      2708 7.96658E-04 1.49408E-04-6.05771E-16
 -1      2709 9.09219E-04 1.53157E-04-7.81046E-16
 -1      2710 6.00047E-03-6.15609E-04-1.91372E-14
 -1      2711 5.80548E-03-7.33504E-04-1.83605E-14
 -1      2712 1.16306E-03 2.95825E-04-9.53420E-16
 -1      2713 1.01435E-03 2.72690E-04-7.39521E-16
 -1      2714 1.34911E-03-2.86880E-04-1.32614E-15
 -1      2715 1.49654E-03-3.01887E-04-1.61034E-15
 -1      2716 1.64433E-03-3.15374E-04-1.92343E-15
 -1      2717 1.79279E-03-3.27860E-04-2.26536E-15
 -1      2718 1.54293E-03-2.74718E-04-1.80264E-15
 -1      2719 1.94199E-03-3.40189E-04-2.63547E-15
 -1      2720 2.09226E-03-3.53028E-04-3.03421E-15
 -1      2721 1.83499E-03-2.97827E-04-2.49159E-15
 -1      2722 2.24391E-03-3.67192E-04-3.46142E-15
 -1      2723 2.39728E-03-3.83586E-04-3.91679E-15
 -1      2724 2.13036E-03-3.20967E-04-3.29372E-15
 -1      2725 2.55294E-03-4.02950E-04-4.40055E-15
 -1      2726 2.71115E-03-4.26539E-04-4.91230E-15
 -1      2727 2.43175E-03-3.49963E-04-4.20784E-15
 -1      2728 2.87284E-03-4.54943E-04-5.45248E-15
 -1      2729 3.03793E-03-4.89776E-04-6.02047E-15
 -1      2730 2.74339E-03-3.91750E-04-5.23377E-15
 -1      2731 3.20770E-03-5.31297E-04-6.61645E-15
 -1      2732 3.38122E-03-5.81298E-04-7.24141E-15
 -1      2733 3.07076E-03-4.54798E-04-6.37037E-15
 -1      2734 3.55994E-03-6.39652E-04-7.89573E-15
 -1      2735 3.74111E-03-7.06697E-04-8.57989E-15
 -1      2736 3.41901E-03-5.48887E-04-7.61956E-15
 -1      2737 3.92602E-03-7.81484E-04-9.29493E-15
 -1      2738 4.11000E-03-8.60500E-04-1.00413E-14
 -1      2739 3.78883E-03-6.82684E-04-8.98622E-15
 -1      2740 4.29286E-03-9.40819E-04-1.08205E-14
 -1      2741 4.47165E-03-1.01334E-03-1.16325E-14
 -1      2742 4.16980E-03-8.50738E-04-1.04758E-14
 -1      2743 4.98101E-03-1.12514E-03-1.42769E-14
 -1      2744 5.14912E-03-1.10906E-03-1.52325E-14
 -1      2745 5.31863E-03-1.06706E-03-1.62221E-14
 -1      2746 5.49418E-03-1.00802E-03-1.72466E-14
 -1      2747 5.23920E-03-1.06654E-03-1.57679E-14
 -1      2748 5.67391E-03-9.36432E-04-1.83043E-14
 -1      2749 5.85676E-03-8.61987E-04-1.93959E-14
 -1      2750 5.60146E-03-9.32624E-04-1.78190E-14
 -1      2751 6.04155E-03-7.88742E-04-2.05188E-14
 -1      2752 6.22444E-03-7.21954E-04-2.16710E-14
 -1      2753 5.97906E-03-7.71953E-04-2.00049E-14
 -1      2754 6.40582E-03-6.63375E-04-2.28516E-14
 -1      2755 6.58244E-03-6.13420E-04-2.40611E-14
 -1      2756 6.35297E-03-6.35779E-04-2.23149E-14
 -1      2757 6.75553E-03-5.72716E-04-2.52974E-14
 -1      2758 6.92382E-03-5.39899E-04-2.65581E-14
 -1      2759 6.70873E-03-5.39972E-04-2.47355E-14
 -1      2760 7.08850E-03-5.14877E-04-2.78452E-14
 -1      2761 7.24934E-03-4.96116E-04-2.91593E-14
 -1      2762 7.04315E-03-4.80213E-04-2.72623E-14
 -1      2763 7.40729E-03-4.83220E-04-3.04971E-14
 -1      2764 7.56256E-03-4.74956E-04-3.18592E-14
 -1      2765 7.36013E-03-4.47866E-04-2.98912E-14
 -1      2766 7.71577E-03-4.70829E-04-3.32441E-14
 -1      2767 7.86722E-03-4.69972E-04-3.46541E-14
 -1      2768 7.66500E-03-4.35018E-04-3.26163E-14
 -1      2769 8.01728E-03-4.71889E-04-3.60882E-14
 -1      2770 8.16622E-03-4.75999E-04-3.75446E-14
 -1      2771 7.96225E-03-4.35578E-04-3.54364E-14
 -1      2772 8.31422E-03-4.81864E-04-3.90225E-14
 -1      2773 8.46150E-03-4.89100E-04-4.05231E-14
 -1      2774 8.25497E-03-4.45035E-04-3.83478E-14
 -1      2775 8.60814E-03-4.97357E-04-4.20479E-14
 -1      2776 8.75431E-03-5.06382E-04-4.35898E-14
 -1      2777 8.54510E-03-4.60074E-04-4.13502E-14
 -1      2778 8.90000E-03-5.15916E-04-4.51514E-14
 -1      2779 9.04538E-03-5.25796E-04-4.67328E-14
 -1      2780 8.83376E-03-4.78296E-04-4.44353E-14
 -1      2781 9.19040E-03-5.35843E-04-4.83342E-14
 -1      2782 9.33519E-03-5.45954E-04-4.99533E-14
 -1      2783 9.12155E-03-4.98016E-04-4.75981E-14
 -1      2784 9.47970E-03-5.56014E-04-5.15897E-14
 -1      2785 9.62404E-03-5.65962E-04-5.32423E-14
 -1      2786 9.40881E-03-5.18097E-04-5.08338E-14
 -1      2787 9.76817E-03-5.75732E-04-5.49107E-14
 -1      2788 9.91215E-03-5.85290E-04-5.65947E-14
 -1      2789 9.69571E-03-5.37816E-04-5.41371E-14
 -1      2790 1.00560E-02-5.94605E-04-5.82948E-14
 -1      2791 1.01997E-02-6.03661E-04-6.00077E-14
 -1      2792 9.98236E-03-5.56754E-04-5.75042E-14
 -1      2793 1.03433E-02-6.12451E-04-6.17318E-14
 -1      2794 1.04867E-02-6.20970E-04-6.34686E-14
 -1      2795 1.02688E-02-5.74704E-04-6.09275E-14
 -1      2796 1.06301E-02-6.29225E-04-6.52168E-14
 -1      2797 1.07734E-02-6.37221E-04-6.69776E-14
 -1      2798 1.05551E-02-5.91602E-04-6.44008E-14
 -1      2799 1.09167E-02-6.44971E-04-6.87516E-14
 -1      2800 1.10599E-02-6.52485E-04-7.05349E-14
 -1      2801 1.08412E-02-6.07476E-04-6.79234E-14
 -1      2802 1.12030E-02-6.59780E-04-7.23272E-14
 -1      2803 1.13461E-02-6.66868E-04-7.41318E-14
 -1      2804 1.11273E-02-6.22408E-04-7.14899E-14
 -1      2805 1.14891E-02-6.73768E-04-7.59474E-14
 -1      2806 1.16321E-02-6.80490E-04-7.77745E-14
 -1      2807 1.14132E-02-6.36507E-04-7.51018E-14
 -1      2808 1.17751E-02-6.87056E-04-7.96103E-14
 -1      2809 1.19180E-02-6.93474E-04-8.14551E-14
 -1      2810 1.16991E-02-6.49894E-04-7.87559E-14
 -1      2811 1.20610E-02-6.99763E-04-8.33089E-14
 -1      2812 1.22039E-02-7.05932E-04-8.51727E-14
 -1      2813 1.19850E-02-6.62686E-04-8.24470E-14
 -1      2814 1.23468E-02-7.11999E-04-8.70473E-14
 -1      2815 1.24897E-02-7.17970E-04-8.89332E-14
 -1      2816 1.22708E-02-6.74992E-04-8.61757E-14
 -1      2817 1.26325E-02-7.23860E-04-9.08296E-14
 -1      2818 1.27754E-02-7.29676E-04-9.27352E-14
 -1      2819 1.25566E-02-6.86910E-04-8.99451E-14
 -1      2820 1.29183E-02-7.35430E-04-9.46522E-14
 -1      2821 1.30611E-02-7.41129E-04-9.65785E-14
 -1      2822 1.28423E-02-6.98524E-04-9.37543E-14
 -1      2823 1.32040E-02-7.46781E-04-9.85175E-14
 -1      2824 1.33468E-02-7.52392E-04-1.00469E-13
 -1      2825 1.31280E-02-7.09908E-04-9.76080E-14
 -1      2826 1.34897E-02-7.57970E-04-1.02426E-13
 -1      2827 1.36325E-02-7.63520E-04-1.04391E-13
 -1      2828 1.34138E-02-7.21121E-04-1.01500E-13
 -1      2829 1.37754E-02-7.69049E-04-1.06367E-13
 -1      2830 1.39182E-02-7.74560E-04-1.08350E-13
 -1      2831 1.36995E-02-7.32215E-04-1.05430E-13
 -1      2832 1.40611E-02-7.80058E-04-1.10342E-13
 -1      2833 1.42039E-02-7.85548E-04-1.12343E-13
 -1      2834 1.39852E-02-7.43231E-04-1.09393E-13
 -1      2835 2.37278E-03 4.22900E-04-3.71023E-15
 -1      2836 2.21786E-03 4.05760E-04-3.26446E-15
 -1      2837 1.42652E-02 8.52123E-05-1.15347E-13
 -1      2838 1.42506E-02 1.38686E-04-1.15262E-13
 -1      2839 1.41077E-02 1.44011E-04-1.13344E-13
 -1      2840 2.06439E-03 3.90516E-04-2.84749E-15
 -1      2841 1.91225E-03 3.76405E-04-2.45908E-15
 -1      2842 2.10844E-03 3.57936E-04-3.10339E-15
 -1      2843 3.01317E-03 5.26364E-04-5.78141E-15
 -1      2844 2.84970E-03 4.93654E-04-5.22038E-15
 -1      2845 3.34799E-03 6.08701E-04-6.99136E-15
 -1      2846 3.17960E-03 5.64480E-04-6.37127E-15
 -1      2847 3.05773E-03 4.93718E-04-6.12967E-15
 -1      2848 3.69097E-03 7.14064E-04-8.31946E-15
 -1      2849 3.51906E-03 6.58710E-04-7.64070E-15
 -1      2850 3.39787E-03 5.79318E-04-7.36786E-15
 -1      2851 4.03591E-03 8.34375E-04-9.77214E-15
 -1      2852 3.86398E-03 7.73460E-04-9.03004E-15
 -1      2853 3.74891E-03 6.90858E-04-8.72504E-15
 -1      2854 4.37363E-03 9.48116E-04-1.13540E-14
 -1      2855 4.20619E-03 8.94387E-04-1.05466E-14
 -1      2856 4.10255E-03 8.19160E-04-1.02060E-14
 -1      2857 4.69852E-03 1.02148E-03-1.30739E-14
 -1      2858 4.53716E-03 9.92334E-04-1.21960E-14
 -1      2859 4.44710E-03 9.37476E-04-1.18185E-14
 -1      2860 5.01534E-03 1.02490E-03-1.49321E-14
 -1      2861 4.85623E-03 1.03285E-03-1.39857E-14
 -1      2862 4.77642E-03 1.00368E-03-1.35703E-14
 -1      2863 5.33747E-03 9.55020E-04-1.69290E-14
 -1      2864 5.17451E-03 9.97864E-04-1.59132E-14
 -1      2865 5.09991E-03 9.86021E-04-1.54628E-14
 -1      2866 5.67238E-03 8.36285E-04-1.90636E-14
 -1      2867 5.50308E-03 8.99181E-04-1.79799E-14
 -1      2868 5.43336E-03 8.91056E-04-1.74953E-14
 -1      2869 6.01721E-03 7.03805E-04-2.13262E-14
 -1      2870 5.84447E-03 7.69609E-04-2.01790E-14
 -1      2871 5.78162E-03 7.55237E-04-1.96649E-14
 -1      2872 6.36249E-03 5.83453E-04-2.37121E-14
 -1      2873 6.19060E-03 6.41076E-04-2.25034E-14
 -1      2874 6.13617E-03 6.18552E-04-2.19614E-14
 -1      2875 6.70113E-03 4.86857E-04-2.62114E-14
 -1      2876 6.53318E-03 5.31999E-04-2.49482E-14
 -1      2877 6.48542E-03 5.03658E-04-2.43775E-14
 -1      2878 7.03009E-03 4.15513E-04-2.88205E-14
 -1      2879 6.86705E-03 4.48256E-04-2.75026E-14
 -1      2880 6.82286E-03 4.16652E-04-2.69065E-14
 -1      2881 7.34948E-03 3.66086E-04-3.15294E-14
 -1      2882 7.19099E-03 3.88418E-04-3.01627E-14
 -1      2883 7.14733E-03 3.55137E-04-2.95397E-14
 -1      2884 7.66092E-03 3.33702E-04-3.43357E-14
 -1      2885 7.50613E-03 3.48098E-04-3.29213E-14
 -1      2886 7.46077E-03 3.13884E-04-3.22716E-14
 -1      2887 7.96619E-03 3.13658E-04-3.72316E-14
 -1      2888 7.81423E-03 3.22414E-04-3.57719E-14
 -1      2889 7.76597E-03 2.87556E-04-3.50965E-14
 -1      2890 8.26683E-03 3.01970E-04-4.02239E-14
 -1      2891 8.11700E-03 3.06982E-04-3.87161E-14
 -1      2892 8.06541E-03 2.71636E-04-3.80144E-14
 -1      2893 8.56398E-03 2.95524E-04-4.33013E-14
 -1      2894 8.41576E-03 2.98247E-04-4.17514E-14
 -1      2895 8.36090E-03 2.62547E-04-4.10235E-14
 -1      2896 8.85847E-03 2.92016E-04-4.64673E-14
 -1      2897 8.71149E-03 2.93512E-04-4.48734E-14
 -1      2898 8.65372E-03 2.57591E-04-4.41202E-14
 -1      2899 9.15091E-03 2.89829E-04-4.97182E-14
 -1      2900 9.00490E-03 2.90831E-04-4.80823E-14
 -1      2901 8.94468E-03 2.54816E-04-4.73037E-14
 -1      2902 9.44175E-03 2.87886E-04-5.30441E-14
 -1      2903 9.29649E-03 2.88874E-04-5.13712E-14
 -1      2904 9.23431E-03 2.52868E-04-5.05693E-14
 -1      2905 9.73133E-03 2.85517E-04-5.64409E-14
 -1      2906 9.58666E-03 2.86783E-04-5.47357E-14
 -1      2907 9.52297E-03 2.50864E-04-5.39113E-14
 -1      2908 1.00199E-02 2.82343E-04-5.98976E-14
 -1      2909 9.87572E-03 2.84046E-04-5.81630E-14
 -1      2910 9.81089E-03 2.48265E-04-5.73213E-14
 -1      2911 1.03077E-02 2.78189E-04-6.34094E-14
 -1      2912 1.01639E-02 2.80395E-04-6.16456E-14
 -1      2913 1.00983E-02 2.44779E-04-6.07880E-14
 -1      2914 1.05950E-02 2.73013E-04-6.69671E-14
 -1      2915 1.04514E-02 2.75729E-04-6.51826E-14
 -1      2916 1.03852E-02 2.40287E-04-6.43055E-14
 -1      2917 1.08817E-02 2.66855E-04-7.05779E-14
 -1      2918 1.07384E-02 2.70053E-04-6.87682E-14
 -1      2919 1.06718E-02 2.34780E-04-6.78735E-14
 -1      2920 1.11682E-02 2.59804E-04-7.42288E-14
 -1      2921 1.10250E-02 2.63436E-04-7.23968E-14
 -1      2922 1.09581E-02 2.28320E-04-7.14909E-14
 -1      2923 1.14543E-02 2.51972E-04-7.79197E-14
 -1      2924 1.13113E-02 2.55980E-04-7.60706E-14
 -1      2925 1.12443E-02 2.21004E-04-7.51498E-14
 -1      2926 1.17403E-02 2.43476E-04-8.16489E-14
 -1      2927 1.15974E-02 2.47801E-04-7.97791E-14
 -1      2928 1.15303E-02 2.12946E-04-7.88463E-14
 -1      2929 1.20262E-02 2.34431E-04-8.54233E-14
 -1      2930 1.18833E-02 2.39016E-04-8.35306E-14
 -1      2931 1.18162E-02 2.04262E-04-8.25834E-14
 -1      2932 1.23120E-02 2.24941E-04-8.92254E-14
 -1      2933 1.21691E-02 2.29736E-04-8.73213E-14
 -1      2934 1.21020E-02 1.95065E-04-8.63588E-14
 -1      2935 1.25977E-02 2.15099E-04-9.30559E-14
 -1      2936 1.24549E-02 2.20059E-04-9.11390E-14
 -1      2937 1.23878E-02 1.85455E-04-9.01663E-14
 -1      2938 1.28835E-02 2.04985E-04-9.68978E-14
 -1      2939 1.27406E-02 2.10072E-04-9.49760E-14
 -1      2940 1.26736E-02 1.75520E-04-9.39946E-14
 -1      2941 1.31691E-02 1.94668E-04-1.00745E-13
 -1      2942 1.30263E-02 1.99849E-04-9.88215E-14
 -1      2943 1.29593E-02 1.65335E-04-9.78334E-14
 -1      2944 1.34548E-02 1.84203E-04-1.04590E-13
 -1      2945 1.33120E-02 1.89451E-04-1.02667E-13
 -1      2946 1.32450E-02 1.54965E-04-1.01678E-13
 -1      2947 1.37405E-02 1.73639E-04-1.08437E-13
 -1      2948 1.35977E-02 1.78931E-04-1.06516E-13
 -1      2949 1.35307E-02 1.44463E-04-1.05526E-13
 -1      2950 1.39955E-02 1.56175E-04-1.11853E-13
 -1      2951 1.38527E-02 1.61490E-04-1.09928E-13
 -1      2952 1.37857E-02 1.27030E-04-1.08943E-13
 -1      2953 1.40101E-02 1.02711E-04-1.11930E-13
 -1      2954 1.43336E-02-3.14696E-04-1.15433E-13
 -1      2955 1.43283E-02-2.72520E-04-1.15453E-13
 -1      2956 1.43004E-02-7.88574E-04-1.13699E-13
 -1      2957 1.43971E-02-7.93117E-04-1.15057E-13
 -1      2958 1.44175E-02-7.57791E-04-1.15453E-13
 -1      2959 1.42245E-02-7.51746E-04-1.12738E-13
 -1      2960 1.43126E-02-1.45994E-04-1.15506E-13
 -1      2961 1.43074E-02-1.03822E-04-1.15521E-13
 -1      2962 1.43443E-02-3.99048E-04-1.15385E-13
 -1      2963 1.43389E-02-3.56872E-04-1.15412E-13
 -1      2964 1.42125E-02-3.31102E-04-1.13713E-13
 -1      2965 1.43230E-02-2.30343E-04-1.15471E-13
 -1      2966 1.43178E-02-1.88169E-04-1.15488E-13
 -1      2967 1.41914E-02-1.62432E-04-1.13807E-13
 -1      2968 1.42019E-02-2.46766E-04-1.13764E-13
 -1      2969 6.01344E-03 4.47243E-04-1.96603E-14
 -1      2970 6.21194E-03 3.29089E-04-2.03063E-14
 -1      2971 1.43548E-02-4.81970E-04-1.15333E-13
 -1      2972 1.43495E-02-4.40510E-04-1.15361E-13
 -1      2973 1.42231E-02-4.14723E-04-1.13657E-13
 -1      2974 1.43657E-02-5.66317E-04-1.15266E-13
 -1      2975 1.43602E-02-5.24145E-04-1.15301E-13
 -1      2976 1.42338E-02-4.98344E-04-1.13593E-13
 -1      2977 1.43766E-02-6.50657E-04-1.15186E-13
 -1      2978 1.43711E-02-6.08489E-04-1.15227E-13
 -1      2979 1.42447E-02-5.82676E-04-1.13516E-13
 -1      2980 1.43998E-02-7.25308E-04-1.15299E-13
 -1      2981 1.43943E-02-6.83144E-04-1.15347E-13
 -1      2982 1.42678E-02-6.57323E-04-1.13631E-13
 -1      2983 1.43033E-02-7.22288E-04-1.13943E-13
 -1      2984 4.34754E-03-8.83609E-04-1.15616E-14
 -1      2985 4.21399E-03-8.03202E-04-1.11127E-14
 -1      2986 4.00367E-03-6.75152E-04-1.05226E-14
 -1      2987 3.77773E-03-5.39570E-04-9.95250E-15
 -1      2988 4.06309E-03-7.34110E-04-1.04691E-14
 -1      2989 7.07477E-03-3.57343E-05-2.27610E-14
 -1      2990 7.17546E-03-5.96069E-05-2.29840E-14
 -1      2991 6.77214E-03 6.24521E-05-2.19187E-14
 -1      2992 6.91720E-03 1.35902E-05-2.23817E-14
 -1      2993 8.03545E-04-1.99497E-04-5.30229E-16
 -1      2994 9.38745E-04-2.28730E-04-6.86842E-16
 -1      2995 2.84906E-03-1.08009E-04-8.53670E-15
 -1      2996 2.73621E-03-7.80059E-05-8.39480E-15
 -1      2997 2.74641E-03 7.73473E-06-8.26618E-15
 -1      2998 2.86969E-03 4.22306E-05-8.44324E-15
 -1      2999 4.29439E-03 7.56474E-04-1.16444E-14
 -1      3000 4.43482E-03 8.30708E-04-1.21835E-14
 -1      3001 1.76113E-03 3.62571E-04-2.09968E-15
 -1      3002 1.61079E-03 3.48390E-04-1.76951E-15
 -1      3003 1.80751E-03 3.31841E-04-2.32266E-15
 -1      3004 2.68839E-03 4.66093E-04-4.68810E-15
 -1      3005 2.52964E-03 4.42710E-04-4.18482E-15
 -1      3006 2.41524E-03 3.89314E-04-3.99836E-15
 -1      3007 2.73071E-03 4.32349E-04-5.00691E-15
 -1      3008 1.07004E-03-2.50377E-04-8.67104E-16
 -1      3009 1.21667E-03-2.70122E-04-1.09732E-15
 -1      3010 1.26704E-03-2.46955E-04-1.25614E-15
 -1      3011 1.00754E-03-2.12265E-04-8.34673E-16
 -1      3012 3.52955E-03-4.01652E-04-9.44997E-15
 -1      3013 3.33036E-03-3.01050E-04-9.10846E-15
 -1      3014 6.41697E-03 2.20342E-04-2.09205E-14
 -1      3015 6.60015E-03 1.33310E-04-2.14170E-14
 -1      3016 6.70877E-03 1.05139E-04-2.22805E-14
 -1      3017 5.55545E-03 7.17291E-04-1.76936E-14
 -1      3018 5.73929E-03 6.11799E-04-1.85739E-14
 -1      3019 5.22633E-03 8.81328E-04-1.60374E-14
 -1      3020 5.38613E-03 8.05834E-04-1.68529E-14
 -1      3021 5.48120E-03 7.75978E-04-1.74734E-14
 -1      3022 7.61563E-04 8.37175E-05-6.44477E-16
 -1      3023 7.52764E-04 6.57446E-05-6.52622E-16
 -1      3024 8.60338E-04 6.46958E-05-8.30729E-16
 -1      3025 8.81452E-04 1.04859E-04-8.11281E-16
 -1      3026 7.50480E-04-6.56707E-05-6.50128E-16
 -1      3027 7.59075E-04-8.29769E-05-6.41455E-16
 -1      3028 4.59951E-03 8.97466E-04-1.28856E-14
 -1      3029 4.75343E-03 9.40596E-04-1.36136E-14
 -1      3030 4.50967E-03 8.76413E-04-1.24121E-14
 -1      3031 3.43640E-03 2.83263E-04-9.28570E-15
 -1      3032 3.64824E-03 3.93815E-04-9.73763E-15
 -1      3033 6.57992E-04-1.43187E-04-4.13975E-16
 -1      3034 7.23811E-03-7.72692E-05-2.32419E-14
 -1      3035 7.24149E-03-8.48232E-05-2.32313E-14
 -1      3036 3.11669E-03-2.04848E-04-8.84308E-15
 -1      3037 2.97407E-03-1.50002E-04-8.68945E-15
 -1      3038 2.87284E-03-1.25934E-04-8.25759E-15
 -1      3039 3.89881E-03 5.32261E-04-1.03811E-14
 -1      3040 4.10230E-03 6.49287E-04-1.10018E-14
 -1      3041 4.17413E-03 7.11463E-04-1.10807E-14
 -1      3042 3.02499E-03 9.93657E-05-8.61578E-15
 -1      3043 3.19822E-03 1.71244E-04-8.85832E-15
 -1      3044 2.65306E-03-5.61477E-05-8.29101E-15
 -1      3045 2.60846E-03-4.67356E-05-8.20824E-15
 -1      3046 4.96695E-03-1.08927E-03-1.43294E-14
 -1      3047 4.82608E-03-1.07735E-03-1.36091E-14
 -1      3048 4.66696E-03-1.03448E-03-1.28722E-14
 -1      3049 4.52244E-03-9.70978E-04-1.22513E-14
 -1      3050 4.42436E-03-9.39485E-04-1.17270E-14
 -1      3051 4.74248E-03-1.06634E-03-1.31442E-14
 -1      3052 1.46115E-03 3.32961E-04-1.46829E-15
 -1      3053 1.31185E-03 3.15746E-04-1.19620E-15
 -1      3054 1.21534E-03 2.72481E-04-1.10610E-15
 -1      3055 1.51027E-03 3.05166E-04-1.65651E-15
 -1      3056 4.93078E-03 9.50567E-04-1.44989E-14
 -1      3057 5.05922E-03 9.31770E-04-1.51677E-14
 -1      3058 5.62870E-03-8.39818E-04-1.76252E-14
 -1      3059 5.49956E-03-9.15454E-04-1.70307E-14
 -1      3060 6.33101E-03-4.36042E-04-2.04268E-14
 -1      3061 6.18737E-03-5.12198E-04-1.98909E-14
 -1      3062 8.23224E-04 2.26271E-04-5.24225E-16
 -1      3063 6.73547E-03-2.54830E-04-2.19303E-14
 -1      3064 6.53244E-03-3.39771E-04-2.11985E-14
 -1      3065 7.69292E-04-1.01946E-04-6.30802E-16
 -1      3066 7.80928E-04-1.22904E-04-6.17548E-16
 -1      3067 8.78155E-04-1.03694E-04-8.07378E-16
 -1      3068 8.41432E-04-1.01242E-06-8.43970E-16
 -1      3069 7.33417E-04-7.41860E-06-6.66622E-16
 -1      3070 7.34950E-04-2.10370E-05-6.64738E-16
 -1      3071 5.75151E-03-7.86587E-04-1.83184E-14
 -1      3072 6.10006E-03-5.82643E-04-1.98238E-14
 -1      3073 1.41811E-02-7.84571E-05-1.13849E-13
 -1      3074 1.43022E-02-6.20077E-05-1.15539E-13
 -1      3075 1.42971E-02-2.01964E-05-1.15556E-13
 -1      3076 7.19314E-03-9.83635E-05-2.29181E-14
 -1      3077 7.12656E-03-1.13441E-04-2.27424E-14
 -1      3078 4.89766E-03-1.11689E-03-1.38327E-14
 -1      3079 4.97949E-03-1.10236E-03-1.43384E-14
 -1      3080 4.64500E-03-1.07403E-03-1.24795E-14
 -1      3081 4.81521E-03-1.11166E-03-1.33622E-14
 -1      3082 6.35073E-03 2.75742E-04-2.11452E-14
 -1      3083 7.23968E-03-6.92499E-05-2.38232E-14
 -1      3084 1.42703E-02 4.34094E-05-1.15327E-13
 -1      3085 8.80066E-04 2.11125E-04-6.34977E-16
 -1      3086 9.95506E-04 2.15148E-04-8.18410E-16
 -1      3087 5.05690E-03-1.08734E-03-1.47868E-14
 -1      3088 3.62886E-03-4.76121E-04-9.40350E-15
 -1      3089 2.67192E-03-6.76646E-05-8.01012E-15
 -1      3090 3.19137E-03-2.52293E-04-8.66175E-15
 -1      3091 3.28542E-03 2.32930E-04-8.76843E-15
 -1      3092 2.67354E-03-6.33117E-06-7.99604E-15
 -1      3093 2.69648E-03 1.24779E-05-7.75691E-15
 -1      3094 2.61303E-03-1.35886E-05-7.72989E-15
 -1      3095 2.91427E-03 7.59283E-05-8.19031E-15
 -1      3096 3.75313E-03 4.74035E-04-9.81168E-15
 -1      3097 5.33031E-03-9.98678E-04-1.62172E-14
 -1      3098 5.16445E-03-1.06082E-03-1.53529E-14
 -1      3099 7.25037E-03-9.28474E-05-2.37673E-14
 -1      3100 5.16269E-03 9.11666E-04-1.57508E-14
 -1      3101 5.79118E-03 6.22664E-04-1.91614E-14
 -1      3102 5.89009E-03 5.38461E-04-1.94124E-14
 -1      3103 6.04013E-03 4.72546E-04-2.02693E-14
 -1      3104 7.71597E-04-1.51922E-04-5.58784E-16
 -1      3105 7.38339E-04-3.50310E-05-6.61648E-16
 -1      3106 7.43525E-04-4.98313E-05-6.56796E-16
 -1      3107 8.57580E-04-6.50958E-05-8.27856E-16
 -1      3108 8.45122E-04-3.18211E-05-8.39606E-16
 -1      3109 2.57906E-03-3.82652E-05-7.93887E-15
 -1      3110 2.56288E-03-3.12438E-05-7.67193E-15
 -1      3111 2.56208E-03-4.21607E-05-7.64391E-15
 -1      3112 4.83243E-03 9.54550E-04-1.39898E-14
 -1      3113 6.47144E-03-3.92671E-04-2.13680E-14
 -1      3114 5.42476E-03-9.70954E-04-1.67525E-14
 -1      3115 6.90165E-03-1.97921E-04-2.26749E-14
 -1      3116 6.82736E-03-2.48601E-04-2.29061E-14
 -1      3117 7.07019E-03-1.33286E-04-2.27997E-14
 -1      3118 6.97002E-03-1.66160E-04-2.26227E-14
 -1      3119 7.03736E-03-1.71431E-04-2.36152E-14
 -1      3120 7.14366E-03-1.24863E-04-2.35070E-14
 -1      3121 4.54132E-03-1.01421E-03-1.20989E-14
 -1      3122 1.03854E-03 1.82149E-04-9.58679E-16
 -1      3123 1.02075E-03 1.53532E-04-9.79577E-16
 -1      3124 5.06997E-03 9.48005E-04-1.52719E-14
 -1      3125 5.22244E-03 9.05096E-04-1.61441E-14
 -1      3126 3.69441E-03-5.41896E-04-9.27665E-15
 -1      3127 3.47377E-03-4.18887E-04-8.79877E-15
 -1      3128 1.73114E-03-2.58252E-04-2.34724E-15
 -1      3129 1.87507E-03-2.68107E-04-2.72254E-15
 -1      3130 2.01969E-03-2.78092E-04-3.12611E-15
 -1      3131 2.16549E-03-2.88891E-04-3.55706E-15
 -1      3132 1.91286E-03-2.38626E-04-2.95856E-15
 -1      3133 2.31278E-03-3.01059E-04-4.01571E-15
 -1      3134 2.46223E-03-3.15656E-04-4.50203E-15
 -1      3135 2.19749E-03-2.56632E-04-3.82423E-15
 -1      3136 2.61450E-03-3.33128E-04-5.01571E-15
 -1      3137 2.77041E-03-3.55227E-04-5.55727E-15
 -1      3138 2.48846E-03-2.80314E-04-4.79942E-15
 -1      3139 2.93115E-03-3.82177E-04-6.12519E-15
 -1      3140 3.09735E-03-4.16919E-04-6.72127E-15
 -1      3141 2.79190E-03-3.16450E-04-5.88270E-15
 -1      3142 3.57598E-03-5.50090E-04-8.48314E-15
 -1      3143 3.76753E-03-6.25163E-04-9.18565E-15
 -1      3144 6.31999E-03 3.24668E-04-2.15220E-14
 -1      3145 6.49809E-03 2.29447E-04-2.21571E-14
 -1      3146 6.30972E-03-6.00067E-04-2.17810E-14
 -1      3147 6.49379E-03-5.43563E-04-2.29666E-14
 -1      3148 6.67188E-03-4.99805E-04-2.41799E-14
 -1      3149 6.84226E-03-4.65049E-04-2.54196E-14
 -1      3150 6.64189E-03-4.56221E-04-2.36228E-14
 -1      3151 7.00686E-03-4.39726E-04-2.66844E-14
 -1      3152 7.16587E-03-4.20849E-04-2.79750E-14
 -1      3153 6.97691E-03-3.96836E-04-2.61055E-14
 -1      3154 7.32065E-03-4.08296E-04-2.92910E-14
 -1      3155 7.47195E-03-4.00147E-04-3.06319E-14
 -1      3156 7.28648E-03-3.67629E-04-2.86908E-14
 -1      3157 7.62058E-03-3.96155E-04-3.19963E-14
 -1      3158 7.76725E-03-3.95182E-04-3.33823E-14
 -1      3159 7.58047E-03-3.57267E-04-3.13737E-14
 -1      3160 7.91240E-03-3.96916E-04-3.47918E-14
 -1      3161 8.05655E-03-4.00697E-04-3.62260E-14
 -1      3162 7.86606E-03-3.58896E-04-3.41486E-14
 -1      3163 8.19991E-03-4.06199E-04-3.76817E-14
 -1      3164 8.34284E-03-4.13027E-04-3.91595E-14
 -1      3165 8.14775E-03-3.68336E-04-3.70151E-14
 -1      3166 8.48540E-03-4.20886E-04-4.06609E-14
 -1      3167 8.62783E-03-4.29534E-04-4.21842E-14
 -1      3168 8.42811E-03-3.82775E-04-3.99732E-14
 -1      3169 8.77011E-03-4.38728E-04-4.37254E-14
 -1      3170 8.91242E-03-4.48319E-04-4.52864E-14
 -1      3171 8.70848E-03-4.00206E-04-4.30146E-14
 -1      3172 9.05468E-03-4.58123E-04-4.68671E-14
 -1      3173 9.19703E-03-4.68049E-04-4.84664E-14
 -1      3174 8.98948E-03-4.19172E-04-4.61365E-14
 -1      3175 9.33938E-03-4.77966E-04-5.00828E-14
 -1      3176 9.48183E-03-4.87824E-04-5.17184E-14
 -1      3177 9.27132E-03-4.38644E-04-4.93340E-14
 -1      3178 9.62430E-03-4.97537E-04-5.33703E-14
 -1      3179 9.76686E-03-5.07079E-04-5.50359E-14
 -1      3180 9.55398E-03-4.57927E-04-5.26026E-14
 -1      3181 9.90944E-03-5.16402E-04-5.67181E-14
 -1      3182 1.00521E-02-5.25495E-04-5.84165E-14
 -1      3183 9.83740E-03-4.76588E-04-5.59345E-14
 -1      3184 1.01948E-02-5.34336E-04-6.01283E-14
 -1      3185 1.03375E-02-5.42925E-04-6.18520E-14
 -1      3186 1.01214E-02-4.94391E-04-5.93284E-14
 -1      3187 1.04802E-02-5.51257E-04-6.35890E-14
 -1      3188 1.06230E-02-5.59339E-04-6.53379E-14
 -1      3189 1.04059E-02-5.11238E-04-6.27770E-14
 -1      3190 1.07658E-02-5.67178E-04-6.70995E-14
 -1      3191 1.09087E-02-5.74783E-04-6.88743E-14
 -1      3192 1.06908E-02-5.27126E-04-6.62770E-14
 -1      3193 1.10515E-02-5.82169E-04-7.06585E-14
 -1      3194 1.11943E-02-5.89346E-04-7.24521E-14
 -1      3195 1.09760E-02-5.42112E-04-6.98240E-14
 -1      3196 1.13372E-02-5.96332E-04-7.42589E-14
 -1      3197 1.14801E-02-6.03137E-04-7.60772E-14
 -1      3198 1.12614E-02-5.56287E-04-7.34164E-14
 -1      3199 1.16229E-02-6.09780E-04-7.79065E-14
 -1      3200 1.17658E-02-6.16271E-04-7.97446E-14
 -1      3201 1.15469E-02-5.69758E-04-7.70554E-14
 -1      3202 1.19087E-02-6.22628E-04-8.15908E-14
 -1      3203 1.20516E-02-6.28860E-04-8.34462E-14
 -1      3204 1.18325E-02-5.82633E-04-8.07336E-14
 -1      3205 1.21944E-02-6.34984E-04-8.53097E-14
 -1      3206 1.23373E-02-6.41007E-04-8.71842E-14
 -1      3207 1.21182E-02-5.95017E-04-8.44456E-14
 -1      3208 1.24802E-02-6.46944E-04-8.90679E-14
 -1      3209 1.26231E-02-6.52802E-04-9.09618E-14
 -1      3210 1.24039E-02-6.07004E-04-8.81918E-14
 -1      3211 1.27659E-02-6.58593E-04-9.28674E-14
 -1      3212 1.29088E-02-6.64324E-04-9.47799E-14
 -1      3213 1.26896E-02-6.18678E-04-9.19773E-14
 -1      3214 1.30517E-02-6.70004E-04-9.67032E-14
 -1      3215 1.31946E-02-6.75639E-04-9.86379E-14
 -1      3216 1.29754E-02-6.30108E-04-9.58039E-14
 -1      3217 1.33374E-02-6.81237E-04-1.00581E-13
 -1      3218 1.34803E-02-6.86803E-04-1.02534E-13
 -1      3219 1.32611E-02-6.41357E-04-9.96642E-14
 -1      3220 1.36232E-02-6.92344E-04-1.04497E-13
 -1      3221 1.37661E-02-6.97863E-04-1.06468E-13
 -1      3222 1.35469E-02-6.52474E-04-1.03567E-13
 -1      3223 1.39089E-02-7.03366E-04-1.08446E-13
 -1      3224 1.40518E-02-7.08856E-04-1.10435E-13
 -1      3225 1.38326E-02-6.63502E-04-1.07505E-13
 -1      3226 2.15019E-03 3.24929E-04-3.36283E-15
 -1      3227 2.00053E-03 3.12602E-04-2.94209E-15
 -1      3228 3.44550E-03 5.47096E-04-7.74433E-15
 -1      3229 3.27066E-03 4.98846E-04-7.09707E-15
 -1      3230 3.09927E-03 4.58452E-04-6.47881E-15
 -1      3231 2.93276E-03 4.24480E-04-5.88935E-15
 -1      3232 3.13773E-03 4.20420E-04-6.82931E-15
 -1      3233 4.17302E-03 8.08834E-04-1.06353E-14
 -1      3234 3.99221E-03 7.39177E-04-9.86419E-15
 -1      3235 4.49787E-03 9.04849E-04-1.22036E-14
 -1      3236 4.31868E-03 8.41264E-04-1.13703E-14
 -1      3237 4.81030E-03 9.76102E-04-1.38073E-14
 -1      3238 4.64034E-03 9.51219E-04-1.29087E-14
 -1      3239 5.19917E-03 9.46162E-04-1.60562E-14
 -1      3240 5.03228E-03 9.80687E-04-1.50725E-14
 -1      3241 5.53479E-03 8.21521E-04-1.80623E-14
 -1      3242 5.35926E-03 8.89167E-04-1.70097E-14
 -1      3243 5.94014E-03 6.23947E-04-2.04110E-14
 -1      3244 5.75439E-03 7.02662E-04-1.92874E-14
 -1      3245 6.61333E-03 4.23811E-04-2.50464E-14
 -1      3246 6.44052E-03 4.72799E-04-2.38089E-14
 -1      3247 6.94672E-03 3.48534E-04-2.76026E-14
 -1      3248 6.78238E-03 3.82888E-04-2.63122E-14
 -1      3249 6.74560E-03 3.46866E-04-2.57181E-14
 -1      3250 7.26464E-03 2.97634E-04-3.02581E-14
 -1      3251 7.10748E-03 3.20636E-04-2.89173E-14
 -1      3252 7.07152E-03 2.84490E-04-2.82985E-14
 -1      3253 7.57100E-03 2.64494E-04-3.30127E-14
 -1      3254 7.41905E-03 2.79287E-04-3.16232E-14
 -1      3255 7.38101E-03 2.43988E-04-3.09777E-14
 -1      3256 7.86953E-03 2.43832E-04-3.58568E-14
 -1      3257 7.72105E-03 2.52924E-04-3.44239E-14
 -1      3258 7.67944E-03 2.18319E-04-3.37523E-14
 -1      3259 8.16309E-03 2.31567E-04-3.87971E-14
 -1      3260 8.01678E-03 2.36876E-04-3.73164E-14
 -1      3261 7.97108E-03 2.02601E-04-3.66201E-14
 -1      3262 8.45363E-03 2.24640E-04-4.18241E-14
 -1      3263 8.30863E-03 2.27594E-04-4.02992E-14
 -1      3264 8.25890E-03 1.93357E-04-3.95785E-14
 -1      3265 8.74238E-03 2.20805E-04-4.49397E-14
 -1      3266 8.59816E-03 2.22444E-04-4.33709E-14
 -1      3267 8.54476E-03 1.88087E-04-4.26250E-14
 -1      3268 9.03007E-03 2.18464E-04-4.81402E-14
 -1      3269 8.88631E-03 2.19521E-04-4.65285E-14
 -1      3270 8.82975E-03 1.84989E-04-4.57576E-14
 -1      3271 9.31713E-03 2.16524E-04-5.14214E-14
 -1      3272 9.17365E-03 2.17490E-04-4.97726E-14
 -1      3273 9.11447E-03 1.82797E-04-4.89754E-14
 -1      3274 9.60380E-03 2.14280E-04-5.47776E-14
 -1      3275 9.46049E-03 2.15468E-04-5.30906E-14
 -1      3276 9.39922E-03 1.80654E-04-5.22741E-14
 -1      3277 9.89022E-03 2.11315E-04-5.81988E-14
 -1      3278 9.74703E-03 2.12902E-04-5.64799E-14
 -1      3279 9.68412E-03 1.78019E-04-5.56421E-14
 -1      3280 1.01765E-02 2.07417E-04-6.16748E-14
 -1      3281 1.00334E-02 2.09489E-04-5.99298E-14
 -1      3282 9.96920E-03 1.74580E-04-5.90729E-14
 -1      3283 1.04626E-02 2.02514E-04-6.52001E-14
 -1      3284 1.03195E-02 2.05092E-04-6.34313E-14
 -1      3285 1.02545E-02 1.70192E-04-6.25584E-14
 -1      3286 1.07486E-02 1.96626E-04-6.87785E-14
 -1      3287 1.06056E-02 1.99690E-04-6.69823E-14
 -1      3288 1.05399E-02 1.64824E-04-6.60940E-14
 -1      3289 1.10346E-02 1.89828E-04-7.24016E-14
 -1      3290 1.08916E-02 1.93336E-04-7.05854E-14
 -1      3291 1.08254E-02 1.58516E-04-6.96802E-14
 -1      3292 1.13205E-02 1.82221E-04-7.60690E-14
 -1      3293 1.11775E-02 1.86119E-04-7.42301E-14
 -1      3294 1.11110E-02 1.51354E-04-7.33142E-14
 -1      3295 1.16063E-02 1.73921E-04-7.97742E-14
 -1      3296 1.14634E-02 1.78152E-04-7.79184E-14
 -1      3297 1.13967E-02 1.43441E-04-7.69890E-14
 -1      3298 1.18921E-02 1.65041E-04-8.35175E-14
 -1      3299 1.17492E-02 1.69548E-04-8.16388E-14
 -1      3300 1.16824E-02 1.34890E-04-8.06998E-14
 -1      3301 1.21779E-02 1.55687E-04-8.72943E-14
 -1      3302 1.20350E-02 1.60418E-04-8.54023E-14
 -1      3303 1.19681E-02 1.25808E-04-8.44465E-14
 -1      3304 1.24637E-02 1.45955E-04-9.11046E-14
 -1      3305 1.23208E-02 1.50864E-04-8.91973E-14
 -1      3306 1.22538E-02 1.16295E-04-8.82307E-14
 -1      3307 1.27494E-02 1.35926E-04-9.49293E-14
 -1      3308 1.26066E-02 1.40973E-04-9.30147E-14
 -1      3309 1.25396E-02 1.06439E-04-9.20368E-14
 -1      3310 1.30352E-02 1.25671E-04-9.87687E-14
 -1      3311 1.28923E-02 1.30823E-04-9.68484E-14
 -1      3312 1.28253E-02 9.63176E-05-9.58626E-14
 -1      3313 1.33209E-02 1.15250E-04-1.02610E-13
 -1      3314 1.31780E-02 1.20479E-04-1.00687E-13
 -1      3315 1.31111E-02 8.59947E-05-9.96993E-14
 -1      3316 1.36066E-02 1.04713E-04-1.06463E-13
 -1      3317 1.34638E-02 1.09994E-04-1.04536E-13
 -1      3318 1.33968E-02 7.55249E-05-1.03546E-13
 -1      3319 1.42068E-02-7.19268E-04-1.12588E-13
 -1      3320 9.59297E-04 4.22646E-05-1.03726E-15
 -1      3321 9.53610E-04 2.43464E-05-1.04109E-15
 -1      3322 1.41128E-02-5.14708E-04-1.11855E-13
 -1      3323 1.41074E-02-4.72549E-04-1.11893E-13
 -1      3324 1.40914E-02-3.47500E-04-1.11994E-13
 -1      3325 1.40861E-02-3.05341E-04-1.12026E-13
 -1      3326 6.91901E-03-2.49291E-04-2.38943E-14
 -1      3327 6.76182E-03-3.02725E-04-2.31300E-14
 -1      3328 1.41236E-02-5.99026E-04-1.11769E-13
 -1      3329 1.41182E-02-5.56868E-04-1.11813E-13
 -1      3330 1.39917E-02-5.31063E-04-1.10119E-13
 -1      3331 1.41020E-02-4.30747E-04-1.11929E-13
 -1      3332 1.40967E-02-3.89302E-04-1.11962E-13
 -1      3333 1.39703E-02-3.63531E-04-1.10275E-13
 -1      3334 1.39810E-02-4.47117E-04-1.10200E-13
 -1      3335 6.98312E-03-6.25227E-06-2.26714E-14
 -1      3336 7.08417E-03-2.51967E-05-2.34699E-14
 -1      3337 1.85218E-03 3.01034E-04-2.55000E-15
 -1      3338 1.70481E-03 2.89522E-04-2.18595E-15
 -1      3339 1.89490E-03 2.70068E-04-2.78160E-15
 -1      3340 6.93351E-03 2.29801E-05-2.30834E-14
 -1      3341 3.13425E-03 1.94091E-04-8.18612E-15
 -1      3342 3.34577E-03 2.93257E-04-8.59068E-15
 -1      3343 3.22647E-03-2.93449E-04-8.36291E-15
 -1      3344 3.04150E-03-2.08357E-04-8.11590E-15
 -1      3345 7.30217E-03-9.31808E-05-2.46749E-14
 -1      3346 7.25410E-03-1.05207E-04-2.43540E-14
 -1      3347 4.03155E-03 6.69456E-04-1.03731E-14
 -1      3348 4.20247E-03 7.62750E-04-1.09930E-14
 -1      3349 3.80639E-03 6.66245E-04-9.12900E-15
 -1      3350 3.62517E-03 6.02986E-04-8.42166E-15
 -1      3351 3.49081E-03 5.12987E-04-8.12151E-15
 -1      3352 1.16166E-03 2.43264E-04-1.06645E-15
 -1      3353 1.08833E-03 2.07566E-04-1.00138E-15
 -1      3354 1.20096E-03 2.05452E-04-1.22846E-15
 -1      3355 1.30723E-03 2.60303E-04-1.32239E-15
 -1      3356 7.24786E-03-5.79748E-05-2.46595E-14
 -1      3357 7.30833E-03-7.43681E-05-2.49259E-14
 -1      3358 6.65240E-03 1.54322E-04-2.26724E-14
 -1      3359 6.80464E-03 9.02249E-05-2.31895E-14
 -1      3360 6.61585E-03 2.05443E-04-2.30603E-14
 -1      3361 5.39420E-03 8.35799E-04-1.70987E-14
 -1      3362 5.54895E-03 7.59317E-04-1.79456E-14
 -1      3363 2.79340E-03 5.60787E-05-7.68785E-15
 -1      3364 2.92568E-03 1.06535E-04-7.84788E-15
 -1      3365 1.44486E-03-2.36630E-04-1.68108E-15
 -1      3366 1.58785E-03-2.47920E-04-2.00003E-15
 -1      3367 1.63107E-03-2.21430E-04-2.20288E-15
 -1      3368 1.41491E-02 2.69501E-05-1.13648E-13
 -1      3369 2.92200E-03-1.59438E-04-7.97370E-15
 -1      3370 2.81014E-03-1.21302E-04-7.83119E-15
 -1      3371 2.95672E-03-1.98360E-04-7.68821E-15
 -1      3372 3.61733E-03 4.66074E-04-9.01112E-15
 -1      3373 3.83239E-03 5.82525E-04-9.62366E-15
 -1      3374 2.67864E-03-7.97677E-05-7.66980E-15
 -1      3375 2.60334E-03-6.05200E-05-7.57278E-15
 -1      3376 6.20423E-03-5.59885E-04-2.06180E-14
 -1      3377 6.03678E-03-6.50883E-04-1.98485E-14
 -1      3378 8.84193E-04-1.57035E-04-7.27405E-16
 -1      3379 6.57916E-03-3.75016E-04-2.22551E-14
 -1      3380 6.39755E-03-4.59416E-04-2.14633E-14
 -1      3381 6.33135E-03-5.29603E-04-2.14861E-14
 -1      3382 6.69513E-03-3.63317E-04-2.32263E-14
 -1      3383 7.12512E-03-1.63905E-05-2.44736E-14
 -1      3384 7.19389E-03-3.97935E-05-2.45677E-14
 -1      3385 7.29282E-03-4.85843E-05-2.56823E-14
 -1      3386 9.50451E-04 7.14358E-06-1.04264E-15
 -1      3387 9.49946E-04-9.75782E-06-1.04208E-15
 -1      3388 1.06064E-03 1.67435E-05-1.26184E-15
 -1      3389 4.80510E-03-1.08726E-03-1.34226E-14
 -1      3390 5.29557E-03 8.92914E-04-1.65921E-14
 -1      3391 1.40599E-02-9.47233E-05-1.12161E-13
 -1      3392 1.40548E-02-5.29223E-05-1.12183E-13
 -1      3393 3.30308E-03-3.58699E-04-8.24285E-15
 -1      3394 2.51258E-03-2.53237E-05-7.15357E-15
 -1      3395 2.55748E-03-2.08578E-05-7.43950E-15
 -1      3396 2.55861E-03-7.91823E-06-7.20861E-15
 -1      3397 1.13101E-03 1.51325E-04-1.20105E-15
 -1      3398 1.00456E-03 1.27434E-04-9.97046E-16
 -1      3399 9.90256E-04 1.03500E-04-1.01128E-15
 -1      3400 3.93065E-03-6.90576E-04-9.81348E-15
 -1      3401 3.39731E-03-4.90405E-04-7.84546E-15
 -1      3402 3.35668E-03-4.25796E-04-8.03051E-15
 -1      3403 3.13684E-03-3.14475E-04-7.62206E-15
 -1      3404 3.21964E-03-4.39665E-04-7.20004E-15
 -1      3405 4.11593E-03-8.03495E-04-1.03758E-14
 -1      3406 4.30994E-03-8.95985E-04-1.11639E-14
 -1      3407 1.41305E-02-6.79402E-04-1.11631E-13
 -1      3408 1.18827E-03-2.09997E-04-1.18322E-15
 -1      3409 1.31639E-03-2.24009E-04-1.42106E-15
 -1      3410 1.36440E-03-2.01127E-04-1.59197E-15
 -1      3411 5.49642E-03-9.50449E-04-1.71790E-14
 -1      3412 5.68869E-03-8.64399E-04-1.82355E-14
 -1      3413 5.96194E-03-7.41849E-04-1.97586E-14
 -1      3414 6.15507E-03-6.64033E-04-2.08939E-14
 -1      3415 6.90964E-03 4.86365E-05-2.35267E-14
 -1      3416 6.97534E-03 2.87831E-05-2.38228E-14
 -1      3417 2.30152E-03 3.38645E-04-3.81201E-15
 -1      3418 2.18948E-03 2.91346E-04-3.62659E-15
 -1      3419 2.45490E-03 3.54705E-04-4.28928E-15
 -1      3420 1.00935E-03-1.74012E-04-9.14199E-16
 -1      3421 7.06906E-03-2.06959E-04-2.47416E-14
 -1      3422 7.02074E-03-2.52384E-04-2.49705E-14
 -1      3423 3.86598E-03 6.47129E-04-9.52938E-15
 -1      3424 2.80589E-03 3.59020E-04-5.65035E-15
 -1      3425 2.76992E-03 3.96775E-04-5.32743E-15
 -1      3426 2.61094E-03 3.73641E-04-4.79384E-15
 -1      3427 6.26271E-03 5.29276E-04-2.25992E-14
 -1      3428 6.08257E-03 5.94051E-04-2.14185E-14
 -1      3429 1.37188E-02 9.25695E-05-1.07956E-13
 -1      3430 1.36519E-02 5.81091E-05-1.06966E-13
 -1      3431 1.38310E-02 8.04152E-05-1.09448E-13
 -1      3432 1.40703E-02-1.79041E-04-1.12108E-13
 -1      3433 1.40651E-02-1.36882E-04-1.12134E-13
 -1      3434 1.39388E-02-1.11343E-04-1.10467E-13
 -1      3435 9.67416E-04 6.11533E-05-1.03097E-15
 -1      3436 1.07393E-03 5.56178E-05-1.25281E-15
 -1      3437 9.77730E-04 8.14398E-05-1.02229E-15
 -1      3438 1.40808E-02-2.63271E-04-1.12053E-13
 -1      3439 1.40756E-02-2.21112E-04-1.12081E-13
 -1      3440 1.39492E-02-1.95556E-04-1.10406E-13
 -1      3441 1.39597E-02-2.79678E-04-1.10343E-13
 -1      3442 7.35214E-03-8.51703E-05-2.55254E-14
 -1      3443 7.38463E-03-9.60752E-05-2.61282E-14
 -1      3444 7.39162E-03-7.59639E-05-2.63839E-14
 -1      3445 1.41128E-02-6.46924E-04-1.11476E-13
 -1      3446 1.57902E-03 2.82879E-04-1.88506E-15
 -1      3447 1.43270E-03 2.69632E-04-1.57476E-15
 -1      3448 1.37730E-03 2.41128E-04-1.52355E-15
 -1      3449 1.62535E-03 2.54779E-04-2.08653E-15
 -1      3450 5.84208E-03-7.71476E-04-1.89885E-14
 -1      3451 4.47231E-03-9.76198E-04-1.18400E-14
 -1      3452 6.86125E-03 9.37405E-05-2.39270E-14
 -1      3453 3.06675E-03-3.58470E-04-6.93174E-15
 -1      3454 6.39850E-03 4.39796E-04-2.32403E-14
 -1      3455 5.34447E-03-1.02396E-03-1.63584E-14
 -1      3456 7.11187E-03 5.91517E-06-2.49271E-14
 -1      3457 7.11457E-03-1.79088E-04-2.46915E-14
 -1      3458 7.19940E-03-1.89420E-04-2.57843E-14
 -1      3459 7.15999E-03-1.54184E-04-2.46400E-14
 -1      3460 4.65617E-03-1.04580E-03-1.26922E-14
 -1      3461 9.86189E-04-1.02849E-04-1.00653E-15
 -1      3462 1.00038E-03-1.25816E-04-9.91693E-16
 -1      3463 5.16511E-03-1.07659E-03-1.53638E-14
 -1      3464 6.07887E-03 5.24866E-04-2.10174E-14
 -1      3465 2.98650E-03 1.59462E-04-7.68076E-15
 -1      3466 4.96825E-03 9.74822E-04-1.47047E-14
 -1      3467 1.40458E-02-6.89720E-06-1.12165E-13
 -1      3468 1.40190E-02 5.66926E-05-1.11948E-13
 -1      3469 1.39068E-02 6.88605E-05-1.10450E-13
 -1      3470 1.39247E-02-2.31733E-05-1.10481E-13
 -1      3471 2.70617E-03 3.66206E-05-7.42679E-15
 -1      3472 2.70714E-03 6.47731E-05-7.09977E-15
 -1      3473 2.62776E-03 2.33464E-05-7.17011E-15
 -1      3474 6.13700E-03 4.69834E-04-2.11391E-14
 -1      3475 6.24272E-03 3.84281E-04-2.14062E-14
 -1      3476 6.39830E-03 3.36320E-04-2.24185E-14
 -1      3477 6.27143E-03 4.46749E-04-2.21713E-14
 -1      3478 9.74034E-04-8.18069E-05-1.01849E-15
 -1      3479 1.09312E-03-9.98647E-05-1.22795E-15
 -1      3480 9.64267E-04-6.23159E-05-1.02795E-15
 -1      3481 2.71028E-03-1.06132E-04-7.39702E-15
 -1      3482 3.39323E-03 3.50753E-04-8.45747E-15
 -1      3483 3.47438E-03 4.64193E-04-8.26853E-15
 -1      3484 3.29324E-03 4.13368E-04-7.60446E-15
 -1      3485 3.23254E-03 3.07835E-04-7.87968E-15
 -1      3486 2.53104E-03-5.93154E-05-6.98640E-15
 -1      3487 2.54551E-03-4.94077E-05-7.31285E-15
 -1      3488 2.50084E-03-4.15683E-05-7.05631E-15
 -1      3489 1.39863E-02-6.21105E-04-1.09783E-13
 -1      3490 7.23106E-03-1.18107E-04-2.44701E-14
 -1      3491 7.19301E-03-1.34895E-04-2.45260E-14
 -1      3492 7.26178E-03-1.46849E-04-2.56188E-14
 -1      3493 7.30454E-03-1.16476E-04-2.53867E-14
 -1      3494 2.71476E-03-1.31933E-04-7.03071E-15
 -1      3495 2.59833E-03-9.29772E-05-6.88178E-15
 -1      3496 6.45316E-03 3.88802E-04-2.33720E-14
 -1      3497 2.08685E-03-2.16731E-04-3.63322E-15
 -1      3498 2.22617E-03-2.24584E-04-4.09507E-15
 -1      3499 2.36663E-03-2.33499E-04-4.58401E-15
 -1      3500 2.50942E-03-2.44601E-04-5.10002E-15
 -1      3501 2.25135E-03-1.92591E-04-4.36993E-15
 -1      3502 2.65497E-03-2.58025E-04-5.64162E-15
 -1      3503 2.80523E-03-2.76329E-04-6.21043E-15
 -1      3504 2.52470E-03-2.08065E-04-5.40259E-15
 -1      3505 6.87945E-03 1.22192E-04-2.46270E-14
 -1      3506 6.97290E-03 8.30866E-05-2.49754E-14
 -1      3507 6.30777E-03-5.60750E-04-2.15206E-14
 -1      3508 6.95674E-03-3.52289E-04-2.55263E-14
 -1      3509 7.11080E-03-3.36032E-04-2.67953E-14
 -1      3510 7.25907E-03-3.26528E-04-2.80882E-14
 -1      3511 7.40365E-03-3.20792E-04-2.94074E-14
 -1      3512 7.23889E-03-2.84517E-04-2.74868E-14
 -1      3513 7.54507E-03-3.18804E-04-3.07495E-14
 -1      3514 7.68484E-03-3.19184E-04-3.21152E-14
 -1      3515 7.51458E-03-2.80547E-04-3.01252E-14
 -1      3516 7.82314E-03-3.21796E-04-3.35050E-14
 -1      3517 7.96091E-03-3.26020E-04-3.49149E-14
 -1      3518 7.78362E-03-2.85554E-04-3.28582E-14
 -1      3519 8.09819E-03-3.31639E-04-3.63492E-14
 -1      3520 8.23553E-03-3.38343E-04-3.78051E-14
 -1      3521 8.05111E-03-2.96098E-04-3.56831E-14
 -1      3522 8.37289E-03-3.45896E-04-3.92836E-14
 -1      3523 8.51059E-03-3.54146E-04-4.07846E-14
 -1      3524 8.31958E-03-3.10269E-04-3.85949E-14
 -1      3525 8.64854E-03-3.62868E-04-4.23064E-14
 -1      3526 8.78694E-03-3.71982E-04-4.38465E-14
 -1      3527 8.59014E-03-3.26752E-04-4.15953E-14
 -1      3528 8.92568E-03-3.81296E-04-4.54067E-14
 -1      3529 9.06487E-03-3.90771E-04-4.69865E-14
 -1      3530 8.86314E-03-3.44540E-04-4.46774E-14
 -1      3531 9.20441E-03-4.00256E-04-4.85854E-14
 -1      3532 9.34435E-03-4.09737E-04-5.02025E-14
 -1      3533 9.13855E-03-3.62852E-04-4.78373E-14
 -1      3534 9.48462E-03-4.19102E-04-5.18368E-14
 -1      3535 9.62523E-03-4.28354E-04-5.34863E-14
 -1      3536 9.41612E-03-3.81116E-04-5.10706E-14
 -1      3537 9.76612E-03-4.37417E-04-5.51529E-14
 -1      3538 9.90729E-03-4.46302E-04-5.68333E-14
 -1      3539 9.69555E-03-3.98941E-04-5.43699E-14
 -1      3540 1.00487E-02-4.54960E-04-5.85300E-14
 -1      3541 1.01903E-02-4.63409E-04-6.02402E-14
 -1      3542 9.97653E-03-4.16093E-04-5.77322E-14
 -1      3543 1.03321E-02-4.71621E-04-6.19644E-14
 -1      3544 1.04741E-02-4.79617E-04-6.37022E-14
 -1      3545 1.02587E-02-4.32453E-04-6.11512E-14
 -1      3546 1.06162E-02-4.87383E-04-6.54524E-14
 -1      3547 1.07584E-02-4.94940E-04-6.72155E-14
 -1      3548 1.05419E-02-4.47990E-04-6.46295E-14
 -1      3549 1.09008E-02-5.02288E-04-6.89900E-14
 -1      3550 1.10432E-02-5.09444E-04-7.07766E-14
 -1      3551 1.08258E-02-4.62732E-04-6.81558E-14
 -1      3552 1.11857E-02-5.16415E-04-7.25738E-14
 -1      3553 1.13283E-02-5.23217E-04-7.43826E-14
 -1      3554 1.11103E-02-4.76744E-04-7.17301E-14
 -1      3555 1.14710E-02-5.29861E-04-7.62037E-14
 -1      3556 1.16137E-02-5.36361E-04-7.80350E-14
 -1      3557 1.13952E-02-4.90112E-04-7.53528E-14
 -1      3558 1.17564E-02-5.42727E-04-7.98754E-14
 -1      3559 1.18992E-02-5.48974E-04-8.17237E-14
 -1      3560 1.16804E-02-5.02928E-04-7.90165E-14
 -1      3561 1.20420E-02-5.55112E-04-8.35789E-14
 -1      3562 1.21848E-02-5.61152E-04-8.54429E-14
 -1      3563 1.19659E-02-5.15282E-04-8.27133E-14
 -1      3564 1.23276E-02-5.67105E-04-8.73158E-14
 -1      3565 1.24705E-02-5.72981E-04-8.91987E-14
 -1      3566 1.22514E-02-5.27258E-04-8.64416E-14
 -1      3567 1.26133E-02-5.78788E-04-9.10897E-14
 -1      3568 1.27562E-02-5.84534E-04-9.29917E-14
 -1      3569 1.25371E-02-5.38933E-04-9.02045E-14
 -1      3570 1.28991E-02-5.90229E-04-9.49037E-14
 -1      3571 1.30419E-02-5.95877E-04-9.68230E-14
 -1      3572 1.28228E-02-5.50371E-04-9.40042E-14
 -1      3573 1.31848E-02-6.01486E-04-9.87539E-14
 -1      3574 1.33277E-02-6.07062E-04-1.00690E-13
 -1      3575 1.31085E-02-5.61629E-04-9.78432E-14
 -1      3576 1.34706E-02-6.12610E-04-1.02639E-13
 -1      3577 1.36135E-02-6.18134E-04-1.04600E-13
 -1      3578 1.33943E-02-5.72753E-04-1.01715E-13
 -1      3579 1.37285E-02-6.16885E-04-1.06197E-13
 -1      3580 1.38713E-02-6.22377E-04-1.08171E-13
 -1      3581 1.38822E-02-5.74495E-04-1.08464E-13
 -1      3582 1.36522E-02-5.77029E-04-1.05261E-13
 -1      3583 7.33294E-03-3.73905E-05-2.65716E-14
 -1      3584 7.37536E-03-5.44392E-05-2.66672E-14
 -1      3585 5.69310E-03 6.96393E-04-1.87644E-14
 -1      3586 6.88130E-03 2.73458E-04-2.63899E-14
 -1      3587 6.71576E-03 3.08016E-04-2.51237E-14
 -1      3588 7.78548E-03 1.75396E-04-3.44930E-14
 -1      3589 7.64139E-03 1.83829E-04-3.30834E-14
 -1      3590 8.07020E-03 1.63826E-04-3.73824E-14
 -1      3591 7.92825E-03 1.68905E-04-3.59265E-14
 -1      3592 7.88827E-03 1.35686E-04-3.52353E-14
 -1      3593 8.35253E-03 1.56946E-04-4.03596E-14
 -1      3594 8.21151E-03 1.59942E-04-3.88605E-14
 -1      3595 8.16641E-03 1.27310E-04-3.81442E-14
 -1      3596 8.63407E-03 1.52823E-04-4.34247E-14
 -1      3597 8.49330E-03 1.54632E-04-4.18801E-14
 -1      3598 8.44371E-03 1.22085E-04-4.11411E-14
 -1      3599 8.91568E-03 1.50083E-04-4.65769E-14
 -1      3600 8.77481E-03 1.51341E-04-4.49907E-14
 -1      3601 8.72140E-03 1.18604E-04-4.42254E-14
 -1      3602 9.19778E-03 1.47762E-04-4.98109E-14
 -1      3603 9.05664E-03 1.48909E-04-4.81828E-14
 -1      3604 9.00007E-03 1.15869E-04-4.73951E-14
 -1      3605 9.48051E-03 1.45216E-04-5.31227E-14
 -1      3606 9.33905E-03 1.46540E-04-5.14592E-14
 -1      3607 9.27991E-03 1.13175E-04-5.06450E-14
 -1      3608 9.76386E-03 1.42044E-04-5.65050E-14
 -1      3609 9.62210E-03 1.43720E-04-5.48061E-14
 -1      3610 9.56091E-03 1.10058E-04-5.39723E-14
 -1      3611 1.00478E-02 1.38028E-04-5.99453E-14
 -1      3612 9.90575E-03 1.40146E-04-5.82171E-14
 -1      3613 9.84298E-03 1.06237E-04-5.73650E-14
 -1      3614 1.03322E-02 1.33078E-04-6.34406E-14
 -1      3615 1.01899E-02 1.35669E-04-6.16869E-14
 -1      3616 1.01259E-02 1.01567E-04-6.08161E-14
 -1      3617 1.06170E-02 1.27194E-04-6.69877E-14
 -1      3618 1.04745E-02 1.30248E-04-6.52072E-14
 -1      3619 1.04096E-02 9.60050E-05-6.43220E-14
 -1      3620 1.09021E-02 1.20434E-04-7.05822E-14
 -1      3621 1.07595E-02 1.23918E-04-6.87782E-14
 -1      3622 1.06939E-02 8.95743E-05-6.78780E-14
 -1      3623 1.11874E-02 1.12886E-04-7.42223E-14
 -1      3624 1.10447E-02 1.16752E-04-7.23967E-14
 -1      3625 1.09786E-02 8.23421E-05-7.14822E-14
 -1      3626 1.14728E-02 1.04654E-04-7.79071E-14
 -1      3627 1.13301E-02 1.08849E-04-7.60604E-14
 -1      3628 1.12637E-02 7.43988E-05-7.51325E-14
 -1      3629 1.17584E-02 9.58442E-05-8.16230E-14
 -1      3630 1.16156E-02 1.00315E-04-7.97606E-14
 -1      3631 1.15490E-02 6.58430E-05-7.88223E-14
 -1      3632 1.20441E-02 8.65568E-05-8.53756E-14
 -1      3633 1.19012E-02 9.12546E-05-8.34954E-14
 -1      3634 1.18345E-02 5.67731E-05-8.25456E-14
 -1      3635 1.23298E-02 7.68839E-05-8.91602E-14
 -1      3636 1.21869E-02 8.17637E-05-8.72648E-14
 -1      3637 1.21200E-02 4.72814E-05-8.63025E-14
 -1      3638 1.26155E-02 6.69064E-05-9.29677E-14
 -1      3639 1.24726E-02 7.19291E-05-9.10628E-14
 -1      3640 1.24057E-02 3.74510E-05-9.00889E-14
 -1      3641 1.29012E-02 5.66938E-05-9.67927E-14
 -1      3642 1.27584E-02 6.18260E-05-9.48760E-14
 -1      3643 1.26914E-02 2.73546E-05-9.38950E-14
 -1      3644 1.31870E-02 4.63046E-05-1.00630E-13
 -1      3645 1.30441E-02 5.15183E-05-9.87112E-14
 -1      3646 1.29772E-02 1.70540E-05-9.77189E-14
 -1      3647 1.34728E-02 3.57879E-05-1.04479E-13
 -1      3648 1.33299E-02 4.10597E-05-1.02551E-13
 -1      3649 1.32630E-02 6.60140E-06-1.01561E-13
 -1      3650 1.06230E-03-1.57108E-04-1.04876E-15
 -1      3651 1.38767E-02-5.32350E-04-1.08512E-13
 -1      3652 1.38713E-02-4.90207E-04-1.08557E-13
 -1      3653 1.37617E-02-5.33630E-04-1.06908E-13
 -1      3654 1.93564E-03 2.38996E-04-3.01773E-15
 -1      3655 1.79233E-03 2.30578E-04-2.62166E-15
 -1      3656 1.17129E-03-1.54549E-04-1.27742E-15
 -1      3657 7.49562E-03 1.94404E-04-3.16978E-14
 -1      3658 7.34745E-03 2.08070E-04-3.03346E-14
 -1      3659 7.60700E-03 1.49249E-04-3.24181E-14
 -1      3660 7.19628E-03 2.24953E-04-2.89954E-14
 -1      3661 7.04120E-03 2.46732E-04-2.76812E-14
 -1      3662 7.01702E-03 2.06781E-04-2.70634E-14
 -1      3663 7.31866E-03 1.71158E-04-2.96945E-14
 -1      3664 2.83171E-03 1.32833E-04-7.10188E-15
 -1      3665 3.01601E-03 2.11327E-04-7.41768E-15
 -1      3666 3.11876E-03 3.73655E-04-6.96906E-15
 -1      3667 2.95093E-03 3.41598E-04-6.36200E-15
 -1      3668 3.09413E-03 3.24541E-04-7.10592E-15
 -1      3669 9.52119E-04-2.66881E-05-1.03944E-15
 -1      3670 9.56889E-04-4.40822E-05-1.03486E-15
 -1      3671 1.07046E-03-5.77467E-05-1.24966E-15
 -1      3672 6.66807E-03 2.49792E-04-2.41398E-14
 -1      3673 6.79765E-03 1.86275E-04-2.46789E-14
 -1      3674 2.91282E-03-2.85511E-04-6.66593E-15
 -1      3675 3.02340E-03-2.98624E-04-7.13706E-15
 -1      3676 2.96661E-03-2.37251E-04-7.33652E-15
 -1      3677 2.76431E-03-2.23109E-04-6.40330E-15
 -1      3678 1.53529E-03-1.87561E-04-2.05950E-15
 -1      3679 1.67292E-03-1.95419E-04-2.41173E-15
 -1      3680 2.86211E-03-1.91291E-04-7.20606E-15
 -1      3681 7.12725E-03-2.52741E-04-2.60208E-14
 -1      3682 6.98208E-03-2.94412E-04-2.51530E-14
 -1      3683 1.81055E-03-2.02649E-04-2.79125E-15
 -1      3684 1.94855E-03-2.09621E-04-3.19876E-15
 -1      3685 1.98207E-03-1.81023E-04-3.44325E-15
 -1      3686 7.12183E-03 3.06684E-05-2.56436E-14
 -1      3687 7.25385E-03-7.83021E-06-2.63138E-14
 -1      3688 7.14173E-03 5.75565E-05-2.63648E-14
 -1      3689 1.05939E-03-1.99674E-05-1.26063E-15
 -1      3690 2.49161E-03 3.18815E-04-4.58294E-15
 -1      3691 1.19073E-03 7.01753E-05-1.48822E-15
 -1      3692 1.17987E-03 4.82643E-05-1.49623E-15
 -1      3693 1.71338E-03-1.69830E-04-2.62548E-15
 -1      3694 2.46908E-03-3.18198E-05-6.83354E-15
 -1      3695 2.44633E-03-2.17678E-05-6.61286E-15
 -1      3696 2.43248E-03-3.88330E-05-6.51900E-15
 -1      3697 1.26063E-03 1.76072E-04-1.42311E-15
 -1      3698 1.23990E-03 1.46474E-04-1.44520E-15
 -1      3699 7.35403E-03-1.75402E-05-2.73092E-14
 -1      3700 6.92387E-03 1.70481E-04-2.57378E-14
 -1      3701 1.37509E-02-4.49719E-04-1.07000E-13
 -1      3702 1.38659E-02-4.48421E-04-1.08599E-13
 -1      3703 1.38606E-02-4.06637E-04-1.08639E-13
 -1      3704 6.83263E-03-3.61674E-04-2.44877E-14
 -1      3705 2.72105E-03-1.65997E-04-6.69712E-15
 -1      3706 2.22589E-03 2.57249E-04-3.89387E-15
 -1      3707 2.07996E-03 2.47639E-04-3.44169E-15
 -1      3708 1.97416E-03 2.07731E-04-3.25820E-15
 -1      3709 7.44020E-03-6.77844E-05-2.72846E-14
 -1      3710 2.78895E-03 3.17036E-04-5.78246E-15
 -1      3711 2.63180E-03 2.97142E-04-5.22977E-15
 -1      3712 2.76835E-03 2.73969E-04-5.91100E-15
 -1      3713 1.28512E-03 3.93651E-05-1.76046E-15
 -1      3714 1.17210E-03 2.75267E-05-1.50117E-15
 -1      3715 1.16777E-03 7.57088E-06-1.50333E-15
 -1      3716 1.38399E-02 3.44029E-05-1.09461E-13
 -1      3717 1.36972E-02 1.15004E-05-1.07470E-13
 -1      3718 1.35850E-02 2.36510E-05-1.05976E-13
 -1      3719 1.35180E-02-1.08026E-05-1.04980E-13
 -1      3720 3.05768E-03 2.63445E-04-7.28950E-15
 -1      3721 1.29094E-03-1.66960E-04-1.51352E-15
 -1      3722 1.41446E-03-1.76767E-04-1.78239E-15
 -1      3723 1.46043E-03-1.54390E-04-1.96601E-15
 -1      3724 1.22513E-03-1.34379E-04-1.44362E-15
 -1      3725 1.38553E-02-3.64853E-04-1.08679E-13
 -1      3726 1.38500E-02-3.23071E-04-1.08716E-13
 -1      3727 1.37403E-02-3.66172E-04-1.07087E-13
 -1      3728 1.38177E-02-1.27781E-04-1.08769E-13
 -1      3729 1.38125E-02-8.56384E-05-1.08804E-13
 -1      3730 1.09797E-03 9.96947E-05-1.23317E-15
 -1      3731 2.55130E-03 1.06767E-05-6.89092E-15
 -1      3732 2.54177E-03 3.29199E-05-6.57661E-15
 -1      3733 2.48432E-03 2.19026E-06-6.61619E-15
 -1      3734 7.45004E-03-1.03232E-04-2.71722E-14
 -1      3735 7.37898E-03-1.12604E-04-2.63003E-14
 -1      3736 1.20746E-03-1.09195E-04-1.46110E-15
 -1      3737 1.32236E-03-1.18040E-04-1.71441E-15
 -1      3738 1.19266E-03-8.58183E-05-1.47526E-15
 -1      3739 6.66514E-03-4.26631E-04-2.35880E-14
 -1      3740 1.37297E-02-2.82360E-04-1.07168E-13
 -1      3741 1.38447E-02-2.81019E-04-1.08754E-13
 -1      3742 1.38394E-02-2.38969E-04-1.08790E-13
 -1      3743 1.67027E-03 2.26737E-04-2.29295E-15
 -1      3744 1.54812E-03 2.22084E-04-1.98611E-15
 -1      3745 1.71361E-03 1.98680E-04-2.50422E-15
 -1      3746 7.36817E-03-1.24653E-04-2.64191E-14
 -1      3747 2.50731E-03-9.71795E-05-6.28921E-15
 -1      3748 2.52000E-03-7.61986E-05-6.63523E-15
 -1      3749 2.45288E-03-6.39341E-05-6.39223E-15
 -1      3750 7.31272E-03-1.76219E-04-2.67701E-14
 -1      3751 7.28222E-03-1.99112E-04-2.68214E-14
 -1      3752 1.36608E-02-6.25162E-05-1.06794E-13
 -1      3753 1.37819E-02-4.60619E-05-1.08486E-13
 -1      3754 2.64912E-03 8.60819E-05-6.60670E-15
 -1      3755 2.73730E-03 1.06582E-04-6.85204E-15
 -1      3756 2.75922E-03 1.52388E-04-6.60331E-15
 -1      3757 7.27161E-03-2.23069E-04-2.70612E-14
 -1      3758 7.24571E-03-2.57990E-04-2.72504E-14
 -1      3759 7.38043E-03-2.56226E-04-2.85533E-14
 -1      3760 7.38898E-03-2.09204E-04-2.80672E-14
 -1      3761 1.62161E-03-1.40116E-04-2.46045E-15
 -1      3762 1.75299E-03-1.44952E-04-2.84378E-15
 -1      3763 6.60336E-03 3.00608E-04-2.40134E-14
 -1      3764 1.32346E-03 2.14083E-04-1.47091E-15
 -1      3765 1.43372E-03 2.07365E-04-1.74420E-15
 -1      3766 7.38736E-03 1.88280E-06-2.81157E-14
 -1      3767 7.45742E-03-2.71849E-05-2.83812E-14
 -1      3768 1.16700E-03-1.19091E-05-1.50260E-15
 -1      3769 1.16980E-03-3.15064E-05-1.49917E-15
 -1      3770 1.27512E-03-2.77469E-06-1.76507E-15
 -1      3771 2.40265E-03-1.66482E-04-5.16515E-15
 -1      3772 2.53351E-03-1.72612E-04-5.70803E-15
 -1      3773 6.48718E-03-4.70890E-04-2.23849E-14
 -1      3774 7.51250E-03-2.57149E-04-2.98801E-14
 -1      3775 7.64399E-03-2.59772E-04-3.12304E-14
 -1      3776 7.51168E-03-2.34287E-04-2.96339E-14
 -1      3777 7.77476E-03-2.63825E-04-3.26051E-14
 -1      3778 7.90580E-03-2.68990E-04-3.40022E-14
 -1      3779 7.76647E-03-2.42715E-04-3.23501E-14
 -1      3780 8.03703E-03-2.75060E-04-3.54202E-14
 -1      3781 8.16892E-03-2.81896E-04-3.68616E-14
 -1      3782 8.02319E-03-2.54617E-04-3.51566E-14
 -1      3783 8.30143E-03-2.89306E-04-3.83245E-14
 -1      3784 8.43473E-03-2.97245E-04-3.98091E-14
 -1      3785 8.28339E-03-2.68895E-04-3.80520E-14
 -1      3786 8.56878E-03-3.05530E-04-4.13157E-14
 -1      3787 8.70364E-03-3.14136E-04-4.28436E-14
 -1      3788 8.54750E-03-2.84805E-04-4.10347E-14
 -1      3789 8.83925E-03-3.22900E-04-4.43898E-14
 -1      3790 8.97560E-03-3.31814E-04-4.59560E-14
 -1      3791 8.81542E-03-3.01699E-04-4.41010E-14
 -1      3792 9.11264E-03-3.40743E-04-4.75424E-14
 -1      3793 9.25034E-03-3.49690E-04-4.91462E-14
 -1      3794 9.08680E-03-3.19016E-04-4.72461E-14
 -1      3795 9.38862E-03-3.58550E-04-5.07672E-14
 -1      3796 9.52747E-03-3.67332E-04-5.24063E-14
 -1      3797 9.36120E-03-3.36310E-04-5.04637E-14
 -1      3798 9.66682E-03-3.75962E-04-5.40612E-14
 -1      3799 9.80662E-03-3.84455E-04-5.57320E-14
 -1      3800 9.63815E-03-3.53255E-04-5.37511E-14
 -1      3801 9.94682E-03-3.92758E-04-5.74169E-14
 -1      3802 1.00874E-02-4.00892E-04-5.91165E-14
 -1      3803 9.91720E-03-3.69649E-04-5.71010E-14
 -1      3804 1.02283E-02-4.08824E-04-6.08315E-14
 -1      3805 1.03695E-02-4.16573E-04-6.25605E-14
 -1      3806 1.01979E-02-3.85376E-04-6.05102E-14
 -1      3807 1.05109E-02-4.24122E-04-6.43027E-14
 -1      3808 1.06526E-02-4.31492E-04-6.60582E-14
 -1      3809 1.04800E-02-4.00399E-04-6.39770E-14
 -1      3810 1.07944E-02-4.38676E-04-6.78269E-14
 -1      3811 1.09365E-02-4.45692E-04-6.96067E-14
 -1      3812 1.07631E-02-4.14732E-04-6.74967E-14
 -1      3813 1.10786E-02-4.52542E-04-7.13987E-14
 -1      3814 1.12209E-02-4.59243E-04-7.32025E-14
 -1      3815 1.10470E-02-4.28426E-04-7.10652E-14
 -1      3816 1.13633E-02-4.65799E-04-7.50167E-14
 -1      3817 1.15058E-02-4.72227E-04-7.68429E-14
 -1      3818 1.13315E-02-4.41551E-04-7.46815E-14
 -1      3819 1.16484E-02-4.78532E-04-7.86784E-14
 -1      3820 1.17910E-02-4.84729E-04-8.05225E-14
 -1      3821 1.16164E-02-4.54185E-04-7.83392E-14
 -1      3822 1.19337E-02-4.90826E-04-8.23720E-14
 -1      3823 1.20765E-02-4.96833E-04-8.42304E-14
 -1      3824 1.19016E-02-4.66404E-04-8.20306E-14
 -1      3825 1.22192E-02-5.02759E-04-8.60999E-14
 -1      3826 1.23620E-02-5.08613E-04-8.79747E-14
 -1      3827 1.21871E-02-4.78284E-04-8.57546E-14
 -1      3828 1.25049E-02-5.14403E-04-8.98574E-14
 -1      3829 1.26477E-02-5.20137E-04-9.17501E-14
 -1      3830 1.24726E-02-4.89891E-04-8.95114E-14
 -1      3831 1.27906E-02-5.25821E-04-9.36515E-14
 -1      3832 1.29334E-02-5.31462E-04-9.55620E-14
 -1      3833 1.27583E-02-5.01283E-04-9.32984E-14
 -1      3834 1.30763E-02-5.37065E-04-9.74827E-14
 -1      3835 1.32192E-02-5.42636E-04-9.94108E-14
 -1      3836 1.30441E-02-5.12509E-04-9.71223E-14
 -1      3837 1.33621E-02-5.48180E-04-1.01351E-13
 -1      3838 1.35049E-02-5.53702E-04-1.03300E-13
 -1      3839 1.33298E-02-5.23612E-04-1.00984E-13
 -1      3840 1.36467E-02-5.34901E-04-1.05313E-13
 -1      3841 1.38311E-02-2.04401E-04-1.08765E-13
 -1      3842 1.38259E-02-1.62349E-04-1.08799E-13
 -1      3843 1.36996E-02-1.36643E-04-1.07135E-13
 -1      3844 1.37161E-02-2.05761E-04-1.07185E-13
 -1      3845 8.25946E-03 9.28845E-05-3.89072E-14
 -1      3846 8.12335E-03 9.56519E-05-3.74312E-14
 -1      3847 7.98738E-03 9.90225E-05-3.59784E-14
 -1      3848 7.85109E-03 1.03236E-04-3.45474E-14
 -1      3849 8.08221E-03 6.49501E-05-3.67221E-14
 -1      3850 8.80667E-03 8.53138E-05-4.50266E-14
 -1      3851 8.66924E-03 8.68901E-05-4.34627E-14
 -1      3852 9.08285E-03 8.22535E-05-4.82134E-14
 -1      3853 8.94451E-03 8.37747E-05-4.66112E-14
 -1      3854 8.88985E-03 5.26593E-05-4.58286E-14
 -1      3855 9.36083E-03 7.89618E-05-5.14799E-14
 -1      3856 9.22161E-03 8.06495E-05-4.98368E-14
 -1      3857 9.16404E-03 4.90019E-05-4.90330E-14
 -1      3858 9.64043E-03 7.51228E-05-5.48211E-14
 -1      3859 9.50043E-03 7.71166E-05-5.31411E-14
 -1      3860 9.44055E-03 4.49364E-05-5.23149E-14
 -1      3861 9.92144E-03 7.05513E-05-5.82244E-14
 -1      3862 9.78077E-03 7.29295E-05-5.65159E-14
 -1      3863 9.71906E-03 4.02647E-05-5.56686E-14
 -1      3864 1.02036E-02 6.51625E-05-6.16862E-14
 -1      3865 1.00624E-02 6.79564E-05-5.99482E-14
 -1      3866 9.99927E-03 3.48751E-05-5.90839E-14
 -1      3867 1.04868E-02 5.89463E-05-6.52033E-14
 -1      3868 1.03451E-02 6.21529E-05-6.34380E-14
 -1      3869 1.02809E-02 2.87278E-05-6.25560E-14
 -1      3870 1.07706E-02 5.19430E-05-6.87699E-14
 -1      3871 1.06286E-02 5.55368E-05-6.69797E-14
 -1      3872 1.05636E-02 2.18371E-05-6.60831E-14
 -1      3873 1.10551E-02 4.42250E-05-7.23834E-14
 -1      3874 1.09128E-02 4.81667E-05-7.05713E-14
 -1      3875 1.08471E-02 1.42532E-05-6.96605E-14
 -1      3876 1.13399E-02 3.58797E-05-7.60419E-14
 -1      3877 1.11974E-02 4.01243E-05-7.42054E-14
 -1      3878 1.11314E-02 6.04907E-06-7.32831E-14
 -1      3879 1.16251E-02 2.69983E-05-7.97361E-14
 -1      3880 1.14825E-02 3.15000E-05-7.78847E-14
 -1      3881 1.14161E-02-2.69444E-06-7.69471E-14
 -1      3882 1.19105E-02 1.76698E-05-8.34660E-14
 -1      3883 1.17678E-02 2.23845E-05-8.15973E-14
 -1      3884 1.17012E-02-1.18955E-05-8.06487E-14
 -1      3885 1.21960E-02 7.97683E-06-8.72237E-14
 -1      3886 1.20533E-02 1.28642E-05-8.53411E-14
 -1      3887 1.19865E-02-2.14756E-05-8.43824E-14
 -1      3888 1.24817E-02-2.00714E-06-9.10110E-14
 -1      3889 1.23389E-02 3.01723E-06-8.91145E-14
 -1      3890 1.22720E-02-3.13627E-05-8.81437E-14
 -1      3891 1.27674E-02-1.22185E-05-9.48177E-14
 -1      3892 1.26245E-02-7.08771E-06-9.29140E-14
 -1      3893 1.25577E-02-4.14937E-05-9.19310E-14
 -1      3894 1.30532E-02-2.26032E-05-9.86475E-14
 -1      3895 1.29103E-02-1.73919E-05-9.67289E-14
 -1      3896 1.28434E-02-5.18141E-05-9.57402E-14
 -1      3897 1.33389E-02-3.31158E-05-1.02491E-13
 -1      3898 1.31960E-02-2.78458E-05-1.00567E-13
 -1      3899 1.31291E-02-6.22780E-05-9.95715E-14
 -1      3900 2.89608E-03 2.38471E-04-6.67326E-15
 -1      3901 2.63188E-03-1.65316E-04-6.24496E-15
 -1      3902 1.22106E-03 1.19073E-04-1.46302E-15
 -1      3903 1.20461E-03 9.36571E-05-1.47717E-15
 -1      3904 1.31005E-03 8.59081E-05-1.74294E-15
 -1      3905 1.34724E-03 1.39539E-04-1.71124E-15
 -1      3906 7.51133E-03-9.52668E-05-2.80307E-14
 -1      3907 7.51873E-03-1.12199E-04-2.82089E-14
 -1      3908 7.51290E-03-5.19837E-05-2.86166E-14
 -1      3909 7.52059E-03-7.47687E-05-2.83259E-14
 -1      3910 7.60175E-03-8.26660E-05-2.93821E-14
 -1      3911 7.35362E-03-1.39150E-04-2.65360E-14
 -1      3912 7.33526E-03-1.55717E-04-2.66522E-14
 -1      3913 7.43876E-03-1.34096E-04-2.74651E-14
 -1      3914 1.48095E-03 1.82574E-04-1.92876E-15
 -1      3915 7.71443E-03 1.08424E-04-3.31401E-14
 -1      3916 7.57661E-03 1.15067E-04-3.17555E-14
 -1      3917 7.81666E-03 7.15115E-05-3.38634E-14
 -1      3918 2.50613E-03-1.25494E-04-5.98343E-15
 -1      3919 8.53229E-03 8.86290E-05-4.19217E-14
 -1      3920 8.39568E-03 9.05796E-05-4.04033E-14
 -1      3921 8.61818E-03 5.62225E-05-4.27056E-14
 -1      3922 7.41229E-03-1.67196E-04-2.77038E-14
 -1      3923 1.37730E-02-5.29119E-08-1.08472E-13
 -1      3924 2.50151E-03 2.81611E-04-4.79207E-15
 -1      3925 2.35123E-03 2.68430E-04-4.29003E-15
 -1      3926 2.23737E-03 2.23070E-04-4.08381E-15
 -1      3927 2.48591E-03 2.43818E-04-4.91217E-15
 -1      3928 1.41394E-03-1.25355E-04-1.92828E-15
 -1      3929 1.52948E-03-1.33297E-04-2.21795E-15
 -1      3930 1.57430E-03-1.11465E-04-2.41488E-15
 -1      3931 1.39478E-03-9.95030E-05-1.94582E-15
 -1      3932 1.35560E-02-5.38776E-05-1.05388E-13
 -1      3933 1.34437E-02-4.17305E-05-1.03889E-13
 -1      3934 1.33769E-02-7.61672E-05-1.02894E-13
 -1      3935 1.35865E-02-9.34347E-05-1.05700E-13
 -1      3936 1.88364E-03-1.49321E-04-3.25414E-15
 -1      3937 2.01394E-03-1.53344E-04-3.69182E-15
 -1      3938 1.79198E-03-1.20781E-04-3.06671E-15
 -1      3939 7.04005E-03 1.57998E-04-2.67446E-14
 -1      3940 7.10488E-03 1.02588E-04-2.66924E-14
 -1      3941 7.24090E-03 5.41266E-05-2.73817E-14
 -1      3942 7.18810E-03 1.41115E-04-2.80426E-14
 -1      3943 1.17426E-03-4.75030E-05-1.49358E-15
 -1      3944 1.18334E-03-6.82995E-05-1.48494E-15
 -1      3945 1.29427E-03-7.46492E-05-1.74149E-15
 -1      3946 1.27973E-03-3.99090E-05-1.75770E-15
 -1      3947 2.14349E-03-1.57356E-04-4.15660E-15
 -1      3948 2.27322E-03-1.61632E-04-4.64810E-15
 -1      3949 2.29185E-03-1.31606E-04-4.92893E-15
 -1      3950 2.04430E-03-1.26592E-04-3.94467E-15
 -1      3951 2.75334E-03 1.86741E-04-6.34325E-15
 -1      3952 2.78698E-03 2.40916E-04-6.17193E-15
 -1      3953 2.63460E-03 2.25650E-04-5.60453E-15
 -1      3954 2.66234E-03 1.60443E-04-6.10898E-15
 -1      3955 2.39868E-03-5.14195E-05-6.18230E-15
 -1      3956 2.35356E-03-4.05446E-05-5.97435E-15
 -1      3957 2.36923E-03-6.67269E-05-5.85090E-15
 -1      3958 7.55526E-03-3.60395E-05-2.94415E-14
 -1      3959 1.39984E-03 5.21240E-05-2.03930E-15
 -1      3960 1.38966E-03 2.91574E-05-2.04523E-15
 -1      3961 1.36299E-02-4.65877E-04-1.05282E-13
 -1      3962 1.36245E-02-4.24114E-04-1.05329E-13
 -1      3963 2.42361E-03-1.06514E-04-5.75550E-15
 -1      3964 2.55875E-03 6.61412E-05-6.34098E-15
 -1      3965 2.57347E-03 1.03950E-04-6.10398E-15
 -1      3966 2.47571E-03 5.08408E-05-6.07964E-15
 -1      3967 1.45603E-03 1.50844E-04-1.95301E-15
 -1      3968 1.43349E-03 1.21316E-04-1.97287E-15
 -1      3969 1.56604E-03 1.62111E-04-2.21057E-15
 -1      3970 8.34907E-03 6.01273E-05-3.96692E-14
 -1      3971 2.41728E-03-7.24432E-06-6.30926E-15
 -1      3972 2.39124E-03 9.75206E-06-6.01036E-15
 -1      3973 2.35883E-03-1.50238E-05-6.00834E-15
 -1      3974 1.36030E-02-1.62538E-04-1.05751E-13
 -1      3975 1.35947E-02-1.27987E-04-1.05727E-13
 -1      3976 1.34899E-02-1.19340E-04-1.04319E-13
 -1      3977 7.59204E-03-1.16017E-04-2.92071E-14
 -1      3978 7.51868E-03-1.24602E-04-2.83320E-14
 -1      3979 7.51461E-03-1.37918E-04-2.84536E-14
 -1      3980 1.36086E-02-2.98700E-04-1.05462E-13
 -1      3981 1.36033E-02-2.56674E-04-1.05503E-13
 -1      3982 1.68347E-03 1.63981E-04-2.53249E-15
 -1      3983 7.45500E-03 1.20978E-04-3.05500E-14
 -1      3984 7.31372E-03 1.31331E-04-2.92089E-14
 -1      3985 7.33153E-03 8.91967E-05-2.88748E-14
 -1      3986 7.56710E-03 7.93527E-05-3.12518E-14
 -1      3987 1.42273E-03 9.82395E-05-2.00256E-15
 -1      3988 1.40557E-03 7.24664E-05-2.01540E-15
 -1      3989 1.50828E-03 6.17836E-05-2.32158E-15
 -1      3990 1.52756E-03 1.06479E-04-2.26517E-15
 -1      3991 7.51151E-03-1.91914E-04-2.91367E-14
 -1      3992 7.51129E-03-2.12644E-04-2.93859E-14
 -1      3993 7.63444E-03-2.17266E-04-3.07275E-14
 -1      3994 7.34709E-03 6.24788E-05-2.86675E-14
 -1      3995 7.37045E-03 2.46813E-05-2.83279E-14
 -1      3996 7.48534E-03 1.19717E-05-2.94159E-14
 -1      3997 7.46137E-03 5.85071E-05-2.98432E-14
 -1      3998 2.01052E-03 1.76597E-04-3.50260E-15
 -1      3999 1.87278E-03 1.71677E-04-3.07564E-15
 -1      4000 7.51987E-03-1.54410E-04-2.87353E-14
 -1      4001 7.50914E-03-1.72342E-04-2.88579E-14
 -1      4002 7.62277E-03-1.78408E-04-3.01899E-14
 -1      4003 7.60562E-03-1.43993E-04-2.96191E-14
 -1      4004 1.36192E-02-3.82353E-04-1.05374E-13
 -1      4005 1.36139E-02-3.40593E-04-1.05419E-13
 -1      4006 1.34981E-02-3.98516E-04-1.03666E-13
 -1      4007 1.35203E-02-5.09264E-04-1.03644E-13
 -1      4008 1.72547E-03 1.37273E-04-2.74485E-15
 -1      4009 1.34875E-02-3.14894E-04-1.03757E-13
 -1      4010 1.70861E-03 1.10939E-04-2.78106E-15
 -1      4011 1.33770E-02-4.14659E-04-1.01960E-13
 -1      4012 1.33717E-02-3.72930E-04-1.02008E-13
 -1      4013 7.75817E-03-2.22485E-04-3.20929E-14
 -1      4014 7.88316E-03-2.28461E-04-3.34822E-14
 -1      4015 7.74994E-03-2.03057E-04-3.18351E-14
 -1      4016 8.00920E-03-2.34873E-04-3.48922E-14
 -1      4017 8.13659E-03-2.41812E-04-3.63241E-14
 -1      4018 7.99506E-03-2.15799E-04-3.46245E-14
 -1      4019 8.26518E-03-2.49056E-04-3.77783E-14
 -1      4020 8.39505E-03-2.56707E-04-3.92542E-14
 -1      4021 8.24678E-03-2.29796E-04-3.75042E-14
 -1      4022 8.52607E-03-2.64570E-04-4.07514E-14
 -1      4023 8.65825E-03-2.72696E-04-4.22706E-14
 -1      4024 8.50447E-03-2.44836E-04-4.04675E-14
 -1      4025 8.79149E-03-2.80923E-04-4.38111E-14
 -1      4026 8.92573E-03-2.89286E-04-4.53692E-14
 -1      4027 8.76743E-03-2.60582E-04-4.35179E-14
 -1      4028 9.06091E-03-2.97656E-04-4.69477E-14
 -1      4029 9.19694E-03-3.06057E-04-4.85445E-14
 -1      4030 9.03493E-03-2.76673E-04-4.66483E-14
 -1      4031 9.33376E-03-3.14385E-04-5.01592E-14
 -1      4032 9.47130E-03-3.22662E-04-5.17904E-14
 -1      4033 9.30627E-03-2.92783E-04-4.98525E-14
 -1      4034 9.60949E-03-3.30816E-04-5.34379E-14
 -1      4035 9.74827E-03-3.38866E-04-5.51034E-14
 -1      4036 9.58081E-03-3.08648E-04-5.31260E-14
 -1      4037 9.88759E-03-3.46761E-04-5.67845E-14
 -1      4038 1.00274E-02-3.54521E-04-5.84781E-14
 -1      4039 9.85798E-03-3.24099E-04-5.64645E-14
 -1      4040 1.01676E-02-3.62110E-04-6.01887E-14
 -1      4041 1.03082E-02-3.69551E-04-6.19128E-14
 -1      4042 1.01373E-02-3.39029E-04-5.98654E-14
 -1      4043 1.04491E-02-3.76822E-04-6.36503E-14
 -1      4044 1.05903E-02-3.83943E-04-6.54008E-14
 -1      4045 1.04182E-02-3.53393E-04-6.33224E-14
 -1      4046 1.07318E-02-3.90905E-04-6.71651E-14
 -1      4047 1.08735E-02-3.97724E-04-6.89426E-14
 -1      4048 1.07005E-02-3.67194E-04-6.68345E-14
 -1      4049 1.10154E-02-4.04400E-04-7.07308E-14
 -1      4050 1.11574E-02-4.10949E-04-7.25323E-14
 -1      4051 1.09838E-02-3.80465E-04-7.03958E-14
 -1      4052 1.12996E-02-4.17372E-04-7.43438E-14
 -1      4053 1.14420E-02-4.23684E-04-7.61655E-14
 -1      4054 1.12678E-02-3.93262E-04-7.40048E-14
 -1      4055 1.15844E-02-4.29889E-04-7.79976E-14
 -1      4056 1.17269E-02-4.35999E-04-7.98402E-14
 -1      4057 1.15524E-02-4.05644E-04-7.76561E-14
 -1      4058 1.18695E-02-4.42021E-04-8.16882E-14
 -1      4059 1.20122E-02-4.47965E-04-8.35428E-14
 -1      4060 1.18375E-02-4.17676E-04-8.13435E-14
 -1      4061 1.21549E-02-4.53837E-04-8.54093E-14
 -1      4062 1.22977E-02-4.59646E-04-8.72836E-14
 -1      4063 1.21228E-02-4.29417E-04-8.50646E-14
 -1      4064 1.24404E-02-4.65398E-04-8.91629E-14
 -1      4065 1.25833E-02-4.71100E-04-9.10497E-14
 -1      4066 1.24083E-02-4.40924E-04-8.88140E-14
 -1      4067 1.27261E-02-4.76757E-04-9.29459E-14
 -1      4068 1.28690E-02-4.82376E-04-9.48501E-14
 -1      4069 1.26939E-02-4.52245E-04-9.25922E-14
 -1      4070 1.30118E-02-4.87962E-04-9.67641E-14
 -1      4071 1.31547E-02-4.93518E-04-9.86858E-14
 -1      4072 1.29796E-02-4.63423E-04-9.64050E-14
 -1      4073 9.51911E-03 1.10198E-05-5.31485E-14
 -1      4074 9.38107E-03 1.35723E-05-5.14903E-14
 -1      4075 1.36073E-02-2.26882E-04-1.05639E-13
 -1      4076 1.35990E-02-1.92334E-04-1.05619E-13
 -1      4077 1.34942E-02-1.83669E-04-1.04209E-13
 -1      4078 1.34862E-02-2.43237E-04-1.03939E-13
 -1      4079 8.17261E-03 3.31500E-05-3.74660E-14
 -1      4080 8.04251E-03 3.55228E-05-3.60151E-14
 -1      4081 2.32409E-03-1.09526E-04-5.24190E-15
 -1      4082 2.34020E-03-8.47349E-05-5.52871E-15
 -1      4083 2.27856E-03-7.02182E-05-5.33509E-15
 -1      4084 2.20683E-03-1.08199E-04-4.72186E-15
 -1      4085 1.38385E-03 7.31436E-06-2.04776E-15
 -1      4086 1.38266E-03-1.41196E-05-2.04691E-15
 -1      4087 1.49356E-03 1.80887E-05-2.35021E-15
 -1      4088 9.24368E-03 1.60079E-05-4.98515E-14
 -1      4089 9.10694E-03 1.82917E-05-4.82322E-14
 -1      4090 9.32185E-03-1.69506E-05-5.06711E-14
 -1      4091 8.97097E-03 2.04994E-05-4.66318E-14
 -1      4092 8.83574E-03 2.25935E-05-4.50512E-14
 -1      4093 9.05014E-03-1.14569E-05-4.74347E-14
 -1      4094 9.79684E-03 5.42492E-06-5.65149E-14
 -1      4095 9.65771E-03 8.29390E-06-5.48236E-14
 -1      4096 9.59659E-03-2.29555E-05-5.39829E-14
 -1      4097 1.00765E-02-8.36941E-07-5.99402E-14
 -1      4098 9.93645E-03 2.37176E-06-5.82205E-14
 -1      4099 9.87383E-03-2.95250E-05-5.73602E-14
 -1      4100 1.03577E-02-7.77094E-06-6.34243E-14
 -1      4101 1.02169E-02-4.22660E-06-6.16755E-14
 -1      4102 1.01531E-02-3.66820E-05-6.07972E-14
 -1      4103 1.06401E-02-1.53482E-05-6.69603E-14
 -1      4104 1.04988E-02-1.14857E-05-6.51848E-14
 -1      4105 1.04341E-02-4.44058E-05-6.42889E-14
 -1      4106 1.09235E-02-2.35142E-05-7.05486E-14
 -1      4107 1.07817E-02-1.93643E-05-6.87489E-14
 -1      4108 1.07164E-02-5.26628E-05-6.78374E-14
 -1      4109 1.12076E-02-3.21997E-05-7.41815E-14
 -1      4110 1.10654E-02-2.77981E-05-7.23603E-14
 -1      4111 1.09996E-02-6.13968E-05-7.14368E-14
 -1      4112 1.14922E-02-4.13340E-05-7.78539E-14
 -1      4113 1.13498E-02-3.67163E-05-7.60134E-14
 -1      4114 1.12837E-02-7.05479E-05-7.50790E-14
 -1      4115 1.17772E-02-5.08458E-05-8.15594E-14
 -1      4116 1.16347E-02-4.60476E-05-7.97018E-14
 -1      4117 1.15683E-02-8.00570E-05-7.87564E-14
 -1      4118 1.20626E-02-6.06682E-05-8.52953E-14
 -1      4119 1.19199E-02-5.57224E-05-8.34240E-14
 -1      4120 1.18533E-02-8.98644E-05-8.24662E-14
 -1      4121 1.23481E-02-7.07409E-05-8.90594E-14
 -1      4122 1.22053E-02-6.56768E-05-8.71742E-14
 -1      4123 1.21386E-02-9.99154E-05-8.62078E-14
 -1      4124 1.26337E-02-8.10111E-05-9.28487E-14
 -1      4125 1.24909E-02-7.58542E-05-9.09512E-14
 -1      4126 1.24241E-02-1.10162E-04-8.99740E-14
 -1      4127 1.29194E-02-9.14339E-05-9.66615E-14
 -1      4128 1.27765E-02-8.62057E-05-9.47526E-14
 -1      4129 1.27097E-02-1.20561E-04-9.37649E-14
 -1      4130 1.32052E-02-1.01971E-04-1.00497E-13
 -1      4131 1.30623E-02-9.66901E-05-9.85774E-14
 -1      4132 1.29954E-02-1.31078E-04-9.75822E-14
 -1      4133 1.70707E-03-9.51286E-05-2.88101E-15
 -1      4134 1.83143E-03-9.76210E-05-3.29423E-15
 -1      4135 7.69294E-03-7.77111E-05-3.06473E-14
 -1      4136 7.67993E-03-1.00346E-04-3.03430E-14
 -1      4137 1.33999E-02-1.14962E-04-1.03108E-13
 -1      4138 1.32951E-02-1.06333E-04-1.01707E-13
 -1      4139 1.32283E-02-1.40739E-04-1.00707E-13
 -1      4140 1.34082E-02-1.49495E-04-1.03129E-13
 -1      4141 1.33664E-02-3.31069E-04-1.02058E-13
 -1      4142 1.33611E-02-2.89211E-04-1.02104E-13
 -1      4143 1.32453E-02-3.47224E-04-1.00360E-13
 -1      4144 7.91334E-03 3.81533E-05-3.45861E-14
 -1      4145 7.78461E-03 4.10282E-05-3.31796E-14
 -1      4146 8.00403E-03 7.37255E-06-3.53100E-14
 -1      4147 8.70137E-03 2.46760E-05-4.34898E-14
 -1      4148 8.56782E-03 2.67042E-05-4.19506E-14
 -1      4149 8.78198E-03-6.39790E-06-4.42759E-14
 -1      4150 8.43521E-03 2.87928E-05-4.04346E-14
 -1      4151 8.30342E-03 3.08989E-05-3.89393E-14
 -1      4152 8.25848E-03 2.92130E-06-3.82110E-14
 -1      4153 2.12785E-03 1.82589E-04-3.87869E-15
 -1      4154 2.02406E-03 1.46682E-04-3.67498E-15
 -1      4155 2.24656E-03 1.89232E-04-4.27334E-15
 -1      4156 7.60851E-03-1.94029E-05-3.03643E-14
 -1      4157 7.65975E-03-4.48723E-05-3.06076E-14
 -1      4158 1.33130E-02-4.54646E-04-1.00963E-13
 -1      4159 1.31865E-02-4.29028E-04-9.93171E-14
 -1      4160 1.48961E-03-2.17743E-05-2.34810E-15
 -1      4161 1.38473E-03-3.11996E-05-2.04279E-15
 -1      4162 1.38987E-03-4.86736E-05-2.03625E-15
 -1      4163 2.56643E-03 1.34456E-04-5.85602E-15
 -1      4164 2.55467E-03 1.65840E-04-5.60992E-15
 -1      4165 2.47525E-03 1.12649E-04-5.60789E-15
 -1      4166 1.38239E-03-8.00729E-05-1.95807E-15
 -1      4167 7.60223E-03 1.70468E-07-3.05847E-14
 -1      4168 7.75596E-03-6.41813E-05-3.15908E-14
 -1      4169 1.60434E-03 2.93714E-05-2.67231E-15
 -1      4170 1.59666E-03 6.13590E-06-2.67504E-15
 -1      4171 2.38945E-03 3.54527E-05-5.78817E-15
 -1      4172 2.39091E-03 6.53613E-05-5.56516E-15
 -1      4173 2.31139E-03 2.32491E-05-5.50222E-15
 -1      4174 1.87182E-03-7.55709E-05-3.52597E-15
 -1      4175 1.95384E-03-9.98570E-05-3.73433E-15
 -1      4176 2.07454E-03-1.01490E-04-4.20162E-15
 -1      4177 1.57151E-03-7.61124E-05-2.50745E-15
 -1      4178 1.62076E-03-5.61228E-05-2.70847E-15
 -1      4179 1.33651E-02-2.59444E-04-1.02242E-13
 -1      4180 1.33690E-02-2.29676E-04-1.02378E-13
 -1      4181 1.32439E-02-2.75635E-04-1.00548E-13
 -1      4182 2.30126E-03-2.71559E-05-5.68824E-15
 -1      4183 2.25534E-03-1.30756E-05-5.40655E-15
 -1      4184 2.25177E-03-3.98941E-05-5.37344E-15
 -1      4185 2.05311E-03 1.17339E-04-3.90774E-15
 -1      4186 1.94274E-03 1.14653E-04-3.53035E-15
 -1      4187 7.64693E-03-1.15251E-04-2.99195E-14
 -1      4188 7.65158E-03-1.27900E-04-3.00458E-14
 -1      4189 7.66568E-03-1.43157E-04-3.03363E-14
 -1      4190 7.74608E-03-1.11700E-04-3.11962E-14
 -1      4191 7.73871E-03-1.84257E-04-3.15462E-14
 -1      4192 7.85721E-03-1.90641E-04-3.29254E-14
 -1      4193 7.72697E-03-1.66445E-04-3.12567E-14
 -1      4194 8.51792E-03-1.63918E-06-4.12004E-14
 -1      4195 7.68031E-03 4.78956E-05-3.21024E-14
 -1      4196 7.56740E-03 5.03585E-05-3.08925E-14
 -1      4197 7.57578E-03 2.75089E-05-3.06766E-14
 -1      4198 7.77820E-03 1.52501E-05-3.28076E-14
 -1      4199 2.53305E-03 1.89975E-04-5.38019E-15
 -1      4200 2.51346E-03 2.20709E-04-5.13723E-15
 -1      4201 2.38936E-03 2.10470E-04-4.70453E-15
 -1      4202 2.44044E-03 1.64935E-04-5.14443E-15
 -1      4203 1.61787E-03 7.16840E-05-2.62142E-15
 -1      4204 1.60936E-03 4.99074E-05-2.64822E-15
 -1      4205 1.70885E-03 3.73551E-05-2.99495E-15
 -1      4206 1.80760E-03 9.76300E-05-3.14088E-15
 -1      4207 1.84384E-03 7.26620E-05-3.35089E-15
 -1      4208 8.33996E-03-2.60974E-05-3.89580E-14
 -1      4209 8.21348E-03-2.36399E-05-3.74857E-14
 -1      4210 7.97778E-03-1.97097E-04-3.43264E-14
 -1      4211 8.10055E-03-2.03860E-04-3.57500E-14
 -1      4212 7.95995E-03-1.79157E-04-3.40268E-14
 -1      4213 8.22522E-03-2.10716E-04-3.71960E-14
 -1      4214 8.35168E-03-2.17883E-04-3.86625E-14
 -1      4215 8.20315E-03-1.92250E-04-3.68863E-14
 -1      4216 8.47974E-03-2.25170E-04-4.01508E-14
 -1      4217 8.60931E-03-2.32666E-04-4.16605E-14
 -1      4218 8.45459E-03-2.06023E-04-3.98329E-14
 -1      4219 8.74025E-03-2.40226E-04-4.31915E-14
 -1      4220 8.87247E-03-2.47910E-04-4.47433E-14
 -1      4221 8.71277E-03-2.20317E-04-4.28640E-14
 -1      4222 9.00585E-03-2.55606E-04-4.63133E-14
 -1      4223 9.14029E-03-2.63347E-04-4.79026E-14
 -1      4224 8.97655E-03-2.34923E-04-4.59771E-14
 -1      4225 9.27569E-03-2.71041E-04-4.95105E-14
 -1      4226 9.41198E-03-2.78708E-04-5.11357E-14
 -1      4227 9.24497E-03-2.49632E-04-4.91671E-14
 -1      4228 9.54906E-03-2.86289E-04-5.27771E-14
 -1      4229 9.68686E-03-2.93802E-04-5.44347E-14
 -1      4230 9.51721E-03-2.64212E-04-5.24271E-14
 -1      4231 9.82530E-03-3.01201E-04-5.61090E-14
 -1      4232 9.96432E-03-3.08501E-04-5.77990E-14
 -1      4233 9.79256E-03-2.78541E-04-5.57533E-14
 -1      4234 1.01039E-02-3.15671E-04-5.95037E-14
 -1      4235 1.02439E-02-3.22727E-04-6.12231E-14
 -1      4236 1.00704E-02-2.92510E-04-5.91407E-14
 -1      4237 1.03843E-02-3.29653E-04-6.29562E-14
 -1      4238 1.05250E-02-3.36461E-04-6.47033E-14
 -1      4239 1.03503E-02-3.06072E-04-6.25876E-14
 -1      4240 1.06661E-02-3.43144E-04-6.64625E-14
 -1      4241 1.08075E-02-3.49712E-04-6.82356E-14
 -1      4242 1.06318E-02-3.19221E-04-6.60913E-14
 -1      4243 1.09491E-02-3.56166E-04-7.00228E-14
 -1      4244 1.10909E-02-3.62517E-04-7.18198E-14
 -1      4245 1.09144E-02-3.31966E-04-6.96468E-14
 -1      4246 1.12329E-02-3.68767E-04-7.36262E-14
 -1      4247 1.13751E-02-3.74927E-04-7.54449E-14
 -1      4248 1.11980E-02-3.44350E-04-7.32480E-14
 -1      4249 1.15174E-02-3.81000E-04-7.72758E-14
 -1      4250 1.16598E-02-3.86995E-04-7.91139E-14
 -1      4251 1.14823E-02-3.56414E-04-7.68928E-14
 -1      4252 1.18023E-02-3.92918E-04-8.09609E-14
 -1      4253 1.19449E-02-3.98776E-04-8.28143E-14
 -1      4254 1.17671E-02-3.68203E-04-8.05763E-14
 -1      4255 1.20875E-02-4.04574E-04-8.46753E-14
 -1      4256 1.22302E-02-4.10321E-04-8.65465E-14
 -1      4257 1.20523E-02-3.79764E-04-8.42897E-14
 -1      4258 1.23730E-02-4.16020E-04-8.84238E-14
 -1      4259 1.25157E-02-4.21677E-04-9.03054E-14
 -1      4260 1.23377E-02-3.91138E-04-8.80312E-14
 -1      4261 1.26586E-02-4.27297E-04-9.22000E-14
 -1      4262 1.28014E-02-4.32885E-04-9.40981E-14
 -1      4263 1.26232E-02-4.02365E-04-9.18039E-14
 -1      4264 1.29225E-02-4.28218E-04-9.57449E-14
 -1      4265 1.30654E-02-4.33749E-04-9.76607E-14
 -1      4266 1.31295E-02-3.93817E-04-9.86501E-14
 -1      4267 1.28872E-02-4.03255E-04-9.53467E-14
 -1      4268 9.95010E-03-6.46391E-05-5.82052E-14
 -1      4269 9.81128E-03-6.07960E-05-5.65041E-14
 -1      4270 1.32976E-02-4.99049E-04-1.00620E-13
 -1      4271 1.34042E-02-1.79275E-04-1.02995E-13
 -1      4272 9.39868E-03-4.99753E-05-5.14908E-14
 -1      4273 9.26263E-03-4.66136E-05-4.98547E-14
 -1      4274 7.69946E-03-4.88536E-06-3.16423E-14
 -1      4275 9.12747E-03-4.33446E-05-4.82374E-14
 -1      4276 8.99325E-03-4.02378E-05-4.66405E-14
 -1      4277 9.20321E-03-7.54348E-05-4.90405E-14
 -1      4278 1.02293E-02-7.26991E-05-6.16520E-14
 -1      4279 1.00894E-02-6.86162E-05-5.99216E-14
 -1      4280 1.00257E-02-1.00011E-04-5.90490E-14
 -1      4281 1.05102E-02-8.12040E-05-6.51561E-14
 -1      4282 1.03695E-02-7.69044E-05-6.33980E-14
 -1      4283 1.03050E-02-1.08955E-04-6.25062E-14
 -1      4284 1.07924E-02-9.01281E-05-6.87161E-14
 -1      4285 1.06511E-02-8.56200E-05-6.69287E-14
 -1      4286 1.05859E-02-1.18227E-04-6.60228E-14
 -1      4287 1.10756E-02-9.94079E-05-7.23234E-14
 -1      4288 1.09339E-02-9.47275E-05-7.05139E-14
 -1      4289 1.08682E-02-1.27773E-04-6.95929E-14
 -1      4290 1.13597E-02-1.09006E-04-7.59723E-14
 -1      4291 1.12176E-02-1.04172E-04-7.41417E-14
 -1      4292 1.11515E-02-1.37575E-04-7.32071E-14
 -1      4293 1.16443E-02-1.18871E-04-7.96552E-14
 -1      4294 1.15019E-02-1.13909E-04-7.78099E-14
 -1      4295 1.14356E-02-1.47591E-04-7.68622E-14
 -1      4296 1.19293E-02-1.28956E-04-8.33721E-14
 -1      4297 1.17867E-02-1.23889E-04-8.15117E-14
 -1      4298 1.17202E-02-1.57786E-04-8.05541E-14
 -1      4299 1.22146E-02-1.39220E-04-8.71152E-14
 -1      4300 1.20719E-02-1.34068E-04-8.52398E-14
 -1      4301 1.20053E-02-1.68127E-04-8.42752E-14
 -1      4302 1.25001E-02-1.49627E-04-9.08864E-14
 -1      4303 1.23573E-02-1.44408E-04-8.89969E-14
 -1      4304 1.22906E-02-1.78586E-04-8.80215E-14
 -1      4305 1.27858E-02-1.60145E-04-9.46791E-14
 -1      4306 1.26429E-02-1.54874E-04-9.27791E-14
 -1      4307 1.25762E-02-1.89139E-04-9.17948E-14
 -1      4308 1.30715E-02-1.70748E-04-9.85015E-14
 -1      4309 1.29286E-02-1.65437E-04-9.65877E-14
 -1      4310 1.28618E-02-1.99763E-04-9.55925E-14
 -1      4311 1.47055E-03-8.53723E-05-2.18732E-15
 -1      4312 1.31241E-02-3.51999E-04-9.87013E-14
 -1      4313 1.31188E-02-3.10184E-04-9.87515E-14
 -1      4314 1.30030E-02-3.56757E-04-9.70500E-14
 -1      4315 1.61349E-03-3.77105E-05-2.71666E-15
 -1      4316 1.73935E-03-5.43545E-05-3.10929E-15
 -1      4317 1.61025E-03-1.95898E-05-2.72190E-15
 -1      4318 2.18588E-03 1.22525E-04-4.37490E-15
 -1      4319 2.10193E-03 9.08288E-05-4.21363E-15
 -1      4320 9.67307E-03-5.70586E-05-5.48155E-14
 -1      4321 9.53550E-03-5.34662E-05-5.31445E-14
 -1      4322 9.47431E-03-8.32137E-05-5.23103E-14
 -1      4323 9.74867E-03-9.14207E-05-5.56485E-14
 -1      4324 8.08883E-03-2.12284E-05-3.60346E-14
 -1      4325 7.96586E-03-1.91065E-05-3.46058E-14
 -1      4326 8.16798E-03-4.87116E-05-3.67606E-14
 -1      4327 8.86013E-03-3.71913E-05-4.50621E-14
 -1      4328 8.72811E-03-3.42834E-05-4.35027E-14
 -1      4329 8.93608E-03-6.80082E-05-4.58474E-14
 -1      4330 1.95547E-03 6.25171E-05-3.78877E-15
 -1      4331 1.83055E-03 4.95603E-05-3.38104E-15
 -1      4332 1.82184E-03 2.78704E-05-3.40820E-15
 -1      4333 1.71390E-03-9.53854E-06-3.07072E-15
 -1      4334 2.27484E-03 1.67915E-04-4.48143E-15
 -1      4335 8.59737E-03-3.14391E-05-4.19663E-14
 -1      4336 8.46790E-03-2.87441E-05-4.04517E-14
 -1      4337 8.67384E-03-6.10427E-05-4.27337E-14
 -1      4338 7.83669E-03-4.83808E-05-3.27619E-14
 -1      4339 7.86372E-03-8.23803E-05-3.28025E-14
 -1      4340 1.30012E-02-2.60038E-04-9.73037E-14
 -1      4341 1.31223E-02-2.55215E-04-9.89539E-14
 -1      4342 1.85813E-03-5.58101E-05-3.53791E-15
 -1      4343 2.35842E-03 8.91688E-05-5.25892E-15
 -1      4344 2.34256E-03 1.15878E-04-5.02827E-15
 -1      4345 2.23101E-03 7.65342E-06-5.20019E-15
 -1      4346 2.21431E-03 3.11234E-05-4.99351E-15
 -1      4347 2.16038E-03-6.24949E-06-4.90354E-15
 -1      4348 2.11736E-03-8.26311E-05-4.48892E-15
 -1      4349 2.16255E-03-6.81536E-05-4.77549E-15
 -1      4350 2.20544E-03-5.19459E-05-5.07485E-15
 -1      4351 2.14213E-03-3.76547E-05-4.81156E-15
 -1      4352 2.04022E-03-6.32060E-05-4.25106E-15
 -1      4353 8.41737E-03-5.45665E-05-3.97051E-14
 -1      4354 2.26841E-03 7.15207E-05-4.98946E-15
 -1      4355 7.79659E-03-1.00972E-05-3.27119E-14
 -1      4356 2.31917E-03 1.37497E-04-4.81304E-15
 -1      4357 1.32831E-02-1.95509E-04-1.01302E-13
 -1      4358 7.77538E-03-1.49135E-04-3.16950E-14
 -1      4359 7.97576E-03-9.47394E-05-3.41398E-14
 -1      4360 7.88384E-03-1.08593E-04-3.29433E-14
 -1      4361 2.07831E-03 6.42444E-05-4.25015E-15
 -1      4362 7.84947E-03-1.24733E-04-3.25062E-14
 -1      4363 1.82119E-03-1.13687E-06-3.45378E-15
 -1      4364 1.83522E-03-2.74328E-05-3.50539E-15
 -1      4365 1.95656E-03-4.73828E-05-3.95105E-15
 -1      4366 1.93269E-03 9.00770E-06-3.87032E-15
 -1      4367 7.92005E-03-3.07495E-05-3.39476E-14
 -1      4368 8.14913E-03-1.63673E-04-3.61889E-14
 -1      4369 8.27126E-03-1.69887E-04-3.76407E-14
 -1      4370 8.39551E-03-1.76140E-04-3.91147E-14
 -1      4371 8.52183E-03-1.82602E-04-4.06102E-14
 -1      4372 8.33493E-03-1.47582E-04-3.83960E-14
 -1      4373 8.64987E-03-1.89079E-04-4.21260E-14
 -1      4374 8.77957E-03-1.95713E-04-4.36628E-14
 -1      4375 8.58588E-03-1.58994E-04-4.13876E-14
 -1      4376 8.91067E-03-2.02355E-04-4.52195E-14
 -1      4377 9.04313E-03-2.09102E-04-4.67961E-14
 -1      4378 8.84402E-03-1.70824E-04-4.44606E-14
 -1      4379 9.17675E-03-2.15842E-04-4.83916E-14
 -1      4380 9.31145E-03-2.22603E-04-5.00051E-14
 -1      4381 9.10797E-03-1.82922E-04-4.76143E-14
 -1      4382 9.44711E-03-2.29303E-04-5.16370E-14
 -1      4383 9.58366E-03-2.36013E-04-5.32849E-14
 -1      4384 9.37667E-03-1.95177E-04-5.08438E-14
 -1      4385 9.72097E-03-2.42660E-04-5.49481E-14
 -1      4386 9.85900E-03-2.49269E-04-5.66274E-14
 -1      4387 9.64916E-03-2.07462E-04-5.41427E-14
 -1      4388 9.99765E-03-2.55798E-04-5.83216E-14
 -1      4389 1.01369E-02-2.62270E-04-6.00321E-14
 -1      4390 9.92475E-03-2.19660E-04-5.75020E-14
 -1      4391 1.02766E-02-2.68659E-04-6.17569E-14
 -1      4392 1.04168E-02-2.74989E-04-6.34969E-14
 -1      4393 1.02028E-02-2.31728E-04-6.09236E-14
 -1      4394 1.05574E-02-2.81240E-04-6.52496E-14
 -1      4395 1.06983E-02-2.87420E-04-6.70159E-14
 -1      4396 1.04829E-02-2.43639E-04-6.44053E-14
 -1      4397 1.08395E-02-2.93523E-04-6.87943E-14
 -1      4398 1.09810E-02-2.99566E-04-7.05865E-14
 -1      4399 1.07646E-02-2.55388E-04-6.79422E-14
 -1      4400 1.11227E-02-3.05544E-04-7.23899E-14
 -1      4401 1.12646E-02-3.11463E-04-7.42012E-14
 -1      4402 1.10474E-02-2.66983E-04-7.15260E-14
 -1      4403 1.14067E-02-3.17325E-04-7.60245E-14
 -1      4404 1.15489E-02-3.23135E-04-7.78590E-14
 -1      4405 1.13311E-02-2.78425E-04-7.51564E-14
 -1      4406 1.16913E-02-3.28897E-04-7.97028E-14
 -1      4407 1.18337E-02-3.34616E-04-8.15532E-14
 -1      4408 1.16155E-02-2.89736E-04-7.88248E-14
 -1      4409 1.19763E-02-3.40296E-04-8.34095E-14
 -1      4410 1.21189E-02-3.45940E-04-8.52741E-14
 -1      4411 1.19004E-02-3.00936E-04-8.25268E-14
 -1      4412 1.22616E-02-3.51551E-04-8.71447E-14
 -1      4413 1.24043E-02-3.57134E-04-8.90236E-14
 -1      4414 1.21856E-02-3.12043E-04-8.62576E-14
 -1      4415 1.25471E-02-3.62692E-04-9.09077E-14
 -1      4416 1.26899E-02-3.68227E-04-9.28013E-14
 -1      4417 1.24710E-02-3.23076E-04-9.00129E-14
 -1      4418 1.27859E-02-3.64869E-04-9.41002E-14
 -1      4419 1.29070E-02-3.60152E-04-9.57438E-14
 -1      4420 1.29017E-02-3.18389E-04-9.57957E-14
 -1      4421 1.27097E-02-3.25191E-04-9.31949E-14
 -1      4422 8.25833E-03-9.78686E-05-3.75843E-14
 -1      4423 8.13745E-03-9.41583E-05-3.61316E-14
 -1      4424 9.27748E-03-1.07777E-04-4.98446E-14
 -1      4425 9.14329E-03-1.03410E-04-4.82299E-14
 -1      4426 1.06614E-02-1.55475E-04-6.68859E-14
 -1      4427 1.05207E-02-1.50468E-04-6.51157E-14
 -1      4428 1.09580E-02-1.97132E-04-7.05666E-14
 -1      4429 1.08167E-02-1.91820E-04-6.87715E-14
 -1      4430 1.12414E-02-2.07803E-04-7.41893E-14
 -1      4431 1.10996E-02-2.02467E-04-7.23740E-14
 -1      4432 1.15256E-02-2.18509E-04-7.78498E-14
 -1      4433 1.13834E-02-2.13155E-04-7.60150E-14
 -1      4434 1.18103E-02-2.29242E-04-8.15480E-14
 -1      4435 1.16679E-02-2.23874E-04-7.96953E-14
 -1      4436 1.20954E-02-2.39995E-04-8.52712E-14
 -1      4437 1.19528E-02-2.34617E-04-8.34053E-14
 -1      4438 1.23808E-02-2.50764E-04-8.90225E-14
 -1      4439 1.22381E-02-2.45378E-04-8.71435E-14
 -1      4440 1.26664E-02-2.61546E-04-9.27964E-14
 -1      4441 1.25236E-02-2.56153E-04-9.09085E-14
 -1      4442 1.28583E-02-2.54655E-04-9.53925E-14
 -1      4443 1.31931E-02-1.91119E-04-1.00094E-13
 -1      4444 1.31263E-02-2.25477E-04-9.90920E-14
 -1      4445 7.99843E-03-5.70729E-05-3.46550E-14
 -1      4446 2.12252E-03 4.43418E-05-4.52545E-15
 -1      4447 9.02494E-03-1.24954E-04-4.67371E-14
 -1      4448 8.89316E-03-1.20187E-04-4.51592E-14
 -1      4449 7.92277E-03-1.46944E-04-3.34561E-14
 -1      4450 8.50678E-03-1.06364E-04-4.05516E-14
 -1      4451 8.38149E-03-1.02144E-04-3.90576E-14
 -1      4452 8.76278E-03-1.15431E-04-4.36034E-14
 -1      4453 8.63392E-03-1.10907E-04-4.20673E-14
 -1      4454 8.03944E-03-1.52903E-04-3.48650E-14
 -1      4455 1.03945E-02-1.75948E-04-6.34610E-14
 -1      4456 1.02545E-02-1.70698E-04-6.17176E-14
 -1      4457 1.01151E-02-1.65453E-04-5.99900E-14
 -1      4458 9.97613E-03-1.60261E-04-5.82777E-14
 -1      4459 8.10171E-03-1.31798E-04-3.55969E-14
 -1      4460 2.01233E-03-3.46151E-05-4.21696E-15
 -1      4461 1.34881E-02-4.84697E-04-1.03277E-13
 -1      4462 1.27623E-02-2.58104E-04-9.40951E-14
 -1      4463 2.03896E-03 2.74164E-05-4.25198E-15
 -1      4464 9.83779E-03-1.55067E-04-5.65813E-14
 -1      4465 9.70012E-03-1.49944E-04-5.48992E-14
 -1      4466 9.56319E-03-1.44816E-04-5.32331E-14
 -1      4467 9.42709E-03-1.39793E-04-5.15831E-14
 -1      4468 8.08547E-03-1.03761E-04-3.54551E-14
 -1      4469 2.06973E-03-2.26338E-05-4.48933E-15
 -1      4470 2.03167E-03-2.32677E-06-4.30304E-15
 -1      4471 9.36408E-03-1.67831E-04-5.07477E-14
 -1      4472 9.22938E-03-1.62213E-04-4.91242E-14
 -1      4473 1.06098E-02-2.18564E-04-6.60710E-14
 -1      4474 1.07507E-02-2.24166E-04-6.78473E-14
 -1      4475 1.04692E-02-2.12948E-04-6.43090E-14
 -1      4476 9.09577E-03-1.56644E-04-4.75189E-14
 -3
    1PSTEP                         2           1           1          
  100CL  101 1.000000000        4476                     0    1           1
 -4  STRESS      6    1
 -5  SXX         1    4    1    1
 -5  SYY         1    4    2    2
 -5  SZZ         1    4    3    3
 -5  SXY         1    4    1    2
 -5  SYZ         1    4    2    3
 -5  SZX         1    4    3    1
 -1         1 2.26410E+01 1.11487E+01 9.61338E-01 1.56520E+01-2.49573E-12-3.39867E-12
 -1         2-7.31199E-01-2.45012E+01-3.35910E+00-1.63261E-01-9.80310E-13 1.03834E-13
 -1         3 1.99999E+01 1.44770E-04-1.67630E-04 1.41648E-04-3.12201E-13-2.38256E-13
 -1         4 1.99999E+01 1.25874E-04-1.83146E-04-1.25647E-04 2.87580E-13-8.69546E-14
 -1         5 3.26228E+01 6.13195E+00 2.61100E+00 6.09990E+00-3.62557E-14 2.64024E-12
 -1         6 3.54158E+01 1.20948E+01 4.90020E+00-8.43513E+00-1.41664E-13 2.75903E-12
 -1         7 2.14163E+01 6.25594E+00-6.21301E-02-4.39530E+00-2.29955E-14 6.86031E-13
 -1         8 2.02297E+01 6.09294E+00 8.22161E-02-2.78200E+00-3.42990E-14-3.52496E-15
 -1         9 1.95277E+01 5.88403E+00 6.26775E-02-1.94473E+00-3.09718E-14-4.06088E-13
 -1        10 1.90411E+01 5.73302E+00 5.01119E-02-1.35519E+00-2.23918E-14-6.11657E-13
 -1        11 1.86584E+01 5.61517E+00 3.76594E-02-9.14757E-01-1.86309E-14-7.12669E-13
 -1        12 1.83653E+01 5.52528E+00 2.70899E-02-5.85566E-01-1.10519E-14-7.61000E-13
 -1        13 1.81592E+01 5.46253E+00 1.94531E-02-3.24868E-01-6.08107E-15-7.86410E-13
 -1        14 1.80564E+01 5.43128E+00 1.57209E-02-1.07707E-01-3.82507E-16-8.00539E-13
 -1        15 1.80625E+01 5.43313E+00 1.62586E-02 9.71348E-02 1.67834E-15-8.08343E-13
 -1        16 1.81757E+01 5.46755E+00 2.09508E-02 3.20662E-01 6.20771E-15-8.02661E-13
 -1        17 1.83875E+01 5.53190E+00 2.92553E-02 5.93050E-01 8.05779E-15-7.67209E-13
 -1        18 1.86799E+01 5.62162E+00 4.00043E-02 9.36090E-01 1.53193E-14-7.06631E-13
 -1        19 1.90570E+01 5.73798E+00 5.19378E-02 1.39228E+00 2.47996E-14-5.97986E-13
 -1        20 1.95330E+01 5.88683E+00 6.28137E-02 1.99646E+00 3.30742E-14-4.02938E-13
 -1        21 2.02162E+01 6.10396E+00 7.66365E-02 2.83260E+00 3.71647E-14-9.83155E-15
 -1        22 2.17149E+01 6.51027E+00 1.75285E-01 4.20924E+00 4.80171E-15 7.88630E-13
 -1        23 2.35164E+01-1.41559E+00-9.60381E-01-6.15726E-01-9.57116E-14 2.25012E-12
 -1        24 2.04230E+01-1.00312E-01-3.01882E-01 7.76923E-02-2.56982E-14 1.78915E-12
 -1        25 2.02121E+01-5.84397E-02-6.78595E-02 6.83199E-02-1.46523E-14 1.31888E-12
 -1        26 2.05066E+01-2.59061E-02-1.18493E-02 4.24856E-02 1.67726E-15 9.84143E-13
 -1        27 2.10823E+01-1.57047E-02-5.99791E-03 3.60196E-02 8.25262E-15 8.23071E-13
 -1        28 2.18386E+01-8.26314E-03-4.28732E-03 3.44540E-02-1.65356E-14 7.05457E-13
 -1        29 2.26932E+01-6.89599E-04 1.80199E-03 3.44079E-02 6.51252E-15 5.42228E-13
 -1        30 2.35416E+01 8.58330E-03 1.44602E-02 3.23352E-02 1.65883E-15 3.68401E-13
 -1        31 2.42297E+01 1.96946E-02 3.42566E-02 2.35172E-02 9.30018E-15 2.94592E-13
 -1        32 2.45453E+01 3.05864E-02 5.81666E-02 2.24882E-03-3.81539E-14 2.05468E-13
 -1        33 2.42498E+01 3.62745E-02 7.58669E-02-3.52012E-02 4.84883E-14 2.23956E-13
 -1        34 2.31806E+01 2.99261E-02 6.92786E-02-8.36804E-02 9.55616E-16 3.05669E-13
 -1        35 2.14235E+01 7.53252E-03 2.31863E-02-1.22475E-01-1.50602E-14 1.82611E-13
 -1        36 1.94503E+01-2.53239E-02-5.42427E-02-1.20530E-01 3.39648E-14 7.46590E-14
 -1        37 1.80325E+01-5.24673E-02-1.22812E-01-6.09906E-02-3.41892E-14 1.91964E-14
 -1        38 1.78443E+01-5.71055E-02-1.34782E-01 3.28128E-02-1.45322E-14-1.44149E-13
 -1        39 1.90034E+01-3.61768E-02-8.11870E-02 1.08725E-01-4.83118E-14-3.89421E-13
 -1        40 2.09839E+01-3.20399E-03-1.18854E-03 1.29964E-01 1.96468E-14-3.48679E-13
 -1        41 2.29931E+01 2.38234E-02 5.75717E-02 1.01777E-01-2.46125E-14-4.67012E-13
 -1        42 2.44361E+01 3.54512E-02 7.60244E-02 5.41702E-02-2.88658E-15-4.15442E-13
 -1        43 2.51090E+01 3.32171E-02 6.40603E-02 1.28517E-02 2.77404E-15-4.02321E-13
 -1        44 2.51120E+01 2.37978E-02 4.06003E-02-1.23208E-02 1.09726E-14 1.13668E-14
 -1        45 2.46708E+01 1.31855E-02 1.88450E-02-2.28975E-02-4.45529E-14-2.83844E-14
 -1        46 2.40067E+01 4.58829E-03 3.80219E-03-2.42302E-02 1.17178E-14-2.68196E-13
 -1        47 2.32815E+01-1.12460E-03-4.60192E-03-2.11137E-02 1.45504E-14 6.64390E-14
 -1        48 2.25928E+01-4.30193E-03-8.26404E-03-1.65831E-02-3.30681E-14 6.07986E-14
 -1        49 2.19885E+01-5.66589E-03-9.11184E-03-1.21690E-02 2.75761E-14 1.02869E-13
 -1        50 2.14851E+01-5.89760E-03-8.52886E-03-8.47032E-03 2.28639E-14-3.57908E-14
 -1        51 2.10808E+01-5.50492E-03-7.35240E-03-5.61003E-03-3.75133E-14 2.60453E-13
 -1        52 2.07654E+01-4.82158E-03-6.03278E-03-3.50883E-03 5.69145E-14 5.43025E-13
 -1        53 2.05253E+01-4.04807E-03-4.78673E-03-2.02396E-03-2.91689E-14 3.19053E-13
 -1        54 2.03467E+01-3.29496E-03-3.70249E-03-1.01064E-03-1.94783E-14-8.50704E-14
 -1        55 2.02168E+01-2.61663E-03-2.80266E-03-3.44713E-04-2.04234E-14-2.89820E-13
 -1        56 2.01247E+01-2.03435E-03-2.07888E-03 7.23059E-05 3.82942E-15-1.81474E-13
 -1        57 2.00613E+01-1.55101E-03-1.51026E-03 3.15285E-04 8.89795E-14 8.61460E-14
 -1        58 2.00194E+01-1.16004E-03-1.07240E-03 4.39747E-04-2.83358E-14 1.40644E-13
 -1        59 1.99930E+01-8.50576E-04-7.41542E-04 4.86182E-04 2.25310E-14-8.10615E-14
 -1        60 1.99777E+01-6.10356E-04-4.96337E-04 4.83640E-04-1.14960E-14 6.02446E-14
 -1        61 1.99702E+01-4.27313E-04-3.18373E-04 4.52585E-04-6.05747E-14 3.74080E-14
 -1        62 1.99680E+01-2.90348E-04-1.92238E-04 4.07127E-04-3.89624E-14-2.76714E-13
 -1        63 1.99691E+01-1.89658E-04-1.05264E-04 3.56742E-04-5.43718E-15-4.45344E-13
 -1        64 1.99722E+01-1.16785E-04-4.71097E-05 3.07542E-04 9.13986E-15-2.85438E-13
 -1        65 1.99766E+01-6.44994E-05-9.24346E-06 2.63189E-04-5.00936E-14-1.02902E-13
 -1        66 1.99814E+01-2.65994E-05 1.57609E-05 2.25443E-04 1.37217E-13-4.35279E-13
 -1        67 1.99863E+01 2.30780E-06 3.52733E-05 1.94278E-04 5.77948E-14-3.84816E-13
 -1        68 1.99910E+01 2.69423E-05 5.78970E-05 1.67228E-04 5.85291E-14 1.73730E-13
 -1        69 1.99951E+01 5.01720E-05 9.24745E-05 1.36489E-04 3.72087E-15-2.66310E-13
 -1        70 1.99982E+01 6.07342E-05 1.27802E-04 7.42025E-05 3.46136E-14-4.62562E-14
 -1        71 1.99998E+01-1.20724E-05 6.72013E-05-2.61300E-05-1.52367E-13-2.21543E-13
 -1        72 2.15558E+01-4.06903E-01-9.92152E-01-3.42878E-01 4.39718E-14 2.35922E-12
 -1        73 2.03706E+01-6.60318E-02-2.83318E-01-6.21449E-02 2.57689E-14 1.73946E-12
 -1        74 2.01743E+01-2.19765E-02-6.28957E-02-2.48714E-02 1.67135E-14 1.24945E-12
 -1        75 2.04325E+01-1.15767E-02-1.29513E-02-2.04903E-02 6.49752E-15 9.60638E-13
 -1        76 2.09522E+01-5.87854E-03-4.20479E-03-2.04110E-02 1.69472E-15 7.59380E-13
 -1        77 2.16230E+01-9.03662E-04-6.39208E-04-2.28442E-02 9.63980E-15 5.95784E-13
 -1        78 2.23547E+01 4.62792E-03 6.34978E-03-2.66136E-02-1.01187E-14 5.30706E-13
 -1        79 2.30398E+01 1.09637E-02 1.85602E-02-2.97000E-02 2.31454E-14 4.56283E-13
 -1        80 2.35340E+01 1.71702E-02 3.54377E-02-2.86063E-02-1.85502E-14 2.70944E-13
 -1        81 2.36579E+01 2.07930E-02 5.29652E-02-1.82995E-02 4.65507E-14 2.69165E-13
 -1        82 2.32354E+01 1.82801E-02 6.18540E-02 5.85580E-03-9.03899E-15 1.45247E-13
 -1        83 2.21822E+01 7.14808E-03 4.93128E-02 4.30762E-02 1.09979E-14 1.01558E-13
 -1        84 2.06282E+01-1.05725E-02 7.90926E-03 8.12165E-02 6.22802E-15 7.49678E-14
 -1        85 1.89891E+01-2.70440E-02-5.19299E-02 9.76353E-02 1.19351E-14-3.48888E-14
 -1        86 1.78671E+01-3.32066E-02-1.00026E-01 7.42178E-02-2.52430E-14-2.70201E-13
 -1        87 1.77527E+01-2.57682E-02-1.06001E-01 1.61963E-02-2.84315E-14-2.68119E-13
 -1        88 1.87197E+01-9.72226E-03-6.58095E-02-4.69080E-02-2.13477E-14-3.54713E-13
 -1        89 2.03750E+01 6.30500E-03-5.69406E-03-8.38687E-02 7.34964E-14-7.87662E-13
 -1        90 2.21141E+01 1.64177E-02 4.15469E-02-8.52294E-02-8.19167E-14-9.26793E-13
 -1        91 2.34522E+01 1.91108E-02 6.02680E-02-6.28072E-02 3.63235E-14-7.81184E-13
 -1        92 2.41828E+01 1.64438E-02 5.52591E-02-3.39201E-02-2.16422E-14-6.15594E-13
 -1        93 2.43411E+01 1.13411E-02 3.86820E-02-1.00668E-02 1.16386E-14-5.76300E-13
 -1        94 2.40846E+01 6.13094E-03 2.09455E-02 5.05431E-03-1.06545E-14-9.10066E-13
 -1        95 2.35904E+01 2.00237E-03 7.28042E-03 1.24520E-02 3.65762E-14-1.02195E-12
 -1        96 2.30014E+01-7.53989E-04-1.29605E-03 1.46479E-02-6.14983E-14-7.61610E-13
 -1        97 2.24124E+01-2.31173E-03-5.72094E-03 1.39545E-02-1.65177E-14-5.65856E-13
 -1        98 2.18768E+01-2.99671E-03-7.38306E-03 1.19667E-02-9.52363E-15-6.01742E-13
 -1        99 2.14183E+01-3.12086E-03-7.45453E-03 9.61745E-03 1.88512E-14-9.32585E-13
 -1       100 2.10423E+01-2.92452E-03-6.73542E-03 7.38106E-03-3.03173E-14-9.60700E-13
 -1       101 2.07441E+01-2.57180E-03-5.70763E-03 5.45763E-03-5.52843E-15-9.42910E-13
 -1       102 2.05142E+01-2.16549E-03-4.63468E-03 3.89981E-03 4.71727E-14-1.15844E-12
 -1       103 2.03412E+01-1.76487E-03-3.64589E-03 2.68897E-03-3.86753E-14-6.03159E-13
 -1       104 2.02145E+01-1.40071E-03-2.79398E-03 1.77746E-03-3.66638E-14 1.00720E-13
 -1       105 2.01240E+01-1.08623E-03-2.09081E-03 1.11045E-03 4.53376E-14-1.50759E-13
 -1       106 2.00614E+01-8.24362E-04-1.52821E-03 6.36006E-04-3.72210E-14-4.42297E-13
 -1       107 2.00197E+01-6.12442E-04-1.08939E-03 3.09011E-04 6.25610E-14-1.04000E-12
 -1       108 1.99934E+01-4.45020E-04-7.54869E-04 9.20598E-05 6.43463E-15-1.19386E-12
 -1       109 1.99782E+01-3.15587E-04-5.05464E-04-4.48396E-05 1.11594E-13-1.26462E-12
 -1       110 1.99706E+01-2.17547E-04-3.23762E-04-1.25111E-04-6.21439E-14-1.42761E-12
 -1       111 1.99683E+01-1.44732E-04-1.94707E-04-1.66679E-04 2.35005E-14-8.51658E-13
 -1       112 1.99694E+01-9.16212E-05-1.05658E-04-1.83045E-04-1.14852E-13-8.59111E-13
 -1       113 1.99725E+01-5.33917E-05-4.61566E-05-1.84239E-04 1.16646E-14-6.09827E-13
 -1       114 1.99768E+01-2.58482E-05-7.49736E-06-1.77636E-04 1.41468E-14-3.60377E-13
 -1       115 1.99816E+01-5.29928E-06 1.80082E-05-1.68542E-04 2.65384E-14-7.87469E-13
 -1       116 1.99865E+01 1.14438E-05 3.81388E-05-1.60388E-04-1.29209E-14-4.58270E-13
 -1       117 1.99911E+01 2.72405E-05 6.20661E-05-1.54487E-04 2.38027E-14-5.95707E-13
 -1       118 1.99952E+01 4.31245E-05 9.84435E-05-1.48194E-04 1.11142E-14-6.89112E-13
 -1       119 1.99983E+01 5.32399E-05 1.37296E-04-1.21205E-04-1.60596E-13-4.12187E-13
 -1       120 1.99998E+01-4.33539E-05 4.77910E-05-1.11976E-05 1.70467E-13-5.43512E-13
 -1       121 1.99998E+01-8.55699E-05 4.55390E-05 1.93681E-05-6.95461E-13-4.28266E-14
 -1       122 1.99999E+01-1.60175E-03 1.11700E-04-8.89810E-05-4.20472E-13-2.92205E-14
 -1       123 1.99998E+01-4.44380E-03 4.79611E-05-1.31543E-04 6.55387E-13 1.57845E-13
 -1       124 1.99998E+01-7.75301E-03-1.06898E-05-1.31141E-04-1.35407E-13 2.95294E-14
 -1       125 1.99998E+01-1.09378E-02-4.85337E-05-1.10357E-04-1.23836E-12-4.31080E-13
 -1       126 1.99998E+01-1.35671E-02-7.11421E-05-8.27710E-05-2.95964E-12-4.40058E-14
 -1       127 1.99997E+01-1.54706E-02-8.26576E-05-5.03386E-05-2.34225E-12 2.82501E-13
 -1       128 1.99997E+01-1.64532E-02-8.77086E-05-1.67496E-05-1.58023E-12 6.99955E-14
 -1       129 1.99997E+01-1.64483E-02-8.77384E-05 1.70712E-05-1.21747E-12 1.29646E-14
 -1       130 1.99997E+01-1.54557E-02-8.27573E-05 5.06085E-05-9.66926E-13-8.77993E-14
 -1       131 1.99998E+01-1.35425E-02-7.06288E-05 8.40545E-05-1.61148E-12-1.70197E-14
 -1       132 1.99998E+01-1.09047E-02-4.89288E-05 1.11046E-04-1.62036E-12 2.64830E-13
 -1       133 1.99998E+01-7.70986E-03-1.05150E-05 1.31482E-04-8.46738E-13-9.19296E-14
 -1       134 1.99998E+01-4.38934E-03 5.36664E-05 1.40433E-04-1.87938E-13 9.17846E-14
 -1       135 1.99998E+01-1.61430E-03 9.64246E-05 1.23923E-04 8.44907E-14-1.32482E-13
 -1       136 1.99999E+01-1.32392E-04 3.94309E-05-7.01543E-05-6.67578E-14 1.55475E-14
 -1       137-1.44422E+00-1.93117E+01-3.05207E+00-3.82082E+00 1.11289E-12 3.16989E-13
 -1       138-1.47540E+00-7.55048E+00-2.20762E+00-2.79757E+00 2.61563E-12 1.35167E-12
 -1       139 3.81613E+00 4.41989E+00-9.36412E-01 4.33339E+00 3.11862E-12 2.36161E-12
 -1       140 1.74748E+01 1.07168E+01 5.31906E-01 1.35572E+01 2.66381E-12 3.17962E-12
 -1       141 3.65994E+01 9.60423E+00 1.92700E+00 1.81520E+01 1.54157E-12 2.74175E-12
 -1       142 5.55235E+01 4.67380E+00 3.01237E+00 1.47139E+01 5.10744E-13 1.56120E-12
 -1       143 6.57089E+01 1.03514E+00 3.54684E+00 3.89648E+00 4.80171E-14 4.54220E-13
 -1       144 6.26985E+01 2.20827E+00 3.41067E+00-9.45049E+00 2.47024E-13-1.25441E-12
 -1       145 4.76987E+01 7.19245E+00 2.60927E+00-1.76039E+01 9.67615E-13-2.45670E-12
 -1       146 2.76076E+01 1.08300E+01 1.33026E+00-1.68813E+01 1.88449E-12-2.77917E-12
 -1       147 1.11149E+01 8.80170E+00-6.10222E-02-9.83828E+00 2.72682E-12-2.65138E-12
 -1       148 8.44022E-01-4.85684E-01-1.51902E+00-9.06920E-01 3.08104E-12-1.96376E-12
 -1       149-1.84074E+00-1.37183E+01-2.67652E+00 3.97384E+00 2.31359E-12-8.84667E-13
 -1       150-9.88240E-01-2.33785E+01-3.31626E+00 2.51216E+00 7.54119E-13-1.70688E-13
 -1       151-8.49750E-01-2.40183E+01-3.35018E+00-1.99869E+00-7.63473E-13-9.87977E-14
 -1       152-1.77176E+00-1.61661E+01-2.86743E+00-4.30693E+00-2.19708E-12-7.16260E-13
 -1       153-6.12176E-01-3.54284E+00-1.87218E+00-1.14550E+00-3.03180E-12-1.71524E-12
 -1       154 6.87733E+00 6.94665E+00-5.32354E-01 7.02796E+00-3.17862E-12-2.81147E-12
 -1       155 4.24033E+01 8.60747E+00 2.30821E+00 1.84184E+01-1.54410E-12-3.29192E-12
 -1       156 5.91446E+01 3.61633E+00 3.24514E+00 1.30574E+01-5.56416E-13-2.06768E-12
 -1       157 6.66258E+01 9.29226E-01 3.64236E+00 1.50330E+00-1.13978E-13-4.34371E-13
 -1       158 6.12454E+01 2.80086E+00 3.35594E+00-1.09360E+01-2.83830E-13 1.34792E-12
 -1       159 4.60772E+01 7.48428E+00 2.49364E+00-1.77728E+01-1.12549E-12 2.44216E-12
 -1       160 2.74527E+01 1.08454E+01 1.29624E+00-1.69372E+01-1.99074E-12 3.23025E-12
 -1       161 1.12618E+01 9.02675E+00-8.25789E-02-1.01026E+01-2.75924E-12 2.69629E-12
 -1       162 1.20248E+00 6.53462E-01-1.43216E+00-1.41347E+00-2.97334E-12 2.07023E-12
 -1       163-1.77666E+00-1.08303E+01-2.47214E+00 3.71905E+00-2.44577E-12 1.03817E-12
 -1       164-1.27900E+00-2.07022E+01-3.12896E+00 3.70771E+00-2.09469E-12 3.53023E-13
 -1       165 2.17207E+01 3.65407E+00-5.12862E-02-3.12390E+00-3.72050E-13 3.02026E-13
 -1       166 2.05435E+01 4.23614E+00-4.20259E-02-2.24857E+00-3.60480E-13-1.47854E-13
 -1       167 1.97858E+01 4.55692E+00-2.97929E-02-1.60567E+00-3.11591E-13-4.05571E-13
 -1       168 1.92318E+01 4.73123E+00-2.19632E-02-1.11582E+00-2.51621E-13-5.52012E-13
 -1       169 1.88044E+01 4.84128E+00-1.70565E-02-7.45595E-01-1.89098E-13-6.05482E-13
 -1       170 1.84859E+01 4.91076E+00-1.43130E-02-4.53275E-01-1.23359E-13-6.47330E-13
 -1       171 1.82928E+01 4.94840E+00-1.28664E-02-2.16822E-01-5.74050E-14-6.62434E-13
 -1       172 1.82335E+01 4.95769E+00-1.24490E-02-6.81617E-03 1.90841E-15-6.75245E-13
 -1       173 1.83100E+01 4.94006E+00-1.29737E-02 2.06551E-01 5.46335E-14-6.70294E-13
 -1       174 1.85162E+01 4.89527E+00-1.45025E-02 4.52352E-01 1.05467E-13-6.59861E-13
 -1       175 1.88335E+01 4.82183E+00-1.73326E-02 7.52314E-01 1.69587E-13-6.11095E-13
 -1       176 1.92641E+01 4.70771E+00-2.22326E-02 1.14308E+00 2.47156E-13-5.30990E-13
 -1       177 1.98137E+01 4.52748E+00-3.10316E-02 1.64969E+00 3.25730E-13-4.01497E-13
 -1       178 2.05610E+01 4.20673E+00-4.37712E-02 2.30389E+00 3.71067E-13-1.48149E-13
 -1       179 2.18161E+01 3.43197E+00-5.43668E-02 3.08041E+00 3.76598E-13 3.37778E-13
 -1       180 2.30826E+01 1.09154E+00-3.29684E-01 2.68001E+00 2.99906E-13 9.83019E-13
 -1       181 2.27888E+01 8.26424E-01 1.79917E-03-1.59138E+00-3.15463E-13 7.92675E-13
 -1       182 2.15754E+01 1.88884E-01-8.03264E-03-3.96015E-01-2.73980E-13 6.24253E-13
 -1       183 2.11615E+01 1.17717E-01 1.46279E-02 1.06721E-01-2.05758E-13 4.92785E-13
 -1       184 2.12276E+01 7.05830E-02 1.04093E-02 3.75497E-01-1.29146E-13 3.49614E-13
 -1       185 2.15533E+01 4.41970E-02 4.98060E-03 5.39154E-01-7.65056E-14 2.58651E-13
 -1       186 2.20345E+01 1.75782E-02 1.30905E-03 6.28111E-01-1.06337E-13 2.40754E-13
 -1       187 2.25852E+01-1.96477E-02-1.29246E-03 6.32749E-01-8.60958E-14 2.02315E-13
 -1       188 2.31133E+01-7.36604E-02-3.26156E-03 5.22329E-01-4.44339E-14 2.07039E-13
 -1       189 2.35086E+01-1.43092E-01-4.34674E-03 2.59964E-01-4.20540E-14 1.90362E-13
 -1       190 2.36457E+01-2.10456E-01-3.95974E-03-1.69086E-01 1.73728E-14 2.58862E-13
 -1       191 2.34131E+01-2.34062E-01-1.90083E-03-7.10028E-01 6.90507E-15 9.12729E-14
 -1       192 2.27766E+01-1.58734E-01 5.80308E-04-1.19217E+00-3.01881E-14 8.18356E-14
 -1       193 2.18632E+01 3.67113E-02 1.40548E-03-1.34978E+00-6.64223E-14 1.07362E-13
 -1       194 2.09960E+01 2.80587E-01 4.08979E-04-9.72836E-01-1.44889E-13 7.80626E-16
 -1       195 2.05810E+01 4.18924E-01-7.92418E-04-1.25221E-01-9.74377E-14-7.17516E-14
 -1       196 2.08514E+01 3.47261E-01-1.56510E-05 8.04775E-01-1.51540E-13-1.61671E-13
 -1       197 2.16860E+01 1.21069E-01 1.29710E-03 1.36693E+00-3.58682E-14-2.95165E-13
 -1       198 2.27063E+01-1.03399E-01 1.09144E-03 1.37830E+00-4.73560E-14-4.25921E-13
 -1       199 2.35406E+01-2.19244E-01-1.03328E-03 9.79337E-01-1.32056E-14-4.03773E-13
 -1       200 2.39950E+01-2.22590E-01-3.45058E-03 4.39913E-01 6.84244E-14-4.38334E-13
 -1       201 2.40573E+01-1.64645E-01-4.54981E-03-3.17239E-02 1.81571E-13-3.13671E-13
 -1       202 2.38173E+01-9.43566E-02-4.15149E-03-3.48141E-01 2.77350E-14-2.18109E-13
 -1       203 2.33923E+01-3.73265E-02-2.87761E-03-5.10186E-01-4.88130E-15 1.78694E-14
 -1       204 2.28854E+01-5.89002E-05-1.41999E-03-5.56902E-01 1.20829E-13 6.32437E-14
 -1       205 2.23700E+01 2.02392E-02-2.14254E-04-5.32221E-01 4.08852E-14 4.66877E-14
 -1       206 2.18913E+01 2.88396E-02 5.92511E-04-4.70916E-01 5.36828E-14 1.72918E-13
 -1       207 2.14718E+01 3.04359E-02 1.02923E-03-3.96068E-01-3.65099E-14 2.01566E-13
 -1       208 2.11192E+01 2.83449E-02 1.19197E-03-3.21159E-01 1.37871E-13 8.13887E-14
 -1       209 2.08321E+01 2.46342E-02 1.18096E-03-2.53079E-01 1.82914E-13 1.56176E-13
 -1       210 2.06044E+01 2.04809E-02 1.07490E-03-1.94660E-01-1.05801E-13 2.02586E-13
 -1       211 2.04278E+01 1.64974E-02 9.27095E-04-1.46433E-01-3.33684E-13 1.79216E-13
 -1       212 2.02937E+01 1.29629E-02 7.69983E-04-1.07750E-01-1.03682E-13 1.04865E-13
 -1       213 2.01941E+01 9.97111E-03 6.21387E-04-7.74378E-02 8.57874E-14-1.65416E-14
 -1       214 2.01216E+01 7.51926E-03 4.89802E-04-5.41686E-02 1.63412E-13 9.49516E-14
 -1       215 2.00702E+01 5.55920E-03 3.78169E-04-3.66510E-02-2.03928E-14 6.78214E-14
 -1       216 2.00348E+01 4.02497E-03 2.86349E-04-2.37206E-02-1.27630E-13 1.56048E-15
 -1       217 2.00114E+01 2.84708E-03 2.12647E-04-1.43745E-02-3.80944E-14-2.06928E-13
 -1       218 1.99968E+01 1.95973E-03 1.54703E-04-7.77568E-03-4.57389E-14-1.82073E-13
 -1       219 1.99884E+01 1.30412E-03 1.09979E-04-3.24372E-03-2.51034E-14-2.04505E-13
 -1       220 1.99844E+01 8.29545E-04 7.60232E-05-2.37188E-04-5.24488E-14-1.12804E-13
 -1       221 1.99833E+01 4.93176E-04 5.05898E-05 1.66527E-03-7.32509E-15-1.57999E-13
 -1       222 1.99842E+01 2.59126E-04 3.16886E-05 2.78308E-03 2.88516E-13-1.87596E-13
 -1       223 1.99862E+01 9.71208E-05 1.76038E-05 3.34968E-03-8.72429E-14 2.84209E-13
 -1       224 1.99888E+01-1.92519E-05 6.97147E-06 3.52483E-03-3.82498E-14 2.39798E-13
 -1       225 1.99916E+01-1.14553E-04-9.71156E-07 3.40315E-03 1.59332E-13 1.15554E-13
 -1       226 1.99943E+01-2.14327E-04-5.77100E-06 3.01863E-03-1.88708E-13-3.00067E-13
 -1       227 1.99967E+01-3.47241E-04-7.76358E-06 2.34984E-03 9.32925E-14-3.79650E-13
 -1       228 1.99985E+01-5.19892E-04-4.27944E-06 1.36674E-03 4.00147E-14-2.54269E-13
 -1       229 2.18930E+01 2.65992E-01-4.73368E-02 8.61382E-01 3.00784E-13 8.25458E-13
 -1       230 2.11344E+01 1.29586E-01 9.61741E-03 1.45363E-01 2.28693E-13 6.12604E-13
 -1       231 2.09958E+01 6.82443E-02 1.26682E-02-1.69497E-01 1.30837E-13 4.63619E-13
 -1       232 2.11896E+01 3.94213E-02 6.99028E-03-3.41514E-01 1.01470E-13 3.55732E-13
 -1       233 2.15739E+01 1.93996E-02 2.82786E-03-4.35885E-01 7.89378E-14 2.83004E-13
 -1       234 2.20497E+01-2.63727E-03 6.78299E-04-4.63231E-01-7.45904E-16 2.33309E-13
 -1       235 2.25253E+01-3.19154E-02-1.02863E-04-4.11491E-01 6.95863E-14 1.67834E-13
 -1       236 2.28988E+01-6.95922E-02 2.52128E-04-2.59504E-01 4.56176E-14 1.94242E-13
 -1       237 2.30568E+01-1.09914E-01 1.64464E-03 6.84649E-03 5.53641E-14 7.01475E-14
 -1       238 2.28941E+01-1.36267E-01 3.40148E-03 3.69170E-01 3.41545E-14 1.47671E-13
 -1       239 2.23591E+01-1.22025E-01 3.92445E-03 7.46691E-01 3.22182E-14 1.10541E-13
 -1       240 2.15171E+01-4.51731E-02 1.54062E-03 9.88193E-01 3.80909E-14 1.14134E-13
 -1       241 2.05928E+01 8.34700E-02-3.68162E-03 9.25248E-01 1.08163E-13-1.28430E-14
 -1       242 1.99277E+01 2.03810E-01-8.46402E-03 4.94556E-01 7.91355E-14-8.51632E-14
 -1       243 1.98190E+01 2.41277E-01-8.50012E-03-1.65101E-01 6.90498E-14-1.70607E-13
 -1       244 2.03353E+01 1.70491E-01-3.25983E-03-7.65845E-01 1.02297E-13-3.58015E-13
 -1       245 2.12684E+01 3.99790E-02 2.95309E-03-1.05974E+00 2.13916E-13-4.32303E-13
 -1       246 2.22711E+01-7.29932E-02 5.77710E-03-9.92705E-01 5.50352E-14-4.30507E-13
 -1       247 2.30530E+01-1.27151E-01 4.52368E-03-6.85209E-01-6.18394E-14-4.79227E-13
 -1       248 2.34776E+01-1.25864E-01 1.72897E-03-3.07355E-01-9.75249E-14-4.47090E-13
 -1       249 2.35491E+01-9.45051E-02-6.93423E-04 1.74431E-02-6.24197E-15-4.60470E-13
 -1       250 2.33505E+01-5.64969E-02-1.89667E-03 2.38025E-01 9.86581E-14-4.23016E-13
 -1       251 2.29850E+01-2.46715E-02-1.98235E-03 3.55317E-01 5.98971E-14-6.31358E-13
 -1       252 2.25429E+01-2.87380E-03-1.47592E-03 3.93662E-01-1.85947E-13-5.64780E-13
 -1       253 2.20897E+01 9.80658E-03-8.17506E-04 3.81236E-01-6.02688E-14-3.49728E-13
 -1       254 2.16661E+01 1.58221E-02-2.48021E-04 3.41219E-01 9.40459E-15-2.27947E-13
 -1       255 2.12932E+01 1.75791E-02 1.50565E-04 2.89711E-01 1.47070E-13-1.72768E-13
 -1       256 2.09791E+01 1.69098E-02 3.83688E-04 2.36632E-01-7.55499E-14-2.90505E-13
 -1       257 2.07230E+01 1.50401E-02 4.89896E-04 1.87412E-01 3.97504E-14-3.32727E-13
 -1       258 2.05201E+01 1.27218E-02 5.11409E-04 1.44552E-01 2.32319E-14-2.61695E-13
 -1       259 2.03632E+01 1.03802E-02 4.82720E-04 1.08793E-01-3.63094E-13-1.96166E-14
 -1       260 2.02446E+01 8.23309E-03 4.28387E-04 7.98984E-02-9.06338E-14-3.34433E-14
 -1       261 2.01571E+01 6.37385E-03 3.64349E-04 5.71545E-02 1.70928E-13-5.63353E-14
 -1       262 2.00941E+01 4.82546E-03 3.00125E-04 3.96609E-02 1.91958E-13-3.06570E-13
 -1       263 2.00501E+01 3.57381E-03 2.40872E-04 2.64964E-02 2.65511E-13-6.61009E-13
 -1       264 2.00204E+01 2.58692E-03 1.88980E-04 1.68045E-02 3.24925E-14-6.54889E-13
 -1       265 2.00013E+01 1.82596E-03 1.45177E-04 9.83303E-03 8.37442E-14-8.01309E-13
 -1       266 1.99899E+01 1.25160E-03 1.09227E-04 4.94709E-03-4.67675E-14-6.90478E-13
 -1       267 1.99840E+01 8.27263E-04 8.03732E-05 1.62685E-03-3.29632E-13-4.32880E-13
 -1       268 1.99817E+01 5.20609E-04 5.76161E-05-5.42406E-04-9.73570E-14 9.86185E-14
 -1       269 1.99820E+01 3.03782E-04 3.98824E-05-1.88301E-03 5.33018E-14 7.28379E-14
 -1       270 1.99837E+01 1.53054E-04 2.61315E-05-2.63784E-03 2.73955E-14-1.59375E-13
 -1       271 1.99864E+01 4.78941E-05 1.54666E-05-2.98153E-03 2.81688E-13-3.77993E-13
 -1       272 1.99894E+01-3.03629E-05 7.55646E-06-3.02885E-03-5.14928E-14-5.88326E-13
 -1       273 1.99925E+01-9.91530E-05 3.19814E-06-2.83976E-03 1.19720E-13-4.53236E-13
 -1       274 1.99953E+01-1.76788E-04 4.11264E-06-2.42359E-03-1.02837E-13-4.08150E-13
 -1       275 1.99975E+01-2.92670E-04 5.00636E-06-1.73942E-03-1.68891E-13-3.62748E-13
 -1       276 1.99991E+01-3.92922E-04-8.12979E-07-7.78293E-04 1.63478E-13-3.35131E-13
 -1       277 1.99993E+01-1.35955E-03-5.85552E-06-1.37280E-03-1.04435E-14 7.29049E-14
 -1       278 1.99995E+01-3.06317E-03-3.07060E-06-2.17016E-03 9.15708E-14 5.96151E-13
 -1       279 1.99998E+01-5.11910E-03-1.62512E-06-2.49588E-03 1.02215E-14-2.99068E-13
 -1       280 1.99999E+01-7.23779E-03 1.73662E-06-2.40742E-03-3.58519E-13-5.64044E-13
 -1       281 2.00000E+01-9.12162E-03 5.91645E-06-2.02855E-03-5.41271E-13-1.12636E-12
 -1       282 2.00001E+01-1.06308E-02 9.34447E-06-1.44714E-03-4.81578E-13 1.93603E-13
 -1       283 2.00001E+01-1.15866E-02 1.14820E-05-7.48457E-04-7.08273E-13 4.48179E-13
 -1       284 2.00001E+01-1.19117E-02 1.21864E-05 3.66500E-06-5.26490E-13 2.71515E-13
 -1       285 2.00001E+01-1.15805E-02 1.14817E-05 7.55884E-04-5.27051E-13 6.31045E-14
 -1       286 2.00001E+01-1.06183E-02 9.30096E-06 1.45498E-03-5.64673E-13-2.38086E-13
 -1       287 2.00000E+01-9.13392E-03 5.74737E-06 2.02844E-03-4.80970E-13-1.27186E-13
 -1       288 1.99999E+01-7.21399E-03 1.69423E-06 2.41375E-03-4.85078E-13 4.74094E-13
 -1       289 1.99998E+01-5.09301E-03-2.28104E-06 2.49901E-03-2.21181E-13 4.63815E-13
 -1       290 1.99995E+01-3.03761E-03-7.07051E-06 2.13721E-03 1.30757E-13 2.02111E-13
 -1       291 1.99991E+01-1.65913E-03-1.03268E-05 2.02375E-03 1.83239E-13-3.56063E-13
 -1       292-6.63027E-01-9.83473E+00-8.25832E-01 1.43086E+00-1.79939E-13 1.04494E-12
 -1       293 2.84215E+00-8.44771E+00-8.12641E-01 3.39378E+00 4.28990E-13 1.00137E-12
 -1       294 9.71870E+00-4.61587E+00-4.90305E-01 5.60041E+00 9.42968E-13 1.19513E-12
 -1       295 2.01620E+01-1.24508E+00-5.79711E-02 7.04965E+00 9.93844E-13 1.01155E-12
 -1       296 2.99318E+01 2.76801E+00 3.59149E-01 7.51527E+00 1.24348E-12 9.49796E-13
 -1       297 3.85877E+01 4.91204E+00 6.22595E-01 5.11220E+00 9.68808E-13 6.18255E-13
 -1       298 4.54643E+01 6.31658E+00 9.90943E-01 2.99432E+00 6.98663E-13 4.03400E-13
 -1       299 4.62246E+01 6.83484E+00 9.93261E-01-8.86108E-01 8.00859E-13-1.66617E-13
 -1       300 4.32701E+01 5.96723E+00 9.16054E-01-4.67791E+00 8.49820E-13-6.48592E-13
 -1       301 3.50344E+01 3.75769E+00 4.69980E-01-6.02924E+00 9.06854E-13-8.36886E-13
 -1       302 2.64083E+01-9.85976E-02 1.09745E-01-6.51868E+00 9.67948E-13-7.66109E-13
 -1       303 1.61609E+01-2.89985E+00-1.93343E-01-6.83481E+00 1.01760E-12-9.35974E-13
 -1       304 7.40342E+00-6.38044E+00-4.77095E-01-5.47876E+00 6.76986E-13-9.99238E-13
 -1       305 9.52725E-01-9.15011E+00-7.60057E-01-2.83736E+00 3.75588E-13-9.14310E-13
 -1       306-1.29780E+00-1.12433E+01-1.00468E+00-1.49003E-01 7.33094E-15-7.37715E-13
 -1       307 2.28593E-01-9.94605E+00-8.79496E-01 2.12169E+00-4.57856E-13-8.84529E-13
 -1       308 4.76792E+00-7.47527E+00-7.45478E-01 4.08007E+00-1.05688E-12-1.06118E-12
 -1       309 1.25472E+01-3.47527E+00-3.75149E-01 6.22661E+00-1.27537E-12-1.32969E-12
 -1       310 2.32519E+01-3.54344E-01 4.61480E-02 7.13489E+00-1.18702E-12-1.30987E-12
 -1       311 3.30130E+01 3.50356E+00 4.90857E-01 7.30934E+00-1.20057E-12-1.29285E-12
 -1       312 4.14816E+01 5.52229E+00 8.51928E-01 5.46902E+00-1.01533E-12-8.95506E-13
 -1       313 4.63371E+01 6.51131E+00 1.03205E+00 2.40007E+00-9.31977E-13-4.48294E-13
 -1       314 4.52389E+01 6.98301E+00 8.93570E-01-1.10765E+00-9.13047E-13 5.34087E-14
 -1       315 4.26254E+01 5.68845E+00 8.80699E-01-4.80397E+00-8.44387E-13 6.73267E-13
 -1       316 3.50734E+01 3.98191E+00 5.72939E-01-6.90920E+00-1.09664E-12 9.54403E-13
 -1       317 2.56326E+01 1.35648E+00 1.75389E-01-7.50510E+00-1.11569E-12 1.30501E-12
 -1       318 1.66682E+01-2.77531E+00-2.06232E-01-6.69966E+00-1.02354E-12 1.07570E-12
 -1       319 7.58796E+00-5.89262E+00-5.78460E-01-5.00118E+00-9.92623E-13 1.08518E-12
 -1       320 1.85952E+00-9.04210E+00-8.55707E-01-2.92394E+00-8.37858E-13 5.65395E-13
 -1       321-9.42115E-01-1.09121E+01-9.79101E-01-8.98492E-01-6.12378E-13 5.08746E-13
 -1       322 2.05928E+01 3.09658E+00-1.79255E-02-1.46219E+00-3.81027E-13-1.74499E-13
 -1       323 2.14893E+01 2.20651E+00-1.62838E-02-1.77946E+00-3.97071E-13 9.86676E-14
 -1       324 1.93113E+01 3.96797E+00-1.36648E-02-7.43746E-01-2.61462E-13-4.28985E-13
 -1       325 1.88673E+01 4.20623E+00-1.06615E-02-4.74333E-01-1.86415E-13-4.86641E-13
 -1       326 1.85641E+01 4.35443E+00-8.92193E-03-2.64932E-01-1.11634E-13-4.91506E-13
 -1       327 1.84159E+01 4.42162E+00-8.14131E-03-9.23669E-02-2.38609E-14-5.18784E-13
 -1       328 1.84296E+01 4.41170E+00-8.21196E-03 7.06988E-02 4.00395E-14-5.30481E-13
 -1       329 1.86021E+01 4.32626E+00-9.11878E-03 2.52185E-01 9.51497E-14-5.24473E-13
 -1       330 1.89142E+01 4.16771E+00-1.09295E-02 4.72809E-01 1.67537E-13-4.90954E-13
 -1       331 1.93610E+01 3.92182E+00-1.38295E-02 7.57758E-01 2.49320E-13-4.13317E-13
 -1       332 1.99303E+01 3.56137E+00-1.80018E-02 1.10923E+00 3.39657E-13-3.16274E-13
 -1       333 2.06409E+01 3.01632E+00-2.20036E-02 1.50245E+00 4.01078E-13-1.76457E-13
 -1       334 2.14712E+01 2.12149E+00-2.90489E-02 1.77012E+00 4.20570E-13 1.36544E-13
 -1       335 2.19376E+01 1.16489E+00-2.22401E-02 1.46317E+00 3.94879E-13 4.03317E-13
 -1       336 2.14605E+01 5.01782E-01 9.27830E-03 4.46100E-01 3.09076E-13 3.02315E-13
 -1       337 2.14762E+01 7.27159E-01 1.34324E-02-3.97564E-01-2.95627E-13 1.42399E-13
 -1       338 2.13064E+01 4.20775E-01 7.86318E-03 2.53003E-01-2.47215E-13 1.01147E-13
 -1       339 2.13504E+01 2.66550E-01 4.64272E-03 6.59883E-01-1.64110E-13 5.25066E-14
 -1       340 2.15589E+01 1.51244E-01 1.83988E-03 9.16435E-01-1.14369E-13-2.05565E-14
 -1       341 2.18895E+01 2.31954E-02-3.64668E-04 1.04064E+00-9.69767E-14 6.47507E-15
 -1       342 2.23028E+01-1.49425E-01-2.53762E-03 1.00985E+00-2.99157E-14 5.03538E-14
 -1       343 2.27578E+01-3.78660E-01-4.74964E-03 7.77091E-01-8.31811E-15 7.41895E-14
 -1       344 2.31987E+01-6.37141E-01-6.53713E-03 2.96090E-01 6.13919E-15 1.16758E-13
 -1       345 2.35389E+01-8.27159E-01-6.90937E-03-4.29783E-01-2.09735E-14 1.38078E-13
 -1       346 2.36546E+01-7.68750E-01-4.93958E-03-1.26730E+00-4.82810E-14 1.37363E-13
 -1       347 2.34381E+01-2.92379E-01-2.80983E-03-1.88539E+00-7.06323E-14 6.27773E-14
 -1       348 2.29365E+01 5.47302E-01-3.47075E-03-1.83773E+00-1.78619E-13 6.15686E-14
 -1       349 2.24568E+01 1.31853E+00-3.69056E-03-8.99668E-01-1.91847E-13-9.94604E-15
 -1       350 2.23928E+01 1.45495E+00-3.67719E-03 5.63253E-01-2.43985E-13-2.69500E-13
 -1       351 2.28209E+01 8.46632E-01-3.32497E-03 1.75240E+00-2.59333E-13-2.92106E-13
 -1       352 2.34109E+01-3.24369E-02-3.00798E-03 2.10098E+00-1.18007E-13-3.82745E-13
 -1       353 2.37909E+01-6.52034E-01-4.22806E-03 1.66328E+00-1.33897E-14-3.98986E-13
 -1       354 2.38278E+01-8.35368E-01-6.20371E-03 8.60126E-01 5.79107E-14-3.92628E-13
 -1       355 2.35948E+01-7.08362E-01-6.59249E-03 7.83248E-02 1.45133E-13-2.74299E-13
 -1       356 2.32152E+01-4.64141E-01-5.38500E-03-4.91167E-01 2.04608E-13-1.93771E-13
 -1       357 2.27821E+01-2.31258E-01-3.47835E-03-8.17001E-01 1.98885E-13-1.12726E-13
 -1       358 2.23489E+01-6.07208E-02-1.63694E-03-9.45122E-01 8.98543E-14-3.73298E-14
 -1       359 2.19428E+01 4.37434E-02-2.61523E-04-9.40507E-01 2.03305E-13 2.25215E-14
 -1       360 2.15769E+01 9.69491E-02 5.89191E-04-8.59905E-01 1.40912E-13-5.26296E-14
 -1       361 2.12570E+01 1.16338E-01 1.01691E-03-7.44158E-01 7.47870E-14 3.60195E-14
 -1       362 2.09842E+01 1.15954E-01 1.15698E-03-6.19255E-01 4.03659E-15 1.33762E-13
 -1       363 2.07568E+01 1.05402E-01 1.12673E-03-5.00026E-01 8.88500E-14 3.38980E-15
 -1       364 2.05713E+01 9.06296E-02 1.00958E-03-3.93838E-01-8.70560E-15-1.96707E-13
 -1       365 2.04228E+01 7.50320E-02 8.58404E-04-3.03450E-01-7.19849E-14-4.72773E-14
 -1       366 2.03061E+01 6.03833E-02 7.03556E-04-2.28984E-01-2.05069E-13 1.72954E-13
 -1       367 2.02162E+01 4.74849E-02 5.60704E-04-1.69184E-01-1.18799E-13 1.69767E-13
 -1       368 2.01481E+01 3.65882E-02 4.36622E-04-1.22192E-01 2.30184E-14 9.90984E-14
 -1       369 2.00977E+01 2.76531E-02 3.33033E-04-8.59815E-02 1.51442E-14-9.86126E-14
 -1       370 2.00610E+01 2.04986E-02 2.49025E-04-5.86012E-02-7.61707E-14-1.38029E-13
 -1       371 2.00351E+01 1.48866E-02 1.82463E-04-3.82901E-02-1.89681E-13-1.03274E-13
 -1       372 2.00174E+01 1.05678E-02 1.30794E-04-2.35260E-02 2.58051E-14-1.75353E-13
 -1       373 2.00057E+01 7.30527E-03 9.14416E-05-1.30340E-02 2.43875E-13-2.01665E-13
 -1       374 1.99985E+01 4.88658E-03 6.20107E-05-5.77278E-03 6.43314E-14 9.53437E-14
 -1       375 1.99945E+01 3.12718E-03 4.03777E-05-9.11477E-04-1.57355E-13 4.20268E-14
 -1       376 1.99926E+01 1.86977E-03 2.46983E-05 2.19759E-03 1.61863E-13-4.74138E-14
 -1       377 1.99923E+01 9.81246E-04 1.33981E-05 4.04490E-03 2.18775E-13-2.53647E-16
 -1       378 1.99929E+01 3.48092E-04 5.14458E-06 4.98731E-03 2.20150E-14 1.71733E-13
 -1       379 1.99940E+01-1.29176E-04-1.19239E-06 5.26760E-03 2.45679E-14 1.58075E-13
 -1       380 1.99954E+01-5.39587E-04-6.01016E-06 5.03064E-03-5.11470E-13 1.70564E-13
 -1       381 1.99968E+01-9.67152E-04-1.18240E-05 4.34864E-03-3.13177E-13-4.19932E-14
 -1       382 1.99980E+01-1.32317E-03-1.47214E-05 3.33205E-03 9.35454E-15-1.64476E-13
 -1       383 2.12358E+01 2.61812E-01 1.10438E-02-1.26585E-01 2.12355E-13 2.31488E-13
 -1       384 2.12654E+01 1.52350E-01 6.22007E-03-4.59278E-01 1.45033E-13 1.73872E-13
 -1       385 2.14818E+01 7.66652E-02 2.34667E-03-6.49680E-01 9.83753E-14 1.08825E-13
 -1       386 2.18119E+01-5.56508E-04-1.88002E-04-7.23689E-01 4.53444E-14 6.17339E-14
 -1       387 2.21901E+01-9.71717E-02-2.14347E-03-6.71268E-01 5.61727E-14 6.17092E-14
 -1       388 2.25484E+01-2.17401E-01-3.76550E-03-4.65883E-01 5.47800E-14 1.23588E-13
 -1       389 2.28098E+01-3.44440E-01-4.73993E-03-8.73925E-02 9.65447E-14 1.07042E-13
 -1       390 2.28904E+01-4.29271E-01-4.49816E-03 4.42814E-01 8.34012E-15 1.29746E-13
 -1       391 2.27171E+01-3.92055E-01-3.01444E-03 1.01743E+00 9.53304E-14 1.44798E-13
 -1       392 2.22748E+01-1.62689E-01-8.23436E-04 1.42165E+00 5.81247E-14 1.23328E-13
 -1       393 2.16707E+01 2.36374E-01 1.36390E-03 1.39464E+00 1.94357E-13 7.69051E-14
 -1       394 2.11574E+01 6.25533E-01 2.33906E-03 8.05771E-01 1.22222E-13 8.84839E-15
 -1       395 2.10148E+01 7.66344E-01 3.47163E-03-1.68403E-01 1.33041E-13-1.07711E-13
 -1       396 2.13436E+01 5.60664E-01 4.71462E-03-1.09070E+00 1.44114E-13-2.27923E-13
 -1       397 2.19790E+01 1.48342E-01 4.12102E-03-1.56126E+00 2.54459E-13-2.95237E-13
 -1       398 2.26244E+01-2.20870E-01 1.02888E-03-1.47724E+00 1.37938E-13-2.38780E-13
 -1       399 2.30629E+01-4.06657E-01-3.21465E-03-1.01907E+00-5.24442E-14-3.32985E-13
 -1       400 2.32241E+01-4.11752E-01-5.25912E-03-4.46091E-01-1.02696E-13-3.64804E-13
 -1       401 2.31429E+01-3.14964E-01-5.44067E-03 5.20975E-02-3.08534E-14-2.81880E-13
 -1       402 2.28941E+01-1.92268E-01-4.34321E-03 3.95341E-01 1.82911E-13-3.54559E-13
 -1       403 2.25515E+01-8.69114E-02-2.71159E-03 5.82134E-01 1.67713E-13-3.88551E-13
 -1       404 2.21725E+01-1.31128E-02-1.21489E-03 6.46950E-01-2.63559E-13-4.34091E-13
 -1       405 2.17967E+01 3.09180E-02-1.12077E-04 6.31285E-01-2.13529E-13-2.61199E-13
 -1       406 2.14486E+01 5.26102E-02 5.72132E-04 5.70261E-01-1.92322E-14-1.71473E-13
 -1       407 2.11413E+01 5.96773E-02 9.18283E-04 4.89006E-01 1.33582E-13 2.31339E-14
 -1       408 2.08797E+01 5.81837E-02 1.03141E-03 4.03528E-01 5.52640E-14-8.90461E-14
 -1       409 2.06635E+01 5.22942E-02 1.00344E-03 3.22974E-01 1.15579E-13-6.83950E-14
 -1       410 2.04893E+01 4.46259E-02 9.01327E-04 2.51846E-01-9.12806E-14 1.70428E-13
 -1       411 2.03520E+01 3.67003E-02 7.68694E-04 1.91751E-01-1.80593E-13-1.20667E-13
 -1       412 2.02463E+01 2.93239E-02 6.31552E-04 1.42620E-01-2.05159E-14-3.19382E-13
 -1       413 2.01665E+01 2.28645E-02 5.03922E-04 1.03507E-01 8.98322E-14-2.85980E-13
 -1       414 2.01075E+01 1.74355E-02 3.92258E-04 7.30827E-02 3.99151E-13-2.80414E-13
 -1       415 2.00651E+01 1.30113E-02 2.98540E-04 4.99203E-02 2.86307E-13 3.87663E-14
 -1       416 2.00354E+01 9.49680E-03 2.22298E-04 3.26555E-02 1.16488E-13 1.08142E-13
 -1       417 2.00153E+01 6.76704E-03 1.61840E-04 2.00652E-02 5.71767E-14 8.70422E-14
 -1       418 2.00023E+01 4.69111E-03 1.14962E-04 1.11005E-02-1.09966E-13 1.17821E-13
 -1       419 1.99946E+01 3.14490E-03 7.93500E-05 4.89069E-03-4.18392E-13 1.28596E-13
 -1       420 1.99905E+01 2.01711E-03 5.27968E-05 7.32792E-04-2.16174E-13 9.26788E-14
 -1       421 1.99889E+01 1.21092E-03 3.33006E-05-1.92613E-03 1.51872E-14-2.35249E-14
 -1       422 1.99891E+01 6.43347E-04 1.90830E-05-3.50803E-03 2.18945E-13-1.21395E-13
 -1       423 1.99902E+01 2.43022E-04 8.56481E-06-4.32204E-03 4.29562E-13-1.35380E-13
 -1       424 1.99920E+01-5.39853E-05 6.54693E-07-4.57989E-03 6.99017E-14-4.16238E-14
 -1       425 1.99939E+01-3.03573E-04-4.55999E-06-4.40492E-03 4.38434E-14-2.58472E-14
 -1       426 1.99959E+01-5.58658E-04-7.72615E-06-3.84945E-03 1.08820E-13 2.62170E-14
 -1       427 1.99976E+01-8.64510E-04-9.04695E-06-2.91794E-03-1.72415E-13-2.15874E-13
 -1       428 1.99985E+01-1.14190E-03-9.30123E-06-2.21200E-03-6.31909E-14-2.22354E-13
 -1       429 2.00000E+01-4.72821E-03 4.36847E-08-4.03577E-03-1.19573E-13-5.64588E-13
 -1       430 1.99993E+01-3.28972E-03-7.70673E-06-3.92730E-03-2.00916E-13-5.65723E-15
 -1       431 1.99989E+01-2.21352E-03-1.32068E-05-3.25570E-03-5.71657E-14 4.44801E-13
 -1       432 2.00004E+01-6.02052E-03 4.75227E-06-3.62354E-03-2.20087E-13-1.09080E-12
 -1       433 2.00007E+01-7.10162E-03 8.75560E-06-2.82706E-03-5.28713E-15-1.42773E-13
 -1       434 2.00009E+01-7.86549E-03 1.10863E-05-1.78373E-03 6.11902E-14 4.29888E-13
 -1       435 2.00010E+01-8.25954E-03 1.22037E-05-6.05266E-04-2.05514E-13 1.38765E-13
 -1       436 2.00010E+01-8.25856E-03 1.21951E-05 6.16161E-04-4.41225E-13 2.50590E-14
 -1       437 2.00009E+01-7.86215E-03 1.10331E-05 1.79529E-03-3.64563E-13 2.69681E-14
 -1       438 2.00007E+01-7.11155E-03 8.47257E-06 2.82326E-03 3.40096E-15 7.48929E-14
 -1       439 2.00004E+01-6.03124E-03 4.89682E-06 3.62444E-03 7.04527E-14 4.47843E-13
 -1       440 2.00000E+01-4.71467E-03-1.29825E-07 4.04590E-03-2.65663E-15 5.07579E-13
 -1       441 1.99993E+01-3.28214E-03-8.88859E-06 3.96329E-03-8.76544E-14 5.35788E-13
 -1       442 1.08520E+01-5.60270E+00-3.93781E-02 6.91613E+00-1.94011E-13 9.62057E-13
 -1       443 1.24392E+00-4.18868E+00-3.92121E-02-3.62832E-03 5.85754E-14 8.62060E-13
 -1       444 4.49778E+00-4.56660E+00-5.38404E-03 4.85743E+00-2.83704E-13 9.45397E-13
 -1       445 1.89817E+01-5.33294E+00-4.30973E-02 6.60942E+00 1.23346E-13 4.32654E-13
 -1       446 2.78447E+01-2.90307E+00 2.05307E-02 3.70107E+00 3.80064E-13 1.01585E-13
 -1       447 1.98931E+01 3.61246E+00-1.66176E-02-1.09404E+00-3.27563E-13-3.52330E-13
 -1       448 3.53202E+01 5.73045E+00 7.58757E-02-7.42108E-02 8.02303E-13-1.04583E-13
 -1       449 3.67503E+01 7.89710E+00 1.19708E-01-1.14179E-01 8.83238E-13-2.07723E-13
 -1       450 3.56604E+01 7.19195E+00 6.30184E-02 1.40306E-01 8.45990E-13-9.62563E-14
 -1       451 3.44522E+01 3.96324E+00 5.91683E-02-5.16069E-01 7.92325E-13-4.57273E-14
 -1       452 3.07251E+01-8.10913E-01 2.46669E-04-2.03976E+00 5.48455E-13-8.88872E-14
 -1       453 2.42921E+01-4.87091E+00-2.39422E-02-5.14239E+00 2.38670E-13-1.99105E-13
 -1       454 1.70755E+01-5.65645E+00 2.60515E-02-7.10511E+00 2.02199E-14-4.71677E-13
 -1       455 7.13024E+00-5.32177E+00-5.37450E-02-6.17642E+00-1.14922E-13-8.59729E-13
 -1       456 2.38684E+00-3.87332E+00 2.39928E-02-2.44920E+00-8.40647E-14-9.08953E-13
 -1       457 1.32935E+00-4.93708E+00-1.12369E-01 1.75086E+00 2.77556E-17-9.05803E-13
 -1       458 5.82593E+00-5.53116E+00-1.05563E-01 5.60186E+00-7.58421E-14-9.49907E-13
 -1       459 1.32155E+01-5.81544E+00-7.81794E-02 7.03887E+00-2.22211E-13-7.69500E-13
 -1       460 2.17222E+01-5.03203E+00-3.10293E-02 6.12009E+00-2.63706E-13-5.86198E-13
 -1       461 2.96952E+01-1.91920E+00 2.01030E-02 2.87725E+00-5.18405E-13-6.98053E-14
 -1       462 3.36460E+01 2.29451E+00 2.91914E-02 8.82375E-01-7.35259E-13-6.65856E-14
 -1       463 3.52379E+01 6.19369E+00 3.15884E-02-3.00485E-01-9.50351E-13-7.92144E-14
 -1       464 3.59659E+01 7.96692E+00 5.29227E-02-9.03719E-03-1.01585E-12-1.48256E-13
 -1       465 3.54632E+01 6.60913E+00 4.19111E-02 4.53655E-01-8.24105E-13-2.19935E-13
 -1       466 3.46122E+01 3.32465E+00 8.10606E-02-8.02353E-01-7.55493E-13-7.53009E-14
 -1       467 3.06172E+01-8.09472E-01 2.73743E-02-2.62629E+00-6.02015E-13 2.95319E-14
 -1       468 2.49104E+01-3.94122E+00-1.97376E-03-5.02821E+00-2.62568E-13 3.45696E-13
 -1       469 1.68512E+01-5.82635E+00-1.35036E-02-6.87037E+00 8.64309E-14 4.62490E-13
 -1       470 1.02002E+01-5.30384E+00 2.64472E-02-6.79045E+00 2.82135E-14 5.51559E-13
 -1       471 3.11518E+00-4.92839E+00-6.66342E-02-3.90273E+00-5.12784E-14 5.41178E-13
 -1       472 3.19444E+01 6.55928E-01-7.44931E-03 1.33058E+00 6.43855E-13-1.10995E-13
 -1       473 2.12444E+01 9.09818E-01 4.15006E-03 2.73672E-01 2.94531E-13 5.76633E-15
 -1       474 1.88450E+01 3.68197E+00-3.81688E-03-2.00533E-01-1.33938E-13-4.33855E-13
 -1       475 1.92683E+01 3.40218E+00-4.56503E-03-3.40460E-01-1.98974E-13-4.08874E-13
 -1       476 1.85122E+01 3.88349E+00-3.19567E-03-2.27369E-02 1.46865E-15-4.73267E-13
 -1       477 1.86235E+01 3.81106E+00-3.39875E-03 6.25782E-02 6.25290E-14-4.90537E-13
 -1       478 1.89025E+01 3.63108E+00-3.98634E-03 1.77573E-01 1.14631E-13-4.50003E-13
 -1       479 1.93347E+01 3.33781E+00-4.93776E-03 3.41078E-01 2.11625E-13-3.91967E-13
 -1       480 1.98867E+01 2.92339E+00-6.01146E-03 5.48300E-01 2.67201E-13-3.05132E-13
 -1       481 2.05379E+01 2.35256E+00-5.59328E-03 7.70893E-01 3.39157E-13-2.22559E-13
 -1       482 2.46974E+01-5.32318E+00 8.16982E-03 4.10449E+00-1.95059E-13-8.06369E-14
 -1       483 2.11724E+01 5.51922E-01 5.26454E-03-3.19843E-01 2.08607E-13-5.33999E-14
 -1       484 2.10734E+01 1.13511E+00 2.95475E-03-1.10980E-01-2.81565E-13-1.00991E-13
 -1       485 3.05061E+01 2.34704E+00-1.33334E-01-1.73249E+00 5.11508E-13-3.96412E-13
 -1       486 2.10536E+01 7.39374E-01 2.65897E-03 4.95946E-01-2.08586E-13-8.95449E-14
 -1       487 2.11047E+01 4.78131E-01 1.30167E-03 9.34995E-01-1.64918E-13-8.27372E-14
 -1       488 2.12611E+01 2.40926E-01 3.06780E-04 1.22930E+00-9.63057E-14-9.35722E-14
 -1       489 2.15391E+01-4.60576E-02-6.46225E-04 1.37497E+00-3.18015E-14-8.25382E-14
 -1       490 2.19590E+01-4.30411E-01-1.73303E-03 1.33579E+00-3.90319E-14-9.07189E-14
 -1       491 2.25393E+01-9.16400E-01-2.88417E-03 1.04807E+00 4.38185E-14-7.85540E-14
 -1       492 2.32662E+01-1.41602E+00-4.17090E-03 4.42338E-01 1.42190E-14-4.81952E-14
 -1       493 2.40337E+01-1.68206E+00-6.06438E-03-4.99324E-01 3.18881E-14 9.18233E-14
 -1       494 2.46007E+01-1.30857E+00-8.40812E-03-1.58637E+00-6.31457E-14 2.07514E-13
 -1       495 2.46604E+01 1.09804E-02-1.93128E-02-2.28844E+00-1.59642E-13 1.48482E-13
 -1       496 2.42501E+01 1.86161E+00-3.74836E-02-1.89107E+00-3.29249E-13 3.12942E-14
 -1       497 2.38846E+01 2.96350E+00-4.37701E-02-2.56353E-01-4.40382E-13-2.15445E-13
 -1       498 2.41260E+01 2.39730E+00-3.78527E-02 1.61882E+00-3.57252E-13-3.38939E-13
 -1       499 2.46074E+01 6.31298E-01-2.49726E-02 2.46949E+00-1.65222E-13-3.42917E-13
 -1       500 2.47549E+01-9.59536E-01-1.24710E-02 2.06778E+00-5.79551E-14-3.47975E-13
 -1       501 2.43515E+01-1.63110E+00-5.76872E-03 1.03699E+00 4.14643E-14-3.29087E-13
 -1       502 2.36382E+01-1.53656E+00-3.49697E-03 1.57258E-02 1.26794E-13-2.47036E-13
 -1       503 2.28901E+01-1.09045E+00-2.71275E-03-7.10714E-01 1.97974E-13-4.31524E-13
 -1       504 2.22542E+01-6.05935E-01-1.91354E-03-1.11731E+00 2.03470E-13-5.30303E-13
 -1       505 2.17609E+01-2.24268E-01-9.96282E-04-1.27609E+00 1.87010E-13-4.61057E-13
 -1       506 2.13877E+01 2.60742E-02-2.67179E-04-1.27194E+00 1.69314E-13-4.76791E-13
 -1       507 2.11020E+01 1.65967E-01 1.91344E-04-1.17349E+00 7.26585E-14-3.89049E-13
 -1       508 2.08775E+01 2.28281E-01 4.30278E-04-1.02900E+00 1.48519E-13-3.31503E-13
 -1       509 2.06966E+01 2.42192E-01 5.18100E-04-8.69641E-01 7.57827E-14-3.30429E-13
 -1       510 2.05488E+01 2.29013E-01 5.16947E-04-7.14100E-01 6.91029E-14-1.71739E-13
 -1       511 2.04276E+01 2.02726E-01 4.69480E-04-5.72476E-01 9.46007E-15-1.74173E-13
 -1       512 2.03285E+01 1.71827E-01 4.02770E-04-4.49317E-01-5.64097E-14-7.81028E-14
 -1       513 2.02484E+01 1.41112E-01 3.32271E-04-3.45740E-01-8.79895E-14-1.90089E-13
 -1       514 2.01845E+01 1.13035E-01 2.66137E-04-2.60893E-01-2.50450E-13-1.55200E-13
 -1       515 2.01343E+01 8.86399E-02 2.08116E-04-1.92908E-01-1.25641E-13-2.27464E-13
 -1       516 2.00954E+01 6.81732E-02 1.59375E-04-1.39498E-01 5.65158E-14-2.48398E-13
 -1       517 2.00659E+01 5.14548E-02 1.19674E-04-9.83112E-02-2.30111E-13-4.07366E-13
 -1       518 2.00440E+01 3.80993E-02 8.80766E-05-6.71249E-02-1.96667E-13-5.02143E-13
 -1       519 2.00280E+01 2.76394E-02 6.34379E-05-4.39481E-02-6.68915E-14-6.21124E-13
 -1       520 2.00166E+01 1.95979E-02 4.45973E-05-2.70644E-02 1.79248E-13-4.37475E-13
 -1       521 2.00087E+01 1.35272E-02 3.04561E-05-1.50369E-02 2.20859E-13-6.62425E-13
 -1       522 2.00035E+01 9.02671E-03 2.00322E-05-6.69162E-03 5.98905E-14-4.20976E-13
 -1       523 2.00003E+01 5.74834E-03 1.24832E-05-1.09136E-03-1.03522E-13-1.51147E-13
 -1       524 1.99985E+01 3.39423E-03 7.07003E-06 2.49339E-03 2.22005E-13-2.09683E-13
 -1       525 1.99976E+01 1.71167E-03 3.20184E-06 4.61373E-03-1.47376E-14-3.35122E-13
 -1       526 1.99974E+01 4.84266E-04 3.97998E-07 5.67016E-03 4.74967E-14-8.53748E-14
 -1       527 1.99976E+01-4.74650E-04-1.74611E-06 5.93435E-03-1.19308E-13 1.52433E-13
 -1       528 1.99980E+01-1.32945E-03-4.12753E-06 5.57515E-03-4.22591E-13 3.52262E-13
 -1       529 2.13822E+01 1.34212E-01 5.35639E-04-9.38150E-01 1.20212E-13-4.79494E-14
 -1       530 2.16507E+01-7.79626E-02-8.60746E-04-1.01309E+00 4.50657E-14-5.52748E-14
 -1       531 2.20073E+01-3.39341E-01-2.11631E-03-9.10303E-01 1.11895E-14-4.33953E-14
 -1       532 2.24276E+01-6.42606E-01-3.28263E-03-5.93002E-01 2.69513E-14 5.02392E-14
 -1       533 2.28622E+01-9.20660E-01-3.95562E-03-3.86090E-02 1.17979E-14 1.45030E-13
 -1       534 2.32165E+01-1.02448E+00-3.44619E-03 7.09538E-01 4.11741E-14 1.91294E-13
 -1       535 2.33516E+01-7.50881E-01-2.91643E-03 1.46854E+00 1.09205E-13 1.99521E-13
 -1       536 2.31634E+01 9.49024E-03-3.87609E-03 1.88585E+00 1.13124E-13 1.97534E-13
 -1       537 2.27405E+01 1.04184E+00-4.38345E-03 1.56408E+00 2.18230E-13 1.12908E-13
 -1       538 2.24027E+01 1.76950E+00-7.39156E-03 4.56244E-01 1.99985E-13 3.24382E-14
 -1       539 2.24858E+01 1.64850E+00-6.23551E-03-9.37066E-01 2.53640E-13-5.28158E-15
 -1       540 2.29112E+01 7.95913E-01-3.21529E-03-1.87969E+00 2.92059E-13-2.07987E-13
 -1       541 2.33392E+01-2.15993E-01-8.46816E-04-1.98616E+00 1.26194E-13-5.11119E-14
 -1       542 2.34719E+01-8.49995E-01-3.79816E-03-1.45846E+00-1.19730E-14-1.33578E-13
 -1       543 2.33038E+01-1.01380E+00-3.85453E-03-6.81887E-01-6.13769E-14-6.76581E-14
 -1       544 2.29443E+01-8.55078E-01-3.90846E-03 2.72407E-02-1.00082E-13-1.70323E-13
 -1       545 2.25215E+01-5.74014E-01-3.38853E-03 5.32639E-01 7.55567E-14-2.33662E-13
 -1       546 2.21111E+01-3.02434E-01-2.18507E-03 8.22355E-01 8.16096E-14 4.73238E-14
 -1       547 2.17428E+01-9.60118E-02-1.06209E-03 9.39075E-01-1.08378E-14 1.10098E-13
 -1       548 2.14230E+01 3.76137E-02-2.28029E-04 9.37323E-01-2.08492E-13-1.71565E-13
 -1       549 2.11491E+01 1.11471E-01 3.00289E-04 8.64744E-01-9.88482E-14-3.63317E-13
 -1       550 2.09166E+01 1.43316E-01 5.79395E-04 7.56734E-01-3.10068E-14-2.41227E-13
 -1       551 2.07212E+01 1.48719E-01 6.83332E-04 6.36987E-01 1.25958E-13-7.30261E-14
 -1       552 2.05590E+01 1.39188E-01 6.79752E-04 5.19981E-01-3.20285E-14-7.96147E-15
 -1       553 2.04263E+01 1.22419E-01 6.18271E-04 4.13634E-01-3.63891E-14 6.26138E-14
 -1       554 2.03192E+01 1.03190E-01 5.31396E-04 3.21507E-01 3.21149E-14 4.32979E-14
 -1       555 2.02343E+01 8.42452E-02 4.38778E-04 2.44459E-01-2.90138E-14-3.20614E-13
 -1       556 2.01681E+01 6.70090E-02 3.51280E-04 1.81799E-01-9.31543E-14-1.86999E-13
 -1       557 2.01175E+01 5.20953E-02 2.74099E-04 1.32037E-01 1.95111E-13 3.30587E-14
 -1       558 2.00794E+01 3.96466E-02 2.09002E-04 9.33570E-02 2.70381E-13 1.85726E-13
 -1       559 2.00513E+01 2.95455E-02 1.55852E-04 6.38975E-02 7.94560E-14 3.25687E-13
 -1       560 2.00312E+01 2.15431E-02 1.13590E-04 4.19112E-02 1.35730E-13 3.00546E-13
 -1       561 2.00171E+01 1.53382E-02 8.07602E-05 2.58467E-02-9.37689E-14 2.91144E-13
 -1       562 2.00077E+01 1.06241E-02 5.57966E-05 1.43793E-02-2.38646E-13 6.81410E-13
 -1       563 2.00016E+01 7.11347E-03 3.71924E-05 6.41182E-03-3.24661E-13 3.30549E-13
 -1       564 1.99980E+01 4.54912E-03 2.35799E-05 1.05958E-03 5.67684E-14 1.70710E-13
 -1       565 1.99961E+01 2.70711E-03 1.37486E-05-2.37144E-03 1.24337E-13 6.41271E-14
 -1       566 1.99955E+01 1.39459E-03 6.61708E-06-4.40862E-03 3.38438E-13 1.70558E-13
 -1       567 1.99956E+01 4.45867E-04 1.48958E-06-5.43546E-03 2.22937E-13 2.64675E-13
 -1       568 1.99961E+01-2.87351E-04-3.66610E-06-5.72513E-03-2.05656E-14 1.12695E-13
 -1       569 1.99970E+01-9.52887E-04-9.80527E-06-5.44226E-03-1.35580E-13 3.60875E-13
 -1       570 1.99979E+01-1.59165E-03-7.69167E-06-4.63227E-03 1.11373E-13 6.13213E-13
 -1       571 2.00014E+01-4.41083E-03 3.22284E-06-3.99289E-03 4.43438E-13-5.03856E-13
 -1       572 2.00019E+01-4.89181E-03 4.84073E-06-2.83135E-03 2.41567E-13 2.57700E-13
 -1       573 1.99996E+01-2.87973E-03-3.93646E-06-5.13800E-03 3.02176E-14-2.10764E-13
 -1       574 2.00007E+01-3.72419E-03-1.13826E-06-4.79125E-03 3.67629E-14-6.15842E-13
 -1       575 2.00021E+01-5.18044E-03 5.42663E-06-1.46179E-03 9.30269E-15-1.03084E-13
 -1       576 2.00022E+01-5.27707E-03 5.59111E-06 5.19497E-06 1.45677E-13 6.52769E-14
 -1       577 2.00021E+01-5.18295E-03 5.28314E-06 1.47301E-03 2.01928E-13 3.31643E-14
 -1       578 2.00019E+01-4.90225E-03 4.45626E-06 2.82313E-03 2.13648E-13 2.84907E-13
 -1       579 2.00014E+01-4.42036E-03 2.94528E-06 3.98827E-03 1.54486E-13 1.17917E-13
 -1       580 2.00006E+01-3.74430E-03 1.39021E-06 4.80640E-03-9.00352E-14 4.27891E-13
 -1       581 1.99996E+01-2.88075E-03-1.65114E-06 5.10778E-03-1.30771E-13 5.02080E-13
 -1       582 5.26301E+00-1.56547E+00 1.67358E-01 2.64265E+00-1.48215E-14 7.48082E-13
 -1       583 1.75246E+01-5.36391E+00 7.22200E-02 6.68232E+00-3.68774E-13 4.72561E-13
 -1       584 2.12185E+01 3.25257E-01 2.46012E-03-7.08893E-01 1.53153E-13-5.26270E-14
 -1       585 5.32480E+00-1.54153E+00 1.79746E-01-2.47005E+00 1.82271E-13 5.46577E-13
 -1       586 1.10641E+01-3.52402E+00 1.50185E-01 6.37854E+00-3.98029E-13 8.07403E-13
 -1       587 2.09561E+01 1.87980E+00-6.15395E-03-7.99920E-01-3.57500E-13-1.30716E-13
 -1       588 2.35137E+01-5.59449E+00 4.54567E-02-4.66389E+00 2.13732E-13-4.44401E-14
 -1       589 3.05574E+01 3.05462E+00-1.48984E-01-1.84633E+00-6.42618E-13 2.79887E-13
 -1       590 2.78255E+01-3.96291E+00-4.54376E-02-1.73252E+00 1.52552E-13 1.77691E-13
 -1       591 1.85872E+01 3.84120E+00-3.34149E-03-1.01397E-01-7.06858E-14-4.48344E-13
 -1       592 3.02299E+01 7.32881E+00-1.65560E-01 2.59996E-01 8.09630E-13-6.43062E-14
 -1       593 8.01838E+00-2.34783E+00 1.68214E-01-4.97261E+00-2.60916E-13-7.09238E-13
 -1       594 3.08009E+01 6.43591E+00-1.57633E-01-1.29749E+00 7.48263E-13-2.13687E-13
 -1       595 3.07338E+01 4.76959E+00-1.49994E-01 1.61843E+00 7.31998E-13 6.84869E-14
 -1       596 3.04625E+01 7.21146E-01-1.01184E-01 1.08729E+00 5.05290E-13 1.41692E-13
 -1       597 2.21727E+01-5.64509E+00 3.60734E-02-5.39511E+00-2.91801E-13-9.32509E-14
 -1       598 3.06806E+01 3.57063E+00-1.55613E-01 2.01258E+00-6.42188E-13-5.19695E-13
 -1       599 1.43764E+01-4.54039E+00 1.03025E-01-6.91692E+00-3.97037E-13-4.87908E-13
 -1       600 4.45303E+00-1.54872E+00 1.72035E-01 3.13236E-01 1.67141E-14-7.48998E-13
 -1       601 6.27092E+00-2.68589E+00 1.35609E-01 4.43640E+00 1.90049E-13-8.96921E-13
 -1       602 1.24414E+01-4.53030E+00 1.08134E-01 6.86934E+00 2.30996E-13-6.67591E-13
 -1       603 1.97295E+01-5.66633E+00 5.45389E-02 6.30286E+00 2.49557E-13-3.23513E-13
 -1       604 2.65264E+01-4.97823E+00-2.38004E-02 3.08389E+00 3.02952E-14 6.26721E-14
 -1       605 3.03078E+01-6.85822E-01-7.96767E-02-7.03352E-01-4.34174E-13 2.69770E-13
 -1       606 3.01322E+01 6.32069E+00-1.88465E-01-1.15764E+00-7.88231E-13 1.14950E-13
 -1       607 2.97137E+01 6.76540E+00-1.90977E-01 8.68337E-01-7.79737E-13-3.30373E-13
 -1       608 3.04872E+01-7.80499E-02-9.44527E-02 1.02819E+00-4.38340E-13-5.47243E-13
 -1       609 2.74855E+01-4.28593E+00-4.40322E-02-2.12346E+00 2.78701E-14-2.42688E-13
 -1       610 1.58436E+01-4.62546E+00 1.03336E-01-6.54730E+00 3.67553E-13 4.06383E-13
 -1       611 9.37502E+00-3.02072E+00 1.55422E-01-5.68956E+00 2.12358E-13 3.72889E-13
 -1       612 2.88081E+01-2.60532E+00-7.71984E-02 3.49162E-02 1.62583E-13-4.99573E-13
 -1       613 2.13791E+01 1.33749E+00-9.65055E-04 9.30026E-01 3.75179E-13 6.32073E-14
 -1       614 1.98192E+01 2.99075E+00-7.93968E-03-5.20784E-01-2.61707E-13-3.49891E-13
 -1       615 7.80717E+00-6.20596E-01 1.71800E-01-2.53930E+00-1.54250E-13-6.54414E-13
 -1       616 1.99984E+01-1.89028E-03-6.41778E-06 5.02196E-03-3.01135E-13 4.95083E-13
 -1       617 1.88006E+01 3.18221E+00-1.09759E-03-6.65332E-02 7.50679E-14-4.22164E-13
 -1       618 1.85709E+01 3.34251E+00-9.66233E-04-5.54904E-02 2.96884E-14-4.41260E-13
 -1       619 1.97336E+01 2.48894E+00-1.32704E-03 4.94973E-02 2.12166E-13-3.15818E-13
 -1       620 2.03320E+01 1.96411E+00-1.85842E-03 1.47002E-01 2.58384E-13-2.12877E-13
 -1       621 2.81091E+01-2.64837E+00-5.73674E-02 6.65269E-01-1.13605E-13-6.54865E-13
 -1       622 2.08502E+01 1.22418E+00 2.62558E-03-2.92776E-02 2.61461E-13-1.46724E-13
 -1       623 2.05930E+01 1.00557E+00 8.15384E-04 7.59434E-01-1.78650E-13-1.81712E-13
 -1       624 2.06252E+01 6.56392E-01 3.29796E-04 1.19588E+00-1.45241E-13-1.53440E-13
 -1       625 2.07448E+01 2.87401E-01 5.69645E-05 1.52366E+00-4.09280E-14-1.59534E-13
 -1       626 2.10153E+01-1.86545E-01-1.92786E-04 1.72972E+00-4.98198E-14-1.76126E-13
 -1       627 2.15185E+01-8.25775E-01-4.65585E-04 1.76945E+00 2.41301E-14-1.52617E-13
 -1       628 2.23476E+01-1.62305E+00 6.57608E-05 1.54854E+00 9.52638E-14-5.05032E-14
 -1       629 2.35407E+01-2.39486E+00 8.23194E-04 9.24960E-01 1.16523E-13 9.86459E-14
 -1       630 2.49800E+01-2.68220E+00-1.66876E-03-2.27480E-01 5.37916E-14 1.38631E-13
 -1       631 2.61425E+01-1.70472E+00-3.48234E-02-1.70097E+00-1.35673E-13 1.86657E-13
 -1       632 2.64391E+01 1.09654E+00-7.23887E-02-2.49764E+00-3.79162E-13 1.17201E-13
 -1       633 2.58913E+01 4.54434E+00-8.87009E-02 9.56916E-01-5.66262E-13-6.63801E-14
 -1       634 2.61826E+01 2.18365E+00-9.78647E-02 2.57442E+00-3.47857E-13-2.35079E-13
 -1       635 2.62102E+01-8.36600E-01-4.67608E-02 2.35031E+00-1.63689E-13-3.91977E-13
 -1       636 2.53601E+01-2.39670E+00-8.00903E-03 9.67540E-01 3.55202E-14-4.70629E-13
 -1       637 2.40157E+01-2.49965E+00-1.72336E-03-3.29406E-01 1.48192E-13-3.54647E-13
 -1       638 2.27591E+01-1.86391E+00 3.33693E-04-1.14095E+00 8.07502E-14-2.85329E-13
 -1       639 2.18075E+01-1.09575E+00-4.20036E-04-1.52202E+00 1.42419E-13-3.12284E-13
 -1       640 2.11775E+01-4.66695E-01-3.36760E-04-1.62075E+00 2.66367E-13-2.30012E-13
 -1       641 2.07881E+01-3.88194E-02-7.29894E-05-1.56002E+00 1.76301E-13-2.84009E-13
 -1       642 2.05542E+01 2.13045E-01 1.10837E-04-1.41735E+00 1.43219E-13-3.88079E-13
 -1       643 2.04119E+01 3.37006E-01 2.09125E-04-1.23874E+00 1.28010E-13-4.77536E-13
 -1       644 2.03206E+01 3.77896E-01 2.37836E-04-1.05130E+00 1.31838E-13-4.16635E-13
 -1       645 2.02569E+01 3.69710E-01 2.31168E-04-8.70898E-01 1.55294E-13-5.02007E-13
 -1       646 2.02085E+01 3.35630E-01 2.06993E-04-7.06359E-01-3.90023E-14-6.63252E-13
 -1       647 2.01692E+01 2.90382E-01 1.76736E-04-5.61945E-01 9.38743E-14-6.05841E-13
 -1       648 2.01363E+01 2.42761E-01 1.45824E-04-4.38924E-01-2.93795E-15-3.49559E-13
 -1       649 2.01085E+01 1.97630E-01 1.16916E-04-3.36670E-01-1.67779E-13-2.53276E-13
 -1       650 2.00850E+01 1.57365E-01 9.14680E-05-2.53464E-01-2.70127E-13-1.26246E-13
 -1       651 2.00655E+01 1.22852E-01 7.00633E-05-1.87051E-01-1.36230E-13-3.23107E-13
 -1       652 2.00496E+01 9.41349E-02 5.27375E-05-1.35001E-01-1.05488E-13-4.05414E-13
 -1       653 2.00368E+01 7.08098E-02 3.89706E-05-9.49255E-02-1.67539E-13-3.02917E-13
 -1       654 2.00268E+01 5.22560E-02 2.81808E-05-6.46127E-02-2.56624E-13-3.03034E-13
 -1       655 2.00190E+01 3.77743E-02 1.98876E-05-4.21042E-02 1.35534E-13-4.36703E-13
 -1       656 2.00131E+01 2.66736E-02 1.36295E-05-2.57222E-02 1.59004E-13-6.10864E-13
 -1       657 2.00087E+01 1.83149E-02 9.00097E-06-1.40663E-02 2.51763E-13-4.35885E-13
 -1       658 2.00055E+01 1.21302E-02 5.62132E-06-5.99419E-03 9.74217E-14-2.68133E-13
 -1       659 2.00033E+01 7.62602E-03 3.22915E-06-5.96283E-04 2.11390E-14-2.25852E-14
 -1       660 2.00017E+01 4.38014E-03 1.44050E-06 2.83205E-03 5.70950E-14-5.98702E-14
 -1       661 2.00007E+01 2.03655E-03 3.62246E-07 4.82247E-03 1.23319E-13 8.55020E-14
 -1       662 2.00001E+01 2.87361E-04-4.44392E-07 5.75929E-03-1.81828E-14-1.96322E-13
 -1       663 1.99997E+01-1.12700E-03-1.54851E-06 5.89093E-03-1.92488E-13 1.21504E-13
 -1       664 2.13797E+01-2.48077E-01-4.76004E-04-1.30095E+00 2.48703E-14-3.74678E-15
 -1       665 1.99997E+01-1.60341E-03 4.33320E-07-5.83590E-03-2.21293E-13-2.16318E-13
 -1       666 2.10880E+01 1.40252E-01-9.99566E-05-1.20732E+00 7.30622E-14-5.13991E-14
 -1       667 2.24668E+01-1.26036E+00-1.51471E-03-8.45047E-01-4.82063E-14 7.63245E-14
 -1       668 2.32390E+01-1.70008E+00-2.84593E-03-1.78752E-01-2.37361E-14 1.66635E-13
 -1       669 2.40056E+01-1.73984E+00-3.51643E-03 7.72443E-01 5.64198E-14 3.03493E-13
 -1       670 2.44552E+01-9.65212E-01-1.21461E-02 1.74564E+00 8.68483E-14 3.48797E-13
 -1       671 2.44102E+01 6.90950E-01-1.12939E-02 2.18591E+00 2.08791E-13 3.92689E-13
 -1       672 2.38620E+01 2.56906E+00-5.50553E-02 1.43357E+00 2.82291E-13 3.29060E-13
 -1       673 2.36580E+01 3.26418E+00-4.45894E-02-3.27267E-01 4.05280E-13 5.36161E-14
 -1       674 2.40818E+01 2.15233E+00-3.76887E-02-1.89748E+00 3.80828E-13-1.84915E-13
 -1       675 2.44632E+01 2.62317E-01-2.98916E-02-2.36208E+00 1.67773E-13-2.49746E-13
 -1       676 2.44534E+01-1.20692E+00-2.02821E-03-1.74572E+00-6.21942E-15-2.56760E-13
 -1       677 2.38734E+01-1.76235E+00-1.97166E-03-6.99073E-01-8.81389E-14-2.33925E-13
 -1       678 2.30890E+01-1.60342E+00-7.53843E-04 1.96167E-01-1.12934E-13-7.61040E-14
 -1       679 2.23329E+01-1.13988E+00-1.71438E-03 7.92671E-01-2.38226E-16-8.43028E-14
 -1       680 2.17250E+01-6.50552E-01-1.07670E-03 1.11053E+00 1.71474E-14-8.04938E-15
 -1       681 2.12770E+01-2.59335E-01-5.49068E-04 1.22364E+00 5.27153E-14 1.35599E-13
 -1       682 2.09588E+01 6.58052E-03-1.91327E-04 1.20459E+00 2.29493E-14 2.51926E-13
 -1       683 2.07330E+01 1.63576E-01 3.90441E-05 1.10897E+00-2.78717E-15 2.95440E-14
 -1       684 2.05689E+01 2.40448E-01 1.70278E-04 9.75207E-01-1.74110E-13 2.73226E-14
 -1       685 2.04455E+01 2.64409E-01 2.25286E-04 8.28503E-01-3.30360E-15 1.88178E-14
 -1       686 2.03497E+01 2.56606E-01 2.34633E-04 6.84500E-01 3.98727E-14 1.22470E-13
 -1       687 2.02736E+01 2.31845E-01 2.19559E-04 5.52160E-01-7.32783E-14 1.65961E-13
 -1       688 2.02123E+01 1.99772E-01 1.92722E-04 4.35897E-01 1.45884E-13 5.43250E-14
 -1       689 2.01629E+01 1.66260E-01 1.61721E-04 3.37149E-01 1.18478E-13 2.94705E-14
 -1       690 2.01233E+01 1.34601E-01 1.31124E-04 2.55528E-01-7.13887E-14-1.93571E-14
 -1       691 2.00917E+01 1.06432E-01 1.03485E-04 1.89618E-01-4.44407E-14-2.36186E-13
 -1       692 2.00670E+01 8.23766E-02 7.98796E-05 1.37503E-01 2.00547E-13 3.64580E-14
 -1       693 2.00479E+01 6.24678E-02 6.03657E-05 9.71010E-02 1.34638E-13 6.80805E-14
 -1       694 2.00333E+01 4.64090E-02 4.46132E-05 6.63755E-02 4.43212E-14 2.22933E-13
 -1       695 2.00224E+01 3.37411E-02 3.22010E-05 4.34606E-02-9.54151E-14 4.03534E-13
 -1       696 2.00145E+01 2.39502E-02 2.26433E-05 2.67219E-02-2.99154E-13 4.23464E-13
 -1       697 2.00088E+01 1.65301E-02 1.54384E-05 1.47737E-02-1.43193E-13 5.30056E-13
 -1       698 2.00048E+01 1.10128E-02 1.01120E-05 6.47318E-03 5.09917E-14 3.31146E-13
 -1       699 2.00022E+01 6.98183E-03 6.23734E-06 9.02359E-04 2.93388E-13-1.46309E-14
 -1       700 2.00006E+01 4.07498E-03 3.42497E-06-2.65598E-03 3.19941E-13-1.51053E-13
 -1       701 1.99996E+01 1.98008E-03 1.58559E-06-4.74448E-03 2.15125E-13-1.83787E-13
 -1       702 1.99991E+01 4.31127E-04 1.94905E-06-5.75621E-03 8.05192E-14-8.04217E-15
 -1       703 1.99995E+01-5.64469E-04-1.43111E-06-5.97194E-03 1.77250E-13-1.76611E-13
 -1       704 2.00035E+01-2.41732E-03 1.89068E-06-7.78032E-04 4.28523E-13-1.15301E-14
 -1       705 1.99996E+01-2.01002E-03-3.85018E-06 5.62928E-03-2.69255E-13 2.58120E-13
 -1       706 2.00027E+01-2.36717E-03 1.61185E-06-3.69403E-03 2.37532E-13-3.96629E-13
 -1       707 2.00035E+01-2.42166E-03 1.85287E-06 7.84615E-04 4.08999E-13-9.14751E-14
 -1       708 2.00033E+01-2.40904E-03 1.93262E-06-2.30038E-03 2.39531E-13 9.04411E-14
 -1       709 2.61514E+01-4.30679E+00-1.23898E-02 1.42842E+00-1.53219E-13-5.88444E-13
 -1       710 2.00033E+01-2.42060E-03 1.60854E-06 2.28491E-03 3.11467E-13 2.05594E-13
 -1       711 2.00028E+01-2.38367E-03 1.53499E-06 3.68474E-03 2.41151E-13-6.20831E-14
 -1       712 2.00019E+01-2.26068E-03-1.05443E-06 4.83054E-03 1.32322E-13 1.17466E-13
 -1       713 2.00008E+01-2.22081E-03 1.46443E-06 5.40519E-03-4.26534E-14 2.66155E-13
 -1       714 2.78951E+01 1.72047E-01-9.33423E-02-2.25908E+00-4.14700E-13 3.76751E-13
 -1       715 2.75966E+01-3.42417E+00-3.79130E-02 3.35004E-02-7.26277E-14 2.70034E-13
 -1       716 1.01272E+01-1.22722E+00 1.35845E-01 4.32532E+00-1.60639E-13 4.93910E-13
 -1       717 1.66566E+01-3.77691E+00 8.82280E-02 5.87905E+00-4.78700E-13 4.44405E-13
 -1       718 2.05125E+01 1.95470E+00-1.62110E-04-2.86520E-01-2.85875E-13-2.12236E-13
 -1       719 1.16731E+01-2.29079E+00 1.36294E-01 5.49695E+00 3.19911E-13-6.71518E-13
 -1       720 1.31188E+01-2.47446E+00 1.13998E-01-5.64358E+00-3.64292E-13-4.43312E-13
 -1       721 2.76938E+01 1.92409E+00-1.12103E-01 2.33678E+00 4.80817E-13 1.37355E-13
 -1       722 2.09253E+01 4.69706E-01 5.57846E-04-9.57598E-01 1.22387E-13-8.88194E-14
 -1       723 2.18333E+01-7.25911E-01-7.80341E-04-1.20045E+00-3.77086E-14 2.44921E-14
 -1       724 2.05671E+01 1.40255E+00 6.39271E-05 2.76163E-01-2.33891E-13-2.00948E-13
 -1       725 2.36818E+01-5.21298E+00 2.72585E-02 3.93731E+00 2.70273E-13-4.05500E-14
 -1       726 2.19947E+01-5.05906E+00 3.69911E-02 4.60024E+00-4.32734E-13-2.09075E-14
 -1       727 2.75168E+01-7.59710E-02-6.94852E-02-2.11920E+00 1.59334E-13-4.30010E-13
 -1       728 2.73982E+01 3.25671E+00-1.40019E-01-2.39540E+00 5.24518E-13-3.84043E-13
 -1       729 1.92033E+01 2.89440E+00-1.28532E-03-3.18015E-02 1.51003E-13-3.36403E-13
 -1       730 1.91116E+01 2.97769E+00-1.15730E-03 6.40101E-03-1.53298E-13-3.62823E-13
 -1       731 2.71338E+01 5.02809E+00-1.42890E-01 1.51815E+00 6.49064E-13-1.47372E-13
 -1       732 2.52745E+01-4.89164E+00-4.83523E-03-2.57378E+00-1.57764E-13 1.20497E-13
 -1       733 8.11651E+00 1.48739E-01 1.51952E-01 7.70662E-02-3.53477E-14 6.32189E-13
 -1       734 1.68746E+01-4.18817E+00 9.10698E-02 6.17676E+00 3.77028E-13-3.55646E-13
 -1       735 2.79606E+01-2.03130E+00-5.31104E-02 9.45223E-01 1.83753E-13 1.49596E-13
 -1       736 1.92483E+01-4.43685E+00 5.72381E-02-5.63599E+00-4.33483E-13-2.19316E-13
 -1       737 7.98235E+00-5.99647E-01 1.63336E-01 2.51864E+00 5.91922E-14-7.20028E-13
 -1       738 2.67267E+01 5.36149E+00-1.55783E-01-3.66275E-01-5.47971E-13 4.21625E-15
 -1       739 2.75357E+01 3.76692E+00-1.28709E-01-2.13072E+00-6.04100E-13 1.81972E-13
 -1       740 2.08574E+01 8.01581E-01 1.29381E-03-5.67178E-01 1.69357E-13-1.29423E-13
 -1       741 2.74903E+01 5.91329E+00-1.68634E-01-8.48691E-01 7.09849E-13-2.59440E-13
 -1       742 2.82842E+01 8.00030E-01-9.31453E-02 2.42709E+00-3.73281E-13-5.44065E-13
 -1       743 2.57224E+01-4.77904E+00-7.18147E-03-2.07615E+00 1.17246E-13-2.07868E-13
 -1       744 2.12427E+01-4.75223E+00 4.37789E-02-4.64339E+00 2.30305E-13 1.14665E-15
 -1       745 1.96427E+01 2.58492E+00-9.87861E-04-4.53104E-02-2.00387E-13-3.31835E-13
 -1       746 1.85468E+01 3.36289E+00-9.68699E-04-1.95662E-02-3.33227E-14-4.01658E-13
 -1       747 2.00019E+01-2.23406E-03 5.65701E-07-4.84447E-03 4.18813E-13-7.46350E-14
 -1       748 9.45929E+00-1.07098E+00 1.48310E-01-3.84839E+00 2.08592E-13 3.57880E-13
 -1       749 2.61576E+01 4.09465E+00-9.62160E-02-1.49541E+00-5.86094E-13 9.85323E-15
 -1       750 1.16006E+01-8.49888E-01 1.14644E-01-4.03602E+00-2.55585E-13-4.79505E-13
 -1       751 2.71343E+01 3.96116E+00-1.42973E-01 2.15904E+00-5.61093E-13-2.65590E-13
 -1       752 2.65291E+01-2.41478E+00-4.08458E-02-1.14049E+00-6.79747E-14-3.46624E-13
 -1       753 1.87331E+01 3.24011E+00-1.10835E-03 9.84398E-03-9.48230E-14-3.81507E-13
 -1       754 9.17416E+00 3.07248E-01 1.27853E-01-1.71278E-01-7.98003E-14-5.97959E-13
 -1       755 1.66768E+01-2.94511E+00 6.75127E-02-5.17433E+00 2.75181E-13 2.47507E-13
 -1       756 1.30536E+01-2.02796E+00 1.16124E-01-5.08493E+00 1.52140E-13 2.73462E-13
 -1       757 2.00863E+01 1.70460E+00 7.40049E-04-3.49990E-01 1.99202E-13-2.41846E-13
 -1       758 2.51959E+01 3.84182E+00-8.35941E-02-1.52499E+00 5.44415E-13-3.49215E-13
 -1       759 2.53385E+01-4.11291E+00 4.40066E-03 1.39337E+00 1.79901E-13 1.38966E-13
 -1       760 1.99594E+01 8.03785E-01 1.32313E-04 1.42478E+00-8.94106E-14-2.13728E-13
 -1       761 2.00055E+01 3.19466E-01 2.74051E-04 1.81712E+00-8.10650E-14-2.21251E-13
 -1       762 2.02321E+01-3.31908E-01 7.49903E-04 2.16179E+00 1.03875E-15-2.09901E-13
 -1       763 2.07893E+01-1.23277E+00 2.46820E-03 2.41574E+00 1.56686E-13-1.30547E-13
 -1       764 2.18729E+01-2.39310E+00 3.18482E-04 2.45640E+00 2.28609E-13-1.01691E-13
 -1       765 2.36632E+01-4.13644E+00 1.29231E-02 2.43833E+00-2.01808E-13-3.60936E-13
 -1       766 2.43558E+01-3.64958E+00 2.79366E-03-1.27847E+00 2.37218E-13-4.39276E-13
 -1       767 2.24151E+01-2.78385E+00 1.12481E-02-2.09388E+00 1.72373E-13-3.18649E-13
 -1       768 2.10792E+01-1.63259E+00 3.99039E-03-2.24624E+00 1.57463E-13-1.99011E-13
 -1       769 2.03233E+01-7.15081E-01 1.20851E-03-2.11670E+00 2.80552E-13-1.47799E-13
 -1       770 1.99514E+01-9.42343E-02 4.53554E-04-1.88565E+00 1.36345E-13-1.25136E-13
 -1       771 1.98028E+01 2.76819E-01 2.35771E-04-1.63485E+00 9.62643E-14-1.56628E-13
 -1       772 1.97717E+01 4.67766E-01 1.86363E-04-1.39296E+00 1.06576E-14-2.34985E-13
 -1       773 1.97949E+01 5.40134E-01 1.43599E-04-1.16955E+00 1.19542E-13-3.65583E-13
 -1       774 1.98377E+01 5.40077E-01 1.11547E-04-9.67815E-01-7.16886E-15-4.30270E-13
 -1       775 1.98824E+01 4.99584E-01 8.52715E-05-7.88998E-01-1.11632E-13-6.64073E-13
 -1       776 1.99214E+01 4.39630E-01 6.68152E-05-6.33405E-01 1.69271E-13-6.01604E-13
 -1       777 1.99522E+01 3.73334E-01 5.33414E-05-5.00566E-01 5.50436E-14-7.96958E-13
 -1       778 1.99748E+01 3.08458E-01 4.27548E-05-3.89225E-01 8.96943E-14-6.79124E-13
 -1       779 1.99905E+01 2.49132E-01 3.33792E-05-2.97555E-01-2.18339E-13-5.46902E-13
 -1       780 2.00007E+01 1.97230E-01 2.53482E-05-2.23389E-01-1.73088E-13-5.33029E-13
 -1       781 2.00069E+01 1.53258E-01 1.92694E-05-1.64412E-01-2.23031E-13-4.28006E-13
 -1       782 2.00101E+01 1.16950E-01 1.46242E-05-1.18315E-01-8.29151E-14-4.45025E-13
 -1       783 2.00113E+01 8.76322E-02 1.10079E-05-8.28939E-02-1.36195E-13-3.43454E-13
 -1       784 2.00113E+01 6.44146E-02 8.07208E-06-5.61441E-02-1.60867E-13-2.23945E-13
 -1       785 2.00105E+01 4.63590E-02 5.71447E-06-3.63142E-02 1.41525E-13 2.18520E-14
 -1       786 2.00093E+01 3.25643E-02 3.92341E-06-2.19103E-02 2.70776E-13 5.88956E-14
 -1       787 2.00079E+01 2.22078E-02 2.57009E-06-1.16881E-02 3.56617E-13 1.97223E-13
 -1       788 2.00065E+01 1.45612E-02 1.44200E-06-4.63420E-03 9.26909E-14 3.80883E-13
 -1       789 2.00051E+01 8.99033E-03 9.15048E-07 5.58896E-05-2.95625E-14 2.00774E-13
 -1       790 2.00039E+01 4.95943E-03-4.79533E-08 2.99289E-03 5.92488E-14-1.03875E-13
 -1       791 2.00028E+01 2.01557E-03 6.08943E-07 4.66001E-03-6.32475E-14-3.55200E-13
 -1       792 2.00018E+01-2.48210E-04 1.59134E-07 5.39116E-03 1.96058E-13-6.30709E-14
 -1       793 2.06278E+01 9.81039E-02-1.11325E-04-1.50846E+00 1.23173E-14-1.71581E-13
 -1       794 2.37930E+01-2.64052E+00 3.95899E-03-6.55757E-01-9.12694E-14 6.11996E-14
 -1       795 2.25135E+01-2.02207E+00 1.75330E-03-1.39720E+00-1.38651E-13-2.92977E-14
 -1       796 2.58091E+01-7.71666E-01-4.25234E-02 1.95633E+00 1.21873E-13 2.33172E-13
 -1       797 2.60660E+01 1.42440E+00-5.86496E-02-2.51682E+00 3.03335E-13-4.39600E-13
 -1       798 2.33850E+01-2.53660E+00 6.55788E-04 7.22716E-01-1.76392E-13-2.36764E-13
 -1       799 2.21754E+01-1.82993E+00-3.79376E-04 1.32446E+00-1.04402E-13-1.93983E-13
 -1       800 2.12936E+01-1.07667E+00-1.36419E-04 1.56369E+00-9.77255E-14 6.81895E-15
 -1       801 2.07275E+01-4.66918E-01-5.56342E-05 1.57735E+00-8.55884E-14 1.18617E-13
 -1       802 2.03937E+01-4.52584E-02-3.31845E-05 1.47537E+00-1.46974E-13 1.45687E-13
 -1       803 2.02103E+01 2.11647E-01 2.07352E-05 1.32000E+00 4.87346E-14 2.55034E-13
 -1       804 2.01161E+01 3.45737E-01 7.33365E-05 1.14484E+00-6.67565E-14 4.19973E-13
 -1       805 2.00712E+01 3.96620E-01 8.59087E-05 9.68695E-01-1.50668E-13 1.95128E-13
 -1       806 2.00514E+01 3.95592E-01 8.00920E-05 8.02283E-01-5.52454E-14 3.98336E-13
 -1       807 2.00431E+01 3.65120E-01 7.04872E-05 6.51578E-01-1.36724E-13 4.97207E-13
 -1       808 2.00393E+01 3.20378E-01 6.07603E-05 5.19469E-01 1.32343E-13 3.74551E-13
 -1       809 2.00368E+01 2.71032E-01 5.06387E-05 4.06708E-01 8.14556E-14 3.16392E-13
 -1       810 2.00341E+01 2.22806E-01 4.04723E-05 3.12657E-01 1.11977E-13 2.92063E-13
 -1       811 2.00309E+01 1.78798E-01 3.12728E-05 2.35831E-01 8.17434E-14 1.76419E-13
 -1       812 2.00273E+01 1.40424E-01 2.39192E-05 1.74293E-01-5.43263E-15-1.33914E-13
 -1       813 2.00236E+01 1.08082E-01 1.82652E-05 1.25916E-01 6.55182E-14-5.00809E-14
 -1       814 2.00199E+01 8.15644E-02 1.36916E-05 8.85691E-02-9.86112E-14-6.36964E-14
 -1       815 2.00164E+01 6.03214E-02 9.94604E-06 6.02549E-02-2.17222E-13 3.13310E-13
 -1       816 2.00133E+01 4.36522E-02 6.99814E-06 3.91934E-02-3.81814E-13 5.77516E-13
 -1       817 2.00105E+01 3.08254E-02 4.76758E-06 2.38469E-02-2.79489E-13 5.47093E-13
 -1       818 2.00082E+01 2.11406E-02 3.11314E-06 1.29215E-02 1.60749E-13 1.19539E-13
 -1       819 2.00062E+01 1.39584E-02 1.90847E-06 5.35667E-03 3.30951E-13 9.42402E-15
 -1       820 2.00045E+01 8.71356E-03 1.01986E-06 3.06014E-04 2.06301E-13 1.15020E-14
 -1       821 2.00032E+01 4.91774E-03 8.39845E-07-2.88667E-03-3.46779E-14 3.89982E-13
 -1       822 2.00021E+01 2.16081E-03 1.82447E-06-4.70998E-03 9.77331E-14 1.66413E-13
 -1       823 1.85964E+01 2.80302E+00-2.35285E-04-2.19460E-01 2.53634E-14-3.89114E-13
 -1       824 2.00043E+01 2.36882E-04-1.69513E-06 2.87164E-03 1.60016E-13 1.05092E-13
 -1       825 2.00049E+01 6.30186E-04-1.75567E-07-9.70816E-06 4.19992E-13 2.31521E-14
 -1       826 2.04243E+01-3.31189E+00 2.61207E-02-3.87512E+00 3.17369E-13 2.63600E-14
 -1       827 2.00034E+01-1.23431E-04-1.71017E-06 4.19951E-03 1.96474E-13 1.30335E-13
 -1       828 2.00048E+01 5.17050E-04-4.18897E-07 1.44948E-03 2.46564E-13-1.26650E-13
 -1       829 1.44320E+01-2.69357E+00 9.30970E-02 5.54208E+00-3.67300E-13 5.42181E-13
 -1       830 2.04641E+01 5.67286E-01 1.07063E-04-1.21537E+00 6.98951E-14-1.80709E-13
 -1       831 2.24387E+01-4.09775E+00 3.27298E-02-3.52019E+00-3.48058E-13-8.35807E-14
 -1       832 2.06281E+01-3.95405E+00 3.28081E-02 4.50835E+00 3.89775E-13-1.43124E-13
 -1       833 1.09073E+01 2.27667E-01 8.09130E-02-2.04963E+00 6.68658E-14 3.12958E-13
 -1       834 2.51714E+01-2.56019E+00-1.66043E-02 6.19934E-01-2.61661E-15 1.80939E-13
 -1       835 2.04951E+01 1.22954E+00-2.73203E-04-4.61704E-01 1.80273E-13-1.80937E-13
 -1       836 1.15691E+01 3.19173E-01 6.78383E-02 2.14877E+00-1.88589E-13 3.86274E-13
 -1       837 2.05621E+01-3.78528E+00 3.52407E-02 4.18384E+00-4.26475E-13 7.73166E-15
 -1       838 1.70809E+01-2.52663E+00 4.67889E-02-4.92805E+00-3.54872E-13-2.48886E-13
 -1       839 1.99922E+01 1.22062E+00 8.97284E-05 9.86305E-01-1.40990E-13-2.40610E-13
 -1       840 1.67993E+01-2.69528E+00 6.90319E-02 5.19912E+00 3.58449E-13-3.10498E-13
 -1       841 1.19176E+01-5.34244E-01 9.21220E-02 3.64468E+00 1.94169E-13-5.47763E-13
 -1       842 2.61646E+01-3.32065E+00-3.21285E-02 2.25163E-01-4.89748E-14-5.44361E-13
 -1       843 2.38771E+01-4.20113E+00 1.07754E-02-2.33601E+00 2.18190E-13-2.35392E-13
 -1       844 1.36060E+01-6.52613E-01 5.75369E-02 3.74079E+00-2.13713E-13 3.28898E-13
 -1       845 1.84407E+01 2.91238E+00-3.01426E-04-6.02323E-02-5.33971E-15-3.79466E-13
 -1       846 2.00034E+01-9.64989E-05-1.85717E-06-4.21088E-03 2.46410E-14-3.18152E-13
 -1       847 1.13452E+01 3.11749E-01 8.02047E-02-2.08292E+00-1.61442E-13-4.79422E-13
 -1       848 1.94888E+01 2.16967E+00-1.40937E-04-3.65179E-01 1.40938E-13-2.81580E-13
 -1       849 2.30095E+01-3.40316E+00 6.17416E-03 2.40151E+00 2.10459E-13-6.33278E-14
 -1       850 2.00042E+01 1.63224E+00-3.26001E-04 5.47306E-01-1.86583E-13-2.30931E-13
 -1       851 1.75416E+01-2.79749E+00 5.37547E-02 4.85154E+00-3.79710E-13 2.35385E-13
 -1       852 2.09674E+01-4.80943E-01 8.37632E-04-1.68079E+00-3.44633E-15-1.42652E-13
 -1       853 1.73096E+01-1.64702E+00 2.44228E-02-3.92313E+00 3.21292E-13 1.88843E-13
 -1       854 2.15690E+01-1.20796E+00 1.73978E-03-1.68219E+00-1.05345E-13-1.36313E-13
 -1       855 2.47105E+01-2.60410E+00-8.18919E-03-3.60237E-01-1.20116E-13-2.63449E-13
 -1       856 2.00019E+01 5.74551E-04-4.07459E-06-5.27099E-03 2.60966E-13 1.59605E-13
 -1       857 2.00043E+01 2.64822E-04-8.30284E-07-2.89193E-03 3.10964E-13 2.55753E-13
 -1       858 1.89650E+01 2.54642E+00-2.87243E-04-3.25789E-01 9.53377E-14-3.23238E-13
 -1       859 2.00047E+01 5.37317E-04-5.84022E-07-1.47306E-03 4.54556E-13 1.18794E-13
 -1       860 1.22354E+01 8.70703E-01 3.82550E-02 2.34891E-01 6.60023E-14 3.57607E-13
 -1       861 2.04671E+01 8.93650E-01 6.38265E-05-8.72685E-01 1.16570E-13-2.01120E-13
 -1       862 1.50201E+01-9.60799E-01 4.01157E-02-3.83401E+00 2.81928E-13 8.28513E-14
 -1       863 1.93560E+01 2.28809E+00-5.78702E-04 3.51860E-01-1.47645E-13-3.03973E-13
 -1       864 2.00018E+01-4.05830E-04 4.83956E-06-5.34105E-03 3.22905E-13 1.74892E-13
 -1       865 1.53120E+01-1.14405E+00 5.14945E-02-4.17888E+00-2.53722E-13-2.70466E-13
 -1       866 2.46223E+01-3.53025E+00-3.02433E-03 8.18477E-01-1.33667E-13-2.57166E-13
 -1       867 1.88497E+01 2.64287E+00-5.47300E-04 2.62702E-01-8.68708E-14-3.24307E-13
 -1       868 2.37071E+01-3.50719E+00 1.68524E-02-1.88255E+00-1.70233E-13 2.54436E-14
 -1       869 1.16079E+01 5.36763E-01 7.16157E-02 1.58236E+00 4.11121E-14-4.50397E-13
 -1       870 1.28603E+01-3.07307E-01 6.85718E-02-3.25228E+00 1.54163E-13 3.05566E-13
 -1       871 1.56421E+01-8.60633E-01 3.23950E-02 3.86304E+00 1.92017E-13-3.13867E-13
 -1       872 1.89686E+01 4.03197E-01 6.13034E-04 2.06950E+00-1.90558E-14-1.54613E-13
 -1       873 1.89916E+01-3.63917E-01 2.44369E-03 2.63829E+00 1.01009E-13-1.47245E-13
 -1       874 1.94013E+01-1.50499E+00 2.56917E-03 3.29545E+00 1.93484E-13-1.56614E-13
 -1       875 1.94386E+01-2.42323E+00 7.08540E-03 3.64107E+00-3.38518E-13 1.07124E-13
 -1       876 1.96544E+01-2.02074E+00 9.32492E-03-3.28426E+00 2.83348E-13 5.45527E-14
 -1       877 1.89861E+01-8.24883E-01 2.04669E-03-2.71124E+00 2.37906E-13 1.21464E-13
 -1       878 1.88054E+01-5.91360E-02-1.71179E-04-2.19273E+00 1.63534E-13 4.18690E-14
 -1       879 1.88510E+01 3.91449E-01-5.86872E-04-1.77797E+00-1.09280E-14-2.57797E-15
 -1       880 1.89951E+01 6.24827E-01-3.59048E-04-1.45119E+00 1.13577E-13-6.87481E-14
 -1       881 1.91690E+01 7.16843E-01-2.18182E-04-1.18951E+00-6.51457E-14-1.23024E-13
 -1       882 1.93392E+01 7.20928E-01-1.39479E-04-9.73876E-01-2.89585E-14-3.32765E-13
 -1       883 1.94906E+01 6.73826E-01-9.47405E-05-7.92718E-01-4.97186E-14-3.08124E-13
 -1       884 1.96177E+01 6.00279E-01-6.34905E-05-6.39165E-01-1.62065E-13-4.29919E-13
 -1       885 1.97205E+01 5.16263E-01-4.24880E-05-5.09260E-01-6.68890E-14-8.09034E-13
 -1       886 1.98010E+01 4.32054E-01-2.53969E-05-4.00288E-01 1.33044E-13-7.11460E-13
 -1       887 1.98625E+01 3.53430E-01-1.49045E-05-3.09892E-01 4.78042E-14-6.31452E-13
 -1       888 1.99085E+01 2.83365E-01-8.27399E-06-2.35986E-01-2.32203E-13-4.79848E-13
 -1       889 1.99420E+01 2.23012E-01-3.41430E-06-1.76475E-01-7.46968E-14-6.70577E-13
 -1       890 1.99659E+01 1.72379E-01-3.97177E-07-1.29342E-01-5.91073E-14-4.17354E-13
 -1       891 1.99823E+01 1.30911E-01 1.95219E-06-9.26324E-02-2.71195E-14-4.07535E-13
 -1       892 1.99933E+01 9.76246E-02 3.04494E-06-6.44949E-02 1.96868E-14-3.41404E-13
 -1       893 2.00002E+01 7.13894E-02 3.37948E-06-4.33068E-02 8.73910E-14 8.89093E-14
 -1       894 2.00043E+01 5.10768E-02 3.39096E-06-2.76532E-02 3.33821E-13 9.83789E-14
 -1       895 2.00064E+01 3.56222E-02 3.19276E-06-1.63283E-02 3.93941E-13 5.16196E-14
 -1       896 2.00070E+01 2.40646E-02 3.15341E-06-8.33159E-03 3.01370E-13-3.19174E-14
 -1       897 2.00068E+01 1.55554E-02 2.32112E-06-2.85383E-03-1.11067E-13 7.56723E-14
 -1       898 2.00061E+01 9.31690E-03-5.20218E-06 7.68138E-04-5.71796E-14 1.65561E-13
 -1       899 2.00050E+01 4.90094E-03 1.72126E-06 2.97012E-03-5.75774E-14 3.39520E-13
 -1       900 2.00042E+01 2.19859E-03 2.47769E-06 3.85715E-03 1.76468E-13 2.32688E-13
 -1       901 1.40658E+01 3.42378E-01 3.02834E-02 2.38852E+00-1.35212E-13 3.99907E-13
 -1       902 2.17788E+01-2.59539E+00 9.00863E-03 2.28738E+00-2.04709E-13-1.51344E-13
 -1       903 1.96592E+01-6.96478E-02 1.06487E-04 1.76675E+00-1.68138E-13-6.07506E-14
 -1       904 1.95557E+01 2.79743E-01-8.79018E-05 1.50193E+00-1.71889E-13-1.76785E-14
 -1       905 1.95571E+01 4.66827E-01 1.45965E-05 1.26147E+00-6.37930E-14 1.49350E-13
 -1       906 1.96082E+01 5.43472E-01 3.79459E-05 1.04828E+00-6.41167E-14 3.45686E-13
 -1       907 1.96775E+01 5.49722E-01 2.72306E-05 8.61248E-01-1.77232E-13 3.11762E-13
 -1       908 1.97479E+01 5.14444E-01 1.66292E-05 6.98695E-01-1.37405E-13 3.71200E-13
 -1       909 1.98112E+01 4.57501E-01 1.32053E-05 5.59127E-01 6.05607E-14 1.29074E-13
 -1       910 1.98641E+01 3.92145E-01 1.19014E-05 4.40943E-01 2.22764E-13 2.14917E-13
 -1       911 1.99063E+01 3.26551E-01 8.77358E-06 3.42328E-01 7.63380E-14 2.34000E-13
 -1       912 1.99386E+01 2.65411E-01 4.96225E-06 2.61355E-01 1.72220E-13 1.61364E-13
 -1       913 1.99625E+01 2.11127E-01 2.63130E-06 1.95948E-01 8.30064E-14 2.39058E-13
 -1       914 1.99795E+01 1.64610E-01 2.13280E-06 1.44008E-01-9.09302E-14 3.19788E-13
 -1       915 1.99912E+01 1.25905E-01 2.12387E-06 1.03450E-01 3.53677E-14 3.24546E-13
 -1       916 1.99989E+01 9.44701E-02 1.61592E-06 7.22943E-02-3.50501E-13 4.85898E-13
 -1       917 2.00035E+01 6.94631E-02 9.73801E-07 4.87791E-02-4.45152E-13 5.18248E-13
 -1       918 2.00061E+01 4.99573E-02 5.40266E-07 3.13650E-02-3.29528E-13 3.20618E-13
 -1       919 2.00071E+01 3.50277E-02 2.61093E-07 1.87333E-02 4.39326E-14 2.03578E-13
 -1       920 2.00072E+01 2.38070E-02 4.70154E-08 9.78569E-03 2.71494E-13 3.61225E-13
 -1       921 2.00066E+01 1.55130E-02-1.23039E-07 3.62869E-03 3.29426E-13 4.20152E-13
 -1       922 2.00057E+01 9.45984E-03 1.11147E-07-4.41553E-04 2.09786E-13 6.87907E-14
 -1       923 2.00047E+01 5.07450E-03 2.52363E-06-2.96122E-03 1.93542E-13-6.27592E-13
 -1       924 2.00053E+01 3.05017E-03-5.22391E-07 2.59493E-03-6.26415E-14 1.14653E-13
 -1       925 1.98279E+01 6.45742E-01-4.46758E-04-1.47091E+00 1.85621E-14-2.19860E-13
 -1       926 1.99580E+01-6.41821E-01 8.13246E-04 2.04087E+00-9.02988E-14 1.04049E-14
 -1       927 2.05903E+01-1.48703E+00 9.51889E-04 2.26799E+00-2.45160E-13 1.10502E-13
 -1       928 2.01263E+01-2.66990E+00 4.13286E-03-3.69464E+00-2.81847E-13-2.06869E-13
 -1       929 2.19026E+01-2.46185E+00-1.93501E-03-2.33404E+00-2.47084E-13-1.05366E-13
 -1       930 1.85299E+01 2.85726E+00-3.33612E-04 1.13459E-01-5.29644E-14-3.38954E-13
 -1       931 1.98007E+01-2.58200E+00 1.83599E-02 3.91131E+00 2.69018E-13-2.04815E-13
 -1       932 1.92754E+01 1.40045E+00 8.10416E-05 1.12761E+00-8.08796E-14-2.12225E-13
 -1       933 1.91002E+01 9.53522E-01 2.50402E-04 1.57695E+00-6.63215E-14-1.85456E-13
 -1       934 1.63600E+01-8.52212E-01 2.37956E-02 3.50717E+00-1.83819E-13 1.42681E-13
 -1       935 1.86108E+01 2.26147E+00-2.37591E-04-5.22593E-01 5.29390E-14-3.30663E-13
 -1       936 1.23079E+01 9.04633E-01 4.35812E-02-2.21930E-01-5.13789E-14-4.06959E-13
 -1       937 1.97774E+01 1.48987E+00-2.59270E-04-7.65940E-01 1.25478E-13-2.37680E-13
 -1       938 2.00058E+01 3.66255E-03 3.15134E-07 1.36518E-03 2.44683E-13-3.19990E-13
 -1       939 1.99440E+01 5.68056E-02-4.81056E-04-1.85620E+00 1.80513E-15-1.87635E-13
 -1       940 2.08226E+01-1.35391E+00 1.02280E-03-2.30124E+00-1.65631E-13-1.97034E-13
 -1       941 1.82827E+01 2.47564E+00-1.08066E-04-2.50158E-01 1.20968E-14-3.61858E-13
 -1       942 2.00041E+01 2.65757E-03-1.25787E-06-3.93591E-03 8.98270E-14-5.56033E-13
 -1       943 1.93343E+01 1.82472E+00-8.83824E-05 7.32808E-01-1.30971E-13-2.36529E-13
 -1       944 2.00060E+01 3.95154E-03 2.46724E-07 1.47010E-04 3.97945E-13 9.90046E-15
 -1       945 2.00050E+01 2.98067E-03-6.29703E-07-3.01322E-03 3.92869E-13 5.79942E-13
 -1       946 1.42492E+01 2.75001E-02 3.30028E-02-2.97833E+00-1.73246E-13-3.42673E-13
 -1       947 1.33343E+01 6.10543E-01 3.75327E-02-1.73056E+00 1.16416E-13 2.41053E-13
 -1       948 1.87503E+01 2.20004E+00 1.35874E-03 5.52872E-01-5.26247E-14-2.47145E-13
 -1       949 2.00059E+01 3.80879E-03-1.65369E-06-1.05703E-03 5.76367E-13 1.64894E-13
 -1       950 1.98975E+01 1.03622E+00 1.01673E-04-1.10555E+00 9.26028E-14-2.37603E-13
 -1       951 1.45020E+01 2.76219E-01 3.25788E-02 2.64644E+00 1.09702E-13-3.98456E-13
 -1       952 1.62485E+01-3.18015E-01 1.10841E-02-2.97966E+00 1.87475E-13 1.44183E-13
 -1       953 1.85533E+01-1.67557E+00 2.41344E-02-3.71750E+00-2.13011E-13-2.10124E-13
 -1       954 1.77419E+01-6.34551E-01 4.55729E-03-2.94704E+00 2.03437E-13 1.70889E-13
 -1       955 1.84339E+01 1.56753E+00-1.62787E-03 1.10448E+00-8.52852E-14-1.89437E-13
 -1       956 1.60977E+01 1.29564E-01 3.55245E-03 2.47643E+00-1.59031E-13 5.78465E-14
 -1       957 1.82359E+01 2.51322E+00 1.24738E-04 7.81602E-02-7.54396E-15-3.41885E-13
 -1       958 1.70955E+01-1.59522E-01 1.24942E-02 2.94710E+00 1.27824E-13-2.48448E-13
 -1       959 1.78762E+01 1.17953E-01-4.89847E-04-2.24372E+00 2.18183E-13 1.67733E-13
 -1       960 1.81554E+01 5.47014E-01-1.07732E-03-1.74042E+00-7.82153E-14 1.04212E-13
 -1       961 1.84665E+01 7.61761E-01-5.68833E-04-1.37823E+00 5.83168E-14 7.48959E-14
 -1       962 1.87612E+01 8.40242E-01-3.48419E-04-1.10949E+00-1.20111E-13 2.50559E-15
 -1       963 1.90221E+01 8.33558E-01-2.28311E-04-8.99519E-01-5.27077E-14-3.98990E-14
 -1       964 1.92438E+01 7.76146E-01-1.64740E-04-7.29473E-01-1.29651E-13-1.10968E-13
 -1       965 1.94263E+01 6.92206E-01-1.15921E-04-5.88339E-01-1.71522E-13-3.46507E-13
 -1       966 1.95732E+01 5.97165E-01-9.75823E-05-4.70014E-01-2.78719E-13-2.50932E-13
 -1       967 1.96890E+01 5.01933E-01-8.30452E-05-3.71092E-01 1.32960E-13-4.47815E-13
 -1       968 1.97785E+01 4.12612E-01-6.92518E-05-2.88810E-01 1.79297E-13-4.40898E-13
 -1       969 1.98466E+01 3.32506E-01-5.74712E-05-2.21274E-01-1.22704E-13-4.17038E-13
 -1       970 1.98973E+01 2.63107E-01-4.42557E-05-1.66601E-01-1.06191E-13-4.22452E-13
 -1       971 1.99343E+01 2.04459E-01-3.68221E-05-1.23026E-01 3.83008E-14-3.95957E-13
 -1       972 1.99607E+01 1.56151E-01-3.01200E-05-8.88989E-02 1.14470E-13-4.02343E-13
 -1       973 1.99790E+01 1.17150E-01-2.36789E-05-6.25528E-02 1.99286E-14-3.98764E-14
 -1       974 1.99913E+01 8.62269E-02-1.83310E-05-4.25764E-02 1.52161E-13 1.81910E-13
 -1       975 1.99991E+01 6.21453E-02-1.39018E-05-2.77131E-02 2.30136E-13 1.03508E-13
 -1       976 2.00037E+01 4.37175E-02-1.03394E-05-1.68745E-02 3.41351E-13 9.99686E-14
 -1       977 2.00061E+01 2.98561E-02-7.56628E-06-9.15302E-03 4.40683E-13 2.82517E-13
 -1       978 2.00069E+01 1.95844E-02-6.63445E-06-3.79772E-03-8.84225E-14 2.61859E-13
 -1       979 2.00067E+01 1.21240E-02 4.62844E-06-2.14320E-04-1.25211E-13 1.23908E-13
 -1       980 2.00059E+01 6.56242E-03-1.91833E-05 1.96800E-03 2.12048E-13 2.74229E-13
 -1       981 2.00056E+01 3.50750E-03-7.32916E-07-2.02965E-03 5.79408E-13 3.57595E-13
 -1       982 1.88811E+01 6.19668E-01-2.49353E-04 1.30268E+00-1.40500E-13 9.16367E-14
 -1       983 1.87218E+01 4.05958E-01-7.37502E-04 1.62382E+00-2.21992E-13 9.74889E-14
 -1       984 1.92427E+01 7.14940E-01-5.64596E-05 8.46840E-01-2.62552E-13 8.54664E-14
 -1       985 1.94042E+01 6.72678E-01-3.52769E-05 6.80770E-01-1.73849E-13 1.27596E-13
 -1       986 1.95429E+01 6.03118E-01-2.84432E-05 5.43306E-01 1.50043E-14 1.45211E-13
 -1       987 1.96576E+01 5.21926E-01-1.95052E-05 4.29401E-01 4.43615E-14 2.53911E-13
 -1       988 1.97498E+01 4.39221E-01-1.65831E-05 3.35182E-01 2.19084E-14 4.01996E-13
 -1       989 1.98222E+01 3.60805E-01-1.53731E-05 2.57956E-01 1.33041E-13 5.49161E-13
 -1       990 1.98777E+01 2.90224E-01-1.15524E-05 1.95441E-01 8.83667E-14 5.06886E-13
 -1       991 1.99192E+01 2.28832E-01-9.44555E-06 1.45472E-01-9.90135E-14 5.01001E-13
 -1       992 1.99495E+01 1.77062E-01-5.93919E-06 1.06176E-01-6.32134E-14 4.47959E-13
 -1       993 1.99710E+01 1.34526E-01-4.78800E-06 7.56800E-02-2.83739E-13 4.50148E-13
 -1       994 1.99858E+01 1.00258E-01-3.97817E-06 5.23894E-02-3.46221E-13 2.07080E-13
 -1       995 1.99956E+01 7.31993E-02-3.09680E-06 3.49257E-02-1.18005E-13 1.66641E-13
 -1       996 2.00017E+01 5.22370E-02-2.20960E-06 2.20724E-02-1.75533E-14 4.44390E-15
 -1       997 2.00051E+01 3.62897E-02-1.50932E-06 1.28090E-02 9.76945E-14-2.39153E-13
 -1       998 2.00066E+01 2.43692E-02-8.91098E-07 6.29506E-03 2.40386E-13 1.33201E-14
 -1       999 2.00069E+01 1.55877E-02-5.56057E-07 1.85557E-03 3.85261E-13 4.99493E-13
 -1      1000 2.00063E+01 9.19605E-03 2.54886E-06-1.01495E-03 4.53463E-13 6.11617E-13
 -1      1001 1.91412E+01 1.91476E+00-5.50597E-04-6.96482E-01 8.53507E-14-2.52548E-13
 -1      1002 1.40589E+01 1.04440E+00 1.09938E-02-3.67933E-01-2.84987E-14 3.64526E-13
 -1      1003 1.48399E+01 8.74698E-01 6.06808E-03 1.34371E+00 2.68267E-14 2.03702E-13
 -1      1004 1.46405E+01 1.83816E-01 2.05499E-02-2.53600E+00 1.90081E-13 1.31956E-14
 -1      1005 1.86441E+01-7.27008E-04 3.86902E-05 2.03895E+00-9.02407E-14 1.25877E-13
 -1      1006 1.90635E+01 7.08168E-01-9.66323E-05 1.04988E+00-2.10055E-13-5.25123E-14
 -1      1007 2.02573E+01-5.76259E-01 7.59443E-04-2.12703E+00-5.20846E-14-2.20025E-13
 -1      1008 1.86261E+01 1.87934E+00 3.53350E-03 8.07298E-01-6.57973E-14-1.98875E-13
 -1      1009 2.00057E+01 5.81331E-03-1.16918E-06-2.26876E-03 3.00120E-13 8.07773E-13
 -1      1010 1.80376E+01 1.13456E+00 4.07082E-04 1.56080E+00-4.63481E-14-2.18415E-13
 -1      1011 1.89562E+01-1.42198E+00 6.15885E-03 3.09377E+00-3.67874E-13 3.27303E-14
 -1      1012 1.83924E+01 2.41472E+00-9.67314E-04 3.24844E-01-2.26116E-15-3.26635E-13
 -1      1013 1.75481E+01 6.05401E-01 9.14814E-04 2.13476E+00 4.36724E-14-2.49303E-13
 -1      1014 1.99877E+01-1.59615E+00 6.53238E-03-2.97046E+00-2.01786E-13-1.73012E-13
 -1      1015 1.41038E+01 9.61669E-01 2.15383E-02 1.30460E+00 4.99458E-14-3.08303E-13
 -1      1016 1.81135E+01 2.02456E+00-4.57528E-04-6.02587E-01 3.84031E-14-3.07127E-13
 -1      1017 2.00066E+01 7.42486E-03 2.94259E-06 1.25178E-03 2.00461E-13-2.88519E-13
 -1      1018 1.71111E+01-6.12863E-01 1.53065E-02-3.29732E+00-1.60116E-13-2.49872E-13
 -1      1019 1.91648E+01 1.45797E+00-2.66731E-04-1.04565E+00 8.38034E-14-2.12753E-13
 -1      1020 1.40883E+01 8.67506E-01 1.63992E-02-1.52445E+00-1.22416E-13-3.71838E-13
 -1      1021 2.00063E+01 6.76993E-03 4.38255E-06-1.50252E-03 5.54409E-13 4.55221E-13
 -1      1022 1.46632E+01 8.75404E-01 1.04591E-02-1.25699E+00-3.85141E-15 1.63837E-13
 -1      1023 2.00068E+01 8.34195E-03-1.86443E-07-2.60185E-04 2.97346E-13-1.25834E-13
 -1      1024 1.86647E+01-5.65699E-01-1.24447E-04 2.51191E+00-8.82702E-14 5.57546E-14
 -1      1025 1.85757E+01 1.78168E+00 1.14305E-03-8.81613E-01 5.21951E-14-2.75752E-13
 -1      1026 1.68455E+01 3.61461E-01 1.45818E-03-2.14717E+00 1.90293E-13-5.43923E-14
 -1      1027 1.74661E+01-2.65626E-01 4.00024E-03 2.61895E+00-1.39035E-13-1.12074E-13
 -1      1028 1.89694E+01 7.58196E-01 5.46648E-04-1.67524E+00-8.52473E-15-1.98342E-13
 -1      1029 1.57308E+01 6.26973E-01 4.84576E-03-1.84585E+00 8.94003E-14-4.34113E-14
 -1      1030 2.00068E+01 8.23148E-03-1.11134E-06 4.36368E-04 7.27990E-14-3.40721E-13
 -1      1031 2.00072E+01 1.34122E-02-1.44234E-06-1.32391E-04 1.34181E-13-2.18237E-13
 -1      1032 1.74241E+01 7.30227E-01-1.19858E-03-1.60017E+00-1.14129E-15-1.38148E-13
 -1      1033 1.79321E+01 9.06551E-01-4.21736E-04-1.23008E+00-6.09715E-14 5.16525E-14
 -1      1034 1.83590E+01 9.61891E-01-3.12103E-04-9.73872E-01-4.41160E-14-7.77381E-14
 -1      1035 1.87136E+01 9.40812E-01-2.18095E-04-7.82076E-01-2.28357E-14 5.78047E-14
 -1      1036 1.90053E+01 8.72010E-01-1.38943E-04-6.32045E-01-2.59257E-13-1.90477E-13
 -1      1037 1.92415E+01 7.78288E-01-3.72444E-05-5.10357E-01-8.48796E-14-8.57179E-14
 -1      1038 1.94306E+01 6.73213E-01-4.89204E-05-4.08881E-01-2.23281E-13 7.52528E-14
 -1      1039 1.95797E+01 5.68183E-01-5.99066E-05-3.24449E-01-9.93628E-15 6.59132E-15
 -1      1040 1.96958E+01 4.69282E-01-5.23693E-05-2.53847E-01 7.87668E-14-2.29800E-13
 -1      1041 1.97850E+01 3.79981E-01-3.90581E-05-1.95652E-01-1.95596E-14-4.63603E-13
 -1      1042 1.98522E+01 3.02244E-01-1.39480E-05-1.48339E-01-5.53102E-14-3.58671E-13
 -1      1043 1.99021E+01 2.36038E-01-1.70290E-05-1.10309E-01-2.93249E-14-2.34575E-13
 -1      1044 1.99382E+01 1.81228E-01-1.90793E-05-8.03933E-02 1.89634E-13-1.77477E-13
 -1      1045 1.99638E+01 1.36730E-01-1.57524E-05-5.71050E-02 1.55513E-13 2.24954E-14
 -1      1046 1.99814E+01 1.01240E-01-1.19437E-05-3.93312E-02 5.12100E-14 8.19703E-14
 -1      1047 1.99931E+01 7.34503E-02-8.94796E-06-2.60205E-02 1.01089E-13-1.44003E-13
 -1      1048 2.00004E+01 5.20714E-02-6.52094E-06-1.62410E-02 5.40069E-13-2.63319E-14
 -1      1049 2.00045E+01 3.58949E-02-6.53936E-06-9.21500E-03 3.89227E-13 2.80327E-16
 -1      1050 2.00065E+01 2.39010E-02-2.22581E-06-4.29588E-03-9.41342E-14-1.78257E-13
 -1      1051 2.00071E+01 1.49821E-02 5.89185E-06-9.40431E-04-1.25780E-13-3.09248E-13
 -1      1052 1.94349E+01 6.51141E-01-7.55907E-05 3.63605E-01-1.38742E-13 1.83111E-13
 -1      1053 2.00067E+01 7.69207E-03 3.25379E-06-8.24389E-04 5.11376E-13 7.59202E-15
 -1      1054 1.80851E+01 8.15350E-01-1.23465E-03 1.21802E+00-1.81045E-13 6.31920E-14
 -1      1055 1.59775E+01 7.74346E-01 7.45098E-03 1.98238E+00 4.70326E-14-3.31421E-13
 -1      1056 1.78553E+01 2.18450E+00-7.32214E-05-1.31566E-01-4.67149E-15-3.56100E-13
 -1      1057 1.92545E+01 7.48592E-01-5.51124E-05 4.61398E-01-1.59931E-13 6.35412E-14
 -1      1058 1.90347E+01 8.30573E-01-1.64295E-04 5.83773E-01-2.47868E-13-1.09637E-13
 -1      1059 1.95785E+01 5.52973E-01-1.14211E-04 2.83915E-01-1.26632E-13 3.81235E-13
 -1      1060 1.96928E+01 4.58309E-01-8.86578E-05 2.19111E-01 1.32009E-14 4.50846E-13
 -1      1061 1.97817E+01 3.71808E-01-5.49887E-05 1.67095E-01 1.69214E-13 5.32653E-13
 -1      1062 1.98489E+01 2.96440E-01-1.71195E-05 1.25447E-01 6.16266E-14 4.48169E-13
 -1      1063 1.98994E+01 2.31401E-01-2.73004E-05 9.26945E-02-3.06038E-14 2.44408E-13
 -1      1064 1.99360E+01 1.77841E-01-3.65708E-05 6.70145E-02-1.50121E-13 2.29108E-13
 -1      1065 1.99623E+01 1.34063E-01-2.55611E-05 4.72281E-02-1.32984E-13 3.64240E-13
 -1      1066 1.99804E+01 9.91172E-02-1.96082E-05 3.22877E-02-1.38986E-13 3.09237E-13
 -1      1067 1.99925E+01 7.17593E-02-1.45359E-05 2.11713E-02 6.41326E-14 2.91739E-14
 -1      1068 2.00001E+01 5.07223E-02-1.04928E-05 1.30486E-02 1.82924E-13-1.71612E-13
 -1      1069 2.00044E+01 3.48183E-02-6.58307E-06 7.24722E-03-5.02586E-14 4.63759E-14
 -1      1070 2.00065E+01 2.30062E-02-3.34301E-06 3.20252E-03-1.25966E-13 3.85252E-13
 -1      1071 2.00070E+01 1.43905E-02-3.08974E-07 5.14719E-04 2.57572E-13 5.22742E-13
 -1      1072 1.75786E+01 1.68918E+00-2.33756E-03 8.52781E-01-8.67415E-14-2.56423E-13
 -1      1073 1.54815E+01 1.18137E+00 5.64744E-03 1.65606E-01 4.48368E-14 1.64747E-13
 -1      1074 2.00068E+01 1.02186E-02 7.10076E-07-6.57289E-04 4.36401E-13 6.66177E-13
 -1      1075 2.00072E+01 1.41556E-02 9.48145E-07-1.00915E-04 1.69970E-13-7.68105E-14
 -1      1076 1.76627E+01 6.17626E-01-3.21294E-03 1.60975E+00-1.21624E-13 1.06285E-13
 -1      1077 1.87675E+01 8.86252E-01-3.10349E-04 7.38530E-01-2.56930E-13 4.81179E-14
 -1      1078 1.84515E+01 8.91654E-01-5.06976E-04 9.41562E-01-1.06790E-13 1.35540E-13
 -1      1079 1.89777E+01 2.01566E-01-3.04557E-04-2.10729E+00-3.23738E-14-1.87701E-13
 -1      1080 1.63478E+01 7.31961E-01 5.41316E-03 1.62450E+00-1.52633E-13 4.72243E-14
 -1      1081 1.79114E+01 2.16446E+00 9.92954E-04 2.70112E-01-1.17095E-14-3.28969E-13
 -1      1082 1.87572E+01-7.74337E-01 5.44348E-03-2.89947E+00-1.52555E-13-1.64843E-13
 -1      1083 1.74308E+01 1.83446E+00-7.88132E-04-5.42944E-01 6.36408E-15-2.65329E-13
 -1      1084 1.61594E+01 3.91944E-01 7.98185E-03-2.43085E+00-1.37121E-13-3.13881E-13
 -1      1085 1.68009E+01 1.35246E+00 1.15371E-03 1.21143E+00-4.27355E-14-2.71090E-13
 -1      1086 2.00071E+01 1.36378E-02-3.15809E-08 2.99285E-06 4.79880E-14-2.88733E-13
 -1      1087 1.47175E+01 1.29059E+00 7.92254E-03-2.46619E-02-1.41827E-14-2.71963E-13
 -1      1088 1.79140E+01 9.33635E-01-2.07350E-03-1.70120E+00-2.21602E-14-2.85017E-13
 -1      1089 1.52977E+01 1.05666E+00 3.16701E-03-8.27067E-01 1.75727E-13 7.13873E-14
 -1      1090 1.66665E+01 9.21995E-01-8.41426E-05-1.32573E+00 1.06558E-13-2.13311E-14
 -1      1091 1.75041E+01 2.66502E-01 8.73948E-04 2.05887E+00-1.08015E-13-4.14419E-14
 -1      1092 1.96420E+01-7.05747E-01 4.24425E-03-2.51438E+00-1.06843E-13-1.30187E-13
 -1      1093 1.79144E+01 1.59585E+00-4.50734E-06-1.02062E+00 4.02824E-14-2.86365E-13
 -1      1094 1.77940E+01 1.08245E+00-3.51108E-04 6.76963E-01-2.35879E-13-1.64450E-15
 -1      1095 1.73889E+01 1.05088E+00 4.86568E-04-9.96961E-01-4.46074E-14-2.27000E-14
 -1      1096 1.79604E+01 1.07663E+00-3.50512E-04-7.77654E-01-6.67390E-14 2.81187E-14
 -1      1097 1.84118E+01 1.04089E+00-1.95338E-04-6.18592E-01-7.37710E-15 5.74366E-14
 -1      1098 1.87737E+01 9.60794E-01-1.07761E-04-4.99012E-01-2.18913E-13-1.17312E-13
 -1      1099 1.90622E+01 8.58128E-01-1.31055E-05-4.04733E-01-9.25705E-14 8.44335E-15
 -1      1100 1.92917E+01 7.44962E-01 2.68836E-05-3.25390E-01-1.67985E-13-2.36504E-13
 -1      1101 1.94723E+01 6.31535E-01-6.15663E-05-2.60267E-01-1.09904E-14-8.24974E-15
 -1      1102 1.96137E+01 5.24367E-01-6.87707E-05-2.04909E-01-3.31643E-14-5.31280E-14
 -1      1103 1.97234E+01 4.26575E-01-4.04829E-05-1.58969E-01-1.54315E-13-1.36364E-13
 -1      1104 1.98067E+01 3.41006E-01-9.34003E-06-1.21612E-01-5.13798E-14-2.31445E-13
 -1      1105 1.98690E+01 2.67692E-01-4.71520E-06-9.10134E-02 7.65046E-14-3.06451E-13
 -1      1106 1.99146E+01 2.06623E-01-2.40434E-05-6.70069E-02 2.05636E-13-7.20996E-14
 -1      1107 1.99475E+01 1.56788E-01-2.33558E-05-4.80338E-02 1.60212E-13-1.52784E-13
 -1      1108 1.99706E+01 1.16759E-01-1.76412E-05-3.34653E-02 2.18456E-13-2.51688E-13
 -1      1109 1.99862E+01 8.52478E-02-1.39670E-05-2.24838E-02 8.69943E-14 5.42820E-14
 -1      1110 1.99963E+01 6.08799E-02-1.08381E-05-1.43506E-02 4.48838E-13-3.93996E-14
 -1      1111 2.00024E+01 4.23477E-02-7.04349E-06-8.44991E-03 2.98193E-13-5.25146E-13
 -1      1112 2.00056E+01 2.85605E-02-6.62779E-06-4.31723E-03 2.82813E-14-8.10094E-13
 -1      1113 2.00068E+01 2.01430E-02 4.67008E-06-1.62535E-03-8.17592E-14-5.34865E-13
 -1      1114 1.95608E+01 5.51786E-01-3.68978E-05 1.41318E-01 5.33104E-14-5.85788E-14
 -1      1115 1.92155E+01 7.70850E-01 3.03974E-04 2.36643E-01-2.76514E-13 9.96715E-15
 -1      1116 1.89740E+01 8.79908E-01 1.26590E-03 3.08445E-01-2.64890E-13 6.65215E-14
 -1      1117 1.96817E+01 4.51650E-01-3.51484E-05 1.08124E-01 8.08507E-14 4.79505E-14
 -1      1118 1.97776E+01 3.61641E-01 3.53762E-04 8.17398E-02-1.76100E-15 1.19605E-13
 -1      1119 1.98467E+01 2.85254E-01 7.90257E-05 5.99480E-02 4.61432E-14 3.71533E-13
 -1      1120 1.98973E+01 2.22032E-01 7.94513E-06 4.35845E-02-7.80517E-14 5.15239E-13
 -1      1121 1.99354E+01 1.68982E-01-3.47753E-07 3.12681E-02-1.09964E-13 2.40595E-13
 -1      1122 1.99623E+01 1.26319E-01 2.06020E-06 2.17983E-02 3.02655E-15-1.82086E-13
 -1      1123 1.99808E+01 9.25898E-02 3.57346E-06 1.46711E-02 6.71266E-14-2.37590E-13
 -1      1124 1.99930E+01 6.63961E-02 4.06146E-06 9.41257E-03 4.78924E-14 1.60973E-13
 -1      1125 2.00005E+01 4.64018E-02 2.27803E-06 5.61236E-03-9.63135E-14 2.72667E-13
 -1      1126 2.00048E+01 3.13688E-02-1.58962E-05 2.88420E-03-7.70933E-14 2.59060E-13
 -1      1127 2.00068E+01 2.02468E-02 6.21455E-06 1.01171E-03 2.54508E-13-2.35979E-13
 -1      1128 2.00065E+01 2.15665E-02-9.37290E-06-6.78424E-04 2.10930E-13-4.40752E-13
 -1      1129 1.72473E+01 1.85897E+00-5.38148E-04 2.73193E-01-5.17560E-14-3.10308E-13
 -1      1130 1.76730E+01 2.51269E-01-1.29303E-03-2.38086E+00-1.11844E-13-2.35463E-13
 -1      1131 1.94054E+01 6.61009E-01-2.52044E-05 1.82892E-01-1.38863E-13-1.77717E-14
 -1      1132 1.72146E+01 1.04465E+00 4.16180E-03 9.07775E-01-5.83970E-14-3.53212E-14
 -1      1133 1.86558E+01 9.81156E-01-9.56428E-05 3.97267E-01-1.65424E-13 1.70310E-13
 -1      1134 1.70204E+01 1.35992E+00 5.00255E-04-1.19745E+00-2.71885E-14-2.65950E-13
 -1      1135 1.82740E+01 1.05293E+00-2.23992E-05 5.14966E-01-2.16219E-13 2.23710E-13
 -1      1136 1.65755E+01 1.12734E+00-4.72863E-03 7.08509E-01-5.68771E-14-2.90119E-14
 -1      1137 1.57713E+01 1.18410E+00 1.01750E-02-1.22764E+00-7.26370E-14-2.83269E-13
 -1      1138 1.57459E+01 1.36401E+00-2.70052E-03 7.77493E-01-3.17853E-14-2.46254E-13
 -1      1139 1.65786E+01 1.22198E+00 2.97441E-03-2.33257E-01-1.83720E-14 8.23754E-14
 -1      1140 1.63610E+01 1.63051E+00 6.03273E-04-6.18123E-02-2.54197E-14-2.63219E-13
 -1      1141 1.73040E+01 1.22784E+00 5.20698E-04-3.32640E-01-1.21116E-13 9.33404E-14
 -1      1142 1.79290E+01 1.16812E+00 8.40379E-05-2.64289E-01-1.43554E-13-8.29633E-14
 -1      1143 1.84015E+01 1.08217E+00-2.88795E-05-2.22310E-01-1.67823E-13-2.00988E-13
 -1      1144 1.87738E+01 9.75103E-01 6.29558E-04-1.83251E-01-2.02564E-13-1.46685E-13
 -1      1145 1.90817E+01 8.48149E-01 1.27334E-03-1.53190E-01-2.19483E-13-2.77351E-13
 -1      1146 1.92964E+01 7.32709E-01 1.75902E-04-1.27389E-01 1.13483E-13-1.02967E-13
 -1      1147 1.94772E+01 6.14256E-01-1.04412E-05-1.01319E-01-3.08945E-14-1.13837E-13
 -1      1148 1.96188E+01 5.05285E-01 4.60431E-06-8.11143E-02-1.71799E-13-1.32266E-13
 -1      1149 1.97283E+01 4.08140E-01 1.78409E-04-6.25268E-02-1.20732E-13-6.12885E-14
 -1      1150 1.98146E+01 3.22064E-01 4.14236E-04-4.80960E-02-2.02677E-13 3.50376E-14
 -1      1151 1.98725E+01 2.52398E-01 2.13713E-05-3.68039E-02 4.83685E-14-2.30207E-13
 -1      1152 1.99175E+01 1.93605E-01 5.53005E-06-2.64324E-02 3.36185E-13-2.73614E-13
 -1      1153 1.99499E+01 1.45752E-01 4.78004E-06-1.89490E-02 2.86958E-13-1.06488E-13
 -1      1154 1.99725E+01 1.07707E-01 5.56160E-06-1.31282E-02 1.60777E-13 6.98524E-14
 -1      1155 1.99877E+01 7.79695E-02 5.33675E-06-8.71977E-03-2.07459E-14-1.29897E-13
 -1      1156 1.99974E+01 5.51311E-02 5.92602E-06-5.46532E-03-4.87092E-15-5.89632E-13
 -1      1157 2.00031E+01 3.79096E-02 1.99574E-06-3.10514E-03 7.86465E-15-8.34030E-13
 -1      1158 2.00054E+01 2.90168E-02 5.40567E-05-1.49312E-03 1.18242E-13-7.90550E-13
 -1      1159 1.90205E+01 8.62639E-01-3.22096E-03 4.51066E-02-1.76399E-13-3.95560E-14
 -1      1160 1.97972E+01 3.31490E-01-8.90318E-04 6.69683E-03-1.69335E-13 6.81745E-14
 -1      1161 2.81398E+01 9.12500E+00 2.27664E+00-6.45137E+00-3.79141E-14 1.69348E-12
 -1      1162 2.11066E+01 6.40782E+00 2.52781E-01-3.48448E+00-2.32314E-14 4.07112E-13
 -1      1163 1.99139E+01 6.00495E+00 1.02586E-01-2.34555E+00-1.88322E-14-1.89003E-13
 -1      1164 1.92970E+01 5.80978E+00 6.89193E-02-1.64172E+00-1.28231E-14-4.93753E-13
 -1      1165 1.88554E+01 5.67178E+00 5.05667E-02-1.12899E+00-9.22873E-15-6.47469E-13
 -1      1166 1.85148E+01 5.56532E+00 3.62587E-02-7.45679E-01-6.83481E-15-7.23380E-13
 -1      1167 1.82639E+01 5.48684E+00 2.56083E-02-4.52216E-01-4.28824E-15-7.59182E-13
 -1      1168 1.81086E+01 5.43827E+00 1.89325E-02-2.14856E-01-1.60635E-15-7.78199E-13
 -1      1169 1.80600E+01 5.42312E+00 1.70389E-02-5.46718E-03-6.24500E-16-7.90657E-13
 -1      1170 1.81199E+01 5.44198E+00 2.00293E-02 2.07141E-01 1.53176E-15-7.92581E-13
 -1      1171 1.82831E+01 5.49319E+00 2.75585E-02 4.53555E-01 3.54231E-15-7.72602E-13
 -1      1172 1.85374E+01 5.57293E+00 3.90661E-02 7.60143E-01 5.98133E-15-7.21110E-13
 -1      1173 1.88746E+01 5.67832E+00 5.31157E-02 1.15825E+00 9.95731E-15-6.36663E-13
 -1      1174 1.93074E+01 5.81316E+00 6.98256E-02 1.68655E+00 1.39055E-14-4.83257E-13
 -1      1175 1.99062E+01 6.00089E+00 9.67236E-02 2.40159E+00 1.96232E-14-1.90318E-13
 -1      1176 2.10003E+01 6.35919E+00 1.96976E-01 3.47828E+00 2.20657E-14 3.92009E-13
 -1      1177 2.54901E+01 8.07141E+00 1.41445E+00 5.60460E+00 4.92384E-14 1.63694E-12
 -1      1178 2.88598E+01 3.49280E+00 1.14086E+00-4.05667E+00-1.63786E-13 2.52393E-12
 -1      1179 2.09901E+01-1.86142E-01-6.25194E-01-6.71484E-02-5.80924E-14 2.12809E-12
 -1      1180 2.01284E+01-9.99600E-02-2.33099E-01 7.35314E-02-1.97238E-14 1.55722E-12
 -1      1181 2.02716E+01-5.43895E-02-6.54029E-02 4.95799E-02-1.35924E-14 1.15240E-12
 -1      1182 2.07432E+01-3.25630E-02-2.61924E-02 3.86386E-02 1.15012E-15 9.01251E-13
 -1      1183 2.14299E+01-1.98767E-02-1.57357E-02 3.50753E-02-3.44690E-15 7.81368E-13
 -1      1184 2.22545E+01-8.47807E-03-5.63269E-03 3.43267E-02-1.31844E-14 6.24029E-13
 -1      1185 2.31309E+01 5.36967E-03 1.14627E-02 3.30728E-02 2.05456E-16 4.83072E-13
 -1      1186 2.39333E+01 2.36047E-02 3.80895E-02 2.73087E-02 6.58371E-15 3.15466E-13
 -1      1187 2.44769E+01 4.55162E-02 7.26805E-02 1.19809E-02-5.36246E-15 2.60712E-13
 -1      1188 2.45245E+01 6.55468E-02 1.05343E-01-1.74621E-02 2.59168E-15 1.76678E-13
 -1      1189 2.38507E+01 7.15020E-02 1.14585E-01-6.02881E-02 1.99094E-14 3.05631E-13
 -1      1190 2.23882E+01 4.78074E-02 7.43340E-02-1.03751E-01-1.41896E-14 2.52368E-13
 -1      1191 2.04092E+01-1.09560E-02-2.22305E-02-1.22161E-01-1.71998E-15 1.23540E-13
 -1      1192 1.85787E+01-8.31195E-02-1.38023E-01-9.13173E-02 9.07694E-15 2.95736E-14
 -1      1193 1.77011E+01-1.23991E-01-2.02517E-01-1.41574E-02-2.61076E-14-4.65183E-14
 -1      1194 1.82251E+01-1.02778E-01-1.69135E-01 7.12898E-02-2.13449E-14-2.45116E-13
 -1      1195 1.99185E+01-3.59773E-02-6.27335E-02 1.20088E-01-1.65579E-15-3.92811E-13
 -1      1196 2.20415E+01 3.10448E-02 4.63749E-02 1.16613E-01-2.08327E-14-3.93560E-13
 -1      1197 2.38394E+01 6.67517E-02 1.06023E-01 7.88421E-02-9.00321E-16-4.42923E-13
 -1      1198 2.49053E+01 6.91909E-02 1.10504E-01 3.45658E-02-3.68715E-15-3.93852E-13
 -1      1199 2.52126E+01 5.26604E-02 8.28788E-02 1.31604E-03 2.39427E-14-2.17128E-13
 -1      1200 2.49525E+01 3.13548E-02 4.77283E-02-1.68075E-02-8.56737E-15 8.37160E-14
 -1      1201 2.43648E+01 1.32449E-02 1.88182E-02-2.31254E-02-4.13122E-14-2.07757E-13
 -1      1202 2.36462E+01 8.18710E-04-1.63375E-05-2.25671E-02 1.39765E-14-9.95037E-14
 -1      1203 2.29257E+01-6.36693E-03-1.00959E-02-1.89763E-02-1.16279E-14 1.40145E-13
 -1      1204 2.22730E+01-9.71899E-03-1.41947E-02-1.46302E-02 3.39699E-14 1.05393E-13
 -1      1205 2.17177E+01-1.06337E-02-1.47931E-02-1.06186E-02-7.49585E-15-1.93422E-14
 -1      1206 2.12648E+01-1.01719E-02-1.36153E-02-7.33295E-03 2.04440E-14 1.21139E-13
 -1      1207 2.09072E+01-9.03855E-03-1.17057E-02-4.81959E-03 1.06429E-14 4.31782E-13
 -1      1208 2.06320E+01-7.66142E-03-9.63692E-03-2.98382E-03-2.07440E-15 4.05226E-13
 -1      1209 2.04252E+01-6.28005E-03-7.69302E-03-1.69131E-03 1.95932E-15 1.67729E-13
 -1      1210 2.02732E+01-5.01560E-03-5.99421E-03-8.12359E-04 2.48083E-14-3.00373E-13
 -1      1211 2.01641E+01-3.91904E-03-4.57361E-03-2.37513E-04-4.96337E-15-1.65037E-13
 -1      1212 2.00880E+01-3.00210E-03-3.42121E-03 1.19597E-04 1.17195E-14-8.39698E-14
 -1      1213 2.00366E+01-2.25601E-03-2.50815E-03 3.24651E-04 6.37902E-14 1.75230E-13
 -1      1214 2.00034E+01-1.66245E-03-1.79926E-03 4.26460E-04-9.05829E-15-2.84206E-14
 -1      1215 1.99834E+01-1.19955E-03-1.25927E-03 4.60671E-04-4.91187E-15-5.35051E-14
 -1      1216 1.99726E+01-8.45269E-04-8.55703E-04 4.52868E-04-2.90650E-15 9.52591E-14
 -1      1217 1.99682E+01-5.79073E-04-5.60089E-04 4.21057E-04-6.01611E-14-9.62659E-14
 -1      1218 1.99679E+01-3.82731E-04-3.48195E-04 3.77628E-04 6.67846E-15-3.59412E-13
 -1      1219 1.99703E+01-2.40487E-04-1.99769E-04 3.30855E-04-1.37845E-14-3.76638E-13
 -1      1220 1.99742E+01-1.38918E-04-9.79628E-05 2.85991E-04 3.59002E-14-1.28874E-13
 -1      1221 1.99789E+01-6.66116E-05-2.85114E-05 2.46016E-04 1.36935E-14-2.94811E-13
 -1      1222 1.99839E+01-1.37355E-05 2.14001E-05 2.11976E-04 4.38404E-14-4.64722E-13
 -1      1223 1.99887E+01 2.83630E-05 6.45676E-05 1.82736E-04 5.97245E-14-1.08303E-13
 -1      1224 1.99932E+01 6.71547E-05 1.14172E-04 1.53517E-04-2.13876E-14-5.45170E-14
 -1      1225 1.99969E+01 1.06123E-04 1.74338E-04 1.09894E-04 6.08132E-14-6.32297E-14
 -1      1226 1.99993E+01 1.50927E-04 1.99219E-04 2.20413E-05-2.83223E-14-2.74709E-13
 -1      1227 1.99999E+01-4.12330E-05-6.68953E-05-5.02256E-05 1.86393E-14-1.62285E-13
 -1      1228 2.78597E+01 5.15398E-01 2.74554E-01 1.92099E+00-2.82066E-14 2.67142E-12
 -1      1229 2.08610E+01-7.14546E-02-5.76627E-01 1.13666E-01 2.20969E-14 2.06779E-12
 -1      1230 2.01625E+01-4.60026E-02-1.92181E-01 1.37907E-02 1.93578E-14 1.51450E-12
 -1      1231 2.02323E+01-2.76872E-02-5.61293E-02-1.49892E-03 1.16521E-14 1.10959E-12
 -1      1232 2.06433E+01-1.80965E-02-2.23435E-02-7.89324E-03 8.81543E-15 8.72510E-13
 -1      1233 2.12531E+01-1.00388E-02-1.19861E-02-1.27760E-02 2.77035E-15 6.91593E-13
 -1      1234 2.19696E+01-4.79449E-04-1.68240E-03-1.84710E-02 1.00774E-14 5.52097E-13
 -1      1235 2.26990E+01 1.20516E-02 1.48278E-02-2.49172E-02-1.17600E-14 5.38215E-13
 -1      1236 2.33180E+01 2.73381E-02 3.86358E-02-3.03138E-02 2.35369E-14 3.40616E-13
 -1      1237 2.36634E+01 4.23023E-02 6.65710E-02-3.08309E-02-5.80135E-15 2.99543E-13
 -1      1238 2.35485E+01 5.00602E-02 8.88115E-02-2.10256E-02 1.33574E-14 1.81646E-13
 -1      1239 2.28255E+01 4.16172E-02 8.88234E-02 3.36260E-03 1.20451E-14 1.19259E-13
 -1      1240 2.14967E+01 1.23132E-02 5.11871E-02 3.98522E-02-4.09525E-15 8.87901E-14
 -1      1241 1.98288E+01-2.97551E-02-2.25522E-02 7.45954E-02-2.29971E-14 3.85803E-14
 -1      1242 1.83547E+01-6.33645E-02-1.02907E-01 8.66852E-02 2.48924E-14-1.76047E-13
 -1      1243 1.76678E+01-6.90700E-02-1.45675E-01 6.33122E-02-3.35088E-14-2.71026E-13
 -1      1244 1.80865E+01-4.58815E-02-1.25744E-01 1.29352E-02-3.41749E-14-3.28709E-13
 -1      1245 1.94474E+01-1.10972E-02-5.86232E-02-3.88044E-02 3.27997E-14-5.67504E-13
 -1      1246 2.12152E+01 1.62891E-02 1.45307E-02-6.86622E-02 1.96234E-14-9.14352E-13
 -1      1247 2.28090E+01 2.87971E-02 6.07110E-02-7.08301E-02-4.18589E-15-7.89049E-13
 -1      1248 2.38695E+01 2.88680E-02 7.26131E-02-5.42075E-02-4.80518E-16-7.34912E-13
 -1      1249 2.43157E+01 2.23935E-02 6.10704E-02-3.16830E-02-1.24796E-14-5.37011E-13
 -1      1250 2.42556E+01 1.43030E-02 4.05061E-02-1.20629E-02 9.08561E-16-7.71181E-13
 -1      1251 2.38660E+01 7.24642E-03 2.09597E-02 1.30539E-03 1.41074E-14-9.93004E-13
 -1      1252 2.33116E+01 2.10583E-03 6.60563E-03 8.65136E-03-1.79749E-14-9.50108E-13
 -1      1253 2.27133E+01-1.16708E-03-2.22652E-03 1.16050E-02-2.23996E-14-6.22599E-13
 -1      1254 2.21449E+01-2.97442E-03-6.76895E-03 1.18708E-02-1.96197E-15-5.97803E-13
 -1      1255 2.16443E+01-3.76398E-03-8.49184E-03 1.07413E-02-1.42461E-14-7.58605E-13
 -1      1256 2.12254E+01-3.90932E-03-8.57615E-03 9.04678E-03 2.00551E-14-9.59816E-13
 -1      1257 2.08877E+01-3.68364E-03-7.82205E-03 7.25909E-03-2.08140E-14-9.13842E-13
 -1      1258 2.06238E+01-3.27118E-03-6.71885E-03 5.61495E-03 1.35378E-14-1.10701E-12
 -1      1259 2.04228E+01-2.78844E-03-5.54273E-03 4.21127E-03 4.21418E-14-1.02929E-12
 -1      1260 2.02736E+01-2.30449E-03-4.43635E-03 3.06874E-03-4.84696E-14-1.88459E-13
 -1      1261 2.01656E+01-1.85709E-03-3.46374E-03 2.17045E-03-1.89785E-14-4.64434E-14
 -1      1262 2.00898E+01-1.46417E-03-2.64511E-03 1.48378E-03-2.08088E-14-2.66208E-13
 -1      1263 2.00382E+01-1.13158E-03-1.97759E-03 9.72090E-04 4.76049E-14-7.01940E-13
 -1      1264 2.00047E+01-8.58081E-04-1.44712E-03 6.00276E-04 2.50119E-15-1.24102E-12
 -1      1265 1.99844E+01-6.38576E-04-1.03504E-03 3.37260E-04 9.98787E-15-1.16908E-12
 -1      1266 1.99734E+01-4.66184E-04-7.21719E-04 1.56799E-04 5.93102E-14-1.38695E-12
 -1      1267 1.99687E+01-3.33487E-04-4.88559E-04 3.74538E-05 4.11883E-15-1.16156E-12
 -1      1268 1.99683E+01-2.33212E-04-3.18883E-04-3.78911E-05-2.37075E-14-8.73000E-13
 -1      1269 1.99705E+01-1.58547E-04-1.98169E-04-8.26857E-05-2.72040E-14-7.65037E-13
 -1      1270 1.99743E+01-1.03201E-04-1.13867E-04-1.07399E-04-1.69021E-14-4.48340E-13
 -1      1271 1.99790E+01-6.12583E-05-5.48090E-05-1.20153E-04 2.19705E-14-6.76227E-13
 -1      1272 1.99839E+01-2.69026E-05-1.01704E-05-1.27146E-04-3.25399E-14-6.77343E-13
 -1      1273 1.99887E+01 5.65270E-06 3.18799E-05-1.32754E-04 4.08869E-15-4.11423E-13
 -1      1274 1.99932E+01 4.26815E-05 8.43866E-05-1.38965E-04 3.32186E-14-6.53460E-13
 -1      1275 1.99969E+01 8.60224E-05 1.51804E-04-1.39287E-04-7.39013E-14-5.53528E-13
 -1      1276 1.99993E+01 1.06184E-04 1.78600E-04-9.96580E-05 5.42461E-14-4.11293E-13
 -1      1277 1.99999E+01-3.95551E-05-7.05513E-05 4.23470E-05-5.01949E-15-4.49528E-13
 -1      1278 1.99998E+01 1.15214E-04-6.85336E-05 3.43174E-05-5.39799E-13-6.80412E-14
 -1      1279 1.99999E+01-5.52030E-04 1.69955E-04-1.91438E-05-8.25830E-13-7.70929E-14
 -1      1280 1.99999E+01-2.87492E-03 1.22615E-04-1.11134E-04 2.54747E-13 3.63854E-14
 -1      1281 1.99998E+01-6.06943E-03 2.60753E-05-1.31666E-04 3.67689E-13-5.85511E-14
 -1      1282 1.99998E+01-9.40961E-03-5.00832E-05-1.21237E-04-5.98440E-13-7.83261E-14
 -1      1283 1.99997E+01-1.23785E-02-9.99973E-05-9.61069E-05-2.33581E-12-1.98556E-13
 -1      1284 1.99997E+01-1.46841E-02-1.28526E-04-6.70887E-05-2.81451E-12 3.21012E-14
 -1      1285 1.99997E+01-1.61489E-02-1.43734E-04-3.38221E-05-1.77508E-12 1.32620E-13
 -1      1286 1.99997E+01-1.66444E-02-1.48383E-04 1.63595E-07-1.50015E-12-6.92112E-14
 -1      1287 1.99997E+01-1.61390E-02-1.43779E-04 3.41923E-05-1.12709E-12 1.95571E-14
 -1      1288 1.99997E+01-1.46642E-02-1.28350E-04 6.74703E-05-1.12128E-12-1.32391E-13
 -1      1289 1.99997E+01-1.23474E-02-9.93187E-05 9.81889E-05-1.88167E-12 4.61756E-14
 -1      1290 1.99998E+01-9.37053E-03-5.00124E-05 1.21852E-04-1.09188E-12 3.03768E-14
 -1      1291 1.99998E+01-6.01959E-03 2.86042E-05 1.33940E-04-5.96241E-13 3.22889E-14
 -1      1292 1.99999E+01-2.78133E-03 1.41191E-04 1.32272E-04 2.89445E-14-6.36530E-14
 -1      1293 1.99999E+01-5.80254E-04 1.68042E-04 4.44189E-07 3.63625E-14-6.69883E-14
 -1      1294 1.99997E+01 1.22749E-04-7.62968E-05-3.37715E-05 1.86960E-13 6.75639E-14
 -1      1295-1.16537E+00-2.35928E+01-3.66666E+00-2.27571E+00 5.65659E-14 1.72126E-13
 -1      1296-1.75602E+00-1.45457E+01-3.01351E+00-4.01951E+00 1.98375E-12 8.89899E-13
 -1      1297 6.26448E-01-1.65763E+00-1.73000E+00 2.19986E-01 2.97740E-12 1.90548E-12
 -1      1298 1.02406E+01 8.17937E+00-1.38213E-01 8.96580E+00 2.97540E-12 2.87725E-12
 -1      1299 2.73828E+01 1.09667E+01 1.55532E+00 1.65581E+01 2.18514E-12 3.17724E-12
 -1      1300 4.73489E+01 7.77237E+00 2.99862E+00 1.72196E+01 1.01452E-12 2.20401E-12
 -1      1301 6.29144E+01 3.03120E+00 3.97362E+00 9.86986E+00 2.60965E-13 1.03073E-12
 -1      1302 6.65880E+01 1.72465E+00 4.15582E+00-2.92213E+00 9.75747E-14-3.69010E-13
 -1      1303 5.71540E+01 4.99744E+00 3.63716E+00-1.43312E+01 6.05932E-13-1.96143E-12
 -1      1304 3.84664E+01 9.77754E+00 2.40135E+00-1.81032E+01 1.43052E-12-2.73404E-12
 -1      1305 1.93304E+01 1.07026E+01 8.80880E-01-1.37176E+01 2.35256E-12-2.83817E-12
 -1      1306 5.37306E+00 4.61193E+00-8.23776E-01-5.14511E+00 3.03868E-12-2.45359E-12
 -1      1307-1.07677E+00-7.71822E+00-2.41443E+00 2.28041E+00 2.83173E-12-1.50457E-12
 -1      1308-1.59849E+00-2.01255E+01-3.45752E+00 3.84045E+00 1.59162E-12-5.55667E-13
 -1      1309-9.01376E-01-2.56219E+01-3.85862E+00 2.89449E-01-6.96665E-15-1.17288E-13
 -1      1310-1.47144E+00-2.15851E+01-3.55223E+00-3.59811E+00-1.51323E-12-4.25618E-13
 -1      1311-1.60041E+00-1.06476E+01-2.69091E+00-3.42943E+00-2.69673E-12-1.23868E-12
 -1      1312 2.58977E+00 1.86455E+00-1.29263E+00 2.55031E+00-3.23230E-12-2.36511E-12
 -1      1313 1.44949E+01 9.76535E+00 3.46678E-01 1.15208E+01-2.92411E-12-3.19522E-12
 -1      1314 3.30791E+01 1.05935E+01 1.98382E+00 1.78027E+01-2.06291E-12-3.46279E-12
 -1      1315 5.23039E+01 6.58528E+00 3.33520E+00 1.64958E+01-1.06065E-12-2.84661E-12
 -1      1316 6.52748E+01 2.44624E+00 4.16478E+00 7.69828E+00-2.83419E-13-1.28791E-12
 -1      1317 6.62593E+01 2.13121E+00 4.21012E+00-4.97869E+00-1.59369E-13 5.31186E-13
 -1      1318 5.54720E+01 5.58129E+00 3.56452E+00-1.51243E+01-6.74127E-13 1.96687E-12
 -1      1319 3.75189E+01 9.84954E+00 2.30037E+00-1.80683E+01-1.61060E-12 2.93343E-12
 -1      1320 1.92795E+01 1.06313E+01 7.77701E-01-1.38878E+01-2.42339E-12 3.02358E-12
 -1      1321 5.68794E+00 5.17634E+00-8.06418E-01-5.56235E+00-2.99316E-12 2.54152E-12
 -1      1322-7.89406E-01-5.49598E+00-2.19302E+00 1.76925E+00-2.75713E-12 1.56652E-12
 -1      1323-1.81392E+00-1.69061E+01-3.19043E+00 4.28101E+00-2.30127E-12 7.31692E-13
 -1      1324-1.06108E+00-2.43483E+01-3.74430E+00 2.04095E+00-1.65740E-12 2.68299E-13
 -1      1325 2.27822E+01 1.87152E+00-7.10795E-01-2.57662E+00-6.13953E-14 1.44490E-12
 -1      1326 2.09747E+01 4.73437E+00-3.87394E-02-2.83517E+00-1.96343E-13 1.31672E-13
 -1      1327 2.15115E+01 4.84297E+00-8.90712E-02-3.73937E+00-2.41418E-13 4.43479E-13
 -1      1328 1.99926E+01 5.05273E+00-1.70554E-02-2.08844E+00-2.02754E-13-3.25680E-13
 -1      1329 2.03904E+01 5.17526E+00 1.70692E-02-2.51573E+00-2.25236E-13-1.24116E-13
 -1      1330 2.11582E+01 3.96315E+00-1.80502E-02-2.55857E+00-3.43330E-13 1.12493E-13
 -1      1331 1.93875E+01 5.13878E+00-7.08487E-03-1.48034E+00-1.72855E-13-5.62814E-13
 -1      1332 1.96744E+01 5.23341E+00 2.02748E-02-1.77689E+00-1.94775E-13-4.52357E-13
 -1      1333 2.01716E+01 4.42735E+00-1.97433E-02-1.91222E+00-3.23448E-13-2.66884E-13
 -1      1334 1.89266E+01 5.16940E+00-4.20558E-03-1.01518E+00-1.42088E-13-6.88864E-13
 -1      1335 1.91496E+01 5.24155E+00 1.67151E-02-1.23751E+00-1.55629E-13-6.32858E-13
 -1      1336 1.95134E+01 4.65542E+00-1.76297E-02-1.35538E+00-2.64629E-13-4.71741E-13
 -1      1337 1.85725E+01 5.18201E+00-3.32681E-03-6.65009E-01-1.01405E-13-7.39842E-13
 -1      1338 1.87420E+01 5.23616E+00 1.23587E-02-8.32486E-01-1.18780E-13-7.09705E-13
 -1      1339 1.90206E+01 4.79094E+00-1.44718E-02-9.26100E-01-2.14476E-13-5.71106E-13
 -1      1340 1.83152E+01 5.18786E+00-2.78294E-03-3.87733E-01-6.49515E-14-7.71347E-13
 -1      1341 1.84331E+01 5.22503E+00 7.73474E-03-5.21777E-01-7.67719E-14-7.57819E-13
 -1      1342 1.86461E+01 4.87680E+00-1.24743E-02-5.96366E-01-1.46463E-13-6.25548E-13
 -1      1343 1.81718E+01 5.19334E+00-1.40343E-03-1.60340E-01-2.65430E-14-7.89285E-13
 -1      1344 1.82302E+01 5.21164E+00 3.59253E-03-2.73229E-01-3.92845E-14-7.79545E-13
 -1      1345 1.83894E+01 4.92821E+00-1.13890E-02-3.33276E-01-8.73212E-14-6.46311E-13
 -1      1346 1.81493E+01 5.20061E+00 1.03919E-03 4.74706E-02 6.84565E-15-7.94850E-13
 -1      1347 1.81454E+01 5.19932E+00 3.86016E-04-5.94588E-02-5.14389E-15-7.91622E-13
 -1      1348 1.82627E+01 4.95061E+00-1.09448E-02-1.11360E-01-2.77968E-14-6.64340E-13
 -1      1349 1.82477E+01 5.21006E+00 4.50260E-03 2.66065E-01 3.72202E-14-7.92259E-13
 -1      1350 1.81826E+01 5.18951E+00-1.66296E-03 1.50043E-01 2.59124E-14-7.95379E-13
 -1      1351 1.82713E+01 4.94641E+00-1.10248E-02 9.90268E-02 2.84334E-14-6.66890E-13
 -1      1352 1.84595E+01 5.22026E+00 8.62617E-03 5.24989E-01 6.49376E-14-7.69104E-13
 -1      1353 1.83378E+01 5.18199E+00-2.59216E-03 3.85248E-01 5.63542E-14-7.87195E-13
 -1      1354 1.84129E+01 4.91628E+00-1.16177E-02 3.27354E-01 7.77377E-14-6.61228E-13
 -1      1355 1.87671E+01 5.22898E+00 1.31211E-02 8.46280E-01 1.05319E-13-7.14108E-13
 -1      1356 1.85978E+01 5.17459E+00-2.86575E-03 6.72206E-01 9.04415E-14-7.45418E-13
 -1      1357 1.86762E+01 4.85946E+00-1.26438E-02 5.99229E-01 1.31162E-13-6.29543E-13
 -1      1358 1.91739E+01 5.23198E+00 1.73243E-02 1.26952E+00 1.54824E-13-6.15931E-13
 -1      1359 1.89533E+01 5.16011E+00-3.62418E-03 1.03953E+00 1.32998E-13-6.72963E-13
 -1      1360 1.90512E+01 4.76966E+00-1.46661E-02 9.43159E-01 1.95481E-13-5.66165E-13
 -1      1361 1.96901E+01 5.22153E+00 1.97552E-02 1.82468E+00 2.06828E-13-4.49692E-13
 -1      1362 1.94080E+01 5.12689E+00-7.17616E-03 1.52046E+00 1.80717E-13-5.50844E-13
 -1      1363 1.95441E+01 4.63009E+00-1.77290E-02 1.38995E+00 2.72733E-13-4.60305E-13
 -1      1364 2.04074E+01 5.17910E+00 2.18128E-02 2.57094E+00 2.37504E-13-1.25011E-13
 -1      1365 2.00026E+01 5.04156E+00-1.75089E-02 2.14611E+00 2.07827E-13-3.23283E-13
 -1      1366 2.01953E+01 4.39893E+00-2.03425E-02 1.96620E+00 3.31219E-13-2.65461E-13
 -1      1367 2.17069E+01 4.93449E+00 2.39715E-02 3.66336E+00 2.12053E-13 5.02265E-13
 -1      1368 2.09410E+01 4.77479E+00-3.76440E-02 2.95775E+00 2.08125E-13 1.18391E-13
 -1      1369 2.11856E+01 3.92495E+00-1.44103E-02 2.67724E+00 3.63608E-13 1.04347E-13
 -1      1370 2.74943E+01 3.16958E+00 8.77455E-01 4.35379E+00 1.13951E-13 1.72884E-12
 -1      1371 2.25857E+01 3.53255E+00-1.71641E-01 3.57147E+00 1.13479E-13 8.72247E-13
 -1      1372 2.27851E+01 2.53812E+00-2.21982E-02 3.05025E+00 3.53944E-13 6.81788E-13
 -1      1373 2.20333E+01 3.39449E-01-7.57034E-01 9.88966E-01 2.01741E-13 1.64735E-12
 -1      1374 2.27036E+01 1.16734E-01-3.96449E-01-1.06395E+00-1.94608E-13 1.49653E-12
 -1      1375 2.16239E+01 2.92515E-01-1.55084E-01-6.15468E-01-1.85012E-13 1.27431E-12
 -1      1376 2.11760E+01 1.53344E-01-6.97144E-02-2.12247E-01-1.45741E-13 1.18066E-12
 -1      1377 2.09422E+01 9.32676E-02-1.11356E-02-1.42513E-01-1.45193E-13 9.65030E-13
 -1      1378 2.19388E+01 3.53935E-01-1.03134E-01-9.05420E-01-3.14720E-13 7.25277E-13
 -1      1379 2.07692E+01 7.16316E-02 3.94644E-03 6.27765E-02-1.10274E-13 8.86131E-13
 -1      1380 2.08623E+01 4.95287E-02 1.41697E-02 8.50522E-02-1.00631E-13 7.30995E-13
 -1      1381 2.12215E+01 1.37661E-01-3.72945E-02-1.25601E-01-2.44783E-13 5.68084E-13
 -1      1382 2.09095E+01 4.28388E-02 1.21202E-02 1.95695E-01-6.36617E-14 6.60798E-13
 -1      1383 2.11678E+01 2.96246E-02 1.05644E-02 2.11505E-01-5.47522E-14 5.70766E-13
 -1      1384 2.11267E+01 7.06359E-02-1.16481E-02 2.47270E-01-1.74138E-13 4.37686E-13
 -1      1385 2.13450E+01 2.76599E-02 6.65518E-03 2.78534E-01-3.51069E-14 5.37750E-13
 -1      1386 2.16994E+01 1.68884E-02 5.15252E-03 2.89338E-01-5.22026E-14 4.74884E-13
 -1      1387 2.13489E+01 4.22034E-02-7.19470E-03 4.60931E-01-9.79624E-14 3.04638E-13
 -1      1388 2.19536E+01 1.46989E-02 2.17714E-03 3.25445E-01-6.23345E-14 4.66890E-13
 -1      1389 2.23568E+01 2.97026E-03 1.97330E-03 3.30349E-01-4.94236E-14 3.80841E-13
 -1      1390 2.17712E+01 2.16511E-02-5.23607E-03 5.87314E-01-1.01049E-13 2.56390E-13
 -1      1391 2.26450E+01-1.95667E-03 4.55633E-04 3.31237E-01-2.86394E-14 3.61055E-13
 -1      1392 2.30425E+01-1.63301E-02 9.37971E-04 3.27184E-01-4.22508E-14 2.86254E-13
 -1      1393 2.23050E+01-3.96079E-03-2.02724E-03 6.35276E-01-8.49003E-14 2.24038E-13
 -1      1394 2.33176E+01-2.59338E-02 1.47122E-03 2.79734E-01-2.20765E-14 2.76754E-13
 -1      1395 2.36337E+01-4.29084E-02 2.03861E-03 2.61981E-01-1.63303E-14 2.34403E-13
 -1      1396 2.28651E+01-4.14861E-02 3.32381E-03 5.84208E-01-8.06924E-14 2.18781E-13
 -1      1397 2.38380E+01-5.78917E-02 5.34999E-03 1.50643E-01-1.92867E-14 2.34413E-13
 -1      1398 2.39733E+01-7.42705E-02 5.38038E-03 1.14396E-01-5.58069E-14 1.96893E-13
 -1      1399 2.33512E+01-9.26686E-02 1.11570E-02 3.99423E-01-2.95944E-14 1.77060E-13
 -1      1400 2.40400E+01-9.19849E-02 1.15061E-02-6.67366E-02-1.26383E-14 2.31943E-13
 -1      1401 2.38887E+01-9.96824E-02 9.98048E-03-1.22151E-01 3.16813E-14 2.17194E-13
 -1      1402 2.36418E+01-1.49016E-01 2.07241E-02 5.32423E-02-2.41404E-14 2.34004E-13
 -1      1403 2.37574E+01-1.11502E-01 1.70268E-02-3.49244E-01 3.61100E-14 1.68192E-13
 -1      1404 2.32554E+01-9.83314E-02 1.24296E-02-4.13274E-01 2.61770E-15 1.70988E-13
 -1      1405 2.36089E+01-1.84732E-01 2.88017E-02-4.37233E-01 2.01575E-14 1.89097E-13
 -1      1406 2.29068E+01-9.09016E-02 1.61837E-02-6.13863E-01-1.75771E-14 1.76560E-13
 -1      1407 2.21054E+01-4.82518E-02 7.59535E-03-6.59693E-01-4.67846E-14 1.21819E-13
 -1      1408 2.31647E+01-1.59204E-01 2.85806E-02-9.61150E-01-9.83241E-15 5.96866E-14
 -1      1409 2.16072E+01-1.38575E-02 4.33810E-03-7.22787E-01-3.49052E-14 1.36668E-13
 -1      1410 2.07248E+01 4.99072E-02-6.56352E-03-7.15652E-01-3.03763E-14 9.39943E-14
 -1      1411 2.23437E+01-4.34613E-02 1.24317E-02-1.29637E+00-5.59661E-14 1.08934E-13
 -1      1412 2.02515E+01 9.83365E-02-1.49890E-02-5.55545E-01-3.11973E-14 3.67276E-14
 -1      1413 1.96262E+01 1.52184E-01-2.37143E-02-4.79660E-01-8.02084E-14-1.76664E-14
 -1      1414 2.13789E+01 1.36850E-01-1.89059E-02-1.19315E+00-1.14118E-13 5.69007E-14
 -1      1415 1.93991E+01 1.80888E-01-2.95309E-02-1.24976E-01-7.27560E-14-5.53065E-14
 -1      1416 1.93188E+01 1.90062E-01-3.08822E-02-9.48494E-03-7.56964E-14-1.37184E-13
 -1      1417 2.06725E+01 2.89717E-01-4.85356E-02-5.67184E-01-1.14145E-13-6.41692E-14
 -1      1418 1.94648E+01 1.75340E-01-2.79493E-02 3.79138E-01-8.78395E-14-1.67116E-13
 -1      1419 1.99792E+01 1.33288E-01-2.10129E-02 4.74052E-01-1.11760E-13-2.98331E-13
 -1      1420 2.05888E+01 3.16072E-01-5.38388E-02 3.49245E-01-1.26673E-13-8.34194E-14
 -1      1421 2.04322E+01 8.77577E-02-1.27426E-02 7.10943E-01-5.31988E-14-3.36037E-13
 -1      1422 2.13182E+01 2.28726E-02-1.69424E-03 7.41594E-01 7.90340E-15-3.42615E-13
 -1      1423 2.11924E+01 1.97834E-01-3.02170E-02 1.11553E+00-1.14610E-13-2.38946E-13
 -1      1424 2.18721E+01-1.84998E-02 3.51798E-03 7.49391E-01-3.68759E-14-3.91936E-13
 -1      1425 2.27860E+01-7.05050E-02 1.34366E-02 7.18187E-01-4.34097E-14-4.32959E-13
 -1      1426 2.21963E+01 1.45577E-02 2.93115E-03 1.40188E+00-3.59851E-14-4.00954E-13
 -1      1427 2.32393E+01-8.62513E-02 1.14217E-02 5.53157E-01 4.75227E-15-4.23606E-13
 -1      1428 2.39122E+01-1.09169E-01 1.75673E-02 4.92269E-01-6.95971E-15-4.09672E-13
 -1      1429 2.31814E+01-1.28520E-01 2.49079E-02 1.19409E+00-1.22844E-14-4.25644E-13
 -1      1430 2.41609E+01-1.01732E-01 1.06885E-02 2.66435E-01 1.32030E-14-4.62269E-13
 -1      1431 2.44889E+01-1.00198E-01 1.33166E-02 2.07096E-01 9.12985E-15-4.58317E-13
 -1      1432 2.38471E+01-1.82199E-01 2.98088E-02 7.10763E-01 1.71911E-15-3.97767E-13
 -1      1433 2.45277E+01-8.27447E-02 6.06903E-03 8.45463E-03 1.00905E-13-3.63168E-13
 -1      1434 2.45446E+01-6.90821E-02 6.64463E-03-3.37598E-02 1.07692E-13-1.84974E-13
 -1      1435 2.40977E+01-1.62089E-01 2.37582E-02 1.97613E-01 1.29560E-13-3.77597E-13
 -1      1436 2.44227E+01-5.22697E-02 1.73006E-03-1.67564E-01 1.31553E-14-1.26155E-13
 -1      1437 2.42257E+01-3.63836E-02 1.40431E-03-1.90630E-01-2.03414E-14-1.51977E-13
 -1      1438 2.39874E+01-1.09437E-01 1.43999E-02-1.98097E-01 1.15429E-13-2.72217E-13
 -1      1439 2.40065E+01-2.47094E-02-7.28290E-04-2.59454E-01-4.71639E-14-7.72334E-14
 -1      1440 2.36967E+01-1.15205E-02-1.39189E-03-2.67724E-01-7.55017E-15-1.55065E-13
 -1      1441 2.36321E+01-5.62547E-02 6.22259E-03-4.35957E-01-2.47285E-14-8.81673E-14
 -1      1442 2.34350E+01-5.24634E-03-1.47004E-03-2.87867E-01 7.91036E-14-6.49689E-14
 -1      1443 2.30898E+01 3.95903E-03-2.27110E-03-2.86868E-01 7.74201E-14 1.17874E-14
 -1      1444 2.31478E+01-1.66844E-02 6.61931E-04-5.38154E-01 7.68951E-14 1.02740E-13
 -1      1445 2.28243E+01 6.25060E-03-1.23480E-03-2.76851E-01 3.18339E-14 2.23085E-14
 -1      1446 2.24920E+01 1.19209E-02-2.10507E-03-2.71032E-01-1.07705E-15 3.08295E-14
 -1      1447 2.26244E+01 7.44363E-03-2.48470E-03-5.47251E-01 6.69851E-14-3.21939E-14
 -1      1448 2.22461E+01 1.18170E-02-6.63149E-04-2.45549E-01 3.25451E-14 7.75560E-14
 -1      1449 2.19516E+01 1.49009E-02-1.55164E-03-2.37845E-01 7.16384E-14 8.70198E-14
 -1      1450 2.21205E+01 1.94991E-02-3.92025E-03-5.02896E-01 4.60166E-14 1.68929E-13
 -1      1451 2.17368E+01 1.36033E-02-1.13959E-04-2.06644E-01-5.16551E-14 1.19287E-13
 -1      1452 2.14896E+01 1.49929E-02-9.67633E-04-1.98746E-01-4.33434E-14 4.46128E-14
 -1      1453 2.16683E+01 2.37155E-02-4.30973E-03-4.33969E-01 4.03128E-15 1.76108E-13
 -1      1454 2.13096E+01 1.32579E-02 2.78878E-04-1.67512E-01 1.09919E-13 2.12625E-14
 -1      1455 2.11098E+01 1.36243E-02-4.95557E-04-1.60274E-01 6.68268E-14 1.19078E-13
 -1      1456 2.12817E+01 2.34910E-02-4.13016E-03-3.58610E-01 7.73251E-14 1.20677E-13
 -1      1457 2.09637E+01 1.18682E-02 5.04082E-04-1.31903E-01 4.08337E-14 2.05127E-13
 -1      1458 2.08069E+01 1.16646E-02-1.63792E-04-1.25677E-01 1.17564E-13 3.53291E-13
 -1      1459 2.09627E+01 2.10944E-02-3.68078E-03-2.86874E-01 1.14562E-13 8.44428E-14
 -1      1460 2.06914E+01 1.00855E-02 5.97861E-04-1.01353E-01-9.98203E-15 3.84278E-13
 -1      1461 2.05714E+01 9.59826E-03 4.60872E-05-9.62138E-02-7.45431E-14 2.63004E-13
 -1      1462 2.07068E+01 1.78782E-02-3.13474E-03-2.23524E-01 8.45123E-14 1.84208E-13
 -1      1463 2.04821E+01 8.26923E-03 6.04362E-04-7.61538E-02-1.69921E-13 2.57388E-13
 -1      1464 2.03924E+01 7.67059E-03 1.64797E-04-7.20365E-02-1.93462E-13 1.00864E-13
 -1      1465 2.05064E+01 1.45772E-02-2.58588E-03-1.70181E-01-2.34302E-13 1.76401E-13
 -1      1466 2.03248E+01 6.59892E-03 5.60323E-04-5.59635E-02-6.64445E-14-3.56919E-16
 -1      1467 2.02592E+01 5.98720E-03 2.21078E-04-5.27418E-02-5.03725E-14-1.28345E-13
 -1      1468 2.03528E+01 1.15497E-02-2.08111E-03-1.26747E-01-2.27828E-13 1.66581E-13
 -1      1469 2.02091E+01 5.14949E-03 4.91761E-04-4.01611E-02 2.26172E-14-1.89106E-13
 -1      1470 2.01623E+01 4.57723E-03 2.37444E-04-3.76917E-02 5.19538E-14-1.29813E-13
 -1      1471 2.02375E+01 8.93969E-03-1.64036E-03-9.22885E-02-1.63214E-14-3.64942E-15
 -1      1472 2.01260E+01 3.93865E-03 4.15290E-04-2.80452E-02 7.72419E-14-1.18112E-13
 -1      1473 2.00936E+01 3.43078E-03 2.29998E-04-2.61891E-02 1.29246E-13 7.55724E-14
 -1      1474 2.01529E+01 6.77694E-03-1.26875E-03-6.55434E-02 9.60384E-14 9.57510E-15
 -1      1475 2.00680E+01 2.95495E-03 3.40581E-04-1.89359E-02 1.20060E-14 8.61284E-14
 -1      1476 2.00463E+01 2.52025E-03 2.09601E-04-1.75680E-02-4.79939E-14 8.51349E-14
 -1      1477 2.00921E+01 5.03510E-03-9.63559E-04-4.51951E-02 9.60493E-14 1.62883E-13
 -1      1478 2.00288E+01 2.17372E-03 2.72661E-04-1.22212E-02-9.94803E-14 1.77287E-14
 -1      1479 2.00150E+01 1.81170E-03 1.83264E-04-1.12341E-02-5.94420E-14-4.82276E-14
 -1      1480 2.00496E+01 3.66394E-03-7.18349E-04-3.00125E-02-1.06471E-13-4.33342E-14
 -1      1481 2.00035E+01 1.56561E-03 2.13673E-04-7.37513E-03 2.71186E-14-1.34286E-13
 -1      1482 1.99953E+01 1.27077E-03 1.55337E-04-6.67959E-03-1.46827E-14-1.19680E-13
 -1      1483 2.00210E+01 2.60613E-03-5.25144E-04-1.89104E-02-5.61582E-14-8.21436E-14
 -1      1484 1.99882E+01 1.10114E-03 1.64063E-04-3.95962E-03-7.85240E-14 2.59935E-14
 -1      1485 1.99840E+01 8.65552E-04 1.28377E-04-3.48304E-03-6.11309E-14-1.56871E-13
 -1      1486 2.00026E+01 1.80564E-03-3.75684E-04-1.09685E-02-7.90319E-14-1.38153E-13
 -1      1487 1.99800E+01 7.53009E-04 1.23332E-04-1.61886E-03-6.20782E-14-8.79436E-14
 -1      1488 1.99785E+01 5.67872E-04 1.03746E-04-1.30356E-03-1.06000E-13-2.77485E-13
 -1      1489 1.99915E+01 1.21156E-03-2.62128E-04-5.42833E-03 1.81650E-14-2.63371E-13
 -1      1490 1.99766E+01 4.97091E-04 9.05016E-05-7.01043E-05-5.74076E-14-1.94504E-13
 -1      1491 1.99769E+01 3.53634E-04 8.20227E-05 1.28878E-04-6.80060E-14-3.54918E-13
 -1      1492 1.99856E+01 7.79638E-04-1.77413E-04-1.67936E-03-6.62703E-14-1.17802E-13
 -1      1493 1.99765E+01 3.12636E-04 6.43981E-05 9.06533E-04-3.84345E-15-3.57105E-13
 -1      1494 1.99779E+01 2.02574E-04 6.32891E-05 1.02345E-03 2.80117E-14-2.43888E-13
 -1      1495 1.99834E+01 4.72377E-04-1.15374E-04 7.59221E-04-6.60940E-14-2.24689E-13
 -1      1496 1.99784E+01 1.82048E-04 4.38386E-05 1.47777E-03 1.25062E-13-1.91115E-13
 -1      1497 1.99804E+01 9.77674E-05 4.73566E-05 1.53794E-03 1.30976E-13-9.86204E-14
 -1      1498 1.99834E+01 2.58453E-04-7.07352E-05 2.25724E-03 1.52880E-13-1.62944E-13
 -1      1499 1.99815E+01 9.03843E-05 2.77801E-05 1.76555E-03-6.93590E-14 9.83972E-14
 -1      1500 1.99838E+01 2.49390E-05 3.39977E-05 1.78679E-03 4.29197E-14 2.29614E-14
 -1      1501 1.99850E+01 1.11647E-04-3.90141E-05 3.09065E-03 1.32370E-13 3.39933E-14
 -1      1502 1.99852E+01 2.46493E-05 1.55553E-05 1.85364E-03 5.43921E-14-1.24683E-13
 -1      1503 1.99875E+01-2.83490E-05 2.33400E-05 1.84720E-03 1.45761E-14 3.53874E-15
 -1      1504 1.99874E+01 9.46467E-06-1.63419E-05 3.45567E-03-7.75907E-14 1.98183E-13
 -1      1505 1.99890E+01-2.70677E-05 7.35784E-06 1.79200E-03 1.37503E-13-1.41894E-13
 -1      1506 1.99912E+01-7.35922E-05 1.64490E-05 1.76298E-03 1.37499E-13 1.16385E-13
 -1      1507 1.99902E+01-6.85162E-05 8.33591E-07 3.47928E-03 5.75418E-14 2.23659E-13
 -1      1508 1.99926E+01-7.65224E-05 5.00184E-06 1.59890E-03-1.00718E-13-1.03925E-13
 -1      1509 1.99946E+01-1.21839E-04 1.56458E-05 1.54564E-03-1.84178E-13-2.48433E-13
 -1      1510 1.99930E+01-1.42775E-04 1.60101E-05 3.22595E-03 1.01699E-15-1.59772E-13
 -1      1511 1.99958E+01-1.35666E-04 1.13094E-05 1.26302E-03 8.28681E-14-2.81529E-13
 -1      1512 1.99973E+01-1.81908E-04 1.88017E-05 1.17524E-03 9.17017E-14-1.74166E-13
 -1      1513 1.99956E+01-2.35690E-04 3.11393E-05 2.70028E-03-8.06549E-14-2.92755E-13
 -1      1514 1.99982E+01-2.22073E-04 1.95953E-05 7.48510E-04 2.47218E-14-1.45334E-13
 -1      1515 1.99991E+01-2.30731E-04 1.07957E-05 6.26232E-04-7.61443E-14-7.23605E-14
 -1      1516 1.99977E+01-3.71920E-04 4.34542E-05 1.87440E-03 1.47323E-13-4.04957E-13
 -1      1517 1.99997E+01-1.16905E-04 1.35135E-05 2.41306E-05-6.09270E-14 4.27206E-15
 -1      1518 1.99993E+01-4.46544E-04 2.83197E-05 6.28937E-04-3.82777E-14-5.96743E-14
 -1      1519 2.12474E+01 7.22457E-02-1.43831E-01 3.25234E-01 1.74170E-13 1.26590E-12
 -1      1520 2.22729E+01 2.17495E-01-2.26967E-01 5.52449E-01 1.51726E-13 1.53702E-12
 -1      1521 2.24893E+01 8.43080E-01-9.25631E-02 1.74926E+00 3.03674E-13 9.86489E-13
 -1      1522 2.07101E+01 3.41177E-02-1.81638E-02 3.15894E-02 1.32481E-13 9.21371E-13
 -1      1523 2.09109E+01 1.16663E-01-5.76204E-02 8.48639E-02 1.28314E-13 1.14181E-12
 -1      1524 2.13884E+01 1.78216E-01-5.71434E-02 4.89053E-01 2.59369E-13 7.38744E-13
 -1      1525 2.07435E+01 1.89856E-02 5.61491E-03-1.12533E-01 6.90316E-14 6.99798E-13
 -1      1526 2.06553E+01 5.87175E-02 3.33633E-03-8.07310E-02 7.28107E-14 8.32716E-13
 -1      1527 2.09964E+01 7.44612E-02-1.50265E-02-7.29926E-03 1.82084E-13 5.50143E-13
 -1      1528 2.10887E+01 1.09243E-02 5.81878E-03-1.92599E-01 5.42075E-14 5.53387E-13
 -1      1529 2.08550E+01 3.45780E-02 1.16235E-02-1.71063E-01 5.20469E-14 6.45824E-13
 -1      1530 2.10465E+01 3.84060E-02-6.19260E-03-2.50613E-01 1.10688E-13 4.15699E-13
 -1      1531 2.16081E+01 4.33874E-03 4.04757E-03-2.36197E-01 4.46882E-14 4.34763E-13
 -1      1532 2.12946E+01 2.05654E-02 8.32084E-03-2.21852E-01 3.82420E-14 5.09256E-13
 -1      1533 2.13500E+01 1.95764E-02-5.18516E-03-3.85375E-01 8.97555E-14 3.26747E-13
 -1      1534 2.22035E+01-3.72199E-03 4.49532E-03-2.46290E-01 2.87978E-15 3.79963E-13
 -1      1535 2.18590E+01 7.18904E-03 5.10297E-03-2.39963E-01 9.86658E-15 4.13041E-13
 -1      1536 2.17929E+01 3.29179E-03-3.67270E-03-4.48333E-01 4.30107E-14 2.73202E-13
 -1      1537 2.27736E+01-1.46250E-02 7.50552E-03-2.14888E-01 3.86316E-14 2.99826E-13
 -1      1538 2.24522E+01-9.77228E-03 3.75922E-03-2.19867E-01 1.61379E-14 3.38632E-13
 -1      1539 2.22834E+01-1.67937E-02 2.90196E-05-4.38935E-01 2.90714E-14 2.09897E-13
 -1      1540 2.31950E+01-2.81875E-02 1.27712E-02-1.29719E-01 3.18408E-14 2.22224E-13
 -1      1541 2.29666E+01-3.19589E-02 4.14827E-03-1.50608E-01 5.42396E-14 3.08862E-13
 -1      1542 2.27267E+01-4.33514E-02 6.21857E-03-3.40541E-01 6.55656E-14 1.81845E-13
 -1      1543 2.33238E+01-4.15137E-02 1.89470E-02 1.71107E-02 4.14061E-14 1.74552E-13
 -1      1544 2.32719E+01-5.73731E-02 5.92587E-03-2.33089E-02-8.70658E-15 1.77342E-13
 -1      1545 2.30146E+01-7.47747E-02 1.43914E-02-1.34852E-01 3.31384E-14 1.29551E-13
 -1      1546 2.30246E+01-4.78242E-02 2.25204E-02 2.15003E-01 2.19443E-14 1.62797E-13
 -1      1547 2.32282E+01-7.82041E-02 8.09681E-03 1.56771E-01 5.08144E-14 1.87527E-13
 -1      1548 2.30333E+01-1.02259E-01 2.23920E-02 1.77604E-01 4.65912E-14 8.51736E-14
 -1      1549 2.22362E+01-3.77132E-02 1.79402E-02 4.18495E-01 3.29285E-14 9.69641E-14
 -1      1550 2.27289E+01-8.04559E-02 8.35657E-03 3.54874E-01 1.82476E-14 1.18919E-13
 -1      1551 2.26951E+01-1.08029E-01 2.58387E-02 5.49444E-01 4.07660E-14 1.45030E-13
 -1      1552 2.10601E+01-5.53637E-03 1.06548E-03 5.43714E-01 3.07163E-14 9.10730E-14
 -1      1553 2.17768E+01-4.99739E-02 3.71408E-03 4.99361E-01 1.08932E-14 9.32726E-14
 -1      1554 2.19964E+01-7.05695E-02 1.98575E-02 8.65774E-01 2.55299E-14 1.19207E-13
 -1      1555 1.98112E+01 4.06940E-02-2.48435E-02 4.99545E-01 5.89832E-14-2.60764E-14
 -1      1556 2.05593E+01 1.37247E-02-6.87948E-03 5.02008E-01 5.40848E-14 4.75314E-14
 -1      1557 2.10786E+01 1.77589E-02 3.38785E-03 9.64379E-01 7.40931E-14 7.58178E-14
 -1      1558 1.89462E+01 7.72100E-02-4.63673E-02 2.55368E-01 2.79559E-14-1.73275E-13
 -1      1559 1.94538E+01 8.59880E-02-1.92901E-02 3.14772E-01 5.50567E-14-8.76799E-14
 -1      1560 2.02360E+01 1.29131E-01-1.70150E-02 7.23136E-01 8.58532E-14-8.45504E-14
 -1      1561 1.88436E+01 8.06481E-02-4.81292E-02-1.08166E-01 8.37351E-15-1.89019E-13
 -1      1562 1.88914E+01 1.27243E-01-2.51625E-02-1.29850E-02 8.57127E-15-2.08614E-13
 -1      1563 1.98106E+01 2.03409E-01-2.99416E-02 1.75694E-01 6.72275E-14-1.37393E-13
 -1      1564 1.95707E+01 4.87033E-02-2.71833E-02-4.31776E-01 4.45269E-14-3.56937E-13
 -1      1565 1.91263E+01 1.13183E-01-1.89273E-02-3.43271E-01 3.06265E-14-2.87617E-13
 -1      1566 2.00026E+01 1.90051E-01-2.88298E-02-4.62278E-01 7.92439E-14-2.43328E-13
 -1      1567 2.08373E+01 2.66746E-03 3.20265E-03-5.82658E-01 1.37324E-13-5.91312E-13
 -1      1568 2.00770E+01 5.58684E-02-3.80223E-03-5.35803E-01 1.06331E-13-4.06952E-13
 -1      1569 2.07426E+01 9.52501E-02-1.71184E-02-9.16102E-01 1.73859E-13-4.44218E-13
 -1      1570 2.21827E+01-3.21001E-02 2.56787E-02-5.36572E-01-5.06661E-14-7.11785E-13
 -1      1571 2.13791E+01-8.34305E-03 1.08069E-02-5.38051E-01 6.72878E-14-6.23793E-13
 -1      1572 2.17388E+01-2.19778E-02-3.91834E-03-1.03083E+00 1.64647E-13-4.24084E-13
 -1      1573 2.32283E+01-4.54645E-02 3.25051E-02-3.63756E-01 2.66098E-14-6.26506E-13
 -1      1574 2.26040E+01-5.02728E-02 1.77739E-02-3.97270E-01-6.82145E-14-6.92536E-13
 -1      1575 2.26583E+01-1.01559E-01 4.81625E-03-8.41812E-01-5.23921E-14-4.83391E-13
 -1      1576 2.38030E+01-4.13284E-02 2.73653E-02-1.58087E-01-6.22323E-14-5.44358E-13
 -1      1577 2.34570E+01-6.28530E-02 1.65341E-02-2.01564E-01-3.49972E-14-5.99919E-13
 -1      1578 2.32796E+01-1.24547E-01 8.13396E-03-4.97031E-01-5.24424E-14-4.13316E-13
 -1      1579 2.39224E+01-2.90998E-02 1.72712E-02 1.48189E-02 2.74711E-14-5.21477E-13
 -1      1580 2.38433E+01-5.46682E-02 1.09682E-02-2.32656E-02-2.13154E-14-5.15227E-13
 -1      1581 2.35355E+01-1.05970E-01 7.83607E-03-1.44703E-01-6.58744E-14-4.67282E-13
 -1      1582 2.37022E+01-1.61466E-02 7.71960E-03 1.29629E-01 4.06611E-14-6.52447E-13
 -1      1583 2.38200E+01-3.78732E-02 4.87884E-03 1.03155E-01 4.51627E-14-5.23808E-13
 -1      1584 2.34719E+01-7.05431E-02 5.92492E-03 1.28092E-01 5.65008E-14-4.34898E-13
 -1      1585 2.32794E+01-5.99915E-03 1.08373E-03 1.88778E-01 5.64483E-14-7.80161E-13
 -1      1586 2.35126E+01-2.10200E-02 4.31919E-04 1.73892E-01 6.03048E-14-7.24427E-13
 -1      1587 2.31856E+01-3.61326E-02 3.81352E-03 2.96803E-01 1.07706E-13-5.29981E-13
 -1      1588 2.27692E+01 5.99856E-04-2.56912E-03 2.06420E-01-1.44817E-13-6.79456E-13
 -1      1589 2.30506E+01-7.95572E-03-1.94008E-03 2.00418E-01-8.35959E-14-7.66187E-13
 -1      1590 2.27762E+01-1.04877E-02 2.11249E-03 3.74422E-01-5.86337E-14-5.97212E-13
 -1      1591 2.22517E+01 4.22657E-03-4.05650E-03 1.98000E-01-4.48740E-14-4.66911E-13
 -1      1592 2.25355E+01 6.27703E-04-2.73513E-03 1.97784E-01-5.41295E-14-5.83304E-13
 -1      1593 2.23233E+01 5.46104E-03 9.29566E-04 3.87316E-01-1.45655E-13-4.93630E-13
 -1      1594 2.17741E+01 5.78519E-03-4.26307E-03 1.75838E-01 1.48509E-14-3.74084E-13
 -1      1595 2.20339E+01 5.47066E-03-2.62193E-03 1.78879E-01-2.25785E-14-4.02281E-13
 -1      1596 2.18807E+01 1.37015E-02 1.81260E-04 3.61133E-01-5.04514E-14-2.74216E-13
 -1      1597 2.13594E+01 6.07498E-03-3.84064E-03 1.48287E-01 9.70823E-14-5.47649E-13
 -1      1598 2.15831E+01 7.66992E-03-2.11961E-03 1.52829E-01 8.03880E-14-4.30702E-13
 -1      1599 2.14796E+01 1.67734E-02-2.56501E-04 3.15455E-01 1.03528E-13-2.13239E-13
 -1      1600 2.10145E+01 5.67317E-03-3.18520E-03 1.20376E-01-6.21160E-14-6.44030E-13
 -1      1601 2.11989E+01 8.20140E-03-1.53576E-03 1.25325E-01-3.33214E-14-6.61720E-13
 -1      1602 2.11344E+01 1.67905E-02-4.88602E-04 2.63250E-01 2.67310E-14-2.43750E-13
 -1      1603 2.07372E+01 4.95229E-03-2.50539E-03 9.47837E-02 2.12733E-14-5.87426E-13
 -1      1604 2.08841E+01 7.78600E-03-1.01543E-03 9.95224E-02-6.94323E-15-6.03857E-13
 -1      1605 2.08483E+01 1.52272E-02-5.89641E-04 2.12168E-01-4.25359E-14-2.76597E-13
 -1      1606 2.05204E+01 4.13371E-03-1.89578E-03 7.26881E-02 3.67015E-14-6.73863E-13
 -1      1607 2.06342E+01 6.90353E-03-6.07013E-04 7.69105E-02 3.31363E-14-6.48472E-13
 -1      1608 2.06185E+01 1.30077E-02-6.09567E-04 1.66171E-01 4.85660E-14-3.53143E-13
 -1      1609 2.03550E+01 3.33844E-03-1.38890E-03 5.43822E-02-2.31667E-13-2.98743E-13
 -1      1610 2.04409E+01 5.84993E-03-3.11448E-04 5.79731E-02-1.44770E-13-5.92822E-13
 -1      1611 2.04386E+01 1.06636E-02-5.81381E-04 1.26880E-01-1.25666E-13-1.92308E-13
 -1      1612 2.02318E+01 2.62533E-03-9.86746E-04 3.96821E-02-7.18934E-14 5.66664E-14
 -1      1613 2.02951E+01 4.79481E-03-1.10979E-04 4.26344E-02-1.00833E-13-1.99518E-13
 -1      1614 2.03011E+01 8.47251E-03-5.26828E-04 9.45528E-02-2.67617E-13 3.12552E-14
 -1      1615 2.01424E+01 2.01693E-03-6.78119E-04 2.81773E-02 1.42199E-13-1.22675E-13
 -1      1616 2.01878E+01 3.82666E-03 1.64643E-05 3.05405E-02 6.64040E-14-2.45730E-14
 -1      1617 2.01983E+01 6.55836E-03-4.60157E-04 6.87212E-02 3.09871E-14-1.10165E-13
 -1      1618 2.00792E+01 1.51580E-03-4.47634E-04 1.93779E-02 4.29515E-14-3.63036E-13
 -1      1619 2.01108E+01 2.98462E-03 9.10726E-05 2.12267E-02 7.95060E-14-1.90123E-13
 -1      1620 2.01235E+01 4.95813E-03-3.90572E-04 4.85827E-02 1.76816E-13-6.93883E-14
 -1      1621 2.00360E+01 1.11432E-03-2.79870E-04 1.27939E-02 1.77341E-13-7.99035E-13
 -1      1622 2.00572E+01 2.27921E-03 1.29152E-04 1.42105E-02 1.44442E-13-5.15920E-13
 -1      1623 2.00703E+01 3.66284E-03-3.23799E-04 3.32308E-02 2.93617E-13-4.97162E-13
 -1      1624 2.00078E+01 8.00226E-04-1.61019E-04 7.97629E-03 6.40316E-14-9.39255E-13
 -1      1625 2.00213E+01 1.70521E-03 1.43040E-04 9.04009E-03 3.90334E-14-8.79571E-13
 -1      1626 2.00338E+01 2.64157E-03-2.63131E-04 2.17791E-02 8.50250E-14-6.23381E-13
 -1      1627 1.99904E+01 5.59787E-04-7.93934E-05 4.53461E-03 7.44032E-14-9.94370E-13
 -1      1628 1.99984E+01 1.24943E-03 1.41705E-04 5.31758E-03 4.65849E-14-9.07366E-13
 -1      1629 2.00097E+01 1.85485E-03-2.10158E-04 1.34253E-02 1.11987E-13-6.74934E-13
 -1      1630 1.99807E+01 3.79589E-04-2.54658E-05 2.14186E-03-1.09915E-13-1.01413E-12
 -1      1631 1.99848E+01 8.95370E-04 1.31473E-04 2.70615E-03 5.10566E-14-9.81136E-13
 -1      1632 1.99947E+01 1.26197E-03-1.65344E-04 7.47658E-03 6.87727E-14-8.24836E-13
 -1      1633 1.99765E+01 2.47417E-04 8.31053E-06 5.31985E-04-1.49617E-13-6.36545E-13
 -1      1634 1.99779E+01 6.25994E-04 1.16655E-04 9.29549E-04-1.71228E-13-9.78177E-13
 -1      1635 1.99863E+01 8.24900E-04-1.28440E-04 3.35619E-03-2.07366E-13-6.06708E-13
 -1      1636 1.99758E+01 1.52590E-04 2.77877E-05-5.06019E-04-1.02925E-13-4.11325E-13
 -1      1637 1.99755E+01 4.25182E-04 1.00069E-04-2.32938E-04 1.69217E-16-4.14136E-13
 -1      1638 1.99823E+01 5.10061E-04-9.87667E-05 5.96864E-04-1.87636E-13-8.65644E-14
 -1      1639 1.99774E+01 8.59656E-05 3.74420E-05-1.13524E-03 3.65884E-14-2.82955E-13
 -1      1640 1.99760E+01 2.78363E-04 8.34559E-05-9.53239E-04-3.57063E-14-3.34233E-13
 -1      1641 1.99814E+01 2.88770E-04-7.53978E-05-1.17011E-03-6.62596E-14 6.24456E-14
 -1      1642 1.99803E+01 3.97580E-05 4.07034E-05-1.47779E-03 1.35934E-14-2.43031E-13
 -1      1643 1.99784E+01 1.72634E-04 6.78089E-05-1.36133E-03-3.28938E-14-3.13271E-13
 -1      1644 1.99825E+01 1.36944E-04-5.72542E-05-2.22775E-03 2.87201E-14-4.64745E-14
 -1      1645 1.99840E+01 7.18037E-06 4.03875E-05-1.62066E-03 1.43237E-13-5.26459E-13
 -1      1646 1.99818E+01 9.64922E-05 5.36605E-05-1.55132E-03 1.70819E-13-3.65716E-13
 -1      1647 1.99848E+01 3.43753E-05-4.30892E-05-2.78536E-03 2.00514E-13-3.72947E-13
 -1      1648 1.99880E+01-1.79708E-05 3.94399E-05-1.61990E-03-6.55519E-14-5.15592E-13
 -1      1649 1.99856E+01 3.92505E-05 4.15263E-05-1.58606E-03-3.21723E-14-6.21299E-13
 -1      1650 1.99877E+01-3.63717E-05-3.12495E-05-2.98841E-03 1.17912E-13-4.56150E-13
 -1      1651 1.99918E+01-4.14829E-05 4.16478E-05-1.50303E-03 4.90305E-14-4.64571E-13
 -1      1652 1.99896E+01-9.53094E-06 3.25322E-05-1.49992E-03 2.99579E-14-4.86325E-13
 -1      1653 1.99909E+01-9.12276E-05-1.92232E-05-2.92518E-03 1.44997E-14-5.85710E-13
 -1      1654 1.99952E+01-6.98114E-05 5.03175E-05-1.27013E-03-9.81170E-14-5.02486E-13
 -1      1655 1.99933E+01-6.08640E-05 2.86580E-05-1.30092E-03-3.38043E-14-5.58732E-13
 -1      1656 1.99938E+01-1.46033E-04-3.75641E-06-2.63164E-03 4.21720E-14-4.28808E-13
 -1      1657 1.99978E+01-1.09480E-04 5.92978E-05-8.91278E-04-2.21651E-13-4.36779E-13
 -1      1658 1.99964E+01-1.27154E-04 3.00546E-05-9.72104E-04-9.53047E-14-5.85602E-13
 -1      1659 1.99964E+01-2.19921E-04 1.62735E-05-2.09433E-03-1.69196E-13-3.51828E-13
 -1      1660 1.99994E+01-1.59718E-04 1.58413E-05-3.68043E-04 1.05269E-13-4.11082E-13
 -1      1661 1.99986E+01-1.97214E-04 2.66672E-05-4.93575E-04 4.24412E-14-3.82587E-13
 -1      1662 1.99984E+01-3.21916E-04 3.26925E-05-1.27380E-03 4.64306E-14-3.79443E-13
 -1      1663 1.99997E+01-1.32977E-04 4.92887E-06-4.86760E-05-2.43292E-13-2.74820E-13
 -1      1664 1.99996E+01-1.56017E-03 2.74391E-05-7.58352E-04-2.15445E-13 1.49790E-13
 -1      1665 1.99996E+01-7.86864E-04 1.35470E-06-6.19214E-04-3.80075E-13 4.15851E-14
 -1      1666 1.99997E+01-3.77805E-03 8.90161E-06-1.15906E-03 3.23119E-13 3.14410E-13
 -1      1667 1.99997E+01-2.44514E-03 1.71110E-05-1.09992E-03-8.75353E-14 2.71794E-13
 -1      1668 1.99995E+01-2.11510E-03 3.03504E-05-1.79009E-03 8.33796E-14 3.76024E-13
 -1      1669 1.99998E+01-6.40425E-03-3.59383E-06-1.30347E-03-9.73295E-14-2.75661E-13
 -1      1670 1.99998E+01-4.84798E-03 6.82603E-06-1.29615E-03 3.40248E-13-4.95540E-14
 -1      1671 1.99997E+01-4.04635E-03 1.48779E-05-2.35730E-03 1.46103E-13 1.34917E-13
 -1      1672 1.99999E+01-9.01990E-03-8.13569E-06-1.23836E-03-7.50292E-13-4.79710E-13
 -1      1673 1.99998E+01-7.51048E-03-3.01652E-07-1.26784E-03-2.51793E-13-1.86045E-13
 -1      1674 1.99998E+01-6.19243E-03-6.27201E-06-2.47068E-03-1.68359E-13-4.37401E-13
 -1      1675 1.99999E+01-1.12544E-02-8.09864E-06-1.02833E-03-1.61053E-12-4.80762E-13
 -1      1676 1.99999E+01-1.00008E-02-2.11245E-06-1.07992E-03-8.41730E-13-8.08078E-13
 -1      1677 1.99999E+01-8.24583E-03-2.24057E-05-2.23025E-03-5.44368E-13-8.89817E-13
 -1      1678 1.99999E+01-1.29523E-02-6.32574E-06-7.18014E-04-1.43911E-12 2.37248E-13
 -1      1679 1.99999E+01-1.20412E-02-2.62562E-06-7.84998E-04-1.62013E-12 2.79031E-14
 -1      1680 2.00000E+01-9.97966E-03-3.19889E-05-1.74646E-03-5.59309E-13-3.73035E-13
 -1      1681 1.99999E+01-1.39208E-02-4.31836E-06-3.51223E-04-1.13806E-12 1.94536E-13
 -1      1682 1.99999E+01-1.34495E-02-2.43228E-06-4.25538E-04-1.45149E-12 3.64041E-13
 -1      1683 2.00000E+01-1.12351E-02-3.77883E-05-1.10240E-03-6.14555E-13 4.26739E-13
 -1      1684 1.99999E+01-1.40875E-02-2.94995E-06 4.02067E-05-8.45253E-13 1.14347E-13
 -1      1685 1.99999E+01-1.40899E-02-2.96537E-06-3.63908E-05-1.09102E-12 1.79270E-13
 -1      1686 2.00000E+01-1.18866E-02-4.03699E-05-3.73852E-04-6.84214E-13 2.74039E-13
 -1      1687 1.99999E+01-1.34390E-02-2.37596E-06 4.29404E-04-7.59723E-13 8.95064E-14
 -1      1688 1.99999E+01-1.39153E-02-4.36806E-06 3.55094E-04-8.43830E-13 1.40393E-13
 -1      1689 2.00000E+01-1.18836E-02-4.03838E-05 3.81256E-04-5.51429E-13 1.76064E-13
 -1      1690 1.99999E+01-1.20227E-02-2.40106E-06 7.88825E-04-9.90119E-13-1.85474E-13
 -1      1691 1.99999E+01-1.29386E-02-6.60135E-06 7.22031E-04-7.45536E-13-2.08441E-13
 -1      1692 2.00000E+01-1.12260E-02-3.77463E-05 1.11009E-03-5.35176E-13-1.00038E-13
 -1      1693 1.99999E+01-9.99279E-03-2.51720E-06 1.08061E-03-1.06489E-12 2.06304E-15
 -1      1694 1.99999E+01-1.12497E-02-8.38674E-06 1.02937E-03-1.03061E-12-1.29575E-13
 -1      1695 2.00000E+01-9.97768E-03-3.21818E-05 1.74991E-03-5.61497E-13-2.73587E-13
 -1      1696 1.99998E+01-7.47706E-03-3.43910E-07 1.27092E-03-6.87110E-13 4.96514E-14
 -1      1697 1.99999E+01-8.99148E-03-8.46067E-06 1.24163E-03-1.02673E-12 4.53340E-13
 -1      1698 1.99999E+01-8.23990E-03-2.20494E-05 2.23423E-03-5.30942E-13 4.27054E-13
 -1      1699 1.99998E+01-4.81431E-03 6.13274E-06 1.30111E-03-2.76279E-13 2.35347E-13
 -1      1700 1.99998E+01-6.37017E-03-3.76595E-06 1.30547E-03-5.76748E-13 2.18720E-13
 -1      1701 1.99998E+01-6.16647E-03-6.14106E-06 2.47505E-03-3.74904E-13 3.08971E-13
 -1      1702 1.99997E+01-2.45430E-03 3.15461E-06 1.09491E-03 3.23578E-14 3.37801E-14
 -1      1703 1.99997E+01-3.75219E-03 7.56444E-06 1.15431E-03-1.93513E-14 2.00038E-13
 -1      1704 1.99997E+01-4.01548E-03 1.39427E-05 2.35562E-03-4.52218E-14 3.32057E-13
 -1      1705 1.99995E+01-9.91915E-04-1.73852E-05 8.84174E-04-4.63605E-14-2.28826E-13
 -1      1706 1.99995E+01-1.76335E-03 6.02203E-06 1.08866E-03 1.20854E-13-1.64492E-13
 -1      1707 1.99994E+01-2.25012E-03 4.06771E-05 2.08087E-03 1.99501E-13-6.14934E-14
 -1      1708 1.99988E+01-1.03656E-03 7.48364E-06 1.69943E-03 1.09598E-13-4.28834E-13
 -1      1709-5.13221E-01-1.40668E+01-1.59979E+00-8.08674E-01 4.19997E-13 6.47343E-13
 -1      1710-5.32540E-01-1.63018E+01-1.78593E+00 3.76617E-01-5.36682E-13 5.32296E-13
 -1      1711 1.31799E+00-7.79527E+00-1.22386E+00 3.70894E-01 1.49647E-12 1.13312E-12
 -1      1712 5.75735E-01-1.30119E+01-1.73405E+00-2.68996E-01 7.73714E-13 6.54254E-13
 -1      1713 7.10969E+00-4.96156E-02-5.48284E-01 4.70868E+00 2.03793E-12 1.68321E-12
 -1      1714 3.82787E+00-5.59742E+00-1.32907E+00 1.64795E+00 1.70330E-12 1.29941E-12
 -1      1715 1.88088E+01 4.68102E+00 2.80789E-01 9.82230E+00 1.82510E-12 1.99607E-12
 -1      1716 1.20123E+01 1.45308E+00-5.90562E-01 6.17321E+00 1.96287E-12 1.70641E-12
 -1      1717 3.24936E+01 6.40316E+00 1.01605E+00 1.25495E+01 1.42553E-12 1.82232E-12
 -1      1718 2.34907E+01 6.25569E+00 1.87520E-01 1.07608E+01 1.87750E-12 2.04325E-12
 -1      1719 4.59023E+01 4.86336E+00 1.52808E+00 9.78596E+00 7.87891E-13 1.08136E-12
 -1      1720 3.74575E+01 6.31764E+00 9.01734E-01 1.14052E+01 1.18733E-12 1.58684E-12
 -1      1721 5.44425E+01 3.54292E+00 1.89669E+00 3.76809E+00 3.73757E-13 4.64184E-13
 -1      1722 4.98202E+01 4.77713E+00 1.56311E+00 8.45037E+00 5.76428E-13 9.34364E-13
 -1      1723 5.36338E+01 3.97263E+00 1.77399E+00-4.63112E+00 5.08815E-13-6.74405E-13
 -1      1724 5.49758E+01 3.55868E+00 1.85505E+00 1.05705E+00 4.37095E-13 9.16003E-14
 -1      1725 4.50112E+01 5.77476E+00 1.34874E+00-1.08776E+01 8.74883E-13-1.53222E-12
 -1      1726 5.18188E+01 4.10455E+00 1.83681E+00-7.29102E+00 5.77816E-13-1.00808E-12
 -1      1727 3.11965E+01 6.50779E+00 5.72901E-01-1.14547E+01 1.31517E-12-1.72751E-12
 -1      1728 4.04212E+01 5.67584E+00 1.35551E+00-1.15312E+01 9.52127E-13-1.61504E-12
 -1      1729 1.89116E+01 3.77193E+00-1.73300E-01-8.51137E+00 1.74427E-12-1.65967E-12
 -1      1730 2.66128E+01 5.23557E+00 6.26649E-01-1.10975E+01 1.44773E-12-1.69931E-12
 -1      1731 8.28055E+00-1.41606E+00-8.90452E-01-4.28018E+00 1.96243E-12-1.45117E-12
 -1      1732 1.36781E+01 2.97349E+00-5.11191E-02-7.94142E+00 1.87628E-12-1.72251E-12
 -1      1733 2.67397E+00-9.20757E+00-1.39935E+00-1.06003E+00 1.44518E-12-9.59122E-13
 -1      1734 4.81120E+00-3.42659E+00-7.31531E-01-3.15018E+00 1.84031E-12-1.37795E-12
 -1      1735-5.30449E-02-1.53231E+01-1.78142E+00-2.99922E-02 5.75762E-13-5.82145E-13
 -1      1736 2.21597E-01-1.10953E+01-1.38061E+00 3.09929E-01 1.29485E-12-8.41729E-13
 -1      1737-7.73486E-01-1.69430E+01-1.87550E+00-7.76049E-01-3.52551E-13-3.98626E-13
 -1      1738-7.77768E-01-1.66046E+01-1.83178E+00 8.29863E-01 3.60156E-13-4.17860E-13
 -1      1739-1.72407E-01-1.26668E+01-1.55068E+00-7.79799E-01-1.28342E-12-7.68288E-13
 -1      1740-2.65277E-01-1.60741E+01-1.84317E+00-8.07337E-02-6.17395E-13-5.02542E-13
 -1      1741 2.67688E+00-5.38945E+00-1.05318E+00 1.46341E+00-2.04592E-12-1.29508E-12
 -1      1742 1.33220E+00-1.10370E+01-1.65127E+00-1.17222E-02-1.60949E-12-8.96352E-13
 -1      1743 9.92441E+00 1.76464E+00-3.31611E-01 6.31013E+00-2.22933E-12-1.99241E-12
 -1      1744 5.72002E+00-3.17393E+00-1.13836E+00 2.87779E+00-2.09455E-12-1.54299E-12
 -1      1745 2.27534E+01 5.37538E+00 5.02297E-01 1.08852E+01-1.87161E-12-2.26241E-12
 -1      1746 1.51364E+01 2.97435E+00-3.78513E-01 7.51350E+00-2.07767E-12-2.03293E-12
 -1      1747 3.69298E+01 6.28776E+00 1.27174E+00 1.26411E+01-1.42425E-12-2.26819E-12
 -1      1748 2.76655E+01 6.70033E+00 4.40519E-01 1.16293E+01-1.77458E-12-2.37077E-12
 -1      1749 4.92058E+01 4.61678E+00 1.75479E+00 9.34456E+00-8.43037E-13-1.50613E-12
 -1      1750 4.16344E+01 6.22308E+00 1.19793E+00 1.17406E+01-1.22619E-12-2.02016E-12
 -1      1751 5.53389E+01 3.44112E+00 1.91409E+00 2.30863E+00-5.39957E-13-5.03486E-13
 -1      1752 5.20446E+01 4.43335E+00 1.71962E+00 7.28134E+00-7.06601E-13-1.20393E-12
 -1      1753 5.24127E+01 4.26857E+00 1.66925E+00-5.48840E+00-5.77011E-13 6.28275E-13
 -1      1754 5.47674E+01 3.64458E+00 1.82643E+00-2.31935E-01-5.27578E-13-1.47701E-13
 -1      1755 4.39142E+01 5.82575E+00 1.29790E+00-1.10354E+01-9.46188E-13 1.53033E-12
 -1      1756 5.06644E+01 4.21783E+00 1.75237E+00-8.00947E+00-5.85573E-13 1.02807E-12
 -1      1757 3.11286E+01 6.68495E+00 6.31927E-01-1.19401E+01-1.48204E-12 2.04947E-12
 -1      1758 3.97040E+01 5.84710E+00 1.34219E+00-1.21104E+01-1.17328E-12 1.65445E-12
 -1      1759 1.83485E+01 4.88868E+00-1.21958E-01-9.11557E+00-1.86851E-12 1.96954E-12
 -1      1760 2.61652E+01 6.25863E+00 7.12871E-01-1.18408E+01-1.56219E-12 2.21867E-12
 -1      1761 8.93406E+00-9.73564E-01-8.51442E-01-4.51701E+00-1.93201E-12 1.56408E-12
 -1      1762 1.42312E+01 3.02346E+00-3.89832E-02-7.99770E+00-1.90326E-12 1.80655E-12
 -1      1763 2.62328E+00-7.80698E+00-1.46940E+00-7.98652E-01-1.70963E-12 1.10745E-12
 -1      1764 4.85101E+00-2.49939E+00-7.84725E-01-3.05970E+00-1.96465E-12 1.50630E-12
 -1      1765 2.43868E-01-1.40912E+01-1.78920E+00 4.28598E-01-1.44229E-12 4.84272E-13
 -1      1766 6.88989E-01-9.67331E+00-1.35821E+00 2.28999E-01-1.61471E-12 7.49220E-13
 -1      1767-6.39491E-01-1.68839E+01-1.86727E+00-2.42736E-01-8.26644E-13 3.53217E-13
 -1      1768-6.69301E-01-1.52540E+01-1.74219E+00 1.10658E+00-1.32166E-12 3.69205E-13
 -1      1769 2.52312E+01 9.58220E-01 2.79876E-01 7.23367E+00 1.15169E-12 1.05871E-12
 -1      1770 1.49628E+01-2.89746E+00-2.65014E-01 6.47349E+00 1.07059E-12 1.15474E-12
 -1      1771 1.99995E+01-3.23579E-04 3.28015E-05-3.67984E-04-2.23493E-13-1.75160E-13
 -1      1772 1.99992E+01-8.37796E-04 1.84239E-05-1.06504E-03-2.16467E-14-1.56210E-13
 -1      1773 6.25648E-01-1.00475E+01-1.17554E+00 2.32447E+00 1.21680E-13 9.97091E-13
 -1      1774 5.91661E+00-7.03314E+00-8.78093E-01 4.39534E+00 7.04437E-13 1.17910E-12
 -1      1775-1.30890E+00-1.12785E+01-1.28199E+00 2.45472E-01-4.06078E-13 8.87623E-13
 -1      1776 3.52246E+01 4.33347E+00 8.80373E-01 6.57711E+00 1.13251E-12 8.44325E-13
 -1      1777 4.29991E+01 6.27507E+00 1.26960E+00 4.18437E+00 8.66779E-13 5.49338E-13
 -1      1778 4.72324E+01 7.21136E+00 1.54704E+00 1.07019E+00 7.53675E-13 1.35947E-13
 -1      1779 4.60903E+01 7.06976E+00 1.50416E+00-2.85619E+00 8.07632E-13-4.19942E-13
 -1      1780 3.99942E+01 5.45592E+00 1.09780E+00-5.51468E+00 8.93563E-13-8.21343E-13
 -1      1781 3.11255E+01 2.17050E+00 5.13348E-01-6.30034E+00 9.66338E-13-8.51541E-13
 -1      1782 2.16106E+01-1.28192E+00 9.87791E-02-6.88153E+00 1.03562E-12-9.25260E-13
 -1      1783 1.15607E+01-5.00992E+00-4.78084E-01-6.05231E+00 9.00058E-13-9.98784E-13
 -1      1784 3.76149E+00-8.39622E+00-8.95557E-01-4.10793E+00 5.62439E-13-1.01485E-12
 -1      1785-7.21036E-01-1.10144E+01-1.25151E+00-1.44642E+00 2.25181E-13-8.71303E-13
 -1      1786-1.01976E+00-1.14978E+01-1.31822E+00 9.52443E-01-2.38976E-13-8.27560E-13
 -1      1787 2.07511E+00-9.45984E+00-1.11964E+00 2.99457E+00-7.64055E-13-1.03476E-12
 -1      1788 8.38401E+00-5.81386E+00-7.15652E-01 5.07829E+00-1.22191E-12-1.21930E-12
 -1      1789 1.80525E+01-1.80146E+00-9.77572E-02 6.85790E+00-1.28897E-12-1.39777E-12
 -1      1790 2.84049E+01 1.84600E+00 4.39004E-01 7.19996E+00-1.24573E-12-1.37357E-12
 -1      1791 3.81694E+01 5.06092E+00 1.07741E+00 6.61486E+00-1.12482E-12-1.11211E-12
 -1      1792 4.51803E+01 6.70545E+00 1.48934E+00 4.07005E+00-9.72056E-13-7.52676E-13
 -1      1793 4.71968E+01 7.44568E+00 1.54662E+00 6.41064E-01-9.37694E-13-1.68809E-13
 -1      1794 4.52830E+01 6.98828E+00 1.44121E+00-3.01719E+00-8.53317E-13 3.65374E-13
 -1      1795 3.98129E+01 5.38482E+00 1.15363E+00-6.05935E+00-1.01505E-12 8.39440E-13
 -1      1796 3.08569E+01 3.05302E+00 6.22229E-01-7.36416E+00-1.11289E-12 1.20293E-12
 -1      1797 2.11399E+01-6.85153E-01 7.11080E-03-7.02896E+00-1.16918E-12 1.21259E-12
 -1      1798 1.19974E+01-4.43826E+00-4.62939E-01-5.94315E+00-1.05427E-12 1.11783E-12
 -1      1799 4.29540E+00-8.04884E+00-9.87766E-01-3.80753E+00-9.32254E-13 8.64447E-13
 -1      1800 1.05115E-02-1.08495E+01-1.27649E+00-1.81311E+00-7.57228E-13 5.32629E-13
 -1      1801 2.34731E+01 1.95225E+00-2.71454E-02-2.41222E+00-2.33816E-13 1.19182E-12
 -1      1802 2.01782E+01 3.78943E+00-3.81446E-02-1.53725E+00-3.41101E-13-2.46910E-13
 -1      1803 2.05667E+01 3.61909E+00-3.49295E-02-1.84011E+00-3.78864E-13-1.24182E-13
 -1      1804 2.09971E+01 3.18770E+00-4.70295E-02-2.02064E+00-3.67105E-13 3.09128E-14
 -1      1805 2.13241E+01 2.79432E+00-1.32091E-01-2.32350E+00-3.87470E-13 2.46067E-13
 -1      1806 2.10243E+01 2.73584E+00-1.61247E-03-1.61029E+00-3.87841E-13-3.37126E-14
 -1      1807 1.90458E+01 4.39652E+00-2.15499E-02-7.48217E-01-2.28900E-13-4.68322E-13
 -1      1808 1.92808E+01 4.34848E+00-1.26999E-02-9.30244E-01-2.58957E-13-4.40301E-13
 -1      1809 1.86683E+01 4.55356E+00-1.65891E-02-4.66171E-01-1.53836E-13-5.13369E-13
 -1      1810 1.88442E+01 4.52514E+00-9.23215E-03-6.11158E-01-1.90368E-13-4.89667E-13
 -1      1811 1.90942E+01 4.09919E+00-6.43024E-03-6.05783E-01-2.26176E-13-4.57278E-13
 -1      1812 1.84241E+01 4.64909E+00-1.29379E-02-2.41935E-01-8.48943E-14-5.22599E-13
 -1      1813 1.85305E+01 4.63425E+00-8.49403E-03-3.60204E-01-1.19359E-13-5.16720E-13
 -1      1814 1.87189E+01 4.28825E+00-5.52349E-03-3.67458E-01-1.44493E-13-4.92729E-13
 -1      1815 1.83243E+01 4.68951E+00-1.02962E-02-4.95475E-02-1.03419E-14-5.43886E-13
 -1      1816 1.83563E+01 4.68587E+00-9.17985E-03-1.55146E-01-4.30359E-14-5.33689E-13
 -1      1817 1.84925E+01 4.39380E+00-4.92447E-03-1.77641E-01-7.01627E-14-5.05261E-13
 -1      1818 1.83732E+01 4.67737E+00-8.63986E-03 1.39531E-01 4.84348E-14-5.44816E-13
 -1      1819 1.83298E+01 4.68412E+00-1.08941E-02 3.22193E-02 2.26618E-14-5.51607E-13
 -1      1820 1.84250E+01 4.42169E+00-4.81903E-03-1.10819E-02 1.08408E-14-5.29190E-13
 -1      1821 1.85655E+01 4.61295E+00-8.20335E-03 3.53691E-01 1.03424E-13-5.36935E-13
 -1      1822 1.84506E+01 4.63078E+00-1.34420E-02 2.30669E-01 7.49537E-14-5.45038E-13
 -1      1823 1.85180E+01 4.37446E+00-5.27386E-03 1.60003E-01 6.39571E-14-5.30545E-13
 -1      1824 1.88825E+01 4.49658E+00-9.22819E-03 6.13927E-01 1.73072E-13-4.90741E-13
 -1      1825 1.87064E+01 4.52655E+00-1.69216E-02 4.65111E-01 1.34716E-13-5.17565E-13
 -1      1826 1.87614E+01 4.25425E+00-6.01650E-03 3.60182E-01 1.27722E-13-5.09599E-13
 -1      1827 1.93224E+01 4.31358E+00-1.25795E-02 9.51070E-01 2.53586E-13-4.21569E-13
 -1      1828 1.90847E+01 4.36385E+00-2.18174E-02 7.58953E-01 2.05886E-13-4.59631E-13
 -1      1829 1.91415E+01 4.05661E+00-7.07908E-03 6.12161E-01 2.03468E-13-4.54694E-13
 -1      1830 1.98797E+01 4.03295E+00-2.08479E-02 1.37749E+00 3.35895E-13-3.17395E-13
 -1      1831 1.95813E+01 4.12061E+00-2.92281E-02 1.13216E+00 2.92192E-13-3.77576E-13
 -1      1832 1.96524E+01 3.76298E+00-7.47379E-03 9.30227E-01 2.93825E-13-3.66658E-13
 -1      1833 2.05867E+01 3.56551E+00-4.05013E-02 1.88901E+00 3.87586E-13-1.23332E-13
 -1      1834 2.02041E+01 3.74258E+00-4.17308E-02 1.58513E+00 3.55051E-13-2.40575E-13
 -1      1835 2.02954E+01 3.33050E+00-4.71845E-03 1.30462E+00 3.64367E-13-2.40065E-13
 -1      1836 2.16268E+01 2.66456E+00-5.27537E-02 2.35527E+00 4.01389E-13 2.68174E-13
 -1      1837 2.10410E+01 3.09902E+00-5.05717E-02 2.07073E+00 3.87274E-13 3.49373E-14
 -1      1838 2.11065E+01 2.63852E+00 3.41383E-03 1.65430E+00 4.04843E-13-1.88044E-14
 -1      1839 2.24834E+01 1.18463E+00-1.18343E-01 1.94007E+00 3.53176E-13 7.34579E-13
 -1      1840 2.20167E+01 2.23108E+00-8.17326E-04 2.28681E+00 3.79630E-13 4.26395E-13
 -1      1841 2.17266E+01 1.67408E+00-1.77593E-02 1.63141E+00 4.11412E-13 2.70638E-13
 -1      1842 2.18477E+01 7.63785E-01-5.54970E-02 1.13586E+00 3.53682E-13 6.16660E-13
 -1      1843 2.25346E+01 2.41159E+00 8.55402E-02-2.61215E+00-3.23583E-13 5.97480E-13
 -1      1844 2.12775E+01 3.07808E-01-4.30673E-03 2.63563E-01 2.67363E-13 4.64420E-13
 -1      1845 2.16591E+01 4.41350E-01-9.86265E-03 6.47110E-01 2.93252E-13 5.56467E-13
 -1      1846 2.16863E+01 8.36354E-01-6.99388E-04 9.47666E-01 3.48943E-13 3.58309E-13
 -1      1847 2.22797E+01 1.72418E+00 7.73593E-02-1.85214E+00-3.47847E-13 4.45199E-13
 -1      1848 2.16003E+01 5.23538E-01 3.34517E-02-4.27030E-01-2.71352E-13 3.80818E-13
 -1      1849 2.13524E+01 3.91263E-01 1.33701E-02-1.18321E-01-2.46950E-13 3.09313E-13
 -1      1850 2.12794E+01 3.06243E-01 2.75509E-02 1.58424E-01-2.28192E-13 2.97940E-13
 -1      1851 2.12925E+01 2.35031E-01 1.47091E-02 3.26488E-01-1.89649E-13 2.29035E-13
 -1      1852 2.13340E+01 5.47455E-01-9.02105E-03-5.50820E-02-2.77632E-13 1.26890E-13
 -1      1853 2.13180E+01 1.90959E-01 1.67504E-02 5.03983E-01-1.46823E-13 2.03443E-13
 -1      1854 2.14673E+01 1.48758E-01 9.75902E-03 6.07257E-01-1.07665E-13 1.49519E-13
 -1      1855 2.12845E+01 3.27320E-01-8.40164E-03 4.63923E-01-2.10811E-13 8.68398E-14
 -1      1856 2.15743E+01 1.14656E-01 8.91649E-03 7.19102E-01-9.51233E-14 1.32002E-13
 -1      1857 2.18036E+01 7.56044E-02 4.13147E-03 7.76099E-01-1.08185E-13 1.13768E-13
 -1      1858 2.14242E+01 1.97330E-01-7.34388E-03 7.93823E-01-1.44985E-13 1.70120E-14
 -1      1859 2.19726E+01 3.69331E-02 4.42883E-03 8.29142E-01-1.05828E-13 1.17337E-13
 -1      1860 2.22352E+01-1.32047E-02-2.16397E-03 8.36254E-01-9.24278E-14 1.06480E-13
 -1      1861 2.17049E+01 7.97273E-02-6.26643E-03 9.84601E-01-1.08985E-13-1.72388E-14
 -1      1862 2.24482E+01-6.56016E-02 1.92138E-03 8.19176E-01-7.16848E-14 1.21325E-13
 -1      1863 2.26960E+01-1.35109E-01-9.65089E-03 7.60597E-01-2.83428E-14 1.35252E-13
 -1      1864 2.20868E+01-6.68457E-02-5.08469E-03 1.03321E+00-7.71962E-14 4.19309E-14
 -1      1865 2.29332E+01-2.04653E-01 4.44265E-04 6.51080E-01-2.27006E-14 1.60641E-13
 -1      1866 2.31107E+01-2.92170E-01-1.75926E-02 5.07388E-01-1.09392E-14 1.49127E-13
 -1      1867 2.25309E+01-2.63790E-01-3.56471E-03 9.04135E-01-1.10190E-14 5.82060E-14
 -1      1868 2.33437E+01-3.70406E-01-8.81099E-04 2.83865E-01-1.09244E-14 1.81510E-13
 -1      1869 2.33918E+01-4.55209E-01-2.32628E-02 4.72775E-02 7.96498E-15 2.07055E-13
 -1      1870 2.29900E+01-5.02948E-01-9.12230E-04 5.49242E-01-4.00808E-15 7.81144E-14
 -1      1871 2.35736E+01-5.12101E-01-3.30269E-03-2.87707E-01 4.33681E-16 1.96102E-13
 -1      1872 2.34460E+01-5.44540E-01-2.17812E-02-5.88294E-01-1.09461E-15 1.49533E-13
 -1      1873 2.33936E+01-7.21525E-01 3.93143E-03-5.59184E-02-2.18298E-14 1.21013E-13
 -1      1874 2.35070E+01-5.24441E-01-7.99471E-03-9.70525E-01-2.14195E-14 1.26027E-13
 -1      1875 2.32005E+01-4.37620E-01-9.25629E-03-1.24303E+00-1.62587E-14 1.05365E-13
 -1      1876 2.36347E+01-7.80485E-01 1.11313E-02-8.48216E-01-3.02250E-14 1.56155E-13
 -1      1877 2.30786E+01-2.87721E-01-1.43971E-02-1.51826E+00-3.99069E-14 8.84275E-14
 -1      1878 2.26647E+01-5.38821E-02 1.04309E-02-1.61505E+00-9.16846E-14 8.43735E-14
 -1      1879 2.35877E+01-5.07955E-01 1.57198E-02-1.59785E+00-4.56822E-14 8.23608E-14
 -1      1880 2.23840E+01 2.08958E-01-1.67935E-02-1.58316E+00-1.12488E-13 5.63230E-14
 -1      1881 2.20089E+01 5.04580E-01 2.38447E-02-1.38139E+00-1.73847E-13 4.77656E-14
 -1      1882 2.32072E+01 1.40849E-01 6.28042E-03-1.90642E+00-1.44066E-13 4.83066E-14
 -1      1883 2.17399E+01 7.45772E-01-6.18382E-03-9.49260E-01-1.74041E-13 1.66481E-14
 -1      1884 2.15664E+01 9.14447E-01 1.89419E-02-4.77867E-01-1.12660E-13 2.94079E-15
 -1      1885 2.26728E+01 9.19257E-01-1.69621E-02-1.41407E+00-2.01200E-13 2.13789E-14
 -1      1886 2.15290E+01 9.57092E-01 1.31030E-02 1.86519E-01-1.47490E-13-1.13834E-13
 -1      1887 2.16466E+01 8.69727E-01 4.99171E-04 7.05350E-01-1.67106E-13-1.51939E-13
 -1      1888 2.23705E+01 1.35367E+00-3.24142E-02-1.76264E-01-1.96137E-13-1.53974E-13
 -1      1889 2.18836E+01 6.79421E-01 2.42592E-02 1.24896E+00-1.89288E-13-1.97903E-13
 -1      1890 2.22462E+01 4.04652E-01-1.42049E-02 1.55593E+00-1.40339E-13-2.39895E-13
 -1      1891 2.25684E+01 1.12835E+00-2.42021E-02 1.19432E+00-2.39480E-13-3.03917E-13
 -1      1892 2.25733E+01 1.29228E-01 1.59277E-02 1.72423E+00-1.02045E-13-3.43862E-13
 -1      1893 2.30325E+01-1.40653E-01-1.57718E-02 1.72081E+00-6.54495E-14-3.93451E-13
 -1      1894 2.31224E+01 4.12426E-01-7.16976E-04 1.97527E+00-2.13229E-13-3.38811E-13
 -1      1895 2.32421E+01-3.35175E-01-3.47393E-03 1.52998E+00-9.56093E-15-4.09867E-13
 -1      1896 2.36371E+01-4.71426E-01-9.73701E-03 1.30169E+00 3.24914E-15-4.12646E-13
 -1      1897 2.36387E+01-3.20976E-01 1.42172E-02 1.91232E+00-4.40258E-14-4.00102E-13
 -1      1898 2.36573E+01-5.30399E-01-1.92265E-02 9.37399E-01-1.32993E-14-3.66216E-13
 -1      1899 2.38895E+01-5.30660E-01-4.16791E-03 6.36065E-01 5.72537E-14-3.42534E-13
 -1      1900 2.38507E+01-7.23754E-01 1.36685E-02 1.26764E+00 6.87731E-15-3.92378E-13
 -1      1901 2.37631E+01-4.93335E-01-2.42463E-02 2.76731E-01 1.15666E-13-3.29221E-13
 -1      1902 2.38123E+01-4.20372E-01-1.32826E-03 1.53528E-02 1.55327E-13-2.78484E-13
 -1      1903 2.37422E+01-7.58332E-01 6.98493E-03 4.61010E-01 7.57484E-14-3.65180E-13
 -1      1904 2.36097E+01-3.46656E-01-2.07299E-02-2.48036E-01 1.71496E-13-2.44936E-13
 -1      1905 2.35094E+01-2.59174E-01-3.70563E-04-4.23167E-01 1.29326E-13-1.94010E-13
 -1      1906 2.34235E+01-5.78610E-01 1.41336E-03-2.18636E-01 1.89662E-13-2.30828E-13
 -1      1907 2.32823E+01-1.88610E-01-1.36430E-02-5.74387E-01 1.20375E-13-1.53598E-13
 -1      1908 2.30854E+01-1.17319E-01-3.82893E-05-6.64170E-01 1.04190E-13-9.01059E-15
 -1      1909 2.30072E+01-3.44422E-01-1.49254E-03-6.64877E-01 1.97894E-13-1.81600E-13
 -1      1910 2.28620E+01-6.54769E-02-6.60085E-03-7.24061E-01 7.66550E-14-1.70458E-14
 -1      1911 2.26187E+01-1.84335E-02 2.84248E-04-7.49751E-01 1.15782E-13 1.71568E-14
 -1      1912 2.25670E+01-1.45786E-01-2.55723E-03-8.88716E-01 1.34474E-13-6.53908E-14
 -1      1913 2.24123E+01 1.35550E-02-1.23433E-03-7.48462E-01 1.61873E-13-1.52153E-14
 -1      1914 2.21601E+01 3.94681E-02 6.66385E-04-7.34049E-01 1.52025E-13 9.05649E-14
 -1      1915 2.21424E+01-1.03951E-02-2.79597E-03-9.47471E-01 1.47754E-13-7.28040E-14
 -1      1916 2.19761E+01 5.60677E-02 2.17139E-03-6.97920E-01 8.93248E-14 8.30915E-14
 -1      1917 2.17388E+01 6.71294E-02 1.01426E-03-6.62602E-01 7.53369E-14 1.47666E-13
 -1      1918 2.17532E+01 6.71333E-02-2.75870E-03-9.02612E-01 1.68146E-13 2.93638E-14
 -1      1919 2.15792E+01 7.35666E-02 3.95176E-03-6.10489E-01 5.05032E-14 1.58941E-13
 -1      1920 2.13695E+01 7.55353E-02 1.25197E-03-5.67196E-01 5.61469E-14 1.92432E-13
 -1      1921 2.14084E+01 1.02776E-01-2.63638E-03-8.02956E-01 1.05884E-13-4.24703E-14
 -1      1922 2.12341E+01 7.59998E-02 4.59906E-03-5.11007E-01 1.02787E-14 1.72445E-13
 -1      1923 2.10567E+01 7.30594E-02 1.35840E-03-4.67427E-01 6.57896E-14 1.58292E-13
 -1      1924 2.11114E+01 1.12107E-01-2.47172E-03-6.81752E-01 4.27159E-14 6.90296E-14
 -1      1925 2.09443E+01 7.04101E-02 4.55229E-03-4.13895E-01 7.26689E-14 7.96751E-14
 -1      1926 2.07990E+01 6.52439E-02 1.35186E-03-3.74048E-01 1.55711E-13 9.00427E-14
 -1      1927 2.08615E+01 1.06796E-01-2.26949E-03-5.59220E-01 2.74807E-14 4.20403E-14
 -1      1928 2.07075E+01 6.12510E-02 4.13446E-03-3.26476E-01 1.42266E-13 1.07695E-14
 -1      1929 2.05918E+01 5.54323E-02 1.26553E-03-2.92081E-01-2.47788E-14-8.97404E-15
 -1      1930 2.06557E+01 9.44858E-02-2.03531E-03-4.46304E-01 5.88745E-14-8.63141E-14
 -1      1931 2.05187E+01 5.11115E-02 3.55707E-03-2.51678E-01-1.76875E-13 2.34666E-15
 -1      1932 2.04287E+01 4.54862E-02 1.13232E-03-2.23123E-01-2.18220E-13 1.26042E-14
 -1      1933 2.04896E+01 7.97471E-02-1.78161E-03-3.47962E-01-4.92399E-14-1.20954E-13
 -1      1934 2.03713E+01 4.13743E-02 2.94651E-03-1.89909E-01-2.74976E-13 1.94891E-13
 -1      1935 2.03027E+01 3.63445E-02 9.78330E-04-1.66879E-01-1.79244E-13 2.20827E-13
 -1      1936 2.03581E+01 6.50965E-02-1.52358E-03-2.65564E-01-1.21388E-13 7.62864E-14
 -1      1937 2.02586E+01 3.26912E-02 2.37134E-03-1.40263E-01-1.42414E-13 1.66606E-13
 -1      1938 2.02074E+01 2.84037E-02 8.21794E-04-1.22120E-01-4.29778E-16 1.58173E-13
 -1      1939 2.02558E+01 5.17786E-02-1.27476E-03-1.98500E-01-2.08829E-13 1.48286E-13
 -1      1940 2.01740E+01 2.52951E-02 1.86367E-03-1.01248E-01 3.78159E-14 1.37890E-13
 -1      1941 2.01366E+01 2.17594E-02 6.74209E-04-8.72455E-02 8.64437E-14 1.56444E-13
 -1      1942 2.01778E+01 4.02958E-02-1.04501E-03-1.45187E-01-3.60898E-14 1.34962E-13
 -1      1943 2.01119E+01 1.91944E-02 1.43416E-03-7.11950E-02 9.85569E-14 8.60618E-15
 -1      1944 2.00853E+01 1.63520E-02 5.41932E-04-6.05960E-02 3.96094E-14 1.08026E-14
 -1      1945 2.01194E+01 3.07423E-02-8.40364E-04-1.03671E-01 4.81982E-14-2.93417E-14
 -1      1946 2.00674E+01 1.42861E-02 1.08173E-03-4.84850E-02-3.77311E-14-1.02815E-13
 -1      1947 2.00490E+01 1.20497E-02 4.27696E-04-4.06159E-02-7.02452E-14-4.29236E-14
 -1      1948 2.00766E+01 2.30044E-02-6.63528E-04-7.19542E-02-4.89342E-14-1.62716E-13
 -1      1949 2.00363E+01 1.04200E-02 7.99502E-04-3.16520E-02-1.42793E-13-3.94724E-14
 -1      1950 2.00241E+01 8.69451E-03 3.31850E-04-2.59276E-02-1.63629E-13-1.57759E-13
 -1      1951 2.00460E+01 1.68746E-02-5.14690E-04-4.81781E-02-9.53126E-14-5.81814E-14
 -1      1952 2.00154E+01 7.43315E-03 5.78151E-04-1.94277E-02-4.11244E-14-1.47593E-13
 -1      1953 2.00077E+01 6.12682E-03 2.53325E-04-1.53562E-02 2.40651E-14-1.41590E-13
 -1      1954 2.00247E+01 1.21140E-02-3.92222E-04-3.06997E-02-1.07036E-13-1.56890E-13
 -1      1955 2.00020E+01 5.16818E-03 4.07816E-04-1.07500E-02 9.57974E-14-1.78808E-13
 -1      1956 1.99975E+01 4.19801E-03 1.90280E-04-7.92912E-03 1.46562E-13-1.39481E-13
 -1      1957 2.00104E+01 8.48564E-03-2.93438E-04-1.81207E-02 9.56931E-14-2.52251E-13
 -1      1958 1.99940E+01 3.48256E-03 2.79101E-04-4.75195E-03 8.37716E-14 1.43911E-14
 -1      1959 1.99917E+01 2.77627E-03 1.40499E-04-2.85965E-03 3.92889E-14 1.16641E-13
 -1      1960 2.00013E+01 5.77147E-03-2.15196E-04-9.28375E-03 2.08273E-13-5.65174E-14
 -1      1961 1.99898E+01 2.25185E-03 1.83582E-04-7.41435E-04-6.99157E-14-1.48334E-14
 -1      1962 1.99891E+01 1.74797E-03 1.01631E-04 4.74096E-04-1.13629E-13-1.87745E-14
 -1      1963 1.99959E+01 3.77925E-03-1.54257E-04-3.25384E-03-7.53552E-14 7.31210E-14
 -1      1964 1.99882E+01 1.36975E-03 1.13982E-04 1.82118E-03 1.73269E-14-6.32628E-14
 -1      1965 1.99885E+01 1.01660E-03 7.13271E-05 2.55189E-03 2.10239E-13-9.94472E-14
 -1      1966 1.99931E+01 2.34390E-03-1.07509E-04 7.07211E-04 5.56825E-15-7.48526E-14
 -1      1967 1.99884E+01 7.46356E-04 6.41918E-05 3.34536E-03 3.18932E-13-1.33676E-13
 -1      1968 1.99893E+01 5.00426E-04 4.73131E-05 3.73241E-03 1.16883E-13 5.47561E-14
 -1      1969 1.99922E+01 1.32544E-03-7.21097E-05 3.16743E-03 1.88501E-13-3.98905E-15
 -1      1970 1.99896E+01 3.05304E-04 2.92498E-05 4.13002E-03-4.06661E-14 1.61234E-13
 -1      1971 1.99909E+01 1.29209E-04 2.74525E-05 4.27116E-03 6.27800E-15 2.81835E-13
 -1      1972 1.99924E+01 6.05034E-04-4.55964E-05 4.54960E-03 1.34446E-13 4.51341E-14
 -1      1973 1.99914E+01-1.99169E-05 5.33946E-06 4.37955E-03 1.49956E-14 2.94361E-13
 -1      1974 1.99928E+01-1.59438E-04 9.96249E-06 4.33445E-03 9.68742E-14 3.08933E-13
 -1      1975 1.99934E+01 7.99949E-05-2.59152E-05 5.15281E-03 2.58163E-14 1.56872E-13
 -1      1976 1.99935E+01-2.89065E-04-1.00180E-05 4.21638E-03-2.15746E-13 1.76141E-13
 -1      1977 1.99948E+01-4.21080E-04-4.92092E-06 4.01025E-03-3.11480E-13-5.33881E-14
 -1      1978 1.99947E+01-3.40859E-04-1.13815E-05 5.17069E-03-2.32173E-13 1.75076E-13
 -1      1979 1.99956E+01-5.60175E-04-1.87628E-05 3.69722E-03-1.94777E-13-2.88722E-13
 -1      1980 1.99967E+01-7.06059E-04-1.68602E-05 3.32353E-03-1.23404E-13-2.29360E-13
 -1      1981 1.99961E+01-7.34526E-04-1.25287E-06 4.70908E-03-4.42366E-13-3.29295E-14
 -1      1982 1.99973E+01-8.23549E-04-1.89052E-05 2.84851E-03 7.03497E-14-4.11967E-13
 -1      1983 1.99982E+01-9.82729E-04-2.81642E-05 2.31586E-03 1.21630E-13-4.19907E-13
 -1      1984 1.99985E+01-1.43932E-03 5.88043E-06 2.69219E-03 1.17657E-13-2.32577E-13
 -1      1985 1.99974E+01-1.13346E-03 8.12435E-06 3.84770E-03-1.11987E-13-3.88322E-14
 -1      1986 2.11156E+01 1.65278E-01 1.05455E-02-1.66314E-01 1.77292E-13 3.48600E-13
 -1      1987 2.12024E+01 2.23585E-01 1.78511E-02 2.53671E-02 2.13930E-13 4.17923E-13
 -1      1988 2.13009E+01 3.69667E-01-4.26579E-03 1.53296E-01 2.67626E-13 2.72385E-13
 -1      1989 2.12323E+01 9.63415E-02 8.29923E-03-4.12525E-01 1.28729E-13 2.52259E-13
 -1      1990 2.11459E+01 1.28012E-01 1.49650E-02-3.00404E-01 1.32090E-13 3.23514E-13
 -1      1991 2.12077E+01 1.96726E-01-4.70845E-03-2.95224E-01 1.73972E-13 2.15921E-13
 -1      1992 2.15316E+01 4.69462E-02 4.17835E-03-5.50576E-01 8.41046E-14 1.87501E-13
 -1      1993 2.13476E+01 7.12400E-02 8.47913E-03-4.84917E-01 9.94378E-14 2.33523E-13
 -1      1994 2.13439E+01 1.05535E-01-5.41730E-03-5.56237E-01 1.26763E-13 1.45425E-13
 -1      1995 2.19305E+01-5.26320E-03 3.16392E-04-5.97092E-01 1.02582E-14 1.48064E-13
 -1      1996 2.17012E+01 2.01074E-02 3.44774E-03-5.72587E-01 5.44269E-14 1.90103E-13
 -1      1997 2.16286E+01 3.18042E-02-5.13563E-03-6.89324E-01 7.27023E-14 8.37364E-14
 -1      1998 2.23508E+01-7.11805E-02-3.45992E-03-5.40016E-01 7.40354E-14 1.32197E-13
 -1      1999 2.21233E+01-4.10240E-02-3.30008E-04-5.64378E-01 2.15895E-14 1.33872E-13
 -1      2000 2.19939E+01-5.15987E-02-3.83861E-03-7.02190E-01 4.83463E-14 5.99022E-14
 -1      2001 2.27087E+01-1.52298E-01-6.80360E-03-3.55109E-01 4.08853E-14 1.45845E-13
 -1      2002 2.25334E+01-1.18390E-01-3.46810E-03-4.41634E-01 7.20830E-14 1.53440E-13
 -1      2003 2.23742E+01-1.55450E-01-1.56799E-03-5.76020E-01 6.47403E-14 1.12925E-13
 -1      2004 2.29119E+01-2.35279E-01-8.44340E-03-2.58088E-02 9.58478E-14 9.12131E-14
 -1      2005 2.28420E+01-2.06000E-01-6.02802E-03-1.83836E-01 5.79172E-14 1.42872E-13
 -1      2006 2.26972E+01-2.73298E-01 1.88722E-03-2.86362E-01 7.09753E-14 1.08349E-13
 -1      2007 2.28702E+01-2.85021E-01-6.78254E-03 4.25926E-01 2.27682E-15 1.22219E-13
 -1      2008 2.29519E+01-2.78222E-01-7.59744E-03 2.06486E-01 3.61308E-14 1.00129E-13
 -1      2009 2.28806E+01-3.72784E-01 6.50246E-03 1.68349E-01 4.96990E-14 1.34310E-13
 -1      2010 2.25248E+01-2.48194E-01-1.65475E-03 9.02388E-01 6.25203E-14 1.43698E-13
 -1      2011 2.27774E+01-2.86590E-01-7.68891E-03 6.69658E-01 6.40859E-14 1.58781E-13
 -1      2012 2.28420E+01-3.91256E-01 1.10611E-02 7.26652E-01 6.23668E-14 1.49569E-13
 -1      2013 2.18989E+01-8.37233E-02 4.09602E-03 1.21725E+00 6.87748E-14 1.45439E-13
 -1      2014 2.22899E+01-1.77404E-01-5.74073E-03 1.06273E+00 3.43579E-14 1.44983E-13
 -1      2015 2.25307E+01-2.58214E-01 1.22255E-02 1.22831E+00 5.76778E-14 1.38067E-13
 -1      2016 2.11478E+01 1.82027E-01 5.17268E-03 1.15675E+00 1.72191E-13 3.49061E-14
 -1      2017 2.15786E+01 5.97303E-02-1.20649E-03 1.18284E+00 1.22695E-13 9.96651E-14
 -1      2018 2.19884E+01 4.55052E-02 6.64975E-03 1.43040E+00 1.24789E-13 9.83120E-14
 -1      2019 2.05582E+01 4.24088E-01-8.69803E-04 6.32004E-01 1.02357E-13-3.33327E-14
 -1      2020 2.08796E+01 3.38601E-01 5.24487E-03 8.75453E-01 9.96633E-14-1.37459E-14
 -1      2021 2.13997E+01 4.20156E-01-5.02198E-03 1.12492E+00 1.63810E-13 4.40837E-14
 -1      2022 2.04202E+01 4.93044E-01-8.17960E-03-1.90176E-01 8.21444E-14-1.61491E-13
 -1      2023 2.04950E+01 5.02541E-01 1.14311E-02 1.85970E-01 1.05048E-13-1.03843E-13
 -1      2024 2.10487E+01 6.68315E-01-1.47649E-02 3.29004E-01 1.41977E-13-5.24756E-14
 -1      2025 2.08322E+01 3.41964E-01-8.84529E-03-9.46873E-01 8.19084E-14-2.92915E-13
 -1      2026 2.06138E+01 4.43661E-01 1.35100E-02-6.06151E-01 9.36872E-14-2.17730E-13
 -1      2027 2.11418E+01 6.40091E-01-1.19722E-02-6.40945E-01 1.22772E-13-1.66099E-13
 -1      2028 2.16180E+01 7.31992E-02-1.95320E-03-1.31944E+00 1.95871E-13-3.69690E-13
 -1      2029 2.11853E+01 2.03357E-01 9.33595E-03-1.15192E+00 1.77918E-13-3.42273E-13
 -1      2030 2.16416E+01 3.48158E-01-1.75262E-03-1.34913E+00 2.34448E-13-2.42746E-13
 -1      2031 2.24521E+01-1.56381E-01 6.04954E-03-1.23566E+00 1.31403E-13-2.88946E-13
 -1      2032 2.19623E+01-6.61866E-02 8.98770E-04-1.26546E+00 1.70960E-13-3.06579E-13
 -1      2033 2.23013E+01-2.72854E-02 5.94790E-03-1.53698E+00 1.65077E-13-2.82167E-13
 -1      2034 2.30711E+01-2.65471E-01 9.45122E-03-8.47316E-01-9.54879E-14-4.14008E-13
 -1      2035 2.26710E+01-2.37970E-01-6.93121E-03-1.00694E+00 2.63678E-15-3.63421E-13
 -1      2036 2.28539E+01-3.01561E-01 5.51637E-03-1.25430E+00 7.58490E-14-2.90641E-13
 -1      2037 2.33665E+01-2.61792E-01 8.54720E-03-3.69513E-01-9.68479E-14-4.13669E-13
 -1      2038 2.31345E+01-2.82076E-01-1.09550E-02-5.67722E-01-7.87009E-14-3.85125E-13
 -1      2039 2.31570E+01-3.99589E-01 1.98364E-03-7.29495E-01-7.15174E-14-3.36314E-13
 -1      2040 2.33587E+01-1.96983E-01 5.23687E-03 4.20486E-02-3.85204E-14-4.06503E-13
 -1      2041 2.33028E+01-2.37540E-01-1.09957E-02-1.30017E-01-6.58622E-14-3.99987E-13
 -1      2042 2.31963E+01-3.58046E-01-8.88419E-04-1.90188E-01-6.42993E-14-3.41288E-13
 -1      2043 2.31297E+01-1.18332E-01 1.87047E-03 3.22626E-01 1.29806E-13-3.72428E-13
 -1      2044 2.32139E+01-1.58611E-01-8.69034E-03 2.03811E-01 6.31127E-14-3.92337E-13
 -1      2045 2.30290E+01-2.51410E-01-2.02504E-03 2.30331E-01 7.17638E-14-3.11080E-13
 -1      2046 2.27708E+01-5.19310E-02-3.70544E-04 4.72782E-01 9.63652E-14-5.53518E-13
 -1      2047 2.29444E+01-8.25431E-02-5.55271E-03 4.07560E-01 1.61138E-13-4.25347E-13
 -1      2048 2.27304E+01-1.39125E-01-1.86032E-03 4.93559E-01 1.98886E-13-3.93287E-13
 -1      2049 2.23570E+01-5.90892E-03-1.44573E-03 5.22531E-01-2.12470E-13-5.07969E-13
 -1      2050 2.25739E+01-2.52587E-02-2.60832E-03 4.98995E-01-1.53222E-13-6.04575E-13
 -1      2051 2.23664E+01-5.05055E-02-1.26558E-03 6.17432E-01-5.56302E-14-4.53760E-13
 -1      2052 2.19406E+01 2.12838E-02-1.70684E-03 5.07015E-01-1.40731E-13-2.85293E-13
 -1      2053 2.21666E+01 1.11991E-02-3.48644E-04 5.10934E-01-2.28188E-13-4.08281E-13
 -1      2054 2.19861E+01 7.86749E-03-7.57111E-04 6.40512E-01-2.49155E-13-2.82321E-13
 -1      2055 2.15541E+01 3.44845E-02-1.53387E-03 4.55468E-01-2.63168E-14-2.06974E-13
 -1      2056 2.17674E+01 3.08082E-02 1.13692E-03 4.74859E-01-3.48846E-14-2.07873E-13
 -1      2057 2.16217E+01 4.04100E-02-4.70265E-04 6.01193E-01-8.51002E-14-2.54489E-13
 -1      2058 2.12141E+01 3.85833E-02-1.19519E-03 3.88462E-01 1.36920E-13 1.31961E-14
 -1      2059 2.14029E+01 3.88111E-02 1.95640E-03 4.14797E-01 8.77683E-14-1.10418E-13
 -1      2060 2.12923E+01 5.46187E-02-3.66467E-04 5.29499E-01 5.55738E-14-8.40715E-14
 -1      2061 2.09265E+01 3.73853E-02-8.40158E-04 3.18869E-01-2.39435E-14-1.68684E-13
 -1      2062 2.10864E+01 3.96971E-02 2.28485E-03 3.46743E-01 4.55762E-14-1.03995E-13
 -1      2063 2.10068E+01 5.73505E-02-3.64647E-04 4.45865E-01 9.00001E-14-3.25373E-14
 -1      2064 2.06909E+01 3.34896E-02-5.34964E-04 2.53881E-01 6.42432E-14-2.17679E-13
 -1      2065 2.08216E+01 3.67002E-02 2.29229E-03 2.80219E-01 1.50305E-14-1.34398E-13
 -1      2066 2.07675E+01 5.36958E-02-3.98237E-04 3.62756E-01 6.02064E-14-7.18723E-14
 -1      2067 2.05029E+01 2.85236E-02-2.99234E-04 1.96923E-01-3.52340E-14-4.96574E-14
 -1      2068 2.06067E+01 3.19247E-02 2.11417E-03 2.20213E-01-1.10155E-15-1.33916E-13
 -1      2069 2.05723E+01 4.70204E-02-4.28485E-04 2.86919E-01 3.58364E-14 1.71509E-15
 -1      2070 2.03563E+01 2.34303E-02-1.30419E-04 1.49109E-01-2.87235E-13-1.55766E-13
 -1      2071 2.04368E+01 2.66361E-02 1.84618E-03 1.68806E-01-1.18465E-13-1.56690E-13
 -1      2072 2.04168E+01 3.93689E-02-4.39358E-04 2.21358E-01-1.15445E-13 5.70142E-14
 -1      2073 2.02445E+01 1.87074E-02-1.73550E-05 1.10244E-01-6.75331E-14-2.41942E-13
 -1      2074 2.03055E+01 2.15354E-02 1.55008E-03 1.26363E-01-2.27494E-13-1.53734E-13
 -1      2075 2.02957E+01 3.18843E-02-4.28383E-04 1.66814E-01-1.37847E-13-2.36719E-13
 -1      2076 2.01611E+01 1.45798E-02 5.29607E-05 7.94745E-02 1.24566E-13-1.51555E-13
 -1      2077 2.02062E+01 1.69678E-02 1.26233E-03 9.23196E-02 4.83081E-14-1.51034E-13
 -1      2078 2.02034E+01 2.51373E-02-3.99539E-04 1.22763E-01 4.50263E-14-2.77695E-13
 -1      2079 2.01004E+01 1.11147E-02 9.23389E-05 5.56683E-02 2.96421E-13-3.38655E-13
 -1      2080 2.01329E+01 1.30670E-02 1.00216E-03 6.56713E-02 2.43949E-13-1.34512E-13
 -1      2081 2.01345E+01 1.93568E-02-3.58935E-04 8.80588E-02 2.19166E-13-2.90005E-13
 -1      2082 2.00573E+01 8.29315E-03 1.10363E-04 3.76433E-02 2.85519E-13-3.70334E-13
 -1      2083 2.00801E+01 9.84793E-03 7.77826E-04 4.52690E-02 3.04784E-13-2.90323E-13
 -1      2084 2.00843E+01 1.45796E-02-3.12522E-04 6.13213E-02 3.56156E-13-1.50564E-13
 -1      2085 2.00278E+01 6.05289E-03 1.14345E-04 2.42850E-02 5.12208E-14-3.31285E-13
 -1      2086 2.00432E+01 7.26298E-03 5.90987E-04 2.99789E-02 1.24029E-13-2.54473E-13
 -1      2087 2.00486E+01 1.07414E-02-2.65036E-04 4.11539E-02 1.70807E-13 1.58784E-13
 -1      2088 2.00082E+01 4.31348E-03 1.09660E-04 1.46051E-02 6.67440E-14-4.53264E-13
 -1      2089 2.00182E+01 5.23540E-03 4.39612E-04 1.87666E-02 7.73774E-14-3.88079E-13
 -1      2090 2.00240E+01 7.73097E-03-2.19719E-04 2.62635E-02 1.20501E-13 4.31876E-14
 -1      2091 1.99961E+01 2.99105E-03 1.00113E-04 7.76245E-03-5.36195E-14-2.93695E-13
 -1      2092 2.00021E+01 3.67881E-03 3.19802E-04 1.07347E-02-3.75508E-14-3.54162E-13
 -1      2093 2.00078E+01 5.42088E-03-1.78523E-04 1.55149E-02-6.80135E-14 1.28015E-13
 -1      2094 1.99893E+01 2.00625E-03 8.82717E-05 3.06360E-03-3.99123E-13-1.96805E-13
 -1      2095 1.99925E+01 2.50836E-03 2.26932E-04 5.13173E-03-2.35201E-13-2.40614E-13
 -1      2096 1.99977E+01 3.68514E-03-1.42431E-04 7.94975E-03-2.45456E-13 1.09685E-13
 -1      2097 1.99862E+01 1.28793E-03 7.57417E-05-4.80388E-05-1.44111E-13 1.59092E-13
 -1      2098 1.99874E+01 1.64630E-03 1.56308E-04 1.34641E-03-3.20749E-13-5.95149E-14
 -1      2099 1.99920E+01 2.40814E-03-1.11733E-04 2.78233E-03-3.89066E-13 1.19991E-13
 -1      2100 1.99855E+01 7.74150E-04 6.33953E-05-2.00769E-03 5.54677E-14-3.10767E-14
 -1      2101 1.99855E+01 1.02416E-03 1.03521E-04-1.10560E-03-6.88060E-14 1.11586E-13
 -1      2102 1.99893E+01 1.48814E-03-8.62439E-05-6.14277E-04-5.68320E-14 9.47928E-14
 -1      2103 1.99865E+01 4.11679E-04 5.15381E-05-3.14534E-03 8.35561E-14-1.50408E-13
 -1      2104 1.99856E+01 5.82821E-04 6.46030E-05-2.59748E-03 1.12179E-13-6.76362E-14
 -1      2105 1.99887E+01 8.37618E-04-6.54878E-05-2.72665E-03 1.20229E-13-2.38642E-13
 -1      2106 1.99884E+01 1.54394E-04 4.00233E-05-3.70053E-03 3.25817E-13-3.41813E-13
 -1      2107 1.99871E+01 2.71471E-04 3.60844E-05-3.40649E-03 2.78392E-13-2.55769E-13
 -1      2108 1.99894E+01 3.81751E-04-4.88345E-05-3.91971E-03 3.68935E-13-1.26721E-13
 -1      2109 1.99907E+01-3.91112E-05 2.87586E-05-3.83410E-03 3.62495E-14-3.52863E-13
 -1      2110 1.99892E+01 4.52412E-05 1.50517E-05-3.72720E-03 2.00974E-13-2.65094E-13
 -1      2111 1.99910E+01 5.55637E-05-3.54839E-05-4.45364E-03 2.35801E-13-7.94940E-14
 -1      2112 1.99932E+01-2.06242E-04 1.83659E-05-3.63577E-03 1.06760E-13-2.18557E-13
 -1      2113 1.99917E+01-1.36585E-04-2.45593E-07-3.68054E-03-8.60647E-15-2.72587E-13
 -1      2114 1.99929E+01-1.99126E-04-2.38321E-05-4.49513E-03 1.79621E-14 2.24381E-14
 -1      2115 1.99956E+01-3.82660E-04 9.17356E-06-3.13490E-03 1.94424E-14-2.07965E-13
 -1      2116 1.99942E+01-3.10267E-04-1.01466E-05-3.32461E-03 1.32723E-13-1.95789E-13
 -1      2117 1.99949E+01-4.35469E-04-1.27763E-05-4.13293E-03 9.43638E-14-9.64527E-14
 -1      2118 1.99976E+01-6.01494E-04-2.92069E-06-2.30925E-03-1.35364E-13-2.50111E-13
 -1      2119 1.99964E+01-5.06699E-04-1.29491E-05-2.66934E-03-1.72797E-13-2.68149E-13
 -1      2120 1.99967E+01-7.04570E-04-4.19292E-06-3.40005E-03-9.91155E-14-4.35742E-14
 -1      2121 1.99988E+01-8.05507E-04-1.62134E-05-1.46241E-03 2.58349E-14-2.40190E-13
 -1      2122 1.99980E+01-7.13042E-04-1.21755E-05-1.97542E-03-9.14925E-14-2.50283E-13
 -1      2123 1.99981E+01-9.72074E-04 5.86038E-06-2.56555E-03-5.26219E-14-2.80693E-13
 -1      2124 1.99989E+01-1.23690E-03 5.34344E-06-1.78904E-03-7.94071E-14-1.19338E-13
 -1      2125 2.00000E+01-5.95900E-03 8.29165E-06-3.20854E-03-2.19950E-13-6.58528E-13
 -1      2126 1.99998E+01-4.93626E-03-5.40972E-06-3.26085E-03-9.35945E-14-3.38861E-13
 -1      2127 1.99996E+01-4.19016E-03 2.85917E-06-3.21463E-03-1.39784E-13-2.62519E-13
 -1      2128 1.99994E+01-3.20341E-03-1.53203E-05-3.02861E-03-6.55833E-14 3.58476E-13
 -1      2129 1.99997E+01-4.00816E-03-3.59616E-06-4.01725E-03-1.63532E-13-2.54613E-13
 -1      2130 1.99992E+01-2.65088E-03-1.47708E-06-2.70966E-03 7.82278E-15 4.97547E-13
 -1      2131 1.99990E+01-1.80634E-03-1.84279E-05-2.27741E-03-2.44183E-15 1.37914E-13
 -1      2132 1.99987E+01-1.68407E-03-1.49725E-05-2.72411E-03-2.76958E-14 6.25174E-14
 -1      2133 1.99991E+01-2.75710E-03-2.05178E-06-3.60354E-03-1.34525E-13 3.59788E-13
 -1      2134 2.00002E+01-7.53311E-03 1.48777E-05-2.80549E-03-5.12067E-13-1.18523E-12
 -1      2135 2.00001E+01-6.61577E-03 9.70022E-06-3.02232E-03-2.97244E-13-7.73293E-13
 -1      2136 2.00002E+01-5.40302E-03-9.47669E-06-3.85011E-03-1.14748E-13-7.90622E-13
 -1      2137 2.00004E+01-8.81851E-03 2.14635E-05-2.11128E-03-2.37589E-13-1.37309E-15
 -1      2138 2.00003E+01-8.08170E-03 2.06283E-05-2.44588E-03-3.26638E-13-5.84497E-13
 -1      2139 2.00005E+01-6.61374E-03-1.43266E-05-3.23980E-03-1.63635E-13-6.63733E-13
 -1      2140 2.00005E+01-9.67229E-03 2.64813E-05-1.23725E-03-2.37244E-13 5.24406E-13
 -1      2141 2.00005E+01-9.20347E-03 2.75448E-05-1.64002E-03-1.79378E-13 3.06300E-13
 -1      2142 2.00008E+01-7.55376E-03-1.73614E-05-2.31400E-03-1.89885E-14 8.33211E-14
 -1      2143 2.00006E+01-1.00301E-02 2.96289E-05-2.71061E-04-3.66971E-13 2.56006E-13
 -1      2144 2.00005E+01-9.87044E-03 3.02018E-05-7.05275E-04-4.21175E-13 2.77102E-13
 -1      2145 2.00009E+01-8.14280E-03-1.91295E-05-1.19848E-03-6.68618E-14 2.08365E-13
 -1      2146 2.00005E+01-9.86682E-03 3.03063E-05 7.14489E-04-4.76283E-13-3.90043E-14
 -1      2147 2.00006E+01-1.00297E-02 2.95387E-05 2.80201E-04-4.79673E-13 2.72472E-13
 -1      2148 2.00009E+01-8.34268E-03-1.97117E-05 5.45175E-06-3.74590E-13 2.14823E-13
 -1      2149 2.00005E+01-9.19565E-03 2.77376E-05 1.64955E-03-4.58415E-13-4.22630E-14
 -1      2150 2.00005E+01-9.66776E-03 2.62205E-05 1.24678E-03-4.94805E-13-7.24464E-14
 -1      2151 2.00009E+01-8.14088E-03-1.91466E-05 1.20976E-03-4.18835E-13-1.27303E-13
 -1      2152 2.00004E+01-8.09160E-03 2.07184E-05 2.44314E-03-2.27175E-13-8.08200E-14
 -1      2153 2.00004E+01-8.81776E-03 2.11607E-05 2.11394E-03-3.14697E-13 2.80184E-14
 -1      2154 2.00008E+01-7.55605E-03-1.75690E-05 2.31760E-03-1.83828E-13 1.34456E-13
 -1      2155 2.00001E+01-6.61139E-03 9.38199E-06 3.02655E-03-1.83619E-13 5.19137E-13
 -1      2156 2.00003E+01-7.54489E-03 1.49082E-05 2.80561E-03-1.40014E-13 2.56965E-13
 -1      2157 2.00005E+01-6.62465E-03-1.44461E-05 3.23817E-03 1.37933E-13 1.62032E-13
 -1      2158 1.99998E+01-4.91436E-03-5.82586E-06 3.26562E-03-8.64371E-14 4.72436E-13
 -1      2159 2.00000E+01-5.93984E-03 8.39422E-06 3.21610E-03-1.83868E-13 4.54042E-13
 -1      2160 2.00002E+01-5.40186E-03-9.55431E-06 3.85583E-03-4.26178E-14 5.38848E-13
 -1      2161 1.99994E+01-3.16409E-03-1.41396E-05 3.05304E-03 8.21122E-14 3.54613E-13
 -1      2162 1.99996E+01-4.16965E-03 6.75897E-06 3.21713E-03-1.16115E-13 5.80024E-13
 -1      2163 1.99997E+01-3.99349E-03-2.47171E-06 4.01918E-03-9.77232E-14 5.46899E-13
 -1      2164 1.05193E+01-5.08814E+00-1.50375E-01 6.37923E+00 3.57492E-13 1.05783E-12
 -1      2165 6.82749E+00-6.74522E+00-4.06551E-01 5.17166E+00 1.09912E-13 1.01083E-12
 -1      2166 3.86435E-01-6.67975E+00-3.17985E-01 8.93808E-01-3.77753E-14 9.96758E-13
 -1      2167 2.91920E-01-7.28772E+00-4.14849E-01-6.98554E-01-2.49897E-13 7.20757E-13
 -1      2168 3.96148E+00-6.36288E+00-2.80488E-01 4.41147E+00 7.90479E-14 9.49157E-13
 -1      2169 1.94943E+00-6.81185E+00-3.30512E-01 3.03570E+00-2.30427E-13 9.64617E-13
 -1      2170 1.94347E+01-3.22655E+00-2.30656E-02 6.84518E+00 6.08125E-13 6.44595E-13
 -1      2171 1.43712E+01-5.00509E+00-3.23245E-01 6.11303E+00 5.24136E-13 8.02886E-13
 -1      2172 2.87336E+01-1.63962E-01 1.82699E-01 5.51874E+00 8.11906E-13 4.70401E-13
 -1      2173 2.39950E+01-2.23598E+00-1.33533E-01 5.30869E+00 6.42653E-13 5.30798E-13
 -1      2174 1.95449E+01 4.16161E+00-2.73982E-02-1.10129E+00-2.86233E-13-4.04406E-13
 -1      2175 1.98416E+01 4.07459E+00-2.02668E-02-1.34119E+00-3.29375E-13-3.30239E-13
 -1      2176 2.02340E+01 3.37001E+00-1.75697E-02-1.27782E+00-3.43888E-13-2.65647E-13
 -1      2177 1.96057E+01 3.81818E+00-5.03644E-03-9.09037E-01-2.82800E-13-3.92483E-13
 -1      2178 3.99567E+01 6.01661E+00 4.51826E-01 1.65818E+00 7.82541E-13 1.65867E-13
 -1      2179 3.66638E+01 5.04112E+00 1.59821E-01 2.25723E+00 8.53095E-13 2.55185E-13
 -1      2180 4.09860E+01 7.20826E+00 3.77270E-01-1.94456E-01 8.39218E-13-1.33338E-13
 -1      2181 4.07646E+01 6.85801E+00 3.88296E-01 1.10011E+00 7.81541E-13 8.09075E-14
 -1      2182 3.91593E+01 6.23742E+00 2.98823E-01-1.85931E+00 8.24452E-13-2.77334E-13
 -1      2183 4.03776E+01 6.92937E+00 3.68519E-01-6.71268E-01 8.05800E-13-1.09357E-13
 -1      2184 3.45350E+01 3.55831E+00 7.72108E-02-3.11416E+00 8.38940E-13-4.50640E-13
 -1      2185 3.84242E+01 5.00321E+00 4.20233E-01-2.69544E+00 8.42937E-13-3.25184E-13
 -1      2186 2.84354E+01-5.60788E-01-6.24089E-02-4.17071E+00 7.34135E-13-4.40925E-13
 -1      2187 3.27206E+01 1.49835E+00 2.53278E-01-4.08839E+00 7.66068E-13-4.69402E-13
 -1      2188 2.03581E+01-4.07770E+00-1.91240E-01-5.95958E+00 5.75817E-13-5.74873E-13
 -1      2189 2.51178E+01-2.47405E+00 4.48173E-02-5.86863E+00 6.29496E-13-4.48919E-13
 -1      2190 1.22552E+01-5.90444E+00-2.57540E-01-6.26527E+00 3.28404E-13-7.16170E-13
 -1      2191 1.67421E+01-4.35464E+00-2.89682E-02-7.01437E+00 5.42455E-13-6.43735E-13
 -1      2192 2.08838E+01-5.30092E+00 4.35986E-02-6.15407E+00 1.50935E-13-3.77476E-13
 -1      2193 4.01934E+00-7.03549E+00-3.94943E-01-4.33450E+00 1.11799E-13-8.49126E-13
 -1      2194 7.32688E+00-5.74991E+00-1.97752E-01-5.92241E+00 3.02536E-13-9.08773E-13
 -1      2195 6.04211E-01-7.20730E+00-3.98357E-01-1.09903E+00-4.52902E-14-8.38329E-13
 -1      2196 1.79439E+00-6.26867E+00-2.42465E-01-2.86526E+00 1.35780E-13-8.61755E-13
 -1      2197 9.06851E-01-7.20041E+00-3.88325E-01 2.13285E+00-2.29566E-13-8.59535E-13
 -1      2198 9.65711E-02-7.78327E+00-4.72826E-01 6.18307E-01-3.26475E-15-7.95253E-13
 -1      2199 5.55583E+00-6.41621E+00-3.11311E-01 5.03648E+00-5.62772E-13-9.90735E-13
 -1      2200 3.00473E+00-7.47041E+00-4.58672E-01 3.74060E+00-2.62235E-13-9.16656E-13
 -1      2201 1.30086E+01-4.63784E+00-1.46184E-01 6.68119E+00-7.71605E-13-9.97785E-13
 -1      2202 8.92441E+00-6.49234E+00-4.37343E-01 5.54222E+00-6.13287E-13-9.22547E-13
 -1      2203 2.22873E+01-2.66689E+00 9.15401E-03 6.63322E+00-7.55451E-13-9.24039E-13
 -1      2204 1.71759E+01-4.38230E+00-2.83026E-01 6.15614E+00-7.30638E-13-9.65394E-13
 -1      2205 3.11604E+01 7.18723E-01 2.44139E-01 4.99890E+00-8.61311E-13-6.10956E-13
 -1      2206 2.64768E+01-1.35324E+00-9.03843E-02 4.89679E+00-7.80043E-13-6.92724E-13
 -1      2207 3.70237E+01 3.93019E+00 3.38806E-01 3.20317E+00-8.83557E-13-4.76730E-13
 -1      2208 3.31821E+01 2.49322E+00 5.99640E-02 3.85740E+00-9.12631E-13-5.91860E-13
 -1      2209 4.01077E+01 6.25470E+00 3.46690E-01 1.22614E+00-9.46188E-13-2.74558E-13
 -1      2210 3.80097E+01 5.50235E+00 2.16757E-01 2.18489E+00-9.54181E-13-4.65405E-13
 -1      2211 4.01101E+01 7.30178E+00 2.77562E-01-2.39060E-01-9.60454E-13-5.08621E-14
 -1      2212 4.06911E+01 7.01826E+00 3.69620E-01 8.52871E-01-9.72111E-13-2.54796E-13
 -1      2213 3.62398E+01 7.49521E+00 3.45683E-01-1.54314E-01-9.99645E-13-1.22374E-13
 -1      2214 3.88289E+01 5.83395E+00 3.10035E-01-1.78859E+00-7.90923E-13 1.91791E-13
 -1      2215 3.97827E+01 6.66252E+00 2.93115E-01-6.06071E-01-8.45435E-13-5.66214E-14
 -1      2216 3.46462E+01 3.32190E+00 1.41460E-01-3.63852E+00-8.78738E-13 4.24771E-13
 -1      2217 3.81101E+01 4.47049E+00 3.62991E-01-2.89568E+00-8.16985E-13 3.01426E-13
 -1      2218 2.81184E+01-6.92300E-02-5.24425E-02-4.97920E+00-7.98861E-13 6.80345E-13
 -1      2219 3.25711E+01 1.62016E+00 2.82726E-01-4.76319E+00-8.65114E-13 5.03153E-13
 -1      2220 2.06187E+01-3.33270E+00-1.95199E-01-5.83798E+00-6.34826E-13 7.35523E-13
 -1      2221 2.53053E+01-1.22573E+00 1.53271E-01-6.26933E+00-7.35689E-13 8.26728E-13
 -1      2222 1.23673E+01-5.83498E+00-3.17304E-01-6.04917E+00-3.86524E-13 7.48415E-13
 -1      2223 1.68495E+01-4.31071E+00-2.35062E-02-6.83420E+00-4.43034E-13 7.56506E-13
 -1      2224 5.99812E+00-6.85280E+00-3.83109E-01-4.91123E+00-3.98570E-13 5.66852E-13
 -1      2225 9.23989E+00-5.50110E+00-1.32773E-01-6.06822E+00-4.74731E-13 7.70047E-13
 -1      2226 1.35547E+01-5.70116E+00-3.85632E-02-6.84262E+00 4.68514E-14 5.55070E-13
 -1      2227 1.11220E+00-7.57849E+00-4.46323E-01-2.25540E+00-2.90601E-13 4.71567E-13
 -1      2228 2.67461E+00-6.76245E+00-3.31118E-01-3.61589E+00-4.45977E-13 5.08815E-13
 -1      2229 3.47766E+01 2.78824E+00 2.20915E-01 3.29671E+00 8.10338E-13 2.70006E-13
 -1      2230 3.09402E+01 1.27396E+00 1.50466E-02 4.17375E+00 9.33947E-13 3.70148E-13
 -1      2231 3.02309E+01-9.51988E-01 1.60380E-01 2.46848E+00 5.38972E-13-2.00950E-14
 -1      2232 2.37149E+01-4.14769E+00 5.49379E-02 5.31744E+00 2.81941E-13 3.50331E-13
 -1      2233 2.16615E+01 1.10664E+00-1.71644E-02-1.12558E+00-3.29462E-13 3.56704E-13
 -1      2234 3.41986E+01 3.40913E+00 2.14586E-01 6.54508E-01 7.29472E-13-6.50036E-14
 -1      2235 2.14793E+01 1.35420E+00-2.12725E-02-1.07031E+00-3.47167E-13 1.38018E-13
 -1      2236 7.53728E+00-5.41562E+00-1.33637E-01 5.88271E+00-2.33424E-13 9.74387E-13
 -1      2237 2.57005E+00-4.70641E+00-1.38247E-01 2.46631E+00-1.21181E-13 9.42746E-13
 -1      2238 1.99991E+01-2.49833E-03-1.48332E-05 3.00710E-03 1.00336E-13 1.31828E-13
 -1      2239 1.49048E+01-5.61014E+00-6.02324E-02 6.79815E+00-2.61458E-14 7.55934E-13
 -1      2240 1.96219E+00-4.91825E+00-1.96863E-01-1.93875E+00 2.84217E-14 7.32303E-13
 -1      2241 6.40580E+00-5.40779E+00-1.37997E-01-5.42253E+00-7.02216E-14 5.54834E-13
 -1      2242 2.08772E+01-5.08787E+00-1.40744E-02-5.90552E+00-1.18516E-13 4.30600E-13
 -1      2243 2.80310E+01-2.30603E+00 9.58897E-02-3.91112E+00-4.52416E-13 2.43361E-13
 -1      2244 3.30891E+01 1.49291E+00 2.44985E-01-1.72818E+00-6.92751E-13 1.13243E-14
 -1      2245 3.64716E+01 7.66817E+00 2.97553E-01 2.37803E-01-9.24316E-13-1.71529E-13
 -1      2246 3.51287E+01 4.58058E+00 2.90586E-01 3.37380E-01-8.38829E-13-1.06637E-13
 -1      2247 3.20240E+01 3.92399E-01 1.86010E-01 1.81683E+00-6.54869E-13-6.55587E-14
 -1      2248 2.60892E+01-3.50612E+00 7.69568E-02 4.63287E+00-4.12587E-13-3.83138E-13
 -1      2249 1.75842E+01-5.45482E+00-2.17275E-02 6.66954E+00-2.85827E-13-7.18661E-13
 -1      2250 9.39703E+00-5.91610E+00-1.68424E-01 6.34784E+00-1.56986E-13-8.72247E-13
 -1      2251 3.30025E+00-5.55342E+00-2.28567E-01 3.70478E+00-4.03566E-14-9.70224E-13
 -1      2252 1.59025E+00-4.70155E+00-1.80206E-01-3.66352E-01-1.88703E-14-9.22706E-13
 -1      2253 1.20322E+01-5.64810E+00-5.74614E-02-6.82151E+00-2.64788E-14-7.21118E-13
 -1      2254 2.78175E+01-2.88785E+00 6.96012E-02-3.60566E+00 4.16611E-13-1.65978E-13
 -1      2255 3.29199E+01 1.74433E+00 1.60474E-01-1.23695E+00 6.66911E-13-1.12910E-13
 -1      2256 3.56446E+01 5.91350E+00 3.07728E-01-1.84368E-01 8.41383E-13-4.76286E-14
 -1      2257 3.65896E+01 7.20353E+00 3.55047E-01-9.98180E-02 8.35720E-13-1.47327E-13
 -1      2258 3.69010E+01 7.94564E+00 3.54823E-01 7.40052E-03 8.63587E-13-1.95607E-13
 -1      2259 4.45016E+00-4.96978E+00-1.35562E-01-4.32398E+00-1.12577E-13-8.94396E-13
 -1      2260 3.56940E+01 5.30360E+00 3.29357E-01-2.03074E-01-7.85316E-13-1.29674E-13
 -1      2261 2.12591E+01 5.65152E-01 6.92935E-03 6.23582E-02 2.54838E-13 1.15935E-13
 -1      2262 2.13882E+01 7.45253E-01 2.06793E-02 3.80865E-01 3.01629E-13 1.59003E-13
 -1      2263 1.86977E+01 4.01048E+00-1.10917E-02-2.36077E-01-1.22406E-13-4.64057E-13
 -1      2264 1.88607E+01 3.94044E+00-6.45060E-03-3.35770E-01-1.64099E-13-4.69616E-13
 -1      2265 1.90583E+01 3.79318E+00-1.40709E-02-4.11922E-01-1.90582E-13-4.53975E-13
 -1      2266 1.92946E+01 3.67792E+00-8.48189E-03-5.39438E-01-2.35965E-13-4.17647E-13
 -1      2267 1.90625E+01 3.55812E+00 2.53471E-03-2.68263E-01-1.65769E-13-4.23411E-13
 -1      2268 1.84712E+01 4.14400E+00-6.83030E-03 2.23115E-02 2.35419E-14-5.07983E-13
 -1      2269 1.84629E+01 4.14833E+00-7.43583E-03-5.55791E-02-1.32472E-14-5.00226E-13
 -1      2270 1.86161E+01 4.06599E+00-5.92316E-03 1.56173E-01 8.22234E-14-5.05655E-13
 -1      2271 1.85219E+01 4.10561E+00-9.19551E-03 6.92251E-02 4.59816E-14-5.12424E-13
 -1      2272 1.85726E+01 3.85887E+00 2.34984E-03 1.90045E-02 2.93204E-14-4.87291E-13
 -1      2273 1.89134E+01 3.89635E+00-6.25584E-03 3.23795E-01 1.45494E-13-4.77872E-13
 -1      2274 1.87451E+01 3.97070E+00-1.14320E-02 2.18043E-01 1.02788E-13-4.93425E-13
 -1      2275 1.87684E+01 3.73317E+00 2.03255E-03 1.18212E-01 8.78209E-14-4.72960E-13
 -1      2276 1.93523E+01 3.62370E+00-8.53673E-03 5.46850E-01 2.30482E-13-4.04586E-13
 -1      2277 1.91151E+01 3.74236E+00-1.41400E-02 4.11170E-01 1.84086E-13-4.48518E-13
 -1      2278 1.91239E+01 3.49947E+00 1.74424E-03 2.56940E-01 1.61022E-13-4.25520E-13
 -1      2279 1.99074E+01 3.22787E+00-1.40726E-02 8.22920E-01 3.10353E-13-3.10583E-13
 -1      2280 1.96149E+01 3.40786E+00-1.72426E-02 6.58907E-01 2.57322E-13-3.63398E-13
 -1      2281 1.96181E+01 3.15138E+00 2.38630E-03 4.42919E-01 2.37345E-13-3.49147E-13
 -1      2282 2.05620E+01 2.66005E+00-2.46791E-02 1.11889E+00 3.79031E-13-2.08420E-13
 -1      2283 2.02231E+01 2.93818E+00-1.97093E-02 9.44030E-01 3.32891E-13-2.62297E-13
 -1      2284 2.02164E+01 2.67349E+00 5.29156E-03 6.56100E-01 3.00474E-13-2.51831E-13
 -1      2285 2.59008E+01-4.29870E+00-9.40974E-02 3.95700E+00 1.12133E-13 4.73788E-14
 -1      2286 2.20854E+01-5.24021E+00 2.53954E-02 5.25830E+00-5.08760E-14 1.93651E-13
 -1      2287 2.12352E+01 3.36271E-01 7.17247E-03-3.99312E-01 1.74389E-13 5.41529E-14
 -1      2288 2.12374E+01 4.34683E-01 2.03194E-02-2.11477E-01 2.03339E-13 9.40862E-14
 -1      2289 2.11690E+01 7.19442E-01-5.20836E-03-3.60572E-02 2.57746E-13-1.95061E-14
 -1      2290 2.12828E+01 9.63111E-01 1.47008E-02-2.72802E-01-2.84136E-13 1.15420E-14
 -1      2291 2.11952E+01 7.53908E-01-1.54905E-05 7.99749E-02-2.60956E-13-7.46549E-15
 -1      2292 3.26602E+01 3.90606E+00-1.04706E-01-7.84909E-01 6.68438E-13-2.54491E-13
 -1      2293 3.12349E+01 1.58544E+00-8.41386E-02-2.97428E-01 5.35849E-13-2.78666E-13
 -1      2294 2.12028E+01 6.08677E-01 1.60756E-02 3.60516E-01-2.28883E-13 3.67295E-15
 -1      2295 2.12122E+01 4.88062E-01 3.68374E-03 5.84218E-01-1.89199E-13-9.21106E-15
 -1      2296 2.10423E+01 9.24207E-01-3.83377E-03 2.01580E-01-2.52647E-13-9.46259E-14
 -1      2297 2.12476E+01 3.95104E-01 1.15501E-02 7.86886E-01-1.66259E-13-1.34312E-14
 -1      2298 2.13400E+01 3.02792E-01 2.67319E-03 9.29761E-01-1.33201E-13-5.04294E-14
 -1      2299 2.10547E+01 5.97840E-01-6.22776E-03 7.22321E-01-1.89193E-13-8.24406E-14
 -1      2300 2.14268E+01 2.17149E-01 8.53640E-03 1.06440E+00-1.12743E-13-5.59466E-14
 -1      2301 2.15801E+01 1.17496E-01-1.71326E-04 1.13717E+00-9.05354E-14-4.14556E-14
 -1      2302 2.11604E+01 3.50975E-01-7.12812E-03 1.08822E+00-1.33983E-13-8.28612E-14
 -1      2303 2.17300E+01 1.24520E-02 7.90149E-03 1.20006E+00-5.39304E-14-3.38108E-14
 -1      2304 2.19219E+01-1.18788E-01-4.72916E-03 1.19299E+00-2.72893E-14-1.44282E-14
 -1      2305 2.13782E+01 8.93763E-02-8.29316E-03 1.30912E+00-6.45583E-14-9.14524E-14
 -1      2306 2.21475E+01-2.59919E-01 9.05086E-03 1.16467E+00-2.82508E-14-3.72554E-15
 -1      2307 2.23548E+01-4.34220E-01-1.09891E-02 1.05563E+00-1.59109E-14-1.57912E-14
 -1      2308 2.17250E+01-2.47192E-01-1.02760E-02 1.36477E+00-4.17873E-14-7.41507E-14
 -1      2309 2.26661E+01-6.11257E-01 1.07845E-02 9.03718E-01 1.90319E-14-7.44240E-15
 -1      2310 2.28598E+01-8.13054E-01-1.80066E-02 6.69909E-01 3.47890E-14-5.99954E-15
 -1      2311 2.22213E+01-6.84607E-01-1.25759E-02 1.20492E+00 3.59565E-15-9.19030E-14
 -1      2312 2.32465E+01-9.90541E-01 1.03453E-02 3.61647E-01 8.56043E-15 4.63392E-14
 -1      2313 2.33873E+01-1.15333E+00-2.29207E-02 2.58443E-03-1.71261E-14 5.82141E-14
 -1      2314 2.28738E+01-1.17876E+00-1.30847E-02 7.61675E-01 3.60935E-14-6.73342E-14
 -1      2315 2.37880E+01-1.23821E+00 3.29647E-03-4.63674E-01-1.11890E-15 1.16885E-13
 -1      2316 2.38276E+01-1.22503E+00-1.91772E-02-8.89467E-01-1.52452E-14 1.26487E-13
 -1      2317 2.36325E+01-1.56220E+00-9.56485E-03-1.19793E-02 1.24815E-14 1.41399E-14
 -1      2318 2.41026E+01-1.07028E+00-1.40157E-02-1.40951E+00-6.30052E-14 1.65415E-13
 -1      2319 2.40140E+01-7.32588E-01-1.82868E-03-1.74308E+00-5.88672E-14 1.30273E-13
 -1      2320 2.43260E+01-1.49666E+00 1.79749E-04-1.03902E+00-9.77907E-15 1.46080E-13
 -1      2321 2.40013E+01-2.42584E-01-4.00557E-02-2.05319E+00-7.86281E-14 1.12221E-13
 -1      2322 2.38192E+01 4.05929E-01 1.59919E-02-2.05779E+00-1.72796E-13 1.34301E-13
 -1      2323 2.46750E+01-6.23570E-01 9.02983E-03-1.97553E+00-1.12622E-13 1.84266E-13
 -1      2324 2.35495E+01 1.07560E+00-5.37401E-02-1.83719E+00-2.47512E-13 4.88364E-14
 -1      2325 2.33858E+01 1.69836E+00 1.26235E-02-1.37500E+00-2.78076E-13 1.67454E-14
 -1      2326 2.45044E+01 9.59250E-01-1.11919E-02-2.16271E+00-2.45515E-13 8.59937E-14
 -1      2327 2.31755E+01 2.10053E+00-3.07493E-02-5.80238E-01-3.01186E-13-1.22563E-13
 -1      2328 2.31562E+01 2.21146E+00-1.83575E-02 1.68006E-01-3.27814E-13-2.38108E-13
 -1      2329 2.40983E+01 2.43462E+00-4.32941E-02-1.12206E+00-3.95586E-13-8.25087E-14
 -1      2330 2.32829E+01 2.00327E+00 5.49026E-03 1.06943E+00-3.24064E-13-3.25741E-13
 -1      2331 2.34371E+01 1.50753E+00-4.79688E-02 1.66945E+00-2.93765E-13-3.45531E-13
 -1      2332 2.40250E+01 2.70880E+00-4.65808E-02 7.06297E-01-3.94865E-13-2.84113E-13
 -1      2333 2.37411E+01 8.69361E-01 1.76385E-02 2.10051E+00-2.49818E-13-3.29612E-13
 -1      2334 2.39579E+01 1.79204E-01-4.73050E-02 2.25232E+00-1.25217E-13-3.48548E-13
 -1      2335 2.44044E+01 1.52833E+00-2.33193E-02 2.11581E+00-2.83974E-13-3.40420E-13
 -1      2336 2.40878E+01-4.05259E-01 4.03573E-03 2.09091E+00-8.91440E-14-3.46816E-13
 -1      2337 2.42380E+01-8.62176E-01-2.37918E-02 1.84326E+00-2.12738E-14-3.55434E-13
 -1      2338 2.47359E+01-1.37027E-01 6.27511E-03 2.32207E+00-1.12096E-13-3.63654E-13
 -1      2339 2.40607E+01-1.12317E+00-1.44261E-02 1.35966E+00-2.52610E-14-3.53689E-13
 -1      2340 2.40824E+01-1.23258E+00-2.00582E-03 9.44483E-01 7.27972E-14-3.57707E-13
 -1      2341 2.45816E+01-1.28625E+00 6.73742E-03 1.56035E+00-1.25247E-14-3.44096E-13
 -1      2342 2.37193E+01-1.21051E+00-2.20667E-02 4.44890E-01 1.16734E-13-3.41951E-13
 -1      2343 2.36262E+01-1.09315E+00 8.52128E-03 5.31361E-02 1.45304E-13-2.57050E-13
 -1      2344 2.39920E+01-1.58944E+00-2.28846E-03 5.14307E-01 8.31784E-14-2.78056E-13
 -1      2345 2.32324E+01-9.35588E-01-1.98303E-02-3.12032E-01 1.79998E-13-3.00117E-13
 -1      2346 2.30676E+01-7.43295E-01 1.02211E-02-5.92832E-01 2.14467E-13-3.19774E-13
 -1      2347 2.32438E+01-1.32320E+00-9.05016E-03-3.63530E-01 1.59578E-13-2.98454E-13
 -1      2348 2.27289E+01-5.66473E-01-1.35807E-02-8.01897E-01 2.10778E-13-3.31099E-13
 -1      2349 2.25315E+01-3.90842E-01 8.06394E-03-9.60515E-01 2.06089E-13-3.20707E-13
 -1      2350 2.25500E+01-8.57042E-01-1.02891E-02-9.27098E-01 2.11205E-13-5.41659E-13
 -1      2351 2.22690E+01-2.49534E-01-7.22401E-03-1.04548E+00 1.89489E-13-2.64739E-13
 -1      2352 2.20647E+01-1.23459E-01 5.29441E-03-1.10596E+00 1.27881E-13-2.11543E-13
 -1      2353 2.19901E+01-4.21349E-01-8.26968E-03-1.20558E+00 1.97434E-13-4.91429E-13
 -1      2354 2.18682E+01-2.99838E-02-2.32098E-03-1.10855E+00 1.18784E-13-1.71866E-13
 -1      2355 2.16720E+01 4.64237E-02 3.09704E-03-1.10307E+00 1.67606E-13-1.79741E-13
 -1      2356 2.15621E+01-1.03325E-01-5.68189E-03-1.27940E+00 1.80673E-13-4.65971E-13
 -1      2357 2.15242E+01 9.90665E-02 9.05990E-04-1.05794E+00 1.23578E-13-1.75379E-13
 -1      2358 2.13442E+01 1.37565E-01 1.66716E-03-1.01446E+00 1.31141E-13-2.08967E-13
 -1      2359 2.12364E+01 9.29534E-02-3.69863E-03-1.22560E+00 1.11157E-13-4.65336E-13
 -1      2360 2.12302E+01 1.61393E-01 2.74891E-03-9.46059E-01 1.69394E-13-1.91330E-13
 -1      2361 2.10708E+01 1.74926E-01 8.49952E-04-8.84853E-01 1.26394E-13-1.59667E-13
 -1      2362 2.09833E+01 1.94623E-01-2.46803E-03-1.10248E+00 1.29588E-13-2.95328E-13
 -1      2363 2.09806E+01 1.80768E-01 3.59893E-03-8.08910E-01 8.00987E-14-2.01194E-13
 -1      2364 2.08433E+01 1.79622E-01 4.28016E-04-7.43023E-01 6.90263E-14-1.03321E-13
 -1      2365 2.07816E+01 2.32996E-01-1.79151E-03-9.49539E-01 8.91196E-14-3.97094E-13
 -1      2366 2.07706E+01 1.75405E-01 3.80209E-03-6.68845E-01 1.39421E-14-5.38775E-14
 -1      2367 2.06553E+01 1.66641E-01 2.31314E-04-6.05837E-01 6.46169E-14-8.81614E-14
 -1      2368 2.06178E+01 2.33515E-01-1.43620E-03-7.91512E-01 5.38689E-14-2.52030E-13
 -1      2369 2.05963E+01 1.57549E-01 3.62182E-03-5.38390E-01 5.22284E-14-8.45061E-14
 -1      2370 2.05015E+01 1.45588E-01 1.49728E-04-4.82092E-01-2.31388E-14-1.84551E-13
 -1      2371 2.04837E+01 2.13927E-01-1.23630E-03-6.42638E-01 4.56535E-14-1.56327E-13
 -1      2372 2.04538E+01 1.34757E-01 3.24131E-03-4.23565E-01-4.56826E-14-1.69096E-13
 -1      2373 2.03775E+01 1.22166E-01 1.20604E-04-3.75464E-01 1.03318E-14-1.04156E-14
 -1      2374 2.03739E+01 1.85503E-01-1.09780E-03-5.10136E-01-3.34478E-14-1.32502E-13
 -1      2375 2.03391E+01 1.11354E-01 2.77967E-03-3.26362E-01-6.85515E-14-9.42113E-14
 -1      2376 2.02789E+01 9.95014E-02 1.11320E-04-2.86580E-01-1.15534E-13-2.99186E-14
 -1      2377 2.02848E+01 1.54891E-01-9.77265E-04-3.96766E-01-8.26643E-14-1.34175E-13
 -1      2378 2.02483E+01 8.96055E-02 2.30933E-03-2.46456E-01-2.10640E-13-4.94724E-14
 -1      2379 2.02017E+01 7.91263E-02 1.06717E-04-2.14385E-01-1.84229E-13 6.04680E-15
 -1      2380 2.02132E+01 1.25703E-01-8.59295E-04-3.02610E-01-1.50317E-13-2.09888E-13
 -1      2381 2.01778E+01 7.05265E-02 1.87052E-03-1.82315E-01-1.06287E-13-6.31902E-14
 -1      2382 2.01423E+01 6.16326E-02 1.01049E-04-1.57014E-01-3.93752E-14-1.20993E-13
 -1      2383 2.01566E+01 9.96763E-02-7.41494E-04-2.26277E-01-2.05550E-13-1.60653E-13
 -1      2384 2.01239E+01 5.44190E-02 1.48257E-03-1.31881E-01 4.12770E-14-1.44653E-13
 -1      2385 2.00975E+01 4.70919E-02 9.31015E-05-1.12308E-01 2.93386E-14-1.71640E-13
 -1      2386 2.01125E+01 7.74443E-02-6.26686E-04-1.65672E-01-4.69399E-14-2.45239E-13
 -1      2387 2.00835E+01 4.12014E-02 1.15206E-03-9.29748E-02-9.94068E-14-2.20724E-13
 -1      2388 2.00642E+01 3.53074E-02 8.34139E-05-7.81150E-02-1.39086E-13-2.30615E-13
 -1      2389 2.00788E+01 5.90327E-02-5.18792E-04-1.18465E-01-8.06222E-14-3.28995E-13
 -1      2390 2.00538E+01 3.06035E-02 8.78317E-04-6.35131E-02-1.61373E-13-3.00262E-13
 -1      2391 2.00401E+01 2.59595E-02 7.28767E-05-5.24424E-02-1.71100E-13-2.81950E-13
 -1      2392 2.00534E+01 4.41545E-02-4.21137E-04-8.23617E-02-2.09919E-13-4.00851E-13
 -1      2393 2.00326E+01 2.22767E-02 6.56828E-04-4.16199E-02-1.50116E-13-3.48745E-13
 -1      2394 2.00231E+01 1.86867E-02 6.22926E-05-3.35346E-02-5.35324E-14-3.67120E-13
 -1      2395 2.00347E+01 3.23821E-02-3.35582E-04-5.52537E-02-1.61343E-13-5.95680E-13
 -1      2396 2.00178E+01 1.58563E-02 4.81226E-04-2.56740E-02 1.01446E-13-3.33898E-13
 -1      2397 2.00115E+01 1.31317E-02 5.22557E-05-1.98974E-02 2.26285E-13-3.37461E-13
 -1      2398 2.00213E+01 2.32442E-02-2.62567E-04-3.52858E-02 4.36290E-14-5.47544E-13
 -1      2399 2.00078E+01 1.09956E-02 3.44567E-04-1.43165E-02 3.05573E-13-3.73706E-13
 -1      2400 2.00039E+01 8.96560E-03 4.30868E-05-1.02934E-02 1.29840E-13-3.04738E-13
 -1      2401 2.00119E+01 1.62800E-02-2.01673E-04-2.08818E-02 2.44049E-13-4.85255E-13
 -1      2402 2.00015E+01 7.38249E-03 2.40121E-04-6.43631E-03 3.75779E-14-2.45097E-13
 -1      2403 1.99992E+01 5.89774E-03 3.48345E-05-3.72171E-03-6.08844E-14-7.28991E-14
 -1      2404 2.00056E+01 1.10680E-02-1.51923E-04-1.07372E-02 1.22546E-13-6.11550E-13
 -1      2405 1.99977E+01 4.74472E-03 1.61778E-04-1.14608E-03-1.08699E-13-1.29585E-13
 -1      2406 1.99966E+01 3.67721E-03 2.73152E-05 6.08331E-04 9.25980E-14-1.35570E-13
 -1      2407 2.00015E+01 7.23659E-03-1.12017E-04-3.79739E-03-5.19866E-14-2.57984E-13
 -1      2408 1.99958E+01 2.84916E-03 1.04194E-04 2.24604E-03 2.39599E-13-1.32998E-13
 -1      2409 1.99955E+01 2.09037E-03 2.01977E-05 3.30516E-03 1.34823E-13-9.05084E-14
 -1      2410 1.99991E+01 4.46539E-03-8.05044E-05 7.69828E-04 9.85867E-14-9.20581E-14
 -1      2411 1.99951E+01 1.49791E-03 6.28854E-05 4.26370E-03 1.10516E-13-1.09309E-13
 -1      2412 1.99953E+01 9.55646E-04 1.30458E-05 4.82148E-03 5.53860E-14-3.07647E-14
 -1      2413 1.99978E+01 2.48175E-03-5.59734E-05 3.60360E-03 7.35761E-14-3.48110E-13
 -1      2414 1.99952E+01 5.21795E-04 3.42602E-05 5.28781E-03-2.87715E-14-7.84556E-14
 -1      2415 1.99957E+01 1.16398E-04 5.35177E-06 5.47778E-03-7.25851E-15-1.08174E-13
 -1      2416 1.99974E+01 1.05303E-03-3.73310E-05 5.17876E-03 4.83775E-15-1.18563E-13
 -1      2417 1.99959E+01-2.26273E-04 1.52987E-05 5.57787E-03-2.85611E-14-2.12941E-14
 -1      2418 1.99965E+01-5.61899E-04-2.08008E-06 5.48193E-03-2.37177E-13 7.16289E-14
 -1      2419 1.99974E+01-2.03195E-05-2.34303E-05 5.83104E-03 1.26372E-15 2.75284E-14
 -1      2420 1.99967E+01-8.80548E-04 1.38377E-06 5.29531E-03-4.58303E-13 2.27562E-13
 -1      2421 1.99974E+01-1.18762E-03-8.09359E-06 4.95015E-03-4.20009E-13 2.41843E-13
 -1      2422 1.99978E+01-9.03299E-04-1.31161E-05 5.78188E-03-3.05163E-13 2.58149E-13
 -1      2423 2.15987E+01 5.25681E-02-2.61081E-04-8.34184E-01 8.11008E-14-1.40803E-14
 -1      2424 2.14468E+01 1.23819E-01 8.14435E-03-7.88517E-01 1.07468E-13 2.58086E-14
 -1      2425 2.19153E+01-1.06401E-01-5.22973E-03-8.41232E-01 3.99114E-14-2.55412E-14
 -1      2426 2.17399E+01-1.99055E-02 5.53899E-03-8.63989E-01 5.22840E-14-2.08215E-14
 -1      2427 2.14990E+01 2.13564E-02-6.55803E-03-9.82664E-01 8.70716E-14-5.09509E-14
 -1      2428 2.22661E+01-3.02244E-01-1.08839E-02-6.82239E-01 3.77758E-14 2.87676E-14
 -1      2429 2.21022E+01-1.96327E-01 4.23646E-03-7.86606E-01 3.75750E-14 4.88932E-15
 -1      2430 2.18165E+01-2.13590E-01-6.22267E-03-9.70347E-01 3.26677E-14-4.16624E-14
 -1      2431 2.26014E+01-5.18684E-01-1.60099E-02-3.29093E-01 6.36899E-14 7.73557E-14
 -1      2432 2.24863E+01-4.06684E-01 3.16831E-03-5.25271E-01 4.15154E-14 9.07362E-14
 -1      2433 2.22100E+01-4.94176E-01-5.38449E-03-7.62196E-01 1.62565E-14-1.87448E-15
 -1      2434 2.28568E+01-6.91182E-01-1.78130E-02 2.17482E-01 1.29185E-14 1.22419E-13
 -1      2435 2.28281E+01-6.13814E-01 1.05648E-03-5.98242E-02 4.52069E-14 1.20353E-13
 -1      2436 2.26448E+01-7.82138E-01-2.88188E-03-3.26826E-01 3.29498E-14 9.63432E-14
 -1      2437 2.29524E+01-6.98701E-01-1.25777E-02 8.79579E-01 7.63114E-14 1.53891E-13
 -1      2438 2.30378E+01-7.24715E-01-3.46546E-03 5.75587E-01 4.48365E-14 1.56911E-13
 -1      2439 2.30513E+01-9.68176E-01 2.69473E-03 3.28374E-01 2.41161E-14 1.74514E-13
 -1      2440 2.28150E+01-4.07599E-01 6.65332E-04 1.45420E+00 8.02251E-14 1.27340E-13
 -1      2441 2.30117E+01-6.00390E-01-1.12967E-02 1.23516E+00 9.15171E-14 1.46464E-13
 -1      2442 2.33111E+01-8.74151E-01 1.06723E-02 1.09481E+00 7.77618E-14 1.92719E-13
 -1      2443 2.24433E+01 2.03811E-01 1.63238E-02 1.63380E+00 1.60056E-13 1.31165E-13
 -1      2444 2.26980E+01-1.40891E-01-1.90690E-02 1.63889E+00 9.31821E-14 1.12672E-13
 -1      2445 2.32926E+01-3.52525E-01 1.30896E-02 1.70406E+00 1.02531E-13 1.93653E-13
 -1      2446 2.19912E+01 9.01436E-01 2.13623E-02 1.16248E+00 1.69260E-13 6.17666E-14
 -1      2447 2.21985E+01 5.64009E-01-1.83661E-02 1.46833E+00 1.93434E-13 1.15038E-13
 -1      2448 2.29699E+01 5.39857E-01 3.59379E-03 1.76915E+00 1.79785E-13 1.74511E-13
 -1      2449 2.17439E+01 1.26872E+00 7.76741E-03 1.18570E-01 1.85768E-13-2.40734E-14
 -1      2450 2.18017E+01 1.15272E+00-5.86735E-03 6.33185E-01 1.72492E-13 2.93775E-14
 -1      2451 2.25623E+01 1.40002E+00-1.43198E-02 1.04818E+00 2.14576E-13 5.02894E-14
 -1      2452 2.19190E+01 1.04078E+00-1.01950E-02-1.01996E+00 1.96988E-13-1.07124E-13
 -1      2453 2.17914E+01 1.22971E+00 1.38245E-02-5.41362E-01 2.02727E-13-3.35768E-14
 -1      2454 2.24231E+01 1.68763E+00-2.42460E-02-2.47594E-01 2.24140E-13 1.49588E-14
 -1      2455 2.24217E+01 3.85218E-01-1.87387E-02-1.70665E+00 2.95769E-13-2.14766E-13
 -1      2456 2.21619E+01 7.45329E-01 2.21162E-02-1.47438E+00 2.58337E-13-1.82294E-13
 -1      2457 2.26965E+01 1.21728E+00-1.06191E-02-1.44780E+00 2.60864E-13-9.89499E-14
 -1      2458 2.29459E+01-2.74128E-01-1.41226E-02-1.71493E+00 9.79789E-14-1.83806E-13
 -1      2459 2.26651E+01 3.25473E-02 1.31728E-02-1.77291E+00 2.14431E-13-1.70386E-13
 -1      2460 2.31514E+01 3.06129E-01 9.63231E-03-1.97677E+00 2.22541E-13-1.41482E-13
 -1      2461 2.32379E+01-6.45489E-01-6.96926E-03-1.22800E+00 1.04608E-14-2.26849E-13
 -1      2462 2.30300E+01-5.02109E-01-3.93896E-03-1.47179E+00 9.84495E-14-2.13455E-13
 -1      2463 2.34355E+01-5.16434E-01 1.23830E-02-1.74157E+00 3.86095E-14-8.97170E-14
 -1      2464 2.32446E+01-7.00582E-01-2.45062E-04-5.61538E-01-8.12145E-14-2.28776E-13
 -1      2465 2.31535E+01-7.08241E-01-1.52256E-02-8.56375E-01-4.40203E-14-1.98927E-13
 -1      2466 2.34112E+01-9.21623E-01 7.81369E-03-1.07141E+00-3.65697E-14-1.11550E-13
 -1      2467 2.30340E+01-5.61066E-01 2.57382E-03 3.78322E-02-7.07867E-14-2.63713E-13
 -1      2468 2.30558E+01-6.48601E-01-1.78801E-02-2.14885E-01-1.09589E-13-2.73374E-13
 -1      2469 2.31332E+01-9.31108E-01 1.04373E-03-3.18879E-01-6.87558E-14-1.20246E-13
 -1      2470 2.27051E+01-3.59479E-01 2.81773E-03 4.61174E-01 1.27484E-13-3.40988E-13
 -1      2471 2.28115E+01-4.64110E-01-1.50220E-02 2.88159E-01 4.72946E-14-2.81266E-13
 -1      2472 2.27330E+01-7.15222E-01-3.38420E-03 2.90382E-01 2.48326E-15-2.40337E-13
 -1      2473 2.23328E+01-1.76445E-01 2.29118E-03 6.99815E-01 1.13888E-13-1.56797E-13
 -1      2474 2.24904E+01-2.64556E-01-1.00077E-02 6.06108E-01 1.36293E-13-2.09609E-13
 -1      2475 2.23125E+01-4.40109E-01-4.51873E-03 6.86377E-01 7.13370E-14-1.38294E-13
 -1      2476 2.19616E+01-4.25458E-02 1.66618E-03 7.91187E-01-1.42224E-13-1.75460E-13
 -1      2477 2.21421E+01-1.03866E-01-5.13441E-03 7.59267E-01 2.52641E-14-1.35849E-13
 -1      2478 2.19220E+01-2.01517E-01-4.02507E-03 8.87064E-01 3.79289E-14 1.16947E-13
 -1      2479 2.16150E+01 4.11655E-02 1.21875E-03 7.82890E-01-2.06323E-13-2.16349E-13
 -1      2480 2.17978E+01 4.62693E-03-1.38963E-03 7.91976E-01-2.16592E-13-2.46691E-13
 -1      2481 2.15775E+01-3.16424E-02-3.17764E-03 9.42202E-01-1.02818E-13 2.49990E-15
 -1      2482 2.13044E+01 8.53414E-02 9.59903E-04 7.16288E-01-4.47277E-14-2.67194E-13
 -1      2483 2.14763E+01 6.73859E-02 1.08847E-03 7.48713E-01-1.24472E-13-3.08513E-13
 -1      2484 2.12804E+01 7.19953E-02-2.47274E-03 9.03233E-01-1.58730E-13-2.80694E-13
 -1      2485 2.10345E+01 1.02526E-01 8.21238E-04 6.21733E-01 4.75590E-14-1.56938E-13
 -1      2486 2.11878E+01 9.68293E-02 2.49644E-03 6.64733E-01-2.98572E-14-1.84164E-13
 -1      2487 2.10270E+01 1.24792E-01-1.99989E-03 8.11694E-01-7.40390E-14-2.91553E-13
 -1      2488 2.08056E+01 1.03183E-01 7.38698E-04 5.19160E-01 1.16498E-13-1.44924E-13
 -1      2489 2.09372E+01 1.04751E-01 3.12212E-03 5.64497E-01 1.47716E-13-6.34329E-14
 -1      2490 2.08130E+01 1.43441E-01-1.70223E-03 6.97027E-01 8.67920E-14-1.43531E-13
 -1      2491 2.06158E+01 9.48206E-02 6.74509E-04 4.20426E-01 1.38597E-14 3.52893E-15
 -1      2492 2.07253E+01 1.00180E-01 3.23393E-03 4.63320E-01 4.00392E-14-4.40835E-14
 -1      2493 2.06344E+01 1.41494E-01-1.50073E-03 5.78195E-01 3.07798E-14-1.09399E-13
 -1      2494 2.04617E+01 8.23485E-02 6.11458E-04 3.31758E-01-1.12650E-13 1.92279E-13
 -1      2495 2.05504E+01 8.92772E-02 3.04203E-03 3.69801E-01 3.58665E-14 3.82993E-14
 -1      2496 2.04873E+01 1.28538E-01-1.33915E-03 4.66287E-01-5.46493E-14 3.13045E-14
 -1      2497 2.03389E+01 6.87450E-02 5.44467E-04 2.55738E-01-4.59864E-15-3.10980E-14
 -1      2498 2.04091E+01 7.59258E-02 2.69468E-03 2.88029E-01-1.83696E-14 1.79925E-13
 -1      2499 2.03679E+01 1.10784E-01-1.18915E-03 3.66963E-01 3.69230E-15 1.19965E-13
 -1      2500 2.02430E+01 5.56765E-02 4.74407E-04 1.92754E-01 7.43719E-15-3.65455E-13
 -1      2501 2.02974E+01 6.23939E-02 2.28869E-03 2.19279E-01-7.77215E-14-2.01166E-13
 -1      2502 2.02725E+01 9.19666E-02-1.04099E-03 2.82375E-01-5.10464E-15-1.47154E-13
 -1      2503 2.01694E+01 4.39731E-02 4.04380E-04 1.41979E-01 1.08529E-15-2.67808E-13
 -1      2504 2.02107E+01 4.98894E-02 1.88252E-03 1.63195E-01 2.54649E-14-2.51184E-13
 -1      2505 2.01976E+01 7.41475E-02-8.94506E-04 2.12568E-01-4.75223E-14-3.12672E-13
 -1      2506 2.01142E+01 3.39608E-02 3.37658E-04 1.01995E-01 2.61953E-13-1.02842E-13
 -1      2507 2.01447E+01 3.89625E-02 1.50819E-03 1.18578E-01 9.18658E-14-1.66042E-13
 -1      2508 2.01397E+01 5.83302E-02-7.53397E-04 1.56425E-01 3.43494E-14-8.02419E-14
 -1      2509 2.00735E+01 2.56779E-02 2.76693E-04 7.11752E-02 2.47457E-13 1.67865E-13
 -1      2510 2.00957E+01 2.97771E-02 1.18067E-03 8.38641E-02 3.52499E-13-2.71417E-14
 -1      2511 2.00959E+01 4.48827E-02-6.22027E-04 1.12280E-01 2.29079E-13 1.38893E-13
 -1      2512 2.00443E+01 1.90078E-02 2.22851E-04 4.79036E-02 9.81980E-14 2.49724E-13
 -1      2513 2.00599E+01 2.22826E-02 9.04555E-04 5.74131E-02 1.39646E-13 2.65439E-13
 -1      2514 2.00634E+01 3.38122E-02-5.03876E-04 7.82842E-02 1.68304E-13 2.32630E-13
 -1      2515 2.00239E+01 1.37595E-02 1.76624E-04 3.06934E-02 5.68828E-14 2.51119E-13
 -1      2516 2.00346E+01 1.63177E-02 6.78451E-04 3.76702E-02 1.12835E-13 2.53742E-13
 -1      2517 2.00397E+01 2.49339E-02-4.00791E-04 5.26290E-02 1.28975E-13 3.05488E-13
 -1      2518 2.00102E+01 9.71651E-03 1.37887E-04 1.82445E-02-9.39461E-14 2.09722E-13
 -1      2519 2.00172E+01 1.16735E-02 4.97755E-04 2.32468E-02-7.94688E-15 3.31495E-13
 -1      2520 2.00230E+01 1.79740E-02-3.13106E-04 3.36626E-02 2.71716E-14 3.08350E-13
 -1      2521 2.00015E+01 6.66455E-03 1.06075E-04 9.45996E-03-3.04651E-13 3.85404E-13
 -1      2522 2.00057E+01 8.13149E-03 3.56411E-04 1.29540E-02-1.36364E-13 3.34855E-13
 -1      2523 2.00115E+01 1.26312E-02-2.40172E-04 1.99464E-02-1.93002E-13 4.70146E-13
 -1      2524 1.99963E+01 4.40633E-03 8.03116E-05 3.44087E-03-3.00424E-13 2.00101E-13
 -1      2525 1.99986E+01 5.48394E-03 2.48038E-04 5.80514E-03-3.95463E-13 2.76112E-13
 -1      2526 2.00039E+01 8.61165E-03-1.80729E-04 1.02696E-02-3.14535E-13 5.77014E-13
 -1      2527 1.99936E+01 2.76708E-03 5.95242E-05-5.29968E-04 7.80493E-15 1.37102E-13
 -1      2528 1.99946E+01 3.54372E-03 1.66556E-04 1.00370E-03-3.21622E-14 6.29357E-14
 -1      2529 1.99993E+01 5.64678E-03-1.33151E-04 3.64214E-03-1.15283E-13 2.27152E-13
 -1      2530 1.99927E+01 1.59533E-03 4.25120E-05-3.00883E-03 1.92164E-13 3.62355E-14
 -1      2531 1.99927E+01 2.14715E-03 1.06489E-04-2.07635E-03 3.69116E-14 3.06403E-14
 -1      2532 1.99967E+01 3.49961E-03-9.56728E-05-7.24398E-04 7.35148E-14 1.92821E-13
 -1      2533 1.99929E+01 7.60683E-04 2.79736E-05-4.41221E-03 3.96410E-13 1.23791E-13
 -1      2534 1.99924E+01 1.15312E-03 6.30788E-05-3.91197E-03 3.51949E-13 9.06980E-14
 -1      2535 1.99956E+01 1.96509E-03-6.65885E-05-3.43979E-03 2.34325E-13 1.74317E-14
 -1      2536 1.99938E+01 1.51302E-04 1.57368E-05-5.03561E-03 1.44186E-13 2.27266E-13
 -1      2537 1.99930E+01 4.39783E-04 3.22197E-05-4.85156E-03 2.70542E-13 1.99892E-13
 -1      2538 1.99954E+01 8.66945E-04-4.41977E-05-4.95894E-03 2.32701E-13 2.47578E-13
 -1      2539 1.99950E+01-3.36899E-04 5.87921E-06-5.07217E-03 6.90373E-14 4.03957E-14
 -1      2540 1.99941E+01-1.05271E-04 8.68918E-06-5.13755E-03 4.92563E-14 1.63627E-13
 -1      2541 1.99958E+01 6.04981E-05-2.55400E-05-5.60591E-03 1.43601E-13 3.25729E-13
 -1      2542 1.99964E+01-7.93097E-04-5.11897E-06-4.62463E-03-5.77762E-15 2.84040E-13
 -1      2543 1.99954E+01-5.71991E-04-6.45992E-06-4.90635E-03-4.84608E-14 1.89428E-13
 -1      2544 1.99965E+01-6.24948E-04-1.22309E-05-5.60535E-03-1.15733E-13 1.58314E-13
 -1      2545 1.99977E+01-1.26861E-03-1.81654E-05-3.75141E-03-6.24818E-14 2.09642E-13
 -1      2546 1.99969E+01-1.01828E-03-9.70982E-06-4.22294E-03 1.12510E-13 3.96453E-13
 -1      2547 1.99974E+01-1.27541E-03-1.83649E-06-5.05314E-03 1.72661E-14 5.15795E-13
 -1      2548 1.99982E+01-1.49838E-03-1.04185E-05-3.09173E-03-8.61407E-14 4.67341E-14
 -1      2549 2.00011E+01-5.72661E-03 1.70695E-05-3.39396E-03 2.14413E-13-3.99242E-13
 -1      2550 2.00009E+01-5.21305E-03 4.44331E-06-3.81067E-03 1.34826E-13-8.99975E-13
 -1      2551 2.00014E+01-6.34994E-03 1.77929E-05-2.29156E-03 1.53023E-13 2.78529E-13
 -1      2552 2.00013E+01-5.98187E-03 1.31670E-05-2.83630E-03 1.47715E-13 6.10641E-15
 -1      2553 2.00016E+01-4.67735E-03-7.65551E-06-3.42398E-03 2.93520E-13-1.05002E-13
 -1      2554 1.99999E+01-3.78732E-03 1.32074E-05-4.56396E-03-3.66618E-14-3.56865E-13
 -1      2555 1.99994E+01-3.09041E-03-1.71528E-05-4.52007E-03-3.39614E-14-6.98846E-14
 -1      2556 2.00006E+01-4.84652E-03 1.58822E-05-4.19280E-03-6.82016E-14-8.49931E-13
 -1      2557 2.00002E+01-4.24205E-03-6.67791E-06-4.40417E-03-2.57323E-14-6.48007E-13
 -1      2558 2.00002E+01-3.32768E-03-1.21403E-06-4.97567E-03 2.97743E-14-4.63414E-13
 -1      2559 2.00010E+01-4.08736E-03-8.68843E-06-4.41975E-03 2.60976E-13-5.71396E-13
 -1      2560 2.00016E+01-6.69186E-03 1.85389E-05-1.01827E-03-5.24785E-14 1.89821E-14
 -1      2561 2.00015E+01-6.50118E-03 1.70726E-05-1.63383E-03 6.55182E-15 1.25460E-13
 -1      2562 2.00020E+01-5.06562E-03-7.49550E-06-2.15331E-03 5.46341E-14 4.18930E-14
 -1      2563 2.00016E+01-6.74169E-03 1.86644E-05 3.24417E-04-1.67735E-13 1.14966E-13
 -1      2564 2.00016E+01-6.74231E-03 1.85235E-05-3.13696E-04-7.32920E-14 1.36444E-13
 -1      2565 2.00021E+01-5.25980E-03-7.41227E-06-7.30398E-04 1.03975E-13 1.24818E-14
 -1      2566 2.00015E+01-6.50066E-03 1.73094E-05 1.64523E-03-6.27146E-14-2.67822E-14
 -1      2567 2.00016E+01-6.69275E-03 1.82653E-05 1.02941E-03-1.43222E-13-6.96002E-14
 -1      2568 2.00021E+01-5.26125E-03-7.52201E-06 7.41245E-04 2.03693E-13 3.95075E-14
 -1      2569 2.00013E+01-5.99203E-03 1.28370E-05 2.83013E-03 7.33299E-14 2.57411E-13
 -1      2570 2.00014E+01-6.35392E-03 1.74137E-05 2.29353E-03-6.22575E-14 1.95942E-13
 -1      2571 2.00020E+01-5.07171E-03-7.83246E-06 2.15429E-03 2.13717E-13 1.09776E-13
 -1      2572 2.00009E+01-5.22136E-03 5.40526E-06 3.80788E-03 1.27914E-13 2.78965E-13
 -1      2573 2.00011E+01-5.73750E-03 1.64739E-05 3.38957E-03 7.60845E-14 1.03684E-13
 -1      2574 2.00016E+01-4.68808E-03-8.25434E-06 3.41823E-03 1.87146E-13 2.20552E-13
 -1      2575 2.00002E+01-4.23448E-03-4.63503E-06 4.42037E-03-5.56132E-14 5.32890E-13
 -1      2576 2.00006E+01-4.86073E-03 1.51929E-05 4.20068E-03-6.81926E-14 5.10081E-13
 -1      2577 2.00010E+01-4.10546E-03-8.38848E-06 4.41633E-03 2.26937E-14 2.43083E-13
 -1      2578 1.99994E+01-3.09199E-03-1.68549E-05 4.50349E-03-1.42372E-13 4.47418E-13
 -1      2579 1.99998E+01-3.77679E-03 1.10481E-05 4.56502E-03-1.02665E-13 4.58789E-13
 -1      2580 2.00001E+01-3.32760E-03-6.60672E-06 4.98416E-03-1.07350E-13 5.13482E-13
 -1      2581 4.76831E+00-3.05610E+00 5.47982E-02 3.80201E+00-1.44190E-13 8.24785E-13
 -1      2582 3.30519E+00-2.79070E+00 8.05437E-02 1.25747E+00-1.72189E-14 7.69662E-13
 -1      2583 1.80468E+01-5.43535E+00-3.67687E-02 6.72924E+00-1.28508E-13 4.45290E-13
 -1      2584 1.42584E+01-5.36106E+00 2.90814E-02 6.71784E+00-2.90157E-13 7.01141E-13
 -1      2585 2.13589E+01 1.88410E-01 3.88853E-03-6.86068E-01 1.20425E-13 2.83066E-14
 -1      2586 2.12647E+01 2.59604E-01 1.30492E-02-5.76508E-01 1.44207E-13 6.73957E-14
 -1      2587 2.12770E+01 2.20632E-01-6.65814E-03-8.29965E-01 1.39392E-13-5.84788E-14
 -1      2588 1.99987E+01-2.25384E-03-6.03778E-06 3.68192E-03-7.31580E-14 2.90006E-13
 -1      2589 3.30433E+00-2.73786E+00 8.10863E-02-1.19408E+00 1.30854E-13 6.39933E-13
 -1      2590 4.27532E+00-3.17280E+00 6.78860E-02-3.27746E+00 8.66529E-14 5.58220E-13
 -1      2591 1.09173E+01-4.58560E+00 4.85705E-02 6.74004E+00-2.94875E-13 8.34888E-13
 -1      2592 7.89412E+00-3.90015E+00 1.07104E-01 5.56648E+00-3.43281E-13 8.29253E-13
 -1      2593 2.12059E+01 2.01969E+00-1.03960E-02-1.24307E+00-3.67298E-13-2.81511E-14
 -1      2594 2.12046E+01 1.29872E+00-5.29207E-03-5.99129E-01-3.30142E-13-1.44015E-15
 -1      2595 2.10127E+01 1.52063E+00 3.64169E-03-4.55248E-01-3.19340E-13-1.05270E-13
 -1      2596 2.07897E+01 2.49946E+00-1.80419E-03-1.14497E+00-3.68494E-13-1.44763E-13
 -1      2597 2.02599E+01-5.56895E+00 3.17895E-02-5.73767E+00 1.30534E-13 1.69101E-13
 -1      2598 2.41145E+01-4.92461E+00-1.06867E-02-4.88093E+00 1.32117E-14 9.24261E-14
 -1      2599 3.26018E+01 4.49348E+00-1.46791E-01-9.81959E-01-7.81070E-13 1.19016E-13
 -1      2600 3.20574E+01 2.64373E+00-9.92409E-02-6.36621E-01-6.63192E-13 1.11577E-13
 -1      2601 2.62441E+01-4.23102E+00 2.25324E-02-3.33199E+00 1.65090E-13-8.24341E-15
 -1      2602 2.89958E+01-2.62182E+00-1.18743E-01-1.98782E+00 3.53925E-13 5.10980E-14
 -1      2603 1.84981E+01 4.12603E+00-8.66303E-03-9.92848E-02-4.68382E-14-4.91032E-13
 -1      2604 1.85778E+01 4.09455E+00-6.35872E-03-1.81589E-01-9.35244E-14-4.74026E-13
 -1      2605 1.87213E+01 3.77466E+00 2.47786E-03-1.49449E-01-9.83723E-14-4.33975E-13
 -1      2606 1.85546E+01 3.87417E+00 2.50486E-03-6.16956E-02-3.64092E-14-4.61991E-13
 -1      2607 3.27529E+01 7.23038E+00-1.14539E-01 3.51760E-01 8.12461E-13-1.05888E-13
 -1      2608 3.32406E+01 7.52157E+00-9.53950E-02-8.62111E-02 8.38996E-13-1.67873E-13
 -1      2609 5.22407E+00-2.98431E+00 1.14068E-01-3.72397E+00-1.57124E-13-7.85483E-13
 -1      2610 7.47250E+00-3.80682E+00 5.34086E-02-5.67929E+00-1.91153E-13-7.69246E-13
 -1      2611 3.34773E+01 7.04723E+00-1.03285E-01-5.76416E-01 8.13627E-13-2.09735E-13
 -1      2612 3.28687E+01 6.08166E+00-9.87274E-02-8.53919E-01 7.46292E-13-2.20768E-13
 -1      2613 3.25077E+01 4.32709E+00-8.71770E-02 7.08883E-01 7.37799E-13 4.15501E-14
 -1      2614 3.29128E+01 5.85623E+00-1.28298E-01 7.59547E-01 7.80043E-13-5.99520E-14
 -1      2615 3.06020E+01 8.57083E-02-4.72802E-02-3.50036E-01 5.09870E-13 6.45040E-14
 -1      2616 3.22149E+01 2.17858E+00-9.43418E-02 1.77828E-01 6.33993E-13 3.98015E-14
 -1      2617 1.98515E+01-5.53746E+00 8.52823E-02-6.09207E+00-1.55265E-13-2.86278E-13
 -1      2618 2.29110E+01-5.39901E+00-9.54536E-02-5.37243E+00-1.38500E-14-1.42511E-13
 -1      2619 3.25666E+01 3.36771E+00-7.83646E-02 7.88396E-01-7.00523E-13-3.19023E-13
 -1      2620 3.26695E+01 4.95038E+00-1.72412E-01 1.15646E+00-7.52787E-13-3.54633E-13
 -1      2621 1.09644E+01-4.77335E+00 7.37654E-02-6.51616E+00-2.60847E-13-6.86978E-13
 -1      2622 1.54021E+01-5.22208E+00-2.33358E-02-7.06702E+00-2.04614E-13-4.81282E-13
 -1      2623 1.11121E+01-3.52209E+00 1.35299E-01-6.03849E+00-3.22103E-13-6.46871E-13
 -1      2624 2.98635E+00-3.20416E+00 5.49494E-02 1.11526E+00-5.70377E-15-8.26395E-13
 -1      2625 3.32537E+00-2.67301E+00 7.72783E-02-1.02039E+00-5.53932E-14-8.03524E-13
 -1      2626 6.00997E+00-4.08235E+00 1.58438E-02 5.09951E+00 6.45595E-14-9.04166E-13
 -1      2627 3.79784E+00-3.70444E+00 1.87615E-02 3.05663E+00 8.70692E-14-8.89455E-13
 -1      2628 5.22240E+00-2.20994E+00 1.34741E-01 2.35471E+00 1.01696E-13-8.47267E-13
 -1      2629 1.27249E+01-5.24514E+00-1.68825E-02 7.02138E+00 8.88178E-16-6.81746E-13
 -1      2630 9.22993E+00-4.89988E+00 2.56658E-02 6.17294E+00 8.65974E-14-7.82929E-13
 -1      2631 2.04408E+01-5.49883E+00-6.88942E-02 6.27985E+00-6.43929E-15-4.41244E-13
 -1      2632 1.66889E+01-5.63702E+00 2.68555E-02 6.60451E+00 4.30767E-14-5.49670E-13
 -1      2633 2.77303E+01-3.67647E+00-1.25690E-01 3.07623E+00-2.65732E-13 8.88178E-15
 -1      2634 2.43814E+01-4.89008E+00 3.03400E-02 4.47977E+00-6.49480E-14-2.44471E-13
 -1      2635 3.17036E+01 6.57393E-01-1.04602E-01 2.01626E-01-5.88959E-13 1.19516E-13
 -1      2636 3.00661E+01-1.17568E+00-1.78166E-02 9.08428E-01-4.78787E-13 1.29674E-13
 -1      2637 3.06547E+01 1.28986E+00-3.09263E-02-1.30241E+00-5.26440E-13 2.44610E-13
 -1      2638 3.27116E+01 7.03531E+00-1.52623E-01-4.70125E-01-8.86569E-13-3.61725E-14
 -1      2639 3.25028E+01 6.19743E+00-1.37648E-01-8.68623E-01-8.56981E-13 5.58997E-14
 -1      2640 3.24326E+01 6.71444E+00-1.26701E-01 8.55409E-01-8.29004E-13-3.29403E-13
 -1      2641 3.25784E+01 7.29812E+00-1.53817E-01 2.64750E-01-8.82960E-13-2.54494E-13
 -1      2642 3.05836E+01-4.34360E-01-5.81571E-02-6.36164E-01-5.01370E-13-2.82052E-13
 -1      2643 3.22091E+01 1.46956E+00-9.83852E-02 5.84709E-02-6.18006E-13-3.08864E-13
 -1      2644 3.08601E+01 1.86756E+00-1.37735E-02 1.51550E+00-5.56236E-13-5.35072E-13
 -1      2645 2.62211E+01-4.10619E+00-4.46743E-02-3.44905E+00-7.21090E-14-1.84297E-14
 -1      2646 2.87693E+01-2.71842E+00-8.06354E-02-2.42451E+00-2.59570E-13-1.29230E-13
 -1      2647 2.56239E+01-4.91766E+00 4.74074E-02-3.37593E+00 1.06776E-13-1.71113E-13
 -1      2648 1.32226E+01-4.88095E+00 9.49632E-02-6.53267E+00 2.57738E-13 4.55649E-13
 -1      2649 1.62077E+01-5.24316E+00 1.50757E-02-6.79416E+00 2.12497E-13 3.96599E-13
 -1      2650 6.34679E+00-3.85335E+00 6.78078E-02-4.76860E+00 1.12577E-13 4.64989E-13
 -1      2651 9.63657E+00-4.19942E+00 6.17523E-02-6.27696E+00 1.44107E-13 4.51889E-13
 -1      2652 1.25894E+01-3.88242E+00 1.14692E-01-6.23593E+00 2.86965E-13 4.15362E-13
 -1      2653 7.30371E+00-2.37086E+00 1.53395E-01-4.10544E+00 2.04892E-13 4.62907E-13
 -1      2654 3.00845E+01-1.17470E+00-1.20936E-01 7.79205E-01 3.78250E-13-2.86438E-13
 -1      2655 2.84353E+01-2.70015E+00-1.96215E-02 1.66728E+00 2.39739E-13-2.51382E-13
 -1      2656 2.14293E+01 9.01106E-01-3.00143E-03 6.75910E-01 3.42755E-13 1.77831E-13
 -1      2657 2.16638E+01 1.26372E+00-4.59925E-03 1.19375E+00 3.78850E-13 2.22780E-13
 -1      2658 2.14007E+01 1.72895E+00-1.59302E-02 1.33848E+00 3.96050E-13 1.03171E-13
 -1      2659 2.12790E+01 1.11232E+00-1.03308E-02 5.84949E-01 3.43751E-13 4.77618E-14
 -1      2660 3.08048E+01 7.04857E+00-5.49983E-02-5.21110E-01 7.66776E-13-1.24192E-13
 -1      2661 1.95550E+01 3.21712E+00 2.76946E-03-4.29071E-01-2.27035E-13-3.75886E-13
 -1      2662 1.95590E+01 3.46040E+00-1.83439E-02-6.40424E-01-2.54090E-13-3.91304E-13
 -1      2663 1.98540E+01 3.27502E+00-1.63162E-02-8.00646E-01-2.96481E-13-3.52223E-13
 -1      2664 2.13087E+01-5.38899E+00 8.73351E-02 5.49423E+00-2.70034E-13 2.31121E-13
 -1      2665 2.70758E+01-3.96237E+00 2.60094E-02 2.13078E+00-1.73472E-14-3.30430E-13
 -1      2666 2.10431E+01 2.16187E+00-1.30215E-02 1.24963E+00 3.85062E-13-5.95426E-14
 -1      2667 1.97399E+01-5.28678E+00 8.00907E-02-5.71820E+00 2.74780E-13 2.34290E-13
 -1      2668 2.98293E+01-1.32292E-01-5.41269E-02-9.37983E-01 3.23477E-13-4.09450E-13
 -1      2669 2.09883E+01 1.90293E+00 1.15935E-02 8.80609E-01 3.56207E-13-9.12838E-14
 -1      2670 2.93154E+01-2.18861E+00 1.34233E-03-5.61881E-01-2.02406E-13-3.52052E-13
 -1      2671 1.99984E+01-1.87888E-03-1.25290E-05-3.94715E-03 8.87528E-15 5.61750E-13
 -1      2672 1.99987E+01-2.39364E-03 3.67355E-06-4.27100E-03-2.79075E-14 2.77280E-13
 -1      2673 3.05847E+01 5.42113E+00-6.09695E-02 1.50928E+00-7.22644E-13-4.29018E-13
 -1      2674 5.19153E+00-1.59935E+00 1.74625E-01 6.70192E-02 7.35679E-14 6.77569E-13
 -1      2675 8.00066E+00-2.59390E+00 1.56237E-01 4.62360E+00-2.02158E-13 7.92366E-13
 -1      2676 1.42483E+01-4.56654E+00 9.65171E-02 6.56443E+00-4.09256E-13 6.88741E-13
 -1      2677 2.87324E+01-2.90700E+00-9.42055E-04 1.15873E+00-2.34833E-13 1.52517E-13
 -1      2678 2.11659E+01 4.26323E-01-6.11730E-03-5.21918E-01 1.84131E-13-5.37643E-14
 -1      2679 2.33887E+01-5.38311E+00 7.95324E-02 4.78569E+00 1.31534E-13-1.64521E-13
 -1      2680 3.06604E+01 4.84547E+00-6.70573E-02-1.52962E+00-7.28750E-13 2.31287E-13
 -1      2681 9.29316E+00-3.68991E+00 1.17010E-01 5.72496E+00 2.20768E-13-8.17679E-13
 -1      2682 1.83930E+01-5.14976E+00 9.97580E-02-6.31194E+00-3.46889E-13-3.08878E-13
 -1      2683 2.93714E+01-1.65167E+00-2.10765E-02-2.36541E-01 3.46827E-13 1.35836E-13
 -1      2684 3.08459E+01 2.85390E+00-3.64523E-02 1.38177E+00 6.22863E-13 9.84213E-14
 -1      2685 2.52681E+01-4.89815E+00 4.72657E-02-3.59478E+00-7.63972E-14 3.49443E-14
 -1      2686 2.04381E+01 2.77015E+00-8.46816E-03-9.80253E-01-3.40278E-13-2.40035E-13
 -1      2687 3.09473E+01 4.53948E+00-5.59545E-02-1.55500E+00 6.61415E-13-2.90712E-13
 -1      2688 5.40854E+00-2.08572E+00 1.56779E-01-2.52021E+00-1.12702E-13-7.79460E-13
 -1      2689 7.77404E+00-1.52621E+00 1.21748E-01-3.63375E+00-2.15772E-13-6.72518E-13
 -1      2690 6.09614E+00-1.05030E+00 1.66327E-01-1.25354E+00-4.72122E-14-7.05991E-13
 -1      2691 3.08100E+01 6.24783E+00-5.85624E-02 9.82006E-01 7.89868E-13-9.27036E-15
 -1      2692 1.61491E+01-5.13936E+00 8.99142E-02 6.70418E+00 2.30704E-13-4.94188E-13
 -1      2693 3.02245E+01 6.75508E+00-8.28569E-02-1.80788E-01-7.81653E-13-9.19126E-14
 -1      2694 1.99981E+01-1.64631E-03-1.99425E-05 4.16636E-03-1.42697E-13 2.87227E-13
 -1      2695 1.99989E+01-2.55925E-03 4.60245E-06 4.51015E-03-1.85966E-13 5.15149E-13
 -1      2696 1.99990E+01-2.35859E-03-1.59591E-06 5.07802E-03-2.39633E-13 4.73819E-13
 -1      2697 1.99976E+01-1.40650E-03-1.26900E-05 4.67398E-03-2.95188E-13 3.47188E-13
 -1      2698 1.99988E+01-2.23136E-03-3.24299E-06-4.92181E-03 4.69993E-14 1.96611E-13
 -1      2699 1.99982E+01-1.61327E-03-5.35476E-06 5.29424E-03-3.72653E-13 4.06322E-13
 -1      2700 1.88547E+01 3.40154E+00-3.19266E-03 5.32445E-02 9.16307E-14-4.34715E-13
 -1      2701 1.87047E+01 3.48717E+00-7.53340E-03 2.23331E-03 6.93281E-14-4.58450E-13
 -1      2702 1.85979E+01 3.57113E+00-3.92843E-03 6.56385E-04 4.76084E-14-4.70604E-13
 -1      2703 1.85373E+01 3.60499E+00-6.06363E-03-3.54542E-02 1.39574E-14-4.51699E-13
 -1      2704 1.86922E+01 3.27795E+00 6.13550E-03-6.27884E-02 5.85018E-14-4.37434E-13
 -1      2705 1.98082E+01 2.69558E+00-6.41322E-03 2.93946E-01 2.38237E-13-3.16135E-13
 -1      2706 1.95266E+01 2.90091E+00-9.07718E-03 2.00826E-01 2.12794E-13-3.55709E-13
 -1      2707 2.04248E+01 2.14149E+00-7.70131E-03 4.45626E-01 2.97874E-13-2.15988E-13
 -1      2708 2.01093E+01 2.43241E+00-7.50569E-03 3.57214E-01 2.58017E-13-2.54180E-13
 -1      2709 2.00406E+01 2.24823E+00 5.43364E-03 9.94377E-02 2.32555E-13-2.58076E-13
 -1      2710 2.79180E+01-3.32767E+00-1.29249E-02-6.75288E-01-5.06591E-14-4.20275E-13
 -1      2711 2.90445E+01-1.54708E+00-1.65230E-01 7.40705E-01-2.66127E-13-6.24820E-13
 -1      2712 2.10140E+01 8.70983E-01-5.08928E-04-1.80434E-01 2.38640E-13-9.23262E-14
 -1      2713 2.10604E+01 1.08499E+00 9.92427E-03 1.29115E-01 2.71180E-13-7.67372E-14
 -1      2714 2.08355E+01 8.90083E-01 7.72455E-03 6.19861E-01-1.84912E-13-1.39872E-13
 -1      2715 2.08528E+01 7.29624E-01 1.65398E-04 8.50163E-01-1.69462E-13-1.39666E-13
 -1      2716 2.08797E+01 5.85916E-01 7.64729E-03 1.05781E+00-1.55029E-13-1.24685E-13
 -1      2717 2.09493E+01 4.37087E-01 8.29485E-04 1.21535E+00-1.11086E-13-1.35608E-13
 -1      2718 2.05949E+01 8.24751E-01-4.23180E-03 9.82761E-01-1.67197E-13-1.68623E-13
 -1      2719 2.10203E+01 2.84764E-01 8.24773E-03 1.36816E+00-6.38799E-14-1.29772E-13
 -1      2720 2.11499E+01 1.06854E-01 3.99493E-04 1.45270E+00-3.95096E-14-1.28408E-13
 -1      2721 2.06653E+01 4.64936E-01-7.01058E-03 1.36457E+00-9.47469E-14-1.45702E-13
 -1      2722 2.12999E+01-8.95379E-02 1.10119E-02 1.54148E+00-2.85983E-14-1.20011E-13
 -1      2723 2.14972E+01-3.28194E-01-1.62026E-03 1.53778E+00-3.63044E-14-1.38611E-13
 -1      2724 2.08507E+01 4.02047E-02-1.10823E-02 1.63246E+00-4.42890E-14-1.76757E-13
 -1      2725 2.17701E+01-5.90165E-01 1.61687E-02 1.53691E+00-1.24638E-14-1.24326E-13
 -1      2726 2.20401E+01-9.00775E-01-6.06766E-03 1.41626E+00 3.42150E-14-1.17196E-13
 -1      2727 2.12216E+01-5.22498E-01-1.70821E-02 1.75818E+00-2.47957E-14-1.47646E-13
 -1      2728 2.24821E+01-1.21714E+00 2.25813E-02 1.27650E+00 6.88524E-14-6.28772E-14
 -1      2729 2.28159E+01-1.55838E+00-1.24721E-02 1.00460E+00 6.11451E-14-5.54760E-14
 -1      2730 2.18661E+01-1.25017E+00-2.40784E-02 1.67389E+00 6.64410E-14-1.18954E-13
 -1      2731 2.34357E+01-1.84717E+00 2.46133E-02 6.62827E-01 7.64644E-14-1.02609E-15
 -1      2732 2.37786E+01-2.08930E+00-2.48180E-02 2.31069E-01 8.35491E-14 9.01157E-14
 -1      2733 2.28510E+01-2.04361E+00-2.92838E-02 1.25566E+00 1.02838E-13 2.59289E-14
 -1      2734 2.45169E+01-2.12719E+00 2.07645E-02-3.82661E-01 6.26296E-14 1.06255E-13
 -1      2735 2.47470E+01-1.98746E+00-2.61004E-02-8.90428E-01 7.84008E-15 1.55609E-13
 -1      2736 2.41622E+01-2.63384E+00-4.17432E-02 3.86965E-01 8.40515E-14 1.32576E-13
 -1      2737 2.53409E+01-1.52174E+00-1.95413E-02-1.62328E+00-7.25058E-14 1.91986E-13
 -1      2738 2.53883E+01-7.04565E-01-8.30591E-03-1.98447E+00-1.77729E-13 1.64885E-13
 -1      2739 2.54743E+01-2.27779E+00-5.54064E-02-9.30830E-01-3.03802E-14 1.47346E-13
 -1      2740 2.54772E+01 3.94265E-01-8.72432E-02-2.36122E+00-2.64969E-13 1.25486E-13
 -1      2741 2.53423E+01 1.67048E+00-2.06376E-02-2.19049E+00-3.52940E-13 6.38985E-14
 -1      2742 2.63367E+01-3.61808E-01-3.22489E-02-2.12584E+00-2.72605E-13 1.70815E-13
 -1      2743 2.48410E+01 3.80474E+00-5.18604E-02 3.11165E-01-5.26530E-13-1.57406E-13
 -1      2744 2.49235E+01 3.37957E+00-1.00630E-01 1.26044E+00-4.40106E-13-2.14568E-13
 -1      2745 2.51668E+01 2.46218E+00-2.37860E-02 2.08419E+00-3.38778E-13-2.74687E-13
 -1      2746 2.53161E+01 1.21838E+00-1.07847E-01 2.47407E+00-2.21424E-13-2.79426E-13
 -1      2747 2.60824E+01 3.44221E+00-9.66643E-02 1.81823E+00-4.65170E-13-1.54939E-13
 -1      2748 2.54270E+01 5.23425E-02-2.40559E-03 2.38759E+00-1.59640E-13-4.21219E-13
 -1      2749 2.54247E+01-9.90983E-01-5.36778E-02 2.14783E+00-9.25232E-14-4.00924E-13
 -1      2750 2.62957E+01 6.61662E-01-3.08443E-02 2.52417E+00-2.58238E-13-3.14401E-13
 -1      2751 2.50330E+01-1.64609E+00-2.12937E-02 1.51707E+00-2.74780E-14-4.30044E-13
 -1      2752 2.48517E+01-2.00814E+00 1.31842E-03 1.00319E+00 5.90166E-14-3.95863E-13
 -1      2753 2.57560E+01-1.66731E+00-3.52956E-02 1.64933E+00-6.07136E-14-4.57353E-13
 -1      2754 2.41717E+01-2.09653E+00-2.38705E-02 3.44422E-01 9.18467E-14-3.93372E-13
 -1      2755 2.38571E+01-1.96657E+00 2.20483E-02-1.39505E-01 1.32309E-13-3.30477E-13
 -1      2756 2.46440E+01-2.49297E+00-1.75476E-02 2.94872E-01 8.63892E-14-3.92586E-13
 -1      2757 2.31951E+01-1.73986E+00-1.67622E-02-5.73926E-01 1.08756E-13-3.03997E-13
 -1      2758 2.28592E+01-1.42398E+00 2.32893E-02-9.06993E-01 1.38495E-13-2.97870E-13
 -1      2759 2.33165E+01-2.21331E+00-2.33815E-02-7.56426E-01 1.19902E-13-3.35424E-13
 -1      2760 2.23515E+01-1.12447E+00-9.67609E-03-1.12526E+00 1.70062E-13-4.05085E-13
 -1      2761 2.20586E+01-8.11697E-01 1.66332E-02-1.30540E+00 1.69863E-13-4.27931E-13
 -1      2762 2.22197E+01-1.50631E+00-2.28877E-02-1.34718E+00 1.06124E-13-2.49135E-13
 -1      2763 2.17204E+01-5.56238E-01-4.02734E-03-1.37410E+00 2.28837E-13-4.40544E-13
 -1      2764 2.14871E+01-3.20666E-01 9.94892E-03-1.43918E+00 2.28990E-13-3.91487E-13
 -1      2765 2.14491E+01-7.97764E-01-1.67815E-02-1.58003E+00 2.00312E-13-2.88510E-13
 -1      2766 2.12788E+01-1.42773E-01-5.46011E-04-1.42033E+00 1.75113E-13-4.21308E-13
 -1      2767 2.10980E+01 7.76524E-03 5.09821E-03-1.41040E+00 1.89389E-13-4.44371E-13
 -1      2768 2.09571E+01-2.61840E-01-1.03772E-02-1.59494E+00 2.26590E-13-2.23804E-13
 -1      2769 2.09745E+01 1.14176E-01 1.38381E-03-1.34542E+00 1.53200E-13-4.91074E-13
 -1      2770 2.08330E+01 1.96589E-01 2.02481E-03-1.29209E+00 7.48139E-14-4.05396E-13
 -1      2771 2.06575E+01 8.25311E-02-5.71823E-03-1.49092E+00 1.65309E-13-3.36518E-13
 -1      2772 2.07601E+01 2.49896E-01 2.38321E-03-1.20630E+00 8.46170E-14-4.38594E-13
 -1      2773 2.06467E+01 2.85368E-01 2.70680E-04-1.13178E+00 1.46055E-13-4.53932E-13
 -1      2774 2.04764E+01 2.72877E-01-2.86071E-03-1.32892E+00 1.18915E-13-3.96543E-13
 -1      2775 2.06019E+01 3.03880E-01 2.83058E-03-1.04026E+00 9.84780E-14-4.22725E-13
 -1      2776 2.05091E+01 3.10226E-01-6.27828E-04-9.59060E-01 1.15153E-13-3.46606E-13
 -1      2777 2.03631E+01 3.56449E-01-1.32231E-03-1.14508E+00 1.00163E-13-4.89896E-13
 -1      2778 2.04796E+01 3.08147E-01 2.93795E-03-8.70522E-01 1.07453E-13-3.31729E-13
 -1      2779 2.04026E+01 2.98172E-01-1.00779E-03-7.91450E-01 1.30405E-13-2.77602E-13
 -1      2780 2.02872E+01 3.73263E-01-5.91098E-04-9.60676E-01 1.86092E-13-4.30858E-13
 -1      2781 2.03814E+01 2.85238E-01 2.83202E-03-7.10656E-01 3.82040E-14-3.87695E-13
 -1      2782 2.03175E+01 2.67346E-01-1.09621E-03-6.38579E-01-1.69326E-14-4.01677E-13
 -1      2783 2.02316E+01 3.52263E-01-2.97126E-04-7.87939E-01 6.59111E-14-5.92258E-13
 -1      2784 2.03010E+01 2.49724E-01 2.59710E-03-5.67773E-01 6.47203E-14-3.90445E-13
 -1      2785 2.02484E+01 2.29070E-01-1.03336E-03-5.04934E-01 3.56507E-15-2.90263E-13
 -1      2786 2.01879E+01 3.12604E-01-2.11640E-04-6.33345E-01 9.54243E-15-6.46713E-13
 -1      2787 2.02348E+01 2.10412E-01 2.29369E-03-4.44759E-01-5.71148E-14-2.06552E-13
 -1      2788 2.01920E+01 1.89951E-01-9.02972E-04-3.91745E-01-3.28623E-14-2.21664E-13
 -1      2789 2.01517E+01 2.66145E-01-2.09121E-04-4.99609E-01 2.54764E-14-4.71609E-13
 -1      2790 2.01806E+01 1.72255E-01 1.96565E-03-3.41863E-01-1.07683E-13-2.19827E-13
 -1      2791 2.01462E+01 1.53525E-01-7.52615E-04-2.98288E-01-1.71425E-13-2.07041E-13
 -1      2792 2.01213E+01 2.19751E-01-2.29184E-04-3.87014E-01-8.87066E-14-2.94556E-13
 -1      2793 2.01367E+01 1.37756E-01 1.64283E-03-2.57812E-01-2.63618E-13-1.41171E-13
 -1      2794 2.01094E+01 1.21429E-01-6.06875E-04-2.22777E-01-1.80377E-13-1.34351E-13
 -1      2795 2.00956E+01 1.77056E-01-2.44458E-04-2.94360E-01-1.98672E-13-2.02060E-13
 -1      2796 2.01015E+01 1.07939E-01 1.34335E-03-1.90561E-01-1.43987E-13-2.53176E-13
 -1      2797 2.00803E+01 9.41861E-02-4.76832E-04-1.62941E-01-4.26745E-14-3.07095E-13
 -1      2798 2.00742E+01 1.39691E-01-2.46727E-04-2.19641E-01-1.99448E-13-1.93211E-13
 -1      2799 2.00739E+01 8.29878E-02 1.07685E-03-1.37763E-01-1.51575E-14-3.51380E-13
 -1      2800 2.00577E+01 7.17052E-02-3.66137E-04-1.16389E-01-1.68765E-13-4.54076E-13
 -1      2801 2.00566E+01 1.08115E-01-2.35957E-04-1.60504E-01-1.31984E-13-4.17743E-13
 -1      2802 2.00525E+01 6.26308E-02 8.47075E-04-9.70584E-02-2.30437E-13-3.76980E-13
 -1      2803 2.00404E+01 5.35789E-02-2.75023E-04-8.08148E-02-1.52119E-13-3.46718E-13
 -1      2804 2.00424E+01 8.21406E-02-2.15753E-04-1.14532E-01-1.43186E-13-3.54940E-13
 -1      2805 2.00362E+01 4.63776E-02 6.54206E-04-6.62366E-02-2.06275E-13-4.42491E-13
 -1      2806 2.00273E+01 3.92576E-02-2.02094E-04-5.41178E-02-1.55345E-13-4.86212E-13
 -1      2807 2.00311E+01 6.12498E-02-1.90518E-04-7.94202E-02-1.92847E-13-3.17436E-13
 -1      2808 2.00242E+01 3.36502E-02 4.96014E-04-4.33267E-02 1.00987E-13-5.74979E-13
 -1      2809 2.00178E+01 2.81520E-02-1.45034E-04-3.44611E-02 1.58128E-13-4.88023E-13
 -1      2810 2.00223E+01 4.47796E-02-1.63215E-04-5.30815E-02-8.39443E-14-3.27841E-13
 -1      2811 2.00154E+01 2.38641E-02 3.68820E-04-2.66341E-02 1.58053E-13-5.40961E-13
 -1      2812 2.00109E+01 1.96940E-02-1.01295E-04-2.02884E-02 1.64434E-13-6.93175E-13
 -1      2813 2.00155E+01 3.20324E-02-1.36141E-04-3.36972E-02 1.31247E-13-5.29891E-13
 -1      2814 2.00091E+01 1.64735E-02 2.68454E-04-1.47410E-02 2.43334E-13-6.26498E-13
 -1      2815 2.00061E+01 1.33667E-02-6.85008E-05-1.03134E-02 2.00073E-13-4.73287E-13
 -1      2816 2.00105E+01 2.23418E-02-1.10857E-04-1.97287E-02 1.86603E-13-5.19810E-13
 -1      2817 2.00048E+01 1.09903E-02 1.90756E-04-6.48914E-03 9.63582E-14-3.63784E-13
 -1      2818 2.00029E+01 8.71492E-03-4.46358E-05-3.49731E-03-2.84196E-14-1.90082E-13
 -1      2819 2.00068E+01 1.51038E-02-8.82525E-05-9.90541E-03 1.69141E-13-3.72968E-13
 -1      2820 2.00020E+01 6.98929E-03 1.31880E-04-9.54719E-04-5.03262E-14 2.35006E-15
 -1      2821 2.00009E+01 5.34598E-03-2.80295E-05 9.78175E-04 1.17427E-13-9.52694E-14
 -1      2822 2.00042E+01 9.78763E-03-6.87412E-05-3.20248E-03 7.32084E-14-9.69474E-14
 -1      2823 2.00002E+01 4.10585E-03 8.82767E-05 2.58030E-03 1.24664E-13-2.12292E-13
 -1      2824 1.99997E+01 2.92564E-03-1.71884E-05 3.73998E-03-5.38543E-14-3.34651E-13
 -1      2825 2.00023E+01 5.93604E-03-5.22698E-05 1.18619E-03 2.48520E-14-8.52101E-14
 -1      2826 1.99992E+01 2.03145E-03 5.70885E-05 4.65797E-03 9.23919E-15-1.18911E-13
 -1      2827 1.99990E+01 1.17000E-03-1.10107E-05 5.25399E-03 9.54943E-14 6.96467E-14
 -1      2828 2.00011E+01 3.16054E-03-3.87554E-05 3.87717E-03 1.00857E-13 1.07494E-13
 -1      2829 1.99988E+01 5.00341E-04 3.60059E-05 5.67180E-03 8.45779E-14-6.84905E-14
 -1      2830 1.99988E+01-1.65442E-04-8.60930E-06 5.84779E-03-4.55193E-14 4.88761E-14
 -1      2831 2.00003E+01 1.12821E-03-2.83250E-05 5.32816E-03 3.92995E-14-1.50201E-13
 -1      2832 1.99987E+01-7.20423E-04 2.03666E-05 5.88765E-03-2.46655E-13 1.50863E-13
 -1      2833 1.99989E+01-1.26871E-03-3.40715E-06 5.72889E-03-3.22027E-13 2.20900E-13
 -1      2834 1.99998E+01-4.42011E-04-2.06225E-05 5.86274E-03-1.19966E-13-5.72427E-14
 -1      2835 2.16958E+01-3.15671E-01-5.43250E-03-1.10731E+00 1.04636E-15-2.95938E-15
 -1      2836 2.15336E+01-1.36574E-01 1.00012E-02-1.14798E+00 2.78189E-14-3.80869E-15
 -1      2837 1.99996E+01-2.23148E-03-4.94605E-06-5.49647E-03-1.47737E-13-2.75170E-13
 -1      2838 1.99987E+01-1.69385E-03-9.84393E-06-5.27640E-03-5.23950E-14 1.19457E-13
 -1      2839 1.99983E+01-1.26770E-03-6.58688E-06-5.66301E-03-1.31210E-13-3.61844E-14
 -1      2840 2.13735E+01 1.44427E-02-2.16889E-03-1.11230E+00 5.92097E-14-3.48438E-14
 -1      2841 2.12522E+01 1.59903E-01 9.04278E-03-1.06432E+00 1.01938E-13-3.13608E-14
 -1      2842 2.12091E+01-6.30693E-02-9.41573E-03-1.26148E+00 4.99323E-14-3.88390E-14
 -1      2843 2.26590E+01-1.12135E+00-1.52277E-02-4.42627E-01-1.41814E-14 1.20583E-13
 -1      2844 2.24683E+01-9.14737E-01 1.37538E-02-7.07824E-01-1.33581E-14 7.14279E-14
 -1      2845 2.32170E+01-1.38215E+00-1.74963E-02 2.66834E-01 3.15937E-15 1.97557E-13
 -1      2846 2.30658E+01-1.27851E+00 1.14458E-02-1.00606E-01-6.05053E-15 1.76233E-13
 -1      2847 2.28196E+01-1.49695E+00-1.30208E-02-5.27772E-01-3.51286E-14 1.17052E-13
 -1      2848 2.36667E+01-1.22279E+00-1.02230E-02 1.12670E+00 9.14579E-14 2.69531E-13
 -1      2849 2.36048E+01-1.37461E+00 8.93359E-04 7.38013E-01 4.23385E-14 2.52415E-13
 -1      2850 2.36032E+01-1.73112E+00-6.53417E-03 2.81785E-01 1.42223E-14 2.35906E-13
 -1      2851 2.38127E+01-4.00756E-01 2.32868E-03 1.81945E+00 9.45095E-14 2.97376E-13
 -1      2852 2.38709E+01-9.10122E-01-2.30021E-02 1.58551E+00 1.04057E-13 3.03195E-13
 -1      2853 2.42502E+01-1.33904E+00 7.34539E-03 1.27198E+00 8.10697E-14 3.39721E-13
 -1      2854 2.35866E+01 1.00787E+00 1.93563E-02 1.86792E+00 2.30651E-13 2.72232E-13
 -1      2855 2.37252E+01 2.47952E-01-4.67883E-02 2.00000E+00 1.51220E-13 3.16646E-13
 -1      2856 2.44817E+01-1.29914E-01 1.00316E-03 2.00696E+00 1.42277E-13 3.63964E-13
 -1      2857 2.32069E+01 2.23482E+00 5.20254E-03 9.34376E-01 2.44305E-13 1.73372E-13
 -1      2858 2.32816E+01 1.66343E+00-6.34749E-02 1.45928E+00 2.59832E-13 2.11411E-13
 -1      2859 2.42049E+01 1.71648E+00-8.24815E-04 1.89569E+00 2.60660E-13 3.97626E-13
 -1      2860 2.31093E+01 2.37788E+00-3.63831E-02-6.33797E-01 3.23002E-13 2.31083E-14
 -1      2861 2.30432E+01 2.46894E+00-4.00263E-02 5.10601E-02 2.83794E-13 6.30923E-14
 -1      2862 2.38970E+01 3.02419E+00 2.75843E-03 6.30043E-01 3.37751E-13 2.32859E-13
 -1      2863 2.34463E+01 1.35361E+00-5.22429E-02-1.85804E+00 3.29781E-13-2.01366E-13
 -1      2864 2.33019E+01 1.99399E+00 8.23828E-03-1.40105E+00 3.34430E-13-9.54399E-14
 -1      2865 2.39568E+01 2.72487E+00-3.53643E-02-1.14748E+00 4.03660E-13-4.26178E-14
 -1      2866 2.38564E+01-9.87139E-02-4.22203E-02-2.11756E+00 1.03994E-13-1.77764E-13
 -1      2867 2.37196E+01 6.30556E-01 1.73091E-02-2.09852E+00 2.14637E-13-2.54129E-13
 -1      2868 2.43527E+01 1.22820E+00 3.84116E-04-2.19155E+00 2.73354E-13-2.16771E-13
 -1      2869 2.39233E+01-1.06063E+00-1.32032E-02-1.57316E+00-2.91551E-14-1.69888E-13
 -1      2870 2.38742E+01-6.44205E-01 1.79176E-03-1.84914E+00 7.94334E-14-1.39992E-13
 -1      2871 2.44892E+01-4.31253E-01 4.21367E-03-2.09123E+00 6.42316E-14-2.75499E-13
 -1      2872 2.35882E+01-1.37430E+00 4.80832E-03-6.91553E-01-9.31349E-14-1.06049E-13
 -1      2873 2.36576E+01-1.30343E+00-1.56762E-02-1.08132E+00-7.38929E-14-1.81242E-13
 -1      2874 2.41600E+01-1.50678E+00-2.25777E-03-1.21953E+00-3.01879E-14-2.60271E-13
 -1      2875 2.30319E+01-1.19600E+00 1.28139E-02 1.02221E-01-1.37532E-13-9.20149E-14
 -1      2876 2.31857E+01-1.33271E+00-1.72727E-02-2.44941E-01-8.93469E-14-8.62758E-14
 -1      2877 2.34629E+01-1.69105E+00-3.80603E-03-2.39298E-01-8.68628E-14-1.67378E-13
 -1      2878 2.24455E+01-8.23520E-01 1.22567E-02 6.52844E-01 2.61122E-14-8.04318E-14
 -1      2879 2.26331E+01-1.02675E+00-1.44305E-02 4.10151E-01-4.37562E-14-1.01957E-13
 -1      2880 2.26787E+01-1.38718E+00-1.21953E-02 5.09078E-01-7.85431E-14-5.90626E-14
 -1      2881 2.19333E+01-4.50541E-01 9.32776E-03 9.58700E-01 1.47002E-14 5.94540E-14
 -1      2882 2.21216E+01-6.36451E-01-9.33350E-03 8.22183E-01 9.15132E-15-4.20070E-14
 -1      2883 2.19990E+01-9.07695E-01-1.24236E-02 9.62686E-01 2.92338E-14-7.50537E-14
 -1      2884 2.15207E+01-1.60219E-01 6.03027E-03 1.07602E+00 4.56312E-14 1.38220E-13
 -1      2885 2.16945E+01-2.97578E-01-4.69901E-03 1.02349E+00 6.46536E-14 1.10001E-13
 -1      2886 2.14787E+01-4.63600E-01-9.51750E-03 1.17439E+00 1.56303E-14 3.44254E-14
 -1      2887 2.11979E+01 3.25718E-02 3.39944E-03 1.06747E+00-5.93337E-14 2.29077E-14
 -1      2888 2.13523E+01-5.47155E-02-1.38470E-03 1.07234E+00 4.70413E-14 1.55875E-13
 -1      2889 2.11031E+01-1.31870E-01-6.42863E-03 1.21851E+00 2.58595E-14 2.46627E-13
 -1      2890 2.09454E+01 1.43010E-01 1.62708E-03 9.84567E-01-9.46556E-14-2.31667E-13
 -1      2891 2.10802E+01 9.56565E-02 7.51333E-04 1.02382E+00-1.08566E-13-1.24107E-13
 -1      2892 2.08366E+01 8.16358E-02-4.07707E-03 1.15916E+00 4.27945E-14 1.56391E-13
 -1      2893 2.07455E+01 1.94104E-01 5.61579E-04 8.64394E-01-1.19677E-13-1.20179E-13
 -1      2894 2.08616E+01 1.74516E-01 1.99965E-03 9.20903E-01-1.40318E-13-2.28006E-13
 -1      2895 2.06449E+01 1.99734E-01-2.55073E-03 1.04312E+00-1.15894E-13-1.60807E-14
 -1      2896 2.05852E+01 2.06806E-01-1.69685E-05 7.31583E-01 5.63639E-14 1.19659E-14
 -1      2897 2.06840E+01 2.04647E-01 2.61721E-03 7.93769E-01-8.83679E-15-1.05104E-13
 -1      2898 2.05029E+01 2.50756E-01-1.66037E-03 9.02037E-01-9.98531E-14 5.43951E-14
 -1      2899 2.04557E+01 1.97041E-01-2.88844E-04 6.01329E-01 5.13803E-16 1.65589E-14
 -1      2900 2.05386E+01 2.04731E-01 2.80912E-03 6.62035E-01 7.80989E-14 4.58724E-14
 -1      2901 2.03942E+01 2.59140E-01-1.17573E-03 7.56172E-01 5.03867E-14 6.34430E-14
 -1      2902 2.03509E+01 1.75754E-01-3.82338E-04 4.82150E-01-5.32247E-14-1.22854E-15
 -1      2903 2.04194E+01 1.88203E-01 2.73134E-03 5.37408E-01-3.14983E-14 8.41883E-14
 -1      2904 2.03087E+01 2.43026E-01-9.16136E-04 6.17724E-01-2.23144E-14 1.54466E-13
 -1      2905 2.02666E+01 1.49934E-01-3.81300E-04 3.78077E-01 5.76123E-14 3.95911E-14
 -1      2906 2.03222E+01 1.63959E-01 2.49705E-03 4.26066E-01 1.10373E-13 2.40070E-14
 -1      2907 2.02403E+01 2.14726E-01-7.68669E-04 4.93306E-01 1.90743E-14 1.22475E-13
 -1      2908 2.01993E+01 1.23738E-01-3.36722E-04 2.90279E-01 3.39175E-14-1.23415E-13
 -1      2909 2.02437E+01 1.37491E-01 2.18596E-03 3.30534E-01 7.47068E-14-3.00596E-14
 -1      2910 2.01853E+01 1.82039E-01-6.71231E-04 3.85784E-01 1.54161E-13-1.96487E-14
 -1      2911 2.01463E+01 9.94291E-02-2.77159E-04 2.18226E-01-1.03982E-13-1.78168E-13
 -1      2912 2.01811E+01 1.11940E-01 1.85130E-03 2.51069E-01-2.65078E-14-2.09691E-13
 -1      2913 2.01410E+01 1.49560E-01-5.92418E-04 2.95641E-01 3.64753E-14 1.03308E-14
 -1      2914 2.01051E+01 7.80723E-02-2.17143E-04 1.60467E-01 1.54313E-13-1.71949E-13
 -1      2915 2.01320E+01 8.89157E-02 1.52608E-03 1.86638E-01-6.67095E-14-1.57659E-13
 -1      2916 2.01056E+01 1.19758E-01-5.19203E-04 2.21949E-01-8.26674E-14-1.09524E-13
 -1      2917 2.00736E+01 6.00158E-02-1.63223E-04 1.15138E-01 2.25285E-13 1.16167E-13
 -1      2918 2.00939E+01 6.90902E-02 1.22888E-03 1.35551E-01 2.46227E-13 2.31496E-14
 -1      2919 2.00778E+01 9.37570E-02-4.47863E-04 1.63022E-01 6.73874E-14-1.45701E-13
 -1      2920 2.00500E+01 4.51976E-02-1.17947E-04 8.02659E-02 1.06792E-13 1.46138E-13
 -1      2921 2.00650E+01 5.25823E-02 9.68623E-04 9.58708E-02 1.99383E-13 1.75442E-13
 -1      2922 2.00561E+01 7.18815E-02-3.79210E-04 1.16851E-01 1.90085E-13 1.81208E-13
 -1      2923 2.00325E+01 3.33341E-02-8.17685E-05 5.39601E-02 1.05021E-13 2.15492E-13
 -1      2924 2.00434E+01 3.92032E-02 7.48139E-04 6.56528E-02 9.46470E-14 2.64226E-13
 -1      2925 2.00394E+01 5.39952E-02-3.15238E-04 8.13707E-02 9.16944E-14 2.89836E-14
 -1      2926 2.00200E+01 2.40410E-02-5.39340E-05 3.45123E-02-5.07916E-14 2.58978E-13
 -1      2927 2.00277E+01 2.86074E-02 5.66344E-04 4.30931E-02 1.19944E-13 3.41613E-13
 -1      2928 2.00269E+01 3.97186E-02-2.57234E-04 5.46247E-02-2.93959E-14 3.82631E-13
 -1      2929 2.00112E+01 1.69075E-02-3.32034E-05 2.04436E-02-2.86879E-13 5.06090E-13
 -1      2930 2.00165E+01 2.03897E-02 4.19824E-04 2.65994E-02-2.41530E-13 3.61750E-13
 -1      2931 2.00177E+01 2.85644E-02-2.05986E-04 3.48616E-02-2.20198E-13 3.95631E-13
 -1      2932 2.00053E+01 1.15382E-02-1.83234E-05 1.05135E-02-2.07208E-13 3.97964E-13
 -1      2933 2.00087E+01 1.41418E-02 3.04142E-04 1.48158E-02-1.65273E-13 5.99053E-13
 -1      2934 2.00110E+01 2.00224E-02-1.61865E-04 2.05714E-02-2.09072E-13 3.99225E-13
 -1      2935 2.00015E+01 7.57270E-03-8.22030E-06 3.70937E-03 1.83681E-14 2.42898E-13
 -1      2936 2.00036E+01 9.48288E-03 2.14625E-04 6.62050E-03-1.39670E-13 2.75710E-13
 -1      2937 2.00064E+01 1.36061E-02-1.24742E-04 1.04904E-02-5.92913E-14 5.10098E-13
 -1      2938 1.99992E+01 4.69328E-03-2.03781E-06-7.73828E-04 2.23099E-13 1.07956E-14
 -1      2939 2.00004E+01 6.07175E-03 1.46781E-04 1.11051E-03 1.87826E-13 1.26416E-13
 -1      2940 2.00032E+01 8.87460E-03-9.41199E-05 3.58901E-03 1.54217E-13 2.29450E-13
 -1      2941 1.99981E+01 2.62491E-03 8.37982E-07-3.55743E-03 2.82579E-13-6.28853E-15
 -1      2942 1.99985E+01 3.61091E-03 9.65230E-05-2.42181E-03 2.25559E-13-7.07666E-14
 -1      2943 2.00011E+01 5.43982E-03-6.92964E-05-9.49176E-04 3.35625E-13-7.32490E-14
 -1      2944 1.99976E+01 1.13210E-03 1.38478E-06-5.10338E-03 2.67433E-13-8.26597E-14
 -1      2945 1.99976E+01 1.84348E-03 6.01576E-05-4.51333E-03 2.92626E-13-2.98594E-14
 -1      2946 1.99999E+01 2.96651E-03-4.93548E-05-3.75351E-03 2.36734E-13-1.92428E-13
 -1      2947 1.99976E+01 2.75473E-05 6.06767E-06-5.72616E-03-5.52620E-15-2.43568E-14
 -1      2948 1.99974E+01 5.37300E-04 3.09351E-05-5.55317E-03 1.68611E-13-2.84329E-14
 -1      2949 1.99992E+01 1.17364E-03-2.98488E-05-5.29349E-03 1.83053E-13-1.18172E-13
 -1      2950 1.99982E+01-7.99313E-04 8.84803E-07-5.71388E-03-5.93236E-15-5.63753E-14
 -1      2951 1.99978E+01-3.75910E-04 3.36349E-06-5.84091E-03-1.60384E-14-1.71909E-13
 -1      2952 1.99993E+01-7.33505E-05-9.78087E-06-5.87860E-03 1.16886E-13-2.97681E-14
 -1      2953 1.99996E+01-1.09584E-03 8.61312E-06-5.90552E-03 3.82160E-15-2.43377E-13
 -1      2954 2.00029E+01-3.84312E-03 6.03032E-06-3.84870E-04 2.79254E-13-1.19893E-14
 -1      2955 2.00028E+01-3.79766E-03 5.42900E-06-1.11987E-03 2.84166E-13-3.50579E-14
 -1      2956 1.99988E+01-1.64383E-03 6.23948E-07 5.58754E-03-3.15785E-13 2.14238E-13
 -1      2957 1.99990E+01-1.97533E-03-1.45449E-06 5.31607E-03-3.11706E-13 2.74208E-13
 -1      2958 1.99996E+01-2.44974E-03 1.73862E-06 5.37122E-03-1.87130E-13 4.03549E-13
 -1      2959 1.99996E+01-1.56404E-03-1.21562E-05 5.76133E-03-2.20103E-13 2.16863E-13
 -1      2960 2.00023E+01-3.61684E-03 8.83214E-06-3.25518E-03 2.51986E-13-6.44815E-14
 -1      2961 2.00020E+01-3.39442E-03 4.25819E-07-3.83904E-03 3.64813E-13-3.24864E-13
 -1      2962 2.00028E+01-3.80063E-03 5.69731E-06 1.12884E-03 3.56157E-13 1.30066E-14
 -1      2963 2.00029E+01-3.84562E-03 5.62842E-06 3.93190E-04 3.04398E-13-1.61624E-14
 -1      2964 2.00035E+01-2.40304E-03 5.70661E-06 2.96748E-06 3.14010E-13-8.09717E-14
 -1      2965 2.00027E+01-3.78758E-03 6.78254E-06-1.87734E-03 1.01839E-13-6.11666E-14
 -1      2966 2.00025E+01-3.65169E-03 4.39009E-06-2.56407E-03 2.25624E-13 1.90896E-13
 -1      2967 2.00030E+01-2.37809E-03 2.55801E-06-3.00433E-03 2.03638E-13-1.12489E-13
 -1      2968 2.00034E+01-2.39874E-03 4.88173E-06-1.54284E-03 3.52177E-13 5.46185E-14
 -1      2969 2.72415E+01-3.55449E+00-1.08661E-01 7.83935E-01 6.74591E-15-5.56444E-13
 -1      2970 2.56553E+01-4.68593E+00 6.37828E-02 2.63045E+00-1.95254E-13-3.86052E-13
 -1      2971 2.00026E+01-3.66186E-03 4.37259E-06 2.55205E-03 3.05800E-13 1.71121E-13
 -1      2972 2.00027E+01-3.79525E-03 6.11355E-06 1.87511E-03 2.87676E-13 1.79641E-13
 -1      2973 2.00034E+01-2.40581E-03 5.05794E-06 1.53760E-03 3.85204E-13 1.23403E-13
 -1      2974 2.00020E+01-3.40627E-03 9.83632E-07 3.83313E-03 2.06689E-13 6.45989E-14
 -1      2975 2.00023E+01-3.63063E-03 8.26370E-06 3.24704E-03 2.52748E-13 1.47440E-13
 -1      2976 2.00030E+01-2.39119E-03 2.75726E-06 2.99213E-03 2.43660E-13-1.00962E-14
 -1      2977 2.00012E+01-3.01293E-03-2.19593E-06 4.81209E-03 1.74426E-15 1.90314E-13
 -1      2978 2.00017E+01-3.31688E-03 1.09548E-05 4.40232E-03 1.70966E-13 4.41749E-14
 -1      2979 2.00023E+01-2.31478E-03-5.69345E-07 4.27679E-03 2.13439E-13 2.17360E-14
 -1      2980 2.00002E+01-2.59585E-03-2.86081E-06 5.25810E-03-8.80732E-14 4.41315E-13
 -1      2981 2.00008E+01-2.97729E-03 1.13742E-05 5.09479E-03-3.31629E-14 2.84173E-13
 -1      2982 2.00013E+01-2.25599E-03-9.23399E-06 5.14153E-03 1.70785E-14 1.83332E-13
 -1      2983 2.00002E+01-2.13108E-03-5.40257E-06 5.51345E-03-1.73859E-13 3.51408E-13
 -1      2984 2.89982E+01 1.41971E+00-1.97343E-01-1.97293E+00-5.26579E-13 3.41269E-13
 -1      2985 2.91138E+01-7.38840E-02-3.45653E-02-1.62688E+00-4.29851E-13 3.26641E-13
 -1      2986 2.86121E+01-2.29924E+00-1.73566E-01-2.47389E-01-2.72352E-13 2.56448E-13
 -1      2987 2.72983E+01-3.95983E+00 7.19932E-02 1.40622E+00-4.17392E-14 1.71793E-13
 -1      2988 2.79124E+01-1.63488E+00-4.28868E-02-1.16509E+00-2.56004E-13 2.95541E-13
 -1      2989 1.03664E+01-2.43489E+00 8.16614E-02 5.36098E+00-2.61291E-13 6.03489E-13
 -1      2990 7.76027E+00-1.36771E+00 1.59410E-01 3.49240E+00-7.41351E-14 5.76872E-13
 -1      2991 1.69092E+01-4.60289E+00 4.04686E-02 6.34117E+00-4.20691E-13 4.84696E-13
 -1      2992 1.39884E+01-3.60768E+00 1.27130E-01 6.09303E+00-4.72955E-13 6.55087E-13
 -1      2993 2.07223E+01 1.91076E+00-8.64405E-03-5.41117E-01-3.17467E-13-1.73674E-13
 -1      2994 2.07798E+01 1.54996E+00-2.66872E-03-1.92605E-01-2.92752E-13-1.56715E-13
 -1      2995 1.18496E+01-3.43602E+00 6.75057E-02 6.19075E+00 2.82524E-13-6.95860E-13
 -1      2996 9.05786E+00-2.43558E+00 1.44716E-01 4.96082E+00 2.70575E-13-7.79377E-13
 -1      2997 1.06511E+01-2.37147E+00 1.61988E-01-5.28981E+00-3.20549E-13-5.85670E-13
 -1      2998 1.34834E+01-3.56502E+00 3.89938E-02-6.31882E+00-3.70995E-13-4.54567E-13
 -1      2999 2.91035E+01 1.42951E+00-8.98870E-02 1.78959E+00 4.97311E-13 1.82659E-13
 -1      3000 2.89825E+01 3.14249E+00-2.19636E-01 1.84734E+00 6.17534E-13 1.30923E-13
 -1      3001 2.11597E+01 2.86744E-01-2.80254E-04-9.51103E-01 1.18563E-13-5.33840E-14
 -1      3002 2.10887E+01 4.18427E-01 9.63980E-03-8.25056E-01 1.41958E-13-6.37780E-14
 -1      3003 2.09865E+01 2.96392E-01-7.08636E-03-1.08857E+00 9.77576E-14-7.30251E-14
 -1      3004 2.21297E+01-7.12635E-01-1.01032E-02-8.98248E-01-1.46727E-14 3.15438E-14
 -1      3005 2.19409E+01-5.00383E-01 1.21670E-02-1.04490E+00-1.44572E-14 4.88368E-15
 -1      3006 2.15762E+01-4.98540E-01-1.17416E-02-1.26027E+00-3.06791E-15 1.54117E-14
 -1      3007 2.21147E+01-1.00785E+00-1.36278E-02-1.03583E+00-3.98729E-14 5.06084E-14
 -1      3008 2.08265E+01 1.28032E+00 4.65340E-03 7.85375E-02-2.46346E-13-1.51772E-13
 -1      3009 2.08109E+01 1.06109E+00-1.50042E-03 3.88822E-01-2.11052E-13-1.53308E-13
 -1      3010 2.05711E+01 1.20260E+00-1.04995E-03 5.21841E-01-2.11525E-13-1.90430E-13
 -1      3011 2.05318E+01 1.68617E+00 9.20387E-04 5.41276E-03-2.65978E-13-2.01789E-13
 -1      3012 2.46834E+01-5.31709E+00-1.46427E-01 3.63124E+00 1.43621E-13-1.00683E-14
 -1      3013 2.20092E+01-5.23918E+00 1.51495E-01 4.99623E+00 2.56198E-13-1.76758E-13
 -1      3014 2.29966E+01-5.33889E+00-8.40111E-02 4.43985E+00-3.10474E-13-3.75620E-14
 -1      3015 1.99568E+01-5.10287E+00 9.95495E-02 5.55918E+00-4.10880E-13 2.07143E-13
 -1      3016 1.94181E+01-4.44487E+00 1.03064E-01 5.31719E+00-4.34042E-13 2.50869E-13
 -1      3017 2.88663E+01 9.03913E-01-1.52018E-01-1.84691E+00 3.28959E-13-4.24577E-13
 -1      3018 2.81561E+01-1.19225E+00-6.74774E-02-1.05884E+00 1.89258E-13-4.39843E-13
 -1      3019 2.89088E+01 4.70499E+00-2.02416E-01-1.80139E+00 6.50729E-13-2.86146E-13
 -1      3020 2.89211E+01 2.91705E+00-1.16608E-01-2.14206E+00 5.23026E-13-3.88301E-13
 -1      3021 2.76602E+01 1.56232E+00-5.69339E-02-2.34405E+00 3.34538E-13-4.20372E-13
 -1      3022 1.92717E+01 3.10966E+00-3.89290E-03 1.51635E-01 1.86488E-13-3.72936E-13
 -1      3023 1.90439E+01 3.25200E+00-8.66236E-03 7.77059E-02 1.31099E-13-3.93137E-13
 -1      3024 1.90081E+01 3.05397E+00 5.55808E-03-5.15686E-02 1.07667E-13-3.81060E-13
 -1      3025 1.94750E+01 2.70913E+00 5.50322E-03 6.85946E-03 1.83822E-13-3.29933E-13
 -1      3026 1.89699E+01 3.31876E+00-8.48068E-03-1.02159E-01-1.35656E-13-3.98060E-13
 -1      3027 1.91923E+01 3.18305E+00-3.97109E-03-1.63500E-01-1.79493E-13-3.85775E-13
 -1      3028 2.89338E+01 4.94765E+00-1.39290E-01 1.67968E+00 6.84008E-13 7.18869E-15
 -1      3029 2.85677E+01 6.06892E+00-2.08990E-01 8.19912E-01 7.38021E-13-9.98368E-14
 -1      3030 2.76640E+01 3.64805E+00-3.41862E-02 2.06570E+00 5.65603E-13 8.43769E-15
 -1      3031 2.39918E+01-5.04715E+00 1.24387E-01-3.88067E+00-2.26236E-13 1.91999E-14
 -1      3032 2.61423E+01-4.69335E+00-1.83948E-01-2.32485E+00 9.65894E-15 1.52552E-13
 -1      3033 2.02348E+01 2.75814E+00-3.37695E-03-7.11508E-01-3.05070E-13-2.72546E-13
 -1      3034 6.61512E+00-6.80674E-01 1.31187E-01 1.34246E+00 2.16528E-14 6.81066E-13
 -1      3035 6.66700E+00-6.68137E-01 1.51796E-01-1.19542E+00 6.97220E-14 5.94136E-13
 -1      3036 1.79226E+01-5.06017E+00-4.40524E-02 6.31771E+00 3.12667E-13-3.14748E-13
 -1      3037 1.48649E+01-4.25403E+00 1.61112E-01 6.40245E+00 3.19661E-13-4.94063E-13
 -1      3038 1.43544E+01-3.20588E+00 1.62389E-01 5.84377E+00 3.37466E-13-5.28216E-13
 -1      3039 2.80543E+01-2.73039E+00 3.55686E-02-2.26748E-01 1.89869E-13 1.88682E-13
 -1      3040 2.89682E+01-8.81957E-01-1.75073E-01 9.35428E-01 3.49290E-13 1.34365E-13
 -1      3041 2.80700E+01-9.05658E-02-5.29173E-02 1.67398E+00 3.29806E-13 1.50546E-13
 -1      3042 1.70998E+01-4.31884E+00 1.68803E-01-6.17265E+00-4.30656E-13-3.32762E-13
 -1      3043 2.03093E+01-5.22009E+00-9.39270E-02-5.60923E+00-3.63820E-13-1.52760E-13
 -1      3044 7.08511E+00-1.62661E+00 1.40957E-01 3.49195E+00 1.08330E-13-8.17374E-13
 -1      3045 6.14594E+00-1.07443E+00 1.43794E-01 1.43344E+00 3.22069E-14-7.31165E-13
 -1      3046 2.81279E+01 6.05735E+00-1.85326E-01 2.54982E-01-6.51534E-13-1.34408E-13
 -1      3047 2.83888E+01 5.90133E+00-1.62603E-01-8.12273E-01-6.67466E-13 1.45300E-14
 -1      3048 2.87025E+01 4.95430E+00-1.94213E-01-1.59750E+00-7.29111E-13 1.51795E-13
 -1      3049 2.90180E+01 3.52115E+00-1.18534E-01-2.03803E+00-6.52922E-13 2.47136E-13
 -1      3050 2.78002E+01 1.96165E+00-1.02065E-01-2.24179E+00-4.89012E-13 2.88498E-13
 -1      3051 2.72538E+01 4.70669E+00-1.04254E-01-1.27660E+00-6.03378E-13 1.09631E-13
 -1      3052 2.10451E+01 5.47243E-01 4.27930E-04-6.41595E-01 1.62312E-13-8.58951E-14
 -1      3053 2.10312E+01 6.98487E-01 1.13185E-02-4.34186E-01 1.81512E-13-8.28169E-14
 -1      3054 2.08395E+01 1.00702E+00-1.86802E-03-3.05996E-01 2.19798E-13-1.33438E-13
 -1      3055 2.08745E+01 6.28245E-01-4.63700E-03-7.67825E-01 1.54364E-13-1.15654E-13
 -1      3056 2.87927E+01 6.63421E+00-1.81257E-01-1.84409E-01 7.84761E-13-1.51379E-13
 -1      3057 2.91232E+01 6.19719E+00-1.61247E-01-1.12885E+00 7.36911E-13-2.09291E-13
 -1      3058 2.94137E+01 4.66283E-01-5.63793E-02 1.83947E+00-3.64125E-13-5.93442E-13
 -1      3059 2.92500E+01 2.01067E+00-1.99408E-01 2.13239E+00-4.88318E-13-5.54112E-13
 -1      3060 2.46761E+01-5.04772E+00 4.01133E-02-3.26093E+00 1.76040E-13-1.28550E-13
 -1      3061 2.64105E+01-4.64334E+00-9.30625E-02-2.20230E+00 5.97508E-14-2.10720E-13
 -1      3062 2.09221E+01 1.62124E+00-9.97190E-04 5.43988E-01 3.15194E-13-1.16305E-13
 -1      3063 1.86623E+01-4.65708E+00 7.35039E-02-5.57964E+00 2.77181E-13 2.34437E-13
 -1      3064 2.21858E+01-5.28927E+00-1.14346E-02-4.72789E+00 2.14245E-13 2.76099E-14
 -1      3065 1.94456E+01 2.98176E+00-9.00207E-03-1.97171E-01-1.94259E-13-3.72194E-13
 -1      3066 1.97317E+01 2.79427E+00-2.43991E-03-2.74721E-01-2.35710E-13-3.39527E-13
 -1      3067 1.93838E+01 2.79985E+00 6.57256E-03-1.64308E-02-1.76970E-13-3.48821E-13
 -1      3068 1.85656E+01 3.36869E+00 6.55904E-03-3.79502E-02 1.92568E-16-4.07197E-13
 -1      3069 1.85266E+01 3.61597E+00-5.42165E-03-2.47717E-02-1.42117E-14-4.31107E-13
 -1      3070 1.85663E+01 3.59534E+00-4.65345E-03-5.74256E-02-5.93491E-14-4.27461E-13
 -1      3071 2.84028E+01-9.23854E-01-3.11018E-02 1.59198E+00-2.19783E-13-6.29830E-13
 -1      3072 2.71019E+01-3.73884E+00 1.87237E-02-6.97436E-01-8.74821E-15-4.10172E-13
 -1      3073 2.00023E+01-2.29775E-03-4.82851E-07-4.26933E-03 2.71224E-13-2.83720E-13
 -1      3074 2.00017E+01-3.30865E-03 1.70744E-05-4.39722E-03 4.42886E-13-3.39305E-13
 -1      3075 2.00012E+01-2.99807E-03-1.46127E-05-4.82406E-03 2.90534E-13-3.31940E-13
 -1      3076 7.40902E+00-1.32197E+00 1.50397E-01-3.13843E+00 1.91874E-13 4.63851E-13
 -1      3077 9.31003E+00-2.07796E+00 1.16568E-01-4.76413E+00 1.77761E-13 3.48777E-13
 -1      3078 2.52461E+01 4.01243E+00-1.13708E-01-2.94724E-01-4.92051E-13-1.21190E-13
 -1      3079 2.63121E+01 4.92294E+00-1.15921E-01 3.33089E-01-5.29340E-13-3.46702E-14
 -1      3080 2.51013E+01 2.84179E+00-1.10061E-01-1.67279E+00-4.45213E-13 3.43649E-15
 -1      3081 2.49725E+01 3.61716E+00-4.81120E-02-8.33949E-01-5.09454E-13-1.28045E-13
 -1      3082 2.43058E+01-4.75906E+00 5.00764E-02 3.05822E+00-2.96083E-13-2.99767E-13
 -1      3083 8.96610E+00-4.91787E-01 1.69546E-01 2.24161E+00-8.51506E-14 5.68490E-13
 -1      3084 2.00003E+01-2.58095E-03 1.68233E-05-5.29410E-03-1.50987E-13-3.71186E-13
 -1      3085 2.06947E+01 1.76325E+00-4.01211E-03 3.69602E-01 3.01351E-13-1.74867E-13
 -1      3086 2.05916E+01 1.60151E+00 2.18615E-03 6.30138E-02 2.61009E-13-1.87662E-13
 -1      3087 2.76795E+01 5.45658E+00-1.61130E-01 9.03106E-01-6.51479E-13-1.75464E-13
 -1      3088 2.58876E+01-4.42770E+00 2.41385E-02 1.99660E+00 9.77898E-14 8.75550E-14
 -1      3089 9.78590E+00-1.44719E+00 1.77088E-01 4.06809E+00 1.93318E-13-7.04353E-13
 -1      3090 2.03636E+01-4.75570E+00 7.48851E-02 5.23236E+00 3.21534E-13-2.02956E-13
 -1      3091 2.24938E+01-4.71635E+00 9.18831E-02-4.23098E+00-2.93876E-13-6.77410E-14
 -1      3092 9.99773E+00-1.57869E+00 1.64562E-01-4.48487E+00-2.53797E-13-5.89834E-13
 -1      3093 1.22795E+01-1.65945E+00 1.03749E-01-4.74380E+00-3.27890E-13-4.69430E-13
 -1      3094 9.64908E+00-7.55553E-01 1.27157E-01-3.36846E+00-1.94941E-13-5.62106E-13
 -1      3095 1.62217E+01-3.46670E+00 1.14255E-01-5.78004E+00-4.05426E-13-3.44301E-13
 -1      3096 2.68866E+01-3.53140E+00 1.55498E-02-7.30071E-01 1.66048E-14 1.59331E-13
 -1      3097 2.89264E+01 3.87646E+00-1.19315E-01 2.17918E+00-5.98716E-13-4.27963E-13
 -1      3098 2.82782E+01 5.31816E+00-1.90903E-01 1.50029E+00-6.75349E-13-3.13416E-13
 -1      3099 8.63555E+00-4.49512E-01 1.60383E-01-1.92094E+00 9.46743E-14 5.07649E-13
 -1      3100 2.75983E+01 4.70051E+00-1.04992E-01-1.69843E+00 6.20476E-13-2.77500E-13
 -1      3101 2.69113E+01-1.43003E+00-1.32243E-01-1.60846E+00 2.65031E-14-3.51413E-13
 -1      3102 2.76322E+01-2.54317E+00-4.58518E-02-5.58763E-01 3.95526E-14-4.29254E-13
 -1      3103 2.63864E+01-3.28295E+00-5.83267E-03 2.04301E-01-9.10968E-14-4.50192E-13
 -1      3104 2.01754E+01 2.48323E+00 4.77598E-04-4.18442E-01-2.68387E-13-2.81228E-13
 -1      3105 1.86539E+01 3.53155E+00-7.10193E-03-5.01148E-02-8.02318E-14-4.12732E-13
 -1      3106 1.87911E+01 3.45495E+00-3.79374E-03-9.24200E-02-1.13043E-13-4.06356E-13
 -1      3107 1.89293E+01 3.12580E+00 6.29959E-03 9.97355E-03-1.17448E-13-3.71779E-13
 -1      3108 1.86468E+01 3.31772E+00 6.47029E-03-3.95204E-03-6.81562E-14-3.99934E-13
 -1      3109 7.05688E+00-5.34139E-01 1.93456E-01 4.34980E-02-3.07645E-14-6.76736E-13
 -1      3110 8.35385E+00-2.05274E-01 1.08783E-01-1.26506E+00-1.33191E-13-6.15313E-13
 -1      3111 8.53198E+00-1.39594E-01 1.38663E-01 1.05760E+00 2.95922E-15-6.65190E-13
 -1      3112 2.74561E+01 5.70218E+00-9.12542E-02 3.98868E-01 7.14984E-13-2.31454E-13
 -1      3113 2.36149E+01-4.83586E+00 5.66503E-02-3.41091E+00 1.68948E-13-8.91509E-14
 -1      3114 2.78741E+01 2.45717E+00-8.28337E-02 2.36471E+00-4.85695E-13-3.94976E-13
 -1      3115 1.63149E+01-3.74915E+00 9.67762E-02-5.82917E+00 2.77889E-13 3.68046E-13
 -1      3116 1.89955E+01-3.83950E+00 8.72405E-02-4.92364E+00 2.75627E-13 1.76224E-13
 -1      3117 1.14358E+01-2.46060E+00 1.88924E-01-5.33816E+00 1.86490E-13 2.90157E-13
 -1      3118 1.41948E+01-3.31671E+00 8.30359E-02-5.79888E+00 2.62720E-13 3.43794E-13
 -1      3119 1.47711E+01-2.52773E+00 5.56129E-02-5.20551E+00 1.70475E-13 2.88838E-13
 -1      3120 1.13054E+01-1.62634E+00 1.17318E-01-4.57551E+00 1.80848E-13 2.83010E-13
 -1      3121 2.63567E+01 2.64079E+00-7.88640E-02-2.07760E+00-4.88096E-13 6.84106E-14
 -1      3122 2.02057E+01 1.82982E+00-3.01607E-03-1.06091E-01 2.30947E-13-2.25635E-13
 -1      3123 1.99057E+01 2.08931E+00-3.63471E-03-1.44697E-01 2.01121E-13-2.71347E-13
 -1      3124 2.62079E+01 4.76389E+00-1.62148E-01-1.20675E+00 5.98854E-13-3.02782E-13
 -1      3125 2.63148E+01 3.73250E+00-7.21476E-02-1.97905E+00 5.31422E-13-3.83769E-13
 -1      3126 2.61458E+01-3.97437E+00-1.42607E-01 8.15858E-01 6.59993E-14 2.24251E-13
 -1      3127 2.48131E+01-4.43742E+00 1.46684E-01 2.52394E+00 2.30111E-13 6.40807E-14
 -1      3128 2.03029E+01 7.41921E-01 4.30584E-03 1.30524E+00-1.22731E-13-1.61006E-13
 -1      3129 2.03599E+01 5.39700E-01 2.93398E-03 1.47697E+00-7.19299E-14-1.88399E-13
 -1      3130 2.03924E+01 3.18211E-01 6.59064E-03 1.66257E+00-5.89906E-14-1.89879E-13
 -1      3131 2.05255E+01 6.02415E-02 5.27942E-03 1.77938E+00-7.30970E-14-2.12544E-13
 -1      3132 1.99650E+01 5.56300E-01-6.39615E-03 1.62267E+00-9.22827E-14-2.25662E-13
 -1      3133 2.06527E+01-2.36040E-01 1.18691E-02 1.93221E+00-3.83075E-14-1.84042E-13
 -1      3134 2.09001E+01-5.90086E-01 6.61456E-03 1.97688E+00 1.34222E-14-1.78963E-13
 -1      3135 2.00829E+01-1.74695E-02-1.28994E-02 1.99148E+00-4.19924E-14-2.18442E-13
 -1      3136 2.12008E+01-9.88679E-01 2.17402E-02 2.06942E+00 8.53996E-14-1.30727E-13
 -1      3137 2.16060E+01-1.45010E+00 7.23873E-03 2.00069E+00 1.26954E-13-9.80026E-14
 -1      3138 2.04433E+01-8.05043E-01-2.28135E-02 2.29471E+00 7.37533E-14-1.70623E-13
 -1      3139 2.21803E+01-1.94958E+00 3.29124E-02 1.96916E+00 1.66638E-13-5.17462E-14
 -1      3140 2.27950E+01-2.42089E+00 1.48562E-02 1.69524E+00 1.66747E-13 5.14346E-16
 -1      3141 2.12094E+01-1.84108E+00-3.49683E-02 2.45250E+00 2.05234E-13-1.29022E-13
 -1      3142 2.53210E+01-3.23567E+00 7.77755E-02 4.76997E-01 1.09491E-13 1.52139E-13
 -1      3143 2.59069E+01-2.93652E+00-1.75811E-02-2.28742E-01 2.74542E-14 1.89813E-13
 -1      3144 2.47446E+01-4.30946E+00-4.16105E-02 1.95705E+00-1.94763E-13-4.76948E-13
 -1      3145 2.30047E+01-4.50104E+00 7.21993E-02 3.42452E+00-3.30500E-13-2.46938E-13
 -1      3146 2.49347E+01-3.10150E+00-2.37324E-02-1.66254E-01 1.05665E-13-4.40353E-13
 -1      3147 2.42675E+01-3.01879E+00 3.41536E-02-7.67839E-01 1.91435E-13-3.65687E-13
 -1      3148 2.32656E+01-2.69298E+00-2.38677E-03-1.22520E+00 1.72185E-13-2.99921E-13
 -1      3149 2.26543E+01-2.25133E+00 3.78830E-02-1.57378E+00 1.19629E-13-3.35074E-13
 -1      3150 2.32954E+01-3.24220E+00-2.87133E-03-1.70639E+00 2.17632E-13-3.61768E-13
 -1      3151 2.19568E+01-1.77976E+00 4.02462E-03-1.71220E+00 1.27539E-13-2.46903E-13
 -1      3152 2.14949E+01-1.31917E+00 2.51842E-02-1.85702E+00 1.50999E-13-2.73258E-13
 -1      3153 2.16198E+01-2.24104E+00-3.41957E-02-2.18972E+00 1.53863E-13-2.25169E-13
 -1      3154 2.10932E+01-9.19903E-01 6.19502E-03-1.83157E+00 2.19048E-13-2.65739E-13
 -1      3155 2.07816E+01-5.68117E-01 1.29124E-02-1.85403E+00 2.90151E-13-1.73536E-13
 -1      3156 2.06255E+01-1.20002E+00-2.48497E-02-2.18865E+00 2.02989E-13-2.19167E-13
 -1      3157 2.05820E+01-2.85398E-01 6.22818E-03-1.75997E+00 2.04606E-13-1.02012E-13
 -1      3158 2.03861E+01-5.65131E-02 5.53452E-03-1.71602E+00 1.44936E-13-1.73568E-13
 -1      3159 2.00973E+01-4.17299E-01-1.44134E-02-2.00258E+00 2.29734E-13-1.15295E-13
 -1      3160 2.03052E+01 1.18084E-01 5.12680E-03-1.60081E+00 1.09478E-13-2.32406E-13
 -1      3161 2.01858E+01 2.48258E-01 1.48693E-03-1.52357E+00 1.40134E-13-2.74052E-13
 -1      3162 1.98590E+01 8.58950E-02-7.20042E-03-1.76008E+00 9.87056E-14-1.68293E-13
 -1      3163 2.01679E+01 3.41246E-01 4.01736E-03-1.40669E+00 8.55695E-14-2.68639E-13
 -1      3164 2.00941E+01 4.02272E-01-5.72205E-04-1.31546E+00 6.55022E-14-3.53783E-13
 -1      3165 1.97810E+01 3.70829E-01-2.86593E-03-1.51326E+00 8.40250E-14-1.12971E-13
 -1      3166 2.01059E+01 4.40305E-01 3.19561E-03-1.20484E+00 1.35406E-13-3.85049E-13
 -1      3167 2.00577E+01 4.57151E-01-1.53497E-03-1.11098E+00 1.35141E-13-3.71692E-13
 -1      3168 1.97829E+01 5.04275E-01-5.94081E-04-1.28048E+00 3.53611E-14-3.84735E-13
 -1      3169 2.00805E+01 4.61272E-01 2.64998E-03-1.00996E+00 6.59482E-14-3.53074E-13
 -1      3170 2.00462E+01 4.52196E-01-1.88283E-03-9.20219E-01 4.97389E-14-4.65180E-13
 -1      3171 1.98183E+01 5.41110E-01 4.42912E-04-1.06784E+00 1.16533E-13-3.53279E-13
 -1      3172 2.00707E+01 4.37264E-01 2.28200E-03-8.30317E-01-3.13670E-14-6.59587E-13
 -1      3173 2.00441E+01 4.14601E-01-1.90045E-03-7.48554E-01-6.36120E-14-6.92167E-13
 -1      3174 1.98626E+01 5.20942E-01 8.03000E-04-8.77525E-01-1.29577E-13-5.74831E-13
 -1      3175 2.00659E+01 3.90392E-01 2.00419E-03-6.70306E-01 4.21566E-14-6.66610E-13
 -1      3176 2.00440E+01 3.62008E-01-1.74898E-03-5.98440E-01 1.07088E-13-6.05949E-13
 -1      3177 1.99043E+01 4.70568E-01 8.25722E-04-7.10310E-01 5.14466E-14-6.36434E-13
 -1      3178 2.00617E+01 3.34601E-01 1.76321E-03-5.31738E-01 8.48164E-14-7.04032E-13
 -1      3179 2.00431E+01 3.05249E-01-1.52218E-03-4.70359E-01 3.03000E-14-5.61202E-13
 -1      3180 1.99387E+01 4.07219E-01 7.09053E-04-5.66116E-01 1.07218E-13-6.99087E-13
 -1      3181 2.00566E+01 2.78202E-01 1.53578E-03-4.14594E-01 2.91748E-14-5.87318E-13
 -1      3182 2.00408E+01 2.50541E-01-1.27624E-03-3.63414E-01-7.42691E-14-4.69182E-13
 -1      3183 1.99648E+01 3.41402E-01 5.46272E-04-4.44083E-01 6.50667E-14-7.08659E-13
 -1      3184 2.00506E+01 2.25741E-01 1.31769E-03-3.17634E-01-1.70937E-13-3.81485E-13
 -1      3185 2.00371E+01 2.01081E-01-1.04097E-03-2.75849E-01-2.40018E-13-3.24099E-13
 -1      3186 1.99835E+01 2.79111E-01 3.89625E-04-3.42652E-01-3.29493E-14-5.36630E-13
 -1      3187 2.00439E+01 1.79379E-01 1.11064E-03-2.38924E-01-2.45755E-13-2.79427E-13
 -1      3188 2.00327E+01 1.58212E-01-8.30306E-04-2.05459E-01-1.48070E-13-3.22142E-13
 -1      3189 1.99961E+01 2.23352E-01 2.57832E-04-2.59821E-01-2.16597E-13-5.89015E-13
 -1      3190 2.00371E+01 1.39842E-01 9.19264E-04-1.76186E-01-1.63926E-13-3.81281E-13
 -1      3191 2.00279E+01 1.22187E-01-6.48893E-04-1.49868E-01-1.35799E-13-3.79165E-13
 -1      3192 2.00040E+01 1.75310E-01 1.56027E-04-1.93340E-01-2.01087E-13-4.59142E-13
 -1      3193 2.00307E+01 1.07040E-01 7.46898E-04-1.27058E-01-1.15050E-13-3.56480E-13
 -1      3194 2.00233E+01 9.26605E-02-4.96997E-04-1.06724E-01-1.19592E-13-3.25640E-13
 -1      3195 2.00085E+01 1.35103E-01 8.32795E-05-1.40892E-01-1.65915E-13-4.24875E-13
 -1      3196 2.00248E+01 8.04484E-02 5.95768E-04-8.92517E-02-1.47232E-13-2.91754E-13
 -1      3197 2.00189E+01 6.89771E-02-3.73356E-04-7.38156E-02-1.84583E-13-2.58763E-13
 -1      3198 2.00106E+01 1.02248E-01 3.26322E-05-1.00218E-01-8.53829E-14-4.31378E-13
 -1      3199 2.00197E+01 5.93222E-02 4.66900E-04-6.06638E-02-1.96594E-13-1.56859E-13
 -1      3200 2.00151E+01 5.03409E-02-2.75022E-04-4.91578E-02-3.11691E-14-1.81964E-13
 -1      3201 2.00112E+01 7.59577E-02-1.05909E-07-6.92071E-02-1.75375E-13-2.75274E-13
 -1      3202 2.00153E+01 4.28458E-02 3.59293E-04-3.94419E-02 8.78986E-14-2.13102E-13
 -1      3203 2.00118E+01 3.59391E-02-1.98270E-04-3.10327E-02 1.43431E-13-2.92114E-13
 -1      3204 2.00107E+01 5.53123E-02-1.95903E-05-4.59820E-02-1.23139E-14-8.48358E-14
 -1      3205 2.00116E+01 3.02232E-02 2.71246E-04-2.40021E-02 2.57830E-13-3.03170E-13
 -1      3206 2.00090E+01 2.50050E-02-1.39437E-04-1.79907E-02 2.76743E-13-1.96573E-13
 -1      3207 2.00097E+01 3.93870E-02-2.97638E-05-2.89199E-02 1.54626E-13 3.95152E-14
 -1      3208 2.00086E+01 2.07218E-02 2.00651E-04-1.30226E-02 2.47920E-13-1.09188E-13
 -1      3209 2.00067E+01 1.68473E-02-9.52715E-05-8.83656E-03 1.89220E-13-3.33562E-14
 -1      3210 2.00084E+01 2.73166E-02-3.36122E-05-1.66520E-02 3.38457E-13 1.35660E-13
 -1      3211 2.00063E+01 1.36908E-02 1.45210E-04-5.42569E-03 1.54649E-13 1.34879E-13
 -1      3212 2.00049E+01 1.08588E-02-6.30567E-05-2.60723E-03 1.29397E-13 2.09038E-13
 -1      3213 2.00071E+01 1.83232E-02-3.34914E-05-8.05039E-03 2.14031E-13 3.14851E-13
 -1      3214 2.00044E+01 8.56364E-03 1.02846E-04-3.54484E-04-2.99596E-14 9.40321E-14
 -1      3215 2.00034E+01 6.51515E-03-4.04208E-05 1.45251E-03 3.21908E-14 1.10083E-13
 -1      3216 2.00057E+01 1.17236E-02-3.11872E-05-2.20676E-03-2.58513E-14 2.80576E-13
 -1      3217 2.00029E+01 4.85614E-03 7.09008E-05 2.85159E-03 1.22998E-13 7.91153E-14
 -1      3218 2.00023E+01 3.37642E-03-2.44704E-05 3.91599E-03 1.08563E-13 1.25591E-13
 -1      3219 2.00044E+01 6.93270E-03-2.68817E-05 1.58531E-03 9.40773E-14 7.86098E-14
 -1      3220 2.00018E+01 2.16305E-03 4.81777E-05 4.69827E-03-2.49969E-16-1.53574E-13
 -1      3221 2.00014E+01 1.05949E-03-1.48965E-05 5.21935E-03-9.28195E-14-2.49581E-13
 -1      3222 2.00032E+01 3.45286E-03-2.51919E-05 3.87046E-03-4.20792E-14-2.88510E-13
 -1      3223 2.00010E+01 1.30552E-04 3.51606E-05 5.53383E-03 1.44696E-14-1.36125E-13
 -1      3224 2.00008E+01-7.51668E-04-9.59331E-06 5.65125E-03-2.65865E-14 3.81278E-14
 -1      3225 2.00022E+01 8.35711E-04-2.58607E-05 5.06320E-03 9.99651E-14-1.77652E-13
 -1      3226 2.10135E+01-8.84995E-02 3.81504E-04-1.40920E+00 2.20886E-14-9.70741E-14
 -1      3227 2.08769E+01 1.40722E-01 9.17260E-03-1.34878E+00 4.23662E-14-9.03368E-14
 -1      3228 2.38960E+01-2.21386E+00-1.67157E-02 4.76410E-02-2.96510E-14 1.51375E-13
 -1      3229 2.35482E+01-2.10764E+00 2.56921E-02-3.84990E-01-6.52568E-14 1.00070E-13
 -1      3230 2.28898E+01-1.90080E+00-1.29137E-02-7.94969E-01-8.45222E-14 5.57938E-14
 -1      3231 2.25316E+01-1.58472E+00 2.42485E-02-1.09035E+00-9.57611E-14 1.29293E-14
 -1      3232 2.30726E+01-2.39409E+00-3.03919E-02-1.05451E+00-1.08212E-13 4.13788E-14
 -1      3233 2.51285E+01 4.55625E-03-1.85116E-02 2.01495E+00 1.64178E-13 2.76002E-13
 -1      3234 2.51269E+01-9.68318E-01-5.28744E-02 1.81614E+00 8.18217E-14 2.66519E-13
 -1      3235 2.56571E+01 2.50264E+00-7.50307E-02 1.90654E+00 3.89966E-13 1.60063E-13
 -1      3236 2.58507E+01 1.19948E+00-9.34235E-02 2.24494E+00 3.28279E-13 2.01658E-13
 -1      3237 2.51765E+01 4.23887E+00-1.10324E-01 5.22328E-01 5.55750E-13-9.06289E-14
 -1      3238 2.52820E+01 3.58926E+00-1.66857E-01 1.38747E+00 4.46004E-13 4.79321E-14
 -1      3239 2.45841E+01 2.86108E+00-1.08076E-01-1.68570E+00 4.66502E-13-2.37608E-13
 -1      3240 2.45013E+01 3.61872E+00-1.12440E-02-8.68331E-01 4.86299E-13-1.44693E-13
 -1      3241 2.51360E+01 6.85527E-01-1.10187E-01-2.41018E+00 2.55962E-13-3.06494E-13
 -1      3242 2.50384E+01 1.97633E+00-1.19324E-02-2.19567E+00 3.27009E-13-2.85779E-13
 -1      3243 2.54164E+01-1.75462E+00-2.87389E-02-1.47641E+00-6.58744E-14-3.02326E-13
 -1      3244 2.55843E+01-8.31419E-01-9.62139E-03-1.88355E+00 9.78835E-14-3.15492E-13
 -1      3245 2.32801E+01-2.01735E+00 2.30789E-02 4.33583E-01-1.55883E-13-1.89711E-13
 -1      3246 2.36561E+01-2.17462E+00-1.07543E-02 2.11006E-03-1.40800E-13-2.36944E-13
 -1      3247 2.22922E+01-1.43716E+00 2.19779E-02 1.03788E+00-7.02671E-14-1.77818E-13
 -1      3248 2.26421E+01-1.75094E+00-9.91169E-03 7.70315E-01-1.03797E-13-1.20757E-13
 -1      3249 2.27075E+01-2.20711E+00-2.47262E-02 1.04608E+00-1.36945E-13-2.04348E-13
 -1      3250 2.15387E+01-8.30723E-01 1.54652E-02 1.32187E+00 4.96565E-17-4.09918E-14
 -1      3251 2.18257E+01-1.13323E+00-4.54281E-03 1.18679E+00-2.63819E-14-4.59833E-14
 -1      3252 2.16694E+01-1.47901E+00-2.33840E-02 1.45774E+00-9.21056E-14-8.61553E-14
 -1      3253 2.10213E+01-3.43194E-01 9.23936E-03 1.39126E+00-1.35559E-14 1.20733E-13
 -1      3254 2.12372E+01-5.73070E-01-2.72545E-04 1.34962E+00 1.16931E-14 4.69619E-14
 -1      3255 2.09661E+01-7.87945E-01-1.66376E-02 1.57699E+00-8.42204E-14 1.78061E-14
 -1      3256 2.06873E+01-8.44589E-03 4.69724E-03 1.33492E+00-1.23002E-13 2.76313E-13
 -1      3257 2.08432E+01-1.59624E-01 1.59710E-03 1.35283E+00-5.47513E-14 2.05024E-13
 -1      3258 2.05339E+01-2.65363E-01-1.04928E-02 1.52953E+00-9.99056E-14 1.35940E-13
 -1      3259 2.04773E+01 1.92759E-01 1.81366E-03 1.21192E+00 6.62662E-14 2.24095E-13
 -1      3260 2.05898E+01 1.06022E-01 2.28773E-03 1.26410E+00 2.47541E-14 2.65624E-13
 -1      3261 2.02877E+01 7.83632E-02-5.97339E-03 1.39905E+00-7.63864E-14 1.84058E-13
 -1      3262 2.03449E+01 2.94729E-01 1.46604E-04 1.05886E+00-1.33444E-13 2.07563E-13
 -1      3263 2.04281E+01 2.54154E-01 2.49704E-03 1.12791E+00-1.56921E-14 2.55615E-13
 -1      3264 2.01563E+01 2.76471E-01-3.07579E-03 1.23279E+00 1.80454E-14 3.98918E-13
 -1      3265 2.02590E+01 3.30099E-01-7.38497E-04 8.98157E-01-1.13432E-13 1.41108E-13
 -1      3266 2.03226E+01 3.19639E-01 2.49994E-03 9.72627E-01-1.72812E-13 1.99616E-13
 -1      3267 2.00908E+01 3.70305E-01-1.41117E-03 1.05657E+00-1.18822E-13 2.48758E-13
 -1      3268 2.02004E+01 3.24565E-01-1.13507E-03 7.43286E-01-4.87450E-15 2.14333E-13
 -1      3269 2.02505E+01 3.32068E-01 2.39849E-03 8.15981E-01 1.00841E-14 2.12713E-13
 -1      3270 2.00603E+01 3.95854E-01-5.47918E-04 8.84951E-01-8.43895E-14 3.27137E-13
 -1      3271 2.01578E+01 2.96429E-01-1.24045E-03 6.01899E-01-1.19441E-13 3.12152E-13
 -1      3272 2.01983E+01 3.13441E-01 2.23541E-03 6.68638E-01-1.89049E-14 2.75322E-13
 -1      3273 2.00471E+01 3.80332E-01-1.50533E-04 7.26208E-01-7.40365E-14 3.96172E-13
 -1      3274 2.01253E+01 2.57878E-01-1.18472E-03 4.77747E-01 1.12674E-13 2.03884E-13
 -1      3275 2.01583E+01 2.78872E-01 2.02932E-03 5.36440E-01 4.17617E-14 2.75858E-13
 -1      3276 2.00413E+01 3.42767E-01 8.26085E-07 5.84724E-01-4.11139E-14 4.34215E-13
 -1      3277 2.00994E+01 2.16524E-01-1.05153E-03 3.71984E-01 9.25148E-14 1.88654E-13
 -1      3278 2.01262E+01 2.38118E-01 1.79620E-03 4.21940E-01 1.34521E-13 1.75212E-13
 -1      3279 2.00380E+01 2.95685E-01 2.99323E-05 4.62287E-01 1.10473E-13 3.24976E-13
 -1      3280 2.00783E+01 1.76776E-01-8.90372E-04 2.84126E-01 2.17253E-14 2.17822E-13
 -1      3281 2.01001E+01 1.97062E-01 1.55255E-03 3.25526E-01 1.16380E-13 2.42467E-13
 -1      3282 2.00353E+01 2.46844E-01 9.10802E-06 3.58926E-01 9.85051E-14 3.06023E-13
 -1      3283 2.00610E+01 1.40935E-01-7.28357E-04 2.12736E-01-2.26303E-15 3.41218E-14
 -1      3284 2.00785E+01 1.58960E-01 1.31229E-03 2.46264E-01 1.33040E-15 1.65528E-13
 -1      3285 2.00322E+01 2.00682E-01-2.44205E-05 2.73561E-01 8.67751E-14 2.01779E-13
 -1      3286 2.00470E+01 1.09983E-01-5.78946E-04 1.55892E-01 9.70805E-14-1.28716E-13
 -1      3287 2.00608E+01 1.25385E-01 1.08628E-03 1.82484E-01-4.36476E-14-1.78509E-13
 -1      3288 2.00288E+01 1.59461E-01-5.43421E-05 2.04464E-01 3.11115E-14 7.83562E-14
 -1      3289 2.00356E+01 8.41112E-02-4.48347E-04 1.11490E-01 1.52213E-13-1.82572E-14
 -1      3290 2.00464E+01 9.68778E-02 8.81357E-04 1.32172E-01 1.76772E-13-6.45202E-14
 -1      3291 2.00251E+01 1.24090E-01-7.41746E-05 1.49597E-01 2.39189E-14-1.11527E-13
 -1      3292 2.00265E+01 6.30532E-02-3.39037E-04 7.74462E-02-4.32799E-14 1.05019E-13
 -1      3293 2.00348E+01 7.33717E-02 7.01404E-04 9.32291E-02 2.25302E-14-5.62812E-15
 -1      3294 2.00214E+01 9.46596E-02-8.48882E-05 1.06823E-01 2.68403E-14-9.86127E-14
 -1      3295 2.00194E+01 4.62972E-02-2.50520E-04 5.18286E-02-1.97720E-13 4.04024E-13
 -1      3296 2.00256E+01 5.44569E-02 5.47915E-04 6.36434E-02-4.69061E-14 2.69632E-13
 -1      3297 2.00178E+01 7.07880E-02-8.77686E-05 7.40717E-02-1.52703E-13 9.88770E-14
 -1      3298 2.00139E+01 3.32350E-02-1.80562E-04 3.29285E-02-3.07948E-13 5.18778E-13
 -1      3299 2.00184E+01 3.95589E-02 4.20023E-04 4.15945E-02-3.01751E-13 5.24792E-13
 -1      3300 2.00145E+01 5.18469E-02-8.44442E-05 4.94535E-02-3.24710E-13 4.80860E-13
 -1      3301 2.00097E+01 2.32493E-02-1.26504E-04 1.92832E-02-3.09361E-13 4.93107E-13
 -1      3302 2.00130E+01 2.80562E-02 3.15658E-04 2.54980E-02-3.10215E-13 5.48301E-13
 -1      3303 2.00116E+01 3.71168E-02-7.72400E-05 3.13090E-02-3.00897E-13 6.11981E-13
 -1      3304 2.00065E+01 1.57581E-02-8.57556E-05 9.67354E-03 1.33322E-13 1.79159E-13
 -1      3305 2.00088E+01 1.93440E-02 2.32244E-04 1.40148E-02-4.29797E-14 3.70752E-13
 -1      3306 2.00091E+01 2.58798E-02-6.79160E-05 1.82224E-02-1.17112E-13 3.34571E-13
 -1      3307 2.00042E+01 1.02369E-02-5.59579E-05 3.10978E-03 3.19891E-13-4.63190E-14
 -1      3308 2.00058E+01 1.28659E-02 1.66968E-04 6.04336E-03 2.51800E-13 1.26797E-13
 -1      3309 2.00069E+01 1.74646E-02-5.77911E-05 9.01718E-03 2.61340E-13 7.08810E-14
 -1      3310 2.00026E+01 6.22533E-03-3.50506E-05-1.19025E-03 2.96214E-13-6.96618E-14
 -1      3311 2.00036E+01 8.12754E-03 1.17021E-04 7.00915E-04 2.93222E-13-7.08218E-14
 -1      3312 2.00052E+01 1.12679E-02-4.77654E-05 2.74084E-03 3.29458E-13-4.84202E-14
 -1      3313 2.00014E+01 3.32852E-03-2.03068E-05-3.82663E-03 5.76416E-14 1.61278E-13
 -1      3314 2.00020E+01 4.69968E-03 7.96876E-05-2.70030E-03 2.13560E-13 6.15288E-14
 -1      3315 2.00037E+01 6.76291E-03-3.82469E-05-1.35754E-03 8.43102E-14 2.22778E-13
 -1      3316 2.00006E+01 1.22499E-03-4.55235E-06-5.23716E-03 9.54184E-14 2.03945E-13
 -1      3317 2.00009E+01 2.20208E-03 4.79161E-05-4.68124E-03 9.20644E-14 7.96298E-14
 -1      3318 2.00025E+01 3.50268E-03-2.78473E-05-3.85352E-03 1.97136E-14 2.76331E-13
 -1      3319 2.00003E+01-1.60937E-03 1.62124E-05 5.62136E-03-9.46989E-14 2.15751E-13
 -1      3320 1.87015E+01 2.98682E+00-1.99678E-03-1.45874E-01 6.08113E-14-4.06840E-13
 -1      3321 1.85757E+01 3.06229E+00-6.29257E-03-1.32349E-01 2.43671E-14-4.23017E-13
 -1      3322 2.00035E+01-1.08410E-03-1.75567E-06 3.26706E-03 2.44278E-13-3.01619E-14
 -1      3323 2.00038E+01-1.10398E-03-6.33985E-06 2.59024E-03 2.01091E-13 1.27252E-13
 -1      3324 2.00042E+01-9.17200E-04-3.28556E-06 3.79384E-04 3.67651E-13-3.34584E-14
 -1      3325 2.00042E+01-9.18824E-04-5.45007E-06-3.78952E-04 3.68427E-13 1.03360E-14
 -1      3326 1.85699E+01-3.16274E+00 2.51455E-02-4.54557E+00 2.88894E-13 1.17083E-13
 -1      3327 2.07565E+01-4.05683E+00 7.14407E-03-4.26912E+00 2.70048E-13 2.37657E-15
 -1      3328 2.00026E+01-1.19766E-03-4.60628E-06 4.50409E-03 2.15392E-13 2.11128E-13
 -1      3329 2.00031E+01-1.25895E-03-2.02492E-06 3.94602E-03 2.21145E-13 4.25018E-14
 -1      3330 2.00039E+01 1.09816E-04 1.72560E-05 3.52957E-03 2.30775E-13 3.26320E-14
 -1      3331 2.00040E+01-9.68397E-04-2.24232E-06 1.85777E-03 2.57645E-13 1.27832E-13
 -1      3332 2.00041E+01-9.72914E-04-6.80379E-06 1.13170E-03 3.31443E-13-5.73094E-14
 -1      3333 2.00049E+01 6.33653E-04 2.02725E-05 7.12639E-04 3.18984E-13-7.04546E-14
 -1      3334 2.00046E+01 4.38180E-04 1.96877E-05 2.15393E-03 1.57131E-13 3.38500E-14
 -1      3335 1.29621E+01-3.07096E+00 1.46694E-01 5.88461E+00-3.78947E-13 6.75099E-13
 -1      3336 1.23141E+01-2.03093E+00 1.11232E-01 5.07213E+00-2.68646E-13 5.71584E-13
 -1      3337 2.07815E+01 3.41732E-01 5.56882E-05-1.21559E+00 6.46610E-14-1.17489E-13
 -1      3338 2.07078E+01 5.34814E-01 6.56036E-03-1.07972E+00 9.41520E-14-1.42317E-13
 -1      3339 2.05236E+01 3.24818E-01-7.93601E-03-1.36722E+00 4.60254E-14-1.60239E-13
 -1      3340 1.55396E+01-3.21551E+00 8.98571E-02 5.62819E+00-4.49280E-13 4.72233E-13
 -1      3341 2.11311E+01-4.16923E+00 1.25873E-01-4.49758E+00-3.83232E-13-1.54596E-13
 -1      3342 2.36539E+01-4.58622E+00-3.23736E-02-3.09330E+00-2.66596E-13 3.53684E-14
 -1      3343 2.17602E+01-4.77557E+00-1.07741E-01 4.34270E+00 3.35204E-13-8.37351E-14
 -1      3344 1.89663E+01-3.92723E+00 1.33638E-01 5.26078E+00 3.88967E-13-2.48510E-13
 -1      3345 9.45293E+00 1.69374E-01 9.04911E-02-1.08235E+00-3.62037E-15 4.47406E-13
 -1      3346 1.01833E+01-3.94505E-01 1.21657E-01-2.90696E+00 1.49145E-13 3.25989E-13
 -1      3347 2.67868E+01-1.25932E+00-4.31651E-02 1.51461E+00 1.59185E-13 1.95483E-13
 -1      3348 2.66776E+01 4.51325E-01-8.72977E-02 2.14656E+00 2.97033E-13 2.00864E-13
 -1      3349 2.48417E+01-1.68130E+00 2.41611E-03 1.15565E+00 7.05651E-14 2.47966E-13
 -1      3350 2.45679E+01-2.10999E+00 4.50227E-04 6.76404E-01 4.16895E-14 2.39109E-13
 -1      3351 2.43539E+01-2.66386E+00-4.86504E-02-7.26243E-02-4.87791E-14 1.15208E-13
 -1      3352 2.06708E+01 1.23182E+00 8.71239E-04-2.44449E-01 2.17338E-13-1.73419E-13
 -1      3353 2.04142E+01 1.59709E+00 1.12327E-03-1.57430E-01 2.16388E-13-1.90496E-13
 -1      3354 2.02928E+01 1.47108E+00 2.69867E-03-4.04221E-01 1.95626E-13-2.07808E-13
 -1      3355 2.06733E+01 1.01174E+00-2.07492E-03-5.16109E-01 1.75746E-13-1.67069E-13
 -1      3356 1.07906E+01-4.18243E-01 8.91672E-02 3.17959E+00-1.68674E-13 4.14224E-13
 -1      3357 9.83407E+00 2.44038E-01 9.59414E-02 1.21487E+00-1.31765E-13 5.17059E-13
 -1      3358 2.10500E+01-4.50379E+00-3.73317E-02 4.43271E+00-4.41452E-13-2.69507E-14
 -1      3359 1.87254E+01-3.75747E+00 7.85827E-02 5.02973E+00-4.32460E-13 1.96801E-13
 -1      3360 2.22834E+01-4.03024E+00 5.20833E-02 3.32932E+00-3.08163E-13-1.85677E-13
 -1      3361 2.66139E+01 2.08758E+00-1.84753E-01-2.35550E+00 4.16084E-13-4.32640E-13
 -1      3362 2.69689E+01 8.25251E-01 1.52068E-02-2.39779E+00 2.35159E-13-4.43708E-13
 -1      3363 1.52510E+01-2.41975E+00 1.23242E-01-5.23794E+00-3.37078E-13-3.27349E-13
 -1      3364 1.78285E+01-3.58830E+00-5.30579E-02-5.35016E+00-3.91104E-13-2.36866E-13
 -1      3365 2.02985E+01 1.12239E+00 2.91313E-03 8.68774E-01-1.61843E-13-2.04726E-13
 -1      3366 2.03114E+01 9.31487E-01 6.98334E-04 1.09195E+00-1.42852E-13-2.03581E-13
 -1      3367 1.99685E+01 1.00923E+00-2.56684E-03 1.20796E+00-1.07484E-13-2.22258E-13
 -1      3368 2.00009E+01-1.90719E-03-2.36664E-06-5.37601E-03 1.82397E-13-4.66506E-14
 -1      3369 1.66535E+01-3.49505E+00 9.49533E-04 5.67411E+00 3.60767E-13-3.57943E-13
 -1      3370 1.43536E+01-2.46380E+00 1.15703E-01 5.34979E+00 3.41470E-13-4.70596E-13
 -1      3371 1.88654E+01-3.26031E+00 1.11194E-01 4.80908E+00 3.67161E-13-2.49450E-13
 -1      3372 2.54056E+01-3.52308E+00 2.73709E-02-7.64346E-01-7.25982E-14 1.59355E-13
 -1      3373 2.63178E+01-2.48839E+00-1.05116E-01 7.06443E-01 6.62630E-14 1.75969E-13
 -1      3374 1.16574E+01-1.44893E+00 7.38823E-02 4.57286E+00 2.42924E-13-6.10428E-13
 -1      3375 9.96347E+00-5.65993E-01 1.18675E-01 3.08664E+00 1.19665E-13-6.16340E-13
 -1      3376 2.59877E+01-3.88674E+00 1.69540E-02-8.19830E-01-2.99890E-15-4.09530E-13
 -1      3377 2.69627E+01-3.10745E+00-1.02983E-01 3.87755E-01-1.07834E-13-5.70429E-13
 -1      3378 2.00736E+01 2.28543E+00-1.54417E-04-1.65809E-01-2.34486E-13-2.78005E-13
 -1      3379 2.26351E+01-4.40689E+00 3.78410E-02-3.41635E+00 1.74333E-13-1.23048E-13
 -1      3380 2.46593E+01-4.60278E+00-5.72519E-02-2.24770E+00 1.52219E-13-1.94195E-13
 -1      3381 2.51068E+01-3.80067E+00 2.41940E-03-1.05911E+00 9.74811E-14-4.23477E-13
 -1      3382 2.22238E+01-3.75135E+00 4.99512E-02-3.10026E+00 2.59636E-13-9.65803E-14
 -1      3383 1.38139E+01-1.70592E+00 2.32158E-02 4.65430E+00-2.85320E-13 4.30128E-13
 -1      3384 1.20646E+01-8.72283E-01 1.26955E-01 3.94651E+00-1.92197E-13 4.49502E-13
 -1      3385 1.26921E+01-1.87598E-01 9.05270E-02 2.97851E+00-1.80800E-13 3.62911E-13
 -1      3386 1.85051E+01 3.11988E+00-3.58723E-03-6.17235E-02 1.19067E-14-4.03661E-13
 -1      3387 1.84898E+01 3.12859E+00-4.91888E-03-3.54599E-02-2.02833E-14-3.84338E-13
 -1      3388 1.85264E+01 2.87555E+00 8.20311E-03-1.41475E-01 3.49137E-15-3.87490E-13
 -1      3389 2.64371E+01 4.66855E+00-1.53980E-01-9.13759E-01-5.96523E-13 3.12111E-14
 -1      3390 2.56638E+01 2.69852E+00-6.39631E-02-2.07990E+00 4.15050E-13-4.00763E-13
 -1      3391 2.00031E+01-1.23081E-03 1.28128E-06-3.94810E-03 1.07727E-13-3.50274E-13
 -1      3392 2.00026E+01-1.17815E-03-1.01788E-05-4.49911E-03 1.51655E-13-9.45443E-14
 -1      3393 2.31182E+01-4.13714E+00 3.72622E-02 3.06727E+00 2.89380E-13-1.84089E-14
 -1      3394 1.01777E+01 2.73924E-01 8.18929E-02-1.20443E+00-1.14721E-13-5.37834E-13
 -1      3395 9.74500E+00-1.16060E-01 1.67679E-01-2.29523E+00-1.63397E-13-5.57054E-13
 -1      3396 1.13588E+01-2.94237E-01 7.32982E-02-3.00028E+00-2.14774E-13-4.83572E-13
 -1      3397 1.97924E+01 1.95078E+00 4.61792E-03-3.59536E-01 1.71646E-13-2.66385E-13
 -1      3398 1.96127E+01 2.32324E+00-2.11051E-03-1.61057E-01 1.83252E-13-3.01848E-13
 -1      3399 1.93368E+01 2.52103E+00-6.38527E-03-1.93401E-01 1.41369E-13-3.04682E-13
 -1      3400 2.70097E+01-2.30904E+00 5.03055E-02-9.82732E-01-8.67709E-14 2.54186E-13
 -1      3401 2.41062E+01-3.13879E+00-9.40910E-05 1.11163E+00 1.19092E-13 3.57804E-14
 -1      3402 2.38877E+01-3.91950E+00-9.64650E-02 1.99085E+00 1.87333E-13 1.76838E-14
 -1      3403 2.20150E+01-3.56795E+00 8.57684E-02 3.39231E+00 3.13422E-13-8.51485E-14
 -1      3404 2.33884E+01-2.80531E+00 5.10008E-02 1.61090E+00 1.48566E-13 2.05747E-14
 -1      3405 2.68247E+01-9.65076E-01-1.39340E-01-1.87419E+00-2.85338E-13 2.48579E-13
 -1      3406 2.72169E+01 7.98383E-01-2.13088E-02-2.38286E+00-3.93144E-13 2.50910E-13
 -1      3407 2.00012E+01-1.23859E-03-1.22347E-05 5.41683E-03 5.76634E-14 1.08284E-13
 -1      3408 2.02860E+01 1.52038E+00-2.29749E-04 4.07874E-01-2.10866E-13-2.20558E-13
 -1      3409 2.02992E+01 1.31457E+00-4.25368E-04 6.53615E-01-1.83078E-13-2.08365E-13
 -1      3410 1.99953E+01 1.42589E+00-7.60616E-04 7.69627E-01-1.64396E-13-2.28424E-13
 -1      3411 2.72714E+01 1.69877E+00-4.05984E-02 2.52631E+00-4.15654E-13-3.65971E-13
 -1      3412 2.70386E+01-2.39768E-01-1.56863E-01 2.31298E+00-2.82198E-13-4.18811E-13
 -1      3413 2.63711E+01-2.05590E+00-1.09819E-02 1.33232E+00-1.07096E-13-4.27398E-13
 -1      3414 2.58611E+01-2.79257E+00 2.28331E-02 6.23433E-01 2.27201E-14-5.23463E-13
 -1      3415 1.71257E+01-3.33229E+00 4.71625E-02 5.33491E+00-4.11872E-13 2.99975E-13
 -1      3416 1.60371E+01-2.71678E+00 8.58435E-02 5.17633E+00-3.72744E-13 3.89355E-13
 -1      3417 2.11997E+01-3.37015E-01 1.28775E-02-1.47741E+00 2.67802E-14-7.39345E-14
 -1      3418 2.07627E+01-2.02739E-01-1.24795E-02-1.60000E+00 6.71761E-15-1.81410E-13
 -1      3419 2.14145E+01-6.23369E-01-6.83573E-04-1.44597E+00-2.72060E-14-6.30659E-14
 -1      3420 2.01050E+01 1.99499E+00-9.39392E-04 1.06554E-01-2.24402E-13-2.61212E-13
 -1      3421 1.70388E+01-2.25362E+00 5.94415E-02-4.50761E+00 3.06966E-13 1.64507E-13
 -1      3422 1.88640E+01-2.44475E+00 5.10747E-02-3.93453E+00 3.10554E-13 1.09947E-13
 -1      3423 2.56089E+01-1.72332E+00 1.05633E-02 1.31395E+00 5.33878E-14 2.11909E-13
 -1      3424 2.19723E+01-1.64093E+00-2.15261E-02-1.55659E+00-1.11922E-13-9.50589E-14
 -1      3425 2.20361E+01-1.26462E+00-4.60438E-03-1.26941E+00-7.13644E-14-4.06217E-14
 -1      3426 2.17364E+01-9.27455E-01 1.84442E-02-1.42012E+00-7.63027E-14-5.67878E-14
 -1      3427 2.43388E+01-2.16743E+00 1.01021E-02-5.39175E-01-1.17629E-13-2.48243E-13
 -1      3428 2.46444E+01-1.94248E+00-1.37997E-02-1.05787E+00-7.32027E-14-2.69808E-13
 -1      3429 2.00005E+01 5.79657E-04 1.06594E-05-5.49999E-03 2.04594E-13 1.41783E-13
 -1      3430 2.00020E+01 1.34979E-03-1.85981E-05-5.02059E-03 1.68254E-13 1.53728E-13
 -1      3431 2.00007E+01 2.43543E-06 8.63340E-07-5.59419E-03 2.84628E-13 7.12783E-14
 -1      3432 2.00038E+01-1.08421E-03-2.72204E-06-2.60054E-03 2.80991E-13 2.07755E-13
 -1      3433 2.00035E+01-1.07095E-03-2.16433E-06-3.27993E-03 2.75765E-13-4.25022E-14
 -1      3434 2.00039E+01 1.31726E-04 1.30688E-05-3.55585E-03 2.29659E-13-1.43946E-13
 -1      3435 1.88727E+01 2.85312E+00-6.96415E-03-1.91104E-01 8.22628E-14-3.68727E-13
 -1      3436 1.87874E+01 2.69059E+00 7.01442E-03-2.75689E-01 6.61752E-14-3.50922E-13
 -1      3437 1.90881E+01 2.71534E+00-1.45695E-03-1.81341E-01 1.27197E-13-3.26350E-13
 -1      3438 2.00041E+01-9.60016E-04-3.65789E-06-1.13189E-03 3.97310E-13 6.46194E-14
 -1      3439 2.00040E+01-9.60021E-04-2.84926E-06-1.87320E-03 3.57371E-13 7.36507E-14
 -1      3440 2.00045E+01 4.50805E-04 1.46046E-05-2.18742E-03 3.62185E-13 2.04769E-13
 -1      3441 2.00048E+01 6.37665E-04 1.66887E-05-7.48444E-04 4.36219E-13 2.19877E-14
 -1      3442 1.04869E+01 5.05288E-01 1.15769E-01 1.70181E-01-5.41060E-15 4.99475E-13
 -1      3443 1.14954E+01 5.62766E-01 4.09443E-02-8.34660E-01 8.43249E-14 3.49561E-13
 -1      3444 1.18022E+01 5.67815E-01 1.76548E-02 1.12480E+00-8.31444E-14 3.68691E-13
 -1      3445 2.00019E+01-1.21683E-03 6.80736E-06 5.10570E-03 1.47268E-13 9.45024E-14
 -1      3446 2.06990E+01 6.74663E-01-5.86513E-04-9.15306E-01 1.18283E-13-1.59001E-13
 -1      3447 2.06703E+01 8.63041E-01 5.08060E-03-7.13001E-01 1.45084E-13-1.71923E-13
 -1      3448 2.04744E+01 1.05881E+00-2.47033E-03-6.68707E-01 1.53490E-13-1.91870E-13
 -1      3449 2.04539E+01 7.28127E-01-4.36040E-03-1.04637E+00 9.36821E-14-1.93958E-13
 -1      3450 2.72039E+01-1.54827E+00-1.68170E-02 1.62000E+00-1.51580E-13-4.86534E-13
 -1      3451 2.69103E+01 2.23369E+00-1.65657E-01-2.25863E+00-4.67570E-13 1.01204E-13
 -1      3452 1.91418E+01-3.27146E+00 7.59371E-02 4.52077E+00-3.94226E-13 9.81958E-14
 -1      3453 2.22636E+01-2.97305E+00-6.45743E-02 2.44600E+00 1.98877E-13-7.92023E-14
 -1      3454 2.40375E+01-2.56362E+00 4.09360E-03 1.74412E-01-1.56666E-13-2.26969E-13
 -1      3455 2.65797E+01 2.88664E+00-1.99839E-01 2.31751E+00-4.61339E-13-2.42500E-13
 -1      3456 1.54663E+01-1.72562E+00 6.30436E-02 4.40271E+00-3.05880E-13 3.49849E-13
 -1      3457 1.57351E+01-1.91536E+00 4.63195E-02-4.47220E+00 2.71023E-13 1.26038E-13
 -1      3458 1.60995E+01-1.35675E+00-4.86561E-04-3.92589E+00 2.69763E-13 1.06297E-13
 -1      3459 1.41766E+01-1.42878E+00 1.15365E-01-4.39843E+00 1.83038E-13 2.01672E-13
 -1      3460 2.69422E+01 4.03318E+00-6.89487E-02-1.82374E+00-5.90722E-13 9.63743E-14
 -1      3461 1.92256E+01 2.62217E+00-5.99299E-03 1.72495E-01-1.53629E-13-3.30274E-13
 -1      3462 1.95009E+01 2.42395E+00-3.20280E-03 1.54662E-01-1.73026E-13-3.22193E-13
 -1      3463 2.65908E+01 4.40143E+00-5.64547E-02 1.52042E+00-5.73500E-13-1.18773E-13
 -1      3464 2.55059E+01-2.55378E+00-2.64264E-02-6.74908E-01-9.41625E-14-3.21951E-13
 -1      3465 1.98557E+01-3.41358E+00 5.54087E-02-4.39489E+00-3.74194E-13-1.98936E-13
 -1      3466 2.53246E+01 4.45667E+00-1.49446E-01-6.12156E-01 5.39666E-13-1.86497E-13
 -1      3467 2.00019E+01-1.30265E-03 1.32621E-05-5.10800E-03 3.78451E-13 1.43681E-13
 -1      3468 2.00007E+01-1.04694E-03-1.12692E-05-5.56970E-03 1.47751E-13 8.84125E-14
 -1      3469 2.00006E+01-4.60293E-04-9.55886E-06-5.65352E-03 3.51814E-13 3.50477E-14
 -1      3470 2.00026E+01-2.21251E-04 7.07782E-06-4.79881E-03 1.02943E-13-6.18682E-14
 -1      3471 1.42977E+01-1.76861E+00 9.30446E-02-4.89331E+00-3.00662E-13-3.50255E-13
 -1      3472 1.61245E+01-1.79847E+00 4.55303E-02-4.47813E+00-3.02959E-13-2.48170E-13
 -1      3473 1.34402E+01-1.00620E+00 6.52178E-02-4.14242E+00-2.46671E-13-3.80800E-13
 -1      3474 2.56011E+01-3.06456E+00-1.62268E-02-1.11632E-01-1.10508E-13-2.95725E-13
 -1      3475 2.53755E+01-3.92821E+00-6.47309E-03 1.09416E+00-1.42249E-13-4.07681E-13
 -1      3476 2.40998E+01-3.80399E+00-7.35009E-04 1.65334E+00-1.51948E-13-2.72761E-13
 -1      3477 2.46364E+01-3.02946E+00-1.16901E-02 2.19083E-01-1.21113E-13-2.69686E-13
 -1      3478 1.89831E+01 2.80219E+00-2.76873E-03 1.35423E-01-1.23964E-13-3.45932E-13
 -1      3479 1.91086E+01 2.48103E+00 5.93217E-03 3.09144E-01-1.21698E-13-3.14260E-13
 -1      3480 1.87835E+01 2.93219E+00-5.85013E-03 1.29871E-01-9.05156E-14-3.51002E-13
 -1      3481 1.42835E+01-1.59408E+00 1.05201E-01 4.56627E+00 2.84897E-13-4.47836E-13
 -1      3482 2.43204E+01-4.22447E+00-4.04418E-02-2.17766E+00-1.61281E-13 8.45940E-14
 -1      3483 2.46063E+01-3.04494E+00 1.93569E-02-5.68430E-01-1.00128E-13 1.13104E-13
 -1      3484 2.38667E+01-2.97332E+00 6.29746E-02-1.19469E+00-1.23002E-13 5.56638E-14
 -1      3485 2.30826E+01-3.69041E+00 5.63471E-02-2.64771E+00-2.46897E-13-1.01395E-14
 -1      3486 1.17222E+01 1.81560E-02 8.10823E-02 2.51854E+00 1.20390E-13-4.87090E-13
 -1      3487 9.97135E+00 1.53271E-02 1.44276E-01 2.03315E+00 4.38156E-14-5.75803E-13
 -1      3488 1.02958E+01 3.87196E-01 6.57910E-02 7.67793E-01-2.86871E-14-5.20639E-13
 -1      3489 2.00027E+01-1.21226E-04 1.61591E-05 4.79700E-03 2.28940E-13 7.81931E-14
 -1      3490 1.13265E+01-6.32815E-01 1.35916E-01-3.50643E+00 1.70836E-13 3.10793E-13
 -1      3491 1.28507E+01-1.16674E+00 6.47013E-02-4.11833E+00 1.52277E-13 2.84550E-13
 -1      3492 1.38978E+01-6.91098E-01 2.87487E-02-3.60624E+00 2.08427E-13 1.75797E-13
 -1      3493 1.19277E+01-1.10277E-01 6.83923E-02-2.71872E+00 8.69652E-14 3.41380E-13
 -1      3494 1.60012E+01-1.80601E+00 1.31275E-04 4.54510E+00 2.69569E-13-3.04125E-13
 -1      3495 1.38459E+01-6.89052E-01 6.96788E-02 3.76335E+00 1.97807E-13-4.39912E-13
 -1      3496 2.39931E+01-3.00784E+00 1.12047E-02 7.93404E-01-1.60843E-13-2.60335E-13
 -1      3497 1.95000E+01 3.63310E-01 1.65065E-03 1.93841E+00-5.56273E-14-1.85644E-13
 -1      3498 1.96227E+01 4.36347E-02 1.31946E-02 2.12335E+00-1.25811E-14-1.85017E-13
 -1      3499 1.96434E+01-3.39701E-01 8.20513E-03 2.38730E+00 5.51242E-14-1.74163E-13
 -1      3500 1.99341E+01-7.92034E-01 2.12953E-02 2.54429E+00 1.31465E-13-1.42024E-13
 -1      3501 1.89514E+01 1.17138E-02-9.74340E-03 2.34926E+00 3.56782E-14-1.48228E-13
 -1      3502 2.01527E+01-1.34255E+00 2.01144E-02 2.81923E+00 1.79067E-13-1.32975E-13
 -1      3503 2.07210E+01-1.93551E+00 3.50652E-02 2.89140E+00 2.23138E-13-1.56557E-13
 -1      3504 1.91188E+01-9.37687E-01-1.72077E-02 2.96534E+00 1.40101E-13-1.35768E-13
 -1      3505 1.98764E+01-3.08974E+00-7.46011E-03 3.89578E+00-3.64378E-13 8.24549E-14
 -1      3506 1.85672E+01-2.58833E+00 4.61164E-02 4.17056E+00-3.63532E-13 1.22364E-13
 -1      3507 2.51781E+01-3.55815E+00-4.49861E-02-5.79180E-01 1.00163E-13-4.90457E-13
 -1      3508 2.11339E+01-2.41727E+00 3.09791E-02-2.71329E+00 2.27847E-13-9.00955E-14
 -1      3509 2.04546E+01-1.79955E+00 2.92865E-02-2.73545E+00 2.03101E-13-3.76457E-14
 -1      3510 2.00864E+01-1.23392E+00 2.02148E-02-2.49941E+00 2.06846E-13-1.17671E-14
 -1      3511 1.97025E+01-7.64113E-01 1.10235E-02-2.40502E+00 2.55314E-13 1.51935E-14
 -1      3512 1.92567E+01-1.42338E+00-1.06386E-02-2.99837E+00 2.40274E-13 6.21135E-14
 -1      3513 1.95925E+01-3.81190E-01 1.38906E-02-2.16490E+00 2.23779E-13-5.61151E-14
 -1      3514 1.93989E+01-8.06520E-02 1.71523E-03-2.03867E+00 1.59267E-13-7.78193E-14
 -1      3515 1.88734E+01-4.39581E-01-6.44827E-03-2.44437E+00 2.17773E-13 3.29424E-14
 -1      3516 1.94139E+01 1.55300E-01 8.75539E-03-1.83673E+00 5.52787E-14-9.40062E-14
 -1      3517 1.93336E+01 3.27840E-01-1.90618E-03-1.70919E+00 4.72843E-14-1.15836E-13
 -1      3518 1.88238E+01 1.70034E-01-2.26738E-03-1.97935E+00 6.51772E-14 5.19934E-14
 -1      3519 1.94033E+01 4.56250E-01 5.44698E-03-1.54510E+00 1.44228E-13-1.67348E-13
 -1      3520 1.93835E+01 5.40321E-01-2.97732E-03-1.42587E+00 8.04659E-14-1.39057E-13
 -1      3521 1.89266E+01 5.12666E-01 3.14885E-04-1.61016E+00 6.71715E-14-8.17849E-14
 -1      3522 1.94706E+01 5.96248E-01 3.36146E-03-1.29194E+00-2.57975E-14-1.90390E-13
 -1      3523 1.94793E+01 6.23334E-01-3.16724E-03-1.18333E+00 4.36662E-17-2.01679E-13
 -1      3524 1.90885E+01 6.74880E-01 1.49949E-03-1.31726E+00 2.38161E-14-8.02417E-14
 -1      3525 1.95657E+01 6.33567E-01 2.15537E-03-1.07186E+00 4.78326E-14-3.27879E-13
 -1      3526 1.95850E+01 6.26072E-01-2.99697E-03-9.74294E-01 4.08620E-14-3.88198E-13
 -1      3527 1.92611E+01 7.22429E-01 1.89684E-03-1.07945E+00-6.56398E-14-1.95043E-13
 -1      3528 1.96623E+01 6.09513E-01 1.49298E-03-8.80258E-01-7.78738E-14-4.43013E-13
 -1      3529 1.96830E+01 5.82839E-01-2.68988E-03-7.93822E-01-8.80790E-14-4.49024E-13
 -1      3530 1.94214E+01 7.00308E-01 1.88562E-03-8.81581E-01-3.92504E-14-3.65429E-13
 -1      3531 1.97483E+01 5.52252E-01 1.13550E-03-7.14111E-01-7.23343E-14-5.01657E-13
 -1      3532 1.97665E+01 5.16524E-01-2.33896E-03-6.38755E-01 4.37832E-14-5.24293E-13
 -1      3533 1.95597E+01 6.39368E-01 1.68120E-03-7.14573E-01-9.95806E-14-3.19650E-13
 -1      3534 1.98196E+01 4.80134E-01 9.39135E-04-5.71443E-01 5.83030E-14-7.51104E-13
 -1      3535 1.98339E+01 4.41771E-01-1.98055E-03-5.06921E-01-7.32968E-15-8.51976E-13
 -1      3536 1.96736E+01 5.60070E-01 1.42836E-03-5.73066E-01-1.30477E-13-7.15170E-13
 -1      3537 1.98756E+01 4.04727E-01 8.09121E-04-4.50626E-01 8.98832E-14-7.84343E-13
 -1      3538 1.98860E+01 3.67604E-01-1.64258E-03-3.96354E-01 1.32425E-13-7.18023E-13
 -1      3539 1.97643E+01 4.75478E-01 1.15682E-03-4.53821E-01 4.26700E-14-7.52312E-13
 -1      3540 1.99181E+01 3.32815E-01 7.11235E-04-3.49817E-01 8.61621E-14-6.83961E-13
 -1      3541 1.99250E+01 2.98988E-01-1.33924E-03-3.04976E-01-1.22708E-13-6.24918E-13
 -1      3542 1.98345E+01 3.93705E-01 9.15953E-04-3.54284E-01 1.17801E-13-6.32447E-13
 -1      3543 1.99492E+01 2.67931E-01 6.21714E-04-2.67057E-01-3.03954E-13-5.78660E-13
 -1      3544 1.99535E+01 2.38348E-01-1.07381E-03-2.30651E-01-1.90515E-13-6.25444E-13
 -1      3545 1.98875E+01 3.19078E-01 7.07732E-04-2.72263E-01-1.44276E-13-5.81534E-13
 -1      3546 1.99712E+01 2.11597E-01 5.35792E-04-2.00224E-01-1.12646E-13-6.54359E-13
 -1      3547 1.99736E+01 1.86502E-01-8.47355E-04-1.71174E-01-1.62376E-13-6.19952E-13
 -1      3548 1.99267E+01 2.53651E-01 5.33221E-04-2.05671E-01-1.28431E-13-5.46946E-13
 -1      3549 1.99864E+01 1.64088E-01 4.54425E-04-1.47153E-01-1.89652E-13-4.01237E-13
 -1      3550 1.99874E+01 1.43326E-01-6.56340E-04-1.24373E-01-9.35838E-14-4.99142E-13
 -1      3551 1.99550E+01 1.98003E-01 3.96512E-04-1.52449E-01-3.24372E-14-4.76379E-13
 -1      3552 1.99963E+01 1.24991E-01 3.76939E-04-1.05726E-01-6.32866E-14-4.76865E-13
 -1      3553 1.99965E+01 1.08194E-01-4.99365E-04-8.81590E-02-9.59624E-14-4.71968E-13
 -1      3554 1.99748E+01 1.51830E-01 2.85944E-04-1.10621E-01-3.17877E-14-4.45494E-13
 -1      3555 2.00025E+01 9.34992E-02 3.07544E-04-7.39152E-02-6.09049E-14-4.09606E-13
 -1      3556 2.00021E+01 8.01650E-02-3.73500E-04-6.06021E-02-5.70314E-14-3.63889E-13
 -1      3557 1.99883E+01 1.14373E-01 2.02368E-04-7.82740E-02-3.05296E-14-4.14725E-13
 -1      3558 2.00060E+01 6.86040E-02 2.46091E-04-4.99130E-02-1.95969E-14-2.01290E-13
 -1      3559 2.00052E+01 5.82081E-02-2.74144E-04-4.00072E-02 1.85560E-13 8.92698E-15
 -1      3560 1.99971E+01 8.45571E-02 1.39332E-04-5.36754E-02 2.42992E-14-1.22096E-13
 -1      3561 2.00076E+01 4.92732E-02 1.93021E-04-3.21390E-02 2.42057E-13 2.88732E-14
 -1      3562 2.00067E+01 4.13102E-02-1.96913E-04-2.49144E-02 2.29147E-13 1.07111E-13
 -1      3563 2.00025E+01 6.12466E-02 9.25507E-05-3.53078E-02 2.50927E-13 5.79663E-14
 -1      3564 2.00080E+01 3.45249E-02 1.48495E-04-1.92449E-02 3.30785E-13 2.69695E-14
 -1      3565 2.00071E+01 2.85304E-02-1.37999E-04-1.40942E-02 4.24880E-13 5.28780E-14
 -1      3566 2.00054E+01 4.33406E-02 5.87663E-05-2.18615E-02 3.35452E-13 1.20434E-13
 -1      3567 2.00076E+01 2.34654E-02 1.12049E-04-1.01093E-02 3.85719E-13 6.02820E-14
 -1      3568 2.00068E+01 1.90272E-02-9.40951E-05-6.53595E-03 1.79929E-13 1.19063E-13
 -1      3569 2.00067E+01 2.98217E-02 3.50700E-05-1.22348E-02 3.97498E-13-2.89977E-15
 -1      3570 2.00068E+01 1.53060E-02 8.30426E-05-3.81933E-03-9.11811E-14 1.02855E-13
 -1      3571 2.00060E+01 1.20653E-02-6.15415E-05-1.42751E-03-1.04192E-13 3.31535E-14
 -1      3572 2.00069E+01 1.97840E-02 1.96067E-05-5.52324E-03 4.91738E-14-1.84266E-15
 -1      3573 2.00057E+01 9.34818E-03 5.90602E-05 3.53619E-04 3.37627E-14 1.44062E-13
 -1      3574 2.00050E+01 6.99348E-03-3.96398E-05 1.86224E-03 4.41928E-14-2.98543E-14
 -1      3575 2.00064E+01 1.24174E-02 3.27081E-06-9.91010E-04-9.92092E-14 1.59198E-13
 -1      3576 2.00045E+01 5.03921E-03 4.50861E-05 2.93324E-03-1.36218E-13-1.21790E-13
 -1      3577 2.00039E+01 3.34207E-03-1.53080E-05 3.79752E-03-1.18909E-13-1.63238E-13
 -1      3578 2.00055E+01 7.03744E-03-6.86896E-06 1.90556E-03-4.54138E-14 2.27529E-13
 -1      3579 2.00036E+01 2.20301E-03 3.31094E-05 4.21901E-03 7.46480E-14-2.49463E-14
 -1      3580 2.00030E+01 8.76134E-04-7.41731E-06 4.62164E-03 2.10912E-13 6.23721E-14
 -1      3581 2.00038E+01 9.69187E-04-1.75881E-05 4.05140E-03 1.65918E-13 1.20199E-13
 -1      3582 2.00046E+01 3.53029E-03-1.35022E-05 3.43034E-03 6.33630E-14 2.61248E-13
 -1      3583 1.37367E+01-2.10816E-01-6.74609E-03 3.04643E+00-1.96395E-13 3.24334E-13
 -1      3584 1.29360E+01 3.59737E-01 8.44588E-02 2.26252E+00-1.95297E-13 3.62196E-13
 -1      3585 2.65276E+01-4.23657E-01-4.08011E-03-1.98294E+00 1.28311E-13-4.00742E-13
 -1      3586 2.20260E+01-2.13208E+00 3.19483E-02 1.75991E+00-1.91944E-13-1.55840E-13
 -1      3587 2.25840E+01-2.60621E+00-5.46806E-03 1.53898E+00-1.74931E-13-2.23706E-13
 -1      3588 2.00399E+01-5.06248E-02 3.97669E-03 1.61514E+00-1.09650E-13-3.53979E-14
 -1      3589 2.02101E+01-2.67814E-01 7.25857E-03 1.67851E+00-1.28305E-13 2.65374E-14
 -1      3590 1.98887E+01 2.47277E-01 6.57001E-04 1.40864E+00-8.92008E-14 5.37385E-14
 -1      3591 1.99843E+01 1.19494E-01 5.47304E-03 1.49193E+00-1.38652E-13 3.56398E-14
 -1      3592 1.95909E+01 9.98801E-02-6.95640E-03 1.63342E+00-1.57648E-13-2.45200E-14
 -1      3593 1.98380E+01 4.05235E-01-9.61469E-04 1.20269E+00-5.07743E-14 3.25998E-13
 -1      3594 1.98888E+01 3.41914E-01 4.09352E-03 1.29211E+00-1.90760E-14 1.95254E-13
 -1      3595 1.95505E+01 3.71838E-01-2.94950E-03 1.38052E+00-1.52440E-13 5.30235E-14
 -1      3596 1.98389E+01 4.67731E-01-1.71887E-03 1.00891E+00-7.47919E-14 2.39502E-13
 -1      3597 1.98648E+01 4.47273E-01 3.08329E-03 1.09697E+00-4.30007E-14 3.78215E-13
 -1      3598 1.95823E+01 5.05420E-01-7.23363E-04 1.15377E+00-4.54951E-14 2.60920E-13
 -1      3599 1.98627E+01 4.69786E-01-1.99226E-03 8.32537E-01-1.42888E-13 3.78582E-13
 -1      3600 1.98757E+01 4.75796E-01 2.39629E-03 9.14979E-01-1.42119E-13 2.19890E-13
 -1      3601 1.96450E+01 5.47650E-01 3.78723E-04 9.53733E-01-1.22191E-13 3.15416E-13
 -1      3602 1.98935E+01 4.36747E-01-1.99121E-03 6.75983E-01-1.61131E-13 4.65059E-13
 -1      3603 1.99004E+01 4.57610E-01 1.94446E-03 7.50402E-01-1.31283E-13 4.03110E-13
 -1      3604 1.97156E+01 5.33338E-01 8.22836E-04 7.79008E-01-1.51376E-13 3.78098E-13
 -1      3605 1.99233E+01 3.85990E-01-1.83798E-03 5.40083E-01 7.54337E-14 3.68160E-13
 -1      3606 1.99277E+01 4.13850E-01 1.63693E-03 6.05299E-01-4.38578E-14 4.10289E-13
 -1      3607 1.97825E+01 4.87171E-01 9.34480E-04 6.27997E-01-3.16545E-14 2.23309E-13
 -1      3608 1.99488E+01 3.28864E-01-1.61530E-03 4.24493E-01 1.59133E-13 2.57794E-13
 -1      3609 1.99523E+01 3.58687E-01 1.40319E-03 4.80233E-01 2.29708E-13 3.52573E-13
 -1      3610 1.98402E+01 4.25837E-01 8.74039E-04 4.99189E-01 1.28023E-13 1.64099E-13
 -1      3611 1.99688E+01 2.72249E-01-1.37286E-03 3.28033E-01 1.00262E-13 2.14994E-13
 -1      3612 1.99721E+01 3.01050E-01 1.20804E-03 3.74626E-01 7.27270E-14 2.42952E-13
 -1      3613 1.98872E+01 3.60143E-01 7.39065E-04 3.90863E-01 1.44057E-13 2.14434E-13
 -1      3614 1.99836E+01 2.20002E-01-1.13559E-03 2.49014E-01 1.16410E-13 1.44765E-13
 -1      3615 1.99869E+01 2.46157E-01 1.03260E-03 2.87171E-01 1.34703E-13 2.41285E-13
 -1      3616 1.99239E+01 2.96584E-01 5.91396E-04 3.01149E-01 1.20364E-13 2.31998E-13
 -1      3617 1.99940E+01 1.73999E-01-9.17370E-04 1.85438E-01 4.87192E-14 1.26170E-13
 -1      3618 1.99973E+01 1.96771E-01 8.71513E-04 2.16090E-01 1.16508E-13 1.45302E-13
 -1      3619 1.99516E+01 2.38699E-01 4.48450E-04 2.28046E-01 1.28704E-13 1.46579E-13
 -1      3620 2.00009E+01 1.34882E-01-7.23851E-04 1.35195E-01-4.26080E-14 2.16994E-13
 -1      3621 2.00040E+01 1.54075E-01 7.24833E-04 1.59363E-01-2.03855E-14 8.00289E-14
 -1      3622 1.99717E+01 1.88162E-01 3.28152E-04 1.69458E-01-5.70942E-15 3.27834E-13
 -1      3623 2.00051E+01 1.02554E-01-5.59020E-04 9.61732E-02-1.41561E-15 1.25652E-13
 -1      3624 2.00080E+01 1.18303E-01 5.92427E-04 1.14892E-01 3.04677E-14 1.65214E-13
 -1      3625 1.99858E+01 1.45445E-01 2.30041E-04 1.23295E-01-5.47413E-14 3.08859E-13
 -1      3626 2.00073E+01 7.64603E-02-4.23625E-04 6.63865E-02-3.03476E-13 3.91143E-13
 -1      3627 2.00099E+01 8.90951E-02 4.76241E-04 8.06279E-02-2.11775E-13 1.62395E-13
 -1      3628 1.99953E+01 1.10295E-01 1.52890E-04 8.75172E-02-1.49021E-13 3.49833E-13
 -1      3629 2.00082E+01 5.58297E-02-3.14600E-04 4.40598E-02-4.60512E-13 4.36605E-13
 -1      3630 2.00104E+01 6.57634E-02 3.76291E-04 5.46925E-02-3.93546E-13 4.06662E-13
 -1      3631 2.00013E+01 8.20209E-02 9.63102E-05 6.02504E-02-3.72660E-13 5.55567E-13
 -1      3632 2.00081E+01 3.98353E-02-2.28410E-04 2.76516E-02-2.47684E-13 3.57351E-13
 -1      3633 2.00100E+01 4.74954E-02 2.91781E-04 3.54312E-02-3.54187E-13 4.05601E-13
 -1      3634 2.00048E+01 5.97279E-02 5.54580E-05 3.98457E-02-3.82431E-13 4.20492E-13
 -1      3635 2.00075E+01 2.76670E-02-1.61704E-04 1.58537E-02 8.71860E-14 1.87692E-13
 -1      3636 2.00091E+01 3.34643E-02 2.22011E-04 2.14181E-02-4.43224E-14 3.77250E-13
 -1      3637 2.00066E+01 4.24870E-02 2.70958E-05 2.48734E-02-1.37539E-13 2.78781E-13
 -1      3638 2.00066E+01 1.85751E-02-1.11266E-04 7.58445E-03 2.73192E-13 2.50239E-13
 -1      3639 2.00079E+01 2.28852E-02 1.65623E-04 1.14587E-02 2.30788E-13 2.14553E-13
 -1      3640 2.00071E+01 2.93987E-02 8.41896E-06 1.41254E-02 1.15431E-13 2.35583E-13
 -1      3641 2.00056E+01 1.18896E-02-7.42276E-05 1.97255E-03 2.22648E-13 2.40520E-13
 -1      3642 2.00066E+01 1.50455E-02 1.21093E-04 4.57729E-03 2.98602E-13 2.27899E-13
 -1      3643 2.00069E+01 1.96349E-02-3.28218E-06 6.60647E-03 3.48236E-13 4.02868E-13
 -1      3644 2.00044E+01 7.02979E-03-4.66912E-05-1.66420E-03 9.61154E-14 2.10798E-13
 -1      3645 2.00053E+01 9.31722E-03 8.67878E-05-1.70611E-06 2.20382E-13 1.39202E-13
 -1      3646 2.00061E+01 1.24592E-02-9.96139E-06 1.51794E-03 2.61036E-13 2.98566E-13
 -1      3647 2.00034E+01 3.52211E-03-1.81377E-05-3.83699E-03 1.83751E-13-2.98535E-13
 -1      3648 2.00040E+01 5.15125E-03 5.84243E-05-2.88118E-03 6.61238E-14-6.00485E-14
 -1      3649 2.00051E+01 7.23689E-03-1.38643E-05-1.76316E-03 2.28027E-13-2.85204E-13
 -1      3650 1.98236E+01 2.09945E+00-1.28264E-03 2.45578E-01-1.96012E-13-2.71056E-13
 -1      3651 2.00043E+01 1.38141E-03-1.07694E-05 3.38697E-03 4.50419E-14 9.29465E-15
 -1      3652 2.00048E+01 1.58225E-03-2.11160E-05 2.75722E-03 8.77896E-14 5.39825E-14
 -1      3653 2.00048E+01 2.67053E-03 1.13123E-05 3.22696E-03 4.35418E-14 1.01718E-13
 -1      3654 2.02391E+01 3.66412E-01 3.24514E-03-1.49446E+00 1.71014E-14-1.92002E-13
 -1      3655 2.01584E+01 6.15671E-01 3.59667E-03-1.33883E+00 4.77548E-14-2.01768E-13
 -1      3656 1.96855E+01 1.96884E+00 4.18070E-03 4.46809E-01-1.68913E-13-2.66224E-13
 -1      3657 2.03690E+01-5.38399E-01 9.60657E-03 1.79635E+00-1.15515E-13-3.54190E-15
 -1      3658 2.06539E+01-8.65720E-01 8.36945E-03 1.81229E+00-9.60800E-14-3.63923E-15
 -1      3659 1.97732E+01-3.65118E-01-1.27702E-02 1.90360E+00-1.34906E-13-3.61889E-14
 -1      3660 2.09880E+01-1.24723E+00 1.87653E-02 1.89050E+00-1.82061E-13 6.88286E-14
 -1      3661 2.14240E+01-1.68273E+00 4.93847E-03 1.81117E+00-1.62296E-13-2.28691E-14
 -1      3662 2.10643E+01-2.05802E+00-3.14535E-02 2.29094E+00-2.68579E-13 3.18348E-14
 -1      3663 2.02108E+01-1.07892E+00-2.01758E-02 2.15695E+00-1.45650E-13 7.45641E-14
 -1      3664 1.87961E+01-2.53909E+00 7.82271E-02-4.30174E+00-3.21977E-13-2.14018E-13
 -1      3665 2.10832E+01-3.50983E+00-5.58129E-02-3.68207E+00-3.18219E-13-1.50959E-13
 -1      3666 2.29151E+01-2.60857E+00 7.87064E-03-1.52729E+00-1.61999E-13 2.93515E-15
 -1      3667 2.22853E+01-2.19364E+00 3.20693E-02-1.84353E+00-1.89085E-13-4.02636E-14
 -1      3668 2.26364E+01-3.08039E+00-5.72645E-02-2.15220E+00-2.00187E-13-6.85268E-14
 -1      3669 1.85336E+01 3.10103E+00-4.99473E-03 4.22512E-02-3.50222E-14-3.80095E-13
 -1      3670 1.86314E+01 3.04048E+00-3.59005E-03 6.43102E-02-7.81560E-14-3.61765E-13
 -1      3671 1.86936E+01 2.76856E+00 7.06184E-03 1.89519E-01-7.16809E-14-3.31453E-13
 -1      3672 2.25556E+01-3.40536E+00-2.70165E-02 2.38750E+00-1.69479E-13-2.25365E-13
 -1      3673 2.12873E+01-3.11425E+00 4.57333E-02 3.12627E+00-2.77131E-13-4.63297E-14
 -1      3674 2.09259E+01-2.45339E+00 3.22732E-02 3.14026E+00 2.58233E-13-1.59439E-13
 -1      3675 2.15269E+01-2.95461E+00 6.20061E-02 3.17197E+00 2.64448E-13-1.31157E-13
 -1      3676 1.99582E+01-3.32842E+00-6.59384E-02 4.21873E+00 3.11123E-13-1.82757E-13
 -1      3677 1.95144E+01-2.11082E+00-3.26076E-02 3.60007E+00 2.36429E-13-1.96879E-13
 -1      3678 1.96331E+01 1.31190E+00-1.30295E-03 1.05481E+00-1.08437E-13-2.28591E-13
 -1      3679 1.96193E+01 1.10257E+00 2.90048E-03 1.27493E+00-7.32665E-14-2.29065E-13
 -1      3680 1.84271E+01-2.59646E+00 7.29601E-02 4.47657E+00 2.95469E-13-2.33480E-13
 -1      3681 1.84582E+01-1.86664E+00-2.23300E-03-3.61079E+00 3.21897E-13 1.16707E-13
 -1      3682 1.99766E+01-2.69132E+00-5.95828E-03-3.57801E+00 3.07971E-13 6.06095E-14
 -1      3683 1.95344E+01 8.79384E-01-4.76667E-04 1.49905E+00-7.51864E-14-2.11892E-13
 -1      3684 1.95626E+01 6.40128E-01 7.00106E-03 1.69974E+00-7.52633E-14-2.03917E-13
 -1      3685 1.90271E+01 6.77596E-01-2.74176E-03 1.82078E+00-4.69217E-14-1.56100E-13
 -1      3686 1.67566E+01-1.83197E+00-1.82215E-03 4.20266E+00-2.65876E-13 2.24182E-13
 -1      3687 1.50474E+01-7.18907E-01 5.98619E-02 3.60920E+00-1.62052E-13 2.84928E-13
 -1      3688 1.79134E+01-1.65386E+00 3.40576E-02 3.64125E+00-2.94324E-13 7.90132E-14
 -1      3689 1.84916E+01 2.90347E+00 8.07151E-03 2.70667E-02-2.52639E-14-3.59734E-13
 -1      3690 2.12168E+01-8.59443E-01-1.64352E-02-1.69057E+00-6.30878E-14-1.33141E-13
 -1      3691 1.87949E+01 2.39992E+00-1.68448E-04-4.25446E-01 7.16427E-14-3.34762E-13
 -1      3692 1.85913E+01 2.52084E+00-7.08355E-03-3.65058E-01 3.99567E-14-3.60592E-13
 -1      3693 1.91901E+01 1.17760E+00 4.56753E-04 1.35078E+00-7.48033E-14-2.09844E-13
 -1      3694 1.08955E+01 6.47103E-01 1.26549E-01-1.89744E-01-7.01232E-14-5.10550E-13
 -1      3695 1.17345E+01 5.86834E-01 3.81574E-02-1.09754E+00-1.12848E-13-4.36359E-13
 -1      3696 1.18696E+01 6.92369E-01 3.64540E-02 6.19817E-01 6.32307E-16-4.48343E-13
 -1      3697 1.99351E+01 1.59585E+00 4.27238E-04-5.59674E-01 1.53774E-13-2.46194E-13
 -1      3698 1.96228E+01 1.82294E+00-4.13963E-03-5.60418E-01 1.26778E-13-2.56967E-13
 -1      3699 1.52309E+01-2.42044E-01 4.49619E-02 2.95938E+00-9.54306E-14 3.59589E-13
 -1      3700 2.07351E+01-2.51047E+00 2.28528E-02 2.96612E+00-2.32112E-13 7.96932E-15
 -1      3701 2.00056E+01 3.46239E-03 3.60309E-05 1.97816E-03 7.74185E-14-4.77614E-14
 -1      3702 2.00051E+01 1.89933E-03-1.12989E-05 2.10011E-03 1.13598E-13-8.46701E-15
 -1      3703 2.00053E+01 2.04501E-03-1.84805E-05 1.42955E-03 2.84038E-13-3.25026E-13
 -1      3704 2.15149E+01-3.01384E+00 3.36425E-02-2.93591E+00 2.68346E-13-2.00259E-13
 -1      3705 1.77512E+01-1.70943E+00 5.67043E-02 3.98850E+00 2.20133E-13-2.40960E-13
 -1      3706 2.04735E+01-2.16511E-01 5.93782E-03-1.77558E+00-5.80948E-15-1.77684E-13
 -1      3707 2.03061E+01 9.18500E-02 6.63524E-03-1.67268E+00 1.07882E-14-1.92401E-13
 -1      3708 1.98647E+01 3.45186E-01-8.54669E-03-1.66508E+00 1.16563E-14-1.98117E-13
 -1      3709 1.31076E+01 6.27658E-01 4.95142E-02 1.35991E+00-7.64718E-14 3.08222E-13
 -1      3710 2.17027E+01-1.69936E+00 1.34670E-02-1.87708E+00-1.58720E-13-1.21168E-13
 -1      3711 2.12444E+01-1.25961E+00 1.92162E-02-1.98077E+00-1.37835E-13-1.56529E-13
 -1      3712 2.12609E+01-1.93090E+00-3.22433E-02-2.33537E+00-2.11240E-13-1.51262E-13
 -1      3713 1.84527E+01 2.38550E+00 7.78025E-03-3.89842E-01 3.62989E-14-3.39675E-13
 -1      3714 1.84427E+01 2.63339E+00-1.82691E-03-2.37976E-01 1.42636E-14-3.70097E-13
 -1      3715 1.83536E+01 2.68304E+00-6.22666E-03-1.49573E-01 4.91279E-16-3.78301E-13
 -1      3716 2.00019E+01 8.42342E-05 8.96578E-06-5.29247E-03 2.84567E-13 1.17313E-13
 -1      3717 2.00030E+01 1.56900E-03-7.88654E-06-4.60886E-03 1.52113E-13-2.34775E-13
 -1      3718 2.00032E+01 2.53262E-03 2.86738E-05-4.28399E-03 1.54336E-13-2.17315E-13
 -1      3719 2.00043E+01 3.84106E-03-2.30856E-05-3.47126E-03 1.37286E-13-5.90644E-13
 -1      3720 2.19349E+01-3.16782E+00 6.85199E-03-2.89153E+00-2.39839E-13-1.12860E-13
 -1      3721 1.96665E+01 1.72663E+00-2.97117E-03 6.41612E-01-1.61679E-13-2.41555E-13
 -1      3722 1.96631E+01 1.52330E+00 1.39311E-03 8.58993E-01-1.40135E-13-2.38673E-13
 -1      3723 1.93051E+01 1.61192E+00-2.39493E-05 9.29927E-01-1.03874E-13-2.09631E-13
 -1      3724 1.93476E+01 2.05567E+00 4.62576E-05 5.39964E-01-1.32645E-13-2.64452E-13
 -1      3725 2.00054E+01 2.19426E-03-1.19986E-05 7.75148E-04 3.22463E-13-1.34608E-13
 -1      3726 2.00054E+01 2.25586E-03-1.42141E-05 8.84570E-05 4.55411E-13 9.62254E-16
 -1      3727 2.00060E+01 3.92407E-03 4.04982E-05 7.44636E-04 3.47792E-13-2.21956E-13
 -1      3728 2.00046E+01 1.58701E-03-1.52484E-05-2.97200E-03 3.82271E-13 3.17555E-13
 -1      3729 2.00042E+01 1.39730E-03-8.28093E-06-3.59780E-03 1.96848E-13 4.51968E-14
 -1      3730 1.92325E+01 2.37234E+00 5.78664E-03-3.48505E-01 1.15934E-13-2.98071E-13
 -1      3731 1.30520E+01-3.70931E-01 1.02743E-01-3.48991E+00-2.10540E-13-4.02803E-13
 -1      3732 1.46899E+01-5.73856E-01 2.45217E-02-3.54221E+00-2.25420E-13-3.17212E-13
 -1      3733 1.27566E+01 1.43931E-01 3.36653E-02-2.58044E+00-1.49518E-13-4.17742E-13
 -1      3734 1.27180E+01 7.22201E-01 3.27830E-02-8.14429E-01 9.46934E-14 3.68622E-13
 -1      3735 1.22557E+01 4.79989E-01 1.01578E-01-1.86704E+00 1.03760E-13 2.75377E-13
 -1      3736 1.90495E+01 2.23983E+00-3.48903E-03 4.60909E-01-1.04629E-13-2.81218E-13
 -1      3737 1.90425E+01 2.02187E+00 3.83920E-03 6.43437E-01-9.60319E-14-2.40888E-13
 -1      3738 1.88008E+01 2.41098E+00-2.98106E-03 4.07905E-01-6.35024E-14-2.83814E-13
 -1      3739 2.30258E+01-3.50593E+00-1.23991E-02-2.24477E+00 2.05117E-13-3.08071E-13
 -1      3740 2.00060E+01 3.98740E-03 3.58304E-05-4.62423E-04 5.10982E-13-1.31654E-14
 -1      3741 2.00054E+01 2.19489E-03-1.32249E-05-5.57786E-04 5.54025E-13 1.28950E-14
 -1      3742 2.00053E+01 2.15060E-03-9.43416E-06-1.25316E-03 5.32372E-13 1.81884E-13
 -1      3743 2.01878E+01 8.00137E-01 2.26199E-03-1.15735E+00 8.49479E-14-2.15170E-13
 -1      3744 2.01908E+01 9.71598E-01 2.08157E-03-9.84864E-01 1.07195E-13-2.15017E-13
 -1      3745 1.98588E+01 8.43286E-01-5.95225E-04-1.28820E+00 5.78503E-14-2.39478E-13
 -1      3746 1.30286E+01 1.40081E-01 3.15719E-02-2.45504E+00 1.66115E-13 2.69167E-13
 -1      3747 1.50583E+01-2.59126E-01 4.36397E-02 3.17761E+00 1.44675E-13-3.82173E-13
 -1      3748 1.33353E+01-9.84715E-02 7.92883E-02 3.13345E+00 1.43481E-13-4.70443E-13
 -1      3749 1.30089E+01 3.68619E-01 2.60688E-02 2.17629E+00 7.46070E-14-4.20497E-13
 -1      3750 1.57251E+01-5.90798E-01 5.76864E-02-3.37575E+00 2.76064E-13 1.20189E-13
 -1      3751 1.67436E+01-9.52244E-01 2.14681E-02-3.43104E+00 2.53857E-13 1.77181E-13
 -1      3752 2.00046E+01 2.92254E-03 2.73230E-05-3.46021E-03 1.83392E-13 3.26581E-14
 -1      3753 2.00037E+01 1.25649E-03-8.58643E-06-4.11138E-03 7.91051E-15-4.15408E-13
 -1      3754 1.69537E+01-1.45329E+00 2.43521E-02-3.99829E+00-2.25226E-13-2.18658E-13
 -1      3755 1.78731E+01-2.08996E+00 3.49166E-02-4.31079E+00-2.78517E-13-2.24537E-13
 -1      3756 1.93460E+01-2.11771E+00 3.30100E-02-3.64629E+00-2.57124E-13-2.07048E-13
 -1      3757 1.75689E+01-1.11956E+00 2.50325E-02-3.40723E+00 2.75003E-13 2.05279E-13
 -1      3758 1.86742E+01-1.28979E+00 2.20523E-02-3.13068E+00 2.62261E-13 1.18572E-13
 -1      3759 1.83328E+01-7.53636E-01-1.27066E-02-2.82747E+00 1.99023E-13 1.60455E-13
 -1      3760 1.69549E+01-5.23619E-01-2.04332E-02-2.98556E+00 1.64430E-13 1.54857E-13
 -1      3761 1.88531E+01 1.47153E+00-7.39799E-03 1.12459E+00-8.21795E-14-1.96169E-13
 -1      3762 1.87761E+01 1.26361E+00 4.16214E-03 1.34135E+00-6.59335E-14-1.85523E-13
 -1      3763 2.31229E+01-3.13675E+00-3.59989E-03 1.62685E+00-1.47671E-13-2.45845E-13
 -1      3764 2.02695E+01 1.29050E+00-5.85504E-04-6.13950E-01 1.58004E-13-2.16690E-13
 -1      3765 2.01267E+01 1.19077E+00 1.53755E-03-8.21639E-01 1.23006E-13-2.20630E-13
 -1      3766 1.61765E+01-3.61975E-01-2.72227E-03 2.95137E+00-1.40451E-13 1.02278E-13
 -1      3767 1.51334E+01 2.27437E-01 2.20411E-02 2.42420E+00-8.43830E-14 3.03674E-13
 -1      3768 1.83355E+01 2.70501E+00-3.55552E-03 3.47708E-03-4.68717E-15-3.69676E-13
 -1      3769 1.83809E+01 2.67597E+00-4.14585E-03 9.97533E-02-3.25100E-14-3.37101E-13
 -1      3770 1.82649E+01 2.51494E+00 9.24131E-03-8.73618E-02-3.60183E-15-3.62315E-13
 -1      3771 1.80407E+01-2.81342E-01-2.50986E-03 2.77960E+00 1.15718E-13-1.81609E-13
 -1      3772 1.82467E+01-7.97332E-01 2.74897E-02 3.13859E+00 1.49704E-13-1.89584E-13
 -1      3773 2.41270E+01-3.85651E+00 3.17640E-02-1.80901E+00 2.70776E-13-3.72207E-13
 -1      3774 1.84265E+01-3.19491E-01 1.45498E-02-2.47657E+00 2.22127E-13 1.70424E-13
 -1      3775 1.83169E+01 5.72391E-03-1.45521E-02-2.22169E+00 1.77764E-13 1.40701E-13
 -1      3776 1.78272E+01-2.36794E-01 1.11063E-02-2.58394E+00 2.21495E-13 1.59009E-13
 -1      3777 1.84773E+01 2.66907E-01 8.22712E-03-1.96303E+00 5.33172E-14 1.05874E-13
 -1      3778 1.84837E+01 4.50782E-01-1.19253E-02-1.76354E+00-2.28971E-14 4.44611E-14
 -1      3779 1.80363E+01 3.48226E-01 7.15482E-03-1.98320E+00 7.04271E-14 1.12738E-13
 -1      3780 1.86558E+01 5.91002E-01 4.62951E-03-1.57370E+00 2.31679E-14 8.78804E-14
 -1      3781 1.87163E+01 6.80490E-01-8.36891E-03-1.41886E+00 5.51630E-14 5.67038E-14
 -1      3782 1.83287E+01 6.66516E-01 5.94033E-03-1.55313E+00-8.87073E-15 1.10570E-13
 -1      3783 1.88755E+01 7.40585E-01 2.46636E-03-1.27600E+00-2.40934E-15 4.03713E-14
 -1      3784 1.89545E+01 7.69966E-01-5.82483E-03-1.15312E+00-9.99423E-14-9.42312E-14
 -1      3785 1.86282E+01 8.09238E-01 4.73043E-03-1.23969E+00-1.15948E-14 6.87831E-14
 -1      3786 1.90931E+01 7.79585E-01 1.23406E-03-1.04053E+00-8.53519E-14-1.57736E-13
 -1      3787 1.91728E+01 7.71492E-01-4.13485E-03-9.39757E-01-5.73401E-14-1.89232E-13
 -1      3788 1.89031E+01 8.42986E-01 3.77687E-03-1.00156E+00-1.17611E-13-5.94826E-14
 -1      3789 1.92893E+01 7.50800E-01 5.39754E-04-8.48146E-01-6.38021E-14-2.08372E-13
 -1      3790 1.93611E+01 7.21128E-01-3.00924E-03-7.63610E-01-1.90209E-14-2.45054E-13
 -1      3791 1.91421E+01 8.09372E-01 3.03532E-03-8.12370E-01-7.61873E-14 2.72818E-14
 -1      3792 1.94566E+01 6.84082E-01 1.73638E-04-6.87544E-01-9.38190E-14-3.08142E-13
 -1      3793 1.95173E+01 6.43569E-01-2.26189E-03-6.15777E-01-2.01675E-13-3.23541E-13
 -1      3794 1.93424E+01 7.37528E-01 2.42809E-03-6.57368E-01-1.36592E-13-3.25606E-13
 -1      3795 1.95939E+01 5.99245E-01 1.38212E-05-5.52092E-01-2.45212E-13-3.60106E-13
 -1      3796 1.96431E+01 5.54847E-01-1.73658E-03-4.91237E-01-1.52008E-13-5.45820E-13
 -1      3797 1.95056E+01 6.47326E-01 1.98552E-03-5.27988E-01-2.42769E-13-2.40508E-13
 -1      3798 1.97035E+01 5.09291E-01-6.24848E-05-4.38169E-01 4.04103E-14-6.01009E-13
 -1      3799 1.97420E+01 4.65655E-01-1.35310E-03-3.86932E-01 1.17030E-13-6.01989E-13
 -1      3800 1.96357E+01 5.51525E-01 1.58072E-03-4.19682E-01-3.96938E-14-3.83706E-13
 -1      3801 1.97888E+01 4.22422E-01-6.99318E-05-3.42958E-01 1.68931E-13-5.36380E-13
 -1      3802 1.98181E+01 3.82030E-01-1.06726E-03-3.00305E-01 1.36378E-13-4.66938E-13
 -1      3803 1.97374E+01 4.58828E-01 1.27121E-03-3.29277E-01 1.62541E-13-3.96580E-13
 -1      3804 1.98538E+01 3.43023E-01-5.99574E-05-2.64343E-01-2.71836E-14-4.91963E-13
 -1      3805 1.98756E+01 3.07200E-01-8.38824E-04-2.29349E-01-1.34182E-13-4.14005E-13
 -1      3806 1.98154E+01 3.73770E-01 1.01541E-03-2.54524E-01 1.21231E-14-4.45340E-13
 -1      3807 1.99023E+01 2.73278E-01-4.44635E-05-2.00354E-01-1.65396E-13-4.50536E-13
 -1      3808 1.99181E+01 2.42501E-01-6.57280E-04-1.72070E-01-1.38367E-13-5.68600E-13
 -1      3809 1.98741E+01 2.98726E-01 7.95765E-04-1.93549E-01-1.23658E-13-4.25531E-13
 -1      3810 1.99377E+01 2.13795E-01-2.65252E-05-1.49044E-01 1.26943E-14-5.06813E-13
 -1      3811 1.99489E+01 1.88006E-01-5.08035E-04-1.26569E-01 6.26102E-15-4.09423E-13
 -1      3812 1.99174E+01 2.34500E-01 6.24358E-04-1.44512E-01-4.33843E-15-3.55279E-13
 -1      3813 1.99630E+01 1.64315E-01-1.69860E-05-1.08608E-01 5.17806E-14-4.52218E-13
 -1      3814 1.99706E+01 1.43228E-01-3.86961E-04-9.10370E-02 1.18918E-13-3.56889E-13
 -1      3815 1.99487E+01 1.80827E-01 4.72176E-04-1.05747E-01 3.29525E-14-4.62782E-13
 -1      3816 1.99805E+01 1.24084E-01-6.36180E-06-7.72268E-02-3.34248E-14-2.26705E-13
 -1      3817 1.99855E+01 1.07165E-01-2.91462E-04-6.37110E-02-1.81957E-14-1.58888E-13
 -1      3818 1.99707E+01 1.37040E-01 3.55479E-04-7.55673E-02 6.09132E-14-2.13333E-13
 -1      3819 1.99922E+01 9.19792E-02 2.42266E-07-5.32814E-02 8.48201E-14-1.33539E-13
 -1      3820 1.99953E+01 7.86477E-02-2.15501E-04-4.30661E-02 9.85459E-14 1.43796E-13
 -1      3821 1.99858E+01 1.01972E-01 2.63092E-04-5.24509E-02 8.46814E-14 1.78595E-14
 -1      3822 1.99996E+01 6.68165E-02 3.84091E-06-3.53395E-02 1.89516E-13 2.09130E-13
 -1      3823 2.00013E+01 5.64979E-02-1.55959E-04-2.77620E-02 3.43415E-13 1.11462E-13
 -1      3824 1.99956E+01 7.43859E-02 1.90358E-04-3.50659E-02 2.04863E-13 2.46183E-13
 -1      3825 2.00040E+01 4.74411E-02 5.85320E-06-2.21549E-02 3.09893E-13 5.68183E-14
 -1      3826 2.00048E+01 3.95914E-02-1.10376E-04-1.66482E-02 3.04183E-13 1.04924E-13
 -1      3827 2.00017E+01 5.30689E-02 1.34571E-04-2.22406E-02 2.61413E-13 2.52340E-15
 -1      3828 2.00062E+01 3.27776E-02 6.86962E-06-1.26753E-02 4.82688E-13 2.16878E-13
 -1      3829 2.00064E+01 2.69063E-02-7.61668E-05-8.76718E-03 3.89123E-13 1.57000E-13
 -1      3830 2.00051E+01 3.68784E-02 9.27291E-05-1.29790E-02 4.35059E-13 2.46186E-13
 -1      3831 2.00070E+01 2.18622E-02 7.00197E-06-6.03015E-03 5.49457E-14 1.12367E-13
 -1      3832 2.00068E+01 1.75360E-02-4.97775E-05-3.33908E-03-4.67579E-14 2.14135E-13
 -1      3833 2.00066E+01 2.47814E-02 6.03232E-05-6.45169E-03 1.27518E-13 1.82870E-13
 -1      3834 2.00068E+01 1.38761E-02 1.02194E-05-1.52601E-03-9.94144E-14 2.03598E-13
 -1      3835 2.00063E+01 1.06960E-02-3.43335E-05 2.97525E-04-1.44047E-13 1.68757E-13
 -1      3836 2.00069E+01 1.59066E-02 4.73377E-05-2.01505E-03-1.16509E-13 2.66175E-13
 -1      3837 2.00060E+01 8.00739E-03 5.80547E-06 1.36867E-03 1.47253E-14 1.93271E-13
 -1      3838 2.00054E+01 5.80288E-03-2.17685E-05 2.48705E-03 1.17132E-13 4.56523E-13
 -1      3839 2.00063E+01 9.18006E-03-5.14538E-05 9.08264E-04 6.75180E-14 1.71397E-13
 -1      3840 2.00052E+01 4.02062E-03-1.84209E-07 2.79667E-03-4.79558E-14 3.16745E-13
 -1      3841 2.00052E+01 1.99865E-03-1.38281E-05-1.77403E-03 5.20850E-13 2.95857E-13
 -1      3842 2.00049E+01 1.86064E-03-6.78828E-06-2.44860E-03 3.95605E-13 3.62936E-13
 -1      3843 2.00053E+01 3.33288E-03 3.13502E-05-2.51355E-03 5.04534E-13 4.37011E-13
 -1      3844 2.00058E+01 3.75104E-03 3.20266E-05-1.54244E-03 5.81024E-13 3.95132E-13
 -1      3845 1.92171E+01 5.37115E-01-3.51319E-03 1.28330E+00-1.28469E-13 1.11049E-13
 -1      3846 1.92239E+01 4.57469E-01 5.90342E-03 1.40347E+00-1.93946E-13 6.36791E-14
 -1      3847 1.91412E+01 3.36593E-01-2.99741E-03 1.56270E+00-2.03838E-13 4.68308E-14
 -1      3848 1.92028E+01 1.78762E-01 9.15324E-03 1.69951E+00-2.12847E-13 4.17382E-14
 -1      3849 1.88027E+01 5.13828E-01-1.10540E-03 1.45971E+00-2.13061E-13 9.38334E-14
 -1      3850 1.94561E+01 6.27422E-01-3.18083E-03 8.55991E-01-2.30166E-13 1.78286E-13
 -1      3851 1.94256E+01 6.32989E-01 2.47233E-03 9.46821E-01-1.73454E-13 1.91162E-13
 -1      3852 1.95722E+01 5.89232E-01-2.83585E-03 6.91527E-01-1.57256E-13 2.18502E-13
 -1      3853 1.95402E+01 6.14027E-01 1.66769E-03 7.70136E-01-1.71991E-13 2.23198E-13
 -1      3854 1.93305E+01 6.96689E-01 2.14456E-03 7.62533E-01-2.26795E-13 1.02850E-13
 -1      3855 1.96736E+01 5.26527E-01-2.46854E-03 5.52794E-01 5.11188E-14 5.45329E-14
 -1      3856 1.96446E+01 5.61133E-01 1.21520E-03 6.20193E-01-1.15590E-14 2.32776E-13
 -1      3857 1.94799E+01 6.40437E-01 2.05459E-03 6.10976E-01-8.10590E-14 1.46537E-13
 -1      3858 1.97579E+01 4.53773E-01-2.10212E-03 4.36484E-01 6.29503E-14 1.91489E-13
 -1      3859 1.97337E+01 4.91764E-01 9.46531E-04 4.93611E-01 4.57335E-14 1.17801E-13
 -1      3860 1.96056E+01 5.64658E-01 1.82027E-03 4.85467E-01 2.93972E-14 1.93273E-13
 -1      3861 1.98256E+01 3.80062E-01-1.76747E-03 3.39820E-01 5.40267E-14 3.59817E-13
 -1      3862 1.98064E+01 4.17509E-01 7.81380E-04 3.87594E-01 1.04554E-13 3.36900E-13
 -1      3863 1.97081E+01 4.82284E-01 1.52319E-03 3.81553E-01 2.95798E-14 3.22100E-13
 -1      3864 1.98784E+01 3.10711E-01-1.45886E-03 2.60509E-01 1.23970E-13 2.93152E-13
 -1      3865 1.98639E+01 3.45335E-01 6.66313E-04 2.99821E-01 7.54260E-14 3.77972E-13
 -1      3866 1.97894E+01 4.01379E-01 1.24976E-03 2.95906E-01 8.97881E-14 4.21832E-13
 -1      3867 1.99185E+01 2.48659E-01-1.18283E-03 1.96351E-01 7.21312E-14 3.04333E-13
 -1      3868 1.99080E+01 2.79283E-01 5.67531E-04 2.28202E-01 1.82396E-13 2.57734E-13
 -1      3869 1.98526E+01 3.26583E-01 1.00199E-03 2.26142E-01 1.20763E-13 5.78964E-13
 -1      3870 1.99482E+01 1.95061E-01-9.41699E-04 1.45242E-01-1.06572E-13 4.23006E-13
 -1      3871 1.99408E+01 2.21272E-01 4.84849E-04 1.70610E-01-4.04965E-14 4.22286E-13
 -1      3872 1.99004E+01 2.60321E-01 7.74069E-04 1.69969E-01-3.06833E-14 4.77260E-13
 -1      3873 1.99695E+01 1.50149E-01-7.34384E-04 1.05182E-01-1.59282E-14 4.01401E-13
 -1      3874 1.99646E+01 1.71946E-01 4.08004E-04 1.25059E-01-8.69558E-14 3.66251E-13
 -1      3875 1.99358E+01 2.03531E-01 5.87223E-04 1.25416E-01-6.68200E-14 4.66984E-13
 -1      3876 1.99843E+01 1.13434E-01-5.64535E-04 7.42552E-02-3.48275E-13 4.52672E-13
 -1      3877 1.99812E+01 1.31145E-01 3.39139E-04 8.95806E-02-1.34746E-13 4.06419E-13
 -1      3878 1.99613E+01 1.56199E-01 4.28244E-04 9.05984E-02-1.84164E-13 4.68321E-13
 -1      3879 1.99942E+01 8.40273E-02-4.26455E-04 5.07748E-02-3.33992E-13 4.37767E-13
 -1      3880 1.99925E+01 9.81349E-02 2.78380E-04 6.23832E-02-2.97389E-13 4.33082E-13
 -1      3881 1.99791E+01 1.17677E-01 3.10051E-04 6.37626E-02-3.05906E-13 2.90183E-13
 -1      3882 2.00005E+01 6.09377E-02-3.15516E-04 3.32763E-02-2.53047E-13 2.57241E-13
 -1      3883 1.99997E+01 7.19563E-02 2.23350E-04 4.19077E-02-2.54978E-13 3.66159E-13
 -1      3884 1.99912E+01 8.69180E-02 2.17191E-04 4.34407E-02-2.24420E-13 1.73778E-13
 -1      3885 2.00042E+01 4.31483E-02-2.28390E-04 2.04897E-02-7.60721E-15 8.85565E-14
 -1      3886 2.00040E+01 5.15947E-02 1.76150E-04 2.67792E-02-1.90299E-13 1.72147E-13
 -1      3887 1.99989E+01 6.28373E-02 1.46889E-04 2.83291E-02-7.37585E-14 1.16707E-13
 -1      3888 2.00060E+01 2.96892E-02-1.61279E-04 1.13527E-02 1.30016E-13 8.96243E-14
 -1      3889 2.00062E+01 3.60481E-02 1.36529E-04 1.58307E-02 3.10405E-14-3.64165E-14
 -1      3890 2.00035E+01 4.43326E-02 9.51770E-05 1.73092E-02 2.32122E-14-1.40706E-13
 -1      3891 2.00065E+01 1.96786E-02-1.10796E-04 4.99498E-03 3.33373E-13 2.64460E-13
 -1      3892 2.00070E+01 2.43875E-02 1.03870E-04 8.09534E-03 3.29183E-13 1.37098E-13
 -1      3893 2.00059E+01 3.03657E-02 5.86013E-05 9.45271E-03 2.16656E-13-1.59664E-13
 -1      3894 2.00062E+01 1.23347E-02-7.33280E-05 7.23837E-04 2.71029E-13 2.49274E-13
 -1      3895 2.00069E+01 1.57780E-02 7.78538E-05 2.79005E-03 3.63484E-13 3.59024E-13
 -1      3896 2.00068E+01 1.99919E-02 3.27408E-05 4.00068E-03 2.20446E-13 3.33498E-13
 -1      3897 2.00055E+01 7.02328E-03-3.45781E-05-1.98425E-03 3.78315E-13-2.43630E-14
 -1      3898 2.00061E+01 9.48976E-03 5.75097E-05-7.01311E-04 3.52410E-13 1.59590E-13
 -1      3899 2.00066E+01 1.23767E-02 1.02081E-05 3.55018E-04 4.66120E-13 5.80989E-13
 -1      3900 2.11224E+01-2.51914E+00 3.21955E-02-2.98494E+00-2.58505E-13-1.70381E-13
 -1      3901 1.76060E+01-1.21287E+00 1.63895E-02 3.63636E+00 1.90768E-13-2.21462E-13
 -1      3902 1.93214E+01 2.03980E+00 2.96930E-04-5.31607E-01 1.08632E-13-2.69944E-13
 -1      3903 1.90398E+01 2.22128E+00-6.37429E-03-5.05120E-01 8.81092E-14-2.94284E-13
 -1      3904 1.88804E+01 2.10134E+00 5.59108E-03-6.13851E-01 6.94486E-14-2.95610E-13
 -1      3905 1.94660E+01 1.71157E+00 4.25139E-03-7.34033E-01 1.04340E-13-2.39784E-13
 -1      3906 1.31777E+01 9.51041E-01 2.76952E-02-7.34077E-02 5.58048E-14 3.48683E-13
 -1      3907 1.36292E+01 8.01534E-01 1.98065E-03-1.04494E+00 6.17235E-14 3.47722E-13
 -1      3908 1.44059E+01 5.59500E-01-1.51955E-02 1.85680E+00-1.41172E-14 3.40483E-13
 -1      3909 1.35627E+01 8.91042E-01 2.37773E-02 8.37260E-01 2.92614E-14 2.08281E-13
 -1      3910 1.44491E+01 9.89603E-01 2.60396E-02 5.11131E-01-2.51648E-14 1.70616E-13
 -1      3911 1.38512E+01-1.91793E-02 7.74509E-02-2.86448E+00 2.24792E-13 1.54435E-13
 -1      3912 1.47739E+01-3.87182E-01 1.85353E-02-3.16258E+00 2.75266E-13 6.76993E-14
 -1      3913 1.39453E+01 3.46147E-01 4.22263E-03-2.16618E+00 1.42723E-13 1.05516E-13
 -1      3914 1.98284E+01 1.26027E+00-3.31573E-03-9.37151E-01 1.10761E-13-2.24627E-13
 -1      3915 1.91633E+01-3.94795E-02-8.55206E-04 1.89883E+00-1.66549E-13 8.50736E-14
 -1      3916 1.93242E+01-3.05188E-01 1.47513E-02 2.04680E+00-9.92564E-14 9.04338E-14
 -1      3917 1.86738E+01 2.00083E-01-5.52636E-03 1.82856E+00-1.53718E-13 1.58021E-13
 -1      3918 1.64393E+01-5.07752E-01 2.92141E-02 3.38136E+00 1.47090E-13-2.87360E-13
 -1      3919 1.93323E+01 6.20198E-01-3.45131E-03 1.05089E+00-1.59132E-13 1.17644E-13
 -1      3920 1.93123E+01 5.92788E-01 3.79738E-03 1.15552E+00-1.16427E-13 6.96386E-14
 -1      3921 1.91600E+01 7.14499E-01 1.89731E-03 9.46587E-01-2.34914E-13 8.79142E-15
 -1      3922 1.54007E+01-1.21402E-01-1.10127E-02-2.80298E+00 1.88236E-13 6.01429E-14
 -1      3923 2.00029E+01 1.03991E-03-6.19198E-06-4.65502E-03 1.21469E-13-2.68127E-13
 -1      3924 2.09324E+01-8.94816E-01 8.84279E-03-1.91743E+00-9.30356E-14-1.84006E-13
 -1      3925 2.06455E+01-5.10468E-01 1.27154E-02-1.89052E+00-3.85370E-14-1.87119E-13
 -1      3926 2.00676E+01-2.83291E-01-1.62854E-02-1.99489E+00-2.20879E-14-2.01469E-13
 -1      3927 2.04851E+01-9.89090E-01-2.21972E-02-2.21968E+00-1.04446E-13-2.15538E-13
 -1      3928 1.89751E+01 1.84810E+00-2.74749E-03 7.77826E-01-9.61705E-14-2.21026E-13
 -1      3929 1.89464E+01 1.64665E+00 3.50207E-03 9.70903E-01-8.18237E-14-2.00707E-13
 -1      3930 1.85368E+01 1.71747E+00 1.58029E-04 9.43835E-01-8.46669E-14-1.90491E-13
 -1      3931 1.86916E+01 2.03924E+00 3.29127E-03 6.77332E-01-5.49926E-14-2.18431E-13
 -1      3932 2.00049E+01 4.18291E-03-1.36174E-05-3.07435E-03 2.13638E-13 9.55818E-14
 -1      3933 2.00053E+01 5.57621E-03 3.82904E-05-2.57583E-03 2.52557E-13 1.49433E-14
 -1      3934 2.00060E+01 7.46140E-03-2.30722E-05-1.68316E-03 3.62147E-13 7.54249E-13
 -1      3935 2.00053E+01 4.33936E-03-2.69185E-05-2.67681E-03 3.21860E-13 7.49910E-13
 -1      3936 1.85610E+01 1.03207E+00-7.42986E-03 1.57314E+00-5.70867E-14-1.99178E-13
 -1      3937 1.85072E+01 7.83727E-01 9.90114E-03 1.81499E+00-2.68547E-14-1.89386E-13
 -1      3938 1.82684E+01 1.35568E+00 7.23018E-03 1.33310E+00-6.58056E-14-1.95049E-13
 -1      3939 2.04010E+01-2.03940E+00 1.46402E-02 2.73703E+00-3.10321E-13-2.16628E-14
 -1      3940 1.91673E+01-1.94409E+00-4.66719E-03 3.38069E+00-3.68107E-13 8.78290E-14
 -1      3941 1.76885E+01-1.15220E+00 1.12872E-02 3.32102E+00-3.31072E-13 1.41814E-15
 -1      3942 1.98263E+01-1.45963E+00 1.18286E-02 2.66964E+00-3.18790E-13 6.00858E-14
 -1      3943 1.84674E+01 2.62278E+00-4.01169E-03 2.18697E-01-3.35631E-14-3.22548E-13
 -1      3944 1.86223E+01 2.52279E+00-3.69894E-03 3.03216E-01-4.93428E-14-3.21033E-13
 -1      3945 1.85644E+01 2.31497E+00 1.40868E-03 4.41536E-01-2.29411E-14-2.87073E-13
 -1      3946 1.83411E+01 2.47611E+00 1.09005E-02 2.04261E-01-1.87675E-15-3.25280E-13
 -1      3947 1.82553E+01 4.87590E-01-7.85935E-03 2.10689E+00 1.91007E-14-2.10345E-13
 -1      3948 1.82809E+01 1.44929E-01 1.80572E-02 2.39610E+00 7.19768E-14-1.97900E-13
 -1      3949 1.73227E+01 2.23162E-01 5.42753E-03 2.52816E+00 9.30850E-14-2.24342E-13
 -1      3950 1.78097E+01 8.77359E-01 5.62579E-03 1.83999E+00-7.45638E-15-2.41354E-13
 -1      3951 2.00076E+01-2.14215E+00-1.63258E-02-3.32215E+00-2.34203E-13-1.86299E-13
 -1      3952 2.09937E+01-2.01310E+00 2.34651E-02-2.65601E+00-2.40659E-13-1.36030E-13
 -1      3953 2.04374E+01-1.45113E+00 1.61511E-02-2.60947E+00-1.85607E-13-1.75198E-13
 -1      3954 1.92415E+01-1.63389E+00 4.75639E-03-3.31528E+00-2.10178E-13-1.86917E-13
 -1      3955 1.29818E+01 7.87672E-01 8.29407E-02 1.45151E+00 5.09280E-14-3.83443E-13
 -1      3956 1.31455E+01 9.06190E-01 1.19200E-02 6.06016E-01-1.83499E-14-3.63903E-13
 -1      3957 1.42417E+01 6.15683E-01 1.85894E-02 1.94103E+00 1.04841E-13-3.46020E-13
 -1      3958 1.55328E+01 5.15334E-01 3.46992E-02 1.91503E+00-3.89838E-14 2.49242E-13
 -1      3959 1.83715E+01 2.14116E+00 5.37474E-04-5.63348E-01 4.71481E-14-3.11791E-13
 -1      3960 1.81839E+01 2.23897E+00-7.61777E-03-4.19282E-01 2.28143E-14-3.30805E-13
 -1      3961 2.00059E+01 5.19018E-03-2.09711E-05 1.87733E-03 4.29506E-14 3.52091E-14
 -1      3962 2.00062E+01 5.48710E-03-2.37052E-05 1.32602E-03 1.86195E-13-2.42101E-13
 -1      3963 1.57593E+01 1.23504E-02-4.62292E-03 2.82550E+00 1.16494E-13-3.38035E-13
 -1      3964 1.63115E+01-8.50782E-01 6.16608E-02-3.72478E+00-2.08708E-13-2.55903E-13
 -1      3965 1.77828E+01-1.14014E+00 1.53601E-02-3.50376E+00-1.77707E-13-2.29792E-13
 -1      3966 1.56789E+01-3.42144E-01 9.28534E-03-3.19739E+00-1.71580E-13-2.91744E-13
 -1      3967 1.94817E+01 1.47683E+00 8.95638E-04-9.04866E-01 1.09047E-13-2.24749E-13
 -1      3968 1.91444E+01 1.67808E+00-5.98805E-03-8.69726E-01 8.03644E-14-2.25044E-13
 -1      3969 1.95288E+01 1.24672E+00-2.19643E-04-1.08030E+00 8.23328E-14-2.26847E-13
 -1      3970 1.89776E+01 6.66503E-01 1.02292E-03 1.17390E+00-1.47978E-13 2.14576E-14
 -1      3971 1.28668E+01 6.24060E-01 8.17671E-02-1.79274E+00-1.33268E-13-4.25229E-13
 -1      3972 1.40815E+01 4.32457E-01 3.95643E-03-2.21035E+00-1.46497E-13-3.68063E-13
 -1      3973 1.31380E+01 8.62212E-01 6.81101E-03-9.25425E-01-7.70096E-14-3.81691E-13
 -1      3974 2.00059E+01 5.05242E-03-2.49637E-05-1.78210E-03 5.36427E-13 2.59973E-13
 -1      3975 2.00057E+01 4.80072E-03-9.22353E-06-2.23821E-03 4.94651E-13 5.07861E-13
 -1      3976 2.00061E+01 6.37475E-03 3.24967E-05-1.85831E-03 4.49727E-13 7.10930E-13
 -1      3977 1.43478E+01 9.48765E-01 6.60887E-03-8.41604E-01-2.27955E-14 3.77974E-13
 -1      3978 1.40803E+01 7.64824E-01 4.89091E-02-1.46869E+00 4.53864E-14 2.43357E-13
 -1      3979 1.46124E+01 5.43871E-01 1.31929E-02-1.86688E+00 7.47883E-14 7.09884E-14
 -1      3980 2.00064E+01 6.08567E-03-2.00091E-05-9.78631E-05 3.91558E-13-6.97098E-15
 -1      3981 2.00064E+01 6.00560E-03-1.74544E-05-6.31431E-04 4.43961E-13-2.51931E-14
 -1      3982 1.94897E+01 1.05674E+00 2.75493E-03-1.25579E+00 5.43632E-14-2.10909E-13
 -1      3983 1.93407E+01-6.11855E-01 2.33078E-03 2.27318E+00-8.64464E-14 5.75342E-14
 -1      3984 1.96656E+01-1.00968E+00 2.11888E-02 2.40787E+00-1.58433E-13 5.45321E-14
 -1      3985 1.87803E+01-9.96239E-01-7.36915E-03 2.79218E+00-2.14757E-13 4.09117E-14
 -1      3986 1.86414E+01-2.84915E-01-6.48321E-03 2.26776E+00-8.11478E-14 8.69739E-14
 -1      3987 1.88702E+01 1.84965E+00 2.04827E-03-7.88671E-01 7.41171E-14-2.57883E-13
 -1      3988 1.85856E+01 2.00532E+00-7.30098E-03-6.98294E-01 4.80917E-14-2.90590E-13
 -1      3989 1.83632E+01 1.90879E+00 7.48583E-03-7.50250E-01 3.89447E-14-2.86943E-13
 -1      3990 1.88585E+01 1.62597E+00-3.84619E-04-9.69739E-01 6.85633E-14-2.55669E-13
 -1      3991 1.65887E+01 5.45961E-02 2.42010E-02-2.54638E+00 1.63801E-13 5.52364E-14
 -1      3992 1.72824E+01-1.07762E-01 1.34519E-02-2.54304E+00 1.95782E-13 3.31328E-14
 -1      3993 1.73304E+01 1.99852E-01-2.04199E-02-2.21178E+00 2.22727E-13 1.30000E-14
 -1      3994 1.81981E+01-8.08630E-01 1.58791E-02 2.84724E+00-2.56451E-13-8.39866E-15
 -1      3995 1.69939E+01-5.59587E-01 1.95844E-02 3.01024E+00-2.26736E-13-4.90712E-14
 -1      3996 1.67639E+01-8.94366E-02-9.45940E-03 2.56111E+00-1.69431E-13-1.37859E-13
 -1      3997 1.80220E+01-4.43113E-01-1.89612E-02 2.56216E+00-9.92926E-14 8.74431E-15
 -1      3998 1.94745E+01 4.10016E-01 7.58399E-03-1.76823E+00-2.05651E-14-1.97658E-13
 -1      3999 1.94090E+01 6.98008E-01-1.83856E-03-1.56885E+00-6.07609E-15-2.08256E-13
 -1      4000 1.52549E+01 4.47271E-01 4.01328E-02-2.16846E+00 1.33554E-13 7.19910E-15
 -1      4001 1.59592E+01 1.79473E-01 1.27113E-02-2.39821E+00 1.20220E-13 8.04192E-14
 -1      4002 1.62465E+01 4.60934E-01-1.92583E-02-2.01610E+00 1.07349E-13-1.65990E-14
 -1      4003 1.51500E+01 7.13953E-01-1.52796E-02-1.56977E+00 6.13897E-14 9.20704E-15
 -1      4004 2.00063E+01 5.88748E-03-1.74527E-05 8.64693E-04 1.79380E-13-2.35479E-13
 -1      4005 2.00064E+01 6.01721E-03-2.86667E-05 3.32546E-04 1.94964E-13-1.11867E-13
 -1      4006 2.00068E+01 8.03728E-03 7.13027E-05 8.36082E-04 1.17601E-13-2.65278E-13
 -1      4007 2.00059E+01 6.25787E-03 1.09542E-05 2.04484E-03 1.10778E-13 2.04415E-13
 -1      4008 1.90764E+01 1.11546E+00 3.11082E-03-1.34806E+00 4.12780E-14-1.92971E-13
 -1      4009 2.00069E+01 8.46251E-03 5.70058E-05 8.06726E-05 1.80524E-13-1.68907E-13
 -1      4010 1.87287E+01 1.27591E+00-4.63247E-03-1.27076E+00 2.50115E-14-2.39204E-13
 -1      4011 2.00068E+01 1.02350E-02-5.46962E-05 5.68627E-04 2.15021E-13-2.30241E-13
 -1      4012 2.00069E+01 1.06839E-02-5.11257E-05 2.19145E-04 1.55009E-13-3.01871E-13
 -1      4013 1.76449E+01 4.42866E-01 5.67773E-03-1.91515E+00 1.03368E-13 6.65242E-15
 -1      4014 1.77673E+01 6.10519E-01-1.56918E-02-1.68311E+00-8.73586E-14-7.41009E-15
 -1      4015 1.71718E+01 5.64106E-01 1.28253E-02-1.86119E+00 1.18135E-13-1.27618E-13
 -1      4016 1.80386E+01 7.38333E-01 2.67294E-03-1.47983E+00-7.64331E-14 1.27729E-13
 -1      4017 1.81837E+01 8.15991E-01-1.00430E-02-1.31399E+00 1.62250E-14 1.11338E-14
 -1      4018 1.77047E+01 8.34584E-01 9.31125E-03-1.40724E+00-3.26194E-14 5.82585E-15
 -1      4019 1.84081E+01 8.67330E-01 9.32117E-04-1.17183E+00 1.38748E-14-1.82849E-14
 -1      4020 1.85493E+01 8.89659E-01-6.54164E-03-1.04903E+00-9.92935E-14-4.80753E-14
 -1      4021 1.81649E+01 9.43577E-01 6.43110E-03-1.09705E+00-4.49182E-14-2.14317E-14
 -1      4022 1.87334E+01 8.93271E-01 1.32556E-04-9.42348E-01-1.03819E-13 6.02225E-14
 -1      4023 1.88601E+01 8.79835E-01-4.39027E-03-8.46460E-01-6.97516E-14 5.60012E-15
 -1      4024 1.85505E+01 9.58402E-01 4.74969E-03-8.74682E-01-4.70164E-14 5.37448E-14
 -1      4025 1.90102E+01 8.53883E-01-3.05981E-04-7.62905E-01-1.08342E-13-4.97224E-14
 -1      4026 1.91189E+01 8.19378E-01-2.99796E-03-6.85174E-01-2.25333E-13-1.31618E-13
 -1      4027 1.88703E+01 9.11484E-01 3.60979E-03-7.04725E-01-1.15445E-13-1.20870E-13
 -1      4028 1.92396E+01 7.77298E-01-5.05266E-04-6.17559E-01-1.78207E-13-1.20222E-13
 -1      4029 1.93297E+01 7.32118E-01-2.11278E-03-5.52787E-01-1.20319E-13-2.55777E-13
 -1      4030 1.91319E+01 8.28764E-01 2.82460E-03-5.69583E-01-2.40310E-13-1.72841E-13
 -1      4031 1.94259E+01 6.82555E-01-5.40961E-04-4.96634E-01-1.70645E-13-9.06714E-14
 -1      4032 1.94988E+01 6.33112E-01-1.54814E-03-4.42160E-01-2.68052E-13-8.48196E-15
 -1      4033 1.93426E+01 7.28721E-01 2.29402E-03-4.58340E-01-9.86288E-14 8.22125E-15
 -1      4034 1.95744E+01 5.82222E-01-5.71390E-04-3.95677E-01-1.60496E-13-1.22984E-13
 -1      4035 1.96319E+01 5.33647E-01-1.16465E-03-3.49888E-01 4.24394E-14-2.25236E-13
 -1      4036 1.95103E+01 6.22780E-01 1.75894E-03-3.65800E-01-1.76907E-13 6.51436E-14
 -1      4037 1.96907E+01 4.85170E-01-5.06160E-04-3.11222E-01 1.35815E-13-2.69333E-13
 -1      4038 1.97353E+01 4.39930E-01-9.00350E-04-2.72988E-01 1.24193E-13-3.13145E-13
 -1      4039 1.96418E+01 5.20405E-01 1.40717E-03-2.88471E-01 6.89016E-14-1.27965E-13
 -1      4040 1.97804E+01 3.95904E-01-4.33074E-04-2.41241E-01 5.87808E-14-4.87586E-13
 -1      4041 1.98144E+01 3.55519E-01-6.88659E-04-2.09749E-01-6.35626E-14-4.45052E-13
 -1      4042 1.97436E+01 4.25941E-01 1.13158E-03-2.24232E-01-1.02868E-14-3.72907E-13
 -1      4043 1.98483E+01 3.17011E-01-3.57693E-04-1.84047E-01-1.33237E-13-3.90796E-13
 -1      4044 1.98737E+01 2.82136E-01-5.25943E-04-1.58447E-01-7.68717E-14-3.61966E-13
 -1      4045 1.98211E+01 3.42085E-01 9.01068E-04-1.71621E-01-3.87609E-14-4.01304E-13
 -1      4046 1.98988E+01 2.49320E-01-2.82432E-04-1.37864E-01-2.88165E-14-2.87599E-13
 -1      4047 1.99174E+01 2.19866E-01-4.01689E-04-1.17405E-01-2.13961E-14-3.04883E-13
 -1      4048 1.98790E+01 2.69941E-01 7.22212E-04-1.29019E-01-2.84947E-14-3.00755E-13
 -1      4049 1.99356E+01 1.92617E-01-2.34173E-04-1.01280E-01 1.01363E-13-3.16020E-13
 -1      4050 1.99488E+01 1.68422E-01-3.03345E-04-8.51880E-02 1.22216E-13-2.73155E-13
 -1      4051 1.99215E+01 2.09186E-01 5.38872E-04-9.51516E-02 8.06007E-14-2.73466E-13
 -1      4052 1.99618E+01 1.46275E-01-1.80534E-04-7.26850E-02 7.85735E-14-1.65606E-13
 -1      4053 1.99710E+01 1.26747E-01-2.27773E-04-6.02232E-02 9.96233E-14-3.05290E-14
 -1      4054 1.99520E+01 1.59403E-01 4.09255E-04-6.85995E-02 1.58995E-13-5.68281E-14
 -1      4055 1.99799E+01 1.09074E-01-1.37688E-04-5.07137E-02 8.94951E-14 1.26658E-14
 -1      4056 1.99860E+01 9.35996E-02-1.66667E-04-4.12335E-02 5.52058E-14 1.39516E-13
 -1      4057 1.99733E+01 1.19295E-01 3.06748E-04-4.81115E-02 1.46991E-13 5.14144E-14
 -1      4058 1.99919E+01 7.97492E-02-1.03791E-04-3.41390E-02 1.23713E-13 1.29130E-13
 -1      4059 1.99959E+01 6.77086E-02-1.18953E-04-2.70593E-02 8.10649E-14-4.37042E-14
 -1      4060 1.99878E+01 8.75644E-02 2.24781E-04-3.26036E-02 1.07508E-13-1.02936E-14
 -1      4061 1.99996E+01 5.70449E-02-7.63941E-05-2.18694E-02 3.70056E-13-4.11129E-14
 -1      4062 2.00019E+01 4.78364E-02-8.29778E-05-1.66858E-02 4.40298E-13 3.78533E-14
 -1      4063 1.99971E+01 6.29126E-02 1.61258E-04-2.10833E-02 3.09965E-13-1.31601E-13
 -1      4064 2.00040E+01 3.97660E-02-5.49020E-05-1.29736E-02 4.45337E-13 1.43561E-13
 -1      4065 2.00052E+01 3.28409E-02-5.67567E-05-9.26407E-03 3.71138E-13 1.46714E-13
 -1      4066 2.00027E+01 4.40874E-02 1.12515E-04-1.26973E-02 4.76128E-13 4.96205E-14
 -1      4067 2.00062E+01 2.68480E-02-3.30896E-05-6.68609E-03 1.55123E-13 1.92537E-14
 -1      4068 2.00066E+01 2.17143E-02-3.98228E-05-4.09218E-03-5.53064E-14-7.40309E-17
 -1      4069 2.00057E+01 2.99322E-02 7.09352E-05-6.73294E-03 1.49169E-13-6.51387E-14
 -1      4070 2.00070E+01 1.72825E-02-2.35989E-05-2.34479E-03-1.71921E-13 8.25786E-15
 -1      4071 2.00069E+01 1.36041E-02 3.44619E-05-6.16431E-04-1.49652E-13-1.95694E-13
 -1      4072 2.00068E+01 1.94953E-02 3.97240E-05-2.62167E-03-1.56098E-13-2.66863E-13
 -1      4073 1.95418E+01 5.82885E-01-2.57307E-03 3.98456E-01-1.94367E-14 2.48843E-13
 -1      4074 1.94866E+01 6.28709E-01 3.29166E-04 4.52042E-01-7.21112E-14 1.86661E-13
 -1      4075 2.00062E+01 5.65697E-03-3.09638E-05-9.70803E-04 5.46029E-13 1.75671E-13
 -1      4076 2.00061E+01 5.52603E-03-1.78379E-05-1.41364E-03 6.05877E-13 2.20135E-13
 -1      4077 2.00065E+01 7.30825E-03 2.02146E-05-1.16968E-03 5.20852E-13 2.69392E-13
 -1      4078 2.00068E+01 8.14832E-03 5.91203E-05-5.25477E-04 3.63714E-13-8.61995E-14
 -1      4079 1.84748E+01 7.03886E-01-7.99087E-03 1.26438E+00-1.70727E-13 5.11271E-14
 -1      4080 1.84057E+01 6.21661E-01 5.55099E-03 1.42035E+00-2.05509E-13 6.94867E-14
 -1      4081 1.65142E+01 3.29457E-01 1.85357E-02 2.45866E+00 1.04571E-13-3.09129E-13
 -1      4082 1.53082E+01 5.40693E-01 3.97555E-02 2.30455E+00 7.92595E-14-3.61215E-13
 -1      4083 1.49962E+01 8.22920E-01-1.24345E-02 1.67360E+00 4.93121E-14-3.16554E-13
 -1      4084 1.67294E+01 6.57982E-01-1.72231E-02 2.05823E+00 5.54384E-14-2.88148E-13
 -1      4085 1.80712E+01 2.32336E+00-2.25213E-03-1.95136E-01 9.06748E-15-3.61752E-13
 -1      4086 1.80379E+01 2.33844E+00-6.01772E-03-1.99580E-02-1.11010E-14-3.54570E-13
 -1      4087 1.79913E+01 2.12545E+00 1.01134E-02-3.71452E-01 2.04082E-14-3.27668E-13
 -1      4088 1.93938E+01 6.70820E-01-3.12460E-03 5.04776E-01-1.14757E-13 1.32902E-13
 -1      4089 1.93270E+01 7.12263E-01 5.72558E-04 5.69365E-01-1.44612E-13 1.13286E-13
 -1      4090 1.93537E+01 7.03035E-01 2.95978E-03 4.11260E-01-1.73155E-13 1.33360E-13
 -1      4091 1.92131E+01 7.45970E-01-3.86775E-03 6.35194E-01-2.23311E-13 1.85966E-14
 -1      4092 1.91358E+01 7.75725E-01 1.04345E-03 7.13321E-01-2.57043E-13-2.90836E-14
 -1      4093 1.91555E+01 7.94010E-01 3.61121E-03 5.21841E-01-1.98792E-13-3.39372E-14
 -1      4094 1.96607E+01 4.92924E-01-2.12318E-03 3.11119E-01-8.96865E-14 4.27247E-13
 -1      4095 1.96163E+01 5.38555E-01 1.94687E-04 3.55579E-01-4.83437E-14 3.16218E-13
 -1      4096 1.95134E+01 6.04883E-01 2.34350E-03 3.23197E-01-1.22849E-13 2.45392E-13
 -1      4097 1.97547E+01 4.06914E-01-1.74103E-03 2.39776E-01 7.18541E-14 5.82114E-13
 -1      4098 1.97199E+01 4.49809E-01 1.72635E-04 2.76291E-01-4.62411E-15 3.96658E-13
 -1      4099 1.96412E+01 5.07902E-01 1.94909E-03 2.50896E-01-3.93328E-14 3.76089E-13
 -1      4100 1.98274E+01 3.28969E-01-1.37990E-03 1.82263E-01 1.04723E-13 5.56490E-13
 -1      4101 1.98008E+01 3.67299E-01 1.51794E-04 2.11879E-01 1.62839E-13 5.79344E-13
 -1      4102 1.97415E+01 4.16790E-01 1.53152E-03 1.92540E-01 8.64778E-14 5.58756E-13
 -1      4103 1.98824E+01 2.60799E-01-1.09573E-03 1.36217E-01-2.96069E-14 4.28220E-13
 -1      4104 1.98626E+01 2.94088E-01 1.48954E-04 1.59991E-01 5.63466E-14 4.49164E-13
 -1      4105 1.98186E+01 3.35493E-01 1.25750E-03 1.46002E-01 1.07956E-13 4.82009E-13
 -1      4106 1.99231E+01 2.02896E-01-8.63703E-04 1.00000E-01-4.05555E-14 3.23439E-13
 -1      4107 1.99088E+01 2.30915E-01 1.42377E-04 1.18761E-01-3.34364E-14 3.20385E-13
 -1      4108 1.98767E+01 2.64853E-01 9.61721E-04 1.08616E-01 1.96848E-14 3.74556E-13
 -1      4109 1.99525E+01 1.55079E-01-6.72402E-04 7.17680E-02-2.12751E-13 3.44503E-13
 -1      4110 1.99424E+01 1.78086E-01 1.23353E-04 8.64010E-02-1.21839E-13 3.39848E-13
 -1      4111 1.99195E+01 2.05368E-01 6.87422E-04 7.96199E-02-7.07956E-14 2.74489E-13
 -1      4112 1.99733E+01 1.16296E-01-5.12702E-04 5.01166E-02-2.92516E-13 2.49524E-13
 -1      4113 1.99665E+01 1.34854E-01 1.17828E-04 6.13274E-02-1.87020E-13 3.82166E-13
 -1      4114 1.99505E+01 1.56494E-01 5.21855E-04 5.68858E-02-1.46612E-13 2.25062E-13
 -1      4115 1.99875E+01 8.54962E-02-3.82951E-04 3.38244E-02-1.45098E-13 2.06705E-13
 -1      4116 1.99830E+01 1.00155E-01 1.01897E-04 4.22680E-02-2.85528E-13 2.29588E-13
 -1      4117 1.99723E+01 1.16967E-01 3.78558E-04 3.95750E-02-1.40868E-13 3.75211E-13
 -1      4118 1.99967E+01 6.14987E-02-2.80215E-04 2.17719E-02-1.23558E-14 1.10045E-13
 -1      4119 1.99940E+01 7.28626E-02 8.75221E-05 2.80169E-02-5.01995E-14 1.20478E-13
 -1      4120 1.99871E+01 8.56958E-02 2.66863E-04 2.65860E-02-2.69875E-14 1.10717E-13
 -1      4121 2.00023E+01 4.31343E-02-2.00997E-04 1.30285E-02 1.43547E-13-1.36913E-13
 -1      4122 2.00009E+01 5.17895E-02 7.38995E-05 1.75544E-02 6.71512E-14-2.71024E-14
 -1      4123 1.99967E+01 6.14104E-02 1.82852E-04 1.69989E-02 1.27062E-13-5.16272E-14
 -1      4124 2.00053E+01 2.93274E-02-1.39249E-04 6.83617E-03 5.76948E-14-3.29032E-14
 -1      4125 2.00048E+01 3.58020E-02 6.11991E-05 1.00366E-02 8.38990E-14-1.72978E-13
 -1      4126 2.00025E+01 4.28751E-02 1.20183E-04 1.00603E-02 8.49898E-14-1.65618E-13
 -1      4127 2.00066E+01 1.91029E-02-9.33006E-05 2.56921E-03 1.12756E-13 4.32828E-13
 -1      4128 2.00066E+01 2.38803E-02 4.94683E-05 4.76566E-03-1.07270E-15 2.15842E-13
 -1      4129 2.00056E+01 2.89810E-02 7.83626E-05 5.16511E-03-1.25766E-13 2.92062E-13
 -1      4130 2.00066E+01 1.16658E-02-4.88722E-05-2.25937E-04 3.42132E-13 6.77976E-13
 -1      4131 2.00070E+01 1.51149E-02 4.30331E-05 1.19302E-03 3.59418E-13 5.87970E-13
 -1      4132 2.00068E+01 1.86929E-02 4.43081E-05 1.80304E-03 7.24840E-14 4.60117E-13
 -1      4133 1.79913E+01 1.61877E+00-9.56547E-03 9.89061E-01-9.01695E-14-2.30121E-13
 -1      4134 1.77970E+01 1.42445E+00 2.43585E-03 1.19768E+00-6.88700E-14-2.38779E-13
 -1      4135 1.50777E+01 1.00672E+00-1.88839E-02 7.26475E-01 9.43971E-15 1.58785E-13
 -1      4136 1.48353E+01 1.11824E+00 2.20587E-02-9.77281E-02-2.77276E-14 2.55815E-13
 -1      4137 2.00063E+01 7.94797E-03-8.23108E-06-1.42874E-03 3.77469E-13 7.78968E-13
 -1      4138 2.00066E+01 9.83032E-03 4.03488E-05-7.85091E-04 4.10086E-13 7.47769E-13
 -1      4139 2.00069E+01 1.23439E-02 5.30096E-06-1.06655E-04 3.18819E-13 6.18717E-13
 -1      4140 2.00066E+01 8.45786E-03-6.52053E-06-1.09110E-03 5.31719E-13 6.62912E-13
 -1      4141 2.00070E+01 1.10773E-02-2.74504E-05 1.30474E-04 1.41561E-13-2.95365E-13
 -1      4142 2.00070E+01 1.11427E-02-3.21878E-05-1.27579E-04 1.79544E-13-1.19944E-13
 -1      4143 2.00073E+01 1.40025E-02 8.62565E-05-1.30145E-04 1.38813E-13-2.17703E-13
 -1      4144 1.81941E+01 5.00317E-01-7.08804E-03 1.61448E+00-1.34976E-13 7.11967E-14
 -1      4145 1.81540E+01 3.26788E-01 8.20632E-03 1.82756E+00-8.02952E-14 6.16449E-14
 -1      4146 1.79039E+01 7.21194E-01 5.05913E-03 1.40409E+00-1.26277E-13 8.75602E-14
 -1      4147 1.89978E+01 7.92687E-01-4.93562E-03 7.96078E-01-2.62672E-13 4.25626E-14
 -1      4148 1.89133E+01 8.01688E-01 1.98403E-03 8.92172E-01-2.43926E-13 2.26941E-14
 -1      4149 1.89139E+01 8.63598E-01 4.04027E-03 6.59203E-01-2.67784E-13-7.54754E-14
 -1      4150 1.87493E+01 7.89417E-01-6.24252E-03 9.99721E-01-1.70561E-13 3.65230E-14
 -1      4151 1.86657E+01 7.63029E-01 3.66780E-03 1.12043E+00-9.42672E-14 9.39895E-14
 -1      4152 1.82860E+01 8.61373E-01 4.87058E-03 1.07554E+00-1.54498E-13 6.70048E-14
 -1      4153 1.94754E+01 1.36746E-01 3.97862E-03-1.97607E+00-1.56920E-14-1.84397E-13
 -1      4154 1.89643E+01 4.65944E-01-8.61096E-03-1.88502E+00-2.38307E-14-1.92644E-13
 -1      4155 1.96177E+01-1.86467E-01 4.74804E-03-2.13490E+00-3.22988E-14-1.77745E-13
 -1      4156 1.62013E+01 4.36104E-01-7.37649E-04 2.03429E+00-1.80512E-13 3.25235E-14
 -1      4157 1.56301E+01 8.05563E-01 1.39768E-02 1.48773E+00-4.02583E-14 1.48958E-13
 -1      4158 2.00068E+01 1.10717E-02-2.68329E-05 2.91712E-04 1.65739E-13-2.92401E-13
 -1      4159 2.00072E+01 1.44472E-02 6.60391E-05-5.33922E-04 8.80250E-14-2.13907E-13
 -1      4160 1.79021E+01 2.18433E+00 8.96952E-03 7.47445E-02-1.36993E-14-3.42964E-13
 -1      4161 1.80732E+01 2.31975E+00-6.92849E-03 1.78694E-01 3.38705E-16-3.28660E-13
 -1      4162 1.81563E+01 2.28092E+00-2.00224E-03 3.02944E-01-1.66609E-15-3.33696E-13
 -1      4163 1.86448E+01-1.22274E+00 1.35407E-02-3.29301E+00-1.79197E-13-1.85282E-13
 -1      4164 1.93865E+01-1.17398E+00 1.71057E-02-2.93486E+00-1.71328E-13-1.74320E-13
 -1      4165 1.78954E+01-7.11767E-01-8.59394E-03-3.09005E+00-1.53678E-13-2.07972E-13
 -1      4166 1.84901E+01 2.15178E+00-1.80879E-04 5.59814E-01-2.34872E-14-2.65307E-13
 -1      4167 1.68712E+01 2.43842E-01 8.05880E-03 2.12998E+00-1.44197E-13-5.78962E-14
 -1      4168 1.58636E+01 9.89357E-01 1.35961E-02 9.17540E-01-6.39788E-15 1.19164E-13
 -1      4169 1.77836E+01 1.92407E+00-6.55566E-04-5.73114E-01 3.10483E-14-2.86826E-13
 -1      4170 1.76301E+01 1.99699E+00-7.91307E-03-3.26678E-01 7.74662E-16-3.06569E-13
 -1      4171 1.53141E+01 2.40119E-01 5.37338E-02-2.70122E+00-1.51828E-13-3.22067E-13
 -1      4172 1.66008E+01-1.08038E-01 9.93530E-03-2.84945E+00-1.52162E-13-2.76492E-13
 -1      4173 1.50926E+01 5.89107E-01-4.09841E-03-2.04641E+00-1.26959E-13-3.42417E-13
 -1      4174 1.72356E+01 1.52228E+00 8.24458E-03 1.01807E+00-7.43380E-14-2.53763E-13
 -1      4175 1.74024E+01 1.21389E+00-1.45352E-02 1.40465E+00-4.50152E-14-2.57667E-13
 -1      4176 1.71727E+01 9.96456E-01 1.04863E-02 1.67065E+00-3.57261E-15-2.88568E-13
 -1      4177 1.81302E+01 1.89710E+00 3.45706E-03 6.91290E-01-4.32300E-14-2.75155E-13
 -1      4178 1.77334E+01 1.92296E+00-4.69900E-03 5.51644E-01-4.55622E-14-2.93686E-13
 -1      4179 2.00069E+01 1.08246E-02-4.46225E-05-1.45525E-04 1.21897E-13-1.64600E-13
 -1      4180 2.00069E+01 1.05766E-02-5.34818E-06-3.66605E-04 2.02318E-13-1.78574E-13
 -1      4181 2.00071E+01 1.39925E-02 2.19842E-05-7.11282E-05 1.23688E-13-7.28569E-14
 -1      4182 1.36408E+01 1.13863E+00 6.05564E-02-1.17493E-01-2.82777E-14-3.22731E-13
 -1      4183 1.43172E+01 1.06509E+00-8.91037E-03-7.24349E-01-7.05130E-14-3.18258E-13
 -1      4184 1.43649E+01 1.11983E+00 4.61396E-03 6.00625E-01 7.28801E-15-3.00027E-13
 -1      4185 1.84844E+01 5.82426E-01 1.54742E-02-1.89533E+00-3.51991E-14-2.58840E-13
 -1      4186 1.84622E+01 8.43559E-01 2.25696E-03-1.69225E+00 8.69096E-16-2.57501E-13
 -1      4187 1.46723E+01 1.03059E+00-4.19325E-03-6.07322E-01 2.42358E-14 2.75565E-13
 -1      4188 1.49886E+01 9.58633E-01 8.04841E-03-1.04706E+00 8.25012E-14 7.70174E-14
 -1      4189 1.54978E+01 8.47383E-01 8.13151E-03-1.33718E+00 1.42916E-13-6.83724E-14
 -1      4190 1.54388E+01 1.11691E+00 1.76997E-02-3.18700E-01 6.28560E-14 1.64350E-13
 -1      4191 1.67509E+01 6.50324E-01 4.02334E-03-1.72371E+00 1.31283E-13-2.73848E-15
 -1      4192 1.70152E+01 7.93993E-01-1.85601E-02-1.48127E+00 3.74825E-14-1.03339E-13
 -1      4193 1.62529E+01 7.84162E-01 1.50985E-02-1.57806E+00 1.00746E-13-7.81705E-14
 -1      4194 1.86253E+01 8.95317E-01 4.73303E-03 8.37459E-01-1.68426E-13 1.38257E-13
 -1      4195 1.80598E+01 1.14361E-01-9.95461E-03 2.04762E+00-8.41952E-14-6.73777E-16
 -1      4196 1.80844E+01-1.14895E-01 1.53236E-02 2.28232E+00-9.63910E-14 2.16196E-14
 -1      4197 1.74887E+01 2.68809E-02 1.26366E-02 2.33026E+00-1.01499E-13-6.97430E-14
 -1      4198 1.75739E+01 4.31241E-01-1.08438E-02 1.83004E+00-1.22286E-13 3.67690E-14
 -1      4199 1.97681E+01-1.16047E+00-1.13359E-02-2.73765E+00-1.46444E-13-1.70538E-13
 -1      4200 2.02507E+01-1.02618E+00 8.59619E-03-2.39711E+00-1.46199E-13-1.53080E-13
 -1      4201 1.99833E+01-6.18465E-01 1.66643E-02-2.29622E+00-8.88441E-14-1.55763E-13
 -1      4202 1.92326E+01-7.22288E-01 1.89456E-02-2.70654E+00-1.18201E-13-1.59767E-13
 -1      4203 1.82608E+01 1.69380E+00 5.50578E-03-9.54444E-01 4.48302E-14-2.85547E-13
 -1      4204 1.79939E+01 1.79108E+00-1.29702E-02-8.08457E-01 3.87951E-14-3.04678E-13
 -1      4205 1.76911E+01 1.72671E+00 8.88492E-03-7.88508E-01 2.83748E-14-2.80508E-13
 -1      4206 1.84128E+01 1.19161E+00 3.47421E-03-1.37023E+00 1.63931E-14-2.52116E-13
 -1      4207 1.78763E+01 1.25043E+00-1.51698E-02-1.36107E+00 1.00759E-14-2.79480E-13
 -1      4208 1.81164E+01 9.65244E-01-1.16314E-02 8.17046E-01-2.08405E-13 1.08146E-13
 -1      4209 1.79440E+01 9.51051E-01 6.77167E-04 9.38154E-01-2.11426E-13 6.64615E-14
 -1      4210 1.74045E+01 8.98154E-01 1.57681E-03-1.28341E+00-3.51563E-15-6.79446E-14
 -1      4211 1.76469E+01 9.55681E-01-1.10815E-02-1.12030E+00-8.19159E-14 2.67885E-14
 -1      4212 1.70688E+01 1.01432E+00 1.82336E-02-1.15403E+00 5.72376E-14-6.23763E-15
 -1      4213 1.79437E+01 9.92972E-01-1.11528E-04-9.95899E-01-1.17066E-13 1.51553E-14
 -1      4214 1.81494E+01 1.00561E+00-7.28365E-03-8.82415E-01-5.11739E-14-6.22429E-14
 -1      4215 1.77124E+01 1.07615E+00 1.24226E-02-8.83335E-01-1.04569E-13 3.69125E-14
 -1      4216 1.83831E+01 1.00183E+00-3.88741E-04-7.90297E-01 1.93906E-14-1.16535E-14
 -1      4217 1.85556E+01 9.81588E-01-4.91058E-03-7.05417E-01 3.45821E-14 6.20729E-14
 -1      4218 1.82092E+01 1.06919E+00 8.02782E-03-6.95399E-01 2.86506E-14 2.80735E-14
 -1      4219 1.87413E+01 9.50317E-01-7.00928E-04-6.35946E-01-1.23789E-13-1.26777E-13
 -1      4220 1.88844E+01 9.10436E-01-3.30964E-03-5.69391E-01-2.31854E-13-1.85046E-13
 -1      4221 1.86101E+01 1.00808E+00 5.94426E-03-5.56940E-01-1.60277E-13-3.22758E-14
 -1      4222 1.90318E+01 8.63844E-01-7.60334E-04-5.14631E-01-2.08295E-13-7.69413E-14
 -1      4223 1.91482E+01 8.14162E-01-2.24287E-03-4.60501E-01-5.75987E-14-3.52549E-14
 -1      4224 1.89311E+01 9.14647E-01 4.56083E-03-4.50756E-01-1.29585E-13-4.48650E-14
 -1      4225 1.92648E+01 7.60756E-01-6.21760E-04-4.14996E-01-5.86066E-14-1.33613E-13
 -1      4226 1.93584E+01 7.06271E-01-1.63172E-03-3.69533E-01-1.40640E-13-1.04206E-13
 -1      4227 1.91869E+01 8.05726E-01 3.55824E-03-3.64161E-01-1.17594E-13-1.05543E-13
 -1      4228 1.94500E+01 6.51143E-01-7.00992E-04-3.32341E-01-1.74942E-13-5.44454E-14
 -1      4229 1.95238E+01 5.97976E-01-1.25435E-03-2.94148E-01-2.31621E-14 3.58279E-14
 -1      4230 1.93897E+01 6.91058E-01 2.70285E-03-2.92302E-01-1.06513E-13-1.78697E-13
 -1      4231 1.95956E+01 5.45232E-01-5.95256E-04-2.62846E-01 3.51068E-14-9.56980E-15
 -1      4232 1.96531E+01 4.95379E-01-9.89279E-04-2.30757E-01 4.13487E-14-1.43597E-13
 -1      4233 1.95490E+01 5.80433E-01 2.16102E-03-2.32124E-01-1.22292E-14-8.48544E-15
 -1      4234 1.97086E+01 4.47087E-01-4.99154E-04-2.04947E-01-8.89088E-14-2.16088E-13
 -1      4235 1.97529E+01 4.02281E-01-7.50458E-04-1.78375E-01-6.10698E-14-3.07665E-13
 -1      4236 1.96732E+01 4.77392E-01 1.71050E-03-1.81502E-01-1.34601E-13-1.62588E-13
 -1      4237 1.97951E+01 3.59717E-01-4.04659E-04-1.57450E-01-8.32850E-15-3.30383E-13
 -1      4238 1.98284E+01 3.20893E-01-5.50607E-04-1.35763E-01 6.91329E-15-2.60697E-13
 -1      4239 1.97686E+01 3.85262E-01 1.37153E-03-1.40013E-01-6.12136E-14-2.06582E-13
 -1      4240 1.98600E+01 2.84470E-01-2.91943E-04-1.18794E-01 2.90039E-14-3.03502E-13
 -1      4241 1.98847E+01 2.51350E-01-4.22358E-04-1.01284E-01 1.80921E-14-2.14806E-13
 -1      4242 1.98405E+01 3.05466E-01 1.04370E-03-1.06040E-01 8.22369E-15-2.75563E-13
 -1      4243 1.99079E+01 2.20858E-01-2.59861E-04-8.80079E-02 7.99133E-14-1.15083E-13
 -1      4244 1.99258E+01 1.93594E-01-3.26695E-04-7.41389E-02 1.87914E-13-6.37902E-14
 -1      4245 1.98938E+01 2.37929E-01 7.75271E-04-7.88377E-02 1.14027E-13-1.83453E-13
 -1      4246 1.99425E+01 1.68654E-01-1.98920E-04-6.37153E-02 1.86425E-13-9.72115E-14
 -1      4247 1.99551E+01 1.46510E-01-2.49811E-04-5.28855E-02 1.75044E-13-4.65019E-14
 -1      4248 1.99325E+01 1.82351E-01 5.87758E-04-5.73730E-02 2.04455E-13-6.44476E-14
 -1      4249 1.99669E+01 1.26479E-01-1.51625E-04-4.49165E-02 2.37059E-13-1.52582E-13
 -1      4250 1.99756E+01 1.08836E-01-1.82346E-04-3.66205E-02 1.16313E-13-8.15253E-14
 -1      4251 1.99601E+01 1.37243E-01 4.39553E-04-4.06264E-02 2.08041E-13-2.62986E-13
 -1      4252 1.99836E+01 9.30439E-02-1.14422E-04-3.06440E-02 5.25099E-14 9.38658E-14
 -1      4253 1.99894E+01 7.92482E-02-1.29805E-04-2.44036E-02 1.23476E-13-3.78323E-15
 -1      4254 1.99791E+01 1.01339E-01 3.17741E-04-2.78839E-02 1.19562E-13-3.97006E-14
 -1      4255 1.99945E+01 6.70196E-02-8.40318E-05-2.00016E-02 2.63877E-13-6.01590E-14
 -1      4256 1.99981E+01 5.64167E-02-9.05574E-05-1.53950E-02 4.71917E-13-3.31883E-14
 -1      4257 1.99917E+01 7.32999E-02 2.24481E-04-1.83506E-02 2.54028E-13 2.51585E-14
 -1      4258 2.00013E+01 4.71093E-02-5.95834E-05-1.22225E-02 4.22959E-13-1.80000E-13
 -1      4259 2.00033E+01 3.90919E-02-6.13951E-05-8.89254E-03 2.91214E-13-3.03306E-13
 -1      4260 1.99997E+01 5.17741E-02 1.53772E-04-1.13519E-02 3.95243E-13-2.90215E-13
 -1      4261 2.00050E+01 3.21564E-02-3.36471E-05-6.67978E-03 1.77264E-13-4.39058E-13
 -1      4262 2.00060E+01 2.61767E-02-5.93298E-05-4.29957E-03-4.13838E-14-4.65635E-13
 -1      4263 2.00042E+01 3.55077E-02 9.27375E-05-6.35512E-03 1.23340E-13-6.16390E-13
 -1      4264 2.00067E+01 2.20879E-02 1.12731E-05-2.94000E-03-1.31593E-13-3.54983E-13
 -1      4265 2.00069E+01 1.74851E-02-5.99097E-05-1.32508E-03-1.19128E-13-3.29890E-13
 -1      4266 2.00070E+01 1.67703E-02-2.42396E-06-7.86181E-04 2.93802E-14-2.95507E-13
 -1      4267 2.00063E+01 2.43865E-02 2.69858E-05-2.90843E-03-6.43868E-16-7.62393E-13
 -1      4268 1.96252E+01 5.00783E-01-2.21936E-03 1.81879E-01 3.90112E-14 2.46675E-13
 -1      4269 1.95694E+01 5.51254E-01-6.06342E-04 2.10483E-01-1.59954E-14 2.37494E-13
 -1      4270 2.00065E+01 1.05814E-02-1.26846E-05 5.04950E-04 9.42506E-14-3.82409E-14
 -1      4271 2.00067E+01 8.93443E-03-1.84813E-05-7.50432E-04 4.79079E-13 2.43510E-13
 -1      4272 1.93190E+01 7.05251E-01-3.75512E-03 3.05014E-01-2.25023E-13 1.40494E-13
 -1      4273 1.92334E+01 7.58625E-01-4.03703E-04 3.48312E-01-2.06784E-13 1.22158E-13
 -1      4274 1.69375E+01 4.77291E-01-6.71225E-05 1.85356E+00-1.44309E-13-2.51611E-14
 -1      4275 1.91102E+01 8.07774E-01-3.15457E-03 3.84977E-01-2.25877E-13 6.73622E-14
 -1      4276 1.89991E+01 8.55233E-01-8.98919E-04 4.38787E-01-2.47620E-13 5.44955E-14
 -1      4277 1.91184E+01 8.27552E-01 6.85486E-03 2.71826E-01-2.95817E-13 1.31857E-14
 -1      4278 1.97304E+01 4.08429E-01-1.69077E-03 1.38566E-01 1.45961E-13 3.47630E-13
 -1      4279 1.96870E+01 4.54175E-01-4.67704E-04 1.61824E-01 7.34386E-14 3.58764E-13
 -1      4280 1.96333E+01 5.06745E-01 4.49421E-03 1.24318E-01 7.29216E-14 7.39731E-14
 -1      4281 1.98119E+01 3.27023E-01-9.78138E-04 1.03718E-01 5.82699E-15 2.94593E-13
 -1      4282 1.97779E+01 3.66518E-01-4.21432E-04 1.22526E-01 8.72263E-14 3.79888E-13
 -1      4283 1.97360E+01 4.10200E-01 2.81527E-03 9.47929E-02 5.09277E-14 9.74684E-14
 -1      4284 1.98712E+01 2.56498E-01-1.13634E-03 7.76277E-02-2.09045E-15 3.47566E-13
 -1      4285 1.98472E+01 2.90635E-01-1.47226E-04 9.25219E-02 9.13065E-14 3.94971E-13
 -1      4286 1.98186E+01 3.23915E-01 2.05577E-03 7.06262E-02 1.73915E-14 1.61880E-13
 -1      4287 1.99159E+01 1.98332E-01-7.90492E-04 5.59360E-02-1.30295E-13 3.88180E-13
 -1      4288 1.98982E+01 2.26535E-01-1.19993E-04 6.77376E-02-8.24872E-14 3.36365E-13
 -1      4289 1.98750E+01 2.55882E-01 1.53138E-03 5.14997E-02-1.26050E-14 4.57451E-13
 -1      4290 1.99483E+01 1.50250E-01-6.01043E-04 3.96144E-02-1.35877E-13 3.01759E-13
 -1      4291 1.99356E+01 1.73217E-01-1.31718E-04 4.87257E-02-1.60417E-13 2.40160E-13
 -1      4292 1.99201E+01 1.96991E-01 1.47862E-03 3.73032E-02-1.30257E-13 4.49848E-13
 -1      4293 1.99710E+01 1.11747E-01-4.44387E-04 2.72805E-02-6.74521E-14 1.54063E-13
 -1      4294 1.99622E+01 1.30068E-01-8.20635E-05 3.42243E-02-8.24180E-14 2.02932E-13
 -1      4295 1.99516E+01 1.48774E-01 1.12009E-03 2.64248E-02-6.06767E-14-6.38220E-15
 -1      4296 1.99864E+01 8.14502E-02-3.22217E-04 1.80730E-02 5.24331E-14-9.50743E-14
 -1      4297 1.99806E+01 9.57930E-02-4.66361E-05 2.32911E-02 1.29061E-15 8.73948E-14
 -1      4298 1.99735E+01 1.10243E-01 8.07869E-04 1.81495E-02 9.78692E-14-1.99061E-13
 -1      4299 1.99963E+01 5.80308E-02-2.28316E-04 1.13214E-02 2.39150E-13 3.94798E-15
 -1      4300 1.99927E+01 6.90609E-02-2.26467E-05 1.51761E-02 1.58388E-13 1.37963E-13
 -1      4301 1.99882E+01 8.00231E-02 5.63971E-04 1.19762E-02-1.73154E-14-3.01061E-14
 -1      4302 2.00023E+01 4.02358E-02-1.56534E-04 6.46801E-03-1.69340E-14 8.90598E-14
 -1      4303 2.00003E+01 4.85781E-02-6.66045E-06 9.26033E-03 1.11454E-13-6.77395E-15
 -1      4304 1.99976E+01 5.67380E-02 3.77119E-04 7.46367E-03 1.47930E-14 2.14887E-13
 -1      4305 2.00056E+01 2.69597E-02-7.63410E-05 3.06030E-03-1.49821E-13 1.95035E-13
 -1      4306 2.00046E+01 3.31339E-02 2.40647E-06 5.03701E-03-1.08035E-13 1.43517E-13
 -1      4307 2.00031E+01 3.90532E-02 2.11946E-04 4.24587E-03-1.15858E-13 2.10519E-13
 -1      4308 2.00068E+01 1.71914E-02-4.86624E-05 7.98388E-04 2.18793E-13 9.86608E-15
 -1      4309 2.00066E+01 2.16749E-02-3.92632E-06 2.13269E-03 3.81568E-14 3.18807E-14
 -1      4310 2.00060E+01 2.57387E-02 8.63204E-05 1.93220E-03 5.95430E-14-4.90003E-14
 -1      4311 1.83922E+01 1.99905E+00-1.87797E-03 6.91808E-01-4.00918E-14-2.65250E-13
 -1      4312 2.00068E+01 1.73230E-02-4.93670E-05-4.52780E-04 1.24803E-13-4.11789E-13
 -1      4313 2.00069E+01 1.78106E-02-3.82916E-06-2.80810E-04 1.68063E-13-2.09027E-13
 -1      4314 2.00068E+01 2.10626E-02 9.09344E-05-1.17789E-03 1.07912E-13-5.93431E-13
 -1      4315 1.76054E+01 2.00547E+00 2.17070E-03 2.63279E-01-4.27468E-14-3.17718E-13
 -1      4316 1.74090E+01 1.77604E+00-7.07420E-04 5.79156E-01-6.28661E-14-2.85524E-13
 -1      4317 1.75510E+01 2.01406E+00-4.09385E-03 5.78047E-02-2.90092E-14-3.32108E-13
 -1      4318 1.83663E+01 2.28568E-01 5.70462E-03-2.24245E+00-6.78160E-14-2.26836E-13
 -1      4319 1.77892E+01 6.19707E-01 3.85934E-03-2.02342E+00-7.83004E-14-2.52921E-13
 -1      4320 1.94898E+01 6.01802E-01-2.78006E-03 2.35985E-01-1.13752E-13 2.21890E-13
 -1      4321 1.94200E+01 6.55094E-01-4.77000E-04 2.71192E-01-1.26449E-13 1.80356E-13
 -1      4322 1.93225E+01 7.24181E-01 5.51055E-03 2.08635E-01-1.84556E-13 3.83249E-14
 -1      4323 1.94986E+01 6.12718E-01 5.66301E-03 1.61608E-01-5.67416E-14-8.09072E-14
 -1      4324 1.76211E+01 9.08727E-01-1.58170E-02 1.07937E+00-8.93338E-14 7.48939E-14
 -1      4325 1.74076E+01 8.18877E-01-8.29975E-03 1.26714E+00-9.09977E-14 9.15703E-14
 -1      4326 1.75558E+01 1.09059E+00 2.09962E-02 7.82833E-01-1.20217E-13-4.59246E-14
 -1      4327 1.88420E+01 8.94514E-01-5.90668E-03 4.93444E-01-1.72916E-13 1.50181E-14
 -1      4328 1.87132E+01 9.32513E-01-5.59370E-04 5.60773E-01-1.82377E-13 1.01607E-13
 -1      4329 1.88379E+01 9.43597E-01 9.69389E-03 3.52108E-01-2.17751E-13 1.36912E-13
 -1      4330 1.74402E+01 1.13473E+00-8.51578E-03-1.46535E+00-3.14445E-14-2.69074E-13
 -1      4331 1.75243E+01 1.47492E+00 1.11018E-02-1.09026E+00 1.23223E-14-2.57042E-13
 -1      4332 1.72064E+01 1.56741E+00-1.45067E-02-8.66745E-01-1.13438E-14-2.56613E-13
 -1      4333 1.73498E+01 1.87288E+00 1.36860E-02-1.37182E-01-1.88140E-14-2.86656E-13
 -1      4334 1.92540E+01-2.73924E-01-1.74661E-02-2.32162E+00-5.87987E-14-1.51400E-13
 -1      4335 1.85165E+01 9.53539E-01-8.26878E-03 6.31795E-01-2.14341E-13 1.27087E-13
 -1      4336 1.83658E+01 9.71705E-01-1.38007E-04 7.19724E-01-1.47236E-13 2.00277E-13
 -1      4337 1.85097E+01 1.03573E+00 1.59250E-02 4.53809E-01-1.77164E-13 2.03386E-13
 -1      4338 1.64324E+01 9.06349E-01-1.55364E-02 1.16140E+00-1.22654E-13 1.51892E-14
 -1      4339 1.60493E+01 1.16466E+00 5.96464E-03 4.48045E-01 2.75000E-14 6.60492E-14
 -1      4340 2.00066E+01 2.11307E-02 1.24545E-05 1.60938E-04 2.33086E-13-1.91116E-13
 -1      4341 2.00069E+01 1.71400E-02-5.02612E-05 3.68622E-04 2.66370E-13-6.35679E-14
 -1      4342 1.69927E+01 1.60153E+00-8.05180E-03 7.22574E-01-5.27441E-14-2.78483E-13
 -1      4343 1.74201E+01-1.73721E-01 1.40243E-02-2.82011E+00-1.29091E-13-2.37090E-13
 -1      4344 1.81750E+01-2.74106E-01-7.26534E-03-2.65542E+00-1.30040E-13-2.08879E-13
 -1      4345 1.50255E+01 1.07149E+00 4.99398E-02-1.37481E+00-1.01649E-13-3.28047E-13
 -1      4346 1.59387E+01 7.78452E-01 4.44023E-03-1.81889E+00-1.09094E-13-3.25976E-13
 -1      4347 1.51812E+01 1.22783E+00-4.95635E-03-6.71868E-01-4.78107E-14-2.73562E-13
 -1      4348 1.64197E+01 1.07225E+00 1.17753E-02 1.58912E+00 1.11982E-14-3.00454E-13
 -1      4349 1.58559E+01 1.08754E+00 1.24415E-02 1.35696E+00 4.71585E-15-2.88581E-13
 -1      4350 1.50055E+01 1.18598E+00 3.15774E-02 1.02634E+00 3.83049E-15-2.76525E-13
 -1      4351 1.52016E+01 1.30716E+00-1.21885E-02 4.10666E-01-2.51249E-14-2.63066E-13
 -1      4352 1.62564E+01 1.34537E+00-7.95088E-03 1.00500E+00-2.67885E-14-2.54594E-13
 -1      4353 1.80935E+01 1.09256E+00 2.09452E-02 5.92286E-01-2.59587E-13 1.57807E-13
 -1      4354 1.68944E+01 3.07955E-01-1.06027E-02-2.38506E+00-1.24300E-13-2.59895E-13
 -1      4355 1.70681E+01 6.74376E-01 1.00875E-02 1.60489E+00-1.70303E-13 5.69785E-14
 -1      4356 1.86622E+01-2.49454E-01 2.10728E-03-2.48936E+00-9.21203E-14-2.03573E-13
 -1      4357 2.00070E+01 1.19760E-02-5.61118E-06-2.94110E-04 1.79110E-13 2.31953E-14
 -1      4358 1.59566E+01 9.69031E-01-1.43463E-02-1.09405E+00 1.77291E-13-7.00655E-15
 -1      4359 1.65685E+01 1.17207E+00-1.45286E-03 2.41744E-01 1.50270E-16 7.16111E-14
 -1      4360 1.60298E+01 1.16802E+00-1.38925E-02-2.56973E-02 2.87605E-14 5.94895E-14
 -1      4361 1.72970E+01 8.38147E-01 3.68495E-03-1.77616E+00-8.95954E-14-2.68282E-13
 -1      4362 1.59789E+01 1.15369E+00 1.00200E-02-5.15155E-01 1.18308E-13 8.25290E-14
 -1      4363 1.68980E+01 1.73510E+00-1.49820E-03-3.17237E-01-9.47815E-15-2.63011E-13
 -1      4364 1.68100E+01 1.73630E+00-2.33209E-03 1.14436E-01-4.20571E-14-2.86834E-13
 -1      4365 1.65405E+01 1.51505E+00 6.56691E-03 5.82108E-01-3.58730E-14-2.60089E-13
 -1      4366 1.66628E+01 1.50855E+00 4.40473E-03-6.54417E-01-1.27992E-14-2.62276E-13
 -1      4367 1.71218E+01 8.73695E-01 3.41972E-03 1.18717E+00-1.53925E-13 6.54826E-15
 -1      4368 1.73294E+01 1.11686E+00-1.08973E-02-6.58872E-01-7.19322E-14 5.55678E-15
 -1      4369 1.76253E+01 1.12423E+00-1.27595E-02-5.69459E-01-8.49486E-14 6.74952E-14
 -1      4370 1.79372E+01 1.11528E+00-4.83713E-03-5.13570E-01-2.63580E-14-3.12422E-14
 -1      4371 1.81648E+01 1.08916E+00-8.00119E-03-4.52242E-01-3.83254E-14-4.55307E-14
 -1      4372 1.76919E+01 1.22307E+00 2.48590E-02-2.94743E-01-1.50762E-13 6.33458E-14
 -1      4373 1.84015E+01 1.05484E+00-3.98766E-03-4.13842E-01-1.70472E-13-4.31750E-14
 -1      4374 1.85840E+01 1.01088E+00-5.58026E-03-3.67362E-01-2.31373E-13-8.91114E-14
 -1      4375 1.82215E+01 1.14695E+00 1.97180E-02-2.44820E-01-1.35166E-13-1.73995E-13
 -1      4376 1.87682E+01 9.61401E-01-3.37153E-03-3.35982E-01-1.61372E-13-7.45346E-14
 -1      4377 1.89156E+01 9.06971E-01-3.99497E-03-2.98476E-01-1.18933E-13-9.14585E-14
 -1      4378 1.86253E+01 1.04452E+00 1.38547E-02-2.05117E-01-1.83789E-13-1.27868E-13
 -1      4379 1.90621E+01 8.53401E-01-1.30295E-03-2.76754E-01-2.17831E-13-1.84198E-13
 -1      4380 1.91777E+01 7.94812E-01-2.14322E-03-2.42775E-01-2.30471E-13-2.50781E-13
 -1      4381 1.89473E+01 9.10731E-01 4.23687E-03-1.65661E-01-2.36632E-13-2.70683E-13
 -1      4382 1.92912E+01 7.34634E-01-1.80150E-03-2.24490E-01-2.21205E-14-1.82800E-13
 -1      4383 1.93816E+01 6.77071E-01-2.60695E-03-1.96885E-01 1.31897E-13-1.12687E-14
 -1      4384 1.92001E+01 7.89649E-01 2.54752E-03-1.42292E-01-1.74326E-14-1.55264E-13
 -1      4385 1.94729E+01 6.20754E-01-1.29378E-03-1.78933E-01-2.75585E-14 4.57580E-14
 -1      4386 1.95439E+01 5.65472E-01-2.05605E-03-1.55626E-01-5.80356E-14 1.40660E-14
 -1      4387 1.94027E+01 6.80288E-01 6.09323E-03-1.13373E-01 4.49611E-14-3.70518E-14
 -1      4388 1.96148E+01 5.13067E-01-1.06893E-03-1.41312E-01-1.23240E-13-3.66249E-14
 -1      4389 1.96699E+01 4.62887E-01-1.57956E-03-1.21665E-01-1.86994E-13-5.60137E-14
 -1      4390 1.95622E+01 5.65482E-01 5.25962E-03-9.13766E-02-9.74176E-14-1.38797E-13
 -1      4391 1.97243E+01 4.15695E-01-9.22649E-04-1.09507E-01-1.43874E-13-7.36941E-14
 -1      4392 1.97669E+01 3.71736E-01-1.12048E-03-9.33109E-02-1.01239E-13-1.96574E-13
 -1      4393 1.96833E+01 4.61042E-01 3.85184E-03-7.23076E-02-1.85363E-13-6.53307E-14
 -1      4394 1.98080E+01 3.31775E-01-3.76989E-04-8.44286E-02-1.36741E-13-1.05591E-13
 -1      4395 1.98395E+01 2.94092E-01-6.96603E-04-7.04398E-02-8.62728E-15-1.77999E-13
 -1      4396 1.97766E+01 3.64326E-01 1.22954E-03-5.46293E-02-1.50431E-13-1.60084E-14
 -1      4397 1.98700E+01 2.59256E-01-4.14966E-04-6.34465E-02 7.82140E-14-3.02227E-13
 -1      4398 1.98927E+01 2.28029E-01-7.71256E-04-5.25359E-02 1.67563E-13-3.10108E-13
 -1      4399 1.98462E+01 2.86223E-01 5.62917E-04-4.27468E-02-1.18539E-13-6.62297E-14
 -1      4400 1.99156E+01 1.99730E-01-2.80187E-04-4.63440E-02 2.63657E-13-2.56338E-13
 -1      4401 1.99320E+01 1.73987E-01-5.79561E-04-3.77800E-02 2.13269E-13-2.46580E-13
 -1      4402 1.98988E+01 2.24803E-01 1.60522E-03-3.11524E-02 2.59692E-13-2.97408E-13
 -1      4403 1.99483E+01 1.50974E-01-2.17993E-04-3.31832E-02 1.81684E-13-1.02053E-13
 -1      4404 1.99599E+01 1.30315E-01-4.34335E-04-2.65487E-02 2.39195E-13-1.36082E-13
 -1      4405 1.99369E+01 1.71011E-01 1.32281E-03-2.26355E-02 2.92646E-13-1.90910E-13
 -1      4406 1.99713E+01 1.12042E-01-1.47059E-04-2.30871E-02 1.73393E-13-4.31687E-14
 -1      4407 1.99791E+01 9.57683E-02-3.17231E-04-1.80273E-02 1.08847E-13 6.30085E-14
 -1      4408 1.99635E+01 1.27702E-01 9.74062E-04-1.59762E-02 2.56770E-13-2.07284E-14
 -1      4409 1.99868E+01 8.14979E-02-9.59164E-05-1.54666E-02 6.55790E-14-4.53875E-14
 -1      4410 1.99918E+01 6.89022E-02-2.26736E-04-1.16740E-02 2.49103E-13-8.33788E-14
 -1      4411 1.99817E+01 9.35104E-02 6.91065E-04-1.08646E-02 3.88646E-14 7.35955E-14
 -1      4412 1.99967E+01 5.79499E-02-5.95350E-05-9.82249E-03 3.10031E-13-4.28048E-13
 -1      4413 1.99998E+01 4.83688E-02-1.53460E-04-7.03575E-03 2.26271E-13-6.16774E-13
 -1      4414 1.99936E+01 6.69927E-02 4.73961E-04-7.03825E-03 2.43515E-15-4.33809E-13
 -1      4415 2.00027E+01 4.00772E-02-3.55120E-05-5.70099E-03 1.81069E-13-7.54369E-13
 -1      4416 2.00043E+01 3.29509E-02-1.01502E-04-3.78092E-03-1.31254E-14-8.00139E-13
 -1      4417 2.00009E+01 4.67763E-02 3.00958E-04-4.23190E-03 2.22834E-14-6.97917E-13
 -1      4418 2.00055E+01 2.89763E-02 5.55727E-05-2.94240E-03 4.35970E-14-8.56740E-13
 -1      4419 2.00061E+01 2.43412E-02-5.60414E-05-1.64015E-03 3.57875E-14-7.75437E-13
 -1      4420 2.00060E+01 2.51214E-02-3.70246E-06-1.05371E-03 2.18720E-13-6.18846E-13
 -1      4421 2.00044E+01 3.36623E-02 1.48666E-04-2.23471E-03 1.53124E-14-8.72952E-13
 -1      4422 1.74738E+01 1.14515E+00-1.60649E-02 2.02137E-01-1.57522E-13 1.72059E-14
 -1      4423 1.71830E+01 1.15344E+00-4.17937E-03 2.74750E-01-1.01054E-13-1.44425E-14
 -1      4424 1.91057E+01 8.13960E-01-5.42692E-03 1.41601E-01-2.43183E-13-5.72743E-14
 -1      4425 1.89818E+01 8.69560E-01-4.74628E-03 1.79148E-01-2.17226E-13 1.17086E-14
 -1      4426 1.98186E+01 3.07469E-01-1.59254E-03 3.34661E-02-1.08079E-13 1.90904E-13
 -1      4427 1.97833E+01 3.45925E-01-1.43985E-03 4.48728E-02-6.53402E-14 2.37541E-14
 -1      4428 1.98804E+01 2.37359E-01-1.04000E-03 4.87265E-03 5.13491E-14 2.08582E-13
 -1      4429 1.98552E+01 2.70505E-01-4.60801E-04 1.03516E-02-2.30728E-14 1.89547E-13
 -1      4430 1.99228E+01 1.81216E-01-9.59222E-04 3.03865E-03 1.48617E-13 2.47938E-14
 -1      4431 1.99034E+01 2.07618E-01-1.05919E-03 7.77731E-03 1.79806E-13 1.81122E-13
 -1      4432 1.99534E+01 1.36031E-01-7.25775E-04 1.85320E-03 1.81769E-13-2.67368E-13
 -1      4433 1.99395E+01 1.57243E-01-8.59004E-04 5.56823E-03 1.53816E-13-2.83611E-14
 -1      4434 1.99748E+01 1.00187E-01-5.19883E-04 1.06649E-03 1.36522E-13-1.53155E-13
 -1      4435 1.99651E+01 1.16946E-01-6.34160E-04 3.89923E-03 1.45521E-13-1.98467E-13
 -1      4436 1.99891E+01 7.22436E-02-3.58768E-04 5.44665E-04-9.57030E-14-8.84186E-14
 -1      4437 1.99827E+01 8.52533E-02-4.49315E-04 2.65971E-03-1.37301E-15-2.05270E-13
 -1      4438 1.99982E+01 5.08373E-02-2.33241E-04 2.01517E-04-1.43095E-13-1.30697E-14
 -1      4439 1.99942E+01 6.07627E-02-3.05138E-04 1.74954E-03-9.88874E-14-1.69783E-13
 -1      4440 2.00036E+01 3.47907E-02-1.17157E-04 5.64028E-05 1.21545E-14-1.03216E-13
 -1      4441 2.00013E+01 4.22035E-02-1.75957E-04 1.07277E-03-7.09927E-14-9.91260E-14
 -1      4442 2.00055E+01 2.64570E-02-6.42875E-05 8.55661E-04 1.20065E-13-3.72614E-14
 -1      4443 2.00071E+01 1.41635E-02 1.51553E-05 2.91117E-04 1.46477E-13-7.93511E-14
 -1      4444 2.00070E+01 1.69280E-02 2.52976E-05 4.44023E-04 2.06614E-13-3.02418E-13
 -1      4445 1.69219E+01 1.09331E+00 1.06484E-02 8.07783E-01-8.64113E-14-1.15649E-13
 -1      4446 1.65851E+01 9.05894E-01 5.96012E-03-1.78475E+00-8.59158E-14-3.01732E-13
 -1      4447 1.88379E+01 9.28363E-01-5.25174E-03 6.85475E-02-2.21548E-13-4.61095E-14
 -1      4448 1.86732E+01 9.77488E-01-7.46885E-03 9.98975E-02-2.02913E-13 5.82193E-14
 -1      4449 1.65815E+01 1.08613E+00 7.92330E-04-7.71365E-01 4.96675E-14 5.22571E-14
 -1      4450 1.80346E+01 1.10039E+00-1.54682E-02 1.37530E-01-2.42455E-13 4.79433E-14
 -1      4451 1.77857E+01 1.12155E+00-1.49162E-02 2.00427E-01-2.18187E-13-2.16654E-14
 -1      4452 1.84797E+01 1.02481E+00-1.12728E-02 9.60797E-02-1.49554E-13-1.69724E-14
 -1      4453 1.82790E+01 1.06402E+00-1.19853E-02 1.41769E-01-1.43252E-13-1.20151E-15
 -1      4454 1.69384E+01 1.12408E+00-9.92276E-03-6.47701E-01-4.06381E-14 4.26157E-14
 -1      4455 1.97437E+01 3.86169E-01-1.36668E-03 1.11293E-02-4.17262E-14 1.87025E-15
 -1      4456 1.96947E+01 4.29946E-01-2.14941E-03 2.01986E-02-4.66278E-14-8.28137E-14
 -1      4457 1.96380E+01 4.77475E-01-2.93995E-03 1.55503E-02-4.91694E-14-1.73277E-13
 -1      4458 1.95754E+01 5.27600E-01-3.33024E-03 2.81229E-02-2.26142E-14-2.00907E-13
 -1      4459 1.70196E+01 1.23895E+00 2.48905E-02-2.95226E-01-7.37852E-14 9.66475E-14
 -1      4460 1.60379E+01 1.48134E+00-9.22499E-03 3.44514E-01-3.35172E-14-2.55837E-13
 -1      4461 2.00064E+01 7.16429E-03 5.09929E-05 1.61278E-03 2.11392E-13-1.12299E-14
 -1      4462 2.00047E+01 3.03914E-02-7.23716E-05 6.41758E-04 8.21457E-14-7.43498E-14
 -1      4463 1.64200E+01 1.27094E+00 6.51909E-03-1.20398E+00-3.79603E-14-2.69846E-13
 -1      4464 1.95028E+01 5.81453E-01-3.85960E-03 2.27534E-02 1.34246E-14-2.49245E-13
 -1      4465 1.94235E+01 6.36436E-01-3.94531E-03 3.83500E-02-5.64744E-14-2.26629E-13
 -1      4466 1.93316E+01 6.95339E-01-4.02183E-03 3.34979E-02-7.84876E-14-1.23851E-13
 -1      4467 1.92369E+01 7.55856E-01-1.90579E-03 5.11732E-02-9.92493E-14-1.75206E-13
 -1      4468 1.69091E+01 1.19395E+00-5.74370E-03 1.51295E-01-5.19289E-14 3.56802E-14
 -1      4469 1.56409E+01 1.47039E+00 2.69220E-02-3.85489E-02-2.60683E-14-2.59359E-13
 -1      4470 1.59940E+01 1.38885E+00-1.83014E-02-6.23883E-01-4.06910E-14-2.56409E-13
 -1      4471 1.91701E+01 8.02586E-01 2.43119E-03-4.62737E-02-2.40845E-14-1.31134E-13
 -1      4472 1.90610E+01 8.52748E-01 9.23108E-04-5.50483E-02-1.44773E-13-1.56544E-13
 -1      4473 1.98089E+01 3.26624E-01 5.40479E-04-2.10683E-02-2.23242E-13 1.02711E-13
 -1      4474 1.98381E+01 2.92924E-01 6.59109E-04-1.70294E-02-1.67259E-13 4.94003E-15
 -1      4475 1.97659E+01 3.71471E-01 1.00313E-03-2.56946E-02-7.95711E-14-1.51872E-14
 -1      4476 1.89099E+01 9.25456E-01 3.87220E-03-6.36878E-02-2.34311E-13-1.18191E-13
 -3
    1PSTEP                         3           1           1          
  100CL  101 1.000000000        4476                     0    1           1
 -4  TOSTRAIN    6    1
 -5  EXX         1    4    1    1
 -5  EYY         1    4    2    2
 -5  EZZ         1    4    3    3
 -5  EXY         1    4    1    2
 -5  EYZ         1    4    2    3
 -5  EZX         1    4    3    1
 -1         1 9.05143E-05 1.93712E-05-4.36931E-05 9.68933E-05-1.54499E-17-2.10390E-17
 -1         2 3.63185E-05-1.10829E-04 2.00505E-05-1.01066E-06-6.06861E-18 6.42713E-19
 -1         3 9.52378E-05-2.85704E-05-2.85723E-05 8.76868E-10-1.93267E-18-1.47492E-18
 -1         4 9.52378E-05-2.85705E-05-2.85724E-05-7.77814E-10 1.78026E-18-5.38290E-19
 -1         5 1.42857E-04-2.11342E-05-4.29306E-05 3.77613E-05-2.24252E-19 1.63447E-17
 -1         6 1.44368E-04 2.62259E-10-4.45380E-05-5.22175E-05-8.76256E-19 1.70796E-17
 -1         7 9.31338E-05-7.15698E-07-3.98276E-05-2.72090E-05-1.42619E-19 4.24689E-18
 -1         8 8.75101E-05-2.95470E-09-3.72122E-05-1.72219E-05-2.12235E-19-2.18177E-20
 -1         9 8.44939E-05 3.29005E-08-3.60041E-05-1.20388E-05-1.91747E-19-2.51386E-18
 -1        10 8.24101E-05 2.69723E-08-3.51529E-05-8.38928E-06-1.38622E-19-3.78645E-18
 -1        11 8.07739E-05 3.02819E-08-3.44971E-05-5.66278E-06-1.15342E-19-4.41175E-18
 -1        12 7.95216E-05 3.60805E-08-3.40003E-05-3.62493E-06-6.84376E-20-4.71095E-18
 -1        13 7.86412E-05 4.25058E-08-3.36528E-05-2.01109E-06-3.76334E-20-4.86825E-18
 -1        14 7.82016E-05 4.58539E-08-3.34790E-05-6.66760E-07-2.36408E-21-4.95572E-18
 -1        15 7.82271E-05 4.52280E-08-3.34878E-05 6.01311E-07 1.03894E-20-5.00403E-18
 -1        16 7.87102E-05 4.07589E-08-3.36763E-05 1.98505E-06 3.84341E-20-4.96885E-18
 -1        17 7.96152E-05 3.26534E-08-3.40313E-05 3.67126E-06 4.98691E-20-4.74939E-18
 -1        18 8.08639E-05 2.69069E-08-3.45260E-05 5.79484E-06 9.48412E-20-4.37439E-18
 -1        19 8.24762E-05 2.52724E-08-3.51741E-05 8.61888E-06 1.53564E-19-3.70182E-18
 -1        20 8.45147E-05 3.85465E-08-3.60149E-05 1.23591E-05 2.04770E-19-2.49438E-18
 -1        21 8.74384E-05 7.66675E-08-3.72353E-05 1.75352E-05 2.30181E-19-6.08507E-20
 -1        22 9.38535E-05-2.70418E-07-3.94870E-05 2.60572E-05 2.93285E-20 4.88207E-18
 -1        23 1.15377E-04-3.89638E-05-3.61458E-05-3.81163E-06-5.92526E-19 1.39295E-17
 -1        24 9.78270E-05-2.92221E-05-3.04700E-05 4.80952E-07-1.59064E-19 1.10757E-17
 -1        25 9.64285E-05-2.90558E-05-2.91141E-05 4.22933E-07-9.07136E-20 8.16452E-18
 -1        26 9.77043E-05-2.94015E-05-2.93145E-05 2.63006E-07 1.03861E-20 6.09231E-18
 -1        27 1.00423E-04-3.01838E-05-3.01237E-05 2.22978E-07 5.10900E-20 5.09522E-18
 -1        28 1.04011E-04-3.12312E-05-3.12066E-05 2.13286E-07-1.02363E-19 4.36709E-18
 -1        29 1.08061E-04-3.24247E-05-3.24093E-05 2.13001E-07 4.03163E-20 3.35667E-18
 -1        30 1.12070E-04-3.36106E-05-3.35742E-05 2.00170E-07 1.02674E-20 2.28060E-18
 -1        31 1.15302E-04-3.45690E-05-3.44788E-05 1.45583E-07 5.75676E-20 1.82366E-18
 -1        32 1.16756E-04-3.50022E-05-3.48315E-05 1.39213E-08-2.36196E-19 1.27195E-18
 -1        33 1.15315E-04-3.45782E-05-3.43331E-05-2.17912E-07 3.00154E-19 1.38638E-18
 -1        34 1.10242E-04-3.30716E-05-3.28280E-05-5.18021E-07 5.90442E-21 1.89214E-18
 -1        35 1.01973E-04-3.06023E-05-3.05054E-05-7.58178E-07-9.32290E-20 1.13044E-18
 -1        36 9.27340E-05-2.78292E-05-2.80082E-05-7.46141E-07 2.10268E-19 4.62083E-19
 -1        37 8.61194E-05-2.58351E-05-2.62706E-05-3.77561E-07-2.11626E-19 1.18876E-19
 -1        38 8.52471E-05-2.55713E-05-2.60521E-05 2.03127E-07-8.99476E-20-8.92323E-19
 -1        39 9.06599E-05-2.72039E-05-2.74826E-05 6.73059E-07-2.99065E-19-2.41084E-18
 -1        40 9.99296E-05-2.99906E-05-2.99781E-05 8.04536E-07 1.21622E-19-2.15848E-18
 -1        41 1.09375E-04-3.28161E-05-3.26072E-05 6.30046E-07-1.52365E-19-2.89108E-18
 -1        42 1.16203E-04-3.48485E-05-3.45974E-05 3.35339E-07-1.78671E-20-2.57178E-18
 -1        43 1.19428E-04-3.58034E-05-3.56125E-05 7.95579E-08 1.71673E-20-2.49056E-18
 -1        44 1.19489E-04-3.58190E-05-3.57150E-05-7.62719E-08 6.79281E-20 7.03616E-20
 -1        45 1.17434E-04-3.52082E-05-3.51732E-05-1.41747E-07-2.75802E-19-1.75706E-19
 -1        46 1.14306E-04-3.42789E-05-3.42838E-05-1.49997E-07 7.25377E-20-1.66025E-18
 -1        47 1.10873E-04-3.32581E-05-3.32796E-05-1.30704E-07 9.00740E-20 4.11307E-19
 -1        48 1.07603E-04-3.22841E-05-3.23086E-05-1.02657E-07-2.04708E-19 3.76354E-19
 -1        49 1.04728E-04-3.14261E-05-3.14475E-05-7.53321E-08 1.70709E-19 6.36803E-19
 -1        50 1.02330E-04-3.07089E-05-3.07252E-05-5.24353E-08 1.41538E-19-2.21575E-19
 -1        51 1.00403E-04-3.01312E-05-3.01426E-05-3.47287E-08-2.32226E-19 1.61233E-18
 -1        52 9.88985E-05-2.96792E-05-2.96867E-05-2.17213E-08 3.52327E-19 3.36158E-18
 -1        53 9.77524E-05-2.93344E-05-2.93389E-05-1.25293E-08-1.80569E-19 1.97509E-18
 -1        54 9.68990E-05-2.90771E-05-2.90796E-05-6.25633E-09-1.20580E-19-5.26625E-19
 -1        55 9.62782E-05-2.88896E-05-2.88908E-05-2.13394E-09-1.26431E-19-1.79412E-18
 -1        56 9.58378E-05-2.87563E-05-2.87566E-05 4.47608E-10 2.37054E-20-1.12341E-18
 -1        57 9.55346E-05-2.86643E-05-2.86640E-05 1.95176E-09 5.50826E-19 5.33285E-19
 -1        58 9.53334E-05-2.86031E-05-2.86025E-05 2.72225E-09-1.75412E-19 8.70653E-19
 -1        59 9.52069E-05-2.85644E-05-2.85637E-05 3.00970E-09 1.39477E-19-5.01809E-19
 -1        60 9.51337E-05-2.85418E-05-2.85411E-05 2.99396E-09-7.11655E-20 3.72943E-19
 -1        61 9.50974E-05-2.85305E-05-2.85298E-05 2.80172E-09-3.74987E-19 2.31573E-19
 -1        62 9.50862E-05-2.85268E-05-2.85262E-05 2.52031E-09-2.41196E-19-1.71299E-18
 -1        63 9.50912E-05-2.85280E-05-2.85275E-05 2.20840E-09-3.36587E-20-2.75689E-18
 -1        64 9.51062E-05-2.85323E-05-2.85318E-05 1.90383E-09 5.65801E-20-1.76699E-18
 -1        65 9.51266E-05-2.85383E-05-2.85379E-05 1.62926E-09-3.10103E-19-6.37014E-19
 -1        66 9.51496E-05-2.85450E-05-2.85448E-05 1.39560E-09 8.49437E-19-2.69458E-18
 -1        67 9.51730E-05-2.85519E-05-2.85517E-05 1.20267E-09 3.57777E-19-2.38220E-18
 -1        68 9.51951E-05-2.85585E-05-2.85583E-05 1.03522E-09 3.62323E-19 1.07547E-18
 -1        69 9.52145E-05-2.85643E-05-2.85640E-05 8.44934E-10 2.30340E-20-1.64858E-18
 -1        70 9.52293E-05-2.85688E-05-2.85683E-05 4.59349E-10 2.14274E-19-2.86348E-19
 -1        71 9.52372E-05-2.85713E-05-2.85708E-05-1.61757E-10-9.43226E-19-1.37146E-18
 -1        72 1.04645E-04-3.13143E-05-3.49373E-05-2.12258E-06 2.72162E-19 1.46049E-17
 -1        73 9.75017E-05-2.90105E-05-3.03556E-05-3.84706E-07 1.59507E-19 1.07681E-17
 -1        74 9.61896E-05-2.88353E-05-2.90886E-05-1.53966E-07 1.03457E-19 7.73471E-18
 -1        75 9.73328E-05-2.92259E-05-2.92345E-05-1.26845E-07 4.02241E-20 5.94689E-18
 -1        76 9.97870E-05-2.99538E-05-2.99434E-05-1.26354E-07 1.04924E-20 4.70090E-18
 -1        77 1.02969E-04-3.08933E-05-3.08917E-05-1.41417E-07 5.96767E-20 3.68823E-18
 -1        78 1.06435E-04-3.19223E-05-3.19117E-05-1.64751E-07-6.26399E-20 3.28531E-18
 -1        79 1.09671E-04-3.28883E-05-3.28413E-05-1.83857E-07 1.43281E-19 2.82459E-18
 -1        80 1.11991E-04-3.35888E-05-3.34757E-05-1.77087E-07-1.14833E-19 1.67728E-18
 -1        81 1.12551E-04-3.37736E-05-3.35744E-05-1.13283E-07 2.88167E-19 1.66628E-18
 -1        82 1.10530E-04-3.31947E-05-3.29249E-05 3.62502E-08-5.59588E-20 8.99178E-19
 -1        83 1.05549E-04-3.17253E-05-3.14643E-05 2.66662E-07 6.80778E-20 6.28710E-19
 -1        84 9.82332E-05-2.95305E-05-2.94160E-05 5.02769E-07 3.85532E-20 4.64015E-19
 -1        85 9.05371E-05-2.71819E-05-2.73359E-05 6.04409E-07 7.38896E-20-2.16020E-19
 -1        86 8.52716E-05-2.55396E-05-2.59533E-05 4.59444E-07-1.56263E-19-1.67267E-18
 -1        87 8.47248E-05-2.53323E-05-2.58289E-05 1.00263E-07-1.75991E-19-1.65979E-18
 -1        88 8.92495E-05-2.66948E-05-2.70420E-05-2.90383E-07-1.32150E-19-2.19585E-18
 -1        89 9.70229E-05-2.90690E-05-2.91432E-05-5.19187E-07 4.54978E-19-4.87592E-18
 -1        90 1.05222E-04-3.15727E-05-3.14171E-05-5.27610E-07-5.07100E-19-5.73727E-18
 -1        91 1.11564E-04-3.34983E-05-3.32435E-05-3.88807E-07 2.24861E-19-4.83594E-18
 -1        92 1.15054E-04-3.45476E-05-3.43073E-05-2.09982E-07-1.33970E-19-3.81080E-18
 -1        93 1.15838E-04-3.47742E-05-3.46049E-05-6.23185E-08 7.20466E-20-3.56757E-18
 -1        94 1.14650E-04-3.44073E-05-3.43156E-05 3.12886E-08-6.59569E-20-5.63375E-18
 -1        95 1.12322E-04-3.37015E-05-3.36688E-05 7.70835E-08 2.26425E-19-6.32632E-18
 -1        96 1.09533E-04-3.28609E-05-3.28642E-05 9.06776E-08-3.80704E-19-4.71474E-18
 -1        97 1.06737E-04-3.20206E-05-3.20417E-05 8.63851E-08-1.02253E-19-3.50291E-18
 -1        98 1.04190E-04-3.12562E-05-3.12834E-05 7.40794E-08-5.89555E-20-3.72508E-18
 -1        99 1.02007E-04-3.06017E-05-3.06286E-05 5.95366E-08 1.16699E-19-5.77316E-18
 -1       100 1.00215E-04-3.00648E-05-3.00884E-05 4.56923E-08-1.87678E-19-5.94720E-18
 -1       101 9.87934E-05-2.96386E-05-2.96580E-05 3.37853E-08-3.42240E-20-5.83706E-18
 -1       102 9.76962E-05-2.93096E-05-2.93249E-05 2.41417E-08 2.92022E-19-7.17133E-18
 -1       103 9.68707E-05-2.90621E-05-2.90737E-05 1.66460E-08-2.39418E-19-3.73384E-18
 -1       104 9.62653E-05-2.88805E-05-2.88891E-05 1.10033E-08-2.26966E-19 6.23503E-19
 -1       105 9.58330E-05-2.87507E-05-2.87569E-05 6.87420E-09 2.80661E-19-9.33272E-19
 -1       106 9.55337E-05-2.86608E-05-2.86652E-05 3.93718E-09-2.30416E-19-2.73803E-18
 -1       107 9.53344E-05-2.86009E-05-2.86039E-05 1.91293E-09 3.87282E-19-6.43809E-18
 -1       108 9.52085E-05-2.85631E-05-2.85650E-05 5.69894E-10 3.98334E-20-7.39057E-18
 -1       109 9.51354E-05-2.85410E-05-2.85422E-05-2.77579E-10 6.90820E-19-7.82862E-18
 -1       110 9.50991E-05-2.85301E-05-2.85307E-05-7.74498E-10-3.84701E-19-8.83758E-18
 -1       111 9.50877E-05-2.85266E-05-2.85269E-05-1.03183E-09 1.45480E-19-5.27217E-18
 -1       112 9.50925E-05-2.85279E-05-2.85280E-05-1.13313E-09-7.10986E-19-5.31830E-18
 -1       113 9.51072E-05-2.85323E-05-2.85323E-05-1.14053E-09 7.22097E-20-3.77512E-18
 -1       114 9.51276E-05-2.85384E-05-2.85382E-05-1.09965E-09 8.75753E-20-2.23090E-18
 -1       115 9.51504E-05-2.85452E-05-2.85450E-05-1.04335E-09 1.64285E-19-4.87481E-18
 -1       116 9.51737E-05-2.85521E-05-2.85520E-05-9.92880E-10-7.99865E-20-2.83691E-18
 -1       117 9.51958E-05-2.85587E-05-2.85585E-05-9.56351E-10 1.47350E-19-3.68771E-18
 -1       118 9.52151E-05-2.85645E-05-2.85642E-05-9.17392E-10 6.88022E-20-4.26593E-18
 -1       119 9.52297E-05-2.85689E-05-2.85684E-05-7.50316E-10-9.94165E-19-2.55163E-18
 -1       120 9.52372E-05-2.85714E-05-2.85709E-05-6.93186E-11 1.05527E-18-3.36460E-18
 -1       121 9.52372E-05-2.85716E-05-2.85708E-05 1.19898E-10-4.30524E-18-2.65117E-19
 -1       122 9.52395E-05-2.85790E-05-2.85684E-05-5.50835E-10-2.60292E-18-1.80889E-19
 -1       123 9.52435E-05-2.85924E-05-2.85646E-05-8.14312E-10 4.05716E-18 9.77136E-19
 -1       124 9.52482E-05-2.86080E-05-2.85601E-05-8.11824E-10-8.38236E-19 1.82801E-19
 -1       125 9.52527E-05-2.86231E-05-2.85557E-05-6.83162E-10-7.66601E-18-2.66859E-18
 -1       126 9.52564E-05-2.86356E-05-2.85520E-05-5.12392E-10-1.83216E-17-2.72417E-19
 -1       127 9.52591E-05-2.86446E-05-2.85494E-05-3.11620E-10-1.44997E-17 1.74881E-18
 -1       128 9.52605E-05-2.86493E-05-2.85480E-05-1.03688E-10-9.78236E-18 4.33305E-19
 -1       129 9.52605E-05-2.86493E-05-2.85480E-05 1.05679E-10-7.53672E-18 8.02571E-20
 -1       130 9.52591E-05-2.86445E-05-2.85494E-05 3.13291E-10-5.98573E-18-5.43519E-19
 -1       131 9.52564E-05-2.86355E-05-2.85521E-05 5.20337E-10-9.97581E-18-1.05360E-19
 -1       132 9.52527E-05-2.86230E-05-2.85558E-05 6.87429E-10-1.00308E-17 1.63942E-18
 -1       133 9.52481E-05-2.86078E-05-2.85602E-05 8.13937E-10-5.24171E-18-5.69088E-19
 -1       134 9.52435E-05-2.85922E-05-2.85647E-05 8.69350E-10-1.16342E-18 5.68191E-19
 -1       135 9.52395E-05-2.85790E-05-2.85684E-05 7.67144E-10 5.23038E-19-8.20124E-19
 -1       136 9.52375E-05-2.85719E-05-2.85708E-05-4.34289E-10-4.13263E-19 9.62464E-20
 -1       137 2.50710E-05-8.55372E-05 1.51176E-05-2.36527E-05 6.89061E-18 1.96244E-18
 -1       138 6.91442E-06-3.06932E-05 2.38165E-06-1.73183E-05 1.61893E-17 8.36763E-18
 -1       139 1.31956E-05 1.69332E-05-1.62248E-05 2.68258E-05 1.93052E-17 1.46198E-17
 -1       140 6.71439E-05 2.53086E-05-3.77409E-05 8.39253E-05 1.64892E-17 1.96829E-17
 -1       141 1.57809E-04-9.30324E-06-5.68289E-05 1.12370E-04 9.54225E-18 1.69724E-17
 -1       142 2.53417E-04-6.13665E-05-7.16515E-05 9.10863E-05 3.16176E-18 9.66549E-18
 -1       143 3.06354E-04-9.40075E-05-7.84589E-05 2.41211E-05 2.97229E-19 2.81151E-18
 -1       144 2.90537E-04-8.39260E-05-7.64826E-05-5.85030E-05 1.52922E-18-7.76496E-18
 -1       145 2.13134E-04-3.76188E-05-6.59909E-05-1.08976E-04 5.98948E-18-1.52085E-17
 -1       146 1.14093E-04 1.02314E-05-4.85763E-05-1.04504E-04 1.16677E-17-1.72049E-17
 -1       147 4.04412E-05 2.61217E-05-2.87428E-05-6.09036E-05 1.68805E-17-1.64142E-17
 -1       148 6.88302E-06-1.34849E-06-7.74536E-06-5.61427E-06 1.90722E-17-1.21564E-17
 -1       149 1.46557E-05-5.88720E-05 9.48186E-06 2.46000E-05 1.43195E-17-5.47617E-18
 -1       150 3.34295E-05-1.05177E-04 1.90179E-05 1.55515E-05 4.66832E-18-1.05650E-18
 -1       151 3.50514E-05-1.08373E-04 1.95726E-05-1.23728E-05-4.72613E-18-6.11518E-19
 -1       152 1.87538E-05-7.03540E-05 1.19711E-05-2.66619E-05-1.36008E-17-4.43422E-18
 -1       153 4.82061E-06-1.33216E-05-2.97939E-06-7.09116E-06-1.87669E-17-1.06180E-17
 -1       154 2.35859E-05 2.40150E-05-2.22836E-05 4.35064E-05-1.96753E-17-1.74023E-17
 -1       155 1.86327E-04-2.28857E-05-6.18811E-05 1.14019E-04-9.55813E-18-2.03800E-17
 -1       156 2.71839E-04-7.19075E-05-7.42054E-05 8.08314E-05-3.44457E-18-1.28010E-17
 -1       157 3.10735E-04-9.59582E-05-7.91627E-05 9.30615E-06-7.05552E-19-2.68912E-18
 -1       158 2.82849E-04-7.89501E-05-7.55140E-05-6.76989E-05-1.75694E-18 8.34455E-18
 -1       159 2.05161E-04-3.37474E-05-6.46419E-05-1.10022E-04-6.96674E-18 1.51166E-17
 -1       160 1.13382E-04 1.05749E-05-4.85391E-05-1.04849E-04-1.23235E-17 1.99959E-17
 -1       161 4.08502E-05 2.70142E-05-2.93769E-05-6.25400E-05-1.70800E-17 1.66895E-17
 -1       162 6.83850E-06 3.43984E-06-9.47114E-06-8.75002E-06-1.84086E-17 1.28160E-17
 -1       163 1.05432E-05-4.55033E-05 6.23790E-06 2.30227E-05-1.51407E-17 6.42686E-18
 -1       164 2.79540E-05-9.22846E-05 1.65018E-05 2.29525E-05-1.29657E-17 2.18535E-18
 -1       165 9.82849E-05-1.35559E-05-3.64938E-05-1.93384E-05-2.30316E-18 1.86975E-18
 -1       166 9.18347E-05-9.11576E-06-3.55996E-05-1.39197E-05-2.23155E-18-9.15259E-19
 -1       167 8.77506E-05-6.52321E-06-3.49171E-05-9.93987E-06-1.92891E-18-2.51070E-18
 -1       168 8.48525E-05-4.91296E-06-3.43375E-05-6.90749E-06-1.55765E-18-3.41724E-18
 -1       169 8.26532E-05-3.78541E-06-3.38608E-05-4.61559E-06-1.17060E-18-3.74820E-18
 -1       170 8.10334E-05-3.00346E-06-3.34920E-05-2.80599E-06-7.63658E-19-4.00727E-18
 -1       171 8.00577E-05-2.55035E-06-3.32629E-05-1.34223E-06-3.55363E-19-4.10078E-18
 -1       172 7.97616E-05-2.42207E-06-3.31896E-05-4.21953E-08 1.18134E-20-4.18009E-18
 -1       173 8.01520E-05-2.61459E-06-3.32762E-05 1.27865E-06 3.38207E-19-4.14942E-18
 -1       174 8.11996E-05-3.12011E-06-3.35140E-05 2.80027E-06 6.52894E-19-4.08486E-18
 -1       175 8.28198E-05-3.91916E-06-3.38759E-05 4.65718E-06 1.04983E-18-3.78296E-18
 -1       176 8.50401E-05-5.07068E-06-3.43513E-05 7.07622E-06 1.53002E-18-3.28708E-18
 -1       177 8.79273E-05-6.70149E-06-3.49208E-05 1.02124E-05 2.01641E-18-2.48547E-18
 -1       178 9.19626E-05-9.27831E-06-3.55910E-05 1.42622E-05 2.29708E-18-9.17165E-19
 -1       179 9.90610E-05-1.47454E-05-3.63276E-05 1.90692E-05 2.33134E-18 2.09103E-18
 -1       180 1.08829E-04-2.73064E-05-3.61044E-05 1.65906E-05 1.85656E-18 6.08498E-18
 -1       181 1.07335E-04-2.86227E-05-3.37275E-05-9.85137E-06-1.95283E-18 4.90707E-18
 -1       182 1.02481E-04-2.99110E-05-3.11300E-05-2.45152E-06-1.69609E-18 3.86441E-18
 -1       183 1.00580E-04-2.96910E-05-3.03292E-05 6.60652E-07-1.27376E-18 3.05058E-18
 -1       184 1.00968E-04-3.00039E-05-3.03764E-05 2.32451E-06-7.99465E-19 2.16428E-18
 -1       185 1.02565E-04-3.05871E-05-3.08299E-05 3.33762E-06-4.73606E-19 1.60117E-18
 -1       186 1.04899E-04-3.13961E-05-3.14968E-05 3.88830E-06-6.58278E-19 1.49039E-18
 -1       187 1.07578E-04-3.23562E-05-3.22426E-05 3.91702E-06-5.32974E-19 1.25243E-18
 -1       188 1.10173E-04-3.33652E-05-3.29294E-05 3.23347E-06-2.75067E-19 1.28167E-18
 -1       189 1.12156E-04-3.42589E-05-3.34000E-05 1.60930E-06-2.60347E-19 1.17842E-18
 -1       190 1.12905E-04-3.47760E-05-3.34977E-05-1.04672E-06 1.07547E-19 1.60248E-18
 -1       191 1.11828E-04-3.45591E-05-3.31220E-05-4.39541E-06 4.27652E-20 5.65022E-19
 -1       192 1.08686E-04-3.32947E-05-3.23085E-05-7.38011E-06-1.86870E-19 5.06592E-19
 -1       193 1.04056E-04-3.10603E-05-3.12789E-05-8.35576E-06-4.11185E-19 6.64623E-19
 -1       194 9.95793E-05-2.86587E-05-3.03931E-05-6.02232E-06-8.96935E-19 4.84397E-21
 -1       195 9.74073E-05-2.74054E-05-3.00036E-05-7.75175E-07-6.03226E-19-4.44179E-19
 -1       196 9.87965E-05-2.81341E-05-3.02839E-05 4.98194E-06-9.38115E-19-1.00082E-18
 -1       197 1.03092E-04-3.04053E-05-3.11467E-05 8.46195E-06-2.22038E-19-1.82722E-18
 -1       198 1.08271E-04-3.29315E-05-3.22846E-05 8.53233E-06-2.93159E-19-2.63669E-18
 -1       199 1.12413E-04-3.46719E-05-3.33211E-05 6.06256E-06-8.17420E-20-2.49953E-18
 -1       200 1.14585E-04-3.53336E-05-3.39771E-05 2.72327E-06 4.23569E-19-2.71350E-18
 -1       201 1.14800E-04-3.51451E-05-3.41541E-05-1.96386E-07 1.12401E-18-1.94178E-18
 -1       202 1.13556E-04-3.44681E-05-3.39097E-05-2.15516E-06 1.71691E-19-1.35019E-18
 -1       203 1.11450E-04-3.35913E-05-3.33780E-05-3.15830E-06-3.02161E-20 1.10624E-19
 -1       204 1.08980E-04-3.26916E-05-3.27001E-05-3.44749E-06 7.47990E-19 3.91508E-19
 -1       205 1.06495E-04-3.18605E-05-3.19871E-05-3.29470E-06 2.53099E-19 2.89021E-19
 -1       206 1.04202E-04-3.11367E-05-3.13116E-05-2.91519E-06 3.32322E-19 1.07044E-18
 -1       207 1.02201E-04-3.05305E-05-3.07125E-05-2.45185E-06-2.26011E-19 1.24779E-18
 -1       208 1.00525E-04-3.00370E-05-3.02050E-05-1.98813E-06 8.53491E-19 5.03834E-19
 -1       209 9.91636E-05-2.96445E-05-2.97897E-05-1.56668E-06 1.13233E-18 9.66805E-19
 -1       210 9.80853E-05-2.93388E-05-2.94590E-05-1.20504E-06-6.54962E-19 1.25411E-18
 -1       211 9.72504E-05-2.91053E-05-2.92017E-05-9.06490E-07-2.06566E-18 1.10943E-18
 -1       212 9.66172E-05-2.89304E-05-2.90059E-05-6.67024E-07-6.41839E-19 6.49166E-19
 -1       213 9.61471E-05-2.88021E-05-2.88599E-05-4.79377E-07 5.31064E-19-1.02400E-19
 -1       214 9.58057E-05-2.87100E-05-2.87535E-05-3.35329E-07 1.01160E-18 5.87795E-19
 -1       215 9.55639E-05-2.86458E-05-2.86779E-05-2.26887E-07-1.26241E-19 4.19847E-19
 -1       216 9.53979E-05-2.86024E-05-2.86256E-05-1.46842E-07-7.90091E-19 9.65997E-21
 -1       217 9.52882E-05-2.85745E-05-2.85908E-05-8.89848E-08-2.35823E-19-1.28098E-18
 -1       218 9.52198E-05-2.85577E-05-2.85689E-05-4.81351E-08-2.83145E-19-1.12712E-18
 -1       219 9.51809E-05-2.85488E-05-2.85562E-05-2.00802E-08-1.55402E-19-1.26599E-18
 -1       220 9.51625E-05-2.85453E-05-2.85500E-05-1.46831E-09-3.24683E-19-6.98312E-19
 -1       221 9.51579E-05-2.85453E-05-2.85481E-05 1.03088E-08-4.53458E-20-9.78087E-19
 -1       222 9.51623E-05-2.85476E-05-2.85490E-05 1.72286E-08 1.78605E-18-1.16131E-18
 -1       223 9.51721E-05-2.85512E-05-2.85517E-05 2.07361E-08-5.40075E-19 1.75939E-18
 -1       224 9.51847E-05-2.85555E-05-2.85553E-05 2.18204E-08-2.36784E-19 1.48446E-18
 -1       225 9.51983E-05-2.85600E-05-2.85593E-05 2.10671E-08 9.86340E-19 7.15337E-19
 -1       226 9.52114E-05-2.85643E-05-2.85630E-05 1.86868E-08-1.16819E-18-1.85756E-18
 -1       227 9.52228E-05-2.85683E-05-2.85662E-05 1.45466E-08 5.77525E-19-2.35022E-18
 -1       228 9.52317E-05-2.85718E-05-2.85686E-05 8.46080E-09 2.47710E-19-1.57405E-18
 -1       229 1.03940E-04-2.99414E-05-3.18811E-05 5.33237E-06 1.86190E-18 5.10998E-18
 -1       230 1.00441E-04-2.95887E-05-3.03314E-05 8.99866E-07 1.41574E-18 3.79233E-18
 -1       231 9.98642E-05-2.96871E-05-3.00311E-05-1.04927E-06 8.09942E-19 2.87001E-18
 -1       232 1.00837E-04-3.00931E-05-3.02939E-05-2.11413E-06 6.28153E-19 2.20216E-18
 -1       233 1.02701E-04-3.07315E-05-3.08340E-05-2.69834E-06 4.88664E-19 1.75193E-18
 -1       234 1.05001E-04-3.15131E-05-3.14925E-05-2.86762E-06-4.61670E-21 1.44430E-18
 -1       235 1.07309E-04-3.23308E-05-3.21339E-05-2.54732E-06 4.30769E-19 1.03897E-18
 -1       236 1.09141E-04-3.30443E-05-3.26119E-05-1.60645E-06 2.82403E-19 1.20246E-18
 -1       237 1.09949E-04-3.34640E-05-3.27734E-05 4.23830E-08 3.42727E-19 4.34249E-19
 -1       238 1.09209E-04-3.33596E-05-3.24949E-05 2.28534E-06 2.11444E-19 9.14152E-19
 -1       239 1.06640E-04-3.25282E-05-3.17485E-05 4.62237E-06 1.99448E-19 6.84290E-19
 -1       240 1.02525E-04-3.09561E-05-3.06669E-05 6.11739E-06 2.35799E-19 7.06558E-19
 -1       241 9.79472E-05-2.90156E-05-2.95551E-05 5.72773E-06 6.69580E-19-7.95152E-20
 -1       242 9.46150E-05-2.74856E-05-2.87997E-05 3.06154E-06 4.89899E-19-5.27205E-19
 -1       243 9.40437E-05-2.71518E-05-2.86980E-05-1.02205E-06 4.27454E-19-1.05613E-18
 -1       244 9.65958E-05-2.82339E-05-2.93095E-05-4.74095E-06 6.33256E-19-2.21629E-18
 -1       245 1.01217E-04-3.01973E-05-3.04265E-05-6.56028E-06 1.32424E-18-2.67617E-18
 -1       246 1.06149E-04-3.21716E-05-3.16840E-05-6.14532E-06 3.40688E-19-2.66507E-18
 -1       247 1.09951E-04-3.35448E-05-3.27297E-05-4.24177E-06-3.82813E-19-2.96664E-18
 -1       248 1.11975E-04-3.41412E-05-3.33513E-05-1.90267E-06-6.03726E-19-2.76770E-18
 -1       249 1.12275E-04-3.40907E-05-3.35099E-05 1.07981E-07-3.86426E-20-2.85052E-18
 -1       250 1.11276E-04-3.36242E-05-3.32862E-05 1.47349E-06 6.10739E-19-2.61866E-18
 -1       251 1.09491E-04-3.29504E-05-3.28099E-05 2.19958E-06 3.70790E-19-3.90841E-18
 -1       252 1.07354E-04-3.22158E-05-3.22071E-05 2.43695E-06-1.15110E-18-3.49626E-18
 -1       253 1.05176E-04-3.15089E-05-3.15747E-05 2.36003E-06-3.73092E-19-2.16498E-18
 -1       254 1.03150E-04-3.08758E-05-3.09753E-05 2.11231E-06 5.82178E-20-1.41110E-18
 -1       255 1.01371E-04-3.03354E-05-3.04433E-05 1.79345E-06 9.10438E-19-1.06951E-18
 -1       256 9.98756E-05-2.98901E-05-2.99924E-05 1.46487E-06-4.67690E-19-1.79836E-18
 -1       257 9.86589E-05-2.95334E-05-2.96235E-05 1.16017E-06 2.46073E-19-2.05974E-18
 -1       258 9.76958E-05-2.92546E-05-2.93302E-05 8.94848E-07 1.43816E-19-1.62002E-18
 -1       259 9.69520E-05-2.90415E-05-2.91028E-05 6.73480E-07-2.24773E-18-1.21436E-19
 -1       260 9.63905E-05-2.88823E-05-2.89306E-05 4.94609E-07-5.61066E-19-2.07029E-19
 -1       261 9.59766E-05-2.87660E-05-2.88032E-05 3.53813E-07 1.05813E-18-3.48742E-19
 -1       262 9.56790E-05-2.86833E-05-2.87114E-05 2.45520E-07 1.18831E-18-1.89781E-18
 -1       263 9.54712E-05-2.86263E-05-2.86470E-05 1.64025E-07 1.64364E-18-4.09196E-18
 -1       264 9.53313E-05-2.85885E-05-2.86034E-05 1.04028E-07 2.01144E-19-4.05407E-18
 -1       265 9.52416E-05-2.85648E-05-2.85752E-05 6.08711E-08 5.18416E-19-4.96049E-18
 -1       266 9.51882E-05-2.85512E-05-2.85583E-05 3.06248E-08-2.89513E-19-4.27438E-18
 -1       267 9.51604E-05-2.85447E-05-2.85493E-05 1.00709E-08-2.04058E-18-2.67973E-18
 -1       268 9.51502E-05-2.85429E-05-2.85458E-05-3.35775E-09-6.02686E-19 6.10496E-19
 -1       269 9.51517E-05-2.85443E-05-2.85459E-05-1.16567E-08 3.29964E-19 4.50902E-19
 -1       270 9.51603E-05-2.85475E-05-2.85483E-05-1.63295E-08 1.69591E-19-9.86605E-19
 -1       271 9.51731E-05-2.85517E-05-2.85519E-05-1.84571E-08 1.74378E-18-2.33996E-18
 -1       272 9.51877E-05-2.85564E-05-2.85562E-05-1.87500E-08-3.18765E-19-3.64202E-18
 -1       273 9.52024E-05-2.85612E-05-2.85605E-05-1.75795E-08 7.41124E-19-2.80574E-18
 -1       274 9.52159E-05-2.85655E-05-2.85644E-05-1.50032E-08-6.36608E-19-2.52664E-18
 -1       275 9.52268E-05-2.85693E-05-2.85675E-05-1.07678E-08-1.04552E-18-2.24558E-18
 -1       276 9.52343E-05-2.85720E-05-2.85696E-05-4.81800E-09 1.01201E-18-2.07462E-18
 -1       277 9.52368E-05-2.85769E-05-2.85685E-05-8.49831E-09-6.46504E-20 4.51316E-19
 -1       278 9.52403E-05-2.85854E-05-2.85664E-05-1.34343E-08 5.66867E-19 3.69046E-18
 -1       279 9.52443E-05-2.85955E-05-2.85638E-05-1.54507E-08 6.32761E-20-1.85138E-18
 -1       280 9.52480E-05-2.86058E-05-2.85609E-05-1.49031E-08-2.21940E-18-3.49170E-18
 -1       281 9.52511E-05-2.86149E-05-2.85584E-05-1.25577E-08-3.35072E-18-6.97272E-18
 -1       282 9.52536E-05-2.86222E-05-2.85563E-05-8.95847E-09-2.98120E-18 1.19849E-18
 -1       283 9.52551E-05-2.86268E-05-2.85550E-05-4.63331E-09-4.38454E-18 2.77444E-18
 -1       284 9.52556E-05-2.86283E-05-2.85545E-05 2.26881E-11-3.25923E-18 1.68081E-18
 -1       285 9.52551E-05-2.86267E-05-2.85550E-05 4.67928E-09-3.26270E-18 3.90647E-19
 -1       286 9.52536E-05-2.86221E-05-2.85563E-05 9.00702E-09-3.49560E-18-1.47387E-18
 -1       287 9.52512E-05-2.86149E-05-2.85584E-05 1.25570E-08-2.97743E-18-7.87341E-19
 -1       288 9.52480E-05-2.86057E-05-2.85610E-05 1.49423E-08-3.00286E-18 2.93487E-18
 -1       289 9.52442E-05-2.85953E-05-2.85638E-05 1.54701E-08-1.36921E-18 2.87123E-18
 -1       290 9.52402E-05-2.85852E-05-2.85665E-05 1.32303E-08 8.09448E-19 1.25117E-18
 -1       291 9.52362E-05-2.85780E-05-2.85678E-05 1.25280E-08 1.13433E-18-2.20420E-18
 -1       292 1.20721E-05-4.47051E-05 1.10643E-05 8.85769E-06-1.11401E-18 6.46911E-18
 -1       293 2.67631E-05-4.31265E-05 4.13822E-06 2.10091E-05 2.65545E-18 6.19885E-18
 -1       294 5.35741E-05-3.51638E-05-9.62454E-06 3.46692E-05 5.83733E-18 7.39841E-18
 -1       295 9.78710E-05-3.46490E-05-2.73002E-05 4.36407E-05 6.15200E-18 6.26211E-18
 -1       296 1.38065E-04-3.00919E-05-4.50038E-05 4.65231E-05 7.69741E-18 5.88010E-18
 -1       297 1.75844E-04-3.26241E-05-5.91777E-05 3.16469E-05 5.99758E-18 3.82689E-18
 -1       298 2.06058E-04-3.62858E-05-6.92540E-05 1.85363E-05 4.32506E-18 2.49748E-18
 -1       299 2.08934E-04-3.49072E-05-7.10694E-05-5.48543E-06 4.95779E-18-1.03142E-18
 -1       300 1.96215E-04-3.47077E-05-6.59769E-05-2.89585E-05 5.26071E-18-4.01536E-18
 -1       301 1.60791E-04-3.28268E-05-5.31793E-05-3.73239E-05 5.61390E-18-5.18130E-18
 -1       302 1.25738E-04-3.83524E-05-3.70626E-05-4.03538E-05 5.99202E-18-4.74254E-18
 -1       303 8.13753E-05-3.66195E-05-1.98650E-05-4.23107E-05 6.29960E-18-5.79423E-18
 -1       304 4.50508E-05-4.02778E-05-3.73327E-06-3.39161E-05 4.19006E-18-6.18582E-18
 -1       305 1.86942E-05-4.38472E-05 8.09122E-06-1.75646E-05 2.32563E-18-5.66030E-18
 -1       306 1.13171E-05-5.02502E-05 1.31316E-05-9.22398E-07 4.53824E-20-4.56625E-18
 -1       307 1.65536E-05-4.64323E-05 9.69401E-06 1.31343E-05-2.83460E-18-5.47586E-18
 -1       308 3.44483E-05-4.13429E-05 3.17741E-07 2.52576E-05-6.54312E-18-6.56923E-18
 -1       309 6.52493E-05-3.39376E-05-1.47464E-05 3.85457E-05-7.89519E-18-8.23200E-18
 -1       310 1.11164E-04-3.49702E-05-3.24910E-05 4.41684E-05-7.34780E-18-8.10822E-18
 -1       311 1.51498E-04-3.11790E-05-4.98291E-05 4.52483E-05-7.43208E-18-8.00361E-18
 -1       312 1.88425E-04-3.41798E-05-6.30916E-05 3.38558E-05-6.28567E-18-5.54341E-18
 -1       313 2.09877E-04-3.66640E-05-7.05832E-05 1.48576E-05-5.76904E-18-2.77499E-18
 -1       314 2.04171E-04-3.26511E-05-7.03476E-05-6.85690E-06-5.65225E-18 3.30555E-19
 -1       315 1.93594E-04-3.50637E-05-6.48260E-05-2.97389E-05-5.22725E-18 4.16761E-18
 -1       316 1.60509E-04-3.19618E-05-5.30650E-05-4.27712E-05-6.78865E-18 5.90784E-18
 -1       317 1.19872E-04-3.04091E-05-3.77206E-05-4.64602E-05-6.90649E-18 8.07815E-18
 -1       318 8.36316E-05-3.67328E-05-2.08290E-05-4.14741E-05-6.33644E-18 6.65948E-18
 -1       319 4.53775E-05-3.80737E-05-5.17648E-06-3.09597E-05-6.14417E-18 6.71771E-18
 -1       320 2.29946E-05-4.44917E-05 6.18603E-06-1.81006E-05-5.18617E-18 3.49999E-18
 -1       321 1.25012E-05-4.92179E-05 1.22723E-05-5.56210E-06-3.79100E-18 3.14990E-18
 -1       322 9.36628E-05-1.46470E-05-3.39273E-05-9.05167E-06-2.35875E-18-1.08025E-18
 -1       323 9.92012E-05-2.01686E-05-3.39287E-05-1.10157E-05-2.45806E-18 6.10784E-19
 -1       324 8.63095E-05-8.67296E-06-3.33212E-05-4.60414E-06-1.61857E-18-2.65561E-18
 -1       325 8.38508E-05-6.90847E-06-3.30130E-05-2.93635E-06-1.15400E-18-3.01253E-18
 -1       326 8.21925E-05-5.77196E-06-3.27832E-05-1.64006E-06-6.91068E-19-3.04266E-18
 -1       327 8.13897E-05-5.24141E-06-3.26638E-05-5.71795E-07-1.47710E-19-3.21152E-18
 -1       328 8.14694E-05-5.30822E-06-3.26696E-05 4.37659E-07 2.47864E-19-3.28393E-18
 -1       329 8.24143E-05-5.96022E-06-3.27983E-05 1.56114E-06 5.89024E-19-3.24673E-18
 -1       330 8.41294E-05-7.15845E-06-3.30262E-05 2.92692E-06 1.03714E-18-3.03923E-18
 -1       331 8.66125E-05-8.96350E-06-3.33271E-05 4.69088E-06 1.54341E-18-2.55862E-18
 -1       332 8.98442E-05-1.14872E-05-3.36452E-05 6.86665E-06 2.10264E-18-1.95788E-18
 -1       333 9.40122E-05-1.50921E-05-3.39008E-05 9.30089E-06 2.48287E-18-1.09235E-18
 -1       334 9.92546E-05-2.05293E-05-3.38422E-05 1.09579E-05 2.60352E-18 8.45213E-19
 -1       335 1.02832E-04-2.57605E-05-3.31094E-05 9.05773E-06 2.44448E-18 2.49674E-18
 -1       336 1.01463E-04-2.82817E-05-3.13305E-05 2.76157E-06 1.91332E-18 1.87147E-18
 -1       337 1.01210E-04-2.72369E-05-3.16552E-05-2.46111E-06-1.83007E-18 8.81516E-19
 -1       338 1.00847E-04-2.84453E-05-3.10014E-05 1.56621E-06-1.53038E-18 6.26146E-19
 -1       339 1.01281E-04-2.92379E-05-3.08593E-05 4.08499E-06-1.01592E-18 3.25042E-19
 -1       340 1.02443E-04-3.00809E-05-3.10058E-05 5.67317E-06-7.07999E-19-1.27254E-19
 -1       341 1.04203E-04-3.11597E-05-3.13055E-05 6.44207E-06-6.00332E-19 4.00827E-20
 -1       342 1.06421E-04-3.25691E-05-3.16598E-05 6.25146E-06-1.85193E-19 3.11712E-19
 -1       343 1.08918E-04-3.43075E-05-3.19928E-05 4.81057E-06-5.14945E-20 4.59270E-19
 -1       344 1.11390E-04-3.61657E-05-3.22619E-05 1.83294E-06 3.80007E-20 7.22788E-19
 -1       345 1.13282E-04-3.75560E-05-3.24783E-05-2.66056E-06-1.29833E-19 8.54768E-19
 -1       346 1.13746E-04-3.74460E-05-3.27176E-05-7.84518E-06-2.98885E-19 8.50347E-19
 -1       347 1.12032E-04-3.48713E-05-3.30787E-05-1.16714E-05-4.37246E-19 3.88619E-19
 -1       348 1.08444E-04-3.01552E-05-3.35648E-05-1.13765E-05-1.10574E-18 3.81142E-19
 -1       349 1.05059E-04-2.57972E-05-3.39824E-05-5.56938E-06-1.18763E-18-6.15753E-20
 -1       350 1.04559E-04-2.50561E-05-3.40857E-05 3.48681E-06-1.51039E-18-1.66834E-18
 -1       351 1.07466E-04-2.85649E-05-3.38266E-05 1.08482E-05-1.60539E-18-1.80827E-18
 -1       352 1.11531E-04-3.35944E-05-3.34122E-05 1.30061E-05-7.30517E-19-2.36937E-18
 -1       353 1.14228E-04-3.70859E-05-3.30757E-05 1.02965E-05-8.28852E-20-2.46991E-18
 -1       354 1.14668E-04-3.80088E-05-3.28759E-05 5.32459E-06 3.58492E-19-2.43055E-18
 -1       355 1.13377E-04-3.70706E-05-3.27263E-05 4.84868E-07 8.98437E-19-1.69804E-18
 -1       356 1.11219E-04-3.53670E-05-3.25271E-05-3.04056E-06 1.26663E-18-1.19953E-18
 -1       357 1.08821E-04-3.36421E-05-3.22320E-05-5.05762E-06 1.23119E-18-6.97827E-19
 -1       358 1.06512E-04-3.22138E-05-3.18481E-05-5.85076E-06 5.56240E-19-2.31088E-19
 -1       359 1.04427E-04-3.11382E-05-3.14106E-05-5.82219E-06 1.25855E-18 1.39418E-19
 -1       360 1.02608E-04-3.03634E-05-3.09599E-05-5.32322E-06 8.72310E-19-3.25803E-19
 -1       361 1.01056E-04-2.98146E-05-3.05285E-05-4.60669E-06 4.62967E-19 2.22977E-19
 -1       362 9.97574E-05-2.94269E-05-3.01375E-05-3.83348E-06 2.49883E-20 8.28048E-19
 -1       363 9.86899E-05-2.91523E-05-2.97978E-05-3.09540E-06 5.50024E-19 2.09846E-20
 -1       364 9.78275E-05-2.89574E-05-2.95122E-05-2.43804E-06-5.38914E-20-1.21771E-18
 -1       365 9.71428E-05-2.88193E-05-2.92785E-05-1.87850E-06-4.45620E-19-2.92669E-19
 -1       366 9.66085E-05-2.87222E-05-2.90916E-05-1.41752E-06-1.26948E-18 1.07067E-18
 -1       367 9.61989E-05-2.86549E-05-2.89454E-05-1.04733E-06-7.35423E-19 1.05094E-18
 -1       368 9.58906E-05-2.86094E-05-2.88332E-05-7.56427E-07 1.42494E-19 6.13467E-19
 -1       369 9.56632E-05-2.85797E-05-2.87489E-05-5.32266E-07 9.37495E-20-6.10459E-19
 -1       370 9.54992E-05-2.85614E-05-2.86867E-05-3.62769E-07-4.71533E-19-8.54468E-19
 -1       371 9.53839E-05-2.85510E-05-2.86420E-05-2.37034E-07-1.17421E-18-6.39315E-19
 -1       372 9.53057E-05-2.85461E-05-2.86108E-05-1.45637E-07 1.59746E-19-1.08552E-18
 -1       373 9.52548E-05-2.85450E-05-2.85896E-05-8.06865E-08 1.50970E-18-1.24840E-18
 -1       374 9.52239E-05-2.85461E-05-2.85760E-05-3.57363E-08 3.98242E-19 5.90223E-19
 -1       375 9.52072E-05-2.85487E-05-2.85678E-05-5.64248E-09-9.74101E-19 2.60166E-19
 -1       376 9.52003E-05-2.85520E-05-2.85635E-05 1.36041E-08 1.00201E-18-2.93514E-19
 -1       377 9.51999E-05-2.85557E-05-2.85617E-05 2.50398E-08 1.35432E-18-1.57019E-21
 -1       378 9.52037E-05-2.85596E-05-2.85617E-05 3.08738E-08 1.36283E-19 1.06311E-18
 -1       379 9.52098E-05-2.85635E-05-2.85627E-05 3.26089E-08 1.52087E-19 9.78561E-19
 -1       380 9.52170E-05-2.85674E-05-2.85641E-05 3.11421E-08-3.16624E-18 1.05587E-18
 -1       381 9.52243E-05-2.85715E-05-2.85656E-05 2.69202E-08-1.93871E-18-2.59958E-19
 -1       382 9.52303E-05-2.85748E-05-2.85667E-05 2.06270E-08 5.79090E-20-1.01818E-18
 -1       383 1.00733E-04-2.91060E-05-3.06583E-05-7.83621E-07 1.31459E-18 1.43303E-18
 -1       384 1.01037E-04-2.96626E-05-3.05672E-05-2.84315E-06 8.97825E-19 1.07635E-18
 -1       385 1.02181E-04-3.03266E-05-3.07866E-05-4.02183E-06 6.08991E-19 6.73683E-19
 -1       386 1.03867E-04-3.11622E-05-3.11599E-05-4.47998E-06 2.80704E-19 3.82162E-19
 -1       387 1.05809E-04-3.21598E-05-3.15715E-05-4.15547E-06 3.47735E-19 3.82008E-19
 -1       388 1.07689E-04-3.32418E-05-3.19193E-05-2.88404E-06 3.39109E-19 7.65068E-19
 -1       389 1.09117E-04-3.42188E-05-3.21159E-05-5.41001E-07 5.97661E-19 6.62643E-19
 -1       390 1.09621E-04-3.47383E-05-3.21087E-05 2.74123E-06 5.16343E-20 8.03191E-19
 -1       391 1.08741E-04-3.43156E-05-3.19072E-05 6.29840E-06 5.90140E-19 8.96371E-19
 -1       392 1.06304E-04-3.25946E-05-3.15926E-05 8.80068E-06 3.59817E-19 7.63465E-19
 -1       393 1.02854E-04-2.98345E-05-3.12893E-05 8.63347E-06 1.20316E-18 4.76069E-19
 -1       394 9.98525E-05-2.72494E-05-3.11073E-05 4.98811E-06 7.56619E-19 5.47726E-20
 -1       395 9.89709E-05-2.63769E-05-3.10994E-05-1.04249E-06 8.23574E-19-6.66783E-19
 -1       396 1.00828E-04-2.78277E-05-3.12693E-05-6.75193E-06 8.92141E-19-1.41096E-18
 -1       397 1.04444E-04-3.06981E-05-3.15909E-05-9.66492E-06 1.57522E-18-1.82767E-18
 -1       398 1.08049E-04-3.33738E-05-3.20001E-05-9.14481E-06 8.53899E-19-1.47817E-18
 -1       399 1.10409E-04-3.48788E-05-3.23813E-05-6.30855E-06-3.24652E-19-2.06133E-18
 -1       400 1.11187E-04-3.51305E-05-3.26141E-05-2.76151E-06-6.35735E-19-2.25831E-18
 -1       401 1.10662E-04-3.45533E-05-3.26372E-05 3.22508E-07-1.91001E-19-1.74497E-18
 -1       402 1.09300E-04-3.36152E-05-3.24518E-05 2.44735E-06 1.13231E-18-2.19489E-18
 -1       403 1.07516E-04-3.26264E-05-3.21051E-05 3.60369E-06 1.03822E-18-2.40532E-18
 -1       404 1.05604E-04-3.17357E-05-3.16620E-05 4.00493E-06-1.63156E-18-2.68723E-18
 -1       405 1.03750E-04-3.09907E-05-3.11828E-05 3.90796E-06-1.32185E-18-1.61694E-18
 -1       406 1.02060E-04-3.03912E-05-3.07133E-05 3.53019E-06-1.19055E-19-1.06150E-18
 -1       407 1.00586E-04-2.99190E-05-3.02827E-05 3.02718E-06 8.26933E-19 1.43210E-19
 -1       408 9.93424E-05-2.95525E-05-2.99063E-05 2.49803E-06 3.42110E-19-5.51238E-19
 -1       409 9.83213E-05-2.92716E-05-2.95891E-05 1.99936E-06 7.15491E-19-4.23398E-19
 -1       410 9.75028E-05-2.90591E-05-2.93298E-05 1.55905E-06-5.65071E-19 1.05503E-18
 -1       411 9.68610E-05-2.89007E-05-2.91231E-05 1.18703E-06-1.11796E-18-7.46986E-19
 -1       412 9.63681E-05-2.87845E-05-2.89621E-05 8.82888E-07-1.27003E-19-1.97713E-18
 -1       413 9.59974E-05-2.87011E-05-2.88395E-05 6.40759E-07 5.56104E-19-1.77035E-18
 -1       414 9.57247E-05-2.86426E-05-2.87481E-05 4.52417E-07 2.47093E-18-1.73590E-18
 -1       415 9.55290E-05-2.86029E-05-2.86816E-05 3.09031E-07 1.77237E-18 2.39982E-19
 -1       416 9.53926E-05-2.85770E-05-2.86345E-05 2.02153E-07 7.21114E-19 6.69452E-19
 -1       417 9.53009E-05-2.85612E-05-2.86021E-05 1.24213E-07 3.53951E-19 5.38832E-19
 -1       418 9.52423E-05-2.85526E-05-2.85809E-05 6.87172E-08-6.80741E-19 7.29368E-19
 -1       419 9.52076E-05-2.85488E-05-2.85678E-05 3.02757E-08-2.59005E-18 7.96071E-19
 -1       420 9.51898E-05-2.85483E-05-2.85605E-05 4.53633E-09-1.33822E-18 5.73726E-19
 -1       421 9.51836E-05-2.85499E-05-2.85572E-05-1.19237E-08 9.40162E-20-1.45630E-19
 -1       422 9.51850E-05-2.85528E-05-2.85566E-05-2.17164E-08 1.35537E-18-7.51491E-19
 -1       423 9.51911E-05-2.85563E-05-2.85578E-05-2.67555E-08 2.65919E-18-8.38065E-19
 -1       424 9.51999E-05-2.85602E-05-2.85599E-05-2.83517E-08 4.32725E-19-2.57671E-19
 -1       425 9.52096E-05-2.85642E-05-2.85623E-05-2.72686E-08 2.71411E-19-1.60006E-19
 -1       426 9.52192E-05-2.85682E-05-2.85648E-05-2.38299E-08 6.73649E-19 1.62296E-19
 -1       427 9.52279E-05-2.85721E-05-2.85668E-05-1.80634E-08-1.06733E-18-1.33636E-18
 -1       428 9.52328E-05-2.85748E-05-2.85678E-05-1.36933E-08-3.91181E-19-1.37647E-18
 -1       429 9.52447E-05-2.85939E-05-2.85646E-05-2.49834E-08-7.40212E-19-3.49507E-18
 -1       430 9.52397E-05-2.85862E-05-2.85658E-05-2.43119E-08-1.24377E-18-3.50210E-20
 -1       431 9.52359E-05-2.85803E-05-2.85667E-05-2.01543E-08-3.53883E-19 2.75353E-18
 -1       432 9.52486E-05-2.86007E-05-2.85634E-05-2.24314E-08-1.36244E-18-6.75257E-18
 -1       433 9.52516E-05-2.86063E-05-2.85623E-05-1.75008E-08-3.27298E-20-8.83835E-19
 -1       434 9.52536E-05-2.86102E-05-2.85614E-05-1.10421E-08 3.78796E-19 2.66121E-18
 -1       435 9.52545E-05-2.86122E-05-2.85610E-05-3.74688E-09-1.27223E-18 8.59024E-19
 -1       436 9.52545E-05-2.86122E-05-2.85610E-05 3.81433E-09-2.73139E-18 1.55127E-19
 -1       437 9.52536E-05-2.86102E-05-2.85614E-05 1.11137E-08-2.25682E-18 1.66945E-19
 -1       438 9.52517E-05-2.86063E-05-2.85623E-05 1.74773E-08 2.10536E-20 4.63623E-19
 -1       439 9.52487E-05-2.86007E-05-2.85634E-05 2.24370E-08 4.36136E-19 2.77236E-18
 -1       440 9.52446E-05-2.85938E-05-2.85646E-05 2.50461E-08-1.64458E-20 3.14216E-18
 -1       441 9.52396E-05-2.85861E-05-2.85658E-05 2.45347E-08-5.42623E-19 3.31679E-18
 -1       442 5.97363E-05-4.21261E-05-7.68653E-06 4.28141E-05-1.20120E-18 5.95562E-18
 -1       443 1.19633E-05-2.16671E-05 4.02007E-06-2.24610E-08 3.62604E-19 5.33599E-18
 -1       444 2.79494E-05-2.81634E-05 7.26708E-08 3.00698E-05-1.75611E-18 5.85247E-18
 -1       445 9.80690E-05-5.24501E-05-1.97034E-05 4.09154E-05 7.63600E-19 2.67832E-18
 -1       446 1.36712E-04-5.36316E-05-3.55331E-05 2.29114E-05 2.35279E-18 6.29134E-19
 -1       447 8.95921E-05-1.11927E-05-3.36585E-05-6.77261E-06-2.02777E-18-2.18109E-18
 -1       448 1.59897E-04-2.32780E-05-5.82825E-05-4.59400E-07 4.96637E-18-6.47451E-19
 -1       449 1.63549E-04-1.50662E-05-6.32120E-05-7.06820E-07 5.46728E-18-1.28588E-18
 -1       450 1.59447E-04-1.67861E-05-6.09176E-05 8.68559E-07 5.23699E-18-5.95835E-19
 -1       451 1.58312E-04-3.04294E-05-5.45974E-05-3.19471E-06 4.90490E-18-2.83544E-19
 -1       452 1.47468E-04-4.77548E-05-4.27333E-05-1.26271E-05 3.39517E-18-5.50360E-19
 -1       453 1.22669E-04-5.78636E-05-2.78586E-05-3.18339E-05 1.47775E-18-1.23233E-18
 -1       454 8.93555E-05-5.13663E-05-1.61889E-05-4.39840E-05 1.25043E-19-2.91986E-18
 -1       455 4.16328E-05-3.54510E-05-2.83946E-06-3.82350E-05-7.11296E-19-5.32212E-18
 -1       456 1.68650E-05-2.18884E-05 2.23779E-06-1.51617E-05-5.20449E-19-5.62695E-18
 -1       457 1.35437E-05-2.52485E-05 4.61881E-06 1.08386E-05 5.29396E-23-5.60725E-18
 -1       458 3.57950E-05-3.45108E-05-9.23779E-07 3.46782E-05-4.69997E-19-5.88042E-18
 -1       459 7.13504E-05-4.64602E-05-1.09438E-05 4.35740E-05-1.37526E-18-4.76363E-18
 -1       460 1.10672E-04-5.49494E-05-2.39908E-05 3.78863E-05-1.63213E-18-3.62880E-18
 -1       461 1.44119E-04-5.15895E-05-3.95843E-05 1.78115E-05-3.20922E-18-4.32516E-19
 -1       462 1.56900E-04-3.71812E-05-5.12046E-05 5.46232E-06-4.55143E-18-4.12505E-19
 -1       463 1.58906E-04-2.08912E-05-5.90376E-05-1.86015E-06-5.88307E-18-4.90538E-19
 -1       464 1.59809E-04-1.35178E-05-6.25092E-05-5.59445E-08-6.28911E-18-9.17813E-19
 -1       465 1.59371E-04-1.92495E-05-5.99037E-05 2.80834E-06-5.10147E-18-1.36150E-18
 -1       466 1.59955E-04-3.37301E-05-5.38095E-05-4.96695E-06-4.67673E-18-4.66292E-19
 -1       467 1.46914E-04-4.76326E-05-4.24522E-05-1.62580E-05-3.72681E-18 1.83065E-19
 -1       468 1.24254E-04-5.43511E-05-2.99653E-05-3.11270E-05-1.62535E-18 2.14024E-18
 -1       469 8.85866E-05-5.17984E-05-1.58141E-05-4.25309E-05 5.35219E-19 2.86297E-18
 -1       470 5.61114E-05-3.98658E-05-6.86882E-06-4.20361E-05 1.75018E-19 3.41444E-18
 -1       471 2.19700E-05-2.78236E-05 2.27299E-06-2.41597E-05-3.17214E-19 3.35023E-18
 -1       472 1.51190E-04-4.25008E-05-4.66074E-05 8.23691E-06 3.98585E-18-6.87367E-19
 -1       473 9.98581E-05-2.60226E-05-3.16291E-05 1.69416E-06 1.82328E-18 3.56978E-20
 -1       474 8.44838E-05-9.38284E-06-3.21996E-05-1.24139E-06-8.29142E-19-2.68577E-18
 -1       475 8.69000E-05-1.13188E-05-3.24081E-05-2.10761E-06-1.23175E-18-2.53112E-18
 -1       476 8.26098E-05-7.94856E-06-3.20090E-05-1.40752E-07 9.09154E-21-2.92975E-18
 -1       477 8.32439E-05-8.45227E-06-3.20656E-05 3.87389E-07 3.87084E-19-3.03666E-18
 -1       478 8.48304E-05-9.70703E-06-3.22099E-05 1.09926E-06 7.09621E-19-2.78573E-18
 -1       479 8.73087E-05-1.17196E-05-3.24128E-05 2.11144E-06 1.31006E-18-2.42646E-18
 -1       480 9.05310E-05-1.44801E-05-3.26145E-05 3.39424E-06 1.65410E-18-1.88891E-18
 -1       481 9.44467E-05-1.81292E-05-3.27273E-05 4.77219E-06 2.09955E-18-1.37774E-18
 -1       482 1.25199E-04-6.06421E-05-2.76385E-05 2.54088E-05-1.20739E-18-4.99088E-19
 -1       483 1.00025E-04-2.76256E-05-3.10097E-05-1.97998E-06 1.29138E-18-3.30570E-19
 -1       484 9.87237E-05-2.47038E-05-3.17124E-05-6.87017E-07-1.74302E-18-6.25180E-19
 -1       485 1.42104E-04-3.22132E-05-4.75679E-05-1.07249E-05 3.16647E-18-2.45396E-18
 -1       486 9.91950E-05-2.65595E-05-3.11201E-05 3.07014E-06-1.29125E-18-5.54324E-19
 -1       487 9.98137E-05-2.78746E-05-3.08264E-05 5.78806E-06-1.02092E-18-5.12183E-19
 -1       488 1.00899E-04-2.92261E-05-3.07157E-05 7.60993E-06-5.96178E-19-5.79256E-19
 -1       489 1.02634E-04-3.09886E-05-3.07074E-05 8.51174E-06-1.96866E-19-5.10951E-19
 -1       490 1.05184E-04-3.34171E-05-3.07634E-05 8.26917E-06-2.41627E-19-5.61592E-19
 -1       491 1.08643E-04-3.65586E-05-3.09035E-05 6.48803E-06 2.71260E-19-4.86287E-19
 -1       492 1.12820E-04-3.99744E-05-3.12343E-05 2.73828E-06 8.80265E-20-2.98351E-19
 -1       493 1.16858E-04-4.23351E-05-3.19598E-05-3.09105E-06 1.97402E-19 5.68429E-19
 -1       494 1.19028E-04-4.13631E-05-3.33145E-05-9.82036E-06-3.90903E-19 1.28461E-18
 -1       495 1.17442E-04-3.51493E-05-3.53368E-05-1.41665E-05-9.88262E-19 9.19173E-19
 -1       496 1.12871E-04-2.57247E-05-3.74809E-05-1.17066E-05-2.03821E-18 1.93733E-19
 -1       497 1.09565E-04-1.99464E-05-3.85628E-05-1.58695E-06-2.72618E-18-1.33370E-18
 -1       498 1.11515E-04-2.29960E-05-3.80707E-05 1.00213E-05-2.21156E-18-2.09819E-18
 -1       499 1.16312E-04-3.21116E-05-3.61742E-05 1.52873E-05-1.02282E-18-2.12282E-18
 -1       500 1.19269E-04-3.99155E-05-3.40527E-05 1.28005E-05-3.58763E-19-2.15413E-18
 -1       501 1.18298E-04-4.25468E-05-3.24852E-05 6.41944E-06 2.56682E-19-2.03721E-18
 -1       502 1.14763E-04-4.10809E-05-3.15905E-05 9.73500E-08 7.84915E-19-1.52927E-18
 -1       503 1.10562E-04-3.78889E-05-3.11553E-05-4.39966E-06 1.22555E-18-2.67134E-18
 -1       504 1.06841E-04-3.46744E-05-3.09352E-05-6.91667E-06 1.25958E-18-3.28283E-18
 -1       505 1.03945E-04-3.21535E-05-3.07713E-05-7.89960E-06 1.15768E-18-2.85416E-18
 -1       506 1.01809E-04-3.04293E-05-3.05923E-05-7.87393E-06 1.04813E-18-2.95156E-18
 -1       507 1.00248E-04-2.93557E-05-3.03819E-05-7.26448E-06 4.49791E-19-2.40840E-18
 -1       508 9.90898E-05-2.87385E-05-3.01490E-05-6.36997E-06 9.19405E-19-2.05216E-18
 -1       509 9.82086E-05-2.84141E-05-2.99101E-05-5.38349E-06 4.69130E-19-2.04551E-18
 -1       510 9.75236E-05-2.82657E-05-2.96802E-05-4.42062E-06 4.27780E-19-1.06314E-18
 -1       511 9.69838E-05-2.82175E-05-2.94696E-05-3.54390E-06 5.85624E-20-1.07821E-18
 -1       512 9.65564E-05-2.82231E-05-2.92843E-05-2.78149E-06-3.49203E-19-4.83494E-19
 -1       513 9.62190E-05-2.82548E-05-2.91263E-05-2.14030E-06-5.44697E-19-1.17674E-18
 -1       514 9.59549E-05-2.82971E-05-2.89952E-05-1.61505E-06-1.55040E-18-9.60763E-19
 -1       515 9.57506E-05-2.83415E-05-2.88889E-05-1.19419E-06-7.77779E-19-1.40811E-18
 -1       516 9.55949E-05-2.83834E-05-2.88044E-05-8.63558E-07 3.49860E-19-1.53770E-18
 -1       517 9.54784E-05-2.84208E-05-2.87386E-05-6.08593E-07-1.42450E-18-2.52179E-18
 -1       518 9.53929E-05-2.84529E-05-2.86882E-05-4.15535E-07-1.21746E-18-3.10850E-18
 -1       519 9.53316E-05-2.84798E-05-2.86505E-05-2.72060E-07-4.14091E-19-3.84506E-18
 -1       520 9.52889E-05-2.85018E-05-2.86229E-05-1.67541E-07 1.10963E-18-2.70818E-18
 -1       521 9.52603E-05-2.85195E-05-2.86031E-05-9.30854E-08 1.36722E-18-4.10073E-18
 -1       522 9.52420E-05-2.85335E-05-2.85893E-05-4.14243E-08 3.70751E-19-2.60604E-18
 -1       523 9.52313E-05-2.85445E-05-2.85800E-05-6.75605E-09-6.40851E-19-9.35675E-19
 -1       524 9.52259E-05-2.85531E-05-2.85740E-05 1.54353E-08 1.37431E-18-1.29804E-18
 -1       525 9.52242E-05-2.85598E-05-2.85704E-05 2.85612E-08-9.12327E-20-2.07456E-18
 -1       526 9.52249E-05-2.85654E-05-2.85684E-05 3.51010E-08 2.94027E-19-5.28511E-19
 -1       527 9.52272E-05-2.85702E-05-2.85673E-05 3.67364E-08-7.38573E-19 9.43633E-19
 -1       528 9.52306E-05-2.85749E-05-2.85667E-05 3.45128E-08-2.61604E-18 2.18067E-18
 -1       529 1.01627E-04-2.99076E-05-3.07351E-05-5.80760E-06 7.44170E-19-2.96829E-19
 -1       530 1.03211E-04-3.12996E-05-3.08223E-05-6.27148E-06 2.78978E-19-3.42178E-19
 -1       531 1.05285E-04-3.30519E-05-3.09644E-05-5.63521E-06 6.92677E-20-2.68638E-19
 -1       532 1.07721E-04-3.50948E-05-3.11370E-05-3.67097E-06 1.66840E-19 3.11006E-19
 -1       533 1.10188E-04-3.70387E-05-3.13638E-05-2.39008E-07 7.30367E-20 8.97806E-19
 -1       534 1.12023E-04-3.80400E-05-3.17193E-05 4.39238E-06 2.54884E-19 1.18420E-18
 -1       535 1.12275E-04-3.69308E-05-3.23006E-05 9.09097E-06 6.76030E-19 1.23513E-18
 -1       536 1.10294E-04-3.30398E-05-3.31225E-05 1.16743E-05 7.00289E-19 1.22283E-18
 -1       537 1.06806E-04-2.75190E-05-3.39956E-05 9.68240E-06 1.35096E-18 6.98959E-19
 -1       538 1.04162E-04-2.35671E-05-3.45669E-05 2.82437E-06 1.23798E-18 2.00808E-19
 -1       539 1.04729E-04-2.42637E-05-3.45073E-05-5.80088E-06 1.57014E-18-3.26968E-20
 -1       540 1.07969E-04-2.89357E-05-3.38827E-05-1.16362E-05 1.80799E-18-1.28754E-18
 -1       541 1.11449E-04-3.43691E-05-3.30372E-05-1.22953E-05 7.81208E-19-3.16404E-19
 -1       542 1.12991E-04-3.75734E-05-3.23351E-05-9.02857E-06-7.41212E-20-8.26914E-19
 -1       543 1.12424E-04-3.81133E-05-3.18613E-05-4.22120E-06-3.79950E-19-4.18836E-19
 -1       544 1.10486E-04-3.68438E-05-3.15746E-05 1.68633E-07-6.19557E-19-1.05438E-18
 -1       545 1.08070E-04-3.49022E-05-3.13697E-05 3.29729E-06 4.67731E-19-1.44647E-18
 -1       546 1.05726E-04-3.30243E-05-3.11656E-05 5.09077E-06 5.05203E-19 2.92956E-19
 -1       547 1.03676E-04-3.15168E-05-3.09291E-05 5.81332E-06-6.70908E-20 6.81558E-19
 -1       548 1.01961E-04-3.04248E-05-3.06591E-05 5.80247E-06-1.29067E-18-1.06207E-18
 -1       549 1.00550E-04-2.96826E-05-3.03708E-05 5.35318E-06-6.11917E-19-2.24911E-18
 -1       550 9.93973E-05-2.91992E-05-3.00828E-05 4.68454E-06-1.91947E-19-1.49331E-18
 -1       551 9.84591E-05-2.88946E-05-2.98110E-05 3.94325E-06 7.79742E-19-4.52067E-19
 -1       552 9.77004E-05-2.87082E-05-2.95657E-05 3.21893E-06-1.98272E-19-4.92852E-20
 -1       553 9.70921E-05-2.85983E-05-2.93523E-05 2.56059E-06-2.25266E-19 3.87609E-19
 -1       554 9.66100E-05-2.85368E-05-2.91723E-05 1.99028E-06 1.98807E-19 2.68034E-19
 -1       555 9.62330E-05-2.85056E-05-2.90244E-05 1.51332E-06-1.79609E-19-1.98476E-18
 -1       556 9.59425E-05-2.84930E-05-2.89057E-05 1.12542E-06-5.76669E-19-1.15761E-18
 -1       557 9.57226E-05-2.84915E-05-2.88123E-05 8.17372E-07 1.20783E-18 2.04649E-19
 -1       558 9.55591E-05-2.84963E-05-2.87404E-05 5.77924E-07 1.67379E-18 1.14973E-18
 -1       559 9.54401E-05-2.85043E-05-2.86862E-05 3.95556E-07 4.91870E-19 2.01616E-18
 -1       560 9.53557E-05-2.85136E-05-2.86462E-05 2.59450E-07 8.40231E-19 1.86052E-18
 -1       561 9.52976E-05-2.85230E-05-2.86174E-05 1.60003E-07-5.80474E-19 1.80232E-18
 -1       562 9.52593E-05-2.85318E-05-2.85973E-05 8.90148E-08-1.47733E-18 4.21825E-18
 -1       563 9.52354E-05-2.85399E-05-2.85837E-05 3.96922E-08-2.00981E-18 2.04626E-18
 -1       564 9.52219E-05-2.85469E-05-2.85749E-05 6.55929E-09 3.51424E-19 1.05678E-18
 -1       565 9.52157E-05-2.85530E-05-2.85697E-05-1.46803E-08 7.69708E-19 3.96977E-19
 -1       566 9.52145E-05-2.85583E-05-2.85669E-05-2.72915E-08 2.09509E-18 1.05583E-18
 -1       567 9.52163E-05-2.85630E-05-2.85657E-05-3.36481E-08 1.38009E-18 1.63846E-18
 -1       568 9.52201E-05-2.85673E-05-2.85655E-05-3.54413E-08-1.27311E-19 6.97636E-19
 -1       569 9.52250E-05-2.85716E-05-2.85658E-05-3.36902E-08-8.39307E-19 2.23399E-18
 -1       570 9.52305E-05-2.85760E-05-2.85662E-05-2.86760E-08 6.89449E-19 3.79608E-18
 -1       571 9.52510E-05-2.85944E-05-2.85671E-05-2.47179E-08 2.74509E-18-3.11911E-18
 -1       572 9.52539E-05-2.85974E-05-2.85671E-05-1.75274E-08 1.49542E-18 1.59529E-18
 -1       573 9.52404E-05-2.85846E-05-2.85668E-05-3.18067E-08 1.87061E-19-1.30473E-18
 -1       574 9.52466E-05-2.85901E-05-2.85671E-05-2.96601E-08 2.27580E-19-3.81235E-18
 -1       575 9.52555E-05-2.85991E-05-2.85670E-05-9.04918E-09 5.75881E-20-6.38136E-19
 -1       576 9.52560E-05-2.85997E-05-2.85670E-05 3.21593E-11 9.01811E-19 4.04095E-19
 -1       577 9.52555E-05-2.85991E-05-2.85670E-05 9.11864E-09 1.25003E-18 2.05303E-19
 -1       578 9.52539E-05-2.85974E-05-2.85671E-05 1.74765E-08 1.32258E-18 1.76371E-18
 -1       579 9.52510E-05-2.85945E-05-2.85671E-05 2.46893E-08 9.56342E-19 7.29965E-19
 -1       580 9.52465E-05-2.85902E-05-2.85670E-05 2.97539E-08-5.57360E-19 2.64885E-18
 -1       581 9.52403E-05-2.85846E-05-2.85667E-05 3.16196E-08-8.09532E-19 3.10811E-18
 -1       582 2.70592E-05-1.52123E-05-4.48525E-06 1.63593E-05-9.17178E-20 4.63136E-18
 -1       583 9.10099E-05-5.06807E-05-1.70285E-05 4.13668E-05-2.28270E-18 2.92529E-18
 -1       584 1.00572E-04-2.87668E-05-3.07651E-05-4.38839E-06 9.48088E-19-3.25787E-19
 -1       585 2.73016E-05-1.52042E-05-4.54874E-06-1.52908E-05 1.12825E-18 3.38337E-18
 -1       586 5.75061E-05-3.28015E-05-1.00564E-05 3.94862E-05-2.46391E-18 4.99829E-18
 -1       587 9.71142E-05-2.09770E-05-3.26520E-05-4.95188E-06-2.21309E-18-8.09194E-19
 -1       588 1.19897E-04-6.02963E-05-2.53824E-05-2.88717E-05 1.32322E-18-2.75087E-19
 -1       589 1.41361E-04-2.88948E-05-4.87267E-05-1.14297E-05-3.97814E-18 1.73271E-18
 -1       590 1.38229E-04-5.85568E-05-3.43058E-05-1.07251E-05 9.44362E-19 1.09987E-18
 -1       591 8.30276E-05-8.25687E-06-3.20564E-05-6.27695E-07-4.37579E-19-2.77546E-18
 -1       592 1.33719E-04-8.04997E-06-5.44437E-05 1.60950E-06 5.01211E-18-3.98132E-19
 -1       593 4.12965E-05-2.28753E-05-7.29978E-06-3.07828E-05-1.61513E-18-4.39060E-18
 -1       594 1.37702E-04-1.31289E-05-5.39460E-05-8.03209E-06 4.63242E-18-1.32291E-18
 -1       595 1.39752E-04-2.09788E-05-5.14334E-05 1.00189E-05 4.53141E-18 4.23993E-19
 -1       596 1.44174E-04-3.99393E-05-4.50300E-05 6.73086E-06 3.12796E-18 8.77208E-19
 -1       597 1.13597E-04-5.86082E-05-2.34390E-05-3.33983E-05-1.80640E-18-5.77313E-19
 -1       598 1.41219E-04-2.66041E-05-4.96713E-05 1.24588E-05-3.97539E-18-3.21724E-18
 -1       599 7.47981E-05-4.23058E-05-1.35608E-05-4.28191E-05-2.45777E-18-3.02044E-18
 -1       600 2.31716E-05-1.39821E-05-3.32980E-06 1.93908E-06 1.03484E-19-4.63623E-18
 -1       601 3.35048E-05-2.19421E-05-4.47571E-06 2.74634E-05 1.17653E-18-5.55230E-18
 -1       602 6.55620E-05-3.95007E-05-1.07866E-05 4.25245E-05 1.43006E-18-4.13262E-18
 -1       603 1.01967E-04-5.52454E-05-1.98305E-05 3.90177E-05 1.54483E-18-2.00266E-18
 -1       604 1.33462E-04-6.15668E-05-3.08965E-05 1.90907E-05 1.87618E-19 3.88047E-19
 -1       605 1.45416E-04-4.64488E-05-4.26965E-05-4.35408E-06-2.68777E-18 1.67008E-18
 -1       606 1.34726E-04-1.26783E-05-5.29730E-05-7.16635E-06-4.87912E-18 7.11561E-19
 -1       607 1.32102E-04-9.95913E-06-5.30224E-05 5.37542E-06-4.82692E-18-2.04509E-18
 -1       608 1.45424E-04-4.37899E-05-4.38914E-05 6.36498E-06-2.71352E-18-3.38792E-18
 -1       609 1.37069E-04-5.96113E-05-3.33519E-05-1.31453E-05 1.72583E-19-1.50253E-18
 -1       610 8.19058E-05-4.48073E-05-1.55338E-05-4.05309E-05 2.27540E-18 2.51569E-18
 -1       611 4.87362E-05-2.79993E-05-8.33747E-06-3.52211E-05 1.31454E-18 2.30832E-18
 -1       612 1.41014E-04-5.34505E-05-3.78002E-05 2.16148E-07 1.00645E-18-3.09273E-18
 -1       613 9.98959E-05-2.41712E-05-3.24569E-05 5.75731E-06 2.32256E-18 3.91285E-19
 -1       614 9.01161E-05-1.40602E-05-3.26235E-05-3.22390E-06-1.62009E-18-2.16599E-18
 -1       615 3.78181E-05-1.43537E-05-9.44844E-06-1.57195E-05-9.54858E-19-4.05104E-18
 -1       616 9.52331E-05-2.85781E-05-2.85665E-05 3.10883E-08-1.86417E-18 3.06480E-18
 -1       617 8.49821E-05-1.17030E-05-3.14092E-05-4.11872E-07 4.64706E-19-2.61340E-18
 -1       618 8.36592E-05-1.06117E-05-3.13095E-05-3.43512E-07 1.83785E-19-2.73161E-18
 -1       619 9.04158E-05-1.63369E-05-3.17528E-05 3.06412E-07 1.31341E-18-1.95506E-18
 -1       620 9.40159E-05-1.96902E-05-3.18605E-05 9.10009E-07 1.59952E-18-1.31781E-18
 -1       621 1.37718E-04-5.26852E-05-3.66456E-05 4.11833E-06-7.03262E-19-4.05390E-18
 -1       622 9.75339E-05-2.39602E-05-3.15223E-05-1.81242E-07 1.61857E-18-9.08286E-19
 -1       623 9.66242E-05-2.46313E-05-3.08512E-05 4.70126E-06-1.10593E-18-1.12488E-18
 -1       624 9.72768E-05-2.63393E-05-3.04006E-05 7.40306E-06-8.99113E-19-9.49869E-19
 -1       625 9.83743E-05-2.82670E-05-3.00458E-05 9.43216E-06-2.53364E-19-9.87594E-19
 -1       626 1.00339E-04-3.09098E-05-2.97562E-05 1.07078E-05-3.08409E-19-1.09030E-18
 -1       627 1.03649E-04-3.46723E-05-2.95632E-05 1.09537E-05 1.49376E-19-9.44771E-19
 -1       628 1.08736E-04-3.96541E-05-2.96062E-05 9.58620E-06 5.89730E-19-3.12642E-19
 -1       629 1.15519E-04-4.50349E-05-3.02045E-05 5.72595E-06 7.21330E-19 6.10664E-19
 -1       630 1.22786E-04-4.84557E-05-3.18619E-05-1.40821E-06 3.33003E-19 8.58197E-19
 -1       631 1.26973E-04-4.54144E-05-3.50769E-05-1.05298E-05-8.39889E-19 1.15550E-18
 -1       632 1.24437E-04-3.24451E-05-3.96813E-05-1.54616E-05-2.34727E-18 7.25563E-19
 -1       633 1.16927E-04-1.52212E-05-4.39019E-05 5.92377E-06-3.50547E-18-4.10923E-19
 -1       634 1.21700E-04-2.68656E-05-4.09893E-05 1.59369E-05-2.15342E-18-1.45527E-18
 -1       635 1.26073E-04-4.13602E-05-3.64707E-05 1.45495E-05-1.01330E-18-2.42656E-18
 -1       636 1.24197E-04-4.76301E-05-3.28430E-05 5.98953E-06 2.19881E-19-2.91342E-18
 -1       637 1.17934E-04-4.62088E-05-3.07454E-05-2.03918E-06 9.17376E-19-2.19544E-18
 -1       638 1.11039E-04-4.13892E-05-2.98487E-05-7.06303E-06 4.99879E-19-1.76632E-18
 -1       639 1.05411E-04-3.63708E-05-2.95902E-05-9.42202E-06 8.81645E-19-1.93319E-18
 -1       640 1.01512E-04-3.24754E-05-2.95884E-05-1.00332E-05 1.64894E-18-1.42388E-18
 -1       641 9.90465E-05-2.98820E-05-2.96422E-05-9.65727E-06 1.09139E-18-1.75815E-18
 -1       642 9.75725E-05-2.83488E-05-2.96669E-05-8.77408E-06 8.86592E-19-2.40239E-18
 -1       643 9.67178E-05-2.75554E-05-2.96403E-05-7.66837E-06 7.92446E-19-2.95618E-18
 -1       644 9.62246E-05-2.72303E-05-2.95682E-05-6.50804E-06 8.16142E-19-2.57917E-18
 -1       645 9.59330E-05-2.71783E-05-2.94655E-05-5.39127E-06 9.61341E-19-3.10766E-18
 -1       646 9.57512E-05-2.72713E-05-2.93478E-05-4.37270E-06-2.41443E-19-4.10585E-18
 -1       647 9.56289E-05-2.74307E-05-2.92272E-05-3.47870E-06 5.81127E-19-3.75044E-18
 -1       648 9.55403E-05-2.76104E-05-2.91123E-05-2.71715E-06-1.81873E-20-2.16393E-18
 -1       649 9.54721E-05-2.77855E-05-2.90082E-05-2.08415E-06-1.03863E-18-1.56790E-18
 -1       650 9.54180E-05-2.79437E-05-2.89172E-05-1.56906E-06-1.67222E-18-7.81525E-19
 -1       651 9.53746E-05-2.80801E-05-2.88402E-05-1.15794E-06-8.43332E-19-2.00018E-18
 -1       652 9.53398E-05-2.81941E-05-2.87765E-05-8.35721E-07-6.53018E-19-2.50970E-18
 -1       653 9.53124E-05-2.82869E-05-2.87250E-05-5.87634E-07-1.03715E-18-1.87520E-18
 -1       654 9.52910E-05-2.83609E-05-2.86842E-05-3.99984E-07-1.58863E-18-1.87592E-18
 -1       655 9.52746E-05-2.84187E-05-2.86525E-05-2.60645E-07 8.39021E-19-2.70340E-18
 -1       656 9.52624E-05-2.84632E-05-2.86282E-05-1.59233E-07 9.84313E-19-3.78154E-18
 -1       657 9.52535E-05-2.84967E-05-2.86100E-05-8.70773E-08 1.55853E-18-2.69833E-18
 -1       658 9.52471E-05-2.85216E-05-2.85966E-05-3.71069E-08 6.03086E-19-1.65987E-18
 -1       659 9.52428E-05-2.85398E-05-2.85870E-05-3.69127E-09 1.30860E-19-1.39813E-19
 -1       660 9.52400E-05-2.85530E-05-2.85801E-05 1.75317E-08 3.53445E-19-3.70625E-19
 -1       661 9.52385E-05-2.85627E-05-2.85753E-05 2.98534E-08 7.63406E-19 5.29298E-19
 -1       662 9.52379E-05-2.85701E-05-2.85719E-05 3.56527E-08-1.12560E-19-1.21533E-18
 -1       663 9.52383E-05-2.85764E-05-2.85694E-05 3.64677E-08-1.19159E-18 7.52165E-19
 -1       664 1.02163E-04-3.17230E-05-3.01902E-05-8.05350E-06 1.53959E-19-2.31937E-20
 -1       665 9.52391E-05-2.85787E-05-2.85688E-05-3.61270E-08-1.36991E-18-1.33911E-18
 -1       666 1.00219E-04-2.94577E-05-3.03265E-05-7.47391E-06 4.52290E-19-3.18184E-19
 -1       667 1.08788E-04-3.80950E-05-3.03022E-05-5.23125E-06-2.98420E-19 4.72485E-19
 -1       668 1.13095E-04-4.12901E-05-3.07834E-05-1.10656E-06-1.46938E-19 1.03155E-18
 -1       669 1.16803E-04-4.25736E-05-3.18249E-05 4.78179E-06 3.49265E-19 1.87877E-18
 -1       670 1.17850E-04-3.95150E-05-3.36150E-05 1.08064E-05 5.37636E-19 2.15922E-18
 -1       671 1.15268E-04-3.15653E-05-3.59125E-05 1.35318E-05 1.29252E-18 2.43092E-18
 -1       672 1.10037E-04-2.17763E-05-3.80208E-05 8.87449E-06 1.74750E-18 2.03703E-18
 -1       673 1.08058E-04-1.81897E-05-3.86725E-05-2.02594E-06 2.50886E-18 3.31908E-19
 -1       674 1.11654E-04-2.40996E-05-3.76568E-05-1.17463E-05 2.35754E-18-1.14471E-18
 -1       675 1.16159E-04-3.36555E-05-3.54645E-05-1.46224E-05 1.03861E-18-1.54604E-18
 -1       676 1.18172E-04-4.06777E-05-3.32188E-05-1.08068E-05-3.84970E-20-1.58947E-18
 -1       677 1.16203E-04-4.24942E-05-3.15966E-05-4.32759E-06-5.45622E-19-1.44811E-18
 -1       678 1.12239E-04-4.06186E-05-3.06973E-05 1.21437E-06-6.99118E-19-4.71120E-19
 -1       679 1.07978E-04-3.73296E-05-3.02838E-05 4.90701E-06-1.47579E-21-5.21876E-19
 -1       680 1.04383E-04-3.41320E-05-3.01115E-05 6.87473E-06 1.06150E-19-4.98288E-20
 -1       681 1.01690E-04-3.16298E-05-3.00278E-05 7.57489E-06 3.26333E-19 8.39424E-19
 -1       682 9.97948E-05-2.99096E-05-2.99515E-05 7.45701E-06 1.42067E-19 1.55954E-18
 -1       683 9.84948E-05-2.88397E-05-2.98521E-05 6.86505E-06-1.72538E-20 1.82891E-19
 -1       684 9.76033E-05-2.82394E-05-2.97268E-05 6.03699E-06-1.07782E-18 1.69140E-19
 -1       685 9.69814E-05-2.79491E-05-2.95845E-05 5.12883E-06-2.04509E-20 1.16491E-19
 -1       686 9.65364E-05-2.78494E-05-2.94365E-05 4.23738E-06 2.46831E-19 7.58150E-19
 -1       687 9.62092E-05-2.78585E-05-2.92924E-05 3.41813E-06-4.53627E-19 1.02737E-18
 -1       688 9.59634E-05-2.79237E-05-2.91592E-05 2.69841E-06 9.03092E-19 3.36298E-19
 -1       689 9.57761E-05-2.80127E-05-2.90409E-05 2.08711E-06 7.33432E-19 1.82436E-19
 -1       690 9.56326E-05-2.81068E-05-2.89392E-05 1.58184E-06-4.41930E-19-1.19830E-19
 -1       691 9.55228E-05-2.81958E-05-2.88540E-05 1.17383E-06-2.75109E-19-1.46210E-18
 -1       692 9.54393E-05-2.82750E-05-2.87844E-05 8.51209E-07 1.24148E-18 2.25692E-19
 -1       693 9.53767E-05-2.83424E-05-2.87288E-05 6.01101E-07 8.33474E-19 4.21451E-19
 -1       694 9.53303E-05-2.83981E-05-2.86851E-05 4.10896E-07 2.74370E-19 1.38006E-18
 -1       695 9.52966E-05-2.84428E-05-2.86515E-05 2.69042E-07-5.90665E-19 2.49807E-18
 -1       696 9.52727E-05-2.84781E-05-2.86262E-05 1.65421E-07-1.85191E-18 2.62144E-18
 -1       697 9.52563E-05-2.85053E-05-2.86075E-05 9.14563E-08-8.86430E-19 3.28130E-18
 -1       698 9.52454E-05-2.85259E-05-2.85940E-05 4.00720E-08 3.15663E-19 2.04995E-18
 -1       699 9.52387E-05-2.85414E-05-2.85845E-05 5.58603E-09 1.81621E-18-9.05719E-20
 -1       700 9.52349E-05-2.85528E-05-2.85780E-05-1.64418E-08 1.98059E-18-9.35091E-19
 -1       701 9.52333E-05-2.85614E-05-2.85736E-05-2.93706E-08 1.33173E-18-1.13773E-18
 -1       702 9.52333E-05-2.85681E-05-2.85708E-05-3.56337E-08 4.98452E-19-4.97848E-20
 -1       703 9.52364E-05-2.85734E-05-2.85699E-05-3.69692E-08 1.09726E-18-1.09331E-18
 -1       704 9.52583E-05-2.85880E-05-2.85730E-05-4.81639E-09 2.65276E-18-7.13765E-20
 -1       705 9.52391E-05-2.85804E-05-2.85680E-05 3.48479E-08-1.66682E-18 1.59788E-18
 -1       706 9.52545E-05-2.85866E-05-2.85719E-05-2.28678E-08 1.47044E-18-2.45532E-18
 -1       707 9.52583E-05-2.85880E-05-2.85730E-05 4.85714E-09 2.53190E-18-5.66274E-19
 -1       708 9.52571E-05-2.85876E-05-2.85726E-05-1.42405E-08 1.48281E-18 5.59874E-19
 -1       709 1.30701E-04-5.78499E-05-3.12656E-05 8.84262E-06-9.48492E-19-3.64274E-18
 -1       710 9.52572E-05-2.85876E-05-2.85726E-05 1.41447E-08 1.92813E-18 1.27273E-18
 -1       711 9.52546E-05-2.85867E-05-2.85719E-05 2.28103E-08 1.49284E-18-3.84324E-19
 -1       712 9.52502E-05-2.85848E-05-2.85709E-05 2.99033E-08 8.19137E-19 7.27168E-19
 -1       713 9.52452E-05-2.85832E-05-2.85694E-05 3.34607E-08-2.64045E-19 1.64763E-18
 -1       714 1.32722E-04-3.88976E-05-4.05405E-05-1.39848E-05-2.56722E-18 2.33231E-18
 -1       715 1.36358E-04-5.56752E-05-3.47127E-05 2.07383E-07-4.49583E-19 1.67173E-18
 -1       716 4.97839E-05-2.05054E-05-1.20674E-05 2.67758E-05-9.94443E-19 3.05768E-18
 -1       717 8.45868E-05-4.19065E-05-1.79795E-05 3.63941E-05-2.96337E-18 2.75106E-18
 -1       718 9.48865E-05-1.99953E-05-3.20968E-05-1.77369E-06-1.76970E-18-1.31384E-18
 -1       719 5.86639E-05-2.77790E-05-1.27542E-05 3.40287E-05 1.98036E-18-4.15692E-18
 -1       720 6.58424E-05-3.06871E-05-1.46633E-05-3.49365E-05-2.25512E-18-2.74439E-18
 -1       721 1.29287E-04-3.02400E-05-4.28451E-05 1.44658E-05 2.97645E-18 8.50289E-19
 -1       722 9.89727E-05-2.76575E-05-3.05617E-05-5.92799E-06 7.57636E-19-5.49834E-19
 -1       723 1.05006E-04-3.46460E-05-3.01571E-05-7.43138E-06-2.33434E-19 1.51619E-19
 -1       724 9.59349E-05-2.27029E-05-3.13850E-05 1.70958E-06-1.44790E-18-1.24396E-18
 -1       725 1.20179E-04-5.86938E-05-2.62543E-05 2.43738E-05 1.67305E-18-2.51033E-19
 -1       726 1.11911E-04-5.55646E-05-2.40176E-05 2.84777E-05-2.67887E-18-1.29452E-19
 -1       727 1.31240E-04-3.95722E-05-3.95320E-05-1.31189E-05 9.86290E-19-2.66197E-18
 -1       728 1.26015E-04-2.34321E-05-4.44594E-05-1.48287E-05 3.24710E-18-2.37741E-18
 -1       729 8.73110E-05-1.36485E-05-3.15742E-05-1.96866E-07 9.34781E-19-2.08250E-18
 -1       730 8.67553E-05-1.31211E-05-3.15616E-05 3.96253E-08-9.48987E-19-2.24605E-18
 -1       731 1.22230E-04-1.46151E-05-4.66260E-05 9.39806E-06 4.01806E-18-9.12347E-19
 -1       732 1.27350E-04-5.93931E-05-2.91415E-05-1.59329E-05-9.76629E-19 7.45945E-19
 -1       733 3.82205E-05-1.11038E-05-1.10839E-05 4.77076E-07-2.18819E-19 3.91356E-18
 -1       734 8.62085E-05-4.41804E-05-1.76899E-05 3.82371E-05 2.33400E-18-2.20162E-18
 -1       735 1.36123E-04-4.95407E-05-3.72947E-05 5.85138E-06 1.13751E-18 9.26019E-19
 -1       736 9.79154E-05-4.87073E-05-2.08867E-05-3.48895E-05-2.68348E-18-1.35777E-18
 -1       737 3.86345E-05-1.44922E-05-9.76892E-06 1.55916E-05 3.66355E-19-4.45735E-18
 -1       738 1.19833E-04-1.24275E-05-4.65821E-05-2.26742E-06-3.39210E-18 2.61124E-20
 -1       739 1.25925E-04-2.12152E-05-4.53310E-05-1.31902E-05-3.73960E-18 1.12649E-18
 -1       740 9.81742E-05-2.59811E-05-3.09353E-05-3.51110E-06 1.04840E-18-8.01192E-19
 -1       741 1.22700E-04-1.08724E-05-4.85224E-05-5.25380E-06 4.39404E-18-1.60603E-18
 -1       742 1.33677E-04-3.64632E-05-4.19924E-05 1.50248E-05-2.31081E-18-3.36809E-18
 -1       743 1.29325E-04-5.94934E-05-2.99533E-05-1.28524E-05 7.25821E-19-1.28680E-18
 -1       744 1.07882E-04-5.30389E-05-2.33493E-05-2.87448E-05 1.42570E-18 7.14022E-21
 -1       745 8.98453E-05-1.57504E-05-3.17584E-05-2.80493E-07-1.24049E-18-2.05422E-18
 -1       746 8.35154E-05-1.04803E-05-3.13042E-05-1.21124E-07-2.06284E-19-2.48645E-18
 -1       747 9.52502E-05-2.85847E-05-2.85709E-05-2.99896E-08 2.59265E-18-4.62026E-19
 -1       748 4.63623E-05-1.88251E-05-1.12771E-05-2.38233E-05 1.29128E-18 2.21552E-18
 -1       749 1.18848E-04-1.77322E-05-4.36757E-05-9.25732E-06-3.62816E-18 6.09996E-20
 -1       750 5.62914E-05-2.07832E-05-1.48123E-05-2.49849E-05-1.58223E-18-2.96835E-18
 -1       751 1.23756E-04-1.96963E-05-4.51028E-05 1.33655E-05-3.47342E-18-1.64410E-18
 -1       752 1.29837E-04-4.93394E-05-3.46436E-05-7.06016E-06-4.20795E-19-2.14576E-18
 -1       753 8.45783E-05-1.13310E-05-3.13956E-05 6.09390E-08-5.86999E-19-2.36171E-18
 -1       754 4.30649E-05-1.18255E-05-1.29360E-05-1.06029E-06-4.94016E-19-3.70159E-18
 -1       755 8.35242E-05-3.79448E-05-1.92952E-05-3.20316E-05 1.70350E-18 1.53218E-18
 -1       756 6.48911E-05-2.84708E-05-1.51979E-05-3.14781E-05 9.41795E-19 1.69269E-18
 -1       757 9.32127E-05-2.05786E-05-3.11263E-05-2.16660E-06 1.23316E-18-1.49714E-18
 -1       758 1.14612E-04-1.75804E-05-4.18806E-05-9.44044E-06 3.37021E-18-2.16180E-18
 -1       759 1.26529E-04-5.57894E-05-3.03013E-05 8.62561E-06 1.11367E-18 8.60304E-19
 -1       760 9.38961E-05-2.46860E-05-2.96610E-05 8.82007E-06-5.53495E-19-1.32308E-18
 -1       761 9.48074E-05-2.70584E-05-2.90343E-05 1.12489E-05-5.01830E-19-1.36965E-18
 -1       762 9.68164E-05-3.04846E-05-2.84253E-05 1.33825E-05 6.43050E-21-1.29938E-18
 -1       763 1.00754E-04-3.55729E-05-2.79262E-05 1.49546E-05 9.69960E-19-8.08146E-19
 -1       764 1.07575E-04-4.26432E-05-2.78268E-05 1.52063E-05 1.41520E-18-6.29518E-19
 -1       765 1.18572E-04-5.35203E-05-2.78338E-05 1.50944E-05-1.24928E-18-2.23434E-18
 -1       766 1.21190E-04-5.21770E-05-2.95671E-05-7.91434E-06 1.46849E-18-2.71933E-18
 -1       767 1.10699E-04-4.52940E-05-2.79910E-05-1.29621E-05 1.06707E-18-1.97259E-18
 -1       768 1.02704E-04-3.78931E-05-2.77619E-05-1.39053E-05 9.74774E-19-1.23197E-18
 -1       769 9.77972E-05-3.24401E-05-2.80059E-05-1.31034E-05 1.73675E-18-9.14949E-19
 -1       770 9.51408E-05-2.89514E-05-2.83653E-05-1.16731E-05 8.44041E-19-7.74653E-19
 -1       771 9.39033E-05-2.69719E-05-2.86841E-05-1.01205E-05 5.95922E-19-9.69601E-19
 -1       772 9.34825E-05-2.60181E-05-2.89127E-05-8.62310E-06 6.59756E-20-1.45467E-18
 -1       773 9.34897E-05-2.57066E-05-2.90494E-05-7.24009E-06 7.40019E-19-2.26313E-18
 -1       774 9.36933E-05-2.57679E-05-2.91105E-05-5.99124E-06-4.43786E-20-2.66358E-18
 -1       775 9.39642E-05-2.60245E-05-2.91167E-05-4.88427E-06-6.91054E-19-4.11093E-18
 -1       776 9.42355E-05-2.63657E-05-2.90868E-05-3.92108E-06 1.04787E-18-3.72422E-18
 -1       777 9.44769E-05-2.67254E-05-2.90362E-05-3.09874E-06 3.40746E-19-4.93355E-18
 -1       778 9.46774E-05-2.70667E-05-2.89759E-05-2.40949E-06 5.55250E-19-4.20410E-18
 -1       779 9.48369E-05-2.73716E-05-2.89136E-05-1.84200E-06-1.35162E-18-3.38558E-18
 -1       780 9.49597E-05-2.76333E-05-2.88541E-05-1.38288E-06-1.07150E-18-3.29970E-18
 -1       781 9.50518E-05-2.78514E-05-2.88001E-05-1.01779E-06-1.38067E-18-2.64956E-18
 -1       782 9.51191E-05-2.80290E-05-2.87528E-05-7.32426E-07-5.13284E-19-2.75491E-18
 -1       783 9.51669E-05-2.81704E-05-2.87128E-05-5.13152E-07-8.43112E-19-2.12614E-18
 -1       784 9.52000E-05-2.82809E-05-2.86796E-05-3.47559E-07-9.95845E-19-1.38633E-18
 -1       785 9.52220E-05-2.83657E-05-2.86527E-05-2.24802E-07 8.76105E-19 1.35274E-19
 -1       786 9.52360E-05-2.84297E-05-2.86313E-05-1.35635E-07 1.67623E-18 3.64592E-19
 -1       787 9.52441E-05-2.84770E-05-2.86145E-05-7.23547E-08 2.20763E-18 1.22090E-18
 -1       788 9.52482E-05-2.85114E-05-2.86015E-05-2.86879E-08 5.73801E-19 2.35785E-18
 -1       789 9.52497E-05-2.85359E-05-2.85916E-05 3.45983E-10-1.83006E-19 1.24289E-18
 -1       790 9.52495E-05-2.85533E-05-2.85840E-05 1.85274E-08 3.66778E-19-6.43038E-19
 -1       791 9.52483E-05-2.85658E-05-2.85782E-05 2.88477E-08-3.91532E-19-2.19885E-18
 -1       792 9.52471E-05-2.85752E-05-2.85737E-05 3.33738E-08 1.21369E-18-3.90439E-19
 -1       793 9.80877E-05-2.90010E-05-2.96090E-05-9.33808E-06 7.62513E-20-1.06217E-18
 -1       794 1.17067E-04-4.65696E-05-3.01990E-05-4.05945E-06-5.65004E-19 3.78863E-19
 -1       795 1.10093E-04-4.17935E-05-2.92651E-05-8.64934E-06-8.58315E-19-1.81370E-19
 -1       796 1.24064E-04-4.04840E-05-3.59702E-05 1.21106E-05 7.54455E-19 1.44345E-18
 -1       797 1.22173E-04-3.03705E-05-3.95513E-05-1.55803E-05 1.87785E-18-2.72132E-18
 -1       798 1.14980E-04-4.54871E-05-2.97803E-05 4.47395E-06-1.09196E-18-1.46568E-18
 -1       799 1.08212E-04-4.03926E-05-2.90668E-05 8.19903E-06-6.46300E-19-1.20085E-18
 -1       800 1.02936E-04-3.55462E-05-2.88820E-05 9.67997E-06-6.04969E-19 4.22114E-20
 -1       801 9.93694E-05-3.18340E-05-2.89439E-05 9.76453E-06-5.29833E-19 7.34295E-19
 -1       802 9.71775E-05-2.93493E-05-2.90693E-05 9.13324E-06-9.09841E-19 9.01872E-19
 -1       803 9.59372E-05-2.78641E-05-2.91741E-05 8.17144E-06 3.01690E-19 1.57878E-18
 -1       804 9.52972E-05-2.70911E-05-2.92309E-05 7.08712E-06-4.13254E-19 2.59983E-18
 -1       805 9.50104E-05-2.67846E-05-2.92393E-05 5.99668E-06-9.32706E-19 1.20793E-18
 -1       806 9.49174E-05-2.67611E-05-2.92095E-05 4.96652E-06-3.41995E-19 2.46589E-18
 -1       807 9.49216E-05-2.68944E-05-2.91543E-05 4.03358E-06-8.46386E-19 3.07795E-18
 -1       808 9.49677E-05-2.71021E-05-2.90850E-05 3.21576E-06 8.19267E-19 2.31865E-18
 -1       809 9.50260E-05-2.73334E-05-2.90109E-05 2.51772E-06 5.04249E-19 1.95862E-18
 -1       810 9.50820E-05-2.75592E-05-2.89382E-05 1.93549E-06 6.93188E-19 1.80801E-18
 -1       811 9.51298E-05-2.77642E-05-2.88708E-05 1.45991E-06 5.06030E-19 1.09212E-18
 -1       812 9.51677E-05-2.79418E-05-2.88110E-05 1.07896E-06-3.36305E-20-8.28994E-19
 -1       813 9.51961E-05-2.80905E-05-2.87595E-05 7.79481E-07 4.05589E-19-3.10025E-19
 -1       814 9.52164E-05-2.82115E-05-2.87163E-05 5.48285E-07-6.10450E-19-3.94311E-19
 -1       815 9.52302E-05-2.83077E-05-2.86811E-05 3.73006E-07-1.34471E-18 1.93954E-18
 -1       816 9.52391E-05-2.83826E-05-2.86528E-05 2.42626E-07-2.36361E-18 3.57510E-18
 -1       817 9.52442E-05-2.84397E-05-2.86305E-05 1.47623E-07-1.73017E-18 3.38677E-18
 -1       818 9.52467E-05-2.84824E-05-2.86133E-05 7.99900E-08 9.95111E-19 7.40005E-19
 -1       819 9.52475E-05-2.85138E-05-2.86002E-05 3.31603E-08 2.04874E-18 5.83392E-20
 -1       820 9.52472E-05-2.85364E-05-2.85903E-05 1.89437E-09 1.27710E-18 7.12028E-20
 -1       821 9.52462E-05-2.85526E-05-2.85830E-05-1.78698E-08-2.14673E-19 2.41417E-18
 -1       822 9.52451E-05-2.85642E-05-2.85775E-05-2.91570E-08 6.05015E-19 1.03018E-18
 -1       823 8.45505E-05-1.32183E-05-3.05718E-05-1.35856E-06 1.57011E-19-2.40880E-18
 -1       824 9.52582E-05-2.85764E-05-2.85779E-05 1.77768E-08 9.90577E-19 6.50571E-19
 -1       825 9.52605E-05-2.85754E-05-2.85793E-05-6.00981E-11 2.59995E-18 1.43322E-19
 -1       826 1.01953E-04-4.49858E-05-2.43220E-05-2.39888E-05 1.96469E-18 1.63176E-19
 -1       827 9.52545E-05-2.85769E-05-2.85761E-05 2.59970E-08 1.21627E-18 8.06838E-19
 -1       828 9.52600E-05-2.85758E-05-2.85790E-05 8.97298E-09 1.52635E-18-7.84022E-19
 -1       829 7.24388E-05-3.35766E-05-1.63259E-05 3.43081E-05-2.27378E-18 3.35639E-18
 -1       830 9.66376E-05-2.65332E-05-3.00443E-05-7.52369E-06 4.32684E-19-1.11867E-18
 -1       831 1.12658E-04-5.16152E-05-2.60455E-05-2.17917E-05-2.15466E-18-5.17408E-19
 -1       832 1.03831E-04-4.83444E-05-2.36639E-05 2.79088E-05 2.41293E-18-8.85990E-19
 -1       833 5.14989E-05-1.46134E-05-1.55219E-05-1.26882E-05 4.13918E-19 1.93727E-18
 -1       834 1.23545E-04-4.81268E-05-3.23808E-05 3.83769E-06-1.61863E-20 1.12010E-18
 -1       835 9.58395E-05-2.34233E-05-3.10365E-05-2.85817E-06 1.11597E-18-1.12009E-18
 -1       836 5.45379E-05-1.51043E-05-1.66602E-05 1.33019E-05-1.16745E-18 2.39125E-18
 -1       837 1.03272E-04-4.74499E-05-2.37990E-05 2.58999E-05-2.64010E-18 4.78706E-20
 -1       838 8.48801E-05-3.64997E-05-2.05690E-05-3.05069E-05-2.19685E-18-1.54067E-18
 -1       839 9.34571E-05-2.27480E-05-3.03036E-05 6.10570E-06-8.72794E-19-1.48949E-18
 -1       840 8.37485E-05-3.69323E-05-1.98199E-05 3.21850E-05 2.21895E-18-1.92210E-18
 -1       841 5.73818E-05-1.97007E-05-1.58232E-05 2.25623E-05 1.20197E-18-3.39099E-18
 -1       842 1.29383E-04-5.31448E-05-3.27873E-05 1.39387E-06-3.03178E-19-3.36981E-18
 -1       843 1.19687E-04-5.41309E-05-2.80572E-05-1.44610E-05 1.35069E-18-1.45719E-18
 -1       844 6.56405E-05-2.26270E-05-1.82308E-05 2.31572E-05-1.32299E-18 2.03607E-18
 -1       845 8.36527E-05-1.24749E-05-3.05058E-05-3.72867E-07-3.30560E-20-2.34908E-18
 -1       846 9.52544E-05-2.85767E-05-2.85761E-05-2.60674E-08 1.52539E-19-1.96951E-18
 -1       847 5.34650E-05-1.48375E-05-1.62709E-05-1.28943E-05-9.99423E-19-2.96788E-18
 -1       848 8.97045E-05-1.75092E-05-3.09413E-05-2.26063E-06 8.72474E-19-1.74311E-18
 -1       849 1.14422E-04-4.90851E-05-2.79797E-05 1.48665E-05 1.30284E-18-3.92034E-19
 -1       850 9.29266E-05-2.08043E-05-3.09107E-05 3.38809E-06-1.15504E-18-1.42957E-18
 -1       851 8.74510E-05-3.84576E-05-2.08070E-05 3.00333E-05-2.35059E-18 1.45715E-18
 -1       852 1.00531E-04-3.22448E-05-2.92624E-05-1.04049E-05-2.13338E-20-8.83083E-19
 -1       853 8.47446E-05-3.26058E-05-2.22588E-05-2.42861E-05 1.98896E-18 1.16903E-18
 -1       854 1.04433E-04-3.65675E-05-2.90789E-05-1.04136E-05-6.52134E-19-8.43842E-19
 -1       855 1.21401E-04-4.76895E-05-3.16195E-05-2.23004E-06-7.43579E-19-1.63087E-18
 -1       856 9.52462E-05-2.85714E-05-2.85749E-05-3.26299E-08 1.61550E-18 9.88031E-19
 -1       857 9.52581E-05-2.85763E-05-2.85779E-05-1.79024E-08 1.92501E-18 1.58323E-18
 -1       858 8.66721E-05-1.49666E-05-3.07319E-05-2.01679E-06 5.90186E-19-2.00100E-18
 -1       859 9.52599E-05-2.85756E-05-2.85790E-05-9.11896E-09 2.81392E-18 7.35389E-19
 -1       860 5.69654E-05-1.33876E-05-1.85409E-05 1.45409E-06 4.08588E-19 2.21378E-18
 -1       861 9.61858E-05-2.49834E-05-3.05151E-05-5.40234E-06 7.21624E-19-1.24503E-18
 -1       862 7.28396E-05-2.60899E-05-1.98937E-05-2.37343E-05 1.74527E-18 5.12878E-19
 -1       863 8.89038E-05-1.67550E-05-3.09230E-05 2.17818E-06-9.13991E-19-1.88174E-18
 -1       864 9.52474E-05-2.85760E-05-2.85734E-05-3.30636E-08 1.99894E-18 1.08266E-18
 -1       865 7.44749E-05-2.73956E-05-1.99947E-05-2.58693E-05-1.57067E-18-1.67433E-18
 -1       866 1.22296E-04-5.19811E-05-3.01459E-05 5.06676E-06-8.27470E-19-1.59198E-18
 -1       867 8.59857E-05-1.43423E-05-3.07063E-05 1.62625E-06-5.37772E-19-2.00762E-18
 -1       868 1.17877E-04-5.05922E-05-2.87768E-05-1.16539E-05-1.05382E-18 1.57505E-19
 -1       869 5.44065E-05-1.41290E-05-1.70085E-05 9.79557E-06 2.54495E-19-2.78817E-18
 -1       870 6.15807E-05-1.99332E-05-1.76063E-05-2.01332E-05 9.54345E-19 1.89158E-18
 -1       871 7.56693E-05-2.64904E-05-2.09621E-05 2.39140E-05 1.18868E-18-1.94299E-18
 -1       872 8.97499E-05-2.51789E-05-2.76711E-05 1.28112E-05-1.17964E-19-9.57127E-19
 -1       873 9.09526E-05-2.88673E-05-2.65993E-05 1.63323E-05 6.25295E-19-9.11517E-19
 -1       874 9.45333E-05-3.48864E-05-2.55539E-05 2.04004E-05 1.19776E-18-9.69510E-19
 -1       875 9.60165E-05-3.93188E-05-2.42740E-05 2.25399E-05-2.09557E-18 6.63154E-19
 -1       876 9.64658E-05-3.77136E-05-2.51465E-05-2.03311E-05 1.75407E-18 3.37711E-19
 -1       877 9.15854E-05-3.10539E-05-2.59348E-05-1.67839E-05 1.47275E-18 7.51919E-19
 -1       878 8.96345E-05-2.71463E-05-2.67813E-05-1.35741E-05 1.01235E-18 2.59190E-19
 -1       879 8.92082E-05-2.50651E-05-2.74920E-05-1.10065E-05-6.76486E-20-1.59587E-20
 -1       880 8.95607E-05-2.41600E-05-2.80302E-05-8.98356E-06 7.03095E-19-4.25583E-19
 -1       881 9.02571E-05-2.39704E-05-2.84094E-05-7.36362E-06-4.03283E-19-7.61577E-19
 -1       882 9.10617E-05-2.41942E-05-2.86580E-05-6.02875E-06-1.79267E-19-2.05997E-18
 -1       883 9.18498E-05-2.46348E-05-2.88067E-05-4.90730E-06-3.07781E-19-1.90743E-18
 -1       884 9.25603E-05-2.51667E-05-2.88832E-05-3.95674E-06-1.00326E-18-2.66140E-18
 -1       885 9.31696E-05-2.57137E-05-2.89098E-05-3.15256E-06-4.14075E-19-5.00831E-18
 -1       886 9.36733E-05-2.62297E-05-2.89045E-05-2.47797E-06 8.23607E-19-4.40427E-18
 -1       887 9.40785E-05-2.66920E-05-2.88800E-05-1.91838E-06 2.95930E-19-3.90899E-18
 -1       888 9.43974E-05-2.70913E-05-2.88455E-05-1.46086E-06-1.43745E-18-2.97049E-18
 -1       889 9.46433E-05-2.74266E-05-2.88072E-05-1.09246E-06-4.62409E-19-4.15119E-18
 -1       890 9.48292E-05-2.77018E-05-2.87689E-05-8.00691E-07-3.65902E-19-2.58362E-18
 -1       891 9.49669E-05-2.79228E-05-2.87332E-05-5.73439E-07-1.67882E-19-2.52284E-18
 -1       892 9.50667E-05-2.80970E-05-2.87013E-05-3.99254E-07 1.21871E-19-2.11345E-18
 -1       893 9.51373E-05-2.82318E-05-2.86737E-05-2.68090E-07 5.40992E-19 5.50391E-19
 -1       894 9.51856E-05-2.83344E-05-2.86505E-05-1.71186E-07 2.06651E-18 6.09012E-19
 -1       895 9.52175E-05-2.84109E-05-2.86314E-05-1.01080E-07 2.43868E-18 3.19550E-19
 -1       896 9.52372E-05-2.84669E-05-2.86158E-05-5.15765E-08 1.86562E-18-1.97584E-19
 -1       897 9.52483E-05-2.85071E-05-2.86034E-05-1.76666E-08-6.87561E-19 4.68448E-19
 -1       898 9.52536E-05-2.85357E-05-2.85934E-05 4.75514E-09-3.53969E-19 1.02490E-18
 -1       899 9.52550E-05-2.85553E-05-2.85856E-05 1.83864E-08-3.56431E-19 2.10179E-18
 -1       900 9.52551E-05-2.85670E-05-2.85806E-05 2.38776E-08 1.09242E-18 1.44045E-18
 -1       901 6.64478E-05-1.85069E-05-2.04390E-05 1.47860E-05-8.37027E-19 2.47561E-18
 -1       902 1.07403E-04-4.34844E-05-2.73619E-05 1.41600E-05-1.26726E-18-9.36886E-19
 -1       903 9.37148E-05-2.84164E-05-2.79846E-05 1.09370E-05-1.04086E-18-3.76076E-19
 -1       904 9.27227E-05-2.66044E-05-2.83367E-05 9.29768E-06-1.06408E-18-1.09438E-19
 -1       905 9.24622E-05-2.57158E-05-2.86055E-05 7.80913E-06-3.94909E-19 9.24546E-19
 -1       906 9.25961E-05-2.54239E-05-2.87880E-05 6.48934E-06-3.96913E-19 2.13996E-18
 -1       907 9.29171E-05-2.54930E-05-2.88959E-05 5.33153E-06-1.09715E-18 1.92995E-18
 -1       908 9.33027E-05-2.57616E-05-2.89461E-05 4.32526E-06-8.50602E-19 2.29790E-18
 -1       909 9.36854E-05-2.61231E-05-2.89552E-05 3.46126E-06 3.74900E-19 7.99032E-19
 -1       910 9.40309E-05-2.65100E-05-2.89375E-05 2.72965E-06 1.37901E-18 1.33044E-18
 -1       911 9.43253E-05-2.68826E-05-2.89040E-05 2.11917E-06 4.72568E-19 1.44857E-18
 -1       912 9.45664E-05-2.72198E-05-2.88628E-05 1.61791E-06 1.06612E-18 9.98920E-19
 -1       913 9.47577E-05-2.75124E-05-2.88194E-05 1.21301E-06 5.13849E-19 1.47988E-18
 -1       914 9.49055E-05-2.77583E-05-2.87773E-05 8.91479E-07-5.62901E-19 1.97964E-18
 -1       915 9.50165E-05-2.79594E-05-2.87388E-05 6.40403E-07 2.18943E-19 2.00909E-18
 -1       916 9.50978E-05-2.81200E-05-2.87048E-05 4.47536E-07-2.16977E-18 3.00794E-18
 -1       917 9.51557E-05-2.82457E-05-2.86757E-05 3.01966E-07-2.75570E-18 3.20820E-18
 -1       918 9.51957E-05-2.83422E-05-2.86515E-05 1.94164E-07-2.03994E-18 1.98478E-18
 -1       919 9.52220E-05-2.84148E-05-2.86317E-05 1.15968E-07 2.71963E-19 1.26024E-18
 -1       920 9.52384E-05-2.84683E-05-2.86157E-05 6.05781E-08 1.68068E-18 2.23615E-18
 -1       921 9.52476E-05-2.85071E-05-2.86031E-05 2.24633E-08 2.03930E-18 2.60094E-18
 -1       922 9.52519E-05-2.85346E-05-2.85931E-05-2.73342E-09 1.29867E-18 4.25847E-19
 -1       923 9.52530E-05-2.85539E-05-2.85853E-05-1.83314E-08 1.19812E-18-3.88509E-18
 -1       924 9.52590E-05-2.85645E-05-2.85834E-05 1.60639E-08-3.87781E-19 7.09759E-19
 -1       925 9.34966E-05-2.52499E-05-2.92501E-05-9.10561E-06 1.14909E-19-1.36104E-18
 -1       926 9.59537E-05-3.15689E-05-2.75906E-05 1.26340E-05-5.58994E-19 6.44088E-20
 -1       927 1.00172E-04-3.64971E-05-2.72858E-05 1.40399E-05-1.51766E-18 6.84055E-19
 -1       928 9.96478E-05-4.14716E-05-2.49180E-05-2.28716E-05-1.74476E-18-1.28063E-18
 -1       929 1.07818E-04-4.30098E-05-2.77817E-05-1.44488E-05-1.52957E-18-6.52259E-19
 -1       930 8.41561E-05-1.28648E-05-3.05546E-05 7.02362E-07-3.27874E-19-2.09829E-18
 -1       931 9.79515E-05-4.06082E-05-2.45107E-05 2.42128E-05 1.66533E-18-1.26790E-18
 -1       932 8.97871E-05-2.08677E-05-2.95366E-05 6.98046E-06-5.00684E-19-1.31378E-18
 -1       933 8.95908E-05-2.27458E-05-2.86470E-05 9.76205E-06-4.10562E-19-1.14806E-18
 -1       934 7.90883E-05-2.74636E-05-2.20407E-05 2.17111E-05-1.13793E-18 8.83270E-19
 -1       935 8.53925E-05-1.58176E-05-2.98186E-05-3.23510E-06 3.27717E-19-2.04696E-18
 -1       936 5.72543E-05-1.33372E-05-1.86675E-05-1.37385E-06-3.18053E-19-2.51927E-18
 -1       937 9.20499E-05-2.11584E-05-3.03830E-05-4.74153E-06 7.76768E-19-1.47135E-18
 -1       938 9.52607E-05-2.85623E-05-2.85850E-05 8.45112E-09 1.51471E-18-1.98089E-18
 -1       939 9.48910E-05-2.82203E-05-2.85749E-05-1.14907E-05 1.11752E-20-1.16155E-18
 -1       940 1.01088E-04-3.61952E-05-2.78076E-05-1.42458E-05-1.02534E-18-1.21973E-18
 -1       941 8.35238E-05-1.43292E-05-2.96552E-05-1.54860E-06 7.48854E-20-2.24007E-18
 -1       942 9.52537E-05-2.85646E-05-2.85811E-05-2.43651E-08 5.56072E-19-3.44211E-18
 -1       943 8.94617E-05-1.89312E-05-3.02277E-05 4.53643E-06-8.10773E-19-1.46423E-18
 -1       944 9.52611E-05-2.85612E-05-2.85857E-05 9.10064E-10 2.46347E-18 6.12886E-20
 -1       945 9.52577E-05-2.85644E-05-2.85829E-05-1.86533E-08 2.43204E-18 3.59011E-18
 -1       946 6.77671E-05-2.02722E-05-2.02382E-05-1.84373E-05-1.07247E-18-2.12130E-18
 -1       947 6.25707E-05-1.61952E-05-1.97424E-05-1.07130E-05 7.20666E-19 1.49224E-18
 -1       948 8.61421E-05-1.63117E-05-2.99225E-05 3.42254E-06-3.25772E-19-1.52995E-18
 -1       949 9.52607E-05-2.85617E-05-2.85853E-05-6.54355E-09 3.56799E-18 1.02077E-18
 -1       950 9.32697E-05-2.34908E-05-2.99049E-05-6.84387E-06 5.73256E-19-1.47087E-18
 -1       951 6.86160E-05-1.94483E-05-2.09566E-05 1.63827E-05 6.79110E-19-2.46665E-18
 -1       952 7.78124E-05-2.47424E-05-2.27051E-05-1.84455E-05 1.16056E-18 8.92561E-19
 -1       953 9.07083E-05-3.45181E-05-2.39961E-05-2.30131E-05-1.31864E-18-1.30076E-18
 -1       954 8.53855E-05-2.83738E-05-2.44174E-05-1.82436E-05 1.25938E-18 1.05789E-18
 -1       955 8.55435E-05-1.88674E-05-2.85812E-05 6.83724E-06-5.27957E-19-1.17271E-18
 -1       956 7.64655E-05-2.23848E-05-2.31649E-05 1.53303E-05-9.84481E-19 3.58090E-19
 -1       957 8.32470E-05-1.40837E-05-2.96409E-05 4.83849E-07-4.67003E-20-2.11643E-18
 -1       958 8.16173E-05-2.51997E-05-2.41348E-05 1.82440E-05 7.91291E-19-1.53801E-18
 -1       959 8.49568E-05-2.49750E-05-2.57082E-05-1.38897E-05 1.35066E-18 1.03834E-18
 -1       960 8.56743E-05-2.33299E-05-2.67229E-05-1.07740E-05-4.84190E-19 6.45124E-19
 -1       961 8.68481E-05-2.27524E-05-2.74716E-05-8.53191E-06 3.61009E-19 4.63641E-19
 -1       962 8.81394E-05-2.28001E-05-2.80038E-05-6.86825E-06-7.43543E-19 1.55109E-20
 -1       963 8.93911E-05-2.32048E-05-2.83664E-05-5.56845E-06-3.26286E-19-2.46994E-19
 -1       964 9.05285E-05-2.37950E-05-2.86007E-05-4.51579E-06-8.02599E-19-6.86943E-19
 -1       965 9.15174E-05-2.44555E-05-2.87412E-05-3.64210E-06-1.06180E-18-2.14505E-18
 -1       966 9.23530E-05-2.51180E-05-2.88153E-05-2.90961E-06-1.72540E-18-1.55339E-18
 -1       967 9.30401E-05-2.57368E-05-2.88445E-05-2.29724E-06 8.23087E-19-2.77219E-18
 -1       968 9.35941E-05-2.62901E-05-2.88448E-05-1.78787E-06 1.10993E-18-2.72937E-18
 -1       969 9.40326E-05-2.67688E-05-2.88275E-05-1.36979E-06-7.59599E-19-2.58167E-18
 -1       970 9.43731E-05-2.71717E-05-2.88007E-05-1.03134E-06-6.57372E-19-2.61518E-18
 -1       971 9.46333E-05-2.75039E-05-2.87698E-05-7.61592E-07 2.37100E-19-2.45116E-18
 -1       972 9.48279E-05-2.77717E-05-2.87385E-05-5.50326E-07 7.08622E-19-2.49070E-18
 -1       973 9.49708E-05-2.79835E-05-2.87089E-05-3.87232E-07 1.23368E-19-2.46854E-19
 -1       974 9.50734E-05-2.81483E-05-2.86822E-05-2.63568E-07 9.41951E-19 1.12611E-18
 -1       975 9.51451E-05-2.82742E-05-2.86590E-05-1.71557E-07 1.42465E-18 6.40764E-19
 -1       976 9.51934E-05-2.83685E-05-2.86392E-05-1.04461E-07 2.11313E-18 6.18853E-19
 -1       977 9.52244E-05-2.84379E-05-2.86228E-05-5.66616E-08 2.72804E-18 1.74891E-18
 -1       978 9.52431E-05-2.84880E-05-2.86093E-05-2.35097E-08-5.47377E-19 1.62103E-18
 -1       979 9.52527E-05-2.85233E-05-2.85983E-05-1.32675E-09-7.75115E-19 7.67049E-19
 -1       980 9.52569E-05-2.85486E-05-2.85893E-05 1.21829E-08 1.31268E-18 1.69761E-18
 -1       981 9.52597E-05-2.85627E-05-2.85844E-05-1.25645E-08 3.58681E-18 2.21369E-18
 -1       982 8.90249E-05-2.40218E-05-2.78594E-05 8.06421E-06-8.69761E-19 5.67275E-19
 -1       983 8.85726E-05-2.48113E-05-2.73289E-05 1.00522E-05-1.37423E-18 6.03502E-19
 -1       984 9.06106E-05-2.40850E-05-2.85112E-05 5.24234E-06-1.62532E-18 5.29078E-19
 -1       985 9.14402E-05-2.45171E-05-2.86815E-05 4.21429E-06-1.07621E-18 7.89883E-19
 -1       986 9.22001E-05-2.50465E-05-2.87802E-05 3.36332E-06 9.28840E-20 8.98922E-19
 -1       987 9.28622E-05-2.55970E-05-2.88280E-05 2.65819E-06 2.74619E-19 1.57183E-18
 -1       988 9.34193E-05-2.61225E-05-2.88415E-05 2.07494E-06 1.35623E-19 2.48855E-18
 -1       989 9.38761E-05-2.65993E-05-2.88330E-05 1.59687E-06 8.23587E-19 3.39957E-18
 -1       990 9.42411E-05-2.70147E-05-2.88114E-05 1.20987E-06 5.47032E-19 3.13787E-18
 -1       991 9.45265E-05-2.73663E-05-2.87830E-05 9.00538E-07-6.12941E-19 3.10143E-18
 -1       992 9.47448E-05-2.76562E-05-2.87523E-05 6.57280E-07-3.91321E-19 2.77308E-18
 -1       993 9.49080E-05-2.78894E-05-2.87223E-05 4.68495E-07-1.75648E-18 2.78663E-18
 -1       994 9.50275E-05-2.80738E-05-2.86945E-05 3.24315E-07-2.14327E-18 1.28193E-18
 -1       995 9.51127E-05-2.82166E-05-2.86698E-05 2.16207E-07-7.30510E-19 1.03159E-18
 -1       996 9.51714E-05-2.83251E-05-2.86484E-05 1.36639E-07-1.08663E-19 2.75098E-20
 -1       997 9.52104E-05-2.84058E-05-2.86305E-05 7.92939E-08 6.04775E-19-1.48047E-18
 -1       998 9.52347E-05-2.84648E-05-2.86157E-05 3.89694E-08 1.48810E-18 8.24575E-20
 -1       999 9.52485E-05-2.85070E-05-2.86035E-05 1.14869E-08 2.38495E-18 3.09210E-18
 -1      1000 9.52552E-05-2.85367E-05-2.85936E-05-6.28301E-09 2.80715E-18 3.78620E-18
 -1      1001 8.84139E-05-1.82259E-05-3.00825E-05-4.31155E-06 5.28362E-19-1.56340E-18
 -1      1002 6.54393E-05-1.51265E-05-2.15237E-05-2.27768E-06-1.76414E-19 2.25658E-18
 -1      1003 6.94081E-05-1.70433E-05-2.24206E-05 8.31821E-06 1.66072E-19 1.26102E-18
 -1      1004 6.94246E-05-2.00690E-05-2.10797E-05-1.56991E-05 1.17670E-18 8.17056E-20
 -1      1005 8.87823E-05-2.66379E-05-2.66332E-05 1.26221E-05-5.58633E-19 7.79234E-19
 -1      1006 8.97671E-05-2.38612E-05-2.82457E-05 6.49926E-06-1.30034E-18-3.25076E-19
 -1      1007 9.72856E-05-3.16842E-05-2.81122E-05-1.31674E-05-3.22429E-19-1.36206E-18
 -1      1008 8.60059E-05-1.76645E-05-2.92767E-05 4.99756E-06-4.07317E-19-1.23113E-18
 -1      1009 9.52572E-05-2.85520E-05-2.85880E-05-1.40447E-08 1.85789E-18 5.00050E-18
 -1      1010 8.42721E-05-2.03660E-05-2.73869E-05 9.66212E-06-2.86917E-19-1.35209E-18
 -1      1011 9.22901E-05-3.38604E-05-2.50195E-05 1.91519E-05-2.27731E-18 2.02618E-19
 -1      1012 8.41346E-05-1.47748E-05-2.97290E-05 2.01094E-06-1.39982E-20-2.02203E-18
 -1      1013 8.26960E-05-2.21871E-05-2.59292E-05 1.32152E-05 2.70353E-19-1.54331E-18
 -1      1014 9.74504E-05-3.61639E-05-2.62425E-05-1.83886E-05-1.24915E-18-1.07103E-18
 -1      1015 6.57563E-05-1.55996E-05-2.14195E-05 8.07613E-06 3.09189E-19-1.90856E-18
 -1      1016 8.33633E-05-1.62350E-05-2.87709E-05-3.73030E-06 2.37733E-19-1.90126E-18
 -1      1017 9.52590E-05-2.85455E-05-2.85915E-05 7.74913E-09 1.24095E-18-1.78607E-18
 -1      1018 8.23353E-05-2.73848E-05-2.34961E-05-2.04120E-05-9.91189E-19-1.54682E-18
 -1      1019 8.91784E-05-2.04351E-05-2.94623E-05-6.47308E-06 5.18784E-19-1.31704E-18
 -1      1020 6.58246E-05-1.60187E-05-2.12874E-05-9.43705E-06-7.57807E-19-2.30184E-18
 -1      1021 9.52585E-05-2.85482E-05-2.85901E-05-9.30134E-09 3.43205E-18 2.81803E-18
 -1      1022 6.85593E-05-1.67938E-05-2.21482E-05-7.78137E-06-2.38446E-20 1.01422E-18
 -1      1023 9.52588E-05-2.85415E-05-2.85931E-05-1.61067E-09 1.84071E-18-7.78971E-19
 -1      1024 8.96877E-05-2.93574E-05-2.58563E-05 1.55499E-05-5.46433E-19 3.45150E-19
 -1      1025 8.59087E-05-1.80541E-05-2.90765E-05-5.45760E-06 3.23112E-19-1.70704E-18
 -1      1026 7.96982E-05-2.23458E-05-2.45744E-05-1.32920E-05 1.17801E-18-3.36715E-19
 -1      1027 8.35458E-05-2.62222E-05-2.45531E-05 1.62126E-05-8.60696E-19-6.93794E-19
 -1      1028 8.92467E-05-2.34895E-05-2.81797E-05-1.03705E-05-5.27712E-20-1.22783E-18
 -1      1029 7.40062E-05-1.94940E-05-2.33452E-05-1.14267E-05 5.53427E-19-2.68738E-19
 -1      1030 9.52589E-05-2.85420E-05-2.85930E-05 2.70133E-09 4.50660E-19-2.10923E-18
 -1      1031 9.52530E-05-2.85178E-05-2.86008E-05-8.19564E-10 8.30643E-19-1.35099E-18
 -1      1032 8.19306E-05-2.14126E-05-2.59405E-05-9.90580E-06-7.06660E-21-8.55204E-19
 -1      1033 8.40966E-05-2.12998E-05-2.69144E-05-7.61480E-06-3.77442E-19 3.19754E-19
 -1      1034 8.60502E-05-2.16463E-05-2.76028E-05-6.02873E-06-2.73099E-19-4.81236E-19
 -1      1035 8.77688E-05-2.22534E-05-2.80788E-05-4.84142E-06-1.41363E-19 3.57838E-19
 -1      1036 8.92561E-05-2.29979E-05-2.83969E-05-3.91266E-06-1.60492E-18-1.17914E-18
 -1      1037 9.05145E-05-2.37817E-05-2.85999E-05-3.15935E-06-5.25445E-19-5.30634E-19
 -1      1038 9.15652E-05-2.45522E-05-2.87200E-05-2.53117E-06-1.38221E-18 4.65851E-19
 -1      1039 9.24249E-05-2.52652E-05-2.87829E-05-2.00849E-06-6.15103E-20 4.08035E-20
 -1      1040 9.31192E-05-2.59021E-05-2.88075E-05-1.57143E-06 4.87604E-19-1.42257E-18
 -1      1041 9.36716E-05-2.64548E-05-2.88073E-05-1.21118E-06-1.21083E-19-2.86992E-18
 -1      1042 9.41027E-05-2.69211E-05-2.87922E-05-9.18286E-07-3.42397E-19-2.22035E-18
 -1      1043 9.44346E-05-2.73075E-05-2.87688E-05-6.82867E-07-1.81535E-19-1.45213E-18
 -1      1044 9.46847E-05-2.76201E-05-2.87421E-05-4.97673E-07 1.17393E-18-1.09867E-18
 -1      1045 9.48702E-05-2.78685E-05-2.87151E-05-3.53507E-07 9.62699E-19 1.39257E-19
 -1      1046 9.50048E-05-2.80627E-05-2.86895E-05-2.43479E-07 3.17014E-19 5.07435E-19
 -1      1047 9.51001E-05-2.82117E-05-2.86665E-05-1.61079E-07 6.25792E-19-8.91445E-19
 -1      1048 9.51654E-05-2.83240E-05-2.86464E-05-1.00540E-07 3.34328E-18-1.63007E-19
 -1      1049 9.52084E-05-2.84070E-05-2.86292E-05-5.70452E-08 2.40950E-18 1.73536E-21
 -1      1050 9.52349E-05-2.84669E-05-2.86149E-05-2.65935E-08-5.82736E-19-1.10349E-18
 -1      1051 9.52505E-05-2.85102E-05-2.86029E-05-5.82172E-09-7.78636E-19-1.91439E-18
 -1      1052 9.16171E-05-2.46634E-05-2.86947E-05 2.25089E-06-8.58881E-19 1.13354E-18
 -1      1053 9.52590E-05-2.85444E-05-2.85920E-05-5.10336E-09 3.16566E-18 4.69982E-20
 -1      1054 8.49563E-05-2.19514E-05-2.70065E-05 7.54013E-06-1.12075E-18 3.91189E-19
 -1      1055 7.49663E-05-1.91482E-05-2.38957E-05 1.22719E-05 2.91158E-19-2.05165E-18
 -1      1056 8.19045E-05-1.51050E-05-2.86286E-05-8.14457E-07-2.89183E-20-2.20443E-18
 -1      1057 9.06187E-05-2.39416E-05-2.85761E-05 2.85627E-06-9.90048E-19 3.93350E-19
 -1      1058 8.94550E-05-2.32370E-05-2.83797E-05 3.61383E-06-1.53442E-18-6.78706E-19
 -1      1059 9.24412E-05-2.53359E-05-2.87598E-05 1.75757E-06-7.83913E-19 2.36002E-18
 -1      1060 9.31204E-05-2.59500E-05-2.87877E-05 1.35640E-06 8.17199E-20 2.79095E-18
 -1      1061 9.36673E-05-2.64889E-05-2.87909E-05 1.03440E-06 1.04751E-18 3.29738E-18
 -1      1062 9.40950E-05-2.69439E-05-2.87791E-05 7.76575E-07 3.81498E-19 2.77438E-18
 -1      1063 9.44287E-05-2.73258E-05-2.87585E-05 5.73823E-07-1.89452E-19 1.51300E-18
 -1      1064 9.46793E-05-2.76331E-05-2.87342E-05 4.14852E-07-9.29321E-19 1.41829E-18
 -1      1065 9.48670E-05-2.78791E-05-2.87092E-05 2.92364E-07-8.23237E-19 2.25482E-18
 -1      1066 9.50034E-05-2.80715E-05-2.86852E-05 1.99876E-07-8.60391E-19 1.91432E-18
 -1      1067 9.50999E-05-2.82190E-05-2.86633E-05 1.31061E-07 3.97011E-19 1.80600E-19
 -1      1068 9.51660E-05-2.83300E-05-2.86441E-05 8.07770E-08 1.13239E-18-1.06236E-18
 -1      1069 9.52095E-05-2.84119E-05-2.86275E-05 4.48637E-08-3.11125E-19 2.87089E-19
 -1      1070 9.52362E-05-2.84712E-05-2.86136E-05 1.98251E-08-7.79788E-19 2.38489E-18
 -1      1071 9.52510E-05-2.85129E-05-2.86020E-05 3.18636E-09 1.59450E-18 3.23602E-18
 -1      1072 8.12979E-05-1.70653E-05-2.75365E-05 5.27912E-06-5.36971E-19-1.58738E-18
 -1      1073 7.20256E-05-1.64989E-05-2.37772E-05 1.02518E-06 2.77562E-19 1.01987E-18
 -1      1074 9.52560E-05-2.85325E-05-2.85958E-05-4.06893E-09 2.70153E-18 4.12395E-18
 -1      1075 9.52519E-05-2.85142E-05-2.86019E-05-6.24713E-10 1.05220E-18-4.75494E-19
 -1      1076 8.32302E-05-2.22867E-05-2.61300E-05 9.96509E-06-7.52913E-19 6.57956E-19
 -1      1077 8.81033E-05-2.25900E-05-2.80782E-05 4.57185E-06-1.59052E-18 2.97873E-19
 -1      1078 8.65910E-05-2.21125E-05-2.76354E-05 5.82872E-06-6.61077E-19 8.39057E-19
 -1      1079 9.00824E-05-2.61507E-05-2.74004E-05-1.30451E-05-2.00410E-19-1.16196E-18
 -1      1080 7.67935E-05-1.98763E-05-2.43739E-05 1.00565E-05-9.44872E-19 2.92337E-19
 -1      1081 8.21988E-05-1.52821E-05-2.86750E-05 1.67212E-06-7.24879E-20-2.03648E-18
 -1      1082 9.04185E-05-3.04911E-05-2.56639E-05-1.79491E-05-9.44391E-19-1.02046E-18
 -1      1083 8.03842E-05-1.61645E-05-2.75255E-05-3.36108E-06 3.93945E-20-1.64251E-18
 -1      1084 7.63782E-05-2.12299E-05-2.36068E-05-1.50481E-05-8.48842E-19-1.94307E-18
 -1      1085 7.80706E-05-1.75626E-05-2.59279E-05 7.49930E-06-2.64553E-19-1.67817E-18
 -1      1086 9.52525E-05-2.85167E-05-2.86011E-05 1.85271E-11 2.97068E-19-1.78740E-18
 -1      1087 6.82282E-05-1.48906E-05-2.28309E-05-1.52669E-07-8.77994E-20-1.68357E-18
 -1      1088 8.39740E-05-2.11426E-05-2.69351E-05-1.05312E-05-1.37181E-19-1.76439E-18
 -1      1089 7.13320E-05-1.68266E-05-2.33482E-05-5.11994E-06 1.08783E-18 4.41922E-19
 -1      1090 7.80470E-05-1.94186E-05-2.51268E-05-8.20688E-06 6.59646E-19-1.32050E-19
 -1      1091 8.29707E-05-2.37380E-05-2.53824E-05 1.27454E-05-6.68666E-19-2.56546E-19
 -1      1092 9.45357E-05-3.14268E-05-2.70316E-05-1.55652E-05-6.61409E-19-8.05922E-19
 -1      1093 8.30269E-05-1.79927E-05-2.78718E-05-6.31811E-06 2.49367E-19-1.77273E-18
 -1      1094 8.31875E-05-2.02650E-05-2.69681E-05 4.19072E-06-1.46020E-18-1.01788E-20
 -1      1095 8.13022E-05-1.98378E-05-2.63402E-05-6.17166E-06-2.76140E-19-1.40522E-19
 -1      1096 8.39880E-05-2.05304E-05-2.71974E-05-4.81405E-06-4.13148E-19 1.74069E-19
 -1      1097 8.61886E-05-2.13457E-05-2.77905E-05-3.82938E-06-4.56683E-20 3.55560E-19
 -1      1098 8.80262E-05-2.22442E-05-2.81927E-05-3.08912E-06-1.35518E-18-7.26215E-19
 -1      1099 8.95465E-05-2.31454E-05-2.84577E-05-2.50549E-06-5.73055E-19 5.22681E-20
 -1      1100 9.08009E-05-2.40122E-05-2.86237E-05-2.01432E-06-1.03991E-18-1.46407E-18
 -1      1101 9.18233E-05-2.48102E-05-2.87201E-05-1.61118E-06-6.80356E-20-5.10699E-20
 -1      1102 9.26497E-05-2.55225E-05-2.87690E-05-1.26848E-06-2.05303E-19-3.28888E-19
 -1      1103 9.33116E-05-2.61449E-05-2.87859E-05-9.84091E-07-9.55285E-19-8.44160E-19
 -1      1104 9.38302E-05-2.66714E-05-2.87824E-05-7.52839E-07-3.18065E-19-1.43275E-18
 -1      1105 9.42319E-05-2.71096E-05-2.87667E-05-5.63416E-07 4.73600E-19-1.89707E-18
 -1      1106 9.45364E-05-2.74655E-05-2.87448E-05-4.14805E-07 1.27299E-18-4.46331E-19
 -1      1107 9.47640E-05-2.77497E-05-2.87205E-05-2.97352E-07 9.91791E-19-9.45805E-19
 -1      1108 9.49311E-05-2.79733E-05-2.86962E-05-2.07166E-07 1.35234E-18-1.55807E-18
 -1      1109 9.50505E-05-2.81457E-05-2.86735E-05-1.39186E-07 5.38536E-19 3.36032E-19
 -1      1110 9.51335E-05-2.82762E-05-2.86532E-05-8.88369E-08 2.77852E-18-2.43902E-19
 -1      1111 9.51891E-05-2.83732E-05-2.86354E-05-5.23090E-08 1.84595E-18-3.25090E-18
 -1      1112 9.52241E-05-2.84435E-05-2.86203E-05-2.67257E-08 1.75075E-19-5.01487E-18
 -1      1113 9.52419E-05-2.84853E-05-2.86099E-05-1.00617E-08-5.06128E-19-3.31107E-18
 -1      1114 9.23586E-05-2.53164E-05-2.87325E-05 8.74823E-07 3.30017E-19-3.62631E-19
 -1      1115 9.04006E-05-2.37804E-05-2.85504E-05 1.46493E-06-1.71175E-18 6.17019E-20
 -1      1116 8.90936E-05-2.29175E-05-2.83567E-05 1.90942E-06-1.63980E-18 4.11801E-19
 -1      1117 9.30774E-05-2.59660E-05-2.87622E-05 6.69342E-07 5.00504E-19 2.96837E-19
 -1      1118 9.36620E-05-2.65321E-05-2.87687E-05 5.06008E-07-1.09012E-20 7.40411E-19
 -1      1119 9.41004E-05-2.69942E-05-2.87595E-05 3.71107E-07 2.85649E-19 2.29996E-18
 -1      1120 9.44320E-05-2.73675E-05-2.87419E-05 2.69809E-07-4.83177E-19 3.18957E-18
 -1      1121 9.46890E-05-2.76745E-05-2.87205E-05 1.93565E-07-6.80726E-19 1.48940E-18
 -1      1122 9.48781E-05-2.79161E-05-2.86980E-05 1.34942E-07 1.87358E-20-1.12720E-18
 -1      1123 9.50144E-05-2.81031E-05-2.86762E-05 9.08213E-08 4.15546E-19-1.47080E-18
 -1      1124 9.51098E-05-2.82452E-05-2.86562E-05 5.82683E-08 2.96477E-19 9.96500E-19
 -1      1125 9.51744E-05-2.83513E-05-2.86385E-05 3.47432E-08-5.96226E-19 1.68794E-18
 -1      1126 9.52160E-05-2.84288E-05-2.86231E-05 1.78545E-08-4.77244E-19 1.60371E-18
 -1      1127 9.52413E-05-2.84847E-05-2.86100E-05 6.26295E-09 1.57553E-18-1.46082E-18
 -1      1128 9.52384E-05-2.84781E-05-2.86116E-05-4.19976E-09 1.30576E-18-2.72846E-18
 -1      1129 7.94751E-05-1.57860E-05-2.72972E-05 1.69119E-06-3.20394E-19-1.92095E-18
 -1      1130 8.37999E-05-2.40487E-05-2.56122E-05-1.47387E-05-6.92369E-19-1.45763E-18
 -1      1131 9.14623E-05-2.45743E-05-2.86664E-05 1.13219E-06-8.59630E-19-1.10015E-19
 -1      1132 8.04761E-05-1.96237E-05-2.60649E-05 5.61956E-06-3.61504E-19-2.18655E-19
 -1      1133 8.74356E-05-2.19788E-05-2.80532E-05 2.45927E-06-1.02405E-18 1.05430E-18
 -1      1134 7.91060E-05-1.78397E-05-2.62552E-05-7.41281E-06-1.68314E-19-1.64636E-18
 -1      1135 8.55149E-05-2.10917E-05-2.76100E-05 3.18789E-06-1.33850E-18 1.38487E-18
 -1      1136 7.73273E-05-1.83042E-05-2.53123E-05 4.38601E-06-3.52096E-19-1.79599E-19
 -1      1137 7.33953E-05-1.69064E-05-2.41735E-05-7.59966E-06-4.49656E-19-1.75358E-18
 -1      1138 7.30357E-05-1.59950E-05-2.44556E-05 4.81305E-06-1.96765E-19-1.52443E-18
 -1      1139 7.71956E-05-1.78690E-05-2.54152E-05-1.44397E-06-1.13732E-19 5.09942E-19
 -1      1140 7.55792E-05-1.56093E-05-2.56992E-05-3.82648E-07-1.57360E-19-1.62945E-18
 -1      1141 8.06451E-05-1.88739E-05-2.64716E-05-2.05920E-06-7.49764E-19 5.77822E-19
 -1      1142 8.37075E-05-2.00506E-05-2.72812E-05-1.63607E-06-8.88665E-19-5.13584E-19
 -1      1143 8.60804E-05-2.11347E-05-2.78340E-05-1.37621E-06-1.03891E-18-1.24421E-18
 -1      1144 8.80053E-05-2.21773E-05-2.82098E-05-1.13441E-06-1.25397E-18-9.08050E-19
 -1      1145 8.96516E-05-2.32225E-05-2.84651E-05-9.48320E-07-1.35870E-18-1.71693E-18
 -1      1146 9.08407E-05-2.40775E-05-2.86122E-05-7.88600E-07 7.02514E-19-6.37414E-19
 -1      1147 9.18709E-05-2.48995E-05-2.87021E-05-6.27210E-07-1.91252E-19-7.04708E-19
 -1      1148 9.27010E-05-2.56207E-05-2.87487E-05-5.02136E-07-1.06352E-18-8.18787E-19
 -1      1149 9.33612E-05-2.62401E-05-2.87656E-05-3.87071E-07-7.47391E-19-3.79405E-19
 -1      1150 9.38947E-05-2.67736E-05-2.87647E-05-2.97737E-07-1.25466E-18 2.16900E-19
 -1      1151 9.42705E-05-2.71875E-05-2.87498E-05-2.27833E-07 2.99424E-19-1.42509E-18
 -1      1152 9.45685E-05-2.75316E-05-2.87301E-05-1.63629E-07 2.08115E-18-1.69380E-18
 -1      1153 9.47913E-05-2.78058E-05-2.87081E-05-1.17303E-07 1.77641E-18-6.59210E-19
 -1      1154 9.49531E-05-2.80192E-05-2.86859E-05-8.12699E-08 9.95284E-19 4.32419E-19
 -1      1155 9.50679E-05-2.81825E-05-2.86652E-05-5.39795E-08-1.28427E-19-8.04122E-19
 -1      1156 9.51468E-05-2.83052E-05-2.86464E-05-3.38329E-08-3.01533E-20-3.65011E-18
 -1      1157 9.51987E-05-2.83953E-05-2.86300E-05-1.92223E-08 4.86859E-20-5.16304E-18
 -1      1158 9.52223E-05-2.84411E-05-2.86204E-05-9.24310E-09 7.31974E-19-4.89388E-18
 -1      1159 8.93462E-05-2.30598E-05-2.84199E-05 2.79231E-07-1.09199E-18-2.44871E-19
 -1      1160 9.38002E-05-2.67020E-05-2.87596E-05 4.14566E-08-1.04826E-18 4.22033E-19
 -1      1161 1.17711E-04 2.62259E-10-4.23943E-05-3.99371E-05-2.34205E-19 1.04835E-17
 -1      1162 9.09923E-05 7.87459E-11-3.81026E-05-2.15706E-05-1.44207E-19 2.52029E-18
 -1      1163 8.61029E-05 4.53489E-11-3.65384E-05-1.45201E-05-1.16467E-19-1.17003E-18
 -1      1164 8.34923E-05 3.23807E-11-3.55387E-05-1.01630E-05-7.93035E-20-3.05657E-18
 -1      1165 8.16127E-05 2.43344E-11-3.47980E-05-6.98896E-06-5.70688E-20-4.00813E-18
 -1      1166 8.01634E-05 1.86691E-11-3.42275E-05-4.61611E-06-4.23516E-20-4.47804E-18
 -1      1167 7.90958E-05 1.47275E-11-3.38076E-05-2.79943E-06-2.65757E-20-4.69970E-18
 -1      1168 7.84356E-05 1.24282E-11-3.35483E-05-1.33006E-06-9.92617E-21-4.81742E-18
 -1      1169 7.82284E-05 1.17781E-11-3.34662E-05-3.38444E-08-3.86790E-21-4.89453E-18
 -1      1170 7.84823E-05 1.27605E-11-3.35644E-05 1.28230E-06 9.50265E-21-4.90646E-18
 -1      1171 7.91754E-05 1.53300E-11-3.38348E-05 2.80772E-06 2.19434E-20-4.78277E-18
 -1      1172 8.02560E-05 1.93906E-11-3.42572E-05 4.70565E-06 3.70312E-20-4.46402E-18
 -1      1173 8.16912E-05 2.51524E-11-3.48226E-05 7.17009E-06 6.15687E-20-3.94126E-18
 -1      1174 8.35355E-05 3.32100E-11-3.55539E-05 1.04406E-05 8.60797E-20-2.99159E-18
 -1      1175 8.60806E-05 4.59100E-11-3.65496E-05 1.48670E-05 1.21232E-19-1.17816E-18
 -1      1176 9.06354E-05 7.37870E-11-3.81470E-05 2.15322E-05 1.36478E-19 2.42670E-18
 -1      1177 1.07830E-04 1.71306E-10-4.12096E-05 3.46952E-05 3.04932E-19 1.01335E-17
 -1      1178 1.30808E-04-2.62257E-05-4.07854E-05-2.51127E-05-1.01347E-18 1.56244E-17
 -1      1179 1.01112E-04-2.99792E-05-3.26971E-05-4.15681E-07-3.59671E-19 1.31739E-17
 -1      1180 9.63255E-05-2.88979E-05-2.97221E-05 4.55194E-07-1.22092E-19 9.63996E-18
 -1      1181 9.67028E-05-2.91251E-05-2.91932E-05 3.06923E-07-8.41408E-20 7.13392E-18
 -1      1182 9.88609E-05-2.97507E-05-2.97113E-05 2.39192E-07 7.12037E-21 5.57925E-18
 -1      1183 1.02098E-04-3.06863E-05-3.06607E-05 2.17133E-07-2.13363E-20 4.83701E-18
 -1      1184 1.05994E-04-3.18245E-05-3.18069E-05 2.12498E-07-8.16171E-20 3.86297E-18
 -1      1185 1.10123E-04-3.30350E-05-3.29972E-05 2.04737E-07 1.27179E-21 2.99045E-18
 -1      1186 1.13880E-04-3.41325E-05-3.40428E-05 1.69054E-07 4.07502E-20 1.95291E-18
 -1      1187 1.16388E-04-3.48542E-05-3.46860E-05 7.41677E-08-3.32030E-20 1.61393E-18
 -1      1188 1.16539E-04-3.48733E-05-3.46270E-05-1.08099E-07 1.60341E-20 1.09370E-18
 -1      1189 1.13309E-04-3.38956E-05-3.36289E-05-3.73212E-07 1.23237E-19 1.89195E-18
 -1      1190 1.06436E-04-3.18617E-05-3.16975E-05-6.42269E-07-8.78400E-20 1.56214E-18
 -1      1191 9.72339E-05-2.91764E-05-2.92462E-05-7.56233E-07-1.06442E-20 7.64659E-19
 -1      1192 8.87859E-05-2.67396E-05-2.70795E-05-5.65298E-07 5.62086E-20 1.83065E-19
 -1      1193 8.47575E-05-2.55884E-05-2.60746E-05-8.76413E-08-1.61598E-19-2.87978E-19
 -1      1194 8.71745E-05-2.62836E-05-2.66944E-05 4.41318E-07-1.32144E-19-1.51741E-18
 -1      1195 9.49911E-05-2.85367E-05-2.87024E-05 7.43404E-07-1.02471E-20-2.43162E-18
 -1      1196 1.04849E-04-3.14063E-05-3.13113E-05 7.21890E-07-1.28964E-19-2.43649E-18
 -1      1197 1.13274E-04-3.38899E-05-3.36468E-05 4.88070E-07-5.57851E-21-2.74195E-18
 -1      1198 1.18340E-04-3.54073E-05-3.51516E-05 2.13979E-07-2.28170E-20-2.43818E-18
 -1      1199 1.19866E-04-3.58856E-05-3.56986E-05 8.14692E-09 1.48224E-19-1.34412E-18
 -1      1200 1.18708E-04-3.55653E-05-3.54639E-05-1.04046E-07-5.30355E-20 5.18239E-19
 -1      1201 1.15977E-04-3.47706E-05-3.47361E-05-1.43157E-07-2.55743E-19-1.28609E-18
 -1      1202 1.12600E-04-3.37764E-05-3.37816E-05-1.39701E-07 8.65210E-20-6.15952E-19
 -1      1203 1.09193E-04-3.27669E-05-3.27900E-05-1.17472E-07-7.19817E-20 8.67573E-19
 -1      1204 1.06096E-04-3.18446E-05-3.18723E-05-9.05678E-08 2.10289E-19 6.52414E-19
 -1      1205 1.03454E-04-3.10547E-05-3.10805E-05-6.57343E-08-4.64032E-20-1.19736E-19
 -1      1206 1.01295E-04-3.04073E-05-3.04286E-05-4.53944E-08 1.26559E-19 7.49902E-19
 -1      1207 9.95877E-05-2.98937E-05-2.99102E-05-2.98356E-08 6.58841E-20 2.67294E-18
 -1      1208 9.82724E-05-2.94970E-05-2.95092E-05-1.84713E-08-1.28416E-20 2.50854E-18
 -1      1209 9.72826E-05-2.91977E-05-2.92065E-05-1.04700E-08 1.21281E-20 1.03833E-18
 -1      1210 9.65546E-05-2.89770E-05-2.89830E-05-5.02889E-09 1.53574E-19-1.85945E-18
 -1      1211 9.60317E-05-2.88180E-05-2.88220E-05-1.47032E-09-3.07260E-20-1.02166E-18
 -1      1212 9.56662E-05-2.87065E-05-2.87091E-05 7.40365E-10 7.25497E-20-5.19813E-19
 -1      1213 9.54192E-05-2.86309E-05-2.86324E-05 2.00974E-09 3.94892E-19 1.08476E-18
 -1      1214 9.52594E-05-2.85817E-05-2.85825E-05 2.63999E-09-5.60752E-20-1.75937E-19
 -1      1215 9.51626E-05-2.85516E-05-2.85520E-05 2.85177E-09-3.04071E-20-3.31223E-19
 -1      1216 9.51102E-05-2.85351E-05-2.85352E-05 2.80347E-09-1.79926E-20 5.89700E-19
 -1      1217 9.50882E-05-2.85279E-05-2.85278E-05 2.60654E-09-3.72426E-19-5.95932E-19
 -1      1218 9.50864E-05-2.85269E-05-2.85267E-05 2.33770E-09 4.13429E-20-2.22493E-18
 -1      1219 9.50973E-05-2.85299E-05-2.85296E-05 2.04815E-09-8.53325E-20-2.33157E-18
 -1      1220 9.51156E-05-2.85351E-05-2.85349E-05 1.77042E-09 2.22239E-19-7.97789E-19
 -1      1221 9.51378E-05-2.85416E-05-2.85413E-05 1.52296E-09 8.47690E-20-1.82502E-18
 -1      1222 9.51613E-05-2.85485E-05-2.85483E-05 1.31223E-09 2.71393E-19-2.87685E-18
 -1      1223 9.51843E-05-2.85553E-05-2.85551E-05 1.13123E-09 3.69723E-19-6.70449E-19
 -1      1224 9.52054E-05-2.85615E-05-2.85612E-05 9.50343E-10-1.32399E-19-3.37486E-19
 -1      1225 9.52228E-05-2.85667E-05-2.85663E-05 6.80296E-10 3.76463E-19-3.91422E-19
 -1      1226 9.52343E-05-2.85700E-05-2.85697E-05 1.36446E-10-1.75329E-19-1.70058E-18
 -1      1227 9.52379E-05-2.85714E-05-2.85716E-05-3.10921E-10 1.15386E-19-1.00462E-18
 -1      1228 1.31537E-04-3.77375E-05-3.92285E-05 1.18919E-05-1.74542E-19 1.65379E-17
 -1      1229 1.00264E-04-2.93179E-05-3.24452E-05 7.03648E-07 1.36716E-19 1.28009E-17
 -1      1230 9.63520E-05-2.87480E-05-2.96530E-05 8.53710E-08 1.19822E-19 9.37547E-18
 -1      1231 9.64640E-05-2.89549E-05-2.91310E-05-9.27900E-09 7.21202E-20 6.86891E-18
 -1      1232 9.83592E-05-2.95447E-05-2.95710E-05-4.88629E-08 5.45708E-20 5.40121E-18
 -1      1233 1.01237E-04-3.03923E-05-3.04044E-05-7.90898E-08 1.71532E-20 4.28125E-18
 -1      1234 1.04620E-04-3.13851E-05-3.13925E-05-1.14345E-07 6.23835E-20 3.41778E-18
 -1      1235 1.08052E-04-3.23910E-05-3.23738E-05-1.54249E-07-7.28002E-20 3.33178E-18
 -1      1236 1.10944E-04-3.32365E-05-3.31666E-05-1.87657E-07 1.45706E-19 2.10858E-18
 -1      1237 1.12527E-04-3.36986E-05-3.35483E-05-1.90858E-07-3.59129E-20 1.85432E-18
 -1      1238 1.11938E-04-3.35293E-05-3.32894E-05-1.30158E-07 8.26850E-20 1.12452E-18
 -1      1239 1.08506E-04-3.25365E-05-3.22443E-05 2.08161E-08 7.45621E-20 7.38189E-19
 -1      1240 1.02274E-04-3.07240E-05-3.04834E-05 2.46704E-07-2.53547E-20 5.49724E-19
 -1      1241 9.44974E-05-2.84363E-05-2.83917E-05 4.61781E-07-1.42364E-19 2.38757E-19
 -1      1242 8.76410E-05-2.63758E-05-2.66206E-05 5.36623E-07 1.54107E-19-1.08992E-18
 -1      1243 8.44393E-05-2.53606E-05-2.58348E-05 3.91932E-07-2.07430E-19-1.67779E-18
 -1      1244 8.63714E-05-2.58767E-05-2.63711E-05 8.00750E-08-2.11546E-19-2.03484E-18
 -1      1245 9.27065E-05-2.77512E-05-2.80454E-05-2.40218E-07 2.03050E-19-3.51296E-18
 -1      1246 1.00981E-04-3.02506E-05-3.02615E-05-4.25052E-07 1.21477E-19-5.66030E-18
 -1      1247 1.08487E-04-3.25339E-05-3.23364E-05-4.38472E-07-2.59073E-20-4.88452E-18
 -1      1248 1.13519E-04-3.40655E-05-3.37947E-05-3.35570E-07-2.97123E-21-4.54949E-18
 -1      1249 1.15670E-04-3.47174E-05-3.44779E-05-1.96133E-07-7.72487E-20-3.32435E-18
 -1      1250 1.15425E-04-3.46407E-05-3.44784E-05-7.46750E-08 5.62317E-21-4.77397E-18
 -1      1251 1.13607E-04-3.40897E-05-3.40048E-05 8.08098E-09 8.73296E-20-6.14717E-18
 -1      1252 1.10995E-04-3.33018E-05-3.32739E-05 5.35560E-08-1.11272E-19-5.88159E-18
 -1      1253 1.08163E-04-3.24499E-05-3.24564E-05 7.18405E-08-1.38664E-19-3.85421E-18
 -1      1254 1.05466E-04-3.16400E-05-3.16635E-05 7.34857E-08-1.21451E-20-3.70067E-18
 -1      1255 1.03086E-04-3.09262E-05-3.09555E-05 6.64940E-08-8.81894E-20-4.69615E-18
 -1      1256 1.01091E-04-3.03283E-05-3.03572E-05 5.60039E-08 1.24150E-19-5.94173E-18
 -1      1257 9.94818E-05-2.98460E-05-2.98716E-05 4.49372E-08-1.28848E-19-5.65711E-18
 -1      1258 9.82227E-05-2.94685E-05-2.94898E-05 3.47592E-08 8.38054E-20-6.85293E-18
 -1      1259 9.72633E-05-2.91808E-05-2.91978E-05 2.60698E-08 2.60878E-19-6.37180E-18
 -1      1260 9.65505E-05-2.89669E-05-2.89801E-05 1.89970E-08-3.00050E-19-1.16665E-18
 -1      1261 9.60345E-05-2.88120E-05-2.88219E-05 1.34361E-08-1.17485E-19-2.87506E-19
 -1      1262 9.56714E-05-2.87028E-05-2.87102E-05 9.18531E-09-1.28816E-19-1.64796E-18
 -1      1263 9.54245E-05-2.86286E-05-2.86338E-05 6.01770E-09 2.94697E-19-4.34534E-18
 -1      1264 9.52640E-05-2.85802E-05-2.85839E-05 3.71599E-09 1.54833E-20-7.68251E-18
 -1      1265 9.51662E-05-2.85507E-05-2.85532E-05 2.08780E-09 6.18298E-20-7.23714E-18
 -1      1266 9.51129E-05-2.85345E-05-2.85361E-05 9.70658E-10 3.67158E-19-8.58587E-18
 -1      1267 9.50901E-05-2.85276E-05-2.85285E-05 2.31857E-10 2.54976E-20-7.19062E-18
 -1      1268 9.50877E-05-2.85267E-05-2.85273E-05-2.34564E-10-1.46761E-19-5.40429E-18
 -1      1269 9.50981E-05-2.85298E-05-2.85300E-05-5.11864E-10-1.68406E-19-4.73595E-18
 -1      1270 9.51162E-05-2.85351E-05-2.85352E-05-6.64849E-10-1.04632E-19-2.77544E-18
 -1      1271 9.51381E-05-2.85416E-05-2.85416E-05-7.43803E-10 1.36008E-19-4.18617E-18
 -1      1272 9.51615E-05-2.85485E-05-2.85484E-05-7.87097E-10-2.01438E-19-4.19308E-18
 -1      1273 9.51844E-05-2.85554E-05-2.85552E-05-8.21813E-10 2.53110E-20-2.54691E-18
 -1      1274 9.52054E-05-2.85616E-05-2.85613E-05-8.60260E-10 2.05639E-19-4.04523E-18
 -1      1275 9.52228E-05-2.85667E-05-2.85663E-05-8.62253E-10-4.57485E-19-3.42660E-18
 -1      1276 9.52343E-05-2.85702E-05-2.85697E-05-6.16930E-10 3.35809E-19-2.54610E-18
 -1      1277 9.52378E-05-2.85714E-05-2.85716E-05 2.62148E-10-3.10730E-20-2.78279E-18
 -1      1278 9.52369E-05-2.85704E-05-2.85716E-05 2.12441E-10-3.34162E-18-4.21207E-19
 -1      1279 9.52382E-05-2.85742E-05-2.85697E-05-1.18509E-10-5.11228E-18-4.77242E-19
 -1      1280 9.52414E-05-2.85851E-05-2.85666E-05-6.87970E-10 1.57700E-18 2.25243E-19
 -1      1281 9.52458E-05-2.86001E-05-2.85624E-05-8.15077E-10 2.27617E-18-3.62459E-19
 -1      1282 9.52505E-05-2.86158E-05-2.85579E-05-7.50514E-10-3.70463E-18-4.84876E-19
 -1      1283 9.52546E-05-2.86298E-05-2.85538E-05-5.94947E-10-1.44598E-17-1.22916E-18
 -1      1284 9.52579E-05-2.86408E-05-2.85506E-05-4.15311E-10-1.74231E-17 1.98722E-19
 -1      1285 9.52599E-05-2.86477E-05-2.85486E-05-2.09375E-10-1.09886E-17 8.20983E-19
 -1      1286 9.52606E-05-2.86500E-05-2.85479E-05 1.01273E-12-9.28667E-18-4.28450E-19
 -1      1287 9.52599E-05-2.86476E-05-2.85486E-05 2.11666E-10-6.97723E-18 1.21068E-19
 -1      1288 9.52578E-05-2.86407E-05-2.85507E-05 4.17673E-10-6.94124E-18-8.19564E-19
 -1      1289 9.52546E-05-2.86297E-05-2.85539E-05 6.07836E-10-1.16485E-17 2.85849E-19
 -1      1290 9.52504E-05-2.86156E-05-2.85579E-05 7.54325E-10-6.75923E-18 1.88047E-19
 -1      1291 9.52458E-05-2.85999E-05-2.85624E-05 8.29153E-10-3.69102E-18 1.99884E-19
 -1      1292 9.52413E-05-2.85847E-05-2.85666E-05 8.18828E-10 1.79180E-19-3.94042E-19
 -1      1293 9.52384E-05-2.85744E-05-2.85697E-05 2.74974E-12 2.25101E-19-4.14690E-19
 -1      1294 9.52368E-05-2.85704E-05-2.85716E-05-2.09062E-10 1.15737E-18 4.18253E-19
 -1      1295 3.33928E-05-1.05444E-04 1.79086E-05-1.40877E-05 3.51095E-19 1.06551E-18
 -1      1296 1.67226E-05-6.24518E-05 8.93816E-06-2.48827E-05 1.22803E-17 5.50910E-18
 -1      1297 7.82256E-06-6.31696E-06-6.76500E-06 1.36182E-06 1.84297E-17 1.17958E-17
 -1      1298 3.72774E-05 2.45174E-05-2.69724E-05 5.55026E-05 1.84196E-17 1.78114E-17
 -1      1299 1.12506E-04 1.08824E-05-4.73787E-05 1.02503E-04 1.35254E-17 1.96681E-17
 -1      1300 2.10084E-04-3.49137E-05-6.44655E-05 1.06597E-04 6.28033E-18 1.36432E-17
 -1      1301 2.89586E-04-8.11201E-05-7.52860E-05 6.10991E-05 1.61550E-18 6.38028E-18
 -1      1302 3.08685E-04-9.28500E-05-7.77999E-05-1.80894E-05 6.04199E-19-2.28466E-18
 -1      1303 2.59827E-04-6.30471E-05-7.14679E-05-8.87167E-05 3.75109E-18-1.21405E-17
 -1      1304 1.65775E-04-1.18228E-05-5.74849E-05-1.12067E-04 8.85404E-18-1.69288E-17
 -1      1305 7.55016E-05 2.20916E-05-3.87096E-05-8.49187E-05 1.45639E-17-1.75692E-17
 -1      1306 2.01744E-05 1.54626E-05-1.81870E-05-3.18507E-05 1.88109E-17-1.51890E-17
 -1      1307 9.34775E-06-3.17660E-05 1.06699E-06 1.41168E-05 1.75302E-17-9.31440E-18
 -1      1308 2.60781E-05-8.86128E-05 1.45699E-05 2.37742E-05 9.85184E-18-3.43991E-18
 -1      1309 3.78228E-05-1.15209E-04 1.95160E-05 1.79182E-06-4.33046E-20-7.26013E-19
 -1      1310 2.89037E-05-9.56097E-05 1.60226E-05-2.22740E-05-9.36818E-18-2.63491E-18
 -1      1311 1.14340E-05-4.45725E-05 4.68334E-06-2.12298E-05-1.66916E-17-7.66777E-18
 -1      1312 1.15152E-05 7.02576E-06-1.25187E-05 1.57876E-05-2.00103E-17-1.46393E-17
 -1      1313 5.45778E-05 2.52994E-05-3.30067E-05 7.13195E-05-1.80994E-17-1.97799E-17
 -1      1314 1.39552E-04 3.55174E-07-5.29427E-05 1.10207E-04-1.27699E-17-2.14367E-17
 -1      1315 2.34894E-04-4.81260E-05-6.82455E-05 1.02117E-04-6.56578E-18-1.76225E-17
 -1      1316 3.01388E-04-8.75507E-05-7.69121E-05 4.76560E-05-1.75452E-18-7.97354E-18
 -1      1317 3.06462E-04-9.05220E-05-7.76525E-05-3.08205E-05-9.86343E-19 3.28818E-18
 -1      1318 2.51087E-04-5.77603E-05-7.02451E-05-9.36269E-05-4.17291E-18 1.21744E-17
 -1      1319 1.61304E-04-9.98202E-06-5.67150E-05-1.11851E-04-9.96958E-18 1.81570E-17
 -1      1320 7.55085E-05 2.19723E-05-3.90265E-05-8.59722E-05-1.50010E-17 1.87143E-17
 -1      1321 2.08427E-05 1.76756E-05-1.93605E-05-3.44336E-05-1.85297E-17 1.57311E-17
 -1      1322 7.22521E-06-2.19107E-05-1.46382E-06 1.09525E-05-1.70711E-17 9.69683E-18
 -1      1323 2.00716E-05-7.33559E-05 1.15503E-05 2.65015E-05-1.42446E-17 4.52951E-18
 -1      1324 3.50796E-05-1.09080E-04 1.84692E-05 1.26345E-05-1.02605E-17 1.66098E-18
 -1      1325 1.06828E-04-2.26185E-05-3.86043E-05-1.59505E-05-3.80106E-19 8.94509E-18
 -1      1326 9.31714E-05-7.36387E-06-3.69117E-05-1.75510E-05-1.21549E-18 8.15110E-19
 -1      1327 9.56442E-05-7.54163E-06-3.80733E-05-2.31485E-05-1.49459E-18 2.74550E-18
 -1      1328 8.80088E-05-4.47583E-06-3.58602E-05-1.29284E-05-1.25520E-18-2.01612E-18
 -1      1329 8.96795E-05-4.50942E-06-3.64411E-05-1.55736E-05-1.39427E-18-7.68365E-19
 -1      1330 9.51177E-05-1.13281E-05-3.59737E-05-1.58388E-05-2.12542E-18 6.96367E-19
 -1      1331 8.49902E-05-3.21586E-06-3.50712E-05-9.16402E-06-1.07001E-18-3.48406E-18
 -1      1332 8.61822E-05-3.21421E-06-3.54860E-05-1.09998E-05-1.20580E-18-2.80029E-18
 -1      1333 8.97587E-05-7.70574E-06-3.52354E-05-1.18375E-05-2.00231E-18-1.65211E-18
 -1      1334 8.27479E-05-2.41580E-06-3.44429E-05-6.28442E-06-8.79538E-19-4.26441E-18
 -1      1335 8.36767E-05-2.42065E-06-3.47649E-05-7.66076E-06-9.63394E-19-3.91770E-18
 -1      1336 8.62953E-05-5.68238E-06-3.46108E-05-8.39045E-06-1.63818E-18-2.92030E-18
 -1      1337 8.10422E-05-1.85113E-06-3.39508E-05-4.11672E-06-6.27731E-19-4.57997E-18
 -1      1338 8.17496E-05-1.85780E-06-3.41956E-05-5.15348E-06-7.35330E-19-4.39341E-18
 -1      1339 8.37508E-05-4.33764E-06-3.40854E-05-5.73300E-06-1.32772E-18-3.53544E-18
 -1      1340 7.98078E-05-1.45643E-06-3.35890E-05-2.40025E-06-4.02089E-19-4.77499E-18
 -1      1341 8.03013E-05-1.46294E-06-3.37605E-05-3.23005E-06-4.75265E-19-4.69128E-18
 -1      1342 8.18421E-05-3.39668E-06-3.36636E-05-3.69179E-06-9.06679E-19-3.87242E-18
 -1      1343 7.91151E-05-1.22745E-06-3.33854E-05-9.92580E-07-1.64311E-19-4.88605E-18
 -1      1344 7.93601E-05-1.23095E-06-3.34712E-05-1.69142E-06-2.43191E-19-4.82575E-18
 -1      1345 8.05446E-05-2.78668E-06-3.33651E-05-2.06313E-06-5.40559E-19-4.00099E-18
 -1      1346 7.89943E-05-1.16423E-06-3.33521E-05 2.93865E-07 4.23847E-20-4.92051E-18
 -1      1347 7.89786E-05-1.16392E-06-3.33478E-05-3.68078E-07-3.18431E-20-4.90052E-18
 -1      1348 7.99087E-05-2.49964E-06-3.32140E-05-6.89369E-07-1.72074E-19-4.11258E-18
 -1      1349 7.94446E-05-1.26480E-06-3.34897E-05 1.64707E-06 2.30419E-19-4.90445E-18
 -1      1350 7.91725E-05-1.26077E-06-3.33966E-05 9.28835E-07 1.60410E-19-4.92378E-18
 -1      1351 7.99557E-05-2.53181E-06-3.32207E-05 6.13023E-07 1.76018E-19-4.12836E-18
 -1      1352 8.04326E-05-1.52469E-06-3.37872E-05 3.24993E-06 4.02010E-19-4.76111E-18
 -1      1353 7.99236E-05-1.51697E-06-3.36120E-05 2.38487E-06 3.48845E-19-4.87311E-18
 -1      1354 8.06740E-05-2.87674E-06-3.33828E-05 2.02648E-06 4.81231E-19-4.09331E-18
 -1      1355 8.18785E-05-1.92900E-06-3.42176E-05 5.23887E-06 6.52004E-19-4.42069E-18
 -1      1356 8.11729E-05-1.92332E-06-3.39743E-05 4.16127E-06 5.59876E-19-4.61448E-18
 -1      1357 8.20100E-05-3.52187E-06-3.36825E-05 3.70951E-06 8.11954E-19-3.89717E-18
 -1      1358 8.38055E-05-2.50191E-06-3.47831E-05 7.85894E-06 9.58418E-19-3.81291E-18
 -1      1359 8.28874E-05-2.49900E-06-3.44650E-05 6.43521E-06 8.23316E-19-4.16597E-18
 -1      1360 8.39272E-05-4.48238E-06-3.40997E-05 5.83860E-06 1.21012E-18-3.50486E-18
 -1      1361 8.62747E-05-3.29249E-06-3.54939E-05 1.12957E-05 1.28040E-18-2.78383E-18
 -1      1362 8.51051E-05-3.30169E-06-3.50840E-05 9.41238E-06 1.11872E-18-3.40998E-18
 -1      1363 8.64779E-05-5.84673E-06-3.46190E-05 8.60446E-06 1.68834E-18-2.84950E-18
 -1      1364 8.97482E-05-4.52223E-06-3.64483E-05 1.59153E-05 1.47024E-18-7.73870E-19
 -1      1365 8.80734E-05-4.54274E-06-3.58608E-05 1.32854E-05 1.28648E-18-2.00127E-18
 -1      1366 8.99128E-05-7.87403E-06-3.52314E-05 1.21717E-05 2.05038E-18-1.64340E-18
 -1      1367 9.62825E-05-7.54646E-06-3.79449E-05 2.26780E-05 1.31258E-18 3.10930E-18
 -1      1368 9.29518E-05-7.12486E-06-3.69161E-05 1.83099E-05 1.28844E-18 7.32842E-19
 -1      1369 9.52975E-05-1.15544E-05-3.59409E-05 1.65734E-05 2.25094E-18 6.45863E-19
 -1      1370 1.25144E-04-2.54378E-05-3.96271E-05 2.69521E-05 7.05684E-19 1.07023E-17
 -1      1371 1.02749E-04-1.51983E-05-3.81291E-05 2.21091E-05 7.02296E-19 5.39973E-18
 -1      1372 1.04907E-04-2.04322E-05-3.62818E-05 1.88825E-05 2.19112E-18 4.22077E-18
 -1      1373 1.05517E-04-2.87782E-05-3.55659E-05 6.12217E-06 1.24890E-18 1.01972E-17
 -1      1374 1.08512E-04-3.13116E-05-3.44884E-05-6.58635E-06-1.20469E-18 9.26442E-18
 -1      1375 1.02775E-04-2.92768E-05-3.20476E-05-3.81004E-06-1.14535E-18 7.88863E-18
 -1      1376 1.00718E-04-2.94216E-05-3.08024E-05-1.31391E-06-9.02222E-19 7.30886E-18
 -1      1377 9.96073E-05-2.94573E-05-3.01037E-05-8.82222E-07-8.98861E-19 5.97404E-18
 -1      1378 1.04112E-04-2.95083E-05-3.23378E-05-5.60498E-06-1.94828E-18 4.48978E-18
 -1      1379 9.87930E-05-2.93348E-05-2.97538E-05 3.88617E-07-6.82656E-19 5.48562E-18
 -1      1380 9.92532E-05-2.95876E-05-2.98065E-05 5.26514E-07-6.22966E-19 4.52519E-18
 -1      1381 1.00911E-04-2.96076E-05-3.06907E-05-7.77530E-07-1.51534E-18 3.51670E-18
 -1      1382 9.94906E-05-2.96840E-05-2.98742E-05 1.21144E-06-3.94099E-19 4.09067E-18
 -1      1383 1.00742E-04-3.01138E-05-3.02318E-05 1.30932E-06-3.38939E-19 3.53332E-18
 -1      1384 1.00519E-04-2.98280E-05-3.03374E-05 1.53072E-06-1.07801E-18 2.70947E-18
 -1      1385 1.01594E-04-3.03707E-05-3.05007E-05 1.72426E-06-2.17324E-19 3.32892E-18
 -1      1386 1.03299E-04-3.09261E-05-3.09988E-05 1.79114E-06-3.23160E-19 2.93975E-18
 -1      1387 1.01611E-04-3.02871E-05-3.05929E-05 2.85338E-06-6.06436E-19 1.88585E-18
 -1      1388 1.04517E-04-3.12955E-05-3.13730E-05 2.01466E-06-3.85881E-19 2.89029E-18
 -1      1389 1.06454E-04-3.19270E-05-3.19331E-05 2.04502E-06-3.05956E-19 2.35764E-18
 -1      1390 1.03649E-04-3.09911E-05-3.11575E-05 3.63575E-06-6.25547E-19 1.58719E-18
 -1      1391 1.07835E-04-3.23600E-05-3.23450E-05 2.05051E-06-1.77293E-19 2.23513E-18
 -1      1392 1.09748E-04-3.29969E-05-3.28900E-05 2.02542E-06-2.61553E-19 1.77203E-18
 -1      1393 1.06223E-04-3.18802E-05-3.18682E-05 3.93266E-06-5.25574E-19 1.38690E-18
 -1      1394 1.11071E-04-3.34364E-05-3.32668E-05 1.73169E-06-1.36660E-19 1.71326E-18
 -1      1395 1.12600E-04-3.39697E-05-3.36914E-05 1.62179E-06-1.01095E-19 1.45105E-18
 -1      1396 1.08936E-04-3.28667E-05-3.25893E-05 3.61652E-06-4.99524E-19 1.35435E-18
 -1      1397 1.13589E-04-3.43376E-05-3.39461E-05 9.32554E-07-1.19392E-19 1.45113E-18
 -1      1398 1.14257E-04-3.46090E-05-3.41159E-05 7.08164E-07-3.45477E-19 1.21886E-18
 -1      1399 1.11313E-04-3.38161E-05-3.31733E-05 2.47262E-06-1.83217E-19 1.09608E-18
 -1      1400 1.14591E-04-3.47973E-05-3.41566E-05-4.13132E-07-7.82447E-20 1.43584E-18
 -1      1401 1.13884E-04-3.46156E-05-3.39367E-05-7.56173E-07 1.96115E-19 1.34453E-18
 -1      1402 1.12763E-04-3.45132E-05-3.34624E-05 3.29595E-07-1.49448E-19 1.44859E-18
 -1      1403 1.13266E-04-3.44945E-05-3.36988E-05-2.16199E-06 2.23544E-19 1.04119E-18
 -1      1404 1.10863E-04-3.37080E-05-3.30223E-05-2.55836E-06 1.61929E-20 1.05847E-18
 -1      1405 1.12646E-04-3.46478E-05-3.33260E-05-2.70668E-06 1.24805E-19 1.17060E-18
 -1      1406 1.09187E-04-3.31800E-05-3.25171E-05-3.80011E-06-1.08811E-19 1.09288E-18
 -1      1407 1.05322E-04-3.18198E-05-3.14741E-05-4.08381E-06-2.89619E-19 7.54177E-19
 -1      1408 1.10495E-04-3.38914E-05-3.27289E-05-5.94998E-06-6.08739E-20 3.69492E-19
 -1      1409 1.02905E-04-3.09396E-05-3.08269E-05-4.47439E-06-2.16078E-19 8.46133E-19
 -1      1410 9.86274E-05-2.93598E-05-2.97093E-05-4.43023E-06-1.88038E-19 5.81859E-19
 -1      1411 1.06443E-04-3.21442E-05-3.17982E-05-8.02513E-06-3.46455E-19 6.74371E-19
 -1      1412 9.63167E-05-2.84410E-05-2.91426E-05-3.43909E-06-1.93117E-19 2.27322E-19
 -1      1413 9.32747E-05-2.72789E-05-2.83678E-05-2.96932E-06-4.96520E-19-1.09320E-19
 -1      1414 1.01636E-04-2.98626E-05-3.08268E-05-7.38617E-06-7.06452E-19 3.52247E-19
 -1      1415 9.21605E-05-2.68095E-05-2.81121E-05-7.73662E-07-4.50370E-19-3.42360E-19
 -1      1416 9.17671E-05-2.66492E-05-2.80169E-05-5.87163E-08-4.68595E-19-8.49243E-19
 -1      1417 9.80957E-05-2.80831E-05-3.01771E-05-3.51114E-06-7.06611E-19-3.97239E-19
 -1      1418 9.24788E-05-2.69319E-05-2.81904E-05 2.34705E-06-5.43769E-19-1.03454E-18
 -1      1419 9.49787E-05-2.78770E-05-2.88322E-05 2.93461E-06-6.91854E-19-1.84696E-18
 -1      1420 9.76673E-05-2.78306E-05-3.01205E-05 2.16199E-06-7.84220E-19-5.16425E-19
 -1      1421 9.71889E-05-2.87527E-05-2.93749E-05 4.40107E-06-3.29324E-19-2.08026E-18
 -1      1422 1.01485E-04-3.03432E-05-3.04953E-05 4.59082E-06 4.89294E-20-2.12097E-18
 -1      1423 1.00677E-04-2.92896E-05-3.07013E-05 6.90569E-06-7.09496E-19-1.47918E-18
 -1      1424 1.04174E-04-3.13390E-05-3.12027E-05 4.63909E-06-2.28279E-19-2.42643E-18
 -1      1425 1.08586E-04-3.29064E-05-3.23868E-05 4.44592E-06-2.68728E-19-2.68033E-18
 -1      1426 1.05672E-04-3.16439E-05-3.17159E-05 8.67829E-06-2.22765E-19-2.48210E-18
 -1      1427 1.10770E-04-3.36260E-05-3.30214E-05 3.42431E-06 2.94278E-20-2.62220E-18
 -1      1428 1.13998E-04-3.47052E-05-3.39207E-05 3.04738E-06-4.30862E-20-2.53604E-18
 -1      1429 1.10536E-04-3.37639E-05-3.28141E-05 7.39198E-06-7.60609E-20-2.63493E-18
 -1      1430 1.15182E-04-3.50153E-05-3.43194E-05 1.64936E-06 8.17321E-20-2.86167E-18
 -1      1431 1.16738E-04-3.54803E-05-3.47776E-05 1.28202E-06 5.65130E-20-2.83722E-18
 -1      1432 1.13775E-04-3.49775E-05-3.36650E-05 4.39996E-06 1.06409E-20-2.46236E-18
 -1      1433 1.16908E-04-3.54423E-05-3.48925E-05 5.23382E-08 6.24634E-19-2.24818E-18
 -1      1434 1.16968E-04-3.54021E-05-3.49333E-05-2.08989E-07 6.66661E-19-1.14508E-18
 -1      1435 1.14948E-04-3.52310E-05-3.40805E-05 1.22332E-06 8.02021E-19-2.33751E-18
 -1      1436 1.16371E-04-3.51410E-05-3.48067E-05-1.03730E-06 8.14409E-20-7.80958E-19
 -1      1437 1.15410E-04-3.47834E-05-3.45494E-05-1.18009E-06-1.25917E-19-9.40789E-19
 -1      1438 1.14362E-04-3.48094E-05-3.40428E-05-1.22632E-06 7.14585E-19-1.68515E-18
 -1      1439 1.14353E-04-3.44116E-05-3.42631E-05-1.60614E-06-2.91968E-19-4.78124E-19
 -1      1440 1.12860E-04-3.39053E-05-3.38426E-05-1.65734E-06-4.67374E-20-9.59927E-19
 -1      1441 1.12605E-04-3.40369E-05-3.36501E-05-2.69878E-06-1.53081E-19-5.45797E-19
 -1      1442 1.11605E-04-3.35014E-05-3.34781E-05-1.78203E-06 4.89689E-19-4.02169E-19
 -1      1443 1.09949E-04-3.29633E-05-3.30019E-05-1.77585E-06 4.79267E-19 7.29772E-20
 -1      1444 1.10251E-04-3.31487E-05-3.30413E-05-3.33143E-06 4.76021E-19 6.36009E-19
 -1      1445 1.08680E-04-3.25746E-05-3.26210E-05-1.71384E-06 1.97067E-19 1.38106E-19
 -1      1446 1.07091E-04-3.20717E-05-3.21585E-05-1.67782E-06-6.66790E-21 1.90854E-19
 -1      1447 1.07728E-04-3.22816E-05-3.23431E-05-3.38774E-06 4.14670E-19-1.99298E-19
 -1      1448 1.05918E-04-3.17229E-05-3.18002E-05-1.52007E-06 2.01470E-19 4.80089E-19
 -1      1449 1.04513E-04-3.12863E-05-3.13882E-05-1.47237E-06 4.43475E-19 5.38693E-19
 -1      1450 1.05313E-04-3.15022E-05-3.16472E-05-3.11316E-06 2.84865E-19 1.04576E-18
 -1      1451 1.03490E-04-3.09877E-05-3.10726E-05-1.27923E-06-3.19768E-19 7.38447E-19
 -1      1452 1.02311E-04-3.06266E-05-3.07254E-05-1.23033E-06-2.68318E-19 2.76172E-19
 -1      1453 1.03155E-04-3.08356E-05-3.10091E-05-2.68647E-06 2.49560E-20 1.09019E-18
 -1      1454 1.01455E-04-3.03796E-05-3.04599E-05-1.03698E-06 6.80454E-19 1.31618E-19
 -1      1455 1.00504E-04-3.00912E-05-3.01786E-05-9.92171E-07 4.13688E-19 7.37147E-19
 -1      1456 1.01314E-04-3.02846E-05-3.04556E-05-2.21997E-06 4.78679E-19 7.47046E-19
 -1      1457 9.98095E-05-2.98924E-05-2.99627E-05-8.16540E-07 2.52780E-19 1.26983E-18
 -1      1458 9.90641E-05-2.96684E-05-2.97416E-05-7.78001E-07 7.27778E-19 2.18704E-18
 -1      1459 9.97974E-05-2.98410E-05-2.99943E-05-1.77589E-06 7.09190E-19 5.22741E-19
 -1      1460 9.85152E-05-2.95120E-05-2.95707E-05-6.27421E-07-6.17937E-20 2.37886E-18
 -1      1461 9.79453E-05-2.93421E-05-2.94012E-05-5.95609E-07-4.61457E-19 1.62812E-18
 -1      1462 9.85828E-05-2.94915E-05-2.96216E-05-1.38372E-06 5.23167E-19 1.14033E-18
 -1      1463 9.75212E-05-2.92216E-05-2.92691E-05-4.71429E-07-1.05189E-18 1.59336E-18
 -1      1464 9.70953E-05-2.90957E-05-2.91421E-05-4.45940E-07-1.19762E-18 6.24394E-19
 -1      1465 9.76325E-05-2.92218E-05-2.93280E-05-1.05350E-06-1.45044E-18 1.09201E-18
 -1      1466 9.67744E-05-2.90048E-05-2.90422E-05-3.46441E-07-4.11322E-19-2.20899E-21
 -1      1467 9.64634E-05-2.89135E-05-2.89492E-05-3.26497E-07-3.11830E-19-7.94516E-19
 -1      1468 9.69047E-05-2.90175E-05-2.91019E-05-7.84623E-07-1.41036E-18 1.03121E-18
 -1      1469 9.62257E-05-2.88463E-05-2.88752E-05-2.48616E-07 1.40011E-19-1.17065E-18
 -1      1470 9.60042E-05-2.87819E-05-2.88087E-05-2.33329E-07 3.21618E-19-8.03605E-19
 -1      1471 9.63588E-05-2.88659E-05-2.89314E-05-5.71310E-07-1.01037E-19-2.25915E-20
 -1      1472 9.58320E-05-2.87333E-05-2.87551E-05-1.73613E-07 4.78164E-19-7.31167E-19
 -1      1473 9.56786E-05-2.86892E-05-2.87090E-05-1.62123E-07 8.00093E-19 4.67829E-19
 -1      1474 9.59581E-05-2.87557E-05-2.88055E-05-4.05745E-07 5.94523E-19 5.92745E-20
 -1      1475 9.55571E-05-2.86550E-05-2.86712E-05-1.17222E-07 7.43226E-20 5.33176E-19
 -1      1476 9.54548E-05-2.86259E-05-2.86402E-05-1.08754E-07-2.97105E-19 5.27026E-19
 -1      1477 9.56707E-05-2.86776E-05-2.87147E-05-2.79779E-07 5.94591E-19 1.00832E-18
 -1      1478 9.53716E-05-2.86026E-05-2.86143E-05-7.56551E-08-6.15830E-19 1.09749E-19
 -1      1479 9.53066E-05-2.85845E-05-2.85946E-05-6.95447E-08-3.67974E-19-2.98551E-19
 -1      1480 9.54703E-05-2.86239E-05-2.86510E-05-1.85792E-07-6.59104E-19-2.68260E-19
 -1      1481 9.52520E-05-2.85692E-05-2.85776E-05-4.56556E-08 1.67877E-19-8.31296E-19
 -1      1482 9.52138E-05-2.85589E-05-2.85658E-05-4.13499E-08-9.08927E-20-7.40876E-19
 -1      1483 9.53352E-05-2.85883E-05-2.86077E-05-1.17064E-07-3.47646E-19-5.08508E-19
 -1      1484 9.51800E-05-2.85495E-05-2.85553E-05-2.45119E-08-4.86101E-19 1.60912E-19
 -1      1485 9.51604E-05-2.85446E-05-2.85492E-05-2.15617E-08-3.78429E-19-9.71107E-19
 -1      1486 9.52483E-05-2.85660E-05-2.85795E-05-6.79003E-08-4.89245E-19-8.55230E-19
 -1      1487 9.51415E-05-2.85394E-05-2.85433E-05-1.00215E-08-3.84294E-19-5.44413E-19
 -1      1488 9.51346E-05-2.85381E-05-2.85410E-05-8.06966E-09-6.56192E-19-1.71777E-18
 -1      1489 9.51963E-05-2.85532E-05-2.85623E-05-3.36040E-08 1.12450E-19-1.63039E-18
 -1      1490 9.51259E-05-2.85358E-05-2.85383E-05-4.33979E-10-3.55380E-19-1.20407E-18
 -1      1491 9.51274E-05-2.85368E-05-2.85385E-05 7.97814E-10-4.20989E-19-2.19711E-18
 -1      1492 9.51689E-05-2.85470E-05-2.85529E-05-1.03961E-08-4.10245E-19-7.29251E-19
 -1      1493 9.51256E-05-2.85365E-05-2.85380E-05 5.61187E-09-2.37928E-20-2.21065E-18
 -1      1494 9.51323E-05-2.85389E-05-2.85398E-05 6.33564E-09 1.73406E-19-1.50978E-18
 -1      1495 9.51583E-05-2.85452E-05-2.85489E-05 4.69994E-09-4.09154E-19-1.39093E-18
 -1      1496 9.51349E-05-2.85398E-05-2.85406E-05 9.14810E-09 7.74191E-19-1.18309E-18
 -1      1497 9.51445E-05-2.85430E-05-2.85433E-05 9.52057E-09 8.10806E-19-6.10507E-19
 -1      1498 9.51589E-05-2.85464E-05-2.85485E-05 1.39734E-08 9.46397E-19-1.00870E-18
 -1      1499 9.51498E-05-2.85446E-05-2.85450E-05 1.09296E-08-4.29365E-19 6.09125E-19
 -1      1500 9.51607E-05-2.85482E-05-2.85481E-05 1.10611E-08 2.65693E-19 1.42142E-19
 -1      1501 9.51665E-05-2.85494E-05-2.85503E-05 1.91326E-08 8.19431E-19 2.10435E-19
 -1      1502 9.51674E-05-2.85501E-05-2.85502E-05 1.14749E-08 3.36713E-19-7.71847E-19
 -1      1503 9.51786E-05-2.85537E-05-2.85534E-05 1.14350E-08 9.02333E-20 2.19064E-20
 -1      1504 9.51781E-05-2.85533E-05-2.85535E-05 2.13922E-08-4.80323E-19 1.22684E-18
 -1      1505 9.51857E-05-2.85558E-05-2.85556E-05 1.10933E-08 8.51207E-19-8.78390E-19
 -1      1506 9.51963E-05-2.85593E-05-2.85587E-05 1.09137E-08 8.51182E-19 7.20482E-19
 -1      1507 9.51914E-05-2.85577E-05-2.85573E-05 2.15384E-08 3.56211E-19 1.38456E-18
 -1      1508 9.52032E-05-2.85613E-05-2.85608E-05 9.89796E-09-6.23493E-19-6.43348E-19
 -1      1509 9.52125E-05-2.85643E-05-2.85635E-05 9.56825E-09-1.14015E-18-1.53792E-18
 -1      1510 9.52050E-05-2.85621E-05-2.85612E-05 1.99702E-08 6.29562E-21-9.89068E-19
 -1      1511 9.52184E-05-2.85661E-05-2.85652E-05 7.81867E-09 5.12993E-19-1.74280E-18
 -1      1512 9.52255E-05-2.85685E-05-2.85672E-05 7.27528E-09 5.67677E-19-1.07817E-18
 -1      1513 9.52174E-05-2.85663E-05-2.85647E-05 1.67160E-08-4.99292E-19-1.81229E-18
 -1      1514 9.52300E-05-2.85700E-05-2.85685E-05 4.63363E-09 1.53040E-19-8.99685E-19
 -1      1515 9.52340E-05-2.85712E-05-2.85697E-05 3.87667E-09-4.71369E-19-4.47946E-19
 -1      1516 9.52277E-05-2.85700E-05-2.85674E-05 1.16034E-08 9.11998E-19-2.50688E-18
 -1      1517 9.52370E-05-2.85716E-05-2.85708E-05 1.49380E-10-3.77167E-19 2.64461E-20
 -1      1518 9.52355E-05-2.85726E-05-2.85697E-05 3.89342E-09-2.36957E-19-3.69412E-19
 -1      1519 1.01280E-04-2.98039E-05-3.11415E-05 2.01336E-06 1.07817E-18 7.83654E-18
 -1      1520 1.06075E-04-3.04586E-05-3.32100E-05 3.41992E-06 9.39148E-19 9.51493E-18
 -1      1521 1.06020E-04-2.79806E-05-3.37727E-05 1.08288E-05 1.87988E-18 6.10679E-18
 -1      1522 9.85968E-05-2.93975E-05-2.97211E-05 1.95553E-07 8.20113E-19 5.70373E-18
 -1      1523 9.94916E-05-2.92349E-05-3.03138E-05 5.25348E-07 7.94305E-19 7.06837E-18
 -1      1524 1.01677E-04-2.96246E-05-3.10816E-05 3.02747E-06 1.60560E-18 4.57318E-18
 -1      1525 9.87436E-05-2.95512E-05-2.96340E-05-6.96631E-07 4.27348E-19 4.33210E-18
 -1      1526 9.82698E-05-2.92327E-05-2.95755E-05-4.99763E-07 4.50734E-19 5.15491E-18
 -1      1527 9.98981E-05-2.96189E-05-3.01728E-05-4.51859E-08 1.12716E-18 3.40565E-18
 -1      1528 1.00399E-04-3.00831E-05-3.01147E-05-1.19228E-06 3.35571E-19 3.42575E-18
 -1      1529 9.92433E-05-2.96448E-05-2.97869E-05-1.05896E-06 3.22197E-19 3.99797E-18
 -1      1530 1.00175E-04-2.98747E-05-3.01508E-05-1.55141E-06 6.85217E-19 2.57337E-18
 -1      1531 1.02884E-04-3.08538E-05-3.08556E-05-1.46217E-06 2.76646E-19 2.69142E-18
 -1      1532 1.01362E-04-3.03349E-05-3.04107E-05-1.37337E-06 2.36737E-19 3.15250E-18
 -1      1533 1.01646E-04-3.03994E-05-3.05527E-05-2.38565E-06 5.55630E-19 2.02272E-18
 -1      1534 1.05730E-04-3.17435E-05-3.16926E-05-1.52465E-06 1.78266E-20 2.35216E-18
 -1      1535 1.04073E-04-3.12001E-05-3.12131E-05-1.48548E-06 6.10797E-20 2.55695E-18
 -1      1536 1.03776E-04-3.11118E-05-3.11549E-05-2.77539E-06 2.66258E-19 1.69126E-18
 -1      1537 1.08456E-04-3.26140E-05-3.24770E-05-1.33026E-06 2.39146E-19 1.85606E-18
 -1      1538 1.06924E-04-3.21265E-05-3.20427E-05-1.36108E-06 9.99019E-20 2.09623E-18
 -1      1539 1.06135E-04-3.19135E-05-3.18093E-05-2.71722E-06 1.79963E-19 1.29936E-18
 -1      1540 1.10474E-04-3.32882E-05-3.30347E-05-8.03025E-07 1.97111E-19 1.37568E-18
 -1      1541 1.09404E-04-3.29675E-05-3.27440E-05-9.32337E-07 3.35776E-19 1.91200E-18
 -1      1542 1.08276E-04-3.26821E-05-3.23752E-05-2.10811E-06 4.05874E-19 1.12571E-18
 -1      1543 1.11098E-04-3.35445E-05-3.31702E-05 1.05924E-07 2.56327E-19 1.08058E-18
 -1      1544 1.10892E-04-3.35273E-05-3.31354E-05-1.44293E-07-5.38991E-20 1.09783E-18
 -1      1545 1.09680E-04-3.32547E-05-3.27027E-05-8.34801E-07 2.05147E-19 8.01985E-19
 -1      1546 1.09677E-04-3.31522E-05-3.27167E-05 1.33097E-06 1.35850E-19 1.00781E-18
 -1      1547 1.10711E-04-3.35671E-05-3.30329E-05 9.70485E-07 3.14567E-19 1.16090E-18
 -1      1548 1.09796E-04-3.34236E-05-3.26519E-05 1.09945E-06 2.88435E-19 5.27271E-19
 -1      1549 1.05915E-04-3.19713E-05-3.16268E-05 2.59068E-06 2.03847E-19 6.00229E-19
 -1      1550 1.08336E-04-3.28650E-05-3.23152E-05 2.19684E-06 1.12953E-19 7.36178E-19
 -1      1551 1.08189E-04-3.29728E-05-3.21441E-05 3.40132E-06 2.52363E-19 8.97789E-19
 -1      1552 1.00293E-04-3.01137E-05-3.00729E-05 3.36585E-06 1.90147E-19 5.63753E-19
 -1      1553 1.03765E-04-3.13529E-05-3.10206E-05 3.09128E-06 6.74285E-20 5.77465E-19
 -1      1554 1.04817E-04-3.17878E-05-3.12280E-05 5.35956E-06 1.58041E-19 7.37964E-19
 -1      1555 9.43163E-05-2.80724E-05-2.84781E-05 3.09242E-06 3.65137E-19-1.61519E-19
 -1      1556 9.78918E-05-2.92953E-05-2.94228E-05 3.10767E-06 3.34806E-19 2.94185E-19
 -1      1557 1.00344E-04-3.00326E-05-3.01215E-05 5.96997E-06 4.58672E-19 4.69375E-19
 -1      1558 9.01761E-05-2.66321E-05-2.73971E-05 1.58085E-06 1.73066E-19-1.07266E-18
 -1      1559 9.25419E-05-2.73541E-05-2.80059E-05 1.94859E-06 3.40838E-19-5.42869E-19
 -1      1560 9.62020E-05-2.82694E-05-2.91741E-05 4.47655E-06 5.31473E-19-5.23413E-19
 -1      1561 8.96851E-05-2.64667E-05-2.72639E-05-6.69598E-07 5.18411E-20-1.17012E-18
 -1      1562 8.98132E-05-2.63458E-05-2.72893E-05-8.03835E-08 5.30587E-20-1.29141E-18
 -1      1563 9.40882E-05-2.72894E-05-2.87340E-05 1.08763E-06 4.16184E-19-8.50534E-19
 -1      1564 9.31631E-05-2.76874E-05-2.81572E-05-2.67290E-06 2.75650E-19-2.20959E-18
 -1      1565 9.09429E-05-2.67573E-05-2.75751E-05-2.12501E-06 1.89577E-19-1.78049E-18
 -1      1566 9.50202E-05-2.76290E-05-2.89839E-05-2.86172E-06 4.90564E-19-1.50632E-18
 -1      1567 9.92170E-05-2.97595E-05-2.97562E-05-3.60693E-06 8.50099E-19-3.66045E-18
 -1      1568 9.55303E-05-2.84099E-05-2.87793E-05-3.31688E-06 6.58241E-19-2.51918E-18
 -1      1569 9.86625E-05-2.91542E-05-2.98498E-05-5.67111E-06 1.07627E-18-2.74991E-18
 -1      1570 1.05641E-04-3.18792E-05-3.15215E-05-3.32164E-06-3.13647E-19-4.40632E-18
 -1      1571 1.01802E-04-3.05968E-05-3.04783E-05-3.33079E-06 4.16542E-19-3.86157E-18
 -1      1572 1.03555E-04-3.11544E-05-3.10426E-05-6.38134E-06 1.01924E-18-2.62533E-18
 -1      1573 1.10630E-04-3.34463E-05-3.29636E-05-2.25182E-06 1.64725E-19-3.87838E-18
 -1      1574 1.07685E-04-3.25562E-05-3.21350E-05-2.45929E-06-4.22286E-19-4.28705E-18
 -1      1575 1.08035E-04-3.28595E-05-3.22009E-05-5.21122E-06-3.24347E-19-2.99246E-18
 -1      1576 1.13368E-04-3.42402E-05-3.38150E-05-9.78634E-07-3.85248E-19-3.36984E-18
 -1      1577 1.11766E-04-3.38329E-05-3.33415E-05-1.24778E-06-2.16655E-19-3.71382E-18
 -1      1578 1.11022E-04-3.38613E-05-3.30399E-05-3.07686E-06-3.24645E-19-2.55862E-18
 -1      1579 1.13933E-04-3.43381E-05-3.40511E-05 9.17360E-08 1.70055E-19-3.22819E-18
 -1      1580 1.13602E-04-3.43378E-05-3.39315E-05-1.44025E-07-1.31939E-19-3.18949E-18
 -1      1581 1.12214E-04-3.41379E-05-3.34334E-05-8.95781E-07-4.07800E-19-2.89269E-18
 -1      1582 1.12880E-04-3.39482E-05-3.38004E-05 8.02464E-07 2.51718E-19-4.03894E-18
 -1      1583 1.13476E-04-3.42158E-05-3.39512E-05 6.38577E-07 2.79577E-19-3.24261E-18
 -1      1584 1.11863E-04-3.38757E-05-3.34024E-05 7.92950E-07 3.49758E-19-2.69222E-18
 -1      1585 1.10861E-04-3.32863E-05-3.32425E-05 1.16862E-06 3.49441E-19-4.82956E-18
 -1      1586 1.11994E-04-3.36902E-05-3.35574E-05 1.07647E-06 3.73313E-19-4.48457E-18
 -1      1587 1.10454E-04-3.32998E-05-3.30525E-05 1.83735E-06 6.66757E-19-3.28083E-18
 -1      1588 1.08428E-04-3.25209E-05-3.25405E-05 1.27784E-06-8.96486E-19-4.20615E-18
 -1      1589 1.09779E-04-3.29645E-05-3.29273E-05 1.24068E-06-5.17499E-19-4.74305E-18
 -1      1590 1.08470E-04-3.25904E-05-3.25124E-05 2.31785E-06-3.62971E-19-3.69703E-18
 -1      1591 1.05960E-04-3.17622E-05-3.18135E-05 1.22572E-06-2.77792E-19-2.89041E-18
 -1      1592 1.07315E-04-3.21866E-05-3.22074E-05 1.22438E-06-3.35087E-19-3.61094E-18
 -1      1593 1.06292E-04-3.18657E-05-3.18938E-05 2.39767E-06-9.01672E-19-3.05581E-18
 -1      1594 1.03684E-04-3.10722E-05-3.11344E-05 1.08852E-06 9.19337E-20-2.31575E-18
 -1      1595 1.04919E-04-3.14472E-05-3.14973E-05 1.10735E-06-1.39772E-19-2.49029E-18
 -1      1596 1.04174E-04-3.11932E-05-3.12769E-05 2.23558E-06-3.12318E-19-1.69753E-18
 -1      1597 1.01708E-04-3.04790E-05-3.05403E-05 9.17967E-07 6.00986E-19-3.39021E-18
 -1      1598 1.02769E-04-3.07934E-05-3.08540E-05 9.46086E-07 4.97641E-19-2.66625E-18
 -1      1599 1.02260E-04-3.06049E-05-3.07104E-05 1.95282E-06 6.40888E-19-1.32005E-18
 -1      1600 1.00066E-04-2.99892E-05-3.00440E-05 7.45184E-07-3.84526E-19-3.98686E-18
 -1      1601 1.00938E-04-3.02429E-05-3.03032E-05 7.75822E-07-2.06277E-19-4.09636E-18
 -1      1602 1.00617E-04-3.01113E-05-3.02183E-05 1.62964E-06 1.65476E-19-1.50892E-18
 -1      1603 9.87452E-05-2.95975E-05-2.96436E-05 5.86756E-07 1.31691E-19-3.63644E-18
 -1      1604 9.94386E-05-2.97960E-05-2.98504E-05 6.16091E-07-4.29820E-20-3.73816E-18
 -1      1605 9.92568E-05-2.97100E-05-2.98079E-05 1.31342E-06-2.63318E-19-1.71226E-18
 -1      1606 9.77129E-05-2.92924E-05-2.93298E-05 4.49974E-07 2.27201E-19-4.17154E-18
 -1      1607 9.82491E-05-2.94437E-05-2.94902E-05 4.76113E-07 2.05128E-19-4.01435E-18
 -1      1608 9.81655E-05-2.93922E-05-2.94765E-05 1.02868E-06 3.00647E-19-2.18613E-18
 -1      1609 9.69257E-05-2.90607E-05-2.90899E-05 3.36652E-07-1.43413E-18-1.84936E-18
 -1      1610 9.73299E-05-2.91730E-05-2.92112E-05 3.58881E-07-8.96196E-19-3.66985E-18
 -1      1611 9.73121E-05-2.91463E-05-2.92160E-05 7.85446E-07-7.77934E-19-1.19048E-18
 -1      1612 9.63397E-05-2.88887E-05-2.89110E-05 2.45651E-07-4.45054E-19 3.50792E-19
 -1      1613 9.66368E-05-2.89701E-05-2.90004E-05 2.63927E-07-6.24202E-19-1.23511E-18
 -1      1614 9.66603E-05-2.89604E-05-2.90161E-05 5.85327E-07-1.65668E-18 1.93485E-19
 -1      1615 9.59142E-05-2.87642E-05-2.87809E-05 1.74431E-07 8.80277E-19-7.59414E-19
 -1      1616 9.61269E-05-2.88215E-05-2.88451E-05 1.89060E-07 4.11073E-19-1.52118E-19
 -1      1617 9.61739E-05-2.88229E-05-2.88663E-05 4.25417E-07 1.91826E-19-6.81974E-19
 -1      1618 9.56137E-05-2.86767E-05-2.86889E-05 1.19958E-07 2.65890E-19-2.24737E-18
 -1      1619 9.57614E-05-2.87157E-05-2.87336E-05 1.31404E-07 4.92179E-19-1.17695E-18
 -1      1620 9.58195E-05-2.87237E-05-2.87568E-05 3.00750E-07 1.09457E-18-4.29547E-19
 -1      1621 9.54084E-05-2.86172E-05-2.86258E-05 7.92003E-08 1.09783E-18-4.94641E-18
 -1      1622 9.55072E-05-2.86425E-05-2.86558E-05 8.79695E-08 8.94168E-19-3.19379E-18
 -1      1623 9.55683E-05-2.86540E-05-2.86787E-05 2.05714E-07 1.81763E-18-3.07767E-18
 -1      1624 9.52741E-05-2.85785E-05-2.85844E-05 4.93770E-08 3.96386E-19-5.81443E-18
 -1      1625 9.53369E-05-2.85939E-05-2.86036E-05 5.59625E-08 2.41635E-19-5.44496E-18
 -1      1626 9.53957E-05-2.86068E-05-2.86248E-05 1.34823E-07 5.26345E-19-3.85903E-18
 -1      1627 9.51916E-05-2.85549E-05-2.85589E-05 2.80714E-08 4.60591E-19-6.15562E-18
 -1      1628 9.52284E-05-2.85634E-05-2.85702E-05 3.29184E-08 2.88383E-19-5.61703E-18
 -1      1629 9.52820E-05-2.85762E-05-2.85890E-05 8.31088E-08 6.93253E-19-4.17816E-18
 -1      1630 9.51458E-05-2.85421E-05-2.85446E-05 1.32591E-08-6.80425E-19-6.27794E-18
 -1      1631 9.51645E-05-2.85457E-05-2.85504E-05 1.67523E-08 3.16064E-19-6.07370E-18
 -1      1632 9.52114E-05-2.85577E-05-2.85665E-05 4.62836E-08 4.25736E-19-5.10613E-18
 -1      1633 9.51256E-05-2.85366E-05-2.85381E-05 3.29324E-09-9.26203E-19-3.94052E-18
 -1      1634 9.51319E-05-2.85371E-05-2.85402E-05 5.75435E-09-1.05998E-18-6.05538E-18
 -1      1635 9.51717E-05-2.85477E-05-2.85536E-05 2.07764E-08-1.28370E-18-3.75581E-18
 -1      1636 9.51224E-05-2.85361E-05-2.85369E-05-3.13250E-09-6.37156E-19-2.54630E-18
 -1      1637 9.51206E-05-2.85345E-05-2.85365E-05-1.44200E-09 1.04762E-21-2.56370E-18
 -1      1638 9.51533E-05-2.85436E-05-2.85474E-05 3.69488E-09-1.16156E-18-5.35875E-19
 -1      1639 9.51301E-05-2.85387E-05-2.85390E-05-7.02769E-09 2.26500E-19-1.75163E-18
 -1      1640 9.51234E-05-2.85360E-05-2.85372E-05-5.90100E-09-2.21039E-19-2.06906E-18
 -1      1641 9.51494E-05-2.85434E-05-2.85457E-05-7.24356E-09-4.10179E-19 3.86568E-19
 -1      1642 9.51444E-05-2.85432E-05-2.85432E-05-9.14821E-09 8.41495E-20-1.50447E-18
 -1      1643 9.51348E-05-2.85398E-05-2.85405E-05-8.42727E-09-2.03629E-19-1.93929E-18
 -1      1644 9.51549E-05-2.85458E-05-2.85470E-05-1.37908E-08 1.77791E-19-2.87699E-19
 -1      1645 9.51620E-05-2.85486E-05-2.85484E-05-1.00327E-08 8.86702E-19-3.25903E-18
 -1      1646 9.51511E-05-2.85450E-05-2.85453E-05-9.60342E-09 1.05745E-18-2.26395E-18
 -1      1647 9.51659E-05-2.85495E-05-2.85500E-05-1.72427E-08 1.24128E-18-2.30872E-18
 -1      1648 9.51808E-05-2.85544E-05-2.85540E-05-1.00280E-08-4.05798E-19-3.19176E-18
 -1      1649 9.51696E-05-2.85508E-05-2.85508E-05-9.81848E-09-1.99162E-19-3.84614E-18
 -1      1650 9.51798E-05-2.85540E-05-2.85540E-05-1.84997E-08 7.29931E-19-2.82379E-18
 -1      1651 9.51990E-05-2.85600E-05-2.85595E-05-9.30448E-09 3.03522E-19-2.87592E-18
 -1      1652 9.51885E-05-2.85566E-05-2.85564E-05-9.28519E-09 1.85454E-19-3.01058E-18
 -1      1653 9.51947E-05-2.85588E-05-2.85583E-05-1.81083E-08 8.97600E-20-3.62582E-18
 -1      1654 9.52153E-05-2.85650E-05-2.85642E-05-7.86270E-09-6.07391E-19-3.11063E-18
 -1      1655 9.52061E-05-2.85621E-05-2.85616E-05-8.05329E-09-2.09265E-19-3.45882E-18
 -1      1656 9.52090E-05-2.85633E-05-2.85624E-05-1.62911E-08 2.61065E-19-2.65453E-18
 -1      1657 9.52279E-05-2.85690E-05-2.85679E-05-5.51743E-09-1.37212E-18-2.70387E-18
 -1      1658 9.52210E-05-2.85669E-05-2.85659E-05-6.01779E-09-5.89982E-19-3.62516E-18
 -1      1659 9.52214E-05-2.85674E-05-2.85659E-05-1.29649E-08-1.04740E-18-2.17799E-18
 -1      1660 9.52353E-05-2.85713E-05-2.85702E-05-2.27836E-09 6.51665E-19-2.54479E-18
 -1      1661 9.52318E-05-2.85704E-05-2.85691E-05-3.05547E-09 2.62731E-19-2.36839E-18
 -1      1662 9.52309E-05-2.85707E-05-2.85685E-05-7.88542E-09 2.87428E-19-2.34893E-18
 -1      1663 9.52370E-05-2.85717E-05-2.85708E-05-3.01328E-10-1.50609E-18-1.70127E-18
 -1      1664 9.52385E-05-2.85784E-05-2.85685E-05-4.69456E-09-1.33370E-18 9.27273E-19
 -1      1665 9.52372E-05-2.85746E-05-2.85697E-05-3.83323E-09-2.35285E-18 2.57431E-19
 -1      1666 9.52421E-05-2.85890E-05-2.85656E-05-7.17516E-09 2.00026E-18 1.94635E-18
 -1      1667 9.52399E-05-2.85826E-05-2.85674E-05-6.80901E-09-5.41885E-19 1.68253E-18
 -1      1668 9.52386E-05-2.85808E-05-2.85675E-05-1.10815E-08 5.16159E-19 2.32777E-18
 -1      1669 9.52463E-05-2.86016E-05-2.85620E-05-8.06912E-09-6.02516E-19-1.70647E-18
 -1      1670 9.52438E-05-2.85942E-05-2.85641E-05-8.02380E-09 2.10630E-18-3.06763E-19
 -1      1671 9.52423E-05-2.85903E-05-2.85651E-05-1.45928E-08 9.04448E-19 8.35201E-19
 -1      1672 9.52504E-05-2.86142E-05-2.85584E-05-7.66606E-09-4.64466E-18-2.96964E-18
 -1      1673 9.52480E-05-2.86069E-05-2.85605E-05-7.84851E-09-1.55872E-18-1.15170E-18
 -1      1674 9.52461E-05-2.86007E-05-2.85624E-05-1.52947E-08-1.04222E-18-2.70772E-18
 -1      1675 9.52538E-05-2.86249E-05-2.85553E-05-6.36587E-09-9.96994E-18-2.97614E-18
 -1      1676 9.52518E-05-2.86189E-05-2.85570E-05-6.68519E-09-5.21071E-18-5.00239E-18
 -1      1677 9.52496E-05-2.86106E-05-2.85597E-05-1.38063E-08-3.36989E-18-5.50839E-18
 -1      1678 9.52563E-05-2.86330E-05-2.85529E-05-4.44485E-09-8.90881E-18 1.46868E-18
 -1      1679 9.52549E-05-2.86286E-05-2.85541E-05-4.85951E-09-1.00294E-17 1.72733E-19
 -1      1680 9.52523E-05-2.86189E-05-2.85573E-05-1.08114E-08-3.46239E-18-2.30926E-18
 -1      1681 9.52577E-05-2.86376E-05-2.85515E-05-2.17424E-09-7.04514E-18 1.20427E-18
 -1      1682 9.52570E-05-2.86354E-05-2.85521E-05-2.63428E-09-8.98544E-18 2.25359E-18
 -1      1683 9.52543E-05-2.86249E-05-2.85556E-05-6.82438E-09-3.80439E-18 2.64172E-18
 -1      1684 9.52580E-05-2.86384E-05-2.85512E-05 2.48899E-10-5.23252E-18 7.07860E-19
 -1      1685 9.52580E-05-2.86384E-05-2.85512E-05-2.25276E-10-6.75395E-18 1.10977E-18
 -1      1686 9.52553E-05-2.86280E-05-2.85547E-05-2.31432E-09-4.23561E-18 1.69643E-18
 -1      1687 9.52570E-05-2.86353E-05-2.85521E-05 2.65822E-09-4.70305E-18 5.54087E-19
 -1      1688 9.52577E-05-2.86376E-05-2.85515E-05 2.19820E-09-5.22371E-18 8.69098E-19
 -1      1689 9.52553E-05-2.86280E-05-2.85547E-05 2.36016E-09-3.41361E-18 1.08992E-18
 -1      1690 9.52549E-05-2.86286E-05-2.85541E-05 4.88320E-09-6.12931E-18-1.14817E-18
 -1      1691 9.52563E-05-2.86329E-05-2.85529E-05 4.46972E-09-4.61522E-18-1.29035E-18
 -1      1692 9.52543E-05-2.86249E-05-2.85556E-05 6.87196E-09-3.31299E-18-6.19282E-19
 -1      1693 9.52518E-05-2.86188E-05-2.85570E-05 6.68947E-09-6.59219E-18 1.27712E-20
 -1      1694 9.52537E-05-2.86249E-05-2.85553E-05 6.37231E-09-6.37999E-18-8.02132E-19
 -1      1695 9.52523E-05-2.86189E-05-2.85573E-05 1.08328E-08-3.47594E-18-1.69364E-18
 -1      1696 9.52480E-05-2.86068E-05-2.85605E-05 7.86759E-09-4.25354E-18 3.07366E-19
 -1      1697 9.52503E-05-2.86140E-05-2.85584E-05 7.68626E-09-6.35597E-18 2.80639E-18
 -1      1698 9.52495E-05-2.86105E-05-2.85597E-05 1.38310E-08-3.28679E-18 2.64367E-18
 -1      1699 9.52438E-05-2.85940E-05-2.85642E-05 8.05446E-09-1.71030E-18 1.45691E-18
 -1      1700 9.52463E-05-2.86015E-05-2.85621E-05 8.08147E-09-3.57034E-18 1.35398E-18
 -1      1701 9.52461E-05-2.86005E-05-2.85624E-05 1.53217E-08-2.32083E-18 1.91268E-18
 -1      1702 9.52399E-05-2.85826E-05-2.85674E-05 6.77799E-09 2.00310E-19 2.09115E-19
 -1      1703 9.52421E-05-2.85889E-05-2.85656E-05 7.14570E-09-1.19794E-19 1.23833E-18
 -1      1704 9.52423E-05-2.85901E-05-2.85652E-05 1.45824E-08-2.79945E-19 2.05559E-18
 -1      1705 9.52370E-05-2.85754E-05-2.85693E-05 5.47346E-09-2.86994E-19-1.41654E-18
 -1      1706 9.52383E-05-2.85791E-05-2.85682E-05 6.73932E-09 7.48144E-19-1.01828E-18
 -1      1707 9.52383E-05-2.85813E-05-2.85672E-05 1.28816E-08 1.23501E-18-3.80674E-19
 -1      1708 9.52339E-05-2.85747E-05-2.85682E-05 1.05203E-08 6.78462E-19-2.65469E-18
 -1      1709 1.99369E-05-6.39661E-05 1.32105E-05-5.00608E-06 2.60081E-18 4.00752E-18
 -1      1710 2.33036E-05-7.43153E-05 1.55446E-05 2.33144E-06-3.32227E-18 3.29517E-18
 -1      1711 1.91606E-05-3.72548E-05 3.42535E-06 2.29601E-06 9.26146E-18 7.01449E-18
 -1      1712 2.38072E-05-6.03065E-05 9.50853E-06-1.66521E-06 4.79082E-18 4.05022E-18
 -1      1713 3.47098E-05-9.60970E-06-1.26967E-05 2.91490E-05 1.26166E-17 1.04202E-17
 -1      1714 2.81230E-05-3.02241E-05-3.80099E-06 1.02016E-05 1.05422E-17 8.04385E-18
 -1      1715 8.24777E-05-4.98036E-06-3.22199E-05 6.08047E-05 1.12977E-17 1.23565E-17
 -1      1716 5.59692E-05-9.39732E-06-2.20484E-05 3.82151E-05 1.21498E-17 1.05642E-17
 -1      1717 1.44133E-04-1.73797E-05-5.07285E-05 7.76871E-05 8.82354E-18 1.12825E-17
 -1      1718 1.02656E-04-4.03707E-06-4.16019E-05 6.66143E-05 1.16213E-17 1.26504E-17
 -1      1719 2.09452E-04-4.45988E-05-6.52458E-05 6.05798E-05 4.87743E-18 6.69410E-18
 -1      1720 1.68056E-04-2.47149E-05-5.82420E-05 7.06037E-05 7.34970E-18 9.82135E-18
 -1      1721 2.51479E-04-6.36136E-05-7.38045E-05 2.33262E-05 2.31388E-18 2.87314E-18
 -1      1722 2.28182E-04-5.06565E-05-7.05528E-05 5.23118E-05 3.56844E-18 5.78439E-18
 -1      1723 2.47190E-04-6.02367E-05-7.38473E-05-2.86689E-05 3.14990E-18-4.17460E-18
 -1      1724 2.54056E-04-6.42409E-05-7.47872E-05 6.54366E-06 2.70585E-18 5.67089E-19
 -1      1725 2.04162E-04-3.87296E-05-6.61287E-05-6.73375E-05 5.41609E-18-9.48507E-18
 -1      1726 2.38268E-04-5.71053E-05-7.11437E-05-4.51349E-05 3.57681E-18-6.23924E-18
 -1      1727 1.38439E-04-1.43953E-05-5.11351E-05-7.09098E-05 8.14168E-18-1.06946E-17
 -1      1728 1.82437E-04-3.26531E-05-5.93980E-05-7.13838E-05 5.89387E-18-1.00001E-17
 -1      1729 8.49145E-05-8.80749E-06-3.32303E-05-5.26895E-05 1.07980E-17-1.02745E-17
 -1      1730 1.18353E-04-1.39822E-05-4.25136E-05-6.86986E-05 8.96246E-18-1.05193E-17
 -1      1731 4.27262E-05-1.73004E-05-1.40467E-05-2.64964E-05 1.21473E-17-8.98278E-18
 -1      1732 6.09590E-05-5.30764E-06-2.40314E-05-4.91612E-05 1.16171E-17-1.06633E-17
 -1      1733 2.78859E-05-4.56665E-05 2.67014E-06-6.56211E-06 8.94636E-18-5.93707E-18
 -1      1734 2.88507E-05-2.21452E-05-5.46151E-06-1.95011E-05 1.13934E-17-8.53047E-18
 -1      1735 2.41825E-05-7.03467E-05 1.34830E-05-1.85666E-07 3.56431E-18-3.60370E-18
 -1      1736 1.88780E-05-5.11791E-05 8.95954E-06 1.91861E-06 8.01378E-18-5.21073E-18
 -1      1737 2.32004E-05-7.68969E-05 1.63784E-05-4.80411E-06-2.18259E-18-2.46783E-18
 -1      1738 2.26340E-05-7.53416E-05 1.61092E-05 5.13725E-06 2.22960E-18-2.58663E-18
 -1      1739 1.94898E-05-5.78568E-05 1.09576E-05-4.82733E-06-7.94517E-18-4.75609E-18
 -1      1740 2.43329E-05-7.35314E-05 1.45650E-05-4.99780E-07-3.82266E-18-3.11094E-18
 -1      1741 2.19508E-05-2.79836E-05-1.14006E-06 9.05923E-06-1.26623E-17-8.01759E-18
 -1      1742 2.44700E-05-5.21015E-05 6.00086E-06-7.25657E-08-9.96450E-18-5.54881E-18
 -1      1743 4.52119E-05-5.30092E-06-1.82777E-05 3.90627E-05-1.37990E-17-1.23320E-17
 -1      1744 3.33986E-05-2.16592E-05-9.05804E-06 1.78149E-05-1.29647E-17-9.55284E-18
 -1      1745 9.99528E-05-7.62538E-06-3.77921E-05 6.73844E-05-1.15874E-17-1.40048E-17
 -1      1746 6.83696E-05-6.91907E-06-2.76749E-05 4.65121E-05-1.28597E-17-1.25835E-17
 -1      1747 1.65057E-04-2.46319E-05-5.56835E-05 7.82543E-05-8.81634E-18-1.40447E-17
 -1      1748 1.21539E-04-8.24516E-06-4.69964E-05 7.19911E-05-1.09860E-17-1.46774E-17
 -1      1749 2.25211E-04-5.08162E-05-6.85333E-05 5.78473E-05-5.21902E-18-9.32329E-18
 -1      1750 1.87657E-04-3.15553E-05-6.26634E-05 7.26799E-05-7.59047E-18-1.25047E-17
 -1      1751 2.55868E-04-6.54036E-05-7.48567E-05 1.42915E-05-3.34260E-18-3.11729E-18
 -1      1752 2.39041E-04-5.56948E-05-7.24940E-05 4.50750E-05-4.37440E-18-7.45304E-18
 -1      1753 2.41102E-04-5.69334E-05-7.30245E-05-3.39758E-05-3.57194E-18 3.88873E-18
 -1      1754 2.52982E-04-6.34932E-05-7.47485E-05-1.43579E-06-3.26595E-18-9.14319E-19
 -1      1755 1.98938E-04-3.68470E-05-6.48765E-05-6.83142E-05-5.85713E-18 9.47237E-18
 -1      1756 2.32730E-04-5.47961E-05-7.00585E-05-4.95824E-05-3.62498E-18 6.36545E-18
 -1      1757 1.37779E-04-1.35391E-05-5.10102E-05-7.39147E-05-9.17421E-18 1.26869E-17
 -1      1758 1.78796E-04-3.07940E-05-5.86815E-05-7.49689E-05-7.26246E-18 1.02432E-17
 -1      1759 8.05641E-05-2.75848E-06-3.37767E-05-5.64297E-05-1.15671E-17 1.21913E-17
 -1      1760 1.14637E-04-8.59420E-06-4.29251E-05-7.33003E-05-9.67058E-18 1.37338E-17
 -1      1761 4.51503E-05-1.61826E-05-1.54266E-05-2.79624E-05-1.19593E-17 9.68328E-18
 -1      1762 6.35039E-05-5.87711E-06-2.48351E-05-4.95096E-05-1.17822E-17 1.11825E-17
 -1      1763 2.57438E-05-3.88245E-05 4.08132E-07-4.94403E-06-1.05828E-17 6.85525E-18
 -1      1764 2.77916E-05-1.77108E-05-7.09625E-06-1.89410E-05-1.21625E-17 9.32499E-18
 -1      1765 2.38476E-05-6.48934E-05 1.12619E-05 2.65322E-06-8.92773E-18 2.99786E-18
 -1      1766 1.90402E-05-4.51074E-05 6.36710E-06 1.41761E-06-9.99584E-18 4.63814E-18
 -1      1767 2.37422E-05-7.68185E-05 1.61417E-05-1.50265E-06-5.11735E-18 2.18662E-18
 -1      1768 2.10931E-05-6.91931E-05 1.44515E-05 6.85028E-06-8.18191E-18 2.28529E-18
 -1      1769 1.18380E-04-3.18814E-05-3.60807E-05 4.47799E-05 7.12948E-18 6.55434E-18
 -1      1770 7.57692E-05-3.47943E-05-1.84982E-05 4.00740E-05 6.62634E-18 7.14811E-18
 -1      1771 9.52363E-05-2.85724E-05-2.85702E-05-2.27800E-09-1.38353E-18-1.08432E-18
 -1      1772 9.52356E-05-2.85743E-05-2.85690E-05-6.59312E-09-1.34003E-19-9.67014E-19
 -1      1773 1.90123E-05-4.70599E-05 7.86207E-06 1.43896E-05 7.53012E-19 6.17212E-18
 -1      1774 3.94761E-05-4.06890E-05-2.58634E-06 2.72092E-05 4.36053E-18 7.29931E-18
 -1      1775 1.17107E-05-5.00060E-05 1.18773E-05 1.51959E-06-2.51378E-18 5.49555E-18
 -1      1776 1.60288E-04-3.09430E-05-5.23193E-05 4.07154E-05 7.01068E-18 5.22704E-18
 -1      1777 1.93980E-04-3.33597E-05-6.43460E-05 2.59032E-05 5.36595E-18 3.40041E-18
 -1      1778 2.12404E-04-3.53451E-05-7.04100E-05 6.62501E-06 4.66588E-18 8.41633E-19
 -1      1779 2.07229E-04-3.43266E-05-6.87803E-05-1.76812E-05 5.00004E-18-2.59997E-18
 -1      1780 1.81086E-04-3.27223E-05-5.97011E-05-3.41385E-05 5.53165E-18-5.08559E-18
 -1      1781 1.44382E-04-3.48626E-05-4.51212E-05-3.90021E-05 5.98196E-18-5.27109E-18
 -1      1782 1.04598E-04-3.71178E-05-2.85706E-05-4.26000E-05 6.41162E-18-5.72721E-18
 -1      1783 6.28910E-05-3.96891E-05-1.16348E-05-3.74667E-05 5.57178E-18-6.18313E-18
 -1      1784 3.11858E-05-4.40762E-05 2.35648E-06-2.54300E-05 3.48088E-18-6.28244E-18
 -1      1785 1.40893E-05-4.96317E-05 1.08054E-05-8.95405E-06 1.39400E-18-5.39433E-18
 -1      1786 1.34526E-05-5.14116E-05 1.16050E-05 5.89607E-06-1.47977E-18-5.12328E-18
 -1      1787 2.49950E-05-4.64118E-05 5.21800E-06 1.85378E-05-4.72983E-18-6.40526E-18
 -1      1788 4.92517E-05-3.86398E-05-7.07951E-06 3.14370E-05-7.56570E-18-7.54833E-18
 -1      1789 8.86773E-05-3.42280E-05-2.36812E-05 4.24537E-05-7.97905E-18-8.65287E-18
 -1      1790 1.31997E-04-3.24151E-05-4.11251E-05 4.45712E-05-7.71181E-18-8.50252E-18
 -1      1791 1.72990E-04-3.19673E-05-5.66271E-05 4.09491E-05-6.96330E-18-6.88384E-18
 -1      1792 2.03437E-04-3.47402E-05-6.70304E-05 2.51955E-05-6.01775E-18-4.65953E-18
 -1      1793 2.11900E-04-3.41778E-05-7.06958E-05 3.96849E-06-5.80387E-18-1.04497E-18
 -1      1794 2.03591E-04-3.34714E-05-6.78104E-05-1.86778E-05-5.28210E-18 2.26243E-18
 -1      1795 1.80245E-04-3.28816E-05-5.90747E-05-3.75102E-05-6.28345E-18 5.19824E-18
 -1      1796 1.41687E-04-3.04320E-05-4.54797E-05-4.55876E-05-6.88934E-18 7.44542E-18
 -1      1797 1.01635E-04-3.34727E-05-2.91873E-05-4.35126E-05-7.23832E-18 7.50556E-18
 -1      1798 6.41320E-05-3.76123E-05-1.30032E-05-3.67909E-05-6.52639E-18 6.91984E-18
 -1      1799 3.33637E-05-4.30530E-05 6.58406E-07-2.35704E-05-5.77084E-18 5.35116E-18
 -1      1800 1.73728E-05-4.98555E-05 9.40567E-06-1.12240E-05-4.68706E-18 3.29771E-18
 -1      1801 1.09026E-04-2.41978E-05-3.64512E-05-1.49328E-05-1.44742E-18 7.37850E-18
 -1      1802 9.07275E-05-1.07265E-05-3.44210E-05-9.51632E-06-2.11157E-18-1.52852E-18
 -1      1803 9.28163E-05-1.20973E-05-3.47174E-05-1.13911E-05-2.34538E-18-7.68762E-19
 -1      1804 9.54994E-05-1.47491E-05-3.47736E-05-1.25087E-05-2.27256E-18 1.91350E-19
 -1      1805 9.77400E-05-1.69679E-05-3.50838E-05-1.43836E-05-2.39860E-18 1.52323E-18
 -1      1806 9.62096E-05-1.70046E-05-3.39507E-05-9.96846E-06-2.40092E-18-2.08741E-19
 -1      1807 8.44442E-05-6.24163E-06-3.35916E-05-4.63182E-06-1.41701E-18-2.89913E-18
 -1      1808 8.56196E-05-6.81887E-06-3.38167E-05-5.75865E-06-1.60306E-18-2.72567E-18
 -1      1809 8.24151E-05-4.96164E-06-3.32530E-05-2.88582E-06-9.52320E-19-3.17799E-18
 -1      1810 8.32828E-05-5.35875E-06-3.34287E-05-3.78336E-06-1.17847E-18-3.03125E-18
 -1      1811 8.50780E-05-7.74830E-06-3.31641E-05-3.75009E-06-1.40014E-18-2.83076E-18
 -1      1812 8.11106E-05-4.16307E-06-3.30233E-05-1.49769E-06-5.25536E-19-3.23513E-18
 -1      1813 8.16323E-05-4.39214E-06-3.31330E-05-2.22984E-06-7.38891E-19-3.19875E-18
 -1      1814 8.30193E-05-6.31312E-06-3.28936E-05-2.27474E-06-8.94483E-19-3.05022E-18
 -1      1815 8.05741E-05-3.83188E-06-3.29259E-05-3.06723E-07-6.40217E-20-3.36692E-18
 -1      1816 8.07301E-05-3.89657E-06-3.29611E-05-9.60429E-07-2.66411E-19-3.30379E-18
 -1      1817 8.17895E-05-5.48790E-06-3.27181E-05-1.09968E-06-4.34341E-19-3.12781E-18
 -1      1818 8.08217E-05-3.96187E-06-3.29705E-05 8.63765E-07 2.99837E-19-3.37266E-18
 -1      1819 8.06087E-05-3.86455E-06-3.29289E-05 1.99453E-07 1.40287E-19-3.41471E-18
 -1      1820 8.14282E-05-5.25886E-06-3.26610E-05-6.86022E-08 6.71097E-20-3.27593E-18
 -1      1821 8.18290E-05-4.54399E-06-3.31512E-05 2.18952E-06 6.40248E-19-3.32389E-18
 -1      1822 8.12636E-05-4.28740E-06-3.30374E-05 1.42795E-06 4.64002E-19-3.37404E-18
 -1      1823 8.19393E-05-5.61600E-06-3.27286E-05 9.90496E-07 3.95925E-19-3.28433E-18
 -1      1824 8.35061E-05-5.54951E-06-3.34426E-05 3.80050E-06 1.07140E-18-3.03791E-18
 -1      1825 8.26356E-05-5.14421E-06-3.32705E-05 2.87926E-06 8.33957E-19-3.20398E-18
 -1      1826 8.32711E-05-6.53509E-06-3.29081E-05 2.22970E-06 7.90662E-19-3.15466E-18
 -1      1827 8.58671E-05-7.04458E-06-3.38256E-05 5.88758E-06 1.56982E-18-2.60972E-18
 -1      1828 8.46766E-05-6.45247E-06-3.36018E-05 4.69828E-06 1.27453E-18-2.84533E-18
 -1      1829 8.53652E-05-8.01778E-06-3.31739E-05 3.78957E-06 1.25956E-18-2.81475E-18
 -1      1830 8.89337E-05-9.16527E-06-3.42602E-05 8.52729E-06 2.07936E-18-1.96480E-18
 -1      1831 8.73993E-05-8.30954E-06-3.39990E-05 7.00858E-06 1.80882E-18-2.33739E-18
 -1      1832 8.82177E-05-1.01452E-05-3.34861E-05 5.75855E-06 1.81892E-18-2.26978E-18
 -1      1833 9.29962E-05-1.23731E-05-3.46960E-05 1.16939E-05 2.39935E-18-7.63494E-19
 -1      1834 9.09229E-05-1.09815E-05-3.44082E-05 9.81269E-06 2.19794E-18-1.48924E-18
 -1      1835 9.18935E-05-1.31271E-05-3.37737E-05 8.07622E-06 2.25561E-18-1.48611E-18
 -1      1836 9.92534E-05-1.81316E-05-3.49531E-05 1.45802E-05 2.48478E-18 1.66018E-18
 -1      1837 9.58402E-05-1.52291E-05-3.47265E-05 1.28188E-05 2.39741E-18 2.16258E-19
 -1      1838 9.67329E-05-1.75926E-05-3.39052E-05 1.02409E-05 2.50618E-18-1.16441E-19
 -1      1839 1.05541E-04-2.63090E-05-3.43751E-05 1.20100E-05 2.18630E-18 4.54751E-18
 -1      1840 1.01655E-04-2.08271E-05-3.46436E-05 1.41565E-05 2.35009E-18 2.63973E-18
 -1      1841 1.01094E-04-2.30408E-05-3.35141E-05 1.00992E-05 2.54683E-18 1.67535E-18
 -1      1842 1.03025E-04-2.74946E-05-3.25663E-05 7.03154E-06 2.18950E-18 3.81743E-18
 -1      1843 1.03740E-04-2.08308E-05-3.52301E-05-1.61704E-05-2.00309E-18 3.69878E-18
 -1      1844 1.00888E-04-2.89245E-05-3.08567E-05 1.63158E-06 1.65512E-18 2.87499E-18
 -1      1845 1.02522E-04-2.88258E-05-3.16191E-05 4.00592E-06 1.81538E-18 3.44479E-18
 -1      1846 1.02074E-04-2.69968E-05-3.21786E-05 5.86650E-06 2.16012E-18 2.21810E-18
 -1      1847 1.03520E-04-2.37282E-05-3.39228E-05-1.14656E-05-2.15334E-18 2.75603E-18
 -1      1848 1.02063E-04-2.84123E-05-3.14462E-05-2.64352E-06-1.67980E-18 2.35745E-18
 -1      1849 1.01100E-04-2.86594E-05-3.09988E-05-7.32462E-07-1.52874E-18 1.91480E-18
 -1      1850 1.00854E-04-2.89802E-05-3.07054E-05 9.80721E-07-1.41264E-18 1.84439E-18
 -1      1851 1.01036E-04-2.93196E-05-3.06835E-05 2.02112E-06-1.17401E-18 1.41783E-18
 -1      1852 1.00821E-04-2.78573E-05-3.13022E-05-3.40984E-07-1.71867E-18 7.85511E-19
 -1      1853 1.01218E-04-2.95689E-05-3.06473E-05 3.11989E-06-9.08899E-19 1.25941E-18
 -1      1854 1.01999E-04-2.99731E-05-3.08335E-05 3.75921E-06-6.66502E-19 9.25602E-19
 -1      1855 1.00899E-04-2.88358E-05-3.09141E-05 2.87190E-06-1.30501E-18 5.37578E-19
 -1      1856 1.02558E-04-3.02873E-05-3.09418E-05 4.45158E-06-5.88860E-19 8.17162E-19
 -1      1857 1.03713E-04-3.07938E-05-3.12363E-05 4.80442E-06-6.69715E-19 7.04281E-19
 -1      1858 1.01749E-04-2.96559E-05-3.09229E-05 4.91414E-06-8.97529E-19 1.05313E-19
 -1      1859 1.04572E-04-3.12199E-05-3.14211E-05 5.13278E-06-6.55129E-19 7.26377E-19
 -1      1860 1.05904E-04-3.18244E-05-3.17561E-05 5.17681E-06-5.72172E-19 6.59167E-19
 -1      1861 1.03252E-04-3.06184E-05-3.11507E-05 6.09515E-06-6.74670E-19-1.06716E-19
 -1      1862 1.06987E-04-3.23839E-05-3.19659E-05 5.07109E-06-4.43764E-19 7.51063E-19
 -1      1863 1.08283E-04-3.30525E-05-3.22758E-05 4.70846E-06-1.75455E-19 8.37279E-19
 -1      1864 1.05278E-04-3.18636E-05-3.14813E-05 6.39608E-06-4.77881E-19 2.59573E-19
 -1      1865 1.09497E-04-3.37368E-05-3.24672E-05 4.03049E-06-1.40535E-19 9.94450E-19
 -1      1866 1.10494E-04-3.43815E-05-3.26817E-05 3.14097E-06-6.77295E-20 9.23167E-19
 -1      1867 1.07672E-04-3.34381E-05-3.18272E-05 5.59703E-06-6.82159E-20 3.60323E-19
 -1      1868 1.11691E-04-3.51107E-05-3.28232E-05 1.75726E-06-6.76237E-20 1.12364E-18
 -1      1869 1.12073E-04-3.55513E-05-3.28773E-05 2.92670E-07 4.93066E-20 1.28177E-18
 -1      1870 1.10196E-04-3.52366E-05-3.21288E-05 3.40007E-06-2.48154E-20 4.83564E-19
 -1      1871 1.12992E-04-3.61105E-05-3.29608E-05-1.78105E-06 2.69330E-21 1.21396E-18
 -1      1872 1.12457E-04-3.60562E-05-3.28201E-05-3.64182E-06-6.76303E-21 9.25675E-19
 -1      1873 1.12423E-04-3.68609E-05-3.23700E-05-3.46162E-07-1.35148E-19 7.49131E-19
 -1      1874 1.12699E-04-3.60674E-05-3.28703E-05-6.00801E-06-1.32587E-19 7.80164E-19
 -1      1875 1.11117E-04-3.52142E-05-3.25625E-05-7.69497E-06-1.00638E-19 6.52255E-19
 -1      1876 1.13645E-04-3.74963E-05-3.25958E-05-5.25086E-06-1.87102E-19 9.66675E-19
 -1      1877 1.10329E-04-3.43189E-05-3.26269E-05-9.39873E-06-2.47036E-19 5.47422E-19
 -1      1878 1.07989E-04-3.26496E-05-3.22515E-05-9.99792E-06-5.67572E-19 5.22302E-19
 -1      1879 1.13026E-04-3.61380E-05-3.28962E-05-9.89143E-06-2.82792E-19 5.09851E-19
 -1      1880 1.06316E-04-3.09581E-05-3.23557E-05-9.80054E-06-6.96360E-19 3.48673E-19
 -1      1881 1.04049E-04-2.90725E-05-3.20485E-05-8.55144E-06-1.07621E-18 2.95714E-19
 -1      1882 1.10300E-04-3.24914E-05-3.33245E-05-1.18016E-05-8.91833E-19 2.99042E-19
 -1      1883 1.02467E-04-2.74969E-05-3.21519E-05-5.87637E-06-1.07741E-18 1.03047E-19
 -1      1884 1.01364E-04-2.64817E-05-3.20253E-05-2.95823E-06-6.97452E-19 1.81980E-20
 -1      1885 1.06677E-04-2.79880E-05-3.37837E-05-8.75379E-06-1.24554E-18 1.32346E-19
 -1      1886 1.01133E-04-2.62169E-05-3.20607E-05 1.15464E-06-9.13088E-19-7.04693E-19
 -1      1887 1.01836E-04-2.67829E-05-3.21638E-05 4.36645E-06-1.03447E-18-9.40590E-19
 -1      1888 1.04639E-04-2.54655E-05-3.40460E-05-1.09116E-06-1.21421E-18-9.53177E-19
 -1      1889 1.03202E-04-2.80615E-05-3.21173E-05 7.73166E-06-1.17179E-18-1.22512E-18
 -1      1890 1.05377E-04-2.98331E-05-3.24260E-05 9.63196E-06-8.68784E-19-1.48505E-18
 -1      1891 1.05891E-04-2.68328E-05-3.39677E-05 7.39342E-06-1.48248E-18-1.88139E-18
 -1      1892 1.07284E-04-3.16549E-05-3.23563E-05 1.06738E-05-6.31701E-19-2.12867E-18
 -1      1893 1.09902E-04-3.35508E-05-3.27777E-05 1.06527E-05-4.05165E-19-2.43563E-18
 -1      1894 1.09519E-04-3.10671E-05-3.36246E-05 1.22279E-05-1.31999E-18-2.09740E-18
 -1      1895 1.11161E-04-3.47941E-05-3.27408E-05 9.47133E-06-5.91897E-20-2.53727E-18
 -1      1896 1.13245E-04-3.59983E-05-3.31403E-05 8.05808E-06 2.01170E-20-2.55447E-18
 -1      1897 1.13003E-04-3.53183E-05-3.32433E-05 1.18382E-05-2.72544E-19-2.47682E-18
 -1      1898 1.13439E-04-3.62944E-05-3.31300E-05 5.80295E-06-8.23342E-20-2.26706E-18
 -1      1899 1.14523E-04-3.66488E-05-3.33896E-05 3.93755E-06 3.54430E-19-2.12045E-18
 -1      1900 1.14589E-04-3.75385E-05-3.29735E-05 7.84730E-06 4.25667E-20-2.42901E-18
 -1      1901 1.13897E-04-3.62618E-05-3.33579E-05 1.71310E-06 7.16021E-19-2.03804E-18
 -1      1902 1.13995E-04-3.60175E-05-3.34234E-05 9.50410E-08 9.61541E-19-1.72395E-18
 -1      1903 1.14131E-04-3.75385E-05-3.28008E-05 2.85387E-06 4.68906E-19-2.26064E-18
 -1      1904 1.12952E-04-3.53493E-05-3.33317E-05-1.53546E-06 1.06166E-18-1.51627E-18
 -1      1905 1.12320E-04-3.48185E-05-3.32163E-05-2.61960E-06 8.00588E-19-1.20101E-18
 -1      1906 1.12365E-04-3.62194E-05-3.26288E-05-1.35346E-06 1.17410E-18-1.42894E-18
 -1      1907 1.11157E-04-3.41391E-05-3.30559E-05-3.55573E-06 7.45174E-19-9.50851E-19
 -1      1908 1.10098E-04-3.35377E-05-3.28117E-05-4.11153E-06 6.44989E-19-5.57784E-20
 -1      1909 1.10052E-04-3.45054E-05-3.23826E-05-4.11590E-06 1.22506E-18-1.12419E-18
 -1      1910 1.08970E-04-3.29624E-05-3.25979E-05-4.48228E-06 4.74532E-19-1.05520E-19
 -1      1911 1.07734E-04-3.24006E-05-3.22847E-05-4.64132E-06 7.16748E-19 1.06207E-19
 -1      1912 1.07674E-04-3.29291E-05-3.20425E-05-5.50157E-06 8.32458E-19-4.04802E-19
 -1      1913 1.06708E-04-3.19512E-05-3.20428E-05-4.63334E-06 1.00207E-18-9.41911E-20
 -1      1914 1.05467E-04-3.14703E-05-3.17105E-05-4.54411E-06 9.41109E-19 5.60643E-19
 -1      1915 1.05459E-04-3.16775E-05-3.16304E-05-5.86530E-06 9.14667E-19-4.50691E-19
 -1      1916 1.04565E-04-3.11306E-05-3.14642E-05-4.32046E-06 5.52962E-19 5.14377E-19
 -1      1917 1.03421E-04-3.07373E-05-3.11466E-05-4.10182E-06 4.66371E-19 9.14125E-19
 -1      1918 1.03495E-04-3.07523E-05-3.11850E-05-5.58760E-06 1.04091E-18 1.81775E-19
 -1      1919 1.02648E-04-3.04828E-05-3.09138E-05-3.77921E-06 3.12640E-19 9.83920E-19
 -1      1920 1.01650E-04-3.01699E-05-3.06298E-05-3.51121E-06 3.47578E-19 1.19125E-18
 -1      1921 1.01802E-04-3.00903E-05-3.07429E-05-4.97068E-06 6.55474E-19-2.62911E-19
 -1      1922 1.01000E-04-2.99791E-05-3.04211E-05-3.16338E-06 6.36317E-20 1.06752E-18
 -1      1923 1.00164E-04-2.97350E-05-3.01789E-05-2.89359E-06 4.07269E-19 9.79902E-19
 -1      1924 1.00374E-04-2.96218E-05-3.03311E-05-4.22037E-06 2.64432E-19 4.27326E-19
 -1      1925 9.96275E-05-2.95916E-05-2.99993E-05-2.56221E-06 4.49856E-19 4.93227E-19
 -1      1926 9.89479E-05-2.94042E-05-2.97997E-05-2.31553E-06 9.63928E-19 5.57407E-19
 -1      1927 9.91909E-05-2.92903E-05-2.99655E-05-3.46184E-06 1.70120E-19 2.60249E-19
 -1      1928 9.85139E-05-2.92964E-05-2.96500E-05-2.02104E-06 8.80691E-19 6.66684E-20
 -1      1929 9.79753E-05-2.91547E-05-2.94901E-05-1.80812E-06-1.53392E-19-5.55537E-20
 -1      1930 9.82282E-05-2.90552E-05-2.96528E-05-2.76284E-06 3.64462E-19-5.34326E-19
 -1      1931 9.76302E-05-2.90742E-05-2.93686E-05-1.55801E-06-1.09494E-18 1.45269E-20
 -1      1932 9.72128E-05-2.89688E-05-2.92434E-05-1.38124E-06-1.35089E-18 7.80262E-20
 -1      1933 9.74580E-05-2.88885E-05-2.93932E-05-2.15405E-06-3.04819E-19-7.48763E-19
 -1      1934 9.69431E-05-2.89091E-05-2.91470E-05-1.17563E-06-1.70223E-18 1.20647E-18
 -1      1935 9.66263E-05-2.88322E-05-2.90511E-05-1.03306E-06-1.10961E-18 1.36702E-18
 -1      1936 9.68523E-05-2.87708E-05-2.91832E-05-1.64397E-06-7.51450E-19 4.72249E-19
 -1      1937 9.64193E-05-2.87885E-05-2.89762E-05-8.68297E-07-8.81611E-19 1.03137E-18
 -1      1938 9.61838E-05-2.87336E-05-2.89043E-05-7.55982E-07-2.65980E-21 9.79166E-19
 -1      1939 9.63842E-05-2.86885E-05-2.90169E-05-1.22881E-06-1.29275E-18 9.17963E-19
 -1      1940 9.60279E-05-2.87022E-05-2.88473E-05-6.26771E-07 2.34098E-19 8.53606E-19
 -1      1941 9.58567E-05-2.86640E-05-2.87945E-05-5.40091E-07 5.35128E-19 9.68460E-19
 -1      1942 9.60288E-05-2.86321E-05-2.88880E-05-8.98779E-07-2.23413E-19 8.35477E-19
 -1      1943 9.57415E-05-2.86419E-05-2.87519E-05-4.40731E-07 6.10114E-19 5.32763E-20
 -1      1944 9.56202E-05-2.86162E-05-2.87141E-05-3.75118E-07 2.45200E-19 6.68732E-20
 -1      1945 9.57641E-05-2.85945E-05-2.87900E-05-6.41771E-07 2.98370E-19-1.81639E-19
 -1      1946 9.55370E-05-2.86012E-05-2.86830E-05-3.00145E-07-2.33573E-19-6.36475E-19
 -1      1947 9.54535E-05-2.85846E-05-2.86566E-05-2.51432E-07-4.34852E-19-2.65718E-19
 -1      1948 9.55712E-05-2.85704E-05-2.87169E-05-4.45430E-07-3.02926E-19-1.00729E-18
 -1      1949 9.53951E-05-2.85749E-05-2.86344E-05-1.95941E-07-8.83958E-19-2.44353E-19
 -1      1950 9.53399E-05-2.85649E-05-2.86167E-05-1.60504E-07-1.01294E-18-9.76605E-19
 -1      1951 9.54338E-05-2.85561E-05-2.86637E-05-2.98245E-07-5.90031E-19-3.60170E-19
 -1      1952 9.53001E-05-2.85589E-05-2.86013E-05-1.20267E-07-2.54580E-19-9.13671E-19
 -1      1953 9.52655E-05-2.85536E-05-2.85899E-05-9.50623E-08 1.48974E-19-8.76508E-19
 -1      1954 9.53390E-05-2.85485E-05-2.86259E-05-1.90046E-07-6.62606E-19-9.71226E-19
 -1      1955 9.52396E-05-2.85502E-05-2.85797E-05-6.65478E-08 5.93032E-19-1.10691E-18
 -1      1956 9.52198E-05-2.85481E-05-2.85729E-05-4.90850E-08 9.07291E-19-8.63453E-19
 -1      1957 9.52759E-05-2.85455E-05-2.85998E-05-1.12176E-07 5.92386E-19-1.56156E-18
 -1      1958 9.52040E-05-2.85466E-05-2.85665E-05-2.94168E-08 5.18586E-19 8.90879E-20
 -1      1959 9.51946E-05-2.85466E-05-2.85629E-05-1.77026E-08 2.43217E-19 7.22064E-19
 -1      1960 9.52362E-05-2.85455E-05-2.85825E-05-5.74708E-08 1.28931E-18-3.49870E-19
 -1      1961 9.51860E-05-2.85464E-05-2.85592E-05-4.58983E-09-4.32812E-19-9.18256E-20
 -1      1962 9.51835E-05-2.85477E-05-2.85578E-05 2.93488E-09-7.03417E-19-1.16223E-19
 -1      1963 9.52133E-05-2.85473E-05-2.85717E-05-2.01428E-08-4.66485E-19 4.52654E-19
 -1      1964 9.51798E-05-2.85482E-05-2.85560E-05 1.12740E-08 1.07262E-19-3.91627E-19
 -1      1965 9.51819E-05-2.85503E-05-2.85561E-05 1.57974E-08 1.30148E-18-6.15626E-19
 -1      1966 9.52022E-05-2.85503E-05-2.85655E-05 4.37797E-09 3.44701E-20-4.63373E-19
 -1      1967 9.51816E-05-2.85514E-05-2.85556E-05 2.07093E-08 1.97434E-18-8.27517E-19
 -1      1968 9.51863E-05-2.85538E-05-2.85566E-05 2.31054E-08 7.23560E-19 3.38966E-19
 -1      1969 9.51991E-05-2.85538E-05-2.85625E-05 1.96079E-08 1.16691E-18-2.46941E-20
 -1      1970 9.51881E-05-2.85552E-05-2.85569E-05 2.55668E-08-2.51743E-19 9.98117E-19
 -1      1971 9.51944E-05-2.85578E-05-2.85584E-05 2.64405E-08 3.88638E-20 1.74469E-18
 -1      1972 9.52012E-05-2.85576E-05-2.85617E-05 2.81642E-08 8.32288E-19 2.79402E-19
 -1      1973 9.51973E-05-2.85593E-05-2.85591E-05 2.71115E-08 9.28299E-20 1.82223E-18
 -1      1974 9.52041E-05-2.85619E-05-2.85609E-05 2.68323E-08 5.99698E-19 1.91244E-18
 -1      1975 9.52064E-05-2.85615E-05-2.85622E-05 3.18984E-08 1.59815E-19 9.71113E-19
 -1      1976 9.52076E-05-2.85635E-05-2.85618E-05 2.61014E-08-1.33557E-18 1.09040E-18
 -1      1977 9.52141E-05-2.85661E-05-2.85635E-05 2.48253E-08-1.92821E-18-3.30498E-19
 -1      1978 9.52133E-05-2.85654E-05-2.85634E-05 3.20091E-08-1.43726E-18 1.08380E-18
 -1      1979 9.52178E-05-2.85677E-05-2.85644E-05 2.28876E-08-1.20576E-18-1.78733E-18
 -1      1980 9.52235E-05-2.85701E-05-2.85658E-05 2.05742E-08-7.63929E-19-1.41985E-18
 -1      1981 9.52207E-05-2.85694E-05-2.85648E-05 2.91514E-08-2.73845E-18-2.03849E-19
 -1      1982 9.52265E-05-2.85715E-05-2.85665E-05 1.76336E-08 4.35498E-19-2.55027E-18
 -1      1983 9.52310E-05-2.85735E-05-2.85676E-05 1.43363E-08 7.52948E-19-2.59942E-18
 -1      1984 9.52332E-05-2.85762E-05-2.85673E-05 1.66659E-08 7.28356E-19-1.43976E-18
 -1      1985 9.52275E-05-2.85732E-05-2.85661E-05 2.38191E-08-6.93253E-19-2.40390E-19
 -1      1986 1.00299E-04-2.93932E-05-3.03510E-05-1.02956E-06 1.09751E-18 2.15800E-18
 -1      1987 1.00619E-04-2.92499E-05-3.05235E-05 1.57035E-07 1.32432E-18 2.58716E-18
 -1      1988 1.00911E-04-2.86635E-05-3.09783E-05 9.48974E-07 1.65674E-18 1.68620E-18
 -1      1989 1.00957E-04-2.98849E-05-3.04299E-05-2.55373E-06 7.96899E-19 1.56161E-18
 -1      1990 1.00491E-04-2.96202E-05-3.03200E-05-1.85965E-06 8.17698E-19 2.00271E-18
 -1      1991 1.00715E-04-2.93532E-05-3.06002E-05-1.82758E-06 1.07697E-18 1.33666E-18
 -1      1992 1.02459E-04-3.05419E-05-3.08066E-05-3.40833E-06 5.20649E-19 1.16071E-18
 -1      1993 1.01542E-04-3.01695E-05-3.05580E-05-3.00187E-06 6.15575E-19 1.44563E-18
 -1      1994 1.01495E-04-2.99810E-05-3.06679E-05-3.44337E-06 7.84723E-19 9.00260E-19
 -1      1995 1.04438E-04-3.13548E-05-3.13202E-05-3.69629E-06 6.35027E-20 9.16596E-19
 -1      1996 1.03305E-04-3.09109E-05-3.10140E-05-3.54459E-06 3.36930E-19 1.17683E-18
 -1      1997 1.02955E-04-3.07392E-05-3.09679E-05-4.26724E-06 4.50064E-19 5.18371E-19
 -1      1998 1.06539E-04-3.22637E-05-3.18445E-05-3.34295E-06 4.58314E-19 8.18360E-19
 -1      1999 1.05408E-04-3.17996E-05-3.15477E-05-3.49377E-06 1.33646E-19 8.28742E-19
 -1      2000 1.04812E-04-3.16601E-05-3.13644E-05-4.34689E-06 2.99286E-19 3.70825E-19
 -1      2001 1.08364E-04-3.31566E-05-3.22559E-05-2.19830E-06 2.53104E-19 9.02848E-19
 -1      2002 1.07476E-04-3.27494E-05-3.20379E-05-2.73392E-06 4.46218E-19 9.49871E-19
 -1      2003 1.06768E-04-3.27012E-05-3.17486E-05-3.56584E-06 4.00772E-19 6.99067E-19
 -1      2004 1.09453E-04-3.38396E-05-3.24354E-05-1.59769E-07 5.93347E-19 5.64655E-19
 -1      2005 1.09074E-04-3.36038E-05-3.23659E-05-1.13804E-06 3.58546E-19 8.84445E-19
 -1      2006 1.08469E-04-3.37286E-05-3.20251E-05-1.77272E-06 4.39378E-19 6.70726E-19
 -1      2007 1.09323E-04-3.40192E-05-3.22968E-05 2.63669E-06 1.41018E-20 7.56592E-19
 -1      2008 1.09703E-04-3.41025E-05-3.24272E-05 1.27825E-06 2.23663E-19 6.19846E-19
 -1      2009 1.09479E-04-3.44711E-05-3.21231E-05 1.04216E-06 3.07665E-19 8.31445E-19
 -1      2010 1.07618E-04-3.33579E-05-3.18317E-05 5.58621E-06 3.87034E-19 8.89543E-19
 -1      2011 1.08884E-04-3.38929E-05-3.21664E-05 4.14550E-06 3.96729E-19 9.82929E-19
 -1      2012 1.09314E-04-3.45103E-05-3.20198E-05 4.49832E-06 3.86075E-19 9.25900E-19
 -1      2013 1.04394E-04-3.16887E-05-3.11451E-05 7.53538E-06 4.25750E-19 9.00343E-19
 -1      2014 1.06404E-04-3.26793E-05-3.16166E-05 6.57882E-06 2.12691E-19 8.97511E-19
 -1      2015 1.07640E-04-3.34337E-05-3.17596E-05 7.60384E-06 3.57054E-19 8.54722E-19
 -1      2016 1.00437E-04-2.93518E-05-3.04466E-05 7.16085E-06 1.06595E-18 2.16099E-19
 -1      2017 1.02672E-04-3.05405E-05-3.09177E-05 7.32235E-06 7.59542E-19 6.17011E-19
 -1      2018 1.04632E-04-3.12048E-05-3.14453E-05 8.85488E-06 7.72500E-19 6.08593E-19
 -1      2019 9.72915E-05-2.73481E-05-2.99788E-05 3.91240E-06 6.33647E-19-2.06358E-19
 -1      2020 9.89354E-05-2.82231E-05-3.02867E-05 5.41947E-06 6.16958E-19-8.50805E-20
 -1      2021 1.01310E-04-2.85631E-05-3.11952E-05 6.96377E-06 1.01406E-18 2.72890E-19
 -1      2022 9.65462E-05-2.68122E-05-2.99150E-05-1.17728E-06 5.08511E-19-9.99704E-19
 -1      2023 9.68611E-05-2.69019E-05-2.99421E-05 1.15124E-06 6.50310E-19-6.42840E-19
 -1      2024 9.92981E-05-2.68660E-05-3.10946E-05 2.03669E-06 8.78903E-19-3.24854E-19
 -1      2025 9.87252E-05-2.81193E-05-3.02910E-05-5.86160E-06 5.07042E-19-1.81329E-18
 -1      2026 9.75080E-05-2.73550E-05-3.00178E-05-3.75236E-06 5.79979E-19-1.34784E-18
 -1      2027 9.97781E-05-2.71375E-05-3.11740E-05-3.96775E-06 7.60000E-19-1.02823E-18
 -1      2028 1.02841E-04-3.05315E-05-3.09967E-05-8.16795E-06 1.21253E-18-2.28855E-18
 -1      2029 1.00578E-04-2.93096E-05-3.05107E-05-7.13094E-06 1.10139E-18-2.11883E-18
 -1      2030 1.02560E-04-2.92562E-05-3.14223E-05-8.35177E-06 1.45134E-18-1.50271E-18
 -1      2031 1.07130E-04-3.28278E-05-3.18223E-05-7.64929E-06 8.13446E-19-1.78871E-18
 -1      2032 1.04675E-04-3.16911E-05-3.12758E-05-7.83381E-06 1.05832E-18-1.89788E-18
 -1      2033 1.06227E-04-3.19974E-05-3.17917E-05-9.51465E-06 1.02190E-18-1.74674E-18
 -1      2034 1.10228E-04-3.42364E-05-3.25345E-05-5.24529E-06-5.91110E-19-2.56291E-18
 -1      2035 1.08307E-04-3.35104E-05-3.20801E-05-6.23341E-06 1.63120E-20-2.24977E-18
 -1      2036 1.09251E-04-3.40924E-05-3.21914E-05-7.76472E-06 4.69534E-19-1.79921E-18
 -1      2037 1.11631E-04-3.46396E-05-3.29661E-05-2.28746E-06-5.99527E-19-2.56081E-18
 -1      2038 1.10583E-04-3.43769E-05-3.26985E-05-3.51447E-06-4.87190E-19-2.38410E-18
 -1      2039 1.10839E-04-3.49870E-05-3.25011E-05-4.51592E-06-4.42720E-19-2.08194E-18
 -1      2040 1.11506E-04-3.43150E-05-3.30632E-05 2.60301E-07-2.38460E-19-2.51645E-18
 -1      2041 1.11321E-04-3.44051E-05-3.30027E-05-8.04865E-07-4.07727E-19-2.47611E-18
 -1      2042 1.10971E-04-3.48412E-05-3.26303E-05-1.17736E-06-3.98053E-19-2.11274E-18
 -1      2043 1.10308E-04-3.36086E-05-3.28645E-05 1.99721E-06 8.03560E-19-2.30550E-18
 -1      2044 1.10781E-04-3.39055E-05-3.29775E-05 1.26169E-06 3.90687E-19-2.42874E-18
 -1      2045 1.10024E-04-3.40929E-05-3.25491E-05 1.42586E-06 4.44249E-19-1.92573E-18
 -1      2046 1.08507E-04-3.27765E-05-3.24573E-05 2.92675E-06 5.96544E-19-3.42654E-18
 -1      2047 1.09385E-04-3.31629E-05-3.26863E-05 2.52299E-06 9.97524E-19-2.63310E-18
 -1      2048 1.08441E-04-3.31318E-05-3.22821E-05 3.05537E-06 1.23120E-18-2.43463E-18
 -1      2049 1.06472E-04-3.19646E-05-3.19369E-05 3.23471E-06-1.31529E-18-3.14456E-18
 -1      2050 1.07535E-04-3.23650E-05-3.22248E-05 3.08902E-06-9.48516E-19-3.74261E-18
 -1      2051 1.06581E-04-3.21907E-05-3.18859E-05 3.82220E-06-3.44377E-19-2.80899E-18
 -1      2052 1.04451E-04-3.12400E-05-3.13823E-05 3.13866E-06-8.71191E-19-1.76610E-18
 -1      2053 1.05540E-04-3.16128E-05-3.16843E-05 3.16292E-06-1.41259E-18-2.52745E-18
 -1      2054 1.04685E-04-3.13701E-05-3.14235E-05 3.96508E-06-1.54239E-18-1.74770E-18
 -1      2055 1.02592E-04-3.06252E-05-3.08482E-05 2.81957E-06-1.62914E-19-1.28127E-18
 -1      2056 1.03608E-04-3.09511E-05-3.11348E-05 2.93960E-06-2.15952E-19-1.28683E-18
 -1      2057 1.02904E-04-3.06951E-05-3.09481E-05 3.72167E-06-5.26811E-19-1.57541E-18
 -1      2058 1.00966E-04-3.01204E-05-3.03666E-05 2.40476E-06 8.47603E-19 8.16915E-20
 -1      2059 1.01860E-04-3.03936E-05-3.06217E-05 2.56779E-06 5.43327E-19-6.83541E-19
 -1      2060 1.01314E-04-3.01570E-05-3.04974E-05 3.27785E-06 3.44028E-19-5.20443E-19
 -1      2061 9.95980E-05-2.97158E-05-2.99525E-05 1.97395E-06-1.48223E-19-1.04423E-18
 -1      2062 1.00351E-04-2.99376E-05-3.01692E-05 2.14650E-06 2.82140E-19-6.43777E-19
 -1      2063 9.99511E-05-2.97361E-05-3.00934E-05 2.76012E-06 5.57142E-19-2.01422E-19
 -1      2064 9.84811E-05-2.93982E-05-2.96089E-05 1.57165E-06 3.97698E-19-1.34753E-18
 -1      2065 9.90949E-05-2.95737E-05-2.97867E-05 1.73469E-06 9.30462E-20-8.31989E-19
 -1      2066 9.88166E-05-2.94116E-05-2.97464E-05 2.24563E-06 3.72706E-19-4.44923E-19
 -1      2067 9.75924E-05-2.91536E-05-2.93320E-05 1.21905E-06-2.18114E-19-3.07403E-19
 -1      2068 9.80787E-05-2.92892E-05-2.94737E-05 1.36322E-06-6.82010E-21-8.29007E-19
 -1      2069 9.78966E-05-2.91644E-05-2.94582E-05 1.77616E-06 2.21843E-19 1.06173E-20
 -1      2070 9.69014E-05-2.89686E-05-2.91145E-05 9.23053E-07-1.77812E-18-9.64268E-19
 -1      2071 9.72773E-05-2.90712E-05-2.92247E-05 1.04499E-06-7.33354E-19-9.69988E-19
 -1      2072 9.71673E-05-2.89788E-05-2.92252E-05 1.37031E-06-7.14661E-19 3.52945E-19
 -1      2073 9.63757E-05-2.88316E-05-2.89475E-05 6.82465E-07-4.18062E-19-1.49773E-18
 -1      2074 9.66597E-05-2.89075E-05-2.90312E-05 7.82250E-07-1.40829E-18-9.51686E-19
 -1      2075 9.66014E-05-2.88415E-05-2.90415E-05 1.03266E-06-8.53341E-19-1.46540E-18
 -1      2076 9.59845E-05-2.87323E-05-2.88222E-05 4.91985E-07 7.71121E-19-9.38197E-19
 -1      2077 9.61941E-05-2.87870E-05-2.88843E-05 5.71502E-07 2.99050E-19-9.34972E-19
 -1      2078 9.61714E-05-2.87418E-05-2.88998E-05 7.59960E-07 2.78734E-19-1.71906E-18
 -1      2079 9.57003E-05-2.86621E-05-2.87303E-05 3.44613E-07 1.83499E-18-2.09643E-18
 -1      2080 9.58511E-05-2.87006E-05-2.87752E-05 4.06537E-07 1.51016E-18-8.32691E-19
 -1      2081 9.58516E-05-2.86709E-05-2.87930E-05 5.45126E-07 1.35674E-18-1.79527E-18
 -1      2082 9.54992E-05-2.86140E-05-2.86647E-05 2.33030E-07 1.76750E-18-2.29254E-18
 -1      2083 9.56046E-05-2.86401E-05-2.86963E-05 2.80237E-07 1.88676E-18-1.79723E-18
 -1      2084 9.56191E-05-2.86220E-05-2.87142E-05 3.79608E-07 2.20477E-18-9.32064E-19
 -1      2085 9.53614E-05-2.85824E-05-2.86192E-05 1.50336E-07 3.17081E-19-2.05081E-18
 -1      2086 9.54325E-05-2.85994E-05-2.86407E-05 1.85584E-07 7.67800E-19-1.57531E-18
 -1      2087 9.54546E-05-2.85893E-05-2.86575E-05 2.54762E-07 1.05738E-18 9.82946E-19
 -1      2088 9.52710E-05-2.85628E-05-2.85888E-05 9.04126E-08 4.13177E-19-2.80592E-18
 -1      2089 9.53167E-05-2.85731E-05-2.86028E-05 1.16174E-07 4.79003E-19-2.40240E-18
 -1      2090 9.53419E-05-2.85687E-05-2.86179E-05 1.62583E-07 7.45959E-19 2.67352E-19
 -1      2091 9.52152E-05-2.85518E-05-2.85697E-05 4.80533E-08-3.31930E-19-1.81811E-18
 -1      2092 9.52425E-05-2.85574E-05-2.85782E-05 6.64529E-08-2.32457E-19-2.19243E-18
 -1      2093 9.52678E-05-2.85565E-05-2.85912E-05 9.60447E-08-4.21036E-19 7.92472E-19
 -1      2094 9.51841E-05-2.85467E-05-2.85586E-05 1.89652E-08-2.47076E-18-1.21831E-18
 -1      2095 9.51984E-05-2.85491E-05-2.85632E-05 3.17678E-08-1.45600E-18-1.48951E-18
 -1      2096 9.52221E-05-2.85504E-05-2.85741E-05 4.92127E-08-1.51949E-18 6.79005E-19
 -1      2097 9.51702E-05-2.85456E-05-2.85531E-05-2.97383E-10-8.92119E-19 9.84856E-19
 -1      2098 9.51756E-05-2.85458E-05-2.85550E-05 8.33495E-09-1.98559E-18-3.68426E-19
 -1      2099 9.51966E-05-2.85483E-05-2.85639E-05 1.72239E-08-2.40851E-18 7.42801E-19
 -1      2100 9.51679E-05-2.85471E-05-2.85515E-05-1.24286E-08 3.43371E-19-1.92380E-19
 -1      2101 9.51673E-05-2.85459E-05-2.85516E-05-6.84421E-09-4.25942E-19 6.90769E-19
 -1      2102 9.51851E-05-2.85489E-05-2.85587E-05-3.80267E-09-3.51817E-19 5.86812E-19
 -1      2103 9.51729E-05-2.85502E-05-2.85524E-05-1.94712E-08 5.17252E-19-9.31100E-19
 -1      2104 9.51687E-05-2.85482E-05-2.85514E-05-1.60797E-08 6.94440E-19-4.18700E-19
 -1      2105 9.51832E-05-2.85512E-05-2.85568E-05-1.68793E-08 7.44275E-19-1.47731E-18
 -1      2106 9.51823E-05-2.85541E-05-2.85548E-05-2.29081E-08 2.01696E-18-2.11599E-18
 -1      2107 9.51760E-05-2.85517E-05-2.85531E-05-2.10878E-08 1.72338E-18-1.58333E-18
 -1      2108 9.51873E-05-2.85545E-05-2.85571E-05-2.42649E-08 2.28388E-18-7.84463E-19
 -1      2109 9.51940E-05-2.85584E-05-2.85580E-05-2.37349E-08 2.24402E-19-2.18439E-18
 -1      2110 9.51867E-05-2.85558E-05-2.85560E-05-2.30731E-08 1.24413E-18-1.64106E-18
 -1      2111 9.51950E-05-2.85582E-05-2.85588E-05-2.75702E-08 1.45972E-18-4.92106E-19
 -1      2112 9.52062E-05-2.85628E-05-2.85614E-05-2.25072E-08 6.60896E-19-1.35297E-18
 -1      2113 9.51988E-05-2.85602E-05-2.85594E-05-2.27843E-08-5.32781E-20-1.68744E-18
 -1      2114 9.52045E-05-2.85622E-05-2.85611E-05-2.78270E-08 1.11194E-19 1.38903E-19
 -1      2115 9.52176E-05-2.85670E-05-2.85645E-05-1.94066E-08 1.20358E-19-1.28740E-18
 -1      2116 9.52109E-05-2.85646E-05-2.85627E-05-2.05809E-08 8.21617E-19-1.21203E-18
 -1      2117 9.52143E-05-2.85662E-05-2.85635E-05-2.55848E-08 5.84157E-19-5.97088E-19
 -1      2118 9.52273E-05-2.85708E-05-2.85671E-05-1.42954E-08-8.37965E-19-1.54831E-18
 -1      2119 9.52219E-05-2.85687E-05-2.85657E-05-1.65245E-08-1.06969E-18-1.65997E-18
 -1      2120 9.52236E-05-2.85701E-05-2.85658E-05-2.10480E-08-6.13572E-19-2.69745E-19
 -1      2121 9.52335E-05-2.85735E-05-2.85686E-05-9.05299E-09 1.59930E-19-1.48689E-18
 -1      2122 9.52296E-05-2.85720E-05-2.85676E-05-1.22288E-08-5.66382E-19-1.54937E-18
 -1      2123 9.52304E-05-2.85733E-05-2.85673E-05-1.58820E-08-3.25755E-19-1.73762E-18
 -1      2124 9.52348E-05-2.85758E-05-2.85681E-05-1.10750E-08-4.91568E-19-7.38761E-19
 -1      2125 9.52465E-05-2.85998E-05-2.85629E-05-1.98624E-08-1.36159E-18-4.07660E-18
 -1      2126 9.52442E-05-2.85947E-05-2.85641E-05-2.01862E-08-5.79395E-19-2.09771E-18
 -1      2127 9.52422E-05-2.85908E-05-2.85649E-05-1.99001E-08-8.65332E-19-1.62512E-18
 -1      2128 9.52398E-05-2.85858E-05-2.85660E-05-1.87485E-08-4.05992E-19 2.21914E-18
 -1      2129 9.52422E-05-2.85900E-05-2.85652E-05-2.48687E-08-1.01234E-18-1.57617E-18
 -1      2130 9.52383E-05-2.85830E-05-2.85666E-05-1.67741E-08 4.84267E-20 3.08005E-18
 -1      2131 9.52361E-05-2.85786E-05-2.85676E-05-1.40982E-08-1.51161E-20 8.53751E-19
 -1      2132 9.52343E-05-2.85776E-05-2.85672E-05-1.68635E-08-1.71450E-19 3.87013E-19
 -1      2133 9.52379E-05-2.85833E-05-2.85663E-05-2.23077E-08-8.32773E-19 2.22726E-18
 -1      2134 9.52500E-05-2.86077E-05-2.85610E-05-1.73673E-08-3.16994E-18-7.33712E-18
 -1      2135 9.52481E-05-2.86031E-05-2.85621E-05-1.87096E-08-1.84008E-18-4.78705E-18
 -1      2136 9.52467E-05-2.85974E-05-2.85640E-05-2.38340E-08-7.10344E-19-4.89433E-18
 -1      2137 9.52527E-05-2.86141E-05-2.85593E-05-1.30698E-08-1.47079E-18-8.50006E-21
 -1      2138 9.52513E-05-2.86104E-05-2.85603E-05-1.51411E-08-2.02204E-18-3.61832E-18
 -1      2139 9.52501E-05-2.86037E-05-2.85628E-05-2.00559E-08-1.01298E-18-4.10883E-18
 -1      2140 9.52544E-05-2.86183E-05-2.85582E-05-7.65920E-09-1.46866E-18 3.24632E-18
 -1      2141 9.52535E-05-2.86160E-05-2.85588E-05-1.01525E-08-1.11043E-18 1.89615E-18
 -1      2142 9.52526E-05-2.86085E-05-2.85618E-05-1.43248E-08-1.17548E-19 5.15798E-19
 -1      2143 9.52551E-05-2.86200E-05-2.85578E-05-1.67800E-09-2.27172E-18 1.58480E-18
 -1      2144 9.52548E-05-2.86193E-05-2.85580E-05-4.36599E-09-2.60727E-18 1.71539E-18
 -1      2145 9.52540E-05-2.86115E-05-2.85612E-05-7.41913E-09-4.13907E-19 1.28988E-18
 -1      2146 9.52548E-05-2.86192E-05-2.85580E-05 4.42303E-09-2.94842E-18-2.41455E-19
 -1      2147 9.52551E-05-2.86200E-05-2.85578E-05 1.73457E-09-2.96940E-18 1.68673E-18
 -1      2148 9.52545E-05-2.86125E-05-2.85609E-05 3.37489E-11-2.31889E-18 1.32986E-18
 -1      2149 9.52535E-05-2.86159E-05-2.85589E-05 1.02115E-08-2.83781E-18-2.61628E-19
 -1      2150 9.52544E-05-2.86182E-05-2.85582E-05 7.71818E-09-3.06308E-18-4.48478E-19
 -1      2151 9.52540E-05-2.86115E-05-2.85612E-05 7.48900E-09-2.59279E-18-7.88067E-19
 -1      2152 9.52513E-05-2.86105E-05-2.85603E-05 1.51242E-08-1.40632E-18-5.00314E-19
 -1      2153 9.52527E-05-2.86141E-05-2.85593E-05 1.30863E-08-1.94812E-18 1.73447E-19
 -1      2154 9.52526E-05-2.86085E-05-2.85618E-05 1.43470E-08-1.13798E-18 8.32349E-19
 -1      2155 9.52481E-05-2.86031E-05-2.85621E-05 1.87358E-08-1.13669E-18 3.21371E-18
 -1      2156 9.52501E-05-2.86077E-05-2.85609E-05 1.73680E-08-8.66752E-19 1.59074E-18
 -1      2157 9.52502E-05-2.86037E-05-2.85628E-05 2.00458E-08 8.53871E-19 1.00305E-18
 -1      2158 9.52442E-05-2.85945E-05-2.85642E-05 2.02158E-08-5.35087E-19 2.92460E-18
 -1      2159 9.52465E-05-2.85997E-05-2.85629E-05 1.99092E-08-1.13823E-18 2.81073E-18
 -1      2160 9.52466E-05-2.85974E-05-2.85640E-05 2.38694E-08-2.63825E-19 3.33573E-18
 -1      2161 9.52395E-05-2.85855E-05-2.85660E-05 1.88998E-08 5.08314E-19 2.19522E-18
 -1      2162 9.52422E-05-2.85907E-05-2.85649E-05 1.99156E-08-7.18805E-19 3.59063E-18
 -1      2163 9.52421E-05-2.85899E-05-2.85652E-05 2.48806E-08-6.04953E-19 3.38556E-18
 -1      2164 5.75753E-05-3.90419E-05-8.47481E-06 3.94905E-05 2.21330E-18 6.54844E-18
 -1      2165 4.27287E-05-4.12929E-05-2.05348E-06 3.20150E-05 6.80167E-19 6.25746E-18
 -1      2166 1.18369E-05-3.19061E-05 7.47623E-06 5.53310E-06-2.33781E-19 6.17064E-18
 -1      2167 1.23938E-05-3.45278E-05 8.01852E-06-4.32438E-06-1.54700E-18 4.46175E-18
 -1      2168 2.83547E-05-3.55580E-05 2.09492E-06 2.73091E-05 4.89585E-19 5.87587E-18
 -1      2169 1.94864E-05-3.47501E-05 5.37244E-06 1.87924E-05-1.42640E-18 5.97158E-18
 -1      2170 9.71883E-05-4.30954E-05-2.32643E-05 4.23749E-05 3.76421E-18 3.99037E-18
 -1      2171 7.60464E-05-4.39023E-05-1.49195E-05 3.78426E-05 3.24371E-18 4.96997E-18
 -1      2172 1.36800E-04-4.20897E-05-3.99437E-05 3.41637E-05 5.02587E-18 2.91295E-18
 -1      2173 1.17647E-04-4.47353E-05-3.17201E-05 3.28633E-05 3.97851E-18 3.28649E-18
 -1      2174 8.71648E-05-8.06492E-06-3.39969E-05-6.81750E-06-1.77192E-18-2.50349E-18
 -1      2175 8.86921E-05-8.91342E-06-3.42626E-05-8.30260E-06-2.03899E-18-2.04435E-18
 -1      2176 9.15633E-05-1.28330E-05-3.38037E-05-7.91030E-06-2.12883E-18-1.64447E-18
 -1      2177 8.79133E-05-9.81920E-06-3.34867E-05-5.62737E-06-1.75067E-18-2.42965E-18
 -1      2178 1.81029E-04-2.90759E-05-6.35246E-05 1.02649E-05 4.84418E-18 1.02745E-18
 -1      2179 1.67160E-04-2.85999E-05-5.88175E-05 1.39733E-05 5.28146E-18 1.57972E-18
 -1      2180 1.84335E-04-2.47653E-05-6.70524E-05-1.20378E-06 5.19528E-18-8.25460E-19
 -1      2181 1.83765E-04-2.61327E-05-6.61832E-05 6.81017E-06 4.83825E-18 5.01020E-19
 -1      2182 1.77135E-04-2.66667E-05-6.34294E-05-1.15100E-05 5.10380E-18-1.71651E-18
 -1      2183 1.81849E-04-2.52118E-05-6.58266E-05-4.15547E-06 4.98860E-18-6.76779E-19
 -1      2184 1.59259E-04-3.25016E-05-5.40513E-05-1.92781E-05 5.19316E-18-2.79097E-18
 -1      2185 1.75225E-04-3.16673E-05-6.00380E-05-1.66861E-05 5.21772E-18-2.01340E-18
 -1      2186 1.36297E-04-4.32033E-05-4.01181E-05-2.58187E-05 4.54433E-18-2.72956E-18
 -1      2187 1.53310E-04-3.99706E-05-4.76782E-05-2.53091E-05 4.74222E-18-2.90702E-18
 -1      2188 1.03042E-04-4.82275E-05-2.41684E-05-3.68926E-05 3.56431E-18-3.55881E-18
 -1      2189 1.23079E-04-4.77278E-05-3.21348E-05-3.63296E-05 3.89678E-18-2.77869E-18
 -1      2190 6.71609E-05-4.52559E-05-1.02989E-05-3.87850E-05 2.03203E-18-4.43348E-18
 -1      2191 8.59864E-05-4.46123E-05-1.78343E-05-4.34223E-05 3.35764E-18-3.98487E-18
 -1      2192 1.06957E-04-5.51388E-05-2.20537E-05-3.80966E-05 9.34489E-19-2.33654E-18
 -1      2193 2.97546E-05-3.86800E-05 2.42810E-06-2.68326E-05 6.92449E-19-5.25669E-18
 -1      2194 4.33866E-05-3.75650E-05-3.19451E-06-3.66625E-05 1.87194E-18-5.62578E-18
 -1      2195 1.37424E-05-3.46146E-05 7.53605E-06-6.80354E-06-2.80368E-19-5.18977E-18
 -1      2196 1.78463E-05-3.20678E-05 5.23723E-06-1.77373E-05 8.40468E-19-5.33461E-18
 -1      2197 1.51594E-05-3.50284E-05 7.14164E-06 1.32034E-05-1.42132E-18-5.32064E-18
 -1      2198 1.22543E-05-3.65257E-05 8.72945E-06 3.82761E-06-2.02759E-20-4.92253E-18
 -1      2199 3.60671E-05-3.80455E-05-2.53329E-07 3.11782E-05-3.48342E-18-6.13315E-18
 -1      2200 2.56355E-05-3.92106E-05 4.19540E-06 2.31561E-05-1.62292E-18-5.67512E-18
 -1      2201 6.87800E-05-4.04598E-05-1.26543E-05 4.13598E-05-4.77727E-18-6.17688E-18
 -1      2202 5.23968E-05-4.30403E-05-5.55697E-06 3.43090E-05-3.79640E-18-5.71101E-18
 -1      2203 1.09927E-04-4.45516E-05-2.79856E-05 4.10628E-05-4.67689E-18-5.72044E-18
 -1      2204 8.84550E-05-4.50008E-05-1.96244E-05 3.81095E-05-4.52231E-18-5.97645E-18
 -1      2205 1.47008E-04-4.14412E-05-4.43791E-05 3.09456E-05-5.33165E-18-3.78200E-18
 -1      2206 1.28142E-04-4.41388E-05-3.63211E-05 3.03135E-05-4.82872E-18-4.28726E-18
 -1      2207 1.70205E-04-3.46598E-05-5.68922E-05 1.98292E-05-5.46982E-18-2.95149E-18
 -1      2208 1.54363E-04-3.56162E-05-5.06792E-05 2.38791E-05-5.64955E-18-3.66384E-18
 -1      2209 1.81558E-04-2.80077E-05-6.45811E-05 7.59040E-06-5.85681E-18-1.69915E-18
 -1      2210 1.72828E-04-2.84075E-05-6.11278E-05 1.35255E-05-5.90721E-18-2.88118E-18
 -1      2211 1.80173E-04-2.29263E-05-6.64095E-05-1.47989E-06-5.94532E-18-3.14832E-19
 -1      2212 1.83213E-04-2.52378E-05-6.63961E-05 5.27968E-06-6.01775E-18-1.57675E-18
 -1      2213 1.61369E-04-1.65735E-05-6.08325E-05-9.55279E-07-6.18842E-18-7.57671E-19
 -1      2214 1.76123E-04-2.81321E-05-6.23278E-05-1.10723E-05-4.89585E-18 1.18796E-18
 -1      2215 1.79505E-04-2.55249E-05-6.49545E-05-3.75187E-06-5.23382E-18-3.50883E-19
 -1      2216 1.60034E-04-3.38780E-05-5.35665E-05-2.25242E-05-5.43972E-18 2.62961E-18
 -1      2217 1.74572E-04-3.36735E-05-5.91009E-05-1.79256E-05-5.05742E-18 1.86601E-18
 -1      2218 1.34071E-04-4.04239E-05-4.03200E-05-3.08236E-05-4.94540E-18 4.21229E-18
 -1      2219 1.52382E-04-3.92189E-05-4.74983E-05-2.94864E-05-5.35547E-18 3.11539E-18
 -1      2220 1.03224E-04-4.50464E-05-2.56238E-05-3.61399E-05-3.93023E-18 4.55365E-18
 -1      2221 1.22034E-04-4.22062E-05-3.36696E-05-3.88101E-05-4.55407E-18 5.11777E-18
 -1      2222 6.76809E-05-4.49999E-05-1.08429E-05-3.74472E-05-2.39287E-18 4.63306E-18
 -1      2223 8.64273E-05-4.45643E-05-1.80245E-05-4.23070E-05-2.74227E-18 4.68325E-18
 -1      2224 3.88995E-05-4.06538E-05-6.03343E-07-3.04029E-05-2.46698E-18 3.50894E-18
 -1      2225 5.20479E-05-3.92059E-05-5.97338E-06-3.75652E-05-2.93793E-18 4.76700E-18
 -1      2226 7.27457E-05-4.64571E-05-1.14030E-05-4.23591E-05 2.90109E-19 3.43625E-18
 -1      2227 1.67602E-05-3.70393E-05 7.11221E-06-1.39620E-05-1.79867E-18 2.91972E-18
 -1      2228 2.28699E-05-3.55500E-05 4.26303E-06-2.23841E-05-2.76006E-18 3.15033E-18
 -1      2229 1.61304E-04-3.67191E-05-5.26121E-05 2.04082E-05 5.01650E-18 1.67162E-18
 -1      2230 1.45493E-04-3.81554E-05-4.59486E-05 2.58375E-05 5.78153E-18 2.29080E-18
 -1      2231 1.45088E-04-4.79494E-05-4.10633E-05 1.52811E-05 3.33652E-18-1.24937E-19
 -1      2232 1.18775E-04-5.37079E-05-2.76916E-05 3.29175E-05 1.74595E-18 2.16904E-18
 -1      2233 1.01593E-04-2.56507E-05-3.26076E-05-6.96789E-06-2.03955E-18 2.20816E-18
 -1      2234 1.57674E-04-3.29278E-05-5.27035E-05 4.05171E-06 4.51574E-18-4.02341E-19
 -1      2235 1.00378E-04-2.42057E-05-3.27206E-05-6.62573E-06-2.14912E-18 8.54365E-19
 -1      2236 4.38193E-05-3.63653E-05-3.66732E-06 3.64168E-05-1.44504E-18 6.03193E-18
 -1      2237 1.91593E-05-2.58855E-05 2.39363E-06 1.52676E-05-7.50048E-19 5.83606E-18
 -1      2238 9.52376E-05-2.85821E-05-2.85667E-05 1.86154E-08 6.21130E-19 8.16076E-19
 -1      2239 7.90759E-05-4.79215E-05-1.35649E-05 4.20838E-05-1.61783E-19 4.67962E-18
 -1      2240 1.66511E-05-2.59422E-05 3.28550E-06-1.20018E-05 1.75971E-19 4.53247E-18
 -1      2241 3.84264E-05-3.47054E-05-2.08285E-06-3.35681E-05-4.34528E-19 3.43493E-18
 -1      2242 1.06704E-04-5.40324E-05-2.26231E-05-3.65580E-05-7.33954E-19 2.66604E-18
 -1      2243 1.36638E-04-5.11624E-05-3.62934E-05-2.42117E-05-2.80093E-18 1.50645E-18
 -1      2244 1.55084E-04-4.05110E-05-4.82363E-05-1.06982E-05-4.28829E-18 7.03037E-20
 -1      2245 1.62295E-04-1.60123E-05-6.16399E-05 1.47211E-06-5.72213E-18-1.06197E-18
 -1      2246 1.60321E-04-2.87868E-05-5.53439E-05 2.08854E-06-5.19274E-18-6.61533E-19
 -1      2247 1.51669E-04-4.41457E-05-4.54233E-05 1.12470E-05-4.05390E-18-4.06152E-19
 -1      2248 1.29133E-04-5.40761E-05-3.18952E-05 2.86796E-05-2.55423E-18-2.37190E-18
 -1      2249 9.15578E-05-5.10646E-05-1.74311E-05 4.12876E-05-1.76945E-18-4.44883E-18
 -1      2250 5.34399E-05-4.13556E-05-5.77477E-06 3.92961E-05-9.71547E-19-5.39984E-18
 -1      2251 2.39754E-05-3.08330E-05 2.13040E-06 2.29344E-05-2.50086E-19-6.00673E-18
 -1      2252 1.45466E-05-2.44027E-05 3.58660E-06-2.26789E-06-1.16785E-19-5.71324E-18
 -1      2253 6.54469E-05-4.40024E-05-9.39373E-06-4.22284E-05-1.63477E-19-4.46408E-18
 -1      2254 1.36490E-04-5.35904E-05-3.52824E-05-2.23207E-05 2.57900E-18-1.02766E-18
 -1      2255 1.54040E-04-3.89514E-05-4.87562E-05-7.65733E-06 4.12833E-18-6.98802E-19
 -1      2256 1.60849E-04-2.32009E-05-5.79034E-05-1.14133E-06 5.20819E-18-2.94767E-19
 -1      2257 1.63438E-04-1.84756E-05-6.08709E-05-6.17921E-07 5.17368E-18-9.12043E-19
 -1      2258 1.63861E-04-1.53863E-05-6.23770E-05 4.58127E-08 5.34562E-18-1.21083E-18
 -1      2259 2.84846E-05-2.98293E-05 9.67718E-08-2.67675E-05-6.96685E-19-5.53663E-18
 -1      2260 1.61924E-04-2.62067E-05-5.69996E-05-1.25712E-06-4.86112E-18-8.02987E-19
 -1      2261 1.00417E-04-2.76888E-05-3.11445E-05 3.86027E-07 1.57757E-18 7.17695E-19
 -1      2262 1.00755E-04-2.70353E-05-3.15208E-05 2.35774E-06 1.86720E-18 9.84312E-19
 -1      2263 8.33232E-05-7.59762E-06-3.24930E-05-1.46143E-06-7.57751E-19-2.87273E-18
 -1      2264 8.41927E-05-8.17059E-06-3.26037E-05-2.07858E-06-1.01585E-18-2.90714E-18
 -1      2265 8.53553E-05-9.14331E-06-3.27120E-05-2.54999E-06-1.17979E-18-2.81032E-18
 -1      2266 8.66371E-05-1.00377E-05-3.28583E-05-3.33938E-06-1.46073E-18-2.58543E-18
 -1      2267 8.56871E-05-1.02923E-05-3.23031E-05-1.66068E-06-1.02619E-18-2.62112E-18
 -1      2268 8.20478E-05-6.64433E-06-3.23399E-05 1.38119E-07 1.45736E-19-3.14465E-18
 -1      2269 8.20028E-05-6.61092E-06-3.23371E-05-3.44061E-07-8.20064E-20-3.09664E-18
 -1      2270 8.28480E-05-7.22411E-06-3.24312E-05 9.66784E-07 5.09002E-19-3.13024E-18
 -1      2271 8.23477E-05-6.89625E-06-3.23689E-05 4.28536E-07 2.84648E-19-3.17215E-18
 -1      2272 8.29251E-05-8.16014E-06-3.20338E-05 1.17647E-07 1.81507E-19-3.01656E-18
 -1      2273 8.45064E-05-8.45615E-06-3.26151E-05 2.00444E-06 9.00680E-19-2.95826E-18
 -1      2274 8.36063E-05-7.85430E-06-3.25056E-05 1.34979E-06 6.36307E-19-3.05453E-18
 -1      2275 8.40372E-05-9.03786E-06-3.21354E-05 7.31786E-07 5.43653E-19-2.92785E-18
 -1      2276 8.69893E-05-1.03782E-05-3.28635E-05 3.38526E-06 1.42679E-18-2.50456E-18
 -1      2277 8.56981E-05-9.46627E-06-3.27208E-05 2.54534E-06 1.13958E-18-2.77654E-18
 -1      2278 8.60644E-05-1.06582E-05-3.23108E-05 1.59058E-06 9.96800E-19-2.63417E-18
 -1      2279 9.02060E-05-1.30482E-05-3.31174E-05 5.09427E-06 1.92123E-18-1.92265E-18
 -1      2280 8.85607E-05-1.17688E-05-3.29718E-05 4.07895E-06 1.59294E-18-2.24959E-18
 -1      2281 8.89142E-05-1.30227E-05-3.25165E-05 2.74188E-06 1.46928E-18-2.16139E-18
 -1      2282 9.41497E-05-1.66722E-05-3.32919E-05 6.92645E-06 2.34638E-18-1.29023E-18
 -1      2283 9.21310E-05-1.48706E-05-3.31813E-05 5.84399E-06 2.06075E-18-1.62374E-18
 -1      2284 9.24415E-05-1.61572E-05-3.26746E-05 4.06157E-06 1.86008E-18-1.55894E-18
 -1      2285 1.29613E-04-5.73367E-05-3.13082E-05 2.44957E-05 6.94144E-19 2.93497E-19
 -1      2286 1.12618E-04-5.65402E-05-2.39436E-05 3.25514E-05-3.14461E-19 1.19887E-18
 -1      2287 1.00629E-04-2.87450E-05-3.07822E-05-2.47193E-06 1.07955E-18 3.35235E-19
 -1      2288 1.00481E-04-2.82983E-05-3.08634E-05-1.30914E-06 1.25877E-18 5.82441E-19
 -1      2289 9.97843E-05-2.68080E-05-3.12940E-05-2.23211E-07 1.59557E-18-1.20749E-19
 -1      2290 9.99496E-05-2.58387E-05-3.17098E-05-1.68877E-06-1.75893E-18 7.14486E-20
 -1      2291 9.98528E-05-2.66889E-05-3.13560E-05 4.95083E-07-1.61544E-18-4.62129E-20
 -1      2292 1.50094E-04-2.79076E-05-5.27361E-05-4.85896E-06 4.13754E-18-1.57569E-18
 -1      2293 1.46593E-04-3.69514E-05-4.72868E-05-1.84122E-06 3.31740E-18-1.72477E-18
 -1      2294 1.00073E-04-2.74142E-05-3.10827E-05 2.23177E-06-1.41689E-18 2.27359E-20
 -1      2295 1.00308E-04-2.79844E-05-3.09829E-05 3.61659E-06-1.17123E-18-5.70176E-20
 -1      2296 9.88865E-05-2.56539E-05-3.13990E-05 1.24787E-06-1.56400E-18-5.85779E-19
 -1      2297 1.00598E-04-2.84888E-05-3.08632E-05 4.87120E-06-1.02922E-18-8.31457E-20
 -1      2298 1.01183E-04-2.90477E-05-3.09056E-05 5.75566E-06-8.24577E-19-3.12182E-19
 -1      2299 9.94153E-05-2.72224E-05-3.09618E-05 4.47151E-06-1.17120E-18-5.10347E-19
 -1      2300 1.01710E-04-2.95879E-05-3.08793E-05 6.58912E-06-6.97936E-19-3.46336E-19
 -1      2301 1.02595E-04-3.02690E-05-3.09974E-05 7.03964E-06-5.60457E-19-2.56631E-19
 -1      2302 1.00273E-04-2.85477E-05-3.07645E-05 6.73661E-06-8.29421E-19-5.12950E-19
 -1      2303 1.03447E-04-3.09949E-05-3.10230E-05 7.42895E-06-3.33855E-19-2.09306E-19
 -1      2304 1.04567E-04-3.18759E-05-3.11699E-05 7.38519E-06-1.68933E-19-8.93190E-20
 -1      2305 1.01685E-04-3.01028E-05-3.07075E-05 8.10409E-06-3.99647E-19-5.66134E-19
 -1      2306 1.05823E-04-3.28899E-05-3.12249E-05 7.20984E-06-1.74887E-19-2.30634E-20
 -1      2307 1.07087E-04-3.39874E-05-3.13674E-05 6.53484E-06-9.84974E-20-9.77521E-20
 -1      2308 1.03820E-04-3.21982E-05-3.07315E-05 8.44859E-06-2.58683E-19-4.59028E-19
 -1      2309 1.08792E-04-3.53063E-05-3.14556E-05 5.59444E-06 1.17817E-19-4.60707E-20
 -1      2310 1.10044E-04-3.65029E-05-3.15811E-05 4.14706E-06 2.15365E-19-3.71404E-20
 -1      2311 1.06812E-04-3.49868E-05-3.08266E-05 7.45901E-06 2.22594E-20-5.68923E-19
 -1      2312 1.12098E-04-3.79409E-05-3.17450E-05 2.23877E-06 5.29942E-20 2.86863E-19
 -1      2313 1.13049E-04-3.88698E-05-3.18720E-05 1.59989E-08-1.06015E-19 3.60373E-19
 -1      2314 1.10626E-04-3.82713E-05-3.10553E-05 4.71513E-06 2.23441E-19-4.16831E-19
 -1      2315 1.15040E-04-3.98838E-05-3.21983E-05-2.87037E-06-6.92350E-21 7.23578E-19
 -1      2316 1.15242E-04-3.98456E-05-3.23808E-05-5.50623E-06-9.43747E-20 7.83017E-19
 -1      2317 1.14781E-04-4.11862E-05-3.15746E-05-7.41578E-08 7.72686E-20 8.75331E-20
 -1      2318 1.16323E-04-3.95088E-05-3.29700E-05-8.72555E-06-3.90032E-19 1.02400E-18
 -1      2319 1.15402E-04-3.77917E-05-3.32679E-05-1.07905E-05-3.64418E-19 8.06455E-19
 -1      2320 1.17976E-04-4.18786E-05-3.26124E-05-6.43205E-06-6.05331E-20 9.04307E-19
 -1      2321 1.14695E-04-3.53855E-05-3.41317E-05-1.27102E-05-4.86741E-19 6.94701E-19
 -1      2322 1.12822E-04-3.21173E-05-3.45312E-05-1.27387E-05-1.06967E-18 8.31386E-19
 -1      2323 1.18378E-04-3.82323E-05-3.43162E-05-1.22294E-05-6.97168E-19 1.14071E-18
 -1      2324 1.10681E-04-2.84435E-05-3.54346E-05-1.13731E-05-1.53222E-18 3.02320E-19
 -1      2325 1.08917E-04-2.53389E-05-3.57744E-05-8.51189E-06-1.72144E-18 1.03659E-19
 -1      2326 1.15333E-04-3.04224E-05-3.64299E-05-1.33882E-05-1.51986E-18 5.32321E-19
 -1      2327 1.07403E-04-2.30614E-05-3.62550E-05-3.59195E-06-1.86448E-18-7.58726E-19
 -1      2328 1.07135E-04-2.25233E-05-3.63269E-05 1.04004E-06-2.02933E-18-1.47400E-18
 -1      2329 1.11337E-04-2.27708E-05-3.81103E-05-6.94607E-06-2.44890E-18-5.10754E-19
 -1      2330 1.08001E-04-2.37297E-05-3.60969E-05 6.62027E-06-2.00607E-18-2.01650E-18
 -1      2331 1.09520E-04-2.62342E-05-3.58636E-05 1.03347E-05-1.81853E-18-2.13901E-18
 -1      2332 1.10602E-04-2.13558E-05-3.84130E-05 4.37232E-06-2.44443E-18-1.75879E-18
 -1      2333 1.11786E-04-2.98013E-05-3.50738E-05 1.30032E-05-1.54647E-18-2.04046E-18
 -1      2334 1.13897E-04-3.33047E-05-3.47069E-05 1.39429E-05-7.75134E-19-2.15767E-18
 -1      2335 1.14061E-04-2.75523E-05-3.71578E-05 1.30979E-05-1.75788E-18-2.10734E-18
 -1      2336 1.15277E-04-3.63467E-05-3.38130E-05 1.29437E-05-5.51849E-19-2.14696E-18
 -1      2337 1.16685E-04-3.86973E-05-3.35073E-05 1.14107E-05-1.31694E-19-2.20031E-18
 -1      2338 1.17977E-04-3.59985E-05-3.51114E-05 1.43747E-05-6.93945E-19-2.25118E-18
 -1      2339 1.16200E-04-3.97002E-05-3.28365E-05 8.41697E-06-1.56380E-19-2.18950E-18
 -1      2340 1.16442E-04-4.02700E-05-3.26522E-05 5.84680E-06 4.50645E-19-2.21437E-18
 -1      2341 1.18883E-04-4.12512E-05-3.32470E-05 9.65932E-06-7.75300E-20-2.13012E-18
 -1      2342 1.14710E-04-3.96176E-05-3.22605E-05 2.75408E-06 7.22635E-19-2.11684E-18
 -1      2343 1.14055E-04-3.89693E-05-3.21495E-05 3.28938E-07 8.99506E-19-1.59126E-18
 -1      2344 1.16521E-04-4.18398E-05-3.20145E-05 3.18380E-06 5.14912E-19-1.72130E-18
 -1      2345 1.11995E-04-3.76159E-05-3.19470E-05-1.93162E-06 1.11428E-18-1.85787E-18
 -1      2346 1.10893E-04-3.65078E-05-3.18432E-05-3.66991E-06 1.32765E-18-1.97955E-18
 -1      2347 1.12588E-04-3.94934E-05-3.13582E-05-2.25042E-06 9.87864E-19-1.84757E-18
 -1      2348 1.09061E-04-3.51479E-05-3.17253E-05-4.96413E-06 1.30481E-18-2.04966E-18
 -1      2349 1.07840E-04-3.40605E-05-3.15911E-05-5.94604E-06 1.27579E-18-1.98533E-18
 -1      2350 1.08620E-04-3.62807E-05-3.10389E-05-5.73918E-06 1.30746E-18-3.35313E-18
 -1      2351 1.06410E-04-3.29908E-05-3.14908E-05-6.47203E-06 1.17303E-18-1.63886E-18
 -1      2352 1.05239E-04-3.21165E-05-3.13195E-05-6.84642E-06 7.91646E-19-1.30955E-18
 -1      2353 1.05328E-04-3.34090E-05-3.08519E-05-7.46312E-06 1.22221E-18-3.04218E-18
 -1      2354 1.04181E-04-3.13798E-05-3.12086E-05-6.86247E-06 7.35331E-19-1.06393E-18
 -1      2355 1.03129E-04-3.07434E-05-3.10116E-05-6.82856E-06 1.03756E-18-1.11268E-18
 -1      2356 1.02832E-04-3.12869E-05-3.06825E-05-7.92009E-06 1.11845E-18-2.88459E-18
 -1      2357 1.02353E-04-3.02784E-05-3.08860E-05-6.54913E-06 7.65009E-19-1.08568E-18
 -1      2358 1.01440E-04-2.98391E-05-3.06803E-05-6.28000E-06 8.11828E-19-1.29361E-18
 -1      2359 1.00998E-04-2.98897E-05-3.04881E-05-7.58707E-06 6.88116E-19-2.88065E-18
 -1      2360 1.00862E-04-2.95643E-05-3.05464E-05-5.85655E-06 1.04863E-18-1.18442E-18
 -1      2361 1.00086E-04-2.92694E-05-3.03470E-05-5.47766E-06 7.82436E-19-9.88417E-19
 -1      2362 9.96460E-05-2.90458E-05-3.02659E-05-6.82489E-06 8.02214E-19-1.82822E-18
 -1      2363 9.96442E-05-2.91166E-05-3.02134E-05-5.00754E-06 4.95848E-19-1.24549E-18
 -1      2364 9.89966E-05-2.89214E-05-3.00307E-05-4.59966E-06 4.27306E-19-6.39606E-19
 -1      2365 9.86299E-05-2.85760E-05-3.00294E-05-5.87810E-06 5.51693E-19-2.45820E-18
 -1      2366 9.86517E-05-2.88425E-05-2.99048E-05-4.14047E-06 8.63080E-20-3.33527E-19
 -1      2367 9.81201E-05-2.87143E-05-2.97445E-05-3.75042E-06 4.00010E-19-5.45761E-19
 -1      2368 9.78486E-05-2.83400E-05-2.97945E-05-4.89984E-06 3.33474E-19-1.56019E-18
 -1      2369 9.78474E-05-2.86782E-05-2.96311E-05-3.33289E-06 3.23318E-19-5.23133E-19
 -1      2370 9.74182E-05-2.85949E-05-2.94952E-05-2.98438E-06-1.43240E-19-1.14246E-18
 -1      2371 9.72375E-05-2.82419E-05-2.95739E-05-3.97824E-06 2.82617E-19-9.67739E-19
 -1      2372 9.72017E-05-2.85826E-05-2.93967E-05-2.62207E-06-2.82797E-19-1.04678E-18
 -1      2373 9.68610E-05-2.85291E-05-2.92847E-05-2.32430E-06 6.39593E-20-6.44776E-20
 -1      2374 9.67551E-05-2.82207E-05-2.93758E-05-3.15799E-06-2.07057E-19-8.20253E-19
 -1      2375 9.66896E-05-2.85295E-05-2.92016E-05-2.02033E-06-4.24366E-19-5.83213E-19
 -1      2376 9.64237E-05-2.84961E-05-2.91114E-05-1.77407E-06-7.15209E-19-1.85211E-19
 -1      2377 9.63742E-05-2.82392E-05-2.92041E-05-2.45617E-06-5.11731E-19-8.30608E-19
 -1      2378 9.62893E-05-2.85028E-05-2.90432E-05-1.52568E-06-1.30396E-18-3.06258E-19
 -1      2379 9.60853E-05-2.84829E-05-2.89721E-05-1.32715E-06-1.14046E-18 3.74326E-20
 -1      2380 9.60750E-05-2.82762E-05-2.90597E-05-1.87330E-06-9.30536E-19-1.29931E-18
 -1      2381 9.59812E-05-2.84922E-05-2.89172E-05-1.12861E-06-6.57967E-19-3.91178E-19
 -1      2382 9.58276E-05-2.84814E-05-2.88623E-05-9.71990E-07-2.43751E-19-7.49006E-19
 -1      2383 9.58424E-05-2.83194E-05-2.89411E-05-1.40076E-06-1.27245E-18-9.94519E-19
 -1      2384 9.57481E-05-2.84914E-05-2.88191E-05-8.16405E-07 2.55524E-19-8.95469E-19
 -1      2385 9.56347E-05-2.84865E-05-2.87775E-05-6.95241E-07 1.81620E-19-1.06253E-18
 -1      2386 9.56641E-05-2.83625E-05-2.88458E-05-1.02559E-06-2.90580E-19-1.51815E-18
 -1      2387 9.55751E-05-2.84961E-05-2.87441E-05-5.75558E-07-6.15376E-19-1.36639E-18
 -1      2388 9.54933E-05-2.84951E-05-2.87132E-05-4.83569E-07-8.61008E-19-1.42761E-18
 -1      2389 9.55296E-05-2.84021E-05-2.87707E-05-7.33352E-07-4.99090E-19-2.03664E-18
 -1      2390 9.54495E-05-2.85039E-05-2.86879E-05-3.93176E-07-9.98977E-19-1.85876E-18
 -1      2391 9.53920E-05-2.85052E-05-2.86655E-05-3.24643E-07-1.05919E-18-1.74541E-18
 -1      2392 9.54299E-05-2.84369E-05-2.87128E-05-5.09858E-07-1.29950E-18-2.48146E-18
 -1      2393 9.53605E-05-2.85128E-05-2.86467E-05-2.57647E-07-9.29286E-19-2.15890E-18
 -1      2394 9.53214E-05-2.85155E-05-2.86308E-05-2.07595E-07-3.31391E-19-2.27265E-18
 -1      2395 9.53577E-05-2.84664E-05-2.86689E-05-3.42046E-07-9.98790E-19-3.68754E-18
 -1      2396 9.52994E-05-2.85220E-05-2.86172E-05-1.58934E-07 6.27996E-19-2.06699E-18
 -1      2397 9.52739E-05-2.85254E-05-2.86063E-05-1.23174E-07 1.40081E-18-2.08905E-18
 -1      2398 9.53068E-05-2.84908E-05-2.86363E-05-2.18436E-07 2.70084E-19-3.38956E-18
 -1      2399 9.52591E-05-2.85307E-05-2.85967E-05-8.86256E-08 1.89164E-18-2.31342E-18
 -1      2400 9.52436E-05-2.85343E-05-2.85895E-05-6.37209E-08 8.03772E-19-1.88647E-18
 -1      2401 9.52719E-05-2.85107E-05-2.86127E-05-1.29268E-07 1.51078E-18-3.00396E-18
 -1      2402 9.52341E-05-2.85387E-05-2.85829E-05-3.98438E-08 2.32625E-19-1.51726E-18
 -1      2403 9.52257E-05-2.85422E-05-2.85785E-05-2.30392E-08-3.76903E-19-4.51280E-19
 -1      2404 9.52492E-05-2.85265E-05-2.85960E-05-6.64683E-08 7.58618E-19-3.78578E-18
 -1      2405 9.52201E-05-2.85458E-05-2.85741E-05-7.09475E-09-6.72897E-19-8.02191E-19
 -1      2406 9.52166E-05-2.85491E-05-2.85717E-05 3.76586E-09 5.73226E-19-8.39245E-19
 -1      2407 9.52352E-05-2.85390E-05-2.85845E-05-2.35077E-08-3.21822E-19-1.59705E-18
 -1      2408 9.52137E-05-2.85520E-05-2.85689E-05 1.39041E-08 1.48323E-18-8.23323E-19
 -1      2409 9.52134E-05-2.85550E-05-2.85678E-05 2.04605E-08 8.34618E-19-5.60290E-19
 -1      2410 9.52276E-05-2.85488E-05-2.85769E-05 4.76560E-09 6.10299E-19-5.69884E-19
 -1      2411 9.52124E-05-2.85574E-05-2.85662E-05 2.63943E-08 6.84147E-19-6.76674E-19
 -1      2412 9.52143E-05-2.85602E-05-2.85660E-05 2.98472E-08 3.42866E-19-1.90448E-19
 -1      2413 9.52243E-05-2.85564E-05-2.85722E-05 2.23080E-08 4.55471E-19-2.15497E-18
 -1      2414 9.52145E-05-2.85622E-05-2.85652E-05 3.27341E-08-1.78109E-19-4.85677E-19
 -1      2415 9.52175E-05-2.85648E-05-2.85655E-05 3.39101E-08-4.49336E-20-6.69647E-19
 -1      2416 9.52241E-05-2.85626E-05-2.85693E-05 3.20590E-08 2.99480E-20-7.33961E-19
 -1      2417 9.52186E-05-2.85666E-05-2.85651E-05 3.45296E-08-1.76807E-19-1.31821E-19
 -1      2418 9.52222E-05-2.85691E-05-2.85656E-05 3.39358E-08-1.46824E-18 4.43417E-19
 -1      2419 9.52258E-05-2.85678E-05-2.85678E-05 3.60969E-08 7.82303E-21 1.70414E-19
 -1      2420 9.52239E-05-2.85710E-05-2.85655E-05 3.27805E-08-2.83711E-18 1.40872E-18
 -1      2421 9.52275E-05-2.85734E-05-2.85661E-05 3.06438E-08-2.60005E-18 1.49712E-18
 -1      2422 9.52288E-05-2.85725E-05-2.85670E-05 3.57926E-08-1.88910E-18 1.59807E-18
 -1      2423 1.02776E-04-3.06046E-05-3.09317E-05-5.16400E-06 5.02054E-19-8.71625E-20
 -1      2424 1.01939E-04-3.00602E-05-3.07763E-05-4.88130E-06 6.65281E-19 1.59768E-19
 -1      2425 1.04518E-04-3.18067E-05-3.11804E-05-5.20763E-06 2.47071E-19-1.58113E-19
 -1      2426 1.03544E-04-3.11597E-05-3.10022E-05-5.34850E-06 3.23664E-19-1.28891E-19
 -1      2427 1.02355E-04-3.06018E-05-3.07746E-05-6.08316E-06 5.39014E-19-3.15410E-19
 -1      2428 1.06476E-04-3.32324E-05-3.14288E-05-4.22339E-06 2.33849E-19 1.78084E-19
 -1      2429 1.05523E-04-3.25155E-05-3.12739E-05-4.86947E-06 2.32606E-19 3.02632E-20
 -1      2430 1.04202E-04-3.21747E-05-3.08910E-05-6.00691E-06 2.02229E-19-2.57912E-19
 -1      2431 1.08390E-04-3.47348E-05-3.16230E-05-2.03724E-06 3.94271E-19 4.78866E-19
 -1      2432 1.07654E-04-3.40644E-05-3.15272E-05-3.25168E-06 2.57002E-19 5.61699E-19
 -1      2433 1.06476E-04-3.40742E-05-3.10483E-05-4.71835E-06 1.00635E-19-1.16033E-20
 -1      2434 1.09855E-04-3.59185E-05-3.17500E-05 1.34632E-06 7.99784E-20 7.57833E-19
 -1      2435 1.09581E-04-3.55360E-05-3.17296E-05-3.70340E-07 2.79852E-19 7.45043E-19
 -1      2436 1.08954E-04-3.60701E-05-3.12461E-05-2.02321E-06 2.03976E-19 5.96410E-19
 -1      2437 1.10313E-04-3.60984E-05-3.18509E-05 5.44501E-06 4.72396E-19 9.52657E-19
 -1      2438 1.10744E-04-3.63573E-05-3.18924E-05 3.56316E-06 2.77559E-19 9.71354E-19
 -1      2439 1.11147E-04-3.75446E-05-3.15344E-05 2.03279E-06 1.49290E-19 1.08033E-18
 -1      2440 1.09224E-04-3.45348E-05-3.20074E-05 9.00219E-06 4.96629E-19 7.88297E-19
 -1      2441 1.10453E-04-3.57167E-05-3.20700E-05 7.64623E-06 5.66533E-19 9.06678E-19
 -1      2442 1.12239E-04-3.74794E-05-3.20019E-05 6.77737E-06 4.81383E-19 1.19302E-18
 -1      2443 1.06558E-04-3.11146E-05-3.22753E-05 1.01140E-05 9.90827E-19 8.11974E-19
 -1      2444 1.08314E-04-3.30694E-05-3.23153E-05 1.01455E-05 5.76840E-19 6.97495E-19
 -1      2445 1.11402E-04-3.49725E-05-3.27092E-05 1.05490E-05 6.34709E-19 1.19881E-18
 -1      2446 1.03402E-04-2.71539E-05-3.26020E-05 7.19631E-06 1.04780E-18 3.82366E-19
 -1      2447 1.04928E-04-2.90002E-05-3.26053E-05 9.08967E-06 1.19744E-18 7.12130E-19
 -1      2448 1.08604E-04-3.02486E-05-3.35683E-05 1.09519E-05 1.11296E-18 1.08031E-18
 -1      2449 1.01719E-04-2.50323E-05-3.28382E-05 7.34003E-07 1.14998E-18-1.49024E-19
 -1      2450 1.02179E-04-2.56478E-05-3.28200E-05 3.91972E-06 1.06780E-18 1.81867E-19
 -1      2451 1.05460E-04-2.55447E-05-3.43001E-05 6.48874E-06 1.32832E-18 3.11318E-19
 -1      2452 1.02904E-04-2.63422E-05-3.28482E-05-6.31405E-06 1.21945E-18-6.63151E-19
 -1      2453 1.01992E-04-2.52945E-05-3.28214E-05-3.35129E-06 1.25497E-18-2.07854E-19
 -1      2454 1.04400E-04-2.39620E-05-3.45593E-05-1.53273E-06 1.38751E-18 9.26037E-20
 -1      2455 1.06246E-04-3.01699E-05-3.26705E-05-1.05650E-05 1.83095E-18-1.32952E-18
 -1      2456 1.04436E-04-2.81422E-05-3.26193E-05-9.12712E-06 1.59922E-18-1.12848E-18
 -1      2457 1.06355E-04-2.66118E-05-3.42130E-05-8.96258E-06 1.61487E-18-6.12550E-19
 -1      2458 1.09678E-04-3.40650E-05-3.24554E-05-1.06162E-05 6.06532E-19-1.13785E-18
 -1      2459 1.07864E-04-3.22425E-05-3.23625E-05-1.09751E-05 1.32743E-18-1.05478E-18
 -1      2460 1.09794E-04-3.16294E-05-3.34648E-05-1.22371E-05 1.37765E-18-8.75839E-19
 -1      2461 1.11589E-04-3.62608E-05-3.23081E-05-7.60188E-06 6.47517E-20-1.40430E-18
 -1      2462 1.10389E-04-3.52853E-05-3.22014E-05-9.11110E-06 6.09445E-19-1.32139E-18
 -1      2463 1.12317E-04-3.59561E-05-3.26825E-05-1.07811E-05 2.39011E-19-5.55390E-19
 -1      2464 1.11690E-04-3.65423E-05-3.22069E-05-3.47619E-06-5.02747E-19-1.41623E-18
 -1      2465 1.11288E-04-3.64273E-05-3.21372E-05-5.30137E-06-2.72500E-19-1.23145E-18
 -1      2466 1.12788E-04-3.78445E-05-3.20908E-05-6.63254E-06-2.26384E-19-6.90546E-19
 -1      2467 1.10484E-04-3.55812E-05-3.20920E-05 2.34200E-07-4.38204E-19-1.63251E-18
 -1      2468 1.10742E-04-3.60000E-05-3.20955E-05-1.33024E-06-6.78407E-19-1.69232E-18
 -1      2469 1.11487E-04-3.74828E-05-3.17123E-05-1.97402E-06-4.25632E-19-7.44377E-19
 -1      2470 1.08629E-04-3.41517E-05-3.19090E-05 2.85488E-06 7.89190E-19-2.11088E-18
 -1      2471 1.09311E-04-3.47764E-05-3.19964E-05 1.78384E-06 2.92769E-19-1.74117E-18
 -1      2472 1.09279E-04-3.58767E-05-3.14700E-05 1.79760E-06 1.53690E-20-1.48780E-18
 -1      2473 1.06596E-04-3.27475E-05-3.16411E-05 4.33219E-06 7.05019E-19-9.70648E-19
 -1      2474 1.07489E-04-3.33746E-05-3.17989E-05 3.75210E-06 8.43726E-19-1.29758E-18
 -1      2475 1.06885E-04-3.39644E-05-3.12678E-05 4.24900E-06 4.41612E-19-8.56103E-19
 -1      2476 1.04637E-04-3.15787E-05-3.13050E-05 4.89782E-06-8.80436E-19-1.08618E-18
 -1      2477 1.05594E-04-3.21189E-05-3.15077E-05 4.70023E-06 1.56398E-19-8.40971E-19
 -1      2478 1.04684E-04-3.22709E-05-3.10484E-05 5.49135E-06 2.34799E-19 7.23961E-19
 -1      2479 1.02868E-04-3.06843E-05-3.09316E-05 4.84646E-06-1.27724E-18-1.33930E-18
 -1      2480 1.03795E-04-3.11158E-05-3.11530E-05 4.90271E-06-1.34081E-18-1.52713E-18
 -1      2481 1.02800E-04-3.09711E-05-3.07949E-05 5.83268E-06-6.36491E-19 1.54757E-20
 -1      2482 1.01326E-04-3.00299E-05-3.05523E-05 4.43416E-06-2.76886E-19-1.65406E-18
 -1      2483 1.02170E-04-3.03611E-05-3.07715E-05 4.63489E-06-7.70540E-19-1.90984E-18
 -1      2484 1.01236E-04-3.00541E-05-3.05151E-05 5.59144E-06-9.82613E-19-1.73763E-18
 -1      2485 1.00017E-04-2.95622E-05-3.01918E-05 3.84882E-06 2.94413E-19-9.71523E-19
 -1      2486 1.00752E-04-2.98108E-05-3.03947E-05 4.11501E-06-1.84831E-19-1.14006E-18
 -1      2487 9.99530E-05-2.94414E-05-3.02263E-05 5.02477E-06-4.58337E-19-1.80485E-18
 -1      2488 9.89258E-05-2.92320E-05-2.98662E-05 3.21385E-06 7.21180E-19-8.97146E-19
 -1      2489 9.95468E-05-2.94159E-05-3.00450E-05 3.49450E-06 9.14432E-19-3.92680E-19
 -1      2490 9.89071E-05-2.90474E-05-2.99459E-05 4.31493E-06 5.37284E-19-8.88527E-19
 -1      2491 9.80341E-05-2.90006E-05-2.95834E-05 2.60264E-06 8.57968E-20 2.18458E-20
 -1      2492 9.85441E-05-2.91351E-05-2.97353E-05 2.86817E-06 2.47861E-19-2.72897E-19
 -1      2493 9.80590E-05-2.88018E-05-2.96870E-05 3.57930E-06 1.90542E-19-6.77231E-19
 -1      2494 9.73181E-05-2.88397E-05-2.93457E-05 2.05374E-06-6.97357E-19 1.19030E-18
 -1      2495 9.77271E-05-2.89369E-05-2.94707E-05 2.28924E-06 2.22030E-19 2.37091E-19
 -1      2496 9.73767E-05-2.86535E-05-2.94575E-05 2.88654E-06-3.38305E-19 1.93790E-19
 -1      2497 9.67530E-05-2.87290E-05-2.91512E-05 1.58314E-06-2.84674E-20-1.92511E-19
 -1      2498 9.70740E-05-2.87982E-05-2.92515E-05 1.78304E-06-1.13717E-19 1.11382E-18
 -1      2499 9.68332E-05-2.85677E-05-2.92609E-05 2.27168E-06 2.28571E-20 7.42639E-19
 -1      2500 9.63149E-05-2.86541E-05-2.89958E-05 1.19324E-06 4.60392E-20-2.26234E-18
 -1      2501 9.65617E-05-2.87024E-05-2.90745E-05 1.35744E-06-4.81132E-19-1.24531E-18
 -1      2502 9.64057E-05-2.85213E-05-2.90970E-05 1.74804E-06-3.16000E-20-9.10953E-19
 -1      2503 9.59815E-05-2.86047E-05-2.88744E-05 8.78918E-07 6.71795E-21-1.65786E-18
 -1      2504 9.61673E-05-2.86375E-05-2.89347E-05 1.01026E-06 1.57640E-19-1.55495E-18
 -1      2505 9.60742E-05-2.84993E-05-2.89638E-05 1.31590E-06-2.94186E-19-1.93559E-18
 -1      2506 9.57327E-05-2.85733E-05-2.87814E-05 6.31397E-07 1.62161E-18-6.36639E-19
 -1      2507 9.58695E-05-2.85948E-05-2.88267E-05 7.34055E-07 5.68692E-19-1.02788E-18
 -1      2508 9.58212E-05-2.84922E-05-2.88580E-05 9.68346E-07 2.12640E-19-4.96736E-19
 -1      2509 9.55511E-05-2.85546E-05-2.87118E-05 4.40609E-07 1.53188E-18 1.03916E-18
 -1      2510 9.56494E-05-2.85680E-05-2.87450E-05 5.19159E-07 2.18214E-18-1.68020E-19
 -1      2511 9.56316E-05-2.84938E-05-2.87755E-05 6.95065E-07 1.41811E-18 8.59813E-19
 -1      2512 9.54216E-05-2.85445E-05-2.86608E-05 2.96546E-07 6.07892E-19 1.54591E-18
 -1      2513 9.54903E-05-2.85522E-05-2.86845E-05 3.55415E-07 8.64474E-19 1.64319E-18
 -1      2514 9.54922E-05-2.85002E-05-2.87126E-05 4.84616E-07 1.04188E-18 1.44009E-18
 -1      2515 9.53322E-05-2.85404E-05-2.86244E-05 1.90007E-07 3.52132E-19 1.55454E-18
 -1      2516 9.53784E-05-2.85441E-05-2.86409E-05 2.33196E-07 6.98503E-19 1.57078E-18
 -1      2517 9.53921E-05-2.85088E-05-2.86657E-05 3.25799E-07 7.98419E-19 1.89112E-18
 -1      2518 9.52727E-05-2.85400E-05-2.85993E-05 1.12942E-07-5.81571E-19 1.29828E-18
 -1      2519 9.53024E-05-2.85411E-05-2.86102E-05 1.43909E-07-4.91951E-20 2.05211E-18
 -1      2520 9.53222E-05-2.85182E-05-2.86314E-05 2.08388E-07 1.68205E-19 1.90884E-18
 -1      2521 9.52354E-05-2.85419E-05-2.85825E-05 5.85617E-08-1.88594E-18 2.38583E-18
 -1      2522 9.52530E-05-2.85413E-05-2.85895E-05 8.01913E-08-8.44155E-19 2.07291E-18
 -1      2523 9.52750E-05-2.85273E-05-2.86070E-05 1.23477E-07-1.19477E-18 2.91043E-18
 -1      2524 9.52139E-05-2.85452E-05-2.85720E-05 2.13006E-08-1.85976E-18 1.23872E-18
 -1      2525 9.52231E-05-2.85436E-05-2.85760E-05 3.59366E-08-2.44811E-18 1.70926E-18
 -1      2526 9.52448E-05-2.85358E-05-2.85902E-05 6.35737E-08-1.94712E-18 3.57199E-18
 -1      2527 9.52036E-05-2.85492E-05-2.85660E-05-3.28076E-09 4.83162E-20 8.48728E-19
 -1      2528 9.52069E-05-2.85470E-05-2.85679E-05 6.21340E-09-1.99099E-19 3.89602E-19
 -1      2529 9.52268E-05-2.85433E-05-2.85791E-05 2.25466E-08-7.13655E-19 1.40618E-18
 -1      2530 9.52009E-05-2.85534E-05-2.85630E-05-1.86261E-08 1.18959E-18 2.24315E-19
 -1      2531 9.52003E-05-2.85510E-05-2.85636E-05-1.28536E-08 2.28500E-19 1.89678E-19
 -1      2532 9.52175E-05-2.85499E-05-2.85722E-05-4.48437E-09 4.55091E-19 1.19365E-18
 -1      2533 9.52031E-05-2.85577E-05-2.85622E-05-2.73137E-08 2.45397E-18 7.66326E-19
 -1      2534 9.52001E-05-2.85552E-05-2.85619E-05-2.42170E-08 2.17873E-18 5.61464E-19
 -1      2535 9.52142E-05-2.85556E-05-2.85682E-05-2.12939E-08 1.45058E-18 1.07911E-19
 -1      2536 9.52082E-05-2.85618E-05-2.85627E-05-3.11729E-08 8.92578E-19 1.40688E-18
 -1      2537 9.52039E-05-2.85593E-05-2.85619E-05-3.00334E-08 1.67479E-18 1.23743E-18
 -1      2538 9.52148E-05-2.85606E-05-2.85663E-05-3.06982E-08 1.44053E-18 1.53262E-18
 -1      2539 9.52149E-05-2.85659E-05-2.85638E-05-3.13991E-08 4.27374E-19 2.50069E-19
 -1      2540 9.52100E-05-2.85635E-05-2.85628E-05-3.18039E-08 3.04920E-19 1.01293E-18
 -1      2541 9.52179E-05-2.85651E-05-2.85656E-05-3.47032E-08 8.88957E-19 2.01642E-18
 -1      2542 9.52221E-05-2.85701E-05-2.85652E-05-2.86286E-08-3.57662E-20 1.75835E-18
 -1      2543 9.52173E-05-2.85676E-05-2.85641E-05-3.03727E-08-2.99995E-19 1.17265E-18
 -1      2544 9.52225E-05-2.85694E-05-2.85656E-05-3.46998E-08-7.16442E-19 9.80041E-19
 -1      2545 9.52291E-05-2.85742E-05-2.85664E-05-2.32230E-08-3.86792E-19 1.29778E-18
 -1      2546 9.52247E-05-2.85718E-05-2.85655E-05-2.61420E-08 6.96488E-19 2.45423E-18
 -1      2547 9.52278E-05-2.85739E-05-2.85660E-05-3.12813E-08 1.06886E-19 3.19301E-18
 -1      2548 9.52318E-05-2.85760E-05-2.85668E-05-1.91393E-08-5.33252E-19 2.89307E-19
 -1      2549 9.52514E-05-2.86003E-05-2.85647E-05-2.10102E-08 1.32732E-18-2.47150E-18
 -1      2550 9.52496E-05-2.85975E-05-2.85652E-05-2.35899E-08 8.34638E-19-5.57127E-18
 -1      2551 9.52538E-05-2.86037E-05-2.85643E-05-1.41858E-08 9.47282E-19 1.72423E-18
 -1      2552 9.52526E-05-2.86017E-05-2.85646E-05-1.75580E-08 9.14428E-19 3.78016E-20
 -1      2553 9.52524E-05-2.85960E-05-2.85671E-05-2.11961E-08 1.81703E-18-6.50015E-19
 -1      2554 9.52429E-05-2.85893E-05-2.85658E-05-2.82531E-08-2.26954E-19-2.20916E-18
 -1      2555 9.52397E-05-2.85853E-05-2.85663E-05-2.79814E-08-2.10237E-19-4.32619E-19
 -1      2556 9.52478E-05-2.85954E-05-2.85653E-05-2.59554E-08-4.22201E-19-5.26148E-18
 -1      2557 9.52454E-05-2.85920E-05-2.85658E-05-2.72639E-08-1.59295E-19-4.01147E-18
 -1      2558 9.52438E-05-2.85876E-05-2.85670E-05-3.08018E-08 1.84317E-19-2.86875E-18
 -1      2559 9.52487E-05-2.85923E-05-2.85671E-05-2.73603E-08 1.61556E-18-3.53722E-18
 -1      2560 9.52551E-05-2.86055E-05-2.85640E-05-6.30357E-09-3.24867E-19 1.17508E-19
 -1      2561 9.52545E-05-2.86046E-05-2.85642E-05-1.01142E-08 4.05589E-20 7.76658E-19
 -1      2562 9.52547E-05-2.85983E-05-2.85670E-05-1.33300E-08 3.38211E-19 2.59338E-19
 -1      2563 9.52553E-05-2.86058E-05-2.85640E-05 2.00830E-09-1.03836E-18 7.11692E-19
 -1      2564 9.52553E-05-2.86058E-05-2.85640E-05-1.94192E-09-4.53712E-19 8.44651E-19
 -1      2565 9.52558E-05-2.85995E-05-2.85670E-05-4.52151E-09 6.43652E-19 7.72683E-20
 -1      2566 9.52545E-05-2.86046E-05-2.85642E-05 1.01847E-08-3.88233E-19-1.65795E-19
 -1      2567 9.52551E-05-2.86056E-05-2.85640E-05 6.37252E-09-8.86613E-19-4.30859E-19
 -1      2568 9.52558E-05-2.85995E-05-2.85670E-05 4.58866E-09 1.26096E-18 2.44570E-19
 -1      2569 9.52527E-05-2.86018E-05-2.85646E-05 1.75199E-08 4.53947E-19 1.59350E-18
 -1      2570 9.52538E-05-2.86037E-05-2.85643E-05 1.41981E-08-3.85403E-19 1.21297E-18
 -1      2571 9.52547E-05-2.85984E-05-2.85670E-05 1.33361E-08 1.32301E-18 6.79566E-19
 -1      2572 9.52497E-05-2.85975E-05-2.85652E-05 2.35726E-08 7.91846E-19 1.72692E-18
 -1      2573 9.52515E-05-2.86003E-05-2.85647E-05 2.09831E-08 4.70999E-19 6.41851E-19
 -1      2574 9.52525E-05-2.85960E-05-2.85671E-05 2.11605E-08 1.15852E-18 1.36532E-18
 -1      2575 9.52453E-05-2.85919E-05-2.85658E-05 2.73642E-08-3.44272E-19 3.29884E-18
 -1      2576 9.52478E-05-2.85954E-05-2.85653E-05 2.60042E-08-4.22145E-19 3.15765E-18
 -1      2577 9.52488E-05-2.85924E-05-2.85671E-05 2.73392E-08 1.40485E-19 1.50480E-18
 -1      2578 9.52397E-05-2.85853E-05-2.85662E-05 2.78788E-08-8.81351E-19 2.76973E-18
 -1      2579 9.52428E-05-2.85892E-05-2.85658E-05 2.82597E-08-6.35546E-19 2.84012E-18
 -1      2580 9.52434E-05-2.85874E-05-2.85669E-05 3.08543E-08-6.64546E-19 3.17870E-18
 -1      2581 2.69938E-05-2.14430E-05-2.18507E-06 2.35363E-05-8.92667E-19 5.10613E-18
 -1      2582 1.96106E-05-1.81258E-05-3.51434E-07 7.78433E-06-1.06673E-19 4.76498E-18
 -1      2583 9.37543E-05-5.16112E-05-1.81914E-05 4.16572E-05-7.95787E-19 2.75660E-18
 -1      2584 7.55141E-05-4.59395E-05-1.25720E-05 4.15866E-05-1.79635E-18 4.34041E-18
 -1      2585 1.01434E-04-2.96210E-05-3.07633E-05-4.24708E-06 7.45488E-19 1.75233E-19
 -1      2586 1.00871E-04-2.91606E-05-3.06868E-05-3.56886E-06 8.92712E-19 4.17210E-19
 -1      2587 1.01013E-04-2.93356E-05-3.07426E-05-5.13788E-06 8.62902E-19-3.62011E-19
 -1      2588 9.52350E-05-2.85803E-05-2.85663E-05 2.27928E-08-4.52883E-19 1.79528E-18
 -1      2589 1.95303E-05-1.78738E-05-4.23117E-07-7.39189E-06 8.10028E-19 3.96157E-18
 -1      2590 2.47942E-05-2.13132E-05-1.25175E-06-2.02890E-05 5.36595E-19 3.45568E-18
 -1      2591 5.84687E-05-3.75018E-05-8.81403E-06 4.17240E-05-1.82536E-18 5.16849E-18
 -1      2592 4.30097E-05-3.00024E-05-5.19565E-06 3.44592E-05-2.12499E-18 5.13344E-18
 -1      2593 9.81100E-05-2.06617E-05-3.32289E-05-7.69519E-06-2.27375E-18-1.74290E-19
 -1      2594 9.91267E-05-2.41004E-05-3.21729E-05-3.70889E-06-2.04374E-18-8.91453E-21
 -1      2595 9.78831E-05-2.27823E-05-3.21732E-05-2.81820E-06-1.97687E-18-6.51666E-19
 -1      2596 9.54305E-05-1.77948E-05-3.32788E-05-7.08791E-06-2.28115E-18-8.96174E-19
 -1      2597 1.04386E-04-5.55070E-05-2.08357E-05-3.55189E-05 8.08281E-19 1.04675E-18
 -1      2598 1.21881E-04-5.78846E-05-2.74650E-05-3.02153E-05 8.17387E-20 5.72171E-19
 -1      2599 1.49037E-04-2.49668E-05-5.36923E-05-6.07880E-06-4.83529E-18 7.36707E-19
 -1      2600 1.49019E-04-3.30653E-05-5.00456E-05-3.94099E-06-4.10557E-18 6.90120E-19
 -1      2601 1.30984E-04-5.76714E-05-3.13399E-05-2.06266E-05 1.02195E-18-5.10337E-20
 -1      2602 1.41990E-04-5.37377E-05-3.82425E-05-1.23056E-05 2.19096E-18 3.16367E-19
 -1      2603 8.22044E-05-6.76578E-06-3.23615E-05-6.14620E-07-2.89951E-19-3.03973E-18
 -1      2604 8.26254E-05-7.03277E-06-3.24193E-05-1.12412E-06-5.78961E-19-2.93445E-18
 -1      2605 8.37532E-05-8.77369E-06-3.21253E-05-9.25161E-07-6.08972E-19-2.68651E-18
 -1      2606 8.28171E-05-8.06169E-06-3.20292E-05-3.81925E-07-2.25390E-19-2.85995E-18
 -1      2607 1.45801E-04-1.21958E-05-5.76644E-05 2.17756E-06 5.02968E-18-6.55604E-19
 -1      2608 1.47680E-04-1.15333E-05-5.86859E-05-5.33688E-07 5.19358E-18-1.03923E-18
 -1      2609 2.89769E-05-2.18369E-05-2.65648E-06-2.30531E-05-9.72606E-19-4.86260E-18
 -1      2610 4.09453E-05-2.88790E-05-4.98235E-06-3.51575E-05-1.18309E-18-4.76244E-18
 -1      2611 1.49496E-04-1.41189E-05-5.83840E-05-3.56829E-06 5.03646E-18-1.29829E-18
 -1      2612 1.47970E-04-1.78539E-05-5.61134E-05-5.28616E-06 4.61993E-18-1.36669E-18
 -1      2613 1.48742E-04-2.57098E-05-5.30362E-05 4.38833E-06 4.56763E-18 2.56863E-19
 -1      2614 1.48545E-04-1.89482E-05-5.59952E-05 4.70196E-06 4.82893E-18-3.71318E-19
 -1      2615 1.45669E-04-4.32415E-05-4.40648E-05-2.16689E-06 3.15626E-18 3.99800E-19
 -1      2616 1.50427E-04-3.55124E-05-4.95828E-05 1.10084E-06 3.92494E-18 2.45851E-19
 -1      2617 1.02320E-04-5.48500E-05-2.00426E-05-3.77128E-05-9.60959E-19-1.77215E-18
 -1      2618 1.16949E-04-5.83032E-05-2.54716E-05-3.32579E-05-8.55503E-20-8.82185E-19
 -1      2619 1.50380E-04-3.03751E-05-5.17079E-05 4.88054E-06-4.33660E-18-1.97486E-18
 -1      2620 1.48743E-04-2.28512E-05-5.45637E-05 7.15904E-06-4.65953E-18-2.19509E-18
 -1      2621 5.89252E-05-3.84991E-05-8.49313E-06-4.03381E-05-1.61466E-18-4.25274E-18
 -1      2622 8.08370E-05-4.68368E-05-1.46541E-05-4.37482E-05-1.26631E-18-2.97954E-18
 -1      2623 5.77530E-05-3.28396E-05-1.01986E-05-3.73811E-05-1.99402E-18-4.00445E-18
 -1      2624 1.87196E-05-1.96026E-05 5.72818E-07 6.90397E-06-3.53636E-20-5.11481E-18
 -1      2625 1.95433E-05-1.75896E-05-5.63950E-07-6.31670E-06-3.42942E-19-4.97420E-18
 -1      2626 3.44282E-05-2.80481E-05-2.67829E-06 3.15684E-05 3.99588E-19-5.59762E-18
 -1      2627 2.33502E-05-2.30925E-05-4.40864E-08 1.89220E-05 5.39031E-19-5.50571E-18
 -1      2628 2.78331E-05-1.81766E-05-3.66189E-06 1.45768E-05 6.29504E-19-5.24525E-18
 -1      2629 6.81118E-05-4.31311E-05-1.07657E-05 4.34657E-05 5.29396E-21-4.22034E-18
 -1      2630 5.09152E-05-3.65550E-05-6.06356E-06 3.82134E-05 5.35960E-19-4.84693E-18
 -1      2631 1.05291E-04-5.52877E-05-2.16738E-05 3.88752E-05-4.02341E-20-2.73152E-18
 -1      2632 8.74857E-05-5.07227E-05-1.56606E-05 4.08850E-05 2.66815E-19-3.40275E-18
 -1      2633 1.37480E-04-5.69421E-05-3.49611E-05 1.90433E-05-1.64515E-18 5.50571E-20
 -1      2634 1.23044E-04-5.81600E-05-2.77003E-05 2.77319E-05-4.01705E-19-1.51322E-18
 -1      2635 1.50180E-04-4.20109E-05-4.67280E-05 1.24816E-06-3.64600E-18 7.39883E-19
 -1      2636 1.44877E-04-4.85245E-05-4.13568E-05 5.62360E-06-2.96390E-18 8.02564E-19
 -1      2637 1.44176E-04-3.76061E-05-4.57824E-05-8.06253E-06-3.25896E-18 1.51449E-18
 -1      2638 1.45937E-04-1.30114E-05-5.75081E-05-2.91030E-06-5.48793E-18-2.23934E-19
 -1      2639 1.46118E-04-1.67243E-05-5.59415E-05-5.37719E-06-5.30476E-18 3.45801E-19
 -1      2640 1.45030E-04-1.41778E-05-5.65277E-05 5.29539E-06-5.13133E-18-2.03923E-18
 -1      2641 1.44929E-04-1.15679E-05-5.76989E-05 1.63893E-06-5.46548E-18-1.57543E-18
 -1      2642 1.46340E-04-4.56761E-05-4.33472E-05-3.93816E-06-3.10374E-18-1.74595E-18
 -1      2643 1.51418E-04-3.88745E-05-4.85808E-05 3.61963E-07-3.82562E-18-1.91218E-18
 -1      2644 1.44304E-04-3.51730E-05-4.68194E-05 9.38166E-06-3.44340E-18-3.31232E-18
 -1      2645 1.30792E-04-5.69482E-05-3.18055E-05-2.13512E-05-4.46280E-19-1.13926E-19
 -1      2646 1.40995E-04-5.39287E-05-3.75995E-05-1.50089E-05-1.60682E-18-7.99811E-19
 -1      2647 1.28976E-04-6.00907E-05-2.93545E-05-2.08986E-05 6.61109E-19-1.05932E-18
 -1      2648 6.98018E-05-4.22677E-05-1.14644E-05-4.04404E-05 1.59539E-18 2.82062E-18
 -1      2649 8.46480E-05-4.81428E-05-1.55918E-05-4.20591E-05 1.31544E-18 2.45491E-18
 -1      2650 3.56307E-05-2.75130E-05-3.23916E-06-2.95199E-05 6.97320E-19 2.87843E-18
 -1      2651 5.17994E-05-3.38520E-05-7.47331E-06-3.88573E-05 8.91926E-19 2.79733E-18
 -1      2652 6.53321E-05-3.66365E-05-1.18924E-05-3.86034E-05 1.77665E-18 2.57127E-18
 -1      2653 3.79474E-05-2.19428E-05-6.31648E-06-2.54146E-05 1.26854E-18 2.86572E-18
 -1      2654 1.45111E-04-4.83989E-05-4.18756E-05 4.82365E-06 2.34157E-18-1.77305E-18
 -1      2655 1.39291E-04-5.34516E-05-3.68579E-05 1.03212E-05 1.48403E-18-1.55600E-18
 -1      2656 1.00761E-04-2.63180E-05-3.19148E-05 4.18420E-06 2.12180E-18 1.10086E-18
 -1      2657 1.01362E-04-2.49240E-05-3.27754E-05 7.38989E-06 2.34530E-18 1.37910E-18
 -1      2658 9.94611E-05-2.23166E-05-3.31183E-05 8.28583E-06 2.45174E-18 6.38650E-19
 -1      2659 9.97545E-05-2.50871E-05-3.20368E-05 3.62111E-06 2.12798E-18 2.95671E-19
 -1      2660 1.36699E-04-1.03636E-05-5.43381E-05-3.22592E-06 4.74656E-18-7.68841E-19
 -1      2661 8.85191E-05-1.26201E-05-3.25184E-05-2.65615E-06-1.40546E-18-2.32692E-18
 -1      2662 8.82209E-05-1.14371E-05-3.29722E-05-3.96453E-06-1.57294E-18-2.42236E-18
 -1      2663 8.98876E-05-1.27442E-05-3.31192E-05-4.95638E-06-1.83536E-18-2.18043E-18
 -1      2664 1.09044E-04-5.62275E-05-2.23265E-05 3.40119E-05-1.67141E-18 1.43085E-18
 -1      2665 1.34556E-04-5.75853E-05-3.28954E-05 1.31906E-05-1.07308E-19-2.04548E-18
 -1      2666 9.71356E-05-1.97484E-05-3.32120E-05 7.73580E-06 2.38373E-18-3.68605E-19
 -1      2667 1.01438E-04-5.34894E-05-2.02659E-05-3.53984E-05 1.70105E-18 1.45027E-18
 -1      2668 1.42310E-04-4.31659E-05-4.26820E-05-5.80656E-06 2.00239E-18-2.53475E-18
 -1      2669 9.72092E-05-2.09383E-05-3.26465E-05 5.45139E-06 2.20509E-18-5.65090E-19
 -1      2670 1.42722E-04-5.23031E-05-3.87462E-05-3.47831E-06-1.25299E-18-2.17942E-18
 -1      2671 9.52331E-05-2.85781E-05-2.85665E-05-2.44347E-08 5.49422E-20 3.47750E-18
 -1      2672 9.52355E-05-2.85810E-05-2.85662E-05-2.64395E-08-1.72761E-19 1.71649E-18
 -1      2673 1.37984E-04-1.77904E-05-5.17272E-05 9.34316E-06-4.47382E-18-2.65566E-18
 -1      2674 2.67569E-05-1.52819E-05-4.30013E-06 4.14881E-07 4.55360E-19 4.19408E-18
 -1      2675 4.15808E-05-2.40046E-05-6.97996E-06 2.86223E-05-1.25107E-18 4.90538E-18
 -1      2676 7.42346E-05-4.22380E-05-1.33714E-05 4.06370E-05-2.53326E-18 4.26354E-18
 -1      2677 1.40975E-04-5.48879E-05-3.68980E-05 7.17310E-06-1.45375E-18 9.44230E-19
 -1      2678 1.00190E-04-2.81982E-05-3.08752E-05-3.23092E-06 1.13986E-18-3.32828E-19
 -1      2679 1.18952E-04-5.91600E-05-2.53436E-05 2.96257E-05 8.13999E-19-1.01840E-18
 -1      2680 1.39176E-04-2.06312E-05-5.10420E-05-9.46908E-06-4.51130E-18 1.43170E-18
 -1      2681 4.93573E-05-3.10141E-05-7.44746E-06 3.54402E-05 1.36648E-18-5.06145E-18
 -1      2682 9.48000E-05-5.09409E-05-1.84439E-05-3.90739E-05-2.14744E-18-1.91218E-18
 -1      2683 1.42254E-04-4.97942E-05-3.97000E-05-1.46430E-06 2.14688E-18 8.41104E-19
 -1      2684 1.42861E-04-3.04235E-05-4.83162E-05 8.55381E-06 3.85580E-18 6.09228E-19
 -1      2685 1.27254E-04-5.94893E-05-2.88748E-05-2.22534E-05-4.72962E-19 2.16205E-19
 -1      2686 9.33788E-05-1.59939E-05-3.31949E-05-6.06823E-06-2.10647E-18-1.48592E-18
 -1      2687 1.40963E-04-2.25139E-05-5.09619E-05-9.62621E-06 4.09435E-18-1.79973E-18
 -1      2688 2.85106E-05-1.78825E-05-4.00031E-06-1.56013E-05-6.97690E-19-4.82491E-18
 -1      2689 3.90256E-05-1.85474E-05-8.34571E-06-2.24946E-05-1.33556E-18-4.16274E-18
 -1      2690 3.02920E-05-1.39478E-05-6.41631E-06-7.76003E-06-2.92332E-19-4.37027E-18
 -1      2691 1.37872E-04-1.41791E-05-5.32186E-05 6.07909E-06 4.88992E-18-5.73865E-20
 -1      2692 8.41141E-05-4.76718E-05-1.53001E-05 4.15021E-05 1.42831E-18-3.05927E-18
 -1      2693 1.34395E-04-1.08925E-05-5.32226E-05-1.11916E-06-4.83889E-18-5.68981E-19
 -1      2694 9.52316E-05-2.85766E-05-2.85665E-05 2.57918E-08-8.83365E-19 1.77807E-18
 -1      2695 9.52366E-05-2.85821E-05-2.85662E-05 2.79200E-08-1.15122E-18 3.18902E-18
 -1      2696 9.52367E-05-2.85812E-05-2.85666E-05 3.14354E-08-1.48344E-18 2.93316E-18
 -1      2697 9.52286E-05-2.85746E-05-2.85660E-05 2.89342E-08-1.82735E-18 2.14926E-18
 -1      2698 9.52354E-05-2.85803E-05-2.85665E-05-3.04683E-08 2.90948E-19 1.21711E-18
 -1      2699 9.52318E-05-2.85765E-05-2.85666E-05 3.27738E-08-2.30690E-18 2.51533E-18
 -1      2700 8.49297E-05-1.07330E-05-3.18099E-05 3.29609E-07 5.67238E-19-2.69109E-18
 -1      2701 8.40989E-05-1.01046E-05-3.17385E-05 1.38253E-08 4.29174E-19-2.83803E-18
 -1      2702 8.34656E-05-9.55748E-06-3.16888E-05 4.06334E-09 2.94719E-19-2.91326E-18
 -1      2703 8.31314E-05-9.30654E-06-3.16607E-05-2.19478E-07 8.64027E-20-2.79623E-18
 -1      2704 8.43187E-05-1.11026E-05-3.13567E-05-3.88690E-07 3.62155E-19-2.70793E-18
 -1      2705 9.04829E-05-1.54521E-05-3.21787E-05 1.81967E-06 1.47480E-18-1.95702E-18
 -1      2706 8.88524E-05-1.40682E-05-3.20825E-05 1.24321E-06 1.31729E-18-2.20201E-18
 -1      2707 9.42128E-05-1.89697E-05-3.22742E-05 2.75863E-06 1.84398E-18-1.33707E-18
 -1      2708 9.22944E-05-1.71339E-05-3.22382E-05 2.21133E-06 1.59725E-18-1.57350E-18
 -1      2709 9.22118E-05-1.79313E-05-3.18153E-05 6.15566E-07 1.43963E-18-1.59761E-18
 -1      2710 1.37715E-04-5.57104E-05-3.51906E-05-4.18035E-06-3.13654E-19-2.60166E-18
 -1      2711 1.40753E-04-4.86231E-05-4.00688E-05 4.58531E-06-1.64753E-18-3.86798E-18
 -1      2712 9.88233E-05-2.58718E-05-3.12667E-05-1.11697E-06 1.47730E-18-5.71540E-19
 -1      2713 9.87235E-05-2.49338E-05-3.15890E-05 7.99283E-07 1.67874E-18-4.75037E-19
 -1      2714 9.79343E-05-2.55376E-05-3.09998E-05 3.83723E-06-1.14470E-18-8.65873E-19
 -1      2715 9.82566E-05-2.63156E-05-3.08313E-05 5.26291E-06-1.04905E-18-8.64600E-19
 -1      2716 9.85793E-05-2.70490E-05-3.06288E-05 6.54838E-06-9.59704E-19-7.71861E-19
 -1      2717 9.91328E-05-2.78473E-05-3.05480E-05 7.52359E-06-6.87678E-19-8.39481E-19
 -1      2718 9.68987E-05-2.54878E-05-3.06196E-05 6.08376E-06-1.03503E-18-1.04386E-18
 -1      2719 9.96780E-05-2.86847E-05-3.03965E-05 8.46958E-06-3.95447E-19-8.03350E-19
 -1      2720 1.00561E-04-2.97059E-05-3.03649E-05 8.99294E-06-2.44583E-19-7.94905E-19
 -1      2721 9.77518E-05-2.72978E-05-3.02194E-05 8.44736E-06-5.86528E-19-9.01965E-19
 -1      2722 1.01540E-04-3.08706E-05-3.02481E-05 9.54250E-06-1.77037E-19-7.42925E-19
 -1      2723 1.02839E-04-3.22708E-05-3.02491E-05 9.51957E-06-2.24743E-19-8.58070E-19
 -1      2724 9.92472E-05-2.95794E-05-2.98969E-05 1.01057E-05-2.74170E-19-1.09421E-18
 -1      2725 1.04487E-04-3.39336E-05-3.01801E-05 9.51419E-06-7.71557E-20-7.69637E-19
 -1      2726 1.06248E-04-3.57666E-05-3.02279E-05 8.76735E-06 2.11806E-19-7.25502E-19
 -1      2727 1.01826E-04-3.27802E-05-2.96515E-05 1.08840E-05-1.53499E-19-9.14001E-19
 -1      2728 1.08764E-04-3.79454E-05-3.02710E-05 7.90216E-06 4.26230E-19-3.89240E-19
 -1      2729 1.10891E-04-3.99972E-05-3.04273E-05 6.21895E-06 3.78521E-19-3.43424E-19
 -1      2730 1.05945E-04-3.71561E-05-2.95660E-05 1.03622E-05 4.11300E-19-7.36384E-19
 -1      2731 1.14202E-04-4.23108E-05-3.07236E-05 4.10322E-06 4.73359E-19-6.34944E-21
 -1      2732 1.16251E-04-4.38830E-05-3.11028E-05 1.43043E-06 5.17206E-19 5.57861E-19
 -1      2733 1.11776E-04-4.23340E-05-2.98644E-05 7.77313E-06 6.36616E-19 1.60506E-19
 -1      2734 1.19756E-04-4.51833E-05-3.18864E-05-2.36886E-06 3.87713E-19 6.57774E-19
 -1      2735 1.20719E-04-4.47796E-05-3.26379E-05-5.51217E-06 4.85373E-20 9.63294E-19
 -1      2736 1.18881E-04-4.70000E-05-3.09536E-05 2.39550E-06 5.20323E-19 8.20717E-19
 -1      2737 1.22873E-04-4.34198E-05-3.41204E-05-1.00489E-05-4.48851E-19 1.18848E-18
 -1      2738 1.21915E-04-3.96122E-05-3.53020E-05-1.22848E-05-1.10024E-18 1.02072E-18
 -1      2739 1.24639E-04-4.71594E-05-3.34017E-05-5.76228E-06-1.88068E-19 9.12122E-19
 -1      2740 1.20881E-04-3.43939E-05-3.73747E-05-1.46171E-05-1.64029E-18 7.76822E-19
 -1      2741 1.18320E-04-2.82191E-05-3.86879E-05-1.35602E-05-2.18492E-18 3.95578E-19
 -1      2742 1.25976E-04-3.93007E-05-3.72605E-05-1.31600E-05-1.68755E-18 1.05747E-18
 -1      2743 1.12929E-04-1.72952E-05-4.11694E-05 1.92626E-06-3.25938E-18-9.74409E-19
 -1      2744 1.13999E-04-1.93681E-05-4.09122E-05 7.80275E-06-2.72448E-18-1.32828E-18
 -1      2745 1.16359E-04-2.41940E-05-3.95833E-05 1.29022E-05-2.09720E-18-1.70045E-18
 -1      2746 1.18966E-04-3.02100E-05-3.84200E-05 1.53157E-05-1.37076E-18-1.72975E-18
 -1      2747 1.19423E-04-2.07310E-05-4.26383E-05 1.12557E-05-2.87970E-18-9.59185E-19
 -1      2748 1.21009E-04-3.60715E-05-3.64105E-05 1.47803E-05-9.88249E-19-2.60756E-18
 -1      2749 1.22562E-04-4.09632E-05-3.51609E-05 1.32961E-05-5.72756E-19-2.48188E-18
 -1      2750 1.24317E-04-3.43705E-05-3.86574E-05 1.56258E-05-1.59859E-18-1.94638E-18
 -1      2751 1.21587E-04-4.35696E-05-3.35113E-05 9.39138E-06-1.70101E-19-2.66218E-18
 -1      2752 1.21209E-04-4.50670E-05-3.26274E-05 6.21022E-06 3.65349E-19-2.45058E-18
 -1      2753 1.25080E-04-4.46834E-05-3.45804E-05 1.02101E-05-3.75858E-19-2.83122E-18
 -1      2754 1.18132E-04-4.44804E-05-3.16496E-05 2.13214E-06 5.68571E-19-2.43516E-18
 -1      2755 1.16383E-04-4.34777E-05-3.11672E-05-8.63603E-07 8.19054E-19-2.04581E-18
 -1      2756 1.20939E-04-4.70520E-05-3.17279E-05 1.82540E-06 5.34786E-19-2.43029E-18
 -1      2757 1.12962E-04-4.13970E-05-3.07302E-05-3.55287E-06 6.73246E-19-1.88188E-18
 -1      2758 1.10854E-04-3.94701E-05-3.05108E-05-5.61472E-06 8.57349E-19-1.84396E-18
 -1      2759 1.14226E-04-4.38155E-05-3.02588E-05-4.68264E-06 7.42247E-19-2.07644E-18
 -1      2760 1.08056E-04-3.72715E-05-3.03704E-05-6.96587E-06 1.05276E-18-2.50767E-18
 -1      2761 1.06177E-04-3.54013E-05-3.02736E-05-8.08106E-06 1.05153E-18-2.64910E-18
 -1      2762 1.07993E-04-3.88826E-05-2.96995E-05-8.33969E-06 6.56956E-19-1.54227E-18
 -1      2763 1.04231E-04-3.36722E-05-3.02538E-05-8.50634E-06 1.41661E-18-2.72718E-18
 -1      2764 1.02764E-04-3.22371E-05-3.01904E-05-8.90923E-06 1.41756E-18-2.42349E-18
 -1      2765 1.03302E-04-3.44165E-05-2.95818E-05-9.78113E-06 1.24002E-18-1.78601E-18
 -1      2766 1.01532E-04-3.10773E-05-3.01969E-05-8.79249E-06 1.08403E-18-2.60809E-18
 -1      2767 1.00448E-04-3.01103E-05-3.01268E-05-8.73106E-06 1.17241E-18-2.75087E-18
 -1      2768 1.00185E-04-3.11708E-05-2.96141E-05-9.87343E-06 1.40270E-18-1.38546E-18
 -1      2769 9.97135E-05-2.94219E-05-3.01201E-05-8.32877E-06 9.48384E-19-3.03998E-18
 -1      2770 9.89212E-05-2.88282E-05-3.00327E-05-7.99863E-06 4.63134E-19-2.50960E-18
 -1      2771 9.82594E-05-2.91096E-05-2.96559E-05-9.22952E-06 1.02334E-18-2.08320E-18
 -1      2772 9.84970E-05-2.84707E-05-3.00029E-05-7.46760E-06 5.23820E-19-2.71510E-18
 -1      2773 9.79094E-05-2.81367E-05-2.99016E-05-7.00629E-06 9.04153E-19-2.81005E-18
 -1      2774 9.71208E-05-2.79485E-05-2.96554E-05-8.22666E-06 7.36141E-19-2.45479E-18
 -1      2775 9.76663E-05-2.79883E-05-2.98520E-05-6.43973E-06 6.09625E-19-2.61687E-18
 -1      2776 9.72199E-05-2.78205E-05-2.97448E-05-5.93704E-06 7.12849E-19-2.14565E-18
 -1      2777 9.64599E-05-2.73909E-05-2.96057E-05-7.08859E-06 6.20054E-19-3.03269E-18
 -1      2778 9.70774E-05-2.77934E-05-2.96828E-05-5.38895E-06 6.65187E-19-2.05356E-18
 -1      2779 9.67308E-05-2.77253E-05-2.95774E-05-4.89945E-06 8.07267E-19-1.71849E-18
 -1      2780 9.60731E-05-2.72034E-05-2.95177E-05-5.94704E-06 1.15200E-18-2.66721E-18
 -1      2781 9.66427E-05-2.77620E-05-2.95103E-05-4.39930E-06 2.36501E-19-2.40002E-18
 -1      2782 9.63699E-05-2.77504E-05-2.94122E-05-3.95311E-06-1.04821E-19-2.48657E-18
 -1      2783 9.58382E-05-2.72244E-05-2.94069E-05-4.87772E-06 4.08021E-19-3.66636E-18
 -1      2784 9.63110E-05-2.78160E-05-2.93458E-05-3.51479E-06 4.00649E-19-2.41704E-18
 -1      2785 9.60951E-05-2.78340E-05-2.92584E-05-3.12578E-06 2.20697E-20-1.79687E-18
 -1      2786 9.56864E-05-2.73509E-05-2.92874E-05-3.92071E-06 5.90722E-20-4.00346E-18
 -1      2787 9.60525E-05-2.79082E-05-2.91966E-05-2.75327E-06-3.53568E-19-1.27865E-18
 -1      2788 9.58821E-05-2.79398E-05-2.91213E-05-2.42509E-06-2.03433E-19-1.37220E-18
 -1      2789 9.55806E-05-2.75205E-05-2.91694E-05-3.09282E-06 1.57711E-19-2.91949E-18
 -1      2790 9.58493E-05-2.80120E-05-2.90662E-05-2.11629E-06-6.66611E-19-1.36084E-18
 -1      2791 9.57159E-05-2.80481E-05-2.90031E-05-1.84655E-06-1.06120E-18-1.28169E-18
 -1      2792 9.55020E-05-2.76979E-05-2.90597E-05-2.39580E-06-5.49136E-19-1.82344E-18
 -1      2793 9.56897E-05-2.81130E-05-2.89556E-05-1.59598E-06-1.63192E-18-8.73913E-19
 -1      2794 9.55865E-05-2.81486E-05-2.89041E-05-1.37909E-06-1.11662E-18-8.31698E-19
 -1      2795 9.54408E-05-2.78645E-05-2.89621E-05-1.82223E-06-1.22987E-18-1.25084E-18
 -1      2796 9.55654E-05-2.82044E-05-2.88642E-05-1.17966E-06-8.91347E-19-1.56728E-18
 -1      2797 9.54867E-05-2.82370E-05-2.88230E-05-1.00868E-06-2.64176E-19-1.90106E-18
 -1      2798 9.53922E-05-2.80119E-05-2.88782E-05-1.35968E-06-1.23468E-18-1.19607E-18
 -1      2799 9.54697E-05-2.82833E-05-2.87904E-05-8.52819E-07-9.38325E-20-2.17521E-18
 -1      2800 9.54109E-05-2.83119E-05-2.87580E-05-7.20503E-07-1.04473E-18-2.81095E-18
 -1      2801 9.53534E-05-2.81371E-05-2.88078E-05-9.93598E-07-8.17046E-19-2.58603E-18
 -1      2802 9.53973E-05-2.83494E-05-2.87318E-05-6.00838E-07-1.42651E-18-2.33369E-18
 -1      2803 9.53541E-05-2.83735E-05-2.87069E-05-5.00282E-07-9.41688E-19-2.14635E-18
 -1      2804 9.53228E-05-2.82405E-05-2.87503E-05-7.09007E-07-8.86390E-19-2.19725E-18
 -1      2805 9.53435E-05-2.84033E-05-2.86863E-05-4.10036E-07-1.27694E-18-2.73923E-18
 -1      2806 9.53125E-05-2.84233E-05-2.86675E-05-3.35015E-07-9.61657E-19-3.00988E-18
 -1      2807 9.52988E-05-2.83239E-05-2.87042E-05-4.91649E-07-1.19382E-18-1.96508E-18
 -1      2808 9.53044E-05-2.84464E-05-2.86517E-05-2.68213E-07 6.25156E-19-3.55940E-18
 -1      2809 9.52828E-05-2.84626E-05-2.86377E-05-2.13331E-07 9.78889E-19-3.02109E-18
 -1      2810 9.52804E-05-2.83898E-05-2.86680E-05-3.28599E-07-5.19655E-19-2.02949E-18
 -1      2811 9.52766E-05-2.84803E-05-2.86257E-05-1.64878E-07 9.78424E-19-3.34880E-18
 -1      2812 9.52621E-05-2.84931E-05-2.86157E-05-1.25595E-07 1.01793E-18-4.29108E-18
 -1      2813 9.52665E-05-2.84409E-05-2.86400E-05-2.08601E-07 8.12483E-19-3.28028E-18
 -1      2814 9.52576E-05-2.85064E-05-2.86067E-05-9.12537E-08 1.50635E-18-3.87832E-18
 -1      2815 9.52484E-05-2.85165E-05-2.85996E-05-6.38446E-08 1.23855E-18-2.92987E-18
 -1      2816 9.52563E-05-2.84799E-05-2.86189E-05-1.22130E-07 1.15516E-18-3.21787E-18
 -1      2817 9.52451E-05-2.85263E-05-2.85931E-05-4.01709E-08 5.96503E-19-2.25199E-18
 -1      2818 9.52397E-05-2.85341E-05-2.85883E-05-2.16500E-08-1.75931E-19-1.17670E-18
 -1      2819 9.52491E-05-2.85091E-05-2.86031E-05-6.13192E-08 1.04706E-18-2.30885E-18
 -1      2820 9.52375E-05-2.85412E-05-2.85836E-05-5.91016E-09-3.11543E-19 1.45480E-20
 -1      2821 9.52347E-05-2.85472E-05-2.85805E-05 6.05537E-09 7.26928E-19-5.89763E-19
 -1      2822 9.52440E-05-2.85307E-05-2.85917E-05-1.98249E-08 4.53195E-19-6.00151E-19
 -1      2823 9.52333E-05-2.85524E-05-2.85772E-05 1.59733E-08 7.71729E-19-1.31419E-18
 -1      2824 9.52324E-05-2.85570E-05-2.85752E-05 2.31523E-08-3.33384E-19-2.07165E-18
 -1      2825 9.52407E-05-2.85464E-05-2.85835E-05 7.34307E-09 1.53846E-19-5.27491E-19
 -1      2826 9.52315E-05-2.85608E-05-2.85730E-05 2.88351E-08 5.71950E-20-7.36115E-19
 -1      2827 9.52319E-05-2.85645E-05-2.85718E-05 3.25247E-08 5.91155E-19 4.31146E-19
 -1      2828 9.52388E-05-2.85579E-05-2.85777E-05 2.40016E-08 6.24354E-19 6.65438E-19
 -1      2829 9.52316E-05-2.85674E-05-2.85702E-05 3.51112E-08 5.23578E-19-4.23989E-19
 -1      2830 9.52327E-05-2.85705E-05-2.85695E-05 3.62006E-08-2.81786E-19 3.02566E-19
 -1      2831 9.52379E-05-2.85664E-05-2.85736E-05 3.29838E-08 2.43282E-19-9.29814E-19
 -1      2832 9.52329E-05-2.85730E-05-2.85684E-05 3.64473E-08-1.52691E-18 9.33914E-19
 -1      2833 9.52345E-05-2.85758E-05-2.85680E-05 3.54646E-08-1.99350E-18 1.36748E-18
 -1      2834 9.52379E-05-2.85732E-05-2.85706E-05 3.62931E-08-7.42647E-19-3.54359E-19
 -1      2835 1.03772E-04-3.24895E-05-3.05689E-05-6.85475E-06 6.47931E-21-1.83202E-20
 -1      2836 1.02722E-04-3.14269E-05-3.05195E-05-7.10657E-06 1.72213E-19-2.35773E-20
 -1      2837 9.52396E-05-2.85815E-05-2.85678E-05-3.40258E-08-9.14560E-19-1.70343E-18
 -1      2838 9.52344E-05-2.85776E-05-2.85672E-05-3.26635E-08-3.24350E-19 7.39493E-19
 -1      2839 9.52319E-05-2.85751E-05-2.85672E-05-3.50567E-08-8.12250E-19-2.23999E-19
 -1      2840 1.01761E-04-3.04618E-05-3.05646E-05-6.88568E-06 3.66536E-19-2.15699E-19
 -1      2841 1.00959E-04-2.96117E-05-3.05456E-05-6.58862E-06 6.31042E-19-1.94137E-19
 -1      2842 1.01099E-04-3.05857E-05-3.02535E-05-7.80916E-06 3.09104E-19-2.40431E-19
 -1      2843 1.09523E-04-3.76879E-05-3.08405E-05-2.74007E-06-8.77870E-20 7.46471E-19
 -1      2844 1.08279E-04-3.64731E-05-3.07253E-05-4.38177E-06-8.26928E-20 4.42175E-19
 -1      2845 1.12556E-04-3.97238E-05-3.12759E-05 1.65183E-06 1.95545E-20 1.22297E-18
 -1      2846 1.11647E-04-3.90557E-05-3.10702E-05-6.22796E-07-3.74558E-20 1.09097E-18
 -1      2847 1.10822E-04-3.97092E-05-3.05229E-05-3.26716E-06-2.17464E-19 7.24609E-19
 -1      2848 1.14460E-04-3.96178E-05-3.21114E-05 6.97481E-06 5.66169E-19 1.66853E-18
 -1      2849 1.14366E-04-4.02681E-05-3.17531E-05 4.56865E-06 2.62092E-19 1.56257E-18
 -1      2850 1.14879E-04-4.19529E-05-3.12769E-05 1.74439E-06 8.80412E-20 1.46037E-18
 -1      2851 1.13963E-04-3.59298E-05-3.34346E-05 1.12632E-05 5.85062E-19 1.84089E-18
 -1      2852 1.15004E-04-3.84024E-05-3.29107E-05 9.81506E-06 6.44166E-19 1.87692E-18
 -1      2853 1.17379E-04-4.10299E-05-3.26952E-05 7.87413E-06 5.01859E-19 2.10303E-18
 -1      2854 1.10850E-04-2.89234E-05-3.50428E-05 1.15633E-05 1.42785E-18 1.68524E-18
 -1      2855 1.12690E-04-3.26455E-05-3.44701E-05 1.23809E-05 9.36124E-19 1.96018E-18
 -1      2856 1.16764E-04-3.55940E-05-3.47835E-05 1.24241E-05 8.80782E-19 2.25309E-18
 -1      2857 1.07309E-04-2.25182E-05-3.63206E-05 5.78423E-06 1.51234E-18 1.07326E-18
 -1      2858 1.08579E-04-2.52477E-05-3.59381E-05 9.03364E-06 1.60848E-18 1.30874E-18
 -1      2859 1.12811E-04-2.64036E-05-3.70345E-05 1.17352E-05 1.61361E-18 2.46149E-18
 -1      2860 1.06699E-04-2.16380E-05-3.65835E-05-3.92350E-06 1.99950E-18 1.43049E-19
 -1      2861 1.06260E-04-2.11048E-05-3.66365E-05 3.16087E-07 1.75677E-18 3.90576E-19
 -1      2862 1.09471E-04-1.97415E-05-3.84457E-05 3.90027E-06 2.09079E-18 1.44149E-18
 -1      2863 1.09790E-04-2.69743E-05-3.56772E-05-1.15022E-05 2.04150E-18-1.24655E-18
 -1      2864 1.08101E-04-2.38051E-05-3.60978E-05-8.67318E-06 2.07027E-18-5.90817E-19
 -1      2865 1.10238E-04-2.11978E-05-3.82850E-05-7.10346E-06 2.49888E-18-2.63824E-19
 -1      2866 1.13803E-04-3.44904E-05-3.41407E-05-1.31087E-05 6.43780E-19-1.10044E-18
 -1      2867 1.12025E-04-3.09072E-05-3.47035E-05-1.29908E-05 1.32873E-18-1.57318E-18
 -1      2868 1.14210E-04-2.89416E-05-3.65423E-05-1.35668E-05 1.69224E-18-1.34191E-18
 -1      2869 1.15454E-04-3.92078E-05-3.27238E-05-9.73859E-06-1.80488E-19-1.05168E-18
 -1      2870 1.14605E-04-3.71762E-05-3.31772E-05-1.14471E-05 4.91736E-19-8.66611E-19
 -1      2871 1.17225E-04-3.70441E-05-3.43484E-05-1.29457E-05 3.97642E-19-1.70547E-18
 -1      2872 1.14281E-04-4.02486E-05-3.17112E-05-4.28104E-06-5.76547E-19-6.56497E-19
 -1      2873 1.14540E-04-3.99810E-05-3.20092E-05-6.69388E-06-4.57436E-19-1.12198E-18
 -1      2874 1.17204E-04-4.16862E-05-3.23725E-05-7.54949E-06-1.86877E-19-1.61121E-18
 -1      2875 1.11366E-04-3.86162E-05-3.11331E-05 6.32799E-07-8.51391E-19-5.69614E-19
 -1      2876 1.12337E-04-3.94440E-05-3.13008E-05-1.51630E-06-5.53099E-19-5.34088E-19
 -1      2877 1.14149E-04-4.15656E-05-3.11207E-05-1.48137E-06-5.37719E-19-1.03615E-18
 -1      2878 1.08042E-04-3.60041E-05-3.08302E-05 4.04142E-06 1.61647E-19-4.97909E-19
 -1      2879 1.09264E-04-3.72017E-05-3.09350E-05 2.53903E-06-2.70875E-19-6.31158E-19
 -1      2880 1.09993E-04-3.89864E-05-3.04746E-05 3.15144E-06-4.86223E-19-3.65626E-19
 -1      2881 1.05075E-04-3.34920E-05-3.06452E-05 5.93481E-06 9.10019E-20 3.68048E-19
 -1      2882 1.06263E-04-3.46197E-05-3.07375E-05 5.08971E-06 5.66503E-20-2.60040E-19
 -1      2883 1.06071E-04-3.57317E-05-3.01896E-05 5.95949E-06 1.80972E-19-4.64617E-19
 -1      2884 1.02700E-04-3.15154E-05-3.04862E-05 6.66106E-06 2.82479E-19 8.55648E-19
 -1      2885 1.03739E-04-3.24024E-05-3.05894E-05 6.33591E-06 4.00237E-19 6.80956E-19
 -1      2886 1.02955E-04-3.28779E-05-3.00669E-05 7.27000E-06 9.67605E-20 2.13109E-19
 -1      2887 1.00891E-04-3.01324E-05-3.03130E-05 6.60815E-06-3.67304E-19 1.41810E-19
 -1      2888 1.01758E-04-3.07619E-05-3.04318E-05 6.63828E-06 2.91207E-19 9.64942E-19
 -1      2889 1.00689E-04-3.07661E-05-2.99896E-05 7.54314E-06 1.60082E-19 1.52674E-18
 -1      2890 9.95333E-05-2.92433E-05-3.01185E-05 6.09494E-06-5.85963E-19-1.43413E-18
 -1      2891 1.00244E-04-2.96601E-05-3.02476E-05 6.33796E-06-6.72077E-19-7.68284E-19
 -1      2892 9.91109E-05-2.93719E-05-2.99026E-05 7.17573E-06 2.64919E-19 9.68133E-19
 -1      2893 9.85099E-05-2.87129E-05-2.99110E-05 5.35101E-06-7.40860E-19-7.43964E-19
 -1      2894 9.90889E-05-2.89742E-05-3.00421E-05 5.70083E-06-8.68633E-19-1.41146E-18
 -1      2895 9.80273E-05-2.85379E-05-2.97902E-05 6.45743E-06-7.17439E-19-9.95474E-20
 -1      2896 9.77293E-05-2.84226E-05-2.97029E-05 4.52885E-06 3.48919E-19 7.40749E-20
 -1      2897 9.81993E-05-2.85778E-05-2.98285E-05 4.91381E-06-5.47033E-20-6.50645E-19
 -1      2898 9.72771E-05-2.80934E-05-2.96560E-05 5.58404E-06-6.18138E-19 3.36731E-19
 -1      2899 9.71269E-05-2.82837E-05-2.95053E-05 3.72251E-06 3.18072E-21 1.02507E-19
 -1      2900 9.75063E-05-2.83699E-05-2.96199E-05 4.09831E-06 4.83469E-19 2.83972E-19
 -1      2901 9.67469E-05-2.78989E-05-2.95104E-05 4.68106E-06 3.11918E-19 3.92743E-19
 -1      2902 9.66586E-05-2.82353E-05-2.93257E-05 2.98474E-06-3.29486E-19-7.60531E-21
 -1      2903 9.69625E-05-2.82783E-05-2.94264E-05 3.32681E-06-1.94990E-19 5.21166E-19
 -1      2904 9.63624E-05-2.78539E-05-2.93640E-05 3.82401E-06-1.38137E-19 9.56217E-19
 -1      2905 9.62940E-05-2.82378E-05-2.91683E-05 2.34047E-06 3.56647E-19 2.45088E-19
 -1      2906 9.65347E-05-2.82545E-05-2.92541E-05 2.63755E-06 6.83260E-19 1.48614E-19
 -1      2907 9.60769E-05-2.78912E-05-2.92252E-05 3.05380E-06 1.18079E-19 7.58181E-19
 -1      2908 9.60110E-05-2.82665E-05-2.90346E-05 1.79696E-06 2.09966E-19-7.63999E-19
 -1      2909 9.61992E-05-2.82680E-05-2.91056E-05 2.04616E-06 4.62471E-19-1.86083E-19
 -1      2910 9.58612E-05-2.79683E-05-2.90993E-05 2.38818E-06 9.54332E-19-1.21635E-19
 -1      2911 9.57931E-05-2.83066E-05-2.89238E-05 1.35092E-06-6.43701E-19-1.10294E-18
 -1      2912 9.59381E-05-2.82998E-05-2.89813E-05 1.55424E-06-1.64096E-19-1.29809E-18
 -1      2913 9.56966E-05-2.80598E-05-2.89893E-05 1.83016E-06 2.25799E-19 6.39528E-20
 -1      2914 9.56274E-05-2.83495E-05-2.88342E-05 9.93368E-07 9.55269E-19-1.06444E-18
 -1      2915 9.57372E-05-2.83387E-05-2.88797E-05 1.15538E-06-4.12963E-19-9.75982E-19
 -1      2916 9.55708E-05-2.81513E-05-2.88959E-05 1.37397E-06-5.11751E-19-6.78008E-19
 -1      2917 9.55031E-05-2.83906E-05-2.87631E-05 7.12757E-07 1.39462E-18 7.19127E-19
 -1      2918 9.55848E-05-2.83783E-05-2.87984E-05 8.39128E-07 1.52426E-18 1.43307E-19
 -1      2919 9.54751E-05-2.82354E-05-2.88186E-05 1.00918E-06 4.17160E-19-9.01959E-19
 -1      2920 9.54116E-05-2.84274E-05-2.87079E-05 4.96884E-07 6.61096E-19 9.04662E-19
 -1      2921 9.54710E-05-2.84153E-05-2.87348E-05 5.93486E-07 1.23428E-18 1.08607E-18
 -1      2922 9.54029E-05-2.83087E-05-2.87560E-05 7.23365E-07 1.17671E-18 1.12177E-18
 -1      2923 9.53455E-05-2.84591E-05-2.86659E-05 3.34039E-07 6.50130E-19 1.33400E-18
 -1      2924 9.53878E-05-2.84478E-05-2.86859E-05 4.06422E-07 5.85910E-19 1.63568E-18
 -1      2925 9.53493E-05-2.83702E-05-2.87064E-05 5.03723E-07 5.67632E-19 1.79423E-19
 -1      2926 9.52991E-05-2.84854E-05-2.86346E-05 2.13647E-07-3.14424E-19 1.60320E-18
 -1      2927 9.53282E-05-2.84755E-05-2.86491E-05 2.66767E-07 7.42513E-19 2.11474E-18
 -1      2928 9.53100E-05-2.84204E-05-2.86679E-05 3.38153E-07-1.81974E-19 2.36867E-18
 -1      2929 9.52675E-05-2.85069E-05-2.86118E-05 1.26556E-07-1.77591E-18 3.13294E-18
 -1      2930 9.52867E-05-2.84984E-05-2.86221E-05 1.64663E-07-1.49519E-18 2.23940E-18
 -1      2931 9.52819E-05-2.84604E-05-2.86385E-05 2.15810E-07-1.36313E-18 2.44914E-18
 -1      2932 9.52470E-05-2.85241E-05-2.85956E-05 6.50838E-08-1.28272E-18 2.46359E-18
 -1      2933 9.52590E-05-2.85170E-05-2.86026E-05 9.17166E-08-1.02312E-18 3.70842E-18
 -1      2934 9.52623E-05-2.84916E-05-2.86166E-05 1.27347E-07-1.29425E-18 2.47139E-18
 -1      2935 9.52345E-05-2.85375E-05-2.85844E-05 2.29628E-08 1.13707E-19 1.50365E-18
 -1      2936 9.52413E-05-2.85317E-05-2.85891E-05 4.09841E-08-8.64626E-19 1.70677E-18
 -1      2937 9.52492E-05-2.85156E-05-2.86006E-05 6.49404E-08-3.67042E-19 3.15775E-18
 -1      2938 9.52278E-05-2.85480E-05-2.85771E-05-4.79036E-09 1.38109E-18 6.68296E-20
 -1      2939 9.52309E-05-2.85432E-05-2.85799E-05 6.87461E-09 1.16273E-18 7.82576E-19
 -1      2940 9.52408E-05-2.85336E-05-2.85891E-05 2.22177E-08 9.54679E-19 1.42041E-18
 -1      2941 9.52251E-05-2.85561E-05-2.85724E-05-2.20222E-08 1.74930E-18-3.89290E-20
 -1      2942 9.52258E-05-2.85523E-05-2.85740E-05-1.49921E-08 1.39632E-18-4.38079E-19
 -1      2943 9.52359E-05-2.85471E-05-2.85812E-05-5.87585E-09 2.07768E-18-4.53446E-19
 -1      2944 9.52251E-05-2.85626E-05-2.85696E-05-3.15924E-08 1.65554E-18-5.11703E-19
 -1      2945 9.52242E-05-2.85594E-05-2.85704E-05-2.79397E-08 1.81150E-18-1.84844E-19
 -1      2946 9.52334E-05-2.85571E-05-2.85758E-05-2.32360E-08 1.46549E-18-1.19122E-18
 -1      2947 9.52268E-05-2.85679E-05-2.85681E-05-3.54476E-08-3.42098E-20-1.50780E-19
 -1      2948 9.52250E-05-2.85652E-05-2.85684E-05-3.43767E-08 1.04378E-18-1.76013E-19
 -1      2949 9.52328E-05-2.85647E-05-2.85721E-05-3.27692E-08 1.13319E-18-7.31540E-19
 -1      2950 9.52305E-05-2.85726E-05-2.85677E-05-3.53716E-08-3.67241E-20-3.48990E-19
 -1      2951 9.52283E-05-2.85701E-05-2.85678E-05-3.61580E-08-9.92854E-20-1.06420E-18
 -1      2952 9.52348E-05-2.85707E-05-2.85703E-05-3.63913E-08 7.23581E-19-1.84279E-19
 -1      2953 9.52379E-05-2.85761E-05-2.85693E-05-3.65580E-08 2.36575E-20-1.50662E-18
 -1      2954 9.52572E-05-2.85938E-05-2.85700E-05-2.38253E-09 1.72871E-18-7.42193E-20
 -1      2955 9.52569E-05-2.85935E-05-2.85700E-05-6.93256E-09 1.75912E-18-2.17025E-19
 -1      2956 9.52348E-05-2.85776E-05-2.85674E-05 3.45895E-08-1.95486E-18 1.32624E-18
 -1      2957 9.52361E-05-2.85794E-05-2.85672E-05 3.29090E-08-1.92961E-18 1.69748E-18
 -1      2958 9.52397E-05-2.85825E-05-2.85674E-05 3.32504E-08-1.15842E-18 2.49816E-18
 -1      2959 9.52386E-05-2.85783E-05-2.85687E-05 3.56654E-08-1.36254E-18 1.34249E-18
 -1      2960 9.52543E-05-2.85920E-05-2.85695E-05-2.01511E-08 1.55991E-18-3.99171E-19
 -1      2961 9.52526E-05-2.85905E-05-2.85695E-05-2.37655E-08 2.25836E-18-2.01107E-18
 -1      2962 9.52569E-05-2.85935E-05-2.85700E-05 6.98803E-09 2.20478E-18 8.05172E-20
 -1      2963 9.52572E-05-2.85938E-05-2.85700E-05 2.43403E-09 1.88437E-18-1.00053E-19
 -1      2964 9.52583E-05-2.85879E-05-2.85730E-05 1.83701E-11 1.94387E-18-5.01253E-19
 -1      2965 9.52564E-05-2.85933E-05-2.85698E-05-1.16216E-08 6.30433E-19-3.78651E-19
 -1      2966 9.52554E-05-2.85925E-05-2.85698E-05-1.58728E-08 1.39672E-18 1.18174E-18
 -1      2967 9.52558E-05-2.85870E-05-2.85723E-05-1.85982E-08 1.26062E-18-6.96363E-19
 -1      2968 9.52577E-05-2.85877E-05-2.85728E-05-9.55093E-09 2.18014E-18 3.38115E-19
 -1      2969 1.34955E-04-5.56874E-05-3.43561E-05 4.85293E-06 4.17627E-20-3.44472E-18
 -1      2970 1.28771E-04-5.90555E-05-2.96525E-05 1.62837E-05-1.20872E-18-2.38980E-18
 -1      2971 9.52555E-05-2.85925E-05-2.85698E-05 1.57984E-08 1.89305E-18 1.05932E-18
 -1      2972 9.52564E-05-2.85934E-05-2.85698E-05 1.16078E-08 1.78085E-18 1.11206E-18
 -1      2973 9.52577E-05-2.85878E-05-2.85728E-05 9.51848E-09 2.38460E-18 7.63923E-19
 -1      2974 9.52527E-05-2.85906E-05-2.85695E-05 2.37289E-08 1.27950E-18 3.99898E-19
 -1      2975 9.52544E-05-2.85921E-05-2.85695E-05 2.01007E-08 1.56463E-18 9.12721E-19
 -1      2976 9.52559E-05-2.85871E-05-2.85723E-05 1.85227E-08 1.50837E-18-6.25000E-20
 -1      2977 9.52481E-05-2.85875E-05-2.85689E-05 2.97891E-08 1.07978E-20 1.17813E-18
 -1      2978 9.52507E-05-2.85896E-05-2.85690E-05 2.72525E-08 1.05836E-18 2.73464E-19
 -1      2979 9.52524E-05-2.85857E-05-2.85714E-05 2.64754E-08 1.32129E-18 1.34556E-19
 -1      2980 9.52426E-05-2.85840E-05-2.85680E-05 3.25501E-08-5.45215E-19 2.73195E-18
 -1      2981 9.52460E-05-2.85867E-05-2.85682E-05 3.15392E-08-2.05294E-19 1.75917E-18
 -1      2982 9.52476E-05-2.85840E-05-2.85701E-05 3.18285E-08 1.05724E-19 1.13491E-18
 -1      2983 9.52422E-05-2.85819E-05-2.85687E-05 3.41309E-08-1.07627E-18 2.17538E-18
 -1      2984 1.36340E-04-3.43836E-05-4.43939E-05-1.22134E-05-3.25970E-18 2.11271E-18
 -1      2985 1.38792E-04-4.18936E-05-4.16502E-05-1.00711E-05-2.66117E-18 2.02208E-18
 -1      2986 1.39781E-04-5.15753E-05-3.84163E-05-1.53146E-06-1.68605E-18 1.58755E-18
 -1      2987 1.35546E-04-5.79567E-05-3.29978E-05 8.70516E-06-2.58385E-19 1.06366E-18
 -1      2988 1.35313E-04-4.75987E-05-3.77435E-05-7.21245E-06-1.58477E-18 1.82954E-18
 -1      2989 5.27255E-05-2.65205E-05-1.09419E-05 3.31870E-05-1.61730E-18 3.73573E-18
 -1      2990 3.86798E-05-1.78267E-05-8.37314E-06 2.16196E-05-4.58880E-19 3.57151E-18
 -1      2991 8.70376E-05-4.61323E-05-1.73877E-05 3.92549E-05-2.60420E-18 3.00040E-18
 -1      2992 7.15834E-05-3.73444E-05-1.42242E-05 3.77188E-05-2.92777E-18 4.05528E-18
 -1      2993 9.59602E-05-2.04920E-05-3.23741E-05-3.34977E-06-1.96526E-18-1.07512E-18
 -1      2994 9.67410E-05-2.23008E-05-3.19124E-05-1.19232E-06-1.81227E-18-9.70141E-19
 -1      2995 6.12388E-05-3.33864E-05-1.16979E-05 3.83237E-05 1.74912E-18-4.30780E-18
 -1      2996 4.64053E-05-2.47445E-05-8.77127E-06 3.07098E-05 1.67501E-18-4.82470E-18
 -1      2997 5.38759E-05-2.67400E-05-1.10567E-05-3.27465E-05-1.98417E-18-3.62551E-18
 -1      2998 6.92439E-05-3.62940E-05-1.39834E-05-3.91165E-05-2.29673E-18-2.81406E-18
 -1      2999 1.36674E-04-3.46409E-05-4.40467E-05 1.10784E-05 3.07854E-18 1.13068E-18
 -1      3000 1.33836E-04-2.61255E-05-4.69387E-05 1.14359E-05 3.82266E-18 8.10293E-19
 -1      3001 1.00351E-04-2.88623E-05-3.06391E-05-5.88778E-06 7.33958E-19-3.30472E-19
 -1      3002 9.98111E-05-2.81480E-05-3.06786E-05-5.10749E-06 8.78787E-19-3.94815E-19
 -1      3003 9.95226E-05-2.85592E-05-3.04379E-05-6.73875E-06 6.05166E-19-4.52060E-19
 -1      3004 1.06412E-04-3.49930E-05-3.06440E-05-5.56058E-06-9.08344E-20 1.95272E-19
 -1      3005 1.05178E-04-3.37443E-05-3.05714E-05-6.46841E-06-8.94976E-20 3.02310E-20
 -1      3006 1.03473E-04-3.31804E-05-3.01669E-05-7.80169E-06-1.89921E-20 9.54066E-20
 -1      3007 1.06767E-04-3.63722E-05-3.02175E-05-6.41227E-06-2.46833E-19 3.13291E-19
 -1      3008 9.73381E-05-2.36620E-05-3.15590E-05 4.86185E-07-1.52500E-18-9.39538E-19
 -1      3009 9.75859E-05-2.46749E-05-3.12529E-05 2.40699E-06-1.30651E-18-9.49050E-19
 -1      3010 9.62411E-05-2.36591E-05-3.11103E-05 3.23045E-06-1.30944E-18-1.17885E-18
 -1      3011 9.53602E-05-2.13030E-05-3.17355E-05 3.35076E-08-1.64653E-18-1.24917E-18
 -1      3012 1.25345E-04-6.03724E-05-2.83635E-05 2.24791E-05 8.89173E-19-6.23628E-20
 -1      3013 1.12074E-04-5.66066E-05-2.32358E-05 3.09290E-05 1.58575E-18-1.09415E-18
 -1      3014 1.17255E-04-5.81555E-05-2.56253E-05 2.74848E-05-1.92181E-18-2.32563E-19
 -1      3015 1.02180E-04-5.29513E-05-2.07459E-05 3.44139E-05-2.54364E-18 1.28225E-18
 -1      3016 9.86699E-05-4.90535E-05-2.08996E-05 3.29159E-05-2.68711E-18 1.55298E-18
 -1      3017 1.36384E-04-3.67161E-05-4.32528E-05-1.14332E-05 2.03637E-18-2.62834E-18
 -1      3018 1.35876E-04-4.58040E-05-3.88411E-05-6.55472E-06 1.17161E-18-2.72289E-18
 -1      3019 1.31229E-04-1.86044E-05-4.89836E-05-1.11515E-05 4.02870E-18-1.77146E-18
 -1      3020 1.33719E-04-2.72585E-05-4.60383E-05-1.32604E-05 3.23821E-18-2.40388E-18
 -1      3021 1.29565E-04-3.19936E-05-4.20176E-05-1.45108E-05 2.07110E-18-2.60235E-18
 -1      3022 8.73330E-05-1.27175E-05-3.19919E-05 9.38694E-07 1.15445E-18-2.30865E-18
 -1      3023 8.60517E-05-1.17074E-05-3.18925E-05 4.81036E-07 8.11565E-19-2.43371E-18
 -1      3024 8.61439E-05-1.26196E-05-3.14907E-05-3.19234E-07 6.66507E-19-2.35894E-18
 -1      3025 8.88600E-05-1.49286E-05-3.16654E-05 4.24633E-08 1.13795E-18-2.04245E-18
 -1      3026 8.56040E-05-1.12842E-05-3.18814E-05-6.32411E-07-8.39774E-19-2.46418E-18
 -1      3027 8.68502E-05-1.22545E-05-3.19837E-05-1.01214E-06-1.11115E-18-2.38813E-18
 -1      3028 1.30911E-04-1.75748E-05-4.90654E-05 1.03980E-05 4.23453E-18 4.44692E-20
 -1      3029 1.27665E-04-1.16128E-05-5.04760E-05 5.07565E-06 4.56890E-18-6.18069E-19
 -1      3030 1.26571E-04-2.20995E-05-4.48944E-05 1.27877E-05 3.50132E-18 5.21984E-20
 -1      3031 1.21279E-04-5.84858E-05-2.64715E-05-2.40232E-05-1.40046E-18 1.18796E-19
 -1      3032 1.31455E-04-5.94326E-05-3.15173E-05-1.43919E-05 5.97158E-20 9.44389E-19
 -1      3033 9.24206E-05-1.57680E-05-3.28631E-05-4.40457E-06-1.88853E-18-1.68720E-18
 -1      3034 3.22855E-05-1.28789E-05-7.85308E-06 8.31046E-06 1.34043E-19 4.21611E-18
 -1      3035 3.24853E-05-1.29227E-05-7.84696E-06-7.40019E-06 4.31563E-19 3.67782E-18
 -1      3036 9.26374E-05-4.96368E-05-1.85847E-05 3.91096E-05 1.93558E-18-1.94849E-18
 -1      3037 7.66322E-05-4.17230E-05-1.43912E-05 3.96342E-05 1.97899E-18-3.05864E-18
 -1      3038 7.27020E-05-3.60043E-05-1.51531E-05 3.61757E-05 2.08900E-18-3.26997E-18
 -1      3039 1.37442E-04-5.31303E-05-3.60077E-05-1.40368E-06 1.17542E-18 1.16806E-18
 -1      3040 1.39454E-04-4.53328E-05-4.09569E-05 5.79075E-06 2.16226E-18 8.31892E-19
 -1      3041 1.33871E-04-4.04556E-05-4.02225E-05 1.03627E-05 2.04169E-18 9.31842E-19
 -1      3042 8.73563E-05-4.52354E-05-1.74547E-05-3.82116E-05-2.66604E-18-2.05993E-18
 -1      3043 1.04302E-04-5.37367E-05-2.20033E-05-3.47238E-05-2.25226E-18-9.45712E-19
 -1      3044 3.58610E-05-1.80687E-05-7.12662E-06 2.16168E-05 6.70427E-19-5.06017E-18
 -1      3045 3.05959E-05-1.41017E-05-6.56028E-06 8.87370E-06 1.99370E-19-4.52612E-18
 -1      3046 1.25554E-04-1.10735E-05-4.97186E-05 1.57846E-06-4.03315E-18-8.32061E-19
 -1      3047 1.26987E-04-1.22216E-05-4.97602E-05-5.02836E-06-4.13183E-18 8.98914E-20
 -1      3048 1.29878E-04-1.71342E-05-4.90059E-05-9.88927E-06-4.51342E-18 9.39677E-19
 -1      3049 1.33320E-04-2.45176E-05-4.70490E-05-1.26164E-05-4.04162E-18 1.53006E-18
 -1      3050 1.29725E-04-3.02275E-05-4.30029E-05-1.38778E-05-3.02719E-18 1.78602E-18
 -1      3051 1.23205E-04-1.63723E-05-4.61544E-05-7.90274E-06-3.73510E-18 6.78712E-19
 -1      3052 9.94322E-05-2.74591E-05-3.08441E-05-3.97178E-06 1.00479E-18-5.31732E-19
 -1      3053 9.91344E-05-2.67346E-05-3.09885E-05-2.68782E-06 1.12365E-18-5.12679E-19
 -1      3054 9.78000E-05-2.49728E-05-3.12183E-05-1.89426E-06 1.36065E-18-8.26047E-19
 -1      3055 9.85114E-05-2.68224E-05-3.07403E-05-4.75320E-06 9.55586E-19-7.15953E-19
 -1      3056 1.27890E-04-9.28200E-06-5.14730E-05-1.14158E-06 4.85816E-18-9.37096E-19
 -1      3057 1.30059E-04-1.18637E-05-5.12255E-05-6.98811E-06 4.56191E-18-1.29559E-18
 -1      3058 1.39480E-04-3.97186E-05-4.29541E-05 1.13872E-05-2.25417E-18-3.67369E-18
 -1      3059 1.36698E-04-3.19263E-05-4.56077E-05 1.32005E-05-3.02295E-18-3.43048E-18
 -1      3060 1.24659E-04-5.93457E-05-2.78496E-05-2.01867E-05 1.08971E-18-7.95840E-19
 -1      3061 1.32530E-04-5.97074E-05-3.15390E-05-1.36333E-05 3.69836E-19-1.30448E-18
 -1      3062 9.73144E-05-2.21671E-05-3.22095E-05 3.36754E-06 1.95121E-18-7.19985E-19
 -1      3063 9.54158E-05-4.89420E-05-1.96574E-05-3.45406E-05 1.71598E-18 1.45129E-18
 -1      3064 1.13219E-04-5.68646E-05-2.41923E-05-2.92679E-05 1.32624E-18 1.70935E-19
 -1      3065 8.83512E-05-1.35677E-05-3.20819E-05-1.22058E-06-1.20256E-18-2.30406E-18
 -1      3066 8.99719E-05-1.48785E-05-3.21915E-05-1.70065E-06-1.45916E-18-2.10184E-18
 -1      3067 8.82948E-05-1.43679E-05-3.16597E-05-1.01714E-07-1.09553E-18-2.15937E-18
 -1      3068 8.35861E-05-1.04904E-05-3.13035E-05-2.34930E-07 1.19186E-21-2.52074E-18
 -1      3069 8.30642E-05-9.23996E-06-3.16581E-05-1.53349E-07-8.79770E-20-2.66876E-18
 -1      3070 8.32813E-05-9.39594E-06-3.16816E-05-3.55492E-07-3.67399E-19-2.64619E-18
 -1      3071 1.36616E-04-4.49303E-05-3.94037E-05 9.85514E-06-1.36057E-18-3.89900E-18
 -1      3072 1.34371E-04-5.65478E-05-3.32867E-05-4.31746E-06-5.41506E-20-2.53930E-18
 -1      3073 9.52523E-05-2.85856E-05-2.85714E-05-2.64292E-08 1.67901E-18-1.75636E-18
 -1      3074 9.52508E-05-2.85896E-05-2.85690E-05-2.72209E-08 2.74168E-18-2.10046E-18
 -1      3075 9.52481E-05-2.85874E-05-2.85689E-05-2.98633E-08 1.79855E-18-2.05487E-18
 -1      3076 3.69547E-05-1.70943E-05-7.97962E-06-1.94284E-05 1.18780E-18 2.87144E-18
 -1      3077 4.71355E-05-2.33616E-05-9.77643E-06-2.94923E-05 1.10030E-18 2.15909E-18
 -1      3078 1.14650E-04-1.67966E-05-4.23393E-05-1.82448E-06-3.04604E-18-7.50213E-19
 -1      3079 1.18429E-04-1.39806E-05-4.51735E-05 2.06198E-06-3.27685E-18-2.14604E-19
 -1      3080 1.15627E-04-2.21694E-05-4.04428E-05-1.03554E-05-2.75603E-18 2.12949E-20
 -1      3081 1.13818E-04-1.83817E-05-4.10715E-05-5.16254E-06-3.15372E-18-7.92657E-19
 -1      3082 1.22469E-04-5.74562E-05-2.76854E-05 1.89319E-05-1.83293E-18-1.85566E-18
 -1      3083 4.31560E-05-1.53928E-05-1.12988E-05 1.38766E-05-5.27172E-19 3.51932E-18
 -1      3084 9.52433E-05-2.85842E-05-2.85681E-05-3.27730E-08-9.34682E-19-2.29782E-18
 -1      3085 9.60328E-05-2.11616E-05-3.21018E-05 2.28801E-06 1.86551E-18-1.08250E-18
 -1      3086 9.57644E-05-2.17935E-05-3.16941E-05 3.90085E-07 1.61577E-18-1.16172E-18
 -1      3087 1.24242E-04-1.33282E-05-4.81045E-05 5.59066E-06-4.03272E-18-1.08616E-18
 -1      3088 1.29565E-04-5.81010E-05-3.05420E-05 1.23599E-05 6.05417E-19 5.42048E-19
 -1      3089 4.84140E-05-2.11242E-05-1.10692E-05 2.51834E-05 1.19659E-18-4.36042E-18
 -1      3090 1.03656E-04-5.18440E-05-2.19404E-05 3.23908E-05 1.99053E-18-1.25639E-18
 -1      3091 1.13720E-04-5.47240E-05-2.49588E-05-2.61918E-05-1.81916E-18-4.19361E-19
 -1      3092 4.96284E-05-2.20351E-05-1.12436E-05-2.77635E-05-1.57109E-18-3.65103E-18
 -1      3093 6.06963E-05-2.55925E-05-1.46775E-05-2.93664E-05-2.02976E-18-2.90596E-18
 -1      3094 4.68457E-05-1.75639E-05-1.20995E-05-2.08524E-05-1.20670E-18-3.47961E-18
 -1      3095 8.20356E-05-3.98452E-05-1.76774E-05-3.57812E-05-2.50976E-18-2.13145E-18
 -1      3096 1.33054E-04-5.52478E-05-3.32905E-05-4.51949E-06 1.02729E-19 9.86317E-19
 -1      3097 1.32377E-04-2.26936E-05-4.74294E-05 1.34902E-05-3.70619E-18-2.64941E-18
 -1      3098 1.27333E-04-1.48001E-05-4.89039E-05 9.28751E-06-4.18095E-18-1.94013E-18
 -1      3099 4.15347E-05-1.47062E-05-1.09306E-05-1.18915E-05 5.86041E-19 3.14270E-18
 -1      3100 1.24855E-04-1.68927E-05-4.66411E-05-1.05141E-05 3.84087E-18-1.71784E-18
 -1      3101 1.30381E-04-4.50654E-05-3.70315E-05-9.95714E-06 1.64007E-19-2.17539E-18
 -1      3102 1.35280E-04-5.15194E-05-3.60598E-05-3.45901E-06 2.44839E-19-2.65725E-18
 -1      3103 1.30348E-04-5.33196E-05-3.30327E-05 1.26472E-06-5.63932E-19-2.78692E-18
 -1      3104 9.25252E-05-1.69978E-05-3.23672E-05-2.59035E-06-1.66144E-18-1.74094E-18
 -1      3105 8.37933E-05-9.82143E-06-3.17273E-05-3.10234E-07-4.96673E-19-2.55500E-18
 -1      3106 8.45510E-05-1.03868E-05-3.17981E-05-5.72124E-07-6.99788E-19-2.51553E-18
 -1      3107 8.56652E-05-1.21661E-05-3.14773E-05 6.17410E-08-7.27057E-19-2.30149E-18
 -1      3108 8.40454E-05-1.08488E-05-3.13471E-05-2.44650E-08-4.21919E-19-2.47578E-18
 -1      3109 3.40909E-05-1.29011E-05-8.39698E-06 2.69273E-07-1.90443E-19-4.18921E-18
 -1      3110 3.99181E-05-1.30670E-05-1.11228E-05-7.83135E-06-8.24507E-19-3.80890E-18
 -1      3111 4.06298E-05-1.30514E-05-1.13288E-05 6.54708E-06 1.83055E-20-4.11785E-18
 -1      3112 1.22728E-04-1.19395E-05-4.78036E-05 2.46918E-06 4.42585E-18-1.43281E-18
 -1      3113 1.19279E-04-5.68445E-05-2.65575E-05-2.11152E-05 1.04587E-18-5.51908E-19
 -1      3114 1.29342E-04-2.80010E-05-4.37249E-05 1.46387E-05-3.00654E-18-2.44507E-18
 -1      3115 8.29077E-05-4.12984E-05-1.74902E-05-3.60853E-05 1.72022E-18 2.27847E-18
 -1      3116 9.58150E-05-4.55443E-05-2.12359E-05-3.04797E-05 1.70624E-18 1.09093E-18
 -1      3117 5.77014E-05-2.83239E-05-1.19221E-05-3.30458E-05 1.15440E-18 1.79613E-18
 -1      3118 7.22136E-05-3.61907E-05-1.51447E-05-3.58978E-05 1.62630E-18 2.12817E-18
 -1      3119 7.38702E-05-3.32178E-05-1.72257E-05-3.22246E-05 1.05540E-18 1.78803E-18
 -1      3120 5.59912E-05-2.40627E-05-1.32686E-05-2.83246E-05 1.11946E-18 1.75188E-18
 -1      3121 1.21848E-04-2.49646E-05-4.18005E-05-1.28613E-05-3.02142E-18 4.23569E-19
 -1      3122 9.36079E-05-2.01475E-05-3.14937E-05-6.56754E-07 1.42967E-18-1.39679E-18
 -1      3123 9.18095E-05-1.84824E-05-3.14388E-05-8.95744E-07 1.24503E-18-1.67977E-18
 -1      3124 1.18226E-04-1.45230E-05-4.50176E-05-7.47035E-06 3.70693E-18-1.87433E-18
 -1      3125 1.20080E-04-1.97157E-05-4.32683E-05-1.22513E-05 3.28977E-18-2.37572E-18
 -1      3126 1.30385E-04-5.60731E-05-3.23526E-05 5.05055E-06 4.08548E-19 1.38823E-18
 -1      3127 1.24287E-04-5.67874E-05-2.84096E-05 1.56244E-05 1.42448E-18 3.96703E-19
 -1      3128 9.56143E-05-2.54773E-05-3.00435E-05 8.08004E-06-7.59763E-19-9.96706E-19
 -1      3129 9.61768E-05-2.65198E-05-2.98426E-05 9.14316E-06-4.45280E-19-1.16628E-18
 -1      3130 9.66427E-05-2.76261E-05-2.95552E-05 1.02921E-05-3.65180E-19-1.17544E-18
 -1      3131 9.76469E-05-2.90428E-05-2.93831E-05 1.10152E-05-4.52505E-19-1.31575E-18
 -1      3132 9.42857E-05-2.58632E-05-2.93466E-05 1.00451E-05-5.71274E-19-1.39695E-18
 -1      3133 9.86666E-05-3.06449E-05-2.91102E-05 1.19613E-05-2.37142E-19-1.13930E-18
 -1      3134 1.00358E-04-3.26767E-05-2.89828E-05 1.22378E-05 8.30886E-20-1.10786E-18
 -1      3135 9.56762E-05-2.87546E-05-2.87263E-05 1.23282E-05-2.59954E-19-1.35226E-18
 -1      3136 1.02338E-04-3.50260E-05-2.87710E-05 1.28107E-05 5.28664E-19-8.09263E-19
 -1      3137 1.04947E-04-3.77813E-05-2.87597E-05 1.23852E-05 7.85904E-19-6.06685E-19
 -1      3138 9.85316E-05-3.30056E-05-2.81633E-05 1.42054E-05 4.56567E-19-1.05624E-18
 -1      3139 1.08358E-04-4.10169E-05-2.87443E-05 1.21900E-05 1.03157E-18-3.20336E-19
 -1      3140 1.11985E-04-4.41136E-05-2.90352E-05 1.04943E-05 1.03225E-18 3.17472E-21
 -1      3141 1.03677E-04-3.90162E-05-2.78355E-05 1.51821E-05 1.27050E-18-7.98699E-19
 -1      3142 1.25087E-04-5.16919E-05-3.11801E-05 2.95284E-06 6.77812E-19 9.41808E-19
 -1      3143 1.27586E-04-5.09681E-05-3.28985E-05-1.41602E-06 1.69959E-19 1.17507E-18
 -1      3144 1.24047E-04-5.58112E-05-2.93912E-05 1.21151E-05-1.20567E-18-2.95253E-18
 -1      3145 1.15873E-04-5.44005E-05-2.60900E-05 2.11994E-05-2.04596E-18-1.52867E-18
 -1      3146 1.23201E-04-5.03561E-05-3.13033E-05-1.02919E-06 6.54125E-19-2.72600E-18
 -1      3147 1.19823E-04-4.90918E-05-3.01927E-05-4.75329E-06 1.18508E-18-2.26379E-18
 -1      3148 1.14639E-04-4.60569E-05-2.94008E-05-7.58456E-06 1.06590E-18-1.85666E-18
 -1      3149 1.11040E-04-4.31381E-05-2.89668E-05-9.74246E-06 7.40554E-19-2.07427E-18
 -1      3150 1.15566E-04-4.87141E-05-2.86611E-05-1.05634E-05 1.34724E-18-2.23952E-18
 -1      3151 1.07093E-04-3.98476E-05-2.88051E-05-1.05993E-05 7.89524E-19-1.52845E-18
 -1      3152 1.04205E-04-3.70247E-05-2.87025E-05-1.14958E-05 9.34759E-19-1.69160E-18
 -1      3153 1.06202E-04-4.15082E-05-2.78468E-05-1.35554E-05 9.52495E-19-1.39391E-18
 -1      3154 1.01749E-04-3.45225E-05-2.87895E-05-1.13383E-05 1.35601E-18-1.64505E-18
 -1      3155 9.97531E-05-3.24117E-05-2.88149E-05-1.14773E-05 1.79617E-18-1.07427E-18
 -1      3156 9.99663E-05-3.51438E-05-2.78690E-05-1.35488E-05 1.25660E-18-1.35675E-18
 -1      3157 9.84084E-05-3.07708E-05-2.89655E-05-1.08950E-05 1.26661E-18-6.31498E-19
 -1      3158 9.71495E-05-2.94000E-05-2.90159E-05-1.06230E-05 8.97225E-19-1.07447E-18
 -1      3159 9.63184E-05-3.06770E-05-2.81830E-05-1.23969E-05 1.42216E-18-7.13733E-19
 -1      3160 9.65155E-05-2.84525E-05-2.91517E-05-9.90980E-06 6.77720E-19-1.43870E-18
 -1      3161 9.57658E-05-2.76567E-05-2.91844E-05-9.43165E-06 8.67497E-19-1.69651E-18
 -1      3162 9.44542E-05-2.79507E-05-2.85270E-05-1.08957E-05 6.11035E-19-1.04182E-18
 -1      3163 9.55444E-05-2.71921E-05-2.92797E-05-8.70809E-06 5.29716E-19-1.66300E-18
 -1      3164 9.51125E-05-2.67895E-05-2.92833E-05-8.14334E-06 4.05490E-19-2.19008E-18
 -1      3165 9.36698E-05-2.64887E-05-2.88020E-05-9.36778E-06 5.20155E-19-6.99347E-19
 -1      3166 9.51087E-05-2.66306E-05-2.93365E-05-7.45853E-06 8.38231E-19-2.38364E-18
 -1      3167 9.48619E-05-2.64747E-05-2.93142E-05-6.87747E-06 8.36590E-19-2.30095E-18
 -1      3168 9.34849E-05-2.58592E-05-2.89845E-05-7.92676E-06 2.18903E-19-2.38169E-18
 -1      3169 9.49587E-05-2.64937E-05-2.93328E-05-6.25215E-06 4.08251E-19-2.18570E-18
 -1      3170 9.48147E-05-2.64814E-05-2.92924E-05-5.69660E-06 3.07908E-19-2.87969E-18
 -1      3171 9.35991E-05-2.57358E-05-2.90827E-05-6.61044E-06 7.21393E-19-2.18697E-18
 -1      3172 9.49466E-05-2.65934E-05-2.92862E-05-5.14006E-06-1.94177E-19-4.08316E-18
 -1      3173 9.48583E-05-2.66574E-05-2.92357E-05-4.63391E-06-3.93789E-19-4.28485E-18
 -1      3174 9.38386E-05-2.58957E-05-2.91156E-05-5.43230E-06-8.02143E-19-3.55848E-18
 -1      3175 9.49913E-05-2.68094E-05-2.92137E-05-4.14952E-06 2.60969E-19-4.12664E-18
 -1      3176 9.49330E-05-2.69079E-05-2.91598E-05-3.70463E-06 6.62927E-19-3.75111E-18
 -1      3177 9.41089E-05-2.61951E-05-2.91030E-05-4.39716E-06 3.18479E-19-3.93983E-18
 -1      3178 9.50515E-05-2.70688E-05-2.91292E-05-3.29171E-06 5.25054E-19-4.35829E-18
 -1      3179 9.50097E-05-2.71773E-05-2.90764E-05-2.91175E-06 1.87571E-19-3.47411E-18
 -1      3180 9.43633E-05-2.65457E-05-2.90622E-05-3.50453E-06 6.63732E-19-4.32768E-18
 -1      3181 9.51082E-05-2.73298E-05-2.90425E-05-2.56653E-06 1.80606E-19-3.63578E-18
 -1      3182 9.50762E-05-2.74348E-05-2.89937E-05-2.24971E-06-4.59761E-19-2.90446E-18
 -1      3183 9.45821E-05-2.68962E-05-2.90063E-05-2.74909E-06 4.02794E-19-4.38694E-18
 -1      3184 9.51545E-05-2.75706E-05-2.89599E-05-1.96631E-06-1.05818E-18-2.36157E-18
 -1      3185 9.51291E-05-2.76654E-05-2.89167E-05-1.70764E-06-1.48583E-18-2.00633E-18
 -1      3186 9.47603E-05-2.72193E-05-2.89447E-05-2.12118E-06-2.03972E-19-3.32199E-18
 -1      3187 9.51892E-05-2.77815E-05-2.88851E-05-1.47905E-06-1.52134E-18-1.72979E-18
 -1      3188 9.51688E-05-2.78635E-05-2.88481E-05-1.27189E-06-9.16622E-19-1.99421E-18
 -1      3189 9.49000E-05-2.75026E-05-2.88837E-05-1.60841E-06-1.34084E-18-3.64628E-18
 -1      3190 9.52138E-05-2.79599E-05-2.88199E-05-1.09067E-06-1.01478E-18-2.36031E-18
 -1      3191 9.51974E-05-2.80285E-05-2.87890E-05-9.27754E-07-8.40660E-19-2.34721E-18
 -1      3192 9.50064E-05-2.77425E-05-2.88268E-05-1.19687E-06-1.24482E-18-2.84231E-18
 -1      3193 9.52302E-05-2.81066E-05-2.87646E-05-7.86547E-07-7.12217E-19-2.20678E-18
 -1      3194 9.52172E-05-2.81627E-05-2.87394E-05-6.60674E-07-7.40332E-19-2.01586E-18
 -1      3195 9.50854E-05-2.79403E-05-2.87762E-05-8.72190E-07-1.02709E-18-2.63018E-18
 -1      3196 9.52405E-05-2.82246E-05-2.87190E-05-5.52510E-07-9.11438E-19-1.80609E-18
 -1      3197 9.52303E-05-2.82695E-05-2.86988E-05-4.56954E-07-1.14266E-18-1.60186E-18
 -1      3198 9.51426E-05-2.80998E-05-2.87325E-05-6.20396E-07-5.28561E-19-2.67044E-18
 -1      3199 9.52463E-05-2.83177E-05-2.86820E-05-3.75538E-07-1.21701E-18-9.71032E-19
 -1      3200 9.52385E-05-2.83529E-05-2.86662E-05-3.04310E-07-1.92952E-19-1.12644E-18
 -1      3201 9.51828E-05-2.82257E-05-2.86959E-05-4.28425E-07-1.08566E-18-1.70407E-18
 -1      3202 9.52491E-05-2.83897E-05-2.86527E-05-2.44164E-07 5.44134E-19-1.31920E-18
 -1      3203 9.52432E-05-2.84168E-05-2.86406E-05-1.92107E-07 8.87906E-19-1.80832E-18
 -1      3204 9.52103E-05-2.83234E-05-2.86659E-05-2.84651E-07-7.62290E-20-5.25174E-19
 -1      3205 9.52498E-05-2.84445E-05-2.86299E-05-1.48584E-07 1.59609E-18-1.87677E-18
 -1      3206 9.52455E-05-2.84650E-05-2.86207E-05-1.11371E-07 1.71317E-18-1.21688E-18
 -1      3207 9.52282E-05-2.83977E-05-2.86418E-05-1.79028E-07 9.57210E-19 2.44618E-19
 -1      3208 9.52493E-05-2.84854E-05-2.86124E-05-8.06159E-08 1.53474E-18-6.75925E-19
 -1      3209 9.52462E-05-2.85007E-05-2.86056E-05-5.47025E-08 1.17136E-18-2.06490E-19
 -1      3210 9.52393E-05-2.84534E-05-2.86227E-05-1.03084E-07 2.09521E-18 8.39801E-19
 -1      3211 9.52481E-05-2.85154E-05-2.85992E-05-3.35876E-08 9.57352E-19 8.34967E-19
 -1      3212 9.52460E-05-2.85266E-05-2.85942E-05-1.61400E-08 8.01029E-19 1.29404E-18
 -1      3213 9.52456E-05-2.84942E-05-2.86078E-05-4.98358E-08 1.32496E-18 1.94908E-18
 -1      3214 9.52466E-05-2.85371E-05-2.85894E-05-2.19442E-09-1.85464E-19 5.82103E-19
 -1      3215 9.52452E-05-2.85453E-05-2.85858E-05 8.99173E-09 1.99277E-19 6.81467E-19
 -1      3216 9.52484E-05-2.85237E-05-2.85964E-05-1.36609E-08-1.60032E-19 1.73690E-18
 -1      3217 9.52450E-05-2.85526E-05-2.85822E-05 1.76527E-08 7.61414E-19 4.89761E-19
 -1      3218 9.52442E-05-2.85586E-05-2.85796E-05 2.42418E-08 6.72058E-19 7.77470E-19
 -1      3219 9.52491E-05-2.85446E-05-2.85877E-05 9.81385E-09 5.82384E-19 4.86632E-19
 -1      3220 9.52436E-05-2.85638E-05-2.85769E-05 2.90845E-08-1.54743E-21-9.50695E-19
 -1      3221 9.52433E-05-2.85684E-05-2.85750E-05 3.23103E-08-5.74597E-19-1.54502E-18
 -1      3222 9.52485E-05-2.85595E-05-2.85811E-05 2.39600E-08-2.60490E-19-1.78601E-18
 -1      3223 9.52426E-05-2.85723E-05-2.85729E-05 3.42570E-08 8.95735E-20-8.42680E-19
 -1      3224 9.52428E-05-2.85761E-05-2.85715E-05 3.49839E-08-1.64583E-19 2.36029E-19
 -1      3225 9.52475E-05-2.85706E-05-2.85759E-05 3.13436E-08 6.18831E-19-1.09975E-18
 -1      3226 1.00190E-04-3.04413E-05-2.98911E-05-8.72365E-06 1.36739E-19-6.00934E-19
 -1      3227 9.91998E-05-2.91672E-05-2.99815E-05-8.34958E-06 2.62267E-19-5.59227E-19
 -1      3228 1.16977E-04-4.46554E-05-3.10541E-05 2.94920E-07-1.83556E-19 9.37088E-19
 -1      3229 1.15109E-04-4.37134E-05-3.05070E-05-2.38327E-06-4.03969E-19 6.19484E-19
 -1      3230 1.11733E-04-4.17327E-05-3.00459E-05-4.92123E-06-5.23233E-19 3.45386E-19
 -1      3231 1.09522E-04-3.97689E-05-2.98086E-05-6.74978E-06-5.92806E-19 8.00380E-20
 -1      3232 1.13333E-04-4.43178E-05-2.96854E-05-6.52790E-06-6.69880E-19 2.56151E-19
 -1      3233 1.19679E-04-3.58497E-05-3.59925E-05 1.24735E-05 1.01636E-18 1.70859E-18
 -1      3234 1.21111E-04-4.04311E-05-3.47641E-05 1.12427E-05 5.06493E-19 1.64989E-18
 -1      3235 1.18708E-04-2.46284E-05-4.05854E-05 1.18024E-05 2.41399E-18 9.90870E-19
 -1      3236 1.21518E-04-3.10843E-05-3.90880E-05 1.38973E-05 2.03211E-18 1.24839E-18
 -1      3237 1.13990E-04-1.56237E-05-4.25473E-05 3.23346E-06 3.44022E-18-5.61034E-19
 -1      3238 1.15501E-04-1.87870E-05-4.20391E-05 8.58911E-06 2.76090E-18 2.96687E-19
 -1      3239 1.13134E-04-2.13415E-05-3.97220E-05-1.04353E-05 2.88785E-18-1.47091E-18
 -1      3240 1.11519E-04-1.77538E-05-4.02250E-05-5.37538E-06 3.01041E-18-8.95737E-19
 -1      3241 1.18874E-04-3.24868E-05-3.74127E-05-1.49202E-05 1.58453E-18-1.89732E-18
 -1      3242 1.16424E-04-2.63410E-05-3.86493E-05-1.35922E-05 2.02446E-18-1.76911E-18
 -1      3243 1.23578E-04-4.46234E-05-3.39393E-05-9.13965E-06-4.07793E-19-1.87156E-18
 -1      3244 1.23031E-04-4.04943E-05-3.54070E-05-1.16601E-05 6.05973E-19-1.95302E-18
 -1      3245 1.13707E-04-4.28967E-05-3.02655E-05 2.68408E-06-9.64992E-19-1.17440E-18
 -1      3246 1.15770E-04-4.41343E-05-3.07390E-05 1.30623E-08-8.71623E-19-1.46679E-18
 -1      3247 1.08175E-04-3.87210E-05-2.96882E-05 6.42498E-06-4.34994E-19-1.10078E-18
 -1      3248 1.10335E-04-4.06695E-05-2.98917E-05 4.76862E-06-6.42554E-19-7.47542E-19
 -1      3249 1.11319E-04-4.29140E-05-2.94040E-05 6.47571E-06-8.47759E-19-1.26501E-18
 -1      3250 1.03730E-04-3.47474E-05-2.95091E-05 8.18301E-06 3.07711E-22-2.53758E-19
 -1      3251 1.05558E-04-3.65695E-05-2.95824E-05 7.34677E-06-1.63317E-19-2.84659E-19
 -1      3252 1.05334E-04-3.79658E-05-2.89547E-05 9.02411E-06-5.70180E-19-5.33340E-19
 -1      3253 1.00579E-04-3.16779E-05-2.94962E-05 8.61255E-06-8.39177E-20 7.47396E-19
 -1      3254 1.01949E-04-3.30674E-05-2.95215E-05 8.35482E-06 7.23849E-20 2.90717E-19
 -1      3255 1.00988E-04-3.36799E-05-2.89051E-05 9.76234E-06-5.21364E-19 1.10229E-19
 -1      3256 9.85161E-05-2.96002E-05-2.95188E-05 8.26378E-06-7.61439E-19 1.71051E-18
 -1      3257 9.94792E-05-3.05384E-05-2.95404E-05 8.37469E-06-3.38936E-19 1.26919E-18
 -1      3258 9.81747E-05-3.05828E-05-2.90051E-05 9.46850E-06-6.18463E-19 8.41535E-19
 -1      3259 9.72328E-05-2.83379E-05-2.95200E-05 7.50239E-06 4.10219E-19 1.38725E-18
 -1      3260 9.78919E-05-2.89124E-05-2.95546E-05 7.82540E-06 1.53239E-19 1.64434E-18
 -1      3261 9.65047E-05-2.86007E-05-2.91228E-05 8.66078E-06-4.72869E-19 1.13941E-18
 -1      3262 9.64594E-05-2.76609E-05-2.94845E-05 6.55485E-06-8.26079E-19 1.28491E-18
 -1      3263 9.69099E-05-2.79763E-05-2.95342E-05 6.98233E-06-9.71414E-20 1.58238E-18
 -1      3264 9.55920E-05-2.74738E-05-2.92044E-05 7.63158E-06 1.11710E-19 2.46949E-18
 -1      3265 9.60011E-05-2.73685E-05-2.94166E-05 5.56002E-06-7.02200E-19 8.73523E-19
 -1      3266 9.63141E-05-2.75138E-05-2.94770E-05 6.02102E-06-1.06979E-18 1.23572E-18
 -1      3267 9.51435E-05-2.69358E-05-2.92369E-05 6.54065E-06-7.35566E-19 1.53993E-18
 -1      3268 9.57302E-05-2.73105E-05-2.93267E-05 4.60130E-06-3.01755E-20 1.32683E-18
 -1      3269 9.59533E-05-2.73515E-05-2.93923E-05 5.05131E-06 6.24255E-20 1.31679E-18
 -1      3270 9.49607E-05-2.67718E-05-2.92257E-05 5.47827E-06-5.22411E-19 2.02514E-18
 -1      3271 9.55681E-05-2.73836E-05-2.92263E-05 3.72604E-06-7.39396E-19 1.93237E-18
 -1      3272 9.57314E-05-2.73653E-05-2.92919E-05 4.13918E-06-1.17030E-19 1.70437E-18
 -1      3273 9.49191E-05-2.68273E-05-2.91827E-05 4.49557E-06-4.58321E-19 2.45249E-18
 -1      3274 9.54680E-05-2.75207E-05-2.91244E-05 2.95748E-06 6.97509E-19 1.26214E-18
 -1      3275 9.55904E-05-2.74724E-05-2.91862E-05 3.32082E-06 2.58525E-19 1.70769E-18
 -1      3276 9.49449E-05-2.69981E-05-2.91200E-05 3.61972E-06-2.54514E-19 2.68800E-18
 -1      3277 9.54034E-05-2.76808E-05-2.90277E-05 2.30276E-06 5.72711E-19 1.16786E-18
 -1      3278 9.54965E-05-2.76204E-05-2.90834E-05 2.61201E-06 8.32750E-19 1.08464E-18
 -1      3279 9.49968E-05-2.72178E-05-2.90480E-05 2.86178E-06 6.83879E-19 2.01175E-18
 -1      3280 9.53596E-05-2.78402E-05-2.89400E-05 1.75887E-06 1.34490E-19 1.34842E-18
 -1      3281 9.54308E-05-2.77782E-05-2.89885E-05 2.01516E-06 7.20448E-19 1.50098E-18
 -1      3282 9.50534E-05-2.74464E-05-2.89744E-05 2.22192E-06 6.09793E-19 1.89443E-18
 -1      3283 9.53284E-05-2.79865E-05-2.88634E-05 1.31694E-06-1.40093E-20 2.11230E-19
 -1      3284 9.53829E-05-2.79285E-05-2.89044E-05 1.52449E-06 8.23567E-21 1.02470E-18
 -1      3285 9.51048E-05-2.76618E-05-2.89042E-05 1.69347E-06 5.37179E-19 1.24911E-18
 -1      3286 9.53055E-05-2.81140E-05-2.87984E-05 9.65043E-07 6.00974E-19-7.96815E-19
 -1      3287 9.53469E-05-2.80627E-05-2.88322E-05 1.12966E-06-2.70200E-19-1.10506E-18
 -1      3288 9.51473E-05-2.78531E-05-2.88406E-05 1.26573E-06 1.92595E-19 4.85062E-19
 -1      3289 9.52881E-05-2.82211E-05-2.87446E-05 6.90175E-07 9.42270E-19-1.13021E-19
 -1      3290 9.53192E-05-2.81776E-05-2.87719E-05 8.18205E-07 1.09430E-18-3.99411E-19
 -1      3291 9.51803E-05-2.80162E-05-2.87849E-05 9.26076E-07 1.48070E-19-6.90405E-19
 -1      3292 9.52749E-05-2.83086E-05-2.87010E-05 4.79429E-07-2.67923E-19 6.50116E-19
 -1      3293 9.52979E-05-2.82727E-05-2.87226E-05 5.77132E-07 1.39473E-19-3.48408E-20
 -1      3294 9.52047E-05-2.81511E-05-2.87376E-05 6.61284E-07 1.66155E-19-6.10460E-19
 -1      3295 9.52647E-05-2.83783E-05-2.86665E-05 3.20844E-07-1.22398E-18 2.50110E-18
 -1      3296 9.52814E-05-2.83495E-05-2.86832E-05 3.93983E-07-2.90371E-19 1.66915E-18
 -1      3297 9.52218E-05-2.82596E-05-2.86984E-05 4.58539E-07-9.45304E-19 6.12096E-19
 -1      3298 9.52569E-05-2.84327E-05-2.86396E-05 2.03843E-07-1.90635E-18 3.21148E-18
 -1      3299 9.52688E-05-2.84100E-05-2.86523E-05 2.57490E-07-1.86798E-18 3.24871E-18
 -1      3300 9.52332E-05-2.83451E-05-2.86666E-05 3.06141E-07-2.01011E-18 2.97675E-18
 -1      3301 9.52511E-05-2.84743E-05-2.86190E-05 1.19372E-07-1.91509E-18 3.05257E-18
 -1      3302 9.52593E-05-2.84568E-05-2.86285E-05 1.57844E-07-1.92038E-18 3.39424E-18
 -1      3303 9.52404E-05-2.84111E-05-2.86414E-05 1.93817E-07-1.86269E-18 3.78845E-18
 -1      3304 9.52467E-05-2.85056E-05-2.86037E-05 5.98838E-08 8.25328E-19 1.10908E-18
 -1      3305 9.52522E-05-2.84923E-05-2.86106E-05 8.67583E-08-2.66065E-19 2.29513E-18
 -1      3306 9.52444E-05-2.84611E-05-2.86217E-05 1.12805E-07-7.24981E-19 2.07116E-18
 -1      3307 9.52436E-05-2.85286E-05-2.85923E-05 1.92510E-08 1.98028E-18-2.86737E-19
 -1      3308 9.52470E-05-2.85187E-05-2.85973E-05 3.74113E-08 1.55876E-18 7.84934E-19
 -1      3309 9.52463E-05-2.84981E-05-2.86066E-05 5.58207E-08 1.61782E-18 4.38787E-19
 -1      3310 9.52414E-05-2.85454E-05-2.85841E-05-7.36819E-09 1.83371E-18-4.31240E-19
 -1      3311 9.52433E-05-2.85380E-05-2.85876E-05 4.33900E-09 1.81518E-18-4.38421E-19
 -1      3312 9.52466E-05-2.85251E-05-2.85951E-05 1.69671E-08 2.03950E-18-2.99744E-19
 -1      3313 9.52400E-05-2.85575E-05-2.85783E-05-2.36887E-08 3.56829E-19 9.98389E-19
 -1      3314 9.52408E-05-2.85520E-05-2.85806E-05-1.67161E-08 1.32204E-18 3.80893E-19
 -1      3315 9.52461E-05-2.85445E-05-2.85866E-05-8.40385E-09 5.21920E-19 1.37910E-18
 -1      3316 9.52393E-05-2.85665E-05-2.85741E-05-3.24205E-08 5.90685E-19 1.26252E-18
 -1      3317 9.52394E-05-2.85624E-05-2.85757E-05-2.89791E-08 5.69923E-19 4.92946E-19
 -1      3318 9.52452E-05-2.85583E-05-2.85802E-05-2.38552E-08 1.22037E-19 1.71062E-18
 -1      3319 9.52419E-05-2.85796E-05-2.85695E-05 3.47989E-08-5.86231E-19 1.33560E-18
 -1      3320 8.47908E-05-1.24906E-05-3.09928E-05-9.03027E-07 3.76451E-19-2.51853E-18
 -1      3321 8.40900E-05-1.19454E-05-3.09414E-05-8.19305E-07 1.50844E-19-2.61868E-18
 -1      3322 9.52563E-05-2.85816E-05-2.85749E-05 2.02246E-08 1.51220E-18-1.86717E-19
 -1      3323 9.52577E-05-2.85821E-05-2.85753E-05 1.60348E-08 1.24485E-18 7.87750E-19
 -1      3324 9.52594E-05-2.85818E-05-2.85761E-05 2.34857E-09 2.27593E-18-2.07123E-19
 -1      3325 9.52594E-05-2.85818E-05-2.85761E-05-2.34589E-09 2.28074E-18 6.39845E-20
 -1      3326 9.29102E-05-4.16250E-05-2.18904E-05-2.81392E-05 1.78840E-18 7.24848E-19
 -1      3327 1.04626E-04-4.89807E-05-2.38227E-05-2.64279E-05 1.67170E-18 1.47172E-20
 -1      3328 9.52522E-05-2.85808E-05-2.85735E-05 2.78824E-08 1.33338E-18 1.30698E-18
 -1      3329 9.52547E-05-2.85818E-05-2.85741E-05 2.44277E-08 1.36899E-18 2.63107E-19
 -1      3330 9.52564E-05-2.85765E-05-2.85770E-05 2.18497E-08 1.42861E-18 2.02008E-19
 -1      3331 9.52585E-05-2.85818E-05-2.85758E-05 1.15005E-08 1.59494E-18 7.91340E-19
 -1      3332 9.52592E-05-2.85819E-05-2.85760E-05 7.00576E-09 2.05179E-18-3.54773E-19
 -1      3333 9.52603E-05-2.85754E-05-2.85792E-05 4.41158E-09 1.97466E-18-4.36148E-19
 -1      3334 9.52591E-05-2.85759E-05-2.85785E-05 1.33338E-08 9.72716E-19 2.09547E-19
 -1      3335 6.59019E-05-3.33505E-05-1.34317E-05 3.64285E-05-2.34596E-18 4.17926E-18
 -1      3336 6.13810E-05-2.74216E-05-1.41606E-05 3.13989E-05-1.66304E-18 3.53848E-18
 -1      3337 9.84712E-05-2.80606E-05-3.01758E-05-7.52508E-06 4.00283E-19-7.27314E-19
 -1      3338 9.78349E-05-2.70451E-05-3.03153E-05-6.68400E-06 5.82846E-19-8.81012E-19
 -1      3339 9.72786E-05-2.77613E-05-2.98212E-05-8.46373E-06 2.84920E-19-9.91957E-19
 -1      3340 7.84634E-05-3.76398E-05-1.71780E-05 3.48412E-05-2.78118E-18 2.92343E-18
 -1      3341 1.06401E-04-5.02206E-05-2.36319E-05-2.78422E-05-2.37241E-18-9.57035E-19
 -1      3342 1.19236E-04-5.55842E-05-2.73937E-05-1.91490E-05-1.65036E-18 2.18932E-19
 -1      3343 1.10596E-04-5.36729E-05-2.47768E-05 2.68834E-05 2.07512E-18-5.18384E-19
 -1      3344 9.57350E-05-4.59867E-05-2.08480E-05 3.25667E-05 2.40790E-18-1.53837E-18
 -1      3345 4.46427E-05-1.28269E-05-1.33152E-05-6.70026E-06-2.24199E-20 2.76959E-18
 -1      3346 4.88815E-05-1.65999E-05-1.34046E-05-1.79954E-05 9.23266E-19 2.01816E-18
 -1      3347 1.29417E-04-4.42019E-05-3.66733E-05 9.37614E-06 9.85364E-19 1.21007E-18
 -1      3348 1.26516E-04-3.58370E-05-3.91713E-05 1.32882E-05 1.83886E-18 1.24342E-18
 -1      3349 1.20692E-04-4.34978E-05-3.30748E-05 7.15404E-06 4.36831E-19 1.53503E-18
 -1      3350 1.20004E-04-4.51452E-05-3.20805E-05 4.18726E-06 2.58077E-19 1.48020E-18
 -1      3351 1.19846E-04-4.74068E-05-3.12174E-05-4.49579E-07-3.01961E-19 7.13202E-19
 -1      3352 9.66713E-05-2.36651E-05-3.12853E-05-1.51326E-06 1.34542E-18-1.07355E-18
 -1      3353 9.49272E-05-2.15595E-05-3.14393E-05-9.74564E-07 1.33954E-18-1.17926E-18
 -1      3354 9.45271E-05-2.19885E-05-3.10784E-05-2.50232E-06 1.21102E-18-1.28643E-18
 -1      3355 9.70018E-05-2.47125E-05-3.09885E-05-3.19496E-06 1.08795E-18-1.03424E-18
 -1      3356 5.18539E-05-1.75342E-05-1.43930E-05 1.96832E-05-1.04418E-18 2.56418E-18
 -1      3357 4.63432E-05-1.30237E-05-1.39404E-05 7.52062E-06-8.15699E-19 3.20073E-18
 -1      3358 1.06725E-04-5.14647E-05-2.38152E-05 2.74406E-05-2.73285E-18-1.66865E-19
 -1      3359 9.44240E-05-4.47555E-05-2.10085E-05 3.11364E-05-2.67715E-18 1.21835E-18
 -1      3360 1.11795E-04-5.10995E-05-2.58280E-05 2.06101E-05-1.90765E-18-1.14941E-18
 -1      3361 1.24014E-04-2.78150E-05-4.18818E-05-1.45817E-05 2.57588E-18-2.67827E-18
 -1      3362 1.27222E-04-3.46189E-05-3.96335E-05-1.48435E-05 1.45573E-18-2.74672E-18
 -1      3363 7.59046E-05-3.34859E-05-1.77435E-05-3.24253E-05-2.08675E-18-2.02647E-18
 -1      3364 9.00995E-05-4.24806E-05-2.05958E-05-3.31200E-05-2.42119E-18-1.46637E-18
 -1      3365 9.50521E-05-2.36574E-05-3.05874E-05 5.37813E-06-1.00188E-18-1.26735E-18
 -1      3366 9.53894E-05-2.45817E-05-3.03437E-05 6.75968E-06-8.84321E-19-1.26027E-18
 -1      3367 9.36502E-05-2.37170E-05-2.99805E-05 7.47784E-06-6.65381E-19-1.37588E-18
 -1      3368 9.52449E-05-2.85817E-05-2.85699E-05-3.32800E-08 1.12912E-18-2.88789E-19
 -1      3369 8.42938E-05-4.04351E-05-1.87932E-05 3.51254E-05 2.23336E-18-2.21584E-18
 -1      3370 7.17051E-05-3.24029E-05-1.64345E-05 3.31178E-05 2.11382E-18-2.91316E-18
 -1      3371 9.43340E-05-4.26347E-05-2.17635E-05 2.97705E-05 2.27291E-18-1.54421E-18
 -1      3372 1.25973E-04-5.31093E-05-3.11304E-05-4.73167E-06-4.49404E-19 9.86463E-19
 -1      3373 1.29028E-04-4.92962E-05-3.45426E-05 4.37322E-06 4.10196E-19 1.08933E-18
 -1      3374 5.74756E-05-2.36586E-05-1.42317E-05 2.83082E-05 1.50375E-18-3.77883E-18
 -1      3375 4.80841E-05-1.70983E-05-1.28599E-05 1.91078E-05 7.40783E-19-3.81546E-18
 -1      3376 1.29279E-04-5.56578E-05-3.14921E-05-5.07514E-06-1.85851E-20-2.53512E-18
 -1      3377 1.32980E-04-5.31684E-05-3.45693E-05 2.40039E-06-6.67522E-19-3.53128E-18
 -1      3378 9.23240E-05-1.77934E-05-3.19422E-05-1.02644E-06-1.45158E-18-1.72098E-18
 -1      3379 1.14027E-04-5.33751E-05-2.58600E-05-2.11488E-05 1.07920E-18-7.61727E-19
 -1      3380 1.24082E-04-5.70637E-05-2.89247E-05-1.39143E-05 9.42298E-19-1.20216E-18
 -1      3381 1.24982E-04-5.39688E-05-3.04259E-05-6.55641E-06 6.03418E-19-2.62151E-18
 -1      3382 1.11115E-04-4.96832E-05-2.61513E-05-1.91921E-05 1.60725E-18-5.97868E-19
 -1      3383 6.81842E-05-2.78907E-05-1.71865E-05 2.88123E-05-1.76633E-18 2.66265E-18
 -1      3384 5.85152E-05-2.15702E-05-1.53845E-05 2.44308E-05-1.18982E-18 2.78277E-18
 -1      3385 6.05772E-05-1.91542E-05-1.74325E-05 1.84384E-05-1.11926E-18 2.24660E-18
 -1      3386 8.36674E-05-1.15741E-05-3.09098E-05-3.82098E-07 7.37079E-20-2.49885E-18
 -1      3387 8.35841E-05-1.15089E-05-3.09068E-05-2.19514E-07-1.25564E-19-2.37924E-18
 -1      3388 8.41011E-05-1.27849E-05-3.05351E-05-8.75799E-07 2.16126E-20-2.39875E-18
 -1      3389 1.19442E-04-1.53161E-05-4.51699E-05-5.65660E-06-3.69275E-18 1.93256E-19
 -1      3390 1.18445E-04-2.37211E-05-4.08222E-05-1.28756E-05 2.56942E-18-2.48089E-18
 -1      3391 9.52545E-05-2.85817E-05-2.85741E-05-2.44406E-08 6.66878E-19-2.16837E-18
 -1      3392 9.52520E-05-2.85807E-05-2.85735E-05-2.78516E-08 9.38818E-19-5.85274E-19
 -1      3393 1.15944E-04-5.27799E-05-2.69383E-05 1.89878E-05 1.79142E-18-1.13919E-19
 -1      3394 4.79570E-05-1.33522E-05-1.45409E-05-7.45600E-06-7.10171E-19-3.32937E-18
 -1      3395 4.63310E-05-1.47136E-05-1.29571E-05-1.42086E-05-1.01152E-18-3.44827E-18
 -1      3396 5.44052E-05-1.77327E-05-1.54575E-05-1.85732E-05-1.32956E-18-2.99357E-18
 -1      3397 9.14562E-05-1.89921E-05-3.10397E-05-2.22570E-06 1.06257E-18-1.64905E-18
 -1      3398 9.00780E-05-1.69521E-05-3.13471E-05-9.97019E-07 1.13442E-18-1.86858E-18
 -1      3399 8.84877E-05-1.56100E-05-3.12559E-05-1.19724E-06 8.75140E-19-1.88613E-18
 -1      3400 1.31844E-04-4.96526E-05-3.50471E-05-6.08358E-06-5.37151E-19 1.57358E-18
 -1      3401 1.19275E-04-4.93839E-05-2.99538E-05 6.88153E-06 7.37250E-19 2.21499E-19
 -1      3402 1.19488E-04-5.26518E-05-2.89854E-05 1.23243E-05 1.15968E-18 1.09466E-19
 -1      3403 1.09808E-04-4.85628E-05-2.59445E-05 2.10000E-05 1.94022E-18-5.27079E-19
 -1      3404 1.15308E-04-4.68434E-05-2.91615E-05 9.97225E-06 9.19689E-19 1.27364E-19
 -1      3405 1.29314E-04-4.27175E-05-3.76058E-05-1.16021E-05-1.76641E-18 1.53882E-18
 -1      3406 1.28494E-04-3.50490E-05-4.01233E-05-1.47511E-05-2.43384E-18 1.55335E-18
 -1      3407 9.52458E-05-2.85791E-05-2.85715E-05 3.35327E-08 3.56964E-19 6.70331E-19
 -1      3408 9.44284E-05-2.17398E-05-3.11531E-05 2.52494E-06-1.30536E-18-1.36536E-18
 -1      3409 9.47853E-05-2.27383E-05-3.08788E-05 4.04619E-06-1.13334E-18-1.28988E-18
 -1      3410 9.31799E-05-2.17737E-05-3.06053E-05 4.76436E-06-1.01769E-18-1.41405E-18
 -1      3411 1.27495E-04-3.08117E-05-4.15792E-05 1.56390E-05-2.57313E-18-2.26550E-18
 -1      3412 1.29322E-04-3.95442E-05-3.90310E-05 1.43184E-05-1.74695E-18-2.59271E-18
 -1      3413 1.28529E-04-4.74473E-05-3.47882E-05 8.24768E-06-6.62989E-19-2.64579E-18
 -1      3414 1.27105E-04-5.02750E-05-3.28463E-05 3.85934E-06 1.40650E-19-3.24048E-18
 -1      3415 8.62439E-05-4.04007E-05-1.94802E-05 3.30256E-05-2.54968E-18 1.85701E-18
 -1      3416 8.01258E-05-3.59699E-05-1.86203E-05 3.20439E-05-2.30750E-18 2.41044E-18
 -1      3417 1.01414E-04-3.19086E-05-2.97426E-05-9.14590E-06 1.65783E-19-4.57689E-19
 -1      3418 9.91773E-05-3.06085E-05-2.94307E-05-9.90478E-06 4.15865E-20-1.12301E-18
 -1      3419 1.02865E-04-3.35595E-05-2.97048E-05-8.95122E-06-1.68419E-19-3.90405E-19
 -1      3420 9.28895E-05-1.92201E-05-3.15759E-05 6.59622E-07-1.38916E-18-1.61702E-18
 -1      3421 8.42715E-05-3.51575E-05-2.08386E-05-2.79042E-05 1.90027E-18 1.01840E-18
 -1      3422 9.32481E-05-3.86632E-05-2.32129E-05-2.43566E-05 1.92250E-18 6.80617E-19
 -1      3423 1.24394E-04-4.48056E-05-3.40720E-05 8.13399E-06 3.30495E-19 1.31184E-18
 -1      3424 1.07005E-04-3.91723E-05-2.91474E-05-9.63603E-06-6.92851E-19-5.88463E-19
 -1      3425 1.06747E-04-3.74955E-05-2.96954E-05-7.85827E-06-4.41779E-19-2.51470E-19
 -1      3426 1.04805E-04-3.54949E-05-2.96393E-05-8.79119E-06-4.72350E-19-3.51541E-19
 -1      3427 1.18981E-04-4.51052E-05-3.16252E-05-3.33775E-06-7.28183E-19-1.53674E-18
 -1      3428 1.20149E-04-4.44364E-05-3.24970E-05-6.54874E-06-4.53158E-19-1.67024E-18
 -1      3429 9.52398E-05-2.85694E-05-2.85730E-05-3.40476E-08 1.26653E-18 8.77706E-19
 -1      3430 9.52455E-05-2.85678E-05-2.85762E-05-3.10799E-08 1.04157E-18 9.51650E-19
 -1      3431 9.52412E-05-2.85724E-05-2.85724E-05-3.46307E-08 1.76198E-18 4.41247E-19
 -1      3432 9.52576E-05-2.85820E-05-2.85753E-05-1.60986E-08 1.73947E-18 1.28610E-18
 -1      3433 9.52562E-05-2.85815E-05-2.85749E-05-2.03044E-08 1.70712E-18-2.63109E-19
 -1      3434 9.52562E-05-2.85763E-05-2.85771E-05-2.20124E-08 1.42170E-18-8.91095E-19
 -1      3435 8.58042E-05-1.33648E-05-3.10701E-05-1.18302E-06 5.09245E-19-2.28260E-18
 -1      3436 8.56103E-05-1.40369E-05-3.06495E-05-1.70665E-06 4.09656E-19-2.17237E-18
 -1      3437 8.70186E-05-1.43364E-05-3.11547E-05-1.12259E-06 7.87409E-19-2.02026E-18
 -1      3438 9.52591E-05-2.85819E-05-2.85760E-05-7.00694E-09 2.45954E-18 4.00025E-19
 -1      3439 9.52585E-05-2.85817E-05-2.85758E-05-1.15960E-08 2.21230E-18 4.55933E-19
 -1      3440 9.52590E-05-2.85758E-05-2.85785E-05-1.35412E-08 2.24210E-18 1.26762E-18
 -1      3441 9.52602E-05-2.85753E-05-2.85792E-05-4.63322E-09 2.70040E-18 1.36114E-19
 -1      3442 4.90505E-05-1.27406E-05-1.51519E-05 1.05350E-06-3.34975E-20 3.09193E-18
 -1      3443 5.38776E-05-1.38007E-05-1.70310E-05-5.16694E-06 5.22017E-19 2.16390E-18
 -1      3444 5.53645E-05-1.41816E-05-1.75873E-05 6.96302E-06-5.14698E-19 2.28238E-18
 -1      3445 9.52488E-05-2.85799E-05-2.85724E-05 3.16067E-08 9.11660E-19 5.85015E-19
 -1      3446 9.76038E-05-2.63565E-05-3.05366E-05-5.66618E-06 7.32229E-19-9.84295E-19
 -1      3447 9.71898E-05-2.54265E-05-3.07377E-05-4.41381E-06 8.98138E-19-1.06428E-18
 -1      3448 9.59880E-05-2.42037E-05-3.07735E-05-4.13961E-06 9.50177E-19-1.18777E-18
 -1      3449 9.63654E-05-2.57463E-05-3.02808E-05-6.47751E-06 5.79937E-19-1.20069E-18
 -1      3450 1.31778E-04-4.62114E-05-3.67310E-05 1.00285E-05-9.38407E-19-3.01194E-18
 -1      3451 1.25190E-04-2.75700E-05-4.24232E-05-1.39820E-05-2.89452E-18 6.26487E-19
 -1      3452 9.57167E-05-4.30324E-05-2.23104E-05 2.79857E-05-2.44049E-18 6.07878E-19
 -1      3453 1.10357E-04-4.58703E-05-2.78655E-05 1.51419E-05 1.23115E-18-4.90300E-19
 -1      3454 1.18121E-04-4.65529E-05-3.06575E-05 1.07970E-06-9.69839E-19-1.40505E-18
 -1      3455 1.22731E-04-2.39396E-05-4.30463E-05 1.43465E-05-2.85588E-18-1.50115E-18
 -1      3456 7.60241E-05-3.04020E-05-1.93293E-05 2.72549E-05-1.89354E-18 2.16576E-18
 -1      3457 7.75992E-05-3.16657E-05-1.95220E-05-2.76850E-05 1.67773E-18 7.80170E-19
 -1      3458 7.86031E-05-2.94593E-05-2.10634E-05-2.43031E-05 1.66997E-18 6.58025E-19
 -1      3459 6.93841E-05-2.72209E-05-1.76619E-05-2.72284E-05 1.13307E-18 1.24842E-18
 -1      3460 1.22633E-04-1.91848E-05-4.45789E-05-1.12898E-05-3.65685E-18 5.96629E-19
 -1      3461 8.78132E-05-1.49701E-05-3.12397E-05 1.06783E-06-9.51037E-19-2.04456E-18
 -1      3462 8.94031E-05-1.63112E-05-3.13364E-05 9.57429E-07-1.07112E-18-1.99453E-18
 -1      3463 1.20416E-04-1.69471E-05-4.45435E-05 9.41213E-06-3.55034E-18-7.35251E-19
 -1      3464 1.25143E-04-4.85602E-05-3.29146E-05-4.17800E-06-5.82914E-19-1.99303E-18
 -1      3465 9.93483E-05-4.46996E-05-2.32249E-05-2.72065E-05-2.31642E-18-1.23151E-18
 -1      3466 1.14440E-04-1.47423E-05-4.32563E-05-3.78954E-06 3.34075E-18-1.15451E-18
 -1      3467 9.52491E-05-2.85804E-05-2.85723E-05-3.16209E-08 2.34279E-18 8.89457E-19
 -1      3468 9.52431E-05-2.85774E-05-2.85710E-05-3.44791E-08 9.14646E-19 5.47315E-19
 -1      3469 9.52417E-05-2.85745E-05-2.85717E-05-3.49980E-08 2.17790E-18 2.16962E-19
 -1      3470 9.52509E-05-2.85763E-05-2.85748E-05-2.97069E-08 6.37267E-19-3.82994E-19
 -1      3471 7.04779E-05-2.89801E-05-1.74556E-05-3.02919E-05-1.86130E-18-2.16819E-18
 -1      3472 7.92875E-05-3.16642E-05-2.02489E-05-2.77218E-05-1.87546E-18-1.53631E-18
 -1      3473 6.53453E-05-2.40849E-05-1.74523E-05-2.56436E-05-1.52702E-18-2.35735E-18
 -1      3474 1.26311E-04-5.11429E-05-3.22723E-05-6.91053E-07-6.84095E-19-1.83068E-18
 -1      3475 1.26457E-04-5.49472E-05-3.06698E-05 6.77340E-06-8.80583E-19-2.52373E-18
 -1      3476 1.20196E-04-5.25414E-05-2.89975E-05 1.02350E-05-9.40630E-19-1.68849E-18
 -1      3477 1.21661E-04-4.96042E-05-3.09228E-05 1.35623E-06-7.49743E-19-1.66949E-18
 -1      3478 8.63965E-05-1.37710E-05-3.11350E-05 8.38331E-07-7.67395E-19-2.14149E-18
 -1      3479 8.74404E-05-1.54920E-05-3.08140E-05 1.91375E-06-7.53372E-19-1.94542E-18
 -1      3480 8.52646E-05-1.28623E-05-3.10502E-05 8.03962E-07-5.60335E-19-2.17287E-18
 -1      3481 7.01436E-05-2.81461E-05-1.76268E-05 2.82674E-05 1.76358E-18-2.77234E-18
 -1      3482 1.21904E-04-5.48021E-05-2.89010E-05-1.34808E-05-9.98387E-19 5.23693E-19
 -1      3483 1.21495E-04-4.96792E-05-3.07097E-05-3.51886E-06-6.19826E-19 7.00165E-19
 -1      3484 1.17809E-04-4.83439E-05-2.95478E-05-7.39571E-06-7.61440E-19 3.44584E-19
 -1      3485 1.15109E-04-5.06290E-05-2.74348E-05-1.63906E-05-1.52842E-18-6.27598E-20
 -1      3486 5.56782E-05-1.67754E-05-1.63858E-05 1.55909E-05 7.45280E-19-3.01533E-18
 -1      3487 4.72546E-05-1.43779E-05-1.35797E-05 1.25862E-05 2.71249E-19-3.56442E-18
 -1      3488 4.83805E-05-1.29585E-05-1.49481E-05 4.75300E-06-1.77599E-19-3.22301E-18
 -1      3489 9.52509E-05-2.85758E-05-2.85750E-05 2.96957E-08 1.41725E-18 4.84053E-19
 -1      3490 5.46456E-05-1.93883E-05-1.46295E-05-2.17065E-05 1.05749E-18 1.92393E-18
 -1      3491 6.27679E-05-2.40064E-05-1.63832E-05-2.54944E-05 9.42615E-19 1.76141E-18
 -1      3492 6.71263E-05-2.31860E-05-1.87298E-05-2.23243E-05 1.29027E-18 1.08823E-18
 -1      3493 5.68584E-05-1.76624E-05-1.65564E-05-1.68302E-05 5.38316E-19 2.11335E-18
 -1      3494 7.87760E-05-3.14591E-05-2.02782E-05 2.81363E-05 1.66876E-18-1.88274E-18
 -1      3495 6.68177E-05-2.31606E-05-1.84637E-05 2.32969E-05 1.22451E-18-2.72326E-18
 -1      3496 1.18534E-04-4.86149E-05-2.99255E-05 4.91155E-06-9.95699E-19-1.61159E-18
 -1      3497 9.23356E-05-2.61294E-05-2.83682E-05 1.19997E-05-3.44359E-19-1.14923E-18
 -1      3498 9.33603E-05-2.78435E-05-2.80319E-05 1.31446E-05-7.78824E-20-1.14535E-18
 -1      3499 9.40135E-05-2.96913E-05-2.75376E-05 1.47785E-05 3.41248E-19-1.07815E-18
 -1      3500 9.60256E-05-3.22794E-05-2.72445E-05 1.57504E-05 8.13837E-19-8.79198E-19
 -1      3501 9.02419E-05-2.70037E-05-2.71365E-05 1.45430E-05 2.20865E-19-9.17605E-19
 -1      3502 9.78546E-05-3.52115E-05-2.67759E-05 1.74524E-05 1.10851E-18-8.23170E-19
 -1      3503 1.01387E-04-3.88683E-05-2.66695E-05 1.78992E-05 1.38133E-18-9.69165E-19
 -1      3504 9.24060E-05-3.17532E-05-2.60550E-05 1.83569E-05 8.67297E-19-8.40468E-19
 -1      3505 9.90742E-05-4.30973E-05-2.40165E-05 2.41167E-05-2.25567E-18 5.10443E-19
 -1      3506 9.20472E-05-3.89159E-05-2.26074E-05 2.58177E-05-2.25044E-18 7.57472E-19
 -1      3507 1.25043E-04-5.28481E-05-3.10999E-05-3.58540E-06 6.20065E-19-3.03616E-18
 -1      3508 1.04047E-04-4.17464E-05-2.65905E-05-1.67965E-05 1.41050E-18-5.57725E-19
 -1      3509 9.99317E-05-3.78320E-05-2.65106E-05-1.69337E-05 1.25729E-18-2.33048E-19
 -1      3510 9.73835E-05-3.45996E-05-2.68359E-05-1.54726E-05 1.28048E-18-7.28465E-20
 -1      3511 9.48971E-05-3.18008E-05-2.70023E-05-1.48882E-05 1.58052E-18 9.40571E-20
 -1      3512 9.37470E-05-3.42723E-05-2.55268E-05-1.85613E-05 1.48741E-18 3.84513E-19
 -1      3513 9.38221E-05-2.98243E-05-2.73785E-05-1.34018E-05 1.38530E-18-3.47378E-19
 -1      3514 9.24885E-05-2.80992E-05-2.75893E-05-1.26204E-05 9.85936E-19-4.81739E-19
 -1      3515 9.05103E-05-2.90460E-05-2.63647E-05-1.51318E-05 1.34812E-18 2.03928E-19
 -1      3516 9.22127E-05-2.70071E-05-2.79143E-05-1.13702E-05 3.42202E-19-5.81943E-19
 -1      3517 9.15990E-05-2.60555E-05-2.80968E-05-1.05807E-05 2.92712E-19-7.17077E-19
 -1      3518 8.93977E-05-2.60783E-05-2.71449E-05-1.22531E-05 4.03479E-19 3.21864E-19
 -1      3519 9.17371E-05-2.55542E-05-2.83448E-05-9.56490E-06 8.92839E-19-1.03597E-18
 -1      3520 9.15350E-05-2.51136E-05-2.84768E-05-8.82682E-06 4.98122E-19-8.60828E-19
 -1      3521 8.93940E-05-2.45972E-05-2.77689E-05-9.96764E-06 4.15824E-19-5.06287E-19
 -1      3522 9.18607E-05-2.49807E-05-2.86510E-05-7.99772E-06-1.59699E-19-1.17860E-18
 -1      3523 9.18728E-05-2.48548E-05-2.87332E-05-7.32538E-06 2.70488E-22-1.24849E-18
 -1      3524 8.99315E-05-2.40578E-05-2.82263E-05-8.15449E-06 1.47432E-19-4.96734E-19
 -1      3525 9.22616E-05-2.49370E-05-2.88458E-05-6.63533E-06 2.96106E-19-2.02973E-18
 -1      3526 9.23716E-05-2.49929E-05-2.88872E-05-6.03135E-06 2.52955E-19-2.40313E-18
 -1      3527 9.06847E-05-2.40784E-05-2.85388E-05-6.68229E-06-4.06342E-19-1.20741E-18
 -1      3528 9.27570E-05-2.51886E-05-2.89526E-05-5.44922E-06-4.82076E-19-2.74246E-18
 -1      3529 9.29000E-05-2.53394E-05-2.89641E-05-4.91414E-06-5.45251E-19-2.77967E-18
 -1      3530 9.14795E-05-2.44127E-05-2.87363E-05-5.45741E-06-2.42979E-19-2.26218E-18
 -1      3531 9.32492E-05-2.55838E-05-2.89954E-05-4.42068E-06-4.47784E-19-3.10550E-18
 -1      3532 9.33918E-05-2.57749E-05-2.89869E-05-3.95420E-06 2.71039E-19-3.24562E-18
 -1      3533 9.22255E-05-2.49002E-05-2.88478E-05-4.42355E-06-6.16451E-19-1.97879E-18
 -1      3534 9.36917E-05-2.60287E-05-2.89951E-05-3.53750E-06 3.60923E-19-4.64969E-18
 -1      3535 9.38187E-05-2.62276E-05-2.89746E-05-3.13808E-06-4.53743E-20-5.27414E-18
 -1      3536 9.28818E-05-2.54402E-05-2.88985E-05-3.54755E-06-8.07713E-19-4.42724E-18
 -1      3537 9.40666E-05-2.64677E-05-2.89681E-05-2.78959E-06 5.56419E-19-4.85546E-18
 -1      3538 9.41723E-05-2.66557E-05-2.89415E-05-2.45362E-06 8.19773E-19-4.44491E-18
 -1      3539 9.34348E-05-2.59722E-05-2.89085E-05-2.80937E-06 2.64147E-19-4.65717E-18
 -1      3540 9.43715E-05-2.68706E-05-2.89265E-05-2.16553E-06 5.33384E-19-4.23404E-18
 -1      3541 9.44559E-05-2.70387E-05-2.88978E-05-1.88794E-06-7.59622E-19-3.86854E-18
 -1      3542 9.38862E-05-2.64615E-05-2.88931E-05-2.19319E-06 7.29243E-19-3.91515E-18
 -1      3543 9.46124E-05-2.72239E-05-2.88786E-05-1.65321E-06-1.88162E-18-3.58218E-18
 -1      3544 9.46777E-05-2.73685E-05-2.88506E-05-1.42784E-06-1.17938E-18-3.87180E-18
 -1      3545 9.42457E-05-2.68924E-05-2.88632E-05-1.68544E-06-8.93140E-19-3.59997E-18
 -1      3546 9.47981E-05-2.75235E-05-2.88301E-05-1.23948E-06-6.97334E-19-4.05079E-18
 -1      3547 9.48474E-05-2.76445E-05-2.88042E-05-1.05965E-06-1.00518E-18-3.83780E-18
 -1      3548 9.45260E-05-2.72596E-05-2.88266E-05-1.27320E-06-7.95048E-19-3.38585E-18
 -1      3549 9.49382E-05-2.77713E-05-2.87842E-05-9.10950E-07-1.17403E-18-2.48385E-18
 -1      3550 9.49744E-05-2.78700E-05-2.87614E-05-7.69926E-07-5.79328E-19-3.08992E-18
 -1      3551 9.47403E-05-2.75648E-05-2.87881E-05-9.43731E-07-2.00802E-19-2.94902E-18
 -1      3552 9.50415E-05-2.79715E-05-2.87429E-05-6.54491E-07-3.91774E-19-2.95202E-18
 -1      3553 9.50675E-05-2.80505E-05-2.87233E-05-5.45746E-07-5.94053E-19-2.92171E-18
 -1      3554 9.49009E-05-2.78129E-05-2.87510E-05-6.84798E-07-1.96781E-19-2.75782E-18
 -1      3555 9.51159E-05-2.81302E-05-2.87071E-05-4.57570E-07-3.77031E-19-2.53565E-18
 -1      3556 9.51340E-05-2.81921E-05-2.86907E-05-3.75156E-07-3.53052E-19-2.25265E-18
 -1      3557 9.50187E-05-2.80104E-05-2.87172E-05-4.84553E-07-1.88993E-19-2.56734E-18
 -1      3558 9.51681E-05-2.82536E-05-2.86768E-05-3.08985E-07-1.21314E-19-1.24608E-18
 -1      3559 9.51803E-05-2.83014E-05-2.86634E-05-2.47663E-07 1.14870E-18 5.52622E-20
 -1      3560 9.51032E-05-2.81648E-05-2.86874E-05-3.32276E-07 1.50424E-19-7.55833E-19
 -1      3561 9.52036E-05-2.83479E-05-2.86517E-05-1.98956E-07 1.49845E-18 1.78739E-19
 -1      3562 9.52114E-05-2.83841E-05-2.86410E-05-1.54232E-07 1.41853E-18 6.63066E-19
 -1      3563 9.51622E-05-2.82834E-05-2.86620E-05-2.18572E-07 1.55336E-18 3.58839E-19
 -1      3564 9.52266E-05-2.84187E-05-2.86315E-05-1.19135E-07 2.04772E-18 1.66954E-19
 -1      3565 9.52314E-05-2.84455E-05-2.86230E-05-8.72500E-08 2.63021E-18 3.27340E-19
 -1      3566 9.52020E-05-2.83729E-05-2.86408E-05-1.35333E-07 2.07660E-18 7.45541E-19
 -1      3567 9.52407E-05-2.84707E-05-2.86153E-05-6.25811E-08 2.38779E-18 3.73174E-19
 -1      3568 9.52432E-05-2.84903E-05-2.86087E-05-4.04606E-08 1.11385E-18 7.37057E-19
 -1      3569 9.52275E-05-2.84391E-05-2.86235E-05-7.57392E-08 2.46070E-18-1.79510E-20
 -1      3570 9.52484E-05-2.85083E-05-2.86026E-05-2.36435E-08-5.64454E-19 6.36720E-19
 -1      3571 9.52494E-05-2.85224E-05-2.85975E-05-8.83699E-09-6.44997E-19 2.05236E-19
 -1      3572 9.52428E-05-2.84871E-05-2.86095E-05-3.41915E-08 3.04409E-19-1.14070E-20
 -1      3573 9.52517E-05-2.85351E-05-2.85926E-05 2.18907E-09 2.09007E-19 8.91812E-19
 -1      3574 9.52519E-05-2.85452E-05-2.85887E-05 1.15282E-08 2.73575E-19-1.84812E-19
 -1      3575 9.52509E-05-2.85215E-05-2.85983E-05-6.13483E-09-6.14152E-19 9.85510E-19
 -1      3576 9.52523E-05-2.85539E-05-2.85849E-05 1.81582E-08-8.43251E-19-7.53939E-19
 -1      3577 9.52519E-05-2.85611E-05-2.85818E-05 2.35084E-08-7.36106E-19-1.01052E-18
 -1      3578 9.52543E-05-2.85458E-05-2.85894E-05 1.17963E-08-2.81133E-19 1.40851E-18
 -1      3579 9.52519E-05-2.85661E-05-2.85795E-05 2.61177E-08 4.62107E-19-1.54429E-19
 -1      3580 9.52513E-05-2.85716E-05-2.85770E-05 2.86101E-08 1.30564E-18 3.86113E-19
 -1      3581 9.52549E-05-2.85722E-05-2.85783E-05 2.50801E-08 1.02711E-18 7.44086E-19
 -1      3582 9.52549E-05-2.85611E-05-2.85831E-05 2.12355E-08 3.92247E-19 1.61725E-18
 -1      3583 6.57235E-05-2.06181E-05-1.93548E-05 1.88589E-05-1.21578E-18 2.00776E-18
 -1      3584 6.09656E-05-1.68877E-05-1.85918E-05 1.40061E-05-1.20897E-18 2.24220E-18
 -1      3585 1.26933E-04-3.99081E-05-3.73107E-05-1.22754E-05 7.94305E-19-2.48075E-18
 -1      3586 1.07886E-04-4.16641E-05-2.82677E-05 1.08947E-05-1.18823E-18-9.64721E-19
 -1      3587 1.11274E-04-4.46656E-05-2.85657E-05 9.52702E-06-1.08291E-18-1.38485E-18
 -1      3588 9.54947E-05-2.88752E-05-2.85372E-05 9.99847E-06-6.78786E-19-2.19131E-19
 -1      3589 9.66109E-05-3.01573E-05-2.84544E-05 1.03908E-05-7.94269E-19 1.64278E-19
 -1      3590 9.43537E-05-2.72358E-05-2.87625E-05 8.72015E-06-5.52196E-19 3.32667E-19
 -1      3591 9.49847E-05-2.79878E-05-2.86936E-05 9.23575E-06-8.58320E-19 2.20627E-19
 -1      3592 9.31574E-05-2.75015E-05-2.81629E-05 1.01117E-05-9.75914E-19-1.51791E-19
 -1      3593 9.38891E-05-2.64089E-05-2.89235E-05 7.44524E-06-3.14317E-19 2.01809E-18
 -1      3594 9.42145E-05-2.67903E-05-2.88816E-05 7.99875E-06-1.18089E-19 1.20872E-18
 -1      3595 9.25706E-05-2.61544E-05-2.84745E-05 8.54608E-06-9.43676E-19 3.28241E-19
 -1      3596 9.38053E-05-2.61116E-05-2.90177E-05 6.24563E-06-4.62997E-19 1.48263E-18
 -1      3597 9.39510E-05-2.62528E-05-2.90026E-05 6.79077E-06-2.66195E-19 2.34133E-18
 -1      3598 9.25279E-05-2.55669E-05-2.87001E-05 7.14236E-06-2.81636E-19 1.61522E-18
 -1      3599 9.39160E-05-2.61353E-05-2.90559E-05 5.15380E-06-8.84546E-19 2.34360E-18
 -1      3600 9.39630E-05-2.61316E-05-2.90621E-05 5.66415E-06-8.79787E-19 1.36123E-18
 -1      3601 9.27645E-05-2.54569E-05-2.88448E-05 5.90406E-06-7.56423E-19 1.95258E-18
 -1      3602 9.41098E-05-2.63367E-05-2.90527E-05 4.18466E-06-9.97479E-19 2.87894E-18
 -1      3603 9.41073E-05-2.62528E-05-2.90736E-05 4.64534E-06-8.12704E-19 2.49545E-18
 -1      3604 9.31208E-05-2.56266E-05-2.89232E-05 4.82243E-06-9.37088E-19 2.34061E-18
 -1      3605 9.43242E-05-2.66212E-05-2.90221E-05 3.34337E-06 4.66970E-19 2.27909E-18
 -1      3606 9.43004E-05-2.64998E-05-2.90516E-05 3.74709E-06-2.71500E-19 2.53988E-18
 -1      3607 9.35049E-05-2.59421E-05-2.89522E-05 3.88760E-06-1.95957E-19 1.38239E-18
 -1      3608 9.45266E-05-2.69299E-05-2.89757E-05 2.62781E-06 9.85112E-19 1.59587E-18
 -1      3609 9.44966E-05-2.67973E-05-2.90090E-05 2.97287E-06 1.42200E-18 2.18260E-18
 -1      3610 9.38675E-05-2.63166E-05-2.89473E-05 3.09022E-06 7.92526E-19 1.01585E-18
 -1      3611 9.47024E-05-2.72284E-05-2.89223E-05 2.03068E-06 6.20669E-19 1.33091E-18
 -1      3612 9.46736E-05-2.70998E-05-2.89559E-05 2.31911E-06 4.50215E-19 1.50399E-18
 -1      3613 9.41855E-05-2.66964E-05-2.89213E-05 2.41963E-06 8.91781E-19 1.32745E-18
 -1      3614 9.48474E-05-2.74988E-05-2.88677E-05 1.54151E-06 7.20634E-19 8.96165E-19
 -1      3615 9.48228E-05-2.73821E-05-2.88995E-05 1.77772E-06 8.33875E-19 1.49367E-18
 -1      3616 9.44514E-05-2.70513E-05-2.88837E-05 1.86426E-06 7.45113E-19 1.43618E-18
 -1      3617 9.49624E-05-2.77330E-05-2.88158E-05 1.14795E-06 3.01595E-19 7.81054E-19
 -1      3618 9.49429E-05-2.76318E-05-2.88445E-05 1.33770E-06 7.21240E-19 8.99492E-19
 -1      3619 9.46660E-05-2.73663E-05-2.88412E-05 1.41172E-06 7.96740E-19 9.07394E-19
 -1      3620 9.50508E-05-2.79294E-05-2.87689E-05 8.36919E-07-2.63764E-19 1.34330E-18
 -1      3621 9.50361E-05-2.78445E-05-2.87938E-05 9.86532E-07-1.26196E-19 4.95417E-19
 -1      3622 9.48342E-05-2.76355E-05-2.87983E-05 1.04902E-06-3.53441E-20 2.02945E-18
 -1      3623 9.51167E-05-2.80896E-05-2.87279E-05 5.95358E-07-8.76332E-21 7.77846E-19
 -1      3624 9.51061E-05-2.80203E-05-2.87490E-05 7.11238E-07 1.88609E-19 1.02275E-18
 -1      3625 9.49626E-05-2.78589E-05-2.87579E-05 7.63256E-07-3.38875E-19 1.91199E-18
 -1      3626 9.51643E-05-2.82172E-05-2.86931E-05 4.10964E-07-1.87866E-18 2.42136E-18
 -1      3627 9.51572E-05-2.81620E-05-2.87105E-05 4.99125E-07-1.31099E-18 1.00530E-18
 -1      3628 9.50580E-05-2.80397E-05-2.87216E-05 5.41773E-07-9.22512E-19 2.16564E-18
 -1      3629 9.51977E-05-2.83168E-05-2.86644E-05 2.72751E-07-2.85079E-18 2.70279E-18
 -1      3630 9.51932E-05-2.82737E-05-2.86784E-05 3.38573E-07-2.43624E-18 2.51743E-18
 -1      3631 9.51271E-05-2.81829E-05-2.86900E-05 3.72979E-07-2.30694E-18 3.43922E-18
 -1      3632 9.52203E-05-2.83930E-05-2.86411E-05 1.71177E-07-1.53328E-18 2.21217E-18
 -1      3633 9.52176E-05-2.83600E-05-2.86522E-05 2.19336E-07-2.19258E-18 2.51086E-18
 -1      3634 9.51757E-05-2.82940E-05-2.86634E-05 2.46664E-07-2.36743E-18 2.60305E-18
 -1      3635 9.52347E-05-2.84502E-05-2.86225E-05 9.81417E-08 5.39723E-19 1.16190E-18
 -1      3636 9.52334E-05-2.84254E-05-2.86312E-05 1.32588E-07-2.74377E-19 2.33536E-18
 -1      3637 9.52087E-05-2.83785E-05-2.86414E-05 1.53978E-07-8.51434E-19 1.72579E-18
 -1      3638 9.52433E-05-2.84923E-05-2.86080E-05 4.69514E-08 1.69119E-18 1.54910E-18
 -1      3639 9.52428E-05-2.84740E-05-2.86146E-05 7.09351E-08 1.42868E-18 1.32818E-18
 -1      3640 9.52299E-05-2.84416E-05-2.86235E-05 8.74429E-08 7.14571E-19 1.45837E-18
 -1      3641 9.52476E-05-2.85226E-05-2.85967E-05 1.22110E-08 1.37830E-18 1.48893E-18
 -1      3642 9.52478E-05-2.85094E-05-2.86018E-05 2.83356E-08 1.84849E-18 1.41081E-18
 -1      3643 9.52427E-05-2.84877E-05-2.86093E-05 4.08972E-08 2.15574E-18 2.49395E-18
 -1      3644 9.52493E-05-2.85442E-05-2.85880E-05-1.03022E-08 5.95000E-19 1.30494E-18
 -1      3645 9.52497E-05-2.85347E-05-2.85918E-05-1.05616E-11 1.36427E-18 8.61729E-19
 -1      3646 9.52494E-05-2.85208E-05-2.85980E-05 9.39675E-09 1.61594E-18 1.84827E-18
 -1      3647 9.52492E-05-2.85595E-05-2.85814E-05-2.37528E-08 1.13750E-18-1.84807E-18
 -1      3648 9.52498E-05-2.85527E-05-2.85842E-05-1.78359E-08 4.09338E-19-3.71729E-19
 -1      3649 9.52521E-05-2.85442E-05-2.85891E-05-1.09148E-08 1.41160E-18-1.76555E-18
 -1      3650 9.14009E-05-1.83202E-05-3.13248E-05 1.52025E-06-1.21341E-18-1.67796E-18
 -1      3651 9.52568E-05-2.85710E-05-2.85797E-05 2.09670E-08 2.78831E-19 5.75383E-20
 -1      3652 9.52585E-05-2.85707E-05-2.85806E-05 1.70685E-08 5.43459E-19 3.34178E-19
 -1      3653 9.52571E-05-2.85656E-05-2.85821E-05 1.99764E-08 2.69544E-19 6.29680E-19
 -1      3654 9.58486E-05-2.71728E-05-2.94210E-05-9.25140E-06 1.05866E-19-1.18858E-18
 -1      3655 9.51077E-05-2.58711E-05-2.96601E-05-8.28798E-06 2.95625E-19-1.24904E-18
 -1      3656 9.09219E-05-1.87527E-05-3.09149E-05 2.76596E-06-1.04565E-18-1.64805E-18
 -1      3657 9.77505E-05-3.16761E-05-2.82837E-05 1.11202E-05-7.15090E-19-2.19263E-20
 -1      3658 9.95766E-05-3.36400E-05-2.82289E-05 1.12189E-05-5.94779E-19-2.25303E-20
 -1      3659 9.46981E-05-2.99679E-05-2.77867E-05 1.17842E-05-8.35134E-19-2.24029E-19
 -1      3660 1.01698E-04-3.59489E-05-2.81118E-05 1.17031E-05-1.12704E-18 4.26082E-19
 -1      3661 1.04416E-04-3.86258E-05-2.81784E-05 1.12120E-05-1.00469E-18-1.41567E-19
 -1      3662 1.03291E-04-3.98470E-05-2.73015E-05 1.41820E-05-1.66263E-18 1.97068E-19
 -1      3663 9.78122E-05-3.39815E-05-2.74274E-05 1.33525E-05-9.01643E-19 4.61583E-19
 -1      3664 9.30209E-05-3.90543E-05-2.28518E-05-2.66298E-05-1.99317E-18-1.32485E-18
 -1      3665 1.05490E-04-4.67525E-05-2.53706E-05-2.27938E-05-1.96993E-18-9.34542E-19
 -1      3666 1.12835E-04-4.51689E-05-2.89719E-05-9.45467E-06-1.00286E-18 1.81781E-20
 -1      3667 1.09209E-04-4.23279E-05-2.85497E-05-1.14124E-05-1.17053E-18-2.49251E-19
 -1      3668 1.12275E-04-4.69245E-05-2.82099E-05-1.33232E-05-1.23925E-18-4.24211E-19
 -1      3669 8.38324E-05-1.17026E-05-3.09304E-05 2.61555E-07-2.16804E-19-2.35297E-18
 -1      3670 8.43823E-05-1.21326E-05-3.09769E-05 3.98111E-07-4.83823E-19-2.23950E-18
 -1      3671 8.50521E-05-1.35316E-05-3.06266E-05 1.17321E-06-4.43739E-19-2.05185E-18
 -1      3672 1.12311E-04-4.83996E-05-2.74861E-05 1.47798E-05-1.04917E-18-1.39509E-18
 -1      3673 1.05752E-04-4.53055E-05-2.57437E-05 1.93531E-05-1.71560E-18-2.86803E-19
 -1      3674 1.03106E-04-4.16231E-05-2.62357E-05 1.94397E-05 1.59858E-18-9.87008E-19
 -1      3675 1.06642E-04-4.49109E-05-2.62366E-05 1.96360E-05 1.63705E-18-8.11914E-19
 -1      3676 9.98883E-05-4.42672E-05-2.40709E-05 2.61159E-05 1.92598E-18-1.13133E-18
 -1      3677 9.59878E-05-3.78827E-05-2.50176E-05 2.22862E-05 1.46360E-18-1.21877E-18
 -1      3678 9.16189E-05-2.17984E-05-2.99277E-05 6.52980E-06-6.71275E-19-1.41509E-18
 -1      3679 9.18460E-05-2.27814E-05-2.95889E-05 7.89242E-06-4.53554E-19-1.41802E-18
 -1      3680 9.13530E-05-3.87927E-05-2.22677E-05 2.77121E-05 1.82906E-18-1.44533E-18
 -1      3681 9.05658E-05-3.52544E-05-2.37128E-05-2.23525E-05 1.99270E-18 7.22453E-19
 -1      3682 9.89797E-05-4.13452E-05-2.47216E-05-2.21496E-05 1.90650E-18 3.75196E-19
 -1      3683 9.17656E-05-2.37181E-05-2.91649E-05 9.27985E-06-4.65439E-19-1.31171E-18
 -1      3684 9.22305E-05-2.49083E-05-2.88276E-05 1.05222E-05-4.65916E-19-1.26234E-18
 -1      3685 8.96414E-05-2.39511E-05-2.81627E-05 1.12715E-05-2.90467E-19-9.66332E-19
 -1      3686 8.24131E-05-3.26591E-05-2.13296E-05 2.60164E-05-1.64592E-18 1.38781E-18
 -1      3687 7.25956E-05-2.50051E-05-2.01842E-05 2.23427E-05-1.00320E-18 1.76381E-18
 -1      3688 8.76157E-05-3.35147E-05-2.30657E-05 2.25411E-05-1.82200E-18 4.89135E-19
 -1      3689 8.38961E-05-1.26021E-05-3.05260E-05 1.67556E-07-1.56396E-19-2.22693E-18
 -1      3690 1.02283E-04-3.43788E-05-2.91602E-05-1.04654E-05-3.90544E-19-8.24199E-19
 -1      3691 8.60713E-05-1.54214E-05-3.02791E-05-2.63371E-06 4.43503E-19-2.07234E-18
 -1      3692 8.49388E-05-1.45449E-05-3.01939E-05-2.25988E-06 2.47351E-19-2.23224E-18
 -1      3693 8.96985E-05-2.18075E-05-2.90945E-05 8.36194E-06-4.63068E-19-1.29904E-18
 -1      3694 5.07782E-05-1.26644E-05-1.58868E-05-1.17461E-06-4.34104E-19-3.16049E-18
 -1      3695 5.49858E-05-1.40237E-05-1.74202E-05-6.79429E-06-6.98577E-19-2.70129E-18
 -1      3696 5.54809E-05-1.37117E-05-1.77721E-05 3.83696E-06 3.91753E-21-2.77541E-18
 -1      3697 9.26484E-05-2.08800E-05-3.07564E-05-3.46465E-06 9.51932E-19-1.52406E-18
 -1      3698 9.08434E-05-1.93460E-05-3.06564E-05-3.46925E-06 7.84817E-19-1.59075E-18
 -1      3699 7.28096E-05-2.29752E-05-2.11985E-05 1.83200E-05-5.90753E-19 2.22603E-18
 -1      3700 1.02292E-04-4.16089E-05-2.59264E-05 1.83617E-05-1.43687E-18 4.93397E-20
 -1      3701 9.52598E-05-2.85630E-05-2.85842E-05 1.22457E-08 4.79257E-19-2.95666E-19
 -1      3702 9.52595E-05-2.85696E-05-2.85814E-05 1.30007E-08 7.03224E-19-5.24148E-20
 -1      3703 9.52603E-05-2.85692E-05-2.85820E-05 8.84957E-09 1.75833E-18-2.01207E-18
 -1      3704 1.06709E-04-4.51353E-05-2.62699E-05-1.81747E-05 1.66119E-18-1.23970E-18
 -1      3705 8.68904E-05-3.35799E-05-2.26467E-05 2.46907E-05 1.36270E-18-1.49165E-18
 -1      3706 9.77935E-05-3.02873E-05-2.89102E-05-1.09917E-05-3.59629E-20-1.09995E-18
 -1      3707 9.65549E-05-2.85808E-05-2.91083E-05-1.03547E-05 6.67849E-20-1.19105E-18
 -1      3708 9.41129E-05-2.67222E-05-2.89120E-05-1.03076E-05 7.21585E-20-1.22644E-18
 -1      3709 6.14499E-05-1.58071E-05-1.93861E-05 8.41848E-06-4.73386E-19 1.90806E-18
 -1      3710 1.05755E-04-3.91153E-05-2.85121E-05-1.16200E-05-9.82548E-19-7.50088E-19
 -1      3711 1.02936E-04-3.63747E-05-2.84581E-05-1.22619E-05-8.53263E-19-9.68987E-19
 -1      3712 1.04047E-04-3.95213E-05-2.77678E-05-1.44570E-05-1.30767E-18-9.36375E-19
 -1      3713 8.44510E-05-1.50126E-05-2.97318E-05-2.41331E-06 2.24708E-19-2.10275E-18
 -1      3714 8.40631E-05-1.38042E-05-3.01174E-05-1.47319E-06 8.82986E-20-2.29108E-18
 -1      3715 8.35742E-05-1.34342E-05-3.00820E-05-9.25930E-07 3.04103E-21-2.34187E-18
 -1      3716 9.52468E-05-2.85737E-05-2.85742E-05-3.27629E-08 1.76160E-18 7.26222E-19
 -1      3717 9.52500E-05-2.85682E-05-2.85779E-05-2.85311E-08 9.41654E-19-1.45337E-18
 -1      3718 9.52495E-05-2.85639E-05-2.85794E-05-2.65199E-08 9.55413E-19-1.34528E-18
 -1      3719 9.52532E-05-2.85593E-05-2.85832E-05-2.14887E-08 8.49863E-19-3.65637E-18
 -1      3720 1.08967E-04-4.64302E-05-2.67774E-05-1.78999E-05-1.48474E-18-6.98655E-19
 -1      3721 9.11878E-05-1.98687E-05-3.05758E-05 3.97189E-06-1.00087E-18-1.49534E-18
 -1      3722 9.14557E-05-2.08383E-05-3.02597E-05 5.31757E-06-8.67500E-19-1.47750E-18
 -1      3723 8.96263E-05-1.99029E-05-2.98816E-05 5.75669E-06-6.43032E-19-1.29772E-18
 -1      3724 8.91946E-05-1.78506E-05-3.05759E-05 3.34263E-06-8.21135E-19-1.63708E-18
 -1      3725 9.52606E-05-2.85686E-05-2.85823E-05 4.79854E-09 1.99620E-18-8.33287E-19
 -1      3726 9.52607E-05-2.85684E-05-2.85825E-05 5.47591E-10 2.81921E-18 5.95681E-21
 -1      3727 9.52609E-05-2.85613E-05-2.85854E-05 4.60965E-09 2.15300E-18-1.37402E-18
 -1      3728 9.52579E-05-2.85705E-05-2.85804E-05-1.83981E-08 2.36644E-18 1.96581E-18
 -1      3729 9.52560E-05-2.85707E-05-2.85794E-05-2.22721E-08 1.21858E-18 2.79790E-19
 -1      3730 8.81862E-05-1.61865E-05-3.08366E-05-2.15741E-06 7.17686E-19-1.84520E-18
 -1      3731 6.25356E-05-2.05589E-05-1.76266E-05-2.16042E-05-1.30337E-18-2.49356E-18
 -1      3732 7.07369E-05-2.37533E-05-2.00491E-05-2.19280E-05-1.39546E-18-1.96369E-18
 -1      3733 6.04919E-05-1.75864E-05-1.82690E-05-1.59741E-05-9.25595E-19-2.58607E-18
 -1      3734 5.94834E-05-1.47764E-05-1.90442E-05-5.04170E-06 5.86200E-19 2.28199E-18
 -1      3735 5.75298E-05-1.53676E-05-1.77102E-05-1.15578E-05 6.42326E-19 1.70465E-18
 -1      3736 8.75173E-05-1.65428E-05-3.04300E-05 2.85325E-06-6.47701E-19-1.74087E-18
 -1      3737 8.77845E-05-1.75810E-05-3.00736E-05 3.98318E-06-5.94483E-19-1.49121E-18
 -1      3738 8.60877E-05-1.53732E-05-3.03167E-05 2.52513E-06-3.93110E-19-1.75694E-18
 -1      3739 1.14673E-04-4.95712E-05-2.79446E-05-1.38962E-05 1.26977E-18-1.90712E-18
 -1      3740 9.52609E-05-2.85611E-05-2.85855E-05-2.86262E-09 3.16322E-18-8.15004E-20
 -1      3741 9.52607E-05-2.85687E-05-2.85823E-05-3.45296E-09 3.42968E-18 7.98263E-20
 -1      3742 9.52603E-05-2.85687E-05-2.85821E-05-7.75767E-09 3.29564E-18 1.12595E-18
 -1      3743 9.49859E-05-2.50327E-05-2.99719E-05-7.16453E-06 5.25868E-19-1.33201E-18
 -1      3744 9.47559E-05-2.42204E-05-3.02221E-05-6.09677E-06 6.63591E-19-1.33106E-18
 -1      3745 9.33616E-05-2.43532E-05-2.95772E-05-7.97460E-06 3.58120E-19-1.48248E-18
 -1      3746 6.17959E-05-1.79904E-05-1.86621E-05-1.51979E-05 1.02833E-18 1.66630E-18
 -1      3747 7.20141E-05-2.28082E-05-2.09339E-05 1.96709E-05 8.95609E-19-2.36582E-18
 -1      3748 6.35287E-05-1.96326E-05-1.85321E-05 1.93975E-05 8.88207E-19-2.91234E-18
 -1      3749 6.13832E-05-1.68660E-05-1.89866E-05 1.34723E-05 4.61858E-19-2.60312E-18
 -1      3750 7.56429E-05-2.53601E-05-2.13457E-05-2.08975E-05 1.70897E-18 7.44039E-19
 -1      3751 8.10611E-05-2.84846E-05-2.24569E-05-2.12398E-05 1.57150E-18 1.09683E-18
 -1      3752 9.52557E-05-2.85641E-05-2.85820E-05-2.14204E-08 1.13528E-18 2.02169E-19
 -1      3753 9.52541E-05-2.85708E-05-2.85786E-05-2.54514E-08 4.89698E-20-2.57157E-18
 -1      3754 8.27731E-05-3.11748E-05-2.20274E-05-2.47513E-05-1.39427E-18-1.35362E-18
 -1      3755 8.80457E-05-3.55350E-05-2.23810E-05-2.66858E-05-1.72414E-18-1.38998E-18
 -1      3756 9.51021E-05-3.77687E-05-2.44547E-05-2.25722E-05-1.59172E-18-1.28172E-18
 -1      3757 8.52249E-05-3.04654E-05-2.33798E-05-2.10924E-05 1.70240E-18 1.27078E-18
 -1      3758 9.07359E-05-3.28508E-05-2.47299E-05-1.93804E-05 1.62352E-18 7.34027E-19
 -1      3759 8.83939E-05-2.97603E-05-2.51736E-05-1.75034E-05 1.23205E-18 9.93292E-19
 -1      3760 8.15150E-05-2.66856E-05-2.35706E-05-1.84821E-05 1.01790E-18 9.58636E-19
 -1      3761 8.76849E-05-1.99151E-05-2.90704E-05 6.96174E-06-5.08731E-19-1.21438E-18
 -1      3762 8.75988E-05-2.08117E-05-2.86083E-05 8.30362E-06-4.08160E-19-1.14848E-18
 -1      3763 1.14595E-04-4.79645E-05-2.85688E-05 1.00710E-05-9.14157E-19-1.52190E-18
 -1      3764 9.46785E-05-2.28103E-05-3.08027E-05-3.80064E-06 9.78121E-19-1.34141E-18
 -1      3765 9.41383E-05-2.30844E-05-3.04463E-05-5.08634E-06 7.61466E-19-1.36580E-18
 -1      3766 7.75521E-05-2.48291E-05-2.26052E-05 1.82704E-05-8.69455E-19 6.33151E-19
 -1      3767 7.17072E-05-2.05675E-05-2.18390E-05 1.50070E-05-5.22374E-19 1.87990E-18
 -1      3768 8.34524E-05-1.33074E-05-3.00747E-05 2.15248E-08-2.90163E-20-2.28847E-18
 -1      3769 8.37112E-05-1.35098E-05-3.01010E-05 6.17520E-07-2.01252E-19-2.08681E-18
 -1      3770 8.33697E-05-1.41300E-05-2.96415E-05-5.40811E-07-2.22971E-20-2.24290E-18
 -1      3771 8.63137E-05-2.71086E-05-2.53825E-05 1.72070E-05 7.16351E-19-1.12425E-18
 -1      3772 8.79888E-05-2.99028E-05-2.47968E-05 1.94294E-05 9.26737E-19-1.17361E-18
 -1      3773 1.20354E-04-5.28768E-05-2.88065E-05-1.11986E-05 1.67622E-18-2.30415E-18
 -1      3774 8.81811E-05-2.78658E-05-2.57979E-05-1.53311E-05 1.37507E-18 1.05501E-18
 -1      3775 8.72358E-05-2.61189E-05-2.62444E-05-1.37533E-05 1.10045E-18 8.71009E-19
 -1      3776 8.52138E-05-2.66109E-05-2.50763E-05-1.59958E-05 1.37115E-18 9.84342E-19
 -1      3777 8.75940E-05-2.51369E-05-2.67382E-05-1.21521E-05 3.30057E-19 6.55412E-19
 -1      3778 8.73908E-05-2.42417E-05-2.71061E-05-1.09171E-05-1.41744E-19 2.75236E-19
 -1      3779 8.53793E-05-2.41181E-05-2.62295E-05-1.22769E-05 4.35975E-19 6.97901E-19
 -1      3780 8.79863E-05-2.38435E-05-2.74734E-05-9.74194E-06 1.43420E-19 5.44021E-19
 -1      3781 8.81652E-05-2.34852E-05-2.77496E-05-8.78345E-06 3.41485E-19 3.51024E-19
 -1      3782 8.63186E-05-2.30184E-05-2.71077E-05-9.61461E-06-5.49136E-20 6.84479E-19
 -1      3783 8.88218E-05-2.34419E-05-2.80112E-05-7.89904E-06-1.49153E-20 2.49919E-19
 -1      3784 8.91680E-05-2.34031E-05-2.82056E-05-7.13833E-06-6.18691E-19-5.83336E-19
 -1      3785 8.75431E-05-2.27650E-05-2.77453E-05-7.67426E-06-7.17772E-20 4.25800E-19
 -1      3786 8.98042E-05-2.35653E-05-2.83837E-05-6.44138E-06-5.28369E-19-9.76461E-19
 -1      3787 9.02026E-05-2.37100E-05-2.85115E-05-5.81754E-06-3.54963E-19-1.17143E-18
 -1      3788 8.88053E-05-2.29957E-05-2.81908E-05-6.20016E-06-7.28068E-19-3.68226E-19
 -1      3789 9.07805E-05-2.39817E-05-2.86262E-05-5.25043E-06-3.94965E-19-1.28992E-18
 -1      3790 9.11700E-05-2.42205E-05-2.87033E-05-4.72711E-06-1.17749E-19-1.51700E-18
 -1      3791 8.99925E-05-2.34961E-05-2.84877E-05-5.02896E-06-4.71636E-19 1.68887E-19
 -1      3792 9.16728E-05-2.45378E-05-2.87715E-05-4.25623E-06-5.80784E-19-1.90754E-18
 -1      3793 9.20232E-05-2.48139E-05-2.88119E-05-3.81195E-06-1.24847E-18-2.00287E-18
 -1      3794 9.10494E-05-2.41234E-05-2.86740E-05-4.06942E-06-8.45568E-19-2.01566E-18
 -1      3795 9.24484E-05-2.51378E-05-2.88473E-05-3.41771E-06-1.51798E-18-2.22923E-18
 -1      3796 9.27484E-05-2.54170E-05-2.88625E-05-3.04099E-06-9.41000E-19-3.37889E-18
 -1      3797 9.19563E-05-2.47855E-05-2.87805E-05-3.26850E-06-1.50285E-18-1.48886E-18
 -1      3798 9.30986E-05-2.57225E-05-2.88757E-05-2.71247E-06 2.50159E-19-3.72054E-18
 -1      3799 9.33461E-05-2.59835E-05-2.88745E-05-2.39529E-06 7.24471E-19-3.72660E-18
 -1      3800 9.27134E-05-2.54270E-05-2.88314E-05-2.59803E-06-2.45724E-19-2.37532E-18
 -1      3801 9.36289E-05-2.62580E-05-2.88735E-05-2.12307E-06 1.04576E-18-3.32045E-18
 -1      3802 9.38277E-05-2.64909E-05-2.88624E-05-1.85903E-06 8.44247E-19-2.89057E-18
 -1      3803 9.33302E-05-2.60132E-05-2.88457E-05-2.03838E-06 1.00621E-18-2.45502E-18
 -1      3804 9.40519E-05-2.67290E-05-2.88529E-05-1.63641E-06-1.68280E-19-3.04548E-18
 -1      3805 9.42081E-05-2.69297E-05-2.88366E-05-1.41978E-06-8.30652E-19-2.56289E-18
 -1      3806 9.38235E-05-2.65293E-05-2.88368E-05-1.57562E-06 7.50476E-20-2.75687E-18
 -1      3807 9.43825E-05-2.71305E-05-2.88225E-05-1.24029E-06-1.02388E-18-2.78903E-18
 -1      3808 9.45027E-05-2.72988E-05-2.88040E-05-1.06519E-06-8.56560E-19-3.51990E-18
 -1      3809 9.42106E-05-2.69702E-05-2.88145E-05-1.19816E-06-7.65500E-19-2.63424E-18
 -1      3810 9.46362E-05-2.74644E-05-2.87880E-05-9.22653E-07 7.85840E-20-3.13741E-18
 -1      3811 9.47270E-05-2.76025E-05-2.87694E-05-7.83523E-07 3.87587E-20-2.53452E-18
 -1      3812 9.45090E-05-2.73377E-05-2.87855E-05-8.94599E-07-2.68570E-20-2.19935E-18
 -1      3813 9.48271E-05-2.77361E-05-2.87534E-05-6.72334E-07 3.20547E-19-2.79945E-18
 -1      3814 9.48942E-05-2.78469E-05-2.87359E-05-5.63562E-07 7.36160E-19-2.20931E-18
 -1      3815 9.47349E-05-2.76378E-05-2.87543E-05-6.54627E-07 2.03991E-19-2.86484E-18
 -1      3816 9.49678E-05-2.79526E-05-2.87208E-05-4.78070E-07-2.06915E-19-1.40341E-18
 -1      3817 9.50163E-05-2.80400E-05-2.87052E-05-3.94401E-07-1.12640E-19-9.83593E-19
 -1      3818 9.49025E-05-2.78776E-05-2.87237E-05-4.67798E-07 3.77082E-19-1.32063E-18
 -1      3819 9.50693E-05-2.81222E-05-2.86916E-05-3.29837E-07 5.25077E-19-8.26671E-19
 -1      3820 9.51035E-05-2.81898E-05-2.86780E-05-2.66600E-07 6.10046E-19 8.90165E-19
 -1      3821 9.50243E-05-2.80659E-05-2.86955E-05-3.24696E-07 5.24218E-19 1.10559E-19
 -1      3822 9.51407E-05-2.82527E-05-2.86663E-05-2.18768E-07 1.17320E-18 1.29461E-18
 -1      3823 9.51640E-05-2.83041E-05-2.86548E-05-1.71860E-07 2.12590E-18 6.90000E-19
 -1      3824 9.51108E-05-2.82112E-05-2.86705E-05-2.17074E-07 1.26820E-18 1.52399E-18
 -1      3825 9.51892E-05-2.83512E-05-2.86448E-05-1.37149E-07 1.91839E-18 3.51732E-19
 -1      3826 9.52045E-05-2.83896E-05-2.86353E-05-1.03060E-07 1.88304E-18 6.49529E-19
 -1      3827 9.51702E-05-2.83214E-05-2.86490E-05-1.37680E-07 1.61827E-18 1.56211E-20
 -1      3828 9.52208E-05-2.84242E-05-2.86271E-05-7.84663E-08 2.98807E-18 1.34258E-18
 -1      3829 9.52302E-05-2.84523E-05-2.86193E-05-5.42730E-08 2.40886E-18 9.71905E-19
 -1      3830 9.52095E-05-2.84032E-05-2.86309E-05-8.03460E-08 2.69323E-18 1.52401E-18
 -1      3831 9.52400E-05-2.84773E-05-2.86126E-05-3.73295E-08 3.40140E-19 6.95604E-19
 -1      3832 9.52453E-05-2.84975E-05-2.86064E-05-2.06705E-08-2.89454E-19 1.32560E-18
 -1      3833 9.52341E-05-2.84630E-05-2.86160E-05-3.99390E-08 7.89395E-19 1.13206E-18
 -1      3834 9.52505E-05-2.85150E-05-2.86009E-05-9.44673E-09-6.15422E-19 1.26037E-18
 -1      3835 9.52529E-05-2.85295E-05-2.85959E-05 1.84182E-09-8.91722E-19 1.04469E-18
 -1      3836 9.52481E-05-2.85056E-05-2.86038E-05-1.24741E-08-7.21244E-19 1.64775E-18
 -1      3837 9.52552E-05-2.85419E-05-2.85914E-05 8.47275E-09 9.11565E-20 1.19644E-18
 -1      3838 9.52555E-05-2.85515E-05-2.85875E-05 1.53960E-08 7.25100E-19 2.82610E-18
 -1      3839 9.52549E-05-2.85366E-05-2.85937E-05 5.62258E-09 4.17968E-19 1.06103E-18
 -1      3840 9.52573E-05-2.85598E-05-2.85847E-05 1.73127E-08-2.96869E-19 1.96080E-18
 -1      3841 9.52598E-05-2.85693E-05-2.85817E-05-1.09821E-08 3.22431E-18 1.83150E-18
 -1      3842 9.52589E-05-2.85696E-05-2.85811E-05-1.51580E-08 2.44898E-18 2.24675E-18
 -1      3843 9.52587E-05-2.85632E-05-2.85837E-05-1.55601E-08 3.12331E-18 2.70531E-18
 -1      3844 9.52602E-05-2.85619E-05-2.85849E-05-9.54841E-09 3.59682E-18 2.44605E-18
 -1      3845 9.07477E-05-2.48903E-05-2.82370E-05 7.94421E-06-7.95282E-19 6.87449E-19
 -1      3846 9.08806E-05-2.52928E-05-2.80882E-05 8.68813E-06-1.20062E-18 3.94205E-19
 -1      3847 9.06722E-05-2.57375E-05-2.78397E-05 9.67389E-06-1.26185E-18 2.89905E-19
 -1      3848 9.11733E-05-2.65944E-05-2.76443E-05 1.05208E-05-1.31763E-18 2.58379E-19
 -1      3849 8.88040E-05-2.44126E-05-2.76003E-05 9.03630E-06-1.31895E-18 5.80873E-19
 -1      3850 9.17562E-05-2.48021E-05-2.87059E-05 5.29899E-06-1.42484E-18 1.10368E-18
 -1      3851 9.15951E-05-2.47402E-05-2.86434E-05 5.86127E-06-1.07376E-18 1.18338E-18
 -1      3852 9.23632E-05-2.51504E-05-2.88156E-05 4.28088E-06-9.73488E-19 1.35263E-18
 -1      3853 9.21692E-05-2.49931E-05-2.87839E-05 4.76751E-06-1.06470E-18 1.38170E-18
 -1      3854 9.10515E-05-2.43004E-05-2.86000E-05 4.72044E-06-1.40397E-18 6.36688E-19
 -1      3855 9.29352E-05-2.55944E-05-2.88691E-05 3.42206E-06 3.16450E-19 3.37585E-19
 -1      3856 9.27424E-05-2.53934E-05-2.88596E-05 3.83929E-06-7.15560E-20 1.44100E-18
 -1      3857 9.18437E-05-2.47817E-05-2.87336E-05 3.78223E-06-5.01794E-19 9.07132E-19
 -1      3858 9.34401E-05-2.60618E-05-2.88839E-05 2.70204E-06 3.89692E-19 1.18541E-18
 -1      3859 9.32661E-05-2.58506E-05-2.88890E-05 3.05569E-06 2.83112E-19 7.29247E-19
 -1      3860 9.25510E-05-2.53218E-05-2.88061E-05 3.00527E-06 1.81983E-19 1.19645E-18
 -1      3861 9.38672E-05-2.65099E-05-2.88736E-05 2.10365E-06 3.34451E-19 2.22744E-18
 -1      3862 9.37188E-05-2.63079E-05-2.88876E-05 2.39939E-06 6.47240E-19 2.08557E-18
 -1      3863 9.31567E-05-2.58600E-05-2.88361E-05 2.36199E-06 1.83113E-19 1.99395E-18
 -1      3864 9.42174E-05-2.69161E-05-2.88486E-05 1.61267E-06 7.67431E-19 1.81475E-18
 -1      3865 9.40958E-05-2.67335E-05-2.88672E-05 1.85604E-06 4.66923E-19 2.33982E-18
 -1      3866 9.36603E-05-2.63611E-05-2.88381E-05 1.83180E-06 5.55831E-19 2.61134E-18
 -1      3867 9.44966E-05-2.72692E-05-2.88159E-05 1.21550E-06 4.46526E-19 1.88396E-18
 -1      3868 9.44000E-05-2.71108E-05-2.88362E-05 1.41268E-06 1.12912E-18 1.59550E-18
 -1      3869 9.40683E-05-2.68072E-05-2.88227E-05 1.39993E-06 7.47582E-19 3.58407E-18
 -1      3870 9.47140E-05-2.75672E-05-2.87805E-05 8.99118E-07-6.59731E-19 2.61861E-18
 -1      3871 9.46394E-05-2.74339E-05-2.88007E-05 1.05616E-06-2.50693E-19 2.61415E-18
 -1      3872 9.43911E-05-2.71907E-05-2.87974E-05 1.05219E-06-1.89944E-19 2.95446E-18
 -1      3873 9.48793E-05-2.78118E-05-2.87458E-05 6.51130E-07-9.86031E-20 2.48486E-18
 -1      3874 9.48232E-05-2.77026E-05-2.87645E-05 7.74174E-07-5.38298E-19 2.26727E-18
 -1      3875 9.46409E-05-2.75114E-05-2.87677E-05 7.76386E-07-4.13648E-19 2.89085E-18
 -1      3876 9.50020E-05-2.80080E-05-2.87137E-05 4.59675E-07-2.15599E-18 2.80226E-18
 -1      3877 9.49609E-05-2.79206E-05-2.87304E-05 5.54547E-07-8.34145E-19 2.51593E-18
 -1      3878 9.48301E-05-2.77730E-05-2.87372E-05 5.60848E-07-1.14006E-18 2.89913E-18
 -1      3879 9.50911E-05-2.81624E-05-2.86852E-05 3.14320E-07-2.06757E-18 2.70999E-18
 -1      3880 9.50618E-05-2.80938E-05-2.86996E-05 3.86182E-07-1.84098E-18 2.68098E-18
 -1      3881 9.49702E-05-2.79817E-05-2.87083E-05 3.94721E-07-1.89370E-18 1.79637E-18
 -1      3882 9.51539E-05-2.82815E-05-2.86607E-05 2.05996E-07-1.56648E-18 1.59245E-18
 -1      3883 9.51337E-05-2.82287E-05-2.86728E-05 2.59429E-07-1.57843E-18 2.26670E-18
 -1      3884 9.50717E-05-2.81453E-05-2.86820E-05 2.68918E-07-1.38927E-18 1.07577E-18
 -1      3885 9.51966E-05-2.83716E-05-2.86401E-05 1.26841E-07-4.70922E-20 5.48207E-19
 -1      3886 9.51833E-05-2.83317E-05-2.86500E-05 1.65776E-07-1.17804E-18 1.06567E-18
 -1      3887 9.51430E-05-2.82709E-05-2.86590E-05 1.75370E-07-4.56601E-19 7.22473E-19
 -1      3888 9.52244E-05-2.84384E-05-2.86231E-05 7.02786E-08 8.04858E-19 5.54817E-19
 -1      3889 9.52161E-05-2.84089E-05-2.86312E-05 9.79995E-08 1.92156E-19-2.25435E-19
 -1      3890 9.51914E-05-2.83655E-05-2.86393E-05 1.07152E-07 1.43695E-19-8.71039E-19
 -1      3891 9.52412E-05-2.84869E-05-2.86094E-05 3.09213E-08 2.06374E-18 1.63713E-18
 -1      3892 9.52365E-05-2.84655E-05-2.86158E-05 5.01140E-08 2.03780E-18 8.48702E-19
 -1      3893 9.52228E-05-2.84354E-05-2.86230E-05 5.85168E-08 1.34120E-18-9.88396E-19
 -1      3894 9.52503E-05-2.85215E-05-2.85983E-05 4.48090E-09 1.67780E-18 1.54312E-18
 -1      3895 9.52481E-05-2.85062E-05-2.86034E-05 1.72717E-08 2.25014E-18 2.22253E-18
 -1      3896 9.52417E-05-2.84859E-05-2.86095E-05 2.47661E-08 1.36467E-18 2.06451E-18
 -1      3897 9.52542E-05-2.85458E-05-2.85894E-05-1.22835E-08 2.34195E-18-1.50818E-19
 -1      3898 9.52536E-05-2.85351E-05-2.85935E-05-4.34145E-09 2.18159E-18 9.87938E-19
 -1      3899 9.52518E-05-2.85219E-05-2.85985E-05 2.19773E-09 2.88550E-18 3.59660E-18
 -1      3900 1.04136E-04-4.22167E-05-2.64228E-05-1.84782E-05-1.60027E-18-1.05474E-18
 -1      3901 8.55476E-05-3.09505E-05-2.33408E-05 2.25108E-05 1.18094E-18-1.37096E-18
 -1      3902 8.90924E-05-1.78892E-05-3.05146E-05-3.29090E-06 6.72486E-19-1.67108E-18
 -1      3903 8.75014E-05-1.66130E-05-3.04033E-05-3.12693E-06 5.45439E-19-1.82176E-18
 -1      3904 8.68967E-05-1.69736E-05-2.99473E-05-3.80003E-06 4.29920E-19-1.82996E-18
 -1      3905 9.02439E-05-1.96643E-05-3.02334E-05-4.54401E-06 6.45915E-19-1.48437E-18
 -1      3906 6.13528E-05-1.43361E-05-2.00520E-05-4.54428E-07 3.45464E-19 2.15850E-18
 -1      3907 6.37530E-05-1.56563E-05-2.06059E-05-6.46867E-06 3.82097E-19 2.15258E-18
 -1      3908 6.78219E-05-1.78939E-05-2.14515E-05 1.14945E-05-8.73767E-20 2.10775E-18
 -1      3909 6.32776E-05-1.51662E-05-2.05350E-05 5.18304E-06 1.81148E-19 1.28938E-18
 -1      3910 6.73543E-05-1.59664E-05-2.19313E-05 3.16415E-06-1.55778E-19 1.05619E-18
 -1      3911 6.58748E-05-1.99894E-05-1.93912E-05-1.77325E-05 1.39159E-18 9.56035E-19
 -1      3912 7.08785E-05-2.29757E-05-2.04642E-05-1.95779E-05 1.70404E-18 4.19122E-19
 -1      3913 6.59058E-05-1.82796E-05-2.03963E-05-1.34097E-05 8.83522E-19 6.53208E-19
 -1      3914 9.26254E-05-2.23203E-05-3.01425E-05-5.80141E-06 6.85664E-19-1.39055E-18
 -1      3915 9.13113E-05-2.75629E-05-2.73238E-05 1.17547E-05-1.03102E-18 5.26644E-19
 -1      3916 9.24349E-05-2.90804E-05-2.70998E-05 1.26707E-05-6.14445E-19 5.59827E-19
 -1      3917 8.86447E-05-2.57161E-05-2.69889E-05 1.13197E-05-9.51587E-19 9.78222E-19
 -1      3918 7.89660E-05-2.59443E-05-2.26202E-05 2.09322E-05 9.10560E-19-1.77891E-18
 -1      3919 9.11775E-05-2.46593E-05-2.85200E-05 6.50554E-06-9.85103E-19 7.28275E-19
 -1      3920 9.11109E-05-2.47716E-05-2.84177E-05 7.15320E-06-7.20735E-19 4.31096E-19
 -1      3921 9.02149E-05-2.39718E-05-2.83832E-05 5.85982E-06-1.45423E-18 5.44230E-20
 -1      3922 7.35257E-05-2.25633E-05-2.18800E-05-1.73518E-05 1.16527E-18 3.72324E-19
 -1      3923 9.52504E-05-2.85706E-05-2.85771E-05-2.88168E-08 7.51951E-19-1.65983E-18
 -1      3924 1.00944E-04-3.41771E-05-2.85830E-05-1.18698E-05-5.75934E-19-1.13909E-18
 -1      3925 9.90229E-05-3.19425E-05-2.87038E-05-1.17032E-05-2.38563E-19-1.15835E-18
 -1      3926 9.59879E-05-2.99937E-05-2.83408E-05-1.23493E-05-1.36734E-19-1.24719E-18
 -1      3927 9.89926E-05-3.39426E-05-2.79571E-05-1.37409E-05-6.46567E-19-1.33428E-18
 -1      3928 8.77216E-05-1.83030E-05-2.97606E-05 4.81511E-06-5.95341E-19-1.36826E-18
 -1      3929 8.78635E-05-1.92300E-05-2.94019E-05 6.01035E-06-5.06527E-19-1.24247E-18
 -1      3930 8.58167E-05-1.83029E-05-2.89339E-05 5.84279E-06-5.24128E-19-1.17923E-18
 -1      3931 8.60898E-05-1.69964E-05-2.95998E-05 4.19300E-06-3.40430E-19-1.35219E-18
 -1      3932 9.52555E-05-2.85585E-05-2.85845E-05-1.90317E-08 1.32252E-18 5.91697E-19
 -1      3933 9.52551E-05-2.85524E-05-2.85867E-05-1.59456E-08 1.56345E-18 9.25060E-20
 -1      3934 9.52560E-05-2.85444E-05-2.85908E-05-1.04196E-08 2.24186E-18 4.66916E-18
 -1      3935 9.52573E-05-2.85583E-05-2.85854E-05-1.65707E-08 1.99247E-18 4.64230E-18
 -1      3936 8.69218E-05-2.15905E-05-2.80254E-05 9.73851E-06-3.53394E-19-1.23300E-18
 -1      3937 8.69958E-05-2.27210E-05-2.75113E-05 1.12356E-05-1.66243E-19-1.17239E-18
 -1      3938 8.50454E-05-1.96524E-05-2.80000E-05 8.25251E-06-4.07369E-19-1.20744E-18
 -1      3939 1.00040E-04-3.88766E-05-2.61611E-05 1.69435E-05-1.92103E-18-1.34103E-19
 -1      3940 9.40567E-05-3.66327E-05-2.46268E-05 2.09281E-05-2.27876E-18 5.43689E-19
 -1      3941 8.58608E-05-3.07721E-05-2.35695E-05 2.05587E-05-2.04949E-18 8.78797E-21
 -1      3942 9.64792E-05-3.52908E-05-2.61818E-05 1.65263E-05-1.97346E-18 3.71963E-19
 -1      3943 8.41989E-05-1.38868E-05-3.01479E-05 1.35384E-06-2.07772E-19-1.99673E-18
 -1      3944 8.50790E-05-1.45847E-05-3.02249E-05 1.87705E-06-3.05456E-19-1.98735E-18
 -1      3945 8.50927E-05-1.54989E-05-2.98209E-05 2.73332E-06-1.42015E-19-1.77712E-18
 -1      3946 8.37855E-05-1.44261E-05-2.96869E-05 1.26447E-06-1.16182E-20-2.01364E-18
 -1      3947 8.62448E-05-2.37460E-05-2.68130E-05 1.30426E-05 1.18243E-19-1.30214E-18
 -1      3948 8.68189E-05-2.54512E-05-2.62366E-05 1.48330E-05 4.45570E-19-1.22509E-18
 -1      3949 8.21623E-05-2.36917E-05-2.50396E-05 1.56505E-05 5.76240E-19-1.38879E-18
 -1      3950 8.35467E-05-2.12726E-05-2.66690E-05 1.13904E-05-4.61596E-20-1.49409E-18
 -1      3951 9.83577E-05-3.87596E-05-2.55998E-05-2.05657E-05-1.44983E-18-1.15329E-18
 -1      3952 1.02812E-04-3.96107E-05-2.70034E-05-1.64420E-05-1.48980E-18-8.42090E-19
 -1      3953 9.93710E-05-3.61295E-05-2.70463E-05-1.61539E-05-1.14899E-18-1.08456E-18
 -1      3954 9.39536E-05-3.52751E-05-2.51311E-05-2.05232E-05-1.30110E-18-1.15711E-18
 -1      3955 6.05744E-05-1.49131E-05-1.92757E-05 8.98551E-06 3.15275E-19-2.37368E-18
 -1      3956 6.12859E-05-1.44811E-05-2.00170E-05 3.75153E-06-1.13582E-19-2.25279E-18
 -1      3957 6.69114E-05-1.74400E-05-2.11363E-05 1.20159E-05 6.49017E-19-2.14204E-18
 -1      3958 7.31799E-05-1.97853E-05-2.27607E-05 1.18550E-05-2.41328E-19 1.54293E-18
 -1      3959 8.44238E-05-1.60498E-05-2.93013E-05-3.48739E-06 2.91869E-19-1.93013E-18
 -1      3960 8.34024E-05-1.53043E-05-2.92118E-05-2.59555E-06 1.41231E-19-2.04784E-18
 -1      3961 9.52589E-05-2.85551E-05-2.85874E-05 1.16216E-08 2.65885E-19 2.17961E-19
 -1      3962 9.52597E-05-2.85541E-05-2.85882E-05 8.20869E-09 1.15263E-18-1.49872E-18
 -1      3963 7.50331E-05-2.24478E-05-2.25529E-05 1.74912E-05 7.21163E-19-2.09258E-18
 -1      3964 7.88011E-05-2.74416E-05-2.17931E-05-2.30582E-05-1.29200E-18-1.58418E-18
 -1      3965 8.62868E-05-3.08552E-05-2.37021E-05-2.16899E-05-1.10009E-18-1.42253E-18
 -1      3966 7.51371E-05-2.40410E-05-2.18655E-05-1.97933E-05-1.06215E-18-1.80601E-18
 -1      3967 9.06589E-05-2.07998E-05-2.99365E-05-5.60155E-06 6.75051E-19-1.39131E-18
 -1      3968 8.87753E-05-1.93498E-05-2.97750E-05-5.38402E-06 4.97495E-19-1.39313E-18
 -1      3969 9.12136E-05-2.19613E-05-2.96804E-05-6.68759E-06 5.09679E-19-1.40429E-18
 -1      3970 8.94161E-05-2.39385E-05-2.80582E-05 7.26699E-06-9.16056E-19 1.32833E-19
 -1      3971 6.02624E-05-1.55263E-05-1.88834E-05-1.10979E-05-8.24997E-19-2.63239E-18
 -1      3972 6.64312E-05-1.80627E-05-2.07154E-05-1.36831E-05-9.06873E-19-2.27852E-18
 -1      3973 6.13206E-05-1.46726E-05-1.99679E-05-5.72882E-06-4.76727E-19-2.36282E-18
 -1      3974 9.52592E-05-2.85558E-05-2.85872E-05-1.10320E-08 3.32074E-18 1.60936E-18
 -1      3975 9.52583E-05-2.85567E-05-2.85864E-05-1.38556E-08 3.06213E-18 3.14390E-18
 -1      3976 9.52579E-05-2.85498E-05-2.85891E-05-1.15038E-08 2.78402E-18 4.40100E-18
 -1      3977 6.69582E-05-1.59884E-05-2.18208E-05-5.20993E-06-1.41115E-19 2.33984E-18
 -1      3978 6.58867E-05-1.65426E-05-2.09745E-05-9.09189E-06 2.80962E-19 1.50650E-18
 -1      3979 6.87869E-05-1.83038E-05-2.15890E-05-1.15569E-05 4.62971E-19 4.39438E-19
 -1      3980 9.52600E-05-2.85516E-05-2.85894E-05-6.05819E-10 2.42393E-18-4.31537E-20
 -1      3981 9.52598E-05-2.85519E-05-2.85892E-05-3.90886E-09 2.74833E-18-1.55957E-19
 -1      3982 9.12947E-05-2.28143E-05-2.93390E-05-7.77393E-06 3.36534E-19-1.30563E-18
 -1      3983 9.29693E-05-3.05465E-05-2.67444E-05 1.40721E-05-5.35147E-19 3.56165E-19
 -1      3984 9.50578E-05-3.29320E-05-2.65504E-05 1.49059E-05-9.80773E-19 3.37582E-19
 -1      3985 9.08637E-05-3.15625E-05-2.54409E-05 1.72849E-05-1.32944E-18 2.53263E-19
 -1      3986 8.91850E-05-2.79781E-05-2.62545E-05 1.40385E-05-5.02343E-19 5.38410E-19
 -1      3987 8.72127E-05-1.81525E-05-2.95900E-05-4.88225E-06 4.58821E-19-1.59642E-18
 -1      3988 8.56484E-05-1.69912E-05-2.94503E-05-4.32277E-06 2.97711E-19-1.79889E-18
 -1      3989 8.47065E-05-1.71544E-05-2.89244E-05-4.64440E-06 2.41087E-19-1.77631E-18
 -1      3990 8.74799E-05-1.91974E-05-2.92653E-05-6.00315E-06 4.24440E-19-1.58271E-18
 -1      3991 7.88813E-05-2.34727E-05-2.36609E-05-1.57633E-05 1.01400E-18 3.41939E-19
 -1      3992 8.24321E-05-2.52216E-05-2.44712E-05-1.57426E-05 1.21199E-18 2.05111E-19
 -1      3993 8.22696E-05-2.37769E-05-2.51405E-05-1.36920E-05 1.37878E-18 8.04756E-20
 -1      3994 8.77902E-05-2.98706E-05-2.47665E-05 1.76257E-05-1.58755E-18-5.19999E-20
 -1      3995 8.16948E-05-2.69697E-05-2.33843E-05 1.86348E-05-1.40360E-18-3.03772E-19
 -1      3996 7.99692E-05-2.43608E-05-2.38657E-05 1.58545E-05-1.04886E-18-8.53422E-19
 -1      3997 8.64789E-05-2.78286E-05-2.52029E-05 1.58610E-05-6.14668E-19 5.41307E-20
 -1      3998 9.21390E-05-2.58790E-05-2.83703E-05-1.09462E-05-1.27306E-19-1.22360E-18
 -1      3999 9.14292E-05-2.44006E-05-2.87330E-05-9.71195E-06-3.76127E-20-1.28921E-18
 -1      4000 7.19461E-05-1.97202E-05-2.22406E-05-1.34238E-05 8.26755E-19 4.45553E-20
 -1      4001 7.57216E-05-2.19624E-05-2.29947E-05-1.48461E-05 7.44218E-19 4.97830E-19
 -1      4002 7.67331E-05-2.09868E-05-2.39594E-05-1.24806E-05 6.64539E-19-1.02757E-19
 -1      4003 7.11446E-05-1.82212E-05-2.27355E-05-9.71764E-06 3.80030E-19 5.69927E-20
 -1      4004 9.52598E-05-2.85524E-05-2.85889E-05 5.35286E-09 1.11045E-18-1.45772E-18
 -1      4005 9.52600E-05-2.85519E-05-2.85893E-05 2.05862E-09 1.20692E-18-6.92507E-19
 -1      4006 9.52588E-05-2.85429E-05-2.85923E-05 5.17575E-09 7.28008E-19-1.64220E-18
 -1      4007 9.52573E-05-2.85501E-05-2.85888E-05 1.26585E-08 6.85771E-19 1.26542E-18
 -1      4008 8.92421E-05-2.19448E-05-2.88307E-05-8.34514E-06 2.55531E-19-1.19459E-18
 -1      4009 9.52588E-05-2.85411E-05-2.85931E-05 4.99402E-10 1.11753E-18-1.04561E-18
 -1      4010 8.73681E-05-2.06728E-05-2.86000E-05-7.86661E-06 1.54832E-19-1.48078E-18
 -1      4011 9.52560E-05-2.85323E-05-2.85960E-05 3.52007E-09 1.33108E-18-1.42530E-18
 -1      4012 9.52560E-05-2.85304E-05-2.85969E-05 1.35661E-09 9.59581E-19-1.86873E-18
 -1      4013 8.33828E-05-2.31063E-05-2.58127E-05-1.18557E-05 6.39897E-19 4.11802E-20
 -1      4014 8.37565E-05-2.24522E-05-2.63288E-05-1.04192E-05-5.40792E-19-4.58709E-20
 -1      4015 8.09464E-05-2.18633E-05-2.52760E-05-1.15217E-05 7.31309E-19-7.90018E-19
 -1      4016 8.48397E-05-2.22574E-05-2.68115E-05-9.16083E-06-4.73157E-19 7.90706E-19
 -1      4017 8.54375E-05-2.20766E-05-2.71902E-05-8.13419E-06 1.00440E-19 6.89244E-20
 -1      4018 8.31025E-05-2.13315E-05-2.64403E-05-8.71147E-06-2.01930E-19 3.60651E-20
 -1      4019 8.64173E-05-2.21685E-05-2.75319E-05-7.25421E-06 8.58924E-20-1.13193E-19
 -1      4020 8.70682E-05-2.22531E-05-2.78010E-05-6.49401E-06-6.14674E-19-2.97609E-19
 -1      4021 8.51426E-05-2.14659E-05-2.72673E-05-6.79127E-06-2.78064E-19-1.32672E-19
 -1      4022 8.79303E-05-2.25085E-05-2.80374E-05-5.83358E-06-6.42691E-19 3.72806E-19
 -1      4023 8.85596E-05-2.27471E-05-2.82209E-05-5.23999E-06-4.31796E-19 3.46673E-20
 -1      4024 8.69598E-05-2.19437E-05-2.78473E-05-5.41470E-06-2.91054E-19 3.32706E-19
 -1      4025 8.93053E-05-2.30909E-05-2.83787E-05-4.72274E-06-6.70687E-19-3.07805E-19
 -1      4026 8.98764E-05-2.34067E-05-2.84976E-05-4.24155E-06-1.39492E-18-8.14778E-19
 -1      4027 8.85514E-05-2.26224E-05-2.82425E-05-4.36258E-06-7.14657E-19-7.48243E-19
 -1      4028 9.05076E-05-2.37830E-05-2.85980E-05-3.82298E-06-1.10318E-18-7.44230E-19
 -1      4029 9.10033E-05-2.41246E-05-2.86698E-05-3.42202E-06-7.44832E-19-1.58338E-18
 -1      4030 8.99162E-05-2.33888E-05-2.85018E-05-3.52599E-06-1.48764E-18-1.06997E-18
 -1      4031 9.15301E-05-2.45003E-05-2.87290E-05-3.07440E-06-1.05637E-18-5.61299E-19
 -1      4032 9.19492E-05-2.48384E-05-2.87672E-05-2.73718E-06-1.65937E-18-5.25075E-20
 -1      4033 9.10635E-05-2.41655E-05-2.86624E-05-2.83734E-06-6.10560E-19 5.08936E-20
 -1      4034 9.23803E-05-2.51901E-05-2.87978E-05-2.44943E-06-9.93549E-19-7.61330E-19
 -1      4035 9.27247E-05-2.55028E-05-2.88135E-05-2.16597E-06 2.62720E-19-1.39432E-18
 -1      4036 9.20139E-05-2.49087E-05-2.87531E-05-2.26448E-06-1.09514E-18 4.03270E-19
 -1      4037 9.30728E-05-2.58185E-05-2.88251E-05-1.92661E-06 8.40761E-19-1.66730E-18
 -1      4038 9.33506E-05-2.60971E-05-2.88261E-05-1.68992E-06 7.68813E-19-1.93852E-18
 -1      4039 9.27868E-05-2.55835E-05-2.87964E-05-1.78577E-06 4.26534E-19-7.92162E-19
 -1      4040 9.36274E-05-2.63718E-05-2.88254E-05-1.49340E-06 3.63881E-19-3.01839E-18
 -1      4041 9.38474E-05-2.66124E-05-2.88175E-05-1.29845E-06-3.93483E-19-2.75508E-18
 -1      4042 9.34069E-05-2.61784E-05-2.88082E-05-1.38810E-06-6.36805E-20-2.30847E-18
 -1      4043 9.40636E-05-2.68447E-05-2.88094E-05-1.13934E-06-8.24798E-19-2.41921E-18
 -1      4044 9.42343E-05-2.70467E-05-2.87965E-05-9.80864E-07-4.75872E-19-2.24074E-18
 -1      4045 9.38961E-05-2.66881E-05-2.88002E-05-1.06241E-06-2.39948E-19-2.48426E-18
 -1      4046 9.44007E-05-2.72393E-05-2.87844E-05-8.53441E-07-1.78388E-19-1.78038E-18
 -1      4047 9.45312E-05-2.74059E-05-2.87694E-05-7.26791E-07-1.32452E-19-1.88737E-18
 -1      4048 9.42753E-05-2.71142E-05-2.87808E-05-7.98688E-07-1.76396E-19-1.86182E-18
 -1      4049 9.46567E-05-2.75619E-05-2.87557E-05-6.26969E-07 6.27484E-19-1.95632E-18
 -1      4050 9.47544E-05-2.76959E-05-2.87404E-05-5.27354E-07 7.56577E-19-1.69096E-18
 -1      4051 9.45647E-05-2.74639E-05-2.87556E-05-5.89034E-07 4.98957E-19-1.69288E-18
 -1      4052 9.48473E-05-2.78200E-05-2.87266E-05-4.49955E-07 4.86407E-19-1.02518E-18
 -1      4053 9.49191E-05-2.79261E-05-2.87121E-05-3.72810E-07 6.16716E-19-1.88989E-19
 -1      4054 9.47811E-05-2.77444E-05-2.87286E-05-4.24664E-07 9.84256E-19-3.51793E-19
 -1      4055 9.49866E-05-2.80231E-05-2.86991E-05-3.13942E-07 5.54017E-19 7.84071E-20
 -1      4056 9.50381E-05-2.81055E-05-2.86860E-05-2.55255E-07 3.41750E-19 8.63673E-19
 -1      4057 9.49402E-05-2.79657E-05-2.87023E-05-2.97833E-07 9.09943E-19 3.18280E-19
 -1      4058 9.50859E-05-2.81800E-05-2.86743E-05-2.11337E-07 7.65844E-19 7.99378E-19
 -1      4059 9.51219E-05-2.82429E-05-2.86628E-05-1.67510E-07 5.01830E-19-2.70550E-19
 -1      4060 9.50544E-05-2.81373E-05-2.86780E-05-2.01832E-07 6.65527E-19-6.37222E-20
 -1      4061 9.51546E-05-2.82991E-05-2.86527E-05-1.35382E-07 2.29082E-18-2.54508E-19
 -1      4062 9.51789E-05-2.83462E-05-2.86429E-05-1.03293E-07 2.72566E-18 2.34330E-19
 -1      4063 9.51340E-05-2.82679E-05-2.86564E-05-1.30516E-07 1.91883E-18-8.14672E-19
 -1      4064 9.52005E-05-2.83877E-05-2.86342E-05-8.03131E-08 2.75685E-18 8.88711E-19
 -1      4065 9.52161E-05-2.84224E-05-2.86261E-05-5.73490E-08 2.29752E-18 9.08227E-19
 -1      4066 9.51877E-05-2.83655E-05-2.86377E-05-7.86026E-08 2.94746E-18 3.07174E-19
 -1      4067 9.52295E-05-2.84524E-05-2.86189E-05-4.13901E-08 9.60288E-19 1.19189E-19
 -1      4068 9.52388E-05-2.84775E-05-2.86121E-05-2.53325E-08-3.42373E-19-4.58281E-22
 -1      4069 9.52223E-05-2.84371E-05-2.86220E-05-4.16801E-08 9.23428E-19-4.03240E-19
 -1      4070 9.52465E-05-2.84990E-05-2.86062E-05-1.45154E-08-1.06427E-18 5.11201E-20
 -1      4071 9.52517E-05-2.85166E-05-2.86006E-05-3.81600E-09-9.26418E-19-1.21144E-18
 -1      4072 9.52428E-05-2.84884E-05-2.86089E-05-1.62294E-08-9.66320E-19-1.65201E-18
 -1      4073 9.22274E-05-2.51376E-05-2.87619E-05 2.46664E-06-1.20323E-19 1.54046E-18
 -1      4074 9.18947E-05-2.48446E-05-2.87346E-05 2.79836E-06-4.46402E-19 1.15552E-18
 -1      4075 9.52598E-05-2.85534E-05-2.85886E-05-6.00973E-09 3.38018E-18 1.08749E-18
 -1      4076 9.52594E-05-2.85538E-05-2.85881E-05-8.75108E-09 3.75067E-18 1.36274E-18
 -1      4077 9.52586E-05-2.85460E-05-2.85911E-05-7.24091E-09 3.22432E-18 1.66767E-18
 -1      4078 9.52590E-05-2.85425E-05-2.85926E-05-3.25295E-09 2.25156E-18-5.33616E-19
 -1      4079 8.69812E-05-2.30293E-05-2.74362E-05 7.82711E-06-1.05688E-18 3.16502E-19
 -1      4080 8.67500E-05-2.33414E-05-2.71555E-05 8.79266E-06-1.27220E-18 4.30155E-19
 -1      4081 7.81418E-05-2.20493E-05-2.39741E-05 1.52203E-05 6.47342E-19-1.91365E-18
 -1      4082 7.20670E-05-1.93509E-05-2.24520E-05 1.42663E-05 4.90664E-19-2.23610E-18
 -1      4083 7.02527E-05-1.74867E-05-2.26580E-05 1.03604E-05 3.05276E-19-1.95962E-18
 -1      4084 7.87484E-05-2.07413E-05-2.49211E-05 1.27414E-05 3.43191E-19-1.78378E-18
 -1      4085 8.27377E-05-1.47493E-05-2.91459E-05-1.20798E-06 5.61319E-20-2.23942E-18
 -1      4086 8.25626E-05-1.46244E-05-2.91377E-05-1.23549E-07-6.87201E-20-2.19496E-18
 -1      4087 8.26221E-05-1.55952E-05-2.86901E-05-2.29946E-06 1.26336E-19-2.02842E-18
 -1      4088 9.13974E-05-2.45065E-05-2.86786E-05 3.12480E-06-7.10402E-19 8.22725E-19
 -1      4089 9.10148E-05-2.42190E-05-2.86247E-05 3.52464E-06-8.95220E-19 7.01294E-19
 -1      4090 9.11517E-05-2.43045E-05-2.86383E-05 2.54589E-06-1.07191E-18 8.25560E-19
 -1      4091 9.04307E-05-2.38895E-05-2.85313E-05 3.93215E-06-1.38240E-18 1.15122E-19
 -1      4092 9.00132E-05-2.36444E-05-2.84401E-05 4.41579E-06-1.59122E-18-1.80041E-19
 -1      4093 9.00771E-05-2.35891E-05-2.84821E-05 3.23044E-06-1.23062E-18-2.10087E-19
 -1      4094 9.29214E-05-2.57365E-05-2.88011E-05 1.92597E-06-5.55202E-19 2.64486E-18
 -1      4095 9.26414E-05-2.54591E-05-2.87918E-05 2.20120E-06-2.99271E-19 1.95754E-18
 -1      4096 9.20537E-05-2.49993E-05-2.87293E-05 2.00075E-06-7.60495E-19 1.51909E-18
 -1      4097 9.34913E-05-2.62808E-05-2.88106E-05 1.48433E-06 4.44812E-19 3.60356E-18
 -1      4098 9.32616E-05-2.60296E-05-2.88131E-05 1.71038E-06-2.86255E-20 2.45550E-18
 -1      4099 9.28013E-05-2.56431E-05-2.87752E-05 1.55317E-06-2.43489E-19 2.32817E-18
 -1      4100 9.39484E-05-2.67564E-05-2.88014E-05 1.12830E-06 6.48287E-19 3.44494E-18
 -1      4101 9.37648E-05-2.65381E-05-2.88109E-05 1.31163E-06 1.00805E-18 3.58641E-18
 -1      4102 9.34094E-05-2.62196E-05-2.87902E-05 1.19191E-06 5.35339E-19 3.45897E-18
 -1      4103 9.43071E-05-2.71600E-05-2.87812E-05 8.43248E-07-1.83281E-19 2.65089E-18
 -1      4104 9.41634E-05-2.69749E-05-2.87945E-05 9.90419E-07 3.48812E-19 2.78054E-18
 -1      4105 9.38934E-05-2.67165E-05-2.87856E-05 9.03825E-07 6.68296E-19 2.98387E-18
 -1      4106 9.45834E-05-2.74942E-05-2.87556E-05 6.19049E-07-2.51058E-19 2.00224E-18
 -1      4107 9.44736E-05-2.73417E-05-2.87703E-05 7.35186E-07-2.06987E-19 1.98333E-18
 -1      4108 9.42713E-05-2.71355E-05-2.87691E-05 6.72387E-07 1.21858E-19 2.31868E-18
 -1      4109 9.47915E-05-2.77642E-05-2.87284E-05 4.44278E-07-1.31703E-18 2.13264E-18
 -1      4110 9.47094E-05-2.76413E-05-2.87430E-05 5.34864E-07-7.54240E-19 2.10382E-18
 -1      4111 9.45602E-05-2.74794E-05-2.87465E-05 4.92885E-07-4.38259E-19 1.69922E-18
 -1      4112 9.49458E-05-2.79788E-05-2.87019E-05 3.10245E-07-1.81082E-18 1.54468E-18
 -1      4113 9.48856E-05-2.78815E-05-2.87156E-05 3.79646E-07-1.15774E-18 2.36579E-18
 -1      4114 9.47779E-05-2.77562E-05-2.87217E-05 3.52150E-07-9.07598E-19 1.39324E-18
 -1      4115 9.50570E-05-2.81459E-05-2.86775E-05 2.09389E-07-8.98227E-19 1.27960E-18
 -1      4116 9.50141E-05-2.80704E-05-2.86898E-05 2.61659E-07-1.76755E-18 1.42126E-18
 -1      4117 9.49386E-05-2.79754E-05-2.86972E-05 2.44988E-07-8.72039E-19 2.32274E-18
 -1      4118 9.51350E-05-2.82735E-05-2.86559E-05 1.34779E-07-7.64880E-20 6.81229E-19
 -1      4119 9.51054E-05-2.82160E-05-2.86666E-05 1.73438E-07-3.10759E-19 7.45813E-19
 -1      4120 9.50539E-05-2.81453E-05-2.86742E-05 1.64580E-07-1.67066E-19 6.85394E-19
 -1      4121 9.51878E-05-2.83691E-05-2.86373E-05 8.06529E-08 8.88621E-19-8.47560E-19
 -1      4122 9.51682E-05-2.83262E-05-2.86463E-05 1.08670E-07 4.15698E-19-1.67777E-19
 -1      4123 9.51344E-05-2.82746E-05-2.86536E-05 1.05231E-07 7.86577E-19-3.19597E-19
 -1      4124 9.52218E-05-2.84392E-05-2.86216E-05 4.23191E-08 3.57159E-19-2.03686E-19
 -1      4125 9.52096E-05-2.84078E-05-2.86291E-05 6.21316E-08 5.19375E-19-1.07082E-18
 -1      4126 9.51886E-05-2.83710E-05-2.86357E-05 6.22777E-08 5.26128E-19-1.02525E-18
 -1      4127 9.52423E-05-2.84897E-05-2.86086E-05 1.59046E-08 6.98014E-19 2.67941E-18
 -1      4128 9.52352E-05-2.84672E-05-2.86147E-05 2.95017E-08-6.64050E-21 1.33616E-18
 -1      4129 9.52233E-05-2.84415E-05-2.86205E-05 3.19745E-08-7.78551E-19 1.80800E-18
 -1      4130 9.52531E-05-2.85253E-05-2.85978E-05-1.39866E-09 2.11796E-18 4.19699E-18
 -1      4131 9.52498E-05-2.85095E-05-2.86028E-05 7.38537E-09 2.22497E-18 3.63981E-18
 -1      4132 9.52439E-05-2.84922E-05-2.86077E-05 1.11617E-08 4.48710E-19 2.84834E-18
 -1      4133 8.33742E-05-1.79798E-05-2.80600E-05 6.12276E-06-5.58193E-19-1.42456E-18
 -1      4134 8.27093E-05-1.86447E-05-2.74477E-05 7.41421E-06-4.26337E-19-1.47816E-18
 -1      4135 7.03872E-05-1.67186E-05-2.30676E-05 4.49722E-06 5.84387E-20 9.82962E-19
 -1      4136 6.90152E-05-1.58998E-05-2.26857E-05-6.04983E-07-1.71647E-19 1.58362E-18
 -1      4137 9.52567E-05-2.85426E-05-2.85918E-05-8.84459E-09 2.33671E-18 4.82219E-18
 -1      4138 9.52555E-05-2.85341E-05-2.85947E-05-4.86009E-09 2.53863E-18 4.62905E-18
 -1      4139 9.52533E-05-2.85225E-05-2.85989E-05-6.60242E-10 1.97364E-18 3.83015E-18
 -1      4140 9.52572E-05-2.85405E-05-2.85929E-05-6.75442E-09 3.29160E-18 4.10374E-18
 -1      4141 9.52556E-05-2.85286E-05-2.85974E-05 8.07697E-10 8.76333E-19-1.82845E-18
 -1      4142 9.52554E-05-2.85283E-05-2.85974E-05-7.89778E-10 1.11146E-18-7.42512E-19
 -1      4143 9.52526E-05-2.85153E-05-2.86014E-05-8.05657E-10 8.59319E-19-1.34768E-18
 -1      4144 8.59338E-05-2.35989E-05-2.67400E-05 9.99442E-06-8.35566E-19 4.40742E-19
 -1      4145 8.59691E-05-2.43899E-05-2.63621E-05 1.13135E-05-4.97065E-19 3.81611E-19
 -1      4146 8.42192E-05-2.21500E-05-2.65832E-05 8.69197E-06-7.81716E-19 5.42040E-19
 -1      4147 8.93403E-05-2.33579E-05-2.82956E-05 4.92810E-06-1.62607E-18 2.63483E-19
 -1      4148 8.89153E-05-2.32043E-05-2.81549E-05 5.52297E-06-1.51002E-18 1.40487E-19
 -1      4149 8.88268E-05-2.29133E-05-2.82343E-05 4.08078E-06-1.65771E-18-4.67229E-19
 -1      4150 8.81635E-05-2.30167E-05-2.79422E-05 6.18875E-06-1.05586E-18 2.26095E-19
 -1      4151 8.77892E-05-2.30371E-05-2.77379E-05 6.93603E-06-5.83559E-19 5.81840E-19
 -1      4152 8.58388E-05-2.20281E-05-2.73302E-05 6.65808E-06-9.56418E-19 4.14792E-19
 -1      4153 9.25388E-05-2.71765E-05-2.79984E-05-1.22328E-05-9.71416E-20-1.14151E-18
 -1      4154 8.96528E-05-2.48608E-05-2.77985E-05-1.16692E-05-1.47524E-19-1.19256E-18
 -1      4155 9.36772E-05-2.89200E-05-2.77363E-05-1.32161E-05-1.99945E-19-1.10032E-18
 -1      4156 7.65270E-05-2.10669E-05-2.37712E-05 1.25932E-05-1.11746E-18 2.01329E-19
 -1      4157 7.32580E-05-1.85126E-05-2.34129E-05 9.20974E-06-2.49217E-19 9.22123E-19
 -1      4158 9.52547E-05-2.85284E-05-2.85971E-05 1.80584E-09 1.02600E-18-1.81010E-18
 -1      4159 9.52516E-05-2.85130E-05-2.86020E-05-3.30523E-09 5.44917E-19-1.32418E-18
 -1      4160 8.21147E-05-1.51857E-05-2.86522E-05 4.62704E-07-8.48050E-20-2.12311E-18
 -1      4161 8.27586E-05-1.47625E-05-2.91657E-05 1.10620E-06 2.09690E-21-2.03456E-18
 -1      4162 8.32029E-05-1.50732E-05-2.92056E-05 1.87537E-06-1.03149E-20-2.06574E-18
 -1      4163 9.05123E-05-3.24774E-05-2.48242E-05-2.03853E-05-1.10932E-18-1.14698E-18
 -1      4164 9.39692E-05-3.33098E-05-2.59364E-05-1.81682E-05-1.06060E-18-1.07913E-18
 -1      4165 8.62455E-05-2.89420E-05-2.45890E-05-1.91289E-05-9.51340E-19-1.28744E-18
 -1      4166 8.49745E-05-1.61677E-05-2.94893E-05 3.46551E-06-1.45398E-19-1.64237E-18
 -1      4167 7.99793E-05-2.29521E-05-2.44117E-05 1.31856E-05-8.92647E-19-3.58407E-19
 -1      4168 7.41084E-05-1.79705E-05-2.40110E-05 5.68001E-06-3.96054E-20 7.37688E-19
 -1      4169 8.19362E-05-1.62420E-05-2.81570E-05-3.54785E-06 1.92203E-19-1.77559E-18
 -1      4170 8.11111E-05-1.56650E-05-2.80763E-05-2.02229E-06 4.79579E-21-1.89781E-18
 -1      4171 7.25043E-05-2.08106E-05-2.19644E-05-1.67218E-05-9.39889E-19-1.99374E-18
 -1      4172 7.91915E-05-2.42441E-05-2.35138E-05-1.76395E-05-9.41954E-19-1.71162E-18
 -1      4173 7.10337E-05-1.87497E-05-2.24219E-05-1.26682E-05-7.85941E-19-2.11973E-18
 -1      4174 7.98880E-05-1.73852E-05-2.67578E-05 6.30235E-06-4.60187E-19-1.57092E-18
 -1      4175 8.11551E-05-1.90593E-05-2.66639E-05 8.69546E-06-2.78666E-19-1.59508E-18
 -1      4176 8.03361E-05-1.98023E-05-2.59060E-05 1.03421E-05-2.21157E-20-1.78638E-18
 -1      4177 8.36192E-05-1.68714E-05-2.85939E-05 4.27942E-06-2.67615E-19-1.70334E-18
 -1      4178 8.17043E-05-1.61697E-05-2.81029E-05 3.41494E-06-2.82052E-19-1.81806E-18
 -1      4179 9.52557E-05-2.85297E-05-2.85970E-05-9.00867E-10 7.54601E-19-1.01895E-18
 -1      4180 9.52560E-05-2.85309E-05-2.85965E-05-2.26946E-09 1.25244E-18-1.10546E-18
 -1      4181 9.52519E-05-2.85150E-05-2.86015E-05-4.40318E-10 7.65688E-19-4.51019E-19
 -1      4182 6.32430E-05-1.41513E-05-2.08251E-05-7.27341E-07-1.75051E-19-1.99786E-18
 -1      4183 6.66683E-05-1.53686E-05-2.20171E-05-4.48406E-06-4.36507E-19-1.97013E-18
 -1      4184 6.67980E-05-1.51954E-05-2.20991E-05 3.71815E-06 4.51111E-20-1.85732E-18
 -1      4185 8.71668E-05-2.36549E-05-2.71646E-05-1.17330E-05-2.17900E-19-1.60234E-18
 -1      4186 8.67071E-05-2.23609E-05-2.75690E-05-1.04758E-05 5.38164E-21-1.59405E-18
 -1      4187 6.84018E-05-1.60469E-05-2.24527E-05-3.75961E-06 1.50031E-19 1.70588E-18
 -1      4188 6.99932E-05-1.68588E-05-2.27434E-05-6.48180E-06 5.10720E-19 4.76770E-19
 -1      4189 7.25768E-05-1.81161E-05-2.33115E-05-8.27779E-06 8.84716E-19-4.23257E-19
 -1      4190 7.18971E-05-1.67621E-05-2.35667E-05-1.97291E-06 3.89107E-19 1.01741E-18
 -1      4191 7.88312E-05-2.08388E-05-2.48397E-05-1.06706E-05 8.12708E-19-1.69555E-20
 -1      4192 7.99168E-05-2.04999E-05-2.55300E-05-9.16976E-06 2.32035E-19-6.39718E-19
 -1      4193 7.62530E-05-1.95059E-05-2.42668E-05-9.76897E-06 6.23666E-19-4.83914E-19
 -1      4194 8.74063E-05-2.23510E-05-2.78641E-05 5.18427E-06-1.04264E-18 8.55873E-19
 -1      4195 8.58500E-05-2.52409E-05-2.60105E-05 1.26757E-05-5.21210E-19-4.17230E-21
 -1      4196 8.62586E-05-2.64039E-05-2.55978E-05 1.41287E-05-5.96707E-19 1.33836E-19
 -1      4197 8.32232E-05-2.48740E-05-2.49621E-05 1.44254E-05-6.28324E-19-4.31742E-19
 -1      4198 8.30846E-05-2.30365E-05-2.57733E-05 1.13288E-05-7.57008E-19 2.27618E-19
 -1      4199 9.58080E-05-3.37501E-05-2.66364E-05-1.69473E-05-9.06557E-19-1.05571E-18
 -1      4200 9.78857E-05-3.38284E-05-2.74227E-05-1.48392E-05-9.05045E-19-9.47639E-19
 -1      4201 9.60184E-05-3.15165E-05-2.75847E-05-1.42147E-05-5.49988E-19-9.64242E-19
 -1      4202 9.25886E-05-3.09417E-05-2.63531E-05-1.67548E-05-7.31722E-19-9.89034E-19
 -1      4203 8.45286E-05-1.80290E-05-2.84803E-05-5.90846E-06 2.77520E-19-1.76768E-18
 -1      4204 8.31450E-05-1.71581E-05-2.83260E-05-5.00473E-06 2.40160E-19-1.88610E-18
 -1      4205 8.17640E-05-1.70633E-05-2.76975E-05-4.88124E-06 1.75652E-19-1.73648E-18
 -1      4206 8.59728E-05-2.06347E-05-2.79898E-05-8.48240E-06 1.01481E-19-1.56071E-18
 -1      4207 8.33607E-05-1.95615E-05-2.73962E-05-8.42568E-06 6.23777E-20-1.73011E-18
 -1      4208 8.49061E-05-2.12675E-05-2.73148E-05 5.05790E-06-1.29012E-18 6.69477E-19
 -1      4209 8.40879E-05-2.11064E-05-2.69897E-05 5.80762E-06-1.30883E-18 4.11428E-19
 -1      4210 8.15934E-05-2.05890E-05-2.61392E-05-7.94492E-06-2.17615E-20-4.20609E-19
 -1      4211 8.26834E-05-2.06432E-05-2.66279E-05-6.93521E-06-5.07097E-19 1.65833E-19
 -1      4212 7.98050E-05-1.95800E-05-2.57462E-05-7.14397E-06 3.54331E-19-3.86111E-20
 -1      4213 8.40278E-05-2.09053E-05-2.70529E-05-6.16509E-06-7.24694E-19 9.38189E-20
 -1      4214 8.49994E-05-2.11286E-05-2.73989E-05-5.46257E-06-3.16791E-19-3.85313E-19
 -1      4215 8.27896E-05-2.01966E-05-2.67816E-05-5.46826E-06-6.47335E-19 2.28506E-19
 -1      4216 8.61081E-05-2.14905E-05-2.76947E-05-4.89231E-06 1.20036E-19-7.21411E-20
 -1      4217 8.69648E-05-2.18268E-05-2.79337E-05-4.36687E-06 2.14080E-19 3.84260E-19
 -1      4218 8.51717E-05-2.09333E-05-2.75024E-05-4.30485E-06 1.77360E-19 1.73788E-19
 -1      4219 8.78879E-05-2.22470E-05-2.81343E-05-3.93681E-06-7.66316E-19-7.84810E-19
 -1      4220 8.86299E-05-2.26376E-05-2.82941E-05-3.52480E-06-1.43529E-18-1.14553E-18
 -1      4221 8.71709E-05-2.17940E-05-2.79976E-05-3.44772E-06-9.92191E-19-1.99803E-19
 -1      4222 8.93948E-05-2.30737E-05-2.84260E-05-3.18581E-06-1.28945E-18-4.76303E-19
 -1      4223 9.00220E-05-2.34744E-05-2.85283E-05-2.85072E-06-3.56563E-19-2.18245E-19
 -1      4224 8.88352E-05-2.26956E-05-2.83294E-05-2.79040E-06-8.02193E-19-2.77736E-19
 -1      4225 9.06513E-05-2.38976E-05-2.86109E-05-2.56902E-06-3.62803E-19-8.27130E-19
 -1      4226 9.11762E-05-2.42893E-05-2.86716E-05-2.28758E-06-8.70629E-19-6.45085E-19
 -1      4227 9.02100E-05-2.35781E-05-2.85439E-05-2.25433E-06-7.27961E-19-6.53360E-19
 -1      4228 9.16899E-05-2.46840E-05-2.87193E-05-2.05735E-06-1.08298E-18-3.37043E-19
 -1      4229 9.21182E-05-2.50419E-05-2.87514E-05-1.82091E-06-1.43384E-19 2.21792E-19
 -1      4230 9.13409E-05-2.44127E-05-2.86740E-05-1.80949E-06-6.59369E-19-1.10622E-18
 -1      4231 9.25341E-05-2.53965E-05-2.87754E-05-1.62714E-06 2.17328E-19-5.92417E-20
 -1      4232 9.28799E-05-2.57155E-05-2.87883E-05-1.42850E-06 2.55968E-19-8.88932E-19
 -1      4233 9.22583E-05-2.51663E-05-2.87461E-05-1.43696E-06-7.57046E-20-5.25290E-20
 -1      4234 9.32126E-05-2.60255E-05-2.87962E-05-1.26872E-06-5.50388E-19-1.33769E-18
 -1      4235 9.34876E-05-2.63017E-05-2.87966E-05-1.10422E-06-3.78051E-19-1.90459E-18
 -1      4236 9.29976E-05-2.58338E-05-2.87785E-05-1.12359E-06-8.33245E-19-1.00650E-18
 -1      4237 9.37490E-05-2.65652E-05-2.87945E-05-9.74689E-07-5.15573E-20-2.04523E-18
 -1      4238 9.39634E-05-2.67975E-05-2.87874E-05-8.40436E-07 4.27966E-20-1.61384E-18
 -1      4239 9.35841E-05-2.64083E-05-2.87848E-05-8.66746E-07-3.78941E-19-1.27884E-18
 -1      4240 9.41655E-05-2.70164E-05-2.87792E-05-7.35390E-07 1.79548E-19-1.87882E-18
 -1      4241 9.43307E-05-2.72092E-05-2.87678E-05-6.26998E-07 1.11999E-19-1.32975E-18
 -1      4242 9.40407E-05-2.68905E-05-2.87750E-05-6.56436E-07 5.09086E-20-1.70586E-18
 -1      4243 9.44843E-05-2.73878E-05-2.87566E-05-5.44811E-07 4.94702E-19-7.12417E-19
 -1      4244 9.46085E-05-2.75430E-05-2.87435E-05-4.58955E-07 1.16328E-18-3.94892E-19
 -1      4245 9.43913E-05-2.72878E-05-2.87559E-05-4.88043E-07 7.05884E-19-1.13566E-18
 -1      4246 9.47236E-05-2.76859E-05-2.87311E-05-3.94428E-07 1.15406E-18-6.01786E-19
 -1      4247 9.48155E-05-2.78093E-05-2.87178E-05-3.27386E-07 1.08361E-18-2.87869E-19
 -1      4248 9.46553E-05-2.76075E-05-2.87327E-05-3.55166E-07 1.26567E-18-3.98962E-19
 -1      4249 9.49000E-05-2.79217E-05-2.87056E-05-2.78054E-07 1.46751E-18-9.44554E-19
 -1      4250 9.49668E-05-2.80181E-05-2.86929E-05-2.26699E-07 7.20033E-19-5.04680E-19
 -1      4251 9.48513E-05-2.78615E-05-2.87084E-05-2.51497E-07 1.28787E-18-1.62801E-18
 -1      4252 9.50273E-05-2.81048E-05-2.86815E-05-1.89701E-07 3.25061E-19 5.81074E-19
 -1      4253 9.50744E-05-2.81787E-05-2.86701E-05-1.51070E-07 7.64377E-19-2.34200E-20
 -1      4254 9.49934E-05-2.80595E-05-2.86848E-05-1.72615E-07 7.40143E-19-2.45766E-19
 -1      4255 9.51165E-05-2.82444E-05-2.86598E-05-1.23820E-07 1.63352E-18-3.72413E-19
 -1      4256 9.51488E-05-2.83000E-05-2.86498E-05-9.53022E-08 2.92139E-18-2.05451E-19
 -1      4257 9.50937E-05-2.82109E-05-2.86633E-05-1.13599E-07 1.57256E-18 1.55743E-19
 -1      4258 9.51770E-05-2.83489E-05-2.86409E-05-7.56628E-08 2.61832E-18-1.11429E-18
 -1      4259 9.51983E-05-2.83900E-05-2.86323E-05-5.50490E-08 1.80276E-18-1.87761E-18
 -1      4260 9.51624E-05-2.83246E-05-2.86442E-05-7.02739E-08 2.44674E-18-1.79657E-18
 -1      4261 9.52162E-05-2.84255E-05-2.86247E-05-4.13510E-08 1.09735E-18-2.71798E-18
 -1      4262 9.52292E-05-2.84552E-05-2.86176E-05-2.66164E-08-2.56186E-19-2.88250E-18
 -1      4263 9.52074E-05-2.84085E-05-2.86278E-05-3.93412E-08 7.63530E-19-3.81575E-18
 -1      4264 9.52383E-05-2.84758E-05-2.86125E-05-1.82000E-08-8.14622E-19-2.19751E-18
 -1      4265 9.52459E-05-2.84979E-05-2.86065E-05-8.20288E-09-7.37460E-19-2.04217E-18
 -1      4266 9.52473E-05-2.85015E-05-2.86053E-05-4.86684E-09 1.81877E-19-1.82933E-18
 -1      4267 9.52330E-05-2.84643E-05-2.86151E-05-1.80045E-08-3.98585E-21-4.71958E-18
 -1      4268 9.27411E-05-2.56482E-05-2.87620E-05 1.12592E-06 2.41498E-19 1.52704E-18
 -1      4269 9.24010E-05-2.53304E-05-2.87467E-05 1.30299E-06-9.90189E-20 1.47020E-18
 -1      4270 9.52542E-05-2.85304E-05-2.85960E-05 3.12588E-09 5.83456E-19-2.36729E-19
 -1      4271 9.52574E-05-2.85385E-05-2.85939E-05-4.64553E-09 2.96573E-18 1.50744E-18
 -1      4272 9.09931E-05-2.42349E-05-2.86240E-05 1.88818E-06-1.39300E-18 8.69727E-19
 -1      4273 9.05043E-05-2.38632E-05-2.85619E-05 2.15622E-06-1.28009E-18 7.56217E-19
 -1      4274 7.99729E-05-2.19235E-05-2.48786E-05 1.14744E-05-8.93339E-19-1.55762E-19
 -1      4275 8.98515E-05-2.34492E-05-2.84693E-05 2.38319E-06-1.39828E-18 4.17004E-19
 -1      4276 8.92515E-05-2.30678E-05-2.83676E-05 2.71630E-06-1.53289E-18 3.37354E-19
 -1      4277 8.98481E-05-2.33811E-05-2.84616E-05 1.68273E-06-1.83125E-18 8.16266E-20
 -1      4278 9.33733E-05-2.62390E-05-2.87778E-05 8.57789E-07 9.03565E-19 2.15199E-18
 -1      4279 9.30993E-05-2.59608E-05-2.87753E-05 1.00177E-06 4.54620E-19 2.22092E-18
 -1      4280 9.27617E-05-2.56410E-05-2.87501E-05 7.69587E-07 4.51420E-19 4.57929E-19
 -1      4281 9.38765E-05-2.67440E-05-2.87745E-05 6.42067E-07 3.60718E-20 1.82367E-18
 -1      4282 9.36574E-05-2.65082E-05-2.87797E-05 7.58496E-07 5.39972E-19 2.35169E-18
 -1      4283 9.33910E-05-2.62450E-05-2.87669E-05 5.86813E-07 3.15267E-19 6.03376E-19
 -1      4284 9.42600E-05-2.71644E-05-2.87593E-05 4.80553E-07-1.29409E-20 2.15160E-18
 -1      4285 9.40957E-05-2.69690E-05-2.87691E-05 5.72755E-07 5.65231E-19 2.44506E-18
 -1      4286 9.39087E-05-2.67728E-05-2.87653E-05 4.37210E-07 1.07662E-19 1.00211E-18
 -1      4287 9.45556E-05-2.75058E-05-2.87384E-05 3.46271E-07-8.06588E-19 2.40302E-18
 -1      4288 9.44299E-05-2.73471E-05-2.87502E-05 4.19328E-07-5.10635E-19 2.08226E-18
 -1      4289 9.42754E-05-2.71766E-05-2.87512E-05 3.18808E-07-7.80312E-20 2.83184E-18
 -1      4290 9.47782E-05-2.77813E-05-2.87151E-05 2.45232E-07-8.41140E-19 1.86804E-18
 -1      4291 9.46839E-05-2.76543E-05-2.87274E-05 3.01635E-07-9.93056E-19 1.48670E-18
 -1      4292 9.45740E-05-2.75213E-05-2.87316E-05 2.30925E-07-8.06351E-19 2.78477E-18
 -1      4293 9.49410E-05-2.79972E-05-2.86918E-05 1.68879E-07-4.17561E-19 9.53725E-19
 -1      4294 9.48725E-05-2.78980E-05-2.87037E-05 2.11865E-07-5.10207E-19 1.25624E-18
 -1      4295 9.47935E-05-2.77954E-05-2.87095E-05 1.63582E-07-3.75618E-19-3.95088E-20
 -1      4296 9.50573E-05-2.81636E-05-2.86698E-05 1.11880E-07 3.24586E-19-5.88555E-19
 -1      4297 9.50088E-05-2.80875E-05-2.86807E-05 1.44183E-07 7.98953E-21 5.41016E-19
 -1      4298 9.49532E-05-2.80097E-05-2.86872E-05 1.12354E-07 6.05857E-19-1.23228E-18
 -1      4299 9.51380E-05-2.82895E-05-2.86502E-05 7.00848E-08 1.48045E-18 2.44399E-20
 -1      4300 9.51048E-05-2.82321E-05-2.86598E-05 9.39476E-08 9.80496E-19 8.54057E-19
 -1      4301 9.50668E-05-2.81743E-05-2.86662E-05 7.41383E-08-1.07191E-19-1.86371E-19
 -1      4302 9.51920E-05-2.83829E-05-2.86330E-05 4.00401E-08-1.04830E-19 5.51323E-19
 -1      4303 9.51701E-05-2.83405E-05-2.86413E-05 5.73259E-08 6.89952E-19-4.19340E-20
 -1      4304 9.51451E-05-2.82984E-05-2.86473E-05 4.62037E-08 9.15758E-20 1.33025E-18
 -1      4305 9.52264E-05-2.84510E-05-2.86183E-05 1.89447E-08-9.27466E-19 1.20736E-18
 -1      4306 9.52127E-05-2.84202E-05-2.86253E-05 3.11815E-08-6.68790E-19 8.88439E-19
 -1      4307 9.51969E-05-2.83902E-05-2.86307E-05 2.62839E-08-7.17214E-19 1.30321E-18
 -1      4308 9.52462E-05-2.84993E-05-2.86060E-05 4.94240E-09 1.35443E-18 6.10757E-20
 -1      4309 9.52385E-05-2.84776E-05-2.86118E-05 1.32024E-08 2.36208E-19 1.97357E-19
 -1      4310 9.52299E-05-2.84576E-05-2.86164E-05 1.19612E-08 3.68599E-19-3.03335E-19
 -1      4311 8.47287E-05-1.67526E-05-2.91393E-05 4.28262E-06-2.48189E-19-1.64203E-18
 -1      4312 9.52459E-05-2.84986E-05-2.86062E-05-2.80292E-09 7.72588E-19-2.54917E-18
 -1      4313 9.52453E-05-2.84964E-05-2.86067E-05-1.73835E-09 1.04039E-18-1.29398E-18
 -1      4314 9.52404E-05-2.84810E-05-2.86108E-05-7.29173E-09 6.68027E-19-3.67362E-18
 -1      4315 8.09674E-05-1.56039E-05-2.80053E-05 1.62982E-06-2.64624E-19-1.96683E-18
 -1      4316 8.03640E-05-1.64117E-05-2.74106E-05 3.58525E-06-3.89172E-19-1.76753E-18
 -1      4317 8.07046E-05-1.54762E-05-2.79695E-05 3.57839E-07-1.79580E-19-2.05591E-18
 -1      4318 8.71240E-05-2.51573E-05-2.65370E-05-1.38818E-05-4.19814E-19-1.40423E-18
 -1      4319 8.38197E-05-2.24677E-05-2.62801E-05-1.25259E-05-4.84717E-19-1.56570E-18
 -1      4320 9.19530E-05-2.49729E-05-2.87156E-05 1.46086E-06-7.04181E-19 1.37360E-18
 -1      4321 9.15412E-05-2.46227E-05-2.86810E-05 1.67881E-06-7.82778E-19 1.11649E-18
 -1      4322 9.09695E-05-2.41630E-05-2.86119E-05 1.29155E-06-1.14249E-18 2.37250E-19
 -1      4323 9.19669E-05-2.49455E-05-2.87034E-05 1.00043E-06-3.51258E-19-5.00854E-19
 -1      4324 8.26346E-05-2.08232E-05-2.65466E-05 6.68178E-06-5.53019E-19 4.63629E-19
 -1      4325 8.17352E-05-2.09567E-05-2.60773E-05 7.84420E-06-5.63318E-19 5.66863E-19
 -1      4326 8.20109E-05-1.99164E-05-2.65377E-05 4.84611E-06-7.44200E-19-2.84294E-19
 -1      4327 8.84543E-05-2.26491E-05-2.82231E-05 3.05465E-06-1.07043E-18 9.29691E-20
 -1      4328 8.77790E-05-2.22918E-05-2.80679E-05 3.47145E-06-1.12900E-18 6.28995E-19
 -1      4329 8.83425E-05-2.24318E-05-2.82132E-05 2.17971E-06-1.34798E-18 8.47549E-19
 -1      4330 8.14395E-05-1.94989E-05-2.65761E-05-9.07123E-06-1.94652E-19-1.66570E-18
 -1      4331 8.13261E-05-1.80271E-05-2.70889E-05-6.74921E-06 7.62789E-20-1.59121E-18
 -1      4332 7.97170E-05-1.70961E-05-2.68889E-05-5.36556E-06-7.02276E-20-1.58856E-18
 -1      4333 7.99229E-05-1.58865E-05-2.73958E-05-8.49223E-07-1.16467E-19-1.77454E-18
 -1      4334 9.21021E-05-2.87852E-05-2.71976E-05-1.43719E-05-3.63993E-19-9.37235E-19
 -1      4335 8.68235E-05-2.18997E-05-2.78537E-05 3.91111E-06-1.32687E-18 7.86729E-19
 -1      4336 8.60684E-05-2.16095E-05-2.76257E-05 4.45543E-06-9.11462E-19 1.23981E-18
 -1      4337 8.66392E-05-2.15331E-05-2.78462E-05 2.80929E-06-1.09672E-18 1.25905E-18
 -1      4338 7.69767E-05-1.91366E-05-2.48436E-05 7.18962E-06-7.59289E-19 9.40339E-20
 -1      4339 7.47530E-05-1.73901E-05-2.45630E-05 2.77361E-06 1.70240E-19 4.08875E-19
 -1      4340 9.52392E-05-2.84802E-05-2.86109E-05 9.96285E-10 1.44291E-18-1.18310E-18
 -1      4341 9.52464E-05-2.84996E-05-2.86060E-05 2.28195E-09 1.64895E-18-3.93515E-19
 -1      4342 7.86413E-05-1.66375E-05-2.66016E-05 4.47307E-06-3.26509E-19-1.72394E-18
 -1      4343 8.31808E-05-2.57331E-05-2.45708E-05-1.74578E-05-7.99138E-19-1.46770E-18
 -1      4344 8.69495E-05-2.72592E-05-2.56073E-05-1.64383E-05-8.05011E-19-1.29306E-18
 -1      4345 6.99477E-05-1.64339E-05-2.27578E-05-8.51073E-06-6.29250E-19-2.03076E-18
 -1      4346 7.47802E-05-1.90690E-05-2.38605E-05-1.12598E-05-6.75340E-19-2.01795E-18
 -1      4347 7.05446E-05-1.58336E-05-2.34651E-05-4.15918E-06-2.95969E-19-1.69349E-18
 -1      4348 7.66406E-05-1.83676E-05-2.49325E-05 9.83742E-06 6.93200E-20-1.85995E-18
 -1      4349 7.39328E-05-1.74903E-05-2.41456E-05 8.40021E-06 2.91895E-20-1.78645E-18
 -1      4350 6.97154E-05-1.58340E-05-2.29803E-05 6.35353E-06 2.37111E-20-1.71182E-18
 -1      4351 7.05387E-05-1.54746E-05-2.36420E-05 2.54222E-06-1.55533E-19-1.62849E-18
 -1      4352 7.55008E-05-1.68055E-05-2.51832E-05 6.22142E-06-1.65835E-19-1.57605E-18
 -1      4353 8.45689E-05-2.06751E-05-2.73090E-05 3.66653E-06-1.60696E-18 9.76904E-19
 -1      4354 8.00246E-05-2.26532E-05-2.46252E-05-1.47647E-05-7.69479E-19-1.60887E-18
 -1      4355 8.02988E-05-2.11861E-05-2.52983E-05 9.93502E-06-1.05426E-18 3.52726E-19
 -1      4356 8.92208E-05-2.78511E-05-2.62938E-05-1.54103E-05-5.70272E-19-1.26022E-18
 -1      4357 9.52542E-05-2.85244E-05-2.85985E-05-1.82068E-09 1.10878E-18 1.43590E-19
 -1      4358 7.46198E-05-1.81602E-05-2.42477E-05-6.77268E-06 1.09751E-18-4.33736E-20
 -1      4359 7.72253E-05-1.80859E-05-2.53506E-05 1.49651E-06 9.29751E-22 4.43306E-19
 -1      4360 7.46835E-05-1.73178E-05-2.46344E-05-1.59078E-07 1.78043E-19 3.68268E-19
 -1      4361 8.11640E-05-2.07241E-05-2.58898E-05-1.09953E-05-5.54639E-19-1.66079E-18
 -1      4362 7.44274E-05-1.73475E-05-2.44274E-05-3.18905E-06 7.32385E-19 5.10895E-19
 -1      4363 7.79900E-05-1.58754E-05-2.66258E-05-1.96385E-06-5.86771E-20-1.62816E-18
 -1      4364 7.75707E-05-1.57429E-05-2.65059E-05 7.08416E-07-2.60350E-19-1.77564E-18
 -1      4365 7.65904E-05-1.64241E-05-2.57623E-05 3.60353E-06-2.22070E-19-1.61008E-18
 -1      4366 7.71852E-05-1.66267E-05-2.59381E-05-4.05115E-06-7.92373E-20-1.62362E-18
 -1      4367 8.02796E-05-2.03042E-05-2.56916E-05 7.34916E-06-9.52872E-19 4.05393E-20
 -1      4368 8.09412E-05-1.94224E-05-2.64037E-05-4.07873E-06-4.45296E-19 3.43985E-20
 -1      4369 8.23420E-05-1.98072E-05-2.68457E-05-3.52522E-06-5.25874E-19 4.17827E-19
 -1      4370 8.38289E-05-2.03068E-05-2.72409E-05-3.17924E-06-1.63169E-19-1.93404E-19
 -1      4371 8.49546E-05-2.07518E-05-2.75438E-05-2.79959E-06-2.37252E-19-2.81856E-19
 -1      4372 8.24642E-05-1.94855E-05-2.69030E-05-1.82460E-06-9.33291E-19 3.92142E-19
 -1      4373 8.61248E-05-2.12591E-05-2.78137E-05-2.56188E-06-1.05530E-18-2.67274E-19
 -1      4374 8.70592E-05-2.17269E-05-2.80193E-05-2.27415E-06-1.43231E-18-5.51643E-19
 -1      4375 8.51025E-05-2.05973E-05-2.75754E-05-1.51555E-06-8.36743E-19-1.07711E-18
 -1      4376 8.80040E-05-2.22289E-05-2.82013E-05-2.07989E-06-9.98971E-19-4.61405E-19
 -1      4377 8.87842E-05-2.26976E-05-2.83370E-05-1.84771E-06-7.36250E-19-5.66172E-19
 -1      4378 8.71800E-05-2.16535E-05-2.80338E-05-1.26977E-06-1.13774E-18-7.91565E-19
 -1      4379 8.95545E-05-2.31659E-05-2.84569E-05-1.71324E-06-1.34848E-18-1.14027E-18
 -1      4380 9.01902E-05-2.36089E-05-2.85424E-05-1.50289E-06-1.42673E-18-1.55246E-18
 -1      4381 8.89182E-05-2.27368E-05-2.83485E-05-1.02552E-06-1.46487E-18-1.67566E-18
 -1      4382 9.08158E-05-2.40580E-05-2.86169E-05-1.38970E-06-1.36936E-19-1.13162E-18
 -1      4383 9.13296E-05-2.44601E-05-2.86676E-05-1.21881E-06 8.16504E-19-6.97589E-20
 -1      4384 9.02973E-05-2.36721E-05-2.85446E-05-8.80858E-07-1.07916E-19-9.61156E-19
 -1      4385 9.18432E-05-2.48606E-05-2.87114E-05-1.10768E-06-1.70600E-19 2.83263E-19
 -1      4386 9.22611E-05-2.52241E-05-2.87374E-05-9.63400E-07-3.59268E-19 8.70754E-20
 -1      4387 9.14134E-05-2.44874E-05-2.86610E-05-7.01830E-07 2.78331E-19-2.29369E-19
 -1      4388 9.26722E-05-2.55764E-05-2.87591E-05-8.74789E-07-7.62916E-19-2.26726E-19
 -1      4389 9.30072E-05-2.58934E-05-2.87686E-05-7.53166E-07-1.15758E-18-3.46751E-19
 -1      4390 9.23378E-05-2.52607E-05-2.87287E-05-5.65665E-07-6.03061E-19-8.59222E-19
 -1      4391 9.33326E-05-2.61967E-05-2.87758E-05-6.77900E-07-8.90647E-19-4.56202E-19
 -1      4392 9.35985E-05-2.64666E-05-2.87748E-05-5.77639E-07-6.26717E-19-1.21689E-18
 -1      4393 9.30659E-05-2.59291E-05-2.87593E-05-4.47619E-07-1.14748E-18-4.04428E-19
 -1      4394 9.38503E-05-2.67167E-05-2.87729E-05-5.22653E-07-8.46492E-19-6.53659E-19
 -1      4395 9.40546E-05-2.69407E-05-2.87656E-05-4.36056E-07-5.34070E-20-1.10190E-18
 -1      4396 9.36522E-05-2.65192E-05-2.87669E-05-3.38181E-07-9.31238E-19-9.90998E-20
 -1      4397 9.42493E-05-2.71506E-05-2.87581E-05-3.92764E-07 4.84182E-19-1.87093E-18
 -1      4398 9.44025E-05-2.73312E-05-2.87476E-05-3.25222E-07 1.03729E-18-1.91972E-18
 -1      4399 9.40961E-05-2.69896E-05-2.87580E-05-2.64623E-07-7.33814E-19-4.09993E-19
 -1      4400 9.45511E-05-2.74993E-05-2.87375E-05-2.86891E-07 1.63216E-18-1.58685E-18
 -1      4401 9.46665E-05-2.76449E-05-2.87256E-05-2.33876E-07 1.32024E-18-1.52645E-18
 -1      4402 9.44328E-05-2.73587E-05-2.87404E-05-1.92848E-07 1.60762E-18-1.84110E-18
 -1      4403 9.47767E-05-2.77784E-05-2.87143E-05-2.05420E-07 1.12471E-18-6.31754E-19
 -1      4404 9.48616E-05-2.78930E-05-2.87024E-05-1.64349E-07 1.48073E-18-8.42413E-19
 -1      4405 9.46917E-05-2.76689E-05-2.87194E-05-1.40125E-07 1.81162E-18-1.18182E-18
 -1      4406 9.49415E-05-2.79967E-05-2.86912E-05-1.42920E-07 1.07339E-18-2.67235E-19
 -1      4407 9.50022E-05-2.80851E-05-2.86799E-05-1.11598E-07 6.73812E-19 3.90053E-19
 -1      4408 9.48806E-05-2.79126E-05-2.86971E-05-9.89002E-08 1.58953E-18-1.28318E-19
 -1      4409 9.50587E-05-2.81643E-05-2.86694E-05-9.57459E-08 4.05965E-19-2.80970E-19
 -1      4410 9.51009E-05-2.82313E-05-2.86592E-05-7.22674E-08 1.54206E-18-5.16154E-19
 -1      4411 9.50163E-05-2.81010E-05-2.86755E-05-6.72568E-08 2.40590E-19 4.55591E-19
 -1      4412 9.51398E-05-2.82907E-05-2.86498E-05-6.08059E-08 1.91924E-18-2.64982E-18
 -1      4413 9.51681E-05-2.83405E-05-2.86409E-05-4.35546E-08 1.40072E-18-3.81812E-18
 -1      4414 9.51112E-05-2.82439E-05-2.86557E-05-4.35701E-08 1.50747E-20-2.68548E-18
 -1      4415 9.51937E-05-2.83844E-05-2.86327E-05-3.52919E-08 1.12090E-18-4.66990E-18
 -1      4416 9.52117E-05-2.84205E-05-2.86251E-05-2.34057E-08-8.12526E-20-4.95324E-18
 -1      4417 9.51750E-05-2.83504E-05-2.86381E-05-2.61975E-08 1.37945E-19-4.32044E-18
 -1      4418 9.52229E-05-2.84414E-05-2.86204E-05-1.82149E-08 2.69886E-19-5.30363E-18
 -1      4419 9.52323E-05-2.84641E-05-2.86151E-05-1.01533E-08 2.21542E-19-4.80033E-18
 -1      4420 9.52309E-05-2.84604E-05-2.86159E-05-6.52299E-09 1.35398E-18-3.83095E-18
 -1      4421 9.52109E-05-2.84177E-05-2.86251E-05-1.38339E-08 9.47909E-20-5.40399E-18
 -1      4422 8.15958E-05-1.94866E-05-2.66751E-05 1.25133E-06-9.75137E-19 1.06516E-19
 -1      4423 8.01819E-05-1.90486E-05-2.62148E-05 1.70083E-06-6.25575E-19-8.94066E-20
 -1      4424 8.98246E-05-2.34101E-05-2.84825E-05 8.76579E-07-1.50542E-18-3.54556E-19
 -1      4425 8.91543E-05-2.29694E-05-2.83818E-05 1.10901E-06-1.34473E-18 7.24817E-20
 -1      4426 9.39372E-05-2.68458E-05-2.87591E-05 2.07171E-07-6.69058E-19 1.18179E-18
 -1      4427 9.37138E-05-2.66125E-05-2.87628E-05 2.77784E-07-4.04486E-19 1.47049E-19
 -1      4428 9.43310E-05-2.72688E-05-2.87446E-05 3.01640E-08 3.17875E-19 1.29122E-18
 -1      4429 9.41630E-05-2.70759E-05-2.87533E-05 6.40811E-08-1.42831E-19 1.17339E-18
 -1      4430 9.46128E-05-2.75968E-05-2.87245E-05 1.88107E-08 9.20009E-19 1.53485E-19
 -1      4431 9.44829E-05-2.74432E-05-2.87350E-05 4.81452E-08 1.11309E-18 1.12123E-18
 -1      4432 9.48229E-05-2.78561E-05-2.87026E-05 1.14722E-08 1.12524E-18-1.65513E-18
 -1      4433 9.47266E-05-2.77350E-05-2.87137E-05 3.44700E-08 9.52193E-19-1.75569E-19
 -1      4434 9.49755E-05-2.80575E-05-2.86810E-05 6.60208E-09 8.45135E-19-9.48100E-19
 -1      4435 9.49060E-05-2.79638E-05-2.86917E-05 2.41381E-08 9.00846E-19-1.22861E-18
 -1      4436 9.50834E-05-2.82113E-05-2.86607E-05 3.37174E-09-5.92447E-19-5.47353E-19
 -1      4437 9.50346E-05-2.81401E-05-2.86707E-05 1.64649E-08-8.49966E-21-1.27072E-18
 -1      4438 9.51573E-05-2.83265E-05-2.86426E-05 1.24749E-09-8.85824E-19-8.09078E-20
 -1      4439 9.51242E-05-2.82734E-05-2.86514E-05 1.08305E-08-6.12160E-19-1.05104E-18
 -1      4440 9.52055E-05-2.84107E-05-2.86268E-05 3.49160E-10 7.52418E-20-6.38956E-19
 -1      4441 9.51843E-05-2.83721E-05-2.86344E-05 6.64098E-09-4.39479E-19-6.13637E-19
 -1      4442 9.52267E-05-2.84532E-05-2.86174E-05 5.29695E-09 7.43258E-19-2.30666E-19
 -1      4443 9.52516E-05-2.85141E-05-2.86017E-05 1.80215E-09 9.06765E-19-4.91221E-19
 -1      4444 9.52471E-05-2.85008E-05-2.86055E-05 2.74871E-09 1.27904E-18-1.87211E-18
 -1      4445 7.90032E-05-1.89831E-05-2.56853E-05 5.00056E-06-5.34926E-19-7.15925E-19
 -1      4446 7.76741E-05-1.93878E-05-2.49588E-05-1.10484E-05-5.31860E-19-1.86786E-18
 -1      4447 8.83857E-05-2.24831E-05-2.82626E-05 4.24342E-07-1.37149E-18-2.85440E-19
 -1      4448 8.75340E-05-2.20106E-05-2.81079E-05 6.18413E-07-1.25613E-18 3.60403E-19
 -1      4449 7.74070E-05-1.85170E-05-2.52358E-05-4.77512E-06 3.07468E-19 3.23496E-19
 -1      4450 8.43294E-05-2.05017E-05-2.74094E-05 8.51375E-07-1.50091E-18 2.96792E-19
 -1      4451 8.31128E-05-2.00461E-05-2.70814E-05 1.24074E-06-1.35068E-18-1.34118E-19
 -1      4452 8.65506E-05-2.15034E-05-2.79172E-05 5.94779E-07-9.25808E-19-1.05068E-19
 -1      4453 8.55399E-05-2.10290E-05-2.76899E-05 8.77615E-07-8.86800E-19-7.43801E-21
 -1      4454 7.90676E-05-1.88309E-05-2.58509E-05-4.00958E-06-2.51565E-19 2.63811E-19
 -1      4455 9.34681E-05-2.63645E-05-2.87635E-05 6.88955E-08-2.58305E-19 1.15774E-20
 -1      4456 9.31730E-05-2.60848E-05-2.87597E-05 1.25039E-07-2.88649E-19-5.12657E-19
 -1      4457 9.28364E-05-2.57764E-05-2.87504E-05 9.62635E-08-3.04382E-19-1.07267E-18
 -1      4458 9.24674E-05-2.54478E-05-2.87345E-05 1.74094E-07-1.39993E-19-1.24371E-18
 -1      4459 7.92400E-05-1.84494E-05-2.59651E-05-1.82759E-06-4.56767E-19 5.98293E-19
 -1      4460 7.42679E-05-1.58441E-05-2.50714E-05 2.13270E-06-2.07487E-19-1.58375E-18
 -1      4461 9.52582E-05-2.85465E-05-2.85905E-05 9.98385E-09 1.30862E-18-6.95183E-20
 -1      4462 9.52172E-05-2.84333E-05-2.86219E-05 3.97279E-09 5.08521E-19-4.60260E-19
 -1      4463 7.63656E-05-1.74144E-05-2.52418E-05-7.45319E-06-2.34999E-19-1.67047E-18
 -1      4464 9.20451E-05-2.50867E-05-2.87101E-05 1.40854E-07 8.31050E-20-1.54294E-18
 -1      4465 9.15895E-05-2.47116E-05-2.86759E-05 2.37405E-07-3.49603E-19-1.40294E-18
 -1      4466 9.10678E-05-2.42997E-05-2.86291E-05 2.07368E-07-4.85876E-19-7.66696E-19
 -1      4467 9.05273E-05-2.38793E-05-2.85702E-05 3.16786E-07-6.14401E-19-1.08461E-18
 -1      4468 7.88223E-05-1.84623E-05-2.58889E-05 9.36587E-07-3.21466E-19 2.20876E-19
 -1      4469 7.23416E-05-1.53808E-05-2.43165E-05-2.38636E-07-1.61375E-19-1.60555E-18
 -1      4470 7.42041E-05-1.62089E-05-2.49198E-05-3.86213E-06-2.51896E-19-1.58730E-18
 -1      4471 9.01360E-05-2.35674E-05-2.85208E-05-2.86456E-07-1.49095E-19-8.11783E-19
 -1      4472 8.95470E-05-2.31706E-05-2.84438E-05-3.40775E-07-8.96211E-19-9.69085E-19
 -1      4473 9.38608E-05-2.67439E-05-2.87625E-05-1.30423E-07-1.38198E-18 6.35829E-19
 -1      4474 9.40477E-05-2.69462E-05-2.87555E-05-1.05420E-07-1.03541E-18 3.05813E-20
 -1      4475 9.35913E-05-2.64696E-05-2.87629E-05-1.59062E-07-4.92582E-19-9.40157E-20
 -1      4476 8.87193E-05-2.26127E-05-2.83177E-05-3.94258E-07-1.45049E-18-7.31661E-19
 -3
    1PSTEP                         4           1           1          
  100CL  101 1.000000000        4476                     0    1           1
 -4  ERROR       1    1
 -5  STR(%)      1    1    0    0
 -1         1 1.49492E+01
 -1         2 2.52085E+01
 -1         3 4.76208E-04
 -1         4 5.29001E-04
 -1         5 1.33913E+01
 -1         6 1.24682E+01
 -1         7 1.24682E+01
 -1         8 3.53707E+00
 -1         9 1.95438E+00
 -1        10 1.42933E+00
 -1        11 1.13300E+00
 -1        12 9.02703E-01
 -1        13 7.14800E-01
 -1        14 5.68175E-01
 -1        15 5.85921E-01
 -1        16 7.36594E-01
 -1        17 9.12591E-01
 -1        18 1.14903E+00
 -1        19 1.45119E+00
 -1        20 1.95938E+00
 -1        21 3.39070E+00
 -1        22 8.14137E+00
 -1        23 1.24682E+01
 -1        24 3.97615E+00
 -1        25 2.74432E+00
 -1        26 1.70603E+00
 -1        27 1.13620E+00
 -1        28 8.64213E-01
 -1        29 9.88342E-01
 -1        30 1.28243E+00
 -1        31 1.37646E+00
 -1        32 1.37646E+00
 -1        33 1.34917E+00
 -1        34 1.73996E+00
 -1        35 2.77835E+00
 -1        36 4.12471E+00
 -1        37 4.28338E+00
 -1        38 4.36274E+00
 -1        39 4.36274E+00
 -1        40 3.31255E+00
 -1        41 1.95571E+00
 -1        42 1.52139E+00
 -1        43 1.52139E+00
 -1        44 1.47561E+00
 -1        45 1.47561E+00
 -1        46 1.32816E+00
 -1        47 1.09458E+00
 -1        48 8.73809E-01
 -1        49 6.84766E-01
 -1        50 5.52353E-01
 -1        51 4.62019E-01
 -1        52 3.73115E-01
 -1        53 2.92594E-01
 -1        54 2.23520E-01
 -1        55 1.66545E-01
 -1        56 1.20971E-01
 -1        57 9.93357E-02
 -1        58 8.14059E-02
 -1        59 6.52976E-02
 -1        60 5.13287E-02
 -1        61 3.95356E-02
 -1        62 2.97865E-02
 -1        63 2.26440E-02
 -1        64 1.86778E-02
 -1        65 1.49569E-02
 -1        66 1.15468E-02
 -1        67 8.44210E-03
 -1        68 5.84286E-03
 -1        69 4.77279E-03
 -1        70 3.85633E-03
 -1        71 2.72913E-03
 -1        72 1.33913E+01
 -1        73 3.20914E+00
 -1        74 2.08318E+00
 -1        75 1.48107E+00
 -1        76 1.16757E+00
 -1        77 8.57493E-01
 -1        78 7.40856E-01
 -1        79 7.90613E-01
 -1        80 9.15383E-01
 -1        81 1.15515E+00
 -1        82 1.27146E+00
 -1        83 1.55970E+00
 -1        84 1.80879E+00
 -1        85 2.85905E+00
 -1        86 3.22064E+00
 -1        87 3.71176E+00
 -1        88 3.71176E+00
 -1        89 3.23587E+00
 -1        90 2.06335E+00
 -1        91 1.33585E+00
 -1        92 1.02535E+00
 -1        93 1.16297E+00
 -1        94 1.19686E+00
 -1        95 1.19686E+00
 -1        96 1.09497E+00
 -1        97 9.29074E-01
 -1        98 7.81439E-01
 -1        99 6.28220E-01
 -1       100 4.84899E-01
 -1       101 3.60393E-01
 -1       102 2.79213E-01
 -1       103 2.16004E-01
 -1       104 1.62644E-01
 -1       105 1.19193E-01
 -1       106 8.48464E-02
 -1       107 5.83973E-02
 -1       108 4.56505E-02
 -1       109 3.78103E-02
 -1       110 3.05920E-02
 -1       111 2.42017E-02
 -1       112 1.93269E-02
 -1       113 1.71176E-02
 -1       114 1.46231E-02
 -1       115 1.20461E-02
 -1       116 9.47944E-03
 -1       117 7.10111E-03
 -1       118 4.94577E-03
 -1       119 3.79895E-03
 -1       120 2.12306E-03
 -1       121 9.88707E-04
 -1       122 9.31524E-04
 -1       123 5.37971E-04
 -1       124 2.59915E-04
 -1       125 4.62297E-04
 -1       126 5.86311E-04
 -1       127 6.47401E-04
 -1       128 6.61886E-04
 -1       129 6.61886E-04
 -1       130 6.47630E-04
 -1       131 5.81329E-04
 -1       132 4.63276E-04
 -1       133 2.58602E-04
 -1       134 5.52485E-04
 -1       135 1.23502E-03
 -1       136 1.62561E-03
 -1       137 2.52085E+01
 -1       138 4.73164E+01
 -1       139 4.73164E+01
 -1       140 1.92245E+01
 -1       141 1.24334E+01
 -1       142 1.24334E+01
 -1       143 1.20014E+01
 -1       144 1.20913E+01
 -1       145 1.20913E+01
 -1       146 1.20019E+01
 -1       147 2.93186E+01
 -1       148 2.95808E+01
 -1       149 2.80812E+01
 -1       150 2.55983E+01
 -1       151 2.48946E+01
 -1       152 2.48946E+01
 -1       153 4.00828E+01
 -1       154 4.00828E+01
 -1       155 1.19306E+01
 -1       156 1.19878E+01
 -1       157 1.25317E+01
 -1       158 1.25317E+01
 -1       159 1.21264E+01
 -1       160 1.21337E+01
 -1       161 2.66993E+01
 -1       162 2.88969E+01
 -1       163 2.83068E+01
 -1       164 2.44226E+01
 -1       165 5.77637E+00
 -1       166 2.42262E+00
 -1       167 1.68096E+00
 -1       168 1.28177E+00
 -1       169 1.00812E+00
 -1       170 7.96293E-01
 -1       171 6.26099E-01
 -1       172 5.14702E-01
 -1       173 6.45857E-01
 -1       174 8.11577E-01
 -1       175 1.02862E+00
 -1       176 1.30285E+00
 -1       177 1.70154E+00
 -1       178 2.40918E+00
 -1       179 3.77770E+00
 -1       180 1.33913E+01
 -1       181 3.97615E+00
 -1       182 2.74432E+00
 -1       183 1.70603E+00
 -1       184 1.13620E+00
 -1       185 8.54902E-01
 -1       186 8.64213E-01
 -1       187 9.88342E-01
 -1       188 1.28243E+00
 -1       189 1.37646E+00
 -1       190 1.34917E+00
 -1       191 1.27836E+00
 -1       192 1.73996E+00
 -1       193 2.77835E+00
 -1       194 4.12471E+00
 -1       195 4.28338E+00
 -1       196 4.36274E+00
 -1       197 3.31255E+00
 -1       198 2.00227E+00
 -1       199 1.42609E+00
 -1       200 1.52139E+00
 -1       201 1.41650E+00
 -1       202 1.47561E+00
 -1       203 1.32816E+00
 -1       204 1.09458E+00
 -1       205 9.27971E-01
 -1       206 8.02281E-01
 -1       207 6.57188E-01
 -1       208 5.15371E-01
 -1       209 3.89076E-01
 -1       210 2.92594E-01
 -1       211 2.28018E-01
 -1       212 1.75669E-01
 -1       213 1.32290E-01
 -1       214 9.93357E-02
 -1       215 8.14059E-02
 -1       216 6.52976E-02
 -1       217 5.13287E-02
 -1       218 3.95356E-02
 -1       219 2.97944E-02
 -1       220 2.30861E-02
 -1       221 1.86778E-02
 -1       222 1.49569E-02
 -1       223 1.15468E-02
 -1       224 8.66695E-03
 -1       225 6.24436E-03
 -1       226 4.77279E-03
 -1       227 3.85633E-03
 -1       228 2.72913E-03
 -1       229 3.20914E+00
 -1       230 2.08318E+00
 -1       231 1.48107E+00
 -1       232 1.16757E+00
 -1       233 8.57493E-01
 -1       234 7.40856E-01
 -1       235 6.93951E-01
 -1       236 7.90613E-01
 -1       237 9.15383E-01
 -1       238 1.15515E+00
 -1       239 1.27146E+00
 -1       240 1.55970E+00
 -1       241 2.03305E+00
 -1       242 2.85905E+00
 -1       243 3.22064E+00
 -1       244 3.71176E+00
 -1       245 3.23587E+00
 -1       246 2.06335E+00
 -1       247 1.33585E+00
 -1       248 9.22428E-01
 -1       249 1.02535E+00
 -1       250 1.16297E+00
 -1       251 1.19686E+00
 -1       252 1.09497E+00
 -1       253 9.29074E-01
 -1       254 7.81439E-01
 -1       255 6.44188E-01
 -1       256 5.11957E-01
 -1       257 3.92082E-01
 -1       258 2.89903E-01
 -1       259 2.16004E-01
 -1       260 1.62644E-01
 -1       261 1.19395E-01
 -1       262 8.72833E-02
 -1       263 6.20473E-02
 -1       264 4.56505E-02
 -1       265 3.78103E-02
 -1       266 3.05920E-02
 -1       267 2.42017E-02
 -1       268 1.93269E-02
 -1       269 1.71176E-02
 -1       270 1.46231E-02
 -1       271 1.20461E-02
 -1       272 9.47944E-03
 -1       273 7.10111E-03
 -1       274 4.94577E-03
 -1       275 3.79895E-03
 -1       276 2.17934E-03
 -1       277 9.97295E-04
 -1       278 9.59092E-04
 -1       279 6.67350E-04
 -1       280 7.61934E-04
 -1       281 1.01494E-03
 -1       282 1.14616E-03
 -1       283 1.19387E-03
 -1       284 1.19400E-03
 -1       285 1.19400E-03
 -1       286 1.14319E-03
 -1       287 1.01564E-03
 -1       288 7.75041E-04
 -1       289 6.50880E-04
 -1       290 6.50880E-04
 -1       291 1.58273E-03
 -1       292 3.07024E+01
 -1       293 2.93716E+01
 -1       294 4.73164E+01
 -1       295 2.14571E+01
 -1       296 1.07863E+01
 -1       297 1.24334E+01
 -1       298 1.20014E+01
 -1       299 1.19132E+01
 -1       300 1.20913E+01
 -1       301 1.19359E+01
 -1       302 1.20019E+01
 -1       303 2.95808E+01
 -1       304 2.95808E+01
 -1       305 2.81399E+01
 -1       306 2.81399E+01
 -1       307 2.72557E+01
 -1       308 3.63819E+01
 -1       309 4.00828E+01
 -1       310 1.56345E+01
 -1       311 1.10066E+01
 -1       312 1.19306E+01
 -1       313 1.19878E+01
 -1       314 1.25317E+01
 -1       315 1.21264E+01
 -1       316 1.11971E+01
 -1       317 1.21337E+01
 -1       318 2.88969E+01
 -1       319 3.32973E+01
 -1       320 3.32973E+01
 -1       321 3.07024E+01
 -1       322 1.26576E+00
 -1       323 2.43107E+00
 -1       324 9.16953E-01
 -1       325 7.41934E-01
 -1       326 5.95536E-01
 -1       327 4.66850E-01
 -1       328 4.88257E-01
 -1       329 6.14112E-01
 -1       330 7.64649E-01
 -1       331 9.24709E-01
 -1       332 1.10123E+00
 -1       333 1.35767E+00
 -1       334 1.45734E+00
 -1       335 1.83152E+00
 -1       336 1.45476E+00
 -1       337 1.14527E+00
 -1       338 6.37263E-01
 -1       339 5.12361E-01
 -1       340 6.21264E-01
 -1       341 7.50295E-01
 -1       342 8.71405E-01
 -1       343 9.29844E-01
 -1       344 8.51764E-01
 -1       345 1.00070E+00
 -1       346 1.25520E+00
 -1       347 1.81114E+00
 -1       348 2.37002E+00
 -1       349 2.61468E+00
 -1       350 2.59133E+00
 -1       351 2.54178E+00
 -1       352 1.92635E+00
 -1       353 1.35153E+00
 -1       354 9.75898E-01
 -1       355 8.88030E-01
 -1       356 1.05585E+00
 -1       357 1.13429E+00
 -1       358 1.06458E+00
 -1       359 9.50467E-01
 -1       360 8.51129E-01
 -1       361 7.31523E-01
 -1       362 6.00958E-01
 -1       363 4.75896E-01
 -1       364 3.65072E-01
 -1       365 2.71927E-01
 -1       366 1.96675E-01
 -1       367 1.37789E-01
 -1       368 9.73540E-02
 -1       369 6.98867E-02
 -1       370 5.08406E-02
 -1       371 4.05060E-02
 -1       372 3.32877E-02
 -1       373 2.67110E-02
 -1       374 2.09124E-02
 -1       375 1.59187E-02
 -1       376 1.27298E-02
 -1       377 1.05209E-02
 -1       378 8.28429E-03
 -1       379 6.18486E-03
 -1       380 4.50553E-03
 -1       381 3.14113E-03
 -1       382 2.40955E-03
 -1       383 7.85935E-01
 -1       384 6.08572E-01
 -1       385 5.14108E-01
 -1       386 5.37332E-01
 -1       387 5.91711E-01
 -1       388 5.90805E-01
 -1       389 5.23189E-01
 -1       390 5.05970E-01
 -1       391 9.39032E-01
 -1       392 1.54858E+00
 -1       393 1.88856E+00
 -1       394 1.88856E+00
 -1       395 1.86664E+00
 -1       396 2.13045E+00
 -1       397 2.10007E+00
 -1       398 1.54028E+00
 -1       399 9.19048E-01
 -1       400 6.01220E-01
 -1       401 7.30884E-01
 -1       402 8.44639E-01
 -1       403 8.81039E-01
 -1       404 8.65802E-01
 -1       405 7.80435E-01
 -1       406 6.98985E-01
 -1       407 5.94119E-01
 -1       408 4.83289E-01
 -1       409 3.78820E-01
 -1       410 2.87156E-01
 -1       411 2.10718E-01
 -1       412 1.59198E-01
 -1       413 1.19395E-01
 -1       414 8.72833E-02
 -1       415 6.20473E-02
 -1       416 4.26789E-02
 -1       417 2.85477E-02
 -1       418 2.46091E-02
 -1       419 2.05567E-02
 -1       420 1.66648E-02
 -1       421 1.30865E-02
 -1       422 1.00353E-02
 -1       423 8.54212E-03
 -1       424 7.07467E-03
 -1       425 5.63788E-03
 -1       426 4.34683E-03
 -1       427 3.06611E-03
 -1       428 2.17934E-03
 -1       429 1.08613E-03
 -1       430 1.89055E-03
 -1       431 1.89055E-03
 -1       432 1.33859E-03
 -1       433 1.49009E-03
 -1       434 1.54466E-03
 -1       435 1.54466E-03
 -1       436 1.54298E-03
 -1       437 1.54298E-03
 -1       438 1.49373E-03
 -1       439 1.33666E-03
 -1       440 1.08199E-03
 -1       441 1.88632E-03
 -1       442 2.93716E+01
 -1       443 3.10071E+01
 -1       444 2.97962E+01
 -1       445 1.65664E+01
 -1       446 9.74376E+00
 -1       447 1.25018E+00
 -1       448 9.78034E+00
 -1       449 9.87085E+00
 -1       450 1.03120E+01
 -1       451 8.96182E+00
 -1       452 6.83273E+00
 -1       453 1.08296E+01
 -1       454 1.98838E+01
 -1       455 2.55791E+01
 -1       456 3.58598E+01
 -1       457 3.58598E+01
 -1       458 2.07318E+01
 -1       459 2.44550E+01
 -1       460 1.38354E+01
 -1       461 8.27353E+00
 -1       462 8.45772E+00
 -1       463 1.05740E+01
 -1       464 1.06664E+01
 -1       465 9.90838E+00
 -1       466 8.55233E+00
 -1       467 6.87599E+00
 -1       468 1.10564E+01
 -1       469 1.87819E+01
 -1       470 3.32973E+01
 -1       471 3.10071E+01
 -1       472 7.34771E+00
 -1       473 9.78266E-01
 -1       474 5.53896E-01
 -1       475 6.94337E-01
 -1       476 3.11067E-01
 -1       477 4.28200E-01
 -1       478 5.62796E-01
 -1       479 6.86147E-01
 -1       480 7.82452E-01
 -1       481 1.08759E+00
 -1       482 9.04092E+00
 -1       483 5.35790E-01
 -1       484 7.88850E-01
 -1       485 5.41432E+00
 -1       486 6.48779E-01
 -1       487 6.78574E-01
 -1       488 7.96758E-01
 -1       489 9.52808E-01
 -1       490 1.11831E+00
 -1       491 1.25235E+00
 -1       492 1.39687E+00
 -1       493 1.85535E+00
 -1       494 1.94102E+00
 -1       495 1.96620E+00
 -1       496 2.86575E+00
 -1       497 3.83491E+00
 -1       498 3.00115E+00
 -1       499 2.17454E+00
 -1       500 1.77588E+00
 -1       501 1.83135E+00
 -1       502 1.53149E+00
 -1       503 1.31258E+00
 -1       504 1.21752E+00
 -1       505 1.07099E+00
 -1       506 9.99027E-01
 -1       507 8.93604E-01
 -1       508 7.58207E-01
 -1       509 6.21679E-01
 -1       510 4.96414E-01
 -1       511 3.90027E-01
 -1       512 2.99862E-01
 -1       513 2.25323E-01
 -1       514 1.65422E-01
 -1       515 1.18436E-01
 -1       516 8.23911E-02
 -1       517 5.53317E-02
 -1       518 3.63847E-02
 -1       519 2.53083E-02
 -1       520 1.95682E-02
 -1       521 1.69080E-02
 -1       522 1.40924E-02
 -1       523 1.13339E-02
 -1       524 8.75766E-03
 -1       525 7.09186E-03
 -1       526 5.69702E-03
 -1       527 4.26430E-03
 -1       528 3.14113E-03
 -1       529 6.08230E-01
 -1       530 6.97191E-01
 -1       531 7.58233E-01
 -1       532 7.55193E-01
 -1       533 9.61430E-01
 -1       534 1.05871E+00
 -1       535 1.39313E+00
 -1       536 1.65117E+00
 -1       537 2.07155E+00
 -1       538 2.40436E+00
 -1       539 2.27053E+00
 -1       540 1.93924E+00
 -1       541 1.57770E+00
 -1       542 1.24194E+00
 -1       543 1.03622E+00
 -1       544 9.18659E-01
 -1       545 9.13128E-01
 -1       546 9.15715E-01
 -1       547 8.50879E-01
 -1       548 7.84742E-01
 -1       549 7.07636E-01
 -1       550 6.15284E-01
 -1       551 5.12456E-01
 -1       552 4.11933E-01
 -1       553 3.21042E-01
 -1       554 2.43149E-01
 -1       555 1.79028E-01
 -1       556 1.27938E-01
 -1       557 8.83712E-02
 -1       558 5.85327E-02
 -1       559 4.08903E-02
 -1       560 2.89858E-02
 -1       561 2.46091E-02
 -1       562 2.05567E-02
 -1       563 1.66648E-02
 -1       564 1.30865E-02
 -1       565 1.00353E-02
 -1       566 8.45324E-03
 -1       567 6.72944E-03
 -1       568 5.02807E-03
 -1       569 3.86989E-03
 -1       570 2.99683E-03
 -1       571 1.78707E-03
 -1       572 1.81370E-03
 -1       573 2.23716E-03
 -1       574 1.92561E-03
 -1       575 1.81370E-03
 -1       576 1.76397E-03
 -1       577 1.81454E-03
 -1       578 1.81454E-03
 -1       579 1.80191E-03
 -1       580 1.63784E-03
 -1       581 1.63784E-03
 -1       582 2.97962E+01
 -1       583 1.28838E+01
 -1       584 5.32321E-01
 -1       585 3.10071E+01
 -1       586 1.95632E+01
 -1       587 1.25018E+00
 -1       588 9.63253E+00
 -1       589 5.95800E+00
 -1       590 6.75107E+00
 -1       591 4.08612E-01
 -1       592 8.55186E+00
 -1       593 2.55791E+01
 -1       594 7.78702E+00
 -1       595 6.55034E+00
 -1       596 4.18470E+00
 -1       597 1.07341E+01
 -1       598 6.22860E+00
 -1       599 1.60661E+01
 -1       600 3.58598E+01
 -1       601 2.19376E+01
 -1       602 1.79234E+01
 -1       603 1.14577E+01
 -1       604 8.29152E+00
 -1       605 4.81124E+00
 -1       606 7.94905E+00
 -1       607 8.40667E+00
 -1       608 4.34984E+00
 -1       609 5.03474E+00
 -1       610 1.28533E+01
 -1       611 2.22658E+01
 -1       612 5.51090E+00
 -1       613 1.08759E+00
 -1       614 9.69808E-01
 -1       615 1.95285E+01
 -1       616 1.95653E-03
 -1       617 5.32729E-01
 -1       618 3.39154E-01
 -1       619 7.08809E-01
 -1       620 7.52683E-01
 -1       621 3.32898E+00
 -1       622 8.30330E-01
 -1       623 7.43768E-01
 -1       624 8.58932E-01
 -1       625 1.01694E+00
 -1       626 1.22545E+00
 -1       627 1.56557E+00
 -1       628 1.96497E+00
 -1       629 2.21182E+00
 -1       630 3.07135E+00
 -1       631 2.86941E+00
 -1       632 2.86575E+00
 -1       633 4.29111E+00
 -1       634 3.00115E+00
 -1       635 2.34753E+00
 -1       636 2.37964E+00
 -1       637 2.33194E+00
 -1       638 2.13078E+00
 -1       639 1.77241E+00
 -1       640 1.42158E+00
 -1       641 1.19357E+00
 -1       642 1.02516E+00
 -1       643 8.55475E-01
 -1       644 6.98493E-01
 -1       645 5.59915E-01
 -1       646 4.41257E-01
 -1       647 3.42007E-01
 -1       648 2.60640E-01
 -1       649 1.95143E-01
 -1       650 1.43317E-01
 -1       651 1.02999E-01
 -1       652 7.21737E-02
 -1       653 4.90354E-02
 -1       654 3.20099E-02
 -1       655 1.97595E-02
 -1       656 1.22319E-02
 -1       657 9.51734E-03
 -1       658 8.61289E-03
 -1       659 7.37856E-03
 -1       660 6.00638E-03
 -1       661 4.71365E-03
 -1       662 3.83923E-03
 -1       663 2.89195E-03
 -1       664 9.33142E-01
 -1       665 3.61500E-03
 -1       666 7.88367E-01
 -1       667 1.18390E+00
 -1       668 1.55842E+00
 -1       669 1.77193E+00
 -1       670 1.80394E+00
 -1       671 2.94613E+00
 -1       672 5.17504E+00
 -1       673 5.41397E+00
 -1       674 2.56506E+00
 -1       675 2.48002E+00
 -1       676 1.85483E+00
 -1       677 1.72131E+00
 -1       678 1.48930E+00
 -1       679 1.29030E+00
 -1       680 1.17156E+00
 -1       681 1.01041E+00
 -1       682 8.59475E-01
 -1       683 7.70796E-01
 -1       684 6.63346E-01
 -1       685 5.52486E-01
 -1       686 4.47679E-01
 -1       687 3.54051E-01
 -1       688 2.73767E-01
 -1       689 2.07086E-01
 -1       690 1.53149E-01
 -1       691 1.10529E-01
 -1       692 7.75839E-02
 -1       693 5.26650E-02
 -1       694 3.42366E-02
 -1       695 2.09379E-02
 -1       696 1.41443E-02
 -1       697 1.25599E-02
 -1       698 1.09845E-02
 -1       699 9.17642E-03
 -1       700 7.31982E-03
 -1       701 5.65856E-03
 -1       702 4.51675E-03
 -1       703 4.10757E-03
 -1       704 1.91210E-03
 -1       705 1.95305E-03
 -1       706 2.08825E-03
 -1       707 1.88443E-03
 -1       708 2.02565E-03
 -1       709 5.55451E+00
 -1       710 1.98917E-03
 -1       711 2.08527E-03
 -1       712 2.08527E-03
 -1       713 2.29392E-03
 -1       714 3.01334E+00
 -1       715 5.37989E+00
 -1       716 1.59228E+01
 -1       717 1.03742E+01
 -1       718 1.13170E+00
 -1       719 1.45196E+01
 -1       720 1.26249E+01
 -1       721 5.17504E+00
 -1       722 6.49809E-01
 -1       723 1.08398E+00
 -1       724 1.13170E+00
 -1       725 8.82132E+00
 -1       726 6.93183E+00
 -1       727 2.58189E+00
 -1       728 4.51016E+00
 -1       729 6.48280E-01
 -1       730 6.49181E-01
 -1       731 5.55920E+00
 -1       732 7.30848E+00
 -1       733 1.32406E+01
 -1       734 9.22642E+00
 -1       735 4.16375E+00
 -1       736 9.37733E+00
 -1       737 1.67931E+01
 -1       738 5.65968E+00
 -1       739 4.60219E+00
 -1       740 5.32321E-01
 -1       741 5.71001E+00
 -1       742 3.00018E+00
 -1       743 5.19712E+00
 -1       744 8.42837E+00
 -1       745 1.13170E+00
 -1       746 3.20270E-01
 -1       747 3.10645E-03
 -1       748 1.44746E+01
 -1       749 3.71998E+00
 -1       750 1.15654E+01
 -1       751 5.25753E+00
 -1       752 3.24447E+00
 -1       753 5.05002E-01
 -1       754 1.36523E+01
 -1       755 7.17915E+00
 -1       756 9.77907E+00
 -1       757 7.99774E-01
 -1       758 3.80777E+00
 -1       759 5.96501E+00
 -1       760 1.06300E+00
 -1       761 1.38360E+00
 -1       762 1.79840E+00
 -1       763 2.22195E+00
 -1       764 2.78855E+00
 -1       765 4.16914E+00
 -1       766 2.37964E+00
 -1       767 3.40488E+00
 -1       768 2.53691E+00
 -1       769 2.00325E+00
 -1       770 1.59183E+00
 -1       771 1.23228E+00
 -1       772 9.57801E-01
 -1       773 7.48622E-01
 -1       774 6.05058E-01
 -1       775 4.82047E-01
 -1       776 3.74937E-01
 -1       777 2.85258E-01
 -1       778 2.12358E-01
 -1       779 1.54551E-01
 -1       780 1.10393E-01
 -1       781 7.80315E-02
 -1       782 5.36881E-02
 -1       783 3.68759E-02
 -1       784 2.44709E-02
 -1       785 1.55022E-02
 -1       786 9.18180E-03
 -1       787 5.62072E-03
 -1       788 5.70286E-03
 -1       789 5.39595E-03
 -1       790 4.71365E-03
 -1       791 3.83923E-03
 -1       792 3.42123E-03
 -1       793 1.00860E+00
 -1       794 2.39035E+00
 -1       795 2.03125E+00
 -1       796 2.94613E+00
 -1       797 2.56506E+00
 -1       798 3.14636E+00
 -1       799 1.93842E+00
 -1       800 1.60634E+00
 -1       801 1.26655E+00
 -1       802 1.06869E+00
 -1       803 8.90701E-01
 -1       804 7.31218E-01
 -1       805 5.90916E-01
 -1       806 4.67861E-01
 -1       807 3.63868E-01
 -1       808 2.81196E-01
 -1       809 2.14482E-01
 -1       810 1.61040E-01
 -1       811 1.18788E-01
 -1       812 8.58710E-02
 -1       813 6.06334E-02
 -1       814 4.16151E-02
 -1       815 2.75443E-02
 -1       816 1.73529E-02
 -1       817 1.01631E-02
 -1       818 6.88166E-03
 -1       819 6.83524E-03
 -1       820 6.22985E-03
 -1       821 5.30494E-03
 -1       822 4.20345E-03
 -1       823 5.30728E-01
 -1       824 2.30978E-03
 -1       825 1.76091E-03
 -1       826 5.85497E+00
 -1       827 2.99675E-03
 -1       828 1.92981E-03
 -1       829 9.38408E+00
 -1       830 8.54875E-01
 -1       831 6.92825E+00
 -1       832 5.96501E+00
 -1       833 9.04934E+00
 -1       834 3.35643E+00
 -1       835 5.94564E-01
 -1       836 9.14950E+00
 -1       837 5.85482E+00
 -1       838 7.10024E+00
 -1       839 8.46810E-01
 -1       840 8.41632E+00
 -1       841 1.04537E+01
 -1       842 2.93183E+00
 -1       843 4.43022E+00
 -1       844 6.87512E+00
 -1       845 4.83149E-01
 -1       846 2.93147E-03
 -1       847 7.74495E+00
 -1       848 7.22885E-01
 -1       849 3.96326E+00
 -1       850 1.04681E+00
 -1       851 6.38181E+00
 -1       852 1.25019E+00
 -1       853 4.07174E+00
 -1       854 1.60075E+00
 -1       855 2.31617E+00
 -1       856 3.66085E-03
 -1       857 2.14085E-03
 -1       858 6.76523E-01
 -1       859 1.91210E-03
 -1       860 9.04934E+00
 -1       861 8.36353E-01
 -1       862 4.63792E+00
 -1       863 7.81521E-01
 -1       864 3.16404E-03
 -1       865 7.13128E+00
 -1       866 3.14636E+00
 -1       867 7.54581E-01
 -1       868 4.25708E+00
 -1       869 7.72789E+00
 -1       870 6.38124E+00
 -1       871 7.18072E+00
 -1       872 1.87500E+00
 -1       873 2.88367E+00
 -1       874 4.77723E+00
 -1       875 4.29880E+00
 -1       876 4.07174E+00
 -1       877 2.53691E+00
 -1       878 1.82521E+00
 -1       879 1.38260E+00
 -1       880 1.14590E+00
 -1       881 9.32363E-01
 -1       882 7.45325E-01
 -1       883 5.87351E-01
 -1       884 4.56853E-01
 -1       885 3.50635E-01
 -1       886 2.65147E-01
 -1       887 1.97383E-01
 -1       888 1.44265E-01
 -1       889 1.03222E-01
 -1       890 7.19898E-02
 -1       891 4.95749E-02
 -1       892 3.32582E-02
 -1       893 2.13388E-02
 -1       894 1.28278E-02
 -1       895 6.92357E-03
 -1       896 3.34852E-03
 -1       897 3.37155E-03
 -1       898 3.62359E-03
 -1       899 3.42717E-03
 -1       900 3.42123E-03
 -1       901 5.35944E+00
 -1       902 3.14636E+00
 -1       903 1.43232E+00
 -1       904 1.07586E+00
 -1       905 8.36587E-01
 -1       906 6.65985E-01
 -1       907 5.46345E-01
 -1       908 4.38812E-01
 -1       909 3.44747E-01
 -1       910 2.65298E-01
 -1       911 2.00082E-01
 -1       912 1.47701E-01
 -1       913 1.06467E-01
 -1       914 7.47174E-02
 -1       915 5.19998E-02
 -1       916 3.49630E-02
 -1       917 2.24563E-02
 -1       918 1.35971E-02
 -1       919 7.46581E-03
 -1       920 4.11806E-03
 -1       921 4.06946E-03
 -1       922 4.16962E-03
 -1       923 3.82439E-03
 -1       924 2.55870E-03
 -1       925 1.10350E+00
 -1       926 1.98081E+00
 -1       927 2.63721E+00
 -1       928 4.81131E+00
 -1       929 2.93535E+00
 -1       930 5.93291E-01
 -1       931 5.69377E+00
 -1       932 1.07036E+00
 -1       933 1.31465E+00
 -1       934 5.46225E+00
 -1       935 7.40545E-01
 -1       936 7.15345E+00
 -1       937 8.36353E-01
 -1       938 2.12931E-03
 -1       939 1.39762E+00
 -1       940 2.03125E+00
 -1       941 7.26202E-01
 -1       942 3.12749E-03
 -1       943 8.80544E-01
 -1       944 1.81593E-03
 -1       945 2.16806E-03
 -1       946 6.15812E+00
 -1       947 4.82351E+00
 -1       948 8.80544E-01
 -1       949 1.66007E-03
 -1       950 9.12266E-01
 -1       951 5.95255E+00
 -1       952 2.81032E+00
 -1       953 4.82343E+00
 -1       954 2.52869E+00
 -1       955 1.31465E+00
 -1       956 3.62312E+00
 -1       957 7.77598E-01
 -1       958 4.14174E+00
 -1       959 1.55499E+00
 -1       960 1.14868E+00
 -1       961 8.81423E-01
 -1       962 6.68903E-01
 -1       963 5.10671E-01
 -1       964 3.90278E-01
 -1       965 2.97790E-01
 -1       966 2.26268E-01
 -1       967 1.70323E-01
 -1       968 1.26937E-01
 -1       969 9.31870E-02
 -1       970 6.71780E-02
 -1       971 4.74031E-02
 -1       972 3.25589E-02
 -1       973 2.26549E-02
 -1       974 1.52655E-02
 -1       975 1.00522E-02
 -1       976 6.38108E-03
 -1       977 3.71799E-03
 -1       978 1.81954E-03
 -1       979 2.44009E-03
 -1       980 2.73097E-03
 -1       981 1.81622E-03
 -1       982 1.03879E+00
 -1       983 1.36035E+00
 -1       984 6.65985E-01
 -1       985 5.24370E-01
 -1       986 4.08919E-01
 -1       987 3.15166E-01
 -1       988 2.39929E-01
 -1       989 1.80024E-01
 -1       990 1.32592E-01
 -1       991 9.57540E-02
 -1       992 6.74794E-02
 -1       993 4.63094E-02
 -1       994 3.15691E-02
 -1       995 2.06606E-02
 -1       996 1.27923E-02
 -1       997 7.26542E-03
 -1       998 3.61639E-03
 -1       999 2.39819E-03
 -1      1000 2.85887E-03
 -1      1001 7.99917E-01
 -1      1002 5.24794E+00
 -1      1003 5.24794E+00
 -1      1004 3.08872E+00
 -1      1005 1.62455E+00
 -1      1006 8.36587E-01
 -1      1007 1.66254E+00
 -1      1008 1.07036E+00
 -1      1009 2.53807E-03
 -1      1010 1.80966E+00
 -1      1011 3.88771E+00
 -1      1012 7.77598E-01
 -1      1013 2.34702E+00
 -1      1014 2.24629E+00
 -1      1015 4.88718E+00
 -1      1016 1.04986E+00
 -1      1017 2.73097E-03
 -1      1018 4.78534E+00
 -1      1019 9.77338E-01
 -1      1020 5.02204E+00
 -1      1021 2.12292E-03
 -1      1022 2.30472E+00
 -1      1023 1.66007E-03
 -1      1024 2.29400E+00
 -1      1025 1.23692E+00
 -1      1026 1.88473E+00
 -1      1027 2.69477E+00
 -1      1028 1.62362E+00
 -1      1029 2.31185E+00
 -1      1030 1.67199E-03
 -1      1031 1.80224E-03
 -1      1032 1.36845E+00
 -1      1033 9.86247E-01
 -1      1034 7.07450E-01
 -1      1035 5.23431E-01
 -1      1036 3.91848E-01
 -1      1037 3.04259E-01
 -1      1038 2.39872E-01
 -1      1039 1.85648E-01
 -1      1040 1.42747E-01
 -1      1041 1.08147E-01
 -1      1042 8.03999E-02
 -1      1043 5.88543E-02
 -1      1044 4.18253E-02
 -1      1045 2.95343E-02
 -1      1046 2.08683E-02
 -1      1047 1.42759E-02
 -1      1048 9.35270E-03
 -1      1049 5.74197E-03
 -1      1050 3.15677E-03
 -1      1051 2.44009E-03
 -1      1052 3.41987E-01
 -1      1053 1.79146E-03
 -1      1054 1.36035E+00
 -1      1055 3.53227E+00
 -1      1056 1.04986E+00
 -1      1057 4.48109E-01
 -1      1058 5.88945E-01
 -1      1059 2.60572E-01
 -1      1060 1.96687E-01
 -1      1061 1.46367E-01
 -1      1062 1.06876E-01
 -1      1063 7.69647E-02
 -1      1064 5.43131E-02
 -1      1065 3.72741E-02
 -1      1066 2.51552E-02
 -1      1067 1.65697E-02
 -1      1068 1.03697E-02
 -1      1069 6.18992E-03
 -1      1070 3.41789E-03
 -1      1071 1.57102E-03
 -1      1072 1.64746E+00
 -1      1073 2.81392E+00
 -1      1074 1.93843E-03
 -1      1075 1.80224E-03
 -1      1076 2.00646E+00
 -1      1077 7.75007E-01
 -1      1078 1.03234E+00
 -1      1079 2.07726E+00
 -1      1080 2.72552E+00
 -1      1081 1.15464E+00
 -1      1082 2.67514E+00
 -1      1083 1.75203E+00
 -1      1084 4.07306E+00
 -1      1085 2.25451E+00
 -1      1086 1.14038E-03
 -1      1087 4.48427E+00
 -1      1088 1.74905E+00
 -1      1089 2.81392E+00
 -1      1090 2.31185E+00
 -1      1091 1.91783E+00
 -1      1092 2.67514E+00
 -1      1093 1.62362E+00
 -1      1094 1.20505E+00
 -1      1095 1.61424E+00
 -1      1096 1.09302E+00
 -1      1097 7.81588E-01
 -1      1098 5.79881E-01
 -1      1099 4.38085E-01
 -1      1100 3.31119E-01
 -1      1101 2.54395E-01
 -1      1102 1.94325E-01
 -1      1103 1.46235E-01
 -1      1104 1.08361E-01
 -1      1105 7.84880E-02
 -1      1106 5.65991E-02
 -1      1107 3.99129E-02
 -1      1108 2.78151E-02
 -1      1109 1.90453E-02
 -1      1110 1.27552E-02
 -1      1111 8.11531E-03
 -1      1112 4.73587E-03
 -1      1113 2.55632E-03
 -1      1114 1.98980E-01
 -1      1115 3.66955E-01
 -1      1116 4.54483E-01
 -1      1117 1.52269E-01
 -1      1118 1.14061E-01
 -1      1119 9.42827E-02
 -1      1120 6.50068E-02
 -1      1121 4.52977E-02
 -1      1122 3.15203E-02
 -1      1123 2.17378E-02
 -1      1124 1.47205E-02
 -1      1125 9.48522E-03
 -1      1126 5.65026E-03
 -1      1127 2.60086E-03
 -1      1128 3.20334E-03
 -1      1129 1.75203E+00
 -1      1130 2.67514E+00
 -1      1131 2.66159E-01
 -1      1132 1.33894E+00
 -1      1133 6.43283E-01
 -1      1134 2.07203E+00
 -1      1135 8.91863E-01
 -1      1136 2.00646E+00
 -1      1137 3.06212E+00
 -1      1138 3.01430E+00
 -1      1139 2.13376E+00
 -1      1140 2.72276E+00
 -1      1141 1.45327E+00
 -1      1142 8.91863E-01
 -1      1143 6.50138E-01
 -1      1144 4.91010E-01
 -1      1145 3.84809E-01
 -1      1146 3.66955E-01
 -1      1147 2.33806E-01
 -1      1148 1.77329E-01
 -1      1149 1.33074E-01
 -1      1150 9.92511E-02
 -1      1151 9.42827E-02
 -1      1152 5.48244E-02
 -1      1153 3.82033E-02
 -1      1154 2.62751E-02
 -1      1155 1.81188E-02
 -1      1156 1.19957E-02
 -1      1157 7.38920E-03
 -1      1158 3.49932E-03
 -1      1159 3.79059E-01
 -1      1160 9.82370E-02
 -1      1161 1.24682E+01
 -1      1162 8.00265E+00
 -1      1163 2.74573E+00
 -1      1164 1.69186E+00
 -1      1165 1.28117E+00
 -1      1166 1.01785E+00
 -1      1167 8.08751E-01
 -1      1168 6.41487E-01
 -1      1169 5.77048E-01
 -1      1170 6.61258E-01
 -1      1171 8.24593E-01
 -1      1172 1.03081E+00
 -1      1173 1.30011E+00
 -1      1174 1.70528E+00
 -1      1175 2.67504E+00
 -1      1176 5.76603E+00
 -1      1177 1.07663E+01
 -1      1178 1.24682E+01
 -1      1179 8.22219E+00
 -1      1180 3.36024E+00
 -1      1181 2.22518E+00
 -1      1182 1.42112E+00
 -1      1183 1.00021E+00
 -1      1184 9.26277E-01
 -1      1185 1.13539E+00
 -1      1186 1.32945E+00
 -1      1187 1.37646E+00
 -1      1188 1.36282E+00
 -1      1189 1.54457E+00
 -1      1190 2.25915E+00
 -1      1191 3.45153E+00
 -1      1192 4.20404E+00
 -1      1193 4.32306E+00
 -1      1194 4.36274E+00
 -1      1195 3.83764E+00
 -1      1196 2.63413E+00
 -1      1197 1.73855E+00
 -1      1198 1.52139E+00
 -1      1199 1.49850E+00
 -1      1200 1.47561E+00
 -1      1201 1.40189E+00
 -1      1202 1.21137E+00
 -1      1203 9.84193E-01
 -1      1204 7.79288E-01
 -1      1205 6.18559E-01
 -1      1206 5.07186E-01
 -1      1207 4.17567E-01
 -1      1208 3.32854E-01
 -1      1209 2.58057E-01
 -1      1210 1.95032E-01
 -1      1211 1.43758E-01
 -1      1212 1.10153E-01
 -1      1213 9.03708E-02
 -1      1214 7.33517E-02
 -1      1215 5.83131E-02
 -1      1216 4.54321E-02
 -1      1217 3.46611E-02
 -1      1218 2.62153E-02
 -1      1219 2.06609E-02
 -1      1220 1.68173E-02
 -1      1221 1.32518E-02
 -1      1222 9.99444E-03
 -1      1223 7.14248E-03
 -1      1224 5.30782E-03
 -1      1225 4.31456E-03
 -1      1226 3.29273E-03
 -1      1227 1.62907E-03
 -1      1228 1.33913E+01
 -1      1229 8.30020E+00
 -1      1230 2.64616E+00
 -1      1231 1.78213E+00
 -1      1232 1.32432E+00
 -1      1233 1.01253E+00
 -1      1234 7.99174E-01
 -1      1235 7.65734E-01
 -1      1236 8.52998E-01
 -1      1237 1.03527E+00
 -1      1238 1.21330E+00
 -1      1239 1.41558E+00
 -1      1240 1.68425E+00
 -1      1241 2.33392E+00
 -1      1242 3.03985E+00
 -1      1243 3.46620E+00
 -1      1244 3.71176E+00
 -1      1245 3.47381E+00
 -1      1246 2.64961E+00
 -1      1247 1.69960E+00
 -1      1248 1.18060E+00
 -1      1249 1.09416E+00
 -1      1250 1.17991E+00
 -1      1251 1.19686E+00
 -1      1252 1.14591E+00
 -1      1253 1.01202E+00
 -1      1254 8.55256E-01
 -1      1255 7.04830E-01
 -1      1256 5.56559E-01
 -1      1257 4.22646E-01
 -1      1258 3.19803E-01
 -1      1259 2.47609E-01
 -1      1260 1.89324E-01
 -1      1261 1.40918E-01
 -1      1262 1.02020E-01
 -1      1263 7.16219E-02
 -1      1264 5.20239E-02
 -1      1265 4.17304E-02
 -1      1266 3.42011E-02
 -1      1267 2.73968E-02
 -1      1268 2.17643E-02
 -1      1269 1.82223E-02
 -1      1270 1.58703E-02
 -1      1271 1.33346E-02
 -1      1272 1.07628E-02
 -1      1273 8.29028E-03
 -1      1274 6.02344E-03
 -1      1275 4.37236E-03
 -1      1276 2.96100E-03
 -1      1277 1.29963E-03
 -1      1278 7.32458E-04
 -1      1279 9.60115E-04
 -1      1280 7.34747E-04
 -1      1281 3.98943E-04
 -1      1282 3.61106E-04
 -1      1283 5.24304E-04
 -1      1284 6.16856E-04
 -1      1285 6.54644E-04
 -1      1286 6.61886E-04
 -1      1287 6.54758E-04
 -1      1288 6.14479E-04
 -1      1289 5.22303E-04
 -1      1290 3.60939E-04
 -1      1291 4.05544E-04
 -1      1292 8.93754E-04
 -1      1293 1.43032E-03
 -1      1294 1.07730E-03
 -1      1295 2.52085E+01
 -1      1296 3.62625E+01
 -1      1297 4.73164E+01
 -1      1298 3.32705E+01
 -1      1299 1.58290E+01
 -1      1300 1.24334E+01
 -1      1301 1.22174E+01
 -1      1302 1.20463E+01
 -1      1303 1.20913E+01
 -1      1304 1.20466E+01
 -1      1305 2.06602E+01
 -1      1306 2.94497E+01
 -1      1307 2.88310E+01
 -1      1308 2.68397E+01
 -1      1309 2.52464E+01
 -1      1310 2.48946E+01
 -1      1311 3.24887E+01
 -1      1312 4.00828E+01
 -1      1313 2.75160E+01
 -1      1314 1.34399E+01
 -1      1315 1.19592E+01
 -1      1316 1.22598E+01
 -1      1317 1.25317E+01
 -1      1318 1.23291E+01
 -1      1319 1.21300E+01
 -1      1320 1.94165E+01
 -1      1321 2.77981E+01
 -1      1322 2.86019E+01
 -1      1323 2.63647E+01
 -1      1324 2.48155E+01
 -1      1325 1.24682E+01
 -1      1326 4.65672E+00
 -1      1327 9.12230E+00
 -1      1328 2.18850E+00
 -1      1329 2.97985E+00
 -1      1330 4.09950E+00
 -1      1331 1.55515E+00
 -1      1332 1.81767E+00
 -1      1333 2.05179E+00
 -1      1334 1.20739E+00
 -1      1335 1.35555E+00
 -1      1336 1.48136E+00
 -1      1337 9.55413E-01
 -1      1338 1.07056E+00
 -1      1339 1.14495E+00
 -1      1340 7.55546E-01
 -1      1341 8.49498E-01
 -1      1342 9.02208E-01
 -1      1343 5.97137E-01
 -1      1344 6.70449E-01
 -1      1345 7.11196E-01
 -1      1346 5.50312E-01
 -1      1347 5.41438E-01
 -1      1348 5.70401E-01
 -1      1349 6.91226E-01
 -1      1350 6.15889E-01
 -1      1351 5.80280E-01
 -1      1352 8.62084E-01
 -1      1353 7.74086E-01
 -1      1354 7.28717E-01
 -1      1355 1.08882E+00
 -1      1356 9.70604E-01
 -1      1357 9.20097E-01
 -1      1358 1.37702E+00
 -1      1359 1.22594E+00
 -1      1360 1.16573E+00
 -1      1361 1.83046E+00
 -1      1362 1.57637E+00
 -1      1363 1.50220E+00
 -1      1364 2.89994E+00
 -1      1365 2.18428E+00
 -1      1366 2.05536E+00
 -1      1367 5.95954E+00
 -1      1368 3.58420E+00
 -1      1369 3.09344E+00
 -1      1370 1.33913E+01
 -1      1371 1.07663E+01
 -1      1372 8.58448E+00
 -1      1373 1.33913E+01
 -1      1374 8.22219E+00
 -1      1375 3.97615E+00
 -1      1376 3.36024E+00
 -1      1377 2.74432E+00
 -1      1378 3.36024E+00
 -1      1379 2.22518E+00
 -1      1380 1.70603E+00
 -1      1381 2.22518E+00
 -1      1382 1.42112E+00
 -1      1383 1.13620E+00
 -1      1384 1.42112E+00
 -1      1385 9.95551E-01
 -1      1386 8.59557E-01
 -1      1387 9.95551E-01
 -1      1388 8.64213E-01
 -1      1389 9.26277E-01
 -1      1390 8.59557E-01
 -1      1391 9.88342E-01
 -1      1392 1.13539E+00
 -1      1393 9.26277E-01
 -1      1394 1.28243E+00
 -1      1395 1.32945E+00
 -1      1396 1.13539E+00
 -1      1397 1.37646E+00
 -1      1398 1.37646E+00
 -1      1399 1.32945E+00
 -1      1400 1.36282E+00
 -1      1401 1.34917E+00
 -1      1402 1.36282E+00
 -1      1403 1.31377E+00
 -1      1404 1.50916E+00
 -1      1405 1.31377E+00
 -1      1406 1.73996E+00
 -1      1407 2.25915E+00
 -1      1408 1.50916E+00
 -1      1409 2.77835E+00
 -1      1410 3.45153E+00
 -1      1411 2.25915E+00
 -1      1412 4.12471E+00
 -1      1413 4.20404E+00
 -1      1414 3.45153E+00
 -1      1415 4.28338E+00
 -1      1416 4.32306E+00
 -1      1417 4.20404E+00
 -1      1418 4.36274E+00
 -1      1419 4.36274E+00
 -1      1420 4.32306E+00
 -1      1421 3.83764E+00
 -1      1422 3.31255E+00
 -1      1423 3.83764E+00
 -1      1424 2.65741E+00
 -1      1425 1.97899E+00
 -1      1426 2.65741E+00
 -1      1427 1.69090E+00
 -1      1428 1.47374E+00
 -1      1429 1.71418E+00
 -1      1430 1.52139E+00
 -1      1431 1.52139E+00
 -1      1432 1.47374E+00
 -1      1433 1.46894E+00
 -1      1434 1.44605E+00
 -1      1435 1.46894E+00
 -1      1436 1.47561E+00
 -1      1437 1.47561E+00
 -1      1438 1.44605E+00
 -1      1439 1.40189E+00
 -1      1440 1.32816E+00
 -1      1441 1.40189E+00
 -1      1442 1.21137E+00
 -1      1443 1.09458E+00
 -1      1444 1.21137E+00
 -1      1445 1.01127E+00
 -1      1446 9.00890E-01
 -1      1447 1.01127E+00
 -1      1448 8.38045E-01
 -1      1449 7.43523E-01
 -1      1450 8.65126E-01
 -1      1451 6.70977E-01
 -1      1452 6.04770E-01
 -1      1453 7.29734E-01
 -1      1454 5.33862E-01
 -1      1455 4.88695E-01
 -1      1456 5.86279E-01
 -1      1457 4.25548E-01
 -1      1458 3.81095E-01
 -1      1459 4.52224E-01
 -1      1460 3.32854E-01
 -1      1461 2.92594E-01
 -1      1462 3.40835E-01
 -1      1463 2.60306E-01
 -1      1464 2.25769E-01
 -1      1465 2.60306E-01
 -1      1466 1.99594E-01
 -1      1467 1.71107E-01
 -1      1468 2.01844E-01
 -1      1469 1.49417E-01
 -1      1470 1.26630E-01
 -1      1471 1.53979E-01
 -1      1472 1.10153E-01
 -1      1473 9.93357E-02
 -1      1474 1.15813E-01
 -1      1475 9.03708E-02
 -1      1476 8.14059E-02
 -1      1477 9.03708E-02
 -1      1478 7.33517E-02
 -1      1479 6.52976E-02
 -1      1480 7.33517E-02
 -1      1481 5.83131E-02
 -1      1482 5.13287E-02
 -1      1483 5.83131E-02
 -1      1484 4.54321E-02
 -1      1485 3.95356E-02
 -1      1486 4.54321E-02
 -1      1487 3.46650E-02
 -1      1488 2.97905E-02
 -1      1489 3.46650E-02
 -1      1490 2.64363E-02
 -1      1491 2.28651E-02
 -1      1492 2.64402E-02
 -1      1493 2.06609E-02
 -1      1494 1.86778E-02
 -1      1495 2.08819E-02
 -1      1496 1.68173E-02
 -1      1497 1.49569E-02
 -1      1498 1.68173E-02
 -1      1499 1.32518E-02
 -1      1500 1.15468E-02
 -1      1501 1.32518E-02
 -1      1502 1.01069E-02
 -1      1503 8.55452E-03
 -1      1504 1.01069E-02
 -1      1505 7.34323E-03
 -1      1506 6.04361E-03
 -1      1507 7.45565E-03
 -1      1508 5.30782E-03
 -1      1509 4.77279E-03
 -1      1510 5.50857E-03
 -1      1511 4.31456E-03
 -1      1512 3.85633E-03
 -1      1513 4.31456E-03
 -1      1514 3.29273E-03
 -1      1515 2.72913E-03
 -1      1516 3.29273E-03
 -1      1517 2.17737E-03
 -1      1518 2.17737E-03
 -1      1519 3.20914E+00
 -1      1520 8.30020E+00
 -1      1521 8.30020E+00
 -1      1522 2.08318E+00
 -1      1523 2.64616E+00
 -1      1524 2.64616E+00
 -1      1525 1.48107E+00
 -1      1526 1.78213E+00
 -1      1527 1.78213E+00
 -1      1528 1.16757E+00
 -1      1529 1.32432E+00
 -1      1530 1.32432E+00
 -1      1531 8.57493E-01
 -1      1532 1.01253E+00
 -1      1533 1.01253E+00
 -1      1534 7.40856E-01
 -1      1535 7.99174E-01
 -1      1536 7.99174E-01
 -1      1537 7.42282E-01
 -1      1538 7.17403E-01
 -1      1539 7.17403E-01
 -1      1540 8.52998E-01
 -1      1541 7.90613E-01
 -1      1542 7.42282E-01
 -1      1543 1.03527E+00
 -1      1544 9.15383E-01
 -1      1545 8.52998E-01
 -1      1546 1.21330E+00
 -1      1547 1.15515E+00
 -1      1548 1.03527E+00
 -1      1549 1.41558E+00
 -1      1550 1.27146E+00
 -1      1551 1.21330E+00
 -1      1552 1.68425E+00
 -1      1553 1.55970E+00
 -1      1554 1.41558E+00
 -1      1555 2.44605E+00
 -1      1556 1.92092E+00
 -1      1557 1.79637E+00
 -1      1558 3.03985E+00
 -1      1559 2.85905E+00
 -1      1560 2.44605E+00
 -1      1561 3.46620E+00
 -1      1562 3.22064E+00
 -1      1563 3.03985E+00
 -1      1564 3.71176E+00
 -1      1565 3.71176E+00
 -1      1566 3.46620E+00
 -1      1567 3.23587E+00
 -1      1568 3.47381E+00
 -1      1569 3.47381E+00
 -1      1570 2.06335E+00
 -1      1571 2.64961E+00
 -1      1572 2.64961E+00
 -1      1573 1.33585E+00
 -1      1574 1.69960E+00
 -1      1575 1.69960E+00
 -1      1576 9.73887E-01
 -1      1577 1.12914E+00
 -1      1578 1.12914E+00
 -1      1579 1.09416E+00
 -1      1580 1.02535E+00
 -1      1581 9.73887E-01
 -1      1582 1.17991E+00
 -1      1583 1.16297E+00
 -1      1584 1.09416E+00
 -1      1585 1.19686E+00
 -1      1586 1.19686E+00
 -1      1587 1.17991E+00
 -1      1588 1.09497E+00
 -1      1589 1.14591E+00
 -1      1590 1.14591E+00
 -1      1591 9.29074E-01
 -1      1592 1.01202E+00
 -1      1593 1.01202E+00
 -1      1594 7.81439E-01
 -1      1595 8.55256E-01
 -1      1596 8.55256E-01
 -1      1597 6.36204E-01
 -1      1598 7.12813E-01
 -1      1599 7.12813E-01
 -1      1600 4.98428E-01
 -1      1601 5.70089E-01
 -1      1602 5.78073E-01
 -1      1603 3.76237E-01
 -1      1604 4.38490E-01
 -1      1605 4.52020E-01
 -1      1606 2.84558E-01
 -1      1607 3.25148E-01
 -1      1608 3.40992E-01
 -1      1609 2.16004E-01
 -1      1610 2.47609E-01
 -1      1611 2.52953E-01
 -1      1612 1.62644E-01
 -1      1613 1.89324E-01
 -1      1614 1.89324E-01
 -1      1615 1.19294E-01
 -1      1616 1.41019E-01
 -1      1617 1.41019E-01
 -1      1618 8.60649E-02
 -1      1619 1.03238E-01
 -1      1620 1.03339E-01
 -1      1621 6.02223E-02
 -1      1622 7.34468E-02
 -1      1623 7.46653E-02
 -1      1624 4.56505E-02
 -1      1625 5.20239E-02
 -1      1626 5.38489E-02
 -1      1627 3.78103E-02
 -1      1628 4.17304E-02
 -1      1629 4.17304E-02
 -1      1630 3.05920E-02
 -1      1631 3.42011E-02
 -1      1632 3.42011E-02
 -1      1633 2.42017E-02
 -1      1634 2.73968E-02
 -1      1635 2.73968E-02
 -1      1636 1.93269E-02
 -1      1637 2.17643E-02
 -1      1638 2.17643E-02
 -1      1639 1.71176E-02
 -1      1640 1.82223E-02
 -1      1641 1.82223E-02
 -1      1642 1.46231E-02
 -1      1643 1.58703E-02
 -1      1644 1.58703E-02
 -1      1645 1.20461E-02
 -1      1646 1.33346E-02
 -1      1647 1.33346E-02
 -1      1648 9.47944E-03
 -1      1649 1.07628E-02
 -1      1650 1.07628E-02
 -1      1651 7.10111E-03
 -1      1652 8.29028E-03
 -1      1653 8.29028E-03
 -1      1654 4.94577E-03
 -1      1655 6.02344E-03
 -1      1656 6.02344E-03
 -1      1657 3.79895E-03
 -1      1658 4.37236E-03
 -1      1659 4.37236E-03
 -1      1660 2.15120E-03
 -1      1661 2.98915E-03
 -1      1662 2.98915E-03
 -1      1663 1.55588E-03
 -1      1664 9.64409E-04
 -1      1665 9.93001E-04
 -1      1666 7.48531E-04
 -1      1667 9.45308E-04
 -1      1668 9.78193E-04
 -1      1669 4.63632E-04
 -1      1670 6.02660E-04
 -1      1671 8.13221E-04
 -1      1672 6.12115E-04
 -1      1673 5.10924E-04
 -1      1674 7.14642E-04
 -1      1675 8.00627E-04
 -1      1676 7.38620E-04
 -1      1677 8.88438E-04
 -1      1678 8.96780E-04
 -1      1679 8.66235E-04
 -1      1680 1.08055E-03
 -1      1681 9.27879E-04
 -1      1682 9.20636E-04
 -1      1683 1.17002E-03
 -1      1684 9.27942E-04
 -1      1685 9.27942E-04
 -1      1686 1.19393E-03
 -1      1687 9.20814E-04
 -1      1688 9.27942E-04
 -1      1689 1.19400E-03
 -1      1690 8.62260E-04
 -1      1691 8.95410E-04
 -1      1692 1.16859E-03
 -1      1693 7.39458E-04
 -1      1694 7.98485E-04
 -1      1695 1.07942E-03
 -1      1696 5.16822E-04
 -1      1697 6.19159E-04
 -1      1698 8.95341E-04
 -1      1699 6.01683E-04
 -1      1700 4.54741E-04
 -1      1701 7.12961E-04
 -1      1702 9.42951E-04
 -1      1703 6.01683E-04
 -1      1704 6.50880E-04
 -1      1705 1.60417E-03
 -1      1706 1.40888E-03
 -1      1707 1.11681E-03
 -1      1708 2.15593E-03
 -1      1709 2.79555E+01
 -1      1710 2.79555E+01
 -1      1711 3.83440E+01
 -1      1712 2.72901E+01
 -1      1713 4.73164E+01
 -1      1714 4.73164E+01
 -1      1715 2.03408E+01
 -1      1716 3.43868E+01
 -1      1717 1.16098E+01
 -1      1718 1.50054E+01
 -1      1719 1.24334E+01
 -1      1720 1.24334E+01
 -1      1721 1.20014E+01
 -1      1722 1.22174E+01
 -1      1723 1.20022E+01
 -1      1724 1.19573E+01
 -1      1725 1.20913E+01
 -1      1726 1.20913E+01
 -1      1727 1.19689E+01
 -1      1728 1.20136E+01
 -1      1729 2.06602E+01
 -1      1730 1.20019E+01
 -1      1731 2.95808E+01
 -1      1732 2.94497E+01
 -1      1733 2.88310E+01
 -1      1734 2.95808E+01
 -1      1735 2.68691E+01
 -1      1736 2.81105E+01
 -1      1737 2.65173E+01
 -1      1738 2.68691E+01
 -1      1739 2.60752E+01
 -1      1740 2.60752E+01
 -1      1741 3.82323E+01
 -1      1742 3.06383E+01
 -1      1743 4.00828E+01
 -1      1744 4.00828E+01
 -1      1745 1.52918E+01
 -1      1746 2.78586E+01
 -1      1747 1.14686E+01
 -1      1748 1.29779E+01
 -1      1749 1.19592E+01
 -1      1750 1.19306E+01
 -1      1751 1.22598E+01
 -1      1752 1.19878E+01
 -1      1753 1.25317E+01
 -1      1754 1.25317E+01
 -1      1755 1.21264E+01
 -1      1756 1.23291E+01
 -1      1757 1.16654E+01
 -1      1758 1.16617E+01
 -1      1759 1.94165E+01
 -1      1760 1.21337E+01
 -1      1761 2.88969E+01
 -1      1762 2.77981E+01
 -1      1763 3.08021E+01
 -1      1764 3.10971E+01
 -1      1765 2.88599E+01
 -1      1766 3.08021E+01
 -1      1767 2.79555E+01
 -1      1768 2.75625E+01
 -1      1769 1.61217E+01
 -1      1770 3.43868E+01
 -1      1771 1.58402E-03
 -1      1772 1.58832E-03
 -1      1773 3.00370E+01
 -1      1774 3.83440E+01
 -1      1775 3.07024E+01
 -1      1776 1.16098E+01
 -1      1777 1.22174E+01
 -1      1778 1.19573E+01
 -1      1779 1.20022E+01
 -1      1780 1.20136E+01
 -1      1781 1.19689E+01
 -1      1782 2.07914E+01
 -1      1783 2.95808E+01
 -1      1784 2.88604E+01
 -1      1785 2.81399E+01
 -1      1786 2.76978E+01
 -1      1787 3.18188E+01
 -1      1788 3.82323E+01
 -1      1789 2.78586E+01
 -1      1790 1.33206E+01
 -1      1791 1.14686E+01
 -1      1792 1.19592E+01
 -1      1793 1.22598E+01
 -1      1794 1.23291E+01
 -1      1795 1.16617E+01
 -1      1796 1.16654E+01
 -1      1797 2.05153E+01
 -1      1798 3.10971E+01
 -1      1799 3.32973E+01
 -1      1800 3.19999E+01
 -1      1801 9.12230E+00
 -1      1802 1.47336E+00
 -1      1803 1.84419E+00
 -1      1804 2.42685E+00
 -1      1805 4.10372E+00
 -1      1806 1.84841E+00
 -1      1807 9.62538E-01
 -1      1808 1.09936E+00
 -1      1809 7.69114E-01
 -1      1810 8.75029E-01
 -1      1811 8.29444E-01
 -1      1812 6.10817E-01
 -1      1813 6.95914E-01
 -1      1814 6.68735E-01
 -1      1815 4.90776E-01
 -1      1816 5.46475E-01
 -1      1817 5.31193E-01
 -1      1818 5.67057E-01
 -1      1819 5.01479E-01
 -1      1820 4.77553E-01
 -1      1821 7.12844E-01
 -1      1822 6.29985E-01
 -1      1823 5.51184E-01
 -1      1824 8.96633E-01
 -1      1825 7.88113E-01
 -1      1826 6.89380E-01
 -1      1827 1.11378E+00
 -1      1828 9.76663E-01
 -1      1829 8.44679E-01
 -1      1830 1.40139E+00
 -1      1831 1.20204E+00
 -1      1832 1.01297E+00
 -1      1833 1.88342E+00
 -1      1834 1.52961E+00
 -1      1835 1.22945E+00
 -1      1836 2.61752E+00
 -1      1837 1.93326E+00
 -1      1838 1.40750E+00
 -1      1839 7.61139E+00
 -1      1840 2.80461E+00
 -1      1841 1.64443E+00
 -1      1842 2.52033E+00
 -1      1843 4.87626E+00
 -1      1844 1.76897E+00
 -1      1845 2.33195E+00
 -1      1846 1.64314E+00
 -1      1847 3.20361E+00
 -1      1848 1.94480E+00
 -1      1849 1.42565E+00
 -1      1850 1.17165E+00
 -1      1851 8.86731E-01
 -1      1852 8.91268E-01
 -1      1853 8.24280E-01
 -1      1854 6.83631E-01
 -1      1855 5.74812E-01
 -1      1856 7.38083E-01
 -1      1857 7.42738E-01
 -1      1858 5.66813E-01
 -1      1859 8.07254E-01
 -1      1860 8.69319E-01
 -1      1861 6.85780E-01
 -1      1862 9.29874E-01
 -1      1863 1.07692E+00
 -1      1864 8.10850E-01
 -1      1865 1.10614E+00
 -1      1866 1.15315E+00
 -1      1867 9.00625E-01
 -1      1868 1.11411E+00
 -1      1869 1.10047E+00
 -1      1870 8.90804E-01
 -1      1871 1.17494E+00
 -1      1872 1.13953E+00
 -1      1873 9.26233E-01
 -1      1874 1.26678E+00
 -1      1875 1.49758E+00
 -1      1876 1.12795E+00
 -1      1877 1.77555E+00
 -1      1878 2.29475E+00
 -1      1879 1.53317E+00
 -1      1880 2.57418E+00
 -1      1881 3.24736E+00
 -1      1882 2.09058E+00
 -1      1883 3.36969E+00
 -1      1884 3.44903E+00
 -1      1885 2.49235E+00
 -1      1886 3.43735E+00
 -1      1887 3.47703E+00
 -1      1888 2.60300E+00
 -1      1889 3.45226E+00
 -1      1890 2.92717E+00
 -1      1891 2.56655E+00
 -1      1892 2.61945E+00
 -1      1893 1.96431E+00
 -1      1894 2.23407E+00
 -1      1895 1.67690E+00
 -1      1896 1.38881E+00
 -1      1897 1.63894E+00
 -1      1898 1.20100E+00
 -1      1899 1.24864E+00
 -1      1900 1.16371E+00
 -1      1901 1.20471E+00
 -1      1902 1.15226E+00
 -1      1903 9.31964E-01
 -1      1904 1.23617E+00
 -1      1905 1.26573E+00
 -1      1906 9.71941E-01
 -1      1907 1.30495E+00
 -1      1908 1.23123E+00
 -1      1909 1.09507E+00
 -1      1910 1.19637E+00
 -1      1911 1.07958E+00
 -1      1912 1.09943E+00
 -1      1913 1.02252E+00
 -1      1914 9.39219E-01
 -1      1915 1.00752E+00
 -1      1916 8.89550E-01
 -1      1917 8.26705E-01
 -1      1918 9.00798E-01
 -1      1919 7.66902E-01
 -1      1920 6.94355E-01
 -1      1921 7.91326E-01
 -1      1922 6.29073E-01
 -1      1923 5.58164E-01
 -1      1924 6.66240E-01
 -1      1925 4.95634E-01
 -1      1926 4.32486E-01
 -1      1927 5.38427E-01
 -1      1928 3.77074E-01
 -1      1929 3.28833E-01
 -1      1930 4.20484E-01
 -1      1931 2.82261E-01
 -1      1932 2.49973E-01
 -1      1933 3.18500E-01
 -1      1934 2.12346E-01
 -1      1935 1.86172E-01
 -1      1936 2.34301E-01
 -1      1937 1.56729E-01
 -1      1938 1.35039E-01
 -1      1939 1.67232E-01
 -1      1940 1.14822E-01
 -1      1941 9.83449E-02
 -1      1942 1.17572E-01
 -1      1943 8.46112E-02
 -1      1944 7.56463E-02
 -1      1945 8.36204E-02
 -1      1946 6.61232E-02
 -1      1947 5.80691E-02
 -1      1948 6.03637E-02
 -1      1949 5.29018E-02
 -1      1950 4.59173E-02
 -1      1951 4.56733E-02
 -1      1952 4.23082E-02
 -1      1953 3.64117E-02
 -1      1954 3.68969E-02
 -1      1955 3.31233E-02
 -1      1956 2.82527E-02
 -1      1957 2.99994E-02
 -1      1958 2.53534E-02
 -1      1959 2.19992E-02
 -1      1960 2.38117E-02
 -1      1961 1.95024E-02
 -1      1962 1.72983E-02
 -1      1963 1.84155E-02
 -1      1964 1.57038E-02
 -1      1965 1.38433E-02
 -1      1966 1.43242E-02
 -1      1967 1.27389E-02
 -1      1968 1.10339E-02
 -1      1969 1.16254E-02
 -1      1970 9.91553E-03
 -1      1971 8.47562E-03
 -1      1972 9.40261E-03
 -1      1973 7.42590E-03
 -1      1974 6.21461E-03
 -1      1975 7.23458E-03
 -1      1976 5.37494E-03
 -1      1977 4.63916E-03
 -1      1978 5.34520E-03
 -1      1979 3.95696E-03
 -1      1980 3.49873E-03
 -1      1981 3.82333E-03
 -1      1982 3.13294E-03
 -1      1983 2.56934E-03
 -1      1984 1.99614E-03
 -1      1985 2.77534E-03
 -1      1986 1.13350E+00
 -1      1987 1.43456E+00
 -1      1988 1.12035E+00
 -1      1989 8.88071E-01
 -1      1990 1.04482E+00
 -1      1991 6.97253E-01
 -1      1992 6.85801E-01
 -1      1993 8.40839E-01
 -1      1994 5.61340E-01
 -1      1995 6.39094E-01
 -1      1996 6.97413E-01
 -1      1997 5.25720E-01
 -1      1998 6.42831E-01
 -1      1999 6.66283E-01
 -1      2000 5.64522E-01
 -1      2001 6.90709E-01
 -1      2002 6.42378E-01
 -1      2003 5.91258E-01
 -1      2004 7.19286E-01
 -1      2005 6.56901E-01
 -1      2006 5.56997E-01
 -1      2007 8.30560E-01
 -1      2008 7.10676E-01
 -1      2009 5.14579E-01
 -1      2010 1.10524E+00
 -1      2011 1.04709E+00
 -1      2012 7.22501E-01
 -1      2013 1.55414E+00
 -1      2014 1.41002E+00
 -1      2015 1.24381E+00
 -1      2016 1.96080E+00
 -1      2017 1.72413E+00
 -1      2018 1.71857E+00
 -1      2019 2.37381E+00
 -1      2020 1.96080E+00
 -1      2021 1.88856E+00
 -1      2022 2.54364E+00
 -1      2023 2.36285E+00
 -1      2024 1.87760E+00
 -1      2025 2.92111E+00
 -1      2026 2.67555E+00
 -1      2027 1.99855E+00
 -1      2028 2.66797E+00
 -1      2029 2.90592E+00
 -1      2030 2.11526E+00
 -1      2031 1.80182E+00
 -1      2032 2.38808E+00
 -1      2033 1.82018E+00
 -1      2034 1.12745E+00
 -1      2035 1.49120E+00
 -1      2036 1.22967E+00
 -1      2037 7.61824E-01
 -1      2038 9.68533E-01
 -1      2039 7.60134E-01
 -1      2040 8.78115E-01
 -1      2041 8.26656E-01
 -1      2042 6.66052E-01
 -1      2043 1.00380E+00
 -1      2044 9.34992E-01
 -1      2045 7.87761E-01
 -1      2046 1.03895E+00
 -1      2047 1.02200E+00
 -1      2048 8.62839E-01
 -1      2049 9.80386E-01
 -1      2050 1.03133E+00
 -1      2051 8.73421E-01
 -1      2052 8.54755E-01
 -1      2053 9.37703E-01
 -1      2054 8.23119E-01
 -1      2055 7.40212E-01
 -1      2056 8.14029E-01
 -1      2057 7.39710E-01
 -1      2058 6.19153E-01
 -1      2059 6.87779E-01
 -1      2060 6.46552E-01
 -1      2061 4.97623E-01
 -1      2062 5.63738E-01
 -1      2063 5.38704E-01
 -1      2064 3.85451E-01
 -1      2065 4.45389E-01
 -1      2066 4.31054E-01
 -1      2067 2.88529E-01
 -1      2068 3.39619E-01
 -1      2069 3.32988E-01
 -1      2070 2.13361E-01
 -1      2071 2.50310E-01
 -1      2072 2.48937E-01
 -1      2073 1.60921E-01
 -1      2074 1.87601E-01
 -1      2075 1.84958E-01
 -1      2076 1.19395E-01
 -1      2077 1.41019E-01
 -1      2078 1.39296E-01
 -1      2079 8.72833E-02
 -1      2080 1.03339E-01
 -1      2081 1.03339E-01
 -1      2082 6.20473E-02
 -1      2083 7.46653E-02
 -1      2084 7.46653E-02
 -1      2085 4.41647E-02
 -1      2086 5.23631E-02
 -1      2087 5.23631E-02
 -1      2088 3.31790E-02
 -1      2089 3.70991E-02
 -1      2090 3.56133E-02
 -1      2091 2.76005E-02
 -1      2092 3.12097E-02
 -1      2093 2.65784E-02
 -1      2094 2.23792E-02
 -1      2095 2.55744E-02
 -1      2096 2.25829E-02
 -1      2097 1.79959E-02
 -1      2098 2.04332E-02
 -1      2099 1.86108E-02
 -1      2100 1.51021E-02
 -1      2101 1.62067E-02
 -1      2102 1.48757E-02
 -1      2103 1.23292E-02
 -1      2104 1.35764E-02
 -1      2105 1.15609E-02
 -1      2106 1.02941E-02
 -1      2107 1.15826E-02
 -1      2108 9.28870E-03
 -1      2109 8.27706E-03
 -1      2110 9.56039E-03
 -1      2111 7.80840E-03
 -1      2112 6.36950E-03
 -1      2113 7.55866E-03
 -1      2114 6.35628E-03
 -1      2115 4.64630E-03
 -1      2116 5.72397E-03
 -1      2117 4.99235E-03
 -1      2118 3.43253E-03
 -1      2119 4.00594E-03
 -1      2120 3.70647E-03
 -1      2121 2.17934E-03
 -1      2122 2.98915E-03
 -1      2123 2.62273E-03
 -1      2124 1.58832E-03
 -1      2125 9.24034E-04
 -1      2126 8.76742E-04
 -1      2127 1.27895E-03
 -1      2128 1.42482E-03
 -1      2129 1.48834E-03
 -1      2130 1.42482E-03
 -1      2131 1.44392E-03
 -1      2132 2.03495E-03
 -1      2133 1.89055E-03
 -1      2134 1.17677E-03
 -1      2135 1.05026E-03
 -1      2136 1.21236E-03
 -1      2137 1.31813E-03
 -1      2138 1.25252E-03
 -1      2139 1.41434E-03
 -1      2140 1.36926E-03
 -1      2141 1.34541E-03
 -1      2142 1.51738E-03
 -1      2143 1.36933E-03
 -1      2144 1.36926E-03
 -1      2145 1.54466E-03
 -1      2146 1.36849E-03
 -1      2147 1.36849E-03
 -1      2148 1.54382E-03
 -1      2149 1.34308E-03
 -1      2150 1.36849E-03
 -1      2151 1.54298E-03
 -1      2152 1.25468E-03
 -1      2153 1.31846E-03
 -1      2154 1.51835E-03
 -1      2155 1.05585E-03
 -1      2156 1.17615E-03
 -1      2157 1.41519E-03
 -1      2158 8.66434E-04
 -1      2159 9.28514E-04
 -1      2160 1.20932E-03
 -1      2161 1.26860E-03
 -1      2162 1.26860E-03
 -1      2163 1.48416E-03
 -1      2164 3.83440E+01
 -1      2165 2.93716E+01
 -1      2166 3.08548E+01
 -1      2167 3.08548E+01
 -1      2168 2.95839E+01
 -1      2169 3.02493E+01
 -1      2170 1.90118E+01
 -1      2171 3.19414E+01
 -1      2172 1.02650E+01
 -1      2173 1.56004E+01
 -1      2174 1.26598E+00
 -1      2175 1.46557E+00
 -1      2176 1.25797E+00
 -1      2177 1.08357E+00
 -1      2178 1.08909E+01
 -1      2179 1.11069E+01
 -1      2180 1.08920E+01
 -1      2181 1.09361E+01
 -1      2182 1.12016E+01
 -1      2183 1.11126E+01
 -1      2184 1.04489E+01
 -1      2185 1.05265E+01
 -1      2186 9.41733E+00
 -1      2187 9.38432E+00
 -1      2188 2.02052E+01
 -1      2189 1.14157E+01
 -1      2190 2.47323E+01
 -1      2191 2.47323E+01
 -1      2192 1.53567E+01
 -1      2193 2.68595E+01
 -1      2194 2.75799E+01
 -1      2195 3.19998E+01
 -1      2196 3.19998E+01
 -1      2197 3.15577E+01
 -1      2198 3.19998E+01
 -1      2199 2.85568E+01
 -1      2200 2.39937E+01
 -1      2201 3.22689E+01
 -1      2202 3.04184E+01
 -1      2203 1.47350E+01
 -1      2204 2.69591E+01
 -1      2205 9.64005E+00
 -1      2206 1.19540E+01
 -1      2207 1.01942E+01
 -1      2208 9.73215E+00
 -1      2209 1.12809E+01
 -1      2210 1.12523E+01
 -1      2211 1.15990E+01
 -1      2212 1.13271E+01
 -1      2213 1.06202E+01
 -1      2214 1.10174E+01
 -1      2215 1.12200E+01
 -1      2216 9.87472E+00
 -1      2217 1.03394E+01
 -1      2218 9.50484E+00
 -1      2219 9.03655E+00
 -1      2220 1.99767E+01
 -1      2221 1.15951E+01
 -1      2222 2.60396E+01
 -1      2223 2.38394E+01
 -1      2224 3.32973E+01
 -1      2225 3.32973E+01
 -1      2226 2.60396E+01
 -1      2227 3.08548E+01
 -1      2228 3.21522E+01
 -1      2229 9.89057E+00
 -1      2230 9.06699E+00
 -1      2231 8.54573E+00
 -1      2232 1.31551E+01
 -1      2233 2.58769E+00
 -1      2234 8.56403E+00
 -1      2235 1.78817E+00
 -1      2236 2.95839E+01
 -1      2237 3.04016E+01
 -1      2238 1.73453E-03
 -1      2239 2.29690E+01
 -1      2240 3.10071E+01
 -1      2241 3.21522E+01
 -1      2242 1.49192E+01
 -1      2243 8.96621E+00
 -1      2244 7.71416E+00
 -1      2245 1.02874E+01
 -1      2246 9.51584E+00
 -1      2247 8.36562E+00
 -1      2248 1.10545E+01
 -1      2249 1.91452E+01
 -1      2250 2.25934E+01
 -1      2251 2.82958E+01
 -1      2252 3.58598E+01
 -1      2253 2.27314E+01
 -1      2254 8.83116E+00
 -1      2255 7.89728E+00
 -1      2256 9.63688E+00
 -1      2257 9.82560E+00
 -1      2258 1.00914E+01
 -1      2259 3.07194E+01
 -1      2260 9.23035E+00
 -1      2261 8.82100E-01
 -1      2262 1.21651E+00
 -1      2263 5.74716E-01
 -1      2264 6.47915E-01
 -1      2265 7.18136E-01
 -1      2266 8.05645E-01
 -1      2267 6.24117E-01
 -1      2268 3.99662E-01
 -1      2269 3.88958E-01
 -1      2270 5.21156E-01
 -1      2271 4.58229E-01
 -1      2272 3.69634E-01
 -1      2273 6.63722E-01
 -1      2274 5.88454E-01
 -1      2275 4.95498E-01
 -1      2276 8.05428E-01
 -1      2277 7.25398E-01
 -1      2278 6.24471E-01
 -1      2279 9.41842E-01
 -1      2280 8.53580E-01
 -1      2281 7.34299E-01
 -1      2282 1.22263E+00
 -1      2283 1.09441E+00
 -1      2284 9.35020E-01
 -1      2285 9.39234E+00
 -1      2286 1.28037E+01
 -1      2287 5.72181E-01
 -1      2288 6.60863E-01
 -1      2289 7.57028E-01
 -1      2290 9.67061E-01
 -1      2291 7.13056E-01
 -1      2292 7.59733E+00
 -1      2293 6.38102E+00
 -1      2294 6.43021E-01
 -1      2295 5.80570E-01
 -1      2296 7.18814E-01
 -1      2297 5.95467E-01
 -1      2298 6.49919E-01
 -1      2299 6.63676E-01
 -1      2300 7.09011E-01
 -1      2301 7.73527E-01
 -1      2302 7.37666E-01
 -1      2303 8.51552E-01
 -1      2304 9.12107E-01
 -1      2305 8.74783E-01
 -1      2306 9.94860E-01
 -1      2307 1.02408E+00
 -1      2308 1.03556E+00
 -1      2309 1.09110E+00
 -1      2310 1.05206E+00
 -1      2311 1.18533E+00
 -1      2312 1.12432E+00
 -1      2313 1.19879E+00
 -1      2314 1.32461E+00
 -1      2315 1.42802E+00
 -1      2316 1.55527E+00
 -1      2317 1.62611E+00
 -1      2318 1.59811E+00
 -1      2319 1.87608E+00
 -1      2320 1.89818E+00
 -1      2321 1.88867E+00
 -1      2322 2.16811E+00
 -1      2323 1.95361E+00
 -1      2324 2.61789E+00
 -1      2325 2.74021E+00
 -1      2326 2.41598E+00
 -1      2327 3.22480E+00
 -1      2328 3.21312E+00
 -1      2329 3.35033E+00
 -1      2330 2.79624E+00
 -1      2331 2.77146E+00
 -1      2332 3.41803E+00
 -1      2333 2.35816E+00
 -1      2334 2.05045E+00
 -1      2335 2.58784E+00
 -1      2336 1.85112E+00
 -1      2337 1.56370E+00
 -1      2338 1.97521E+00
 -1      2339 1.59144E+00
 -1      2340 1.40362E+00
 -1      2341 1.80361E+00
 -1      2342 1.25369E+00
 -1      2343 1.20976E+00
 -1      2344 1.68142E+00
 -1      2345 1.10030E+00
 -1      2346 1.18422E+00
 -1      2347 1.42203E+00
 -1      2348 1.13669E+00
 -1      2349 1.17591E+00
 -1      2350 1.26505E+00
 -1      2351 1.10264E+00
 -1      2352 1.06778E+00
 -1      2353 1.14426E+00
 -1      2354 1.03180E+00
 -1      2355 9.74747E-01
 -1      2356 1.03501E+00
 -1      2357 9.22036E-01
 -1      2358 8.72366E-01
 -1      2359 9.46315E-01
 -1      2360 8.04668E-01
 -1      2361 7.44865E-01
 -1      2362 8.25905E-01
 -1      2363 6.76601E-01
 -1      2364 6.11318E-01
 -1      2365 6.89943E-01
 -1      2366 5.48686E-01
 -1      2367 4.86155E-01
 -1      2368 5.59046E-01
 -1      2369 4.32962E-01
 -1      2370 3.77549E-01
 -1      2371 4.43220E-01
 -1      2372 3.32467E-01
 -1      2373 2.85894E-01
 -1      2374 3.44944E-01
 -1      2375 2.48625E-01
 -1      2376 2.10999E-01
 -1      2377 2.62592E-01
 -1      2378 1.81048E-01
 -1      2379 1.51605E-01
 -1      2380 1.95372E-01
 -1      2381 1.28113E-01
 -1      2382 1.07895E-01
 -1      2383 1.41929E-01
 -1      2384 8.98725E-02
 -1      2385 7.61389E-02
 -1      2386 1.00414E-01
 -1      2387 6.26092E-02
 -1      2388 5.30861E-02
 -1      2389 6.88614E-02
 -1      2390 4.36126E-02
 -1      2391 3.84453E-02
 -1      2392 4.58582E-02
 -1      2393 3.29072E-02
 -1      2394 2.92980E-02
 -1      2395 3.08465E-02
 -1      2396 2.64279E-02
 -1      2397 2.31396E-02
 -1      2398 2.24382E-02
 -1      2399 2.18095E-02
 -1      2400 1.89102E-02
 -1      2401 1.82381E-02
 -1      2402 1.75024E-02
 -1      2403 1.50056E-02
 -1      2404 1.55002E-02
 -1      2405 1.36263E-02
 -1      2406 1.20318E-02
 -1      2407 1.27131E-02
 -1      2408 1.07437E-02
 -1      2409 9.63929E-03
 -1      2410 1.00458E-02
 -1      2411 8.80640E-03
 -1      2412 7.68808E-03
 -1      2413 7.92476E-03
 -1      2414 6.99066E-03
 -1      2415 5.94094E-03
 -1      2416 6.39444E-03
 -1      2417 5.22458E-03
 -1      2418 4.38491E-03
 -1      2419 4.98066E-03
 -1      2420 3.82333E-03
 -1      2421 3.14113E-03
 -1      2422 3.70271E-03
 -1      2423 5.72781E-01
 -1      2424 5.61169E-01
 -1      2425 6.44451E-01
 -1      2426 6.17261E-01
 -1      2427 6.52710E-01
 -1      2428 6.74519E-01
 -1      2429 6.74972E-01
 -1      2430 7.27712E-01
 -1      2431 6.39191E-01
 -1      2432 6.72999E-01
 -1      2433 7.56713E-01
 -1      2434 7.33700E-01
 -1      2435 7.42310E-01
 -1      2436 8.58312E-01
 -1      2437 9.98873E-01
 -1      2438 7.82342E-01
 -1      2439 1.01007E+00
 -1      2440 1.47086E+00
 -1      2441 1.16608E+00
 -1      2442 1.22592E+00
 -1      2443 1.76986E+00
 -1      2444 1.59988E+00
 -1      2445 1.52215E+00
 -1      2446 1.98006E+00
 -1      2447 1.98006E+00
 -1      2448 1.86136E+00
 -1      2449 2.13550E+00
 -1      2450 2.14646E+00
 -1      2451 2.23796E+00
 -1      2452 2.20049E+00
 -1      2453 2.06858E+00
 -1      2454 2.33744E+00
 -1      2455 2.01966E+00
 -1      2456 2.03485E+00
 -1      2457 2.10488E+00
 -1      2458 1.55899E+00
 -1      2459 1.83889E+00
 -1      2460 1.75847E+00
 -1      2461 1.08049E+00
 -1      2462 1.39111E+00
 -1      2463 1.40982E+00
 -1      2464 8.18718E-01
 -1      2465 9.77633E-01
 -1      2466 1.13908E+00
 -1      2467 8.24771E-01
 -1      2468 7.59939E-01
 -1      2469 9.77438E-01
 -1      2470 8.78883E-01
 -1      2471 8.22006E-01
 -1      2472 9.15893E-01
 -1      2473 8.98377E-01
 -1      2474 8.80177E-01
 -1      2475 9.14421E-01
 -1      2476 8.58340E-01
 -1      2477 8.65959E-01
 -1      2478 8.83297E-01
 -1      2479 7.82589E-01
 -1      2480 8.25272E-01
 -1      2481 8.17810E-01
 -1      2482 7.03310E-01
 -1      2483 7.44036E-01
 -1      2484 7.46189E-01
 -1      2485 6.04702E-01
 -1      2486 6.57134E-01
 -1      2487 6.61460E-01
 -1      2488 4.97872E-01
 -1      2489 5.53288E-01
 -1      2490 5.63870E-01
 -1      2491 3.95376E-01
 -1      2492 4.47611E-01
 -1      2493 4.62195E-01
 -1      2494 3.04099E-01
 -1      2495 3.49931E-01
 -1      2496 3.66488E-01
 -1      2497 2.26933E-01
 -1      2498 2.65152E-01
 -1      2499 2.82096E-01
 -1      2500 1.69113E-01
 -1      2501 1.94873E-01
 -1      2502 2.11088E-01
 -1      2503 1.23667E-01
 -1      2504 1.43568E-01
 -1      2505 1.53483E-01
 -1      2506 8.78273E-02
 -1      2507 1.03883E-01
 -1      2508 1.08155E-01
 -1      2509 6.02900E-02
 -1      2510 7.29080E-02
 -1      2511 7.34520E-02
 -1      2512 4.17846E-02
 -1      2513 5.14688E-02
 -1      2514 4.97115E-02
 -1      2515 2.87667E-02
 -1      2516 3.58323E-02
 -1      2517 3.49380E-02
 -1      2518 2.46091E-02
 -1      2519 2.65784E-02
 -1      2520 2.67974E-02
 -1      2521 2.05567E-02
 -1      2522 2.25829E-02
 -1      2523 2.25829E-02
 -1      2524 1.66648E-02
 -1      2525 1.86108E-02
 -1      2526 1.86108E-02
 -1      2527 1.30865E-02
 -1      2528 1.48757E-02
 -1      2529 1.48757E-02
 -1      2530 1.00353E-02
 -1      2531 1.15609E-02
 -1      2532 1.15609E-02
 -1      2533 8.49768E-03
 -1      2534 9.24426E-03
 -1      2535 9.24426E-03
 -1      2536 6.90206E-03
 -1      2537 7.63578E-03
 -1      2538 7.59134E-03
 -1      2539 5.33297E-03
 -1      2540 6.05137E-03
 -1      2541 5.87875E-03
 -1      2542 4.10836E-03
 -1      2543 4.75388E-03
 -1      2544 4.44898E-03
 -1      2545 3.03147E-03
 -1      2546 3.67183E-03
 -1      2547 3.43336E-03
 -1      2548 2.47833E-03
 -1      2549 1.63858E-03
 -1      2550 1.56283E-03
 -1      2551 1.67918E-03
 -1      2552 1.65190E-03
 -1      2553 1.80039E-03
 -1      2554 1.66165E-03
 -1      2555 2.06386E-03
 -1      2556 1.63210E-03
 -1      2557 1.50587E-03
 -1      2558 2.08139E-03
 -1      2559 1.85634E-03
 -1      2560 1.67918E-03
 -1      2561 1.67918E-03
 -1      2562 1.81370E-03
 -1      2563 1.65348E-03
 -1      2564 1.65431E-03
 -1      2565 1.78884E-03
 -1      2566 1.67876E-03
 -1      2567 1.67876E-03
 -1      2568 1.78926E-03
 -1      2569 1.65414E-03
 -1      2570 1.67876E-03
 -1      2571 1.81454E-03
 -1      2572 1.56928E-03
 -1      2573 1.64782E-03
 -1      2574 1.80822E-03
 -1      2575 1.35991E-03
 -1      2576 1.48725E-03
 -1      2577 1.71987E-03
 -1      2578 1.76208E-03
 -1      2579 1.35991E-03
 -1      2580 1.63784E-03
 -1      2581 2.97962E+01
 -1      2582 3.04016E+01
 -1      2583 1.47251E+01
 -1      2584 2.11277E+01
 -1      2585 5.23215E-01
 -1      2586 5.70447E-01
 -1      2587 5.70276E-01
 -1      2588 2.14794E-03
 -1      2589 3.10071E+01
 -1      2590 3.10071E+01
 -1      2591 2.44674E+01
 -1      2592 2.46797E+01
 -1      2593 1.84063E+00
 -1      2594 1.19773E+00
 -1      2595 1.01952E+00
 -1      2596 1.25797E+00
 -1      2597 1.42072E+01
 -1      2598 1.03445E+01
 -1      2599 8.26598E+00
 -1      2600 7.20786E+00
 -1      2601 8.79032E+00
 -1      2602 6.79190E+00
 -1      2603 4.37731E-01
 -1      2604 5.02074E-01
 -1      2605 4.81254E-01
 -1      2606 3.59839E-01
 -1      2607 9.43190E+00
 -1      2608 9.21136E+00
 -1      2609 3.07194E+01
 -1      2610 2.55791E+01
 -1      2611 8.82894E+00
 -1      2612 8.78368E+00
 -1      2613 7.75608E+00
 -1      2614 8.43114E+00
 -1      2615 5.50872E+00
 -1      2616 6.57326E+00
 -1      2617 1.53090E+01
 -1      2618 1.07818E+01
 -1      2619 7.39046E+00
 -1      2620 8.06849E+00
 -1      2621 2.08226E+01
 -1      2622 1.79750E+01
 -1      2623 2.08226E+01
 -1      2624 3.58598E+01
 -1      2625 3.58598E+01
 -1      2626 2.13347E+01
 -1      2627 2.88987E+01
 -1      2628 2.88987E+01
 -1      2629 2.11892E+01
 -1      2630 1.93276E+01
 -1      2631 1.26465E+01
 -1      2632 1.79563E+01
 -1      2633 8.28252E+00
 -1      2634 1.10635E+01
 -1      2635 6.63448E+00
 -1      2636 6.54238E+00
 -1      2637 5.38462E+00
 -1      2638 9.30772E+00
 -1      2639 9.26150E+00
 -1      2640 9.15753E+00
 -1      2641 9.53653E+00
 -1      2642 5.61291E+00
 -1      2643 6.45108E+00
 -1      2644 5.28922E+00
 -1      2645 8.04558E+00
 -1      2646 5.95536E+00
 -1      2647 7.33364E+00
 -1      2648 2.30753E+01
 -1      2649 1.58176E+01
 -1      2650 2.66365E+01
 -1      2651 2.77816E+01
 -1      2652 1.75596E+01
 -1      2653 2.66365E+01
 -1      2654 6.42930E+00
 -1      2655 7.62733E+00
 -1      2656 1.27117E+00
 -1      2657 1.45956E+00
 -1      2658 1.27246E+00
 -1      2659 1.03293E+00
 -1      2660 8.16944E+00
 -1      2661 8.32073E-01
 -1      2662 9.43381E-01
 -1      2663 1.11000E+00
 -1      2664 1.09624E+01
 -1      2665 7.27591E+00
 -1      2666 1.22263E+00
 -1      2667 1.12429E+01
 -1      2668 5.46261E+00
 -1      2669 1.08759E+00
 -1      2670 4.69229E+00
 -1      2671 2.44369E-03
 -1      2672 2.44369E-03
 -1      2673 7.31764E+00
 -1      2674 3.04016E+01
 -1      2675 2.46797E+01
 -1      2676 1.62235E+01
 -1      2677 6.55138E+00
 -1      2678 5.34056E-01
 -1      2679 9.87459E+00
 -1      2680 6.95353E+00
 -1      2681 1.99305E+01
 -1      2682 1.34001E+01
 -1      2683 5.46788E+00
 -1      2684 5.36752E+00
 -1      2685 8.74259E+00
 -1      2686 1.25018E+00
 -1      2687 6.60067E+00
 -1      2688 2.76941E+01
 -1      2689 2.25538E+01
 -1      2690 2.76941E+01
 -1      2691 7.55110E+00
 -1      2692 1.46905E+01
 -1      2693 8.17786E+00
 -1      2694 2.18304E-03
 -1      2695 1.92143E-03
 -1      2696 1.79718E-03
 -1      2697 2.54883E-03
 -1      2698 2.61700E-03
 -1      2699 2.54883E-03
 -1      2700 5.47762E-01
 -1      2701 4.80465E-01
 -1      2702 3.83677E-01
 -1      2703 3.25110E-01
 -1      2704 4.35941E-01
 -1      2705 7.45630E-01
 -1      2706 6.97478E-01
 -1      2707 9.20136E-01
 -1      2708 7.67567E-01
 -1      2709 7.30746E-01
 -1      2710 4.18186E+00
 -1      2711 3.83941E+00
 -1      2712 6.83060E-01
 -1      2713 9.04298E-01
 -1      2714 6.96274E-01
 -1      2715 7.11171E-01
 -1      2716 7.68753E-01
 -1      2717 8.27845E-01
 -1      2718 8.01350E-01
 -1      2719 9.06848E-01
 -1      2720 9.84873E-01
 -1      2721 9.37935E-01
 -1      2722 1.08913E+00
 -1      2723 1.17188E+00
 -1      2724 1.12119E+00
 -1      2725 1.34194E+00
 -1      2726 1.40896E+00
 -1      2727 1.39551E+00
 -1      2728 1.60866E+00
 -1      2729 1.68092E+00
 -1      2730 1.76527E+00
 -1      2731 1.80435E+00
 -1      2732 2.03358E+00
 -1      2733 2.08839E+00
 -1      2734 2.46335E+00
 -1      2735 2.50619E+00
 -1      2736 2.64159E+00
 -1      2737 2.40522E+00
 -1      2738 2.41781E+00
 -1      2739 2.97038E+00
 -1      2740 2.41598E+00
 -1      2741 2.86575E+00
 -1      2742 2.86758E+00
 -1      2743 4.06301E+00
 -1      2744 3.64613E+00
 -1      2745 3.00115E+00
 -1      2746 2.58784E+00
 -1      2747 3.64613E+00
 -1      2748 2.26103E+00
 -1      2749 2.06170E+00
 -1      2750 2.67434E+00
 -1      2751 2.07776E+00
 -1      2752 2.10549E+00
 -1      2753 2.36358E+00
 -1      2754 2.08164E+00
 -1      2755 1.93171E+00
 -1      2756 2.35579E+00
 -1      2757 1.83113E+00
 -1      2758 1.72168E+00
 -1      2759 2.23136E+00
 -1      2760 1.54249E+00
 -1      2761 1.49497E+00
 -1      2762 1.95160E+00
 -1      2763 1.31955E+00
 -1      2764 1.24629E+00
 -1      2765 1.59699E+00
 -1      2766 1.13228E+00
 -1      2767 1.09630E+00
 -1      2768 1.30757E+00
 -1      2769 1.01209E+00
 -1      2770 9.59380E-01
 -1      2771 1.10936E+00
 -1      2772 8.74539E-01
 -1      2773 8.06841E-01
 -1      2774 9.40315E-01
 -1      2775 7.28350E-01
 -1      2776 6.60086E-01
 -1      2777 7.76984E-01
 -1      2778 5.90797E-01
 -1      2779 5.28164E-01
 -1      2780 6.29204E-01
 -1      2781 4.68835E-01
 -1      2782 4.15642E-01
 -1      2783 5.00586E-01
 -1      2784 3.66017E-01
 -1      2785 3.20934E-01
 -1      2786 3.91632E-01
 -1      2787 2.80251E-01
 -1      2788 2.42982E-01
 -1      2789 3.01323E-01
 -1      2790 2.10233E-01
 -1      2791 1.80282E-01
 -1      2792 2.27891E-01
 -1      2793 1.54369E-01
 -1      2794 1.30876E-01
 -1      2795 1.69230E-01
 -1      2796 1.10718E-01
 -1      2797 9.26949E-02
 -1      2798 1.23158E-01
 -1      2799 7.72824E-02
 -1      2800 6.37527E-02
 -1      2801 8.75862E-02
 -1      2802 5.21835E-02
 -1      2803 4.27100E-02
 -1      2804 6.06045E-02
 -1      2805 3.41973E-02
 -1      2806 2.86591E-02
 -1      2807 4.05226E-02
 -1      2808 2.25339E-02
 -1      2809 1.96638E-02
 -1      2810 2.58847E-02
 -1      2811 1.59001E-02
 -1      2812 1.45700E-02
 -1      2813 1.59957E-02
 -1      2814 1.32127E-02
 -1      2815 1.18049E-02
 -1      2816 1.08746E-02
 -1      2817 1.13527E-02
 -1      2818 9.97338E-03
 -1      2819 9.06512E-03
 -1      2820 9.35621E-03
 -1      2821 8.06811E-03
 -1      2822 7.99573E-03
 -1      2823 7.38202E-03
 -1      2824 6.54912E-03
 -1      2825 6.69247E-03
 -1      2826 5.90275E-03
 -1      2827 5.20533E-03
 -1      2828 5.36002E-03
 -1      2829 4.76812E-03
 -1      2830 4.05176E-03
 -1      2831 4.27644E-03
 -1      2832 3.57813E-03
 -1      2833 3.01654E-03
 -1      2834 3.36559E-03
 -1      2835 8.45688E-01
 -1      2836 8.15166E-01
 -1      2837 2.92608E-03
 -1      2838 3.30591E-03
 -1      2839 3.74244E-03
 -1      2840 7.42779E-01
 -1      2841 6.98298E-01
 -1      2842 8.60754E-01
 -1      2843 1.07266E+00
 -1      2844 9.69546E-01
 -1      2845 1.30857E+00
 -1      2846 1.25992E+00
 -1      2847 1.37116E+00
 -1      2848 1.58253E+00
 -1      2849 1.41532E+00
 -1      2850 1.66518E+00
 -1      2851 1.72755E+00
 -1      2852 1.59853E+00
 -1      2853 1.78793E+00
 -1      2854 2.50884E+00
 -1      2855 2.29865E+00
 -1      2856 2.37504E+00
 -1      2857 3.78970E+00
 -1      2858 3.62330E+00
 -1      2859 4.06059E+00
 -1      2860 3.84225E+00
 -1      2861 3.90916E+00
 -1      2862 5.29451E+00
 -1      2863 2.25215E+00
 -1      2864 2.41779E+00
 -1      2865 3.98951E+00
 -1      2866 2.02886E+00
 -1      2867 2.20963E+00
 -1      2868 2.52254E+00
 -1      2869 1.54838E+00
 -1      2870 1.71627E+00
 -1      2871 2.16742E+00
 -1      2872 1.37876E+00
 -1      2873 1.48162E+00
 -1      2874 1.78807E+00
 -1      2875 1.20398E+00
 -1      2876 1.26276E+00
 -1      2877 1.60530E+00
 -1      2878 1.10171E+00
 -1      2879 1.10448E+00
 -1      2880 1.38980E+00
 -1      2881 1.04364E+00
 -1      2882 1.04235E+00
 -1      2883 1.23093E+00
 -1      2884 9.30646E-01
 -1      2885 9.63064E-01
 -1      2886 1.09099E+00
 -1      2887 8.22109E-01
 -1      2888 8.55177E-01
 -1      2889 9.34944E-01
 -1      2890 7.39216E-01
 -1      2891 7.77769E-01
 -1      2892 8.15136E-01
 -1      2893 6.39315E-01
 -1      2894 6.85491E-01
 -1      2895 7.17071E-01
 -1      2896 5.32471E-01
 -1      2897 5.83885E-01
 -1      2898 6.07916E-01
 -1      2899 4.29806E-01
 -1      2900 4.80068E-01
 -1      2901 5.00083E-01
 -1      2902 3.37547E-01
 -1      2903 3.82992E-01
 -1      2904 4.00865E-01
 -1      2905 2.58458E-01
 -1      2906 2.97405E-01
 -1      2907 3.13909E-01
 -1      2908 1.93057E-01
 -1      2909 2.25118E-01
 -1      2910 2.40427E-01
 -1      2911 1.40544E-01
 -1      2912 1.66089E-01
 -1      2913 1.80118E-01
 -1      2914 9.94502E-02
 -1      2915 1.19234E-01
 -1      2916 1.31839E-01
 -1      2917 6.80583E-02
 -1      2918 8.29775E-02
 -1      2919 9.40566E-02
 -1      2920 4.67776E-02
 -1      2921 5.55989E-02
 -1      2922 6.51244E-02
 -1      2923 3.16112E-02
 -1      2924 3.75634E-02
 -1      2925 4.34508E-02
 -1      2926 2.27735E-02
 -1      2927 2.49619E-02
 -1      2928 2.75872E-02
 -1      2929 1.73505E-02
 -1      2930 1.93767E-02
 -1      2931 1.75411E-02
 -1      2932 1.46124E-02
 -1      2933 1.65583E-02
 -1      2934 1.33521E-02
 -1      2935 1.20355E-02
 -1      2936 1.38246E-02
 -1      2937 1.17722E-02
 -1      2938 9.60585E-03
 -1      2939 1.11315E-02
 -1      2940 1.00804E-02
 -1      2941 7.88653E-03
 -1      2942 8.67754E-03
 -1      2943 8.24812E-03
 -1      2944 6.19400E-03
 -1      2945 7.05590E-03
 -1      2946 6.48919E-03
 -1      2947 4.77241E-03
 -1      2948 5.62310E-03
 -1      2949 5.08766E-03
 -1      2950 3.98873E-03
 -1      2951 4.56782E-03
 -1      2952 4.31216E-03
 -1      2953 3.86128E-03
 -1      2954 1.83803E-03
 -1      2955 1.86290E-03
 -1      2956 2.54709E-03
 -1      2957 1.95479E-03
 -1      2958 1.79545E-03
 -1      2959 2.42250E-03
 -1      2960 1.95098E-03
 -1      2961 1.93766E-03
 -1      2962 1.84948E-03
 -1      2963 1.82420E-03
 -1      2964 1.89826E-03
 -1      2965 1.91967E-03
 -1      2966 1.91967E-03
 -1      2967 2.05695E-03
 -1      2968 1.96887E-03
 -1      2969 5.53270E+00
 -1      2970 7.29771E+00
 -1      2971 1.90186E-03
 -1      2972 1.90186E-03
 -1      2973 1.93680E-03
 -1      2974 1.94359E-03
 -1      2975 1.94990E-03
 -1      2976 2.03722E-03
 -1      2977 1.86155E-03
 -1      2978 1.94359E-03
 -1      2979 2.08527E-03
 -1      2980 1.96588E-03
 -1      2981 1.96588E-03
 -1      2982 2.18959E-03
 -1      2983 2.12349E-03
 -1      2984 4.48567E+00
 -1      2985 3.91229E+00
 -1      2986 5.09556E+00
 -1      2987 6.83570E+00
 -1      2988 4.19661E+00
 -1      2989 1.77430E+01
 -1      2990 2.28595E+01
 -1      2991 1.16290E+01
 -1      2992 1.49687E+01
 -1      2993 1.19094E+00
 -1      2994 9.60277E-01
 -1      2995 1.62215E+01
 -1      2996 1.82286E+01
 -1      2997 1.91020E+01
 -1      2998 1.43455E+01
 -1      2999 4.67987E+00
 -1      3000 5.86269E+00
 -1      3001 6.29020E-01
 -1      3002 5.91065E-01
 -1      3003 7.19088E-01
 -1      3004 9.19587E-01
 -1      3005 9.21107E-01
 -1      3006 1.00856E+00
 -1      3007 1.13394E+00
 -1      3008 9.60277E-01
 -1      3009 8.90241E-01
 -1      3010 9.37736E-01
 -1      3011 1.13170E+00
 -1      3012 8.55642E+00
 -1      3013 1.01395E+01
 -1      3014 7.98638E+00
 -1      3015 9.90781E+00
 -1      3016 8.65304E+00
 -1      3017 3.99810E+00
 -1      3018 4.04639E+00
 -1      3019 6.14859E+00
 -1      3020 4.96224E+00
 -1      3021 3.54602E+00
 -1      3022 6.67214E-01
 -1      3023 6.05538E-01
 -1      3024 5.90505E-01
 -1      3025 6.78545E-01
 -1      3026 6.01538E-01
 -1      3027 6.71759E-01
 -1      3028 6.05477E+00
 -1      3029 7.05553E+00
 -1      3030 5.36712E+00
 -1      3031 9.02129E+00
 -1      3032 7.02977E+00
 -1      3033 1.19094E+00
 -1      3034 2.15184E+01
 -1      3035 2.21238E+01
 -1      3036 1.03420E+01
 -1      3037 1.35749E+01
 -1      3038 1.18730E+01
 -1      3039 5.45741E+00
 -1      3040 4.17423E+00
 -1      3041 4.66939E+00
 -1      3042 1.27217E+01
 -1      3043 1.00557E+01
 -1      3044 1.93653E+01
 -1      3045 2.63264E+01
 -1      3046 7.03318E+00
 -1      3047 6.80436E+00
 -1      3048 6.27562E+00
 -1      3049 5.28010E+00
 -1      3050 3.80777E+00
 -1      3051 5.13094E+00
 -1      3052 5.32321E-01
 -1      3053 5.34056E-01
 -1      3054 6.81326E-01
 -1      3055 5.91065E-01
 -1      3056 7.13093E+00
 -1      3057 6.74852E+00
 -1      3058 3.67501E+00
 -1      3059 4.61439E+00
 -1      3060 7.41483E+00
 -1      3061 5.11593E+00
 -1      3062 1.03293E+00
 -1      3063 1.06408E+01
 -1      3064 9.03045E+00
 -1      3065 9.13020E-01
 -1      3066 1.05076E+00
 -1      3067 8.90442E-01
 -1      3068 3.29712E-01
 -1      3069 3.15669E-01
 -1      3070 3.64441E-01
 -1      3071 3.16458E+00
 -1      3072 4.26305E+00
 -1      3073 2.59735E-03
 -1      3074 2.44676E-03
 -1      3075 2.51603E-03
 -1      3076 2.27409E+01
 -1      3077 1.83702E+01
 -1      3078 4.74730E+00
 -1      3079 4.97539E+00
 -1      3080 3.29286E+00
 -1      3081 3.77745E+00
 -1      3082 6.24317E+00
 -1      3083 1.45817E+01
 -1      3084 2.77030E-03
 -1      3085 9.58959E-01
 -1      3086 7.91507E-01
 -1      3087 6.34889E+00
 -1      3088 7.10061E+00
 -1      3089 1.56563E+01
 -1      3090 9.02387E+00
 -1      3091 8.34291E+00
 -1      3092 1.85722E+01
 -1      3093 1.20952E+01
 -1      3094 1.55469E+01
 -1      3095 1.10011E+01
 -1      3096 5.73611E+00
 -1      3097 5.74306E+00
 -1      3098 6.83210E+00
 -1      3099 1.38576E+01
 -1      3100 5.11008E+00
 -1      3101 2.91318E+00
 -1      3102 4.37769E+00
 -1      3103 4.39949E+00
 -1      3104 1.05076E+00
 -1      3105 4.56807E-01
 -1      3106 5.29449E-01
 -1      3107 5.77091E-01
 -1      3108 4.12636E-01
 -1      3109 2.47561E+01
 -1      3110 1.65904E+01
 -1      3111 1.52227E+01
 -1      3112 5.63460E+00
 -1      3113 6.81275E+00
 -1      3114 4.12886E+00
 -1      3115 1.00162E+01
 -1      3116 7.80376E+00
 -1      3117 1.60225E+01
 -1      3118 1.13162E+01
 -1      3119 8.47911E+00
 -1      3120 1.21268E+01
 -1      3121 3.29286E+00
 -1      3122 7.76228E-01
 -1      3123 7.54291E-01
 -1      3124 4.75889E+00
 -1      3125 4.15896E+00
 -1      3126 5.67245E+00
 -1      3127 7.39316E+00
 -1      3128 9.60963E-01
 -1      3129 1.03997E+00
 -1      3130 1.20027E+00
 -1      3131 1.30452E+00
 -1      3132 1.22330E+00
 -1      3133 1.51192E+00
 -1      3134 1.68198E+00
 -1      3135 1.59100E+00
 -1      3136 1.89376E+00
 -1      3137 2.09346E+00
 -1      3138 2.01017E+00
 -1      3139 2.37676E+00
 -1      3140 2.50018E+00
 -1      3141 2.50525E+00
 -1      3142 4.51818E+00
 -1      3143 4.41721E+00
 -1      3144 4.86183E+00
 -1      3145 5.55049E+00
 -1      3146 2.37964E+00
 -1      3147 2.35579E+00
 -1      3148 2.86841E+00
 -1      3149 2.76783E+00
 -1      3150 2.89226E+00
 -1      3151 2.33384E+00
 -1      3152 2.15466E+00
 -1      3153 2.97090E+00
 -1      3154 1.88783E+00
 -1      3155 1.71241E+00
 -1      3156 2.27008E+00
 -1      3157 1.50670E+00
 -1      3158 1.39270E+00
 -1      3159 1.79754E+00
 -1      3160 1.21292E+00
 -1      3161 1.12872E+00
 -1      3162 1.41205E+00
 -1      3163 9.91478E-01
 -1      3164 9.06638E-01
 -1      3165 1.09504E+00
 -1      3166 8.02049E-01
 -1      3167 7.23558E-01
 -1      3168 8.53212E-01
 -1      3169 6.51775E-01
 -1      3170 5.82486E-01
 -1      3171 6.76840E-01
 -1      3172 5.20981E-01
 -1      3173 4.61652E-01
 -1      3174 5.43552E-01
 -1      3175 4.08097E-01
 -1      3176 3.58472E-01
 -1      3177 4.28492E-01
 -1      3178 3.13632E-01
 -1      3179 2.72949E-01
 -1      3180 3.30097E-01
 -1      3181 2.36499E-01
 -1      3182 2.03750E-01
 -1      3183 2.48808E-01
 -1      3184 1.74847E-01
 -1      3185 1.48934E-01
 -1      3186 1.83454E-01
 -1      3187 1.26855E-01
 -1      3188 1.06696E-01
 -1      3189 1.32472E-01
 -1      3190 9.05151E-02
 -1      3191 7.51026E-02
 -1      3192 9.42124E-02
 -1      3193 6.29309E-02
 -1      3194 5.13617E-02
 -1      3195 6.58598E-02
 -1      3196 4.29556E-02
 -1      3197 3.44429E-02
 -1      3198 4.52820E-02
 -1      3199 2.82404E-02
 -1      3200 2.21152E-02
 -1      3201 3.06734E-02
 -1      3202 1.76309E-02
 -1      3203 1.38671E-02
 -1      3204 1.99866E-02
 -1      3205 1.07069E-02
 -1      3206 9.34957E-03
 -1      3207 1.23420E-02
 -1      3208 7.56903E-03
 -1      3209 7.11681E-03
 -1      3210 7.40126E-03
 -1      3211 7.15788E-03
 -1      3212 6.54071E-03
 -1      3213 5.66179E-03
 -1      3214 6.38725E-03
 -1      3215 5.70117E-03
 -1      3216 5.54940E-03
 -1      3217 5.36002E-03
 -1      3218 4.71365E-03
 -1      3219 5.05480E-03
 -1      3220 4.27644E-03
 -1      3221 3.83923E-03
 -1      3222 4.27644E-03
 -1      3223 3.63023E-03
 -1      3224 3.15659E-03
 -1      3225 3.63023E-03
 -1      3226 9.70870E-01
 -1      3227 8.98483E-01
 -1      3228 2.08114E+00
 -1      3229 1.97438E+00
 -1      3230 1.79484E+00
 -1      3231 1.60758E+00
 -1      3232 2.21080E+00
 -1      3233 2.94613E+00
 -1      3234 2.37504E+00
 -1      3235 5.17504E+00
 -1      3236 4.06059E+00
 -1      3237 5.48658E+00
 -1      3238 5.36712E+00
 -1      3239 3.18641E+00
 -1      3240 4.61087E+00
 -1      3241 2.52254E+00
 -1      3242 2.56506E+00
 -1      3243 2.54965E+00
 -1      3244 2.86225E+00
 -1      3245 2.31783E+00
 -1      3246 2.43383E+00
 -1      3247 1.61436E+00
 -1      3248 1.71386E+00
 -1      3249 2.54239E+00
 -1      3250 1.38895E+00
 -1      3251 1.44832E+00
 -1      3252 1.77238E+00
 -1      3253 1.13848E+00
 -1      3254 1.21906E+00
 -1      3255 1.43644E+00
 -1      3256 9.64085E-01
 -1      3257 1.03955E+00
 -1      3258 1.16762E+00
 -1      3259 8.30749E-01
 -1      3260 8.75088E-01
 -1      3261 9.79698E-01
 -1      3262 6.97282E-01
 -1      3263 7.51007E-01
 -1      3264 8.10959E-01
 -1      3265 5.71701E-01
 -1      3266 6.27131E-01
 -1      3267 6.61067E-01
 -1      3268 4.57770E-01
 -1      3269 5.10174E-01
 -1      3270 5.29389E-01
 -1      3271 3.58959E-01
 -1      3272 4.05773E-01
 -1      3273 4.15864E-01
 -1      3274 2.77482E-01
 -1      3275 3.17624E-01
 -1      3276 3.22532E-01
 -1      3277 2.10784E-01
 -1      3278 2.44125E-01
 -1      3279 2.47839E-01
 -1      3280 1.57095E-01
 -1      3281 1.84063E-01
 -1      3282 1.87761E-01
 -1      3283 1.14658E-01
 -1      3284 1.35968E-01
 -1      3285 1.39914E-01
 -1      3286 8.17274E-02
 -1      3287 9.82001E-02
 -1      3288 1.02329E-01
 -1      3289 5.66492E-02
 -1      3290 6.91086E-02
 -1      3291 7.32522E-02
 -1      3292 3.79258E-02
 -1      3293 4.71400E-02
 -1      3294 5.11243E-02
 -1      3295 2.42411E-02
 -1      3296 3.08904E-02
 -1      3297 3.45797E-02
 -1      3298 1.57486E-02
 -1      3299 1.91454E-02
 -1      3300 2.24486E-02
 -1      3301 1.13615E-02
 -1      3302 1.21537E-02
 -1      3303 1.37580E-02
 -1      3304 8.93306E-03
 -1      3305 9.72080E-03
 -1      3306 8.52238E-03
 -1      3307 8.00583E-03
 -1      3308 8.90985E-03
 -1      3309 6.85845E-03
 -1      3310 6.77484E-03
 -1      3311 7.70314E-03
 -1      3312 6.53255E-03
 -1      3313 5.48175E-03
 -1      3314 6.31238E-03
 -1      3315 5.76740E-03
 -1      3316 4.36010E-03
 -1      3317 4.93100E-03
 -1      3318 4.75420E-03
 -1      3319 2.59293E-03
 -1      3320 5.31729E-01
 -1      3321 4.34941E-01
 -1      3322 2.19752E-03
 -1      3323 2.14947E-03
 -1      3324 1.82267E-03
 -1      3325 1.83650E-03
 -1      3326 6.51706E+00
 -1      3327 7.14167E+00
 -1      3328 2.54101E-03
 -1      3329 2.54101E-03
 -1      3330 2.65326E-03
 -1      3331 1.95949E-03
 -1      3332 1.90712E-03
 -1      3333 1.84536E-03
 -1      3334 2.11979E-03
 -1      3335 1.44736E+01
 -1      3336 1.26535E+01
 -1      3337 8.21621E-01
 -1      3338 7.52342E-01
 -1      3339 9.31737E-01
 -1      3340 9.87916E+00
 -1      3341 8.15279E+00
 -1      3342 7.11836E+00
 -1      3343 7.39316E+00
 -1      3344 7.59571E+00
 -1      3345 1.11450E+01
 -1      3346 1.17620E+01
 -1      3347 3.55494E+00
 -1      3348 4.06059E+00
 -1      3349 2.58018E+00
 -1      3350 2.56418E+00
 -1      3351 2.87339E+00
 -1      3352 7.12447E-01
 -1      3353 6.73623E-01
 -1      3354 6.97169E-01
 -1      3355 5.63442E-01
 -1      3356 1.25362E+01
 -1      3357 1.11950E+01
 -1      3358 6.39332E+00
 -1      3359 8.11453E+00
 -1      3360 5.01198E+00
 -1      3361 3.53761E+00
 -1      3362 2.57347E+00
 -1      3363 9.86258E+00
 -1      3364 8.23879E+00
 -1      3365 7.95289E-01
 -1      3366 8.52871E-01
 -1      3367 9.54903E-01
 -1      3368 3.36072E-03
 -1      3369 8.82137E+00
 -1      3370 1.14680E+01
 -1      3371 7.19066E+00
 -1      3372 5.33245E+00
 -1      3373 3.76009E+00
 -1      3374 1.24866E+01
 -1      3375 1.36234E+01
 -1      3376 4.06447E+00
 -1      3377 3.13040E+00
 -1      3378 1.13170E+00
 -1      3379 6.42930E+00
 -1      3380 4.81367E+00
 -1      3381 3.68103E+00
 -1      3382 5.14260E+00
 -1      3383 8.12960E+00
 -1      3384 1.13990E+01
 -1      3385 8.01231E+00
 -1      3386 4.11151E-01
 -1      3387 4.01710E-01
 -1      3388 5.06939E-01
 -1      3389 4.68983E+00
 -1      3390 3.18641E+00
 -1      3391 2.50986E-03
 -1      3392 3.01896E-03
 -1      3393 5.96501E+00
 -1      3394 1.06986E+01
 -1      3395 1.36367E+01
 -1      3396 9.65519E+00
 -1      3397 7.61329E-01
 -1      3398 7.15847E-01
 -1      3399 6.85583E-01
 -1      3400 4.12465E+00
 -1      3401 3.51730E+00
 -1      3402 4.96413E+00
 -1      3403 4.96413E+00
 -1      3404 3.08754E+00
 -1      3405 2.94138E+00
 -1      3406 2.93955E+00
 -1      3407 2.85757E-03
 -1      3408 1.08926E+00
 -1      3409 8.95289E-01
 -1      3410 9.46810E-01
 -1      3411 3.00066E+00
 -1      3412 2.67385E+00
 -1      3413 2.63968E+00
 -1      3414 2.65573E+00
 -1      3415 8.37803E+00
 -1      3416 7.88295E+00
 -1      3417 1.09166E+00
 -1      3418 1.12939E+00
 -1      3419 1.16708E+00
 -1      3420 1.13170E+00
 -1      3421 5.62544E+00
 -1      3422 4.96335E+00
 -1      3423 3.15128E+00
 -1      3424 1.81600E+00
 -1      3425 1.39232E+00
 -1      3426 1.34237E+00
 -1      3427 2.01874E+00
 -1      3428 2.08550E+00
 -1      3429 4.08880E-03
 -1      3430 3.93215E-03
 -1      3431 3.88421E-03
 -1      3432 2.08325E-03
 -1      3433 2.11455E-03
 -1      3434 2.53616E-03
 -1      3435 6.04626E-01
 -1      3436 6.03626E-01
 -1      3437 6.62402E-01
 -1      3438 1.91210E-03
 -1      3439 1.96887E-03
 -1      3440 2.02647E-03
 -1      3441 1.83650E-03
 -1      3442 1.11450E+01
 -1      3443 9.04934E+00
 -1      3444 9.09942E+00
 -1      3445 2.75325E-03
 -1      3446 7.43081E-01
 -1      3447 6.84337E-01
 -1      3448 7.15458E-01
 -1      3449 8.45614E-01
 -1      3450 2.83825E+00
 -1      3451 3.73397E+00
 -1      3452 6.11831E+00
 -1      3453 3.37590E+00
 -1      3454 2.73126E+00
 -1      3455 4.12934E+00
 -1      3456 6.62846E+00
 -1      3457 5.90853E+00
 -1      3458 4.35483E+00
 -1      3459 7.20849E+00
 -1      3460 4.16108E+00
 -1      3461 7.15351E-01
 -1      3462 9.56612E-01
 -1      3463 4.77432E+00
 -1      3464 2.78032E+00
 -1      3465 7.01424E+00
 -1      3466 5.56199E+00
 -1      3467 3.13525E-03
 -1      3468 3.38952E-03
 -1      3469 3.63581E-03
 -1      3470 3.04776E-03
 -1      3471 9.87810E+00
 -1      3472 7.11576E+00
 -1      3473 9.34835E+00
 -1      3474 3.19542E+00
 -1      3475 4.35043E+00
 -1      3476 3.65775E+00
 -1      3477 2.73126E+00
 -1      3478 7.01881E-01
 -1      3479 7.68051E-01
 -1      3480 6.29792E-01
 -1      3481 9.43500E+00
 -1      3482 5.78278E+00
 -1      3483 3.80676E+00
 -1      3484 3.32372E+00
 -1      3485 5.59266E+00
 -1      3486 9.09079E+00
 -1      3487 1.22605E+01
 -1      3488 1.06901E+01
 -1      3489 3.20899E-03
 -1      3490 1.04279E+01
 -1      3491 8.08016E+00
 -1      3492 5.50958E+00
 -1      3493 7.71529E+00
 -1      3494 7.79852E+00
 -1      3495 8.81720E+00
 -1      3496 3.14636E+00
 -1      3497 1.62930E+00
 -1      3498 1.83670E+00
 -1      3499 2.34103E+00
 -1      3500 2.55281E+00
 -1      3501 2.37934E+00
 -1      3502 3.49959E+00
 -1      3503 3.78289E+00
 -1      3504 3.83045E+00
 -1      3505 5.07681E+00
 -1      3506 5.34030E+00
 -1      3507 2.65573E+00
 -1      3508 3.73831E+00
 -1      3509 3.30432E+00
 -1      3510 2.53691E+00
 -1      3511 2.27008E+00
 -1      3512 3.30432E+00
 -1      3513 1.91423E+00
 -1      3514 1.70852E+00
 -1      3515 2.18106E+00
 -1      3516 1.48722E+00
 -1      3517 1.30744E+00
 -1      3518 1.60390E+00
 -1      3519 1.18909E+00
 -1      3520 1.05185E+00
 -1      3521 1.26425E+00
 -1      3522 9.45082E-01
 -1      3523 8.40492E-01
 -1      3524 1.03913E+00
 -1      3525 7.46974E-01
 -1      3526 6.75191E-01
 -1      3527 8.38844E-01
 -1      3528 5.96205E-01
 -1      3529 5.34699E-01
 -1      3530 6.66338E-01
 -1      3531 4.69450E-01
 -1      3532 4.15895E-01
 -1      3533 5.22102E-01
 -1      3534 3.62786E-01
 -1      3535 3.17946E-01
 -1      3536 4.03744E-01
 -1      3537 2.75202E-01
 -1      3538 2.38752E-01
 -1      3539 3.07891E-01
 -1      3540 2.04870E-01
 -1      3541 1.75967E-01
 -1      3542 2.31265E-01
 -1      3543 1.49408E-01
 -1      3544 1.27329E-01
 -1      3545 1.70824E-01
 -1      3546 1.06808E-01
 -1      3547 9.06267E-02
 -1      3548 1.23744E-01
 -1      3549 7.50107E-02
 -1      3550 6.28390E-02
 -1      3551 8.76059E-02
 -1      3552 5.16315E-02
 -1      3553 4.32254E-02
 -1      3554 6.07824E-02
 -1      3555 3.50671E-02
 -1      3556 2.88646E-02
 -1      3557 4.14166E-02
 -1      3558 2.29048E-02
 -1      3559 1.84205E-02
 -1      3560 2.72985E-02
 -1      3561 1.41650E-02
 -1      3562 1.10048E-02
 -1      3563 1.70833E-02
 -1      3564 8.05269E-03
 -1      3565 6.27215E-03
 -1      3566 9.87570E-03
 -1      3567 4.48462E-03
 -1      3568 4.52569E-03
 -1      3569 5.13605E-03
 -1      3570 4.53720E-03
 -1      3571 4.38375E-03
 -1      3572 3.36003E-03
 -1      3573 4.50977E-03
 -1      3574 4.16862E-03
 -1      3575 3.49757E-03
 -1      3576 4.07041E-03
 -1      3577 3.63320E-03
 -1      3578 3.52538E-03
 -1      3579 3.63023E-03
 -1      3580 3.42123E-03
 -1      3581 3.20899E-03
 -1      3582 3.42420E-03
 -1      3583 6.11728E+00
 -1      3584 7.25447E+00
 -1      3585 2.90477E+00
 -1      3586 2.54239E+00
 -1      3587 3.14636E+00
 -1      3588 1.25051E+00
 -1      3589 1.34944E+00
 -1      3590 9.83278E-01
 -1      3591 1.07227E+00
 -1      3592 1.25409E+00
 -1      3593 7.83902E-01
 -1      3594 8.63644E-01
 -1      3595 9.56221E-01
 -1      3596 6.28450E-01
 -1      3597 6.98601E-01
 -1      3598 7.51286E-01
 -1      3599 5.07103E-01
 -1      3600 5.68631E-01
 -1      3601 6.06165E-01
 -1      3602 4.01340E-01
 -1      3603 4.53336E-01
 -1      3604 4.92578E-01
 -1      3605 3.12972E-01
 -1      3606 3.54308E-01
 -1      3607 3.91780E-01
 -1      3608 2.39890E-01
 -1      3609 2.73247E-01
 -1      3610 3.05023E-01
 -1      3611 1.80561E-01
 -1      3612 2.07282E-01
 -1      3613 2.32690E-01
 -1      3614 1.33244E-01
 -1      3615 1.54371E-01
 -1      3616 1.73892E-01
 -1      3617 9.61692E-02
 -1      3618 1.12628E-01
 -1      3619 1.27084E-01
 -1      3620 6.76754E-02
 -1      3621 8.02942E-02
 -1      3622 9.05924E-02
 -1      3623 4.68075E-02
 -1      3624 5.63166E-02
 -1      3625 6.33586E-02
 -1      3626 3.12536E-02
 -1      3627 3.82891E-02
 -1      3628 4.34814E-02
 -1      3629 1.99046E-02
 -1      3630 2.50003E-02
 -1      3631 2.87097E-02
 -1      3632 1.18801E-02
 -1      3633 1.54750E-02
 -1      3634 1.80267E-02
 -1      3635 7.17373E-03
 -1      3636 8.81445E-03
 -1      3637 1.05314E-02
 -1      3638 5.47665E-03
 -1      3639 5.49986E-03
 -1      3640 5.79193E-03
 -1      3641 5.14966E-03
 -1      3642 5.45235E-03
 -1      3643 4.09376E-03
 -1      3644 4.73728E-03
 -1      3645 5.19974E-03
 -1      3646 4.11954E-03
 -1      3647 4.01392E-03
 -1      3648 4.56467E-03
 -1      3649 3.99700E-03
 -1      3650 1.08926E+00
 -1      3651 2.77772E-03
 -1      3652 2.43424E-03
 -1      3653 2.98996E-03
 -1      3654 1.05605E+00
 -1      3655 9.79188E-01
 -1      3656 9.14165E-01
 -1      3657 1.62368E+00
 -1      3658 1.79358E+00
 -1      3659 1.70657E+00
 -1      3660 2.12178E+00
 -1      3661 2.28782E+00
 -1      3662 2.89179E+00
 -1      3663 2.30901E+00
 -1      3664 5.95578E+00
 -1      3665 5.86978E+00
 -1      3666 2.66285E+00
 -1      3667 2.48330E+00
 -1      3668 3.59622E+00
 -1      3669 4.56781E-01
 -1      3670 5.49147E-01
 -1      3671 6.73936E-01
 -1      3672 3.65775E+00
 -1      3673 4.50059E+00
 -1      3674 4.24116E+00
 -1      3675 4.82851E+00
 -1      3676 5.82939E+00
 -1      3677 5.23550E+00
 -1      3678 9.58587E-01
 -1      3679 1.06668E+00
 -1      3680 7.05505E+00
 -1      3681 4.07174E+00
 -1      3682 4.96335E+00
 -1      3683 1.18882E+00
 -1      3684 1.34913E+00
 -1      3685 1.59483E+00
 -1      3686 5.92203E+00
 -1      3687 6.16868E+00
 -1      3688 4.88052E+00
 -1      3689 5.38220E-01
 -1      3690 1.42547E+00
 -1      3691 7.08534E-01
 -1      3692 6.35637E-01
 -1      3693 1.19251E+00
 -1      3694 1.04029E+01
 -1      3695 7.44920E+00
 -1      3696 7.44067E+00
 -1      3697 8.18063E-01
 -1      3698 7.79619E-01
 -1      3699 5.41085E+00
 -1      3700 3.72258E+00
 -1      3701 2.34400E-03
 -1      3702 2.21954E-03
 -1      3703 2.02956E-03
 -1      3704 4.62992E+00
 -1      3705 6.43724E+00
 -1      3706 1.32390E+00
 -1      3707 1.20311E+00
 -1      3708 1.25056E+00
 -1      3709 7.20439E+00
 -1      3710 2.03125E+00
 -1      3711 1.81600E+00
 -1      3712 2.48330E+00
 -1      3713 7.33373E-01
 -1      3714 6.28465E-01
 -1      3715 6.04676E-01
 -1      3716 3.41245E-03
 -1      3717 3.39417E-03
 -1      3718 3.66547E-03
 -1      3719 3.47594E-03
 -1      3720 4.53420E+00
 -1      3721 9.63677E-01
 -1      3722 8.63677E-01
 -1      3723 9.75454E-01
 -1      3724 8.31032E-01
 -1      3725 1.87287E-03
 -1      3726 1.78842E-03
 -1      3727 1.97262E-03
 -1      3728 2.15445E-03
 -1      3729 2.54977E-03
 -1      3730 6.99704E-01
 -1      3731 8.86177E+00
 -1      3732 6.64470E+00
 -1      3733 6.95154E+00
 -1      3734 6.93643E+00
 -1      3735 6.93643E+00
 -1      3736 8.31032E-01
 -1      3737 8.80544E-01
 -1      3738 8.17563E-01
 -1      3739 3.91755E+00
 -1      3740 1.73800E-03
 -1      3741 1.71049E-03
 -1      3742 1.78608E-03
 -1      3743 8.83571E-01
 -1      3744 8.74309E-01
 -1      3745 1.00788E+00
 -1      3746 5.60238E+00
 -1      3747 6.56663E+00
 -1      3748 8.20312E+00
 -1      3749 6.84022E+00
 -1      3750 3.72412E+00
 -1      3751 3.44103E+00
 -1      3752 2.64777E-03
 -1      3753 3.02948E-03
 -1      3754 5.97735E+00
 -1      3755 5.96183E+00
 -1      3756 4.81737E+00
 -1      3757 3.30021E+00
 -1      3758 3.30021E+00
 -1      3759 2.53280E+00
 -1      3760 2.66950E+00
 -1      3761 1.19251E+00
 -1      3762 1.31465E+00
 -1      3763 3.14636E+00
 -1      3764 8.18063E-01
 -1      3765 8.36353E-01
 -1      3766 4.54269E+00
 -1      3767 4.49128E+00
 -1      3768 6.30374E-01
 -1      3769 6.85445E-01
 -1      3770 7.51900E-01
 -1      3771 3.51271E+00
 -1      3772 4.45949E+00
 -1      3773 3.40493E+00
 -1      3774 2.04595E+00
 -1      3775 1.69010E+00
 -1      3776 2.04184E+00
 -1      3777 1.48695E+00
 -1      3778 1.26564E+00
 -1      3779 1.35184E+00
 -1      3780 1.13201E+00
 -1      3781 1.01366E+00
 -1      3782 1.01505E+00
 -1      3783 9.07399E-01
 -1      3784 8.00633E-01
 -1      3785 7.75163E-01
 -1      3786 7.21517E-01
 -1      3787 6.27998E-01
 -1      3788 5.89787E-01
 -1      3789 5.67801E-01
 -1      3790 4.88815E-01
 -1      3791 4.50475E-01
 -1      3792 4.42571E-01
 -1      3793 3.77321E-01
 -1      3794 3.44034E-01
 -1      3795 3.41561E-01
 -1      3796 2.88451E-01
 -1      3797 2.62029E-01
 -1      3798 2.60479E-01
 -1      3799 2.17735E-01
 -1      3800 1.98295E-01
 -1      3801 1.96042E-01
 -1      3802 1.62160E-01
 -1      3803 1.48630E-01
 -1      3804 1.45285E-01
 -1      3805 1.18726E-01
 -1      3806 1.10062E-01
 -1      3807 1.05722E-01
 -1      3808 8.52000E-02
 -1      3809 8.01825E-02
 -1      3810 7.53125E-02
 -1      3811 5.96965E-02
 -1      3812 5.72906E-02
 -1      3813 5.22744E-02
 -1      3814 4.10669E-02
 -1      3815 3.99810E-02
 -1      3816 3.61149E-02
 -1      3817 2.79566E-02
 -1      3818 2.76069E-02
 -1      3819 2.42619E-02
 -1      3820 1.83021E-02
 -1      3821 1.89602E-02
 -1      3822 1.56955E-02
 -1      3823 1.14400E-02
 -1      3824 1.26588E-02
 -1      3825 9.60445E-03
 -1      3826 6.65233E-03
 -1      3827 8.21663E-03
 -1      3828 5.32078E-03
 -1      3829 3.53326E-03
 -1      3830 5.04954E-03
 -1      3831 2.58403E-03
 -1      3832 2.59554E-03
 -1      3833 2.76876E-03
 -1      3834 2.90582E-03
 -1      3835 3.03184E-03
 -1      3836 2.12981E-03
 -1      3837 3.17728E-03
 -1      3838 3.07907E-03
 -1      3839 2.58553E-03
 -1      3840 2.99294E-03
 -1      3841 1.86416E-03
 -1      3842 1.97853E-03
 -1      3843 1.99214E-03
 -1      3844 1.73814E-03
 -1      3845 9.37689E-01
 -1      3846 1.05732E+00
 -1      3847 1.21810E+00
 -1      3848 1.39633E+00
 -1      3849 1.19957E+00
 -1      3850 6.06165E-01
 -1      3851 6.65985E-01
 -1      3852 4.81591E-01
 -1      3853 5.35358E-01
 -1      3854 5.95177E-01
 -1      3855 3.76833E-01
 -1      3856 4.23865E-01
 -1      3857 4.66644E-01
 -1      3858 2.90232E-01
 -1      3859 3.29957E-01
 -1      3860 3.62042E-01
 -1      3861 2.20006E-01
 -1      3862 2.52614E-01
 -1      3863 2.77547E-01
 -1      3864 1.63862E-01
 -1      3865 1.90053E-01
 -1      3866 2.09976E-01
 -1      3867 1.19530E-01
 -1      3868 1.40147E-01
 -1      3869 1.56308E-01
 -1      3870 8.52357E-02
 -1      3871 1.01111E-01
 -1      3872 1.14173E-01
 -1      3873 5.97396E-02
 -1      3874 7.10984E-02
 -1      3875 8.16167E-02
 -1      3876 4.06362E-02
 -1      3877 4.91546E-02
 -1      3878 5.68944E-02
 -1      3879 2.70127E-02
 -1      3880 3.32660E-02
 -1      3881 3.89392E-02
 -1      3882 1.71289E-02
 -1      3883 2.15585E-02
 -1      3884 2.61149E-02
 -1      3885 1.01291E-02
 -1      3886 1.31947E-02
 -1      3887 1.67265E-02
 -1      3888 5.69174E-03
 -1      3889 7.36562E-03
 -1      3890 1.00289E-02
 -1      3891 3.84293E-03
 -1      3892 3.86723E-03
 -1      3893 5.44091E-03
 -1      3894 3.28390E-03
 -1      3895 3.23383E-03
 -1      3896 3.00729E-03
 -1      3897 3.34163E-03
 -1      3898 3.51424E-03
 -1      3899 2.62853E-03
 -1      3900 3.87333E+00
 -1      3901 5.97897E+00
 -1      3902 7.61401E-01
 -1      3903 7.38220E-01
 -1      3904 7.70231E-01
 -1      3905 8.18135E-01
 -1      3906 7.14864E+00
 -1      3907 5.03573E+00
 -1      3908 5.30369E+00
 -1      3909 7.14864E+00
 -1      3910 5.24794E+00
 -1      3911 4.73498E+00
 -1      3912 3.86332E+00
 -1      3913 3.95612E+00
 -1      3914 8.74309E-01
 -1      3915 1.52843E+00
 -1      3916 1.80268E+00
 -1      3917 1.49245E+00
 -1      3918 5.66123E+00
 -1      3919 7.51286E-01
 -1      3920 8.36587E-01
 -1      3921 7.51286E-01
 -1      3922 2.94952E+00
 -1      3923 3.14577E-03
 -1      3924 1.63164E+00
 -1      3925 1.45636E+00
 -1      3926 1.53008E+00
 -1      3927 1.84690E+00
 -1      3928 9.75454E-01
 -1      3929 1.07036E+00
 -1      3930 1.19251E+00
 -1      3931 9.75454E-01
 -1      3932 2.83278E-03
 -1      3933 3.18123E-03
 -1      3934 2.69847E-03
 -1      3935 2.35307E-03
 -1      3936 1.56216E+00
 -1      3937 1.84233E+00
 -1      3938 1.56216E+00
 -1      3939 3.51703E+00
 -1      3940 4.09325E+00
 -1      3941 4.67498E+00
 -1      3942 3.26246E+00
 -1      3943 6.85445E-01
 -1      3944 7.66090E-01
 -1      3945 8.29071E-01
 -1      3946 7.77598E-01
 -1      3947 2.11101E+00
 -1      3948 2.61535E+00
 -1      3949 3.24438E+00
 -1      3950 2.07834E+00
 -1      3951 3.52880E+00
 -1      3952 2.59082E+00
 -1      3953 2.13877E+00
 -1      3954 3.53486E+00
 -1      3955 6.30753E+00
 -1      3956 6.02031E+00
 -1      3957 5.41987E+00
 -1      3958 4.43553E+00
 -1      3959 8.95204E-01
 -1      3960 8.88032E-01
 -1      3961 2.64483E-03
 -1      3962 2.43014E-03
 -1      3963 5.04715E+00
 -1      3964 5.95831E+00
 -1      3965 4.80438E+00
 -1      3966 5.47173E+00
 -1      3967 9.06846E-01
 -1      3968 8.88628E-01
 -1      3969 9.44802E-01
 -1      3970 9.37689E-01
 -1      3971 6.38350E+00
 -1      3972 5.59008E+00
 -1      3973 6.08774E+00
 -1      3974 1.96957E-03
 -1      3975 2.14549E-03
 -1      3976 2.33049E-03
 -1      3977 3.77633E+00
 -1      3978 3.56412E+00
 -1      3979 2.69672E+00
 -1      3980 1.73800E-03
 -1      3981 1.66007E-03
 -1      3982 1.04042E+00
 -1      3983 2.13740E+00
 -1      3984 2.46561E+00
 -1      3985 3.09085E+00
 -1      3986 1.95927E+00
 -1      3987 1.01842E+00
 -1      3988 9.88731E-01
 -1      3989 1.14339E+00
 -1      3990 1.10713E+00
 -1      3991 2.34752E+00
 -1      3992 2.20671E+00
 -1      3993 1.71986E+00
 -1      3994 3.29124E+00
 -1      3995 4.07851E+00
 -1      3996 3.15894E+00
 -1      3997 2.49438E+00
 -1      3998 1.51062E+00
 -1      3999 1.36356E+00
 -1      4000 2.70029E+00
 -1      4001 2.56108E+00
 -1      4002 2.09829E+00
 -1      4003 2.30829E+00
 -1      4004 1.90065E-03
 -1      4005 1.74396E-03
 -1      4006 2.20148E-03
 -1      4007 3.07907E-03
 -1      4008 1.30048E+00
 -1      4009 1.66603E-03
 -1      4010 1.43027E+00
 -1      4011 2.26661E-03
 -1      4012 1.73712E-03
 -1      4013 1.46172E+00
 -1      4014 1.25857E+00
 -1      4015 1.62659E+00
 -1      4016 1.06747E+00
 -1      4017 9.33835E-01
 -1      4018 1.17735E+00
 -1      4019 7.94437E-01
 -1      4020 6.88177E-01
 -1      4021 8.46848E-01
 -1      4022 5.96167E-01
 -1      4023 5.17051E-01
 -1      4024 6.15441E-01
 -1      4025 4.51259E-01
 -1      4026 3.91063E-01
 -1      4027 4.57639E-01
 -1      4028 3.47268E-01
 -1      4029 3.01024E-01
 -1      4030 3.48053E-01
 -1      4031 2.68831E-01
 -1      4032 2.33070E-01
 -1      4033 2.72065E-01
 -1      4034 2.05958E-01
 -1      4035 1.77986E-01
 -1      4036 2.12760E-01
 -1      4037 1.56535E-01
 -1      4038 1.34842E-01
 -1      4039 1.64198E-01
 -1      4040 1.17542E-01
 -1      4041 1.00667E-01
 -1      4042 1.25447E-01
 -1      4043 8.67934E-02
 -1      4044 7.37890E-02
 -1      4045 9.42737E-02
 -1      4046 6.30162E-02
 -1      4047 5.31287E-02
 -1      4048 6.96271E-02
 -1      4049 4.46142E-02
 -1      4050 3.71921E-02
 -1      4051 5.03398E-02
 -1      4052 3.10466E-02
 -1      4053 2.60946E-02
 -1      4054 3.56798E-02
 -1      4055 2.17616E-02
 -1      4056 1.80669E-02
 -1      4057 2.52013E-02
 -1      4058 1.47707E-02
 -1      4059 1.21640E-02
 -1      4060 1.75721E-02
 -1      4061 9.70244E-03
 -1      4062 7.86689E-03
 -1      4063 1.18143E-02
 -1      4064 6.06153E-03
 -1      4065 4.72998E-03
 -1      4066 7.54734E-03
 -1      4067 3.43738E-03
 -1      4068 2.48815E-03
 -1      4069 4.44937E-03
 -1      4070 2.12981E-03
 -1      4071 2.44009E-03
 -1      4072 2.79843E-03
 -1      4073 3.28577E-01
 -1      4074 3.75453E-01
 -1      4075 1.72576E-03
 -1      4076 1.80384E-03
 -1      4077 1.95719E-03
 -1      4078 1.72576E-03
 -1      4079 1.19957E+00
 -1      4080 1.36035E+00
 -1      4081 3.83701E+00
 -1      4082 4.74241E+00
 -1      4083 4.20972E+00
 -1      4084 2.93965E+00
 -1      4085 8.88032E-01
 -1      4086 9.13730E-01
 -1      4087 1.04986E+00
 -1      4088 4.28514E-01
 -1      4089 4.86239E-01
 -1      4090 3.95048E-01
 -1      4091 5.56657E-01
 -1      4092 6.27465E-01
 -1      4093 5.18527E-01
 -1      4094 2.50251E-01
 -1      4095 2.87869E-01
 -1      4096 3.01280E-01
 -1      4097 1.88356E-01
 -1      4098 2.18308E-01
 -1      4099 2.28630E-01
 -1      4100 1.39480E-01
 -1      4101 1.63195E-01
 -1      4102 1.71527E-01
 -1      4103 1.01315E-01
 -1      4104 1.19734E-01
 -1      4105 1.26622E-01
 -1      4106 7.22221E-02
 -1      4107 8.63593E-02
 -1      4108 9.19205E-02
 -1      4109 5.03113E-02
 -1      4110 6.08963E-02
 -1      4111 6.56389E-02
 -1      4112 3.44216E-02
 -1      4113 4.17917E-02
 -1      4114 4.57936E-02
 -1      4115 2.29079E-02
 -1      4116 2.83621E-02
 -1      4117 3.12146E-02
 -1      4118 1.46810E-02
 -1      4119 1.86152E-02
 -1      4120 2.08624E-02
 -1      4121 8.81759E-03
 -1      4122 1.15810E-02
 -1      4123 1.34697E-02
 -1      4124 4.90316E-03
 -1      4125 6.72767E-03
 -1      4126 8.27984E-03
 -1      4127 2.90804E-03
 -1      4128 3.51714E-03
 -1      4129 4.80391E-03
 -1      4130 2.21495E-03
 -1      4131 1.98461E-03
 -1      4132 2.49446E-03
 -1      4133 1.48106E+00
 -1      4134 1.72856E+00
 -1      4135 4.03093E+00
 -1      4136 4.03093E+00
 -1      4137 2.23825E-03
 -1      4138 2.39865E-03
 -1      4139 1.75473E-03
 -1      4140 2.03067E-03
 -1      4141 1.73712E-03
 -1      4142 1.73116E-03
 -1      4143 1.80224E-03
 -1      4144 1.68340E+00
 -1      4145 1.81550E+00
 -1      4146 1.68340E+00
 -1      4147 7.20496E-01
 -1      4148 8.05797E-01
 -1      4149 6.81976E-01
 -1      4150 9.34466E-01
 -1      4151 1.03557E+00
 -1      4152 1.19635E+00
 -1      4153 1.73744E+00
 -1      4154 1.85044E+00
 -1      4155 1.86990E+00
 -1      4156 3.17432E+00
 -1      4157 3.98673E+00
 -1      4158 2.58553E-03
 -1      4159 2.12117E-03
 -1      4160 1.10225E+00
 -1      4161 9.66118E-01
 -1      4162 9.66118E-01
 -1      4163 3.74928E+00
 -1      4164 2.46072E+00
 -1      4165 3.73024E+00
 -1      4166 9.23981E-01
 -1      4167 2.71014E+00
 -1      4168 2.76972E+00
 -1      4169 1.40094E+00
 -1      4170 1.40094E+00
 -1      4171 5.11559E+00
 -1      4172 4.42920E+00
 -1      4173 4.54755E+00
 -1      4174 1.95099E+00
 -1      4175 2.03209E+00
 -1      4176 2.30077E+00
 -1      4177 1.23465E+00
 -1      4178 1.40105E+00
 -1      4179 1.40022E-03
 -1      4180 1.46592E-03
 -1      4181 1.47131E-03
 -1      4182 5.81886E+00
 -1      4183 4.75315E+00
 -1      4184 4.68572E+00
 -1      4185 1.91316E+00
 -1      4186 1.68633E+00
 -1      4187 4.03093E+00
 -1      4188 2.55932E+00
 -1      4189 2.56289E+00
 -1      4190 2.81392E+00
 -1      4191 2.09829E+00
 -1      4192 1.84015E+00
 -1      4193 2.31185E+00
 -1      4194 9.03676E-01
 -1      4195 1.77119E+00
 -1      4196 2.10591E+00
 -1      4197 2.30630E+00
 -1      4198 1.96215E+00
 -1      4199 2.46072E+00
 -1      4200 2.35320E+00
 -1      4201 2.16884E+00
 -1      4202 2.67514E+00
 -1      4203 1.43027E+00
 -1      4204 1.33674E+00
 -1      4205 1.68782E+00
 -1      4206 1.62362E+00
 -1      4207 1.68633E+00
 -1      4208 1.11870E+00
 -1      4209 1.28270E+00
 -1      4210 1.49134E+00
 -1      4211 1.30024E+00
 -1      4212 1.96304E+00
 -1      4213 1.03964E+00
 -1      4214 9.00237E-01
 -1      4215 1.35363E+00
 -1      4216 7.44519E-01
 -1      4217 6.52510E-01
 -1      4218 9.37306E-01
 -1      4219 5.51656E-01
 -1      4220 4.85864E-01
 -1      4221 6.80735E-01
 -1      4222 4.14966E-01
 -1      4223 3.71172E-01
 -1      4224 5.08983E-01
 -1      4225 3.17689E-01
 -1      4226 2.85495E-01
 -1      4227 3.84602E-01
 -1      4228 2.47133E-01
 -1      4229 2.20022E-01
 -1      4230 2.92757E-01
 -1      4231 1.89987E-01
 -1      4232 1.68536E-01
 -1      4233 2.24360E-01
 -1      4234 1.44491E-01
 -1      4235 1.27191E-01
 -1      4236 1.70280E-01
 -1      4237 1.08254E-01
 -1      4238 9.43806E-02
 -1      4239 1.27298E-01
 -1      4240 7.94440E-02
 -1      4241 6.86711E-02
 -1      4242 9.34247E-02
 -1      4243 5.77267E-02
 -1      4244 4.92122E-02
 -1      4245 6.75436E-02
 -1      4246 4.08691E-02
 -1      4247 3.47236E-02
 -1      4248 4.82560E-02
 -1      4249 2.86747E-02
 -1      4250 2.43417E-02
 -1      4251 3.38640E-02
 -1      4252 1.99568E-02
 -1      4253 1.66606E-02
 -1      4254 2.34302E-02
 -1      4255 1.35155E-02
 -1      4256 1.10540E-02
 -1      4257 1.59003E-02
 -1      4258 8.73401E-03
 -1      4259 6.92864E-03
 -1      4260 1.04353E-02
 -1      4261 5.23892E-03
 -1      4262 3.94632E-03
 -1      4263 6.42559E-03
 -1      4264 2.85654E-03
 -1      4265 2.49820E-03
 -1      4266 2.17928E-03
 -1      4267 3.64609E-03
 -1      4268 1.97834E-01
 -1      4269 2.29776E-01
 -1      4270 2.58553E-03
 -1      4271 1.86494E-03
 -1      4272 3.54471E-01
 -1      4273 4.07532E-01
 -1      4274 2.32168E+00
 -1      4275 4.51296E-01
 -1      4276 5.21714E-01
 -1      4277 4.10719E-01
 -1      4278 1.49318E-01
 -1      4279 1.74478E-01
 -1      4280 1.75625E-01
 -1      4281 1.10469E-01
 -1      4282 1.30214E-01
 -1      4283 1.33165E-01
 -1      4284 8.56237E-02
 -1      4285 1.00579E-01
 -1      4286 1.04172E-01
 -1      4287 5.96600E-02
 -1      4288 7.09857E-02
 -1      4289 7.96448E-02
 -1      4290 4.12859E-02
 -1      4291 4.98054E-02
 -1      4292 5.51522E-02
 -1      4293 2.83377E-02
 -1      4294 3.43972E-02
 -1      4295 3.84090E-02
 -1      4296 1.91538E-02
 -1      4297 2.34465E-02
 -1      4298 2.66291E-02
 -1      4299 1.25451E-02
 -1      4300 1.56451E-02
 -1      4301 1.82292E-02
 -1      4302 7.83757E-03
 -1      4303 9.92749E-03
 -1      4304 1.21029E-02
 -1      4305 4.53408E-03
 -1      4306 5.92009E-03
 -1      4307 7.56774E-03
 -1      4308 2.08594E-03
 -1      4309 3.00938E-03
 -1      4310 4.12556E-03
 -1      4311 1.04613E+00
 -1      4312 2.50279E-03
 -1      4313 2.50279E-03
 -1      4314 2.87983E-03
 -1      4315 1.45333E+00
 -1      4316 1.69974E+00
 -1      4317 1.40094E+00
 -1      4318 2.37620E+00
 -1      4319 2.21210E+00
 -1      4320 2.63366E-01
 -1      4321 3.04073E-01
 -1      4322 3.16557E-01
 -1      4323 2.32570E-01
 -1      4324 1.34964E+00
 -1      4325 1.67270E+00
 -1      4326 1.27199E+00
 -1      4327 6.16114E-01
 -1      4328 7.09145E-01
 -1      4329 5.48883E-01
 -1      4330 1.91054E+00
 -1      4331 1.84782E+00
 -1      4332 1.91203E+00
 -1      4333 1.75203E+00
 -1      4334 2.37620E+00
 -1      4335 8.33435E-01
 -1      4336 9.62104E-01
 -1      4337 7.67573E-01
 -1      4338 2.36599E+00
 -1      4339 2.41019E+00
 -1      4340 2.90210E-03
 -1      4341 2.20155E-03
 -1      4342 2.00327E+00
 -1      4343 3.73024E+00
 -1      4344 2.67514E+00
 -1      4345 4.04208E+00
 -1      4346 3.56759E+00
 -1      4347 3.77319E+00
 -1      4348 2.89339E+00
 -1      4349 3.27329E+00
 -1      4350 3.95074E+00
 -1      4351 3.74928E+00
 -1      4352 2.63440E+00
 -1      4353 1.04846E+00
 -1      4354 3.37410E+00
 -1      4355 2.36599E+00
 -1      4356 2.67514E+00
 -1      4357 1.53940E-03
 -1      4358 2.56289E+00
 -1      4359 2.07011E+00
 -1      4360 2.47384E+00
 -1      4361 2.37358E+00
 -1      4362 2.47384E+00
 -1      4363 2.23739E+00
 -1      4364 2.23739E+00
 -1      4365 2.48863E+00
 -1      4366 2.39739E+00
 -1      4367 2.00646E+00
 -1      4368 1.53375E+00
 -1      4369 1.27315E+00
 -1      4370 9.92444E-01
 -1      4371 8.36725E-01
 -1      4372 1.17257E+00
 -1      4373 7.15863E-01
 -1      4374 6.15010E-01
 -1      4375 7.71001E-01
 -1      4376 5.35446E-01
 -1      4377 4.64547E-01
 -1      4378 5.70574E-01
 -1      4379 4.11447E-01
 -1      4380 3.57964E-01
 -1      4381 4.37909E-01
 -1      4382 3.49037E-01
 -1      4383 3.10675E-01
 -1      4384 3.75882E-01
 -1      4385 2.44101E-01
 -1      4386 2.14065E-01
 -1      4387 3.00380E-01
 -1      4388 1.85827E-01
 -1      4389 1.61782E-01
 -1      4390 2.05568E-01
 -1      4391 1.39655E-01
 -1      4392 1.20718E-01
 -1      4393 1.55202E-01
 -1      4394 1.03806E-01
 -1      4395 8.88695E-02
 -1      4396 1.16163E-01
 -1      4397 8.63854E-02
 -1      4398 7.54409E-02
 -1      4399 9.67669E-02
 -1      4400 5.57118E-02
 -1      4401 4.73686E-02
 -1      4402 7.45536E-02
 -1      4403 3.90581E-02
 -1      4404 3.30092E-02
 -1      4405 4.65138E-02
 -1      4406 2.70451E-02
 -1      4407 2.26602E-02
 -1      4408 3.22392E-02
 -1      4409 1.85821E-02
 -1      4410 1.54370E-02
 -1      4411 2.21969E-02
 -1      4412 1.23754E-02
 -1      4413 1.00555E-02
 -1      4414 1.50572E-02
 -1      4415 7.75226E-03
 -1      4416 6.06254E-03
 -1      4417 9.69244E-03
 -1      4418 4.11760E-03
 -1      4419 3.02782E-03
 -1      4420 3.35133E-03
 -1      4421 5.44426E-03
 -1      4422 1.32916E+00
 -1      4423 1.39610E+00
 -1      4424 3.73007E-01
 -1      4425 4.16771E-01
 -1      4426 9.62599E-02
 -1      4427 1.06149E-01
 -1      4428 7.96448E-02
 -1      4429 9.42827E-02
 -1      4430 5.00610E-02
 -1      4431 5.99156E-02
 -1      4432 3.48618E-02
 -1      4433 4.17505E-02
 -1      4434 2.40064E-02
 -1      4435 2.88977E-02
 -1      4436 1.64197E-02
 -1      4437 1.99283E-02
 -1      4438 1.07404E-02
 -1      4439 1.33581E-02
 -1      4440 6.51973E-03
 -1      4441 8.43721E-03
 -1      4442 4.42680E-03
 -1      4443 1.35570E-03
 -1      4444 1.87062E-03
 -1      4445 1.67270E+00
 -1      4446 3.07254E+00
 -1      4447 4.72746E-01
 -1      4448 5.67147E-01
 -1      4449 2.22281E+00
 -1      4450 8.91863E-01
 -1      4451 1.04846E+00
 -1      4452 6.46711E-01
 -1      4453 7.71001E-01
 -1      4454 1.87400E+00
 -1      4455 1.23568E-01
 -1      4456 1.42672E-01
 -1      4457 1.64799E-01
 -1      4458 1.88155E-01
 -1      4459 1.79351E+00
 -1      4460 2.86853E+00
 -1      4461 2.73097E-03
 -1      4462 4.57479E-03
 -1      4463 2.56707E+00
 -1      4464 2.16393E-01
 -1      4465 2.49982E-01
 -1      4466 3.16557E-01
 -1      4467 3.66955E-01
 -1      4468 1.72986E+00
 -1      4469 3.60351E+00
 -1      4470 2.89244E+00
 -1      4471 3.73007E-01
 -1      4472 3.81934E-01
 -1      4473 9.87441E-02
 -1      4474 9.62599E-02
 -1      4475 1.15656E-01
 -1      4476 4.35034E-01
 -3
 9999
