    1C
    1UUSER                                                              
    1UDATE              26.october.2022                                 
    1UTIME              23:57:03                                        
    1UHOST                                                              
    1UPGM               CalculiX                                        
    1UVERSION           Version 2.17                             
    1UCOMPILETIME       Thu Jul 23 21:43:50 CEST 2020                    
    1UDIR                                                               
    1UDBN                                                               
    1UMAT    1SOLIDMATERIAL                                             
    2C                          4360                                     1
 -1         1 5.70615E+01 2.95887E+01 0.00000E+00
 -1         2 6.25408E+01 2.27558E+01 0.00000E+00
 -1         3 1.50000E+02 0.00000E+00 0.00000E+00
 -1         4 1.50000E+02 5.00000E+01 0.00000E+00
 -1         5 0.00000E+00 0.00000E+00 0.00000E+00
 -1         6 0.00000E+00 5.00000E+01 0.00000E+00
 -1         7 0.00000E+00 4.70500E+01 0.00000E+00
 -1         8 0.00000E+00 4.41000E+01 0.00000E+00
 -1         9 0.00000E+00 4.11500E+01 0.00000E+00
 -1        10 0.00000E+00 3.82000E+01 0.00000E+00
 -1        11 0.00000E+00 3.52500E+01 0.00000E+00
 -1        12 0.00000E+00 3.23500E+01 0.00000E+00
 -1        13 0.00000E+00 2.94000E+01 0.00000E+00
 -1        14 0.00000E+00 2.64500E+01 0.00000E+00
 -1        15 0.00000E+00 2.35000E+01 0.00000E+00
 -1        16 0.00000E+00 2.05500E+01 0.00000E+00
 -1        17 0.00000E+00 1.76000E+01 0.00000E+00
 -1        18 0.00000E+00 1.47000E+01 0.00000E+00
 -1        19 0.00000E+00 1.17500E+01 0.00000E+00
 -1        20 0.00000E+00 8.80000E+00 0.00000E+00
 -1        21 0.00000E+00 5.85000E+00 0.00000E+00
 -1        22 0.00000E+00 2.90000E+00 0.00000E+00
 -1        23 3.15000E+00 5.00000E+01 0.00000E+00
 -1        24 6.15000E+00 5.00000E+01 0.00000E+00
 -1        25 9.15000E+00 5.00000E+01 0.00000E+00
 -1        26 1.21500E+01 5.00000E+01 0.00000E+00
 -1        27 1.51500E+01 5.00000E+01 0.00000E+00
 -1        28 1.81500E+01 5.00000E+01 0.00000E+00
 -1        29 2.11500E+01 5.00000E+01 0.00000E+00
 -1        30 2.41500E+01 5.00000E+01 0.00000E+00
 -1        31 2.71500E+01 5.00000E+01 0.00000E+00
 -1        32 3.01500E+01 5.00000E+01 0.00000E+00
 -1        33 3.31500E+01 5.00000E+01 0.00000E+00
 -1        34 3.61500E+01 5.00000E+01 0.00000E+00
 -1        35 3.91500E+01 5.00000E+01 0.00000E+00
 -1        36 4.21500E+01 5.00000E+01 0.00000E+00
 -1        37 4.51500E+01 5.00000E+01 0.00000E+00
 -1        38 4.81500E+01 5.00000E+01 0.00000E+00
 -1        39 5.11500E+01 5.00000E+01 0.00000E+00
 -1        40 5.41500E+01 5.00000E+01 0.00000E+00
 -1        41 5.71500E+01 5.00000E+01 0.00000E+00
 -1        42 6.01500E+01 5.00000E+01 0.00000E+00
 -1        43 6.31500E+01 5.00000E+01 0.00000E+00
 -1        44 6.61500E+01 5.00000E+01 0.00000E+00
 -1        45 6.91500E+01 5.00000E+01 0.00000E+00
 -1        46 7.21500E+01 5.00000E+01 0.00000E+00
 -1        47 7.51500E+01 5.00000E+01 0.00000E+00
 -1        48 7.81500E+01 5.00000E+01 0.00000E+00
 -1        49 8.11500E+01 5.00000E+01 0.00000E+00
 -1        50 8.41500E+01 5.00000E+01 0.00000E+00
 -1        51 8.71500E+01 5.00000E+01 0.00000E+00
 -1        52 9.01500E+01 5.00000E+01 0.00000E+00
 -1        53 9.31500E+01 5.00000E+01 0.00000E+00
 -1        54 9.61500E+01 5.00000E+01 0.00000E+00
 -1        55 9.91500E+01 5.00000E+01 0.00000E+00
 -1        56 1.02150E+02 5.00000E+01 0.00000E+00
 -1        57 1.05150E+02 5.00000E+01 0.00000E+00
 -1        58 1.08150E+02 5.00000E+01 0.00000E+00
 -1        59 1.11150E+02 5.00000E+01 0.00000E+00
 -1        60 1.14150E+02 5.00000E+01 0.00000E+00
 -1        61 1.17150E+02 5.00000E+01 0.00000E+00
 -1        62 1.20150E+02 5.00000E+01 0.00000E+00
 -1        63 1.23150E+02 5.00000E+01 0.00000E+00
 -1        64 1.26150E+02 5.00000E+01 0.00000E+00
 -1        65 1.29150E+02 5.00000E+01 0.00000E+00
 -1        66 1.32150E+02 5.00000E+01 0.00000E+00
 -1        67 1.35150E+02 5.00000E+01 0.00000E+00
 -1        68 1.38150E+02 5.00000E+01 0.00000E+00
 -1        69 1.41150E+02 5.00000E+01 0.00000E+00
 -1        70 1.44150E+02 5.00000E+01 0.00000E+00
 -1        71 1.47150E+02 5.00000E+01 0.00000E+00
 -1        72 3.15000E+00 0.00000E+00 0.00000E+00
 -1        73 6.15000E+00 0.00000E+00 0.00000E+00
 -1        74 9.15000E+00 0.00000E+00 0.00000E+00
 -1        75 1.21500E+01 0.00000E+00 0.00000E+00
 -1        76 1.51500E+01 0.00000E+00 0.00000E+00
 -1        77 1.81500E+01 0.00000E+00 0.00000E+00
 -1        78 2.11500E+01 0.00000E+00 0.00000E+00
 -1        79 2.41500E+01 0.00000E+00 0.00000E+00
 -1        80 2.71500E+01 0.00000E+00 0.00000E+00
 -1        81 3.01500E+01 0.00000E+00 0.00000E+00
 -1        82 3.31500E+01 0.00000E+00 0.00000E+00
 -1        83 3.61500E+01 0.00000E+00 0.00000E+00
 -1        84 3.91500E+01 0.00000E+00 0.00000E+00
 -1        85 4.21500E+01 0.00000E+00 0.00000E+00
 -1        86 4.51500E+01 0.00000E+00 0.00000E+00
 -1        87 4.81500E+01 0.00000E+00 0.00000E+00
 -1        88 5.11500E+01 0.00000E+00 0.00000E+00
 -1        89 5.41500E+01 0.00000E+00 0.00000E+00
 -1        90 5.71500E+01 0.00000E+00 0.00000E+00
 -1        91 6.01500E+01 0.00000E+00 0.00000E+00
 -1        92 6.31500E+01 0.00000E+00 0.00000E+00
 -1        93 6.61500E+01 0.00000E+00 0.00000E+00
 -1        94 6.91500E+01 0.00000E+00 0.00000E+00
 -1        95 7.21500E+01 0.00000E+00 0.00000E+00
 -1        96 7.51500E+01 0.00000E+00 0.00000E+00
 -1        97 7.81500E+01 0.00000E+00 0.00000E+00
 -1        98 8.11500E+01 0.00000E+00 0.00000E+00
 -1        99 8.41500E+01 0.00000E+00 0.00000E+00
 -1       100 8.71500E+01 0.00000E+00 0.00000E+00
 -1       101 9.01500E+01 0.00000E+00 0.00000E+00
 -1       102 9.31500E+01 0.00000E+00 0.00000E+00
 -1       103 9.61500E+01 0.00000E+00 0.00000E+00
 -1       104 9.91500E+01 0.00000E+00 0.00000E+00
 -1       105 1.02150E+02 0.00000E+00 0.00000E+00
 -1       106 1.05150E+02 0.00000E+00 0.00000E+00
 -1       107 1.08150E+02 0.00000E+00 0.00000E+00
 -1       108 1.11150E+02 0.00000E+00 0.00000E+00
 -1       109 1.14150E+02 0.00000E+00 0.00000E+00
 -1       110 1.17150E+02 0.00000E+00 0.00000E+00
 -1       111 1.20150E+02 0.00000E+00 0.00000E+00
 -1       112 1.23150E+02 0.00000E+00 0.00000E+00
 -1       113 1.26150E+02 0.00000E+00 0.00000E+00
 -1       114 1.29150E+02 0.00000E+00 0.00000E+00
 -1       115 1.32150E+02 0.00000E+00 0.00000E+00
 -1       116 1.35150E+02 0.00000E+00 0.00000E+00
 -1       117 1.38150E+02 0.00000E+00 0.00000E+00
 -1       118 1.41150E+02 0.00000E+00 0.00000E+00
 -1       119 1.44150E+02 0.00000E+00 0.00000E+00
 -1       120 1.47150E+02 0.00000E+00 0.00000E+00
 -1       121 1.50000E+02 2.95000E+00 0.00000E+00
 -1       122 1.50000E+02 5.90000E+00 0.00000E+00
 -1       123 1.50000E+02 8.85000E+00 0.00000E+00
 -1       124 1.50000E+02 1.18000E+01 0.00000E+00
 -1       125 1.50000E+02 1.47500E+01 0.00000E+00
 -1       126 1.50000E+02 1.76500E+01 0.00000E+00
 -1       127 1.50000E+02 2.06000E+01 0.00000E+00
 -1       128 1.50000E+02 2.35500E+01 0.00000E+00
 -1       129 1.50000E+02 2.65000E+01 0.00000E+00
 -1       130 1.50000E+02 2.94500E+01 0.00000E+00
 -1       131 1.50000E+02 3.24000E+01 0.00000E+00
 -1       132 1.50000E+02 3.53000E+01 0.00000E+00
 -1       133 1.50000E+02 3.82500E+01 0.00000E+00
 -1       134 1.50000E+02 4.12000E+01 0.00000E+00
 -1       135 1.50000E+02 4.41500E+01 0.00000E+00
 -1       136 1.50000E+02 4.71000E+01 0.00000E+00
 -1       137 6.23909E+01 2.13151E+01 0.00000E+00
 -1       138 6.18574E+01 1.97392E+01 0.00000E+00
 -1       139 6.11154E+01 1.85222E+01 0.00000E+00
 -1       140 6.01007E+01 1.74448E+01 0.00000E+00
 -1       141 5.89468E+01 1.66404E+01 0.00000E+00
 -1       142 5.75209E+01 1.60418E+01 0.00000E+00
 -1       143 5.60774E+01 1.57765E+01 0.00000E+00
 -1       144 5.45881E+01 1.58210E+01 0.00000E+00
 -1       145 5.30317E+01 1.62210E+01 0.00000E+00
 -1       146 5.16889E+01 1.69110E+01 0.00000E+00
 -1       147 5.05506E+01 1.78469E+01 0.00000E+00
 -1       148 4.96158E+01 1.90283E+01 0.00000E+00
 -1       149 4.89829E+01 2.03075E+01 0.00000E+00
 -1       150 4.86123E+01 2.17577E+01 0.00000E+00
 -1       151 4.85550E+01 2.32017E+01 0.00000E+00
 -1       152 4.88400E+01 2.47804E+01 0.00000E+00
 -1       153 4.93661E+01 2.60533E+01 0.00000E+00
 -1       154 5.02376E+01 2.73249E+01 0.00000E+00
 -1       155 5.13131E+01 2.83350E+01 0.00000E+00
 -1       156 5.26463E+01 2.91294E+01 0.00000E+00
 -1       157 5.41131E+01 2.96087E+01 0.00000E+00
 -1       158 5.55893E+01 2.97557E+01 0.00000E+00
 -1       159 5.83237E+01 2.91789E+01 0.00000E+00
 -1       160 5.94944E+01 2.85325E+01 0.00000E+00
 -1       161 6.04964E+01 2.76997E+01 0.00000E+00
 -1       162 6.13613E+01 2.66445E+01 0.00000E+00
 -1       163 6.20121E+01 2.54246E+01 0.00000E+00
 -1       164 6.24202E+01 2.40497E+01 0.00000E+00
 -1       165 2.59800E+00 4.55750E+01 0.00000E+00
 -1       166 2.59800E+00 4.26250E+01 0.00000E+00
 -1       167 2.59800E+00 3.96750E+01 0.00000E+00
 -1       168 2.59800E+00 3.67250E+01 0.00000E+00
 -1       169 2.59800E+00 3.38250E+01 0.00000E+00
 -1       170 2.59800E+00 3.08750E+01 0.00000E+00
 -1       171 2.59800E+00 2.79250E+01 0.00000E+00
 -1       172 2.59800E+00 2.49750E+01 0.00000E+00
 -1       173 2.59800E+00 2.20250E+01 0.00000E+00
 -1       174 2.59800E+00 1.90750E+01 0.00000E+00
 -1       175 2.59800E+00 1.61750E+01 0.00000E+00
 -1       176 2.59800E+00 1.32250E+01 0.00000E+00
 -1       177 2.59800E+00 1.02750E+01 0.00000E+00
 -1       178 2.59800E+00 7.32500E+00 0.00000E+00
 -1       179 2.59800E+00 4.37500E+00 0.00000E+00
 -1       180 2.87400E+00 2.18750E+00 0.00000E+00
 -1       181 4.65000E+00 4.74020E+01 0.00000E+00
 -1       182 7.65000E+00 4.74020E+01 0.00000E+00
 -1       183 1.06500E+01 4.74020E+01 0.00000E+00
 -1       184 1.36500E+01 4.74020E+01 0.00000E+00
 -1       185 1.66500E+01 4.74020E+01 0.00000E+00
 -1       186 1.96500E+01 4.74020E+01 0.00000E+00
 -1       187 2.26500E+01 4.74020E+01 0.00000E+00
 -1       188 2.56500E+01 4.74020E+01 0.00000E+00
 -1       189 2.86500E+01 4.74020E+01 0.00000E+00
 -1       190 3.16500E+01 4.74020E+01 0.00000E+00
 -1       191 3.46500E+01 4.74020E+01 0.00000E+00
 -1       192 3.76500E+01 4.74020E+01 0.00000E+00
 -1       193 4.06500E+01 4.74020E+01 0.00000E+00
 -1       194 4.36500E+01 4.74020E+01 0.00000E+00
 -1       195 4.66500E+01 4.74020E+01 0.00000E+00
 -1       196 4.96500E+01 4.74020E+01 0.00000E+00
 -1       197 5.26500E+01 4.74020E+01 0.00000E+00
 -1       198 5.56500E+01 4.74020E+01 0.00000E+00
 -1       199 5.86500E+01 4.74020E+01 0.00000E+00
 -1       200 6.16500E+01 4.74020E+01 0.00000E+00
 -1       201 6.46500E+01 4.74020E+01 0.00000E+00
 -1       202 6.76500E+01 4.74020E+01 0.00000E+00
 -1       203 7.06500E+01 4.74020E+01 0.00000E+00
 -1       204 7.36500E+01 4.74020E+01 0.00000E+00
 -1       205 7.66500E+01 4.74020E+01 0.00000E+00
 -1       206 7.96500E+01 4.74020E+01 0.00000E+00
 -1       207 8.26500E+01 4.74020E+01 0.00000E+00
 -1       208 8.56500E+01 4.74020E+01 0.00000E+00
 -1       209 8.86500E+01 4.74020E+01 0.00000E+00
 -1       210 9.16500E+01 4.74020E+01 0.00000E+00
 -1       211 9.46500E+01 4.74020E+01 0.00000E+00
 -1       212 9.76500E+01 4.74020E+01 0.00000E+00
 -1       213 1.00650E+02 4.74020E+01 0.00000E+00
 -1       214 1.03650E+02 4.74020E+01 0.00000E+00
 -1       215 1.06650E+02 4.74020E+01 0.00000E+00
 -1       216 1.09650E+02 4.74020E+01 0.00000E+00
 -1       217 1.12650E+02 4.74020E+01 0.00000E+00
 -1       218 1.15650E+02 4.74020E+01 0.00000E+00
 -1       219 1.18650E+02 4.74020E+01 0.00000E+00
 -1       220 1.21650E+02 4.74020E+01 0.00000E+00
 -1       221 1.24650E+02 4.74020E+01 0.00000E+00
 -1       222 1.27650E+02 4.74020E+01 0.00000E+00
 -1       223 1.30650E+02 4.74020E+01 0.00000E+00
 -1       224 1.33650E+02 4.74020E+01 0.00000E+00
 -1       225 1.36650E+02 4.74020E+01 0.00000E+00
 -1       226 1.39650E+02 4.74020E+01 0.00000E+00
 -1       227 1.42650E+02 4.74020E+01 0.00000E+00
 -1       228 1.45650E+02 4.74020E+01 0.00000E+00
 -1       229 5.87400E+00 2.18750E+00 0.00000E+00
 -1       230 8.87400E+00 2.18750E+00 0.00000E+00
 -1       231 1.18740E+01 2.18750E+00 0.00000E+00
 -1       232 1.48740E+01 2.18750E+00 0.00000E+00
 -1       233 1.78740E+01 2.18750E+00 0.00000E+00
 -1       234 2.08740E+01 2.18750E+00 0.00000E+00
 -1       235 2.38740E+01 2.18750E+00 0.00000E+00
 -1       236 2.68740E+01 2.18750E+00 0.00000E+00
 -1       237 2.98740E+01 2.18750E+00 0.00000E+00
 -1       238 3.28740E+01 2.18750E+00 0.00000E+00
 -1       239 3.58740E+01 2.18750E+00 0.00000E+00
 -1       240 3.88740E+01 2.18750E+00 0.00000E+00
 -1       241 4.18740E+01 2.18750E+00 0.00000E+00
 -1       242 4.48740E+01 2.18750E+00 0.00000E+00
 -1       243 4.78740E+01 2.18750E+00 0.00000E+00
 -1       244 5.08740E+01 2.18750E+00 0.00000E+00
 -1       245 5.38740E+01 2.18750E+00 0.00000E+00
 -1       246 5.68740E+01 2.18750E+00 0.00000E+00
 -1       247 5.98740E+01 2.18750E+00 0.00000E+00
 -1       248 6.28740E+01 2.18750E+00 0.00000E+00
 -1       249 6.58740E+01 2.18750E+00 0.00000E+00
 -1       250 6.88740E+01 2.18750E+00 0.00000E+00
 -1       251 7.18740E+01 2.18750E+00 0.00000E+00
 -1       252 7.48740E+01 2.18750E+00 0.00000E+00
 -1       253 7.78740E+01 2.18750E+00 0.00000E+00
 -1       254 8.08740E+01 2.18750E+00 0.00000E+00
 -1       255 8.38740E+01 2.18750E+00 0.00000E+00
 -1       256 8.68740E+01 2.18750E+00 0.00000E+00
 -1       257 8.98740E+01 2.18750E+00 0.00000E+00
 -1       258 9.28740E+01 2.18750E+00 0.00000E+00
 -1       259 9.58740E+01 2.18750E+00 0.00000E+00
 -1       260 9.88740E+01 2.18750E+00 0.00000E+00
 -1       261 1.01874E+02 2.18750E+00 0.00000E+00
 -1       262 1.04874E+02 2.18750E+00 0.00000E+00
 -1       263 1.07874E+02 2.18750E+00 0.00000E+00
 -1       264 1.10874E+02 2.18750E+00 0.00000E+00
 -1       265 1.13874E+02 2.18750E+00 0.00000E+00
 -1       266 1.16874E+02 2.18750E+00 0.00000E+00
 -1       267 1.19874E+02 2.18750E+00 0.00000E+00
 -1       268 1.22874E+02 2.18750E+00 0.00000E+00
 -1       269 1.25874E+02 2.18750E+00 0.00000E+00
 -1       270 1.28874E+02 2.18750E+00 0.00000E+00
 -1       271 1.31874E+02 2.18750E+00 0.00000E+00
 -1       272 1.34874E+02 2.18750E+00 0.00000E+00
 -1       273 1.37874E+02 2.18750E+00 0.00000E+00
 -1       274 1.40874E+02 2.18750E+00 0.00000E+00
 -1       275 1.43874E+02 2.18750E+00 0.00000E+00
 -1       276 1.46874E+02 2.18750E+00 0.00000E+00
 -1       277 1.47402E+02 4.42500E+00 0.00000E+00
 -1       278 1.47402E+02 7.37500E+00 0.00000E+00
 -1       279 1.47402E+02 1.03250E+01 0.00000E+00
 -1       280 1.47402E+02 1.32750E+01 0.00000E+00
 -1       281 1.47402E+02 1.61750E+01 0.00000E+00
 -1       282 1.47402E+02 1.91250E+01 0.00000E+00
 -1       283 1.47402E+02 2.20750E+01 0.00000E+00
 -1       284 1.47402E+02 2.50250E+01 0.00000E+00
 -1       285 1.47402E+02 2.79750E+01 0.00000E+00
 -1       286 1.47402E+02 3.09250E+01 0.00000E+00
 -1       287 1.47402E+02 3.38250E+01 0.00000E+00
 -1       288 1.47402E+02 3.67750E+01 0.00000E+00
 -1       289 1.47402E+02 3.97250E+01 0.00000E+00
 -1       290 1.47402E+02 4.26750E+01 0.00000E+00
 -1       291 1.46526E+02 4.50385E+01 0.00000E+00
 -1       292 6.37551E+01 2.19014E+01 0.00000E+00
 -1       293 6.36693E+01 2.00040E+01 0.00000E+00
 -1       294 6.25931E+01 1.84559E+01 0.00000E+00
 -1       295 6.15517E+01 1.70948E+01 0.00000E+00
 -1       296 6.02172E+01 1.60480E+01 0.00000E+00
 -1       297 5.87032E+01 1.52232E+01 0.00000E+00
 -1       298 5.70183E+01 1.47167E+01 0.00000E+00
 -1       299 5.52940E+01 1.45031E+01 0.00000E+00
 -1       300 5.34664E+01 1.46845E+01 0.00000E+00
 -1       301 5.17679E+01 1.54131E+01 0.00000E+00
 -1       302 5.02433E+01 1.63130E+01 0.00000E+00
 -1       303 4.90010E+01 1.75813E+01 0.00000E+00
 -1       304 4.82127E+01 1.91303E+01 0.00000E+00
 -1       305 4.75418E+01 2.07117E+01 0.00000E+00
 -1       306 4.73722E+01 2.24316E+01 0.00000E+00
 -1       307 4.71746E+01 2.42660E+01 0.00000E+00
 -1       308 4.79826E+01 2.58800E+01 0.00000E+00
 -1       309 4.85945E+01 2.75166E+01 0.00000E+00
 -1       310 4.98880E+01 2.87748E+01 0.00000E+00
 -1       311 5.12734E+01 2.99177E+01 0.00000E+00
 -1       312 5.28990E+01 3.08400E+01 0.00000E+00
 -1       313 5.47311E+01 3.08886E+01 0.00000E+00
 -1       314 5.64715E+01 3.09601E+01 0.00000E+00
 -1       315 5.80669E+01 3.05369E+01 0.00000E+00
 -1       316 5.94951E+01 2.99170E+01 0.00000E+00
 -1       317 6.07703E+01 2.90485E+01 0.00000E+00
 -1       318 6.18666E+01 2.79406E+01 0.00000E+00
 -1       319 6.27564E+01 2.66052E+01 0.00000E+00
 -1       320 6.35391E+01 2.51298E+01 0.00000E+00
 -1       321 6.36877E+01 2.35153E+01 0.00000E+00
 -1       322 5.19600E+00 4.11500E+01 0.00000E+00
 -1       323 5.19600E+00 4.41000E+01 0.00000E+00
 -1       324 5.19600E+00 3.52750E+01 0.00000E+00
 -1       325 5.19600E+00 3.23250E+01 0.00000E+00
 -1       326 5.19600E+00 2.93750E+01 0.00000E+00
 -1       327 5.19600E+00 2.64250E+01 0.00000E+00
 -1       328 5.19600E+00 2.34750E+01 0.00000E+00
 -1       329 5.19600E+00 2.05250E+01 0.00000E+00
 -1       330 5.19600E+00 1.76250E+01 0.00000E+00
 -1       331 5.19600E+00 1.46750E+01 0.00000E+00
 -1       332 5.19600E+00 1.17250E+01 0.00000E+00
 -1       333 5.19600E+00 8.77500E+00 0.00000E+00
 -1       334 5.19600E+00 5.82500E+00 0.00000E+00
 -1       335 5.53500E+00 4.00625E+00 0.00000E+00
 -1       336 8.53500E+00 4.00625E+00 0.00000E+00
 -1       337 9.15000E+00 4.48040E+01 0.00000E+00
 -1       338 1.21500E+01 4.48040E+01 0.00000E+00
 -1       339 1.51500E+01 4.48040E+01 0.00000E+00
 -1       340 1.81500E+01 4.48040E+01 0.00000E+00
 -1       341 2.11500E+01 4.48040E+01 0.00000E+00
 -1       342 2.41500E+01 4.48040E+01 0.00000E+00
 -1       343 2.71500E+01 4.48040E+01 0.00000E+00
 -1       344 3.01500E+01 4.48040E+01 0.00000E+00
 -1       345 3.31500E+01 4.48040E+01 0.00000E+00
 -1       346 3.61500E+01 4.48040E+01 0.00000E+00
 -1       347 3.91500E+01 4.48040E+01 0.00000E+00
 -1       348 4.21500E+01 4.48040E+01 0.00000E+00
 -1       349 4.51500E+01 4.48040E+01 0.00000E+00
 -1       350 4.81500E+01 4.48040E+01 0.00000E+00
 -1       351 5.11500E+01 4.48040E+01 0.00000E+00
 -1       352 5.41500E+01 4.48040E+01 0.00000E+00
 -1       353 5.71500E+01 4.48040E+01 0.00000E+00
 -1       354 6.01500E+01 4.48040E+01 0.00000E+00
 -1       355 6.31500E+01 4.48040E+01 0.00000E+00
 -1       356 6.61500E+01 4.48040E+01 0.00000E+00
 -1       357 6.91500E+01 4.48040E+01 0.00000E+00
 -1       358 7.21500E+01 4.48040E+01 0.00000E+00
 -1       359 7.51500E+01 4.48040E+01 0.00000E+00
 -1       360 7.81500E+01 4.48040E+01 0.00000E+00
 -1       361 8.11500E+01 4.48040E+01 0.00000E+00
 -1       362 8.41500E+01 4.48040E+01 0.00000E+00
 -1       363 8.71500E+01 4.48040E+01 0.00000E+00
 -1       364 9.01500E+01 4.48040E+01 0.00000E+00
 -1       365 9.31500E+01 4.48040E+01 0.00000E+00
 -1       366 9.61500E+01 4.48040E+01 0.00000E+00
 -1       367 9.91500E+01 4.48040E+01 0.00000E+00
 -1       368 1.02150E+02 4.48040E+01 0.00000E+00
 -1       369 1.05150E+02 4.48040E+01 0.00000E+00
 -1       370 1.08150E+02 4.48040E+01 0.00000E+00
 -1       371 1.11150E+02 4.48040E+01 0.00000E+00
 -1       372 1.14150E+02 4.48040E+01 0.00000E+00
 -1       373 1.17150E+02 4.48040E+01 0.00000E+00
 -1       374 1.20150E+02 4.48040E+01 0.00000E+00
 -1       375 1.23150E+02 4.48040E+01 0.00000E+00
 -1       376 1.26150E+02 4.48040E+01 0.00000E+00
 -1       377 1.29150E+02 4.48040E+01 0.00000E+00
 -1       378 1.32150E+02 4.48040E+01 0.00000E+00
 -1       379 1.35150E+02 4.48040E+01 0.00000E+00
 -1       380 1.38150E+02 4.48040E+01 0.00000E+00
 -1       381 1.41150E+02 4.48040E+01 0.00000E+00
 -1       382 1.43838E+02 4.49212E+01 0.00000E+00
 -1       383 1.15350E+01 4.00625E+00 0.00000E+00
 -1       384 1.45350E+01 4.00625E+00 0.00000E+00
 -1       385 1.75350E+01 4.00625E+00 0.00000E+00
 -1       386 2.05350E+01 4.00625E+00 0.00000E+00
 -1       387 2.35350E+01 4.00625E+00 0.00000E+00
 -1       388 2.65350E+01 4.00625E+00 0.00000E+00
 -1       389 2.95350E+01 4.00625E+00 0.00000E+00
 -1       390 3.25350E+01 4.00625E+00 0.00000E+00
 -1       391 3.55350E+01 4.00625E+00 0.00000E+00
 -1       392 3.85350E+01 4.00625E+00 0.00000E+00
 -1       393 4.15350E+01 4.00625E+00 0.00000E+00
 -1       394 4.45350E+01 4.00625E+00 0.00000E+00
 -1       395 4.75350E+01 4.00625E+00 0.00000E+00
 -1       396 5.05350E+01 4.00625E+00 0.00000E+00
 -1       397 5.35350E+01 4.00625E+00 0.00000E+00
 -1       398 5.65350E+01 4.00625E+00 0.00000E+00
 -1       399 5.95350E+01 4.00625E+00 0.00000E+00
 -1       400 6.25350E+01 4.00625E+00 0.00000E+00
 -1       401 6.55350E+01 4.00625E+00 0.00000E+00
 -1       402 6.85350E+01 4.00625E+00 0.00000E+00
 -1       403 7.15350E+01 4.00625E+00 0.00000E+00
 -1       404 7.45350E+01 4.00625E+00 0.00000E+00
 -1       405 7.75350E+01 4.00625E+00 0.00000E+00
 -1       406 8.05350E+01 4.00625E+00 0.00000E+00
 -1       407 8.35350E+01 4.00625E+00 0.00000E+00
 -1       408 8.65350E+01 4.00625E+00 0.00000E+00
 -1       409 8.95350E+01 4.00625E+00 0.00000E+00
 -1       410 9.25350E+01 4.00625E+00 0.00000E+00
 -1       411 9.55350E+01 4.00625E+00 0.00000E+00
 -1       412 9.85350E+01 4.00625E+00 0.00000E+00
 -1       413 1.01535E+02 4.00625E+00 0.00000E+00
 -1       414 1.04535E+02 4.00625E+00 0.00000E+00
 -1       415 1.07535E+02 4.00625E+00 0.00000E+00
 -1       416 1.10535E+02 4.00625E+00 0.00000E+00
 -1       417 1.13535E+02 4.00625E+00 0.00000E+00
 -1       418 1.16535E+02 4.00625E+00 0.00000E+00
 -1       419 1.19535E+02 4.00625E+00 0.00000E+00
 -1       420 1.22535E+02 4.00625E+00 0.00000E+00
 -1       421 1.25535E+02 4.00625E+00 0.00000E+00
 -1       422 1.28535E+02 4.00625E+00 0.00000E+00
 -1       423 1.31535E+02 4.00625E+00 0.00000E+00
 -1       424 1.34535E+02 4.00625E+00 0.00000E+00
 -1       425 1.37535E+02 4.00625E+00 0.00000E+00
 -1       426 1.40535E+02 4.00625E+00 0.00000E+00
 -1       427 1.43535E+02 4.00625E+00 0.00000E+00
 -1       428 1.45469E+02 4.21562E+00 0.00000E+00
 -1       429 1.44804E+02 1.18000E+01 0.00000E+00
 -1       430 1.44804E+02 8.85000E+00 0.00000E+00
 -1       431 1.45136E+02 6.53281E+00 0.00000E+00
 -1       432 1.44804E+02 1.47000E+01 0.00000E+00
 -1       433 1.44804E+02 1.76500E+01 0.00000E+00
 -1       434 1.44804E+02 2.06000E+01 0.00000E+00
 -1       435 1.44804E+02 2.35500E+01 0.00000E+00
 -1       436 1.44804E+02 2.65000E+01 0.00000E+00
 -1       437 1.44804E+02 2.94500E+01 0.00000E+00
 -1       438 1.44804E+02 3.23500E+01 0.00000E+00
 -1       439 1.44804E+02 3.53000E+01 0.00000E+00
 -1       440 1.44804E+02 3.82500E+01 0.00000E+00
 -1       441 1.44804E+02 4.12000E+01 0.00000E+00
 -1       442 6.43331E+01 1.83944E+01 0.00000E+00
 -1       443 6.51001E+01 2.27659E+01 0.00000E+00
 -1       444 6.52582E+01 2.08828E+01 0.00000E+00
 -1       445 6.32349E+01 1.68859E+01 0.00000E+00
 -1       446 6.17361E+01 1.54857E+01 0.00000E+00
 -1       447 5.19600E+00 3.82125E+01 0.00000E+00
 -1       448 5.83063E+01 1.34879E+01 0.00000E+00
 -1       449 5.63258E+01 1.32404E+01 0.00000E+00
 -1       450 5.42108E+01 1.28871E+01 0.00000E+00
 -1       451 5.20070E+01 1.36266E+01 0.00000E+00
 -1       452 5.01764E+01 1.44582E+01 0.00000E+00
 -1       453 4.86363E+01 1.59816E+01 0.00000E+00
 -1       454 4.73770E+01 1.77299E+01 0.00000E+00
 -1       455 4.66840E+01 1.94148E+01 0.00000E+00
 -1       456 4.59169E+01 2.14198E+01 0.00000E+00
 -1       457 4.57193E+01 2.32542E+01 0.00000E+00
 -1       458 4.64195E+01 2.56532E+01 0.00000E+00
 -1       459 4.70314E+01 2.72899E+01 0.00000E+00
 -1       460 4.82207E+01 2.91950E+01 0.00000E+00
 -1       461 4.96492E+01 3.04753E+01 0.00000E+00
 -1       462 5.14052E+01 3.15791E+01 0.00000E+00
 -1       463 5.37785E+01 3.22438E+01 0.00000E+00
 -1       464 5.55189E+01 3.23153E+01 0.00000E+00
 -1       465 5.76445E+01 3.21634E+01 0.00000E+00
 -1       466 5.93305E+01 3.14928E+01 0.00000E+00
 -1       467 6.09095E+01 3.06234E+01 0.00000E+00
 -1       468 6.22994E+01 2.94652E+01 0.00000E+00
 -1       469 6.34599E+01 2.80381E+01 0.00000E+00
 -1       470 6.42425E+01 2.65627E+01 0.00000E+00
 -1       471 6.49516E+01 2.43804E+01 0.00000E+00
 -1       472 6.00803E+01 1.44974E+01 0.00000E+00
 -1       473 6.59219E+01 1.92732E+01 0.00000E+00
 -1       474 6.56550E+01 2.58134E+01 0.00000E+00
 -1       475 5.22846E+01 3.29829E+01 0.00000E+00
 -1       476 4.49642E+01 2.46414E+01 0.00000E+00
 -1       477 1.00350E+01 6.60425E+00 0.00000E+00
 -1       478 7.79400E+00 3.08500E+01 0.00000E+00
 -1       479 7.79400E+00 3.38000E+01 0.00000E+00
 -1       480 7.79400E+00 2.49500E+01 0.00000E+00
 -1       481 7.79400E+00 2.20000E+01 0.00000E+00
 -1       482 7.79400E+00 1.91000E+01 0.00000E+00
 -1       483 7.79400E+00 1.61500E+01 0.00000E+00
 -1       484 7.79400E+00 1.32000E+01 0.00000E+00
 -1       485 7.79400E+00 1.02500E+01 0.00000E+00
 -1       486 1.30350E+01 6.60425E+00 0.00000E+00
 -1       487 1.06500E+01 4.22060E+01 0.00000E+00
 -1       488 6.16584E+01 1.37346E+01 0.00000E+00
 -1       489 1.36500E+01 4.22060E+01 0.00000E+00
 -1       490 1.66500E+01 4.22060E+01 0.00000E+00
 -1       491 1.96500E+01 4.22060E+01 0.00000E+00
 -1       492 2.26500E+01 4.22060E+01 0.00000E+00
 -1       493 2.56500E+01 4.22060E+01 0.00000E+00
 -1       494 2.86500E+01 4.22060E+01 0.00000E+00
 -1       495 3.16500E+01 4.22060E+01 0.00000E+00
 -1       496 3.46500E+01 4.22060E+01 0.00000E+00
 -1       497 3.76500E+01 4.22060E+01 0.00000E+00
 -1       498 4.06500E+01 4.22060E+01 0.00000E+00
 -1       499 4.36500E+01 4.22060E+01 0.00000E+00
 -1       500 4.66500E+01 4.22060E+01 0.00000E+00
 -1       501 4.96500E+01 4.22060E+01 0.00000E+00
 -1       502 5.26500E+01 4.22060E+01 0.00000E+00
 -1       503 5.56500E+01 4.22060E+01 0.00000E+00
 -1       504 5.86500E+01 4.22060E+01 0.00000E+00
 -1       505 6.16500E+01 4.22060E+01 0.00000E+00
 -1       506 6.46500E+01 4.22060E+01 0.00000E+00
 -1       507 6.76500E+01 4.22060E+01 0.00000E+00
 -1       508 7.06500E+01 4.22060E+01 0.00000E+00
 -1       509 7.36500E+01 4.22060E+01 0.00000E+00
 -1       510 7.66500E+01 4.22060E+01 0.00000E+00
 -1       511 7.96500E+01 4.22060E+01 0.00000E+00
 -1       512 8.26500E+01 4.22060E+01 0.00000E+00
 -1       513 8.56500E+01 4.22060E+01 0.00000E+00
 -1       514 8.86500E+01 4.22060E+01 0.00000E+00
 -1       515 9.16500E+01 4.22060E+01 0.00000E+00
 -1       516 9.46500E+01 4.22060E+01 0.00000E+00
 -1       517 9.76500E+01 4.22060E+01 0.00000E+00
 -1       518 1.00650E+02 4.22060E+01 0.00000E+00
 -1       519 1.03650E+02 4.22060E+01 0.00000E+00
 -1       520 1.06650E+02 4.22060E+01 0.00000E+00
 -1       521 1.09650E+02 4.22060E+01 0.00000E+00
 -1       522 1.12650E+02 4.22060E+01 0.00000E+00
 -1       523 1.15650E+02 4.22060E+01 0.00000E+00
 -1       524 1.18650E+02 4.22060E+01 0.00000E+00
 -1       525 1.21650E+02 4.22060E+01 0.00000E+00
 -1       526 1.24650E+02 4.22060E+01 0.00000E+00
 -1       527 1.27650E+02 4.22060E+01 0.00000E+00
 -1       528 1.30650E+02 4.22060E+01 0.00000E+00
 -1       529 1.33650E+02 4.22060E+01 0.00000E+00
 -1       530 1.36650E+02 4.22060E+01 0.00000E+00
 -1       531 1.39650E+02 4.22060E+01 0.00000E+00
 -1       532 1.90350E+01 6.60425E+00 0.00000E+00
 -1       533 2.20350E+01 6.60425E+00 0.00000E+00
 -1       534 2.50350E+01 6.60425E+00 0.00000E+00
 -1       535 2.80350E+01 6.60425E+00 0.00000E+00
 -1       536 3.10350E+01 6.60425E+00 0.00000E+00
 -1       537 3.40350E+01 6.60425E+00 0.00000E+00
 -1       538 3.70350E+01 6.60425E+00 0.00000E+00
 -1       539 4.00350E+01 6.60425E+00 0.00000E+00
 -1       540 4.30350E+01 6.60425E+00 0.00000E+00
 -1       541 4.60350E+01 6.60425E+00 0.00000E+00
 -1       542 4.90350E+01 6.60425E+00 0.00000E+00
 -1       543 5.20350E+01 6.60425E+00 0.00000E+00
 -1       544 5.50350E+01 6.60425E+00 0.00000E+00
 -1       545 5.80350E+01 6.60425E+00 0.00000E+00
 -1       546 6.10350E+01 6.60425E+00 0.00000E+00
 -1       547 6.40350E+01 6.60425E+00 0.00000E+00
 -1       548 6.70350E+01 6.60425E+00 0.00000E+00
 -1       549 7.00350E+01 6.60425E+00 0.00000E+00
 -1       550 7.30350E+01 6.60425E+00 0.00000E+00
 -1       551 7.60350E+01 6.60425E+00 0.00000E+00
 -1       552 7.90350E+01 6.60425E+00 0.00000E+00
 -1       553 8.20350E+01 6.60425E+00 0.00000E+00
 -1       554 8.50350E+01 6.60425E+00 0.00000E+00
 -1       555 8.80350E+01 6.60425E+00 0.00000E+00
 -1       556 9.10350E+01 6.60425E+00 0.00000E+00
 -1       557 9.40350E+01 6.60425E+00 0.00000E+00
 -1       558 9.70350E+01 6.60425E+00 0.00000E+00
 -1       559 1.00035E+02 6.60425E+00 0.00000E+00
 -1       560 1.03035E+02 6.60425E+00 0.00000E+00
 -1       561 1.06035E+02 6.60425E+00 0.00000E+00
 -1       562 1.09035E+02 6.60425E+00 0.00000E+00
 -1       563 1.12035E+02 6.60425E+00 0.00000E+00
 -1       564 1.15035E+02 6.60425E+00 0.00000E+00
 -1       565 1.18035E+02 6.60425E+00 0.00000E+00
 -1       566 1.21035E+02 6.60425E+00 0.00000E+00
 -1       567 1.24035E+02 6.60425E+00 0.00000E+00
 -1       568 1.27035E+02 6.60425E+00 0.00000E+00
 -1       569 1.30035E+02 6.60425E+00 0.00000E+00
 -1       570 1.33035E+02 6.60425E+00 0.00000E+00
 -1       571 1.36035E+02 6.60425E+00 0.00000E+00
 -1       572 1.39035E+02 6.60425E+00 0.00000E+00
 -1       573 1.42035E+02 6.60425E+00 0.00000E+00
 -1       574 1.42206E+02 1.61750E+01 0.00000E+00
 -1       575 1.42206E+02 1.91250E+01 0.00000E+00
 -1       576 1.42206E+02 1.03250E+01 0.00000E+00
 -1       577 1.42206E+02 1.32500E+01 0.00000E+00
 -1       578 1.42206E+02 2.20750E+01 0.00000E+00
 -1       579 1.42206E+02 2.50250E+01 0.00000E+00
 -1       580 1.42206E+02 2.79750E+01 0.00000E+00
 -1       581 1.42206E+02 3.08750E+01 0.00000E+00
 -1       582 1.42206E+02 3.38250E+01 0.00000E+00
 -1       583 1.42206E+02 3.67750E+01 0.00000E+00
 -1       584 1.42206E+02 3.97250E+01 0.00000E+00
 -1       585 6.70552E+01 2.19818E+01 0.00000E+00
 -1       586 6.51706E+01 1.66307E+01 0.00000E+00
 -1       587 1.60350E+01 6.60425E+00 0.00000E+00
 -1       588 5.98844E+01 1.27251E+01 0.00000E+00
 -1       589 6.42103E+01 2.98338E+01 0.00000E+00
 -1       590 4.48551E+01 1.98643E+01 0.00000E+00
 -1       591 7.79400E+00 2.79000E+01 0.00000E+00
 -1       592 5.55785E+01 1.12068E+01 0.00000E+00
 -1       593 4.79021E+01 3.09876E+01 0.00000E+00
 -1       594 5.75590E+01 1.14543E+01 0.00000E+00
 -1       595 5.24567E+01 1.13131E+01 0.00000E+00
 -1       596 5.03823E+01 1.24809E+01 0.00000E+00
 -1       597 4.82002E+01 1.40005E+01 0.00000E+00
 -1       598 4.67509E+01 1.59512E+01 0.00000E+00
 -1       599 4.55481E+01 1.81795E+01 0.00000E+00
 -1       600 4.41962E+01 2.21622E+01 0.00000E+00
 -1       601 4.51189E+01 2.70722E+01 0.00000E+00
 -1       602 5.90284E+01 3.31882E+01 0.00000E+00
 -1       603 4.63133E+01 2.90619E+01 0.00000E+00
 -1       604 4.96591E+01 3.24083E+01 0.00000E+00
 -1       605 5.45886E+01 3.37421E+01 0.00000E+00
 -1       606 5.67039E+01 3.39501E+01 0.00000E+00
 -1       607 6.09473E+01 3.25605E+01 0.00000E+00
 -1       608 6.26487E+01 3.12975E+01 0.00000E+00
 -1       609 6.51443E+01 2.79864E+01 0.00000E+00
 -1       610 6.69067E+01 2.35963E+01 0.00000E+00
 -1       611 7.92300E+00 4.16780E+01 0.00000E+00
 -1       612 7.61550E+00 6.21462E+00 0.00000E+00
 -1       613 6.35991E+01 1.49937E+01 0.00000E+00
 -1       614 7.79400E+00 3.67375E+01 0.00000E+00
 -1       615 6.67594E+01 1.75095E+01 0.00000E+00
 -1       616 5.05385E+01 3.38121E+01 0.00000E+00
 -1       617 6.77190E+01 2.03722E+01 0.00000E+00
 -1       618 5.30948E+01 3.44811E+01 0.00000E+00
 -1       619 1.41678E+02 4.22645E+01 0.00000E+00
 -1       620 7.85850E+00 3.92077E+01 0.00000E+00
 -1       621 4.34411E+01 2.35495E+01 0.00000E+00
 -1       622 1.03920E+01 2.05500E+01 0.00000E+00
 -1       623 1.03920E+01 2.35000E+01 0.00000E+00
 -1       624 1.03920E+01 1.46750E+01 0.00000E+00
 -1       625 1.03920E+01 1.17250E+01 0.00000E+00
 -1       626 1.15350E+01 9.20225E+00 0.00000E+00
 -1       627 5.95442E+01 1.05847E+01 0.00000E+00
 -1       628 6.70693E+01 2.72923E+01 0.00000E+00
 -1       629 6.31199E+01 3.37098E+01 0.00000E+00
 -1       630 1.51500E+01 3.96080E+01 0.00000E+00
 -1       631 1.81500E+01 3.96080E+01 0.00000E+00
 -1       632 2.11500E+01 3.96080E+01 0.00000E+00
 -1       633 2.41500E+01 3.96080E+01 0.00000E+00
 -1       634 2.71500E+01 3.96080E+01 0.00000E+00
 -1       635 3.01500E+01 3.96080E+01 0.00000E+00
 -1       636 3.31500E+01 3.96080E+01 0.00000E+00
 -1       637 3.61500E+01 3.96080E+01 0.00000E+00
 -1       638 3.91500E+01 3.96080E+01 0.00000E+00
 -1       639 4.21500E+01 3.96080E+01 0.00000E+00
 -1       640 4.51500E+01 3.96080E+01 0.00000E+00
 -1       641 4.81500E+01 3.96080E+01 0.00000E+00
 -1       642 5.11500E+01 3.96080E+01 0.00000E+00
 -1       643 5.41500E+01 3.96080E+01 0.00000E+00
 -1       644 5.71500E+01 3.96080E+01 0.00000E+00
 -1       645 6.01500E+01 3.96080E+01 0.00000E+00
 -1       646 6.31500E+01 3.96080E+01 0.00000E+00
 -1       647 6.61500E+01 3.96080E+01 0.00000E+00
 -1       648 6.91500E+01 3.96080E+01 0.00000E+00
 -1       649 7.21500E+01 3.96080E+01 0.00000E+00
 -1       650 7.51500E+01 3.96080E+01 0.00000E+00
 -1       651 7.81500E+01 3.96080E+01 0.00000E+00
 -1       652 8.11500E+01 3.96080E+01 0.00000E+00
 -1       653 8.41500E+01 3.96080E+01 0.00000E+00
 -1       654 8.71500E+01 3.96080E+01 0.00000E+00
 -1       655 9.01500E+01 3.96080E+01 0.00000E+00
 -1       656 9.31500E+01 3.96080E+01 0.00000E+00
 -1       657 9.61500E+01 3.96080E+01 0.00000E+00
 -1       658 9.91500E+01 3.96080E+01 0.00000E+00
 -1       659 1.02150E+02 3.96080E+01 0.00000E+00
 -1       660 1.05150E+02 3.96080E+01 0.00000E+00
 -1       661 1.08150E+02 3.96080E+01 0.00000E+00
 -1       662 1.11150E+02 3.96080E+01 0.00000E+00
 -1       663 1.14150E+02 3.96080E+01 0.00000E+00
 -1       664 1.17150E+02 3.96080E+01 0.00000E+00
 -1       665 1.20150E+02 3.96080E+01 0.00000E+00
 -1       666 1.23150E+02 3.96080E+01 0.00000E+00
 -1       667 1.26150E+02 3.96080E+01 0.00000E+00
 -1       668 1.29150E+02 3.96080E+01 0.00000E+00
 -1       669 1.32150E+02 3.96080E+01 0.00000E+00
 -1       670 1.35150E+02 3.96080E+01 0.00000E+00
 -1       671 1.38150E+02 3.96080E+01 0.00000E+00
 -1       672 2.35350E+01 9.20225E+00 0.00000E+00
 -1       673 4.77021E+01 3.30316E+01 0.00000E+00
 -1       674 2.05350E+01 9.20225E+00 0.00000E+00
 -1       675 2.95350E+01 9.20225E+00 0.00000E+00
 -1       676 3.25350E+01 9.20225E+00 0.00000E+00
 -1       677 3.55350E+01 9.20225E+00 0.00000E+00
 -1       678 3.85350E+01 9.20225E+00 0.00000E+00
 -1       679 4.15350E+01 9.20225E+00 0.00000E+00
 -1       680 4.45350E+01 9.20225E+00 0.00000E+00
 -1       681 4.75350E+01 9.20225E+00 0.00000E+00
 -1       682 5.35350E+01 9.20225E+00 0.00000E+00
 -1       683 6.55350E+01 9.20225E+00 0.00000E+00
 -1       684 6.85350E+01 9.20225E+00 0.00000E+00
 -1       685 7.15350E+01 9.20225E+00 0.00000E+00
 -1       686 7.45350E+01 9.20225E+00 0.00000E+00
 -1       687 7.75350E+01 9.20225E+00 0.00000E+00
 -1       688 8.05350E+01 9.20225E+00 0.00000E+00
 -1       689 8.35350E+01 9.20225E+00 0.00000E+00
 -1       690 8.65350E+01 9.20225E+00 0.00000E+00
 -1       691 8.95350E+01 9.20225E+00 0.00000E+00
 -1       692 9.25350E+01 9.20225E+00 0.00000E+00
 -1       693 9.55350E+01 9.20225E+00 0.00000E+00
 -1       694 9.85350E+01 9.20225E+00 0.00000E+00
 -1       695 1.01535E+02 9.20225E+00 0.00000E+00
 -1       696 1.04535E+02 9.20225E+00 0.00000E+00
 -1       697 1.07535E+02 9.20225E+00 0.00000E+00
 -1       698 1.10535E+02 9.20225E+00 0.00000E+00
 -1       699 1.13535E+02 9.20225E+00 0.00000E+00
 -1       700 1.16535E+02 9.20225E+00 0.00000E+00
 -1       701 1.19535E+02 9.20225E+00 0.00000E+00
 -1       702 1.22535E+02 9.20225E+00 0.00000E+00
 -1       703 1.25535E+02 9.20225E+00 0.00000E+00
 -1       704 1.28535E+02 9.20225E+00 0.00000E+00
 -1       705 1.31535E+02 9.20225E+00 0.00000E+00
 -1       706 1.34535E+02 9.20225E+00 0.00000E+00
 -1       707 1.37535E+02 9.20225E+00 0.00000E+00
 -1       708 1.39870E+02 9.76363E+00 0.00000E+00
 -1       709 6.58639E+01 1.43924E+01 0.00000E+00
 -1       710 1.39608E+02 2.35500E+01 0.00000E+00
 -1       711 1.40178E+02 3.96665E+01 0.00000E+00
 -1       712 1.39608E+02 1.76500E+01 0.00000E+00
 -1       713 1.39608E+02 2.65000E+01 0.00000E+00
 -1       714 1.39608E+02 2.06000E+01 0.00000E+00
 -1       715 1.39608E+02 2.94000E+01 0.00000E+00
 -1       716 1.39608E+02 3.23500E+01 0.00000E+00
 -1       717 1.39608E+02 3.53000E+01 0.00000E+00
 -1       718 1.05855E+01 3.97357E+01 0.00000E+00
 -1       719 5.54620E+01 3.57197E+01 0.00000E+00
 -1       720 6.46814E+01 3.22461E+01 0.00000E+00
 -1       721 4.56555E+01 3.12229E+01 0.00000E+00
 -1       722 6.88557E+01 2.29616E+01 0.00000E+00
 -1       723 6.62079E+01 2.96839E+01 0.00000E+00
 -1       724 4.34604E+01 1.83058E+01 0.00000E+00
 -1       725 1.75350E+01 9.20225E+00 0.00000E+00
 -1       726 2.65350E+01 9.20225E+00 0.00000E+00
 -1       727 1.28678E+01 3.96719E+01 0.00000E+00
 -1       728 1.45350E+01 9.20225E+00 0.00000E+00
 -1       729 6.35622E+01 1.29253E+01 0.00000E+00
 -1       730 1.03920E+01 1.76125E+01 0.00000E+00
 -1       731 1.03920E+01 3.23250E+01 0.00000E+00
 -1       732 6.83209E+01 2.50753E+01 0.00000E+00
 -1       733 4.28015E+01 2.06036E+01 0.00000E+00
 -1       734 4.33299E+01 2.59657E+01 0.00000E+00
 -1       735 4.80238E+01 1.14207E+01 0.00000E+00
 -1       736 5.04959E+01 1.02564E+01 0.00000E+00
 -1       737 4.46633E+01 1.60775E+01 0.00000E+00
 -1       738 4.59643E+01 1.38531E+01 0.00000E+00
 -1       739 6.16196E+01 1.17392E+01 0.00000E+00
 -1       740 4.41019E+01 2.90360E+01 0.00000E+00
 -1       741 5.85047E+01 3.55174E+01 0.00000E+00
 -1       742 6.04236E+01 3.48897E+01 0.00000E+00
 -1       743 1.03920E+01 3.52625E+01 0.00000E+00
 -1       744 1.03920E+01 2.64500E+01 0.00000E+00
 -1       745 6.74528E+01 1.52712E+01 0.00000E+00
 -1       746 1.39608E+02 1.47250E+01 0.00000E+00
 -1       747 6.25350E+01 9.20225E+00 0.00000E+00
 -1       748 1.39739E+02 1.22443E+01 0.00000E+00
 -1       749 5.13486E+01 3.53104E+01 0.00000E+00
 -1       750 6.85565E+01 1.86085E+01 0.00000E+00
 -1       751 6.95194E+01 2.13520E+01 0.00000E+00
 -1       752 4.85816E+01 3.44354E+01 0.00000E+00
 -1       753 1.03920E+01 2.93875E+01 0.00000E+00
 -1       754 4.20465E+01 2.19909E+01 0.00000E+00
 -1       755 4.23129E+01 2.79295E+01 0.00000E+00
 -1       756 1.38879E+02 3.74540E+01 0.00000E+00
 -1       757 6.27280E+01 3.64851E+01 0.00000E+00
 -1       758 1.29900E+01 1.32000E+01 0.00000E+00
 -1       759 4.11602E+01 1.88896E+01 0.00000E+00
 -1       760 1.96500E+01 3.70100E+01 0.00000E+00
 -1       761 2.26500E+01 3.70100E+01 0.00000E+00
 -1       762 2.56500E+01 3.70100E+01 0.00000E+00
 -1       763 2.86500E+01 3.70100E+01 0.00000E+00
 -1       764 3.16500E+01 3.70100E+01 0.00000E+00
 -1       765 3.46500E+01 3.70100E+01 0.00000E+00
 -1       766 3.76500E+01 3.70100E+01 0.00000E+00
 -1       767 4.06500E+01 3.70100E+01 0.00000E+00
 -1       768 4.36500E+01 3.70100E+01 0.00000E+00
 -1       769 4.66500E+01 3.70100E+01 0.00000E+00
 -1       770 6.57280E+01 3.64851E+01 0.00000E+00
 -1       771 6.87280E+01 3.64851E+01 0.00000E+00
 -1       772 7.17280E+01 3.64851E+01 0.00000E+00
 -1       773 7.47280E+01 3.64851E+01 0.00000E+00
 -1       774 7.77280E+01 3.64851E+01 0.00000E+00
 -1       775 8.07280E+01 3.64851E+01 0.00000E+00
 -1       776 8.37280E+01 3.64851E+01 0.00000E+00
 -1       777 8.67280E+01 3.64851E+01 0.00000E+00
 -1       778 8.97280E+01 3.64851E+01 0.00000E+00
 -1       779 9.27280E+01 3.64851E+01 0.00000E+00
 -1       780 9.57280E+01 3.64851E+01 0.00000E+00
 -1       781 9.87280E+01 3.64851E+01 0.00000E+00
 -1       782 1.01728E+02 3.64851E+01 0.00000E+00
 -1       783 1.04728E+02 3.64851E+01 0.00000E+00
 -1       784 1.07728E+02 3.64851E+01 0.00000E+00
 -1       785 1.10728E+02 3.64851E+01 0.00000E+00
 -1       786 1.13728E+02 3.64851E+01 0.00000E+00
 -1       787 1.16728E+02 3.64851E+01 0.00000E+00
 -1       788 1.19728E+02 3.64851E+01 0.00000E+00
 -1       789 1.22728E+02 3.64851E+01 0.00000E+00
 -1       790 1.25728E+02 3.64851E+01 0.00000E+00
 -1       791 1.28728E+02 3.64851E+01 0.00000E+00
 -1       792 1.31728E+02 3.64851E+01 0.00000E+00
 -1       793 1.34728E+02 3.64851E+01 0.00000E+00
 -1       794 1.36803E+02 3.69695E+01 0.00000E+00
 -1       795 3.40350E+01 1.18003E+01 0.00000E+00
 -1       796 3.10350E+01 1.18003E+01 0.00000E+00
 -1       797 4.00350E+01 1.18003E+01 0.00000E+00
 -1       798 4.30350E+01 1.18003E+01 0.00000E+00
 -1       799 6.57250E+01 1.20712E+01 0.00000E+00
 -1       800 7.60350E+01 1.18003E+01 0.00000E+00
 -1       801 7.90350E+01 1.18003E+01 0.00000E+00
 -1       802 8.20350E+01 1.18003E+01 0.00000E+00
 -1       803 8.50350E+01 1.18003E+01 0.00000E+00
 -1       804 8.80350E+01 1.18003E+01 0.00000E+00
 -1       805 9.10350E+01 1.18003E+01 0.00000E+00
 -1       806 9.40350E+01 1.18003E+01 0.00000E+00
 -1       807 9.70350E+01 1.18003E+01 0.00000E+00
 -1       808 1.00035E+02 1.18003E+01 0.00000E+00
 -1       809 1.03035E+02 1.18003E+01 0.00000E+00
 -1       810 1.06035E+02 1.18003E+01 0.00000E+00
 -1       811 1.09035E+02 1.18003E+01 0.00000E+00
 -1       812 1.12035E+02 1.18003E+01 0.00000E+00
 -1       813 1.15035E+02 1.18003E+01 0.00000E+00
 -1       814 1.18035E+02 1.18003E+01 0.00000E+00
 -1       815 1.21035E+02 1.18003E+01 0.00000E+00
 -1       816 1.24035E+02 1.18003E+01 0.00000E+00
 -1       817 1.27035E+02 1.18003E+01 0.00000E+00
 -1       818 1.30035E+02 1.18003E+01 0.00000E+00
 -1       819 1.33035E+02 1.18003E+01 0.00000E+00
 -1       820 1.36035E+02 1.18003E+01 0.00000E+00
 -1       821 1.37887E+02 1.20223E+01 0.00000E+00
 -1       822 1.37010E+02 2.79500E+01 0.00000E+00
 -1       823 1.37010E+02 3.38250E+01 0.00000E+00
 -1       824 1.37010E+02 2.50000E+01 0.00000E+00
 -1       825 1.90350E+01 1.18003E+01 0.00000E+00
 -1       826 6.53028E+01 3.44738E+01 0.00000E+00
 -1       827 1.37010E+02 3.08875E+01 0.00000E+00
 -1       828 4.35440E+01 1.39302E+01 0.00000E+00
 -1       829 7.30350E+01 1.18003E+01 0.00000E+00
 -1       830 7.00350E+01 1.18003E+01 0.00000E+00
 -1       831 4.32073E+01 3.13168E+01 0.00000E+00
 -1       832 5.86155E+01 9.87088E+00 0.00000E+00
 -1       833 1.37625E+01 1.12011E+01 0.00000E+00
 -1       834 3.70350E+01 1.18003E+01 0.00000E+00
 -1       835 7.04135E+01 2.44802E+01 0.00000E+00
 -1       836 2.20350E+01 1.18003E+01 0.00000E+00
 -1       837 4.53211E+01 3.36636E+01 0.00000E+00
 -1       838 4.23412E+01 1.61584E+01 0.00000E+00
 -1       839 1.66500E+01 3.70100E+01 0.00000E+00
 -1       840 1.04888E+01 3.74991E+01 0.00000E+00
 -1       841 4.54293E+01 1.13121E+01 0.00000E+00
 -1       842 6.96264E+01 2.72741E+01 0.00000E+00
 -1       843 6.87650E+01 2.96657E+01 0.00000E+00
 -1       844 6.72386E+01 3.22279E+01 0.00000E+00
 -1       845 1.29900E+01 2.20250E+01 0.00000E+00
 -1       846 4.16722E+01 2.46788E+01 0.00000E+00
 -1       847 1.29900E+01 2.49750E+01 0.00000E+00
 -1       848 1.29900E+01 1.61375E+01 0.00000E+00
 -1       849 6.73138E+01 1.29500E+01 0.00000E+00
 -1       850 6.92498E+01 1.63702E+01 0.00000E+00
 -1       851 4.04051E+01 2.02768E+01 0.00000E+00
 -1       852 1.37010E+02 1.61875E+01 0.00000E+00
 -1       853 1.43678E+01 3.70739E+01 0.00000E+00
 -1       854 6.12295E+01 3.67976E+01 0.00000E+00
 -1       855 2.50350E+01 1.18003E+01 0.00000E+00
 -1       856 7.10772E+01 2.28706E+01 0.00000E+00
 -1       857 2.80350E+01 1.18003E+01 0.00000E+00
 -1       858 1.37010E+02 1.91375E+01 0.00000E+00
 -1       859 1.37010E+02 2.20688E+01 0.00000E+00
 -1       860 1.63988E+01 1.15007E+01 0.00000E+00
 -1       861 7.03569E+01 1.95883E+01 0.00000E+00
 -1       862 4.14183E+01 3.02104E+01 0.00000E+00
 -1       863 5.33279E+01 3.69171E+01 0.00000E+00
 -1       864 1.29900E+01 1.90812E+01 0.00000E+00
 -1       865 4.06552E+01 2.66426E+01 0.00000E+00
 -1       866 1.29900E+01 3.08563E+01 0.00000E+00
 -1       867 1.29900E+01 3.37938E+01 0.00000E+00
 -1       868 2.41500E+01 3.44120E+01 0.00000E+00
 -1       869 2.71500E+01 3.44120E+01 0.00000E+00
 -1       870 3.01500E+01 3.44120E+01 0.00000E+00
 -1       871 3.31500E+01 3.44120E+01 0.00000E+00
 -1       872 3.61500E+01 3.44120E+01 0.00000E+00
 -1       873 3.91500E+01 3.44120E+01 0.00000E+00
 -1       874 4.21500E+01 3.44120E+01 0.00000E+00
 -1       875 7.21547E+01 2.64786E+01 0.00000E+00
 -1       876 7.02280E+01 3.38871E+01 0.00000E+00
 -1       877 7.32280E+01 3.38871E+01 0.00000E+00
 -1       878 7.62280E+01 3.38871E+01 0.00000E+00
 -1       879 7.92280E+01 3.38871E+01 0.00000E+00
 -1       880 8.22280E+01 3.38871E+01 0.00000E+00
 -1       881 8.52280E+01 3.38871E+01 0.00000E+00
 -1       882 8.82280E+01 3.38871E+01 0.00000E+00
 -1       883 9.12280E+01 3.38871E+01 0.00000E+00
 -1       884 9.42280E+01 3.38871E+01 0.00000E+00
 -1       885 9.72280E+01 3.38871E+01 0.00000E+00
 -1       886 1.00228E+02 3.38871E+01 0.00000E+00
 -1       887 1.03228E+02 3.38871E+01 0.00000E+00
 -1       888 1.06228E+02 3.38871E+01 0.00000E+00
 -1       889 1.09228E+02 3.38871E+01 0.00000E+00
 -1       890 1.12228E+02 3.38871E+01 0.00000E+00
 -1       891 1.15228E+02 3.38871E+01 0.00000E+00
 -1       892 1.18228E+02 3.38871E+01 0.00000E+00
 -1       893 1.21228E+02 3.38871E+01 0.00000E+00
 -1       894 1.24228E+02 3.38871E+01 0.00000E+00
 -1       895 1.27228E+02 3.38871E+01 0.00000E+00
 -1       896 1.30228E+02 3.38871E+01 0.00000E+00
 -1       897 1.33228E+02 3.38871E+01 0.00000E+00
 -1       898 3.25350E+01 1.43982E+01 0.00000E+00
 -1       899 4.05440E+01 1.39302E+01 0.00000E+00
 -1       900 6.88341E+01 1.23059E+01 0.00000E+00
 -1       901 7.75350E+01 1.43982E+01 0.00000E+00
 -1       902 8.65350E+01 1.43982E+01 0.00000E+00
 -1       903 8.95350E+01 1.43982E+01 0.00000E+00
 -1       904 9.25350E+01 1.43982E+01 0.00000E+00
 -1       905 9.55350E+01 1.43982E+01 0.00000E+00
 -1       906 9.85350E+01 1.43982E+01 0.00000E+00
 -1       907 1.01535E+02 1.43982E+01 0.00000E+00
 -1       908 1.04535E+02 1.43982E+01 0.00000E+00
 -1       909 1.07535E+02 1.43982E+01 0.00000E+00
 -1       910 1.10535E+02 1.43982E+01 0.00000E+00
 -1       911 1.13535E+02 1.43982E+01 0.00000E+00
 -1       912 1.16535E+02 1.43982E+01 0.00000E+00
 -1       913 1.19535E+02 1.43982E+01 0.00000E+00
 -1       914 1.22535E+02 1.43982E+01 0.00000E+00
 -1       915 1.25535E+02 1.43982E+01 0.00000E+00
 -1       916 1.28535E+02 1.43982E+01 0.00000E+00
 -1       917 1.31535E+02 1.43982E+01 0.00000E+00
 -1       918 1.34535E+02 1.43982E+01 0.00000E+00
 -1       919 1.34412E+02 2.64750E+01 0.00000E+00
 -1       920 1.37449E+02 1.41049E+01 0.00000E+00
 -1       921 1.81500E+01 3.44120E+01 0.00000E+00
 -1       922 7.45350E+01 1.43982E+01 0.00000E+00
 -1       923 7.15350E+01 1.43982E+01 0.00000E+00
 -1       924 3.99947E+01 2.30752E+01 0.00000E+00
 -1       925 2.05350E+01 1.43982E+01 0.00000E+00
 -1       926 1.29900E+01 2.79188E+01 0.00000E+00
 -1       927 3.93630E+01 1.66614E+01 0.00000E+00
 -1       928 7.12823E+01 2.92214E+01 0.00000E+00
 -1       929 8.35350E+01 1.43982E+01 0.00000E+00
 -1       930 6.99071E+01 3.20820E+01 0.00000E+00
 -1       931 8.05350E+01 1.43982E+01 0.00000E+00
 -1       932 2.11500E+01 3.44120E+01 0.00000E+00
 -1       933 1.55880E+01 1.46687E+01 0.00000E+00
 -1       934 1.58678E+01 3.44759E+01 0.00000E+00
 -1       935 1.55880E+01 2.35000E+01 0.00000E+00
 -1       936 7.28184E+01 2.48690E+01 0.00000E+00
 -1       937 6.72280E+01 3.38871E+01 0.00000E+00
 -1       938 3.55350E+01 1.43982E+01 0.00000E+00
 -1       939 3.81990E+01 1.42308E+01 0.00000E+00
 -1       940 7.19147E+01 2.11069E+01 0.00000E+00
 -1       941 2.95350E+01 1.43982E+01 0.00000E+00
 -1       942 3.89776E+01 2.50390E+01 0.00000E+00
 -1       943 1.78988E+01 1.40987E+01 0.00000E+00
 -1       944 1.34412E+02 2.35438E+01 0.00000E+00
 -1       945 1.34412E+02 2.94125E+01 0.00000E+00
 -1       946 3.86080E+01 1.80486E+01 0.00000E+00
 -1       947 1.33820E+02 3.16498E+01 0.00000E+00
 -1       948 1.55880E+01 2.05562E+01 0.00000E+00
 -1       949 2.35350E+01 1.43982E+01 0.00000E+00
 -1       950 1.55880E+01 2.93875E+01 0.00000E+00
 -1       951 7.10503E+01 1.73500E+01 0.00000E+00
 -1       952 4.02841E+01 3.23112E+01 0.00000E+00
 -1       953 1.34412E+02 1.76625E+01 0.00000E+00
 -1       954 3.97605E+01 2.89234E+01 0.00000E+00
 -1       955 3.80055E+01 2.13542E+01 0.00000E+00
 -1       956 2.86500E+01 3.18140E+01 0.00000E+00
 -1       957 3.16500E+01 3.18140E+01 0.00000E+00
 -1       958 3.46500E+01 3.18140E+01 0.00000E+00
 -1       959 3.74671E+01 3.20626E+01 0.00000E+00
 -1       960 9.10350E+01 1.69963E+01 0.00000E+00
 -1       961 1.55880E+01 1.76125E+01 0.00000E+00
 -1       962 7.47280E+01 3.12891E+01 0.00000E+00
 -1       963 7.77280E+01 3.12891E+01 0.00000E+00
 -1       964 8.07280E+01 3.12891E+01 0.00000E+00
 -1       965 8.37280E+01 3.12891E+01 0.00000E+00
 -1       966 8.67280E+01 3.12891E+01 0.00000E+00
 -1       967 8.97280E+01 3.12891E+01 0.00000E+00
 -1       968 9.27280E+01 3.12891E+01 0.00000E+00
 -1       969 9.57280E+01 3.12891E+01 0.00000E+00
 -1       970 9.87280E+01 3.12891E+01 0.00000E+00
 -1       971 1.01728E+02 3.12891E+01 0.00000E+00
 -1       972 1.04728E+02 3.12891E+01 0.00000E+00
 -1       973 1.07728E+02 3.12891E+01 0.00000E+00
 -1       974 1.10728E+02 3.12891E+01 0.00000E+00
 -1       975 1.13728E+02 3.12891E+01 0.00000E+00
 -1       976 1.16728E+02 3.12891E+01 0.00000E+00
 -1       977 1.19728E+02 3.12891E+01 0.00000E+00
 -1       978 1.22728E+02 3.12891E+01 0.00000E+00
 -1       979 1.25728E+02 3.12891E+01 0.00000E+00
 -1       980 1.28728E+02 3.12891E+01 0.00000E+00
 -1       981 1.31274E+02 3.14694E+01 0.00000E+00
 -1       982 2.65350E+01 1.43982E+01 0.00000E+00
 -1       983 1.96500E+01 3.18140E+01 0.00000E+00
 -1       984 8.80350E+01 1.69963E+01 0.00000E+00
 -1       985 9.70350E+01 1.69963E+01 0.00000E+00
 -1       986 1.00035E+02 1.69963E+01 0.00000E+00
 -1       987 1.03035E+02 1.69963E+01 0.00000E+00
 -1       988 1.06035E+02 1.69963E+01 0.00000E+00
 -1       989 1.09035E+02 1.69963E+01 0.00000E+00
 -1       990 1.12035E+02 1.69963E+01 0.00000E+00
 -1       991 1.15035E+02 1.69963E+01 0.00000E+00
 -1       992 1.18035E+02 1.69963E+01 0.00000E+00
 -1       993 1.21035E+02 1.69963E+01 0.00000E+00
 -1       994 1.24035E+02 1.69963E+01 0.00000E+00
 -1       995 1.27035E+02 1.69963E+01 0.00000E+00
 -1       996 1.30035E+02 1.69963E+01 0.00000E+00
 -1       997 1.55880E+01 2.64438E+01 0.00000E+00
 -1       998 8.20350E+01 1.69963E+01 0.00000E+00
 -1       999 7.22552E+01 3.15543E+01 0.00000E+00
 -1      1000 8.50350E+01 1.69963E+01 0.00000E+00
 -1      1001 7.60350E+01 1.69963E+01 0.00000E+00
 -1      1002 7.35426E+01 1.71731E+01 0.00000E+00
 -1      1003 1.34412E+02 2.06031E+01 0.00000E+00
 -1      1004 7.41514E+01 2.86238E+01 0.00000E+00
 -1      1005 2.56500E+01 3.18140E+01 0.00000E+00
 -1      1006 7.90350E+01 1.69963E+01 0.00000E+00
 -1      1007 2.26500E+01 3.18140E+01 0.00000E+00
 -1      1008 9.40350E+01 1.69963E+01 0.00000E+00
 -1      1009 7.48151E+01 2.70142E+01 0.00000E+00
 -1      1010 1.78988E+01 1.70424E+01 0.00000E+00
 -1      1011 3.40350E+01 1.69963E+01 0.00000E+00
 -1      1012 3.66990E+01 1.68288E+01 0.00000E+00
 -1      1013 3.10350E+01 1.69963E+01 0.00000E+00
 -1      1014 3.80830E+01 2.73198E+01 0.00000E+00
 -1      1015 3.69885E+01 2.33180E+01 0.00000E+00
 -1      1016 1.31814E+02 2.50094E+01 0.00000E+00
 -1      1017 1.30035E+02 1.99369E+01 0.00000E+00
 -1      1018 1.81860E+01 2.20281E+01 0.00000E+00
 -1      1019 1.81860E+01 2.49719E+01 0.00000E+00
 -1      1020 1.31814E+02 2.79469E+01 0.00000E+00
 -1      1021 1.81860E+01 2.79156E+01 0.00000E+00
 -1      1022 2.20350E+01 1.69963E+01 0.00000E+00
 -1      1023 7.36559E+01 2.31053E+01 0.00000E+00
 -1      1024 7.27287E+01 1.91400E+01 0.00000E+00
 -1      1025 2.50350E+01 1.69963E+01 0.00000E+00
 -1      1026 3.31500E+01 2.92160E+01 0.00000E+00
 -1      1027 7.92280E+01 2.86911E+01 0.00000E+00
 -1      1028 8.22280E+01 2.86911E+01 0.00000E+00
 -1      1029 8.52280E+01 2.86911E+01 0.00000E+00
 -1      1030 8.82280E+01 2.86911E+01 0.00000E+00
 -1      1031 9.12280E+01 2.86911E+01 0.00000E+00
 -1      1032 9.42280E+01 2.86911E+01 0.00000E+00
 -1      1033 9.72280E+01 2.86911E+01 0.00000E+00
 -1      1034 1.00228E+02 2.86911E+01 0.00000E+00
 -1      1035 1.03228E+02 2.86911E+01 0.00000E+00
 -1      1036 1.06228E+02 2.86911E+01 0.00000E+00
 -1      1037 1.09228E+02 2.86911E+01 0.00000E+00
 -1      1038 1.12228E+02 2.86911E+01 0.00000E+00
 -1      1039 1.15228E+02 2.86911E+01 0.00000E+00
 -1      1040 1.18228E+02 2.86911E+01 0.00000E+00
 -1      1041 1.21228E+02 2.86911E+01 0.00000E+00
 -1      1042 1.24228E+02 2.86911E+01 0.00000E+00
 -1      1043 1.27228E+02 2.86911E+01 0.00000E+00
 -1      1044 1.04535E+02 1.95942E+01 0.00000E+00
 -1      1045 3.60966E+01 2.01344E+01 0.00000E+00
 -1      1046 8.95350E+01 1.95942E+01 0.00000E+00
 -1      1047 1.01535E+02 1.95942E+01 0.00000E+00
 -1      1048 9.85350E+01 1.95942E+01 0.00000E+00
 -1      1049 1.07535E+02 1.95942E+01 0.00000E+00
 -1      1050 1.10535E+02 1.95942E+01 0.00000E+00
 -1      1051 1.13535E+02 1.95942E+01 0.00000E+00
 -1      1052 1.16535E+02 1.95942E+01 0.00000E+00
 -1      1053 1.19535E+02 1.95942E+01 0.00000E+00
 -1      1054 1.22535E+02 1.95942E+01 0.00000E+00
 -1      1055 1.25535E+02 1.95942E+01 0.00000E+00
 -1      1056 1.27785E+02 1.97656E+01 0.00000E+00
 -1      1057 2.41500E+01 2.92160E+01 0.00000E+00
 -1      1058 1.80424E+01 1.95353E+01 0.00000E+00
 -1      1059 7.62716E+01 2.91516E+01 0.00000E+00
 -1      1060 8.65350E+01 1.95942E+01 0.00000E+00
 -1      1061 2.80350E+01 1.69963E+01 0.00000E+00
 -1      1062 8.35350E+01 1.95942E+01 0.00000E+00
 -1      1063 1.30924E+02 2.24731E+01 0.00000E+00
 -1      1064 1.31544E+02 2.97082E+01 0.00000E+00
 -1      1065 7.75350E+01 1.95942E+01 0.00000E+00
 -1      1066 3.01500E+01 2.92160E+01 0.00000E+00
 -1      1067 2.11680E+01 2.85658E+01 0.00000E+00
 -1      1068 2.71500E+01 2.92160E+01 0.00000E+00
 -1      1069 8.05350E+01 1.95942E+01 0.00000E+00
 -1      1070 3.28944E+01 1.99918E+01 0.00000E+00
 -1      1071 7.56526E+01 2.52505E+01 0.00000E+00
 -1      1072 3.50795E+01 2.20982E+01 0.00000E+00
 -1      1073 3.59671E+01 2.94646E+01 0.00000E+00
 -1      1074 7.50426E+01 1.97711E+01 0.00000E+00
 -1      1075 9.55350E+01 1.95942E+01 0.00000E+00
 -1      1076 1.29386E+02 2.91996E+01 0.00000E+00
 -1      1077 3.60939E+01 2.55988E+01 0.00000E+00
 -1      1078 2.07840E+01 2.35000E+01 0.00000E+00
 -1      1079 2.09760E+01 2.60329E+01 0.00000E+00
 -1      1080 1.28918E+02 2.46011E+01 0.00000E+00
 -1      1081 2.14328E+01 2.04580E+01 0.00000E+00
 -1      1082 9.25350E+01 1.95942E+01 0.00000E+00
 -1      1083 2.44328E+01 2.04580E+01 0.00000E+00
 -1      1084 2.39580E+01 2.66831E+01 0.00000E+00
 -1      1085 3.47869E+01 2.67524E+01 0.00000E+00
 -1      1086 1.03035E+02 2.21922E+01 0.00000E+00
 -1      1087 8.07280E+01 2.60931E+01 0.00000E+00
 -1      1088 8.37280E+01 2.60931E+01 0.00000E+00
 -1      1089 8.67280E+01 2.60931E+01 0.00000E+00
 -1      1090 8.97280E+01 2.60931E+01 0.00000E+00
 -1      1091 9.27280E+01 2.60931E+01 0.00000E+00
 -1      1092 9.57280E+01 2.60931E+01 0.00000E+00
 -1      1093 9.87280E+01 2.60931E+01 0.00000E+00
 -1      1094 1.01728E+02 2.60931E+01 0.00000E+00
 -1      1095 1.04728E+02 2.60931E+01 0.00000E+00
 -1      1096 1.07728E+02 2.60931E+01 0.00000E+00
 -1      1097 1.10728E+02 2.60931E+01 0.00000E+00
 -1      1098 1.13728E+02 2.60931E+01 0.00000E+00
 -1      1099 1.16728E+02 2.60931E+01 0.00000E+00
 -1      1100 1.19728E+02 2.60931E+01 0.00000E+00
 -1      1101 1.22728E+02 2.60931E+01 0.00000E+00
 -1      1102 1.25728E+02 2.60931E+01 0.00000E+00
 -1      1103 1.09035E+02 2.21922E+01 0.00000E+00
 -1      1104 1.28351E+02 2.21833E+01 0.00000E+00
 -1      1105 1.06035E+02 2.21922E+01 0.00000E+00
 -1      1106 1.00035E+02 2.21922E+01 0.00000E+00
 -1      1107 1.12035E+02 2.21922E+01 0.00000E+00
 -1      1108 1.15035E+02 2.21922E+01 0.00000E+00
 -1      1109 1.18035E+02 2.21922E+01 0.00000E+00
 -1      1110 1.21035E+02 2.21922E+01 0.00000E+00
 -1      1111 1.24035E+02 2.21922E+01 0.00000E+00
 -1      1112 2.69580E+01 2.66831E+01 0.00000E+00
 -1      1113 7.77716E+01 2.65536E+01 0.00000E+00
 -1      1114 2.27044E+01 2.32455E+01 0.00000E+00
 -1      1115 7.65938E+01 2.24224E+01 0.00000E+00
 -1      1116 7.95938E+01 2.24224E+01 0.00000E+00
 -1      1117 2.99580E+01 2.66831E+01 0.00000E+00
 -1      1118 3.23725E+01 2.67177E+01 0.00000E+00
 -1      1119 8.80350E+01 2.21922E+01 0.00000E+00
 -1      1120 8.25938E+01 2.24224E+01 0.00000E+00
 -1      1121 8.53144E+01 2.23073E+01 0.00000E+00
 -1      1122 2.97574E+01 1.98642E+01 0.00000E+00
 -1      1123 9.10350E+01 2.21922E+01 0.00000E+00
 -1      1124 3.41849E+01 2.43790E+01 0.00000E+00
 -1      1125 9.70350E+01 2.21922E+01 0.00000E+00
 -1      1126 3.19998E+01 2.22726E+01 0.00000E+00
 -1      1127 1.26105E+02 2.39847E+01 0.00000E+00
 -1      1128 2.73831E+01 2.27431E+01 0.00000E+00
 -1      1129 7.86090E+01 2.47899E+01 0.00000E+00
 -1      1130 2.54580E+01 2.40851E+01 0.00000E+00
 -1      1131 9.40350E+01 2.21922E+01 0.00000E+00
 -1      1132 0.00000E+00 4.85250E+01 0.00000E+00
 -1      1133 0.00000E+00 4.55750E+01 0.00000E+00
 -1      1134 0.00000E+00 4.26250E+01 0.00000E+00
 -1      1135 0.00000E+00 3.96750E+01 0.00000E+00
 -1      1136 0.00000E+00 3.67250E+01 0.00000E+00
 -1      1137 0.00000E+00 3.38000E+01 0.00000E+00
 -1      1138 0.00000E+00 3.08750E+01 0.00000E+00
 -1      1139 0.00000E+00 2.79250E+01 0.00000E+00
 -1      1140 0.00000E+00 2.49750E+01 0.00000E+00
 -1      1141 0.00000E+00 2.20250E+01 0.00000E+00
 -1      1142 0.00000E+00 1.90750E+01 0.00000E+00
 -1      1143 0.00000E+00 1.61500E+01 0.00000E+00
 -1      1144 0.00000E+00 1.32250E+01 0.00000E+00
 -1      1145 0.00000E+00 1.02750E+01 0.00000E+00
 -1      1146 0.00000E+00 7.32500E+00 0.00000E+00
 -1      1147 0.00000E+00 4.37500E+00 0.00000E+00
 -1      1148 0.00000E+00 1.45000E+00 0.00000E+00
 -1      1149 1.57500E+00 5.00000E+01 0.00000E+00
 -1      1150 4.65000E+00 5.00000E+01 0.00000E+00
 -1      1151 7.65000E+00 5.00000E+01 0.00000E+00
 -1      1152 1.06500E+01 5.00000E+01 0.00000E+00
 -1      1153 1.36500E+01 5.00000E+01 0.00000E+00
 -1      1154 1.66500E+01 5.00000E+01 0.00000E+00
 -1      1155 1.96500E+01 5.00000E+01 0.00000E+00
 -1      1156 2.26500E+01 5.00000E+01 0.00000E+00
 -1      1157 2.56500E+01 5.00000E+01 0.00000E+00
 -1      1158 2.86500E+01 5.00000E+01 0.00000E+00
 -1      1159 3.16500E+01 5.00000E+01 0.00000E+00
 -1      1160 3.46500E+01 5.00000E+01 0.00000E+00
 -1      1161 3.76500E+01 5.00000E+01 0.00000E+00
 -1      1162 4.06500E+01 5.00000E+01 0.00000E+00
 -1      1163 4.36500E+01 5.00000E+01 0.00000E+00
 -1      1164 4.66500E+01 5.00000E+01 0.00000E+00
 -1      1165 4.96500E+01 5.00000E+01 0.00000E+00
 -1      1166 5.26500E+01 5.00000E+01 0.00000E+00
 -1      1167 5.56500E+01 5.00000E+01 0.00000E+00
 -1      1168 5.86500E+01 5.00000E+01 0.00000E+00
 -1      1169 6.16500E+01 5.00000E+01 0.00000E+00
 -1      1170 6.46500E+01 5.00000E+01 0.00000E+00
 -1      1171 6.76500E+01 5.00000E+01 0.00000E+00
 -1      1172 7.06500E+01 5.00000E+01 0.00000E+00
 -1      1173 7.36500E+01 5.00000E+01 0.00000E+00
 -1      1174 7.66500E+01 5.00000E+01 0.00000E+00
 -1      1175 7.96500E+01 5.00000E+01 0.00000E+00
 -1      1176 8.26500E+01 5.00000E+01 0.00000E+00
 -1      1177 8.56500E+01 5.00000E+01 0.00000E+00
 -1      1178 8.86500E+01 5.00000E+01 0.00000E+00
 -1      1179 9.16500E+01 5.00000E+01 0.00000E+00
 -1      1180 9.46500E+01 5.00000E+01 0.00000E+00
 -1      1181 9.76500E+01 5.00000E+01 0.00000E+00
 -1      1182 1.00650E+02 5.00000E+01 0.00000E+00
 -1      1183 1.03650E+02 5.00000E+01 0.00000E+00
 -1      1184 1.06650E+02 5.00000E+01 0.00000E+00
 -1      1185 1.09650E+02 5.00000E+01 0.00000E+00
 -1      1186 1.12650E+02 5.00000E+01 0.00000E+00
 -1      1187 1.15650E+02 5.00000E+01 0.00000E+00
 -1      1188 1.18650E+02 5.00000E+01 0.00000E+00
 -1      1189 1.21650E+02 5.00000E+01 0.00000E+00
 -1      1190 1.24650E+02 5.00000E+01 0.00000E+00
 -1      1191 1.27650E+02 5.00000E+01 0.00000E+00
 -1      1192 1.30650E+02 5.00000E+01 0.00000E+00
 -1      1193 1.33650E+02 5.00000E+01 0.00000E+00
 -1      1194 1.36650E+02 5.00000E+01 0.00000E+00
 -1      1195 1.39650E+02 5.00000E+01 0.00000E+00
 -1      1196 1.42650E+02 5.00000E+01 0.00000E+00
 -1      1197 1.45650E+02 5.00000E+01 0.00000E+00
 -1      1198 1.48575E+02 5.00000E+01 0.00000E+00
 -1      1199 1.57500E+00 0.00000E+00 0.00000E+00
 -1      1200 4.65000E+00 0.00000E+00 0.00000E+00
 -1      1201 7.65000E+00 0.00000E+00 0.00000E+00
 -1      1202 1.06500E+01 0.00000E+00 0.00000E+00
 -1      1203 1.36500E+01 0.00000E+00 0.00000E+00
 -1      1204 1.66500E+01 0.00000E+00 0.00000E+00
 -1      1205 1.96500E+01 0.00000E+00 0.00000E+00
 -1      1206 2.26500E+01 0.00000E+00 0.00000E+00
 -1      1207 2.56500E+01 0.00000E+00 0.00000E+00
 -1      1208 2.86500E+01 0.00000E+00 0.00000E+00
 -1      1209 3.16500E+01 0.00000E+00 0.00000E+00
 -1      1210 3.46500E+01 0.00000E+00 0.00000E+00
 -1      1211 3.76500E+01 0.00000E+00 0.00000E+00
 -1      1212 4.06500E+01 0.00000E+00 0.00000E+00
 -1      1213 4.36500E+01 0.00000E+00 0.00000E+00
 -1      1214 4.66500E+01 0.00000E+00 0.00000E+00
 -1      1215 4.96500E+01 0.00000E+00 0.00000E+00
 -1      1216 5.26500E+01 0.00000E+00 0.00000E+00
 -1      1217 5.56500E+01 0.00000E+00 0.00000E+00
 -1      1218 5.86500E+01 0.00000E+00 0.00000E+00
 -1      1219 6.16500E+01 0.00000E+00 0.00000E+00
 -1      1220 6.46500E+01 0.00000E+00 0.00000E+00
 -1      1221 6.76500E+01 0.00000E+00 0.00000E+00
 -1      1222 7.06500E+01 0.00000E+00 0.00000E+00
 -1      1223 7.36500E+01 0.00000E+00 0.00000E+00
 -1      1224 7.66500E+01 0.00000E+00 0.00000E+00
 -1      1225 7.96500E+01 0.00000E+00 0.00000E+00
 -1      1226 8.26500E+01 0.00000E+00 0.00000E+00
 -1      1227 8.56500E+01 0.00000E+00 0.00000E+00
 -1      1228 8.86500E+01 0.00000E+00 0.00000E+00
 -1      1229 9.16500E+01 0.00000E+00 0.00000E+00
 -1      1230 9.46500E+01 0.00000E+00 0.00000E+00
 -1      1231 9.76500E+01 0.00000E+00 0.00000E+00
 -1      1232 1.00650E+02 0.00000E+00 0.00000E+00
 -1      1233 1.03650E+02 0.00000E+00 0.00000E+00
 -1      1234 1.06650E+02 0.00000E+00 0.00000E+00
 -1      1235 1.09650E+02 0.00000E+00 0.00000E+00
 -1      1236 1.12650E+02 0.00000E+00 0.00000E+00
 -1      1237 1.15650E+02 0.00000E+00 0.00000E+00
 -1      1238 1.18650E+02 0.00000E+00 0.00000E+00
 -1      1239 1.21650E+02 0.00000E+00 0.00000E+00
 -1      1240 1.24650E+02 0.00000E+00 0.00000E+00
 -1      1241 1.27650E+02 0.00000E+00 0.00000E+00
 -1      1242 1.30650E+02 0.00000E+00 0.00000E+00
 -1      1243 1.33650E+02 0.00000E+00 0.00000E+00
 -1      1244 1.36650E+02 0.00000E+00 0.00000E+00
 -1      1245 1.39650E+02 0.00000E+00 0.00000E+00
 -1      1246 1.42650E+02 0.00000E+00 0.00000E+00
 -1      1247 1.45650E+02 0.00000E+00 0.00000E+00
 -1      1248 1.48575E+02 0.00000E+00 0.00000E+00
 -1      1249 1.50000E+02 1.47500E+00 0.00000E+00
 -1      1250 1.50000E+02 4.42500E+00 0.00000E+00
 -1      1251 1.50000E+02 7.37500E+00 0.00000E+00
 -1      1252 1.50000E+02 1.03250E+01 0.00000E+00
 -1      1253 1.50000E+02 1.32750E+01 0.00000E+00
 -1      1254 1.50000E+02 1.62000E+01 0.00000E+00
 -1      1255 1.50000E+02 1.91250E+01 0.00000E+00
 -1      1256 1.50000E+02 2.20750E+01 0.00000E+00
 -1      1257 1.50000E+02 2.50250E+01 0.00000E+00
 -1      1258 1.50000E+02 2.79750E+01 0.00000E+00
 -1      1259 1.50000E+02 3.09250E+01 0.00000E+00
 -1      1260 1.50000E+02 3.38500E+01 0.00000E+00
 -1      1261 1.50000E+02 3.67750E+01 0.00000E+00
 -1      1262 1.50000E+02 3.97250E+01 0.00000E+00
 -1      1263 1.50000E+02 4.26750E+01 0.00000E+00
 -1      1264 1.50000E+02 4.56250E+01 0.00000E+00
 -1      1265 1.50000E+02 4.85500E+01 0.00000E+00
 -1      1266 6.25032E+01 2.20316E+01 0.00000E+00
 -1      1267 6.21712E+01 2.05112E+01 0.00000E+00
 -1      1268 6.15175E+01 1.91117E+01 0.00000E+00
 -1      1269 6.06366E+01 1.79566E+01 0.00000E+00
 -1      1270 5.95440E+01 1.70136E+01 0.00000E+00
 -1      1271 5.82505E+01 1.63016E+01 0.00000E+00
 -1      1272 5.68061E+01 1.58712E+01 0.00000E+00
 -1      1273 5.53316E+01 1.57590E+01 0.00000E+00
 -1      1274 5.37984E+01 1.59762E+01 0.00000E+00
 -1      1275 5.23416E+01 1.65297E+01 0.00000E+00
 -1      1276 5.10950E+01 1.73489E+01 0.00000E+00
 -1      1277 5.00513E+01 1.84124E+01 0.00000E+00
 -1      1278 4.92667E+01 1.96517E+01 0.00000E+00
 -1      1279 4.87588E+01 2.10227E+01 0.00000E+00
 -1      1280 4.85463E+01 2.24782E+01 0.00000E+00
 -1      1281 4.86521E+01 2.39993E+01 0.00000E+00
 -1      1282 4.90717E+01 2.54298E+01 0.00000E+00
 -1      1283 4.97668E+01 2.67132E+01 0.00000E+00
 -1      1284 5.07487E+01 2.78584E+01 0.00000E+00
 -1      1285 5.19577E+01 2.87693E+01 0.00000E+00
 -1      1286 5.33665E+01 2.94096E+01 0.00000E+00
 -1      1287 5.48473E+01 2.97214E+01 0.00000E+00
 -1      1288 5.63298E+01 2.97112E+01 0.00000E+00
 -1      1289 5.77023E+01 2.94138E+01 0.00000E+00
 -1      1290 5.89245E+01 2.88837E+01 0.00000E+00
 -1      1291 6.00148E+01 2.81394E+01 0.00000E+00
 -1      1292 6.09547E+01 2.71932E+01 0.00000E+00
 -1      1293 6.17169E+01 2.60507E+01 0.00000E+00
 -1      1294 6.22514E+01 2.47476E+01 0.00000E+00
 -1      1295 6.25106E+01 2.34056E+01 0.00000E+00
 -1      1296 1.57500E+00 4.85250E+01 0.00000E+00
 -1      1297 1.29900E+00 4.48375E+01 0.00000E+00
 -1      1298 1.29900E+00 4.63125E+01 0.00000E+00
 -1      1299 1.29900E+00 4.18875E+01 0.00000E+00
 -1      1300 1.29900E+00 4.33625E+01 0.00000E+00
 -1      1301 2.59800E+00 4.41000E+01 0.00000E+00
 -1      1302 1.29900E+00 3.89375E+01 0.00000E+00
 -1      1303 1.29900E+00 4.04125E+01 0.00000E+00
 -1      1304 2.59800E+00 4.11500E+01 0.00000E+00
 -1      1305 1.29900E+00 3.59875E+01 0.00000E+00
 -1      1306 1.29900E+00 3.74625E+01 0.00000E+00
 -1      1307 2.59800E+00 3.82000E+01 0.00000E+00
 -1      1308 1.29900E+00 3.30875E+01 0.00000E+00
 -1      1309 1.29900E+00 3.45375E+01 0.00000E+00
 -1      1310 2.59800E+00 3.52750E+01 0.00000E+00
 -1      1311 1.29900E+00 3.01375E+01 0.00000E+00
 -1      1312 1.29900E+00 3.16125E+01 0.00000E+00
 -1      1313 2.59800E+00 3.23500E+01 0.00000E+00
 -1      1314 1.29900E+00 2.71875E+01 0.00000E+00
 -1      1315 1.29900E+00 2.86625E+01 0.00000E+00
 -1      1316 2.59800E+00 2.94000E+01 0.00000E+00
 -1      1317 1.29900E+00 2.42375E+01 0.00000E+00
 -1      1318 1.29900E+00 2.57125E+01 0.00000E+00
 -1      1319 2.59800E+00 2.64500E+01 0.00000E+00
 -1      1320 1.29900E+00 2.12875E+01 0.00000E+00
 -1      1321 1.29900E+00 2.27625E+01 0.00000E+00
 -1      1322 2.59800E+00 2.35000E+01 0.00000E+00
 -1      1323 1.29900E+00 1.83375E+01 0.00000E+00
 -1      1324 1.29900E+00 1.98125E+01 0.00000E+00
 -1      1325 2.59800E+00 2.05500E+01 0.00000E+00
 -1      1326 1.29900E+00 1.54375E+01 0.00000E+00
 -1      1327 1.29900E+00 1.68875E+01 0.00000E+00
 -1      1328 2.59800E+00 1.76250E+01 0.00000E+00
 -1      1329 1.29900E+00 1.24875E+01 0.00000E+00
 -1      1330 1.29900E+00 1.39625E+01 0.00000E+00
 -1      1331 2.59800E+00 1.47000E+01 0.00000E+00
 -1      1332 1.29900E+00 9.53750E+00 0.00000E+00
 -1      1333 1.29900E+00 1.10125E+01 0.00000E+00
 -1      1334 2.59800E+00 1.17500E+01 0.00000E+00
 -1      1335 1.29900E+00 6.58750E+00 0.00000E+00
 -1      1336 1.29900E+00 8.06250E+00 0.00000E+00
 -1      1337 2.59800E+00 8.80000E+00 0.00000E+00
 -1      1338 1.29900E+00 3.63750E+00 0.00000E+00
 -1      1339 1.29900E+00 5.11250E+00 0.00000E+00
 -1      1340 2.59800E+00 5.85000E+00 0.00000E+00
 -1      1341 1.43700E+00 1.09375E+00 0.00000E+00
 -1      1342 1.43700E+00 2.54375E+00 0.00000E+00
 -1      1343 2.73600E+00 3.28125E+00 0.00000E+00
 -1      1344 3.01200E+00 1.09375E+00 0.00000E+00
 -1      1345 3.90000E+00 4.87010E+01 0.00000E+00
 -1      1346 5.40000E+00 4.87010E+01 0.00000E+00
 -1      1347 6.90000E+00 4.87010E+01 0.00000E+00
 -1      1348 8.40000E+00 4.87010E+01 0.00000E+00
 -1      1349 6.15000E+00 4.74020E+01 0.00000E+00
 -1      1350 9.90000E+00 4.87010E+01 0.00000E+00
 -1      1351 1.14000E+01 4.87010E+01 0.00000E+00
 -1      1352 9.15000E+00 4.74020E+01 0.00000E+00
 -1      1353 1.29000E+01 4.87010E+01 0.00000E+00
 -1      1354 1.44000E+01 4.87010E+01 0.00000E+00
 -1      1355 1.21500E+01 4.74020E+01 0.00000E+00
 -1      1356 1.59000E+01 4.87010E+01 0.00000E+00
 -1      1357 1.74000E+01 4.87010E+01 0.00000E+00
 -1      1358 1.51500E+01 4.74020E+01 0.00000E+00
 -1      1359 1.89000E+01 4.87010E+01 0.00000E+00
 -1      1360 2.04000E+01 4.87010E+01 0.00000E+00
 -1      1361 1.81500E+01 4.74020E+01 0.00000E+00
 -1      1362 2.19000E+01 4.87010E+01 0.00000E+00
 -1      1363 2.34000E+01 4.87010E+01 0.00000E+00
 -1      1364 2.11500E+01 4.74020E+01 0.00000E+00
 -1      1365 2.49000E+01 4.87010E+01 0.00000E+00
 -1      1366 2.64000E+01 4.87010E+01 0.00000E+00
 -1      1367 2.41500E+01 4.74020E+01 0.00000E+00
 -1      1368 2.79000E+01 4.87010E+01 0.00000E+00
 -1      1369 2.94000E+01 4.87010E+01 0.00000E+00
 -1      1370 2.71500E+01 4.74020E+01 0.00000E+00
 -1      1371 3.09000E+01 4.87010E+01 0.00000E+00
 -1      1372 3.24000E+01 4.87010E+01 0.00000E+00
 -1      1373 3.01500E+01 4.74020E+01 0.00000E+00
 -1      1374 3.39000E+01 4.87010E+01 0.00000E+00
 -1      1375 3.54000E+01 4.87010E+01 0.00000E+00
 -1      1376 3.31500E+01 4.74020E+01 0.00000E+00
 -1      1377 3.69000E+01 4.87010E+01 0.00000E+00
 -1      1378 3.84000E+01 4.87010E+01 0.00000E+00
 -1      1379 3.61500E+01 4.74020E+01 0.00000E+00
 -1      1380 3.99000E+01 4.87010E+01 0.00000E+00
 -1      1381 4.14000E+01 4.87010E+01 0.00000E+00
 -1      1382 3.91500E+01 4.74020E+01 0.00000E+00
 -1      1383 4.29000E+01 4.87010E+01 0.00000E+00
 -1      1384 4.44000E+01 4.87010E+01 0.00000E+00
 -1      1385 4.21500E+01 4.74020E+01 0.00000E+00
 -1      1386 4.59000E+01 4.87010E+01 0.00000E+00
 -1      1387 4.74000E+01 4.87010E+01 0.00000E+00
 -1      1388 4.51500E+01 4.74020E+01 0.00000E+00
 -1      1389 4.89000E+01 4.87010E+01 0.00000E+00
 -1      1390 5.04000E+01 4.87010E+01 0.00000E+00
 -1      1391 4.81500E+01 4.74020E+01 0.00000E+00
 -1      1392 5.19000E+01 4.87010E+01 0.00000E+00
 -1      1393 5.34000E+01 4.87010E+01 0.00000E+00
 -1      1394 5.11500E+01 4.74020E+01 0.00000E+00
 -1      1395 5.49000E+01 4.87010E+01 0.00000E+00
 -1      1396 5.64000E+01 4.87010E+01 0.00000E+00
 -1      1397 5.41500E+01 4.74020E+01 0.00000E+00
 -1      1398 5.79000E+01 4.87010E+01 0.00000E+00
 -1      1399 5.94000E+01 4.87010E+01 0.00000E+00
 -1      1400 5.71500E+01 4.74020E+01 0.00000E+00
 -1      1401 6.09000E+01 4.87010E+01 0.00000E+00
 -1      1402 6.24000E+01 4.87010E+01 0.00000E+00
 -1      1403 6.01500E+01 4.74020E+01 0.00000E+00
 -1      1404 6.39000E+01 4.87010E+01 0.00000E+00
 -1      1405 6.54000E+01 4.87010E+01 0.00000E+00
 -1      1406 6.31500E+01 4.74020E+01 0.00000E+00
 -1      1407 6.69000E+01 4.87010E+01 0.00000E+00
 -1      1408 6.84000E+01 4.87010E+01 0.00000E+00
 -1      1409 6.61500E+01 4.74020E+01 0.00000E+00
 -1      1410 6.99000E+01 4.87010E+01 0.00000E+00
 -1      1411 7.14000E+01 4.87010E+01 0.00000E+00
 -1      1412 6.91500E+01 4.74020E+01 0.00000E+00
 -1      1413 7.29000E+01 4.87010E+01 0.00000E+00
 -1      1414 7.44000E+01 4.87010E+01 0.00000E+00
 -1      1415 7.21500E+01 4.74020E+01 0.00000E+00
 -1      1416 7.59000E+01 4.87010E+01 0.00000E+00
 -1      1417 7.74000E+01 4.87010E+01 0.00000E+00
 -1      1418 7.51500E+01 4.74020E+01 0.00000E+00
 -1      1419 7.89000E+01 4.87010E+01 0.00000E+00
 -1      1420 8.04000E+01 4.87010E+01 0.00000E+00
 -1      1421 7.81500E+01 4.74020E+01 0.00000E+00
 -1      1422 8.19000E+01 4.87010E+01 0.00000E+00
 -1      1423 8.34000E+01 4.87010E+01 0.00000E+00
 -1      1424 8.11500E+01 4.74020E+01 0.00000E+00
 -1      1425 8.49000E+01 4.87010E+01 0.00000E+00
 -1      1426 8.64000E+01 4.87010E+01 0.00000E+00
 -1      1427 8.41500E+01 4.74020E+01 0.00000E+00
 -1      1428 8.79000E+01 4.87010E+01 0.00000E+00
 -1      1429 8.94000E+01 4.87010E+01 0.00000E+00
 -1      1430 8.71500E+01 4.74020E+01 0.00000E+00
 -1      1431 9.09000E+01 4.87010E+01 0.00000E+00
 -1      1432 9.24000E+01 4.87010E+01 0.00000E+00
 -1      1433 9.01500E+01 4.74020E+01 0.00000E+00
 -1      1434 9.39000E+01 4.87010E+01 0.00000E+00
 -1      1435 9.54000E+01 4.87010E+01 0.00000E+00
 -1      1436 9.31500E+01 4.74020E+01 0.00000E+00
 -1      1437 9.69000E+01 4.87010E+01 0.00000E+00
 -1      1438 9.84000E+01 4.87010E+01 0.00000E+00
 -1      1439 9.61500E+01 4.74020E+01 0.00000E+00
 -1      1440 9.99000E+01 4.87010E+01 0.00000E+00
 -1      1441 1.01400E+02 4.87010E+01 0.00000E+00
 -1      1442 9.91500E+01 4.74020E+01 0.00000E+00
 -1      1443 1.02900E+02 4.87010E+01 0.00000E+00
 -1      1444 1.04400E+02 4.87010E+01 0.00000E+00
 -1      1445 1.02150E+02 4.74020E+01 0.00000E+00
 -1      1446 1.05900E+02 4.87010E+01 0.00000E+00
 -1      1447 1.07400E+02 4.87010E+01 0.00000E+00
 -1      1448 1.05150E+02 4.74020E+01 0.00000E+00
 -1      1449 1.08900E+02 4.87010E+01 0.00000E+00
 -1      1450 1.10400E+02 4.87010E+01 0.00000E+00
 -1      1451 1.08150E+02 4.74020E+01 0.00000E+00
 -1      1452 1.11900E+02 4.87010E+01 0.00000E+00
 -1      1453 1.13400E+02 4.87010E+01 0.00000E+00
 -1      1454 1.11150E+02 4.74020E+01 0.00000E+00
 -1      1455 1.14900E+02 4.87010E+01 0.00000E+00
 -1      1456 1.16400E+02 4.87010E+01 0.00000E+00
 -1      1457 1.14150E+02 4.74020E+01 0.00000E+00
 -1      1458 1.17900E+02 4.87010E+01 0.00000E+00
 -1      1459 1.19400E+02 4.87010E+01 0.00000E+00
 -1      1460 1.17150E+02 4.74020E+01 0.00000E+00
 -1      1461 1.20900E+02 4.87010E+01 0.00000E+00
 -1      1462 1.22400E+02 4.87010E+01 0.00000E+00
 -1      1463 1.20150E+02 4.74020E+01 0.00000E+00
 -1      1464 1.23900E+02 4.87010E+01 0.00000E+00
 -1      1465 1.25400E+02 4.87010E+01 0.00000E+00
 -1      1466 1.23150E+02 4.74020E+01 0.00000E+00
 -1      1467 1.26900E+02 4.87010E+01 0.00000E+00
 -1      1468 1.28400E+02 4.87010E+01 0.00000E+00
 -1      1469 1.26150E+02 4.74020E+01 0.00000E+00
 -1      1470 1.29900E+02 4.87010E+01 0.00000E+00
 -1      1471 1.31400E+02 4.87010E+01 0.00000E+00
 -1      1472 1.29150E+02 4.74020E+01 0.00000E+00
 -1      1473 1.32900E+02 4.87010E+01 0.00000E+00
 -1      1474 1.34400E+02 4.87010E+01 0.00000E+00
 -1      1475 1.32150E+02 4.74020E+01 0.00000E+00
 -1      1476 1.35900E+02 4.87010E+01 0.00000E+00
 -1      1477 1.37400E+02 4.87010E+01 0.00000E+00
 -1      1478 1.35150E+02 4.74020E+01 0.00000E+00
 -1      1479 1.38900E+02 4.87010E+01 0.00000E+00
 -1      1480 1.40400E+02 4.87010E+01 0.00000E+00
 -1      1481 1.38150E+02 4.74020E+01 0.00000E+00
 -1      1482 1.41900E+02 4.87010E+01 0.00000E+00
 -1      1483 1.43400E+02 4.87010E+01 0.00000E+00
 -1      1484 1.41150E+02 4.74020E+01 0.00000E+00
 -1      1485 1.44900E+02 4.87010E+01 0.00000E+00
 -1      1486 1.46400E+02 4.87010E+01 0.00000E+00
 -1      1487 1.44150E+02 4.74020E+01 0.00000E+00
 -1      1488 1.48575E+02 4.85500E+01 0.00000E+00
 -1      1489 1.47825E+02 4.72510E+01 0.00000E+00
 -1      1490 6.01200E+00 1.09375E+00 0.00000E+00
 -1      1491 4.51200E+00 1.09375E+00 0.00000E+00
 -1      1492 4.37400E+00 2.18750E+00 0.00000E+00
 -1      1493 9.01200E+00 1.09375E+00 0.00000E+00
 -1      1494 7.51200E+00 1.09375E+00 0.00000E+00
 -1      1495 7.37400E+00 2.18750E+00 0.00000E+00
 -1      1496 1.20120E+01 1.09375E+00 0.00000E+00
 -1      1497 1.05120E+01 1.09375E+00 0.00000E+00
 -1      1498 1.03740E+01 2.18750E+00 0.00000E+00
 -1      1499 1.50120E+01 1.09375E+00 0.00000E+00
 -1      1500 1.35120E+01 1.09375E+00 0.00000E+00
 -1      1501 1.33740E+01 2.18750E+00 0.00000E+00
 -1      1502 1.80120E+01 1.09375E+00 0.00000E+00
 -1      1503 1.65120E+01 1.09375E+00 0.00000E+00
 -1      1504 1.63740E+01 2.18750E+00 0.00000E+00
 -1      1505 2.10120E+01 1.09375E+00 0.00000E+00
 -1      1506 1.95120E+01 1.09375E+00 0.00000E+00
 -1      1507 1.93740E+01 2.18750E+00 0.00000E+00
 -1      1508 2.40120E+01 1.09375E+00 0.00000E+00
 -1      1509 2.25120E+01 1.09375E+00 0.00000E+00
 -1      1510 2.23740E+01 2.18750E+00 0.00000E+00
 -1      1511 2.70120E+01 1.09375E+00 0.00000E+00
 -1      1512 2.55120E+01 1.09375E+00 0.00000E+00
 -1      1513 2.53740E+01 2.18750E+00 0.00000E+00
 -1      1514 3.00120E+01 1.09375E+00 0.00000E+00
 -1      1515 2.85120E+01 1.09375E+00 0.00000E+00
 -1      1516 2.83740E+01 2.18750E+00 0.00000E+00
 -1      1517 3.30120E+01 1.09375E+00 0.00000E+00
 -1      1518 3.15120E+01 1.09375E+00 0.00000E+00
 -1      1519 3.13740E+01 2.18750E+00 0.00000E+00
 -1      1520 3.60120E+01 1.09375E+00 0.00000E+00
 -1      1521 3.45120E+01 1.09375E+00 0.00000E+00
 -1      1522 3.43740E+01 2.18750E+00 0.00000E+00
 -1      1523 3.90120E+01 1.09375E+00 0.00000E+00
 -1      1524 3.75120E+01 1.09375E+00 0.00000E+00
 -1      1525 3.73740E+01 2.18750E+00 0.00000E+00
 -1      1526 4.20120E+01 1.09375E+00 0.00000E+00
 -1      1527 4.05120E+01 1.09375E+00 0.00000E+00
 -1      1528 4.03740E+01 2.18750E+00 0.00000E+00
 -1      1529 4.50120E+01 1.09375E+00 0.00000E+00
 -1      1530 4.35120E+01 1.09375E+00 0.00000E+00
 -1      1531 4.33740E+01 2.18750E+00 0.00000E+00
 -1      1532 4.80120E+01 1.09375E+00 0.00000E+00
 -1      1533 4.65120E+01 1.09375E+00 0.00000E+00
 -1      1534 4.63740E+01 2.18750E+00 0.00000E+00
 -1      1535 5.10120E+01 1.09375E+00 0.00000E+00
 -1      1536 4.95120E+01 1.09375E+00 0.00000E+00
 -1      1537 4.93740E+01 2.18750E+00 0.00000E+00
 -1      1538 5.40120E+01 1.09375E+00 0.00000E+00
 -1      1539 5.25120E+01 1.09375E+00 0.00000E+00
 -1      1540 5.23740E+01 2.18750E+00 0.00000E+00
 -1      1541 5.70120E+01 1.09375E+00 0.00000E+00
 -1      1542 5.55120E+01 1.09375E+00 0.00000E+00
 -1      1543 5.53740E+01 2.18750E+00 0.00000E+00
 -1      1544 6.00120E+01 1.09375E+00 0.00000E+00
 -1      1545 5.85120E+01 1.09375E+00 0.00000E+00
 -1      1546 5.83740E+01 2.18750E+00 0.00000E+00
 -1      1547 6.30120E+01 1.09375E+00 0.00000E+00
 -1      1548 6.15120E+01 1.09375E+00 0.00000E+00
 -1      1549 6.13740E+01 2.18750E+00 0.00000E+00
 -1      1550 6.60120E+01 1.09375E+00 0.00000E+00
 -1      1551 6.45120E+01 1.09375E+00 0.00000E+00
 -1      1552 6.43740E+01 2.18750E+00 0.00000E+00
 -1      1553 6.90120E+01 1.09375E+00 0.00000E+00
 -1      1554 6.75120E+01 1.09375E+00 0.00000E+00
 -1      1555 6.73740E+01 2.18750E+00 0.00000E+00
 -1      1556 7.20120E+01 1.09375E+00 0.00000E+00
 -1      1557 7.05120E+01 1.09375E+00 0.00000E+00
 -1      1558 7.03740E+01 2.18750E+00 0.00000E+00
 -1      1559 7.50120E+01 1.09375E+00 0.00000E+00
 -1      1560 7.35120E+01 1.09375E+00 0.00000E+00
 -1      1561 7.33740E+01 2.18750E+00 0.00000E+00
 -1      1562 7.80120E+01 1.09375E+00 0.00000E+00
 -1      1563 7.65120E+01 1.09375E+00 0.00000E+00
 -1      1564 7.63740E+01 2.18750E+00 0.00000E+00
 -1      1565 8.10120E+01 1.09375E+00 0.00000E+00
 -1      1566 7.95120E+01 1.09375E+00 0.00000E+00
 -1      1567 7.93740E+01 2.18750E+00 0.00000E+00
 -1      1568 8.40120E+01 1.09375E+00 0.00000E+00
 -1      1569 8.25120E+01 1.09375E+00 0.00000E+00
 -1      1570 8.23740E+01 2.18750E+00 0.00000E+00
 -1      1571 8.70120E+01 1.09375E+00 0.00000E+00
 -1      1572 8.55120E+01 1.09375E+00 0.00000E+00
 -1      1573 8.53740E+01 2.18750E+00 0.00000E+00
 -1      1574 9.00120E+01 1.09375E+00 0.00000E+00
 -1      1575 8.85120E+01 1.09375E+00 0.00000E+00
 -1      1576 8.83740E+01 2.18750E+00 0.00000E+00
 -1      1577 9.30120E+01 1.09375E+00 0.00000E+00
 -1      1578 9.15120E+01 1.09375E+00 0.00000E+00
 -1      1579 9.13740E+01 2.18750E+00 0.00000E+00
 -1      1580 9.60120E+01 1.09375E+00 0.00000E+00
 -1      1581 9.45120E+01 1.09375E+00 0.00000E+00
 -1      1582 9.43740E+01 2.18750E+00 0.00000E+00
 -1      1583 9.90120E+01 1.09375E+00 0.00000E+00
 -1      1584 9.75120E+01 1.09375E+00 0.00000E+00
 -1      1585 9.73740E+01 2.18750E+00 0.00000E+00
 -1      1586 1.02012E+02 1.09375E+00 0.00000E+00
 -1      1587 1.00512E+02 1.09375E+00 0.00000E+00
 -1      1588 1.00374E+02 2.18750E+00 0.00000E+00
 -1      1589 1.05012E+02 1.09375E+00 0.00000E+00
 -1      1590 1.03512E+02 1.09375E+00 0.00000E+00
 -1      1591 1.03374E+02 2.18750E+00 0.00000E+00
 -1      1592 1.08012E+02 1.09375E+00 0.00000E+00
 -1      1593 1.06512E+02 1.09375E+00 0.00000E+00
 -1      1594 1.06374E+02 2.18750E+00 0.00000E+00
 -1      1595 1.11012E+02 1.09375E+00 0.00000E+00
 -1      1596 1.09512E+02 1.09375E+00 0.00000E+00
 -1      1597 1.09374E+02 2.18750E+00 0.00000E+00
 -1      1598 1.14012E+02 1.09375E+00 0.00000E+00
 -1      1599 1.12512E+02 1.09375E+00 0.00000E+00
 -1      1600 1.12374E+02 2.18750E+00 0.00000E+00
 -1      1601 1.17012E+02 1.09375E+00 0.00000E+00
 -1      1602 1.15512E+02 1.09375E+00 0.00000E+00
 -1      1603 1.15374E+02 2.18750E+00 0.00000E+00
 -1      1604 1.20012E+02 1.09375E+00 0.00000E+00
 -1      1605 1.18512E+02 1.09375E+00 0.00000E+00
 -1      1606 1.18374E+02 2.18750E+00 0.00000E+00
 -1      1607 1.23012E+02 1.09375E+00 0.00000E+00
 -1      1608 1.21512E+02 1.09375E+00 0.00000E+00
 -1      1609 1.21374E+02 2.18750E+00 0.00000E+00
 -1      1610 1.26012E+02 1.09375E+00 0.00000E+00
 -1      1611 1.24512E+02 1.09375E+00 0.00000E+00
 -1      1612 1.24374E+02 2.18750E+00 0.00000E+00
 -1      1613 1.29012E+02 1.09375E+00 0.00000E+00
 -1      1614 1.27512E+02 1.09375E+00 0.00000E+00
 -1      1615 1.27374E+02 2.18750E+00 0.00000E+00
 -1      1616 1.32012E+02 1.09375E+00 0.00000E+00
 -1      1617 1.30512E+02 1.09375E+00 0.00000E+00
 -1      1618 1.30374E+02 2.18750E+00 0.00000E+00
 -1      1619 1.35012E+02 1.09375E+00 0.00000E+00
 -1      1620 1.33512E+02 1.09375E+00 0.00000E+00
 -1      1621 1.33374E+02 2.18750E+00 0.00000E+00
 -1      1622 1.38012E+02 1.09375E+00 0.00000E+00
 -1      1623 1.36512E+02 1.09375E+00 0.00000E+00
 -1      1624 1.36374E+02 2.18750E+00 0.00000E+00
 -1      1625 1.41012E+02 1.09375E+00 0.00000E+00
 -1      1626 1.39512E+02 1.09375E+00 0.00000E+00
 -1      1627 1.39374E+02 2.18750E+00 0.00000E+00
 -1      1628 1.44012E+02 1.09375E+00 0.00000E+00
 -1      1629 1.42512E+02 1.09375E+00 0.00000E+00
 -1      1630 1.42374E+02 2.18750E+00 0.00000E+00
 -1      1631 1.47012E+02 1.09375E+00 0.00000E+00
 -1      1632 1.45512E+02 1.09375E+00 0.00000E+00
 -1      1633 1.45374E+02 2.18750E+00 0.00000E+00
 -1      1634 1.48575E+02 1.47500E+00 0.00000E+00
 -1      1635 1.48701E+02 5.16250E+00 0.00000E+00
 -1      1636 1.48701E+02 3.68750E+00 0.00000E+00
 -1      1637 1.48701E+02 8.11250E+00 0.00000E+00
 -1      1638 1.48701E+02 6.63750E+00 0.00000E+00
 -1      1639 1.47402E+02 5.90000E+00 0.00000E+00
 -1      1640 1.48701E+02 1.10625E+01 0.00000E+00
 -1      1641 1.48701E+02 9.58750E+00 0.00000E+00
 -1      1642 1.47402E+02 8.85000E+00 0.00000E+00
 -1      1643 1.48701E+02 1.40125E+01 0.00000E+00
 -1      1644 1.48701E+02 1.25375E+01 0.00000E+00
 -1      1645 1.47402E+02 1.18000E+01 0.00000E+00
 -1      1646 1.48701E+02 1.69125E+01 0.00000E+00
 -1      1647 1.48701E+02 1.54625E+01 0.00000E+00
 -1      1648 1.47402E+02 1.47250E+01 0.00000E+00
 -1      1649 1.48701E+02 1.98625E+01 0.00000E+00
 -1      1650 1.48701E+02 1.83875E+01 0.00000E+00
 -1      1651 1.47402E+02 1.76500E+01 0.00000E+00
 -1      1652 1.48701E+02 2.28125E+01 0.00000E+00
 -1      1653 1.48701E+02 2.13375E+01 0.00000E+00
 -1      1654 1.47402E+02 2.06000E+01 0.00000E+00
 -1      1655 1.48701E+02 2.57625E+01 0.00000E+00
 -1      1656 1.48701E+02 2.42875E+01 0.00000E+00
 -1      1657 1.47402E+02 2.35500E+01 0.00000E+00
 -1      1658 1.48701E+02 2.87125E+01 0.00000E+00
 -1      1659 1.48701E+02 2.72375E+01 0.00000E+00
 -1      1660 1.47402E+02 2.65000E+01 0.00000E+00
 -1      1661 1.48701E+02 3.16625E+01 0.00000E+00
 -1      1662 1.48701E+02 3.01875E+01 0.00000E+00
 -1      1663 1.47402E+02 2.94500E+01 0.00000E+00
 -1      1664 1.48701E+02 3.45625E+01 0.00000E+00
 -1      1665 1.48701E+02 3.31125E+01 0.00000E+00
 -1      1666 1.47402E+02 3.23750E+01 0.00000E+00
 -1      1667 1.48701E+02 3.75125E+01 0.00000E+00
 -1      1668 1.48701E+02 3.60375E+01 0.00000E+00
 -1      1669 1.47402E+02 3.53000E+01 0.00000E+00
 -1      1670 1.48701E+02 4.04625E+01 0.00000E+00
 -1      1671 1.48701E+02 3.89875E+01 0.00000E+00
 -1      1672 1.47402E+02 3.82500E+01 0.00000E+00
 -1      1673 1.48701E+02 4.34125E+01 0.00000E+00
 -1      1674 1.48701E+02 4.19375E+01 0.00000E+00
 -1      1675 1.47402E+02 4.12000E+01 0.00000E+00
 -1      1676 1.48263E+02 4.60692E+01 0.00000E+00
 -1      1677 1.48263E+02 4.45942E+01 0.00000E+00
 -1      1678 1.46964E+02 4.38568E+01 0.00000E+00
 -1      1679 1.46088E+02 4.62202E+01 0.00000E+00
 -1      1680 6.30730E+01 2.16082E+01 0.00000E+00
 -1      1681 6.31479E+01 2.23286E+01 0.00000E+00
 -1      1682 6.27634E+01 1.98716E+01 0.00000E+00
 -1      1683 6.30301E+01 2.06595E+01 0.00000E+00
 -1      1684 6.18542E+01 1.84890E+01 0.00000E+00
 -1      1685 6.22253E+01 1.90975E+01 0.00000E+00
 -1      1686 6.08262E+01 1.72698E+01 0.00000E+00
 -1      1687 6.13335E+01 1.78085E+01 0.00000E+00
 -1      1688 5.95820E+01 1.63442E+01 0.00000E+00
 -1      1689 6.01590E+01 1.67464E+01 0.00000E+00
 -1      1690 5.81121E+01 1.56325E+01 0.00000E+00
 -1      1691 5.88250E+01 1.59318E+01 0.00000E+00
 -1      1692 5.65479E+01 1.52466E+01 0.00000E+00
 -1      1693 5.72696E+01 1.53792E+01 0.00000E+00
 -1      1694 5.49411E+01 1.51620E+01 0.00000E+00
 -1      1695 5.56857E+01 1.51398E+01 0.00000E+00
 -1      1696 5.32490E+01 1.54527E+01 0.00000E+00
 -1      1697 5.40272E+01 1.52527E+01 0.00000E+00
 -1      1698 5.17284E+01 1.61620E+01 0.00000E+00
 -1      1699 5.23998E+01 1.58170E+01 0.00000E+00
 -1      1700 5.03970E+01 1.70799E+01 0.00000E+00
 -1      1701 5.09661E+01 1.66120E+01 0.00000E+00
 -1      1702 4.93084E+01 1.83048E+01 0.00000E+00
 -1      1703 4.97758E+01 1.77141E+01 0.00000E+00
 -1      1704 4.85978E+01 1.97189E+01 0.00000E+00
 -1      1705 4.89143E+01 1.90793E+01 0.00000E+00
 -1      1706 4.80771E+01 2.12347E+01 0.00000E+00
 -1      1707 4.82624E+01 2.05096E+01 0.00000E+00
 -1      1708 4.79636E+01 2.28167E+01 0.00000E+00
 -1      1709 4.79923E+01 2.20947E+01 0.00000E+00
 -1      1710 4.80073E+01 2.45232E+01 0.00000E+00
 -1      1711 4.78648E+01 2.37339E+01 0.00000E+00
 -1      1712 4.86743E+01 2.59667E+01 0.00000E+00
 -1      1713 4.84113E+01 2.53302E+01 0.00000E+00
 -1      1714 4.94160E+01 2.74208E+01 0.00000E+00
 -1      1715 4.89803E+01 2.67850E+01 0.00000E+00
 -1      1716 5.06006E+01 2.85549E+01 0.00000E+00
 -1      1717 5.00628E+01 2.80498E+01 0.00000E+00
 -1      1718 5.19599E+01 2.95235E+01 0.00000E+00
 -1      1719 5.12933E+01 2.91263E+01 0.00000E+00
 -1      1720 5.35060E+01 3.02244E+01 0.00000E+00
 -1      1721 5.27727E+01 2.99847E+01 0.00000E+00
 -1      1722 5.51602E+01 3.03222E+01 0.00000E+00
 -1      1723 5.44221E+01 3.02487E+01 0.00000E+00
 -1      1724 5.67665E+01 3.02744E+01 0.00000E+00
 -1      1725 5.60304E+01 3.03579E+01 0.00000E+00
 -1      1726 5.81953E+01 2.98579E+01 0.00000E+00
 -1      1727 5.75642E+01 3.00628E+01 0.00000E+00
 -1      1728 5.94947E+01 2.92247E+01 0.00000E+00
 -1      1729 5.89094E+01 2.95480E+01 0.00000E+00
 -1      1730 6.06334E+01 2.83741E+01 0.00000E+00
 -1      1731 6.01323E+01 2.87905E+01 0.00000E+00
 -1      1732 6.16140E+01 2.72926E+01 0.00000E+00
 -1      1733 6.11815E+01 2.78202E+01 0.00000E+00
 -1      1734 6.23843E+01 2.60149E+01 0.00000E+00
 -1      1735 6.20589E+01 2.66248E+01 0.00000E+00
 -1      1736 6.29796E+01 2.45897E+01 0.00000E+00
 -1      1737 6.27756E+01 2.52772E+01 0.00000E+00
 -1      1738 6.31142E+01 2.31356E+01 0.00000E+00
 -1      1739 6.30539E+01 2.37825E+01 0.00000E+00
 -1      1740 6.08844E+01 1.65714E+01 0.00000E+00
 -1      1741 6.20724E+01 1.77754E+01 0.00000E+00
 -1      1742 1.48437E+02 2.56875E+00 0.00000E+00
 -1      1743 1.47138E+02 3.30625E+00 0.00000E+00
 -1      1744 6.37122E+01 2.09527E+01 0.00000E+00
 -1      1745 6.31312E+01 1.92300E+01 0.00000E+00
 -1      1746 6.37214E+01 2.27083E+01 0.00000E+00
 -1      1747 5.94602E+01 1.56356E+01 0.00000E+00
 -1      1748 5.78608E+01 1.49699E+01 0.00000E+00
 -1      1749 5.61562E+01 1.46099E+01 0.00000E+00
 -1      1750 5.43802E+01 1.45938E+01 0.00000E+00
 -1      1751 5.26171E+01 1.50488E+01 0.00000E+00
 -1      1752 5.10056E+01 1.58630E+01 0.00000E+00
 -1      1753 4.96222E+01 1.69472E+01 0.00000E+00
 -1      1754 4.86069E+01 1.83558E+01 0.00000E+00
 -1      1755 4.78773E+01 1.99210E+01 0.00000E+00
 -1      1756 4.74570E+01 2.15717E+01 0.00000E+00
 -1      1757 4.72734E+01 2.33488E+01 0.00000E+00
 -1      1758 4.75786E+01 2.50730E+01 0.00000E+00
 -1      1759 4.82885E+01 2.66983E+01 0.00000E+00
 -1      1760 4.92412E+01 2.81457E+01 0.00000E+00
 -1      1761 5.05807E+01 2.93462E+01 0.00000E+00
 -1      1762 5.20862E+01 3.03789E+01 0.00000E+00
 -1      1763 5.38150E+01 3.08643E+01 0.00000E+00
 -1      1764 5.56013E+01 3.09244E+01 0.00000E+00
 -1      1765 5.72692E+01 3.07485E+01 0.00000E+00
 -1      1766 5.87810E+01 3.02270E+01 0.00000E+00
 -1      1767 6.01327E+01 2.94828E+01 0.00000E+00
 -1      1768 6.13184E+01 2.84946E+01 0.00000E+00
 -1      1769 6.23115E+01 2.72729E+01 0.00000E+00
 -1      1770 6.31477E+01 2.58675E+01 0.00000E+00
 -1      1771 6.36134E+01 2.43225E+01 0.00000E+00
 -1      1772 2.87400E+00 4.77875E+01 0.00000E+00
 -1      1773 3.89700E+00 4.04125E+01 0.00000E+00
 -1      1774 3.89700E+00 4.18875E+01 0.00000E+00
 -1      1775 3.89700E+00 4.33625E+01 0.00000E+00
 -1      1776 3.89700E+00 4.48375E+01 0.00000E+00
 -1      1777 5.19600E+00 4.26250E+01 0.00000E+00
 -1      1778 3.89700E+00 3.45500E+01 0.00000E+00
 -1      1779 3.89700E+00 3.60000E+01 0.00000E+00
 -1      1780 3.89700E+00 3.16000E+01 0.00000E+00
 -1      1781 3.89700E+00 3.30750E+01 0.00000E+00
 -1      1782 5.19600E+00 3.38000E+01 0.00000E+00
 -1      1783 3.89700E+00 2.86500E+01 0.00000E+00
 -1      1784 3.89700E+00 3.01250E+01 0.00000E+00
 -1      1785 5.19600E+00 3.08500E+01 0.00000E+00
 -1      1786 3.89700E+00 2.57000E+01 0.00000E+00
 -1      1787 3.89700E+00 2.71750E+01 0.00000E+00
 -1      1788 5.19600E+00 2.79000E+01 0.00000E+00
 -1      1789 3.89700E+00 2.27500E+01 0.00000E+00
 -1      1790 3.89700E+00 2.42250E+01 0.00000E+00
 -1      1791 5.19600E+00 2.49500E+01 0.00000E+00
 -1      1792 3.89700E+00 1.98000E+01 0.00000E+00
 -1      1793 3.89700E+00 2.12750E+01 0.00000E+00
 -1      1794 5.19600E+00 2.20000E+01 0.00000E+00
 -1      1795 3.89700E+00 1.69000E+01 0.00000E+00
 -1      1796 3.89700E+00 1.83500E+01 0.00000E+00
 -1      1797 5.19600E+00 1.90750E+01 0.00000E+00
 -1      1798 3.89700E+00 1.39500E+01 0.00000E+00
 -1      1799 3.89700E+00 1.54250E+01 0.00000E+00
 -1      1800 5.19600E+00 1.61500E+01 0.00000E+00
 -1      1801 3.89700E+00 1.10000E+01 0.00000E+00
 -1      1802 3.89700E+00 1.24750E+01 0.00000E+00
 -1      1803 5.19600E+00 1.32000E+01 0.00000E+00
 -1      1804 3.89700E+00 8.05000E+00 0.00000E+00
 -1      1805 3.89700E+00 9.52500E+00 0.00000E+00
 -1      1806 5.19600E+00 1.02500E+01 0.00000E+00
 -1      1807 3.89700E+00 5.10000E+00 0.00000E+00
 -1      1808 3.89700E+00 6.57500E+00 0.00000E+00
 -1      1809 5.19600E+00 7.30000E+00 0.00000E+00
 -1      1810 4.20450E+00 3.09687E+00 0.00000E+00
 -1      1811 4.06650E+00 4.19063E+00 0.00000E+00
 -1      1812 5.36550E+00 4.91563E+00 0.00000E+00
 -1      1813 5.70450E+00 3.09687E+00 0.00000E+00
 -1      1814 3.62400E+00 4.64885E+01 0.00000E+00
 -1      1815 8.70450E+00 3.09687E+00 0.00000E+00
 -1      1816 7.20450E+00 3.09687E+00 0.00000E+00
 -1      1817 7.03500E+00 4.00625E+00 0.00000E+00
 -1      1818 4.92300E+00 4.57510E+01 0.00000E+00
 -1      1819 8.40000E+00 4.61030E+01 0.00000E+00
 -1      1820 9.90000E+00 4.61030E+01 0.00000E+00
 -1      1821 1.14000E+01 4.61030E+01 0.00000E+00
 -1      1822 1.29000E+01 4.61030E+01 0.00000E+00
 -1      1823 1.06500E+01 4.48040E+01 0.00000E+00
 -1      1824 1.44000E+01 4.61030E+01 0.00000E+00
 -1      1825 1.59000E+01 4.61030E+01 0.00000E+00
 -1      1826 1.36500E+01 4.48040E+01 0.00000E+00
 -1      1827 1.74000E+01 4.61030E+01 0.00000E+00
 -1      1828 1.89000E+01 4.61030E+01 0.00000E+00
 -1      1829 1.66500E+01 4.48040E+01 0.00000E+00
 -1      1830 2.04000E+01 4.61030E+01 0.00000E+00
 -1      1831 2.19000E+01 4.61030E+01 0.00000E+00
 -1      1832 1.96500E+01 4.48040E+01 0.00000E+00
 -1      1833 2.34000E+01 4.61030E+01 0.00000E+00
 -1      1834 2.49000E+01 4.61030E+01 0.00000E+00
 -1      1835 2.26500E+01 4.48040E+01 0.00000E+00
 -1      1836 2.64000E+01 4.61030E+01 0.00000E+00
 -1      1837 2.79000E+01 4.61030E+01 0.00000E+00
 -1      1838 2.56500E+01 4.48040E+01 0.00000E+00
 -1      1839 2.94000E+01 4.61030E+01 0.00000E+00
 -1      1840 3.09000E+01 4.61030E+01 0.00000E+00
 -1      1841 2.86500E+01 4.48040E+01 0.00000E+00
 -1      1842 3.24000E+01 4.61030E+01 0.00000E+00
 -1      1843 3.39000E+01 4.61030E+01 0.00000E+00
 -1      1844 3.16500E+01 4.48040E+01 0.00000E+00
 -1      1845 3.54000E+01 4.61030E+01 0.00000E+00
 -1      1846 3.69000E+01 4.61030E+01 0.00000E+00
 -1      1847 3.46500E+01 4.48040E+01 0.00000E+00
 -1      1848 3.84000E+01 4.61030E+01 0.00000E+00
 -1      1849 3.99000E+01 4.61030E+01 0.00000E+00
 -1      1850 3.76500E+01 4.48040E+01 0.00000E+00
 -1      1851 4.14000E+01 4.61030E+01 0.00000E+00
 -1      1852 4.29000E+01 4.61030E+01 0.00000E+00
 -1      1853 4.06500E+01 4.48040E+01 0.00000E+00
 -1      1854 4.44000E+01 4.61030E+01 0.00000E+00
 -1      1855 4.59000E+01 4.61030E+01 0.00000E+00
 -1      1856 4.36500E+01 4.48040E+01 0.00000E+00
 -1      1857 4.74000E+01 4.61030E+01 0.00000E+00
 -1      1858 4.89000E+01 4.61030E+01 0.00000E+00
 -1      1859 4.66500E+01 4.48040E+01 0.00000E+00
 -1      1860 5.04000E+01 4.61030E+01 0.00000E+00
 -1      1861 5.19000E+01 4.61030E+01 0.00000E+00
 -1      1862 4.96500E+01 4.48040E+01 0.00000E+00
 -1      1863 5.34000E+01 4.61030E+01 0.00000E+00
 -1      1864 5.49000E+01 4.61030E+01 0.00000E+00
 -1      1865 5.26500E+01 4.48040E+01 0.00000E+00
 -1      1866 5.64000E+01 4.61030E+01 0.00000E+00
 -1      1867 5.79000E+01 4.61030E+01 0.00000E+00
 -1      1868 5.56500E+01 4.48040E+01 0.00000E+00
 -1      1869 5.94000E+01 4.61030E+01 0.00000E+00
 -1      1870 6.09000E+01 4.61030E+01 0.00000E+00
 -1      1871 5.86500E+01 4.48040E+01 0.00000E+00
 -1      1872 6.24000E+01 4.61030E+01 0.00000E+00
 -1      1873 6.39000E+01 4.61030E+01 0.00000E+00
 -1      1874 6.16500E+01 4.48040E+01 0.00000E+00
 -1      1875 6.54000E+01 4.61030E+01 0.00000E+00
 -1      1876 6.69000E+01 4.61030E+01 0.00000E+00
 -1      1877 6.46500E+01 4.48040E+01 0.00000E+00
 -1      1878 6.84000E+01 4.61030E+01 0.00000E+00
 -1      1879 6.99000E+01 4.61030E+01 0.00000E+00
 -1      1880 6.76500E+01 4.48040E+01 0.00000E+00
 -1      1881 7.14000E+01 4.61030E+01 0.00000E+00
 -1      1882 7.29000E+01 4.61030E+01 0.00000E+00
 -1      1883 7.06500E+01 4.48040E+01 0.00000E+00
 -1      1884 7.44000E+01 4.61030E+01 0.00000E+00
 -1      1885 7.59000E+01 4.61030E+01 0.00000E+00
 -1      1886 7.36500E+01 4.48040E+01 0.00000E+00
 -1      1887 7.74000E+01 4.61030E+01 0.00000E+00
 -1      1888 7.89000E+01 4.61030E+01 0.00000E+00
 -1      1889 7.66500E+01 4.48040E+01 0.00000E+00
 -1      1890 8.04000E+01 4.61030E+01 0.00000E+00
 -1      1891 8.19000E+01 4.61030E+01 0.00000E+00
 -1      1892 7.96500E+01 4.48040E+01 0.00000E+00
 -1      1893 8.34000E+01 4.61030E+01 0.00000E+00
 -1      1894 8.49000E+01 4.61030E+01 0.00000E+00
 -1      1895 8.26500E+01 4.48040E+01 0.00000E+00
 -1      1896 8.64000E+01 4.61030E+01 0.00000E+00
 -1      1897 8.79000E+01 4.61030E+01 0.00000E+00
 -1      1898 8.56500E+01 4.48040E+01 0.00000E+00
 -1      1899 8.94000E+01 4.61030E+01 0.00000E+00
 -1      1900 9.09000E+01 4.61030E+01 0.00000E+00
 -1      1901 8.86500E+01 4.48040E+01 0.00000E+00
 -1      1902 9.24000E+01 4.61030E+01 0.00000E+00
 -1      1903 9.39000E+01 4.61030E+01 0.00000E+00
 -1      1904 9.16500E+01 4.48040E+01 0.00000E+00
 -1      1905 9.54000E+01 4.61030E+01 0.00000E+00
 -1      1906 9.69000E+01 4.61030E+01 0.00000E+00
 -1      1907 9.46500E+01 4.48040E+01 0.00000E+00
 -1      1908 9.84000E+01 4.61030E+01 0.00000E+00
 -1      1909 9.99000E+01 4.61030E+01 0.00000E+00
 -1      1910 9.76500E+01 4.48040E+01 0.00000E+00
 -1      1911 1.01400E+02 4.61030E+01 0.00000E+00
 -1      1912 1.02900E+02 4.61030E+01 0.00000E+00
 -1      1913 1.00650E+02 4.48040E+01 0.00000E+00
 -1      1914 1.04400E+02 4.61030E+01 0.00000E+00
 -1      1915 1.05900E+02 4.61030E+01 0.00000E+00
 -1      1916 1.03650E+02 4.48040E+01 0.00000E+00
 -1      1917 1.07400E+02 4.61030E+01 0.00000E+00
 -1      1918 1.08900E+02 4.61030E+01 0.00000E+00
 -1      1919 1.06650E+02 4.48040E+01 0.00000E+00
 -1      1920 1.10400E+02 4.61030E+01 0.00000E+00
 -1      1921 1.11900E+02 4.61030E+01 0.00000E+00
 -1      1922 1.09650E+02 4.48040E+01 0.00000E+00
 -1      1923 1.13400E+02 4.61030E+01 0.00000E+00
 -1      1924 1.14900E+02 4.61030E+01 0.00000E+00
 -1      1925 1.12650E+02 4.48040E+01 0.00000E+00
 -1      1926 1.16400E+02 4.61030E+01 0.00000E+00
 -1      1927 1.17900E+02 4.61030E+01 0.00000E+00
 -1      1928 1.15650E+02 4.48040E+01 0.00000E+00
 -1      1929 1.19400E+02 4.61030E+01 0.00000E+00
 -1      1930 1.20900E+02 4.61030E+01 0.00000E+00
 -1      1931 1.18650E+02 4.48040E+01 0.00000E+00
 -1      1932 1.22400E+02 4.61030E+01 0.00000E+00
 -1      1933 1.23900E+02 4.61030E+01 0.00000E+00
 -1      1934 1.21650E+02 4.48040E+01 0.00000E+00
 -1      1935 1.25400E+02 4.61030E+01 0.00000E+00
 -1      1936 1.26900E+02 4.61030E+01 0.00000E+00
 -1      1937 1.24650E+02 4.48040E+01 0.00000E+00
 -1      1938 1.28400E+02 4.61030E+01 0.00000E+00
 -1      1939 1.29900E+02 4.61030E+01 0.00000E+00
 -1      1940 1.27650E+02 4.48040E+01 0.00000E+00
 -1      1941 1.31400E+02 4.61030E+01 0.00000E+00
 -1      1942 1.32900E+02 4.61030E+01 0.00000E+00
 -1      1943 1.30650E+02 4.48040E+01 0.00000E+00
 -1      1944 1.34400E+02 4.61030E+01 0.00000E+00
 -1      1945 1.35900E+02 4.61030E+01 0.00000E+00
 -1      1946 1.33650E+02 4.48040E+01 0.00000E+00
 -1      1947 1.37400E+02 4.61030E+01 0.00000E+00
 -1      1948 1.38900E+02 4.61030E+01 0.00000E+00
 -1      1949 1.36650E+02 4.48040E+01 0.00000E+00
 -1      1950 1.40400E+02 4.61030E+01 0.00000E+00
 -1      1951 1.41900E+02 4.61030E+01 0.00000E+00
 -1      1952 1.39650E+02 4.48040E+01 0.00000E+00
 -1      1953 1.43244E+02 4.61616E+01 0.00000E+00
 -1      1954 1.44744E+02 4.61616E+01 0.00000E+00
 -1      1955 1.45182E+02 4.49799E+01 0.00000E+00
 -1      1956 1.42494E+02 4.48626E+01 0.00000E+00
 -1      1957 1.17045E+01 3.09687E+00 0.00000E+00
 -1      1958 1.02045E+01 3.09687E+00 0.00000E+00
 -1      1959 1.00350E+01 4.00625E+00 0.00000E+00
 -1      1960 1.47045E+01 3.09687E+00 0.00000E+00
 -1      1961 1.32045E+01 3.09687E+00 0.00000E+00
 -1      1962 1.30350E+01 4.00625E+00 0.00000E+00
 -1      1963 1.77045E+01 3.09687E+00 0.00000E+00
 -1      1964 1.62045E+01 3.09687E+00 0.00000E+00
 -1      1965 1.60350E+01 4.00625E+00 0.00000E+00
 -1      1966 2.07045E+01 3.09687E+00 0.00000E+00
 -1      1967 1.92045E+01 3.09687E+00 0.00000E+00
 -1      1968 1.90350E+01 4.00625E+00 0.00000E+00
 -1      1969 2.37045E+01 3.09687E+00 0.00000E+00
 -1      1970 2.22045E+01 3.09687E+00 0.00000E+00
 -1      1971 2.20350E+01 4.00625E+00 0.00000E+00
 -1      1972 2.67045E+01 3.09687E+00 0.00000E+00
 -1      1973 2.52045E+01 3.09687E+00 0.00000E+00
 -1      1974 2.50350E+01 4.00625E+00 0.00000E+00
 -1      1975 2.97045E+01 3.09687E+00 0.00000E+00
 -1      1976 2.82045E+01 3.09687E+00 0.00000E+00
 -1      1977 2.80350E+01 4.00625E+00 0.00000E+00
 -1      1978 3.27045E+01 3.09687E+00 0.00000E+00
 -1      1979 3.12045E+01 3.09687E+00 0.00000E+00
 -1      1980 3.10350E+01 4.00625E+00 0.00000E+00
 -1      1981 3.57045E+01 3.09687E+00 0.00000E+00
 -1      1982 3.42045E+01 3.09687E+00 0.00000E+00
 -1      1983 3.40350E+01 4.00625E+00 0.00000E+00
 -1      1984 3.87045E+01 3.09687E+00 0.00000E+00
 -1      1985 3.72045E+01 3.09687E+00 0.00000E+00
 -1      1986 3.70350E+01 4.00625E+00 0.00000E+00
 -1      1987 4.17045E+01 3.09687E+00 0.00000E+00
 -1      1988 4.02045E+01 3.09687E+00 0.00000E+00
 -1      1989 4.00350E+01 4.00625E+00 0.00000E+00
 -1      1990 4.47045E+01 3.09687E+00 0.00000E+00
 -1      1991 4.32045E+01 3.09687E+00 0.00000E+00
 -1      1992 4.30350E+01 4.00625E+00 0.00000E+00
 -1      1993 4.77045E+01 3.09687E+00 0.00000E+00
 -1      1994 4.62045E+01 3.09687E+00 0.00000E+00
 -1      1995 4.60350E+01 4.00625E+00 0.00000E+00
 -1      1996 5.07045E+01 3.09687E+00 0.00000E+00
 -1      1997 4.92045E+01 3.09687E+00 0.00000E+00
 -1      1998 4.90350E+01 4.00625E+00 0.00000E+00
 -1      1999 5.37045E+01 3.09687E+00 0.00000E+00
 -1      2000 5.22045E+01 3.09687E+00 0.00000E+00
 -1      2001 5.20350E+01 4.00625E+00 0.00000E+00
 -1      2002 5.67045E+01 3.09687E+00 0.00000E+00
 -1      2003 5.52045E+01 3.09687E+00 0.00000E+00
 -1      2004 5.50350E+01 4.00625E+00 0.00000E+00
 -1      2005 5.97045E+01 3.09687E+00 0.00000E+00
 -1      2006 5.82045E+01 3.09687E+00 0.00000E+00
 -1      2007 5.80350E+01 4.00625E+00 0.00000E+00
 -1      2008 6.27045E+01 3.09687E+00 0.00000E+00
 -1      2009 6.12045E+01 3.09687E+00 0.00000E+00
 -1      2010 6.10350E+01 4.00625E+00 0.00000E+00
 -1      2011 6.57045E+01 3.09687E+00 0.00000E+00
 -1      2012 6.42045E+01 3.09687E+00 0.00000E+00
 -1      2013 6.40350E+01 4.00625E+00 0.00000E+00
 -1      2014 6.87045E+01 3.09687E+00 0.00000E+00
 -1      2015 6.72045E+01 3.09687E+00 0.00000E+00
 -1      2016 6.70350E+01 4.00625E+00 0.00000E+00
 -1      2017 7.17045E+01 3.09687E+00 0.00000E+00
 -1      2018 7.02045E+01 3.09687E+00 0.00000E+00
 -1      2019 7.00350E+01 4.00625E+00 0.00000E+00
 -1      2020 7.47045E+01 3.09687E+00 0.00000E+00
 -1      2021 7.32045E+01 3.09687E+00 0.00000E+00
 -1      2022 7.30350E+01 4.00625E+00 0.00000E+00
 -1      2023 7.77045E+01 3.09687E+00 0.00000E+00
 -1      2024 7.62045E+01 3.09687E+00 0.00000E+00
 -1      2025 7.60350E+01 4.00625E+00 0.00000E+00
 -1      2026 8.07045E+01 3.09687E+00 0.00000E+00
 -1      2027 7.92045E+01 3.09687E+00 0.00000E+00
 -1      2028 7.90350E+01 4.00625E+00 0.00000E+00
 -1      2029 8.37045E+01 3.09687E+00 0.00000E+00
 -1      2030 8.22045E+01 3.09687E+00 0.00000E+00
 -1      2031 8.20350E+01 4.00625E+00 0.00000E+00
 -1      2032 8.67045E+01 3.09687E+00 0.00000E+00
 -1      2033 8.52045E+01 3.09687E+00 0.00000E+00
 -1      2034 8.50350E+01 4.00625E+00 0.00000E+00
 -1      2035 8.97045E+01 3.09687E+00 0.00000E+00
 -1      2036 8.82045E+01 3.09687E+00 0.00000E+00
 -1      2037 8.80350E+01 4.00625E+00 0.00000E+00
 -1      2038 9.27045E+01 3.09687E+00 0.00000E+00
 -1      2039 9.12045E+01 3.09687E+00 0.00000E+00
 -1      2040 9.10350E+01 4.00625E+00 0.00000E+00
 -1      2041 9.57045E+01 3.09687E+00 0.00000E+00
 -1      2042 9.42045E+01 3.09687E+00 0.00000E+00
 -1      2043 9.40350E+01 4.00625E+00 0.00000E+00
 -1      2044 9.87045E+01 3.09687E+00 0.00000E+00
 -1      2045 9.72045E+01 3.09687E+00 0.00000E+00
 -1      2046 9.70350E+01 4.00625E+00 0.00000E+00
 -1      2047 1.01704E+02 3.09687E+00 0.00000E+00
 -1      2048 1.00204E+02 3.09687E+00 0.00000E+00
 -1      2049 1.00035E+02 4.00625E+00 0.00000E+00
 -1      2050 1.04704E+02 3.09687E+00 0.00000E+00
 -1      2051 1.03204E+02 3.09687E+00 0.00000E+00
 -1      2052 1.03035E+02 4.00625E+00 0.00000E+00
 -1      2053 1.07704E+02 3.09687E+00 0.00000E+00
 -1      2054 1.06204E+02 3.09687E+00 0.00000E+00
 -1      2055 1.06035E+02 4.00625E+00 0.00000E+00
 -1      2056 1.10704E+02 3.09687E+00 0.00000E+00
 -1      2057 1.09204E+02 3.09687E+00 0.00000E+00
 -1      2058 1.09035E+02 4.00625E+00 0.00000E+00
 -1      2059 1.13704E+02 3.09687E+00 0.00000E+00
 -1      2060 1.12204E+02 3.09687E+00 0.00000E+00
 -1      2061 1.12035E+02 4.00625E+00 0.00000E+00
 -1      2062 1.16704E+02 3.09687E+00 0.00000E+00
 -1      2063 1.15204E+02 3.09687E+00 0.00000E+00
 -1      2064 1.15035E+02 4.00625E+00 0.00000E+00
 -1      2065 1.19704E+02 3.09687E+00 0.00000E+00
 -1      2066 1.18204E+02 3.09687E+00 0.00000E+00
 -1      2067 1.18035E+02 4.00625E+00 0.00000E+00
 -1      2068 1.22704E+02 3.09687E+00 0.00000E+00
 -1      2069 1.21204E+02 3.09687E+00 0.00000E+00
 -1      2070 1.21035E+02 4.00625E+00 0.00000E+00
 -1      2071 1.25704E+02 3.09687E+00 0.00000E+00
 -1      2072 1.24204E+02 3.09687E+00 0.00000E+00
 -1      2073 1.24035E+02 4.00625E+00 0.00000E+00
 -1      2074 1.28704E+02 3.09687E+00 0.00000E+00
 -1      2075 1.27204E+02 3.09687E+00 0.00000E+00
 -1      2076 1.27035E+02 4.00625E+00 0.00000E+00
 -1      2077 1.31704E+02 3.09687E+00 0.00000E+00
 -1      2078 1.30204E+02 3.09687E+00 0.00000E+00
 -1      2079 1.30035E+02 4.00625E+00 0.00000E+00
 -1      2080 1.34704E+02 3.09687E+00 0.00000E+00
 -1      2081 1.33204E+02 3.09687E+00 0.00000E+00
 -1      2082 1.33035E+02 4.00625E+00 0.00000E+00
 -1      2083 1.37704E+02 3.09687E+00 0.00000E+00
 -1      2084 1.36204E+02 3.09687E+00 0.00000E+00
 -1      2085 1.36035E+02 4.00625E+00 0.00000E+00
 -1      2086 1.40704E+02 3.09687E+00 0.00000E+00
 -1      2087 1.39204E+02 3.09687E+00 0.00000E+00
 -1      2088 1.39035E+02 4.00625E+00 0.00000E+00
 -1      2089 1.43704E+02 3.09687E+00 0.00000E+00
 -1      2090 1.42204E+02 3.09687E+00 0.00000E+00
 -1      2091 1.42035E+02 4.00625E+00 0.00000E+00
 -1      2092 1.46171E+02 3.20156E+00 0.00000E+00
 -1      2093 1.44671E+02 3.20156E+00 0.00000E+00
 -1      2094 1.44502E+02 4.11094E+00 0.00000E+00
 -1      2095 1.46435E+02 4.32031E+00 0.00000E+00
 -1      2096 1.46103E+02 1.25375E+01 0.00000E+00
 -1      2097 1.46103E+02 1.10625E+01 0.00000E+00
 -1      2098 1.46103E+02 9.58750E+00 0.00000E+00
 -1      2099 1.46103E+02 8.11250E+00 0.00000E+00
 -1      2100 1.44804E+02 1.03250E+01 0.00000E+00
 -1      2101 1.46269E+02 6.95391E+00 0.00000E+00
 -1      2102 1.46269E+02 5.47891E+00 0.00000E+00
 -1      2103 1.45302E+02 5.37422E+00 0.00000E+00
 -1      2104 1.44970E+02 7.69141E+00 0.00000E+00
 -1      2105 1.46103E+02 1.54375E+01 0.00000E+00
 -1      2106 1.46103E+02 1.39875E+01 0.00000E+00
 -1      2107 1.44804E+02 1.32500E+01 0.00000E+00
 -1      2108 1.46103E+02 1.83875E+01 0.00000E+00
 -1      2109 1.46103E+02 1.69125E+01 0.00000E+00
 -1      2110 1.44804E+02 1.61750E+01 0.00000E+00
 -1      2111 1.46103E+02 2.13375E+01 0.00000E+00
 -1      2112 1.46103E+02 1.98625E+01 0.00000E+00
 -1      2113 1.44804E+02 1.91250E+01 0.00000E+00
 -1      2114 1.46103E+02 2.42875E+01 0.00000E+00
 -1      2115 1.46103E+02 2.28125E+01 0.00000E+00
 -1      2116 1.44804E+02 2.20750E+01 0.00000E+00
 -1      2117 1.46103E+02 2.72375E+01 0.00000E+00
 -1      2118 1.46103E+02 2.57625E+01 0.00000E+00
 -1      2119 1.44804E+02 2.50250E+01 0.00000E+00
 -1      2120 1.46103E+02 3.01875E+01 0.00000E+00
 -1      2121 1.46103E+02 2.87125E+01 0.00000E+00
 -1      2122 1.44804E+02 2.79750E+01 0.00000E+00
 -1      2123 1.46103E+02 3.30875E+01 0.00000E+00
 -1      2124 1.46103E+02 3.16375E+01 0.00000E+00
 -1      2125 1.44804E+02 3.09000E+01 0.00000E+00
 -1      2126 1.46103E+02 3.60375E+01 0.00000E+00
 -1      2127 1.46103E+02 3.45625E+01 0.00000E+00
 -1      2128 1.44804E+02 3.38250E+01 0.00000E+00
 -1      2129 1.46103E+02 3.89875E+01 0.00000E+00
 -1      2130 1.46103E+02 3.75125E+01 0.00000E+00
 -1      2131 1.44804E+02 3.67750E+01 0.00000E+00
 -1      2132 1.46103E+02 4.19375E+01 0.00000E+00
 -1      2133 1.46103E+02 4.04625E+01 0.00000E+00
 -1      2134 1.44804E+02 3.97250E+01 0.00000E+00
 -1      2135 6.34631E+01 1.84252E+01 0.00000E+00
 -1      2136 6.40012E+01 1.91992E+01 0.00000E+00
 -1      2137 6.44276E+01 2.23336E+01 0.00000E+00
 -1      2138 6.43939E+01 2.31406E+01 0.00000E+00
 -1      2139 6.44638E+01 2.04434E+01 0.00000E+00
 -1      2140 6.45066E+01 2.13921E+01 0.00000E+00
 -1      2141 6.23933E+01 1.69903E+01 0.00000E+00
 -1      2142 6.29140E+01 1.76709E+01 0.00000E+00
 -1      2143 6.09766E+01 1.57669E+01 0.00000E+00
 -1      2144 6.16439E+01 1.62902E+01 0.00000E+00
 -1      2145 3.89700E+00 3.74688E+01 0.00000E+00
 -1      2146 3.89700E+00 3.89437E+01 0.00000E+00
 -1      2147 5.19600E+00 3.96813E+01 0.00000E+00
 -1      2148 5.19600E+00 3.67438E+01 0.00000E+00
 -1      2149 5.76623E+01 1.41023E+01 0.00000E+00
 -1      2150 5.85047E+01 1.43555E+01 0.00000E+00
 -1      2151 5.58099E+01 1.38717E+01 0.00000E+00
 -1      2152 5.66721E+01 1.39785E+01 0.00000E+00
 -1      2153 5.38386E+01 1.37858E+01 0.00000E+00
 -1      2154 5.47524E+01 1.36951E+01 0.00000E+00
 -1      2155 5.18875E+01 1.45198E+01 0.00000E+00
 -1      2156 5.27367E+01 1.41555E+01 0.00000E+00
 -1      2157 5.02098E+01 1.53856E+01 0.00000E+00
 -1      2158 5.09721E+01 1.49356E+01 0.00000E+00
 -1      2159 4.88187E+01 1.67814E+01 0.00000E+00
 -1      2160 4.94398E+01 1.61473E+01 0.00000E+00
 -1      2161 4.77948E+01 1.84301E+01 0.00000E+00
 -1      2162 4.81890E+01 1.76556E+01 0.00000E+00
 -1      2163 4.71129E+01 2.00632E+01 0.00000E+00
 -1      2164 4.74484E+01 1.92725E+01 0.00000E+00
 -1      2165 4.66446E+01 2.19257E+01 0.00000E+00
 -1      2166 4.67294E+01 2.10658E+01 0.00000E+00
 -1      2167 4.64469E+01 2.37601E+01 0.00000E+00
 -1      2168 4.65458E+01 2.28429E+01 0.00000E+00
 -1      2169 4.58181E+01 2.23370E+01 0.00000E+00
 -1      2170 4.72011E+01 2.57666E+01 0.00000E+00
 -1      2171 4.67970E+01 2.49596E+01 0.00000E+00
 -1      2172 4.78129E+01 2.74032E+01 0.00000E+00
 -1      2173 4.75070E+01 2.65849E+01 0.00000E+00
 -1      2174 4.67255E+01 2.64716E+01 0.00000E+00
 -1      2175 4.90544E+01 2.89849E+01 0.00000E+00
 -1      2176 4.84076E+01 2.83558E+01 0.00000E+00
 -1      2177 5.04613E+01 3.01965E+01 0.00000E+00
 -1      2178 4.97686E+01 2.96251E+01 0.00000E+00
 -1      2179 5.21521E+01 3.12096E+01 0.00000E+00
 -1      2180 5.13393E+01 3.07484E+01 0.00000E+00
 -1      2181 5.42548E+01 3.15662E+01 0.00000E+00
 -1      2182 5.33387E+01 3.15419E+01 0.00000E+00
 -1      2183 5.59952E+01 3.16377E+01 0.00000E+00
 -1      2184 5.51250E+01 3.16020E+01 0.00000E+00
 -1      2185 5.46487E+01 3.22796E+01 0.00000E+00
 -1      2186 5.78557E+01 3.13502E+01 0.00000E+00
 -1      2187 5.70580E+01 3.15617E+01 0.00000E+00
 -1      2188 5.94128E+01 3.07049E+01 0.00000E+00
 -1      2189 5.86987E+01 3.10149E+01 0.00000E+00
 -1      2190 6.08399E+01 2.98359E+01 0.00000E+00
 -1      2191 6.02023E+01 3.02702E+01 0.00000E+00
 -1      2192 6.20830E+01 2.87029E+01 0.00000E+00
 -1      2193 6.15348E+01 2.92569E+01 0.00000E+00
 -1      2194 6.31081E+01 2.73217E+01 0.00000E+00
 -1      2195 6.26632E+01 2.79894E+01 0.00000E+00
 -1      2196 6.38908E+01 2.58463E+01 0.00000E+00
 -1      2197 6.34995E+01 2.65840E+01 0.00000E+00
 -1      2198 6.38512E+01 2.73004E+01 0.00000E+00
 -1      2199 6.43196E+01 2.39479E+01 0.00000E+00
 -1      2200 6.42453E+01 2.47551E+01 0.00000E+00
 -1      2201 6.50258E+01 2.35732E+01 0.00000E+00
 -1      2202 5.93917E+01 1.48603E+01 0.00000E+00
 -1      2203 6.01487E+01 1.52727E+01 0.00000E+00
 -1      2204 6.24855E+01 1.61858E+01 0.00000E+00
 -1      2205 6.42300E+00 4.57510E+01 0.00000E+00
 -1      2206 6.09082E+01 1.49915E+01 0.00000E+00
 -1      2207 5.91933E+01 1.39927E+01 0.00000E+00
 -1      2208 7.17300E+00 4.44520E+01 0.00000E+00
 -1      2209 6.47956E+01 1.96386E+01 0.00000E+00
 -1      2210 6.55900E+01 2.00780E+01 0.00000E+00
 -1      2211 6.51275E+01 1.88338E+01 0.00000E+00
 -1      2212 6.51792E+01 2.18244E+01 0.00000E+00
 -1      2213 1.45665E+02 4.31193E+01 0.00000E+00
 -1      2214 6.37840E+01 1.76401E+01 0.00000E+00
 -1      2215 6.45970E+01 2.54716E+01 0.00000E+00
 -1      2216 6.49488E+01 2.61880E+01 0.00000E+00
 -1      2217 6.53033E+01 2.50969E+01 0.00000E+00
 -1      2218 6.28796E+01 2.87517E+01 0.00000E+00
 -1      2219 6.16044E+01 3.00443E+01 0.00000E+00
 -1      2220 6.01200E+01 3.10581E+01 0.00000E+00
 -1      2221 5.65817E+01 3.22393E+01 0.00000E+00
 -1      2222 5.25918E+01 3.19115E+01 0.00000E+00
 -1      2223 5.18449E+01 3.22810E+01 0.00000E+00
 -1      2224 5.30316E+01 3.26133E+01 0.00000E+00
 -1      2225 5.05272E+01 3.10272E+01 0.00000E+00
 -1      2226 4.76260E+01 2.82424E+01 0.00000E+00
 -1      2227 4.60694E+01 2.44537E+01 0.00000E+00
 -1      2228 4.53418E+01 2.39478E+01 0.00000E+00
 -1      2229 4.56919E+01 2.51473E+01 0.00000E+00
 -1      2230 4.63005E+01 2.04173E+01 0.00000E+00
 -1      2231 4.70305E+01 1.85723E+01 0.00000E+00
 -1      2232 4.80067E+01 1.68557E+01 0.00000E+00
 -1      2233 4.94063E+01 1.52199E+01 0.00000E+00
 -1      2234 5.10917E+01 1.40424E+01 0.00000E+00
 -1      2235 5.31089E+01 1.32568E+01 0.00000E+00
 -1      2236 5.73160E+01 1.33641E+01 0.00000E+00
 -1      2237 5.52683E+01 1.30637E+01 0.00000E+00
 -1      2238 4.89349E+01 2.98352E+01 0.00000E+00
 -1      2239 5.84875E+01 3.18281E+01 0.00000E+00
 -1      2240 1.07850E+01 5.30525E+00 0.00000E+00
 -1      2241 9.28500E+00 5.30525E+00 0.00000E+00
 -1      2242 6.49500E+00 3.01125E+01 0.00000E+00
 -1      2243 6.49500E+00 3.15875E+01 0.00000E+00
 -1      2244 6.49500E+00 3.30625E+01 0.00000E+00
 -1      2245 6.49500E+00 3.45375E+01 0.00000E+00
 -1      2246 7.79400E+00 3.23250E+01 0.00000E+00
 -1      2247 6.49500E+00 2.42125E+01 0.00000E+00
 -1      2248 6.49500E+00 2.56875E+01 0.00000E+00
 -1      2249 6.49500E+00 2.12625E+01 0.00000E+00
 -1      2250 6.49500E+00 2.27375E+01 0.00000E+00
 -1      2251 7.79400E+00 2.34750E+01 0.00000E+00
 -1      2252 6.49500E+00 1.83625E+01 0.00000E+00
 -1      2253 6.49500E+00 1.98125E+01 0.00000E+00
 -1      2254 7.79400E+00 2.05500E+01 0.00000E+00
 -1      2255 6.49500E+00 1.54125E+01 0.00000E+00
 -1      2256 6.49500E+00 1.68875E+01 0.00000E+00
 -1      2257 7.79400E+00 1.76250E+01 0.00000E+00
 -1      2258 6.49500E+00 1.24625E+01 0.00000E+00
 -1      2259 6.49500E+00 1.39375E+01 0.00000E+00
 -1      2260 7.79400E+00 1.46750E+01 0.00000E+00
 -1      2261 6.49500E+00 9.51250E+00 0.00000E+00
 -1      2262 6.49500E+00 1.09875E+01 0.00000E+00
 -1      2263 7.79400E+00 1.17250E+01 0.00000E+00
 -1      2264 1.37850E+01 5.30525E+00 0.00000E+00
 -1      2265 1.22850E+01 5.30525E+00 0.00000E+00
 -1      2266 1.15350E+01 6.60425E+00 0.00000E+00
 -1      2267 9.90000E+00 4.35050E+01 0.00000E+00
 -1      2268 1.14000E+01 4.35050E+01 0.00000E+00
 -1      2269 6.08693E+01 1.41160E+01 0.00000E+00
 -1      2270 6.16972E+01 1.46101E+01 0.00000E+00
 -1      2271 1.29000E+01 4.35050E+01 0.00000E+00
 -1      2272 1.44000E+01 4.35050E+01 0.00000E+00
 -1      2273 1.21500E+01 4.22060E+01 0.00000E+00
 -1      2274 1.59000E+01 4.35050E+01 0.00000E+00
 -1      2275 1.74000E+01 4.35050E+01 0.00000E+00
 -1      2276 1.51500E+01 4.22060E+01 0.00000E+00
 -1      2277 1.89000E+01 4.35050E+01 0.00000E+00
 -1      2278 2.04000E+01 4.35050E+01 0.00000E+00
 -1      2279 1.81500E+01 4.22060E+01 0.00000E+00
 -1      2280 2.19000E+01 4.35050E+01 0.00000E+00
 -1      2281 2.34000E+01 4.35050E+01 0.00000E+00
 -1      2282 2.11500E+01 4.22060E+01 0.00000E+00
 -1      2283 2.49000E+01 4.35050E+01 0.00000E+00
 -1      2284 2.64000E+01 4.35050E+01 0.00000E+00
 -1      2285 2.41500E+01 4.22060E+01 0.00000E+00
 -1      2286 2.79000E+01 4.35050E+01 0.00000E+00
 -1      2287 2.94000E+01 4.35050E+01 0.00000E+00
 -1      2288 2.71500E+01 4.22060E+01 0.00000E+00
 -1      2289 3.09000E+01 4.35050E+01 0.00000E+00
 -1      2290 3.24000E+01 4.35050E+01 0.00000E+00
 -1      2291 3.01500E+01 4.22060E+01 0.00000E+00
 -1      2292 3.39000E+01 4.35050E+01 0.00000E+00
 -1      2293 3.54000E+01 4.35050E+01 0.00000E+00
 -1      2294 3.31500E+01 4.22060E+01 0.00000E+00
 -1      2295 3.69000E+01 4.35050E+01 0.00000E+00
 -1      2296 3.84000E+01 4.35050E+01 0.00000E+00
 -1      2297 3.61500E+01 4.22060E+01 0.00000E+00
 -1      2298 3.99000E+01 4.35050E+01 0.00000E+00
 -1      2299 4.14000E+01 4.35050E+01 0.00000E+00
 -1      2300 3.91500E+01 4.22060E+01 0.00000E+00
 -1      2301 4.29000E+01 4.35050E+01 0.00000E+00
 -1      2302 4.44000E+01 4.35050E+01 0.00000E+00
 -1      2303 4.21500E+01 4.22060E+01 0.00000E+00
 -1      2304 4.59000E+01 4.35050E+01 0.00000E+00
 -1      2305 4.74000E+01 4.35050E+01 0.00000E+00
 -1      2306 4.51500E+01 4.22060E+01 0.00000E+00
 -1      2307 4.89000E+01 4.35050E+01 0.00000E+00
 -1      2308 5.04000E+01 4.35050E+01 0.00000E+00
 -1      2309 4.81500E+01 4.22060E+01 0.00000E+00
 -1      2310 5.19000E+01 4.35050E+01 0.00000E+00
 -1      2311 5.34000E+01 4.35050E+01 0.00000E+00
 -1      2312 5.11500E+01 4.22060E+01 0.00000E+00
 -1      2313 5.49000E+01 4.35050E+01 0.00000E+00
 -1      2314 5.64000E+01 4.35050E+01 0.00000E+00
 -1      2315 5.41500E+01 4.22060E+01 0.00000E+00
 -1      2316 5.79000E+01 4.35050E+01 0.00000E+00
 -1      2317 5.94000E+01 4.35050E+01 0.00000E+00
 -1      2318 5.71500E+01 4.22060E+01 0.00000E+00
 -1      2319 6.09000E+01 4.35050E+01 0.00000E+00
 -1      2320 6.24000E+01 4.35050E+01 0.00000E+00
 -1      2321 6.01500E+01 4.22060E+01 0.00000E+00
 -1      2322 6.39000E+01 4.35050E+01 0.00000E+00
 -1      2323 6.54000E+01 4.35050E+01 0.00000E+00
 -1      2324 6.31500E+01 4.22060E+01 0.00000E+00
 -1      2325 6.69000E+01 4.35050E+01 0.00000E+00
 -1      2326 6.84000E+01 4.35050E+01 0.00000E+00
 -1      2327 6.61500E+01 4.22060E+01 0.00000E+00
 -1      2328 6.99000E+01 4.35050E+01 0.00000E+00
 -1      2329 7.14000E+01 4.35050E+01 0.00000E+00
 -1      2330 6.91500E+01 4.22060E+01 0.00000E+00
 -1      2331 7.29000E+01 4.35050E+01 0.00000E+00
 -1      2332 7.44000E+01 4.35050E+01 0.00000E+00
 -1      2333 7.21500E+01 4.22060E+01 0.00000E+00
 -1      2334 7.59000E+01 4.35050E+01 0.00000E+00
 -1      2335 7.74000E+01 4.35050E+01 0.00000E+00
 -1      2336 7.51500E+01 4.22060E+01 0.00000E+00
 -1      2337 7.89000E+01 4.35050E+01 0.00000E+00
 -1      2338 8.04000E+01 4.35050E+01 0.00000E+00
 -1      2339 7.81500E+01 4.22060E+01 0.00000E+00
 -1      2340 8.19000E+01 4.35050E+01 0.00000E+00
 -1      2341 8.34000E+01 4.35050E+01 0.00000E+00
 -1      2342 8.11500E+01 4.22060E+01 0.00000E+00
 -1      2343 8.49000E+01 4.35050E+01 0.00000E+00
 -1      2344 8.64000E+01 4.35050E+01 0.00000E+00
 -1      2345 8.41500E+01 4.22060E+01 0.00000E+00
 -1      2346 8.79000E+01 4.35050E+01 0.00000E+00
 -1      2347 8.94000E+01 4.35050E+01 0.00000E+00
 -1      2348 8.71500E+01 4.22060E+01 0.00000E+00
 -1      2349 9.09000E+01 4.35050E+01 0.00000E+00
 -1      2350 9.24000E+01 4.35050E+01 0.00000E+00
 -1      2351 9.01500E+01 4.22060E+01 0.00000E+00
 -1      2352 9.39000E+01 4.35050E+01 0.00000E+00
 -1      2353 9.54000E+01 4.35050E+01 0.00000E+00
 -1      2354 9.31500E+01 4.22060E+01 0.00000E+00
 -1      2355 9.69000E+01 4.35050E+01 0.00000E+00
 -1      2356 9.84000E+01 4.35050E+01 0.00000E+00
 -1      2357 9.61500E+01 4.22060E+01 0.00000E+00
 -1      2358 9.99000E+01 4.35050E+01 0.00000E+00
 -1      2359 1.01400E+02 4.35050E+01 0.00000E+00
 -1      2360 9.91500E+01 4.22060E+01 0.00000E+00
 -1      2361 1.02900E+02 4.35050E+01 0.00000E+00
 -1      2362 1.04400E+02 4.35050E+01 0.00000E+00
 -1      2363 1.02150E+02 4.22060E+01 0.00000E+00
 -1      2364 1.05900E+02 4.35050E+01 0.00000E+00
 -1      2365 1.07400E+02 4.35050E+01 0.00000E+00
 -1      2366 1.05150E+02 4.22060E+01 0.00000E+00
 -1      2367 1.08900E+02 4.35050E+01 0.00000E+00
 -1      2368 1.10400E+02 4.35050E+01 0.00000E+00
 -1      2369 1.08150E+02 4.22060E+01 0.00000E+00
 -1      2370 1.11900E+02 4.35050E+01 0.00000E+00
 -1      2371 1.13400E+02 4.35050E+01 0.00000E+00
 -1      2372 1.11150E+02 4.22060E+01 0.00000E+00
 -1      2373 1.14900E+02 4.35050E+01 0.00000E+00
 -1      2374 1.16400E+02 4.35050E+01 0.00000E+00
 -1      2375 1.14150E+02 4.22060E+01 0.00000E+00
 -1      2376 1.17900E+02 4.35050E+01 0.00000E+00
 -1      2377 1.19400E+02 4.35050E+01 0.00000E+00
 -1      2378 1.17150E+02 4.22060E+01 0.00000E+00
 -1      2379 1.20900E+02 4.35050E+01 0.00000E+00
 -1      2380 1.22400E+02 4.35050E+01 0.00000E+00
 -1      2381 1.20150E+02 4.22060E+01 0.00000E+00
 -1      2382 1.23900E+02 4.35050E+01 0.00000E+00
 -1      2383 1.25400E+02 4.35050E+01 0.00000E+00
 -1      2384 1.23150E+02 4.22060E+01 0.00000E+00
 -1      2385 1.26900E+02 4.35050E+01 0.00000E+00
 -1      2386 1.28400E+02 4.35050E+01 0.00000E+00
 -1      2387 1.26150E+02 4.22060E+01 0.00000E+00
 -1      2388 1.29900E+02 4.35050E+01 0.00000E+00
 -1      2389 1.31400E+02 4.35050E+01 0.00000E+00
 -1      2390 1.29150E+02 4.22060E+01 0.00000E+00
 -1      2391 1.32900E+02 4.35050E+01 0.00000E+00
 -1      2392 1.34400E+02 4.35050E+01 0.00000E+00
 -1      2393 1.32150E+02 4.22060E+01 0.00000E+00
 -1      2394 1.35900E+02 4.35050E+01 0.00000E+00
 -1      2395 1.37400E+02 4.35050E+01 0.00000E+00
 -1      2396 1.35150E+02 4.22060E+01 0.00000E+00
 -1      2397 1.38900E+02 4.35050E+01 0.00000E+00
 -1      2398 1.40400E+02 4.35050E+01 0.00000E+00
 -1      2399 1.38150E+02 4.22060E+01 0.00000E+00
 -1      2400 1.97850E+01 5.30525E+00 0.00000E+00
 -1      2401 1.82850E+01 5.30525E+00 0.00000E+00
 -1      2402 2.27850E+01 5.30525E+00 0.00000E+00
 -1      2403 2.12850E+01 5.30525E+00 0.00000E+00
 -1      2404 2.05350E+01 6.60425E+00 0.00000E+00
 -1      2405 2.57850E+01 5.30525E+00 0.00000E+00
 -1      2406 2.42850E+01 5.30525E+00 0.00000E+00
 -1      2407 2.35350E+01 6.60425E+00 0.00000E+00
 -1      2408 2.87850E+01 5.30525E+00 0.00000E+00
 -1      2409 2.72850E+01 5.30525E+00 0.00000E+00
 -1      2410 2.65350E+01 6.60425E+00 0.00000E+00
 -1      2411 3.17850E+01 5.30525E+00 0.00000E+00
 -1      2412 3.02850E+01 5.30525E+00 0.00000E+00
 -1      2413 2.95350E+01 6.60425E+00 0.00000E+00
 -1      2414 3.47850E+01 5.30525E+00 0.00000E+00
 -1      2415 3.32850E+01 5.30525E+00 0.00000E+00
 -1      2416 3.25350E+01 6.60425E+00 0.00000E+00
 -1      2417 3.77850E+01 5.30525E+00 0.00000E+00
 -1      2418 3.62850E+01 5.30525E+00 0.00000E+00
 -1      2419 3.55350E+01 6.60425E+00 0.00000E+00
 -1      2420 4.07850E+01 5.30525E+00 0.00000E+00
 -1      2421 3.92850E+01 5.30525E+00 0.00000E+00
 -1      2422 3.85350E+01 6.60425E+00 0.00000E+00
 -1      2423 4.37850E+01 5.30525E+00 0.00000E+00
 -1      2424 4.22850E+01 5.30525E+00 0.00000E+00
 -1      2425 4.15350E+01 6.60425E+00 0.00000E+00
 -1      2426 4.67850E+01 5.30525E+00 0.00000E+00
 -1      2427 4.52850E+01 5.30525E+00 0.00000E+00
 -1      2428 4.45350E+01 6.60425E+00 0.00000E+00
 -1      2429 4.97850E+01 5.30525E+00 0.00000E+00
 -1      2430 4.82850E+01 5.30525E+00 0.00000E+00
 -1      2431 4.75350E+01 6.60425E+00 0.00000E+00
 -1      2432 5.27850E+01 5.30525E+00 0.00000E+00
 -1      2433 5.12850E+01 5.30525E+00 0.00000E+00
 -1      2434 5.05350E+01 6.60425E+00 0.00000E+00
 -1      2435 5.57850E+01 5.30525E+00 0.00000E+00
 -1      2436 5.42850E+01 5.30525E+00 0.00000E+00
 -1      2437 5.35350E+01 6.60425E+00 0.00000E+00
 -1      2438 5.87850E+01 5.30525E+00 0.00000E+00
 -1      2439 5.72850E+01 5.30525E+00 0.00000E+00
 -1      2440 5.65350E+01 6.60425E+00 0.00000E+00
 -1      2441 6.17850E+01 5.30525E+00 0.00000E+00
 -1      2442 6.02850E+01 5.30525E+00 0.00000E+00
 -1      2443 5.95350E+01 6.60425E+00 0.00000E+00
 -1      2444 6.47850E+01 5.30525E+00 0.00000E+00
 -1      2445 6.32850E+01 5.30525E+00 0.00000E+00
 -1      2446 6.25350E+01 6.60425E+00 0.00000E+00
 -1      2447 6.77850E+01 5.30525E+00 0.00000E+00
 -1      2448 6.62850E+01 5.30525E+00 0.00000E+00
 -1      2449 6.55350E+01 6.60425E+00 0.00000E+00
 -1      2450 7.07850E+01 5.30525E+00 0.00000E+00
 -1      2451 6.92850E+01 5.30525E+00 0.00000E+00
 -1      2452 6.85350E+01 6.60425E+00 0.00000E+00
 -1      2453 7.37850E+01 5.30525E+00 0.00000E+00
 -1      2454 7.22850E+01 5.30525E+00 0.00000E+00
 -1      2455 7.15350E+01 6.60425E+00 0.00000E+00
 -1      2456 7.67850E+01 5.30525E+00 0.00000E+00
 -1      2457 7.52850E+01 5.30525E+00 0.00000E+00
 -1      2458 7.45350E+01 6.60425E+00 0.00000E+00
 -1      2459 7.97850E+01 5.30525E+00 0.00000E+00
 -1      2460 7.82850E+01 5.30525E+00 0.00000E+00
 -1      2461 7.75350E+01 6.60425E+00 0.00000E+00
 -1      2462 8.27850E+01 5.30525E+00 0.00000E+00
 -1      2463 8.12850E+01 5.30525E+00 0.00000E+00
 -1      2464 8.05350E+01 6.60425E+00 0.00000E+00
 -1      2465 8.57850E+01 5.30525E+00 0.00000E+00
 -1      2466 8.42850E+01 5.30525E+00 0.00000E+00
 -1      2467 8.35350E+01 6.60425E+00 0.00000E+00
 -1      2468 8.87850E+01 5.30525E+00 0.00000E+00
 -1      2469 8.72850E+01 5.30525E+00 0.00000E+00
 -1      2470 8.65350E+01 6.60425E+00 0.00000E+00
 -1      2471 9.17850E+01 5.30525E+00 0.00000E+00
 -1      2472 9.02850E+01 5.30525E+00 0.00000E+00
 -1      2473 8.95350E+01 6.60425E+00 0.00000E+00
 -1      2474 9.47850E+01 5.30525E+00 0.00000E+00
 -1      2475 9.32850E+01 5.30525E+00 0.00000E+00
 -1      2476 9.25350E+01 6.60425E+00 0.00000E+00
 -1      2477 9.77850E+01 5.30525E+00 0.00000E+00
 -1      2478 9.62850E+01 5.30525E+00 0.00000E+00
 -1      2479 9.55350E+01 6.60425E+00 0.00000E+00
 -1      2480 1.00785E+02 5.30525E+00 0.00000E+00
 -1      2481 9.92850E+01 5.30525E+00 0.00000E+00
 -1      2482 9.85350E+01 6.60425E+00 0.00000E+00
 -1      2483 1.03785E+02 5.30525E+00 0.00000E+00
 -1      2484 1.02285E+02 5.30525E+00 0.00000E+00
 -1      2485 1.01535E+02 6.60425E+00 0.00000E+00
 -1      2486 1.06785E+02 5.30525E+00 0.00000E+00
 -1      2487 1.05285E+02 5.30525E+00 0.00000E+00
 -1      2488 1.04535E+02 6.60425E+00 0.00000E+00
 -1      2489 1.09785E+02 5.30525E+00 0.00000E+00
 -1      2490 1.08285E+02 5.30525E+00 0.00000E+00
 -1      2491 1.07535E+02 6.60425E+00 0.00000E+00
 -1      2492 1.12785E+02 5.30525E+00 0.00000E+00
 -1      2493 1.11285E+02 5.30525E+00 0.00000E+00
 -1      2494 1.10535E+02 6.60425E+00 0.00000E+00
 -1      2495 1.15785E+02 5.30525E+00 0.00000E+00
 -1      2496 1.14285E+02 5.30525E+00 0.00000E+00
 -1      2497 1.13535E+02 6.60425E+00 0.00000E+00
 -1      2498 1.18785E+02 5.30525E+00 0.00000E+00
 -1      2499 1.17285E+02 5.30525E+00 0.00000E+00
 -1      2500 1.16535E+02 6.60425E+00 0.00000E+00
 -1      2501 1.21785E+02 5.30525E+00 0.00000E+00
 -1      2502 1.20285E+02 5.30525E+00 0.00000E+00
 -1      2503 1.19535E+02 6.60425E+00 0.00000E+00
 -1      2504 1.24785E+02 5.30525E+00 0.00000E+00
 -1      2505 1.23285E+02 5.30525E+00 0.00000E+00
 -1      2506 1.22535E+02 6.60425E+00 0.00000E+00
 -1      2507 1.27785E+02 5.30525E+00 0.00000E+00
 -1      2508 1.26285E+02 5.30525E+00 0.00000E+00
 -1      2509 1.25535E+02 6.60425E+00 0.00000E+00
 -1      2510 1.30785E+02 5.30525E+00 0.00000E+00
 -1      2511 1.29285E+02 5.30525E+00 0.00000E+00
 -1      2512 1.28535E+02 6.60425E+00 0.00000E+00
 -1      2513 1.33785E+02 5.30525E+00 0.00000E+00
 -1      2514 1.32285E+02 5.30525E+00 0.00000E+00
 -1      2515 1.31535E+02 6.60425E+00 0.00000E+00
 -1      2516 1.36785E+02 5.30525E+00 0.00000E+00
 -1      2517 1.35285E+02 5.30525E+00 0.00000E+00
 -1      2518 1.34535E+02 6.60425E+00 0.00000E+00
 -1      2519 1.39785E+02 5.30525E+00 0.00000E+00
 -1      2520 1.38285E+02 5.30525E+00 0.00000E+00
 -1      2521 1.37535E+02 6.60425E+00 0.00000E+00
 -1      2522 1.42785E+02 5.30525E+00 0.00000E+00
 -1      2523 1.41285E+02 5.30525E+00 0.00000E+00
 -1      2524 1.40535E+02 6.60425E+00 0.00000E+00
 -1      2525 1.44336E+02 5.26953E+00 0.00000E+00
 -1      2526 1.43505E+02 1.69125E+01 0.00000E+00
 -1      2527 1.43505E+02 1.54375E+01 0.00000E+00
 -1      2528 1.43505E+02 1.98625E+01 0.00000E+00
 -1      2529 1.43505E+02 1.83875E+01 0.00000E+00
 -1      2530 1.42206E+02 1.76500E+01 0.00000E+00
 -1      2531 1.43505E+02 1.10625E+01 0.00000E+00
 -1      2532 1.43505E+02 9.58750E+00 0.00000E+00
 -1      2533 1.43505E+02 1.39750E+01 0.00000E+00
 -1      2534 1.43505E+02 1.25250E+01 0.00000E+00
 -1      2535 1.42206E+02 1.17875E+01 0.00000E+00
 -1      2536 1.42206E+02 1.47125E+01 0.00000E+00
 -1      2537 1.43505E+02 2.28125E+01 0.00000E+00
 -1      2538 1.43505E+02 2.13375E+01 0.00000E+00
 -1      2539 1.42206E+02 2.06000E+01 0.00000E+00
 -1      2540 1.43505E+02 2.57625E+01 0.00000E+00
 -1      2541 1.43505E+02 2.42875E+01 0.00000E+00
 -1      2542 1.42206E+02 2.35500E+01 0.00000E+00
 -1      2543 1.43505E+02 2.87125E+01 0.00000E+00
 -1      2544 1.43505E+02 2.72375E+01 0.00000E+00
 -1      2545 1.42206E+02 2.65000E+01 0.00000E+00
 -1      2546 1.43505E+02 3.16125E+01 0.00000E+00
 -1      2547 1.43505E+02 3.01625E+01 0.00000E+00
 -1      2548 1.42206E+02 2.94250E+01 0.00000E+00
 -1      2549 1.43505E+02 3.45625E+01 0.00000E+00
 -1      2550 1.43505E+02 3.30875E+01 0.00000E+00
 -1      2551 1.42206E+02 3.23500E+01 0.00000E+00
 -1      2552 1.43505E+02 3.75125E+01 0.00000E+00
 -1      2553 1.43505E+02 3.60375E+01 0.00000E+00
 -1      2554 1.42206E+02 3.53000E+01 0.00000E+00
 -1      2555 1.43505E+02 4.04625E+01 0.00000E+00
 -1      2556 1.43505E+02 3.89875E+01 0.00000E+00
 -1      2557 1.42206E+02 3.82500E+01 0.00000E+00
 -1      2558 6.61567E+01 2.14323E+01 0.00000E+00
 -1      2559 6.60777E+01 2.23739E+01 0.00000E+00
 -1      2560 6.42027E+01 1.67583E+01 0.00000E+00
 -1      2561 6.47518E+01 1.75126E+01 0.00000E+00
 -1      2562 1.67850E+01 5.30525E+00 0.00000E+00
 -1      2563 1.52850E+01 5.30525E+00 0.00000E+00
 -1      2564 1.75350E+01 6.60425E+00 0.00000E+00
 -1      2565 5.90953E+01 1.31065E+01 0.00000E+00
 -1      2566 5.99823E+01 1.36113E+01 0.00000E+00
 -1      2567 6.07714E+01 1.32299E+01 0.00000E+00
 -1      2568 1.44321E+02 4.30606E+01 0.00000E+00
 -1      2569 6.38351E+01 2.89360E+01 0.00000E+00
 -1      2570 6.32548E+01 2.96495E+01 0.00000E+00
 -1      2571 4.53860E+01 2.06421E+01 0.00000E+00
 -1      2572 4.57696E+01 1.96396E+01 0.00000E+00
 -1      2573 6.49500E+00 2.71625E+01 0.00000E+00
 -1      2574 6.49500E+00 2.86375E+01 0.00000E+00
 -1      2575 7.79400E+00 2.93750E+01 0.00000E+00
 -1      2576 7.79400E+00 2.64250E+01 0.00000E+00
 -1      2577 5.48947E+01 1.20469E+01 0.00000E+00
 -1      2578 5.59522E+01 1.22236E+01 0.00000E+00
 -1      2579 4.87756E+01 3.07315E+01 0.00000E+00
 -1      2580 4.80614E+01 3.00913E+01 0.00000E+00
 -1      2581 5.69424E+01 1.23473E+01 0.00000E+00
 -1      2582 5.79327E+01 1.24711E+01 0.00000E+00
 -1      2583 5.65688E+01 1.13305E+01 0.00000E+00
 -1      2584 5.22319E+01 1.24698E+01 0.00000E+00
 -1      2585 5.33338E+01 1.21001E+01 0.00000E+00
 -1      2586 5.02793E+01 1.34695E+01 0.00000E+00
 -1      2587 5.11947E+01 1.30537E+01 0.00000E+00
 -1      2588 4.84183E+01 1.49910E+01 0.00000E+00
 -1      2589 4.91883E+01 1.42294E+01 0.00000E+00
 -1      2590 4.70640E+01 1.68406E+01 0.00000E+00
 -1      2591 4.76936E+01 1.59664E+01 0.00000E+00
 -1      2592 4.61161E+01 1.87971E+01 0.00000E+00
 -1      2593 4.64626E+01 1.79547E+01 0.00000E+00
 -1      2594 4.52016E+01 1.90219E+01 0.00000E+00
 -1      2595 4.49577E+01 2.27082E+01 0.00000E+00
 -1      2596 4.50566E+01 2.17910E+01 0.00000E+00
 -1      2597 4.60752E+01 2.71810E+01 0.00000E+00
 -1      2598 4.57692E+01 2.63627E+01 0.00000E+00
 -1      2599 5.91794E+01 3.23405E+01 0.00000E+00
 -1      2600 5.83364E+01 3.26758E+01 0.00000E+00
 -1      2601 4.72670E+01 2.91285E+01 0.00000E+00
 -1      2602 4.66723E+01 2.81759E+01 0.00000E+00
 -1      2603 5.05321E+01 3.19937E+01 0.00000E+00
 -1      2604 4.96541E+01 3.14418E+01 0.00000E+00
 -1      2605 5.50537E+01 3.30287E+01 0.00000E+00
 -1      2606 5.41835E+01 3.29930E+01 0.00000E+00
 -1      2607 5.71742E+01 3.30567E+01 0.00000E+00
 -1      2608 5.61114E+01 3.31327E+01 0.00000E+00
 -1      2609 6.09284E+01 3.15919E+01 0.00000E+00
 -1      2610 6.01389E+01 3.20267E+01 0.00000E+00
 -1      2611 6.24740E+01 3.03814E+01 0.00000E+00
 -1      2612 6.17791E+01 3.09604E+01 0.00000E+00
 -1      2613 6.46934E+01 2.72746E+01 0.00000E+00
 -1      2614 6.43021E+01 2.80123E+01 0.00000E+00
 -1      2615 6.60034E+01 2.31811E+01 0.00000E+00
 -1      2616 6.59291E+01 2.39884E+01 0.00000E+00
 -1      2617 6.69809E+01 2.27891E+01 0.00000E+00
 -1      2618 6.55950E+00 4.28890E+01 0.00000E+00
 -1      2619 8.53650E+00 4.32410E+01 0.00000E+00
 -1      2620 9.28650E+00 4.19420E+01 0.00000E+00
 -1      2621 6.55950E+00 4.14140E+01 0.00000E+00
 -1      2622 8.07525E+00 5.11044E+00 0.00000E+00
 -1      2623 6.57525E+00 5.11044E+00 0.00000E+00
 -1      2624 6.40575E+00 6.01981E+00 0.00000E+00
 -1      2625 8.82525E+00 6.40944E+00 0.00000E+00
 -1      2626 6.26676E+01 1.52397E+01 0.00000E+00
 -1      2627 6.34170E+01 1.59398E+01 0.00000E+00
 -1      2628 5.40176E+01 1.12599E+01 0.00000E+00
 -1      2629 7.79400E+00 3.52687E+01 0.00000E+00
 -1      2630 6.49500E+00 3.60062E+01 0.00000E+00
 -1      2631 6.49500E+00 3.74750E+01 0.00000E+00
 -1      2632 1.45350E+01 6.60425E+00 0.00000E+00
 -1      2633 6.40575E+00 7.49481E+00 0.00000E+00
 -1      2634 6.26288E+01 1.43642E+01 0.00000E+00
 -1      2635 6.53997E+01 2.68999E+01 0.00000E+00
 -1      2636 6.34295E+01 3.05657E+01 0.00000E+00
 -1      2637 6.17980E+01 3.19290E+01 0.00000E+00
 -1      2638 5.78662E+01 3.35692E+01 0.00000E+00
 -1      2639 6.55462E+01 1.79520E+01 0.00000E+00
 -1      2640 6.63407E+01 1.83914E+01 0.00000E+00
 -1      2641 6.59650E+01 1.70701E+01 0.00000E+00
 -1      2642 5.56463E+01 3.38461E+01 0.00000E+00
 -1      2643 1.43586E+02 6.56853E+00 0.00000E+00
 -1      2644 6.43849E+01 1.58122E+01 0.00000E+00
 -1      2645 1.43419E+02 7.72713E+00 0.00000E+00
 -1      2646 5.09719E+01 3.26956E+01 0.00000E+00
 -1      2647 5.00988E+01 3.31102E+01 0.00000E+00
 -1      2648 5.14116E+01 3.33975E+01 0.00000E+00
 -1      2649 6.64886E+01 2.06275E+01 0.00000E+00
 -1      2650 6.73871E+01 2.11770E+01 0.00000E+00
 -1      2651 6.68204E+01 1.98227E+01 0.00000E+00
 -1      2652 4.71077E+01 3.00247E+01 0.00000E+00
 -1      2653 6.62808E+01 2.47049E+01 0.00000E+00
 -1      2654 7.70475E+00 8.23231E+00 0.00000E+00
 -1      2655 5.87217E+01 1.20897E+01 0.00000E+00
 -1      2656 4.45256E+01 2.10133E+01 0.00000E+00
 -1      2657 6.46773E+01 2.89101E+01 0.00000E+00
 -1      2658 5.99878E+01 3.28744E+01 0.00000E+00
 -1      2659 4.57161E+01 2.80670E+01 0.00000E+00
 -1      2660 4.61495E+01 1.70654E+01 0.00000E+00
 -1      2661 5.34366E+01 3.33625E+01 0.00000E+00
 -1      2662 5.26897E+01 3.37320E+01 0.00000E+00
 -1      2663 5.38417E+01 3.41116E+01 0.00000E+00
 -1      2664 4.74756E+01 1.49759E+01 0.00000E+00
 -1      2665 4.92913E+01 1.32407E+01 0.00000E+00
 -1      2666 4.50416E+01 2.58568E+01 0.00000E+00
 -1      2667 1.42758E+02 4.35929E+01 0.00000E+00
 -1      2668 1.43241E+02 4.17323E+01 0.00000E+00
 -1      2669 1.41942E+02 4.09948E+01 0.00000E+00
 -1      2670 1.41414E+02 4.35342E+01 0.00000E+00
 -1      2671 4.87806E+01 3.16980E+01 0.00000E+00
 -1      2672 6.52725E+00 3.87101E+01 0.00000E+00
 -1      2673 6.52725E+00 4.01789E+01 0.00000E+00
 -1      2674 7.89075E+00 4.04429E+01 0.00000E+00
 -1      2675 7.82625E+00 3.79726E+01 0.00000E+00
 -1      2676 5.14195E+01 1.18970E+01 0.00000E+00
 -1      2677 4.45802E+01 2.34018E+01 0.00000E+00
 -1      2678 4.38187E+01 2.28559E+01 0.00000E+00
 -1      2679 4.42027E+01 2.40955E+01 0.00000E+00
 -1      2680 1.42120E+02 8.46463E+00 0.00000E+00
 -1      2681 1.40664E+02 4.22352E+01 0.00000E+00
 -1      2682 9.09300E+00 1.98250E+01 0.00000E+00
 -1      2683 9.09300E+00 2.12750E+01 0.00000E+00
 -1      2684 9.09300E+00 2.27500E+01 0.00000E+00
 -1      2685 9.09300E+00 2.42250E+01 0.00000E+00
 -1      2686 1.03920E+01 2.20250E+01 0.00000E+00
 -1      2687 9.09300E+00 1.39375E+01 0.00000E+00
 -1      2688 9.09300E+00 1.54125E+01 0.00000E+00
 -1      2689 9.09300E+00 1.09875E+01 0.00000E+00
 -1      2690 9.09300E+00 1.24625E+01 0.00000E+00
 -1      2691 1.03920E+01 1.32000E+01 0.00000E+00
 -1      2692 1.22850E+01 7.90325E+00 0.00000E+00
 -1      2693 1.07850E+01 7.90325E+00 0.00000E+00
 -1      2694 5.85516E+01 1.10195E+01 0.00000E+00
 -1      2695 5.97143E+01 1.16549E+01 0.00000E+00
 -1      2696 8.91450E+00 8.42712E+00 0.00000E+00
 -1      2697 6.63622E+01 2.65528E+01 0.00000E+00
 -1      2698 6.61068E+01 2.76393E+01 0.00000E+00
 -1      2699 6.28843E+01 3.25037E+01 0.00000E+00
 -1      2700 6.20336E+01 3.31352E+01 0.00000E+00
 -1      2701 1.44000E+01 4.09070E+01 0.00000E+00
 -1      2702 1.59000E+01 4.09070E+01 0.00000E+00
 -1      2703 1.74000E+01 4.09070E+01 0.00000E+00
 -1      2704 1.89000E+01 4.09070E+01 0.00000E+00
 -1      2705 1.66500E+01 3.96080E+01 0.00000E+00
 -1      2706 2.04000E+01 4.09070E+01 0.00000E+00
 -1      2707 2.19000E+01 4.09070E+01 0.00000E+00
 -1      2708 1.96500E+01 3.96080E+01 0.00000E+00
 -1      2709 2.34000E+01 4.09070E+01 0.00000E+00
 -1      2710 2.49000E+01 4.09070E+01 0.00000E+00
 -1      2711 2.26500E+01 3.96080E+01 0.00000E+00
 -1      2712 2.64000E+01 4.09070E+01 0.00000E+00
 -1      2713 2.79000E+01 4.09070E+01 0.00000E+00
 -1      2714 2.56500E+01 3.96080E+01 0.00000E+00
 -1      2715 2.94000E+01 4.09070E+01 0.00000E+00
 -1      2716 3.09000E+01 4.09070E+01 0.00000E+00
 -1      2717 2.86500E+01 3.96080E+01 0.00000E+00
 -1      2718 3.24000E+01 4.09070E+01 0.00000E+00
 -1      2719 3.39000E+01 4.09070E+01 0.00000E+00
 -1      2720 3.16500E+01 3.96080E+01 0.00000E+00
 -1      2721 3.54000E+01 4.09070E+01 0.00000E+00
 -1      2722 3.69000E+01 4.09070E+01 0.00000E+00
 -1      2723 3.46500E+01 3.96080E+01 0.00000E+00
 -1      2724 3.84000E+01 4.09070E+01 0.00000E+00
 -1      2725 3.99000E+01 4.09070E+01 0.00000E+00
 -1      2726 3.76500E+01 3.96080E+01 0.00000E+00
 -1      2727 4.14000E+01 4.09070E+01 0.00000E+00
 -1      2728 4.29000E+01 4.09070E+01 0.00000E+00
 -1      2729 4.06500E+01 3.96080E+01 0.00000E+00
 -1      2730 4.44000E+01 4.09070E+01 0.00000E+00
 -1      2731 4.59000E+01 4.09070E+01 0.00000E+00
 -1      2732 4.36500E+01 3.96080E+01 0.00000E+00
 -1      2733 4.74000E+01 4.09070E+01 0.00000E+00
 -1      2734 4.89000E+01 4.09070E+01 0.00000E+00
 -1      2735 4.66500E+01 3.96080E+01 0.00000E+00
 -1      2736 5.04000E+01 4.09070E+01 0.00000E+00
 -1      2737 5.19000E+01 4.09070E+01 0.00000E+00
 -1      2738 4.96500E+01 3.96080E+01 0.00000E+00
 -1      2739 5.34000E+01 4.09070E+01 0.00000E+00
 -1      2740 5.49000E+01 4.09070E+01 0.00000E+00
 -1      2741 5.26500E+01 3.96080E+01 0.00000E+00
 -1      2742 5.64000E+01 4.09070E+01 0.00000E+00
 -1      2743 5.79000E+01 4.09070E+01 0.00000E+00
 -1      2744 5.56500E+01 3.96080E+01 0.00000E+00
 -1      2745 5.94000E+01 4.09070E+01 0.00000E+00
 -1      2746 6.09000E+01 4.09070E+01 0.00000E+00
 -1      2747 5.86500E+01 3.96080E+01 0.00000E+00
 -1      2748 6.24000E+01 4.09070E+01 0.00000E+00
 -1      2749 6.39000E+01 4.09070E+01 0.00000E+00
 -1      2750 6.16500E+01 3.96080E+01 0.00000E+00
 -1      2751 6.54000E+01 4.09070E+01 0.00000E+00
 -1      2752 6.69000E+01 4.09070E+01 0.00000E+00
 -1      2753 6.46500E+01 3.96080E+01 0.00000E+00
 -1      2754 6.84000E+01 4.09070E+01 0.00000E+00
 -1      2755 6.99000E+01 4.09070E+01 0.00000E+00
 -1      2756 6.76500E+01 3.96080E+01 0.00000E+00
 -1      2757 7.14000E+01 4.09070E+01 0.00000E+00
 -1      2758 7.29000E+01 4.09070E+01 0.00000E+00
 -1      2759 7.06500E+01 3.96080E+01 0.00000E+00
 -1      2760 7.44000E+01 4.09070E+01 0.00000E+00
 -1      2761 7.59000E+01 4.09070E+01 0.00000E+00
 -1      2762 7.36500E+01 3.96080E+01 0.00000E+00
 -1      2763 7.74000E+01 4.09070E+01 0.00000E+00
 -1      2764 7.89000E+01 4.09070E+01 0.00000E+00
 -1      2765 7.66500E+01 3.96080E+01 0.00000E+00
 -1      2766 8.04000E+01 4.09070E+01 0.00000E+00
 -1      2767 8.19000E+01 4.09070E+01 0.00000E+00
 -1      2768 7.96500E+01 3.96080E+01 0.00000E+00
 -1      2769 8.34000E+01 4.09070E+01 0.00000E+00
 -1      2770 8.49000E+01 4.09070E+01 0.00000E+00
 -1      2771 8.26500E+01 3.96080E+01 0.00000E+00
 -1      2772 8.64000E+01 4.09070E+01 0.00000E+00
 -1      2773 8.79000E+01 4.09070E+01 0.00000E+00
 -1      2774 8.56500E+01 3.96080E+01 0.00000E+00
 -1      2775 8.94000E+01 4.09070E+01 0.00000E+00
 -1      2776 9.09000E+01 4.09070E+01 0.00000E+00
 -1      2777 8.86500E+01 3.96080E+01 0.00000E+00
 -1      2778 9.24000E+01 4.09070E+01 0.00000E+00
 -1      2779 9.39000E+01 4.09070E+01 0.00000E+00
 -1      2780 9.16500E+01 3.96080E+01 0.00000E+00
 -1      2781 9.54000E+01 4.09070E+01 0.00000E+00
 -1      2782 9.69000E+01 4.09070E+01 0.00000E+00
 -1      2783 9.46500E+01 3.96080E+01 0.00000E+00
 -1      2784 9.84000E+01 4.09070E+01 0.00000E+00
 -1      2785 9.99000E+01 4.09070E+01 0.00000E+00
 -1      2786 9.76500E+01 3.96080E+01 0.00000E+00
 -1      2787 1.01400E+02 4.09070E+01 0.00000E+00
 -1      2788 1.02900E+02 4.09070E+01 0.00000E+00
 -1      2789 1.00650E+02 3.96080E+01 0.00000E+00
 -1      2790 1.04400E+02 4.09070E+01 0.00000E+00
 -1      2791 1.05900E+02 4.09070E+01 0.00000E+00
 -1      2792 1.03650E+02 3.96080E+01 0.00000E+00
 -1      2793 1.07400E+02 4.09070E+01 0.00000E+00
 -1      2794 1.08900E+02 4.09070E+01 0.00000E+00
 -1      2795 1.06650E+02 3.96080E+01 0.00000E+00
 -1      2796 1.10400E+02 4.09070E+01 0.00000E+00
 -1      2797 1.11900E+02 4.09070E+01 0.00000E+00
 -1      2798 1.09650E+02 3.96080E+01 0.00000E+00
 -1      2799 1.13400E+02 4.09070E+01 0.00000E+00
 -1      2800 1.14900E+02 4.09070E+01 0.00000E+00
 -1      2801 1.12650E+02 3.96080E+01 0.00000E+00
 -1      2802 1.16400E+02 4.09070E+01 0.00000E+00
 -1      2803 1.17900E+02 4.09070E+01 0.00000E+00
 -1      2804 1.15650E+02 3.96080E+01 0.00000E+00
 -1      2805 1.19400E+02 4.09070E+01 0.00000E+00
 -1      2806 1.20900E+02 4.09070E+01 0.00000E+00
 -1      2807 1.18650E+02 3.96080E+01 0.00000E+00
 -1      2808 1.22400E+02 4.09070E+01 0.00000E+00
 -1      2809 1.23900E+02 4.09070E+01 0.00000E+00
 -1      2810 1.21650E+02 3.96080E+01 0.00000E+00
 -1      2811 1.25400E+02 4.09070E+01 0.00000E+00
 -1      2812 1.26900E+02 4.09070E+01 0.00000E+00
 -1      2813 1.24650E+02 3.96080E+01 0.00000E+00
 -1      2814 1.28400E+02 4.09070E+01 0.00000E+00
 -1      2815 1.29900E+02 4.09070E+01 0.00000E+00
 -1      2816 1.27650E+02 3.96080E+01 0.00000E+00
 -1      2817 1.31400E+02 4.09070E+01 0.00000E+00
 -1      2818 1.32900E+02 4.09070E+01 0.00000E+00
 -1      2819 1.30650E+02 3.96080E+01 0.00000E+00
 -1      2820 1.34400E+02 4.09070E+01 0.00000E+00
 -1      2821 1.35900E+02 4.09070E+01 0.00000E+00
 -1      2822 1.33650E+02 3.96080E+01 0.00000E+00
 -1      2823 1.37400E+02 4.09070E+01 0.00000E+00
 -1      2824 1.38900E+02 4.09070E+01 0.00000E+00
 -1      2825 1.36650E+02 3.96080E+01 0.00000E+00
 -1      2826 2.42850E+01 7.90325E+00 0.00000E+00
 -1      2827 2.27850E+01 7.90325E+00 0.00000E+00
 -1      2828 4.86806E+01 3.27200E+01 0.00000E+00
 -1      2829 4.78021E+01 3.20096E+01 0.00000E+00
 -1      2830 2.12850E+01 7.90325E+00 0.00000E+00
 -1      2831 1.97850E+01 7.90325E+00 0.00000E+00
 -1      2832 2.20350E+01 9.20225E+00 0.00000E+00
 -1      2833 3.02850E+01 7.90325E+00 0.00000E+00
 -1      2834 2.87850E+01 7.90325E+00 0.00000E+00
 -1      2835 3.32850E+01 7.90325E+00 0.00000E+00
 -1      2836 3.17850E+01 7.90325E+00 0.00000E+00
 -1      2837 3.10350E+01 9.20225E+00 0.00000E+00
 -1      2838 3.62850E+01 7.90325E+00 0.00000E+00
 -1      2839 3.47850E+01 7.90325E+00 0.00000E+00
 -1      2840 3.40350E+01 9.20225E+00 0.00000E+00
 -1      2841 3.92850E+01 7.90325E+00 0.00000E+00
 -1      2842 3.77850E+01 7.90325E+00 0.00000E+00
 -1      2843 3.70350E+01 9.20225E+00 0.00000E+00
 -1      2844 4.22850E+01 7.90325E+00 0.00000E+00
 -1      2845 4.07850E+01 7.90325E+00 0.00000E+00
 -1      2846 4.00350E+01 9.20225E+00 0.00000E+00
 -1      2847 4.52850E+01 7.90325E+00 0.00000E+00
 -1      2848 4.37850E+01 7.90325E+00 0.00000E+00
 -1      2849 4.30350E+01 9.20225E+00 0.00000E+00
 -1      2850 4.82850E+01 7.90325E+00 0.00000E+00
 -1      2851 4.67850E+01 7.90325E+00 0.00000E+00
 -1      2852 4.60350E+01 9.20225E+00 0.00000E+00
 -1      2853 5.42850E+01 7.90325E+00 0.00000E+00
 -1      2854 5.27850E+01 7.90325E+00 0.00000E+00
 -1      2855 5.68068E+01 8.90551E+00 0.00000E+00
 -1      2856 5.53068E+01 8.90551E+00 0.00000E+00
 -1      2857 6.02896E+01 8.59447E+00 0.00000E+00
 -1      2858 5.87896E+01 8.59447E+00 0.00000E+00
 -1      2859 6.62850E+01 7.90325E+00 0.00000E+00
 -1      2860 6.47850E+01 7.90325E+00 0.00000E+00
 -1      2861 6.92850E+01 7.90325E+00 0.00000E+00
 -1      2862 6.77850E+01 7.90325E+00 0.00000E+00
 -1      2863 6.70350E+01 9.20225E+00 0.00000E+00
 -1      2864 7.22850E+01 7.90325E+00 0.00000E+00
 -1      2865 7.07850E+01 7.90325E+00 0.00000E+00
 -1      2866 7.00350E+01 9.20225E+00 0.00000E+00
 -1      2867 7.52850E+01 7.90325E+00 0.00000E+00
 -1      2868 7.37850E+01 7.90325E+00 0.00000E+00
 -1      2869 7.30350E+01 9.20225E+00 0.00000E+00
 -1      2870 7.82850E+01 7.90325E+00 0.00000E+00
 -1      2871 7.67850E+01 7.90325E+00 0.00000E+00
 -1      2872 7.60350E+01 9.20225E+00 0.00000E+00
 -1      2873 8.12850E+01 7.90325E+00 0.00000E+00
 -1      2874 7.97850E+01 7.90325E+00 0.00000E+00
 -1      2875 7.90350E+01 9.20225E+00 0.00000E+00
 -1      2876 8.42850E+01 7.90325E+00 0.00000E+00
 -1      2877 8.27850E+01 7.90325E+00 0.00000E+00
 -1      2878 8.20350E+01 9.20225E+00 0.00000E+00
 -1      2879 8.72850E+01 7.90325E+00 0.00000E+00
 -1      2880 8.57850E+01 7.90325E+00 0.00000E+00
 -1      2881 8.50350E+01 9.20225E+00 0.00000E+00
 -1      2882 9.02850E+01 7.90325E+00 0.00000E+00
 -1      2883 8.87850E+01 7.90325E+00 0.00000E+00
 -1      2884 8.80350E+01 9.20225E+00 0.00000E+00
 -1      2885 9.32850E+01 7.90325E+00 0.00000E+00
 -1      2886 9.17850E+01 7.90325E+00 0.00000E+00
 -1      2887 9.10350E+01 9.20225E+00 0.00000E+00
 -1      2888 9.62850E+01 7.90325E+00 0.00000E+00
 -1      2889 9.47850E+01 7.90325E+00 0.00000E+00
 -1      2890 9.40350E+01 9.20225E+00 0.00000E+00
 -1      2891 9.92850E+01 7.90325E+00 0.00000E+00
 -1      2892 9.77850E+01 7.90325E+00 0.00000E+00
 -1      2893 9.70350E+01 9.20225E+00 0.00000E+00
 -1      2894 1.02285E+02 7.90325E+00 0.00000E+00
 -1      2895 1.00785E+02 7.90325E+00 0.00000E+00
 -1      2896 1.00035E+02 9.20225E+00 0.00000E+00
 -1      2897 1.05285E+02 7.90325E+00 0.00000E+00
 -1      2898 1.03785E+02 7.90325E+00 0.00000E+00
 -1      2899 1.03035E+02 9.20225E+00 0.00000E+00
 -1      2900 1.08285E+02 7.90325E+00 0.00000E+00
 -1      2901 1.06785E+02 7.90325E+00 0.00000E+00
 -1      2902 1.06035E+02 9.20225E+00 0.00000E+00
 -1      2903 1.11285E+02 7.90325E+00 0.00000E+00
 -1      2904 1.09785E+02 7.90325E+00 0.00000E+00
 -1      2905 1.09035E+02 9.20225E+00 0.00000E+00
 -1      2906 1.14285E+02 7.90325E+00 0.00000E+00
 -1      2907 1.12785E+02 7.90325E+00 0.00000E+00
 -1      2908 1.12035E+02 9.20225E+00 0.00000E+00
 -1      2909 1.17285E+02 7.90325E+00 0.00000E+00
 -1      2910 1.15785E+02 7.90325E+00 0.00000E+00
 -1      2911 1.15035E+02 9.20225E+00 0.00000E+00
 -1      2912 1.20285E+02 7.90325E+00 0.00000E+00
 -1      2913 1.18785E+02 7.90325E+00 0.00000E+00
 -1      2914 1.18035E+02 9.20225E+00 0.00000E+00
 -1      2915 1.23285E+02 7.90325E+00 0.00000E+00
 -1      2916 1.21785E+02 7.90325E+00 0.00000E+00
 -1      2917 1.21035E+02 9.20225E+00 0.00000E+00
 -1      2918 1.26285E+02 7.90325E+00 0.00000E+00
 -1      2919 1.24785E+02 7.90325E+00 0.00000E+00
 -1      2920 1.24035E+02 9.20225E+00 0.00000E+00
 -1      2921 1.29285E+02 7.90325E+00 0.00000E+00
 -1      2922 1.27785E+02 7.90325E+00 0.00000E+00
 -1      2923 1.27035E+02 9.20225E+00 0.00000E+00
 -1      2924 1.32285E+02 7.90325E+00 0.00000E+00
 -1      2925 1.30785E+02 7.90325E+00 0.00000E+00
 -1      2926 1.30035E+02 9.20225E+00 0.00000E+00
 -1      2927 1.35285E+02 7.90325E+00 0.00000E+00
 -1      2928 1.33785E+02 7.90325E+00 0.00000E+00
 -1      2929 1.33035E+02 9.20225E+00 0.00000E+00
 -1      2930 1.38285E+02 7.90325E+00 0.00000E+00
 -1      2931 1.36785E+02 7.90325E+00 0.00000E+00
 -1      2932 1.36035E+02 9.20225E+00 0.00000E+00
 -1      2933 1.40953E+02 8.18394E+00 0.00000E+00
 -1      2934 1.39453E+02 8.18394E+00 0.00000E+00
 -1      2935 1.38703E+02 9.48294E+00 0.00000E+00
 -1      2936 1.41038E+02 1.00443E+01 0.00000E+00
 -1      2937 6.47315E+01 1.46931E+01 0.00000E+00
 -1      2938 6.55172E+01 1.55115E+01 0.00000E+00
 -1      2939 1.40907E+02 2.42875E+01 0.00000E+00
 -1      2940 1.40907E+02 2.28125E+01 0.00000E+00
 -1      2941 1.39914E+02 4.09362E+01 0.00000E+00
 -1      2942 1.40928E+02 4.09655E+01 0.00000E+00
 -1      2943 1.39164E+02 3.96372E+01 0.00000E+00
 -1      2944 1.40907E+02 1.83875E+01 0.00000E+00
 -1      2945 1.40907E+02 1.69125E+01 0.00000E+00
 -1      2946 1.40907E+02 2.72375E+01 0.00000E+00
 -1      2947 1.40907E+02 2.57625E+01 0.00000E+00
 -1      2948 1.39608E+02 2.50250E+01 0.00000E+00
 -1      2949 1.40907E+02 2.13375E+01 0.00000E+00
 -1      2950 1.40907E+02 1.98625E+01 0.00000E+00
 -1      2951 1.39608E+02 1.91250E+01 0.00000E+00
 -1      2952 1.39608E+02 2.20750E+01 0.00000E+00
 -1      2953 1.40907E+02 3.01375E+01 0.00000E+00
 -1      2954 1.40907E+02 2.86875E+01 0.00000E+00
 -1      2955 1.39608E+02 2.79500E+01 0.00000E+00
 -1      2956 1.40907E+02 3.30875E+01 0.00000E+00
 -1      2957 1.40907E+02 3.16125E+01 0.00000E+00
 -1      2958 1.39608E+02 3.08750E+01 0.00000E+00
 -1      2959 1.40907E+02 3.60375E+01 0.00000E+00
 -1      2960 1.40907E+02 3.45625E+01 0.00000E+00
 -1      2961 1.39608E+02 3.38250E+01 0.00000E+00
 -1      2962 9.25425E+00 4.07069E+01 0.00000E+00
 -1      2963 1.06178E+01 4.09709E+01 0.00000E+00
 -1      2964 9.22200E+00 3.94717E+01 0.00000E+00
 -1      2965 5.60830E+01 3.48349E+01 0.00000E+00
 -1      2966 5.50253E+01 3.47309E+01 0.00000E+00
 -1      2967 6.44459E+01 3.10399E+01 0.00000E+00
 -1      2968 6.36651E+01 3.17718E+01 0.00000E+00
 -1      2969 6.39007E+01 3.29780E+01 0.00000E+00
 -1      2970 4.67788E+01 3.11052E+01 0.00000E+00
 -1      2971 4.59844E+01 3.01424E+01 0.00000E+00
 -1      2972 6.79555E+01 2.24717E+01 0.00000E+00
 -1      2973 6.78812E+01 2.32790E+01 0.00000E+00
 -1      2974 6.56761E+01 2.88351E+01 0.00000E+00
 -1      2975 6.52091E+01 2.97589E+01 0.00000E+00
 -1      2976 4.41578E+01 1.90851E+01 0.00000E+00
 -1      2977 4.45043E+01 1.82426E+01 0.00000E+00
 -1      2978 1.82850E+01 7.90325E+00 0.00000E+00
 -1      2979 1.67850E+01 7.90325E+00 0.00000E+00
 -1      2980 1.90350E+01 9.20225E+00 0.00000E+00
 -1      2981 2.72850E+01 7.90325E+00 0.00000E+00
 -1      2982 2.57850E+01 7.90325E+00 0.00000E+00
 -1      2983 2.50350E+01 9.20225E+00 0.00000E+00
 -1      2984 2.80350E+01 9.20225E+00 0.00000E+00
 -1      2985 1.17589E+01 4.09389E+01 0.00000E+00
 -1      2986 1.32589E+01 4.09389E+01 0.00000E+00
 -1      2987 1.40089E+01 3.96399E+01 0.00000E+00
 -1      2988 1.17266E+01 3.97038E+01 0.00000E+00
 -1      2989 1.52850E+01 7.90325E+00 0.00000E+00
 -1      2990 1.37850E+01 7.90325E+00 0.00000E+00
 -1      2991 1.30350E+01 9.20225E+00 0.00000E+00
 -1      2992 1.60350E+01 9.20225E+00 0.00000E+00
 -1      2993 6.26103E+01 1.33300E+01 0.00000E+00
 -1      2994 6.35807E+01 1.39595E+01 0.00000E+00
 -1      2995 9.09300E+00 1.68813E+01 0.00000E+00
 -1      2996 9.09300E+00 1.83563E+01 0.00000E+00
 -1      2997 1.03920E+01 1.90812E+01 0.00000E+00
 -1      2998 1.03920E+01 1.61437E+01 0.00000E+00
 -1      2999 9.09300E+00 3.15875E+01 0.00000E+00
 -1      3000 9.09300E+00 3.30625E+01 0.00000E+00
 -1      3001 6.76138E+01 2.43358E+01 0.00000E+00
 -1      3002 6.69880E+01 2.54443E+01 0.00000E+00
 -1      3003 6.76951E+01 2.61838E+01 0.00000E+00
 -1      3004 4.34988E+01 2.13829E+01 0.00000E+00
 -1      3005 4.38283E+01 2.02340E+01 0.00000E+00
 -1      3006 4.31310E+01 1.94547E+01 0.00000E+00
 -1      3007 4.42244E+01 2.65190E+01 0.00000E+00
 -1      3008 4.41471E+01 2.53036E+01 0.00000E+00
 -1      3009 4.81120E+01 1.27106E+01 0.00000E+00
 -1      3010 4.92031E+01 1.19508E+01 0.00000E+00
 -1      3011 1.41192E+02 3.96958E+01 0.00000E+00
 -1      3012 5.04391E+01 1.13686E+01 0.00000E+00
 -1      3013 5.14763E+01 1.07847E+01 0.00000E+00
 -1      3014 4.51057E+01 1.71285E+01 0.00000E+00
 -1      3015 4.57071E+01 1.60144E+01 0.00000E+00
 -1      3016 4.40619E+01 1.71917E+01 0.00000E+00
 -1      3017 4.63576E+01 1.49022E+01 0.00000E+00
 -1      3018 4.70823E+01 1.39268E+01 0.00000E+00
 -1      3019 6.07520E+01 1.22322E+01 0.00000E+00
 -1      3020 6.16390E+01 1.27369E+01 0.00000E+00
 -1      3021 4.52076E+01 2.90489E+01 0.00000E+00
 -1      3022 4.46104E+01 2.80541E+01 0.00000E+00
 -1      3023 5.87666E+01 3.43528E+01 0.00000E+00
 -1      3024 5.76043E+01 3.47338E+01 0.00000E+00
 -1      3025 6.06854E+01 3.37251E+01 0.00000E+00
 -1      3026 5.97260E+01 3.40390E+01 0.00000E+00
 -1      3027 5.94642E+01 3.52036E+01 0.00000E+00
 -1      3028 9.09300E+00 3.45313E+01 0.00000E+00
 -1      3029 9.09300E+00 3.60000E+01 0.00000E+00
 -1      3030 1.03920E+01 3.37938E+01 0.00000E+00
 -1      3031 1.03920E+01 2.49750E+01 0.00000E+00
 -1      3032 9.09300E+00 2.57000E+01 0.00000E+00
 -1      3033 9.09300E+00 2.71750E+01 0.00000E+00
 -1      3034 6.25909E+01 1.23323E+01 0.00000E+00
 -1      3035 6.05819E+01 1.11620E+01 0.00000E+00
 -1      3036 9.66450E+00 9.72612E+00 0.00000E+00
 -1      3037 6.17717E+01 3.42998E+01 0.00000E+00
 -1      3038 6.63117E+01 1.59509E+01 0.00000E+00
 -1      3039 6.71061E+01 1.63903E+01 0.00000E+00
 -1      3040 6.66583E+01 1.48318E+01 0.00000E+00
 -1      3041 1.39608E+02 1.61875E+01 0.00000E+00
 -1      3042 1.40907E+02 1.54500E+01 0.00000E+00
 -1      3043 1.40907E+02 1.39875E+01 0.00000E+00
 -1      3044 4.66788E+01 3.21272E+01 0.00000E+00
 -1      3045 4.48787E+01 3.01294E+01 0.00000E+00
 -1      3046 4.97655E+01 8.43032E+00 0.00000E+00
 -1      3047 4.90155E+01 9.72932E+00 0.00000E+00
 -1      3048 5.12655E+01 8.43032E+00 0.00000E+00
 -1      3049 5.45568E+01 1.02045E+01 0.00000E+00
 -1      3050 6.32850E+01 7.90325E+00 0.00000E+00
 -1      3051 6.17850E+01 7.90325E+00 0.00000E+00
 -1      3052 6.47131E+01 1.36589E+01 0.00000E+00
 -1      3053 1.09635E+01 1.04636E+01 0.00000E+00
 -1      3054 5.20155E+01 9.72932E+00 0.00000E+00
 -1      3055 5.29958E+01 1.02577E+01 0.00000E+00
 -1      3056 1.40973E+02 1.27472E+01 0.00000E+00
 -1      3057 1.40973E+02 1.12847E+01 0.00000E+00
 -1      3058 1.39805E+02 1.10040E+01 0.00000E+00
 -1      3059 1.39674E+02 1.34847E+01 0.00000E+00
 -1      3060 6.54447E+01 3.09650E+01 0.00000E+00
 -1      3061 5.18166E+01 3.41466E+01 0.00000E+00
 -1      3062 5.09436E+01 3.45613E+01 0.00000E+00
 -1      3063 5.22217E+01 3.48958E+01 0.00000E+00
 -1      3064 6.72392E+01 1.89409E+01 0.00000E+00
 -1      3065 6.81377E+01 1.94904E+01 0.00000E+00
 -1      3066 6.76579E+01 1.80590E+01 0.00000E+00
 -1      3067 1.41192E+02 3.82207E+01 0.00000E+00
 -1      3068 5.69834E+01 3.56186E+01 0.00000E+00
 -1      3069 4.33855E+01 2.47576E+01 0.00000E+00
 -1      3070 6.66386E+01 2.84881E+01 0.00000E+00
 -1      3071 6.82873E+01 2.16669E+01 0.00000E+00
 -1      3072 6.91876E+01 2.21568E+01 0.00000E+00
 -1      3073 6.86192E+01 2.08621E+01 0.00000E+00
 -1      3074 6.85883E+01 2.40184E+01 0.00000E+00
 -1      3075 4.69941E+01 1.26369E+01 0.00000E+00
 -1      3076 5.42784E+01 3.51004E+01 0.00000E+00
 -1      3077 4.91203E+01 3.34219E+01 0.00000E+00
 -1      3078 4.81419E+01 3.37335E+01 0.00000E+00
 -1      3079 4.95600E+01 3.41237E+01 0.00000E+00
 -1      3080 9.09300E+00 2.86437E+01 0.00000E+00
 -1      3081 9.09300E+00 3.01187E+01 0.00000E+00
 -1      3082 1.03920E+01 3.08563E+01 0.00000E+00
 -1      3083 1.03920E+01 2.79188E+01 0.00000E+00
 -1      3084 4.31213E+01 2.20766E+01 0.00000E+00
 -1      3085 4.24240E+01 2.12973E+01 0.00000E+00
 -1      3086 4.27438E+01 2.27702E+01 0.00000E+00
 -1      3087 4.37159E+01 2.75009E+01 0.00000E+00
 -1      3088 4.28214E+01 2.69476E+01 0.00000E+00
 -1      3089 4.32074E+01 2.84828E+01 0.00000E+00
 -1      3090 4.92599E+01 1.08386E+01 0.00000E+00
 -1      3091 1.39529E+02 3.85602E+01 0.00000E+00
 -1      3092 1.40542E+02 3.71145E+01 0.00000E+00
 -1      3093 1.39243E+02 3.63770E+01 0.00000E+00
 -1      3094 1.38514E+02 3.85310E+01 0.00000E+00
 -1      3095 4.53138E+01 1.49653E+01 0.00000E+00
 -1      3096 6.40350E+01 9.20225E+00 0.00000E+00
 -1      3097 6.29239E+01 3.50975E+01 0.00000E+00
 -1      3098 6.15758E+01 3.56874E+01 0.00000E+00
 -1      3099 1.16910E+01 1.24625E+01 0.00000E+00
 -1      3100 1.16910E+01 1.39375E+01 0.00000E+00
 -1      3101 4.19808E+01 1.97466E+01 0.00000E+00
 -1      3102 4.23103E+01 1.85977E+01 0.00000E+00
 -1      3103 1.89000E+01 3.83090E+01 0.00000E+00
 -1      3104 2.04000E+01 3.83090E+01 0.00000E+00
 -1      3105 2.19000E+01 3.83090E+01 0.00000E+00
 -1      3106 2.34000E+01 3.83090E+01 0.00000E+00
 -1      3107 2.11500E+01 3.70100E+01 0.00000E+00
 -1      3108 2.49000E+01 3.83090E+01 0.00000E+00
 -1      3109 2.64000E+01 3.83090E+01 0.00000E+00
 -1      3110 2.41500E+01 3.70100E+01 0.00000E+00
 -1      3111 2.79000E+01 3.83090E+01 0.00000E+00
 -1      3112 2.94000E+01 3.83090E+01 0.00000E+00
 -1      3113 2.71500E+01 3.70100E+01 0.00000E+00
 -1      3114 3.09000E+01 3.83090E+01 0.00000E+00
 -1      3115 3.24000E+01 3.83090E+01 0.00000E+00
 -1      3116 3.01500E+01 3.70100E+01 0.00000E+00
 -1      3117 3.39000E+01 3.83090E+01 0.00000E+00
 -1      3118 3.54000E+01 3.83090E+01 0.00000E+00
 -1      3119 3.31500E+01 3.70100E+01 0.00000E+00
 -1      3120 3.69000E+01 3.83090E+01 0.00000E+00
 -1      3121 3.84000E+01 3.83090E+01 0.00000E+00
 -1      3122 3.61500E+01 3.70100E+01 0.00000E+00
 -1      3123 3.99000E+01 3.83090E+01 0.00000E+00
 -1      3124 4.14000E+01 3.83090E+01 0.00000E+00
 -1      3125 3.91500E+01 3.70100E+01 0.00000E+00
 -1      3126 4.29000E+01 3.83090E+01 0.00000E+00
 -1      3127 4.44000E+01 3.83090E+01 0.00000E+00
 -1      3128 4.21500E+01 3.70100E+01 0.00000E+00
 -1      3129 4.59000E+01 3.83090E+01 0.00000E+00
 -1      3130 4.74000E+01 3.83090E+01 0.00000E+00
 -1      3131 4.51500E+01 3.70100E+01 0.00000E+00
 -1      3132 4.97493E+01 3.74592E+01 0.00000E+00
 -1      3133 5.12493E+01 3.74592E+01 0.00000E+00
 -1      3134 5.27493E+01 3.74592E+01 0.00000E+00
 -1      3135 5.48060E+01 3.76639E+01 0.00000E+00
 -1      3136 5.63060E+01 3.76639E+01 0.00000E+00
 -1      3137 5.78274E+01 3.75627E+01 0.00000E+00
 -1      3138 5.93274E+01 3.75627E+01 0.00000E+00
 -1      3139 6.14390E+01 3.80465E+01 0.00000E+00
 -1      3140 6.29390E+01 3.80465E+01 0.00000E+00
 -1      3141 6.44390E+01 3.80465E+01 0.00000E+00
 -1      3142 6.59390E+01 3.80465E+01 0.00000E+00
 -1      3143 6.42280E+01 3.64851E+01 0.00000E+00
 -1      3144 6.74390E+01 3.80465E+01 0.00000E+00
 -1      3145 6.89390E+01 3.80465E+01 0.00000E+00
 -1      3146 6.72280E+01 3.64851E+01 0.00000E+00
 -1      3147 7.04390E+01 3.80465E+01 0.00000E+00
 -1      3148 7.19390E+01 3.80465E+01 0.00000E+00
 -1      3149 7.02280E+01 3.64851E+01 0.00000E+00
 -1      3150 7.34390E+01 3.80465E+01 0.00000E+00
 -1      3151 7.49390E+01 3.80465E+01 0.00000E+00
 -1      3152 7.32280E+01 3.64851E+01 0.00000E+00
 -1      3153 7.64390E+01 3.80465E+01 0.00000E+00
 -1      3154 7.79390E+01 3.80465E+01 0.00000E+00
 -1      3155 7.62280E+01 3.64851E+01 0.00000E+00
 -1      3156 7.94390E+01 3.80465E+01 0.00000E+00
 -1      3157 8.09390E+01 3.80465E+01 0.00000E+00
 -1      3158 7.92280E+01 3.64851E+01 0.00000E+00
 -1      3159 8.24390E+01 3.80465E+01 0.00000E+00
 -1      3160 8.39390E+01 3.80465E+01 0.00000E+00
 -1      3161 8.22280E+01 3.64851E+01 0.00000E+00
 -1      3162 8.54390E+01 3.80465E+01 0.00000E+00
 -1      3163 8.69390E+01 3.80465E+01 0.00000E+00
 -1      3164 8.52280E+01 3.64851E+01 0.00000E+00
 -1      3165 8.84390E+01 3.80465E+01 0.00000E+00
 -1      3166 8.99390E+01 3.80465E+01 0.00000E+00
 -1      3167 8.82280E+01 3.64851E+01 0.00000E+00
 -1      3168 9.14390E+01 3.80465E+01 0.00000E+00
 -1      3169 9.29390E+01 3.80465E+01 0.00000E+00
 -1      3170 9.12280E+01 3.64851E+01 0.00000E+00
 -1      3171 9.44390E+01 3.80465E+01 0.00000E+00
 -1      3172 9.59390E+01 3.80465E+01 0.00000E+00
 -1      3173 9.42280E+01 3.64851E+01 0.00000E+00
 -1      3174 9.74390E+01 3.80465E+01 0.00000E+00
 -1      3175 9.89390E+01 3.80465E+01 0.00000E+00
 -1      3176 9.72280E+01 3.64851E+01 0.00000E+00
 -1      3177 1.00439E+02 3.80465E+01 0.00000E+00
 -1      3178 1.01939E+02 3.80465E+01 0.00000E+00
 -1      3179 1.00228E+02 3.64851E+01 0.00000E+00
 -1      3180 1.03439E+02 3.80465E+01 0.00000E+00
 -1      3181 1.04939E+02 3.80465E+01 0.00000E+00
 -1      3182 1.03228E+02 3.64851E+01 0.00000E+00
 -1      3183 1.06439E+02 3.80465E+01 0.00000E+00
 -1      3184 1.07939E+02 3.80465E+01 0.00000E+00
 -1      3185 1.06228E+02 3.64851E+01 0.00000E+00
 -1      3186 1.09439E+02 3.80465E+01 0.00000E+00
 -1      3187 1.10939E+02 3.80465E+01 0.00000E+00
 -1      3188 1.09228E+02 3.64851E+01 0.00000E+00
 -1      3189 1.12439E+02 3.80465E+01 0.00000E+00
 -1      3190 1.13939E+02 3.80465E+01 0.00000E+00
 -1      3191 1.12228E+02 3.64851E+01 0.00000E+00
 -1      3192 1.15439E+02 3.80465E+01 0.00000E+00
 -1      3193 1.16939E+02 3.80465E+01 0.00000E+00
 -1      3194 1.15228E+02 3.64851E+01 0.00000E+00
 -1      3195 1.18439E+02 3.80465E+01 0.00000E+00
 -1      3196 1.19939E+02 3.80465E+01 0.00000E+00
 -1      3197 1.18228E+02 3.64851E+01 0.00000E+00
 -1      3198 1.21439E+02 3.80465E+01 0.00000E+00
 -1      3199 1.22939E+02 3.80465E+01 0.00000E+00
 -1      3200 1.21228E+02 3.64851E+01 0.00000E+00
 -1      3201 1.24439E+02 3.80465E+01 0.00000E+00
 -1      3202 1.25939E+02 3.80465E+01 0.00000E+00
 -1      3203 1.24228E+02 3.64851E+01 0.00000E+00
 -1      3204 1.27439E+02 3.80465E+01 0.00000E+00
 -1      3205 1.28939E+02 3.80465E+01 0.00000E+00
 -1      3206 1.27228E+02 3.64851E+01 0.00000E+00
 -1      3207 1.30439E+02 3.80465E+01 0.00000E+00
 -1      3208 1.31939E+02 3.80465E+01 0.00000E+00
 -1      3209 1.30228E+02 3.64851E+01 0.00000E+00
 -1      3210 1.33439E+02 3.80465E+01 0.00000E+00
 -1      3211 1.34939E+02 3.80465E+01 0.00000E+00
 -1      3212 1.33228E+02 3.64851E+01 0.00000E+00
 -1      3213 1.35977E+02 3.82888E+01 0.00000E+00
 -1      3214 1.37477E+02 3.82888E+01 0.00000E+00
 -1      3215 1.37841E+02 3.72118E+01 0.00000E+00
 -1      3216 1.35766E+02 3.67273E+01 0.00000E+00
 -1      3217 3.47850E+01 1.05013E+01 0.00000E+00
 -1      3218 3.32850E+01 1.05013E+01 0.00000E+00
 -1      3219 3.17850E+01 1.05013E+01 0.00000E+00
 -1      3220 3.02850E+01 1.05013E+01 0.00000E+00
 -1      3221 3.25350E+01 1.18003E+01 0.00000E+00
 -1      3222 4.07850E+01 1.05013E+01 0.00000E+00
 -1      3223 3.92850E+01 1.05013E+01 0.00000E+00
 -1      3224 4.37850E+01 1.05013E+01 0.00000E+00
 -1      3225 4.22850E+01 1.05013E+01 0.00000E+00
 -1      3226 4.15350E+01 1.18003E+01 0.00000E+00
 -1      3227 6.10396E+01 9.89347E+00 0.00000E+00
 -1      3228 6.46436E+01 1.24983E+01 0.00000E+00
 -1      3229 6.57945E+01 1.32318E+01 0.00000E+00
 -1      3230 6.71300E+01 1.06367E+01 0.00000E+00
 -1      3231 6.56300E+01 1.06367E+01 0.00000E+00
 -1      3232 7.67850E+01 1.05013E+01 0.00000E+00
 -1      3233 7.52850E+01 1.05013E+01 0.00000E+00
 -1      3234 7.97850E+01 1.05013E+01 0.00000E+00
 -1      3235 7.82850E+01 1.05013E+01 0.00000E+00
 -1      3236 7.75350E+01 1.18003E+01 0.00000E+00
 -1      3237 8.27850E+01 1.05013E+01 0.00000E+00
 -1      3238 8.12850E+01 1.05013E+01 0.00000E+00
 -1      3239 8.05350E+01 1.18003E+01 0.00000E+00
 -1      3240 8.57850E+01 1.05013E+01 0.00000E+00
 -1      3241 8.42850E+01 1.05013E+01 0.00000E+00
 -1      3242 8.35350E+01 1.18003E+01 0.00000E+00
 -1      3243 8.87850E+01 1.05013E+01 0.00000E+00
 -1      3244 8.72850E+01 1.05013E+01 0.00000E+00
 -1      3245 8.65350E+01 1.18003E+01 0.00000E+00
 -1      3246 9.17850E+01 1.05013E+01 0.00000E+00
 -1      3247 9.02850E+01 1.05013E+01 0.00000E+00
 -1      3248 8.95350E+01 1.18003E+01 0.00000E+00
 -1      3249 9.47850E+01 1.05013E+01 0.00000E+00
 -1      3250 9.32850E+01 1.05013E+01 0.00000E+00
 -1      3251 9.25350E+01 1.18003E+01 0.00000E+00
 -1      3252 9.77850E+01 1.05013E+01 0.00000E+00
 -1      3253 9.62850E+01 1.05013E+01 0.00000E+00
 -1      3254 9.55350E+01 1.18003E+01 0.00000E+00
 -1      3255 1.00785E+02 1.05013E+01 0.00000E+00
 -1      3256 9.92850E+01 1.05013E+01 0.00000E+00
 -1      3257 9.85350E+01 1.18003E+01 0.00000E+00
 -1      3258 1.03785E+02 1.05013E+01 0.00000E+00
 -1      3259 1.02285E+02 1.05013E+01 0.00000E+00
 -1      3260 1.01535E+02 1.18003E+01 0.00000E+00
 -1      3261 1.06785E+02 1.05013E+01 0.00000E+00
 -1      3262 1.05285E+02 1.05013E+01 0.00000E+00
 -1      3263 1.04535E+02 1.18003E+01 0.00000E+00
 -1      3264 1.09785E+02 1.05013E+01 0.00000E+00
 -1      3265 1.08285E+02 1.05013E+01 0.00000E+00
 -1      3266 1.07535E+02 1.18003E+01 0.00000E+00
 -1      3267 1.12785E+02 1.05013E+01 0.00000E+00
 -1      3268 1.11285E+02 1.05013E+01 0.00000E+00
 -1      3269 1.10535E+02 1.18003E+01 0.00000E+00
 -1      3270 1.15785E+02 1.05013E+01 0.00000E+00
 -1      3271 1.14285E+02 1.05013E+01 0.00000E+00
 -1      3272 1.13535E+02 1.18003E+01 0.00000E+00
 -1      3273 1.18785E+02 1.05013E+01 0.00000E+00
 -1      3274 1.17285E+02 1.05013E+01 0.00000E+00
 -1      3275 1.16535E+02 1.18003E+01 0.00000E+00
 -1      3276 1.21785E+02 1.05013E+01 0.00000E+00
 -1      3277 1.20285E+02 1.05013E+01 0.00000E+00
 -1      3278 1.19535E+02 1.18003E+01 0.00000E+00
 -1      3279 1.24785E+02 1.05013E+01 0.00000E+00
 -1      3280 1.23285E+02 1.05013E+01 0.00000E+00
 -1      3281 1.22535E+02 1.18003E+01 0.00000E+00
 -1      3282 1.27785E+02 1.05013E+01 0.00000E+00
 -1      3283 1.26285E+02 1.05013E+01 0.00000E+00
 -1      3284 1.25535E+02 1.18003E+01 0.00000E+00
 -1      3285 1.30785E+02 1.05013E+01 0.00000E+00
 -1      3286 1.29285E+02 1.05013E+01 0.00000E+00
 -1      3287 1.28535E+02 1.18003E+01 0.00000E+00
 -1      3288 1.33785E+02 1.05013E+01 0.00000E+00
 -1      3289 1.32285E+02 1.05013E+01 0.00000E+00
 -1      3290 1.31535E+02 1.18003E+01 0.00000E+00
 -1      3291 1.36785E+02 1.05013E+01 0.00000E+00
 -1      3292 1.35285E+02 1.05013E+01 0.00000E+00
 -1      3293 1.34535E+02 1.18003E+01 0.00000E+00
 -1      3294 1.38879E+02 1.08930E+01 0.00000E+00
 -1      3295 1.37711E+02 1.06123E+01 0.00000E+00
 -1      3296 1.36961E+02 1.19113E+01 0.00000E+00
 -1      3297 1.38813E+02 1.21333E+01 0.00000E+00
 -1      3298 6.41300E+01 1.06367E+01 0.00000E+00
 -1      3299 1.38309E+02 2.86750E+01 0.00000E+00
 -1      3300 1.38309E+02 2.72250E+01 0.00000E+00
 -1      3301 1.38309E+02 3.45625E+01 0.00000E+00
 -1      3302 1.38309E+02 3.30875E+01 0.00000E+00
 -1      3303 1.38309E+02 2.57500E+01 0.00000E+00
 -1      3304 1.38309E+02 2.42750E+01 0.00000E+00
 -1      3305 1.37010E+02 2.64750E+01 0.00000E+00
 -1      3306 1.97850E+01 1.05013E+01 0.00000E+00
 -1      3307 1.82850E+01 1.05013E+01 0.00000E+00
 -1      3308 6.49921E+01 3.33599E+01 0.00000E+00
 -1      3309 6.42113E+01 3.40918E+01 0.00000E+00
 -1      3310 1.38309E+02 3.16187E+01 0.00000E+00
 -1      3311 1.38309E+02 3.01437E+01 0.00000E+00
 -1      3312 1.37010E+02 2.94188E+01 0.00000E+00
 -1      3313 1.37010E+02 3.23563E+01 0.00000E+00
 -1      3314 4.41037E+01 1.50039E+01 0.00000E+00
 -1      3315 4.47542E+01 1.38917E+01 0.00000E+00
 -1      3316 7.37850E+01 1.05013E+01 0.00000E+00
 -1      3317 7.22850E+01 1.05013E+01 0.00000E+00
 -1      3318 7.45350E+01 1.18003E+01 0.00000E+00
 -1      3319 7.07850E+01 1.05013E+01 0.00000E+00
 -1      3320 6.92850E+01 1.05013E+01 0.00000E+00
 -1      3321 7.15350E+01 1.18003E+01 0.00000E+00
 -1      3322 4.44314E+01 3.12699E+01 0.00000E+00
 -1      3323 4.36546E+01 3.01764E+01 0.00000E+00
 -1      3324 5.83253E+01 8.23757E+00 0.00000E+00
 -1      3325 5.70970E+01 1.05388E+01 0.00000E+00
 -1      3326 1.26488E+01 1.02017E+01 0.00000E+00
 -1      3327 1.20772E+01 1.14631E+01 0.00000E+00
 -1      3328 1.33763E+01 1.22006E+01 0.00000E+00
 -1      3329 1.41488E+01 1.02017E+01 0.00000E+00
 -1      3330 3.77850E+01 1.05013E+01 0.00000E+00
 -1      3331 3.62850E+01 1.05013E+01 0.00000E+00
 -1      3332 3.55350E+01 1.18003E+01 0.00000E+00
 -1      3333 3.85350E+01 1.18003E+01 0.00000E+00
 -1      3334 6.96346E+01 2.37209E+01 0.00000E+00
 -1      3335 6.93672E+01 2.47777E+01 0.00000E+00
 -1      3336 2.27850E+01 1.05013E+01 0.00000E+00
 -1      3337 2.12850E+01 1.05013E+01 0.00000E+00
 -1      3338 2.05350E+01 1.18003E+01 0.00000E+00
 -1      3339 5.80873E+01 1.06626E+01 0.00000E+00
 -1      3340 4.65116E+01 3.33476E+01 0.00000E+00
 -1      3341 4.54883E+01 3.24432E+01 0.00000E+00
 -1      3342 4.29008E+01 1.72321E+01 0.00000E+00
 -1      3343 4.35022E+01 1.61180E+01 0.00000E+00
 -1      3344 4.29426E+01 1.50443E+01 0.00000E+00
 -1      3345 1.59000E+01 3.83090E+01 0.00000E+00
 -1      3346 1.74000E+01 3.83090E+01 0.00000E+00
 -1      3347 1.81500E+01 3.70100E+01 0.00000E+00
 -1      3348 9.14137E+00 3.71183E+01 0.00000E+00
 -1      3349 9.17362E+00 3.83534E+01 0.00000E+00
 -1      3350 1.05371E+01 3.86174E+01 0.00000E+00
 -1      3351 1.04404E+01 3.63808E+01 0.00000E+00
 -1      3352 4.77794E+01 1.03115E+01 0.00000E+00
 -1      3353 4.56968E+01 1.25826E+01 0.00000E+00
 -1      3354 4.67266E+01 1.13664E+01 0.00000E+00
 -1      3355 6.89737E+01 2.61747E+01 0.00000E+00
 -1      3356 6.83478E+01 2.72832E+01 0.00000E+00
 -1      3357 6.79171E+01 2.84790E+01 0.00000E+00
 -1      3358 6.74865E+01 2.96748E+01 0.00000E+00
 -1      3359 6.91957E+01 2.84699E+01 0.00000E+00
 -1      3360 6.67232E+01 3.09559E+01 0.00000E+00
 -1      3361 6.59600E+01 3.22370E+01 0.00000E+00
 -1      3362 6.80018E+01 3.09468E+01 0.00000E+00
 -1      3363 6.20773E+01 1.04707E+01 0.00000E+00
 -1      3364 1.16910E+01 2.12875E+01 0.00000E+00
 -1      3365 1.16910E+01 2.27625E+01 0.00000E+00
 -1      3366 4.25011E+01 2.53223E+01 0.00000E+00
 -1      3367 4.25567E+01 2.41141E+01 0.00000E+00
 -1      3368 4.64822E+01 1.02572E+01 0.00000E+00
 -1      3369 1.16910E+01 2.42375E+01 0.00000E+00
 -1      3370 1.16910E+01 2.57125E+01 0.00000E+00
 -1      3371 1.29900E+01 2.35000E+01 0.00000E+00
 -1      3372 1.29900E+01 1.46687E+01 0.00000E+00
 -1      3373 1.16910E+01 1.54063E+01 0.00000E+00
 -1      3374 1.16910E+01 1.68750E+01 0.00000E+00
 -1      3375 4.17507E+01 1.75240E+01 0.00000E+00
 -1      3376 6.65889E+01 1.36712E+01 0.00000E+00
 -1      3377 6.73833E+01 1.41106E+01 0.00000E+00
 -1      3378 6.65194E+01 1.25106E+01 0.00000E+00
 -1      3379 6.62707E+01 3.33508E+01 0.00000E+00
 -1      3380 6.83513E+01 1.58207E+01 0.00000E+00
 -1      3381 6.80046E+01 1.69398E+01 0.00000E+00
 -1      3382 6.89031E+01 1.74894E+01 0.00000E+00
 -1      3383 4.12258E+01 2.11339E+01 0.00000E+00
 -1      3384 4.16033E+01 2.04402E+01 0.00000E+00
 -1      3385 4.07826E+01 1.95832E+01 0.00000E+00
 -1      3386 1.38309E+02 1.69188E+01 0.00000E+00
 -1      3387 1.38309E+02 1.54563E+01 0.00000E+00
 -1      3388 1.36178E+01 3.83729E+01 0.00000E+00
 -1      3389 1.47589E+01 3.83409E+01 0.00000E+00
 -1      3390 1.55089E+01 3.70419E+01 0.00000E+00
 -1      3391 4.89993E+01 3.61602E+01 0.00000E+00
 -1      3392 5.98671E+01 3.61575E+01 0.00000E+00
 -1      3393 6.06898E+01 3.82028E+01 0.00000E+00
 -1      3394 7.00199E+01 2.58772E+01 0.00000E+00
 -1      3395 1.16783E+01 3.85855E+01 0.00000E+00
 -1      3396 2.57850E+01 1.05013E+01 0.00000E+00
 -1      3397 2.42850E+01 1.05013E+01 0.00000E+00
 -1      3398 2.35350E+01 1.18003E+01 0.00000E+00
 -1      3399 6.99665E+01 2.29161E+01 0.00000E+00
 -1      3400 7.07454E+01 2.36754E+01 0.00000E+00
 -1      3401 7.02983E+01 2.21113E+01 0.00000E+00
 -1      3402 2.95350E+01 1.18003E+01 0.00000E+00
 -1      3403 2.87850E+01 1.05013E+01 0.00000E+00
 -1      3404 2.72850E+01 1.05013E+01 0.00000E+00
 -1      3405 4.49822E+01 1.02572E+01 0.00000E+00
 -1      3406 6.40154E+01 3.54794E+01 0.00000E+00
 -1      3407 1.38309E+02 1.98687E+01 0.00000E+00
 -1      3408 1.38309E+02 1.83937E+01 0.00000E+00
 -1      3409 1.37010E+02 1.76625E+01 0.00000E+00
 -1      3410 4.44867E+01 1.26212E+01 0.00000E+00
 -1      3411 1.38309E+02 2.28094E+01 0.00000E+00
 -1      3412 1.38309E+02 2.13344E+01 0.00000E+00
 -1      3413 1.37010E+02 2.06031E+01 0.00000E+00
 -1      3414 1.37010E+02 2.35344E+01 0.00000E+00
 -1      3415 1.69669E+01 1.03515E+01 0.00000E+00
 -1      3416 1.54669E+01 1.03515E+01 0.00000E+00
 -1      3417 1.50806E+01 1.13509E+01 0.00000E+00
 -1      3418 1.77169E+01 1.16505E+01 0.00000E+00
 -1      3419 6.90380E+01 1.99803E+01 0.00000E+00
 -1      3420 6.99382E+01 2.04702E+01 0.00000E+00
 -1      3421 6.94567E+01 1.90984E+01 0.00000E+00
 -1      3422 4.23128E+01 3.07636E+01 0.00000E+00
 -1      3423 4.27601E+01 2.96232E+01 0.00000E+00
 -1      3424 4.18656E+01 2.90699E+01 0.00000E+00
 -1      3425 4.42642E+01 3.24902E+01 0.00000E+00
 -1      3426 4.18594E+01 2.33348E+01 0.00000E+00
 -1      3427 4.71761E+01 3.50208E+01 0.00000E+00
 -1      3428 4.59856E+01 3.53368E+01 0.00000E+00
 -1      3429 6.30486E+01 1.10638E+01 0.00000E+00
 -1      3430 4.42322E+01 1.15562E+01 0.00000E+00
 -1      3431 5.43950E+01 3.63184E+01 0.00000E+00
 -1      3432 5.32114E+01 3.56991E+01 0.00000E+00
 -1      3433 1.16910E+01 1.83469E+01 0.00000E+00
 -1      3434 1.16910E+01 1.98156E+01 0.00000E+00
 -1      3435 1.29900E+01 2.05531E+01 0.00000E+00
 -1      3436 1.29900E+01 1.76094E+01 0.00000E+00
 -1      3437 4.14840E+01 2.72860E+01 0.00000E+00
 -1      3438 4.19926E+01 2.63041E+01 0.00000E+00
 -1      3439 4.11637E+01 2.56607E+01 0.00000E+00
 -1      3440 1.16910E+01 3.01219E+01 0.00000E+00
 -1      3441 1.16910E+01 3.15906E+01 0.00000E+00
 -1      3442 6.08266E+01 3.58437E+01 0.00000E+00
 -1      3443 1.16910E+01 3.30594E+01 0.00000E+00
 -1      3444 1.16910E+01 3.45281E+01 0.00000E+00
 -1      3445 1.29900E+01 3.23250E+01 0.00000E+00
 -1      3446 1.38206E+02 3.61348E+01 0.00000E+00
 -1      3447 1.36907E+02 3.53973E+01 0.00000E+00
 -1      3448 4.32895E+01 1.28652E+01 0.00000E+00
 -1      3449 2.34000E+01 3.57110E+01 0.00000E+00
 -1      3450 2.49000E+01 3.57110E+01 0.00000E+00
 -1      3451 2.64000E+01 3.57110E+01 0.00000E+00
 -1      3452 2.79000E+01 3.57110E+01 0.00000E+00
 -1      3453 2.56500E+01 3.44120E+01 0.00000E+00
 -1      3454 2.94000E+01 3.57110E+01 0.00000E+00
 -1      3455 3.09000E+01 3.57110E+01 0.00000E+00
 -1      3456 2.86500E+01 3.44120E+01 0.00000E+00
 -1      3457 3.24000E+01 3.57110E+01 0.00000E+00
 -1      3458 3.39000E+01 3.57110E+01 0.00000E+00
 -1      3459 3.16500E+01 3.44120E+01 0.00000E+00
 -1      3460 3.54000E+01 3.57110E+01 0.00000E+00
 -1      3461 3.69000E+01 3.57110E+01 0.00000E+00
 -1      3462 3.46500E+01 3.44120E+01 0.00000E+00
 -1      3463 3.84000E+01 3.57110E+01 0.00000E+00
 -1      3464 3.99000E+01 3.57110E+01 0.00000E+00
 -1      3465 3.76500E+01 3.44120E+01 0.00000E+00
 -1      3466 4.14000E+01 3.57110E+01 0.00000E+00
 -1      3467 4.29000E+01 3.57110E+01 0.00000E+00
 -1      3468 4.06500E+01 3.44120E+01 0.00000E+00
 -1      3469 4.44856E+01 3.53368E+01 0.00000E+00
 -1      3470 7.12841E+01 2.54794E+01 0.00000E+00
 -1      3471 7.08905E+01 2.68763E+01 0.00000E+00
 -1      3472 6.94780E+01 3.51861E+01 0.00000E+00
 -1      3473 7.09780E+01 3.51861E+01 0.00000E+00
 -1      3474 7.24780E+01 3.51861E+01 0.00000E+00
 -1      3475 7.39780E+01 3.51861E+01 0.00000E+00
 -1      3476 7.17280E+01 3.38871E+01 0.00000E+00
 -1      3477 7.54780E+01 3.51861E+01 0.00000E+00
 -1      3478 7.69780E+01 3.51861E+01 0.00000E+00
 -1      3479 7.47280E+01 3.38871E+01 0.00000E+00
 -1      3480 7.84780E+01 3.51861E+01 0.00000E+00
 -1      3481 7.99780E+01 3.51861E+01 0.00000E+00
 -1      3482 7.77280E+01 3.38871E+01 0.00000E+00
 -1      3483 8.14780E+01 3.51861E+01 0.00000E+00
 -1      3484 8.29780E+01 3.51861E+01 0.00000E+00
 -1      3485 8.07280E+01 3.38871E+01 0.00000E+00
 -1      3486 8.44780E+01 3.51861E+01 0.00000E+00
 -1      3487 8.59780E+01 3.51861E+01 0.00000E+00
 -1      3488 8.37280E+01 3.38871E+01 0.00000E+00
 -1      3489 8.74780E+01 3.51861E+01 0.00000E+00
 -1      3490 8.89780E+01 3.51861E+01 0.00000E+00
 -1      3491 8.67280E+01 3.38871E+01 0.00000E+00
 -1      3492 9.04780E+01 3.51861E+01 0.00000E+00
 -1      3493 9.19780E+01 3.51861E+01 0.00000E+00
 -1      3494 8.97280E+01 3.38871E+01 0.00000E+00
 -1      3495 9.34780E+01 3.51861E+01 0.00000E+00
 -1      3496 9.49780E+01 3.51861E+01 0.00000E+00
 -1      3497 9.27280E+01 3.38871E+01 0.00000E+00
 -1      3498 9.64780E+01 3.51861E+01 0.00000E+00
 -1      3499 9.79780E+01 3.51861E+01 0.00000E+00
 -1      3500 9.57280E+01 3.38871E+01 0.00000E+00
 -1      3501 9.94780E+01 3.51861E+01 0.00000E+00
 -1      3502 1.00978E+02 3.51861E+01 0.00000E+00
 -1      3503 9.87280E+01 3.38871E+01 0.00000E+00
 -1      3504 1.02478E+02 3.51861E+01 0.00000E+00
 -1      3505 1.03978E+02 3.51861E+01 0.00000E+00
 -1      3506 1.01728E+02 3.38871E+01 0.00000E+00
 -1      3507 1.05478E+02 3.51861E+01 0.00000E+00
 -1      3508 1.06978E+02 3.51861E+01 0.00000E+00
 -1      3509 1.04728E+02 3.38871E+01 0.00000E+00
 -1      3510 1.08478E+02 3.51861E+01 0.00000E+00
 -1      3511 1.09978E+02 3.51861E+01 0.00000E+00
 -1      3512 1.07728E+02 3.38871E+01 0.00000E+00
 -1      3513 1.11478E+02 3.51861E+01 0.00000E+00
 -1      3514 1.12978E+02 3.51861E+01 0.00000E+00
 -1      3515 1.10728E+02 3.38871E+01 0.00000E+00
 -1      3516 1.14478E+02 3.51861E+01 0.00000E+00
 -1      3517 1.15978E+02 3.51861E+01 0.00000E+00
 -1      3518 1.13728E+02 3.38871E+01 0.00000E+00
 -1      3519 1.17478E+02 3.51861E+01 0.00000E+00
 -1      3520 1.18978E+02 3.51861E+01 0.00000E+00
 -1      3521 1.16728E+02 3.38871E+01 0.00000E+00
 -1      3522 1.20478E+02 3.51861E+01 0.00000E+00
 -1      3523 1.21978E+02 3.51861E+01 0.00000E+00
 -1      3524 1.19728E+02 3.38871E+01 0.00000E+00
 -1      3525 1.23478E+02 3.51861E+01 0.00000E+00
 -1      3526 1.24978E+02 3.51861E+01 0.00000E+00
 -1      3527 1.22728E+02 3.38871E+01 0.00000E+00
 -1      3528 1.26478E+02 3.51861E+01 0.00000E+00
 -1      3529 1.27978E+02 3.51861E+01 0.00000E+00
 -1      3530 1.25728E+02 3.38871E+01 0.00000E+00
 -1      3531 1.29478E+02 3.51861E+01 0.00000E+00
 -1      3532 1.30978E+02 3.51861E+01 0.00000E+00
 -1      3533 1.28728E+02 3.38871E+01 0.00000E+00
 -1      3534 1.32478E+02 3.51861E+01 0.00000E+00
 -1      3535 1.33978E+02 3.51861E+01 0.00000E+00
 -1      3536 1.31728E+02 3.38871E+01 0.00000E+00
 -1      3537 1.35869E+02 3.51550E+01 0.00000E+00
 -1      3538 3.32850E+01 1.30992E+01 0.00000E+00
 -1      3539 3.17850E+01 1.30992E+01 0.00000E+00
 -1      3540 4.17895E+01 1.28652E+01 0.00000E+00
 -1      3541 4.02895E+01 1.28652E+01 0.00000E+00
 -1      3542 4.20440E+01 1.39302E+01 0.00000E+00
 -1      3543 6.86846E+01 1.07541E+01 0.00000E+00
 -1      3544 6.72796E+01 1.21886E+01 0.00000E+00
 -1      3545 7.82850E+01 1.30992E+01 0.00000E+00
 -1      3546 7.67850E+01 1.30992E+01 0.00000E+00
 -1      3547 8.72850E+01 1.30992E+01 0.00000E+00
 -1      3548 8.57850E+01 1.30992E+01 0.00000E+00
 -1      3549 9.02850E+01 1.30992E+01 0.00000E+00
 -1      3550 8.87850E+01 1.30992E+01 0.00000E+00
 -1      3551 8.80350E+01 1.43982E+01 0.00000E+00
 -1      3552 9.32850E+01 1.30992E+01 0.00000E+00
 -1      3553 9.17850E+01 1.30992E+01 0.00000E+00
 -1      3554 9.10350E+01 1.43982E+01 0.00000E+00
 -1      3555 9.62850E+01 1.30992E+01 0.00000E+00
 -1      3556 9.47850E+01 1.30992E+01 0.00000E+00
 -1      3557 9.40350E+01 1.43982E+01 0.00000E+00
 -1      3558 9.92850E+01 1.30992E+01 0.00000E+00
 -1      3559 9.77850E+01 1.30992E+01 0.00000E+00
 -1      3560 9.70350E+01 1.43982E+01 0.00000E+00
 -1      3561 1.02285E+02 1.30992E+01 0.00000E+00
 -1      3562 1.00785E+02 1.30992E+01 0.00000E+00
 -1      3563 1.00035E+02 1.43982E+01 0.00000E+00
 -1      3564 1.05285E+02 1.30992E+01 0.00000E+00
 -1      3565 1.03785E+02 1.30992E+01 0.00000E+00
 -1      3566 1.03035E+02 1.43982E+01 0.00000E+00
 -1      3567 1.08285E+02 1.30992E+01 0.00000E+00
 -1      3568 1.06785E+02 1.30992E+01 0.00000E+00
 -1      3569 1.06035E+02 1.43982E+01 0.00000E+00
 -1      3570 1.11285E+02 1.30992E+01 0.00000E+00
 -1      3571 1.09785E+02 1.30992E+01 0.00000E+00
 -1      3572 1.09035E+02 1.43982E+01 0.00000E+00
 -1      3573 1.14285E+02 1.30992E+01 0.00000E+00
 -1      3574 1.12785E+02 1.30992E+01 0.00000E+00
 -1      3575 1.12035E+02 1.43982E+01 0.00000E+00
 -1      3576 1.17285E+02 1.30992E+01 0.00000E+00
 -1      3577 1.15785E+02 1.30992E+01 0.00000E+00
 -1      3578 1.15035E+02 1.43982E+01 0.00000E+00
 -1      3579 1.20285E+02 1.30992E+01 0.00000E+00
 -1      3580 1.18785E+02 1.30992E+01 0.00000E+00
 -1      3581 1.18035E+02 1.43982E+01 0.00000E+00
 -1      3582 1.23285E+02 1.30992E+01 0.00000E+00
 -1      3583 1.21785E+02 1.30992E+01 0.00000E+00
 -1      3584 1.21035E+02 1.43982E+01 0.00000E+00
 -1      3585 1.26285E+02 1.30992E+01 0.00000E+00
 -1      3586 1.24785E+02 1.30992E+01 0.00000E+00
 -1      3587 1.24035E+02 1.43982E+01 0.00000E+00
 -1      3588 1.29285E+02 1.30992E+01 0.00000E+00
 -1      3589 1.27785E+02 1.30992E+01 0.00000E+00
 -1      3590 1.27035E+02 1.43982E+01 0.00000E+00
 -1      3591 1.32285E+02 1.30992E+01 0.00000E+00
 -1      3592 1.30785E+02 1.30992E+01 0.00000E+00
 -1      3593 1.30035E+02 1.43982E+01 0.00000E+00
 -1      3594 1.35285E+02 1.30992E+01 0.00000E+00
 -1      3595 1.33785E+02 1.30992E+01 0.00000E+00
 -1      3596 1.33035E+02 1.43982E+01 0.00000E+00
 -1      3597 1.35711E+02 2.72125E+01 0.00000E+00
 -1      3598 1.35711E+02 2.57375E+01 0.00000E+00
 -1      3599 1.38528E+02 1.44149E+01 0.00000E+00
 -1      3600 1.38594E+02 1.31746E+01 0.00000E+00
 -1      3601 1.37668E+02 1.30636E+01 0.00000E+00
 -1      3602 1.37229E+02 1.51462E+01 0.00000E+00
 -1      3603 1.74000E+01 3.57110E+01 0.00000E+00
 -1      3604 1.89000E+01 3.57110E+01 0.00000E+00
 -1      3605 5.90799E+01 1.02278E+01 0.00000E+00
 -1      3606 5.23383E+01 3.61137E+01 0.00000E+00
 -1      3607 1.24283E+01 3.72865E+01 0.00000E+00
 -1      3608 7.52850E+01 1.30992E+01 0.00000E+00
 -1      3609 7.37850E+01 1.30992E+01 0.00000E+00
 -1      3610 7.60350E+01 1.43982E+01 0.00000E+00
 -1      3611 7.22850E+01 1.30992E+01 0.00000E+00
 -1      3612 7.07850E+01 1.30992E+01 0.00000E+00
 -1      3613 7.30350E+01 1.43982E+01 0.00000E+00
 -1      3614 4.08334E+01 2.38770E+01 0.00000E+00
 -1      3615 4.10206E+01 2.25331E+01 0.00000E+00
 -1      3616 4.99651E+01 3.48729E+01 0.00000E+00
 -1      3617 2.12850E+01 1.30992E+01 0.00000E+00
 -1      3618 1.97850E+01 1.30992E+01 0.00000E+00
 -1      3619 1.16910E+01 2.71844E+01 0.00000E+00
 -1      3620 1.16910E+01 2.86531E+01 0.00000E+00
 -1      3621 1.29900E+01 2.93875E+01 0.00000E+00
 -1      3622 4.14426E+01 1.50443E+01 0.00000E+00
 -1      3623 4.02616E+01 1.77755E+01 0.00000E+00
 -1      3624 4.08521E+01 1.64099E+01 0.00000E+00
 -1      3625 3.99535E+01 1.52958E+01 0.00000E+00
 -1      3626 7.04544E+01 2.82478E+01 0.00000E+00
 -1      3627 7.00237E+01 2.94436E+01 0.00000E+00
 -1      3628 4.37356E+01 3.40378E+01 0.00000E+00
 -1      3629 4.26786E+01 3.28644E+01 0.00000E+00
 -1      3630 8.42850E+01 1.30992E+01 0.00000E+00
 -1      3631 8.27850E+01 1.30992E+01 0.00000E+00
 -1      3632 8.50350E+01 1.43982E+01 0.00000E+00
 -1      3633 6.93361E+01 3.08738E+01 0.00000E+00
 -1      3634 6.85728E+01 3.21549E+01 0.00000E+00
 -1      3635 8.12850E+01 1.30992E+01 0.00000E+00
 -1      3636 7.97850E+01 1.30992E+01 0.00000E+00
 -1      3637 8.20350E+01 1.43982E+01 0.00000E+00
 -1      3638 6.55154E+01 3.54794E+01 0.00000E+00
 -1      3639 2.04000E+01 3.57110E+01 0.00000E+00
 -1      3640 2.19000E+01 3.57110E+01 0.00000E+00
 -1      3641 2.26500E+01 3.44120E+01 0.00000E+00
 -1      3642 1.35119E+02 3.38560E+01 0.00000E+00
 -1      3643 1.42890E+01 1.39344E+01 0.00000E+00
 -1      3644 1.42890E+01 1.54031E+01 0.00000E+00
 -1      3645 4.01999E+01 2.16760E+01 0.00000E+00
 -1      3646 1.51178E+01 3.57749E+01 0.00000E+00
 -1      3647 1.62589E+01 3.57429E+01 0.00000E+00
 -1      3648 1.70089E+01 3.44439E+01 0.00000E+00
 -1      3649 1.42890E+01 2.27625E+01 0.00000E+00
 -1      3650 1.42890E+01 2.42375E+01 0.00000E+00
 -1      3651 7.16159E+01 2.46746E+01 0.00000E+00
 -1      3652 7.24865E+01 2.56738E+01 0.00000E+00
 -1      3653 7.19478E+01 2.38698E+01 0.00000E+00
 -1      3654 5.37390E+01 3.82625E+01 0.00000E+00
 -1      3655 6.64780E+01 3.51861E+01 0.00000E+00
 -1      3656 6.79780E+01 3.51861E+01 0.00000E+00
 -1      3657 3.47850E+01 1.30992E+01 0.00000E+00
 -1      3658 3.40350E+01 1.43982E+01 0.00000E+00
 -1      3659 3.62850E+01 1.30992E+01 0.00000E+00
 -1      3660 3.93715E+01 1.40805E+01 0.00000E+00
 -1      3661 3.91170E+01 1.30155E+01 0.00000E+00
 -1      3662 3.76170E+01 1.30155E+01 0.00000E+00
 -1      3663 3.87810E+01 1.54461E+01 0.00000E+00
 -1      3664 2.65350E+01 1.18003E+01 0.00000E+00
 -1      3665 7.07171E+01 2.12295E+01 0.00000E+00
 -1      3666 7.14960E+01 2.19888E+01 0.00000E+00
 -1      3667 7.11358E+01 2.03476E+01 0.00000E+00
 -1      3668 3.02850E+01 1.30992E+01 0.00000E+00
 -1      3669 2.87850E+01 1.30992E+01 0.00000E+00
 -1      3670 3.10350E+01 1.43982E+01 0.00000E+00
 -1      3671 3.98164E+01 2.58408E+01 0.00000E+00
 -1      3672 4.03249E+01 2.48589E+01 0.00000E+00
 -1      3673 3.94861E+01 2.40571E+01 0.00000E+00
 -1      3674 6.94346E+01 1.20531E+01 0.00000E+00
 -1      3675 7.03924E+01 1.53842E+01 0.00000E+00
 -1      3676 6.96424E+01 1.40852E+01 0.00000E+00
 -1      3677 1.96500E+01 3.44120E+01 0.00000E+00
 -1      3678 1.84669E+01 1.29495E+01 0.00000E+00
 -1      3679 1.71488E+01 1.27997E+01 0.00000E+00
 -1      3680 1.92169E+01 1.42485E+01 0.00000E+00
 -1      3681 6.19788E+01 3.66414E+01 0.00000E+00
 -1      3682 1.34412E+02 2.50094E+01 0.00000E+00
 -1      3683 1.35711E+02 2.42719E+01 0.00000E+00
 -1      3684 1.35711E+02 2.28062E+01 0.00000E+00
 -1      3685 1.35711E+02 2.86812E+01 0.00000E+00
 -1      3686 1.34412E+02 2.79438E+01 0.00000E+00
 -1      3687 1.35711E+02 3.01500E+01 0.00000E+00
 -1      3688 1.36742E+02 1.29526E+01 0.00000E+00
 -1      3689 1.29900E+01 2.64469E+01 0.00000E+00
 -1      3690 3.95065E+01 1.91627E+01 0.00000E+00
 -1      3691 3.98841E+01 1.84691E+01 0.00000E+00
 -1      3692 3.89855E+01 1.73550E+01 0.00000E+00
 -1      3693 1.35415E+02 3.27374E+01 0.00000E+00
 -1      3694 1.35415E+02 3.12686E+01 0.00000E+00
 -1      3695 1.34116E+02 3.05311E+01 0.00000E+00
 -1      3696 1.33524E+02 3.27684E+01 0.00000E+00
 -1      3697 1.35992E+02 1.42516E+01 0.00000E+00
 -1      3698 1.42890E+01 2.12906E+01 0.00000E+00
 -1      3699 1.55880E+01 2.20281E+01 0.00000E+00
 -1      3700 1.42890E+01 1.98188E+01 0.00000E+00
 -1      3701 2.27850E+01 1.30992E+01 0.00000E+00
 -1      3702 2.20350E+01 1.43982E+01 0.00000E+00
 -1      3703 2.42850E+01 1.30992E+01 0.00000E+00
 -1      3704 6.72333E+01 3.30575E+01 0.00000E+00
 -1      3705 6.62654E+01 3.41804E+01 0.00000E+00
 -1      3706 1.42890E+01 2.86531E+01 0.00000E+00
 -1      3707 1.42890E+01 3.01219E+01 0.00000E+00
 -1      3708 4.76158E+01 3.57227E+01 0.00000E+00
 -1      3709 7.90350E+01 1.43982E+01 0.00000E+00
 -1      3710 6.98034E+01 1.79793E+01 0.00000E+00
 -1      3711 7.07036E+01 1.84691E+01 0.00000E+00
 -1      3712 7.01501E+01 1.68601E+01 0.00000E+00
 -1      3713 6.87280E+01 3.38871E+01 0.00000E+00
 -1      3714 1.23799E+01 3.61682E+01 0.00000E+00
 -1      3715 7.17185E+01 2.78500E+01 0.00000E+00
 -1      3716 4.12171E+01 3.33616E+01 0.00000E+00
 -1      3717 4.17457E+01 3.18140E+01 0.00000E+00
 -1      3718 4.08512E+01 3.12608E+01 0.00000E+00
 -1      3719 3.97171E+01 3.33616E+01 0.00000E+00
 -1      3720 7.05947E+01 3.06517E+01 0.00000E+00
 -1      3721 1.35711E+02 1.84000E+01 0.00000E+00
 -1      3722 1.35711E+02 1.69250E+01 0.00000E+00
 -1      3723 4.05894E+01 2.95669E+01 0.00000E+00
 -1      3724 4.10367E+01 2.84265E+01 0.00000E+00
 -1      3725 4.02079E+01 2.77830E+01 0.00000E+00
 -1      3726 1.35773E+02 1.52929E+01 0.00000E+00
 -1      3727 1.57279E+01 3.19317E+01 0.00000E+00
 -1      3728 1.44289E+01 3.26661E+01 0.00000E+00
 -1      3729 1.34473E+02 1.60304E+01 0.00000E+00
 -1      3730 3.90001E+01 2.22147E+01 0.00000E+00
 -1      3731 3.92053E+01 2.08155E+01 0.00000E+00
 -1      3732 6.81435E+01 1.37885E+01 0.00000E+00
 -1      3733 6.90420E+01 1.43380E+01 0.00000E+00
 -1      3734 1.36789E+01 3.54338E+01 0.00000E+00
 -1      3735 2.79000E+01 3.31130E+01 0.00000E+00
 -1      3736 2.94000E+01 3.31130E+01 0.00000E+00
 -1      3737 3.09000E+01 3.31130E+01 0.00000E+00
 -1      3738 3.24000E+01 3.31130E+01 0.00000E+00
 -1      3739 3.01500E+01 3.18140E+01 0.00000E+00
 -1      3740 3.39000E+01 3.31130E+01 0.00000E+00
 -1      3741 3.54000E+01 3.31130E+01 0.00000E+00
 -1      3742 3.31500E+01 3.18140E+01 0.00000E+00
 -1      3743 3.68085E+01 3.32373E+01 0.00000E+00
 -1      3744 3.83085E+01 3.32373E+01 0.00000E+00
 -1      3745 3.88756E+01 3.21869E+01 0.00000E+00
 -1      3746 3.60585E+01 3.19383E+01 0.00000E+00
 -1      3747 1.46944E+01 1.23503E+01 0.00000E+00
 -1      3748 1.59934E+01 1.30847E+01 0.00000E+00
 -1      3749 9.17850E+01 1.56973E+01 0.00000E+00
 -1      3750 9.02850E+01 1.56973E+01 0.00000E+00
 -1      3751 1.55880E+01 1.61406E+01 0.00000E+00
 -1      3752 1.42890E+01 1.68750E+01 0.00000E+00
 -1      3753 1.42890E+01 1.83469E+01 0.00000E+00
 -1      3754 7.39780E+01 3.25881E+01 0.00000E+00
 -1      3755 7.54780E+01 3.25881E+01 0.00000E+00
 -1      3756 7.69780E+01 3.25881E+01 0.00000E+00
 -1      3757 7.84780E+01 3.25881E+01 0.00000E+00
 -1      3758 7.62280E+01 3.12891E+01 0.00000E+00
 -1      3759 7.99780E+01 3.25881E+01 0.00000E+00
 -1      3760 8.14780E+01 3.25881E+01 0.00000E+00
 -1      3761 7.92280E+01 3.12891E+01 0.00000E+00
 -1      3762 8.29780E+01 3.25881E+01 0.00000E+00
 -1      3763 8.44780E+01 3.25881E+01 0.00000E+00
 -1      3764 8.22280E+01 3.12891E+01 0.00000E+00
 -1      3765 8.59780E+01 3.25881E+01 0.00000E+00
 -1      3766 8.74780E+01 3.25881E+01 0.00000E+00
 -1      3767 8.52280E+01 3.12891E+01 0.00000E+00
 -1      3768 8.89780E+01 3.25881E+01 0.00000E+00
 -1      3769 9.04780E+01 3.25881E+01 0.00000E+00
 -1      3770 8.82280E+01 3.12891E+01 0.00000E+00
 -1      3771 9.19780E+01 3.25881E+01 0.00000E+00
 -1      3772 9.34780E+01 3.25881E+01 0.00000E+00
 -1      3773 9.12280E+01 3.12891E+01 0.00000E+00
 -1      3774 9.49780E+01 3.25881E+01 0.00000E+00
 -1      3775 9.64780E+01 3.25881E+01 0.00000E+00
 -1      3776 9.42280E+01 3.12891E+01 0.00000E+00
 -1      3777 9.79780E+01 3.25881E+01 0.00000E+00
 -1      3778 9.94780E+01 3.25881E+01 0.00000E+00
 -1      3779 9.72280E+01 3.12891E+01 0.00000E+00
 -1      3780 1.00978E+02 3.25881E+01 0.00000E+00
 -1      3781 1.02478E+02 3.25881E+01 0.00000E+00
 -1      3782 1.00228E+02 3.12891E+01 0.00000E+00
 -1      3783 1.03978E+02 3.25881E+01 0.00000E+00
 -1      3784 1.05478E+02 3.25881E+01 0.00000E+00
 -1      3785 1.03228E+02 3.12891E+01 0.00000E+00
 -1      3786 1.06978E+02 3.25881E+01 0.00000E+00
 -1      3787 1.08478E+02 3.25881E+01 0.00000E+00
 -1      3788 1.06228E+02 3.12891E+01 0.00000E+00
 -1      3789 1.09978E+02 3.25881E+01 0.00000E+00
 -1      3790 1.11478E+02 3.25881E+01 0.00000E+00
 -1      3791 1.09228E+02 3.12891E+01 0.00000E+00
 -1      3792 1.12978E+02 3.25881E+01 0.00000E+00
 -1      3793 1.14478E+02 3.25881E+01 0.00000E+00
 -1      3794 1.12228E+02 3.12891E+01 0.00000E+00
 -1      3795 1.15978E+02 3.25881E+01 0.00000E+00
 -1      3796 1.17478E+02 3.25881E+01 0.00000E+00
 -1      3797 1.15228E+02 3.12891E+01 0.00000E+00
 -1      3798 1.18978E+02 3.25881E+01 0.00000E+00
 -1      3799 1.20478E+02 3.25881E+01 0.00000E+00
 -1      3800 1.18228E+02 3.12891E+01 0.00000E+00
 -1      3801 1.21978E+02 3.25881E+01 0.00000E+00
 -1      3802 1.23478E+02 3.25881E+01 0.00000E+00
 -1      3803 1.21228E+02 3.12891E+01 0.00000E+00
 -1      3804 1.24978E+02 3.25881E+01 0.00000E+00
 -1      3805 1.26478E+02 3.25881E+01 0.00000E+00
 -1      3806 1.24228E+02 3.12891E+01 0.00000E+00
 -1      3807 1.27978E+02 3.25881E+01 0.00000E+00
 -1      3808 1.29478E+02 3.25881E+01 0.00000E+00
 -1      3809 1.27228E+02 3.12891E+01 0.00000E+00
 -1      3810 1.30751E+02 3.26783E+01 0.00000E+00
 -1      3811 1.32251E+02 3.26783E+01 0.00000E+00
 -1      3812 1.32547E+02 3.15596E+01 0.00000E+00
 -1      3813 1.30001E+02 3.13793E+01 0.00000E+00
 -1      3814 2.72850E+01 1.30992E+01 0.00000E+00
 -1      3815 2.57850E+01 1.30992E+01 0.00000E+00
 -1      3816 2.80350E+01 1.43982E+01 0.00000E+00
 -1      3817 7.12926E+01 1.58741E+01 0.00000E+00
 -1      3818 1.89000E+01 3.31130E+01 0.00000E+00
 -1      3819 2.04000E+01 3.31130E+01 0.00000E+00
 -1      3820 7.00676E+01 3.29845E+01 0.00000E+00
 -1      3821 6.87333E+01 3.30575E+01 0.00000E+00
 -1      3822 8.87850E+01 1.56973E+01 0.00000E+00
 -1      3823 8.72850E+01 1.56973E+01 0.00000E+00
 -1      3824 8.95350E+01 1.69963E+01 0.00000E+00
 -1      3825 9.77850E+01 1.56973E+01 0.00000E+00
 -1      3826 9.62850E+01 1.56973E+01 0.00000E+00
 -1      3827 1.00785E+02 1.56973E+01 0.00000E+00
 -1      3828 9.92850E+01 1.56973E+01 0.00000E+00
 -1      3829 9.85350E+01 1.69963E+01 0.00000E+00
 -1      3830 1.03785E+02 1.56973E+01 0.00000E+00
 -1      3831 1.02285E+02 1.56973E+01 0.00000E+00
 -1      3832 1.01535E+02 1.69963E+01 0.00000E+00
 -1      3833 1.06785E+02 1.56973E+01 0.00000E+00
 -1      3834 1.05285E+02 1.56973E+01 0.00000E+00
 -1      3835 1.04535E+02 1.69963E+01 0.00000E+00
 -1      3836 1.09785E+02 1.56973E+01 0.00000E+00
 -1      3837 1.08285E+02 1.56973E+01 0.00000E+00
 -1      3838 1.07535E+02 1.69963E+01 0.00000E+00
 -1      3839 1.12785E+02 1.56973E+01 0.00000E+00
 -1      3840 1.11285E+02 1.56973E+01 0.00000E+00
 -1      3841 1.10535E+02 1.69963E+01 0.00000E+00
 -1      3842 1.15785E+02 1.56973E+01 0.00000E+00
 -1      3843 1.14285E+02 1.56973E+01 0.00000E+00
 -1      3844 1.13535E+02 1.69963E+01 0.00000E+00
 -1      3845 1.18785E+02 1.56973E+01 0.00000E+00
 -1      3846 1.17285E+02 1.56973E+01 0.00000E+00
 -1      3847 1.16535E+02 1.69963E+01 0.00000E+00
 -1      3848 1.21785E+02 1.56973E+01 0.00000E+00
 -1      3849 1.20285E+02 1.56973E+01 0.00000E+00
 -1      3850 1.19535E+02 1.69963E+01 0.00000E+00
 -1      3851 1.24785E+02 1.56973E+01 0.00000E+00
 -1      3852 1.23285E+02 1.56973E+01 0.00000E+00
 -1      3853 1.22535E+02 1.69963E+01 0.00000E+00
 -1      3854 1.27785E+02 1.56973E+01 0.00000E+00
 -1      3855 1.26285E+02 1.56973E+01 0.00000E+00
 -1      3856 1.25535E+02 1.69963E+01 0.00000E+00
 -1      3857 1.30785E+02 1.56973E+01 0.00000E+00
 -1      3858 1.29285E+02 1.56973E+01 0.00000E+00
 -1      3859 1.28535E+02 1.69963E+01 0.00000E+00
 -1      3860 1.32973E+02 1.60304E+01 0.00000E+00
 -1      3861 1.42890E+01 2.71812E+01 0.00000E+00
 -1      3862 1.55880E+01 2.79156E+01 0.00000E+00
 -1      3863 1.42890E+01 2.57094E+01 0.00000E+00
 -1      3864 1.55880E+01 2.49719E+01 0.00000E+00
 -1      3865 8.27850E+01 1.56973E+01 0.00000E+00
 -1      3866 8.12850E+01 1.56973E+01 0.00000E+00
 -1      3867 7.10811E+01 3.18181E+01 0.00000E+00
 -1      3868 7.12416E+01 3.27207E+01 0.00000E+00
 -1      3869 7.27416E+01 3.27207E+01 0.00000E+00
 -1      3870 7.17687E+01 3.03879E+01 0.00000E+00
 -1      3871 8.57850E+01 1.56973E+01 0.00000E+00
 -1      3872 8.42850E+01 1.56973E+01 0.00000E+00
 -1      3873 8.65350E+01 1.69963E+01 0.00000E+00
 -1      3874 1.32223E+02 1.73294E+01 0.00000E+00
 -1      3875 7.67850E+01 1.56973E+01 0.00000E+00
 -1      3876 7.52850E+01 1.56973E+01 0.00000E+00
 -1      3877 7.40388E+01 1.57857E+01 0.00000E+00
 -1      3878 7.25388E+01 1.57857E+01 0.00000E+00
 -1      3879 7.22965E+01 1.72616E+01 0.00000E+00
 -1      3880 7.47888E+01 1.70847E+01 0.00000E+00
 -1      3881 1.44289E+01 3.41348E+01 0.00000E+00
 -1      3882 1.35711E+02 2.13359E+01 0.00000E+00
 -1      3883 1.35711E+02 1.98703E+01 0.00000E+00
 -1      3884 1.34412E+02 1.91328E+01 0.00000E+00
 -1      3885 1.34412E+02 2.20734E+01 0.00000E+00
 -1      3886 7.31530E+01 2.75512E+01 0.00000E+00
 -1      3887 7.27169E+01 2.89226E+01 0.00000E+00
 -1      3888 2.49000E+01 3.31130E+01 0.00000E+00
 -1      3889 2.64000E+01 3.31130E+01 0.00000E+00
 -1      3890 2.71500E+01 3.18140E+01 0.00000E+00
 -1      3891 1.67434E+01 1.43837E+01 0.00000E+00
 -1      3892 7.97850E+01 1.56973E+01 0.00000E+00
 -1      3893 7.82850E+01 1.56973E+01 0.00000E+00
 -1      3894 8.05350E+01 1.69963E+01 0.00000E+00
 -1      3895 2.19000E+01 3.31130E+01 0.00000E+00
 -1      3896 2.34000E+01 3.31130E+01 0.00000E+00
 -1      3897 2.41500E+01 3.18140E+01 0.00000E+00
 -1      3898 9.47850E+01 1.56973E+01 0.00000E+00
 -1      3899 9.32850E+01 1.56973E+01 0.00000E+00
 -1      3900 9.25350E+01 1.69963E+01 0.00000E+00
 -1      3901 9.55350E+01 1.69963E+01 0.00000E+00
 -1      3902 2.50350E+01 1.43982E+01 0.00000E+00
 -1      3903 7.38168E+01 2.59416E+01 0.00000E+00
 -1      3904 7.34849E+01 2.67464E+01 0.00000E+00
 -1      3905 7.44832E+01 2.78190E+01 0.00000E+00
 -1      3906 1.78988E+01 1.55706E+01 0.00000E+00
 -1      3907 1.67434E+01 1.58556E+01 0.00000E+00
 -1      3908 1.67434E+01 1.73275E+01 0.00000E+00
 -1      3909 3.68670E+01 1.43145E+01 0.00000E+00
 -1      3910 8.35350E+01 1.69963E+01 0.00000E+00
 -1      3911 1.55880E+01 1.90844E+01 0.00000E+00
 -1      3912 3.47850E+01 1.56973E+01 0.00000E+00
 -1      3913 3.32850E+01 1.56973E+01 0.00000E+00
 -1      3914 7.34916E+01 3.14217E+01 0.00000E+00
 -1      3915 3.80310E+01 1.67451E+01 0.00000E+00
 -1      3916 3.74490E+01 1.55298E+01 0.00000E+00
 -1      3917 3.61170E+01 1.56135E+01 0.00000E+00
 -1      3918 3.17850E+01 1.56973E+01 0.00000E+00
 -1      3919 3.02850E+01 1.56973E+01 0.00000E+00
 -1      3920 3.25350E+01 1.69963E+01 0.00000E+00
 -1      3921 3.93691E+01 2.69812E+01 0.00000E+00
 -1      3922 3.85303E+01 2.61794E+01 0.00000E+00
 -1      3923 3.89218E+01 2.81216E+01 0.00000E+00
 -1      3924 1.92169E+01 1.57203E+01 0.00000E+00
 -1      3925 3.79831E+01 2.41785E+01 0.00000E+00
 -1      3926 3.84916E+01 2.31966E+01 0.00000E+00
 -1      3927 3.74970E+01 2.23361E+01 0.00000E+00
 -1      3928 1.33113E+02 2.57422E+01 0.00000E+00
 -1      3929 1.33113E+02 2.42766E+01 0.00000E+00
 -1      3930 1.32223E+02 1.87997E+01 0.00000E+00
 -1      3931 1.30035E+02 1.84666E+01 0.00000E+00
 -1      3932 1.32223E+02 2.02700E+01 0.00000E+00
 -1      3933 7.32033E+01 3.00890E+01 0.00000E+00
 -1      3934 1.68870E+01 2.12922E+01 0.00000E+00
 -1      3935 1.68870E+01 2.27641E+01 0.00000E+00
 -1      3936 6.80740E+01 1.26280E+01 0.00000E+00
 -1      3937 1.68870E+01 2.42359E+01 0.00000E+00
 -1      3938 1.68870E+01 2.57078E+01 0.00000E+00
 -1      3939 1.81860E+01 2.35000E+01 0.00000E+00
 -1      3940 1.33113E+02 2.86797E+01 0.00000E+00
 -1      3941 1.33113E+02 2.72109E+01 0.00000E+00
 -1      3942 1.31814E+02 2.64781E+01 0.00000E+00
 -1      3943 3.83067E+01 1.97014E+01 0.00000E+00
 -1      3944 1.68870E+01 2.71797E+01 0.00000E+00
 -1      3945 1.68870E+01 2.86516E+01 0.00000E+00
 -1      3946 1.81860E+01 2.64438E+01 0.00000E+00
 -1      3947 2.11500E+01 3.18140E+01 0.00000E+00
 -1      3948 2.27850E+01 1.56973E+01 0.00000E+00
 -1      3949 2.12850E+01 1.56973E+01 0.00000E+00
 -1      3950 7.75350E+01 1.69963E+01 0.00000E+00
 -1      3951 7.23666E+01 2.29880E+01 0.00000E+00
 -1      3952 7.32372E+01 2.39871E+01 0.00000E+00
 -1      3953 7.27853E+01 2.21061E+01 0.00000E+00
 -1      3954 7.18895E+01 1.82450E+01 0.00000E+00
 -1      3955 7.15428E+01 1.93642E+01 0.00000E+00
 -1      3956 7.23217E+01 2.01235E+01 0.00000E+00
 -1      3957 7.31357E+01 1.81566E+01 0.00000E+00
 -1      3958 1.99669E+01 1.70193E+01 0.00000E+00
 -1      3959 4.00223E+01 3.06173E+01 0.00000E+00
 -1      3960 1.89180E+01 2.98648E+01 0.00000E+00
 -1      3961 1.76190E+01 3.06007E+01 0.00000E+00
 -1      3962 3.76535E+01 1.74387E+01 0.00000E+00
 -1      3963 1.77589E+01 3.31449E+01 0.00000E+00
 -1      3964 2.57850E+01 1.56973E+01 0.00000E+00
 -1      3965 2.42850E+01 1.56973E+01 0.00000E+00
 -1      3966 2.35350E+01 1.69963E+01 0.00000E+00
 -1      3967 3.24000E+01 3.05150E+01 0.00000E+00
 -1      3968 3.39000E+01 3.05150E+01 0.00000E+00
 -1      3969 3.53670E+01 1.69125E+01 0.00000E+00
 -1      3970 7.44397E+01 2.99564E+01 0.00000E+00
 -1      3971 7.84780E+01 2.99901E+01 0.00000E+00
 -1      3972 7.99780E+01 2.99901E+01 0.00000E+00
 -1      3973 8.14780E+01 2.99901E+01 0.00000E+00
 -1      3974 8.29780E+01 2.99901E+01 0.00000E+00
 -1      3975 8.07280E+01 2.86911E+01 0.00000E+00
 -1      3976 8.44780E+01 2.99901E+01 0.00000E+00
 -1      3977 8.59780E+01 2.99901E+01 0.00000E+00
 -1      3978 8.37280E+01 2.86911E+01 0.00000E+00
 -1      3979 8.74780E+01 2.99901E+01 0.00000E+00
 -1      3980 8.89780E+01 2.99901E+01 0.00000E+00
 -1      3981 8.67280E+01 2.86911E+01 0.00000E+00
 -1      3982 9.04780E+01 2.99901E+01 0.00000E+00
 -1      3983 9.19780E+01 2.99901E+01 0.00000E+00
 -1      3984 8.97280E+01 2.86911E+01 0.00000E+00
 -1      3985 9.34780E+01 2.99901E+01 0.00000E+00
 -1      3986 9.49780E+01 2.99901E+01 0.00000E+00
 -1      3987 9.27280E+01 2.86911E+01 0.00000E+00
 -1      3988 9.64780E+01 2.99901E+01 0.00000E+00
 -1      3989 9.79780E+01 2.99901E+01 0.00000E+00
 -1      3990 9.57280E+01 2.86911E+01 0.00000E+00
 -1      3991 9.94780E+01 2.99901E+01 0.00000E+00
 -1      3992 1.00978E+02 2.99901E+01 0.00000E+00
 -1      3993 9.87280E+01 2.86911E+01 0.00000E+00
 -1      3994 1.02478E+02 2.99901E+01 0.00000E+00
 -1      3995 1.03978E+02 2.99901E+01 0.00000E+00
 -1      3996 1.01728E+02 2.86911E+01 0.00000E+00
 -1      3997 1.05478E+02 2.99901E+01 0.00000E+00
 -1      3998 1.06978E+02 2.99901E+01 0.00000E+00
 -1      3999 1.04728E+02 2.86911E+01 0.00000E+00
 -1      4000 1.08478E+02 2.99901E+01 0.00000E+00
 -1      4001 1.09978E+02 2.99901E+01 0.00000E+00
 -1      4002 1.07728E+02 2.86911E+01 0.00000E+00
 -1      4003 1.11478E+02 2.99901E+01 0.00000E+00
 -1      4004 1.12978E+02 2.99901E+01 0.00000E+00
 -1      4005 1.10728E+02 2.86911E+01 0.00000E+00
 -1      4006 1.14478E+02 2.99901E+01 0.00000E+00
 -1      4007 1.15978E+02 2.99901E+01 0.00000E+00
 -1      4008 1.13728E+02 2.86911E+01 0.00000E+00
 -1      4009 1.17478E+02 2.99901E+01 0.00000E+00
 -1      4010 1.18978E+02 2.99901E+01 0.00000E+00
 -1      4011 1.16728E+02 2.86911E+01 0.00000E+00
 -1      4012 1.20478E+02 2.99901E+01 0.00000E+00
 -1      4013 1.21978E+02 2.99901E+01 0.00000E+00
 -1      4014 1.19728E+02 2.86911E+01 0.00000E+00
 -1      4015 1.23478E+02 2.99901E+01 0.00000E+00
 -1      4016 1.24978E+02 2.99901E+01 0.00000E+00
 -1      4017 1.22728E+02 2.86911E+01 0.00000E+00
 -1      4018 1.26478E+02 2.99901E+01 0.00000E+00
 -1      4019 1.27978E+02 2.99901E+01 0.00000E+00
 -1      4020 1.25728E+02 2.86911E+01 0.00000E+00
 -1      4021 1.05285E+02 1.82952E+01 0.00000E+00
 -1      4022 1.03785E+02 1.82952E+01 0.00000E+00
 -1      4023 3.70511E+01 2.07443E+01 0.00000E+00
 -1      4024 3.73523E+01 1.90915E+01 0.00000E+00
 -1      4025 3.63978E+01 1.84816E+01 0.00000E+00
 -1      4026 9.02850E+01 1.82952E+01 0.00000E+00
 -1      4027 8.87850E+01 1.82952E+01 0.00000E+00
 -1      4028 1.02285E+02 1.82952E+01 0.00000E+00
 -1      4029 1.00785E+02 1.82952E+01 0.00000E+00
 -1      4030 1.03035E+02 1.95942E+01 0.00000E+00
 -1      4031 9.92850E+01 1.82952E+01 0.00000E+00
 -1      4032 9.77850E+01 1.82952E+01 0.00000E+00
 -1      4033 1.00035E+02 1.95942E+01 0.00000E+00
 -1      4034 1.08285E+02 1.82952E+01 0.00000E+00
 -1      4035 1.06785E+02 1.82952E+01 0.00000E+00
 -1      4036 1.06035E+02 1.95942E+01 0.00000E+00
 -1      4037 1.11285E+02 1.82952E+01 0.00000E+00
 -1      4038 1.09785E+02 1.82952E+01 0.00000E+00
 -1      4039 1.09035E+02 1.95942E+01 0.00000E+00
 -1      4040 1.14285E+02 1.82952E+01 0.00000E+00
 -1      4041 1.12785E+02 1.82952E+01 0.00000E+00
 -1      4042 1.12035E+02 1.95942E+01 0.00000E+00
 -1      4043 1.17285E+02 1.82952E+01 0.00000E+00
 -1      4044 1.15785E+02 1.82952E+01 0.00000E+00
 -1      4045 1.15035E+02 1.95942E+01 0.00000E+00
 -1      4046 1.20285E+02 1.82952E+01 0.00000E+00
 -1      4047 1.18785E+02 1.82952E+01 0.00000E+00
 -1      4048 1.18035E+02 1.95942E+01 0.00000E+00
 -1      4049 1.23285E+02 1.82952E+01 0.00000E+00
 -1      4050 1.21785E+02 1.82952E+01 0.00000E+00
 -1      4051 1.21035E+02 1.95942E+01 0.00000E+00
 -1      4052 1.26285E+02 1.82952E+01 0.00000E+00
 -1      4053 1.24785E+02 1.82952E+01 0.00000E+00
 -1      4054 1.24035E+02 1.95942E+01 0.00000E+00
 -1      4055 1.28910E+02 1.83809E+01 0.00000E+00
 -1      4056 1.27410E+02 1.83809E+01 0.00000E+00
 -1      4057 1.26660E+02 1.96799E+01 0.00000E+00
 -1      4058 1.28910E+02 1.98512E+01 0.00000E+00
 -1      4059 2.34000E+01 3.05150E+01 0.00000E+00
 -1      4060 2.49000E+01 3.05150E+01 0.00000E+00
 -1      4061 1.68152E+01 1.85739E+01 0.00000E+00
 -1      4062 1.68152E+01 2.00458E+01 0.00000E+00
 -1      4063 1.81142E+01 2.07817E+01 0.00000E+00
 -1      4064 1.79706E+01 1.82889E+01 0.00000E+00
 -1      4065 7.52115E+01 2.88877E+01 0.00000E+00
 -1      4066 7.54998E+01 3.02204E+01 0.00000E+00
 -1      4067 7.69998E+01 3.02204E+01 0.00000E+00
 -1      4068 7.55433E+01 2.80829E+01 0.00000E+00
 -1      4069 8.72850E+01 1.82952E+01 0.00000E+00
 -1      4070 8.57850E+01 1.82952E+01 0.00000E+00
 -1      4071 8.80350E+01 1.95942E+01 0.00000E+00
 -1      4072 2.87850E+01 1.56973E+01 0.00000E+00
 -1      4073 2.72850E+01 1.56973E+01 0.00000E+00
 -1      4074 2.65350E+01 1.69963E+01 0.00000E+00
 -1      4075 2.95350E+01 1.69963E+01 0.00000E+00
 -1      4076 8.42850E+01 1.82952E+01 0.00000E+00
 -1      4077 8.27850E+01 1.82952E+01 0.00000E+00
 -1      4078 8.50350E+01 1.95942E+01 0.00000E+00
 -1      4079 2.00387E+01 1.82658E+01 0.00000E+00
 -1      4080 3.50658E+01 1.85653E+01 0.00000E+00
 -1      4081 1.32668E+02 2.30084E+01 0.00000E+00
 -1      4082 1.32668E+02 2.15381E+01 0.00000E+00
 -1      4083 1.30480E+02 2.12050E+01 0.00000E+00
 -1      4084 1.31369E+02 2.37412E+01 0.00000E+00
 -1      4085 1.32682E+02 3.06790E+01 0.00000E+00
 -1      4086 1.32978E+02 2.95603E+01 0.00000E+00
 -1      4087 1.31679E+02 2.88275E+01 0.00000E+00
 -1      4088 1.31409E+02 3.05888E+01 0.00000E+00
 -1      4089 7.82850E+01 1.82952E+01 0.00000E+00
 -1      4090 7.67850E+01 1.82952E+01 0.00000E+00
 -1      4091 2.94000E+01 3.05150E+01 0.00000E+00
 -1      4092 3.09000E+01 3.05150E+01 0.00000E+00
 -1      4093 3.16500E+01 2.92160E+01 0.00000E+00
 -1      4094 2.04090E+01 3.01899E+01 0.00000E+00
 -1      4095 2.19090E+01 3.01899E+01 0.00000E+00
 -1      4096 2.26590E+01 2.88909E+01 0.00000E+00
 -1      4097 1.96770E+01 2.82407E+01 0.00000E+00
 -1      4098 2.64000E+01 3.05150E+01 0.00000E+00
 -1      4099 2.79000E+01 3.05150E+01 0.00000E+00
 -1      4100 2.56500E+01 2.92160E+01 0.00000E+00
 -1      4101 8.12850E+01 1.82952E+01 0.00000E+00
 -1      4102 7.97850E+01 1.82952E+01 0.00000E+00
 -1      4103 8.20350E+01 1.95942E+01 0.00000E+00
 -1      4104 3.86138E+01 3.04930E+01 0.00000E+00
 -1      4105 3.44955E+01 2.00631E+01 0.00000E+00
 -1      4106 3.34647E+01 1.84940E+01 0.00000E+00
 -1      4107 7.42355E+01 2.50597E+01 0.00000E+00
 -1      4108 7.52339E+01 2.61323E+01 0.00000E+00
 -1      4109 7.46543E+01 2.41779E+01 0.00000E+00
 -1      4110 3.60340E+01 2.27081E+01 0.00000E+00
 -1      4111 3.65425E+01 2.17262E+01 0.00000E+00
 -1      4112 3.55881E+01 2.11163E+01 0.00000E+00
 -1      4113 3.19647E+01 1.84940E+01 0.00000E+00
 -1      4114 3.53085E+01 3.06393E+01 0.00000E+00
 -1      4115 3.67171E+01 3.07636E+01 0.00000E+00
 -1      4116 3.45585E+01 2.93403E+01 0.00000E+00
 -1      4117 7.77498E+01 2.89214E+01 0.00000E+00
 -1      4118 7.62888E+01 1.96827E+01 0.00000E+00
 -1      4119 7.55388E+01 1.83837E+01 0.00000E+00
 -1      4120 7.42926E+01 1.84721E+01 0.00000E+00
 -1      4121 9.70350E+01 1.95942E+01 0.00000E+00
 -1      4122 9.62850E+01 1.82952E+01 0.00000E+00
 -1      4123 9.47850E+01 1.82952E+01 0.00000E+00
 -1      4124 1.29057E+02 3.02444E+01 0.00000E+00
 -1      4125 1.30330E+02 3.03345E+01 0.00000E+00
 -1      4126 1.30465E+02 2.94539E+01 0.00000E+00
 -1      4127 1.28307E+02 2.89454E+01 0.00000E+00
 -1      4128 3.78638E+01 2.91940E+01 0.00000E+00
 -1      4129 3.70250E+01 2.83922E+01 0.00000E+00
 -1      4130 3.75357E+01 2.53189E+01 0.00000E+00
 -1      4131 3.65412E+01 2.44584E+01 0.00000E+00
 -1      4132 3.70884E+01 2.64593E+01 0.00000E+00
 -1      4133 7.90350E+01 1.95942E+01 0.00000E+00
 -1      4134 1.94850E+01 2.27641E+01 0.00000E+00
 -1      4135 1.94850E+01 2.42359E+01 0.00000E+00
 -1      4136 1.95810E+01 2.55024E+01 0.00000E+00
 -1      4137 1.95810E+01 2.69743E+01 0.00000E+00
 -1      4138 2.10720E+01 2.72994E+01 0.00000E+00
 -1      4139 2.08800E+01 2.47665E+01 0.00000E+00
 -1      4140 1.30366E+02 2.48052E+01 0.00000E+00
 -1      4141 1.29921E+02 2.35371E+01 0.00000E+00
 -1      4142 2.17339E+01 1.87271E+01 0.00000E+00
 -1      4143 1.97376E+01 1.99967E+01 0.00000E+00
 -1      4144 2.86500E+01 2.92160E+01 0.00000E+00
 -1      4145 9.32850E+01 1.82952E+01 0.00000E+00
 -1      4146 9.17850E+01 1.82952E+01 0.00000E+00
 -1      4147 9.10350E+01 1.95942E+01 0.00000E+00
 -1      4148 9.40350E+01 1.95942E+01 0.00000E+00
 -1      4149 7.34787E+01 2.04390E+01 0.00000E+00
 -1      4150 7.43493E+01 2.14382E+01 0.00000E+00
 -1      4151 1.30600E+02 2.71045E+01 0.00000E+00
 -1      4152 1.29152E+02 2.69003E+01 0.00000E+00
 -1      4153 2.47339E+01 1.87271E+01 0.00000E+00
 -1      4154 2.32339E+01 1.87271E+01 0.00000E+00
 -1      4155 2.29328E+01 2.04580E+01 0.00000E+00
 -1      4156 1.98094E+01 2.12431E+01 0.00000E+00
 -1      4157 2.11084E+01 2.19790E+01 0.00000E+00
 -1      4158 2.25630E+01 2.76245E+01 0.00000E+00
 -1      4159 2.40540E+01 2.79495E+01 0.00000E+00
 -1      4160 2.24670E+01 2.63580E+01 0.00000E+00
 -1      4161 3.39685E+01 2.79842E+01 0.00000E+00
 -1      4162 3.53770E+01 2.81085E+01 0.00000E+00
 -1      4163 1.03785E+02 2.08932E+01 0.00000E+00
 -1      4164 1.02285E+02 2.08932E+01 0.00000E+00
 -1      4165 7.99780E+01 2.73921E+01 0.00000E+00
 -1      4166 8.14780E+01 2.73921E+01 0.00000E+00
 -1      4167 8.29780E+01 2.73921E+01 0.00000E+00
 -1      4168 8.44780E+01 2.73921E+01 0.00000E+00
 -1      4169 8.22280E+01 2.60931E+01 0.00000E+00
 -1      4170 8.59780E+01 2.73921E+01 0.00000E+00
 -1      4171 8.74780E+01 2.73921E+01 0.00000E+00
 -1      4172 8.52280E+01 2.60931E+01 0.00000E+00
 -1      4173 8.89780E+01 2.73921E+01 0.00000E+00
 -1      4174 9.04780E+01 2.73921E+01 0.00000E+00
 -1      4175 8.82280E+01 2.60931E+01 0.00000E+00
 -1      4176 9.19780E+01 2.73921E+01 0.00000E+00
 -1      4177 9.34780E+01 2.73921E+01 0.00000E+00
 -1      4178 9.12280E+01 2.60931E+01 0.00000E+00
 -1      4179 9.49780E+01 2.73921E+01 0.00000E+00
 -1      4180 9.64780E+01 2.73921E+01 0.00000E+00
 -1      4181 9.42280E+01 2.60931E+01 0.00000E+00
 -1      4182 9.79780E+01 2.73921E+01 0.00000E+00
 -1      4183 9.94780E+01 2.73921E+01 0.00000E+00
 -1      4184 9.72280E+01 2.60931E+01 0.00000E+00
 -1      4185 1.00978E+02 2.73921E+01 0.00000E+00
 -1      4186 1.02478E+02 2.73921E+01 0.00000E+00
 -1      4187 1.00228E+02 2.60931E+01 0.00000E+00
 -1      4188 1.03978E+02 2.73921E+01 0.00000E+00
 -1      4189 1.05478E+02 2.73921E+01 0.00000E+00
 -1      4190 1.03228E+02 2.60931E+01 0.00000E+00
 -1      4191 1.06978E+02 2.73921E+01 0.00000E+00
 -1      4192 1.08478E+02 2.73921E+01 0.00000E+00
 -1      4193 1.06228E+02 2.60931E+01 0.00000E+00
 -1      4194 1.09978E+02 2.73921E+01 0.00000E+00
 -1      4195 1.11478E+02 2.73921E+01 0.00000E+00
 -1      4196 1.09228E+02 2.60931E+01 0.00000E+00
 -1      4197 1.12978E+02 2.73921E+01 0.00000E+00
 -1      4198 1.14478E+02 2.73921E+01 0.00000E+00
 -1      4199 1.12228E+02 2.60931E+01 0.00000E+00
 -1      4200 1.15978E+02 2.73921E+01 0.00000E+00
 -1      4201 1.17478E+02 2.73921E+01 0.00000E+00
 -1      4202 1.15228E+02 2.60931E+01 0.00000E+00
 -1      4203 1.18978E+02 2.73921E+01 0.00000E+00
 -1      4204 1.20478E+02 2.73921E+01 0.00000E+00
 -1      4205 1.18228E+02 2.60931E+01 0.00000E+00
 -1      4206 1.21978E+02 2.73921E+01 0.00000E+00
 -1      4207 1.23478E+02 2.73921E+01 0.00000E+00
 -1      4208 1.21228E+02 2.60931E+01 0.00000E+00
 -1      4209 1.24978E+02 2.73921E+01 0.00000E+00
 -1      4210 1.26478E+02 2.73921E+01 0.00000E+00
 -1      4211 1.24228E+02 2.60931E+01 0.00000E+00
 -1      4212 1.09785E+02 2.08932E+01 0.00000E+00
 -1      4213 1.08285E+02 2.08932E+01 0.00000E+00
 -1      4214 1.29638E+02 2.23282E+01 0.00000E+00
 -1      4215 1.29193E+02 2.10601E+01 0.00000E+00
 -1      4216 1.28068E+02 2.09744E+01 0.00000E+00
 -1      4217 1.28634E+02 2.33922E+01 0.00000E+00
 -1      4218 7.38857E+01 1.94556E+01 0.00000E+00
 -1      4219 1.06785E+02 2.08932E+01 0.00000E+00
 -1      4220 1.05285E+02 2.08932E+01 0.00000E+00
 -1      4221 1.07535E+02 2.21922E+01 0.00000E+00
 -1      4222 1.00785E+02 2.08932E+01 0.00000E+00
 -1      4223 9.92850E+01 2.08932E+01 0.00000E+00
 -1      4224 1.01535E+02 2.21922E+01 0.00000E+00
 -1      4225 1.12785E+02 2.08932E+01 0.00000E+00
 -1      4226 1.11285E+02 2.08932E+01 0.00000E+00
 -1      4227 1.10535E+02 2.21922E+01 0.00000E+00
 -1      4228 1.15785E+02 2.08932E+01 0.00000E+00
 -1      4229 1.14285E+02 2.08932E+01 0.00000E+00
 -1      4230 1.13535E+02 2.21922E+01 0.00000E+00
 -1      4231 1.18785E+02 2.08932E+01 0.00000E+00
 -1      4232 1.17285E+02 2.08932E+01 0.00000E+00
 -1      4233 1.16535E+02 2.21922E+01 0.00000E+00
 -1      4234 1.21785E+02 2.08932E+01 0.00000E+00
 -1      4235 1.20285E+02 2.08932E+01 0.00000E+00
 -1      4236 1.19535E+02 2.21922E+01 0.00000E+00
 -1      4237 1.24785E+02 2.08932E+01 0.00000E+00
 -1      4238 1.23285E+02 2.08932E+01 0.00000E+00
 -1      4239 1.22535E+02 2.21922E+01 0.00000E+00
 -1      4240 2.55540E+01 2.79495E+01 0.00000E+00
 -1      4241 2.70540E+01 2.79495E+01 0.00000E+00
 -1      4242 2.54580E+01 2.66831E+01 0.00000E+00
 -1      4243 7.62933E+01 2.67839E+01 0.00000E+00
 -1      4244 7.70216E+01 2.78526E+01 0.00000E+00
 -1      4245 7.84998E+01 2.76224E+01 0.00000E+00
 -1      4246 2.20686E+01 2.18517E+01 0.00000E+00
 -1      4247 2.17442E+01 2.33727E+01 0.00000E+00
 -1      4248 2.18402E+01 2.46392E+01 0.00000E+00
 -1      4249 2.35686E+01 2.18517E+01 0.00000E+00
 -1      4250 7.58182E+01 2.10967E+01 0.00000E+00
 -1      4251 7.51248E+01 2.27638E+01 0.00000E+00
 -1      4252 7.61232E+01 2.38364E+01 0.00000E+00
 -1      4253 7.70644E+01 2.10083E+01 0.00000E+00
 -1      4254 8.00644E+01 2.10083E+01 0.00000E+00
 -1      4255 7.85644E+01 2.10083E+01 0.00000E+00
 -1      4256 7.80938E+01 2.24224E+01 0.00000E+00
 -1      4257 2.85540E+01 2.79495E+01 0.00000E+00
 -1      4258 3.00540E+01 2.79495E+01 0.00000E+00
 -1      4259 2.84580E+01 2.66831E+01 0.00000E+00
 -1      4260 3.12612E+01 2.79669E+01 0.00000E+00
 -1      4261 3.27612E+01 2.79669E+01 0.00000E+00
 -1      4262 3.35797E+01 2.67350E+01 0.00000E+00
 -1      4263 3.11652E+01 2.67004E+01 0.00000E+00
 -1      4264 8.87850E+01 2.08932E+01 0.00000E+00
 -1      4265 8.72850E+01 2.08932E+01 0.00000E+00
 -1      4266 8.30644E+01 2.10083E+01 0.00000E+00
 -1      4267 8.15644E+01 2.10083E+01 0.00000E+00
 -1      4268 8.10938E+01 2.24224E+01 0.00000E+00
 -1      4269 3.39870E+01 2.10450E+01 0.00000E+00
 -1      4270 8.59247E+01 2.09508E+01 0.00000E+00
 -1      4271 8.44247E+01 2.09508E+01 0.00000E+00
 -1      4272 8.39541E+01 2.23648E+01 0.00000E+00
 -1      4273 8.66747E+01 2.22498E+01 0.00000E+00
 -1      4274 3.13259E+01 1.99280E+01 0.00000E+00
 -1      4275 3.03962E+01 1.84302E+01 0.00000E+00
 -1      4276 9.02850E+01 2.08932E+01 0.00000E+00
 -1      4277 8.95350E+01 2.21922E+01 0.00000E+00
 -1      4278 9.17850E+01 2.08932E+01 0.00000E+00
 -1      4279 3.55867E+01 2.38485E+01 0.00000E+00
 -1      4280 3.46322E+01 2.32386E+01 0.00000E+00
 -1      4281 3.51394E+01 2.49889E+01 0.00000E+00
 -1      4282 9.85350E+01 2.21922E+01 0.00000E+00
 -1      4283 9.77850E+01 2.08932E+01 0.00000E+00
 -1      4284 9.62850E+01 2.08932E+01 0.00000E+00
 -1      4285 3.35397E+01 2.21854E+01 0.00000E+00
 -1      4286 3.24471E+01 2.11322E+01 0.00000E+00
 -1      4287 3.30924E+01 2.33258E+01 0.00000E+00
 -1      4288 3.08786E+01 2.10684E+01 0.00000E+00
 -1      4289 1.28073E+02 2.66461E+01 0.00000E+00
 -1      4290 1.27511E+02 2.42929E+01 0.00000E+00
 -1      4291 1.27228E+02 2.30840E+01 0.00000E+00
 -1      4292 2.73962E+01 1.84302E+01 0.00000E+00
 -1      4293 2.70951E+01 2.01611E+01 0.00000E+00
 -1      4294 7.67121E+01 2.59020E+01 0.00000E+00
 -1      4295 7.92498E+01 2.63234E+01 0.00000E+00
 -1      4296 1.27323E+02 2.53471E+01 0.00000E+00
 -1      4297 1.25916E+02 2.50389E+01 0.00000E+00
 -1      4298 1.30600E+02 2.85733E+01 0.00000E+00
 -1      4299 1.04535E+02 2.21922E+01 0.00000E+00
 -1      4300 3.64349E+01 2.70361E+01 0.00000E+00
 -1      4301 1.11382E+02 2.41427E+01 0.00000E+00
 -1      4302 1.09882E+02 2.41427E+01 0.00000E+00
 -1      4303 1.05382E+02 2.41427E+01 0.00000E+00
 -1      4304 1.03882E+02 2.41427E+01 0.00000E+00
 -1      4305 8.45212E+01 2.42002E+01 0.00000E+00
 -1      4306 8.60212E+01 2.42002E+01 0.00000E+00
 -1      4307 8.73815E+01 2.41427E+01 0.00000E+00
 -1      4308 8.88815E+01 2.41427E+01 0.00000E+00
 -1      4309 9.03815E+01 2.41427E+01 0.00000E+00
 -1      4310 9.18815E+01 2.41427E+01 0.00000E+00
 -1      4311 9.63815E+01 2.41427E+01 0.00000E+00
 -1      4312 9.78815E+01 2.41427E+01 0.00000E+00
 -1      4313 9.93815E+01 2.41427E+01 0.00000E+00
 -1      4314 1.00882E+02 2.41427E+01 0.00000E+00
 -1      4315 1.02382E+02 2.41427E+01 0.00000E+00
 -1      4316 1.06882E+02 2.41427E+01 0.00000E+00
 -1      4317 1.08382E+02 2.41427E+01 0.00000E+00
 -1      4318 1.12882E+02 2.41427E+01 0.00000E+00
 -1      4319 1.14382E+02 2.41427E+01 0.00000E+00
 -1      4320 1.15882E+02 2.41427E+01 0.00000E+00
 -1      4321 1.17382E+02 2.41427E+01 0.00000E+00
 -1      4322 1.18882E+02 2.41427E+01 0.00000E+00
 -1      4323 1.20382E+02 2.41427E+01 0.00000E+00
 -1      4324 1.21882E+02 2.41427E+01 0.00000E+00
 -1      4325 1.23382E+02 2.41427E+01 0.00000E+00
 -1      4326 1.24882E+02 2.41427E+01 0.00000E+00
 -1      4327 2.85702E+01 2.13036E+01 0.00000E+00
 -1      4328 2.59079E+01 2.16006E+01 0.00000E+00
 -1      4329 8.16609E+01 2.42577E+01 0.00000E+00
 -1      4330 8.31609E+01 2.42577E+01 0.00000E+00
 -1      4331 7.71308E+01 2.50202E+01 0.00000E+00
 -1      4332 7.81903E+01 2.56718E+01 0.00000E+00
 -1      4333 7.96685E+01 2.54415E+01 0.00000E+00
 -1      4334 2.88962E+01 1.84302E+01 0.00000E+00
 -1      4335 1.26943E+02 2.08888E+01 0.00000E+00
 -1      4336 1.26193E+02 2.21878E+01 0.00000E+00
 -1      4337 2.47080E+01 2.53841E+01 0.00000E+00
 -1      4338 2.62080E+01 2.53841E+01 0.00000E+00
 -1      4339 2.33312E+01 2.49643E+01 0.00000E+00
 -1      4340 2.71705E+01 2.47131E+01 0.00000E+00
 -1      4341 2.86705E+01 2.47131E+01 0.00000E+00
 -1      4342 3.54404E+01 2.61756E+01 0.00000E+00
 -1      4343 9.47850E+01 2.08932E+01 0.00000E+00
 -1      4344 9.32850E+01 2.08932E+01 0.00000E+00
 -1      4345 9.55350E+01 2.21922E+01 0.00000E+00
 -1      4346 7.76014E+01 2.36061E+01 0.00000E+00
 -1      4347 2.96914E+01 2.25079E+01 0.00000E+00
 -1      4348 3.44859E+01 2.55657E+01 0.00000E+00
 -1      4349 7.91014E+01 2.36061E+01 0.00000E+00
 -1      4350 9.25350E+01 2.21922E+01 0.00000E+00
 -1      4351 9.33815E+01 2.41427E+01 0.00000E+00
 -1      4352 9.48815E+01 2.41427E+01 0.00000E+00
 -1      4353 2.40812E+01 2.36653E+01 0.00000E+00
 -1      4354 8.01609E+01 2.42577E+01 0.00000E+00
 -1      4355 3.32787E+01 2.55484E+01 0.00000E+00
 -1      4356 2.49454E+01 2.22716E+01 0.00000E+00
 -1      4357 3.09789E+01 2.44779E+01 0.00000E+00
 -1      4358 3.20714E+01 2.55310E+01 0.00000E+00
 -1      4359 1.25070E+02 2.30885E+01 0.00000E+00
 -1      4360 2.64205E+01 2.34141E+01 0.00000E+00
 -3
    3C                          2098                                     1
 -1       165    8    0    1
 -2         6         7        23      1132      1296      1149
 -1       166    8    0    1
 -2         7         8       165      1133      1297      1298
 -1       167    8    0    1
 -2         8         9       166      1134      1299      1300
 -1       168    8    0    1
 -2         8       166       165      1300      1301      1297
 -1       169    8    0    1
 -2         9        10       167      1135      1302      1303
 -1       170    8    0    1
 -2         9       167       166      1303      1304      1299
 -1       171    8    0    1
 -2        10        11       168      1136      1305      1306
 -1       172    8    0    1
 -2        10       168       167      1306      1307      1302
 -1       173    8    0    1
 -2        11        12       169      1137      1308      1309
 -1       174    8    0    1
 -2        11       169       168      1309      1310      1305
 -1       175    8    0    1
 -2        12        13       170      1138      1311      1312
 -1       176    8    0    1
 -2        12       170       169      1312      1313      1308
 -1       177    8    0    1
 -2        13        14       171      1139      1314      1315
 -1       178    8    0    1
 -2        13       171       170      1315      1316      1311
 -1       179    8    0    1
 -2        14        15       172      1140      1317      1318
 -1       180    8    0    1
 -2        14       172       171      1318      1319      1314
 -1       181    8    0    1
 -2        15        16       173      1141      1320      1321
 -1       182    8    0    1
 -2        15       173       172      1321      1322      1317
 -1       183    8    0    1
 -2        16        17       174      1142      1323      1324
 -1       184    8    0    1
 -2        16       174       173      1324      1325      1320
 -1       185    8    0    1
 -2        17        18       175      1143      1326      1327
 -1       186    8    0    1
 -2        17       175       174      1327      1328      1323
 -1       187    8    0    1
 -2        18        19       176      1144      1329      1330
 -1       188    8    0    1
 -2        18       176       175      1330      1331      1326
 -1       189    8    0    1
 -2        19        20       177      1145      1332      1333
 -1       190    8    0    1
 -2        19       177       176      1333      1334      1329
 -1       191    8    0    1
 -2        20        21       178      1146      1335      1336
 -1       192    8    0    1
 -2        20       178       177      1336      1337      1332
 -1       193    8    0    1
 -2        21        22       179      1147      1338      1339
 -1       194    8    0    1
 -2        21       179       178      1339      1340      1335
 -1       195    8    0    1
 -2        22         5       180      1148      1341      1342
 -1       196    8    0    1
 -2       179        22       180      1338      1342      1343
 -1       197    8    0    1
 -2         5        72       180      1199      1344      1341
 -1       198    8    0    1
 -2        24        23       181      1150      1345      1346
 -1       199    8    0    1
 -2        25        24       182      1151      1347      1348
 -1       200    8    0    1
 -2        24       181       182      1346      1349      1347
 -1       201    8    0    1
 -2        26        25       183      1152      1350      1351
 -1       202    8    0    1
 -2        25       182       183      1348      1352      1350
 -1       203    8    0    1
 -2        27        26       184      1153      1353      1354
 -1       204    8    0    1
 -2        26       183       184      1351      1355      1353
 -1       205    8    0    1
 -2        28        27       185      1154      1356      1357
 -1       206    8    0    1
 -2        27       184       185      1354      1358      1356
 -1       207    8    0    1
 -2        29        28       186      1155      1359      1360
 -1       208    8    0    1
 -2        28       185       186      1357      1361      1359
 -1       209    8    0    1
 -2        30        29       187      1156      1362      1363
 -1       210    8    0    1
 -2        29       186       187      1360      1364      1362
 -1       211    8    0    1
 -2        31        30       188      1157      1365      1366
 -1       212    8    0    1
 -2        30       187       188      1363      1367      1365
 -1       213    8    0    1
 -2        32        31       189      1158      1368      1369
 -1       214    8    0    1
 -2        31       188       189      1366      1370      1368
 -1       215    8    0    1
 -2        33        32       190      1159      1371      1372
 -1       216    8    0    1
 -2        32       189       190      1369      1373      1371
 -1       217    8    0    1
 -2        34        33       191      1160      1374      1375
 -1       218    8    0    1
 -2        33       190       191      1372      1376      1374
 -1       219    8    0    1
 -2        35        34       192      1161      1377      1378
 -1       220    8    0    1
 -2        34       191       192      1375      1379      1377
 -1       221    8    0    1
 -2        36        35       193      1162      1380      1381
 -1       222    8    0    1
 -2        35       192       193      1378      1382      1380
 -1       223    8    0    1
 -2        37        36       194      1163      1383      1384
 -1       224    8    0    1
 -2        36       193       194      1381      1385      1383
 -1       225    8    0    1
 -2        38        37       195      1164      1386      1387
 -1       226    8    0    1
 -2        37       194       195      1384      1388      1386
 -1       227    8    0    1
 -2        39        38       196      1165      1389      1390
 -1       228    8    0    1
 -2        38       195       196      1387      1391      1389
 -1       229    8    0    1
 -2        40        39       197      1166      1392      1393
 -1       230    8    0    1
 -2        39       196       197      1390      1394      1392
 -1       231    8    0    1
 -2        41        40       198      1167      1395      1396
 -1       232    8    0    1
 -2        40       197       198      1393      1397      1395
 -1       233    8    0    1
 -2        42        41       199      1168      1398      1399
 -1       234    8    0    1
 -2        41       198       199      1396      1400      1398
 -1       235    8    0    1
 -2        43        42       200      1169      1401      1402
 -1       236    8    0    1
 -2        42       199       200      1399      1403      1401
 -1       237    8    0    1
 -2        44        43       201      1170      1404      1405
 -1       238    8    0    1
 -2        43       200       201      1402      1406      1404
 -1       239    8    0    1
 -2        45        44       202      1171      1407      1408
 -1       240    8    0    1
 -2        44       201       202      1405      1409      1407
 -1       241    8    0    1
 -2        46        45       203      1172      1410      1411
 -1       242    8    0    1
 -2        45       202       203      1408      1412      1410
 -1       243    8    0    1
 -2        47        46       204      1173      1413      1414
 -1       244    8    0    1
 -2        46       203       204      1411      1415      1413
 -1       245    8    0    1
 -2        48        47       205      1174      1416      1417
 -1       246    8    0    1
 -2        47       204       205      1414      1418      1416
 -1       247    8    0    1
 -2        49        48       206      1175      1419      1420
 -1       248    8    0    1
 -2        48       205       206      1417      1421      1419
 -1       249    8    0    1
 -2        50        49       207      1176      1422      1423
 -1       250    8    0    1
 -2        49       206       207      1420      1424      1422
 -1       251    8    0    1
 -2        51        50       208      1177      1425      1426
 -1       252    8    0    1
 -2        50       207       208      1423      1427      1425
 -1       253    8    0    1
 -2        52        51       209      1178      1428      1429
 -1       254    8    0    1
 -2        51       208       209      1426      1430      1428
 -1       255    8    0    1
 -2        53        52       210      1179      1431      1432
 -1       256    8    0    1
 -2        52       209       210      1429      1433      1431
 -1       257    8    0    1
 -2        54        53       211      1180      1434      1435
 -1       258    8    0    1
 -2        53       210       211      1432      1436      1434
 -1       259    8    0    1
 -2        55        54       212      1181      1437      1438
 -1       260    8    0    1
 -2        54       211       212      1435      1439      1437
 -1       261    8    0    1
 -2        56        55       213      1182      1440      1441
 -1       262    8    0    1
 -2        55       212       213      1438      1442      1440
 -1       263    8    0    1
 -2        57        56       214      1183      1443      1444
 -1       264    8    0    1
 -2        56       213       214      1441      1445      1443
 -1       265    8    0    1
 -2        58        57       215      1184      1446      1447
 -1       266    8    0    1
 -2        57       214       215      1444      1448      1446
 -1       267    8    0    1
 -2        59        58       216      1185      1449      1450
 -1       268    8    0    1
 -2        58       215       216      1447      1451      1449
 -1       269    8    0    1
 -2        60        59       217      1186      1452      1453
 -1       270    8    0    1
 -2        59       216       217      1450      1454      1452
 -1       271    8    0    1
 -2        61        60       218      1187      1455      1456
 -1       272    8    0    1
 -2        60       217       218      1453      1457      1455
 -1       273    8    0    1
 -2        62        61       219      1188      1458      1459
 -1       274    8    0    1
 -2        61       218       219      1456      1460      1458
 -1       275    8    0    1
 -2        63        62       220      1189      1461      1462
 -1       276    8    0    1
 -2        62       219       220      1459      1463      1461
 -1       277    8    0    1
 -2        64        63       221      1190      1464      1465
 -1       278    8    0    1
 -2        63       220       221      1462      1466      1464
 -1       279    8    0    1
 -2        65        64       222      1191      1467      1468
 -1       280    8    0    1
 -2        64       221       222      1465      1469      1467
 -1       281    8    0    1
 -2        66        65       223      1192      1470      1471
 -1       282    8    0    1
 -2        65       222       223      1468      1472      1470
 -1       283    8    0    1
 -2        67        66       224      1193      1473      1474
 -1       284    8    0    1
 -2        66       223       224      1471      1475      1473
 -1       285    8    0    1
 -2        68        67       225      1194      1476      1477
 -1       286    8    0    1
 -2        67       224       225      1474      1478      1476
 -1       287    8    0    1
 -2        69        68       226      1195      1479      1480
 -1       288    8    0    1
 -2        68       225       226      1477      1481      1479
 -1       289    8    0    1
 -2        70        69       227      1196      1482      1483
 -1       290    8    0    1
 -2        69       226       227      1480      1484      1482
 -1       291    8    0    1
 -2        71        70       228      1197      1485      1486
 -1       292    8    0    1
 -2        70       227       228      1483      1487      1485
 -1       293    8    0    1
 -2         4        71       136      1198      1488      1265
 -1       294    8    0    1
 -2       136        71       228      1488      1486      1489
 -1       295    8    0    1
 -2        72        73       229      1200      1490      1491
 -1       296    8    0    1
 -2        72       229       180      1491      1492      1344
 -1       297    8    0    1
 -2        73        74       230      1201      1493      1494
 -1       298    8    0    1
 -2        73       230       229      1494      1495      1490
 -1       299    8    0    1
 -2        74        75       231      1202      1496      1497
 -1       300    8    0    1
 -2        74       231       230      1497      1498      1493
 -1       301    8    0    1
 -2        75        76       232      1203      1499      1500
 -1       302    8    0    1
 -2        75       232       231      1500      1501      1496
 -1       303    8    0    1
 -2        76        77       233      1204      1502      1503
 -1       304    8    0    1
 -2        76       233       232      1503      1504      1499
 -1       305    8    0    1
 -2        77        78       234      1205      1505      1506
 -1       306    8    0    1
 -2        77       234       233      1506      1507      1502
 -1       307    8    0    1
 -2        78        79       235      1206      1508      1509
 -1       308    8    0    1
 -2        78       235       234      1509      1510      1505
 -1       309    8    0    1
 -2        79        80       236      1207      1511      1512
 -1       310    8    0    1
 -2        79       236       235      1512      1513      1508
 -1       311    8    0    1
 -2        80        81       237      1208      1514      1515
 -1       312    8    0    1
 -2        80       237       236      1515      1516      1511
 -1       313    8    0    1
 -2        81        82       238      1209      1517      1518
 -1       314    8    0    1
 -2        81       238       237      1518      1519      1514
 -1       315    8    0    1
 -2        82        83       239      1210      1520      1521
 -1       316    8    0    1
 -2        82       239       238      1521      1522      1517
 -1       317    8    0    1
 -2        83        84       240      1211      1523      1524
 -1       318    8    0    1
 -2        83       240       239      1524      1525      1520
 -1       319    8    0    1
 -2        84        85       241      1212      1526      1527
 -1       320    8    0    1
 -2        84       241       240      1527      1528      1523
 -1       321    8    0    1
 -2        85        86       242      1213      1529      1530
 -1       322    8    0    1
 -2        85       242       241      1530      1531      1526
 -1       323    8    0    1
 -2        86        87       243      1214      1532      1533
 -1       324    8    0    1
 -2        86       243       242      1533      1534      1529
 -1       325    8    0    1
 -2        87        88       244      1215      1535      1536
 -1       326    8    0    1
 -2        87       244       243      1536      1537      1532
 -1       327    8    0    1
 -2        88        89       245      1216      1538      1539
 -1       328    8    0    1
 -2        88       245       244      1539      1540      1535
 -1       329    8    0    1
 -2        89        90       246      1217      1541      1542
 -1       330    8    0    1
 -2        89       246       245      1542      1543      1538
 -1       331    8    0    1
 -2        90        91       247      1218      1544      1545
 -1       332    8    0    1
 -2        90       247       246      1545      1546      1541
 -1       333    8    0    1
 -2        91        92       248      1219      1547      1548
 -1       334    8    0    1
 -2        91       248       247      1548      1549      1544
 -1       335    8    0    1
 -2        92        93       249      1220      1550      1551
 -1       336    8    0    1
 -2        92       249       248      1551      1552      1547
 -1       337    8    0    1
 -2        93        94       250      1221      1553      1554
 -1       338    8    0    1
 -2        93       250       249      1554      1555      1550
 -1       339    8    0    1
 -2        94        95       251      1222      1556      1557
 -1       340    8    0    1
 -2        94       251       250      1557      1558      1553
 -1       341    8    0    1
 -2        95        96       252      1223      1559      1560
 -1       342    8    0    1
 -2        95       252       251      1560      1561      1556
 -1       343    8    0    1
 -2        96        97       253      1224      1562      1563
 -1       344    8    0    1
 -2        96       253       252      1563      1564      1559
 -1       345    8    0    1
 -2        97        98       254      1225      1565      1566
 -1       346    8    0    1
 -2        97       254       253      1566      1567      1562
 -1       347    8    0    1
 -2        98        99       255      1226      1568      1569
 -1       348    8    0    1
 -2        98       255       254      1569      1570      1565
 -1       349    8    0    1
 -2        99       100       256      1227      1571      1572
 -1       350    8    0    1
 -2        99       256       255      1572      1573      1568
 -1       351    8    0    1
 -2       100       101       257      1228      1574      1575
 -1       352    8    0    1
 -2       100       257       256      1575      1576      1571
 -1       353    8    0    1
 -2       101       102       258      1229      1577      1578
 -1       354    8    0    1
 -2       101       258       257      1578      1579      1574
 -1       355    8    0    1
 -2       102       103       259      1230      1580      1581
 -1       356    8    0    1
 -2       102       259       258      1581      1582      1577
 -1       357    8    0    1
 -2       103       104       260      1231      1583      1584
 -1       358    8    0    1
 -2       103       260       259      1584      1585      1580
 -1       359    8    0    1
 -2       104       105       261      1232      1586      1587
 -1       360    8    0    1
 -2       104       261       260      1587      1588      1583
 -1       361    8    0    1
 -2       105       106       262      1233      1589      1590
 -1       362    8    0    1
 -2       105       262       261      1590      1591      1586
 -1       363    8    0    1
 -2       106       107       263      1234      1592      1593
 -1       364    8    0    1
 -2       106       263       262      1593      1594      1589
 -1       365    8    0    1
 -2       107       108       264      1235      1595      1596
 -1       366    8    0    1
 -2       107       264       263      1596      1597      1592
 -1       367    8    0    1
 -2       108       109       265      1236      1598      1599
 -1       368    8    0    1
 -2       108       265       264      1599      1600      1595
 -1       369    8    0    1
 -2       109       110       266      1237      1601      1602
 -1       370    8    0    1
 -2       109       266       265      1602      1603      1598
 -1       371    8    0    1
 -2       110       111       267      1238      1604      1605
 -1       372    8    0    1
 -2       110       267       266      1605      1606      1601
 -1       373    8    0    1
 -2       111       112       268      1239      1607      1608
 -1       374    8    0    1
 -2       111       268       267      1608      1609      1604
 -1       375    8    0    1
 -2       112       113       269      1240      1610      1611
 -1       376    8    0    1
 -2       112       269       268      1611      1612      1607
 -1       377    8    0    1
 -2       113       114       270      1241      1613      1614
 -1       378    8    0    1
 -2       113       270       269      1614      1615      1610
 -1       379    8    0    1
 -2       114       115       271      1242      1616      1617
 -1       380    8    0    1
 -2       114       271       270      1617      1618      1613
 -1       381    8    0    1
 -2       115       116       272      1243      1619      1620
 -1       382    8    0    1
 -2       115       272       271      1620      1621      1616
 -1       383    8    0    1
 -2       116       117       273      1244      1622      1623
 -1       384    8    0    1
 -2       116       273       272      1623      1624      1619
 -1       385    8    0    1
 -2       117       118       274      1245      1625      1626
 -1       386    8    0    1
 -2       117       274       273      1626      1627      1622
 -1       387    8    0    1
 -2       118       119       275      1246      1628      1629
 -1       388    8    0    1
 -2       118       275       274      1629      1630      1625
 -1       389    8    0    1
 -2       119       120       276      1247      1631      1632
 -1       390    8    0    1
 -2       119       276       275      1632      1633      1628
 -1       391    8    0    1
 -2       120         3       121      1248      1249      1634
 -1       392    8    0    1
 -2       121       122       277      1250      1635      1636
 -1       393    8    0    1
 -2       122       123       278      1251      1637      1638
 -1       394    8    0    1
 -2       122       278       277      1638      1639      1635
 -1       395    8    0    1
 -2       123       124       279      1252      1640      1641
 -1       396    8    0    1
 -2       123       279       278      1641      1642      1637
 -1       397    8    0    1
 -2       124       125       280      1253      1643      1644
 -1       398    8    0    1
 -2       124       280       279      1644      1645      1640
 -1       399    8    0    1
 -2       125       126       281      1254      1646      1647
 -1       400    8    0    1
 -2       125       281       280      1647      1648      1643
 -1       401    8    0    1
 -2       126       127       282      1255      1649      1650
 -1       402    8    0    1
 -2       126       282       281      1650      1651      1646
 -1       403    8    0    1
 -2       127       128       283      1256      1652      1653
 -1       404    8    0    1
 -2       127       283       282      1653      1654      1649
 -1       405    8    0    1
 -2       128       129       284      1257      1655      1656
 -1       406    8    0    1
 -2       128       284       283      1656      1657      1652
 -1       407    8    0    1
 -2       129       130       285      1258      1658      1659
 -1       408    8    0    1
 -2       129       285       284      1659      1660      1655
 -1       409    8    0    1
 -2       130       131       286      1259      1661      1662
 -1       410    8    0    1
 -2       130       286       285      1662      1663      1658
 -1       411    8    0    1
 -2       131       132       287      1260      1664      1665
 -1       412    8    0    1
 -2       131       287       286      1665      1666      1661
 -1       413    8    0    1
 -2       132       133       288      1261      1667      1668
 -1       414    8    0    1
 -2       132       288       287      1668      1669      1664
 -1       415    8    0    1
 -2       133       134       289      1262      1670      1671
 -1       416    8    0    1
 -2       133       289       288      1671      1672      1667
 -1       417    8    0    1
 -2       134       135       290      1263      1673      1674
 -1       418    8    0    1
 -2       134       290       289      1674      1675      1670
 -1       419    8    0    1
 -2       135       136       291      1264      1676      1677
 -1       420    8    0    1
 -2       290       135       291      1673      1677      1678
 -1       421    8    0    1
 -2       136       228       291      1489      1679      1676
 -1       422    8    0    1
 -2         2       137       292      1266      1680      1681
 -1       423    8    0    1
 -2       137       138       293      1267      1682      1683
 -1       424    8    0    1
 -2       138       139       294      1268      1684      1685
 -1       425    8    0    1
 -2       139       140       295      1269      1686      1687
 -1       426    8    0    1
 -2       140       141       296      1270      1688      1689
 -1       427    8    0    1
 -2       141       142       297      1271      1690      1691
 -1       428    8    0    1
 -2       142       143       298      1272      1692      1693
 -1       429    8    0    1
 -2       143       144       299      1273      1694      1695
 -1       430    8    0    1
 -2       144       145       300      1274      1696      1697
 -1       431    8    0    1
 -2       145       146       301      1275      1698      1699
 -1       432    8    0    1
 -2       146       147       302      1276      1700      1701
 -1       433    8    0    1
 -2       147       148       303      1277      1702      1703
 -1       434    8    0    1
 -2       148       149       304      1278      1704      1705
 -1       435    8    0    1
 -2       149       150       305      1279      1706      1707
 -1       436    8    0    1
 -2       150       151       306      1280      1708      1709
 -1       437    8    0    1
 -2       151       152       307      1281      1710      1711
 -1       438    8    0    1
 -2       152       153       308      1282      1712      1713
 -1       439    8    0    1
 -2       153       154       309      1283      1714      1715
 -1       440    8    0    1
 -2       154       155       310      1284      1716      1717
 -1       441    8    0    1
 -2       155       156       311      1285      1718      1719
 -1       442    8    0    1
 -2       156       157       312      1286      1720      1721
 -1       443    8    0    1
 -2       157       158       313      1287      1722      1723
 -1       444    8    0    1
 -2       158         1       314      1288      1724      1725
 -1       445    8    0    1
 -2         1       159       315      1289      1726      1727
 -1       446    8    0    1
 -2       159       160       316      1290      1728      1729
 -1       447    8    0    1
 -2       160       161       317      1291      1730      1731
 -1       448    8    0    1
 -2       161       162       318      1292      1732      1733
 -1       449    8    0    1
 -2       162       163       319      1293      1734      1735
 -1       450    8    0    1
 -2       163       164       320      1294      1736      1737
 -1       451    8    0    1
 -2       164         2       321      1295      1738      1739
 -1       452    8    0    1
 -2       295       140       296      1686      1689      1740
 -1       453    8    0    1
 -2       294       139       295      1684      1687      1741
 -1       454    8    0    1
 -2       120       121       276      1634      1742      1631
 -1       455    8    0    1
 -2       121       277       276      1636      1743      1742
 -1       456    8    0    1
 -2       292       137       293      1680      1683      1744
 -1       457    8    0    1
 -2       293       138       294      1682      1685      1745
 -1       458    8    0    1
 -2         2       292       321      1681      1746      1738
 -1       459    8    0    1
 -2       141       297       296      1691      1747      1688
 -1       460    8    0    1
 -2       142       298       297      1693      1748      1690
 -1       461    8    0    1
 -2       143       299       298      1695      1749      1692
 -1       462    8    0    1
 -2       144       300       299      1697      1750      1694
 -1       463    8    0    1
 -2       145       301       300      1699      1751      1696
 -1       464    8    0    1
 -2       146       302       301      1701      1752      1698
 -1       465    8    0    1
 -2       147       303       302      1703      1753      1700
 -1       466    8    0    1
 -2       148       304       303      1705      1754      1702
 -1       467    8    0    1
 -2       149       305       304      1707      1755      1704
 -1       468    8    0    1
 -2       150       306       305      1709      1756      1706
 -1       469    8    0    1
 -2       151       307       306      1711      1757      1708
 -1       470    8    0    1
 -2       152       308       307      1713      1758      1710
 -1       471    8    0    1
 -2       153       309       308      1715      1759      1712
 -1       472    8    0    1
 -2       154       310       309      1717      1760      1714
 -1       473    8    0    1
 -2       155       311       310      1719      1761      1716
 -1       474    8    0    1
 -2       156       312       311      1721      1762      1718
 -1       475    8    0    1
 -2       157       313       312      1723      1763      1720
 -1       476    8    0    1
 -2       158       314       313      1725      1764      1722
 -1       477    8    0    1
 -2         1       315       314      1727      1765      1724
 -1       478    8    0    1
 -2       159       316       315      1729      1766      1726
 -1       479    8    0    1
 -2       160       317       316      1731      1767      1728
 -1       480    8    0    1
 -2       161       318       317      1733      1768      1730
 -1       481    8    0    1
 -2       162       319       318      1735      1769      1732
 -1       482    8    0    1
 -2       163       320       319      1737      1770      1734
 -1       483    8    0    1
 -2       164       321       320      1739      1771      1736
 -1       484    8    0    1
 -2        23         7       165      1296      1298      1772
 -1       485    8    0    1
 -2       166       167       322      1304      1773      1774
 -1       486    8    0    1
 -2       165       166       323      1301      1775      1776
 -1       487    8    0    1
 -2       166       322       323      1774      1777      1775
 -1       488    8    0    1
 -2       168       169       324      1310      1778      1779
 -1       489    8    0    1
 -2       169       170       325      1313      1780      1781
 -1       490    8    0    1
 -2       169       325       324      1781      1782      1778
 -1       491    8    0    1
 -2       170       171       326      1316      1783      1784
 -1       492    8    0    1
 -2       170       326       325      1784      1785      1780
 -1       493    8    0    1
 -2       171       172       327      1319      1786      1787
 -1       494    8    0    1
 -2       171       327       326      1787      1788      1783
 -1       495    8    0    1
 -2       172       173       328      1322      1789      1790
 -1       496    8    0    1
 -2       172       328       327      1790      1791      1786
 -1       497    8    0    1
 -2       173       174       329      1325      1792      1793
 -1       498    8    0    1
 -2       173       329       328      1793      1794      1789
 -1       499    8    0    1
 -2       174       175       330      1328      1795      1796
 -1       500    8    0    1
 -2       174       330       329      1796      1797      1792
 -1       501    8    0    1
 -2       175       176       331      1331      1798      1799
 -1       502    8    0    1
 -2       175       331       330      1799      1800      1795
 -1       503    8    0    1
 -2       176       177       332      1334      1801      1802
 -1       504    8    0    1
 -2       176       332       331      1802      1803      1798
 -1       505    8    0    1
 -2       177       178       333      1337      1804      1805
 -1       506    8    0    1
 -2       177       333       332      1805      1806      1801
 -1       507    8    0    1
 -2       178       179       334      1340      1807      1808
 -1       508    8    0    1
 -2       178       334       333      1808      1809      1804
 -1       509    8    0    1
 -2       179       180       335      1343      1810      1811
 -1       510    8    0    1
 -2       334       179       335      1807      1811      1812
 -1       511    8    0    1
 -2       180       229       335      1492      1813      1810
 -1       512    8    0    1
 -2       181        23       165      1345      1772      1814
 -1       513    8    0    1
 -2       229       230       336      1495      1815      1816
 -1       514    8    0    1
 -2       229       336       335      1816      1817      1813
 -1       515    8    0    1
 -2       181       165       323      1814      1776      1818
 -1       516    8    0    1
 -2       183       182       337      1352      1819      1820
 -1       517    8    0    1
 -2       184       183       338      1355      1821      1822
 -1       518    8    0    1
 -2       183       337       338      1820      1823      1821
 -1       519    8    0    1
 -2       185       184       339      1358      1824      1825
 -1       520    8    0    1
 -2       184       338       339      1822      1826      1824
 -1       521    8    0    1
 -2       186       185       340      1361      1827      1828
 -1       522    8    0    1
 -2       185       339       340      1825      1829      1827
 -1       523    8    0    1
 -2       187       186       341      1364      1830      1831
 -1       524    8    0    1
 -2       186       340       341      1828      1832      1830
 -1       525    8    0    1
 -2       188       187       342      1367      1833      1834
 -1       526    8    0    1
 -2       187       341       342      1831      1835      1833
 -1       527    8    0    1
 -2       189       188       343      1370      1836      1837
 -1       528    8    0    1
 -2       188       342       343      1834      1838      1836
 -1       529    8    0    1
 -2       190       189       344      1373      1839      1840
 -1       530    8    0    1
 -2       189       343       344      1837      1841      1839
 -1       531    8    0    1
 -2       191       190       345      1376      1842      1843
 -1       532    8    0    1
 -2       190       344       345      1840      1844      1842
 -1       533    8    0    1
 -2       192       191       346      1379      1845      1846
 -1       534    8    0    1
 -2       191       345       346      1843      1847      1845
 -1       535    8    0    1
 -2       193       192       347      1382      1848      1849
 -1       536    8    0    1
 -2       192       346       347      1846      1850      1848
 -1       537    8    0    1
 -2       194       193       348      1385      1851      1852
 -1       538    8    0    1
 -2       193       347       348      1849      1853      1851
 -1       539    8    0    1
 -2       195       194       349      1388      1854      1855
 -1       540    8    0    1
 -2       194       348       349      1852      1856      1854
 -1       541    8    0    1
 -2       196       195       350      1391      1857      1858
 -1       542    8    0    1
 -2       195       349       350      1855      1859      1857
 -1       543    8    0    1
 -2       197       196       351      1394      1860      1861
 -1       544    8    0    1
 -2       196       350       351      1858      1862      1860
 -1       545    8    0    1
 -2       198       197       352      1397      1863      1864
 -1       546    8    0    1
 -2       197       351       352      1861      1865      1863
 -1       547    8    0    1
 -2       199       198       353      1400      1866      1867
 -1       548    8    0    1
 -2       198       352       353      1864      1868      1866
 -1       549    8    0    1
 -2       200       199       354      1403      1869      1870
 -1       550    8    0    1
 -2       199       353       354      1867      1871      1869
 -1       551    8    0    1
 -2       201       200       355      1406      1872      1873
 -1       552    8    0    1
 -2       200       354       355      1870      1874      1872
 -1       553    8    0    1
 -2       202       201       356      1409      1875      1876
 -1       554    8    0    1
 -2       201       355       356      1873      1877      1875
 -1       555    8    0    1
 -2       203       202       357      1412      1878      1879
 -1       556    8    0    1
 -2       202       356       357      1876      1880      1878
 -1       557    8    0    1
 -2       204       203       358      1415      1881      1882
 -1       558    8    0    1
 -2       203       357       358      1879      1883      1881
 -1       559    8    0    1
 -2       205       204       359      1418      1884      1885
 -1       560    8    0    1
 -2       204       358       359      1882      1886      1884
 -1       561    8    0    1
 -2       206       205       360      1421      1887      1888
 -1       562    8    0    1
 -2       205       359       360      1885      1889      1887
 -1       563    8    0    1
 -2       207       206       361      1424      1890      1891
 -1       564    8    0    1
 -2       206       360       361      1888      1892      1890
 -1       565    8    0    1
 -2       208       207       362      1427      1893      1894
 -1       566    8    0    1
 -2       207       361       362      1891      1895      1893
 -1       567    8    0    1
 -2       209       208       363      1430      1896      1897
 -1       568    8    0    1
 -2       208       362       363      1894      1898      1896
 -1       569    8    0    1
 -2       210       209       364      1433      1899      1900
 -1       570    8    0    1
 -2       209       363       364      1897      1901      1899
 -1       571    8    0    1
 -2       211       210       365      1436      1902      1903
 -1       572    8    0    1
 -2       210       364       365      1900      1904      1902
 -1       573    8    0    1
 -2       212       211       366      1439      1905      1906
 -1       574    8    0    1
 -2       211       365       366      1903      1907      1905
 -1       575    8    0    1
 -2       213       212       367      1442      1908      1909
 -1       576    8    0    1
 -2       212       366       367      1906      1910      1908
 -1       577    8    0    1
 -2       214       213       368      1445      1911      1912
 -1       578    8    0    1
 -2       213       367       368      1909      1913      1911
 -1       579    8    0    1
 -2       215       214       369      1448      1914      1915
 -1       580    8    0    1
 -2       214       368       369      1912      1916      1914
 -1       581    8    0    1
 -2       216       215       370      1451      1917      1918
 -1       582    8    0    1
 -2       215       369       370      1915      1919      1917
 -1       583    8    0    1
 -2       217       216       371      1454      1920      1921
 -1       584    8    0    1
 -2       216       370       371      1918      1922      1920
 -1       585    8    0    1
 -2       218       217       372      1457      1923      1924
 -1       586    8    0    1
 -2       217       371       372      1921      1925      1923
 -1       587    8    0    1
 -2       219       218       373      1460      1926      1927
 -1       588    8    0    1
 -2       218       372       373      1924      1928      1926
 -1       589    8    0    1
 -2       220       219       374      1463      1929      1930
 -1       590    8    0    1
 -2       219       373       374      1927      1931      1929
 -1       591    8    0    1
 -2       221       220       375      1466      1932      1933
 -1       592    8    0    1
 -2       220       374       375      1930      1934      1932
 -1       593    8    0    1
 -2       222       221       376      1469      1935      1936
 -1       594    8    0    1
 -2       221       375       376      1933      1937      1935
 -1       595    8    0    1
 -2       223       222       377      1472      1938      1939
 -1       596    8    0    1
 -2       222       376       377      1936      1940      1938
 -1       597    8    0    1
 -2       224       223       378      1475      1941      1942
 -1       598    8    0    1
 -2       223       377       378      1939      1943      1941
 -1       599    8    0    1
 -2       225       224       379      1478      1944      1945
 -1       600    8    0    1
 -2       224       378       379      1942      1946      1944
 -1       601    8    0    1
 -2       226       225       380      1481      1947      1948
 -1       602    8    0    1
 -2       225       379       380      1945      1949      1947
 -1       603    8    0    1
 -2       227       226       381      1484      1950      1951
 -1       604    8    0    1
 -2       226       380       381      1948      1952      1950
 -1       605    8    0    1
 -2       228       227       382      1487      1953      1954
 -1       606    8    0    1
 -2       291       228       382      1679      1954      1955
 -1       607    8    0    1
 -2       227       381       382      1951      1956      1953
 -1       608    8    0    1
 -2       230       231       383      1498      1957      1958
 -1       609    8    0    1
 -2       230       383       336      1958      1959      1815
 -1       610    8    0    1
 -2       231       232       384      1501      1960      1961
 -1       611    8    0    1
 -2       231       384       383      1961      1962      1957
 -1       612    8    0    1
 -2       232       233       385      1504      1963      1964
 -1       613    8    0    1
 -2       232       385       384      1964      1965      1960
 -1       614    8    0    1
 -2       233       234       386      1507      1966      1967
 -1       615    8    0    1
 -2       233       386       385      1967      1968      1963
 -1       616    8    0    1
 -2       234       235       387      1510      1969      1970
 -1       617    8    0    1
 -2       234       387       386      1970      1971      1966
 -1       618    8    0    1
 -2       235       236       388      1513      1972      1973
 -1       619    8    0    1
 -2       235       388       387      1973      1974      1969
 -1       620    8    0    1
 -2       236       237       389      1516      1975      1976
 -1       621    8    0    1
 -2       236       389       388      1976      1977      1972
 -1       622    8    0    1
 -2       237       238       390      1519      1978      1979
 -1       623    8    0    1
 -2       237       390       389      1979      1980      1975
 -1       624    8    0    1
 -2       238       239       391      1522      1981      1982
 -1       625    8    0    1
 -2       238       391       390      1982      1983      1978
 -1       626    8    0    1
 -2       239       240       392      1525      1984      1985
 -1       627    8    0    1
 -2       239       392       391      1985      1986      1981
 -1       628    8    0    1
 -2       240       241       393      1528      1987      1988
 -1       629    8    0    1
 -2       240       393       392      1988      1989      1984
 -1       630    8    0    1
 -2       241       242       394      1531      1990      1991
 -1       631    8    0    1
 -2       241       394       393      1991      1992      1987
 -1       632    8    0    1
 -2       242       243       395      1534      1993      1994
 -1       633    8    0    1
 -2       242       395       394      1994      1995      1990
 -1       634    8    0    1
 -2       243       244       396      1537      1996      1997
 -1       635    8    0    1
 -2       243       396       395      1997      1998      1993
 -1       636    8    0    1
 -2       244       245       397      1540      1999      2000
 -1       637    8    0    1
 -2       244       397       396      2000      2001      1996
 -1       638    8    0    1
 -2       245       246       398      1543      2002      2003
 -1       639    8    0    1
 -2       245       398       397      2003      2004      1999
 -1       640    8    0    1
 -2       246       247       399      1546      2005      2006
 -1       641    8    0    1
 -2       246       399       398      2006      2007      2002
 -1       642    8    0    1
 -2       247       248       400      1549      2008      2009
 -1       643    8    0    1
 -2       247       400       399      2009      2010      2005
 -1       644    8    0    1
 -2       248       249       401      1552      2011      2012
 -1       645    8    0    1
 -2       248       401       400      2012      2013      2008
 -1       646    8    0    1
 -2       249       250       402      1555      2014      2015
 -1       647    8    0    1
 -2       249       402       401      2015      2016      2011
 -1       648    8    0    1
 -2       250       251       403      1558      2017      2018
 -1       649    8    0    1
 -2       250       403       402      2018      2019      2014
 -1       650    8    0    1
 -2       251       252       404      1561      2020      2021
 -1       651    8    0    1
 -2       251       404       403      2021      2022      2017
 -1       652    8    0    1
 -2       252       253       405      1564      2023      2024
 -1       653    8    0    1
 -2       252       405       404      2024      2025      2020
 -1       654    8    0    1
 -2       253       254       406      1567      2026      2027
 -1       655    8    0    1
 -2       253       406       405      2027      2028      2023
 -1       656    8    0    1
 -2       254       255       407      1570      2029      2030
 -1       657    8    0    1
 -2       254       407       406      2030      2031      2026
 -1       658    8    0    1
 -2       255       256       408      1573      2032      2033
 -1       659    8    0    1
 -2       255       408       407      2033      2034      2029
 -1       660    8    0    1
 -2       256       257       409      1576      2035      2036
 -1       661    8    0    1
 -2       256       409       408      2036      2037      2032
 -1       662    8    0    1
 -2       257       258       410      1579      2038      2039
 -1       663    8    0    1
 -2       257       410       409      2039      2040      2035
 -1       664    8    0    1
 -2       258       259       411      1582      2041      2042
 -1       665    8    0    1
 -2       258       411       410      2042      2043      2038
 -1       666    8    0    1
 -2       259       260       412      1585      2044      2045
 -1       667    8    0    1
 -2       259       412       411      2045      2046      2041
 -1       668    8    0    1
 -2       260       261       413      1588      2047      2048
 -1       669    8    0    1
 -2       260       413       412      2048      2049      2044
 -1       670    8    0    1
 -2       261       262       414      1591      2050      2051
 -1       671    8    0    1
 -2       261       414       413      2051      2052      2047
 -1       672    8    0    1
 -2       262       263       415      1594      2053      2054
 -1       673    8    0    1
 -2       262       415       414      2054      2055      2050
 -1       674    8    0    1
 -2       263       264       416      1597      2056      2057
 -1       675    8    0    1
 -2       263       416       415      2057      2058      2053
 -1       676    8    0    1
 -2       264       265       417      1600      2059      2060
 -1       677    8    0    1
 -2       264       417       416      2060      2061      2056
 -1       678    8    0    1
 -2       265       266       418      1603      2062      2063
 -1       679    8    0    1
 -2       265       418       417      2063      2064      2059
 -1       680    8    0    1
 -2       266       267       419      1606      2065      2066
 -1       681    8    0    1
 -2       266       419       418      2066      2067      2062
 -1       682    8    0    1
 -2       267       268       420      1609      2068      2069
 -1       683    8    0    1
 -2       267       420       419      2069      2070      2065
 -1       684    8    0    1
 -2       268       269       421      1612      2071      2072
 -1       685    8    0    1
 -2       268       421       420      2072      2073      2068
 -1       686    8    0    1
 -2       269       270       422      1615      2074      2075
 -1       687    8    0    1
 -2       269       422       421      2075      2076      2071
 -1       688    8    0    1
 -2       270       271       423      1618      2077      2078
 -1       689    8    0    1
 -2       270       423       422      2078      2079      2074
 -1       690    8    0    1
 -2       271       272       424      1621      2080      2081
 -1       691    8    0    1
 -2       271       424       423      2081      2082      2077
 -1       692    8    0    1
 -2       272       273       425      1624      2083      2084
 -1       693    8    0    1
 -2       272       425       424      2084      2085      2080
 -1       694    8    0    1
 -2       273       274       426      1627      2086      2087
 -1       695    8    0    1
 -2       273       426       425      2087      2088      2083
 -1       696    8    0    1
 -2       274       275       427      1630      2089      2090
 -1       697    8    0    1
 -2       274       427       426      2090      2091      2086
 -1       698    8    0    1
 -2       275       276       428      1633      2092      2093
 -1       699    8    0    1
 -2       427       275       428      2089      2093      2094
 -1       700    8    0    1
 -2       276       277       428      1743      2095      2092
 -1       701    8    0    1
 -2       279       280       429      1645      2096      2097
 -1       702    8    0    1
 -2       278       279       430      1642      2098      2099
 -1       703    8    0    1
 -2       279       429       430      2097      2100      2098
 -1       704    8    0    1
 -2       277       278       431      1639      2101      2102
 -1       705    8    0    1
 -2       428       277       431      2095      2102      2103
 -1       706    8    0    1
 -2       278       430       431      2099      2104      2101
 -1       707    8    0    1
 -2       280       281       432      1648      2105      2106
 -1       708    8    0    1
 -2       280       432       429      2106      2107      2096
 -1       709    8    0    1
 -2       281       282       433      1651      2108      2109
 -1       710    8    0    1
 -2       281       433       432      2109      2110      2105
 -1       711    8    0    1
 -2       282       283       434      1654      2111      2112
 -1       712    8    0    1
 -2       282       434       433      2112      2113      2108
 -1       713    8    0    1
 -2       283       284       435      1657      2114      2115
 -1       714    8    0    1
 -2       283       435       434      2115      2116      2111
 -1       715    8    0    1
 -2       284       285       436      1660      2117      2118
 -1       716    8    0    1
 -2       284       436       435      2118      2119      2114
 -1       717    8    0    1
 -2       285       286       437      1663      2120      2121
 -1       718    8    0    1
 -2       285       437       436      2121      2122      2117
 -1       719    8    0    1
 -2       286       287       438      1666      2123      2124
 -1       720    8    0    1
 -2       286       438       437      2124      2125      2120
 -1       721    8    0    1
 -2       287       288       439      1669      2126      2127
 -1       722    8    0    1
 -2       287       439       438      2127      2128      2123
 -1       723    8    0    1
 -2       288       289       440      1672      2129      2130
 -1       724    8    0    1
 -2       288       440       439      2130      2131      2126
 -1       725    8    0    1
 -2       289       290       441      1675      2132      2133
 -1       726    8    0    1
 -2       289       441       440      2133      2134      2129
 -1       727    8    0    1
 -2       293       294       442      1745      2135      2136
 -1       728    8    0    1
 -2       321       292       443      1746      2137      2138
 -1       729    8    0    1
 -2       292       293       444      1744      2139      2140
 -1       730    8    0    1
 -2       294       295       445      1741      2141      2142
 -1       731    8    0    1
 -2       295       296       446      1740      2143      2144
 -1       732    8    0    1
 -2       167       168       447      1307      2145      2146
 -1       733    8    0    1
 -2       322       167       447      1773      2146      2147
 -1       734    8    0    1
 -2       168       324       447      1779      2148      2145
 -1       735    8    0    1
 -2       297       298       448      1748      2149      2150
 -1       736    8    0    1
 -2       298       299       449      1749      2151      2152
 -1       737    8    0    1
 -2       299       300       450      1750      2153      2154
 -1       738    8    0    1
 -2       300       301       451      1751      2155      2156
 -1       739    8    0    1
 -2       301       302       452      1752      2157      2158
 -1       740    8    0    1
 -2       302       303       453      1753      2159      2160
 -1       741    8    0    1
 -2       303       304       454      1754      2161      2162
 -1       742    8    0    1
 -2       304       305       455      1755      2163      2164
 -1       743    8    0    1
 -2       305       306       456      1756      2165      2166
 -1       744    8    0    1
 -2       306       307       457      1757      2167      2168
 -1       745    8    0    1
 -2       306       457       456      2168      2169      2165
 -1       746    8    0    1
 -2       307       308       458      1758      2170      2171
 -1       747    8    0    1
 -2       308       309       459      1759      2172      2173
 -1       748    8    0    1
 -2       308       459       458      2173      2174      2170
 -1       749    8    0    1
 -2       309       310       460      1760      2175      2176
 -1       750    8    0    1
 -2       310       311       461      1761      2177      2178
 -1       751    8    0    1
 -2       311       312       462      1762      2179      2180
 -1       752    8    0    1
 -2       312       313       463      1763      2181      2182
 -1       753    8    0    1
 -2       313       314       464      1764      2183      2184
 -1       754    8    0    1
 -2       313       464       463      2184      2185      2181
 -1       755    8    0    1
 -2       314       315       465      1765      2186      2187
 -1       756    8    0    1
 -2       315       316       466      1766      2188      2189
 -1       757    8    0    1
 -2       316       317       467      1767      2190      2191
 -1       758    8    0    1
 -2       317       318       468      1768      2192      2193
 -1       759    8    0    1
 -2       318       319       469      1769      2194      2195
 -1       760    8    0    1
 -2       319       320       470      1770      2196      2197
 -1       761    8    0    1
 -2       319       470       469      2197      2198      2194
 -1       762    8    0    1
 -2       320       321       471      1771      2199      2200
 -1       763    8    0    1
 -2       321       443       471      2138      2201      2199
 -1       764    8    0    1
 -2       296       297       472      1747      2202      2203
 -1       765    8    0    1
 -2       445       295       446      2141      2144      2204
 -1       766    8    0    1
 -2       181       323       182      1818      2205      1349
 -1       767    8    0    1
 -2       446       296       472      2143      2203      2206
 -1       768    8    0    1
 -2       297       448       472      2150      2207      2202
 -1       769    8    0    1
 -2       337       182       323      1819      2205      2208
 -1       770    8    0    1
 -2       444       293       473      2139      2209      2210
 -1       771    8    0    1
 -2       293       442       473      2136      2211      2209
 -1       772    8    0    1
 -2       443       292       444      2137      2140      2212
 -1       773    8    0    1
 -2       441       290       291      2132      1678      2213
 -1       774    8    0    1
 -2       442       294       445      2135      2142      2214
 -1       775    8    0    1
 -2       470       320       474      2196      2215      2216
 -1       776    8    0    1
 -2       320       471       474      2200      2217      2215
 -1       777    8    0    1
 -2       468       318       469      2192      2195      2218
 -1       778    8    0    1
 -2       467       317       468      2190      2193      2219
 -1       779    8    0    1
 -2       466       316       467      2188      2191      2220
 -1       780    8    0    1
 -2       464       314       465      2183      2187      2221
 -1       781    8    0    1
 -2       462       312       475      2179      2222      2223
 -1       782    8    0    1
 -2       312       463       475      2182      2224      2222
 -1       783    8    0    1
 -2       461       311       462      2177      2180      2225
 -1       784    8    0    1
 -2       459       309       460      2172      2176      2226
 -1       785    8    0    1
 -2       457       307       476      2167      2227      2228
 -1       786    8    0    1
 -2       307       458       476      2171      2229      2227
 -1       787    8    0    1
 -2       455       305       456      2163      2166      2230
 -1       788    8    0    1
 -2       454       304       455      2161      2164      2231
 -1       789    8    0    1
 -2       453       303       454      2159      2162      2232
 -1       790    8    0    1
 -2       452       302       453      2157      2160      2233
 -1       791    8    0    1
 -2       451       301       452      2155      2158      2234
 -1       792    8    0    1
 -2       450       300       451      2153      2156      2235
 -1       793    8    0    1
 -2       448       298       449      2149      2152      2236
 -1       794    8    0    1
 -2       449       299       450      2151      2154      2237
 -1       795    8    0    1
 -2       460       310       461      2175      2178      2238
 -1       796    8    0    1
 -2       465       315       466      2186      2189      2239
 -1       797    8    0    1
 -2       336       383       477      1959      2240      2241
 -1       798    8    0    1
 -2       325       326       478      1785      2242      2243
 -1       799    8    0    1
 -2       324       325       479      1782      2244      2245
 -1       800    8    0    1
 -2       325       478       479      2243      2246      2244
 -1       801    8    0    1
 -2       327       328       480      1791      2247      2248
 -1       802    8    0    1
 -2       328       329       481      1794      2249      2250
 -1       803    8    0    1
 -2       328       481       480      2250      2251      2247
 -1       804    8    0    1
 -2       329       330       482      1797      2252      2253
 -1       805    8    0    1
 -2       329       482       481      2253      2254      2249
 -1       806    8    0    1
 -2       330       331       483      1800      2255      2256
 -1       807    8    0    1
 -2       330       483       482      2256      2257      2252
 -1       808    8    0    1
 -2       331       332       484      1803      2258      2259
 -1       809    8    0    1
 -2       331       484       483      2259      2260      2255
 -1       810    8    0    1
 -2       332       333       485      1806      2261      2262
 -1       811    8    0    1
 -2       332       485       484      2262      2263      2258
 -1       812    8    0    1
 -2       383       384       486      1962      2264      2265
 -1       813    8    0    1
 -2       383       486       477      2265      2266      2240
 -1       814    8    0    1
 -2       338       337       487      1823      2267      2268
 -1       815    8    0    1
 -2       446       472       488      2206      2269      2270
 -1       816    8    0    1
 -2       339       338       489      1826      2271      2272
 -1       817    8    0    1
 -2       338       487       489      2268      2273      2271
 -1       818    8    0    1
 -2       340       339       490      1829      2274      2275
 -1       819    8    0    1
 -2       339       489       490      2272      2276      2274
 -1       820    8    0    1
 -2       341       340       491      1832      2277      2278
 -1       821    8    0    1
 -2       340       490       491      2275      2279      2277
 -1       822    8    0    1
 -2       342       341       492      1835      2280      2281
 -1       823    8    0    1
 -2       341       491       492      2278      2282      2280
 -1       824    8    0    1
 -2       343       342       493      1838      2283      2284
 -1       825    8    0    1
 -2       342       492       493      2281      2285      2283
 -1       826    8    0    1
 -2       344       343       494      1841      2286      2287
 -1       827    8    0    1
 -2       343       493       494      2284      2288      2286
 -1       828    8    0    1
 -2       345       344       495      1844      2289      2290
 -1       829    8    0    1
 -2       344       494       495      2287      2291      2289
 -1       830    8    0    1
 -2       346       345       496      1847      2292      2293
 -1       831    8    0    1
 -2       345       495       496      2290      2294      2292
 -1       832    8    0    1
 -2       347       346       497      1850      2295      2296
 -1       833    8    0    1
 -2       346       496       497      2293      2297      2295
 -1       834    8    0    1
 -2       348       347       498      1853      2298      2299
 -1       835    8    0    1
 -2       347       497       498      2296      2300      2298
 -1       836    8    0    1
 -2       349       348       499      1856      2301      2302
 -1       837    8    0    1
 -2       348       498       499      2299      2303      2301
 -1       838    8    0    1
 -2       350       349       500      1859      2304      2305
 -1       839    8    0    1
 -2       349       499       500      2302      2306      2304
 -1       840    8    0    1
 -2       351       350       501      1862      2307      2308
 -1       841    8    0    1
 -2       350       500       501      2305      2309      2307
 -1       842    8    0    1
 -2       352       351       502      1865      2310      2311
 -1       843    8    0    1
 -2       351       501       502      2308      2312      2310
 -1       844    8    0    1
 -2       353       352       503      1868      2313      2314
 -1       845    8    0    1
 -2       352       502       503      2311      2315      2313
 -1       846    8    0    1
 -2       354       353       504      1871      2316      2317
 -1       847    8    0    1
 -2       353       503       504      2314      2318      2316
 -1       848    8    0    1
 -2       355       354       505      1874      2319      2320
 -1       849    8    0    1
 -2       354       504       505      2317      2321      2319
 -1       850    8    0    1
 -2       356       355       506      1877      2322      2323
 -1       851    8    0    1
 -2       355       505       506      2320      2324      2322
 -1       852    8    0    1
 -2       357       356       507      1880      2325      2326
 -1       853    8    0    1
 -2       356       506       507      2323      2327      2325
 -1       854    8    0    1
 -2       358       357       508      1883      2328      2329
 -1       855    8    0    1
 -2       357       507       508      2326      2330      2328
 -1       856    8    0    1
 -2       359       358       509      1886      2331      2332
 -1       857    8    0    1
 -2       358       508       509      2329      2333      2331
 -1       858    8    0    1
 -2       360       359       510      1889      2334      2335
 -1       859    8    0    1
 -2       359       509       510      2332      2336      2334
 -1       860    8    0    1
 -2       361       360       511      1892      2337      2338
 -1       861    8    0    1
 -2       360       510       511      2335      2339      2337
 -1       862    8    0    1
 -2       362       361       512      1895      2340      2341
 -1       863    8    0    1
 -2       361       511       512      2338      2342      2340
 -1       864    8    0    1
 -2       363       362       513      1898      2343      2344
 -1       865    8    0    1
 -2       362       512       513      2341      2345      2343
 -1       866    8    0    1
 -2       364       363       514      1901      2346      2347
 -1       867    8    0    1
 -2       363       513       514      2344      2348      2346
 -1       868    8    0    1
 -2       365       364       515      1904      2349      2350
 -1       869    8    0    1
 -2       364       514       515      2347      2351      2349
 -1       870    8    0    1
 -2       366       365       516      1907      2352      2353
 -1       871    8    0    1
 -2       365       515       516      2350      2354      2352
 -1       872    8    0    1
 -2       367       366       517      1910      2355      2356
 -1       873    8    0    1
 -2       366       516       517      2353      2357      2355
 -1       874    8    0    1
 -2       368       367       518      1913      2358      2359
 -1       875    8    0    1
 -2       367       517       518      2356      2360      2358
 -1       876    8    0    1
 -2       369       368       519      1916      2361      2362
 -1       877    8    0    1
 -2       368       518       519      2359      2363      2361
 -1       878    8    0    1
 -2       370       369       520      1919      2364      2365
 -1       879    8    0    1
 -2       369       519       520      2362      2366      2364
 -1       880    8    0    1
 -2       371       370       521      1922      2367      2368
 -1       881    8    0    1
 -2       370       520       521      2365      2369      2367
 -1       882    8    0    1
 -2       372       371       522      1925      2370      2371
 -1       883    8    0    1
 -2       371       521       522      2368      2372      2370
 -1       884    8    0    1
 -2       373       372       523      1928      2373      2374
 -1       885    8    0    1
 -2       372       522       523      2371      2375      2373
 -1       886    8    0    1
 -2       374       373       524      1931      2376      2377
 -1       887    8    0    1
 -2       373       523       524      2374      2378      2376
 -1       888    8    0    1
 -2       375       374       525      1934      2379      2380
 -1       889    8    0    1
 -2       374       524       525      2377      2381      2379
 -1       890    8    0    1
 -2       376       375       526      1937      2382      2383
 -1       891    8    0    1
 -2       375       525       526      2380      2384      2382
 -1       892    8    0    1
 -2       377       376       527      1940      2385      2386
 -1       893    8    0    1
 -2       376       526       527      2383      2387      2385
 -1       894    8    0    1
 -2       378       377       528      1943      2388      2389
 -1       895    8    0    1
 -2       377       527       528      2386      2390      2388
 -1       896    8    0    1
 -2       379       378       529      1946      2391      2392
 -1       897    8    0    1
 -2       378       528       529      2389      2393      2391
 -1       898    8    0    1
 -2       380       379       530      1949      2394      2395
 -1       899    8    0    1
 -2       379       529       530      2392      2396      2394
 -1       900    8    0    1
 -2       381       380       531      1952      2397      2398
 -1       901    8    0    1
 -2       380       530       531      2395      2399      2397
 -1       902    8    0    1
 -2       385       386       532      1968      2400      2401
 -1       903    8    0    1
 -2       386       387       533      1971      2402      2403
 -1       904    8    0    1
 -2       386       533       532      2403      2404      2400
 -1       905    8    0    1
 -2       387       388       534      1974      2405      2406
 -1       906    8    0    1
 -2       387       534       533      2406      2407      2402
 -1       907    8    0    1
 -2       388       389       535      1977      2408      2409
 -1       908    8    0    1
 -2       388       535       534      2409      2410      2405
 -1       909    8    0    1
 -2       389       390       536      1980      2411      2412
 -1       910    8    0    1
 -2       389       536       535      2412      2413      2408
 -1       911    8    0    1
 -2       390       391       537      1983      2414      2415
 -1       912    8    0    1
 -2       390       537       536      2415      2416      2411
 -1       913    8    0    1
 -2       391       392       538      1986      2417      2418
 -1       914    8    0    1
 -2       391       538       537      2418      2419      2414
 -1       915    8    0    1
 -2       392       393       539      1989      2420      2421
 -1       916    8    0    1
 -2       392       539       538      2421      2422      2417
 -1       917    8    0    1
 -2       393       394       540      1992      2423      2424
 -1       918    8    0    1
 -2       393       540       539      2424      2425      2420
 -1       919    8    0    1
 -2       394       395       541      1995      2426      2427
 -1       920    8    0    1
 -2       394       541       540      2427      2428      2423
 -1       921    8    0    1
 -2       395       396       542      1998      2429      2430
 -1       922    8    0    1
 -2       395       542       541      2430      2431      2426
 -1       923    8    0    1
 -2       396       397       543      2001      2432      2433
 -1       924    8    0    1
 -2       396       543       542      2433      2434      2429
 -1       925    8    0    1
 -2       397       398       544      2004      2435      2436
 -1       926    8    0    1
 -2       397       544       543      2436      2437      2432
 -1       927    8    0    1
 -2       398       399       545      2007      2438      2439
 -1       928    8    0    1
 -2       398       545       544      2439      2440      2435
 -1       929    8    0    1
 -2       399       400       546      2010      2441      2442
 -1       930    8    0    1
 -2       399       546       545      2442      2443      2438
 -1       931    8    0    1
 -2       400       401       547      2013      2444      2445
 -1       932    8    0    1
 -2       400       547       546      2445      2446      2441
 -1       933    8    0    1
 -2       401       402       548      2016      2447      2448
 -1       934    8    0    1
 -2       401       548       547      2448      2449      2444
 -1       935    8    0    1
 -2       402       403       549      2019      2450      2451
 -1       936    8    0    1
 -2       402       549       548      2451      2452      2447
 -1       937    8    0    1
 -2       403       404       550      2022      2453      2454
 -1       938    8    0    1
 -2       403       550       549      2454      2455      2450
 -1       939    8    0    1
 -2       404       405       551      2025      2456      2457
 -1       940    8    0    1
 -2       404       551       550      2457      2458      2453
 -1       941    8    0    1
 -2       405       406       552      2028      2459      2460
 -1       942    8    0    1
 -2       405       552       551      2460      2461      2456
 -1       943    8    0    1
 -2       406       407       553      2031      2462      2463
 -1       944    8    0    1
 -2       406       553       552      2463      2464      2459
 -1       945    8    0    1
 -2       407       408       554      2034      2465      2466
 -1       946    8    0    1
 -2       407       554       553      2466      2467      2462
 -1       947    8    0    1
 -2       408       409       555      2037      2468      2469
 -1       948    8    0    1
 -2       408       555       554      2469      2470      2465
 -1       949    8    0    1
 -2       409       410       556      2040      2471      2472
 -1       950    8    0    1
 -2       409       556       555      2472      2473      2468
 -1       951    8    0    1
 -2       410       411       557      2043      2474      2475
 -1       952    8    0    1
 -2       410       557       556      2475      2476      2471
 -1       953    8    0    1
 -2       411       412       558      2046      2477      2478
 -1       954    8    0    1
 -2       411       558       557      2478      2479      2474
 -1       955    8    0    1
 -2       412       413       559      2049      2480      2481
 -1       956    8    0    1
 -2       412       559       558      2481      2482      2477
 -1       957    8    0    1
 -2       413       414       560      2052      2483      2484
 -1       958    8    0    1
 -2       413       560       559      2484      2485      2480
 -1       959    8    0    1
 -2       414       415       561      2055      2486      2487
 -1       960    8    0    1
 -2       414       561       560      2487      2488      2483
 -1       961    8    0    1
 -2       415       416       562      2058      2489      2490
 -1       962    8    0    1
 -2       415       562       561      2490      2491      2486
 -1       963    8    0    1
 -2       416       417       563      2061      2492      2493
 -1       964    8    0    1
 -2       416       563       562      2493      2494      2489
 -1       965    8    0    1
 -2       417       418       564      2064      2495      2496
 -1       966    8    0    1
 -2       417       564       563      2496      2497      2492
 -1       967    8    0    1
 -2       418       419       565      2067      2498      2499
 -1       968    8    0    1
 -2       418       565       564      2499      2500      2495
 -1       969    8    0    1
 -2       419       420       566      2070      2501      2502
 -1       970    8    0    1
 -2       419       566       565      2502      2503      2498
 -1       971    8    0    1
 -2       420       421       567      2073      2504      2505
 -1       972    8    0    1
 -2       420       567       566      2505      2506      2501
 -1       973    8    0    1
 -2       421       422       568      2076      2507      2508
 -1       974    8    0    1
 -2       421       568       567      2508      2509      2504
 -1       975    8    0    1
 -2       422       423       569      2079      2510      2511
 -1       976    8    0    1
 -2       422       569       568      2511      2512      2507
 -1       977    8    0    1
 -2       423       424       570      2082      2513      2514
 -1       978    8    0    1
 -2       423       570       569      2514      2515      2510
 -1       979    8    0    1
 -2       424       425       571      2085      2516      2517
 -1       980    8    0    1
 -2       424       571       570      2517      2518      2513
 -1       981    8    0    1
 -2       425       426       572      2088      2519      2520
 -1       982    8    0    1
 -2       425       572       571      2520      2521      2516
 -1       983    8    0    1
 -2       426       427       573      2091      2522      2523
 -1       984    8    0    1
 -2       426       573       572      2523      2524      2519
 -1       985    8    0    1
 -2       427       428       431      2094      2103      2525
 -1       986    8    0    1
 -2       432       433       574      2110      2526      2527
 -1       987    8    0    1
 -2       433       434       575      2113      2528      2529
 -1       988    8    0    1
 -2       433       575       574      2529      2530      2526
 -1       989    8    0    1
 -2       430       429       576      2100      2531      2532
 -1       990    8    0    1
 -2       429       432       577      2107      2533      2534
 -1       991    8    0    1
 -2       576       429       577      2531      2534      2535
 -1       992    8    0    1
 -2       432       574       577      2527      2536      2533
 -1       993    8    0    1
 -2       434       435       578      2116      2537      2538
 -1       994    8    0    1
 -2       434       578       575      2538      2539      2528
 -1       995    8    0    1
 -2       435       436       579      2119      2540      2541
 -1       996    8    0    1
 -2       435       579       578      2541      2542      2537
 -1       997    8    0    1
 -2       436       437       580      2122      2543      2544
 -1       998    8    0    1
 -2       436       580       579      2544      2545      2540
 -1       999    8    0    1
 -2       437       438       581      2125      2546      2547
 -1      1000    8    0    1
 -2       437       581       580      2547      2548      2543
 -1      1001    8    0    1
 -2       438       439       582      2128      2549      2550
 -1      1002    8    0    1
 -2       438       582       581      2550      2551      2546
 -1      1003    8    0    1
 -2       439       440       583      2131      2552      2553
 -1      1004    8    0    1
 -2       439       583       582      2553      2554      2549
 -1      1005    8    0    1
 -2       440       441       584      2134      2555      2556
 -1      1006    8    0    1
 -2       440       584       583      2556      2557      2552
 -1      1007    8    0    1
 -2       443       444       585      2212      2558      2559
 -1      1008    8    0    1
 -2       442       445       586      2214      2560      2561
 -1      1009    8    0    1
 -2       384       385       587      1965      2562      2563
 -1      1010    8    0    1
 -2       385       532       587      2401      2564      2562
 -1      1011    8    0    1
 -2       472       448       588      2207      2565      2566
 -1      1012    8    0    1
 -2       472       588       488      2566      2567      2269
 -1      1013    8    0    1
 -2       441       291       382      2213      1955      2568
 -1      1014    8    0    1
 -2       468       469       589      2218      2569      2570
 -1      1015    8    0    1
 -2       455       456       590      2230      2571      2572
 -1      1016    8    0    1
 -2       326       327       591      1788      2573      2574
 -1      1017    8    0    1
 -2       478       326       591      2242      2574      2575
 -1      1018    8    0    1
 -2       327       480       591      2248      2576      2573
 -1      1019    8    0    1
 -2       449       450       592      2237      2577      2578
 -1      1020    8    0    1
 -2       460       461       593      2238      2579      2580
 -1      1021    8    0    1
 -2       448       449       594      2236      2581      2582
 -1      1022    8    0    1
 -2       449       592       594      2578      2583      2581
 -1      1023    8    0    1
 -2       450       451       595      2235      2584      2585
 -1      1024    8    0    1
 -2       451       452       596      2234      2586      2587
 -1      1025    8    0    1
 -2       452       453       597      2233      2588      2589
 -1      1026    8    0    1
 -2       453       454       598      2232      2590      2591
 -1      1027    8    0    1
 -2       454       455       599      2231      2592      2593
 -1      1028    8    0    1
 -2       455       590       599      2572      2594      2592
 -1      1029    8    0    1
 -2       456       457       600      2169      2595      2596
 -1      1030    8    0    1
 -2       458       459       601      2174      2597      2598
 -1      1031    8    0    1
 -2       465       466       602      2239      2599      2600
 -1      1032    8    0    1
 -2       459       460       603      2226      2601      2602
 -1      1033    8    0    1
 -2       461       462       604      2225      2603      2604
 -1      1034    8    0    1
 -2       463       464       605      2185      2605      2606
 -1      1035    8    0    1
 -2       464       465       606      2221      2607      2608
 -1      1036    8    0    1
 -2       466       467       607      2220      2609      2610
 -1      1037    8    0    1
 -2       467       468       608      2219      2611      2612
 -1      1038    8    0    1
 -2       469       470       609      2198      2613      2614
 -1      1039    8    0    1
 -2       471       443       610      2201      2615      2616
 -1      1040    8    0    1
 -2       443       585       610      2559      2617      2615
 -1      1041    8    0    1
 -2       337       323       611      2208      2618      2619
 -1      1042    8    0    1
 -2       487       337       611      2267      2619      2620
 -1      1043    8    0    1
 -2       323       322       611      1777      2621      2618
 -1      1044    8    0    1
 -2       335       336       612      1817      2622      2623
 -1      1045    8    0    1
 -2       334       335       612      1812      2623      2624
 -1      1046    8    0    1
 -2       336       477       612      2241      2625      2622
 -1      1047    8    0    1
 -2       445       446       613      2204      2626      2627
 -1      1048    8    0    1
 -2       450       595       592      2585      2628      2577
 -1      1049    8    0    1
 -2       324       479       614      2245      2629      2630
 -1      1050    8    0    1
 -2       324       614       447      2630      2631      2148
 -1      1051    8    0    1
 -2       486       384       587      2264      2563      2632
 -1      1052    8    0    1
 -2       333       334       612      1809      2624      2633
 -1      1053    8    0    1
 -2       613       446       488      2626      2270      2634
 -1      1054    8    0    1
 -2       609       470       474      2613      2216      2635
 -1      1055    8    0    1
 -2       608       468       589      2611      2570      2636
 -1      1056    8    0    1
 -2       607       467       608      2609      2612      2637
 -1      1057    8    0    1
 -2       606       465       602      2607      2600      2638
 -1      1058    8    0    1
 -2       473       442       615      2211      2639      2640
 -1      1059    8    0    1
 -2       442       586       615      2561      2641      2639
 -1      1060    8    0    1
 -2       605       464       606      2605      2608      2642
 -1      1061    8    0    1
 -2       427       431       573      2525      2643      2522
 -1      1062    8    0    1
 -2       586       445       613      2560      2627      2644
 -1      1063    8    0    1
 -2       431       430       573      2104      2645      2643
 -1      1064    8    0    1
 -2       604       462       616      2603      2646      2647
 -1      1065    8    0    1
 -2       462       475       616      2223      2648      2646
 -1      1066    8    0    1
 -2       585       444       617      2558      2649      2650
 -1      1067    8    0    1
 -2       444       473       617      2210      2651      2649
 -1      1068    8    0    1
 -2       603       460       593      2601      2580      2652
 -1      1069    8    0    1
 -2       474       471       610      2217      2616      2653
 -1      1070    8    0    1
 -2       333       612       485      2633      2654      2261
 -1      1071    8    0    1
 -2       588       448       594      2565      2582      2655
 -1      1072    8    0    1
 -2       590       456       600      2571      2596      2656
 -1      1073    8    0    1
 -2       589       469       609      2569      2614      2657
 -1      1074    8    0    1
 -2       602       466       607      2599      2610      2658
 -1      1075    8    0    1
 -2       601       459       603      2597      2602      2659
 -1      1076    8    0    1
 -2       598       454       599      2590      2593      2660
 -1      1077    8    0    1
 -2       475       463       618      2224      2661      2662
 -1      1078    8    0    1
 -2       463       605       618      2606      2663      2661
 -1      1079    8    0    1
 -2       597       453       598      2588      2591      2664
 -1      1080    8    0    1
 -2       596       452       597      2586      2589      2665
 -1      1081    8    0    1
 -2       476       458       601      2229      2598      2666
 -1      1082    8    0    1
 -2       441       382       619      2568      2667      2668
 -1      1083    8    0    1
 -2       584       441       619      2555      2668      2669
 -1      1084    8    0    1
 -2       382       381       619      1956      2670      2667
 -1      1085    8    0    1
 -2       593       461       604      2579      2604      2671
 -1      1086    8    0    1
 -2       322       447       620      2147      2672      2673
 -1      1087    8    0    1
 -2       611       322       620      2621      2673      2674
 -1      1088    8    0    1
 -2       447       614       620      2631      2675      2672
 -1      1089    8    0    1
 -2       595       451       596      2584      2587      2676
 -1      1090    8    0    1
 -2       600       457       621      2595      2677      2678
 -1      1091    8    0    1
 -2       457       476       621      2228      2679      2677
 -1      1092    8    0    1
 -2       573       430       576      2645      2532      2680
 -1      1093    8    0    1
 -2       619       381       531      2670      2398      2681
 -1      1094    8    0    1
 -2       481       482       622      2254      2682      2683
 -1      1095    8    0    1
 -2       480       481       623      2251      2684      2685
 -1      1096    8    0    1
 -2       481       622       623      2683      2686      2684
 -1      1097    8    0    1
 -2       483       484       624      2260      2687      2688
 -1      1098    8    0    1
 -2       484       485       625      2263      2689      2690
 -1      1099    8    0    1
 -2       484       625       624      2690      2691      2687
 -1      1100    8    0    1
 -2       477       486       626      2266      2692      2693
 -1      1101    8    0    1
 -2       588       594       627      2655      2694      2695
 -1      1102    8    0    1
 -2       612       477       485      2625      2696      2654
 -1      1103    8    0    1
 -2       609       474       628      2635      2697      2698
 -1      1104    8    0    1
 -2       607       608       629      2637      2699      2700
 -1      1105    8    0    1
 -2       490       489       630      2276      2701      2702
 -1      1106    8    0    1
 -2       491       490       631      2279      2703      2704
 -1      1107    8    0    1
 -2       490       630       631      2702      2705      2703
 -1      1108    8    0    1
 -2       492       491       632      2282      2706      2707
 -1      1109    8    0    1
 -2       491       631       632      2704      2708      2706
 -1      1110    8    0    1
 -2       493       492       633      2285      2709      2710
 -1      1111    8    0    1
 -2       492       632       633      2707      2711      2709
 -1      1112    8    0    1
 -2       494       493       634      2288      2712      2713
 -1      1113    8    0    1
 -2       493       633       634      2710      2714      2712
 -1      1114    8    0    1
 -2       495       494       635      2291      2715      2716
 -1      1115    8    0    1
 -2       494       634       635      2713      2717      2715
 -1      1116    8    0    1
 -2       496       495       636      2294      2718      2719
 -1      1117    8    0    1
 -2       495       635       636      2716      2720      2718
 -1      1118    8    0    1
 -2       497       496       637      2297      2721      2722
 -1      1119    8    0    1
 -2       496       636       637      2719      2723      2721
 -1      1120    8    0    1
 -2       498       497       638      2300      2724      2725
 -1      1121    8    0    1
 -2       497       637       638      2722      2726      2724
 -1      1122    8    0    1
 -2       499       498       639      2303      2727      2728
 -1      1123    8    0    1
 -2       498       638       639      2725      2729      2727
 -1      1124    8    0    1
 -2       500       499       640      2306      2730      2731
 -1      1125    8    0    1
 -2       499       639       640      2728      2732      2730
 -1      1126    8    0    1
 -2       501       500       641      2309      2733      2734
 -1      1127    8    0    1
 -2       500       640       641      2731      2735      2733
 -1      1128    8    0    1
 -2       502       501       642      2312      2736      2737
 -1      1129    8    0    1
 -2       501       641       642      2734      2738      2736
 -1      1130    8    0    1
 -2       503       502       643      2315      2739      2740
 -1      1131    8    0    1
 -2       502       642       643      2737      2741      2739
 -1      1132    8    0    1
 -2       504       503       644      2318      2742      2743
 -1      1133    8    0    1
 -2       503       643       644      2740      2744      2742
 -1      1134    8    0    1
 -2       505       504       645      2321      2745      2746
 -1      1135    8    0    1
 -2       504       644       645      2743      2747      2745
 -1      1136    8    0    1
 -2       506       505       646      2324      2748      2749
 -1      1137    8    0    1
 -2       505       645       646      2746      2750      2748
 -1      1138    8    0    1
 -2       507       506       647      2327      2751      2752
 -1      1139    8    0    1
 -2       506       646       647      2749      2753      2751
 -1      1140    8    0    1
 -2       508       507       648      2330      2754      2755
 -1      1141    8    0    1
 -2       507       647       648      2752      2756      2754
 -1      1142    8    0    1
 -2       509       508       649      2333      2757      2758
 -1      1143    8    0    1
 -2       508       648       649      2755      2759      2757
 -1      1144    8    0    1
 -2       510       509       650      2336      2760      2761
 -1      1145    8    0    1
 -2       509       649       650      2758      2762      2760
 -1      1146    8    0    1
 -2       511       510       651      2339      2763      2764
 -1      1147    8    0    1
 -2       510       650       651      2761      2765      2763
 -1      1148    8    0    1
 -2       512       511       652      2342      2766      2767
 -1      1149    8    0    1
 -2       511       651       652      2764      2768      2766
 -1      1150    8    0    1
 -2       513       512       653      2345      2769      2770
 -1      1151    8    0    1
 -2       512       652       653      2767      2771      2769
 -1      1152    8    0    1
 -2       514       513       654      2348      2772      2773
 -1      1153    8    0    1
 -2       513       653       654      2770      2774      2772
 -1      1154    8    0    1
 -2       515       514       655      2351      2775      2776
 -1      1155    8    0    1
 -2       514       654       655      2773      2777      2775
 -1      1156    8    0    1
 -2       516       515       656      2354      2778      2779
 -1      1157    8    0    1
 -2       515       655       656      2776      2780      2778
 -1      1158    8    0    1
 -2       517       516       657      2357      2781      2782
 -1      1159    8    0    1
 -2       516       656       657      2779      2783      2781
 -1      1160    8    0    1
 -2       518       517       658      2360      2784      2785
 -1      1161    8    0    1
 -2       517       657       658      2782      2786      2784
 -1      1162    8    0    1
 -2       519       518       659      2363      2787      2788
 -1      1163    8    0    1
 -2       518       658       659      2785      2789      2787
 -1      1164    8    0    1
 -2       520       519       660      2366      2790      2791
 -1      1165    8    0    1
 -2       519       659       660      2788      2792      2790
 -1      1166    8    0    1
 -2       521       520       661      2369      2793      2794
 -1      1167    8    0    1
 -2       520       660       661      2791      2795      2793
 -1      1168    8    0    1
 -2       522       521       662      2372      2796      2797
 -1      1169    8    0    1
 -2       521       661       662      2794      2798      2796
 -1      1170    8    0    1
 -2       523       522       663      2375      2799      2800
 -1      1171    8    0    1
 -2       522       662       663      2797      2801      2799
 -1      1172    8    0    1
 -2       524       523       664      2378      2802      2803
 -1      1173    8    0    1
 -2       523       663       664      2800      2804      2802
 -1      1174    8    0    1
 -2       525       524       665      2381      2805      2806
 -1      1175    8    0    1
 -2       524       664       665      2803      2807      2805
 -1      1176    8    0    1
 -2       526       525       666      2384      2808      2809
 -1      1177    8    0    1
 -2       525       665       666      2806      2810      2808
 -1      1178    8    0    1
 -2       527       526       667      2387      2811      2812
 -1      1179    8    0    1
 -2       526       666       667      2809      2813      2811
 -1      1180    8    0    1
 -2       528       527       668      2390      2814      2815
 -1      1181    8    0    1
 -2       527       667       668      2812      2816      2814
 -1      1182    8    0    1
 -2       529       528       669      2393      2817      2818
 -1      1183    8    0    1
 -2       528       668       669      2815      2819      2817
 -1      1184    8    0    1
 -2       530       529       670      2396      2820      2821
 -1      1185    8    0    1
 -2       529       669       670      2818      2822      2820
 -1      1186    8    0    1
 -2       531       530       671      2399      2823      2824
 -1      1187    8    0    1
 -2       530       670       671      2821      2825      2823
 -1      1188    8    0    1
 -2       533       534       672      2407      2826      2827
 -1      1189    8    0    1
 -2       593       604       673      2671      2828      2829
 -1      1190    8    0    1
 -2       532       533       674      2404      2830      2831
 -1      1191    8    0    1
 -2       533       672       674      2827      2832      2830
 -1      1192    8    0    1
 -2       535       536       675      2413      2833      2834
 -1      1193    8    0    1
 -2       536       537       676      2416      2835      2836
 -1      1194    8    0    1
 -2       536       676       675      2836      2837      2833
 -1      1195    8    0    1
 -2       537       538       677      2419      2838      2839
 -1      1196    8    0    1
 -2       537       677       676      2839      2840      2835
 -1      1197    8    0    1
 -2       538       539       678      2422      2841      2842
 -1      1198    8    0    1
 -2       538       678       677      2842      2843      2838
 -1      1199    8    0    1
 -2       539       540       679      2425      2844      2845
 -1      1200    8    0    1
 -2       539       679       678      2845      2846      2841
 -1      1201    8    0    1
 -2       540       541       680      2428      2847      2848
 -1      1202    8    0    1
 -2       540       680       679      2848      2849      2844
 -1      1203    8    0    1
 -2       541       542       681      2431      2850      2851
 -1      1204    8    0    1
 -2       541       681       680      2851      2852      2847
 -1      1205    8    0    1
 -2       543       544       682      2437      2853      2854
 -1      1206    8    0    1
 -2       544       545       592      2440      2855      2856
 -1      1207    8    0    1
 -2       545       546       627      2443      2857      2858
 -1      1208    8    0    1
 -2       547       548       683      2449      2859      2860
 -1      1209    8    0    1
 -2       548       549       684      2452      2861      2862
 -1      1210    8    0    1
 -2       548       684       683      2862      2863      2859
 -1      1211    8    0    1
 -2       549       550       685      2455      2864      2865
 -1      1212    8    0    1
 -2       549       685       684      2865      2866      2861
 -1      1213    8    0    1
 -2       550       551       686      2458      2867      2868
 -1      1214    8    0    1
 -2       550       686       685      2868      2869      2864
 -1      1215    8    0    1
 -2       551       552       687      2461      2870      2871
 -1      1216    8    0    1
 -2       551       687       686      2871      2872      2867
 -1      1217    8    0    1
 -2       552       553       688      2464      2873      2874
 -1      1218    8    0    1
 -2       552       688       687      2874      2875      2870
 -1      1219    8    0    1
 -2       553       554       689      2467      2876      2877
 -1      1220    8    0    1
 -2       553       689       688      2877      2878      2873
 -1      1221    8    0    1
 -2       554       555       690      2470      2879      2880
 -1      1222    8    0    1
 -2       554       690       689      2880      2881      2876
 -1      1223    8    0    1
 -2       555       556       691      2473      2882      2883
 -1      1224    8    0    1
 -2       555       691       690      2883      2884      2879
 -1      1225    8    0    1
 -2       556       557       692      2476      2885      2886
 -1      1226    8    0    1
 -2       556       692       691      2886      2887      2882
 -1      1227    8    0    1
 -2       557       558       693      2479      2888      2889
 -1      1228    8    0    1
 -2       557       693       692      2889      2890      2885
 -1      1229    8    0    1
 -2       558       559       694      2482      2891      2892
 -1      1230    8    0    1
 -2       558       694       693      2892      2893      2888
 -1      1231    8    0    1
 -2       559       560       695      2485      2894      2895
 -1      1232    8    0    1
 -2       559       695       694      2895      2896      2891
 -1      1233    8    0    1
 -2       560       561       696      2488      2897      2898
 -1      1234    8    0    1
 -2       560       696       695      2898      2899      2894
 -1      1235    8    0    1
 -2       561       562       697      2491      2900      2901
 -1      1236    8    0    1
 -2       561       697       696      2901      2902      2897
 -1      1237    8    0    1
 -2       562       563       698      2494      2903      2904
 -1      1238    8    0    1
 -2       562       698       697      2904      2905      2900
 -1      1239    8    0    1
 -2       563       564       699      2497      2906      2907
 -1      1240    8    0    1
 -2       563       699       698      2907      2908      2903
 -1      1241    8    0    1
 -2       564       565       700      2500      2909      2910
 -1      1242    8    0    1
 -2       564       700       699      2910      2911      2906
 -1      1243    8    0    1
 -2       565       566       701      2503      2912      2913
 -1      1244    8    0    1
 -2       565       701       700      2913      2914      2909
 -1      1245    8    0    1
 -2       566       567       702      2506      2915      2916
 -1      1246    8    0    1
 -2       566       702       701      2916      2917      2912
 -1      1247    8    0    1
 -2       567       568       703      2509      2918      2919
 -1      1248    8    0    1
 -2       567       703       702      2919      2920      2915
 -1      1249    8    0    1
 -2       568       569       704      2512      2921      2922
 -1      1250    8    0    1
 -2       568       704       703      2922      2923      2918
 -1      1251    8    0    1
 -2       569       570       705      2515      2924      2925
 -1      1252    8    0    1
 -2       569       705       704      2925      2926      2921
 -1      1253    8    0    1
 -2       570       571       706      2518      2927      2928
 -1      1254    8    0    1
 -2       570       706       705      2928      2929      2924
 -1      1255    8    0    1
 -2       571       572       707      2521      2930      2931
 -1      1256    8    0    1
 -2       571       707       706      2931      2932      2927
 -1      1257    8    0    1
 -2       572       573       708      2524      2933      2934
 -1      1258    8    0    1
 -2       707       572       708      2930      2934      2935
 -1      1259    8    0    1
 -2       573       576       708      2680      2936      2933
 -1      1260    8    0    1
 -2       586       613       709      2644      2937      2938
 -1      1261    8    0    1
 -2       578       579       710      2542      2939      2940
 -1      1262    8    0    1
 -2       619       531       711      2681      2941      2942
 -1      1263    8    0    1
 -2       531       671       711      2824      2943      2941
 -1      1264    8    0    1
 -2       574       575       712      2530      2944      2945
 -1      1265    8    0    1
 -2       579       580       713      2545      2946      2947
 -1      1266    8    0    1
 -2       579       713       710      2947      2948      2939
 -1      1267    8    0    1
 -2       575       578       714      2539      2949      2950
 -1      1268    8    0    1
 -2       712       575       714      2944      2950      2951
 -1      1269    8    0    1
 -2       578       710       714      2940      2952      2949
 -1      1270    8    0    1
 -2       580       581       715      2548      2953      2954
 -1      1271    8    0    1
 -2       580       715       713      2954      2955      2946
 -1      1272    8    0    1
 -2       581       582       716      2551      2956      2957
 -1      1273    8    0    1
 -2       581       716       715      2957      2958      2953
 -1      1274    8    0    1
 -2       582       583       717      2554      2959      2960
 -1      1275    8    0    1
 -2       582       717       716      2960      2961      2956
 -1      1276    8    0    1
 -2       487       611       718      2620      2962      2963
 -1      1277    8    0    1
 -2       611       620       718      2674      2964      2962
 -1      1278    8    0    1
 -2       605       606       719      2642      2965      2966
 -1      1279    8    0    1
 -2       608       589       720      2636      2967      2968
 -1      1280    8    0    1
 -2       608       720       629      2968      2969      2699
 -1      1281    8    0    1
 -2       603       593       721      2652      2970      2971
 -1      1282    8    0    1
 -2       610       585       722      2617      2972      2973
 -1      1283    8    0    1
 -2       589       609       723      2657      2974      2975
 -1      1284    8    0    1
 -2       599       590       724      2594      2976      2977
 -1      1285    8    0    1
 -2       587       532       725      2564      2978      2979
 -1      1286    8    0    1
 -2       532       674       725      2831      2980      2978
 -1      1287    8    0    1
 -2       534       535       726      2410      2981      2982
 -1      1288    8    0    1
 -2       672       534       726      2826      2982      2983
 -1      1289    8    0    1
 -2       535       675       726      2834      2984      2981
 -1      1290    8    0    1
 -2       489       487       727      2273      2985      2986
 -1      1291    8    0    1
 -2       630       489       727      2701      2986      2987
 -1      1292    8    0    1
 -2       487       718       727      2963      2988      2985
 -1      1293    8    0    1
 -2       486       587       728      2632      2989      2990
 -1      1294    8    0    1
 -2       626       486       728      2692      2990      2991
 -1      1295    8    0    1
 -2       587       725       728      2979      2992      2989
 -1      1296    8    0    1
 -2       613       488       729      2634      2993      2994
 -1      1297    8    0    1
 -2       482       483       730      2257      2995      2996
 -1      1298    8    0    1
 -2       622       482       730      2682      2996      2997
 -1      1299    8    0    1
 -2       483       624       730      2688      2998      2995
 -1      1300    8    0    1
 -2       479       478       731      2246      2999      3000
 -1      1301    8    0    1
 -2       474       610       732      2653      3001      3002
 -1      1302    8    0    1
 -2       474       732       628      3002      3003      2697
 -1      1303    8    0    1
 -2       590       600       733      2656      3004      3005
 -1      1304    8    0    1
 -2       590       733       724      3005      3006      2976
 -1      1305    8    0    1
 -2       476       601       734      2666      3007      3008
 -1      1306    8    0    1
 -2       596       597       735      2665      3009      3010
 -1      1307    8    0    1
 -2       584       619       711      2669      2942      3011
 -1      1308    8    0    1
 -2       595       596       736      2676      3012      3013
 -1      1309    8    0    1
 -2       598       599       737      2660      3014      3015
 -1      1310    8    0    1
 -2       599       724       737      2977      3016      3014
 -1      1311    8    0    1
 -2       597       598       738      2664      3017      3018
 -1      1312    8    0    1
 -2       488       588       739      2567      3019      3020
 -1      1313    8    0    1
 -2       601       603       740      2659      3021      3022
 -1      1314    8    0    1
 -2       606       602       741      2638      3023      3024
 -1      1315    8    0    1
 -2       602       607       742      2658      3025      3026
 -1      1316    8    0    1
 -2       602       742       741      3026      3027      3023
 -1      1317    8    0    1
 -2       614       479       743      2629      3028      3029
 -1      1318    8    0    1
 -2       479       731       743      3000      3030      3028
 -1      1319    8    0    1
 -2       480       623       744      2685      3031      3032
 -1      1320    8    0    1
 -2       480       744       591      3032      3033      2576
 -1      1321    8    0    1
 -2       729       488       739      2993      3020      3034
 -1      1322    8    0    1
 -2       588       627       739      2695      3035      3019
 -1      1323    8    0    1
 -2       485       477       626      2696      2693      3036
 -1      1324    8    0    1
 -2       742       607       629      3025      2700      3037
 -1      1325    8    0    1
 -2       615       586       745      2641      3038      3039
 -1      1326    8    0    1
 -2       586       709       745      2938      3040      3038
 -1      1327    8    0    1
 -2       574       712       746      2945      3041      3042
 -1      1328    8    0    1
 -2       574       746       577      3042      3043      2536
 -1      1329    8    0    1
 -2       593       673       721      2829      3044      2970
 -1      1330    8    0    1
 -2       740       603       721      3021      2971      3045
 -1      1331    8    0    1
 -2       681       542       736      2850      3046      3047
 -1      1332    8    0    1
 -2       542       543       736      2434      3048      3046
 -1      1333    8    0    1
 -2       544       592       682      2856      3049      2853
 -1      1334    8    0    1
 -2       546       547       747      2446      3050      3051
 -1      1335    8    0    1
 -2       709       613       729      2937      2994      3052
 -1      1336    8    0    1
 -2       485       626       625      3036      3053      2689
 -1      1337    8    0    1
 -2       595       736       682      3013      3054      3055
 -1      1338    8    0    1
 -2       576       577       748      2535      3056      3057
 -1      1339    8    0    1
 -2       708       576       748      2936      3057      3058
 -1      1340    8    0    1
 -2       577       746       748      3043      3059      3056
 -1      1341    8    0    1
 -2       720       589       723      2967      2975      3060
 -1      1342    8    0    1
 -2       616       475       749      2648      3061      3062
 -1      1343    8    0    1
 -2       475       618       749      2662      3063      3061
 -1      1344    8    0    1
 -2       617       473       750      2651      3064      3065
 -1      1345    8    0    1
 -2       473       615       750      2640      3066      3064
 -1      1346    8    0    1
 -2       583       584       711      2557      3011      3067
 -1      1347    8    0    1
 -2       719       606       741      2965      3024      3068
 -1      1348    8    0    1
 -2       476       734       621      3008      3069      2679
 -1      1349    8    0    1
 -2       723       609       628      2974      2698      3070
 -1      1350    8    0    1
 -2       722       585       751      2972      3071      3072
 -1      1351    8    0    1
 -2       585       617       751      2650      3073      3071
 -1      1352    8    0    1
 -2       610       722       732      2973      3074      3001
 -1      1353    8    0    1
 -2       597       738       735      3018      3075      3009
 -1      1354    8    0    1
 -2       618       605       719      2663      2966      3076
 -1      1355    8    0    1
 -2       673       604       752      2828      3077      3078
 -1      1356    8    0    1
 -2       604       616       752      2647      3079      3077
 -1      1357    8    0    1
 -2       478       591       753      2575      3080      3081
 -1      1358    8    0    1
 -2       731       478       753      2999      3081      3082
 -1      1359    8    0    1
 -2       591       744       753      3033      3083      3080
 -1      1360    8    0    1
 -2       733       600       754      3004      3084      3085
 -1      1361    8    0    1
 -2       600       621       754      2678      3086      3084
 -1      1362    8    0    1
 -2       734       601       755      3007      3087      3088
 -1      1363    8    0    1
 -2       601       740       755      3022      3089      3087
 -1      1364    8    0    1
 -2       596       735       736      3010      3090      3012
 -1      1365    8    0    1
 -2       595       682       592      3055      3049      2628
 -1      1366    8    0    1
 -2       583       711       756      3067      3091      3092
 -1      1367    8    0    1
 -2       717       583       756      2959      3092      3093
 -1      1368    8    0    1
 -2       711       671       756      2943      3094      3091
 -1      1369    8    0    1
 -2       598       737       738      3015      3095      3017
 -1      1370    8    0    1
 -2       736       543       682      3048      2854      3054
 -1      1371    8    0    1
 -2       747       547       683      3050      2860      3096
 -1      1372    8    0    1
 -2       742       629       757      3037      3097      3098
 -1      1373    8    0    1
 -2       624       625       758      2691      3099      3100
 -1      1374    8    0    1
 -2       724       733       759      3006      3101      3102
 -1      1375    8    0    1
 -2       632       631       760      2708      3103      3104
 -1      1376    8    0    1
 -2       633       632       761      2711      3105      3106
 -1      1377    8    0    1
 -2       632       760       761      3104      3107      3105
 -1      1378    8    0    1
 -2       634       633       762      2714      3108      3109
 -1      1379    8    0    1
 -2       633       761       762      3106      3110      3108
 -1      1380    8    0    1
 -2       635       634       763      2717      3111      3112
 -1      1381    8    0    1
 -2       634       762       763      3109      3113      3111
 -1      1382    8    0    1
 -2       636       635       764      2720      3114      3115
 -1      1383    8    0    1
 -2       635       763       764      3112      3116      3114
 -1      1384    8    0    1
 -2       637       636       765      2723      3117      3118
 -1      1385    8    0    1
 -2       636       764       765      3115      3119      3117
 -1      1386    8    0    1
 -2       638       637       766      2726      3120      3121
 -1      1387    8    0    1
 -2       637       765       766      3118      3122      3120
 -1      1388    8    0    1
 -2       639       638       767      2729      3123      3124
 -1      1389    8    0    1
 -2       638       766       767      3121      3125      3123
 -1      1390    8    0    1
 -2       640       639       768      2732      3126      3127
 -1      1391    8    0    1
 -2       639       767       768      3124      3128      3126
 -1      1392    8    0    1
 -2       641       640       769      2735      3129      3130
 -1      1393    8    0    1
 -2       640       768       769      3127      3131      3129
 -1      1394    8    0    1
 -2       642       641       749      2738      3132      3133
 -1      1395    8    0    1
 -2       643       642       749      2741      3133      3134
 -1      1396    8    0    1
 -2       644       643       719      2744      3135      3136
 -1      1397    8    0    1
 -2       645       644       741      2747      3137      3138
 -1      1398    8    0    1
 -2       646       645       757      2750      3139      3140
 -1      1399    8    0    1
 -2       647       646       770      2753      3141      3142
 -1      1400    8    0    1
 -2       646       757       770      3140      3143      3141
 -1      1401    8    0    1
 -2       648       647       771      2756      3144      3145
 -1      1402    8    0    1
 -2       647       770       771      3142      3146      3144
 -1      1403    8    0    1
 -2       649       648       772      2759      3147      3148
 -1      1404    8    0    1
 -2       648       771       772      3145      3149      3147
 -1      1405    8    0    1
 -2       650       649       773      2762      3150      3151
 -1      1406    8    0    1
 -2       649       772       773      3148      3152      3150
 -1      1407    8    0    1
 -2       651       650       774      2765      3153      3154
 -1      1408    8    0    1
 -2       650       773       774      3151      3155      3153
 -1      1409    8    0    1
 -2       652       651       775      2768      3156      3157
 -1      1410    8    0    1
 -2       651       774       775      3154      3158      3156
 -1      1411    8    0    1
 -2       653       652       776      2771      3159      3160
 -1      1412    8    0    1
 -2       652       775       776      3157      3161      3159
 -1      1413    8    0    1
 -2       654       653       777      2774      3162      3163
 -1      1414    8    0    1
 -2       653       776       777      3160      3164      3162
 -1      1415    8    0    1
 -2       655       654       778      2777      3165      3166
 -1      1416    8    0    1
 -2       654       777       778      3163      3167      3165
 -1      1417    8    0    1
 -2       656       655       779      2780      3168      3169
 -1      1418    8    0    1
 -2       655       778       779      3166      3170      3168
 -1      1419    8    0    1
 -2       657       656       780      2783      3171      3172
 -1      1420    8    0    1
 -2       656       779       780      3169      3173      3171
 -1      1421    8    0    1
 -2       658       657       781      2786      3174      3175
 -1      1422    8    0    1
 -2       657       780       781      3172      3176      3174
 -1      1423    8    0    1
 -2       659       658       782      2789      3177      3178
 -1      1424    8    0    1
 -2       658       781       782      3175      3179      3177
 -1      1425    8    0    1
 -2       660       659       783      2792      3180      3181
 -1      1426    8    0    1
 -2       659       782       783      3178      3182      3180
 -1      1427    8    0    1
 -2       661       660       784      2795      3183      3184
 -1      1428    8    0    1
 -2       660       783       784      3181      3185      3183
 -1      1429    8    0    1
 -2       662       661       785      2798      3186      3187
 -1      1430    8    0    1
 -2       661       784       785      3184      3188      3186
 -1      1431    8    0    1
 -2       663       662       786      2801      3189      3190
 -1      1432    8    0    1
 -2       662       785       786      3187      3191      3189
 -1      1433    8    0    1
 -2       664       663       787      2804      3192      3193
 -1      1434    8    0    1
 -2       663       786       787      3190      3194      3192
 -1      1435    8    0    1
 -2       665       664       788      2807      3195      3196
 -1      1436    8    0    1
 -2       664       787       788      3193      3197      3195
 -1      1437    8    0    1
 -2       666       665       789      2810      3198      3199
 -1      1438    8    0    1
 -2       665       788       789      3196      3200      3198
 -1      1439    8    0    1
 -2       667       666       790      2813      3201      3202
 -1      1440    8    0    1
 -2       666       789       790      3199      3203      3201
 -1      1441    8    0    1
 -2       668       667       791      2816      3204      3205
 -1      1442    8    0    1
 -2       667       790       791      3202      3206      3204
 -1      1443    8    0    1
 -2       669       668       792      2819      3207      3208
 -1      1444    8    0    1
 -2       668       791       792      3205      3209      3207
 -1      1445    8    0    1
 -2       670       669       793      2822      3210      3211
 -1      1446    8    0    1
 -2       669       792       793      3208      3212      3210
 -1      1447    8    0    1
 -2       671       670       794      2825      3213      3214
 -1      1448    8    0    1
 -2       756       671       794      3094      3214      3215
 -1      1449    8    0    1
 -2       670       793       794      3211      3216      3213
 -1      1450    8    0    1
 -2       676       677       795      2840      3217      3218
 -1      1451    8    0    1
 -2       675       676       796      2837      3219      3220
 -1      1452    8    0    1
 -2       676       795       796      3218      3221      3219
 -1      1453    8    0    1
 -2       678       679       797      2846      3222      3223
 -1      1454    8    0    1
 -2       679       680       798      2849      3224      3225
 -1      1455    8    0    1
 -2       679       798       797      3225      3226      3222
 -1      1456    8    0    1
 -2       546       747       627      3051      3227      2857
 -1      1457    8    0    1
 -2       709       729       799      3052      3228      3229
 -1      1458    8    0    1
 -2       683       684       799      2863      3230      3231
 -1      1459    8    0    1
 -2       686       687       800      2872      3232      3233
 -1      1460    8    0    1
 -2       687       688       801      2875      3234      3235
 -1      1461    8    0    1
 -2       687       801       800      3235      3236      3232
 -1      1462    8    0    1
 -2       688       689       802      2878      3237      3238
 -1      1463    8    0    1
 -2       688       802       801      3238      3239      3234
 -1      1464    8    0    1
 -2       689       690       803      2881      3240      3241
 -1      1465    8    0    1
 -2       689       803       802      3241      3242      3237
 -1      1466    8    0    1
 -2       690       691       804      2884      3243      3244
 -1      1467    8    0    1
 -2       690       804       803      3244      3245      3240
 -1      1468    8    0    1
 -2       691       692       805      2887      3246      3247
 -1      1469    8    0    1
 -2       691       805       804      3247      3248      3243
 -1      1470    8    0    1
 -2       692       693       806      2890      3249      3250
 -1      1471    8    0    1
 -2       692       806       805      3250      3251      3246
 -1      1472    8    0    1
 -2       693       694       807      2893      3252      3253
 -1      1473    8    0    1
 -2       693       807       806      3253      3254      3249
 -1      1474    8    0    1
 -2       694       695       808      2896      3255      3256
 -1      1475    8    0    1
 -2       694       808       807      3256      3257      3252
 -1      1476    8    0    1
 -2       695       696       809      2899      3258      3259
 -1      1477    8    0    1
 -2       695       809       808      3259      3260      3255
 -1      1478    8    0    1
 -2       696       697       810      2902      3261      3262
 -1      1479    8    0    1
 -2       696       810       809      3262      3263      3258
 -1      1480    8    0    1
 -2       697       698       811      2905      3264      3265
 -1      1481    8    0    1
 -2       697       811       810      3265      3266      3261
 -1      1482    8    0    1
 -2       698       699       812      2908      3267      3268
 -1      1483    8    0    1
 -2       698       812       811      3268      3269      3264
 -1      1484    8    0    1
 -2       699       700       813      2911      3270      3271
 -1      1485    8    0    1
 -2       699       813       812      3271      3272      3267
 -1      1486    8    0    1
 -2       700       701       814      2914      3273      3274
 -1      1487    8    0    1
 -2       700       814       813      3274      3275      3270
 -1      1488    8    0    1
 -2       701       702       815      2917      3276      3277
 -1      1489    8    0    1
 -2       701       815       814      3277      3278      3273
 -1      1490    8    0    1
 -2       702       703       816      2920      3279      3280
 -1      1491    8    0    1
 -2       702       816       815      3280      3281      3276
 -1      1492    8    0    1
 -2       703       704       817      2923      3282      3283
 -1      1493    8    0    1
 -2       703       817       816      3283      3284      3279
 -1      1494    8    0    1
 -2       704       705       818      2926      3285      3286
 -1      1495    8    0    1
 -2       704       818       817      3286      3287      3282
 -1      1496    8    0    1
 -2       705       706       819      2929      3288      3289
 -1      1497    8    0    1
 -2       705       819       818      3289      3290      3285
 -1      1498    8    0    1
 -2       706       707       820      2932      3291      3292
 -1      1499    8    0    1
 -2       706       820       819      3292      3293      3288
 -1      1500    8    0    1
 -2       707       708       821      2935      3294      3295
 -1      1501    8    0    1
 -2       820       707       821      3291      3295      3296
 -1      1502    8    0    1
 -2       708       748       821      3058      3297      3294
 -1      1503    8    0    1
 -2       747       683       799      3096      3231      3298
 -1      1504    8    0    1
 -2       713       715       822      2955      3299      3300
 -1      1505    8    0    1
 -2       716       717       823      2961      3301      3302
 -1      1506    8    0    1
 -2       710       713       824      2948      3303      3304
 -1      1507    8    0    1
 -2       713       822       824      3300      3305      3303
 -1      1508    8    0    1
 -2       725       674       825      2980      3306      3307
 -1      1509    8    0    1
 -2       741       644       719      3137      3136      3068
 -1      1510    8    0    1
 -2       629       720       826      2969      3308      3309
 -1      1511    8    0    1
 -2       715       716       827      2958      3310      3311
 -1      1512    8    0    1
 -2       822       715       827      3299      3311      3312
 -1      1513    8    0    1
 -2       716       823       827      3302      3313      3310
 -1      1514    8    0    1
 -2       738       737       828      3095      3314      3315
 -1      1515    8    0    1
 -2       685       686       829      2869      3316      3317
 -1      1516    8    0    1
 -2       686       800       829      3233      3318      3316
 -1      1517    8    0    1
 -2       684       685       830      2866      3319      3320
 -1      1518    8    0    1
 -2       685       829       830      3317      3321      3319
 -1      1519    8    0    1
 -2       740       721       831      3045      3322      3323
 -1      1520    8    0    1
 -2       592       545       832      2855      3324      3325
 -1      1521    8    0    1
 -2       625       626       833      3053      3326      3327
 -1      1522    8    0    1
 -2       758       625       833      3099      3327      3328
 -1      1523    8    0    1
 -2       626       728       833      2991      3329      3326
 -1      1524    8    0    1
 -2       677       678       834      2843      3330      3331
 -1      1525    8    0    1
 -2       795       677       834      3217      3331      3332
 -1      1526    8    0    1
 -2       678       797       834      3223      3333      3330
 -1      1527    8    0    1
 -2       732       722       835      3074      3334      3335
 -1      1528    8    0    1
 -2       674       672       836      2832      3336      3337
 -1      1529    8    0    1
 -2       674       836       825      3337      3338      3306
 -1      1530    8    0    1
 -2       594       592       832      2583      3325      3339
 -1      1531    8    0    1
 -2       721       673       837      3044      3340      3341
 -1      1532    8    0    1
 -2       737       724       838      3016      3342      3343
 -1      1533    8    0    1
 -2       737       838       828      3343      3344      3314
 -1      1534    8    0    1
 -2       631       630       839      2705      3345      3346
 -1      1535    8    0    1
 -2       631       839       760      3346      3347      3103
 -1      1536    8    0    1
 -2       620       614       840      2675      3348      3349
 -1      1537    8    0    1
 -2       718       620       840      2964      3349      3350
 -1      1538    8    0    1
 -2       614       743       840      3029      3351      3348
 -1      1539    8    0    1
 -2       681       736       735      3047      3090      3352
 -1      1540    8    0    1
 -2       735       738       841      3075      3353      3354
 -1      1541    8    0    1
 -2       628       732       842      3003      3355      3356
 -1      1542    8    0    1
 -2       723       628       843      3070      3357      3358
 -1      1543    8    0    1
 -2       628       842       843      3356      3359      3357
 -1      1544    8    0    1
 -2       720       723       844      3060      3360      3361
 -1      1545    8    0    1
 -2       723       843       844      3358      3362      3360
 -1      1546    8    0    1
 -2       739       627       747      3035      3227      3363
 -1      1547    8    0    1
 -2       623       622       845      2686      3364      3365
 -1      1548    8    0    1
 -2       621       734       846      3069      3366      3367
 -1      1549    8    0    1
 -2       681       735       841      3352      3354      3368
 -1      1550    8    0    1
 -2       744       623       847      3031      3369      3370
 -1      1551    8    0    1
 -2       623       845       847      3365      3371      3369
 -1      1552    8    0    1
 -2       624       758       848      3100      3372      3373
 -1      1553    8    0    1
 -2       624       848       730      3373      3374      2998
 -1      1554    8    0    1
 -2       724       759       838      3102      3375      3342
 -1      1555    8    0    1
 -2       745       709       849      3040      3376      3377
 -1      1556    8    0    1
 -2       709       799       849      3229      3378      3376
 -1      1557    8    0    1
 -2       826       720       844      3308      3361      3379
 -1      1558    8    0    1
 -2       615       745       850      3039      3380      3381
 -1      1559    8    0    1
 -2       615       850       750      3381      3382      3066
 -1      1560    8    0    1
 -2       733       754       851      3085      3383      3384
 -1      1561    8    0    1
 -2       733       851       759      3384      3385      3101
 -1      1562    8    0    1
 -2       746       712       852      3041      3386      3387
 -1      1563    8    0    1
 -2       630       727       853      2987      3388      3389
 -1      1564    8    0    1
 -2       630       853       839      3389      3390      3345
 -1      1565    8    0    1
 -2       641       769       749      3130      3391      3132
 -1      1566    8    0    1
 -2       645       741       854      3138      3392      3393
 -1      1567    8    0    1
 -2       732       835       842      3335      3394      3355
 -1      1568    8    0    1
 -2       727       718       840      2988      3350      3395
 -1      1569    8    0    1
 -2       672       726       855      2983      3396      3397
 -1      1570    8    0    1
 -2       672       855       836      3397      3398      3336
 -1      1571    8    0    1
 -2       835       722       856      3334      3399      3400
 -1      1572    8    0    1
 -2       722       751       856      3072      3401      3399
 -1      1573    8    0    1
 -2       675       796       857      3220      3402      3403
 -1      1574    8    0    1
 -2       675       857       726      3403      3404      2984
 -1      1575    8    0    1
 -2       680       681       841      2852      3368      3405
 -1      1576    8    0    1
 -2       757       629       826      3097      3309      3406
 -1      1577    8    0    1
 -2       712       714       858      2951      3407      3408
 -1      1578    8    0    1
 -2       712       858       852      3408      3409      3386
 -1      1579    8    0    1
 -2       738       828       841      3315      3410      3353
 -1      1580    8    0    1
 -2       714       710       859      2952      3411      3412
 -1      1581    8    0    1
 -2       858       714       859      3407      3412      3413
 -1      1582    8    0    1
 -2       710       824       859      3304      3414      3411
 -1      1583    8    0    1
 -2       728       725       860      2992      3415      3416
 -1      1584    8    0    1
 -2       833       728       860      3329      3416      3417
 -1      1585    8    0    1
 -2       725       825       860      3307      3418      3415
 -1      1586    8    0    1
 -2       751       617       861      3073      3419      3420
 -1      1587    8    0    1
 -2       617       750       861      3065      3421      3419
 -1      1588    8    0    1
 -2       740       831       862      3323      3422      3423
 -1      1589    8    0    1
 -2       740       862       755      3423      3424      3089
 -1      1590    8    0    1
 -2       831       721       837      3322      3341      3425
 -1      1591    8    0    1
 -2       754       621       846      3086      3367      3426
 -1      1592    8    0    1
 -2       837       673       769      3340      3427      3428
 -1      1593    8    0    1
 -2       729       739       747      3034      3363      3429
 -1      1594    8    0    1
 -2       680       841       798      3405      3430      3224
 -1      1595    8    0    1
 -2       618       719       863      3076      3431      3432
 -1      1596    8    0    1
 -2       622       730       864      2997      3433      3434
 -1      1597    8    0    1
 -2       845       622       864      3364      3434      3435
 -1      1598    8    0    1
 -2       730       848       864      3374      3436      3433
 -1      1599    8    0    1
 -2       734       755       865      3088      3437      3438
 -1      1600    8    0    1
 -2       734       865       846      3438      3439      3366
 -1      1601    8    0    1
 -2       731       753       866      3082      3440      3441
 -1      1602    8    0    1
 -2       741       742       854      3027      3442      3392
 -1      1603    8    0    1
 -2       743       731       867      3030      3443      3444
 -1      1604    8    0    1
 -2       731       866       867      3441      3445      3443
 -1      1605    8    0    1
 -2       717       756       794      3093      3215      3446
 -1      1606    8    0    1
 -2       729       747       799      3429      3298      3228
 -1      1607    8    0    1
 -2       717       794       823      3446      3447      3301
 -1      1608    8    0    1
 -2       841       828       798      3410      3448      3430
 -1      1609    8    0    1
 -2       762       761       868      3110      3449      3450
 -1      1610    8    0    1
 -2       763       762       869      3113      3451      3452
 -1      1611    8    0    1
 -2       762       868       869      3450      3453      3451
 -1      1612    8    0    1
 -2       764       763       870      3116      3454      3455
 -1      1613    8    0    1
 -2       763       869       870      3452      3456      3454
 -1      1614    8    0    1
 -2       765       764       871      3119      3457      3458
 -1      1615    8    0    1
 -2       764       870       871      3455      3459      3457
 -1      1616    8    0    1
 -2       766       765       872      3122      3460      3461
 -1      1617    8    0    1
 -2       765       871       872      3458      3462      3460
 -1      1618    8    0    1
 -2       767       766       873      3125      3463      3464
 -1      1619    8    0    1
 -2       766       872       873      3461      3465      3463
 -1      1620    8    0    1
 -2       768       767       874      3128      3466      3467
 -1      1621    8    0    1
 -2       767       873       874      3464      3468      3466
 -1      1622    8    0    1
 -2       769       768       837      3131      3469      3428
 -1      1623    8    0    1
 -2       842       835       875      3394      3470      3471
 -1      1624    8    0    1
 -2       772       771       876      3149      3472      3473
 -1      1625    8    0    1
 -2       773       772       877      3152      3474      3475
 -1      1626    8    0    1
 -2       772       876       877      3473      3476      3474
 -1      1627    8    0    1
 -2       774       773       878      3155      3477      3478
 -1      1628    8    0    1
 -2       773       877       878      3475      3479      3477
 -1      1629    8    0    1
 -2       775       774       879      3158      3480      3481
 -1      1630    8    0    1
 -2       774       878       879      3478      3482      3480
 -1      1631    8    0    1
 -2       776       775       880      3161      3483      3484
 -1      1632    8    0    1
 -2       775       879       880      3481      3485      3483
 -1      1633    8    0    1
 -2       777       776       881      3164      3486      3487
 -1      1634    8    0    1
 -2       776       880       881      3484      3488      3486
 -1      1635    8    0    1
 -2       778       777       882      3167      3489      3490
 -1      1636    8    0    1
 -2       777       881       882      3487      3491      3489
 -1      1637    8    0    1
 -2       779       778       883      3170      3492      3493
 -1      1638    8    0    1
 -2       778       882       883      3490      3494      3492
 -1      1639    8    0    1
 -2       780       779       884      3173      3495      3496
 -1      1640    8    0    1
 -2       779       883       884      3493      3497      3495
 -1      1641    8    0    1
 -2       781       780       885      3176      3498      3499
 -1      1642    8    0    1
 -2       780       884       885      3496      3500      3498
 -1      1643    8    0    1
 -2       782       781       886      3179      3501      3502
 -1      1644    8    0    1
 -2       781       885       886      3499      3503      3501
 -1      1645    8    0    1
 -2       783       782       887      3182      3504      3505
 -1      1646    8    0    1
 -2       782       886       887      3502      3506      3504
 -1      1647    8    0    1
 -2       784       783       888      3185      3507      3508
 -1      1648    8    0    1
 -2       783       887       888      3505      3509      3507
 -1      1649    8    0    1
 -2       785       784       889      3188      3510      3511
 -1      1650    8    0    1
 -2       784       888       889      3508      3512      3510
 -1      1651    8    0    1
 -2       786       785       890      3191      3513      3514
 -1      1652    8    0    1
 -2       785       889       890      3511      3515      3513
 -1      1653    8    0    1
 -2       787       786       891      3194      3516      3517
 -1      1654    8    0    1
 -2       786       890       891      3514      3518      3516
 -1      1655    8    0    1
 -2       788       787       892      3197      3519      3520
 -1      1656    8    0    1
 -2       787       891       892      3517      3521      3519
 -1      1657    8    0    1
 -2       789       788       893      3200      3522      3523
 -1      1658    8    0    1
 -2       788       892       893      3520      3524      3522
 -1      1659    8    0    1
 -2       790       789       894      3203      3525      3526
 -1      1660    8    0    1
 -2       789       893       894      3523      3527      3525
 -1      1661    8    0    1
 -2       791       790       895      3206      3528      3529
 -1      1662    8    0    1
 -2       790       894       895      3526      3530      3528
 -1      1663    8    0    1
 -2       792       791       896      3209      3531      3532
 -1      1664    8    0    1
 -2       791       895       896      3529      3533      3531
 -1      1665    8    0    1
 -2       793       792       897      3212      3534      3535
 -1      1666    8    0    1
 -2       792       896       897      3532      3536      3534
 -1      1667    8    0    1
 -2       794       793       823      3216      3537      3447
 -1      1668    8    0    1
 -2       796       795       898      3221      3538      3539
 -1      1669    8    0    1
 -2       797       798       899      3226      3540      3541
 -1      1670    8    0    1
 -2       798       828       899      3448      3542      3540
 -1      1671    8    0    1
 -2       799       684       900      3230      3543      3544
 -1      1672    8    0    1
 -2       800       801       901      3236      3545      3546
 -1      1673    8    0    1
 -2       803       804       902      3245      3547      3548
 -1      1674    8    0    1
 -2       804       805       903      3248      3549      3550
 -1      1675    8    0    1
 -2       804       903       902      3550      3551      3547
 -1      1676    8    0    1
 -2       805       806       904      3251      3552      3553
 -1      1677    8    0    1
 -2       805       904       903      3553      3554      3549
 -1      1678    8    0    1
 -2       806       807       905      3254      3555      3556
 -1      1679    8    0    1
 -2       806       905       904      3556      3557      3552
 -1      1680    8    0    1
 -2       807       808       906      3257      3558      3559
 -1      1681    8    0    1
 -2       807       906       905      3559      3560      3555
 -1      1682    8    0    1
 -2       808       809       907      3260      3561      3562
 -1      1683    8    0    1
 -2       808       907       906      3562      3563      3558
 -1      1684    8    0    1
 -2       809       810       908      3263      3564      3565
 -1      1685    8    0    1
 -2       809       908       907      3565      3566      3561
 -1      1686    8    0    1
 -2       810       811       909      3266      3567      3568
 -1      1687    8    0    1
 -2       810       909       908      3568      3569      3564
 -1      1688    8    0    1
 -2       811       812       910      3269      3570      3571
 -1      1689    8    0    1
 -2       811       910       909      3571      3572      3567
 -1      1690    8    0    1
 -2       812       813       911      3272      3573      3574
 -1      1691    8    0    1
 -2       812       911       910      3574      3575      3570
 -1      1692    8    0    1
 -2       813       814       912      3275      3576      3577
 -1      1693    8    0    1
 -2       813       912       911      3577      3578      3573
 -1      1694    8    0    1
 -2       814       815       913      3278      3579      3580
 -1      1695    8    0    1
 -2       814       913       912      3580      3581      3576
 -1      1696    8    0    1
 -2       815       816       914      3281      3582      3583
 -1      1697    8    0    1
 -2       815       914       913      3583      3584      3579
 -1      1698    8    0    1
 -2       816       817       915      3284      3585      3586
 -1      1699    8    0    1
 -2       816       915       914      3586      3587      3582
 -1      1700    8    0    1
 -2       817       818       916      3287      3588      3589
 -1      1701    8    0    1
 -2       817       916       915      3589      3590      3585
 -1      1702    8    0    1
 -2       818       819       917      3290      3591      3592
 -1      1703    8    0    1
 -2       818       917       916      3592      3593      3588
 -1      1704    8    0    1
 -2       819       820       918      3293      3594      3595
 -1      1705    8    0    1
 -2       819       918       917      3595      3596      3591
 -1      1706    8    0    1
 -2       824       822       919      3305      3597      3598
 -1      1707    8    0    1
 -2       748       746       920      3059      3599      3600
 -1      1708    8    0    1
 -2       821       748       920      3297      3600      3601
 -1      1709    8    0    1
 -2       746       852       920      3387      3602      3599
 -1      1710    8    0    1
 -2       760       839       921      3347      3603      3604
 -1      1711    8    0    1
 -2       594       832       627      3339      3605      2694
 -1      1712    8    0    1
 -2       749       618       863      3063      3432      3606
 -1      1713    8    0    1
 -2       727       840       853      3395      3607      3388
 -1      1714    8    0    1
 -2       829       800       922      3318      3608      3609
 -1      1715    8    0    1
 -2       800       901       922      3546      3610      3608
 -1      1716    8    0    1
 -2       830       829       923      3321      3611      3612
 -1      1717    8    0    1
 -2       829       922       923      3609      3613      3611
 -1      1718    8    0    1
 -2       754       846       924      3426      3614      3615
 -1      1719    8    0    1
 -2       616       749       752      3062      3616      3079
 -1      1720    8    0    1
 -2       825       836       925      3338      3617      3618
 -1      1721    8    0    1
 -2       753       744       926      3083      3619      3620
 -1      1722    8    0    1
 -2       753       926       866      3620      3621      3440
 -1      1723    8    0    1
 -2       828       838       899      3344      3622      3542
 -1      1724    8    0    1
 -2       838       759       927      3375      3623      3624
 -1      1725    8    0    1
 -2       838       927       899      3624      3625      3622
 -1      1726    8    0    1
 -2       843       842       928      3359      3626      3627
 -1      1727    8    0    1
 -2       831       837       874      3425      3628      3629
 -1      1728    8    0    1
 -2       802       803       929      3242      3630      3631
 -1      1729    8    0    1
 -2       803       902       929      3548      3632      3630
 -1      1730    8    0    1
 -2       844       843       930      3362      3633      3634
 -1      1731    8    0    1
 -2       801       802       931      3239      3635      3636
 -1      1732    8    0    1
 -2       802       929       931      3631      3637      3635
 -1      1733    8    0    1
 -2       770       757       826      3143      3406      3638
 -1      1734    8    0    1
 -2       761       760       932      3107      3639      3640
 -1      1735    8    0    1
 -2       761       932       868      3640      3641      3449
 -1      1736    8    0    1
 -2       837       768       874      3469      3467      3628
 -1      1737    8    0    1
 -2       823       793       897      3537      3535      3642
 -1      1738    8    0    1
 -2       848       758       933      3372      3643      3644
 -1      1739    8    0    1
 -2       754       924       851      3615      3645      3383
 -1      1740    8    0    1
 -2       839       853       934      3390      3646      3647
 -1      1741    8    0    1
 -2       839       934       921      3647      3648      3603
 -1      1742    8    0    1
 -2       847       845       935      3371      3649      3650
 -1      1743    8    0    1
 -2       875       835       936      3470      3651      3652
 -1      1744    8    0    1
 -2       835       856       936      3400      3653      3651
 -1      1745    8    0    1
 -2       719       643       863      3135      3654      3431
 -1      1746    8    0    1
 -2       771       770       937      3146      3655      3656
 -1      1747    8    0    1
 -2       898       795       938      3538      3657      3658
 -1      1748    8    0    1
 -2       795       834       938      3332      3659      3657
 -1      1749    8    0    1
 -2       797       899       939      3541      3660      3661
 -1      1750    8    0    1
 -2       834       797       939      3333      3661      3662
 -1      1751    8    0    1
 -2       899       927       939      3625      3663      3660
 -1      1752    8    0    1
 -2       855       726       857      3396      3404      3664
 -1      1753    8    0    1
 -2       856       751       940      3401      3665      3666
 -1      1754    8    0    1
 -2       751       861       940      3420      3667      3665
 -1      1755    8    0    1
 -2       857       796       941      3402      3668      3669
 -1      1756    8    0    1
 -2       796       898       941      3539      3670      3668
 -1      1757    8    0    1
 -2       846       865       942      3439      3671      3672
 -1      1758    8    0    1
 -2       846       942       924      3672      3673      3614
 -1      1759    8    0    1
 -2       900       684       830      3543      3320      3674
 -1      1760    8    0    1
 -2       830       923       850      3612      3675      3676
 -1      1761    8    0    1
 -2       760       921       932      3604      3677      3639
 -1      1762    8    0    1
 -2       860       825       943      3418      3678      3679
 -1      1763    8    0    1
 -2       825       925       943      3618      3680      3678
 -1      1764    8    0    1
 -2       742       757       854      3098      3681      3442
 -1      1765    8    0    1
 -2       824       919       944      3598      3682      3683
 -1      1766    8    0    1
 -2       824       944       859      3683      3684      3414
 -1      1767    8    0    1
 -2       919       822       945      3597      3685      3686
 -1      1768    8    0    1
 -2       822       827       945      3312      3687      3685
 -1      1769    8    0    1
 -2       820       821       920      3296      3601      3688
 -1      1770    8    0    1
 -2       926       744       847      3619      3370      3689
 -1      1771    8    0    1
 -2       759       851       946      3385      3690      3691
 -1      1772    8    0    1
 -2       759       946       927      3691      3692      3623
 -1      1773    8    0    1
 -2       827       823       947      3313      3693      3694
 -1      1774    8    0    1
 -2       945       827       947      3687      3694      3695
 -1      1775    8    0    1
 -2       823       897       947      3642      3696      3693
 -1      1776    8    0    1
 -2       820       920       918      3688      3697      3594
 -1      1777    8    0    1
 -2       935       845       948      3649      3698      3699
 -1      1778    8    0    1
 -2       845       864       948      3435      3700      3698
 -1      1779    8    0    1
 -2       925       836       949      3617      3701      3702
 -1      1780    8    0    1
 -2       836       855       949      3398      3703      3701
 -1      1781    8    0    1
 -2       826       844       937      3379      3704      3705
 -1      1782    8    0    1
 -2       866       926       950      3621      3706      3707
 -1      1783    8    0    1
 -2       769       673       752      3427      3078      3708
 -1      1784    8    0    1
 -2       901       801       931      3545      3636      3709
 -1      1785    8    0    1
 -2       861       750       951      3421      3710      3711
 -1      1786    8    0    1
 -2       750       850       951      3382      3712      3710
 -1      1787    8    0    1
 -2       771       937       876      3656      3713      3472
 -1      1788    8    0    1
 -2       749       769       752      3391      3708      3616
 -1      1789    8    0    1
 -2       840       743       853      3351      3714      3607
 -1      1790    8    0    1
 -2       928       842       875      3626      3471      3715
 -1      1791    8    0    1
 -2       831       874       952      3629      3716      3717
 -1      1792    8    0    1
 -2       862       831       952      3422      3717      3718
 -1      1793    8    0    1
 -2       874       873       952      3468      3719      3716
 -1      1794    8    0    1
 -2       770       826       937      3638      3705      3655
 -1      1795    8    0    1
 -2       930       843       928      3633      3627      3720
 -1      1796    8    0    1
 -2       852       858       953      3409      3721      3722
 -1      1797    8    0    1
 -2       755       862       954      3424      3723      3724
 -1      1798    8    0    1
 -2       755       954       865      3724      3725      3437
 -1      1799    8    0    1
 -2       920       852       918      3602      3726      3697
 -1      1800    8    0    1
 -2       866       950       934      3707      3727      3728
 -1      1801    8    0    1
 -2       852       953       918      3722      3729      3726
 -1      1802    8    0    1
 -2       851       924       955      3645      3730      3731
 -1      1803    8    0    1
 -2       850       745       900      3380      3732      3733
 -1      1804    8    0    1
 -2       743       867       853      3444      3734      3714
 -1      1805    8    0    1
 -2       870       869       956      3456      3735      3736
 -1      1806    8    0    1
 -2       871       870       957      3459      3737      3738
 -1      1807    8    0    1
 -2       870       956       957      3736      3739      3737
 -1      1808    8    0    1
 -2       872       871       958      3462      3740      3741
 -1      1809    8    0    1
 -2       871       957       958      3738      3742      3740
 -1      1810    8    0    1
 -2       873       872       959      3465      3743      3744
 -1      1811    8    0    1
 -2       952       873       959      3719      3744      3745
 -1      1812    8    0    1
 -2       872       958       959      3741      3746      3743
 -1      1813    8    0    1
 -2       645       854       757      3393      3681      3139
 -1      1814    8    0    1
 -2       933       758       860      3643      3747      3748
 -1      1815    8    0    1
 -2       903       904       960      3554      3749      3750
 -1      1816    8    0    1
 -2       848       933       961      3644      3751      3752
 -1      1817    8    0    1
 -2       848       961       864      3752      3753      3436
 -1      1818    8    0    1
 -2       878       877       962      3479      3754      3755
 -1      1819    8    0    1
 -2       879       878       963      3482      3756      3757
 -1      1820    8    0    1
 -2       878       962       963      3755      3758      3756
 -1      1821    8    0    1
 -2       880       879       964      3485      3759      3760
 -1      1822    8    0    1
 -2       879       963       964      3757      3761      3759
 -1      1823    8    0    1
 -2       881       880       965      3488      3762      3763
 -1      1824    8    0    1
 -2       880       964       965      3760      3764      3762
 -1      1825    8    0    1
 -2       882       881       966      3491      3765      3766
 -1      1826    8    0    1
 -2       881       965       966      3763      3767      3765
 -1      1827    8    0    1
 -2       883       882       967      3494      3768      3769
 -1      1828    8    0    1
 -2       882       966       967      3766      3770      3768
 -1      1829    8    0    1
 -2       884       883       968      3497      3771      3772
 -1      1830    8    0    1
 -2       883       967       968      3769      3773      3771
 -1      1831    8    0    1
 -2       885       884       969      3500      3774      3775
 -1      1832    8    0    1
 -2       884       968       969      3772      3776      3774
 -1      1833    8    0    1
 -2       886       885       970      3503      3777      3778
 -1      1834    8    0    1
 -2       885       969       970      3775      3779      3777
 -1      1835    8    0    1
 -2       887       886       971      3506      3780      3781
 -1      1836    8    0    1
 -2       886       970       971      3778      3782      3780
 -1      1837    8    0    1
 -2       888       887       972      3509      3783      3784
 -1      1838    8    0    1
 -2       887       971       972      3781      3785      3783
 -1      1839    8    0    1
 -2       889       888       973      3512      3786      3787
 -1      1840    8    0    1
 -2       888       972       973      3784      3788      3786
 -1      1841    8    0    1
 -2       890       889       974      3515      3789      3790
 -1      1842    8    0    1
 -2       889       973       974      3787      3791      3789
 -1      1843    8    0    1
 -2       891       890       975      3518      3792      3793
 -1      1844    8    0    1
 -2       890       974       975      3790      3794      3792
 -1      1845    8    0    1
 -2       892       891       976      3521      3795      3796
 -1      1846    8    0    1
 -2       891       975       976      3793      3797      3795
 -1      1847    8    0    1
 -2       893       892       977      3524      3798      3799
 -1      1848    8    0    1
 -2       892       976       977      3796      3800      3798
 -1      1849    8    0    1
 -2       894       893       978      3527      3801      3802
 -1      1850    8    0    1
 -2       893       977       978      3799      3803      3801
 -1      1851    8    0    1
 -2       895       894       979      3530      3804      3805
 -1      1852    8    0    1
 -2       894       978       979      3802      3806      3804
 -1      1853    8    0    1
 -2       896       895       980      3533      3807      3808
 -1      1854    8    0    1
 -2       895       979       980      3805      3809      3807
 -1      1855    8    0    1
 -2       897       896       981      3536      3810      3811
 -1      1856    8    0    1
 -2       947       897       981      3696      3811      3812
 -1      1857    8    0    1
 -2       896       980       981      3808      3813      3810
 -1      1858    8    0    1
 -2       855       857       982      3664      3814      3815
 -1      1859    8    0    1
 -2       857       941       982      3669      3816      3814
 -1      1860    8    0    1
 -2       850       923       951      3675      3817      3712
 -1      1861    8    0    1
 -2       932       921       983      3677      3818      3819
 -1      1862    8    0    1
 -2       545       627       832      2858      3605      3324
 -1      1863    8    0    1
 -2       844       930       876      3634      3820      3821
 -1      1864    8    0    1
 -2       902       903       984      3551      3822      3823
 -1      1865    8    0    1
 -2       903       960       984      3750      3824      3822
 -1      1866    8    0    1
 -2       905       906       985      3560      3825      3826
 -1      1867    8    0    1
 -2       906       907       986      3563      3827      3828
 -1      1868    8    0    1
 -2       906       986       985      3828      3829      3825
 -1      1869    8    0    1
 -2       907       908       987      3566      3830      3831
 -1      1870    8    0    1
 -2       907       987       986      3831      3832      3827
 -1      1871    8    0    1
 -2       908       909       988      3569      3833      3834
 -1      1872    8    0    1
 -2       908       988       987      3834      3835      3830
 -1      1873    8    0    1
 -2       909       910       989      3572      3836      3837
 -1      1874    8    0    1
 -2       909       989       988      3837      3838      3833
 -1      1875    8    0    1
 -2       910       911       990      3575      3839      3840
 -1      1876    8    0    1
 -2       910       990       989      3840      3841      3836
 -1      1877    8    0    1
 -2       911       912       991      3578      3842      3843
 -1      1878    8    0    1
 -2       911       991       990      3843      3844      3839
 -1      1879    8    0    1
 -2       912       913       992      3581      3845      3846
 -1      1880    8    0    1
 -2       912       992       991      3846      3847      3842
 -1      1881    8    0    1
 -2       913       914       993      3584      3848      3849
 -1      1882    8    0    1
 -2       913       993       992      3849      3850      3845
 -1      1883    8    0    1
 -2       914       915       994      3587      3851      3852
 -1      1884    8    0    1
 -2       914       994       993      3852      3853      3848
 -1      1885    8    0    1
 -2       915       916       995      3590      3854      3855
 -1      1886    8    0    1
 -2       915       995       994      3855      3856      3851
 -1      1887    8    0    1
 -2       916       917       996      3593      3857      3858
 -1      1888    8    0    1
 -2       916       996       995      3858      3859      3854
 -1      1889    8    0    1
 -2       917       918       953      3596      3729      3860
 -1      1890    8    0    1
 -2       950       926       997      3706      3861      3862
 -1      1891    8    0    1
 -2       926       847       997      3689      3863      3861
 -1      1892    8    0    1
 -2       847       935       997      3650      3864      3863
 -1      1893    8    0    1
 -2       931       929       998      3637      3865      3866
 -1      1894    8    0    1
 -2       876       930       999      3820      3867      3868
 -1      1895    8    0    1
 -2       877       876       999      3476      3868      3869
 -1      1896    8    0    1
 -2       930       928       999      3720      3870      3867
 -1      1897    8    0    1
 -2       929       902      1000      3632      3871      3872
 -1      1898    8    0    1
 -2       902       984      1000      3823      3873      3871
 -1      1899    8    0    1
 -2       917       953       996      3860      3874      3857
 -1      1900    8    0    1
 -2       844       876       937      3821      3713      3704
 -1      1901    8    0    1
 -2       922       901      1001      3610      3875      3876
 -1      1902    8    0    1
 -2       923       922      1002      3613      3877      3878
 -1      1903    8    0    1
 -2       951       923      1002      3817      3878      3879
 -1      1904    8    0    1
 -2       922      1001      1002      3876      3880      3877
 -1      1905    8    0    1
 -2       758       833       860      3328      3417      3747
 -1      1906    8    0    1
 -2       866       934       867      3728      3881      3445
 -1      1907    8    0    1
 -2       858       859      1003      3413      3882      3883
 -1      1908    8    0    1
 -2       953       858      1003      3721      3883      3884
 -1      1909    8    0    1
 -2       859       944      1003      3684      3885      3882
 -1      1910    8    0    1
 -2       928       875      1004      3715      3886      3887
 -1      1911    8    0    1
 -2       869       868      1005      3453      3888      3889
 -1      1912    8    0    1
 -2       869      1005       956      3889      3890      3735
 -1      1913    8    0    1
 -2       933       860       943      3748      3679      3891
 -1      1914    8    0    1
 -2       901       931      1006      3709      3892      3893
 -1      1915    8    0    1
 -2       931       998      1006      3866      3894      3892
 -1      1916    8    0    1
 -2       868       932      1007      3641      3895      3896
 -1      1917    8    0    1
 -2       868      1007      1005      3896      3897      3888
 -1      1918    8    0    1
 -2       904       905      1008      3557      3898      3899
 -1      1919    8    0    1
 -2       960       904      1008      3749      3899      3900
 -1      1920    8    0    1
 -2       905       985      1008      3826      3901      3898
 -1      1921    8    0    1
 -2       867       934       853      3881      3646      3734
 -1      1922    8    0    1
 -2       949       855       982      3703      3815      3902
 -1      1923    8    0    1
 -2       875       936      1009      3652      3903      3904
 -1      1924    8    0    1
 -2       875      1009      1004      3904      3905      3886
 -1      1925    8    0    1
 -2       933       943      1010      3891      3906      3907
 -1      1926    8    0    1
 -2       933      1010       961      3907      3908      3751
 -1      1927    8    0    1
 -2       938       834       939      3659      3662      3909
 -1      1928    8    0    1
 -2       929      1000       998      3872      3910      3865
 -1      1929    8    0    1
 -2       864       961       948      3753      3911      3700
 -1      1930    8    0    1
 -2       898       938      1011      3658      3912      3913
 -1      1931    8    0    1
 -2       962       877       999      3754      3869      3914
 -1      1932    8    0    1
 -2       939       927      1012      3663      3915      3916
 -1      1933    8    0    1
 -2       939      1012       938      3916      3917      3909
 -1      1934    8    0    1
 -2       941       898      1013      3670      3918      3919
 -1      1935    8    0    1
 -2       898      1011      1013      3913      3920      3918
 -1      1936    8    0    1
 -2       942       865      1014      3671      3921      3922
 -1      1937    8    0    1
 -2       865       954      1014      3725      3923      3921
 -1      1938    8    0    1
 -2       943       925      1010      3680      3924      3906
 -1      1939    8    0    1
 -2       924       942      1015      3673      3925      3926
 -1      1940    8    0    1
 -2       924      1015       955      3926      3927      3730
 -1      1941    8    0    1
 -2       944       919      1016      3682      3928      3929
 -1      1942    8    0    1
 -2       996       953      1017      3874      3930      3931
 -1      1943    8    0    1
 -2       953      1003      1017      3884      3932      3930
 -1      1944    8    0    1
 -2       999       928      1004      3870      3887      3933
 -1      1945    8    0    1
 -2       935       948      1018      3699      3934      3935
 -1      1946    8    0    1
 -2       799       900       849      3544      3936      3378
 -1      1947    8    0    1
 -2       997       935      1019      3864      3937      3938
 -1      1948    8    0    1
 -2       935      1018      1019      3935      3939      3937
 -1      1949    8    0    1
 -2       919       945      1020      3686      3940      3941
 -1      1950    8    0    1
 -2       919      1020      1016      3941      3942      3928
 -1      1951    8    0    1
 -2       946       851       955      3690      3731      3943
 -1      1952    8    0    1
 -2       950       997      1021      3862      3944      3945
 -1      1953    8    0    1
 -2       997      1019      1021      3938      3946      3944
 -1      1954    8    0    1
 -2       745       849       900      3377      3936      3732
 -1      1955    8    0    1
 -2       932       983      1007      3819      3947      3895
 -1      1956    8    0    1
 -2       925       949      1022      3702      3948      3949
 -1      1957    8    0    1
 -2      1001       901      1006      3875      3893      3950
 -1      1958    8    0    1
 -2       936       856      1023      3653      3951      3952
 -1      1959    8    0    1
 -2       856       940      1023      3666      3953      3951
 -1      1960    8    0    1
 -2       861       951      1024      3711      3954      3955
 -1      1961    8    0    1
 -2       940       861      1024      3667      3955      3956
 -1      1962    8    0    1
 -2       951      1002      1024      3879      3957      3954
 -1      1963    8    0    1
 -2      1010       925      1022      3924      3949      3958
 -1      1964    8    0    1
 -2       954       862       952      3723      3718      3959
 -1      1965    8    0    1
 -2       950      1021       983      3945      3960      3961
 -1      1966    8    0    1
 -2       927       946      1012      3692      3962      3915
 -1      1967    8    0    1
 -2       934       950       983      3727      3961      3963
 -1      1968    8    0    1
 -2       949       982      1025      3902      3964      3965
 -1      1969    8    0    1
 -2       949      1025      1022      3965      3966      3948
 -1      1970    8    0    1
 -2       958       957      1026      3742      3967      3968
 -1      1971    8    0    1
 -2       643       749       863      3134      3606      3654
 -1      1972    8    0    1
 -2      1011       938      1012      3912      3917      3969
 -1      1973    8    0    1
 -2       962       999      1004      3914      3933      3970
 -1      1974    8    0    1
 -2       964       963      1027      3761      3971      3972
 -1      1975    8    0    1
 -2       965       964      1028      3764      3973      3974
 -1      1976    8    0    1
 -2       964      1027      1028      3972      3975      3973
 -1      1977    8    0    1
 -2       966       965      1029      3767      3976      3977
 -1      1978    8    0    1
 -2       965      1028      1029      3974      3978      3976
 -1      1979    8    0    1
 -2       967       966      1030      3770      3979      3980
 -1      1980    8    0    1
 -2       966      1029      1030      3977      3981      3979
 -1      1981    8    0    1
 -2       968       967      1031      3773      3982      3983
 -1      1982    8    0    1
 -2       967      1030      1031      3980      3984      3982
 -1      1983    8    0    1
 -2       969       968      1032      3776      3985      3986
 -1      1984    8    0    1
 -2       968      1031      1032      3983      3987      3985
 -1      1985    8    0    1
 -2       970       969      1033      3779      3988      3989
 -1      1986    8    0    1
 -2       969      1032      1033      3986      3990      3988
 -1      1987    8    0    1
 -2       971       970      1034      3782      3991      3992
 -1      1988    8    0    1
 -2       970      1033      1034      3989      3993      3991
 -1      1989    8    0    1
 -2       972       971      1035      3785      3994      3995
 -1      1990    8    0    1
 -2       971      1034      1035      3992      3996      3994
 -1      1991    8    0    1
 -2       973       972      1036      3788      3997      3998
 -1      1992    8    0    1
 -2       972      1035      1036      3995      3999      3997
 -1      1993    8    0    1
 -2       974       973      1037      3791      4000      4001
 -1      1994    8    0    1
 -2       973      1036      1037      3998      4002      4000
 -1      1995    8    0    1
 -2       975       974      1038      3794      4003      4004
 -1      1996    8    0    1
 -2       974      1037      1038      4001      4005      4003
 -1      1997    8    0    1
 -2       976       975      1039      3797      4006      4007
 -1      1998    8    0    1
 -2       975      1038      1039      4004      4008      4006
 -1      1999    8    0    1
 -2       977       976      1040      3800      4009      4010
 -1      2000    8    0    1
 -2       976      1039      1040      4007      4011      4009
 -1      2001    8    0    1
 -2       978       977      1041      3803      4012      4013
 -1      2002    8    0    1
 -2       977      1040      1041      4010      4014      4012
 -1      2003    8    0    1
 -2       979       978      1042      3806      4015      4016
 -1      2004    8    0    1
 -2       978      1041      1042      4013      4017      4015
 -1      2005    8    0    1
 -2       980       979      1043      3809      4018      4019
 -1      2006    8    0    1
 -2       979      1042      1043      4016      4020      4018
 -1      2007    8    0    1
 -2       987       988      1044      3835      4021      4022
 -1      2008    8    0    1
 -2       946       955      1045      3943      4023      4024
 -1      2009    8    0    1
 -2       946      1045      1012      4024      4025      3962
 -1      2010    8    0    1
 -2       984       960      1046      3824      4026      4027
 -1      2011    8    0    1
 -2       986       987      1047      3832      4028      4029
 -1      2012    8    0    1
 -2       987      1044      1047      4022      4030      4028
 -1      2013    8    0    1
 -2       985       986      1048      3829      4031      4032
 -1      2014    8    0    1
 -2       986      1047      1048      4029      4033      4031
 -1      2015    8    0    1
 -2       988       989      1049      3838      4034      4035
 -1      2016    8    0    1
 -2       988      1049      1044      4035      4036      4021
 -1      2017    8    0    1
 -2       989       990      1050      3841      4037      4038
 -1      2018    8    0    1
 -2       989      1050      1049      4038      4039      4034
 -1      2019    8    0    1
 -2       990       991      1051      3844      4040      4041
 -1      2020    8    0    1
 -2       990      1051      1050      4041      4042      4037
 -1      2021    8    0    1
 -2       991       992      1052      3847      4043      4044
 -1      2022    8    0    1
 -2       991      1052      1051      4044      4045      4040
 -1      2023    8    0    1
 -2       992       993      1053      3850      4046      4047
 -1      2024    8    0    1
 -2       992      1053      1052      4047      4048      4043
 -1      2025    8    0    1
 -2       993       994      1054      3853      4049      4050
 -1      2026    8    0    1
 -2       993      1054      1053      4050      4051      4046
 -1      2027    8    0    1
 -2       994       995      1055      3856      4052      4053
 -1      2028    8    0    1
 -2       994      1055      1054      4053      4054      4049
 -1      2029    8    0    1
 -2       995       996      1056      3859      4055      4056
 -1      2030    8    0    1
 -2      1055       995      1056      4052      4056      4057
 -1      2031    8    0    1
 -2       996      1017      1056      3931      4058      4055
 -1      2032    8    0    1
 -2      1005      1007      1057      3897      4059      4060
 -1      2033    8    0    1
 -2       948       961      1058      3911      4061      4062
 -1      2034    8    0    1
 -2      1018       948      1058      3934      4062      4063
 -1      2035    8    0    1
 -2       961      1010      1058      3908      4064      4061
 -1      2036    8    0    1
 -2       962      1004      1059      3970      4065      4066
 -1      2037    8    0    1
 -2       963       962      1059      3758      4066      4067
 -1      2038    8    0    1
 -2      1004      1009      1059      3905      4068      4065
 -1      2039    8    0    1
 -2      1000       984      1060      3873      4069      4070
 -1      2040    8    0    1
 -2       984      1046      1060      4027      4071      4069
 -1      2041    8    0    1
 -2       982       941      1061      3816      4072      4073
 -1      2042    8    0    1
 -2      1025       982      1061      3964      4073      4074
 -1      2043    8    0    1
 -2       941      1013      1061      3919      4075      4072
 -1      2044    8    0    1
 -2       998      1000      1062      3910      4076      4077
 -1      2045    8    0    1
 -2      1000      1060      1062      4070      4078      4076
 -1      2046    8    0    1
 -2      1010      1022      1058      3958      4079      4064
 -1      2047    8    0    1
 -2       900       830       850      3674      3676      3733
 -1      2048    8    0    1
 -2      1011      1012      1045      3969      4025      4080
 -1      2049    8    0    1
 -2      1003       944      1063      3885      4081      4082
 -1      2050    8    0    1
 -2      1017      1003      1063      3932      4082      4083
 -1      2051    8    0    1
 -2       944      1016      1063      3929      4084      4081
 -1      2052    8    0    1
 -2       945       947      1064      3695      4085      4086
 -1      2053    8    0    1
 -2      1020       945      1064      3940      4086      4087
 -1      2054    8    0    1
 -2       947       981      1064      3812      4088      4085
 -1      2055    8    0    1
 -2      1001      1006      1065      3950      4089      4090
 -1      2056    8    0    1
 -2       957       956      1066      3739      4091      4092
 -1      2057    8    0    1
 -2       957      1066      1026      4092      4093      3967
 -1      2058    8    0    1
 -2      1007       983      1067      3947      4094      4095
 -1      2059    8    0    1
 -2      1057      1007      1067      4059      4095      4096
 -1      2060    8    0    1
 -2       983      1021      1067      3960      4097      4094
 -1      2061    8    0    1
 -2       956      1005      1068      3890      4098      4099
 -1      2062    8    0    1
 -2      1005      1057      1068      4060      4100      4098
 -1      2063    8    0    1
 -2      1006       998      1069      3894      4101      4102
 -1      2064    8    0    1
 -2       998      1062      1069      4077      4103      4101
 -1      2065    8    0    1
 -2       954       952       959      3959      3745      4104
 -1      2066    8    0    1
 -2      1011      1045      1070      4080      4105      4106
 -1      2067    8    0    1
 -2       921       934       983      3648      3963      3818
 -1      2068    8    0    1
 -2      1009       936      1071      3903      4107      4108
 -1      2069    8    0    1
 -2       936      1023      1071      3952      4109      4107
 -1      2070    8    0    1
 -2       955      1015      1072      3927      4110      4111
 -1      2071    8    0    1
 -2       955      1072      1045      4111      4112      4023
 -1      2072    8    0    1
 -2      1011      1070      1013      4106      4113      3920
 -1      2073    8    0    1
 -2       959       958      1073      3746      4114      4115
 -1      2074    8    0    1
 -2       958      1026      1073      3968      4116      4114
 -1      2075    8    0    1
 -2      1027       963      1059      3971      4067      4117
 -1      2076    8    0    1
 -2      1001      1065      1074      4090      4118      4119
 -1      2077    8    0    1
 -2      1001      1074      1002      4119      4120      3880
 -1      2078    8    0    1
 -2       985      1048      1075      4032      4121      4122
 -1      2079    8    0    1
 -2       985      1075      1008      4122      4123      3901
 -1      2080    8    0    1
 -2       981       980      1076      3813      4124      4125
 -1      2081    8    0    1
 -2      1064       981      1076      4088      4125      4126
 -1      2082    8    0    1
 -2       980      1043      1076      4019      4127      4124
 -1      2083    8    0    1
 -2      1014       954      1073      3923      4128      4129
 -1      2084    8    0    1
 -2      1073       954       959      4128      4104      4115
 -1      2085    8    0    1
 -2      1015       942      1077      3925      4130      4131
 -1      2086    8    0    1
 -2       942      1014      1077      3922      4132      4130
 -1      2087    8    0    1
 -2      1006      1069      1065      4102      4133      4089
 -1      2088    8    0    1
 -2      1019      1018      1078      3939      4134      4135
 -1      2089    8    0    1
 -2      1021      1019      1079      3946      4136      4137
 -1      2090    8    0    1
 -2      1067      1021      1079      4097      4137      4138
 -1      2091    8    0    1
 -2      1019      1078      1079      4135      4139      4136
 -1      2092    8    0    1
 -2      1063      1016      1080      4084      4140      4141
 -1      2093    8    0    1
 -2      1058      1022      1081      4079      4142      4143
 -1      2094    8    0    1
 -2      1066       956      1068      4091      4099      4144
 -1      2095    8    0    1
 -2       960      1008      1082      3900      4145      4146
 -1      2096    8    0    1
 -2      1046       960      1082      4026      4146      4147
 -1      2097    8    0    1
 -2      1008      1075      1082      4123      4148      4145
 -1      2098    8    0    1
 -2      1023       940      1074      3953      4149      4150
 -1      2099    8    0    1
 -2      1080      1016      1076      4140      4151      4152
 -1      2100    8    0    1
 -2      1022      1025      1083      3966      4153      4154
 -1      2101    8    0    1
 -2      1022      1083      1081      4154      4155      4142
 -1      2102    8    0    1
 -2      1078      1018      1081      4134      4156      4157
 -1      2103    8    0    1
 -2      1081      1018      1058      4156      4063      4143
 -1      2104    8    0    1
 -2      1057      1067      1084      4096      4158      4159
 -1      2105    8    0    1
 -2      1067      1079      1084      4138      4160      4158
 -1      2106    8    0    1
 -2      1073      1026      1085      4116      4161      4162
 -1      2107    8    0    1
 -2      1047      1044      1086      4030      4163      4164
 -1      2108    8    0    1
 -2      1028      1027      1087      3975      4165      4166
 -1      2109    8    0    1
 -2      1029      1028      1088      3978      4167      4168
 -1      2110    8    0    1
 -2      1028      1087      1088      4166      4169      4167
 -1      2111    8    0    1
 -2      1030      1029      1089      3981      4170      4171
 -1      2112    8    0    1
 -2      1029      1088      1089      4168      4172      4170
 -1      2113    8    0    1
 -2      1031      1030      1090      3984      4173      4174
 -1      2114    8    0    1
 -2      1030      1089      1090      4171      4175      4173
 -1      2115    8    0    1
 -2      1032      1031      1091      3987      4176      4177
 -1      2116    8    0    1
 -2      1031      1090      1091      4174      4178      4176
 -1      2117    8    0    1
 -2      1033      1032      1092      3990      4179      4180
 -1      2118    8    0    1
 -2      1032      1091      1092      4177      4181      4179
 -1      2119    8    0    1
 -2      1034      1033      1093      3993      4182      4183
 -1      2120    8    0    1
 -2      1033      1092      1093      4180      4184      4182
 -1      2121    8    0    1
 -2      1035      1034      1094      3996      4185      4186
 -1      2122    8    0    1
 -2      1034      1093      1094      4183      4187      4185
 -1      2123    8    0    1
 -2      1036      1035      1095      3999      4188      4189
 -1      2124    8    0    1
 -2      1035      1094      1095      4186      4190      4188
 -1      2125    8    0    1
 -2      1037      1036      1096      4002      4191      4192
 -1      2126    8    0    1
 -2      1036      1095      1096      4189      4193      4191
 -1      2127    8    0    1
 -2      1038      1037      1097      4005      4194      4195
 -1      2128    8    0    1
 -2      1037      1096      1097      4192      4196      4194
 -1      2129    8    0    1
 -2      1039      1038      1098      4008      4197      4198
 -1      2130    8    0    1
 -2      1038      1097      1098      4195      4199      4197
 -1      2131    8    0    1
 -2      1040      1039      1099      4011      4200      4201
 -1      2132    8    0    1
 -2      1039      1098      1099      4198      4202      4200
 -1      2133    8    0    1
 -2      1041      1040      1100      4014      4203      4204
 -1      2134    8    0    1
 -2      1040      1099      1100      4201      4205      4203
 -1      2135    8    0    1
 -2      1042      1041      1101      4017      4206      4207
 -1      2136    8    0    1
 -2      1041      1100      1101      4204      4208      4206
 -1      2137    8    0    1
 -2      1043      1042      1102      4020      4209      4210
 -1      2138    8    0    1
 -2      1042      1101      1102      4207      4211      4209
 -1      2139    8    0    1
 -2      1049      1050      1103      4039      4212      4213
 -1      2140    8    0    1
 -2      1017      1063      1104      4083      4214      4215
 -1      2141    8    0    1
 -2      1056      1017      1104      4058      4215      4216
 -1      2142    8    0    1
 -2      1063      1080      1104      4141      4217      4214
 -1      2143    8    0    1
 -2      1074       940      1024      4149      3956      4218
 -1      2144    8    0    1
 -2      1044      1049      1105      4036      4219      4220
 -1      2145    8    0    1
 -2      1049      1103      1105      4213      4221      4219
 -1      2146    8    0    1
 -2      1048      1047      1106      4033      4222      4223
 -1      2147    8    0    1
 -2      1047      1086      1106      4164      4224      4222
 -1      2148    8    0    1
 -2      1050      1051      1107      4042      4225      4226
 -1      2149    8    0    1
 -2      1050      1107      1103      4226      4227      4212
 -1      2150    8    0    1
 -2      1051      1052      1108      4045      4228      4229
 -1      2151    8    0    1
 -2      1051      1108      1107      4229      4230      4225
 -1      2152    8    0    1
 -2      1052      1053      1109      4048      4231      4232
 -1      2153    8    0    1
 -2      1052      1109      1108      4232      4233      4228
 -1      2154    8    0    1
 -2      1053      1054      1110      4051      4234      4235
 -1      2155    8    0    1
 -2      1053      1110      1109      4235      4236      4231
 -1      2156    8    0    1
 -2      1054      1055      1111      4054      4237      4238
 -1      2157    8    0    1
 -2      1054      1111      1110      4238      4239      4234
 -1      2158    8    0    1
 -2      1068      1057      1112      4100      4240      4241
 -1      2159    8    0    1
 -2      1057      1084      1112      4159      4242      4240
 -1      2160    8    0    1
 -2      1059      1009      1113      4068      4243      4244
 -1      2161    8    0    1
 -2      1059      1113      1027      4244      4245      4117
 -1      2162    8    0    1
 -2      1074      1024      1002      4218      3957      4120
 -1      2163    8    0    1
 -2      1078      1081      1114      4157      4246      4247
 -1      2164    8    0    1
 -2      1079      1078      1114      4139      4247      4248
 -1      2165    8    0    1
 -2      1081      1083      1114      4155      4249      4246
 -1      2166    8    0    1
 -2      1023      1074      1115      4150      4250      4251
 -1      2167    8    0    1
 -2      1071      1023      1115      4109      4251      4252
 -1      2168    8    0    1
 -2      1074      1065      1115      4118      4253      4250
 -1      2169    8    0    1
 -2      1065      1069      1116      4133      4254      4255
 -1      2170    8    0    1
 -2      1065      1116      1115      4255      4256      4253
 -1      2171    8    0    1
 -2      1066      1068      1117      4144      4257      4258
 -1      2172    8    0    1
 -2      1068      1112      1117      4241      4259      4257
 -1      2173    8    0    1
 -2      1026      1066      1118      4093      4260      4261
 -1      2174    8    0    1
 -2      1085      1026      1118      4161      4261      4262
 -1      2175    8    0    1
 -2      1066      1117      1118      4258      4263      4260
 -1      2176    8    0    1
 -2      1060      1046      1119      4071      4264      4265
 -1      2177    8    0    1
 -2      1069      1062      1120      4103      4266      4267
 -1      2178    8    0    1
 -2      1069      1120      1116      4267      4268      4254
 -1      2179    8    0    1
 -2      1070      1045      1072      4105      4112      4269
 -1      2180    8    0    1
 -2      1062      1060      1121      4078      4270      4271
 -1      2181    8    0    1
 -2      1120      1062      1121      4266      4271      4272
 -1      2182    8    0    1
 -2      1060      1119      1121      4265      4273      4270
 -1      2183    8    0    1
 -2      1013      1070      1122      4113      4274      4275
 -1      2184    8    0    1
 -2      1119      1046      1123      4264      4276      4277
 -1      2185    8    0    1
 -2      1046      1082      1123      4147      4278      4276
 -1      2186    8    0    1
 -2      1072      1015      1124      4110      4279      4280
 -1      2187    8    0    1
 -2      1015      1077      1124      4131      4281      4279
 -1      2188    8    0    1
 -2      1048      1106      1125      4223      4282      4283
 -1      2189    8    0    1
 -2      1048      1125      1075      4283      4284      4121
 -1      2190    8    0    1
 -2      1070      1072      1126      4269      4285      4286
 -1      2191    8    0    1
 -2      1072      1124      1126      4280      4287      4285
 -1      2192    8    0    1
 -2      1070      1126      1122      4286      4288      4274
 -1      2193    8    0    1
 -2      1076      1043      1080      4127      4289      4152
 -1      2194    8    0    1
 -2      1104      1080      1127      4217      4290      4291
 -1      2195    8    0    1
 -2      1083      1025      1122      4153      4292      4293
 -1      2196    8    0    1
 -2      1009      1071      1113      4108      4294      4243
 -1      2197    8    0    1
 -2      1087      1027      1113      4165      4245      4295
 -1      2198    8    0    1
 -2      1127      1080      1102      4290      4296      4297
 -1      2199    8    0    1
 -2      1102      1080      1043      4296      4289      4210
 -1      2200    8    0    1
 -2      1076      1016      1020      4151      3942      4298
 -1      2201    8    0    1
 -2      1020      1064      1076      4087      4126      4298
 -1      2202    8    0    1
 -2      1086      1044      1105      4163      4220      4299
 -1      2203    8    0    1
 -2      1014      1073      1085      4129      4162      4300
 -1      2204    8    0    1
 -2      1103      1107      1097      4227      4301      4302
 -1      2205    8    0    1
 -2      1086      1105      1095      4299      4303      4304
 -1      2206    8    0    1
 -2      1089      1088      1121      4172      4305      4306
 -1      2207    8    0    1
 -2      1090      1089      1119      4175      4307      4308
 -1      2208    8    0    1
 -2      1091      1090      1123      4178      4309      4310
 -1      2209    8    0    1
 -2      1093      1092      1125      4184      4311      4312
 -1      2210    8    0    1
 -2      1094      1093      1106      4187      4313      4314
 -1      2211    8    0    1
 -2      1095      1094      1086      4190      4315      4304
 -1      2212    8    0    1
 -2      1096      1095      1105      4193      4303      4316
 -1      2213    8    0    1
 -2      1097      1096      1103      4196      4317      4302
 -1      2214    8    0    1
 -2      1098      1097      1107      4199      4301      4318
 -1      2215    8    0    1
 -2      1099      1098      1108      4202      4319      4320
 -1      2216    8    0    1
 -2      1100      1099      1109      4205      4321      4322
 -1      2217    8    0    1
 -2      1101      1100      1110      4208      4323      4324
 -1      2218    8    0    1
 -2      1102      1101      1111      4211      4325      4326
 -1      2219    8    0    1
 -2      1107      1108      1098      4230      4319      4318
 -1      2220    8    0    1
 -2      1083      1122      1128      4293      4327      4328
 -1      2221    8    0    1
 -2      1088      1087      1120      4169      4329      4330
 -1      2222    8    0    1
 -2      1113      1071      1129      4294      4331      4332
 -1      2223    8    0    1
 -2      1113      1129      1087      4332      4333      4295
 -1      2224    8    0    1
 -2      1013      1122      1061      4275      4334      4075
 -1      2225    8    0    1
 -2      1105      1103      1096      4221      4317      4316
 -1      2226    8    0    1
 -2      1106      1086      1094      4224      4315      4314
 -1      2227    8    0    1
 -2      1108      1109      1099      4233      4321      4320
 -1      2228    8    0    1
 -2      1109      1110      1100      4236      4323      4322
 -1      2229    8    0    1
 -2      1110      1111      1101      4239      4325      4324
 -1      2230    8    0    1
 -2      1111      1055      1104      4237      4335      4336
 -1      2231    8    0    1
 -2      1112      1084      1130      4242      4337      4338
 -1      2232    8    0    1
 -2      1055      1056      1104      4057      4216      4335
 -1      2233    8    0    1
 -2      1084      1079      1114      4160      4248      4339
 -1      2234    8    0    1
 -2      1117      1112      1128      4259      4340      4341
 -1      2235    8    0    1
 -2      1077      1014      1085      4132      4300      4342
 -1      2236    8    0    1
 -2      1082      1075      1131      4148      4343      4344
 -1      2237    8    0    1
 -2      1075      1125      1131      4284      4345      4343
 -1      2238    8    0    1
 -2      1106      1093      1125      4313      4312      4282
 -1      2239    8    0    1
 -2      1071      1115      1129      4252      4346      4331
 -1      2240    8    0    1
 -2      1119      1089      1121      4307      4306      4273
 -1      2241    8    0    1
 -2      1122      1126      1128      4288      4347      4327
 -1      2242    8    0    1
 -2      1090      1119      1123      4308      4277      4309
 -1      2243    8    0    1
 -2      1088      1120      1121      4330      4272      4305
 -1      2244    8    0    1
 -2      1077      1085      1124      4342      4348      4281
 -1      2245    8    0    1
 -2      1129      1115      1116      4346      4256      4349
 -1      2246    8    0    1
 -2      1122      1025      1061      4292      4074      4334
 -1      2247    8    0    1
 -2      1091      1123      1131      4310      4350      4351
 -1      2248    8    0    1
 -2      1092      1091      1131      4181      4351      4352
 -1      2249    8    0    1
 -2      1084      1114      1130      4339      4353      4337
 -1      2250    8    0    1
 -2      1120      1087      1116      4329      4354      4268
 -1      2251    8    0    1
 -2      1087      1129      1116      4333      4349      4354
 -1      2252    8    0    1
 -2      1085      1118      1124      4262      4355      4348
 -1      2253    8    0    1
 -2      1125      1092      1131      4311      4352      4345
 -1      2254    8    0    1
 -2      1114      1083      1130      4249      4356      4353
 -1      2255    8    0    1
 -2      1117      1128      1126      4341      4347      4357
 -1      2256    8    0    1
 -2      1123      1082      1131      4278      4344      4350
 -1      2257    8    0    1
 -2      1117      1126      1124      4357      4287      4358
 -1      2258    8    0    1
 -2      1111      1104      1127      4336      4291      4359
 -1      2259    8    0    1
 -2      1102      1111      1127      4326      4359      4297
 -1      2260    8    0    1
 -2      1112      1130      1128      4338      4360      4340
 -1      2261    8    0    1
 -2      1083      1128      1130      4328      4360      4356
 -1      2262    8    0    1
 -2      1118      1117      1124      4263      4358      4355
 -3
    1PSTEP                         1           1           1          
  100CL  101 1.000000000        4360                     0    1           1
 -4  DISP        4    1
 -5  D1          1    2    1    0
 -5  D2          1    2    2    0
 -5  D3          1    2    3    0
 -5  ALL         1    2    0    0    1ALL
 -1         1 6.16868E-03-6.31252E-04-2.02265E-14
 -1         2 7.92612E-03 2.11092E-04-2.33147E-14
 -1         3 1.54653E-02 1.71104E-03-1.20632E-13
 -1         4 1.49381E-02 2.79671E-04-1.33665E-13
 -1         5 0.00000E+00 0.00000E+00 0.00000E+00
 -1         6 0.00000E+00 0.00000E+00 0.00000E+00
 -1         7 0.00000E+00 0.00000E+00 0.00000E+00
 -1         8 0.00000E+00 0.00000E+00 0.00000E+00
 -1         9 0.00000E+00 0.00000E+00 0.00000E+00
 -1        10 0.00000E+00 0.00000E+00 0.00000E+00
 -1        11 0.00000E+00 0.00000E+00 0.00000E+00
 -1        12 0.00000E+00 0.00000E+00 0.00000E+00
 -1        13 0.00000E+00 0.00000E+00 0.00000E+00
 -1        14 0.00000E+00 0.00000E+00 0.00000E+00
 -1        15 0.00000E+00 0.00000E+00 0.00000E+00
 -1        16 0.00000E+00 0.00000E+00 0.00000E+00
 -1        17 0.00000E+00 0.00000E+00 0.00000E+00
 -1        18 0.00000E+00 0.00000E+00 0.00000E+00
 -1        19 0.00000E+00 0.00000E+00 0.00000E+00
 -1        20 0.00000E+00 0.00000E+00 0.00000E+00
 -1        21 0.00000E+00 0.00000E+00 0.00000E+00
 -1        22 0.00000E+00 0.00000E+00 0.00000E+00
 -1        23 4.08753E-04-2.52960E-04 1.63986E-18
 -1        24 7.02909E-04-3.83937E-04-1.51165E-16
 -1        25 9.78707E-04-4.71839E-04-4.48365E-16
 -1        26 1.25217E-03-5.31539E-04-8.85092E-16
 -1        27 1.52831E-03-5.72636E-04-1.45613E-15
 -1        28 1.80994E-03-6.01200E-04-2.15597E-15
 -1        29 2.09888E-03-6.22002E-04-2.98354E-15
 -1        30 2.39639E-03-6.39295E-04-3.93647E-15
 -1        31 2.70318E-03-6.57204E-04-5.01442E-15
 -1        32 3.01924E-03-6.79871E-04-6.21663E-15
 -1        33 3.34350E-03-7.11341E-04-7.53647E-15
 -1        34 3.67336E-03-7.55072E-04-8.96709E-15
 -1        35 4.00433E-03-8.12975E-04-1.05143E-14
 -1        36 4.33008E-03-8.83976E-04-1.21779E-14
 -1        37 4.64338E-03-9.62478E-04-1.39567E-14
 -1        38 4.93823E-03-1.03761E-03-1.58521E-14
 -1        39 5.21275E-03-1.09456E-03-1.78673E-14
 -1        40 5.47140E-03-1.11859E-03-1.99953E-14
 -1        41 5.72449E-03-1.10054E-03-2.22341E-14
 -1        42 5.98468E-03-1.04083E-03-2.45762E-14
 -1        43 6.26199E-03-9.49278E-04-2.70287E-14
 -1        44 6.56046E-03-8.40939E-04-2.95918E-14
 -1        45 6.87796E-03-7.30580E-04-3.22738E-14
 -1        46 7.20847E-03-6.28907E-04-3.50764E-14
 -1        47 7.54501E-03-5.41469E-04-3.79797E-14
 -1        48 7.88162E-03-4.69529E-04-4.09756E-14
 -1        49 8.21422E-03-4.11660E-04-4.40651E-14
 -1        50 8.54059E-03-3.65193E-04-4.72461E-14
 -1        51 8.85996E-03-3.27207E-04-5.05143E-14
 -1        52 9.17250E-03-2.95061E-04-5.38739E-14
 -1        53 9.47891E-03-2.66609E-04-5.73211E-14
 -1        54 9.78011E-03-2.40234E-04-6.08440E-14
 -1        55 1.00771E-02-2.14788E-04-6.44395E-14
 -1        56 1.03707E-02-1.89501E-04-6.81052E-14
 -1        57 1.06617E-02-1.63896E-04-7.18342E-14
 -1        58 1.09509E-02-1.37703E-04-7.56118E-14
 -1        59 1.12387E-02-1.10800E-04-7.94434E-14
 -1        60 1.15255E-02-8.31598E-05-8.33362E-14
 -1        61 1.18116E-02-5.48154E-05-8.72813E-14
 -1        62 1.20974E-02-2.58342E-05-9.12898E-14
 -1        63 1.23829E-02 3.70008E-06-9.53693E-14
 -1        64 1.26682E-02 3.36982E-05-9.95010E-14
 -1        65 1.29536E-02 6.40729E-05-1.03682E-13
 -1        66 1.32389E-02 9.47421E-05-1.07910E-13
 -1        67 1.35243E-02 1.25631E-04-1.12162E-13
 -1        68 1.38098E-02 1.56670E-04-1.16443E-13
 -1        69 1.40954E-02 1.87798E-04-1.20763E-13
 -1        70 1.43810E-02 2.18960E-04-1.25106E-13
 -1        71 1.46667E-02 2.50110E-04-1.29482E-13
 -1        72 4.10793E-04 2.53284E-04 9.35395E-17
 -1        73 7.02507E-04 3.85722E-04 1.03762E-16
 -1        74 9.79151E-04 4.72040E-04 2.39033E-17
 -1        75 1.25328E-03 5.30751E-04-1.52124E-16
 -1        76 1.53037E-03 5.70632E-04-4.30418E-16
 -1        77 1.81364E-03 5.97626E-04-8.14636E-16
 -1        78 2.10550E-03 6.16502E-04-1.30653E-15
 -1        79 2.40798E-03 6.31693E-04-1.90805E-15
 -1        80 2.72295E-03 6.47849E-04-2.61447E-15
 -1        81 3.05186E-03 6.70229E-04-3.42379E-15
 -1        82 3.39532E-03 7.04897E-04-4.33915E-15
 -1        83 3.75217E-03 7.58501E-04-5.36049E-15
 -1        84 4.11823E-03 8.37202E-04-6.48664E-15
 -1        85 4.48517E-03 9.44250E-04-7.71879E-15
 -1        86 4.84053E-03 1.07604E-03-9.06362E-15
 -1        87 5.17056E-03 1.21799E-03-1.05361E-14
 -1        88 5.46676E-03 1.34394E-03-1.21348E-14
 -1        89 5.73329E-03 1.42329E-03-1.38606E-14
 -1        90 5.98867E-03 1.43520E-03-1.57184E-14
 -1        91 6.25772E-03 1.38077E-03-1.77019E-14
 -1        92 6.55811E-03 1.28222E-03-1.98168E-14
 -1        93 6.89301E-03 1.17039E-03-2.20656E-14
 -1        94 7.25324E-03 1.07085E-03-2.44416E-14
 -1        95 7.62505E-03 9.97446E-04-2.69319E-14
 -1        96 7.99641E-03 9.53387E-04-2.95276E-14
 -1        97 8.35959E-03 9.35520E-04-3.22215E-14
 -1        98 8.71098E-03 9.38186E-04-3.50213E-14
 -1        99 9.04987E-03 9.55585E-04-3.79179E-14
 -1       100 9.37715E-03 9.82830E-04-4.08960E-14
 -1       101 9.69447E-03 1.01620E-03-4.39620E-14
 -1       102 1.00036E-02 1.05305E-03-4.71120E-14
 -1       103 1.03063E-02 1.09159E-03-5.03484E-14
 -1       104 1.06040E-02 1.13064E-03-5.36667E-14
 -1       105 1.08980E-02 1.16950E-03-5.70773E-14
 -1       106 1.11892E-02 1.20776E-03-6.05922E-14
 -1       107 1.14783E-02 1.24524E-03-6.42060E-14
 -1       108 1.17661E-02 1.28186E-03-6.79130E-14
 -1       109 1.20528E-02 1.31765E-03-7.17013E-14
 -1       110 1.23389E-02 1.35267E-03-7.55630E-14
 -1       111 1.26246E-02 1.38701E-03-7.94938E-14
 -1       112 1.29101E-02 1.42077E-03-8.34842E-14
 -1       113 1.31955E-02 1.45406E-03-8.75263E-14
 -1       114 1.34808E-02 1.48695E-03-9.16212E-14
 -1       115 1.37661E-02 1.51955E-03-9.57538E-14
 -1       116 1.40515E-02 1.55193E-03-9.98979E-14
 -1       117 1.43370E-02 1.58415E-03-1.04070E-13
 -1       118 1.46226E-02 1.61629E-03-1.08266E-13
 -1       119 1.49082E-02 1.64839E-03-1.12464E-13
 -1       120 1.51939E-02 1.68050E-03-1.16658E-13
 -1       121 1.54337E-02 1.62676E-03-1.21422E-13
 -1       122 1.54020E-02 1.54245E-03-1.22238E-13
 -1       123 1.53704E-02 1.45809E-03-1.23039E-13
 -1       124 1.53387E-02 1.37367E-03-1.23836E-13
 -1       125 1.53072E-02 1.28918E-03-1.24626E-13
 -1       126 1.52762E-02 1.20608E-03-1.25419E-13
 -1       127 1.52448E-02 1.12152E-03-1.26224E-13
 -1       128 1.52136E-02 1.03693E-03-1.27016E-13
 -1       129 1.51825E-02 9.52338E-04-1.27813E-13
 -1       130 1.51515E-02 8.67752E-04-1.28572E-13
 -1       131 1.51207E-02 7.83189E-04-1.29306E-13
 -1       132 1.50905E-02 7.00093E-04-1.30050E-13
 -1       133 1.50599E-02 6.15613E-04-1.30807E-13
 -1       134 1.50293E-02 5.31192E-04-1.31554E-13
 -1       135 1.49987E-02 4.46834E-04-1.32288E-13
 -1       136 1.49682E-02 3.62527E-04-1.32991E-13
 -1       137 7.89231E-03 3.80043E-04-2.29838E-14
 -1       138 7.73982E-03 5.63689E-04-2.23432E-14
 -1       139 7.51870E-03 7.11192E-04-2.16081E-14
 -1       140 7.20876E-03 8.44211E-04-2.07068E-14
 -1       141 6.84999E-03 9.45811E-04-1.97633E-14
 -1       142 6.40040E-03 1.02175E-03-1.86822E-14
 -1       143 5.94028E-03 1.05272E-03-1.76659E-14
 -1       144 5.46327E-03 1.03999E-03-1.66891E-14
 -1       145 4.96455E-03 9.76975E-04-1.57441E-14
 -1       146 4.53362E-03 8.76936E-04-1.49952E-14
 -1       147 4.17006E-03 7.48647E-04-1.44224E-14
 -1       148 3.87177E-03 5.95105E-04-1.40090E-14
 -1       149 3.66961E-03 4.34792E-04-1.37865E-14
 -1       150 3.54970E-03 2.59752E-04-1.37369E-14
 -1       151 3.52787E-03 8.74955E-05-1.38709E-14
 -1       152 3.61252E-03-9.43563E-05-1.42205E-14
 -1       153 3.77259E-03-2.43481E-04-1.46859E-14
 -1       154 4.04042E-03-3.90292E-04-1.53751E-14
 -1       155 4.37308E-03-5.07501E-04-1.61783E-14
 -1       156 4.78791E-03-5.98163E-04-1.71401E-14
 -1       157 5.24302E-03-6.50733E-04-1.81791E-14
 -1       158 5.70718E-03-6.60843E-04-1.92112E-14
 -1       159 6.56628E-03-5.72873E-04-2.10813E-14
 -1       160 6.93578E-03-4.86562E-04-2.18547E-14
 -1       161 7.25333E-03-3.80020E-04-2.24864E-14
 -1       162 7.52953E-03-2.49494E-04-2.29890E-14
 -1       163 7.74033E-03-1.02173E-04-2.33060E-14
 -1       164 7.87788E-03 5.91986E-05-2.34132E-14
 -1       165 2.42623E-04-1.18212E-04-4.55805E-17
 -1       166 2.27574E-04-8.62764E-05-5.91161E-17
 -1       167 2.21049E-04-6.40196E-05-6.47269E-17
 -1       168 2.17074E-04-4.67056E-05-6.62007E-17
 -1       169 2.14367E-04-3.27056E-05-6.54519E-17
 -1       170 2.12456E-04-2.05243E-05-6.37138E-17
 -1       171 2.11299E-04-9.67675E-06-6.10779E-17
 -1       172 2.10893E-04 4.93192E-07-5.79574E-17
 -1       173 2.11257E-04 1.06244E-05-5.42237E-17
 -1       174 2.12403E-04 2.13732E-05-4.94295E-17
 -1       175 2.14312E-04 3.32262E-05-4.36154E-17
 -1       176 2.17144E-04 4.73987E-05-3.54161E-17
 -1       177 2.21231E-04 6.48052E-05-2.39100E-17
 -1       178 2.27835E-04 8.73707E-05-7.26754E-18
 -1       179 2.41656E-04 1.19978E-04 1.78521E-17
 -1       180 2.98915E-04 1.77788E-04 4.69527E-17
 -1       181 4.71913E-04-2.50355E-04-1.18900E-16
 -1       182 7.74452E-04-3.58859E-04-3.61273E-16
 -1       183 1.06505E-03-4.31711E-04-7.36597E-16
 -1       184 1.35193E-03-4.80974E-04-1.24315E-15
 -1       185 1.63924E-03-5.14169E-04-1.87686E-15
 -1       186 1.92964E-03-5.36811E-04-2.63557E-15
 -1       187 2.22488E-03-5.53499E-04-3.51739E-15
 -1       188 2.52608E-03-5.68528E-04-4.52098E-15
 -1       189 2.83377E-03-5.86192E-04-5.64541E-15
 -1       190 3.14781E-03-6.10849E-04-6.88858E-15
 -1       191 3.46723E-03-6.46661E-04-8.24508E-15
 -1       192 3.78996E-03-6.96881E-04-9.71337E-15
 -1       193 4.11278E-03-7.62561E-04-1.12978E-14
 -1       194 4.43156E-03-8.40811E-04-1.29962E-14
 -1       195 4.74210E-03-9.23223E-04-1.48120E-14
 -1       196 5.04161E-03-9.95758E-04-1.67455E-14
 -1       197 5.33046E-03-1.04151E-03-1.87955E-14
 -1       198 5.61289E-03-1.04639E-03-2.09604E-14
 -1       199 5.89586E-03-1.00515E-03-2.32339E-14
 -1       200 6.18625E-03-9.23913E-04-2.56136E-14
 -1       201 6.48806E-03-8.17284E-04-2.81086E-14
 -1       202 6.80144E-03-7.02240E-04-3.07168E-14
 -1       203 7.12356E-03-5.92616E-04-3.34425E-14
 -1       204 7.45030E-03-4.96642E-04-3.62765E-14
 -1       205 7.77771E-03-4.17243E-04-3.92055E-14
 -1       206 8.10279E-03-3.53700E-04-4.22312E-14
 -1       207 8.42366E-03-3.03406E-04-4.53486E-14
 -1       208 8.73943E-03-2.63176E-04-4.85553E-14
 -1       209 9.04994E-03-2.29992E-04-5.18464E-14
 -1       210 9.35550E-03-2.01342E-04-5.52290E-14
 -1       211 9.65667E-03-1.75304E-04-5.86946E-14
 -1       212 9.95412E-03-1.50497E-04-6.22326E-14
 -1       213 1.02485E-02-1.25989E-04-6.58406E-14
 -1       214 1.05405E-02-1.01192E-04-6.95208E-14
 -1       215 1.08305E-02-7.57699E-05-7.32626E-14
 -1       216 1.11192E-02-4.95630E-05-7.70612E-14
 -1       217 1.14068E-02-2.25268E-05-8.09155E-14
 -1       218 1.16936E-02 5.30987E-06-8.48256E-14
 -1       219 1.19799E-02 3.38759E-05-8.87904E-14
 -1       220 1.22659E-02 6.30792E-05-9.28230E-14
 -1       221 1.25516E-02 9.28207E-05-9.69105E-14
 -1       222 1.28372E-02 1.23003E-04-1.01049E-13
 -1       223 1.31228E-02 1.53534E-04-1.05239E-13
 -1       224 1.34083E-02 1.84330E-04-1.09471E-13
 -1       225 1.36939E-02 2.15315E-04-1.13729E-13
 -1       226 1.39795E-02 2.46422E-04-1.18021E-13
 -1       227 1.42651E-02 2.77590E-04-1.22346E-13
 -1       228 1.45508E-02 3.08763E-04-1.26697E-13
 -1       229 6.08869E-04 3.13065E-04 2.95343E-17
 -1       230 9.03533E-04 4.03938E-04-7.24044E-17
 -1       231 1.19088E-03 4.64962E-04-2.67740E-16
 -1       232 1.47712E-03 5.05662E-04-5.63067E-16
 -1       233 1.76607E-03 5.32386E-04-9.61836E-16
 -1       234 2.06037E-03 5.50088E-04-1.46796E-15
 -1       235 2.36206E-03 5.63271E-04-2.08156E-15
 -1       236 2.67278E-03 5.76607E-04-2.79974E-15
 -1       237 2.99373E-03 5.95390E-04-3.62104E-15
 -1       238 3.32549E-03 6.25817E-04-4.54695E-15
 -1       239 3.66746E-03 6.74902E-04-5.57830E-15
 -1       240 4.01731E-03 7.49567E-04-6.71333E-15
 -1       241 4.37032E-03 8.54321E-04-7.95586E-15
 -1       242 4.71934E-03 9.87147E-04-9.30895E-15
 -1       243 5.05618E-03 1.13460E-03-1.07848E-14
 -1       244 5.37503E-03 1.26985E-03-1.23859E-14
 -1       245 5.67693E-03 1.35922E-03-1.41160E-14
 -1       246 5.97146E-03 1.37766E-03-1.59769E-14
 -1       247 6.27266E-03 1.32399E-03-1.79652E-14
 -1       248 6.59086E-03 1.22152E-03-2.00877E-14
 -1       249 6.92805E-03 1.10393E-03-2.23409E-14
 -1       250 7.27896E-03 9.99327E-04-2.47199E-14
 -1       251 7.63554E-03 9.22652E-04-2.72093E-14
 -1       252 7.99059E-03 8.77171E-04-2.98051E-14
 -1       253 8.33927E-03 8.59280E-04-3.25052E-14
 -1       254 8.67914E-03 8.62785E-04-3.53101E-14
 -1       255 9.00959E-03 8.81452E-04-3.82064E-14
 -1       256 9.33111E-03 9.10097E-04-4.11871E-14
 -1       257 9.64473E-03 9.44825E-04-4.42527E-14
 -1       258 9.95171E-03 9.82895E-04-4.74028E-14
 -1       259 1.02533E-02 1.02248E-03-5.06389E-14
 -1       260 1.05506E-02 1.06240E-03-5.39621E-14
 -1       261 1.08446E-02 1.10197E-03-5.73740E-14
 -1       262 1.11360E-02 1.14079E-03-6.08856E-14
 -1       263 1.14256E-02 1.17870E-03-6.44920E-14
 -1       264 1.17138E-02 1.21566E-03-6.81868E-14
 -1       265 1.20010E-02 1.25170E-03-7.19615E-14
 -1       266 1.22876E-02 1.28690E-03-7.58121E-14
 -1       267 1.25737E-02 1.32137E-03-7.97336E-14
 -1       268 1.28595E-02 1.35523E-03-8.37164E-14
 -1       269 1.31451E-02 1.38857E-03-8.77544E-14
 -1       270 1.34306E-02 1.42151E-03-9.18413E-14
 -1       271 1.37162E-02 1.45412E-03-9.59643E-14
 -1       272 1.40017E-02 1.48651E-03-1.00108E-13
 -1       273 1.42872E-02 1.51873E-03-1.04273E-13
 -1       274 1.45728E-02 1.55086E-03-1.08462E-13
 -1       275 1.48585E-02 1.58294E-03-1.12657E-13
 -1       276 1.51442E-02 1.61505E-03-1.16852E-13
 -1       277 1.51704E-02 1.55676E-03-1.18190E-13
 -1       278 1.51388E-02 1.47243E-03-1.18986E-13
 -1       279 1.51071E-02 1.38807E-03-1.19784E-13
 -1       280 1.50755E-02 1.30367E-03-1.20575E-13
 -1       281 1.50445E-02 1.22066E-03-1.21351E-13
 -1       282 1.50130E-02 1.13620E-03-1.22140E-13
 -1       283 1.49817E-02 1.05173E-03-1.22924E-13
 -1       284 1.49505E-02 9.67243E-04-1.23700E-13
 -1       285 1.49195E-02 8.82759E-04-1.24464E-13
 -1       286 1.48886E-02 7.98285E-04-1.25215E-13
 -1       287 1.48584E-02 7.15258E-04-1.25949E-13
 -1       288 1.48277E-02 6.30826E-04-1.26689E-13
 -1       289 1.47971E-02 5.46426E-04-1.27421E-13
 -1       290 1.47666E-02 4.62063E-04-1.28137E-13
 -1       291 1.46587E-02 3.85402E-04-1.27425E-13
 -1       292 7.94439E-03 2.63683E-04-2.42139E-14
 -1       293 7.81246E-03 3.54176E-04-2.38595E-14
 -1       294 7.55778E-03 5.03689E-04-2.27627E-14
 -1       295 7.23459E-03 6.61929E-04-2.17542E-14
 -1       296 6.87748E-03 8.36438E-04-2.06005E-14
 -1       297 6.49195E-03 9.94660E-04-1.93882E-14
 -1       298 6.10074E-03 1.10275E-03-1.81469E-14
 -1       299 5.72157E-03 1.13067E-03-1.69698E-14
 -1       300 5.32935E-03 1.06113E-03-1.58284E-14
 -1       301 4.91290E-03 9.05931E-04-1.48827E-14
 -1       302 4.52183E-03 7.14971E-04-1.41007E-14
 -1       303 4.14223E-03 5.26153E-04-1.35456E-14
 -1       304 3.81842E-03 3.79994E-04-1.32797E-14
 -1       305 3.59900E-03 2.50909E-04-1.30908E-14
 -1       306 3.50102E-03 1.54631E-04-1.31840E-14
 -1       307 3.54085E-03 6.56689E-05-1.32876E-14
 -1       308 3.71771E-03-5.42781E-05-1.39065E-14
 -1       309 4.00213E-03-1.74033E-04-1.44476E-14
 -1       310 4.34826E-03-3.48808E-04-1.53584E-14
 -1       311 4.73995E-03-5.17162E-04-1.63526E-14
 -1       312 5.14415E-03-6.63952E-04-1.75138E-14
 -1       313 5.51066E-03-7.30211E-04-1.87560E-14
 -1       314 5.88224E-03-7.21320E-04-1.99851E-14
 -1       315 6.24408E-03-6.32789E-04-2.10874E-14
 -1       316 6.59323E-03-5.00759E-04-2.20700E-14
 -1       317 6.93976E-03-3.44437E-04-2.29248E-14
 -1       318 7.27431E-03-1.85287E-04-2.36208E-14
 -1       319 7.57567E-03-3.90988E-05-2.41289E-14
 -1       320 7.80678E-03 9.26866E-05-2.45400E-14
 -1       321 7.93312E-03 1.78594E-04-2.44062E-14
 -1       322 4.59473E-04-1.47576E-04-2.16793E-16
 -1       323 4.79718E-04-1.96559E-04-1.97901E-16
 -1       324 4.39240E-04-7.89034E-05-2.24921E-16
 -1       325 4.33500E-04-5.28103E-05-2.21353E-16
 -1       326 4.29708E-04-2.99379E-05-2.15140E-16
 -1       327 4.27770E-04-8.96826E-06-2.06913E-16
 -1       328 4.27712E-04 1.13224E-05-1.96911E-16
 -1       329 4.29577E-04 3.21579E-05-1.84463E-16
 -1       330 4.33326E-04 5.44197E-05-1.69108E-16
 -1       331 4.39225E-04 8.02845E-05-1.49464E-16
 -1       332 4.47697E-04 1.11147E-04-1.23718E-16
 -1       333 4.60206E-04 1.49523E-04-8.94094E-17
 -1       334 4.81531E-04 1.99887E-04-4.26193E-17
 -1       335 5.37755E-04 2.52371E-04-1.30579E-17
 -1       336 8.35363E-04 3.44925E-04-1.29809E-16
 -1       337 8.74978E-04-3.27621E-04-5.86404E-16
 -1       338 1.16782E-03-3.86141E-04-1.03254E-15
 -1       339 1.45915E-03-4.25623E-04-1.60365E-15
 -1       340 1.75096E-03-4.51837E-04-2.29683E-15
 -1       341 2.04488E-03-4.69590E-04-3.11137E-15
 -1       342 2.34221E-03-4.83245E-04-4.04437E-15
 -1       343 2.64395E-03-4.97075E-04-5.09467E-15
 -1       344 2.95079E-03-5.15465E-04-6.26191E-15
 -1       345 3.26307E-03-5.42881E-04-7.54444E-15
 -1       346 3.58061E-03-5.83485E-04-8.93682E-15
 -1       347 3.90241E-03-6.40225E-04-1.04418E-14
 -1       348 4.22637E-03-7.13253E-04-1.20611E-14
 -1       349 4.54909E-03-7.97832E-04-1.37956E-14
 -1       350 4.86656E-03-8.82558E-04-1.56476E-14
 -1       351 5.17589E-03-9.49844E-04-1.76172E-14
 -1       352 5.47763E-03-9.80528E-04-1.97042E-14
 -1       353 5.77654E-03-9.62079E-04-2.19060E-14
 -1       354 6.07914E-03-8.95018E-04-2.42163E-14
 -1       355 6.38992E-03-7.92771E-04-2.66402E-14
 -1       356 6.70916E-03-6.74726E-04-2.91780E-14
 -1       357 7.03385E-03-5.58226E-04-3.18298E-14
 -1       358 7.36004E-03-4.54348E-04-3.45952E-14
 -1       359 7.68450E-03-3.67723E-04-3.74606E-14
 -1       360 8.00524E-03-2.98387E-04-4.04186E-14
 -1       361 8.32137E-03-2.43906E-04-4.34699E-14
 -1       362 8.63271E-03-2.00951E-04-4.66140E-14
 -1       363 8.93950E-03-1.66230E-04-4.98454E-14
 -1       364 9.24218E-03-1.36933E-04-5.31620E-14
 -1       365 9.54130E-03-1.10865E-04-5.65629E-14
 -1       366 9.83739E-03-8.64191E-05-6.00440E-14
 -1       367 1.01310E-02-6.24940E-05-6.36014E-14
 -1       368 1.04226E-02-3.83790E-05-6.72286E-14
 -1       369 1.07126E-02-1.36555E-05-7.09250E-14
 -1       370 1.10013E-02 1.18892E-05-7.46838E-14
 -1       371 1.12891E-02 3.83283E-05-7.84981E-14
 -1       372 1.15762E-02 6.56467E-05-8.23765E-14
 -1       373 1.18628E-02 9.37764E-05-8.63046E-14
 -1       374 1.21490E-02 1.22622E-04-9.02914E-14
 -1       375 1.24350E-02 1.52079E-04-9.43382E-14
 -1       376 1.27208E-02 1.82040E-04-9.84393E-14
 -1       377 1.30065E-02 2.12405E-04-1.02592E-13
 -1       378 1.32922E-02 2.43084E-04-1.06786E-13
 -1       379 1.35778E-02 2.73993E-04-1.11025E-13
 -1       380 1.38635E-02 3.05060E-04-1.15290E-13
 -1       381 1.41491E-02 3.36219E-04-1.19590E-13
 -1       382 1.44039E-02 3.60817E-04-1.23495E-13
 -1       383 1.12807E-03 4.08132E-04-3.37729E-16
 -1       384 1.41869E-03 4.50238E-04-6.43504E-16
 -1       385 1.71019E-03 4.77515E-04-1.05118E-15
 -1       386 2.00487E-03 4.94958E-04-1.56498E-15
 -1       387 2.30458E-03 5.07077E-04-2.18478E-15
 -1       388 2.61083E-03 5.18489E-04-2.90941E-15
 -1       389 2.92486E-03 5.34385E-04-3.73698E-15
 -1       390 3.24762E-03 5.60871E-04-4.66863E-15
 -1       391 3.57951E-03 6.05000E-04-5.70410E-15
 -1       392 3.92009E-03 6.74125E-04-6.84322E-15
 -1       393 4.26743E-03 7.73937E-04-8.08892E-15
 -1       394 4.61736E-03 9.04590E-04-9.44393E-15
 -1       395 4.96338E-03 1.05521E-03-1.09175E-14
 -1       396 5.29861E-03 1.19988E-03-1.25157E-14
 -1       397 5.62069E-03 1.30184E-03-1.42436E-14
 -1       398 5.93543E-03 1.33005E-03-1.61016E-14
 -1       399 6.25448E-03 1.27909E-03-1.80914E-14
 -1       400 6.58629E-03 1.17362E-03-2.02153E-14
 -1       401 6.93101E-03 1.05102E-03-2.24694E-14
 -1       402 7.28262E-03 9.42176E-04-2.48463E-14
 -1       403 7.63418E-03 8.62783E-04-2.73363E-14
 -1       404 7.98083E-03 8.15920E-04-2.99303E-14
 -1       405 8.32007E-03 7.97573E-04-3.26293E-14
 -1       406 8.65107E-03 8.01199E-04-3.54312E-14
 -1       407 8.97405E-03 8.20324E-04-3.83265E-14
 -1       408 9.28973E-03 8.49601E-04-4.13049E-14
 -1       409 9.59906E-03 8.85028E-04-4.43698E-14
 -1       410 9.90303E-03 9.23793E-04-4.75167E-14
 -1       411 1.02026E-02 9.64021E-04-5.07501E-14
 -1       412 1.04987E-02 1.00452E-03-5.40713E-14
 -1       413 1.07919E-02 1.04458E-03-5.74803E-14
 -1       414 1.10830E-02 1.08383E-03-6.09876E-14
 -1       415 1.13725E-02 1.12208E-03-6.45836E-14
 -1       416 1.16607E-02 1.15931E-03-6.82691E-14
 -1       417 1.19481E-02 1.19556E-03-7.20337E-14
 -1       418 1.22348E-02 1.23093E-03-7.58716E-14
 -1       419 1.25211E-02 1.26553E-03-7.97851E-14
 -1       420 1.28071E-02 1.29948E-03-8.37624E-14
 -1       421 1.30928E-02 1.33289E-03-8.77952E-14
 -1       422 1.33785E-02 1.36588E-03-9.18721E-14
 -1       423 1.36641E-02 1.39852E-03-9.59846E-14
 -1       424 1.39498E-02 1.43092E-03-1.00123E-13
 -1       425 1.42354E-02 1.46315E-03-1.04287E-13
 -1       426 1.45210E-02 1.49528E-03-1.08471E-13
 -1       427 1.48067E-02 1.52736E-03-1.12667E-13
 -1       428 1.49885E-02 1.54205E-03-1.15428E-13
 -1       429 1.48438E-02 1.31814E-03-1.16524E-13
 -1       430 1.48755E-02 1.40249E-03-1.15739E-13
 -1       431 1.49320E-02 1.47227E-03-1.15584E-13
 -1       432 1.48127E-02 1.23520E-03-1.17295E-13
 -1       433 1.47813E-02 1.15082E-03-1.18074E-13
 -1       434 1.47499E-02 1.06644E-03-1.18849E-13
 -1       435 1.47186E-02 9.82047E-04-1.19614E-13
 -1       436 1.46875E-02 8.97655E-04-1.20376E-13
 -1       437 1.46566E-02 8.13265E-04-1.21127E-13
 -1       438 1.46263E-02 7.30309E-04-1.21856E-13
 -1       439 1.45955E-02 6.45933E-04-1.22591E-13
 -1       440 1.45649E-02 5.61569E-04-1.23312E-13
 -1       441 1.45344E-02 4.77224E-04-1.24020E-13
 -1       442 7.65534E-03 3.87603E-04-2.41573E-14
 -1       443 7.97072E-03 2.27426E-04-2.54807E-14
 -1       444 7.92686E-03 2.74971E-04-2.53149E-14
 -1       445 7.36150E-03 5.21629E-04-2.30383E-14
 -1       446 6.98546E-03 7.14155E-04-2.16580E-14
 -1       447 4.47386E-04-1.09688E-04-2.24159E-16
 -1       448 6.24785E-03 1.07677E-03-1.88537E-14
 -1       449 5.91270E-03 1.16040E-03-1.74705E-14
 -1       450 5.57310E-03 1.14278E-03-1.60539E-14
 -1       451 5.17864E-03 9.88936E-04-1.48047E-14
 -1       452 4.80995E-03 7.88310E-04-1.38501E-14
 -1       453 4.38695E-03 5.62559E-04-1.31782E-14
 -1       454 3.98699E-03 3.69675E-04-1.27009E-14
 -1       455 3.71227E-03 2.55521E-04-1.25209E-14
 -1       456 3.51524E-03 1.64560E-04-1.23397E-14
 -1       457 3.47861E-03 1.17579E-04-1.24299E-14
 -1       458 3.63445E-03 3.75400E-05-1.30469E-14
 -1       459 3.85887E-03-5.18283E-05-1.35534E-14
 -1       460 4.23818E-03-2.19183E-04-1.44299E-14
 -1       461 4.59301E-03-3.97318E-04-1.54152E-14
 -1       462 4.97238E-03-5.86289E-04-1.66311E-14
 -1       463 5.39160E-03-7.41663E-04-1.82685E-14
 -1       464 5.67454E-03-7.70301E-04-1.94798E-14
 -1       465 6.02476E-03-7.03350E-04-2.09923E-14
 -1       466 6.34627E-03-5.67391E-04-2.21676E-14
 -1       467 6.68769E-03-3.90003E-04-2.32673E-14
 -1       468 7.04188E-03-2.03506E-04-2.42073E-14
 -1       469 7.38699E-03-3.66981E-05-2.49397E-14
 -1       470 7.65648E-03 7.83163E-05-2.53608E-14
 -1       471 7.90592E-03 1.81909E-04-2.56118E-14
 -1       472 6.62039E-03 9.07750E-04-2.02724E-14
 -1       473 7.83667E-03 3.12935E-04-2.56088E-14
 -1       474 7.81021E-03 1.57995E-04-2.64328E-14
 -1       475 5.19538E-03-6.87482E-04-1.73573E-14
 -1       476 3.50966E-03 8.80875E-05-1.21867E-14
 -1       477 9.43771E-04 3.10915E-04-3.25423E-16
 -1       478 6.56126E-04-6.03401E-05-4.62246E-16
 -1       479 6.64418E-04-9.58098E-05-4.71452E-16
 -1       480 6.49283E-04 1.86314E-06-4.31052E-16
 -1       481 6.50823E-04 3.19394E-05-4.09324E-16
 -1       482 6.55657E-04 6.30386E-05-3.83130E-16
 -1       483 6.64054E-04 9.80162E-05-3.50292E-16
 -1       484 6.76287E-04 1.38345E-04-3.09299E-16
 -1       485 6.93405E-04 1.86326E-04-2.57000E-16
 -1       486 1.23557E-03 3.60150E-04-6.13445E-16
 -1       487 9.87729E-04-2.93054E-04-8.28341E-16
 -1       488 6.77784E-03 8.14015E-04-2.13249E-14
 -1       489 1.27842E-03-3.37799E-04-1.33853E-15
 -1       490 1.56957E-03-3.67985E-04-1.96886E-15
 -1       491 1.86160E-03-3.87774E-04-2.71849E-15
 -1       492 2.15537E-03-4.01219E-04-3.58394E-15
 -1       493 2.45187E-03-4.12309E-04-4.56330E-15
 -1       494 2.75222E-03-4.25153E-04-5.65804E-15
 -1       495 3.05763E-03-4.44091E-04-6.86494E-15
 -1       496 3.36935E-03-4.73651E-04-8.18371E-15
 -1       497 3.68839E-03-5.18153E-04-9.61268E-15
 -1       498 4.01484E-03-5.80711E-04-1.11520E-14
 -1       499 4.34694E-03-6.61271E-04-1.28049E-14
 -1       500 4.68029E-03-7.53577E-04-1.45731E-14
 -1       501 5.00887E-03-8.42215E-04-1.64606E-14
 -1       502 5.32833E-03-9.03699E-04-1.84672E-14
 -1       503 5.64062E-03-9.14824E-04-2.05928E-14
 -1       504 5.95334E-03-8.66271E-04-2.28334E-14
 -1       505 6.27387E-03-7.68825E-04-2.51882E-14
 -1       506 6.60352E-03-6.46236E-04-2.76562E-14
 -1       507 6.93777E-03-5.21730E-04-3.02390E-14
 -1       508 7.27060E-03-4.10068E-04-3.29339E-14
 -1       509 7.59785E-03-3.17198E-04-3.57341E-14
 -1       510 7.91794E-03-2.43240E-04-3.86307E-14
 -1       511 8.23103E-03-1.85481E-04-4.16178E-14
 -1       512 8.53813E-03-1.40305E-04-4.46966E-14
 -1       513 8.84039E-03-1.04195E-04-4.78645E-14
 -1       514 9.13883E-03-7.41536E-05-5.11167E-14
 -1       515 9.43431E-03-4.78245E-05-5.44568E-14
 -1       516 9.72747E-03-2.34633E-05-5.78785E-14
 -1       517 1.00188E-02 1.51359E-07-6.13800E-14
 -1       518 1.03088E-02 2.38244E-05-6.49547E-14
 -1       519 1.05976E-02 4.80465E-05-6.86005E-14
 -1       520 1.08856E-02 7.30813E-05-7.23153E-14
 -1       521 1.11730E-02 9.90359E-05-7.60923E-14
 -1       522 1.14598E-02 1.25915E-04-7.99305E-14
 -1       523 1.17463E-02 1.53661E-04-8.38265E-14
 -1       524 1.20325E-02 1.82182E-04-8.77729E-14
 -1       525 1.23186E-02 2.11370E-04-9.17765E-14
 -1       526 1.26044E-02 2.41116E-04-9.58411E-14
 -1       527 1.28903E-02 2.71315E-04-9.99593E-14
 -1       528 1.31760E-02 3.01870E-04-1.04119E-13
 -1       529 1.34617E-02 3.32694E-04-1.08324E-13
 -1       530 1.37474E-02 3.63711E-04-1.12570E-13
 -1       531 1.40331E-02 3.94851E-04-1.16840E-13
 -1       532 1.81991E-03 4.13288E-04-1.48928E-15
 -1       533 2.11452E-03 4.26130E-04-2.08304E-15
 -1       534 2.41234E-03 4.35521E-04-2.78056E-15
 -1       535 2.71461E-03 4.46057E-04-3.58168E-15
 -1       536 3.02271E-03 4.63051E-04-4.48660E-15
 -1       537 3.33837E-03 4.92817E-04-5.49505E-15
 -1       538 3.66365E-03 5.42695E-04-6.60584E-15
 -1       539 4.00063E-03 6.20424E-04-7.81971E-15
 -1       540 4.35016E-03 7.32045E-04-9.14036E-15
 -1       541 4.70942E-03 8.77042E-04-1.05720E-14
 -1       542 5.07020E-03 1.04035E-03-1.21214E-14
 -1       543 5.42142E-03 1.18508E-03-1.37992E-14
 -1       544 5.76128E-03 1.26300E-03-1.56077E-14
 -1       545 6.09776E-03 1.24448E-03-1.75536E-14
 -1       546 6.44555E-03 1.14596E-03-1.96348E-14
 -1       547 6.80521E-03 1.01302E-03-2.18486E-14
 -1       548 7.16730E-03 8.89449E-04-2.41862E-14
 -1       549 7.52204E-03 7.96769E-04-2.66416E-14
 -1       550 7.86509E-03 7.39578E-04-2.92033E-14
 -1       551 8.19635E-03 7.13658E-04-3.18655E-14
 -1       552 8.51769E-03 7.11965E-04-3.46286E-14
 -1       553 8.83124E-03 7.27581E-04-3.74903E-14
 -1       554 9.13876E-03 7.54768E-04-4.04366E-14
 -1       555 9.44156E-03 7.89165E-04-4.34684E-14
 -1       556 9.74061E-03 8.27648E-04-4.65868E-14
 -1       557 1.00367E-02 8.68084E-04-4.97900E-14
 -1       558 1.03303E-02 9.09083E-04-5.30768E-14
 -1       559 1.06219E-02 9.49792E-04-5.64524E-14
 -1       560 1.09121E-02 9.89729E-04-5.99189E-14
 -1       561 1.12010E-02 1.02866E-03-6.34769E-14
 -1       562 1.14890E-02 1.06652E-03-6.71205E-14
 -1       563 1.17763E-02 1.10332E-03-7.08470E-14
 -1       564 1.20631E-02 1.13917E-03-7.46468E-14
 -1       565 1.23495E-02 1.17416E-03-7.85256E-14
 -1       566 1.26356E-02 1.20843E-03-8.24710E-14
 -1       567 1.29216E-02 1.24209E-03-8.64795E-14
 -1       568 1.32074E-02 1.27527E-03-9.05276E-14
 -1       569 1.34931E-02 1.30807E-03-9.46187E-14
 -1       570 1.37788E-02 1.34057E-03-9.87400E-14
 -1       571 1.40645E-02 1.37286E-03-1.02889E-13
 -1       572 1.43502E-02 1.40501E-03-1.07065E-13
 -1       573 1.46359E-02 1.43709E-03-1.11259E-13
 -1       574 1.45495E-02 1.16538E-03-1.14026E-13
 -1       575 1.45181E-02 1.08107E-03-1.14794E-13
 -1       576 1.46122E-02 1.33259E-03-1.12487E-13
 -1       577 1.45808E-02 1.24899E-03-1.13258E-13
 -1       578 1.44868E-02 9.96764E-04-1.15555E-13
 -1       579 1.44556E-02 9.12458E-04-1.16307E-13
 -1       580 1.44246E-02 8.28153E-04-1.17053E-13
 -1       581 1.43942E-02 7.45275E-04-1.17777E-13
 -1       582 1.43634E-02 6.60964E-04-1.18504E-13
 -1       583 1.43328E-02 5.76650E-04-1.19223E-13
 -1       584 1.43022E-02 4.92338E-04-1.19925E-13
 -1       585 8.00915E-03 2.49552E-04-2.70101E-14
 -1       586 7.51830E-03 4.40283E-04-2.45523E-14
 -1       587 1.52732E-03 3.92733E-04-1.00023E-15
 -1       588 6.44507E-03 9.94763E-04-1.98573E-14
 -1       589 7.21152E-03-8.33069E-05-2.58265E-14
 -1       590 3.58767E-03 1.84688E-04-1.16461E-14
 -1       591 6.51079E-04-2.83430E-05-4.48697E-16
 -1       592 5.79818E-03 1.19282E-03-1.66836E-14
 -1       593 4.41780E-03-2.99061E-04-1.44352E-14
 -1       594 6.06698E-03 1.15682E-03-1.80338E-14
 -1       595 5.37314E-03 1.08580E-03-1.47599E-14
 -1       596 5.02160E-03 8.98145E-04-1.37146E-14
 -1       597 4.58114E-03 6.40497E-04-1.27095E-14
 -1       598 4.17363E-03 4.25416E-04-1.21791E-14
 -1       599 3.79144E-03 2.59268E-04-1.18138E-14
 -1       600 3.44995E-03 1.30209E-04-1.15531E-14
 -1       601 3.70581E-03 1.50514E-05-1.25073E-14
 -1       602 6.17640E-03-6.41353E-04-2.21588E-14
 -1       603 4.01919E-03-1.08686E-04-1.33444E-14
 -1       604 4.78401E-03-4.93069E-04-1.56295E-14
 -1       605 5.54031E-03-7.82635E-04-1.89993E-14
 -1       606 5.82685E-03-7.69016E-04-2.05262E-14
 -1       607 6.49117E-03-4.74250E-04-2.35625E-14
 -1       608 6.84649E-03-2.74140E-04-2.47517E-14
 -1       609 7.53430E-03 5.90250E-05-2.63353E-14
 -1       610 7.99053E-03 2.24931E-04-2.71454E-14
 -1       611 7.19965E-04-2.25597E-04-4.73627E-16
 -1       612 7.12764E-04 2.64824E-04-1.51456E-16
 -1       613 7.16533E-03 6.06440E-04-2.30223E-14
 -1       614 6.76206E-04-1.36371E-04-4.74782E-16
 -1       615 7.73991E-03 3.65247E-04-2.60089E-14
 -1       616 4.98636E-03-6.09601E-04-1.63216E-14
 -1       617 7.98730E-03 2.78093E-04-2.73084E-14
 -1       618 5.34962E-03-7.54850E-04-1.80601E-14
 -1       619 1.42257E-02 4.14269E-04-1.19762E-13
 -1       620 6.95580E-04-1.77330E-04-4.78574E-16
 -1       621 3.42584E-03 1.06202E-04-1.13145E-14
 -1       622 8.80524E-04 6.06976E-05-6.87137E-16
 -1       623 8.75802E-04 2.15152E-05-7.25545E-16
 -1       624 9.05229E-04 1.49134E-04-5.84856E-16
 -1       625 9.25788E-04 2.02926E-04-5.15538E-16
 -1       626 1.05800E-03 2.73804E-04-5.57453E-16
 -1       627 6.31727E-03 1.08791E-03-1.92721E-14
 -1       628 7.75076E-03 1.39861E-04-2.78635E-14
 -1       629 6.70924E-03-3.70608E-04-2.54508E-14
 -1       630 1.39169E-03-2.87541E-04-1.65517E-15
 -1       631 1.68026E-03-3.09235E-04-2.34057E-15
 -1       632 1.96986E-03-3.23114E-04-3.14034E-15
 -1       633 2.26096E-03-3.32499E-04-4.05203E-15
 -1       634 2.55452E-03-3.40901E-04-5.07590E-15
 -1       635 2.85202E-03-3.52108E-04-6.21035E-15
 -1       636 3.15549E-03-3.70340E-04-7.45539E-15
 -1       637 3.46744E-03-4.00333E-04-8.80898E-15
 -1       638 3.79039E-03-4.47172E-04-1.02708E-14
 -1       639 4.12559E-03-5.15341E-04-1.18431E-14
 -1       640 4.47105E-03-6.05953E-04-1.35270E-14
 -1       641 4.81947E-03-7.11262E-04-1.53285E-14
 -1       642 5.16231E-03-8.08208E-04-1.72506E-14
 -1       643 5.49146E-03-8.60770E-04-1.92961E-14
 -1       644 5.81629E-03-8.41612E-04-2.14631E-14
 -1       645 6.14714E-03-7.51214E-04-2.37499E-14
 -1       646 6.48989E-03-6.19749E-04-2.61508E-14
 -1       647 6.83880E-03-4.82386E-04-2.86662E-14
 -1       648 7.18379E-03-3.60754E-04-3.12919E-14
 -1       649 7.51822E-03-2.62100E-04-3.40259E-14
 -1       650 7.84039E-03-1.85287E-04-3.68593E-14
 -1       651 8.15171E-03-1.26168E-04-3.97850E-14
 -1       652 8.45470E-03-8.02621E-05-4.27991E-14
 -1       653 8.75179E-03-4.36786E-05-4.59037E-14
 -1       654 9.04491E-03-1.33109E-05-4.90955E-14
 -1       655 9.33546E-03 1.32124E-05-5.23740E-14
 -1       656 9.62436E-03 3.76360E-05-5.57356E-14
 -1       657 9.91221E-03 6.11924E-05-5.91769E-14
 -1       658 1.01994E-02 8.47101E-05-6.26980E-14
 -1       659 1.04861E-02 1.08709E-04-6.62940E-14
 -1       660 1.07725E-02 1.33481E-04-6.99616E-14
 -1       661 1.10587E-02 1.59160E-04-7.36959E-14
 -1       662 1.13448E-02 1.85767E-04-7.74926E-14
 -1       663 1.16308E-02 2.13259E-04-8.13511E-14
 -1       664 1.19167E-02 2.41552E-04-8.52638E-14
 -1       665 1.22026E-02 2.70542E-04-8.92286E-14
 -1       666 1.24884E-02 3.00122E-04-9.32543E-14
 -1       667 1.27741E-02 3.30187E-04-9.73369E-14
 -1       668 1.30599E-02 3.60637E-04-1.01466E-13
 -1       669 1.33457E-02 3.91386E-04-1.05635E-13
 -1       670 1.36314E-02 4.22355E-04-1.09853E-13
 -1       671 1.39171E-02 4.53475E-04-1.14104E-13
 -1       672 2.21573E-03 3.58522E-04-2.63071E-15
 -1       673 4.55824E-03-4.03230E-04-1.45155E-14
 -1       674 1.92529E-03 3.49337E-04-1.95911E-15
 -1       675 2.80246E-03 3.75952E-04-4.28266E-15
 -1       676 3.10185E-03 3.93517E-04-5.26479E-15
 -1       677 3.40896E-03 4.24790E-04-6.34809E-15
 -1       678 3.72832E-03 4.77381E-04-7.53331E-15
 -1       679 4.06539E-03 5.60433E-04-8.82120E-15
 -1       680 4.42434E-03 6.83185E-04-1.02143E-14
 -1       681 4.80238E-03 8.47919E-04-1.17165E-14
 -1       682 5.56019E-03 1.18014E-03-1.50998E-14
 -1       683 7.05779E-03 8.31252E-04-2.35108E-14
 -1       684 7.42420E-03 7.24243E-04-2.59323E-14
 -1       685 7.76874E-03 6.59892E-04-2.84627E-14
 -1       686 8.09403E-03 6.30007E-04-3.10928E-14
 -1       687 8.40539E-03 6.25528E-04-3.38227E-14
 -1       688 8.70780E-03 6.38857E-04-3.66459E-14
 -1       689 9.00471E-03 6.64189E-04-3.95591E-14
 -1       690 9.29831E-03 6.97216E-04-4.25577E-14
 -1       691 9.58982E-03 7.34818E-04-4.56429E-14
 -1       692 9.87995E-03 7.74802E-04-4.88170E-14
 -1       693 1.01691E-02 8.15688E-04-5.20757E-14
 -1       694 1.04575E-02 8.56520E-04-5.54208E-14
 -1       695 1.07453E-02 8.96728E-04-5.88503E-14
 -1       696 1.10326E-02 9.36010E-04-6.23704E-14
 -1       697 1.13195E-02 9.74244E-04-6.59773E-14
 -1       698 1.16061E-02 1.01142E-03-6.96605E-14
 -1       699 1.18924E-02 1.04761E-03-7.34254E-14
 -1       700 1.21786E-02 1.08291E-03-7.72680E-14
 -1       701 1.24646E-02 1.11744E-03-8.11839E-14
 -1       702 1.27505E-02 1.15132E-03-8.51625E-14
 -1       703 1.30364E-02 1.18467E-03-8.91876E-14
 -1       704 1.33222E-02 1.21760E-03-9.32562E-14
 -1       705 1.36079E-02 1.25020E-03-9.73601E-14
 -1       706 1.38937E-02 1.28256E-03-1.01498E-13
 -1       707 1.41794E-02 1.31474E-03-1.05664E-13
 -1       708 1.43958E-02 1.32369E-03-1.09067E-13
 -1       709 7.38320E-03 5.38641E-04-2.47268E-14
 -1       710 1.42237E-02 9.27172E-04-1.12269E-13
 -1       711 1.41097E-02 4.72895E-04-1.17007E-13
 -1       712 1.42863E-02 1.09562E-03-1.10763E-13
 -1       713 1.41926E-02 8.42959E-04-1.13007E-13
 -1       714 1.42550E-02 1.01139E-03-1.11521E-13
 -1       715 1.41622E-02 7.60169E-04-1.13724E-13
 -1       716 1.41313E-02 6.75939E-04-1.14448E-13
 -1       717 1.41006E-02 5.91693E-04-1.15159E-13
 -1       718 9.56477E-04-2.35338E-04-8.35696E-16
 -1       719 5.65185E-03-8.06858E-04-1.98367E-14
 -1       720 7.02163E-03-1.95393E-04-2.65485E-14
 -1       721 4.16047E-03-2.05027E-04-1.31838E-14
 -1       722 8.06982E-03 2.45498E-04-2.87194E-14
 -1       723 7.44115E-03 1.53901E-05-2.74800E-14
 -1       724 3.63742E-03 2.08297E-04-1.07977E-14
 -1       725 1.63570E-03 3.34563E-04-1.39046E-15
 -1       726 2.50773E-03 3.65965E-04-3.40492E-15
 -1       727 1.17363E-03-2.65323E-04-1.21148E-15
 -1       728 1.34657E-03 3.10550E-04-9.24103E-16
 -1       729 6.97898E-03 7.31490E-04-2.26442E-14
 -1       730 8.90304E-04 1.02497E-04-6.41133E-16
 -1       731 8.91238E-04-9.89398E-05-8.00317E-16
 -1       732 7.98063E-03 2.11083E-04-2.85983E-14
 -1       733 3.45212E-03 1.45547E-04-1.07157E-14
 -1       734 3.51595E-03 6.03190E-05-1.14836E-14
 -1       735 4.75923E-03 7.71221E-04-1.22818E-14
 -1       736 5.14799E-03 9.94000E-04-1.34719E-14
 -1       737 3.94254E-03 3.26789E-04-1.11407E-14
 -1       738 4.30385E-03 5.04593E-04-1.15279E-14
 -1       739 6.64226E-03 9.16669E-04-2.09685E-14
 -1       740 3.80595E-03-5.18466E-05-1.21534E-14
 -1       741 6.02584E-03-7.23677E-04-2.20431E-14
 -1       742 6.29017E-03-6.00722E-04-2.34428E-14
 -1       743 9.05803E-04-1.46390E-04-8.10702E-16
 -1       744 8.76131E-04-1.69072E-05-7.57142E-16
 -1       745 7.62252E-03 4.53351E-04-2.61889E-14
 -1       746 1.43176E-02 1.17916E-03-1.10005E-13
 -1       747 6.67534E-03 9.77149E-04-2.12080E-14
 -1       748 1.43566E-02 1.25142E-03-1.09537E-13
 -1       749 5.14073E-03-7.01778E-04-1.69911E-14
 -1       750 7.94325E-03 3.19742E-04-2.77169E-14
 -1       751 8.09494E-03 2.69986E-04-2.90262E-14
 -1       752 4.74928E-03-5.23036E-04-1.51702E-14
 -1       753 8.81337E-04-5.63783E-05-7.81893E-16
 -1       754 3.37685E-03 1.20219E-04-1.04877E-14
 -1       755 3.57482E-03 4.15232E-06-1.11415E-14
 -1       756 1.40088E-02 5.22576E-04-1.14635E-13
 -1       757 6.52633E-03-5.21848E-04-2.54646E-14
 -1       758 1.15643E-03 2.03918E-04-8.67040E-16
 -1       759 3.44759E-03 1.70405E-04-9.76871E-15
 -1       760 1.78980E-03-2.49967E-04-2.71647E-15
 -1       761 2.07513E-03-2.58416E-04-3.56192E-15
 -1       762 2.36157E-03-2.63739E-04-4.51707E-15
 -1       763 2.65020E-03-2.68852E-04-5.58133E-15
 -1       764 2.94297E-03-2.77094E-04-6.75382E-15
 -1       765 3.24292E-03-2.92544E-04-8.03455E-15
 -1       766 3.55417E-03-3.20503E-04-9.42061E-15
 -1       767 3.88136E-03-3.67925E-04-1.09134E-14
 -1       768 4.22761E-03-4.42880E-04-1.25140E-14
 -1       769 4.59075E-03-5.49419E-04-1.42288E-14
 -1       770 6.89818E-03-3.63659E-04-2.79540E-14
 -1       771 7.25564E-03-2.38508E-04-3.05523E-14
 -1       772 7.59175E-03-1.46728E-04-3.32562E-14
 -1       773 7.90847E-03-7.98081E-05-3.60554E-14
 -1       774 8.21067E-03-2.96866E-05-3.89488E-14
 -1       775 8.50330E-03 9.48595E-06-4.19306E-14
 -1       776 8.79021E-03 4.16395E-05-4.50012E-14
 -1       777 9.07406E-03 6.94287E-05-4.81584E-14
 -1       778 9.35654E-03 9.46883E-05-5.14017E-14
 -1       779 9.63867E-03 1.18701E-04-5.47296E-14
 -1       780 9.92098E-03 1.42353E-04-5.81382E-14
 -1       781 1.02037E-02 1.66234E-04-6.16277E-14
 -1       782 1.04870E-02 1.90709E-04-6.51940E-14
 -1       783 1.07708E-02 2.15979E-04-6.88358E-14
 -1       784 1.10551E-02 2.42122E-04-7.25486E-14
 -1       785 1.13397E-02 2.69138E-04-7.63240E-14
 -1       786 1.16247E-02 2.96973E-04-8.01583E-14
 -1       787 1.19099E-02 3.25545E-04-8.40534E-14
 -1       788 1.21953E-02 3.54755E-04-8.80024E-14
 -1       789 1.24808E-02 3.84505E-04-9.20118E-14
 -1       790 1.27664E-02 4.14698E-04-9.60784E-14
 -1       791 1.30521E-02 4.45245E-04-1.00191E-13
 -1       792 1.33378E-02 4.76067E-04-1.04345E-13
 -1       793 1.36235E-02 5.07094E-04-1.08540E-13
 -1       794 1.38162E-02 5.14818E-04-1.11579E-13
 -1       795 3.16325E-03 3.25053E-04-6.07078E-15
 -1       796 2.87604E-03 3.08554E-04-5.01378E-15
 -1       797 3.76802E-03 4.05287E-04-8.48527E-15
 -1       798 4.10279E-03 4.90042E-04-9.84389E-15
 -1       799 7.20858E-03 6.73250E-04-2.41958E-14
 -1       800 8.31386E-03 5.40426E-04-3.30072E-14
 -1       801 8.60218E-03 5.53874E-04-3.57974E-14
 -1       802 8.88585E-03 5.78389E-04-3.86782E-14
 -1       803 9.16784E-03 6.10164E-04-4.16411E-14
 -1       804 9.44965E-03 6.46488E-04-4.46927E-14
 -1       805 9.73194E-03 6.85392E-04-4.78333E-14
 -1       806 1.00149E-02 7.25475E-04-5.10623E-14
 -1       807 1.02985E-02 7.65781E-04-5.43766E-14
 -1       808 1.05827E-02 8.05692E-04-5.77781E-14
 -1       809 1.08674E-02 8.44850E-04-6.12607E-14
 -1       810 1.11524E-02 8.83078E-04-6.48320E-14
 -1       811 1.14377E-02 9.20328E-04-6.84835E-14
 -1       812 1.17231E-02 9.56628E-04-7.22092E-14
 -1       813 1.20086E-02 9.92057E-04-7.60173E-14
 -1       814 1.22943E-02 1.02672E-03-7.98980E-14
 -1       815 1.25799E-02 1.06073E-03-8.38450E-14
 -1       816 1.28656E-02 1.09419E-03-8.78482E-14
 -1       817 1.31514E-02 1.12720E-03-9.18943E-14
 -1       818 1.34371E-02 1.15987E-03-9.59801E-14
 -1       819 1.37228E-02 1.19228E-03-1.00106E-13
 -1       820 1.40086E-02 1.22450E-03-1.04263E-13
 -1       821 1.41826E-02 1.23798E-03-1.06896E-13
 -1       822 1.39300E-02 7.74275E-04-1.09716E-13
 -1       823 1.38685E-02 6.06708E-04-1.11127E-13
 -1       824 1.39610E-02 8.58385E-04-1.08992E-13
 -1       825 1.74203E-03 2.77083E-04-1.81474E-15
 -1       826 6.94551E-03-2.84285E-04-2.73528E-14
 -1       827 1.38992E-02 6.90506E-04-1.10427E-13
 -1       828 4.01386E-03 3.99323E-04-1.03463E-14
 -1       829 8.01572E-03 5.43683E-04-3.03109E-14
 -1       830 7.69952E-03 5.72440E-04-2.77070E-14
 -1       831 3.89245E-03-1.46567E-04-1.18715E-14
 -1       832 6.18605E-03 1.14944E-03-1.85056E-14
 -1       833 1.24900E-03 2.54957E-04-9.02219E-16
 -1       834 3.45819E-03 3.54568E-04-7.22833E-15
 -1       835 8.10807E-03 2.33380E-04-3.03353E-14
 -1       836 2.02588E-03 2.87189E-04-2.46065E-15
 -1       837 4.28822E-03-3.29506E-04-1.32037E-14
 -1       838 3.71957E-03 2.68387E-04-1.00317E-14
 -1       839 1.50522E-03-2.35740E-04-1.98158E-15
 -1       840 9.29281E-04-1.88365E-04-8.26785E-16
 -1       841 4.42495E-03 6.20261E-04-1.09367E-14
 -1       842 7.92611E-03 1.71746E-04-3.00832E-14
 -1       843 7.68588E-03 7.97496E-05-2.96819E-14
 -1       844 7.33004E-03-8.09909E-05-2.87122E-14
 -1       845 1.10730E-03 4.87353E-05-1.08312E-15
 -1       846 3.37703E-03 8.06632E-05-1.05520E-14
 -1       847 1.10446E-03 3.25944E-06-1.13288E-15
 -1       848 1.13349E-03 1.47021E-04-9.52367E-16
 -1       849 7.45170E-03 5.73479E-04-2.56474E-14
 -1       850 7.86323E-03 3.89852E-04-2.79073E-14
 -1       851 3.34090E-03 1.38905E-04-9.55550E-15
 -1       852 1.40545E-02 1.10971E-03-1.06758E-13
 -1       853 1.29009E-03-2.21004E-04-1.49812E-15
 -1       854 6.33082E-03-6.16612E-04-2.42991E-14
 -1       855 2.30912E-03 2.93581E-04-3.20921E-15
 -1       856 8.17434E-03 2.59161E-04-3.06562E-14
 -1       857 2.59213E-03 2.99493E-04-4.05980E-15
 -1       858 1.40231E-02 1.02555E-03-1.07512E-13
 -1       859 1.39920E-02 9.41962E-04-1.08258E-13
 -1       860 1.49597E-03 2.69889E-04-1.31685E-15
 -1       861 8.09681E-03 3.04076E-04-2.94476E-14
 -1       862 3.64294E-03-7.69533E-05-1.08698E-14
 -1       863 5.39909E-03-8.02590E-04-1.84713E-14
 -1       864 1.11701E-03 9.59082E-05-1.02375E-15
 -1       865 3.38943E-03 3.70229E-05-1.02247E-14
 -1       866 1.11878E-03-9.05911E-05-1.20501E-15
 -1       867 1.13523E-03-1.43002E-04-1.22694E-15
 -1       868 2.17741E-03-1.94095E-04-3.98274E-15
 -1       869 2.45720E-03-1.95245E-04-4.97854E-15
 -1       870 2.73835E-03-1.96241E-04-6.08093E-15
 -1       871 3.02319E-03-1.99830E-04-7.28896E-15
 -1       872 3.31572E-03-2.09917E-04-8.60193E-15
 -1       873 3.62195E-03-2.32767E-04-1.00175E-14
 -1       874 3.94950E-03-2.78762E-04-1.15378E-14
 -1       875 8.13869E-03 2.06857E-04-3.22190E-14
 -1       876 7.55475E-03-7.29375E-05-3.15604E-14
 -1       877 7.86631E-03-1.02972E-05-3.42994E-14
 -1       878 8.15968E-03 3.43947E-05-3.71300E-14
 -1       879 8.44246E-03 6.92663E-05-4.00512E-14
 -1       880 8.71982E-03 9.86695E-05-4.30588E-14
 -1       881 8.99503E-03 1.25027E-04-4.61569E-14
 -1       882 9.26998E-03 1.49782E-04-4.93384E-14
 -1       883 9.54571E-03 1.73860E-04-5.26063E-14
 -1       884 9.82272E-03 1.97881E-04-5.59576E-14
 -1       885 1.01012E-02 2.22255E-04-5.93891E-14
 -1       886 1.03810E-02 2.47240E-04-6.29007E-14
 -1       887 1.06621E-02 2.72975E-04-6.64910E-14
 -1       888 1.09443E-02 2.99514E-04-7.01580E-14
 -1       889 1.12274E-02 3.26848E-04-7.38936E-14
 -1       890 1.15112E-02 3.54928E-04-7.76874E-14
 -1       891 1.17956E-02 3.83681E-04-8.15397E-14
 -1       892 1.20804E-02 4.13021E-04-8.54560E-14
 -1       893 1.23655E-02 4.42859E-04-8.94297E-14
 -1       894 1.26509E-02 4.73111E-04-9.34650E-14
 -1       895 1.29364E-02 5.03697E-04-9.75461E-14
 -1       896 1.32220E-02 5.34545E-04-1.01672E-13
 -1       897 1.35077E-02 5.65593E-04-1.05839E-13
 -1       898 2.93684E-03 2.44568E-04-5.77345E-15
 -1       899 3.70025E-03 3.27453E-04-8.95858E-15
 -1       900 7.58964E-03 5.70577E-04-2.67895E-14
 -1       901 8.51324E-03 4.73002E-04-3.49383E-14
 -1       902 9.31809E-03 5.63565E-04-4.37360E-14
 -1       903 9.59105E-03 6.00810E-04-4.68422E-14
 -1       904 9.86659E-03 6.39392E-04-5.00393E-14
 -1       905 1.01444E-02 6.78459E-04-5.33257E-14
 -1       906 1.04241E-02 7.17412E-04-5.66963E-14
 -1       907 1.07053E-02 7.55867E-04-6.01488E-14
 -1       908 1.09877E-02 7.93601E-04-6.36841E-14
 -1       909 1.12710E-02 8.30519E-04-6.73056E-14
 -1       910 1.15551E-02 8.66609E-04-7.09988E-14
 -1       911 1.18397E-02 9.01915E-04-7.47701E-14
 -1       912 1.21246E-02 9.36512E-04-7.86182E-14
 -1       913 1.24098E-02 9.70492E-04-8.25323E-14
 -1       914 1.26953E-02 1.00395E-03-8.65094E-14
 -1       915 1.29808E-02 1.03698E-03-9.05345E-14
 -1       916 1.32665E-02 1.06966E-03-9.46040E-14
 -1       917 1.35521E-02 1.10208E-03-9.87135E-14
 -1       918 1.38379E-02 1.13430E-03-1.02856E-13
 -1       919 1.36981E-02 7.89002E-04-1.05733E-13
 -1       920 1.41185E-02 1.17383E-03-1.06829E-13
 -1       921 1.61830E-03-1.82816E-04-2.31512E-15
 -1       922 8.24484E-03 4.56709E-04-3.21800E-14
 -1       923 7.96839E-03 4.54478E-04-2.95132E-14
 -1       924 3.27023E-03 9.55653E-05-9.61919E-15
 -1       925 1.84629E-03 2.21200E-04-2.27248E-15
 -1       926 1.10842E-03-4.24920E-05-1.17334E-15
 -1       927 3.43505E-03 2.17904E-04-8.72956E-15
 -1       928 7.93332E-03 1.29131E-04-3.18519E-14
 -1       929 9.04783E-03 5.28793E-04-4.07213E-14
 -1       930 7.62731E-03-5.86069E-07-3.10300E-14
 -1       931 8.77995E-03 4.97963E-04-3.77880E-14
 -1       932 1.89784E-03-1.90597E-04-3.09485E-15
 -1       933 1.38471E-03 1.93633E-04-1.31305E-15
 -1       934 1.40650E-03-1.74353E-04-1.79517E-15
 -1       935 1.33583E-03 2.97651E-05-1.57076E-15
 -1       936 8.23639E-03 2.39779E-04-3.25573E-14
 -1       937 7.21586E-03-1.67451E-04-2.89191E-14
 -1       938 3.20634E-03 2.58120E-04-6.90424E-15
 -1       939 3.45784E-03 2.84466E-04-7.97292E-15
 -1       940 8.21894E-03 2.88636E-04-3.10958E-14
 -1       941 2.66756E-03 2.37018E-04-4.74469E-15
 -1       942 3.23352E-03 6.04163E-05-9.31141E-15
 -1       943 1.60547E-03 2.18358E-04-1.70801E-15
 -1       944 1.37290E-02 8.72447E-04-1.05009E-13
 -1       945 1.36672E-02 7.05366E-04-1.06439E-13
 -1       946 3.31018E-03 1.77082E-04-8.53680E-15
 -1       947 1.35874E-02 6.35472E-04-1.06143E-13
 -1       948 1.34365E-03 8.09145E-05-1.49910E-15
 -1       949 2.12256E-03 2.27888E-04-2.99440E-15
 -1       950 1.34629E-03-7.30636E-05-1.67986E-15
 -1       951 8.05802E-03 3.59929E-04-2.96489E-14
 -1       952 3.64672E-03-1.55661E-04-1.04492E-14
 -1       953 1.37913E-02 1.03994E-03-1.03522E-13
 -1       954 3.42832E-03-2.80975E-05-9.96643E-15
 -1       955 3.16942E-03 1.12477E-04-8.57477E-15
 -1       956 2.54812E-03-1.27758E-04-5.43543E-15
 -1       957 2.81830E-03-1.23991E-04-6.57299E-15
 -1       958 3.08992E-03-1.21433E-04-7.81405E-15
 -1       959 3.35971E-03-1.31907E-04-9.08507E-15
 -1       960 9.72219E-03 5.58081E-04-4.90114E-14
 -1       961 1.36015E-03 1.34850E-04-1.41401E-15
 -1       962 8.12826E-03 9.95264E-05-3.53305E-14
 -1       963 8.39457E-03 1.27830E-04-3.81908E-14
 -1       964 8.65826E-03 1.53178E-04-4.11376E-14
 -1       965 8.92224E-03 1.77400E-04-4.41752E-14
 -1       966 9.18804E-03 2.01377E-04-4.72965E-14
 -1       967 9.45634E-03 2.25542E-04-5.05038E-14
 -1       968 9.72732E-03 2.50143E-04-5.37932E-14
 -1       969 1.00009E-02 2.75336E-04-5.71694E-14
 -1       970 1.02769E-02 3.01209E-04-6.06268E-14
 -1       971 1.05550E-02 3.27803E-04-6.41637E-14
 -1       972 1.08348E-02 3.55115E-04-6.77808E-14
 -1       973 1.11161E-02 3.83112E-04-7.14705E-14
 -1       974 1.13986E-02 4.11739E-04-7.52259E-14
 -1       975 1.16820E-02 4.40930E-04-7.90388E-14
 -1       976 1.19660E-02 4.70612E-04-8.29143E-14
 -1       977 1.22507E-02 5.00710E-04-8.68535E-14
 -1       978 1.25357E-02 5.31156E-04-9.08545E-14
 -1       979 1.28209E-02 5.61883E-04-9.49108E-14
 -1       980 1.31064E-02 5.92835E-04-9.90088E-14
 -1       981 1.33469E-02 6.14113E-04-1.02561E-13
 -1       982 2.39636E-03 2.32321E-04-3.81827E-15
 -1       983 1.73139E-03-1.29147E-04-2.65245E-15
 -1       984 9.45476E-03 5.21700E-04-4.58481E-14
 -1       985 1.02682E-02 6.32498E-04-5.56083E-14
 -1       986 1.05455E-02 6.69622E-04-5.90314E-14
 -1       987 1.08249E-02 7.06312E-04-6.25342E-14
 -1       988 1.11060E-02 7.42430E-04-6.61214E-14
 -1       989 1.13883E-02 7.77919E-04-6.97873E-14
 -1       990 1.16717E-02 8.12783E-04-7.35247E-14
 -1       991 1.19557E-02 8.47061E-04-7.73420E-14
 -1       992 1.22403E-02 8.80815E-04-8.12254E-14
 -1       993 1.25253E-02 9.14117E-04-8.51723E-14
 -1       994 1.28106E-02 9.47039E-04-8.91765E-14
 -1       995 1.30960E-02 9.79653E-04-9.32271E-14
 -1       996 1.33816E-02 1.01202E-03-9.73194E-14
 -1       997 1.33683E-03-2.08339E-05-1.63095E-15
 -1       998 8.93471E-03 4.53907E-04-3.97919E-14
 -1       999 7.88845E-03 6.11125E-05-3.30767E-14
 -1      1000 9.19202E-03 4.86717E-04-4.27765E-14
 -1      1001 8.43846E-03 3.98260E-04-3.40681E-14
 -1      1002 8.24456E-03 3.76628E-04-3.18304E-14
 -1      1003 1.37601E-02 9.56173E-04-1.04271E-13
 -1      1004 8.19548E-03 1.69546E-04-3.43864E-14
 -1      1005 2.27731E-03-1.30757E-04-4.40196E-15
 -1      1006 8.68346E-03 4.24103E-04-3.68870E-14
 -1      1007 2.00501E-03-1.31604E-04-3.47392E-15
 -1      1008 9.99358E-03 5.95190E-04-5.22651E-14
 -1      1009 8.30723E-03 2.10793E-04-3.47462E-14
 -1      1010 1.57491E-03 1.55642E-04-1.83301E-15
 -1      1011 2.98757E-03 1.85926E-04-6.56198E-15
 -1      1012 3.21111E-03 1.98793E-04-7.60872E-15
 -1      1013 2.73728E-03 1.79774E-04-5.45912E-15
 -1      1014 3.23398E-03 9.72222E-06-9.07068E-15
 -1      1015 3.09073E-03 7.83987E-05-8.29064E-15
 -1      1016 1.34661E-02 8.03332E-04-1.01768E-13
 -1      1017 1.33504E-02 9.28494E-04-9.80610E-14
 -1      1018 1.56999E-03 6.03215E-05-2.06700E-15
 -1      1019 1.56619E-03 6.20969E-06-2.14943E-15
 -1      1020 1.34352E-02 7.19866E-04-1.02479E-13
 -1      1021 1.57322E-03-4.87819E-05-2.21932E-15
 -1      1022 1.94996E-03 1.67574E-04-2.76342E-15
 -1      1023 8.32136E-03 2.71571E-04-3.30181E-14
 -1      1024 8.23692E-03 3.28262E-04-3.14682E-14
 -1      1025 2.21763E-03 1.72241E-04-3.55986E-15
 -1      1026 2.89055E-03-5.44013E-05-7.05509E-15
 -1      1027 8.60371E-03 2.03423E-04-3.92332E-14
 -1      1028 8.85347E-03 2.25518E-04-4.22099E-14
 -1      1029 9.10854E-03 2.48839E-04-4.52711E-14
 -1      1030 9.36858E-03 2.73314E-04-4.84198E-14
 -1      1031 9.63312E-03 2.98801E-04-5.16503E-14
 -1      1032 9.90164E-03 3.25176E-04-5.49649E-14
 -1      1033 1.01736E-02 3.52337E-04-5.83656E-14
 -1      1034 1.04486E-02 3.80195E-04-6.18498E-14
 -1      1035 1.07260E-02 4.08673E-04-6.54165E-14
 -1      1036 1.10054E-02 4.37697E-04-6.90580E-14
 -1      1037 1.12864E-02 4.67197E-04-7.27689E-14
 -1      1038 1.15687E-02 4.97109E-04-7.65442E-14
 -1      1039 1.18520E-02 5.27371E-04-8.03850E-14
 -1      1040 1.21361E-02 5.57927E-04-8.42891E-14
 -1      1041 1.24207E-02 5.88724E-04-8.82544E-14
 -1      1042 1.27057E-02 6.19719E-04-9.22792E-14
 -1      1043 1.29910E-02 6.50870E-04-9.63512E-14
 -1      1044 1.09419E-02 6.56384E-04-6.49377E-14
 -1      1045 3.06433E-03 1.27469E-04-7.65512E-15
 -1      1046 9.57891E-03 4.81788E-04-4.79783E-14
 -1      1047 1.06633E-02 6.21554E-04-6.13831E-14
 -1      1048 1.03870E-02 5.86461E-04-5.79053E-14
 -1      1049 1.12224E-02 6.90851E-04-6.85721E-14
 -1      1050 1.15044E-02 7.24918E-04-7.22819E-14
 -1      1051 1.17874E-02 7.58584E-04-7.60650E-14
 -1      1052 1.20713E-02 7.91875E-04-7.99188E-14
 -1      1053 1.23557E-02 8.24831E-04-8.38404E-14
 -1      1054 1.26406E-02 8.57500E-04-8.78201E-14
 -1      1055 1.29258E-02 8.89928E-04-9.18491E-14
 -1      1056 1.31381E-02 9.09269E-04-9.49438E-14
 -1      1057 2.11284E-03-7.36976E-05-3.85187E-15
 -1      1058 1.56892E-03 1.06889E-04-1.95465E-15
 -1      1059 8.34632E-03 1.71579E-04-3.64610E-14
 -1      1060 9.31941E-03 4.48300E-04-4.48528E-14
 -1      1061 2.48043E-03 1.75717E-04-4.45773E-15
 -1      1062 9.06681E-03 4.16296E-04-4.18134E-14
 -1      1063 1.34082E-02 8.65959E-04-9.99163E-14
 -1      1064 1.33910E-02 6.66989E-04-1.02522E-13
 -1      1065 8.58947E-03 3.58520E-04-3.59754E-14
 -1      1066 2.63575E-03-6.27798E-05-5.88403E-15
 -1      1067 1.84292E-03-6.19842E-05-2.97988E-15
 -1      1068 2.37644E-03-6.94257E-05-4.81657E-15
 -1      1069 8.82275E-03 3.86248E-04-3.88532E-14
 -1      1070 2.82908E-03 1.22564E-04-6.36929E-15
 -1      1071 8.41730E-03 2.49406E-04-3.52340E-14
 -1      1072 2.96511E-03 9.10550E-05-7.39217E-15
 -1      1073 3.13406E-03-5.23677E-05-8.26095E-15
 -1      1074 8.40821E-03 3.34253E-04-3.36868E-14
 -1      1075 1.01137E-02 5.51276E-04-5.45122E-14
 -1      1076 1.31909E-02 6.58933E-04-9.94261E-14
 -1      1077 3.04979E-03 3.55876E-05-8.07032E-15
 -1      1078 1.79623E-03 3.65583E-05-2.72687E-15
 -1      1079 1.81461E-03-1.17712E-05-2.85797E-15
 -1      1080 1.31948E-02 7.84361E-04-9.76837E-14
 -1      1081 1.86487E-03 9.60588E-05-2.77472E-15
 -1      1082 9.84400E-03 5.16264E-04-5.12003E-14
 -1      1083 2.12683E-03 1.00526E-04-3.58091E-15
 -1      1084 2.07806E-03-2.14253E-05-3.70999E-15
 -1      1085 2.97220E-03 6.98235E-06-7.59132E-15
 -1      1086 1.07780E-02 5.72530E-04-6.37523E-14
 -1      1087 8.78431E-03 2.68147E-04-4.02617E-14
 -1      1088 9.02788E-03 2.91549E-04-4.32660E-14
 -1      1089 9.27953E-03 3.16866E-04-4.63520E-14
 -1      1090 9.53776E-03 3.43689E-04-4.95228E-14
 -1      1091 9.80147E-03 3.71660E-04-5.27808E-14
 -1      1092 1.00697E-02 4.00513E-04-5.61233E-14
 -1      1093 1.03418E-02 4.30035E-04-5.95536E-14
 -1      1094 1.06169E-02 4.60062E-04-6.30684E-14
 -1      1095 1.08946E-02 4.90472E-04-6.66607E-14
 -1      1096 1.11743E-02 5.21173E-04-7.03236E-14
 -1      1097 1.14556E-02 5.52095E-04-7.40569E-14
 -1      1098 1.17382E-02 5.83187E-04-7.78601E-14
 -1      1099 1.20217E-02 6.14410E-04-8.17325E-14
 -1      1100 1.23059E-02 6.45733E-04-8.56621E-14
 -1      1101 1.25906E-02 6.77133E-04-8.96541E-14
 -1      1102 1.28757E-02 7.08592E-04-9.36998E-14
 -1      1103 1.13374E-02 6.38487E-04-7.10344E-14
 -1      1104 1.31664E-02 8.46841E-04-9.63143E-14
 -1      1105 1.10568E-02 6.05572E-04-6.73541E-14
 -1      1106 1.05016E-02 5.39438E-04-6.02215E-14
 -1      1107 1.16194E-02 6.71237E-04-7.47889E-14
 -1      1108 1.19025E-02 7.03811E-04-7.86145E-14
 -1      1109 1.21864E-02 7.36214E-04-8.25069E-14
 -1      1110 1.24709E-02 7.68462E-04-8.64643E-14
 -1      1111 1.27558E-02 8.00575E-04-9.04735E-14
 -1      1112 2.33616E-03-1.63420E-05-4.65027E-15
 -1      1113 8.54326E-03 2.38346E-04-3.74657E-14
 -1      1114 1.96441E-03 4.40095E-05-3.22249E-15
 -1      1115 8.52302E-03 3.02574E-04-3.56194E-14
 -1      1116 8.74393E-03 3.26454E-04-3.84844E-14
 -1      1117 2.58702E-03-8.81473E-06-5.69398E-15
 -1      1118 2.78291E-03-1.85457E-06-6.60982E-15
 -1      1119 9.43303E-03 4.10179E-04-4.69473E-14
 -1      1120 8.97898E-03 3.52682E-04-4.14348E-14
 -1      1121 9.20247E-03 3.80611E-04-4.41590E-14
 -1      1122 2.58110E-03 1.19499E-04-5.22249E-15
 -1      1123 9.69286E-03 4.41486E-04-5.01306E-14
 -1      1124 2.89947E-03 4.94486E-05-7.18974E-15
 -1      1125 1.02281E-02 5.06425E-04-5.67724E-14
 -1      1126 2.73610E-03 7.93419E-05-6.19281E-15
 -1      1127 1.29337E-02 7.72064E-04-9.37011E-14
 -1      1128 2.36410E-03 6.09879E-05-4.60029E-15
 -1      1129 8.64249E-03 2.77215E-04-3.79641E-14
 -1      1130 2.20021E-03 3.18692E-05-4.05736E-15
 -1      1131 9.95823E-03 4.73684E-04-5.34076E-14
 -1      1132 0.00000E+00 0.00000E+00 0.00000E+00
 -1      1133 0.00000E+00 0.00000E+00 0.00000E+00
 -1      1134 0.00000E+00 0.00000E+00 0.00000E+00
 -1      1135 0.00000E+00 0.00000E+00 0.00000E+00
 -1      1136 0.00000E+00 0.00000E+00 0.00000E+00
 -1      1137 0.00000E+00 0.00000E+00 0.00000E+00
 -1      1138 0.00000E+00 0.00000E+00 0.00000E+00
 -1      1139 0.00000E+00 0.00000E+00 0.00000E+00
 -1      1140 0.00000E+00 0.00000E+00 0.00000E+00
 -1      1141 0.00000E+00 0.00000E+00 0.00000E+00
 -1      1142 0.00000E+00 0.00000E+00 0.00000E+00
 -1      1143 0.00000E+00 0.00000E+00 0.00000E+00
 -1      1144 0.00000E+00 0.00000E+00 0.00000E+00
 -1      1145 0.00000E+00 0.00000E+00 0.00000E+00
 -1      1146 0.00000E+00 0.00000E+00 0.00000E+00
 -1      1147 0.00000E+00 0.00000E+00 0.00000E+00
 -1      1148 0.00000E+00 0.00000E+00 0.00000E+00
 -1      1149 2.09999E-04-1.45161E-04-1.68051E-18
 -1      1150 5.50237E-04-3.25491E-04-9.56402E-17
 -1      1151 8.36214E-04-4.37163E-04-3.16750E-16
 -1      1152 1.11321E-03-5.09281E-04-6.84294E-16
 -1      1153 1.38946E-03-5.57621E-04-1.18852E-15
 -1      1154 1.66910E-03-5.90563E-04-1.82408E-15
 -1      1155 1.95478E-03-6.13578E-04-2.58776E-15
 -1      1156 2.24819E-03-6.31071E-04-3.47794E-15
 -1      1157 2.55038E-03-6.47174E-04-4.49289E-15
 -1      1158 2.86174E-03-6.66048E-04-5.63223E-15
 -1      1159 3.18173E-03-6.91923E-04-6.89370E-15
 -1      1160 3.50856E-03-7.28816E-04-8.26815E-15
 -1      1161 3.83874E-03-7.79804E-04-9.75676E-15
 -1      1162 4.16696E-03-8.45732E-04-1.13636E-14
 -1      1163 4.48650E-03-9.23513E-04-1.30850E-14
 -1      1164 4.79073E-03-1.00469E-03-1.49213E-14
 -1      1165 5.07557E-03-1.07550E-03-1.68764E-14
 -1      1166 5.34219E-03-1.11973E-03-1.89472E-14
 -1      1167 5.59798E-03-1.12407E-03-2.11297E-14
 -1      1168 5.85455E-03-1.08359E-03-2.34219E-14
 -1      1169 6.12336E-03-1.00404E-03-2.58213E-14
 -1      1170 6.41142E-03-8.99250E-04-2.83275E-14
 -1      1171 6.71956E-03-7.85536E-04-3.09486E-14
 -1      1172 7.04358E-03-6.76486E-04-3.36913E-14
 -1      1173 7.37696E-03-5.80400E-04-3.65459E-14
 -1      1174 7.71331E-03-5.00397E-04-3.94933E-14
 -1      1175 8.04768E-03-4.35950E-04-4.25338E-14
 -1      1176 8.37698E-03-3.84611E-04-4.56660E-14
 -1      1177 8.69974E-03-3.43302E-04-4.88934E-14
 -1      1178 9.01566E-03-3.09082E-04-5.22088E-14
 -1      1179 9.32515E-03-2.79486E-04-5.56090E-14
 -1      1180 9.62901E-03-2.52616E-04-5.90931E-14
 -1      1181 9.92815E-03-2.27101E-04-6.26518E-14
 -1      1182 1.02235E-02-2.02007E-04-6.62833E-14
 -1      1183 1.05159E-02-1.76738E-04-6.99773E-14
 -1      1184 1.08061E-02-1.50945E-04-7.37297E-14
 -1      1185 1.10946E-02-1.24452E-04-7.75362E-14
 -1      1186 1.13819E-02-9.71996E-05-8.13972E-14
 -1      1187 1.16684E-02-6.92045E-05-8.53158E-14
 -1      1188 1.19544E-02-4.05253E-05-8.92921E-14
 -1      1189 1.22401E-02-1.12437E-05-9.33381E-14
 -1      1190 1.25255E-02 1.85496E-05-9.74430E-14
 -1      1191 1.28109E-02 4.87637E-05-1.01600E-13
 -1      1192 1.30962E-02 7.93125E-05-1.05808E-13
 -1      1193 1.33816E-02 1.10117E-04-1.10048E-13
 -1      1194 1.36671E-02 1.41104E-04-1.14305E-13
 -1      1195 1.39526E-02 1.72209E-04-1.18605E-13
 -1      1196 1.42382E-02 2.03372E-04-1.22940E-13
 -1      1197 1.45238E-02 2.34539E-04-1.27297E-13
 -1      1198 1.48024E-02 2.64898E-04-1.31578E-13
 -1      1199 2.26376E-04 1.57196E-04 4.65123E-17
 -1      1200 5.52135E-04 3.29435E-04 8.93112E-17
 -1      1201 8.37004E-04 4.38140E-04 5.33156E-17
 -1      1202 1.11425E-03 5.09008E-04-7.69106E-17
 -1      1203 1.39114E-03 5.56248E-04-3.05311E-16
 -1      1204 1.67209E-03 5.87783E-04-6.37863E-16
 -1      1205 1.96011E-03 6.08953E-04-1.07683E-15
 -1      1206 2.25755E-03 6.24214E-04-1.62231E-15
 -1      1207 2.56641E-03 6.37983E-04-2.27691E-15
 -1      1208 2.88836E-03 6.55161E-04-3.03414E-15
 -1      1209 3.22439E-03 6.81490E-04-3.89618E-15
 -1      1210 3.57425E-03 7.23640E-04-4.86566E-15
 -1      1211 3.93536E-03 7.88676E-04-5.94075E-15
 -1      1212 4.30168E-03 8.82328E-04-7.12054E-15
 -1      1213 4.66300E-03 1.00552E-03-8.40892E-15
 -1      1214 5.00619E-03 1.14961E-03-9.81889E-15
 -1      1215 5.31972E-03 1.29292E-03-1.13540E-14
 -1      1216 5.60088E-03 1.40377E-03-1.30149E-14
 -1      1217 5.86101E-03 1.45245E-03-1.48076E-14
 -1      1218 6.12245E-03 1.42740E-03-1.67293E-14
 -1      1219 6.40702E-03 1.34227E-03-1.87787E-14
 -1      1220 6.72508E-03 1.22757E-03-2.09599E-14
 -1      1221 7.07309E-03 1.11485E-03-2.32685E-14
 -1      1222 7.43923E-03 1.02492E-03-2.57025E-14
 -1      1223 7.81063E-03 9.65627E-04-2.82490E-14
 -1      1224 8.17758E-03 9.35800E-04-3.08942E-14
 -1      1225 8.53460E-03 9.30003E-04-3.36360E-14
 -1      1226 8.87958E-03 9.41870E-04-3.64804E-14
 -1      1227 9.21262E-03 9.65763E-04-3.94177E-14
 -1      1228 9.53496E-03 9.97295E-04-4.24399E-14
 -1      1229 9.84829E-03 1.03330E-03-4.55481E-14
 -1      1230 1.01543E-02 1.07162E-03-4.87442E-14
 -1      1231 1.04547E-02 1.11082E-03-5.20206E-14
 -1      1232 1.07506E-02 1.15004E-03-5.53857E-14
 -1      1233 1.10433E-02 1.18876E-03-5.88498E-14
 -1      1234 1.13335E-02 1.22672E-03-6.24090E-14
 -1      1235 1.16220E-02 1.26380E-03-6.60680E-14
 -1      1236 1.19093E-02 1.30001E-03-6.98198E-14
 -1      1237 1.21958E-02 1.33540E-03-7.36418E-14
 -1      1238 1.24817E-02 1.37006E-03-7.75397E-14
 -1      1239 1.27673E-02 1.40408E-03-8.14992E-14
 -1      1240 1.30528E-02 1.43757E-03-8.55150E-14
 -1      1241 1.33381E-02 1.47063E-03-8.95814E-14
 -1      1242 1.36234E-02 1.50335E-03-9.36902E-14
 -1      1243 1.39088E-02 1.53581E-03-9.78238E-14
 -1      1244 1.41943E-02 1.56809E-03-1.01981E-13
 -1      1245 1.44798E-02 1.60024E-03-1.06170E-13
 -1      1246 1.47654E-02 1.63234E-03-1.10368E-13
 -1      1247 1.50510E-02 1.66444E-03-1.14561E-13
 -1      1248 1.53296E-02 1.69576E-03-1.18647E-13
 -1      1249 1.54495E-02 1.66889E-03-1.21026E-13
 -1      1250 1.54179E-02 1.58460E-03-1.21829E-13
 -1      1251 1.53862E-02 1.50027E-03-1.22639E-13
 -1      1252 1.53545E-02 1.41588E-03-1.23437E-13
 -1      1253 1.53229E-02 1.33142E-03-1.24226E-13
 -1      1254 1.52916E-02 1.24763E-03-1.25017E-13
 -1      1255 1.52605E-02 1.16380E-03-1.25825E-13
 -1      1256 1.52292E-02 1.07922E-03-1.26620E-13
 -1      1257 1.51980E-02 9.94635E-04-1.27414E-13
 -1      1258 1.51670E-02 9.10046E-04-1.28197E-13
 -1      1259 1.51361E-02 8.25472E-04-1.28935E-13
 -1      1260 1.51056E-02 7.41643E-04-1.29672E-13
 -1      1261 1.50751E-02 6.57855E-04-1.30425E-13
 -1      1262 1.50446E-02 5.73405E-04-1.31182E-13
 -1      1263 1.50140E-02 4.89015E-04-1.31924E-13
 -1      1264 1.49835E-02 4.04683E-04-1.32643E-13
 -1      1265 1.49532E-02 3.21105E-04-1.33336E-13
 -1      1266 7.96031E-03 2.82514E-04-2.31819E-14
 -1      1267 7.85348E-03 4.37974E-04-2.27089E-14
 -1      1268 7.63724E-03 5.96525E-04-2.20200E-14
 -1      1269 7.34656E-03 7.46823E-04-2.12083E-14
 -1      1270 6.99524E-03 8.86411E-04-2.02915E-14
 -1      1271 6.59145E-03 1.00340E-03-1.92821E-14
 -1      1272 6.15089E-03 1.07834E-03-1.82311E-14
 -1      1273 5.70569E-03 1.09348E-03-1.72227E-14
 -1      1274 5.23965E-03 1.04363E-03-1.62451E-14
 -1      1275 4.78532E-03 9.36145E-04-1.53870E-14
 -1      1276 4.38133E-03 7.94267E-04-1.47136E-14
 -1      1277 4.02847E-03 6.34535E-04-1.42086E-14
 -1      1278 3.75173E-03 4.74116E-04-1.38846E-14
 -1      1279 3.56684E-03 3.19150E-04-1.37415E-14
 -1      1280 3.48543E-03 1.69280E-04-1.37865E-14
 -1      1281 3.52113E-03 1.74046E-05-1.40293E-14
 -1      1282 3.66674E-03-1.31435E-04-1.44524E-14
 -1      1283 3.90621E-03-2.78099E-04-1.50390E-14
 -1      1284 4.23104E-03-4.24684E-04-1.58028E-14
 -1      1285 4.61540E-03-5.54703E-04-1.66963E-14
 -1      1286 5.04577E-03-6.52513E-04-1.77076E-14
 -1      1287 5.48679E-03-7.00132E-04-1.87504E-14
 -1      1288 5.92524E-03-6.89228E-04-1.97744E-14
 -1      1289 6.33622E-03-6.29856E-04-2.07047E-14
 -1      1290 6.71351E-03-5.34874E-04-2.15158E-14
 -1      1291 7.06356E-03-4.14809E-04-2.22140E-14
 -1      1292 7.37936E-03-2.79403E-04-2.27775E-14
 -1      1293 7.64826E-03-1.35392E-04-2.31805E-14
 -1      1294 7.84658E-03 9.89760E-06-2.33901E-14
 -1      1295 7.95162E-03 1.46756E-04-2.33886E-14
 -1      1296 1.66857E-04-1.07194E-04-2.03966E-17
 -1      1297 1.13717E-04-5.33990E-05-3.74456E-17
 -1      1298 1.18599E-04-6.44064E-05-3.24583E-17
 -1      1299 1.09498E-04-3.91921E-05-4.51164E-17
 -1      1300 1.11443E-04-4.55667E-05-4.30970E-17
 -1      1301 2.28904E-04-9.98123E-05-1.01996E-16
 -1      1302 1.07527E-04-2.90356E-05-4.82741E-17
 -1      1303 1.08593E-04-3.38063E-05-4.75558E-17
 -1      1304 2.21185E-04-7.37010E-05-1.14573E-16
 -1      1305 1.06216E-04-2.09743E-05-4.91008E-17
 -1      1306 1.06924E-04-2.48248E-05-4.90873E-17
 -1      1307 2.16946E-04-5.43494E-05-1.19615E-16
 -1      1308 1.05281E-04-1.43837E-05-4.86536E-17
 -1      1309 1.05773E-04-1.75673E-05-4.89382E-17
 -1      1310 2.14074E-04-3.89694E-05-1.20374E-16
 -1      1311 1.04617E-04-8.60919E-06-4.77049E-17
 -1      1312 1.04950E-04-1.14292E-05-4.81657E-17
 -1      1313 2.12007E-04-2.60815E-05-1.18883E-16
 -1      1314 1.04240E-04-3.42896E-06-4.59702E-17
 -1      1315 1.04410E-04-5.99678E-06-4.65258E-17
 -1      1316 2.10604E-04-1.47733E-05-1.15942E-16
 -1      1317 1.04163E-04 1.48292E-06-4.38695E-17
 -1      1318 1.04167E-04-9.93785E-07-4.45201E-17
 -1      1319 2.09881E-04-4.47836E-06-1.11564E-16
 -1      1320 1.04395E-04 6.45578E-06-4.12268E-17
 -1      1321 1.04230E-04 3.90711E-06-4.19993E-17
 -1      1322 2.09859E-04 5.45142E-06-1.06089E-16
 -1      1323 1.04938E-04 1.18317E-05-3.78522E-17
 -1      1324 1.04601E-04 9.04055E-06-3.88280E-17
 -1      1325 2.10556E-04 1.56707E-05-9.92452E-17
 -1      1326 1.05775E-04 1.78633E-05-3.37187E-17
 -1      1327 1.05270E-04 1.47059E-05-3.50333E-17
 -1      1328 2.11955E-04 2.67634E-05-9.08426E-17
 -1      1329 1.06970E-04 2.51731E-05-2.79995E-17
 -1      1330 1.06241E-04 2.13182E-05-2.99917E-17
 -1      1331 2.14077E-04 3.95487E-05-8.02310E-17
 -1      1332 1.08667E-04 3.42401E-05-2.01933E-17
 -1      1333 1.07581E-04 2.94223E-05-2.31206E-17
 -1      1334 2.17061E-04 5.50761E-05-6.60415E-17
 -1      1335 1.11484E-04 4.61668E-05-9.32414E-18
 -1      1336 1.09560E-04 3.97201E-05-1.39049E-17
 -1      1337 2.21376E-04 7.46533E-05-4.70544E-17
 -1      1338 1.17946E-04 6.43616E-05 6.26127E-18
 -1      1339 1.13417E-04 5.40771E-05-1.19262E-18
 -1      1340 2.29004E-04 1.01339E-04-2.16163E-17
 -1      1341 1.57387E-04 1.06938E-04 2.89211E-17
 -1      1342 1.36489E-04 8.28687E-05 1.60326E-17
 -1      1343 2.58358E-04 1.44743E-04 8.17217E-18
 -1      1344 3.35232E-04 2.13314E-04 4.72712E-17
 -1      1345 4.22643E-04-2.51797E-04-9.63043E-17
 -1      1346 5.77282E-04-3.21807E-04-1.73852E-16
 -1      1347 7.26670E-04-3.77319E-04-2.90390E-16
 -1      1348 8.72703E-04-4.21554E-04-4.42233E-16
 -1      1349 6.17916E-04-3.12738E-04-2.61211E-16
 -1      1350 1.01632E-03-4.57646E-04-6.27387E-16
 -1      1351 1.15850E-03-4.86795E-04-8.46613E-16
 -1      1352 9.16797E-04-4.03046E-04-5.69057E-16
 -1      1353 1.30015E-03-5.10878E-04-1.09873E-15
 -1      1354 1.44183E-03-5.30463E-04-1.38393E-15
 -1      1355 1.20740E-03-4.62421E-04-1.00943E-15
 -1      1356 1.58405E-03-5.46657E-04-1.70122E-15
 -1      1357 1.72716E-03-5.59925E-04-2.05005E-15
 -1      1358 1.49548E-03-5.01858E-04-1.57932E-15
 -1      1359 1.87148E-03-5.70995E-04-2.43062E-15
 -1      1360 2.01720E-03-5.80341E-04-2.84241E-15
 -1      1361 1.78484E-03-5.28141E-04-2.27529E-15
 -1      1362 2.16455E-03-5.88546E-04-3.28505E-15
 -1      1363 2.31362E-03-5.96097E-04-3.75904E-15
 -1      1364 2.07792E-03-5.46277E-04-3.09546E-15
 -1      1365 2.46454E-03-6.03549E-04-4.26400E-15
 -1      1366 2.61734E-03-6.11399E-04-4.79885E-15
 -1      1367 2.37624E-03-5.60657E-04-4.03798E-15
 -1      1368 2.77204E-03-6.20231E-04-5.36478E-15
 -1      1369 2.92859E-03-6.30533E-04-5.96119E-15
 -1      1370 2.68066E-03-5.75567E-04-5.10186E-15
 -1      1371 3.08689E-03-6.42927E-04-6.58622E-15
 -1      1372 3.24675E-03-6.57854E-04-7.24086E-15
 -1      1373 2.99138E-03-5.95410E-04-6.28479E-15
 -1      1374 3.40791E-03-6.75918E-04-7.92361E-15
 -1      1375 3.57002E-03-6.97424E-04-8.63422E-15
 -1      1376 3.30784E-03-6.24638E-04-7.58398E-15
 -1      1377 3.73267E-03-7.22822E-04-9.37401E-15
 -1      1378 3.89532E-03-7.52138E-04-1.01428E-14
 -1      1379 3.62857E-03-6.67285E-04-8.99647E-15
 -1      1380 4.05738E-03-7.85428E-04-1.09404E-14
 -1      1381 4.21821E-03-8.22250E-04-1.17673E-14
 -1      1382 3.95099E-03-7.25936E-04-1.05235E-14
 -1      1383 4.37715E-03-8.61980E-04-1.26226E-14
 -1      1384 4.53356E-03-9.03534E-04-1.35061E-14
 -1      1385 4.27157E-03-8.00084E-04-1.21657E-14
 -1      1386 4.68689E-03-9.45422E-04-1.44189E-14
 -1      1387 4.83676E-03-9.85922E-04-1.53613E-14
 -1      1388 4.58621E-03-8.84193E-04-1.39219E-14
 -1      1389 4.98299E-03-1.02282E-03-1.63327E-14
 -1      1390 5.12571E-03-1.05407E-03-1.73343E-14
 -1      1391 4.89140E-03-9.66528E-04-1.57951E-14
 -1      1392 5.26527E-03-1.07738E-03-1.83648E-14
 -1      1393 5.40242E-03-1.09106E-03-1.94227E-14
 -1      1394 5.18582E-03-1.03034E-03-1.77870E-14
 -1      1395 5.53804E-03-1.09365E-03-2.05087E-14
 -1      1396 5.67327E-03-1.08453E-03-2.16235E-14
 -1      1397 5.47165E-03-1.05850E-03-1.98937E-14
 -1      1398 5.80920E-03-1.06376E-03-2.27642E-14
 -1      1399 5.94698E-03-1.03206E-03-2.39324E-14
 -1      1400 5.75451E-03-1.04018E-03-2.21122E-14
 -1      1401 6.08744E-03-9.91007E-04-2.51278E-14
 -1      1402 6.23130E-03-9.42344E-04-2.63519E-14
 -1      1403 6.04139E-03-9.75872E-04-2.44396E-14
 -1      1404 6.37888E-03-8.88411E-04-2.76024E-14
 -1      1405 6.53028E-03-8.31258E-04-2.88789E-14
 -1      1406 6.33773E-03-8.77143E-04-2.68783E-14
 -1      1407 6.68529E-03-7.73066E-04-3.01883E-14
 -1      1408 6.84352E-03-7.15551E-04-3.15256E-14
 -1      1409 6.64549E-03-7.61422E-04-2.94309E-14
 -1      1410 7.00442E-03-6.60153E-04-3.28917E-14
 -1      1411 7.16737E-03-6.07947E-04-3.42870E-14
 -1      1412 6.96322E-03-6.45321E-04-3.20980E-14
 -1      1413 7.33174E-03-5.59525E-04-3.57069E-14
 -1      1414 7.49690E-03-5.15347E-04-3.71534E-14
 -1      1415 7.28743E-03-5.40320E-04-3.48766E-14
 -1      1416 7.66229E-03-4.75363E-04-3.86236E-14
 -1      1417 7.82743E-03-4.39598E-04-4.01146E-14
 -1      1418 7.61417E-03-4.51838E-04-3.77570E-14
 -1      1419 7.99193E-03-4.07653E-04-4.16312E-14
 -1      1420 8.15546E-03-3.79308E-04-4.31706E-14
 -1      1421 7.94008E-03-3.80545E-04-4.07338E-14
 -1      1422 8.31782E-03-3.54053E-04-4.47334E-14
 -1      1423 8.47883E-03-3.31569E-04-4.63181E-14
 -1      1424 8.26280E-03-3.24333E-04-4.38044E-14
 -1      1425 8.63841E-03-3.11375E-04-4.79249E-14
 -1      1426 8.79651E-03-2.93141E-04-4.95568E-14
 -1      1427 8.58096E-03-2.79970E-04-4.69646E-14
 -1      1428 8.95316E-03-2.76478E-04-5.12093E-14
 -1      1429 9.10837E-03-2.61091E-04-5.28824E-14
 -1      1430 8.89403E-03-2.44147E-04-5.02136E-14
 -1      1431 9.26223E-03-2.46695E-04-5.45783E-14
 -1      1432 9.41479E-03-2.33046E-04-5.62940E-14
 -1      1433 9.20208E-03-2.13996E-04-5.35516E-14
 -1      1434 9.56616E-03-2.19953E-04-5.80301E-14
 -1      1435 9.71642E-03-2.07228E-04-5.97856E-14
 -1      1436 9.50549E-03-1.87264E-04-5.69729E-14
 -1      1437 9.86569E-03-1.94750E-04-6.15589E-14
 -1      1438 1.00140E-02-1.82382E-04-6.33514E-14
 -1      1439 9.80488E-03-1.62301E-04-6.04731E-14
 -1      1440 1.01616E-02-1.70056E-04-6.51639E-14
 -1      1441 1.03084E-02-1.57677E-04-6.69917E-14
 -1      1442 1.01009E-02-1.37970E-04-6.40485E-14
 -1      1443 1.04546E-02-1.45212E-04-6.88340E-14
 -1      1444 1.06002E-02-1.32599E-04-7.06898E-14
 -1      1445 1.03941E-02-1.13537E-04-6.76934E-14
 -1      1446 1.07454E-02-1.19829E-04-7.25617E-14
 -1      1447 1.08901E-02-1.06863E-04-7.44507E-14
 -1      1448 1.06852E-02-8.85665E-05-7.14015E-14
 -1      1449 1.10344E-02-9.37088E-05-7.63523E-14
 -1      1450 1.11785E-02-8.03436E-05-7.82664E-14
 -1      1451 1.09747E-02-6.28309E-05-7.51697E-14
 -1      1452 1.13223E-02-6.67826E-05-8.01963E-14
 -1      1453 1.14658E-02-5.30160E-05-8.21400E-14
 -1      1454 1.12628E-02-3.62462E-05-7.89961E-14
 -1      1455 1.16092E-02-3.90625E-05-8.40959E-14
 -1      1456 1.17524E-02-2.49203E-05-8.60652E-14
 -1      1457 1.15501E-02-8.81874E-06-8.28783E-14
 -1      1458 1.18955E-02-1.06091E-05-8.80532E-14
 -1      1459 1.20385E-02 3.86791E-06-9.00575E-14
 -1      1460 1.18367E-02 1.93913E-05-8.68161E-14
 -1      1461 1.21814E-02 1.84918E-05-9.20750E-14
 -1      1462 1.23243E-02 3.32563E-05-9.41087E-14
 -1      1463 1.21228E-02 4.82951E-05-9.08154E-14
 -1      1464 1.24671E-02 4.81442E-05-9.61562E-14
 -1      1465 1.26099E-02 6.31478E-05-9.82167E-14
 -1      1466 1.24087E-02 7.77919E-05-9.48739E-14
 -1      1467 1.27527E-02 7.82519E-05-1.00292E-13
 -1      1468 1.28954E-02 9.34481E-05-1.02380E-13
 -1      1469 1.26944E-02 1.07780E-04-9.89892E-14
 -1      1470 1.30381E-02 1.08723E-04-1.04478E-13
 -1      1471 1.31809E-02 1.24069E-04-1.06586E-13
 -1      1472 1.29800E-02 1.38163E-04-1.03153E-13
 -1      1473 1.33236E-02 1.39474E-04-1.08702E-13
 -1      1474 1.34663E-02 1.54931E-04-1.10825E-13
 -1      1475 1.32655E-02 1.68852E-04-1.07362E-13
 -1      1476 1.36091E-02 1.70429E-04-1.12957E-13
 -1      1477 1.37519E-02 1.85961E-04-1.15090E-13
 -1      1478 1.35511E-02 1.99766E-04-1.11605E-13
 -1      1479 1.38947E-02 2.01519E-04-1.17239E-13
 -1      1480 1.40374E-02 2.17095E-04-1.19400E-13
 -1      1481 1.38367E-02 2.30834E-04-1.15879E-13
 -1      1482 1.41803E-02 2.32682E-04-1.21565E-13
 -1      1483 1.43231E-02 2.48272E-04-1.23734E-13
 -1      1484 1.41223E-02 2.61991E-04-1.20189E-13
 -1      1485 1.44659E-02 2.63861E-04-1.25911E-13
 -1      1486 1.46087E-02 2.79441E-04-1.28097E-13
 -1      1487 1.44079E-02 2.93177E-04-1.24526E-13
 -1      1488 1.48174E-02 3.06327E-04-1.31242E-13
 -1      1489 1.47595E-02 3.35664E-04-1.29843E-13
 -1      1490 6.46078E-04 3.54167E-04 4.28395E-17
 -1      1491 4.94169E-04 2.91145E-04 5.54569E-17
 -1      1492 4.47913E-04 2.53422E-04 2.64816E-17
 -1      1493 9.37515E-04 4.43406E-04-5.13505E-17
 -1      1494 7.93344E-04 4.03274E-04 7.26415E-18
 -1      1495 7.52259E-04 3.67364E-04-3.32715E-17
 -1      1496 1.22153E-03 5.02230E-04-2.39378E-16
 -1      1497 1.07987E-03 4.75804E-04-1.33032E-16
 -1      1498 1.04541E-03 4.41793E-04-1.83528E-16
 -1      1499 1.50507E-03 5.41228E-04-5.27519E-16
 -1      1500 1.36300E-03 5.23771E-04-3.70513E-16
 -1      1501 1.33359E-03 4.90770E-04-4.30103E-16
 -1      1502 1.79237E-03 5.66829E-04-9.20406E-16
 -1      1503 1.64802E-03 5.55381E-04-7.10396E-16
 -1      1504 1.62194E-03 5.22698E-04-7.77915E-16
 -1      1505 2.08628E-03 5.83873E-04-1.41938E-15
 -1      1506 1.93833E-03 5.76125E-04-1.15655E-15
 -1      1507 1.91401E-03 5.43222E-04-1.23066E-15
 -1      1508 2.38899E-03 5.96759E-04-2.02529E-15
 -1      1509 2.23641E-03 5.90528E-04-1.70899E-15
 -1      1510 2.21229E-03 5.56958E-04-1.79002E-15
 -1      1511 2.70221E-03 6.10102E-04-2.73790E-15
 -1      1512 2.54418E-03 6.03032E-04-2.36855E-15
 -1      1513 2.51865E-03 5.68387E-04-2.45569E-15
 -1      1514 3.02715E-03 6.29205E-04-3.55316E-15
 -1      1515 2.86314E-03 6.18553E-04-3.13257E-15
 -1      1516 2.83451E-03 5.82434E-04-3.22542E-15
 -1      1517 3.36419E-03 6.60351E-04-4.47414E-15
 -1      1518 3.19415E-03 6.42868E-04-4.00056E-15
 -1      1519 3.16072E-03 6.04900E-04-4.09930E-15
 -1      1520 3.71224E-03 7.10710E-04-5.50046E-15
 -1      1521 3.53695E-03 6.82761E-04-4.97371E-15
 -1      1522 3.49723E-03 6.42645E-04-5.07797E-15
 -1      1523 4.06795E-03 7.87395E-04-6.63309E-15
 -1      1524 3.88944E-03 7.45565E-04-6.05362E-15
 -1      1525 3.84261E-03 7.03210E-04-6.16130E-15
 -1      1526 4.42508E-03 8.94979E-04-7.87090E-15
 -1      1527 4.24686E-03 8.37521E-04-7.23853E-15
 -1      1528 4.19350E-03 7.93268E-04-7.35120E-15
 -1      1529 4.77462E-03 1.03111E-03-9.22320E-15
 -1      1530 4.60149E-03 9.60332E-04-8.53236E-15
 -1      1531 4.54422E-03 9.15232E-04-8.64978E-15
 -1      1532 5.10689E-03 1.18144E-03-1.06975E-14
 -1      1533 4.94353E-03 1.10613E-03-9.94440E-15
 -1      1534 4.88726E-03 1.06209E-03-1.00651E-14
 -1      1535 5.41578E-03 1.31797E-03-1.22977E-14
 -1      1536 5.26440E-03 1.25352E-03-1.14818E-14
 -1      1537 5.21550E-03 1.21285E-03-1.16033E-14
 -1      1538 5.70378E-03 1.40622E-03-1.40249E-14
 -1      1539 5.56178E-03 1.36979E-03-1.31451E-14
 -1      1540 5.52611E-03 1.33410E-03-1.32688E-14
 -1      1541 5.98347E-03 1.42132E-03-1.58856E-14
 -1      1542 5.84351E-03 1.42314E-03-1.49390E-14
 -1      1543 5.82424E-03 1.39210E-03-1.50646E-14
 -1      1544 6.27194E-03 1.36345E-03-1.78733E-14
 -1      1545 6.12552E-03 1.40014E-03-1.68629E-14
 -1      1546 6.12200E-03 1.37138E-03-1.69906E-14
 -1      1547 6.58189E-03 1.25689E-03-1.99912E-14
 -1      1548 6.42376E-03 1.31401E-03-1.89160E-14
 -1      1549 6.43193E-03 1.28478E-03-1.90469E-14
 -1      1550 6.91607E-03 1.13641E-03-2.22408E-14
 -1      1551 6.74616E-03 1.19641E-03-2.10997E-14
 -1      1552 6.76006E-03 1.16492E-03-2.12342E-14
 -1      1553 7.26857E-03 1.03043E-03-2.46113E-14
 -1      1554 7.09063E-03 1.08050E-03-2.34110E-14
 -1      1555 7.10427E-03 1.04641E-03-2.35475E-14
 -1      1556 7.62978E-03 9.53662E-04-2.71033E-14
 -1      1557 7.44873E-03 9.88131E-04-2.58434E-14
 -1      1558 7.45774E-03 9.51993E-04-2.59811E-14
 -1      1559 7.99083E-03 9.08814E-04-2.97017E-14
 -1      1560 7.81082E-03 9.27481E-04-2.83894E-14
 -1      1561 7.81303E-03 8.90145E-04-2.85261E-14
 -1      1562 8.34559E-03 8.91784E-04-3.23972E-14
 -1      1563 8.16930E-03 8.97242E-04-3.10366E-14
 -1      1564 8.16436E-03 8.59466E-04-3.11752E-14
 -1      1565 8.69087E-03 8.96057E-04-3.51920E-14
 -1      1566 8.51955E-03 8.91681E-04-3.37826E-14
 -1      1567 8.50828E-03 8.54011E-04-3.39239E-14
 -1      1568 9.02571E-03 9.15264E-04-3.80848E-14
 -1      1569 8.85961E-03 9.04144E-04-3.66267E-14
 -1      1570 8.84328E-03 8.66911E-04-3.67704E-14
 -1      1571 9.35057E-03 9.44208E-04-4.10656E-14
 -1      1572 9.18933E-03 9.28781E-04-3.95643E-14
 -1      1573 9.16925E-03 8.92144E-04-3.97067E-14
 -1      1574 9.66660E-03 9.79038E-04-4.41289E-14
 -1      1575 9.50960E-03 9.61073E-04-4.25874E-14
 -1      1576 9.48691E-03 9.25075E-04-4.27302E-14
 -1      1577 9.97523E-03 1.01707E-03-4.72840E-14
 -1      1578 9.82175E-03 9.97781E-04-4.56952E-14
 -1      1579 9.79734E-03 9.62396E-04-4.58388E-14
 -1      1580 1.02779E-02 1.05654E-03-5.05208E-14
 -1      1581 1.01272E-02 1.03671E-03-4.88918E-14
 -1      1582 1.01018E-02 1.00187E-03-4.90348E-14
 -1      1583 1.05758E-02 1.09630E-03-5.38401E-14
 -1      1584 1.04274E-02 1.07643E-03-5.21698E-14
 -1      1585 1.04014E-02 1.04206E-03-5.23148E-14
 -1      1586 1.08702E-02 1.13569E-03-5.72566E-14
 -1      1587 1.07234E-02 1.11607E-03-5.55351E-14
 -1      1588 1.06971E-02 1.08209E-03-5.56816E-14
 -1      1589 1.11618E-02 1.17434E-03-6.07670E-14
 -1      1590 1.10163E-02 1.15512E-03-5.89997E-14
 -1      1591 1.09899E-02 1.12147E-03-5.91436E-14
 -1      1592 1.14514E-02 1.21209E-03-6.43704E-14
 -1      1593 1.13068E-02 1.19334E-03-6.25578E-14
 -1      1594 1.12805E-02 1.15993E-03-6.27001E-14
 -1      1595 1.17395E-02 1.24891E-03-6.80728E-14
 -1      1596 1.15956E-02 1.23062E-03-6.62098E-14
 -1      1597 1.15695E-02 1.19741E-03-6.63496E-14
 -1      1598 1.20266E-02 1.28483E-03-7.18533E-14
 -1      1599 1.18832E-02 1.26698E-03-6.99545E-14
 -1      1600 1.18573E-02 1.23392E-03-7.00860E-14
 -1      1601 1.23131E-02 1.31993E-03-7.57085E-14
 -1      1602 1.21699E-02 1.30248E-03-7.37722E-14
 -1      1603 1.21442E-02 1.26953E-03-7.38987E-14
 -1      1604 1.25990E-02 1.35433E-03-7.96346E-14
 -1      1605 1.24561E-02 1.33721E-03-7.76637E-14
 -1      1606 1.24306E-02 1.30435E-03-7.77861E-14
 -1      1607 1.28847E-02 1.38812E-03-8.36178E-14
 -1      1608 1.27419E-02 1.37129E-03-8.16190E-14
 -1      1609 1.27165E-02 1.33848E-03-8.17374E-14
 -1      1610 1.31702E-02 1.42141E-03-8.76573E-14
 -1      1611 1.30275E-02 1.40482E-03-8.56312E-14
 -1      1612 1.30023E-02 1.37205E-03-8.57471E-14
 -1      1613 1.34557E-02 1.45431E-03-9.17424E-14
 -1      1614 1.33130E-02 1.43790E-03-8.96940E-14
 -1      1615 1.32879E-02 1.40516E-03-8.98062E-14
 -1      1616 1.37411E-02 1.48690E-03-9.58605E-14
 -1      1617 1.35984E-02 1.47064E-03-9.37990E-14
 -1      1618 1.35734E-02 1.43791E-03-9.39055E-14
 -1      1619 1.40266E-02 1.51926E-03-1.00007E-13
 -1      1620 1.38839E-02 1.50310E-03-9.79326E-14
 -1      1621 1.38589E-02 1.47039E-03-9.80374E-14
 -1      1622 1.43121E-02 1.55147E-03-1.04178E-13
 -1      1623 1.41694E-02 1.53538E-03-1.02089E-13
 -1      1624 1.41445E-02 1.50267E-03-1.02193E-13
 -1      1625 1.45977E-02 1.58358E-03-1.08366E-13
 -1      1626 1.44549E-02 1.56753E-03-1.06269E-13
 -1      1627 1.44300E-02 1.53482E-03-1.06370E-13
 -1      1628 1.48833E-02 1.61567E-03-1.12562E-13
 -1      1629 1.47405E-02 1.59963E-03-1.10465E-13
 -1      1630 1.47157E-02 1.56691E-03-1.10561E-13
 -1      1631 1.51690E-02 1.64777E-03-1.16753E-13
 -1      1632 1.50262E-02 1.63171E-03-1.14659E-13
 -1      1633 1.50013E-02 1.59899E-03-1.14756E-13
 -1      1634 1.53138E-02 1.65362E-03-1.19038E-13
 -1      1635 1.52862E-02 1.54959E-03-1.20212E-13
 -1      1636 1.53021E-02 1.59175E-03-1.19811E-13
 -1      1637 1.52546E-02 1.46525E-03-1.21014E-13
 -1      1638 1.52704E-02 1.50742E-03-1.20614E-13
 -1      1639 1.51546E-02 1.51459E-03-1.18591E-13
 -1      1640 1.52229E-02 1.38085E-03-1.21806E-13
 -1      1641 1.52387E-02 1.42306E-03-1.21411E-13
 -1      1642 1.51229E-02 1.43025E-03-1.19386E-13
 -1      1643 1.51913E-02 1.29642E-03-1.22597E-13
 -1      1644 1.52071E-02 1.33864E-03-1.22203E-13
 -1      1645 1.50912E-02 1.34586E-03-1.20178E-13
 -1      1646 1.51603E-02 1.21337E-03-1.23382E-13
 -1      1647 1.51758E-02 1.25490E-03-1.22988E-13
 -1      1648 1.50599E-02 1.26216E-03-1.20962E-13
 -1      1649 1.51289E-02 1.12887E-03-1.24180E-13
 -1      1650 1.51446E-02 1.17112E-03-1.23781E-13
 -1      1651 1.50287E-02 1.17843E-03-1.21747E-13
 -1      1652 1.50976E-02 1.04434E-03-1.24967E-13
 -1      1653 1.51132E-02 1.08660E-03-1.24575E-13
 -1      1654 1.49973E-02 1.09396E-03-1.22532E-13
 -1      1655 1.50665E-02 9.59806E-04-1.25752E-13
 -1      1656 1.50820E-02 1.00207E-03-1.25360E-13
 -1      1657 1.49661E-02 1.00948E-03-1.23313E-13
 -1      1658 1.50355E-02 8.75275E-04-1.26519E-13
 -1      1659 1.50510E-02 9.17539E-04-1.26140E-13
 -1      1660 1.49350E-02 9.25002E-04-1.24087E-13
 -1      1661 1.50046E-02 7.90759E-04-1.27259E-13
 -1      1662 1.50200E-02 8.33014E-04-1.26890E-13
 -1      1663 1.49040E-02 8.40524E-04-1.24843E-13
 -1      1664 1.49744E-02 7.07700E-04-1.27993E-13
 -1      1665 1.49895E-02 7.49226E-04-1.27626E-13
 -1      1666 1.48734E-02 7.56775E-04-1.25580E-13
 -1      1667 1.49438E-02 6.23244E-04-1.28744E-13
 -1      1668 1.49591E-02 6.65467E-04-1.28368E-13
 -1      1669 1.48430E-02 6.73046E-04-1.26318E-13
 -1      1670 1.49132E-02 5.38831E-04-1.29483E-13
 -1      1671 1.49285E-02 5.81032E-04-1.29114E-13
 -1      1672 1.48124E-02 5.88630E-04-1.27054E-13
 -1      1673 1.48827E-02 4.54465E-04-1.30208E-13
 -1      1674 1.48979E-02 4.96642E-04-1.29850E-13
 -1      1675 1.47818E-02 5.04247E-04-1.27780E-13
 -1      1676 1.48134E-02 3.73979E-04-1.30206E-13
 -1      1677 1.48287E-02 4.16137E-04-1.29855E-13
 -1      1678 1.47126E-02 4.23736E-04-1.27787E-13
 -1      1679 1.46047E-02 3.47084E-04-1.27069E-13
 -1      1680 7.95944E-03 2.84300E-04-2.36038E-14
 -1      1681 7.98386E-03 2.41181E-04-2.37703E-14
 -1      1682 7.78836E-03 3.91632E-04-2.31147E-14
 -1      1683 7.88821E-03 3.34711E-04-2.34374E-14
 -1      1684 7.51930E-03 5.47300E-04-2.22087E-14
 -1      1685 7.65151E-03 4.80938E-04-2.25790E-14
 -1      1686 7.17711E-03 7.14350E-04-2.12648E-14
 -1      1687 7.34322E-03 6.34040E-04-2.17173E-14
 -1      1688 6.81246E-03 8.86133E-04-2.02276E-14
 -1      1689 6.98337E-03 8.09872E-04-2.07006E-14
 -1      1690 6.41126E-03 1.03867E-03-1.90898E-14
 -1      1691 6.60192E-03 9.71593E-04-1.96307E-14
 -1      1692 6.01678E-03 1.12869E-03-1.79645E-14
 -1      1693 6.19545E-03 1.09682E-03-1.84739E-14
 -1      1694 5.62800E-03 1.13491E-03-1.68805E-14
 -1      1695 5.80662E-03 1.14444E-03-1.73711E-14
 -1      1696 5.21459E-03 1.04303E-03-1.58317E-14
 -1      1697 5.40930E-03 1.09853E-03-1.63007E-14
 -1      1698 4.79414E-03 8.80208E-04-1.49770E-14
 -1      1699 4.98283E-03 9.60644E-04-1.53483E-14
 -1      1700 4.40085E-03 6.88507E-04-1.42883E-14
 -1      1701 4.58098E-03 7.76653E-04-1.45721E-14
 -1      1702 4.02718E-03 5.03395E-04-1.37956E-14
 -1      1703 4.19358E-03 5.86410E-04-1.39991E-14
 -1      1704 3.72693E-03 3.60905E-04-1.35436E-14
 -1      1705 3.84993E-03 4.25961E-04-1.36533E-14
 -1      1706 3.53234E-03 2.35345E-04-1.34199E-14
 -1      1707 3.60938E-03 2.88101E-04-1.34438E-14
 -1      1708 3.46574E-03 1.36288E-04-1.35343E-14
 -1      1709 3.47960E-03 1.80710E-04-1.34671E-14
 -1      1710 3.54385E-03 3.80996E-05-1.37642E-14
 -1      1711 3.48690E-03 8.54485E-05-1.35924E-14
 -1      1712 3.74076E-03-8.84593E-05-1.43141E-14
 -1      1713 3.63974E-03-3.41785E-05-1.40827E-14
 -1      1714 4.05211E-03-2.24301E-04-1.49385E-14
 -1      1715 3.89768E-03-1.51059E-04-1.45980E-14
 -1      1716 4.40894E-03-4.00622E-04-1.58076E-14
 -1      1717 4.23840E-03-3.22589E-04-1.54093E-14
 -1      1718 4.81171E-03-5.67723E-04-1.67929E-14
 -1      1719 4.62576E-03-4.90712E-04-1.63154E-14
 -1      1720 5.22001E-03-6.99895E-04-1.78975E-14
 -1      1721 5.04055E-03-6.46148E-04-1.73797E-14
 -1      1722 5.59749E-03-7.47482E-04-1.90374E-14
 -1      1723 5.42102E-03-7.33908E-04-1.85214E-14
 -1      1724 5.97865E-03-7.17579E-04-2.01539E-14
 -1      1725 5.80349E-03-7.42631E-04-1.96470E-14
 -1      1726 6.34137E-03-6.19727E-04-2.11257E-14
 -1      1727 6.17952E-03-6.70395E-04-2.06965E-14
 -1      1728 6.69827E-03-4.80226E-04-2.19962E-14
 -1      1729 6.53287E-03-5.49305E-04-2.16075E-14
 -1      1730 7.04514E-03-3.22859E-04-2.27334E-14
 -1      1731 6.88725E-03-3.96401E-04-2.24142E-14
 -1      1732 7.37884E-03-1.64205E-04-2.33234E-14
 -1      1733 7.22705E-03-2.37230E-04-2.30705E-14
 -1      1734 7.66826E-03-2.16270E-05-2.37259E-14
 -1      1735 7.54202E-03-8.46440E-05-2.35663E-14
 -1      1736 7.87954E-03 1.04551E-04-2.39805E-14
 -1      1737 7.79220E-03 5.38201E-05-2.39255E-14
 -1      1738 7.97719E-03 1.92051E-04-2.38617E-14
 -1      1739 7.94693E-03 1.52222E-04-2.39113E-14
 -1      1740 7.02413E-03 7.23503E-04-2.12127E-14
 -1      1741 7.38686E-03 5.39299E-04-2.22848E-14
 -1      1742 1.52889E-02 1.62089E-03-1.19140E-13
 -1      1743 1.51573E-02 1.58590E-03-1.17521E-13
 -1      1744 7.92484E-03 2.85363E-04-2.40464E-14
 -1      1745 7.70647E-03 3.81346E-04-2.33263E-14
 -1      1746 7.99014E-03 2.21550E-04-2.43126E-14
 -1      1747 6.64391E-03 9.17780E-04-2.00389E-14
 -1      1748 6.26379E-03 1.07885E-03-1.88176E-14
 -1      1749 5.89947E-03 1.16279E-03-1.76071E-14
 -1      1750 5.54147E-03 1.13937E-03-1.64405E-14
 -1      1751 5.16000E-03 1.00510E-03-1.53909E-14
 -1      1752 4.75652E-03 8.01900E-04-1.45190E-14
 -1      1753 4.35639E-03 5.85900E-04-1.38427E-14
 -1      1754 3.97794E-03 4.07629E-04-1.34265E-14
 -1      1755 3.67838E-03 2.74916E-04-1.31930E-14
 -1      1756 3.50055E-03 1.84920E-04-1.31439E-14
 -1      1757 3.46720E-03 1.15430E-04-1.32456E-14
 -1      1758 3.59187E-03 4.40162E-05-1.36095E-14
 -1      1759 3.84991E-03-6.98484E-05-1.41996E-14
 -1      1760 4.19219E-03-2.22359E-04-1.49328E-14
 -1      1761 4.58202E-03-4.16529E-04-1.58951E-14
 -1      1762 4.98489E-03-6.03751E-04-1.69769E-14
 -1      1763 5.34522E-03-7.36519E-04-1.81801E-14
 -1      1764 5.69725E-03-7.71411E-04-1.94154E-14
 -1      1765 6.03597E-03-7.12052E-04-2.05761E-14
 -1      1766 6.37870E-03-5.80855E-04-2.16113E-14
 -1      1767 6.72606E-03-4.11358E-04-2.25235E-14
 -1      1768 7.07981E-03-2.31871E-04-2.32923E-14
 -1      1769 7.42159E-03-6.75923E-05-2.38860E-14
 -1      1770 7.71482E-03 7.00316E-05-2.43382E-14
 -1      1771 7.91368E-03 1.58330E-04-2.44742E-14
 -1      1772 2.86868E-04-1.69265E-04-7.81845E-17
 -1      1773 3.35010E-04-1.03620E-04-1.78311E-16
 -1      1774 3.39806E-04-1.20098E-04-1.72646E-16
 -1      1775 3.46236E-04-1.39595E-04-1.64758E-16
 -1      1776 3.55889E-04-1.62293E-04-1.52141E-16
 -1      1777 4.63636E-04-1.71025E-04-2.51494E-16
 -1      1778 3.23565E-04-5.39632E-05-1.83515E-16
 -1      1779 3.25701E-04-6.43941E-05-1.84098E-16
 -1      1780 3.20236E-04-3.50353E-05-1.80506E-16
 -1      1781 3.21758E-04-4.41157E-05-1.82309E-16
 -1      1782 4.34018E-04-6.52127E-05-2.69302E-16
 -1      1783 3.18099E-04-1.83728E-05-1.75194E-16
 -1      1784 3.19027E-04-2.64654E-05-1.78121E-16
 -1      1785 4.29505E-04-4.09144E-05-2.63868E-16
 -1      1786 3.17150E-04-2.96582E-06-1.68377E-16
 -1      1787 3.17477E-04-1.05561E-05-1.72198E-16
 -1      1788 4.26759E-04-1.92097E-05-2.55872E-16
 -1      1789 3.17422E-04 1.21437E-05-1.59757E-16
 -1      1790 3.17131E-04 4.58209E-06-1.64406E-16
 -1      1791 4.25794E-04 1.18334E-06-2.45545E-16
 -1      1792 3.18940E-04 2.79277E-05-1.48902E-16
 -1      1793 3.18021E-04 1.99073E-05-1.54811E-16
 -1      1794 4.26657E-04 2.15040E-05-2.32507E-16
 -1      1795 3.21661E-04 4.51025E-05-1.35634E-16
 -1      1796 3.20138E-04 3.62691E-05-1.42695E-16
 -1      1797 4.29350E-04 4.28346E-05-2.16339E-16
 -1      1798 3.25762E-04 6.54212E-05-1.18625E-16
 -1      1799 3.23517E-04 5.48634E-05-1.27909E-16
 -1      1800 4.33916E-04 6.66881E-05-1.96390E-16
 -1      1801 3.31558E-04 9.01444E-05-9.61552E-17
 -1      1802 3.28386E-04 7.71876E-05-1.08542E-16
 -1      1803 4.40612E-04 9.48914E-05-1.70938E-16
 -1      1804 3.40275E-04 1.21749E-04-6.62176E-17
 -1      1805 3.35359E-04 1.05016E-04-8.26840E-17
 -1      1806 4.50091E-04 1.29405E-04-1.37856E-16
 -1      1807 3.56573E-04 1.65394E-04-2.58311E-17
 -1      1808 3.47002E-04 1.41862E-04-4.79624E-17
 -1      1809 4.64841E-04 1.73732E-04-9.43391E-17
 -1      1810 4.11515E-04 2.21406E-04 6.99310E-18
 -1      1811 3.82379E-04 1.90308E-04-1.27800E-17
 -1      1812 5.02164E-04 2.26599E-04-5.30310E-17
 -1      1813 5.64420E-04 2.84794E-04-1.57345E-17
 -1      1814 3.43425E-04-1.80944E-04-1.20739E-16
 -1      1815 8.64970E-04 3.78258E-04-1.27855E-16
 -1      1816 7.15526E-04 3.36123E-04-6.06340E-17
 -1      1817 6.82102E-04 3.05691E-04-8.45136E-17
 -1      1818 4.64318E-04-2.22004E-04-2.00740E-16
 -1      1819 8.18066E-04-3.47366E-04-5.09507E-16
 -1      1820 9.66518E-04-3.83306E-04-6.98850E-16
 -1      1821 1.11308E-03-4.12835E-04-9.20284E-16
 -1      1822 1.25908E-03-4.36698E-04-1.17365E-15
 -1      1823 1.01927E-03-3.62586E-04-8.31678E-16
 -1      1824 1.40447E-03-4.56327E-04-1.45855E-15
 -1      1825 1.54989E-03-4.72098E-04-1.77473E-15
 -1      1826 1.31251E-03-4.10285E-04-1.33949E-15
 -1      1827 1.69554E-03-4.85026E-04-2.12182E-15
 -1      1828 1.84176E-03-4.95469E-04-2.50006E-15
 -1      1829 1.60476E-03-4.41741E-04-1.97047E-15
 -1      1830 1.98874E-03-5.04208E-04-2.90816E-15
 -1      1831 2.13668E-03-5.11618E-04-3.34663E-15
 -1      1832 1.89799E-03-4.62340E-04-2.72391E-15
 -1      1833 2.28574E-03-5.18384E-04-3.81556E-15
 -1      1834 2.43600E-03-5.24910E-04-4.31447E-15
 -1      1835 2.19380E-03-4.76676E-04-3.59691E-15
 -1      1836 2.58760E-03-5.31868E-04-4.84259E-15
 -1      1837 2.74052E-03-5.39693E-04-5.40078E-15
 -1      1838 2.49338E-03-4.89063E-04-4.58817E-15
 -1      1839 2.89491E-03-5.49071E-04-5.98890E-15
 -1      1840 3.05057E-03-5.60458E-04-6.60474E-15
 -1      1841 2.79761E-03-5.03870E-04-5.69698E-15
 -1      1842 3.20769E-03-5.74528E-04-7.24976E-15
 -1      1843 3.36586E-03-5.91717E-04-7.92296E-15
 -1      1844 3.10703E-03-5.25640E-04-6.92133E-15
 -1      1845 3.52532E-03-6.12582E-04-8.62441E-15
 -1      1846 3.68537E-03-6.37440E-04-9.35425E-15
 -1      1847 3.42178E-03-5.58919E-04-8.25810E-15
 -1      1848 3.84631E-03-6.66543E-04-1.01126E-14
 -1      1849 4.00715E-03-6.99899E-04-1.08995E-14
 -1      1850 3.74140E-03-6.07619E-04-9.70784E-15
 -1      1851 4.16821E-03-7.37188E-04-1.17145E-14
 -1      1852 4.32828E-03-7.77851E-04-1.25585E-14
 -1      1853 4.06446E-03-6.73747E-04-1.12696E-14
 -1      1854 4.48760E-03-8.20744E-04-1.34314E-14
 -1      1855 4.64510E-03-8.64497E-04-1.43330E-14
 -1      1856 4.38828E-03-7.55400E-04-1.29461E-14
 -1      1857 4.80077E-03-9.07091E-04-1.52638E-14
 -1      1858 4.95421E-03-9.46406E-04-1.62245E-14
 -1      1859 4.70898E-03-8.44490E-04-1.47388E-14
 -1      1860 5.10515E-03-9.79931E-04-1.72156E-14
 -1      1861 5.25427E-03-1.00532E-03-1.82353E-14
 -1      1862 5.02270E-03-9.25711E-04-1.66495E-14
 -1      1863 5.40109E-03-1.02046E-03-1.92832E-14
 -1      1864 5.54747E-03-1.02383E-03-2.03597E-14
 -1      1865 5.32781E-03-9.79004E-04-1.86776E-14
 -1      1866 5.69282E-03-1.01460E-03-2.14643E-14
 -1      1867 5.83944E-03-9.92873E-04-2.25963E-14
 -1      1868 5.62708E-03-9.86702E-04-2.08207E-14
 -1      1869 5.98676E-03-9.59560E-04-2.37563E-14
 -1      1870 6.13654E-03-9.16287E-04-2.49442E-14
 -1      1871 5.92681E-03-9.42068E-04-2.30772E-14
 -1      1872 6.28832E-03-8.65274E-04-2.61596E-14
 -1      1873 6.44272E-03-8.08867E-04-2.74038E-14
 -1      1874 6.23315E-03-8.52932E-04-2.54448E-14
 -1      1875 6.59949E-03-7.49565E-04-2.86772E-14
 -1      1876 6.75816E-03-6.89488E-04-2.99788E-14
 -1      1877 6.54851E-03-7.37520E-04-2.79276E-14
 -1      1878 6.91875E-03-6.30603E-04-3.13080E-14
 -1      1879 7.08019E-03-5.74242E-04-3.26655E-14
 -1      1880 6.87110E-03-6.15820E-04-3.05222E-14
 -1      1881 7.24271E-03-5.21512E-04-3.40500E-14
 -1      1882 7.40516E-03-4.72958E-04-3.54600E-14
 -1      1883 7.19701E-03-5.02793E-04-3.32294E-14
 -1      1884 7.56785E-03-4.28900E-04-3.68967E-14
 -1      1885 7.72983E-03-3.89350E-04-3.83575E-14
 -1      1886 7.52249E-03-4.06247E-04-3.60422E-14
 -1      1887 7.89138E-03-3.54099E-04-3.98413E-14
 -1      1888 8.05187E-03-3.22886E-04-4.13479E-14
 -1      1889 7.84501E-03-3.28098E-04-3.89546E-14
 -1      1890 8.21150E-03-2.95246E-04-4.28800E-14
 -1      1891 8.36992E-03-2.70827E-04-4.44338E-14
 -1      1892 8.16327E-03-2.66686E-04-4.19599E-14
 -1      1893 8.52725E-03-2.49104E-04-4.60080E-14
 -1      1894 8.68337E-03-2.29730E-04-4.76056E-14
 -1      1895 8.47682E-03-2.18763E-04-4.50573E-14
 -1      1896 8.83833E-03-2.12231E-04-4.92253E-14
 -1      1897 8.99215E-03-1.96310E-04-5.08677E-14
 -1      1898 8.78576E-03-1.80780E-04-4.82439E-14
 -1      1899 9.14486E-03-1.81588E-04-5.25315E-14
 -1      1900 9.29655E-03-1.67829E-04-5.42161E-14
 -1      1901 9.09042E-03-1.49556E-04-5.15162E-14
 -1      1902 9.44722E-03-1.54756E-04-5.59212E-14
 -1      1903 9.59702E-03-1.42190E-04-5.76464E-14
 -1      1904 9.39130E-03-1.22528E-04-5.48750E-14
 -1      1905 9.74595E-03-1.29945E-04-5.93925E-14
 -1      1906 9.89414E-03-1.17891E-04-6.11560E-14
 -1      1907 9.68892E-03-9.77836E-05-5.83160E-14
 -1      1908 1.00416E-02-1.05913E-04-6.29369E-14
 -1      1909 1.01885E-02-9.39201E-05-6.47396E-14
 -1      1910 9.98381E-03-7.39782E-05-6.18341E-14
 -1      1911 1.03347E-02-8.18484E-05-6.65584E-14
 -1      1912 1.04805E-02-6.96389E-05-6.83913E-14
 -1      1913 1.02765E-02-5.02263E-05-6.54254E-14
 -1      1914 1.06258E-02-5.72630E-05-7.02427E-14
 -1      1915 1.07708E-02-4.46842E-05-7.21083E-14
 -1      1916 1.05673E-02-2.59863E-05-6.90865E-14
 -1      1917 1.09154E-02-3.18978E-05-7.39895E-14
 -1      1918 1.10597E-02-1.88830E-05-7.58876E-14
 -1      1919 1.08567E-02-9.64120E-07-7.28135E-14
 -1      1920 1.12037E-02-5.64948E-06-7.77972E-14
 -1      1921 1.13475E-02 7.81224E-06-7.97223E-14
 -1      1922 1.11450E-02 2.49648E-05-7.66009E-14
 -1      1923 1.14912E-02 2.14846E-05-8.16615E-14
 -1      1924 1.16346E-02 3.53698E-05-8.36129E-14
 -1      1925 1.14325E-02 5.18148E-05-8.04451E-14
 -1      1926 1.17779E-02 4.94468E-05-8.55799E-14
 -1      1927 1.19212E-02 6.37131E-05-8.75627E-14
 -1      1928 1.17194E-02 7.95329E-05-8.43476E-14
 -1      1929 1.20643E-02 7.81468E-05-8.95601E-14
 -1      1930 1.22073E-02 9.27429E-05-9.15711E-14
 -1      1931 1.20058E-02 1.08029E-04-8.83054E-14
 -1      1932 1.23503E-02 1.07480E-04-9.35968E-14
 -1      1933 1.24932E-02 1.22353E-04-9.56365E-14
 -1      1934 1.22919E-02 1.37197E-04-9.23235E-14
 -1      1935 1.26361E-02 1.37341E-04-9.76898E-14
 -1      1936 1.27790E-02 1.52439E-04-9.97580E-14
 -1      1937 1.25778E-02 1.66928E-04-9.63964E-14
 -1      1938 1.29218E-02 1.67628E-04-1.01838E-13
 -1      1939 1.30646E-02 1.82902E-04-1.03927E-13
 -1      1940 1.28636E-02 1.97114E-04-1.00523E-13
 -1      1941 1.32074E-02 1.98247E-04-1.06029E-13
 -1      1942 1.33503E-02 2.13656E-04-1.08139E-13
 -1      1943 1.31493E-02 2.27659E-04-1.04698E-13
 -1      1944 1.34931E-02 2.29115E-04-1.10256E-13
 -1      1945 1.36359E-02 2.44618E-04-1.12383E-13
 -1      1946 1.34350E-02 2.58475E-04-1.08911E-13
 -1      1947 1.37787E-02 2.60156E-04-1.14520E-13
 -1      1948 1.39215E-02 2.75720E-04-1.16664E-13
 -1      1949 1.37206E-02 2.89484E-04-1.13162E-13
 -1      1950 1.40643E-02 2.91302E-04-1.18816E-13
 -1      1951 1.42071E-02 3.06896E-04-1.20976E-13
 -1      1952 1.40063E-02 3.20616E-04-1.17446E-13
 -1      1953 1.43345E-02 3.19196E-04-1.22930E-13
 -1      1954 1.44774E-02 3.34791E-04-1.25102E-13
 -1      1955 1.45313E-02 3.73114E-04-1.25462E-13
 -1      1956 1.42765E-02 3.48511E-04-1.21548E-13
 -1      1957 1.15804E-03 4.40036E-04-3.31495E-16
 -1      1958 1.01191E-03 4.12366E-04-2.17586E-16
 -1      1959 9.79434E-04 3.82938E-04-2.47957E-16
 -1      1960 1.44828E-03 4.80536E-04-6.33445E-16
 -1      1961 1.30313E-03 4.62523E-04-4.69744E-16
 -1      1962 1.27254E-03 4.34209E-04-5.05713E-16
 -1      1963 1.73961E-03 5.06490E-04-1.03793E-15
 -1      1964 1.59356E-03 4.95031E-04-8.22760E-16
 -1      1965 1.56442E-03 4.67377E-04-8.63472E-16
 -1      1966 2.03484E-03 5.22953E-04-1.54802E-15
 -1      1967 1.88656E-03 5.15646E-04-1.27956E-15
 -1      1968 1.85800E-03 4.88191E-04-1.32469E-15
 -1      1969 2.33604E-03 5.34417E-04-2.16348E-15
 -1      1970 2.18456E-03 5.29047E-04-1.84245E-15
 -1      1971 2.15548E-03 5.01366E-04-1.89108E-15
 -1      1972 2.64482E-03 5.45512E-04-2.88437E-15
 -1      1973 2.48937E-03 5.39720E-04-2.51094E-15
 -1      1974 2.45860E-03 5.11389E-04-2.56263E-15
 -1      1975 2.96234E-03 5.61519E-04-3.70891E-15
 -1      1976 2.80240E-03 5.52565E-04-3.28356E-15
 -1      1977 2.76873E-03 5.23114E-04-3.33820E-15
 -1      1978 3.28925E-03 5.88730E-04-4.63819E-15
 -1      1979 3.12459E-03 5.73340E-04-4.16052E-15
 -1      1980 3.08696E-03 5.42225E-04-4.21799E-15
 -1      1981 3.62540E-03 6.34480E-04-5.67099E-15
 -1      1982 3.45625E-03 6.08886E-04-5.14177E-15
 -1      1983 3.41394E-03 5.75507E-04-5.20169E-15
 -1      1984 3.96942E-03 7.06396E-04-6.80998E-15
 -1      1985 3.79668E-03 6.66846E-04-6.22720E-15
 -1      1986 3.74977E-03 6.30660E-04-6.28963E-15
 -1      1987 4.31823E-03 8.10192E-04-8.05496E-15
 -1      1988 4.14372E-03 7.54278E-04-7.41899E-15
 -1      1989 4.09349E-03 7.15100E-04-7.48311E-15
 -1      1990 4.66663E-03 9.45376E-04-9.41174E-15
 -1      1991 4.49318E-03 8.74439E-04-8.71846E-15
 -1      1992 4.44242E-03 8.32981E-04-8.78408E-15
 -1      1993 5.00773E-03 1.09955E-03-1.08871E-14
 -1      1994 4.83880E-03 1.02155E-03-1.01346E-14
 -1      1995 4.79137E-03 9.79953E-04-1.01992E-14
 -1      1996 5.33536E-03 1.24497E-03-1.24882E-14
 -1      1997 5.17349E-03 1.17551E-03-1.16717E-14
 -1      1998 5.13310E-03 1.13715E-03-1.17358E-14
 -1      1999 5.64865E-03 1.34441E-03-1.42163E-14
 -1      2000 5.49328E-03 1.30244E-03-1.33362E-14
 -1      2001 5.46180E-03 1.27016E-03-1.33991E-14
 -1      2002 5.95469E-03 1.36775E-03-1.60770E-14
 -1      2003 5.80125E-03 1.36602E-03-1.51303E-14
 -1      2004 5.77855E-03 1.34012E-03-1.51918E-14
 -1      2005 6.26607E-03 1.31232E-03-1.80676E-14
 -1      2006 6.10855E-03 1.34857E-03-1.70556E-14
 -1      2007 6.09332E-03 1.32589E-03-1.71164E-14
 -1      2008 6.59157E-03 1.20301E-03-2.01905E-14
 -1      2009 6.42661E-03 1.26207E-03-1.91126E-14
 -1      2010 6.41816E-03 1.23917E-03-1.91740E-14
 -1      2011 6.93200E-03 1.07764E-03-2.24420E-14
 -1      2012 6.76023E-03 1.14033E-03-2.13002E-14
 -1      2013 6.75730E-03 1.11511E-03-2.13622E-14
 -1      2014 7.28188E-03 9.67117E-04-2.48147E-14
 -1      2015 7.10639E-03 1.01948E-03-2.36140E-14
 -1      2016 7.10663E-03 9.91879E-04-2.36757E-14
 -1      2017 7.63432E-03 8.87189E-04-2.73049E-14
 -1      2018 7.45839E-03 9.23142E-04-2.60465E-14
 -1      2019 7.45874E-03 8.93895E-04-2.61092E-14
 -1      2020 7.98381E-03 8.40633E-04-2.99022E-14
 -1      2021 7.80988E-03 8.60014E-04-2.85895E-14
 -1      2022 7.80776E-03 8.29858E-04-2.86523E-14
 -1      2023 8.32692E-03 8.23066E-04-3.26001E-14
 -1      2024 8.15642E-03 8.28658E-04-3.12388E-14
 -1      2025 8.15032E-03 7.98094E-04-3.12994E-14
 -1      2026 8.66202E-03 8.27595E-04-3.53978E-14
 -1      2027 8.49558E-03 8.22981E-04-3.39866E-14
 -1      2028 8.48506E-03 7.92326E-04-3.40463E-14
 -1      2029 8.98878E-03 8.47527E-04-3.82890E-14
 -1      2030 8.82645E-03 8.35965E-04-3.68330E-14
 -1      2031 8.81181E-03 8.05416E-04-3.68923E-14
 -1      2032 9.30765E-03 8.77419E-04-4.12686E-14
 -1      2033 9.14915E-03 8.61467E-04-3.97676E-14
 -1      2034 9.13103E-03 8.31146E-04-3.98265E-14
 -1      2035 9.61951E-03 9.13256E-04-4.43329E-14
 -1      2036 9.46438E-03 8.94757E-04-4.27906E-14
 -1      2037 9.44355E-03 8.64732E-04-4.28473E-14
 -1      2038 9.92540E-03 9.52255E-04-4.74855E-14
 -1      2039 9.77311E-03 9.32466E-04-4.58981E-14
 -1      2040 9.75027E-03 9.02762E-04-4.59553E-14
 -1      2041 1.02264E-02 9.92585E-04-5.07215E-14
 -1      2042 1.00764E-02 9.72319E-04-4.90921E-14
 -1      2043 1.00522E-02 9.42933E-04-4.91479E-14
 -1      2044 1.05234E-02 1.03310E-03-5.40418E-14
 -1      2045 1.03753E-02 1.01286E-03-5.23709E-14
 -1      2046 1.03501E-02 9.83764E-04-5.24244E-14
 -1      2047 1.08173E-02 1.07311E-03-5.74562E-14
 -1      2048 1.06707E-02 1.05319E-03-5.57376E-14
 -1      2049 1.06448E-02 1.02436E-03-5.57900E-14
 -1      2050 1.11088E-02 1.11228E-03-6.09632E-14
 -1      2051 1.09633E-02 1.09281E-03-5.91972E-14
 -1      2052 1.09371E-02 1.06421E-03-5.92490E-14
 -1      2053 1.13985E-02 1.15044E-03-6.45621E-14
 -1      2054 1.12538E-02 1.13148E-03-6.27524E-14
 -1      2055 1.12275E-02 1.10307E-03-6.27993E-14
 -1      2056 1.16869E-02 1.18758E-03-6.82500E-14
 -1      2057 1.15428E-02 1.16913E-03-6.63947E-14
 -1      2058 1.15164E-02 1.14088E-03-6.64396E-14
 -1      2059 1.19743E-02 1.22374E-03-7.20199E-14
 -1      2060 1.18307E-02 1.20577E-03-7.01259E-14
 -1      2061 1.18043E-02 1.17764E-03-7.01637E-14
 -1      2062 1.22610E-02 1.25903E-03-7.58643E-14
 -1      2063 1.21177E-02 1.24149E-03-7.39326E-14
 -1      2064 1.20913E-02 1.21345E-03-7.39662E-14
 -1      2065 1.25473E-02 1.29356E-03-7.97799E-14
 -1      2066 1.24042E-02 1.27639E-03-7.78134E-14
 -1      2067 1.23779E-02 1.24843E-03-7.78414E-14
 -1      2068 1.28332E-02 1.32745E-03-8.37570E-14
 -1      2069 1.26903E-02 1.31058E-03-8.17609E-14
 -1      2070 1.26640E-02 1.28268E-03-8.17836E-14
 -1      2071 1.31189E-02 1.36082E-03-8.77890E-14
 -1      2072 1.29761E-02 1.34420E-03-8.57663E-14
 -1      2073 1.29499E-02 1.31633E-03-8.57874E-14
 -1      2074 1.34046E-02 1.39376E-03-9.18679E-14
 -1      2075 1.32618E-02 1.37734E-03-8.98244E-14
 -1      2076 1.32357E-02 1.34951E-03-8.98393E-14
 -1      2077 1.36901E-02 1.42638E-03-9.59781E-14
 -1      2078 1.35474E-02 1.41011E-03-9.39207E-14
 -1      2079 1.35213E-02 1.38230E-03-9.39338E-14
 -1      2080 1.39757E-02 1.45876E-03-1.00122E-13
 -1      2081 1.38329E-02 1.44259E-03-9.80472E-14
 -1      2082 1.38069E-02 1.41480E-03-9.80571E-14
 -1      2083 1.42613E-02 1.49097E-03-1.04287E-13
 -1      2084 1.41185E-02 1.47488E-03-1.02200E-13
 -1      2085 1.40926E-02 1.44709E-03-1.02208E-13
 -1      2086 1.45469E-02 1.52308E-03-1.08468E-13
 -1      2087 1.44041E-02 1.50703E-03-1.06377E-13
 -1      2088 1.43782E-02 1.47924E-03-1.06381E-13
 -1      2089 1.48326E-02 1.55515E-03-1.12662E-13
 -1      2090 1.46897E-02 1.53912E-03-1.10565E-13
 -1      2091 1.46638E-02 1.51133E-03-1.10570E-13
 -1      2092 1.50664E-02 1.57855E-03-1.16142E-13
 -1      2093 1.49235E-02 1.56250E-03-1.14044E-13
 -1      2094 1.48976E-02 1.53470E-03-1.14049E-13
 -1      2095 1.50795E-02 1.54940E-03-1.16811E-13
 -1      2096 1.49596E-02 1.31090E-03-1.18550E-13
 -1      2097 1.49754E-02 1.35309E-03-1.18156E-13
 -1      2098 1.49913E-02 1.39527E-03-1.17758E-13
 -1      2099 1.50071E-02 1.43745E-03-1.17366E-13
 -1      2100 1.48596E-02 1.36031E-03-1.16134E-13
 -1      2101 1.50354E-02 1.47235E-03-1.17285E-13
 -1      2102 1.50512E-02 1.51451E-03-1.16887E-13
 -1      2103 1.49603E-02 1.50716E-03-1.15506E-13
 -1      2104 1.49037E-02 1.43738E-03-1.15660E-13
 -1      2105 1.49286E-02 1.22793E-03-1.19324E-13
 -1      2106 1.49441E-02 1.26942E-03-1.18935E-13
 -1      2107 1.48282E-02 1.27667E-03-1.16913E-13
 -1      2108 1.48971E-02 1.14352E-03-1.20108E-13
 -1      2109 1.49128E-02 1.18573E-03-1.19716E-13
 -1      2110 1.47970E-02 1.19301E-03-1.17687E-13
 -1      2111 1.48658E-02 1.05909E-03-1.20886E-13
 -1      2112 1.48814E-02 1.10131E-03-1.20498E-13
 -1      2113 1.47655E-02 1.10863E-03-1.18466E-13
 -1      2114 1.48346E-02 9.74656E-04-1.21659E-13
 -1      2115 1.48501E-02 1.01687E-03-1.21272E-13
 -1      2116 1.47342E-02 1.02424E-03-1.19237E-13
 -1      2117 1.48035E-02 8.90221E-04-1.22422E-13
 -1      2118 1.48190E-02 9.32438E-04-1.22041E-13
 -1      2119 1.47030E-02 9.39851E-04-1.20001E-13
 -1      2120 1.47726E-02 8.05790E-04-1.23170E-13
 -1      2121 1.47880E-02 8.48004E-04-1.22799E-13
 -1      2122 1.46720E-02 8.55460E-04-1.20755E-13
 -1      2123 1.47423E-02 7.22800E-04-1.23903E-13
 -1      2124 1.47574E-02 7.64293E-04-1.23537E-13
 -1      2125 1.46414E-02 7.71788E-04-1.21495E-13
 -1      2126 1.47116E-02 6.38395E-04-1.24637E-13
 -1      2127 1.47269E-02 6.80595E-04-1.24269E-13
 -1      2128 1.46109E-02 6.88122E-04-1.22225E-13
 -1      2129 1.46810E-02 5.54012E-04-1.25361E-13
 -1      2130 1.46963E-02 5.96201E-04-1.25000E-13
 -1      2131 1.45802E-02 6.03751E-04-1.22951E-13
 -1      2132 1.46505E-02 4.69655E-04-1.26077E-13
 -1      2133 1.46657E-02 5.11830E-04-1.25720E-13
 -1      2134 1.45496E-02 5.19396E-04-1.23666E-13
 -1      2135 7.60231E-03 3.90398E-04-2.34792E-14
 -1      2136 7.74606E-03 3.31704E-04-2.40291E-14
 -1      2137 7.99603E-03 2.32348E-04-2.48535E-14
 -1      2138 7.98969E-03 2.16241E-04-2.49492E-14
 -1      2139 7.89814E-03 2.76026E-04-2.45989E-14
 -1      2140 7.96767E-03 2.54284E-04-2.47771E-14
 -1      2141 7.27040E-03 5.43798E-04-2.24235E-14
 -1      2142 7.43988E-03 4.64153E-04-2.29302E-14
 -1      2143 6.88677E-03 7.50475E-04-2.11670E-14
 -1      2144 7.06428E-03 6.51634E-04-2.17449E-14
 -1      2145 3.28223E-04-7.61056E-05-1.83352E-16
 -1      2146 3.31294E-04-8.89927E-05-1.81645E-16
 -1      2147 4.49587E-04-1.27730E-04-2.65670E-16
 -1      2148 4.40472E-04-9.35100E-05-2.70441E-16
 -1      2149 6.15192E-03 1.12197E-03-1.85518E-14
 -1      2150 6.31238E-03 1.05271E-03-1.91728E-14
 -1      2151 5.82572E-03 1.18849E-03-1.72692E-14
 -1      2152 5.97408E-03 1.17017E-03-1.78606E-14
 -1      2153 5.49426E-03 1.13505E-03-1.59869E-14
 -1      2154 5.64714E-03 1.17835E-03-1.65571E-14
 -1      2155 5.10744E-03 9.54711E-04-1.48866E-14
 -1      2156 5.28344E-03 1.04898E-03-1.53543E-14
 -1      2157 4.72500E-03 7.29417E-04-1.40087E-14
 -1      2158 4.90796E-03 8.40953E-04-1.43968E-14
 -1      2159 4.30030E-03 5.01307E-04-1.33866E-14
 -1      2160 4.49200E-03 6.04027E-04-1.36612E-14
 -1      2161 3.90925E-03 3.25960E-04-1.30079E-14
 -1      2162 4.07948E-03 3.95970E-04-1.31389E-14
 -1      2163 3.63352E-03 2.19457E-04-1.28180E-14
 -1      2164 3.75554E-03 2.65779E-04-1.29117E-14
 -1      2165 3.47115E-03 1.53092E-04-1.27729E-14
 -1      2166 3.52540E-03 1.73565E-04-1.27259E-14
 -1      2167 3.47242E-03 1.14279E-04-1.28710E-14
 -1      2168 3.45227E-03 1.30181E-04-1.28206E-14
 -1      2169 3.45186E-03 1.34893E-04-1.24012E-14
 -1      2170 3.66164E-03 4.01624E-05-1.34934E-14
 -1      2171 3.55928E-03 7.81278E-05-1.31853E-14
 -1      2172 3.93826E-03-6.11758E-05-1.40236E-14
 -1      2173 3.78682E-03-6.97656E-06-1.37555E-14
 -1      2174 3.72901E-03 3.18352E-05-1.33209E-14
 -1      2175 4.32859E-03-2.42781E-04-1.49272E-14
 -1      2176 4.14824E-03-1.51838E-04-1.44736E-14
 -1      2177 4.70984E-03-4.42641E-04-1.59235E-14
 -1      2178 4.52394E-03-3.43216E-04-1.54306E-14
 -1      2179 5.09236E-03-6.40823E-04-1.71161E-14
 -1      2180 4.91553E-03-5.49752E-04-1.65390E-14
 -1      2181 5.46150E-03-7.74111E-04-1.85615E-14
 -1      2182 5.31033E-03-7.30802E-04-1.79379E-14
 -1      2183 5.75701E-03-7.85629E-04-1.97783E-14
 -1      2184 5.61156E-03-7.91319E-04-1.91649E-14
 -1      2185 5.54264E-03-7.94360E-04-1.89135E-14
 -1      2186 6.08631E-03-6.93715E-04-2.10815E-14
 -1      2187 5.94067E-03-7.47860E-04-2.05295E-14
 -1      2188 6.41053E-03-5.36217E-04-2.21542E-14
 -1      2189 6.25851E-03-6.17585E-04-2.16612E-14
 -1      2190 6.75796E-03-3.43808E-04-2.31265E-14
 -1      2191 6.59471E-03-4.36483E-04-2.26955E-14
 -1      2192 7.11954E-03-1.52013E-04-2.39368E-14
 -1      2193 6.95106E-03-2.39926E-04-2.35863E-14
 -1      2194 7.46957E-03 1.06715E-05-2.45476E-14
 -1      2195 7.30958E-03-6.01915E-05-2.42927E-14
 -1      2196 7.74826E-03 1.22681E-04-2.49579E-14
 -1      2197 7.61772E-03 7.18660E-05-2.47516E-14
 -1      2198 7.52685E-03 6.30068E-05-2.51610E-14
 -1      2199 7.95255E-03 1.94112E-04-2.50139E-14
 -1      2200 7.88536E-03 1.73005E-04-2.50806E-14
 -1      2201 7.97938E-03 2.15263E-04-2.55544E-14
 -1      2202 6.51402E-03 9.57113E-04-1.98764E-14
 -1      2203 6.68956E-03 8.60289E-04-2.04831E-14
 -1      2204 7.15265E-03 5.83047E-04-2.23747E-14
 -1      2205 6.15401E-04-2.78133E-04-3.15950E-16
 -1      2206 6.76608E-03 7.98765E-04-2.09994E-14
 -1      2207 6.39356E-03 1.00823E-03-1.96022E-14
 -1      2208 6.72338E-04-2.69185E-04-4.05790E-16
 -1      2209 7.83331E-03 2.91019E-04-2.47512E-14
 -1      2210 7.90432E-03 2.70133E-04-2.54818E-14
 -1      2211 7.76174E-03 3.11087E-04-2.48999E-14
 -1      2212 7.99225E-03 2.41819E-04-2.54104E-14
 -1      2213 1.45965E-02 4.31316E-04-1.25723E-13
 -1      2214 7.51007E-03 4.11436E-04-2.36190E-14
 -1      2215 7.82169E-03 1.66096E-04-2.54938E-14
 -1      2216 7.75003E-03 1.56214E-04-2.59059E-14
 -1      2217 7.88215E-03 1.92528E-04-2.60331E-14
 -1      2218 7.19838E-03-8.18483E-05-2.45897E-14
 -1      2219 6.83119E-03-2.74926E-04-2.37605E-14
 -1      2220 6.47726E-03-4.79812E-04-2.27451E-14
 -1      2221 5.83743E-03-7.77967E-04-2.02695E-14
 -1      2222 5.21538E-03-6.94699E-04-1.74840E-14
 -1      2223 5.12477E-03-6.50895E-04-1.70359E-14
 -1      2224 5.31329E-03-7.38365E-04-1.78537E-14
 -1      2225 4.82180E-03-4.88901E-04-1.60582E-14
 -1      2226 4.05259E-03-9.37955E-05-1.40166E-14
 -1      2227 3.50251E-03 1.03462E-04-1.27531E-14
 -1      2228 3.46250E-03 1.13388E-04-1.23290E-14
 -1      2229 3.54548E-03 9.31926E-05-1.26336E-14
 -1      2230 3.57313E-03 1.78499E-04-1.24456E-14
 -1      2231 3.83667E-03 2.70655E-04-1.26286E-14
 -1      2232 4.19780E-03 4.25525E-04-1.29610E-14
 -1      2233 4.63272E-03 6.54731E-04-1.35412E-14
 -1      2234 5.03180E-03 8.94633E-04-1.43591E-14
 -1      2235 5.40564E-03 1.10002E-03-1.54640E-14
 -1      2236 6.06007E-03 1.15595E-03-1.82022E-14
 -1      2237 5.74054E-03 1.19668E-03-1.67991E-14
 -1      2238 4.44397E-03-2.81075E-04-1.49546E-14
 -1      2239 6.15164E-03-6.58757E-04-2.16124E-14
 -1      2240 1.03276E-03 3.61826E-04-3.62517E-16
 -1      2241 8.85076E-04 3.31176E-04-2.49516E-16
 -1      2242 5.39949E-04-4.39072E-05-3.71597E-16
 -1      2243 5.42445E-04-5.80319E-05-3.76354E-16
 -1      2244 5.45578E-04-7.30842E-05-3.79999E-16
 -1      2245 5.49314E-04-8.91639E-05-3.82493E-16
 -1      2246 6.57727E-04-7.75588E-05-5.11459E-16
 -1      2247 5.36034E-04 7.77756E-06-3.44492E-16
 -1      2248 5.36080E-04-4.76270E-06-3.52542E-16
 -1      2249 5.37846E-04 3.32879E-05-3.25816E-16
 -1      2250 5.36624E-04 2.04213E-05-3.35818E-16
 -1      2251 6.47696E-04 1.67938E-05-4.61531E-16
 -1      2252 5.42147E-04 6.01384E-05-3.02872E-16
 -1      2253 5.39691E-04 4.64179E-05-3.15083E-16
 -1      2254 6.50831E-04 4.71610E-05-4.35998E-16
 -1      2255 5.49172E-04 9.09172E-05-2.74127E-16
 -1      2256 5.45331E-04 7.50086E-05-2.89428E-16
 -1      2257 6.57284E-04 8.00010E-05-4.04502E-16
 -1      2258 5.59238E-04 1.27150E-04-2.37888E-16
 -1      2259 5.53814E-04 1.08255E-04-2.57213E-16
 -1      2260 6.67297E-04 1.17551E-04-3.65471E-16
 -1      2261 5.73512E-04 1.71410E-04-1.91402E-16
 -1      2262 5.65800E-04 1.48134E-04-2.16244E-16
 -1      2263 6.81381E-04 1.61748E-04-3.16397E-16
 -1      2264 1.32619E-03 4.07296E-04-6.60279E-16
 -1      2265 1.17959E-03 3.87079E-04-4.98923E-16
 -1      2266 1.08770E-03 3.40080E-04-4.85452E-16
 -1      2267 9.27816E-04-3.13194E-04-7.44129E-16
 -1      2268 1.07469E-03-3.41253E-04-9.67732E-16
 -1      2269 6.66232E-03 8.51729E-04-2.08373E-14
 -1      2270 6.83716E-03 7.46747E-04-2.15312E-14
 -1      2271 1.22106E-03-3.64451E-04-1.22202E-15
 -1      2272 1.36742E-03-3.83263E-04-1.50693E-15
 -1      2273 1.13115E-03-3.19285E-04-1.10702E-15
 -1      2274 1.51361E-03-3.98614E-04-1.82183E-15
 -1      2275 1.65996E-03-4.10868E-04-2.16747E-15
 -1      2276 1.42290E-03-3.55877E-04-1.67633E-15
 -1      2277 1.80653E-03-4.20828E-04-2.54277E-15
 -1      2278 1.95354E-03-4.28841E-04-2.94773E-15
 -1      2279 1.71500E-03-3.79771E-04-2.36483E-15
 -1      2280 2.10111E-03-4.35609E-04-3.38178E-15
 -1      2281 2.24939E-03-4.41506E-04-3.84552E-15
 -1      2282 2.00818E-03-3.95217E-04-3.17113E-15
 -1      2283 2.39852E-03-4.47186E-04-4.33830E-15
 -1      2284 2.54861E-03-4.53073E-04-4.86007E-15
 -1      2285 2.30341E-03-4.06271E-04-4.09262E-15
 -1      2286 2.69983E-03-4.59811E-04-5.41063E-15
 -1      2287 2.85221E-03-4.67888E-04-5.99034E-15
 -1      2288 2.60182E-03-4.17006E-04-5.12971E-15
 -1      2289 3.00599E-03-4.77939E-04-6.59795E-15
 -1      2290 3.16106E-03-4.90513E-04-7.23363E-15
 -1      2291 2.90459E-03-4.31706E-04-6.28009E-15
 -1      2292 3.31778E-03-5.06187E-04-7.89757E-15
 -1      2293 3.47584E-03-5.25529E-04-8.58932E-15
 -1      2294 3.21307E-03-4.54932E-04-7.54296E-15
 -1      2295 3.63568E-03-5.48940E-04-9.30878E-15
 -1      2296 3.79668E-03-5.76874E-04-1.00566E-14
 -1      2297 3.52853E-03-4.91353E-04-8.91652E-15
 -1      2298 3.95933E-03-6.09371E-04-1.08318E-14
 -1      2299 4.12263E-03-6.46475E-04-1.16356E-14
 -1      2300 3.85173E-03-5.45094E-04-1.04007E-14
 -1      2301 4.28695E-03-6.87627E-04-1.24677E-14
 -1      2302 4.45098E-03-7.32001E-04-1.33291E-14
 -1      2303 4.18202E-03-6.18271E-04-1.19966E-14
 -1      2304 4.61478E-03-7.78226E-04-1.42208E-14
 -1      2305 4.77711E-03-8.24149E-04-1.51402E-14
 -1      2306 4.51624E-03-7.08329E-04-1.37070E-14
 -1      2307 4.93766E-03-8.67567E-04-1.60889E-14
 -1      2308 5.09606E-03-9.05279E-04-1.70684E-14
 -1      2309 4.84846E-03-8.04408E-04-1.55353E-14
 -1      2310 5.25168E-03-9.34857E-04-1.80771E-14
 -1      2311 5.40576E-03-9.52906E-04-1.91144E-14
 -1      2312 5.17235E-03-8.85847E-04-1.74809E-14
 -1      2313 5.55768E-03-9.57815E-04-2.01813E-14
 -1      2314 5.71006E-03-9.48465E-04-2.12767E-14
 -1      2315 5.48598E-03-9.26300E-04-1.95464E-14
 -1      2316 5.86226E-03-9.24822E-04-2.24009E-14
 -1      2317 6.01680E-03-8.88378E-04-2.35538E-14
 -1      2318 5.79529E-03-9.07352E-04-2.17286E-14
 -1      2319 6.17301E-03-8.40948E-04-2.47347E-14
 -1      2320 6.33205E-03-7.85721E-04-2.59436E-14
 -1      2321 6.10985E-03-8.29899E-04-2.40272E-14
 -1      2322 6.49332E-03-7.25173E-04-2.71816E-14
 -1      2323 6.65637E-03-6.62634E-04-2.84477E-14
 -1      2324 6.43493E-03-7.13519E-04-2.64397E-14
 -1      2325 6.82087E-03-6.00194E-04-2.97432E-14
 -1      2326 6.98560E-03-5.39924E-04-3.10653E-14
 -1      2327 6.76821E-03-5.84354E-04-2.89664E-14
 -1      2328 7.15061E-03-4.83147E-04-3.24154E-14
 -1      2329 7.31466E-03-4.30635E-04-3.37912E-14
 -1      2330 7.10321E-03-4.62706E-04-3.16053E-14
 -1      2331 7.47809E-03-3.82941E-04-3.51924E-14
 -1      2332 7.63999E-03-3.40014E-04-3.66204E-14
 -1      2333 7.43421E-03-3.58817E-04-3.43489E-14
 -1      2334 7.80079E-03-3.01850E-04-3.80733E-14
 -1      2335 7.95993E-03-2.68029E-04-3.95489E-14
 -1      2336 7.75828E-03-2.75100E-04-3.71959E-14
 -1      2337 8.11784E-03-2.38234E-04-4.10464E-14
 -1      2338 8.27424E-03-2.11958E-04-4.25681E-14
 -1      2339 8.07489E-03-2.09672E-04-4.01389E-14
 -1      2340 8.42943E-03-1.88760E-04-4.41126E-14
 -1      2341 8.58333E-03-1.68180E-04-4.56775E-14
 -1      2342 8.38483E-03-1.58960E-04-4.31718E-14
 -1      2343 8.73613E-03-1.49774E-04-4.72651E-14
 -1      2344 8.88787E-03-1.33168E-04-4.88757E-14
 -1      2345 8.68932E-03-1.19154E-04-4.62935E-14
 -1      2346 9.03866E-03-1.17980E-04-5.05085E-14
 -1      2347 9.18858E-03-1.03929E-04-5.21617E-14
 -1      2348 8.98951E-03-8.68646E-05-4.95041E-14
 -1      2349 9.33768E-03-9.07133E-05-5.38364E-14
 -1      2350 9.48608E-03-7.81307E-05-5.55305E-14
 -1      2351 9.28636E-03-5.93536E-05-5.28020E-14
 -1      2352 9.63380E-03-6.59644E-05-5.72451E-14
 -1      2353 9.78095E-03-5.40723E-05-5.89812E-14
 -1      2354 9.58062E-03-3.45514E-05-5.61813E-14
 -1      2355 9.92754E-03-4.23100E-05-6.07354E-14
 -1      2356 1.00737E-02-3.05820E-05-6.25075E-14
 -1      2357 9.87286E-03-1.09796E-05-5.96410E-14
 -1      2358 1.02194E-02-1.88003E-05-6.42983E-14
 -1      2359 1.03647E-02-6.90379E-06-6.61093E-14
 -1      2360 1.01635E-02 1.23593E-05-6.31774E-14
 -1      2361 1.05096E-02 5.15391E-06-6.79371E-14
 -1      2362 1.06543E-02 1.74094E-05-6.97795E-14
 -1      2363 1.04529E-02 3.60934E-05-6.67894E-14
 -1      2364 1.07987E-02 2.98803E-05-7.16394E-14
 -1      2365 1.09428E-02 4.25862E-05-7.35150E-14
 -1      2366 1.07414E-02 6.05799E-05-7.04697E-14
 -1      2367 1.10868E-02 5.55256E-05-7.54056E-14
 -1      2368 1.12306E-02 6.87069E-05-7.73112E-14
 -1      2369 1.10291E-02 8.59865E-05-7.42135E-14
 -1      2370 1.13742E-02 8.21173E-05-7.92315E-14
 -1      2371 1.15177E-02 9.57575E-05-8.11665E-14
 -1      2372 1.13162E-02 1.12354E-04-7.80192E-14
 -1      2373 1.16610E-02 1.09609E-04-8.31141E-14
 -1      2374 1.18043E-02 1.23668E-04-8.50766E-14
 -1      2375 1.16029E-02 1.39645E-04-8.18837E-14
 -1      2376 1.19475E-02 1.37913E-04-8.70550E-14
 -1      2377 1.20906E-02 1.52338E-04-8.90472E-14
 -1      2378 1.18893E-02 1.67775E-04-8.58056E-14
 -1      2379 1.22336E-02 1.66922E-04-9.10533E-14
 -1      2380 1.23766E-02 1.81657E-04-9.30724E-14
 -1      2381 1.21755E-02 1.96637E-04-8.97849E-14
 -1      2382 1.25196E-02 1.96524E-04-9.51061E-14
 -1      2383 1.26625E-02 2.11515E-04-9.71544E-14
 -1      2384 1.24614E-02 2.26119E-04-9.38187E-14
 -1      2385 1.28055E-02 2.26610E-04-9.92129E-14
 -1      2386 1.29483E-02 2.41804E-04-1.01286E-13
 -1      2387 1.27473E-02 2.56109E-04-9.79067E-14
 -1      2388 1.30912E-02 2.57080E-04-1.03371E-13
 -1      2389 1.32341E-02 2.72431E-04-1.05465E-13
 -1      2390 1.30331E-02 2.86506E-04-1.02046E-13
 -1      2391 1.33769E-02 2.87843E-04-1.07570E-13
 -1      2392 1.35198E-02 3.03309E-04-1.09683E-13
 -1      2393 1.33188E-02 3.17215E-04-1.06229E-13
 -1      2394 1.36626E-02 3.18818E-04-1.11803E-13
 -1      2395 1.38055E-02 3.34362E-04-1.13936E-13
 -1      2396 1.36046E-02 3.48154E-04-1.10452E-13
 -1      2397 1.39483E-02 3.49933E-04-1.16077E-13
 -1      2398 1.40911E-02 3.65523E-04-1.18224E-13
 -1      2399 1.38903E-02 3.79251E-04-1.14708E-13
 -1      2400 1.91344E-03 4.54387E-04-1.56028E-15
 -1      2401 1.76595E-03 4.46567E-04-1.29625E-15
 -1      2402 2.21096E-03 4.65652E-04-2.16603E-15
 -1      2403 2.06169E-03 4.60617E-04-1.85010E-15
 -1      2404 1.96730E-03 4.20584E-04-1.80319E-15
 -1      2405 2.51307E-03 4.74687E-04-2.87632E-15
 -1      2406 2.36133E-03 4.70186E-04-2.50815E-15
 -1      2407 2.26369E-03 4.30181E-04-2.44839E-15
 -1      2408 2.82108E-03 4.86425E-04-3.69098E-15
 -1      2409 2.66625E-03 4.79907E-04-3.27098E-15
 -1      2410 2.56374E-03 4.38453E-04-3.19769E-15
 -1      2411 3.13622E-03 5.06696E-04-4.60919E-15
 -1      2412 2.97770E-03 4.95111E-04-4.13664E-15
 -1      2413 2.86877E-03 4.50341E-04-4.05038E-15
 -1      2414 3.45968E-03 5.42463E-04-5.63053E-15
 -1      2415 3.29691E-03 5.22176E-04-5.10717E-15
 -1      2416 3.18035E-03 4.71719E-04-5.00686E-15
 -1      2417 3.79256E-03 6.01590E-04-6.75618E-15
 -1      2418 3.62507E-03 5.68584E-04-6.17974E-15
 -1      2419 3.50050E-03 5.09639E-04-6.06629E-15
 -1      2420 4.13531E-03 6.91577E-04-7.98730E-15
 -1      2421 3.96303E-03 6.42277E-04-7.35858E-15
 -1      2422 3.83158E-03 5.72152E-04-7.22919E-15
 -1      2423 4.48655E-03 8.16359E-04-9.32562E-15
 -1      2424 4.31050E-03 7.49577E-04-8.64169E-15
 -1      2425 4.17560E-03 6.67150E-04-8.49674E-15
 -1      2426 4.84130E-03 9.70407E-04-1.07797E-14
 -1      2427 4.66439E-03 8.90629E-04-1.00382E-14
 -1      2428 4.53206E-03 7.98968E-04-9.87327E-15
 -1      2429 5.19063E-03 1.13165E-03-1.23554E-14
 -1      2430 5.01740E-03 1.05251E-03-1.15521E-14
 -1      2431 4.89500E-03 9.61361E-04-1.13649E-14
 -1      2432 5.52679E-03 1.25997E-03-1.40589E-14
 -1      2433 5.36007E-03 1.20293E-03-1.31917E-14
 -1      2434 5.25257E-03 1.12768E-03-1.29796E-14
 -1      2435 5.85172E-03 1.31332E-03-1.58934E-14
 -1      2436 5.68937E-03 1.29831E-03-1.49594E-14
 -1      2437 5.59564E-03 1.25002E-03-1.47236E-14
 -1      2438 6.17645E-03 1.27402E-03-1.78617E-14
 -1      2439 6.01156E-03 1.30414E-03-1.68603E-14
 -1      2440 5.92763E-03 1.28219E-03-1.66007E-14
 -1      2441 6.51542E-03 1.16618E-03-1.99654E-14
 -1      2442 6.34380E-03 1.22599E-03-1.88974E-14
 -1      2443 6.26477E-03 1.21418E-03-1.86152E-14
 -1      2444 6.86738E-03 1.03307E-03-2.21963E-14
 -1      2445 6.69043E-03 1.09985E-03-2.10646E-14
 -1      2446 6.61920E-03 1.08572E-03-2.07623E-14
 -1      2447 7.22371E-03 9.13019E-04-2.45506E-14
 -1      2448 7.04606E-03 9.69871E-04-2.33586E-14
 -1      2449 6.98311E-03 9.47519E-04-2.30374E-14
 -1      2450 7.57589E-03 8.24809E-04-2.70224E-14
 -1      2451 7.40102E-03 8.64532E-04-2.57723E-14
 -1      2452 7.34401E-03 8.34454E-04-2.54332E-14
 -1      2453 7.91981E-03 7.71957E-04-2.95998E-14
 -1      2454 7.74926E-03 7.94169E-04-2.82973E-14
 -1      2455 7.69405E-03 7.58209E-04-2.79407E-14
 -1      2456 8.25442E-03 7.49993E-04-3.22783E-14
 -1      2457 8.08840E-03 7.57556E-04-3.09258E-14
 -1      2458 8.03136E-03 7.17370E-04-3.05512E-14
 -1      2459 8.58037E-03 7.51675E-04-3.50592E-14
 -1      2460 8.41847E-03 7.48323E-04-3.36579E-14
 -1      2461 8.35736E-03 7.05134E-04-3.32644E-14
 -1      2462 8.89875E-03 7.69974E-04-3.79320E-14
 -1      2463 8.74044E-03 7.59118E-04-3.64843E-14
 -1      2464 8.67444E-03 7.13823E-04-3.60755E-14
 -1      2465 9.21071E-03 7.99136E-04-4.08942E-14
 -1      2466 9.05545E-03 7.83480E-04-3.94028E-14
 -1      2467 8.98469E-03 7.36797E-04-3.89769E-14
 -1      2468 9.51724E-03 8.34868E-04-4.39423E-14
 -1      2469 9.36456E-03 8.16385E-04-4.24072E-14
 -1      2470 9.28969E-03 7.68891E-04-4.19646E-14
 -1      2471 9.81926E-03 8.74162E-04-4.70770E-14
 -1      2472 9.66873E-03 8.54212E-04-4.54977E-14
 -1      2473 9.59056E-03 8.06345E-04-4.50398E-14
 -1      2474 1.01175E-02 9.15012E-04-5.02945E-14
 -1      2475 9.96880E-03 8.94488E-04-4.86744E-14
 -1      2476 9.88811E-03 8.46559E-04-4.81995E-14
 -1      2477 1.04128E-02 9.56146E-04-5.35979E-14
 -1      2478 1.02655E-02 9.35605E-04-5.19354E-14
 -1      2479 1.01830E-02 8.87818E-04-5.14440E-14
 -1      2480 1.07056E-02 9.96807E-04-5.69951E-14
 -1      2481 1.05595E-02 9.76573E-04-5.52861E-14
 -1      2482 1.04757E-02 9.29046E-04-5.47794E-14
 -1      2483 1.09966E-02 1.03659E-03-6.04800E-14
 -1      2484 1.08513E-02 1.01683E-03-5.87260E-14
 -1      2485 1.07667E-02 9.69617E-04-5.82017E-14
 -1      2486 1.12860E-02 1.07530E-03-6.40556E-14
 -1      2487 1.11415E-02 1.05609E-03-6.22563E-14
 -1      2488 1.10563E-02 1.00921E-03-6.17141E-14
 -1      2489 1.15744E-02 1.11293E-03-6.77171E-14
 -1      2490 1.14303E-02 1.09426E-03-6.58761E-14
 -1      2491 1.13448E-02 1.04769E-03-6.53127E-14
 -1      2492 1.18618E-02 1.14950E-03-7.14621E-14
 -1      2493 1.17182E-02 1.13134E-03-6.95795E-14
 -1      2494 1.16325E-02 1.08507E-03-6.89964E-14
 -1      2495 1.21487E-02 1.18513E-03-7.52811E-14
 -1      2496 1.20053E-02 1.16743E-03-7.33631E-14
 -1      2497 1.19196E-02 1.12142E-03-7.27603E-14
 -1      2498 1.24351E-02 1.21994E-03-7.91746E-14
 -1      2499 1.22919E-02 1.20263E-03-7.72186E-14
 -1      2500 1.22062E-02 1.15684E-03-7.65972E-14
 -1      2501 1.27212E-02 1.25404E-03-8.31334E-14
 -1      2502 1.25782E-02 1.23707E-03-8.11465E-14
 -1      2503 1.24925E-02 1.19145E-03-8.05106E-14
 -1      2504 1.30071E-02 1.28757E-03-8.71479E-14
 -1      2505 1.28642E-02 1.27088E-03-8.51335E-14
 -1      2506 1.27785E-02 1.22540E-03-8.44823E-14
 -1      2507 1.32929E-02 1.32064E-03-9.12092E-14
 -1      2508 1.31500E-02 1.30416E-03-8.91726E-14
 -1      2509 1.30644E-02 1.25880E-03-8.85079E-14
 -1      2510 1.35786E-02 1.35335E-03-9.53064E-14
 -1      2511 1.34358E-02 1.33704E-03-9.32555E-14
 -1      2512 1.33502E-02 1.29177E-03-9.25761E-14
 -1      2513 1.38643E-02 1.38579E-03-9.94396E-14
 -1      2514 1.37215E-02 1.36960E-03-9.73706E-14
 -1      2515 1.36360E-02 1.32439E-03-9.66839E-14
 -1      2516 1.41499E-02 1.41803E-03-1.03595E-13
 -1      2517 1.40071E-02 1.40193E-03-1.01513E-13
 -1      2518 1.39217E-02 1.35677E-03-1.00820E-13
 -1      2519 1.44356E-02 1.45016E-03-1.07773E-13
 -1      2520 1.42928E-02 1.43411E-03-1.05682E-13
 -1      2521 1.42074E-02 1.38897E-03-1.04982E-13
 -1      2522 1.47213E-02 1.48223E-03-1.11964E-13
 -1      2523 1.45784E-02 1.46620E-03-1.09867E-13
 -1      2524 1.44930E-02 1.42107E-03-1.09165E-13
 -1      2525 1.48693E-02 1.49982E-03-1.14123E-13
 -1      2526 1.46654E-02 1.15811E-03-1.16052E-13
 -1      2527 1.46811E-02 1.20029E-03-1.15664E-13
 -1      2528 1.46339E-02 1.07376E-03-1.16823E-13
 -1      2529 1.46496E-02 1.11594E-03-1.16437E-13
 -1      2530 1.45338E-02 1.12323E-03-1.14416E-13
 -1      2531 1.47280E-02 1.32537E-03-1.14508E-13
 -1      2532 1.47438E-02 1.36753E-03-1.14114E-13
 -1      2533 1.46967E-02 1.24210E-03-1.15278E-13
 -1      2534 1.47123E-02 1.28356E-03-1.14895E-13
 -1      2535 1.45965E-02 1.29079E-03-1.12877E-13
 -1      2536 1.45651E-02 1.20719E-03-1.13647E-13
 -1      2537 1.46027E-02 9.89416E-04-1.17586E-13
 -1      2538 1.46183E-02 1.03159E-03-1.17205E-13
 -1      2539 1.45024E-02 1.03892E-03-1.15180E-13
 -1      2540 1.45715E-02 9.05068E-04-1.18344E-13
 -1      2541 1.45871E-02 9.47242E-04-1.17967E-13
 -1      2542 1.44711E-02 9.54611E-04-1.15939E-13
 -1      2543 1.45405E-02 8.20720E-04-1.19093E-13
 -1      2544 1.45560E-02 8.62894E-04-1.18719E-13
 -1      2545 1.44400E-02 8.70306E-04-1.16689E-13
 -1      2546 1.45102E-02 7.37802E-04-1.19819E-13
 -1      2547 1.45253E-02 7.79261E-04-1.19456E-13
 -1      2548 1.44093E-02 7.86714E-04-1.17423E-13
 -1      2549 1.44795E-02 6.53456E-04-1.20547E-13
 -1      2550 1.44948E-02 6.95629E-04-1.20186E-13
 -1      2551 1.43788E-02 7.03118E-04-1.18148E-13
 -1      2552 1.44488E-02 5.69115E-04-1.21267E-13
 -1      2553 1.44641E-02 6.11285E-04-1.20909E-13
 -1      2554 1.43481E-02 6.18805E-04-1.18872E-13
 -1      2555 1.44183E-02 4.84783E-04-1.21972E-13
 -1      2556 1.44336E-02 5.26947E-04-1.21619E-13
 -1      2557 1.43175E-02 5.34489E-04-1.19581E-13
 -1      2558 7.99749E-03 2.44861E-04-2.61759E-14
 -1      2559 8.01610E-03 2.37472E-04-2.62571E-14
 -1      2560 7.42840E-03 4.38966E-04-2.38173E-14
 -1      2561 7.57924E-03 3.77750E-04-2.43807E-14
 -1      2562 1.61909E-03 4.36433E-04-1.05863E-15
 -1      2563 1.47254E-03 4.23632E-04-8.46653E-16
 -1      2564 1.67333E-03 4.05275E-04-1.26165E-15
 -1      2565 6.31904E-03 1.05025E-03-1.93986E-14
 -1      2566 6.48430E-03 9.55001E-04-2.01107E-14
 -1      2567 6.57796E-03 9.06386E-04-2.06261E-14
 -1      2568 1.44691E-02 4.19013E-04-1.23765E-13
 -1      2569 7.27544E-03-2.29548E-05-2.54013E-14
 -1      2570 7.10337E-03-1.06583E-04-2.50327E-14
 -1      2571 3.52582E-03 1.55503E-04-1.20099E-14
 -1      2572 3.63179E-03 1.83765E-04-1.20984E-14
 -1      2573 5.36755E-04-1.74564E-05-3.59725E-16
 -1      2574 5.38041E-04-3.04176E-05-3.66000E-16
 -1      2575 6.51203E-04-4.39922E-05-4.99207E-16
 -1      2576 6.47834E-04-1.31073E-05-4.82443E-16
 -1      2577 5.70178E-03 1.20172E-03-1.64115E-14
 -1      2578 5.84190E-03 1.20958E-03-1.71222E-14
 -1      2579 4.53629E-03-3.24163E-04-1.49592E-14
 -1      2580 4.36209E-03-2.30693E-04-1.44697E-14
 -1      2581 5.98194E-03 1.18940E-03-1.77973E-14
 -1      2582 6.12214E-03 1.14271E-03-1.84893E-14
 -1      2583 5.92302E-03 1.20861E-03-1.73934E-14
 -1      2584 5.31802E-03 1.05628E-03-1.48269E-14
 -1      2585 5.48532E-03 1.14053E-03-1.54429E-14
 -1      2586 4.96214E-03 8.41225E-04-1.38206E-14
 -1      2587 5.13120E-03 9.49776E-04-1.42941E-14
 -1      2588 4.52451E-03 5.75800E-04-1.29744E-14
 -1      2589 4.72592E-03 6.96008E-04-1.33050E-14
 -1      2590 4.09871E-03 3.59587E-04-1.24657E-14
 -1      2591 4.29918E-03 4.56077E-04-1.27000E-14
 -1      2592 3.74661E-03 2.21703E-04-1.21860E-14
 -1      2593 3.88559E-03 2.70357E-04-1.22746E-14
 -1      2594 3.66847E-03 1.91366E-04-1.17514E-14
 -1      2595 3.43400E-03 1.26572E-04-1.20075E-14
 -1      2596 3.45428E-03 1.33681E-04-1.19629E-14
 -1      2597 3.77684E-03 2.26813E-05-1.30513E-14
 -1      2598 3.66178E-03 5.82057E-05-1.28017E-14
 -1      2599 6.21879E-03-6.17781E-04-2.22003E-14
 -1      2600 6.07842E-03-6.93353E-04-2.16101E-14
 -1      2601 4.14243E-03-1.24402E-04-1.39129E-14
 -1      2602 3.95145E-03-4.27804E-05-1.34795E-14
 -1      2603 4.91086E-03-5.37421E-04-1.61677E-14
 -1      2604 4.73505E-03-4.34428E-04-1.55648E-14
 -1      2605 5.60582E-03-8.08150E-04-1.92819E-14
 -1      2606 5.48731E-03-7.91888E-04-1.86761E-14
 -1      2607 5.89827E-03-7.65442E-04-2.07990E-14
 -1      2608 5.75261E-03-8.01975E-04-2.00415E-14
 -1      2609 6.54065E-03-4.25560E-04-2.34484E-14
 -1      2610 6.38434E-03-5.22435E-04-2.28934E-14
 -1      2611 6.90349E-03-2.13470E-04-2.45051E-14
 -1      2612 6.73292E-03-3.12536E-04-2.40318E-14
 -1      2613 7.59391E-03 1.05667E-04-2.58603E-14
 -1      2614 7.45528E-03 5.34898E-05-2.56479E-14
 -1      2615 8.00774E-03 2.28630E-04-2.63235E-14
 -1      2616 7.97561E-03 2.21343E-04-2.63894E-14
 -1      2617 8.03245E-03 2.38182E-04-2.70963E-14
 -1      2618 5.95658E-04-2.16361E-04-3.64075E-16
 -1      2619 7.91471E-04-2.76389E-04-5.71253E-16
 -1      2620 8.50384E-04-2.62319E-04-6.79063E-16
 -1      2621 5.84893E-04-1.88235E-04-3.75378E-16
 -1      2622 7.68605E-04 3.06641E-04-1.69149E-16
 -1      2623 6.19626E-04 2.62928E-04-9.83913E-17
 -1      2624 5.92453E-04 2.36400E-04-1.14709E-16
 -1      2625 8.24968E-04 2.92023E-04-2.57105E-16
 -1      2626 7.04669E-03 6.28955E-04-2.23712E-14
 -1      2627 7.23424E-03 5.30624E-04-2.30643E-14
 -1      2628 5.59583E-03 1.18283E-03-1.57441E-14
 -1      2629 6.67450E-04-1.15504E-04-5.17666E-16
 -1      2630 5.53777E-04-1.06561E-04-3.83320E-16
 -1      2631 5.58963E-04-1.25449E-04-3.82520E-16
 -1      2632 1.38054E-03 3.79979E-04-8.23330E-16
 -1      2633 5.79114E-04 2.05759E-04-1.48021E-16
 -1      2634 6.94711E-03 6.89965E-04-2.22011E-14
 -1      2635 7.69024E-03 1.42107E-04-2.63986E-14
 -1      2636 7.00926E-03-1.53214E-04-2.53077E-14
 -1      2637 6.63733E-03-3.66837E-04-2.41809E-14
 -1      2638 5.97894E-03-7.37587E-04-2.13705E-14
 -1      2639 7.69375E-03 3.37184E-04-2.51028E-14
 -1      2640 7.79530E-03 3.12261E-04-2.58337E-14
 -1      2641 7.63506E-03 3.70439E-04-2.53011E-14
 -1      2642 5.68404E-03-8.11811E-04-1.97937E-14
 -1      2643 1.47839E-02 1.45468E-03-1.13420E-13
 -1      2644 7.33463E-03 4.89537E-04-2.38113E-14
 -1      2645 1.47557E-02 1.41980E-03-1.13498E-13
 -1      2646 5.02142E-03-6.01148E-04-1.65210E-14
 -1      2647 4.91791E-03-5.54763E-04-1.60134E-14
 -1      2648 5.11430E-03-6.58562E-04-1.68763E-14
 -1      2649 7.97189E-03 2.56620E-04-2.63262E-14
 -1      2650 8.02399E-03 2.53650E-04-2.71798E-14
 -1      2651 7.93526E-03 2.70966E-04-2.64748E-14
 -1      2652 4.23228E-03-1.73458E-04-1.39159E-14
 -1      2653 7.94121E-03 2.14348E-04-2.68047E-14
 -1      2654 6.97176E-04 2.24354E-04-2.36017E-16
 -1      2655 6.22432E-03 1.10495E-03-1.89766E-14
 -1      2656 3.47835E-03 1.39818E-04-1.16210E-14
 -1      2657 7.36835E-03 2.14923E-05-2.60974E-14
 -1      2658 6.30421E-03-5.69121E-04-2.28881E-14
 -1      2659 3.85299E-03-1.12142E-05-1.29500E-14
 -1      2660 3.97679E-03 3.04032E-04-1.20215E-14
 -1      2661 5.39098E-03-7.71283E-04-1.82100E-14
 -1      2662 5.29917E-03-7.42120E-04-1.77488E-14
 -1      2663 5.45364E-03-7.94429E-04-1.85670E-14
 -1      2664 4.39743E-03 5.06329E-04-1.24724E-14
 -1      2665 4.83253E-03 7.64417E-04-1.32395E-14
 -1      2666 3.57792E-03 7.79839E-05-1.23718E-14
 -1      2667 1.43148E-02 3.87540E-04-1.21633E-13
 -1      2668 1.43800E-02 4.45741E-04-1.21892E-13
 -1      2669 1.42639E-02 4.53295E-04-1.19849E-13
 -1      2670 1.41874E-02 3.75233E-04-1.19685E-13
 -1      2671 4.63042E-03-3.83939E-04-1.50622E-14
 -1      2672 5.67102E-04-1.43504E-04-3.83415E-16
 -1      2673 5.74312E-04-1.66229E-04-3.78509E-16
 -1      2674 7.03792E-04-2.01387E-04-5.19157E-16
 -1      2675 6.82655E-04-1.56528E-04-5.20295E-16
 -1      2676 5.22756E-03 1.01119E-03-1.42689E-14
 -1      2677 3.43092E-03 1.17756E-04-1.18887E-14
 -1      2678 3.40892E-03 1.17816E-04-1.14562E-14
 -1      2679 3.44069E-03 1.10268E-04-1.17693E-14
 -1      2680 1.46240E-02 1.38485E-03-1.11876E-13
 -1      2681 1.41294E-02 4.04547E-04-1.18307E-13
 -1      2682 7.65795E-04 6.31502E-05-5.61549E-16
 -1      2683 7.62856E-04 4.53951E-05-5.79330E-16
 -1      2684 7.60884E-04 2.78615E-05-5.95484E-16
 -1      2685 7.59968E-04 1.06632E-05-6.10135E-16
 -1      2686 8.75532E-04 4.08921E-05-7.45470E-16
 -1      2687 7.88461E-04 1.45898E-04-4.68958E-16
 -1      2688 7.81151E-04 1.23054E-04-4.96022E-16
 -1      2689 8.07097E-04 1.97603E-04-4.05586E-16
 -1      2690 7.97133E-04 1.70666E-04-4.39183E-16
 -1      2691 9.12515E-04 1.75550E-04-5.84480E-16
 -1      2692 1.14400E-03 3.17915E-04-6.17453E-16
 -1      2693 9.98174E-04 2.94532E-04-4.65570E-16
 -1      2694 6.17895E-03 1.14291E-03-1.86882E-14
 -1      2695 6.34888E-03 1.05391E-03-1.96086E-14
 -1      2696 8.11777E-04 2.46921E-04-3.24908E-16
 -1      2697 7.78810E-03 1.74783E-04-2.71641E-14
 -1      2698 7.65232E-03 1.32351E-04-2.71127E-14
 -1      2699 6.74173E-03-3.12395E-04-2.51304E-14
 -1      2700 6.57600E-03-4.14373E-04-2.45294E-14
 -1      2701 1.33357E-03-3.14152E-04-1.53369E-15
 -1      2702 1.47886E-03-3.28189E-04-1.84760E-15
 -1      2703 1.62423E-03-3.39528E-04-2.19068E-15
 -1      2704 1.76986E-03-3.48497E-04-2.56303E-15
 -1      2705 1.53475E-03-3.00257E-04-2.02082E-15
 -1      2706 1.91571E-03-3.55711E-04-2.96437E-15
 -1      2707 2.06196E-03-3.61501E-04-3.39385E-15
 -1      2708 1.82420E-03-3.17165E-04-2.76186E-15
 -1      2709 2.20866E-03-3.66454E-04-3.85247E-15
 -1      2710 2.35599E-03-3.70953E-04-4.33922E-15
 -1      2711 2.11472E-03-3.27793E-04-3.61691E-15
 -1      2712 2.50408E-03-3.75562E-04-4.85391E-15
 -1      2713 2.65310E-03-3.80744E-04-5.39736E-15
 -1      2714 2.40705E-03-3.35596E-04-4.58409E-15
 -1      2715 2.80329E-03-3.87048E-04-5.96889E-15
 -1      2716 2.95478E-03-3.95050E-04-6.56774E-15
 -1      2717 2.70248E-03-3.44247E-04-5.66302E-15
 -1      2718 3.10796E-03-4.05270E-04-7.19433E-15
 -1      2719 3.26287E-03-4.18427E-04-7.84863E-15
 -1      2720 3.00284E-03-3.57786E-04-6.85243E-15
 -1      2721 3.42005E-03-4.34961E-04-8.53000E-15
 -1      2722 3.57935E-03-4.55705E-04-9.23935E-15
 -1      2723 3.31056E-03-3.80787E-04-8.15102E-15
 -1      2724 3.74141E-03-4.80931E-04-9.97611E-15
 -1      2725 3.90569E-03-5.11420E-04-1.07404E-14
 -1      2726 3.62843E-03-4.18398E-04-9.55842E-15
 -1      2727 4.07282E-03-5.47120E-04-1.15328E-14
 -1      2728 4.24158E-03-5.88265E-04-1.23527E-14
 -1      2729 3.95869E-03-4.75941E-04-1.10758E-14
 -1      2730 4.41233E-03-6.34241E-04-1.32015E-14
 -1      2731 4.58318E-03-6.83835E-04-1.40802E-14
 -1      2732 4.30123E-03-5.57211E-04-1.27041E-14
 -1      2733 4.75395E-03-7.35443E-04-1.49883E-14
 -1      2734 4.92274E-03-7.85542E-04-1.59247E-14
 -1      2735 4.65118E-03-6.60215E-04-1.44474E-14
 -1      2736 5.08874E-03-8.31737E-04-1.68919E-14
 -1      2737 5.25186E-03-8.68467E-04-1.78892E-14
 -1      2738 4.99818E-03-7.69380E-04-1.63093E-14
 -1      2739 5.41111E-03-8.92817E-04-1.89174E-14
 -1      2740 5.56925E-03-9.00802E-04-1.99746E-14
 -1      2741 5.33247E-03-8.53893E-04-1.82926E-14
 -1      2742 5.72511E-03-8.91013E-04-2.10616E-14
 -1      2743 5.88355E-03-8.63897E-04-2.21780E-14
 -1      2744 5.65369E-03-8.74069E-04-2.03987E-14
 -1      2745 6.04310E-03-8.20956E-04-2.33237E-14
 -1      2746 6.20678E-03-7.66277E-04-2.44993E-14
 -1      2747 5.97558E-03-8.14678E-04-2.26245E-14
 -1      2748 6.37363E-03-7.02625E-04-2.57019E-14
 -1      2749 6.54283E-03-6.35676E-04-2.69340E-14
 -1      2750 6.31099E-03-6.94519E-04-2.49679E-14
 -1      2751 6.71406E-03-5.67652E-04-2.81946E-14
 -1      2752 6.88501E-03-5.02209E-04-2.94835E-14
 -1      2753 6.65895E-03-5.51581E-04-2.74266E-14
 -1      2754 7.05590E-03-4.40567E-04-3.07988E-14
 -1      2755 7.22459E-03-3.84027E-04-3.21412E-14
 -1      2756 7.00871E-03-4.17259E-04-2.99962E-14
 -1      2757 7.39170E-03-3.33015E-04-3.35109E-14
 -1      2758 7.55592E-03-2.87404E-04-3.49045E-14
 -1      2759 7.35047E-03-3.05466E-04-3.26757E-14
 -1      2760 7.71798E-03-2.47179E-04-3.63237E-14
 -1      2761 7.87732E-03-2.11637E-04-3.77685E-14
 -1      2762 7.67980E-03-2.17795E-04-3.54578E-14
 -1      2763 8.03459E-03-1.80553E-04-3.92349E-14
 -1      2764 8.18966E-03-1.53152E-04-4.07238E-14
 -1      2765 7.99685E-03-1.50588E-04-3.83353E-14
 -1      2766 8.34303E-03-1.29115E-04-4.22377E-14
 -1      2767 8.49477E-03-1.07787E-04-4.37719E-14
 -1      2768 8.30393E-03-9.90177E-05-4.13066E-14
 -1      2769 8.64521E-03-8.88320E-05-4.53265E-14
 -1      2770 8.79451E-03-7.17485E-05-4.69037E-14
 -1      2771 8.60374E-03-5.86898E-05-4.43651E-14
 -1      2772 8.94284E-03-5.62284E-05-4.85056E-14
 -1      2773 9.09038E-03-4.19096E-05-5.01290E-14
 -1      2774 8.89860E-03-2.60277E-05-4.75125E-14
 -1      2775 9.23722E-03-2.85350E-05-5.17732E-14
 -1      2776 9.38352E-03-1.58525E-05-5.34375E-14
 -1      2777 9.19025E-03 1.73466E-06-5.07489E-14
 -1      2778 9.52930E-03-3.66418E-06-5.51218E-14
 -1      2779 9.67470E-03 8.20053E-06-5.68263E-14
 -1      2780 9.47983E-03 2.66576E-05-5.40683E-14
 -1      2781 9.81971E-03 1.98827E-05-5.85528E-14
 -1      2782 9.96446E-03 3.14937E-05-6.02965E-14
 -1      2783 9.76812E-03 5.02201E-05-5.74689E-14
 -1      2784 1.01089E-02 4.31261E-05-6.20620E-14
 -1      2785 1.02532E-02 5.48495E-05-6.38443E-14
 -1      2786 1.00556E-02 7.34371E-05-6.09496E-14
 -1      2787 1.03972E-02 6.67177E-05-6.56467E-14
 -1      2788 1.05411E-02 7.87714E-05-6.74673E-14
 -1      2789 1.03425E-02 9.69646E-05-6.45095E-14
 -1      2790 1.06849E-02 9.10359E-05-6.93029E-14
 -1      2791 1.08285E-02 1.03532E-04-7.11554E-14
 -1      2792 1.06291E-02 1.21191E-04-6.81397E-14
 -1      2793 1.09720E-02 1.16265E-04-7.30248E-14
 -1      2794 1.11154E-02 1.29244E-04-7.49103E-14
 -1      2795 1.09154E-02 1.46312E-04-7.18398E-14
 -1      2796 1.12587E-02 1.42460E-04-7.68105E-14
 -1      2797 1.14020E-02 1.55913E-04-7.87267E-14
 -1      2798 1.12016E-02 1.72391E-04-7.56048E-14
 -1      2799 1.15451E-02 1.69589E-04-8.06578E-14
 -1      2800 1.16883E-02 1.83482E-04-8.25995E-14
 -1      2801 1.14877E-02 1.99406E-04-7.94307E-14
 -1      2802 1.18314E-02 1.97575E-04-8.45567E-14
 -1      2803 1.19744E-02 2.11858E-04-8.65312E-14
 -1      2804 1.17736E-02 2.27285E-04-8.33134E-14
 -1      2805 1.21174E-02 2.26312E-04-8.85198E-14
 -1      2806 1.22604E-02 2.40929E-04-9.05199E-14
 -1      2807 1.20595E-02 2.55926E-04-8.72542E-14
 -1      2808 1.24034E-02 2.55690E-04-9.25344E-14
 -1      2809 1.25463E-02 2.70584E-04-9.45623E-14
 -1      2810 1.23454E-02 2.85220E-04-9.12516E-14
 -1      2811 1.26892E-02 2.85595E-04-9.66027E-14
 -1      2812 1.28321E-02 3.00714E-04-9.86567E-14
 -1      2813 1.26312E-02 3.15055E-04-9.53024E-14
 -1      2814 1.29750E-02 3.15925E-04-1.00724E-13
 -1      2815 1.31179E-02 3.31220E-04-1.02803E-13
 -1      2816 1.29170E-02 3.45329E-04-9.94078E-14
 -1      2817 1.32608E-02 3.46585E-04-1.04894E-13
 -1      2818 1.34037E-02 3.62012E-04-1.06993E-13
 -1      2819 1.32027E-02 3.75945E-04-1.03560E-13
 -1      2820 1.35465E-02 3.77490E-04-1.09101E-13
 -1      2821 1.36894E-02 3.93012E-04-1.11217E-13
 -1      2822 1.34885E-02 4.06820E-04-1.07752E-13
 -1      2823 1.38322E-02 4.08568E-04-1.13342E-13
 -1      2824 1.39751E-02 4.24151E-04-1.15478E-13
 -1      2825 1.37742E-02 4.37881E-04-1.11982E-13
 -1      2826 2.31387E-03 3.95168E-04-2.73760E-15
 -1      2827 2.16643E-03 3.91457E-04-2.38281E-15
 -1      2828 4.69405E-03-4.37485E-04-1.51051E-14
 -1      2829 4.51897E-03-3.37794E-04-1.45134E-14
 -1      2830 2.01961E-03 3.87005E-04-2.05375E-15
 -1      2831 1.87316E-03 3.81435E-04-1.75059E-15
 -1      2832 2.07019E-03 3.53881E-04-2.31214E-15
 -1      2833 2.91214E-03 4.14836E-04-4.41693E-15
 -1      2834 2.76088E-03 4.07966E-04-3.95852E-15
 -1      2835 3.21959E-03 4.36980E-04-5.41156E-15
 -1      2836 3.06495E-03 4.24213E-04-4.90120E-15
 -1      2837 2.95137E-03 3.79852E-04-4.79089E-15
 -1      2838 3.53622E-03 4.76297E-04-6.50811E-15
 -1      2839 3.37662E-03 4.53921E-04-5.94703E-15
 -1      2840 3.25419E-03 4.02227E-04-5.82280E-15
 -1      2841 3.86592E-03 5.41080E-04-7.70875E-15
 -1      2842 3.69936E-03 5.04783E-04-7.09528E-15
 -1      2843 3.56718E-03 4.41999E-04-6.95707E-15
 -1      2844 4.21249E-03 6.40028E-04-9.01232E-15
 -1      2845 4.03730E-03 5.85523E-04-8.34748E-15
 -1      2846 3.89596E-03 5.07931E-04-8.19323E-15
 -1      2847 4.57670E-03 7.78813E-04-1.04256E-14
 -1      2848 4.39328E-03 7.04190E-04-9.70448E-15
 -1      2849 4.24644E-03 6.10395E-04-9.53369E-15
 -1      2850 4.95115E-03 9.51498E-04-1.19539E-14
 -1      2851 4.76426E-03 8.62362E-04-1.11754E-14
 -1      2852 4.62006E-03 7.57990E-04-1.09824E-14
 -1      2853 5.66934E-03 1.24230E-03-1.53935E-14
 -1      2854 5.49566E-03 1.19637E-03-1.44844E-14
 -1      2855 5.95393E-03 1.23829E-03-1.71664E-14
 -1      2856 5.77704E-03 1.24351E-03-1.61957E-14
 -1      2857 6.36832E-03 1.12307E-03-1.95016E-14
 -1      2858 6.18451E-03 1.18761E-03-1.84501E-14
 -1      2859 7.10582E-03 8.57337E-04-2.38854E-14
 -1      2860 6.92013E-03 9.22760E-04-2.27109E-14
 -1      2861 7.46839E-03 7.55810E-04-2.63208E-14
 -1      2862 7.28978E-03 8.01795E-04-2.50883E-14
 -1      2863 7.23792E-03 7.66780E-04-2.47399E-14
 -1      2864 7.81328E-03 6.94062E-04-2.88648E-14
 -1      2865 7.64337E-03 7.20416E-04-2.75802E-14
 -1      2866 7.59686E-03 6.80572E-04-2.72159E-14
 -1      2867 8.14203E-03 6.66181E-04-3.15098E-14
 -1      2868 7.97960E-03 6.76588E-04-3.01748E-14
 -1      2869 7.93283E-03 6.34683E-04-2.97958E-14
 -1      2870 8.45858E-03 6.63622E-04-3.42559E-14
 -1      2871 8.30163E-03 6.62316E-04-3.28696E-14
 -1      2872 8.25104E-03 6.19480E-04-3.24745E-14
 -1      2873 8.76670E-03 6.78862E-04-3.70938E-14
 -1      2874 8.61350E-03 6.69446E-04-3.56640E-14
 -1      2875 8.55745E-03 6.25788E-04-3.52491E-14
 -1      2876 9.06911E-03 7.05958E-04-4.00231E-14
 -1      2877 8.91847E-03 6.91236E-04-3.85479E-14
 -1      2878 8.85663E-03 6.46737E-04-3.81179E-14
 -1      2879 9.36755E-03 7.40463E-04-4.30381E-14
 -1      2880 9.21871E-03 7.22499E-04-4.15198E-14
 -1      2881 9.15153E-03 6.77241E-04-4.10728E-14
 -1      2882 9.66312E-03 7.79196E-04-4.61392E-14
 -1      2883 9.51561E-03 7.59448E-04-4.45768E-14
 -1      2884 9.44387E-03 7.13600E-04-4.41134E-14
 -1      2885 9.95652E-03 8.19973E-04-4.93281E-14
 -1      2886 9.81003E-03 7.99426E-04-4.77236E-14
 -1      2887 9.73457E-03 7.53190E-04-4.72430E-14
 -1      2888 1.02482E-02 8.61361E-04-5.26003E-14
 -1      2889 1.01025E-02 8.40653E-04-5.09526E-14
 -1      2890 1.00242E-02 7.94215E-04-5.04593E-14
 -1      2891 1.05385E-02 9.02470E-04-5.59644E-14
 -1      2892 1.03935E-02 8.81988E-04-5.42712E-14
 -1      2893 1.03129E-02 8.35497E-04-5.37613E-14
 -1      2894 1.08277E-02 9.42791E-04-5.94107E-14
 -1      2895 1.06832E-02 9.22750E-04-5.76765E-14
 -1      2896 1.06011E-02 8.76311E-04-5.71497E-14
 -1      2897 1.11161E-02 9.82076E-04-6.29493E-14
 -1      2898 1.09720E-02 9.62573E-04-6.11696E-14
 -1      2899 1.08886E-02 9.16253E-04-6.06246E-14
 -1      2900 1.14037E-02 1.02024E-03-6.65695E-14
 -1      2901 1.12599E-02 1.00130E-03-6.47482E-14
 -1      2902 1.11758E-02 9.55136E-04-6.41858E-14
 -1      2903 1.16908E-02 1.05732E-03-7.02763E-14
 -1      2904 1.15473E-02 1.03891E-03-6.84148E-14
 -1      2905 1.14626E-02 9.92916E-04-6.78313E-14
 -1      2906 1.19775E-02 1.09339E-03-7.40593E-14
 -1      2907 1.18342E-02 1.07547E-03-7.21581E-14
 -1      2908 1.17491E-02 1.02964E-03-7.15575E-14
 -1      2909 1.22638E-02 1.12856E-03-7.79170E-14
 -1      2910 1.21207E-02 1.11108E-03-7.59785E-14
 -1      2911 1.20354E-02 1.06540E-03-7.53604E-14
 -1      2912 1.25500E-02 1.16298E-03-8.18447E-14
 -1      2913 1.24069E-02 1.14586E-03-7.98726E-14
 -1      2914 1.23215E-02 1.10031E-03-7.92364E-14
 -1      2915 1.28359E-02 1.19676E-03-8.58309E-14
 -1      2916 1.26930E-02 1.17994E-03-8.38318E-14
 -1      2917 1.26075E-02 1.13451E-03-8.31797E-14
 -1      2918 1.31218E-02 1.23002E-03-8.98668E-14
 -1      2919 1.29789E-02 1.21345E-03-8.78438E-14
 -1      2920 1.28934E-02 1.16811E-03-8.71797E-14
 -1      2921 1.34076E-02 1.26288E-03-9.39449E-14
 -1      2922 1.32647E-02 1.24650E-03-9.19014E-14
 -1      2923 1.31792E-02 1.20123E-03-9.12257E-14
 -1      2924 1.36934E-02 1.29542E-03-9.80596E-14
 -1      2925 1.35505E-02 1.27918E-03-9.59974E-14
 -1      2926 1.34650E-02 1.23398E-03-9.53132E-14
 -1      2927 1.39791E-02 1.32774E-03-1.02202E-13
 -1      2928 1.38362E-02 1.31160E-03-1.00128E-13
 -1      2929 1.37508E-02 1.26644E-03-9.94351E-14
 -1      2930 1.42648E-02 1.35990E-03-1.06370E-13
 -1      2931 1.41219E-02 1.34383E-03-1.04283E-13
 -1      2932 1.40365E-02 1.29869E-03-1.03586E-13
 -1      2933 1.45158E-02 1.38040E-03-1.10169E-13
 -1      2934 1.43730E-02 1.36437E-03-1.08075E-13
 -1      2935 1.42876E-02 1.31924E-03-1.07371E-13
 -1      2936 1.45040E-02 1.32815E-03-1.10782E-13
 -1      2937 7.26007E-03 5.43898E-04-2.39030E-14
 -1      2938 7.43416E-03 4.63949E-04-2.46717E-14
 -1      2939 1.43396E-02 9.19828E-04-1.14292E-13
 -1      2940 1.43552E-02 9.61958E-04-1.13917E-13
 -1      2941 1.40714E-02 4.33860E-04-1.16936E-13
 -1      2942 1.41676E-02 4.43576E-04-1.18391E-13
 -1      2943 1.40134E-02 4.63169E-04-1.15562E-13
 -1      2944 1.44022E-02 1.08836E-03-1.12780E-13
 -1      2945 1.44179E-02 1.13050E-03-1.12398E-13
 -1      2946 1.43086E-02 8.35566E-04-1.15033E-13
 -1      2947 1.43241E-02 8.77697E-04-1.14666E-13
 -1      2948 1.42081E-02 8.85066E-04-1.12647E-13
 -1      2949 1.43708E-02 1.00409E-03-1.13539E-13
 -1      2950 1.43865E-02 1.04622E-03-1.13159E-13
 -1      2951 1.42706E-02 1.05351E-03-1.11146E-13
 -1      2952 1.42393E-02 9.69282E-04-1.11901E-13
 -1      2953 1.42782E-02 7.52729E-04-1.15755E-13
 -1      2954 1.42933E-02 7.94148E-04-1.15395E-13
 -1      2955 1.41773E-02 8.01563E-04-1.13376E-13
 -1      2956 1.42474E-02 6.68455E-04-1.16478E-13
 -1      2957 1.42627E-02 7.10592E-04-1.16117E-13
 -1      2958 1.41467E-02 7.18052E-04-1.14095E-13
 -1      2959 1.42167E-02 5.84170E-04-1.17195E-13
 -1      2960 1.42320E-02 6.26313E-04-1.16840E-13
 -1      2961 1.41159E-02 6.33812E-04-1.14813E-13
 -1      2962 8.35515E-04-2.34257E-04-6.84186E-16
 -1      2963 9.68961E-04-2.64791E-04-8.73515E-16
 -1      2964 8.22533E-04-2.08161E-04-6.86259E-16
 -1      2965 5.72997E-03-8.14020E-04-2.02184E-14
 -1      2966 5.60425E-03-8.19840E-04-1.94557E-14
 -1      2967 7.08911E-03-1.18280E-04-2.62128E-14
 -1      2968 6.91212E-03-2.13971E-04-2.56700E-14
 -1      2969 6.84563E-03-2.72545E-04-2.60243E-14
 -1      2970 4.30432E-03-2.25941E-04-1.38365E-14
 -1      2971 4.10988E-03-1.31737E-04-1.32989E-14
 -1      2972 8.06120E-03 2.44515E-04-2.78816E-14
 -1      2973 8.05055E-03 2.39917E-04-2.79498E-14
 -1      2974 7.47804E-03 6.55352E-05-2.69258E-14
 -1      2975 7.31965E-03-3.34267E-06-2.66685E-14
 -1      2976 3.60226E-03 1.74035E-04-1.12415E-14
 -1      2977 3.70516E-03 2.03840E-04-1.13238E-14
 -1      2978 1.72709E-03 3.74097E-04-1.47304E-15
 -1      2979 1.58116E-03 3.64653E-04-1.22118E-15
 -1      2980 1.77995E-03 3.43137E-04-1.69232E-15
 -1      2981 2.61091E-03 4.02831E-04-3.52562E-15
 -1      2982 2.46194E-03 3.98803E-04-3.11873E-15
 -1      2983 2.36144E-03 3.60791E-04-3.03495E-15
 -1      2984 2.65464E-03 3.67902E-04-3.86111E-15
 -1      2985 1.07859E-03-2.81949E-04-1.05280E-15
 -1      2986 1.22361E-03-3.02057E-04-1.31450E-15
 -1      2987 1.28100E-03-2.78297E-04-1.46354E-15
 -1      2988 1.06276E-03-2.52396E-04-1.05489E-15
 -1      2989 1.43544E-03 3.52426E-04-9.95040E-16
 -1      2990 1.28963E-03 3.37084E-04-7.93677E-16
 -1      2991 1.20059E-03 2.95248E-04-7.58494E-16
 -1      2992 1.49015E-03 3.24816E-04-1.17490E-15
 -1      2993 6.85329E-03 7.56949E-04-2.20187E-14
 -1      2994 7.04273E-03 6.51403E-04-2.28708E-14
 -1      2995 7.74932E-04 1.01871E-04-5.19916E-16
 -1      2996 7.69844E-04 8.19548E-05-5.41749E-16
 -1      2997 8.82742E-04 8.11819E-05-7.01750E-16
 -1      2998 8.94999E-04 1.25289E-04-6.48800E-16
 -1      2999 7.70511E-04-7.88233E-05-6.62583E-16
 -1      3000 7.75543E-04-9.90663E-05-6.68614E-16
 -1      3001 8.00665E-03 2.27624E-04-2.78899E-14
 -1      3002 7.91515E-03 2.09437E-04-2.75264E-14
 -1      3003 7.89293E-03 1.98353E-04-2.82527E-14
 -1      3004 3.42787E-03 1.29801E-04-1.11534E-14
 -1      3005 3.49946E-03 1.45276E-04-1.11985E-14
 -1      3006 3.51850E-03 1.57085E-04-1.07814E-14
 -1      3007 3.59133E-03 6.45414E-05-1.20159E-14
 -1      3008 3.49730E-03 9.18302E-05-1.18594E-14
 -1      3009 4.70516E-03 6.97686E-04-1.25320E-14
 -1      3010 4.91202E-03 8.29179E-04-1.30243E-14
 -1      3011 1.42059E-02 4.82607E-04-1.18471E-13
 -1      3012 5.11569E-03 9.54114E-04-1.36338E-14
 -1      3013 5.27651E-03 1.05340E-03-1.41474E-14
 -1      3014 3.87210E-03 2.63869E-04-1.15019E-14
 -1      3015 4.06224E-03 3.43019E-04-1.16808E-14
 -1      3016 3.77612E-03 2.38591E-04-1.09945E-14
 -1      3017 4.26233E-03 4.40756E-04-1.18833E-14
 -1      3018 4.45842E-03 5.49071E-04-1.21407E-14
 -1      3019 6.51860E-03 9.57203E-04-2.04510E-14
 -1      3020 6.67365E-03 8.62367E-04-2.11871E-14
 -1      3021 3.91415E-03-4.84695E-05-1.27721E-14
 -1      3022 3.75734E-03 7.39376E-06-1.23608E-14
 -1      3023 6.07285E-03-7.01028E-04-2.21387E-14
 -1      3024 5.91877E-03-7.68458E-04-2.13147E-14
 -1      3025 6.35447E-03-5.45352E-04-2.35380E-14
 -1      3026 6.21029E-03-6.30389E-04-2.28334E-14
 -1      3027 6.13972E-03-6.79298E-04-2.27708E-14
 -1      3028 7.81602E-04-1.20577E-04-6.72802E-16
 -1      3029 7.88610E-04-1.43622E-04-6.74672E-16
 -1      3030 8.95804E-04-1.22173E-04-8.47887E-16
 -1      3031 8.73360E-04 2.33117E-06-7.81479E-16
 -1      3032 7.60079E-04-6.48529E-06-6.23376E-16
 -1      3033 7.61205E-04-2.37753E-05-6.35315E-16
 -1      3034 6.78791E-03 8.17789E-04-2.18359E-14
 -1      3035 6.45542E-03 1.01434E-03-2.01492E-14
 -1      3036 8.71623E-04 2.32969E-04-4.22785E-16
 -1      3037 6.47617E-03-4.90485E-04-2.44672E-14
 -1      3038 7.56036E-03 4.19118E-04-2.53976E-14
 -1      3039 7.67787E-03 3.86584E-04-2.61315E-14
 -1      3040 7.50157E-03 4.72941E-04-2.54877E-14
 -1      3041 1.43019E-02 1.13739E-03-1.10389E-13
 -1      3042 1.44335E-02 1.17229E-03-1.12017E-13
 -1      3043 1.44492E-02 1.21407E-03-1.11634E-13
 -1      3044 4.37501E-03-2.86415E-04-1.38747E-14
 -1      3045 3.98404E-03-1.01378E-04-1.26943E-14
 -1      3046 5.12226E-03 1.02237E-03-1.28347E-14
 -1      3047 4.98673E-03 9.21853E-04-1.26139E-14
 -1      3048 5.30770E-03 1.10929E-03-1.36783E-14
 -1      3049 5.67738E-03 1.21396E-03-1.59240E-14
 -1      3050 6.73129E-03 9.96306E-04-2.15662E-14
 -1      3051 6.54466E-03 1.07197E-03-2.04548E-14
 -1      3052 7.17046E-03 6.11864E-04-2.37101E-14
 -1      3053 9.88472E-04 2.38131E-04-5.69518E-16
 -1      3054 5.37222E-03 1.11466E-03-1.43088E-14
 -1      3055 5.48639E-03 1.15526E-03-1.49709E-14
 -1      3056 1.44687E-02 1.25021E-03-1.11402E-13
 -1      3057 1.44844E-02 1.29200E-03-1.11017E-13
 -1      3058 1.43762E-02 1.28756E-03-1.09311E-13
 -1      3059 1.43371E-02 1.21529E-03-1.09778E-13
 -1      3060 7.22071E-03-6.58571E-05-2.70385E-14
 -1      3061 5.19335E-03-7.05594E-04-1.72176E-14
 -1      3062 5.08819E-03-6.66552E-04-1.66944E-14
 -1      3063 5.25925E-03-7.44268E-04-1.75611E-14
 -1      3064 7.89595E-03 2.91616E-04-2.66799E-14
 -1      3065 7.98086E-03 2.82957E-04-2.75367E-14
 -1      3066 7.85665E-03 3.18083E-04-2.68820E-14
 -1      3067 1.42212E-02 5.24756E-04-1.18125E-13
 -1      3068 5.83119E-03-7.99087E-04-2.09585E-14
 -1      3069 3.43925E-03 9.67369E-05-1.14253E-14
 -1      3070 7.60459E-03 1.06490E-04-2.76946E-14
 -1      3071 8.06667E-03 2.53590E-04-2.80341E-14
 -1      3072 8.10476E-03 2.55160E-04-2.88976E-14
 -1      3073 8.06100E-03 2.63232E-04-2.81856E-14
 -1      3074 8.05414E-03 2.35959E-04-2.86834E-14
 -1      3075 4.55364E-03 6.25254E-04-1.19345E-14
 -1      3076 5.51421E-03-8.13290E-04-1.89751E-14
 -1      3077 4.79692E-03-5.03963E-04-1.54408E-14
 -1      3078 4.67567E-03-4.60297E-04-1.48781E-14
 -1      3079 4.88811E-03-5.66862E-04-1.57794E-14
 -1      3080 7.63332E-04-4.14092E-05-6.45629E-16
 -1      3081 7.66429E-04-5.97175E-05-6.54899E-16
 -1      3082 8.83665E-04-7.72339E-05-8.33060E-16
 -1      3083 8.76142E-04-3.63883E-05-8.10563E-16
 -1      3084 3.39572E-03 1.20596E-04-1.10371E-14
 -1      3085 3.39123E-03 1.24933E-04-1.06247E-14
 -1      3086 3.37632E-03 1.14042E-04-1.09209E-14
 -1      3087 3.63918E-03 3.49723E-05-1.18450E-14
 -1      3088 3.53582E-03 5.00034E-05-1.13419E-14
 -1      3089 3.68024E-03-9.16290E-07-1.16706E-14
 -1      3090 4.97511E-03 8.88052E-04-1.29043E-14
 -1      3091 1.40592E-02 4.97729E-04-1.15831E-13
 -1      3092 1.41708E-02 5.49596E-04-1.16932E-13
 -1      3093 1.40547E-02 5.57123E-04-1.14907E-13
 -1      3094 1.39630E-02 4.88011E-04-1.14377E-13
 -1      3095 4.12939E-03 3.89574E-04-1.13625E-14
 -1      3096 6.85814E-03 8.98548E-04-2.23796E-14
 -1      3097 6.59151E-03-4.48709E-04-2.54919E-14
 -1      3098 6.39341E-03-5.62710E-04-2.44797E-14
 -1      3099 1.03927E-03 2.05675E-04-7.11399E-16
 -1      3100 1.02764E-03 1.76709E-04-7.53060E-16
 -1      3101 3.43789E-03 1.45798E-04-1.02620E-14
 -1      3102 3.52896E-03 1.71061E-04-1.03016E-14
 -1      3103 1.73422E-03-2.79874E-04-2.56425E-15
 -1      3104 1.87809E-03-2.85823E-04-2.96104E-15
 -1      3105 2.02214E-03-2.90469E-04-3.38594E-15
 -1      3106 2.16653E-03-2.94119E-04-3.83908E-15
 -1      3107 1.93134E-03-2.54508E-04-3.16088E-15
 -1      3108 2.31130E-03-2.97235E-04-4.31958E-15
 -1      3109 2.45666E-03-3.00190E-04-4.82744E-15
 -1      3110 2.21728E-03-2.60509E-04-4.06038E-15
 -1      3111 2.60276E-03-3.03428E-04-5.36345E-15
 -1      3112 2.74989E-03-3.07442E-04-5.92687E-15
 -1      3113 2.50472E-03-2.64717E-04-5.07015E-15
 -1      3114 2.89833E-03-3.12651E-04-6.51703E-15
 -1      3115 3.04843E-03-3.19746E-04-7.13452E-15
 -1      3116 2.79522E-03-2.70234E-04-6.18830E-15
 -1      3117 3.20067E-03-3.29101E-04-7.77935E-15
 -1      3118 3.35537E-03-3.41704E-04-8.45079E-15
 -1      3119 3.09142E-03-2.80730E-04-7.41429E-15
 -1      3120 3.51326E-03-3.57872E-04-9.14880E-15
 -1      3121 3.67443E-03-3.78925E-04-9.87422E-15
 -1      3122 3.39713E-03-3.00903E-04-8.74722E-15
 -1      3123 3.83982E-03-4.05086E-04-1.06269E-14
 -1      3124 4.00890E-03-4.37866E-04-1.14070E-14
 -1      3125 3.71717E-03-3.37054E-04-1.01862E-14
 -1      3126 4.18262E-03-4.77272E-04-1.22147E-14
 -1      3127 4.35913E-03-5.24070E-04-1.30507E-14
 -1      3128 4.05614E-03-3.97479E-04-1.17338E-14
 -1      3129 4.53952E-03-5.77381E-04-1.39153E-14
 -1      3130 4.71987E-03-6.36382E-04-1.48096E-14
 -1      3131 4.41528E-03-4.90051E-04-1.33921E-14
 -1      3132 4.99062E-03-7.04891E-04-1.62004E-14
 -1      3133 5.16891E-03-7.64356E-04-1.71680E-14
 -1      3134 5.34349E-03-8.11298E-04-1.81674E-14
 -1      3135 5.57076E-03-8.48387E-04-1.96095E-14
 -1      3136 5.73682E-03-8.39327E-04-2.06844E-14
 -1      3137 5.90441E-03-8.01028E-04-2.17945E-14
 -1      3138 6.07641E-03-7.44352E-04-2.29316E-14
 -1      3139 6.31518E-03-6.53025E-04-2.46357E-14
 -1      3140 6.49448E-03-5.75148E-04-2.58440E-14
 -1      3141 6.67670E-03-4.96913E-04-2.70808E-14
 -1      3142 6.85714E-03-4.23618E-04-2.83459E-14
 -1      3143 6.70235E-03-4.39041E-04-2.67284E-14
 -1      3144 7.03676E-03-3.57321E-04-2.96374E-14
 -1      3145 7.21177E-03-2.97933E-04-3.09565E-14
 -1      3146 7.07260E-03-2.92788E-04-2.92717E-14
 -1      3147 7.38333E-03-2.46579E-04-3.23013E-14
 -1      3148 7.55004E-03-2.01467E-04-3.36722E-14
 -1      3149 7.42315E-03-1.84270E-04-3.19215E-14
 -1      3150 7.71282E-03-1.62952E-04-3.50680E-14
 -1      3151 7.87160E-03-1.29196E-04-3.64865E-14
 -1      3152 7.75123E-03-1.06233E-04-3.46715E-14
 -1      3153 8.02706E-03-1.00212E-04-3.79290E-14
 -1      3154 8.17964E-03-7.46422E-05-3.93944E-14
 -1      3155 8.06110E-03-4.92626E-05-3.75175E-14
 -1      3156 8.32983E-03-5.23301E-05-4.08826E-14
 -1      3157 8.47812E-03-3.23981E-05-4.23947E-14
 -1      3158 8.35835E-03-5.93135E-06-4.04551E-14
 -1      3159 8.62485E-03-1.46132E-05-4.39256E-14
 -1      3160 8.77043E-03 1.57136E-06-4.54783E-14
 -1      3161 8.64777E-03 2.86878E-05-4.34802E-14
 -1      3162 8.91505E-03 1.64087E-05-4.70551E-14
 -1      3163 9.05903E-03 3.02261E-05-4.86539E-14
 -1      3164 8.93279E-03 5.78397E-05-4.65935E-14
 -1      3165 9.20246E-03 4.32632E-05-5.02738E-14
 -1      3166 9.34557E-03 5.57110E-05-5.19157E-14
 -1      3167 9.21566E-03 8.37232E-05-4.97939E-14
 -1      3168 9.48839E-03 6.77750E-05-5.35764E-14
 -1      3169 9.63108E-03 7.95617E-05-5.52569E-14
 -1      3170 9.49774E-03 1.07861E-04-5.30791E-14
 -1      3171 9.77363E-03 9.12347E-05-5.69601E-14
 -1      3172 9.91616E-03 1.02848E-04-5.86824E-14
 -1      3173 9.77980E-03 1.31312E-04-5.64461E-14
 -1      3174 1.00586E-02 1.14523E-04-6.04241E-14
 -1      3175 1.02011E-02 1.26282E-04-6.21867E-14
 -1      3176 1.00622E-02 1.54792E-04-5.98948E-14
 -1      3177 1.03436E-02 1.38207E-04-6.39678E-14
 -1      3178 1.04862E-02 1.50303E-04-6.57678E-14
 -1      3179 1.03452E-02 1.78761E-04-6.34238E-14
 -1      3180 1.06287E-02 1.62621E-04-6.75852E-14
 -1      3181 1.07713E-02 1.75154E-04-6.94212E-14
 -1      3182 1.06287E-02 2.03485E-04-6.70266E-14
 -1      3183 1.09139E-02 1.87929E-04-7.12737E-14
 -1      3184 1.10566E-02 2.00933E-04-7.31434E-14
 -1      3185 1.09128E-02 2.29091E-04-7.07039E-14
 -1      3186 1.11993E-02 2.14177E-04-7.50264E-14
 -1      3187 1.13420E-02 2.27645E-04-7.69265E-14
 -1      3188 1.11972E-02 2.55607E-04-7.44461E-14
 -1      3189 1.14848E-02 2.41337E-04-7.88439E-14
 -1      3190 1.16275E-02 2.55237E-04-8.07729E-14
 -1      3191 1.14821E-02 2.82994E-04-7.82505E-14
 -1      3192 1.17703E-02 2.69335E-04-8.27172E-14
 -1      3193 1.19131E-02 2.83617E-04-8.46749E-14
 -1      3194 1.17672E-02 3.11178E-04-8.21153E-14
 -1      3195 1.20559E-02 2.98071E-04-8.66457E-14
 -1      3196 1.21988E-02 3.12683E-04-8.86345E-14
 -1      3197 1.20525E-02 3.40063E-04-8.60372E-14
 -1      3198 1.23416E-02 3.27438E-04-9.06353E-14
 -1      3199 1.24845E-02 3.42325E-04-9.26516E-14
 -1      3200 1.23380E-02 3.69546E-04-9.00158E-14
 -1      3201 1.26273E-02 3.57329E-04-9.46781E-14
 -1      3202 1.27702E-02 3.72440E-04-9.67188E-14
 -1      3203 1.26236E-02 3.99524E-04-9.40509E-14
 -1      3204 1.29131E-02 3.87643E-04-9.87755E-14
 -1      3205 1.30559E-02 4.02932E-04-1.00841E-13
 -1      3206 1.29092E-02 4.29905E-04-9.81393E-14
 -1      3207 1.31988E-02 4.18291E-04-1.02917E-13
 -1      3208 1.33417E-02 4.33715E-04-1.05007E-13
 -1      3209 1.31949E-02 4.60602E-04-1.02274E-13
 -1      3210 1.34845E-02 4.49191E-04-1.07102E-13
 -1      3211 1.36274E-02 4.64713E-04-1.09206E-13
 -1      3212 1.34806E-02 4.91539E-04-1.06448E-13
 -1      3213 1.37237E-02 4.68559E-04-1.10726E-13
 -1      3214 1.38666E-02 4.84137E-04-1.12847E-13
 -1      3215 1.39125E-02 5.18681E-04-1.13114E-13
 -1      3216 1.37198E-02 5.10935E-04-1.10066E-13
 -1      3217 3.28379E-03 3.67380E-04-6.24086E-15
 -1      3218 3.13417E-03 3.54656E-04-5.69347E-15
 -1      3219 2.98659E-03 3.45432E-04-5.17110E-15
 -1      3220 2.84040E-03 3.38663E-04-4.67466E-15
 -1      3221 3.01788E-03 3.11425E-04-5.55866E-15
 -1      3222 3.91879E-03 4.72098E-04-8.68396E-15
 -1      3223 3.75267E-03 4.34861E-04-8.03490E-15
 -1      3224 4.27252E-03 5.76953E-04-1.00588E-14
 -1      3225 4.09224E-03 5.18107E-04-9.35855E-15
 -1      3226 3.93423E-03 4.32914E-04-9.17994E-15
 -1      3227 6.48429E-03 1.03721E-03-2.02661E-14
 -1      3228 7.07979E-03 6.87129E-04-2.34521E-14
 -1      3229 7.27899E-03 5.91446E-04-2.44980E-14
 -1      3230 7.30410E-03 6.89569E-04-2.50957E-14
 -1      3231 7.11506E-03 7.47646E-04-2.38920E-14
 -1      3232 8.35746E-03 5.77421E-04-3.34428E-14
 -1      3233 8.20619E-03 5.76507E-04-3.20751E-14
 -1      3234 8.65326E-03 5.91666E-04-3.62477E-14
 -1      3235 8.50624E-03 5.82861E-04-3.48344E-14
 -1      3236 8.45985E-03 5.40390E-04-3.44162E-14
 -1      3237 8.94371E-03 6.17430E-04-3.91438E-14
 -1      3238 8.79891E-03 6.03414E-04-3.76855E-14
 -1      3239 8.74517E-03 5.61149E-04-3.72512E-14
 -1      3240 9.23159E-03 6.50609E-04-4.21248E-14
 -1      3241 9.08782E-03 6.33294E-04-4.06227E-14
 -1      3242 9.02744E-03 5.90637E-04-4.01731E-14
 -1      3243 9.51835E-03 6.88259E-04-4.51934E-14
 -1      3244 9.37502E-03 6.69011E-04-4.36496E-14
 -1      3245 9.30895E-03 6.25718E-04-4.31811E-14
 -1      3246 9.80467E-03 7.28286E-04-4.83508E-14
 -1      3247 9.66151E-03 7.08067E-04-4.67604E-14
 -1      3248 9.59075E-03 6.64123E-04-4.62780E-14
 -1      3249 1.00909E-02 7.69246E-04-5.15934E-14
 -1      3250 9.94775E-03 7.48709E-04-4.99617E-14
 -1      3251 9.87323E-03 7.04215E-04-4.94613E-14
 -1      3252 1.03770E-02 8.10192E-04-5.49256E-14
 -1      3253 1.02339E-02 7.89758E-04-5.32479E-14
 -1      3254 1.01565E-02 7.44852E-04-5.27335E-14
 -1      3255 1.06632E-02 8.50542E-04-5.83398E-14
 -1      3256 1.05201E-02 8.30462E-04-5.66224E-14
 -1      3257 1.04404E-02 7.85279E-04-5.60921E-14
 -1      3258 1.09493E-02 8.89980E-04-6.18403E-14
 -1      3259 1.08062E-02 8.70384E-04-6.00789E-14
 -1      3260 1.07248E-02 8.25035E-04-5.95325E-14
 -1      3261 1.12354E-02 9.28371E-04-6.54252E-14
 -1      3262 1.10924E-02 9.09308E-04-6.36237E-14
 -1      3263 1.10097E-02 8.63878E-04-6.30585E-14
 -1      3264 1.15214E-02 9.65699E-04-6.90953E-14
 -1      3265 1.13784E-02 9.47165E-04-6.72498E-14
 -1      3266 1.12948E-02 9.01713E-04-6.66699E-14
 -1      3267 1.18074E-02 1.00202E-03-7.28415E-14
 -1      3268 1.16644E-02 9.83981E-04-7.09585E-14
 -1      3269 1.15802E-02 9.38544E-04-7.03591E-14
 -1      3270 1.20934E-02 1.03744E-03-7.66641E-14
 -1      3271 1.19504E-02 1.01984E-03-7.47424E-14
 -1      3272 1.18657E-02 9.74439E-04-7.41274E-14
 -1      3273 1.23792E-02 1.07207E-03-8.05572E-14
 -1      3274 1.22363E-02 1.05485E-03-7.86022E-14
 -1      3275 1.21513E-02 1.00950E-03-7.79690E-14
 -1      3276 1.26651E-02 1.10603E-03-8.45163E-14
 -1      3277 1.25222E-02 1.08913E-03-8.25286E-14
 -1      3278 1.24370E-02 1.04383E-03-8.18794E-14
 -1      3279 1.29509E-02 1.13945E-03-8.85275E-14
 -1      3280 1.28080E-02 1.12281E-03-8.65168E-14
 -1      3281 1.27227E-02 1.07755E-03-8.58534E-14
 -1      3282 1.32367E-02 1.17243E-03-9.25859E-14
 -1      3283 1.30938E-02 1.15599E-03-9.05516E-14
 -1      3284 1.30084E-02 1.11078E-03-8.98772E-14
 -1      3285 1.35225E-02 1.20506E-03-9.66815E-14
 -1      3286 1.33796E-02 1.18878E-03-9.46290E-14
 -1      3287 1.32942E-02 1.14361E-03-9.39448E-14
 -1      3288 1.38082E-02 1.23744E-03-1.00812E-13
 -1      3289 1.36653E-02 1.22128E-03-9.87416E-14
 -1      3290 1.35799E-02 1.17613E-03-9.80503E-14
 -1      3291 1.40940E-02 1.26963E-03-1.04967E-13
 -1      3292 1.39511E-02 1.25356E-03-1.02886E-13
 -1      3293 1.38657E-02 1.20843E-03-1.02187E-13
 -1      3294 1.42892E-02 1.28084E-03-1.07989E-13
 -1      3295 1.41810E-02 1.27638E-03-1.06287E-13
 -1      3296 1.40956E-02 1.23126E-03-1.05584E-13
 -1      3297 1.42696E-02 1.24471E-03-1.08224E-13
 -1      3298 6.91966E-03 8.20796E-04-2.27170E-14
 -1      3299 1.40460E-02 7.67229E-04-1.11726E-13
 -1      3300 1.40612E-02 8.08601E-04-1.11371E-13
 -1      3301 1.39845E-02 5.99194E-04-1.13149E-13
 -1      3302 1.39999E-02 6.41301E-04-1.12794E-13
 -1      3303 1.40768E-02 8.50684E-04-1.11004E-13
 -1      3304 1.40923E-02 8.92767E-04-1.10635E-13
 -1      3305 1.39454E-02 8.16330E-04-1.09365E-13
 -1      3306 1.83202E-03 3.12557E-04-1.91986E-15
 -1      3307 1.68834E-03 3.05971E-04-1.62905E-15
 -1      3308 6.96289E-03-2.30563E-04-2.69806E-14
 -1      3309 6.81330E-03-3.17820E-04-2.64240E-14
 -1      3310 1.40152E-02 6.83223E-04-1.12441E-13
 -1      3311 1.40306E-02 7.25317E-04-1.12082E-13
 -1      3312 1.39145E-02 7.32388E-04-1.10082E-13
 -1      3313 1.38838E-02 6.48602E-04-1.10788E-13
 -1      3314 3.98929E-03 3.43555E-04-1.07694E-14
 -1      3315 4.16331E-03 4.29540E-04-1.09571E-14
 -1      3316 8.05160E-03 5.80432E-04-3.07313E-14
 -1      3317 7.89285E-03 5.91274E-04-2.94119E-14
 -1      3318 8.16718E-03 5.32873E-04-3.16730E-14
 -1      3319 7.72834E-03 6.09116E-04-2.81169E-14
 -1      3320 7.55783E-03 6.37647E-04-2.68458E-14
 -1      3321 7.85975E-03 5.45646E-04-2.90247E-14
 -1      3322 4.03067E-03-1.54105E-04-1.25519E-14
 -1      3323 3.85801E-03-8.07853E-05-1.20460E-14
 -1      3324 6.12811E-03 1.21396E-03-1.80714E-14
 -1      3325 5.98975E-03 1.20675E-03-1.76217E-14
 -1      3326 1.15199E-03 2.66635E-04-7.50715E-16
 -1      3327 1.08470E-03 2.31232E-04-7.26280E-16
 -1      3328 1.20034E-03 2.29463E-04-9.17872E-16
 -1      3329 1.29579E-03 2.83172E-04-9.45573E-16
 -1      3330 3.59202E-03 4.06480E-04-7.41139E-15
 -1      3331 3.43613E-03 3.84072E-04-6.81319E-15
 -1      3332 3.30836E-03 3.32083E-04-6.66547E-15
 -1      3333 3.61059E-03 3.69143E-04-7.87230E-15
 -1      3334 8.10670E-03 2.42847E-04-2.95465E-14
 -1      3335 8.05978E-03 2.30872E-04-2.94839E-14
 -1      3336 2.11926E-03 3.21385E-04-2.57814E-15
 -1      3337 1.97561E-03 3.17599E-04-2.23633E-15
 -1      3338 1.88312E-03 2.82479E-04-2.15552E-15
 -1      3339 6.11371E-03 1.17272E-03-1.83117E-14
 -1      3340 4.43622E-03-3.52288E-04-1.38875E-14
 -1      3341 4.24450E-03-2.54171E-04-1.32303E-14
 -1      3342 3.67601E-03 2.18887E-04-1.04380E-14
 -1      3343 3.82768E-03 2.73606E-04-1.06047E-14
 -1      3344 3.86354E-03 3.12977E-04-1.02161E-14
 -1      3345 1.44714E-03-2.62419E-04-1.85519E-15
 -1      3346 1.59061E-03-2.72161E-04-2.19547E-15
 -1      3347 1.64615E-03-2.43903E-04-2.37176E-15
 -1      3348 7.99288E-04-1.63110E-04-6.81191E-16
 -1      3349 8.09959E-04-1.85803E-04-6.83413E-16
 -1      3350 9.40033E-04-2.12030E-04-8.72905E-16
 -1      3351 9.14900E-04-1.67272E-04-8.60694E-16
 -1      3352 4.79995E-03 8.08707E-04-1.20347E-14
 -1      3353 4.38538E-03 5.50715E-04-1.12636E-14
 -1      3354 4.60318E-03 6.83762E-04-1.16299E-14
 -1      3355 7.96608E-03 2.05097E-04-2.93629E-14
 -1      3356 7.84713E-03 1.75645E-04-2.89874E-14
 -1      3357 7.71443E-03 1.30265E-04-2.87943E-14
 -1      3358 7.56535E-03 7.13317E-05-2.85969E-14
 -1      3359 7.81795E-03 1.44286E-04-2.99099E-14
 -1      3360 7.36980E-03-1.48285E-05-2.81214E-14
 -1      3361 7.16907E-03-1.18146E-04-2.76474E-14
 -1      3362 7.50930E-03 2.03430E-05-2.92241E-14
 -1      3363 6.63565E-03 9.48215E-04-2.11291E-14
 -1      3364 9.91689E-04 5.57552E-05-9.10960E-16
 -1      3365 9.88950E-04 3.43503E-05-9.34623E-16
 -1      3366 3.42521E-03 8.45316E-05-1.10381E-14
 -1      3367 3.38408E-03 9.99063E-05-1.09553E-14
 -1      3368 4.62936E-03 7.29298E-04-1.13543E-14
 -1      3369 9.87691E-04 1.32676E-05-9.56131E-16
 -1      3370 9.87918E-04-7.75551E-06-9.75809E-16
 -1      3371 1.10303E-03 2.59141E-05-1.14663E-15
 -1      3372 1.14227E-03 1.74967E-04-9.44720E-16
 -1      3373 1.01746E-03 1.49760E-04-7.90600E-16
 -1      3374 1.00885E-03 1.24452E-04-8.25051E-16
 -1      3375 3.56505E-03 1.98812E-04-9.92732E-15
 -1      3376 7.40673E-03 5.39474E-04-2.52207E-14
 -1      3377 7.53069E-03 4.96546E-04-2.59549E-14
 -1      3378 7.32356E-03 6.08912E-04-2.49532E-14
 -1      3379 7.12665E-03-1.68863E-04-2.80584E-14
 -1      3380 7.74926E-03 4.00932E-04-2.70756E-14
 -1      3381 7.80009E-03 3.56152E-04-2.69797E-14
 -1      3382 7.90976E-03 3.37528E-04-2.78416E-14
 -1      3383 3.34223E-03 1.23168E-04-1.00411E-14
 -1      3384 3.38532E-03 1.32690E-04-1.01522E-14
 -1      3385 3.37828E-03 1.44362E-04-9.68708E-15
 -1      3386 1.41704E-02 1.10269E-03-1.08762E-13
 -1      3387 1.41860E-02 1.14444E-03-1.08383E-13
 -1      3388 1.23009E-03-2.44296E-04-1.39197E-15
 -1      3389 1.33857E-03-2.54143E-04-1.61526E-15
 -1      3390 1.39603E-03-2.29494E-04-1.76958E-15
 -1      3391 4.87449E-03-6.22840E-04-1.56176E-14
 -1      3392 6.16768E-03-6.81900E-04-2.31916E-14
 -1      3393 6.22376E-03-6.96052E-04-2.40593E-14
 -1      3394 8.04187E-03 2.15370E-04-3.02351E-14
 -1      3395 1.04780E-03-2.26859E-04-1.05097E-15
 -1      3396 2.40672E-03 3.27213E-04-3.33957E-15
 -1      3397 2.26289E-03 3.24479E-04-2.94585E-15
 -1      3398 2.16676E-03 2.89644E-04-2.85239E-15
 -1      3399 8.13515E-03 2.52633E-04-2.97038E-14
 -1      3400 8.15945E-03 2.49039E-04-3.05174E-14
 -1      3401 8.15307E-03 2.61606E-04-2.98600E-14
 -1      3402 2.73286E-03 3.00494E-04-4.55369E-15
 -1      3403 2.69527E-03 3.33790E-04-4.20405E-15
 -1      3404 2.55075E-03 3.30169E-04-3.75887E-15
 -1      3405 4.43616E-03 6.45802E-04-1.06047E-14
 -1      3406 6.71727E-03-4.02185E-04-2.64331E-14
 -1      3407 1.41390E-02 1.01849E-03-1.09518E-13
 -1      3408 1.41547E-02 1.06059E-03-1.09142E-13
 -1      3409 1.40387E-02 1.06764E-03-1.07140E-13
 -1      3410 4.22834E-03 4.92144E-04-1.06692E-14
 -1      3411 1.41078E-02 9.34583E-04-1.10267E-13
 -1      3412 1.41234E-02 9.76669E-04-1.09892E-13
 -1      3413 1.40075E-02 9.83760E-04-1.07893E-13
 -1      3414 1.39764E-02 9.00174E-04-1.08632E-13
 -1      3415 1.56416E-03 3.02218E-04-1.38672E-15
 -1      3416 1.42030E-03 2.91396E-04-1.14410E-15
 -1      3417 1.37112E-03 2.64105E-04-1.13025E-15
 -1      3418 1.61804E-03 2.74530E-04-1.58649E-15
 -1      3419 8.05074E-03 2.78676E-04-2.83946E-14
 -1      3420 8.11241E-03 2.78559E-04-2.92628E-14
 -1      3421 8.03541E-03 2.97685E-04-2.86028E-14
 -1      3422 3.76434E-03-9.46258E-05-1.13966E-14
 -1      3423 3.72785E-03-4.55594E-05-1.15364E-14
 -1      3424 3.60775E-03-2.09973E-05-1.10385E-14
 -1      3425 4.09678E-03-2.19591E-04-1.25605E-14
 -1      3426 3.34492E-03 1.03287E-04-1.05457E-14
 -1      3427 4.60501E-03-4.74928E-04-1.44170E-14
 -1      3428 4.46294E-03-4.37888E-04-1.37477E-14
 -1      3429 6.79051E-03 8.56366E-04-2.19641E-14
 -1      3430 4.26802E-03 5.40273E-04-1.04105E-14
 -1      3431 5.52745E-03-8.28417E-04-1.91845E-14
 -1      3432 5.38900E-03-7.95968E-04-1.83072E-14
 -1      3433 1.00162E-03 1.00490E-04-8.56357E-16
 -1      3434 9.95938E-04 7.77152E-05-8.84994E-16
 -1      3435 1.10933E-03 7.19941E-05-1.09102E-15
 -1      3436 1.12247E-03 1.20970E-04-1.02426E-15
 -1      3437 3.46770E-03 3.56937E-05-1.07056E-14
 -1      3438 3.44573E-03 6.27213E-05-1.08736E-14
 -1      3439 3.36849E-03 6.87732E-05-1.04149E-14
 -1      3440 9.97164E-04-7.28832E-05-1.02233E-15
 -1      3441 1.00295E-03-9.61593E-05-1.03391E-15
 -1      3442 6.29325E-03-6.15082E-04-2.39045E-14
 -1      3443 1.01012E-03-1.20630E-04-1.04281E-15
 -1      3444 1.01854E-03-1.46528E-04-1.04951E-15
 -1      3445 1.12430E-03-1.16293E-04-1.25652E-15
 -1      3446 1.39584E-02 5.53227E-04-1.13377E-13
 -1      3447 1.38423E-02 5.60754E-04-1.11364E-13
 -1      3448 4.06752E-03 4.32347E-04-1.01232E-14
 -1      3449 2.12548E-03-2.25520E-04-3.80730E-15
 -1      3450 2.26708E-03-2.27039E-04-4.28128E-15
 -1      3451 2.40890E-03-2.28178E-04-4.78210E-15
 -1      3452 2.55123E-03-2.29268E-04-5.31088E-15
 -1      3453 2.31586E-03-1.93725E-04-4.50120E-15
 -1      3454 2.69420E-03-2.30621E-04-5.86552E-15
 -1      3455 2.83825E-03-2.32734E-04-6.44718E-15
 -1      3456 2.59611E-03-1.93817E-04-5.54957E-15
 -1      3457 2.98368E-03-2.35880E-04-7.05577E-15
 -1      3458 3.13112E-03-2.40871E-04-7.69069E-15
 -1      3459 2.87879E-03-1.94836E-04-6.70422E-15
 -1      3460 3.28109E-03-2.47929E-04-8.35257E-15
 -1      3461 3.43439E-03-2.58450E-04-9.04000E-15
 -1      3462 3.16720E-03-1.99912E-04-7.96490E-15
 -1      3463 3.59192E-03-2.72612E-04-9.75348E-15
 -1      3464 3.75424E-03-2.92618E-04-1.04939E-14
 -1      3465 3.46675E-03-2.13965E-04-9.32938E-15
 -1      3466 3.92286E-03-3.18616E-04-1.12610E-14
 -1      3467 4.09730E-03-3.53930E-04-1.20555E-14
 -1      3468 3.78517E-03-2.45207E-04-1.07972E-14
 -1      3469 4.27505E-03-3.81251E-04-1.28982E-14
 -1      3470 8.13392E-03 2.26874E-04-3.12942E-14
 -1      3471 8.04380E-03 1.99757E-04-3.11664E-14
 -1      3472 7.39999E-03-1.47079E-04-3.10873E-14
 -1      3473 7.56732E-03-1.04690E-04-3.24343E-14
 -1      3474 7.72849E-03-7.02585E-05-3.38064E-14
 -1      3475 7.88430E-03-4.07125E-05-3.52016E-14
 -1      3476 7.71241E-03-3.19341E-05-3.29451E-14
 -1      3477 8.03566E-03-1.59453E-05-3.66201E-14
 -1      3478 8.18365E-03 5.92020E-06-3.80620E-14
 -1      3479 8.01531E-03 1.86941E-05-3.57287E-14
 -1      3480 8.32886E-03 2.50265E-05-3.95272E-14
 -1      3481 8.47213E-03 4.23309E-05-4.10140E-14
 -1      3482 8.30309E-03 5.63857E-05-3.86043E-14
 -1      3483 8.61385E-03 5.80134E-05-4.25224E-14
 -1      3484 8.75461E-03 7.25915E-05-4.40519E-14
 -1      3485 8.58267E-03 8.71454E-05-4.15685E-14
 -1      3486 8.89461E-03 8.62420E-05-4.56042E-14
 -1      3487 9.03424E-03 9.92297E-05-4.71784E-14
 -1      3488 8.85848E-03 1.14090E-04-4.46210E-14
 -1      3489 9.17361E-03 1.11724E-04-4.87754E-14
 -1      3490 9.31296E-03 1.23863E-04-5.03931E-14
 -1      3491 9.13315E-03 1.38989E-04-4.77610E-14
 -1      3492 9.45234E-03 1.35794E-04-5.20298E-14
 -1      3493 9.59187E-03 1.47585E-04-5.36870E-14
 -1      3494 9.40819E-03 1.62928E-04-5.09860E-14
 -1      3495 9.73156E-03 1.59359E-04-5.53673E-14
 -1      3496 9.87150E-03 1.71145E-04-5.70675E-14
 -1      3497 9.68434E-03 1.86624E-04-5.42931E-14
 -1      3498 1.00117E-02 1.83035E-04-5.87881E-14
 -1      3499 1.01521E-02 1.95039E-04-6.05281E-14
 -1      3500 9.96192E-03 2.10559E-04-5.76863E-14
 -1      3501 1.02927E-02 2.07221E-04-6.22879E-14
 -1      3502 1.04337E-02 2.19576E-04-6.40671E-14
 -1      3503 1.02410E-02 2.35046E-04-6.11576E-14
 -1      3504 1.05748E-02 2.32147E-04-6.58663E-14
 -1      3505 1.07161E-02 2.44922E-04-6.76838E-14
 -1      3506 1.05214E-02 2.60269E-04-6.47090E-14
 -1      3507 1.08577E-02 2.57924E-04-6.95174E-14
 -1      3508 1.09994E-02 2.71139E-04-7.13709E-14
 -1      3509 1.08030E-02 2.86310E-04-6.83367E-14
 -1      3510 1.11413E-02 2.84576E-04-7.32388E-14
 -1      3511 1.12833E-02 2.98218E-04-7.51228E-14
 -1      3512 1.10857E-02 3.13184E-04-7.20340E-14
 -1      3513 1.14255E-02 3.12066E-04-7.70220E-14
 -1      3514 1.15677E-02 3.26102E-04-7.89375E-14
 -1      3515 1.13691E-02 3.40852E-04-7.57978E-14
 -1      3516 1.17101E-02 3.40323E-04-8.08689E-14
 -1      3517 1.18526E-02 3.54711E-04-8.28127E-14
 -1      3518 1.16533E-02 3.69247E-04-7.96230E-14
 -1      3519 1.19951E-02 3.69257E-04-8.47723E-14
 -1      3520 1.21377E-02 3.83947E-04-8.67454E-14
 -1      3521 1.19379E-02 3.98284E-04-8.35084E-14
 -1      3522 1.22804E-02 3.98770E-04-8.87338E-14
 -1      3523 1.24231E-02 4.13715E-04-9.07378E-14
 -1      3524 1.22229E-02 4.27872E-04-8.74535E-14
 -1      3525 1.25658E-02 4.28768E-04-9.27540E-14
 -1      3526 1.27086E-02 4.43919E-04-9.47822E-14
 -1      3527 1.25081E-02 4.57921E-04-9.14570E-14
 -1      3528 1.28514E-02 4.59158E-04-9.68249E-14
 -1      3529 1.29942E-02 4.74475E-04-9.88797E-14
 -1      3530 1.27936E-02 4.88347E-04-9.55133E-14
 -1      3531 1.31370E-02 4.89860E-04-1.00944E-13
 -1      3532 1.32798E-02 5.05305E-04-1.03020E-13
 -1      3533 1.30791E-02 5.19073E-04-9.96168E-14
 -1      3534 1.34227E-02 5.20800E-04-1.05103E-13
 -1      3535 1.35656E-02 5.36341E-04-1.07197E-13
 -1      3536 1.33648E-02 5.50032E-04-1.03761E-13
 -1      3537 1.37460E-02 5.56867E-04-1.09844E-13
 -1      3538 3.04527E-03 2.78207E-04-5.95398E-15
 -1      3539 2.90619E-03 2.72397E-04-5.41951E-15
 -1      3540 3.89755E-03 3.89701E-04-9.42401E-15
 -1      3541 3.73645E-03 3.56647E-04-8.75020E-15
 -1      3542 3.85440E-03 3.44932E-04-9.66704E-15
 -1      3543 7.49804E-03 6.38798E-04-2.63966E-14
 -1      3544 7.39760E-03 6.03036E-04-2.55130E-14
 -1      3545 8.55734E-03 5.08267E-04-3.53940E-14
 -1      3546 8.41844E-03 4.98813E-04-3.39956E-14
 -1      3547 9.38340E-03 6.02436E-04-4.42403E-14
 -1      3548 9.24522E-03 5.83901E-04-4.27121E-14
 -1      3549 9.66093E-03 6.41089E-04-4.73643E-14
 -1      3550 9.52192E-03 6.21530E-04-4.57922E-14
 -1      3551 9.45484E-03 5.80328E-04-4.53035E-14
 -1      3552 9.94014E-03 6.80897E-04-5.05775E-14
 -1      3553 9.80031E-03 6.60896E-04-4.89602E-14
 -1      3554 9.72884E-03 6.18805E-04-4.84561E-14
 -1      3555 1.02209E-02 7.20969E-04-5.38770E-14
 -1      3556 1.00803E-02 7.00931E-04-5.22155E-14
 -1      3557 1.00054E-02 6.58055E-04-5.16979E-14
 -1      3558 1.05028E-02 7.60708E-04-5.72619E-14
 -1      3559 1.03617E-02 7.40898E-04-5.55588E-14
 -1      3560 1.02840E-02 6.97382E-04-5.50243E-14
 -1      3561 1.07858E-02 7.99753E-04-6.07294E-14
 -1      3562 1.06442E-02 7.80326E-04-5.89867E-14
 -1      3563 1.05644E-02 7.36315E-04-5.84367E-14
 -1      3564 1.10696E-02 8.37917E-04-6.42816E-14
 -1      3565 1.09276E-02 8.18947E-04-6.24947E-14
 -1      3566 1.08463E-02 7.74570E-04-6.19303E-14
 -1      3567 1.13540E-02 8.75137E-04-6.79140E-14
 -1      3568 1.12117E-02 8.56643E-04-6.60870E-14
 -1      3569 1.11292E-02 8.12004E-04-6.55060E-14
 -1      3570 1.16388E-02 9.11432E-04-7.16283E-14
 -1      3571 1.14963E-02 8.93396E-04-6.97621E-14
 -1      3572 1.14129E-02 8.48576E-04-6.91635E-14
 -1      3573 1.19239E-02 9.46871E-04-7.54157E-14
 -1      3574 1.17813E-02 9.29253E-04-7.35130E-14
 -1      3575 1.16972E-02 8.84315E-04-7.28982E-14
 -1      3576 1.22092E-02 9.81551E-04-7.92758E-14
 -1      3577 1.20665E-02 9.64299E-04-7.73369E-14
 -1      3578 1.19820E-02 9.19287E-04-7.67064E-14
 -1      3579 1.24947E-02 1.01558E-03-8.32038E-14
 -1      3580 1.23520E-02 9.98639E-04-8.12323E-14
 -1      3581 1.22671E-02 9.53583E-04-8.05858E-14
 -1      3582 1.27803E-02 1.04906E-03-8.71912E-14
 -1      3583 1.26375E-02 1.03238E-03-8.51906E-14
 -1      3584 1.25525E-02 9.87301E-04-8.45300E-14
 -1      3585 1.30660E-02 1.08209E-03-9.12258E-14
 -1      3586 1.29232E-02 1.06563E-03-8.92010E-14
 -1      3587 1.28380E-02 1.02054E-03-8.85288E-14
 -1      3588 1.33517E-02 1.11478E-03-9.53036E-14
 -1      3589 1.32089E-02 1.09848E-03-9.32598E-14
 -1      3590 1.31236E-02 1.05338E-03-9.25741E-14
 -1      3591 1.36374E-02 1.14719E-03-9.94184E-14
 -1      3592 1.34946E-02 1.13101E-03-9.73564E-14
 -1      3593 1.34093E-02 1.08592E-03-9.66636E-14
 -1      3594 1.39232E-02 1.17941E-03-1.03564E-13
 -1      3595 1.37803E-02 1.16332E-03-1.01490E-13
 -1      3596 1.36950E-02 1.11823E-03-1.00788E-13
 -1      3597 1.38140E-02 7.81649E-04-1.07729E-13
 -1      3598 1.38295E-02 8.23676E-04-1.07365E-13
 -1      3599 1.42180E-02 1.17651E-03-1.08419E-13
 -1      3600 1.42375E-02 1.21263E-03-1.08188E-13
 -1      3601 1.41505E-02 1.20591E-03-1.06869E-13
 -1      3602 1.40865E-02 1.14178E-03-1.06797E-13
 -1      3603 1.56036E-03-2.09554E-04-2.18427E-15
 -1      3604 1.70152E-03-2.15589E-04-2.54889E-15
 -1      3605 6.23651E-03 1.13489E-03-1.89269E-14
 -1      3606 5.28626E-03-7.72544E-04-1.77611E-14
 -1      3607 1.10732E-03-2.07812E-04-1.17835E-15
 -1      3608 8.27827E-03 4.92058E-04-3.26202E-14
 -1      3609 8.13527E-03 4.89348E-04-3.12689E-14
 -1      3610 8.38208E-03 4.57882E-04-3.35724E-14
 -1      3611 7.98927E-03 4.90651E-04-2.99385E-14
 -1      3612 7.83757E-03 4.98857E-04-2.86328E-14
 -1      3613 8.11084E-03 4.45286E-04-3.08596E-14
 -1      3614 3.30412E-03 9.26746E-05-1.01054E-14
 -1      3615 3.30771E-03 1.06614E-04-1.00740E-14
 -1      3616 4.96620E-03-6.21954E-04-1.61034E-14
 -1      3617 1.93356E-03 2.53036E-04-2.39990E-15
 -1      3618 1.79318E-03 2.48699E-04-2.07073E-15
 -1      3619 9.89603E-04-2.89476E-05-9.93143E-16
 -1      3620 9.92686E-04-5.05557E-05-1.00869E-15
 -1      3621 1.11086E-03-6.61498E-05-1.22928E-15
 -1      3622 3.71415E-03 2.84451E-04-9.51642E-15
 -1      3623 3.43737E-03 1.82600E-04-9.27017E-15
 -1      3624 3.56867E-03 2.26375E-04-9.39610E-15
 -1      3625 3.55897E-03 2.57055E-04-8.87346E-15
 -1      3626 7.93243E-03 1.62022E-04-3.09893E-14
 -1      3627 7.81631E-03 1.19611E-04-3.07849E-14
 -1      3628 4.12351E-03-2.89726E-04-1.23915E-14
 -1      3629 3.93459E-03-2.02769E-04-1.17418E-14
 -1      3630 9.10749E-03 5.66194E-04-4.12063E-14
 -1      3631 8.96994E-03 5.49479E-04-3.97223E-14
 -1      3632 9.18362E-03 5.43581E-04-4.22426E-14
 -1      3633 7.65114E-03 5.26345E-05-3.03826E-14
 -1      3634 7.47908E-03-2.43428E-05-2.98880E-14
 -1      3635 8.83265E-03 5.34054E-04-3.82577E-14
 -1      3636 8.69512E-03 5.20223E-04-3.68147E-14
 -1      3637 8.91512E-03 5.09799E-04-3.92683E-14
 -1      3638 6.90788E-03-3.20180E-04-2.76860E-14
 -1      3639 1.84273E-03-2.20092E-04-2.94117E-15
 -1      3640 1.98408E-03-2.23286E-04-3.36058E-15
 -1      3641 2.03625E-03-1.92184E-04-3.56022E-15
 -1      3642 1.36881E-02 5.86115E-04-1.08486E-13
 -1      3643 1.26916E-03 2.00303E-04-1.11049E-15
 -1      3644 1.25634E-03 1.70405E-04-1.15993E-15
 -1      3645 3.27939E-03 1.12969E-04-9.61519E-15
 -1      3646 1.34662E-03-1.98295E-04-1.68356E-15
 -1      3647 1.45345E-03-2.04502E-04-1.92598E-15
 -1      3648 1.51076E-03-1.79111E-04-2.08418E-15
 -1      3649 1.21936E-03 3.99761E-05-1.35226E-15
 -1      3650 1.21779E-03 1.58578E-05-1.38161E-15
 -1      3651 8.18096E-03 2.40573E-04-3.14593E-14
 -1      3652 8.20004E-03 2.28902E-04-3.24088E-14
 -1      3653 8.21923E-03 2.51943E-04-3.16229E-14
 -1      3654 5.45418E-03-8.47755E-04-1.89208E-14
 -1      3655 7.04356E-03-2.59043E-04-2.84675E-14
 -1      3656 7.22498E-03-1.97113E-04-2.97638E-14
 -1      3657 3.18516E-03 2.86016E-04-6.51313E-15
 -1      3658 3.06874E-03 2.45638E-04-6.35573E-15
 -1      3659 3.32710E-03 2.96937E-04-7.09697E-15
 -1      3660 3.57493E-03 2.94189E-04-8.48568E-15
 -1      3661 3.60796E-03 3.31569E-04-8.25791E-15
 -1      3662 3.45912E-03 3.12204E-04-7.62686E-15
 -1      3663 3.44519E-03 2.41573E-04-8.37687E-15
 -1      3664 2.44976E-03 2.94518E-04-3.65177E-15
 -1      3665 8.16730E-03 2.74257E-04-3.00773E-14
 -1      3666 8.21273E-03 2.71432E-04-3.08986E-14
 -1      3667 8.17418E-03 2.88878E-04-3.02923E-14
 -1      3668 2.76779E-03 2.68260E-04-4.91103E-15
 -1      3669 2.62938E-03 2.65229E-04-4.42879E-15
 -1      3670 2.80016E-03 2.37064E-04-5.27612E-15
 -1      3671 3.29549E-03 5.69273E-05-9.78959E-15
 -1      3672 3.29635E-03 7.64087E-05-9.94888E-15
 -1      3673 3.23593E-03 8.13605E-05-9.49241E-15
 -1      3674 7.64195E-03 5.60789E-04-2.72783E-14
 -1      3675 7.91312E-03 4.09867E-04-2.87345E-14
 -1      3676 7.77040E-03 4.66072E-04-2.78453E-14
 -1      3677 1.75658E-03-1.87197E-04-2.72718E-15
 -1      3678 1.67159E-03 2.47168E-04-1.79454E-15
 -1      3679 1.54949E-03 2.44263E-04-1.53947E-15
 -1      3680 1.72474E-03 2.20156E-04-2.01149E-15
 -1      3681 6.41542E-03-5.74246E-04-2.49108E-14
 -1      3682 1.37134E-02 8.30724E-04-1.05375E-13
 -1      3683 1.38449E-02 8.65434E-04-1.07003E-13
 -1      3684 1.38604E-02 9.07193E-04-1.06637E-13
 -1      3685 1.37985E-02 7.39797E-04-1.08086E-13
 -1      3686 1.36826E-02 7.47183E-04-1.06091E-13
 -1      3687 1.37831E-02 6.97938E-04-1.08435E-13
 -1      3688 1.40635E-02 1.19918E-03-1.05548E-13
 -1      3689 1.10363E-03-1.94423E-05-1.19245E-15
 -1      3690 3.31629E-03 1.49064E-04-9.06652E-15
 -1      3691 3.37349E-03 1.63941E-04-9.16868E-15
 -1      3692 3.36345E-03 1.87758E-04-8.65990E-15
 -1      3693 1.37279E-02 6.21092E-04-1.08636E-13
 -1      3694 1.37432E-02 6.62960E-04-1.08288E-13
 -1      3695 1.36273E-02 6.70408E-04-1.06297E-13
 -1      3696 1.35475E-02 6.00519E-04-1.05999E-13
 -1      3697 1.39782E-02 1.15409E-03-1.04845E-13
 -1      3698 1.22291E-03 6.43319E-05-1.32011E-15
 -1      3699 1.33666E-03 5.51152E-05-1.57228E-15
 -1      3700 1.22840E-03 8.92976E-05-1.28509E-15
 -1      3701 2.07348E-03 2.56336E-04-2.75436E-15
 -1      3702 1.98331E-03 2.24307E-04-2.65226E-15
 -1      3703 2.21307E-03 2.58799E-04-3.13450E-15
 -1      3704 7.26325E-03-1.13425E-04-2.88442E-14
 -1      3705 7.07267E-03-2.14944E-04-2.81605E-14
 -1      3706 1.22470E-03-5.72979E-05-1.45348E-15
 -1      3707 1.23068E-03-8.28455E-05-1.47245E-15
 -1      3708 4.68736E-03-5.33199E-04-1.47378E-14
 -1      3709 8.64862E-03 4.80533E-04-3.63764E-14
 -1      3710 8.00357E-03 3.25849E-04-2.87029E-14
 -1      3711 8.08818E-03 3.20107E-04-2.95760E-14
 -1      3712 7.97017E-03 3.59738E-04-2.88017E-14
 -1      3713 7.38442E-03-1.06744E-04-3.02554E-14
 -1      3714 1.09380E-03-1.84289E-04-1.16904E-15
 -1      3715 8.05008E-03 1.80217E-04-3.20610E-14
 -1      3716 3.79832E-03-2.04822E-04-1.10197E-14
 -1      3717 3.77150E-03-1.37695E-04-1.11836E-14
 -1      3718 3.64725E-03-1.06016E-04-1.06938E-14
 -1      3719 3.63767E-03-1.87472E-04-1.02675E-14
 -1      3720 7.78711E-03 8.05882E-05-3.14692E-14
 -1      3721 1.39071E-02 1.03277E-03-1.05523E-13
 -1      3722 1.39229E-02 1.07483E-03-1.05145E-13
 -1      3723 3.52797E-03-3.91070E-05-1.04438E-14
 -1      3724 3.49948E-03 8.31054E-07-1.05770E-14
 -1      3725 3.40142E-03 1.56066E-05-1.01255E-14
 -1      3726 1.39461E-02 1.12204E-03-1.04810E-13
 -1      3727 1.37179E-03-1.21702E-04-1.77930E-15
 -1      3728 1.25788E-03-1.30339E-04-1.52515E-15
 -1      3729 1.38145E-02 1.08712E-03-1.03198E-13
 -1      3730 3.20672E-03 1.02491E-04-9.11571E-15
 -1      3731 3.24268E-03 1.20627E-04-9.08484E-15
 -1      3732 7.59410E-03 4.97769E-04-2.65268E-14
 -1      3733 7.72334E-03 4.60823E-04-2.73840E-14
 -1      3734 1.20911E-03-1.80662E-04-1.39960E-15
 -1      3735 2.50149E-03-1.59763E-04-5.24097E-15
 -1      3736 2.63940E-03-1.58642E-04-5.78735E-15
 -1      3737 2.77755E-03-1.57575E-04-6.36036E-15
 -1      3738 2.91658E-03-1.56987E-04-6.95995E-15
 -1      3739 2.68103E-03-1.23754E-04-6.02362E-15
 -1      3740 3.05663E-03-1.57023E-04-7.58498E-15
 -1      3741 3.19874E-03-1.58546E-04-8.23606E-15
 -1      3742 2.95142E-03-1.19114E-04-7.21237E-15
 -1      3743 3.33895E-03-1.65812E-04-8.87701E-15
 -1      3744 3.48789E-03-1.72527E-04-9.57756E-15
 -1      3745 3.49958E-03-1.34076E-04-9.78791E-15
 -1      3746 3.22121E-03-1.20462E-04-8.46937E-15
 -1      3747 1.32324E-03 2.37884E-04-1.11315E-15
 -1      3748 1.43750E-03 2.30855E-04-1.35083E-15
 -1      3749 9.79447E-03 5.97143E-04-4.95542E-14
 -1      3750 9.65840E-03 5.78047E-04-4.79523E-14
 -1      3751 1.36971E-03 1.63629E-04-1.39876E-15
 -1      3752 1.24516E-03 1.42082E-04-1.20524E-15
 -1      3753 1.23586E-03 1.15108E-04-1.24695E-15
 -1      3754 8.00135E-03 5.36943E-05-3.48414E-14
 -1      3755 8.14290E-03 7.17972E-05-3.62521E-14
 -1      3756 8.28152E-03 8.75380E-05-3.76862E-14
 -1      3757 8.41857E-03 1.02154E-04-3.91423E-14
 -1      3758 8.26435E-03 1.18639E-04-3.67729E-14
 -1      3759 8.55424E-03 1.15680E-04-4.06208E-14
 -1      3760 8.68945E-03 1.28653E-04-4.21206E-14
 -1      3761 8.52860E-03 1.43678E-04-3.96773E-14
 -1      3762 8.82422E-03 1.41135E-04-4.36433E-14
 -1      3763 8.95908E-03 1.53340E-04-4.51868E-14
 -1      3764 8.79175E-03 1.67374E-04-4.26700E-14
 -1      3765 9.09403E-03 1.65355E-04-4.67512E-14
 -1      3766 9.22937E-03 1.77261E-04-4.83400E-14
 -1      3767 9.05611E-03 1.90800E-04-4.57484E-14
 -1      3768 9.36505E-03 1.89148E-04-4.99468E-14
 -1      3769 9.50124E-03 2.01037E-04-5.15733E-14
 -1      3770 9.32276E-03 2.14426E-04-4.89118E-14
 -1      3771 9.63790E-03 2.13013E-04-5.32247E-14
 -1      3772 9.77511E-03 2.25070E-04-5.48961E-14
 -1      3773 9.59212E-03 2.38497E-04-5.21602E-14
 -1      3774 9.91280E-03 2.37281E-04-5.65865E-14
 -1      3775 1.00510E-02 2.49627E-04-5.82988E-14
 -1      3776 9.86421E-03 2.63171E-04-5.54929E-14
 -1      3777 1.01897E-02 2.62165E-04-6.00322E-14
 -1      3778 1.03289E-02 2.74870E-04-6.17843E-14
 -1      3779 1.01389E-02 2.88543E-04-5.89100E-14
 -1      3780 1.04684E-02 2.87785E-04-6.35569E-14
 -1      3781 1.06084E-02 3.00883E-04-6.53497E-14
 -1      3782 1.04158E-02 3.14662E-04-6.24090E-14
 -1      3783 1.07487E-02 3.14191E-04-6.71587E-14
 -1      3784 1.08894E-02 3.27685E-04-6.89867E-14
 -1      3785 1.06947E-02 3.41535E-04-6.59849E-14
 -1      3786 1.10304E-02 3.41380E-04-7.08324E-14
 -1      3787 1.11716E-02 3.55253E-04-7.26959E-14
 -1      3788 1.09753E-02 3.69134E-04-6.96343E-14
 -1      3789 1.13131E-02 3.69310E-04-7.45760E-14
 -1      3790 1.14547E-02 3.83530E-04-7.64698E-14
 -1      3791 1.12572E-02 3.97412E-04-7.33561E-14
 -1      3792 1.15966E-02 3.97914E-04-7.83797E-14
 -1      3793 1.17386E-02 4.12443E-04-8.03069E-14
 -1      3794 1.15401E-02 4.26300E-04-7.71403E-14
 -1      3795 1.18808E-02 4.27114E-04-8.22472E-14
 -1      3796 1.20231E-02 4.41910E-04-8.42023E-14
 -1      3797 1.18238E-02 4.55726E-04-8.09878E-14
 -1      3798 1.21655E-02 4.56825E-04-8.61744E-14
 -1      3799 1.23080E-02 4.71846E-04-8.81603E-14
 -1      3800 1.21082E-02 4.85612E-04-8.48961E-14
 -1      3801 1.24505E-02 4.86965E-04-9.01610E-14
 -1      3802 1.25932E-02 5.02171E-04-9.21745E-14
 -1      3803 1.23930E-02 5.15885E-04-8.88656E-14
 -1      3804 1.27359E-02 5.17457E-04-9.42018E-14
 -1      3805 1.28786E-02 5.32812E-04-9.62406E-14
 -1      3806 1.26782E-02 5.46476E-04-9.28930E-14
 -1      3807 1.30213E-02 5.48230E-04-9.82898E-14
 -1      3808 1.31641E-02 5.63702E-04-1.00351E-13
 -1      3809 1.29636E-02 5.77322E-04-9.69672E-14
 -1      3810 1.32844E-02 5.74307E-04-1.02129E-13
 -1      3811 1.34272E-02 5.89860E-04-1.04208E-13
 -1      3812 1.34671E-02 6.24773E-04-1.04356E-13
 -1      3813 1.32266E-02 6.03451E-04-1.00792E-13
 -1      3814 2.49097E-03 2.62880E-04-3.97200E-15
 -1      3815 2.35217E-03 2.60899E-04-3.54031E-15
 -1      3816 2.53050E-03 2.32365E-04-4.29908E-15
 -1      3817 8.01740E-03 3.94128E-04-2.96095E-14
 -1      3818 1.67310E-03-1.55970E-04-2.51932E-15
 -1      3819 1.81161E-03-1.58799E-04-2.90608E-15
 -1      3820 7.58749E-03-2.75710E-05-3.13240E-14
 -1      3821 7.43628E-03-6.45507E-05-3.01501E-14
 -1      3822 9.52325E-03 5.59214E-04-4.63730E-14
 -1      3823 9.38897E-03 5.40639E-04-4.48164E-14
 -1      3824 9.58874E-03 5.38651E-04-4.74469E-14
 -1      3825 1.03460E-02 6.74020E-04-5.61763E-14
 -1      3826 1.02071E-02 6.54824E-04-5.44879E-14
 -1      3827 1.06252E-02 7.12045E-04-5.96147E-14
 -1      3828 1.04853E-02 6.93090E-04-5.78847E-14
 -1      3829 1.04067E-02 6.50691E-04-5.73323E-14
 -1      3830 1.09061E-02 7.49444E-04-6.31343E-14
 -1      3831 1.07654E-02 7.30825E-04-6.13649E-14
 -1      3832 1.06850E-02 6.87753E-04-6.07967E-14
 -1      3833 1.11883E-02 7.86106E-04-6.67346E-14
 -1      3834 1.10470E-02 7.67865E-04-6.49254E-14
 -1      3835 1.09652E-02 7.24266E-04-6.43418E-14
 -1      3836 1.14715E-02 8.22006E-04-7.04163E-14
 -1      3837 1.13298E-02 8.04147E-04-6.85641E-14
 -1      3838 1.12470E-02 7.60142E-04-6.79680E-14
 -1      3839 1.17555E-02 8.57173E-04-7.41713E-14
 -1      3840 1.16134E-02 8.39675E-04-7.22850E-14
 -1      3841 1.15298E-02 7.95365E-04-7.16691E-14
 -1      3842 1.20400E-02 8.91671E-04-7.79982E-14
 -1      3843 1.18977E-02 8.74499E-04-7.60756E-14
 -1      3844 1.18135E-02 8.29963E-04-7.54457E-14
 -1      3845 1.23249E-02 9.25581E-04-8.18969E-14
 -1      3846 1.21824E-02 9.08693E-04-7.99393E-14
 -1      3847 1.20979E-02 8.63992E-04-7.92934E-14
 -1      3848 1.26102E-02 9.58991E-04-8.58547E-14
 -1      3849 1.24675E-02 9.42343E-04-8.38680E-14
 -1      3850 1.23827E-02 8.97524E-04-8.32079E-14
 -1      3851 1.28956E-02 9.91986E-04-8.98674E-14
 -1      3852 1.27529E-02 9.75535E-04-8.78565E-14
 -1      3853 1.26678E-02 9.30634E-04-8.71831E-14
 -1      3854 1.31812E-02 1.02465E-03-9.39267E-14
 -1      3855 1.30384E-02 1.00835E-03-9.18899E-14
 -1      3856 1.29532E-02 9.63396E-04-9.12081E-14
 -1      3857 1.34668E-02 1.05705E-03-9.80249E-14
 -1      3858 1.33240E-02 1.04088E-03-9.59713E-14
 -1      3859 1.32388E-02 9.95879E-04-9.52792E-14
 -1      3860 1.36717E-02 1.07107E-03-1.01123E-13
 -1      3861 1.22051E-03-3.24775E-05-1.43196E-15
 -1      3862 1.33860E-03-4.66007E-05-1.69412E-15
 -1      3863 1.21819E-03-8.17448E-06-1.40805E-15
 -1      3864 1.33325E-03 4.54353E-06-1.63902E-15
 -1      3865 8.99241E-03 4.88041E-04-4.02804E-14
 -1      3866 8.86226E-03 4.71893E-04-3.88104E-14
 -1      3867 7.76123E-03 4.20527E-05-3.20728E-14
 -1      3868 7.72528E-03 7.15551E-06-3.23434E-14
 -1      3869 7.87548E-03 3.22509E-05-3.37141E-14
 -1      3870 7.91111E-03 1.04699E-04-3.24896E-14
 -1      3871 9.25576E-03 5.22544E-04-4.32821E-14
 -1      3872 9.12350E-03 5.04925E-04-4.17721E-14
 -1      3873 9.32400E-03 5.02487E-04-4.43288E-14
 -1      3874 1.35864E-02 1.02604E-03-1.00420E-13
 -1      3875 8.47778E-03 4.29895E-04-3.45301E-14
 -1      3876 8.35045E-03 4.18726E-04-3.31479E-14
 -1      3877 8.24784E-03 4.08412E-04-3.20329E-14
 -1      3878 8.12014E-03 4.00999E-04-3.06902E-14
 -1      3879 8.15683E-03 3.58724E-04-3.07581E-14
 -1      3880 8.34579E-03 3.81148E-04-3.29676E-14
 -1      3881 1.26844E-03-1.59279E-04-1.53619E-15
 -1      3882 1.38760E-02 9.49091E-04-1.06268E-13
 -1      3883 1.38915E-02 9.90861E-04-1.05897E-13
 -1      3884 1.37756E-02 9.98058E-04-1.03905E-13
 -1      3885 1.37445E-02 9.14311E-04-1.04646E-13
 -1      3886 8.17070E-03 1.94905E-04-3.33187E-14
 -1      3887 8.07165E-03 1.58505E-04-3.31335E-14
 -1      3888 2.22597E-03-1.61335E-04-4.22683E-15
 -1      3889 2.36380E-03-1.60737E-04-4.72071E-15
 -1      3890 2.41091E-03-1.28122E-04-4.93899E-15
 -1      3891 1.49329E-03 2.06434E-04-1.53619E-15
 -1      3892 8.73331E-03 4.56751E-04-3.73624E-14
 -1      3893 8.60502E-03 4.42668E-04-3.59343E-14
 -1      3894 8.81099E-03 4.35776E-04-3.83518E-14
 -1      3895 1.94990E-03-1.60557E-04-3.31988E-15
 -1      3896 2.08806E-03-1.61326E-04-3.76014E-15
 -1      3897 2.13955E-03-1.30746E-04-3.95937E-15
 -1      3898 1.00689E-02 6.35595E-04-5.28217E-14
 -1      3899 9.93129E-03 6.16323E-04-5.11762E-14
 -1      3900 9.85792E-03 5.75769E-04-5.06549E-14
 -1      3901 1.01308E-02 6.13262E-04-5.39497E-14
 -1      3902 2.25829E-03 2.28931E-04-3.42463E-15
 -1      3903 8.27880E-03 2.29869E-04-3.36674E-14
 -1      3904 8.22754E-03 2.13712E-04-3.34941E-14
 -1      3905 8.25893E-03 1.95879E-04-3.45892E-14
 -1      3906 1.58756E-03 1.86202E-04-1.80516E-15
 -1      3907 1.47839E-03 1.75211E-04-1.59574E-15
 -1      3908 1.46554E-03 1.45393E-04-1.65051E-15
 -1      3909 3.32815E-03 2.62959E-04-7.45759E-15
 -1      3910 9.06450E-03 4.67957E-04-4.12977E-14
 -1      3911 1.34893E-03 1.07403E-04-1.49278E-15
 -1      3912 3.08878E-03 2.14649E-04-6.76436E-15
 -1      3913 2.95988E-03 2.10484E-04-6.19411E-15
 -1      3914 8.01194E-03 8.80563E-05-3.42206E-14
 -1      3915 3.31705E-03 1.99424E-04-8.18762E-15
 -1      3916 3.32468E-03 2.30563E-04-7.82104E-15
 -1      3917 3.20587E-03 2.21721E-04-7.28339E-15
 -1      3918 2.83067E-03 2.07371E-04-5.64887E-15
 -1      3919 2.70026E-03 2.05066E-04-5.12843E-15
 -1      3920 2.85958E-03 1.79228E-04-6.02815E-15
 -1      3921 3.30632E-03 3.11138E-05-9.66798E-15
 -1      3922 3.22244E-03 4.17559E-05-9.22067E-15
 -1      3923 3.31993E-03 5.65098E-07-9.54258E-15
 -1      3924 1.70705E-03 1.87611E-04-2.08273E-15
 -1      3925 3.14888E-03 7.17708E-05-8.82129E-15
 -1      3926 3.17338E-03 8.75173E-05-8.97009E-15
 -1      3927 3.11653E-03 9.46010E-05-8.46019E-15
 -1      3928 1.35820E-02 7.96185E-04-1.03752E-13
 -1      3929 1.35975E-02 8.37872E-04-1.03394E-13
 -1      3930 1.35708E-02 9.84203E-04-1.00796E-13
 -1      3931 1.33660E-02 9.70259E-04-9.77017E-14
 -1      3932 1.35552E-02 9.42383E-04-1.01167E-13
 -1      3933 8.05280E-03 1.27707E-04-3.37571E-14
 -1      3934 1.45487E-03 7.11210E-05-1.80631E-15
 -1      3935 1.45057E-03 4.46313E-05-1.84739E-15
 -1      3936 7.51626E-03 5.59019E-04-2.62507E-14
 -1      3937 1.44874E-03 1.84349E-05-1.88486E-15
 -1      3938 1.44940E-03-7.83152E-06-1.91917E-15
 -1      3939 1.56468E-03 3.32088E-05-2.14519E-15
 -1      3940 1.35512E-02 7.12624E-04-1.04464E-13
 -1      3941 1.35666E-02 7.54407E-04-1.04110E-13
 -1      3942 1.34506E-02 7.61599E-04-1.02137E-13
 -1      3943 3.21902E-03 1.36681E-04-8.58589E-15
 -1      3944 1.45251E-03-3.43856E-05-1.95045E-15
 -1      3945 1.45793E-03-6.15871E-05-1.97872E-15
 -1      3946 1.56636E-03-2.09712E-05-2.22209E-15
 -1      3947 1.86660E-03-1.30478E-04-3.08556E-15
 -1      3948 2.03289E-03 1.96378E-04-2.91245E-15
 -1      3949 1.89647E-03 1.93620E-04-2.54576E-15
 -1      3950 8.56400E-03 4.06593E-04-3.54915E-14
 -1      3951 8.25614E-03 2.65261E-04-3.18508E-14
 -1      3952 8.29199E-03 2.57615E-04-3.28099E-14
 -1      3953 8.28456E-03 2.78376E-04-3.20762E-14
 -1      3954 8.16147E-03 3.33158E-04-3.05801E-14
 -1      3955 8.17425E-03 3.08121E-04-3.04770E-14
 -1      3956 8.24050E-03 3.02370E-04-3.13070E-14
 -1      3957 8.24846E-03 3.44820E-04-3.16750E-14
 -1      3958 1.76123E-03 1.62115E-04-2.30663E-15
 -1      3959 3.53278E-03-7.80440E-05-1.02406E-14
 -1      3960 1.64760E-03-8.73753E-05-2.46947E-15
 -1      3961 1.53496E-03-1.00364E-04-2.17564E-15
 -1      3962 3.25617E-03 1.80964E-04-8.09394E-15
 -1      3963 1.56800E-03-1.53530E-04-2.24420E-15
 -1      3964 2.30299E-03 2.00155E-04-3.72163E-15
 -1      3965 2.16839E-03 1.98525E-04-3.30404E-15
 -1      3966 2.08244E-03 1.69274E-04-3.18025E-15
 -1      3967 2.85231E-03-8.59511E-05-6.84668E-15
 -1      3968 2.98338E-03-8.21402E-05-7.46198E-15
 -1      3969 3.09472E-03 1.86687E-04-7.10499E-15
 -1      3970 8.16514E-03 1.41513E-04-3.48832E-14
 -1      3971 8.50536E-03 1.70410E-04-3.87375E-14
 -1      3972 8.63280E-03 1.81332E-04-4.02081E-14
 -1      3973 8.76063E-03 1.92416E-04-4.16996E-14
 -1      3974 8.88943E-03 2.03643E-04-4.32132E-14
 -1      3975 8.73060E-03 2.16213E-04-4.07345E-14
 -1      3976 9.01896E-03 2.15115E-04-4.47481E-14
 -1      3977 9.14953E-03 2.26754E-04-4.63041E-14
 -1      3978 8.98232E-03 2.38253E-04-4.37524E-14
 -1      3979 9.28095E-03 2.38644E-04-4.78836E-14
 -1      3980 9.41337E-03 2.50702E-04-4.94815E-14
 -1      3981 9.23937E-03 2.61769E-04-4.68570E-14
 -1      3982 9.54665E-03 2.63005E-04-5.11001E-14
 -1      3983 9.68085E-03 2.75474E-04-5.27419E-14
 -1      3984 9.50130E-03 2.86509E-04-5.00466E-14
 -1      3985 9.81585E-03 2.88178E-04-5.44049E-14
 -1      3986 9.95168E-03 3.01049E-04-5.60869E-14
 -1      3987 9.76758E-03 3.12278E-04-5.33193E-14
 -1      3988 1.00882E-02 3.14142E-04-5.77914E-14
 -1      3989 1.02255E-02 3.27399E-04-5.95181E-14
 -1      3990 1.00377E-02 3.38936E-04-5.66783E-14
 -1      3991 1.03634E-02 3.40865E-04-6.12636E-14
 -1      3992 1.05019E-02 3.54490E-04-6.30295E-14
 -1      3993 1.03110E-02 3.66370E-04-6.01221E-14
 -1      3994 1.06409E-02 3.68307E-04-6.48132E-14
 -1      3995 1.07804E-02 3.82275E-04-6.66168E-14
 -1      3996 1.05871E-02 3.94486E-04-6.36454E-14
 -1      3997 1.09204E-02 3.96416E-04-6.84398E-14
 -1      3998 1.10607E-02 4.10696E-04-7.02792E-14
 -1      3999 1.08655E-02 4.23201E-04-6.72469E-14
 -1      4000 1.12014E-02 4.25129E-04-7.21386E-14
 -1      4001 1.13424E-02 4.39688E-04-7.40124E-14
 -1      4002 1.11457E-02 4.52440E-04-7.09227E-14
 -1      4003 1.14837E-02 4.54380E-04-7.59032E-14
 -1      4004 1.16252E-02 4.69182E-04-7.78100E-14
 -1      4005 1.14274E-02 4.82133E-04-7.46680E-14
 -1      4006 1.17670E-02 4.84098E-04-7.97305E-14
 -1      4007 1.19089E-02 4.99109E-04-8.16682E-14
 -1      4008 1.17102E-02 5.12213E-04-7.84761E-14
 -1      4009 1.20510E-02 5.14215E-04-8.36221E-14
 -1      4010 1.21933E-02 5.29402E-04-8.55902E-14
 -1      4011 1.19939E-02 5.42619E-04-8.23498E-14
 -1      4012 1.23356E-02 5.44666E-04-8.75718E-14
 -1      4013 1.24781E-02 5.59998E-04-8.95703E-14
 -1      4014 1.22783E-02 5.73296E-04-8.62824E-14
 -1      4015 1.26206E-02 5.75392E-04-9.15827E-14
 -1      4016 1.27632E-02 5.90840E-04-9.36077E-14
 -1      4017 1.25631E-02 6.04194E-04-9.02750E-14
 -1      4018 1.29059E-02 6.06337E-04-9.56446E-14
 -1      4019 1.30486E-02 6.21879E-04-9.76910E-14
 -1      4020 1.28482E-02 6.35270E-04-9.43229E-14
 -1      4021 1.10239E-02 6.98999E-04-6.55533E-14
 -1      4022 1.08837E-02 6.81250E-04-6.37583E-14
 -1      4023 3.10955E-03 1.16505E-04-8.13608E-15
 -1      4024 3.17315E-03 1.44948E-04-8.11996E-15
 -1      4025 3.12318E-03 1.55206E-04-7.66505E-15
 -1      4026 9.65145E-03 5.18465E-04-4.85240E-14
 -1      4027 9.51929E-03 5.00643E-04-4.69398E-14
 -1      4028 1.07441E-02 6.63391E-04-6.19829E-14
 -1      4029 1.06049E-02 6.45400E-04-6.02275E-14
 -1      4030 1.08024E-02 6.38841E-04-6.31736E-14
 -1      4031 1.04663E-02 6.27331E-04-5.84925E-14
 -1      4032 1.03284E-02 6.09161E-04-5.67775E-14
 -1      4033 1.05250E-02 6.03784E-04-5.96570E-14
 -1      4034 1.13053E-02 7.34084E-04-6.92025E-14
 -1      4035 1.11644E-02 7.16604E-04-6.73691E-14
 -1      4036 1.10820E-02 6.73556E-04-6.67691E-14
 -1      4037 1.15879E-02 7.68633E-04-7.29273E-14
 -1      4038 1.14464E-02 7.51421E-04-7.10545E-14
 -1      4039 1.13632E-02 7.07868E-04-7.04414E-14
 -1      4040 1.18714E-02 8.02669E-04-7.67233E-14
 -1      4041 1.17295E-02 7.85710E-04-7.48169E-14
 -1      4042 1.16457E-02 7.41762E-04-7.41861E-14
 -1      4043 1.21557E-02 8.36239E-04-8.05918E-14
 -1      4044 1.20135E-02 8.19507E-04-7.86485E-14
 -1      4045 1.19292E-02 7.75257E-04-7.80051E-14
 -1      4046 1.24404E-02 8.69403E-04-8.45221E-14
 -1      4047 1.22980E-02 8.52867E-04-8.25491E-14
 -1      4048 1.22134E-02 8.08388E-04-8.18898E-14
 -1      4049 1.27255E-02 9.02224E-04-8.85119E-14
 -1      4050 1.25829E-02 8.85852E-04-8.65095E-14
 -1      4051 1.24981E-02 8.41203E-04-8.58388E-14
 -1      4052 1.30109E-02 9.34762E-04-9.25489E-14
 -1      4053 1.28682E-02 9.18524E-04-9.05241E-14
 -1      4054 1.27831E-02 8.73750E-04-8.98401E-14
 -1      4055 1.32598E-02 9.60616E-04-9.61397E-14
 -1      4056 1.31170E-02 9.44476E-04-9.40965E-14
 -1      4057 1.30319E-02 8.99624E-04-9.34027E-14
 -1      4058 1.32442E-02 9.18904E-04-9.65096E-14
 -1      4059 2.05676E-03-1.01876E-04-3.69798E-15
 -1      4060 2.19109E-03-1.00617E-04-4.15728E-15
 -1      4061 1.46281E-03 1.21445E-04-1.70727E-15
 -1      4062 1.45404E-03 9.37411E-05-1.75470E-15
 -1      4063 1.56656E-03 8.33136E-05-2.04630E-15
 -1      4064 1.56925E-03 1.30770E-04-1.92857E-15
 -1      4065 8.27416E-03 1.75291E-04-3.54390E-14
 -1      4066 8.24402E-03 1.42428E-04-3.59181E-14
 -1      4067 8.37223E-03 1.53851E-04-3.73452E-14
 -1      4068 8.33089E-03 1.95913E-04-3.56221E-14
 -1      4069 9.38852E-03 4.83155E-04-4.53777E-14
 -1      4070 9.25920E-03 4.65916E-04-4.38382E-14
 -1      4071 9.44968E-03 4.64015E-04-4.64317E-14
 -1      4072 2.56899E-03 2.03243E-04-4.63385E-15
 -1      4073 2.43650E-03 2.01710E-04-4.16529E-15
 -1      4074 2.34747E-03 1.72525E-04-4.02678E-15
 -1      4075 2.60679E-03 1.75487E-04-4.97642E-15
 -1      4076 9.13158E-03 4.49176E-04-4.23196E-14
 -1      4077 9.00567E-03 4.32795E-04-4.08216E-14
 -1      4078 9.19409E-03 4.30920E-04-4.33457E-14
 -1      4079 1.75571E-03 1.36628E-04-2.37841E-15
 -1      4080 3.02009E-03 1.51176E-04-7.13047E-15
 -1      4081 1.35685E-02 8.69234E-04-1.02464E-13
 -1      4082 1.35841E-02 9.11047E-04-1.02099E-13
 -1      4083 1.33793E-02 8.97243E-04-9.90003E-14
 -1      4084 1.34371E-02 8.34660E-04-1.00853E-13
 -1      4085 1.34892E-02 6.51238E-04-1.04336E-13
 -1      4086 1.35291E-02 6.86156E-04-1.04484E-13
 -1      4087 1.34131E-02 6.93420E-04-1.02510E-13
 -1      4088 1.33689E-02 6.40541E-04-1.02551E-13
 -1      4089 8.64088E-03 3.87251E-04-3.64573E-14
 -1      4090 8.52398E-03 3.73098E-04-3.50457E-14
 -1      4091 2.58968E-03-9.31306E-05-5.69363E-15
 -1      4092 2.72134E-03-8.96647E-05-6.25749E-15
 -1      4093 2.76039E-03-5.64445E-05-6.48842E-15
 -1      4094 1.78456E-03-9.51371E-05-2.85309E-15
 -1      4095 1.91970E-03-9.53401E-05-3.25946E-15
 -1      4096 1.97578E-03-6.75433E-05-3.43676E-15
 -1      4097 1.70599E-03-5.52883E-05-2.62153E-15
 -1      4098 2.32464E-03-9.87234E-05-4.64327E-15
 -1      4099 2.45757E-03-9.61652E-05-5.15525E-15
 -1      4100 2.24282E-03-7.09948E-05-4.35436E-15
 -1      4101 8.88187E-03 4.17074E-04-3.93449E-14
 -1      4102 8.76007E-03 4.01774E-04-3.78899E-14
 -1      4103 8.94643E-03 3.99455E-04-4.03441E-14
 -1      4104 3.39782E-03-7.19872E-05-9.55714E-15
 -1      4105 2.94313E-03 1.22106E-04-7.02702E-15
 -1      4106 2.89794E-03 1.49678E-04-6.49911E-15
 -1      4107 8.33202E-03 2.46971E-04-3.39080E-14
 -1      4108 8.37138E-03 2.33733E-04-3.50149E-14
 -1      4109 8.37837E-03 2.62459E-04-3.41449E-14
 -1      4110 3.01986E-03 8.40996E-05-7.86356E-15
 -1      4111 3.06077E-03 1.00062E-04-8.00078E-15
 -1      4112 3.00432E-03 1.06903E-04-7.55368E-15
 -1      4113 2.77831E-03 1.47637E-04-5.93864E-15
 -1      4114 3.11011E-03-8.21224E-05-8.06939E-15
 -1      4115 3.23924E-03-8.31513E-05-8.69992E-15
 -1      4116 3.00807E-03-4.94713E-05-7.67714E-15
 -1      4117 8.47886E-03 1.90786E-04-3.78594E-14
 -1      4118 8.50321E-03 3.43026E-04-3.48489E-14
 -1      4119 8.43081E-03 3.60372E-04-3.39060E-14
 -1      4120 8.33999E-03 3.47630E-04-3.27808E-14
 -1      4121 1.02502E-02 5.68515E-04-5.62220E-14
 -1      4122 1.01912E-02 5.90971E-04-5.50837E-14
 -1      4123 1.00548E-02 5.72733E-04-5.34110E-14
 -1      4124 1.31486E-02 6.25869E-04-9.92281E-14
 -1      4125 1.32688E-02 6.36539E-04-1.01000E-13
 -1      4126 1.32909E-02 6.62953E-04-1.00979E-13
 -1      4127 1.30909E-02 6.54895E-04-9.78955E-14
 -1      4128 3.27829E-03-3.30438E-05-9.12544E-15
 -1      4129 3.18110E-03-1.55937E-05-8.69365E-15
 -1      4130 3.13620E-03 5.13122E-05-8.70860E-15
 -1      4131 3.05861E-03 5.95578E-05-8.21023E-15
 -1      4132 3.13027E-03 2.80230E-05-8.59263E-15
 -1      4133 8.70876E-03 3.69927E-04-3.74260E-14
 -1      4134 1.68099E-03 4.86674E-05-2.41989E-15
 -1      4135 1.67899E-03 2.10675E-05-2.46610E-15
 -1      4136 1.68824E-03-2.61193E-06-2.52645E-15
 -1      4137 1.69192E-03-3.06781E-05-2.56627E-15
 -1      4138 1.82547E-03-3.63542E-05-2.95541E-15
 -1      4139 1.80194E-03 1.25401E-05-2.82821E-15
 -1      4140 1.33304E-02 7.93855E-04-9.97323E-14
 -1      4141 1.33015E-02 8.25132E-04-9.88102E-14
 -1      4142 1.90289E-03 1.30697E-04-2.80579E-15
 -1      4143 1.71554E-03 1.01765E-04-2.37963E-15
 -1      4144 2.50392E-03-6.49177E-05-5.37003E-15
 -1      4145 9.91931E-03 5.54562E-04-5.17605E-14
 -1      4146 9.78481E-03 5.36421E-04-5.01317E-14
 -1      4147 9.71167E-03 4.98278E-04-4.96067E-14
 -1      4148 9.97885E-03 5.33244E-04-5.28716E-14
 -1      4149 8.31848E-03 3.06839E-04-3.24064E-14
 -1      4150 8.38047E-03 2.99478E-04-3.33808E-14
 -1      4151 1.33285E-02 7.31064E-04-1.00609E-13
 -1      4152 1.31928E-02 7.21670E-04-9.85704E-14
 -1      4153 2.16689E-03 1.34843E-04-3.60644E-15
 -1      4154 2.03551E-03 1.33026E-04-3.19390E-15
 -1      4155 1.99423E-03 9.80465E-05-3.19766E-15
 -1      4156 1.71504E-03 7.78919E-05-2.44348E-15
 -1      4157 1.82643E-03 6.58970E-05-2.78716E-15
 -1      4158 1.95870E-03-4.17052E-05-3.37183E-15
 -1      4159 2.09174E-03-4.66549E-05-3.81589E-15
 -1      4160 1.94435E-03-1.65690E-05-3.30438E-15
 -1      4161 2.92710E-03-2.01680E-05-7.35395E-15
 -1      4162 3.04258E-03-1.66219E-05-7.95391E-15
 -1      4163 1.08601E-02 6.14067E-04-6.43684E-14
 -1      4164 1.07211E-02 5.97047E-04-6.25878E-14
 -1      4165 8.70059E-03 2.38322E-04-3.97731E-14
 -1      4166 8.82213E-03 2.48810E-04-4.12565E-14
 -1      4167 8.94542E-03 2.60006E-04-4.27610E-14
 -1      4168 9.07065E-03 2.71600E-04-4.42880E-14
 -1      4169 8.90776E-03 2.80306E-04-4.17746E-14
 -1      4170 9.19744E-03 2.83710E-04-4.58367E-14
 -1      4171 9.32585E-03 2.96141E-04-4.74061E-14
 -1      4172 9.15476E-03 3.04435E-04-4.48205E-14
 -1      4173 9.45560E-03 3.08974E-04-4.89971E-14
 -1      4174 9.58672E-03 3.22059E-04-5.06071E-14
 -1      4175 9.40926E-03 3.30376E-04-4.79500E-14
 -1      4176 9.71901E-03 3.35459E-04-5.22394E-14
 -1      4177 9.85245E-03 3.49065E-04-5.38943E-14
 -1      4178 9.66992E-03 3.57706E-04-5.11647E-14
 -1      4179 9.98688E-03 3.62922E-04-5.55707E-14
 -1      4180 1.01223E-02 3.76946E-04-5.72671E-14
 -1      4181 9.93569E-03 3.86087E-04-5.44668E-14
 -1      4182 1.02585E-02 3.91172E-04-5.89849E-14
 -1      4183 1.03955E-02 4.05535E-04-6.07256E-14
 -1      4184 1.02057E-02 4.15260E-04-5.78534E-14
 -1      4185 1.05333E-02 4.20064E-04-6.24838E-14
 -1      4186 1.06717E-02 4.34706E-04-6.42612E-14
 -1      4187 1.04792E-02 4.45029E-04-6.13255E-14
 -1      4188 1.08106E-02 4.49482E-04-6.60603E-14
 -1      4189 1.09501E-02 4.64354E-04-6.78757E-14
 -1      4190 1.07556E-02 4.75246E-04-6.48766E-14
 -1      4191 1.10900E-02 4.79336E-04-6.97110E-14
 -1      4192 1.12304E-02 4.94398E-04-7.15633E-14
 -1      4193 1.10343E-02 5.05803E-04-6.85031E-14
 -1      4194 1.13711E-02 5.09549E-04-7.34326E-14
 -1      4195 1.15121E-02 5.24768E-04-7.53206E-14
 -1      4196 1.13148E-02 5.36616E-04-7.22020E-14
 -1      4197 1.16535E-02 5.40059E-04-7.72221E-14
 -1      4198 1.17950E-02 5.55406E-04-7.91405E-14
 -1      4199 1.15967E-02 5.67625E-04-7.59691E-14
 -1      4200 1.19368E-02 5.70812E-04-8.10767E-14
 -1      4201 1.20788E-02 5.86264E-04-8.30294E-14
 -1      4202 1.18798E-02 5.98784E-04-7.98047E-14
 -1      4203 1.22209E-02 6.01763E-04-8.49945E-14
 -1      4204 1.23632E-02 6.17299E-04-8.69743E-14
 -1      4205 1.21636E-02 6.30059E-04-8.37063E-14
 -1      4206 1.25056E-02 6.32873E-04-8.89700E-14
 -1      4207 1.26481E-02 6.48478E-04-9.09792E-14
 -1      4208 1.24481E-02 6.61422E-04-8.76666E-14
 -1      4209 1.27906E-02 6.64111E-04-9.30023E-14
 -1      4210 1.29332E-02 6.79768E-04-9.50362E-14
 -1      4211 1.27330E-02 6.92854E-04-9.16831E-14
 -1      4212 1.14208E-02 6.81472E-04-7.16816E-14
 -1      4213 1.12800E-02 6.64723E-04-6.98251E-14
 -1      4214 1.32873E-02 8.56416E-04-9.81227E-14
 -1      4215 1.32583E-02 8.87646E-04-9.71995E-14
 -1      4216 1.31522E-02 8.78067E-04-9.56400E-14
 -1      4217 1.31805E-02 8.15612E-04-9.70120E-14
 -1      4218 8.33063E-03 3.25863E-04-3.25956E-14
 -1      4219 1.11396E-02 6.47910E-04-6.79875E-14
 -1      4220 1.09996E-02 6.31014E-04-6.61684E-14
 -1      4221 1.11969E-02 6.21999E-04-6.92094E-14
 -1      4222 1.05827E-02 5.80002E-04-6.08255E-14
 -1      4223 1.04450E-02 5.62905E-04-5.90838E-14
 -1      4224 1.06397E-02 5.55875E-04-6.19992E-14
 -1      4225 1.17033E-02 7.14738E-04-7.54482E-14
 -1      4226 1.15619E-02 6.98139E-04-7.35562E-14
 -1      4227 1.14782E-02 6.54854E-04-7.29250E-14
 -1      4228 1.19868E-02 7.47716E-04-7.92872E-14
 -1      4229 1.18449E-02 7.31260E-04-7.73593E-14
 -1      4230 1.17608E-02 6.87529E-04-7.67142E-14
 -1      4231 1.22710E-02 7.80432E-04-8.31917E-14
 -1      4232 1.21288E-02 7.64104E-04-8.12320E-14
 -1      4233 1.20443E-02 7.20025E-04-8.05720E-14
 -1      4234 1.25557E-02 8.12917E-04-8.71555E-14
 -1      4235 1.24133E-02 7.96700E-04-8.51659E-14
 -1      4236 1.23285E-02 7.52355E-04-8.44946E-14
 -1      4237 1.28408E-02 8.45209E-04-9.11719E-14
 -1      4238 1.26982E-02 8.29084E-04-8.91585E-14
 -1      4239 1.26133E-02 7.84536E-04-8.84748E-14
 -1      4240 2.22241E-03-4.44144E-05-4.27883E-15
 -1      4241 2.35186E-03-4.14681E-05-4.76759E-15
 -1      4242 2.20519E-03-1.87085E-05-4.20010E-15
 -1      4243 8.43008E-03 2.27433E-04-3.61182E-14
 -1      4244 8.45383E-03 2.09744E-04-3.69865E-14
 -1      4245 8.57710E-03 2.23691E-04-3.83712E-14
 -1      4246 1.91103E-03 6.97528E-05-3.02864E-15
 -1      4247 1.87827E-03 4.01670E-05-3.00321E-15
 -1      4248 1.88597E-03 1.60470E-05-3.07469E-15
 -1      4249 2.04134E-03 7.18300E-05-3.43538E-15
 -1      4250 8.47806E-03 3.15781E-04-3.46757E-14
 -1      4251 8.42739E-03 2.86049E-04-3.43326E-14
 -1      4252 8.48237E-03 2.76857E-04-3.54551E-14
 -1      4253 8.56578E-03 3.27955E-04-3.58259E-14
 -1      4254 8.78985E-03 3.54459E-04-3.86931E-14
 -1      4255 8.67582E-03 3.40726E-04-3.72492E-14
 -1      4256 8.63658E-03 3.13428E-04-3.70644E-14
 -1      4257 2.47964E-03-3.78845E-05-5.28222E-15
 -1      4258 2.60595E-03-3.35382E-05-5.82305E-15
 -1      4259 2.45938E-03-1.21746E-05-5.19140E-15
 -1      4260 2.70638E-03-3.00877E-05-6.27685E-15
 -1      4261 2.82943E-03-2.46344E-05-6.86318E-15
 -1      4262 2.87333E-03 4.45188E-06-7.12233E-15
 -1      4263 2.68171E-03-4.15599E-06-6.17476E-15
 -1      4264 9.50780E-03 4.44874E-04-4.74899E-14
 -1      4265 9.37921E-03 4.28665E-04-4.59224E-14
 -1      4266 9.02746E-03 3.83027E-04-4.16483E-14
 -1      4267 8.90717E-03 3.68367E-04-4.01596E-14
 -1      4268 8.86345E-03 3.38743E-04-3.99695E-14
 -1      4269 2.89068E-03 1.04525E-04-6.90191E-15
 -1      4270 9.26389E-03 4.13195E-04-4.45311E-14
 -1      4271 9.13897E-03 3.97674E-04-4.30028E-14
 -1      4272 9.09219E-03 3.65970E-04-4.28093E-14
 -1      4273 9.31869E-03 3.94803E-04-4.55662E-14
 -1      4274 2.70256E-03 1.19183E-04-5.81262E-15
 -1      4275 2.65180E-03 1.46782E-04-5.37511E-15
 -1      4276 9.63798E-03 4.61268E-04-4.90808E-14
 -1      4277 9.56337E-03 4.25354E-04-4.85529E-14
 -1      4278 9.76964E-03 4.77954E-04-5.06937E-14
 -1      4279 2.98975E-03 6.47644E-05-7.75964E-15
 -1      4280 2.92247E-03 7.06293E-05-7.32178E-15
 -1      4281 2.96686E-03 4.43418E-05-7.65262E-15
 -1      4282 1.03647E-02 5.22760E-04-5.85099E-14
 -1      4283 1.03080E-02 5.45826E-04-5.73638E-14
 -1      4284 1.01719E-02 5.28732E-04-5.56646E-14
 -1      4285 2.84707E-03 8.43291E-05-6.80949E-15
 -1      4286 2.77466E-03 9.95351E-05-6.31317E-15
 -1      4287 2.81054E-03 6.41844E-05-6.71286E-15
 -1      4288 2.65359E-03 9.77979E-05-5.72976E-15
 -1      4289 1.30928E-02 7.17559E-04-9.70339E-14
 -1      4290 1.30642E-02 7.78230E-04-9.56983E-14
 -1      4291 1.30500E-02 8.09418E-04-9.50164E-14
 -1      4292 2.39989E-03 1.43700E-04-4.38342E-15
 -1      4293 2.35363E-03 1.09180E-04-4.39574E-15
 -1      4294 8.48448E-03 2.46104E-04-3.63679E-14
 -1      4295 8.66702E-03 2.54463E-04-3.88762E-14
 -1      4296 1.30351E-02 7.46430E-04-9.56978E-14
 -1      4297 1.29047E-02 7.40319E-04-9.37109E-14
 -1      4298 1.33130E-02 6.89367E-04-1.00960E-13
 -1      4299 1.09172E-02 5.88988E-04-6.55666E-14
 -1      4300 3.09661E-03 1.26542E-05-8.34379E-15
 -1      4301 1.15376E-02 6.11464E-04-7.44470E-14
 -1      4302 1.13967E-02 5.95517E-04-7.25667E-14
 -1      4303 1.09762E-02 5.47730E-04-6.70334E-14
 -1      4304 1.08369E-02 5.31817E-04-6.52253E-14
 -1      4305 9.12119E-03 3.35986E-04-4.37395E-14
 -1      4306 9.24564E-03 3.49423E-04-4.52779E-14
 -1      4307 9.36083E-03 3.63301E-04-4.66799E-14
 -1      4308 9.48889E-03 3.77552E-04-4.82570E-14
 -1      4309 9.61856E-03 3.92241E-04-4.98573E-14
 -1      4310 9.74970E-03 4.07106E-04-5.14790E-14
 -1      4311 1.01505E-02 4.53071E-04-5.64773E-14
 -1      4312 1.02862E-02 4.68645E-04-5.81860E-14
 -1      4313 1.04228E-02 4.84361E-04-5.99160E-14
 -1      4314 1.05601E-02 5.00114E-04-6.16657E-14
 -1      4315 1.06982E-02 5.15959E-04-6.34371E-14
 -1      4316 1.11159E-02 5.63642E-04-6.88599E-14
 -1      4317 1.12561E-02 5.79584E-04-7.07038E-14
 -1      4318 1.16789E-02 6.27399E-04-7.63444E-14
 -1      4319 1.18204E-02 6.43337E-04-7.82598E-14
 -1      4320 1.19621E-02 6.59262E-04-8.01916E-14
 -1      4321 1.21040E-02 6.75185E-04-8.21401E-14
 -1      4322 1.22461E-02 6.91094E-04-8.41040E-14
 -1      4323 1.23883E-02 7.06999E-04-8.60802E-14
 -1      4324 1.25307E-02 7.22893E-04-8.80737E-14
 -1      4325 1.26732E-02 7.38780E-04-9.00792E-14
 -1      4326 1.28157E-02 7.54659E-04-9.20959E-14
 -1      4327 2.46620E-03 8.94452E-05-4.94309E-15
 -1      4328 2.24254E-03 8.00491E-05-4.10747E-15
 -1      4329 8.88965E-03 3.10563E-04-4.08749E-14
 -1      4330 9.00962E-03 3.22956E-04-4.23735E-14
 -1      4331 8.53394E-03 2.64163E-04-3.66127E-14
 -1      4332 8.59927E-03 2.59499E-04-3.77382E-14
 -1      4333 8.71664E-03 2.73659E-04-3.91289E-14
 -1      4334 2.52689E-03 1.45313E-04-4.86656E-15
 -1      4335 1.30461E-02 8.68465E-04-9.40894E-14
 -1      4336 1.29610E-02 8.23738E-04-9.33931E-14
 -1      4337 2.13539E-03 5.62295E-06-3.91753E-15
 -1      4338 2.26310E-03 8.38726E-06-4.38248E-15
 -1      4339 2.01598E-03 1.17379E-05-3.49732E-15
 -1      4340 2.34210E-03 2.32101E-05-4.66330E-15
 -1      4341 2.46608E-03 2.66307E-05-5.16815E-15
 -1      4342 3.00496E-03 2.41639E-05-7.85851E-15
 -1      4343 1.00367E-02 5.11721E-04-5.39853E-14
 -1      4344 9.90258E-03 4.94750E-04-5.23288E-14
 -1      4345 1.00932E-02 4.89800E-04-5.51052E-14
 -1      4346 8.58991E-03 2.90442E-04-3.68106E-14
 -1      4347 2.54956E-03 6.95180E-05-5.39929E-15
 -1      4348 2.92591E-03 3.09213E-05-7.41961E-15
 -1      4349 8.70010E-03 3.01816E-04-3.82481E-14
 -1      4350 9.82571E-03 4.57228E-04-5.17843E-14
 -1      4351 9.88214E-03 4.22278E-04-5.31234E-14
 -1      4352 1.00158E-02 4.37568E-04-5.47912E-14
 -1      4353 2.08025E-03 3.78303E-05-3.66050E-15
 -1      4354 8.77258E-03 2.98450E-04-3.93979E-14
 -1      4355 2.83498E-03 2.57127E-05-6.92938E-15
 -1      4356 2.15770E-03 6.58350E-05-3.85106E-15
 -1      4357 2.65071E-03 3.70288E-05-5.98089E-15
 -1      4358 2.74163E-03 2.14634E-05-6.45507E-15
 -1      4359 1.28447E-02 7.86365E-04-9.20944E-14
 -1      4360 2.27917E-03 4.63840E-05-4.35825E-15
 -3
    1PSTEP                         2           1           1          
  100CL  101 1.000000000        4360                     0    1           1
 -4  STRESS      6    1
 -5  SXX         1    4    1    1
 -5  SYY         1    4    2    2
 -5  SZZ         1    4    3    3
 -5  SXY         1    4    1    2
 -5  SYZ         1    4    2    3
 -5  SZX         1    4    3    1
 -1         1 5.88244E+01 3.37392E+00 3.16635E+00-1.24117E+01-4.95687E-13 2.26885E-12
 -1         2-6.63748E-01-2.45196E+01-3.34275E+00-1.21858E-01 1.07638E-12-1.78989E-14
 -1         3 2.00000E+01 2.48782E-04-9.84392E-05 2.40915E-04-3.51325E-13-4.30535E-13
 -1         4 2.00000E+01 2.08618E-04-1.23263E-04-2.05901E-04 2.60354E-13 2.70345E-14
 -1         5 3.24140E+01 6.08290E+00 2.65159E+00 6.12503E+00-4.71498E-14 3.19463E-12
 -1         6 3.53204E+01 1.20905E+01 4.98090E+00-8.49658E+00-1.96010E-13 1.95603E-12
 -1         7 2.09622E+01 6.13373E+00-9.84177E-02-4.55686E+00-2.87964E-14-7.59115E-14
 -1         8 1.98607E+01 5.98702E+00 6.56505E-02-3.04088E+00-2.05738E-14-5.81584E-13
 -1         9 1.93028E+01 5.81879E+00 5.65150E-02-2.25154E+00-1.35655E-14-8.13670E-13
 -1        10 1.89916E+01 5.71901E+00 5.22601E-02-1.66564E+00-6.20858E-15-8.88603E-13
 -1        11 1.87808E+01 5.65207E+00 4.59378E-02-1.19147E+00 3.40873E-16-8.83762E-13
 -1        12 1.86323E+01 5.60511E+00 3.98336E-02-7.99171E-01 6.37945E-15-8.53641E-13
 -1        13 1.85308E+01 5.57340E+00 3.50927E-02-4.52154E-01 6.50651E-15-8.02685E-13
 -1        14 1.84786E+01 5.55720E+00 3.24310E-02-1.36827E-01 1.59640E-14-7.46834E-13
 -1        15 1.84776E+01 5.55686E+00 3.21895E-02 1.66987E-01 1.61094E-14-6.87359E-13
 -1        16 1.85286E+01 5.57266E+00 3.44794E-02 4.79876E-01 2.02702E-14-6.15574E-13
 -1        17 1.86315E+01 5.60455E+00 3.91552E-02 8.23391E-01 2.60304E-14-5.21802E-13
 -1        18 1.87838E+01 5.65254E+00 4.54921E-02 1.21280E+00 2.61874E-14-3.85973E-13
 -1        19 1.90001E+01 5.72127E+00 5.21526E-02 1.68802E+00 3.82090E-14-1.78439E-13
 -1        20 1.93157E+01 5.82323E+00 5.65500E-02 2.27973E+00 4.31426E-14 1.32727E-13
 -1        21 1.98647E+01 6.00311E+00 6.17339E-02 3.06737E+00 4.43257E-14 6.41542E-13
 -1        22 2.13111E+01 6.40280E+00 1.55762E-01 4.35227E+00-2.77556E-17 1.53967E-12
 -1        23 2.30407E+01-1.38565E+00-9.44372E-01-6.65159E-01-1.37678E-13 1.29236E-12
 -1        24 1.96555E+01-9.96723E-02-3.05048E-01 6.87789E-02-3.31532E-14 7.57579E-13
 -1        25 1.91916E+01-5.76358E-02-6.82257E-02 6.30413E-02-1.33589E-14 2.62420E-13
 -1        26 1.92258E+01-2.47249E-02-9.41096E-03 3.59366E-02-1.61232E-14-8.30239E-14
 -1        27 1.95147E+01-1.51909E-02-3.24509E-03 2.71531E-02-8.89133E-15-3.12809E-13
 -1        28 1.99630E+01-9.80003E-03-3.87670E-03 2.31415E-02-4.58655E-15-4.73275E-13
 -1        29 2.05199E+01-6.03464E-03-3.66848E-03 2.17462E-02 7.22485E-15-6.25639E-13
 -1        30 2.11473E+01-2.46816E-03-1.62186E-03 2.16367E-02-6.23210E-15-7.41958E-13
 -1        31 2.18026E+01 1.78797E-03 2.80752E-03 2.16167E-02-1.23884E-14-8.99169E-13
 -1        32 2.24243E+01 7.24320E-03 1.03776E-02 2.01105E-02-2.07489E-14-1.07104E-12
 -1        33 2.29225E+01 1.38359E-02 2.14229E-02 1.49070E-02 4.76676E-14-1.04913E-12
 -1        34 2.31762E+01 2.05292E-02 3.46723E-02 3.36964E-03-3.57796E-14-1.10023E-12
 -1        35 2.30491E+01 2.49484E-02 4.58510E-02-1.64082E-02-3.81986E-15-1.34706E-12
 -1        36 2.24342E+01 2.36388E-02 4.72695E-02-4.31527E-02 3.47500E-14-1.26231E-12
 -1        37 2.13303E+01 1.36281E-02 3.05840E-02-6.95021E-02-4.49261E-14-1.18998E-12
 -1        38 1.99211E+01-4.69008E-03-5.98676E-03-8.19294E-02-8.97462E-15-1.40322E-12
 -1        39 1.85881E+01-2.55469E-02-5.11411E-02-6.73445E-02-9.15110E-15-1.55293E-12
 -1        40 1.77920E+01-3.94270E-02-8.22916E-02-2.48604E-02 3.95916E-14-1.50555E-12
 -1        41 1.78478E+01-3.89189E-02-8.10603E-02 2.90863E-02 3.75559E-14-1.57735E-12
 -1        42 1.87439E+01-2.44066E-02-4.83476E-02 7.00197E-02-3.11454E-14-1.53262E-12
 -1        43 2.01494E+01-3.60849E-03-3.40237E-03 8.24592E-02 2.26798E-14-1.27480E-12
 -1        44 2.16053E+01 1.40475E-02 3.16367E-02 6.87703E-02-3.63304E-14-1.23281E-12
 -1        45 2.27463E+01 2.31952E-02 4.63498E-02 4.24758E-02-2.45975E-14-1.50582E-12
 -1        46 2.34076E+01 2.38804E-02 4.36254E-02 1.67438E-02 2.92756E-14-1.52795E-12
 -1        47 2.36035E+01 1.92002E-02 3.18976E-02-1.59268E-03 6.25889E-14-1.07510E-12
 -1        48 2.34467E+01 1.25958E-02 1.85887E-02-1.15527E-02-5.77457E-15-8.59720E-13
 -1        49 2.30734E+01 6.40050E-03 7.72925E-03-1.50975E-02 6.48505E-14-9.79879E-13
 -1        50 2.26007E+01 1.66354E-03 4.55104E-04-1.47699E-02-6.93989E-14-1.13977E-12
 -1        51 2.21113E+01-1.44454E-03-3.64398E-03-1.25947E-02 8.39486E-15-1.14745E-12
 -1        52 2.16553E+01-3.17945E-03-5.47051E-03-9.85293E-03 9.19625E-14-1.04953E-12
 -1        53 2.12580E+01-3.91977E-03-5.88382E-03-7.22357E-03-7.39954E-14-1.07772E-12
 -1        54 2.09277E+01-4.01638E-03-5.52330E-03-4.99716E-03 5.47390E-14-1.11911E-12
 -1        55 2.06631E+01-3.74057E-03-4.80568E-03-3.24799E-03-8.16961E-14-1.06025E-12
 -1        56 2.04577E+01-3.28090E-03-3.97810E-03-1.94582E-03 1.50135E-14-7.31894E-13
 -1        57 2.03025E+01-2.75828E-03-3.17450E-03-1.01951E-03-1.93870E-14-8.83841E-13
 -1        58 2.01886E+01-2.24435E-03-2.45910E-03-3.89504E-04 7.48582E-14-9.19465E-13
 -1        59 2.01074E+01-1.77740E-03-1.85567E-03 1.73795E-05-9.37804E-15-5.66075E-13
 -1        60 2.00516E+01-1.37437E-03-1.36586E-03 2.62560E-04-2.50679E-14-7.55929E-13
 -1        61 2.00148E+01-1.03922E-03-9.80227E-04 3.94871E-04 5.24118E-14-8.52924E-13
 -1        62 1.99922E+01-7.68550E-04-6.84544E-04 4.51716E-04-1.51425E-13-1.23502E-12
 -1        63 1.99796E+01-5.55110E-04-4.63333E-04 4.60908E-04-1.01452E-13-1.28208E-12
 -1        64 1.99743E+01-3.90021E-04-3.01633E-04 4.42573E-04-1.53499E-14-1.27740E-12
 -1        65 1.99737E+01-2.63980E-04-1.85690E-04 4.10814E-04-4.22469E-14-1.08454E-12
 -1        66 1.99763E+01-1.67874E-04-1.02852E-04 3.75006E-04 1.36271E-13-7.21463E-13
 -1        67 1.99808E+01-9.29385E-05-4.04740E-05 3.40560E-04 8.59584E-14 2.07176E-13
 -1        68 1.99862E+01-3.06996E-05 1.64012E-05 3.08581E-04-9.05856E-14 1.93552E-13
 -1        69 1.99917E+01 2.56854E-05 8.62360E-05 2.71843E-04-1.07562E-14-1.86732E-13
 -1        70 1.99966E+01 6.46941E-05 1.67033E-04 1.92095E-04 9.22729E-15 2.35193E-13
 -1        71 1.99995E+01-1.41840E-05 1.54212E-04 4.66300E-05-7.54238E-14 1.20394E-13
 -1        72 2.10755E+01-4.03040E-01-9.81871E-01-3.21955E-01 1.11265E-14 3.13591E-12
 -1        73 1.96286E+01-6.65085E-02-2.86727E-01-5.59774E-02 1.94979E-14 2.69214E-12
 -1        74 1.92190E+01-2.26460E-02-6.46233E-02-2.00844E-02 5.62430E-15 2.31799E-12
 -1        75 1.92752E+01-1.31228E-02-1.36621E-02-1.44932E-02 6.46304E-15 2.09325E-12
 -1        76 1.96048E+01-9.28482E-03-6.55033E-03-1.18714E-02 7.19412E-15 1.87810E-12
 -1        77 2.01233E+01-7.30519E-03-7.75209E-03-1.11271E-02-1.87596E-14 1.75988E-12
 -1        78 2.07966E+01-5.84625E-03-9.28578E-03-1.22291E-02 1.27245E-14 1.71045E-12
 -1        79 2.16083E+01-3.98169E-03-9.54433E-03-1.53820E-02 1.52168E-14 1.53325E-12
 -1        80 2.25400E+01-8.07283E-04-7.20111E-03-2.08960E-02-4.18748E-14 1.50330E-12
 -1        81 2.35509E+01 4.57027E-03 9.98908E-05-2.86659E-02 1.46220E-14 1.42341E-12
 -1        82 2.45522E+01 1.26349E-02 1.55232E-02-3.71492E-02 1.35622E-14 1.32237E-12
 -1        83 2.53779E+01 2.24679E-02 4.12048E-02-4.17452E-02 9.72725E-15 1.25621E-12
 -1        84 2.57697E+01 3.03237E-02 7.37367E-02-3.34120E-02 2.03104E-14 1.35959E-12
 -1        85 2.54124E+01 2.92287E-02 9.79282E-02-5.89333E-04-2.91763E-14 1.43999E-12
 -1        86 2.40772E+01 1.26710E-02 8.61896E-02 6.07178E-02 1.52829E-14 1.35600E-12
 -1        87 2.18776E+01-1.64869E-02 1.69896E-02 1.29980E-01-5.32958E-14 1.25692E-12
 -1        88 1.94809E+01-4.27910E-02-9.15627E-02 1.58862E-01 2.14535E-14 1.31557E-12
 -1        89 1.79499E+01-4.76831E-02-1.73708E-01 1.06897E-01 5.96914E-14 8.78618E-13
 -1        90 1.81075E+01-2.97159E-02-1.65577E-01-7.27258E-03-7.14910E-14 6.68143E-13
 -1        91 1.98809E+01-1.82633E-03-7.10569E-02-1.08334E-01 3.24103E-14 6.89719E-13
 -1        92 2.23734E+01 1.92939E-02 3.44101E-02-1.43718E-01-1.19465E-14 7.25454E-13
 -1        93 2.45462E+01 2.76981E-02 9.24285E-02-1.15398E-01-1.40992E-14 6.23925E-13
 -1        94 2.58123E+01 2.52479E-02 9.47286E-02-6.31497E-02 7.51005E-15 2.18433E-13
 -1        95 2.61307E+01 1.73597E-02 6.70622E-02-1.82574E-02-1.11936E-14 2.16856E-13
 -1        96 2.57600E+01 8.88497E-03 3.45852E-02 9.16210E-03 1.19154E-14 7.87418E-13
 -1        97 2.50139E+01 2.33745E-03 1.01709E-02 2.12346E-02-1.30130E-14 1.22301E-12
 -1        98 2.41385E+01-1.76728E-03-3.97569E-03 2.37152E-02 2.82952E-14 1.14846E-12
 -1        99 2.32852E+01-3.85195E-03-1.03034E-02 2.15219E-02-1.18087E-14 6.11544E-13
 -1       100 2.25297E+01-4.58003E-03-1.19520E-02 1.76738E-02 4.77206E-15 7.31607E-13
 -1       101 2.18985E+01-4.52251E-03-1.12737E-02 1.36919E-02 5.73693E-14 4.46874E-13
 -1       102 2.13915E+01-4.07411E-03-9.67346E-03 1.02037E-02 2.31647E-14 5.06526E-14
 -1       103 2.09957E+01-3.47538E-03-7.87488E-03 7.38265E-03-2.10764E-14 2.44255E-13
 -1       104 2.06939E+01-2.85897E-03-6.20189E-03 5.20310E-03 2.78372E-15 3.12676E-13
 -1       105 2.04685E+01-2.29047E-03-4.77124E-03 3.56846E-03 4.97190E-14 2.19252E-13
 -1       106 2.03035E+01-1.79683E-03-3.60243E-03 2.36945E-03-1.34833E-13 3.54456E-13
 -1       107 2.01854E+01-1.38428E-03-2.67424E-03 1.50688E-03 4.49933E-14 9.48760E-14
 -1       108 2.01030E+01-1.04869E-03-1.95185E-03 8.98441E-04 3.53769E-14-4.77290E-13
 -1       109 2.00473E+01-7.81379E-04-1.39885E-03 4.78688E-04-3.30097E-14-1.19019E-13
 -1       110 2.00113E+01-5.72209E-04-9.82000E-04 1.96817E-04-1.44301E-14-4.60213E-13
 -1       111 1.99895E+01-4.11085E-04-6.72715E-04 1.38981E-05 7.86638E-14-1.76218E-13
 -1       112 1.99777E+01-2.88671E-04-4.47087E-04-9.96643E-05-1.44715E-13-1.22936E-13
 -1       113 1.99730E+01-1.96620E-04-2.85372E-04-1.66242E-04 6.55878E-14 1.22024E-13
 -1       114 1.99729E+01-1.27574E-04-1.71251E-04-2.02673E-04-1.48053E-13 1.77763E-13
 -1       115 1.99758E+01-7.49422E-05-9.07435E-05-2.21663E-04 4.71127E-14-4.89423E-14
 -1       116 1.99806E+01-3.26651E-05-3.02200E-05-2.32736E-04 1.01990E-14-5.73902E-13
 -1       117 1.99862E+01 4.89467E-06 2.64537E-05-2.42131E-04 1.42781E-13-1.45785E-12
 -1       118 1.99918E+01 4.13157E-05 9.81195E-05-2.50499E-04-3.94021E-14-1.25220E-12
 -1       119 1.99967E+01 7.54070E-05 1.87956E-04-2.37161E-04-1.79377E-14-8.10873E-13
 -1       120 1.99995E+01-4.90359E-05 1.23525E-04-1.01312E-04 1.87659E-13-7.16363E-13
 -1       121 1.99998E+01-4.35166E-04 1.05540E-04-7.11740E-05-8.29201E-13-4.75385E-14
 -1       122 1.99999E+01-3.23429E-03 1.30749E-04-1.95677E-04-8.77644E-13-5.51282E-14
 -1       123 1.99998E+01-7.54266E-03 1.67664E-05-2.18504E-04-2.69083E-13 2.99769E-13
 -1       124 1.99998E+01-1.20056E-02-5.75093E-05-1.86280E-04-9.19269E-14 1.38447E-13
 -1       125 1.99998E+01-1.58948E-02-8.86261E-05-1.37728E-04-2.24510E-13-3.31263E-13
 -1       126 1.99997E+01-1.88390E-02-9.68715E-05-9.24706E-05-1.03751E-12-8.53639E-15
 -1       127 1.99997E+01-2.08169E-02-9.36904E-05-5.09584E-05-4.63876E-13 3.41943E-13
 -1       128 1.99997E+01-2.17713E-02-8.97154E-05-1.50141E-05-7.04603E-13-1.07891E-13
 -1       129 1.99997E+01-2.17269E-02-8.89798E-05 1.84861E-05-7.79489E-13 2.98731E-13
 -1       130 1.99997E+01-2.06916E-02-9.16936E-05 5.36127E-05 5.24610E-13-5.84529E-14
 -1       131 1.99997E+01-1.86559E-02-9.32095E-05 9.52375E-05-1.25815E-13-3.44003E-14
 -1       132 1.99998E+01-1.56877E-02-8.60581E-05 1.38117E-04-7.09185E-13 1.21829E-13
 -1       133 1.99998E+01-1.18050E-02-5.48651E-05 1.84700E-04-1.07528E-12-3.98734E-14
 -1       134 1.99998E+01-7.37529E-03 2.34841E-05 2.27004E-04-1.26587E-12-1.87202E-13
 -1       135 1.99999E+01-3.21710E-03 1.08487E-04 2.68889E-04-8.22871E-13 2.21384E-13
 -1       136 1.99999E+01-5.13512E-04 9.48657E-05 3.62295E-05-2.98186E-13-1.63057E-14
 -1       137-1.59337E+00-2.01578E+01-3.10833E+00-3.91347E+00 2.10215E-12 5.17489E-13
 -1       138-1.33914E+00-8.20328E+00-2.26584E+00-2.60361E+00 3.09902E-12 1.34462E-12
 -1       139 3.26836E+00 3.51123E+00-1.09761E+00 3.72193E+00 2.90501E-12 2.26974E-12
 -1       140 1.58889E+01 1.02987E+01 3.37349E-01 1.27047E+01 2.42578E-12 2.86310E-12
 -1       141 3.43150E+01 1.00521E+01 1.76224E+00 1.81628E+01 1.23240E-12 2.20890E-12
 -1       142 5.48302E+01 5.11529E+00 3.03493E+00 1.55484E+01 3.30500E-13 1.02757E-12
 -1       143 6.63721E+01 1.19303E+00 3.67596E+00 4.78990E+00 5.98167E-14-9.71292E-13
 -1       144 6.42887E+01 2.08041E+00 3.58757E+00-8.55947E+00 3.82326E-13-2.41801E-12
 -1       145 4.83320E+01 7.11279E+00 2.68451E+00-1.74827E+01 1.21683E-12-3.16225E-12
 -1       146 2.73739E+01 1.08550E+01 1.28702E+00-1.68976E+01 1.91819E-12-2.99294E-12
 -1       147 1.02427E+01 8.45743E+00-2.07990E-01-9.34674E+00 2.26252E-12-2.16993E-12
 -1       148 4.32873E-01-8.71307E-01-1.61662E+00-4.07337E-01 2.20307E-12-1.37124E-12
 -1       149-1.86445E+00-1.31788E+01-2.67462E+00 4.14330E+00 1.52378E-12-6.11844E-13
 -1       150-1.08522E+00-2.27948E+01-3.28673E+00 3.04012E+00-2.49800E-14-8.07444E-14
 -1       151-8.95352E-01-2.41262E+01-3.33555E+00-1.60040E+00-1.47207E-12-2.92474E-14
 -1       152-1.58871E+00-1.61721E+01-2.81016E+00-3.88499E+00-2.68363E-12-8.77756E-13
 -1       153-7.17340E-01-4.22710E+00-1.87772E+00-1.32644E+00-3.35559E-12-1.88258E-12
 -1       154 6.70008E+00 6.74245E+00-5.44364E-01 6.89339E+00-3.31785E-12-2.84434E-12
 -1       155 2.17211E+01 1.10848E+01 9.11091E-01 1.52601E+01-2.22078E-12-2.82602E-12
 -1       156 4.23143E+01 8.44235E+00 2.26472E+00 1.79066E+01-1.00597E-12-2.11520E-12
 -1       157 5.94931E+01 3.30499E+00 3.19846E+00 1.20977E+01-1.48208E-13-5.98827E-13
 -1       158 6.59307E+01 8.02617E-01 3.52578E+00-5.20294E-01-6.44589E-14 1.03977E-12
 -1       159 4.36223E+01 8.07714E+00 2.33739E+00-1.80418E+01-1.30504E-12 2.86426E-12
 -1       160 2.56782E+01 1.10889E+01 1.19427E+00-1.65821E+01-1.94450E-12 2.97262E-12
 -1       161 1.08246E+01 9.23528E+00-5.41691E-02-9.97919E+00-2.52287E-12 2.39575E-12
 -1       162 1.47925E+00 1.37047E+00-1.31287E+00-1.81004E+00-2.60292E-12 1.84064E-12
 -1       163-1.58689E+00-1.02719E+01-2.36490E+00 3.30583E+00-1.93107E-12 8.45379E-13
 -1       164-1.26271E+00-2.05472E+01-3.07431E+00 3.53591E+00-5.26607E-13 2.25413E-13
 -1       165 2.12365E+01 3.65939E+00-5.42052E-02-3.36872E+00-3.54015E-13-2.86982E-13
 -1       166 2.02055E+01 4.21142E+00-4.38111E-02-2.53326E+00-2.55553E-13-5.83603E-13
 -1       167 1.96499E+01 4.51211E+00-3.01170E-02-1.90508E+00-1.57502E-13-7.15322E-13
 -1       168 1.92994E+01 4.67892E+00-2.23192E-02-1.39500E+00-7.23206E-14-7.52023E-13
 -1       169 1.90572E+01 4.78353E+00-1.80599E-02-9.76751E-01 1.20325E-15-7.34289E-13
 -1       170 1.88848E+01 4.85273E+00-1.56465E-02-6.11708E-01 6.81674E-14-6.95181E-13
 -1       171 1.87798E+01 4.89325E+00-1.43838E-02-2.87239E-01 1.33837E-13-6.46060E-13
 -1       172 1.87429E+01 4.90809E+00-1.39807E-02 1.61450E-02 1.89376E-13-5.96335E-13
 -1       173 1.87757E+01 4.89746E+00-1.43637E-02 3.17955E-01 2.46193E-13-5.32835E-13
 -1       174 1.88793E+01 4.85940E+00-1.56154E-02 6.38328E-01 2.96945E-13-4.57499E-13
 -1       175 1.90515E+01 4.79086E+00-1.80831E-02 9.91907E-01 3.48117E-13-3.53267E-13
 -1       176 1.93053E+01 4.67975E+00-2.26524E-02 1.41368E+00 4.01099E-13-1.94969E-13
 -1       177 1.96668E+01 4.50279E+00-3.14042E-02 1.92618E+00 4.41454E-13 2.40450E-14
 -1       178 2.02367E+01 4.19037E+00-4.48395E-02 2.56084E+00 4.36244E-13 3.76980E-13
 -1       179 2.13590E+01 3.43444E+00-5.65304E-02 3.29265E+00 3.38167E-13 9.62799E-13
 -1       180 2.25738E+01 1.11530E+00-3.30948E-01 2.83553E+00 1.92588E-13 1.66732E-12
 -1       181 2.22015E+01 8.40612E-01 1.21587E-03-1.77990E+00-3.27148E-13 1.64646E-13
 -1       182 2.08339E+01 1.90060E-01-8.82148E-03-5.87332E-01-2.68797E-13 4.20948E-14
 -1       183 2.02402E+01 1.10912E-01 1.43425E-02-9.46569E-02-2.05887E-13-6.05219E-14
 -1       184 2.01100E+01 6.23417E-02 1.06153E-02 1.55319E-01-1.45143E-13-1.84617E-13
 -1       185 2.02267E+01 4.10029E-02 5.73201E-03 3.05775E-01-1.15179E-13-2.64671E-13
 -1       186 2.05009E+01 2.81009E-02 2.83255E-03 4.05364E-01-8.40145E-14-3.08241E-13
 -1       187 2.08761E+01 1.63879E-02 1.12893E-03 4.68974E-01-7.18243E-14-3.37435E-13
 -1       188 2.13089E+01 1.29965E-03-1.74898E-04 4.95626E-01-6.16496E-14-3.31427E-13
 -1       189 2.17548E+01-2.07827E-02-1.41074E-03 4.73620E-01-7.55518E-14-3.02621E-13
 -1       190 2.21603E+01-5.21155E-02-2.57017E-03 3.83894E-01-5.01201E-14-3.70598E-13
 -1       191 2.24589E+01-9.15218E-02-3.40792E-03 2.06131E-01-3.10242E-14-4.74680E-13
 -1       192 2.25746E+01-1.30918E-01-3.54322E-03-6.86872E-02-8.33175E-14-4.15295E-13
 -1       193 2.24377E+01-1.52272E-01-2.68102E-03-4.18094E-01-3.25651E-15-4.40921E-13
 -1       194 2.20156E+01-1.29934E-01-9.18832E-04-7.66946E-01-4.56597E-14-4.67596E-13
 -1       195 2.13542E+01-4.50467E-02 1.04837E-03-9.85573E-01-1.31297E-13-4.99343E-13
 -1       196 2.06082E+01 9.00903E-02 2.54224E-03-9.34889E-01-6.56432E-14-5.51911E-13
 -1       197 2.00186E+01 2.19157E-01 2.98045E-03-5.58216E-01-1.76695E-14-6.52273E-13
 -1       198 1.98157E+01 2.70476E-01 3.00174E-03 4.18018E-02 5.64392E-15-7.39889E-13
 -1       199 2.00911E+01 2.12494E-01 2.94893E-03 6.33791E-01-3.27494E-14-7.19099E-13
 -1       200 2.07417E+01 8.10603E-02 2.54674E-03 9.91054E-01 7.37418E-14-7.78625E-13
 -1       201 2.15337E+01-5.06664E-02 1.18436E-03 1.02393E+00 1.31952E-14-9.04928E-13
 -1       202 2.22320E+01-1.29724E-01-9.35695E-04 7.98952E-01-1.02557E-13-7.66538E-13
 -1       203 2.26923E+01-1.47158E-01-2.68776E-03 4.56921E-01 8.54399E-14-5.82802E-13
 -1       204 2.28768E+01-1.23173E-01-3.46473E-03 1.23323E-01 1.51048E-13-5.02375E-13
 -1       205 2.28223E+01-8.31507E-02-3.28249E-03-1.32011E-01 1.34576E-13-4.95770E-13
 -1       206 2.25984E+01-4.45161E-02-2.49107E-03-2.90936E-01-4.31456E-14-3.77095E-13
 -1       207 2.22774E+01-1.49848E-02-1.49653E-03-3.65740E-01-5.10300E-14-4.07990E-13
 -1       208 2.19186E+01 4.22207E-03-5.88067E-04-3.79791E-01-7.61668E-15-4.06246E-13
 -1       209 2.15635E+01 1.48638E-02 9.72536E-05-3.56125E-01 5.05579E-14-2.76697E-13
 -1       210 2.12377E+01 1.94520E-02 5.35307E-04-3.12818E-01-1.17319E-14-2.93272E-13
 -1       211 2.09541E+01 2.02294E-02 7.63165E-04-2.62253E-01-1.60513E-14-2.31607E-13
 -1       212 2.07168E+01 1.88661E-02 8.38137E-04-2.12035E-01 3.70618E-15-3.90133E-13
 -1       213 2.05245E+01 1.64806E-02 8.14974E-04-1.66305E-01 2.31163E-13-3.01312E-13
 -1       214 2.03730E+01 1.37637E-02 7.36816E-04-1.26911E-01-7.04409E-14-2.09738E-13
 -1       215 2.02566E+01 1.11095E-02 6.33891E-04-9.43029E-02-7.41761E-14-3.66516E-13
 -1       216 2.01693E+01 8.71930E-03 5.25512E-04-6.81414E-02 9.63779E-14-5.59773E-13
 -1       217 2.01057E+01 6.67622E-03 4.22907E-04-4.76980E-02-6.96376E-14-6.72572E-13
 -1       218 2.00605E+01 4.99439E-03 3.31779E-04-3.20974E-02-5.33585E-14-4.40475E-13
 -1       219 2.00297E+01 3.65064E-03 2.54297E-04-2.04591E-02-2.18205E-13-4.88140E-13
 -1       220 2.00096E+01 2.60379E-03 1.90492E-04-1.19737E-02-1.05230E-13-4.60801E-13
 -1       221 1.99974E+01 1.80599E-03 1.39188E-04-5.93873E-03-3.40238E-14-4.36544E-13
 -1       222 1.99909E+01 1.20890E-03 9.85916E-05-1.77097E-03 2.98143E-13-5.43182E-13
 -1       223 1.99883E+01 7.66473E-04 6.66660E-05 9.93814E-04 2.37893E-13-8.69102E-14
 -1       224 1.99884E+01 4.35381E-04 4.14382E-05 2.70617E-03 3.91100E-13-1.73603E-13
 -1       225 1.99902E+01 1.73228E-04 2.14324E-05 3.60817E-03 1.03358E-13-2.07296E-13
 -1       226 1.99927E+01-6.65747E-05 6.91264E-06 3.83426E-03-4.19059E-14-1.86801E-13
 -1       227 1.99955E+01-3.43190E-04-1.03157E-06 3.40662E-03 1.74620E-13 4.90543E-14
 -1       228 1.99979E+01-7.01648E-04 2.20575E-06 2.28530E-03 4.02193E-15 1.79619E-13
 -1       229 2.12644E+01 2.72342E-01-4.88627E-02 1.00532E+00 2.45342E-13 1.46923E-12
 -1       230 2.03590E+01 1.31424E-01 9.33844E-03 2.80049E-01 1.85919E-13 1.25532E-12
 -1       231 2.00738E+01 6.98274E-02 1.32300E-02-4.02756E-02 1.49848E-13 1.06857E-12
 -1       232 2.01334E+01 4.54738E-02 8.02793E-03-2.25777E-01 1.09027E-13 9.54036E-13
 -1       233 2.04174E+01 3.58712E-02 4.15972E-03-3.57063E-01 4.91803E-14 8.71852E-13
 -1       234 2.08650E+01 3.16210E-02 2.03460E-03-4.63975E-01 6.12910E-14 8.27355E-13
 -1       235 2.14413E+01 2.80328E-02 7.06059E-04-5.56032E-01 6.44667E-14 8.00495E-13
 -1       236 2.21176E+01 2.08908E-02-3.80303E-04-6.29206E-01 2.53451E-14 7.57220E-13
 -1       237 2.28555E+01 4.96195E-03-1.27450E-03-6.65494E-01 8.13817E-14 6.35010E-13
 -1       238 2.35916E+01-2.60801E-02-1.57344E-03-6.30465E-01 2.62891E-14 6.35209E-13
 -1       239 2.42234E+01-7.72589E-02-5.39260E-04-4.74286E-01 1.71213E-14 6.06420E-13
 -1       240 2.46052E+01-1.45180E-01 2.37762E-03-1.45984E-01-3.79930E-14 5.62681E-13
 -1       241 2.45683E+01-2.05836E-01 6.27848E-03 3.65840E-01-3.21210E-14 6.02165E-13
 -1       242 2.39895E+01-2.06681E-01 7.62370E-03 9.64302E-01 2.70083E-14 6.93121E-13
 -1       243 2.29123E+01-8.94883E-02 1.57317E-03 1.39339E+00-9.35580E-15 8.30697E-13
 -1       244 2.16651E+01 1.36783E-01-1.10046E-02 1.31907E+00 2.63808E-14 6.92561E-13
 -1       245 2.08066E+01 3.46692E-01-2.26055E-02 6.04761E-01 2.56723E-13 6.15123E-13
 -1       246 2.08173E+01 3.72084E-01-2.28097E-02-4.55879E-01 1.55537E-13 3.66695E-13
 -1       247 2.17107E+01 1.95456E-01-7.13160E-03-1.26837E+00 1.52361E-14 1.79134E-13
 -1       248 2.30168E+01-3.91542E-02 6.65858E-03-1.46686E+00-1.08671E-13 2.28935E-13
 -1       249 2.41637E+01-1.84600E-01 1.02522E-02-1.11125E+00 4.26265E-14 2.52878E-13
 -1       250 2.48156E+01-2.06492E-01 6.18700E-03-5.28163E-01 1.99940E-13 1.63566E-13
 -1       251 2.49305E+01-1.56453E-01 9.00121E-04 1.19217E-03-1.27352E-13 1.21138E-13
 -1       252 2.46322E+01-8.93137E-02-2.34836E-03 3.55047E-01-3.06925E-13 3.78822E-13
 -1       253 2.40895E+01-3.44187E-02-3.09041E-03 5.30437E-01-1.06328E-13 5.95452E-13
 -1       254 2.34473E+01 5.81575E-04-2.39762E-03 5.75404E-01 9.21641E-14 6.51658E-13
 -1       255 2.28042E+01 1.87877E-02-1.31013E-03 5.43241E-01 1.85375E-13 6.79110E-13
 -1       256 2.22167E+01 2.58717E-02-3.74064E-04 4.74326E-01 2.52403E-14 4.69412E-13
 -1       257 2.17102E+01 2.66428E-02 2.46934E-04 3.93996E-01 1.61810E-13 2.14558E-13
 -1       258 2.12907E+01 2.43210E-02 5.79692E-04 3.16047E-01 1.69184E-13 1.12129E-13
 -1       259 2.09537E+01 2.07960E-02 7.08544E-04 2.46872E-01-1.42097E-13 2.71143E-13
 -1       260 2.06893E+01 1.70707E-02 7.13941E-04 1.88621E-01 1.80081E-13 3.05980E-13
 -1       261 2.04863E+01 1.36212E-02 6.54444E-04 1.41238E-01 8.35259E-15 8.35616E-14
 -1       262 2.03333E+01 1.06354E-02 5.67193E-04 1.03656E-01-1.12313E-13 3.45397E-13
 -1       263 2.02203E+01 8.15374E-03 4.73571E-04 7.44406E-02 3.18124E-13 7.31288E-14
 -1       264 2.01386E+01 6.14702E-03 3.84783E-04 5.21267E-02 9.02043E-14-3.00290E-13
 -1       265 2.00809E+01 4.55790E-03 3.05947E-04 3.53648E-02-2.69320E-13-2.20146E-13
 -1       266 2.00415E+01 3.32145E-03 2.38746E-04 2.29828E-02 6.61397E-14 6.35047E-14
 -1       267 2.00156E+01 2.37482E-03 1.83029E-04 1.39975E-02-7.81775E-14 3.50682E-14
 -1       268 1.99996E+01 1.66123E-03 1.37730E-04 7.60543E-03-1.00632E-13 2.51545E-13
 -1       269 1.99906E+01 1.13111E-03 1.01387E-04 3.16405E-03-1.11914E-13 9.06136E-14
 -1       270 1.99867E+01 7.41826E-04 7.24050E-05 1.71645E-04-1.16538E-13 2.32444E-13
 -1       271 1.99860E+01 4.56618E-04 4.92600E-05-1.75169E-03 3.57786E-13-6.15237E-14
 -1       272 1.99875E+01 2.42334E-04 3.09504E-05-2.87887E-03 3.52501E-13-4.86184E-13
 -1       273 1.99903E+01 6.59970E-05 1.81017E-05-3.38297E-03 3.60924E-13-4.80418E-13
 -1       274 1.99935E+01-1.06200E-04 1.42252E-05-3.33743E-03-2.01495E-13-5.09394E-13
 -1       275 1.99964E+01-3.30427E-04 1.65996E-05-2.71289E-03-2.31223E-13-4.70108E-13
 -1       276 1.99987E+01-5.99466E-04 1.76005E-05-1.45112E-03 1.89141E-14-4.37254E-13
 -1       277 1.99992E+01-2.07008E-03-2.13858E-06-2.27793E-03 1.06461E-14-2.82976E-14
 -1       278 1.99996E+01-4.39502E-03-3.12770E-06-3.15023E-03-1.92448E-13 1.52938E-14
 -1       279 1.99999E+01-6.96811E-03-1.96208E-06-3.25677E-03-4.10413E-13 1.77139E-13
 -1       280 2.00000E+01-9.40852E-03 2.84064E-06-2.85900E-03-3.34852E-13-8.25789E-15
 -1       281 2.00001E+01-1.14091E-02 7.52082E-06-2.21503E-03-1.90994E-13-3.20730E-13
 -1       282 2.00001E+01-1.28976E-02 1.07067E-05-1.46777E-03 4.43588E-14 2.49873E-13
 -1       283 2.00001E+01-1.37800E-02 1.23793E-05-7.09860E-04-5.54141E-14-1.22769E-13
 -1       284 2.00001E+01-1.40530E-02 1.28348E-05 3.38095E-05 1.59652E-13 2.20606E-14
 -1       285 2.00001E+01-1.37227E-02 1.22578E-05 7.71391E-04-7.97894E-14 4.54620E-13
 -1       286 2.00001E+01-1.27930E-02 1.04107E-05 1.51288E-03-2.27264E-13-2.64250E-13
 -1       287 2.00001E+01-1.13066E-02 7.02531E-06 2.22536E-03-7.32895E-14-1.58332E-13
 -1       288 2.00000E+01-9.26605E-03 2.43308E-06 2.85287E-03 2.60614E-14-3.31849E-13
 -1       289 1.99999E+01-6.84444E-03-3.59230E-06 3.23083E-03-1.83052E-13-9.95887E-14
 -1       290 1.99996E+01-4.27541E-03-5.76923E-06 3.04866E-03-1.32207E-13 3.18257E-14
 -1       291 1.99990E+01-2.30213E-03-1.19346E-05 3.12473E-03 3.92810E-15 3.44912E-13
 -1       292-8.65694E-01-1.02552E+01-8.77586E-01 1.02480E+00 4.81074E-13 6.27456E-13
 -1       293 3.90158E+00-7.41705E+00-4.68362E-01 4.50176E+00 4.51084E-13 8.00929E-13
 -1       294 1.00582E+01-5.11845E+00-4.66740E-01 5.60888E+00 1.10942E-12 9.43426E-13
 -1       295 1.92015E+01-1.47092E+00-1.23977E-01 6.92237E+00 1.14625E-12 1.08402E-12
 -1       296 2.91236E+01 2.24532E+00 3.04579E-01 7.43816E+00 1.26413E-12 7.18925E-13
 -1       297 3.90166E+01 4.78135E+00 7.53273E-01 6.22254E+00 8.97113E-13 4.08423E-13
 -1       298 4.57516E+01 6.26244E+00 1.04066E+00 3.19221E+00 8.70817E-13-4.33376E-13
 -1       299 4.66854E+01 6.88330E+00 1.01200E+00-5.59093E-01 7.33774E-13-7.25028E-13
 -1       300 4.28413E+01 6.05727E+00 8.05358E-01-3.56333E+00 6.39114E-13-9.47520E-13
 -1       301 3.55867E+01 3.76197E+00 5.33076E-01-6.34880E+00 6.42049E-13-1.11605E-12
 -1       302 2.59178E+01 2.85968E-01 1.22125E-01-6.94854E+00 5.81674E-13-1.00203E-12
 -1       303 1.57968E+01-3.18171E+00-2.39075E-01-6.65132E+00 5.46063E-13-7.97640E-13
 -1       304 6.46235E+00-6.57557E+00-6.60354E-01-4.60716E+00 5.08898E-13-7.25184E-13
 -1       305 1.12953E+00-9.47399E+00-8.49700E-01-2.65093E+00 5.60663E-14-7.71092E-13
 -1       306-1.30116E+00-1.11601E+01-9.91736E-01-2.45792E-01-3.07282E-13-6.99718E-13
 -1       307 5.75712E-01-8.53751E+00-6.05043E-01 2.77227E+00-6.43249E-13-9.11035E-13
 -1       308 4.59453E+00-7.39075E+00-7.00430E-01 4.18350E+00-1.20701E-12-1.09460E-12
 -1       309 1.33446E+01-4.13579E+00-2.80091E-01 6.58629E+00-1.12027E-12-1.09171E-12
 -1       310 2.23107E+01 2.48733E-02 3.90104E-02 7.37663E+00-1.39383E-12-8.98809E-13
 -1       311 3.24179E+01 3.05210E+00 3.93351E-01 6.60083E+00-1.10002E-12-6.98330E-13
 -1       312 3.93382E+01 5.47949E+00 5.22940E-01 3.54575E+00-9.53390E-13-1.49630E-13
 -1       313 4.62417E+01 6.55300E+00 1.01302E+00 1.89370E+00-7.32719E-13 3.33261E-13
 -1       314 4.53233E+01 6.70069E+00 9.46490E-01-1.88653E+00-7.15650E-13 8.86208E-13
 -1       315 4.13644E+01 5.61889E+00 8.26310E-01-5.31578E+00-7.82333E-13 1.12452E-12
 -1       316 3.38368E+01 3.95461E+00 5.31052E-01-7.21779E+00-8.08839E-13 1.08513E-12
 -1       317 2.48382E+01 1.42563E+00 1.66268E-01-7.66401E+00-7.82874E-13 1.08713E-12
 -1       318 1.56992E+01-1.83525E+00-2.15044E-01-6.84544E+00-7.62224E-13 8.92508E-13
 -1       319 7.71689E+00-5.56473E+00-5.61771E-01-5.11281E+00-6.48454E-13 9.23400E-13
 -1       320 2.46484E+00-8.26222E+00-6.66731E-01-3.71909E+00-1.94539E-13 8.64323E-13
 -1       321-8.96063E-01-1.07886E+01-9.64265E-01-1.15138E+00 2.18492E-13 7.41143E-13
 -1       322 2.03351E+01 3.03888E+00-2.17701E-02-1.77349E+00-2.48581E-13-4.86804E-13
 -1       323 2.10289E+01 2.20218E+00-1.67376E-02-2.07569E+00-3.29840E-13-3.21250E-13
 -1       324 1.95226E+01 3.84261E+00-1.46041E-02-1.01818E+00-5.06955E-14-5.72723E-13
 -1       325 1.92686E+01 4.05099E+00-1.22186E-02-6.81505E-01 3.11149E-14-5.62713E-13
 -1       326 1.90975E+01 4.18199E+00-1.08279E-02-3.82623E-01 1.27475E-13-5.17178E-13
 -1       327 1.90090E+01 4.24786E+00-1.01692E-02-1.09871E-01 1.98883E-13-4.71348E-13
 -1       328 1.90056E+01 4.25206E+00-1.01534E-02 1.52006E-01 2.72341E-13-4.28399E-13
 -1       329 1.90895E+01 4.19275E+00-1.07769E-02 4.19739E-01 3.32664E-13-3.75264E-13
 -1       330 1.92578E+01 4.06623E+00-1.21524E-02 7.05087E-01 3.91650E-13-2.97795E-13
 -1       331 1.95187E+01 3.85384E+00-1.45291E-02 1.03169E+00 4.47759E-13-1.56982E-13
 -1       332 1.98813E+01 3.52408E+00-1.81888E-02 1.40015E+00 4.84540E-13 5.29091E-16
 -1       333 2.03842E+01 3.00612E+00-2.21395E-02 1.78715E+00 4.98072E-13 2.15964E-13
 -1       334 2.10312E+01 2.13141E+00-2.92613E-02 2.02258E+00 4.33734E-13 5.97513E-13
 -1       335 2.13977E+01 1.17857E+00-2.30845E-02 1.67588E+00 3.57830E-13 9.35538E-13
 -1       336 2.08270E+01 5.07474E-01 9.26761E-03 6.57679E-01 2.98689E-13 7.77468E-13
 -1       337 2.08619E+01 7.04555E-01 1.31711E-02-7.13340E-01-2.60069E-13-2.28002E-13
 -1       338 2.05758E+01 3.89536E-01 7.72768E-03-9.63617E-02-2.39906E-13-2.29949E-13
 -1       339 2.04864E+01 2.44510E-01 4.71351E-03 2.80280E-01-1.83671E-13-2.12333E-13
 -1       340 2.05476E+01 1.64011E-01 2.48998E-03 5.29130E-01-1.24988E-13-2.49040E-13
 -1       341 2.07212E+01 1.06495E-01 1.21248E-03 6.96287E-01-8.26445E-14-2.34477E-13
 -1       342 2.09761E+01 4.86707E-02 2.61001E-04 7.96716E-01-6.17174E-14-2.27302E-13
 -1       343 2.12859E+01-2.57456E-02-7.42542E-04 8.24852E-01-5.41663E-14-2.34212E-13
 -1       344 2.16249E+01-1.28386E-01-1.93111E-03 7.60300E-01-1.14924E-13-2.26909E-13
 -1       345 2.19631E+01-2.62332E-01-3.22970E-03 5.74018E-01-8.27397E-14-2.29467E-13
 -1       346 2.22614E+01-4.12633E-01-4.33491E-03 2.40394E-01-4.41632E-14-1.89443E-13
 -1       347 2.24666E+01-5.33961E-01-4.70588E-03-2.39869E-01-6.55836E-14-1.44895E-13
 -1       348 2.25141E+01-5.46090E-01-3.78864E-03-8.05746E-01-5.60218E-14-8.59545E-14
 -1       349 2.23491E+01-3.58774E-01-1.44943E-03-1.30508E+00-9.09695E-14-1.23582E-13
 -1       350 2.19782E+01 5.48810E-02 1.33839E-03-1.50768E+00-1.44206E-13-1.91926E-13
 -1       351 2.15261E+01 5.74239E-01 4.04908E-03-1.21329E+00-1.49660E-13-2.97733E-13
 -1       352 2.12215E+01 9.35177E-01 4.51646E-03-4.25311E-01-1.17136E-13-3.30831E-13
 -1       353 2.12487E+01 9.22815E-01 3.99627E-03 5.61621E-01-2.24738E-14-3.74172E-13
 -1       354 2.16025E+01 5.42061E-01 3.62157E-03 1.32356E+00 2.01553E-15-4.42382E-13
 -1       355 2.20862E+01 2.70746E-02 1.94427E-03 1.58503E+00-4.89238E-14-4.45063E-13
 -1       356 2.24773E+01-3.67693E-01-1.38975E-03 1.36308E+00 7.03633E-14-4.83341E-13
 -1       357 2.26628E+01-5.34662E-01-3.87094E-03 8.66647E-01 1.44716E-13-2.64981E-13
 -1       358 2.26429E+01-5.09488E-01-4.66265E-03 3.20347E-01 9.54263E-14-3.31310E-13
 -1       359 2.24736E+01-3.83384E-01-4.14976E-03-1.32643E-01 1.28838E-13-4.13360E-13
 -1       360 2.22173E+01-2.34882E-01-2.99012E-03-4.39120E-01 2.73697E-13-3.93374E-13
 -1       361 2.19227E+01-1.07790E-01-1.73651E-03-6.04600E-01 4.87767E-14-7.62323E-14
 -1       362 2.16225E+01-1.69140E-02-6.91722E-04-6.60415E-01-2.15146E-15 1.60284E-13
 -1       363 2.13372E+01 3.91991E-02 4.81246E-05-6.42608E-01 6.95400E-14 4.49522E-14
 -1       364 2.10785E+01 6.82916E-02 4.97503E-04-5.82029E-01 3.71089E-14 9.48897E-14
 -1       365 2.08521E+01 7.89112E-02 7.19704E-04-5.01415E-01-6.74540E-14-5.52901E-14
 -1       366 2.06597E+01 7.81622E-02 7.85937E-04-4.15832E-01-8.95120E-15 1.61349E-14
 -1       367 2.05004E+01 7.11960E-02 7.56767E-04-3.34307E-01 9.09350E-14-3.80026E-14
 -1       368 2.03714E+01 6.14299E-02 6.76819E-04-2.61582E-01 7.37177E-14-1.97709E-13
 -1       369 2.02694E+01 5.09686E-02 5.75863E-04-1.99581E-01-2.61152E-13-1.85643E-13
 -1       370 2.01902E+01 4.10069E-02 4.72113E-04-1.48506E-01-4.57011E-14-7.20029E-14
 -1       371 2.01302E+01 3.21454E-02 3.75674E-04-1.07592E-01-1.00476E-13 6.00951E-14
 -1       372 2.00856E+01 2.46163E-02 2.91349E-04-7.56024E-02 5.73378E-14 7.37674E-14
 -1       373 2.00534E+01 1.84349E-02 2.20680E-04-5.11414E-02 1.50885E-14-1.75076E-15
 -1       374 2.00307E+01 1.34985E-02 1.63325E-04-3.28371E-02-1.26988E-13 2.90432E-13
 -1       375 2.00154E+01 9.64722E-03 1.17946E-04-1.94412E-02-1.78885E-13 3.65919E-13
 -1       376 2.00056E+01 6.70067E-03 8.27365E-05-9.87637E-03 1.48676E-13 2.42010E-13
 -1       377 1.99998E+01 4.47740E-03 5.57342E-05-3.25242E-03 3.84168E-13 2.61239E-13
 -1       378 1.99968E+01 2.80386E-03 3.50217E-05 1.13440E-03 8.42657E-14 4.47725E-14
 -1       379 1.99957E+01 1.51621E-03 1.88417E-05 3.81134E-03 7.78193E-14-2.14407E-13
 -1       380 1.99959E+01 4.54737E-04 6.37985E-06 5.13827E-03-1.00189E-14-1.37004E-13
 -1       381 1.99968E+01-5.43267E-04-5.30896E-06 5.34058E-03 1.39363E-13 3.94204E-14
 -1       382 1.99978E+01-1.42340E-03-1.78331E-05 4.60831E-03 1.10013E-13 2.20698E-14
 -1       383 2.04968E+01 2.68969E-01 1.15558E-02 7.96726E-02 2.38294E-13 6.51440E-13
 -1       384 2.04220E+01 1.75051E-01 7.22730E-03-2.74162E-01 1.77785E-13 5.33713E-13
 -1       385 2.05506E+01 1.33422E-01 4.08234E-03-5.21643E-01 8.39038E-14 4.63938E-13
 -1       386 2.08316E+01 1.12804E-01 2.50017E-03-7.15614E-01 6.70431E-14 4.19985E-13
 -1       387 2.12314E+01 9.62886E-02 1.52430E-03-8.76501E-01 5.77882E-14 4.52851E-13
 -1       388 2.17246E+01 6.96412E-02 4.84120E-04-1.00254E+00 1.09096E-13 4.17459E-13
 -1       389 2.22864E+01 1.65326E-02-9.69518E-04-1.07093E+00 1.14935E-13 3.74120E-13
 -1       390 2.28839E+01-8.17046E-02-2.90557E-03-1.03566E+00 1.46715E-14 3.63657E-13
 -1       391 2.34684E+01-2.39193E-01-5.03469E-03-8.28902E-01 6.31795E-14 3.82492E-13
 -1       392 2.39662E+01-4.45849E-01-6.64731E-03-3.78126E-01-2.55941E-14 3.71481E-13
 -1       393 2.42710E+01-6.33413E-01-6.83769E-03 3.43583E-01 3.60640E-14 3.67254E-13
 -1       394 2.42533E+01-6.50976E-01-5.69643E-03 1.22485E+00-1.45550E-13 4.39284E-13
 -1       395 2.38227E+01-3.18862E-01-5.22916E-03 1.92653E+00-2.86709E-14 6.15202E-13
 -1       396 2.30848E+01 3.63787E-01-6.62681E-03 1.94281E+00 9.89955E-14 5.83388E-13
 -1       397 2.24292E+01 1.04582E+00-5.53883E-03 1.00159E+00 3.52725E-13 4.23677E-13
 -1       398 2.23311E+01 1.18848E+00-1.12248E-02-5.44153E-01 3.44060E-13 3.13216E-13
 -1       399 2.29085E+01 6.51689E-01-3.77690E-03-1.78183E+00 7.06084E-14 1.63730E-13
 -1       400 2.37324E+01-9.07102E-02-2.70442E-04-2.11214E+00-5.53902E-14-4.88255E-14
 -1       401 2.43309E+01-5.73580E-01-3.27270E-03-1.59326E+00 1.32138E-14 4.93052E-15
 -1       402 2.45101E+01-6.61948E-01-6.94694E-03-7.29229E-01 1.85442E-13-1.22907E-15
 -1       403 2.43325E+01-5.12897E-01-7.90770E-03 5.99640E-02-1.28410E-13 6.85266E-14
 -1       404 2.39279E+01-3.00033E-01-6.73048E-03 5.93514E-01-4.03653E-13-1.44509E-14
 -1       405 2.34144E+01-1.20704E-01-4.21946E-03 8.63478E-01-2.69974E-13 1.32579E-13
 -1       406 2.28736E+01-3.27172E-03-1.77853E-03 9.37350E-01 3.62791E-14 2.60809E-13
 -1       407 2.23550E+01 5.98439E-02-2.89843E-05 8.91888E-01 2.14573E-13 4.76113E-13
 -1       408 2.18864E+01 8.58874E-02 9.84801E-04 7.86790E-01 1.60007E-13 3.33068E-13
 -1       409 2.14801E+01 9.02307E-02 1.43465E-03 6.60835E-01 2.65823E-13 2.35368E-13
 -1       410 2.11391E+01 8.35228E-02 1.52726E-03 5.36099E-01 1.31363E-13 2.41147E-13
 -1       411 2.08603E+01 7.22103E-02 1.42652E-03 4.23496E-01-1.60240E-13 3.49635E-13
 -1       412 2.06372E+01 5.98285E-02 1.24012E-03 3.27243E-01 1.65954E-13 2.74633E-13
 -1       413 2.04623E+01 4.81303E-02 1.03052E-03 2.47888E-01 7.63230E-14 4.00726E-13
 -1       414 2.03276E+01 3.78606E-02 8.30014E-04 1.84164E-01-8.72160E-14 2.68817E-13
 -1       415 2.02259E+01 2.92304E-02 6.52908E-04 1.34052E-01 2.95653E-13 3.24745E-13
 -1       416 2.01505E+01 2.21880E-02 5.03670E-04 9.53471E-02 2.00841E-13 6.42005E-13
 -1       417 2.00957E+01 1.65665E-02 3.81798E-04 6.59476E-02-1.45482E-13 3.11258E-13
 -1       418 2.00570E+01 1.21605E-02 2.84544E-04 4.39809E-02-8.85411E-14-2.40575E-14
 -1       419 2.00304E+01 8.76301E-03 2.08356E-04 2.78465E-02-2.15856E-13-1.54929E-15
 -1       420 2.00129E+01 6.18317E-03 1.49586E-04 1.62159E-02-1.80047E-13 1.52138E-13
 -1       421 2.00020E+01 4.25157E-03 1.04806E-04 8.01281E-03-2.08828E-13 2.84619E-13
 -1       422 1.99960E+01 2.82088E-03 7.09284E-05 2.38655E-03 9.56357E-14 1.52363E-13
 -1       423 1.99932E+01 1.76355E-03 4.51761E-05-1.31560E-03 4.33965E-13-8.03291E-14
 -1       424 1.99927E+01 9.66219E-04 2.51531E-05-3.57315E-03 4.62219E-13-1.11069E-13
 -1       425 1.99936E+01 3.19434E-04 9.80500E-06-4.70931E-03 3.39450E-13 5.25441E-14
 -1       426 1.99952E+01-2.78280E-04-1.18319E-06-4.89855E-03 5.12183E-15 1.03629E-13
 -1       427 1.99970E+01-9.37203E-04-6.37435E-06-4.19895E-03-2.70444E-13-9.00138E-14
 -1       428 1.99982E+01-1.50446E-03-1.10804E-05-3.39716E-03-6.80421E-14-1.37260E-13
 -1       429 2.00004E+01-4.89724E-03 3.19786E-06-4.67326E-03-2.44224E-13 6.63069E-14
 -1       430 1.99997E+01-3.64212E-03-8.01872E-06-5.00172E-03-2.87482E-13 1.13006E-13
 -1       431 1.99989E+01-2.68172E-03-1.52308E-05-4.53500E-03-2.94211E-13-1.18793E-13
 -1       432 2.00008E+01-5.86958E-03 8.47426E-06-3.83258E-03-3.39593E-13-1.62378E-13
 -1       433 2.00009E+01-6.57641E-03 1.12051E-05-2.75114E-03-7.49168E-14 2.74516E-13
 -1       434 2.00010E+01-7.00999E-03 1.25889E-05-1.61357E-03 9.77736E-14 1.11733E-13
 -1       435 2.00009E+01-7.20288E-03 1.30458E-05-4.93955E-04-2.82596E-13-2.64558E-14
 -1       436 2.00009E+01-7.18058E-03 1.29863E-05 6.04031E-04-2.50356E-13 2.99679E-13
 -1       437 2.00009E+01-6.94750E-03 1.23767E-05 1.70446E-03-2.65657E-13 3.16225E-14
 -1       438 2.00009E+01-6.49361E-03 1.07097E-05 2.79028E-03-1.54967E-13 8.06124E-15
 -1       439 2.00008E+01-5.77724E-03 7.57424E-06 3.83145E-03-7.08829E-14 9.39817E-14
 -1       440 2.00004E+01-4.78617E-03 2.24995E-06 4.64629E-03 1.86074E-13-3.38141E-13
 -1       441 1.99997E+01-3.58673E-03-9.58913E-06 5.00500E-03 1.42276E-13 5.89186E-14
 -1       442 1.21450E+01-5.54296E+00 9.12901E-03 6.89781E+00-1.60150E-14 5.91159E-13
 -1       443 1.15426E+00-4.42486E+00-6.21755E-02-2.27041E-01-5.85630E-14 5.87058E-13
 -1       444 3.78944E+00-3.90657E+00 4.32483E-02 3.80904E+00-2.70166E-13 7.17704E-13
 -1       445 1.94740E+01-5.59736E+00-3.29941E-02 6.38266E+00 1.96634E-13 3.29584E-13
 -1       446 2.71405E+01-3.26972E+00-2.99429E-03 4.15247E+00 5.67962E-13-1.84880E-13
 -1       447 1.98680E+01 3.52708E+00-1.82128E-02-1.39292E+00-1.53816E-13-5.62836E-13
 -1       448 3.51847E+01 4.94276E+00 4.49404E-02-3.95154E-01 8.73884E-13-5.40776E-13
 -1       449 3.65442E+01 7.70946E+00 7.71910E-02-2.84083E-01 8.72497E-13-1.68358E-13
 -1       450 3.46115E+01 7.27756E+00-3.06319E-02 6.29337E-01 5.22193E-13 1.24352E-13
 -1       451 3.40809E+01 3.25361E+00-2.04849E-02 1.70602E-01 3.00489E-13 2.60347E-14
 -1       452 3.09121E+01-1.32019E+00-7.08560E-03-1.78913E+00-1.70506E-14-1.67075E-13
 -1       453 2.43918E+01-4.59683E+00-1.12533E-02-5.23629E+00-1.15324E-13-2.35478E-13
 -1       454 1.52466E+01-5.84316E+00-6.14651E-02-6.96409E+00-1.05055E-13-3.47094E-13
 -1       455 7.57663E+00-5.69215E+00-8.81663E-02-6.11323E+00-1.71127E-13-6.45192E-13
 -1       456 2.44085E+00-4.35681E+00-2.72164E-02-2.84772E+00-1.34739E-13-8.05064E-13
 -1       457 1.93431E+00-3.69542E+00 4.11146E-02 1.29265E+00-1.11789E-13-8.78575E-13
 -1       458 6.31538E+00-5.20246E+00-5.06928E-02 5.86157E+00-2.10360E-13-7.66137E-13
 -1       459 1.30096E+01-5.66636E+00-4.28144E-02 7.22587E+00-1.85671E-13-6.90191E-13
 -1       460 2.23345E+01-4.85252E+00 7.41532E-03 5.97947E+00-3.68122E-13-9.37722E-14
 -1       461 2.86237E+01-2.18273E+00-6.83093E-04 3.43531E+00-6.76514E-13 4.00929E-14
 -1       462 3.27703E+01 2.09100E+00-4.27502E-03 8.02660E-01-8.27782E-13 1.80939E-13
 -1       463 3.50772E+01 6.91897E+00 2.86464E-02-1.12687E-01-1.01058E-12 1.91083E-13
 -1       464 3.61213E+01 8.11529E+00 9.43939E-02 4.67262E-02-9.53737E-13 2.12474E-13
 -1       465 3.51501E+01 6.40735E+00 4.78990E-02 1.60431E-01-6.12871E-13 2.98081E-13
 -1       466 3.36879E+01 2.99477E+00 5.51244E-02-1.04927E+00-4.22447E-13 3.69205E-13
 -1       467 2.99197E+01-8.82240E-01 2.65940E-02-3.07197E+00-2.33789E-13 3.08753E-13
 -1       468 2.40617E+01-3.90877E+00-6.65732E-03-5.43521E+00-3.26822E-14 3.70037E-13
 -1       469 1.65819E+01-5.39651E+00-4.16876E-02-6.99188E+00 1.91097E-13 3.38646E-13
 -1       470 9.62006E+00-5.41795E+00-5.01584E-02-6.70950E+00 6.48925E-14 5.22873E-13
 -1       471 2.71881E+00-4.66927E+00-7.88173E-02-3.69253E+00 4.75314E-14 1.04246E-12
 -1       472 3.27416E+01 7.59041E-01 5.87355E-02 1.88802E+00 7.54696E-13-4.44006E-13
 -1       473 9.62493E+00-3.50221E+00 1.41725E-01 5.95703E+00-4.45942E-13 6.72101E-13
 -1       474 8.01112E+00-3.69037E+00 1.00644E-01-6.05180E+00 1.32651E-13 8.47891E-13
 -1       475 3.13085E+01 4.13567E+00-1.20097E-01-1.35377E+00-7.86676E-13 3.40936E-13
 -1       476 5.55982E+00-2.65698E+00 1.30454E-01 4.18633E+00 9.77135E-14-7.74866E-13
 -1       477 2.07661E+01 9.16771E-01 4.27689E-03 5.58061E-01 3.45860E-13 3.27055E-13
 -1       478 1.94075E+01 3.43866E+00-4.69084E-03-3.85537E-01 8.48553E-14-4.67812E-13
 -1       479 1.96464E+01 3.19719E+00-5.49847E-03-6.21271E-01 3.41795E-16-4.90993E-13
 -1       480 1.92010E+01 3.63417E+00-4.09944E-03 2.64065E-02 2.25744E-13-3.98337E-13
 -1       481 1.92447E+01 3.59586E+00-4.20959E-03 2.19927E-01 2.92040E-13-3.43069E-13
 -1       482 1.93855E+01 3.46489E+00-4.64354E-03 4.18027E-01 3.41777E-13-3.02369E-13
 -1       483 1.96251E+01 3.22633E+00-5.37281E-03 6.36110E-01 4.05686E-13-1.96159E-13
 -1       484 1.99549E+01 2.86169E+00-6.21908E-03 8.67671E-01 4.31452E-13-6.71852E-14
 -1       485 2.03761E+01 2.32942E+00-5.60773E-03 1.08996E+00 4.45216E-13 9.08724E-14
 -1       486 2.06223E+01 5.83516E-01 5.65846E-03-4.24526E-02 2.72137E-13 2.76261E-13
 -1       487 2.06705E+01 1.06972E+00 2.96948E-03-5.14570E-01-2.03725E-13-3.35982E-13
 -1       488 2.96459E+01-2.58983E+00-5.69874E-02 6.57762E-01 4.49226E-13-7.58921E-13
 -1       489 2.05885E+01 6.78349E-01 2.66295E-03 4.03256E-02-1.88020E-13-2.65246E-13
 -1       490 2.05553E+01 4.54812E-01 1.25079E-03 4.40746E-01-1.37914E-13-2.08954E-13
 -1       491 2.05959E+01 3.11521E-01 6.94557E-04 7.27592E-01-1.07557E-13-1.80842E-13
 -1       492 2.07108E+01 1.91870E-01 2.91471E-04 9.28289E-01-9.01728E-14-1.99208E-13
 -1       493 2.08967E+01 5.92976E-02-1.04108E-04 1.04912E+00-9.94055E-14-2.31809E-13
 -1       494 2.11532E+01-1.14227E-01-5.97721E-04 1.07829E+00-6.50173E-14-2.39830E-13
 -1       495 2.14819E+01-3.46741E-01-1.22667E-03 9.88375E-01-6.70639E-14-1.69833E-13
 -1       496 2.18806E+01-6.34532E-01-1.90711E-03 7.41427E-01 1.06539E-14-7.78885E-14
 -1       497 2.23288E+01-9.30317E-01-2.45929E-03 3.02572E-01 3.30324E-15-1.81267E-14
 -1       498 2.27657E+01-1.11832E+00-2.59757E-03-3.29093E-01 1.51523E-14 3.28795E-14
 -1       499 2.30765E+01-1.01416E+00-2.34584E-03-1.06596E+00-9.82585E-14 3.99031E-14
 -1       500 2.31251E+01-4.45214E-01-1.90219E-03-1.67168E+00-1.79156E-13 5.90414E-14
 -1       501 2.28607E+01 5.56316E-01-3.61265E-03-1.78620E+00-2.53567E-13 1.56247E-14
 -1       502 2.24737E+01 1.58362E+00-2.76230E-03-1.13611E+00-1.91065E-13-8.15799E-14
 -1       503 2.22922E+01 2.01106E+00-7.28711E-03 9.00285E-02-1.30449E-13-1.98207E-13
 -1       504 2.25166E+01 1.52567E+00-6.16272E-03 1.30114E+00-1.60108E-13-2.59042E-13
 -1       505 2.29274E+01 4.85067E-01-1.69657E-03 1.89430E+00 3.64471E-15-2.94027E-13
 -1       506 2.31857E+01-4.87500E-01-2.21986E-03 1.74248E+00 6.86529E-14-2.08836E-13
 -1       507 2.31336E+01-1.01154E+00-3.14005E-03 1.13228E+00 1.42370E-13-1.34821E-13
 -1       508 2.28282E+01-1.08135E+00-3.17109E-03 4.15960E-01 9.70660E-14-2.07864E-13
 -1       509 2.24071E+01-8.77317E-01-2.61922E-03-1.84579E-01 5.74735E-14-7.34632E-14
 -1       510 2.19797E+01-5.81192E-01-1.78007E-03-5.92399E-01 2.27615E-13-7.02478E-14
 -1       511 2.16003E+01-3.05048E-01-9.91726E-04-8.16243E-01 2.84321E-13-1.57819E-13
 -1       512 2.12835E+01-9.47954E-02-3.99250E-04-8.97737E-01 1.29879E-13-1.24150E-13
 -1       513 2.10248E+01 4.37809E-02 1.47023E-06-8.82718E-01-5.00222E-14-9.19094E-14
 -1       514 2.08145E+01 1.22646E-01 2.38955E-04-8.09859E-01-1.28449E-14-1.05687E-13
 -1       515 2.06432E+01 1.58318E-01 3.56187E-04-7.07889E-01-9.57413E-14-1.40019E-13
 -1       516 2.05035E+01 1.65807E-01 3.92917E-04-5.96357E-01 2.73789E-14 3.08947E-14
 -1       517 2.03897E+01 1.56675E-01 3.80628E-04-4.87522E-01 2.14692E-14 5.32987E-14
 -1       518 2.02977E+01 1.38995E-01 3.42011E-04-3.88316E-01-1.49034E-14-1.38830E-13
 -1       519 2.02239E+01 1.18013E-01 2.92170E-04-3.02016E-01-2.57556E-14 3.15256E-15
 -1       520 2.01655E+01 9.69004E-02 2.40407E-04-2.29539E-01 1.02334E-15 1.61846E-13
 -1       521 2.01199E+01 7.74119E-02 1.91948E-04-1.70374E-01-1.05657E-14 2.66119E-13
 -1       522 2.00848E+01 6.03798E-02 1.49339E-04-1.23238E-01-1.06740E-13 2.80155E-13
 -1       523 2.00584E+01 4.60651E-02 1.13465E-04-8.64993E-02-1.05360E-13 1.45220E-13
 -1       524 2.00389E+01 3.43947E-02 8.42393E-05-5.84535E-02 1.13983E-14 5.80939E-14
 -1       525 2.00248E+01 2.51154E-02 6.10559E-05-3.74821E-02-5.68814E-14 1.37319E-13
 -1       526 2.00149E+01 1.78912E-02 4.30658E-05-2.21405E-02-1.07965E-13 4.28404E-13
 -1       527 2.00081E+01 1.23600E-02 2.93189E-05-1.11968E-02 1.66953E-13 4.41591E-13
 -1       528 2.00038E+01 8.16472E-03 1.88753E-05-3.64309E-03 8.85668E-15 5.82300E-14
 -1       529 2.00012E+01 4.96683E-03 1.09272E-05 1.31022E-03-1.13419E-13 1.71996E-13
 -1       530 1.99998E+01 2.44938E-03 5.68283E-06 4.25499E-03 1.54894E-13-5.35891E-14
 -1       531 1.99992E+01 3.06733E-04 1.10164E-06 5.59228E-03 2.21033E-13 2.72781E-13
 -1       532 2.06514E+01 3.31478E-01 1.87482E-03-7.98503E-01 1.06326E-13 1.98417E-13
 -1       533 2.08139E+01 2.78332E-01 1.20810E-03-1.06516E+00 7.67691E-14 1.75164E-13
 -1       534 2.10597E+01 2.22477E-01 6.84416E-04-1.28526E+00 9.00328E-14 1.37713E-13
 -1       535 2.13847E+01 1.29309E-01-3.39271E-05-1.45046E+00 1.15107E-13 1.77271E-13
 -1       536 2.17944E+01-4.08301E-02-1.14799E-03-1.52769E+00 6.96588E-14 2.16550E-13
 -1       537 2.23047E+01-3.27934E-01-2.66734E-03-1.45566E+00 2.71959E-14 2.26869E-13
 -1       538 2.29343E+01-7.47961E-01-4.39610E-03-1.14581E+00 1.54645E-14 2.18766E-13
 -1       539 2.36768E+01-1.23651E+00-5.90647E-03-5.02559E-01-1.52452E-14 2.84464E-13
 -1       540 2.44387E+01-1.56408E+00-7.24896E-03 5.07208E-01-1.63358E-13 3.78391E-13
 -1       541 2.49881E+01-1.31846E+00-1.15098E-02 1.69851E+00-1.45914E-13 4.08022E-13
 -1       542 2.50366E+01-1.33734E-01-1.44183E-02 2.50569E+00 1.17328E-13 3.20359E-13
 -1       543 2.45291E+01 1.69122E+00-4.62065E-02 2.10279E+00 3.26220E-13 2.55310E-13
 -1       544 2.41546E+01 2.73513E+00-3.67654E-02 3.08525E-01 3.80579E-13 3.45855E-13
 -1       545 2.41898E+01 2.20586E+00-8.51366E-02-1.73246E+00 3.27934E-13 1.90615E-13
 -1       546 2.49759E+01 4.32374E-01-1.34713E-02-2.62368E+00 1.79445E-13 7.91461E-14
 -1       547 2.51481E+01-1.04477E+00-1.42885E-02-2.14397E+00 9.64348E-14-4.17527E-14
 -1       548 2.47510E+01-1.55022E+00-7.37660E-03-1.00391E+00 6.95983E-14-3.63833E-13
 -1       549 2.40609E+01-1.35743E+00-4.97973E-03 8.47578E-02-7.77169E-14-1.58285E-13
 -1       550 2.33247E+01-8.85254E-01-4.96294E-03 8.35265E-01-1.98497E-13-2.68310E-14
 -1       551 2.26835E+01-4.28011E-01-3.33702E-03 1.22893E+00-3.07306E-13-1.38653E-13
 -1       552 2.21635E+01-9.96297E-02-1.54562E-03 1.35465E+00-2.26766E-13-2.48533E-13
 -1       553 2.17453E+01 9.51512E-02-2.24326E-04 1.31283E+00 4.62423E-14-1.40710E-13
 -1       554 2.14044E+01 1.89720E-01 5.67074E-04 1.18145E+00 1.52121E-13 5.57378E-15
 -1       555 2.11223E+01 2.20575E-01 9.36454E-04 1.01285E+00 1.04338E-13 1.49871E-13
 -1       556 2.08875E+01 2.15737E-01 1.03433E-03 8.38645E-01 2.24713E-13 3.11896E-13
 -1       557 2.06927E+01 1.93567E-01 9.82524E-04 6.76046E-01 9.61729E-14 1.77212E-13
 -1       558 2.05327E+01 1.64940E-01 8.61854E-04 5.33037E-01-9.62014E-14-5.28962E-14
 -1       559 2.04030E+01 1.35766E-01 7.19824E-04 4.12118E-01 5.68228E-15 1.29742E-13
 -1       560 2.02994E+01 1.08941E-01 5.81432E-04 3.12766E-01-5.01035E-14 3.26141E-13
 -1       561 2.02180E+01 8.56487E-02 4.58090E-04 2.32953E-01 1.33447E-14 5.03612E-13
 -1       562 2.01552E+01 6.61516E-02 3.53668E-04 1.70043E-01 1.40031E-13 6.37105E-13
 -1       563 2.01076E+01 5.02537E-02 2.68182E-04 1.21298E-01 3.18713E-13 6.07051E-13
 -1       564 2.00722E+01 3.75551E-02 1.99882E-04 8.41415E-02 2.06743E-13 2.65170E-13
 -1       565 2.00464E+01 2.75893E-02 1.46359E-04 5.62770E-02-1.63744E-13 4.41231E-14
 -1       566 2.00282E+01 1.98917E-02 1.05107E-04 3.57373E-02-3.41584E-13-3.26234E-14
 -1       567 2.00156E+01 1.40322E-02 7.37537E-05 2.08823E-02-2.99334E-13-7.33945E-14
 -1       568 2.00074E+01 9.62639E-03 5.01692E-05 1.03803E-02 6.10745E-14-3.68752E-13
 -1       569 2.00023E+01 6.33649E-03 3.24942E-05 3.17864E-03 2.68145E-13-3.34920E-13
 -1       570 1.99995E+01 3.86853E-03 1.89494E-05-1.52887E-03 3.30395E-13-1.05968E-14
 -1       571 1.99982E+01 1.95759E-03 8.87271E-06-4.33379E-03 2.71842E-13 1.51906E-13
 -1       572 1.99979E+01 3.51515E-04-1.05930E-06-5.65348E-03 3.07486E-13-4.66630E-14
 -1       573 1.99983E+01-1.16386E-03-7.21912E-06-5.72424E-03-1.55109E-13 5.15530E-15
 -1       574 2.00019E+01-1.42373E-03 4.38065E-06-3.48441E-03 1.59558E-13 5.81708E-14
 -1       575 2.00020E+01-1.10779E-03 5.08478E-06-2.23829E-03 8.54029E-14 3.82419E-13
 -1       576 2.00005E+01-1.70089E-03-3.99003E-06-5.55968E-03-1.52990E-13 1.51621E-13
 -1       577 2.00015E+01-1.66548E-03 3.26171E-06-4.66244E-03-1.33704E-13-1.03125E-13
 -1       578 2.00020E+01-8.45857E-04 5.64016E-06-1.04813E-03 1.50696E-14-5.51255E-13
 -1       579 2.00019E+01-7.33017E-04 5.76919E-06 7.49877E-05-7.65740E-14-3.30084E-14
 -1       580 2.00019E+01-8.07396E-04 5.74020E-06 1.18357E-03-2.56374E-13 3.51258E-13
 -1       581 2.00020E+01-1.03488E-03 5.12390E-06 2.31824E-03-7.78641E-14-7.31482E-14
 -1       582 2.00019E+01-1.33324E-03 3.03783E-06 3.51906E-03-1.03354E-13-5.71839E-14
 -1       583 2.00015E+01-1.54737E-03 4.92811E-07 4.66011E-03 8.02486E-14 1.60798E-13
 -1       584 2.00005E+01-1.55484E-03-1.29374E-06 5.46048E-03 1.26222E-13-1.13030E-13
 -1       585 5.57830E+00-1.00416E+00 2.01590E-01 1.29277E+00-1.79969E-13 4.06022E-13
 -1       586 1.87562E+01-5.37667E+00 7.46497E-02 6.14393E+00-5.80612E-13-8.92498E-14
 -1       587 2.05838E+01 4.16687E-01 3.22293E-03-4.70732E-01 1.86711E-13 2.26613E-13
 -1       588 3.13847E+01 1.44010E+00-1.11608E-01-1.55928E+00 6.87561E-13-4.10727E-13
 -1       589 2.24428E+01-5.48442E+00 3.26984E-02-5.32239E+00 5.09245E-13 1.61333E-13
 -1       590 8.06562E+00-2.94324E+00 1.46733E-01-5.27286E+00-2.58273E-13-5.93497E-13
 -1       591 1.92570E+01 3.58165E+00-4.25271E-03-1.71701E-01 1.72029E-13-4.48636E-13
 -1       592 2.95174E+01 6.78508E+00-1.67011E-01-1.31874E-01 5.21028E-13 4.13836E-13
 -1       593 2.63494E+01-4.67953E+00-6.48955E-03 3.23432E+00-1.25459E-13 3.82284E-13
 -1       594 3.02209E+01 5.46812E+00-1.77466E-01-1.74415E+00 6.87436E-13 1.11949E-13
 -1       595 2.96492E+01 3.98143E+00-1.81318E-01 2.28825E+00 3.50858E-13 5.52197E-13
 -1       596 3.03638E+01-1.63398E-01-1.08113E-01 1.44149E+00-3.57353E-16 2.30531E-13
 -1       597 2.77789E+01-4.43069E+00-3.99674E-02-1.90633E+00-3.28421E-13-7.91867E-14
 -1       598 2.18367E+01-5.82670E+00 4.48060E-02-5.59561E+00-3.03514E-13-1.12089E-13
 -1       599 1.33260E+01-4.68711E+00 9.46895E-02-6.80045E+00-3.53301E-13-2.93293E-13
 -1       600 5.15360E+00-1.27167E+00 1.91165E-01-1.06831E+00-3.58403E-14-7.52939E-13
 -1       601 1.25774E+01-4.06587E+00 1.37797E-01 6.84990E+00 2.16167E-13-4.55476E-13
 -1       602 3.08086E+01 3.68597E+00-1.41990E-01 1.57448E+00-2.68639E-13-2.18166E-13
 -1       603 1.97060E+01-5.61102E+00 5.37254E-02 6.37562E+00 1.28481E-13-4.62985E-14
 -1       604 2.94456E+01-1.40963E+00-7.54318E-02 4.39518E-02-4.06069E-13 4.04572E-13
 -1       605 3.05208E+01 7.16315E+00-1.70145E-01-6.53704E-01-8.91426E-13 2.55133E-13
 -1       606 3.00007E+01 6.98947E+00-1.56595E-01 9.51702E-01-6.63941E-13-1.33411E-13
 -1       607 2.98652E+01-3.99342E-01-9.24455E-02 5.14887E-01 2.00777E-14-1.86615E-13
 -1       608 2.74415E+01-3.93118E+00-3.28268E-02-2.32469E+00 3.50067E-13-7.68274E-14
 -1       609 1.56961E+01-5.04655E+00 9.27651E-02-7.01568E+00 3.37438E-13 4.51895E-14
 -1       610 5.32242E+00-1.20404E+00 2.04425E-01-1.90504E+00-1.61306E-13 7.06185E-13
 -1       611 2.06387E+01 1.82250E+00-5.12649E-03-1.15104E+00-2.42902E-13-4.00960E-13
 -1       612 2.09203E+01 1.34405E+00-6.91117E-04 1.20048E+00 3.97175E-13 4.42410E-13
 -1       613 2.50884E+01-5.45721E+00 2.06671E-05 3.84896E+00-1.15512E-13-5.28397E-13
 -1       614 1.99623E+01 2.84225E+00-6.14432E-03-8.68013E-01-1.01585E-13-4.94381E-13
 -1       615 1.53431E+01-3.73843E+00 1.15175E-01 6.05699E+00-7.52572E-13-3.30985E-14
 -1       616 2.88892E+01 9.21240E-01-1.13825E-01-1.69557E+00-5.36605E-13 5.33504E-13
 -1       617 8.82337E+00-1.10197E+00 1.72499E-01 3.68418E+00-3.60212E-13 4.73566E-13
 -1       618 2.86450E+01 5.25774E+00-1.45672E-01-1.70684E+00-8.55975E-13 4.23397E-13
 -1       619 1.99991E+01-1.05875E-03-3.66097E-06 5.74462E-03 8.08348E-14 4.62184E-13
 -1       620 2.02894E+01 2.40386E+00-5.64983E-03-1.04779E+00-1.70758E-13-4.79762E-13
 -1       621 6.70678E+00-6.76375E-01 1.70293E-01 1.63956E+00 1.39133E-13-7.64361E-13
 -1       622 1.94396E+01 2.96550E+00-1.33190E-03 1.89048E-01 2.85519E-13-2.72337E-13
 -1       623 1.93420E+01 3.06366E+00-1.23993E-03 8.60682E-02 2.31642E-13-3.18834E-13
 -1       624 1.99319E+01 2.41437E+00-1.45833E-03 4.09535E-01 3.75858E-13-1.05653E-13
 -1       625 2.02762E+01 1.93898E+00-2.02735E-03 5.02212E-01 3.87378E-13 3.77157E-15
 -1       626 2.05629E+01 1.23651E+00 2.72991E-03 3.06859E-01 3.47181E-13 1.15137E-13
 -1       627 2.83316E+01 2.31358E+00-1.15060E-01-2.73814E+00 5.06158E-13 2.02525E-13
 -1       628 1.33580E+01-3.13964E+00 1.11745E-01-6.16161E+00 2.92242E-13-1.38025E-13
 -1       629 2.72968E+01-2.78059E+00-6.47381E-02 3.06606E-01 2.28199E-13-2.03407E-13
 -1       630 2.04520E+01 9.14404E-01 6.25421E-04 2.32466E-01-1.05574E-13-2.71113E-13
 -1       631 2.04384E+01 6.47715E-01 2.39855E-04 6.11195E-01-1.07693E-13-2.04656E-13
 -1       632 2.04576E+01 4.49993E-01 1.56502E-04 9.04984E-01-1.00424E-13-1.96551E-13
 -1       633 2.05313E+01 2.61468E-01 4.35661E-05 1.12549E+00-7.96705E-14-1.73143E-13
 -1       634 2.06801E+01 3.66126E-02-8.53887E-05 1.27252E+00-4.21449E-14-1.01342E-13
 -1       635 2.09313E+01-2.62934E-01-2.94827E-04 1.33041E+00-5.82198E-15 4.39319E-15
 -1       636 2.13186E+01-6.59826E-01-6.14302E-04 1.26468E+00 1.54098E-14 7.16923E-14
 -1       637 2.18710E+01-1.13829E+00-9.42312E-04 1.02082E+00 2.88733E-14 4.59136E-14
 -1       638 2.25843E+01-1.60343E+00-1.45258E-03 5.32615E-01-1.35088E-14-6.90149E-16
 -1       639 2.33705E+01-1.83179E+00-2.83221E-03-2.36734E-01-3.60343E-14 1.16826E-14
 -1       640 2.40254E+01-1.47643E+00-5.56875E-03-1.19520E+00-7.71271E-14 4.98787E-14
 -1       641 2.42174E+01-2.79693E-01-3.35149E-03-1.93646E+00-2.03868E-13 1.07484E-13
 -1       642 2.40089E+01 1.62946E+00-9.49909E-03-1.97827E+00-3.49772E-13 7.12451E-14
 -1       643 2.33622E+01 3.18263E+00-8.62292E-02-7.40370E-01-3.28606E-13-1.04626E-13
 -1       644 2.34953E+01 3.07388E+00-4.44581E-02 9.66104E-01-1.56654E-13-2.04837E-13
 -1       645 2.39877E+01 1.54079E+00-2.50585E-02 2.08997E+00-3.37321E-14-9.40064E-14
 -1       646 2.42927E+01-3.14165E-01-1.12600E-02 2.06018E+00 2.65976E-14-3.19122E-14
 -1       647 2.40275E+01-1.48035E+00-2.60883E-03 1.25758E+00 9.23818E-14-8.48826E-14
 -1       648 2.33569E+01-1.78622E+00 3.46144E-04 3.12011E-01 1.31914E-13-8.35299E-14
 -1       649 2.25609E+01-1.53034E+00-1.41156E-05-4.26248E-01 1.54922E-13-1.47740E-14
 -1       650 2.18492E+01-1.06158E+00-3.22818E-04-8.80636E-01 5.68703E-14-1.87175E-14
 -1       651 2.12990E+01-5.97715E-01-3.31959E-04-1.09919E+00 1.56531E-13-1.30792E-13
 -1       652 2.09075E+01-2.31369E-01-2.74346E-04-1.15518E+00 1.45834E-13-1.81201E-13
 -1       653 2.06410E+01 1.95482E-02-1.79121E-04-1.11025E+00 6.99415E-14-1.08113E-13
 -1       654 2.04625E+01 1.70367E-01-9.28864E-05-1.00872E+00 1.80553E-14-1.30387E-13
 -1       655 2.03420E+01 2.46223E-01-2.82994E-05-8.80428E-01 1.07798E-14 1.18241E-13
 -1       656 2.02587E+01 2.71236E-01 1.53009E-05-7.44732E-01 1.17445E-13 1.58106E-13
 -1       657 2.01991E+01 2.64714E-01 4.12382E-05-6.13626E-01 1.53711E-14 1.12386E-13
 -1       658 2.01546E+01 2.40662E-01 5.38422E-05-4.93993E-01 1.55863E-14 1.30319E-13
 -1       659 2.01205E+01 2.08543E-01 5.73033E-05-3.89209E-01-2.48243E-14 1.80999E-13
 -1       660 2.00937E+01 1.74360E-01 5.50716E-05-3.00314E-01 2.00408E-15 1.49185E-13
 -1       661 2.00724E+01 1.41653E-01 4.97006E-05-2.26868E-01-3.12200E-14-3.98017E-14
 -1       662 2.00554E+01 1.12292E-01 4.29388E-05-1.67568E-01-6.47184E-14 4.94130E-14
 -1       663 2.00418E+01 8.70670E-02 3.59031E-05-1.20679E-01-1.32993E-13 3.31893E-13
 -1       664 2.00311E+01 6.61047E-02 2.92526E-05-8.43278E-02-4.91403E-14 1.47417E-13
 -1       665 2.00228E+01 4.91456E-02 2.33288E-05-5.66867E-02-1.04416E-13 4.99070E-14
 -1       666 2.00163E+01 3.57304E-02 1.82448E-05-3.60842E-02 1.01967E-13 2.78805E-13
 -1       667 2.00114E+01 2.53143E-02 1.39853E-05-2.10610E-02 1.03704E-13 3.37247E-13
 -1       668 2.00078E+01 1.73365E-02 1.03709E-05-1.03919E-02 3.42270E-14 1.75399E-13
 -1       669 2.00051E+01 1.12541E-02 6.77089E-06-3.08346E-03-1.17243E-13 2.99128E-13
 -1       670 2.00031E+01 6.54364E-03 7.82513E-06 1.62522E-03-9.78917E-14 3.71761E-13
 -1       671 2.00017E+01 2.73569E-03 1.97532E-06 4.30971E-03 2.11064E-13 2.08884E-13
 -1       672 2.05198E+01 4.71065E-01 3.67663E-04-1.31840E+00 1.16305E-13 2.91928E-14
 -1       673 2.72344E+01-3.48532E+00-3.46090E-02 5.92634E-01-8.70755E-14 5.31668E-13
 -1       674 2.04710E+01 5.61388E-01 4.86625E-04-1.01638E+00 1.30867E-13 5.77530E-14
 -1       675 2.08140E+01 1.65839E-01-7.51280E-05-1.78715E+00 4.75311E-14 6.07597E-14
 -1       676 2.11317E+01-1.70677E-01-5.44458E-04-1.91730E+00 6.57564E-14 4.08107E-14
 -1       677 2.16588E+01-7.13795E-01-9.28946E-04-1.90668E+00 1.44550E-14 7.98118E-14
 -1       678 2.24961E+01-1.47413E+00-9.32034E-04-1.64661E+00-4.64687E-14 1.00813E-13
 -1       679 2.37089E+01-2.30480E+00-2.02040E-03-9.78402E-01-1.22964E-13 1.96356E-13
 -1       680 2.51933E+01-2.70222E+00-1.68275E-03 2.29185E-01-2.59191E-13 2.44398E-13
 -1       681 2.64428E+01-1.82717E+00-2.37147E-02 1.78526E+00-1.12705E-14 2.77019E-13
 -1       682 2.65896E+01 4.11880E+00-1.34406E-01 1.68931E+00 3.06609E-13 4.03953E-13
 -1       683 2.56152E+01-2.49894E+00-1.64659E-02-8.73688E-01 2.14375E-13-1.44526E-14
 -1       684 2.42702E+01-2.50125E+00 6.56665E-03 5.07200E-01-3.44139E-14-2.86543E-14
 -1       685 2.29147E+01-1.71972E+00-2.36076E-04 1.33076E+00-2.16412E-13-2.99809E-14
 -1       686 2.19576E+01-9.03260E-01-9.54611E-04 1.69258E+00-3.17818E-13 1.93966E-13
 -1       687 2.13446E+01-2.90131E-01-5.98900E-04 1.75681E+00-2.03457E-13 2.73466E-13
 -1       688 2.09675E+01 9.27214E-02-1.82766E-04 1.66008E+00-1.95614E-13 1.92807E-13
 -1       689 2.07329E+01 2.94678E-01 1.39991E-04 1.48409E+00 3.04430E-14 2.18934E-13
 -1       690 2.05779E+01 3.76021E-01 3.04250E-04 1.27759E+00 4.59404E-14 4.33060E-13
 -1       691 2.04660E+01 3.85718E-01 3.57473E-04 1.06887E+00 1.13837E-13 1.70556E-13
 -1       692 2.03784E+01 3.57476E-01 3.49329E-04 8.73653E-01 3.69480E-13 2.10279E-13
 -1       693 2.03059E+01 3.12354E-01 3.11950E-04 6.99836E-01 2.00652E-13-1.94531E-14
 -1       694 2.02446E+01 2.62549E-01 2.64071E-04 5.50404E-01-1.35889E-13-1.44446E-13
 -1       695 2.01927E+01 2.14582E-01 2.15717E-04 4.25361E-01-1.53385E-13-1.95868E-13
 -1       696 2.01494E+01 1.71559E-01 1.71692E-04 3.23016E-01-1.35224E-13-1.16314E-13
 -1       697 2.01137E+01 1.34627E-01 1.33846E-04 2.40837E-01 3.86324E-15-8.59624E-14
 -1       698 2.00849E+01 1.03876E-01 1.02480E-04 1.75985E-01 2.07770E-13-1.73267E-13
 -1       699 2.00621E+01 7.88583E-02 7.71516E-05 1.25638E-01 3.02189E-13 1.54403E-13
 -1       700 2.00444E+01 5.88923E-02 5.71102E-05 8.71749E-02 9.01190E-14 4.23729E-13
 -1       701 2.00309E+01 4.32248E-02 4.15151E-05 5.82701E-02-5.51596E-14 2.46238E-13
 -1       702 2.00209E+01 3.11178E-02 2.95933E-05 3.69255E-02-1.35694E-13-2.68953E-13
 -1       703 2.00136E+01 2.18886E-02 2.05667E-05 2.14719E-02 9.13375E-14-5.59376E-13
 -1       704 2.00084E+01 1.49236E-02 1.37578E-05 1.05517E-02 1.76316E-13-6.94066E-13
 -1       705 2.00049E+01 9.68046E-03 8.28888E-06 3.09592E-03 5.99466E-14-6.71057E-13
 -1       706 2.00026E+01 5.69725E-03 5.17620E-06-1.71942E-03 1.36759E-13-4.20264E-13
 -1       707 2.00011E+01 2.52916E-03 8.17961E-06-4.49736E-03 2.75956E-13-1.52052E-13
 -1       708 2.00008E+01 5.00335E-04 1.93979E-06-5.40565E-03 8.86273E-14 7.76886E-14
 -1       709 2.31292E+01-5.02847E+00 2.82007E-02 3.78071E+00-4.38016E-13-2.46602E-13
 -1       710 2.00028E+01 5.90924E-03 1.50604E-06-2.87646E-04 6.98345E-14-1.54614E-13
 -1       711 2.00010E+01 4.92315E-04-5.53891E-06 5.19863E-03 2.67466E-13-1.82130E-13
 -1       712 2.00031E+01 4.21145E-03 2.63384E-07-2.16874E-03 5.82558E-14 8.91374E-14
 -1       713 2.00028E+01 5.93000E-03 1.92642E-06 4.67824E-04-5.63950E-14-7.38984E-14
 -1       714 2.00030E+01 5.29494E-03 9.22713E-07-1.13412E-03-1.17059E-13-2.49860E-14
 -1       715 2.00029E+01 5.36390E-03 1.98249E-06 1.26392E-03-3.12825E-13 2.86842E-13
 -1       716 2.00030E+01 4.30392E-03 7.26786E-07 2.24712E-03-8.94316E-14 5.53768E-14
 -1       717 2.00027E+01 3.00352E-03 3.19003E-06 3.39774E-03 9.65846E-14 2.80495E-13
 -1       718 2.04562E+01 1.59425E+00 1.15203E-03-5.31973E-01-1.78866E-13-3.83402E-13
 -1       719 2.67147E+01 5.97293E+00-1.68922E-01 1.88380E-02-5.02647E-13-1.26791E-14
 -1       720 2.55166E+01-4.61686E+00 7.87752E-03-2.33446E+00 4.85077E-13-1.92901E-14
 -1       721 2.36148E+01-5.16347E+00 1.31467E-02 3.95392E+00 9.10834E-14 3.21640E-13
 -1       722 8.36650E+00 1.61548E-01 1.48633E-01-5.16973E-01-2.30630E-13 5.43635E-13
 -1       723 1.99287E+01-4.84902E+00 6.27602E-02-5.62098E+00 4.49359E-13 4.88776E-14
 -1       724 1.33362E+01-2.62097E+00 1.18819E-01-5.63467E+00-2.60857E-13-2.73354E-13
 -1       725 2.04690E+01 6.80895E-01 9.38900E-04-6.62077E-01 1.51868E-13 8.82622E-14
 -1       726 2.06262E+01 3.57883E-01 2.14478E-04-1.57779E+00 6.95028E-14 1.12886E-14
 -1       727 2.04690E+01 1.18520E+00-1.18988E-03-1.24041E-01-1.23646E-13-3.40253E-13
 -1       728 2.05042E+01 8.81501E-01 1.31398E-03-2.32631E-01 2.56412E-13 8.22643E-14
 -1       729 2.73493E+01-4.18670E+00-4.50792E-02 8.31656E-01 1.39261E-13-5.17138E-13
 -1       730 1.96416E+01 2.75154E+00-1.44986E-03 2.96960E-01 3.39490E-13-2.05608E-13
 -1       731 1.96821E+01 2.70353E+00-1.55034E-03-2.68647E-01 4.39203E-14-4.03870E-13
 -1       732 9.33043E+00-7.59370E-01 1.44911E-01-3.73593E+00 4.89747E-14 6.41619E-13
 -1       733 9.19463E+00-7.34951E-01 1.52362E-01-3.23242E+00-8.43822E-14-5.38854E-13
 -1       734 1.05702E+01-1.72917E+00 1.53348E-01 4.97298E+00 3.12913E-13-6.11074E-13
 -1       735 2.78524E+01-2.82087E+00-5.07841E-02 9.32424E-01-2.15797E-13 1.72265E-13
 -1       736 2.79097E+01 7.78083E-01-1.01466E-01 2.67346E+00 2.40124E-13 4.75425E-13
 -1       737 1.93462E+01-4.73130E+00 7.16401E-02-5.65582E+00-3.17565E-13-2.03391E-13
 -1       738 2.48727E+01-5.13923E+00 7.54806E-03-3.02045E+00-2.46735E-13-6.92692E-14
 -1       739 2.90476E+01-1.34544E+00-6.81793E-02-1.71231E+00 3.20272E-13-1.45828E-13
 -1       740 1.79559E+01-4.21554E+00 7.16107E-02 5.91828E+00 2.82871E-13-1.01662E-13
 -1       741 2.70743E+01 4.09860E+00-1.38177E-01 2.11556E+00-3.20050E-13-3.74669E-13
 -1       742 2.78540E+01 1.27651E+00-1.16940E-01 2.22051E+00-5.33046E-14-3.03684E-13
 -1       743 1.99720E+01 2.36207E+00-4.14374E-04-4.10807E-01-4.52695E-14-4.01390E-13
 -1       744 1.93548E+01 3.05016E+00-1.24366E-03-1.93682E-02 1.74287E-13-3.87312E-13
 -1       745 2.01722E+01-4.01907E+00 5.93813E-02 4.61567E+00-5.38887E-13 5.12238E-14
 -1       746 2.00029E+01 2.86299E-03-1.03020E-06-3.36825E-03 1.90277E-14 4.05062E-13
 -1       747 2.68268E+01-1.14852E+00-5.49102E-02-2.44432E+00 1.64844E-13-7.12529E-14
 -1       748 2.00021E+01 1.54148E-03-7.17972E-07-4.47468E-03-1.01835E-13-1.00389E-13
 -1       749 2.73364E+01 2.41632E+00-8.81567E-02-2.29742E+00-6.09159E-13 4.56444E-13
 -1       750 1.29975E+01-1.63939E+00 1.08514E-01 4.75048E+00-6.07379E-13 5.60454E-14
 -1       751 9.85043E+00 2.12727E-01 1.12197E-01 1.67109E+00-2.18496E-13 3.65499E-13
 -1       752 2.75307E+01-1.85228E+00-8.61143E-02-1.05364E+00-2.45009E-13 5.34187E-13
 -1       753 1.94728E+01 2.92938E+00-1.32206E-03-1.36400E-01 1.01233E-13-3.79958E-13
 -1       754 8.86790E+00 9.65714E-02 1.29088E-01-9.86254E-01 5.74016E-14-5.72639E-13
 -1       755 1.52138E+01-2.34353E+00 8.08283E-02 5.26590E+00 4.17123E-13-3.35471E-13
 -1       756 2.00025E+01 3.12844E-03 1.04421E-05 3.87446E-03-1.05008E-13-2.07347E-13
 -1       757 2.60608E+01-8.55083E-01-3.88005E-02 1.88639E+00 1.75950E-13-4.33215E-13
 -1       758 2.01442E+01 1.70997E+00 7.88202E-04 5.69078E-02 3.15316E-13-3.53521E-14
 -1       759 1.33311E+01-8.33093E-01 7.72458E-02-3.95484E+00-5.67697E-14-2.44126E-13
 -1       760 2.01959E+01 8.11559E-01 9.40647E-05 7.62866E-01-6.70679E-14-2.74284E-13
 -1       761 2.01789E+01 5.70354E-01 4.18177E-05 1.05591E+00-7.69561E-14-2.17194E-13
 -1       762 2.02070E+01 3.17267E-01 3.48497E-05 1.30194E+00-2.87968E-14-1.97251E-13
 -1       763 2.03217E+01-2.23967E-03 1.89942E-05 1.50200E+00 5.11714E-14-1.48689E-13
 -1       764 2.05783E+01-4.37542E-01-3.74432E-05 1.64105E+00 6.49325E-14-5.55301E-14
 -1       765 2.10487E+01-1.01986E+00-1.12676E-04 1.67789E+00 3.39867E-14 2.75803E-14
 -1       766 2.18088E+01-1.72657E+00 3.11906E-04 1.52925E+00 5.96627E-14 1.32869E-13
 -1       767 2.29001E+01-2.41376E+00 8.15363E-05 1.05648E+00 5.09466E-14 2.37131E-13
 -1       768 2.42166E+01-2.68411E+00-5.18086E-03 1.04382E-01-9.85692E-15 3.08986E-13
 -1       769 2.53033E+01-1.92739E+00-3.76984E-02-1.25915E+00-1.30378E-13 2.47294E-13
 -1       770 2.50685E+01-2.56030E+00 2.27823E-03 5.20394E-01 1.77560E-13-1.51086E-13
 -1       771 2.35824E+01-2.76828E+00-7.22720E-05-6.96420E-01 1.46244E-13-4.79976E-14
 -1       772 2.22312E+01-2.16703E+00 4.92104E-05-1.36675E+00 1.60412E-13-9.38411E-14
 -1       773 2.12249E+01-1.38832E+00-6.01459E-04-1.61270E+00 9.13635E-14-7.18649E-14
 -1       774 2.05704E+01-7.08889E-01-4.17637E-04-1.60960E+00 2.64644E-14 1.40932E-13
 -1       775 2.01859E+01-2.09246E-01-2.95415E-04-1.48809E+00 1.30599E-13 5.29185E-14
 -1       776 1.99832E+01 1.17815E-01-1.22921E-04-1.31872E+00 2.07314E-13 6.48744E-14
 -1       777 1.98925E+01 3.07443E-01-2.84208E-05-1.13684E+00 8.21216E-14 8.94876E-14
 -1       778 1.98656E+01 3.98098E-01 1.10462E-05-9.59487E-01 8.92581E-14 1.86164E-13
 -1       779 1.98718E+01 4.22697E-01 2.30715E-05-7.94984E-01 9.06270E-15 1.54614E-13
 -1       780 1.98927E+01 4.06511E-01 2.18766E-05-6.47352E-01 5.19742E-14 1.28064E-13
 -1       781 1.99177E+01 3.67674E-01 1.54035E-05-5.18257E-01-3.72829E-14 7.26570E-14
 -1       782 1.99414E+01 3.18514E-01 7.94319E-06-4.07891E-01-1.21304E-13-2.29295E-13
 -1       783 1.99616E+01 2.66964E-01 1.51859E-06-3.15463E-01-8.92790E-14-2.34164E-13
 -1       784 1.99774E+01 2.17787E-01-3.18247E-06-2.39535E-01-1.13905E-14-9.14817E-14
 -1       785 1.99891E+01 1.73560E-01-6.16136E-06-1.78295E-01 3.17908E-14 1.33481E-13
 -1       786 1.99972E+01 1.35403E-01-7.71426E-06-1.29768E-01-6.82759E-14 1.50820E-13
 -1       787 2.00025E+01 1.03520E-01-8.21898E-06-9.19802E-02-2.32483E-13 3.16235E-13
 -1       788 2.00055E+01 7.75647E-02-8.03597E-06-6.30664E-02-8.45136E-14 3.67220E-13
 -1       789 2.00069E+01 5.68962E-02-7.46374E-06-4.13439E-02 1.81944E-13 3.82892E-13
 -1       790 2.00072E+01 4.07381E-02-6.71817E-06-2.53483E-02 9.61472E-14 1.01838E-13
 -1       791 2.00067E+01 2.82848E-02-5.78875E-06-1.38491E-02-1.26132E-13-2.70772E-13
 -1       792 2.00058E+01 1.87481E-02-5.48053E-06-5.83562E-03-4.56989E-14-2.29022E-13
 -1       793 2.00046E+01 1.13802E-02-1.28133E-05-5.25352E-04-5.08309E-15-3.61438E-14
 -1       794 2.00036E+01 6.80363E-03-3.48580E-06 2.11102E-03-1.36966E-13 4.67201E-14
 -1       795 2.02160E+01-3.11336E-01 1.42896E-04-2.32242E+00 1.42931E-14-4.29432E-14
 -1       796 2.00060E+01 1.98845E-01 6.82762E-05-2.05383E+00 7.06809E-14-6.04808E-14
 -1       797 2.18005E+01-2.27361E+00 9.17277E-03-2.55638E+00-1.64314E-13 6.67643E-14
 -1       798 2.36088E+01-3.54199E+00 2.95963E-03-2.08017E+00-2.19553E-13 6.79789E-14
 -1       799 2.54024E+01-4.16323E+00-1.15395E-02 1.24448E+00 7.18028E-14-8.10896E-14
 -1       800 2.03049E+01-4.94283E-01 1.07770E-03 2.23379E+00-2.51444E-13 3.21995E-13
 -1       801 1.99932E+01 8.80692E-02 1.64141E-04 1.97431E+00-1.09554E-13 1.44819E-13
 -1       802 1.98870E+01 4.06100E-01 1.30624E-04 1.70251E+00-1.22999E-13 1.55395E-13
 -1       803 1.98779E+01 5.46280E-01 1.47647E-04 1.44332E+00-2.03460E-14 1.19064E-13
 -1       804 1.99067E+01 5.77602E-01 1.41184E-04 1.20499E+00 8.28730E-14 9.52924E-14
 -1       805 1.99437E+01 5.48078E-01 1.23227E-04 9.90853E-01 2.55457E-13 5.08689E-14
 -1       806 1.99763E+01 4.88693E-01 1.02645E-04 8.02354E-01 2.78301E-13 1.62501E-13
 -1       807 2.00003E+01 4.18270E-01 8.32680E-05 6.39702E-01 1.48647E-13 2.43655E-13
 -1       808 2.00157E+01 3.47558E-01 6.63107E-05 5.02043E-01-1.99488E-14 1.98097E-13
 -1       809 2.00242E+01 2.82192E-01 5.20251E-05 3.87674E-01-5.72045E-14-2.40089E-13
 -1       810 2.00276E+01 2.24716E-01 4.02571E-05 2.94313E-01-5.32187E-14-3.54410E-13
 -1       811 2.00276E+01 1.75876E-01 3.07253E-05 2.19374E-01-1.28971E-13-3.39661E-13
 -1       812 2.00257E+01 1.35424E-01 2.31180E-05 1.60195E-01-6.34382E-15 1.39087E-13
 -1       813 2.00227E+01 1.02613E-01 1.71299E-05 1.14204E-01-5.60114E-14 3.15776E-13
 -1       814 2.00193E+01 7.64732E-02 1.24733E-05 7.90369E-02 6.58575E-14 1.37919E-13
 -1       815 2.00159E+01 5.59845E-02 8.86334E-06 5.25934E-02 1.38165E-13-2.44814E-13
 -1       816 2.00128E+01 4.01590E-02 6.23511E-06 3.30682E-02 1.63269E-13-4.56883E-13
 -1       817 2.00099E+01 2.80875E-02 4.38458E-06 1.89485E-02 1.89332E-13-6.74101E-13
 -1       818 2.00075E+01 1.89433E-02 3.45218E-06 8.99911E-03 1.19758E-14-2.66345E-13
 -1       819 2.00054E+01 1.20157E-02 1.56266E-06 2.29090E-03 5.91065E-14-3.55993E-13
 -1       820 2.00037E+01 6.67107E-03 2.05298E-06-1.96085E-03 8.32448E-14-5.18214E-13
 -1       821 2.00028E+01 4.04682E-03-9.84548E-06-3.53111E-03-4.49070E-14-3.12542E-13
 -1       822 2.00032E+01 1.30340E-02-1.32217E-06 1.36210E-04 2.80938E-13 7.80185E-14
 -1       823 2.00039E+01 9.17657E-03-6.12537E-06 1.14757E-03-5.18482E-14 2.04559E-13
 -1       824 2.00031E+01 1.35643E-02 8.96283E-07 1.11186E-04 1.70209E-14-1.24891E-13
 -1       825 2.01742E+01 9.29835E-01 5.58084E-05-8.09260E-01 1.67106E-13-1.50364E-14
 -1       826 2.55424E+01-3.54626E+00-2.17187E-02-4.90056E-01 3.38893E-13-1.34921E-13
 -1       827 2.00036E+01 1.14826E-02-5.64013E-06 4.35917E-04-1.61487E-14 1.87963E-13
 -1       828 2.21888E+01-4.17485E+00 2.91845E-02-3.73871E+00-2.49467E-13-1.26848E-13
 -1       829 2.09834E+01-1.41104E+00 2.85256E-03 2.41468E+00-4.27058E-13 3.36291E-13
 -1       830 2.23487E+01-2.71431E+00-8.09988E-03 2.34858E+00-2.96600E-13 2.20436E-13
 -1       831 2.13413E+01-4.12660E+00 1.80246E-02 4.14211E+00 2.51345E-13 1.62861E-13
 -1       832 2.76521E+01 3.26279E+00-1.29446E-01-2.55369E+00 5.12507E-13 2.77549E-13
 -1       833 2.03477E+01 1.28612E+00 5.36787E-04-7.85635E-02 2.87612E-13 3.51071E-14
 -1       834 2.07447E+01-1.12719E+00 2.91158E-03-2.53166E+00-2.66063E-14-2.70396E-14
 -1       835 1.10565E+01 3.07584E-01 8.05154E-02-2.15415E+00-9.66345E-14 3.32945E-13
 -1       836 2.00870E+01 7.90983E-01 3.99499E-05-1.15552E+00 1.35873E-13-4.39512E-14
 -1       837 2.51163E+01-4.05482E+00-2.82772E-04 1.49805E+00-4.31781E-14 3.90174E-13
 -1       838 1.78812E+01-2.94731E+00 5.60959E-02-4.93828E+00-2.03676E-13-1.87579E-13
 -1       839 2.02262E+01 1.09681E+00-2.91392E-05 4.17328E-01-7.12175E-14-3.02342E-13
 -1       840 2.02222E+01 2.00674E+00 7.06929E-04-4.90883E-01-1.13279E-13-4.20361E-13
 -1       841 2.57647E+01-3.81264E+00-9.16107E-03-6.63770E-01-2.15954E-13 3.70502E-14
 -1       842 1.39917E+01-1.35367E+00 7.46440E-02-4.62641E+00 1.37690E-13-6.83516E-14
 -1       843 1.82129E+01-3.13557E+00 4.11617E-02-4.94801E+00 2.43748E-13-1.48319E-16
 -1       844 2.28008E+01-4.27877E+00 1.98092E-02-3.28256E+00 3.65552E-13 1.38421E-13
 -1       845 1.94220E+01 2.55048E+00-2.89332E-04 4.93337E-02 2.28486E-13-2.42760E-13
 -1       846 1.02649E+01-1.30689E-01 1.17971E-01 2.70032E+00 2.49707E-13-5.55514E-13
 -1       847 1.93835E+01 2.58954E+00-2.76241E-04 4.94785E-02 1.66063E-13-3.13559E-13
 -1       848 1.98298E+01 2.10771E+00-2.33085E-04 5.18571E-02 2.98479E-13-1.45514E-13
 -1       849 2.33608E+01-4.05003E+00 1.93177E-02 2.73827E+00-5.80109E-14 8.35898E-14
 -1       850 1.74750E+01-2.51276E+00 5.54483E-02 4.67081E+00-4.25522E-13 2.46867E-13
 -1       851 1.21042E+01 1.30812E-01 6.58710E-02-2.55237E+00 4.33659E-14-3.24010E-13
 -1       852 2.00041E+01 9.11174E-03-1.83588E-06-1.04728E-03-1.62773E-13 3.69208E-13
 -1       853 2.02444E+01 1.36586E+00-3.02767E-04 1.11250E-01-4.50143E-14-3.19783E-13
 -1       854 2.59509E+01 7.32338E-01-3.31890E-02 2.35088E+00 1.11584E-13-4.94908E-13
 -1       855 2.00096E+01 6.66785E-01 1.01801E-04-1.47074E+00 8.55386E-14-3.90624E-14
 -1       856 1.11598E+01 7.31850E-01 6.51193E-02-2.94232E-01-1.85296E-13 5.04064E-13
 -1       857 1.99669E+01 4.94051E-01 1.24492E-04-1.76744E+00 4.80541E-14-5.18739E-14
 -1       858 2.00038E+01 1.14305E-02-1.83280E-06-2.78373E-04-7.37372E-14 3.68058E-13
 -1       859 2.00033E+01 1.29910E-02-6.48577E-07 6.19313E-05-3.05304E-14-1.78591E-13
 -1       860 2.02749E+01 1.06302E+00-3.99468E-04-4.69559E-01 1.97263E-13 1.38759E-14
 -1       861 1.25114E+01-1.98809E-01 6.77926E-02 3.12408E+00-3.35360E-13 7.64840E-14
 -1       862 1.88255E+01-2.83376E+00 4.00697E-02 4.43049E+00 3.65811E-13-7.79750E-14
 -1       863 2.57942E+01 4.05694E+00-9.03786E-02-1.53613E+00-5.42538E-13 8.67015E-14
 -1       864 1.95765E+01 2.38959E+00-3.19276E-04 4.80582E-02 2.75873E-13-2.06662E-13
 -1       865 1.36200E+01-7.38993E-01 5.88057E-02 3.87615E+00 3.16321E-13-3.72919E-13
 -1       866 1.96431E+01 2.31927E+00-1.93302E-05 5.69233E-03 6.59814E-14-3.54962E-13
 -1       867 1.99017E+01 2.02416E+00-3.45049E-05-3.71037E-02-3.88465E-15-3.48044E-13
 -1       868 1.97746E+01 6.82731E-01 5.53736E-06 1.16592E+00-1.80923E-14-1.58905E-13
 -1       869 1.97274E+01 3.82738E-01 6.59713E-05 1.45507E+00 5.18782E-14-1.01613E-13
 -1       870 1.97707E+01-1.43961E-02 1.66689E-04 1.74665E+00 8.59696E-14-1.11223E-13
 -1       871 1.99853E+01-5.72781E-01 3.65561E-04 2.03700E+00 1.50545E-13-8.73038E-14
 -1       872 2.04919E+01-1.34593E+00 2.13937E-03 2.28647E+00 1.18713E-13 6.10946E-14
 -1       873 2.14432E+01-2.32588E+00 7.41883E-03 2.37967E+00 1.20792E-13 1.34695E-13
 -1       874 2.29930E+01-3.33183E+00 4.77446E-03 2.05920E+00 1.18164E-13 2.48497E-13
 -1       875 1.41234E+01-2.33177E-02 3.12297E-02-2.98059E+00 2.07854E-13 8.27836E-14
 -1       876 2.18798E+01-2.91132E+00 1.07009E-02-2.44073E+00 4.19692E-14 1.15428E-13
 -1       877 2.05662E+01-1.78706E+00 3.30628E-03-2.41404E+00 1.68829E-13 1.14193E-13
 -1       878 1.98392E+01-8.80695E-01 1.27681E-03-2.14137E+00 1.97547E-13-1.39591E-16
 -1       879 1.94848E+01-2.36823E-01 2.62158E-04-1.81825E+00 8.99550E-15 2.64233E-14
 -1       880 1.93585E+01 1.76345E-01 2.25812E-04-1.51351E+00 1.44226E-13 9.89367E-14
 -1       881 1.93570E+01 4.15683E-01 1.73857E-04-1.24779E+00 1.17360E-13-5.02017E-14
 -1       882 1.94187E+01 5.31840E-01 1.17439E-04-1.02149E+00 1.40021E-13-5.31256E-14
 -1       883 1.95067E+01 5.65502E-01 7.84935E-05-8.30052E-01 6.22905E-15-3.32224E-14
 -1       884 1.96001E+01 5.47258E-01 5.37352E-05-6.68469E-01 9.82449E-15-2.25208E-13
 -1       885 1.96876E+01 4.99164E-01 3.78328E-05-5.32612E-01-3.47366E-14-3.14289E-13
 -1       886 1.97639E+01 4.36545E-01 2.72492E-05-4.19186E-01-2.11641E-13-3.35657E-13
 -1       887 1.98273E+01 3.69579E-01 1.99164E-05-3.25414E-01-4.72479E-14-3.13817E-13
 -1       888 1.98780E+01 3.04638E-01 1.46483E-05-2.48804E-01-9.21545E-14-2.45565E-13
 -1       889 1.99173E+01 2.45368E-01 1.07652E-05-1.87037E-01 6.85329E-14-3.05234E-13
 -1       890 1.99467E+01 1.93536E-01 7.86177E-06-1.37935E-01-6.39443E-14-4.04881E-13
 -1       891 1.99680E+01 1.49672E-01 5.68101E-06-9.94727E-02-6.59217E-14-5.54681E-13
 -1       892 1.99829E+01 1.13530E-01 4.04034E-06-6.98045E-02-3.78703E-14-2.48812E-13
 -1       893 1.99929E+01 8.44180E-02 2.77211E-06-4.72901E-02-5.88556E-14-1.94448E-13
 -1       894 1.99992E+01 6.14222E-02 1.59116E-06-3.05029E-02-5.94266E-14-4.03525E-13
 -1       895 2.00027E+01 4.35375E-02-9.65608E-08-1.82376E-02-1.70643E-13-2.21315E-13
 -1       896 2.00044E+01 2.97791E-02 1.03041E-06-9.50754E-03-1.65669E-14 1.01690E-13
 -1       897 2.00047E+01 1.91988E-02 5.81893E-06-3.49192E-03 2.76960E-13 2.04313E-13
 -1       898 1.88967E+01 2.88931E-01 1.31330E-04-2.22991E+00 2.38374E-14-1.17386E-13
 -1       899 2.02410E+01-2.45752E+00 1.45277E-02-3.58003E+00-1.55633E-13-1.26484E-13
 -1       900 2.27551E+01-3.30550E+00 9.60010E-03 2.49171E+00-6.04122E-14 2.10926E-13
 -1       901 1.87141E+01 1.60239E-01 4.16827E-05 2.22995E+00-5.78774E-14-3.26220E-14
 -1       902 1.92360E+01 7.80977E-01 4.72858E-05 1.22435E+00 4.66724E-14 1.02161E-13
 -1       903 1.94174E+01 7.49839E-01 4.06187E-05 1.00549E+00 2.43657E-13-1.05387E-13
 -1       904 1.95689E+01 6.78124E-01 2.95604E-05 8.19524E-01 2.92314E-13-5.33387E-14
 -1       905 1.96896E+01 5.89039E-01 2.03770E-05 6.60680E-01 1.79010E-13-8.84255E-14
 -1       906 1.97825E+01 4.96673E-01 1.39986E-05 5.25674E-01 3.67800E-14-1.92949E-13
 -1       907 1.98521E+01 4.09038E-01 9.74552E-06 4.12179E-01 6.02685E-14-1.37867E-14
 -1       908 1.99030E+01 3.30237E-01 6.87346E-06 3.18103E-01-1.27022E-15 8.86822E-14
 -1       909 1.99394E+01 2.61944E-01 4.88432E-06 2.41321E-01-1.56627E-13-1.13541E-13
 -1       910 1.99648E+01 2.04377E-01 3.47464E-06 1.79650E-01-3.22570E-13-9.24695E-14
 -1       911 1.99820E+01 1.56927E-01 2.46160E-06 1.30909E-01-2.21216E-13 8.70173E-15
 -1       912 1.99932E+01 1.18561E-01 1.72768E-06 9.30105E-02-2.06534E-14 1.60534E-13
 -1       913 2.00002E+01 8.80690E-02 1.16697E-06 6.40293E-02 1.46119E-13 1.55710E-13
 -1       914 2.00041E+01 6.42111E-02 6.99395E-07 4.22527E-02 2.78395E-13 2.82708E-13
 -1       915 2.00059E+01 4.58014E-02-8.87447E-09 2.62078E-02 1.74630E-13 1.85525E-13
 -1       916 2.00064E+01 3.17451E-02 2.56949E-08 1.46447E-02-6.72640E-14 2.72334E-13
 -1       917 2.00060E+01 2.09969E-02-1.96322E-05 6.51348E-03 7.79278E-14 9.43346E-14
 -1       918 2.00050E+01 1.29731E-02 1.24907E-05 1.10908E-03 1.59179E-13 2.00193E-13
 -1       919 2.00026E+01 2.23794E-02-7.64931E-06-4.89444E-04 9.87360E-14 3.13065E-13
 -1       920 2.00037E+01 6.42064E-03 3.61907E-06-2.23612E-03-1.98597E-13 2.93497E-13
 -1       921 1.99351E+01 1.24035E+00 1.65673E-04 5.55949E-01-3.80719E-14-2.51432E-13
 -1       922 1.87830E+01-5.75305E-01 7.11669E-04 2.77485E+00-3.32226E-13 1.18998E-13
 -1       923 1.93690E+01-1.76150E+00 2.31919E-02 3.41227E+00-2.97726E-13 3.86335E-13
 -1       924 1.13089E+01 6.66346E-01 6.94175E-02 4.42105E-01 1.60717E-13-5.50920E-13
 -1       925 1.97584E+01 1.14592E+00-3.12350E-04-8.68392E-01 1.63945E-13-8.12460E-14
 -1       926 1.94622E+01 2.51027E+00-1.91929E-04 3.83953E-02 1.07930E-13-3.45032E-13
 -1       927 1.68373E+01-1.05643E+00 2.40906E-02-3.75598E+00-1.11356E-13-1.04167E-13
 -1       928 1.69896E+01-1.54355E+00 2.61125E-02-4.02950E+00 2.29873E-14-2.10838E-14
 -1       929 1.90345E+01 7.34844E-01 2.70426E-05 1.48695E+00-1.10603E-13 6.51911E-14
 -1       930 2.06563E+01-2.98847E+00 1.62293E-02-3.45347E+00 9.14004E-14 1.05233E-13
 -1       931 1.88402E+01 5.55447E-01-4.26117E-05 1.81256E+00-1.71523E-13-5.50291E-14
 -1       932 1.98592E+01 9.47645E-01 2.25848E-04 8.71579E-01-2.72511E-14-2.14485E-13
 -1       933 1.99480E+01 1.57267E+00-3.15424E-04-2.84838E-01 2.38163E-13-7.80546E-14
 -1       934 1.99772E+01 1.50353E+00-8.88542E-04 3.00514E-01-1.76713E-14-2.91173E-13
 -1       935 1.93400E+01 2.20004E+00-8.67111E-05 1.95981E-02 1.73324E-13-2.16114E-13
 -1       936 1.33727E+01 6.50346E-01 3.10841E-02-1.77092E+00 1.45942E-13-4.15805E-14
 -1       937 2.38118E+01-3.76195E+00-8.03835E-03-1.81560E+00 3.13564E-13-4.81091E-14
 -1       938 1.88481E+01-3.40892E-01 7.94267E-04-2.72475E+00 2.94425E-15-8.73765E-14
 -1       939 1.92394E+01-1.28455E+00 4.50719E-03-3.23903E+00-8.81582E-14-1.43612E-13
 -1       940 1.24305E+01 6.99739E-01 4.08791E-02 1.34718E+00-2.94859E-13 2.70983E-13
 -1       941 1.90856E+01 6.52054E-01 3.29503E-04-1.83389E+00 3.02686E-14-1.41903E-13
 -1       942 1.31325E+01 4.17270E-01 3.75752E-02 2.07358E+00 1.94752E-13-4.09867E-13
 -1       943 1.99332E+01 1.28816E+00 4.86565E-04-5.85184E-01 1.95604E-13-8.21657E-14
 -1       944 2.00027E+01 2.23212E-02-3.79784E-06 6.67045E-04-2.63293E-13 4.33285E-14
 -1       945 2.00032E+01 2.07064E-02-5.80586E-06-1.50786E-03 3.65699E-13 2.02220E-14
 -1       946 1.54487E+01-2.07211E-01 2.78214E-02-3.17009E+00-1.11388E-13-1.18600E-13
 -1       947 2.00039E+01 2.04323E-02-9.09601E-07-2.55651E-03 2.20825E-13-1.09281E-14
 -1       948 1.94358E+01 2.10804E+00-1.88132E-04-9.20957E-02 2.22705E-13-1.87775E-13
 -1       949 1.95561E+01 1.00380E+00-2.43395E-04-1.18536E+00 1.09266E-13-1.08920E-13
 -1       950 1.95213E+01 2.02458E+00-2.36250E-04 1.97743E-01 8.54012E-14-3.12543E-13
 -1       951 1.57671E+01-9.91063E-01 3.25428E-02 3.81220E+00-1.30792E-13 4.67838E-14
 -1       952 2.06146E+01-2.69240E+00 2.45672E-02 3.37317E+00 2.40269E-13 8.97208E-14
 -1       953 2.00045E+01 1.74956E-02-7.39916E-06 1.91182E-03-5.65137E-14 4.05911E-13
 -1       954 1.68798E+01-1.52255E+00 2.02309E-02 4.05861E+00 3.32623E-13-2.60892E-13
 -1       955 1.33917E+01 8.48915E-01 2.87711E-02-1.04915E+00 2.94318E-14-3.02160E-13
 -1       956 1.90608E+01 4.91847E-01-1.44179E-04 1.55248E+00 9.75544E-14-1.11017E-13
 -1       957 1.89425E+01 5.88234E-02 2.62504E-04 1.96669E+00 1.22931E-13-1.29946E-13
 -1       958 1.89715E+01-5.73717E-01 6.87568E-04 2.47779E+00 1.83105E-13-1.43985E-13
 -1       959 1.94823E+01-1.50067E+00-5.55862E-04 2.98435E+00 2.03850E-13-6.55164E-14
 -1       960 1.91174E+01 8.62995E-01-2.71771E-05 7.33189E-01 2.11766E-13 2.93930E-13
 -1       961 1.96502E+01 1.89493E+00-2.13235E-04-1.97992E-01 2.30920E-13-1.73875E-13
 -1       962 1.85819E+01-8.91399E-01 1.63268E-03-2.76252E+00 1.88416E-13 1.19046E-13
 -1       963 1.84504E+01-1.40344E-01 7.77031E-04-2.14332E+00-4.79917E-15 8.49001E-14
 -1       964 1.85264E+01 3.12601E-01 2.79970E-05-1.66380E+00 9.68774E-14 5.89279E-14
 -1       965 1.86905E+01 5.70566E-01 1.16952E-05-1.29701E+00 1.25561E-13 1.07711E-13
 -1       966 1.88869E+01 6.92214E-01-1.19741E-05-1.01707E+00-2.75793E-14 1.47387E-13
 -1       967 1.90837E+01 7.23581E-01-2.51702E-05-8.00752E-01 2.48021E-14-2.11181E-13
 -1       968 1.92655E+01 6.97558E-01-2.51465E-05-6.30719E-01-9.13567E-14-3.04910E-13
 -1       969 1.94251E+01 6.37662E-01-2.22318E-05-4.95240E-01-1.01021E-13-4.14355E-13
 -1       970 1.95604E+01 5.60640E-01-1.84761E-05-3.86452E-01-1.62238E-13-5.62669E-13
 -1       971 1.96716E+01 4.77982E-01-1.47309E-05-2.98898E-01-8.66626E-14-4.17496E-13
 -1       972 1.97607E+01 3.97166E-01-1.13898E-05-2.28604E-01 4.41951E-14-1.78908E-13
 -1       973 1.98305E+01 3.22682E-01-8.57974E-06-1.72511E-01 5.42935E-15-1.17225E-13
 -1       974 1.98838E+01 2.56875E-01-6.29761E-06-1.28142E-01-1.51560E-13-4.65825E-13
 -1       975 1.99235E+01 2.00606E-01-4.48551E-06-9.34177E-02-1.12170E-13-4.94450E-13
 -1       976 1.99523E+01 1.53767E-01-3.06452E-06-6.65720E-02 7.22615E-14-3.18938E-13
 -1       977 1.99727E+01 1.15658E-01-1.96165E-06-4.60966E-02-2.31402E-14-1.47368E-13
 -1       978 1.99864E+01 8.52638E-02-7.84663E-07-3.07201E-02-1.66512E-13-3.77886E-15
 -1       979 1.99952E+01 6.14582E-02-1.63701E-06-1.93613E-02-5.31425E-14-4.35418E-14
 -1       980 2.00004E+01 4.29760E-02-4.47562E-06-1.12038E-02 2.19054E-13 9.22118E-14
 -1       981 2.00028E+01 3.04385E-02 6.67140E-07-6.30270E-03 8.04446E-14 2.16930E-13
 -1       982 1.93240E+01 8.58124E-01-3.72934E-04-1.49831E+00 7.54985E-14-1.21904E-13
 -1       983 1.95980E+01 1.34556E+00 7.54437E-04 6.22878E-01 1.98717E-14-2.34902E-13
 -1       984 1.88365E+01 9.46253E-01-5.43412E-05 8.94453E-01 7.60118E-15 1.16412E-13
 -1       985 1.95151E+01 6.47956E-01-1.38544E-05 4.82735E-01 2.23885E-13 4.65892E-13
 -1       986 1.96498E+01 5.40775E-01-1.11517E-05 3.84664E-01-1.21090E-14 3.75424E-13
 -1       987 1.97521E+01 4.42366E-01-9.04157E-06 3.01915E-01-7.55539E-15 3.04646E-13
 -1       988 1.98287E+01 3.55414E-01-7.25710E-06 2.33058E-01-2.59901E-14 5.06332E-13
 -1       989 1.98851E+01 2.80810E-01-5.72845E-06 1.76672E-01-1.55500E-13 3.11167E-13
 -1       990 1.99260E+01 2.18314E-01-4.43369E-06 1.31270E-01-2.32064E-13 2.59294E-14
 -1       991 1.99549E+01 1.67026E-01-3.35224E-06 9.53334E-02-9.85442E-14-7.30775E-14
 -1       992 1.99749E+01 1.25699E-01-2.45427E-06 6.73756E-02-5.88251E-14-9.36490E-14
 -1       993 1.99882E+01 9.29473E-02-1.82191E-06 4.60077E-02-4.22588E-14 9.24197E-14
 -1       994 1.99966E+01 6.73802E-02-9.74150E-07 2.99656E-02 8.89818E-14 2.49149E-13
 -1       995 2.00015E+01 4.77007E-02 1.64580E-06 1.82615E-02-1.22537E-13 6.20508E-13
 -1       996 2.00039E+01 3.26260E-02 1.69699E-05 9.78847E-03 1.29582E-13 2.41240E-13
 -1       997 1.93726E+01 2.16896E+00-1.19973E-04 1.21267E-01 1.24715E-13-2.89135E-13
 -1       998 1.80669E+01 9.45360E-01-2.67782E-04 1.35564E+00-1.04060E-13-3.59385E-15
 -1       999 1.92228E+01-1.85949E+00 3.63415E-03-3.28985E+00 5.99857E-14 7.75584E-14
 -1      1000 1.84888E+01 9.85208E-01-1.26340E-04 1.09395E+00-7.89076E-14-1.15512E-13
 -1      1001 1.70103E+01 3.86166E-01 1.62279E-03 2.27801E+00-1.49316E-13 8.56312E-14
 -1      1002 1.63773E+01-1.34252E-01 1.11110E-02 2.91818E+00-2.02257E-13 1.22472E-13
 -1      1003 2.00035E+01 2.05901E-02 1.72488E-06 1.65450E-03-2.43691E-13-5.07271E-14
 -1      1004 1.65962E+01-3.01945E-01 1.03351E-02-2.89997E+00 1.13893E-13 1.30992E-13
 -1      1005 1.92429E+01 8.06435E-01-1.76184E-04 1.20707E+00 6.52877E-14-1.11894E-13
 -1      1006 1.75685E+01 7.74622E-01-4.81275E-04 1.72484E+00-1.09897E-13 1.73454E-13
 -1      1007 1.94325E+01 1.07160E+00-6.28035E-05 9.05815E-01 2.16592E-14-1.56700E-13
 -1      1008 1.93406E+01 7.58505E-01-1.81968E-05 5.97910E-01 1.74751E-13 3.91213E-13
 -1      1009 1.56466E+01 3.49149E-01 9.37825E-03-2.27062E+00 8.32493E-14 7.35855E-14
 -1      1010 1.96013E+01 1.60121E+00 8.27906E-04-4.37164E-01 1.95521E-13-1.45194E-13
 -1      1011 1.74076E+01 4.98093E-01 6.42308E-04-2.20322E+00 4.05874E-14-1.53582E-13
 -1      1012 1.70135E+01-7.37287E-02 1.22029E-02-2.85623E+00-4.87494E-14-1.43505E-13
 -1      1013 1.79886E+01 8.51658E-01 8.04524E-04-1.70749E+00 1.89055E-14-1.54934E-13
 -1      1014 1.54552E+01-2.00972E-01 2.14606E-02 3.00181E+00 2.33782E-13-2.41054E-13
 -1      1015 1.39724E+01 9.73282E-01 1.71394E-02 4.41541E-01 1.73749E-13-3.78903E-13
 -1      1016 2.00007E+01 3.37444E-02-3.91702E-07 2.73187E-04 1.22851E-13 5.26688E-13
 -1      1017 2.00011E+01 3.83157E-02-1.05623E-05 7.34624E-03 1.44247E-13-5.16174E-14
 -1      1018 1.92264E+01 1.88152E+00 9.12040E-05-1.10873E-01 1.85157E-13-1.58381E-13
 -1      1019 1.92023E+01 1.89781E+00-3.19151E-04 1.07104E-01 1.34673E-13-2.08683E-13
 -1      1020 2.00013E+01 3.25504E-02 2.15597E-05-2.76063E-03 4.76752E-14 2.31552E-13
 -1      1021 1.93228E+01 1.79275E+00-3.11568E-04 3.01338E-01 5.89727E-14-2.69308E-13
 -1      1022 1.92708E+01 1.32207E+00-3.27584E-04-8.10813E-01 1.41826E-13-7.34898E-14
 -1      1023 1.33939E+01 1.03667E+00 2.10084E-02-3.38101E-01 8.91990E-14 2.31884E-13
 -1      1024 1.43706E+01 3.14531E-01 2.68159E-02 2.50084E+00-2.35906E-13 8.48011E-14
 -1      1025 1.89388E+01 1.19378E+00 3.05885E-04-1.07586E+00 1.19904E-13-9.87571E-14
 -1      1026 1.77525E+01 2.75261E-01 2.74152E-04 2.04742E+00 1.85987E-13-1.91829E-13
 -1      1027 1.74385E+01 5.62901E-01-2.09707E-04-1.65248E+00-1.58002E-14-5.24744E-14
 -1      1028 1.78887E+01 7.87434E-01 1.49318E-05-1.21385E+00 1.68427E-13-9.46421E-14
 -1      1029 1.82832E+01 8.83249E-01-1.28535E-04-9.03043E-01 6.81200E-14-1.95700E-13
 -1      1030 1.86225E+01 8.95000E-01-1.16133E-04-6.80400E-01-1.49793E-13-9.14236E-14
 -1      1031 1.89100E+01 8.52325E-01-8.10531E-05-5.17059E-01-2.00052E-13-2.94311E-13
 -1      1032 1.91504E+01 7.76566E-01-5.78281E-05-3.94515E-01-1.35068E-13-4.19753E-13
 -1      1033 1.93486E+01 6.83739E-01-4.51851E-05-3.01151E-01-2.13162E-13-3.52498E-13
 -1      1034 1.95094E+01 5.85321E-01-3.67053E-05-2.29201E-01-7.02384E-14-2.82657E-13
 -1      1035 1.96378E+01 4.89122E-01-3.01606E-05-1.73400E-01 1.43184E-13-2.74127E-14
 -1      1036 1.97384E+01 4.00058E-01-2.47450E-05-1.30039E-01-6.10398E-14-3.30771E-13
 -1      1037 1.98160E+01 3.20840E-01-2.01252E-05-9.64037E-02-3.31201E-13-3.83051E-13
 -1      1038 1.98745E+01 2.52582E-01-1.61592E-05-7.04356E-02-1.15389E-13-1.79801E-13
 -1      1039 1.99177E+01 1.95298E-01-1.27669E-05-5.05308E-02 1.94382E-13-6.06529E-14
 -1      1040 1.99489E+01 1.48307E-01-9.88304E-06-3.54145E-02 1.46485E-13 1.66180E-14
 -1      1041 1.99706E+01 1.10524E-01-7.87947E-06-2.40584E-02 1.34431E-13 1.45421E-13
 -1      1042 1.99853E+01 8.06467E-02-5.13545E-06-1.56502E-02-2.17219E-13 2.85356E-13
 -1      1043 1.99945E+01 5.75830E-02 1.58808E-05-9.53386E-03 3.50789E-14 3.41075E-13
 -1      1044 1.97080E+01 4.47694E-01-2.89039E-05 1.88350E-01-1.83741E-13 3.39730E-13
 -1      1045 1.50765E+01 8.47271E-01 6.82174E-03-1.52445E+00-4.44468E-14-1.06620E-13
 -1      1046 1.86677E+01 1.02120E+00-1.60491E-04 5.28665E-01-8.72433E-14 2.65817E-15
 -1      1047 1.95917E+01 5.50189E-01-3.57267E-05 2.38834E-01-1.74742E-14 2.99588E-13
 -1      1048 1.94396E+01 6.63834E-01-4.49279E-05 2.97511E-01 9.52468E-14 3.14130E-13
 -1      1049 1.97958E+01 3.58088E-01-2.34052E-05 1.45748E-01 7.10114E-14 2.52960E-13
 -1      1050 1.98611E+01 2.81742E-01-1.88130E-05 1.10521E-01-1.57011E-13 4.60894E-13
 -1      1051 1.99089E+01 2.18117E-01-1.49422E-05 8.19740E-02-7.54490E-14 2.73001E-13
 -1      1052 1.99430E+01 1.66125E-01-1.16948E-05 5.92915E-02-6.60022E-14 2.34428E-13
 -1      1053 1.99669E+01 1.24391E-01-9.46462E-06 4.16128E-02-1.46005E-13 1.15622E-13
 -1      1054 1.99830E+01 9.14213E-02-2.50284E-06 2.81211E-02-1.15241E-13 3.50523E-13
 -1      1055 1.99932E+01 6.57280E-02-2.24016E-05 1.79236E-02-1.56781E-13 3.73408E-13
 -1      1056 1.99980E+01 5.10391E-02 5.47110E-05 1.19589E-02 4.22232E-13-3.22287E-14
 -1      1057 1.89400E+01 1.18924E+00-4.53181E-04 8.32726E-01 7.94325E-14-1.84777E-13
 -1      1058 1.93705E+01 1.78201E+00 5.29588E-04-2.84903E-01 1.75280E-13-1.83304E-13
 -1      1059 1.72403E+01 3.50178E-02 3.51771E-03-2.34569E+00 5.98328E-14-3.32009E-14
 -1      1060 1.82557E+01 1.11213E+00-4.86602E-04 6.33724E-01-2.04156E-13-3.98783E-14
 -1      1061 1.85042E+01 1.05293E+00 1.00718E-03-1.35690E+00 8.93842E-14-1.53674E-13
 -1      1062 1.77271E+01 1.16337E+00-7.78282E-04 7.68253E-01-1.25727E-13-1.82855E-13
 -1      1063 2.00004E+01 3.70141E-02 3.59385E-06 3.38312E-03 1.74745E-13 6.61505E-14
 -1      1064 2.00019E+01 3.19724E-02 3.99086E-05-4.58780E-03 5.50326E-14 1.74605E-14
 -1      1065 1.61349E+01 1.04211E+00 2.73637E-03 1.26548E+00-9.97618E-14-2.09066E-14
 -1      1066 1.81910E+01 6.70495E-01-5.82117E-04 1.51752E+00 7.09998E-14-1.83297E-13
 -1      1067 1.91556E+01 1.47432E+00 4.23875E-04 5.34796E-01 9.63492E-14-2.46760E-13
 -1      1068 1.85928E+01 9.60404E-01 4.32557E-04 1.12905E+00 4.92296E-14-1.60501E-13
 -1      1069 1.70431E+01 1.15097E+00-5.35597E-04 9.59608E-01-3.58146E-14-1.00337E-13
 -1      1070 1.65304E+01 1.09045E+00 2.45132E-03-1.14657E+00 1.08348E-14-1.17707E-13
 -1      1071 1.50998E+01 8.90766E-01 7.55842E-03-1.34069E+00-2.34640E-14-1.15491E-14
 -1      1072 1.51459E+01 1.11120E+00 6.25664E-03-3.49948E-01 1.15616E-14-1.63449E-13
 -1      1073 1.75614E+01-3.59094E-01 4.26362E-03 2.76509E+00 2.13211E-13-1.78840E-13
 -1      1074 1.50527E+01 8.77141E-01 9.96644E-03 1.60579E+00-1.25231E-13 5.26133E-14
 -1      1075 1.92429E+01 7.84944E-01-5.90474E-05 3.64637E-01 9.16098E-14 3.11528E-13
 -1      1076 1.99990E+01 4.36019E-02 4.36124E-06-6.96680E-03 1.99853E-13 8.82981E-14
 -1      1077 1.51704E+01 6.81780E-01 6.42957E-03 1.63605E+00 1.90531E-13-3.72301E-13
 -1      1078 1.89548E+01 1.69142E+00 1.36295E-03-7.85006E-03 1.39646E-13-1.29079E-13
 -1      1079 1.89904E+01 1.62600E+00 5.72988E-05 2.79327E-01 1.27099E-13-1.67492E-13
 -1      1080 1.99963E+01 4.95981E-02-2.26234E-05 1.05834E-03 4.34958E-14 1.84995E-13
 -1      1081 1.89848E+01 1.58324E+00 2.15336E-04-3.79914E-01 1.39200E-13-1.78881E-13
 -1      1082 1.89904E+01 9.07258E-01-8.34777E-05 4.40887E-01 6.60598E-14 1.86910E-13
 -1      1083 1.85544E+01 1.45039E+00-1.01195E-03-5.13825E-01 1.41501E-13-1.68749E-13
 -1      1084 1.86658E+01 1.39467E+00-6.21156E-04 5.04925E-01 1.08695E-13-1.69913E-13
 -1      1085 1.62258E+01 5.81728E-01 2.14491E-03 1.83341E+00 1.66838E-13-2.42636E-13
 -1      1086 1.95916E+01 5.29868E-01-3.39720E-06 1.04506E-01-6.14028E-14 2.14591E-14
 -1      1087 1.69906E+01 1.05193E+00 1.83134E-03-8.98149E-01-3.47400E-14 8.47711E-14
 -1      1088 1.76428E+01 1.08614E+00-4.85348E-04-6.24171E-01 1.20133E-13-7.29798E-14
 -1      1089 1.81527E+01 1.06505E+00-3.71782E-04-4.40423E-01-1.59244E-14-1.75656E-13
 -1      1090 1.85590E+01 1.00028E+00 3.17391E-05-3.12161E-01-3.43350E-13-1.29243E-13
 -1      1091 1.88851E+01 9.06178E-01 6.82894E-05-2.21841E-01-2.76227E-13-2.10059E-13
 -1      1092 1.91468E+01 7.97348E-01 5.12674E-05-1.58147E-01-8.64535E-14-1.92551E-13
 -1      1093 1.93558E+01 6.84146E-01 3.69629E-05-1.12921E-01 4.02777E-14 9.79866E-14
 -1      1094 1.95214E+01 5.74031E-01 2.66106E-05-8.06482E-02 1.55306E-13 1.75890E-13
 -1      1095 1.96510E+01 4.71953E-01 1.94591E-05-5.75151E-02-1.29011E-13 6.12720E-14
 -1      1096 1.97511E+01 3.80780E-01 1.45150E-05-4.08703E-02-1.59897E-13 6.01230E-14
 -1      1097 1.98270E+01 3.01773E-01 1.10100E-05-2.88588E-02-1.85716E-13 1.36201E-13
 -1      1098 1.98836E+01 2.35041E-01 8.42504E-06-2.01763E-02 9.38116E-14 1.73925E-13
 -1      1099 1.99249E+01 1.79923E-01 6.40773E-06-1.39006E-02 1.00762E-13 1.07133E-13
 -1      1100 1.99543E+01 1.35299E-01 4.87831E-06-9.37950E-03 7.82703E-14 1.69579E-14
 -1      1101 1.99745E+01 9.98142E-02 2.56804E-06-6.15378E-03 5.14183E-14-8.97924E-14
 -1      1102 1.99879E+01 7.18692E-02-1.57202E-05-3.92267E-03-1.75308E-13 2.52423E-13
 -1      1103 1.97952E+01 3.41771E-01 4.31968E-06 6.59397E-02-1.27933E-13 3.35787E-13
 -1      1104 1.99965E+01 5.12275E-02-1.11623E-05 6.15999E-03 2.49902E-13-2.02873E-13
 -1      1105 1.97074E+01 4.29204E-01 1.52829E-06 8.40912E-02-1.19023E-13 1.28063E-13
 -1      1106 1.94407E+01 6.42496E-01-1.15581E-05 1.26426E-01 4.69179E-14 3.55695E-14
 -1      1107 1.98607E+01 2.67668E-01 5.67731E-06 5.03973E-02-1.84044E-14 2.67099E-13
 -1      1108 1.99086E+01 2.06202E-01 6.06406E-06 3.75049E-02 4.49604E-14 1.78340E-13
 -1      1109 1.99430E+01 1.56198E-01 5.74727E-06 2.71061E-02-3.88341E-14 2.16691E-13
 -1      1110 1.99669E+01 1.16240E-01 5.72016E-06 1.89427E-02-1.03935E-13 2.71126E-14
 -1      1111 1.99832E+01 8.48441E-02 8.17176E-05 1.25278E-02-6.73349E-14-2.32184E-13
 -1      1112 1.81925E+01 1.21704E+00 7.63976E-04 7.19950E-01 5.43507E-14-1.38816E-13
 -1      1113 1.63405E+01 8.16742E-01 1.49274E-03-1.43207E+00 1.64863E-14 6.75501E-15
 -1      1114 1.86997E+01 1.57936E+00 4.20423E-04-3.58805E-02 1.14557E-13-1.45183E-13
 -1      1115 1.51190E+01 1.19703E+00 2.73951E-03 1.21152E-01 1.78899E-14 1.87355E-13
 -1      1116 1.63324E+01 1.25400E+00-1.68720E-03 1.21831E-01-5.10911E-14 1.19932E-13
 -1      1117 1.75651E+01 1.05503E+00 2.16938E-04 1.02876E+00 7.68265E-14-1.59740E-13
 -1      1118 1.69720E+01 8.49535E-01 4.42930E-04 1.36737E+00 1.13511E-13-1.38296E-13
 -1      1119 1.82757E+01 1.12509E+00 2.99325E-04 1.97396E-01-1.97003E-13-9.99862E-14
 -1      1120 1.71962E+01 1.25879E+00 3.11049E-04 1.46672E-01-1.30403E-13 1.49826E-13
 -1      1121 1.78020E+01 1.20752E+00 8.37712E-04 1.80674E-01-1.46742E-13 1.64721E-14
 -1      1122 1.75270E+01 1.23090E+00 1.46589E-04-9.11577E-01 4.70949E-14-1.33820E-13
 -1      1123 1.86809E+01 1.01323E+00-7.29477E-05 1.86282E-01-1.77071E-13-5.64743E-14
 -1      1124 1.56988E+01 1.04817E+00 4.21454E-04 7.58702E-01 8.65425E-14-2.49534E-13
 -1      1125 1.92463E+01 7.64227E-01-2.49013E-05 1.48595E-01 2.01817E-13 2.15737E-13
 -1      1126 1.64949E+01 1.25000E+00-9.45844E-05-2.22595E-01 1.32409E-14-1.25076E-13
 -1      1127 1.99890E+01 6.86270E-02-1.25929E-04 3.63654E-03 7.19920E-15-9.11175E-14
 -1      1128 1.78277E+01 1.40114E+00-3.20460E-04-1.09268E-01 7.99342E-14-1.26346E-13
 -1      1129 1.61483E+01 1.11001E+00 2.64661E-04-7.33959E-01 3.68768E-14 1.28597E-13
 -1      1130 1.82456E+01 1.43883E+00-7.59956E-04 1.33979E-01 1.05214E-13-1.79923E-13
 -1      1131 1.89977E+01 8.90190E-01-4.68799E-05 1.69260E-01-2.99103E-14 1.88125E-13
 -1      1132 2.78433E+01 9.03821E+00 2.28390E+00-6.54957E+00-6.10623E-14 9.15407E-13
 -1      1133 2.07024E+01 6.27902E+00 2.27570E-01-3.70043E+00-2.56184E-14-2.64413E-13
 -1      1134 1.96140E+01 5.91077E+00 8.85312E-02-2.63158E+00-1.40027E-14-6.83283E-13
 -1      1135 1.91583E+01 5.76726E+00 6.58841E-02-1.95299E+00-7.15400E-15-8.38247E-13
 -1      1136 1.88921E+01 5.68455E+00 5.63525E-02-1.42461E+00-2.60902E-15-8.69581E-13
 -1      1137 1.87105E+01 5.62761E+00 4.82408E-02-9.92452E-01 5.41234E-16-8.56128E-13
 -1      1138 1.85847E+01 5.58800E+00 4.19525E-02-6.23679E-01 2.62811E-15-8.17297E-13
 -1      1139 1.85074E+01 5.56352E+00 3.76554E-02-2.93439E-01 4.76875E-15-7.58286E-13
 -1      1140 1.84807E+01 5.55501E+00 3.60117E-02 1.51483E-02 6.05744E-15-7.06048E-13
 -1      1141 1.85059E+01 5.56293E+00 3.72495E-02 3.22480E-01 7.93029E-15-6.38281E-13
 -1      1142 1.85833E+01 5.58739E+00 4.13482E-02 6.49596E-01 1.07397E-14-5.55722E-13
 -1      1143 1.87124E+01 5.62816E+00 4.81226E-02 1.01516E+00 1.27190E-14-4.42870E-13
 -1      1144 1.88985E+01 5.68647E+00 5.64241E-02 1.44627E+00 1.44156E-14-2.66826E-13
 -1      1145 1.91693E+01 5.77060E+00 6.59702E-02 1.97819E+00 1.83256E-14-8.51229E-15
 -1      1146 1.96190E+01 5.91076E+00 8.35246E-02 2.66348E+00 2.03726E-14 4.01835E-13
 -1      1147 2.06139E+01 6.23624E+00 1.73509E-01 3.67083E+00 1.70142E-14 1.09525E-12
 -1      1148 2.51486E+01 7.96675E+00 1.40712E+00 5.69828E+00 1.90958E-14 2.32697E-12
 -1      1149 2.85928E+01 3.53200E+00 1.19845E+00-4.11871E+00-2.18825E-13 1.62736E-12
 -1      1150 2.03783E+01-1.80901E-01-6.18226E-01-9.08943E-02-7.81181E-14 1.11564E-12
 -1      1151 1.92343E+01-9.82442E-02-2.34355E-01 6.65005E-02-2.63886E-14 4.98103E-13
 -1      1152 1.91250E+01-5.19079E-02-6.29156E-02 4.34418E-02-2.15895E-14 7.40796E-14
 -1      1153 1.93234E+01-3.01808E-02-2.21722E-02 3.07904E-02-1.94471E-14-2.06113E-13
 -1      1154 1.97091E+01-1.95493E-02-1.38616E-02 2.49747E-02-7.03799E-15-3.89834E-13
 -1      1155 2.02218E+01-1.29425E-02-1.05805E-02 2.25132E-02-2.35879E-15-5.61044E-13
 -1      1156 2.08226E+01-7.43847E-03-6.53183E-03 2.18079E-02-1.40770E-14-6.86343E-13
 -1      1157 2.14745E+01-1.24472E-03 6.25521E-05 2.16661E-02-8.79951E-15-8.25874E-13
 -1      1158 2.21275E+01 6.91146E-03 1.05906E-02 2.07323E-02-1.18698E-14-1.02173E-12
 -1      1159 2.27074E+01 1.76897E-02 2.59978E-02 1.71498E-02 1.43529E-14-1.09547E-12
 -1      1160 2.31073E+01 3.05418E-02 4.55297E-02 8.55997E-03-2.64459E-15-1.04443E-12
 -1      1161 2.31934E+01 4.27582E-02 6.48658E-02-7.21849E-03-7.00958E-15-1.25460E-12
 -1      1162 2.28328E+01 4.87332E-02 7.47484E-02-3.04370E-02-8.49581E-16-1.36073E-12
 -1      1163 2.19572E+01 4.08796E-02 6.26544E-02-5.68032E-02 5.58581E-15-1.18502E-12
 -1      1164 2.06486E+01 1.38874E-02 2.03415E-02-7.59945E-02-2.47275E-14-1.29487E-12
 -1      1165 1.91990E+01-2.79978E-02-4.49839E-02-7.47825E-02-3.53407E-15-1.51487E-12
 -1      1166 1.80615E+01-6.77613E-02-1.06377E-01-4.61577E-02 3.43944E-14-1.54254E-12
 -1      1167 1.76626E+01-8.34875E-02-1.30524E-01 2.12954E-03 2.14325E-14-1.57299E-12
 -1      1168 1.81709E+01-6.57444E-02-1.03171E-01 4.96695E-02 8.93383E-17-1.58321E-12
 -1      1169 1.93961E+01-2.53349E-02-4.07270E-02 7.64468E-02-7.63365E-15-1.48545E-12
 -1      1170 2.09035E+01 1.55910E-02 2.31691E-02 7.59558E-02-3.43735E-15-1.14429E-12
 -1      1171 2.22506E+01 4.07455E-02 6.26599E-02 5.61767E-02-3.72332E-14-1.36060E-12
 -1      1172 2.31651E+01 4.71082E-02 7.22294E-02 3.03463E-02-1.49707E-15-1.60183E-12
 -1      1173 2.35817E+01 4.03472E-02 6.09550E-02 8.35112E-03 3.76860E-14-1.37750E-12
 -1      1174 2.35781E+01 2.80189E-02 4.12332E-02-5.92086E-03 6.69386E-15-9.14669E-13
 -1      1175 2.32895E+01 1.55942E-02 2.19771E-02-1.28914E-02 3.48332E-14-9.21428E-13
 -1      1176 2.28479E+01 5.71817E-03 7.27169E-03-1.47282E-02 7.67095E-15-1.06987E-12
 -1      1177 2.23544E+01-9.81244E-04-2.19685E-03-1.36606E-02-7.07941E-15-1.16820E-12
 -1      1178 2.18745E+01-4.89355E-03-7.33878E-03-1.13233E-02 3.27828E-14-1.09710E-12
 -1      1179 2.14446E+01-6.73896E-03-9.46485E-03-8.70178E-03 1.11259E-14-1.07528E-12
 -1      1180 2.10800E+01-7.21843E-03-9.73218E-03-6.29552E-03 6.32252E-15-1.09379E-12
 -1      1181 2.07833E+01-6.88600E-03-8.98574E-03-4.30244E-03-3.91857E-14-1.14716E-12
 -1      1182 2.05497E+01-6.13225E-03-7.77780E-03-2.75694E-03 3.32092E-14-9.62447E-13
 -1      1183 2.03711E+01-5.21092E-03-6.44020E-03-1.61686E-03-2.29347E-14-7.53047E-13
 -1      1184 2.02382E+01-4.27497E-03-5.15596E-03-8.12115E-04 1.61613E-14-9.25329E-13
 -1      1185 2.01422E+01-3.40856E-03-4.01441E-03-2.69193E-04 4.19148E-14-7.40253E-13
 -1      1186 2.00750E+01-2.65146E-03-3.04903E-03 7.79071E-05-2.14029E-14-6.82531E-13
 -1      1187 2.00298E+01-2.01619E-03-2.26179E-03 2.83961E-04 2.56820E-16-8.06097E-13
 -1      1188 2.00010E+01-1.49959E-03-1.63830E-03 3.92254E-04-2.61391E-14-1.11498E-12
 -1      1189 1.99841E+01-1.09013E-03-1.15676E-03 4.35810E-04-7.40780E-14-1.27183E-12
 -1      1190 1.99757E+01-7.72488E-04-7.93086E-04 4.39095E-04-3.57433E-14-1.33104E-12
 -1      1191 1.99731E+01-5.30200E-04-5.23586E-04 4.19707E-04-7.74313E-15-1.18437E-12
 -1      1192 1.99745E+01-3.47015E-04-3.25934E-04 3.89799E-04 7.82104E-15-9.31083E-13
 -1      1193 1.99782E+01-2.07460E-04-1.78841E-04 3.57075E-04 7.13925E-14-1.75750E-13
 -1      1194 1.99834E+01-9.67326E-05-6.02716E-05 3.24982E-04 1.85737E-15 4.54135E-13
 -1      1195 1.99890E+01-7.91385E-07 5.48056E-05 2.90961E-04-4.33768E-14-2.27321E-13
 -1      1196 1.99944E+01 9.17107E-05 1.85130E-04 2.36713E-04 3.28243E-14 7.79061E-14
 -1      1197 1.99984E+01 1.87173E-04 2.96833E-04 1.22193E-04-1.47912E-14 8.44396E-14
 -1      1198 1.99999E+01-1.93556E-05 9.25251E-06-4.05266E-05 6.21722E-14 1.23331E-13
 -1      1199 2.75732E+01 5.16469E-01 3.21256E-01 1.93348E+00-4.27922E-14 3.26722E-12
 -1      1200 2.02491E+01-6.94157E-02-5.73665E-01 1.22608E-01 1.31492E-15 2.96699E-12
 -1      1201 1.93170E+01-4.49981E-02-1.93622E-01 1.86246E-02 1.17319E-14 2.51361E-12
 -1      1202 1.91792E+01-2.78555E-02-5.65145E-02 3.11805E-03-2.36486E-15 2.22793E-12
 -1      1203 1.93917E+01-2.09678E-02-2.41697E-02-1.41264E-03 3.99789E-15 2.00794E-12
 -1      1204 1.98239E+01-1.79349E-02-1.94333E-02-2.91008E-03 2.69316E-16 1.83364E-12
 -1      1205 2.04227E+01-1.62988E-02-1.99988E-02-4.27175E-03-2.64827E-15 1.76047E-12
 -1      1206 2.11664E+01-1.44862E-02-2.03267E-02-6.70500E-03 1.43464E-14 1.65505E-12
 -1      1207 2.20406E+01-1.07992E-02-1.80282E-02-1.11022E-02-4.74067E-15 1.51262E-12
 -1      1208 2.30200E+01-3.11073E-03-9.99319E-03-1.82192E-02-7.05501E-15 1.50854E-12
 -1      1209 2.40452E+01 1.08675E-02 8.14193E-03-2.81547E-02 4.77580E-15 1.36778E-12
 -1      1210 2.49946E+01 3.22272E-02 4.04727E-02-3.90825E-02 8.40517E-15 1.29262E-12
 -1      1211 2.56579E+01 5.78588E-02 8.62021E-02-4.53659E-02 8.48627E-15 1.29525E-12
 -1      1212 2.57376E+01 7.66550E-02 1.31779E-01-3.65931E-02-1.41389E-14 1.42462E-12
 -1      1213 2.49302E+01 6.97782E-02 1.45632E-01-1.53267E-03-2.74494E-14 1.45105E-12
 -1      1214 2.31324E+01 2.30905E-02 9.05049E-02 5.92726E-02 1.08290E-14 1.28299E-12
 -1      1215 2.07132E+01-4.92493E-02-3.78189E-02 1.19927E-01-2.57546E-14 1.28303E-12
 -1      1216 1.85841E+01-1.03504E-01-1.79081E-01 1.35981E-01 3.34602E-14 1.13333E-12
 -1      1217 1.77905E+01-9.92408E-02-2.38682E-01 8.23697E-02 1.70003E-15 7.28643E-13
 -1      1218 1.87775E+01-4.70959E-02-1.72502E-01-1.21308E-02-1.04161E-14 7.54355E-13
 -1      1219 2.10217E+01 9.60562E-03-3.83628E-02-9.01314E-02 2.29062E-14 7.30832E-13
 -1      1220 2.34712E+01 4.04143E-02 7.26099E-02-1.15483E-01-3.93166E-14 6.64913E-13
 -1      1221 2.52544E+01 4.44374E-02 1.15641E-01-9.44228E-02 1.45951E-14 5.01682E-13
 -1      1222 2.60572E+01 3.44859E-02 1.03003E-01-5.51373E-02 8.89826E-15 1.67415E-13
 -1      1223 2.60134E+01 2.10439E-02 6.72968E-02-1.97635E-02 4.51258E-14 3.97469E-13
 -1      1224 2.54302E+01 9.69719E-03 3.23926E-02 3.48262E-03-3.54599E-14 1.07028E-12
 -1      1225 2.45983E+01 1.95495E-03 7.95854E-03 1.51322E-02-1.12843E-14 1.25441E-12
 -1      1226 2.37194E+01-2.56339E-03-5.73527E-03 1.88921E-02 4.09474E-14 8.17613E-13
 -1      1227 2.29064E+01-4.76925E-03-1.17655E-02 1.83293E-02-1.94101E-14 7.19504E-13
 -1      1228 2.22086E+01-5.51749E-03-1.33008E-02 1.58702E-02 6.71121E-15 6.23838E-13
 -1      1229 2.16376E+01-5.43739E-03-1.25835E-02 1.28852E-02 9.48648E-14 2.20449E-13
 -1      1230 2.11859E+01-4.93945E-03-1.09388E-02 1.00382E-02 1.51071E-14 1.15540E-13
 -1      1231 2.08376E+01-4.27094E-03-9.06118E-03 7.59145E-03-3.56431E-14 3.57712E-13
 -1      1232 2.05748E+01-3.57108E-03-7.27619E-03 5.60472E-03 1.16919E-14 2.86875E-13
 -1      1233 2.03806E+01-2.91238E-03-5.71356E-03 4.04758E-03-3.41531E-14 2.92182E-13
 -1      1234 2.02400E+01-2.32811E-03-4.40660E-03 2.85705E-03-7.31519E-14 3.18945E-13
 -1      1235 2.01406E+01-1.82936E-03-3.34483E-03 1.96457E-03 9.45619E-14-2.93330E-13
 -1      1236 2.00723E+01-1.41530E-03-2.50028E-03 1.30725E-03-3.50810E-15-3.12747E-13
 -1      1237 2.00270E+01-1.07904E-03-1.84012E-03 8.31598E-04 3.43169E-15-3.11328E-13
 -1      1238 1.99986E+01-8.11041E-04-1.33227E-03 4.93831E-04-6.22713E-15-3.56066E-13
 -1      1239 1.99823E+01-6.00903E-04-9.47671E-04 2.58866E-04-3.56933E-14-1.97621E-13
 -1      1240 1.99743E+01-4.38292E-04-6.60828E-04 9.89346E-05-5.27170E-14 7.66552E-14
 -1      1241 1.99722E+01-3.13329E-04-4.49676E-04-7.80418E-06-7.22199E-15 6.27181E-14
 -1      1242 1.99738E+01-2.16555E-04-2.94814E-04-7.85553E-05-4.70880E-14 7.54686E-14
 -1      1243 1.99778E+01-1.38387E-04-1.77809E-04-1.27035E-04 2.02551E-14-2.03247E-13
 -1      1244 1.99831E+01-6.84052E-05-7.83547E-05-1.64086E-04 3.88969E-14-9.45013E-13
 -1      1245 1.99888E+01 5.22890E-06 2.81385E-05-1.97183E-04 5.43616E-14-1.52141E-12
 -1      1246 1.99943E+01 9.23203E-05 1.62479E-04-2.24093E-04-1.50555E-15-9.60881E-13
 -1      1247 1.99984E+01 1.69748E-04 2.77948E-04-2.02071E-04 5.24846E-14-7.93904E-13
 -1      1248 1.99999E+01-2.61372E-05 2.66813E-06 3.08788E-05-5.88606E-15-5.79903E-13
 -1      1249 1.99998E+01 7.09908E-05-5.43899E-06 1.35872E-05-6.28889E-13-1.24258E-13
 -1      1250 1.99999E+01-1.44976E-03 2.41199E-04-1.03659E-04-1.16714E-12-1.97387E-13
 -1      1251 1.99999E+01-5.26124E-03 1.07903E-04-2.07861E-04-3.69832E-13 1.84639E-13
 -1      1252 1.99998E+01-9.81716E-03-3.57160E-05-2.03477E-04-8.84856E-14 5.59124E-14
 -1      1253 1.99997E+01-1.40924E-02-1.17132E-04-1.63877E-04-9.27227E-14-4.80785E-14
 -1      1254 1.99997E+01-1.75506E-02-1.50235E-04-1.15548E-04-8.29169E-13-1.54318E-13
 -1      1255 1.99997E+01-2.00232E-02-1.54941E-04-7.33023E-05-7.85437E-13 1.92634E-14
 -1      1256 1.99997E+01-2.14881E-02-1.51057E-04-3.38574E-05-4.74213E-13 6.74425E-15
 -1      1257 1.99997E+01-2.19401E-02-1.47736E-04 1.72888E-06-9.87856E-13 1.79747E-14
 -1      1258 1.99997E+01-2.14003E-02-1.48708E-04 3.69905E-05-1.87199E-14 2.52001E-13
 -1      1259 1.99997E+01-1.98635E-02-1.50487E-04 7.55179E-05 4.71683E-13-1.90622E-13
 -1      1260 1.99997E+01-1.73460E-02-1.43981E-04 1.18695E-04-4.83451E-13 1.68197E-15
 -1      1261 1.99997E+01-1.38815E-02-1.12420E-04 1.63317E-04-9.86725E-13-1.03264E-14
 -1      1262 1.99998E+01-9.62603E-03-2.98035E-05 2.04225E-04-1.15354E-12-2.10651E-13
 -1      1263 1.99999E+01-5.06137E-03 1.36743E-04 2.43106E-04-1.14213E-12 2.22114E-14
 -1      1264 2.00000E+01-1.44215E-03 2.50820E-04 1.12516E-04-4.48154E-13 3.88788E-14
 -1      1265 1.99997E+01 5.99691E-05-2.09202E-05-1.14569E-06-3.50740E-14 2.28950E-14
 -1      1266-1.15071E+00-2.43138E+01-3.76860E+00-2.31047E+00 1.66162E-12 2.09489E-13
 -1      1267-1.91273E+00-1.53538E+01-3.10432E+00-3.95325E+00 2.72360E-12 1.06498E-12
 -1      1268 2.53469E-01-2.72139E+00-1.99406E+00-1.10167E-01 3.07043E-12 1.83920E-12
 -1      1269 9.07622E+00 7.40090E+00-3.77652E-01 8.15894E+00 2.79288E-12 2.78666E-12
 -1      1270 2.52203E+01 1.09188E+01 1.29451E+00 1.59429E+01 1.89249E-12 2.61702E-12
 -1      1271 4.57422E+01 8.12618E+00 2.86614E+00 1.77420E+01 7.49178E-13 1.68310E-12
 -1      1272 6.28308E+01 3.34365E+00 4.02699E+00 1.07445E+01 1.81855E-13 9.49241E-14
 -1      1273 6.79658E+01 1.76956E+00 4.39991E+00-1.98733E+00 1.66145E-13-1.84361E-12
 -1      1274 5.84395E+01 4.97907E+00 3.82065E+00-1.38261E+01 7.93088E-13-2.88203E-12
 -1      1275 3.87470E+01 9.76659E+00 2.45742E+00-1.81235E+01 1.67744E-12-3.25584E-12
 -1      1276 1.86776E+01 1.04746E+01 7.35427E-01-1.34576E+01 2.09477E-12-2.63256E-12
 -1      1277 4.77238E+00 4.13930E+00-9.56092E-01-4.60714E+00 2.29261E-12-1.84786E-12
 -1      1278-1.19985E+00-7.59641E+00-2.42827E+00 2.56377E+00 1.96088E-12-1.05282E-12
 -1      1279-1.70947E+00-1.93166E+01-3.39761E+00 4.14964E+00 8.09131E-13-3.33539E-13
 -1      1280-9.17702E-01-2.55359E+01-3.86237E+00 8.28654E-01-8.44574E-13-6.06043E-14
 -1      1281-1.49086E+00-2.16388E+01-3.52344E+00-3.18680E+00-2.05391E-12-4.81060E-13
 -1      1282-1.59653E+00-1.12111E+01-2.75337E+00-3.39666E+00-3.16680E-12-1.42730E-12
 -1      1283 2.39407E+00 1.37312E+00-1.32758E+00 2.36217E+00-3.46367E-12-2.47602E-12
 -1      1284 1.38891E+01 9.65283E+00 3.04809E-01 1.12785E+01-2.87415E-12-2.98095E-12
 -1      1285 3.27966E+01 1.06806E+01 2.07077E+00 1.74808E+01-1.61116E-12-2.52109E-12
 -1      1286 5.25294E+01 6.51711E+00 3.35370E+00 1.57598E+01-5.77927E-13-1.43974E-12
 -1      1287 6.53566E+01 2.02920E+00 4.08757E+00 6.18658E+00-7.26919E-14 2.09444E-13
 -1      1288 6.45545E+01 2.30896E+00 4.00823E+00-6.84273E+00-2.54491E-13 1.77247E-12
 -1      1289 5.27728E+01 6.23466E+00 3.33993E+00-1.59507E+01-9.20763E-13 2.64588E-12
 -1      1290 3.53174E+01 1.02804E+01 2.15153E+00-1.79865E+01-1.67921E-12 3.02736E-12
 -1      1291 1.82133E+01 1.08439E+01 7.55508E-01-1.35885E+01-2.25553E-12 2.71472E-12
 -1      1292 5.69004E+00 5.64786E+00-7.11664E-01-5.73696E+00-2.58749E-12 2.16716E-12
 -1      1293-5.89159E-01-4.89646E+00-2.11110E+00 1.35725E+00-2.37366E-12 1.39222E-12
 -1      1294-1.75092E+00-1.65572E+01-3.11350E+00 3.96384E+00-1.42186E-12 6.13731E-13
 -1      1295-1.07298E+00-2.42847E+01-3.73191E+00 1.96412E+00 3.67983E-13 5.97612E-14
 -1      1296 2.23311E+01 1.84492E+00-7.15173E-01-2.68189E+00-8.65419E-14 5.92471E-13
 -1      1297 2.05579E+01 4.69327E+00-4.31967E-02-3.07824E+00-1.70627E-13-4.67432E-13
 -1      1298 2.10458E+01 4.79915E+00-1.02374E-01-3.95050E+00-2.40558E-13-2.48461E-13
 -1      1299 1.97171E+01 5.01344E+00-1.76365E-02-2.38211E+00-1.32880E-13-7.56895E-13
 -1      1300 2.00335E+01 5.11360E+00 7.95910E-03-2.78952E+00-1.62398E-13-6.42111E-13
 -1      1301 2.07459E+01 3.94456E+00-2.22131E-02-2.82023E+00-2.80737E-13-4.09353E-13
 -1      1302 1.92985E+01 5.11209E+00-4.31291E-03-1.78413E+00-7.86593E-14-8.59476E-13
 -1      1303 1.94888E+01 5.17908E+00 1.55343E-02-2.08055E+00-1.01544E-13-8.18581E-13
 -1      1304 1.99338E+01 4.39034E+00-2.12841E-02-2.20658E+00-1.98964E-13-6.41112E-13
 -1      1305 1.90251E+01 5.16168E+00 5.69802E-04-1.29323E+00-3.11903E-14-8.73633E-13
 -1      1306 1.91545E+01 5.20637E+00 1.54256E-02-1.53193E+00-5.09176E-14-8.75910E-13
 -1      1307 1.94793E+01 4.60677E+00-1.78502E-02-1.64500E+00-1.13081E-13-7.28563E-13
 -1      1308 1.88342E+01 5.19161E+00 2.36988E-03-8.88126E-01 1.31267E-14-8.46630E-13
 -1      1309 1.89251E+01 5.22250E+00 1.33469E-02-1.08556E+00-4.95437E-15-8.60517E-13
 -1      1310 1.91816E+01 4.73705E+00-1.47337E-02-1.18267E+00-3.77077E-14-7.35433E-13
 -1      1311 1.87006E+01 5.21150E+00 3.25534E-03-5.31809E-01 4.49519E-14-8.05767E-13
 -1      1312 1.87623E+01 5.23201E+00 1.07339E-02-7.06599E-01 3.72619E-14-8.32067E-13
 -1      1313 1.89732E+01 4.82184E+00-1.27029E-02-7.91999E-01 3.67839E-14-7.12833E-13
 -1      1314 1.86251E+01 5.22501E+00 4.27288E-03-2.11594E-01 8.62153E-14-7.51173E-13
 -1      1315 1.86568E+01 5.23542E+00 8.18494E-03-3.70713E-01 7.08721E-14-7.80508E-13
 -1      1316 1.88340E+01 4.87545E+00-1.15883E-02-4.48144E-01 9.22526E-14-6.61478E-13
 -1      1317 1.86089E+01 5.23349E+00 5.75606E-03 9.22889E-02 1.14953E-13-6.92033E-13
 -1      1318 1.86097E+01 5.23375E+00 6.01566E-03-6.11603E-02 1.06917E-13-7.26181E-13
 -1      1319 1.87628E+01 4.90255E+00-1.10775E-02-1.35065E-01 1.53094E-13-6.20814E-13
 -1      1320 1.86534E+01 5.23716E+00 7.83600E-03 3.99863E-01 1.47120E-13-6.22178E-13
 -1      1321 1.86228E+01 5.22709E+00 4.32918E-03 2.41933E-01 1.36700E-13-6.63192E-13
 -1      1322 1.87607E+01 4.90470E+00-1.10478E-02 1.66669E-01 2.06507E-13-5.59587E-13
 -1      1323 1.87591E+01 5.23503E+00 1.03867E-02 7.31931E-01 1.81594E-13-5.32494E-13
 -1      1324 1.86969E+01 5.21460E+00 3.08413E-03 5.58899E-01 1.66581E-13-5.84080E-13
 -1      1325 1.88291E+01 4.88107E+00-1.15144E-02 4.76851E-01 2.54817E-13-4.90483E-13
 -1      1326 1.89240E+01 5.22623E+00 1.31960E-02 1.10361E+00 2.07959E-13-4.12044E-13
 -1      1327 1.88309E+01 5.19461E+00 1.92169E-03 9.07848E-01 1.97517E-13-4.86479E-13
 -1      1328 1.89681E+01 4.82920E+00-1.24874E-02 8.12956E-01 3.09612E-13-3.99462E-13
 -1      1329 1.91623E+01 5.20819E+00 1.54974E-02 1.55245E+00 2.45890E-13-2.27103E-13
 -1      1330 1.90288E+01 5.16203E+00-1.40700E-04 1.31342E+00 2.24475E-13-3.36326E-13
 -1      1331 1.91818E+01 4.74203E+00-1.45689E-02 1.19935E+00 3.53926E-13-2.66030E-13
 -1      1332 1.95048E+01 5.17787E+00 1.55455E-02 2.10509E+00 2.73517E-13 4.43118E-14
 -1      1333 1.93099E+01 5.10827E+00-5.50657E-03 1.80603E+00 2.53252E-13-1.16771E-13
 -1      1334 1.94915E+01 4.60359E+00-1.80719E-02 1.66457E+00 3.98601E-13-7.69107E-14
 -1      1335 2.00672E+01 5.12444E+00 1.43445E-02 2.81861E+00 2.72296E-13 4.81157E-13
 -1      1336 1.97366E+01 5.00623E+00-1.83978E-02 2.41441E+00 2.54075E-13 2.21979E-13
 -1      1337 1.99589E+01 4.37538E+00-2.18133E-02 2.23390E+00 4.19114E-13 2.08090E-13
 -1      1338 2.12730E+01 4.89338E+00 1.57883E-02 3.84385E+00 1.87489E-13 1.21410E-12
 -1      1339 2.05414E+01 4.73579E+00-4.19275E-02 3.17759E+00 1.98369E-13 7.76622E-13
 -1      1340 2.07918E+01 3.91062E+00-1.80535E-02 2.91277E+00 3.70665E-13 6.81483E-13
 -1      1341 2.71204E+01 3.16398E+00 8.93957E-01 4.44384E+00 5.82590E-14 2.38604E-12
 -1      1342 2.21400E+01 3.50871E+00-1.75180E-01 3.71393E+00 6.79179E-14 1.60416E-12
 -1      1343 2.22992E+01 2.53918E+00-2.77657E-02 3.23851E+00 2.77084E-13 1.33440E-12
 -1      1344 2.15311E+01 3.49487E-01-7.56670E-01 1.08465E+00 1.24858E-13 2.37432E-12
 -1      1345 2.21469E+01 1.24633E-01-3.97462E-01-1.17798E+00-2.11886E-13 7.02605E-13
 -1      1346 2.09418E+01 2.99372E-01-1.59637E-01-7.14293E-01-1.85449E-13 4.54511E-13
 -1      1347 2.04190E+01 1.53314E-01-7.13191E-02-3.11538E-01-1.45623E-13 3.76885E-13
 -1      1348 2.00613E+01 9.25831E-02-1.28141E-02-2.40449E-01-1.36790E-13 1.57534E-13
 -1      1349 2.12779E+01 3.61454E-01-1.03381E-01-1.09627E+00-3.21548E-13 1.05266E-13
 -1      1350 1.97960E+01 6.84616E-02 3.78844E-03-3.96615E-02-1.10871E-13 9.67074E-14
 -1      1351 1.97607E+01 4.63832E-02 1.40453E-02-1.93670E-02-1.07640E-13-6.84383E-14
 -1      1352 2.03938E+01 1.36228E-01-3.62531E-02-3.21196E-01-2.42025E-13 1.04083E-17
 -1      1353 1.97068E+01 3.85005E-02 1.30884E-02 8.34853E-02-7.90683E-14-1.31173E-13
 -1      1354 1.98256E+01 2.67843E-02 1.13026E-02 9.68325E-02-7.34100E-14-2.52590E-13
 -1      1355 2.01104E+01 6.47457E-02-1.03924E-02 3.64961E-02-1.80401E-13-1.22060E-13
 -1      1356 1.98948E+01 2.48916E-02 8.16626E-03 1.58405E-01-6.10731E-14-2.83201E-13
 -1      1357 2.01021E+01 1.75134E-02 6.36522E-03 1.67873E-01-5.54439E-14-3.60536E-13
 -1      1358 2.01280E+01 3.76207E-02-6.03127E-03 2.33387E-01-1.35714E-13-2.29466E-13
 -1      1359 2.02488E+01 1.72829E-02 3.73015E-03 2.08573E-01-4.17342E-14-3.81885E-13
 -1      1360 2.05134E+01 1.13347E-02 3.26869E-03 2.15426E-01-3.34251E-14-4.58579E-13
 -1      1361 2.03377E+01 2.48827E-02-5.00689E-03 3.57515E-01-9.79902E-14-2.89751E-13
 -1      1362 2.07100E+01 1.12356E-02 1.20766E-03 2.41345E-01-3.32503E-14-4.86269E-13
 -1      1363 2.10102E+01 5.22980E-03 1.50477E-03 2.45617E-01-4.93843E-14-5.31160E-13
 -1      1364 2.06723E+01 1.57717E-02-3.93432E-03 4.38969E-01-7.11146E-14-3.38420E-13
 -1      1365 2.12352E+01 4.25289E-03-5.91002E-05 2.56220E-01-2.60073E-14-5.29216E-13
 -1      1366 2.15482E+01-2.78908E-03 4.75166E-04 2.56950E-01-4.04370E-14-5.95378E-13
 -1      1367 2.10851E+01 5.45483E-03-2.34644E-03 4.84466E-01-7.06691E-14-3.38094E-13
 -1      1368 2.17794E+01-5.58046E-03-4.12985E-04 2.47238E-01-3.67317E-14-6.01378E-13
 -1      1369 2.20740E+01-1.42002E-02 6.71462E-05 2.42549E-01-4.22804E-14-6.76466E-13
 -1      1370 2.15344E+01-9.39183E-03-1.49737E-05 4.87551E-01-7.64061E-14-3.35062E-13
 -1      1371 2.22838E+01-1.96244E-02 2.36784E-04 2.04459E-01-4.48400E-14-6.93369E-13
 -1      1372 2.25161E+01-2.95976E-02 4.71358E-04 1.91799E-01-2.44856E-15-7.10643E-13
 -1      1373 2.19726E+01-3.11410E-02 3.38361E-03 4.32671E-01-7.48832E-14-3.46286E-13
 -1      1374 2.26699E+01-3.79094E-02 2.11305E-03 1.16795E-01 1.65024E-14-7.51626E-13
 -1      1375 2.27828E+01-4.75962E-02 1.88685E-03 9.37309E-02-3.98978E-14-7.77425E-13
 -1      1376 2.23394E+01-6.01295E-02 8.04623E-03 2.99731E-01-2.61353E-14-4.46273E-13
 -1      1377 2.28404E+01-5.76256E-02 5.12911E-03-2.18610E-02-7.40397E-14-7.53719E-13
 -1      1378 2.27722E+01-6.32953E-02 4.10246E-03-5.58548E-02-6.51085E-14-8.66113E-13
 -1      1379 2.25617E+01-9.22918E-02 1.36175E-02 7.32524E-02-6.68996E-14-4.64683E-13
 -1      1380 2.26963E+01-7.14935E-02 8.33915E-03-2.02337E-01-2.34188E-17-8.66255E-13
 -1      1381 2.24021E+01-6.74671E-02 6.04021E-03-2.43060E-01 2.19763E-14-8.43742E-13
 -1      1382 2.25618E+01-1.16476E-01 1.86311E-02-2.41222E-01-4.72027E-14-4.32627E-13
 -1      1383 2.21745E+01-6.79555E-02 9.67388E-03-3.88584E-01 7.88345E-15-8.40550E-13
 -1      1384 2.16604E+01-4.89446E-02 5.71503E-03-4.24583E-01-5.81124E-14-8.26506E-13
 -1      1385 2.22811E+01-1.14470E-01 2.01494E-02-5.95840E-01-1.08845E-14-4.65694E-13
 -1      1386 2.13048E+01-3.64354E-02 6.72776E-03-5.14798E-01-9.00499E-14-8.71525E-13
 -1      1387 2.06599E+01-2.53512E-03 1.42032E-03-5.28693E-01-7.92573E-14-9.34496E-13
 -1      1388 2.17187E+01-6.85810E-02 1.44657E-02-8.87443E-01-9.25323E-14-5.07257E-13
 -1      1389 2.02584E+01 2.19688E-02-9.00573E-04-5.06010E-01-3.48554E-14-9.78009E-13
 -1      1390 1.96562E+01 6.06856E-02-6.31873E-03-4.82972E-01-4.92926E-14-1.03985E-12
 -1      1391 2.09741E+01 2.21852E-02-8.44282E-05-9.77790E-01-1.01815E-13-5.28726E-13
 -1      1392 1.93385E+01 8.58553E-02-1.01543E-02-3.24810E-01-9.58782E-15-1.08718E-12
 -1      1393 1.89821E+01 1.11703E-01-1.35573E-02-2.65725E-01 2.16580E-14-1.07164E-12
 -1      1394 2.02575E+01 1.28615E-01-1.94303E-02-7.63331E-01-4.22735E-14-6.00306E-13
 -1      1395 1.88723E+01 1.22059E-01-1.53620E-02-1.51065E-02 1.17302E-14-1.12058E-12
 -1      1396 1.88985E+01 1.21068E-01-1.51452E-02 5.84803E-02 1.41154E-14-1.09449E-12
 -1      1397 1.98280E+01 2.00283E-01-3.34016E-02-2.64882E-01-1.33088E-14-7.60223E-13
 -1      1398 1.90461E+01 1.09523E-01-1.32350E-02 3.05763E-01 1.74036E-14-1.14390E-12
 -1      1399 1.94500E+01 8.22052E-02-9.50572E-03 3.62968E-01-1.71781E-14-1.09948E-12
 -1      1400 1.98654E+01 1.97504E-01-3.29696E-02 3.45362E-01-1.79214E-14-7.40377E-13
 -1      1401 1.97992E+01 5.67408E-02-5.75770E-03 5.13135E-01 4.15648E-14-1.14585E-12
 -1      1402 2.04371E+01 1.79225E-02-1.44611E-04 5.33597E-01 3.15603E-14-1.06012E-12
 -1      1403 2.03633E+01 1.22409E-01-1.82332E-02 8.29555E-01 4.10340E-14-7.23916E-13
 -1      1404 2.08618E+01-5.54655E-03 1.85153E-03 5.48829E-01 3.43271E-14-1.03244E-12
 -1      1405 2.15312E+01-3.84149E-02 7.26743E-03 5.33393E-01-1.01483E-14-1.03487E-12
 -1      1406 2.11332E+01 1.62643E-02 1.07364E-03 1.02466E+00 2.64932E-14-8.77100E-13
 -1      1407 2.19052E+01-4.94796E-02 5.74651E-03 4.40483E-01-6.89527E-14-1.05262E-12
 -1      1408 2.24395E+01-6.72430E-02 9.68872E-03 4.04574E-01-6.62482E-14-1.14106E-12
 -1      1409 2.19174E+01-7.09799E-02 1.48160E-02 9.21916E-01-5.56742E-14-8.40897E-13
 -1      1410 2.26862E+01-6.55611E-02 5.67911E-03 2.61854E-01 2.89569E-14-1.06300E-12
 -1      1411 2.30046E+01-6.87789E-02 8.04685E-03 2.22540E-01 6.05210E-14-1.03797E-12
 -1      1412 2.25154E+01-1.12438E-01 1.96580E-02 6.30695E-01-1.27068E-14-6.77460E-13
 -1      1413 2.31046E+01-5.98665E-02 3.56265E-03 8.26713E-02 1.13527E-13-9.84664E-13
 -1      1414 2.32072E+01-5.40201E-02 4.74418E-03 5.07439E-02 1.46831E-13-8.07676E-13
 -1      1415 2.28378E+01-1.11218E-01 1.76974E-02 2.87690E-01 1.08076E-13-5.53884E-13
 -1      1416 2.31810E+01-4.36065E-02 1.26568E-03-5.66426E-02 7.62133E-14-7.62412E-13
 -1      1417 2.31154E+01-3.43181E-02 1.69861E-03-7.75116E-02 4.36027E-14-6.63710E-13
 -1      1418 2.28916E+01-8.55486E-02 1.25959E-02-8.88024E-03 1.49178E-13-5.34568E-13
 -1      1419 2.30004E+01-2.57710E-02-2.61776E-04-1.44525E-01 1.43028E-15-6.37620E-13
 -1      1420 2.28283E+01-1.66885E-02-2.68422E-04-1.55200E-01 1.86188E-14-6.96570E-13
 -1      1421 2.27377E+01-5.32781E-02 7.16921E-03-2.16009E-01 4.39180E-14-4.33045E-13
 -1      1422 2.26629E+01-1.10731E-02-8.91126E-04-1.86876E-01 1.86098E-14-7.07260E-13
 -1      1423 2.24394E+01-3.82857E-03-1.16233E-03-1.90023E-01-5.15637E-14-7.57619E-13
 -1      1424 2.24516E+01-2.51269E-02 2.80896E-03-3.31919E-01-3.79956E-14-4.16199E-13
 -1      1425 2.22547E+01-8.82738E-04-8.92903E-04-1.96149E-01-1.65918E-14-7.59336E-13
 -1      1426 2.20200E+01 4.19172E-03-1.32658E-03-1.94553E-01 5.48756E-15-7.77889E-13
 -1      1427 2.21012E+01-4.98399E-03-1.42718E-04-3.75202E-01-5.82043E-15-4.10665E-13
 -1      1428 2.18376E+01 5.20354E-03-5.95411E-04-1.84815E-01-9.12898E-15-7.04809E-13
 -1      1429 2.16166E+01 8.38982E-03-1.11791E-03-1.80689E-01 6.66725E-14-6.59996E-13
 -1      1430 2.17374E+01 7.32136E-03-1.86129E-03-3.69414E-01-2.11633E-14-3.65837E-13
 -1      1431 2.14498E+01 8.20678E-03-2.33711E-04-1.62695E-01 3.23551E-14-6.96623E-13
 -1      1432 2.12556E+01 9.97223E-03-7.84971E-04-1.57553E-01-6.56983E-14-6.79425E-13
 -1      1433 2.13931E+01 1.35685E-02-2.67976E-03-3.35211E-01 4.96065E-14-3.29894E-13
 -1      1434 2.11108E+01 9.16321E-03 7.06740E-05-1.36508E-01-2.45793E-14-6.26907E-13
 -1      1435 2.09482E+01 9.95528E-03-4.62156E-04-1.31278E-01 4.54326E-14-6.22658E-13
 -1      1436 2.10867E+01 1.57488E-02-2.91348E-03-2.87803E-01-2.06137E-14-2.37855E-13
 -1      1437 2.08274E+01 8.89826E-03 2.77939E-04-1.10376E-01 3.12593E-14-7.47520E-13
 -1      1438 2.06964E+01 9.07302E-03-2.04291E-04-1.05562E-01-3.50628E-14-7.30530E-13
 -1      1439 2.08259E+01 1.54958E-02-2.80349E-03-2.37129E-01-1.43587E-14-3.23409E-13
 -1      1440 2.05988E+01 7.99225E-03 3.92041E-04-8.65367E-02 6.26462E-14-6.31659E-13
 -1      1441 2.04965E+01 7.80661E-03-2.21097E-05-8.23694E-02 1.38910E-13-5.66168E-13
 -1      1442 2.06118E+01 1.39654E-02-2.51485E-03-1.89002E-01 9.82868E-14-3.56215E-13
 -1      1443 2.04198E+01 6.81982E-03 4.33944E-04-6.59919E-02-7.50751E-14-4.45112E-13
 -1      1444 2.03421E+01 6.44750E-03 9.34106E-05-6.25348E-02-5.96565E-14-5.59735E-13
 -1      1445 2.04409E+01 1.19008E-02-2.15265E-03-1.46372E-01 7.80558E-14-2.92164E-13
 -1      1446 2.02834E+01 5.60536E-03 4.27102E-04-4.89899E-02-6.90599E-14-5.94388E-13
 -1      1447 2.02260E+01 5.15772E-03 1.57484E-04-4.62143E-02-1.38846E-14-6.33884E-13
 -1      1448 2.03081E+01 9.74221E-03-1.77974E-03-1.10353E-01-6.52253E-14-2.79083E-13
 -1      1449 2.01821E+01 4.47193E-03 3.91328E-04-3.53576E-02 1.60404E-13-7.26680E-13
 -1      1450 2.01410E+01 4.01651E-03 1.85135E-04-3.31890E-02 9.91971E-14-5.71205E-13
 -1      1451 2.02075E+01 7.72743E-03-1.43092E-03-8.09799E-02 2.37841E-14-4.98513E-13
 -1      1452 2.01091E+01 3.47808E-03 3.41206E-04-2.47141E-02-7.83726E-15-6.53970E-13
 -1      1453 2.00805E+01 3.05281E-03 1.88806E-04-2.30602E-02-1.54069E-14-6.83673E-13
 -1      1454 2.01332E+01 5.96712E-03-1.12315E-03-5.77034E-02-1.41286E-14-7.02599E-13
 -1      1455 2.00580E+01 2.64328E-03 2.86490E-04-1.66001E-02-3.60807E-14-5.30168E-13
 -1      1456 2.00391E+01 2.26684E-03 1.77881E-04-1.53677E-02-1.64239E-14-6.24096E-13
 -1      1457 2.00797E+01 4.49657E-03-8.62457E-04-3.97130E-02-3.31702E-14-5.16947E-13
 -1      1458 2.00238E+01 1.96465E-03 2.33139E-04-1.05542E-02-1.00908E-13-7.08065E-13
 -1      1459 2.00119E+01 1.64359E-03 1.58989E-04-9.65684E-03-2.28874E-13-9.05714E-13
 -1      1460 2.00425E+01 3.30898E-03-6.48445E-04-2.61257E-02-1.27635E-13-5.13642E-13
 -1      1461 2.00020E+01 1.42760E-03 1.84397E-04-6.15218E-03-6.30306E-14-8.33617E-13
 -1      1462 1.99953E+01 1.16113E-03 1.36547E-04-5.51471E-03-6.11924E-14-8.95983E-13
 -1      1463 2.00177E+01 2.37619E-03-4.77229E-04-1.60936E-02-1.54113E-13-5.02100E-13
 -1      1464 1.99893E+01 1.01224E-03 1.41675E-04-3.02600E-03-1.17063E-13-8.70584E-13
 -1      1465 1.99862E+01 7.95333E-04 1.13302E-04-2.58578E-03-9.74097E-15-8.84623E-13
 -1      1466 2.00021E+01 1.66098E-03-3.43252E-04-8.85949E-03-1.11113E-13-4.46894E-13
 -1      1467 1.99832E+01 6.97061E-04 1.05232E-04-8.70191E-04 1.08488E-13-9.20215E-13
 -1      1468 1.99825E+01 5.22451E-04 9.08144E-05-5.76918E-04 1.02329E-13-8.28119E-13
 -1      1469 1.99931E+01 1.12389E-03-2.40382E-04-3.77981E-03 1.24736E-13-5.04716E-13
 -1      1470 1.99814E+01 4.60841E-04 7.47066E-05 5.58567E-04 6.83736E-14-5.50787E-13
 -1      1471 1.99824E+01 3.20132E-04 6.99309E-05 7.43566E-04 1.62752E-13-4.01644E-13
 -1      1472 1.99889E+01 7.26626E-04-1.62511E-04-3.30726E-04 2.86431E-13-3.29939E-13
 -1      1473 1.99827E+01 2.83256E-04 4.96361E-05 1.44443E-03 2.98462E-13-4.60190E-13
 -1      1474 1.99846E+01 1.67480E-04 5.14400E-05 1.54899E-03 2.44459E-13-6.06791E-14
 -1      1475 1.99879E+01 4.33156E-04-1.03776E-04 1.89510E-03 3.16775E-13-8.95480E-14
 -1      1476 1.99857E+01 1.44425E-04 3.03092E-05 1.91528E-03 1.17003E-13-1.82797E-14
 -1      1477 1.99882E+01 4.41117E-05 3.71764E-05 1.95661E-03-2.52195E-14 6.43181E-14
 -1      1478 1.99891E+01 2.08727E-04-5.84810E-05 3.19399E-03 2.46589E-13-2.02963E-13
 -1      1479 1.99896E+01 2.35174E-05 1.93150E-05 2.04303E-03-7.62041E-14-5.88526E-14
 -1      1480 1.99921E+01-7.13513E-05 3.15677E-05 2.02628E-03-4.82398E-14-1.43028E-13
 -1      1481 1.99914E+01 1.74396E-05-2.05029E-05 3.75475E-03-1.37865E-14-2.60175E-13
 -1      1482 1.99936E+01-1.04385E-04 2.23990E-05 1.84036E-03 1.40294E-13-2.51116E-14
 -1      1483 1.99958E+01-2.02513E-04 3.50920E-05 1.75418E-03 1.27353E-13 1.45165E-13
 -1      1484 1.99941E+01-1.84395E-04 1.53514E-05 3.65339E-03 7.42072E-14-6.56224E-14
 -1      1485 1.99971E+01-2.67042E-04 3.88645E-05 1.25647E-03-7.18843E-15 2.13237E-13
 -1      1486 1.99985E+01-3.31892E-04 4.13552E-05 1.10358E-03-3.21071E-14 1.41855E-13
 -1      1487 1.99968E+01-4.58963E-04 4.86977E-05 2.87332E-03 1.04225E-13 1.65048E-13
 -1      1488 1.99996E+01-2.55881E-04 7.93298E-05 1.39473E-04-1.95245E-13 1.14137E-13
 -1      1489 1.99991E+01-7.85789E-04 5.56076E-05 1.16028E-03-1.67267E-13 9.21031E-14
 -1      1490 2.05601E+01 7.44762E-02-1.47468E-01 4.01535E-01 1.43868E-13 2.06420E-12
 -1      1491 2.17029E+01 2.16553E-01-2.27555E-01 6.33293E-01 1.18544E-13 2.25805E-12
 -1      1492 2.19385E+01 8.59902E-01-8.85153E-02 1.89740E+00 2.20338E-13 1.61464E-12
 -1      1493 1.98442E+01 3.47508E-02-1.97806E-02 1.02079E-01 1.02172E-13 1.77151E-12
 -1      1494 2.01482E+01 1.16490E-01-5.97052E-02 1.55495E-01 9.97674E-14 1.92661E-12
 -1      1495 2.06915E+01 1.84395E-01-5.61773E-02 6.27106E-01 2.13295E-13 1.37381E-12
 -1      1496 1.97041E+01 1.99053E-02 5.28060E-03-4.48446E-02 8.25338E-14 1.56083E-12
 -1      1497 1.97133E+01 5.85295E-02 2.56285E-03-1.38465E-02 7.60329E-14 1.66445E-12
 -1      1498 2.01504E+01 7.69240E-02-1.41888E-02 1.24150E-01 1.60566E-13 1.18518E-12
 -1      1499 1.98891E+01 1.39402E-02 5.53434E-03-1.31893E-01 5.59171E-14 1.40707E-12
 -1      1500 1.97454E+01 3.65243E-02 1.18477E-02-1.10052E-01 5.53949E-14 1.49468E-12
 -1      1501 2.00575E+01 4.18485E-02-5.66507E-03-1.27860E-01 1.27036E-13 1.02097E-12
 -1      1502 2.02862E+01 1.16719E-02 2.64818E-03-1.95164E-01 1.85511E-14 1.30054E-12
 -1      1503 2.00420E+01 2.79222E-02 8.94973E-03-1.77009E-01 3.96120E-14 1.34467E-12
 -1      1504 2.02393E+01 2.85646E-02-5.92668E-03-2.86666E-01 8.22675E-14 9.28282E-13
 -1      1505 2.08445E+01 1.05700E-02 6.29643E-04-2.48164E-01 3.38878E-14 1.25415E-12
 -1      1506 2.05211E+01 2.42893E-02 5.60037E-03-2.31301E-01 1.92624E-14 1.26156E-12
 -1      1507 2.06101E+01 2.32515E-02-7.04287E-03-4.06113E-01 4.65418E-14 8.57518E-13
 -1      1508 2.15367E+01 9.19185E-03-4.30711E-04-2.94761E-01 2.98117E-14 1.15595E-12
 -1      1509 2.11448E+01 2.20614E-02 3.41761E-03-2.78502E-01 4.43486E-14 1.21179E-12
 -1      1510 2.11248E+01 2.03282E-02-7.74640E-03-5.05982E-01 6.93950E-14 8.31633E-13
 -1      1511 2.23376E+01 6.06374E-03-5.07245E-04-3.32088E-01-1.40441E-14 1.11123E-12
 -1      1512 2.18884E+01 1.85417E-02 2.00817E-03-3.17337E-01 1.94512E-14 1.12423E-12
 -1      1513 2.17542E+01 1.62841E-02-7.77856E-03-5.89347E-01 4.04290E-14 8.06852E-13
 -1      1514 2.32059E+01-6.98916E-04 1.05664E-03-3.49862E-01 5.58219E-14 1.02027E-12
 -1      1515 2.27213E+01 1.06237E-02 1.16808E-03-3.39682E-01 1.67029E-14 1.05891E-12
 -1      1516 2.24673E+01 7.39071E-03-6.50161E-03-6.45678E-01 4.72451E-14 7.08079E-13
 -1      1517 2.40634E+01-1.32282E-02 5.50717E-03-3.28786E-01 3.15607E-14 9.83359E-13
 -1      1518 2.35882E+01-5.51566E-03 1.22627E-03-3.29203E-01 2.31985E-14 1.00004E-12
 -1      1519 2.32163E+01-1.09912E-02-2.70517E-03-6.49320E-01 5.61834E-14 6.24923E-13
 -1      1520 2.47753E+01-3.27374E-02 1.40661E-02-2.41029E-01 1.04352E-14 9.19069E-13
 -1      1521 2.43898E+01-3.34048E-02 2.96894E-03-2.61274E-01 8.13585E-15 9.62723E-13
 -1      1522 2.39212E+01-4.36081E-02 5.09312E-03-5.58490E-01 2.12400E-14 6.46827E-13
 -1      1523 2.51419E+01-5.66225E-02 2.61392E-02-5.83561E-02-4.19630E-15 9.52252E-13
 -1      1524 2.49665E+01-7.28294E-02 7.10063E-03-1.08689E-01-7.40640E-15 8.91757E-13
 -1      1525 2.44589E+01-9.16719E-02 1.75360E-02-3.22186E-01-6.77756E-15 5.73816E-13
 -1      1526 2.49299E+01-7.42383E-02 3.62896E-02 2.24571E-01-4.72825E-14 1.02592E-12
 -1      1527 2.51058E+01-1.13477E-01 1.27986E-02 1.40175E-01-1.30208E-14 9.81472E-13
 -1      1528 2.46666E+01-1.44987E-01 3.21670E-02 9.33845E-02-2.40797E-14 5.94772E-13
 -1      1529 2.39774E+01-6.58266E-02 3.26715E-02 5.51368E-01 2.51717E-14 1.03478E-12
 -1      1530 2.45994E+01-1.29583E-01 1.57426E-02 4.48146E-01 5.89806E-17 1.04380E-12
 -1      1531 2.43831E+01-1.72851E-01 4.10691E-02 6.50267E-01-3.42417E-14 6.65650E-13
 -1      1532 2.23732E+01-1.45084E-02 3.52387E-03 7.77349E-01-3.63039E-14 1.01265E-12
 -1      1533 2.33783E+01-8.78748E-02 8.39403E-03 6.98895E-01 1.55466E-14 1.03169E-12
 -1      1534 2.35462E+01-1.27279E-01 3.27995E-02 1.17578E+00 2.24768E-14 7.87405E-13
 -1      1535 2.06064E+01 6.72817E-02-4.57111E-02 7.19244E-01 2.55794E-14 9.81937E-13
 -1      1536 2.16874E+01 2.02485E-02-1.28729E-02 7.21637E-01-3.25972E-14 9.61176E-13
 -1      1537 2.23297E+01 2.01017E-02 3.13434E-03 1.37033E+00-1.78286E-14 7.54296E-13
 -1      1538 1.94573E+01 1.29311E-01-8.53809E-02 3.09402E-01 1.61249E-13 7.59726E-13
 -1      1539 2.01403E+01 1.45795E-01-3.89330E-02 4.14511E-01 1.57603E-13 9.62522E-13
 -1      1540 2.11979E+01 2.18876E-01-3.35834E-02 9.85248E-01 1.49450E-13 6.62279E-13
 -1      1541 1.95466E+01 1.19403E-01-8.12547E-02-2.79223E-01 5.44703E-15 5.05568E-13
 -1      1542 1.94694E+01 2.02897E-01-5.02915E-02-1.20717E-01 9.46361E-14 6.11518E-13
 -1      1543 2.07140E+01 3.35068E-01-5.51241E-02 8.79966E-02 2.21718E-13 5.08145E-13
 -1      1544 2.08448E+01 4.81859E-02-3.04270E-02-7.17321E-01 4.48929E-14 4.10227E-13
 -1      1545 2.00414E+01 1.49910E-01-3.27629E-02-5.94217E-01-1.92658E-14 4.17708E-13
 -1      1546 2.11602E+01 2.67707E-01-4.55340E-02-8.65344E-01 5.10564E-14 2.58342E-13
 -1      1547 2.26968E+01-2.93516E-02 2.50839E-02-8.10346E-01-6.26183E-14 4.61575E-13
 -1      1548 2.15639E+01 3.75588E-02 1.04859E-03-7.73462E-01-3.74868E-14 4.08881E-13
 -1      1549 2.22936E+01 6.99330E-02-1.92865E-02-1.37859E+00-2.18228E-14 2.25927E-13
 -1      1550 2.43241E+01-6.92174E-02 5.28410E-02-6.01858E-01 9.71532E-15 3.92159E-13
 -1      1551 2.33274E+01-5.83718E-02 2.54630E-02-6.40195E-01 1.22333E-14 4.57578E-13
 -1      1552 2.35655E+01-1.18277E-01 1.90086E-03-1.29623E+00-2.64580E-14 2.56906E-13
 -1      1553 2.52731E+01-6.86747E-02 4.97130E-02-2.77823E-01 1.00109E-13 2.10488E-13
 -1      1554 2.46834E+01-9.67028E-02 3.08884E-02-3.46605E-01 8.47603E-14 3.99271E-13
 -1      1555 2.44996E+01-1.97734E-01 1.15469E-02-8.20643E-01 9.03513E-14 2.36287E-13
 -1      1556 2.54955E+01-4.81271E-02 3.19139E-02 8.11255E-03-4.57794E-14 1.76443E-13
 -1      1557 2.53407E+01-8.83404E-02 2.26165E-02-5.50490E-02-1.68407E-14 1.45273E-13
 -1      1558 2.49008E+01-1.78342E-01 1.25149E-02-2.61590E-01 6.98747E-14 1.37082E-13
 -1      1559 2.51728E+01-2.51744E-02 1.36376E-02 1.94122E-01-1.49889E-13 5.67272E-13
 -1      1560 2.53418E+01-6.00688E-02 1.08044E-02 1.51245E-01-1.70218E-13 2.85673E-13
 -1      1561 2.48124E+01-1.16939E-01 9.37809E-03 1.80049E-01-2.12923E-13 2.09160E-13
 -1      1562 2.45399E+01-7.84420E-03 1.27053E-03 2.82820E-01-5.62432E-14 8.59857E-13
 -1      1563 2.48904E+01-3.11552E-02 1.68903E-03 2.60405E-01-6.34024E-14 6.97262E-13
 -1      1564 2.43866E+01-5.56637E-02 5.66976E-03 4.43741E-01-2.19843E-13 5.22598E-13
 -1      1565 2.37895E+01 2.53795E-03-4.93781E-03 3.02519E-01 3.40870E-14 9.07340E-13
 -1      1566 2.42064E+01-9.77812E-03-3.09144E-03 2.94929E-01-9.47858E-15 9.23171E-13
 -1      1567 2.37860E+01-1.20817E-02 2.86688E-03 5.53103E-01-2.77447E-14 6.42771E-13
 -1      1568 2.30465E+01 7.55159E-03-6.98120E-03 2.82647E-01 1.05014E-13 6.38236E-13
 -1      1569 2.34569E+01 3.15860E-03-4.57253E-03 2.83872E-01 1.41253E-13 8.58792E-13
 -1      1570 2.31355E+01 1.26714E-02 1.10462E-03 5.59124E-01 1.76847E-13 6.71063E-13
 -1      1571 2.23776E+01 9.20363E-03-6.83965E-03 2.44711E-01 5.69727E-15 5.90345E-13
 -1      1572 2.27438E+01 9.62596E-03-4.27851E-03 2.50300E-01-2.56145E-14 5.22469E-13
 -1      1573 2.25142E+01 2.36820E-02 1.11754E-04 5.08533E-01 6.71305E-14 5.84629E-13
 -1      1574 2.18098E+01 9.04137E-03-5.81700E-03 2.01809E-01 9.74292E-14 3.94092E-13
 -1      1575 2.21177E+01 1.19599E-02-3.32607E-03 2.08997E-01 8.76664E-14 5.04683E-13
 -1      1576 2.19632E+01 2.64305E-02-4.03816E-04 4.34013E-01 1.03390E-13 3.63163E-13
 -1      1577 2.13466E+01 8.04662E-03-4.59831E-03 1.60857E-01 1.04541E-13 9.99131E-14
 -1      1578 2.15953E+01 1.19764E-02-2.31188E-03 1.68125E-01 1.55974E-13 2.12269E-13
 -1      1579 2.14979E+01 2.49218E-02-6.46153E-04 3.55011E-01 1.97320E-13 9.94289E-14
 -1      1580 2.09797E+01 6.77184E-03-3.47970E-03 1.24918E-01-7.78674E-14 2.42146E-13
 -1      1581 2.11748E+01 1.08601E-02-1.47151E-03 1.31535E-01-7.03244E-14 8.42321E-14
 -1      1582 2.11186E+01 2.16102E-02-7.35316E-04 2.81565E-01-3.22051E-15 1.69274E-13
 -1      1583 2.06959E+01 5.49797E-03-2.55631E-03 9.49101E-02 8.90860E-14 2.87419E-13
 -1      1584 2.08453E+01 9.30582E-03-8.53613E-04 1.00593E-01 3.08894E-14 2.38430E-13
 -1      1585 2.08175E+01 1.78324E-02-7.38406E-04 2.17929E-01-6.17995E-16 3.41361E-13
 -1      1586 2.04810E+01 4.35095E-03-1.83434E-03 7.06701E-02 6.59450E-14 8.33371E-14
 -1      1587 2.05930E+01 7.68682E-03-4.31574E-04 7.53742E-02 2.89796E-14 9.00421E-14
 -1      1588 2.05839E+01 1.42386E-02-6.93684E-04 1.65152E-01 1.22365E-13 2.01556E-13
 -1      1589 2.03213E+01 3.37453E-03-1.28747E-03 5.15586E-02-1.20740E-13 3.39091E-13
 -1      1590 2.04037E+01 6.18505E-03-1.59173E-04 5.53518E-02-5.56160E-14 2.74673E-13
 -1      1591 2.04062E+01 1.10972E-02-6.24130E-04 1.22680E-01-7.78509E-14 2.68461E-13
 -1      1592 2.02052E+01 2.57190E-03-8.81965E-04 3.67830E-02 1.56301E-13 1.42028E-13
 -1      1593 2.02644E+01 4.87541E-03 7.01156E-06 3.97805E-02 5.88591E-14 2.09226E-13
 -1      1594 2.02737E+01 8.47997E-03-5.44148E-04 8.92731E-02 1.09609E-13 2.35344E-13
 -1      1595 2.01226E+01 1.92815E-03-5.86365E-04 2.55561E-02 8.01592E-14-3.47732E-13
 -1      1596 2.01642E+01 3.77638E-03 1.01169E-04 2.78846E-02 1.33388E-13-1.84717E-13
 -1      1597 2.01768E+01 6.36621E-03-4.62853E-04 6.34894E-02 2.64029E-13-1.55555E-13
 -1      1598 2.00655E+01 1.42169E-03-3.74407E-04 1.71661E-02-1.21859E-13-1.52765E-13
 -1      1599 2.00938E+01 2.87861E-03 1.48134E-04 1.89470E-02-1.09067E-13-2.61909E-13
 -1      1600 2.01076E+01 4.69706E-03-3.85847E-04 4.39268E-02-1.13680E-13-1.37467E-13
 -1      1601 2.00274E+01 1.02987E-03-2.25208E-04 1.10015E-02 4.17402E-14-1.90598E-13
 -1      1602 2.00459E+01 2.16049E-03 1.65185E-04 1.23436E-02 1.93592E-14-4.17695E-14
 -1      1603 2.00594E+01 3.40286E-03-3.16310E-04 2.93287E-02-7.60517E-14-1.24878E-13
 -1      1604 2.00033E+01 7.31476E-04-1.22552E-04 6.55389E-03-2.57054E-14-9.13111E-14
 -1      1605 2.00146E+01 1.59628E-03 1.64030E-04 7.55044E-03-7.88512E-14-2.12790E-13
 -1      1606 2.00271E+01 2.41571E-03-2.55751E-04 1.86198E-02 2.37386E-16 2.38601E-14
 -1      1607 1.99892E+01 5.07655E-04-5.39979E-05 3.41026E-03-9.07492E-14-1.55056E-14
 -1      1608 1.99955E+01 1.16015E-03 1.52436E-04 4.13935E-03 3.28417E-14 4.85616E-14
 -1      1609 2.00064E+01 1.67460E-03-2.04537E-04 1.09082E-02-7.67730E-14 2.00895E-13
 -1      1610 1.99822E+01 3.42075E-04-1.00451E-05 1.24241E-03 2.75416E-14 9.86276E-14
 -1      1611 1.99849E+01 8.27990E-04 1.35444E-04 1.76761E-03-1.29662E-13 6.43084E-15
 -1      1612 1.99942E+01 1.12686E-03-1.62269E-04 5.47135E-03-1.46669E-13 9.93812E-14
 -1      1613 1.99801E+01 2.20729E-04 1.65587E-05-2.04595E-04-1.26154E-13 1.59275E-13
 -1      1614 1.99804E+01 5.78019E-04 1.16221E-04 1.67179E-04-1.84805E-14 1.90701E-13
 -1      1615 1.99880E+01 7.27910E-04-1.28020E-04 1.73713E-03-4.65385E-14 2.04060E-13
 -1      1616 1.99811E+01 1.31482E-04 3.15231E-05-1.12259E-03 1.96702E-13-4.50587E-14
 -1      1617 1.99799E+01 3.90701E-04 9.66761E-05-8.65625E-04 9.14741E-14 1.65389E-13
 -1      1618 1.99858E+01 4.40255E-04-1.00463E-04-7.35699E-04 9.99074E-14 9.10036E-14
 -1      1619 1.99842E+01 6.31699E-05 4.01521E-05-1.64798E-03 1.69840E-13-5.31060E-13
 -1      1620 1.99821E+01 2.47879E-04 7.81380E-05-1.47840E-03 1.72453E-13-3.50967E-13
 -1      1621 1.99864E+01 2.31747E-04-7.76312E-05-2.27444E-03 3.76372E-13-3.69581E-13
 -1      1622 1.99883E+01 4.61673E-06 4.91165E-05-1.86496E-03 2.04673E-13-9.30147E-13
 -1      1623 1.99857E+01 1.31148E-04 6.25011E-05-1.76714E-03 1.53862E-13-6.15809E-13
 -1      1624 1.99886E+01 7.29888E-05-5.60650E-05-3.10358E-03 3.48426E-13-4.29513E-13
 -1      1625 1.99926E+01-5.63350E-05 6.63167E-05-1.80440E-03-1.77566E-13-8.83369E-13
 -1      1626 1.99900E+01 2.02316E-05 5.34449E-05-1.77656E-03-2.72752E-14-9.50417E-13
 -1      1627 1.99917E+01-6.65595E-05-3.01774E-05-3.34849E-03 8.15208E-14-4.44323E-13
 -1      1628 1.99965E+01-1.34494E-04 9.01506E-05-1.43755E-03-1.12102E-13-5.87547E-13
 -1      1629 1.99942E+01-1.09853E-04 5.42024E-05-1.49944E-03-1.00940E-13-7.40050E-13
 -1      1630 1.99949E+01-2.22218E-04 5.42143E-06-3.03380E-03-2.17867E-13-5.51627E-13
 -1      1631 1.99990E+01-2.51148E-04 5.64302E-05-7.32173E-04 5.86041E-14-6.15189E-13
 -1      1632 1.99976E+01-2.68525E-04 5.73979E-05-8.90879E-04 2.87847E-14-6.17089E-13
 -1      1633 1.99976E+01-4.49776E-04 4.38000E-05-2.10693E-03-4.44309E-14-4.40481E-13
 -1      1634 1.99996E+01-2.92405E-04 6.26733E-05-1.72295E-04-2.99149E-13-2.86722E-13
 -1      1635 1.99996E+01-2.72843E-03 3.57402E-05-1.26415E-03-5.00597E-13-1.22920E-13
 -1      1636 1.99995E+01-1.37829E-03 1.98117E-05-1.07383E-03-3.97889E-13-1.53740E-13
 -1      1637 1.99998E+01-5.95429E-03-4.17991E-07-1.68035E-03-2.64995E-13 8.61951E-14
 -1      1638 1.99997E+01-3.95635E-03 2.06016E-05-1.63649E-03-3.51883E-13 3.02958E-14
 -1      1639 1.99994E+01-3.13102E-03 3.37487E-05-2.75278E-03-5.74705E-14-2.07295E-14
 -1      1640 1.99999E+01-9.40640E-03-1.71419E-05-1.69696E-03-2.68210E-13 1.22375E-13
 -1      1641 1.99998E+01-7.31324E-03 1.27121E-06-1.72550E-03-3.53832E-13 3.28689E-13
 -1      1642 1.99998E+01-5.66709E-03 8.12495E-07-3.23758E-03-3.10675E-13 5.43257E-14
 -1      1643 1.99999E+01-1.25433E-02-1.94605E-05-1.46644E-03-2.25351E-13-1.95407E-13
 -1      1644 1.99999E+01-1.06951E-02-7.01912E-06-1.53114E-03-2.44062E-13 1.25487E-13
 -1      1645 1.99999E+01-8.24551E-03-2.37753E-05-3.07855E-03-3.64500E-13 8.50519E-14
 -1      1646 2.00000E+01-1.50086E-02-1.58416E-05-1.12018E-03-5.40182E-13-5.66304E-14
 -1      1647 1.99999E+01-1.35940E-02-6.33745E-06-1.19578E-03-2.04623E-13-3.41288E-13
 -1      1648 2.00000E+01-1.05120E-02-3.61076E-05-2.54550E-03-3.31331E-13-3.14837E-13
 -1      1649 2.00000E+01-1.67485E-02-1.06446E-05-7.27225E-04-2.50051E-13 3.18368E-13
 -1      1650 1.99999E+01-1.57909E-02-4.74468E-06-8.05557E-04-4.52360E-13 9.82842E-14
 -1      1651 2.00001E+01-1.22771E-02-3.80996E-05-1.84486E-03-9.92161E-14 2.69271E-14
 -1      1652 1.99999E+01-1.76753E-02-6.10883E-06-3.32596E-04-3.83766E-13-1.79505E-13
 -1      1653 1.99999E+01-1.72106E-02-3.13811E-06-4.07870E-04-2.73297E-13 1.68214E-13
 -1      1654 2.00001E+01-1.34673E-02-3.69608E-05-1.08912E-03-6.71681E-15 1.79202E-13
 -1      1655 1.99999E+01-1.77973E-02-3.43447E-06 5.41910E-05-3.15567E-13 5.29407E-14
 -1      1656 1.99999E+01-1.78182E-02-3.50700E-06-1.90569E-05-2.31282E-13-2.50208E-14
 -1      1657 2.00001E+01-1.40445E-02-3.52216E-05-3.37633E-04 4.25687E-14-1.05170E-13
 -1      1658 1.99999E+01-1.71218E-02-2.87263E-06 4.39190E-04 6.37591E-14 2.37717E-13
 -1      1659 1.99999E+01-1.76247E-02-6.05667E-06 3.65214E-04-3.16460E-13 5.10148E-13
 -1      1660 2.00000E+01-1.40148E-02-3.48629E-05 4.02866E-04 9.79958E-14 2.55752E-13
 -1      1661 1.99999E+01-1.56503E-02-4.24136E-06 8.27544E-04-1.44314E-13-2.11495E-13
 -1      1662 1.99999E+01-1.66351E-02-1.07187E-05 7.51604E-04 1.29208E-13-1.34605E-13
 -1      1663 2.00001E+01-1.33835E-02-3.59360E-05 1.14295E-03-1.92002E-13 9.43835E-14
 -1      1664 1.99999E+01-1.34455E-02-6.61472E-06 1.20054E-03-3.27804E-13-2.33960E-14
 -1      1665 1.99999E+01-1.48705E-02-1.59406E-05 1.12837E-03-1.06578E-13-5.79121E-14
 -1      1666 2.00000E+01-1.21666E-02-3.67537E-05 1.87249E-03-1.43079E-13-2.62332E-13
 -1      1667 1.99999E+01-1.05253E-02-6.66294E-06 1.52624E-03-5.54823E-13-2.44580E-13
 -1      1668 1.99999E+01-1.23718E-02-1.97100E-05 1.46437E-03-3.88264E-13-2.55646E-14
 -1      1669 2.00000E+01-1.03845E-02-3.39906E-05 2.54856E-03-6.06244E-14-1.13396E-13
 -1      1670 1.99998E+01-7.17813E-03-1.74346E-06 1.71628E-03-6.80753E-13-1.35079E-13
 -1      1671 1.99999E+01-9.24662E-03-1.72584E-05 1.68393E-03-6.57396E-13-8.70587E-15
 -1      1672 1.99999E+01-8.10705E-03-2.25014E-05 3.06029E-03-1.75967E-13-3.21673E-13
 -1      1673 1.99997E+01-3.92281E-03 1.07630E-06 1.60256E-03-5.18730E-13 2.23915E-13
 -1      1674 1.99998E+01-5.84007E-03-4.33332E-06 1.64336E-03-6.63726E-13-6.17895E-14
 -1      1675 1.99997E+01-5.53790E-03-7.80392E-07 3.20066E-03-9.47888E-14-1.28561E-13
 -1      1676 1.99994E+01-1.59712E-03-1.31380E-05 1.44474E-03-1.94537E-13 9.27848E-14
 -1      1677 1.99995E+01-2.90117E-03-5.05390E-06 1.72495E-03-3.83369E-13 3.00921E-13
 -1      1678 1.99994E+01-3.13061E-03 7.10368E-05 3.08460E-03-5.43200E-14 3.25901E-13
 -1      1679 1.99984E+01-1.38356E-03 3.23225E-05 2.70352E-03-3.99400E-14 1.61614E-13
 -1      1680-7.29193E-01-1.45801E+01-1.63590E+00-1.12048E+00 1.27431E-12 4.88581E-13
 -1      1681-6.34318E-01-1.65794E+01-1.82542E+00 2.01256E-01 7.91284E-13 3.12528E-13
 -1      1682 2.04191E+00-7.67119E+00-1.02768E+00 1.14957E+00 1.69675E-12 9.67892E-13
 -1      1683 1.07295E+00-1.26660E+01-1.49609E+00 4.19580E-01 1.26932E-12 7.31235E-13
 -1      1684 7.15445E+00-6.44567E-01-5.41708E-01 4.48630E+00 2.00151E-12 1.48448E-12
 -1      1685 4.20284E+00-5.91706E+00-1.23491E+00 1.80943E+00 2.04436E-12 1.10734E-12
 -1      1686 1.75856E+01 4.45462E+00 1.85635E-01 9.38518E+00 1.78979E-12 1.92879E-12
 -1      1687 1.11734E+01 1.03059E+00-6.80145E-01 5.75296E+00 1.93645E-12 1.72407E-12
 -1      1688 3.11356E+01 6.33930E+00 9.62581E-01 1.24309E+01 1.28875E-12 1.47349E-12
 -1      1689 2.24173E+01 5.77076E+00 9.59538E-02 1.03112E+01 1.74238E-12 1.72085E-12
 -1      1690 4.58423E+01 5.12914E+00 1.65729E+00 1.08979E+01 6.37601E-13 7.19091E-13
 -1      1691 3.64966E+01 6.61865E+00 9.24254E-01 1.21547E+01 1.02374E-12 1.26033E-12
 -1      1692 5.48910E+01 3.54651E+00 1.96443E+00 4.30915E+00 4.80088E-13-5.97911E-13
 -1      1693 4.97512E+01 4.91568E+00 1.61693E+00 8.93043E+00 5.58581E-13 2.41807E-13
 -1      1694 5.44830E+01 3.87339E+00 1.80382E+00-3.97458E+00 5.15754E-13-1.54837E-12
 -1      1695 5.55349E+01 3.63012E+00 1.91675E+00 1.66241E+00 4.17721E-13-9.54473E-13
 -1      1696 4.51648E+01 5.63874E+00 1.29096E+00-1.01401E+01 8.55871E-13-1.99973E-12
 -1      1697 5.22256E+01 4.02983E+00 1.80240E+00-6.30999E+00 5.83422E-13-1.67355E-12
 -1      1698 3.12639E+01 6.53917E+00 5.64893E-01-1.16765E+01 1.22491E-12-2.02882E-12
 -1      1699 4.08660E+01 5.62593E+00 1.37829E+00-1.17519E+01 9.98424E-13-2.09899E-12
 -1      1700 1.80860E+01 3.97102E+00-2.19337E-01-8.51557E+00 1.38123E-12-1.55997E-12
 -1      1701 2.62386E+01 5.64435E+00 6.64466E-01-1.14338E+01 1.24634E-12-1.93179E-12
 -1      1702 8.04723E+00-1.86049E+00-9.51327E-01-4.00971E+00 1.29918E-12-1.10911E-12
 -1      1703 1.32299E+01 2.53502E+00-1.29150E-01-7.60968E+00 1.39089E-12-1.44063E-12
 -1      1704 2.07219E+00-9.18096E+00-1.55791E+00-3.95275E-01 9.95870E-13-6.90614E-13
 -1      1705 3.95465E+00-3.60780E+00-9.09898E-01-2.41069E+00 1.35247E-12-9.92595E-13
 -1      1706-6.91677E-03-1.52348E+01-1.82613E+00 3.02755E-01 3.52496E-14-4.30961E-13
 -1      1707 2.83149E-01-1.10349E+01-1.44768E+00 5.17795E-01 7.59171E-13-6.54740E-13
 -1      1708-7.84090E-01-1.68846E+01-1.83733E+00-6.13328E-01-8.84848E-13-3.31263E-13
 -1      1709-8.18648E-01-1.63656E+01-1.83086E+00 1.05437E+00-1.84908E-13-3.98209E-13
 -1      1710 9.23781E-02-1.19528E+01-1.35682E+00-2.05780E-01-1.58984E-12-8.50583E-13
 -1      1711-1.40985E-01-1.52893E+01-1.65261E+00 4.21725E-01-1.03889E-12-4.90885E-13
 -1      1712 2.46334E+00-5.58028E+00-1.02700E+00 1.41538E+00-2.27462E-12-1.38312E-12
 -1      1713 1.33467E+00-1.09009E+01-1.56918E+00 2.13196E-01-1.94456E-12-9.68656E-13
 -1      1714 1.04731E+01 1.12849E+00-2.61344E-01 6.42511E+00-2.20157E-12-1.86162E-12
 -1      1715 6.30435E+00-3.84312E+00-1.03315E+00 3.13479E+00-2.13818E-12-1.51457E-12
 -1      1716 2.17018E+01 5.67961E+00 4.69996E-01 1.08734E+01-1.83031E-12-1.83054E-12
 -1      1717 1.43495E+01 3.25669E+00-3.89215E-01 7.51157E+00-2.25464E-12-1.85507E-12
 -1      1718 3.62971E+01 5.77659E+00 1.06552E+00 1.19123E+01-1.07658E-12-1.39366E-12
 -1      1719 2.69423E+01 6.31385E+00 3.32599E-01 1.10250E+01-1.57707E-12-1.71951E-12
 -1      1720 4.80537E+01 4.47470E+00 1.50005E+00 7.77069E+00-6.01512E-13-3.97904E-13
 -1      1721 4.05721E+01 6.00691E+00 9.70375E-01 1.03764E+01-9.38125E-13-1.04006E-12
 -1      1722 5.50647E+01 3.45469E+00 1.89347E+00 1.10251E+00-3.78225E-13 6.31009E-13
 -1      1723 5.20578E+01 4.29518E+00 1.65478E+00 6.61009E+00-4.34486E-13-1.06082E-13
 -1      1724 5.13618E+01 4.38268E+00 1.62547E+00-6.67809E+00-5.47812E-13 1.53988E-12
 -1      1725 5.45402E+01 3.51157E+00 1.84257E+00-1.59190E+00-4.08729E-13 9.94677E-13
 -1      1726 4.20968E+01 6.06814E+00 1.19883E+00-1.14494E+01-9.92484E-13 1.91636E-12
 -1      1727 4.89369E+01 4.52137E+00 1.68155E+00-8.94053E+00-6.71241E-13 1.68487E-12
 -1      1728 2.96180E+01 6.82981E+00 5.70934E-01-1.19411E+01-1.35114E-12 2.03459E-12
 -1      1729 3.79208E+01 6.13296E+00 1.26192E+00-1.23868E+01-1.10034E-12 1.94211E-12
 -1      1730 1.77536E+01 4.95243E+00-1.26448E-01-9.10289E+00-1.62570E-12 1.72240E-12
 -1      1731 2.49246E+01 6.32798E+00 6.45094E-01-1.17300E+01-1.33749E-12 1.99418E-12
 -1      1732 8.45063E+00-1.14700E-01-8.14783E-01-4.69978E+00-1.60716E-12 1.36513E-12
 -1      1733 1.34035E+01 3.72789E+00-3.79619E-02-8.07809E+00-1.63902E-12 1.60094E-12
 -1      1734 2.90091E+00-7.27034E+00-1.35117E+00-1.12500E+00-1.20670E-12 9.21541E-13
 -1      1735 5.09427E+00-1.99028E+00-7.13424E-01-3.35236E+00-1.62403E-12 1.37368E-12
 -1      1736 5.35091E-01-1.34845E+01-1.62734E+00-1.05888E-01-4.16334E-13 5.97883E-13
 -1      1737 1.06448E+00-9.07302E+00-1.22032E+00-3.75996E-01-1.03806E-12 7.99777E-13
 -1      1738-6.27181E-01-1.68219E+01-1.86159E+00-3.84869E-01 5.99326E-13 3.34593E-13
 -1      1739-6.54857E-01-1.50542E+01-1.69463E+00 9.23932E-01-1.01696E-13 4.79727E-13
 -1      1740 2.43208E+01 5.48985E-01 1.91073E-01 7.20523E+00 1.25400E-12 9.07940E-13
 -1      1741 1.44580E+01-3.47295E+00-3.93403E-01 6.25883E+00 1.14486E-12 1.12871E-12
 -1      1742 1.99994E+01-6.38411E-04 7.72641E-05-7.54250E-04-4.22015E-13-2.69275E-13
 -1      1743 1.99989E+01-1.26337E-03 4.11870E-05-1.85482E-03-6.38587E-14-1.54632E-13
 -1      1744 9.39281E-01-9.42197E+00-9.78994E-01 2.72174E+00 5.96079E-13 7.94642E-13
 -1      1745 6.50284E+00-7.17056E+00-8.05054E-01 4.81204E+00 8.02913E-13 8.57245E-13
 -1      1746-1.38513E+00-1.14963E+01-1.32170E+00-9.07715E-02 3.82326E-13 6.23390E-13
 -1      1747 3.47614E+01 3.92385E+00 8.34411E-01 7.02285E+00 1.12377E-12 6.81011E-13
 -1      1748 4.35333E+01 6.19101E+00 1.39861E+00 4.84410E+00 8.52596E-13-4.09672E-14
 -1      1749 4.77365E+01 7.24263E+00 1.62921E+00 1.35007E+00 8.45768E-13-6.04850E-13
 -1      1750 4.60927E+01 7.29273E+00 1.50514E+00-2.14967E+00 6.87062E-13-8.71747E-13
 -1      1751 4.04661E+01 5.51199E+00 1.17341E+00-5.16811E+00 6.83009E-13-1.11244E-12
 -1      1752 3.12466E+01 2.41844E+00 5.88838E-01-6.72348E+00 5.85421E-13-1.13443E-12
 -1      1753 2.10164E+01-1.36805E+00 1.91318E-02-6.85099E+00 6.41820E-13-9.25815E-13
 -1      1754 1.09601E+01-5.00118E+00-5.33928E-01-5.70544E+00 5.60663E-13-8.12184E-13
 -1      1755 3.39608E+00-8.73079E+00-1.04202E+00-3.48673E+00 2.96096E-13-7.81042E-13
 -1      1756-6.01792E-01-1.12067E+01-1.30073E+00-1.40332E+00-1.22014E-13-7.77600E-13
 -1      1757-9.29361E-01-1.06736E+01-1.16123E+00 1.21569E+00-5.42955E-13-7.81764E-13
 -1      1758 2.11671E+00-8.96377E+00-1.01473E+00 3.31521E+00-9.43579E-13-1.03684E-12
 -1      1759 8.71511E+00-5.93664E+00-6.23242E-01 5.46565E+00-1.22369E-12-1.15991E-12
 -1      1760 1.77562E+01-2.18768E+00-1.47710E-01 6.86228E+00-1.32394E-12-1.02895E-12
 -1      1761 2.79030E+01 1.91740E+00 4.67433E-01 7.19888E+00-1.29352E-12-8.34666E-13
 -1      1762 3.70598E+01 4.81369E+00 9.16645E-01 5.35956E+00-1.01649E-12-4.31433E-13
 -1      1763 4.36896E+01 6.65508E+00 1.18983E+00 2.87239E+00-8.92508E-13 6.32827E-15
 -1      1764 4.71921E+01 7.27437E+00 1.54307E+00-1.84528E-02-7.18869E-13 6.89858E-13
 -1      1765 4.45903E+01 6.79229E+00 1.41003E+00-3.70899E+00-7.39353E-13 1.10395E-12
 -1      1766 3.84935E+01 5.33483E+00 1.08713E+00-6.46373E+00-8.30103E-13 1.11777E-12
 -1      1767 2.98120E+01 3.06916E+00 5.91498E-01-7.58984E+00-7.73603E-13 1.17928E-12
 -1      1768 2.03870E+01-5.97108E-02 5.41285E-02-7.31256E+00-8.45102E-13 1.01708E-12
 -1      1769 1.15126E+01-3.90040E+00-4.92207E-01-5.93965E+00-7.82929E-13 9.47020E-13
 -1      1770 4.65594E+00-7.67457E+00-9.18479E-01-4.19890E+00-4.36540E-13 8.85066E-13
 -1      1771 3.05248E-01-1.01911E+01-1.12204E+00-2.36030E+00-1.73750E-14 8.89344E-13
 -1      1772 2.29797E+01 1.96027E+00-2.60287E-02-2.56682E+00-2.53138E-13 4.45755E-13
 -1      1773 1.99865E+01 3.75240E+00-3.61267E-02-1.84942E+00-1.95537E-13-5.48499E-13
 -1      1774 2.02616E+01 3.58247E+00-4.01235E-02-2.14150E+00-2.58939E-13-4.85278E-13
 -1      1775 2.06041E+01 3.17787E+00-4.54112E-02-2.30665E+00-2.81301E-13-3.85116E-13
 -1      1776 2.08415E+01 2.79239E+00-1.37186E-01-2.59120E+00-3.40856E-13-2.53728E-13
 -1      1777 2.06695E+01 2.70935E+00-1.43636E-03-1.91505E+00-2.86818E-13-4.03788E-13
 -1      1778 1.92809E+01 4.30584E+00-2.08564E-02-1.00073E+00-2.70660E-14-6.01722E-13
 -1      1779 1.94169E+01 4.25772E+00-1.47095E-02-1.20617E+00-6.11629E-14-6.07453E-13
 -1      1780 1.90703E+01 4.44695E+00-1.68316E-02-6.48915E-01 5.08302E-14-5.72244E-13
 -1      1781 1.91681E+01 4.41644E+00-1.17516E-02-8.28886E-01 1.56433E-14-5.98289E-13
 -1      1782 1.94004E+01 3.96018E+00-7.76688E-03-8.47830E-01-1.26782E-14-5.70936E-13
 -1      1783 1.89348E+01 4.53442E+00-1.40954E-02-3.36492E-01 1.31764E-13-5.20979E-13
 -1      1784 1.89946E+01 4.51707E+00-1.07751E-02-4.96960E-01 9.61275E-14-5.50613E-13
 -1      1785 1.91868E+01 4.12602E+00-7.18582E-03-5.30581E-01 7.79905E-14-5.40552E-13
 -1      1786 1.88746E+01 4.57607E+00-1.22532E-02-4.78410E-02 1.97303E-13-4.81393E-13
 -1      1787 1.88958E+01 4.56984E+00-1.09815E-02-1.98073E-01 1.66764E-13-5.06484E-13
 -1      1788 1.90565E+01 4.22275E+00-6.74721E-03-2.45419E-01 1.57048E-13-4.95225E-13
 -1      1789 1.88916E+01 4.57381E+00-1.11638E-02 2.34438E-01 2.63825E-13-4.30564E-13
 -1      1790 1.88731E+01 4.57841E+00-1.20755E-02 8.50554E-02 2.32350E-13-4.65150E-13
 -1      1791 1.90104E+01 4.25743E+00-6.51271E-03 2.11703E-02 2.33001E-13-4.53387E-13
 -1      1792 1.89876E+01 4.52552E+00-1.09299E-02 5.28769E-01 3.14137E-13-3.71751E-13
 -1      1793 1.89288E+01 4.54211E+00-1.39808E-02 3.70526E-01 2.91383E-13-4.05925E-13
 -1      1794 1.90508E+01 4.23066E+00-6.56661E-03 2.85226E-01 2.94839E-13-4.01620E-13
 -1      1795 1.91598E+01 4.42768E+00-1.18140E-02 8.48175E-01 3.76228E-13-2.78588E-13
 -1      1796 1.90621E+01 4.45776E+00-1.68670E-02 6.74234E-01 3.44490E-13-3.34678E-13
 -1      1797 1.91779E+01 4.13963E+00-6.78659E-03 5.61060E-01 3.50827E-13-3.36724E-13
 -1      1798 1.94183E+01 4.26344E+00-1.47621E-02 1.22188E+00 4.30505E-13-1.34955E-13
 -1      1799 1.92754E+01 4.31479E+00-2.11947E-02 1.01540E+00 3.97354E-13-2.18698E-13
 -1      1800 1.93934E+01 3.97444E+00-7.29790E-03 8.66360E-01 4.09848E-13-2.27819E-13
 -1      1801 1.97787E+01 4.00066E+00-2.25653E-02 1.66030E+00 4.67554E-13 4.51687E-14
 -1      1802 1.95804E+01 4.08922E+00-2.81257E-02 1.41214E+00 4.41064E-13-6.13259E-14
 -1      1803 1.97075E+01 3.71206E+00-7.33240E-03 1.21364E+00 4.56690E-13-7.42323E-14
 -1      1804 2.02936E+01 3.55192E+00-4.21689E-02 2.15941E+00 4.73057E-13 3.16233E-13
 -1      1805 2.00054E+01 3.72722E+00-4.05550E-02 1.86435E+00 4.65430E-13 1.52323E-13
 -1      1806 2.01431E+01 3.30692E+00-4.53030E-03 1.59350E+00 4.81951E-13 1.18839E-13
 -1      1807 2.11770E+01 2.66996E+00-5.44202E-02 2.58713E+00 3.87461E-13 7.93983E-13
 -1      1808 2.06623E+01 3.09866E+00-4.99782E-02 2.32395E+00 4.25167E-13 5.09467E-13
 -1      1809 2.07592E+01 2.63697E+00 3.31473E-03 1.92371E+00 4.58482E-13 4.03302E-13
 -1      1810 2.19606E+01 1.19766E+00-1.19207E-01 2.12160E+00 2.85307E-13 1.31502E-12
 -1      1811 2.15266E+01 2.24179E+00-2.80091E-04 2.49717E+00 3.37463E-13 9.77107E-13
 -1      1812 2.12341E+01 1.68395E+00-1.96395E-02 1.86529E+00 3.95139E-13 7.73052E-13
 -1      1813 2.12601E+01 7.73010E-01-5.82270E-02 1.31745E+00 3.09051E-13 1.21496E-12
 -1      1814 2.20115E+01 2.42628E+00 8.82018E-02-2.83203E+00-3.24510E-13 8.68750E-15
 -1      1815 2.05704E+01 3.11462E-01-5.64798E-03 4.37952E-01 2.46036E-13 1.02860E-12
 -1      1816 2.10258E+01 4.46859E-01-1.05169E-02 8.22560E-01 2.65898E-13 1.11848E-12
 -1      1817 2.11051E+01 8.47137E-01 5.86066E-04 1.15904E+00 3.29722E-13 8.60334E-13
 -1      1818 2.17573E+01 1.72886E+00 7.82322E-02-2.09851E+00-3.34403E-13-8.27532E-14
 -1      1819 2.09194E+01 5.13647E-01 3.31164E-02-6.79163E-01-2.54293E-13-9.08982E-14
 -1      1820 2.05811E+01 3.74959E-01 1.10549E-02-3.77474E-01-2.24907E-13-1.52554E-13
 -1      1821 2.04518E+01 2.87071E-01 2.77513E-02-1.16267E-01-2.25273E-13-1.42409E-13
 -1      1822 2.03672E+01 2.15098E-01 1.34757E-02 4.10082E-02-1.92593E-13-2.12674E-13
 -1      1823 2.06648E+01 5.21827E-01-7.74912E-03-3.87427E-01-2.53566E-13-2.18548E-13
 -1      1824 2.03263E+01 1.73965E-01 1.70970E-02 2.04707E-01-1.64309E-13-2.02418E-13
 -1      1825 2.03727E+01 1.38631E-01 9.94169E-03 3.00827E-01-1.48001E-13-2.45002E-13
 -1      1826 2.04893E+01 3.01481E-01-7.50912E-03 9.89124E-02-2.16565E-13-2.36789E-13
 -1      1827 2.04051E+01 1.15231E-01 9.34569E-03 4.09099E-01-1.20100E-13-2.49508E-13
 -1      1828 2.05347E+01 9.37813E-02 6.72082E-03 4.72543E-01-9.85397E-14-2.78931E-13
 -1      1829 2.04871E+01 1.93154E-01-6.45695E-03 4.08833E-01-1.63609E-13-2.21687E-13
 -1      1830 2.06227E+01 7.65066E-02 4.94036E-03 5.45275E-01-9.01586E-14-2.73380E-13
 -1      1831 2.08046E+01 5.84446E-02 4.03862E-03 5.85841E-01-6.80528E-14-2.92610E-13
 -1      1832 2.06136E+01 1.27391E-01-5.33113E-03 6.15676E-01-1.07693E-13-2.45461E-13
 -1      1833 2.09334E+01 4.07402E-02 2.41778E-03 6.29283E-01-5.94748E-14-2.70777E-13
 -1      1834 2.11438E+01 1.94048E-02 1.11818E-03 6.47203E-01-5.13273E-14-2.66751E-13
 -1      1835 2.08350E+01 7.22233E-02-4.16409E-03 7.49399E-01-7.63431E-14-2.42934E-13
 -1      1836 2.13009E+01-3.39435E-03 7.97137E-04 6.58439E-01-5.58677E-14-2.68911E-13
 -1      1837 2.15164E+01-3.30064E-02-2.56380E-03 6.47659E-01-5.40336E-14-2.52912E-13
 -1      1838 2.11236E+01 8.41850E-03-3.05203E-03 8.14372E-01-6.48535E-14-2.27363E-13
 -1      1839 2.16896E+01-6.42694E-02-3.97388E-04 6.17071E-01-1.04893E-13-2.45208E-13
 -1      1840 2.18824E+01-1.05143E-01-7.10780E-03 5.67333E-01-8.42219E-14-2.75064E-13
 -1      1841 2.14544E+01-7.76220E-02-1.91095E-03 7.97423E-01-8.31980E-14-2.36717E-13
 -1      1842 2.20572E+01-1.45718E-01-1.40915E-03 4.81397E-01-5.88184E-14-2.95905E-13
 -1      1843 2.21942E+01-1.96407E-01-1.19975E-02 3.81713E-01-4.64156E-14-3.11648E-13
 -1      1844 2.18002E+01-1.92990E-01-4.92520E-04 6.73501E-01-1.12379E-13-2.34481E-13
 -1      1845 2.23507E+01-2.41707E-01-2.46552E-03 2.28625E-01-4.78220E-14-3.30949E-13
 -1      1846 2.23959E+01-2.92221E-01-1.58215E-02 7.41613E-02-4.08094E-14-3.17001E-13
 -1      1847 2.21265E+01-3.31590E-01 1.58032E-03 4.14542E-01-5.64952E-14-2.18241E-13
 -1      1848 2.25059E+01-3.28396E-01-3.87253E-03-1.45447E-01-4.86347E-14-2.69010E-13
 -1      1849 2.24289E+01-3.56578E-01-1.62431E-02-3.42361E-01-5.56794E-14-2.87917E-13
 -1      1850 2.23869E+01-4.63324E-01 4.66679E-03 6.71275E-03-4.09820E-14-1.85518E-13
 -1      1851 2.24565E+01-3.59025E-01-5.86972E-03-5.99692E-01-4.86017E-14-3.01640E-13
 -1      1852 2.22482E+01-3.33265E-01-1.08478E-02-7.97761E-01-5.75937E-14-2.80602E-13
 -1      1853 2.25207E+01-5.25995E-01 8.58202E-03-5.21032E-01-7.20621E-14-1.31041E-13
 -1      1854 2.21615E+01-2.74115E-01-7.96474E-03-1.02230E+00-6.51194E-14-3.07280E-13
 -1      1855 2.18506E+01-1.70696E-01 5.25581E-04-1.14916E+00-9.23606E-14-2.75097E-13
 -1      1856 2.24635E+01-4.36242E-01 1.16001E-02-1.06343E+00-7.81614E-14-1.15639E-13
 -1      1857 2.16509E+01-4.16545E-02-8.24089E-03-1.23657E+00-1.32864E-13-3.25477E-13
 -1      1858 2.13129E+01 1.25056E-01 1.36424E-02-1.21275E+00-9.30605E-14-3.42950E-13
 -1      1859 2.21847E+01-1.39638E-01 9.88220E-03-1.42708E+00-1.14522E-13-1.60223E-13
 -1      1860 2.10666E+01 2.86861E-01-3.36993E-03-1.07473E+00-1.01724E-13-4.11860E-13
 -1      1861 2.08066E+01 4.47224E-01 2.05599E-02-8.64918E-01-7.34473E-14-4.53878E-13
 -1      1862 2.17473E+01 3.13722E-01 7.45926E-04-1.38871E+00-1.48403E-13-2.38498E-13
 -1      1863 2.06395E+01 5.59671E-01 6.52858E-03-5.06703E-01-6.89743E-14-5.14070E-13
 -1      1864 2.05525E+01 6.23741E-01 1.66758E-02-1.68499E-01-5.36290E-14-5.58793E-13
 -1      1865 2.13376E+01 7.35670E-01-1.24575E-02-8.39555E-01-1.26152E-13-3.34529E-13
 -1      1866 2.05666E+01 6.19765E-01 1.68229E-02 2.78063E-01-2.00534E-15-5.89945E-13
 -1      1867 2.06884E+01 5.47612E-01 5.76180E-03 6.11807E-01-2.81684E-14-5.84545E-13
 -1      1868 2.11855E+01 9.00606E-01-1.94758E-02 6.86430E-02-8.81812E-14-3.49633E-13
 -1      1869 2.08806E+01 4.28893E-01 2.01426E-02 9.58670E-01-3.48185E-14-5.57484E-13
 -1      1870 2.11706E+01 2.65809E-01-3.62897E-03 1.15717E+00 3.08625E-14-5.67011E-13
 -1      1871 2.13914E+01 7.14373E-01-1.21643E-02 9.64248E-01 2.71397E-15-4.40473E-13
 -1      1872 2.14321E+01 1.05222E-01 1.28788E-02 1.28021E+00 5.89806E-17-6.35029E-13
 -1      1873 2.17946E+01-5.69411E-02-7.39837E-03 1.29419E+00-2.04810E-14-7.14407E-13
 -1      1874 2.18411E+01 2.85123E-01 1.93231E-03 1.48207E+00-3.06547E-14-4.58377E-13
 -1      1875 2.20035E+01-1.80404E-01-3.46705E-04 1.19791E+00 4.00686E-14-7.27174E-13
 -1      1876 2.23346E+01-2.76386E-01-7.10112E-03 1.06773E+00-3.69279E-15-6.17032E-13
 -1      1877 2.23036E+01-1.57692E-01 1.05699E-02 1.49353E+00 3.04921E-15-4.60125E-13
 -1      1878 2.24304E+01-3.29378E-01-1.15368E-02 8.44236E-01-9.09776E-15-4.50236E-13
 -1      1879 2.26593E+01-3.48994E-01-5.06136E-03 6.50228E-01 1.07352E-13-4.05182E-13
 -1      1880 2.26016E+01-4.35442E-01 1.13330E-02 1.12182E+00 1.12085E-13-3.79804E-13
 -1      1881 2.26447E+01-3.42673E-01-1.64780E-02 4.01679E-01 1.08630E-13-4.20152E-13
 -1      1882 2.27462E+01-3.11242E-01-3.09057E-03 2.13683E-01 1.09336E-13-4.18025E-13
 -1      1883 2.26821E+01-5.08697E-01 8.04944E-03 5.91168E-01 1.17196E-13-2.94913E-13
 -1      1884 2.26538E+01-2.73739E-01-1.57483E-02 6.53715E-03 1.26728E-13-4.33043E-13
 -1      1885 2.26393E+01-2.22576E-01-1.74113E-03-1.37150E-01 1.88537E-13-4.02258E-13
 -1      1886 2.25800E+01-4.37100E-01 4.26297E-03 8.72714E-02 1.18126E-13-4.23384E-13
 -1      1887 2.25037E+01-1.77961E-01-1.18873E-02-2.77659E-01 2.07030E-13-4.35305E-13
 -1      1888 2.24036E+01-1.28556E-01-8.54681E-04-3.67199E-01 6.48730E-14-3.61465E-13
 -1      1889 2.23591E+01-3.03650E-01 1.46893E-03-2.93036E-01 2.30734E-13-4.14388E-13
 -1      1890 2.22506E+01-9.01995E-02-7.21988E-03-4.43240E-01-4.35511E-14-1.99482E-13
 -1      1891 2.20991E+01-5.22009E-02-2.10088E-04-4.85441E-01-3.79562E-14-2.34347E-13
 -1      1892 2.20766E+01-1.68974E-01-2.30259E-04-5.27779E-01 1.42784E-13-2.00005E-13
 -1      1893 2.19455E+01-2.46234E-02-3.12213E-03-5.11339E-01-5.85183E-14-6.33796E-14
 -1      1894 2.17719E+01 2.92118E-04 2.94693E-04-5.19132E-01-1.37864E-14-1.23500E-13
 -1      1895 2.17738E+01-6.22987E-02-1.17090E-03-6.36684E-01 2.16634E-14 4.44278E-14
 -1      1896 2.16275E+01 1.74948E-02-1.19886E-04-5.11451E-01 2.46068E-14-1.42275E-13
 -1      1897 2.14531E+01 3.13998E-02 6.77898E-04-4.97676E-01 8.29356E-14-1.16191E-13
 -1      1898 2.14772E+01 9.63819E-03-1.65513E-03-6.54090E-01 2.00375E-14 3.07807E-14
 -1      1899 2.13233E+01 4.05232E-02 1.77086E-03-4.70566E-01 5.00770E-14-8.48316E-14
 -1      1900 2.11616E+01 4.65212E-02 9.33739E-04-4.45401E-01 4.54411E-14-9.92559E-14
 -1      1901 2.12028E+01 5.13119E-02-1.86922E-03-6.13672E-01 5.30405E-14 3.85295E-14
 -1      1902 2.10487E+01 5.01016E-02 2.75980E-03-4.09247E-01-3.30493E-14-1.27303E-13
 -1      1903 2.09068E+01 5.10370E-02 1.06756E-03-3.79748E-01-7.14478E-14-1.36149E-13
 -1      1904 2.09589E+01 7.07276E-02-1.91492E-03-5.42238E-01 2.54123E-14 6.98770E-14
 -1      1905 2.08113E+01 5.11812E-02 3.11014E-03-3.41393E-01-8.90761E-14-1.22934E-13
 -1      1906 2.06918E+01 4.92214E-02 1.09914E-03-3.11955E-01-2.72843E-14-1.39148E-13
 -1      1907 2.07491E+01 7.55728E-02-1.84979E-03-4.58618E-01-7.81723E-14-2.55918E-14
 -1      1908 2.06130E+01 4.74581E-02 3.05611E-03-2.75472E-01 1.59676E-14-2.03530E-13
 -1      1909 2.05157E+01 4.40866E-02 1.05556E-03-2.48529E-01 1.82887E-13-1.68409E-13
 -1      1910 2.05734E+01 7.18547E-02-1.71203E-03-3.74772E-01 2.74596E-14-2.43241E-14
 -1      1911 2.04521E+01 4.14327E-02 2.77603E-03-2.16041E-01 1.70961E-13-2.00460E-13
 -1      1912 2.03750E+01 3.75860E-02 9.63845E-04-1.92715E-01 1.97811E-14-1.20830E-13
 -1      1913 2.04298E+01 6.37620E-02-1.53075E-03-2.97509E-01 1.34397E-13-1.50543E-13
 -1      1914 2.03248E+01 3.46714E-02 2.39264E-03-1.65067E-01-1.60266E-13-2.14609E-13
 -1      1915 2.02653E+01 3.08957E-02 8.46754E-04-1.45663E-01-1.27975E-13-2.52340E-13
 -1      1916 2.03150E+01 5.39850E-02-1.32908E-03-2.30106E-01-1.38993E-13-2.41708E-13
 -1      1917 2.02264E+01 2.80822E-02 1.98371E-03-1.22930E-01-4.41546E-14-3.15163E-13
 -1      1918 2.01817E+01 2.46640E-02 7.21285E-04-1.07284E-01-1.50765E-14-2.64582E-13
 -1      1919 2.02252E+01 4.41254E-02-1.12468E-03-1.73585E-01-1.17748E-13-1.65684E-13
 -1      1920 2.01522E+01 2.21378E-02 1.59435E-03-8.91073E-02-8.46439E-14-2.28150E-13
 -1      1921 2.01195E+01 1.92005E-02 5.98922E-04-7.68188E-02-1.57066E-13-3.01532E-13
 -1      1922 2.01564E+01 3.50505E-02-9.30036E-04-1.27636E-01-5.75827E-14 6.38003E-14
 -1      1923 2.00976E+01 1.70382E-02 1.24761E-03-6.26342E-02 3.29321E-15-2.29446E-13
 -1      1924 2.00743E+01 1.46077E-02 4.86595E-04-5.32071E-02 3.56566E-14-1.87171E-13
 -1      1925 2.01048E+01 2.71595E-02-7.53017E-04-9.12423E-02-3.75580E-14 2.42760E-14
 -1      1926 2.00585E+01 1.28209E-02 9.52581E-04-4.23826E-02-4.67122E-14-2.39393E-13
 -1      1927 2.00425E+01 1.08691E-02 3.87802E-04-3.53103E-02-7.12773E-14-1.96298E-13
 -1      1928 2.00671E+01 2.05682E-02-5.97720E-04-6.30774E-02 1.61177E-15 5.03844E-14
 -1      1929 2.00314E+01 9.43334E-03 7.09929E-04-2.72274E-02-1.05951E-13-2.44616E-14
 -1      1930 2.00208E+01 7.90499E-03 3.03612E-04-2.20395E-02-1.17908E-13 3.53944E-14
 -1      1931 2.00402E+01 1.52311E-02-4.65410E-04-4.17516E-02-1.42452E-14 7.86289E-14
 -1      1932 2.00134E+01 6.77782E-03 5.15719E-04-1.61377E-02-1.70631E-13 3.28663E-15
 -1      1933 2.00069E+01 5.60688E-03 2.33458E-04-1.24229E-02-6.11213E-14 4.37420E-14
 -1      1934 2.00216E+01 1.10192E-02-3.55391E-04-2.59518E-02-1.75791E-13 3.51125E-13
 -1      1935 2.00021E+01 4.73870E-03 3.63784E-04-8.21954E-03 4.88219E-15-6.77745E-14
 -1      1936 1.99986E+01 3.85752E-03 1.75696E-04-5.63406E-03 2.10538E-13-7.27877E-14
 -1      1937 2.00094E+01 7.76633E-03-2.65741E-04-1.45139E-02-5.15397E-14 2.72236E-13
 -1      1938 1.99958E+01 3.19752E-03 2.47210E-04-2.73157E-03 4.05898E-13-8.08451E-14
 -1      1939 1.99943E+01 2.54118E-03 1.27997E-04-1.00013E-03 3.87513E-13 8.12971E-14
 -1      1940 2.00019E+01 5.29685E-03-1.93893E-04-6.45374E-03 2.67077E-13 1.93228E-13
 -1      1941 1.99929E+01 2.04011E-03 1.59250E-04 9.15162E-04 1.56785E-13 1.05134E-13
 -1      1942 1.99928E+01 1.54788E-03 8.76842E-05 2.00189E-03 1.86746E-13 6.28970E-14
 -1      1943 1.99977E+01 3.43878E-03-1.37031E-04-9.74711E-04 2.77139E-13 2.80177E-13
 -1      1944 1.99923E+01 1.15858E-03 9.39541E-05 3.16405E-03 1.89358E-13-1.19623E-13
 -1      1945 1.99930E+01 7.72549E-04 5.19293E-05 3.75282E-03 1.38025E-13-1.68349E-13
 -1      1946 1.99959E+01 2.02892E-03-9.23554E-05 2.53811E-03 5.37493E-14-1.50650E-13
 -1      1947 1.99932E+01 4.48360E-04 4.67144E-05 4.32083E-03 8.41947E-14-1.87954E-13
 -1      1948 1.99944E+01 1.15102E-04 2.12402E-05 4.49622E-03 8.39922E-15-2.29858E-13
 -1      1949 1.99956E+01 9.10534E-04-5.72855E-05 4.52936E-03 6.35539E-14-1.85364E-13
 -1      1950 1.99948E+01-2.02942E-04 1.21474E-05 4.57218E-03 1.04828E-13-9.61496E-14
 -1      1951 1.99961E+01-5.33335E-04-4.88973E-06 4.35402E-03 1.72989E-13-1.00087E-14
 -1      1952 1.99963E+01-5.66652E-05-2.95547E-05 5.28566E-03 2.84420E-14-3.59691E-14
 -1      1953 1.99966E+01-8.12633E-04-6.74507E-07 3.99751E-03 9.44948E-14 3.70869E-14
 -1      1954 1.99978E+01-1.17627E-03-2.79608E-05 3.39801E-03 6.58643E-14 5.84972E-14
 -1      1955 1.99983E+01-1.82701E-03-9.08868E-06 3.90375E-03 6.90546E-14 2.09847E-13
 -1      1956 1.99973E+01-1.01189E-03-1.61807E-05 5.00319E-03 1.50616E-13-2.92909E-14
 -1      1957 2.02842E+01 1.70475E-01 1.07113E-02 1.78518E-03 1.98848E-13 8.68510E-13
 -1      1958 2.04434E+01 2.27141E-01 1.80194E-02 1.94380E-01 2.09196E-13 9.54127E-13
 -1      1959 2.06167E+01 3.77159E-01-3.21224E-03 3.62142E-01 2.62497E-13 7.26020E-13
 -1      1960 2.02841E+01 1.13020E-01 9.99597E-03-2.62708E-01 1.53306E-13 7.36535E-13
 -1      1961 2.02623E+01 1.38721E-01 1.59670E-02-1.43763E-01 1.57421E-13 8.01585E-13
 -1      1962 2.04158E+01 2.11971E-01-3.91941E-03-9.87603E-02 2.03959E-13 6.07867E-13
 -1      1963 2.04931E+01 8.77684E-02 7.81159E-03-4.49482E-01 6.67812E-14 6.75264E-13
 -1      1964 2.03545E+01 1.00738E-01 1.04521E-02-3.62162E-01 9.91581E-14 7.12541E-13
 -1      1965 2.04527E+01 1.44468E-01-5.05385E-03-3.97590E-01 1.36929E-13 5.03359E-13
 -1      1966 2.08585E+01 7.49628E-02 6.35838E-03-5.98574E-01 6.70310E-14 6.22883E-13
 -1      1967 2.06361E+01 8.30026E-02 6.68502E-03-5.25955E-01 4.29648E-14 6.61257E-13
 -1      1968 2.06643E+01 1.14273E-01-5.47009E-03-6.17422E-01 7.04974E-14 4.45264E-13
 -1      1969 2.13463E+01 6.38040E-02 5.03484E-03-7.24104E-01 6.19461E-14 6.37910E-13
 -1      1970 2.10594E+01 7.15987E-02 4.37366E-03-6.60544E-01 6.26270E-14 6.55523E-13
 -1      1971 2.10094E+01 9.65167E-02-5.42613E-03-7.94709E-01 6.79307E-14 4.48138E-13
 -1      1972 2.19289E+01 4.47822E-02 3.06222E-03-8.22444E-01 5.92725E-14 5.88910E-13
 -1      1973 2.15936E+01 5.66157E-02 2.56154E-03-7.70310E-01 7.48290E-14 6.23285E-13
 -1      1974 2.14599E+01 7.57661E-02-5.31583E-03-9.38813E-01 8.25381E-14 4.35955E-13
 -1      1975 2.25737E+01 6.80069E-03-1.31245E-04-8.72378E-01 9.70532E-14 4.97225E-13
 -1      1976 2.22110E+01 2.74939E-02 5.96085E-04-8.42535E-01 8.02997E-14 5.46338E-13
 -1      1977 2.19923E+01 3.71525E-02-5.19365E-03-1.03776E+00 1.16251E-13 4.05949E-13
 -1      1978 2.32313E+01-6.25404E-02-4.68571E-03-8.32722E-01 2.74260E-15 4.92400E-13
 -1      1979 2.28748E+01-2.82197E-02-1.81910E-03-8.46145E-01 4.30845E-14 4.94533E-13
 -1      1980 2.25788E+01-3.62612E-02-4.78934E-03-1.05755E+00 6.96585E-14 3.77933E-13
 -1      1981 2.38266E+01-1.71486E-01-9.81605E-03-6.43831E-01 4.60474E-14 4.93432E-13
 -1      1982 2.35275E+01-1.22062E-01-4.61045E-03-7.31180E-01 4.09794E-14 5.14198E-13
 -1      1983 2.31802E+01-1.60178E-01-3.46970E-03-9.41397E-01 4.37432E-14 3.79369E-13
 -1      1984 2.42531E+01-3.09760E-01-1.32464E-02-2.44056E-01-3.99316E-14 4.61586E-13
 -1      1985 2.40801E+01-2.54410E-01-7.33532E-03-4.37434E-01-1.57166E-14 4.89014E-13
 -1      1986 2.37355E+01-3.35994E-01-2.86833E-04-6.18146E-01 2.41127E-15 3.63576E-13
 -1      1987 2.43818E+01-4.25800E-01-1.16107E-02 3.83129E-01 2.48499E-14 4.69002E-13
 -1      1988 2.44081E+01-3.93975E-01-9.35201E-03 7.45579E-02-1.31353E-14 4.72635E-13
 -1      1989 2.41537E+01-5.24372E-01 5.55785E-03-3.46074E-02 1.43149E-14 3.80828E-13
 -1      1990 2.40960E+01-4.15137E-01-3.55788E-03 1.12707E+00-3.96003E-14 5.53460E-13
 -1      1991 2.43679E+01-4.56291E-01-1.03369E-02 7.59304E-01-8.16326E-14 4.99491E-13
 -1      1992 2.43120E+01-6.17322E-01 1.29316E-02 7.73540E-01-6.76299E-14 4.02442E-13
 -1      1993 2.33714E+01-1.68469E-01 4.83524E-03 1.68164E+00 1.74817E-15 7.66713E-13
 -1      1994 2.38630E+01-3.18379E-01-1.01714E-02 1.40884E+00 6.28664E-15 6.73826E-13
 -1      1995 2.40907E+01-4.55593E-01 1.61369E-02 1.58678E+00-6.75657E-14 5.39737E-13
 -1      1996 2.24029E+01 2.88270E-01 2.67400E-03 1.62718E+00 6.74322E-14 6.50965E-13
 -1      1997 2.29729E+01 7.44850E-02-7.93511E-03 1.65284E+00 2.44674E-14 7.37493E-13
 -1      1998 2.34824E+01 4.14289E-02 6.45970E-03 1.97358E+00 1.41384E-14 5.97437E-13
 -1      1999 2.16424E+01 7.01742E-01-1.30993E-02 7.75525E-01 2.64157E-13 5.00222E-13
 -1      2000 2.20585E+01 5.59557E-01-3.35224E-04 1.17867E+00 1.93696E-13 5.78313E-13
 -1      2001 2.27476E+01 6.87926E-01-1.43294E-02 1.51915E+00 2.47549E-13 5.26483E-13
 -1      2002 2.15728E+01 7.43648E-01-3.15948E-02-5.33384E-01 2.69909E-13 3.44160E-13
 -1      2003 2.16104E+01 8.00406E-01 4.66578E-03 6.81455E-02 2.97110E-13 4.39600E-13
 -1      2004 2.23454E+01 1.08770E+00-2.62199E-02 2.41010E-01 3.58175E-13 3.60306E-13
 -1      2005 2.22926E+01 3.78111E-01-2.28291E-02-1.54603E+00 1.27051E-14 1.75849E-13
 -1      2006 2.19130E+01 5.84934E-01 6.84460E-03-1.09460E+00 1.30736E-13 2.58932E-13
 -1      2007 2.25937E+01 8.94480E-01-2.11315E-02-1.19837E+00 2.05072E-13 2.57025E-13
 -1      2008 2.33698E+01-9.17778E-02-8.69534E-04-1.79529E+00-9.41704E-14 1.28404E-13
 -1      2009 2.27560E+01 1.15947E-01 3.28711E-03-1.68375E+00-2.13787E-14 1.08719E-13
 -1      2010 2.33154E+01 2.90411E-01 6.43651E-04-1.99032E+00 3.52565E-14 3.23283E-14
 -1      2011 2.42638E+01-3.79130E-01 1.51223E-02-1.34932E+00 3.48879E-14 1.72001E-13
 -1      2012 2.36864E+01-2.87157E-01-7.43883E-03-1.53202E+00-3.35435E-14 1.44634E-13
 -1      2013 2.40419E+01-3.12410E-01 7.77003E-03-1.87290E+00-4.51006E-14-4.03861E-14
 -1      2014 2.46893E+01-4.20501E-01 1.74101E-02-6.20655E-01 1.95325E-13 7.26500E-14
 -1      2015 2.43338E+01-4.37876E-01-1.43033E-02-9.21117E-01 1.03702E-13 1.40797E-13
 -1      2016 2.44303E+01-6.05345E-01 1.49359E-03-1.15797E+00 9.38156E-14 4.56961E-14
 -1      2017 2.46544E+01-3.19220E-01 1.16057E-02 3.99373E-02-1.79723E-13 9.04823E-14
 -1      2018 2.45639E+01-3.85961E-01-1.51727E-02-2.34681E-01 6.25732E-14 7.39679E-14
 -1      2019 2.44296E+01-5.82341E-01-4.13239E-03-3.22352E-01 6.06390E-14 4.26894E-15
 -1      2020 2.42934E+01-1.83223E-01 4.41178E-03 4.82379E-01-3.38526E-13 1.86753E-13
 -1      2021 2.44181E+01-2.52247E-01-1.21797E-02 2.95901E-01-3.23923E-13 6.36279E-14
 -1      2022 2.41376E+01-4.06582E-01-6.11150E-03 3.38827E-01-2.73009E-13 2.25939E-14
 -1      2023 2.37562E+01-7.09792E-02-4.23205E-04 7.02579E-01-1.85159E-13 4.23768E-13
 -1      2024 2.40139E+01-1.21478E-01-7.64230E-03 6.06903E-01-2.84329E-13 2.78328E-13
 -1      2025 2.36774E+01-2.12111E-01-5.01286E-03 7.36774E-01-3.25250E-13 6.63835E-14
 -1      2026 2.31587E+01 1.63749E-03-2.60191E-03 7.59410E-01 8.88143E-14 4.51970E-13
 -1      2027 2.34747E+01-2.77980E-02-3.28748E-03 7.31274E-01-1.25286E-14 4.84351E-13
 -1      2028 2.31481E+01-6.39507E-02-2.96362E-03 9.04828E-01-1.07863E-13 2.35430E-13
 -1      2029 2.25749E+01 4.02098E-02-3.03615E-03 7.18511E-01 1.77201E-13 6.35643E-13
 -1      2030 2.28967E+01 2.68211E-02-1.66851E-05 7.31463E-01 1.87810E-13 5.45143E-13
 -1      2031 2.26155E+01 2.63656E-02-1.38034E-03 9.16349E-01 1.39910E-13 3.26949E-13
 -1      2032 2.20460E+01 5.57756E-02-2.63866E-03 6.30091E-01 8.21476E-14 4.16741E-13
 -1      2033 2.23428E+01 5.24392E-02 2.02366E-03 6.63599E-01 1.29914E-13 4.96594E-13
 -1      2034 2.21193E+01 7.09607E-02-5.30739E-04 8.39524E-01 1.82651E-13 4.34369E-13
 -1      2035 2.15899E+01 5.79684E-02-1.98792E-03 5.26135E-01 1.67111E-13 1.71200E-13
 -1      2036 2.18474E+01 6.00506E-02 3.04267E-03 5.66938E-01 1.48564E-13 3.32556E-13
 -1      2037 2.16798E+01 8.61379E-02-2.22165E-04 7.23248E-01 1.96817E-13 2.82419E-13
 -1      2038 2.12105E+01 5.34026E-02-1.36139E-03 4.24421E-01 1.61949E-13 1.85597E-13
 -1      2039 2.14245E+01 5.79174E-02 3.35044E-03 4.65024E-01 1.60822E-13 1.56451E-13
 -1      2040 2.13049E+01 8.49651E-02-2.00716E-04 5.97626E-01 2.12725E-13 1.97376E-13
 -1      2041 2.09035E+01 4.60607E-02-8.57074E-04 3.33448E-01-1.68324E-13 3.37661E-13
 -1      2042 2.10760E+01 5.12965E-02 3.22942E-03 3.70169E-01-5.39885E-14 2.57096E-13
 -1      2043 2.09945E+01 7.60226E-02-2.84344E-04 4.78929E-01-3.67217E-14 2.71696E-13
 -1      2044 2.06606E+01 3.81183E-02-4.87666E-04 2.56281E-01 1.81261E-13 3.11757E-13
 -1      2045 2.07962E+01 4.31911E-02 2.88820E-03 2.87700E-01 7.27673E-15 3.17673E-13
 -1      2046 2.07436E+01 6.43028E-02-3.75430E-04 3.74586E-01-8.06213E-16 3.29608E-13
 -1      2047 2.04723E+01 3.06490E-02-2.33680E-04 1.93084E-01 3.64249E-14 3.12594E-13
 -1      2048 2.05767E+01 3.51614E-02 2.46179E-03 2.19006E-01 2.03197E-13 3.96237E-13
 -1      2049 2.05449E+01 5.24343E-02-4.34948E-04 2.86907E-01 1.68997E-13 3.39933E-13
 -1      2050 2.03291E+01 2.41053E-02-6.82002E-05 1.42636E-01-1.20663E-13 2.71121E-13
 -1      2051 2.04078E+01 2.79256E-02 2.02871E-03 1.63470E-01-1.51840E-13 2.56992E-13
 -1      2052 2.03907E+01 4.16454E-02-4.55652E-04 2.15497E-01-5.87336E-14 3.45455E-13
 -1      2053 2.02222E+01 1.86112E-02 3.34669E-05 1.03181E-01 3.31717E-13 2.37835E-13
 -1      2054 2.02804E+01 2.17421E-02 1.62959E-03 1.19582E-01 1.07593E-13 2.80485E-13
 -1      2055 2.02731E+01 3.23960E-02-4.44010E-04 1.58695E-01 9.01735E-14 2.40516E-13
 -1      2056 2.01439E+01 1.41296E-02 9.10357E-05 7.28655E-02 1.09245E-13 1.47224E-13
 -1      2057 2.01861E+01 1.66351E-02 1.28196E-03 8.55505E-02 2.91820E-13 2.98208E-13
 -1      2058 2.01851E+01 2.47522E-02-4.10351E-04 1.14384E-01 3.08276E-13 5.31825E-13
 -1      2059 2.00880E+01 1.05526E-02 1.19208E-04 4.99569E-02-2.68701E-13-1.53983E-14
 -1      2060 2.01178E+01 1.25196E-02 9.90196E-04 5.96086E-02-1.01294E-13 1.23726E-14
 -1      2061 2.01206E+01 1.85962E-02-3.64372E-04 8.04115E-02 1.43090E-14 5.03547E-13
 -1      2062 2.00490E+01 7.74874E-03 1.28506E-04 3.29298E-02-1.24466E-14 7.66154E-14
 -1      2063 2.00695E+01 9.26711E-03 7.51795E-04 4.01571E-02-2.31075E-13-1.22865E-13
 -1      2064 2.00744E+01 1.37373E-02-3.13585E-04 5.47912E-02-1.52489E-13 1.57450E-13
 -1      2065 2.00229E+01 5.58653E-03 1.26223E-04 2.04927E-02-1.40057E-13 4.22568E-14
 -1      2066 2.00364E+01 6.74005E-03 5.61048E-04 2.58164E-02-4.59865E-14 5.15513E-14
 -1      2067 2.00421E+01 9.96785E-03-2.63136E-04 3.57896E-02-8.43194E-14-7.54040E-14
 -1      2068 2.00062E+01 3.94432E-03 1.17234E-04 1.15814E-02-1.61862E-13 3.14532E-13
 -1      2069 2.00146E+01 4.80717E-03 4.11063E-04 1.54344E-02-1.10311E-13 1.86732E-13
 -1      2070 2.00204E+01 7.08957E-03-2.16175E-04 2.19444E-02-2.72539E-13 1.01409E-13
 -1      2071 1.99964E+01 2.71414E-03 1.04626E-04 5.33931E-03-2.07146E-13 1.86637E-13
 -1      2072 2.00011E+01 3.35014E-03 2.94846E-04 8.07255E-03-1.70249E-13 2.40445E-13
 -1      2073 2.00065E+01 4.92411E-03-1.74350E-04 1.20554E-02-1.39358E-13 1.98319E-13
 -1      2074 1.99914E+01 1.80190E-03 9.01513E-05 1.09356E-03-1.44727E-14 2.40336E-13
 -1      2075 1.99935E+01 2.26510E-03 2.05820E-04 2.98433E-03-4.68438E-14 1.60863E-13
 -1      2076 1.99983E+01 3.31569E-03-1.38247E-04 5.16096E-03-7.80959E-14 1.97052E-13
 -1      2077 1.99897E+01 1.12568E-03 7.44965E-05-1.66884E-03 3.87491E-13-1.82180E-13
 -1      2078 1.99901E+01 1.46181E-03 1.38015E-04-4.08411E-04 1.11176E-13 3.92125E-14
 -1      2079 1.99941E+01 2.12994E-03-1.07747E-04 5.10617E-04 2.57070E-13 6.42325E-14
 -1      2080 1.99902E+01 6.11704E-04 5.75998E-05-3.32057E-03 4.49049E-13-3.56036E-13
 -1      2081 1.99895E+01 8.60774E-04 8.62543E-05-2.53687E-03 4.72234E-13-1.78964E-13
 -1      2082 1.99926E+01 1.24945E-03-8.23919E-05-2.46083E-03 5.17168E-13-1.30410E-13
 -1      2083 1.99920E+01 1.88571E-04 4.00547E-05-4.10591E-03 3.64177E-13-2.34493E-13
 -1      2084 1.99907E+01 3.87516E-04 4.65946E-05-3.70117E-03 2.93203E-13-2.16920E-13
 -1      2085 1.99929E+01 5.66860E-04-6.10000E-05-4.15492E-03 2.99545E-13-9.03684E-14
 -1      2086 1.99944E+01-2.14508E-04 2.32456E-05-4.14574E-03-1.10027E-13-2.35317E-13
 -1      2087 1.99928E+01-3.06967E-05 1.73979E-05-4.07848E-03 2.03074E-13-1.51755E-13
 -1      2088 1.99943E+01-2.11735E-05-4.09197E-05-4.81873E-03 1.89446E-13 1.03497E-13
 -1      2089 1.99967E+01-6.71555E-04 6.99668E-06-3.43909E-03-2.96445E-13-3.33976E-13
 -1      2090 1.99953E+01-4.63515E-04 1.10900E-06-3.74226E-03-1.72980E-13-3.63255E-13
 -1      2091 1.99961E+01-6.17794E-04-2.16937E-05-4.58182E-03-1.12297E-13-7.17690E-14
 -1      2092 1.99984E+01-1.12848E-03-1.18442E-05-2.37885E-03-1.34385E-14-2.47100E-13
 -1      2093 1.99973E+01-8.81221E-04-5.96057E-06-3.04440E-03-1.99984E-13-3.75482E-13
 -1      2094 1.99976E+01-1.16880E-03 1.79486E-06-3.80170E-03-2.03826E-13-1.25968E-13
 -1      2095 1.99987E+01-1.77357E-03 1.27286E-05-2.83900E-03-1.29941E-14 5.25879E-14
 -1      2096 2.00003E+01-7.12024E-03 5.07352E-06-3.74650E-03-2.90314E-13 1.83300E-14
 -1      2097 2.00001E+01-5.92976E-03 8.36323E-06-3.96982E-03-3.08541E-13 1.06858E-13
 -1      2098 1.99999E+01-5.27529E-03 3.75908E-06-4.12633E-03-3.03041E-13 2.01047E-14
 -1      2099 1.99996E+01-4.04672E-03-8.82876E-06-4.06271E-03-2.42987E-13 1.01764E-13
 -1      2100 2.00001E+01-4.28920E-03-1.30813E-05-4.88179E-03-2.43410E-13 1.50461E-13
 -1      2101 1.99993E+01-3.54959E-03 2.34667E-06-3.83135E-03-2.38207E-13-2.94244E-14
 -1      2102 1.99989E+01-2.42371E-03-1.85632E-05-3.36569E-03-1.37032E-13-5.30770E-14
 -1      2103 1.99986E+01-2.11917E-03-1.83971E-05-3.95392E-03-1.51777E-13-1.12663E-13
 -1      2104 1.99993E+01-3.19970E-03-1.53777E-05-4.79781E-03-3.20576E-13 7.37028E-15
 -1      2105 2.00005E+01-8.60107E-03 8.53324E-06-3.00183E-03-3.39561E-13-3.17108E-13
 -1      2106 2.00004E+01-7.60726E-03 2.71346E-05-3.36262E-03-3.72636E-13 6.52674E-15
 -1      2107 2.00006E+01-5.42465E-03-1.26995E-05-4.26719E-03-3.18497E-13-4.14922E-14
 -1      2108 2.00005E+01-9.69580E-03 1.32125E-05-2.08674E-03-4.09951E-15 1.30065E-13
 -1      2109 2.00005E+01-8.95003E-03 3.50305E-05-2.50750E-03-1.37059E-13 2.49373E-14
 -1      2110 2.00009E+01-6.27451E-03-1.13888E-05-3.29759E-03-1.77067E-13 5.90354E-14
 -1      2111 2.00005E+01-1.03518E-02 1.87610E-05-1.13906E-03 3.58644E-14 4.51897E-14
 -1      2112 2.00006E+01-9.90474E-03 3.59234E-05-1.56639E-03 9.97478E-14 3.31138E-13
 -1      2113 2.00009E+01-6.84598E-03-8.72300E-06-2.18228E-03 1.66400E-14 2.16246E-13
 -1      2114 2.00005E+01-1.05827E-02 2.50248E-05-2.07038E-04-9.84374E-14 2.29536E-14
 -1      2115 2.00005E+01-1.04429E-02 3.17478E-05-6.26622E-04-1.14206E-13-9.55922E-14
 -1      2116 2.00009E+01-7.15707E-03-6.03322E-06-1.05226E-03-4.34320E-14-1.57125E-13
 -1      2117 2.00005E+01-1.04043E-02 3.11481E-05 7.11826E-04-2.99114E-14 1.69870E-13
 -1      2118 2.00005E+01-1.05712E-02 2.52756E-05 2.95765E-04-6.36512E-14 1.98850E-13
 -1      2119 2.00009E+01-7.24056E-03-4.79267E-06 5.55615E-05-3.30933E-13 1.70173E-13
 -1      2120 2.00005E+01-9.82325E-03 3.50590E-05 1.63333E-03-2.67858E-13-1.23302E-13
 -1      2121 2.00005E+01-1.02924E-02 1.84023E-05 1.21564E-03-2.27046E-13 2.36282E-13
 -1      2122 2.00009E+01-7.11324E-03-5.55278E-06 1.15363E-03-2.33134E-13 1.13305E-13
 -1      2123 2.00005E+01-8.85821E-03 3.38769E-05 2.53017E-03-1.50029E-13-1.24336E-13
 -1      2124 2.00005E+01-9.60454E-03 1.23123E-05 2.13054E-03-1.94545E-13-5.97439E-14
 -1      2125 2.00009E+01-6.76968E-03-7.76119E-06 2.24769E-03-1.63538E-13 1.05283E-14
 -1      2126 2.00004E+01-7.49428E-03 2.52954E-05 3.35876E-03 2.06754E-14-5.87484E-14
 -1      2127 2.00005E+01-8.50494E-03 7.35653E-06 3.00695E-03-8.50448E-14 7.37186E-14
 -1      2128 2.00008E+01-6.18294E-03-1.07802E-05 3.31593E-03-9.47308E-14 8.95816E-14
 -1      2129 2.00001E+01-5.81178E-03 7.14087E-06 3.93848E-03 1.19130E-14-2.48977E-13
 -1      2130 2.00003E+01-6.99520E-03 3.83535E-06 3.72980E-03 1.62919E-13-3.60155E-13
 -1      2131 2.00006E+01-5.32006E-03-1.26658E-05 4.25532E-03 6.38714E-14-1.77707E-13
 -1      2132 1.99995E+01-3.96474E-03-2.25061E-05 4.06114E-03 6.10632E-15-9.82492E-14
 -1      2133 1.99999E+01-5.17458E-03 1.03714E-05 4.08500E-03 3.39849E-14-7.45567E-14
 -1      2134 2.00001E+01-4.18100E-03-5.27270E-06 4.83237E-03 1.41328E-13-1.01306E-13
 -1      2135 1.13381E+01-5.35915E+00-1.26886E-01 6.41237E+00 5.43787E-13 7.43440E-13
 -1      2136 8.00866E+00-6.09931E+00-1.71174E-01 5.71611E+00 1.99896E-13 6.72851E-13
 -1      2137 2.56530E-01-7.10296E+00-3.73656E-01 5.80508E-01 1.91874E-13 5.86031E-13
 -1      2138 2.28396E-01-7.42321E+00-4.37495E-01-9.07520E-01 8.17957E-14 5.98022E-13
 -1      2139 3.81207E+00-5.64567E+00-1.91500E-01 4.19550E+00 8.44880E-14 7.30860E-13
 -1      2140 1.46978E+00-7.00037E+00-4.17462E-01 2.24255E+00 6.32550E-14 6.97775E-13
 -1      2141 1.94462E+01-3.50047E+00 1.49556E-02 6.68584E+00 6.87894E-13 6.86895E-13
 -1      2142 1.47743E+01-5.30726E+00-3.00605E-01 6.03513E+00 5.85865E-13 7.03576E-13
 -1      2143 2.80636E+01-4.93909E-01 1.91698E-01 5.75886E+00 9.42357E-13 2.03060E-13
 -1      2144 2.31252E+01-2.52236E+00-1.78779E-01 5.50973E+00 8.61422E-13 3.93130E-13
 -1      2145 1.95733E+01 4.09232E+00-2.68048E-02-1.39866E+00-1.11793E-13-6.01338E-13
 -1      2146 1.97631E+01 4.00808E+00-2.19885E-02-1.64706E+00-1.62263E-13-5.84279E-13
 -1      2147 2.01128E+01 3.32082E+00-6.95012E-03-1.58254E+00-2.00520E-13-5.25881E-13
 -1      2148 1.97020E+01 3.70647E+00-8.24512E-03-1.20336E+00-9.74802E-14-5.68592E-13
 -1      2149 3.97767E+01 5.56855E+00 3.86752E-01 1.58295E+00 8.64864E-13-4.43090E-13
 -1      2150 3.69051E+01 4.46053E+00 1.98202E-01 2.51351E+00 8.32640E-13-1.47216E-13
 -1      2151 4.09985E+01 7.09516E+00 3.18363E-01-1.66258E-01 7.92477E-13-3.78027E-13
 -1      2152 4.07116E+01 6.77915E+00 3.70630E-01 1.07805E+00 8.80129E-13-3.72091E-13
 -1      2153 3.82911E+01 6.35964E+00 1.65787E-01-1.01195E+00 5.56444E-13-3.42393E-13
 -1      2154 4.00427E+01 7.01064E+00 3.38329E-01-2.78897E-01 6.13454E-13-2.69770E-13
 -1      2155 3.46858E+01 3.12941E+00 7.15087E-02-2.78424E+00 4.22995E-13-5.32685E-13
 -1      2156 3.78047E+01 4.61518E+00 2.40652E-01-1.82916E+00 4.82114E-13-4.30322E-13
 -1      2157 2.84205E+01-8.05194E-01-8.72308E-02-4.21960E+00 2.16438E-13-5.99520E-13
 -1      2158 3.29071E+01 1.13487E+00 2.13361E-01-3.99633E+00 3.20063E-13-5.94191E-13
 -1      2159 2.00438E+01-3.97325E+00-2.15834E-01-5.86193E+00 2.19158E-13-5.07649E-13
 -1      2160 2.49793E+01-2.14652E+00 5.84828E-02-6.09561E+00 2.59293E-13-5.85865E-13
 -1      2161 1.08831E+01-6.15838E+00-3.98409E-01-5.80062E+00 1.85851E-13-5.38694E-13
 -1      2162 1.55043E+01-4.48314E+00-1.00926E-01-6.82884E+00 2.41918E-13-5.30104E-13
 -1      2163 4.28656E+00-7.29648E+00-4.42897E-01-4.29363E+00-4.82947E-14-6.82676E-13
 -1      2164 7.26445E+00-6.08431E+00-2.69568E-01-5.51046E+00 1.72196E-13-6.33771E-13
 -1      2165 6.47618E-01-7.37424E+00-4.15370E-01-1.37063E+00-2.12191E-13-7.21589E-13
 -1      2166 1.96103E+00-6.63950E+00-3.00422E-01-2.98689E+00-4.48530E-14-7.55285E-13
 -1      2167 1.27607E+00-5.91367E+00-2.10033E-01 2.12164E+00-3.45612E-13-8.46656E-13
 -1      2168 3.48425E-01-7.22940E+00-4.21528E-01 3.00164E-01-1.95352E-13-7.81875E-13
 -1      2169 1.92518E+00-4.39072E+00-1.41290E-01-7.50665E-01-1.27107E-13-8.45601E-13
 -1      2170 5.66930E+00-6.39151E+00-3.18801E-01 5.22777E+00-7.04770E-13-9.41192E-13
 -1      2171 3.41114E+00-6.59325E+00-2.92281E-01 4.28311E+00-4.55413E-13-8.53928E-13
 -1      2172 1.31692E+01-4.77872E+00-9.42065E-02 6.94891E+00-6.76792E-13-8.47628E-13
 -1      2173 8.84533E+00-6.42132E+00-3.91664E-01 5.70516E+00-6.45373E-13-9.19247E-13
 -1      2174 9.58965E+00-5.63512E+00-1.07346E-01 6.56844E+00-2.18714E-13-7.74492E-13
 -1      2175 2.23788E+01-2.49654E+00 6.91461E-02 6.66104E+00-8.98503E-13-4.63463E-13
 -1      2176 1.77872E+01-4.47125E+00-2.05273E-01 6.23120E+00-7.13429E-13-5.83172E-13
 -1      2177 3.01842E+01 4.19035E-01 1.59581E-01 5.03338E+00-9.16073E-13-3.21798E-13
 -1      2178 2.55091E+01-1.35924E+00-1.05641E-01 5.32058E+00-1.00814E-12-4.44034E-13
 -1      2179 3.54675E+01 3.76882E+00 1.28530E-01 2.29425E+00-8.88900E-13-1.03806E-14
 -1      2180 3.26374E+01 2.34330E+00 9.54420E-02 3.46204E+00-9.46972E-13-2.80886E-13
 -1      2181 4.05061E+01 6.80278E+00 5.21221E-01 1.17037E+00-8.91287E-13 2.02061E-13
 -1      2182 3.71427E+01 6.06094E+00 1.85025E-01 1.60190E+00-9.65339E-13 2.70339E-14
 -1      2183 4.02516E+01 7.24385E+00 3.36131E-01-5.93010E-01-8.31890E-13 5.26940E-13
 -1      2184 4.07753E+01 7.09390E+00 3.82041E-01 6.20263E-01-8.36331E-13 3.40242E-13
 -1      2185 3.62099E+01 7.87812E+00 3.13109E-01-4.11526E-02-9.85378E-13 2.06765E-13
 -1      2186 3.79795E+01 5.68278E+00 2.54409E-01-2.22187E+00-6.56586E-13 7.17371E-13
 -1      2187 3.96373E+01 6.47738E+00 3.38560E-01-1.09424E+00-6.63636E-13 5.97133E-13
 -1      2188 3.35809E+01 3.09615E+00 9.85092E-02-3.89666E+00-5.89265E-13 6.68798E-13
 -1      2189 3.70405E+01 4.28357E+00 3.36938E-01-3.21506E+00-6.25458E-13 6.89893E-13
 -1      2190 2.73029E+01-4.71638E-02-6.27098E-02-5.27067E+00-3.94906E-13 6.67688E-13
 -1      2191 3.16047E+01 1.55473E+00 2.55243E-01-5.11729E+00-4.86722E-13 6.69687E-13
 -1      2192 1.98479E+01-3.04402E+00-2.23199E-01-6.13486E+00-3.57658E-13 5.68989E-13
 -1      2193 2.43968E+01-1.22503E+00 1.18104E-01-6.50707E+00-4.42646E-13 6.58806E-13
 -1      2194 1.21372E+01-5.41964E+00-3.43854E-01-6.09993E+00-2.39031E-13 5.87003E-13
 -1      2195 1.62680E+01-3.59747E+00-3.95668E-02-6.94548E+00-2.94431E-13 6.15064E-13
 -1      2196 6.02345E+00-6.52437E+00-3.15628E-01-5.25534E+00-1.38001E-13 7.06796E-13
 -1      2197 8.91059E+00-5.45157E+00-2.02068E-01-6.08634E+00-3.01426E-13 6.79328E-13
 -1      2198 1.30379E+01-5.59863E+00-1.02331E-01-6.87387E+00 1.32283E-13 4.29420E-13
 -1      2199 9.38927E-01-7.62584E+00-5.14223E-01-2.24531E+00 1.69809E-13 9.07163E-13
 -1      2200 2.65608E+00-6.43447E+00-3.33200E-01-3.77265E+00 1.31561E-14 8.78297E-13
 -1      2201 1.75973E+00-4.94299E+00-2.13274E-01-2.00462E+00-3.64153E-14 8.51874E-13
 -1      2202 3.54190E+01 2.76653E+00 3.21901E-01 4.05755E+00 8.20165E-13 2.35367E-14
 -1      2203 3.08146E+01 1.19842E+00 1.82495E-02 4.51248E+00 9.87044E-13 1.73861E-13
 -1      2204 2.34282E+01-4.53524E+00 2.36427E-03 5.29776E+00 4.18443E-13 7.60503E-14
 -1      2205 2.10635E+01 1.10681E+00-1.83889E-02-1.37608E+00-3.01797E-13-1.47762E-13
 -1      2206 3.02241E+01-1.14964E+00 1.41056E-01 3.01799E+00 6.71463E-13-2.62179E-13
 -1      2207 3.46425E+01 3.09785E+00 2.74032E-01 8.03568E-01 7.96252E-13-5.75151E-13
 -1      2208 2.09516E+01 1.34012E+00-2.05390E-02-1.37735E+00-3.00581E-13-2.57289E-13
 -1      2209 7.10628E+00-5.28933E+00-8.09822E-02 5.35123E+00-4.59632E-14 7.64971E-13
 -1      2210 6.81023E+00-3.62115E+00 1.34947E-01 5.05018E+00-3.19855E-13 7.16927E-13
 -1      2211 1.05920E+01-4.77742E+00-5.29873E-02 6.35040E+00-2.59098E-13 6.53810E-13
 -1      2212 2.19208E+00-4.50080E+00-1.42543E-01 1.84061E+00-9.55069E-14 6.72074E-13
 -1      2213 1.99993E+01-3.03990E-03-1.76913E-05 4.08873E-03 1.54370E-13 2.56227E-13
 -1      2214 1.56651E+01-5.83622E+00-1.00765E-01 6.65205E+00 1.00142E-13 5.18871E-13
 -1      2215 5.60212E+00-5.67687E+00-1.66240E-01-5.05464E+00 1.99840E-14 8.97699E-13
 -1      2216 8.59763E+00-4.79497E+00-9.98665E-02-6.39301E+00 1.37945E-13 6.24223E-13
 -1      2217 5.40897E+00-4.00781E+00 6.03226E-02-4.93418E+00 6.07847E-14 9.89042E-13
 -1      2218 2.04402E+01-4.70956E+00 5.09125E-03-6.25466E+00 7.39964E-14 4.00346E-13
 -1      2219 2.72810E+01-2.30428E+00 1.16475E-01-4.30353E+00-1.28647E-13 3.82971E-13
 -1      2220 3.22539E+01 1.28294E+00 2.23106E-01-2.09647E+00-3.72353E-13 3.97238E-13
 -1      2221 3.63170E+01 7.63679E+00 3.26957E-01 1.08028E-01-7.97251E-13 3.05256E-13
 -1      2222 3.51065E+01 4.78782E+00 1.87899E-01 8.47204E-01-8.64891E-13 8.72080E-14
 -1      2223 3.23741E+01 3.34898E+00 7.45911E-02-2.64222E-01-8.05606E-13 3.11473E-13
 -1      2224 3.30022E+01 5.39613E+00-1.27469E-01-7.95576E-01-8.84071E-13 2.61957E-13
 -1      2225 3.12144E+01 2.02045E-01 1.87220E-01 2.16658E+00-7.68694E-13 8.34333E-14
 -1      2226 1.77395E+01-5.39698E+00-2.13526E-02 6.72447E+00-3.02536E-13-4.19331E-13
 -1      2227 3.36813E+00-5.24472E+00-1.29791E-01 3.54477E+00-2.34451E-13-8.70637E-13
 -1      2228 3.78115E+00-3.15351E+00 8.70467E-02 2.82796E+00-4.52277E-14-8.41049E-13
 -1      2229 5.67407E+00-4.06270E+00-5.78533E-02 5.00651E+00-1.77913E-14-7.56839E-13
 -1      2230 4.71669E+00-5.39623E+00-1.86259E-01-4.48110E+00-1.72085E-13-7.73048E-13
 -1      2231 1.13498E+01-5.91533E+00-1.27800E-01-6.62243E+00-1.24567E-13-4.97602E-13
 -1      2232 1.99876E+01-5.28484E+00 9.95960E-03-6.19526E+00-8.63754E-14-3.31707E-13
 -1      2233 2.80779E+01-2.91004E+00 1.00912E-01-3.60487E+00-7.82152E-14-2.60791E-13
 -1      2234 3.29811E+01 1.19936E+00 1.91688E-01-7.78918E-01 1.47493E-13-1.16185E-13
 -1      2235 3.50969E+01 5.60260E+00 2.34140E-01 4.08192E-01 4.60854E-13 9.04277E-14
 -1      2236 3.65243E+01 6.78193E+00 3.61282E-01-3.50446E-01 9.01945E-13-3.61849E-13
 -1      2237 3.62538E+01 7.93477E+00 3.09093E-01 1.78197E-01 6.75626E-13-2.53339E-14
 -1      2238 2.57151E+01-3.50113E+00 7.84160E-02 4.70294E+00-5.60024E-13-6.28386E-14
 -1      2239 3.50330E+01 5.00191E+00 2.94386E-01-4.81519E-01-5.02764E-13 3.32068E-13
 -1      2240 2.06520E+01 5.73691E-01 7.22164E-03 3.08166E-01 2.92443E-13 4.83976E-13
 -1      2241 2.08322E+01 7.49938E-01 2.07963E-02 6.28418E-01 3.19134E-13 5.47451E-13
 -1      2242 1.92474E+01 3.80305E+00-1.14327E-02-3.87365E-01 1.10123E-13-4.94743E-13
 -1      2243 1.93399E+01 3.73981E+00-8.42403E-03-5.31071E-01 5.48000E-14-5.21845E-13
 -1      2244 1.94510E+01 3.61489E+00-1.36252E-02-6.55457E-01 2.16911E-14-5.35723E-13
 -1      2245 1.95847E+01 3.51185E+00-1.07662E-02-8.16082E-01-2.95428E-14-5.37993E-13
 -1      2246 1.95331E+01 3.33479E+00 1.36977E-03-5.02049E-01 4.18537E-14-4.81945E-13
 -1      2247 1.91018E+01 3.93808E+00-8.74552E-03 8.67862E-02 2.56755E-13-4.14276E-13
 -1      2248 1.91044E+01 3.93648E+00-8.33425E-03-3.94946E-02 2.12722E-13-4.39052E-13
 -1      2249 1.91672E+01 3.88939E+00-8.33121E-03 3.17459E-01 3.19541E-13-3.65315E-13
 -1      2250 1.91225E+01 3.91830E+00-9.51622E-03 1.88693E-01 2.82986E-13-3.93008E-13
 -1      2251 1.92280E+01 3.62801E+00 1.24464E-03 1.23085E-01 2.58865E-13-3.75479E-13
 -1      2252 1.93229E+01 3.75977E+00-8.79564E-03 5.58753E-01 3.68305E-13-3.04983E-13
 -1      2253 1.92329E+01 3.82114E+00-1.13365E-02 4.22163E-01 3.38115E-13-3.44744E-13
 -1      2254 1.93212E+01 3.54482E+00 1.56715E-03 3.18336E-01 3.15168E-13-3.23954E-13
 -1      2255 1.95724E+01 3.53121E+00-1.08278E-02 8.29904E-01 4.27492E-13-1.83509E-13
 -1      2256 1.94351E+01 3.63619E+00-1.37500E-02 6.74991E-01 3.93574E-13-2.55427E-13
 -1      2257 1.95120E+01 3.36370E+00 1.98260E-03 5.26078E-01 3.66942E-13-2.48325E-13
 -1      2258 1.99134E+01 3.17597E+00-1.58729E-02 1.12689E+00 4.61835E-13-3.76661E-14
 -1      2259 1.97306E+01 3.34342E+00-1.66644E-02 9.55622E-01 4.39841E-13-1.16298E-13
 -1      2260 1.97989E+01 3.06809E+00 3.12360E-03 7.51320E-01 4.16401E-13-1.32950E-13
 -1      2261 2.03490E+01 2.64158E+00-2.60427E-02 1.41960E+00 4.77816E-13 1.54286E-13
 -1      2262 2.01203E+01 2.90853E+00-1.88250E-02 1.24763E+00 4.62626E-13 4.90146E-14
 -1      2263 2.01704E+01 2.63408E+00 6.30883E-03 9.75244E-01 4.30085E-13 2.00612E-14
 -1      2264 2.05417E+01 3.67821E-01 8.98830E-03-1.68884E-01 2.20943E-13 4.03098E-13
 -1      2265 2.05933E+01 4.51249E-01 2.03435E-02 3.02290E-02 2.47740E-13 4.59071E-13
 -1      2266 2.06559E+01 7.39211E-01-4.23565E-03 2.45922E-01 3.12564E-13 3.10352E-13
 -1      2267 2.07709E+01 9.15787E-01 1.32119E-02-6.33801E-01-2.25248E-13-2.85290E-13
 -1      2268 2.06291E+01 7.05836E-01-9.15174E-04-2.97477E-01-2.15885E-13-2.86296E-13
 -1      2269 3.09363E+01-1.06745E+00-6.91146E-02 1.35591E+00 6.38864E-13-6.24278E-13
 -1      2270 2.84323E+01-2.85612E+00-3.82112E-02 2.29914E+00 4.88137E-13-4.73899E-13
 -1      2271 2.06030E+01 5.59824E-01 1.54674E-02-4.10225E-02-2.14678E-13-2.38533E-13
 -1      2272 2.05477E+01 4.47040E-01 2.93234E-03 1.66882E-01-1.84759E-13-2.37761E-13
 -1      2273 2.06119E+01 8.59525E-01-3.12245E-03-2.27770E-01-2.05479E-13-2.96612E-13
 -1      2274 2.05392E+01 3.68762E-01 1.08158E-02 3.50831E-01-1.59696E-13-1.95535E-13
 -1      2275 2.05601E+01 3.02026E-01 3.26581E-03 4.89378E-01-1.31814E-13-2.26580E-13
 -1      2276 2.05505E+01 5.55023E-01-5.29411E-03 2.46674E-01-1.63218E-13-2.48922E-13
 -1      2277 2.05855E+01 2.51540E-01 6.86938E-03 6.21309E-01-1.13528E-13-2.15837E-13
 -1      2278 2.06650E+01 2.03406E-01 2.68221E-03 7.15034E-01-8.13979E-14-2.00668E-13
 -1      2279 2.05566E+01 3.75730E-01-5.28468E-03 5.88294E-01-1.31799E-13-1.93745E-13
 -1      2280 2.07264E+01 1.60714E-01 4.65702E-03 8.06929E-01-7.41664E-14-2.17738E-13
 -1      2281 2.08474E+01 1.13855E-01 1.35389E-03 8.64308E-01-6.87392E-14-2.21130E-13
 -1      2282 2.06379E+01 2.45742E-01-4.87505E-03 8.31331E-01-1.02390E-13-1.93614E-13
 -1      2283 2.09450E+01 6.58194E-02 3.76603E-03 9.18557E-01-8.69516E-14-2.24326E-13
 -1      2284 2.10925E+01 7.46671E-03-8.43800E-04 9.37496E-01-8.07267E-14-2.48505E-13
 -1      2285 2.07909E+01 1.20679E-01-4.60602E-03 9.92270E-01-9.44626E-14-1.97959E-13
 -1      2286 2.12273E+01-5.58567E-02 3.81214E-03 9.47683E-01-5.40451E-14-2.51072E-13
 -1      2287 2.13871E+01-1.35170E-01-4.03283E-03 9.18464E-01-6.94731E-14-2.64601E-13
 -1      2288 2.10136E+01-3.18244E-02-4.72353E-03 1.06819E+00-8.22954E-14-2.47804E-13
 -1      2289 2.15610E+01-2.19949E-01 4.45223E-03 8.70618E-01-9.93680E-14-2.13692E-13
 -1      2290 2.17169E+01-3.23690E-01-8.11508E-03 7.78969E-01-9.45433E-14-2.04520E-13
 -1      2291 2.13067E+01-2.34731E-01-5.17328E-03 1.03940E+00-6.74488E-14-2.06509E-13
 -1      2292 2.19291E+01-4.27867E-01 5.10837E-03 6.54301E-01-3.38499E-14-1.63239E-13
 -1      2293 2.20613E+01-5.46578E-01-1.24318E-02 4.87246E-01-9.20921E-15-1.19046E-13
 -1      2294 2.16710E+01-4.94961E-01-5.51473E-03 8.72897E-01-3.35124E-14-1.29749E-13
 -1      2295 2.22999E+01-6.51880E-01 4.66007E-03 2.69394E-01-1.03528E-14-8.56957E-14
 -1      2296 2.23846E+01-7.53265E-01-1.52868E-02 2.62480E-02-1.43700E-14-8.29224E-14
 -1      2297 2.20969E+01-7.86262E-01-4.72809E-03 5.31462E-01 4.90081E-15-5.73545E-14
 -1      2298 2.26144E+01-8.16597E-01 1.44436E-03-2.82804E-01-1.62891E-14-3.56146E-14
 -1      2299 2.26263E+01-8.39638E-01-1.37389E-02-5.73518E-01-3.73399E-15 5.51143E-15
 -1      2300 2.25469E+01-1.02555E+00-1.33450E-03-4.70820E-03 8.31052E-15 1.16211E-14
 -1      2301 2.27821E+01-7.94555E-01-5.96378E-03-9.27074E-01-6.49533E-14 8.66372E-15
 -1      2302 2.27060E+01-6.64157E-01-4.72266E-03-1.19086E+00-1.00646E-13-3.74939E-14
 -1      2303 2.29351E+01-1.06130E+00 5.31382E-03-6.95562E-01-5.02948E-14 1.90135E-14
 -1      2304 2.27100E+01-4.50516E-01-1.61845E-02-1.47125E+00-1.53325E-13-2.50874E-14
 -1      2305 2.25590E+01-1.34807E-01 1.02414E-02-1.58877E+00-1.73664E-13-6.24555E-14
 -1      2306 2.31295E+01-7.13893E-01 1.26909E-02-1.38221E+00-1.39707E-13 5.41827E-14
 -1      2307 2.23908E+01 2.28338E-01-2.31959E-02-1.62811E+00-1.94741E-13-8.91310E-14
 -1      2308 2.22196E+01 6.43074E-01 2.25075E-02-1.49014E+00-2.00650E-13-1.30237E-13
 -1      2309 2.30259E+01 7.09540E-02 1.12028E-02-1.76330E+00-2.16409E-13 4.03041E-14
 -1      2310 2.19811E+01 1.01317E+00-1.68107E-02-1.16997E+00-1.64292E-13-1.86545E-13
 -1      2311 2.18736E+01 1.30712E+00 1.90236E-02-7.63650E-01-1.27917E-13-1.72613E-13
 -1      2312 2.26796E+01 1.08056E+00-5.49062E-05-1.50265E+00-2.29218E-13-4.40492E-14
 -1      2313 2.17686E+01 1.45583E+00-9.75163E-05-1.78571E-01-1.24654E-13-2.19476E-13
 -1      2314 2.17807E+01 1.44653E+00-1.44540E-03 3.36852E-01-8.68125E-14-1.94221E-13
 -1      2315 2.23768E+01 1.78706E+00-1.48806E-02-5.45380E-01-1.58129E-13-1.57345E-13
 -1      2316 2.19101E+01 1.27596E+00 1.81639E-02 9.14626E-01-1.12388E-13-2.71375E-13
 -1      2317 2.20414E+01 9.65428E-01-1.86463E-02 1.30476E+00-7.71718E-14-3.50093E-13
 -1      2318 2.23997E+01 1.75833E+00-1.67270E-02 7.19943E-01-1.41933E-13-2.22290E-13
 -1      2319 2.22867E+01 5.92425E-01 2.17121E-02 1.59963E+00 1.53376E-14-3.93489E-13
 -1      2320 2.24766E+01 1.83574E-01-2.10452E-02 1.72117E+00-9.03813E-15-3.85170E-13
 -1      2321 2.27352E+01 1.01702E+00 2.59767E-04 1.64017E+00-8.38067E-14-3.08282E-13
 -1      2322 2.26411E+01-1.72001E-01 9.11984E-03 1.66464E+00-2.11762E-14-2.85045E-13
 -1      2323 2.28068E+01-4.71045E-01-1.42016E-02 1.53629E+00 3.64613E-14-3.13104E-13
 -1      2324 2.30852E+01 1.57301E-02 1.12795E-02 1.84966E+00 2.82122E-14-2.55931E-13
 -1      2325 2.27963E+01-6.68898E-01-6.23532E-03 1.25312E+00 1.23877E-13-2.85233E-13
 -1      2326 2.28863E+01-7.82728E-01-4.59960E-03 9.90791E-01 1.97475E-13-2.11646E-13
 -1      2327 2.31838E+01-7.39206E-01 9.21101E-03 1.44806E+00 1.23732E-13-1.92867E-13
 -1      2328 2.27309E+01-8.16151E-01-1.46171E-02 6.47152E-01 1.40941E-13-2.51681E-13
 -1      2329 2.27346E+01-7.83341E-01 2.26501E-03 3.66374E-01 6.01899E-14-2.22369E-13
 -1      2330 2.29905E+01-1.04454E+00 2.38342E-03 7.70270E-01 1.30777E-13-2.00156E-13
 -1      2331 2.25116E+01-7.14536E-01-1.55761E-02 7.26399E-02 6.14417E-14-2.15259E-13
 -1      2332 2.24452E+01-6.10124E-01 5.10421E-03-1.56776E-01 8.14307E-14-2.53313E-13
 -1      2333 2.26152E+01-9.82361E-01-2.93775E-03 1.06308E-01 5.60548E-14-1.36189E-13
 -1      2334 2.22169E+01-5.04763E-01-1.23990E-02-3.59082E-01 1.48119E-13-2.75811E-13
 -1      2335 2.21050E+01-3.88275E-01 5.23457E-03-5.12785E-01 2.93734E-13-2.06444E-13
 -1      2336 2.21855E+01-7.33533E-01-5.01975E-03-3.97975E-01 1.41614E-13-9.83498E-14
 -1      2337 2.19029E+01-2.88184E-01-8.04115E-03-6.25484E-01 3.11114E-13-2.86524E-13
 -1      2338 2.17675E+01-1.90788E-01 4.18232E-03-7.07483E-01 2.17027E-13-1.14851E-13
 -1      2339 2.17814E+01-4.46979E-01-4.89674E-03-7.11824E-01 2.65805E-13-1.12163E-13
 -1      2340 2.16004E+01-1.13768E-01-4.09516E-03-7.50090E-01 1.48220E-13-1.32568E-13
 -1      2341 2.14579E+01-4.50143E-02 2.92003E-03-7.76522E-01 1.15375E-13 9.92044E-14
 -1      2342 2.14343E+01-2.03024E-01-3.94493E-03-8.62184E-01 2.05006E-13-1.62052E-13
 -1      2343 2.13235E+01 6.18199E-03-1.11314E-03-7.71440E-01-2.92356E-14 2.71918E-14
 -1      2344 2.11849E+01 4.82195E-02 1.87963E-03-7.60502E-01-1.06494E-14 5.36732E-15
 -1      2345 2.11478E+01-2.80067E-02-2.94598E-03-8.93441E-01 1.55803E-14-9.97592E-14
 -1      2346 2.10774E+01 7.76809E-02 8.70228E-04-7.26841E-01 2.10942E-14-8.52964E-15
 -1      2347 2.09496E+01 9.91437E-02 1.15214E-03-6.94103E-01 1.52601E-14-3.89180E-14
 -1      2348 2.09143E+01 8.10779E-02-2.18391E-03-8.48013E-01-6.39830E-15-7.19615E-14
 -1      2349 2.08634E+01 1.12811E-01 2.02225E-03-6.46067E-01-4.18154E-14-3.24382E-14
 -1      2350 2.07502E+01 1.20226E-01 6.92056E-04-6.03064E-01-6.04754E-14-9.57609E-14
 -1      2351 2.07241E+01 1.38552E-01-1.68066E-03-7.59570E-01-5.60739E-14-1.51104E-13
 -1      2352 2.06809E+01 1.23561E-01 2.56064E-03-5.50278E-01-3.04578E-14-7.50216E-14
 -1      2353 2.05837E+01 1.22311E-01 4.20531E-04-5.04720E-01 4.13369E-14 2.78586E-15
 -1      2354 2.05690E+01 1.60270E-01-1.36592E-03-6.52161E-01-3.02616E-14-4.10775E-14
 -1      2355 2.05280E+01 1.19530E-01 2.68542E-03-4.53176E-01 4.43542E-14-1.77517E-14
 -1      2356 2.04469E+01 1.13531E-01 2.67977E-04-4.09730E-01 6.12273E-14 3.11204E-14
 -1      2357 2.04426E+01 1.59573E-01-1.16276E-03-5.41593E-01 4.21229E-15 5.14642E-14
 -1      2358 2.04023E+01 1.07579E-01 2.55595E-03-3.62788E-01 4.96545E-14-9.12320E-14
 -1      2359 2.03361E+01 9.94460E-02 1.84801E-04-3.23940E-01 4.05039E-14-2.37988E-13
 -1      2360 2.03400E+01 1.46307E-01-1.01574E-03-4.37377E-01 1.30154E-14-4.22252E-15
 -1      2361 2.03006E+01 9.22340E-02 2.28838E-03-2.83169E-01 1.06206E-14-1.74380E-13
 -1      2362 2.02479E+01 8.35929E-02 1.39535E-04-2.49952E-01-1.44270E-13-1.45264E-13
 -1      2363 2.02574E+01 1.27135E-01-8.93030E-04-3.44553E-01-1.68800E-14-1.26027E-13
 -1      2364 2.02200E+01 7.62757E-02 1.96168E-03-2.15777E-01-1.34700E-13-4.78862E-14
 -1      2365 2.01789E+01 6.80600E-02 1.13765E-04-1.88324E-01-4.47117E-15 9.74298E-15
 -1      2366 2.01917E+01 1.06258E-01-7.79961E-04-2.65170E-01-3.57382E-14 3.39936E-14
 -1      2367 2.01573E+01 6.12773E-02 1.62600E-03-1.60484E-01-6.15751E-14 1.50736E-13
 -1      2368 2.01259E+01 5.39618E-02 9.74347E-05-1.38417E-01-5.12956E-14 2.01377E-13
 -1      2369 2.01401E+01 8.61311E-02-6.71917E-04-1.99397E-01 4.51920E-14 2.27017E-13
 -1      2370 2.01094E+01 4.80196E-02 1.31067E-03-1.16286E-01-9.40111E-14 2.33150E-13
 -1      2371 2.00860E+01 4.17908E-02 8.54209E-05-9.89694E-02-5.19275E-14 2.38452E-13
 -1      2372 2.01002E+01 6.80383E-02-5.69109E-04-1.46316E-01-8.29696E-14 2.48530E-13
 -1      2373 2.00735E+01 3.67886E-02 1.03080E-03-8.17593E-02-3.69355E-14 1.26885E-13
 -1      2374 2.00565E+01 3.16609E-02 7.52999E-05-6.84677E-02-2.04270E-14 1.33419E-13
 -1      2375 2.00698E+01 5.25197E-02-4.73376E-04-1.04455E-01-1.19895E-13 2.00934E-13
 -1      2376 2.00473E+01 2.75780E-02 7.92253E-04-5.53614E-02 8.39824E-14 5.35008E-14
 -1      2377 2.00353E+01 2.34703E-02 6.60002E-05-4.53745E-02-6.15137E-14 1.08959E-13
 -1      2378 2.00472E+01 3.96652E-02-3.86552E-04-7.21372E-02-1.06102E-14 1.33489E-13
 -1      2379 2.00287E+01 2.02207E-02 5.95208E-04-3.55995E-02-1.44732E-13 1.52297E-13
 -1      2380 2.00204E+01 1.70051E-02 5.70271E-05-2.82580E-02-1.18429E-13 2.33375E-13
 -1      2381 2.00307E+01 2.93100E-02-3.09809E-04-4.76962E-02-5.57364E-14 1.00969E-13
 -1      2382 2.00158E+01 1.44727E-02 4.36658E-04-2.11269E-02-1.99902E-13 3.82274E-13
 -1      2383 2.00105E+01 1.20036E-02 4.80447E-05-1.58591E-02 2.87881E-14 3.71913E-13
 -1      2384 2.00189E+01 2.11594E-02-2.43514E-04-2.95981E-02-7.96818E-14 2.56889E-13
 -1      2385 2.00074E+01 1.00625E-02 3.12032E-04-1.07879E-02 2.15598E-13 3.24194E-13
 -1      2386 2.00041E+01 8.19286E-03 3.86290E-05-7.11907E-03 2.63060E-13 2.79398E-13
 -1      2387 2.00108E+01 1.48658E-02-1.87369E-04-1.65040E-02 3.52945E-14 4.63356E-13
 -1      2388 2.00022E+01 6.71811E-03 2.16279E-04-3.63130E-03 1.73083E-13 1.21647E-13
 -1      2389 2.00004E+01 5.30733E-03 2.81926E-05-1.18408E-03 8.69540E-14-1.70073E-14
 -1      2390 2.00055E+01 1.00712E-02-1.40695E-04-7.29413E-03 8.73054E-14 2.55295E-13
 -1      2391 1.99993E+01 4.18004E-03 1.44606E-04 1.09239E-03-2.08986E-14-1.19808E-13
 -1      2392 1.99985E+01 3.09720E-03 1.62680E-05 2.60244E-03-1.64140E-14-1.16488E-13
 -1      2393 2.00021E+01 6.42980E-03-1.02580E-04-1.06981E-03-5.30550E-14 1.48735E-13
 -1      2394 1.99979E+01 2.20425E-03 9.27277E-05 3.94480E-03 1.55351E-13-1.52505E-13
 -1      2395 1.99979E+01 1.32841E-03 4.82789E-06 4.71490E-03 1.08602E-13-1.33591E-13
 -1      2396 2.00002E+01 3.61655E-03-7.20783E-05 2.85969E-03 2.04431E-14 1.01957E-13
 -1      2397 1.99977E+01 5.39736E-04 5.03774E-05 5.31720E-03 3.81476E-14 1.48875E-13
 -1      2398 1.99980E+01-2.01501E-04 2.16212E-07 5.45628E-03 7.10557E-14 2.43723E-13
 -1      2399 1.99993E+01 1.34163E-03-4.63653E-05 4.99422E-03 2.16303E-13 4.39676E-14
 -1      2400 2.07522E+01 2.20728E-01 7.08562E-03-7.65298E-01 8.18143E-14 2.89576E-13
 -1      2401 2.06180E+01 2.42450E-01 7.61808E-03-6.55201E-01 8.91496E-14 3.18749E-13
 -1      2402 2.10300E+01 1.85964E-01 6.02265E-03-9.77955E-01 6.14352E-14 2.93285E-13
 -1      2403 2.08350E+01 2.02991E-01 4.61366E-03-8.87084E-01 7.12434E-14 2.85497E-13
 -1      2404 2.07131E+01 2.97382E-01-5.21392E-03-9.33929E-01 9.44094E-14 1.89498E-13
 -1      2405 2.13961E+01 1.42085E-01 4.20056E-03-1.14955E+00 1.03179E-13 2.62380E-13
 -1      2406 2.11545E+01 1.66816E-01 3.02498E-03-1.07846E+00 7.20618E-14 2.80866E-13
 -1      2407 2.09211E+01 2.44283E-01-4.77392E-03-1.17721E+00 8.46812E-14 1.58521E-13
 -1      2408 2.18352E+01 6.32700E-02 9.33513E-04-1.26406E+00 1.06576E-13 2.82859E-13
 -1      2409 2.15612E+01 1.09640E-01 2.39451E-03-1.22433E+00 1.20462E-13 2.99878E-13
 -1      2410 2.12089E+01 1.70694E-01-4.84161E-03-1.37078E+00 1.05110E-13 1.50830E-13
 -1      2411 2.23336E+01-7.99138E-02-4.37017E-03-1.28151E+00 5.46379E-14 2.92758E-13
 -1      2412 2.20451E+01 3.75669E-03 2.61158E-03-1.29657E+00 9.98119E-14 3.00491E-13
 -1      2413 2.15770E+01 3.93793E-02-5.78356E-03-1.49408E+00 9.76209E-14 1.86873E-13
 -1      2414 2.28750E+01-3.13448E-01-1.18503E-02-1.13704E+00 3.48332E-14 3.03575E-13
 -1      2415 2.25976E+01-1.80389E-01 3.69405E-03-1.24125E+00 3.08954E-14 2.91712E-13
 -1      2416 2.20356E+01-1.89725E-01-7.72594E-03-1.50014E+00 4.81839E-14 2.25254E-13
 -1      2417 2.34323E+01-6.35603E-01-2.04548E-02-7.50253E-01-6.76889E-15 2.82132E-13
 -1      2418 2.32029E+01-4.60101E-01 5.23287E-03-9.80321E-01 2.73492E-14 3.15970E-13
 -1      2419 2.26028E+01-5.44688E-01-1.01445E-02-1.31389E+00 1.75153E-14 2.19311E-13
 -1      2420 2.39511E+01-9.68674E-01-2.65484E-02-6.07825E-02 2.10543E-14 3.19266E-13
 -1      2421 2.38186E+01-8.04812E-01 5.45426E-03-4.31297E-01 5.88939E-16 3.15689E-13
 -1      2422 2.32880E+01-1.00050E+00-1.11595E-02-8.41966E-01-5.60489E-15 2.21816E-13
 -1      2423 2.43254E+01-1.10569E+00-2.38122E-02 8.88708E-01-1.58515E-13 4.14319E-13
 -1      2424 2.43422E+01-1.07862E+00 4.42068E-04 4.31214E-01-5.07233E-14 3.95796E-13
 -1      2425 2.40498E+01-1.40684E+00-7.22967E-03-1.50144E-02-8.89267E-14 3.69130E-13
 -1      2426 2.44009E+01-7.44222E-01-8.52616E-03 1.82894E+00-7.78612E-14 4.83984E-13
 -1      2427 2.45926E+01-1.01080E+00-1.46619E-02 1.45376E+00-1.57426E-13 4.36922E-13
 -1      2428 2.47300E+01-1.43695E+00 1.68633E-03 1.10009E+00-1.54752E-13 3.83669E-13
 -1      2429 2.40850E+01 2.66950E-01 1.40327E-02 2.21343E+00 1.00453E-13 4.05731E-13
 -1      2430 2.43885E+01-3.15108E-01-3.63595E-02 2.18762E+00 1.67253E-14 4.50141E-13
 -1      2431 2.50517E+01-7.10107E-01 3.01961E-03 2.13948E+00-2.18749E-15 3.92821E-13
 -1      2432 2.35520E+01 1.46292E+00 1.26995E-02 1.50821E+00 3.39895E-13 3.61880E-13
 -1      2433 2.37965E+01 8.78401E-01-5.46484E-02 1.98096E+00 2.19214E-13 3.95012E-13
 -1      2434 2.48245E+01 8.27016E-01-8.79472E-03 2.39666E+00 2.14048E-13 2.53776E-13
 -1      2435 2.32866E+01 1.96878E+00-2.43234E-02-1.08831E-01 3.78090E-13 3.31505E-13
 -1      2436 2.33432E+01 1.84735E+00-2.83605E-02 6.65339E-01 4.04642E-13 3.81299E-13
 -1      2437 2.44306E+01 2.23615E+00-3.08943E-02 1.25855E+00 3.56187E-13 3.29380E-13
 -1      2438 2.36304E+01 1.26434E+00-6.00602E-02-1.73933E+00 1.86448E-13 2.05756E-13
 -1      2439 2.33820E+01 1.74439E+00-2.04092E-02-1.14428E+00 3.20632E-13 2.88112E-13
 -1      2440 2.42611E+01 2.51947E+00-2.30961E-02-7.20330E-01 3.37695E-13 2.90950E-13
 -1      2441 2.42946E+01 5.68459E-02-4.07004E-02-2.33377E+00 7.03161E-14 2.64320E-14
 -1      2442 2.39639E+01 6.85728E-01 1.74702E-02-2.19838E+00 1.28765E-13 1.27582E-13
 -1      2443 2.47434E+01 1.36477E+00-5.40716E-03-2.27400E+00 2.59202E-13 1.09822E-13
 -1      2444 2.46925E+01-8.50899E-01-1.69018E-02-1.84536E+00 7.31251E-15-1.04906E-13
 -1      2445 2.44213E+01-4.78810E-01-1.87093E-03-2.13267E+00 1.05510E-14-3.06291E-14
 -1      2446 2.51009E+01-2.74791E-01 9.20431E-04-2.44052E+00 1.27027E-13 6.29496E-14
 -1      2447 2.46043E+01-1.08885E+00 9.26843E-04-8.64827E-01 1.05613E-13-2.10697E-13
 -1      2448 2.45015E+01-1.04581E+00-2.06058E-02-1.30230E+00 4.89496E-14-2.00269E-13
 -1      2449 2.49708E+01-1.29857E+00-2.47858E-04-1.57553E+00 8.64476E-14-1.93230E-13
 -1      2450 2.41875E+01-8.92648E-01 7.82773E-03 6.42278E-02-9.59467E-14-3.53201E-14
 -1      2451 2.42470E+01-1.02946E+00-2.53813E-02-3.27451E-01 7.66869E-14-5.66240E-14
 -1      2452 2.44031E+01-1.45505E+00-3.15906E-03-4.46431E-01 8.44897E-15-3.07360E-13
 -1      2453 2.36276E+01-5.51518E-01 6.93287E-03 7.05911E-01-3.16243E-13-5.64366E-14
 -1      2454 2.38020E+01-7.29381E-01-2.16324E-02 4.43865E-01-1.66219E-13 1.66082E-14
 -1      2455 2.36749E+01-1.12994E+00-1.07211E-02 4.78272E-01-1.38150E-13-9.94732E-14
 -1      2456 2.30548E+01-2.44867E-01 4.48570E-03 1.04037E+00-2.77283E-13-4.63666E-14
 -1      2457 2.32919E+01-3.90259E-01-1.38431E-02 9.08891E-01-3.51726E-13-3.63728E-14
 -1      2458 2.29858E+01-6.64474E-01-1.13181E-02 1.04662E+00-2.80148E-13-1.69450E-14
 -1      2459 2.25261E+01-3.38893E-02 2.51970E-03 1.14264E+00-1.09597E-13-2.29395E-15
 -1      2460 2.27850E+01-1.28026E-01-6.30065E-03 1.10803E+00-2.35234E-13-5.07068E-14
 -1      2461 2.24094E+01-2.69307E-01-8.38156E-03 1.30115E+00-2.61879E-13-2.06252E-13
 -1      2462 2.20583E+01 8.62489E-02 1.39057E-03 1.10044E+00 1.19168E-13 1.01169E-13
 -1      2463 2.23120E+01 3.58106E-02-8.30604E-04 1.12532E+00 3.14357E-14-7.41334E-15
 -1      2464 2.19441E+01-6.33986E-03-5.44516E-03 1.33905E+00-7.58515E-14-1.94591E-13
 -1      2465 2.16534E+01 1.41018E-01 8.83102E-04 9.82813E-01 1.75221E-13 1.83864E-13
 -1      2466 2.18860E+01 1.20371E-01 2.51184E-03 1.03789E+00 1.82325E-13 2.06973E-13
 -1      2467 2.15665E+01 1.38979E-01-3.46605E-03 1.24969E+00 1.08620E-13-7.02008E-14
 -1      2468 2.13087E+01 1.55540E-01 7.03976E-04 8.35709E-01 1.92931E-13 2.54223E-13
 -1      2469 2.15124E+01 1.52521E-01 4.19728E-03 9.01648E-01 1.55058E-13 2.50385E-13
 -1      2470 2.12558E+01 2.01933E-01-2.37490E-03 1.09797E+00 1.26380E-13 5.57471E-14
 -1      2471 2.10201E+01 1.48277E-01 6.57961E-04 6.86258E-01 1.80096E-13 3.27745E-13
 -1      2472 2.11924E+01 1.54400E-01 4.76623E-03 7.51838E-01 2.57595E-13 2.95720E-13
 -1      2473 2.09977E+01 2.15070E-01-1.84325E-03 9.25581E-01 1.40216E-13 2.43687E-13
 -1      2474 2.07824E+01 1.30968E-01 6.44279E-04 5.48656E-01-1.79850E-14 2.49837E-13
 -1      2475 2.09241E+01 1.41005E-01 4.66816E-03 6.08189E-01 8.09027E-14 2.70360E-13
 -1      2476 2.07832E+01 2.01724E-01-1.58745E-03 7.56684E-01 1.93919E-13 2.73185E-13
 -1      2477 2.05900E+01 1.10388E-01 6.22205E-04 4.29056E-01 3.68364E-14 1.21294E-13
 -1      2478 2.07039E+01 1.21399E-01 4.22184E-03 4.80243E-01-5.38057E-14 2.18426E-13
 -1      2479 2.06062E+01 1.76551E-01-1.43621E-03 6.03678E-01-1.94365E-15 9.78902E-14
 -1      2480 2.04368E+01 9.01110E-02 5.81746E-04 3.28991E-01 5.77977E-14 2.65572E-13
 -1      2481 2.05265E+01 1.00591E-01 3.63138E-03 3.71434E-01 1.36333E-13 2.12916E-13
 -1      2482 2.04619E+01 1.47934E-01-1.30772E-03 4.71681E-01-7.45776E-14-7.34158E-14
 -1      2483 2.03169E+01 7.18162E-02 5.25761E-04 2.47555E-01-2.65778E-14 3.10184E-13
 -1      2484 2.03862E+01 8.10926E-02 3.01646E-03 2.81827E-01-3.62789E-14 3.57475E-13
 -1      2485 2.03460E+01 1.20249E-01-1.17303E-03 3.61602E-01-8.37785E-15 2.59006E-13
 -1      2486 2.02246E+01 5.61258E-02 4.60884E-04 1.82709E-01 9.42805E-14 3.63827E-13
 -1      2487 2.02772E+01 6.39851E-02 2.44069E-03 2.09805E-01 5.80834E-15 4.32291E-13
 -1      2488 2.02542E+01 9.55100E-02-1.02874E-03 2.72116E-01-5.20661E-15 4.83101E-13
 -1      2489 2.01549E+01 4.31102E-02 3.93551E-04 1.32021E-01 1.91530E-13 6.35937E-13
 -1      2490 2.01941E+01 4.95727E-02 1.93310E-03 1.53060E-01 2.31098E-13 5.60814E-13
 -1      2491 2.01829E+01 7.44200E-02-8.80968E-04 2.00864E-01 7.53054E-14 4.90468E-13
 -1      2492 2.01033E+01 3.25733E-02 3.28622E-04 9.30645E-02 5.66309E-14 4.92013E-13
 -1      2493 2.01318E+01 3.77686E-02 1.50279E-03 1.09129E-01 1.91511E-13 6.51497E-13
 -1      2494 2.01283E+01 5.69998E-02-7.37484E-04 1.45145E-01 2.12469E-13 5.93017E-13
 -1      2495 2.00658E+01 2.42086E-02 2.69181E-04 6.36071E-02 4.25626E-14 1.01562E-13
 -1      2496 2.00861E+01 2.83078E-02 1.14806E-03 7.56750E-02 7.79024E-14 3.12654E-13
 -1      2497 2.00874E+01 4.29448E-02-6.04503E-04 1.02294E-01 2.99252E-13 4.17195E-13
 -1      2498 2.00393E+01 1.76805E-02 2.16779E-04 4.16991E-02-2.29310E-13 5.47051E-14
 -1      2499 2.00533E+01 2.08616E-02 8.61955E-04 5.06135E-02-9.20084E-14-4.09576E-14
 -1      2500 2.00573E+01 3.18200E-02-4.85862E-04 6.98696E-02 2.09733E-14 1.13984E-13
 -1      2501 2.00212E+01 1.26645E-02 1.71792E-04 2.56918E-02-2.73061E-13 1.62751E-14
 -1      2502 2.00305E+01 1.50954E-02 6.35381E-04 3.21578E-02-3.00145E-13 1.89627E-16
 -1      2503 2.00358E+01 2.31609E-02-3.83228E-04 4.57409E-02-2.85257E-13 5.28390E-14
 -1      2504 2.00093E+01 8.86445E-03 1.33723E-04 1.42277E-02-2.48683E-13 1.12414E-13
 -1      2505 2.00152E+01 1.06965E-02 4.58861E-04 1.88202E-02-2.58608E-13-4.13966E-14
 -1      2506 2.00208E+01 1.65235E-02-2.96634E-04 2.81041E-02-3.55657E-13-6.04494E-14
 -1      2507 2.00020E+01 6.01803E-03 1.01460E-04 6.21719E-03 1.01270E-13-1.53746E-13
 -1      2508 2.00054E+01 7.38433E-03 3.23416E-04 9.39311E-03-4.45947E-14-2.28466E-14
 -1      2509 2.00107E+01 1.15041E-02-2.25074E-04 1.54743E-02-6.40840E-14-1.18210E-13
 -1      2510 1.99980E+01 3.89577E-03 7.35754E-05 8.09772E-04 3.80096E-13-1.15109E-13
 -1      2511 1.99996E+01 4.91225E-03 2.20970E-04 2.92129E-03 2.64250E-13-3.21737E-14
 -1      2512 2.00043E+01 7.74627E-03-1.66874E-04 6.66025E-03 1.56553E-13-3.57788E-13
 -1      2513 1.99962E+01 2.29612E-03 4.82174E-05-2.63539E-03 4.23378E-13 6.73292E-14
 -1      2514 1.99967E+01 3.06518E-03 1.44473E-04-1.32794E-03 4.07236E-13 1.01988E-14
 -1      2515 2.00005E+01 4.93882E-03-1.20073E-04 7.34278E-04 2.96512E-13-3.10648E-13
 -1      2516 1.99960E+01 1.03676E-03 2.61051E-05-4.57246E-03 3.47724E-13 9.99537E-14
 -1      2517 1.99957E+01 1.65043E-03 8.82254E-05-3.89269E-03 3.23038E-13 2.11470E-13
 -1      2518 1.99986E+01 2.80547E-03-8.32315E-05-3.00264E-03 2.80711E-13 2.54430E-13
 -1      2519 1.99966E+01-6.82023E-05 4.20578E-06-5.29493E-03 1.45613E-13 8.24436E-14
 -1      2520 1.99959E+01 4.78342E-04 4.49136E-05-5.14495E-03 3.73845E-13 1.65257E-13
 -1      2521 1.99979E+01 1.10895E-03-5.24404E-05-5.04620E-03 2.98832E-13-5.40085E-15
 -1      2522 1.99976E+01-1.14590E-03-1.83023E-05-4.95067E-03-2.35550E-13-5.75607E-14
 -1      2523 1.99968E+01-5.88009E-04 2.31845E-05-5.26837E-03-6.87936E-15 1.04698E-13
 -1      2524 1.99980E+01-4.59320E-04-3.26639E-05-5.74300E-03 1.09291E-13-9.30913E-14
 -1      2525 1.99980E+01-1.70945E-03 5.02552E-06-4.36269E-03-3.03125E-13-8.11654E-14
 -1      2526 2.00015E+01-3.99608E-03-1.59644E-06-3.11251E-03 1.60954E-14 2.12373E-13
 -1      2527 2.00014E+01-3.63619E-03 2.26617E-05-3.66161E-03-8.47151E-14-8.26424E-14
 -1      2528 2.00015E+01-4.05924E-03-9.47081E-07-1.92403E-03 1.19845E-13 2.64477E-13
 -1      2529 2.00015E+01-3.82874E-03 2.40073E-05-2.49894E-03 1.96936E-14 4.17532E-13
 -1      2530 2.00020E+01-1.25162E-03 7.59421E-06-2.86056E-03 1.32651E-13 2.74467E-13
 -1      2531 2.00006E+01-3.27094E-03 8.29340E-06-5.09470E-03-1.57035E-13 1.26306E-13
 -1      2532 2.00000E+01-2.65785E-03-1.07601E-05-5.27868E-03-2.20296E-13 1.96405E-13
 -1      2533 2.00012E+01-3.75477E-03 1.22816E-06-4.23756E-03-2.19052E-13-1.13281E-13
 -1      2534 2.00010E+01-3.27180E-03 1.42504E-05-4.66340E-03-2.03406E-13 6.43110E-17
 -1      2535 2.00011E+01-1.68597E-03-2.51514E-06-5.11396E-03-1.58241E-13-9.21745E-14
 -1      2536 2.00017E+01-1.54393E-03-1.96841E-07-4.07969E-03 3.00701E-14-3.80986E-14
 -1      2537 2.00014E+01-4.02470E-03 3.81670E-06-7.70741E-04-9.82509E-14-1.89244E-13
 -1      2538 2.00015E+01-3.91785E-03 1.97096E-05-1.33394E-03 6.28057E-14-2.90071E-13
 -1      2539 2.00020E+01-9.49729E-04 1.47427E-05-1.63938E-03 5.01479E-14-1.14216E-13
 -1      2540 2.00014E+01-3.95335E-03 1.12068E-05 3.40230E-04-2.41470E-13 1.87438E-13
 -1      2541 2.00014E+01-3.96337E-03 1.21027E-05-2.10789E-04-2.60955E-13 7.85396E-15
 -1      2542 2.00020E+01-7.54511E-04 1.89922E-05-4.84300E-04-4.18528E-14-2.46306E-13
 -1      2543 2.00014E+01-3.86919E-03 1.88093E-05 1.44642E-03-2.24959E-13 1.62158E-13
 -1      2544 2.00014E+01-3.99357E-03 4.37376E-06 8.93465E-04-3.40579E-13 3.69637E-13
 -1      2545 2.00019E+01-7.34390E-04 1.92675E-05 6.28455E-04-1.47416E-13 1.43899E-13
 -1      2546 2.00014E+01-3.75205E-03 2.29960E-05 2.55743E-03-1.27218E-13-7.05485E-14
 -1      2547 2.00014E+01-3.99290E-03-1.10458E-06 2.01022E-03-1.02136E-13-4.37749E-15
 -1      2548 2.00020E+01-8.91958E-04 1.60047E-05 1.74758E-03-9.30836E-14 1.55379E-13
 -1      2549 2.00013E+01-3.54420E-03 2.02864E-05 3.67613E-03-9.72422E-14 2.50189E-14
 -1      2550 2.00014E+01-3.90811E-03-2.44447E-06 3.14852E-03-1.03142E-13-1.47594E-14
 -1      2551 2.00019E+01-1.16668E-03 8.32680E-06 2.91677E-03-5.95036E-14-1.74209E-13
 -1      2552 2.00009E+01-3.18686E-03 6.24179E-06 4.64180E-03 1.05364E-13-7.85132E-14
 -1      2553 2.00011E+01-3.65457E-03 2.86864E-06 4.22626E-03-6.69307E-14 1.67305E-13
 -1      2554 2.00017E+01-1.43177E-03 5.15205E-06 4.09742E-03-9.96952E-14 1.71295E-13
 -1      2555 2.00000E+01-2.58571E-03-7.11352E-06 5.19390E-03 9.14447E-14 3.22567E-14
 -1      2556 2.00005E+01-3.16615E-03 5.17751E-06 5.04418E-03 1.31975E-13-1.74260E-13
 -1      2557 2.00010E+01-1.58724E-03-1.08400E-05 5.06710E-03 1.86407E-13-1.40020E-13
 -1      2558 4.58202E+00-2.39026E+00 1.25675E-01 2.54658E+00-2.01270E-13 5.56444E-13
 -1      2559 3.46185E+00-2.58334E+00 1.09843E-01 4.82939E-01-1.35530E-13 4.97491E-13
 -1      2560 1.90318E+01-5.50598E+00 2.58531E-02 6.37679E+00-1.49547E-13 1.41167E-13
 -1      2561 1.55151E+01-5.29259E+00 6.67804E-02 6.51605E+00-2.62512E-13 2.91628E-13
 -1      2562 2.05817E+01 2.70737E-01 8.03782E-03-5.05553E-01 1.28169E-13 3.42268E-13
 -1      2563 2.05268E+01 3.11461E-01 1.28437E-02-3.65091E-01 1.76329E-13 3.76892E-13
 -1      2564 2.05929E+01 3.64551E-01-5.66028E-03-6.37785E-01 1.44869E-13 2.11122E-13
 -1      2565 3.29579E+01 3.04288E+00-1.41015E-01-8.75185E-01 7.90756E-13-4.68153E-13
 -1      2566 3.21405E+01 1.09885E+00-2.28377E-02-4.61790E-03 7.04770E-13-4.88665E-13
 -1      2567 3.07788E+01-5.02859E-01 2.34427E-03-4.69215E-01 5.46181E-13-5.70766E-13
 -1      2568 1.99988E+01-2.39209E-03 1.19291E-05 4.83526E-03 1.57253E-13 1.97089E-13
 -1      2569 1.96648E+01-5.37356E+00 1.15693E-02-6.10327E+00 3.59490E-13 2.23627E-13
 -1      2570 2.30463E+01-4.81625E+00-3.54633E-02-5.42932E+00 2.46470E-13 2.63706E-13
 -1      2571 5.22930E+00-3.56141E+00 5.92385E-02-4.04615E+00-1.94456E-13-7.06213E-13
 -1      2572 7.82611E+00-4.32049E+00 3.70604E-02-5.76921E+00-2.29372E-13-6.34603E-13
 -1      2573 1.91296E+01 3.90891E+00-9.81518E-03-1.43500E-01 1.86806E-13-4.62798E-13
 -1      2574 1.91783E+01 3.87765E+00-7.88656E-03-2.75089E-01 1.47279E-13-4.88170E-13
 -1      2575 1.93374E+01 3.52375E+00 1.01624E-03-2.77706E-01 1.26449E-13-4.53848E-13
 -1      2576 1.92340E+01 3.62048E+00 1.05791E-03-7.21383E-02 1.92953E-13-4.28250E-13
 -1      2577 3.19023E+01 7.02661E+00-1.79666E-01 3.66832E-01 4.89497E-13 2.52062E-13
 -1      2578 3.28351E+01 7.06984E+00-1.42316E-01-4.05978E-01 6.68576E-13 1.69087E-13
 -1      2579 2.72001E+01-3.57612E+00-8.78662E-02 3.42234E+00-3.97363E-13 2.33091E-13
 -1      2580 2.44808E+01-4.66425E+00 2.97476E-02 4.45847E+00-2.36283E-13 1.44024E-13
 -1      2581 3.29973E+01 6.53632E+00-1.19351E-01-8.54554E-01 7.98583E-13-3.62071E-14
 -1      2582 3.25182E+01 5.25740E+00-1.14320E-01-1.27799E+00 8.13960E-13-1.74610E-13
 -1      2583 3.01533E+01 6.49712E+00-1.19063E-02-9.13111E-01 5.80036E-13 2.56975E-13
 -1      2584 3.18285E+01 3.63637E+00-1.08441E-01 1.42534E+00 3.54827E-13 2.92211E-13
 -1      2585 3.18136E+01 5.47735E+00-1.97598E-01 1.34163E+00 4.45144E-13 3.45085E-13
 -1      2586 3.06626E+01-6.21352E-01-4.46334E-02 1.17912E-02-6.25194E-15 1.18794E-14
 -1      2587 3.18727E+01 1.35074E+00-1.66783E-01 6.97935E-01 1.73528E-13 1.07109E-13
 -1      2588 2.63206E+01-4.42642E+00 2.49978E-02-3.41367E+00-2.48745E-13-1.46438E-13
 -1      2589 2.89454E+01-3.07674E+00-1.44124E-01-1.95214E+00-1.88988E-13-9.58122E-14
 -1      2590 1.87647E+01-5.71920E+00 4.71393E-02-6.19411E+00-2.36644E-13-2.02172E-13
 -1      2591 2.27687E+01-5.38452E+00-8.86033E-02-5.48667E+00-2.04503E-13-1.14533E-13
 -1      2592 1.05871E+01-5.07506E+00 3.02866E-02-6.35420E+00-2.86104E-13-4.68542E-13
 -1      2593 1.40323E+01-5.33621E+00-3.96549E-02-6.96304E+00-2.32536E-13-2.86993E-13
 -1      2594 1.07525E+01-3.88378E+00 1.28450E-01-6.03763E+00-3.21104E-13-4.57495E-13
 -1      2595 3.53398E+00-2.43119E+00 1.15977E-01 1.71897E-01-6.76230E-14-7.90146E-13
 -1      2596 3.85238E+00-2.74425E+00 1.04594E-01-2.01866E+00-5.97994E-14-7.80320E-13
 -1      2597 1.26297E+01-4.91388E+00 9.51970E-03 7.11821E+00 1.43219E-14-5.58095E-13
 -1      2598 9.62850E+00-4.52204E+00 9.67831E-02 6.27431E+00 2.16493E-15-6.14231E-13
 -1      2599 3.21956E+01 3.30390E+00-7.64398E-02 3.94218E-01-3.21909E-13 8.92619E-14
 -1      2600 3.27004E+01 4.93075E+00-1.32399E-01 7.53776E-01-4.44200E-13 1.37668E-14
 -1      2601 2.07258E+01-5.37466E+00-5.47162E-02 6.25443E+00-1.18155E-13-4.94882E-14
 -1      2602 1.65241E+01-5.51135E+00 4.70997E-02 6.72830E+00-9.43690E-15-3.49727E-13
 -1      2603 3.07533E+01 2.16215E-01-1.36876E-01 4.71929E-01-6.28456E-13 2.71672E-13
 -1      2604 2.91342E+01-1.73554E+00-3.78088E-02 1.58255E+00-5.05290E-13 2.45082E-13
 -1      2605 3.31420E+01 7.58359E+00-7.93457E-02-1.72473E-01-9.25870E-13 2.02699E-13
 -1      2606 3.26756E+01 6.97323E+00-1.23825E-01-5.09670E-01-9.53404E-13 2.64622E-13
 -1      2607 3.24634E+01 6.67825E+00-9.73607E-02 7.17761E-01-6.57530E-13 4.16611E-14
 -1      2608 3.28286E+01 7.42759E+00-1.05739E-01 3.50234E-01-8.34721E-13 4.26013E-14
 -1      2609 2.99238E+01-6.75520E-01-6.58552E-02-1.14104E+00-1.67345E-13 6.52811E-14
 -1      2610 3.14815E+01 1.15066E+00-9.58084E-02-3.36153E-01-1.99230E-13 1.02029E-13
 -1      2611 2.58117E+01-3.89590E+00-3.42075E-02-3.77809E+00 1.65756E-13 1.95843E-13
 -1      2612 2.84218E+01-2.52251E+00-6.68999E-02-2.75558E+00 1.66533E-15 9.90874E-14
 -1      2613 1.28019E+01-5.18784E+00 4.75522E-02-6.76389E+00 2.43028E-13 3.04215E-13
 -1      2614 1.59924E+01-5.29768E+00-2.12265E-02-7.03824E+00 2.64955E-13 2.07431E-13
 -1      2615 3.33857E+00-2.65059E+00 1.02377E-01-1.01237E+00-1.14578E-13 6.50868E-13
 -1      2616 4.07340E+00-2.85875E+00 1.02845E-01-2.90629E+00-1.25275E-13 8.74245E-13
 -1      2617 5.42428E+00-1.25871E+00 1.59721E-01-2.85706E-01-1.68839E-13 5.43759E-13
 -1      2618 2.08122E+01 1.98761E+00-1.21039E-02-1.57539E+00-2.73150E-13-3.70573E-13
 -1      2619 2.07413E+01 1.26715E+00-3.66879E-03-9.41195E-01-2.58134E-13-3.28073E-13
 -1      2620 2.06533E+01 1.45043E+00 1.79171E-04-8.32676E-01-2.21156E-13-3.58469E-13
 -1      2621 2.05035E+01 2.41564E+00-1.00461E-02-1.48117E+00-2.40197E-13-4.32697E-13
 -1      2622 2.08813E+01 9.06988E-01-3.84864E-03 9.17071E-01 3.54142E-13 6.05584E-13
 -1      2623 2.11628E+01 1.27189E+00-4.88807E-03 1.43356E+00 3.73049E-13 6.81682E-13
 -1      2624 2.09528E+01 1.73617E+00-1.56431E-02 1.59942E+00 4.15489E-13 5.25762E-13
 -1      2625 2.08105E+01 1.11953E+00-9.89978E-03 8.62101E-01 3.73373E-13 3.92228E-13
 -1      2626 2.59417E+01-4.50782E+00-4.81245E-02 4.08699E+00 2.46136E-13-3.45252E-13
 -1      2627 2.23799E+01-5.41285E+00-8.07611E-03 5.05555E+00 6.02296E-14-1.72445E-13
 -1      2628 2.99837E+01 5.62610E+00-9.49230E-02 1.18215E+00 4.22412E-13 5.03417E-13
 -1      2629 1.98116E+01 3.04287E+00 2.10607E-03-7.44874E-01-5.26841E-14-4.89771E-13
 -1      2630 1.97383E+01 3.33015E+00-1.58065E-02-9.49194E-01-6.93068E-14-5.36045E-13
 -1      2631 1.99117E+01 3.16800E+00-1.55299E-02-1.12467E+00-1.24499E-13-5.35330E-13
 -1      2632 2.05732E+01 4.87763E-01-5.30103E-03-2.62209E-01 2.34369E-13 2.53973E-13
 -1      2633 2.06884E+01 2.16049E+00-1.27649E-02 1.52835E+00 4.44166E-13 3.27240E-13
 -1      2634 2.75631E+01-4.08278E+00 2.15018E-02 2.24587E+00 1.70239E-13-6.08180E-13
 -1      2635 1.18585E+01-4.42086E+00 1.03249E-01-6.67506E+00 2.21878E-13 3.41505E-13
 -1      2636 2.51669E+01-4.73358E+00 6.69541E-02-3.81308E+00 4.27755E-13 2.63817E-14
 -1      2637 2.89463E+01-2.15082E+00 1.21452E-02-9.31710E-01 1.64983E-13-9.43690E-14
 -1      2638 3.07557E+01 5.50872E+00-5.17727E-02 1.28589E+00-4.40092E-13-1.99549E-13
 -1      2639 1.39598E+01-4.65723E+00 9.61575E-02 6.48257E+00-3.70232E-13 3.06810E-13
 -1      2640 1.25399E+01-3.48439E+00 1.69107E-01 6.10018E+00-5.62883E-13 3.61877E-13
 -1      2641 1.68666E+01-4.66300E+00 3.57640E-02 6.05487E+00-6.65468E-13-4.48114E-14
 -1      2642 3.05479E+01 7.22195E+00-6.48305E-02 1.33142E-01-8.05633E-13 5.62380E-14
 -1      2643 1.99985E+01-1.87700E-03-1.88398E-05-5.15392E-03-2.89991E-13-9.27658E-14
 -1      2644 2.19854E+01-5.54648E+00 4.37864E-02 5.06749E+00-3.25712E-13-2.51507E-13
 -1      2645 1.99991E+01-2.30118E-03 1.31449E-05-5.33709E-03-2.93866E-13 6.22064E-14
 -1      2646 3.08617E+01 1.43913E+00-3.50830E-02-5.56057E-01-6.76778E-13 3.65541E-13
 -1      2647 2.93443E+01-1.27036E-01-2.54396E-02-7.87420E-01-5.07178E-13 4.63560E-13
 -1      2648 2.98469E+01 2.39256E+00-2.09506E-01-1.57287E+00-6.67799E-13 4.25493E-13
 -1      2649 6.58671E+00-2.40551E+00 1.65075E-01 3.77075E+00-3.08809E-13 6.37490E-13
 -1      2650 7.17466E+00-1.09983E+00 1.75570E-01 2.60408E+00-1.85164E-13 4.57384E-13
 -1      2651 8.99931E+00-2.35775E+00 1.02796E-01 4.70199E+00-4.54511E-13 5.27967E-13
 -1      2652 2.32180E+01-5.23888E+00 5.77370E-02 4.89157E+00-1.16851E-14 1.53863E-13
 -1      2653 6.37345E+00-2.55731E+00 1.16790E-01-3.92356E+00-2.77001E-14 8.40800E-13
 -1      2654 2.06774E+01 1.89607E+00 1.19025E-02 1.17790E+00 4.14942E-13 2.58363E-13
 -1      2655 3.11784E+01 3.69853E+00-4.23002E-02-1.73182E+00 7.25586E-13-1.73195E-13
 -1      2656 6.38931E+00-2.18580E+00 1.44098E-01-3.18916E+00-1.39735E-13-7.06546E-13
 -1      2657 1.92099E+01-5.32928E+00 8.30417E-02-6.25130E+00 4.07119E-13 1.54603E-13
 -1      2658 3.06136E+01 1.77174E+00-4.99334E-03 1.09516E+00-1.05208E-13-1.96898E-13
 -1      2659 1.61550E+01-4.95105E+00 1.00235E-01 6.67444E+00 1.87933E-13-2.97595E-13
 -1      2660 1.76651E+01-5.31082E+00 1.08128E-01-6.35022E+00-3.25129E-13-2.22780E-13
 -1      2661 3.17113E+01 5.94609E+00-7.59782E-02-1.00572E+00-9.33698E-13 3.23463E-13
 -1      2662 3.00123E+01 4.73460E+00-1.16706E-01-1.43993E+00-8.07521E-13 3.93061E-13
 -1      2663 2.95983E+01 6.24922E+00-1.37454E-01-1.20493E+00-8.78825E-13 3.51871E-13
 -1      2664 2.50599E+01-5.16664E+00 5.27218E-02-3.83912E+00-2.91905E-13-1.01488E-13
 -1      2665 2.93817E+01-2.31156E+00-9.04862E-03-1.85101E-01-1.85233E-13 3.41671E-14
 -1      2666 8.97419E+00-3.37365E+00 1.46086E-01 5.66058E+00 1.31728E-13-6.48315E-13
 -1      2667 1.99984E+01-1.30898E-03-1.31789E-05 5.16661E-03 1.38439E-13 2.22494E-13
 -1      2668 1.99994E+01-2.29014E-03-1.10161E-05 5.42130E-03 8.80364E-14 3.24843E-13
 -1      2669 1.99998E+01-1.24332E-03 1.75867E-05 5.60318E-03 6.18402E-14 1.88014E-13
 -1      2670 1.99980E+01-7.14148E-04 1.92352E-05 5.50214E-03 7.59316E-14 2.46637E-13
 -1      2671 2.81769E+01-3.01521E+00 2.36116E-02 1.59869E+00-2.69750E-13 3.91465E-13
 -1      2672 2.00815E+01 2.94663E+00-1.65935E-02-1.22951E+00-1.55356E-13-5.25394E-13
 -1      2673 2.02966E+01 2.69441E+00-2.09954E-02-1.39729E+00-2.07804E-13-4.92835E-13
 -1      2674 2.04738E+01 2.15124E+00 5.79550E-03-1.10510E+00-2.10903E-13-4.38910E-13
 -1      2675 2.01390E+01 2.65296E+00 4.93112E-03-9.58821E-01-1.40308E-13-4.86433E-13
 -1      2676 3.02881E+01 2.00185E+00-6.45979E-02 1.88374E+00 2.06724E-13 3.75228E-13
 -1      2677 4.61748E+00-2.11195E+00 1.50220E-01 1.46349E+00 1.49117E-14-8.40106E-13
 -1      2678 5.90229E+00-1.01148E+00 1.52193E-01 3.68002E-01 3.53606E-14-7.64611E-13
 -1      2679 5.93847E+00-1.69668E+00 8.31736E-02 2.81537E+00 1.18912E-13-7.32192E-13
 -1      2680 1.99995E+01-1.41751E-03-5.39287E-07-5.69088E-03-1.83240E-13 1.45921E-13
 -1      2681 1.99991E+01-4.37813E-04-4.01211E-05 5.68024E-03 1.26711E-13 3.72087E-13
 -1      2682 1.94109E+01 3.20699E+00-5.51730E-03 2.99714E-01 3.19074E-13-2.86003E-13
 -1      2683 1.93384E+01 3.27201E+00-6.49170E-03 2.08490E-01 2.82090E-13-2.99345E-13
 -1      2684 1.92907E+01 3.32215E+00-5.57872E-03 1.49258E-01 2.64473E-13-3.33789E-13
 -1      2685 1.92694E+01 3.34158E+00-5.43539E-03 5.96781E-02 2.28658E-13-3.58504E-13
 -1      2686 1.93976E+01 3.03161E+00 5.62685E-03 1.37416E-01 2.54113E-13-2.97660E-13
 -1      2687 1.99367E+01 2.62385E+00-8.65180E-03 6.31810E-01 4.09944E-13-9.10849E-14
 -1      2688 1.97743E+01 2.80782E+00-8.35803E-03 5.28693E-01 3.93500E-13-1.47530E-13
 -1      2689 2.03118E+01 2.11238E+00-1.00782E-02 7.80201E-01 4.16361E-13 3.96599E-14
 -1      2690 2.01183E+01 2.38885E+00-7.04885E-03 6.94983E-01 4.06670E-13-2.89447E-14
 -1      2691 2.01137E+01 2.20407E+00 7.15950E-03 4.58362E-01 3.82060E-13-4.53730E-14
 -1      2692 2.05948E+01 8.96537E-01 4.18383E-07 1.25561E-01 3.18258E-13 2.02233E-13
 -1      2693 2.06752E+01 1.09243E+00 8.93600E-03 4.38668E-01 3.43375E-13 2.25447E-13
 -1      2694 2.91503E+01 3.74115E+00-2.31029E-01-2.24212E+00 6.27165E-13 1.73514E-13
 -1      2695 2.99328E+01 1.89497E+00-1.18165E-01-2.20252E+00 6.42736E-13-1.36668E-13
 -1      2696 2.06044E+01 1.61604E+00-5.81281E-04 8.48606E-01 3.94188E-13 2.06822E-13
 -1      2697 1.07983E+01-3.28675E+00 1.41388E-01-6.02217E+00 1.95732E-13 3.27849E-13
 -1      2698 1.41978E+01-4.18448E+00 1.04800E-02-6.63831E+00 2.92932E-13-8.70692E-14
 -1      2699 2.74207E+01-3.21985E+00-1.97264E-02-9.02826E-01 3.02107E-13-1.28592E-13
 -1      2700 2.83246E+01-1.79235E+00-1.66305E-01 3.33293E-01 1.21878E-13-2.00978E-13
 -1      2701 2.05302E+01 8.11007E-01 6.69967E-03 1.29305E-01-1.46351E-13-2.72203E-13
 -1      2702 2.05068E+01 6.73521E-01-7.14809E-04 3.39614E-01-1.18730E-13-2.43518E-13
 -1      2703 2.05084E+01 5.65707E-01 6.15597E-03 5.19694E-01-1.16458E-13-2.00663E-13
 -1      2704 2.05214E+01 4.71989E-01 4.12298E-04 6.71770E-01-1.08154E-13-2.10563E-13
 -1      2705 2.04347E+01 7.74277E-01-2.85097E-03 4.26535E-01-1.01286E-13-2.25678E-13
 -1      2706 2.05371E+01 3.92922E-01 4.87268E-03 8.10917E-01-1.08757E-13-1.96260E-13
 -1      2707 2.05884E+01 3.14430E-01 9.15922E-04 9.18617E-01-1.02055E-13-2.07592E-13
 -1      2708 2.04362E+01 5.44161E-01-3.65831E-03 7.61479E-01-1.13006E-13-1.99162E-13
 -1      2709 2.06309E+01 2.38417E-01 4.42126E-03 1.02197E+00-8.74832E-14-1.72502E-13
 -1      2710 2.07180E+01 1.53152E-01 6.21117E-04 1.08902E+00-8.31040E-14-1.93979E-13
 -1      2711 2.04820E+01 3.51094E-01-4.31154E-03 1.01829E+00-8.75133E-14-1.88559E-13
 -1      2712 2.07992E+01 6.15280E-02 5.06707E-03 1.15555E+00-6.48699E-14-1.71389E-13
 -1      2713 2.09203E+01-4.86509E-02-5.02986E-04 1.17709E+00-5.53094E-14-1.57959E-13
 -1      2714 2.05912E+01 1.43716E-01-5.44718E-03 1.20234E+00-6.78155E-14-1.39860E-13
 -1      2715 2.10556E+01-1.70799E-01 6.85615E-03 1.19785E+00-4.55911E-14-1.01642E-13
 -1      2716 2.12099E+01-3.19149E-01-2.64986E-03 1.16132E+00-2.27431E-14-7.68867E-14
 -1      2717 2.07871E+01-1.20102E-01-7.32781E-03 1.30586E+00-2.35877E-14-5.69401E-14
 -1      2718 2.14173E+01-4.79313E-01 9.55485E-03 1.11802E+00-1.51069E-14-4.57955E-14
 -1      2719 2.16016E+01-6.67347E-01-6.01207E-03 1.00536E+00 2.08504E-14-2.43981E-14
 -1      2720 2.10999E+01-4.71075E-01-9.94633E-03 1.30392E+00-3.07041E-15 5.25283E-14
 -1      2721 2.18960E+01-8.56009E-01 1.23420E-02 8.70552E-01 1.74520E-14-7.00481E-15
 -1      2722 2.20988E+01-1.05973E+00-1.04251E-02 6.63979E-01-3.50848E-16-8.39519E-15
 -1      2723 2.15627E+01-9.12341E-01-1.25493E-02 1.15212E+00 3.79999E-14 6.29901E-14
 -1      2724 2.24754E+01-1.23465E+00 1.29563E-02 4.06981E-01-1.58116E-14 5.46980E-15
 -1      2725 2.26688E+01-1.38498E+00-1.43541E-02 1.02463E-01-1.17501E-14-2.03429E-15
 -1      2726 2.21926E+01-1.38706E+00-1.32262E-02 7.89617E-01 5.38035E-16 1.12201E-14
 -1      2727 2.30760E+01-1.45484E+00 7.35252E-03-2.87691E-01-1.41641E-14-1.86982E-14
 -1      2728 2.32125E+01-1.42848E+00-1.43299E-02-6.53886E-01-6.78331E-14 1.63085E-14
 -1      2729 2.29517E+01-1.73153E+00-9.07579E-03 1.61922E-01-3.34723E-14-2.59385E-14
 -1      2730 2.35323E+01-1.26143E+00-8.91451E-03-1.12029E+00-8.19179E-14 4.03839E-14
 -1      2731 2.35715E+01-9.13671E-01-1.68423E-03-1.44109E+00-1.23846E-13 2.74464E-14
 -1      2732 2.36980E+01-1.65791E+00 4.42768E-04-7.08060E-01-4.74669E-14 5.33050E-14
 -1      2733 2.36311E+01-4.12880E-01-3.56781E-02-1.77921E+00-1.87211E-13 6.24596E-14
 -1      2734 2.35670E+01 2.56672E-01 1.19699E-02-1.85930E+00-2.44179E-13 7.15547E-14
 -1      2735 2.41585E+01-8.15526E-01 1.05964E-02-1.60772E+00-1.55649E-13 8.28001E-14
 -1      2736 2.33732E+01 9.81736E-01-4.70948E-02-1.84199E+00-3.04786E-13 3.52192E-14
 -1      2737 2.32451E+01 1.73951E+00 2.07446E-02-1.54599E+00-2.82354E-13-7.15313E-15
 -1      2738 2.41653E+01 5.80275E-01-2.32155E-03-1.98519E+00-2.85246E-13 9.36109E-14
 -1      2739 2.29597E+01 2.25319E+00-5.66183E-02-9.04040E-01-2.72185E-13-9.25709E-14
 -1      2740 2.29365E+01 2.57462E+00-1.57118E-02-3.24759E-01-2.09808E-13-1.80955E-13
 -1      2741 2.37854E+01 2.55808E+00-3.90190E-03-1.43942E+00-3.50362E-13 3.34975E-15
 -1      2742 2.29467E+01 2.56202E+00-1.43749E-02 5.27982E-01-1.48829E-13-2.12289E-13
 -1      2743 2.30119E+01 2.19693E+00-5.27106E-02 1.11045E+00-1.54444E-13-2.26054E-13
 -1      2744 2.36518E+01 3.16011E+00 7.08862E-03 9.06005E-02-2.06255E-13-1.27019E-13
 -1      2745 2.32844E+01 1.63685E+00 1.56056E-02 1.67939E+00-8.83564E-14-1.77895E-13
 -1      2746 2.34284E+01 8.90982E-01-4.38991E-02 1.95072E+00-9.17127E-15-1.46804E-13
 -1      2747 2.38317E+01 2.33133E+00-4.73901E-03 1.58034E+00-1.03483E-13-1.87460E-13
 -1      2748 2.35862E+01 1.76531E-01 7.94345E-03 1.96194E+00 2.25575E-14-1.13962E-13
 -1      2749 2.37015E+01-4.66022E-01-1.99411E-02 1.87177E+00 7.80295E-14-1.19754E-13
 -1      2750 2.41871E+01 6.51146E-01-2.50996E-03 2.11657E+00 7.74207E-15-4.22501E-14
 -1      2751 2.35685E+01-9.46488E-01-8.87077E-03 1.48764E+00 1.18622E-13-1.65026E-13
 -1      2752 2.35659E+01-1.24517E+00 2.60128E-03 1.19087E+00 1.12031E-13-1.14449E-13
 -1      2753 2.41524E+01-9.30023E-01-1.25136E-02 1.65177E+00 4.87128E-14-6.33400E-14
 -1      2754 2.32144E+01-1.40292E+00-1.63944E-02 7.13106E-01 9.05416E-14-9.55508E-14
 -1      2755 2.30962E+01-1.39812E+00 1.39540E-02 3.75491E-01 1.20762E-13-1.32935E-13
 -1      2756 2.36459E+01-1.69446E+00-2.45362E-02 7.63037E-01 1.12626E-13-8.87619E-14
 -1      2757 2.26792E+01-1.32665E+00-1.49464E-02-1.04348E-02 1.38453E-13-1.02884E-13
 -1      2758 2.24972E+01-1.16252E+00 1.53594E-02-2.89823E-01 1.10927E-13-3.56666E-14
 -1      2759 2.28987E+01-1.71047E+00-2.68070E-02-7.85977E-02 1.56694E-13-4.12854E-14
 -1      2760 2.21246E+01-9.91011E-01-9.92643E-03-5.34567E-01 6.44734E-14-8.41909E-14
 -1      2761 2.19291E+01-7.87574E-01 1.22911E-02-7.22972E-01 1.35225E-13-8.29209E-14
 -1      2762 2.21522E+01-1.32949E+00-2.21986E-02-6.68321E-01 1.11401E-13-4.08527E-15
 -1      2763 2.16421E+01-6.06041E-01-5.16252E-03-8.45558E-01 1.80662E-13-6.70832E-14
 -1      2764 2.14619E+01-4.27870E-01 8.25593E-03-9.47947E-01 2.27829E-13-1.03072E-13
 -1      2765 2.15364E+01-8.47409E-01-1.52964E-02-9.98680E-01 7.18042E-14-7.16452E-14
 -1      2766 2.12590E+01-2.79208E-01-1.83829E-03-9.84398E-01 1.92315E-13-1.25195E-13
 -1      2767 2.11043E+01-1.48468E-01 4.75485E-03-1.02010E+00 1.07788E-13-1.53010E-13
 -1      2768 2.10801E+01-4.22285E-01-9.21413E-03-1.13169E+00 1.67772E-13-1.80169E-13
 -1      2769 2.09677E+01-4.40192E-02 2.10348E-04-1.00241E+00 5.07944E-14-1.69435E-13
 -1      2770 2.08388E+01 3.97357E-02 2.24512E-03-9.92594E-01-1.73448E-15-1.46922E-13
 -1      2771 2.07619E+01-1.08049E-01-4.85275E-03-1.13459E+00 1.01457E-13-1.31197E-13
 -1      2772 2.07489E+01 1.04057E-01 1.38825E-03-9.44324E-01-5.51593E-15-1.26748E-13
 -1      2773 2.06423E+01 1.50154E-01 6.41923E-04-9.06988E-01 3.73870E-15-1.35824E-13
 -1      2774 2.05463E+01 9.55719E-02-2.08395E-03-1.05982E+00 3.72031E-14-1.06608E-13
 -1      2775 2.05831E+01 1.83737E-01 2.00338E-03-8.44125E-01-1.32603E-14-3.60667E-14
 -1      2776 2.04951E+01 2.03114E-01-2.77071E-04-7.92806E-01-3.48779E-14 1.95266E-14
 -1      2777 2.04007E+01 2.10040E-01-5.03859E-04-9.44054E-01 2.17511E-14-5.93886E-14
 -1      2778 2.04554E+01 2.15569E-01 2.25744E-03-7.25695E-01 2.93827E-14 6.55025E-14
 -1      2779 2.03827E+01 2.17711E-01-7.32865E-04-6.69728E-01 9.05472E-14 1.48065E-13
 -1      2780 2.03008E+01 2.60746E-01 2.92303E-04-8.11629E-01 5.76398E-14 1.68057E-13
 -1      2781 2.03552E+01 2.16923E-01 2.27874E-03-6.04725E-01 1.78208E-14 1.01092E-13
 -1      2782 2.02955E+01 2.09009E-01-8.99607E-04-5.50049E-01-2.71781E-15 1.02510E-13
 -1      2783 2.02300E+01 2.69851E-01 6.15818E-04-6.78055E-01 7.72960E-14 9.48853E-14
 -1      2784 2.02757E+01 2.00756E-01 2.15371E-03-4.90757E-01 3.72315E-16 1.19050E-13
 -1      2785 2.02270E+01 1.87776E-01-8.99805E-04-4.40786E-01-1.32761E-14 1.05637E-13
 -1      2786 2.01780E+01 2.54258E-01 6.78049E-04-5.52668E-01 9.80659E-15 6.87752E-14
 -1      2787 2.02122E+01 1.75979E-01 1.94365E-03-3.88941E-01 2.12473E-14 4.55393E-14
 -1      2788 2.01729E+01 1.61174E-01-8.13760E-04-3.45330E-01-2.10377E-15 1.32203E-13
 -1      2789 2.01385E+01 2.25829E-01 6.11672E-04-4.40531E-01-2.87668E-14 1.84100E-13
 -1      2790 2.01615E+01 1.48324E-01 1.69262E-03-3.01451E-01-2.25770E-14 1.17381E-13
 -1      2791 2.01301E+01 1.33657E-01-6.91193E-04-2.64695E-01 2.95474E-15 1.82605E-13
 -1      2792 2.01077E+01 1.92361E-01 4.94558E-04-3.43810E-01-2.19008E-14 1.46611E-13
 -1      2793 2.01212E+01 1.21227E-01 1.43133E-03-2.28540E-01 8.09799E-15 1.64093E-13
 -1      2794 2.00966E+01 1.07782E-01-5.61114E-04-1.98424E-01 1.39170E-14 1.19327E-13
 -1      2795 2.00834E+01 1.58647E-01 3.69060E-04-2.62778E-01 1.17002E-14 7.05724E-14
 -1      2796 2.00895E+01 9.65590E-02 1.18005E-03-1.69319E-01-4.38973E-14 1.03717E-13
 -1      2797 2.00705E+01 8.48449E-02-4.39164E-04-1.45234E-01-1.13571E-13 6.67630E-14
 -1      2798 2.00640E+01 1.27399E-01 2.55824E-04-1.96543E-01-6.20483E-14-3.82479E-14
 -1      2799 2.00648E+01 7.51700E-02 9.50908E-04-1.22291E-01-9.48167E-14 1.69683E-13
 -1      2800 2.00504E+01 6.53355E-02-3.32712E-04-1.03445E-01-1.10743E-13 2.06183E-13
 -1      2801 2.00485E+01 9.99445E-02 1.62986E-04-1.43578E-01-1.11080E-13 1.48424E-13
 -1      2802 2.00460E+01 5.72780E-02 7.50055E-04-8.57164E-02-4.86961E-14 8.11543E-14
 -1      2803 2.00353E+01 4.92598E-02-2.44250E-04-7.12687E-02 5.68104E-15 4.02168E-14
 -1      2804 2.00363E+01 7.67333E-02 9.19512E-05-1.02072E-01-9.31237E-14 2.88386E-13
 -1      2805 2.00318E+01 4.27316E-02 5.79481E-04-5.78354E-02-6.77483E-14 3.77232E-14
 -1      2806 2.00240E+01 3.63515E-02-1.73586E-04-4.69837E-02-8.12066E-14 8.41667E-14
 -1      2807 2.00267E+01 5.76908E-02 4.08534E-05-7.01739E-02-8.77113E-14 6.89989E-14
 -1      2808 2.00213E+01 3.11817E-02 4.38464E-04-3.70087E-02-1.67829E-14 1.47010E-13
 -1      2809 2.00158E+01 2.62088E-02-1.19224E-04-2.90316E-02 1.71807E-14 2.42516E-13
 -1      2810 2.00193E+01 4.24500E-02 6.52247E-06-4.61324E-02-2.28223E-14 1.19721E-13
 -1      2811 2.00137E+01 2.21906E-02 3.24703E-04-2.17876E-02 2.60862E-14 3.34904E-13
 -1      2812 2.00099E+01 1.83783E-02-7.91226E-05-1.60668E-02 1.29014E-13 3.45508E-13
 -1      2813 2.00136E+01 3.05023E-02-1.44153E-05-2.83834E-02 1.01017E-13 3.43549E-13
 -1      2814 2.00083E+01 1.52963E-02 2.35101E-04-1.09456E-02 6.76210E-14 3.00116E-13
 -1      2815 2.00059E+01 1.24023E-02-5.13789E-05-6.97266E-03-1.86335E-14 1.03315E-13
 -1      2816 2.00094E+01 2.12890E-02-2.52071E-05-1.55865E-02 1.03221E-13 2.80252E-13
 -1      2817 2.00047E+01 1.00469E-02 1.66440E-04-3.48306E-03-6.46816E-14 1.68525E-13
 -1      2818 2.00032E+01 7.84019E-03-3.53776E-05-8.57047E-04-9.10633E-14 2.03876E-13
 -1      2819 2.00062E+01 1.42539E-02-2.88036E-05-6.63391E-03-5.86475E-14 2.44783E-13
 -1      2820 2.00023E+01 6.02398E-03 1.18305E-04 1.37610E-03-1.17835E-13 3.32702E-13
 -1      2821 2.00015E+01 4.29694E-03-2.38518E-05 2.96216E-03-1.54214E-14 2.08325E-13
 -1      2822 2.00039E+01 8.86216E-03-3.00644E-05-6.51770E-04-1.17114E-13 2.58660E-13
 -1      2823 2.00009E+01 2.79911E-03 7.73245E-05 4.22061E-03 1.82301E-13 1.96863E-13
 -1      2824 2.00005E+01 1.41298E-03-8.44357E-06 4.95578E-03 3.25982E-13 1.92094E-13
 -1      2825 2.00023E+01 4.57156E-03-4.33196E-05 3.05338E-03 5.76510E-14 2.84401E-13
 -1      2826 2.07955E+01 3.44275E-01 3.88941E-03-1.30394E+00 1.04705E-13 9.69170E-14
 -1      2827 2.06751E+01 3.82352E-01 2.56925E-03-1.18739E+00 1.06972E-13 1.26908E-13
 -1      2828 2.80291E+01-2.59750E+00-1.54347E-01 3.87959E-01-2.29887E-13 4.38344E-13
 -1      2829 2.69405E+01-3.94071E+00 3.45107E-02 1.82203E+00-1.01859E-13 4.60590E-13
 -1      2830 2.06489E+01 4.17383E-01 3.85936E-03-1.04355E+00 9.97999E-14 1.28683E-13
 -1      2831 2.05714E+01 4.55931E-01 4.14774E-03-9.01917E-01 1.22271E-13 1.55326E-13
 -1      2832 2.04844E+01 5.12158E-01-3.33295E-03-1.16931E+00 1.22326E-13 3.27822E-14
 -1      2833 2.13101E+01 5.24661E-02 1.40139E-03-1.65924E+00 5.73117E-14 1.49833E-13
 -1      2834 2.11098E+01 1.60336E-01 3.65121E-03-1.61383E+00 9.25106E-14 1.38555E-13
 -1      2835 2.17253E+01-2.68057E-01-1.91915E-03-1.68940E+00 4.68401E-14 1.65385E-13
 -1      2836 2.14794E+01-8.43956E-02 7.07084E-03-1.71478E+00 5.73552E-14 1.54522E-13
 -1      2837 2.09510E+01-9.49855E-03-8.93244E-03-1.85662E+00 5.38836E-14 3.94510E-14
 -1      2838 2.23048E+01-7.62197E-01-7.44516E-03-1.53140E+00 2.11463E-14 1.49648E-13
 -1      2839 2.20077E+01-4.85953E-01 1.30125E-02-1.66827E+00 2.86587E-14 1.58212E-13
 -1      2840 2.13577E+01-4.55182E-01-1.50726E-02-1.91992E+00 4.12185E-14 5.43714E-14
 -1      2841 2.30929E+01-1.40017E+00-1.55868E-02-1.08242E+00-5.41312E-14 2.05590E-13
 -1      2842 2.27518E+01-1.05951E+00 2.05984E-02-1.37624E+00-2.22657E-14 1.72273E-13
 -1      2843 2.20174E+01-1.11644E+00-2.27226E-02-1.79073E+00-1.11184E-14 8.23809E-14
 -1      2844 2.40729E+01-1.98028E+00-2.48339E-02-2.42378E-01-1.49663E-13 2.71968E-13
 -1      2845 2.37329E+01-1.70868E+00 2.47904E-02-7.15753E-01-5.98645E-14 2.79216E-13
 -1      2846 2.30221E+01-1.92362E+00-2.89122E-02-1.33580E+00-7.72615E-14 1.50508E-13
 -1      2847 2.50754E+01-2.01556E+00-2.75795E-02 9.66200E-01-1.97456E-13 3.12270E-13
 -1      2848 2.48352E+01-2.09479E+00 1.58445E-02 3.88748E-01-2.10615E-13 3.02043E-13
 -1      2849 2.43782E+01-2.55380E+00-2.60855E-02-4.03103E-01-1.87321E-13 2.21892E-13
 -1      2850 2.57100E+01-9.06945E-01-2.43918E-02 2.12081E+00 9.02941E-14 3.43717E-13
 -1      2851 2.57027E+01-1.60663E+00-2.07155E-02 1.72966E+00-7.32235E-14 3.81478E-13
 -1      2852 2.57849E+01-2.34038E+00-2.96141E-02 9.93587E-01-1.44502E-13 2.57049E-13
 -1      2853 2.52407E+01 3.50251E+00-6.98651E-02 8.99985E-01 3.11681E-13 3.81620E-13
 -1      2854 2.54401E+01 2.74879E+00-1.42640E-01 1.83556E+00 3.09669E-13 3.17488E-13
 -1      2855 2.64773E+01 4.32837E+00-1.42654E-01-9.89039E-01 4.48031E-13 2.73682E-13
 -1      2856 2.64670E+01 4.56866E+00-1.25311E-01 7.18657E-02 4.35110E-13 3.76740E-13
 -1      2857 2.64668E+01 1.15851E+00-1.06886E-01-2.66557E+00 3.07185E-13 9.28910E-14
 -1      2858 2.62515E+01 2.47407E+00-7.55845E-02-2.22650E+00 3.96488E-13 1.54630E-13
 -1      2859 2.52143E+01-2.02681E+00 5.02430E-03-9.35670E-01 1.19838E-13-1.23439E-13
 -1      2860 2.53796E+01-1.79345E+00-3.74560E-02-1.47558E+00 1.80876E-13-7.26069E-14
 -1      2861 2.41771E+01-1.86621E+00 2.32812E-02 2.74256E-01-1.01127E-13-1.52063E-13
 -1      2862 2.44984E+01-2.05340E+00-2.07073E-02-2.47975E-01 2.52610E-14-1.94938E-13
 -1      2863 2.49290E+01-2.50560E+00 7.01666E-03-2.11324E-01 9.86797E-14 2.06665E-14
 -1      2864 2.31569E+01-1.24473E+00 2.33576E-02 1.06136E+00-1.96077E-13-7.30739E-14
 -1      2865 2.34920E+01-1.58203E+00-1.67591E-02 7.13935E-01-1.56924E-13-8.86793E-14
 -1      2866 2.34893E+01-2.12575E+00-2.44083E-02 9.44930E-01-1.38191E-13-3.68312E-14
 -1      2867 2.23495E+01-6.25297E-01 1.55621E-02 1.44589E+00-2.95915E-13 3.43148E-14
 -1      2868 2.26485E+01-9.29842E-01-1.02421E-02 1.26992E+00-2.36398E-13 1.00476E-13
 -1      2869 2.23676E+01-1.33869E+00-2.50869E-02 1.53032E+00-2.94983E-13 8.46571E-14
 -1      2870 2.17719E+01-1.70915E-01 8.54056E-03 1.54716E+00-2.25493E-13-4.16779E-14
 -1      2871 2.20212E+01-3.80790E-01-3.70988E-03 1.49604E+00-2.31580E-13 1.31420E-14
 -1      2872 2.16079E+01-6.11567E-01-1.70307E-02 1.73401E+00-2.47597E-13 2.03629E-13
 -1      2873 2.13661E+01 1.06401E-01 3.82356E-03 1.48183E+00-8.18852E-14 3.68845E-14
 -1      2874 2.15709E+01-1.50055E-02 2.52704E-04 1.50898E+00-1.77568E-13-4.69138E-14
 -1      2875 2.11324E+01-1.06506E-01-9.90980E-03 1.71328E+00-1.88116E-13 2.70638E-13
 -1      2876 2.10735E+01 2.47430E-01 1.12314E-03 1.33029E+00 1.12971E-13 1.31862E-13
 -1      2877 2.12434E+01 1.90201E-01 2.50753E-03 1.39953E+00 6.65927E-14 8.42518E-14
 -1      2878 2.08383E+01 1.89986E-01-5.13785E-03 1.57425E+00-9.00269E-14 1.65900E-13
 -1      2879 2.08525E+01 2.99353E-01-2.37760E-04 1.14378E+00 6.33261E-14 2.43058E-13
 -1      2880 2.09950E+01 2.82454E-01 3.64096E-03 1.23062E+00 1.02598E-13 2.10240E-13
 -1      2881 2.06496E+01 3.33519E-01-2.47585E-03 1.38145E+00 6.14478E-14 3.14532E-13
 -1      2882 2.06780E+01 2.99582E-01-8.05694E-04 9.52777E-01 1.92839E-13 1.98244E-13
 -1      2883 2.07980E+01 3.05240E-01 4.05616E-03 1.04216E+00 1.04664E-13 1.48719E-13
 -1      2884 2.05188E+01 3.79760E-01-1.20463E-03 1.17295E+00 4.91913E-14 3.27166E-13
 -1      2885 2.05364E+01 2.73374E-01-9.48701E-04 7.74070E-01 2.45694E-13 1.56227E-13
 -1      2886 2.06367E+01 2.89996E-01 4.02557E-03 8.57627E-01 2.85630E-13 2.52486E-13
 -1      2887 2.04199E+01 3.70679E-01-6.95356E-04 9.70498E-01 2.52148E-13 1.95734E-13
 -1      2888 2.04200E+01 2.36185E-01-8.89368E-04 6.15756E-01 2.62651E-14-8.24517E-14
 -1      2889 2.05030E+01 2.56852E-01 3.73385E-03 6.89501E-01 1.34985E-13 5.21885E-14
 -1      2890 2.03400E+01 3.34000E-01-5.43220E-04 7.85761E-01 2.88228E-13 9.85783E-14
 -1      2891 2.03244E+01 1.96750E-01-7.51196E-04 4.80649E-01-1.22697E-13-1.22400E-13
 -1      2892 2.03922E+01 2.17646E-01 3.30800E-03 5.43259E-01-1.15491E-13-1.79823E-13
 -1      2893 2.02730E+01 2.86509E-01-5.26242E-04 6.24080E-01 5.85150E-14-8.55809E-14
 -1      2894 2.02467E+01 1.59586E-01-5.97077E-04 3.68517E-01-9.56699E-14 3.93492E-14
 -1      2895 2.03011E+01 1.78804E-01 2.83295E-03 4.20178E-01-8.85496E-14 1.42051E-14
 -1      2896 2.02164E+01 2.37625E-01-5.38564E-04 4.86883E-01-1.41037E-13-1.91503E-13
 -1      2897 2.01843E+01 1.26729E-01-4.55482E-04 2.77506E-01-3.44924E-14 2.75725E-13
 -1      2898 2.02272E+01 1.43469E-01 2.36216E-03 3.19181E-01-8.55144E-14 1.06712E-13
 -1      2899 2.01689E+01 1.92173E-01-5.38443E-04 3.73282E-01-1.76398E-13-1.17537E-13
 -1      2900 2.01350E+01 9.88247E-02-3.36670E-04 2.05031E-01 2.37947E-14 2.84553E-13
 -1      2901 2.01683E+01 1.12897E-01 1.92637E-03 2.38014E-01-3.91505E-16 2.41526E-13
 -1      2902 2.01295E+01 1.52271E-01-5.15732E-04 2.81136E-01-3.94042E-14-6.70679E-14
 -1      2903 2.00967E+01 7.57900E-02-2.42039E-04 1.48301E-01 3.30103E-13 1.97869E-13
 -1      2904 2.01221E+01 8.73167E-02 1.54076E-03 1.73958E-01 1.77814E-13 2.81609E-13
 -1      2905 2.00975E+01 1.18525E-01-4.73586E-04 2.07742E-01 6.94838E-14-1.17651E-13
 -1      2906 2.00675E+01 5.71883E-02-1.69210E-04 1.04611E-01 2.95546E-13 2.31180E-13
 -1      2907 2.00865E+01 6.64366E-02 1.21054E-03 1.24246E-01 4.39332E-13 3.86826E-13
 -1      2908 2.00719E+01 9.07444E-02-4.19172E-04 1.50258E-01 2.92379E-13-3.98417E-14
 -1      2909 2.00457E+01 4.24407E-02-1.14604E-04 7.15035E-02 3.74565E-15 1.78059E-13
 -1      2910 2.00596E+01 4.97305E-02 9.34898E-04 8.62868E-02 1.65489E-13 3.91165E-13
 -1      2911 2.00519E+01 6.83553E-02-3.59514E-04 1.05957E-01 1.81434E-13 2.77519E-13
 -1      2912 2.00298E+01 3.09391E-02-7.46520E-05 4.68298E-02-1.90188E-13 4.11397E-14
 -1      2913 2.00397E+01 3.65938E-02 7.09637E-04 5.77719E-02-6.63694E-14 1.45413E-13
 -1      2914 2.00366E+01 5.06343E-02-3.00022E-04 7.23642E-02-1.56079E-14 3.96987E-13
 -1      2915 2.00185E+01 2.21020E-02-4.62855E-05 2.87712E-02-2.30938E-13-1.93434E-13
 -1      2916 2.00253E+01 2.64245E-02 5.28995E-04 3.67193E-02-2.83075E-13-1.24333E-13
 -1      2917 2.00250E+01 3.68326E-02-2.44255E-04 4.73166E-02-9.43739E-14-4.07730E-14
 -1      2918 2.00107E+01 1.53992E-02-2.71938E-05 1.58279E-02 1.13841E-13-4.99838E-13
 -1      2919 2.00153E+01 1.86628E-02 3.86693E-04 2.14738E-02-2.70423E-14-3.31214E-13
 -1      2920 2.00166E+01 2.62386E-02-1.94204E-04 2.89811E-02-4.64401E-14-4.13501E-13
 -1      2921 2.00055E+01 1.03585E-02-1.57478E-05 6.79565E-03 1.49527E-13-5.69595E-13
 -1      2922 2.00084E+01 1.28048E-02 2.76649E-04 1.06887E-02 7.03000E-14-6.26685E-13
 -1      2923 2.00105E+01 1.82040E-02-1.50905E-04 1.58453E-02 1.58198E-13-6.49324E-13
 -1      2924 2.00023E+01 6.56687E-03-1.04124E-05 7.38253E-04 2.07812E-13-4.24765E-13
 -1      2925 2.00040E+01 8.40530E-03 1.93049E-04 3.30044E-03 1.86504E-13-5.89036E-13
 -1      2926 2.00063E+01 1.21523E-02-1.14270E-04 6.69619E-03 1.55365E-13-6.91689E-13
 -1      2927 2.00004E+01 3.66552E-03-8.15084E-06-3.05176E-03 1.81583E-13-1.55305E-13
 -1      2928 2.00013E+01 5.07866E-03 1.30836E-04-1.50746E-03 1.96704E-13-2.07868E-13
 -1      2929 2.00034E+01 7.58164E-03-8.39709E-05 5.90277E-04 5.36211E-14-5.61500E-13
 -1      2930 1.99996E+01 1.34776E-03 6.60557E-06-5.05511E-03 2.79149E-13-4.71903E-14
 -1      2931 1.99998E+01 2.44774E-03 7.87814E-05-4.34221E-03 2.22617E-13-3.69793E-14
 -1      2932 2.00016E+01 4.06267E-03-5.40440E-05-3.19491E-03 1.91726E-13-2.27796E-13
 -1      2933 1.99995E+01-4.57933E-04-5.14588E-06-5.59681E-03-3.64695E-14 5.85292E-14
 -1      2934 1.99995E+01 5.51317E-04 3.17597E-05-5.50268E-03 2.15671E-13-6.28214E-14
 -1      2935 2.00009E+01 1.46042E-03-4.21419E-05-4.98435E-03 2.52059E-13-1.15509E-14
 -1      2936 2.00007E+01-6.41229E-04-1.38169E-05-5.50351E-03-1.05725E-13 1.22268E-13
 -1      2937 2.39369E+01-5.34617E+00-3.19837E-02 3.91082E+00-2.92766E-13-3.99507E-13
 -1      2938 2.10460E+01-5.12011E+00 6.42546E-02 4.93432E+00-5.20292E-13-2.25439E-13
 -1      2939 2.00023E+01 2.54683E-03-1.39726E-05-1.28515E-04-1.28077E-14-9.07168E-14
 -1      2940 2.00024E+01 2.50106E-03-1.57652E-06-6.49162E-04 3.77352E-14-4.52392E-13
 -1      2941 2.00002E+01 5.03193E-04 4.47154E-05 5.34984E-03 3.15512E-13 4.13610E-14
 -1      2942 2.00000E+01-3.49950E-04 5.98782E-08 5.46056E-03 2.15919E-13 1.90723E-13
 -1      2943 2.00012E+01 1.51966E-03-5.06889E-05 4.79389E-03 2.20841E-13-3.46329E-14
 -1      2944 2.00025E+01 1.51362E-03-2.37317E-05-2.22163E-03 1.83567E-14 2.18792E-13
 -1      2945 2.00025E+01 1.38315E-03 1.51290E-05-2.81849E-03 1.31773E-13 7.87865E-14
 -1      2946 2.00023E+01 2.52811E-03-2.94382E-06 8.06634E-04-1.96530E-13 1.51530E-13
 -1      2947 2.00023E+01 2.55857E-03-1.26986E-05 2.93536E-04-1.51886E-15-5.88651E-14
 -1      2948 2.00028E+01 6.04328E-03 4.81664E-05 9.10304E-05 3.70249E-15-9.61183E-14
 -1      2949 2.00024E+01 2.18070E-03-2.19274E-05-1.11292E-03-1.21037E-13-3.96833E-13
 -1      2950 2.00025E+01 2.07418E-03 8.55296E-06-1.67250E-03-3.11078E-14 1.56249E-13
 -1      2951 2.00031E+01 4.84622E-03 3.30042E-05-1.64243E-03 1.89939E-14 1.84727E-13
 -1      2952 2.00029E+01 5.71756E-03 4.40116E-05-7.03724E-04-7.85896E-14-2.34261E-13
 -1      2953 2.00024E+01 2.14369E-03 8.05095E-06 1.77589E-03-2.58266E-13 6.46670E-14
 -1      2954 2.00024E+01 2.23381E-03-2.09443E-05 1.24508E-03-2.53572E-13 3.11624E-13
 -1      2955 2.00029E+01 5.76305E-03 4.54054E-05 8.59872E-04-1.53467E-13 2.15893E-13
 -1      2956 2.00024E+01 1.47022E-03 1.18645E-05 2.87273E-03-5.84076E-14-6.58517E-14
 -1      2957 2.00024E+01 1.59700E-03-2.35756E-05 2.29877E-03-6.65614E-14-3.35541E-14
 -1      2958 2.00030E+01 4.93092E-03 3.59307E-05 1.74524E-03-2.81150E-13 1.51469E-13
 -1      2959 2.00021E+01 6.43721E-04-8.04708E-06 4.02527E-03 1.18265E-13 2.94795E-13
 -1      2960 2.00023E+01 7.92471E-04-2.20224E-05 3.45696E-03 6.94223E-15 1.26537E-13
 -1      2961 2.00029E+01 3.72271E-03 2.43208E-05 2.81927E-03-5.97205E-16 1.01823E-13
 -1      2962 2.05337E+01 1.69711E+00-7.43794E-03-8.27310E-01-2.07392E-13-3.93596E-13
 -1      2963 2.05557E+01 1.34556E+00 1.70803E-03-5.23765E-01-1.95240E-13-3.64654E-13
 -1      2964 2.03800E+01 1.98682E+00-2.31062E-03-7.95974E-01-1.67207E-13-4.20049E-13
 -1      2965 2.83110E+01 6.51684E+00-1.65267E-01 5.68530E-01-5.92359E-13-3.20161E-14
 -1      2966 2.86527E+01 6.47329E+00-1.90023E-01-4.21469E-01-7.02549E-13 1.20855E-13
 -1      2967 2.42091E+01-4.91158E+00 8.17024E-02-3.70496E+00 5.05131E-13 2.81858E-14
 -1      2968 2.62126E+01-4.40418E+00-9.72062E-02-2.39114E+00 4.08271E-13-6.43513E-14
 -1      2969 2.65242E+01-3.69717E+00 3.28501E-03-1.01352E+00 3.55563E-13-3.67276E-14
 -1      2970 2.46660E+01-5.11987E+00-1.08000E-01 3.68793E+00-2.66315E-14 3.24366E-13
 -1      2971 2.18777E+01-5.22723E+00 9.87271E-02 5.06547E+00 1.15033E-13 1.41987E-13
 -1      2972 6.93592E+00-4.37117E-01 1.47044E-01 3.83757E-01-1.98461E-13 4.37012E-13
 -1      2973 6.92282E+00-5.10237E-01 1.77899E-01-1.23278E+00-2.08344E-13 5.59497E-13
 -1      2974 1.80455E+01-4.82481E+00 1.54394E-01-6.20304E+00 4.31793E-13 5.48589E-14
 -1      2975 2.08514E+01-5.32150E+00-6.89838E-02-5.53374E+00 4.79866E-13 1.50791E-13
 -1      2976 1.08065E+01-2.71699E+00 1.39514E-01-5.40451E+00-2.66384E-13-4.08451E-13
 -1      2977 1.31876E+01-3.68835E+00 4.93688E-02-6.24993E+00-3.00510E-13-2.78291E-13
 -1      2978 2.05675E+01 5.00845E-01 3.29237E-03-7.33993E-01 1.27077E-13 1.52526E-13
 -1      2979 2.05389E+01 5.61681E-01 6.81075E-03-5.59336E-01 1.72414E-13 1.63252E-13
 -1      2980 2.04578E+01 6.15409E-01-3.27731E-03-8.41855E-01 1.41719E-13 7.66689E-14
 -1      2981 2.10109E+01 2.38739E-01 3.17358E-03-1.51579E+00 9.83452E-14 1.01128E-13
 -1      2982 2.08510E+01 2.98705E-01 2.31339E-03-1.42746E+00 8.98251E-14 8.63539E-14
 -1      2983 2.05623E+01 4.10809E-01-3.70542E-03-1.44995E+00 9.17029E-14 1.83377E-14
 -1      2984 2.07066E+01 2.57493E-01-5.29700E-03-1.68504E+00 6.00189E-14 3.40941E-14
 -1      2985 2.05724E+01 1.13654E+00 3.77060E-03-3.17977E-01-1.65341E-13-3.39397E-13
 -1      2986 2.05264E+01 9.30850E-01-1.50175E-03-4.02042E-02-1.53886E-13-3.09828E-13
 -1      2987 2.04507E+01 1.05691E+00-5.70240E-04 5.61848E-02-1.17785E-13-3.04930E-13
 -1      2988 2.04584E+01 1.38492E+00-2.32710E-03-3.26296E-01-1.56759E-13-3.58935E-13
 -1      2989 2.05520E+01 6.39328E-01 2.18443E-03-3.55573E-01 2.25448E-13 1.65120E-13
 -1      2990 2.05766E+01 7.50041E-01 9.70841E-03-1.28704E-01 2.57655E-13 1.81365E-13
 -1      2991 2.05208E+01 1.05273E+00-1.13840E-03 3.00262E-02 3.02951E-13 9.02618E-14
 -1      2992 2.04736E+01 7.73765E-01-3.01944E-03-4.50541E-01 2.11203E-13 9.02377E-14
 -1      2993 2.82062E+01-3.57543E+00-1.42599E-01 8.71346E-01 2.91489E-13-6.42819E-13
 -1      2994 2.62860E+01-4.71449E+00 2.45159E-03 2.29723E+00-1.50088E-14-5.67726E-13
 -1      2995 1.96309E+01 2.97884E+00-6.36502E-03 4.61672E-01 3.81656E-13-1.98828E-13
 -1      2996 1.95085E+01 3.09787E+00-7.63198E-03 3.62391E-01 3.40878E-13-2.54974E-13
 -1      2997 1.95481E+01 2.87749E+00 6.09161E-03 2.42578E-01 3.12445E-13-2.48631E-13
 -1      2998 1.97953E+01 2.60516E+00 6.87736E-03 3.52968E-01 3.52998E-13-1.47870E-13
 -1      2999 1.95397E+01 3.06110E+00-7.65139E-03-3.31660E-01 6.85463E-14-4.36848E-13
 -1      3000 1.96625E+01 2.94094E+00-6.07335E-03-4.40245E-01 1.97020E-14-4.45935E-13
 -1      3001 7.27482E+00-9.66522E-01 1.50362E-01-2.83118E+00-7.06588E-14 6.95666E-13
 -1      3002 8.54202E+00-2.15321E+00 1.11987E-01-4.87416E+00 3.76088E-14 7.81930E-13
 -1      3003 1.13032E+01-1.93485E+00 1.62952E-01-4.97189E+00 1.89931E-13 2.86521E-13
 -1      3004 7.13247E+00-1.00185E+00 1.56262E-01-2.17634E+00-6.67105E-14-6.60888E-13
 -1      3005 8.55419E+00-1.81212E+00 1.41354E-01-4.25192E+00-1.59789E-13-5.59386E-13
 -1      3006 1.12215E+01-1.67067E+00 1.59242E-01-4.49078E+00-1.75332E-13-3.97071E-13
 -1      3007 1.12937E+01-2.94135E+00 7.91702E-02 5.86532E+00 2.79179E-13-5.35461E-13
 -1      3008 8.25870E+00-2.10721E+00 2.05277E-01 4.54999E+00 2.00312E-13-6.94611E-13
 -1      3009 2.80330E+01-3.38763E+00 4.91451E-02-3.05867E-01-2.69042E-13 4.98351E-14
 -1      3010 2.88060E+01-1.71285E+00-1.75715E-01 1.08676E+00-1.24303E-13 2.33841E-13
 -1      3011 2.00007E+01-5.18974E-04-1.45696E-05 5.35036E-03 2.42022E-13-1.41690E-13
 -1      3012 2.91950E+01 4.51070E-01-5.28676E-02 2.13968E+00 1.13839E-13 4.36845E-13
 -1      3013 2.85892E+01 2.20655E+00-2.19604E-01 2.36938E+00 3.09142E-13 5.40512E-13
 -1      3014 1.65259E+01-4.59747E+00 1.29278E-01-6.19477E+00-3.17885E-13-2.16077E-13
 -1      3015 2.02668E+01-5.42066E+00-4.83356E-02-5.69925E+00-2.92183E-13-1.73386E-13
 -1      3016 1.64167E+01-3.67581E+00 1.42333E-01-5.70239E+00-2.89477E-13-2.29414E-13
 -1      3017 2.36053E+01-5.29923E+00 1.16595E-01-4.15429E+00-2.66107E-13-1.07345E-13
 -1      3018 2.59547E+01-4.99420E+00-1.46154E-01-2.56802E+00-2.73039E-13-8.89289E-14
 -1      3019 2.99535E+01-1.00174E-01-1.59794E-01-1.53160E+00 4.96533E-13-2.37532E-13
 -1      3020 2.93554E+01-1.81962E+00-3.76526E-02-6.63387E-01 3.55466E-13-4.20247E-13
 -1      3021 1.85928E+01-4.98825E+00 3.72271E-05 6.23848E+00 2.03504E-13-1.00212E-13
 -1      3022 1.53734E+01-4.06202E+00 1.18948E-01 6.33836E+00 2.52867E-13-2.66134E-13
 -1      3023 2.89123E+01 3.93692E+00-1.50784E-01 1.91547E+00-2.76418E-13-2.94390E-13
 -1      3024 2.83886E+01 5.47124E+00-2.07344E-01 1.46219E+00-4.43728E-13-2.09978E-13
 -1      3025 2.88741E+01 6.21538E-01-8.12305E-02 1.48804E+00 6.00908E-15-2.71463E-13
 -1      3026 2.91169E+01 2.35241E+00-1.90507E-01 1.80660E+00-1.69767E-13-2.39253E-13
 -1      3027 2.76534E+01 2.77151E+00-7.12186E-02 2.15118E+00-2.13662E-13-3.21354E-13
 -1      3028 1.98036E+01 2.77107E+00-7.67694E-03-5.20468E-01-2.04355E-14-4.35458E-13
 -1      3029 1.99586E+01 2.58772E+00-9.03392E-03-6.30897E-01-7.94272E-14-4.47178E-13
 -1      3030 1.98329E+01 2.55826E+00 6.98056E-03-3.39998E-01-1.54640E-15-3.96517E-13
 -1      3031 1.93549E+01 3.07294E+00 5.33515E-03 3.37084E-02 1.96865E-13-3.44334E-13
 -1      3032 1.92740E+01 3.33430E+00-6.11643E-03-2.63656E-04 1.98863E-13-3.94380E-13
 -1      3033 1.93051E+01 3.30924E+00-4.77975E-03-9.23723E-02 1.77947E-13-4.29599E-13
 -1      3034 2.83588E+01-2.63371E+00 1.41663E-02-5.51460E-01 2.53559E-13-3.14498E-13
 -1      3035 2.89211E+01 4.39792E-01-6.67935E-02-2.17226E+00 4.45456E-13-9.50628E-15
 -1      3036 2.04747E+01 1.75786E+00-2.97769E-03 6.99034E-01 3.94025E-13 1.11137E-13
 -1      3037 2.78024E+01-7.29429E-01-3.99035E-02 1.36403E+00 1.01745E-13-3.00621E-13
 -1      3038 1.95559E+01-4.68563E+00 8.31112E-02 5.38285E+00-6.08819E-13-1.52871E-13
 -1      3039 1.77208E+01-3.85430E+00 6.65274E-02 5.42146E+00-6.45692E-13-7.65776E-14
 -1      3040 2.15318E+01-4.54238E+00 1.82376E-02 4.16228E+00-4.92710E-13-1.06836E-13
 -1      3041 2.00030E+01 3.59988E-03 1.44337E-05-2.76440E-03 6.61107E-14 2.04214E-13
 -1      3042 2.00024E+01 7.04474E-04-1.86228E-05-3.44176E-03 1.22859E-13 2.04504E-13
 -1      3043 2.00022E+01 5.94945E-04 1.75660E-05-4.01364E-03-1.77680E-14 1.74215E-13
 -1      3044 2.56506E+01-4.42903E+00 2.63064E-02 2.32039E+00-1.87003E-14 4.69180E-13
 -1      3045 2.09065E+01-4.76940E+00 7.43651E-02 5.05170E+00 2.05128E-13 8.66911E-14
 -1      3046 2.63493E+01 1.77005E-01-8.07526E-02 2.55358E+00 1.71110E-13 3.91055E-13
 -1      3047 2.71004E+01-6.59359E-01-7.00677E-02 2.21774E+00 7.85899E-14 3.34233E-13
 -1      3048 2.61970E+01 1.51593E+00-4.15385E-02 2.42397E+00 3.09960E-13 3.59421E-13
 -1      3049 2.80164E+01 5.38269E+00-1.77122E-01 8.37548E-01 4.25382E-13 4.50764E-13
 -1      3050 2.59397E+01-1.14308E+00-2.79063E-02-2.23568E+00 1.39413E-13-4.24192E-14
 -1      3051 2.58166E+01-2.20255E-01-1.64646E-02-2.44452E+00 1.75644E-13 3.36692E-14
 -1      3052 2.53782E+01-4.77840E+00 2.12288E-02 2.38431E+00-1.93054E-13-3.94421E-13
 -1      3053 2.04220E+01 1.59994E+00 3.66214E-03 4.10339E-01 3.66693E-13 5.69447E-14
 -1      3054 2.74385E+01 2.59975E+00-8.25925E-02 2.29901E+00 3.12958E-13 4.18929E-13
 -1      3055 2.82059E+01 4.18837E+00-1.10328E-01 2.06660E+00 3.26517E-13 4.95687E-13
 -1      3056 2.00018E+01-7.90690E-05-1.33034E-05-4.58046E-03-1.35965E-13-1.20263E-13
 -1      3057 2.00013E+01-1.07233E-04 1.15924E-05-5.00079E-03-1.38114E-13-3.65531E-14
 -1      3058 2.00015E+01 1.08300E-03 1.63122E-05-4.91763E-03-4.45072E-14-4.25522E-14
 -1      3059 2.00025E+01 2.24634E-03 1.04402E-05-3.91868E-03-5.17182E-14 1.26656E-13
 -1      3060 2.29293E+01-4.82853E+00 5.67103E-02-4.05022E+00 4.57981E-13-9.91221E-15
 -1      3061 2.92833E+01 3.09145E+00-1.42396E-01-1.74759E+00-6.72518E-13 4.10005E-13
 -1      3062 2.83432E+01 1.74255E+00-4.54117E-02-1.95650E+00-5.33379E-13 5.46618E-13
 -1      3063 2.78317E+01 3.80619E+00-1.76159E-01-1.98564E+00-7.19425E-13 4.77382E-13
 -1      3064 1.14882E+01-2.48468E+00 1.72922E-01 5.31659E+00-5.73180E-13 4.20622E-13
 -1      3065 1.08929E+01-1.37227E+00 1.36461E-01 4.31042E+00-5.21624E-13 2.70811E-13
 -1      3066 1.39677E+01-2.76598E+00 5.64552E-02 5.32479E+00-7.17287E-13 8.01581E-14
 -1      3067 2.00013E+01-3.65543E-04 3.04696E-05 4.89718E-03 2.02996E-13-1.28487E-13
 -1      3068 2.70936E+01 5.24298E+00-9.85828E-02 1.13097E+00-4.12226E-13-1.60254E-13
 -1      3069 8.60116E+00-1.22644E+00 1.84910E-01 3.42886E+00 2.11012E-13-6.99635E-13
 -1      3070 1.67224E+01-4.00038E+00 1.26705E-01-6.02292E+00 3.77767E-13-4.60187E-14
 -1      3071 7.91175E+00-3.60685E-01 1.86488E-01 1.47247E+00-1.82840E-13 3.49776E-13
 -1      3072 9.08059E+00 1.46498E-01 1.17988E-01 6.44644E-01-1.56415E-13 4.66030E-13
 -1      3073 9.21338E+00-4.75325E-01 1.00362E-01 2.62293E+00-2.84689E-13 3.73673E-13
 -1      3074 8.82099E+00-3.17881E-01 1.56031E-01-2.08336E+00-1.17274E-13 5.98216E-13
 -1      3075 2.66155E+01-4.03869E+00 1.86334E-04-1.02670E+00-2.37824E-13 2.67564E-14
 -1      3076 2.78401E+01 5.77539E+00-1.32495E-01-8.74796E-01-6.98330E-13 1.74784E-13
 -1      3077 2.85462E+01-1.59405E+00-3.41567E-02-5.52730E-01-3.15147E-13 5.17503E-13
 -1      3078 2.74871E+01-2.54120E+00-3.13196E-03-2.80255E-01-1.70367E-13 4.78728E-13
 -1      3079 2.80691E+01-5.40898E-01-1.58718E-01-1.33100E+00-3.75311E-13 5.54501E-13
 -1      3080 1.93599E+01 3.24686E+00-6.85718E-03-1.58046E-01 1.44338E-13-4.05732E-13
 -1      3081 1.94395E+01 3.17697E+00-4.84853E-03-2.57649E-01 9.41896E-14-4.24424E-13
 -1      3082 1.95844E+01 2.83358E+00 5.32671E-03-2.01919E-01 6.67178E-14-4.00252E-13
 -1      3083 1.94204E+01 3.00577E+00 5.24001E-03-7.70771E-02 1.40777E-13-3.83459E-13
 -1      3084 7.27609E+00-5.81014E-01 1.93979E-01-1.06153E+00 9.12811E-15-6.51396E-13
 -1      3085 9.02907E+00-3.32663E-01 1.33881E-01-2.02901E+00-6.46705E-15-5.68781E-13
 -1      3086 7.60610E+00-3.38932E-01 8.73310E-02 2.50739E-01 8.10489E-14-6.49703E-13
 -1      3087 1.40785E+01-3.16470E+00 1.33860E-01 6.00958E+00 3.18412E-13-3.71328E-13
 -1      3088 1.29048E+01-2.04097E+00 9.93916E-02 5.19200E+00 3.72410E-13-4.48475E-13
 -1      3089 1.64793E+01-3.26885E+00 6.67846E-02 5.53390E+00 3.49464E-13-2.36366E-13
 -1      3090 2.80061E+01-1.10236E+00-6.67433E-02 1.80007E+00-1.86968E-14 3.27002E-13
 -1      3091 2.00018E+01 1.70318E-03-1.54541E-05 4.54597E-03-1.51333E-14-2.87008E-13
 -1      3092 2.00019E+01 7.58950E-04-1.57225E-05 4.34597E-03 3.24767E-14-3.21260E-14
 -1      3093 2.00026E+01 3.15357E-03 2.33766E-05 3.64996E-03 2.23411E-14 1.18847E-13
 -1      3094 2.00022E+01 3.05701E-03 5.75600E-05 4.01230E-03-1.05192E-15-4.65254E-14
 -1      3095 2.22524E+01-4.97565E+00 7.36892E-02-4.42511E+00-2.88325E-13-1.42279E-13
 -1      3096 2.61863E+01-1.98469E+00-7.13108E-02-1.60275E+00 2.21573E-13-1.02748E-13
 -1      3097 2.67732E+01-1.63193E+00 6.47323E-03 1.17576E+00 2.20074E-13-3.38070E-13
 -1      3098 2.68090E+01 4.74821E-02-1.20399E-01 1.98745E+00 9.12187E-14-3.84019E-13
 -1      3099 2.02007E+01 1.81320E+00-6.22838E-03 2.71524E-01 3.47310E-13-1.72064E-14
 -1      3100 2.00362E+01 2.05428E+00-3.21222E-03 2.39580E-01 3.40745E-13-6.41114E-14
 -1      3101 1.13015E+01-7.76824E-01 1.10510E-01-3.58634E+00-7.47909E-14-3.75200E-13
 -1      3102 1.31739E+01-1.75584E+00 5.29172E-02-4.79482E+00-1.50706E-13-2.60153E-13
 -1      3103 2.03239E+01 7.39023E-01 3.24347E-03 6.83223E-01-8.98961E-14-2.39565E-13
 -1      3104 2.03291E+01 6.24878E-01 5.39541E-05 8.35105E-01-8.13144E-14-2.33092E-13
 -1      3105 2.03259E+01 5.19311E-01 3.25352E-03 9.76664E-01-8.97874E-14-2.05023E-13
 -1      3106 2.03591E+01 4.11134E-01 1.15819E-03 1.09232E+00-8.12421E-14-2.06293E-13
 -1      3107 2.01805E+01 6.88607E-01-2.13783E-03 9.11771E-01-7.44719E-14-2.37302E-13
 -1      3108 2.03785E+01 2.99048E-01 3.76912E-03 1.20922E+00-5.43991E-14-1.86411E-13
 -1      3109 2.04496E+01 1.72078E-01 1.89880E-03 1.28973E+00-3.09155E-14-1.51993E-13
 -1      3110 2.01823E+01 4.40010E-01-3.91508E-03 1.18079E+00-5.73964E-14-2.07059E-13
 -1      3111 2.05139E+01 2.98293E-02 5.53844E-03 1.38108E+00 3.66429E-15-1.25850E-13
 -1      3112 2.06353E+01-1.39356E-01 2.04130E-03 1.42013E+00 2.01430E-14-7.70128E-14
 -1      3113 2.02474E+01 1.51554E-01-6.46133E-03 1.40405E+00 1.90882E-14-1.85066E-13
 -1      3114 2.07742E+01-3.31361E-01 8.88473E-03 1.47639E+00 2.64826E-14-1.03337E-14
 -1      3115 2.09603E+01-5.60085E-01 1.04615E-03 1.45896E+00 2.73978E-14 1.28245E-14
 -1      3116 2.04228E+01-2.29630E-01-1.03465E-02 1.57460E+00 5.56376E-14-8.17501E-14
 -1      3117 2.12117E+01-8.10675E-01 1.40038E-02 1.45710E+00 2.65411E-14 4.99981E-14
 -1      3118 2.14735E+01-1.09890E+00-1.96829E-03 1.35793E+00 5.06127E-14 4.72031E-14
 -1      3119 2.07712E+01-7.44571E-01-1.57976E-02 1.66504E+00 4.14544E-14-2.47053E-14
 -1      3120 2.18766E+01-1.38957E+00 2.03762E-02 1.25496E+00 3.01881E-14 8.39331E-14
 -1      3121 2.22075E+01-1.69670E+00-8.18994E-03 1.04134E+00 2.00519E-14 6.58789E-14
 -1      3122 2.13681E+01-1.39743E+00-2.17159E-02 1.61403E+00 4.52028E-14 8.07388E-14
 -1      3123 2.27785E+01-1.95345E+00 2.39275E-02 7.71907E-01 2.22615E-14 1.16014E-13
 -1      3124 2.31356E+01-2.15796E+00-1.66679E-02 4.18742E-01 1.02062E-14 1.57309E-13
 -1      3125 2.22779E+01-2.10259E+00-2.55557E-02 1.31272E+00 4.81768E-14 1.73780E-13
 -1      3126 2.38028E+01-2.20880E+00 1.56305E-02-6.95297E-02-3.45811E-14 1.76946E-13
 -1      3127 2.41034E+01-2.08360E+00-1.90936E-02-5.26740E-01-5.48540E-14 1.76428E-13
 -1      3128 2.34730E+01-2.58916E+00-2.80490E-02 6.07903E-01 3.12283E-14 3.12682E-13
 -1      3129 2.46764E+01-1.73640E+00-2.66450E-02-1.17270E+00-9.73770E-14 1.94314E-13
 -1      3130 2.47621E+01-1.04012E+00 7.02700E-04-1.56878E+00-1.69031E-13 2.09943E-13
 -1      3131 2.47428E+01-2.32612E+00-3.22234E-02-5.40801E-01-7.67233E-14 2.62403E-13
 -1      3132 2.55808E+01 7.79797E-01-5.79495E-02-2.12638E+00-3.89376E-13 2.12079E-13
 -1      3133 2.54413E+01 2.06874E+00-7.64976E-02-2.07865E+00-4.76778E-13 1.64695E-13
 -1      3134 2.53082E+01 3.19728E+00-7.48838E-02-1.55319E+00-5.10203E-13 1.02652E-13
 -1      3135 2.48512E+01 4.47513E+00-1.23030E-01-3.57195E-01-3.96252E-13-6.11455E-14
 -1      3136 2.48604E+01 4.43636E+00-1.40424E-01 4.91931E-01-3.06158E-13-1.42176E-13
 -1      3137 2.51151E+01 3.70577E+00-8.82280E-02 1.53675E+00-2.63373E-13-2.78357E-13
 -1      3138 2.53327E+01 2.60371E+00-1.04698E-01 2.03240E+00-1.79717E-13-2.87617E-13
 -1      3139 2.50679E+01 5.07169E-01-3.28224E-02 2.06689E+00 4.91759E-14-2.74227E-13
 -1      3140 2.51676E+01-5.37038E-01-1.56201E-02 1.99556E+00 7.60173E-14-2.71307E-13
 -1      3141 2.47093E+01-1.46532E+00-3.34529E-02 1.34819E+00 6.59481E-14-1.00257E-13
 -1      3142 2.46008E+01-1.93946E+00 3.03987E-02 9.38300E-01 9.98472E-14-1.21588E-13
 -1      3143 2.55058E+01-1.79401E+00-3.97993E-02 1.19070E+00 1.58703E-13-3.13704E-13
 -1      3144 2.38839E+01-2.17934E+00-9.89557E-03 3.13503E-01 1.23001E-13-7.84581E-14
 -1      3145 2.35636E+01-2.19761E+00 4.12443E-02-1.45922E-01 1.41957E-13-1.08298E-13
 -1      3146 2.42158E+01-2.75036E+00-3.83409E-02-1.36987E-01 1.62144E-13-6.42758E-14
 -1      3147 2.28725E+01-2.01509E+00 6.36174E-03-5.24064E-01 1.64782E-13-1.03555E-13
 -1      3148 2.24806E+01-1.79870E+00 3.31306E-02-8.66470E-01 1.73962E-13-9.53519E-14
 -1      3149 2.27743E+01-2.52892E+00-4.69806E-02-1.07266E+00 1.38228E-13-3.60172E-14
 -1      3150 2.19513E+01-1.47780E+00 1.09757E-02-1.03076E+00 9.71569E-14-6.25715E-14
 -1      3151 2.15962E+01-1.20111E+00 2.04300E-02-1.23089E+00 4.34882E-14-1.69634E-14
 -1      3152 2.16204E+01-1.82538E+00-4.10736E-02-1.51433E+00 1.59497E-13-7.54730E-14
 -1      3153 2.12456E+01-8.89928E-01 1.07775E-02-1.26010E+00 3.03154E-14 1.14088E-14
 -1      3154 2.09690E+01-6.45524E-01 1.04641E-02-1.34817E+00 7.03627E-14-5.32068E-14
 -1      3155 2.08263E+01-1.07751E+00-2.82429E-02-1.62190E+00 5.03951E-14 1.63133E-14
 -1      3156 2.07604E+01-4.02165E-01 8.33903E-03-1.30708E+00 1.32944E-13-9.41048E-14
 -1      3157 2.05630E+01-2.20553E-01 3.99002E-03-1.32069E+00 1.53654E-13-1.24325E-13
 -1      3158 2.03375E+01-4.74670E-01-1.67824E-02-1.55216E+00 7.69250E-14 1.38305E-13
 -1      3159 2.04515E+01-5.36251E-02 5.70842E-03-1.24736E+00 1.78603E-13-4.10253E-14
 -1      3160 2.03171E+01 6.51222E-02 3.35117E-04-1.21612E+00 1.55846E-13 3.70642E-14
 -1      3161 2.00647E+01-5.25782E-02-8.64694E-03-1.40320E+00 1.90012E-13 6.63273E-14
 -1      3162 2.02661E+01 1.66748E-01 3.64359E-03-1.13107E+00 8.31697E-14-6.11573E-15
 -1      3163 2.01761E+01 2.34371E-01-1.53635E-03-1.07546E+00 4.49467E-14 3.67279E-15
 -1      3164 1.99305E+01 2.10733E-01-3.57681E-03-1.22618E+00 1.25557E-13 4.20115E-14
 -1      3165 2.01600E+01 2.87092E-01 2.23537E-03-9.89393E-01 5.44697E-14 4.96687E-14
 -1      3166 2.00994E+01 3.17685E-01-2.35379E-03-9.22863E-01 4.42006E-14 1.49540E-13
 -1      3167 1.98786E+01 3.53509E-01-6.95810E-04-1.04615E+00 9.01483E-14 1.64523E-13
 -1      3168 2.01017E+01 3.36900E-01 1.35808E-03-8.41420E-01-1.49676E-14 1.87402E-13
 -1      3169 2.00598E+01 3.42945E-01-2.57462E-03-7.72575E-01 3.77566E-14 1.14900E-13
 -1      3170 1.98716E+01 4.12350E-01 7.82380E-04-8.75228E-01 3.34062E-14 1.53321E-13
 -1      3171 2.00705E+01 3.40981E-01 8.46266E-04-6.98695E-01 3.05865E-14 8.44871E-14
 -1      3172 2.00403E+01 3.32159E-01-2.47502E-03-6.32841E-01 1.89094E-14 8.70561E-14
 -1      3173 1.98864E+01 4.16957E-01 1.41922E-03-7.19332E-01 3.61374E-14 1.25674E-13
 -1      3174 2.00537E+01 3.18052E-01 5.61122E-04-5.67887E-01-1.25674E-14 8.10043E-14
 -1      3175 2.00311E+01 3.01281E-01-2.21751E-03-5.08061E-01 2.29330E-14 2.53873E-14
 -1      3176 1.99094E+01 3.89409E-01 1.58027E-03-5.81196E-01 4.41986E-14 8.74850E-14
 -1      3177 2.00442E+01 2.81242E-01 4.05957E-04-4.52409E-01-5.29248E-15-6.91210E-14
 -1      3178 2.00267E+01 2.61162E-01-1.89676E-03-4.00085E-01-6.50776E-14-2.07687E-14
 -1      3179 1.99333E+01 3.45162E-01 1.49214E-03-4.61701E-01-1.04138E-13-6.85480E-14
 -1      3180 2.00381E+01 2.39224E-01 3.20258E-04-3.53467E-01-1.06941E-13-4.33246E-14
 -1      3181 2.00242E+01 2.18754E-01-1.56707E-03-3.09067E-01-7.36724E-14-4.60923E-14
 -1      3182 1.99546E+01 2.94475E-01 1.29058E-03-3.60528E-01-9.12780E-14-2.53031E-13
 -1      3183 2.00334E+01 1.97368E-01 2.69002E-04-2.70811E-01-1.79067E-14 5.88225E-15
 -1      3184 2.00222E+01 1.78206E-01-1.25821E-03-2.34079E-01-4.47966E-14-5.68703E-14
 -1      3185 1.99719E+01 2.43770E-01 1.05347E-03-2.76555E-01-1.68473E-14-1.93038E-13
 -1      3186 2.00292E+01 1.58729E-01 2.33406E-04-2.03281E-01-2.84738E-14 4.25259E-14
 -1      3187 2.00202E+01 1.41743E-01-9.84935E-04-1.73566E-01-2.50718E-14 1.22125E-13
 -1      3188 1.99851E+01 1.96753E-01 8.22718E-04-2.08153E-01 1.64882E-14 5.64146E-14
 -1      3189 2.00253E+01 1.24804E-01 2.04286E-04-1.49219E-01-7.48606E-14 1.52043E-13
 -1      3190 2.00180E+01 1.10327E-01-7.52786E-04-1.25667E-01-1.33312E-13 2.22217E-13
 -1      3191 1.99945E+01 1.55290E-01 6.18512E-04-1.53427E-01-3.78659E-14 1.06014E-13
 -1      3192 2.00215E+01 9.60948E-02 1.77740E-04-1.06762E-01-1.71873E-13 3.75696E-13
 -1      3193 2.00158E+01 8.41266E-02-5.61846E-04-8.84514E-02-1.35758E-13 3.39221E-13
 -1      3194 2.00007E+01 1.20048E-01 4.48374E-04-1.10402E-01-1.10672E-13 1.50622E-13
 -1      3195 2.00180E+01 7.24946E-02 1.52529E-04-7.40328E-02-1.27974E-13 2.48330E-13
 -1      3196 2.00134E+01 6.28464E-02-4.09148E-04-6.00657E-02-6.82389E-14 2.03527E-13
 -1      3197 2.00045E+01 9.09539E-02 3.12834E-04-7.71610E-02-2.15242E-13 3.51561E-13
 -1      3198 2.00147E+01 5.35559E-02 1.28601E-04-4.92727E-02 5.93912E-15 2.38310E-13
 -1      3199 2.00112E+01 4.59416E-02-2.90359E-04-3.88252E-02 1.27423E-13 3.18108E-13
 -1      3200 2.00065E+01 6.75084E-02 2.08885E-04-5.19319E-02 9.27774E-14 4.22643E-13
 -1      3201 2.00117E+01 3.86624E-02 1.06367E-04-3.09107E-02 1.53858E-13 2.98424E-13
 -1      3202 2.00090E+01 3.27580E-02-2.00560E-04-2.32620E-02 8.16011E-14 2.09786E-13
 -1      3203 2.00072E+01 4.89962E-02 1.31795E-04-3.31430E-02 1.73210E-13 2.40898E-13
 -1      3204 2.00091E+01 2.71395E-02 8.63594E-05-1.75992E-02-3.80689E-14 7.26391E-14
 -1      3205 2.00071E+01 2.26178E-02-1.34997E-04-1.21419E-02-3.41154E-14 6.50347E-14
 -1      3206 2.00070E+01 3.46206E-02 7.69782E-05-1.94495E-02-7.39570E-14-1.19630E-13
 -1      3207 2.00069E+01 1.83151E-02 6.91619E-05-8.21816E-03 1.33776E-14-1.07945E-14
 -1      3208 2.00054E+01 1.48611E-02-8.93590E-05-4.46134E-03-7.18931E-14 1.07702E-13
 -1      3209 2.00062E+01 2.35782E-02 3.84991E-05-9.73162E-03-5.59933E-14-2.22184E-13
 -1      3210 2.00050E+01 1.15438E-02 5.34658E-05-1.86510E-03-7.07486E-14 1.16466E-13
 -1      3211 2.00039E+01 8.86333E-03-5.02501E-05 5.34351E-04-4.06234E-14 1.64902E-13
 -1      3212 2.00051E+01 1.51077E-02 1.43565E-05-3.07798E-03-5.35636E-14-1.24143E-13
 -1      3213 2.00034E+01 6.82567E-03 4.93826E-05 1.78130E-03-1.04479E-13 2.50730E-13
 -1      3214 2.00027E+01 4.63550E-03-1.97921E-05 3.22261E-03 2.91389E-14 4.45176E-14
 -1      3215 2.00030E+01 4.86360E-03-2.81002E-05 3.00416E-03-1.13977E-13-8.14788E-14
 -1      3216 2.00040E+01 9.20023E-03 1.26274E-05 7.62433E-04-7.83208E-14 6.01322E-14
 -1      3217 2.09609E+01-5.21944E-01 7.00257E-03-2.12411E+00-1.21702E-15 2.18351E-14
 -1      3218 2.06983E+01-2.22303E-01 8.79469E-03-2.10893E+00 4.58119E-14-2.28315E-14
 -1      3219 2.05825E+01 1.05201E-02 6.08394E-03-1.99014E+00 7.63161E-14-3.33263E-14
 -1      3220 2.04224E+01 1.91519E-01 3.32644E-03-1.91518E+00 5.54560E-14-1.83784E-14
 -1      3221 2.00810E+01-6.47089E-02-1.14913E-02-2.18916E+00 5.70482E-14-6.66861E-14
 -1      3222 2.28040E+01-2.34579E+00-2.37596E-03-1.78606E+00-1.44254E-13 1.10016E-13
 -1      3223 2.22226E+01-1.81115E+00 3.48768E-02-2.05823E+00-8.08774E-14 7.12217E-14
 -1      3224 2.44468E+01-3.19557E+00-2.35684E-02-9.40914E-01-2.45746E-13 1.53182E-13
 -1      3225 2.37487E+01-2.81929E+00 4.68662E-02-1.46650E+00-1.83132E-13 1.57777E-13
 -1      3226 2.25619E+01-2.96099E+00-3.53170E-02-2.36037E+00-1.86002E-13 6.62213E-14
 -1      3227 2.74283E+01 4.47242E-01-9.55915E-02-2.60430E+00 2.91767E-13 7.30596E-14
 -1      3228 2.62794E+01-4.34781E+00-9.13772E-02 1.06613E+00 6.55413E-14-2.74371E-13
 -1      3229 2.43407E+01-4.47374E+00 4.62995E-02 2.48133E+00-1.88415E-13-1.47608E-13
 -1      3230 2.47917E+01-3.35194E+00-3.99392E-03 8.70581E-01 3.22468E-14-3.99034E-14
 -1      3231 2.57103E+01-3.29659E+00 1.97926E-02 1.02167E-01 1.60947E-13-3.08260E-14
 -1      3232 2.08533E+01-3.70057E-01 1.15172E-02 1.98201E+00-2.46200E-13 3.06385E-13
 -1      3233 2.11583E+01-7.10949E-01 7.27613E-03 1.97446E+00-2.89362E-13 2.66730E-13
 -1      3234 2.04938E+01 9.96318E-02 3.99780E-03 1.81154E+00-1.89866E-13 1.68372E-13
 -1      3235 2.06846E+01-1.05089E-01 6.38203E-03 1.87108E+00-1.60661E-13 3.01721E-13
 -1      3236 2.01130E+01-2.13797E-01-1.34264E-02 2.10521E+00-1.71208E-13 2.75394E-13
 -1      3237 2.03147E+01 3.52861E-01 1.92468E-04 1.59148E+00-1.02202E-13 1.87787E-13
 -1      3238 2.04355E+01 2.49188E-01 5.26676E-03 1.68341E+00-1.73383E-13 1.59581E-13
 -1      3239 1.99260E+01 2.43619E-01-5.97151E-03 1.83803E+00-1.01988E-13 7.53270E-14
 -1      3240 2.02284E+01 4.60204E-01-1.57633E-03 1.36034E+00 3.56358E-14 2.63598E-13
 -1      3241 2.03095E+01 4.22026E-01 4.29502E-03 1.46429E+00-2.23628E-15 1.75132E-13
 -1      3242 1.98793E+01 4.76004E-01-1.81245E-03 1.57215E+00-1.06924E-13 1.84590E-13
 -1      3243 2.01851E+01 4.79064E-01-2.25079E-03 1.13745E+00 9.57086E-14 1.81380E-13
 -1      3244 2.02446E+01 4.79358E-01 3.61559E-03 1.24139E+00 8.80257E-14 2.77750E-13
 -1      3245 1.98938E+01 5.63015E-01 1.28977E-04 1.32323E+00 5.48126E-14 5.91682E-14
 -1      3246 2.01592E+01 4.49499E-01-2.35349E-03 9.32894E-01 3.07521E-13 1.57066E-13
 -1      3247 2.02065E+01 4.70044E-01 3.15011E-03 1.02996E+00 1.57086E-13 1.49712E-13
 -1      3248 1.99281E+01 5.64165E-01 8.38874E-04 1.09691E+00 1.57394E-13 8.68703E-14
 -1      3249 2.01393E+01 3.97107E-01-2.17796E-03 7.51657E-01 2.54384E-13 1.78550E-13
 -1      3250 2.01788E+01 4.26529E-01 2.79256E-03 8.38265E-01 3.37435E-13 2.14648E-13
 -1      3251 1.99628E+01 5.19527E-01 9.43754E-04 8.95544E-01 2.48329E-13 7.72639E-14
 -1      3252 2.01210E+01 3.37157E-01-1.88702E-03 5.95476E-01 4.04254E-14 1.56065E-13
 -1      3253 2.01546E+01 3.68805E-01 2.47441E-03 6.70201E-01 2.00459E-13 1.97999E-13
 -1      3254 1.99904E+01 4.54306E-01 7.96469E-04 7.19972E-01 2.22504E-13 2.24292E-13
 -1      3255 2.01031E+01 2.78136E-01-1.56826E-03 4.63989E-01-1.15471E-13-3.71535E-14
 -1      3256 2.01318E+01 3.08402E-01 2.16690E-03 5.26775E-01-9.44554E-14 5.47110E-14
 -1      3257 2.00094E+01 3.83427E-01 5.77068E-04 5.69864E-01 9.49882E-14 1.66928E-13
 -1      3258 2.00860E+01 2.24326E-01-1.26569E-03 3.55521E-01-1.08778E-13-2.50186E-13
 -1      3259 2.01100E+01 2.51462E-01 1.86559E-03 4.07125E-01-1.28555E-13-1.84858E-13
 -1      3260 2.00207E+01 3.15136E-01 3.68421E-04 4.43930E-01-7.38574E-14 3.52650E-14
 -1      3261 2.00701E+01 1.77516E-01-9.98687E-04 2.67670E-01-1.75063E-14-2.81587E-13
 -1      3262 2.00900E+01 2.00865E-01 1.57625E-03 3.09276E-01-7.96432E-14-3.08926E-13
 -1      3263 2.00261E+01 2.53533E-01 2.01222E-04 3.40167E-01-1.66671E-14-3.61875E-13
 -1      3264 2.00559E+01 1.38094E-01-7.73185E-04 1.97719E-01 2.90553E-14-2.05904E-13
 -1      3265 2.00720E+01 1.57602E-01 1.30679E-03 2.30684E-01-2.59329E-14-2.50687E-13
 -1      3266 2.00275E+01 2.00256E-01 8.06120E-05 2.56127E-01-1.20890E-13-3.46190E-13
 -1      3267 2.00437E+01 1.05696E-01-5.88328E-04 1.42921E-01 1.41260E-13 1.79739E-13
 -1      3268 2.00565E+01 1.21627E-01 1.06356E-03 1.68611E-01 1.14991E-13-2.59287E-14
 -1      3269 2.00264E+01 1.55540E-01 9.12264E-07 1.89178E-01-5.93930E-14-7.55887E-14
 -1      3270 2.00334E+01 7.96004E-02-4.40160E-04 1.00674E-01 1.83977E-15 2.87135E-13
 -1      3271 2.00434E+01 9.23639E-02 8.50216E-04 1.20375E-01 5.58535E-14 1.89173E-13
 -1      3272 2.00238E+01 1.18875E-01-4.68679E-05 1.36697E-01-3.75618E-14 2.93054E-13
 -1      3273 2.00250E+01 5.89448E-02-3.23639E-04 6.86278E-02-7.93043E-15 1.80921E-13
 -1      3274 2.00327E+01 6.89985E-02 6.67787E-04 8.34894E-02 4.51802E-14 2.94633E-13
 -1      3275 2.00206E+01 8.93896E-02-7.15846E-05 9.62124E-02 6.39150E-15 2.82062E-13
 -1      3276 2.00184E+01 4.28514E-02-2.33645E-04 4.47305E-02 1.46838E-14-3.43333E-13
 -1      3277 2.00241E+01 5.06494E-02 5.15310E-04 5.57479E-02 4.20779E-14-5.37925E-14
 -1      3278 2.00172E+01 6.60810E-02-8.06440E-05 6.54890E-02 1.30032E-13-5.83192E-14
 -1      3279 2.00132E+01 3.04891E-02-1.65388E-04 2.72425E-02 6.69464E-14-4.68905E-13
 -1      3280 2.00174E+01 3.64547E-02 3.90638E-04 3.52517E-02 2.65775E-14-3.80580E-13
 -1      3281 2.00140E+01 4.79379E-02-7.97237E-05 4.25741E-02 1.31020E-13-3.56697E-13
 -1      3282 2.00092E+01 2.10997E-02-1.15132E-04 1.47264E-02 2.01939E-13-6.36660E-13
 -1      3283 2.00122E+01 2.56167E-02 2.90889E-04 2.04117E-02 1.03149E-13-5.98080E-13
 -1      3284 2.00110E+01 3.40081E-02-7.27706E-05 2.58094E-02 1.86249E-13-6.05875E-13
 -1      3285 2.00062E+01 1.40008E-02-7.98426E-05 6.03139E-03 6.33210E-14-4.26261E-13
 -1      3286 2.00083E+01 1.74123E-02 2.12847E-04 9.93407E-03 2.04445E-13-4.97129E-13
 -1      3287 2.00085E+01 2.34205E-02-6.26442E-05 1.38217E-02 1.27614E-13-5.38486E-13
 -1      3288 2.00040E+01 8.62397E-03-5.38761E-05 2.69906E-04 7.89415E-14-4.62022E-13
 -1      3289 2.00054E+01 1.12082E-02 1.51862E-04 2.80926E-03-2.44436E-14-4.58255E-13
 -1      3290 2.00062E+01 1.54107E-02-4.75060E-05 5.52664E-03 1.45107E-14-2.31197E-13
 -1      3291 2.00024E+01 4.47697E-03-1.09361E-05-3.22886E-03 1.33521E-13-4.53856E-13
 -1      3292 2.00033E+01 6.43428E-03 1.00660E-04-1.76964E-03 7.84970E-14-4.48374E-13
 -1      3293 2.00044E+01 9.28901E-03-4.17137E-05 5.24670E-05 6.85474E-14-4.33714E-13
 -1      3294 2.00018E+01 2.23459E-03 1.19896E-05-4.44675E-03 4.89998E-14-1.05803E-13
 -1      3295 2.00021E+01 3.40025E-03 3.91298E-05-3.97512E-03 1.49007E-13-3.01016E-13
 -1      3296 2.00032E+01 5.35709E-03-3.06796E-05-2.76044E-03 2.33911E-14-4.15029E-13
 -1      3297 2.00024E+01 2.72824E-03-3.12696E-05-4.00834E-03-7.78453E-14-1.70436E-13
 -1      3298 2.65307E+01-2.75224E+00-5.62772E-03-7.05134E-01 1.28040E-13-1.00003E-13
 -1      3299 2.00030E+01 9.13849E-03-9.99156E-06 6.65563E-04 6.43620E-15 3.01144E-13
 -1      3300 2.00029E+01 9.39551E-03-3.96794E-05 3.48902E-04 1.02275E-13 6.91344E-14
 -1      3301 2.00033E+01 6.06070E-03 8.18163E-07 2.25302E-03-6.97964E-14 1.50161E-13
 -1      3302 2.00033E+01 6.68599E-03-4.76193E-05 1.71586E-03-8.81127E-14 1.03076E-13
 -1      3303 2.00029E+01 9.66894E-03-2.57667E-05 2.44638E-04 5.43643E-14-1.28807E-13
 -1      3304 2.00029E+01 9.65817E-03-2.47824E-05-4.56066E-05 8.67049E-14 2.39755E-14
 -1      3305 2.00033E+01 1.35181E-02 8.18756E-05 1.17496E-04 1.62891E-13-8.88983E-14
 -1      3306 2.03244E+01 7.41013E-01 9.82055E-04-9.14097E-01 1.48105E-13 1.91440E-14
 -1      3307 2.03271E+01 8.13010E-01 2.23977E-03-7.32081E-01 1.52480E-13 3.26321E-14
 -1      3308 2.56142E+01-3.88747E+00 6.89771E-02-1.28368E+00 4.08181E-13-1.46896E-14
 -1      3309 2.62199E+01-3.28792E+00-1.17392E-01-1.84518E-01 2.74628E-13-1.74374E-13
 -1      3310 2.00033E+01 7.86878E-03 6.95620E-06 1.29343E-03-1.28857E-13 2.30942E-13
 -1      3311 2.00032E+01 8.36131E-03-4.42211E-05 8.77299E-04-1.94019E-13 2.89231E-13
 -1      3312 2.00035E+01 1.24789E-02 7.18444E-05 2.70985E-04 1.72794E-13 1.82251E-13
 -1      3313 2.00038E+01 1.05423E-02 7.93174E-05 7.44185E-04-3.01596E-14 2.15627E-13
 -1      3314 2.09622E+01-4.32205E+00 1.14957E-01-4.58283E+00-3.03688E-13-1.84647E-13
 -1      3315 2.32016E+01-4.80971E+00-9.52195E-02-3.46479E+00-2.42591E-13-1.00624E-13
 -1      3316 2.15254E+01-1.11482E+00 2.43296E-02 2.02649E+00-4.10951E-13 3.05220E-13
 -1      3317 2.19915E+01-1.59926E+00 5.29083E-03 1.89392E+00-3.43248E-13 2.14564E-13
 -1      3318 2.05739E+01-9.75191E-01-2.36985E-02 2.32756E+00-3.37590E-13 3.45571E-13
 -1      3319 2.26843E+01-2.13343E+00 3.64693E-02 1.78344E+00-2.30948E-13 6.74669E-14
 -1      3320 2.33847E+01-2.62090E+00 1.30443E-02 1.42865E+00-1.20452E-13 7.73299E-14
 -1      3321 2.15213E+01-2.06886E+00-3.01925E-02 2.40707E+00-3.80774E-13 2.57707E-13
 -1      3322 2.22260E+01-4.77191E+00-7.02473E-02 4.13548E+00 1.81320E-13 2.22546E-13
 -1      3323 1.97776E+01-4.09872E+00 7.65285E-02 4.99706E+00 2.54650E-13 5.14103E-14
 -1      3324 2.56458E+01 2.72932E+00-1.74364E-01-2.09362E+00 4.27811E-13 1.83454E-13
 -1      3325 2.86343E+01 5.08289E+00-1.33050E-01-1.41153E+00 5.20306E-13 3.17982E-13
 -1      3326 2.04497E+01 1.25964E+00-1.08758E-03 1.13328E-01 3.14205E-13 6.02304E-14
 -1      3327 2.03168E+01 1.61114E+00 2.38665E-03 2.13705E-01 3.32769E-13 2.25277E-14
 -1      3328 2.02527E+01 1.50717E+00 5.57160E-03-7.47621E-03 3.00795E-13-7.62086E-16
 -1      3329 2.04212E+01 1.08377E+00-1.22652E-03-1.59082E-01 2.77405E-13 5.07790E-14
 -1      3330 2.16570E+01-1.32523E+00 6.06284E-03-2.10386E+00-2.99248E-14 3.33622E-14
 -1      3331 2.12468E+01-8.84938E-01 1.91832E-02-2.19637E+00-1.24224E-14 2.61123E-14
 -1      3332 2.04200E+01-7.37593E-01-2.09536E-02-2.43072E+00-1.69451E-14-4.13133E-14
 -1      3333 2.11707E+01-1.72960E+00-2.91700E-02-2.55407E+00-8.12703E-14 3.94433E-14
 -1      3334 9.63653E+00 2.01382E-01 8.01911E-02-1.35095E+00-1.82521E-13 4.80838E-13
 -1      3335 1.02279E+01-2.25236E-01 1.11778E-01-2.90961E+00-1.94289E-14 4.93938E-13
 -1      3336 2.03064E+01 6.28574E-01 2.31515E-03-1.23786E+00 1.24583E-13-4.22107E-15
 -1      3337 2.02839E+01 6.82126E-01 1.19253E-03-1.08323E+00 1.46670E-13 1.66853E-14
 -1      3338 2.01279E+01 8.58965E-01-4.43912E-04-9.84405E-01 1.58255E-13-2.67770E-14
 -1      3339 2.89288E+01 4.14248E+00-1.86662E-01-2.16440E+00 5.61037E-13 2.21920E-13
 -1      3340 2.59788E+01-3.92895E+00-9.82693E-02 1.08799E+00-7.00733E-14 4.92668E-13
 -1      3341 2.45417E+01-4.45793E+00 7.75425E-02 2.62170E+00 1.13486E-14 4.13503E-13
 -1      3342 1.57228E+01-2.74622E+00 1.09289E-01-5.25726E+00-2.41564E-13-2.24508E-13
 -1      3343 1.83812E+01-3.92374E+00-1.73883E-02-5.31948E+00-2.51611E-13-2.16008E-13
 -1      3344 2.01478E+01-3.57728E+00 7.44570E-02-4.36672E+00-2.12122E-13-1.65075E-13
 -1      3345 2.03438E+01 1.01383E+00 2.83066E-03 3.21886E-01-8.54524E-14-2.94523E-13
 -1      3346 2.03330E+01 8.64950E-01-1.10491E-03 5.14871E-01-8.67905E-14-2.71317E-13
 -1      3347 2.02069E+01 9.50328E-01-1.21581E-03 5.92586E-01-6.99324E-14-2.89735E-13
 -1      3348 2.00912E+01 2.41023E+00-6.74622E-03-6.85475E-01-1.04278E-13-4.53802E-13
 -1      3349 2.02430E+01 2.19018E+00-9.34866E-03-7.60406E-01-1.39722E-13-4.49894E-13
 -1      3350 2.03487E+01 1.82397E+00 8.95727E-03-5.15257E-01-1.44224E-13-4.05751E-13
 -1      3351 2.01111E+01 2.20199E+00 8.91965E-03-4.52482E-01-8.71919E-14-4.10579E-13
 -1      3352 2.72158E+01-2.18119E+00 2.64380E-02 1.43019E+00-1.26739E-13 2.01165E-13
 -1      3353 2.55556E+01-4.28816E+00 9.57321E-02-1.71648E+00-2.26864E-13-7.79932E-15
 -1      3354 2.65801E+01-3.44733E+00-1.09676E-01 5.67087E-02-1.95863E-13 6.57599E-14
 -1      3355 1.16345E+01-1.06425E+00 8.45325E-02-4.21425E+00 1.26787E-13 2.62915E-13
 -1      3356 1.36202E+01-2.27821E+00 5.74804E-02-5.39044E+00 2.09700E-13-1.01807E-13
 -1      3357 1.59745E+01-3.05395E+00 1.04335E-01-5.51970E+00 2.32772E-13-9.34114E-14
 -1      3358 1.87742E+01-4.09221E+00-4.92478E-02-5.33036E+00 3.21201E-13 4.62130E-15
 -1      3359 1.62145E+01-2.23160E+00 1.00617E-01-4.81412E+00 1.68129E-13-7.96932E-14
 -1      3360 2.15974E+01-4.43691E+00 1.04611E-01-4.33400E+00 3.80182E-13 3.32069E-14
 -1      3361 2.38758E+01-4.60902E+00-8.84280E-02-2.88896E+00 4.15449E-13 5.82650E-14
 -1      3362 2.06556E+01-3.73243E+00 7.36174E-02-4.16663E+00 3.24636E-13 2.62303E-14
 -1      3363 2.78036E+01-1.33797E+00-1.20115E-01-2.09043E+00 2.24591E-13-1.32436E-13
 -1      3364 1.94276E+01 2.74880E+00-4.37326E-03 1.14752E-01 2.62294E-13-2.56208E-13
 -1      3365 1.93788E+01 2.79817E+00-4.30509E-03 7.20957E-02 2.23446E-13-2.81908E-13
 -1      3366 1.02175E+01-9.93429E-01 7.19737E-02 3.79744E+00 2.85254E-13-5.85185E-13
 -1      3367 8.62568E+00-3.27245E-01 2.02907E-01 2.19942E+00 2.03712E-13-6.67549E-13
 -1      3368 2.61532E+01-2.88625E+00-4.00077E-02 5.56990E-01-1.18327E-13 1.30920E-13
 -1      3369 1.93585E+01 2.81743E+00-4.67771E-03 6.34242E-02 1.98420E-13-3.13063E-13
 -1      3370 1.93673E+01 2.81183E+00-3.64797E-03 1.90006E-02 1.65697E-13-3.44142E-13
 -1      3371 1.94101E+01 2.58787E+00 7.10053E-03 4.96986E-02 1.91116E-13-2.84343E-13
 -1      3372 1.99944E+01 1.93093E+00 7.40000E-03 5.45746E-02 3.07086E-13-8.27588E-14
 -1      3373 1.98760E+01 2.24986E+00-5.05466E-03 2.24699E-01 3.34674E-13-1.27715E-13
 -1      3374 1.97316E+01 2.41855E+00-5.05010E-03 1.79948E-01 3.13524E-13-1.71397E-13
 -1      3375 1.55726E+01-1.85974E+00 9.81360E-02-4.55536E+00-1.51205E-13-2.04121E-13
 -1      3376 2.33162E+01-4.51117E+00 4.19188E-02 3.24962E+00-2.42029E-13-7.54986E-14
 -1      3377 2.19224E+01-4.04486E+00 7.12827E-02 3.65856E+00-2.80685E-13 1.52737E-13
 -1      3378 2.42176E+01-4.06338E+00-1.38391E-02 2.02598E+00 8.36484E-15-2.00968E-15
 -1      3379 2.42102E+01-3.98776E+00-1.11583E-02-1.93553E+00 3.40197E-13 7.88588E-14
 -1      3380 1.85764E+01-3.35027E+00-1.63903E-02 4.67191E+00-5.30447E-13 1.76931E-13
 -1      3381 1.65215E+01-3.02575E+00 1.38456E-01 5.29791E+00-6.34943E-13-6.21517E-14
 -1      3382 1.51643E+01-2.04685E+00 7.54580E-02 4.74793E+00-4.97373E-13-2.55559E-14
 -1      3383 1.04198E+01 6.85130E-02 5.45243E-02-1.82462E+00 7.42635E-14-4.59827E-13
 -1      3384 1.08172E+01-3.09178E-01 1.21126E-01-2.89870E+00-1.69656E-15-4.23439E-13
 -1      3385 1.27351E+01-3.35062E-01 7.99222E-02-3.16987E+00-1.06165E-14-2.84127E-13
 -1      3386 2.00035E+01 6.59936E-03-4.33201E-05-1.64917E-03-7.26679E-14 1.50945E-13
 -1      3387 2.00035E+01 5.95127E-03 1.07942E-05-2.21474E-03-9.12714E-14 3.88738E-13
 -1      3388 2.03637E+01 1.29078E+00 4.71088E-03-6.84158E-03-7.35889E-14-3.34808E-13
 -1      3389 2.03460E+01 1.14212E+00-1.27295E-03 1.72399E-01-6.72420E-14-3.16237E-13
 -1      3390 2.02298E+01 1.23794E+00 8.25949E-07 2.65965E-01-6.33250E-14-3.04853E-13
 -1      3391 2.63271E+01-1.01990E-01-5.67350E-02-1.87056E+00-3.65527E-13 3.62696E-13
 -1      3392 2.65273E+01 2.28982E+00-8.69788E-02 2.28739E+00-1.19141E-13-4.90052E-13
 -1      3393 2.49142E+01 1.21295E+00-3.46179E-02 2.19677E+00 1.73264E-14-3.01146E-13
 -1      3394 1.24351E+01-4.68096E-01 1.01782E-01-3.43746E+00 2.86333E-14 2.21753E-13
 -1      3395 2.03457E+01 1.58430E+00-3.55415E-03-3.10299E-01-1.20062E-13-3.85357E-13
 -1      3396 2.03223E+01 5.10791E-01 3.53711E-03-1.52525E+00 7.77930E-14-3.92235E-15
 -1      3397 2.02693E+01 5.73600E-01 5.58263E-04-1.39223E+00 9.64360E-14-5.21859E-15
 -1      3398 2.00452E+01 7.28160E-01-9.99144E-04-1.31423E+00 1.00230E-13-5.51761E-14
 -1      3399 9.92062E+00 4.71371E-01 1.42544E-01-4.19979E-01-2.08386E-13 5.73194E-13
 -1      3400 1.10606E+01 5.02783E-01 5.94516E-02-1.16132E+00-1.06368E-13 4.15244E-13
 -1      3401 1.03992E+01 4.40305E-01 5.87995E-02 6.43335E-01-2.23775E-13 4.88748E-13
 -1      3402 1.99735E+01 3.43054E-01-5.28278E-03-1.91095E+00 4.53123E-14-5.99287E-14
 -1      3403 2.03980E+01 3.28361E-01 4.81143E-03-1.77930E+00 3.87183E-14-7.38583E-15
 -1      3404 2.03031E+01 4.31283E-01 1.00602E-03-1.66981E+00 6.20125E-14-2.89249E-14
 -1      3405 2.55807E+01-3.13479E+00 5.90019E-02-1.74317E-01-2.46827E-13 1.52442E-13
 -1      3406 2.59272E+01-2.25585E+00-2.87627E-02 7.34161E-01 2.48828E-13-3.14245E-13
 -1      3407 2.00033E+01 8.27073E-03-4.96634E-05-7.49501E-04-8.36081E-14 2.17629E-13
 -1      3408 2.00034E+01 7.78439E-03 7.34561E-06-1.19938E-03 2.49914E-14 2.49539E-13
 -1      3409 2.00040E+01 1.04148E-02 4.44022E-05-6.35007E-04-1.21001E-14 3.69490E-13
 -1      3410 2.41295E+01-4.06515E+00 2.60930E-02-2.23071E+00-2.45387E-13-3.79870E-14
 -1      3411 2.00030E+01 9.36141E-03-4.11577E-05-1.60360E-04 6.00851E-14-1.03075E-13
 -1      3412 2.00031E+01 9.08442E-03-7.93506E-06-5.00090E-04-7.28174E-14-1.61235E-13
 -1      3413 2.00036E+01 1.24008E-02 7.12804E-05-9.11205E-05-1.50771E-13 9.02410E-15
 -1      3414 2.00033E+01 1.34957E-02 8.21361E-05 9.29309E-05 2.83730E-15-6.72735E-14
 -1      3415 2.03726E+01 8.71211E-01 3.45323E-04-5.67236E-01 1.74596E-13 4.60849E-14
 -1      3416 2.03942E+01 9.81917E-01 2.84072E-03-3.46727E-01 2.29697E-13 4.22682E-14
 -1      3417 2.03043E+01 1.16454E+00-4.27420E-03-2.75726E-01 2.45296E-13 2.74670E-14
 -1      3418 2.02213E+01 9.97719E-01-6.81887E-04-6.42773E-01 1.77494E-13 6.33692E-15
 -1      3419 1.08583E+01-6.08801E-01 1.54218E-01 3.37168E+00-3.57093E-13 2.76779E-13
 -1      3420 1.11521E+01-2.90865E-02 7.56194E-02 2.47092E+00-3.09402E-13 2.32259E-13
 -1      3421 1.26064E+01-9.53600E-01 4.23569E-02 3.88269E+00-4.36498E-13 2.17465E-14
 -1      3422 2.00910E+01-3.44374E+00 5.45589E-02 4.25038E+00 2.96634E-13 4.96547E-14
 -1      3423 1.84435E+01-3.51045E+00 5.84210E-02 5.15637E+00 3.08045E-13-8.49008E-14
 -1      3424 1.69930E+01-2.60688E+00 3.67391E-02 4.89549E+00 3.81379E-13-2.25715E-13
 -1      3425 2.33925E+01-4.19272E+00 4.01232E-02 2.89544E+00 1.12854E-13 2.88740E-13
 -1      3426 9.45487E+00 1.73270E-02 1.43976E-01 9.18386E-01 1.31669E-13-5.72833E-13
 -1      3427 2.63492E+01-2.50544E+00 7.12069E-03-4.65681E-01-1.22031E-13 3.66408E-13
 -1      3428 2.54110E+01-2.92820E+00-2.49665E-04 8.45414E-02-9.63517E-14 2.72492E-13
 -1      3429 2.73939E+01-2.40070E+00 1.74831E-02-1.02872E+00 1.72959E-13-2.64011E-13
 -1      3430 2.45206E+01-3.79290E+00-7.23740E-02-1.42292E+00-2.29373E-13 5.51417E-14
 -1      3431 2.62593E+01 5.01356E+00-1.32365E-01-7.97522E-01-5.23803E-13 3.25746E-14
 -1      3432 2.72754E+01 4.65269E+00-9.25138E-02-1.68136E+00-6.83287E-13 2.74579E-13
 -1      3433 1.96059E+01 2.56073E+00-4.46148E-03 1.67634E-01 3.12338E-13-2.07590E-13
 -1      3434 1.95039E+01 2.66746E+00-4.93590E-03 1.23444E-01 2.85153E-13-2.38485E-13
 -1      3435 1.95069E+01 2.48875E+00 7.29477E-03 4.85441E-02 2.57153E-13-2.13594E-13
 -1      3436 1.97112E+01 2.26837E+00 7.42528E-03 4.97050E-02 2.84860E-13-1.83178E-13
 -1      3437 1.42960E+01-1.57199E+00 4.17688E-02 4.52484E+00 3.75176E-13-3.48402E-13
 -1      3438 1.23171E+01-1.18983E+00 1.48035E-01 4.39594E+00 3.25170E-13-4.77424E-13
 -1      3439 1.19261E+01-4.68273E-01 6.43455E-02 3.36117E+00 2.92284E-13-4.74509E-13
 -1      3440 1.95525E+01 2.61361E+00-5.39586E-03-6.89431E-02 8.22917E-14-3.69013E-13
 -1      3441 1.96603E+01 2.50304E+00-3.61918E-03-1.26637E-01 4.92695E-14-3.83359E-13
 -1      3442 2.68455E+01 9.83706E-01-7.58601E-02 2.27969E+00 2.55906E-14-3.90125E-13
 -1      3443 1.97892E+01 2.35137E+00-5.00127E-03-1.56737E-01 2.36834E-14-3.65607E-13
 -1      3444 1.99326E+01 2.17871E+00-5.08537E-03-2.21490E-01-2.20368E-14-3.80050E-13
 -1      3445 1.97720E+01 2.18467E+00 3.39127E-03-1.61374E-02 3.24060E-14-3.45894E-13
 -1      3446 2.00032E+01 4.89972E-03-1.35290E-05 2.79814E-03-8.41299E-14 1.83828E-13
 -1      3447 2.00037E+01 8.10837E-03 5.68497E-07 1.61278E-03-1.55882E-13 1.22292E-13
 -1      3448 2.30526E+01-3.75289E+00 7.94368E-02-2.85640E+00-2.29747E-13-2.32548E-14
 -1      3449 1.99814E+01 6.30662E-01 1.06353E-03 1.10863E+00-5.15563E-14-1.87352E-13
 -1      3450 1.99957E+01 4.99254E-01 2.71159E-03 1.23563E+00-2.93034E-14-1.68978E-13
 -1      3451 1.99750E+01 3.54889E-01 2.01562E-03 1.37492E+00 2.89908E-15-1.43492E-13
 -1      3452 2.00339E+01 1.90789E-01 4.71018E-03 1.48207E+00 5.30458E-14-1.39735E-13
 -1      3453 1.97430E+01 5.30297E-01-3.07992E-03 1.31054E+00 2.02345E-14-1.18908E-13
 -1      3454 2.00601E+01-3.43866E-04 4.30305E-03 1.61801E+00 7.04218E-14-1.19121E-13
 -1      3455 2.01903E+01-2.25771E-01 6.67429E-03 1.70035E+00 8.33382E-14-1.02582E-13
 -1      3456 1.97319E+01 1.78625E-01-6.59781E-03 1.60056E+00 7.13770E-14-1.01799E-13
 -1      3457 2.03063E+01-4.89330E-01 9.03401E-03 1.82749E+00 9.76610E-14-8.46211E-14
 -1      3458 2.05408E+01-8.00918E-01 7.56733E-03 1.86849E+00 8.05903E-14-4.43190E-14
 -1      3459 1.98447E+01-3.04402E-01-1.22549E-02 1.89186E+00 1.14865E-13-1.08962E-13
 -1      3460 2.08119E+01-1.15183E+00 1.77603E-02 1.96095E+00 6.77483E-14 4.41510E-14
 -1      3461 2.11820E+01-1.55392E+00 5.98027E-03 1.92285E+00 1.13702E-13 1.00065E-13
 -1      3462 2.01807E+01-9.80477E-01-2.04851E-02 2.16487E+00 1.32220E-13-1.93307E-14
 -1      3463 2.16919E+01-1.97077E+00 3.18937E-02 1.91939E+00 1.08148E-13 1.52650E-13
 -1      3464 2.22167E+01-2.41194E+00 2.15334E-03 1.73647E+00 8.15008E-14 1.68645E-13
 -1      3465 2.08776E+01-1.86975E+00-2.80485E-02 2.34289E+00 1.31479E-13 1.00208E-13
 -1      3466 2.30307E+01-2.79266E+00 4.31094E-02 1.52064E+00 7.26336E-14 2.17707E-13
 -1      3467 2.36945E+01-3.06810E+00 1.13242E-03 1.10494E+00 6.34527E-14 2.72252E-13
 -1      3468 2.20797E+01-2.87310E+00-3.43906E-02 2.24962E+00 1.10148E-13 1.87432E-13
 -1      3469 2.47466E+01-3.27647E+00 3.23586E-02 7.22784E-01-1.33053E-14 3.31152E-13
 -1      3470 1.25943E+01 1.24970E-01 4.52704E-02-2.59351E+00 1.20372E-14 1.64584E-13
 -1      3471 1.39407E+01-6.87590E-01 2.57445E-02-3.78211E+00 1.85667E-13-5.30131E-15
 -1      3472 2.27639E+01-2.87693E+00-5.60128E-04-1.59529E+00 1.24739E-13 3.16032E-14
 -1      3473 2.21262E+01-2.44997E+00 4.14405E-02-1.84882E+00 1.00107E-13-9.68084E-15
 -1      3474 2.14304E+01-1.99243E+00 7.19221E-03-1.91078E+00 1.62790E-13-2.38385E-14
 -1      3475 2.09445E+01-1.54142E+00 2.33837E-02-1.97752E+00 1.95321E-13 3.74982E-15
 -1      3476 2.11011E+01-2.37951E+00-3.24447E-02-2.44740E+00 8.52669E-14 9.33685E-14
 -1      3477 2.05593E+01-1.12992E+00 1.15281E-02-1.88810E+00 1.45926E-13-1.25582E-14
 -1      3478 2.02312E+01-7.72217E-01 1.11000E-02-1.85543E+00 1.03652E-13 1.00987E-13
 -1      3479 2.01267E+01-1.35678E+00-2.47711E-02-2.28013E+00 1.91109E-13 7.39469E-14
 -1      3480 2.00487E+01-4.64658E-01 1.02540E-02-1.71794E+00 3.29460E-14 1.53968E-13
 -1      3481 1.98486E+01-2.15509E-01 3.42166E-03-1.64256E+00 6.84017E-14 7.78969E-14
 -1      3482 1.96185E+01-5.73182E-01-1.56572E-02-1.97943E+00 1.13200E-13-2.94467E-14
 -1      3483 1.97869E+01-8.64090E-03 7.95071E-03-1.50099E+00 9.22922E-14 9.47460E-14
 -1      3484 1.96762E+01 1.47533E-01-2.30086E-04-1.41109E+00 1.67856E-13 3.44945E-14
 -1      3485 1.94010E+01-3.66991E-02-8.11955E-03-1.66379E+00 4.81993E-14 1.19948E-13
 -1      3486 1.96798E+01 2.72682E-01 5.71526E-03-1.28181E+00 1.75695E-13 2.81532E-15
 -1      3487 1.96260E+01 3.58875E-01-1.88001E-03-1.19044E+00 1.30364E-13 4.86287E-14
 -1      3488 1.93497E+01 2.93665E-01-3.56514E-03-1.37867E+00 1.41870E-13 1.78678E-14
 -1      3489 1.96619E+01 4.23921E-01 3.99842E-03-1.07718E+00 1.09297E-13 2.62582E-14
 -1      3490 1.96414E+01 4.61047E-01-2.51705E-03-9.90300E-01 1.25640E-13 6.17571E-14
 -1      3491 1.93865E+01 4.73663E-01-1.00485E-03-1.13294E+00 1.35378E-13-7.20144E-14
 -1      3492 1.96903E+01 4.84920E-01 2.80738E-03-8.92783E-01 5.42420E-14 1.00686E-13
 -1      3493 1.96876E+01 4.89837E-01-2.64067E-03-8.13154E-01 1.74474E-14 9.40334E-14
 -1      3494 1.94647E+01 5.49657E-01 3.35007E-04-9.24370E-01 7.18149E-14-5.08790E-15
 -1      3495 1.97387E+01 4.87379E-01 2.02673E-03-7.29978E-01 4.97240E-14 1.38389E-14
 -1      3496 1.97444E+01 4.72707E-01-2.51122E-03-6.58884E-01 9.44180E-14-4.69878E-15
 -1      3497 1.95567E+01 5.57795E-01 9.63507E-04-7.48088E-01 1.00771E-14-2.04550E-13
 -1      3498 1.97920E+01 4.54812E-01 1.52108E-03-5.88554E-01 4.17773E-14-7.92128E-14
 -1      3499 1.98007E+01 4.29537E-01-2.26186E-03-5.26479E-01-2.24146E-14-1.55895E-13
 -1      3500 1.96475E+01 5.24698E-01 1.18730E-03-5.99534E-01-8.85673E-15-2.48830E-13
 -1      3501 1.98422E+01 4.03817E-01 1.18549E-03-4.67618E-01-1.34357E-13-1.00967E-13
 -1      3502 1.98510E+01 3.74049E-01-1.96367E-03-4.14517E-01-2.36825E-13-2.14472E-13
 -1      3503 1.97292E+01 4.69228E-01 1.18770E-03-4.75024E-01-9.32366E-14-3.49992E-13
 -1      3504 1.98855E+01 3.45562E-01 9.51116E-04-3.65839E-01-1.08902E-13-3.05149E-13
 -1      3505 1.98930E+01 3.15237E-01-1.65675E-03-3.21289E-01-3.12328E-14-3.04332E-13
 -1      3506 1.97986E+01 4.04240E-01 1.07464E-03-3.71536E-01-1.64683E-13-3.17673E-13
 -1      3507 1.99207E+01 2.87152E-01 7.76416E-04-2.81561E-01-9.39650E-14-2.39561E-13
 -1      3508 1.99265E+01 2.58629E-01-1.36426E-03-2.44873E-01-3.09186E-14-1.91783E-13
 -1      3509 1.98551E+01 3.38069E-01 9.13757E-04-2.86446E-01-8.41933E-14-2.63149E-13
 -1      3510 1.99481E+01 2.32773E-01 6.37955E-04-2.12905E-01 2.47572E-14-1.99009E-13
 -1      3511 1.99522E+01 2.07311E-01-1.09906E-03-1.83227E-01 7.60308E-14-1.08213E-13
 -1      3512 1.98995E+01 2.75754E-01 7.42933E-04-2.17352E-01 9.93983E-15-2.95855E-13
 -1      3513 1.99685E+01 1.84590E-01 5.23282E-04-1.57879E-01-6.02926E-15-1.48098E-13
 -1      3514 1.99712E+01 1.62712E-01-8.67376E-04-1.34285E-01-3.61704E-14-1.31642E-13
 -1      3515 1.99334E+01 2.20019E-01 5.82667E-04-1.62006E-01-9.94420E-16-2.93122E-13
 -1      3516 1.99831E+01 1.43430E-01 4.26073E-04-1.14491E-01-5.29829E-14-9.71892E-14
 -1      3517 1.99847E+01 1.25187E-01-6.71013E-04-9.60522E-02-1.87384E-13-1.26303E-13
 -1      3518 1.99584E+01 1.72018E-01 4.42731E-04-1.18304E-01-8.29778E-14-5.03882E-13
 -1      3519 1.99931E+01 1.09276E-01 3.43135E-04-8.08363E-02-1.73518E-13 5.77640E-14
 -1      3520 1.99938E+01 9.44384E-02-5.08945E-04-6.66740E-02-5.06649E-14 1.79178E-13
 -1      3521 1.99762E+01 1.31893E-01 3.26440E-04-8.43114E-02-3.12211E-14-4.80121E-13
 -1      3522 1.99995E+01 8.16121E-02 2.72678E-04-5.51712E-02-4.94016E-14 1.77666E-13
 -1      3523 1.99996E+01 6.97986E-02-3.78245E-04-4.44877E-02 8.58990E-14 1.90685E-13
 -1      3524 1.99884E+01 9.91718E-02 2.33451E-04-5.82837E-02-4.68778E-14-1.38443E-13
 -1      3525 2.00033E+01 5.96638E-02 2.13539E-04-3.59466E-02 1.29041E-13 5.32979E-14
 -1      3526 2.00030E+01 5.04245E-02-2.75782E-04-2.80443E-02 7.31828E-14-9.03985E-14
 -1      3527 1.99964E+01 7.30487E-02 1.61655E-04-3.86879E-02-6.75286E-14-3.10554E-13
 -1      3528 2.00052E+01 4.25442E-02 1.65092E-04-2.18330E-02-1.03995E-13-1.56538E-13
 -1      3529 2.00046E+01 3.54162E-02-1.97621E-04-1.61238E-02-1.55050E-13-2.90846E-13
 -1      3530 2.00012E+01 5.25562E-02 1.06011E-04-2.42060E-02-1.26377E-13-3.18061E-13
 -1      3531 2.00057E+01 2.93733E-02 1.30947E-04-1.17240E-02-4.26617E-14-1.54180E-13
 -1      3532 2.00050E+01 2.38996E-02-1.37519E-04-7.70748E-03-1.18171E-14-1.35265E-13
 -1      3533 2.00036E+01 3.66961E-02 6.06878E-05-1.37495E-02-1.02294E-13 1.48890E-14
 -1      3534 2.00053E+01 1.92865E-02 1.08910E-04-4.73402E-03 7.34586E-14-8.76290E-14
 -1      3535 2.00045E+01 1.50616E-02-9.16623E-05-1.98847E-03 1.52181E-13 4.12355E-14
 -1      3536 2.00045E+01 2.44402E-02 4.21215E-06-6.41323E-03 1.43087E-13 1.51336E-13
 -1      3537 2.00043E+01 1.04714E-02 4.49924E-05 2.94123E-04-2.78857E-14 1.52187E-13
 -1      3538 1.95769E+01-2.86475E-04 1.36358E-02-2.28298E+00 3.32844E-14-7.16638E-14
 -1      3539 1.94600E+01 2.41904E-01-9.86802E-04-2.13915E+00 5.01474E-14-6.37566E-14
 -1      3540 2.19663E+01-3.02250E+00 3.42600E-02-2.89283E+00-1.78262E-13-3.03084E-14
 -1      3541 2.10998E+01-2.31136E+00 4.69372E-02-3.03589E+00-1.62637E-13-1.40131E-14
 -1      3542 2.09575E+01-3.37941E+00-5.70440E-02-3.70570E+00-1.93415E-13-1.16976E-13
 -1      3543 2.35235E+01-2.88624E+00 1.02521E-02 1.47513E+00-4.17539E-14 6.74781E-14
 -1      3544 2.38325E+01-3.70888E+00-8.90969E-03 1.92234E+00 1.46836E-14 1.21327E-14
 -1      3545 1.93653E+01 1.20697E-01-5.29256E-04 2.09857E+00-8.36877E-14 4.93132E-14
 -1      3546 1.95355E+01-1.54931E-01 1.60738E-02 2.24035E+00-1.48728E-13 1.44860E-13
 -1      3547 1.95666E+01 6.73638E-01-4.05792E-03 1.21702E+00 4.78242E-14 9.46880E-14
 -1      3548 1.95574E+01 6.67860E-01 3.73316E-03 1.33272E+00 4.18700E-14 1.35487E-13
 -1      3549 1.96758E+01 6.43877E-01-3.68986E-03 1.00036E+00 2.80951E-13-4.90772E-14
 -1      3550 1.96613E+01 6.66936E-01 2.54047E-03 1.10397E+00 1.53767E-13 1.80107E-14
 -1      3551 1.93362E+01 7.69362E-01 2.98661E-03 1.11344E+00 1.35265E-13 3.12790E-15
 -1      3552 1.97684E+01 5.78861E-01-3.22245E-03 8.12795E-01 2.74567E-13-3.98504E-14
 -1      3553 1.97554E+01 6.15902E-01 1.92566E-03 9.04125E-01 2.93105E-13-3.65756E-16
 -1      3554 1.95016E+01 7.17353E-01 2.78662E-03 9.11334E-01 2.37672E-13-6.83841E-14
 -1      3555 1.98414E+01 4.99618E-01-2.73850E-03 6.51678E-01 1.23420E-13 2.98893E-14
 -1      3556 1.98323E+01 5.41511E-01 1.59996E-03 7.30775E-01 2.07189E-13-1.79201E-14
 -1      3557 1.96361E+01 6.36278E-01 2.35824E-03 7.39082E-01 2.39296E-13-1.22932E-13
 -1      3558 1.98963E+01 4.18577E-01-2.27810E-03 5.15009E-01 6.01996E-14 3.52529E-14
 -1      3559 1.98911E+01 4.60019E-01 1.39907E-03 5.82255E-01 1.02942E-13 1.68496E-14
 -1      3560 1.97413E+01 5.44913E-01 1.88048E-03 5.92251E-01 1.08266E-13-1.34111E-13
 -1      3561 1.99360E+01 3.42562E-01-1.86104E-03 4.00793E-01 1.96703E-14-9.77231E-14
 -1      3562 1.99340E+01 3.80718E-01 1.24269E-03 4.56927E-01 6.53520E-14 1.05576E-13
 -1      3563 1.98212E+01 4.54368E-01 1.43890E-03 4.68080E-01 5.96117E-14-1.16692E-13
 -1      3564 1.99636E+01 2.74886E-01-1.49570E-03 3.06847E-01-1.71883E-14-1.45954E-13
 -1      3565 1.99639E+01 3.08454E-01 1.09729E-03 3.52881E-01-9.23423E-15-1.18570E-13
 -1      3566 1.98804E+01 3.70714E-01 1.06635E-03 3.64377E-01 3.82575E-15 1.20585E-13
 -1      3567 1.99823E+01 2.16750E-01-1.18377E-03 2.30811E-01-2.00871E-13-2.57030E-13
 -1      3568 1.99839E+01 2.45343E-01 9.53410E-04 2.67923E-01-1.11812E-13-2.18107E-13
 -1      3569 1.99232E+01 2.96834E-01 7.68792E-04 2.79035E-01-4.02008E-14-1.99704E-14
 -1      3570 1.99943E+01 1.68129E-01-9.22983E-04 1.70252E-01-2.14186E-13-9.88576E-15
 -1      3571 1.99967E+01 1.91887E-01 8.12051E-04 1.99682E-01-2.77711E-13-2.28695E-13
 -1      3572 1.99534E+01 2.33657E-01 5.39948E-04 2.09899E-01-2.86789E-13-8.26147E-14
 -1      3573 2.00017E+01 1.28340E-01-7.08946E-04 1.22786E-01-1.24984E-13 1.95191E-13
 -1      3574 2.00044E+01 1.47678E-01 6.77455E-04 1.45749E-01-1.09886E-13 4.95537E-14
 -1      3575 1.99742E+01 1.80969E-01 3.68972E-04 1.54783E-01-2.62311E-13-5.53269E-14
 -1      3576 2.00058E+01 9.63820E-02-5.36245E-04 8.61801E-02 2.19450E-14 1.97788E-13
 -1      3577 2.00085E+01 1.11840E-01 5.53764E-04 1.03808E-01-2.24416E-14 2.45115E-13
 -1      3578 1.99881E+01 1.37936E-01 2.44322E-04 1.11547E-01-1.17511E-13 9.02244E-14
 -1      3579 2.00077E+01 7.11386E-02-3.99214E-04 5.84153E-02 1.25836E-13 2.68004E-14
 -1      3580 2.00102E+01 8.32955E-02 4.43799E-04 7.17216E-02 1.04354E-13 1.00814E-13
 -1      3581 1.99970E+01 1.03422E-01 1.55513E-04 7.81837E-02 8.08225E-14 1.71206E-13
 -1      3582 2.00082E+01 5.14995E-02-2.92340E-04 3.77275E-02 2.06480E-13-9.59761E-14
 -1      3583 2.00104E+01 6.09200E-02 3.48880E-04 4.75914E-02 1.96000E-13-2.06916E-14
 -1      3584 2.00023E+01 7.61903E-02 9.37702E-05 5.28718E-02 1.71721E-13 2.23107E-13
 -1      3585 2.00078E+01 3.64239E-02-2.10350E-04 2.26190E-02 1.36381E-13-2.29546E-13
 -1      3586 2.00097E+01 4.36302E-02 2.69551E-04 2.97808E-02 1.61777E-13-1.75915E-13
 -1      3587 2.00051E+01 5.50196E-02 5.14032E-05 3.40168E-02 2.61178E-13 2.51833E-13
 -1      3588 2.00068E+01 2.49626E-02-1.46790E-04 1.18473E-02-7.00410E-14 2.73035E-15
 -1      3589 2.00084E+01 3.04284E-02 2.05594E-04 1.69111E-02 1.12443E-13-1.87068E-13
 -1      3590 2.00061E+01 3.87603E-02 1.94811E-05 2.02535E-02 5.72882E-14 1.29050E-13
 -1      3591 2.00056E+01 1.62067E-02-1.08182E-04 4.45933E-03 1.02516E-13-2.14526E-13
 -1      3592 2.00069E+01 2.03506E-02 1.42426E-04 7.85249E-03-6.18233E-14-9.70039E-14
 -1      3593 2.00061E+01 2.63734E-02 3.05414E-06 1.04341E-02-5.16420E-14 2.27530E-13
 -1      3594 2.00043E+01 9.61006E-03-4.42987E-05-4.26387E-04 1.57128E-13-2.35830E-13
 -1      3595 2.00053E+01 1.27727E-02 1.03625E-04 1.78290E-03 2.18683E-13-1.87407E-13
 -1      3596 2.00054E+01 1.70949E-02 2.87320E-05 3.77898E-03 2.09524E-13 9.31613E-14
 -1      3597 2.00029E+01 1.75918E-02-3.56190E-05-2.41634E-04 2.04152E-13 8.39992E-14
 -1      3598 2.00028E+01 1.78346E-02-5.69922E-05-1.15716E-04 4.48165E-15-2.25064E-14
 -1      3599 2.00033E+01 4.56509E-03-3.00258E-05-2.80356E-03-1.47706E-13 3.47024E-13
 -1      3600 2.00030E+01 3.90638E-03 6.49111E-06-3.35533E-03-1.25455E-13 8.17653E-14
 -1      3601 2.00033E+01 5.22919E-03-3.91975E-07-2.86038E-03-7.90467E-14-7.67256E-14
 -1      3602 2.00038E+01 7.79556E-03-3.29735E-06-1.65030E-03-2.10391E-13 3.49326E-13
 -1      3603 2.00810E+01 1.16942E+00-5.21369E-04 4.83948E-01-4.70749E-14-2.77126E-13
 -1      3604 2.00643E+01 1.02194E+00-5.17223E-04 6.58685E-01-4.93243E-14-2.68680E-13
 -1      3605 2.80740E+01 3.07625E+00-2.37563E-02-2.60334E+00 5.17211E-13 2.82538E-13
 -1      3606 2.66994E+01 3.61200E+00-1.85253E-04-1.95227E+00-5.95163E-13 2.99892E-13
 -1      3607 2.02293E+01 1.66601E+00-4.05194E-03-1.82979E-01-8.01877E-14-3.62023E-13
 -1      3608 1.95791E+01-5.29899E-01 6.60006E-03 2.48805E+00-3.04672E-13 2.00697E-13
 -1      3609 1.99314E+01-9.87170E-01 2.12672E-02 2.60615E+00-3.54327E-13 2.00390E-13
 -1      3610 1.87187E+01-2.08131E-01-1.03171E-02 2.49550E+00-2.25688E-13 6.31925E-14
 -1      3611 2.02029E+01-1.56085E+00 2.07035E-02 2.85873E+00-3.74437E-13 3.13140E-13
 -1      3612 2.08834E+01-2.24376E+00 1.33834E-02 2.90445E+00-3.52701E-13 3.70082E-13
 -1      3613 1.90008E+01-1.16652E+00-4.00800E-03 3.08947E+00-3.22534E-13 1.82016E-13
 -1      3614 1.06417E+01 2.18862E-01 4.51247E-02 1.53092E+00 1.86379E-13-5.14755E-13
 -1      3615 1.01339E+01 4.39347E-01 1.28945E-01-2.37874E-01 1.19202E-13-5.72473E-13
 -1      3616 2.76148E+01 2.32671E-01-7.72620E-02-1.69026E+00-4.27460E-13 5.35849E-13
 -1      3617 1.99206E+01 9.65741E-01-1.78956E-04-1.01119E+00 1.39027E-13-6.79072E-14
 -1      3618 1.99680E+01 1.04163E+00-2.64514E-04-8.39191E-01 1.65526E-13-4.96679E-14
 -1      3619 1.94032E+01 2.77064E+00-5.06798E-03 5.13250E-03 1.46511E-13-3.59425E-13
 -1      3620 1.94667E+01 2.71237E+00-3.09648E-03-4.49085E-02 1.00842E-13-3.63774E-13
 -1      3621 1.95628E+01 2.43222E+00 7.71930E-03 2.40800E-02 8.00612E-14-3.45665E-13
 -1      3622 1.92017E+01-2.62676E+00 7.16960E-02-4.17085E+00-1.75159E-13-1.64086E-13
 -1      3623 1.51742E+01-9.44132E-01 5.94129E-02-3.86858E+00-7.32192E-14-1.58869E-13
 -1      3624 1.71717E+01-2.01173E+00-6.80194E-03-4.35070E+00-1.45172E-13-1.36606E-13
 -1      3625 1.86017E+01-1.74857E+00 4.84207E-02-3.72653E+00-1.42678E-13-1.45871E-13
 -1      3626 1.55957E+01-1.43421E+00 6.51377E-02-4.27176E+00 9.76476E-14-4.71012E-14
 -1      3627 1.73842E+01-2.40569E+00-3.94096E-02-4.49666E+00 1.45862E-13 2.95250E-14
 -1      3628 2.38505E+01-3.78669E+00-5.45727E-02 1.83638E+00 3.60909E-14 3.03008E-13
 -1      3629 2.23244E+01-3.65378E+00 5.25455E-02 3.04401E+00 1.89543E-13 2.27416E-13
 -1      3630 1.94529E+01 6.34413E-01-4.13203E-03 1.46713E+00-8.40587E-14 1.26114E-13
 -1      3631 1.94647E+01 5.76731E-01 5.94340E-03 1.59462E+00-1.25770E-13 1.37131E-13
 -1      3632 1.91445E+01 7.62059E-01 2.58968E-03 1.35355E+00 9.04952E-15 1.18983E-13
 -1      3633 1.95994E+01-3.01059E+00 7.55488E-02-4.15347E+00 1.96375E-13 6.41657E-14
 -1      3634 2.15313E+01-3.66372E+00-3.17242E-02-3.36930E+00 2.47105E-13 1.12108E-13
 -1      3635 1.93646E+01 4.74776E-01-3.41032E-03 1.75799E+00-1.29996E-13 5.00565E-14
 -1      3636 1.94282E+01 3.31113E-01 9.73889E-03 1.89604E+00-1.23227E-13 9.60812E-15
 -1      3637 1.89428E+01 6.48548E-01 9.01877E-04 1.64652E+00-1.84736E-13-3.59211E-14
 -1      3638 2.54591E+01-2.90559E+00 7.57629E-02 5.17279E-02 2.85620E-13-1.93925E-13
 -1      3639 2.00304E+01 8.85146E-01 1.25993E-03 8.15982E-01-4.67089E-14-2.48289E-13
 -1      3640 2.00203E+01 7.56517E-01 8.58062E-04 9.64132E-01-4.87625E-14-2.15855E-13
 -1      3641 1.98140E+01 8.14405E-01-8.35630E-04 1.01891E+00-3.13374E-14-1.84231E-13
 -1      3642 2.00042E+01 1.40241E-02-3.54914E-05-1.02983E-03 1.74619E-13 2.95468E-13
 -1      3643 2.00432E+01 1.63173E+00-3.29259E-03-1.17605E-01 2.79542E-13-6.19797E-14
 -1      3644 1.98856E+01 1.83075E+00-3.12576E-03-1.10529E-01 2.66273E-13-1.10263E-13
 -1      3645 1.16342E+01 4.51674E-01 9.62546E-02-1.06053E+00 1.06254E-13-4.73233E-13
 -1      3646 2.01091E+01 1.43864E+00-1.37181E-03 2.04659E-01-4.29123E-14-3.04273E-13
 -1      3647 2.01019E+01 1.30036E+00-4.12729E-04 3.60330E-01-5.11540E-14-2.93735E-13
 -1      3648 1.99542E+01 1.36277E+00-3.69132E-03 4.31952E-01-2.57331E-14-2.66396E-13
 -1      3649 1.93765E+01 2.36586E+00-4.30344E-03 2.98261E-02 2.01512E-13-2.39663E-13
 -1      3650 1.93595E+01 2.38639E+00-3.31938E-03 3.87431E-02 1.66681E-13-2.76297E-13
 -1      3651 1.23422E+01 4.96420E-01 8.05552E-02-1.97553E+00 4.98039E-15 9.55416E-14
 -1      3652 1.37332E+01 3.22216E-01 3.39599E-02-2.32868E+00 1.20280E-13 9.07607E-15
 -1      3653 1.22043E+01 6.66742E-01 2.37812E-02-1.08748E+00-7.84442E-15 2.50737E-13
 -1      3654 2.42481E+01 3.55411E+00-2.02166E-01-1.05507E+00-4.57981E-13-8.37073E-14
 -1      3655 2.44865E+01-3.27330E+00-3.47049E-02-6.92819E-01 2.66493E-13-1.10419E-13
 -1      3656 2.38009E+01-3.17577E+00 4.87098E-02-1.21612E+00 2.20265E-13-8.10181E-14
 -1      3657 1.95595E+01-3.22806E-01 4.09500E-03-2.51418E+00 8.20741E-15-5.51823E-14
 -1      3658 1.88499E+01-3.02848E-02-9.37100E-03-2.47111E+00 2.66846E-14-1.12641E-13
 -1      3659 1.98341E+01-7.23821E-01 2.07451E-02-2.64570E+00-2.20976E-14-6.16386E-14
 -1      3660 1.96262E+01-1.93834E+00-4.24839E-02-3.41847E+00-1.15362E-13-1.30750E-13
 -1      3661 2.05593E+01-1.77688E+00 2.55451E-02-2.92819E+00-1.31762E-13-1.86912E-14
 -1      3662 2.00420E+01-1.18366E+00 1.83530E-02-2.86441E+00-5.63754E-14-7.44545E-14
 -1      3663 1.81079E+01-1.15433E+00 3.20606E-02-3.49559E+00-1.08889E-13-1.37843E-13
 -1      3664 1.99829E+01 5.79325E-01-2.12957E-03-1.61971E+00 8.09520E-14-4.49804E-14
 -1      3665 1.12768E+01 5.08255E-01 1.20787E-01 1.49377E+00-2.79375E-13 3.45217E-13
 -1      3666 1.16982E+01 7.00258E-01 2.89588E-02 5.86769E-01-2.60039E-13 3.98480E-13
 -1      3667 1.23686E+01 2.20360E-01 2.98152E-02 2.18058E+00-3.11575E-13 1.33900E-13
 -1      3668 1.95550E+01 4.31872E-01 8.21993E-03-1.94572E+00 3.13427E-14-7.98065E-14
 -1      3669 1.95279E+01 5.70105E-01-2.49705E-03-1.80013E+00 2.60809E-14-8.14890E-14
 -1      3670 1.89873E+01 4.71453E-01-2.01932E-03-2.02863E+00 1.89789E-14-1.33041E-13
 -1      3671 1.32591E+01-1.80673E-01 2.22325E-02 2.93153E+00 2.52682E-13-4.02525E-13
 -1      3672 1.19038E+01 1.82410E-01 1.20895E-01 2.36048E+00 2.18695E-13-4.80990E-13
 -1      3673 1.21854E+01 5.29067E-01 3.95072E-02 1.32894E+00 1.74520E-13-4.63719E-13
 -1      3674 2.25086E+01-3.09347E+00-4.37125E-02 2.39246E+00-1.75065E-13 2.10457E-13
 -1      3675 1.85150E+01-2.14076E+00 4.57487E-02 3.97389E+00-2.77348E-13 4.19000E-13
 -1      3676 2.01866E+01-2.67728E+00 4.09057E-02 3.54881E+00-3.50385E-13 4.18083E-13
 -1      3677 1.98978E+01 1.09586E+00 1.45922E-03 7.16673E-01-3.35773E-14-2.30540E-13
 -1      3678 2.00516E+01 1.10594E+00-8.32265E-04-6.96068E-01 1.91595E-13-4.85185E-14
 -1      3679 2.01035E+01 1.17831E+00-1.38627E-03-5.27151E-01 1.97617E-13-3.44570E-14
 -1      3680 1.98506E+01 1.21485E+00 1.06047E-03-7.28969E-01 1.82562E-13-8.46186E-14
 -1      3681 2.60482E+01-4.29223E-02-1.93348E-02 2.06080E+00 1.55737E-13-4.40373E-13
 -1      3682 2.00028E+01 2.27161E-02 1.23315E-04 9.36948E-05-1.02521E-13 1.53591E-13
 -1      3683 2.00029E+01 1.78469E-02-4.77875E-05 3.52788E-04-1.69205E-13-2.10406E-14
 -1      3684 2.00030E+01 1.75492E-02-3.85204E-05 4.66311E-04-1.45515E-13-1.96744E-14
 -1      3685 2.00032E+01 1.67372E-02-6.60991E-05-6.27438E-04 4.16634E-13-3.39516E-15
 -1      3686 2.00030E+01 2.18701E-02 1.01739E-04-1.03355E-03 2.90815E-13 2.61494E-13
 -1      3687 2.00034E+01 1.59196E-02-4.86075E-05-5.50089E-04 2.67542E-13 5.69626E-16
 -1      3688 2.00038E+01 6.70105E-03 4.31384E-05-2.04257E-03 1.47863E-14-1.39132E-13
 -1      3689 1.94299E+01 2.56720E+00 6.89145E-03 4.46238E-02 1.40445E-13-3.27969E-13
 -1      3690 1.37973E+01-6.59343E-02 3.16087E-02-2.89179E+00-3.57023E-14-2.17295E-13
 -1      3691 1.45130E+01-5.61562E-01 4.75545E-02-3.55503E+00-6.54459E-14-2.07258E-13
 -1      3692 1.62137E+01-6.43044E-01 3.85138E-02-3.40410E+00-1.11385E-13-1.22045E-13
 -1      3693 2.00039E+01 1.45392E-02-4.72500E-05-7.18113E-04 1.19953E-13 1.59764E-13
 -1      3694 2.00037E+01 1.57799E-02-6.56310E-05-9.66800E-04 1.37783E-13 2.66842E-14
 -1      3695 2.00037E+01 2.09096E-02 1.24049E-04-2.05768E-03 2.73704E-13-2.09871E-14
 -1      3696 2.00044E+01 2.01020E-02 1.25089E-04-3.06460E-03 2.29805E-13 1.73236E-13
 -1      3697 2.00043E+01 9.62883E-03 2.27867E-06-6.20109E-04-1.20581E-13 3.07396E-13
 -1      3698 1.94257E+01 2.31993E+00-3.77039E-03-1.64152E-02 2.29029E-13-2.15367E-13
 -1      3699 1.93950E+01 2.17194E+00 7.28756E-03-3.60979E-02 2.03144E-13-1.91903E-13
 -1      3700 1.95034E+01 2.23940E+00-3.88364E-03-2.58601E-02 2.48676E-13-1.99628E-13
 -1      3701 1.98211E+01 8.99219E-01-1.45197E-03-1.17089E+00 1.20154E-13-7.22083E-14
 -1      3702 1.96631E+01 1.07991E+00 2.75781E-03-1.02845E+00 1.40331E-13-8.89006E-14
 -1      3703 1.97825E+01 8.34951E-01 1.86777E-03-1.32730E+00 9.63269E-14-6.80753E-14
 -1      3704 2.33953E+01-3.90421E+00 6.10551E-02-2.52525E+00 3.31898E-13 1.19970E-13
 -1      3705 2.45538E+01-3.75973E+00-7.25977E-02-1.22824E+00 3.33211E-13-7.76957E-14
 -1      3706 1.94842E+01 2.25570E+00-5.78766E-03 1.14887E-01 9.54963E-14-3.29508E-13
 -1      3707 1.95846E+01 2.16739E+00-1.16257E-03 1.09482E-01 7.89705E-14-3.38047E-13
 -1      3708 2.61948E+01-1.95283E+00-1.19030E-01-1.17397E+00-1.69230E-13 3.41734E-13
 -1      3709 1.87717E+01 3.58336E-01-3.23599E-03 2.01643E+00-5.52911E-14-8.62640E-14
 -1      3710 1.45630E+01-1.26649E+00 1.12795E-01 4.24154E+00-3.28900E-13-7.47596E-14
 -1      3711 1.41190E+01-6.43143E-01 3.25815E-02 3.54120E+00-2.40353E-13 3.11279E-14
 -1      3712 1.64042E+01-1.72621E+00 5.08901E-03 4.18859E+00-2.34401E-13 4.56579E-14
 -1      3713 2.27497E+01-3.35256E+00-1.30138E-02-2.12971E+00 1.92337E-13 2.37466E-14
 -1      3714 2.01115E+01 1.84455E+00-2.33470E-03-1.56200E-01-4.57979E-14-3.56595E-13
 -1      3715 1.55753E+01-7.51335E-01 5.84281E-02-3.54364E+00 1.79506E-13 3.87173E-14
 -1      3716 2.18506E+01-3.03368E+00 2.52000E-02 2.70778E+00 1.74409E-13 1.92652E-13
 -1      3717 2.08596E+01-3.42600E+00-1.67886E-02 3.76569E+00 2.31147E-13 1.26362E-13
 -1      3718 1.98002E+01-2.70611E+00 6.96089E-02 3.88663E+00 3.01969E-13-5.28050E-15
 -1      3719 2.10908E+01-2.46024E+00 4.49176E-02 2.81896E+00 1.78708E-13 1.19344E-13
 -1      3720 1.89229E+01-2.28780E+00 5.20219E-02-3.80374E+00 4.46639E-14 2.68310E-14
 -1      3721 2.00039E+01 1.43504E-02-1.00971E-04 7.50578E-04-3.18564E-14 3.11990E-13
 -1      3722 2.00042E+01 1.33677E-02 1.69767E-05 4.87723E-04-5.22240E-14 4.72054E-13
 -1      3723 1.77214E+01-2.23652E+00-1.17859E-02 4.26642E+00 3.75802E-13-1.80616E-13
 -1      3724 1.61522E+01-1.88169E+00 8.73399E-02 4.62614E+00 3.66693E-13-2.97755E-13
 -1      3725 1.52029E+01-1.15847E+00 1.83071E-02 4.00818E+00 2.93814E-13-3.01200E-13
 -1      3726 2.00045E+01 1.09905E-02-3.26559E-05 2.83680E-05-8.15195E-14 3.83035E-13
 -1      3727 1.97472E+01 1.78728E+00 4.56771E-03 2.51174E-01 4.03076E-14-2.97701E-13
 -1      3728 1.98016E+01 1.90885E+00-2.74914E-03 1.39313E-01 3.70027E-14-3.22345E-13
 -1      3729 2.00046E+01 1.54305E-02-1.17113E-05 1.55526E-03 1.05287E-13 4.95233E-13
 -1      3730 1.23141E+01 7.23352E-01 2.38520E-02-3.43177E-01 1.08460E-13-4.54088E-13
 -1      3731 1.27109E+01 4.92735E-01 4.22153E-02-1.78457E+00 3.19085E-14-3.17329E-13
 -1      3732 2.17218E+01-3.59054E+00 9.93443E-02 3.50749E+00-2.70636E-13 2.47684E-13
 -1      3733 2.03379E+01-2.98879E+00 5.58603E-02 3.67844E+00-2.90316E-13 4.26375E-13
 -1      3734 2.00781E+01 1.70617E+00 3.61918E-03 3.26341E-02-3.34541E-14-3.39485E-13
 -1      3735 1.93975E+01 4.34571E-01-1.58791E-03 1.50243E+00 8.04567E-14-1.03925E-13
 -1      3736 1.94270E+01 2.47548E-01 8.21157E-03 1.65323E+00 8.92506E-14-9.66440E-14
 -1      3737 1.93669E+01 2.06796E-02 2.28052E-04 1.85252E+00 1.13775E-13-1.05534E-13
 -1      3738 1.94853E+01-2.44930E-01 1.30095E-02 2.00985E+00 1.51787E-13-9.84045E-14
 -1      3739 1.89907E+01 2.72741E-01-4.60072E-03 1.75592E+00 1.12120E-13-1.13770E-13
 -1      3740 1.95057E+01-5.67800E-01 5.53490E-03 2.24629E+00 1.76662E-13-1.06787E-13
 -1      3741 1.97638E+01-9.54907E-01 1.57815E-02 2.40063E+00 1.60421E-13-5.82804E-14
 -1      3742 1.89295E+01-2.66486E-01-1.11102E-02 2.21560E+00 1.43016E-13-1.37078E-13
 -1      3743 2.00282E+01-1.38645E+00 2.11450E-02 2.61444E+00 1.47981E-13 1.12498E-14
 -1      3744 2.04921E+01-1.91714E+00 1.83452E-02 2.71417E+00 1.70627E-13 2.75682E-14
 -1      3745 1.99254E+01-2.15929E+00-3.87969E-02 3.19267E+00 2.34281E-13 2.67147E-15
 -1      3746 1.91488E+01-1.05922E+00-2.44946E-02 2.73232E+00 1.90516E-13-9.52398E-14
 -1      3747 2.02087E+01 1.37724E+00 3.32656E-04-2.04066E-01 2.60460E-13-1.13852E-14
 -1      3748 2.01165E+01 1.32586E+00 3.15451E-03-3.76197E-01 2.24257E-13-3.21806E-14
 -1      3749 1.93362E+01 7.64908E-01-4.18524E-03 7.79610E-01 1.95502E-13 1.36325E-13
 -1      3750 1.92633E+01 8.08359E-01 8.13967E-04 8.66750E-01 1.78720E-13 4.62368E-14
 -1      3751 1.98054E+01 1.74881E+00 5.48346E-03-2.42114E-01 2.34237E-13-1.23320E-13
 -1      3752 1.97380E+01 1.99154E+00-3.60455E-03-7.64388E-02 2.68040E-13-1.62199E-13
 -1      3753 1.96094E+01 2.13240E+00-3.83439E-03-6.92215E-02 2.47422E-13-2.01100E-13
 -1      3754 1.96200E+01-1.32913E+00 2.23795E-02-2.60617E+00 1.61325E-13 1.92907E-13
 -1      3755 1.92496E+01-8.80444E-01 8.11459E-03-2.43803E+00 2.23599E-13 9.33871E-14
 -1      3756 1.91718E+01-4.95379E-01 1.69344E-02-2.15453E+00 1.15404E-13 4.35612E-14
 -1      3757 1.89818E+01-1.93330E-01 2.73893E-04-1.97653E+00 1.22161E-14 7.84384E-15
 -1      3758 1.84820E+01-5.19773E-01-1.16937E-02-2.44662E+00 1.31258E-13 1.29913E-13
 -1      3759 1.90208E+01 5.15737E-02 1.13716E-02-1.74610E+00 4.47206E-14-5.45169E-15
 -1      3760 1.89452E+01 2.36615E-01-3.02818E-03-1.58791E+00 1.61297E-13 6.74876E-14
 -1      3761 1.84773E+01 8.12325E-02-5.67339E-03-1.89813E+00 1.22055E-14 9.24679E-14
 -1      3762 1.90323E+01 3.83475E-01 7.49364E-03-1.40727E+00 1.99186E-13 6.93869E-14
 -1      3763 1.90220E+01 4.85028E-01-3.79029E-03-1.27351E+00 1.04543E-13 5.67710E-14
 -1      3764 1.86079E+01 4.42496E-01-1.14654E-03-1.47611E+00 1.43568E-13 4.92204E-14
 -1      3765 1.91253E+01 5.60956E-01 4.77593E-03-1.13278E+00 6.05480E-14 1.88760E-15
 -1      3766 1.91491E+01 6.04911E-01-3.73607E-03-1.02114E+00 9.99039E-14 6.07101E-14
 -1      3767 1.87936E+01 6.33833E-01 9.78965E-04-1.15386E+00 5.40064E-14 1.90326E-13
 -1      3768 1.92521E+01 6.32515E-01 2.99958E-03-9.10683E-01 8.70334E-14-1.30562E-13
 -1      3769 1.92910E+01 6.38538E-01-3.39760E-03-8.17439E-01 3.39727E-14-1.24728E-13
 -1      3770 1.89921E+01 7.10808E-01 1.86092E-03-9.06665E-01-3.32450E-14-2.69409E-15
 -1      3771 1.93858E+01 6.34908E-01 1.90982E-03-7.29628E-01-7.01413E-14-2.03414E-13
 -1      3772 1.94286E+01 6.17363E-01-2.98758E-03-6.51546E-01-7.58945E-14-2.69471E-13
 -1      3773 1.91817E+01 7.13487E-01 2.15558E-03-7.14104E-01-3.84333E-14-2.96710E-13
 -1      3774 1.95118E+01 5.94968E-01 1.25754E-03-5.81030E-01-5.58793E-14-2.65109E-13
 -1      3775 1.95526E+01 5.64164E-01-2.57809E-03-5.15677E-01-4.76514E-14-3.40433E-13
 -1      3776 1.93520E+01 6.70308E-01 2.14915E-03-5.61741E-01-8.25982E-14-3.25578E-13
 -1      3777 1.96231E+01 5.31873E-01 8.68347E-04-4.58774E-01-4.03151E-14-4.12296E-13
 -1      3778 1.96589E+01 4.95012E-01-2.19120E-03-4.04323E-01-1.45081E-13-4.37136E-13
 -1      3779 1.94987E+01 6.01516E-01 1.98205E-03-4.39874E-01-1.03164E-13-5.36139E-13
 -1      3780 1.97169E+01 4.58888E-01 6.33830E-04-3.58408E-01-1.26088E-13-4.52793E-13
 -1      3781 1.97467E+01 4.20774E-01-1.83502E-03-3.13406E-01-2.25176E-14-3.50130E-13
 -1      3782 1.96210E+01 5.21307E-01 1.73913E-03-3.41890E-01-1.68731E-13-4.77540E-13
 -1      3783 1.97934E+01 3.84752E-01 4.87451E-04-2.76513E-01-1.69530E-14-2.88412E-13
 -1      3784 1.98171E+01 3.48396E-01-1.51339E-03-2.39717E-01-3.85782E-14-2.09739E-13
 -1      3785 1.97203E+01 4.39207E-01 1.47092E-03-2.63105E-01 1.18501E-14-3.19484E-13
 -1      3786 1.98538E+01 3.14847E-01 3.90155E-04-2.10292E-01-3.89418E-14-1.95601E-13
 -1      3787 1.98721E+01 2.81959E-01-1.22850E-03-1.80576E-01 5.01106E-14-2.49852E-13
 -1      3788 1.97989E+01 3.61226E-01 1.20741E-03-2.00024E-01 7.37704E-15-5.13386E-14
 -1      3789 1.99002E+01 2.52142E-01 3.20035E-04-1.57334E-01 9.88344E-15-3.27968E-13
 -1      3790 1.99138E+01 2.23524E-01-9.81120E-04-1.33659E-01-8.07680E-14-3.30565E-13
 -1      3791 1.98596E+01 2.90791E-01 9.65642E-04-1.49885E-01-4.57955E-14-3.46290E-13
 -1      3792 1.99348E+01 1.97942E-01 2.65346E-04-1.15510E-01-1.14084E-13-4.52032E-13
 -1      3793 1.99447E+01 1.73789E-01-7.70622E-04-9.69160E-02-8.53164E-14-5.26909E-13
 -1      3794 1.99055E+01 2.29510E-01 7.54131E-04-1.10417E-01-1.70643E-13-4.43486E-13
 -1      3795 1.99600E+01 1.52454E-01 2.20128E-04-8.29238E-02-1.04179E-14-4.63298E-13
 -1      3796 1.99668E+01 1.32580E-01-5.95101E-04-6.85378E-02-5.14526E-14-4.06771E-13
 -1      3797 1.99393E+01 1.77757E-01 5.75750E-04-7.96998E-02-1.92173E-15-3.82576E-13
 -1      3798 1.99777E+01 1.15205E-01 1.81556E-04-5.79010E-02-5.90012E-14-2.84294E-13
 -1      3799 1.99822E+01 9.92041E-02-4.51933E-04-4.69472E-02-5.19261E-14-2.78446E-13
 -1      3800 1.99635E+01 1.35125E-01 4.29738E-04-5.60969E-02 2.02648E-14-2.14099E-13
 -1      3801 1.99897E+01 8.53417E-02 1.48216E-04-3.89887E-02-1.04698E-13-1.87744E-13
 -1      3802 1.99924E+01 7.27039E-02-3.36474E-04-3.07931E-02-1.41480E-13-2.61063E-13
 -1      3803 1.99802E+01 1.00750E-01 3.13183E-04-3.82184E-02-8.28181E-14-7.87705E-14
 -1      3804 1.99972E+01 6.18408E-02 1.19473E-04-2.49383E-02-6.13436E-14-3.23120E-13
 -1      3805 1.99987E+01 5.20019E-02-2.49247E-04-1.89230E-02-2.96458E-14-1.27172E-13
 -1      3806 1.99913E+01 7.35583E-02 2.23958E-04-2.48983E-02-1.51698E-13-2.09112E-14
 -1      3807 2.00016E+01 4.36120E-02 1.00462E-04-1.47126E-02 7.36683E-14-4.09353E-14
 -1      3808 2.00022E+01 3.60544E-02-1.63619E-04-1.04239E-02 9.42474E-14 1.59153E-13
 -1      3809 1.99981E+01 5.23373E-02 1.40898E-04-1.51442E-02 9.93930E-14 2.35193E-14
 -1      3810 2.00037E+01 3.04152E-02 1.00252E-04-7.94615E-03 6.10632E-14 1.84844E-13
 -1      3811 2.00037E+01 2.45293E-02-1.06869E-04-4.94880E-03 1.75312E-13 2.35909E-13
 -1      3812 2.00033E+01 2.52899E-02-5.06001E-05-4.34310E-03 1.11600E-13 1.16996E-13
 -1      3813 2.00017E+01 3.66994E-02 3.37365E-05-8.68915E-03 1.71955E-13 2.34965E-13
 -1      3814 1.96484E+01 6.79289E-01 4.45691E-03-1.63240E+00 6.44155E-14-7.39741E-14
 -1      3815 1.96661E+01 7.62313E-01-2.40121E-03-1.48502E+00 7.61757E-14-7.22299E-14
 -1      3816 1.92083E+01 7.57132E-01 5.84729E-04-1.66355E+00 6.16477E-14-1.28133E-13
 -1      3817 1.75369E+01-1.43574E+00-2.67492E-04 3.67969E+00-1.81579E-13 2.66787E-13
 -1      3818 1.97770E+01 1.29909E+00 4.16821E-03 5.93004E-01-2.09504E-14-2.28168E-13
 -1      3819 1.97271E+01 1.14320E+00-1.74865E-04 7.43882E-01-8.49039E-15-2.16108E-13
 -1      3820 2.13002E+01-2.89605E+00 3.55989E-02-2.93026E+00 4.84114E-14 1.33923E-13
 -1      3821 2.22818E+01-3.56042E+00 1.28651E-02-2.82799E+00 2.17713E-13 1.40377E-13
 -1      3822 1.91184E+01 8.40771E-01-5.22284E-03 9.54032E-01 1.47319E-13 9.09722E-15
 -1      3823 1.90318E+01 8.66832E-01 1.54817E-03 1.05633E+00-1.16931E-15 2.85722E-14
 -1      3824 1.89922E+01 9.10506E-01 5.03531E-03 8.12625E-01 1.16658E-13 2.45109E-13
 -1      3825 1.96444E+01 5.68461E-01-2.77272E-03 5.06209E-01 7.08622E-14 8.64618E-14
 -1      3826 1.95999E+01 6.19895E-01 4.62339E-04 5.70196E-01 2.03033E-13 2.19473E-13
 -1      3827 1.97474E+01 4.71642E-01-2.25828E-03 3.99968E-01 1.31588E-15 1.19033E-13
 -1      3828 1.97144E+01 5.20130E-01 4.61559E-04 4.54103E-01 7.67619E-15 4.62820E-14
 -1      3829 1.95896E+01 5.97138E-01 2.54303E-03 4.33044E-01 9.38761E-14 4.20902E-13
 -1      3830 1.98248E+01 3.83539E-01-1.82718E-03 3.11189E-01-3.04094E-15 2.25799E-13
 -1      3831 1.98010E+01 4.27112E-01 4.71150E-04 3.56333E-01-1.91932E-14 1.58736E-13
 -1      3832 1.97063E+01 4.93662E-01 1.96040E-03 3.42688E-01-3.57887E-14 3.89699E-13
 -1      3833 1.98820E+01 3.06363E-01-1.46391E-03 2.38080E-01-5.34519E-14 2.48551E-13
 -1      3834 1.98652E+01 3.44195E-01 4.66526E-04 2.75130E-01-5.68329E-15 2.87215E-13
 -1      3835 1.97944E+01 4.00445E-01 1.49021E-03 2.66938E-01 4.50226E-15 3.42413E-13
 -1      3836 1.99234E+01 2.40675E-01-1.15902E-03 1.78824E-01-2.64875E-13 9.45455E-14
 -1      3837 1.99119E+01 2.72656E-01 4.42869E-04 2.08736E-01-1.86639E-13 1.42636E-13
 -1      3838 1.98598E+01 3.19250E-01 1.11710E-03 2.04375E-01-8.61194E-14 4.64230E-13
 -1      3839 1.99528E+01 1.86055E-01-9.05560E-04 1.31577E-01-2.30100E-13 3.64490E-14
 -1      3840 1.99453E+01 2.12499E-01 4.03728E-04 1.55330E-01-1.70372E-13-1.47090E-14
 -1      3841 1.99077E+01 2.50381E-01 8.25465E-04 1.53543E-01-1.71026E-13 1.82766E-13
 -1      3842 1.99732E+01 1.41536E-01-6.97499E-04 9.45250E-02-8.63741E-14-1.63608E-14
 -1      3843 1.99685E+01 1.62985E-01 3.55131E-04 1.13077E-01-2.00772E-13-6.39957E-15
 -1      3844 1.99419E+01 1.93249E-01 6.00699E-04 1.12937E-01-1.99254E-13-3.85094E-14
 -1      3845 1.99869E+01 1.05889E-01-5.29219E-04 6.59537E-02 4.10204E-14 3.26192E-14
 -1      3846 1.99842E+01 1.22988E-01 3.02864E-04 8.02015E-02-4.48822E-14-4.32692E-14
 -1      3847 1.99659E+01 1.46763E-01 4.29800E-04 8.10503E-02-5.63555E-14-1.50416E-13
 -1      3848 1.99957E+01 7.78042E-02-3.94851E-04 4.43063E-02 1.21125E-13 2.12158E-13
 -1      3849 1.99943E+01 9.12204E-02 2.51356E-04 5.50572E-02 5.88316E-14 1.48187E-13
 -1      3850 1.99822E+01 1.09592E-01 3.01572E-04 5.64428E-02-7.78434E-14 5.63586E-14
 -1      3851 2.00009E+01 5.59847E-02-2.92607E-04 2.82063E-02 1.48990E-13 3.20792E-13
 -1      3852 2.00005E+01 6.63765E-02 2.03896E-04 3.61669E-02 2.19817E-13 2.25929E-13
 -1      3853 1.99928E+01 8.03443E-02 2.08022E-04 3.77915E-02 7.01131E-14 5.93065E-14
 -1      3854 2.00037E+01 3.92682E-02-2.12979E-04 1.64712E-02-1.24458E-13 4.07475E-13
 -1      3855 2.00038E+01 4.72453E-02 1.74880E-04 2.22801E-02 4.12419E-14 3.94966E-13
 -1      3856 1.99993E+01 5.76214E-02 1.31595E-04 2.39610E-02-4.72256E-14 4.87663E-13
 -1      3857 2.00047E+01 2.65075E-02-1.57780E-04 8.04626E-03 1.07688E-13 2.90733E-13
 -1      3858 2.00053E+01 3.26570E-02 1.62701E-04 1.22920E-02-2.08913E-14 4.05605E-13
 -1      3859 2.00027E+01 4.00508E-02 2.94024E-06 1.39245E-02 1.74169E-14 5.15302E-13
 -1      3860 2.00053E+01 1.96282E-02 7.71945E-05 4.21238E-03 1.10288E-13 4.59355E-13
 -1      3861 1.94169E+01 2.33171E+00-2.71516E-03 8.35983E-02 1.20394E-13-3.25165E-13
 -1      3862 1.94569E+01 2.11338E+00 7.58826E-03 1.60253E-01 1.01416E-13-2.98258E-13
 -1      3863 1.93726E+01 2.36945E+00-4.66736E-03 8.05493E-02 1.48755E-13-2.97106E-13
 -1      3864 1.93637E+01 2.20190E+00 7.27216E-03 7.09360E-02 1.42473E-13-2.52511E-13
 -1      3865 1.85393E+01 8.25967E-01-8.63516E-03 1.42707E+00-9.46264E-14-2.24060E-14
 -1      3866 1.84527E+01 7.61986E-01 6.45448E-03 1.58139E+00-1.24635E-13-1.12904E-14
 -1      3867 1.98205E+01-2.50585E+00-4.21422E-02-3.39760E+00 6.26821E-14 8.94389E-14
 -1      3868 2.05594E+01-2.40550E+00 1.06560E-02-2.90881E+00 5.28709E-14 1.55593E-13
 -1      3869 1.99511E+01-1.78968E+00 2.21561E-02-2.82456E+00 1.12779E-13 1.57853E-13
 -1      3870 1.81967E+01-1.66989E+00 4.09844E-02-3.63636E+00-1.23278E-14-2.58942E-14
 -1      3871 1.88523E+01 8.73188E-01-6.65765E-03 1.16409E+00-1.61740E-14-5.65288E-14
 -1      3872 1.87579E+01 8.66089E-01 3.17477E-03 1.28718E+00-4.31306E-14-6.92709E-15
 -1      3873 1.86817E+01 9.73107E-01 6.07258E-03 9.92311E-01-6.61262E-14-6.77715E-14
 -1      3874 2.00041E+01 2.46527E-02-9.41423E-05 5.53963E-03 2.31494E-14 2.33502E-13
 -1      3875 1.78585E+01 2.46553E-01-1.23330E-02 2.25475E+00-1.33053E-13 2.60058E-14
 -1      3876 1.79065E+01-6.27127E-02 2.00148E-02 2.53204E+00-2.23017E-13 1.19669E-13
 -1      3877 1.75622E+01-3.96754E-01-1.57149E-02 2.86507E+00-2.82609E-13 1.06811E-13
 -1      3878 1.78105E+01-9.32351E-01 2.47948E-02 3.23524E+00-2.57207E-13 2.23517E-13
 -1      3879 1.61117E+01-5.10370E-01 4.80506E-02 3.34334E+00-1.70367E-13 1.47117E-13
 -1      3880 1.67429E+01 1.38512E-01 1.83286E-02 2.58133E+00-1.77232E-13 5.36654E-14
 -1      3881 1.99433E+01 1.76541E+00 2.07123E-03 1.27452E-01-1.56844E-14-3.22142E-13
 -1      3882 2.00033E+01 1.67223E-02-6.83683E-05 8.18373E-04-1.56085E-13-1.42984E-13
 -1      3883 2.00036E+01 1.59871E-02-3.18260E-06 7.90927E-04-1.86055E-13 1.44982E-13
 -1      3884 2.00042E+01 1.94144E-02 1.75763E-04 1.86924E-03-1.97421E-13 6.50918E-14
 -1      3885 2.00033E+01 2.19066E-02 1.65550E-04 1.18322E-03-2.46761E-13-6.14937E-14
 -1      3886 1.54154E+01-1.68741E-01 2.19654E-02-2.93930E+00 1.99045E-13 1.15036E-13
 -1      3887 1.66790E+01-9.36330E-01-1.64448E-02-3.45858E+00 5.89155E-14 8.88525E-15
 -1      3888 1.95089E+01 7.42567E-01-1.94908E-03 1.18660E+00 3.45116E-14-1.40118E-13
 -1      3889 1.94900E+01 5.99689E-01 4.64722E-03 1.33244E+00 6.30014E-14-1.19500E-13
 -1      3890 1.91500E+01 6.49132E-01-1.31596E-03 1.37749E+00 7.69456E-14-1.19544E-13
 -1      3891 1.99382E+01 1.42988E+00-5.25537E-04-4.33641E-01 2.10445E-13-7.53325E-14
 -1      3892 1.81939E+01 6.44658E-01-1.09802E-02 1.77465E+00-1.37443E-13 5.01995E-14
 -1      3893 1.81474E+01 4.87307E-01 1.21939E-02 1.97710E+00-6.18946E-14 6.15462E-14
 -1      3894 1.78446E+01 8.71072E-01 7.91890E-03 1.53395E+00-1.01189E-13 9.08581E-14
 -1      3895 1.96446E+01 1.00893E+00-1.63842E-03 8.88660E-01-2.66448E-15-1.88649E-13
 -1      3896 1.96052E+01 8.78754E-01 2.10487E-03 1.03546E+00 1.14776E-14-1.67662E-13
 -1      3897 1.93420E+01 9.39983E-01 9.59809E-04 1.05514E+00 4.64887E-14-1.09882E-13
 -1      3898 1.95095E+01 6.69170E-01-3.39835E-03 6.31865E-01 2.18467E-13 1.50603E-13
 -1      3899 1.94514E+01 7.19811E-01 5.37111E-04 7.06680E-01 2.38901E-13 1.96039E-13
 -1      3900 1.92410E+01 8.15419E-01 4.08847E-03 6.64665E-01 2.06433E-13 3.86660E-13
 -1      3901 1.94372E+01 7.06854E-01 3.25087E-03 5.39589E-01 2.06934E-13 3.77311E-13
 -1      3902 1.94451E+01 9.33563E-01 1.24816E-03-1.34180E+00 9.10725E-14-1.17240E-13
 -1      3903 1.44994E+01 4.61565E-01 7.17519E-04-2.05132E+00 1.83039E-13-7.62411E-15
 -1      3904 1.49428E+01 1.57112E-01 2.28204E-02-2.62289E+00 1.49249E-13 9.45286E-14
 -1      3905 1.61499E+01 3.83692E-02 2.25729E-02-2.54425E+00 6.44255E-14 9.51452E-14
 -1      3906 1.97634E+01 1.45496E+00 2.60490E-03-5.12715E-01 1.87162E-13-1.13609E-13
 -1      3907 1.97727E+01 1.58764E+00-1.69031E-03-3.66181E-01 2.14848E-13-1.12769E-13
 -1      3908 1.96238E+01 1.74120E+00-2.46362E-03-3.15925E-01 2.13708E-13-1.58358E-13
 -1      3909 1.89802E+01-8.32949E-01-2.14999E-02-2.97992E+00-4.55283E-14-9.55685E-14
 -1      3910 1.83009E+01 9.74368E-01 7.09337E-03 1.22149E+00-9.01101E-14-1.12199E-13
 -1      3911 1.95489E+01 2.01870E+00 6.52037E-03-1.45491E-01 2.22555E-13-1.81432E-13
 -1      3912 1.81449E+01 1.04192E-01 1.96387E-02-2.46685E+00 1.73494E-14-1.46511E-13
 -1      3913 1.81470E+01 3.72521E-01-1.05430E-02-2.21639E+00 3.03146E-14-1.49750E-13
 -1      3914 1.88387E+01-1.39002E+00-1.86632E-02-3.02515E+00 1.18786E-13 9.13662E-14
 -1      3915 1.68693E+01-5.73565E-01-5.22667E-03-3.28670E+00-8.33951E-14-1.10053E-13
 -1      3916 1.81423E+01-6.42200E-01 3.23196E-02-3.06707E+00-5.60747E-14-1.56016E-13
 -1      3917 1.79352E+01-2.23268E-01-7.88695E-04-2.78463E+00-1.30039E-14-1.25295E-13
 -1      3918 1.84491E+01 5.86348E-01 1.13506E-02-1.96573E+00 5.81143E-15-1.54493E-13
 -1      3919 1.85279E+01 7.36231E-01-8.68696E-03-1.77392E+00 2.37633E-14-1.68493E-13
 -1      3920 1.77208E+01 6.86629E-01 7.96492E-03-1.94528E+00 3.82440E-14-1.46633E-13
 -1      3921 1.46461E+01-4.25291E-01 7.60712E-02 3.42430E+00 2.58125E-13-2.98754E-13
 -1      3922 1.42476E+01 6.56457E-02 7.89132E-03 2.60667E+00 1.87671E-13-3.35725E-13
 -1      3923 1.61155E+01-8.26855E-01 2.84696E-02 3.49590E+00 2.69263E-13-2.41883E-13
 -1      3924 1.96699E+01 1.36557E+00-2.92542E-03-6.46328E-01 1.81056E-13-1.12641E-13
 -1      3925 1.34598E+01 6.74698E-01-1.22489E-03 1.20292E+00 2.06077E-13-4.06557E-13
 -1      3926 1.27886E+01 8.38876E-01 6.74549E-02 4.22028E-01 1.67394E-13-4.62790E-13
 -1      3927 1.36911E+01 9.22127E-01 3.05365E-02-2.51254E-01 1.01241E-13-3.46374E-13
 -1      3928 2.00017E+01 2.78536E-02-4.43218E-05-1.97112E-04 1.20082E-13 4.17521E-13
 -1      3929 2.00017E+01 2.76404E-02-1.15315E-04 4.34645E-04-3.27182E-14 3.27412E-13
 -1      3930 2.00029E+01 2.73121E-02-7.87891E-05 4.70676E-03-6.68465E-14 8.25529E-14
 -1      3931 2.00028E+01 3.59435E-02 2.08901E-04 8.70195E-03 1.73783E-13-3.66930E-14
 -1      3932 2.00022E+01 2.89515E-02-1.20153E-04 4.30495E-03-1.06286E-13 1.41856E-15
 -1      3933 1.79098E+01-1.04432E+00 3.30114E-02-3.14983E+00 7.25080E-14 8.53944E-14
 -1      3934 1.93274E+01 1.98684E+00-3.75673E-03-1.06914E-01 2.05429E-13-1.76570E-13
 -1      3935 1.92799E+01 2.03338E+00-3.09710E-03-4.17544E-02 1.83113E-13-1.73255E-13
 -1      3936 2.29129E+01-3.69285E+00-2.04247E-02 2.61883E+00-4.82357E-14 1.53832E-13
 -1      3937 1.92661E+01 2.04022E+00-4.35070E-03 5.86838E-02 1.57548E-13-2.02534E-13
 -1      3938 1.92870E+01 2.02575E+00-2.72066E-03 1.17442E-01 1.18114E-13-2.50738E-13
 -1      3939 1.92191E+01 1.90834E+00 7.12076E-03-1.28749E-03 1.76376E-13-1.70363E-13
 -1      3940 2.00023E+01 2.63753E-02-5.59833E-05-2.20938E-03 1.75576E-13 1.45955E-13
 -1      3941 2.00018E+01 2.72094E-02-1.00142E-04-1.59067E-03 8.20838E-14 3.52331E-13
 -1      3942 2.00008E+01 3.33845E-02-3.15586E-06-1.18438E-03 4.37611E-14 3.17360E-13
 -1      3943 1.43090E+01 3.62649E-01 3.53940E-02-2.17291E+00-5.29299E-14-1.91404E-13
 -1      3944 1.93416E+01 1.97025E+00-5.02250E-03 2.07127E-01 9.76816E-14-2.73393E-13
 -1      3945 1.94233E+01 1.89630E+00-3.33672E-03 2.47652E-01 6.85968E-14-2.90980E-13
 -1      3946 1.92696E+01 1.86049E+00 6.39671E-03 2.06604E-01 8.93780E-14-2.44891E-13
 -1      3947 1.95170E+01 1.21101E+00 1.45821E-03 7.63987E-01 6.00056E-15-2.00063E-13
 -1      3948 1.94104E+01 1.15989E+00-7.98830E-04-9.94601E-01 1.28577E-13-9.76558E-14
 -1      3949 1.95149E+01 1.23584E+00-9.73977E-04-8.41481E-01 1.59676E-13-8.84965E-14
 -1      3950 1.73215E+01 5.93518E-01 9.18919E-03 1.99040E+00-1.37415E-13 1.11000E-13
 -1      3951 1.24386E+01 9.28349E-01 9.03156E-02-3.37600E-01-5.05403E-14 3.17652E-13
 -1      3952 1.33324E+01 8.29129E-01 1.41305E-02-1.03597E+00 8.23681E-14 1.06809E-13
 -1      3953 1.27937E+01 8.45317E-01-4.08941E-03 4.75930E-01-7.19719E-14 2.71422E-13
 -1      3954 1.49903E+01-3.15144E-01 2.97547E-02 3.11751E+00-2.07183E-13 1.10516E-13
 -1      3955 1.35468E+01 1.23787E-01 9.13792E-02 2.79798E+00-2.90148E-13 5.07719E-14
 -1      3956 1.34354E+01 4.71041E-01 3.34183E-02 1.98105E+00-2.51424E-13 1.44017E-13
 -1      3957 1.52928E+01 4.55218E-02-1.69501E-02 2.70431E+00-2.07038E-13 1.62736E-13
 -1      3958 1.94524E+01 1.44980E+00 1.50359E-03-6.19854E-01 1.69123E-13-1.12764E-13
 -1      3959 1.88006E+01-2.15070E+00 2.91321E-02 3.78568E+00 3.14259E-13-1.11893E-13
 -1      3960 1.94566E+01 1.58333E+00 4.66212E-03 4.60874E-01 4.24650E-14-2.66198E-13
 -1      3961 1.95522E+01 1.67754E+00-2.60011E-03 4.00993E-01 6.17645E-14-2.68489E-13
 -1      3962 1.62797E+01-1.30456E-01 3.23874E-02-2.96276E+00-8.92814E-14-1.00601E-13
 -1      3963 1.97964E+01 1.41921E+00-8.73250E-04 4.71144E-01 6.36860E-15-2.48084E-13
 -1      3964 1.91245E+01 1.02875E+00 2.80342E-03-1.28496E+00 9.49670E-14-1.25850E-13
 -1      3965 1.92343E+01 1.09689E+00-3.86683E-03-1.12943E+00 1.06533E-13-1.05879E-13
 -1      3966 1.91164E+01 1.26561E+00 6.41304E-03-9.43949E-01 1.33930E-13-5.97692E-14
 -1      3967 1.83474E+01 1.51641E-01-6.76669E-03 2.00678E+00 1.41828E-13-1.66277E-13
 -1      3968 1.83780E+01-1.23558E-01 1.77170E-02 2.26959E+00 1.77310E-13-1.66054E-13
 -1      3969 1.72119E+01 1.87217E-01-2.94681E-03-2.52617E+00-1.08828E-14-1.58042E-13
 -1      3970 1.75969E+01-6.14837E-01 3.48620E-03-2.85438E+00 1.32070E-13 1.07188E-13
 -1      3971 1.79523E+01 2.33241E-01 1.34914E-02-1.90540E+00-5.48848E-14-3.80419E-15
 -1      3972 1.79765E+01 4.18666E-01-9.34188E-03-1.66609E+00 1.23769E-14-2.13452E-15
 -1      3973 1.82110E+01 5.65081E-01 8.39359E-03-1.43872E+00 1.50094E-13 6.91466E-15
 -1      3974 1.82797E+01 6.62714E-01-8.46157E-03-1.26041E+00 1.41428E-13-3.38660E-14
 -1      3975 1.76826E+01 6.80144E-01 4.21640E-03-1.42650E+00 8.00349E-14-6.42423E-14
 -1      3976 1.84865E+01 7.36699E-01 4.77783E-03-1.09843E+00 4.39803E-14-3.09055E-14
 -1      3977 1.85758E+01 7.75557E-01-6.73992E-03-9.64482E-01-2.46109E-14-1.23717E-13
 -1      3978 1.81050E+01 8.42800E-01 5.78342E-03-1.05361E+00 1.14661E-13-1.19699E-13
 -1      3979 1.87527E+01 7.99731E-01 2.63411E-03-8.46873E-01-1.33590E-13-4.74547E-14
 -1      3980 1.88451E+01 8.00252E-01-5.27383E-03-7.44372E-01-9.15758E-14-9.16036E-14
 -1      3981 1.84691E+01 8.95503E-01 5.05396E-03-7.88630E-01-2.95630E-14-2.30407E-13
 -1      3982 1.89943E+01 7.91771E-01 1.41045E-03-6.57039E-01-8.43122E-14-2.49626E-13
 -1      3983 1.90809E+01 7.68078E-01-4.16046E-03-5.77065E-01-8.72030E-14-3.58004E-13
 -1      3984 1.87799E+01 8.79007E-01 4.36056E-03-5.96671E-01-2.10092E-13-1.48738E-13
 -1      3985 1.92054E+01 7.39549E-01 7.24862E-04-5.10896E-01-8.48685E-14-3.69886E-13
 -1      3986 1.92821E+01 7.01805E-01-3.32177E-03-4.47521E-01-1.63606E-13-4.25492E-13
 -1      3987 1.90415E+01 8.18912E-01 3.73461E-03-4.54317E-01-1.25200E-13-3.84876E-13
 -1      3988 1.93845E+01 6.62390E-01 3.41787E-04-3.96698E-01-1.61750E-13-4.12168E-13
 -1      3989 1.94498E+01 6.18013E-01-2.67350E-03-3.45974E-01-1.98864E-13-5.04980E-13
 -1      3990 1.92588E+01 7.33837E-01 3.15691E-03-3.46772E-01-1.85584E-13-3.87962E-13
 -1      3991 1.95328E+01 5.74197E-01 1.40273E-04-3.06576E-01-1.87271E-13-4.42109E-13
 -1      3992 1.95867E+01 5.28330E-01-2.15695E-03-2.65811E-01-1.53632E-13-3.55408E-13
 -1      3993 1.94366E+01 6.37541E-01 2.63566E-03-2.64386E-01-1.61303E-13-3.69665E-13
 -1      3994 1.96530E+01 4.84482E-01 4.28345E-05-2.35138E-01 5.52865E-15-1.93525E-13
 -1      3995 1.96962E+01 4.40489E-01-1.73539E-03-2.02410E-01 1.02690E-13-1.87980E-13
 -1      3996 1.95797E+01 5.39650E-01 2.16992E-03-2.00698E-01 4.34309E-14-6.21150E-14
 -1      3997 1.97482E+01 3.99358E-01 2.61409E-06-1.78530E-01 4.10497E-15-2.03221E-13
 -1      3998 1.97820E+01 3.59249E-01-1.38670E-03-1.52384E-01-2.06300E-14-2.00678E-13
 -1      3999 1.96929E+01 4.46519E-01 1.75891E-03-1.51251E-01 2.60375E-14-2.04103E-13
 -1      4000 1.98222E+01 3.22380E-01-8.11393E-06-1.33855E-01-1.80945E-13-3.06264E-13
 -1      4001 1.98480E+01 2.87171E-01-1.09727E-03-1.13131E-01-2.84494E-13-4.54986E-13
 -1      4002 1.97810E+01 3.61956E-01 1.40227E-03-1.12854E-01-1.91184E-13-4.42917E-13
 -1      4003 1.98783E+01 2.55251E-01-5.33636E-06-9.88428E-02-1.68357E-13-4.25307E-13
 -1      4004 1.98975E+01 2.25263E-01-8.57992E-04-8.25803E-02-9.83010E-14-3.61316E-13
 -1      4005 1.98481E+01 2.87868E-01 1.09880E-03-8.31291E-02-2.27034E-13-2.36454E-13
 -1      4006 1.99200E+01 1.98395E-01 2.15057E-06-7.16545E-02 3.33058E-14-2.69619E-13
 -1      4007 1.99339E+01 1.73493E-01-6.61878E-04-5.90404E-02 1.79273E-13-1.85331E-13
 -1      4008 1.98983E+01 2.24812E-01 8.45791E-04-6.02536E-02 3.33497E-14-4.56569E-14
 -1      4009 1.99502E+01 1.51412E-01 9.92630E-06-5.07715E-02 1.31097E-13-1.51248E-13
 -1      4010 1.99599E+01 1.31180E-01-5.02815E-04-4.11144E-02 5.20207E-14-1.70961E-14
 -1      4011 1.99349E+01 1.72447E-01 6.39183E-04-4.27919E-02 1.87290E-13-8.20092E-14
 -1      4012 1.99714E+01 1.13405E-01 1.63344E-05-3.49303E-02 5.92128E-14 6.56467E-15
 -1      4013 1.99779E+01 9.72791E-02-3.76324E-04-2.76455E-02-2.34097E-14 4.82961E-14
 -1      4014 1.99609E+01 1.29882E-01 4.73612E-04-2.95957E-02 1.59397E-13 1.14990E-13
 -1      4015 1.99856E+01 8.32230E-02 2.13571E-05-2.30928E-02-2.14424E-13 1.29455E-13
 -1      4016 1.99898E+01 7.05972E-02-2.78193E-04-1.76968E-02-1.78331E-13 1.14587E-13
 -1      4017 1.99787E+01 9.59175E-02 3.41783E-04-1.97377E-02-8.70716E-14 2.25489E-13
 -1      4018 1.99948E+01 5.96847E-02 3.83734E-05-1.44044E-02-4.68446E-14 1.93961E-13
 -1      4019 1.99972E+01 4.99365E-02-1.64174E-04-1.05504E-02 9.25180E-14 1.61337E-13
 -1      4020 1.99905E+01 6.92980E-02 2.76706E-04-1.24818E-02-8.76870E-14 3.10238E-13
 -1      4021 1.97655E+01 3.99312E-01-1.60448E-03 2.11971E-01-1.29497E-13 4.20748E-13
 -1      4022 1.97281E+01 4.45453E-01-1.57629E-04 2.44090E-01-9.25178E-14 2.87697E-13
 -1      4023 1.42752E+01 8.37909E-01 2.29568E-02-1.28108E+00-1.62481E-14-2.00317E-13
 -1      4024 1.51003E+01 3.37195E-01-6.55285E-03-2.32857E+00-8.77538E-14-1.04711E-13
 -1      4025 1.59853E+01 4.01140E-01 1.11642E-02-2.23646E+00-5.67541E-14-1.08431E-13
 -1      4026 1.88827E+01 9.35646E-01-5.00311E-03 6.35576E-01 1.18787E-13 1.74523E-13
 -1      4027 1.87439E+01 9.83599E-01-1.07756E-03 7.07119E-01-1.92881E-14 1.45699E-13
 -1      4028 1.96683E+01 4.93610E-01-1.98761E-03 2.72025E-01-4.90260E-14 3.20262E-13
 -1      4029 1.96181E+01 5.45712E-01-3.16216E-04 3.10296E-01-1.17835E-14 3.38829E-13
 -1      4030 1.96558E+01 5.01282E-01 2.17852E-03 2.13249E-01-1.21530E-13 3.56090E-13
 -1      4031 1.95401E+01 5.99126E-01-2.45501E-03 3.43224E-01 6.84387E-14 3.26408E-13
 -1      4032 1.94737E+01 6.55868E-01-5.19930E-04 3.88141E-01 2.17884E-13 4.10702E-13
 -1      4033 1.95236E+01 6.10079E-01 2.81454E-03 2.67823E-01 5.17460E-14 2.61217E-13
 -1      4034 1.98383E+01 3.17580E-01-1.28470E-03 1.62174E-01-2.88567E-14 2.80031E-13
 -1      4035 1.98109E+01 3.57290E-01-4.52899E-05 1.88672E-01 5.84282E-15 4.08009E-13
 -1      4036 1.97564E+01 4.04659E-01 1.67229E-03 1.66722E-01-3.98753E-14 3.27367E-13
 -1      4037 1.98919E+01 2.48489E-01-1.01703E-03 1.21620E-01-2.36834E-13 1.92734E-13
 -1      4038 1.98722E+01 2.81862E-01 2.72658E-05 1.43098E-01-1.35060E-13 2.90229E-13
 -1      4039 1.98318E+01 3.21236E-01 1.27043E-03 1.27834E-01-5.97943E-14 3.36055E-13
 -1      4040 1.99307E+01 1.91324E-01-7.94408E-04 8.91916E-02-9.31930E-14 1.21920E-13
 -1      4041 1.99168E+01 2.18796E-01 6.89519E-05 1.06293E-01-1.88866E-13 1.39736E-13
 -1      4042 1.98874E+01 2.50902E-01 9.53533E-04 9.59794E-02-8.46935E-14 4.47670E-13
 -1      4043 1.99581E+01 1.44917E-01-6.11297E-04 6.37268E-02-5.30583E-14 1.49617E-13
 -1      4044 1.99486E+01 1.67117E-01 8.84952E-05 7.71041E-02-7.86234E-14 1.48363E-13
 -1      4045 1.99277E+01 1.92826E-01 7.05944E-04 7.04013E-02-9.93523E-14 1.90568E-13
 -1      4046 1.99769E+01 1.07885E-01-4.64057E-04 4.40925E-02-1.41249E-13 1.52411E-13
 -1      4047 1.99707E+01 1.25527E-01 9.32608E-05 5.43707E-02-8.89536E-14 1.11749E-13
 -1      4048 1.99562E+01 1.45760E-01 5.14523E-04 5.02582E-02-6.84827E-14 1.62732E-13
 -1      4049 1.99893E+01 7.88232E-02-3.33582E-04 2.92546E-02 2.64943E-14 2.22551E-13
 -1      4050 1.99855E+01 9.26000E-02 8.84784E-05 3.69944E-02-3.70930E-14 1.86602E-13
 -1      4051 1.99758E+01 1.08255E-01 3.68635E-04 3.46968E-02-1.19479E-13 2.26608E-13
 -1      4052 1.99971E+01 5.62908E-02-2.21305E-04 1.83208E-02-1.48050E-13 4.49740E-13
 -1      4053 1.99949E+01 6.68852E-02 6.57340E-05 2.39065E-02-7.52296E-14 4.06985E-13
 -1      4054 1.99887E+01 7.89339E-02 2.87374E-04 2.29096E-02-1.96472E-13 4.26138E-13
 -1      4055 2.00009E+01 4.14384E-02-9.90318E-05 1.11507E-02 3.07117E-13 5.43078E-14
 -1      4056 1.99998E+01 4.97322E-02 1.25284E-04 1.52102E-02 1.50097E-13 2.81586E-13
 -1      4057 1.99957E+01 5.84487E-02 8.14337E-05 1.48484E-02 1.53364E-13 1.82223E-13
 -1      4058 1.99995E+01 4.44469E-02-7.33089E-05 9.58339E-03 3.46566E-13-6.66295E-14
 -1      4059 1.91777E+01 1.12458E+00-4.65203E-03 8.68954E-01 5.32570E-14-1.66055E-13
 -1      4060 1.90889E+01 1.00456E+00 2.86887E-03 1.01820E+00 6.45007E-14-1.47911E-13
 -1      4061 1.95065E+01 1.83516E+00-2.75689E-03-2.47980E-01 2.10811E-13-1.79396E-13
 -1      4062 1.94003E+01 1.93664E+00-3.27830E-03-1.86841E-01 1.98237E-13-1.86113E-13
 -1      4063 1.93111E+01 1.84630E+00 8.11021E-03-2.00050E-01 1.71002E-13-1.73839E-13
 -1      4064 1.94885E+01 1.70345E+00 5.03076E-03-3.64221E-01 1.87562E-13-1.67592E-13
 -1      4065 1.69476E+01-1.45077E-01 6.62257E-03-2.60915E+00 8.84354E-14 9.33622E-14
 -1      4066 1.79183E+01-4.03897E-01 1.67879E-02-2.55379E+00 1.32943E-13 3.24545E-14
 -1      4067 1.78387E+01-6.74813E-02-6.95213E-03-2.23411E+00 4.95194E-14-1.35694E-14
 -1      4068 1.64285E+01 1.68735E-01-5.66335E-03-2.31192E+00 6.91862E-15 5.67827E-14
 -1      4069 1.85336E+01 1.02040E+00-6.72839E-03 7.70059E-01-1.03721E-13 3.40107E-14
 -1      4070 1.83623E+01 1.05038E+00-8.19989E-04 8.57979E-01-1.61118E-13-4.60856E-14
 -1      4071 1.84860E+01 1.07553E+00 7.73368E-03 5.80414E-01-1.61461E-13-2.94232E-14
 -1      4072 1.87903E+01 8.63035E-01 6.27407E-03-1.59037E+00 7.38923E-14-1.53890E-13
 -1      4073 1.88997E+01 9.45338E-01-7.59537E-03-1.42570E+00 8.45597E-14-1.48029E-13
 -1      4074 1.87253E+01 1.11357E+00-3.72814E-03-1.21795E+00 1.01975E-13-1.41613E-13
 -1      4075 1.82673E+01 9.65179E-01 9.50988E-03-1.52885E+00 5.06911E-14-1.50227E-13
 -1      4076 1.80916E+01 1.06038E+00-9.76883E-03 9.39683E-01-1.18956E-13-7.88899E-14
 -1      4077 1.78856E+01 1.05954E+00 1.52221E-04 1.05460E+00-1.30877E-13-7.28442E-14
 -1      4078 1.80254E+01 1.15035E+00 1.05902E-02 6.98825E-01-1.73879E-13-9.42030E-14
 -1      4079 1.93117E+01 1.54258E+00-2.74791E-03-5.33990E-01 1.49387E-13-1.28173E-13
 -1      4080 1.62399E+01 6.63447E-01-5.77815E-03-1.90971E+00 7.13470E-15-9.99374E-14
 -1      4081 2.00016E+01 2.93278E-02-7.62851E-05 1.91172E-03-6.36477E-14 3.46481E-14
 -1      4082 2.00019E+01 2.82723E-02-1.45690E-04 2.55354E-03-7.70878E-14 9.84461E-15
 -1      4083 2.00009E+01 3.82323E-02 1.95604E-04 5.35935E-03 1.47463E-13 4.97791E-14
 -1      4084 2.00008E+01 3.57292E-02 1.56803E-04 1.73550E-03 1.92992E-13 3.39015E-13
 -1      4085 2.00028E+01 2.59505E-02-7.57102E-05-3.61601E-03 1.43840E-13-3.85029E-14
 -1      4086 2.00026E+01 2.61106E-02-4.40929E-05-2.95800E-03 1.36637E-13 5.30507E-14
 -1      4087 2.00018E+01 3.24595E-02 1.32691E-04-3.66482E-03 8.41883E-14 1.15834E-13
 -1      4088 2.00024E+01 3.14358E-02 9.31960E-05-5.51681E-03 4.39991E-14 6.86447E-14
 -1      4089 1.68198E+01 8.71268E-01-2.10105E-02 1.51299E+00-1.13749E-13 1.02462E-13
 -1      4090 1.65422E+01 7.26879E-01 3.29080E-03 1.76592E+00-1.30889E-13 1.08315E-13
 -1      4091 1.86165E+01 5.71314E-01-6.81847E-03 1.53577E+00 7.98611E-14-1.51514E-13
 -1      4092 1.85706E+01 3.85708E-01 1.11739E-02 1.74488E+00 8.40197E-14-1.67440E-13
 -1      4093 1.79704E+01 4.69426E-01-3.61273E-03 1.77303E+00 1.22946E-13-1.92478E-13
 -1      4094 1.93642E+01 1.40751E+00-4.30330E-03 5.84589E-01 5.51980E-14-2.70876E-13
 -1      4095 1.92867E+01 1.27814E+00 1.22184E-03 7.21566E-01 5.18835E-14-2.20927E-13
 -1      4096 1.90493E+01 1.33076E+00 4.36111E-04 6.80966E-01 9.28837E-14-2.05465E-13
 -1      4097 1.92429E+01 1.63323E+00 8.96082E-04 4.13947E-01 7.38470E-14-2.55400E-13
 -1      4098 1.89079E+01 8.75559E-01-5.25908E-03 1.16899E+00 5.74038E-14-1.42151E-13
 -1      4099 1.88242E+01 7.37714E-01 5.89718E-03 1.34207E+00 7.18674E-14-1.49694E-13
 -1      4100 1.87715E+01 1.07218E+00 1.77334E-04 9.78786E-01 6.24835E-14-1.74106E-13
 -1      4101 1.75316E+01 1.02462E+00-1.48068E-02 1.17096E+00-9.94106E-14-3.88784E-14
 -1      4102 1.72920E+01 9.73857E-01 2.32154E-03 1.33337E+00-5.62878E-14 6.99892E-14
 -1      4103 1.74331E+01 1.17546E+00 1.52754E-02 8.59054E-01-6.86518E-14-2.29529E-13
 -1      4104 1.82983E+01-1.50025E+00 2.29391E-02 3.49305E+00 2.76321E-13-1.66474E-13
 -1      4105 1.58872E+01 9.77698E-01 1.94806E-02-1.32689E+00-5.98349E-15-9.62088E-14
 -1      4106 1.69429E+01 8.15866E-01 7.91008E-03-1.67051E+00 2.65068E-14-1.28689E-13
 -1      4107 1.43300E+01 7.76799E-01 3.93668E-02-1.55924E+00 9.70053E-14-8.56398E-14
 -1      4108 1.53713E+01 6.26621E-01 1.49779E-02-1.79690E+00 4.45047E-14-1.82228E-14
 -1      4109 1.41768E+01 9.17060E-01-2.20984E-02-8.90957E-01 3.28865E-14 8.98700E-14
 -1      4110 1.45100E+01 9.98263E-01-1.49589E-02 4.19531E-02 8.69465E-14-2.57495E-13
 -1      4111 1.43167E+01 9.89301E-01 2.18575E-02-6.85111E-01 2.35816E-14-2.15689E-13
 -1      4112 1.51539E+01 9.82223E-01 2.01698E-02-8.98213E-01-9.54662E-15-1.44570E-13
 -1      4113 1.72257E+01 9.45480E-01-1.53595E-02-1.44472E+00 2.44451E-14-1.50704E-13
 -1      4114 1.82782E+01-4.74543E-01 2.67129E-03 2.61181E+00 1.98488E-13-1.70250E-13
 -1      4115 1.85648E+01-9.07037E-01 2.61964E-02 2.88612E+00 2.15725E-13-1.35222E-13
 -1      4116 1.76363E+01-5.12047E-02-4.50242E-03 2.40029E+00 2.03005E-13-1.78948E-13
 -1      4117 1.73309E+01 3.04498E-01-5.89026E-06-1.99102E+00 2.55098E-14-6.10123E-14
 -1      4118 1.57032E+01 9.94562E-01 4.51803E-02 1.42074E+00-1.18483E-13-1.81920E-14
 -1      4119 1.59807E+01 5.77588E-01-2.20263E-02 1.97405E+00-1.63979E-13 1.01908E-13
 -1      4120 1.56638E+01 3.80546E-01 1.07209E-02 2.25314E+00-1.63704E-13 1.40234E-13
 -1      4121 1.93516E+01 7.28381E-01 3.61621E-03 3.30717E-01 9.35150E-14 3.54794E-13
 -1      4122 1.93731E+01 7.12602E-01-3.04808E-03 4.26446E-01 1.49568E-13 4.27945E-13
 -1      4123 1.92868E+01 7.71442E-01-7.50466E-04 4.78624E-01 7.66708E-14 3.30396E-13
 -1      4124 1.99996E+01 4.33633E-02 2.88490E-06-9.18638E-03 2.11815E-13 6.75710E-14
 -1      4125 2.00009E+01 3.67201E-02-7.48959E-05-6.76395E-03 1.47781E-13 1.25649E-13
 -1      4126 2.00005E+01 3.75039E-02-2.46359E-05-5.76773E-03 1.21272E-13 6.41420E-14
 -1      4127 1.99969E+01 5.09155E-02 1.66154E-04-8.33596E-03 1.27530E-13 2.53738E-13
 -1      4128 1.71901E+01-9.19998E-01-6.11877E-04 3.38050E+00 2.54419E-13-2.08025E-13
 -1      4129 1.64946E+01-3.08012E-01-9.04489E-03 2.86974E+00 2.20095E-13-1.99495E-13
 -1      4130 1.42620E+01 5.90891E-01 5.47345E-02 1.84190E+00 1.95578E-13-3.93918E-13
 -1      4131 1.45499E+01 8.27290E-01 1.15235E-02 1.08635E+00 1.86855E-13-3.83463E-13
 -1      4132 1.52630E+01 2.55085E-01 1.17597E-02 2.29760E+00 2.09096E-13-3.25124E-13
 -1      4133 1.66620E+01 1.12098E+00 2.36123E-02 1.10137E+00-7.71331E-14-3.64223E-14
 -1      4134 1.90851E+01 1.77478E+00-4.68632E-03-6.07596E-02 1.72135E-13-1.36468E-13
 -1      4135 1.90760E+01 1.78378E+00-3.80427E-03 5.08636E-02 1.47551E-13-1.61415E-13
 -1      4136 1.90949E+01 1.75499E+00-2.81928E-03 1.90340E-01 1.29679E-13-1.91813E-13
 -1      4137 1.91565E+01 1.70138E+00-3.41230E-03 2.94659E-01 8.76228E-14-2.30088E-13
 -1      4138 1.90868E+01 1.55767E+00 6.44813E-03 4.04013E-01 1.11418E-13-2.09093E-13
 -1      4139 1.89674E+01 1.66841E+00 2.73431E-03 1.35335E-01 1.29439E-13-1.48039E-13
 -1      4140 1.99987E+01 4.17622E-02 8.92990E-05 5.12948E-04 3.76619E-14 4.56323E-13
 -1      4141 1.99981E+01 4.30180E-02-1.66263E-04 2.29349E-03 1.13494E-13 9.80111E-14
 -1      4142 1.91194E+01 1.46373E+00 1.98289E-03-5.95008E-01 1.35620E-13-1.24731E-13
 -1      4143 1.91837E+01 1.66901E+00-2.42109E-03-3.31071E-01 1.50957E-13-1.76091E-13
 -1      4144 1.83919E+01 8.13925E-01-1.69209E-03 1.31980E+00 6.17206E-14-1.71411E-13
 -1      4145 1.91578E+01 8.28044E-01-3.84770E-03 5.22976E-01 1.03396E-13 3.24944E-13
 -1      4146 1.90475E+01 8.84761E-01-9.48745E-04 5.83562E-01 1.56165E-13 2.42871E-13
 -1      4147 1.88469E+01 9.70977E-01 5.97135E-03 4.84204E-01-2.98378E-15 6.63134E-14
 -1      4148 1.91302E+01 8.51275E-01 4.63930E-03 4.02372E-01 1.01800E-13 2.01037E-13
 -1      4149 1.38883E+01 8.33251E-01 5.96382E-02 1.47888E+00-1.94433E-13 1.61040E-13
 -1      4150 1.41498E+01 9.55205E-01 4.71937E-03 7.04548E-01 3.47179E-14 1.62318E-13
 -1      4151 1.99995E+01 3.88047E-02-9.27264E-05-3.08324E-03 1.11981E-13 1.90567E-13
 -1      4152 1.99974E+01 4.70272E-02-2.56200E-05-3.08945E-03 8.59728E-14 2.70520E-13
 -1      4153 1.87488E+01 1.32330E+00 1.58816E-03-7.92677E-01 1.29917E-13-1.21691E-13
 -1      4154 1.89018E+01 1.38167E+00-6.06461E-03-6.78214E-01 1.33630E-13-1.16380E-13
 -1      4155 1.87922E+01 1.51928E+00 6.65341E-03-4.46843E-01 1.40536E-13-1.74582E-13
 -1      4156 1.91049E+01 1.72199E+00-3.12491E-03-2.40716E-01 1.51765E-13-1.72389E-13
 -1      4157 1.89609E+01 1.64765E+00 2.23448E-03-1.91566E-01 1.41561E-13-1.63853E-13
 -1      4158 1.89120E+01 1.42432E+00-4.37167E-03 5.22397E-01 1.08812E-13-2.00837E-13
 -1      4159 1.88133E+01 1.29434E+00 3.40910E-03 6.69918E-01 9.25591E-14-1.66856E-13
 -1      4160 1.88355E+01 1.51468E+00 2.64308E-03 3.86368E-01 1.25780E-13-1.71516E-13
 -1      4161 1.69793E+01 4.10745E-01-9.59692E-03 1.95675E+00 1.74955E-13-2.02634E-13
 -1      4162 1.68863E+01 1.42650E-01 1.89129E-02 2.31496E+00 1.76821E-13-2.04362E-13
 -1      4163 1.96475E+01 4.86151E-01-1.65864E-03 1.48148E-01-1.63983E-13 1.78736E-13
 -1      4164 1.95895E+01 5.38587E-01-9.66694E-04 1.69868E-01-5.74134E-14 1.72460E-13
 -1      4165 1.72139E+01 8.13506E-01 4.89273E-03-1.26827E+00-3.00311E-14 6.23969E-14
 -1      4166 1.74242E+01 8.89207E-01-1.40505E-02-1.06955E+00 4.98343E-14 2.17482E-14
 -1      4167 1.77655E+01 9.44612E-01 2.96300E-03-9.11193E-01 9.49505E-14-7.67722E-14
 -1      4168 1.79505E+01 9.64679E-01-1.11470E-02-7.71960E-01 1.04965E-13-8.17546E-14
 -1      4169 1.73754E+01 1.08869E+00 1.99031E-02-7.52670E-01 3.22576E-14-3.14308E-14
 -1      4170 1.82168E+01 9.78038E-01 1.05705E-03-6.65340E-01 3.43670E-14-1.27463E-13
 -1      4171 1.83784E+01 9.65946E-01-8.01159E-03-5.66042E-01-8.90213E-14-1.38883E-13
 -1      4172 1.79436E+01 1.09337E+00 1.53135E-02-5.28695E-01 6.54566E-14-9.85503E-14
 -1      4173 1.85890E+01 9.48821E-01 1.06479E-04-4.90818E-01-2.41194E-13-9.17116E-14
 -1      4174 1.87275E+01 9.15413E-01-5.92044E-03-4.18765E-01-3.08943E-13-1.42969E-13
 -1      4175 1.83900E+01 1.04646E+00 1.17951E-02-3.74325E-01-1.59262E-13-2.11410E-13
 -1      4176 1.88957E+01 8.79561E-01-2.65170E-04-3.65122E-01-2.12527E-13-1.74767E-13
 -1      4177 1.90123E+01 8.33275E-01-4.43179E-03-3.11499E-01-1.33574E-13-2.54677E-13
 -1      4178 1.87485E+01 9.63914E-01 9.42030E-03-2.65672E-01-3.38454E-13-1.26323E-13
 -1      4179 1.91468E+01 7.86757E-01-4.65926E-04-2.72954E-01-9.93765E-14-2.87244E-13
 -1      4180 1.92434E+01 7.34424E-01-3.38357E-03-2.32318E-01-1.49842E-13-2.21934E-13
 -1      4181 1.90364E+01 8.60063E-01 7.38255E-03-1.89116E-01-1.64670E-13-2.60811E-13
 -1      4182 1.93506E+01 6.83511E-01-5.37001E-04-2.04397E-01-1.33869E-13-1.42068E-13
 -1      4183 1.94292E+01 6.30045E-01-2.61505E-03-1.73191E-01 2.17153E-15-5.11682E-14
 -1      4184 1.92672E+01 7.47248E-01 5.82729E-03-1.34936E-01-4.08679E-14-1.11136E-13
 -1      4185 1.95140E+01 5.79171E-01-5.31610E-04-1.52870E-01 9.79763E-14 3.56974E-14
 -1      4186 1.95769E+01 5.27956E-01-2.03208E-03-1.28703E-01 1.74429E-13 9.38665E-14
 -1      4187 1.94511E+01 6.34182E-01 4.61286E-03-9.63735E-02 8.74872E-14 2.20589E-13
 -1      4188 1.96432E+01 4.80048E-01-4.83127E-04-1.13872E-01 3.62341E-14-2.21643E-14
 -1      4189 1.96926E+01 4.33203E-01-1.57891E-03-9.50799E-02-6.65951E-14-1.21996E-13
 -1      4190 1.95959E+01 5.26963E-01 3.64068E-03-6.87957E-02 1.43773E-14 2.36172E-14
 -1      4191 1.97437E+01 3.89990E-01-4.14176E-04-8.42451E-02-1.01251E-13-1.13704E-13
 -1      4192 1.97818E+01 3.48644E-01-1.22154E-03-6.96310E-02-2.12012E-13-1.52102E-13
 -1      4193 1.97085E+01 4.29434E-01 2.85191E-03-4.89906E-02-1.48908E-13 9.32643E-14
 -1      4194 1.98207E+01 3.10957E-01-3.39443E-04-6.17224E-02-2.60816E-13-8.56353E-14
 -1      4195 1.98495E+01 2.75512E-01-9.38031E-04-5.03916E-02-2.00652E-13 2.88390E-14
 -1      4196 1.97947E+01 3.43619E-01 2.21011E-03-3.47187E-02-1.73495E-13 6.35525E-14
 -1      4197 1.98784E+01 2.43543E-01-2.67838E-04-4.46349E-02-2.73833E-14 5.11319E-14
 -1      4198 1.98997E+01 2.13899E-01-7.13286E-04-3.58997E-02 1.35365E-13 7.87523E-14
 -1      4199 1.98596E+01 2.70170E-01 1.69037E-03-2.44098E-02-5.90174E-14 1.62505E-13
 -1      4200 1.99208E+01 1.87415E-01-2.04215E-04-3.17298E-02 1.59081E-13-2.99045E-14
 -1      4201 1.99361E+01 1.63155E-01-5.36238E-04-2.50493E-02 1.97074E-13 3.63398E-14
 -1      4202 1.99074E+01 2.08787E-01 1.27341E-03-1.69568E-02 7.46402E-14 1.23624E-13
 -1      4203 1.99512E+01 1.41671E-01-1.50623E-04-2.20517E-02 1.07125E-13 1.13190E-13
 -1      4204 1.99619E+01 1.22196E-01-3.98129E-04-1.69914E-02 1.46894E-13 1.21812E-13
 -1      4205 1.99419E+01 1.58557E-01 9.42441E-04-1.15764E-02 9.76788E-14 8.95117E-14
 -1      4206 1.99723E+01 1.05097E-01-1.06695E-04-1.48548E-02 6.98126E-14 8.98297E-14
 -1      4207 1.99794E+01 8.97095E-02-2.91258E-04-1.10539E-02-1.04921E-13 9.19476E-14
 -1      4208 1.99660E+01 1.18221E-01 6.77344E-04-7.71670E-03 7.99197E-14-4.23257E-14
 -1      4209 1.99863E+01 7.63233E-02-8.33804E-05-9.55318E-03-1.42262E-13 2.46226E-13
 -1      4210 1.99908E+01 6.43925E-02-2.01703E-04-6.63640E-03-1.67946E-14 2.71168E-13
 -1      4211 1.99821E+01 8.62625E-02 3.92881E-04-5.02775E-03-9.04558E-14 9.25410E-15
 -1      4212 1.98268E+01 3.09954E-01-1.06735E-03 8.91911E-02-1.14030E-13 3.75729E-13
 -1      4213 1.97944E+01 3.49334E-01-4.63060E-04 1.04860E-01-1.07051E-14 3.29586E-13
 -1      4214 1.99984E+01 4.42573E-02 2.79965E-05 4.72822E-03 1.80110E-13 1.63071E-15
 -1      4215 1.99985E+01 4.46820E-02-1.64324E-04 6.93693E-03 2.34936E-13-6.39366E-14
 -1      4216 1.99970E+01 5.14792E-02 3.33118E-05 9.01654E-03 3.77209E-13-9.50781E-14
 -1      4217 1.99966E+01 5.08439E-02 1.59360E-04 3.68928E-03 6.74039E-14-4.13029E-14
 -1      4218 1.47100E+01 5.87223E-01 8.34284E-03 2.02725E+00-1.74482E-13 7.70287E-14
 -1      4219 1.97498E+01 3.91456E-01-1.33780E-03 1.16212E-01 1.72523E-14 1.49358E-13
 -1      4220 1.97062E+01 4.37497E-01-6.76559E-04 1.34879E-01-9.69074E-14 1.73180E-13
 -1      4221 1.97580E+01 3.88152E-01 2.53229E-03 7.49279E-02-1.37693E-13 3.09371E-13
 -1      4222 1.95134E+01 5.93204E-01-2.04402E-03 1.84903E-01 4.13405E-14 1.42853E-13
 -1      4223 1.94373E+01 6.51075E-01-1.35383E-03 2.09579E-01 6.37858E-14 2.09798E-13
 -1      4224 1.95276E+01 5.90730E-01 4.20377E-03 1.15475E-01-1.70059E-14-4.36484E-14
 -1      4225 1.98837E+01 2.41432E-01-8.39974E-04 6.68903E-02-4.61730E-14 2.88141E-13
 -1      4226 1.98601E+01 2.74359E-01-3.08930E-04 7.97510E-02-6.49234E-14 4.59941E-13
 -1      4227 1.98329E+01 3.06723E-01 1.93585E-03 5.80663E-02-6.46107E-14 2.80001E-13
 -1      4228 1.99250E+01 1.84999E-01-6.50975E-04 4.89070E-02 3.80089E-15 1.86715E-13
 -1      4229 1.99082E+01 2.11983E-01-1.99826E-04 5.92402E-02-2.08059E-14 1.94880E-13
 -1      4230 1.98884E+01 2.38419E-01 1.46040E-03 4.38480E-02 4.39548E-15 1.92090E-13
 -1      4231 1.99543E+01 1.39383E-01-4.96705E-04 3.47196E-02-1.18362E-13 2.38063E-13
 -1      4232 1.99426E+01 1.61096E-01-1.24223E-04 4.28552E-02-4.02708E-14 2.40389E-13
 -1      4233 1.99285E+01 1.82280E-01 1.08482E-03 3.22097E-02 2.11587E-14 1.39741E-13
 -1      4234 1.99745E+01 1.03140E-01-3.65428E-04 2.37607E-02-1.91210E-13 1.76040E-13
 -1      4235 1.99666E+01 1.20320E-01-7.31260E-05 3.00404E-02-1.65419E-13 7.09188E-14
 -1      4236 1.99569E+01 1.36983E-01 7.89367E-04 2.29372E-02-6.29031E-14 1.92386E-13
 -1      4237 1.99880E+01 7.47999E-02-1.89888E-04 1.54353E-02-1.78399E-13 8.09437E-14
 -1      4238 1.99828E+01 8.80505E-02-7.63437E-05 2.02200E-02-2.13415E-13 1.12009E-13
 -1      4239 1.99762E+01 1.01029E-01 5.29845E-04 1.57332E-02-1.28393E-13-1.30390E-13
 -1      4240 1.85754E+01 1.19620E+00-2.64652E-03 7.80362E-01 7.07321E-14-1.54833E-13
 -1      4241 1.84053E+01 1.09456E+00 5.50545E-03 9.17696E-01 4.84263E-14-1.37025E-13
 -1      4242 1.84566E+01 1.30431E+00 5.66215E-03 6.11670E-01 8.47139E-14-1.31306E-13
 -1      4243 1.59920E+01 5.96919E-01 8.66209E-03-1.83716E+00 2.94862E-15 4.40611E-14
 -1      4244 1.67662E+01 4.54035E-01 1.20437E-02-1.89870E+00 4.75772E-14-5.99930E-14
 -1      4245 1.68667E+01 6.71943E-01-1.09462E-02-1.54946E+00 3.69596E-14-5.35173E-15
 -1      4246 1.88271E+01 1.58079E+00-4.26510E-03-2.13368E-01 1.36665E-13-1.60014E-13
 -1      4247 1.88401E+01 1.64304E+00 6.46249E-03-2.00993E-02 1.20931E-13-1.24434E-13
 -1      4248 1.88315E+01 1.59541E+00-5.40812E-03 1.29330E-01 1.18827E-13-1.40078E-13
 -1      4249 1.86085E+01 1.50774E+00-5.54444E-03-2.62716E-01 1.35624E-13-1.73470E-13
 -1      4250 1.49715E+01 1.00943E+00-2.47323E-02 8.42992E-01-5.68100E-14 5.48398E-14
 -1      4251 1.43592E+01 1.17229E+00 4.97019E-02-9.18355E-02 8.59269E-14 1.44154E-13
 -1      4252 1.50737E+01 1.06425E+00 9.30945E-03-5.90527E-01 4.64453E-14 1.25806E-13
 -1      4253 1.55429E+01 1.09373E+00-2.35711E-02 7.22151E-01-6.19298E-14 7.27135E-14
 -1      4254 1.66353E+01 1.18750E+00-1.82288E-02 5.67264E-01-7.12405E-14 2.88444E-14
 -1      4255 1.61802E+01 1.14591E+00-1.19821E-02 6.81108E-01-8.48479E-14-1.56125E-17
 -1      4256 1.58364E+01 1.25697E+00 3.40005E-02 1.08253E-01-4.03946E-14 1.72508E-13
 -1      4257 1.80878E+01 9.91271E-01-5.18732E-03 1.08027E+00 5.86399E-14-1.66295E-13
 -1      4258 1.78948E+01 8.56239E-01 5.07342E-03 1.26913E+00 8.36327E-14-1.60175E-13
 -1      4259 1.79056E+01 1.15471E+00 1.34844E-02 8.59701E-01 5.31144E-14-1.66280E-13
 -1      4260 1.75737E+01 7.42247E-01-9.84648E-03 1.44150E+00 9.68919E-14-1.56806E-13
 -1      4261 1.73679E+01 5.83725E-01 1.26454E-02 1.70102E+00 1.53225E-13-1.65202E-13
 -1      4262 1.66213E+01 7.15662E-01 5.98022E-03 1.60009E+00 1.40255E-13-1.86907E-13
 -1      4263 1.72688E+01 9.24897E-01-1.28393E-02 1.19120E+00 1.11982E-13-1.30641E-13
 -1      4264 1.84634E+01 1.06504E+00-5.43416E-03 3.70258E-01-2.14819E-13-3.31068E-14
 -1      4265 1.82533E+01 1.11141E+00-5.31264E-03 4.09152E-01-2.09168E-13-9.05062E-15
 -1      4266 1.74356E+01 1.19398E+00-1.20486E-02 4.70459E-01-1.37379E-13-6.47325E-14
 -1      4267 1.70868E+01 1.19576E+00-1.06943E-02 5.38664E-01-4.39541E-14 1.41108E-14
 -1      4268 1.68402E+01 1.29265E+00 2.78645E-02 1.33707E-01-7.83703E-14 1.63446E-13
 -1      4269 1.58021E+01 1.07819E+00-1.46214E-02-7.73763E-01 1.64278E-14-1.42773E-13
 -1      4270 1.80145E+01 1.14786E+00-7.75265E-03 4.16463E-01-1.63938E-13 2.77389E-14
 -1      4271 1.77433E+01 1.17628E+00-7.90498E-03 4.64965E-01-1.65825E-13-6.26081E-14
 -1      4272 1.75632E+01 1.25888E+00 2.38830E-02 1.65109E-01-1.79332E-13 9.70322E-14
 -1      4273 1.80846E+01 1.18399E+00 1.68397E-02 1.90212E-01-1.47434E-13-2.33150E-14
 -1      4274 1.70710E+01 1.17435E+00 1.67367E-02-1.02583E+00 2.62095E-14-1.38570E-13
 -1      4275 1.77264E+01 1.04439E+00-5.09000E-04-1.30312E+00 3.60997E-14-1.51019E-13
 -1      4276 1.86670E+01 1.01217E+00-3.41897E-03 3.52045E-01-1.19151E-13-1.39631E-14
 -1      4277 1.85124E+01 1.08151E+00 1.16683E-02 1.92404E-01-1.89959E-13-1.40151E-13
 -1      4278 1.88296E+01 9.54351E-01-4.06931E-03 3.18845E-01-1.84355E-14 1.25227E-13
 -1      4279 1.48831E+01 1.02992E+00 2.30531E-02 5.99721E-01 1.34949E-13-2.96516E-13
 -1      4280 1.54028E+01 1.09556E+00 8.47922E-03 2.32223E-01 5.55962E-14-2.03520E-13
 -1      4281 1.53746E+01 8.33675E-01-1.98002E-02 1.18694E+00 1.41190E-13-3.01533E-13
 -1      4282 1.93584E+01 7.09235E-01 5.37052E-03 1.37614E-01 1.48018E-13 7.75141E-14
 -1      4283 1.93394E+01 7.10264E-01-2.52333E-03 2.26047E-01 1.04433E-13 2.25152E-13
 -1      4284 1.92407E+01 7.71671E-01-1.86246E-03 2.53476E-01 1.64447E-13 2.94883E-13
 -1      4285 1.58917E+01 1.20038E+00 2.57149E-02-2.95757E-01 1.17072E-14-1.50989E-13
 -1      4286 1.65051E+01 1.16721E+00 2.11835E-03-6.77245E-01 1.95560E-14-1.28256E-13
 -1      4287 1.60310E+01 1.12748E+00-2.29262E-02 2.59202E-01 5.04527E-14-1.80070E-13
 -1      4288 1.69654E+01 1.21595E+00-1.99720E-02-5.99088E-01 3.22132E-14-1.16734E-13
 -1      4289 1.99950E+01 5.38273E-02-8.83583E-05-4.10808E-03 7.34677E-14 2.87328E-13
 -1      4290 1.99928E+01 5.88180E-02-9.69966E-05 2.28524E-03 5.38717E-14-4.26202E-14
 -1      4291 1.99928E+01 5.95653E-02-1.54243E-04 5.10087E-03 7.71623E-14-1.96900E-13
 -1      4292 1.82613E+01 1.20569E+00-4.08701E-03-1.00960E+00 9.30141E-14-1.29807E-13
 -1      4293 1.80809E+01 1.34663E+00 5.50919E-03-7.03915E-01 9.92888E-14-1.43478E-13
 -1      4294 1.57061E+01 8.27012E-01-1.19847E-02-1.37874E+00-6.69746E-14 1.38100E-14
 -1      4295 1.66962E+01 9.34693E-01 5.93454E-03-1.15878E+00-1.02938E-14 1.09906E-13
 -1      4296 1.99925E+01 6.06276E-02 9.47622E-05-1.20520E-03-4.73752E-15 2.09670E-13
 -1      4297 1.99883E+01 7.03772E-02-7.67292E-05-2.25231E-04-1.18044E-13 1.79778E-13
 -1      4298 2.00003E+01 3.81174E-02 7.07789E-05-4.71346E-03 1.12651E-13 1.20013E-13
 -1      4299 1.96583E+01 4.83035E-01 3.27615E-03 9.42459E-02-9.73064E-14 5.69445E-14
 -1      4300 1.58279E+01 1.97639E-01 6.36682E-03 2.39258E+00 2.07960E-13-2.57081E-13
 -1      4301 1.98397E+01 2.84434E-01-1.11977E-03 1.16167E-02-1.01003E-13 1.84477E-13
 -1      4302 1.98062E+01 3.20967E-01-1.39543E-03 1.73559E-02-1.52629E-13 2.31053E-13
 -1      4303 1.96719E+01 4.50135E-01-1.83157E-03 1.46671E-02-1.87881E-13 1.48923E-13
 -1      4304 1.96127E+01 4.99248E-01-2.40793E-03 2.13882E-02-8.86681E-14 9.13635E-14
 -1      4305 1.76739E+01 1.14473E+00-9.91835E-03-2.14739E-01 1.93997E-14-4.46950E-14
 -1      4306 1.79338E+01 1.12305E+00-1.28829E-02-1.40738E-01-5.66434E-14-9.98176E-14
 -1      4307 1.81769E+01 1.09407E+00-7.40158E-03-1.17063E-01-6.47742E-14-1.41529E-13
 -1      4308 1.83846E+01 1.05399E+00-9.20484E-03-6.64789E-02-2.17150E-13-1.69517E-13
 -1      4309 1.85918E+01 1.00615E+00-5.72893E-03-5.92179E-02-2.98756E-13-1.62778E-13
 -1      4310 1.87578E+01 9.53459E-01-7.05467E-03-2.43310E-02-3.00697E-13-1.81456E-13
 -1      4311 1.91802E+01 7.80160E-01-3.57932E-03-2.26593E-03 4.63368E-14 6.17175E-14
 -1      4312 1.92864E+01 7.20918E-01-4.08262E-03 1.41489E-02 1.72455E-13 1.53993E-13
 -1      4313 1.93857E+01 6.62739E-01-2.86983E-03 8.83613E-03 5.15740E-14 1.12280E-13
 -1      4314 1.94698E+01 6.05920E-01-3.13600E-03 2.00998E-02 7.05427E-14 1.20961E-13
 -1      4315 1.95469E+01 5.51431E-01-2.30037E-03 1.36382E-02 5.33563E-14 1.05840E-13
 -1      4316 1.97227E+01 4.03826E-01-1.84032E-03 2.00250E-02-1.57537E-13 1.01749E-13
 -1      4317 1.97676E+01 3.60912E-01-1.44220E-03 1.36268E-02-1.76486E-13 1.59483E-13
 -1      4318 1.98685E+01 2.50808E-01-1.04702E-03 1.42336E-02 3.52977E-14 1.92041E-13
 -1      4319 1.98931E+01 2.20406E-01-8.55475E-04 9.30832E-03 6.58520E-14 1.77772E-13
 -1      4320 1.99142E+01 1.92699E-01-7.75378E-04 1.11603E-02 4.25626E-14 1.81299E-13
 -1      4321 1.99317E+01 1.67905E-01-6.41337E-04 7.08152E-03-1.27628E-16 1.02962E-13
 -1      4322 1.99468E+01 1.45513E-01-5.63478E-04 8.39927E-03 4.01047E-14 5.28850E-14
 -1      4323 1.99591E+01 1.25662E-01-4.66028E-04 5.12955E-03 4.54633E-14-3.00431E-14
 -1      4324 1.99695E+01 1.07883E-01-3.86650E-04 6.05844E-03 5.71359E-14-2.92064E-14
 -1      4325 1.99778E+01 9.23400E-02-2.67746E-04 3.57293E-03 4.96821E-14-2.03508E-13
 -1      4326 1.99847E+01 7.85758E-02-1.77165E-04 3.96724E-03-1.02550E-13-6.05379E-14
 -1      4327 1.76824E+01 1.31891E+00 2.66082E-03-4.75937E-01 6.05219E-14-1.15006E-13
 -1      4328 1.81863E+01 1.41224E+00-8.70574E-03-3.15764E-01 1.22728E-13-1.46134E-13
 -1      4329 1.70344E+01 1.15379E+00-1.05144E-02-3.57867E-01-8.28955E-14 6.87599E-14
 -1      4330 1.73633E+01 1.15409E+00-1.73282E-02-2.52714E-01 1.51767E-14 3.54005E-14
 -1      4331 1.56594E+01 1.02188E+00 1.69217E-02-1.02723E+00-1.30240E-14 1.13735E-13
 -1      4332 1.62865E+01 9.57575E-01 1.17031E-02-1.07107E+00 4.26946E-14 7.13924E-14
 -1      4333 1.66096E+01 1.09239E+00 1.44951E-02-8.21417E-01 1.58077E-14 1.10122E-13
 -1      4334 1.80155E+01 1.13445E+00-1.39046E-03-1.15097E+00 6.67671E-14-1.49385E-13
 -1      4335 1.99947E+01 5.85160E-02-3.98764E-05 1.16679E-02 1.55572E-13-4.40082E-14
 -1      4336 1.99907E+01 6.73220E-02 1.41420E-04 9.15536E-03 1.18247E-13-2.36123E-13
 -1      4337 1.84268E+01 1.40775E+00-1.14318E-02 3.28047E-01 1.05151E-13-1.79693E-13
 -1      4338 1.81835E+01 1.32348E+00-8.62107E-03 4.33429E-01 7.91108E-14-1.72127E-13
 -1      4339 1.86712E+01 1.49805E+00 1.61267E-03 2.29512E-01 1.05263E-13-1.78178E-13
 -1      4340 1.79476E+01 1.30692E+00-1.10335E-02 3.08657E-01 6.56727E-14-1.51492E-13
 -1      4341 1.76173E+01 1.22984E+00-1.41220E-02 4.31404E-01 6.56268E-14-1.48838E-13
 -1      4342 1.56763E+01 6.09913E-01-7.77866E-03 1.70962E+00 1.81740E-13-3.04277E-13
 -1      4343 1.91157E+01 8.32952E-01-3.15748E-03 2.70900E-01 8.49513E-14 2.23163E-13
 -1      4344 1.89887E+01 8.94808E-01-2.52637E-03 3.00968E-01 6.20373E-14 2.04437E-13
 -1      4345 1.91413E+01 8.34781E-01 6.86768E-03 1.59160E-01 6.83700E-14 2.59872E-13
 -1      4346 1.55891E+01 1.13326E+00-1.76800E-02-3.35467E-01 1.96436E-14 2.15467E-13
 -1      4347 1.72395E+01 1.35826E+00 2.33454E-02-1.61199E-01 4.32761E-14-1.07182E-13
 -1      4348 1.59515E+01 8.17625E-01 7.65148E-03 1.28892E+00 1.25808E-13-2.66190E-13
 -1      4349 1.61834E+01 1.16878E+00-1.78005E-02-3.02410E-01 3.56876E-15 1.14295E-13
 -1      4350 1.88646E+01 9.61514E-01 8.85557E-03 1.78164E-01-1.10188E-13 8.46309E-14
 -1      4351 1.89200E+01 8.97532E-01-4.49925E-03-2.32797E-02-2.13587E-13-1.07140E-13
 -1      4352 1.90530E+01 8.39244E-01-5.34118E-03 6.61277E-04-7.25265E-14-4.25636E-15
 -1      4353 1.84975E+01 1.51907E+00 8.65599E-03 4.22138E-02 1.15940E-13-1.62831E-13
 -1      4354 1.66048E+01 1.13833E+00-1.39218E-02-4.08821E-01-1.55416E-14 1.20289E-13
 -1      4355 1.63785E+01 9.48417E-01 1.14502E-02 1.08982E+00 8.46693E-14-2.11325E-13
 -1      4356 1.83957E+01 1.45614E+00 3.59322E-03-1.94035E-01 1.28261E-13-1.57111E-13
 -1      4357 1.69774E+01 1.16913E+00-3.96283E-03 4.54465E-01 3.54417E-14-1.49160E-13
 -1      4358 1.67224E+01 1.05832E+00 1.55491E-02 9.09917E-01 8.82289E-14-1.83659E-13
 -1      4359 1.99864E+01 7.71634E-02 1.98593E-04 7.79250E-03 1.94833E-14-1.82052E-13
 -1      4360 1.80551E+01 1.42426E+00 6.93803E-03 1.26425E-02 9.34071E-14-1.65577E-13
 -3
    1PSTEP                         3           1           1          
  100CL  101 1.000000000        4360                     0    1           1
 -4  TOSTRAIN    6    1
 -5  EXX         1    4    1    1
 -5  EYY         1    4    2    2
 -5  EZZ         1    4    3    3
 -5  EXY         1    4    1    2
 -5  EYZ         1    4    2    3
 -5  EZX         1    4    3    1
 -1         1 2.70773E-04-7.24920E-05-7.37769E-05-7.68346E-05-3.06856E-18 1.40461E-17
 -1         2 3.66427E-05-1.11037E-04 2.00584E-05-7.54361E-07 6.66320E-18-1.10988E-19
 -1         3 9.52380E-05-2.85701E-05-2.85723E-05 1.49138E-09-2.17487E-18-2.66522E-18
 -1         4 9.52380E-05-2.85703E-05-2.85723E-05-1.27462E-09 1.61172E-18 1.67356E-19
 -1         5 1.41875E-04-2.11275E-05-4.23690E-05 3.79169E-05-2.91856E-19 1.97759E-17
 -1         6 1.43805E-04 2.57400E-10-4.40113E-05-5.25979E-05-1.21274E-18 1.21089E-17
 -1         7 9.11979E-05-5.97107E-07-3.91771E-05-2.82091E-05-1.78512E-19-4.69997E-19
 -1         8 8.59281E-05 4.34140E-08-3.66127E-05-1.88245E-05-1.27373E-19-3.60030E-18
 -1         9 8.35249E-05 5.23495E-08-3.56189E-05-1.39381E-05-8.39489E-20-5.03699E-18
 -1        10 8.21914E-05 2.79053E-08-3.50520E-05-1.03111E-05-3.84341E-20-5.50085E-18
 -1        11 8.12923E-05 1.92831E-08-3.46853E-05-7.37579E-06 2.11096E-21-5.47091E-18
 -1        12 8.06613E-05 1.64433E-08-3.44352E-05-4.94725E-06 3.94929E-20-5.28444E-18
 -1        13 8.02297E-05 1.73207E-08-3.42675E-05-2.79905E-06 4.02771E-20-4.96901E-18
 -1        14 8.00084E-05 1.84413E-08-3.41825E-05-8.47023E-07 9.88249E-20-4.62325E-18
 -1        15 8.00042E-05 1.86792E-08-3.41816E-05 1.03373E-06 9.97216E-20-4.25508E-18
 -1        16 8.02211E-05 1.78423E-08-3.42661E-05 2.97066E-06 1.25483E-19-3.81070E-18
 -1        17 8.06590E-05 1.59648E-08-3.44365E-05 5.09718E-06 1.61145E-19-3.23019E-18
 -1        18 8.13067E-05 1.78239E-08-3.46925E-05 7.50779E-06 1.62121E-19-2.38937E-18
 -1        19 8.22289E-05 2.66671E-08-3.50679E-05 1.04497E-05 2.36521E-19-1.10462E-18
 -1        20 8.35800E-05 5.49583E-08-3.56435E-05 1.41126E-05 2.67107E-19 8.21655E-19
 -1        21 8.59299E-05 1.19829E-07-3.66601E-05 1.89885E-05 2.74412E-19 3.97145E-18
 -1        22 9.21122E-05-1.77477E-07-3.88496E-05 2.69426E-05-1.05879E-22 9.53128E-18
 -1        23 1.13046E-04-3.81646E-05-3.54329E-05-4.11765E-06-8.52406E-19 7.99980E-18
 -1        24 9.41759E-05-2.81182E-05-2.93895E-05 4.25774E-07-2.05227E-19 4.68974E-18
 -1        25 9.15685E-05-2.75936E-05-2.76592E-05 3.90256E-07-8.27048E-20 1.62453E-18
 -1        26 9.16003E-05-2.75698E-05-2.74750E-05 2.22465E-07-9.98126E-20-5.14003E-19
 -1        27 9.29536E-05-2.79459E-05-2.78719E-05 1.68090E-07-5.50414E-20-1.93639E-18
 -1        28 9.50816E-05-2.85598E-05-2.85231E-05 1.43257E-07-2.83950E-20-2.92979E-18
 -1        29 9.77275E-05-2.93376E-05-2.93229E-05 1.34620E-07 4.47273E-20-3.87301E-18
 -1        30 1.00707E-04-3.02199E-05-3.02147E-05 1.33942E-07-3.85800E-20-4.59308E-18
 -1        31 1.03815E-04-3.11421E-05-3.11358E-05 1.33817E-07-7.66907E-20-5.56628E-18
 -1        32 1.06757E-04-3.20151E-05-3.19957E-05 1.24494E-07-1.28447E-19-6.63023E-18
 -1        33 1.09104E-04-3.27111E-05-3.26642E-05 9.22814E-08 2.95085E-19-6.49462E-18
 -1        34 1.10284E-04-3.30607E-05-3.29731E-05 2.08597E-08-2.21500E-19-6.81097E-18
 -1        35 1.09656E-04-3.28740E-05-3.27446E-05-1.01574E-07-2.36458E-20-8.33893E-18
 -1        36 1.06728E-04-3.20038E-05-3.18575E-05-2.67136E-07 2.15119E-19-7.81432E-18
 -1        37 1.01510E-04-3.04506E-05-3.03456E-05-4.30251E-07-2.78115E-19-7.36654E-18
 -1        38 9.48774E-05-2.84724E-05-2.84805E-05-5.07182E-07-5.55574E-20-8.68661E-18
 -1        39 8.86243E-05-2.66030E-05-2.67614E-05-4.16895E-07-5.66569E-20-9.61339E-18
 -1        40 8.48976E-05-2.54873E-05-2.57526E-05-1.53898E-07 2.45105E-19-9.32004E-18
 -1        41 8.51608E-05-2.55663E-05-2.58272E-05 1.80058E-07 2.32492E-19-9.76453E-18
 -1        42 8.93607E-05-2.68242E-05-2.69724E-05 4.33456E-07-1.92806E-19-9.48767E-18
 -1        43 9.59593E-05-2.87971E-05-2.87958E-05 5.10462E-07 1.40401E-19-7.89165E-18
 -1        44 1.02817E-04-3.08430E-05-3.07341E-05 4.25721E-07-2.24901E-19-7.63169E-18
 -1        45 1.08216E-04-3.24504E-05-3.23071E-05 2.62945E-07-1.52261E-19-9.32180E-18
 -1        46 1.11368E-04-3.33880E-05-3.32658E-05 1.03652E-07 1.81239E-19-9.45873E-18
 -1        47 1.12325E-04-3.36735E-05-3.35949E-05-9.85943E-09 3.87455E-19-6.65540E-18
 -1        48 1.11606E-04-3.34619E-05-3.34248E-05-7.15169E-08-3.57458E-20-5.32206E-18
 -1        49 1.09853E-04-3.29426E-05-3.29344E-05-9.34607E-08 4.01455E-19-6.06593E-18
 -1        50 1.07619E-04-3.22794E-05-3.22869E-05-9.14325E-08-4.29612E-19-7.05570E-18
 -1        51 1.05299E-04-3.15892E-05-3.16028E-05-7.79673E-08 5.19681E-20-7.10323E-18
 -1        52 1.03133E-04-3.09435E-05-3.09577E-05-6.09943E-08 5.69292E-19-6.49710E-18
 -1        53 1.01242E-04-3.03788E-05-3.03909E-05-4.47174E-08-4.58066E-19-6.67161E-18
 -1        54 9.96694E-05-2.99080E-05-2.99173E-05-3.09348E-08 3.38861E-19-6.92784E-18
 -1        55 9.84081E-05-2.95297E-05-2.95363E-05-2.01066E-08-5.05738E-19-6.56344E-18
 -1        56 9.74278E-05-2.92352E-05-2.92395E-05-1.20456E-08 9.29405E-20-4.53078E-18
 -1        57 9.66872E-05-2.90122E-05-2.90148E-05-6.31126E-09-1.20015E-19-5.47140E-18
 -1        58 9.61430E-05-2.88480E-05-2.88494E-05-2.41122E-09 4.63408E-19-5.69193E-18
 -1        59 9.57549E-05-2.87307E-05-2.87312E-05 1.07588E-10-5.80544E-20-3.50427E-18
 -1        60 9.54876E-05-2.86497E-05-2.86496E-05 1.62537E-09-1.55183E-19-4.67956E-18
 -1        61 9.53115E-05-2.85961E-05-2.85958E-05 2.44444E-09 3.24454E-19-5.28001E-18
 -1        62 9.52028E-05-2.85629E-05-2.85624E-05 2.79634E-09-9.37395E-19-7.64536E-18
 -1        63 9.51426E-05-2.85443E-05-2.85438E-05 2.85324E-09-6.28036E-19-7.93666E-18
 -1        64 9.51165E-05-2.85361E-05-2.85355E-05 2.73974E-09-9.50230E-20-7.90771E-18
 -1        65 9.51135E-05-2.85349E-05-2.85344E-05 2.54313E-09-2.61528E-19-6.71381E-18
 -1        66 9.51256E-05-2.85382E-05-2.85378E-05 2.32146E-09 8.43580E-19-4.46620E-18
 -1        67 9.51468E-05-2.85444E-05-2.85440E-05 2.10823E-09 5.32123E-19 1.28252E-18
 -1        68 9.51724E-05-2.85519E-05-2.85516E-05 1.91026E-09-5.60768E-19 1.19818E-18
 -1        69 9.51986E-05-2.85596E-05-2.85593E-05 1.68284E-09-6.65860E-20-1.15596E-18
 -1        70 9.52213E-05-2.85664E-05-2.85658E-05 1.18916E-09 5.71213E-20 1.45596E-18
 -1        71 9.52357E-05-2.85711E-05-2.85700E-05 2.88662E-10-4.66909E-19 7.45298E-19
 -1        72 1.02338E-04-3.06244E-05-3.42076E-05-1.99305E-06 6.88214E-20 1.94126E-17
 -1        73 9.39742E-05-2.79480E-05-2.93112E-05-3.46527E-07 1.20679E-19 1.66656E-17
 -1        74 9.16438E-05-2.74713E-05-2.77311E-05-1.24332E-07 3.48152E-20 1.43495E-17
 -1        75 9.18248E-05-2.75789E-05-2.75823E-05-8.97199E-08 4.00082E-20 1.29582E-17
 -1        76 9.33787E-05-2.80417E-05-2.80247E-05-7.34898E-08 4.45354E-20 1.16264E-17
 -1        77 9.58467E-05-2.87713E-05-2.87740E-05-6.88821E-08-1.16132E-19 1.08945E-17
 -1        78 9.90530E-05-2.97240E-05-2.97453E-05-7.57038E-08 7.87695E-20 1.05885E-17
 -1        79 1.02916E-04-3.08743E-05-3.09088E-05-9.52220E-08 9.42014E-20 9.49155E-18
 -1        80 1.07345E-04-3.21936E-05-3.22332E-05-1.29356E-07-2.59225E-19 9.30614E-18
 -1        81 1.12141E-04-3.36226E-05-3.36502E-05-1.77456E-07 9.05178E-20 8.81158E-18
 -1        82 1.16875E-04-3.50365E-05-3.50186E-05-2.29972E-07 8.39559E-20 8.18610E-18
 -1        83 1.20756E-04-3.62060E-05-3.60901E-05-2.58422E-07 6.02154E-20 7.77656E-18
 -1        84 1.22564E-04-3.67748E-05-3.65060E-05-2.06836E-07 1.25736E-19 8.41649E-18
 -1        85 1.20830E-04-3.63042E-05-3.58789E-05-3.64825E-09-1.80628E-19 8.91416E-18
 -1        86 1.14512E-04-3.44588E-05-3.40037E-05 3.75872E-07 9.46046E-20 8.39439E-18
 -1        87 1.04178E-04-3.13564E-05-3.11492E-05 8.04638E-07-3.29925E-19 7.78084E-18
 -1        88 9.29580E-05-2.79028E-05-2.82047E-05 9.83434E-07 1.32819E-19 8.14388E-18
 -1        89 8.57920E-05-2.56216E-05-2.64018E-05 6.61744E-07 3.69521E-19 5.43908E-18
 -1        90 8.65051E-05-2.57728E-05-2.66139E-05-4.50207E-08-4.42575E-19 4.13614E-18
 -1        91 9.47750E-05-2.83085E-05-2.87370E-05-6.70641E-07 2.00638E-19 4.26968E-18
 -1        92 1.06463E-04-3.19193E-05-3.18257E-05-8.89681E-07-7.39582E-20 4.49102E-18
 -1        93 1.16715E-04-3.50661E-05-3.46654E-05-7.14372E-07-8.72725E-20 3.86247E-18
 -1        94 1.22744E-04-3.68898E-05-3.64597E-05-3.90926E-07 4.64793E-20 1.35210E-18
 -1        95 1.24311E-04-3.73427E-05-3.70351E-05-1.13022E-07-6.92937E-20 1.34243E-18
 -1        96 1.22605E-04-3.68071E-05-3.66480E-05 5.67177E-08 7.37659E-20 4.87449E-18
 -1        97 1.19096E-04-3.57376E-05-3.56891E-05 1.31452E-07-8.05568E-20 7.57109E-18
 -1        98 1.14953E-04-3.44863E-05-3.45000E-05 1.46808E-07 1.75161E-19 7.10950E-18
 -1        99 1.10902E-04-3.32682E-05-3.33082E-05 1.33231E-07-7.31014E-20 3.78573E-18
 -1       100 1.07308E-04-3.21900E-05-3.22357E-05 1.09409E-07 2.95411E-20 4.52902E-18
 -1       101 1.04301E-04-3.12890E-05-3.13308E-05 8.47595E-08 3.55143E-19 2.76637E-18
 -1       102 1.01884E-04-3.05648E-05-3.05995E-05 6.31656E-08 1.43401E-19 3.13564E-19
 -1       103 9.99958E-05-2.99992E-05-3.00264E-05 4.57021E-08-1.30473E-19 1.51206E-18
 -1       104 9.85553E-05-2.95675E-05-2.95882E-05 3.22097E-08 1.72323E-20 1.93560E-18
 -1       105 9.74791E-05-2.92448E-05-2.92601E-05 2.20905E-08 3.07785E-19 1.35727E-18
 -1       106 9.66912E-05-2.90084E-05-2.90196E-05 1.46680E-08-8.34682E-19 2.19425E-18
 -1       107 9.61269E-05-2.88391E-05-2.88471E-05 9.32832E-09 2.78530E-19 5.87328E-19
 -1       108 9.57329E-05-2.87208E-05-2.87264E-05 5.56178E-09 2.19000E-19-2.95465E-18
 -1       109 9.54665E-05-2.86407E-05-2.86446E-05 2.96331E-09-2.04346E-19-7.36783E-19
 -1       110 9.52940E-05-2.85889E-05-2.85914E-05 1.21839E-09-8.93293E-20-2.84894E-18
 -1       111 9.51895E-05-2.85574E-05-2.85590E-05 8.60359E-11 4.86966E-19-1.09087E-18
 -1       112 9.51331E-05-2.85403E-05-2.85413E-05-6.16969E-10-8.95856E-19-7.61033E-19
 -1       113 9.51100E-05-2.85333E-05-2.85339E-05-1.02911E-09 4.06020E-19 7.55384E-19
 -1       114 9.51094E-05-2.85331E-05-2.85333E-05-1.25464E-09-9.16516E-19 1.10044E-18
 -1       115 9.51233E-05-2.85371E-05-2.85372E-05-1.37220E-09 2.91650E-19-3.02977E-19
 -1       116 9.51456E-05-2.85438E-05-2.85438E-05-1.44075E-09 6.31366E-20-3.55273E-18
 -1       117 9.51721E-05-2.85517E-05-2.85515E-05-1.49891E-09 8.83881E-19-9.02480E-18
 -1       118 9.51989E-05-2.85597E-05-2.85593E-05-1.55071E-09-2.43918E-19-7.75171E-18
 -1       119 9.52219E-05-2.85666E-05-2.85659E-05-1.46814E-09-1.11043E-19-5.01969E-18
 -1       120 9.52357E-05-2.85712E-05-2.85701E-05-6.27171E-10 1.16170E-18-4.43463E-18
 -1       121 9.52377E-05-2.85734E-05-2.85701E-05-4.40601E-10-5.13315E-18-2.94286E-19
 -1       122 9.52419E-05-2.85868E-05-2.85660E-05-1.21133E-09-5.43304E-18-3.41270E-19
 -1       123 9.52480E-05-2.86071E-05-2.85603E-05-1.35264E-09-1.66575E-18 1.85571E-18
 -1       124 9.52543E-05-2.86282E-05-2.85542E-05-1.15316E-09-5.69072E-19 8.57051E-19
 -1       125 9.52598E-05-2.86466E-05-2.85488E-05-8.52600E-10-1.38982E-18-2.05067E-18
 -1       126 9.52639E-05-2.86606E-05-2.85446E-05-5.72437E-10-6.42269E-18-5.28443E-20
 -1       127 9.52667E-05-2.86701E-05-2.85418E-05-3.15457E-10-2.87161E-18 2.11679E-18
 -1       128 9.52681E-05-2.86746E-05-2.85404E-05-9.29444E-11-4.36183E-18-6.67895E-19
 -1       129 9.52680E-05-2.86744E-05-2.85404E-05 1.14438E-10-4.82541E-18 1.84929E-18
 -1       130 9.52666E-05-2.86695E-05-2.85419E-05 3.31888E-10 3.24759E-18-3.61851E-19
 -1       131 9.52637E-05-2.86598E-05-2.85449E-05 5.89565E-10-7.78853E-19-2.12954E-19
 -1       132 9.52595E-05-2.86457E-05-2.85491E-05 8.55007E-10-4.39019E-18 7.54182E-19
 -1       133 9.52540E-05-2.86272E-05-2.85545E-05 1.14338E-09-6.65652E-18-2.46836E-19
 -1       134 9.52478E-05-2.86063E-05-2.85605E-05 1.40526E-09-7.83635E-18-1.15887E-18
 -1       135 9.52419E-05-2.85867E-05-2.85661E-05 1.66455E-09-5.09397E-18 1.37047E-18
 -1       136 9.52381E-05-2.85738E-05-2.85701E-05 2.24278E-10-1.84591E-18-1.00940E-19
 -1       137 2.56499E-05-8.92730E-05 1.62716E-05-2.42263E-05 1.30136E-17 3.20357E-18
 -1       138 8.57902E-06-3.39133E-05 2.84230E-06-1.61176E-05 1.91844E-17 8.32379E-18
 -1       139 1.21156E-05 1.36191E-05-1.49118E-05 2.30405E-05 1.79825E-17 1.40506E-17
 -1       140 6.04670E-05 2.58612E-05-3.58044E-05 7.86484E-05 1.50170E-17 1.77246E-17
 -1       141 1.46527E-04-3.67180E-06-5.49899E-05 1.12436E-04 7.62838E-18 1.36749E-17
 -1       142 2.49453E-04-5.83060E-05-7.11843E-05 9.62517E-05 2.04601E-18 6.36164E-18
 -1       143 3.09102E-04-9.43875E-05-7.90170E-05 2.96517E-05 3.70273E-19-6.01256E-18
 -1       144 2.98040E-04-8.70594E-05-7.77294E-05-5.29872E-05 2.36668E-18-1.49675E-17
 -1       145 2.16156E-04-3.90103E-05-6.64235E-05-1.08226E-04 7.53298E-18-1.95766E-17
 -1       146 1.13006E-04 1.07461E-05-4.84839E-05-1.04604E-04 1.18733E-17-1.85263E-17
 -1       147 3.69897E-05 2.59382E-05-2.77049E-05-5.78608E-05 1.40048E-17-1.34310E-17
 -1       148 5.61548E-06-2.45802E-06-7.07185E-06-2.52161E-06 1.36372E-17-8.49002E-18
 -1       149 1.37694E-05-5.62719E-05 8.75408E-06 2.56490E-05 9.43510E-18-3.78772E-18
 -1       150 3.20915E-05-1.02301E-04 1.84632E-05 1.88198E-05-1.55219E-19-4.99864E-19
 -1       151 3.49675E-05-1.08843E-04 1.98615E-05-9.90721E-06-9.11291E-18-1.80868E-19
 -1       152 1.95522E-05-7.07259E-05 1.19909E-05-2.40499E-05-1.66124E-17-5.43372E-18
 -1       153 5.30526E-06-1.64218E-05-1.87801E-06-8.21128E-06-2.07743E-17-1.16547E-17
 -1       154 2.30508E-05 2.33130E-05-2.17958E-05 4.26734E-05-2.05418E-17-1.76102E-17
 -1       155 8.62969E-05 2.04531E-05-4.25271E-05 9.44674E-05-1.37469E-17-1.74938E-17
 -1       156 1.86201E-04-2.34826E-05-6.17251E-05 1.10850E-04-6.22760E-18-1.30917E-17
 -1       157 2.74010E-04-7.38213E-05-7.44808E-05 7.48905E-05-9.17443E-19-3.70683E-18
 -1       158 3.07772E-04-9.54015E-05-7.85438E-05-3.22086E-06-3.99005E-19 6.43667E-18
 -1       159 1.92847E-04-2.71941E-05-6.27259E-05-1.11687E-04-8.07900E-18 1.77305E-17
 -1       160 1.04730E-04 1.44149E-05-4.68374E-05-1.02651E-04-1.20376E-17 1.84014E-17
 -1       161 3.84298E-05 2.85912E-05-2.89149E-05-6.17759E-05-1.56172E-17 1.48299E-17
 -1       162 6.96177E-06 6.28839E-06-1.03228E-05-1.12050E-05-1.61118E-17 1.13953E-17
 -1       163 1.04959E-05-4.32684E-05 5.67972E-06 2.04647E-05-1.19546E-17 5.23286E-18
 -1       164 2.77321E-05-9.16479E-05 1.65174E-05 2.18890E-05-3.25917E-18 1.39542E-18
 -1       165 9.59758E-05-1.28347E-05-3.58236E-05-2.08540E-05-2.19143E-18-1.77652E-18
 -1       166 9.02627E-05-8.74795E-06-3.50899E-05-1.56821E-05-1.58199E-18-3.61283E-18
 -1       167 8.71682E-05-6.54205E-06-3.46606E-05-1.17934E-05-9.74994E-19-4.42822E-18
 -1       168 8.52498E-05-5.25817E-06-3.43611E-05-8.63569E-06-4.47702E-19-4.65537E-18
 -1       169 8.39408E-05-4.42006E-06-3.41442E-05-6.04656E-06 7.45290E-21-4.54559E-18
 -1       170 8.30173E-05-3.84764E-06-3.39852E-05-3.78677E-06 4.21986E-19-4.30350E-18
 -1       171 8.24580E-05-3.50661E-06-3.38872E-05-1.77814E-06 8.28516E-19-3.99942E-18
 -1       172 8.22601E-05-3.38370E-06-3.38536E-05 9.99453E-08 1.17233E-18-3.69160E-18
 -1       173 8.24320E-05-3.48059E-06-3.38871E-05 1.96829E-06 1.52405E-18-3.29851E-18
 -1       174 8.29820E-05-3.80820E-06-3.39869E-05 3.95156E-06 1.83823E-18-2.83215E-18
 -1       175 8.39034E-05-4.37704E-06-3.41467E-05 6.14038E-06 2.15501E-18-2.18689E-18
 -1       176 8.52771E-05-5.26214E-06-3.43722E-05 8.75137E-06 2.48299E-18-1.20694E-18
 -1       177 8.72638E-05-6.60872E-06-3.46775E-05 1.19240E-05 2.73282E-18 1.48826E-19
 -1       178 9.04430E-05-8.89133E-06-3.51093E-05 1.58528E-05 2.70059E-18 2.33363E-18
 -1       179 9.68838E-05-1.40776E-05-3.56884E-05 2.03831E-05 2.09340E-18 5.96025E-18
 -1       180 1.06374E-04-2.64645E-05-3.54175E-05 1.75533E-05 1.19223E-18 1.03215E-17
 -1       181 1.04519E-04-2.77153E-05-3.29116E-05-1.10185E-05-2.02528E-18 1.01922E-18
 -1       182 9.89499E-05-2.88450E-05-3.00762E-05-3.63587E-06-1.66396E-18 2.60575E-19
 -1       183 9.62032E-05-2.84070E-05-2.90048E-05-5.85972E-07-1.27455E-18-3.74666E-19
 -1       184 9.56576E-05-2.84469E-05-2.87671E-05 9.61498E-07-8.98503E-19-1.14287E-18
 -1       185 9.62508E-05-2.87082E-05-2.89265E-05 1.89289E-06-7.13012E-19-1.63844E-18
 -1       186 9.75790E-05-2.91572E-05-2.93136E-05 2.50940E-06-5.20092E-19-1.90816E-18
 -1       187 9.93850E-05-2.97466E-05-2.98410E-05 2.90317E-06-4.44627E-19-2.08888E-18
 -1       188 1.01469E-04-3.04348E-05-3.04439E-05 3.06816E-06-3.81640E-19-2.05169E-18
 -1       189 1.03626E-04-3.11752E-05-3.10553E-05 2.93193E-06-4.67702E-19-1.87337E-18
 -1       190 1.05604E-04-3.19021E-05-3.15954E-05 2.37649E-06-3.10267E-19-2.29418E-18
 -1       191 1.07083E-04-3.25151E-05-3.19696E-05 1.27605E-06-1.92055E-19-2.93850E-18
 -1       192 1.07690E-04-3.28678E-05-3.20793E-05-4.25207E-07-5.15780E-19-2.57087E-18
 -1       193 1.07068E-04-3.27752E-05-3.18491E-05-2.58820E-06-2.01600E-20-2.72951E-18
 -1       194 1.05023E-04-3.20683E-05-3.12696E-05-4.74776E-06-2.82648E-19-2.89463E-18
 -1       195 1.01750E-04-3.07220E-05-3.04367E-05-6.10117E-06-8.12794E-19-3.09115E-18
 -1       196 9.80018E-05-2.90149E-05-2.95568E-05-5.78741E-06-4.06366E-19-3.41658E-18
 -1       197 9.50092E-05-2.75586E-05-2.88968E-05-3.45562E-06-1.09386E-19-4.03789E-18
 -1       198 9.39699E-05-2.70245E-05-2.86803E-05 2.58773E-07 3.49401E-20-4.58026E-18
 -1       199 9.53641E-05-2.76939E-05-2.89911E-05 3.92347E-06-2.02722E-19-4.45158E-18
 -1       200 9.86506E-05-2.92487E-05-2.97347E-05 6.13509E-06 4.56499E-19-4.82005E-18
 -1       201 1.02612E-04-3.10054E-05-3.06845E-05 6.33860E-06 8.16841E-20-5.60196E-18
 -1       202 1.06053E-04-3.23764E-05-3.15792E-05 4.94590E-06-6.34878E-19-4.74523E-18
 -1       203 1.08273E-04-3.31145E-05-3.22201E-05 2.82856E-06 5.28917E-19-3.60783E-18
 -1       204 1.09118E-04-3.32627E-05-3.25217E-05 7.63431E-07 9.35052E-19-3.10994E-18
 -1       205 1.08801E-04-3.29945E-05-3.25001E-05-8.17214E-07 8.33088E-19-3.06906E-18
 -1       206 1.07679E-04-3.24919E-05-3.22317E-05-1.80103E-06-2.67092E-19-2.33440E-18
 -1       207 1.06106E-04-3.18941E-05-3.18106E-05-2.26410E-06-3.15900E-19-2.52565E-18
 -1       208 1.04369E-04-3.12913E-05-3.13211E-05-2.35109E-06-4.71513E-20-2.51485E-18
 -1       209 1.02662E-04-3.07344E-05-3.08258E-05-2.20459E-06 3.12977E-19-1.71289E-18
 -1       210 1.01104E-04-3.02478E-05-3.03649E-05-1.93649E-06-7.26256E-20-1.81549E-18
 -1       211 9.97515E-05-2.98392E-05-2.99597E-05-1.62347E-06-9.93659E-20-1.43376E-18
 -1       212 9.86233E-05-2.95068E-05-2.96184E-05-1.31260E-06 2.29431E-20-2.41511E-18
 -1       213 9.77111E-05-2.92434E-05-2.93404E-05-1.02951E-06 1.43101E-18-1.86527E-18
 -1       214 9.69935E-05-2.90398E-05-2.91204E-05-7.85642E-07-4.36063E-19-1.29838E-18
 -1       215 9.64431E-05-2.88860E-05-2.89508E-05-5.83780E-07-4.59186E-19-2.26891E-18
 -1       216 9.60313E-05-2.87726E-05-2.88233E-05-4.21828E-07 5.96625E-19-3.46526E-18
 -1       217 9.57311E-05-2.86912E-05-2.87299E-05-2.95274E-07-4.31090E-19-4.16354E-18
 -1       218 9.55188E-05-2.86346E-05-2.86635E-05-1.98698E-07-3.30315E-19-2.72675E-18
 -1       219 9.53739E-05-2.85968E-05-2.86178E-05-1.26651E-07-1.35079E-18-3.02182E-18
 -1       220 9.52797E-05-2.85730E-05-2.85879E-05-7.41227E-08-6.51424E-19-2.85258E-18
 -1       221 9.52228E-05-2.85593E-05-2.85696E-05-3.67636E-08-2.10623E-19-2.70242E-18
 -1       222 9.51928E-05-2.85528E-05-2.85596E-05-1.09632E-08 1.84565E-18-3.36255E-18
 -1       223 9.51813E-05-2.85512E-05-2.85555E-05 6.15218E-09 1.47267E-18-5.38015E-19
 -1       224 9.51824E-05-2.85529E-05-2.85553E-05 1.67525E-08 2.42110E-18-1.07469E-18
 -1       225 9.51910E-05-2.85566E-05-2.85575E-05 2.23363E-08 6.39834E-19-1.28326E-18
 -1       226 9.52036E-05-2.85614E-05-2.85609E-05 2.37359E-08-2.59417E-19-1.15639E-18
 -1       227 9.52170E-05-2.85666E-05-2.85645E-05 2.10886E-08 1.08098E-18 3.03670E-19
 -1       228 9.52290E-05-2.85717E-05-2.85674E-05 1.41471E-08 2.48976E-20 1.11192E-18
 -1       229 1.00940E-04-2.90110E-05-3.09995E-05 6.22342E-06 1.51878E-18 9.09521E-18
 -1       230 9.67464E-05-2.84718E-05-2.92275E-05 1.73364E-06 1.15095E-18 7.77105E-18
 -1       231 9.54708E-05-2.83632E-05-2.87136E-05-2.49325E-07 9.27647E-19 6.61494E-18
 -1       232 9.57969E-05-2.85569E-05-2.87887E-05-1.39767E-06 6.74925E-19 5.90594E-18
 -1       233 9.71686E-05-2.90028E-05-2.91992E-05-2.21039E-06 3.04447E-19 5.39717E-18
 -1       234 9.93089E-05-2.96594E-05-2.98426E-05-2.87223E-06 3.79419E-19 5.12172E-18
 -1       235 1.02060E-04-3.04979E-05-3.06671E-05-3.44210E-06 3.99080E-19 4.95544E-18
 -1       236 1.05293E-04-3.14965E-05-3.16282E-05-3.89508E-06 1.56899E-19 4.68755E-18
 -1       237 1.08831E-04-3.26253E-05-3.26639E-05-4.11973E-06 5.03791E-19 3.93103E-18
 -1       238 1.12380E-04-3.38242E-05-3.36725E-05-3.90288E-06 1.62746E-19 3.93224E-18
 -1       239 1.15461E-04-3.49720E-05-3.44971E-05-2.93606E-06 1.05992E-19 3.75403E-18
 -1       240 1.17372E-04-3.58450E-05-3.49316E-05-9.03708E-07-2.35197E-19 3.48326E-18
 -1       241 1.17277E-04-3.60867E-05-3.47736E-05 2.26472E-06-1.98838E-19 3.72770E-18
 -1       242 1.14520E-04-3.52657E-05-3.39391E-05 5.96949E-06 1.67196E-19 4.29072E-18
 -1       243 1.09232E-04-3.31603E-05-3.25966E-05 8.62578E-06-5.79200E-20 5.14242E-18
 -1       244 1.02987E-04-3.02830E-05-3.11979E-05 8.16565E-06 1.63312E-19 4.28726E-18
 -1       245 9.86163E-05-2.80406E-05-3.03267E-05 3.74376E-06 1.58923E-18 3.80792E-18
 -1       246 9.86310E-05-2.79346E-05-3.03791E-05-2.82211E-06 9.62851E-19 2.27003E-18
 -1       247 1.03115E-04-3.00744E-05-3.13285E-05-7.85184E-06 9.43052E-20 1.10890E-18
 -1       248 1.09650E-04-3.30772E-05-3.27936E-05-9.08053E-06-6.72729E-19 1.41719E-18
 -1       249 1.15314E-04-3.54133E-05-3.42071E-05-6.87917E-06 2.63890E-19 1.56543E-18
 -1       250 1.18456E-04-3.64430E-05-3.51264E-05-3.26958E-06 1.23772E-18 1.01255E-18
 -1       251 1.18939E-04-3.63612E-05-3.53872E-05 7.38010E-09-7.88369E-19 7.49902E-19
 -1       252 1.17427E-04-3.56108E-05-3.50724E-05 2.19791E-06-1.90001E-18 2.34509E-18
 -1       253 1.14766E-04-3.45731E-05-3.43792E-05 3.28366E-06-6.58225E-19 3.68613E-18
 -1       254 1.11656E-04-3.34899E-05-3.35084E-05 3.56202E-06 5.70540E-19 4.03407E-18
 -1       255 1.08567E-04-3.24861E-05-3.26105E-05 3.36292E-06 1.14756E-18 4.20401E-18
 -1       256 1.05757E-04-3.16144E-05-3.17768E-05 2.93631E-06 1.56250E-19 2.90589E-18
 -1       257 1.03343E-04-3.08880E-05-3.10514E-05 2.43902E-06 1.00168E-18 1.32822E-18
 -1       258 1.01349E-04-3.03003E-05-3.04473E-05 1.95648E-06 1.04733E-18 6.94132E-19
 -1       259 9.97488E-05-2.98358E-05-2.99602E-05 1.52826E-06-8.79650E-19 1.67850E-18
 -1       260 9.84953E-05-2.94759E-05-2.95772E-05 1.16766E-06 1.11478E-18 1.89416E-18
 -1       261 9.75333E-05-2.92022E-05-2.92824E-05 8.74333E-07 5.17058E-20 5.17286E-19
 -1       262 9.68092E-05-2.89977E-05-2.90600E-05 6.41677E-07-6.95274E-19 2.13817E-18
 -1       263 9.62748E-05-2.88480E-05-2.88955E-05 4.60822E-07 1.96934E-18 4.52702E-19
 -1       264 9.58887E-05-2.87407E-05-2.87764E-05 3.22689E-07 5.58408E-19-1.85894E-18
 -1       265 9.56165E-05-2.86658E-05-2.86921E-05 2.18925E-07-1.66722E-18-1.36281E-18
 -1       266 9.54305E-05-2.86152E-05-2.86343E-05 1.42274E-07 4.09437E-19 3.93124E-19
 -1       267 9.53086E-05-2.85826E-05-2.85962E-05 8.66512E-08-4.83956E-19 2.17089E-19
 -1       268 9.52334E-05-2.85631E-05-2.85725E-05 4.70812E-08-6.22961E-19 1.55718E-18
 -1       269 9.51917E-05-2.85528E-05-2.85592E-05 1.95870E-08-6.92802E-19 5.60941E-19
 -1       270 9.51734E-05-2.85489E-05-2.85531E-05 1.06256E-09-7.21423E-19 1.43894E-18
 -1       271 9.51708E-05-2.85494E-05-2.85519E-05-1.08438E-08 2.21487E-18-3.80861E-19
 -1       272 9.51784E-05-2.85525E-05-2.85538E-05-1.78215E-08 2.18215E-18-3.00971E-18
 -1       273 9.51917E-05-2.85572E-05-2.85575E-05-2.09422E-08 2.23429E-18-2.97402E-18
 -1       274 9.52070E-05-2.85626E-05-2.85619E-05-2.06603E-08-1.24735E-18-3.15339E-18
 -1       275 9.52215E-05-2.85679E-05-2.85658E-05-1.67941E-08-1.43138E-18-2.91019E-18
 -1       276 9.52326E-05-2.85724E-05-2.85686E-05-8.98313E-09 1.17087E-19-2.70681E-18
 -1       277 9.52371E-05-2.85801E-05-2.85673E-05-1.41015E-08 6.59046E-20-1.75176E-19
 -1       278 9.52425E-05-2.85918E-05-2.85646E-05-1.95014E-08-1.19135E-18 9.46759E-20
 -1       279 9.52475E-05-2.86045E-05-2.85613E-05-2.01610E-08-2.54065E-18 1.09657E-18
 -1       280 9.52517E-05-2.86163E-05-2.85580E-05-1.76985E-08-2.07289E-18-5.11203E-20
 -1       281 9.52549E-05-2.86259E-05-2.85552E-05-1.37121E-08-1.18235E-18-1.98547E-18
 -1       282 9.52570E-05-2.86330E-05-2.85531E-05-9.08622E-09 2.74602E-19 1.54683E-18
 -1       283 9.52583E-05-2.86372E-05-2.85518E-05-4.39437E-09-3.43040E-19-7.59999E-19
 -1       284 9.52586E-05-2.86385E-05-2.85514E-05 2.09297E-10 9.88322E-19 1.36566E-19
 -1       285 9.52582E-05-2.86369E-05-2.85519E-05 4.77528E-09-4.93935E-19 2.81431E-18
 -1       286 9.52569E-05-2.86325E-05-2.85533E-05 9.36545E-09-1.40687E-18-1.63583E-18
 -1       287 9.52547E-05-2.86254E-05-2.85554E-05 1.37761E-08-4.53697E-19-9.80152E-19
 -1       288 9.52515E-05-2.86156E-05-2.85582E-05 1.76606E-08 1.61333E-19-2.05430E-18
 -1       289 9.52473E-05-2.86039E-05-2.85615E-05 2.00004E-08-1.13318E-18-6.16502E-19
 -1       290 9.52421E-05-2.85912E-05-2.85647E-05 1.88727E-08-8.18427E-19 1.97016E-19
 -1       291 9.52365E-05-2.85809E-05-2.85667E-05 1.93435E-08 2.43168E-20 2.13517E-18
 -1       292 1.17817E-05-4.63440E-05 1.17080E-05 6.34399E-06 2.97796E-18 3.88428E-18
 -1       293 2.98439E-05-4.02239E-05 2.79180E-06 2.78680E-05 2.79309E-18 4.95800E-18
 -1       294 5.58750E-05-3.80756E-05-9.27937E-06 3.47217E-05 6.86753E-18 5.84024E-18
 -1       295 9.37142E-05-3.42580E-05-2.59198E-05 4.28528E-05 7.09559E-18 6.71083E-18
 -1       296 1.35041E-04-3.13482E-05-4.33623E-05 4.60457E-05 7.82553E-18 4.45010E-18
 -1       297 1.77887E-04-3.40457E-05-5.89814E-05 3.85205E-05 5.55364E-18 2.52839E-18
 -1       298 2.07432E-04-3.70249E-05-6.93503E-05 1.97613E-05 5.39084E-18-2.68277E-18
 -1       299 2.11032E-04-3.53616E-05-7.17076E-05-3.46105E-06 4.54285E-18-4.48816E-18
 -1       300 1.94202E-04-3.35082E-05-6.60201E-05-2.20587E-05 3.95639E-18-5.86507E-18
 -1       301 1.63325E-04-3.36855E-05-5.36739E-05-3.93021E-05 3.97465E-18-6.90925E-18
 -1       302 1.22835E-04-3.58381E-05-3.68524E-05-4.30147E-05 3.60095E-18-6.20282E-18
 -1       303 8.01096E-05-3.73763E-05-1.91600E-05-4.11748E-05 3.38030E-18-4.93788E-18
 -1       304 4.11101E-05-3.96008E-05-2.98280E-06-2.85205E-05 3.15075E-18-4.48922E-18
 -1       305 2.01268E-05-4.55140E-05 7.87447E-06-1.64105E-05 3.47284E-19-4.77345E-18
 -1       306 1.11637E-05-4.98676E-05 1.30792E-05-1.52157E-06-1.90225E-18-4.33151E-18
 -1       307 1.58023E-05-4.06129E-05 8.49284E-06 1.71617E-05-3.98190E-18-5.63976E-18
 -1       308 3.34376E-05-4.07570E-05 6.59212E-07 2.58979E-05-7.47125E-18-6.77612E-18
 -1       309 6.98543E-05-3.83579E-05-1.44893E-05 4.07723E-05-6.93551E-18-6.75805E-18
 -1       310 1.06150E-04-3.18097E-05-3.17222E-05 4.56648E-05-8.62767E-18-5.56416E-18
 -1       311 1.49449E-04-3.23394E-05-4.87983E-05 4.08623E-05-6.80935E-18-4.32326E-18
 -1       312 1.78750E-04-3.08516E-05-6.15350E-05 2.19499E-05-5.90191E-18-9.25383E-19
 -1       313 2.09390E-04-3.63020E-05-7.05971E-05 1.17229E-05-4.53586E-18 2.06316E-18
 -1       314 2.04901E-04-3.41916E-05-6.98129E-05-1.16785E-05-4.42977E-18 5.48613E-18
 -1       315 1.87766E-04-3.35158E-05-6.31841E-05-3.29072E-05-4.84307E-18 6.96198E-18
 -1       316 1.54720E-04-3.02655E-05-5.14589E-05-4.46816E-05-5.00702E-18 6.71739E-18
 -1       317 1.16003E-04-2.89320E-05-3.67280E-05-4.74439E-05-4.84672E-18 6.73074E-18
 -1       318 7.76869E-05-3.08594E-05-2.08296E-05-4.23765E-05-4.71797E-18 5.52520E-18
 -1       319 4.54992E-05-3.67203E-05-5.74961E-06-3.16507E-05-4.01472E-18 5.71610E-18
 -1       320 2.44930E-05-4.19126E-05 5.10706E-06-2.30229E-05-1.20448E-18 5.35076E-18
 -1       321 1.25228E-05-4.87166E-05 1.21006E-05-7.12762E-06 1.35234E-18 4.58795E-18
 -1       322 9.25235E-05-1.45481E-05-3.34950E-05-1.09787E-05-1.53884E-18-3.01354E-18
 -1       323 9.70155E-05-1.95308E-05-3.32669E-05-1.28495E-05-2.04186E-18-1.98866E-18
 -1       324 8.74961E-05-9.57041E-06-3.34484E-05-6.30302E-06-3.13829E-19-3.54544E-18
 -1       325 8.59856E-05-8.21869E-06-3.33719E-05-4.21884E-06 1.92616E-19-3.48346E-18
 -1       326 8.49819E-05-7.35248E-06-3.33080E-05-2.36862E-06 7.89128E-19-3.20157E-18
 -1       327 8.44652E-05-6.91331E-06-3.32725E-05-6.80154E-07 1.23118E-18-2.91786E-18
 -1       328 8.44429E-05-6.88842E-06-3.32735E-05 9.40989E-07 1.68592E-18-2.65199E-18
 -1       329 8.49280E-05-7.28979E-06-3.33116E-05 2.59838E-06 2.05935E-18-2.32306E-18
 -1       330 8.59124E-05-8.13080E-06-3.33779E-05 4.36482E-06 2.42450E-18-1.84350E-18
 -1       331 8.74613E-05-9.51141E-06-3.34585E-05 6.38663E-06 2.77184E-18-9.71778E-19
 -1       332 8.96647E-05-1.15946E-05-3.35229E-05 8.66757E-06 2.99953E-18 3.28556E-21
 -1       333 9.28048E-05-1.47738E-05-3.35202E-05 1.10633E-05 3.08330E-18 1.33690E-18
 -1       334 9.71453E-05-1.98531E-05-3.32287E-05 1.25207E-05 2.68502E-18 3.69887E-18
 -1       335 1.00243E-04-2.49229E-05-3.23617E-05 1.03745E-05 2.21511E-18 5.79144E-18
 -1       336 9.84379E-05-2.73495E-05-3.04337E-05 4.07135E-06 1.84904E-18 4.81289E-18
 -1       337 9.83170E-05-2.64665E-05-3.07465E-05-4.41591E-06-1.60994E-18-1.41144E-18
 -1       338 9.74123E-05-2.75500E-05-2.99136E-05-5.96525E-07-1.48513E-18-1.42349E-18
 -1       339 9.71983E-05-2.81087E-05-2.95932E-05 1.73506E-06-1.13701E-18-1.31445E-18
 -1       340 9.76077E-05-2.85762E-05-2.95761E-05 3.27556E-06-7.73738E-19-1.54167E-18
 -1       341 9.85185E-05-2.90963E-05-2.97481E-05 4.31035E-06-5.11610E-19-1.45153E-18
 -1       342 9.98163E-05-2.97345E-05-3.00341E-05 4.93205E-06-3.82059E-19-1.40711E-18
 -1       343 1.01399E-04-3.05300E-05-3.03752E-05 5.10622E-06-3.35315E-19-1.44989E-18
 -1       344 1.03162E-04-3.15013E-05-3.07185E-05 4.70662E-06-7.11436E-19-1.40468E-18
 -1       345 1.04966E-04-3.26205E-05-3.10165E-05 3.55344E-06-5.12199E-19-1.42051E-18
 -1       346 1.06602E-04-3.37607E-05-3.12331E-05 1.48815E-06-2.73392E-19-1.17274E-18
 -1       347 1.07753E-04-3.46311E-05-3.13547E-05-1.48490E-06-4.05998E-19-8.96971E-19
 -1       348 1.07995E-04-3.47580E-05-3.14008E-05-4.98795E-06-3.46800E-19-5.32100E-19
 -1       349 1.06939E-04-3.36336E-05-3.14216E-05-8.07905E-06-5.63145E-19-7.65025E-19
 -1       350 1.04578E-04-3.11381E-05-3.14695E-05-9.33327E-06-8.92706E-19-1.18811E-18
 -1       351 1.01679E-04-2.80229E-05-3.15527E-05-7.51082E-06-9.26467E-19-1.84311E-18
 -1       352 9.97124E-05-2.58697E-05-3.16309E-05-2.63288E-06-7.25133E-19-2.04800E-18
 -1       353 9.98603E-05-2.59667E-05-3.16546E-05 3.47670E-06-1.39128E-19-2.31630E-18
 -1       354 1.02090E-04-2.82846E-05-3.16178E-05 8.19348E-06 1.24739E-20-2.73856E-18
 -1       355 1.05131E-04-3.14255E-05-3.15811E-05 9.81208E-06-3.02861E-19-2.75515E-18
 -1       356 1.07562E-04-3.38594E-05-3.15918E-05 8.43810E-06 4.35583E-19-2.99211E-18
 -1       357 1.08687E-04-3.49158E-05-3.16300E-05 5.36496E-06 8.95865E-19-1.64036E-18
 -1       358 1.08558E-04-3.47664E-05-3.16413E-05 1.98310E-06 5.90736E-19-2.05097E-18
 -1       359 1.07571E-04-3.39248E-05-3.15771E-05-8.21123E-07 7.97569E-19-2.55889E-18
 -1       360 1.06136E-04-3.28531E-05-3.14176E-05-2.71836E-06 1.69432E-18-2.43517E-18
 -1       361 1.04550E-04-3.18289E-05-3.11724E-05-3.74276E-06 3.01952E-19-4.71914E-19
 -1       362 1.02990E-04-3.09689E-05-3.08685E-05-4.08829E-06-1.33185E-20 9.92235E-19
 -1       363 1.01550E-04-3.02952E-05-3.05376E-05-3.97805E-06 4.30486E-19 2.78276E-19
 -1       364 1.00276E-04-2.97877E-05-3.02073E-05-3.60304E-06 2.29722E-19 5.87412E-19
 -1       365 9.91818E-05-2.94139E-05-2.98980E-05-3.10400E-06-4.17572E-19-3.42272E-19
 -1       366 9.82667E-05-2.91428E-05-2.96218E-05-2.57420E-06-5.54122E-20 9.98828E-20
 -1       367 9.75180E-05-2.89483E-05-2.93844E-05-2.06952E-06 5.62931E-19-2.35254E-19
 -1       368 9.69182E-05-2.88105E-05-2.91866E-05-1.61932E-06 4.56349E-19-1.22391E-18
 -1       369 9.64471E-05-2.87144E-05-2.90263E-05-1.23550E-06-1.61666E-18-1.14922E-18
 -1       370 9.60847E-05-2.86486E-05-2.88995E-05-9.19326E-07-2.82911E-19-4.45732E-19
 -1       371 9.58114E-05-2.86048E-05-2.88015E-05-6.66047E-07-6.21992E-19 3.72017E-19
 -1       372 9.56101E-05-2.85769E-05-2.87275E-05-4.68015E-07 3.54949E-19 4.56656E-19
 -1       373 9.54655E-05-2.85602E-05-2.86729E-05-3.16589E-07 9.34052E-20-1.08381E-20
 -1       374 9.53648E-05-2.85513E-05-2.86338E-05-2.03277E-07-7.86117E-19 1.79791E-18
 -1       375 9.52975E-05-2.85477E-05-2.86067E-05-1.20350E-07-1.10738E-18 2.26521E-18
 -1       376 9.52550E-05-2.85476E-05-2.85886E-05-6.11394E-08 9.20375E-19 1.49816E-18
 -1       377 9.52305E-05-2.85498E-05-2.85772E-05-2.01340E-08 2.37818E-18 1.61719E-18
 -1       378 9.52187E-05-2.85535E-05-2.85707E-05 7.02246E-09 5.21645E-19 2.77163E-19
 -1       379 9.52156E-05-2.85581E-05-2.85674E-05 2.35940E-08 4.81739E-19-1.32728E-18
 -1       380 9.52180E-05-2.85635E-05-2.85662E-05 3.18083E-08-6.20216E-20-8.48122E-19
 -1       381 9.52236E-05-2.85694E-05-2.85661E-05 3.30607E-08 8.62726E-19 2.44031E-19
 -1       382 9.52295E-05-2.85750E-05-2.85663E-05 2.85276E-08 6.81033E-19 1.36623E-19
 -1       383 9.72031E-05-2.80168E-05-2.96104E-05 4.93211E-07 1.47515E-18 4.03272E-18
 -1       384 9.69871E-05-2.83510E-05-2.93899E-05-1.69719E-06 1.10057E-18 3.30394E-18
 -1       385 9.76635E-05-2.87285E-05-2.95291E-05-3.22922E-06 5.19406E-19 2.87199E-18
 -1       386 9.90335E-05-2.92259E-05-2.99087E-05-4.42999E-06 4.15026E-19 2.59991E-18
 -1       387 1.00962E-04-2.98742E-05-3.04608E-05-5.42596E-06 3.57737E-19 2.80336E-18
 -1       388 1.03350E-04-3.07042E-05-3.11324E-05-6.20619E-06 6.75354E-19 2.58427E-18
 -1       389 1.06103E-04-3.17576E-05-3.18659E-05-6.62959E-06 7.11503E-19 2.31598E-18
 -1       390 1.09092E-04-3.30762E-05-3.25884E-05-6.41123E-06 9.08244E-20 2.25121E-18
 -1       391 1.12103E-04-3.46581E-05-3.32086E-05-5.13130E-06 3.91116E-19 2.36781E-18
 -1       392 1.14771E-04-3.63511E-05-3.36322E-05-2.34078E-06-1.58433E-19 2.29965E-18
 -1       393 1.16491E-04-3.76793E-05-3.38005E-05 2.12694E-06 2.23256E-19 2.27348E-18
 -1       394 1.16430E-04-3.77393E-05-3.37447E-05 7.58240E-06-9.01025E-19 2.71938E-18
 -1       395 1.13905E-04-3.55434E-05-3.36018E-05 1.19261E-05-1.77482E-19 3.80837E-18
 -1       396 1.09417E-04-3.12365E-05-3.35295E-05 1.20269E-05 6.12825E-19 3.61145E-18
 -1       397 1.05320E-04-2.70538E-05-3.35622E-05 6.20030E-06 2.18355E-18 2.62276E-18
 -1       398 1.04657E-04-2.62261E-05-3.36529E-05-3.36857E-06 2.12990E-18 1.93896E-18
 -1       399 1.08162E-04-2.96177E-05-3.36754E-05-1.10304E-05 4.37095E-19 1.01357E-18
 -1       400 1.13141E-04-3.43350E-05-3.37751E-05-1.30752E-05-3.42893E-19-3.02248E-19
 -1       401 1.16686E-04-3.74851E-05-3.39546E-05-9.86301E-06 8.17949E-20 3.05163E-20
 -1       402 1.17670E-04-3.81566E-05-3.41018E-05-4.51427E-06 1.14799E-18-7.60779E-21
 -1       403 1.16613E-04-3.71918E-05-3.40657E-05 3.71206E-07-7.94921E-19 4.24213E-19
 -1       404 1.14381E-04-3.56019E-05-3.37862E-05 3.67413E-06-2.49881E-18-8.94596E-20
 -1       405 1.11676E-04-3.40179E-05-3.32968E-05 5.34534E-06-1.67127E-18 8.20727E-19
 -1       406 1.08929E-04-3.26895E-05-3.26803E-05 5.80264E-06 2.24585E-19 1.61453E-18
 -1       407 1.06367E-04-3.16507E-05-3.20214E-05 5.52121E-06 1.32831E-18 2.94737E-18
 -1       408 1.04097E-04-3.08587E-05-3.13843E-05 4.87061E-06 9.90523E-19 2.06185E-18
 -1       409 1.02155E-04-3.02583E-05-3.08080E-05 4.09088E-06 1.64557E-18 1.45704E-18
 -1       410 1.00541E-04-2.98032E-05-3.03108E-05 3.31871E-06 8.13198E-19 1.49282E-18
 -1       411 9.92294E-05-2.94586E-05-2.98967E-05 2.62164E-06-9.91962E-19 2.16441E-18
 -1       412 9.81851E-05-2.91986E-05-2.95613E-05 2.02579E-06 1.02734E-18 1.70011E-18
 -1       413 9.73692E-05-2.90041E-05-2.92957E-05 1.53454E-06 4.72475E-19 2.48069E-18
 -1       414 9.67430E-05-2.88604E-05-2.90896E-05 1.14006E-06-5.39909E-19 1.66410E-18
 -1       415 9.62710E-05-2.87559E-05-2.89328E-05 8.29846E-07 1.83024E-18 2.01033E-18
 -1       416 9.59222E-05-2.86814E-05-2.88157E-05 5.90244E-07 1.24330E-18 3.97431E-18
 -1       417 9.56697E-05-2.86298E-05-2.87300E-05 4.08247E-07-9.00606E-19 1.92684E-18
 -1       418 9.54917E-05-2.85953E-05-2.86689E-05 2.72262E-07-5.48112E-19-1.48927E-19
 -1       419 9.53700E-05-2.85734E-05-2.86264E-05 1.72383E-07-1.33625E-18-9.59085E-21
 -1       420 9.52904E-05-2.85606E-05-2.85979E-05 1.00384E-07-1.11457E-18 9.41804E-19
 -1       421 9.52415E-05-2.85542E-05-2.85799E-05 4.96031E-08-1.29275E-18 1.76193E-18
 -1       422 9.52147E-05-2.85523E-05-2.85693E-05 1.47739E-08 5.92031E-19 9.43202E-19
 -1       423 9.52032E-05-2.85534E-05-2.85641E-05-8.14421E-09 2.68645E-18-4.97276E-19
 -1       424 9.52020E-05-2.85565E-05-2.85623E-05-2.21195E-08 2.86135E-18-6.87572E-19
 -1       425 9.52072E-05-2.85608E-05-2.85627E-05-2.91528E-08 2.10136E-18 3.25273E-19
 -1       426 9.52157E-05-2.85659E-05-2.85642E-05-3.03243E-08 3.17066E-20 6.41513E-19
 -1       427 9.52254E-05-2.85717E-05-2.85659E-05-2.59935E-08-1.67418E-18-5.57228E-19
 -1       428 9.52317E-05-2.85760E-05-2.85668E-05-2.10300E-08-4.21213E-19-8.49707E-19
 -1       429 9.52472E-05-2.85954E-05-2.85651E-05-2.89297E-08-1.51186E-18 4.10471E-19
 -1       430 9.52420E-05-2.85884E-05-2.85659E-05-3.09630E-08-1.77965E-18 6.99560E-19
 -1       431 9.52368E-05-2.85826E-05-2.85661E-05-2.80738E-08-1.82130E-18-7.35385E-19
 -1       432 9.52504E-05-2.86006E-05-2.85642E-05-2.37255E-08-2.10224E-18-1.00520E-18
 -1       433 9.52520E-05-2.86041E-05-2.85633E-05-1.70309E-08-4.63770E-19 1.69939E-18
 -1       434 9.52526E-05-2.86062E-05-2.85627E-05-9.98875E-09 6.05265E-19 6.91678E-19
 -1       435 9.52528E-05-2.86071E-05-2.85624E-05-3.05782E-09-1.74940E-18-1.63774E-19
 -1       436 9.52527E-05-2.86070E-05-2.85624E-05 3.73924E-09-1.54982E-18 1.85516E-18
 -1       437 9.52524E-05-2.86059E-05-2.85628E-05 1.05514E-08-1.64454E-18 1.95758E-19
 -1       438 9.52517E-05-2.86037E-05-2.85634E-05 1.72731E-08-9.59319E-19 4.99029E-20
 -1       439 9.52500E-05-2.86001E-05-2.85643E-05 2.37185E-08-4.38799E-19 5.81792E-19
 -1       440 9.52469E-05-2.85948E-05-2.85652E-05 2.87627E-08 1.15189E-18-2.09325E-18
 -1       441 9.52418E-05-2.85881E-05-2.85659E-05 3.09833E-08 8.80755E-19 3.64734E-19
 -1       442 6.57389E-05-4.37581E-05-9.38803E-06 4.27007E-05-9.91029E-20 3.65961E-18
 -1       443 1.19065E-05-2.26309E-05 4.37622E-06-1.40549E-06-3.62531E-19 3.63409E-18
 -1       444 2.35640E-05-2.40780E-05 3.73275E-07 2.35798E-05-1.67247E-18 4.44311E-18
 -1       445 1.00777E-04-5.44270E-05-1.99809E-05 3.95117E-05 1.21666E-18 2.04011E-18
 -1       446 1.33916E-04-5.43380E-05-3.41154E-05 2.57058E-05 3.51619E-18-1.14455E-18
 -1       447 8.95970E-05-1.15613E-05-3.35083E-05-8.62283E-06-9.52197E-19-3.48422E-18
 -1       448 1.60421E-04-2.67911E-05-5.71109E-05-2.44619E-06 5.40989E-18-3.34758E-18
 -1       449 1.62896E-04-1.56045E-05-6.28519E-05-1.75861E-06 5.40142E-18-1.04212E-18
 -1       450 1.54464E-04-1.47462E-05-5.99875E-05 3.89589E-06 3.23228E-18 7.69900E-19
 -1       451 1.57671E-04-3.31644E-05-5.34325E-05 1.05611E-06 1.86014E-18 1.61042E-19
 -1       452 1.49097E-04-5.04367E-05-4.23079E-05-1.10756E-05-1.05575E-19-1.03412E-18
 -1       453 1.22734E-04-5.67190E-05-2.83321E-05-3.24151E-05-7.13625E-19-1.45753E-18
 -1       454 8.10379E-05-4.95176E-05-1.37262E-05-4.31110E-05-6.50415E-19-2.14863E-18
 -1       455 4.43368E-05-3.78033E-05-3.11195E-06-3.78438E-05-1.05921E-18-3.99408E-18
 -1       456 1.78860E-05-2.41948E-05 2.60749E-06-1.76287E-05-8.34116E-19-4.98362E-18
 -1       457 1.44315E-05-2.04193E-05 2.71165E-06 8.00211E-06-6.91933E-19-5.43859E-18
 -1       458 3.75777E-05-3.37232E-05-1.83128E-06 3.62859E-05-1.30252E-18-4.74307E-18
 -1       459 7.01062E-05-4.55066E-05-1.06942E-05 4.47316E-05-1.14974E-18-4.27259E-18
 -1       460 1.13276E-04-5.50243E-05-2.49390E-05 3.70157E-05-2.27884E-18-5.80429E-19
 -1       461 1.39422E-04-5.12839E-05-3.77760E-05 2.12662E-05-4.18810E-18 2.47863E-19
 -1       462 1.53068E-04-3.68514E-05-4.98221E-05 4.96885E-06-5.12439E-18 1.12041E-18
 -1       463 1.57109E-04-1.72037E-05-5.98581E-05-6.97585E-07-6.25597E-18 1.18288E-18
 -1       464 1.60278E-04-1.30924E-05-6.27456E-05 2.89258E-07-5.90456E-18 1.31531E-18
 -1       465 1.58160E-04-1.97717E-05-5.91397E-05 9.93146E-07-3.79407E-18 1.84505E-18
 -1       466 1.56062E-04-3.39435E-05-5.21413E-05-6.49548E-06-2.61516E-18 2.28540E-18
 -1       467 1.43697E-04-4.69816E-05-4.13555E-05-1.90170E-05-1.44718E-18 1.91112E-18
 -1       468 1.20173E-04-5.29775E-05-2.88216E-05-3.36466E-05-2.02759E-19 2.29091E-18
 -1       469 8.67303E-05-4.93266E-05-1.61776E-05-4.32831E-05 1.18309E-18 2.09643E-18
 -1       470 5.36214E-05-3.94710E-05-6.24186E-06-4.15350E-05 4.01599E-19 3.23699E-18
 -1       471 1.97297E-05-2.60061E-05 2.41105E-06-2.28585E-05 2.94397E-19 6.45323E-18
 -1       472 1.54744E-04-4.32432E-05-4.75784E-05 1.16877E-05 4.67186E-18-2.74873E-18
 -1       473 5.06337E-05-3.06296E-05-8.07186E-06 3.68769E-05-2.76059E-18 4.16031E-18
 -1       474 4.32764E-05-2.91614E-05-5.69324E-06-3.74636E-05 8.21251E-19 5.24890E-18
 -1       475 1.43351E-04-2.48612E-05-5.12064E-05-8.38046E-06-4.86996E-18 2.11065E-18
 -1       476 3.00846E-05-2.07812E-05-3.52570E-06 2.59154E-05 6.04729E-19-4.79675E-18
 -1       477 9.75703E-05-2.53064E-05-3.09551E-05 3.45467E-06 2.14104E-18 2.02463E-18
 -1       478 8.75109E-05-1.13437E-05-3.26597E-05-2.38666E-06 5.25294E-19-2.89598E-18
 -1       479 8.89947E-05-1.28337E-05-3.26599E-05-3.84596E-06 2.11613E-21-3.03948E-18
 -1       480 8.62477E-05-1.01187E-05-3.26413E-05 1.63469E-07 1.39746E-18-2.46589E-18
 -1       481 8.65106E-05-1.03633E-05-3.26495E-05 1.36146E-06 1.80787E-18-2.12376E-18
 -1       482 8.73689E-05-1.11875E-05-3.26656E-05 2.58779E-06 2.11576E-18-1.87180E-18
 -1       483 8.88517E-05-1.26648E-05-3.26705E-05 3.93782E-06 2.51139E-18-1.21432E-18
 -1       484 9.09441E-05-1.48710E-05-3.26247E-05 5.37130E-06 2.67089E-18-4.15912E-19
 -1       485 9.37093E-05-1.80082E-05-3.24632E-05 6.74739E-06 2.75610E-18 5.62539E-19
 -1       486 9.73599E-05-2.66899E-05-3.02671E-05-2.62802E-07 1.68466E-18 1.71019E-18
 -1       487 9.68985E-05-2.44396E-05-3.10433E-05-3.18543E-06-1.26115E-18-2.07989E-18
 -1       488 1.44952E-04-5.46024E-05-3.89229E-05 4.07186E-06 2.78090E-18-4.69812E-18
 -1       489 9.70677E-05-2.61857E-05-3.03686E-05 2.49634E-07-1.16393E-18-1.64200E-18
 -1       490 9.72311E-05-2.72008E-05-3.00086E-05 2.72843E-06-8.53753E-19-1.29353E-18
 -1       491 9.76299E-05-2.79403E-05-2.98645E-05 4.50414E-06-6.65830E-19-1.11950E-18
 -1       492 9.83481E-05-2.86735E-05-2.98595E-05 5.74655E-06-5.58213E-19-1.23320E-18
 -1       493 9.94236E-05-2.95699E-05-2.99377E-05 6.49454E-06-6.15368E-19-1.43501E-18
 -1       494 1.00893E-04-3.07619E-05-3.00585E-05 6.67511E-06-4.02488E-19-1.48466E-18
 -1       495 1.02792E-04-3.23378E-05-3.01989E-05 6.11851E-06-4.15157E-19-1.05134E-18
 -1       496 1.05103E-04-3.42769E-05-3.03607E-05 4.58979E-06 6.59530E-20-4.82166E-19
 -1       497 1.07660E-04-3.63248E-05-3.05809E-05 1.87307E-06 2.04481E-20-1.12213E-19
 -1       498 1.10009E-04-3.78441E-05-3.09372E-05-2.03724E-06 9.38002E-20 2.03540E-19
 -1       499 1.11340E-04-3.77925E-05-3.15289E-05-6.59878E-06-6.08266E-19 2.47020E-19
 -1       500 1.10758E-04-3.51532E-05-3.24089E-05-1.03485E-05-1.10906E-18 3.65492E-19
 -1       501 1.08071E-04-3.00038E-05-3.34701E-05-1.10574E-05-1.56970E-18 9.67197E-20
 -1       502 1.04759E-04-2.45603E-05-3.43808E-05-7.03305E-06-1.18279E-18-5.05015E-19
 -1       503 1.03291E-04-2.22592E-05-3.47537E-05 5.57319E-07-8.07540E-19-1.22700E-18
 -1       504 1.05051E-04-2.48927E-05-3.43754E-05 8.05469E-06-9.91158E-19-1.60360E-18
 -1       505 1.08488E-04-3.04412E-05-3.34545E-05 1.17266E-05 2.25605E-20-1.82017E-18
 -1       506 1.11108E-04-3.54407E-05-3.24365E-05 1.07868E-05 4.24995E-19-1.29279E-18
 -1       507 1.11609E-04-3.78603E-05-3.16178E-05 7.00933E-06 8.81339E-19-8.34606E-19
 -1       508 1.10255E-04-3.77564E-05-3.10820E-05 2.57499E-06 6.00884E-19-1.28678E-18
 -1       509 1.07957E-04-3.61841E-05-3.07693E-05-1.14263E-06 3.55788E-19-4.54772E-19
 -1       510 1.05498E-04-3.41646E-05-3.05778E-05-3.66723E-06 1.40905E-18-4.34868E-19
 -1       511 1.03296E-04-3.23088E-05-3.04266E-05-5.05293E-06 1.76008E-18-9.76972E-19
 -1       512 1.01486E-04-3.08558E-05-3.02714E-05-5.55742E-06 8.04015E-19-7.68546E-19
 -1       513 1.00055E-04-2.98269E-05-3.00979E-05-5.46444E-06-3.09661E-19-5.68963E-19
 -1       514 9.89412E-05-2.91513E-05-2.99091E-05-5.01341E-06-7.95156E-20-6.54252E-19
 -1       515 9.80744E-05-2.87370E-05-2.97148E-05-4.38217E-06-5.92684E-19-8.66785E-19
 -1       516 9.73983E-05-2.85017E-05-2.95257E-05-3.69173E-06 1.69488E-19 1.91253E-19
 -1       517 9.68696E-05-2.83827E-05-2.93502E-05-3.01799E-06 1.32905E-19 3.29945E-19
 -1       518 9.64565E-05-2.83353E-05-2.91936E-05-2.40386E-06-9.22592E-20-8.59422E-19
 -1       519 9.61352E-05-2.83297E-05-2.90585E-05-1.86963E-06-1.59440E-19 1.95159E-20
 -1       520 9.58872E-05-2.83467E-05-2.89451E-05-1.42095E-06 6.33494E-21 1.00190E-18
 -1       521 9.56980E-05-2.83743E-05-2.88523E-05-1.05470E-06-6.54068E-20 1.64740E-18
 -1       522 9.55556E-05-2.84053E-05-2.87782E-05-7.62901E-07-6.60773E-19 1.73429E-18
 -1       523 9.54503E-05-2.84357E-05-2.87201E-05-5.35472E-07-6.52227E-19 8.98979E-19
 -1       524 9.53739E-05-2.84633E-05-2.86757E-05-3.61855E-07 7.05612E-20 3.59629E-19
 -1       525 9.53200E-05-2.84873E-05-2.86424E-05-2.32032E-07-3.52123E-19 8.50070E-19
 -1       526 9.52832E-05-2.85075E-05-2.86180E-05-1.37060E-07-6.68355E-19 2.65203E-18
 -1       527 9.52591E-05-2.85242E-05-2.86006E-05-6.93138E-08 1.03352E-18 2.73366E-18
 -1       528 9.52445E-05-2.85380E-05-2.85884E-05-2.25525E-08 5.48271E-20 3.60472E-19
 -1       529 9.52366E-05-2.85495E-05-2.85802E-05 8.11090E-09-7.02115E-19 1.06474E-18
 -1       530 9.52335E-05-2.85595E-05-2.85746E-05 2.63404E-08 9.58865E-19-3.31742E-19
 -1       531 9.52338E-05-2.85688E-05-2.85707E-05 3.46189E-08 1.36830E-18 1.68864E-18
 -1       532 9.78639E-05-2.79262E-05-2.99666E-05-4.94312E-06 6.58212E-19 1.22829E-18
 -1       533 9.87144E-05-2.84105E-05-3.01260E-05-6.59385E-06 4.75237E-19 1.08435E-18
 -1       534 9.99657E-05-2.90269E-05-3.03999E-05-7.95638E-06 5.57347E-19 8.52509E-19
 -1       535 1.01647E-04-2.99338E-05-3.07345E-05-8.97902E-06 7.12570E-19 1.09739E-18
 -1       536 1.03843E-04-3.13276E-05-3.10820E-05-9.45713E-06 4.31221E-19 1.34055E-18
 -1       537 1.06685E-04-3.34216E-05-3.14080E-05-9.01121E-06 1.68356E-19 1.40443E-18
 -1       538 1.10286E-04-3.63188E-05-3.17158E-05-7.09311E-06 9.57337E-20 1.35426E-18
 -1       539 1.14522E-04-3.97037E-05-3.20857E-05-3.11108E-06-9.43722E-20 1.76096E-18
 -1       540 1.18620E-04-4.23501E-05-3.27126E-05 3.13986E-06-1.01126E-18 2.34242E-18
 -1       541 1.20891E-04-4.19592E-05-3.38686E-05 1.05146E-05-9.03277E-19 2.52585E-18
 -1       542 1.19433E-04-3.63828E-05-3.56442E-05 1.55114E-05 7.26309E-19 1.98317E-18
 -1       543 1.14455E-04-2.69221E-05-3.76777E-05 1.30173E-05 2.01947E-18 1.58049E-18
 -1       544 1.11167E-04-2.14296E-05-3.85890E-05 1.90992E-06 2.35601E-18 2.14101E-18
 -1       545 1.12160E-04-2.39311E-05-3.81135E-05-1.07248E-05 2.03007E-18 1.17998E-18
 -1       546 1.18335E-04-3.36017E-05-3.63617E-05-1.62418E-05 1.11084E-18 4.89957E-19
 -1       547 1.21266E-04-4.08805E-05-3.45013E-05-1.32722E-05 5.96985E-19-2.58468E-19
 -1       548 1.20087E-04-4.27301E-05-3.31791E-05-6.21470E-06 4.30844E-19-2.25230E-18
 -1       549 1.16522E-04-4.08296E-05-3.24573E-05 5.24691E-07-4.81106E-19-9.79862E-19
 -1       550 1.12342E-04-3.75295E-05-3.20800E-05 5.17069E-06-1.22879E-18-1.66096E-19
 -1       551 1.08633E-04-3.44384E-05-3.18095E-05 7.60763E-06-1.90237E-18-8.58330E-19
 -1       552 1.05685E-04-3.21343E-05-3.15271E-05 8.38591E-06-1.40379E-18-1.53854E-18
 -1       553 1.03413E-04-3.06113E-05-3.12017E-05 8.12704E-06 2.86262E-19-8.71061E-19
 -1       554 1.01654E-04-2.96750E-05-3.08460E-05 7.31376E-06 9.41701E-19 3.45042E-20
 -1       555 1.00266E-04-2.91256E-05-3.04853E-05 6.27001E-06 6.45904E-19 9.27775E-19
 -1       556 9.91545E-05-2.88134E-05-3.01425E-05 5.19161E-06 1.39108E-18 1.93079E-18
 -1       557 9.82588E-05-2.86407E-05-2.98329E-05 4.18505E-06 5.95355E-19 1.09703E-18
 -1       558 9.75378E-05-2.85482E-05-2.95639E-05 3.29975E-06-5.95533E-19-3.27452E-19
 -1       559 9.69619E-05-2.85016E-05-2.93376E-05 2.55121E-06 3.51760E-20 8.03164E-19
 -1       560 9.65072E-05-2.84812E-05-2.91520E-05 1.93617E-06-3.10165E-19 2.01897E-18
 -1       561 9.61532E-05-2.84757E-05-2.90030E-05 1.44209E-06 8.26097E-20 3.11760E-18
 -1       562 9.58821E-05-2.84786E-05-2.88859E-05 1.05265E-06 8.66860E-19 3.94398E-18
 -1       563 9.56781E-05-2.84862E-05-2.87956E-05 7.50895E-07 1.97298E-18 3.75794E-18
 -1       564 9.55278E-05-2.84960E-05-2.87272E-05 5.20876E-07 1.27984E-18 1.64153E-18
 -1       565 9.54194E-05-2.85066E-05-2.86764E-05 3.48382E-07-1.01366E-18 2.73143E-19
 -1       566 9.53436E-05-2.85171E-05-2.86396E-05 2.21231E-07-2.11457E-18-2.01954E-19
 -1       567 9.52925E-05-2.85271E-05-2.86135E-05 1.29271E-07-1.85302E-18-4.54347E-19
 -1       568 9.52596E-05-2.85363E-05-2.85956E-05 6.42590E-08 3.78080E-19-2.28275E-18
 -1       569 9.52402E-05-2.85447E-05-2.85837E-05 1.96773E-08 1.65995E-18-2.07331E-18
 -1       570 9.52302E-05-2.85523E-05-2.85762E-05-9.46443E-09 2.04530E-18-6.55991E-20
 -1       571 9.52268E-05-2.85596E-05-2.85716E-05-2.68282E-08 1.68283E-18 9.40371E-19
 -1       572 9.52277E-05-2.85668E-05-2.85690E-05-3.49977E-08 1.90349E-18-2.88866E-19
 -1       573 9.52316E-05-2.85745E-05-2.85674E-05-3.54358E-08-9.60197E-19 3.19138E-20
 -1       574 9.52494E-05-2.85810E-05-2.85722E-05-2.15702E-08 9.87738E-19 3.60105E-19
 -1       575 9.52493E-05-2.85796E-05-2.85727E-05-1.38561E-08 5.28685E-19 2.36735E-18
 -1       576 9.52431E-05-2.85803E-05-2.85698E-05-3.44171E-08-9.47082E-19 9.38607E-19
 -1       577 9.52477E-05-2.85815E-05-2.85712E-05-2.88627E-08-8.27689E-19-6.38391E-19
 -1       578 9.52486E-05-2.85783E-05-2.85730E-05-6.48845E-09 9.32883E-20-3.41253E-18
 -1       579 9.52482E-05-2.85777E-05-2.85731E-05 4.64210E-10-4.74030E-19-2.04338E-19
 -1       580 9.52484E-05-2.85780E-05-2.85730E-05 7.32688E-09-1.58708E-18 2.17446E-18
 -1       581 9.52489E-05-2.85792E-05-2.85727E-05 1.43510E-08-4.82016E-19-4.52822E-19
 -1       582 9.52489E-05-2.85804E-05-2.85722E-05 2.17847E-08-6.39809E-19-3.53995E-19
 -1       583 9.52473E-05-2.85809E-05-2.85713E-05 2.88483E-08 4.96777E-19 9.95417E-19
 -1       584 9.52426E-05-2.85795E-05-2.85699E-05 3.38030E-08 7.81375E-19-6.99707E-19
 -1       585 2.77099E-05-1.30387E-05-5.57454E-06 8.00285E-06-1.11411E-18 2.51357E-18
 -1       586 9.68894E-05-5.25044E-05-1.87581E-05 3.80338E-05-3.59438E-18-5.52438E-19
 -1       587 9.74181E-05-2.74258E-05-2.99853E-05-2.91405E-06 1.15583E-18 1.40285E-18
 -1       588 1.47553E-04-3.78182E-05-4.74240E-05-9.65267E-06 4.25629E-18-2.54285E-18
 -1       589 1.14658E-04-5.82241E-05-2.40705E-05-3.29481E-05 3.15250E-18 9.98784E-19
 -1       590 4.24027E-05-2.57474E-05-6.61896E-06-3.26415E-05-1.59899E-18-3.67374E-18
 -1       591 8.65893E-05-1.04484E-05-3.26469E-05-1.06291E-06 1.06494E-18-2.77727E-18
 -1       592 1.31105E-04-9.61917E-06-5.26560E-05-8.16360E-07 3.22540E-18 2.56184E-18
 -1       593 1.32168E-04-5.99162E-05-3.09878E-05 2.00220E-05-7.76676E-19 2.36645E-18
 -1       594 1.36351E-04-1.68805E-05-5.18294E-05-1.07971E-05 4.25555E-18 6.92952E-19
 -1       595 1.35758E-04-2.31378E-05-4.89072E-05 1.41654E-05 2.17206E-18 3.41852E-18
 -1       596 1.44978E-04-4.40006E-05-4.36583E-05 8.92353E-06-2.24993E-21 1.42714E-18
 -1       597 1.38667E-04-6.07256E-05-3.35449E-05-1.18011E-05-2.03313E-18-4.90114E-19
 -1       598 1.12244E-04-5.90054E-05-2.26580E-05-3.46395E-05-1.87882E-18-6.93852E-19
 -1       599 7.00178E-05-4.14920E-05-1.18904E-05-4.20980E-05-2.18704E-18-1.81562E-18
 -1       600 2.60845E-05-1.36910E-05-4.63530E-06-6.61333E-06-2.21856E-19-4.66080E-18
 -1       601 6.55038E-05-3.75258E-05-1.15031E-05 4.24041E-05 1.33826E-18-2.81967E-18
 -1       602 1.41645E-04-2.62573E-05-4.99542E-05 9.74678E-06-1.66288E-18-1.35059E-18
 -1       603 1.01777E-04-5.49473E-05-1.98798E-05 3.94681E-05 7.95311E-19-2.86574E-19
 -1       604 1.42339E-04-4.86699E-05-4.04106E-05 2.72082E-07-2.51380E-18 2.50462E-18
 -1       605 1.35347E-04-9.24790E-06-5.46445E-05-4.04674E-06-5.51831E-18 1.57940E-18
 -1       606 1.33099E-04-9.35123E-06-5.35888E-05 5.89149E-06-4.11033E-18-8.25884E-19
 -1       607 1.42918E-04-4.44341E-05-4.25343E-05 3.18740E-06 1.24276E-19-1.15535E-18
 -1       608 1.36337E-04-5.78751E-05-3.37424E-05-1.43909E-05 2.16719E-18-4.75609E-19
 -1       609 8.18202E-05-4.65867E-05-1.47719E-05-4.34304E-05 2.08884E-18 2.79759E-19
 -1       610 2.67729E-05-1.36290E-05-4.90996E-06-1.17931E-05-9.98606E-19 4.37143E-18
 -1       611 9.56832E-05-2.07980E-05-3.21118E-05-7.12551E-06-1.50369E-18-2.48213E-18
 -1       612 9.77013E-05-2.34849E-05-3.18095E-05 7.43154E-06 2.45871E-18 2.73873E-18
 -1       613 1.27265E-04-6.18273E-05-2.80444E-05 2.38269E-05-7.14896E-19-3.27103E-18
 -1       614 9.10070E-05-1.49743E-05-3.26072E-05-5.37342E-06-6.28861E-19-3.06045E-18
 -1       615 7.82382E-05-3.98852E-05-1.60296E-05 3.74957E-05-4.65881E-18-2.04823E-19
 -1       616 1.36414E-04-3.67208E-05-4.31283E-05-1.04964E-05-3.32182E-18 3.30255E-18
 -1       617 4.33439E-05-1.80987E-05-1.02091E-05 2.28068E-05-2.22984E-18 2.93163E-18
 -1       618 1.29102E-04-1.56765E-05-4.91262E-05-1.05662E-05-5.29872E-18 2.62117E-18
 -1       619 9.52353E-05-2.85752E-05-2.85686E-05 3.55619E-08 5.00406E-19 2.86114E-18
 -1       620 9.31902E-05-1.75298E-05-3.24458E-05-6.48631E-06-1.05707E-18-2.96996E-18
 -1       621 3.26600E-05-1.30452E-05-7.80394E-06 1.01496E-05 8.61294E-19-4.73179E-18
 -1       622 8.83352E-05-1.36476E-05-3.20137E-05 1.17030E-06 1.76750E-18-1.68589E-18
 -1       623 8.77301E-05-1.30409E-05-3.20141E-05 5.32803E-07 1.43397E-18-1.97373E-18
 -1       624 9.14666E-05-1.69750E-05-3.19301E-05 2.53521E-06 2.32674E-18-6.54043E-19
 -1       625 9.37861E-05-1.97298E-05-3.17456E-05 3.10893E-06 2.39805E-18 2.33483E-20
 -1       626 9.61481E-05-2.34913E-05-3.11290E-05 1.89960E-06 2.14922E-18 7.12751E-19
 -1       627 1.31772E-04-2.92923E-05-4.43267E-05-1.69504E-05 3.13328E-18 1.25385E-18
 -1       628 6.79350E-05-3.41931E-05-1.40655E-05-3.81433E-05 1.80916E-18-8.54471E-19
 -1       629 1.34049E-04-5.21438E-05-3.53314E-05 1.89804E-06 1.41267E-18-1.25914E-18
 -1       630 9.60834E-05-2.48638E-05-3.05205E-05 1.43907E-06-6.53554E-19-1.67832E-18
 -1       631 9.64001E-05-2.61137E-05-3.01219E-05 3.78359E-06-6.66672E-19-1.26692E-18
 -1       632 9.67741E-05-2.70825E-05-2.98672E-05 5.60228E-06-6.21673E-19-1.21674E-18
 -1       633 9.73943E-05-2.80853E-05-2.97037E-05 6.96732E-06-4.93198E-19-1.07184E-18
 -1       634 9.84243E-05-2.93685E-05-2.95957E-05 7.87751E-06-2.60897E-19-6.27356E-19
 -1       635 1.00049E-04-3.11536E-05-2.95277E-05 8.23585E-06-3.60402E-20 2.71961E-20
 -1       636 1.02461E-04-3.35963E-05-2.95155E-05 7.82899E-06 9.53918E-20 4.43808E-19
 -1       637 1.05775E-04-3.66634E-05-2.96226E-05 6.31938E-06 1.78741E-19 2.84226E-19
 -1       638 1.09837E-04-3.98965E-05-2.99795E-05 3.29714E-06-8.36263E-20-4.27115E-21
 -1       639 1.13909E-04-4.21052E-05-3.07831E-05-1.46550E-06-2.23068E-19 7.23245E-20
 -1       640 1.16524E-04-4.13446E-05-3.22393E-05-7.39885E-06-4.77453E-19 3.08777E-19
 -1       641 1.15726E-04-3.59234E-05-3.42128E-05-1.19876E-05-1.26204E-18 6.65379E-19
 -1       642 1.12014E-04-2.65256E-05-3.66715E-05-1.22465E-05-2.16524E-18 4.41059E-19
 -1       643 1.06825E-04-1.80959E-05-3.83317E-05-4.58324E-06-2.03424E-18-6.47682E-19
 -1       644 1.07554E-04-1.88637E-05-3.81676E-05 5.98065E-06-9.69767E-19-1.26803E-18
 -1       645 1.12062E-04-2.68952E-05-3.65886E-05 1.29379E-05-2.08828E-19-5.81925E-19
 -1       646 1.16145E-04-3.61839E-05-3.43087E-05 1.27535E-05 1.64654E-19-1.97554E-19
 -1       647 1.16535E-04-4.13705E-05-3.22226E-05 7.78500E-06 5.71885E-19-5.25460E-19
 -1       648 1.13774E-04-4.18733E-05-3.08136E-05 1.93150E-06 8.16608E-19-5.17087E-19
 -1       649 1.09619E-04-3.95171E-05-3.00437E-05-2.63868E-06 9.59042E-19-9.14583E-20
 -1       650 1.05561E-04-3.62678E-05-2.96981E-05-5.45156E-06 3.52056E-19-1.15869E-19
 -1       651 1.02278E-04-3.32730E-05-2.95749E-05-6.80451E-06 9.69000E-19-8.09667E-19
 -1       652 9.98906E-05-3.09693E-05-2.95387E-05-7.15111E-06 9.02781E-19-1.12172E-18
 -1       653 9.82629E-05-2.93938E-05-2.95160E-05-6.87298E-06 4.32971E-19-6.69270E-19
 -1       654 9.71971E-05-2.84207E-05-2.94759E-05-6.24446E-06 1.11771E-19-8.07156E-19
 -1       655 9.65151E-05-2.78875E-05-2.94119E-05-5.45027E-06 6.67321E-20 7.31966E-19
 -1       656 9.60827E-05-2.76495E-05-2.93285E-05-4.61025E-06 7.27039E-19 9.78750E-19
 -1       657 9.58078E-05-2.75953E-05-2.92338E-05-3.79864E-06 9.51546E-20 6.95723E-19
 -1       658 9.56306E-05-2.76464E-05-2.91359E-05-3.05805E-06 9.64864E-20 8.06734E-19
 -1       659 9.55140E-05-2.77506E-05-2.90412E-05-2.40939E-06-1.53674E-19 1.12047E-18
 -1       660 9.54351E-05-2.78751E-05-2.89541E-05-1.85909E-06 1.24062E-20 9.23528E-19
 -1       661 9.53803E-05-2.80004E-05-2.88769E-05-1.40442E-06-1.93267E-19-2.46392E-19
 -1       662 9.53412E-05-2.81158E-05-2.88107E-05-1.03733E-06-4.00638E-19 3.05890E-19
 -1       663 9.53128E-05-2.82166E-05-2.87554E-05-7.47061E-07-8.23289E-19 2.05457E-18
 -1       664 9.52918E-05-2.83012E-05-2.87102E-05-5.22029E-07-3.04202E-19 9.12582E-19
 -1       665 9.52763E-05-2.83700E-05-2.86741E-05-3.50918E-07-6.46385E-19 3.08948E-19
 -1       666 9.52649E-05-2.84247E-05-2.86457E-05-2.23378E-07 6.31224E-19 1.72593E-18
 -1       667 9.52564E-05-2.84673E-05-2.86239E-05-1.30378E-07 6.41980E-19 2.08772E-18
 -1       668 9.52504E-05-2.85000E-05-2.86073E-05-6.43305E-08 2.11881E-19 1.08581E-18
 -1       669 9.52462E-05-2.85251E-05-2.85947E-05-1.90881E-08-7.25787E-19 1.85174E-18
 -1       670 9.52436E-05-2.85447E-05-2.85852E-05 1.00609E-08-6.05996E-19 2.30138E-18
 -1       671 9.52423E-05-2.85608E-05-2.85778E-05 2.66792E-08 1.30659E-18 1.29309E-18
 -1       672 9.70396E-05-2.70713E-05-2.99851E-05-8.16150E-06 7.19985E-19 1.80717E-19
 -1       673 1.34716E-04-5.54536E-05-3.40921E-05 3.66869E-06-5.39056E-19 3.29131E-18
 -1       674 9.66782E-05-2.65717E-05-3.00439E-05-6.29185E-06 8.10131E-19 3.57519E-19
 -1       675 9.88776E-05-2.89445E-05-2.99716E-05-1.10633E-05 2.94240E-19 3.76131E-19
 -1       676 1.00872E-04-3.10001E-05-2.99469E-05-1.18690E-05 4.07063E-19 2.52637E-19
 -1       677 1.04158E-04-3.43388E-05-2.99259E-05-1.18033E-05 8.94828E-20 4.94073E-19
 -1       678 1.09231E-04-3.91556E-05-3.00358E-05-1.01933E-05-2.87666E-19 6.24081E-19
 -1       679 1.16195E-04-4.48422E-05-3.05870E-05-6.05678E-06-7.61205E-19 1.21554E-18
 -1       680 1.23831E-04-4.88557E-05-3.21381E-05 1.41877E-06-1.60452E-18 1.51293E-18
 -1       681 1.28562E-04-4.64424E-05-3.52781E-05 1.10516E-05-6.97810E-20 1.71490E-18
 -1       682 1.20925E-04-1.81798E-05-4.45092E-05 1.04576E-05 1.89799E-18 2.50071E-18
 -1       683 1.25571E-04-4.84693E-05-3.31016E-05-5.40855E-06 1.32708E-18-8.94670E-20
 -1       684 1.19136E-04-4.65918E-05-3.10672E-05 3.13981E-06-2.13045E-19-1.77384E-19
 -1       685 1.11575E-04-4.09240E-05-3.02796E-05 8.23803E-06-1.33969E-18-1.85596E-19
 -1       686 1.05852E-04-3.56679E-05-3.00822E-05 1.04779E-05-1.96745E-18 1.20075E-18
 -1       687 1.02056E-04-3.18730E-05-3.00807E-05 1.08755E-05-1.25950E-18 1.69288E-18
 -1       688 9.97129E-05-2.95117E-05-3.00868E-05 1.02767E-05-1.21095E-18 1.19357E-18
 -1       689 9.83068E-05-2.82154E-05-3.00387E-05 9.18721E-06 1.88456E-19 1.35531E-18
 -1       690 9.74524E-05-2.76069E-05-2.99327E-05 7.90891E-06 2.84393E-19 2.68085E-18
 -1       691 9.69058E-05-2.74010E-05-2.97865E-05 6.61682E-06 7.04708E-19 1.05582E-18
 -1       692 9.65286E-05-2.74102E-05-2.96210E-05 5.40833E-06 2.28726E-18 1.30173E-18
 -1       693 9.62479E-05-2.75214E-05-2.94531E-05 4.33232E-06 1.24213E-18-1.20424E-19
 -1       694 9.60273E-05-2.76710E-05-2.92946E-05 3.40727E-06-8.41217E-19-8.94190E-19
 -1       695 9.58491E-05-2.78253E-05-2.91523E-05 2.63318E-06-9.49525E-19-1.21252E-18
 -1       696 9.57041E-05-2.79681E-05-2.90291E-05 1.99962E-06-8.37099E-19-7.20038E-19
 -1       697 9.55871E-05-2.80930E-05-2.89256E-05 1.49090E-06 2.39153E-20-5.32148E-19
 -1       698 9.54939E-05-2.81982E-05-2.88406E-05 1.08943E-06 1.28620E-18-1.07261E-18
 -1       699 9.54210E-05-2.82847E-05-2.87724E-05 7.77758E-07 1.87070E-18 9.55826E-19
 -1       700 9.53653E-05-2.83545E-05-2.87187E-05 5.39654E-07 5.57879E-19 2.62309E-18
 -1       701 9.53235E-05-2.84098E-05-2.86772E-05 3.60720E-07-3.41464E-19 1.52433E-18
 -1       702 9.52931E-05-2.84531E-05-2.86456E-05 2.28586E-07-8.40012E-19-1.66494E-18
 -1       703 9.52716E-05-2.84867E-05-2.86220E-05 1.32922E-07 5.65423E-19-3.46281E-18
 -1       704 9.52570E-05-2.85124E-05-2.86047E-05 6.53203E-08 1.09148E-18-4.29660E-18
 -1       705 9.52476E-05-2.85323E-05-2.85922E-05 1.91652E-08 3.71098E-19-4.15416E-18
 -1       706 9.52421E-05-2.85480E-05-2.85832E-05-1.06440E-08 8.46602E-19-2.60163E-18
 -1       707 9.52398E-05-2.85610E-05-2.85766E-05-2.78408E-08 1.70830E-18-9.41271E-19
 -1       708 9.52413E-05-2.85702E-05-2.85733E-05-3.34635E-08 5.48645E-19 4.80930E-19
 -1       709 1.17282E-04-5.70271E-05-2.57239E-05 2.34044E-05-2.71156E-18-1.52659E-18
 -1       710 9.52429E-05-2.85473E-05-2.85839E-05-1.78066E-09 4.32309E-19-9.57132E-19
 -1       711 9.52421E-05-2.85705E-05-2.85736E-05 3.21820E-08 1.65574E-18-1.12747E-18
 -1       712 9.52467E-05-2.85558E-05-2.85818E-05-1.34256E-08 3.60631E-19 5.51803E-19
 -1       713 9.52428E-05-2.85471E-05-2.85838E-05 2.89605E-09-3.49112E-19-4.57466E-19
 -1       714 9.52446E-05-2.85504E-05-2.85832E-05-7.02077E-09-7.24654E-19-1.54675E-19
 -1       715 9.52441E-05-2.85500E-05-2.85832E-05 7.82426E-09-1.93654E-18 1.77569E-18
 -1       716 9.52460E-05-2.85552E-05-2.85818E-05 1.39107E-08-5.53624E-19 3.42809E-19
 -1       717 9.52469E-05-2.85611E-05-2.85796E-05 2.10336E-08 5.97905E-19 1.73640E-18
 -1       718 9.51312E-05-2.16331E-05-3.14951E-05-3.29317E-06-1.10727E-18-2.37344E-18
 -1       719 1.18921E-04-9.47999E-06-4.75010E-05 1.16616E-07-3.11163E-18-7.84564E-20
 -1       720 1.28092E-04-5.84487E-05-2.98193E-05-1.44514E-05 3.00286E-18-1.19392E-19
 -1       721 1.19809E-04-5.83421E-05-2.62964E-05 2.44766E-05 5.63833E-19 1.99111E-18
 -1       722 3.93974E-05-1.13952E-05-1.14752E-05-3.20031E-06-1.42770E-18 3.36542E-18
 -1       723 1.01736E-04-5.16497E-05-2.12435E-05-3.47965E-05 2.78174E-18 3.02583E-19
 -1       724 6.70803E-05-3.17023E-05-1.47417E-05-3.48813E-05-1.61476E-18-1.69213E-18
 -1       725 9.64972E-05-2.60004E-05-3.02096E-05-4.09857E-06 9.40133E-19 5.46385E-19
 -1       726 9.77082E-05-2.77620E-05-2.99762E-05-9.76726E-06 4.30255E-19 6.98814E-20
 -1       727 9.57801E-05-2.35959E-05-3.09403E-05-7.67875E-07-7.65428E-19-2.10633E-18
 -1       728 9.63778E-05-2.50959E-05-3.05447E-05-1.44010E-06 1.58731E-18 5.09255E-19
 -1       729 1.36280E-04-5.89428E-05-3.33041E-05 5.14835E-06 8.62101E-19-3.20141E-18
 -1       730 8.96026E-05-1.49547E-05-3.19971E-05 1.83832E-06 2.10160E-18-1.27281E-18
 -1       731 8.98643E-05-1.52411E-05-3.19869E-05-1.66305E-06 2.71888E-19-2.50014E-18
 -1       732 4.53084E-05-1.71523E-05-1.15543E-05-2.31272E-05 3.03211E-19 3.97200E-18
 -1       733 4.46162E-05-1.68526E-05-1.13597E-05-2.00102E-05-5.22408E-19-3.33583E-18
 -1       734 5.25856E-05-2.35535E-05-1.18999E-05 3.07851E-05 1.93698E-18-3.78285E-18
 -1       735 1.36733E-04-5.31493E-05-3.60011E-05 5.77215E-06-1.33590E-18 1.06636E-18
 -1       736 1.31937E-04-3.60208E-05-4.14656E-05 1.65500E-05 1.48636E-18 2.94310E-18
 -1       737 9.87812E-05-5.02697E-05-2.05372E-05-3.50122E-05-1.96594E-18-1.25910E-18
 -1       738 1.25772E-04-6.00157E-05-2.81547E-05-1.86980E-05-1.52736E-18-4.28844E-19
 -1       739 1.40341E-04-4.78060E-05-3.98992E-05-1.06000E-05 1.98263E-18-9.02725E-19
 -1       740 9.14243E-05-4.58276E-05-1.92881E-05 3.66369E-05 1.75100E-18-6.29253E-19
 -1       741 1.23268E-04-1.89630E-05-4.51907E-05 1.30963E-05-1.98121E-18-2.31939E-18
 -1       742 1.30982E-04-3.35458E-05-4.21719E-05 1.37460E-05-3.30052E-19-1.87988E-18
 -1       743 9.17309E-05-1.72829E-05-3.19078E-05-2.54309E-06-2.80240E-19-2.48479E-18
 -1       744 8.78103E-05-1.31234E-05-3.20131E-05-1.19898E-07 1.07892E-18-2.39764E-18
 -1       745 1.01715E-04-4.80407E-05-2.27931E-05 2.85732E-05-3.33600E-18 3.17078E-19
 -1       746 9.52477E-05-2.85619E-05-2.85796E-05-2.08511E-08 1.17791E-19 2.50753E-18
 -1       747 1.29466E-04-4.37147E-05-3.69447E-05-1.51315E-05 1.02045E-18-4.41112E-19
 -1       748 9.52461E-05-2.85672E-05-2.85767E-05-2.77004E-08-6.30408E-19-6.21455E-19
 -1       749 1.26847E-04-2.74197E-05-4.29236E-05-1.42221E-05-3.77086E-18 2.82560E-18
 -1       750 6.40798E-05-2.65295E-05-1.57091E-05 2.94077E-05-3.75991E-18 3.47125E-19
 -1       751 4.64426E-05-1.32193E-05-1.38417E-05 1.03448E-05-1.35259E-18 2.26258E-18
 -1       752 1.33868E-04-4.80270E-05-3.70936E-05-6.52256E-06-1.51669E-18 3.30687E-18
 -1       753 8.85446E-05-1.38669E-05-3.20094E-05-8.44383E-07 6.26682E-19-2.35212E-18
 -1       754 4.19057E-05-1.23930E-05-1.21917E-05-6.10538E-06 3.55342E-19-3.54497E-18
 -1       755 7.56792E-05-3.30091E-05-1.80012E-05 3.25984E-05 2.58221E-18-2.07674E-18
 -1       756 9.52454E-05-2.85601E-05-2.85794E-05 2.39847E-08-6.50051E-19-1.28358E-18
 -1       757 1.25376E-04-4.12461E-05-3.61929E-05 1.16776E-05 1.08922E-18-2.68185E-18
 -1       758 9.34807E-05-2.06358E-05-3.12164E-05 3.52286E-07 1.95195E-18-2.18846E-19
 -1       759 6.45610E-05-2.31218E-05-1.74864E-05-2.44824E-05-3.51459E-19-1.51119E-18
 -1       760 9.50115E-05-2.49869E-05-3.00102E-05 4.72251E-06-4.15182E-19-1.69795E-18
 -1       761 9.52754E-05-2.61112E-05-2.96417E-05 6.53657E-06-4.76395E-19-1.34453E-18
 -1       762 9.57705E-05-2.73564E-05-2.93202E-05 8.05964E-06-1.78266E-19-1.22108E-18
 -1       763 9.67730E-05-2.90417E-05-2.90277E-05 9.29811E-06 3.16775E-19-9.20454E-19
 -1       764 9.86172E-05-3.14811E-05-2.87727E-05 1.01589E-05 4.01963E-19-3.43757E-19
 -1       765 1.01689E-04-3.49259E-05-2.86131E-05 1.03869E-05 2.10394E-19 1.70735E-19
 -1       766 1.06318E-04-3.93777E-05-2.86875E-05 9.46677E-06 3.69340E-19 8.22523E-19
 -1       767 1.12496E-04-4.42087E-05-2.92659E-05 6.54012E-06 3.15383E-19 1.46796E-18
 -1       768 1.19159E-04-4.73692E-05-3.07853E-05 6.46173E-07-6.10195E-20 1.91277E-18
 -1       769 1.23299E-04-4.52717E-05-3.35736E-05-7.79475E-06-8.07077E-19 1.53088E-18
 -1       770 1.23028E-04-4.80073E-05-3.21437E-05 3.22148E-06 1.09918E-18-9.35300E-19
 -1       771 1.16252E-04-4.68714E-05-2.97349E-05-4.31117E-06 9.05316E-19-2.97129E-19
 -1       772 1.08959E-04-4.20782E-05-2.86629E-05-8.46084E-06 9.93027E-19-5.80920E-19
 -1       773 1.03055E-04-3.69315E-05-2.83409E-05-9.98336E-06 5.65583E-19-4.44879E-19
 -1       774 9.89675E-05-3.27613E-05-2.83756E-05-9.96417E-06 1.63827E-19 8.72436E-19
 -1       775 9.64228E-05-2.98330E-05-2.85395E-05-9.21200E-06 8.08473E-19 3.27591E-19
 -1       776 9.49901E-05-2.79863E-05-2.87164E-05-8.16351E-06 1.28337E-18 4.01603E-19
 -1       777 9.42870E-05-2.69538E-05-2.88572E-05-7.03759E-06 5.08372E-19 5.53971E-19
 -1       778 9.40295E-05-2.64838E-05-2.89481E-05-5.93968E-06 5.52550E-19 1.15244E-18
 -1       779 9.40239E-05-2.63755E-05-2.89921E-05-4.92133E-06 5.61025E-20 9.57137E-19
 -1       780 9.41462E-05-2.64824E-05-2.89987E-05-4.00742E-06 3.21745E-19 7.92778E-19
 -1       781 9.43207E-05-2.67030E-05-2.89790E-05-3.20826E-06-2.30799E-19 4.49782E-19
 -1       782 9.45041E-05-2.69710E-05-2.89427E-05-2.52504E-06-7.50927E-19-1.41944E-18
 -1       783 9.46737E-05-2.72453E-05-2.88979E-05-1.95286E-06-5.52679E-19-1.44959E-18
 -1       784 9.48194E-05-2.75021E-05-2.88503E-05-1.48283E-06-7.05127E-20-5.66316E-19
 -1       785 9.49383E-05-2.77294E-05-2.88038E-05-1.10373E-06 1.96800E-19 8.26312E-19
 -1       786 9.50315E-05-2.79227E-05-2.87609E-05-8.03327E-07-4.22660E-19 9.33647E-19
 -1       787 9.51020E-05-2.80820E-05-2.87229E-05-5.69401E-07-1.43918E-18 1.95764E-18
 -1       788 9.51535E-05-2.82099E-05-2.86901E-05-3.90411E-07-5.23179E-19 2.27327E-18
 -1       789 9.51898E-05-2.83104E-05-2.86626E-05-2.55938E-07 1.12632E-18 2.37028E-18
 -1       790 9.52142E-05-2.83877E-05-2.86399E-05-1.56918E-07 5.95197E-19 6.30427E-19
 -1       791 9.52297E-05-2.84463E-05-2.86215E-05-8.57325E-08-7.80815E-19-1.67621E-18
 -1       792 9.52389E-05-2.84904E-05-2.86065E-05-3.61253E-08-2.82898E-19-1.41776E-18
 -1       793 9.52438E-05-2.85238E-05-2.85943E-05-3.25218E-09-3.14667E-20-2.23747E-19
 -1       794 9.52454E-05-2.85441E-05-2.85863E-05 1.30682E-08-8.47882E-19 2.89220E-19
 -1       795 9.67111E-05-3.03627E-05-2.84345E-05-1.43769E-05 8.84823E-20-2.65837E-19
 -1       796 9.49827E-05-2.76333E-05-2.88638E-05-1.27142E-05 4.37549E-19-3.74405E-19
 -1       797 1.07047E-04-4.19833E-05-2.78518E-05-1.58252E-05-1.01718E-18 4.13296E-19
 -1       798 1.17478E-04-5.05976E-05-2.86527E-05-1.28773E-05-1.35914E-18 4.20825E-19
 -1       799 1.26928E-04-5.60976E-05-3.03967E-05 7.70393E-06 4.44520E-19-5.01973E-19
 -1       800 9.73947E-05-3.13623E-05-2.82958E-05 1.38282E-05-1.55656E-18 1.99330E-18
 -1       801 9.50798E-05-2.81426E-05-2.86868E-05 1.22219E-05-6.78190E-19 8.96501E-19
 -1       802 9.41196E-05-2.64764E-05-2.89895E-05 1.05393E-05-7.61420E-19 9.61966E-19
 -1       803 9.38762E-05-2.57959E-05-2.91767E-05 8.93482E-06-1.25951E-19 7.37064E-19
 -1       804 9.39684E-05-2.56878E-05-2.92626E-05 7.45946E-06 5.13023E-19 5.89905E-19
 -1       805 9.41870E-05-2.58813E-05-2.92734E-05 6.13385E-06 1.58140E-18 3.14903E-19
 -1       806 9.44269E-05-2.62106E-05-2.92352E-05 4.96695E-06 1.72281E-18 1.00596E-18
 -1       807 9.46417E-05-2.65802E-05-2.91689E-05 3.96006E-06 9.20197E-19 1.50834E-18
 -1       808 9.48163E-05-2.69389E-05-2.90901E-05 3.10789E-06-1.23492E-19 1.22632E-18
 -1       809 9.49500E-05-2.72622E-05-2.90088E-05 2.39989E-06-3.54123E-19-1.48627E-18
 -1       810 9.50483E-05-2.75408E-05-2.89316E-05 1.82194E-06-3.29449E-19-2.19397E-18
 -1       811 9.51184E-05-2.77734E-05-2.88620E-05 1.35803E-06-7.98392E-19-2.10266E-18
 -1       812 9.51669E-05-2.79633E-05-2.88015E-05 9.91682E-07-3.92712E-20 8.61013E-19
 -1       813 9.51995E-05-2.81152E-05-2.87504E-05 7.06980E-07-3.46737E-19 1.95481E-18
 -1       814 9.52208E-05-2.82349E-05-2.87082E-05 4.89276E-07 4.07689E-19 8.53783E-19
 -1       815 9.52339E-05-2.83276E-05-2.86741E-05 3.25578E-07 8.55308E-19-1.51552E-18
 -1       816 9.52414E-05-2.83984E-05-2.86470E-05 2.04708E-07 1.01071E-18-2.82832E-18
 -1       817 9.52452E-05-2.84519E-05-2.86257E-05 1.17300E-07 1.17205E-18-4.17301E-18
 -1       818 9.52467E-05-2.84919E-05-2.86092E-05 5.57088E-08 7.41357E-20-1.64880E-18
 -1       819 9.52467E-05-2.85219E-05-2.85963E-05 1.41818E-08 3.65897E-19-2.20377E-18
 -1       820 9.52461E-05-2.85449E-05-2.85862E-05-1.21386E-08 5.15325E-19-3.20799E-18
 -1       821 9.52458E-05-2.85562E-05-2.85813E-05-2.18592E-08-2.77996E-19-1.93478E-18
 -1       822 9.52349E-05-2.85140E-05-2.85947E-05 8.43206E-10 1.73914E-18 4.82972E-19
 -1       823 9.52434E-05-2.85333E-05-2.85901E-05 7.10402E-09-3.20965E-19 1.26632E-18
 -1       824 9.52335E-05-2.85113E-05-2.85953E-05 6.88292E-10 1.05367E-19-7.73137E-19
 -1       825 9.47394E-05-2.43926E-05-3.01484E-05-5.00970E-06 1.03446E-18-9.30827E-20
 -1       826 1.26728E-04-5.33451E-05-3.15265E-05-3.03368E-06 2.09790E-18-8.35227E-19
 -1       827 9.52387E-05-2.85219E-05-2.85930E-05 2.69853E-09-9.99680E-20 1.16358E-18
 -1       828 1.11583E-04-5.16202E-05-2.55953E-05-2.31444E-05-1.54435E-18-7.85252E-19
 -1       829 1.01933E-04-3.66996E-05-2.79469E-05 1.49480E-05-2.64370E-18 2.08180E-18
 -1       830 1.10311E-04-4.48404E-05-2.80877E-05 1.45388E-05-1.83609E-18 1.36461E-18
 -1       831 1.07495E-04-5.01638E-05-2.45067E-05 2.56417E-05 1.55595E-18 1.00821E-18
 -1       832 1.27200E-04-2.37809E-05-4.47805E-05-1.58086E-05 3.17264E-18 1.71815E-18
 -1       833 9.50559E-05-2.29446E-05-3.09030E-05-4.86345E-07 1.78045E-18 2.17330E-19
 -1       834 1.00390E-04-3.50070E-05-2.80111E-05-1.56722E-05-1.64704E-19-1.67387E-19
 -1       835 5.20957E-05-1.44454E-05-1.58510E-05-1.33352E-05-5.98220E-19 2.06107E-18
 -1       836 9.45225E-05-2.49292E-05-2.98256E-05-7.15323E-06 8.41118E-19-2.72079E-19
 -1       837 1.25395E-04-5.51887E-05-3.00892E-05 9.27362E-06-2.67274E-19 2.41535E-18
 -1       838 8.92787E-05-3.96594E-05-2.10670E-05-3.05703E-05-1.26090E-18-1.16120E-18
 -1       839 9.47485E-05-2.36717E-05-3.04616E-05 2.58346E-06-4.40870E-19-1.87164E-18
 -1       840 9.34285E-05-1.93340E-05-3.17523E-05-3.03880E-06-7.01250E-19-2.60223E-18
 -1       841 1.28149E-04-5.49491E-05-3.14037E-05-4.10905E-06-1.33687E-18 2.29361E-19
 -1       842 6.84543E-05-2.65408E-05-1.76989E-05-2.86397E-05 8.52327E-19-4.23119E-19
 -1       843 9.11488E-05-4.10085E-05-2.13431E-05-3.06306E-05 1.50892E-18-9.13207E-22
 -1       844 1.14659E-04-5.29759E-05-2.63657E-05-2.03206E-05 2.26293E-18 8.56917E-19
 -1       845 8.88425E-05-1.56001E-05-3.13906E-05 3.05399E-07 1.41444E-18-1.50280E-18
 -1       846 4.88988E-05-1.54551E-05-1.39157E-05 1.67163E-05 1.54580E-18-3.43890E-18
 -1       847 8.86035E-05-1.53592E-05-3.13914E-05 3.06295E-07 1.02801E-18-1.94108E-18
 -1       848 9.14168E-05-1.82912E-05-3.13404E-05 3.21020E-07 1.84773E-18-9.00799E-19
 -1       849 1.17000E-04-5.26860E-05-2.74948E-05 1.69512E-05-3.59129E-19 5.17461E-19
 -1       850 8.67249E-05-3.70091E-05-2.11106E-05 2.89146E-05-2.63415E-18 1.52819E-18
 -1       851 5.73579E-05-1.67629E-05-1.71649E-05-1.58004E-05 2.68447E-19-2.00577E-18
 -1       852 9.52444E-05-2.85338E-05-2.85902E-05-6.48316E-09-1.00764E-18 2.28558E-18
 -1       853 9.44512E-05-2.24161E-05-3.08733E-05 6.88688E-07-2.78660E-19-1.97961E-18
 -1       854 1.22577E-04-3.35380E-05-3.82770E-05 1.45531E-05 6.90782E-19-3.06372E-18
 -1       855 9.43309E-05-2.54101E-05-2.95371E-05-9.10458E-06 5.29525E-19-2.41815E-19
 -1       856 5.20032E-05-1.25506E-05-1.66779E-05-1.82144E-06-1.14707E-18 3.12040E-18
 -1       857 9.43745E-05-2.61717E-05-2.92293E-05-1.09413E-05 2.97477E-19-3.21124E-19
 -1       858 9.52397E-05-2.85224E-05-2.85931E-05-1.72326E-09-4.56468E-19 2.27845E-18
 -1       859 9.52354E-05-2.85143E-05-2.85948E-05 3.83384E-10-1.88998E-19-1.10556E-18
 -1       860 9.50291E-05-2.39016E-05-3.04846E-05-2.90679E-06 1.22115E-18 8.58993E-20
 -1       861 5.97653E-05-1.89170E-05-1.72666E-05 1.93395E-05-2.07603E-18 4.73412E-19
 -1       862 9.36364E-05-4.04450E-05-2.26546E-05 2.74268E-05 2.26454E-18-4.82726E-19
 -1       863 1.17163E-04-1.74010E-05-4.30749E-05-9.50936E-06-3.35851E-18 5.36701E-19
 -1       864 8.98082E-05-1.65870E-05-3.13817E-05 2.97503E-07 1.70779E-18-1.27934E-18
 -1       865 6.58289E-05-2.30602E-05-1.81214E-05 2.39952E-05 1.95815E-18-2.30854E-18
 -1       866 9.02255E-05-1.70175E-05-3.13749E-05 3.52383E-08 4.08457E-19-2.19738E-18
 -1       867 9.18785E-05-1.87921E-05-3.13229E-05-2.29689E-07-2.40478E-20-2.15456E-18
 -1       868 9.31893E-05-2.49983E-05-2.92247E-05 7.21759E-06-1.12000E-19-9.83698E-19
 -1       869 9.33931E-05-2.63595E-05-2.87284E-05 9.00760E-06 3.21150E-19-6.29035E-19
 -1       870 9.41665E-05-2.83126E-05-2.82225E-05 1.08126E-05 5.32192E-19-6.88526E-19
 -1       871 9.59857E-05-3.12784E-05-2.77304E-05 1.26100E-05 9.31945E-19-5.40451E-19
 -1       872 9.95000E-05-3.56863E-05-2.73411E-05 1.41544E-05 7.34890E-19 3.78206E-19
 -1       873 1.05423E-04-4.17194E-05-2.72752E-05 1.47313E-05 7.47759E-19 8.33825E-19
 -1       874 1.14244E-04-4.87199E-05-2.80647E-05 1.27475E-05 7.31495E-19 1.53832E-18
 -1       875 6.72432E-05-2.03320E-05-1.99943E-05-1.84513E-05 1.28671E-18 5.12488E-19
 -1       876 1.08333E-04-4.51356E-05-2.70469E-05-1.51093E-05 2.59809E-19 7.14556E-19
 -1       877 1.00482E-04-3.78948E-05-2.68116E-05-1.49440E-05 1.04513E-18 7.06911E-19
 -1       878 9.57287E-05-3.25373E-05-2.70775E-05-1.32561E-05 1.22291E-18-8.61095E-22
 -1       879 9.31226E-05-2.89635E-05-2.74958E-05-1.12558E-05 5.56870E-20 1.63573E-19
 -1       880 9.19312E-05-2.68156E-05-2.79059E-05-9.36935E-06 8.92829E-19 6.12465E-19
 -1       881 9.15821E-05-2.56737E-05-2.82459E-05-7.72439E-06 7.26513E-19-3.10772E-19
 -1       882 9.17100E-05-2.52086E-05-2.85002E-05-6.32349E-06 8.66797E-19-3.28873E-19
 -1       883 9.20811E-05-2.51740E-05-2.86742E-05-5.13842E-06 3.85609E-20-2.05663E-19
 -1       884 9.25518E-05-2.53942E-05-2.87817E-05-4.13814E-06 6.08182E-20-1.39414E-18
 -1       885 9.30372E-05-2.57482E-05-2.88380E-05-3.29712E-06-2.15036E-19-1.94560E-18
 -1       886 9.34903E-05-2.61554E-05-2.88577E-05-2.59496E-06-1.31016E-18-2.07787E-18
 -1       887 9.38879E-05-2.65649E-05-2.88527E-05-2.01447E-06-2.92487E-19-1.94268E-18
 -1       888 9.42221E-05-2.69466E-05-2.88323E-05-1.54021E-06-5.70480E-19-1.52017E-18
 -1       889 9.44935E-05-2.72848E-05-2.88037E-05-1.15785E-06 4.24251E-19-1.88955E-18
 -1       890 9.47076E-05-2.75736E-05-2.87717E-05-8.53885E-07-3.95846E-19-2.50641E-18
 -1       891 9.48719E-05-2.78130E-05-2.87395E-05-6.15783E-07-4.08086E-19-3.43374E-18
 -1       892 9.49946E-05-2.80064E-05-2.87092E-05-4.32123E-07-2.34435E-19-1.54026E-18
 -1       893 9.50838E-05-2.81593E-05-2.86819E-05-2.92748E-07-3.64344E-19-1.20372E-18
 -1       894 9.51465E-05-2.82778E-05-2.86580E-05-1.88827E-07-3.67879E-19-2.49801E-18
 -1       895 9.51889E-05-2.83680E-05-2.86375E-05-1.12899E-07-1.05636E-18-1.37005E-18
 -1       896 9.52163E-05-2.84359E-05-2.86202E-05-5.88562E-08-1.02557E-19 6.29508E-19
 -1       897 9.52329E-05-2.84867E-05-2.86055E-05-2.16167E-08 1.71451E-18 1.26479E-18
 -1       898 8.95711E-05-2.56195E-05-2.74073E-05-1.38042E-05 1.47564E-19-7.26676E-19
 -1       899 9.98758E-05-4.06390E-05-2.53358E-05-2.21621E-05-9.63437E-19-7.83009E-19
 -1       900 1.13066E-04-4.82615E-05-2.77394E-05 1.54249E-05-3.73978E-19 1.30574E-18
 -1       901 8.88857E-05-2.59714E-05-2.69631E-05 1.38044E-05-3.58287E-19-2.01947E-19
 -1       902 9.04844E-05-2.37612E-05-2.85955E-05 7.57928E-06 2.88925E-19 6.32423E-19
 -1       903 9.13925E-05-2.41685E-05-2.88101E-05 6.22447E-06 1.50835E-18-6.52395E-19
 -1       904 9.22164E-05-2.47264E-05-2.89242E-05 5.07325E-06 1.80956E-18-3.30192E-19
 -1       905 9.29185E-05-2.53231E-05-2.89694E-05 4.08992E-06 1.10816E-18-5.47396E-19
 -1       906 9.34929E-05-2.58957E-05-2.89702E-05 3.25417E-06 2.27686E-19-1.19445E-18
 -1       907 9.39496E-05-2.64124E-05-2.89445E-05 2.55158E-06 3.73091E-19-8.53461E-20
 -1       908 9.43046E-05-2.68604E-05-2.89047E-05 1.96921E-06-7.86322E-21 5.48985E-19
 -1       909 9.45755E-05-2.72376E-05-2.88591E-05 1.49389E-06-9.69597E-19-7.02870E-19
 -1       910 9.47786E-05-2.75480E-05-2.88131E-05 1.11212E-06-1.99686E-18-5.72430E-19
 -1       911 9.49283E-05-2.77985E-05-2.87699E-05 8.10391E-07-1.36943E-18 5.38679E-20
 -1       912 9.50366E-05-2.79972E-05-2.87311E-05 5.75779E-07-1.27854E-19 9.93784E-19
 -1       913 9.51132E-05-2.81523E-05-2.86975E-05 3.96372E-07 9.04548E-19 9.63921E-19
 -1       914 9.51659E-05-2.82715E-05-2.86690E-05 2.61564E-07 1.72340E-18 1.75010E-18
 -1       915 9.52010E-05-2.83618E-05-2.86454E-05 1.62239E-07 1.08104E-18 1.14849E-18
 -1       916 9.52232E-05-2.84294E-05-2.86259E-05 9.06576E-08-4.16396E-19 1.68588E-18
 -1       917 9.52365E-05-2.84799E-05-2.86100E-05 4.03215E-08 4.82410E-19 5.83976E-19
 -1       918 9.52433E-05-2.85168E-05-2.85970E-05 6.86572E-09 9.85392E-19 1.23929E-18
 -1       919 9.52186E-05-2.84686E-05-2.86072E-05-3.02989E-09 6.11223E-19 1.93802E-18
 -1       920 9.52466E-05-2.85462E-05-2.85859E-05-1.38426E-08-1.22941E-18 1.81689E-18
 -1       921 9.31570E-05-2.25725E-05-3.02499E-05 3.44159E-06-2.35683E-19-1.55648E-18
 -1       922 9.02639E-05-2.95735E-05-2.60077E-05 1.71776E-05-2.05664E-18 7.36653E-19
 -1       923 9.47167E-05-3.60912E-05-2.50431E-05 2.11236E-05-1.84306E-18 2.39158E-18
 -1       924 5.28008E-05-1.30817E-05-1.67769E-05 2.73684E-06 9.94908E-19-3.41047E-18
 -1       925 9.24512E-05-2.27691E-05-2.98648E-05-5.37576E-06 1.01489E-18-5.02951E-19
 -1       926 8.90913E-05-1.58492E-05-3.13902E-05 2.37685E-07 6.68136E-19-2.13591E-18
 -1       927 8.16523E-05-2.91183E-05-2.24294E-05-2.32513E-05-6.89352E-19-6.44844E-19
 -1       928 8.30705E-05-3.16584E-05-2.19414E-05-2.49445E-05 1.42295E-19-1.30516E-19
 -1       929 8.95908E-05-2.36930E-05-2.82418E-05 9.20491E-06-6.84685E-19 4.03564E-19
 -1       930 1.02609E-04-4.37630E-05-2.51624E-05-2.13786E-05 5.65804E-19 6.51464E-19
 -1       931 8.89219E-05-2.42696E-05-2.77083E-05 1.12206E-05-1.06181E-18-3.40657E-19
 -1       932 9.32136E-05-2.38580E-05-2.97230E-05 5.39549E-06-1.68698E-19-1.32776E-18
 -1       933 9.27443E-05-2.10078E-05-3.07453E-05-1.76329E-06 1.47434E-18-4.83195E-19
 -1       934 9.29827E-05-2.13779E-05-3.06909E-05 1.86033E-06-1.09394E-19-1.80250E-18
 -1       935 8.89522E-05-1.71520E-05-3.07718E-05 1.21321E-07 1.07296E-18-1.33785E-18
 -1       936 6.27061E-05-1.60514E-05-1.98849E-05-1.09628E-05 9.03452E-19-2.57399E-19
 -1       937 1.18775E-04-5.19194E-05-2.86808E-05-1.12394E-05 1.94112E-18-2.97810E-19
 -1       938 9.02386E-05-2.85502E-05-2.64350E-05-1.68675E-05 1.82239E-20-5.40899E-19
 -1       939 9.34448E-05-3.36082E-05-2.56283E-05-2.00512E-05-5.45741E-19-8.89027E-19
 -1       940 5.81349E-05-1.44842E-05-1.85628E-05 8.33967E-06-1.82532E-18 1.67756E-18
 -1       941 8.99518E-05-2.41606E-05-2.81951E-05-1.13527E-05 1.87378E-19-8.78448E-19
 -1       942 6.18857E-05-1.68273E-05-1.91778E-05 1.28365E-05 1.20562E-18-2.53727E-18
 -1       943 9.30793E-05-2.23427E-05-3.03140E-05-3.62257E-06 1.21088E-18-5.08645E-19
 -1       944 9.52192E-05-2.84690E-05-2.86072E-05 4.12933E-09-1.62991E-18 2.68224E-19
 -1       945 9.52239E-05-2.84774E-05-2.86057E-05-9.33438E-09 2.26385E-18 1.25184E-19
 -1       946 7.38213E-05-2.30960E-05-2.16410E-05-1.96244E-05-6.89544E-19-7.34199E-19
 -1       947 9.52273E-05-2.84797E-05-2.86061E-05-1.58260E-08 1.36701E-18-6.76500E-20
 -1       948 8.95402E-05-1.77269E-05-3.07778E-05-5.70116E-07 1.37865E-18-1.16242E-18
 -1       949 9.16904E-05-2.31569E-05-2.93724E-05-7.33793E-06 6.76408E-19-6.74270E-19
 -1       950 9.00666E-05-1.82464E-05-3.07809E-05 1.22412E-06 5.28674E-19-1.93479E-18
 -1       951 7.64506E-05-2.72902E-05-2.09536E-05 2.35994E-05-8.09668E-19 2.89626E-19
 -1       952 1.01976E-04-4.23054E-05-2.54861E-05 2.08816E-05 1.48738E-18 5.55410E-19
 -1       953 9.52343E-05-2.84945E-05-2.86028E-05 1.18351E-08-3.49846E-19 2.51279E-18
 -1       954 8.25260E-05-3.13931E-05-2.18425E-05 2.51247E-05 2.05910E-18-1.61506E-18
 -1       955 6.25164E-05-1.51297E-05-2.02068E-05-6.49471E-06 1.82193E-19-1.87051E-18
 -1       956 9.00632E-05-2.48874E-05-2.79330E-05 9.61059E-06 6.03908E-19-6.87249E-19
 -1       957 9.01180E-05-2.67810E-05-2.71435E-05 1.21747E-05 7.61000E-19-8.04426E-19
 -1       958 9.11592E-05-2.98351E-05-2.62793E-05 1.53387E-05 1.13351E-18-8.91335E-19
 -1       959 9.49174E-05-3.49771E-05-2.56907E-05 1.84746E-05 1.26192E-18-4.05577E-19
 -1       960 8.98025E-05-2.32010E-05-2.85436E-05 4.53879E-06 1.31093E-18 1.81957E-18
 -1       961 9.08658E-05-1.90480E-05-3.07798E-05-1.22567E-06 1.42950E-18-1.07637E-18
 -1       962 8.97563E-05-3.07927E-05-2.52644E-05-1.71013E-05 1.16639E-18 7.36953E-19
 -1       963 8.80586E-05-2.70272E-05-2.61536E-05-1.32682E-05-2.97099E-20 5.25572E-19
 -1       964 8.77742E-05-2.49777E-05-2.69127E-05-1.02997E-05 5.99717E-19 3.64793E-19
 -1       965 8.81873E-05-2.39837E-05-2.75158E-05-8.02913E-06 7.77280E-19 6.66785E-19
 -1       966 8.89486E-05-2.36850E-05-2.79702E-05-6.29616E-06-1.70729E-19 9.12396E-19
 -1       967 8.98411E-05-2.38168E-05-2.82962E-05-4.95704E-06 1.53537E-19-1.30731E-18
 -1       968 9.07439E-05-2.42004E-05-2.85187E-05-3.90445E-06-5.65542E-19-1.88754E-18
 -1       969 9.15898E-05-2.47137E-05-2.86613E-05-3.06577E-06-6.25368E-19-2.56506E-18
 -1       970 9.23438E-05-2.52737E-05-2.87444E-05-2.39232E-06-1.00433E-18-3.48319E-18
 -1       971 9.29915E-05-2.58262E-05-2.87852E-05-1.85032E-06-5.36483E-19-2.58450E-18
 -1       972 9.35314E-05-2.63384E-05-2.87971E-05-1.41517E-06 2.73589E-19-1.10752E-18
 -1       973 9.39699E-05-2.67927E-05-2.87903E-05-1.06793E-06 3.36102E-20-7.25679E-19
 -1       974 9.43176E-05-2.71821E-05-2.87724E-05-7.93257E-07-9.38229E-19-2.88368E-18
 -1       975 9.45872E-05-2.75069E-05-2.87487E-05-5.78300E-07-6.94389E-19-3.06088E-18
 -1       976 9.47915E-05-2.77711E-05-2.87230E-05-4.12112E-07 4.47333E-19-1.97438E-18
 -1       977 9.49426E-05-2.79816E-05-2.86976E-05-2.85360E-07-1.43249E-19-9.12277E-19
 -1       978 9.50515E-05-2.81460E-05-2.86738E-05-1.90172E-07-1.03079E-18-2.33930E-20
 -1       979 9.51273E-05-2.82719E-05-2.86523E-05-1.19856E-07-3.28978E-19-2.69545E-19
 -1       980 9.51786E-05-2.83673E-05-2.86334E-05-6.93569E-08 1.35605E-18 5.70835E-19
 -1       981 9.52082E-05-2.84306E-05-2.86190E-05-3.90167E-08 4.97990E-19 1.34290E-18
 -1       982 9.07939E-05-2.35189E-05-2.88334E-05-9.27525E-06 4.67372E-19-7.54644E-19
 -1       983 9.14005E-05-2.15908E-05-2.99158E-05 3.85591E-06 1.23015E-19-1.45415E-18
 -1       984 8.83461E-05-2.24033E-05-2.82614E-05 5.53709E-06 4.70547E-20 7.20646E-19
 -1       985 9.20036E-05-2.47932E-05-2.88045E-05 2.98836E-06 1.38595E-18 2.88409E-18
 -1       986 9.27977E-05-2.54959E-05-2.88437E-05 2.38126E-06-7.49606E-20 2.32406E-18
 -1       987 9.34255E-05-2.61107E-05-2.88492E-05 1.86900E-06-4.67715E-20 1.88590E-18
 -1       988 9.39146E-05-2.66342E-05-2.88345E-05 1.44274E-06-1.60891E-19 3.13443E-18
 -1       989 9.42900E-05-2.70702E-05-2.88085E-05 1.09368E-06-9.62617E-19 1.92627E-18
 -1       990 9.45739E-05-2.74261E-05-2.87776E-05 8.12625E-07-1.43659E-18 1.60515E-19
 -1       991 9.47849E-05-2.77117E-05-2.87457E-05 5.90159E-07-6.10036E-19-4.52384E-19
 -1       992 9.49390E-05-2.79370E-05-2.87152E-05 4.17087E-07-3.64155E-19-5.79732E-19
 -1       993 9.50490E-05-2.81119E-05-2.86873E-05 2.84810E-07-2.61602E-19 5.72122E-19
 -1       994 9.51255E-05-2.82457E-05-2.86628E-05 1.85502E-07 5.50840E-19 1.54235E-18
 -1       995 9.51770E-05-2.83464E-05-2.86417E-05 1.13048E-07-7.58565E-19 3.84124E-18
 -1       996 9.52102E-05-2.84217E-05-2.86236E-05 6.05953E-08 8.02176E-19 1.49339E-18
 -1       997 8.91522E-05-1.73466E-05-3.07743E-05 7.50698E-07 7.72046E-19-1.78988E-18
 -1       998 8.46827E-05-2.13078E-05-2.71616E-05 8.39208E-06-6.44181E-19-2.22474E-20
 -1       999 9.41883E-05-3.63210E-05-2.47874E-05-2.03657E-05 3.71342E-19 4.80127E-19
 -1      1000 8.66349E-05-2.17210E-05-2.78207E-05 6.77204E-06-4.88476E-19-7.15077E-19
 -1      1001 8.04475E-05-2.24639E-05-2.48444E-05 1.41020E-05-9.24337E-19 5.30102E-19
 -1      1002 7.81633E-05-2.40514E-05-2.31515E-05 1.80649E-05-1.25206E-18 7.58162E-19
 -1      1003 9.52252E-05-2.84783E-05-2.86058E-05 1.02421E-08-1.50856E-18-3.14025E-19
 -1      1004 7.94459E-05-2.51614E-05-2.32282E-05-1.79522E-05 7.05052E-19 8.10908E-19
 -1      1005 9.04810E-05-2.36494E-05-2.86427E-05 7.47232E-06 4.04162E-19-6.92680E-19
 -1      1006 8.25536E-05-2.14085E-05-2.62067E-05 1.06776E-05-6.80315E-19 1.07376E-18
 -1      1007 9.10050E-05-2.26578E-05-2.92919E-05 5.60742E-06 1.34081E-19-9.70050E-19
 -1      1008 9.10143E-05-2.40174E-05-2.87130E-05 3.70135E-06 1.08179E-18 2.42179E-18
 -1      1009 7.39956E-05-2.07031E-05-2.28065E-05-1.40562E-05 5.15350E-19 4.55522E-19
 -1      1010 9.10510E-05-2.03783E-05-3.02854E-05-2.70625E-06 1.21037E-18-8.98820E-19
 -1      1011 8.21807E-05-2.24970E-05-2.55765E-05-1.36390E-05 2.51257E-19-9.50745E-19
 -1      1012 8.11048E-05-2.46736E-05-2.41416E-05-1.76814E-05-3.01781E-19-8.88364E-19
 -1      1013 8.44420E-05-2.16436E-05-2.69108E-05-1.05702E-05 1.17035E-19-9.59113E-19
 -1      1014 7.38528E-05-2.30666E-05-2.16896E-05 1.85826E-05 1.44722E-18-1.49224E-18
 -1      1015 6.51203E-05-1.53504E-05-2.12693E-05 2.73335E-06 1.07558E-18-2.34559E-18
 -1      1016 9.51934E-05-2.84118E-05-2.86207E-05 1.69116E-09 7.60507E-19 3.26045E-18
 -1      1017 9.51888E-05-2.83906E-05-2.86278E-05 4.54767E-08 8.92960E-19-3.19536E-19
 -1      1018 8.88661E-05-1.85067E-05-3.01537E-05-6.86359E-07 1.14621E-18-9.80457E-19
 -1      1019 8.87288E-05-1.83942E-05-3.01445E-05 6.63024E-07 8.33693E-19-1.29185E-18
 -1      1020 9.51978E-05-2.84183E-05-2.86197E-05-1.70896E-08 2.95132E-19 1.43342E-18
 -1      1021 8.94529E-05-1.90667E-05-3.01666E-05 1.86542E-06 3.65069E-19-1.66715E-18
 -1      1022 8.98775E-05-2.12336E-05-2.94199E-05-5.01932E-06 8.77969E-19-4.54937E-19
 -1      1023 6.22697E-05-1.42277E-05-2.05151E-05-2.09301E-06 5.52183E-19 1.43547E-18
 -1      1024 6.79438E-05-1.90700E-05-2.08511E-05 1.54814E-05-1.46037E-18 5.24969E-19
 -1      1025 8.84787E-05-2.13711E-05-2.87593E-05-6.66007E-06 7.42266E-19-6.11353E-19
 -1      1026 8.41421E-05-2.40503E-05-2.57526E-05 1.26745E-05 1.15135E-18-1.18751E-18
 -1      1027 8.22365E-05-2.22313E-05-2.57173E-05-1.02296E-05-9.78108E-20-3.24841E-19
 -1      1028 8.40594E-05-2.18056E-05-2.66801E-05-7.51434E-06 1.04264E-18-5.85879E-19
 -1      1029 8.58014E-05-2.19128E-05-2.73813E-05-5.59027E-06 4.21695E-19-1.21147E-18
 -1      1030 8.74002E-05-2.23415E-05-2.78827E-05-4.21200E-06-9.27291E-19-5.65956E-19
 -1      1031 8.88300E-05-2.29554E-05-2.82322E-05-3.20084E-06-1.23842E-18-1.82192E-18
 -1      1032 9.00832E-05-2.36597E-05-2.84674E-05-2.44223E-06-8.36138E-19-2.59847E-18
 -1      1033 9.11595E-05-2.43849E-05-2.86178E-05-1.86427E-06-1.31957E-18-2.18213E-18
 -1      1034 9.20658E-05-2.50833E-05-2.87069E-05-1.41886E-06-4.34810E-19-1.74978E-18
 -1      1035 9.28144E-05-2.57247E-05-2.87528E-05-1.07343E-06 8.86376E-19-1.69698E-19
 -1      1036 9.34211E-05-2.62927E-05-2.87694E-05-8.05005E-07-3.77866E-19-2.04763E-18
 -1      1037 9.39034E-05-2.67807E-05-2.87670E-05-5.96785E-07-2.05029E-18-2.37127E-18
 -1      1038 9.42796E-05-2.71893E-05-2.87530E-05-4.36030E-07-7.14313E-19-1.11305E-18
 -1      1039 9.45673E-05-2.75239E-05-2.87330E-05-3.12810E-07 1.20332E-18-3.75470E-19
 -1      1040 9.47827E-05-2.77921E-05-2.87103E-05-2.19233E-07 9.06813E-19 1.02873E-19
 -1      1041 9.49403E-05-2.80031E-05-2.86874E-05-1.48933E-07 8.32195E-19 9.00227E-19
 -1      1042 9.50527E-05-2.81663E-05-2.86656E-05-9.68822E-08-1.34469E-18 1.76649E-18
 -1      1043 9.51296E-05-2.82894E-05-2.86457E-05-5.90191E-08 2.17155E-19 2.11142E-18
 -1      1044 9.32081E-05-2.60224E-05-2.87940E-05 1.16598E-06-1.13745E-18 2.10309E-18
 -1      1045 7.05729E-05-1.75130E-05-2.27158E-05-9.43705E-06-2.75146E-19-6.60017E-19
 -1      1046 8.74353E-05-2.18051E-05-2.81278E-05 3.27269E-06-5.40078E-19 1.64555E-20
 -1      1047 9.25080E-05-2.53682E-05-2.87743E-05 1.47850E-06-1.08174E-19 1.85459E-18
 -1      1048 9.16215E-05-2.46098E-05-2.87195E-05 1.84173E-06 5.89623E-19 1.94461E-18
 -1      1049 9.37542E-05-2.65745E-05-2.87914E-05 9.02252E-07 4.39595E-19 1.56595E-18
 -1      1050 9.41743E-05-2.70314E-05-2.87756E-05 6.84180E-07-9.71971E-19 2.85316E-18
 -1      1051 9.44925E-05-2.74026E-05-2.87529E-05 5.07458E-07-4.67065E-19 1.69001E-18
 -1      1052 9.47296E-05-2.76990E-05-2.87274E-05 3.67042E-07-4.08585E-19 1.45122E-18
 -1      1053 9.49027E-05-2.79318E-05-2.87019E-05 2.57603E-07-9.03841E-19 7.15757E-19
 -1      1054 9.50264E-05-2.81117E-05-2.86777E-05 1.74083E-07-7.13395E-19 2.16990E-18
 -1      1055 9.51120E-05-2.82487E-05-2.86557E-05 1.10956E-07-9.70548E-19 2.31158E-18
 -1      1056 9.51556E-05-2.83256E-05-2.86412E-05 7.40312E-08 2.61382E-18-1.99511E-19
 -1      1057 8.84924E-05-2.13935E-05-2.87583E-05 5.15497E-06 4.91725E-19-1.14385E-18
 -1      1058 8.96939E-05-1.91871E-05-3.02153E-05-1.76369E-06 1.08506E-18-1.13474E-18
 -1      1059 8.20417E-05-2.44673E-05-2.46623E-05-1.45210E-05 3.70395E-19-2.05530E-19
 -1      1060 8.53437E-05-2.07830E-05-2.76706E-05 3.92305E-06-1.26382E-18-2.46866E-19
 -1      1061 8.66097E-05-2.14221E-05-2.79340E-05-8.39983E-06 5.53330E-19-9.51315E-19
 -1      1062 8.27537E-05-1.97834E-05-2.69900E-05 4.75585E-06-7.78308E-19-1.13196E-18
 -1      1063 9.51872E-05-2.83958E-05-2.86249E-05 2.09431E-08 1.08175E-18 4.09503E-19
 -1      1064 9.52016E-05-2.84220E-05-2.86197E-05-2.84007E-08 3.40678E-19 1.08089E-19
 -1      1065 7.53400E-05-1.80913E-05-2.45255E-05 7.83392E-06-6.17574E-19-1.29423E-19
 -1      1066 8.56668E-05-2.27935E-05-2.69478E-05 9.39418E-06 4.39523E-19-1.13470E-18
 -1      1067 8.91105E-05-2.03452E-05-2.94693E-05 3.31064E-06 5.96447E-19-1.52756E-18
 -1      1068 8.71646E-05-2.19884E-05-2.79311E-05 6.98933E-06 3.04755E-19-9.93577E-19
 -1      1069 7.95139E-05-1.88656E-05-2.59940E-05 5.94043E-06-2.21709E-19-6.21136E-19
 -1      1070 7.71551E-05-1.84258E-05-2.51610E-05-7.09783E-06 6.70695E-20-7.28659E-19
 -1      1071 7.06204E-05-1.73402E-05-2.28077E-05-8.29953E-06-1.45249E-19-7.14948E-20
 -1      1072 7.05268E-05-1.63544E-05-2.31946E-05-2.16634E-06 7.15701E-20-1.01182E-18
 -1      1073 8.41324E-05-2.68037E-05-2.45544E-05 1.71172E-05 1.31988E-18-1.10710E-18
 -1      1074 7.04121E-05-1.73412E-05-2.27094E-05 9.94063E-06-7.75243E-19 3.25701E-19
 -1      1075 9.05116E-05-2.37519E-05-2.86115E-05 2.25727E-06 5.67108E-19 1.92850E-18
 -1      1076 9.51710E-05-2.83624E-05-2.86323E-05-4.31278E-08 1.23718E-18 5.46607E-19
 -1      1077 7.12568E-05-1.84346E-05-2.26153E-05 1.01279E-05 1.17948E-18-2.30472E-18
 -1      1078 8.78429E-05-1.90259E-05-2.94882E-05-4.85956E-08 8.64478E-19-7.99061E-19
 -1      1079 8.81075E-05-1.93864E-05-2.94517E-05 1.72917E-06 7.86804E-19-1.03685E-18
 -1      1080 9.51497E-05-2.83299E-05-2.86371E-05 6.55166E-09 2.69260E-19 1.14521E-18
 -1      1081 8.81419E-05-1.95823E-05-2.93819E-05-2.35185E-06 8.61717E-19-1.10736E-18
 -1      1082 8.91344E-05-2.28087E-05-2.84256E-05 2.72930E-06 4.08942E-19 1.15706E-18
 -1      1083 8.62836E-05-1.95982E-05-2.85830E-05-3.18082E-06 8.75958E-19-1.04464E-18
 -1      1084 8.68931E-05-2.00232E-05-2.86607E-05 3.12572E-06 6.72872E-19-1.05184E-18
 -1      1085 7.64316E-05-2.04126E-05-2.40005E-05 1.13497E-05 1.03281E-18-1.50203E-18
 -1      1086 9.25364E-05-2.54648E-05-2.87450E-05 6.46943E-07-3.80112E-19 1.32842E-19
 -1      1087 7.94023E-05-1.92657E-05-2.57663E-05-5.55997E-06-2.15058E-19 5.24774E-19
 -1      1088 8.24623E-05-2.00312E-05-2.67579E-05-3.86392E-06 7.43681E-19-4.51780E-19
 -1      1089 8.49205E-05-2.08603E-05-2.74557E-05-2.72643E-06-9.85786E-20-1.08739E-18
 -1      1090 8.69473E-05-2.17497E-05-2.79417E-05-1.93243E-06-2.12550E-18-8.00077E-19
 -1      1091 8.86345E-05-2.26637E-05-2.82729E-05-1.37330E-06-1.70997E-18-1.30037E-18
 -1      1092 9.00359E-05-2.35557E-05-2.84913E-05-9.79004E-07-5.35189E-19-1.19198E-18
 -1      1093 9.11932E-05-2.43934E-05-2.86284E-05-6.99037E-07 2.49338E-19 6.06584E-19
 -1      1094 9.21391E-05-2.51543E-05-2.87077E-05-4.99251E-07 9.61415E-19 1.08884E-18
 -1      1095 9.29021E-05-2.58255E-05-2.87470E-05-3.56046E-07-7.98637E-19 3.79303E-19
 -1      1096 9.35087E-05-2.64026E-05-2.87597E-05-2.53006E-07-9.89838E-19 3.72190E-19
 -1      1097 9.39832E-05-2.68873E-05-2.87553E-05-1.78650E-07-1.14967E-18 8.43150E-19
 -1      1098 9.43481E-05-2.72859E-05-2.87409E-05-1.24901E-07 5.80738E-19 1.07668E-18
 -1      1099 9.46234E-05-2.76074E-05-2.87211E-05-8.60515E-08 6.23763E-19 6.63201E-19
 -1      1100 9.48270E-05-2.78618E-05-2.86994E-05-5.80636E-08 4.84530E-19 1.04978E-19
 -1      1101 9.49740E-05-2.80597E-05-2.86776E-05-3.80948E-08 3.18304E-19-5.55858E-19
 -1      1102 9.50777E-05-2.82119E-05-2.86569E-05-2.42832E-08-1.08524E-18 1.56262E-18
 -1      1103 9.37747E-05-2.66514E-05-2.87671E-05 4.08198E-07-7.91965E-19 2.07868E-18
 -1      1104 9.51483E-05-2.83225E-05-2.86397E-05 3.81333E-08 1.54701E-18-1.25588E-18
 -1      1105 9.32318E-05-2.61097E-05-2.87666E-05 5.20565E-07-7.36812E-19 7.92772E-19
 -1      1106 9.16570E-05-2.47129E-05-2.86904E-05 7.82636E-07 2.90444E-19 2.20192E-19
 -1      1107 9.41924E-05-2.70978E-05-2.87548E-05 3.11983E-07-1.13932E-19 1.65347E-18
 -1      1108 9.45085E-05-2.74590E-05-2.87355E-05 2.32173E-07 2.78326E-19 1.10401E-18
 -1      1109 9.47435E-05-2.77462E-05-2.87131E-05 1.67800E-07-2.40401E-19 1.34142E-18
 -1      1110 9.49145E-05-2.79706E-05-2.86902E-05 1.17264E-07-6.43404E-19 1.67840E-19
 -1      1111 9.50366E-05-2.81435E-05-2.86682E-05 7.75528E-08-4.16835E-19-1.43733E-18
 -1      1112 8.48915E-05-2.01950E-05-2.77243E-05 4.45683E-06 3.36455E-19-8.59337E-19
 -1      1113 7.66429E-05-1.94564E-05-2.45032E-05-8.86519E-06 1.02059E-19 4.18179E-20
 -1      1114 8.67892E-05-1.91937E-05-2.89680E-05-2.22117E-07 7.09163E-19-8.98750E-19
 -1      1115 7.02814E-05-1.59024E-05-2.32956E-05 7.49988E-07 1.10753E-19 1.15982E-18
 -1      1116 7.59841E-05-1.73581E-05-2.51314E-05 7.54192E-07-3.16281E-19 7.42437E-19
 -1      1117 8.21361E-05-2.00694E-05-2.65992E-05 6.36853E-06 4.75594E-19-9.88867E-19
 -1      1118 7.96046E-05-2.02009E-05-2.54572E-05 8.46467E-06 7.02687E-19-8.56120E-19
 -1      1119 8.54195E-05-2.07510E-05-2.77140E-05 1.22198E-06-1.21954E-18-6.18961E-19
 -1      1120 8.00880E-05-1.85722E-05-2.63628E-05 9.07967E-07-8.07259E-19 9.27494E-19
 -1      1121 8.30452E-05-1.96825E-05-2.71525E-05 1.11846E-06-9.08400E-19 1.01969E-19
 -1      1122 8.17034E-05-1.91774E-05-2.67963E-05-5.64310E-06 2.91540E-19-8.28407E-19
 -1      1123 8.75092E-05-2.18620E-05-2.81348E-05 1.15317E-06-1.09615E-18-3.49602E-19
 -1      1124 7.32584E-05-1.74362E-05-2.39223E-05 4.69673E-06 5.35741E-19-1.54473E-18
 -1      1125 9.05573E-05-2.38555E-05-2.85866E-05 9.19875E-07 1.24934E-18 1.33551E-18
 -1      1126 7.67614E-05-1.76116E-05-2.53503E-05-1.37797E-06 8.19645E-20-7.74283E-19
 -1      1127 9.50881E-05-2.82288E-05-2.86544E-05 2.25119E-08 4.45665E-20-5.64061E-19
 -1      1128 8.28925E-05-1.87956E-05-2.74713E-05-6.76423E-07 4.94831E-19-7.82144E-19
 -1      1129 7.53104E-05-1.77836E-05-2.46534E-05-4.54356E-06 2.28283E-19 7.96080E-19
 -1      1130 8.48296E-05-1.92126E-05-2.81243E-05 8.29391E-07 6.51323E-19-1.11381E-18
 -1      1131 8.91934E-05-2.29005E-05-2.84114E-05 1.04780E-06-1.85159E-19 1.16459E-18
 -1      1132 1.16413E-04 2.57400E-10-4.18122E-05-4.05449E-05-3.78200E-19 5.66665E-18
 -1      1133 8.92879E-05 7.46269E-11-3.74613E-05-2.29074E-05-1.58395E-19-1.63700E-18
 -1      1134 8.48297E-05 4.32174E-11-3.60424E-05-1.62907E-05-8.67679E-20-4.22984E-18
 -1      1135 8.28968E-05 3.23438E-11-3.52942E-05-1.20899E-05-4.43369E-20-5.18916E-18
 -1      1136 8.17612E-05 2.61049E-11-3.48412E-05-8.81901E-06-1.60936E-20-5.38311E-18
 -1      1137 8.09891E-05 2.19563E-11-3.45390E-05-6.14375E-06 3.32196E-21-5.29984E-18
 -1      1138 8.04558E-05 1.91184E-11-3.43327E-05-3.86087E-06 1.62524E-20-5.05946E-18
 -1      1139 8.01288E-05 1.74089E-11-3.42077E-05-1.81653E-06 2.95270E-20-4.69415E-18
 -1      1140 8.00160E-05 1.67912E-11-3.41652E-05 9.37754E-08 3.74944E-20-4.37076E-18
 -1      1141 8.01228E-05 1.72791E-11-3.42066E-05 1.99630E-06 4.90882E-20-3.95126E-18
 -1      1142 8.04507E-05 1.89233E-11-3.43326E-05 4.02131E-06 6.64789E-20-3.44018E-18
 -1      1143 8.09977E-05 2.17755E-11-3.45431E-05 6.28430E-06 7.87741E-20-2.74157E-18
 -1      1144 8.17885E-05 2.61350E-11-3.48526E-05 8.95310E-06 8.92561E-20-1.65179E-18
 -1      1145 8.29446E-05 3.26630E-11-3.53143E-05 1.22459E-05 1.13423E-19-5.26947E-20
 -1      1146 8.48604E-05 4.37061E-11-3.60733E-05 1.64882E-05 1.26155E-19 2.48754E-18
 -1      1147 8.90047E-05 6.97254E-11-3.75311E-05 2.27242E-05 1.05456E-19 6.78010E-18
 -1      1148 1.06364E-04 1.65998E-10-4.06070E-05 3.52750E-05 1.18373E-19 1.44047E-17
 -1      1149 1.29398E-04-2.57399E-05-4.01857E-05-2.54968E-05-1.35430E-18 1.00729E-17
 -1      1150 9.81814E-05-2.90902E-05-3.17974E-05-5.62679E-07-4.83576E-19 6.90618E-18
 -1      1151 9.20670E-05-2.76106E-05-2.84532E-05 4.11670E-07-1.63371E-19 3.08350E-18
 -1      1152 9.12355E-05-2.74787E-05-2.75469E-05 2.68925E-07-1.33646E-19 4.58668E-19
 -1      1153 9.20910E-05-2.77169E-05-2.76673E-05 1.90607E-07-1.20390E-19-1.27595E-18
 -1      1154 9.39007E-05-2.82292E-05-2.81940E-05 1.54605E-07-4.35709E-20-2.41322E-18
 -1      1155 9.63278E-05-2.89348E-05-2.89202E-05 1.39367E-07-1.46014E-20-3.47315E-18
 -1      1156 9.91752E-05-2.97727E-05-2.97671E-05 1.35001E-07-8.71435E-20-4.24882E-18
 -1      1157 1.02261E-04-3.06838E-05-3.06757E-05 1.34124E-07-5.44731E-20-5.11256E-18
 -1      1158 1.05344E-04-3.15930E-05-3.15702E-05 1.28343E-07-7.34813E-20-6.32498E-18
 -1      1159 1.08068E-04-3.23920E-05-3.23406E-05 1.06165E-07 8.88491E-20-6.78150E-18
 -1      1160 1.09926E-04-3.29301E-05-3.28373E-05 5.29903E-08-1.63782E-20-6.46554E-18
 -1      1161 1.10291E-04-3.30225E-05-3.28856E-05-4.46859E-08-4.33939E-20-7.76656E-18
 -1      1162 1.08551E-04-3.24930E-05-3.23320E-05-1.88419E-07-5.25756E-21-8.42356E-18
 -1      1163 1.04410E-04-3.12622E-05-3.11274E-05-3.51639E-07 3.45761E-20-7.33583E-18
 -1      1164 9.82779E-05-2.94610E-05-2.94210E-05-4.70442E-07-1.53075E-19-8.01584E-18
 -1      1165 9.15280E-05-2.74962E-05-2.76013E-05-4.62939E-07-2.18806E-20-9.37777E-18
 -1      1166 8.62558E-05-2.59728E-05-2.62119E-05-2.85738E-07 2.12936E-19-9.54905E-18
 -1      1167 8.44134E-05-2.54434E-05-2.57346E-05 1.31828E-08 1.32686E-19-9.73754E-18
 -1      1168 8.67696E-05-2.61242E-05-2.63559E-05 3.07478E-07 5.55865E-22-9.80086E-18
 -1      1169 9.24566E-05-2.77711E-05-2.78664E-05 4.73242E-07-4.72535E-20-9.19565E-18
 -1      1170 9.94851E-05-2.98210E-05-2.97741E-05 4.70203E-07-2.12792E-20-7.08379E-18
 -1      1171 1.05808E-04-3.16821E-05-3.15464E-05 3.47761E-07-2.30489E-19-8.42279E-18
 -1      1172 1.10140E-04-3.29719E-05-3.28164E-05 1.87858E-07-9.25450E-21-9.91614E-18
 -1      1173 1.12149E-04-3.35830E-05-3.34555E-05 5.16974E-08 2.33295E-19-8.52739E-18
 -1      1174 1.12178E-04-3.36084E-05-3.35266E-05-3.66529E-08 4.14384E-20-5.66223E-18
 -1      1175 1.10849E-04-3.32279E-05-3.31884E-05-7.98042E-08 2.15634E-19-5.70408E-18
 -1      1176 1.08781E-04-3.26231E-05-3.26135E-05-9.11746E-08 4.74872E-20-6.62298E-18
 -1      1177 1.06454E-04-3.19364E-05-3.19439E-05-8.45655E-08-4.38249E-20-7.23173E-18
 -1      1178 1.04182E-04-3.12622E-05-3.12773E-05-7.00968E-08 2.02940E-19-6.79156E-18
 -1      1179 1.02140E-04-3.06537E-05-3.06706E-05-5.38682E-08 6.88756E-20-6.65651E-18
 -1      1180 1.00405E-04-3.01348E-05-3.01503E-05-3.89723E-08 3.91405E-20-6.77107E-18
 -1      1181 9.89908E-05-2.97104E-05-2.97234E-05-2.66342E-08-2.42579E-19-7.10149E-18
 -1      1182 9.78756E-05-2.93748E-05-2.93850E-05-1.70668E-08 2.05580E-19-5.95801E-18
 -1      1183 9.70218E-05-2.91172E-05-2.91248E-05-1.00092E-08-1.41976E-19-4.66172E-18
 -1      1184 9.63861E-05-2.89248E-05-2.89302E-05-5.02738E-09 1.00046E-19-5.72823E-18
 -1      1185 9.59260E-05-2.87851E-05-2.87889E-05-1.66643E-09 2.59472E-19-4.58252E-18
 -1      1186 9.56035E-05-2.86869E-05-2.86893E-05 4.82282E-10-1.32494E-19-4.22519E-18
 -1      1187 9.53862E-05-2.86204E-05-2.86219E-05 1.75785E-09 1.59046E-21-4.99013E-18
 -1      1188 9.52474E-05-2.85777E-05-2.85785E-05 2.42824E-09-1.61813E-19-6.90227E-18
 -1      1189 9.51657E-05-2.85523E-05-2.85527E-05 2.69787E-09-4.58578E-19-7.87326E-18
 -1      1190 9.51246E-05-2.85393E-05-2.85394E-05 2.71821E-09-2.21268E-19-8.23979E-18
 -1      1191 9.51117E-05-2.85348E-05-2.85348E-05 2.59819E-09-4.79337E-20-7.33183E-18
 -1      1192 9.51174E-05-2.85361E-05-2.85360E-05 2.41304E-09 4.84160E-20-5.76385E-18
 -1      1193 9.51350E-05-2.85411E-05-2.85409E-05 2.21046E-09 4.41954E-19-1.08798E-18
 -1      1194 9.51591E-05-2.85480E-05-2.85478E-05 2.01179E-09 1.14980E-20 2.81131E-18
 -1      1195 9.51857E-05-2.85558E-05-2.85555E-05 1.80119E-09-2.68523E-19-1.40723E-18
 -1      1196 9.52108E-05-2.85632E-05-2.85626E-05 1.46537E-09 2.03198E-19 4.82276E-19
 -1      1197 9.52299E-05-2.85687E-05-2.85680E-05 7.56432E-10-9.15643E-20 5.22721E-19
 -1      1198 9.52376E-05-2.85714E-05-2.85712E-05-2.50879E-10 3.84876E-19 7.63480E-19
 -1      1199 1.30104E-04-3.73899E-05-3.85984E-05 1.19692E-05-2.64936E-19 2.02255E-17
 -1      1200 9.73432E-05-2.84384E-05-3.15599E-05 7.59000E-07 8.09975E-21 1.83672E-17
 -1      1201 9.23264E-05-2.75333E-05-2.84534E-05 1.15295E-07 7.26132E-20 1.55604E-17
 -1      1202 9.14500E-05-2.74508E-05-2.76282E-05 1.93022E-08-1.46411E-20 1.37919E-17
 -1      1203 9.24061E-05-2.77678E-05-2.77876E-05-8.74490E-09 2.47459E-20 1.24300E-17
 -1      1204 9.44531E-05-2.83776E-05-2.83868E-05-1.80148E-08 1.66760E-21 1.13511E-17
 -1      1205 9.73029E-05-2.92244E-05-2.92473E-05-2.64442E-08-1.63997E-20 1.08981E-17
 -1      1206 1.00842E-04-3.02776E-05-3.03137E-05-4.15071E-08 8.88119E-20 1.02456E-17
 -1      1207 1.04996E-04-3.15123E-05-3.15570E-05-6.87278E-08-2.93459E-20 9.36379E-18
 -1      1208 1.09638E-04-3.28862E-05-3.29288E-05-1.12786E-07-4.36735E-20 9.33859E-18
 -1      1209 1.14474E-04-3.43101E-05-3.43270E-05-1.74291E-07 2.95643E-20 8.46718E-18
 -1      1210 1.18918E-04-3.56109E-05-3.55599E-05-2.41939E-07 5.20330E-20 8.00197E-18
 -1      1211 1.21975E-04-3.65018E-05-3.63263E-05-2.80837E-07 5.25392E-20 8.01823E-18
 -1      1212 1.22262E-04-3.65913E-05-3.62501E-05-2.26529E-07-8.75356E-20 8.81910E-18
 -1      1213 1.18407E-04-3.54903E-05-3.50207E-05-9.48797E-09-1.69929E-19 8.98268E-18
 -1      1214 1.09992E-04-3.30657E-05-3.26483E-05 3.66926E-07 6.70347E-20 7.94242E-18
 -1      1215 9.87588E-05-2.97708E-05-2.97001E-05 7.42406E-07-1.59431E-19 7.94263E-18
 -1      1216 8.88993E-05-2.67857E-05-2.72536E-05 8.41786E-07 2.07152E-19 7.01566E-18
 -1      1217 8.51995E-05-2.55466E-05-2.64098E-05 5.09908E-07 1.05284E-20 4.51061E-18
 -1      1218 8.97305E-05-2.68029E-05-2.75792E-05-7.50952E-08-6.44936E-20 4.66959E-18
 -1      1219 1.00145E-04-2.99305E-05-3.02275E-05-5.57956E-07 1.41802E-19 4.52421E-18
 -1      1220 1.11606E-04-3.34416E-05-3.32423E-05-7.14896E-07-2.43386E-19 4.11616E-18
 -1      1221 1.20030E-04-3.60313E-05-3.55905E-05-5.84522E-07 9.03546E-20 3.10559E-18
 -1      1222 1.23886E-04-3.72075E-05-3.67834E-05-3.41326E-07 5.50770E-20 1.03634E-18
 -1      1223 1.23747E-04-3.71579E-05-3.68716E-05-1.22346E-07 2.79359E-19 2.46052E-18
 -1      1224 1.21036E-04-3.63289E-05-3.61885E-05 2.15591E-08-2.19509E-19 6.62560E-18
 -1      1225 1.17121E-04-3.51425E-05-3.51053E-05 9.36758E-08-6.98554E-20 7.76547E-18
 -1      1226 1.12961E-04-3.38889E-05-3.39085E-05 1.16951E-07 2.53483E-19 5.06139E-18
 -1      1227 1.09102E-04-3.27293E-05-3.27726E-05 1.13467E-07-1.20157E-19 4.45404E-18
 -1      1228 1.05782E-04-3.17338E-05-3.17820E-05 9.82439E-08 4.15451E-20 3.86186E-18
 -1      1229 1.03062E-04-3.09188E-05-3.09631E-05 7.97655E-08 5.87259E-19 1.36466E-18
 -1      1230 1.00908E-04-3.02735E-05-3.03106E-05 6.21412E-08 9.35194E-20 7.15240E-19
 -1      1231 9.92458E-05-2.97754E-05-2.98051E-05 4.69947E-08-2.20648E-19 2.21440E-18
 -1      1232 9.79910E-05-2.93992E-05-2.94222E-05 3.46959E-08 7.23779E-20 1.77589E-18
 -1      1233 9.70628E-05-2.91209E-05-2.91382E-05 2.50565E-08-2.11423E-19 1.80874E-18
 -1      1234 9.63906E-05-2.89191E-05-2.89320E-05 1.76865E-08-4.52846E-19 1.97442E-18
 -1      1235 9.59150E-05-2.87762E-05-2.87856E-05 1.21616E-08 5.85383E-19-1.81585E-18
 -1      1236 9.55879E-05-2.86779E-05-2.86846E-05 8.09248E-09-2.17167E-20-1.93605E-18
 -1      1237 9.53710E-05-2.86126E-05-2.86173E-05 5.14799E-09 2.12437E-20-1.92727E-18
 -1      1238 9.52346E-05-2.85714E-05-2.85746E-05 3.05705E-09-3.85487E-20-2.20422E-18
 -1      1239 9.51558E-05-2.85476E-05-2.85497E-05 1.60250E-09-2.20958E-19-1.22337E-18
 -1      1240 9.51174E-05-2.85359E-05-2.85373E-05 6.12452E-10-3.26344E-19 4.74531E-19
 -1      1241 9.51066E-05-2.85325E-05-2.85334E-05-4.83116E-11-4.47075E-20 3.88255E-19
 -1      1242 9.51141E-05-2.85346E-05-2.85351E-05-4.86295E-10-2.91497E-19 4.67185E-19
 -1      1243 9.51328E-05-2.85401E-05-2.85404E-05-7.86406E-10 1.25389E-19-1.25819E-18
 -1      1244 9.51578E-05-2.85475E-05-2.85475E-05-1.01577E-09 2.40790E-19-5.85008E-18
 -1      1245 9.51849E-05-2.85555E-05-2.85554E-05-1.22065E-09 3.36524E-19-9.41826E-18
 -1      1246 9.52105E-05-2.85631E-05-2.85626E-05-1.38724E-09-9.32006E-21-5.94831E-18
 -1      1247 9.52299E-05-2.85688E-05-2.85681E-05-1.25092E-09 3.24905E-19-4.91464E-18
 -1      1248 9.52376E-05-2.85714E-05-2.85712E-05 1.91154E-10-3.64375E-20-3.58987E-18
 -1      1249 9.52369E-05-2.85707E-05-2.85712E-05 8.41113E-11-3.89312E-18-7.69219E-19
 -1      1250 9.52395E-05-2.85786E-05-2.85681E-05-6.41697E-10-7.22512E-18-1.22192E-18
 -1      1251 9.52448E-05-2.85964E-05-2.85632E-05-1.28676E-09-2.28943E-18 1.14300E-18
 -1      1252 9.52511E-05-2.86178E-05-2.85573E-05-1.25962E-09-5.47769E-19 3.46124E-19
 -1      1253 9.52571E-05-2.86380E-05-2.85515E-05-1.01448E-09-5.73998E-19-2.97629E-19
 -1      1254 9.52620E-05-2.86544E-05-2.85466E-05-7.15295E-10-5.13295E-18-9.55301E-19
 -1      1255 9.52655E-05-2.86661E-05-2.85431E-05-4.53776E-10-4.86223E-18 1.19250E-19
 -1      1256 9.52676E-05-2.86731E-05-2.85410E-05-2.09593E-10-2.93561E-18 4.17501E-20
 -1      1257 9.52682E-05-2.86753E-05-2.85404E-05 1.07026E-11-6.11530E-18 1.11272E-19
 -1      1258 9.52674E-05-2.86727E-05-2.85411E-05 2.28989E-10-1.15885E-19 1.56001E-18
 -1      1259 9.52653E-05-2.86654E-05-2.85433E-05 4.67492E-10 2.91994E-18-1.18004E-18
 -1      1260 9.52617E-05-2.86534E-05-2.85469E-05 7.34780E-10-2.99279E-18 1.04122E-20
 -1      1261 9.52568E-05-2.86370E-05-2.85517E-05 1.01101E-09-6.10830E-18-6.39253E-20
 -1      1262 9.52508E-05-2.86169E-05-2.85575E-05 1.26425E-09-7.14098E-18-1.30403E-18
 -1      1263 9.52446E-05-2.85956E-05-2.85634E-05 1.50494E-09-7.07033E-18 1.37499E-19
 -1      1264 9.52398E-05-2.85786E-05-2.85682E-05 6.96530E-10-2.77429E-18 2.40678E-19
 -1      1265 9.52368E-05-2.85707E-05-2.85712E-05-7.09236E-12-2.17125E-19 1.41731E-19
 -1      1266 3.46381E-05-1.08752E-04 1.84321E-05-1.43029E-05 1.02868E-17 1.29666E-18
 -1      1267 1.72605E-05-6.59462E-05 9.88400E-06-2.44725E-05 1.68610E-17 6.59246E-18
 -1      1268 7.94335E-06-1.04724E-05-5.96992E-06-6.81986E-07 1.90057E-17 1.13858E-17
 -1      1269 3.31869E-05 2.28159E-05-2.53371E-05 5.05077E-05 1.72862E-17 1.72541E-17
 -1      1270 1.02649E-04 1.41158E-05-4.54630E-05 9.86941E-05 1.17170E-17 1.62004E-17
 -1      1271 2.02116E-04-3.07443E-05-6.33065E-05 1.09831E-04 4.63751E-18 1.04185E-17
 -1      1272 2.88665E-04-7.95889E-05-7.53588E-05 6.65138E-05 1.12571E-18 5.86994E-19
 -1      1273 3.14833E-04-9.49530E-05-7.86699E-05-1.23025E-05 1.02851E-18-1.14122E-17
 -1      1274 2.65712E-04-6.52332E-05-7.24044E-05-8.55899E-05 4.90940E-18-1.78394E-17
 -1      1275 1.67047E-04-1.23559E-05-5.76031E-05-1.12193E-04 1.03846E-17-2.01543E-17
 -1      1276 7.29264E-05 2.21461E-05-3.81439E-05-8.33091E-05 1.29655E-17-1.62952E-17
 -1      1277 1.81782E-05 1.42591E-05-1.72838E-05-2.85204E-05 1.41912E-17-1.14383E-17
 -1      1278 8.60738E-06-3.09903E-05 1.00289E-06 1.58710E-05 1.21397E-17-6.51877E-18
 -1      1279 2.43085E-05-8.46879E-05 1.38582E-05 2.56882E-05 5.01020E-18-2.06485E-18
 -1      1280 3.76276E-05-1.14771E-04 1.93987E-05 5.12977E-06-5.22863E-18-3.74971E-19
 -1      1281 2.88466E-05-9.58784E-05 1.62640E-05-1.97278E-05-1.27148E-17-2.97801E-18
 -1      1282 1.23467E-05-4.71720E-05 5.18530E-06-2.10269E-05-1.96054E-17-8.83582E-18
 -1      1283 1.13353E-05 5.01512E-06-1.17035E-05 1.46230E-05-2.14435E-17-1.53288E-17
 -1      1284 5.19133E-05 2.56889E-05-3.21799E-05 6.98195E-05-1.77945E-17-1.84552E-17
 -1      1285 1.37958E-04 1.04967E-06-5.22495E-05 1.08214E-04-9.97381E-18-1.56057E-17
 -1      1286 2.36039E-04-4.87991E-05-6.83821E-05 9.75609E-05-3.57787E-18-8.91248E-18
 -1      1287 3.02484E-04-8.95431E-05-7.68008E-05 3.82979E-05-4.50066E-19 1.29765E-18
 -1      1288 2.98378E-04-8.69517E-05-7.64325E-05-4.23597E-05-1.57535E-18 1.09733E-17
 -1      1289 2.37621E-04-5.04722E-05-6.83919E-05-9.87427E-05-5.69968E-18 1.63791E-17
 -1      1290 1.50418E-04-4.57289E-06-5.48944E-05-1.11345E-04-1.03956E-17 1.87398E-17
 -1      1291 7.01597E-05 2.45390E-05-3.79126E-05-8.41190E-05-1.39642E-17 1.68068E-17
 -1      1292 2.00437E-05 1.97826E-05-1.95859E-05-3.55145E-05-1.60191E-17 1.34153E-17
 -1      1293 7.20529E-06-1.94590E-05-2.21626E-06 8.40203E-06-1.46926E-17 8.62025E-18
 -1      1294 1.97633E-05-7.18946E-05 1.13282E-05 2.45381E-05-8.80152E-18 3.79915E-18
 -1      1295 3.49143E-05-1.08777E-04 1.84542E-05 1.21588E-05 2.27810E-18 3.69783E-19
 -1      1296 1.04725E-04-2.20946E-05-3.79428E-05-1.66022E-05-5.36066E-19 3.66765E-18
 -1      1297 9.12518E-05-6.95783E-06-3.62788E-05-1.90558E-05-1.05614E-18-2.89362E-18
 -1      1298 9.35084E-05-7.06607E-06-3.74088E-05-2.44555E-05-1.48919E-18-1.53811E-18
 -1      1299 8.67543E-05-4.26864E-06-3.54134E-05-1.47464E-05-8.22575E-19-4.68550E-18
 -1      1300 8.80810E-05-4.28015E-06-3.58865E-05-1.72685E-05-1.00538E-18-3.97502E-18
 -1      1301 9.31867E-05-1.08217E-05-3.53779E-05-1.74586E-05-1.73793E-18-2.53406E-18
 -1      1302 8.46007E-05-3.21982E-06-3.48928E-05-1.10446E-05-4.86938E-19-5.32061E-18
 -1      1303 8.53827E-05-3.20101E-06-3.51658E-05-1.28796E-05-6.28578E-19-5.06743E-18
 -1      1304 8.86816E-05-7.54015E-06-3.48502E-05-1.36598E-05-1.23164E-18-3.96885E-18
 -1      1305 8.32212E-05-2.60014E-06-3.45499E-05-8.00568E-06-1.93097E-19-5.40820E-18
 -1      1306 8.37520E-05-2.59333E-06-3.47277E-05-9.48337E-06-3.15176E-19-5.42231E-18
 -1      1307 8.62030E-05-5.86509E-06-3.44937E-05-1.01833E-05-7.00020E-19-4.51019E-18
 -1      1308 8.22666E-05-2.18741E-06-3.43113E-05-5.49792E-06 8.12622E-20-5.24104E-18
 -1      1309 8.26399E-05-2.18593E-06-3.44331E-05-6.72011E-06-3.06785E-20-5.32696E-18
 -1      1310 8.45947E-05-4.82381E-06-3.42396E-05-7.32127E-06-2.33427E-19-4.55262E-18
 -1      1311 8.16008E-05-1.90311E-06-3.41446E-05-3.29215E-06 2.78270E-19-4.98807E-18
 -1      1312 8.18548E-05-1.90434E-06-3.42265E-05-4.37418E-06 2.30678E-19-5.15091E-18
 -1      1313 8.34786E-05-4.12533E-06-3.40535E-05-4.90285E-06 2.27706E-19-4.41278E-18
 -1      1314 8.12205E-05-1.73238E-06-3.40512E-05-1.30987E-06 5.33715E-19-4.65011E-18
 -1      1315 8.13510E-05-1.73366E-06-3.40928E-05-2.29489E-06 4.38737E-19-4.83173E-18
 -1      1316 8.27373E-05-3.67274E-06-3.39258E-05-2.77423E-06 5.71087E-19-4.09485E-18
 -1      1317 8.11290E-05-1.67095E-06-3.40331E-05 5.71312E-07 7.11612E-19-4.28400E-18
 -1      1318 8.11325E-05-1.67131E-06-3.40335E-05-3.78611E-07 6.61865E-19-4.49540E-18
 -1      1319 8.23587E-05-3.44265E-06-3.38603E-05-8.36115E-07 9.47725E-19-3.84316E-18
 -1      1320 8.13328E-05-1.72005E-06-3.40920E-05 2.47534E-06 9.10739E-19-3.85159E-18
 -1      1321 8.12066E-05-1.71931E-06-3.40507E-05 1.49768E-06 8.46236E-19-4.10549E-18
 -1      1322 8.23456E-05-3.42948E-06-3.38603E-05 1.03176E-06 1.27837E-18-3.46410E-18
 -1      1323 8.18356E-05-1.88487E-06-3.42279E-05 4.53100E-06 1.12416E-18-3.29636E-18
 -1      1324 8.15792E-05-1.88289E-06-3.41447E-05 3.45985E-06 1.03122E-18-3.61575E-18
 -1      1325 8.27060E-05-3.63913E-06-3.39265E-05 2.95194E-06 1.57744E-18-3.03635E-18
 -1      1326 8.26296E-05-2.16639E-06-3.44375E-05 6.83188E-06 1.28736E-18-2.55076E-18
 -1      1327 8.22472E-05-2.16777E-06-3.43130E-05 5.62001E-06 1.22273E-18-3.01153E-18
 -1      1328 8.34433E-05-4.08324E-06-3.40556E-05 5.03259E-06 1.91664E-18-2.47286E-18
 -1      1329 8.37869E-05-2.59601E-06-3.47413E-05 9.61042E-06 1.52220E-18-1.40586E-18
 -1      1330 8.32394E-05-2.60278E-06-3.45591E-05 8.13068E-06 1.38961E-18-2.08203E-18
 -1      1331 8.45885E-05-4.80071E-06-3.42463E-05 7.42454E-06 2.19097E-18-1.64684E-18
 -1      1332 8.54608E-05-3.22967E-06-3.51869E-05 1.30315E-05 1.69317E-18 2.74280E-19
 -1      1333 8.46622E-05-3.25258E-06-3.49093E-05 1.11802E-05 1.56773E-18-7.22903E-19
 -1      1334 8.62659E-05-5.89733E-06-3.45076E-05 1.03045E-05 2.46753E-18-4.76085E-19
 -1      1335 8.82168E-05-4.28577E-06-3.59197E-05 1.74485E-05 1.68570E-18 2.97856E-18
 -1      1336 8.68581E-05-4.32959E-06-3.54344E-05 1.49464E-05 1.57289E-18 1.37415E-18
 -1      1337 8.88230E-05-7.64641E-06-3.48671E-05 1.38289E-05 2.59451E-18 1.28815E-18
 -1      1338 9.42871E-05-7.11079E-06-3.73054E-05 2.37952E-05 1.16075E-18 7.51583E-18
 -1      1339 9.11104E-05-6.73352E-06-3.63099E-05 1.96708E-05 1.22788E-18 4.80765E-18
 -1      1340 9.34479E-05-1.10548E-05-3.53752E-05 1.80314E-05 2.29459E-18 4.21875E-18
 -1      1341 1.23348E-04-2.49539E-05-3.90064E-05 2.75095E-05 3.60624E-19 1.47712E-17
 -1      1342 1.00666E-04-1.46702E-05-3.74752E-05 2.29910E-05 4.20764E-19 9.93083E-18
 -1      1343 1.02599E-04-1.97250E-05-3.56156E-05 2.00479E-05 1.71526E-18 8.26048E-18
 -1      1344 1.03111E-04-2.80136E-05-3.48612E-05 6.71450E-06 7.72891E-19 1.46977E-17
 -1      1345 1.05851E-04-3.04771E-05-3.37091E-05-7.29228E-06-1.31184E-18 4.34920E-18
 -1      1346 9.95232E-05-2.82632E-05-3.11047E-05-4.42181E-06-1.14805E-18 2.81353E-18
 -1      1347 9.71161E-05-2.83380E-05-2.97286E-05-1.92857E-06-9.01455E-19 2.33309E-18
 -1      1348 9.54161E-05-2.81998E-05-2.88523E-05-1.48850E-06-8.46821E-19 9.75200E-19
 -1      1349 1.00955E-04-2.85282E-05-3.14057E-05-6.78642E-06-1.99053E-18 6.51686E-19
 -1      1350 9.41637E-05-2.79595E-05-2.83598E-05-2.45523E-07-6.86335E-19 5.98693E-19
 -1      1351 9.40124E-05-2.80288E-05-2.82290E-05-1.19891E-07-6.66330E-19-4.23622E-19
 -1      1352 9.69707E-05-2.84336E-05-2.95013E-05-1.98836E-06-1.49824E-18 5.29396E-23
 -1      1353 9.37680E-05-2.79879E-05-2.81452E-05 5.16813E-07-4.89473E-19-8.12040E-19
 -1      1354 9.43533E-05-2.82109E-05-2.83068E-05 5.99439E-07-4.54446E-19-1.56362E-18
 -1      1355 9.56861E-05-2.84060E-05-2.88711E-05 2.25928E-07-1.11676E-18-7.55606E-19
 -1      1356 9.46898E-05-2.83143E-05-2.84178E-05 9.80603E-07-3.78073E-19-1.75312E-18
 -1      1357 9.56904E-05-2.86430E-05-2.87121E-05 1.03921E-06-3.43220E-19-2.23188E-18
 -1      1358 9.58023E-05-2.85665E-05-2.88367E-05 1.44478E-06-8.40138E-19-1.42051E-18
 -1      1359 9.63928E-05-2.88499E-05-2.89338E-05 1.29117E-06-2.58357E-19-2.36404E-18
 -1      1360 9.76621E-05-2.92556E-05-2.93055E-05 1.33359E-06-2.06918E-19-2.83882E-18
 -1      1361 9.68179E-05-2.89283E-05-2.91133E-05 2.21319E-06-6.06601E-19-1.79370E-18
 -1      1362 9.86011E-05-2.95339E-05-2.95960E-05 1.49404E-06-2.05835E-19-3.01022E-18
 -1      1363 1.00039E-04-2.99919E-05-3.00149E-05 1.52049E-06-3.05713E-19-3.28816E-18
 -1      1364 9.84224E-05-2.94511E-05-2.95731E-05 2.71743E-06-4.40232E-19-2.09498E-18
 -1      1365 1.01114E-04-3.03157E-05-3.03424E-05 1.58613E-06-1.60998E-19-3.27610E-18
 -1      1366 1.02614E-04-3.07972E-05-3.07770E-05 1.59064E-06-2.50324E-19-3.68568E-18
 -1      1367 1.00401E-04-3.00922E-05-3.01405E-05 2.99908E-06-4.37477E-19-2.09296E-18
 -1      1368 1.03720E-04-3.11394E-05-3.11074E-05 1.53052E-06-2.27385E-19-3.72282E-18
 -1      1369 1.05134E-04-3.16020E-05-3.15137E-05 1.50149E-06-2.61736E-19-4.18761E-18
 -1      1370 1.02558E-04-3.08082E-05-3.07501E-05 3.01817E-06-4.72990E-19-2.07420E-18
 -1      1371 1.06141E-04-3.19278E-05-3.18049E-05 1.26570E-06-2.77582E-19-4.29229E-18
 -1      1372 1.07261E-04-3.23075E-05-3.21213E-05 1.18733E-06-1.51556E-20-4.39922E-18
 -1      1373 1.04671E-04-3.15425E-05-3.13288E-05 2.67844E-06-4.63567E-19-2.14367E-18
 -1      1374 1.08003E-04-3.25691E-05-3.23213E-05 7.23018E-07 1.02153E-19-4.65292E-18
 -1      1375 1.08555E-04-3.27762E-05-3.24698E-05 5.80239E-07-2.46990E-19-4.81263E-18
 -1      1376 1.06453E-04-3.22113E-05-3.17892E-05 1.85548E-06-1.61787E-19-2.76264E-18
 -1      1377 1.08839E-04-3.29109E-05-3.25224E-05-1.35330E-07-4.58351E-19-4.66588E-18
 -1      1378 1.08524E-04-3.28390E-05-3.24218E-05-3.45768E-07-4.03055E-19-5.36165E-18
 -1      1379 1.07549E-04-3.26899E-05-3.20343E-05 4.53467E-07-4.14133E-19-2.87660E-18
 -1      1380 1.08168E-04-3.27756E-05-3.22814E-05-1.25256E-06-1.45584E-22-5.36250E-18
 -1      1381 1.06765E-04-3.23329E-05-3.18779E-05-1.50466E-06 1.36041E-19-5.22318E-18
 -1      1382 1.07577E-04-3.28124E-05-3.19761E-05-1.49328E-06-2.92213E-19-2.67816E-18
 -1      1383 1.05676E-04-3.20153E-05-3.15347E-05-2.40552E-06 4.88037E-20-5.20343E-18
 -1      1384 1.03206E-04-3.11846E-05-3.08462E-05-2.62837E-06-3.59744E-19-5.11648E-18
 -1      1385 1.06235E-04-3.24040E-05-3.15706E-05-3.68853E-06-6.73788E-20-2.88286E-18
 -1      1386 1.01494E-04-3.06185E-05-3.03513E-05-3.18685E-06-5.57452E-19-5.39510E-18
 -1      1387 9.83818E-05-2.95282E-05-2.95037E-05-3.27286E-06-4.90639E-19-5.78502E-18
 -1      1388 1.03500E-04-3.13739E-05-3.08598E-05-5.49369E-06-5.72816E-19-3.14014E-18
 -1      1389 9.64387E-05-2.88347E-05-2.89763E-05-3.13244E-06-2.15775E-19-6.05438E-18
 -1      1390 9.35233E-05-2.77823E-05-2.81971E-05-2.98983E-06-3.05150E-19-6.43719E-18
 -1      1391 9.98453E-05-2.98573E-05-2.99952E-05-6.05299E-06-6.30284E-19-3.27303E-18
 -1      1392 9.19802E-05-2.72032E-05-2.77975E-05-2.01073E-06-5.93651E-20-6.73021E-18
 -1      1393 9.02509E-05-2.65661E-05-2.73415E-05-1.64496E-06 1.34069E-19-6.63395E-18
 -1      1394 9.63083E-05-2.82991E-05-2.92156E-05-4.72538E-06-2.61700E-19-3.71619E-18
 -1      1395 8.97158E-05-2.63573E-05-2.72080E-05-9.35161E-08 7.26132E-20-6.93690E-18
 -1      1396 8.98417E-05-2.63998E-05-2.72430E-05 3.62021E-07 8.73767E-20-6.77536E-18
 -1      1397 9.41806E-05-2.73243E-05-2.87709E-05-1.63974E-06-8.24004E-20-4.70615E-18
 -1      1398 9.05581E-05-2.66683E-05-2.74282E-05 1.89282E-06 1.07732E-19-7.08127E-18
 -1      1399 9.25151E-05-2.73807E-05-2.79484E-05 2.24695E-06-1.06336E-19-6.80636E-18
 -1      1400 9.43619E-05-2.73915E-05-2.88182E-05 2.13795E-06-1.10935E-19-4.58327E-18
 -1      1401 9.42090E-05-2.80061E-05-2.83930E-05 3.17655E-06 2.57309E-19-7.09335E-18
 -1      1402 9.72942E-05-2.91103E-05-2.92222E-05 3.30322E-06 1.95373E-19-6.56271E-18
 -1      1403 9.68195E-05-2.84815E-05-2.93522E-05 5.13534E-06 2.54024E-19-4.48139E-18
 -1      1404 9.93471E-05-2.98316E-05-2.97858E-05 3.39751E-06 2.12501E-19-6.39134E-18
 -1      1405 1.02574E-04-3.09522E-05-3.06694E-05 3.30196E-06-6.28227E-20-6.40637E-18
 -1      1406 1.00609E-04-3.01143E-05-3.02083E-05 6.34310E-06 1.64003E-19-5.42968E-18
 -1      1407 1.04373E-04-3.15370E-05-3.11951E-05 2.72680E-06-4.26845E-19-6.51628E-18
 -1      1408 1.06937E-04-3.23905E-05-3.19143E-05 2.50451E-06-4.10110E-19-7.06373E-18
 -1      1409 1.04449E-04-3.16698E-05-3.11386E-05 5.70710E-06-3.44660E-19-5.20555E-18
 -1      1410 1.08115E-04-3.27291E-05-3.22881E-05 1.62100E-06 1.79267E-19-6.58052E-18
 -1      1411 1.09632E-04-3.32027E-05-3.27271E-05 1.37763E-06 3.74660E-19-6.42554E-18
 -1      1412 1.07349E-04-3.27284E-05-3.19106E-05 3.90430E-06-7.86616E-20-4.19379E-18
 -1      1413 1.10102E-04-3.32968E-05-3.29041E-05 5.11775E-07 7.02786E-19-6.09553E-18
 -1      1414 1.10581E-04-3.34171E-05-3.30534E-05 3.14129E-07 9.08959E-19-4.99990E-18
 -1      1415 1.08885E-04-3.31803E-05-3.23823E-05 1.78094E-06 6.69044E-19-3.42880E-18
 -1      1416 1.10446E-04-3.33251E-05-3.30473E-05-3.50645E-07 4.71797E-19-4.71969E-18
 -1      1417 1.10120E-04-3.31878E-05-3.29648E-05-4.79834E-07 2.69919E-19-4.10868E-18
 -1      1418 1.09112E-04-3.31277E-05-3.25202E-05-5.49729E-08 9.23478E-19-3.30923E-18
 -1      1419 1.09563E-04-3.29800E-05-3.28221E-05-8.94681E-07 8.85745E-21-3.94717E-18
 -1      1420 1.08731E-04-3.26910E-05-3.25893E-05-9.60765E-07 1.15256E-19-4.31210E-18
 -1      1421 1.08340E-04-3.27463E-05-3.23721E-05-1.33720E-06 2.71884E-19-2.68075E-18
 -1      1422 1.07936E-04-3.24270E-05-3.23640E-05-1.15685E-06 1.15203E-19-4.37828E-18
 -1      1423 1.06862E-04-3.20729E-05-3.20564E-05-1.17633E-06-3.19203E-19-4.69002E-18
 -1      1424 1.06944E-04-3.21974E-05-3.20244E-05-2.05474E-06-2.35212E-19-2.57647E-18
 -1      1425 1.05977E-04-3.17954E-05-3.17955E-05-1.21425E-06-1.02711E-19-4.70065E-18
 -1      1426 1.04853E-04-3.14352E-05-3.14694E-05-1.20437E-06 3.39704E-20-4.81550E-18
 -1      1427 1.05251E-04-3.15967E-05-3.15668E-05-2.32268E-06-3.60312E-20-2.54221E-18
 -1      1428 1.03982E-04-3.11710E-05-3.12069E-05-1.14410E-06-5.65122E-20-4.36311E-18
 -1      1429 1.02926E-04-3.08393E-05-3.08982E-05-1.11855E-06 4.12735E-19-4.08566E-18
 -1      1430 1.03504E-04-3.10159E-05-3.10727E-05-2.28685E-06-1.31012E-19-2.26470E-18
 -1      1431 1.02131E-04-3.06032E-05-3.06554E-05-1.00716E-06 2.00294E-19-4.31243E-18
 -1      1432 1.01204E-04-3.03165E-05-3.03831E-05-9.75329E-07-4.06703E-19-4.20596E-18
 -1      1433 1.01856E-04-3.04931E-05-3.05937E-05-2.07512E-06 3.07088E-19-2.04220E-18
 -1      1434 1.00514E-04-3.01147E-05-3.01710E-05-8.45051E-07-1.52158E-19-3.88086E-18
 -1      1435 9.97399E-05-2.98780E-05-2.99425E-05-8.12673E-07 2.81250E-19-3.85455E-18
 -1      1436 1.00394E-04-3.00447E-05-3.01602E-05-1.78164E-06-1.27610E-19-1.47243E-18
 -1      1437 9.91650E-05-2.97115E-05-2.97648E-05-6.83279E-07 1.93508E-19-4.62751E-18
 -1      1438 9.85416E-05-2.95228E-05-2.95802E-05-6.53481E-07-2.17055E-19-4.52233E-18
 -1      1439 9.91530E-05-2.96736E-05-2.97868E-05-1.46794E-06-8.88880E-20-2.00206E-18
 -1      1440 9.80775E-05-2.93894E-05-2.94364E-05-5.35703E-07 3.87810E-19-3.91027E-18
 -1      1441 9.75911E-05-2.92435E-05-2.92919E-05-5.09906E-07 8.59919E-19-3.50485E-18
 -1      1442 9.81349E-05-2.93753E-05-2.94773E-05-1.17001E-06 6.08443E-19-2.20514E-18
 -1      1443 9.72267E-05-2.91393E-05-2.91788E-05-4.08521E-07-4.64751E-19-2.75546E-18
 -1      1444 9.68578E-05-2.90296E-05-2.90689E-05-3.87120E-07-3.69301E-19-3.46503E-18
 -1      1445 9.73236E-05-2.91415E-05-2.92285E-05-9.06112E-07 4.83202E-19-1.80863E-18
 -1      1446 9.65788E-05-2.89501E-05-2.89822E-05-3.03271E-07-4.27514E-19-3.67955E-18
 -1      1447 9.63066E-05-2.88699E-05-2.89009E-05-2.86089E-07-8.59532E-20-3.92405E-18
 -1      1448 9.66940E-05-2.89627E-05-2.90340E-05-6.83140E-07-4.03776E-19-1.72765E-18
 -1      1449 9.60984E-05-2.88109E-05-2.88361E-05-2.18881E-07 9.92979E-19-4.49850E-18
 -1      1450 9.59034E-05-2.87539E-05-2.87777E-05-2.05456E-07 6.14078E-19-3.53603E-18
 -1      1451 9.62172E-05-2.88290E-05-2.88857E-05-5.01304E-07 1.47235E-19-3.08603E-18
 -1      1452 9.57520E-05-2.87112E-05-2.87306E-05-1.52992E-07-4.85162E-20-4.04839E-18
 -1      1453 9.56169E-05-2.86722E-05-2.86899E-05-1.42754E-07-9.53760E-20-4.23226E-18
 -1      1454 9.58653E-05-2.87316E-05-2.87755E-05-3.57212E-07-8.74632E-20-4.34942E-18
 -1      1455 9.55102E-05-2.86421E-05-2.86567E-05-1.02763E-07-2.23357E-19-3.28199E-18
 -1      1456 9.54206E-05-2.86167E-05-2.86296E-05-9.51333E-08-1.01672E-19-3.86345E-18
 -1      1457 9.56125E-05-2.86627E-05-2.86958E-05-2.45843E-07-2.05338E-19-3.20015E-18
 -1      1458 9.53481E-05-2.85963E-05-2.86071E-05-6.53357E-08-6.24671E-19-4.38326E-18
 -1      1459 9.52921E-05-2.85808E-05-2.85900E-05-5.97804E-08-1.41684E-18-5.60680E-18
 -1      1460 9.54368E-05-2.86155E-05-2.86400E-05-1.61730E-07-7.90120E-19-3.17969E-18
 -1      1461 9.52453E-05-2.85677E-05-2.85754E-05-3.80849E-08-3.90190E-19-5.16049E-18
 -1      1462 9.52137E-05-2.85593E-05-2.85657E-05-3.41387E-08-3.78810E-19-5.54656E-18
 -1      1463 9.53197E-05-2.85847E-05-2.86024E-05-9.96272E-08-9.54033E-19-3.10824E-18
 -1      1464 9.51857E-05-2.85516E-05-2.85570E-05-1.87324E-08-7.24676E-19-5.38933E-18
 -1      1465 9.51713E-05-2.85482E-05-2.85524E-05-1.60072E-08-6.03013E-20-5.47624E-18
 -1      1466 9.52461E-05-2.85660E-05-2.85784E-05-5.48444E-08-6.87845E-19-2.76649E-18
 -1      1467 9.51568E-05-2.85442E-05-2.85479E-05-5.38689E-09 6.71593E-19-5.69657E-18
 -1      1468 9.51541E-05-2.85441E-05-2.85468E-05-3.57140E-09 6.33466E-19-5.12645E-18
 -1      1469 9.52041E-05-2.85559E-05-2.85644E-05-2.33988E-08 7.72177E-19-3.12443E-18
 -1      1470 9.51489E-05-2.85428E-05-2.85452E-05 3.45779E-09 4.23265E-19-3.40963E-18
 -1      1471 9.51540E-05-2.85449E-05-2.85465E-05 4.60303E-09 1.00751E-18-2.48637E-18
 -1      1472 9.51845E-05-2.85519E-05-2.85574E-05-2.04735E-09 1.77315E-18-2.04248E-18
 -1      1473 9.51550E-05-2.85454E-05-2.85468E-05 8.94171E-09 1.84762E-18-2.84879E-18
 -1      1474 9.51647E-05-2.85488E-05-2.85495E-05 9.58899E-09 1.51332E-18-3.75633E-19
 -1      1475 9.51802E-05-2.85520E-05-2.85553E-05 1.17316E-08 1.96099E-18-5.54345E-19
 -1      1476 9.51695E-05-2.85503E-05-2.85510E-05 1.18565E-08 7.24305E-19-1.13160E-19
 -1      1477 9.51816E-05-2.85543E-05-2.85544E-05 1.21123E-08-1.56121E-19 3.98159E-19
 -1      1478 9.51858E-05-2.85547E-05-2.85564E-05 1.97723E-08 1.52650E-18-1.25644E-18
 -1      1479 9.51883E-05-2.85564E-05-2.85565E-05 1.26473E-08-4.71739E-19-3.64326E-19
 -1      1480 9.52007E-05-2.85606E-05-2.85599E-05 1.25437E-08-2.98627E-19-8.85410E-19
 -1      1481 9.51969E-05-2.85590E-05-2.85592E-05 2.32437E-08-8.53451E-20-1.61061E-18
 -1      1482 9.52077E-05-2.85628E-05-2.85620E-05 1.13927E-08 8.68488E-19-1.55453E-19
 -1      1483 9.52185E-05-2.85665E-05-2.85650E-05 1.08592E-08 7.88378E-19 8.98640E-19
 -1      1484 9.52104E-05-2.85639E-05-2.85627E-05 2.26162E-08 4.59378E-19-4.06234E-19
 -1      1485 9.52246E-05-2.85686E-05-2.85667E-05 7.77813E-09-4.44998E-20 1.32004E-18
 -1      1486 9.52316E-05-2.85710E-05-2.85687E-05 6.83168E-09-1.98758E-19 8.78152E-19
 -1      1487 9.52234E-05-2.85691E-05-2.85660E-05 1.77872E-08 6.45200E-19 1.02172E-18
 -1      1488 9.52365E-05-2.85722E-05-2.85701E-05 8.63406E-10-1.20866E-18 7.06561E-19
 -1      1489 9.52348E-05-2.85740E-05-2.85687E-05 7.18268E-09-1.03546E-18 5.70162E-19
 -1      1490 9.80097E-05-2.88063E-05-3.01802E-05 2.48569E-06 8.90576E-19 1.27783E-17
 -1      1491 1.03363E-04-2.96479E-05-3.23971E-05 3.92038E-06 7.33848E-19 1.39785E-17
 -1      1492 1.03367E-04-2.71195E-05-3.29907E-05 1.17458E-05 1.36399E-18 9.99520E-18
 -1      1493 9.44746E-05-2.81551E-05-2.84926E-05 6.31915E-07 6.32469E-19 1.09666E-17
 -1      1494 9.58625E-05-2.81431E-05-2.92338E-05 9.62588E-07 6.17606E-19 1.19266E-17
 -1      1495 9.83479E-05-2.86010E-05-3.00903E-05 3.88208E-06 1.32037E-18 8.50452E-18
 -1      1496 9.37931E-05-2.80615E-05-2.81520E-05-2.77609E-07 5.10926E-19 9.66226E-18
 -1      1497 9.37855E-05-2.78868E-05-2.82332E-05-8.57163E-08 4.70679E-19 1.03037E-17
 -1      1498 9.58645E-05-2.83996E-05-2.89637E-05 7.68547E-07 9.93993E-19 7.33683E-18
 -1      1499 9.46823E-05-2.83546E-05-2.84066E-05-8.16483E-07 3.46152E-19 8.71045E-18
 -1      1500 9.39565E-05-2.80507E-05-2.82034E-05-6.81273E-07 3.42913E-19 9.25272E-18
 -1      1501 9.54604E-05-2.84463E-05-2.87404E-05-7.91513E-07 7.86424E-19 6.32031E-18
 -1      1502 9.65804E-05-2.89284E-05-2.89843E-05-1.20816E-06 1.14836E-19 8.05100E-18
 -1      1503 9.53854E-05-2.85113E-05-2.86287E-05-1.09577E-06 2.45216E-19 8.32412E-18
 -1      1504 9.63452E-05-2.87688E-05-2.89823E-05-1.77460E-06 5.09272E-19 5.74650E-18
 -1      1505 9.92434E-05-2.97284E-05-2.97899E-05-1.53625E-06 2.09781E-19 7.76376E-18
 -1      1506 9.76771E-05-2.92083E-05-2.93240E-05-1.43186E-06 1.19243E-19 7.80967E-18
 -1      1507 9.81200E-05-2.93222E-05-2.95097E-05-2.51403E-06 2.88117E-19 5.30845E-18
 -1      1508 1.02543E-04-3.07223E-05-3.07819E-05-1.82471E-06 1.84551E-19 7.15587E-18
 -1      1509 1.00653E-04-3.01067E-05-3.02221E-05-1.72406E-06 2.74540E-19 7.50156E-18
 -1      1510 1.00576E-04-3.00704E-05-3.02442E-05-3.13227E-06 4.29588E-19 5.14820E-18
 -1      1511 1.06362E-04-3.18813E-05-3.19220E-05-2.05578E-06-8.69408E-20 6.87906E-18
 -1      1512 1.04201E-04-3.11837E-05-3.12861E-05-1.96447E-06 1.20415E-19 6.95951E-18
 -1      1513 1.03579E-04-3.09888E-05-3.11377E-05-3.64834E-06 2.50277E-19 4.99479E-18
 -1      1514 1.10504E-04-3.31561E-05-3.31452E-05-2.16581E-06 3.45564E-19 6.31601E-18
 -1      1515 1.08180E-04-3.24100E-05-3.24686E-05-2.10279E-06 1.03399E-19 6.55517E-18
 -1      1516 1.06986E-04-3.20516E-05-3.21376E-05-3.99705E-06 2.92470E-19 4.38335E-18
 -1      1517 1.14599E-04-3.44472E-05-3.43312E-05-2.03534E-06 1.95375E-19 6.08749E-18
 -1      1518 1.12331E-04-3.37255E-05-3.36838E-05-2.03792E-06 1.43612E-19 6.19074E-18
 -1      1519 1.10573E-04-3.32146E-05-3.31633E-05-4.01960E-06 3.47806E-19 3.86857E-18
 -1      1520 1.18004E-04-3.55693E-05-3.52796E-05-1.49208E-06 6.45896E-20 5.68948E-18
 -1      1521 1.16185E-04-3.50058E-05-3.47806E-05-1.61741E-06 5.03687E-20 5.95975E-18
 -1      1522 1.13966E-04-3.43881E-05-3.40866E-05-3.45732E-06 1.31489E-19 4.00418E-18
 -1      1523 1.19767E-04-3.62239E-05-3.57116E-05-3.61252E-07-2.59801E-20 5.89489E-18
 -1      1524 1.18982E-04-3.60234E-05-3.55286E-05-6.72838E-07-4.58457E-20 5.52042E-18
 -1      1525 1.16577E-04-3.54028E-05-3.47268E-05-1.99449E-06-4.19546E-20 3.55219E-18
 -1      1526 1.18768E-04-3.60195E-05-3.53353E-05 1.39020E-06-2.92696E-19 6.35089E-18
 -1      1527 1.19695E-04-3.64240E-05-3.56423E-05 8.67750E-07-8.05872E-20 6.07579E-18
 -1      1528 1.17621E-04-3.59743E-05-3.48777E-05 5.78095E-07-1.49051E-19 3.68192E-18
 -1      1529 1.14225E-04-3.46135E-05-3.40038E-05 3.41323E-06 1.55821E-19 6.40585E-18
 -1      1530 1.17303E-04-3.57815E-05-3.48819E-05 2.77424E-06 3.57342E-22 6.46154E-18
 -1      1531 1.16298E-04-3.57147E-05-3.43904E-05 4.02546E-06-2.11930E-19 4.12066E-18
 -1      1532 1.06555E-04-3.20358E-05-3.19242E-05 4.81216E-06-2.24738E-19 6.26868E-18
 -1      1533 1.11439E-04-3.38280E-05-3.32321E-05 4.32649E-06 9.62375E-20 6.38673E-18
 -1      1534 1.12260E-04-3.42904E-05-3.32994E-05 7.27866E-06 1.39138E-19 4.87441E-18
 -1      1535 9.80947E-05-2.90520E-05-2.97514E-05 4.45246E-06 1.58355E-19 6.07868E-18
 -1      1536 1.03263E-04-3.08672E-05-3.10723E-05 4.46728E-06-2.01792E-19 5.95009E-18
 -1      1537 1.06299E-04-3.18083E-05-3.19133E-05 8.48300E-06-1.10372E-19 4.66945E-18
 -1      1538 9.25908E-05-2.70583E-05-2.83874E-05 1.91534E-06 9.98215E-19 4.70312E-18
 -1      1539 9.57536E-05-2.80220E-05-2.91656E-05 2.56602E-06 9.75650E-19 5.95845E-18
 -1      1540 1.00678E-04-2.91925E-05-3.07553E-05 6.09915E-06 9.25159E-19 4.09980E-18
 -1      1541 9.30247E-05-2.72391E-05-2.84813E-05-1.72852E-06 3.37225E-20 3.12976E-18
 -1      1542 9.24936E-05-2.67755E-05-2.83428E-05-7.47296E-07 5.85856E-19 3.78558E-18
 -1      1543 9.82380E-05-2.79171E-05-3.03325E-05 5.44741E-07 1.37256E-18 3.14567E-18
 -1      1544 9.92354E-05-2.95053E-05-2.99920E-05-4.44056E-06 2.77913E-19 2.53951E-18
 -1      1545 9.52679E-05-2.78699E-05-2.90007E-05-3.67849E-06-1.19313E-19 2.58594E-18
 -1      1546 1.00446E-04-2.88890E-05-3.08282E-05-5.35689E-06 3.16049E-19 1.59922E-18
 -1      1547 1.08086E-04-3.25996E-05-3.22626E-05-5.01643E-06-3.87638E-19 2.85736E-18
 -1      1548 1.02630E-04-3.06282E-05-3.08543E-05-4.78810E-06-2.32061E-19 2.53125E-18
 -1      1549 1.06088E-04-3.14875E-05-3.20398E-05-8.53411E-06-1.35095E-19 1.39858E-18
 -1      1550 1.15852E-04-3.51538E-05-3.43982E-05-3.72578E-06 6.01393E-20 2.42765E-18
 -1      1551 1.11130E-04-3.36392E-05-3.31203E-05-3.96311E-06 7.57367E-20 2.83264E-18
 -1      1552 1.12383E-04-3.42310E-05-3.34871E-05-8.02428E-06-1.63769E-19 1.59033E-18
 -1      1553 1.20375E-04-3.65025E-05-3.57696E-05-1.71986E-06 6.19724E-19 1.30300E-18
 -1      1554 1.17634E-04-3.57666E-05-3.49767E-05-2.14565E-06 5.24724E-19 2.47170E-18
 -1      1555 1.16931E-04-3.59575E-05-3.46620E-05-5.08017E-06 5.59320E-19 1.46272E-18
 -1      1556 1.21430E-04-3.66969E-05-3.62014E-05 5.02206E-08-2.83399E-19 1.09227E-18
 -1      1557 1.20764E-04-3.66540E-05-3.59672E-05-3.40779E-07-1.04264E-19 8.99298E-19
 -1      1558 1.18812E-04-3.64398E-05-3.52583E-05-1.61936E-06 4.32569E-19 8.48598E-19
 -1      1559 1.19887E-04-3.61005E-05-3.58602E-05 1.20171E-06-9.27885E-19 3.51168E-18
 -1      1560 1.20746E-04-3.65040E-05-3.60653E-05 9.36280E-07-1.05373E-18 1.76845E-18
 -1      1561 1.18308E-04-3.60165E-05-3.52346E-05 1.11459E-06-1.31808E-18 1.29480E-18
 -1      1562 1.16866E-04-3.50962E-05-3.50397E-05 1.75079E-06-3.48174E-19 5.32294E-18
 -1      1563 1.18568E-04-3.57084E-05-3.55051E-05 1.61203E-06-3.92494E-19 4.31639E-18
 -1      1564 1.16198E-04-3.51112E-05-3.47315E-05 2.74697E-06-1.36094E-18 3.23514E-18
 -1      1565 1.13287E-04-3.39658E-05-3.40121E-05 1.87273E-06 2.11014E-19 5.61686E-18
 -1      1566 1.15287E-04-3.46227E-05-3.45813E-05 1.82575E-06-5.86777E-20 5.71490E-18
 -1      1567 1.13280E-04-3.40416E-05-3.39490E-05 3.42397E-06-1.71754E-19 3.97906E-18
 -1      1568 1.09744E-04-3.28777E-05-3.29676E-05 1.74972E-06 6.50090E-19 3.95099E-18
 -1      1569 1.11701E-04-3.34882E-05-3.35361E-05 1.75730E-06 8.74423E-19 5.31632E-18
 -1      1570 1.10149E-04-3.29919E-05-3.30635E-05 3.46125E-06 1.09477E-18 4.15419E-18
 -1      1571 1.06557E-04-3.19145E-05-3.20138E-05 1.51488E-06 3.52685E-20 3.65452E-18
 -1      1572 1.08296E-04-3.24393E-05-3.25253E-05 1.54948E-06-1.58564E-19 3.23430E-18
 -1      1573 1.07176E-04-3.20505E-05-3.21964E-05 3.14806E-06 4.15571E-19 3.61913E-18
 -1      1574 1.03852E-04-3.11055E-05-3.11975E-05 1.24929E-06 6.03132E-19 2.43961E-18
 -1      1575 1.05310E-04-3.15350E-05-3.16296E-05 1.29379E-06 5.42693E-19 3.12423E-18
 -1      1576 1.04549E-04-3.12496E-05-3.14157E-05 2.68674E-06 6.40034E-19 2.24815E-18
 -1      1577 1.01645E-04-3.04502E-05-3.05285E-05 9.95779E-07 6.47156E-19 6.18509E-19
 -1      1578 1.02821E-04-3.07901E-05-3.08785E-05 1.04078E-06 9.65556E-19 1.31405E-18
 -1      1579 1.02336E-04-3.05917E-05-3.07500E-05 2.19768E-06 1.22150E-18 6.15510E-19
 -1      1580 9.98987E-05-2.99338E-05-2.99973E-05 7.73300E-07-4.82035E-19 1.49900E-18
 -1      1581 1.00819E-04-3.01958E-05-3.02722E-05 8.14264E-07-4.35342E-19 5.21435E-19
 -1      1582 1.00535E-04-3.00654E-05-3.02038E-05 1.74302E-06-1.99384E-20 1.04789E-18
 -1      1583 9.85479E-05-2.95358E-05-2.95857E-05 5.87539E-07 5.51484E-19 1.77926E-18
 -1      1584 9.92515E-05-2.97335E-05-2.97964E-05 6.22722E-07 1.91219E-19 1.47599E-18
 -1      1585 9.91066E-05-2.96533E-05-2.97683E-05 1.34909E-06-3.82488E-21 2.11319E-18
 -1      1586 9.75249E-05-2.92352E-05-2.92735E-05 4.37481E-07 4.08229E-19 5.15894E-19
 -1      1587 9.80517E-05-2.93814E-05-2.94317E-05 4.66602E-07 1.79397E-19 5.57402E-19
 -1      1588 9.79992E-05-2.93368E-05-2.94292E-05 1.02237E-06 7.57499E-19 1.24773E-18
 -1      1589 9.67653E-05-2.90126E-05-2.90414E-05 3.19172E-07-7.47439E-19 2.09914E-18
 -1      1590 9.71518E-05-2.91184E-05-2.91577E-05 3.42654E-07-3.44290E-19 1.70035E-18
 -1      1591 9.71575E-05-2.90980E-05-2.91706E-05 7.59448E-07-4.81935E-19 1.66190E-18
 -1      1592 9.62128E-05-2.88510E-05-2.88724E-05 2.27704E-07 9.67580E-19 8.79220E-19
 -1      1593 9.64903E-05-2.89260E-05-2.89561E-05 2.46260E-07 3.64366E-19 1.29521E-18
 -1      1594 9.65300E-05-2.89212E-05-2.89771E-05 5.52643E-07 6.78535E-19 1.45689E-18
 -1      1595 9.58201E-05-2.87366E-05-2.87521E-05 1.58205E-07 4.96224E-19-2.15263E-18
 -1      1596 9.60144E-05-2.87881E-05-2.88109E-05 1.72619E-07 8.25734E-19-1.14349E-18
 -1      1597 9.60716E-05-2.87930E-05-2.88353E-05 3.93030E-07 1.63447E-18-9.62958E-19
 -1      1598 9.55486E-05-2.86577E-05-2.86688E-05 1.06266E-07-7.54367E-19-9.45688E-19
 -1      1599 9.56805E-05-2.86919E-05-2.87088E-05 1.17291E-07-6.75180E-19-1.62134E-18
 -1      1600 9.57442E-05-2.87022E-05-2.87337E-05 2.71928E-07-7.03736E-19-8.50984E-19
 -1      1601 9.53676E-05-2.86054E-05-2.86132E-05 6.81047E-08 2.58392E-19-1.17989E-18
 -1      1602 9.54534E-05-2.86270E-05-2.86393E-05 7.64125E-08 1.19843E-19-2.58574E-19
 -1      1603 9.55167E-05-2.86397E-05-2.86627E-05 1.81559E-07-4.70797E-19-7.73052E-19
 -1      1604 9.52530E-05-2.85725E-05-2.85778E-05 4.05717E-08-1.59128E-19-5.65259E-19
 -1      1605 9.53053E-05-2.85850E-05-2.85938E-05 4.67408E-08-4.88126E-19-1.31727E-18
 -1      1606 9.53641E-05-2.85983E-05-2.86148E-05 1.15266E-07 1.46949E-21 1.47706E-19
 -1      1607 9.51861E-05-2.85535E-05-2.85570E-05 2.11111E-08-5.61781E-19-9.59873E-20
 -1      1608 9.52147E-05-2.85597E-05-2.85659E-05 2.56245E-08 2.03306E-19 3.00620E-19
 -1      1609 9.52667E-05-2.85724E-05-2.85840E-05 6.75270E-08-4.75261E-19 1.24364E-18
 -1      1610 9.51529E-05-2.85444E-05-2.85466E-05 7.69109E-09 1.70495E-19 6.10551E-19
 -1      1611 9.51650E-05-2.85462E-05-2.85505E-05 1.09423E-08-8.02670E-19 3.98099E-20
 -1      1612 9.52092E-05-2.85576E-05-2.85656E-05 3.38703E-08-9.07950E-19 6.15217E-19
 -1      1613 9.51428E-05-2.85419E-05-2.85432E-05-1.26654E-09-7.80951E-19 9.85990E-19
 -1      1614 9.51438E-05-2.85409E-05-2.85437E-05 1.03492E-09-1.14403E-19 1.18053E-18
 -1      1615 9.51800E-05-2.85506E-05-2.85559E-05 1.07537E-08-2.88095E-19 1.26323E-18
 -1      1616 9.51480E-05-2.85439E-05-2.85445E-05-6.94939E-09 1.21768E-18-2.78935E-19
 -1      1617 9.51418E-05-2.85410E-05-2.85429E-05-5.35863E-09 5.66268E-19 1.02383E-18
 -1      1618 9.51702E-05-2.85489E-05-2.85523E-05-4.55432E-09 6.18474E-19 5.63356E-19
 -1      1619 9.51626E-05-2.85486E-05-2.85487E-05-1.02018E-08 1.05139E-18-3.28751E-18
 -1      1620 9.51522E-05-2.85447E-05-2.85458E-05-9.15201E-09 1.06756E-18-2.17265E-18
 -1      1621 9.51732E-05-2.85508E-05-2.85527E-05-1.40799E-08 2.32992E-18-2.28788E-18
 -1      1622 9.51822E-05-2.85547E-05-2.85545E-05-1.15450E-08 1.26702E-18-5.75805E-18
 -1      1623 9.51697E-05-2.85505E-05-2.85509E-05-1.09395E-08 9.52478E-19-3.81215E-18
 -1      1624 9.51840E-05-2.85548E-05-2.85556E-05-1.92126E-08 2.15692E-18-2.65889E-18
 -1      1625 9.52030E-05-2.85613E-05-2.85605E-05-1.11701E-08-1.09922E-18-5.46847E-18
 -1      1626 9.51903E-05-2.85571E-05-2.85569E-05-1.09977E-08-1.68846E-19-5.88354E-18
 -1      1627 9.51987E-05-2.85598E-05-2.85596E-05-2.07287E-08 5.04652E-19-2.75057E-18
 -1      1628 9.52213E-05-2.85671E-05-2.85658E-05-8.89914E-09-6.93962E-19-3.63720E-18
 -1      1629 9.52106E-05-2.85638E-05-2.85628E-05-9.28228E-09-6.24864E-19-4.58126E-18
 -1      1630 9.52141E-05-2.85652E-05-2.85638E-05-1.87807E-08-1.34870E-18-3.41483E-18
 -1      1631 9.52335E-05-2.85712E-05-2.85693E-05-4.53250E-09 3.62787E-19-3.80831E-18
 -1      1632 9.52272E-05-2.85694E-05-2.85674E-05-5.51497E-09 1.78191E-19-3.82007E-18
 -1      1633 9.52273E-05-2.85702E-05-2.85672E-05-1.30429E-08-2.75049E-19-2.72679E-18
 -1      1634 9.52364E-05-2.85723E-05-2.85701E-05-1.06659E-09-1.85188E-18-1.77494E-18
 -1      1635 9.52400E-05-2.85839E-05-2.85668E-05-7.82569E-09-3.09893E-18-7.60932E-19
 -1      1636 9.52376E-05-2.85773E-05-2.85686E-05-6.64749E-09-2.46313E-18-9.51727E-19
 -1      1637 9.52455E-05-2.85994E-05-2.85626E-05-1.04021E-08-1.64044E-18 5.33589E-19
 -1      1638 9.52421E-05-2.85898E-05-2.85652E-05-1.01306E-08-2.17832E-18 1.87545E-19
 -1      1639 9.52398E-05-2.85856E-05-2.85660E-05-1.70410E-08-3.55770E-19-1.28325E-19
 -1      1640 9.52510E-05-2.86160E-05-2.85579E-05-1.05050E-08-1.66035E-18 7.57562E-19
 -1      1641 9.52476E-05-2.86060E-05-2.85607E-05-1.06817E-08-2.19039E-18 2.03474E-18
 -1      1642 9.52450E-05-2.85981E-05-2.85630E-05-2.00422E-08-1.92323E-18 3.36302E-19
 -1      1643 9.52557E-05-2.86310E-05-2.85535E-05-9.07799E-09-1.39503E-18-1.20966E-18
 -1      1644 9.52528E-05-2.86222E-05-2.85560E-05-9.47849E-09-1.51086E-18 7.76823E-19
 -1      1645 9.52496E-05-2.86106E-05-2.85597E-05-1.90577E-08-2.25643E-18 5.26511E-19
 -1      1646 9.52593E-05-2.86428E-05-2.85500E-05-6.93445E-09-3.34399E-18-3.50569E-19
 -1      1647 9.52572E-05-2.86361E-05-2.85519E-05-7.40247E-09-1.26672E-18-2.11273E-18
 -1      1648 9.52533E-05-2.86215E-05-2.85566E-05-1.57579E-08-2.05109E-18-1.94899E-18
 -1      1649 9.52618E-05-2.86511E-05-2.85475E-05-4.50187E-09-1.54793E-18 1.97085E-18
 -1      1650 9.52604E-05-2.86465E-05-2.85488E-05-4.98678E-09-2.80033E-18 6.08426E-19
 -1      1651 9.52559E-05-2.86299E-05-2.85542E-05-1.14205E-08-6.14195E-19 1.66692E-19
 -1      1652 9.52631E-05-2.86555E-05-2.85461E-05-2.05893E-09-2.37570E-18-1.11122E-18
 -1      1653 9.52624E-05-2.86533E-05-2.85468E-05-2.52491E-09-1.69184E-18 1.04132E-18
 -1      1654 9.52577E-05-2.86356E-05-2.85524E-05-6.74217E-09-4.15803E-20 1.10935E-18
 -1      1655 9.52632E-05-2.86561E-05-2.85459E-05 3.35468E-10-1.95351E-18 3.27728E-19
 -1      1656 9.52633E-05-2.86562E-05-2.85459E-05-1.17972E-10-1.43175E-18-1.54891E-19
 -1      1657 9.52585E-05-2.86383E-05-2.85516E-05-2.09011E-09 2.63520E-19-6.51054E-19
 -1      1658 9.52623E-05-2.86529E-05-2.85469E-05 2.71880E-09 3.94699E-19 1.47158E-18
 -1      1659 9.52630E-05-2.86553E-05-2.85462E-05 2.26085E-09-1.95904E-18 3.15806E-18
 -1      1660 9.52584E-05-2.86382E-05-2.85516E-05 2.49393E-09 6.06641E-19 1.58323E-18
 -1      1661 9.52602E-05-2.86459E-05-2.85490E-05 5.12289E-09-8.93375E-19-1.30925E-18
 -1      1662 9.52616E-05-2.86506E-05-2.85476E-05 4.65279E-09 7.99859E-19-8.33269E-19
 -1      1663 9.52575E-05-2.86352E-05-2.85526E-05 7.07539E-09-1.18858E-18 5.84279E-19
 -1      1664 9.52570E-05-2.86353E-05-2.85521E-05 7.43189E-09-2.02927E-18-1.44832E-19
 -1      1665 9.52591E-05-2.86421E-05-2.85502E-05 6.98517E-09-6.59766E-19-3.58503E-19
 -1      1666 9.52558E-05-2.86294E-05-2.85543E-05 1.15916E-08-8.85724E-19-1.62396E-18
 -1      1667 9.52526E-05-2.86214E-05-2.85563E-05 9.44814E-09-3.43462E-18-1.51407E-18
 -1      1668 9.52554E-05-2.86302E-05-2.85537E-05 9.06517E-09-2.40354E-18-1.58257E-19
 -1      1669 9.52531E-05-2.86209E-05-2.85568E-05 1.57768E-08-3.75294E-19-7.01973E-19
 -1      1670 9.52474E-05-2.86053E-05-2.85609E-05 1.06246E-08-4.21418E-18-8.36205E-19
 -1      1671 9.52507E-05-2.86152E-05-2.85581E-05 1.04243E-08-4.06959E-18-5.38935E-20
 -1      1672 9.52494E-05-2.86099E-05-2.85599E-05 1.89446E-08-1.08932E-18-1.99131E-18
 -1      1673 9.52421E-05-2.85896E-05-2.85653E-05 9.92063E-09-3.21119E-18 1.38614E-18
 -1      1674 9.52453E-05-2.85989E-05-2.85628E-05 1.01732E-08-4.10878E-18-3.82507E-19
 -1      1675 9.52447E-05-2.85974E-05-2.85631E-05 1.98136E-08-5.86788E-19-7.95856E-19
 -1      1676 9.52374E-05-2.85781E-05-2.85683E-05 8.94363E-09-1.20427E-18 5.74382E-19
 -1      1677 9.52396E-05-2.85845E-05-2.85665E-05 1.06783E-08-2.37324E-18 1.86285E-18
 -1      1678 9.52396E-05-2.85856E-05-2.85658E-05 1.90952E-08-3.36266E-19 2.01748E-18
 -1      1679 9.52326E-05-2.85758E-05-2.85671E-05 1.67361E-08-2.47248E-19 1.00047E-18
 -1      1680 1.96933E-05-6.60502E-05 1.40804E-05-6.93633E-06 7.88884E-18 3.02433E-18
 -1      1681 2.32721E-05-7.54357E-05 1.58986E-05 1.24587E-06 4.89839E-18 1.93484E-18
 -1      1682 2.21503E-05-3.79784E-05 3.14814E-06 7.11641E-06 1.05032E-17 5.99138E-18
 -1      1683 2.53408E-05-5.97096E-05 9.43720E-06 2.59740E-06 7.85708E-18 4.52676E-18
 -1      1684 3.57635E-05-1.25161E-05-1.18794E-05 2.77723E-05 1.23896E-17 9.18904E-18
 -1      1685 3.02306E-05-3.24164E-05-3.43163E-06 1.12012E-05 1.26547E-17 6.85419E-18
 -1      1686 7.71122E-05-4.17507E-06-3.06021E-05 5.80987E-05 1.10775E-17 1.19406E-17
 -1      1687 5.27061E-05-1.00828E-05-2.06731E-05 3.56136E-05 1.19872E-17 1.06726E-17
 -1      1688 1.37833E-04-1.56673E-05-4.89518E-05 7.69535E-05 7.97693E-18 9.12085E-18
 -1      1689 9.83681E-05-4.68202E-06-3.98117E-05 6.38313E-05 1.07870E-17 1.06540E-17
 -1      1690 2.08602E-04-4.34320E-05-6.49244E-05 6.74634E-05 3.94675E-18 4.45285E-18
 -1      1691 1.63018E-04-2.19409E-05-5.71919E-05 7.52434E-05 6.33750E-18 7.80287E-18
 -1      1692 2.53513E-04-6.43338E-05-7.41277E-05 2.66757E-05 2.97182E-18-3.70111E-18
 -1      1693 2.27578E-04-4.99750E-05-7.03958E-05 5.52836E-05 3.45796E-18 1.49671E-18
 -1      1694 2.51333E-04-6.19650E-05-7.47766E-05-2.46045E-05 3.19289E-18-9.58439E-18
 -1      1695 2.56528E-04-6.47875E-05-7.53941E-05 1.02911E-05 2.58599E-18-5.90827E-18
 -1      1696 2.05171E-04-3.95143E-05-6.64291E-05-6.27721E-05 5.29814E-18-1.23802E-17
 -1      1697 2.40362E-04-5.79932E-05-7.17821E-05-3.90619E-05 3.61154E-18-1.03584E-17
 -1      1698 1.38727E-04-1.43308E-05-5.13144E-05-7.22833E-05 7.58222E-18-1.25590E-17
 -1      1699 1.84594E-04-3.35588E-05-5.98537E-05-7.27500E-05 6.18080E-18-1.29926E-17
 -1      1700 8.07641E-05-6.61414E-06-3.25544E-05-5.27154E-05 8.54910E-18-9.65618E-18
 -1      1701 1.15933E-04-1.15550E-05-4.23829E-05-7.07810E-05 7.71393E-18-1.19584E-17
 -1      1702 4.23370E-05-1.89965E-05-1.33683E-05-2.48220E-05 8.04258E-18-6.86520E-18
 -1      1703 5.95627E-05-6.64386E-06-2.31364E-05-4.71075E-05 8.61094E-18-8.91756E-18
 -1      1704 2.52088E-05-4.44535E-05 2.73679E-06-2.44694E-06 6.16555E-18-4.27540E-18
 -1      1705 2.52855E-05-2.15296E-05-4.82835E-06-1.49233E-05 8.37038E-18-6.14522E-18
 -1      1706 2.43398E-05-6.99279E-05 1.30780E-05 1.87420E-06 2.18111E-19-2.66794E-18
 -1      1707 1.91805E-05-5.08833E-05 8.46586E-06 3.20540E-06 4.70019E-18-4.05316E-18
 -1      1708 2.30118E-05-7.66579E-05 1.64918E-05-3.79679E-06-5.47776E-18-2.05024E-18
 -1      1709 2.20967E-05-7.41465E-05 1.58306E-05 6.52703E-06-1.14477E-18-2.46508E-18
 -1      1710 1.94537E-05-5.51119E-05 1.04825E-05-1.27387E-06-9.84083E-18-5.26579E-18
 -1      1711 2.35314E-05-7.02441E-05 1.41738E-05 2.61068E-06-6.43131E-18-3.03894E-18
 -1      1712 2.11692E-05-2.86246E-05-4.37731E-07 8.76185E-06-1.40802E-17-8.56266E-18
 -1      1713 2.41700E-05-5.15742E-05 6.19379E-06 1.31979E-06-1.20380E-17-5.99646E-18
 -1      1714 4.86331E-05-9.21446E-06-1.78182E-05 3.97745E-05-1.36305E-17-1.15264E-17
 -1      1715 3.69868E-05-2.58308E-05-8.43583E-06 1.94058E-05-1.32366E-17-9.37665E-18
 -1      1716 9.45568E-05-4.62824E-06-3.68782E-05 6.73116E-05-1.13308E-17-1.13333E-17
 -1      1717 6.42344E-05-4.43517E-06-2.70051E-05 4.65002E-05-1.39574E-17-1.14858E-17
 -1      1718 1.63069E-04-2.58676E-05-5.50314E-05 7.37431E-05-6.66403E-18-8.62618E-18
 -1      1719 1.18802E-04-8.89822E-06-4.59250E-05 6.82498E-05-9.76205E-18-1.06464E-17
 -1      1720 2.20292E-04-4.94829E-05-6.78974E-05 4.81042E-05-3.72377E-18-2.46232E-18
 -1      1721 1.83233E-04-3.07420E-05-6.19206E-05 6.42348E-05-5.80747E-18-6.43576E-18
 -1      1722 2.54573E-04-6.49180E-05-7.45827E-05 6.82508E-06-2.34141E-18 3.90620E-18
 -1      1723 2.39394E-04-5.62790E-05-7.26243E-05 4.09196E-05-2.68996E-18-6.55604E-19
 -1      1724 2.35997E-04-5.48262E-05-7.18947E-05-4.13406E-05-3.39131E-18 9.53378E-18
 -1      1725 2.52067E-04-6.38251E-05-7.41570E-05-9.85459E-06-2.53051E-18 6.15793E-18
 -1      1726 1.90080E-04-3.29550E-05-6.30983E-05-7.08775E-05-6.14395E-18 1.18627E-17
 -1      1727 2.24172E-04-5.07817E-05-6.83616E-05-5.53461E-05-4.15536E-18 1.04295E-17
 -1      1728 1.30465E-04-1.06041E-05-4.93495E-05-7.39209E-05-8.36403E-18 1.25962E-17
 -1      1729 1.70011E-04-2.67708E-05-5.69249E-05-7.66799E-05-6.81226E-18 1.20236E-17
 -1      1730 7.76469E-05-1.59871E-06-3.30394E-05-5.63512E-05-1.00636E-17 1.06633E-17
 -1      1731 1.08727E-04-6.39490E-06-4.15747E-05-7.26141E-05-8.28059E-18 1.23455E-17
 -1      1732 4.15689E-05-1.14545E-05-1.57884E-05-2.90939E-05-9.94840E-18 8.45085E-18
 -1      1733 5.85547E-05-1.34173E-06-2.46541E-05-5.00072E-05-1.01466E-17 9.90944E-18
 -1      1734 2.61303E-05-3.68346E-05-1.92123E-07-6.96430E-06-7.46914E-18 5.70434E-18
 -1      1735 2.81209E-05-1.57359E-05-7.83152E-06-2.07527E-05-1.00534E-17 8.50379E-18
 -1      1736 2.41364E-05-6.26517E-05 1.07499E-05-6.55498E-07-2.57752E-18 3.70138E-18
 -1      1737 1.97737E-05-4.29822E-05 5.62973E-06-2.32760E-06-6.42729E-18 4.95112E-18
 -1      1738 2.37041E-05-7.65490E-05 1.60626E-05-2.38252E-06 3.71022E-18 2.07121E-18
 -1      1739 2.08086E-05-6.83305E-05 1.43719E-05 5.71958E-06-6.30193E-19 2.96927E-18
 -1      1740 1.14756E-04-3.24028E-05-3.46184E-05 4.46038E-05 7.76306E-18 5.62176E-18
 -1      1741 7.43710E-05-3.66301E-05-1.75663E-05 3.87451E-05 7.08712E-18 6.98717E-18
 -1      1742 9.52360E-05-2.85737E-05-2.85693E-05-4.66917E-09-2.61247E-18-1.66694E-18
 -1      1743 9.52348E-05-2.85760E-05-2.85679E-05-1.14822E-08-3.95316E-19-9.57248E-19
 -1      1744 1.93313E-05-4.48098E-05 7.45625E-06 1.68489E-05 3.69010E-18 4.91957E-18
 -1      1745 4.23597E-05-4.22852E-05-2.87971E-06 2.97888E-05 4.97039E-18 5.30656E-18
 -1      1746 1.17155E-05-5.08772E-05 1.21082E-05-5.61919E-07 2.36672E-18 3.85951E-18
 -1      1747 1.58733E-04-3.21661E-05-5.12912E-05 4.34748E-05 6.95689E-18 4.21568E-18
 -1      1748 1.96459E-04-3.47074E-05-6.43746E-05 2.99873E-05 5.27829E-18-2.54533E-19
 -1      1749 2.14643E-04-3.60337E-05-7.07835E-05 8.35755E-06 5.23636E-18-3.74431E-18
 -1      1750 2.06921E-04-3.32697E-05-6.90976E-05-1.33075E-05 4.25338E-18-5.39645E-18
 -1      1751 1.83145E-04-3.32374E-05-6.00953E-05-3.19931E-05 4.22802E-18-6.88638E-18
 -1      1752 1.44497E-04-3.39628E-05-4.52889E-05-4.16215E-05 3.62403E-18-7.02190E-18
 -1      1753 1.02005E-04-3.65652E-05-2.79779E-05-4.24109E-05 3.97301E-18-5.73102E-18
 -1      1754 6.00985E-05-3.87098E-05-1.10553E-05-3.53194E-05 3.47114E-18-5.02735E-18
 -1      1755 3.01330E-05-4.49381E-05 2.65900E-06-2.15845E-05 1.83383E-18-4.83497E-18
 -1      1756 1.50021E-05-5.06475E-05 1.06754E-05-8.68724E-06-7.55342E-19-4.81454E-18
 -1      1757 1.24814E-05-4.78403E-05 1.10461E-05 7.52573E-06-3.36103E-18-4.83910E-18
 -1      1758 2.43346E-05-4.42589E-05 4.94946E-06 2.05227E-05-5.84114E-18-6.41882E-18
 -1      1759 5.08718E-05-3.98295E-05-6.93705E-06 3.38350E-05-7.57586E-18-7.18009E-18
 -1      1760 8.78894E-05-3.55725E-05-2.29441E-05 4.24808E-05-8.19504E-18-6.36969E-18
 -1      1761 1.29464E-04-3.13987E-05-4.03747E-05 4.45645E-05-8.00743E-18-5.16775E-18
 -1      1762 1.68289E-04-3.13297E-05-5.54543E-05 3.31783E-05-6.29255E-18-2.66985E-18
 -1      1763 1.96839E-04-3.24226E-05-6.62551E-05 1.77815E-05-5.52498E-18 3.98105E-20
 -1      1764 2.12128E-04-3.49818E-05-7.04613E-05-1.14231E-07-4.44989E-18 4.27037E-18
 -1      1765 2.00617E-04-3.33705E-05-6.66893E-05-2.29604E-05-4.57673E-18 6.83429E-18
 -1      1766 1.74128E-04-3.11397E-05-5.74351E-05-4.00136E-05-5.13892E-18 6.91941E-18
 -1      1767 1.36732E-04-2.88185E-05-4.41564E-05-4.69847E-05-4.78912E-18 7.30058E-18
 -1      1768 9.70888E-05-2.94859E-05-2.87812E-05-4.52683E-05-5.23128E-18 6.29515E-18
 -1      1769 6.10969E-05-3.43167E-05-1.32184E-05-3.67692E-05-4.84757E-18 5.86316E-18
 -1      1770 3.44469E-05-4.18848E-05-6.13713E-08-2.59932E-05-2.70373E-18 5.47909E-18
 -1      1771 1.76153E-05-4.73624E-05 8.77969E-06-1.46114E-05-1.07573E-19 5.50529E-18
 -1      1772 1.06664E-04-2.34564E-05-3.57525E-05-1.58898E-05-1.56706E-18 2.75921E-18
 -1      1773 8.98651E-05-1.06320E-05-3.40848E-05-1.14488E-05-1.21047E-18-3.39546E-18
 -1      1774 9.14231E-05-1.18284E-05-3.42540E-05-1.32569E-05-1.60296E-18-3.00413E-18
 -1      1775 9.36399E-05-1.42369E-05-3.41905E-05-1.42793E-05-1.74138E-18-2.38411E-18
 -1      1776 9.54521E-05-1.62805E-05-3.44160E-05-1.60408E-05-2.11005E-18-1.57072E-18
 -1      1777 9.45577E-05-1.66241E-05-3.34052E-05-1.18550E-05-1.77554E-18-2.49965E-18
 -1      1778 8.56923E-05-7.01033E-06-3.37946E-05-6.19498E-06-1.67547E-19-3.72495E-18
 -1      1779 8.63999E-05-7.44253E-06-3.38909E-05-7.46678E-06-3.78627E-19-3.76043E-18
 -1      1780 8.44820E-05-6.04324E-06-3.36762E-05-4.01710E-06 3.14663E-19-3.54248E-18
 -1      1781 8.49841E-05-6.33548E-06-3.37481E-05-5.13120E-06 9.68413E-20-3.70368E-18
 -1      1782 8.67365E-05-8.84577E-06-3.34092E-05-5.24847E-06-7.84829E-20-3.53438E-18
 -1      1783 8.37082E-05-5.43711E-06-3.35946E-05-2.08304E-06 8.15683E-19-3.22512E-18
 -1      1784 8.40131E-05-5.60994E-06-3.36395E-05-3.07642E-06 5.95075E-19-3.40855E-18
 -1      1785 8.54819E-05-7.75180E-06-3.33383E-05-3.28455E-06 4.82798E-19-3.34627E-18
 -1      1786 8.33591E-05-5.15532E-06-3.35592E-05-2.96159E-07 1.22140E-18-2.98007E-18
 -1      1787 8.34672E-05-5.21712E-06-3.35746E-05-1.22617E-06 1.03235E-18-3.13537E-18
 -1      1788 8.47223E-05-7.10557E-06-3.32882E-05-1.51926E-06 9.72200E-19-3.06568E-18
 -1      1789 8.34422E-05-5.19208E-06-3.35752E-05 1.45128E-06 1.63321E-18-2.66537E-18
 -1      1790 8.33487E-05-5.14241E-06-3.35597E-05 5.26533E-07 1.43836E-18-2.87950E-18
 -1      1791 8.44530E-05-6.87496E-06-3.32708E-05 1.31054E-07 1.44239E-18-2.80668E-18
 -1      1792 8.39679E-05-5.55951E-06-3.36423E-05 3.27333E-06 1.94466E-18-2.30131E-18
 -1      1793 8.36684E-05-5.39206E-06-3.35965E-05 2.29373E-06 1.80380E-18-2.51287E-18
 -1      1794 8.46836E-05-7.06003E-06-3.32905E-05 1.76569E-06 1.82519E-18-2.48621E-18
 -1      1795 8.49288E-05-6.27011E-06-3.37527E-05 5.25061E-06 2.32903E-18-1.72460E-18
 -1      1796 8.44277E-05-5.98004E-06-3.36801E-05 4.17383E-06 2.13256E-18-2.07182E-18
 -1      1797 8.54195E-05-7.67482E-06-3.33431E-05 3.47323E-06 2.17178E-18-2.08448E-18
 -1      1798 8.63987E-05-7.41728E-06-3.39014E-05 7.56403E-06 2.66503E-18-8.35439E-19
 -1      1799 8.56537E-05-6.95932E-06-3.38011E-05 6.28581E-06 2.45981E-18-1.35384E-18
 -1      1800 8.66820E-05-8.76846E-06-3.34173E-05 5.36318E-06 2.53715E-18-1.41031E-18
 -1      1801 8.85012E-05-9.17226E-06-3.40780E-05 1.02781E-05 2.89438E-18 2.79627E-19
 -1      1802 8.74383E-05-8.45930E-06-3.39476E-05 8.74181E-06 2.73039E-18-3.79590E-19
 -1      1803 8.85529E-05-1.04667E-05-3.34915E-05 7.51299E-06 2.82713E-18-4.59515E-19
 -1      1804 9.16221E-05-1.20167E-05-3.42658E-05 1.33678E-05 2.92844E-18 1.95763E-18
 -1      1805 8.99971E-05-1.07726E-05-3.40968E-05 1.15412E-05 2.88123E-18 9.42906E-19
 -1      1806 9.12018E-05-1.30222E-05-3.35216E-05 9.86453E-06 2.98351E-18 7.35675E-19
 -1      1807 9.71062E-05-1.74609E-05-3.43262E-05 1.60156E-05 2.39857E-18 4.91523E-18
 -1      1808 9.40365E-05-1.46906E-05-3.41822E-05 1.43864E-05 2.63199E-18 3.15377E-18
 -1      1809 9.50817E-05-1.71038E-05-3.34074E-05 1.19087E-05 2.83822E-18 2.49663E-18
 -1      1810 1.03033E-04-2.54988E-05-3.36508E-05 1.31337E-05 1.76617E-18 8.14062E-18
 -1      1811 9.93055E-05-2.00767E-05-3.39562E-05 1.54587E-05 2.08906E-18 6.04882E-18
 -1      1812 9.87372E-05-2.22876E-05-3.28336E-05 1.15471E-05 2.44611E-18 4.78555E-18
 -1      1813 1.00217E-04-2.66073E-05-3.17531E-05 8.15564E-06 1.91321E-18 7.52118E-18
 -1      1814 1.01225E-04-2.00173E-05-3.44912E-05-1.75316E-05-2.00888E-18 5.38925E-20
 -1      1815 9.75175E-05-2.78951E-05-2.98581E-05 2.71113E-06 1.52307E-18 6.36752E-18
 -1      1816 9.94993E-05-2.78939E-05-3.07253E-05 5.09204E-06 1.64602E-18 6.92390E-18
 -1      1817 9.92896E-05-2.61170E-05-3.13576E-05 7.17499E-06 2.04114E-18 5.32587E-18
 -1      1818 1.01024E-04-2.29609E-05-3.31791E-05-1.29908E-05-2.07015E-18-5.12190E-19
 -1      1819 9.88352E-05-2.74863E-05-3.04610E-05-4.20434E-06-1.57416E-18-5.62700E-19
 -1      1820 9.74538E-05-2.76318E-05-2.98846E-05-2.33674E-06-1.39228E-18-9.44382E-19
 -1      1821 9.69399E-05-2.78895E-05-2.94949E-05-7.19750E-07-1.39455E-18-8.81563E-19
 -1      1822 9.66603E-05-2.80910E-05-2.93392E-05 2.53860E-07-1.19224E-18-1.31656E-18
 -1      1823 9.76695E-05-2.70252E-05-3.03035E-05-2.39836E-06-1.56968E-18-1.35292E-18
 -1      1824 9.65192E-05-2.82337E-05-2.92047E-05 1.26724E-06-1.01714E-18-1.25307E-18
 -1      1825 9.68005E-05-2.84579E-05-2.92545E-05 1.86226E-06-9.16195E-19-1.51668E-18
 -1      1826 9.71481E-05-2.78241E-05-2.97369E-05 6.12315E-07-1.34064E-18-1.46584E-18
 -1      1827 9.69894E-05-2.86148E-05-2.92703E-05 2.53252E-06-7.43472E-19-1.54457E-18
 -1      1828 9.76407E-05-2.88983E-05-2.94373E-05 2.92526E-06-6.10008E-19-1.72671E-18
 -1      1829 9.72911E-05-2.83383E-05-2.95740E-05 2.53087E-06-1.01282E-18-1.37235E-18
 -1      1830 9.80871E-05-2.91038E-05-2.95468E-05 3.37551E-06-5.58125E-19-1.69235E-18
 -1      1831 9.89803E-05-2.94483E-05-2.97851E-05 3.62664E-06-4.21277E-19-1.81140E-18
 -1      1832 9.79855E-05-2.88337E-05-2.96553E-05 3.81133E-06-6.66670E-19-1.51952E-18
 -1      1833 9.96211E-05-2.97143E-05-2.99515E-05 3.89556E-06-3.68178E-19-1.67624E-18
 -1      1834 1.00656E-04-3.01147E-05-3.02279E-05 4.00649E-06-3.17741E-19-1.65131E-18
 -1      1835 9.91169E-05-2.94144E-05-2.98872E-05 4.63914E-06-4.72600E-19-1.50387E-18
 -1      1836 1.01437E-04-3.04472E-05-3.04212E-05 4.07605E-06-3.45848E-19-1.66469E-18
 -1      1837 1.02510E-04-3.08912E-05-3.07028E-05 4.00932E-06-3.34494E-19-1.56565E-18
 -1      1838 1.00581E-04-3.01322E-05-3.02032E-05 5.04135E-06-4.01474E-19-1.40749E-18
 -1      1839 1.03376E-04-3.12906E-05-3.08952E-05 3.81996E-06-6.49338E-19-1.51795E-18
 -1      1840 1.04362E-04-3.17511E-05-3.11442E-05 3.51206E-06-5.21375E-19-1.70277E-18
 -1      1841 1.02278E-04-3.10161E-05-3.05474E-05 4.93643E-06-5.15037E-19-1.46539E-18
 -1      1842 1.05245E-04-3.22022E-05-3.13089E-05 2.98007E-06-3.64118E-19-1.83179E-18
 -1      1843 1.05984E-04-3.26242E-05-3.14826E-05 2.36298E-06-2.87329E-19-1.92925E-18
 -1      1844 1.04087E-04-3.20614E-05-3.08697E-05 4.16929E-06-6.95677E-19-1.45155E-18
 -1      1845 1.06781E-04-3.30771E-05-3.15961E-05 1.41530E-06-2.96041E-19-2.04874E-18
 -1      1846 1.07087E-04-3.33630E-05-3.16520E-05 4.59094E-07-2.52628E-19-1.96239E-18
 -1      1847 1.05836E-04-3.31906E-05-3.11281E-05 2.56621E-06-3.49725E-19-1.35102E-18
 -1      1848 1.07645E-04-3.37095E-05-3.17005E-05-9.00384E-07-3.01081E-19-1.66530E-18
 -1      1849 1.07337E-04-3.37161E-05-3.16093E-05-2.11938E-06-3.44683E-19-1.78234E-18
 -1      1850 1.07260E-04-3.41943E-05-3.12972E-05 4.15551E-08-2.53700E-19-1.14844E-18
 -1      1851 1.07457E-04-3.37820E-05-3.15958E-05-3.71238E-06-3.00869E-19-1.86729E-18
 -1      1852 1.06435E-04-3.33546E-05-3.13587E-05-4.93852E-06-3.56528E-19-1.73706E-18
 -1      1853 1.07980E-04-3.46894E-05-3.13801E-05-3.22544E-06-4.46102E-19-8.11204E-19
 -1      1854 1.05934E-04-3.29532E-05-3.13056E-05-6.32850E-06-4.03122E-19-1.90221E-18
 -1      1855 1.04293E-04-3.20287E-05-3.09688E-05-7.11384E-06-5.71757E-19-1.70297E-18
 -1      1856 1.07576E-04-3.41846E-05-3.14123E-05-6.58314E-06-4.83854E-19-7.15854E-19
 -1      1857 1.03171E-04-3.11164E-05-3.09096E-05-7.65496E-06-8.22495E-19-2.01485E-18
 -1      1858 1.01292E-04-2.98710E-05-3.05607E-05-7.50749E-06-5.76095E-19-2.12302E-18
 -1      1859 1.05827E-04-3.23714E-05-3.14458E-05-8.83430E-06-7.08947E-19-9.91852E-19
 -1      1860 9.99123E-05-2.87244E-05-3.05210E-05-6.65309E-06-6.29729E-19-2.54960E-18
 -1      1861 9.84108E-05-2.76234E-05-3.02647E-05-5.35425E-06-4.54671E-19-2.80973E-18
 -1      1862 1.03110E-04-2.95748E-05-3.15122E-05-8.59676E-06-9.18685E-19-1.47641E-18
 -1      1863 9.74746E-05-2.68293E-05-3.02535E-05-3.13673E-06-4.26991E-19-3.18234E-18
 -1      1864 9.69544E-05-2.64144E-05-3.01724E-05-1.04309E-06-3.31997E-19-3.45920E-18
 -1      1865 1.00574E-04-2.69613E-05-3.15925E-05-5.19725E-06-7.80951E-19-2.07089E-18
 -1      1866 9.70269E-05-2.64537E-05-3.01862E-05 1.72134E-06-1.24143E-20-3.65204E-18
 -1      1867 9.77257E-05-2.69554E-05-3.03097E-05 3.78738E-06-1.74370E-19-3.61860E-18
 -1      1868 9.96248E-05-2.59486E-05-3.16444E-05 4.24933E-07-5.45886E-19-2.16439E-18
 -1      1869 9.87901E-05-2.78159E-05-3.03463E-05 5.93463E-06-2.15550E-19-3.45110E-18
 -1      1870 1.00438E-04-2.89728E-05-3.06407E-05 7.16342E-06 1.91059E-19-3.51007E-18
 -1      1871 1.00861E-04-2.71401E-05-3.16377E-05 5.96915E-06 1.68149E-20-2.72674E-18
 -1      1872 1.01889E-04-3.01346E-05-3.07063E-05 7.92513E-06 3.63959E-22-3.93113E-18
 -1      1873 1.03876E-04-3.13957E-05-3.10890E-05 8.01168E-06-1.26785E-19-4.42252E-18
 -1      1874 1.03595E-04-2.98467E-05-3.15997E-05 9.17472E-06-1.89772E-19-2.83757E-18
 -1      1875 1.05037E-04-3.22921E-05-3.11774E-05 7.41563E-06 2.48045E-19-4.50156E-18
 -1      1876 1.06760E-04-3.32126E-05-3.15456E-05 6.60974E-06-2.28633E-20-3.81971E-18
 -1      1877 1.06418E-04-3.26283E-05-3.15867E-05 9.24568E-06 1.88796E-20-2.84840E-18
 -1      1878 1.07298E-04-3.35954E-05-3.16278E-05 5.22622E-06-5.63078E-20-2.78718E-18
 -1      1879 1.08407E-04-3.40250E-05-3.18959E-05 4.02522E-06 6.64564E-19-2.50827E-18
 -1      1880 1.08232E-04-3.43777E-05-3.16119E-05 6.94463E-06 6.93856E-19-2.35117E-18
 -1      1881 1.08345E-04-3.39578E-05-3.19385E-05 2.48658E-06 6.72485E-19-2.60094E-18
 -1      1882 1.08764E-04-3.39723E-05-3.20647E-05 1.32280E-06 6.76845E-19-2.58777E-18
 -1      1883 1.08725E-04-3.48368E-05-3.16379E-05 3.65961E-06 7.25504E-19-1.82565E-18
 -1      1884 1.08289E-04-3.36436E-05-3.20465E-05 4.04681E-08 7.84508E-19-2.68074E-18
 -1      1885 1.08127E-04-3.33993E-05-3.20322E-05-8.49024E-07 1.16713E-18-2.49017E-18
 -1      1886 1.08142E-04-3.43447E-05-3.16125E-05 5.40251E-07 7.31261E-19-2.62095E-18
 -1      1887 1.07432E-04-3.29786E-05-3.19505E-05-1.71884E-06 1.28162E-18-2.69474E-18
 -1      1888 1.06869E-04-3.26161E-05-3.18255E-05-2.27314E-06 4.01599E-19-2.23765E-18
 -1      1889 1.06903E-04-3.33896E-05-3.15008E-05-1.81403E-06 1.42836E-18-2.56526E-18
 -1      1890 1.06095E-04-3.22058E-05-3.16922E-05-2.74386E-06-2.69603E-19-1.23489E-18
 -1      1891 1.05309E-04-3.18184E-05-3.14966E-05-3.00511E-06-2.34966E-19-1.45072E-18
 -1      1892 1.05368E-04-3.23423E-05-3.12977E-05-3.26720E-06 8.83900E-19-1.23813E-18
 -1      1893 1.04542E-04-3.14636E-05-3.13305E-05-3.16543E-06-3.62255E-19-3.92348E-19
 -1      1894 1.03675E-04-3.11018E-05-3.11017E-05-3.21367E-06-8.53452E-20-7.64523E-19
 -1      1895 1.03775E-04-3.14004E-05-3.10220E-05-3.94138E-06 1.34107E-19 2.75030E-19
 -1      1896 1.02963E-04-3.08130E-05-3.09220E-05-3.16612E-06 1.52328E-19-8.80752E-19
 -1      1897 1.02112E-04-3.04988E-05-3.06890E-05-3.08085E-06 5.13410E-19-7.19279E-19
 -1      1898 1.02261E-04-3.06335E-05-3.07034E-05-4.04913E-06 1.24042E-19 1.90548E-19
 -1      1899 1.01479E-04-3.02714E-05-3.05113E-05-2.91303E-06 3.10000E-19-5.25149E-19
 -1      1900 1.00702E-04-3.00107E-05-3.02929E-05-2.75724E-06 2.81303E-19-6.14442E-19
 -1      1901 1.00895E-04-3.00427E-05-3.03719E-05-3.79892E-06 3.28346E-19 2.38515E-19
 -1      1902 1.00156E-04-2.98349E-05-3.01279E-05-2.53343E-06-2.04590E-19-7.88067E-19
 -1      1903 9.94817E-05-2.96253E-05-2.99347E-05-2.35082E-06-4.42296E-19-8.42828E-19
 -1      1904 9.97061E-05-2.96018E-05-3.00515E-05-3.35671E-06 1.57314E-19 4.32572E-19
 -1      1905 9.90237E-05-2.94911E-05-2.97887E-05-2.11338E-06-5.51425E-19-7.61022E-19
 -1      1906 9.84606E-05-2.93269E-05-2.96248E-05-1.93115E-06-1.68902E-19-8.61392E-19
 -1      1907 9.86999E-05-2.92790E-05-2.97583E-05-2.83906E-06-4.83923E-19-1.58425E-19
 -1      1908 9.80849E-05-2.92255E-05-2.95004E-05-1.70530E-06 9.88481E-20-1.25995E-18
 -1      1909 9.76293E-05-2.90997E-05-2.93661E-05-1.53852E-06 1.13216E-18-1.04253E-18
 -1      1910 9.78684E-05-2.90460E-05-2.95014E-05-2.32002E-06 1.69988E-19-1.50578E-19
 -1      1911 9.73276E-05-2.90239E-05-2.92632E-05-1.33739E-06 1.05833E-18-1.24095E-18
 -1      1912 9.69689E-05-2.89296E-05-2.91563E-05-1.19300E-06 1.22455E-19-7.47997E-19
 -1      1913 9.71959E-05-2.88796E-05-2.92838E-05-1.84173E-06 8.31984E-19-9.31935E-19
 -1      1914 9.67316E-05-2.88737E-05-2.90735E-05-1.02185E-06-9.92124E-19-1.32853E-18
 -1      1915 9.64563E-05-2.88046E-05-2.89906E-05-9.01723E-07-7.92228E-19-1.56210E-18
 -1      1916 9.66631E-05-2.87625E-05-2.91049E-05-1.42447E-06-8.60432E-19-1.49629E-18
 -1      1917 9.62734E-05-2.87640E-05-2.89256E-05-7.60994E-07-2.73339E-19-1.95101E-18
 -1      1918 9.60672E-05-2.87146E-05-2.88628E-05-6.64139E-07-9.33300E-20-1.63789E-18
 -1      1919 9.62492E-05-2.86814E-05-2.89616E-05-1.07457E-06-7.28914E-19-1.02566E-18
 -1      1920 9.59292E-05-2.86858E-05-2.88130E-05-5.51616E-07-5.23986E-19-1.41236E-18
 -1      1921 9.57787E-05-2.86515E-05-2.87667E-05-4.75545E-07-9.72310E-19-1.86663E-18
 -1      1922 9.59341E-05-2.86266E-05-2.88494E-05-7.90127E-07-3.56465E-19 3.94954E-19
 -1      1923 9.56769E-05-2.86315E-05-2.87293E-05-3.87736E-07 2.03869E-20-1.42038E-18
 -1      1924 9.55703E-05-2.86087E-05-2.86961E-05-3.29377E-07 2.20731E-19-1.15868E-18
 -1      1925 9.56995E-05-2.85908E-05-2.87636E-05-5.64833E-07-2.32502E-19 1.50280E-19
 -1      1926 9.54970E-05-2.85953E-05-2.86688E-05-2.62368E-07-2.89171E-19-1.48196E-18
 -1      1927 9.54242E-05-2.85809E-05-2.86458E-05-2.18587E-07-4.41240E-19-1.21518E-18
 -1      1928 9.55289E-05-2.85684E-05-2.86995E-05-3.90479E-07 9.97787E-21 3.11903E-19
 -1      1929 9.53731E-05-2.85724E-05-2.86264E-05-1.68550E-07-6.55886E-19-1.51429E-19
 -1      1930 9.53256E-05-2.85640E-05-2.86111E-05-1.36435E-07-7.29907E-19 2.19108E-19
 -1      1931 9.54083E-05-2.85556E-05-2.86528E-05-2.58463E-07-8.81848E-20 4.86750E-19
 -1      1932 9.52914E-05-2.85590E-05-2.85978E-05-9.98999E-08-1.05629E-18 2.03458E-20
 -1      1933 9.52626E-05-2.85549E-05-2.85882E-05-7.69036E-08-3.78370E-19 2.70784E-19
 -1      1934 9.53259E-05-2.85494E-05-2.86198E-05-1.60654E-07-1.08823E-18 2.17363E-18
 -1      1935 9.52410E-05-2.85524E-05-2.85795E-05-5.08829E-08 3.02230E-20-4.19557E-19
 -1      1936 9.52256E-05-2.85513E-05-2.85741E-05-3.48775E-08 1.30333E-18-4.50591E-19
 -1      1937 9.52723E-05-2.85476E-05-2.85973E-05-8.98478E-08-3.19055E-19 1.68527E-18
 -1      1938 9.52131E-05-2.85505E-05-2.85688E-05-1.69097E-08 2.51270E-18-5.00469E-19
 -1      1939 9.52071E-05-2.85514E-05-2.85663E-05-6.19126E-09 2.39889E-18 5.03268E-19
 -1      1940 9.52399E-05-2.85487E-05-2.85826E-05-3.99517E-08 1.65334E-18 1.19617E-18
 -1      1941 9.52010E-05-2.85518E-05-2.85634E-05 5.66529E-09 9.70577E-19 6.50830E-19
 -1      1942 9.52013E-05-2.85539E-05-2.85629E-05 1.23927E-08 1.15605E-18 3.89362E-19
 -1      1943 9.52226E-05-2.85516E-05-2.85738E-05-6.03393E-09 1.71562E-18 1.73443E-18
 -1      1944 9.51996E-05-2.85550E-05-2.85616E-05 1.95870E-08 1.17221E-18-7.40524E-19
 -1      1945 9.52038E-05-2.85579E-05-2.85623E-05 2.32317E-08 8.54438E-19-1.04216E-18
 -1      1946 9.52159E-05-2.85558E-05-2.85689E-05 1.57121E-08 3.32734E-19-9.32594E-19
 -1      1947 9.52049E-05-2.85596E-05-2.85621E-05 2.67480E-08 5.21206E-19-1.16353E-18
 -1      1948 9.52110E-05-2.85629E-05-2.85634E-05 2.78337E-08 5.19952E-20-1.42293E-18
 -1      1949 9.52160E-05-2.85608E-05-2.85668E-05 2.80389E-08 3.93429E-19-1.14749E-18
 -1      1950 9.52137E-05-2.85650E-05-2.85637E-05 2.83040E-08 6.48935E-19-5.95212E-19
 -1      1951 9.52204E-05-2.85684E-05-2.85652E-05 2.69535E-08 1.07089E-18-6.19588E-20
 -1      1952 9.52204E-05-2.85663E-05-2.85661E-05 3.27208E-08 1.76069E-19-2.22666E-19
 -1      1953 9.52232E-05-2.85705E-05-2.85655E-05 2.47465E-08 5.84968E-19 2.29585E-19
 -1      1954 9.52292E-05-2.85738E-05-2.85667E-05 2.10353E-08 4.07731E-19 3.62126E-19
 -1      1955 9.52328E-05-2.85777E-05-2.85665E-05 2.41661E-08 4.27481E-19 1.29905E-18
 -1      1956 9.52265E-05-2.85723E-05-2.85661E-05 3.09721E-08 9.32385E-19-1.81325E-19
 -1      1957 9.63328E-05-2.81810E-05-2.91700E-05 1.10511E-08 1.23096E-18 5.37649E-18
 -1      1958 9.69993E-05-2.81490E-05-2.94435E-05 1.20331E-06 1.29503E-18 5.90651E-18
 -1      1959 9.76405E-05-2.76518E-05-3.00065E-05 2.24183E-06 1.62499E-18 4.49441E-18
 -1      1960 9.64152E-05-2.84534E-05-2.90911E-05-1.62629E-06 9.49047E-19 4.55951E-18
 -1      1961 9.62660E-05-2.83083E-05-2.90682E-05-8.89964E-07 9.74511E-19 4.96220E-18
 -1      1962 9.69209E-05-2.81505E-05-2.94869E-05-6.11374E-07 1.26261E-18 3.76298E-18
 -1      1963 9.74496E-05-2.88691E-05-2.93640E-05-2.78251E-06 4.13408E-19 4.18020E-18
 -1      1964 9.67672E-05-2.86130E-05-2.91719E-05-2.24196E-06 6.13837E-19 4.41097E-18
 -1      1965 9.71945E-05-2.85229E-05-2.94485E-05-2.46127E-06 8.47662E-19 3.11604E-18
 -1      1966 9.92099E-05-2.94499E-05-2.98746E-05-3.70546E-06 4.14950E-19 3.85594E-18
 -1      1967 9.81390E-05-2.90944E-05-2.95669E-05-3.25591E-06 2.65972E-19 4.09350E-18
 -1      1968 9.82459E-05-2.89684E-05-2.97097E-05-3.82213E-06 4.36414E-19 2.75640E-18
 -1      1969 1.01551E-04-3.01980E-05-3.05618E-05-4.48255E-06 3.83476E-19 3.94896E-18
 -1      1970 1.00174E-04-2.97501E-05-3.01662E-05-4.08908E-06 3.87693E-19 4.05800E-18
 -1      1971 9.99145E-05-2.95460E-05-3.01771E-05-4.91963E-06 4.20519E-19 2.77419E-18
 -1      1972 1.04355E-04-3.11182E-05-3.13765E-05-5.09132E-06 3.66925E-19 3.64563E-18
 -1      1973 1.02742E-04-3.05820E-05-3.09167E-05-4.76859E-06 4.63226E-19 3.85843E-18
 -1      1974 1.02089E-04-3.02886E-05-3.07906E-05-5.81170E-06 5.10953E-19 2.69877E-18
 -1      1975 1.07484E-04-3.22156E-05-3.22585E-05-5.40043E-06 6.00806E-19 3.07805E-18
 -1      1976 1.05727E-04-3.16000E-05-3.17665E-05-5.21569E-06 4.97093E-19 3.38209E-18
 -1      1977 1.04679E-04-3.12332E-05-3.14953E-05-6.42425E-06 7.19650E-19 2.51302E-18
 -1      1978 1.10721E-04-3.34788E-05-3.31206E-05-5.15495E-06 1.69820E-20 3.04819E-18
 -1      1979 1.08971E-04-3.28101E-05-3.26467E-05-5.23804E-06 2.66714E-19 3.06140E-18
 -1      1980 1.07577E-04-3.24213E-05-3.22265E-05-6.54676E-06 4.31221E-19 2.33959E-18
 -1      1981 1.13719E-04-3.48406E-05-3.38397E-05-3.98562E-06 2.85053E-19 3.05458E-18
 -1      1982 1.12217E-04-3.41854E-05-3.34583E-05-4.52636E-06 2.53683E-19 3.18313E-18
 -1      1983 1.10616E-04-3.38723E-05-3.29022E-05-5.82770E-06 2.70799E-19 2.34847E-18
 -1      1984 1.15953E-04-3.61035E-05-3.42679E-05-1.51082E-06-2.47201E-19 2.85744E-18
 -1      1985 1.15041E-04-3.56012E-05-3.40717E-05-2.70793E-06-9.72897E-20 3.02723E-18
 -1      1986 1.13507E-04-3.55074E-05-3.34292E-05-3.82662E-06 1.49488E-20 2.25071E-18
 -1      1987 1.16729E-04-3.68422E-05-3.42781E-05 2.37175E-06 1.53823E-19 2.90336E-18
 -1      1988 1.16805E-04-3.67314E-05-3.43504E-05 4.61549E-07-8.13152E-20 2.92583E-18
 -1      1989 1.15759E-04-3.70102E-05-3.37297E-05-2.14236E-07 8.86076E-20 2.35751E-18
 -1      1990 1.15341E-04-3.63947E-05-3.38468E-05 6.97709E-06-2.45137E-19 3.42618E-18
 -1      1991 1.16704E-04-3.69693E-05-3.42087E-05 4.70046E-06-5.05361E-19 3.09209E-18
 -1      1992 1.16635E-04-3.76896E-05-3.37880E-05 4.78858E-06-4.18659E-19 2.49131E-18
 -1      1993 1.11526E-04-3.41969E-05-3.31240E-05 1.04101E-05 1.08278E-20 4.74627E-18
 -1      1994 1.14103E-04-3.55915E-05-3.36836E-05 8.72140E-06 3.89106E-20 4.17131E-18
 -1      1995 1.15345E-04-3.66078E-05-3.36876E-05 9.82290E-06-4.18262E-19 3.34121E-18
 -1      1996 1.06265E-04-3.06353E-05-3.24032E-05 1.00730E-05 4.17442E-19 4.02977E-18
 -1      1997 1.09300E-04-3.24525E-05-3.29627E-05 1.02318E-05 1.51460E-19 4.56543E-18
 -1      1998 1.11753E-04-3.33583E-05-3.35747E-05 1.22174E-05 8.75223E-20 3.69840E-18
 -1      1999 1.02075E-04-2.75574E-05-3.19826E-05 4.80087E-06 1.63528E-18 3.09661E-18
 -1      2000 1.04241E-04-2.88471E-05-3.23131E-05 7.29651E-06 1.19911E-18 3.58004E-18
 -1      2001 1.07360E-04-2.92002E-05-3.35475E-05 9.40425E-06 1.53243E-18 3.25918E-18
 -1      2002 1.01710E-04-2.72319E-05-3.20311E-05-3.30190E-06 1.67088E-18 2.13051E-18
 -1      2003 1.01757E-04-2.70672E-05-3.19932E-05 4.21853E-07 1.83923E-18 2.72133E-18
 -1      2004 1.04890E-04-2.67051E-05-3.36008E-05 1.49197E-06 2.21727E-18 2.23047E-18
 -1      2005 1.05648E-04-3.00134E-05-3.24954E-05-9.57063E-06 7.86682E-20 1.08860E-18
 -1      2006 1.03502E-04-2.85286E-05-3.21072E-05-6.77610E-06 8.09287E-19 1.60294E-18
 -1      2007 1.06341E-04-2.79871E-05-3.36551E-05-7.41851E-06 1.26952E-18 1.59111E-18
 -1      2008 1.11417E-04-3.38212E-05-3.32584E-05-1.11137E-05-5.82960E-19 7.94914E-19
 -1      2009 1.08192E-04-3.19611E-05-3.26586E-05-1.04232E-05-1.32362E-19 6.73021E-19
 -1      2010 1.10610E-04-3.19258E-05-3.37196E-05-1.23211E-05 2.18257E-19 2.00138E-19
 -1      2011 1.16062E-04-3.64895E-05-3.40489E-05-8.35296E-06 2.15980E-19 1.06477E-18
 -1      2012 1.13213E-04-3.51945E-05-3.34629E-05-9.48391E-06-2.07649E-19 8.95327E-19
 -1      2013 1.14920E-04-3.58443E-05-3.38622E-05-1.15941E-05-2.79197E-19-2.49994E-19
 -1      2014 1.18144E-04-3.72977E-05-3.45868E-05-3.84215E-06 1.20914E-18 4.49743E-19
 -1      2015 1.16521E-04-3.68273E-05-3.42052E-05-5.70215E-06 6.41972E-19 8.71610E-19
 -1      2016 1.17197E-04-3.77851E-05-3.40285E-05-7.16839E-06 5.80767E-19 2.82883E-19
 -1      2017 1.17841E-04-3.67572E-05-3.47092E-05 2.47231E-07-1.11257E-18 5.60124E-19
 -1      2018 1.17544E-04-3.69076E-05-3.46122E-05-1.45279E-06 3.87346E-19 4.57895E-19
 -1      2019 1.17169E-04-3.76666E-05-3.40872E-05-1.99551E-06 3.75381E-19 2.64243E-20
 -1      2020 1.15938E-04-3.55837E-05-3.44221E-05 2.98616E-06-2.09564E-18 1.15609E-18
 -1      2021 1.16654E-04-3.60667E-05-3.45806E-05 1.83177E-06-2.00523E-18 3.93887E-19
 -1      2022 1.15531E-04-3.64097E-05-3.39306E-05 2.09750E-06-1.69007E-18 1.39863E-19
 -1      2023 1.13227E-04-3.42749E-05-3.38381E-05 4.34930E-06-1.14622E-18 2.62333E-18
 -1      2024 1.14536E-04-3.48731E-05-3.41684E-05 3.75702E-06-1.76013E-18 1.72298E-18
 -1      2025 1.13060E-04-3.48277E-05-3.35457E-05 4.56098E-06-2.01346E-18 4.10947E-19
 -1      2026 1.10281E-04-3.30723E-05-3.30985E-05 4.70111E-06 5.49802E-19 2.79791E-18
 -1      2027 1.11829E-04-3.36629E-05-3.35112E-05 4.52693E-06-7.75631E-20 2.99836E-18
 -1      2028 1.10324E-04-3.33689E-05-3.29914E-05 5.60132E-06-6.67715E-19 1.45742E-18
 -1      2029 1.07446E-04-3.20540E-05-3.23218E-05 4.44792E-06 1.09696E-18 3.93493E-18
 -1      2030 1.08994E-04-3.25819E-05-3.27480E-05 4.52811E-06 1.16263E-18 3.37470E-18
 -1      2031 1.07657E-04-3.21804E-05-3.23522E-05 5.67264E-06 8.66109E-19 2.02397E-18
 -1      2032 1.04905E-04-3.12249E-05-3.15865E-05 3.90057E-06 5.08531E-19 2.57983E-18
 -1      2033 1.06317E-04-3.16715E-05-3.19836E-05 4.10800E-06 8.04231E-19 3.07415E-18
 -1      2034 1.05229E-04-3.12603E-05-3.17028E-05 5.19706E-06 1.13070E-18 2.68895E-18
 -1      2035 1.02729E-04-3.05638E-05-3.09350E-05 3.25702E-06 1.03450E-18 1.05981E-18
 -1      2036 1.03945E-04-3.09289E-05-3.12818E-05 3.50962E-06 9.19678E-19 2.05868E-18
 -1      2037 1.03114E-04-3.05606E-05-3.10952E-05 4.47725E-06 1.21839E-18 1.74831E-18
 -1      2038 1.00928E-04-3.00445E-05-3.03835E-05 2.62737E-06 1.00254E-18 1.14894E-18
 -1      2039 1.01934E-04-3.03355E-05-3.06733E-05 2.87872E-06 9.95563E-19 9.68505E-19
 -1      2040 1.01331E-04-3.00307E-05-3.05580E-05 3.69959E-06 1.31687E-18 1.22185E-18
 -1      2041 9.94758E-05-2.96416E-05-2.99320E-05 2.06420E-06-1.04200E-18 2.09028E-18
 -1      2042 1.00284E-04-2.98689E-05-3.01664E-05 2.29153E-06-3.34216E-19 1.59154E-18
 -1      2043 9.98656E-05-2.96297E-05-3.01021E-05 2.96480E-06-2.27324E-19 1.68192E-18
 -1      2044 9.83302E-05-2.93330E-05-2.95720E-05 1.58650E-06 1.12209E-18 1.92992E-18
 -1      2045 9.89637E-05-2.95073E-05-2.97568E-05 1.78100E-06 4.50449E-20 1.96655E-18
 -1      2046 9.86876E-05-2.93269E-05-2.97273E-05 2.31887E-06-4.99452E-21 2.04043E-18
 -1      2047 9.74439E-05-2.90999E-05-2.92911E-05 1.19528E-06 2.25486E-19 1.93510E-18
 -1      2048 9.79305E-05-2.92313E-05-2.94338E-05 1.35575E-06 1.25788E-18 2.45290E-18
 -1      2049 9.77587E-05-2.90996E-05-2.94269E-05 1.77609E-06 1.04617E-18 2.10434E-18
 -1      2050 9.67709E-05-2.89267E-05-2.90763E-05 8.82984E-07-7.46962E-19 1.67837E-18
 -1      2051 9.71374E-05-2.90240E-05-2.91843E-05 1.01196E-06-9.39966E-19 1.59090E-18
 -1      2052 9.70397E-05-2.89306E-05-2.91912E-05 1.33403E-06-3.63589E-19 2.13853E-18
 -1      2053 9.62694E-05-2.88002E-05-2.89152E-05 6.38737E-07 2.05349E-18 1.47231E-18
 -1      2054 9.65400E-05-2.88708E-05-2.89953E-05 7.40270E-07 6.66054E-19 1.73634E-18
 -1      2055 9.64929E-05-2.88067E-05-2.90100E-05 9.82398E-07 5.58218E-19 1.48891E-18
 -1      2056 9.59031E-05-2.87099E-05-2.87968E-05 4.51072E-07 6.76276E-19 9.11384E-19
 -1      2057 9.60988E-05-2.87599E-05-2.88550E-05 5.29598E-07 1.80651E-18 1.84605E-18
 -1      2058 9.60849E-05-2.87174E-05-2.88732E-05 7.08093E-07 1.90838E-18 3.29225E-18
 -1      2059 9.56417E-05-2.86470E-05-2.87116E-05 3.09257E-07-1.66338E-18-9.53226E-20
 -1      2060 9.57798E-05-2.86815E-05-2.87529E-05 3.69006E-07-6.27057E-19 7.65921E-20
 -1      2061 9.57864E-05-2.86546E-05-2.87720E-05 4.97785E-07 8.85795E-20 3.11720E-18
 -1      2062 9.54603E-05-2.86048E-05-2.86519E-05 2.03851E-07-7.70502E-20 4.74286E-19
 -1      2063 9.55548E-05-2.86277E-05-2.86804E-05 2.48592E-07-1.43047E-18-7.60591E-19
 -1      2064 9.55730E-05-2.86118E-05-2.86988E-05 3.39184E-07-9.43982E-19 9.74692E-19
 -1      2065 9.53389E-05-2.85777E-05-2.86115E-05 1.26860E-07-8.67021E-19 2.61590E-19
 -1      2066 9.54009E-05-2.85921E-05-2.86304E-05 1.59816E-07-2.84678E-19 3.19127E-19
 -1      2067 9.54248E-05-2.85837E-05-2.86471E-05 2.21555E-07-5.21977E-19-4.66786E-19
 -1      2068 9.52618E-05-2.85617E-05-2.85854E-05 7.16941E-08-1.00200E-18 1.94710E-18
 -1      2069 9.53001E-05-2.85700E-05-2.85972E-05 9.55461E-08-6.82878E-19 1.15596E-18
 -1      2070 9.53255E-05-2.85665E-05-2.86117E-05 1.35846E-07-1.68715E-18 6.27768E-19
 -1      2071 9.52167E-05-2.85534E-05-2.85696E-05 3.30529E-08-1.28233E-18 1.15537E-18
 -1      2072 9.52380E-05-2.85574E-05-2.85764E-05 4.99729E-08-1.05392E-18 1.48847E-18
 -1      2073 9.52623E-05-2.85570E-05-2.85886E-05 7.46288E-08-8.62692E-19 1.22769E-18
 -1      2074 9.51942E-05-2.85506E-05-2.85612E-05 6.76965E-09-8.95929E-20 1.48779E-18
 -1      2075 9.52037E-05-2.85517E-05-2.85644E-05 1.84745E-08-2.89985E-19 9.95821E-19
 -1      2076 9.52254E-05-2.85530E-05-2.85744E-05 3.19488E-08-4.83451E-19 1.21985E-18
 -1      2077 9.51873E-05-2.85515E-05-2.85580E-05-1.03309E-08 2.39875E-18-1.12778E-18
 -1      2078 9.51888E-05-2.85506E-05-2.85588E-05-2.52826E-09 6.88233E-19 2.42744E-19
 -1      2079 9.52070E-05-2.85527E-05-2.85665E-05 3.16096E-09 1.59139E-18 3.97630E-19
 -1      2080 9.51905E-05-2.85546E-05-2.85580E-05-2.05559E-08 2.77982E-18-2.20403E-18
 -1      2081 9.51868E-05-2.85525E-05-2.85573E-05-1.57044E-08 2.92335E-18-1.10787E-18
 -1      2082 9.52012E-05-2.85548E-05-2.85631E-05-1.52337E-08 3.20152E-18-8.07301E-19
 -1      2083 9.51997E-05-2.85592E-05-2.85601E-05-2.54175E-08 2.25443E-18-1.45162E-18
 -1      2084 9.51931E-05-2.85563E-05-2.85585E-05-2.29120E-08 1.81506E-18-1.34284E-18
 -1      2085 9.52037E-05-2.85585E-05-2.85624E-05-2.57209E-08 1.85432E-18-5.59423E-19
 -1      2086 9.52115E-05-2.85644E-05-2.85630E-05-2.56641E-08-6.81118E-19-1.45673E-18
 -1      2087 9.52039E-05-2.85613E-05-2.85610E-05-2.52477E-08 1.25713E-18-9.39435E-19
 -1      2088 9.52109E-05-2.85633E-05-2.85634E-05-2.98302E-08 1.17276E-18 6.40698E-19
 -1      2089 9.52234E-05-2.85700E-05-2.85658E-05-2.12896E-08-1.83513E-18-2.06747E-18
 -1      2090 9.52163E-05-2.85669E-05-2.85640E-05-2.31664E-08-1.07083E-18-2.24872E-18
 -1      2091 9.52203E-05-2.85687E-05-2.85650E-05-2.83637E-08-6.95170E-19-4.44284E-19
 -1      2092 9.52321E-05-2.85745E-05-2.85676E-05-1.47262E-08-8.31909E-20-1.52967E-18
 -1      2093 9.52263E-05-2.85717E-05-2.85663E-05-1.88463E-08-1.23800E-18-2.32442E-18
 -1      2094 9.52284E-05-2.85736E-05-2.85664E-05-2.35343E-08-1.26178E-18-7.79802E-19
 -1      2095 9.52344E-05-2.85780E-05-2.85670E-05-1.75747E-08-8.04398E-20 3.25544E-19
 -1      2096 9.52497E-05-2.86058E-05-2.85617E-05-2.31926E-08-1.79718E-18 1.13471E-19
 -1      2097 9.52471E-05-2.85998E-05-2.85631E-05-2.45751E-08-1.91002E-18 6.61502E-19
 -1      2098 9.52450E-05-2.85964E-05-2.85637E-05-2.55440E-08-1.87597E-18 1.24458E-19
 -1      2099 9.52418E-05-2.85901E-05-2.85651E-05-2.51501E-08-1.50420E-18 6.29967E-19
 -1      2100 9.52445E-05-2.85919E-05-2.85655E-05-3.02206E-08-1.50682E-18 9.31425E-19
 -1      2101 9.52399E-05-2.85874E-05-2.85654E-05-2.37179E-08-1.47461E-18-1.82151E-19
 -1      2102 9.52366E-05-2.85814E-05-2.85666E-05-2.08352E-08-8.48293E-19-3.28572E-19
 -1      2103 9.52342E-05-2.85794E-05-2.85664E-05-2.44766E-08-9.39573E-19-6.97440E-19
 -1      2104 9.52396E-05-2.85857E-05-2.85660E-05-2.97007E-08-1.98452E-18 4.56255E-20
 -1      2105 9.52527E-05-2.86131E-05-2.85598E-05-1.85827E-08-2.10204E-18-1.96305E-18
 -1      2106 9.52509E-05-2.86083E-05-2.85610E-05-2.08162E-08-2.30679E-18 4.04036E-20
 -1      2107 9.52488E-05-2.85981E-05-2.85646E-05-2.64159E-08-1.97165E-18-2.56856E-19
 -1      2108 9.52545E-05-2.86184E-05-2.85583E-05-1.29179E-08-2.53779E-20 8.05164E-19
 -1      2109 9.52534E-05-2.86149E-05-2.85592E-05-1.55226E-08-8.48461E-19 1.54374E-19
 -1      2110 9.52512E-05-2.86025E-05-2.85637E-05-2.04137E-08-1.09613E-18 3.65457E-19
 -1      2111 9.52554E-05-2.86215E-05-2.85573E-05-7.05131E-09 2.22018E-19 2.79746E-19
 -1      2112 9.52548E-05-2.86194E-05-2.85579E-05-9.69672E-09 6.17486E-19 2.04990E-18
 -1      2113 9.52523E-05-2.86053E-05-2.85630E-05-1.35094E-08 1.03009E-19 1.33867E-18
 -1      2114 9.52557E-05-2.86226E-05-2.85569E-05-1.28166E-09-6.09375E-19 1.42094E-19
 -1      2115 9.52555E-05-2.86220E-05-2.85571E-05-3.87909E-09-7.06989E-19-5.91761E-19
 -1      2116 9.52527E-05-2.86068E-05-2.85625E-05-6.51401E-09-2.68865E-19-9.72680E-19
 -1      2117 9.52554E-05-2.86218E-05-2.85572E-05 4.40654E-09-1.85166E-19 1.05158E-18
 -1      2118 9.52557E-05-2.86226E-05-2.85570E-05 1.83092E-09-3.94031E-19 1.23098E-18
 -1      2119 9.52528E-05-2.86072E-05-2.85624E-05 3.43952E-10-2.04863E-18 1.05345E-18
 -1      2120 9.52546E-05-2.86190E-05-2.85580E-05 1.01111E-08-1.65817E-18-7.63300E-19
 -1      2121 9.52553E-05-2.86212E-05-2.85574E-05 7.52542E-09-1.40552E-18 1.46270E-18
 -1      2122 9.52526E-05-2.86066E-05-2.85626E-05 7.14154E-09-1.44321E-18 7.01413E-19
 -1      2123 9.52531E-05-2.86144E-05-2.85593E-05 1.56630E-08-9.28749E-19-7.69698E-19
 -1      2124 9.52543E-05-2.86179E-05-2.85584E-05 1.31891E-08-1.20433E-18-3.69843E-19
 -1      2125 9.52520E-05-2.86049E-05-2.85631E-05 1.39143E-08-1.01238E-18 6.51755E-20
 -1      2126 9.52506E-05-2.86077E-05-2.85612E-05 2.07923E-08 1.27990E-19-3.63680E-19
 -1      2127 9.52524E-05-2.86126E-05-2.85599E-05 1.86144E-08-5.26468E-19 4.56353E-19
 -1      2128 9.52509E-05-2.86020E-05-2.85638E-05 2.05272E-08-5.86429E-19 5.54553E-19
 -1      2129 9.52468E-05-2.85993E-05-2.85632E-05 2.43810E-08 7.37472E-20-1.54128E-18
 -1      2130 9.52494E-05-2.86051E-05-2.85618E-05 2.30892E-08 1.00855E-18-2.22953E-18
 -1      2131 9.52484E-05-2.85976E-05-2.85647E-05 2.63425E-08 3.95394E-19-1.10009E-18
 -1      2132 9.52414E-05-2.85896E-05-2.85652E-05 2.51404E-08 3.78010E-20-6.08209E-19
 -1      2133 9.52450E-05-2.85959E-05-2.85638E-05 2.52881E-08 2.10383E-19-4.61541E-19
 -1      2134 9.52443E-05-2.85914E-05-2.85656E-05 2.99147E-08 8.74888E-19-6.27134E-19
 -1      2135 6.18282E-05-4.15358E-05-9.14558E-06 3.96956E-05 3.36484E-18 4.60235E-18
 -1      2136 4.70943E-05-4.02408E-05-3.54275E-06 3.53855E-05 1.23794E-18 4.16528E-18
 -1      2137 1.19025E-05-3.36563E-05 8.00130E-06 3.59362E-06 1.18775E-18 3.62827E-18
 -1      2138 1.23172E-05-3.50499E-05 8.19500E-06-5.61798E-06 5.06102E-19 3.70196E-18
 -1      2139 2.64915E-05-3.20564E-05 1.70752E-06 2.59722E-05 5.23043E-19 4.52464E-18
 -1      2140 1.75959E-05-3.48384E-05 5.91294E-06 1.38825E-05 3.91753E-19 4.31944E-18
 -1      2141 9.75800E-05-4.44705E-05-2.27083E-05 4.13885E-05 4.25888E-18 4.25211E-18
 -1      2142 7.83650E-05-4.59493E-05-1.49558E-05 3.73603E-05 3.62615E-18 4.35544E-18
 -1      2143 1.34068E-04-4.27167E-05-3.84724E-05 3.56501E-05 5.83352E-18 1.25742E-18
 -1      2144 1.13979E-04-4.47919E-05-3.02840E-05 3.41079E-05 5.33292E-18 2.43437E-18
 -1      2145 8.73984E-05-8.43633E-06-3.39357E-05-8.65838E-06-6.92042E-19-3.72258E-18
 -1      2146 8.84157E-05-9.11554E-06-3.40636E-05-1.01961E-05-1.00448E-18-3.61699E-18
 -1      2147 9.10410E-05-1.29092E-05-3.35096E-05-9.79670E-06-1.24132E-18-3.25545E-18
 -1      2148 8.85361E-05-1.04842E-05-3.34800E-05-7.44939E-06-6.03450E-19-3.51986E-18
 -1      2149 1.80905E-04-3.08595E-05-6.29373E-05 9.79921E-06 5.35367E-18-2.74269E-18
 -1      2150 1.69083E-04-3.17640E-05-5.81499E-05 1.55598E-05 5.15462E-18-9.10984E-19
 -1      2151 1.84640E-04-2.52376E-05-6.71893E-05-1.02921E-06 4.90686E-18-2.34011E-18
 -1      2152 1.83651E-04-2.64073E-05-6.60791E-05 6.67363E-06 5.44769E-18-2.30351E-18
 -1      2153 1.73017E-04-2.46544E-05-6.29973E-05-6.26444E-06 3.44488E-18-2.11885E-18
 -1      2154 1.80181E-04-2.43031E-05-6.56079E-05-1.72650E-06 3.79725E-18-1.67003E-18
 -1      2155 1.60598E-04-3.47514E-05-5.36812E-05-1.72358E-05 2.61866E-18-3.29750E-18
 -1      2156 1.73086E-04-3.23735E-05-5.94539E-05-1.13233E-05 2.98452E-18-2.66350E-18
 -1      2157 1.36611E-04-4.43103E-05-3.98658E-05-2.61213E-05 1.34001E-18-3.71043E-18
 -1      2158 1.54774E-04-4.19108E-05-4.76154E-05-2.47392E-05 1.98142E-18-3.67782E-18
 -1      2159 1.01431E-04-4.72459E-05-2.39858E-05-3.62882E-05 1.35695E-18-3.14249E-18
 -1      2160 1.21932E-04-4.59897E-05-3.23397E-05-3.77347E-05 1.60470E-18-3.62700E-18
 -1      2161 6.11910E-05-4.43037E-05-8.64675E-06-3.59086E-05 1.15154E-18-3.33472E-18
 -1      2162 8.03785E-05-4.33531E-05-1.62251E-05-4.22738E-05 1.49840E-18-3.28162E-18
 -1      2163 3.14685E-05-4.02361E-05 2.19085E-06-2.65796E-05-2.99426E-19-4.22627E-18
 -1      2164 4.36696E-05-3.89656E-05-2.96956E-06-3.41124E-05 1.06684E-18-3.92324E-18
 -1      2165 1.42119E-05-3.54472E-05 7.63152E-06-8.48482E-06-1.31375E-18-4.46683E-18
 -1      2166 1.92524E-05-3.39890E-05 5.25295E-06-1.84903E-05-2.78250E-19-4.67605E-18
 -1      2167 1.48247E-05-2.96833E-05 5.62499E-06 1.31340E-05-2.13939E-18-5.24102E-18
 -1      2168 1.25891E-05-3.43213E-05 7.82269E-06 1.85816E-06-1.20935E-18-4.83995E-18
 -1      2169 1.56418E-05-2.34566E-05 2.84939E-06-4.64697E-06-7.86894E-19-5.23466E-18
 -1      2170 3.65828E-05-3.80793E-05-4.86378E-07 3.23624E-05-4.36307E-18-5.82674E-18
 -1      2171 2.60800E-05-3.58519E-05 3.15405E-06 2.65145E-05-2.81893E-18-5.28570E-18
 -1      2172 6.96718E-05-4.14344E-05-1.24350E-05 4.30171E-05-4.18942E-18-5.24721E-18
 -1      2173 5.18534E-05-4.26544E-05-5.32794E-06 3.53177E-05-3.99461E-18-5.69057E-18
 -1      2174 5.38685E-05-4.03801E-05-6.16050E-06 4.06618E-05-1.35441E-18-4.79463E-18
 -1      2175 1.10033E-04-4.39568E-05-2.80739E-05 4.12350E-05-5.56204E-18-2.86890E-18
 -1      2176 9.13816E-05-4.64087E-05-2.00002E-05 3.85741E-05-4.41728E-18-3.61005E-18
 -1      2177 1.42908E-04-4.13529E-05-4.29591E-05 3.11590E-05-5.67131E-18-1.99222E-18
 -1      2178 1.23565E-04-4.27633E-05-3.50029E-05 3.29369E-05-6.24052E-18-2.74820E-18
 -1      2179 1.63325E-04-3.29046E-05-5.54398E-05 1.42025E-05-5.50275E-18-6.39510E-20
 -1      2180 1.51932E-04-3.56026E-05-4.95180E-05 2.14317E-05-5.86208E-18-1.74023E-18
 -1      2181 1.82423E-04-2.62163E-05-6.51021E-05 7.24512E-06-5.51757E-18 1.25086E-18
 -1      2182 1.67947E-04-2.44637E-05-6.08384E-05 9.91655E-06-5.97582E-18 1.67289E-19
 -1      2183 1.80846E-04-2.34880E-05-6.62501E-05-3.67101E-06-5.14954E-18 3.26192E-18
 -1      2184 1.83488E-04-2.50158E-05-6.65654E-05 3.83973E-06-5.17749E-18 2.10625E-18
 -1      2185 1.60726E-04-1.46609E-05-6.14919E-05-2.54754E-07-6.09948E-18 1.27987E-18
 -1      2186 1.72373E-04-2.75590E-05-6.11632E-05-1.37545E-05-4.06449E-18 4.44057E-18
 -1      2187 1.79012E-04-2.62637E-05-6.42659E-05-6.77385E-06-4.10769E-18 3.69666E-18
 -1      2188 1.55345E-04-3.33699E-05-5.19267E-05-2.41222E-05-3.64799E-18 4.13945E-18
 -1      2189 1.69782E-04-3.29984E-05-5.74299E-05-1.99027E-05-3.87189E-18 4.27074E-18
 -1      2190 1.30171E-04-3.91392E-05-3.92354E-05-3.26280E-05-2.44454E-18 4.13352E-18
 -1      2191 1.47913E-04-3.81106E-05-4.61551E-05-3.16785E-05-3.01290E-18 4.14496E-18
 -1      2192 9.91813E-05-4.25307E-05-2.50684E-05-3.79777E-05-2.21414E-18 3.52281E-18
 -1      2193 1.17757E-04-4.08548E-05-3.25402E-05-4.02819E-05-2.74058E-18 4.07889E-18
 -1      2194 6.60299E-05-4.26555E-05-1.12340E-05-3.77615E-05-1.48019E-18 3.63356E-18
 -1      2195 8.26626E-05-4.03143E-05-1.82892E-05-4.29958E-05-1.82281E-18 3.80805E-18
 -1      2196 3.84545E-05-3.92225E-05-7.87392E-07-3.25331E-05-8.54656E-19 4.37535E-18
 -1      2197 5.05080E-05-3.84006E-05-5.90368E-06-3.76773E-05-1.86601E-18 4.20536E-18
 -1      2198 7.02293E-05-4.51395E-05-1.11148E-05-4.25526E-05 8.18234E-19 2.65841E-18
 -1      2199 1.60997E-05-3.69202E-05 7.10405E-06-1.38995E-05 1.05117E-18 5.61540E-18
 -1      2200 2.23161E-05-3.39587E-05 3.81103E-06-2.33545E-05 8.13152E-20 5.43647E-18
 -1      2201 1.57458E-05-2.57473E-05 3.53191E-06-1.24096E-05-2.25205E-19 5.27363E-18
 -1      2202 1.64250E-04-3.78844E-05-5.30178E-05 2.51182E-05 5.07721E-18 1.45266E-19
 -1      2203 1.44998E-04-3.83402E-05-4.56460E-05 2.79344E-05 6.11050E-18 1.07616E-18
 -1      2204 1.18039E-04-5.50687E-05-2.69787E-05 3.27956E-05 2.59023E-18 4.70527E-19
 -1      2205 9.87476E-05-2.47940E-05-3.17595E-05-8.51862E-06-1.86826E-18-9.14690E-19
 -1      2206 1.45365E-04-4.88533E-05-4.08632E-05 1.86828E-05 4.15671E-18-1.62249E-18
 -1      2207 1.60147E-04-3.51291E-05-5.26098E-05 4.97447E-06 4.92931E-18-3.56050E-18
 -1      2208 9.78846E-05-2.35200E-05-3.19432E-05-8.52647E-06-1.86073E-18-1.59274E-18
 -1      2209 4.15113E-05-3.52234E-05-2.98127E-06 3.31267E-05-2.84180E-19 4.73534E-18
 -1      2210 3.74100E-05-2.71652E-05-3.91323E-06 3.12630E-05-1.97994E-18 4.43866E-18
 -1      2211 5.73386E-05-3.78053E-05-8.55882E-06 3.93120E-05-1.60386E-18 4.04734E-18
 -1      2212 1.70718E-05-2.43603E-05 2.61939E-06 1.13942E-05-5.91441E-19 4.15978E-18
 -1      2213 9.52389E-05-2.85848E-05-2.85661E-05 2.53112E-08 9.55624E-19 1.58616E-18
 -1      2214 8.30772E-05-5.00263E-05-1.45211E-05 4.11794E-05 6.18334E-19 3.21211E-18
 -1      2215 3.50240E-05-3.47982E-05-6.84829E-07-3.12906E-05 1.23243E-19 5.55717E-18
 -1      2216 4.79337E-05-3.49729E-05-5.90792E-06-3.95758E-05 8.54233E-19 3.86438E-18
 -1      2217 3.13963E-05-2.68981E-05-1.71441E-06-3.05449E-05 3.76506E-19 6.12320E-18
 -1      2218 1.04055E-04-5.16340E-05-2.24481E-05-3.87193E-05 4.57398E-19 2.47863E-18
 -1      2219 1.33035E-04-5.01121E-05-3.51264E-05-2.66409E-05-7.96211E-19 2.37127E-18
 -1      2220 1.51439E-04-4.02865E-05-4.68474E-05-1.29781E-05-2.30505E-18 2.45851E-18
 -1      2221 1.61561E-04-1.59828E-05-6.12341E-05 6.68747E-07-4.93566E-18 1.88962E-18
 -1      2222 1.60066E-04-2.76215E-05-5.60972E-05 5.24460E-06-5.35410E-18 5.40407E-19
 -1      2223 1.49272E-04-3.04078E-05-5.06778E-05-1.63566E-06-4.98712E-18 1.92869E-18
 -1      2224 1.49626E-04-2.12680E-05-5.54617E-05-4.92500E-06-5.47268E-18 1.62186E-18
 -1      2225 1.48084E-04-4.38974E-05-4.39892E-05 1.34121E-05-4.75860E-18 5.16690E-19
 -1      2226 9.22141E-05-5.10115E-05-1.77338E-05 4.16277E-05-1.87279E-18-2.59563E-18
 -1      2227 2.37166E-05-2.96010E-05 2.06279E-06 2.19438E-05-1.45097E-18-5.38988E-18
 -1      2228 2.23862E-05-2.05427E-05-4.82117E-07 1.75064E-05-2.79944E-19-5.20671E-18
 -1      2229 3.29059E-05-2.73694E-05-2.57744E-06 3.09927E-05-1.10326E-19-4.68515E-18
 -1      2230 3.04354E-05-3.21684E-05 8.38303E-08-2.77401E-05-1.06557E-18-4.78595E-18
 -1      2231 6.26795E-05-4.41996E-05-8.37203E-06-4.09960E-05-7.70800E-19-3.08045E-18
 -1      2232 1.02714E-04-5.37338E-05-2.09565E-05-3.83516E-05-5.34478E-19-2.05363E-18
 -1      2233 1.37717E-04-5.41127E-05-3.54735E-05-2.23159E-05-4.84079E-19-1.61402E-18
 -1      2234 1.55065E-04-4.16784E-05-4.79164E-05-4.82187E-06 9.13102E-19-7.19131E-19
 -1      2235 1.58790E-04-2.37939E-05-5.70272E-05 2.52690E-06 2.85238E-18 5.59677E-19
 -1      2236 1.63721E-04-2.03988E-05-6.01456E-05-2.16943E-06 5.58279E-18-2.23998E-18
 -1      2237 1.60860E-04-1.44481E-05-6.16546E-05 1.10312E-06 4.18265E-18-1.56913E-19
 -1      2238 1.27342E-04-5.35199E-05-3.13609E-05 2.91135E-05-3.46691E-18-3.89212E-19
 -1      2239 1.59258E-04-2.66490E-05-5.57909E-05-2.98083E-06-3.11200E-18 2.05533E-18
 -1      2240 9.75129E-05-2.67813E-05-3.02880E-05 1.90769E-06 1.81037E-18 2.99604E-18
 -1      2241 9.81000E-05-2.62189E-05-3.07326E-05 3.89021E-06 1.97561E-18 3.38898E-18
 -1      2242 8.62376E-05-9.37014E-06-3.29836E-05-2.39797E-06 6.81713E-19-3.06269E-18
 -1      2243 8.67641E-05-9.80774E-06-3.30111E-05-3.28758E-06 3.39238E-19-3.23046E-18
 -1      2244 8.74793E-05-1.05540E-05-3.30162E-05-4.05759E-06 1.34279E-19-3.31639E-18
 -1      2245 8.82590E-05-1.12397E-05-3.30464E-05-5.05194E-06-1.82884E-19-3.33044E-18
 -1      2246 8.82488E-05-1.20264E-05-3.26619E-05-3.10792E-06 2.59093E-19-2.98347E-18
 -1      2247 8.53476E-05-8.52303E-06-3.29558E-05 5.37248E-07 1.58944E-18-2.56457E-18
 -1      2248 8.53618E-05-8.53497E-06-3.29553E-05-2.44491E-07 1.31685E-18-2.71793E-18
 -1      2249 8.57281E-05-8.84897E-06-3.29777E-05 1.96522E-06 1.97811E-18-2.26147E-18
 -1      2250 8.54754E-05-8.64564E-06-3.29607E-05 1.16810E-06 1.75182E-18-2.43290E-18
 -1      2251 8.63773E-05-1.01942E-05-3.26455E-05 7.61953E-07 1.60249E-18-2.32439E-18
 -1      2252 8.66551E-05-9.68783E-06-3.30171E-05 3.45895E-06 2.27998E-18-1.88798E-18
 -1      2253 8.61426E-05-9.26342E-06-3.29883E-05 2.61339E-06 2.09309E-18-2.13413E-18
 -1      2254 8.69394E-05-1.07239E-05-3.26583E-05 1.97065E-06 1.95104E-18-2.00544E-18
 -1      2255 8.81728E-05-1.11298E-05-3.30567E-05 5.13750E-06 2.64638E-18-1.13600E-18
 -1      2256 8.73732E-05-1.04296E-05-3.30245E-05 4.17851E-06 2.43641E-18-1.58121E-18
 -1      2257 8.81062E-05-1.18595E-05-3.26701E-05 3.25667E-06 2.27154E-18-1.53725E-18
 -1      2258 9.03114E-05-1.33014E-05-3.30604E-05 6.97597E-06 2.85898E-18-2.33172E-19
 -1      2259 8.92028E-05-1.22417E-05-3.30422E-05 5.91576E-06 2.72282E-18-7.19925E-19
 -1      2260 8.98929E-05-1.36786E-05-3.26522E-05 4.65103E-06 2.57772E-18-8.23028E-19
 -1      2261 9.31634E-05-1.64538E-05-3.29677E-05 8.78800E-06 2.95791E-18 9.55096E-19
 -1      2262 9.16827E-05-1.48662E-05-3.29880E-05 7.72343E-06 2.86387E-18 3.03416E-19
 -1      2263 9.22773E-05-1.62805E-05-3.25477E-05 6.03723E-06 2.66243E-18 1.24193E-19
 -1      2264 9.72792E-05-2.76066E-05-2.98279E-05-1.04547E-06 1.36774E-18 2.49537E-18
 -1      2265 9.73896E-05-2.72993E-05-2.99668E-05 1.87132E-07 1.53363E-18 2.84186E-18
 -1      2266 9.73116E-05-2.59824E-05-3.05846E-05 1.52238E-06 1.93492E-18 1.92122E-18
 -1      2267 9.75818E-05-2.53307E-05-3.09180E-05-3.92353E-06-1.39439E-18-1.76608E-18
 -1      2268 9.72267E-05-2.61077E-05-3.04828E-05-1.84153E-06-1.33643E-18-1.77231E-18
 -1      2269 1.48939E-04-4.91790E-05-4.29989E-05 8.39372E-06 3.95485E-18-3.86416E-18
 -1      2270 1.39527E-04-5.41635E-05-3.67194E-05 1.42327E-05 3.02179E-18-2.93349E-18
 -1      2271 9.72877E-05-2.67891E-05-3.01590E-05-2.53949E-07-1.32896E-18-1.47664E-18
 -1      2272 9.72034E-05-2.72293E-05-2.99785E-05 1.03308E-06-1.14374E-18-1.47185E-18
 -1      2273 9.69286E-05-2.53482E-05-3.06884E-05-1.41001E-06-1.27201E-18-1.83617E-18
 -1      2274 9.72633E-05-2.76011E-05-2.98170E-05 2.17181E-06-9.88592E-19-1.21045E-18
 -1      2275 9.74691E-05-2.79380E-05-2.97875E-05 3.02948E-06-8.15992E-19-1.40264E-18
 -1      2276 9.70742E-05-2.67073E-05-3.01759E-05 1.52703E-06-1.01039E-18-1.54095E-18
 -1      2277 9.76571E-05-2.82199E-05-2.97345E-05 3.84620E-06-7.02795E-19-1.33614E-18
 -1      2278 9.81104E-05-2.85567E-05-2.97993E-05 4.42640E-06-5.03894E-19-1.24223E-18
 -1      2279 9.73596E-05-2.75699E-05-2.99286E-05 3.64182E-06-8.15900E-19-1.19937E-18
 -1      2280 9.84610E-05-2.88505E-05-2.98166E-05 4.99527E-06-4.59127E-19-1.34790E-18
 -1      2281 9.91088E-05-2.92418E-05-2.99382E-05 5.35048E-06-4.25528E-19-1.36890E-18
 -1      2282 9.79314E-05-2.83055E-05-2.98569E-05 5.14633E-06-6.33845E-19-1.19856E-18
 -1      2283 9.96384E-05-2.96133E-05-2.99975E-05 5.68631E-06-5.38272E-19-1.38869E-18
 -1      2284 1.00431E-04-3.00954E-05-3.01469E-05 5.80355E-06-4.99737E-19-1.53836E-18
 -1      2285 9.88385E-05-2.91200E-05-2.98956E-05 6.14262E-06-5.84769E-19-1.22546E-18
 -1      2286 1.01157E-04-3.05961E-05-3.02268E-05 5.86661E-06-3.34565E-19-1.55426E-18
 -1      2287 1.02042E-04-3.11908E-05-3.03790E-05 5.68573E-06-4.30072E-19-1.63801E-18
 -1      2288 1.00117E-04-3.01642E-05-2.99965E-05 6.61262E-06-5.09448E-19-1.53403E-18
 -1      2289 1.02979E-04-3.18552E-05-3.04660E-05 5.38954E-06-6.15135E-19-1.32285E-18
 -1      2290 1.03888E-04-3.25539E-05-3.06003E-05 4.82219E-06-5.85270E-19-1.26608E-18
 -1      2291 1.01803E-04-3.15486E-05-3.01275E-05 6.43436E-06-4.17540E-19-1.27839E-18
 -1      2292 1.05028E-04-3.33720E-05-3.06917E-05 4.05044E-06-2.09545E-19-1.01053E-18
 -1      2293 1.05853E-04-3.41012E-05-3.07946E-05 3.01628E-06-5.70093E-20-7.36954E-19
 -1      2294 1.03910E-04-3.33076E-05-3.02777E-05 5.40365E-06-2.07457E-19-8.03210E-19
 -1      2295 1.07114E-04-3.49678E-05-3.09035E-05 1.66768E-06-6.40900E-20-5.30497E-19
 -1      2296 1.07691E-04-3.55431E-05-3.09746E-05 1.62487E-07-8.89616E-20-5.13330E-19
 -1      2297 1.06353E-04-3.53043E-05-3.04663E-05 3.29000E-06 3.03377E-20-3.55052E-19
 -1      2298 1.08852E-04-3.61969E-05-3.11328E-05-1.75069E-06-1.00838E-19-2.20473E-19
 -1      2299 1.08964E-04-3.63020E-05-3.11893E-05-3.55035E-06-2.31180E-20 3.41175E-20
 -1      2300 1.08833E-04-3.70916E-05-3.07512E-05-2.91460E-08 5.14457E-20 7.19405E-20
 -1      2301 1.09630E-04-3.63209E-05-3.14391E-05-5.73903E-06-4.02086E-19 5.36327E-20
 -1      2302 1.09079E-04-3.55931E-05-3.15109E-05-7.37197E-06-6.23049E-19-2.32105E-19
 -1      2303 1.10723E-04-3.78258E-05-3.12230E-05-4.30586E-06-3.11349E-19 1.17703E-19
 -1      2304 1.08809E-04-3.45650E-05-3.18763E-05-9.10775E-06-9.49152E-19-1.55306E-19
 -1      2305 1.07602E-04-3.28837E-05-3.19858E-05-9.83524E-06-1.07507E-18-3.86631E-19
 -1      2306 1.11142E-04-3.64598E-05-3.19619E-05-8.55653E-06-8.64855E-19 3.35418E-19
 -1      2307 1.06330E-04-3.08664E-05-3.24235E-05-1.00788E-05-1.20554E-18-5.51759E-19
 -1      2308 1.04857E-04-2.87121E-05-3.25537E-05-9.22470E-06-1.24213E-18-8.06223E-19
 -1      2309 1.09530E-04-3.25723E-05-3.29422E-05-1.09157E-05-1.33967E-18 2.49502E-19
 -1      2310 1.03249E-04-2.65530E-05-3.29290E-05-7.24269E-06-1.01705E-18-1.15480E-18
 -1      2311 1.02265E-04-2.50508E-05-3.30247E-05-4.72736E-06-7.91863E-19-1.06855E-18
 -1      2312 1.06455E-04-2.72539E-05-3.39434E-05-9.30214E-06-1.41897E-18-2.72683E-19
 -1      2313 1.01580E-04-2.41653E-05-3.31782E-05-1.10544E-06-7.71660E-19-1.35866E-18
 -1      2314 1.01653E-04-2.42250E-05-3.31886E-05 2.08527E-06-5.37423E-19-1.20232E-18
 -1      2315 1.04025E-04-2.34358E-05-3.45907E-05-3.37616E-06-9.78886E-19-9.74045E-19
 -1      2316 1.02485E-04-2.52502E-05-3.30365E-05 5.66197E-06-6.95745E-19-1.67994E-18
 -1      2317 1.03606E-04-2.68638E-05-3.29557E-05 8.07711E-06-4.77730E-19-2.16724E-18
 -1      2318 1.04177E-04-2.36027E-05-3.45912E-05 4.45679E-06-8.78631E-19-1.37608E-18
 -1      2319 1.05250E-04-2.90481E-05-3.25811E-05 9.90250E-06 9.49438E-20-2.43588E-18
 -1      2320 1.06799E-04-3.12052E-05-3.24718E-05 1.06548E-05-5.59505E-20-2.38438E-18
 -1      2321 1.06809E-04-2.76363E-05-3.39305E-05 1.01534E-05-5.18821E-19-1.90841E-18
 -1      2322 1.08048E-04-3.31766E-05-3.20553E-05 1.03049E-05-1.31091E-19-1.76456E-18
 -1      2323 1.09297E-04-3.48040E-05-3.19759E-05 9.51039E-06 2.25718E-19-1.93826E-18
 -1      2324 1.09891E-04-3.29201E-05-3.29477E-05 1.14503E-05 1.74647E-19-1.58433E-18
 -1      2325 1.09518E-04-3.57424E-05-3.16402E-05 7.75741E-06 7.66859E-19-1.76573E-18
 -1      2326 1.10107E-04-3.64154E-05-3.15984E-05 6.13347E-06 1.22246E-18-1.31019E-18
 -1      2327 1.11442E-04-3.66528E-05-3.20198E-05 8.96417E-06 7.65958E-19-1.19394E-18
 -1      2328 1.09429E-04-3.63382E-05-3.13763E-05 4.00618E-06 8.72497E-19-1.55802E-18
 -1      2329 1.09376E-04-3.62114E-05-3.13481E-05 2.26803E-06 3.72605E-19-1.37657E-18
 -1      2330 1.10967E-04-3.78209E-05-3.13400E-05 4.76834E-06 8.09569E-19-1.23906E-18
 -1      2331 1.08241E-04-3.55397E-05-3.12128E-05 4.49676E-07 3.80354E-19-1.33256E-18
 -1      2332 1.07746E-04-3.49772E-05-3.11686E-05-9.70517E-07 5.04092E-19-1.56813E-18
 -1      2333 1.09099E-04-3.69812E-05-3.09181E-05 6.58097E-07 3.47006E-19-8.43078E-19
 -1      2334 1.06534E-04-3.41244E-05-3.10764E-05-2.22289E-06 9.16926E-19-1.70740E-18
 -1      2335 1.05809E-04-3.34350E-05-3.09990E-05-3.17439E-06 1.81835E-18-1.27799E-18
 -1      2336 1.06701E-04-3.51795E-05-3.06696E-05-2.46365E-06 8.76658E-19-6.08832E-19
 -1      2337 1.04723E-04-3.26507E-05-3.09165E-05-3.87204E-06 1.92595E-18-1.77372E-18
 -1      2338 1.03922E-04-3.20110E-05-3.08040E-05-4.37965E-06 1.34350E-18-7.10981E-19
 -1      2339 1.04366E-04-3.32377E-05-3.05010E-05-4.40653E-06 1.64546E-18-6.94345E-19
 -1      2340 1.03028E-04-3.13937E-05-3.07147E-05-4.64341E-06 9.17555E-19-8.20657E-19
 -1      2341 1.02241E-04-3.08727E-05-3.05760E-05-4.80704E-06 7.14229E-19 6.14124E-19
 -1      2342 1.02364E-04-3.15816E-05-3.03492E-05-5.33733E-06 1.26908E-18-1.00318E-18
 -1      2343 1.01533E-04-3.04311E-05-3.04762E-05-4.77558E-06-1.80983E-19 1.68331E-19
 -1      2344 1.00809E-04-3.00372E-05-3.03241E-05-4.70787E-06-6.59253E-20 3.32264E-20
 -1      2345 1.00748E-04-3.03403E-05-3.01852E-05-5.53082E-06 9.64485E-20-6.17557E-19
 -1      2346 1.00256E-04-2.97419E-05-3.02174E-05-4.49949E-06 1.30584E-19-5.28027E-20
 -1      2347 9.96167E-05-2.94575E-05-3.00641E-05-4.29683E-06 9.44673E-20-2.40921E-19
 -1      2348 9.94792E-05-2.94884E-05-3.00038E-05-5.24960E-06-3.96088E-20-4.45476E-19
 -1      2349 9.91857E-05-2.92706E-05-2.99564E-05-3.99946E-06-2.58856E-19-2.00807E-19
 -1      2350 9.86376E-05-2.90716E-05-2.98116E-05-3.73325E-06-3.74371E-19-5.92806E-19
 -1      2351 9.84908E-05-2.89437E-05-2.98118E-05-4.70210E-06-3.47124E-19-9.35409E-19
 -1      2352 9.83004E-05-2.89595E-05-2.97085E-05-3.40648E-06-1.88548E-19-4.64420E-19
 -1      2353 9.78424E-05-2.88235E-05-2.95780E-05-3.12446E-06 2.55895E-19 1.72457E-20
 -1      2354 9.77206E-05-2.86192E-05-2.96198E-05-4.03719E-06-1.87334E-19-2.54289E-19
 -1      2355 9.75779E-05-2.87604E-05-2.94837E-05-2.80538E-06 2.74574E-19-1.09892E-19
 -1      2356 9.72034E-05-2.86696E-05-2.93707E-05-2.53643E-06 3.79026E-19 1.92650E-19
 -1      2357 9.71192E-05-2.84421E-05-2.94372E-05-3.35272E-06 2.60758E-20 3.18588E-19
 -1      2358 9.69962E-05-2.86374E-05-2.92876E-05-2.24583E-06 3.07384E-19-5.64769E-19
 -1      2359 9.66963E-05-2.85783E-05-2.91928E-05-2.00534E-06 2.50739E-19-1.47326E-18
 -1      2360 9.66495E-05-2.83590E-05-2.92710E-05-2.70757E-06 8.05717E-20-2.61395E-20
 -1      2361 9.65347E-05-2.85650E-05-2.91218E-05-1.75295E-06 6.57464E-20-1.07949E-18
 -1      2362 9.62991E-05-2.85278E-05-2.90444E-05-1.54732E-06-8.93102E-19-8.99256E-19
 -1      2363 9.62835E-05-2.83325E-05-2.91250E-05-2.13295E-06-1.04495E-19-7.80166E-19
 -1      2364 9.61741E-05-2.85254E-05-2.89854E-05-1.33576E-06-8.33858E-19-2.96438E-19
 -1      2365 9.59928E-05-2.85031E-05-2.89237E-05-1.16582E-06-2.76787E-20 6.03137E-20
 -1      2366 9.60003E-05-2.83382E-05-2.90008E-05-1.64153E-06-2.21236E-19 2.10437E-19
 -1      2367 9.58972E-05-2.85066E-05-2.88759E-05-9.93473E-07-3.81179E-19 9.33128E-19
 -1      2368 9.57605E-05-2.84945E-05-2.88279E-05-8.56869E-07-3.17544E-19 1.24662E-18
 -1      2369 9.57832E-05-2.83605E-05-2.88978E-05-1.23436E-06 2.79760E-19 1.40534E-18
 -1      2370 9.56884E-05-2.85009E-05-2.87900E-05-7.19863E-07-5.81974E-19 1.44331E-18
 -1      2371 9.55876E-05-2.84953E-05-2.87535E-05-6.12668E-07-3.21455E-19 1.47613E-18
 -1      2372 9.56188E-05-2.83898E-05-2.88145E-05-9.05767E-07-5.13621E-19 1.53852E-18
 -1      2373 9.55341E-05-2.85027E-05-2.87241E-05-5.06129E-07-2.28648E-19 7.85481E-19
 -1      2374 9.54617E-05-2.85014E-05-2.86970E-05-4.23848E-07-1.26453E-19 8.25927E-19
 -1      2375 9.54963E-05-2.84204E-05-2.87485E-05-6.46626E-07-7.42209E-19 1.24388E-18
 -1      2376 9.54229E-05-2.85088E-05-2.86746E-05-3.42714E-07 5.19891E-19 3.31195E-19
 -1      2377 9.53724E-05-2.85101E-05-2.86550E-05-2.80890E-07-3.80799E-19 6.74506E-19
 -1      2378 9.54067E-05-2.84494E-05-2.86974E-05-4.46564E-07-6.56820E-20 8.26360E-19
 -1      2379 9.53449E-05-2.85169E-05-2.86384E-05-2.20378E-07-8.95957E-19 9.42794E-19
 -1      2380 9.53111E-05-2.85197E-05-2.86246E-05-1.74930E-07-7.33134E-19 1.44470E-18
 -1      2381 9.53427E-05-2.84752E-05-2.86586E-05-2.95262E-07-3.45035E-19 6.25048E-19
 -1      2382 9.52922E-05-2.85258E-05-2.86126E-05-1.30786E-07-1.23749E-18 2.36646E-18
 -1      2383 9.52708E-05-2.85293E-05-2.86033E-05-9.81752E-08 1.78212E-19 2.30232E-18
 -1      2384 9.52983E-05-2.84973E-05-2.86298E-05-1.83226E-07-4.93268E-19 1.59027E-18
 -1      2385 9.52584E-05-2.85345E-05-2.85949E-05-6.67825E-08 1.33465E-18 2.00692E-18
 -1      2386 9.52461E-05-2.85384E-05-2.85889E-05-4.40704E-08 1.62847E-18 1.72960E-18
 -1      2387 9.52686E-05-2.85158E-05-2.86090E-05-1.02168E-07 2.18490E-19 2.86840E-18
 -1      2388 9.52385E-05-2.85428E-05-2.85831E-05-2.24795E-08 1.07147E-18 7.53054E-19
 -1      2389 9.52325E-05-2.85468E-05-2.85795E-05-7.33003E-09 5.38286E-19-1.05283E-19
 -1      2390 9.52499E-05-2.85311E-05-2.85943E-05-4.51542E-08 5.40462E-19 1.58040E-18
 -1      2391 9.52284E-05-2.85507E-05-2.85756E-05 6.76239E-09-1.29372E-19-7.41671E-19
 -1      2392 9.52267E-05-2.85546E-05-2.85737E-05 1.61104E-08-1.01611E-19-7.21117E-19
 -1      2393 9.52392E-05-2.85437E-05-2.85841E-05-6.62265E-09-3.28436E-19 9.20741E-19
 -1      2394 9.52250E-05-2.85581E-05-2.85712E-05 2.44202E-08 9.61697E-19-9.44078E-19
 -1      2395 9.52262E-05-2.85621E-05-2.85703E-05 2.91875E-08 6.72295E-19-8.26991E-19
 -1      2396 9.52341E-05-2.85544E-05-2.85773E-05 1.77028E-08 1.26553E-19 6.31160E-19
 -1      2397 9.52262E-05-2.85656E-05-2.85686E-05 3.29160E-08 2.36152E-19 9.21606E-19
 -1      2398 9.52289E-05-2.85695E-05-2.85683E-05 3.37770E-08 4.39868E-19 1.50876E-18
 -1      2399 9.52330E-05-2.85640E-05-2.85726E-05 3.09166E-08 1.33902E-18 2.72180E-19
 -1      2400 9.84948E-05-2.86051E-05-2.99277E-05-4.73756E-06 5.06466E-19 1.79261E-18
 -1      2401 9.78238E-05-2.83107E-05-2.97644E-05-4.05600E-06 5.51877E-19 1.97321E-18
 -1      2402 9.98687E-05-2.91660E-05-3.02799E-05-6.05401E-06 3.80313E-19 1.81558E-18
 -1      2403 9.89177E-05-2.88042E-05-3.00323E-05-5.49147E-06 4.41031E-19 1.76736E-18
 -1      2404 9.82163E-05-2.81666E-05-3.00398E-05-5.78147E-06 5.84438E-19 1.17308E-18
 -1      2405 1.01677E-04-2.98952E-05-3.07488E-05-7.11625E-06 6.38729E-19 1.62426E-18
 -1      2406 1.00493E-04-2.94306E-05-3.04446E-05-6.67621E-06 4.46098E-19 1.73869E-18
 -1      2407 9.92820E-05-2.87172E-05-3.02590E-05-7.28750E-06 5.24218E-19 9.81318E-19
 -1      2408 1.03886E-04-3.08932E-05-3.12791E-05-7.82516E-06 6.59756E-19 1.75103E-18
 -1      2409 1.02512E-04-3.02830E-05-3.09469E-05-7.57920E-06 7.45715E-19 1.85639E-18
 -1      2410 1.00758E-04-2.94787E-05-3.05654E-05-8.48579E-06 6.50684E-19 9.33709E-19
 -1      2411 1.06471E-04-3.22795E-05-3.18118E-05-7.93318E-06 3.38234E-19 1.81231E-18
 -1      2412 1.04968E-04-3.14788E-05-3.14859E-05-8.02639E-06 6.17884E-19 1.86018E-18
 -1      2413 1.02700E-04-3.06285E-05-3.09081E-05-9.24907E-06 6.04320E-19 1.15684E-18
 -1      2414 1.09393E-04-3.41542E-05-3.22872E-05-7.03884E-06 2.15643E-19 1.87927E-18
 -1      2415 1.07860E-04-3.31465E-05-3.20069E-05-7.68396E-06 1.91261E-19 1.80583E-18
 -1      2416 1.05214E-04-3.23719E-05-3.12452E-05-9.28657E-06 2.98282E-19 1.39443E-18
 -1      2417 1.12519E-04-3.64721E-05-3.26641E-05-4.64442E-06-4.18950E-20 1.74654E-18
 -1      2418 1.11140E-04-3.53454E-05-3.24647E-05-6.06866E-06 1.69311E-19 1.95601E-18
 -1      2419 1.08425E-04-3.48690E-05-3.15599E-05-8.13362E-06 1.08428E-19 1.35764E-18
 -1      2420 1.15474E-04-3.87906E-05-3.29584E-05-3.76273E-07 1.30331E-19 1.97641E-18
 -1      2421 1.14564E-04-3.78668E-05-3.28509E-05-2.66994E-06 3.64952E-21 1.95427E-18
 -1      2422 1.12341E-04-3.80169E-05-3.18925E-05-5.21217E-06-3.46903E-20 1.37315E-18
 -1      2423 1.17449E-04-3.99818E-05-3.32844E-05 5.50153E-06-9.81274E-19 2.56484E-18
 -1      2424 1.17456E-04-3.99115E-05-3.32316E-05 2.66942E-06-3.14001E-19 2.45017E-18
 -1      2425 1.16543E-04-4.10458E-05-3.23815E-05-9.29462E-08-5.50499E-19 2.28509E-18
 -1      2426 1.17270E-04-3.83902E-05-3.38359E-05 1.13220E-05-4.81996E-19 2.99608E-18
 -1      2427 1.18572E-04-3.99246E-05-3.37581E-05 8.99949E-06-9.74538E-19 2.70476E-18
 -1      2428 1.19812E-04-4.21735E-05-3.32677E-05 6.81008E-06-9.57990E-19 2.37509E-18
 -1      2429 1.14289E-04-3.31560E-05-3.47217E-05 1.37022E-05 6.21841E-19 2.51168E-18
 -1      2430 1.16638E-04-3.62893E-05-3.45638E-05 1.35424E-05 1.03533E-19 2.78659E-18
 -1      2431 1.20304E-04-3.91740E-05-3.47594E-05 1.32444E-05-1.35525E-20 2.43175E-18
 -1      2432 1.10044E-04-2.66976E-05-3.56752E-05 9.33653E-06 2.10414E-18 2.24022E-18
 -1      2433 1.12140E-04-2.97341E-05-3.55101E-05 1.22631E-05 1.35703E-18 2.44532E-18
 -1      2434 1.17043E-04-3.15128E-05-3.66869E-05 1.48365E-05 1.32508E-18 1.57098E-18
 -1      2435 1.08111E-04-2.38567E-05-3.61950E-05-6.73713E-07 2.34054E-18 2.05218E-18
 -1      2436 1.08559E-04-2.45100E-05-3.61215E-05 4.11876E-06 2.50494E-18 2.36040E-18
 -1      2437 1.13186E-04-2.42085E-05-3.82425E-05 7.79101E-06 2.20499E-18 2.03902E-18
 -1      2438 1.10805E-04-2.76513E-05-3.58500E-05-1.07673E-05 1.15419E-18 1.27373E-18
 -1      2439 1.08880E-04-2.50670E-05-3.59920E-05-7.08366E-06 1.98486E-18 1.78354E-18
 -1      2440 1.11963E-04-2.26282E-05-3.83679E-05-4.45918E-06 2.09045E-18 1.80112E-18
 -1      2441 1.15666E-04-3.43778E-05-3.49816E-05-1.44472E-05 4.35282E-19 1.63623E-19
 -1      2442 1.13109E-04-3.09938E-05-3.51306E-05-1.36090E-05 7.97124E-19 7.89785E-19
 -1      2443 1.15884E-04-2.88411E-05-3.73231E-05-1.40771E-05 1.60460E-18 6.79842E-19
 -1      2444 1.18823E-04-3.93027E-05-3.41399E-05-1.14237E-05 4.52732E-20-6.49423E-19
 -1      2445 1.16978E-04-3.71649E-05-3.42124E-05-1.32022E-05 6.53175E-20-1.89603E-19
 -1      2446 1.19919E-04-3.71683E-05-3.54615E-05-1.51080E-05 7.86351E-19 3.89695E-19
 -1      2447 1.18718E-04-4.03354E-05-3.35891E-05-5.35369E-06 6.53790E-19-1.30431E-18
 -1      2448 1.18197E-04-3.99528E-05-3.36063E-05-8.06186E-06 3.03026E-19-1.23976E-18
 -1      2449 1.20764E-04-4.18558E-05-3.38186E-05-9.75330E-06 5.35154E-19-1.19618E-18
 -1      2450 1.16443E-04-3.88155E-05-3.32412E-05 3.97601E-07-5.93955E-19-2.18647E-19
 -1      2451 1.16969E-04-3.95045E-05-3.32888E-05-2.02708E-06 4.74722E-19-3.50531E-19
 -1      2452 1.18288E-04-4.17858E-05-3.27979E-05-2.76362E-06 5.22977E-20-1.90270E-18
 -1      2453 1.13290E-04-3.63899E-05-3.29328E-05 4.36992E-06-1.95769E-18-3.49368E-19
 -1      2454 1.14416E-04-3.74452E-05-3.30639E-05 2.74773E-06-1.02898E-18 1.02814E-19
 -1      2455 1.14367E-04-3.91867E-05-3.22582E-05 2.96073E-06-8.55212E-19-6.15786E-19
 -1      2456 1.10128E-04-3.41079E-05-3.25643E-05 6.44037E-06-1.71651E-18-2.87035E-19
 -1      2457 1.11491E-04-3.51128E-05-3.27826E-05 5.62647E-06-2.17735E-18-2.25164E-19
 -1      2458 1.10421E-04-3.59848E-05-3.19415E-05 6.47906E-06-1.73425E-18-1.04898E-19
 -1      2459 1.07312E-04-3.23452E-05-3.21198E-05 7.07351E-06-6.78459E-19-1.42027E-20
 -1      2460 1.08692E-04-3.31507E-05-3.23971E-05 6.85924E-06-1.45621E-18-3.13903E-19
 -1      2461 1.07108E-04-3.32839E-05-3.16687E-05 8.05472E-06-1.62116E-18-1.27680E-18
 -1      2462 1.04914E-04-3.11032E-05-3.16285E-05 6.81224E-06 7.37705E-19 6.26282E-19
 -1      2463 1.06198E-04-3.17026E-05-3.19294E-05 6.96630E-06 1.94602E-19-4.58903E-20
 -1      2464 1.04512E-04-3.13711E-05-3.13656E-05 8.28938E-06-4.69556E-19-1.20461E-18
 -1      2465 1.02909E-04-3.02632E-05-3.11307E-05 6.08408E-06 1.08470E-18 1.13821E-18
 -1      2466 1.04043E-04-3.06961E-05-3.14257E-05 6.42504E-06 1.12868E-18 1.28126E-18
 -1      2467 1.02504E-04-3.01426E-05-3.10244E-05 7.73615E-06 6.72412E-19-4.34576E-19
 -1      2468 1.01247E-04-2.97014E-05-3.06599E-05 5.17344E-06 1.19434E-18 1.57376E-18
 -1      2469 1.02216E-04-3.00117E-05-3.09299E-05 5.58163E-06 9.59885E-19 1.55000E-18
 -1      2470 1.00933E-04-2.94005E-05-3.06652E-05 6.79694E-06 7.82352E-19 3.45100E-19
 -1      2471 9.98829E-05-2.93236E-05-3.02374E-05 4.24826E-06 1.11488E-18 2.02890E-18
 -1      2472 1.00689E-04-2.95464E-05-3.04727E-05 4.65423E-06 1.59464E-18 1.83065E-18
 -1      2473 9.96844E-05-2.89699E-05-3.03127E-05 5.72979E-06 8.68002E-19 1.50854E-18
 -1      2474 9.87758E-05-2.90664E-05-2.98732E-05 3.39644E-06-1.11338E-19 1.54661E-18
 -1      2475 9.94306E-05-2.92268E-05-3.00708E-05 3.76498E-06 5.00826E-19 1.67366E-18
 -1      2476 9.86817E-05-2.87274E-05-2.99860E-05 4.68423E-06 1.20045E-18 1.69115E-18
 -1      2477 9.78888E-05-2.88895E-05-2.95690E-05 2.65606E-06 2.28034E-19 7.50867E-19
 -1      2478 9.84104E-05-2.90049E-05-2.97303E-05 2.97293E-06-3.33083E-19 1.35216E-18
 -1      2479 9.78748E-05-2.85947E-05-2.96965E-05 3.73706E-06-1.20322E-20 6.05987E-19
 -1      2480 9.71883E-05-2.87671E-05-2.93213E-05 2.03661E-06 3.57794E-19 1.64402E-18
 -1      2481 9.75962E-05-2.88497E-05-2.94499E-05 2.29936E-06 8.43966E-19 1.31805E-18
 -1      2482 9.72284E-05-2.85250E-05-2.94489E-05 2.91993E-06-4.61671E-19-4.54479E-19
 -1      2483 9.66436E-05-2.86829E-05-2.91242E-05 1.53248E-06-1.64529E-19 1.92019E-18
 -1      2484 9.69569E-05-2.87413E-05-2.92246E-05 1.74464E-06-2.24584E-19 2.21294E-18
 -1      2485 9.67155E-05-2.84914E-05-2.92431E-05 2.23849E-06-5.18626E-20 1.60337E-18
 -1      2486 9.62269E-05-2.86257E-05-2.89703E-05 1.13105E-06 5.83642E-19 2.25226E-18
 -1      2487 9.64632E-05-2.86662E-05-2.90472E-05 1.29879E-06 3.59563E-20 2.67609E-18
 -1      2488 9.63138E-05-2.84784E-05-2.90760E-05 1.68453E-06-3.22313E-20 2.99063E-18
 -1      2489 9.59137E-05-2.85880E-05-2.88525E-05 8.17276E-07 1.18566E-18 3.93675E-18
 -1      2490 9.60886E-05-2.86153E-05-2.89103E-05 9.47514E-07 1.43061E-18 3.47171E-18
 -1      2491 9.60039E-05-2.84770E-05-2.89432E-05 1.24345E-06 4.66177E-19 3.03623E-18
 -1      2492 9.56828E-05-2.85643E-05-2.87639E-05 5.76113E-07 3.50572E-19 3.04579E-18
 -1      2493 9.58095E-05-2.85820E-05-2.88065E-05 6.75560E-07 1.18554E-18 4.03308E-18
 -1      2494 9.57688E-05-2.84823E-05-2.88397E-05 8.98519E-07 1.31529E-18 3.67106E-18
 -1      2495 9.55164E-05-2.85505E-05-2.86987E-05 3.93758E-07 2.63483E-19 6.28717E-19
 -1      2496 9.56059E-05-2.85612E-05-2.87294E-05 4.68464E-07 4.82253E-19 1.93548E-18
 -1      2497 9.55938E-05-2.84909E-05-2.87605E-05 6.33247E-07 1.85251E-18 2.58264E-18
 -1      2498 9.53997E-05-2.85437E-05-2.86518E-05 2.58137E-07-1.41954E-18 3.38651E-19
 -1      2499 9.54610E-05-2.85495E-05-2.86733E-05 3.13322E-07-5.69576E-19-2.53547E-19
 -1      2500 9.54664E-05-2.85011E-05-2.87011E-05 4.32526E-07 1.29835E-19 7.05617E-19
 -1      2501 9.53206E-05-2.85416E-05-2.86189E-05 1.59044E-07-1.69038E-18 1.00750E-19
 -1      2502 9.53608E-05-2.85440E-05-2.86335E-05 1.99072E-07-1.85804E-18 1.17392E-21
 -1      2503 9.53760E-05-2.85117E-05-2.86575E-05 2.83158E-07-1.76588E-18 3.27099E-19
 -1      2504 9.52695E-05-2.85427E-05-2.85967E-05 8.80761E-08-1.53946E-18 6.95895E-19
 -1      2505 9.52943E-05-2.85428E-05-2.86062E-05 1.16506E-07-1.60091E-18-2.56265E-19
 -1      2506 9.53138E-05-2.85220E-05-2.86261E-05 1.73978E-07-2.20168E-18-3.74211E-19
 -1      2507 9.52389E-05-2.85458E-05-2.85824E-05 3.84874E-08 6.26911E-19-9.51758E-19
 -1      2508 9.52526E-05-2.85444E-05-2.85881E-05 5.81478E-08-2.76063E-19-1.41432E-19
 -1      2509 9.52729E-05-2.85316E-05-2.86042E-05 9.57930E-08-3.96711E-19-7.31775E-19
 -1      2510 9.52229E-05-2.85501E-05-2.85738E-05 5.01287E-09 2.35298E-18-7.12578E-19
 -1      2511 9.52288E-05-2.85478E-05-2.85768E-05 1.80842E-08 1.63583E-18-1.99170E-19
 -1      2512 9.52476E-05-2.85404E-05-2.85894E-05 4.12301E-08 9.69141E-19-2.21488E-18
 -1      2513 9.52168E-05-2.85552E-05-2.85691E-05-1.63143E-08 2.62091E-18 4.16800E-19
 -1      2514 9.52176E-05-2.85523E-05-2.85704E-05-8.22058E-09 2.52098E-18 6.31355E-20
 -1      2515 9.52336E-05-2.85484E-05-2.85798E-05 4.54553E-09 1.83555E-18-1.92306E-18
 -1      2516 9.52173E-05-2.85608E-05-2.85670E-05-2.83057E-08 2.15257E-18 6.18761E-19
 -1      2517 9.52149E-05-2.85575E-05-2.85672E-05-2.40976E-08 1.99976E-18 1.30910E-18
 -1      2518 9.52274E-05-2.85559E-05-2.85738E-05-1.85878E-08 1.73773E-18 1.57504E-18
 -1      2519 9.52219E-05-2.85669E-05-2.85664E-05-3.27782E-08 9.01414E-19 5.10365E-19
 -1      2520 9.52176E-05-2.85633E-05-2.85660E-05-3.18497E-08 2.31428E-18 1.02302E-18
 -1      2521 9.52265E-05-2.85631E-05-2.85702E-05-3.12384E-08 1.84991E-18-3.34338E-20
 -1      2522 9.52284E-05-2.85734E-05-2.85665E-05-3.06470E-08-1.45817E-18-3.56328E-19
 -1      2523 9.52236E-05-2.85697E-05-2.85659E-05-3.26137E-08-4.25865E-20 6.48130E-19
 -1      2524 9.52293E-05-2.85707E-05-2.85681E-05-3.55519E-08 6.76564E-19-5.76279E-19
 -1      2525 9.52311E-05-2.85767E-05-2.85661E-05-2.70071E-08-1.87649E-18-5.02453E-19
 -1      2526 9.52507E-05-2.85925E-05-2.85678E-05-1.92679E-08 9.96384E-20 1.31469E-18
 -1      2527 9.52498E-05-2.85907E-05-2.85681E-05-2.26671E-08-5.24427E-19-5.11596E-19
 -1      2528 9.52510E-05-2.85929E-05-2.85678E-05-1.19107E-08 7.41897E-19 1.63724E-18
 -1      2529 9.52506E-05-2.85918E-05-2.85680E-05-1.54696E-08 1.21913E-19 2.58472E-18
 -1      2530 9.52493E-05-2.85802E-05-2.85724E-05-1.77082E-08 8.21174E-19 1.69908E-18
 -1      2531 9.52455E-05-2.85878E-05-2.85675E-05-3.15386E-08-9.72121E-19 7.81896E-19
 -1      2532 9.52421E-05-2.85841E-05-2.85678E-05-3.26775E-08-1.36374E-18 1.21584E-18
 -1      2533 9.52492E-05-2.85910E-05-2.85678E-05-2.62325E-08-1.35604E-18-7.01266E-19
 -1      2534 9.52473E-05-2.85884E-05-2.85680E-05-2.88687E-08-1.25918E-18 3.98116E-22
 -1      2535 9.52455E-05-2.85810E-05-2.85705E-05-3.16578E-08-9.79588E-19-5.70604E-19
 -1      2536 9.52486E-05-2.85813E-05-2.85717E-05-2.52552E-08 1.86148E-19-2.35849E-19
 -1      2537 9.52507E-05-2.85927E-05-2.85677E-05-4.77125E-09-6.08220E-19-1.17151E-18
 -1      2538 9.52507E-05-2.85922E-05-2.85678E-05-8.25773E-09 3.88797E-19-1.79568E-18
 -1      2539 9.52490E-05-2.85788E-05-2.85729E-05-1.01485E-08 3.10439E-19-7.07054E-19
 -1      2540 9.52505E-05-2.85923E-05-2.85678E-05 2.10618E-09-1.49481E-18 1.16033E-18
 -1      2541 9.52505E-05-2.85924E-05-2.85677E-05-1.30489E-09-1.61543E-18 4.86197E-20
 -1      2542 9.52484E-05-2.85778E-05-2.85731E-05-2.99805E-09-2.59089E-19-1.52475E-18
 -1      2543 9.52504E-05-2.85919E-05-2.85679E-05 8.95403E-09-1.39260E-18 1.00384E-18
 -1      2544 9.52506E-05-2.85925E-05-2.85677E-05 5.53097E-09-2.10835E-18 2.28823E-18
 -1      2545 9.52483E-05-2.85777E-05-2.85731E-05 3.89044E-09-9.12575E-19 8.90802E-19
 -1      2546 9.52503E-05-2.85914E-05-2.85680E-05 1.58317E-08-7.87537E-19-4.36729E-19
 -1      2547 9.52506E-05-2.85925E-05-2.85678E-05 1.24442E-08-6.32268E-19-2.70988E-20
 -1      2548 9.52486E-05-2.85785E-05-2.85729E-05 1.08183E-08-5.76232E-19 9.61870E-19
 -1      2549 9.52494E-05-2.85902E-05-2.85681E-05 2.27570E-08-6.01976E-19 1.54879E-19
 -1      2550 9.52503E-05-2.85920E-05-2.85678E-05 1.94908E-08-6.38495E-19-9.13675E-20
 -1      2551 9.52489E-05-2.85797E-05-2.85725E-05 1.80562E-08-3.68356E-19-1.07843E-18
 -1      2552 9.52469E-05-2.85879E-05-2.85681E-05 2.87349E-08 6.52252E-19-4.86034E-19
 -1      2553 9.52488E-05-2.85905E-05-2.85678E-05 2.61626E-08-4.14333E-19 1.03570E-18
 -1      2554 9.52480E-05-2.85806E-05-2.85717E-05 2.53650E-08-6.17161E-19 1.06040E-18
 -1      2555 9.52419E-05-2.85837E-05-2.85678E-05 3.21527E-08 5.66086E-19 1.99685E-19
 -1      2556 9.52450E-05-2.85872E-05-2.85676E-05 3.12259E-08 8.16986E-19-1.07875E-18
 -1      2557 9.52452E-05-2.85804E-05-2.85706E-05 3.13678E-08 1.15395E-18-8.66792E-19
 -1      2558 2.50543E-05-1.81075E-05-2.53263E-06 1.57646E-05-1.24609E-18 3.44467E-18
 -1      2559 2.00186E-05-1.74040E-05-7.31953E-07 2.98962E-06-8.38973E-19 3.07981E-18
 -1      2560 9.84565E-05-5.34442E-05-1.91995E-05 3.94754E-05-9.26866E-19 8.73913E-19
 -1      2561 8.13468E-05-4.74626E-05-1.42855E-05 4.03375E-05-1.62524E-18 1.80534E-18
 -1      2562 9.76098E-05-2.81247E-05-2.97509E-05-3.12961E-06 7.93425E-19 2.11880E-18
 -1      2563 9.72834E-05-2.78592E-05-2.97078E-05-2.26009E-06 1.09156E-18 2.33314E-18
 -1      2564 9.75489E-05-2.76744E-05-2.99662E-05-3.94819E-06 8.96809E-19 1.30694E-18
 -1      2565 1.52797E-04-3.23914E-05-5.21012E-05-5.41781E-06 4.89500E-18-2.89833E-18
 -1      2566 1.51513E-04-4.06498E-05-4.75936E-05-2.85870E-08 4.36275E-18-3.02560E-18
 -1      2567 1.47281E-04-4.63676E-05-4.32401E-05-2.90466E-06 3.38114E-18-3.53340E-18
 -1      2568 9.52358E-05-2.85811E-05-2.85663E-05 2.99325E-08 9.73470E-19 1.22008E-18
 -1      2569 1.01302E-04-5.36975E-05-2.03610E-05-3.77822E-05 2.22537E-18 1.38432E-18
 -1      2570 1.16675E-04-5.58072E-05-2.62118E-05-3.36101E-05 1.52529E-18 1.63255E-18
 -1      2571 2.99045E-05-2.45142E-05-2.10061E-06-2.50476E-05-1.20385E-18-4.37133E-18
 -1      2572 4.33864E-05-3.18069E-05-4.83156E-06-3.57141E-05-1.41984E-18-3.92812E-18
 -1      2573 8.55231E-05-8.70012E-06-3.29589E-05-8.88331E-07 1.15642E-18-2.86494E-18
 -1      2574 8.57969E-05-8.92128E-06-3.29746E-05-1.70293E-06 9.11726E-19-3.02201E-18
 -1      2575 8.70476E-05-1.08466E-05-3.26540E-05-1.71913E-06 7.82777E-19-2.80954E-18
 -1      2576 8.64168E-05-1.02382E-05-3.26442E-05-4.46571E-07 1.19447E-18-2.65107E-18
 -1      2577 1.42134E-04-1.18580E-05-5.64683E-05 2.27086E-06 3.02941E-18 1.56050E-18
 -1      2578 1.46461E-04-1.30381E-05-5.76847E-05-2.51319E-06 4.13987E-18 1.04662E-18
 -1      2579 1.34759E-04-5.57610E-05-3.41670E-05 2.11859E-05-2.45978E-18 1.44271E-18
 -1      2580 1.23196E-04-5.72258E-05-2.81677E-05 2.76000E-05-1.46240E-18 8.91502E-19
 -1      2581 1.47963E-04-1.58432E-05-5.70450E-05-5.29010E-06 4.94371E-18-2.24093E-19
 -1      2582 1.47501E-04-2.12560E-05-5.45095E-05-7.91137E-06 5.03858E-18-1.08124E-18
 -1      2583 1.34323E-04-1.21205E-05-5.24145E-05-5.65259E-06 3.59015E-18 1.59075E-18
 -1      2584 1.46524E-04-2.79983E-05-5.11804E-05 8.82351E-06 2.19657E-18 1.80905E-18
 -1      2585 1.43951E-04-1.90831E-05-5.42138E-05 8.30530E-06 2.75519E-18 2.13611E-18
 -1      2586 1.46964E-04-4.66988E-05-4.31286E-05 7.29930E-08-3.87518E-20 7.34801E-20
 -1      2587 1.50084E-04-3.88621E-05-4.82563E-05 4.32055E-06 1.07436E-18 6.62592E-19
 -1      2588 1.31624E-04-5.87147E-05-3.11583E-05-2.11323E-05-1.53969E-18-9.06325E-19
 -1      2589 1.42437E-04-5.57958E-05-3.76416E-05-1.20847E-05-1.16996E-18-5.93135E-19
 -1      2590 9.74585E-05-5.41083E-05-1.84119E-05-3.83445E-05-1.46473E-18-1.25149E-18
 -1      2591 1.16241E-04-5.80406E-05-2.52564E-05-3.39651E-05-1.26610E-18-7.08861E-19
 -1      2592 5.76215E-05-3.93346E-05-7.73010E-06-3.93355E-05-1.77072E-18-2.90045E-18
 -1      2593 7.45005E-05-4.54001E-05-1.26119E-05-4.31045E-05-1.43953E-18-1.77665E-18
 -1      2594 5.65671E-05-3.40384E-05-9.20079E-06-3.73758E-05-1.98756E-18-2.83205E-18
 -1      2595 2.01359E-05-1.67913E-05-1.02313E-06 1.06412E-06-4.18606E-19-4.89162E-18
 -1      2596 2.21156E-05-1.87207E-05-1.08498E-06-1.24965E-05-3.70365E-19-4.83021E-18
 -1      2597 6.71478E-05-4.14555E-05-1.09773E-05 4.40651E-05 8.80914E-20-3.45484E-18
 -1      2598 5.21718E-05-3.54268E-05-6.83407E-06 3.88410E-05 1.35525E-20-3.80254E-18
 -1      2599 1.48702E-04-3.01517E-05-5.10776E-05 2.44040E-06-1.99265E-18 5.52689E-19
 -1      2600 1.48862E-04-2.30460E-05-5.43893E-05 4.66623E-06-2.74968E-18 8.51268E-20
 -1      2601 1.06450E-04-5.51237E-05-2.21907E-05 3.87179E-05-7.31201E-19-3.06361E-19
 -1      2602 8.64921E-05-4.99176E-05-1.55082E-05 4.16514E-05-5.90805E-20-2.16494E-18
 -1      2603 1.46331E-04-4.27081E-05-4.48939E-05 2.92147E-06-3.89048E-18 1.68200E-18
 -1      2604 1.41268E-04-4.98307E-05-3.93210E-05 9.79671E-06-3.12793E-18 1.51746E-18
 -1      2605 1.47099E-04-1.11200E-05-5.85572E-05-1.06769E-06-5.73102E-18 1.25483E-18
 -1      2606 1.45813E-04-1.32966E-05-5.72308E-05-3.15510E-06-5.90213E-18 1.63827E-18
 -1      2607 1.45187E-04-1.44361E-05-5.63803E-05 4.44328E-06-4.07084E-18 2.58133E-19
 -1      2608 1.45867E-04-1.13774E-05-5.80123E-05 2.16812E-06-5.16775E-18 2.63745E-19
 -1      2609 1.43553E-04-4.58710E-05-4.20968E-05-7.06356E-06-1.03596E-18 4.04035E-19
 -1      2610 1.48405E-04-3.93574E-05-4.70737E-05-2.08095E-06-1.23317E-18 6.31040E-19
 -1      2611 1.28527E-04-5.53769E-05-3.14712E-05-2.33882E-05 1.02629E-18 1.21274E-18
 -1      2612 1.39041E-04-5.25190E-05-3.73176E-05-1.70584E-05 1.05879E-20 6.13252E-19
 -1      2613 6.83048E-05-4.30604E-05-1.06508E-05-4.18717E-05 1.50433E-18 1.88338E-18
 -1      2614 8.37525E-05-4.80429E-05-1.53792E-05-4.35700E-05 1.64028E-18 1.28410E-18
 -1      2615 1.95383E-05-1.75375E-05-4.95330E-07-6.26707E-06-7.09311E-19 4.02934E-18
 -1      2616 2.33342E-05-1.95792E-05-1.24548E-06-1.79913E-05-7.75353E-19 5.41212E-18
 -1      2617 2.73999E-05-1.39710E-05-5.19023E-06-1.76866E-06-1.04519E-18 3.36569E-18
 -1      2618 9.62836E-05-2.02496E-05-3.26288E-05-9.75243E-06-1.69093E-18-2.29403E-18
 -1      2619 9.69633E-05-2.35912E-05-3.14582E-05-5.82644E-06-1.59798E-18-2.03093E-18
 -1      2620 9.62769E-05-2.25982E-05-3.15760E-05-5.15466E-06-1.36906E-18-2.21909E-18
 -1      2621 9.41990E-05-1.77733E-05-3.27894E-05-9.16914E-06-1.48694E-18-2.67861E-18
 -1      2622 9.81448E-05-2.55060E-05-3.11445E-05 5.67711E-06 2.19232E-18 3.74885E-18
 -1      2623 9.89652E-05-2.41690E-05-3.20728E-05 8.87443E-06 2.30938E-18 4.21992E-18
 -1      2624 9.73173E-05-2.16428E-05-3.24873E-05 9.90118E-06 2.57206E-18 3.25471E-18
 -1      2625 9.75126E-05-2.43841E-05-3.13758E-05 5.33681E-06 2.31135E-18 2.42808E-18
 -1      2626 1.30040E-04-5.84566E-05-3.08489E-05 2.53004E-05 1.52402E-18-2.13749E-18
 -1      2627 1.14315E-04-5.77353E-05-2.42772E-05 3.12963E-05 3.72906E-19-1.06758E-18
 -1      2628 1.34878E-04-1.59074E-05-5.13232E-05 7.31806E-06 2.61500E-18 3.11645E-18
 -1      2629 8.99911E-05-1.38155E-05-3.26393E-05-4.61112E-06-3.26138E-19-3.03191E-18
 -1      2630 8.92570E-05-1.23171E-05-3.30302E-05-5.87596E-06-4.29042E-19-3.31838E-18
 -1      2631 9.03141E-05-1.33374E-05-3.30450E-05-6.96222E-06-7.70705E-19-3.31394E-18
 -1      2632 9.72786E-05-2.70601E-05-3.01124E-05-1.62320E-06 1.45086E-18 1.57222E-18
 -1      2633 9.54480E-05-1.92486E-05-3.27021E-05 9.46123E-06 2.74959E-18 2.02576E-18
 -1      2634 1.37055E-04-5.88484E-05-3.34410E-05 1.39030E-05 1.05392E-18-3.76506E-18
 -1      2635 6.26370E-05-3.81399E-05-1.01335E-05-4.13218E-05 1.37325E-18 2.11409E-18
 -1      2636 1.26509E-04-5.85893E-05-2.88717E-05-2.36048E-05 2.64825E-18 1.63371E-19
 -1      2637 1.40895E-04-5.16112E-05-3.82214E-05-5.76773E-06 1.02131E-18-5.84029E-19
 -1      2638 1.38660E-04-1.76307E-05-5.20528E-05 7.96025E-06-2.72448E-18-1.23529E-18
 -1      2639 7.29911E-05-4.22572E-05-1.28315E-05 4.01302E-05-2.29186E-18 1.89926E-18
 -1      2640 6.44498E-05-3.47480E-05-1.21311E-05 3.77630E-05-3.48459E-18 2.24019E-18
 -1      2641 8.69276E-05-4.63510E-05-1.72635E-05 3.74826E-05-4.11954E-18-2.77403E-19
 -1      2642 1.35242E-04-9.15697E-06-5.42656E-05 8.24211E-07-4.98775E-18 3.48157E-19
 -1      2643 9.52339E-05-2.85783E-05-2.85668E-05-3.19052E-08-1.79518E-18-5.74265E-19
 -1      2644 1.12553E-04-5.78820E-05-2.32756E-05 3.13702E-05-2.01636E-18-1.55695E-18
 -1      2645 9.52373E-05-2.85812E-05-2.85669E-05-3.30391E-08-1.81917E-18 3.85087E-19
 -1      2646 1.44955E-04-3.71850E-05-4.63111E-05-3.44225E-06-4.18964E-18 2.26264E-18
 -1      2647 1.39953E-04-4.24890E-05-4.18601E-05-4.87450E-06-3.13974E-18 2.86954E-18
 -1      2648 1.39010E-04-3.09460E-05-4.70541E-05-9.73681E-06-4.13416E-18 2.63417E-18
 -1      2649 3.45659E-05-2.11002E-05-5.18707E-06 2.33427E-05-1.91175E-18 3.94633E-18
 -1      2650 3.54854E-05-1.57376E-05-7.84228E-06 1.61205E-05-1.14630E-18 2.83163E-18
 -1      2651 4.60752E-05-2.42304E-05-8.99844E-06 2.91076E-05-2.81363E-18 3.26849E-18
 -1      2652 1.17964E-04-5.81982E-05-2.54096E-05 3.02811E-05-7.22096E-20 9.52594E-19
 -1      2653 3.38362E-05-2.14494E-05-4.89549E-06-2.42887E-05-1.71312E-19 5.20523E-18
 -1      2654 9.57381E-05-2.05273E-05-3.21911E-05 7.29178E-06 2.56869E-18 1.59938E-18
 -1      2655 1.43245E-04-2.68680E-05-5.00256E-05-1.07208E-05 4.49160E-18-1.07234E-18
 -1      2656 3.33420E-05-1.97420E-05-5.31883E-06-1.97424E-05-8.65032E-19-4.37365E-18
 -1      2657 9.89705E-05-5.29389E-05-1.94341E-05-3.86985E-05 2.52035E-18 9.57041E-19
 -1      2658 1.43255E-04-3.52897E-05-4.62885E-05 6.77959E-06-6.51368E-19-1.21888E-18
 -1      2659 8.38584E-05-4.67982E-05-1.55284E-05 4.13180E-05 1.16319E-18-1.84230E-18
 -1      2660 9.15519E-05-5.06799E-05-1.71341E-05-3.93109E-05-2.01255E-18-1.37926E-18
 -1      2661 1.42620E-04-1.68786E-05-5.41581E-05-6.22587E-06-5.77994E-18 2.00249E-18
 -1      2662 1.36319E-04-2.01622E-05-5.01942E-05-8.91383E-06-4.99876E-18 2.43331E-18
 -1      2663 1.32213E-04-1.23287E-05-5.18652E-05-7.45910E-06-5.44028E-18 2.17836E-18
 -1      2664 1.26638E-04-6.04782E-05-2.81678E-05-2.37660E-05-1.80704E-18-6.28075E-19
 -1      2665 1.43228E-04-5.29684E-05-3.87147E-05-1.14586E-06-1.14668E-18 2.11546E-19
 -1      2666 4.73451E-05-2.90940E-05-7.30513E-06 3.50417E-05 8.15269E-19-4.01345E-18
 -1      2667 9.52323E-05-2.85753E-05-2.85673E-05 3.19838E-08 8.57001E-19 1.37734E-18
 -1      2668 9.52387E-05-2.85815E-05-2.85674E-05 3.35604E-08 5.44987E-19 2.01093E-18
 -1      2669 9.52390E-05-2.85771E-05-2.85693E-05 3.46863E-08 3.82820E-19 1.16390E-18
 -1      2670 9.52293E-05-2.85719E-05-2.85674E-05 3.40608E-08 4.70053E-19 1.52680E-18
 -1      2671 1.38449E-04-5.46446E-05-3.58328E-05 9.89664E-06-1.66985E-18 2.42336E-18
 -1      2672 9.14402E-05-1.46325E-05-3.29763E-05-7.61124E-06-9.61726E-19-3.25244E-18
 -1      2673 9.28313E-05-1.61346E-05-3.29443E-05-8.64988E-06-1.28641E-18-3.05087E-18
 -1      2674 9.44127E-05-1.90125E-05-3.22938E-05-6.84111E-06-1.30559E-18-2.71706E-18
 -1      2675 9.21031E-05-1.61440E-05-3.25365E-05-5.93556E-06-8.68572E-19-3.01125E-18
 -1      2676 1.41462E-04-3.36438E-05-4.64361E-05 1.16613E-05 1.27966E-18 2.32288E-18
 -1      2677 2.47905E-05-1.68679E-05-2.86400E-06 9.05972E-06 9.23266E-20-5.20078E-18
 -1      2678 2.93337E-05-1.34658E-05-6.26214E-06 2.27811E-06 2.18879E-19-4.73322E-18
 -1      2679 3.05834E-05-1.66818E-05-5.66363E-06 1.74285E-05 7.36178E-19-4.53247E-18
 -1      2680 9.52376E-05-2.85774E-05-2.85686E-05-3.52293E-08-1.13434E-18 9.03318E-19
 -1      2681 9.52343E-05-2.85721E-05-2.85696E-05 3.51634E-08 7.84399E-19 2.30339E-18
 -1      2682 8.78595E-05-1.24506E-05-3.23376E-05 1.85537E-06 1.97522E-18-1.77050E-18
 -1      2683 8.74224E-05-1.20360E-05-3.23314E-05 1.29065E-06 1.74627E-18-1.85309E-18
 -1      2684 8.71227E-05-1.17305E-05-3.23307E-05 9.23975E-07 1.63721E-18-2.06631E-18
 -1      2685 8.69931E-05-1.16076E-05-3.23273E-05 3.69436E-07 1.41550E-18-2.21931E-18
 -1      2686 8.80307E-05-1.32827E-05-3.20150E-05 8.50670E-07 1.57308E-18-1.84265E-18
 -1      2687 9.12007E-05-1.59741E-05-3.22705E-05 3.91120E-06 2.53775E-18-5.63861E-19
 -1      2688 9.01641E-05-1.48665E-05-3.23000E-05 3.27286E-06 2.43595E-18-9.13283E-19
 -1      2689 9.37195E-05-1.89435E-05-3.20825E-05 4.82981E-06 2.57747E-18 2.45509E-19
 -1      2690 9.23989E-05-1.73549E-05-3.21867E-05 4.30228E-06 2.51748E-18-1.79181E-19
 -1      2691 9.26208E-05-1.82486E-05-3.18485E-05 2.83748E-06 2.36513E-18-2.80882E-19
 -1      2692 9.67895E-05-2.51519E-05-3.07019E-05 7.77282E-07 1.97017E-18 1.25192E-18
 -1      2693 9.68799E-05-2.43467E-05-3.10541E-05 2.71557E-06 2.12565E-18 1.39562E-18
 -1      2694 1.33796E-04-2.34983E-05-4.80879E-05-1.38798E-05 3.88259E-18 1.07414E-18
 -1      2695 1.39999E-04-3.35687E-05-4.60309E-05-1.36346E-05 3.97851E-18-8.46398E-19
 -1      2696 9.58083E-05-2.17386E-05-3.17462E-05 5.25328E-06 2.44021E-18 1.28033E-18
 -1      2697 5.59137E-05-3.12793E-05-1.00575E-05-3.72801E-05 1.21157E-18 2.02949E-18
 -1      2698 7.35713E-05-4.02236E-05-1.42548E-05-4.10943E-05 1.81339E-18-5.39136E-19
 -1      2699 1.35203E-04-5.44769E-05-3.46666E-05-5.58892E-06 1.87020E-18-7.95893E-19
 -1      2700 1.37677E-04-4.87611E-05-3.86951E-05 2.06324E-06 7.54548E-19-1.24408E-18
 -1      2701 9.65946E-05-2.54764E-05-3.04555E-05 8.00461E-07-9.05979E-19-1.68506E-18
 -1      2702 9.66902E-05-2.60871E-05-3.02610E-05 2.10237E-06-7.34995E-19-1.50749E-18
 -1      2703 9.68420E-05-2.66126E-05-3.00765E-05 3.21715E-06-7.20933E-19-1.24220E-18
 -1      2704 9.70459E-05-2.70693E-05-2.99885E-05 4.15858E-06-6.69524E-19-1.30348E-18
 -1      2705 9.62059E-05-2.55013E-05-3.03121E-05 2.64046E-06-6.27012E-19-1.39705E-18
 -1      2706 9.72276E-05-2.74747E-05-2.98769E-05 5.01996E-06-6.73260E-19-1.21494E-18
 -1      2707 9.75895E-05-2.79160E-05-2.98568E-05 5.68668E-06-6.31772E-19-1.28510E-18
 -1      2708 9.65431E-05-2.65981E-05-2.99894E-05 4.71392E-06-6.99563E-19-1.23291E-18
 -1      2709 9.78955E-05-2.83437E-05-2.97923E-05 6.32648E-06-5.41562E-19-1.06787E-18
 -1      2710 9.84373E-05-2.88687E-05-2.98129E-05 6.74155E-06-5.14453E-19-1.20082E-18
 -1      2711 9.70379E-05-2.75820E-05-2.97821E-05 6.30371E-06-5.41749E-19-1.16727E-18
 -1      2712 9.89488E-05-2.94274E-05-2.97769E-05 7.15339E-06-4.01575E-19-1.06098E-18
 -1      2713 9.96908E-05-3.01171E-05-2.98191E-05 7.28673E-06-3.42392E-19-9.77839E-19
 -1      2714 9.78560E-05-2.87239E-05-2.96473E-05 7.44308E-06-4.19810E-19-8.65799E-19
 -1      2715 1.00499E-04-3.09026E-05-2.98028E-05 7.41523E-06-2.82230E-19-6.29214E-19
 -1      2716 1.01459E-04-3.18158E-05-2.98565E-05 7.18913E-06-1.40791E-19-4.75966E-19
 -1      2717 9.91682E-05-3.02573E-05-2.95592E-05 8.08391E-06-1.46020E-19-3.52486E-19
 -1      2718 1.02658E-04-3.28923E-05-2.98660E-05 6.92106E-06-9.35189E-20-2.83496E-19
 -1      2719 1.03827E-04-3.40287E-05-2.99347E-05 6.22367E-06 1.29074E-19-1.51035E-19
 -1      2720 1.01163E-04-3.23718E-05-2.95172E-05 8.07191E-06-1.90067E-20 3.25175E-19
 -1      2721 1.05472E-04-3.53738E-05-2.99983E-05 5.38913E-06 1.08037E-19-4.33616E-20
 -1      2722 1.06761E-04-3.66011E-05-3.01054E-05 4.11035E-06-2.17218E-21-5.19693E-20
 -1      2723 1.04001E-04-3.51304E-05-2.95603E-05 7.13218E-06 2.35234E-19 3.89938E-19
 -1      2724 1.08771E-04-3.80054E-05-3.02822E-05 2.51941E-06-9.78811E-20 3.38606E-20
 -1      2725 1.09946E-04-3.89587E-05-3.04738E-05 6.34294E-07-7.27390E-20-1.25922E-20
 -1      2726 1.07679E-04-3.82898E-05-2.97852E-05 4.88810E-06 3.33312E-21 6.94584E-20
 -1      2727 1.11953E-04-3.99040E-05-3.08523E-05-1.78095E-06-8.76828E-20-1.15751E-19
 -1      2728 1.12597E-04-3.99425E-05-3.11883E-05-4.04786E-06-4.19917E-19 1.00957E-19
 -1      2729 1.11780E-04-4.10206E-05-3.03578E-05 1.00237E-06-2.07210E-19-1.60571E-19
 -1      2730 1.13873E-04-3.96116E-05-3.18580E-05-6.93513E-06-5.07111E-19 2.49995E-19
 -1      2731 1.13553E-04-3.80220E-05-3.23764E-05-8.92106E-06-7.66669E-19 1.69898E-19
 -1      2732 1.15215E-04-4.17497E-05-3.14838E-05-4.38323E-06-2.93840E-19 3.29986E-19
 -1      2733 1.13170E-04-3.56738E-05-3.33388E-05-1.10142E-05-1.15892E-18 3.86652E-19
 -1      2734 1.11840E-04-3.24620E-05-3.39769E-05-1.15099E-05-1.51158E-18 4.42945E-19
 -1      2735 1.16190E-04-3.84107E-05-3.32966E-05-9.95254E-06-9.63546E-19 5.12574E-19
 -1      2736 1.09966E-04-2.86480E-05-3.50170E-05-1.14028E-05-1.88677E-18 2.18005E-19
 -1      2737 1.08176E-04-2.49535E-05-3.55935E-05-9.57040E-06-1.74788E-18-4.42972E-20
 -1      2738 1.14247E-04-3.17554E-05-3.53619E-05-1.22893E-05-1.76580E-18 5.79490E-19
 -1      2739 1.06194E-04-2.19892E-05-3.62880E-05-5.59644E-06-1.68496E-18-5.73051E-19
 -1      2740 1.05566E-04-2.04839E-05-3.65193E-05-2.01041E-06-1.29882E-18-1.12019E-18
 -1      2741 1.09615E-04-2.17923E-05-3.76522E-05-8.91071E-06-2.16891E-18 2.07391E-20
 -1      2742 1.05630E-04-2.05603E-05-3.65094E-05 3.26846E-06-9.21387E-19-1.31417E-18
 -1      2743 1.06517E-04-2.23373E-05-3.62637E-05 6.87422E-06-9.56088E-19-1.39940E-18
 -1      2744 1.08103E-04-1.87502E-05-3.82689E-05 5.60860E-07-1.27682E-18-7.86310E-19
 -1      2745 1.08518E-04-2.54913E-05-3.55275E-05 1.03962E-05-5.46985E-19-1.10127E-18
 -1      2746 1.10354E-04-2.91636E-05-3.49510E-05 1.20759E-05-5.67777E-20-9.08794E-19
 -1      2747 1.10161E-04-2.29369E-05-3.73983E-05 9.78303E-06-6.40608E-19-1.16047E-18
 -1      2748 1.12051E-04-3.28652E-05-3.39089E-05 1.21453E-05 1.39641E-19-7.05478E-19
 -1      2749 1.13558E-04-3.60499E-05-3.32885E-05 1.15872E-05 4.83039E-19-7.41336E-19
 -1      2750 1.14250E-04-3.14487E-05-3.54952E-05 1.31026E-05 4.79235E-20-2.61548E-19
 -1      2751 1.13596E-04-3.81637E-05-3.23594E-05 9.20923E-06 7.34325E-19-1.02159E-18
 -1      2752 1.13994E-04-3.95987E-05-3.18744E-05 7.37204E-06 6.93527E-19-7.08500E-19
 -1      2753 1.16358E-04-3.89142E-05-3.32344E-05 1.02252E-05 3.01560E-19-3.92103E-19
 -1      2754 1.12572E-04-3.98206E-05-3.12373E-05 4.41447E-06 5.60496E-19-5.91505E-19
 -1      2755 1.11959E-04-3.96722E-05-3.09308E-05 2.32447E-06 7.47578E-19-8.22934E-19
 -1      2756 1.15055E-04-4.18137E-05-3.14761E-05 4.72357E-06 6.97204E-19-5.49481E-19
 -1      2757 1.09913E-04-3.86949E-05-3.05748E-05-6.45966E-08 8.57095E-19-6.36905E-19
 -1      2758 1.08768E-04-3.76966E-05-3.04050E-05-1.79414E-06 6.86693E-19-2.20794E-19
 -1      2759 1.11523E-04-4.08192E-05-3.03966E-05-4.86557E-07 9.70007E-19-2.55578E-19
 -1      2760 1.06785E-04-3.63116E-05-3.02382E-05-3.30923E-06 3.99120E-19-5.21181E-19
 -1      2761 1.05532E-04-3.50952E-05-3.01436E-05-4.47554E-06 8.37106E-19-5.13320E-19
 -1      2762 1.07418E-04-3.79452E-05-2.98525E-05-4.13722E-06 6.89628E-19-2.52869E-20
 -1      2763 1.03931E-04-3.37958E-05-3.00761E-05-5.23440E-06 1.11838E-18-4.15276E-19
 -1      2764 1.02799E-04-3.27091E-05-3.00092E-05-5.86824E-06 1.41037E-18-6.38063E-19
 -1      2765 1.03787E-04-3.47797E-05-2.96285E-05-6.18231E-06 4.44503E-19-4.43518E-19
 -1      2766 1.01635E-04-3.16969E-05-2.99798E-05-6.09389E-06 1.19052E-18-7.75017E-19
 -1      2767 1.00702E-04-3.08628E-05-2.99142E-05-6.31490E-06 6.67257E-19-9.47204E-19
 -1      2768 1.00998E-04-3.21122E-05-2.95551E-05-7.00572E-06 1.03859E-18-1.11533E-18
 -1      2769 9.99088E-05-3.01638E-05-2.98900E-05-6.20543E-06 3.14441E-19-1.04888E-18
 -1      2770 9.91723E-05-2.95837E-05-2.98157E-05-6.14463E-06-1.07374E-20-9.09519E-19
 -1      2771 9.90277E-05-3.01675E-05-2.95287E-05-7.02365E-06 6.28070E-19-8.12170E-19
 -1      2772 9.86535E-05-2.91477E-05-2.97833E-05-5.84582E-06-3.41463E-20-7.84629E-19
 -1      2773 9.80811E-05-2.87749E-05-2.97004E-05-5.61469E-06 2.31442E-20-8.40814E-19
 -1      2774 9.77062E-05-2.88938E-05-2.94984E-05-6.56078E-06 2.30305E-19-6.59955E-19
 -1      2775 9.77494E-05-2.85324E-05-2.96574E-05-5.22553E-06-8.20875E-20-2.23270E-19
 -1      2776 9.73057E-05-2.83110E-05-2.95701E-05-4.90784E-06-2.15911E-19 1.20879E-19
 -1      2777 9.68471E-05-2.81430E-05-2.94464E-05-5.84415E-06 1.34649E-19-3.67644E-19
 -1      2778 9.70954E-05-2.81987E-05-2.95192E-05-4.49240E-06 1.81893E-19 4.05491E-19
 -1      2779 9.67506E-05-2.80804E-05-2.94327E-05-4.14593E-06 5.60530E-19 9.16594E-19
 -1      2780 9.62974E-05-2.77599E-05-2.93722E-05-5.02437E-06 3.56818E-19 1.04035E-18
 -1      2781 9.66166E-05-2.80492E-05-2.93780E-05-3.74354E-06 1.10319E-19 6.25807E-19
 -1      2782 9.63480E-05-2.79970E-05-2.92965E-05-3.40507E-06-1.68246E-20 6.34588E-19
 -1      2783 9.59468E-05-2.76158E-05-2.92825E-05-4.19748E-06 4.78499E-19 5.87385E-19
 -1      2784 9.62612E-05-2.80124E-05-2.92419E-05-3.03802E-06 2.30473E-21 7.36975E-19
 -1      2785 9.60520E-05-2.80002E-05-2.91682E-05-2.72868E-06-8.21855E-20 6.53941E-19
 -1      2786 9.57214E-05-2.76159E-05-2.91857E-05-3.42128E-06 6.07076E-20 4.25751E-19
 -1      2787 9.59943E-05-2.80393E-05-2.91167E-05-2.40773E-06 1.31531E-19 2.81910E-19
 -1      2788 9.58321E-05-2.80497E-05-2.90525E-05-2.13776E-06-1.30234E-20 8.18401E-19
 -1      2789 9.55741E-05-2.76948E-05-2.90890E-05-2.72710E-06-1.78080E-19 1.13967E-18
 -1      2790 9.57926E-05-2.80982E-05-2.90059E-05-1.86612E-06-1.39762E-19 7.26643E-19
 -1      2791 9.56677E-05-2.81199E-05-2.89515E-05-1.63859E-06 1.82914E-20 1.13041E-18
 -1      2792 9.54756E-05-2.78100E-05-2.89978E-05-2.12835E-06-1.35576E-19 9.07589E-19
 -1      2793 9.56398E-05-2.81693E-05-2.89109E-05-1.41477E-06 5.01304E-20 1.01582E-18
 -1      2794 9.55447E-05-2.81953E-05-2.88660E-05-1.22834E-06 8.61531E-20 7.38690E-19
 -1      2795 9.54079E-05-2.79356E-05-2.89154E-05-1.62672E-06 7.24296E-20 4.36876E-19
 -1      2796 9.55245E-05-2.82411E-05-2.88316E-05-1.04816E-06-2.71745E-19 6.42055E-19
 -1      2797 9.54531E-05-2.82674E-05-2.87954E-05-8.99066E-07-7.03061E-19 4.13295E-19
 -1      2798 9.53603E-05-2.80565E-05-2.88436E-05-1.21670E-06-3.84109E-19-2.36772E-19
 -1      2799 9.54381E-05-2.83074E-05-2.87669E-05-7.57041E-07-5.86961E-19 1.05042E-18
 -1      2800 9.53853E-05-2.83319E-05-2.87384E-05-6.40371E-07-6.85553E-19 1.27637E-18
 -1      2801 9.53260E-05-2.81650E-05-2.87827E-05-8.88816E-07-6.87636E-19 9.18818E-19
 -1      2802 9.53741E-05-2.83654E-05-2.87153E-05-5.30625E-07-3.01452E-19 5.02384E-19
 -1      2803 9.53359E-05-2.83869E-05-2.86933E-05-4.41187E-07 3.51684E-20 2.48961E-19
 -1      2804 9.53011E-05-2.82580E-05-2.87324E-05-6.31877E-07-5.76480E-19 1.78525E-18
 -1      2805 9.53274E-05-2.84141E-05-2.86751E-05-3.58029E-07-4.19394E-19 2.33524E-19
 -1      2806 9.53006E-05-2.84323E-05-2.86584E-05-2.90852E-07-5.02707E-19 5.21032E-19
 -1      2807 9.52828E-05-2.83349E-05-2.86918E-05-4.34410E-07-5.42975E-19 4.27136E-19
 -1      2808 9.52942E-05-2.84539E-05-2.86443E-05-2.29102E-07-1.03894E-19 9.10063E-19
 -1      2809 9.52758E-05-2.84690E-05-2.86319E-05-1.79719E-07 1.06357E-19 1.50129E-18
 -1      2810 9.52693E-05-2.83968E-05-2.86596E-05-2.85581E-07-1.41281E-19 7.41132E-19
 -1      2811 9.52711E-05-2.84858E-05-2.86211E-05-1.34876E-07 1.61486E-19 2.07322E-18
 -1      2812 9.52592E-05-2.84980E-05-2.86122E-05-9.94614E-08 7.98658E-19 2.13886E-18
 -1      2813 9.52594E-05-2.84456E-05-2.86345E-05-1.75707E-07 6.25345E-19 2.12673E-18
 -1      2814 9.52557E-05-2.85109E-05-2.86041E-05-6.77584E-08 4.18606E-19 1.85786E-18
 -1      2815 9.52484E-05-2.85207E-05-2.85978E-05-4.31641E-08-1.15350E-19 6.39569E-19
 -1      2816 9.52523E-05-2.84834E-05-2.86153E-05-9.64877E-08 6.38989E-19 1.73490E-18
 -1      2817 9.52460E-05-2.85306E-05-2.85917E-05-2.15618E-08-4.00410E-19 1.04325E-18
 -1      2818 9.52421E-05-2.85386E-05-2.85873E-05-5.30553E-09-5.63725E-19 1.26209E-18
 -1      2819 9.52473E-05-2.85124E-05-2.86008E-05-4.10671E-08-3.63056E-19 1.51532E-18
 -1      2820 9.52405E-05-2.85463E-05-2.85828E-05 8.51871E-09-7.29454E-19 2.05958E-18
 -1      2821 9.52390E-05-2.85530E-05-2.85798E-05 1.83372E-08-9.54656E-20 1.28963E-18
 -1      2822 9.52441E-05-2.85348E-05-2.85898E-05-4.03477E-09-7.24994E-19 1.60123E-18
 -1      2823 9.52382E-05-2.85595E-05-2.85763E-05 2.61276E-08 1.12853E-18 1.21868E-18
 -1      2824 9.52383E-05-2.85654E-05-2.85742E-05 3.06787E-08 2.01798E-18 1.18915E-18
 -1      2825 9.52424E-05-2.85528E-05-2.85814E-05 1.89019E-08 3.56887E-19 1.76058E-18
 -1      2826 9.85288E-05-2.80740E-05-3.01811E-05-8.07201E-06 6.48177E-19 5.99963E-19
 -1      2827 9.79028E-05-2.77188E-05-3.00698E-05-7.35053E-06 6.62210E-19 7.85622E-19
 -1      2828 1.37403E-04-5.21901E-05-3.70658E-05 2.40165E-06-1.42312E-18 2.71358E-18
 -1      2829 1.33869E-04-5.73011E-05-3.26925E-05 1.12792E-05-6.30590E-19 2.85111E-18
 -1      2830 9.77263E-05-2.75164E-05-3.00763E-05-6.46009E-06 6.17810E-19 7.96607E-19
 -1      2831 9.73020E-05-2.72226E-05-3.00194E-05-5.58330E-06 7.56916E-19 9.61545E-19
 -1      2832 9.68180E-05-2.68198E-05-3.00110E-05-7.23861E-06 7.57257E-19 2.02938E-19
 -1      2833 1.01400E-04-3.01951E-05-3.05112E-05-1.02715E-05 3.54787E-19 9.27537E-19
 -1      2834 1.00289E-04-2.93986E-05-3.03685E-05-9.99037E-06 5.72685E-19 8.57721E-19
 -1      2835 1.03840E-04-3.23099E-05-3.06623E-05-1.04582E-05 2.89962E-19 1.02381E-18
 -1      2836 1.02393E-04-3.10968E-05-3.05306E-05-1.06153E-05 3.55055E-19 9.56564E-19
 -1      2837 9.97931E-05-2.99625E-05-2.99590E-05-1.14933E-05 3.33566E-19 2.44220E-19
 -1      2838 1.07313E-04-3.54829E-05-3.08107E-05-9.48010E-06 1.30906E-19 9.26394E-19
 -1      2839 1.05474E-04-3.37722E-05-3.06834E-05-1.03274E-05 1.77410E-19 9.79405E-19
 -1      2840 1.02375E-04-3.26569E-05-2.99324E-05-1.18852E-05 2.55161E-19 3.36586E-19
 -1      2841 1.11989E-04-3.96350E-05-3.10638E-05-6.70069E-06-3.35097E-19 1.27270E-18
 -1      2842 1.09826E-04-3.75773E-05-3.08909E-05-8.51961E-06-1.37836E-19 1.06645E-18
 -1      2843 1.06472E-04-3.67373E-05-2.99667E-05-1.10855E-05-6.88289E-20 5.09975E-19
 -1      2844 1.17497E-04-4.37843E-05-3.16792E-05-1.50043E-06-9.26489E-19 1.68361E-18
 -1      2845 1.15419E-04-4.20761E-05-3.13451E-05-4.43085E-06-3.70591E-19 1.72848E-18
 -1      2846 1.12418E-04-4.20075E-05-3.02784E-05-8.26922E-06-4.78291E-19 9.31720E-19
 -1      2847 1.22325E-04-4.53805E-05-3.30739E-05 5.98124E-06-1.22235E-18 1.93310E-18
 -1      2848 1.21233E-04-4.54767E-05-3.24109E-05 2.40654E-06-1.30381E-18 1.86979E-18
 -1      2849 1.19772E-04-4.69497E-05-3.13020E-05-2.49540E-06-1.15961E-18 1.37362E-18
 -1      2850 1.23759E-04-4.10125E-05-3.55491E-05 1.31288E-05 5.58976E-19 2.12776E-18
 -1      2851 1.24718E-04-4.43391E-05-3.45216E-05 1.07074E-05-4.53295E-19 2.36153E-18
 -1      2852 1.26171E-04-4.79379E-05-3.36332E-05 6.15078E-06-8.94533E-19 1.59126E-18
 -1      2853 1.15290E-04-1.92797E-05-4.13943E-05 5.57133E-06 1.92944E-18 2.36240E-18
 -1      2854 1.17420E-04-2.30497E-05-4.09491E-05 1.13630E-05 1.91694E-18 1.96541E-18
 -1      2855 1.20103E-04-1.70096E-05-4.46874E-05-6.12262E-06 2.77350E-18 1.69428E-18
 -1      2856 1.19686E-04-1.58755E-05-4.49334E-05 4.44883E-07 2.69335E-18 2.33220E-18
 -1      2857 1.24530E-04-3.21404E-05-3.99738E-05-1.65011E-05 1.90159E-18 5.75029E-19
 -1      2858 1.21581E-04-2.56128E-05-4.13964E-05-1.37831E-05 2.45449E-18 9.57207E-19
 -1      2859 1.22956E-04-4.56791E-05-3.31010E-05-5.79224E-06 7.41855E-19-7.64149E-19
 -1      2860 1.23471E-04-4.47432E-05-3.38728E-05-9.13455E-06 1.11970E-18-4.49463E-19
 -1      2861 1.17762E-04-4.34587E-05-3.17618E-05 1.69777E-06-6.26024E-19-9.41345E-19
 -1      2862 1.19622E-04-4.47462E-05-3.21629E-05-1.53508E-06 1.56370E-19-1.20676E-18
 -1      2863 1.22279E-04-4.75543E-05-3.20000E-05-1.30820E-06 6.10870E-19 1.27937E-19
 -1      2864 1.12016E-04-3.90419E-05-3.11919E-05 6.57034E-06-1.21381E-18-4.52360E-19
 -1      2865 1.14150E-04-4.10695E-05-3.13797E-05 4.41960E-06-9.71434E-19-5.48967E-19
 -1      2866 1.14926E-04-4.36440E-05-3.06356E-05 5.84957E-06-8.55467E-19-2.28004E-19
 -1      2867 1.07297E-04-3.49277E-05-3.09605E-05 8.95074E-06-1.83186E-18 2.12426E-19
 -1      2868 1.09193E-04-3.67681E-05-3.10754E-05 7.86141E-06-1.46341E-18 6.21994E-19
 -1      2869 1.08461E-04-3.82926E-05-3.01608E-05 9.47342E-06-1.82608E-18 5.24072E-19
 -1      2870 1.03908E-04-3.19287E-05-3.08178E-05 9.57764E-06-1.39591E-18-2.58007E-19
 -1      2871 1.05412E-04-3.32668E-05-3.09325E-05 9.26122E-06-1.43359E-18 8.13540E-20
 -1      2872 1.03793E-04-3.37564E-05-3.00759E-05 1.07344E-05-1.53274E-18 1.26055E-18
 -1      2873 1.01586E-04-3.00218E-05-3.06568E-05 9.17324E-06-5.06909E-19 2.28332E-19
 -1      2874 1.02740E-04-3.08874E-05-3.07929E-05 9.34128E-06-1.09923E-18-2.90420E-19
 -1      2875 1.00797E-04-3.06821E-05-3.00841E-05 1.06060E-05-1.16453E-18 1.67538E-18
 -1      2876 9.99949E-05-2.89284E-05-3.04531E-05 8.23512E-06 6.99342E-19 8.16291E-19
 -1      2877 1.00884E-04-2.94456E-05-3.06075E-05 8.66376E-06 4.12240E-19 5.21558E-19
 -1      2878 9.89658E-05-2.88569E-05-3.00648E-05 9.74535E-06-5.57310E-19 1.02700E-18
 -1      2879 9.88702E-05-2.83634E-05-3.02180E-05 7.08052E-06 3.92018E-19 1.50465E-18
 -1      2880 9.95676E-05-2.86531E-05-3.03791E-05 7.61810E-06 6.35130E-19 1.30148E-18
 -1      2881 9.78584E-05-2.79077E-05-2.99877E-05 8.55184E-06 3.80391E-19 1.94710E-18
 -1      2882 9.80400E-05-2.81123E-05-2.99719E-05 5.89814E-06 1.19376E-18 1.22722E-18
 -1      2883 9.85961E-05-2.82637E-05-3.01281E-05 6.45144E-06 6.47920E-19 9.20644E-19
 -1      2884 9.71678E-05-2.75025E-05-2.98608E-05 7.26112E-06 3.04518E-19 2.02531E-18
 -1      2885 9.74030E-05-2.80345E-05-2.97327E-05 4.79186E-06 1.52096E-18 9.67120E-19
 -1      2886 9.78502E-05-2.81059E-05-2.98762E-05 5.30912E-06 1.76819E-18 1.56301E-18
 -1      2887 9.67091E-05-2.74052E-05-2.97041E-05 6.00785E-06 1.56092E-18 1.21169E-18
 -1      2888 9.69018E-05-2.80454E-05-2.95130E-05 3.81182E-06 1.62594E-19-5.10415E-19
 -1      2889 9.72612E-05-2.80723E-05-2.96392E-05 4.26834E-06 8.35620E-19 3.23072E-19
 -1      2890 9.63806E-05-2.74658E-05-2.95368E-05 4.86423E-06 1.78427E-18 6.10247E-19
 -1      2891 9.65029E-05-2.80969E-05-2.93195E-05 2.97545E-06-7.59553E-19-7.57714E-19
 -1      2892 9.67899E-05-2.81000E-05-2.94268E-05 3.36303E-06-7.14947E-19-1.11319E-18
 -1      2893 9.61296E-05-2.75964E-05-2.93733E-05 3.86335E-06 3.62236E-19-5.29786E-19
 -1      2894 9.61856E-05-2.81630E-05-2.91547E-05 2.28129E-06-5.92242E-19 2.43590E-19
 -1      2895 9.64122E-05-2.81541E-05-2.92435E-05 2.60110E-06-5.48164E-19 8.79363E-20
 -1      2896 9.59301E-05-2.77483E-05-2.92227E-05 3.01404E-06-8.73084E-19-1.18550E-18
 -1      2897 9.59353E-05-2.82306E-05-2.90179E-05 1.71789E-06-2.13525E-19 1.70687E-18
 -1      2898 9.61117E-05-2.82162E-05-2.90897E-05 1.97588E-06-5.29375E-19 6.60597E-19
 -1      2899 9.57687E-05-2.78968E-05-2.90898E-05 2.31079E-06-1.09199E-18-7.27610E-19
 -1      2900 9.57402E-05-2.82932E-05-2.89071E-05 1.26924E-06 1.47301E-19 1.76152E-18
 -1      2901 9.58754E-05-2.82770E-05-2.89640E-05 1.47342E-06-2.42343E-21 1.49516E-18
 -1      2902 9.56382E-05-2.80307E-05-2.89765E-05 1.74037E-06-2.43931E-19-4.15183E-19
 -1      2903 9.55907E-05-2.83483E-05-2.88190E-05 9.18051E-07 2.04350E-18 1.22490E-18
 -1      2904 9.56925E-05-2.83322E-05-2.88632E-05 1.07688E-06 1.10076E-18 1.74330E-18
 -1      2905 9.55338E-05-2.81457E-05-2.88823E-05 1.28602E-06 4.30137E-19-7.28318E-19
 -1      2906 9.54782E-05-2.83953E-05-2.87504E-05 6.47593E-07 1.82957E-18 1.43112E-18
 -1      2907 9.55534E-05-2.83804E-05-2.87841E-05 7.69144E-07 2.71967E-18 2.39464E-18
 -1      2908 9.54517E-05-2.82415E-05-2.88058E-05 9.30166E-07 1.80996E-18-2.46639E-19
 -1      2909 9.53954E-05-2.84345E-05-2.86979E-05 4.42641E-07 2.31874E-20 1.10227E-18
 -1      2910 9.54496E-05-2.84211E-05-2.87232E-05 5.34156E-07 1.02446E-18 2.42149E-18
 -1      2911 9.53882E-05-2.83196E-05-2.87450E-05 6.55923E-07 1.12316E-18 1.71798E-18
 -1      2912 9.53360E-05-2.84666E-05-2.86586E-05 2.89899E-07-1.17736E-18 2.54675E-19
 -1      2913 9.53740E-05-2.84549E-05-2.86771E-05 3.57636E-07-4.10858E-19 9.00177E-19
 -1      2914 9.53404E-05-2.83821E-05-2.86974E-05 4.47969E-07-9.66202E-20 2.45754E-18
 -1      2915 9.52946E-05-2.84925E-05-2.86296E-05 1.78108E-07-1.42962E-18-1.19745E-18
 -1      2916 9.53203E-05-2.84826E-05-2.86429E-05 2.27310E-07-1.75237E-18-7.69683E-19
 -1      2917 9.53051E-05-2.84315E-05-2.86610E-05 2.92912E-07-5.84219E-19-2.52404E-19
 -1      2918 9.52670E-05-2.85133E-05-2.86088E-05 9.79820E-08 7.04728E-19-3.09423E-18
 -1      2919 9.52835E-05-2.85049E-05-2.86180E-05 1.32933E-07-1.67404E-19-2.05038E-18
 -1      2920 9.52798E-05-2.84699E-05-2.86335E-05 1.79407E-07-2.87486E-19-2.55977E-18
 -1      2921 9.52496E-05-2.85300E-05-2.85942E-05 4.20683E-08 9.25643E-19-3.52607E-18
 -1      2922 9.52594E-05-2.85228E-05-2.86004E-05 6.61681E-08 4.35190E-19-3.87948E-18
 -1      2923 9.52623E-05-2.84995E-05-2.86132E-05 9.80898E-08 9.79323E-19-4.01962E-18
 -1      2924 9.52396E-05-2.85434E-05-2.85841E-05 4.57014E-09 1.28646E-18-2.62950E-18
 -1      2925 9.52447E-05-2.85373E-05-2.85882E-05 2.04313E-08 1.15455E-18-3.64642E-18
 -1      2926 9.52508E-05-2.85224E-05-2.85983E-05 4.14526E-08 9.61782E-19-4.28189E-18
 -1      2927 9.52350E-05-2.85546E-05-2.85773E-05-1.88919E-08 1.12409E-18-9.61412E-19
 -1      2928 9.52367E-05-2.85493E-05-2.85799E-05-9.33187E-09 1.21769E-18-1.28680E-18
 -1      2929 9.52438E-05-2.85401E-05-2.85876E-05 3.65410E-09 3.31940E-19-3.47595E-18
 -1      2930 9.52341E-05-2.85644E-05-2.85727E-05-3.12936E-08 1.72807E-18-2.92130E-19
 -1      2931 9.52336E-05-2.85596E-05-2.85743E-05-2.68804E-08 1.37811E-18-2.28919E-19
 -1      2932 9.52401E-05-2.85543E-05-2.85798E-05-1.97780E-08 1.18688E-18-1.41016E-18
 -1      2933 9.52364E-05-2.85729E-05-2.85701E-05-3.46469E-08-2.25764E-19 3.62324E-19
 -1      2934 9.52346E-05-2.85681E-05-2.85713E-05-3.40642E-08 1.33511E-18-3.88895E-19
 -1      2935 9.52403E-05-2.85657E-05-2.85750E-05-3.08555E-08 1.56037E-18-7.15058E-20
 -1      2936 9.52422E-05-2.85754E-05-2.85715E-05-3.40694E-08-6.54486E-19 7.56899E-19
 -1      2937 1.21668E-04-5.96079E-05-2.67105E-05 2.42098E-05-1.81244E-18-2.47312E-18
 -1      2938 1.07442E-04-5.45391E-05-2.24453E-05 3.05458E-05-3.22084E-18-1.39558E-18
 -1      2939 9.52456E-05-2.85626E-05-2.85785E-05-7.95566E-10-7.92859E-20-5.61580E-19
 -1      2940 9.52458E-05-2.85629E-05-2.85784E-05-4.01862E-09 2.33599E-19-2.80052E-18
 -1      2941 9.52382E-05-2.85693E-05-2.85722E-05 3.31180E-08 1.95317E-18 2.56045E-19
 -1      2942 9.52388E-05-2.85732E-05-2.85710E-05 3.38034E-08 1.33664E-18 1.18067E-18
 -1      2943 9.52419E-05-2.85659E-05-2.85756E-05 2.96765E-08 1.36711E-18-2.14394E-19
 -1      2944 9.52480E-05-2.85678E-05-2.85773E-05-1.37529E-08 1.13637E-19 1.35443E-18
 -1      2945 9.52481E-05-2.85685E-05-2.85769E-05-1.74478E-08 8.15738E-19 4.87726E-19
 -1      2946 9.52456E-05-2.85627E-05-2.85784E-05 4.99345E-09-1.21662E-18 9.38045E-19
 -1      2947 9.52455E-05-2.85625E-05-2.85785E-05 1.81713E-09-9.40246E-21-3.64403E-19
 -1      2948 9.52429E-05-2.85468E-05-2.85839E-05 5.63522E-10 2.29202E-20-5.95018E-19
 -1      2949 9.52466E-05-2.85645E-05-2.85781E-05-6.88953E-09-7.49278E-19-2.45658E-18
 -1      2950 9.52470E-05-2.85651E-05-2.85779E-05-1.03536E-08-1.92572E-19 9.67253E-19
 -1      2951 9.52457E-05-2.85528E-05-2.85826E-05-1.01674E-08 1.17581E-19 1.14355E-18
 -1      2952 9.52438E-05-2.85484E-05-2.85836E-05-4.35638E-09-4.86507E-19-1.45019E-18
 -1      2953 9.52465E-05-2.85647E-05-2.85779E-05 1.09936E-08-1.59879E-18 4.00320E-19
 -1      2954 9.52462E-05-2.85641E-05-2.85781E-05 7.70764E-09-1.56973E-18 1.92910E-18
 -1      2955 9.52434E-05-2.85481E-05-2.85835E-05 5.32301E-09-9.50036E-19 1.33648E-18
 -1      2956 9.52475E-05-2.85679E-05-2.85769E-05 1.77836E-08-3.61571E-19-4.07653E-19
 -1      2957 9.52474E-05-2.85673E-05-2.85773E-05 1.42305E-08-4.12047E-19-2.07716E-19
 -1      2958 9.52451E-05-2.85522E-05-2.85825E-05 1.08039E-08-1.74045E-18 9.37666E-19
 -1      2959 9.52470E-05-2.85713E-05-2.85753E-05 2.49183E-08 7.32117E-19 1.82492E-18
 -1      2960 9.52479E-05-2.85709E-05-2.85759E-05 2.14003E-08 4.29757E-20 7.83323E-19
 -1      2961 9.52465E-05-2.85579E-05-2.85807E-05 1.74526E-08-3.69699E-21 6.30336E-19
 -1      2962 9.53659E-05-2.12418E-05-3.17938E-05-5.12144E-06-1.28385E-18-2.43654E-18
 -1      2963 9.59597E-05-2.29603E-05-3.12794E-05-3.24235E-06-1.20863E-18-2.25738E-18
 -1      2964 9.42124E-05-1.96499E-05-3.19635E-05-4.92746E-06-1.03509E-18-2.60030E-18
 -1      2965 1.25741E-04-9.17559E-06-5.05410E-05 3.51947E-06-3.66723E-18-1.98206E-19
 -1      2966 1.27465E-04-9.83579E-06-5.10849E-05-2.60909E-06-4.34909E-18 7.48195E-19
 -1      2967 1.22181E-04-5.80896E-05-2.71788E-05-2.29355E-05 3.12698E-18 1.74489E-19
 -1      2968 1.31252E-04-5.82799E-05-3.16177E-05-1.48023E-05 2.52744E-18-3.98370E-19
 -1      2969 1.31583E-04-5.55020E-05-3.25944E-05-6.27415E-06 2.20111E-18-2.27375E-19
 -1      2970 1.24925E-04-5.94632E-05-2.84373E-05 2.28301E-05-1.64854E-19 2.00794E-18
 -1      2971 1.11506E-04-5.62864E-05-2.33162E-05 3.13577E-05 7.12249E-19 8.78956E-19
 -1      2972 3.34426E-05-1.22000E-05-8.58380E-06 2.37564E-06-1.22857E-18 2.70542E-18
 -1      2973 3.34406E-05-1.25736E-05-8.31369E-06-7.63151E-06-1.28974E-18 3.46352E-18
 -1      2974 9.26031E-05-4.89752E-05-1.81515E-05-3.83998E-05 2.67302E-18 3.39581E-19
 -1      2975 1.06993E-04-5.50296E-05-2.25140E-05-3.42565E-05 2.97054E-18 9.33457E-19
 -1      2976 5.51419E-05-2.85753E-05-1.08922E-05-3.34565E-05-1.64917E-18-2.52861E-18
 -1      2977 6.79965E-05-3.64735E-05-1.33352E-05-3.86901E-05-1.86040E-18-1.72255E-18
 -1      2978 9.72202E-05-2.70019E-05-3.00819E-05-4.54377E-06 7.86670E-19 9.44205E-19
 -1      2979 9.69922E-05-2.66764E-05-3.01113E-05-3.46256E-06 1.06732E-18 1.01061E-18
 -1      2980 9.65436E-05-2.62902E-05-3.01202E-05-5.21148E-06 8.77308E-19 4.74617E-19
 -1      2981 9.97062E-05-2.88832E-05-3.03415E-05-9.38349E-06 6.08803E-19 6.26033E-19
 -1      2982 9.88603E-05-2.83680E-05-3.02028E-05-8.83664E-06 5.56061E-19 5.34571E-19
 -1      2983 9.73343E-05-2.74132E-05-2.99793E-05-8.97591E-06 5.67685E-19 1.13519E-19
 -1      2984 9.82426E-05-2.83471E-05-2.99739E-05-1.04312E-05 3.71546E-19 2.11059E-19
 -1      2985 9.63348E-05-2.39824E-05-3.09948E-05-1.96843E-06-1.02354E-18-2.10103E-18
 -1      2986 9.64170E-05-2.48886E-05-3.06603E-05-2.48883E-07-9.52628E-19-1.91798E-18
 -1      2987 9.58751E-05-2.41815E-05-3.07278E-05 3.47811E-07-7.29143E-19-1.88766E-18
 -1      2988 9.54460E-05-2.26282E-05-3.12159E-05-2.01993E-06-9.70409E-19-2.22198E-18
 -1      2989 9.69501E-05-2.63187E-05-3.02629E-05-2.20117E-06 1.39564E-18 1.02217E-18
 -1      2990 9.68985E-05-2.58374E-05-3.04204E-05-7.96742E-07 1.59500E-18 1.12273E-18
 -1      2991 9.62157E-05-2.43008E-05-3.08247E-05 1.85876E-07 1.87541E-18 5.58764E-19
 -1      2992 9.63925E-05-2.55592E-05-3.03678E-05-2.78907E-06 1.30744E-18 5.58615E-19
 -1      2993 1.39627E-04-5.71167E-05-3.58658E-05 5.39405E-06 1.80450E-18-3.97957E-18
 -1      2994 1.31903E-04-6.00049E-05-3.08048E-05 1.42209E-05-9.28560E-20-3.51450E-18
 -1      2995 8.92341E-05-1.38501E-05-3.23300E-05 2.85797E-06 2.36263E-18-1.23084E-18
 -1      2996 8.84832E-05-1.31067E-05-3.23312E-05 2.24337E-06 2.11020E-18-1.57841E-18
 -1      2997 8.89669E-05-1.42323E-05-3.20076E-05 1.50167E-06 1.93419E-18-1.53914E-18
 -1      2998 9.05321E-05-1.58834E-05-3.19680E-05 2.18504E-06 2.18523E-18-9.15387E-19
 -1      2999 8.86839E-05-1.33262E-05-3.23232E-05-2.05313E-06 4.24334E-19-2.70429E-18
 -1      3000 8.94384E-05-1.40762E-05-3.23196E-05-2.72533E-06 1.21965E-19-2.76055E-18
 -1      3001 3.58079E-05-1.52099E-05-8.29585E-06-1.75263E-05-4.37334E-19 4.30653E-18
 -1      3002 4.35923E-05-2.26163E-05-8.59359E-06-3.01734E-05 2.32934E-19 4.84058E-18
 -1      3003 5.63559E-05-2.55937E-05-1.26073E-05-3.07784E-05 1.17568E-18 1.77379E-18
 -1      3004 3.51721E-05-1.51832E-05-8.01393E-06-1.34726E-05-4.12982E-19-4.09117E-18
 -1      3005 4.31211E-05-2.10513E-05-8.95842E-06-2.63214E-05-9.89229E-19-3.46288E-18
 -1      3006 5.55947E-05-2.42137E-05-1.28857E-05-2.78001E-05-1.08526E-18-2.45809E-18
 -1      3007 5.78682E-05-3.02533E-05-1.15549E-05 3.63091E-05 1.72837E-18-3.31508E-18
 -1      3008 4.20442E-05-2.21257E-05-7.81033E-06 2.81666E-05 1.23984E-18-4.30017E-18
 -1      3009 1.38260E-04-5.62489E-05-3.49737E-05-1.89346E-06-1.66552E-18 3.08426E-19
 -1      3010 1.39869E-04-4.90568E-05-3.95413E-05 6.72756E-06-7.69529E-19 1.44779E-18
 -1      3011 9.52421E-05-2.85749E-05-2.85717E-05 3.31212E-08 1.49823E-18-8.77131E-19
 -1      3012 1.38455E-04-3.94837E-05-4.26033E-05 1.32456E-05 7.04626E-19 2.70436E-18
 -1      3013 1.33301E-04-3.00206E-05-4.50397E-05 1.46676E-05 1.91377E-18 3.34610E-18
 -1      3014 8.50781E-05-4.56859E-05-1.64251E-05-3.83486E-05-1.96787E-18-1.33757E-18
 -1      3015 1.04321E-04-5.46962E-05-2.14390E-05-3.52811E-05-1.80873E-18-1.07330E-18
 -1      3016 8.32226E-05-4.11596E-05-1.75235E-05-3.53005E-05-1.79211E-18-1.42016E-18
 -1      3017 1.19810E-04-5.91228E-05-2.55963E-05-2.57171E-05-1.64727E-18-6.64497E-19
 -1      3018 1.30937E-04-6.06513E-05-3.06396E-05-1.58972E-05-1.69025E-18-5.50360E-19
 -1      3019 1.43007E-04-4.30394E-05-4.34085E-05-9.48131E-06 3.07383E-18-1.47077E-18
 -1      3020 1.42441E-04-5.05474E-05-3.95162E-05-4.10668E-06 2.20049E-18-2.60166E-18
 -1      3021 9.56630E-05-5.03147E-05-1.94348E-05 3.86192E-05 1.25964E-18-6.20293E-19
 -1      3022 7.88396E-05-4.14749E-05-1.55927E-05 3.92375E-05 1.56532E-18-1.64758E-18
 -1      3023 1.32269E-04-2.23406E-05-4.76454E-05 1.18577E-05-1.71101E-18-1.82239E-18
 -1      3024 1.27664E-04-1.42054E-05-4.93585E-05 9.05168E-06-2.74693E-18-1.29982E-18
 -1      3025 1.36724E-04-3.81730E-05-4.25235E-05 9.21166E-06 3.71636E-20-1.68030E-18
 -1      3026 1.35563E-04-3.01214E-05-4.58633E-05 1.11837E-05-1.05085E-18-1.48114E-18
 -1      3027 1.27825E-04-2.62054E-05-4.38032E-05 1.33168E-05-1.32264E-18-1.98910E-18
 -1      3028 9.03550E-05-1.50843E-05-3.22861E-05-3.22194E-06-1.26505E-19-2.69569E-18
 -1      3029 9.13569E-05-1.61768E-05-3.22520E-05-3.90555E-06-4.91692E-19-2.76824E-18
 -1      3030 9.07776E-05-1.61605E-05-3.19541E-05-2.10475E-06-9.57255E-21-2.45463E-18
 -1      3031 8.77686E-05-1.30244E-05-3.20144E-05 2.08671E-07 1.21869E-18-2.13159E-18
 -1      3032 8.70264E-05-1.16479E-05-3.23267E-05-1.63215E-09 1.23106E-18-2.44140E-18
 -1      3033 8.72084E-05-1.18136E-05-3.23290E-05-5.71829E-07 1.10158E-18-2.65942E-18
 -1      3034 1.38784E-04-5.30742E-05-3.66826E-05-3.41380E-06 1.56967E-18-1.94691E-18
 -1      3035 1.37187E-04-3.91263E-05-4.22623E-05-1.34473E-05 2.75757E-18-5.88688E-20
 -1      3036 9.49915E-05-2.08745E-05-3.17750E-05 4.32735E-06 2.43920E-18 6.87989E-19
 -1      3037 1.33492E-04-4.31342E-05-3.88658E-05 8.44399E-06 6.29822E-19-1.86083E-18
 -1      3038 9.96983E-05-5.03682E-05-2.08474E-05 3.33224E-05-3.76887E-18-9.46321E-19
 -1      3039 8.97958E-05-4.37643E-05-1.94925E-05 3.35614E-05-3.99704E-18-4.74021E-19
 -1      3040 1.08996E-04-5.24162E-05-2.41838E-05 2.57665E-05-3.05009E-18-6.61367E-19
 -1      3041 9.52472E-05-2.85586E-05-2.85808E-05-1.71129E-08 4.09257E-19 1.26418E-18
 -1      3042 9.52486E-05-2.85715E-05-2.85760E-05-2.13061E-08 7.60558E-19 1.26598E-18
 -1      3043 9.52477E-05-2.85718E-05-2.85753E-05-2.48464E-08-1.09992E-19 1.07847E-18
 -1      3044 1.28435E-04-5.77719E-05-3.01913E-05 1.43643E-05-1.15726E-19 2.90448E-18
 -1      3045 1.06262E-04-5.26841E-05-2.26989E-05 3.12724E-05 1.26960E-18 5.36688E-19
 -1      3046 1.25336E-04-3.66837E-05-3.82793E-05 1.58079E-05 1.05921E-18 2.42079E-18
 -1      3047 1.30092E-04-4.17546E-05-3.81066E-05 1.37288E-05 4.86409E-19 2.06904E-18
 -1      3048 1.22641E-04-3.01461E-05-3.97876E-05 1.50056E-05 1.91890E-18 2.22500E-18
 -1      3049 1.25975E-04-1.41385E-05-4.85564E-05 5.18482E-06 2.63321E-18 2.79050E-18
 -1      3050 1.25195E-04-4.24601E-05-3.55566E-05-1.38399E-05 8.63034E-19-2.62613E-19
 -1      3051 1.23274E-04-3.79062E-05-3.66447E-05-1.51327E-05 1.08733E-18 2.08443E-19
 -1      3052 1.27645E-04-5.90392E-05-2.93273E-05 1.47600E-05-1.19511E-18-2.44173E-18
 -1      3053 9.49566E-05-2.15607E-05-3.14424E-05 2.54020E-06 2.27000E-18 3.52515E-19
 -1      3054 1.27064E-04-2.67001E-05-4.33051E-05 1.42319E-05 1.93716E-18 2.59330E-18
 -1      3055 1.28488E-04-2.01918E-05-4.68028E-05 1.27932E-05 2.02144E-18 3.06869E-18
 -1      3056 9.52470E-05-2.85744E-05-2.85740E-05-2.83552E-08-8.41688E-19-7.44484E-19
 -1      3057 9.52446E-05-2.85739E-05-2.85731E-05-3.09573E-08-8.54991E-19-2.26281E-19
 -1      3058 9.52436E-05-2.85684E-05-2.85750E-05-3.04425E-08-2.75521E-19-2.63418E-19
 -1      3059 9.52469E-05-2.85644E-05-2.85782E-05-2.42585E-08-3.20160E-19 7.84064E-19
 -1      3060 1.16004E-04-5.58301E-05-2.55882E-05-2.50728E-05 2.83513E-18-6.13569E-20
 -1      3061 1.35231E-04-2.69086E-05-4.69277E-05-1.08184E-05-4.16317E-18 2.53803E-18
 -1      3062 1.32543E-04-3.21276E-05-4.31959E-05-1.21116E-05-3.30173E-18 3.38368E-18
 -1      3063 1.27346E-04-2.13832E-05-4.60359E-05-1.22920E-05-4.45338E-18 2.95530E-18
 -1      3064 5.80081E-05-2.84905E-05-1.20387E-05 3.29122E-05-3.54812E-18 2.60378E-18
 -1      3065 5.36362E-05-2.22908E-05-1.29510E-05 2.66836E-05-3.22910E-18 1.67670E-18
 -1      3066 7.03836E-05-3.32058E-05-1.57336E-05 3.29630E-05-4.44036E-18 4.96361E-19
 -1      3067 9.52449E-05-2.85751E-05-2.85727E-05 3.03159E-08 1.25664E-18-7.95396E-19
 -1      3068 1.21668E-04-1.35977E-05-4.66645E-05 7.00123E-06-2.55190E-18-9.92193E-19
 -1      3069 4.24458E-05-1.83917E-05-9.65479E-06 2.12263E-05 1.30623E-18-4.33130E-18
 -1      3070 8.51645E-05-4.31196E-05-1.75710E-05-3.72847E-05 2.33855E-18-2.84974E-19
 -1      3071 3.79238E-05-1.32865E-05-9.89919E-06 9.11527E-06-1.13193E-18 2.16544E-18
 -1      3072 4.28631E-05-1.24432E-05-1.26197E-05 3.99066E-06-9.68291E-19 2.88499E-18
 -1      3073 4.44089E-05-1.55688E-05-1.20050E-05 1.62372E-05-1.76241E-18 2.31304E-18
 -1      3074 4.22360E-05-1.43380E-05-1.14043E-05-1.28970E-05-7.25934E-19 3.70344E-18
 -1      3075 1.32510E-04-5.72542E-05-3.22516E-05-6.35575E-06-1.47220E-18 1.65542E-19
 -1      3076 1.24511E-04-1.20804E-05-4.86530E-05-5.41540E-06-4.32283E-18 1.08201E-18
 -1      3077 1.38260E-04-4.83222E-05-3.86657E-05-3.42166E-06-1.95096E-18 3.20358E-18
 -1      3078 1.34526E-04-5.13638E-05-3.56519E-05-1.73492E-06-1.05466E-18 2.96345E-18
 -1      3079 1.34662E-04-4.24477E-05-4.00819E-05-8.23955E-06-2.32336E-18 3.43271E-18
 -1      3080 8.75612E-05-1.21859E-05-3.23280E-05-9.78380E-07 8.93519E-19-2.51167E-18
 -1      3081 8.80377E-05-1.26354E-05-3.23324E-05-1.59497E-06 5.83078E-19-2.62738E-18
 -1      3082 8.92033E-05-1.44920E-05-3.20003E-05-1.24997E-06 4.13015E-19-2.47775E-18
 -1      3083 8.81766E-05-1.34377E-05-3.20124E-05-4.77144E-07 8.71474E-19-2.37379E-18
 -1      3084 3.52009E-05-1.34383E-05-8.64068E-06-6.57139E-06 5.65130E-20-4.03251E-18
 -1      3085 4.32795E-05-1.46740E-05-1.17859E-05-1.25605E-05-4.00355E-20-3.52080E-18
 -1      3086 3.65789E-05-1.26046E-05-9.96580E-06 1.55219E-06 5.01728E-19-4.02214E-18
 -1      3087 7.13704E-05-3.53734E-05-1.49538E-05 3.72022E-05 1.97126E-18-2.29885E-18
 -1      3088 6.42250E-05-2.82963E-05-1.50464E-05 3.21410E-05 2.30541E-18-2.77636E-18
 -1      3089 8.30475E-05-3.92033E-05-1.85541E-05 3.42575E-05 2.16338E-18-1.46325E-18
 -1      3090 1.35033E-04-4.51628E-05-3.87518E-05 1.11433E-05-1.15779E-19 2.02430E-18
 -1      3091 9.52441E-05-2.85658E-05-2.85765E-05 2.81417E-08-9.36822E-20-1.77672E-18
 -1      3092 9.52463E-05-2.85706E-05-2.85754E-05 2.69036E-08 2.01047E-19-1.98875E-19
 -1      3093 9.52460E-05-2.85602E-05-2.85796E-05 2.25950E-08 1.38302E-19 7.35720E-19
 -1      3094 9.52440E-05-2.85601E-05-2.85786E-05 2.48380E-08-6.51186E-21-2.88014E-19
 -1      3095 1.12967E-04-5.55880E-05-2.43302E-05-2.73935E-05-1.78480E-18-8.80765E-19
 -1      3096 1.27634E-04-4.67581E-05-3.49133E-05-9.92176E-06 1.37166E-18-6.36075E-19
 -1      3097 1.29813E-04-4.60277E-05-3.58852E-05 7.27850E-06 1.36235E-18-2.09286E-18
 -1      3098 1.27766E-04-3.79005E-05-3.89397E-05 1.23033E-05 5.64653E-19-2.37722E-18
 -1      3099 9.36123E-05-2.02149E-05-3.14780E-05 1.68086E-06 2.15001E-18-1.06515E-19
 -1      3100 9.24805E-05-1.88363E-05-3.15732E-05 1.48311E-06 2.10937E-18-3.96881E-19
 -1      3101 5.47686E-05-2.00021E-05-1.45090E-05-2.22012E-05-4.63009E-19-2.32256E-18
 -1      3102 6.51657E-05-2.72566E-05-1.60595E-05-2.96822E-05-9.32901E-19-1.61053E-18
 -1      3103 9.57203E-05-2.55197E-05-3.00745E-05 4.22947E-06-5.56500E-19-1.48302E-18
 -1      3104 9.59123E-05-2.60660E-05-2.99339E-05 5.16970E-06-5.03375E-19-1.44295E-18
 -1      3105 9.60437E-05-2.65688E-05-2.97634E-05 6.04602E-06-5.55827E-19-1.26919E-18
 -1      3106 9.63590E-05-2.71283E-05-2.96662E-05 6.76197E-06-5.02928E-19-1.27705E-18
 -1      3107 9.51170E-05-2.55472E-05-2.98232E-05 5.64430E-06-4.61016E-19-1.46901E-18
 -1      3108 9.66078E-05-2.76935E-05-2.95214E-05 7.48566E-06-3.36756E-19-1.15397E-18
 -1      3109 9.71306E-05-2.83970E-05-2.94505E-05 7.98401E-06-1.91382E-19-9.40906E-19
 -1      3110 9.54832E-05-2.67310E-05-2.94791E-05 7.30963E-06-3.55311E-19-1.28179E-18
 -1      3111 9.76349E-05-2.91715E-05-2.93219E-05 8.54953E-06 2.26835E-20-7.79069E-19
 -1      3112 9.84596E-05-3.01455E-05-2.92702E-05 8.79131E-06 1.24694E-19-4.76746E-19
 -1      3113 9.62089E-05-2.81939E-05-2.91721E-05 8.69173E-06 1.18164E-19-1.14564E-18
 -1      3114 9.93852E-05-3.12680E-05-2.91617E-05 9.13956E-06 1.63941E-19-6.39702E-20
 -1      3115 1.00609E-04-3.26118E-05-2.91381E-05 9.03167E-06 1.69605E-19 7.93876E-20
 -1      3116 9.75943E-05-3.02541E-05-2.88967E-05 9.74755E-06 3.44423E-19-5.06072E-19
 -1      3117 1.02146E-04-3.41827E-05-2.90776E-05 9.02014E-06 1.64299E-19 3.09511E-19
 -1      3118 1.03828E-04-3.59065E-05-2.91160E-05 8.40625E-06 3.13316E-19 2.92207E-19
 -1      3119 9.99968E-05-3.31962E-05-2.86847E-05 1.03074E-05 2.56621E-19-1.52937E-19
 -1      3120 1.06130E-04-3.78984E-05-2.91702E-05 7.76880E-06 1.86881E-19 5.19584E-19
 -1      3121 1.08186E-04-3.97928E-05-2.93401E-05 6.44636E-06 1.24133E-19 4.07824E-19
 -1      3122 1.03780E-04-3.71493E-05-2.86330E-05 9.99159E-06 2.79826E-19 4.99812E-19
 -1      3123 1.11226E-04-4.18771E-05-2.96362E-05 4.77847E-06 1.37808E-19 7.18186E-19
 -1      3124 1.13276E-04-4.33030E-05-3.00474E-05 2.59221E-06 6.31834E-20 9.73822E-19
 -1      3125 1.09126E-04-4.18014E-05-2.89436E-05 8.12635E-06 2.98237E-19 1.07578E-18
 -1      3126 1.16480E-04-4.45445E-05-3.07742E-05-4.30422E-07-2.14073E-19 1.09538E-18
 -1      3127 1.17782E-04-4.43280E-05-3.15477E-05-3.26077E-06-3.39574E-19 1.09218E-18
 -1      3128 1.15515E-04-4.58221E-05-2.99676E-05 3.76321E-06 1.93314E-19 1.93565E-18
 -1      3129 1.20025E-04-4.34825E-05-3.28984E-05-7.25955E-06-6.02829E-19 1.20291E-18
 -1      3130 1.19399E-04-4.03283E-05-3.38852E-05-9.71151E-06-1.04638E-18 1.29964E-18
 -1      3131 1.21192E-04-4.63776E-05-3.21773E-05-3.34781E-06-4.74947E-19 1.62440E-18
 -1      3132 1.20782E-04-3.27479E-05-3.79339E-05-1.31633E-05-2.41039E-18 1.31286E-18
 -1      3133 1.18303E-04-2.63843E-05-3.96644E-05-1.28678E-05-2.95149E-18 1.01955E-18
 -1      3134 1.16055E-04-2.08225E-05-4.10787E-05-9.61497E-06-3.15837E-18 6.35434E-19
 -1      3135 1.12122E-04-1.40158E-05-4.24806E-05-2.21121E-06-2.45290E-18-3.78524E-19
 -1      3136 1.12246E-04-1.41887E-05-4.25212E-05 3.04528E-06-1.89524E-18-8.80130E-19
 -1      3137 1.14428E-04-1.81062E-05-4.15929E-05 9.51324E-06-1.63049E-18-1.72324E-18
 -1      3138 1.17062E-04-2.36414E-05-4.04077E-05 1.25815E-05-1.11245E-18-1.78046E-18
 -1      3139 1.18693E-04-3.33493E-05-3.66921E-05 1.27951E-05 3.04376E-19-1.69760E-18
 -1      3140 1.20635E-04-3.84888E-05-3.52610E-05 1.23535E-05 4.70593E-19-1.67953E-18
 -1      3141 1.19804E-04-4.22289E-05-3.33649E-05 8.34591E-06 4.08263E-19-6.20637E-19
 -1      3142 1.19874E-04-4.44229E-05-3.22285E-05 5.80852E-06 6.18083E-19-7.52688E-19
 -1      3143 1.24076E-04-4.49229E-05-3.40635E-05 7.37101E-06 9.82452E-19-1.94201E-18
 -1      3144 1.16860E-04-4.44835E-05-3.10536E-05 1.94073E-06 7.61433E-19-4.85687E-19
 -1      3145 1.15288E-04-4.41860E-05-3.03264E-05-9.03325E-07 8.78774E-19-6.70410E-19
 -1      3146 1.19297E-04-4.76361E-05-3.08474E-05-8.48013E-07 1.00375E-18-3.97900E-19
 -1      3147 1.11786E-04-4.22797E-05-2.97659E-05-3.24421E-06 1.02007E-18-6.41052E-19
 -1      3148 1.09573E-04-4.07277E-05-2.93879E-05-5.36386E-06 1.07691E-18-5.90274E-19
 -1      3149 1.12129E-04-4.45101E-05-2.91457E-05-6.64030E-06 8.55698E-19-2.22962E-19
 -1      3150 1.06625E-04-3.84118E-05-2.91956E-05-6.38091E-06 6.01446E-19-3.87346E-19
 -1      3151 1.04526E-04-3.66004E-05-2.90385E-05-7.61978E-06 2.69216E-19-1.05010E-19
 -1      3152 1.05621E-04-3.95199E-05-2.84742E-05-9.37442E-06 9.87359E-19-4.67211E-19
 -1      3153 1.02426E-04-3.46041E-05-2.90283E-05-7.80062E-06 1.87667E-19 7.06255E-20
 -1      3154 1.00760E-04-3.30446E-05-2.89838E-05-8.34582E-06 4.35579E-19-3.29376E-19
 -1      3155 1.00753E-04-3.48425E-05-2.83471E-05-1.00403E-05 3.11970E-19 1.00987E-19
 -1      3156 9.94219E-05-3.15848E-05-2.90435E-05-8.09147E-06 8.22984E-19-5.82554E-19
 -1      3157 9.82285E-05-3.04317E-05-2.90417E-05-8.17569E-06 9.51191E-19-7.69629E-19
 -1      3158 9.75473E-05-3.12899E-05-2.84554E-05-9.60861E-06 4.76202E-19 8.56177E-19
 -1      3159 9.74565E-05-2.94799E-05-2.91126E-05-7.72176E-06 1.10564E-18-2.53967E-19
 -1      3160 9.66546E-05-2.87148E-05-2.91159E-05-7.52839E-06 9.64761E-19 2.29445E-19
 -1      3161 9.56337E-05-2.89019E-05-2.86299E-05-8.68647E-06 1.17626E-18 4.10598E-19
 -1      3162 9.62616E-05-2.81627E-05-2.91724E-05-7.00188E-06 5.14860E-19-3.78591E-20
 -1      3163 9.57442E-05-2.77048E-05-2.91652E-05-6.65764E-06 2.78241E-19 2.27360E-20
 -1      3164 9.46114E-05-2.74636E-05-2.87903E-05-7.59065E-06 7.77254E-19 2.60071E-19
 -1      3165 9.55867E-05-2.74361E-05-2.91995E-05-6.12482E-06 3.37193E-19 3.07472E-19
 -1      3166 9.52610E-05-2.71973E-05-2.91785E-05-5.71296E-06 2.73623E-19 9.25722E-19
 -1      3167 9.41560E-05-2.67136E-05-2.89063E-05-6.47616E-06 5.58061E-19 1.01847E-18
 -1      3168 9.52391E-05-2.71144E-05-2.91915E-05-5.20879E-06-9.26568E-20 1.16011E-18
 -1      3169 9.50365E-05-2.70201E-05-2.91590E-05-4.78261E-06 2.33731E-19 7.11288E-19
 -1      3170 9.40364E-05-2.64255E-05-2.89733E-05-5.41808E-06 2.06801E-19 9.49129E-19
 -1      3171 9.50853E-05-2.70496E-05-2.91552E-05-4.32525E-06 1.89345E-19 5.23016E-19
 -1      3172 9.49591E-05-2.70438E-05-2.91153E-05-3.91759E-06 1.17058E-19 5.38919E-19
 -1      3173 9.40992E-05-2.64256E-05-2.89980E-05-4.45301E-06 2.23708E-19 7.77981E-19
 -1      3174 9.50387E-05-2.71344E-05-2.90998E-05-3.51549E-06-7.77984E-20 5.01456E-19
 -1      3175 9.49592E-05-2.71781E-05-2.90569E-05-3.14514E-06 1.41967E-19 1.57159E-19
 -1      3176 9.42480E-05-2.65899E-05-2.89907E-05-3.59788E-06 2.73611E-19 5.41574E-19
 -1      3177 9.50463E-05-2.72959E-05-2.90344E-05-2.80062E-06-3.27632E-20-4.27892E-19
 -1      3178 9.49950E-05-2.73633E-05-2.89917E-05-2.47672E-06-4.02861E-19-1.28568E-19
 -1      3179 9.44253E-05-2.68347E-05-2.89622E-05-2.85815E-06-6.44664E-19-4.24344E-19
 -1      3180 9.50772E-05-2.74871E-05-2.89660E-05-2.18813E-06-6.62015E-19-2.68200E-19
 -1      3181 9.50431E-05-2.75621E-05-2.89260E-05-1.91327E-06-4.56067E-19-2.85333E-19
 -1      3182 9.45995E-05-2.71062E-05-2.89211E-05-2.23184E-06-5.65054E-19-1.56638E-18
 -1      3183 9.51146E-05-2.76796E-05-2.88998E-05-1.67645E-06-1.10851E-19 3.64139E-20
 -1      3184 9.50911E-05-2.77528E-05-2.88637E-05-1.44906E-06-2.77312E-19-3.52054E-19
 -1      3185 9.47548E-05-2.73720E-05-2.88746E-05-1.71201E-06-1.04293E-19-1.19500E-18
 -1      3186 9.51500E-05-2.78576E-05-2.88388E-05-1.25840E-06-1.76267E-19 2.63255E-19
 -1      3187 9.51333E-05-2.79239E-05-2.88075E-05-1.07445E-06-1.55207E-19 7.56010E-19
 -1      3188 9.48848E-05-2.76144E-05-2.88273E-05-1.28857E-06 1.02070E-19 3.49233E-19
 -1      3189 9.51798E-05-2.80135E-05-2.87848E-05-9.23740E-07-4.63422E-19 9.41217E-19
 -1      3190 9.51675E-05-2.80708E-05-2.87584E-05-7.77938E-07-8.25268E-19 1.37563E-18
 -1      3191 9.49890E-05-2.78249E-05-2.87824E-05-9.49784E-07-2.34408E-19 6.56275E-19
 -1      3192 9.52029E-05-2.81448E-05-2.87386E-05-6.60907E-07-1.06398E-18 2.32574E-18
 -1      3193 9.51938E-05-2.81925E-05-2.87168E-05-5.47556E-07-8.40407E-19 2.09994E-18
 -1      3194 9.50694E-05-2.80015E-05-2.87418E-05-6.83442E-07-6.85114E-19 9.32423E-19
 -1      3195 9.52198E-05-2.82521E-05-2.86999E-05-4.58298E-07-7.92223E-19 1.53728E-18
 -1      3196 9.52129E-05-2.82908E-05-2.86824E-05-3.71835E-07-4.22431E-19 1.25993E-18
 -1      3197 9.51294E-05-2.81453E-05-2.87064E-05-4.77663E-07-1.33245E-18 2.17633E-18
 -1      3198 9.52314E-05-2.83376E-05-2.86683E-05-3.05021E-07 3.67660E-20 1.47526E-18
 -1      3199 9.52261E-05-2.83682E-05-2.86544E-05-2.40346E-07 7.88806E-19 1.96924E-18
 -1      3200 9.51725E-05-2.82596E-05-2.86762E-05-3.21483E-07 5.74337E-19 2.61636E-18
 -1      3201 9.52386E-05-2.84043E-05-2.86429E-05-1.91352E-07 9.52455E-19 1.84739E-18
 -1      3202 9.52347E-05-2.84281E-05-2.86321E-05-1.44003E-07 5.05150E-19 1.29868E-18
 -1      3203 9.52023E-05-2.83486E-05-2.86511E-05-2.05171E-07 1.07225E-18 1.49127E-18
 -1      3204 9.52427E-05-2.84554E-05-2.86229E-05-1.08947E-07-2.35665E-19 4.49671E-19
 -1      3205 9.52398E-05-2.84737E-05-2.86145E-05-7.51643E-08-2.11191E-19 4.02596E-19
 -1      3206 9.52219E-05-2.84167E-05-2.86305E-05-1.20402E-07-4.57829E-19-7.40565E-19
 -1      3207 9.52446E-05-2.84941E-05-2.86071E-05-5.08743E-08 8.28140E-20-6.68228E-20
 -1      3208 9.52425E-05-2.85082E-05-2.86007E-05-2.76178E-08-4.45052E-19 6.66725E-19
 -1      3209 9.52341E-05-2.84681E-05-2.86138E-05-6.02434E-08-3.46625E-19-1.37542E-18
 -1      3210 9.52452E-05-2.85236E-05-2.85948E-05-1.15458E-08-4.37968E-19 7.20978E-19
 -1      3211 9.52439E-05-2.85347E-05-2.85898E-05 3.30789E-09-2.51478E-19 1.02082E-18
 -1      3212 9.52409E-05-2.85068E-05-2.86003E-05-1.90542E-08-3.31584E-19-7.68504E-19
 -1      3213 9.52447E-05-2.85439E-05-2.85859E-05 1.10271E-08-6.46774E-19 1.55214E-18
 -1      3214 9.52441E-05-2.85531E-05-2.85819E-05 1.99495E-08 1.80384E-19 2.75585E-19
 -1      3215 9.52453E-05-2.85525E-05-2.85827E-05 1.85972E-08-7.05574E-19-5.04393E-19
 -1      3216 9.52441E-05-2.85334E-05-2.85902E-05 4.71982E-09-4.84843E-19 3.72247E-19
 -1      3217 1.00549E-04-3.24395E-05-2.91651E-05-1.31493E-05-7.53231E-21 1.35171E-19
 -1      3218 9.88682E-05-3.06401E-05-2.92095E-05-1.30553E-05 2.83597E-19-1.41338E-19
 -1      3219 9.79883E-05-2.93622E-05-2.93897E-05-1.23199E-05 4.72434E-19-2.06307E-19
 -1      3220 9.69713E-05-2.82677E-05-2.94327E-05-1.18559E-05 3.43300E-19-1.13771E-19
 -1      3221 9.57328E-05-2.89789E-05-2.86494E-05-1.35520E-05 3.53156E-19-4.12819E-19
 -1      3222 1.11945E-04-4.37442E-05-2.92373E-05-1.10566E-05-8.93011E-19 6.81058E-19
 -1      3223 1.08359E-04-4.04208E-05-2.89931E-05-1.27414E-05-5.00669E-19 4.40897E-19
 -1      3224 1.21012E-04-5.01074E-05-3.04712E-05-5.82470E-06-1.52129E-18 9.48257E-19
 -1      3225 1.17050E-04-4.74189E-05-2.96760E-05-9.07830E-06-1.13367E-18 9.76735E-19
 -1      3226 1.11718E-04-4.62808E-05-2.81695E-05-1.46118E-05-1.15144E-18 4.09937E-19
 -1      3227 1.30109E-04-3.69171E-05-4.02775E-05-1.61219E-05 1.80619E-18 4.52263E-19
 -1      3228 1.31482E-04-5.81154E-05-3.17660E-05 6.59985E-06 4.05729E-19-1.69849E-18
 -1      3229 1.22233E-04-5.61421E-05-2.81609E-05 1.53606E-05-1.16636E-18-9.13767E-19
 -1      3230 1.22850E-04-5.13727E-05-3.06473E-05 5.38931E-06 1.99622E-19-2.47021E-19
 -1      3231 1.27111E-04-5.24553E-05-3.19254E-05 6.32464E-07 9.96323E-19-1.90794E-19
 -1      3232 9.98137E-05-3.15691E-05-2.92070E-05 1.22696E-05-1.52409E-18 1.89667E-18
 -1      3233 1.01759E-04-3.36221E-05-2.91759E-05 1.22229E-05-1.79129E-18 1.65118E-18
 -1      3234 9.74415E-05-2.88081E-05-2.94002E-05 1.12143E-05-1.17536E-18 1.04230E-18
 -1      3235 9.86391E-05-3.00590E-05-2.93689E-05 1.15829E-05-9.94570E-19 1.86780E-18
 -1      3236 9.61007E-05-2.97317E-05-2.84913E-05 1.30323E-05-1.05986E-18 1.70482E-18
 -1      3237 9.62324E-05-2.73410E-05-2.95242E-05 9.85202E-06-6.32680E-19 1.16249E-18
 -1      3238 9.69482E-05-2.80144E-05-2.95244E-05 1.04211E-05-1.07332E-18 9.87884E-19
 -1      3239 9.45461E-05-2.72970E-05-2.88421E-05 1.13783E-05-6.31354E-19 4.66311E-19
 -1      3240 9.56706E-05-2.67040E-05-2.95627E-05 8.42118E-06 2.20603E-19 1.63180E-18
 -1      3241 9.61030E-05-2.70101E-05-2.95961E-05 9.06463E-06-1.38441E-20 1.08415E-18
 -1      3242 9.39859E-05-2.61297E-05-2.90876E-05 9.73237E-06-6.61911E-19 1.14270E-18
 -1      3243 9.54382E-05-2.65513E-05-2.95309E-05 7.04134E-06 5.92482E-19 1.12283E-18
 -1      3244 9.57128E-05-2.66433E-05-2.95884E-05 7.68481E-06 5.44921E-19 1.71941E-18
 -1      3245 9.39279E-05-2.57389E-05-2.92234E-05 8.19145E-06 3.39316E-19 3.66279E-19
 -1      3246 9.53575E-05-2.66551E-05-2.94522E-05 5.77506E-06 1.90370E-18 9.72315E-19
 -1      3247 9.55455E-05-2.66326E-05-2.95229E-05 6.37595E-06 9.72437E-19 9.26790E-19
 -1      3248 9.40886E-05-2.57834E-05-2.92707E-05 6.79039E-06 9.74345E-19 5.37769E-19
 -1      3249 9.53373E-05-2.68764E-05-2.93481E-05 4.65312E-06 1.57476E-18 1.10531E-18
 -1      3250 9.54764E-05-2.67998E-05-2.94229E-05 5.18926E-06 2.08888E-18 1.32877E-18
 -1      3251 9.43175E-05-2.60457E-05-2.92560E-05 5.54385E-06 1.53727E-18 4.78300E-19
 -1      3252 9.53352E-05-2.71360E-05-2.92349E-05 3.68628E-06 2.50253E-19 9.66114E-19
 -1      3253 9.54440E-05-2.70396E-05-2.93074E-05 4.14886E-06 1.24094E-18 1.22571E-18
 -1      3254 9.45423E-05-2.63955E-05-2.92030E-05 4.45697E-06 1.37740E-18 1.38847E-18
 -1      3255 9.53340E-05-2.73920E-05-2.91235E-05 2.87231E-06-7.14821E-19-2.29998E-19
 -1      3256 9.54218E-05-2.72942E-05-2.91899E-05 3.26099E-06-5.84724E-19 3.38687E-19
 -1      3257 9.47342E-05-2.67598E-05-2.91298E-05 3.52773E-06 5.88022E-19 1.03337E-18
 -1      3258 9.53288E-05-2.76242E-05-2.90207E-05 2.20084E-06-6.73389E-19-1.54877E-18
 -1      3259 9.54002E-05-2.75339E-05-2.90790E-05 2.52030E-06-7.95819E-19-1.14436E-18
 -1      3260 9.48859E-05-2.71009E-05-2.90494E-05 2.74814E-06-4.57212E-19 2.18307E-19
 -1      3261 9.53197E-05-2.78248E-05-2.89299E-05 1.65701E-06-1.08372E-19-1.74316E-18
 -1      3262 9.53774E-05-2.77457E-05-2.89794E-05 1.91457E-06-4.93029E-19-1.91240E-18
 -1      3263 9.50001E-05-2.74018E-05-2.89700E-05 2.10579E-06-1.03177E-19-2.24018E-18
 -1      3264 9.53081E-05-2.79926E-05-2.88522E-05 1.22398E-06 1.79866E-19-1.27464E-18
 -1      3265 9.53541E-05-2.79257E-05-2.88933E-05 1.42804E-06-1.60537E-19-1.55187E-18
 -1      3266 9.50831E-05-2.76573E-05-2.88965E-05 1.58555E-06-7.48364E-19-2.14308E-18
 -1      3267 9.52958E-05-2.81296E-05-2.87876E-05 8.84749E-07 8.74470E-19 1.11267E-18
 -1      3268 9.53319E-05-2.80745E-05-2.88208E-05 1.04379E-06 7.11849E-19-1.60511E-19
 -1      3269 9.51416E-05-2.78685E-05-2.88313E-05 1.17110E-06-3.67671E-19-4.67930E-19
 -1      3270 9.52841E-05-2.82395E-05-2.87350E-05 6.23220E-07 1.13890E-20 1.77750E-18
 -1      3271 9.53117E-05-2.81949E-05-2.87614E-05 7.45178E-07 3.45760E-19 1.17107E-18
 -1      3272 9.51818E-05-2.80393E-05-2.87755E-05 8.46222E-07-2.32525E-19 1.81414E-18
 -1      3273 9.52736E-05-2.83261E-05-2.86930E-05 4.24839E-07-4.90931E-20 1.11999E-18
 -1      3274 9.52943E-05-2.82905E-05-2.87135E-05 5.16839E-07 2.79687E-19 1.82392E-18
 -1      3275 9.52086E-05-2.81751E-05-2.87289E-05 5.95601E-07 3.95665E-20 1.74610E-18
 -1      3276 9.52647E-05-2.83933E-05-2.86600E-05 2.76903E-07 9.08996E-20-2.12539E-18
 -1      3277 9.52798E-05-2.83654E-05-2.86758E-05 3.45106E-07 2.60482E-19-3.33001E-19
 -1      3278 9.52258E-05-2.82813E-05-2.86908E-05 4.05408E-07 8.04960E-19-3.61024E-19
 -1      3279 9.52575E-05-2.84448E-05-2.86346E-05 1.68644E-07 4.14430E-19-2.90275E-18
 -1      3280 9.52682E-05-2.84232E-05-2.86465E-05 2.18225E-07 1.64527E-19-2.35597E-18
 -1      3281 9.52363E-05-2.83630E-05-2.86603E-05 2.63554E-07 8.11075E-19-2.20813E-18
 -1      3282 9.52519E-05-2.84839E-05-2.86153E-05 9.11634E-08 1.25010E-18-3.94123E-18
 -1      3283 9.52592E-05-2.84673E-05-2.86241E-05 1.26358E-07 6.38542E-19-3.70240E-18
 -1      3284 9.52422E-05-2.84251E-05-2.86361E-05 1.59773E-07 1.15297E-18-3.75066E-18
 -1      3285 9.52477E-05-2.85135E-05-2.86007E-05 3.73371E-08 3.91987E-19-2.63876E-18
 -1      3286 9.52524E-05-2.85007E-05-2.86071E-05 6.14966E-08 1.26561E-18-3.07747E-18
 -1      3287 9.52450E-05-2.84719E-05-2.86173E-05 8.55629E-08 7.89990E-19-3.33348E-18
 -1      3288 9.52448E-05-2.85360E-05-2.85897E-05 1.67085E-09 4.88686E-19-2.86014E-18
 -1      3289 9.52476E-05-2.85260E-05-2.85944E-05 1.73907E-08-1.51318E-19-2.83682E-18
 -1      3290 9.52459E-05-2.85069E-05-2.86026E-05 3.42125E-08 8.98278E-20-1.43122E-18
 -1      3291 9.52432E-05-2.85535E-05-2.85813E-05-1.99882E-08 8.26561E-19-2.80958E-18
 -1      3292 9.52445E-05-2.85456E-05-2.85849E-05-1.09549E-08 4.85934E-19-2.77565E-18
 -1      3293 9.52457E-05-2.85334E-05-2.85911E-05 3.24796E-10 4.24341E-19-2.68489E-18
 -1      3294 9.52437E-05-2.85634E-05-2.85772E-05-2.75275E-08 3.03332E-19-6.54970E-19
 -1      3295 9.52430E-05-2.85582E-05-2.85790E-05-2.46079E-08 9.22423E-19-1.86343E-18
 -1      3296 9.52456E-05-2.85504E-05-2.85838E-05-1.70885E-08 1.44802E-19-2.56923E-18
 -1      3297 9.52459E-05-2.85619E-05-2.85790E-05-2.48136E-08-4.81900E-19-1.05508E-18
 -1      3298 1.30276E-04-5.09989E-05-3.39960E-05-4.36512E-06 7.92631E-19-6.19128E-19
 -1      3299 9.52395E-05-2.85322E-05-2.85889E-05 4.12015E-09 3.98432E-20 1.86422E-18
 -1      3300 9.52387E-05-2.85308E-05-2.85892E-05 2.15987E-09 6.33133E-19 4.27975E-19
 -1      3301 9.52451E-05-2.85473E-05-2.85848E-05 1.39473E-08-4.32073E-19 9.29570E-19
 -1      3302 9.52446E-05-2.85443E-05-2.85860E-05 1.06220E-08-5.45459E-19 6.38091E-19
 -1      3303 9.52382E-05-2.85295E-05-2.85895E-05 1.51442E-09 3.36541E-19-7.97376E-19
 -1      3304 9.52383E-05-2.85296E-05-2.85895E-05-2.82327E-10 5.36744E-19 1.48420E-19
 -1      3305 9.52342E-05-2.85118E-05-2.85950E-05 7.27355E-10 1.00838E-18-5.50323E-19
 -1      3306 9.57226E-05-2.55076E-05-3.00887E-05-5.65870E-06 9.16838E-19 1.18511E-19
 -1      3307 9.56309E-05-2.51704E-05-3.01894E-05-4.53193E-06 9.43922E-19 2.02008E-19
 -1      3308 1.27428E-04-5.52021E-05-3.07098E-05-7.94660E-06 2.52685E-18-9.09237E-20
 -1      3309 1.29722E-04-5.29461E-05-3.33190E-05-1.14226E-06 1.70004E-18-1.07952E-18
 -1      3310 9.52425E-05-2.85387E-05-2.85873E-05 8.00692E-09-7.97689E-19 1.42964E-18
 -1      3311 9.52413E-05-2.85361E-05-2.85881E-05 5.43090E-09-1.20107E-18 1.79048E-18
 -1      3312 9.52367E-05-2.85171E-05-2.85939E-05 1.67753E-09 1.06968E-18 1.12822E-18
 -1      3313 9.52412E-05-2.85268E-05-2.85916E-05 4.60686E-09-1.86702E-19 1.33483E-18
 -1      3314 1.05830E-04-5.06914E-05-2.32242E-05-2.83699E-05-1.88004E-18-1.14311E-18
 -1      3315 1.17491E-04-5.59126E-05-2.67276E-05-2.14487E-05-1.50179E-18-6.22940E-19
 -1      3316 1.04060E-04-3.60941E-05-2.90422E-05 1.25450E-05-2.54398E-18 1.88946E-18
 -1      3317 1.06998E-04-3.90395E-05-2.91065E-05 1.17243E-05-2.12487E-18 1.32825E-18
 -1      3318 9.93981E-05-3.40012E-05-2.81110E-05 1.44087E-05-2.08984E-18 2.13924E-18
 -1      3319 1.11016E-04-4.26174E-05-2.91847E-05 1.10403E-05-1.42967E-18 4.17650E-19
 -1      3320 1.15081E-04-4.59059E-05-2.96005E-05 8.84401E-06-7.45654E-19 4.78711E-19
 -1      3321 1.05481E-04-4.05533E-05-2.79330E-05 1.49009E-05-2.35718E-18 1.59533E-18
 -1      3322 1.12755E-04-5.43745E-05-2.52689E-05 2.56006E-05 1.12242E-18 1.37766E-18
 -1      3323 9.99250E-05-4.78807E-05-2.20340E-05 3.09342E-05 1.57643E-18 3.18326E-19
 -1      3324 1.18473E-04-2.33909E-05-4.13661E-05-1.29605E-05 2.64830E-18 1.13558E-18
 -1      3325 1.29283E-04-1.65118E-05-4.88010E-05-8.73804E-06 3.22084E-18 1.96861E-18
 -1      3326 9.55814E-05-2.32140E-05-3.10185E-05 7.01556E-07 1.94508E-18 3.72855E-19
 -1      3327 9.44414E-05-2.13552E-05-3.13142E-05 1.32293E-06 2.06000E-18 1.39457E-19
 -1      3328 9.42804E-05-2.17634E-05-3.10590E-05-4.62813E-08 1.86206E-18-4.71720E-21
 -1      3329 9.56975E-05-2.40106E-05-3.07273E-05-9.84796E-07 1.71727E-18 3.14346E-19
 -1      3330 1.05013E-04-3.72579E-05-2.90165E-05-1.30239E-05-1.85245E-19 2.06534E-19
 -1      3331 1.02412E-04-3.45939E-05-2.89970E-05-1.35966E-05-7.69005E-20 1.61648E-19
 -1      3332 9.83219E-05-3.26539E-05-2.82176E-05-1.50473E-05-1.04898E-19-2.55751E-19
 -1      3333 1.03325E-04-3.84384E-05-2.79119E-05-1.58109E-05-5.03101E-19 2.44177E-19
 -1      3334 4.54860E-05-1.29221E-05-1.36723E-05-8.36302E-06-1.12989E-18 2.97658E-18
 -1      3335 4.88661E-05-1.58435E-05-1.37572E-05-1.80118E-05-1.20279E-19 3.05779E-18
 -1      3336 9.57957E-05-2.60192E-05-2.98960E-05-7.66297E-06 7.71231E-19-2.61308E-20
 -1      3337 9.56139E-05-2.57305E-05-2.99458E-05-6.70572E-06 9.07959E-19 1.03290E-19
 -1      3338 9.46207E-05-2.46632E-05-2.99834E-05-6.09393E-06 9.79672E-19-1.65762E-19
 -1      3339 1.32105E-04-2.13340E-05-4.81335E-05-1.33987E-05 3.47294E-18 1.37368E-18
 -1      3340 1.29462E-04-5.56815E-05-3.19678E-05 6.73519E-06-4.33787E-19 3.04990E-18
 -1      3341 1.23123E-04-5.63985E-05-2.83218E-05 1.62296E-05 7.02905E-20 2.55973E-18
 -1      3342 7.86374E-05-3.56945E-05-1.80175E-05-3.25449E-05-1.49544E-18-1.38977E-18
 -1      3343 9.31596E-05-4.49185E-05-2.07363E-05-3.29301E-05-1.55769E-18-1.33720E-18
 -1      3344 1.00946E-04-4.59236E-05-2.33176E-05-2.70321E-05-1.31317E-18-1.02192E-18
 -1      3345 9.54228E-05-2.42388E-05-3.04974E-05 1.99263E-06-5.28991E-19-1.82324E-18
 -1      3346 9.55897E-05-2.49267E-05-3.02880E-05 3.18729E-06-5.37274E-19-1.67958E-18
 -1      3347 9.48675E-05-2.43399E-05-3.02304E-05 3.66839E-06-4.32915E-19-1.79360E-18
 -1      3348 9.22390E-05-1.72148E-05-3.21771E-05-4.24342E-06-6.45530E-19-2.80925E-18
 -1      3349 9.32796E-05-1.84758E-05-3.20919E-05-4.70727E-06-8.64946E-19-2.78506E-18
 -1      3350 9.42801E-05-2.03968E-05-3.16326E-05-3.18969E-06-8.92814E-19-2.51180E-18
 -1      3351 9.26088E-05-1.82573E-05-3.18334E-05-2.80108E-06-5.39759E-19-2.54168E-18
 -1      3352 1.32677E-04-4.93041E-05-3.56378E-05 8.85357E-06-7.84591E-19 1.24530E-18
 -1      3353 1.27682E-04-5.70645E-05-2.99262E-05-1.06259E-05-1.40441E-18-4.83868E-20
 -1      3354 1.31653E-04-5.42308E-05-3.35691E-05 3.51054E-07-1.21249E-18 4.07079E-19
 -1      3355 5.68022E-05-2.18094E-05-1.46979E-05-2.60882E-05 7.84855E-19 1.62757E-18
 -1      3356 6.80307E-05-3.03882E-05-1.59292E-05-3.33694E-05 1.29813E-18-6.30140E-19
 -1      3357 8.02829E-05-3.75124E-05-1.79611E-05-3.41696E-05 1.44099E-18-5.78312E-19
 -1      3358 9.53173E-05-4.62366E-05-2.12088E-05-3.29975E-05 1.98836E-18 2.85874E-20
 -1      3359 8.02563E-05-3.39340E-05-1.94965E-05-2.98017E-05 1.04082E-18-4.93317E-19
 -1      3360 1.09034E-04-5.21310E-05-2.40168E-05-2.68295E-05 2.35356E-18 2.05611E-19
 -1      3361 1.20405E-04-5.59297E-05-2.79451E-05-1.78840E-05 2.57188E-18 3.60737E-19
 -1      3362 1.03587E-04-4.73866E-05-2.38254E-05-2.57934E-05 2.00961E-18 1.62392E-19
 -1      3363 1.34481E-04-4.59191E-05-3.83800E-05-1.29408E-05 1.39033E-18-8.19875E-19
 -1      3364 8.85917E-05-1.46579E-05-3.17014E-05 7.10370E-07 1.62372E-18-1.58605E-18
 -1      3365 8.82890E-05-1.43533E-05-3.17019E-05 4.46307E-07 1.38324E-18-1.74515E-18
 -1      3366 4.99709E-05-1.94298E-05-1.28344E-05 2.35080E-05 1.76583E-18-3.62276E-18
 -1      3367 4.12523E-05-1.41706E-05-1.08887E-05 1.36155E-05 1.26106E-18-4.13267E-18
 -1      3368 1.28719E-04-5.10486E-05-3.34290E-05 3.44803E-06-7.32496E-19 8.10505E-19
 -1      3369 8.81653E-05-1.42320E-05-3.17022E-05 3.92626E-07 1.22831E-18-1.93801E-18
 -1      3370 8.82137E-05-1.42727E-05-3.17019E-05 1.17623E-07 1.02575E-18-2.13040E-18
 -1      3371 8.87219E-05-1.54156E-05-3.13918E-05 3.07658E-07 1.18310E-18-1.76022E-18
 -1      3372 9.24422E-05-1.93790E-05-3.12866E-05 3.37843E-07 1.90101E-18-5.12317E-19
 -1      3373 9.14409E-05-1.76735E-05-3.16325E-05 1.39099E-06 2.07179E-18-7.90619E-19
 -1      3374 9.05121E-05-1.66639E-05-3.16671E-05 1.11396E-06 1.94087E-18-1.06103E-18
 -1      3375 7.66716E-05-3.12426E-05-1.91224E-05-2.81998E-05-9.36024E-19-1.26356E-18
 -1      3376 1.17414E-04-5.48505E-05-2.66647E-05 2.01167E-05-1.49827E-18-4.67377E-19
 -1      3377 1.10069E-04-5.06808E-05-2.51999E-05 2.26482E-05-1.73764E-18 9.45504E-19
 -1      3378 1.21147E-04-5.39262E-05-2.88577E-05 1.25418E-05 5.18014E-20-1.24441E-20
 -1      3379 1.20999E-04-5.35594E-05-2.89423E-05-1.19819E-05 2.10599E-18 4.88169E-19
 -1      3380 9.32686E-05-4.24680E-05-2.18297E-05 2.89213E-05-3.28368E-18 1.09527E-18
 -1      3381 8.27986E-05-3.82083E-05-1.86203E-05 3.27966E-05-3.93060E-18-3.84659E-19
 -1      3382 7.50273E-05-3.15180E-05-1.83799E-05 2.93919E-05-3.07902E-18-1.58236E-19
 -1      3383 4.94424E-05-1.46371E-05-1.47237E-05-1.12953E-05 4.59740E-19-2.84667E-18
 -1      3384 5.17793E-05-1.70985E-05-1.44347E-05-1.79443E-05-1.04820E-20-2.62114E-18
 -1      3385 6.10079E-05-1.99027E-05-1.73338E-05-1.96230E-05-6.57245E-20-1.75881E-18
 -1      3386 9.52454E-05-2.85450E-05-2.85861E-05-1.02091E-08-4.49849E-19 9.34421E-19
 -1      3387 9.52461E-05-2.85481E-05-2.85848E-05-1.37103E-08-5.65013E-19 2.40647E-18
 -1      3388 9.51193E-05-2.29512E-05-3.09125E-05-4.23526E-08-4.55550E-19-2.07262E-18
 -1      3389 9.52560E-05-2.36253E-05-3.07034E-05 1.06723E-06-4.16260E-19-1.95765E-18
 -1      3390 9.45641E-05-2.30048E-05-3.06682E-05 1.64645E-06-3.92012E-19-1.88719E-18
 -1      3391 1.25594E-04-3.80148E-05-3.77346E-05-1.15797E-05-2.26285E-18 2.24525E-18
 -1      3392 1.23174E-04-2.68680E-05-4.15815E-05 1.41600E-05-7.37448E-19-3.03354E-18
 -1      3393 1.16956E-04-2.97663E-05-3.74893E-05 1.35991E-05 1.07256E-19-1.86422E-18
 -1      3394 5.97379E-05-2.01388E-05-1.66110E-05-2.12795E-05 1.77215E-19 1.37272E-18
 -1      3395 9.46263E-05-2.15160E-05-3.13456E-05-1.92090E-06-7.43237E-19-2.38554E-18
 -1      3396 9.60379E-05-2.66045E-05-2.97447E-05-9.44203E-06 4.81576E-19-2.42815E-20
 -1      3397 9.57003E-05-2.62255E-05-2.97729E-05-8.61858E-06 5.96985E-19-3.23060E-20
 -1      3398 9.44147E-05-2.51672E-05-2.96810E-05-8.13573E-06 6.20471E-19-3.41567E-19
 -1      3399 4.63640E-05-1.21313E-05-1.41669E-05-2.59987E-06-1.29001E-18 3.54838E-18
 -1      3400 5.18661E-05-1.34915E-05-1.62359E-05-7.18910E-06-6.58462E-19 2.57053E-18
 -1      3401 4.88069E-05-1.28433E-05-1.52050E-05 3.98255E-06-1.38529E-18 3.02555E-18
 -1      3402 9.46293E-05-2.68924E-05-2.90488E-05-1.18297E-05 2.80505E-19-3.70987E-19
 -1      3403 9.66574E-05-2.75833E-05-2.95862E-05-1.10147E-05 2.39684E-19-4.57220E-20
 -1      3404 9.60638E-05-2.69521E-05-2.96157E-05-1.03369E-05 3.83887E-19-1.79059E-19
 -1      3405 1.26207E-04-5.15557E-05-3.17846E-05-1.07910E-06-1.52798E-18 9.43674E-19
 -1      3406 1.26727E-04-4.77399E-05-3.39532E-05 4.54481E-06 1.54034E-18-1.94534E-18
 -1      3407 9.52420E-05-2.85367E-05-2.85882E-05-4.63977E-09-5.17574E-19 1.34723E-18
 -1      3408 9.52433E-05-2.85393E-05-2.85874E-05-7.42472E-09 1.54709E-19 1.54477E-18
 -1      3409 9.52420E-05-2.85276E-05-2.85918E-05-3.93100E-09-7.49055E-20 2.28732E-18
 -1      3410 1.20672E-04-5.38658E-05-2.85391E-05-1.38091E-05-1.51907E-18-2.35171E-19
 -1      3411 9.52391E-05-2.85311E-05-2.85893E-05-9.92702E-10 3.71955E-19-6.38081E-19
 -1      3412 9.52401E-05-2.85327E-05-2.85889E-05-3.09579E-09-4.50774E-19-9.98122E-19
 -1      3413 9.52376E-05-2.85177E-05-2.85940E-05-5.64080E-10-9.33345E-19 5.58635E-20
 -1      3414 9.52345E-05-2.85120E-05-2.85951E-05 5.75286E-10 1.75643E-20-4.16455E-19
 -1      3415 9.57672E-05-2.49556E-05-3.03466E-05-3.51146E-06 1.08083E-18 2.85288E-19
 -1      3416 9.57086E-05-2.44629E-05-3.05238E-05-2.14641E-06 1.42193E-18 2.61660E-19
 -1      3417 9.50294E-05-2.34546E-05-3.06901E-05-1.70687E-06 1.51850E-18 1.70034E-19
 -1      3418 9.48678E-05-2.41356E-05-3.03162E-05-3.97907E-06 1.09877E-18 3.92282E-20
 -1      3419 5.23556E-05-1.86312E-05-1.39078E-05 2.08723E-05-2.21057E-18 1.71334E-18
 -1      3420 5.30387E-05-1.61781E-05-1.55299E-05 1.52962E-05-1.91530E-18 1.43773E-18
 -1      3421 6.13321E-05-2.26106E-05-1.64451E-05 2.40357E-05-2.70211E-18 1.34784E-19
 -1      3422 1.00513E-04-4.51781E-05-2.35220E-05 2.63119E-05 1.83631E-18 3.07394E-19
 -1      3423 9.27574E-05-4.31477E-05-2.10547E-05 3.19204E-05 1.90696E-18-5.25584E-19
 -1      3424 8.45906E-05-3.67419E-05-2.03766E-05 3.03054E-05 2.36095E-18-1.39726E-18
 -1      3425 1.17325E-04-5.34405E-05-2.72372E-05 1.79242E-05 6.98617E-19 1.78740E-18
 -1      3426 4.47928E-05-1.36301E-05-1.28461E-05 5.68525E-06 8.15097E-19-3.54600E-18
 -1      3427 1.29041E-04-4.95825E-05-3.40286E-05-2.88279E-06-7.55421E-19 2.26820E-18
 -1      3428 1.25188E-04-5.02448E-05-3.21194E-05 5.23351E-07-5.96470E-19 1.68687E-18
 -1      3429 1.33852E-04-5.05911E-05-3.56213E-05-6.36829E-06 1.07065E-18-1.63435E-18
 -1      3430 1.22286E-04-5.29874E-05-2.99556E-05-8.80857E-06-1.41994E-18 3.41348E-19
 -1      3431 1.18071E-04-1.34502E-05-4.53059E-05-4.93704E-06-3.24276E-18 2.01647E-19
 -1      3432 1.23368E-04-1.66770E-05-4.60521E-05-1.04084E-05-4.22998E-18 1.69978E-18
 -1      3433 8.97097E-05-1.58081E-05-3.16879E-05 1.03773E-06 1.93352E-18-1.28508E-18
 -1      3434 8.90721E-05-1.51535E-05-3.16969E-05 7.64176E-07 1.76523E-18-1.47634E-18
 -1      3435 8.93244E-05-1.60263E-05-3.13877E-05 3.00511E-07 1.59190E-18-1.32225E-18
 -1      3436 9.06118E-05-1.73678E-05-3.13641E-05 3.07697E-07 1.76342E-18-1.13396E-18
 -1      3437 7.02624E-05-2.79682E-05-1.79783E-05 2.80109E-05 2.32250E-18-2.15681E-18
 -1      3438 6.01411E-05-2.34732E-05-1.51912E-05 2.72130E-05 2.01295E-18-2.95540E-18
 -1      3439 5.73679E-05-1.93590E-05-1.60619E-05 2.08072E-05 1.80937E-18-2.93746E-18
 -1      3440 8.93812E-05-1.54787E-05-3.16916E-05-4.26791E-07 5.09425E-19-2.28437E-18
 -1      3441 9.00498E-05-1.61617E-05-3.16791E-05-7.83942E-07 3.05002E-19-2.37317E-18
 -1      3442 1.26539E-04-3.35581E-05-4.01173E-05 1.41123E-05 1.58395E-19-2.41500E-18
 -1      3443 9.08825E-05-1.70662E-05-3.16532E-05-9.70278E-07 1.46612E-19-2.26328E-18
 -1      3444 9.18119E-05-1.80931E-05-3.16118E-05-1.37113E-06-1.36419E-19-2.35269E-18
 -1      3445 9.10264E-05-1.78473E-05-3.13505E-05-9.98981E-08 2.00608E-19-2.14125E-18
 -1      3446 9.52461E-05-2.85526E-05-2.85830E-05 1.73218E-08-5.20804E-19 1.13798E-18
 -1      3447 9.52442E-05-2.85381E-05-2.85883E-05 9.98387E-09-9.64984E-19 7.57047E-19
 -1      3448 1.15022E-04-5.09167E-05-2.71927E-05-1.76825E-05-1.42225E-18-1.43949E-19
 -1      3449 9.42470E-05-2.55432E-05-2.94407E-05 6.86292E-06-3.19158E-19-1.15980E-18
 -1      3450 9.45006E-05-2.61918E-05-2.92656E-05 7.64913E-06-1.81403E-19-1.04605E-18
 -1      3451 9.46094E-05-2.68487E-05-2.90332E-05 8.51139E-06 1.79463E-20-8.88283E-19
 -1      3452 9.51201E-05-2.77180E-05-2.88699E-05 9.17470E-06 3.28379E-19-8.65025E-19
 -1      3453 9.32613E-05-2.56747E-05-2.89766E-05 8.11288E-06 1.25261E-19-7.36096E-19
 -1      3454 9.55184E-05-2.86650E-05-2.86362E-05 1.00163E-05 4.35944E-19-7.37414E-19
 -1      3455 9.64571E-05-2.99279E-05-2.84889E-05 1.05260E-05 5.15903E-19-6.35033E-19
 -1      3456 9.37154E-05-2.73283E-05-2.84750E-05 9.90823E-06 4.41857E-19-6.30187E-19
 -1      3457 9.73827E-05-3.13520E-05-2.82669E-05 1.13130E-05 6.04569E-19-5.23844E-19
 -1      3458 9.89467E-05-3.31687E-05-2.81638E-05 1.15669E-05 4.98892E-19-2.74355E-19
 -1      3459 9.49510E-05-2.97816E-05-2.79731E-05 1.17115E-05 7.11070E-19-6.74527E-19
 -1      3460 1.00724E-04-3.52415E-05-2.80012E-05 1.21392E-05 4.19395E-19 2.73317E-19
 -1      3461 1.03078E-04-3.76682E-05-2.80116E-05 1.19034E-05 7.03869E-19 6.19455E-19
 -1      3462 9.75284E-05-3.34692E-05-2.75264E-05 1.34016E-05 8.18501E-19-1.19663E-19
 -1      3463 1.06064E-04-4.04185E-05-2.80211E-05 1.18820E-05 6.69492E-19 9.44978E-19
 -1      3464 1.09236E-04-4.32266E-05-2.82822E-05 1.07495E-05 5.04521E-19 1.04400E-18
 -1      3465 1.02128E-04-3.86886E-05-2.72876E-05 1.45036E-05 8.13913E-19 6.20346E-19
 -1      3466 1.13598E-04-4.62609E-05-2.87062E-05 9.41346E-06 4.49636E-19 1.34771E-18
 -1      3467 1.17212E-04-4.84608E-05-2.94608E-05 6.84009E-06 3.92805E-19 1.68538E-18
 -1      3468 1.09295E-04-4.51748E-05-2.76018E-05 1.39262E-05 6.81862E-19 1.16028E-18
 -1      3469 1.22475E-04-5.10007E-05-3.05175E-05 4.47437E-06-8.23607E-20 2.04999E-18
 -1      3470 5.97296E-05-1.74614E-05-1.79548E-05-1.60551E-05 7.45190E-20 1.01893E-18
 -1      3471 6.73299E-05-2.32263E-05-1.88104E-05-2.34131E-05 1.14937E-18-3.27961E-20
 -1      3472 1.12510E-04-4.62188E-05-2.84127E-05-9.87561E-06 7.72190E-19 1.95638E-19
 -1      3473 1.08803E-04-4.33345E-05-2.79115E-05-1.14451E-05 6.19717E-19-5.99259E-20
 -1      3474 1.04886E-04-4.01129E-05-2.77344E-05-1.18286E-05 1.00775E-18-1.47570E-19
 -1      3475 1.01904E-04-3.72942E-05-2.76074E-05-1.22418E-05 1.20913E-18 2.32115E-20
 -1      3476 1.03927E-04-4.14290E-05-2.68996E-05-1.51506E-05 5.27837E-19 5.77994E-19
 -1      3477 9.94993E-05-3.47675E-05-2.77014E-05-1.16883E-05 9.03354E-19-7.77401E-20
 -1      3478 9.74264E-05-3.25948E-05-2.77457E-05-1.14860E-05 6.41654E-19 6.25155E-19
 -1      3479 9.78152E-05-3.51779E-05-2.69322E-05-1.41151E-05 1.18306E-18 4.57775E-19
 -1      3480 9.61190E-05-3.08683E-05-2.79283E-05-1.06349E-05 2.03952E-19 9.53134E-19
 -1      3481 9.48201E-05-2.93863E-05-2.80310E-05-1.01682E-05 4.23440E-19 4.82218E-19
 -1      3482 9.42628E-05-3.07335E-05-2.72822E-05-1.22536E-05 7.00764E-19-1.82289E-19
 -1      3483 9.42242E-05-2.83195E-05-2.82168E-05-9.29183E-06 5.71333E-19 5.86523E-19
 -1      3484 9.34860E-05-2.74061E-05-2.83208E-05-8.73534E-06 1.03911E-18 2.13537E-19
 -1      3485 9.24497E-05-2.78789E-05-2.77019E-05-1.02997E-05 2.98377E-19 7.42538E-19
 -1      3486 9.33157E-05-2.68237E-05-2.84764E-05-7.93502E-06 1.08764E-18 1.74280E-20
 -1      3487 9.29473E-05-2.63256E-05-2.85588E-05-7.36940E-06 8.07014E-19 3.01035E-19
 -1      3488 9.17269E-05-2.62389E-05-2.80789E-05-8.53461E-06 8.78245E-19 1.10610E-19
 -1      3489 9.30168E-05-2.60755E-05-2.86750E-05-6.66826E-06 6.76598E-19 1.62550E-19
 -1      3490 9.28754E-05-2.58601E-05-2.87298E-05-6.13043E-06 7.77769E-19 3.82306E-19
 -1      3491 9.16415E-05-2.54380E-05-2.83765E-05-7.01344E-06 8.38056E-19-4.45804E-19
 -1      3492 9.30665E-05-2.58238E-05-2.88083E-05-5.52675E-06 3.35784E-19 6.23292E-19
 -1      3493 9.30546E-05-2.57889E-05-2.88375E-05-5.03381E-06 1.08008E-19 5.82111E-19
 -1      3494 9.19032E-05-2.51897E-05-2.85903E-05-5.72229E-06 4.44568E-19-3.14965E-20
 -1      3495 9.32947E-05-2.58802E-05-2.88848E-05-4.51891E-06 3.07815E-19 8.56694E-20
 -1      3496 9.33494E-05-2.59518E-05-2.88936E-05-4.07880E-06 5.84492E-19-2.90881E-20
 -1      3497 9.23291E-05-2.52834E-05-2.87305E-05-4.63102E-06 6.23817E-20-1.26626E-18
 -1      3498 9.35959E-05-2.61108E-05-2.89168E-05-3.64343E-06 2.58621E-19-4.90365E-19
 -1      3499 9.36787E-05-2.62381E-05-2.89111E-05-3.25915E-06-1.38757E-19-9.65062E-19
 -1      3500 9.28082E-05-2.55710E-05-2.88118E-05-3.71140E-06-5.48273E-20-1.54038E-18
 -1      3501 9.39081E-05-2.64248E-05-2.89172E-05-2.89478E-06-8.31734E-19-6.25032E-19
 -1      3502 9.39968E-05-2.65745E-05-2.89022E-05-2.56606E-06-1.46606E-18-1.32769E-18
 -1      3503 9.32765E-05-2.59518E-05-2.88492E-05-2.94062E-06-5.77179E-19-2.16662E-18
 -1      3504 9.41978E-05-2.67637E-05-2.88970E-05-2.26472E-06-6.74154E-19-1.88902E-18
 -1      3505 9.42806E-05-2.69151E-05-2.88768E-05-1.98893E-06-1.93346E-19-1.88396E-18
 -1      3506 9.37000E-05-2.63603E-05-2.88561E-05-2.29999E-06-1.01947E-18-1.96655E-18
 -1      3507 9.44491E-05-2.70919E-05-2.88647E-05-1.74300E-06-5.81688E-19-1.48299E-18
 -1      3508 9.45207E-05-2.72329E-05-2.88424E-05-1.51588E-06-1.91401E-19-1.18723E-18
 -1      3509 9.40639E-05-2.67559E-05-2.88431E-05-1.77324E-06-5.21197E-19-1.62902E-18
 -1      3510 9.46573E-05-2.73897E-05-2.88267E-05-1.31799E-06 1.53259E-19-1.23196E-18
 -1      3511 9.47160E-05-2.75144E-05-2.88046E-05-1.13426E-06 4.70667E-19-6.69890E-19
 -1      3512 9.43647E-05-2.71159E-05-2.88183E-05-1.34551E-06 6.15323E-20-1.83148E-18
 -1      3513 9.48236E-05-2.76482E-05-2.87876E-05-9.77349E-07-3.73240E-20-9.16795E-19
 -1      3514 9.48697E-05-2.77542E-05-2.87668E-05-8.31289E-07-2.23912E-19-8.14924E-19
 -1      3515 9.46057E-05-2.74294E-05-2.87878E-05-1.00289E-06-6.15594E-21-1.81457E-18
 -1      3516 9.49522E-05-2.78649E-05-2.87502E-05-7.08752E-07-3.27989E-19-6.01647E-19
 -1      3517 9.49872E-05-2.79524E-05-2.87315E-05-5.94609E-07-1.16000E-18-7.81875E-19
 -1      3518 9.47934E-05-2.76934E-05-2.87556E-05-7.32360E-07-5.13672E-19-3.11927E-18
 -1      3519 9.50487E-05-2.80417E-05-2.87161E-05-5.00415E-07-1.07416E-18 3.57587E-19
 -1      3520 9.50743E-05-2.81121E-05-2.86999E-05-4.12744E-07-3.13640E-19 1.10920E-18
 -1      3521 9.49358E-05-2.79098E-05-2.87243E-05-5.21928E-07-1.93274E-19-2.97218E-18
 -1      3522 9.51190E-05-2.81825E-05-2.86861E-05-3.41536E-07-3.05819E-19 1.09984E-18
 -1      3523 9.51371E-05-2.82380E-05-2.86724E-05-2.75400E-07 5.31755E-19 1.18043E-18
 -1      3524 9.50409E-05-2.80830E-05-2.86954E-05-3.60804E-07-2.90196E-19-8.57028E-19
 -1      3525 9.51684E-05-2.82924E-05-2.86604E-05-2.22526E-07 7.98827E-19 3.29939E-19
 -1      3526 9.51806E-05-2.83352E-05-2.86490E-05-1.73608E-07 4.53037E-19-5.59610E-19
 -1      3527 9.51162E-05-2.82186E-05-2.86698E-05-2.39496E-07-4.18034E-19-1.92248E-18
 -1      3528 9.52017E-05-2.83765E-05-2.86388E-05-1.35157E-07-6.43776E-19-9.69047E-19
 -1      3529 9.52096E-05-2.84090E-05-2.86295E-05-9.98140E-08-9.59831E-19-1.80048E-18
 -1      3530 9.51683E-05-2.83230E-05-2.86476E-05-1.49846E-07-7.82332E-19-1.96895E-18
 -1      3531 9.52231E-05-2.84399E-05-2.86209E-05-7.25774E-08-2.64096E-19-9.54446E-19
 -1      3532 9.52278E-05-2.84645E-05-2.86133E-05-4.77130E-08-7.31532E-20-8.37356E-19
 -1      3533 9.52029E-05-2.84020E-05-2.86288E-05-8.51159E-08-6.33248E-19 9.21699E-20
 -1      3534 9.52358E-05-2.84874E-05-2.86061E-05-2.93058E-08 4.54744E-19-5.42465E-19
 -1      3535 9.52382E-05-2.85060E-05-2.85998E-05-1.23096E-08 9.42073E-19 2.55268E-19
 -1      3536 9.52246E-05-2.84615E-05-2.86128E-05-3.97009E-08 8.85777E-19 9.36842E-19
 -1      3537 9.52436E-05-2.85278E-05-2.85923E-05 1.82076E-09-1.72626E-19 9.42108E-19
 -1      3538 9.32043E-05-2.79879E-05-2.79017E-05-1.41327E-05 2.06046E-19-4.43632E-19
 -1      3539 9.23227E-05-2.66467E-05-2.81503E-05-1.32424E-05 3.10436E-19-3.94683E-19
 -1      3540 1.08870E-04-4.58222E-05-2.68994E-05-1.79080E-05-1.10353E-18-1.87619E-19
 -1      3541 1.03710E-04-4.12161E-05-2.66171E-05-1.87936E-05-1.00680E-18-8.67580E-20
 -1      3542 1.04707E-04-4.59503E-05-2.53832E-05-2.29400E-05-1.19733E-18-7.24160E-19
 -1      3543 1.16125E-04-4.73636E-05-2.94330E-05 9.13176E-06-2.58477E-19 4.17720E-19
 -1      3544 1.18799E-04-5.16950E-05-2.87904E-05 1.19002E-05 9.09237E-20 7.51080E-20
 -1      3545 9.20442E-05-2.70893E-05-2.78397E-05 1.29911E-05-5.18067E-19 3.05272E-19
 -1      3546 9.32244E-05-2.86686E-05-2.76099E-05 1.38689E-05-9.20694E-19 8.96749E-19
 -1      3547 9.22179E-05-2.47388E-05-2.89340E-05 7.53391E-06 2.96054E-19 5.86164E-19
 -1      3548 9.21712E-05-2.47642E-05-2.88755E-05 8.25014E-06 2.59195E-19 8.38731E-19
 -1      3549 9.27798E-05-2.50369E-05-2.90457E-05 6.19273E-06 1.73922E-18-3.03811E-19
 -1      3550 9.26686E-05-2.49153E-05-2.90282E-05 6.83407E-06 9.51894E-19 1.11495E-19
 -1      3551 9.09739E-05-2.39638E-05-2.87081E-05 6.89270E-06 8.37356E-19 1.93635E-20
 -1      3552 9.33127E-05-2.54794E-05-2.90828E-05 5.03159E-06 1.69970E-18-2.46692E-19
 -1      3553 9.31906E-05-2.52918E-05-2.90926E-05 5.59697E-06 1.81446E-18-2.26436E-21
 -1      3554 9.18358E-05-2.44474E-05-2.88709E-05 5.64159E-06 1.47130E-18-4.23330E-19
 -1      3555 9.37731E-05-2.59618E-05-2.90717E-05 4.03420E-06 7.64029E-19 1.85029E-19
 -1      3556 9.36635E-05-2.57555E-05-2.90978E-05 4.52384E-06 1.28260E-18-1.10934E-19
 -1      3557 9.25929E-05-2.50250E-05-2.89493E-05 4.57527E-06 1.48136E-18-7.61006E-19
 -1      3558 9.41496E-05-2.64268E-05-2.90321E-05 3.18815E-06 3.72665E-19 2.18232E-19
 -1      3559 9.40604E-05-2.62273E-05-2.90664E-05 3.60444E-06 6.37259E-19 1.04307E-19
 -1      3560 9.32253E-05-2.56098E-05-2.89714E-05 3.66632E-06 6.70215E-19-8.30212E-19
 -1      3561 9.44464E-05-2.68460E-05-2.89782E-05 2.48110E-06 1.21769E-19-6.04953E-19
 -1      3562 9.43780E-05-2.66659E-05-2.90151E-05 2.82860E-06 4.04560E-19 6.53567E-19
 -1      3563 9.37357E-05-2.61545E-05-2.89583E-05 2.89764E-06 3.69025E-19-7.22380E-19
 -1      3564 9.46744E-05-2.72084E-05-2.89193E-05 1.89953E-06-1.06404E-19-9.03525E-19
 -1      3565 9.46240E-05-2.70526E-05-2.89553E-05 2.18450E-06-5.71643E-20-7.34006E-19
 -1      3566 9.41374E-05-2.66368E-05-2.89251E-05 2.25566E-06 2.36830E-20 7.46481E-19
 -1      3567 9.48458E-05-2.75123E-05-2.88614E-05 1.42883E-06-1.24349E-18-1.59114E-18
 -1      3568 9.48098E-05-2.73816E-05-2.88945E-05 1.65857E-06-6.92171E-19-1.35019E-18
 -1      3569 9.44471E-05-2.70493E-05-2.88821E-05 1.72736E-06-2.48862E-19-1.23627E-19
 -1      3570 9.49723E-05-2.77614E-05-2.88079E-05 1.05394E-06-1.32591E-18-6.11976E-20
 -1      3571 9.49473E-05-2.76542E-05-2.88370E-05 1.23613E-06-1.71916E-18-1.41573E-18
 -1      3572 9.46817E-05-2.73930E-05-2.88361E-05 1.29938E-06-1.77536E-18-5.11424E-19
 -1      3573 9.50638E-05-2.79617E-05-2.87606E-05 7.60105E-07-7.73713E-19 1.20833E-18
 -1      3574 9.50470E-05-2.78754E-05-2.87854E-05 9.02257E-07-6.80248E-19 3.06761E-19
 -1      3575 9.48564E-05-2.76734E-05-2.87914E-05 9.58179E-07-1.62383E-18-3.42500E-19
 -1      3576 9.51288E-05-2.81200E-05-2.87200E-05 5.33496E-07 1.35850E-19 1.22440E-18
 -1      3577 9.51178E-05-2.80517E-05-2.87407E-05 6.42619E-07-1.38924E-19 1.51738E-18
 -1      3578 9.49841E-05-2.78980E-05-2.87503E-05 6.90531E-07-7.27446E-19 5.58532E-19
 -1      3579 9.51738E-05-2.82431E-05-2.86860E-05 3.61619E-07 7.78985E-19 1.65907E-19
 -1      3580 9.51670E-05-2.81900E-05-2.87029E-05 4.43991E-07 6.45998E-19 6.24089E-19
 -1      3581 9.50757E-05-2.80748E-05-2.87141E-05 4.83994E-07 5.00330E-19 1.05985E-18
 -1      3582 9.52040E-05-2.83375E-05-2.86581E-05 2.33551E-07 1.27821E-18-5.94138E-19
 -1      3583 9.52001E-05-2.82967E-05-2.86716E-05 2.94614E-07 1.21334E-18-1.28091E-19
 -1      3584 9.51399E-05-2.82120E-05-2.86831E-05 3.27302E-07 1.06303E-18 1.38114E-18
 -1      3585 9.52234E-05-2.84088E-05-2.86356E-05 1.40022E-07 8.44260E-19-1.42100E-18
 -1      3586 9.52214E-05-2.83779E-05-2.86463E-05 1.84357E-07 1.00147E-18-1.08900E-18
 -1      3587 9.51835E-05-2.83167E-05-2.86570E-05 2.10580E-07 1.61682E-18 1.55897E-18
 -1      3588 9.52352E-05-2.84621E-05-2.86176E-05 7.33404E-08-4.33587E-19 1.69021E-20
 -1      3589 9.52345E-05-2.84389E-05-2.86260E-05 1.04688E-07 6.96075E-19-1.15804E-18
 -1      3590 9.52119E-05-2.83957E-05-2.86355E-05 1.25379E-07 3.54641E-19 7.98881E-19
 -1      3591 9.52419E-05-2.85021E-05-2.86031E-05 2.76054E-08 6.34622E-19-1.32802E-18
 -1      3592 9.52418E-05-2.84846E-05-2.86097E-05 4.86106E-08-3.82716E-19-6.00500E-19
 -1      3593 9.52296E-05-2.84546E-05-2.86178E-05 6.45920E-08-3.19689E-19 1.40852E-18
 -1      3594 9.52450E-05-2.85318E-05-2.85915E-05-2.63954E-09 9.72695E-19-1.45990E-18
 -1      3595 9.52451E-05-2.85184E-05-2.85968E-05 1.10370E-08 1.35375E-18-1.16014E-18
 -1      3596 9.52394E-05-2.84978E-05-2.86035E-05 2.33937E-08 1.29705E-18 5.76713E-19
 -1      3597 9.52268E-05-2.84918E-05-2.86009E-05-1.49583E-09 1.26380E-18 5.19995E-19
 -1      3598 9.52261E-05-2.84904E-05-2.86012E-05-7.16337E-10 2.77435E-20-1.39326E-19
 -1      3599 9.52471E-05-2.85543E-05-2.85827E-05-1.73554E-08-9.14368E-19 2.14824E-18
 -1      3600 9.52466E-05-2.85571E-05-2.85812E-05-2.07711E-08-7.76624E-19 5.06166E-19
 -1      3601 9.52464E-05-2.85513E-05-2.85836E-05-1.77071E-08-4.89337E-19-4.74968E-19
 -1      3602 9.52453E-05-2.85398E-05-2.85881E-05-1.02162E-08-1.30242E-18 2.16249E-18
 -1      3603 9.39540E-05-2.31177E-05-3.03602E-05 2.99587E-06-2.91416E-19-1.71554E-18
 -1      3604 9.40853E-05-2.37962E-05-3.01257E-05 4.07757E-06-3.05341E-19-1.66326E-18
 -1      3605 1.29325E-04-2.54230E-05-4.46135E-05-1.61159E-05 3.20178E-18 1.74902E-18
 -1      3606 1.21980E-04-2.09417E-05-4.33029E-05-1.20855E-05-3.68438E-18 1.85648E-18
 -1      3607 9.39559E-05-2.09599E-05-3.12983E-05-1.13273E-06-4.96400E-19-2.24110E-18
 -1      3608 9.39816E-05-3.05030E-05-2.71818E-05 1.54022E-05-1.88607E-18 1.24241E-18
 -1      3609 9.62912E-05-3.32046E-05-2.69619E-05 1.61333E-05-2.19346E-18 1.24051E-18
 -1      3610 8.94488E-05-2.77174E-05-2.64928E-05 1.54483E-05-1.39711E-18 3.91190E-19
 -1      3611 9.84046E-05-3.63235E-05-2.65329E-05 1.76969E-05-2.31795E-18 1.93848E-18
 -1      3612 1.02631E-04-4.05372E-05-2.65644E-05 1.79799E-05-2.18337E-18 2.29098E-18
 -1      3613 9.21522E-05-3.26931E-05-2.54966E-05 1.91253E-05-1.99664E-18 1.12677E-18
 -1      3614 5.02975E-05-1.42247E-05-1.53002E-05 9.47714E-06 1.15377E-18-3.18664E-18
 -1      3615 4.74449E-05-1.25691E-05-1.44906E-05-1.47256E-06 7.37925E-19-3.54388E-18
 -1      3616 1.31277E-04-3.82314E-05-4.01501E-05-1.04635E-05-2.64608E-18 3.31719E-18
 -1      3617 9.34806E-05-2.38590E-05-2.98385E-05-6.25977E-06 8.60644E-19-4.20379E-19
 -1      3618 9.35979E-05-2.35651E-05-3.00150E-05-5.19499E-06 1.02468E-18-3.07468E-19
 -1      3619 8.84452E-05-1.45180E-05-3.17010E-05 3.17726E-08 9.06973E-19-2.22501E-18
 -1      3620 8.88280E-05-1.48891E-05-3.16991E-05-2.78005E-07 6.24259E-19-2.25193E-18
 -1      3621 8.96708E-05-1.63759E-05-3.13848E-05 1.49067E-07 4.95617E-19-2.13983E-18
 -1      3622 9.50868E-05-4.00418E-05-2.33371E-05-2.58196E-05-1.08433E-18-1.01580E-18
 -1      3623 7.35219E-05-2.62581E-05-2.00457E-05-2.39484E-05-4.53269E-19-9.83485E-19
 -1      3624 8.46534E-05-3.41009E-05-2.16894E-05-2.69329E-05-8.98702E-19-8.45630E-19
 -1      3625 9.10081E-05-3.49695E-05-2.38453E-05-2.30690E-05-8.83244E-19-9.03010E-19
 -1      3626 7.62212E-05-2.92022E-05-1.99205E-05-2.64442E-05 6.04464E-19-2.91565E-19
 -1      3627 8.62748E-05-3.62339E-05-2.15855E-05-2.78365E-05 9.02937E-19 1.82800E-19
 -1      3628 1.19061E-04-5.20260E-05-2.89224E-05 1.13681E-05 2.23428E-19 1.87577E-18
 -1      3629 1.11451E-04-4.93660E-05-2.64220E-05 1.88439E-05 1.17336E-18 1.40781E-18
 -1      3630 9.17324E-05-2.47629E-05-2.87158E-05 9.08226E-06-5.20363E-19 7.80708E-19
 -1      3631 9.18566E-05-2.50688E-05-2.86023E-05 9.87145E-06-7.78578E-19 8.48904E-19
 -1      3632 9.00718E-05-2.37241E-05-2.84256E-05 8.37910E-06 5.60215E-20 7.36562E-19
 -1      3633 9.75236E-05-4.24433E-05-2.33386E-05-2.57119E-05 1.21566E-18 3.97239E-19
 -1      3634 1.07809E-04-4.81599E-05-2.56761E-05-2.08576E-05 1.52969E-18 6.94011E-19
 -1      3635 9.15390E-05-2.53980E-05-2.83582E-05 1.08828E-05-8.04739E-19 3.09874E-19
 -1      3636 9.20282E-05-2.61917E-05-2.81812E-05 1.17374E-05-7.62836E-19 5.94784E-20
 -1      3637 8.92761E-05-2.39741E-05-2.79834E-05 1.01927E-05-1.14360E-18-2.22368E-19
 -1      3638 1.25276E-04-5.03145E-05-3.18585E-05 3.20221E-07 1.76813E-18-1.20046E-18
 -1      3639 9.41167E-05-2.44017E-05-2.98734E-05 5.05132E-06-2.89150E-19-1.53702E-18
 -1      3640 9.42526E-05-2.49991E-05-2.96770E-05 5.96844E-06-3.01863E-19-1.33625E-18
 -1      3641 9.31899E-05-2.44263E-05-2.94731E-05 6.30756E-06-1.93993E-19-1.14048E-18
 -1      3642 9.52382E-05-2.85106E-05-2.85976E-05-6.37513E-09 1.08098E-18 1.82909E-18
 -1      3643 9.31174E-05-2.08583E-05-3.09798E-05-7.28032E-07 1.73050E-18-3.83683E-19
 -1      3644 9.20826E-05-1.96857E-05-3.10383E-05-6.84227E-07 1.64836E-18-6.82583E-19
 -1      3645 5.46183E-05-1.46070E-05-1.68072E-05-6.56518E-06 6.57754E-19-2.92946E-18
 -1      3646 9.37042E-05-2.18746E-05-3.07890E-05 1.26693E-06-2.65647E-19-1.88360E-18
 -1      3647 9.38661E-05-2.25242E-05-3.05766E-05 2.23061E-06-3.16667E-19-1.81836E-18
 -1      3648 9.30786E-05-2.20114E-05-3.04704E-05 2.67399E-06-1.59300E-19-1.64912E-18
 -1      3649 8.88955E-05-1.64086E-05-3.10810E-05 1.84637E-07 1.24745E-18-1.48363E-18
 -1      3650 8.87837E-05-1.62879E-05-3.10814E-05 2.39838E-07 1.03184E-18-1.71041E-18
 -1      3651 5.79482E-05-1.53829E-05-1.79573E-05-1.22295E-05 3.08439E-20 5.91441E-19
 -1      3652 6.48873E-05-1.81330E-05-1.99174E-05-1.44156E-05 7.44593E-19 5.62218E-20
 -1      3653 5.71291E-05-1.42937E-05-1.82739E-05-6.73204E-06-4.85654E-20 1.55227E-18
 -1      3654 1.10679E-04-1.74271E-05-4.06802E-05-6.53140E-06-2.83507E-18-5.18172E-19
 -1      3655 1.21328E-04-5.05183E-05-3.04698E-05-4.28888E-06 1.64972E-18-6.83546E-19
 -1      3656 1.17805E-04-4.91936E-05-2.92326E-05-7.52835E-06 1.36355E-18-5.01543E-19
 -1      3657 9.35959E-05-2.94852E-05-2.74615E-05-1.55640E-05 5.08063E-20-3.41602E-19
 -1      3658 8.98180E-05-2.70592E-05-2.69298E-05-1.52974E-05 1.65189E-19-6.97302E-19
 -1      3659 9.54524E-05-3.18108E-05-2.72016E-05-1.63781E-05-1.36797E-19-3.81570E-19
 -1      3660 9.62877E-05-3.72069E-05-2.54706E-05-2.11619E-05-7.14155E-19-8.09393E-19
 -1      3661 1.00403E-04-3.78683E-05-2.67104E-05-1.81269E-05-8.15666E-19-1.15709E-19
 -1      3662 9.71029E-05-3.42942E-05-2.68531E-05-1.77321E-05-3.48994E-19-4.60905E-19
 -1      3663 8.78315E-05-3.14111E-05-2.40668E-05-2.16394E-05-6.74079E-19-8.53333E-19
 -1      3664 9.43322E-05-2.57853E-05-2.93848E-05-1.00268E-05 5.01131E-19-2.78450E-19
 -1      3665 5.28004E-05-1.38620E-05-1.62606E-05 9.24712E-06-1.72945E-18 2.13706E-18
 -1      3666 5.46640E-05-1.34185E-05-1.75742E-05 3.63238E-06-1.60976E-18 2.46682E-18
 -1      3667 5.85408E-05-1.66627E-05-1.78423E-05 1.34988E-05-1.92880E-18 8.28928E-19
 -1      3668 9.24903E-05-2.58909E-05-2.85135E-05-1.20449E-05 1.94027E-19-4.94040E-19
 -1      3669 9.21790E-05-2.51786E-05-2.87233E-05-1.11437E-05 1.61453E-19-5.04455E-19
 -1      3670 8.97449E-05-2.48768E-05-2.78078E-05-1.25582E-05 1.17488E-19-8.23587E-19
 -1      3671 6.33648E-05-1.98336E-05-1.85776E-05 1.81475E-05 1.56421E-18-2.49184E-18
 -1      3672 5.62516E-05-1.63095E-05-1.66904E-05 1.46125E-05 1.35382E-18-2.97753E-18
 -1      3673 5.72133E-05-1.49447E-05-1.79753E-05 8.22675E-06 1.08036E-18-2.87059E-18
 -1      3674 1.11665E-04-4.68235E-05-2.79440E-05 1.48104E-05-1.08374E-18 1.30283E-18
 -1      3675 9.11596E-05-3.67095E-05-2.31739E-05 2.46003E-05-1.71688E-18 2.59377E-18
 -1      3676 9.98930E-05-4.16454E-05-2.48186E-05 2.19689E-05-2.16904E-18 2.58814E-18
 -1      3677 9.31841E-05-2.32092E-05-2.99841E-05 4.43655E-06-2.07860E-19-1.42715E-18
 -1      3678 9.39052E-05-2.33776E-05-3.02290E-05-4.30899E-06 1.18606E-18-3.00352E-19
 -1      3679 9.40496E-05-2.31063E-05-3.04092E-05-3.26332E-06 1.22334E-18-2.13305E-19
 -1      3680 9.27897E-05-2.25745E-05-3.00885E-05-4.51267E-06 1.13015E-18-5.23830E-19
 -1      3681 1.24128E-04-3.73884E-05-3.72424E-05 1.27573E-05 9.64082E-19-2.72607E-18
 -1      3682 9.52187E-05-2.84674E-05-2.86073E-05 5.80016E-10-6.34651E-19 9.50799E-19
 -1      3683 9.52262E-05-2.84904E-05-2.86012E-05 2.18393E-09-1.04746E-18-1.30251E-19
 -1      3684 9.52274E-05-2.84921E-05-2.86010E-05 2.88669E-09-9.00810E-19-1.21794E-19
 -1      3685 9.52293E-05-2.84961E-05-2.86002E-05-3.88414E-09 2.57916E-18-2.10177E-20
 -1      3686 9.52211E-05-2.84717E-05-2.86065E-05-6.39819E-09 1.80028E-18 1.61878E-18
 -1      3687 9.52316E-05-2.85004E-05-2.85992E-05-3.40532E-09 1.65621E-18 3.52625E-21
 -1      3688 9.52464E-05-2.85450E-05-2.85862E-05-1.26445E-08 9.15342E-20-8.61293E-19
 -1      3689 8.88463E-05-1.55422E-05-3.13917E-05 2.76243E-07 8.69425E-19-2.03028E-18
 -1      3690 6.57503E-05-2.00695E-05-1.94657E-05-1.79016E-05-2.21016E-19-1.34519E-18
 -1      3691 6.98440E-05-2.34750E-05-1.97042E-05-2.20073E-05-4.05160E-19-1.28307E-18
 -1      3692 7.80719E-05-2.62796E-05-2.20605E-05-2.10730E-05-6.89525E-19-7.55514E-19
 -1      3693 9.52358E-05-2.85077E-05-2.85980E-05-4.44546E-09 7.42567E-19 9.89016E-19
 -1      3694 9.52330E-05-2.85014E-05-2.85995E-05-5.98496E-09 8.52945E-19 1.65188E-19
 -1      3695 9.52256E-05-2.84773E-05-2.86060E-05-1.27380E-08 1.69436E-18-1.29920E-19
 -1      3696 9.52303E-05-2.84822E-05-2.86059E-05-1.89713E-08 1.42260E-18 1.07241E-18
 -1      3697 9.52449E-05-2.85318E-05-2.85914E-05-3.83877E-09-7.46456E-19 1.90293E-18
 -1      3698 8.91945E-05-1.66983E-05-3.10831E-05-1.01618E-07 1.41780E-18-1.33323E-18
 -1      3699 8.92438E-05-1.73750E-05-3.07752E-05-2.23463E-07 1.25756E-18-1.18797E-18
 -1      3700 8.96796E-05-1.71926E-05-3.10796E-05-1.60087E-07 1.53942E-18-1.23579E-18
 -1      3701 9.31034E-05-2.40317E-05-2.96073E-05-7.24836E-06 7.43811E-19-4.47004E-19
 -1      3702 9.20873E-05-2.29517E-05-2.96198E-05-6.36659E-06 8.68717E-19-5.50337E-19
 -1      3703 9.30070E-05-2.42874E-05-2.94446E-05-8.21662E-06 5.96310E-19-4.21418E-19
 -1      3704 1.16896E-04-5.21005E-05-2.75537E-05-1.56325E-05 2.05461E-18 7.42668E-19
 -1      3705 1.22398E-04-5.28766E-05-3.00515E-05-7.60339E-06 2.06275E-18-4.80949E-19
 -1      3706 8.95679E-05-1.70849E-05-3.10846E-05 7.11202E-07 5.91167E-19-2.03981E-18
 -1      3707 9.01655E-05-1.76555E-05-3.10798E-05 6.77748E-07 4.88865E-19-2.09267E-18
 -1      3708 1.27697E-04-4.65503E-05-3.51982E-05-7.26744E-06-1.04757E-18 2.11546E-18
 -1      3709 8.88818E-05-2.51057E-05-2.73440E-05 1.24826E-05-3.42278E-19-5.34016E-19
 -1      3710 7.09960E-05-2.69964E-05-1.84580E-05 2.62571E-05-2.03606E-18-4.62798E-19
 -1      3711 6.81057E-05-2.32792E-05-1.90961E-05 2.19217E-05-1.48789E-18 1.92700E-19
 -1      3712 8.05742E-05-3.16620E-05-2.09444E-05 2.59294E-05-1.45105E-18 2.82671E-19
 -1      3713 1.13140E-04-4.84456E-05-2.77722E-05-1.31839E-05 1.19066E-18 1.47000E-19
 -1      3714 9.31372E-05-1.99438E-05-3.13769E-05-9.66955E-07-2.83510E-19-2.20749E-18
 -1      3715 7.51580E-05-2.59117E-05-2.08989E-05-2.19368E-05 1.11124E-18 2.39710E-19
 -1      3716 1.08348E-04-4.56973E-05-2.67614E-05 1.67625E-05 1.07969E-18 1.19260E-18
 -1      3717 1.04250E-04-4.60897E-05-2.49851E-05 2.33114E-05 1.43089E-18 7.82261E-19
 -1      3718 9.80530E-05-4.12717E-05-2.40886E-05 2.40601E-05 1.86934E-18-3.26968E-20
 -1      3719 1.03883E-04-4.19093E-05-2.64012E-05 1.74507E-05 1.10629E-18 7.38791E-19
 -1      3720 9.33032E-05-3.80014E-05-2.35168E-05-2.35470E-05 2.76477E-19 1.66098E-19
 -1      3721 9.52364E-05-2.85086E-05-2.85980E-05 4.64644E-09-1.97206E-19 1.93137E-18
 -1      3722 9.52392E-05-2.85139E-05-2.85965E-05 3.01924E-09-3.23291E-19 2.92224E-18
 -1      3723 8.75994E-05-3.59495E-05-2.21774E-05 2.64112E-05 2.32640E-18-1.11812E-18
 -1      3724 7.94784E-05-3.21597E-05-1.99705E-05 2.86380E-05 2.27002E-18-1.84328E-18
 -1      3725 7.40234E-05-2.72611E-05-1.99763E-05 2.48126E-05 1.81884E-18-1.86458E-18
 -1      3726 9.52437E-05-2.85254E-05-2.85937E-05 1.75611E-10-5.04645E-19 2.37117E-18
 -1      3727 9.14744E-05-1.97059E-05-3.07418E-05 1.55489E-06 2.49524E-19-1.84291E-18
 -1      3728 9.15705E-05-1.91944E-05-3.10281E-05 8.62412E-07 2.29064E-19-1.99547E-18
 -1      3729 9.52380E-05-2.85045E-05-2.86001E-05 9.62781E-09 6.51777E-19 3.06573E-18
 -1      3730 5.75713E-05-1.41812E-05-1.85114E-05-2.12443E-06 6.71419E-19-2.81104E-18
 -1      3731 5.97638E-05-1.58724E-05-1.86613E-05-1.10473E-05 1.97524E-19-1.96440E-18
 -1      3732 1.08425E-04-4.82709E-05-2.54287E-05 2.17131E-05-1.67539E-18 1.53330E-18
 -1      3733 1.01037E-04-4.33662E-05-2.45184E-05 2.27713E-05-1.79717E-18 2.63948E-18
 -1      3734 9.31675E-05-2.05636E-05-3.11032E-05 2.02020E-07-2.07097E-19-2.10157E-18
 -1      3735 9.17506E-05-2.56391E-05-2.83391E-05 9.30075E-06 4.98066E-19-6.43345E-19
 -1      3736 9.21442E-05-2.65858E-05-2.80674E-05 1.02343E-05 5.52504E-19-5.98273E-19
 -1      3737 9.21935E-05-2.75689E-05-2.76955E-05 1.14680E-05 7.04321E-19-6.53304E-19
 -1      3738 9.31183E-05-2.90210E-05-2.74242E-05 1.24420E-05 9.39635E-19-6.09171E-19
 -1      3739 9.00490E-05-2.58243E-05-2.75411E-05 1.08700E-05 6.94078E-19-7.04293E-19
 -1      3740 9.36874E-05-3.05770E-05-2.70277E-05 1.39056E-05 1.09362E-18-6.61061E-19
 -1      3741 9.54550E-05-3.28037E-05-2.67947E-05 1.48610E-05 9.93078E-19-3.60782E-19
 -1      3742 9.05372E-05-2.82953E-05-2.67144E-05 1.37156E-05 8.85340E-19-8.48578E-19
 -1      3743 9.73228E-05-3.52441E-05-2.65304E-05 1.61846E-05 9.16078E-19 6.96403E-20
 -1      3744 1.00294E-04-3.84299E-05-2.64483E-05 1.68020E-05 1.05626E-18 1.70657E-19
 -1      3745 9.80229E-05-3.86917E-05-2.55649E-05 1.97642E-05 1.45031E-18 1.65370E-20
 -1      3746 9.27330E-05-3.23644E-05-2.59589E-05 1.69143E-05 1.17938E-18-5.89581E-19
 -1      3747 9.42641E-05-2.23118E-05-3.08355E-05-1.26327E-06 1.61237E-18-7.04791E-20
 -1      3748 9.38942E-05-2.24288E-05-3.06169E-05-2.32884E-06 1.38826E-18-1.99212E-19
 -1      3749 9.09902E-05-2.39747E-05-2.87357E-05 4.82616E-06 1.21025E-18 8.43919E-19
 -1      3750 9.05741E-05-2.36709E-05-2.86700E-05 5.36560E-06 1.10636E-18 2.86228E-19
 -1      3751 9.18055E-05-1.99737E-05-3.07657E-05-1.49880E-06 1.45004E-18-7.63411E-19
 -1      3752 9.11505E-05-1.87085E-05-3.10593E-05-4.73193E-07 1.65929E-18-1.00409E-18
 -1      3753 9.03375E-05-1.78537E-05-3.10780E-05-4.28514E-07 1.53166E-18-1.24490E-18
 -1      3754 9.52952E-05-3.43897E-05-2.60232E-05-1.61334E-05 9.98682E-19 1.19419E-18
 -1      3755 9.29109E-05-3.17036E-05-2.62030E-05-1.50926E-05 1.38419E-18 5.78113E-19
 -1      3756 9.19776E-05-2.97714E-05-2.65999E-05-1.33375E-05 7.14404E-19 2.69665E-19
 -1      3757 9.06655E-05-2.80379E-05-2.68394E-05-1.22357E-05 7.56250E-20 4.85576E-20
 -1      3758 8.87688E-05-2.88613E-05-2.57160E-05-1.51457E-05 8.12548E-19 8.04211E-19
 -1      3759 9.04854E-05-2.69432E-05-2.71921E-05-1.08092E-05 2.76842E-19-3.37481E-20
 -1      3760 8.98814E-05-2.59335E-05-2.74170E-05-9.82990E-06 9.98508E-19 4.17780E-19
 -1      3761 8.78790E-05-2.60012E-05-2.65392E-05-1.17503E-05 7.55580E-20 5.72420E-19
 -1      3762 9.00714E-05-2.53736E-05-2.77011E-05-8.71167E-06 1.23306E-18 4.29538E-19
 -1      3763 8.98934E-05-2.48592E-05-2.78852E-05-7.88363E-06 6.47174E-19 3.51440E-19
 -1      3764 8.79787E-05-2.44740E-05-2.72204E-05-9.13781E-06 8.88754E-19 3.04698E-19
 -1      3765 9.02645E-05-2.46574E-05-2.81004E-05-7.01248E-06 3.74821E-19 1.16852E-20
 -1      3766 9.03274E-05-2.44700E-05-2.82378E-05-6.32133E-06 6.18453E-19 3.75824E-19
 -1      3767 8.85867E-05-2.38312E-05-2.77489E-05-7.14297E-06 3.34326E-19 1.17821E-18
 -1      3768 9.07688E-05-2.44953E-05-2.83923E-05-5.63756E-06 5.38778E-19-8.08243E-19
 -1      3769 9.09545E-05-2.45130E-05-2.84869E-05-5.06034E-06 2.10307E-19-7.72127E-19
 -1      3770 8.94207E-05-2.37495E-05-2.81382E-05-5.61269E-06-2.05803E-19-1.66779E-20
 -1      3771 9.14036E-05-2.46734E-05-2.85919E-05-4.51675E-06-4.34208E-19-1.25923E-18
 -1      3772 9.16397E-05-2.48111E-05-2.86514E-05-4.03338E-06-4.69823E-19-1.66815E-18
 -1      3773 9.03193E-05-2.40080E-05-2.84115E-05-4.42065E-06-2.37921E-19-1.83678E-18
 -1      3774 9.20617E-05-2.50427E-05-2.87180E-05-3.59686E-06-3.45920E-19-1.64115E-18
 -1      3775 9.23054E-05-2.52421E-05-2.87505E-05-3.19228E-06-2.94985E-19-2.10744E-18
 -1      3776 9.11918E-05-2.44569E-05-2.85931E-05-3.47745E-06-5.11322E-19-2.01549E-18
 -1      3777 9.26822E-05-2.55015E-05-2.87887E-05-2.84003E-06-2.49570E-19-2.55231E-18
 -1      3778 9.29098E-05-2.57238E-05-2.88017E-05-2.50295E-06-8.98122E-19-2.70608E-18
 -1      3779 9.19887E-05-2.49937E-05-2.87051E-05-2.72303E-06-6.38636E-19-3.31896E-18
 -1      3780 9.32337E-05-2.59828E-05-2.88196E-05-2.21872E-06-7.80543E-19-2.80300E-18
 -1      3781 9.34336E-05-2.62033E-05-2.88195E-05-1.94013E-06-1.39394E-19-2.16747E-18
 -1      3782 9.26861E-05-2.55501E-05-2.87664E-05-2.11646E-06-1.04453E-18-2.95620E-18
 -1      3783 9.37038E-05-2.64448E-05-2.88236E-05-1.71175E-06-1.04947E-19-1.78541E-18
 -1      3784 9.38718E-05-2.66490E-05-2.88151E-05-1.48396E-06-2.38817E-19-1.29838E-18
 -1      3785 9.32765E-05-2.60824E-05-2.87922E-05-1.62875E-06 7.33580E-20-1.97776E-18
 -1      3786 9.40913E-05-2.68638E-05-2.88104E-05-1.30181E-06-2.41068E-19-1.21087E-18
 -1      3787 9.42278E-05-2.70442E-05-2.87973E-05-1.11785E-06 3.10208E-19-1.54670E-18
 -1      3788 9.37626E-05-2.65657E-05-2.87944E-05-1.23824E-06 4.56674E-20-3.17810E-19
 -1      3789 9.44020E-05-2.72286E-05-2.87875E-05-9.73975E-07 6.11832E-20-2.03028E-18
 -1      3790 9.45097E-05-2.73825E-05-2.87723E-05-8.27415E-07-4.99992E-19-2.04636E-18
 -1      3791 9.41530E-05-2.69876E-05-2.87817E-05-9.27860E-07-2.83496E-19-2.14370E-18
 -1      3792 9.46447E-05-2.75362E-05-2.87599E-05-7.15064E-07-7.06235E-19-2.79829E-18
 -1      3793 9.47274E-05-2.76637E-05-2.87443E-05-5.99956E-07-5.28149E-19-3.26182E-18
 -1      3794 9.44594E-05-2.73447E-05-2.87608E-05-6.83534E-07-1.05636E-18-2.74539E-18
 -1      3795 9.48297E-05-2.77887E-05-2.87311E-05-5.13338E-07-6.44921E-20-2.86803E-18
 -1      3796 9.48916E-05-2.78918E-05-2.87163E-05-4.24282E-07-3.18516E-19-2.51811E-18
 -1      3797 9.46945E-05-2.76391E-05-2.87360E-05-4.93380E-07-1.18964E-20-2.36833E-18
 -1      3798 9.49672E-05-2.79913E-05-2.87033E-05-3.58435E-07-3.65245E-19-1.75992E-18
 -1      3799 9.50122E-05-2.80729E-05-2.86899E-05-2.90626E-07-3.21448E-19-1.72371E-18
 -1      3800 9.48707E-05-2.78765E-05-2.87103E-05-3.47267E-07 1.25449E-19-1.32538E-18
 -1      3801 9.50667E-05-2.81505E-05-2.86779E-05-2.41359E-07-6.48131E-19-1.16222E-18
 -1      3802 9.50983E-05-2.82138E-05-2.86660E-05-1.90624E-07-8.75826E-19-1.61610E-18
 -1      3803 9.49996E-05-2.80639E-05-2.86856E-05-2.36590E-07-5.12684E-19-4.87627E-19
 -1      3804 9.51363E-05-2.82731E-05-2.86552E-05-1.54380E-07-3.79746E-19-2.00027E-18
 -1      3805 9.51578E-05-2.83215E-05-2.86450E-05-1.17142E-07-1.83522E-19-7.87256E-19
 -1      3806 9.50912E-05-2.82090E-05-2.86630E-05-1.54132E-07-9.39083E-19-1.29450E-19
 -1      3807 9.51833E-05-2.83662E-05-2.86356E-05-9.10781E-08 4.56042E-19-2.53409E-19
 -1      3808 9.51972E-05-2.84026E-05-2.86268E-05-6.45291E-08 5.83436E-19 9.85235E-19
 -1      3809 9.51540E-05-2.83197E-05-2.86428E-05-9.37498E-08 6.15290E-19 1.45596E-19
 -1      3810 9.52121E-05-2.84320E-05-2.86197E-05-4.91905E-08 3.78010E-19 1.14427E-18
 -1      3811 9.52207E-05-2.84597E-05-2.86122E-05-3.06354E-08 1.08527E-18 1.46039E-18
 -1      3812 9.52178E-05-2.84556E-05-2.86125E-05-2.68858E-08 6.90858E-19 7.24262E-19
 -1      3813 9.51938E-05-2.83992E-05-2.86261E-05-5.37900E-08 1.06448E-18 1.45455E-18
 -1      3814 9.25870E-05-2.48408E-05-2.90183E-05-1.01053E-05 3.98762E-19-4.57935E-19
 -1      3815 9.25623E-05-2.44609E-05-2.91948E-05-9.19300E-06 4.71564E-19-4.47137E-19
 -1      3816 9.03855E-05-2.38358E-05-2.85192E-05-1.02982E-05 3.81630E-19-7.93202E-19
 -1      3817 8.55603E-05-3.18892E-05-2.30029E-05 2.27790E-05-1.12405E-18 1.65153E-18
 -1      3818 9.23145E-05-2.20727E-05-3.00889E-05 3.67098E-06-1.29692E-19-1.41247E-18
 -1      3819 9.23058E-05-2.27376E-05-2.98156E-05 4.60498E-06-5.25597E-20-1.33781E-18
 -1      3820 1.05516E-04-4.42704E-05-2.61221E-05-1.81397E-05 2.99689E-19 8.29067E-19
 -1      3821 1.11172E-04-4.88039E-05-2.66836E-05-1.75066E-05 1.34774E-18 8.69000E-19
 -1      3822 8.98465E-05-2.33009E-05-2.85380E-05 5.90591E-06 9.11973E-19 5.63166E-20
 -1      3823 8.93872E-05-2.30628E-05-2.84193E-05 6.53917E-06-7.23824E-21 1.76876E-19
 -1      3824 8.91313E-05-2.28032E-05-2.84085E-05 5.03053E-06 7.22170E-19 1.51734E-18
 -1      3825 9.27365E-05-2.53525E-05-2.88887E-05 3.13368E-06 4.38671E-19 5.35240E-19
 -1      3826 9.24466E-05-2.50486E-05-2.88832E-05 3.52978E-06 1.25687E-18 1.35864E-18
 -1      3827 9.33648E-05-2.59615E-05-2.88951E-05 2.47599E-06 8.14587E-21 7.36868E-19
 -1      3828 9.31344E-05-2.56873E-05-2.89043E-05 2.81111E-06 4.75194E-20 2.86508E-19
 -1      3829 9.24270E-05-2.51452E-05-2.88261E-05 2.68075E-06 5.81138E-19 2.60558E-18
 -1      3830 9.38587E-05-2.64922E-05-2.88778E-05 1.92641E-06-1.88249E-20 1.39780E-18
 -1      3831 9.36795E-05-2.62539E-05-2.88950E-05 2.20587E-06-1.18815E-19 9.82648E-19
 -1      3832 9.31314E-05-2.58039E-05-2.88477E-05 2.12140E-06-2.21549E-19 2.41243E-18
 -1      3833 9.42405E-05-2.69419E-05-2.88474E-05 1.47383E-06-3.30893E-19 1.53865E-18
 -1      3834 9.41037E-05-2.67405E-05-2.88683E-05 1.70319E-06-3.51822E-20 1.77800E-18
 -1      3835 9.36846E-05-2.63729E-05-2.88426E-05 1.65248E-06 2.78712E-20 2.11970E-18
 -1      3836 9.45312E-05-2.73143E-05-2.88113E-05 1.10701E-06-1.63970E-18 5.85282E-19
 -1      3837 9.44286E-05-2.71479E-05-2.88330E-05 1.29217E-06-1.15539E-18 8.82983E-19
 -1      3838 9.41129E-05-2.68525E-05-2.88219E-05 1.26518E-06-5.33120E-19 2.87381E-18
 -1      3839 9.47490E-05-2.76168E-05-2.87741E-05 8.14526E-07-1.42443E-18 2.25637E-19
 -1      3840 9.46733E-05-2.74819E-05-2.87949E-05 9.61565E-07-1.05468E-18-9.10560E-20
 -1      3841 9.44395E-05-2.72484E-05-2.87933E-05 9.50506E-07-1.05873E-18 1.13141E-18
 -1      3842 9.49094E-05-2.78582E-05-2.87387E-05 5.85155E-07-5.34697E-19-1.01281E-19
 -1      3843 9.48547E-05-2.77508E-05-2.87575E-05 6.99998E-07-1.24288E-18-3.96164E-20
 -1      3844 9.46847E-05-2.75691E-05-2.87617E-05 6.99135E-07-1.23348E-18-2.38391E-19
 -1      3845 9.50252E-05-2.80477E-05-2.87065E-05 4.08285E-07 2.53936E-19 2.01928E-19
 -1      3846 9.49865E-05-2.79636E-05-2.87230E-05 4.96486E-07-2.77842E-19-2.67857E-19
 -1      3847 9.48656E-05-2.78245E-05-2.87304E-05 5.01740E-07-3.48867E-19-9.31144E-19
 -1      3848 9.51070E-05-2.81942E-05-2.86783E-05 2.74277E-07 7.49819E-19 1.31336E-18
 -1      3849 9.50803E-05-2.81293E-05-2.86924E-05 3.40830E-07 3.64196E-19 9.17348E-19
 -1      3850 9.49964E-05-2.80246E-05-2.87011E-05 3.49408E-07-4.81887E-19 3.48886E-19
 -1      3851 9.51630E-05-2.83058E-05-2.86542E-05 1.74610E-07 9.22318E-19 1.98586E-18
 -1      3852 9.51453E-05-2.82563E-05-2.86660E-05 2.23890E-07 1.36077E-18 1.39861E-18
 -1      3853 9.50888E-05-2.81789E-05-2.86749E-05 2.33947E-07 4.34034E-19 3.67135E-19
 -1      3854 9.51999E-05-2.83894E-05-2.86338E-05 1.01965E-07-7.70453E-19 2.52247E-18
 -1      3855 9.51887E-05-2.83522E-05-2.86436E-05 1.37925E-07 2.55307E-19 2.44503E-18
 -1      3856 9.51522E-05-2.82962E-05-2.86521E-05 1.48330E-07-2.92349E-19 3.01886E-18
 -1      3857 9.52229E-05-2.84517E-05-2.86168E-05 4.98102E-08 6.66641E-19 1.79977E-18
 -1      3858 9.52164E-05-2.84237E-05-2.86249E-05 7.60935E-08-1.29327E-19 2.51089E-18
 -1      3859 9.51938E-05-2.83846E-05-2.86325E-05 8.61991E-08 1.07819E-19 3.18997E-18
 -1      3860 9.52350E-05-2.84856E-05-2.86066E-05 2.60766E-08 6.82738E-19 2.84362E-18
 -1      3861 8.91341E-05-1.66311E-05-3.10823E-05 5.17513E-07 7.45297E-19-2.01293E-18
 -1      3862 8.96221E-05-1.77427E-05-3.07786E-05 9.92041E-07 6.27813E-19-1.84636E-18
 -1      3863 8.88720E-05-1.63853E-05-3.10822E-05 4.98639E-07 9.20865E-19-1.83923E-18
 -1      3864 8.90521E-05-1.71876E-05-3.07734E-05 4.39128E-07 8.81978E-19-1.56316E-18
 -1      3865 8.71149E-05-2.25392E-05-2.77058E-05 8.83425E-06-5.85782E-19-1.38704E-19
 -1      3866 8.67724E-05-2.27418E-05-2.74189E-05 9.78953E-06-7.71547E-19-6.98924E-20
 -1      3867 9.80231E-05-4.01873E-05-2.49358E-05-2.10328E-05 3.88027E-19 5.53682E-19
 -1      3868 1.01323E-04-4.08406E-05-2.58834E-05-1.80069E-05 3.27286E-19 9.63197E-19
 -1      3869 9.75302E-05-3.70555E-05-2.58394E-05-1.74854E-05 6.98160E-19 9.77187E-19
 -1      3870 8.89779E-05-3.40057E-05-2.34145E-05-2.25108E-05-7.63190E-20-1.60281E-19
 -1      3871 8.85349E-05-2.27643E-05-2.82109E-05 7.20625E-06-1.00124E-19-3.49940E-19
 -1      3872 8.80815E-05-2.26773E-05-2.80192E-05 7.96828E-06-2.66999E-19-4.28826E-20
 -1      3873 8.75616E-05-2.20630E-05-2.80494E-05 6.14288E-06-4.09353E-19-4.19538E-19
 -1      3874 9.52225E-05-2.84598E-05-2.86130E-05 3.42929E-08 1.43306E-19 1.44549E-18
 -1      3875 8.47060E-05-2.43205E-05-2.59231E-05 1.39580E-05-8.23663E-19 1.60986E-19
 -1      3876 8.53300E-05-2.59079E-05-2.53958E-05 1.56746E-05-1.38058E-18 7.40811E-19
 -1      3877 8.42185E-05-2.69556E-05-2.45968E-05 1.77361E-05-1.74949E-18 6.61215E-19
 -1      3878 8.61084E-05-2.99187E-05-2.39936E-05 2.00277E-05-1.59223E-18 1.38368E-18
 -1      3879 7.73830E-05-2.55158E-05-2.20589E-05 2.06969E-05-1.05464E-18 9.10732E-19
 -1      3880 7.95038E-05-2.32850E-05-2.40290E-05 1.59797E-05-1.09716E-18 3.32216E-19
 -1      3881 9.24432E-05-2.00867E-05-3.10026E-05 7.88988E-07-9.70939E-20-1.99422E-18
 -1      3882 9.52299E-05-2.84964E-05-2.86003E-05 5.06612E-09-9.66239E-19-8.85141E-19
 -1      3883 9.52325E-05-2.85005E-05-2.85995E-05 4.89621E-09-1.15177E-18 8.97509E-19
 -1      3884 9.52303E-05-2.84853E-05-2.86044E-05 1.15715E-08-1.22213E-18 4.02949E-19
 -1      3885 9.52221E-05-2.84720E-05-2.86066E-05 7.32468E-09-1.52757E-18-3.80675E-19
 -1      3886 7.36161E-05-2.28568E-05-2.16763E-05-1.81956E-05 1.23218E-18 7.12156E-19
 -1      3887 8.07851E-05-2.82624E-05-2.25679E-05-2.14102E-05 3.64727E-19 5.50174E-20
 -1      3888 9.18413E-05-2.43310E-05-2.89399E-05 7.34560E-06 2.13643E-19-8.67396E-19
 -1      3889 9.19464E-05-2.49939E-05-2.86775E-05 8.24841E-06 3.90009E-19-7.39761E-19
 -1      3890 9.02651E-05-2.42642E-05-2.82908E-05 8.52734E-06 4.76330E-19-7.40033E-19
 -1      3891 9.29018E-05-2.16734E-05-3.05283E-05-2.68445E-06 1.30275E-18-4.66344E-19
 -1      3892 8.57323E-05-2.29058E-05-2.69645E-05 1.09859E-05-8.50836E-19 3.10759E-19
 -1      3893 8.57026E-05-2.36218E-05-2.65629E-05 1.22392E-05-3.83156E-19 3.80999E-19
 -1      3894 8.37185E-05-2.13556E-05-2.66989E-05 9.49587E-06-6.26410E-19 5.62455E-19
 -1      3895 9.21069E-05-2.32570E-05-2.95129E-05 5.50123E-06-1.64946E-20-1.16783E-18
 -1      3896 9.20995E-05-2.38258E-05-2.92527E-05 6.41002E-06 7.10519E-20-1.03791E-18
 -1      3897 9.07603E-05-2.31566E-05-2.89696E-05 6.53181E-06 2.87787E-19-6.80223E-19
 -1      3898 9.19510E-05-2.46793E-05-2.88428E-05 3.91155E-06 1.35242E-18 9.32305E-19
 -1      3899 9.15967E-05-2.43608E-05-2.88135E-05 4.37468E-06 1.47891E-18 1.21358E-18
 -1      3900 9.04532E-05-2.36101E-05-2.86326E-05 4.11459E-06 1.27792E-18 2.39361E-18
 -1      3901 9.15436E-05-2.44061E-05-2.87617E-05 3.34032E-06 1.28102E-18 2.33573E-18
 -1      3902 9.12601E-05-2.33349E-05-2.91064E-05-8.30639E-06 5.63782E-19-7.25772E-19
 -1      3903 6.83842E-05-1.85165E-05-2.13693E-05-1.26987E-05 1.13311E-18-4.72089E-20
 -1      3904 7.08993E-05-2.06314E-05-2.14627E-05-1.62369E-05 9.23921E-19 5.85181E-19
 -1      3905 7.68170E-05-2.29208E-05-2.30186E-05-1.57501E-05 3.98823E-19 5.88989E-19
 -1      3906 9.20292E-05-2.13088E-05-3.02995E-05-3.17395E-06 1.15862E-18-7.03295E-19
 -1      3907 9.18899E-05-2.06841E-05-3.05228E-05-2.26684E-06 1.33001E-18-6.98095E-19
 -1      3908 9.09630E-05-1.97391E-05-3.05332E-05-1.95573E-06 1.32296E-18-9.80314E-19
 -1      3909 9.16027E-05-3.10503E-05-2.60271E-05-1.84471E-05-2.81845E-19-5.91613E-19
 -1      3910 8.57452E-05-2.15145E-05-2.75024E-05 7.56159E-06-5.57825E-19-6.94567E-19
 -1      3911 9.01966E-05-1.83234E-05-3.07797E-05-9.00656E-07 1.37772E-18-1.12315E-18
 -1      3912 8.62274E-05-2.54532E-05-2.59766E-05-1.52710E-05 1.07400E-19-9.06973E-19
 -1      3913 8.58972E-05-2.41353E-05-2.65067E-05-1.37205E-05 1.87662E-19-9.27022E-19
 -1      3914 9.17207E-05-3.35050E-05-2.50156E-05-1.87271E-05 7.35344E-19 5.65600E-19
 -1      3915 8.11569E-05-2.68228E-05-2.33045E-05-2.03463E-05-5.16250E-19-6.81266E-19
 -1      3916 8.72634E-05-2.90219E-05-2.48463E-05-1.89866E-05-3.47128E-19-9.65820E-19
 -1      3917 8.57256E-05-2.66837E-05-2.53064E-05-1.72382E-05-8.05012E-20-7.75639E-19
 -1      3918 8.69990E-05-2.35799E-05-2.71395E-05-1.21688E-05 3.59745E-20-9.56383E-19
 -1      3919 8.71886E-05-2.29501E-05-2.75615E-05-1.09814E-05 1.47107E-19-1.04306E-18
 -1      3920 8.33926E-05-2.20572E-05-2.62584E-05-1.20422E-05 2.36749E-19-9.07728E-19
 -1      3921 7.02423E-05-2.30569E-05-1.99532E-05 2.11980E-05 1.59793E-18-1.84942E-18
 -1      3922 6.77405E-05-2.00523E-05-2.04099E-05 1.61365E-05 1.16178E-18-2.07831E-18
 -1      3923 7.78811E-05-2.70002E-05-2.17054E-05 2.16413E-05 1.66686E-18-1.49738E-18
 -1      3924 9.17197E-05-2.15930E-05-3.00647E-05-4.00108E-06 1.12082E-18-6.97303E-19
 -1      3925 6.31324E-05-1.60137E-05-2.01980E-05 7.44666E-06 1.27571E-18-2.51679E-18
 -1      3926 5.96034E-05-1.43712E-05-1.91466E-05 2.61256E-06 1.03624E-18-2.86485E-18
 -1      3927 6.38349E-05-1.52113E-05-2.07307E-05-1.55538E-06 6.26737E-19-2.14424E-18
 -1      3928 9.52064E-05-2.84412E-05-2.86139E-05-1.22021E-09 7.43363E-19 2.58465E-18
 -1      3929 9.52068E-05-2.84420E-05-2.86139E-05 2.69066E-09-2.02541E-19 2.02683E-18
 -1      3930 9.52132E-05-2.84455E-05-2.86150E-05 2.91371E-08-4.13812E-19 5.11042E-19
 -1      3931 9.52000E-05-2.84046E-05-2.86258E-05 5.38692E-08 1.07580E-18-2.27147E-19
 -1      3932 9.52076E-05-2.84366E-05-2.86166E-05 2.66497E-08-6.57964E-19 8.78156E-21
 -1      3933 8.67293E-05-3.06055E-05-2.39363E-05-1.94990E-05 4.48855E-19 5.28641E-19
 -1      3934 8.92024E-05-1.81441E-05-3.04668E-05-6.61847E-07 1.27170E-18-1.09305E-18
 -1      3935 8.89085E-05-1.78555E-05-3.04623E-05-2.58480E-07 1.13356E-18-1.07253E-18
 -1      3936 1.14414E-04-5.02885E-05-2.75544E-05 1.62118E-05-2.98599E-19 9.52303E-19
 -1      3937 8.88348E-05-1.78014E-05-3.04583E-05 3.63281E-07 9.75295E-19-1.25378E-18
 -1      3938 8.89530E-05-1.79026E-05-3.04598E-05 7.27023E-07 7.31182E-19-1.55219E-18
 -1      3939 8.87830E-05-1.83787E-05-3.01481E-05-7.97016E-09 1.09185E-18-1.05463E-18
 -1      3940 9.52113E-05-2.84490E-05-2.86126E-05-1.36771E-08 1.08690E-18 9.03529E-19
 -1      3941 9.52081E-05-2.84443E-05-2.86134E-05-9.84700E-09 5.08138E-19 2.18110E-18
 -1      3942 9.51943E-05-2.84136E-05-2.86203E-05-7.33186E-09 2.70902E-19 1.96461E-18
 -1      3943 6.75694E-05-1.87651E-05-2.07909E-05-1.34513E-05-3.27656E-19-1.18489E-18
 -1      3944 8.92956E-05-1.82416E-05-3.04695E-05 1.28221E-06 6.04695E-19-1.69243E-18
 -1      3945 8.97876E-05-1.87128E-05-3.04724E-05 1.53308E-06 4.24646E-19-1.80131E-18
 -1      3946 8.90930E-05-1.86776E-05-3.01554E-05 1.27898E-06 5.53293E-19-1.51599E-18
 -1      3947 9.12060E-05-2.21168E-05-2.96045E-05 4.72944E-06 3.71459E-20-1.23849E-18
 -1      3948 9.07745E-05-2.22047E-05-2.93899E-05-6.15705E-06 7.95954E-19-6.04536E-19
 -1      3949 9.11639E-05-2.19920E-05-2.96485E-05-5.20917E-06 9.88469E-19-5.47835E-19
 -1      3950 8.16223E-05-2.19318E-05-2.55491E-05 1.23215E-05-8.50664E-19 6.87139E-19
 -1      3951 5.77762E-05-1.34777E-05-1.86656E-05-2.08991E-06-3.12873E-19 1.96649E-18
 -1      3952 6.22831E-05-1.51183E-05-2.01635E-05-6.41316E-06 5.09896E-19 6.61228E-19
 -1      3953 5.97208E-05-1.42456E-05-1.95038E-05 2.94623E-06-4.45539E-19 1.68028E-18
 -1      3954 7.17899E-05-2.29579E-05-2.08228E-05 1.92989E-05-1.28256E-18 6.84164E-19
 -1      3955 6.42014E-05-1.88937E-05-1.90943E-05 1.73208E-05-1.79618E-18 3.14329E-19
 -1      3956 6.32573E-05-1.69981E-05-1.97072E-05 1.22636E-05-1.55643E-18 8.91582E-19
 -1      3957 7.27822E-05-2.16059E-05-2.19927E-05 1.67410E-05-1.28165E-18 1.00744E-18
 -1      3958 9.05571E-05-2.08875E-05-2.98531E-05-3.83719E-06 1.04695E-18-6.98060E-19
 -1      3959 9.25576E-05-3.71411E-05-2.36469E-05 2.34352E-05 1.94542E-18-6.92688E-19
 -1      3960 9.03820E-05-2.02621E-05-3.00349E-05 2.85303E-06 2.62879E-19-1.64789E-18
 -1      3961 9.07129E-05-1.99397E-05-3.03406E-05 2.48234E-06 3.82352E-19-1.66208E-18
 -1      3962 7.76627E-05-2.39243E-05-2.29162E-05-1.83409E-05-5.52693E-19-6.22758E-19
 -1      3963 9.22425E-05-2.15212E-05-3.03122E-05 2.91661E-06 3.94249E-20-1.53576E-18
 -1      3964 8.95954E-05-2.24259E-05-2.87770E-05-7.95454E-06 5.87890E-19-7.79068E-19
 -1      3965 9.00305E-05-2.22488E-05-2.90630E-05-6.99171E-06 6.59492E-19-6.55438E-19
 -1      3966 8.92132E-05-2.12916E-05-2.90866E-05-5.84349E-06 8.29093E-19-3.70000E-19
 -1      3967 8.71614E-05-2.54788E-05-2.64594E-05 1.24229E-05 8.77979E-19-1.02933E-18
 -1      3968 8.76655E-05-2.68680E-05-2.59934E-05 1.40498E-05 1.09763E-18-1.02795E-18
 -1      3969 8.16983E-05-2.36927E-05-2.48699E-05-1.56382E-05-6.73689E-20-9.78356E-19
 -1      3970 8.46680E-05-2.80712E-05-2.42435E-05-1.76700E-05 8.17572E-19 6.63538E-19
 -1      3971 8.51347E-05-2.45548E-05-2.59151E-05-1.17953E-05-3.39763E-19-2.35486E-20
 -1      3972 8.50174E-05-2.36737E-05-2.63232E-05-1.03139E-05 7.66197E-20-1.32126E-20
 -1      3973 8.58998E-05-2.33369E-05-2.67830E-05-8.90639E-06 9.29152E-19 4.28064E-20
 -1      3974 8.61114E-05-2.29460E-05-2.71009E-05-7.80256E-06 8.75506E-19-2.09645E-19
 -1      3975 8.32252E-05-2.20281E-05-2.62124E-05-8.83071E-06 4.95453E-19-3.97691E-19
 -1      3976 8.69719E-05-2.29081E-05-2.74390E-05-6.79980E-06 2.72259E-19-1.91319E-19
 -1      3977 8.73577E-05-2.28341E-05-2.76768E-05-5.97060E-06-1.52352E-19-7.65867E-19
 -1      3978 8.50021E-05-2.18592E-05-2.70408E-05-6.52236E-06 7.09805E-19-7.40993E-19
 -1      3979 8.81524E-05-2.29851E-05-2.79195E-05-5.24255E-06-8.26989E-19-2.93768E-19
 -1      3980 8.86027E-05-2.31032E-05-2.80898E-05-4.60802E-06-5.66898E-19-5.67070E-19
 -1      3981 8.66617E-05-2.21274E-05-2.76397E-05-4.88199E-06-1.83008E-19-1.42633E-18
 -1      3982 8.93160E-05-2.33664E-05-2.82591E-05-4.06738E-06-5.21933E-19-1.54531E-18
 -1      3983 8.97704E-05-2.35950E-05-2.83756E-05-3.57231E-06-5.39828E-19-2.21622E-18
 -1      3984 8.81659E-05-2.26488E-05-2.80633E-05-3.69368E-06-1.30057E-18-9.20762E-19
 -1      3985 9.03966E-05-2.39156E-05-2.84893E-05-3.16269E-06-5.25376E-19-2.28977E-18
 -1      3986 9.08219E-05-2.41993E-05-2.85643E-05-2.77037E-06-1.01280E-18-2.63400E-18
 -1      3987 8.94986E-05-2.33079E-05-2.83542E-05-2.81244E-06-7.75045E-19-2.38257E-18
 -1      3988 9.13603E-05-2.45384E-05-2.86368E-05-2.45575E-06-1.00131E-18-2.55152E-18
 -1      3989 9.17393E-05-2.48388E-05-2.86811E-05-2.14174E-06-1.23107E-18-3.12607E-18
 -1      3990 9.06558E-05-2.40226E-05-2.85459E-05-2.14668E-06-1.14885E-18-2.40167E-18
 -1      3991 9.21930E-05-2.51700E-05-2.87237E-05-1.89785E-06-1.15930E-18-2.73687E-18
 -1      3992 9.25184E-05-2.54621E-05-2.87461E-05-1.64549E-06-9.51054E-19-2.20015E-18
 -1      3993 9.16405E-05-2.47344E-05-2.86647E-05-1.63668E-06-9.98542E-19-2.28840E-18
 -1      3994 9.28934E-05-2.57687E-05-2.87676E-05-1.45562E-06 3.42248E-20-1.19801E-18
 -1      3995 9.31647E-05-2.60374E-05-2.87750E-05-1.25301E-06 6.35701E-19-1.16369E-18
 -1      3996 9.24624E-05-2.54043E-05-2.87315E-05-1.24242E-06 2.68858E-19-3.84522E-19
 -1      3997 9.34686E-05-2.63100E-05-2.87822E-05-1.10518E-06 2.54117E-20-1.25803E-18
 -1      3998 9.36890E-05-2.65474E-05-2.87799E-05-9.43328E-07-1.27709E-19-1.24229E-18
 -1      3999 9.31354E-05-2.60090E-05-2.87622E-05-9.36318E-07 1.61184E-19-1.26349E-18
 -1      4000 9.39307E-05-2.67822E-05-2.87780E-05-8.28625E-07-1.12014E-18-1.89592E-18
 -1      4001 9.41055E-05-2.69852E-05-2.87697E-05-7.00336E-07-1.76116E-18-2.81658E-18
 -1      4002 9.36759E-05-2.65369E-05-2.87689E-05-6.98618E-07-1.18352E-18-2.74187E-18
 -1      4003 9.42941E-05-2.71821E-05-2.87623E-05-6.11884E-07-1.04221E-18-2.63285E-18
 -1      4004 9.44296E-05-2.73512E-05-2.87510E-05-5.11212E-07-6.08530E-19-2.23672E-18
 -1      4005 9.41020E-05-2.69852E-05-2.87604E-05-5.14609E-07-1.40545E-18-1.46376E-18
 -1      4006 9.45739E-05-2.75125E-05-2.87406E-05-4.43575E-07 2.06179E-19-1.66907E-18
 -1      4007 9.46766E-05-2.76500E-05-2.87281E-05-3.65488E-07 1.10979E-18-1.14729E-18
 -1      4008 9.44313E-05-2.73568E-05-2.87432E-05-3.72999E-07 2.06451E-19-2.82638E-19
 -1      4009 9.47846E-05-2.77793E-05-2.87165E-05-3.14300E-07 8.11551E-19-9.36299E-19
 -1      4010 9.48607E-05-2.78888E-05-2.87040E-05-2.54518E-07 3.22033E-19-1.05833E-19
 -1      4011 9.46808E-05-2.76582E-05-2.87217E-05-2.64902E-07 1.15941E-18-5.07676E-19
 -1      4012 9.49397E-05-2.79905E-05-2.86924E-05-2.16235E-07 3.66556E-19 4.06384E-20
 -1      4013 9.49945E-05-2.80761E-05-2.86806E-05-1.71139E-07-1.44917E-19 2.98976E-19
 -1      4014 9.48657E-05-2.78978E-05-2.86989E-05-1.83211E-07 9.86744E-19 7.11841E-19
 -1      4015 9.50508E-05-2.81547E-05-2.86697E-05-1.42956E-07-1.32738E-18 8.01391E-19
 -1      4016 9.50890E-05-2.82203E-05-2.86590E-05-1.09552E-07-1.10396E-18 7.09347E-19
 -1      4017 9.49993E-05-2.80848E-05-2.86764E-05-1.22186E-07-5.39015E-19 1.39588E-18
 -1      4018 9.51280E-05-2.82798E-05-2.86491E-05-8.91703E-08-2.89990E-19 1.20071E-18
 -1      4019 9.51538E-05-2.83294E-05-2.86396E-05-6.53121E-08 5.72731E-19 9.98753E-19
 -1      4020 9.50936E-05-2.82283E-05-2.86556E-05-7.72681E-08-5.42824E-19 1.92052E-18
 -1      4021 9.35534E-05-2.63327E-05-2.88146E-05 1.31220E-06-8.01646E-19 2.60463E-18
 -1      4022 9.33073E-05-2.60616E-05-2.88201E-05 1.51103E-06-5.72729E-19 1.78098E-18
 -1      4023 6.67471E-05-1.64358E-05-2.14808E-05-7.93050E-06-1.00580E-19-1.24007E-18
 -1      4024 7.14337E-05-1.99568E-05-2.20847E-05-1.44150E-05-5.43235E-19-6.48205E-19
 -1      4025 7.55314E-05-2.09419E-05-2.33560E-05-1.38448E-05-3.51333E-19-6.71241E-19
 -1      4026 8.85882E-05-2.25127E-05-2.83358E-05 3.93452E-06 7.35351E-19 1.08038E-18
 -1      4027 8.78530E-05-2.20916E-05-2.81873E-05 4.37740E-06-1.19403E-19 9.01945E-19
 -1      4028 9.29561E-05-2.57442E-05-2.88122E-05 1.68396E-06-3.03494E-19 1.98257E-18
 -1      4029 9.26402E-05-2.54267E-05-2.88069E-05 1.92088E-06-7.29455E-20 2.09751E-18
 -1      4030 9.28800E-05-2.56958E-05-2.87855E-05 1.32011E-06-7.52330E-19 2.20436E-18
 -1      4031 9.21955E-05-2.50579E-05-2.87820E-05 2.12472E-06 4.23669E-19 2.02062E-18
 -1      4032 9.17958E-05-2.46957E-05-2.87590E-05 2.40278E-06 1.34881E-18 2.54244E-18
 -1      4033 9.20938E-05-2.49897E-05-2.87489E-05 1.65795E-06 3.20333E-19 1.61706E-18
 -1      4034 9.40163E-05-2.68263E-05-2.88003E-05 1.00393E-06-1.78636E-19 1.73353E-18
 -1      4035 9.38273E-05-2.65999E-05-2.88119E-05 1.16797E-06 3.61698E-20 2.52577E-18
 -1      4036 9.34976E-05-2.62989E-05-2.87936E-05 1.03209E-06-2.46847E-19 2.02656E-18
 -1      4037 9.43699E-05-2.72323E-05-2.87768E-05 7.52889E-07-1.46612E-18 1.19312E-18
 -1      4038 9.42270E-05-2.70467E-05-2.87914E-05 8.85842E-07-8.36084E-19 1.79666E-18
 -1      4039 9.39764E-05-2.68033E-05-2.87840E-05 7.91350E-07-3.70155E-19 2.08034E-18
 -1      4040 9.46357E-05-2.75602E-05-2.87495E-05 5.52139E-07-5.76909E-19 7.54741E-19
 -1      4041 9.45294E-05-2.74108E-05-2.87649E-05 6.58002E-07-1.16917E-18 8.65032E-19
 -1      4042 9.43423E-05-2.72172E-05-2.87645E-05 5.94158E-07-5.24293E-19 2.77129E-18
 -1      4043 9.48322E-05-2.78205E-05-2.87214E-05 3.94500E-07-3.28456E-19 9.26201E-19
 -1      4044 9.47546E-05-2.77024E-05-2.87364E-05 4.77311E-07-4.86717E-19 9.18436E-19
 -1      4045 9.46174E-05-2.75510E-05-2.87403E-05 4.35817E-07-6.15038E-19 1.17970E-18
 -1      4046 9.49744E-05-2.80240E-05-2.86947E-05 2.72954E-07-8.74399E-19 9.43496E-19
 -1      4047 9.49190E-05-2.79319E-05-2.87084E-05 3.36581E-07-5.50665E-19 6.91779E-19
 -1      4048 9.48206E-05-2.78155E-05-2.87147E-05 3.11122E-07-4.23941E-19 1.00739E-18
 -1      4049 9.50750E-05-2.81803E-05-2.86703E-05 1.81100E-07 1.64012E-19 1.37770E-18
 -1      4050 9.50364E-05-2.81098E-05-2.86825E-05 2.29013E-07-2.29623E-19 1.15516E-18
 -1      4051 9.49676E-05-2.80219E-05-2.86897E-05 2.14790E-07-7.39632E-19 1.40281E-18
 -1      4052 9.51443E-05-2.82989E-05-2.86488E-05 1.13415E-07-9.16502E-19 2.78411E-18
 -1      4053 9.51180E-05-2.82457E-05-2.86593E-05 1.47993E-07-4.65707E-19 2.51943E-18
 -1      4054 9.50710E-05-2.81798E-05-2.86667E-05 1.41821E-07-1.21626E-18 2.63800E-18
 -1      4055 9.51835E-05-2.83753E-05-2.86324E-05 6.90282E-08 1.90120E-18 3.36191E-19
 -1      4056 9.51658E-05-2.83345E-05-2.86416E-05 9.41587E-08 9.29171E-19 1.74315E-18
 -1      4057 9.51342E-05-2.82871E-05-2.86485E-05 9.19188E-08 9.49396E-19 1.12804E-18
 -1      4058 9.51723E-05-2.83589E-05-2.86345E-05 5.93257E-08 2.14541E-18-4.12468E-19
 -1      4059 8.97225E-05-2.20349E-05-2.90254E-05 5.37924E-06 3.29687E-19-1.02796E-18
 -1      4060 8.94605E-05-2.24904E-05-2.86913E-05 6.30313E-06 3.99289E-19-9.15641E-19
 -1      4061 9.02702E-05-1.91236E-05-3.05012E-05-1.53511E-06 1.30502E-18-1.11054E-18
 -1      4062 8.96203E-05-1.84879E-05-3.04969E-05-1.15664E-06 1.22718E-18-1.15213E-18
 -1      4063 8.93087E-05-1.88070E-05-3.01863E-05-1.23841E-06 1.05858E-18-1.07615E-18
 -1      4064 9.03616E-05-1.97362E-05-3.02502E-05-2.25470E-06 1.16110E-18-1.03747E-18
 -1      4065 8.09008E-05-2.49112E-05-2.39721E-05-1.61519E-05 5.47458E-19 5.77951E-19
 -1      4066 8.58785E-05-2.75449E-05-2.49407E-05-1.58092E-05 8.22982E-19 2.00906E-19
 -1      4067 8.50528E-05-2.57953E-05-2.54206E-05-1.38302E-05 3.06550E-19-8.40018E-20
 -1      4068 7.79979E-05-2.26577E-05-2.37373E-05-1.43119E-05 4.28281E-20 3.51505E-19
 -1      4069 8.68074E-05-2.16080E-05-2.79664E-05 4.76703E-06-6.42086E-19 2.10542E-19
 -1      4070 8.59402E-05-2.12289E-05-2.77363E-05 5.31130E-06-9.97395E-19-2.85292E-19
 -1      4071 8.64809E-05-2.12980E-05-2.79082E-05 3.59304E-06-9.99521E-19-1.82143E-19
 -1      4072 8.82356E-05-2.27425E-05-2.80463E-05-9.84515E-06 4.57430E-19-9.52653E-19
 -1      4073 8.86590E-05-2.24871E-05-2.83863E-05-8.82579E-06 5.23466E-19-9.16370E-19
 -1      4074 8.75826E-05-2.14424E-05-2.83590E-05-7.53968E-06 6.31274E-19-8.76650E-19
 -1      4075 8.55949E-05-2.15137E-05-2.74297E-05-9.46432E-06 3.13801E-19-9.29979E-19
 -1      4076 8.46494E-05-2.07817E-05-2.74064E-05 5.81708E-06-7.36398E-19-4.88366E-19
 -1      4077 8.36558E-05-2.05057E-05-2.70638E-05 6.52848E-06-8.10189E-19-4.50939E-19
 -1      4078 8.41768E-05-2.02879E-05-2.73435E-05 4.32606E-06-1.07639E-18-5.83162E-19
 -1      4079 8.97609E-05-2.02387E-05-2.98050E-05-3.30565E-06 9.24776E-19-7.93455E-19
 -1      4080 7.63932E-05-2.00323E-05-2.41751E-05-1.18220E-05 4.41681E-20-6.18662E-19
 -1      4081 9.52038E-05-2.84339E-05-2.86159E-05 1.18345E-08-3.94010E-19 2.14488E-19
 -1      4082 9.52068E-05-2.84392E-05-2.86152E-05 1.58076E-08-4.77210E-19 6.09428E-20
 -1      4083 9.51877E-05-2.83910E-05-2.86265E-05 3.31770E-08 9.12868E-19 3.08156E-19
 -1      4084 9.51905E-05-2.84026E-05-2.86228E-05 1.07436E-08 1.19471E-18 2.09866E-18
 -1      4085 9.52146E-05-2.84518E-05-2.86129E-05-2.23848E-08 8.90441E-19-2.38351E-19
 -1      4086 9.52131E-05-2.84507E-05-2.86126E-05-1.83115E-08 8.45851E-19 3.28409E-19
 -1      4087 9.52000E-05-2.84196E-05-2.86197E-05-2.26870E-08 5.21166E-19 7.17066E-19
 -1      4088 9.52047E-05-2.84254E-05-2.86194E-05-3.41517E-08 2.72375E-19 4.24944E-19
 -1      4089 7.88794E-05-1.98493E-05-2.53729E-05 9.36614E-06-7.04160E-19 6.34287E-19
 -1      4090 7.77292E-05-2.01750E-05-2.46544E-05 1.09319E-05-8.10266E-19 6.70527E-19
 -1      4091 8.78434E-05-2.38647E-05-2.74436E-05 9.50713E-06 4.94378E-19-9.37942E-19
 -1      4092 8.78646E-05-2.47087E-05-2.70273E-05 1.08017E-05 5.20122E-19-1.03653E-18
 -1      4093 8.49079E-05-2.34315E-05-2.63598E-05 1.09759E-05 7.61095E-19-1.19153E-18
 -1      4094 9.02059E-05-2.09546E-05-2.96944E-05 3.61888E-06 3.41702E-19-1.67685E-18
 -1      4095 9.00136E-05-2.14678E-05-2.93725E-05 4.46684E-06 3.21184E-19-1.36765E-18
 -1      4096 8.88093E-05-2.08770E-05-2.91123E-05 4.21550E-06 5.74995E-19-1.27192E-18
 -1      4097 8.92985E-05-1.97139E-05-2.98188E-05 2.56253E-06 4.57148E-19-1.58105E-18
 -1      4098 8.87943E-05-2.28344E-05-2.82871E-05 7.23659E-06 3.55357E-19-8.79980E-19
 -1      4099 8.85768E-05-2.33872E-05-2.79175E-05 8.30805E-06 4.44894E-19-9.26676E-19
 -1      4100 8.78559E-05-2.17110E-05-2.83472E-05 6.05915E-06 3.86803E-19-1.07780E-18
 -1      4101 8.20414E-05-2.01449E-05-2.65794E-05 7.24880E-06-6.15398E-19-2.40676E-19
 -1      4102 8.09483E-05-2.00688E-05-2.60830E-05 8.25417E-06-3.48446E-19 4.33266E-19
 -1      4103 8.13135E-05-1.93288E-05-2.65109E-05 5.31796E-06-4.24985E-19-1.42090E-18
 -1      4104 8.92453E-05-3.33173E-05-2.38880E-05 2.16236E-05 1.71055E-18-1.03055E-18
 -1      4105 7.42288E-05-1.80681E-05-2.39999E-05-8.21410E-06-3.70453E-20-5.95577E-19
 -1      4106 7.95036E-05-2.03304E-05-2.53320E-05-1.03412E-05 1.64089E-19-7.96650E-19
 -1      4107 6.70721E-05-1.68286E-05-2.13937E-05-9.65244E-06 6.00510E-19-5.30157E-19
 -1      4108 7.22801E-05-1.89965E-05-2.27828E-05-1.11237E-05 2.75506E-19-1.12814E-19
 -1      4109 6.62302E-05-1.58541E-05-2.16679E-05-5.51545E-06 2.03587E-19 5.56342E-19
 -1      4110 6.76904E-05-1.59535E-05-2.22259E-05 2.59710E-07 5.38239E-19-1.59400E-18
 -1      4111 6.67304E-05-1.57727E-05-2.17617E-05-4.24116E-06 1.45982E-19-1.33522E-18
 -1      4112 7.07292E-05-1.69999E-05-2.29555E-05-5.56037E-06-5.91004E-20-8.94953E-19
 -1      4113 8.06984E-05-2.00839E-05-2.60320E-05-8.94349E-06 1.51329E-19-9.32930E-19
 -1      4114 8.77132E-05-2.83753E-05-2.54211E-05 1.61683E-05 1.22874E-18-1.05393E-18
 -1      4115 8.96624E-05-3.08779E-05-2.51007E-05 1.78664E-05 1.33544E-18-8.37085E-19
 -1      4116 8.40622E-05-2.54322E-05-2.51431E-05 1.48589E-05 1.25669E-18-1.10778E-18
 -1      4117 8.20933E-05-2.33085E-05-2.51935E-05-1.23253E-05 1.57918E-19-3.77695E-19
 -1      4118 7.32918E-05-1.77617E-05-2.36388E-05 8.79504E-06-7.33469E-19-1.12618E-19
 -1      4119 7.53051E-05-2.00477E-05-2.37596E-05 1.22203E-05-1.01511E-18 6.30861E-19
 -1      4120 7.40304E-05-2.05800E-05-2.28694E-05 1.39480E-05-1.01341E-18 8.68116E-19
 -1      4121 9.11048E-05-2.41818E-05-2.86685E-05 2.04730E-06 5.78903E-19 2.19635E-18
 -1      4122 9.12391E-05-2.42781E-05-2.87083E-05 2.63990E-06 9.25900E-19 2.64919E-18
 -1      4123 9.07410E-05-2.38780E-05-2.86582E-05 2.96291E-06 4.74629E-19 2.04531E-18
 -1      4124 9.51744E-05-2.83644E-05-2.86328E-05-5.68681E-08 1.31123E-18 4.18297E-19
 -1      4125 9.51902E-05-2.83978E-05-2.86256E-05-4.18721E-08 9.14833E-19 7.77825E-19
 -1      4126 9.51871E-05-2.83936E-05-2.86259E-05-3.57050E-08 7.50732E-19 3.97070E-19
 -1      4127 9.51505E-05-2.83248E-05-2.86390E-05-5.16036E-08 7.89469E-19 1.57076E-18
 -1      4128 8.31730E-05-2.89374E-05-2.32460E-05 2.09269E-05 1.57497E-18-1.28777E-18
 -1      4129 7.89984E-05-2.50175E-05-2.31667E-05 1.77651E-05 1.36249E-18-1.23497E-18
 -1      4130 6.69922E-05-1.76388E-05-2.09578E-05 1.14022E-05 1.21072E-18-2.43854E-18
 -1      4131 6.80868E-05-1.68625E-05-2.19125E-05 6.72501E-06 1.15672E-18-2.37382E-18
 -1      4132 7.22999E-05-2.06065E-05-2.21128E-05 1.42233E-05 1.29441E-18-2.01267E-18
 -1      4133 7.77075E-05-1.84985E-05-2.52918E-05 6.81801E-06-4.77490E-19-2.25471E-19
 -1      4134 8.83526E-05-1.88064E-05-2.98221E-05-3.76131E-07 1.06560E-18-8.44803E-19
 -1      4135 8.82951E-05-1.87517E-05-2.98178E-05 3.14870E-07 9.13411E-19-9.99236E-19
 -1      4136 8.84248E-05-1.89173E-05-2.97989E-05 1.17830E-06 8.02773E-19-1.18741E-18
 -1      4137 8.87959E-05-1.92598E-05-2.98133E-05 1.82408E-06 5.42427E-19-1.42435E-18
 -1      4138 8.86550E-05-1.98586E-05-2.94614E-05 2.50103E-06 6.89729E-19-1.29439E-18
 -1      4139 8.79338E-05-1.91554E-05-2.94668E-05 8.37788E-07 8.01287E-19-9.16431E-19
 -1      4140 9.51723E-05-2.83709E-05-2.86289E-05 3.17539E-09 2.33145E-19 2.82486E-18
 -1      4141 9.51679E-05-2.83637E-05-2.86310E-05 1.41978E-08 7.02579E-19 6.06736E-19
 -1      4142 8.89507E-05-2.03460E-05-2.93950E-05-3.68338E-06 8.39555E-19-7.72145E-19
 -1      4143 8.89699E-05-1.94541E-05-2.98011E-05-2.04949E-06 9.34493E-19-1.09009E-18
 -1      4144 8.64203E-05-2.23960E-05-2.74450E-05 8.17019E-06 3.82081E-19-1.06112E-18
 -1      4145 9.00503E-05-2.34198E-05-2.85696E-05 3.23747E-06 6.40074E-19 2.01156E-18
 -1      4146 8.94396E-05-2.29961E-05-2.84791E-05 3.61253E-06 9.66735E-19 1.50349E-18
 -1      4147 8.83513E-05-2.23089E-05-2.82828E-05 2.99746E-06-1.84711E-20 4.10512E-19
 -1      4148 8.98732E-05-2.32817E-05-2.85228E-05 2.49087E-06 6.30192E-19 1.24451E-18
 -1      4149 6.48591E-05-1.59577E-05-2.07467E-05 9.15499E-06-1.20363E-18 9.96925E-19
 -1      4150 6.60085E-05-1.56721E-05-2.15560E-05 4.36149E-06 2.14921E-19 1.00481E-18
 -1      4151 9.51806E-05-2.83859E-05-2.86266E-05-1.90867E-08 6.93215E-19 1.17970E-18
 -1      4152 9.51583E-05-2.83437E-05-2.86350E-05-1.91252E-08 5.32213E-19 1.67465E-18
 -1      4153 8.73871E-05-2.04848E-05-2.86668E-05-4.90704E-06 8.04250E-19-7.53322E-19
 -1      4154 8.80436E-05-2.04146E-05-2.90053E-05-4.19847E-06 8.27232E-19-7.20445E-19
 -1      4155 8.73070E-05-1.96209E-05-2.89848E-05-2.76617E-06 8.69986E-19-1.08074E-18
 -1      4156 8.85202E-05-1.90883E-05-2.97676E-05-1.49015E-06 9.39499E-19-1.06717E-18
 -1      4157 8.79331E-05-1.92443E-05-2.94302E-05-1.18588E-06 8.76328E-19-1.01433E-18
 -1      4158 8.80287E-05-2.02285E-05-2.90727E-05 3.23389E-06 6.73597E-19-1.24328E-18
 -1      4159 8.77330E-05-2.07174E-05-2.87089E-05 4.14711E-06 5.72985E-19-1.03292E-18
 -1      4160 8.75254E-05-1.96989E-05-2.90591E-05 2.39180E-06 7.78639E-19-1.06177E-18
 -1      4161 8.02809E-05-2.22865E-05-2.48887E-05 1.21132E-05 1.08306E-18-1.25440E-18
 -1      4162 8.01804E-05-2.34711E-05-2.42371E-05 1.43307E-05 1.09461E-18-1.26510E-18
 -1      4163 9.28675E-05-2.57505E-05-2.87703E-05 9.17110E-07-1.01514E-18 1.10646E-18
 -1      4164 9.25155E-05-2.54190E-05-2.87591E-05 1.05157E-06-3.55417E-19 1.06761E-18
 -1      4165 8.08016E-05-2.07244E-05-2.57301E-05-7.85118E-06-1.85907E-19 3.86267E-19
 -1      4166 8.17220E-05-2.06373E-05-2.62289E-05-6.62104E-06 3.08497E-19 1.34633E-19
 -1      4167 8.32438E-05-2.08853E-05-2.67146E-05-5.64072E-06 5.87789E-19-4.75257E-19
 -1      4168 8.41164E-05-2.10340E-05-2.70748E-05-4.77880E-06 6.49783E-19-5.06101E-19
 -1      4169 8.11565E-05-1.96663E-05-2.62825E-05-4.65938E-06 1.99691E-19-1.94573E-19
 -1      4170 8.53480E-05-2.13682E-05-2.74162E-05-4.11877E-06 2.12749E-19-7.89058E-19
 -1      4171 8.61478E-05-2.16437E-05-2.76730E-05-3.50407E-06-5.51084E-19-8.59750E-19
 -1      4172 8.38617E-05-2.04490E-05-2.71227E-05-3.27288E-06 4.05207E-19-6.10075E-19
 -1      4173 8.71637E-05-2.20377E-05-2.79107E-05-3.03840E-06-1.49311E-18-5.67739E-19
 -1      4174 8.78793E-05-2.23860E-05-2.80895E-05-2.59235E-06-1.91250E-18-8.85048E-19
 -1      4175 8.60595E-05-2.13051E-05-2.77101E-05-2.31725E-06-9.85909E-19-1.30873E-18
 -1      4176 8.87235E-05-2.28051E-05-2.82517E-05-2.26028E-06-1.31565E-18-1.08189E-18
 -1      4177 8.93506E-05-2.31861E-05-2.83719E-05-1.92833E-06-8.26888E-19-1.57657E-18
 -1      4178 8.78883E-05-2.22070E-05-2.81158E-05-1.64463E-06-2.09519E-18-7.82001E-19
 -1      4179 9.00520E-05-2.36055E-05-2.84788E-05-1.68971E-06-6.15188E-19-1.77818E-18
 -1      4180 9.05907E-05-2.39884E-05-2.85558E-05-1.43816E-06-9.27592E-19-1.37388E-18
 -1      4181 8.94102E-05-2.31098E-05-2.83883E-05-1.17072E-06-1.01938E-18-1.61454E-18
 -1      4182 9.11699E-05-2.43881E-05-2.86227E-05-1.26532E-06-8.28711E-19-8.79468E-19
 -1      4183 9.16236E-05-2.47520E-05-2.86685E-05-1.07214E-06 1.34425E-20-3.16755E-19
 -1      4184 9.06729E-05-2.39746E-05-2.85644E-05-8.35315E-07-2.52992E-19-6.87986E-19
 -1      4185 9.20970E-05-2.51184E-05-2.87070E-05-9.46339E-07 6.06520E-19 2.20984E-19
 -1      4186 9.24719E-05-2.54500E-05-2.87309E-05-7.96731E-07 1.07980E-18 5.81078E-19
 -1      4187 9.17115E-05-2.47739E-05-2.86712E-05-5.96598E-07 5.41588E-19 1.36555E-18
 -1      4188 9.28538E-05-2.57750E-05-2.87497E-05-7.04919E-07 2.24307E-19-1.37208E-19
 -1      4189 9.31576E-05-2.60671E-05-2.87587E-05-5.88590E-07-4.12256E-19-7.55213E-19
 -1      4190 9.25558E-05-2.54900E-05-2.87296E-05-4.25878E-07 8.90022E-20 1.46201E-19
 -1      4191 9.34612E-05-2.63476E-05-2.87644E-05-5.21517E-07-6.26791E-19-7.03881E-19
 -1      4192 9.37029E-05-2.65978E-05-2.87636E-05-4.31049E-07-1.31246E-18-9.41584E-19
 -1      4193 9.32325E-05-2.61142E-05-2.87549E-05-3.03275E-07-9.21811E-19 5.77351E-19
 -1      4194 9.39404E-05-2.68340E-05-2.87611E-05-3.82091E-07-1.61457E-18-5.30123E-19
 -1      4195 9.41289E-05-2.70431E-05-2.87544E-05-3.11948E-07-1.24213E-18 1.78527E-19
 -1      4196 9.37665E-05-2.66450E-05-2.87585E-05-2.14925E-07-1.07402E-18 3.93420E-19
 -1      4197 9.43116E-05-2.72376E-05-2.87469E-05-2.76311E-07-1.69516E-19 3.16531E-19
 -1      4198 9.44558E-05-2.74085E-05-2.87371E-05-2.22236E-07 8.37976E-19 4.87514E-19
 -1      4199 9.41811E-05-2.70867E-05-2.87487E-05-1.51108E-07-3.65346E-19 1.00598E-18
 -1      4200 9.45937E-05-2.75656E-05-2.87270E-05-1.96423E-07 9.84788E-19-1.85123E-19
 -1      4201 9.47017E-05-2.77025E-05-2.87158E-05-1.55067E-07 1.21998E-18 2.24961E-19
 -1      4202 9.44971E-05-2.74468E-05-2.87314E-05-1.04970E-07 4.62059E-19 7.65289E-19
 -1      4203 9.48036E-05-2.78269E-05-2.87048E-05-1.36510E-07 6.63155E-19 7.00700E-19
 -1      4204 9.48826E-05-2.79345E-05-2.86934E-05-1.05185E-07 9.09344E-19 7.54075E-19
 -1      4205 9.47335E-05-2.77347E-05-2.87104E-05-7.16632E-08 6.04678E-19 5.54120E-19
 -1      4206 9.49561E-05-2.80312E-05-2.86825E-05-9.19584E-08 4.32173E-19 5.56089E-19
 -1      4207 9.50124E-05-2.81144E-05-2.86716E-05-6.84292E-08-6.49509E-19 5.69200E-19
 -1      4208 9.49063E-05-2.79609E-05-2.86885E-05-4.77701E-08 4.94741E-19-2.62016E-19
 -1      4209 9.50638E-05-2.81883E-05-2.86613E-05-5.91387E-08-8.80672E-19 1.52426E-18
 -1      4210 9.51028E-05-2.82514E-05-2.86513E-05-4.10825E-08-1.03967E-19 1.67866E-18
 -1      4211 9.50290E-05-2.81356E-05-2.86672E-05-3.11242E-08-5.59965E-19 5.72873E-20
 -1      4212 9.39718E-05-2.68464E-05-2.87718E-05 5.52136E-07-7.05899E-19 2.32594E-18
 -1      4213 9.37607E-05-2.66136E-05-2.87790E-05 6.49136E-07-6.62699E-20 2.04029E-18
 -1      4214 9.51674E-05-2.83585E-05-2.86323E-05 2.92700E-08 1.11497E-18 1.00949E-20
 -1      4215 9.51673E-05-2.83563E-05-2.86339E-05 4.29429E-08 1.45437E-18-3.95798E-19
 -1      4216 9.51502E-05-2.83220E-05-2.86405E-05 5.58166E-08 2.33510E-18-5.88579E-19
 -1      4217 9.51490E-05-2.83247E-05-2.86384E-05 2.28384E-08 4.17262E-19-2.55684E-19
 -1      4218 6.91969E-05-1.82299E-05-2.18135E-05 1.25496E-05-1.08012E-18 4.76846E-19
 -1      4219 9.34895E-05-2.63480E-05-2.87796E-05 7.19408E-07 1.06800E-19 9.24599E-19
 -1      4220 9.32149E-05-2.60674E-05-2.87799E-05 8.34966E-07-5.99903E-19 1.07206E-18
 -1      4221 9.35275E-05-2.63809E-05-2.87681E-05 4.63839E-07-8.52385E-19 1.91515E-18
 -1      4222 9.20763E-05-2.50485E-05-2.87334E-05 1.14464E-06 2.55917E-19 8.84330E-19
 -1      4223 9.16304E-05-2.46653E-05-2.87041E-05 1.29739E-06 3.94864E-19 1.29875E-18
 -1      4224 9.21386E-05-2.50896E-05-2.87204E-05 7.14846E-07-1.05274E-19-2.70205E-19
 -1      4225 9.43405E-05-2.72544E-05-2.87542E-05 4.14083E-07-2.85833E-19 1.78373E-18
 -1      4226 9.41805E-05-2.70647E-05-2.87650E-05 4.93697E-07-4.01906E-19 2.84725E-18
 -1      4227 9.40016E-05-2.68749E-05-2.87617E-05 3.59458E-07-3.99971E-19 1.73334E-18
 -1      4228 9.46176E-05-2.75824E-05-2.87317E-05 3.02757E-07 2.35294E-20 1.15585E-18
 -1      4229 9.44985E-05-2.74306E-05-2.87441E-05 3.66725E-07-1.28798E-19 1.20640E-18
 -1      4230 9.43638E-05-2.72787E-05-2.87456E-05 2.71440E-07 2.72102E-20 1.18913E-18
 -1      4231 9.48220E-05-2.78417E-05-2.87076E-05 2.14931E-07-7.32719E-19 1.47372E-18
 -1      4232 9.47350E-05-2.77222E-05-2.87202E-05 2.65294E-07-2.49295E-19 1.48812E-18
 -1      4233 9.46357E-05-2.76028E-05-2.87245E-05 1.99393E-07 1.30982E-19 8.65064E-19
 -1      4234 9.49697E-05-2.80433E-05-2.86840E-05 1.47090E-07-1.18368E-18 1.08977E-18
 -1      4235 9.49074E-05-2.79507E-05-2.86960E-05 1.85964E-07-1.02402E-18 4.39021E-19
 -1      4236 9.48359E-05-2.78586E-05-2.87017E-05 1.41992E-07-3.89400E-19 1.19096E-18
 -1      4237 9.50742E-05-2.81978E-05-2.86620E-05 9.55520E-08-1.10437E-18 5.01080E-19
 -1      4238 9.50304E-05-2.81274E-05-2.86730E-05 1.25171E-07-1.32114E-18 6.93390E-19
 -1      4239 9.49796E-05-2.80571E-05-2.86792E-05 9.73961E-08-7.94812E-19-8.07178E-19
 -1      4240 8.67492E-05-2.08363E-05-2.82577E-05 4.83081E-06 4.37865E-19-9.58493E-19
 -1      4241 8.60727E-05-2.10890E-05-2.78307E-05 5.68097E-06 2.99781E-19-8.48244E-19
 -1      4242 8.60171E-05-2.01636E-05-2.82029E-05 3.78653E-06 5.24419E-19-8.12844E-19
 -1      4243 7.52873E-05-2.00156E-05-2.36572E-05-1.13729E-05 1.82519E-20 2.72758E-19
 -1      4244 7.91734E-05-2.18069E-05-2.45430E-05-1.17539E-05 2.94524E-19-3.71386E-19
 -1      4245 7.93735E-05-2.08800E-05-2.51074E-05-9.59187E-06 2.28798E-19-3.31286E-20
 -1      4246 8.74009E-05-1.93623E-05-2.91745E-05-1.32085E-06 8.46020E-19-9.90565E-19
 -1      4247 8.73582E-05-1.90996E-05-2.92308E-05-1.24424E-07 7.48619E-19-7.70309E-19
 -1      4248 8.74022E-05-1.92972E-05-2.92070E-05 8.00614E-07 7.35592E-19-8.67150E-19
 -1      4249 8.64658E-05-1.93959E-05-2.87639E-05-1.62634E-06 8.39576E-19-1.07386E-18
 -1      4250 6.98862E-05-1.65457E-05-2.29477E-05 5.21852E-06-3.51674E-19 3.39482E-19
 -1      4251 6.66313E-05-1.50018E-05-2.19511E-05-5.68505E-07 5.31937E-19 8.92376E-19
 -1      4252 7.02460E-05-1.64793E-05-2.30099E-05-3.65564E-06 2.87518E-19 7.78798E-19
 -1      4253 7.24850E-05-1.69623E-05-2.38789E-05 4.47046E-06-3.83375E-19 4.50132E-19
 -1      4254 7.75452E-05-1.80839E-05-2.55479E-05 3.51163E-06-4.41014E-19 1.78559E-19
 -1      4255 7.54289E-05-1.76408E-05-2.48087E-05 4.21638E-06-5.25251E-19-9.92617E-23
 -1      4256 7.35674E-05-1.66865E-05-2.42572E-05 6.70138E-07-2.50067E-19 1.06791E-18
 -1      4257 8.47237E-05-2.11120E-05-2.72805E-05 6.68741E-06 3.63010E-19-1.02944E-18
 -1      4258 8.39831E-05-2.14940E-05-2.67631E-05 7.85654E-06 5.17726E-19-9.91561E-19
 -1      4259 8.35958E-05-2.01001E-05-2.71648E-05 5.32196E-06 3.28806E-19-1.02935E-18
 -1      4260 8.26381E-05-2.15567E-05-2.62125E-05 8.92355E-06 5.99807E-19-9.70703E-19
 -1      4261 8.18525E-05-2.20498E-05-2.55850E-05 1.05302E-05 9.48535E-19-1.02268E-18
 -1      4262 7.81183E-05-2.03454E-05-2.47387E-05 9.90530E-06 8.68248E-19-1.15704E-18
 -1      4263 8.09293E-05-2.02471E-05-2.60521E-05 7.37408E-06 6.93223E-19-8.08731E-19
 -1      4264 8.64073E-05-2.12969E-05-2.79237E-05 2.29207E-06-1.32983E-18-2.04946E-19
 -1      4265 8.53401E-05-2.07761E-05-2.76891E-05 2.53285E-06-1.29485E-18-5.60275E-20
 -1      4266 8.13381E-05-1.92051E-05-2.66710E-05 2.91236E-06-8.50439E-19-4.00724E-19
 -1      4267 7.96729E-05-1.87004E-05-2.61689E-05 3.33459E-06-2.72098E-19 8.73515E-20
 -1      4268 7.83049E-05-1.79417E-05-2.57714E-05 8.27707E-07-4.85151E-19 1.01181E-18
 -1      4269 7.37290E-05-1.74194E-05-2.41844E-05-4.78996E-06 1.01690E-19-8.83831E-19
 -1      4270 8.41547E-05-2.02580E-05-2.74117E-05 2.57810E-06-1.01485E-18 1.71717E-19
 -1      4271 8.28229E-05-1.97350E-05-2.70656E-05 2.87835E-06-1.02654E-18-3.87573E-19
 -1      4272 8.18020E-05-1.91298E-05-2.67750E-05 1.02211E-06-1.11015E-18 6.00675E-19
 -1      4273 8.44017E-05-2.02212E-05-2.74464E-05 1.17750E-06-9.12684E-19-1.44330E-19
 -1      4274 7.95887E-05-1.88188E-05-2.59850E-05-6.35039E-06 1.62250E-19-8.57815E-19
 -1      4275 8.29200E-05-2.03493E-05-2.68178E-05-8.06691E-06 2.23475E-19-9.34880E-19
 -1      4276 8.74495E-05-2.18424E-05-2.81294E-05 2.17932E-06-7.37603E-19-8.64382E-20
 -1      4277 8.65926E-05-2.13129E-05-2.79357E-05 1.19107E-06-1.17593E-18-8.67599E-19
 -1      4278 8.83073E-05-2.23491E-05-2.82822E-05 1.97380E-06-1.14124E-19 7.75216E-19
 -1      4279 6.93675E-05-1.63901E-05-2.26230E-05 3.71256E-06 8.35404E-19-1.83557E-18
 -1      4280 7.17693E-05-1.67991E-05-2.35287E-05 1.43757E-06 3.44167E-19-1.25989E-18
 -1      4281 7.20496E-05-1.79655E-05-2.32489E-05 7.34772E-06 8.74037E-19-1.86664E-18
 -1      4282 9.11618E-05-2.42852E-05-2.86424E-05 8.51897E-07 9.16302E-19 4.79849E-19
 -1      4283 9.10813E-05-2.42419E-05-2.86544E-05 1.39934E-06 6.46488E-19 1.39380E-18
 -1      4284 9.05226E-05-2.38094E-05-2.85979E-05 1.56914E-06 1.01801E-18 1.82547E-18
 -1      4285 7.39232E-05-1.70231E-05-2.42948E-05-1.83088E-06 7.24676E-20-9.34693E-19
 -1      4286 7.69251E-05-1.80236E-05-2.52360E-05-4.19247E-06 1.21060E-19-7.93964E-19
 -1      4287 7.47601E-05-1.74997E-05-2.46213E-05 1.60459E-06 3.12324E-19-1.11472E-18
 -1      4288 7.90792E-05-1.84175E-05-2.60685E-05-3.70864E-06 1.99415E-19-7.22642E-19
 -1      4289 9.51375E-05-2.83078E-05-2.86416E-05-2.54310E-08 4.54800E-19 1.77870E-18
 -1      4290 9.51199E-05-2.82809E-05-2.86456E-05 1.41468E-08 3.33491E-19-2.63839E-19
 -1      4291 9.51191E-05-2.82773E-05-2.86470E-05 3.15768E-08 4.77672E-19-1.21890E-18
 -1      4292 8.52418E-05-2.03403E-05-2.78294E-05-6.24994E-06 5.75804E-19-8.03563E-19
 -1      4293 8.41677E-05-1.94251E-05-2.77273E-05-4.35757E-06 6.14644E-19-8.88193E-19
 -1      4294 7.36268E-05-1.84821E-05-2.36758E-05-8.53509E-06-4.14603E-19 8.54920E-20
 -1      4295 7.81620E-05-1.94093E-05-2.51587E-05-7.17340E-06-6.37235E-20 6.80368E-19
 -1      4296 9.51156E-05-2.82721E-05-2.86469E-05-7.46074E-09-2.93275E-20 1.29796E-18
 -1      4297 9.50821E-05-2.82195E-05-2.86557E-05-1.39429E-09-7.30751E-19 1.11291E-18
 -1      4298 9.51849E-05-2.83904E-05-2.86259E-05-2.91785E-08 6.97365E-19 7.42936E-19
 -1      4299 9.29161E-05-2.57878E-05-2.87577E-05 5.83427E-07-6.02373E-19 3.52514E-19
 -1      4300 7.50793E-05-2.16792E-05-2.28633E-05 1.48112E-05 1.28738E-18-1.59146E-18
 -1      4301 9.40700E-05-2.69864E-05-2.87541E-05 7.19130E-08-6.25258E-19 1.14200E-18
 -1      4302 9.38588E-05-2.67642E-05-2.87598E-05 1.07441E-07-9.44847E-19 1.43033E-18
 -1      4303 9.30352E-05-2.59566E-05-2.87545E-05 9.07965E-08-1.16307E-18 9.21905E-19
 -1      4304 9.26841E-05-2.56373E-05-2.87428E-05 1.32403E-07-5.48898E-19 5.65584E-19
 -1      4305 8.25401E-05-1.97831E-05-2.69310E-05-1.32933E-06 1.20095E-19-2.76684E-19
 -1      4306 8.38132E-05-2.02535E-05-2.72855E-05-8.71234E-07-3.50648E-19-6.17920E-19
 -1      4307 8.50043E-05-2.07466E-05-2.75652E-05-7.24675E-07-4.00981E-19-8.76128E-19
 -1      4308 8.60532E-05-2.12316E-05-2.78132E-05-4.11536E-07-1.34426E-18-1.04939E-18
 -1      4309 8.71031E-05-2.17603E-05-2.80243E-05-3.66587E-07-1.84944E-18-1.00767E-18
 -1      4310 8.79708E-05-2.22465E-05-2.81925E-05-1.50621E-07-1.86146E-18-1.12330E-18
 -1      4311 9.02249E-05-2.36801E-05-2.85318E-05-1.40272E-08 2.86846E-19 3.82061E-19
 -1      4312 9.08158E-05-2.41132E-05-2.86013E-05 8.75885E-08 1.06758E-18 9.53288E-19
 -1      4313 9.13703E-05-2.45339E-05-2.86543E-05 5.46998E-08 3.19268E-19 6.95069E-19
 -1      4314 9.18522E-05-2.49242E-05-2.86945E-05 1.24427E-07 4.36693E-19 7.48804E-19
 -1      4315 9.22959E-05-2.52950E-05-2.87228E-05 8.44272E-08 3.30301E-19 6.55198E-19
 -1      4316 9.33435E-05-2.62497E-05-2.87610E-05 1.23964E-07-9.75229E-19 6.29876E-19
 -1      4317 9.36178E-05-2.65187E-05-2.87618E-05 8.43561E-08-1.09253E-18 9.87278E-19
 -1      4318 9.42553E-05-2.71878E-05-2.87469E-05 8.81131E-08 2.18509E-19 1.18883E-18
 -1      4319 9.44152E-05-2.73679E-05-2.87376E-05 5.76229E-08 4.07655E-19 1.10050E-18
 -1      4320 9.45551E-05-2.75301E-05-2.87278E-05 6.90877E-08 2.63483E-19 1.12233E-18
 -1      4321 9.46741E-05-2.76734E-05-2.87168E-05 4.38380E-08-7.89957E-22 6.37386E-19
 -1      4322 9.47776E-05-2.78017E-05-2.87060E-05 5.19955E-08 2.48267E-19 3.27384E-19
 -1      4323 9.48643E-05-2.79139E-05-2.86947E-05 3.17543E-08 2.81440E-19-1.85981E-19
 -1      4324 9.49392E-05-2.80135E-05-2.86838E-05 3.75046E-08 3.53698E-19-1.80801E-19
 -1      4325 9.50009E-05-2.80996E-05-2.86729E-05 2.21181E-08 3.07556E-19-1.25981E-18
 -1      4326 9.50530E-05-2.81751E-05-2.86626E-05 2.45591E-08-6.34836E-19-3.74758E-19
 -1      4327 8.23140E-05-1.89839E-05-2.71321E-05-2.94628E-06 3.74660E-19-7.11946E-19
 -1      4328 8.45963E-05-1.92430E-05-2.80394E-05-1.95473E-06 7.59747E-19-9.04640E-19
 -1      4329 7.94830E-05-1.88256E-05-2.60332E-05-2.21537E-06-5.13164E-19 4.25656E-19
 -1      4330 8.10583E-05-1.92842E-05-2.65359E-05-1.56442E-06 9.39503E-20 2.19147E-19
 -1      4331 7.30847E-05-1.75287E-05-2.37499E-05-6.35903E-06-8.06241E-20 7.04073E-19
 -1      4332 7.61701E-05-1.87233E-05-2.45787E-05-6.63045E-06 2.64302E-19 4.41953E-19
 -1      4333 7.75119E-05-1.85468E-05-2.52195E-05-5.08496E-06 9.78555E-20 6.81706E-19
 -1      4334 8.41695E-05-2.03323E-05-2.73637E-05-7.12507E-06 4.13321E-19-9.24760E-19
 -1      4335 9.51294E-05-2.82852E-05-2.86477E-05 7.22300E-08 9.63063E-19-2.72432E-19
 -1      4336 9.50976E-05-2.82378E-05-2.86537E-05 5.66760E-08 7.32005E-19-1.46172E-18
 -1      4337 8.57519E-05-1.96041E-05-2.83895E-05 2.03077E-06 6.50936E-19-1.11239E-18
 -1      4338 8.47098E-05-1.96619E-05-2.79082E-05 2.68313E-06 4.89730E-19-1.06555E-18
 -1      4339 8.67680E-05-1.95418E-05-2.88055E-05 1.42079E-06 6.51626E-19-1.10301E-18
 -1      4340 8.36134E-05-1.94002E-05-2.75590E-05 1.91073E-06 4.06544E-19-9.37809E-19
 -1      4341 8.21552E-05-1.92910E-05-2.69917E-05 2.67059E-06 4.06261E-19-9.21379E-19
 -1      4342 7.37886E-05-1.94792E-05-2.33030E-05 1.05834E-05 1.12506E-18-1.88362E-18
 -1      4343 8.98418E-05-2.33372E-05-2.85131E-05 1.67700E-06 5.25889E-19 1.38148E-18
 -1      4344 8.91478E-05-2.28622E-05-2.84171E-05 1.86314E-06 3.84040E-19 1.26556E-18
 -1      4345 8.99468E-05-2.33794E-05-2.85046E-05 9.85275E-07 4.23243E-19 1.60873E-18
 -1      4346 7.26401E-05-1.68484E-05-2.39733E-05-2.07670E-06 1.21599E-19 1.33384E-18
 -1      4347 8.01189E-05-1.81933E-05-2.64570E-05-9.97897E-07 2.67899E-19-6.63505E-19
 -1      4348 7.47807E-05-1.89054E-05-2.39195E-05 7.97902E-06 7.78812E-19-1.64784E-18
 -1      4349 7.54195E-05-1.75281E-05-2.48736E-05-1.87206E-06 2.20932E-20 7.07537E-19
 -1      4350 8.84453E-05-2.23835E-05-2.82809E-05 1.10292E-06-6.82118E-19 5.23904E-19
 -1      4351 8.88196E-05-2.27482E-05-2.83322E-05-1.44113E-07-1.32220E-18-6.63248E-19
 -1      4352 8.95374E-05-2.32146E-05-2.84430E-05 4.09362E-09-4.48974E-19-2.63480E-20
 -1      4353 8.59010E-05-1.92037E-05-2.85539E-05 2.61324E-07 7.17726E-19-1.00800E-18
 -1      4354 7.74642E-05-1.82806E-05-2.54136E-05-2.53080E-06-9.62110E-20 7.44645E-19
 -1      4355 7.66219E-05-1.88980E-05-2.46983E-05 6.74653E-06 5.24141E-19-1.30820E-18
 -1      4356 8.55132E-05-1.93507E-05-2.83427E-05-1.20117E-06 7.93997E-19-9.72593E-19
 -1      4357 7.91804E-05-1.86805E-05-2.59425E-05 2.81336E-06 2.19401E-19-9.23375E-19
 -1      4358 7.80966E-05-1.88718E-05-2.53271E-05 5.63282E-06 5.46179E-19-1.13694E-18
 -1      4359 9.50628E-05-2.81848E-05-2.86613E-05 4.82393E-08 1.20611E-19-1.12699E-18
 -1      4360 8.39322E-05-1.90208E-05-2.77947E-05 7.82634E-08 5.78232E-19-1.02500E-18
 -3
    1PSTEP                         4           1           1          
  100CL  101 1.000000000        4360                     0    1           1
 -4  ERROR       1    1
 -5  STR(%)      1    1    0    0
 -1         1 1.21322E+01
 -1         2 2.48204E+01
 -1         3 7.47594E-04
 -1         4 7.75886E-04
 -1         5 1.37514E+01
 -1         6 1.28616E+01
 -1         7 1.28616E+01
 -1         8 3.54023E+00
 -1         9 1.82139E+00
 -1        10 1.32360E+00
 -1        11 1.05765E+00
 -1        12 8.79154E-01
 -1        13 7.46273E-01
 -1        14 6.49724E-01
 -1        15 6.45286E-01
 -1        16 7.41420E-01
 -1        17 8.68992E-01
 -1        18 1.06026E+00
 -1        19 1.33720E+00
 -1        20 1.82766E+00
 -1        21 3.37628E+00
 -1        22 8.33359E+00
 -1        23 1.28616E+01
 -1        24 4.23439E+00
 -1        25 3.14679E+00
 -1        26 1.89185E+00
 -1        27 1.37917E+00
 -1        28 1.01692E+00
 -1        29 7.25137E-01
 -1        30 6.86083E-01
 -1        31 7.51966E-01
 -1        32 9.33961E-01
 -1        33 9.96036E-01
 -1        34 9.96036E-01
 -1        35 9.84313E-01
 -1        36 1.17545E+00
 -1        37 1.50227E+00
 -1        38 2.60057E+00
 -1        39 3.27681E+00
 -1        40 3.27681E+00
 -1        41 3.26816E+00
 -1        42 3.26816E+00
 -1        43 2.53733E+00
 -1        44 1.50161E+00
 -1        45 1.19660E+00
 -1        46 1.05881E+00
 -1        47 1.04102E+00
 -1        48 1.02226E+00
 -1        49 9.85297E-01
 -1        50 8.55137E-01
 -1        51 6.89676E-01
 -1        52 5.51323E-01
 -1        53 4.35299E-01
 -1        54 3.76246E-01
 -1        55 3.11705E-01
 -1        56 2.49316E-01
 -1        57 1.93314E-01
 -1        58 1.45565E-01
 -1        59 1.06412E-01
 -1        60 8.87307E-02
 -1        61 7.30828E-02
 -1        62 5.86428E-02
 -1        63 4.58488E-02
 -1        64 3.48258E-02
 -1        65 2.55039E-02
 -1        66 2.01679E-02
 -1        67 1.58532E-02
 -1        68 1.15362E-02
 -1        69 7.26197E-03
 -1        70 5.56450E-03
 -1        71 3.76694E-03
 -1        72 1.37514E+01
 -1        73 3.38573E+00
 -1        74 2.34858E+00
 -1        75 1.59079E+00
 -1        76 1.36889E+00
 -1        77 1.18691E+00
 -1        78 1.03039E+00
 -1        79 9.56652E-01
 -1        80 9.61303E-01
 -1        81 9.61303E-01
 -1        82 1.22144E+00
 -1        83 1.43284E+00
 -1        84 1.61743E+00
 -1        85 1.86633E+00
 -1        86 2.02723E+00
 -1        87 2.49654E+00
 -1        88 3.91131E+00
 -1        89 4.36464E+00
 -1        90 4.83376E+00
 -1        91 4.83376E+00
 -1        92 3.56608E+00
 -1        93 1.98295E+00
 -1        94 1.43760E+00
 -1        95 1.64245E+00
 -1        96 1.69745E+00
 -1        97 1.69745E+00
 -1        98 1.53827E+00
 -1        99 1.29599E+00
 -1       100 1.07953E+00
 -1       101 8.58859E-01
 -1       102 6.57873E-01
 -1       103 4.87116E-01
 -1       104 3.63514E-01
 -1       105 2.79739E-01
 -1       106 2.10275E-01
 -1       107 1.54433E-01
 -1       108 1.10647E-01
 -1       109 7.70448E-02
 -1       110 5.29812E-02
 -1       111 4.40633E-02
 -1       112 3.57446E-02
 -1       113 2.82579E-02
 -1       114 2.16679E-02
 -1       115 1.86654E-02
 -1       116 1.57800E-02
 -1       117 1.24488E-02
 -1       118 8.75085E-03
 -1       119 5.56224E-03
 -1       120 3.66549E-03
 -1       121 1.71620E-03
 -1       122 1.23687E-03
 -1       123 4.52679E-04
 -1       124 5.57297E-04
 -1       125 6.78329E-04
 -1       126 6.95483E-04
 -1       127 6.95483E-04
 -1       128 6.73207E-04
 -1       129 6.63423E-04
 -1       130 6.71338E-04
 -1       131 6.71338E-04
 -1       132 6.53339E-04
 -1       133 5.34822E-04
 -1       134 5.28751E-04
 -1       135 1.61115E-03
 -1       136 2.53277E-03
 -1       137 2.58990E+01
 -1       138 4.74657E+01
 -1       139 4.74657E+01
 -1       140 2.06679E+01
 -1       141 1.18681E+01
 -1       142 1.20715E+01
 -1       143 1.20715E+01
 -1       144 1.29286E+01
 -1       145 1.29286E+01
 -1       146 1.29366E+01
 -1       147 3.10668E+01
 -1       148 3.21327E+01
 -1       149 2.76013E+01
 -1       150 2.50154E+01
 -1       151 2.65430E+01
 -1       152 2.65430E+01
 -1       153 4.04480E+01
 -1       154 4.04480E+01
 -1       155 1.50353E+01
 -1       156 1.32408E+01
 -1       157 1.32408E+01
 -1       158 1.21322E+01
 -1       159 1.19121E+01
 -1       160 1.15407E+01
 -1       161 2.54112E+01
 -1       162 3.05452E+01
 -1       163 3.05452E+01
 -1       164 2.50797E+01
 -1       165 5.86149E+00
 -1       166 2.30634E+00
 -1       167 1.55544E+00
 -1       168 1.19099E+00
 -1       169 9.68176E-01
 -1       170 8.16337E-01
 -1       171 7.03335E-01
 -1       172 6.24514E-01
 -1       173 6.98849E-01
 -1       174 8.09214E-01
 -1       175 9.70332E-01
 -1       176 1.20104E+00
 -1       177 1.57505E+00
 -1       178 2.29137E+00
 -1       179 3.80189E+00
 -1       180 1.37514E+01
 -1       181 4.23439E+00
 -1       182 3.14679E+00
 -1       183 1.89185E+00
 -1       184 1.37917E+00
 -1       185 1.01692E+00
 -1       186 7.25137E-01
 -1       187 6.86083E-01
 -1       188 6.71779E-01
 -1       189 7.51966E-01
 -1       190 9.33961E-01
 -1       191 9.96036E-01
 -1       192 9.55684E-01
 -1       193 9.84313E-01
 -1       194 1.17545E+00
 -1       195 1.68990E+00
 -1       196 2.60057E+00
 -1       197 3.27681E+00
 -1       198 3.21609E+00
 -1       199 3.26816E+00
 -1       200 2.53733E+00
 -1       201 1.63311E+00
 -1       202 1.19660E+00
 -1       203 1.05881E+00
 -1       204 1.04102E+00
 -1       205 1.02226E+00
 -1       206 9.85297E-01
 -1       207 8.55137E-01
 -1       208 7.06191E-01
 -1       209 5.99858E-01
 -1       210 5.09523E-01
 -1       211 4.11550E-01
 -1       212 3.18212E-01
 -1       213 2.49316E-01
 -1       214 1.94579E-01
 -1       215 1.51940E-01
 -1       216 1.15508E-01
 -1       217 8.87307E-02
 -1       218 7.30828E-02
 -1       219 5.86428E-02
 -1       220 4.58488E-02
 -1       221 3.48258E-02
 -1       222 2.58665E-02
 -1       223 2.01679E-02
 -1       224 1.58532E-02
 -1       225 1.15362E-02
 -1       226 7.75358E-03
 -1       227 5.56450E-03
 -1       228 3.76694E-03
 -1       229 3.38573E+00
 -1       230 2.34858E+00
 -1       231 1.59079E+00
 -1       232 1.36889E+00
 -1       233 1.18691E+00
 -1       234 1.03039E+00
 -1       235 8.94543E-01
 -1       236 9.56652E-01
 -1       237 9.61303E-01
 -1       238 9.83244E-01
 -1       239 1.22144E+00
 -1       240 1.43284E+00
 -1       241 1.61743E+00
 -1       242 1.86633E+00
 -1       243 2.02723E+00
 -1       244 2.64001E+00
 -1       245 3.91131E+00
 -1       246 4.36464E+00
 -1       247 4.83376E+00
 -1       248 3.56608E+00
 -1       249 1.98295E+00
 -1       250 1.22111E+00
 -1       251 1.43760E+00
 -1       252 1.64245E+00
 -1       253 1.69745E+00
 -1       254 1.53827E+00
 -1       255 1.29599E+00
 -1       256 1.07953E+00
 -1       257 8.83968E-01
 -1       258 6.96061E-01
 -1       259 5.29756E-01
 -1       260 3.90803E-01
 -1       261 2.82966E-01
 -1       262 2.10275E-01
 -1       263 1.54433E-01
 -1       264 1.12768E-01
 -1       265 8.07612E-02
 -1       266 5.62286E-02
 -1       267 4.40633E-02
 -1       268 3.57446E-02
 -1       269 2.82579E-02
 -1       270 2.16679E-02
 -1       271 1.86654E-02
 -1       272 1.57800E-02
 -1       273 1.24488E-02
 -1       274 8.75085E-03
 -1       275 5.56224E-03
 -1       276 3.66549E-03
 -1       277 1.25149E-03
 -1       278 9.62343E-04
 -1       279 9.40217E-04
 -1       280 1.15086E-03
 -1       281 1.19290E-03
 -1       282 1.19290E-03
 -1       283 1.17650E-03
 -1       284 1.13497E-03
 -1       285 1.14284E-03
 -1       286 1.15315E-03
 -1       287 1.15315E-03
 -1       288 1.11375E-03
 -1       289 8.77866E-04
 -1       290 8.27588E-04
 -1       291 2.33127E-03
 -1       292 2.95082E+01
 -1       293 2.68787E+01
 -1       294 4.74657E+01
 -1       295 2.20035E+01
 -1       296 1.10506E+01
 -1       297 1.18681E+01
 -1       298 1.20715E+01
 -1       299 1.20381E+01
 -1       300 1.29286E+01
 -1       301 1.19327E+01
 -1       302 1.29366E+01
 -1       303 3.21327E+01
 -1       304 3.21327E+01
 -1       305 2.64771E+01
 -1       306 3.03044E+01
 -1       307 3.03044E+01
 -1       308 3.66668E+01
 -1       309 4.04480E+01
 -1       310 1.50353E+01
 -1       311 1.18867E+01
 -1       312 1.32408E+01
 -1       313 1.18377E+01
 -1       314 1.21322E+01
 -1       315 1.19121E+01
 -1       316 1.09980E+01
 -1       317 1.15407E+01
 -1       318 2.72734E+01
 -1       319 3.07084E+01
 -1       320 3.07084E+01
 -1       321 2.95082E+01
 -1       322 1.11098E+00
 -1       323 2.38853E+00
 -1       324 8.19703E-01
 -1       325 6.95695E-01
 -1       326 5.97820E-01
 -1       327 5.17943E-01
 -1       328 5.14532E-01
 -1       329 5.91929E-01
 -1       330 6.96151E-01
 -1       331 8.23374E-01
 -1       332 9.81168E-01
 -1       333 1.20019E+00
 -1       334 1.32765E+00
 -1       335 2.01951E+00
 -1       336 1.67424E+00
 -1       337 1.51759E+00
 -1       338 9.89275E-01
 -1       339 7.03553E-01
 -1       340 5.38658E-01
 -1       341 4.67149E-01
 -1       342 4.92308E-01
 -1       343 4.95309E-01
 -1       344 6.26581E-01
 -1       345 6.62538E-01
 -1       346 5.57668E-01
 -1       347 5.66648E-01
 -1       348 7.61132E-01
 -1       349 1.21514E+00
 -1       350 1.58207E+00
 -1       351 2.02000E+00
 -1       352 2.06751E+00
 -1       353 2.09571E+00
 -1       354 2.01082E+00
 -1       355 1.54382E+00
 -1       356 1.16430E+00
 -1       357 6.65865E-01
 -1       358 5.50241E-01
 -1       359 6.28678E-01
 -1       360 7.55558E-01
 -1       361 7.59628E-01
 -1       362 6.90275E-01
 -1       363 6.15078E-01
 -1       364 5.46328E-01
 -1       365 4.65526E-01
 -1       366 3.79672E-01
 -1       367 2.98213E-01
 -1       368 2.26285E-01
 -1       369 1.65977E-01
 -1       370 1.17436E-01
 -1       371 8.54840E-02
 -1       372 6.14627E-02
 -1       373 4.47634E-02
 -1       374 3.62433E-02
 -1       375 2.94214E-02
 -1       376 2.30770E-02
 -1       377 1.73566E-02
 -1       378 1.25055E-02
 -1       379 1.00078E-02
 -1       380 7.26054E-03
 -1       381 4.90326E-03
 -1       382 3.08809E-03
 -1       383 1.02023E+00
 -1       384 7.30509E-01
 -1       385 7.10067E-01
 -1       386 6.59135E-01
 -1       387 7.00238E-01
 -1       388 8.75133E-01
 -1       389 1.04313E+00
 -1       390 1.15289E+00
 -1       391 1.15289E+00
 -1       392 1.09212E+00
 -1       393 9.41787E-01
 -1       394 1.05939E+00
 -1       395 1.80839E+00
 -1       396 2.32494E+00
 -1       397 2.59795E+00
 -1       398 2.81183E+00
 -1       399 2.72956E+00
 -1       400 2.35260E+00
 -1       401 1.39269E+00
 -1       402 9.15796E-01
 -1       403 1.07129E+00
 -1       404 1.24349E+00
 -1       405 1.26073E+00
 -1       406 1.22744E+00
 -1       407 1.10139E+00
 -1       408 9.77144E-01
 -1       409 8.19890E-01
 -1       410 6.59312E-01
 -1       411 5.12178E-01
 -1       412 3.86101E-01
 -1       413 2.82966E-01
 -1       414 2.04994E-01
 -1       415 1.53723E-01
 -1       416 1.12768E-01
 -1       417 8.07612E-02
 -1       418 5.62286E-02
 -1       419 3.77677E-02
 -1       420 2.72019E-02
 -1       421 2.27153E-02
 -1       422 1.82392E-02
 -1       423 1.39942E-02
 -1       424 1.01067E-02
 -1       425 8.29032E-03
 -1       426 6.29202E-03
 -1       427 4.65394E-03
 -1       428 3.11229E-03
 -1       429 1.56868E-03
 -1       430 2.00197E-03
 -1       431 2.46604E-03
 -1       432 1.56868E-03
 -1       433 1.52452E-03
 -1       434 1.38746E-03
 -1       435 1.31771E-03
 -1       436 1.27458E-03
 -1       437 1.34033E-03
 -1       438 1.46542E-03
 -1       439 1.53168E-03
 -1       440 1.53168E-03
 -1       441 2.63184E-03
 -1       442 2.68787E+01
 -1       443 3.58042E+01
 -1       444 3.58042E+01
 -1       445 1.65258E+01
 -1       446 9.57418E+00
 -1       447 9.63180E-01
 -1       448 1.00779E+01
 -1       449 1.03811E+01
 -1       450 1.13250E+01
 -1       451 9.13706E+00
 -1       452 7.10559E+00
 -1       453 1.17611E+01
 -1       454 2.08158E+01
 -1       455 2.53084E+01
 -1       456 3.68057E+01
 -1       457 3.68057E+01
 -1       458 2.01744E+01
 -1       459 2.37240E+01
 -1       460 1.33024E+01
 -1       461 7.20665E+00
 -1       462 7.38728E+00
 -1       463 1.00371E+01
 -1       464 1.03674E+01
 -1       465 1.00542E+01
 -1       466 8.42622E+00
 -1       467 6.69509E+00
 -1       468 1.09726E+01
 -1       469 1.89174E+01
 -1       470 3.07084E+01
 -1       471 3.39934E+01
 -1       472 7.35540E+00
 -1       473 2.27309E+01
 -1       474 2.60107E+01
 -1       475 7.83245E+00
 -1       476 2.28286E+01
 -1       477 8.00187E-01
 -1       478 4.90438E-01
 -1       479 5.49922E-01
 -1       480 3.53937E-01
 -1       481 4.07986E-01
 -1       482 4.79180E-01
 -1       483 5.43044E-01
 -1       484 5.74300E-01
 -1       485 7.94386E-01
 -1       486 5.56506E-01
 -1       487 6.20864E-01
 -1       488 5.14895E+00
 -1       489 3.79679E-01
 -1       490 2.59473E-01
 -1       491 2.74176E-01
 -1       492 3.71224E-01
 -1       493 4.64143E-01
 -1       494 5.71152E-01
 -1       495 6.58420E-01
 -1       496 6.97622E-01
 -1       497 8.65596E-01
 -1       498 1.02281E+00
 -1       499 1.21023E+00
 -1       500 1.35910E+00
 -1       501 1.65381E+00
 -1       502 2.03799E+00
 -1       503 2.12152E+00
 -1       504 2.15175E+00
 -1       505 1.59935E+00
 -1       506 1.43392E+00
 -1       507 1.14901E+00
 -1       508 1.05299E+00
 -1       509 8.52299E-01
 -1       510 8.07613E-01
 -1       511 7.80532E-01
 -1       512 7.09288E-01
 -1       513 6.44538E-01
 -1       514 5.82326E-01
 -1       515 5.05381E-01
 -1       516 4.21462E-01
 -1       517 3.39898E-01
 -1       518 2.66105E-01
 -1       519 2.02631E-01
 -1       520 1.50117E-01
 -1       521 1.08049E-01
 -1       522 7.52980E-02
 -1       523 5.04845E-02
 -1       524 3.21993E-02
 -1       525 2.19874E-02
 -1       526 1.70103E-02
 -1       527 1.42120E-02
 -1       528 1.12535E-02
 -1       529 8.35299E-03
 -1       530 5.82666E-03
 -1       531 4.29229E-03
 -1       532 4.07668E-01
 -1       533 5.84476E-01
 -1       534 7.83295E-01
 -1       535 9.55818E-01
 -1       536 1.08042E+00
 -1       537 1.27166E+00
 -1       538 1.42845E+00
 -1       539 1.47280E+00
 -1       540 1.87867E+00
 -1       541 1.87154E+00
 -1       542 2.80691E+00
 -1       543 4.25461E+00
 -1       544 5.86557E+00
 -1       545 6.25350E+00
 -1       546 2.93609E+00
 -1       547 2.08304E+00
 -1       548 1.86658E+00
 -1       549 1.53820E+00
 -1       550 1.55432E+00
 -1       551 1.44242E+00
 -1       552 1.27034E+00
 -1       553 1.15325E+00
 -1       554 1.03151E+00
 -1       555 8.76716E-01
 -1       556 7.16529E-01
 -1       557 5.67444E-01
 -1       558 4.37494E-01
 -1       559 3.29213E-01
 -1       560 2.41967E-01
 -1       561 1.73539E-01
 -1       562 1.21111E-01
 -1       563 8.18130E-02
 -1       564 5.30426E-02
 -1       565 3.69668E-02
 -1       566 2.72019E-02
 -1       567 2.27153E-02
 -1       568 1.82392E-02
 -1       569 1.39942E-02
 -1       570 1.01067E-02
 -1       571 7.66577E-03
 -1       572 5.58414E-03
 -1       573 3.78048E-03
 -1       574 1.86138E-03
 -1       575 1.49204E-03
 -1       576 3.21153E-03
 -1       577 2.16712E-03
 -1       578 1.31771E-03
 -1       579 1.24368E-03
 -1       580 1.27458E-03
 -1       581 1.43662E-03
 -1       582 1.74555E-03
 -1       583 1.86048E-03
 -1       584 2.08126E-03
 -1       585 3.58042E+01
 -1       586 1.19524E+01
 -1       587 4.21485E-01
 -1       588 4.73608E+00
 -1       589 9.43828E+00
 -1       590 2.53084E+01
 -1       591 4.21478E-01
 -1       592 8.87310E+00
 -1       593 8.01606E+00
 -1       594 8.01744E+00
 -1       595 6.55086E+00
 -1       596 4.06624E+00
 -1       597 7.41494E+00
 -1       598 1.19463E+01
 -1       599 1.53377E+01
 -1       600 3.68057E+01
 -1       601 1.91022E+01
 -1       602 5.77307E+00
 -1       603 1.13164E+01
 -1       604 4.19164E+00
 -1       605 7.71837E+00
 -1       606 8.05286E+00
 -1       607 3.95275E+00
 -1       608 6.02697E+00
 -1       609 1.55985E+01
 -1       610 3.39934E+01
 -1       611 8.50638E-01
 -1       612 1.15171E+00
 -1       613 8.15447E+00
 -1       614 5.49922E-01
 -1       615 1.28845E+01
 -1       616 4.85915E+00
 -1       617 1.58556E+01
 -1       618 6.31584E+00
 -1       619 2.78563E-03
 -1       620 5.57738E-01
 -1       621 1.91296E+01
 -1       622 3.21279E-01
 -1       623 2.60906E-01
 -1       624 4.46396E-01
 -1       625 4.95888E-01
 -1       626 4.60581E-01
 -1       627 5.10003E+00
 -1       628 1.25082E+01
 -1       629 3.08423E+00
 -1       630 3.23079E-01
 -1       631 3.12404E-01
 -1       632 3.90475E-01
 -1       633 4.89235E-01
 -1       634 5.92775E-01
 -1       635 7.51622E-01
 -1       636 9.18789E-01
 -1       637 1.06332E+00
 -1       638 1.31847E+00
 -1       639 1.64591E+00
 -1       640 1.72666E+00
 -1       641 3.16188E+00
 -1       642 3.25269E+00
 -1       643 5.63070E+00
 -1       644 5.37265E+00
 -1       645 3.13002E+00
 -1       646 2.01823E+00
 -1       647 1.97596E+00
 -1       648 1.77065E+00
 -1       649 1.75983E+00
 -1       650 1.55879E+00
 -1       651 1.30527E+00
 -1       652 1.06947E+00
 -1       653 9.56310E-01
 -1       654 8.21149E-01
 -1       655 6.84796E-01
 -1       656 5.57958E-01
 -1       657 4.45522E-01
 -1       658 3.49119E-01
 -1       659 2.68583E-01
 -1       660 2.02778E-01
 -1       661 1.50087E-01
 -1       662 1.08704E-01
 -1       663 7.68256E-02
 -1       664 5.27605E-02
 -1       665 3.49914E-02
 -1       666 2.22015E-02
 -1       667 1.32759E-02
 -1       668 7.89431E-03
 -1       669 6.82775E-03
 -1       670 5.42398E-03
 -1       671 3.92396E-03
 -1       672 7.01127E-01
 -1       673 4.76814E+00
 -1       674 5.17758E-01
 -1       675 1.12730E+00
 -1       676 1.32449E+00
 -1       677 1.66402E+00
 -1       678 2.08587E+00
 -1       679 2.44062E+00
 -1       680 2.77413E+00
 -1       681 2.83223E+00
 -1       682 5.86557E+00
 -1       683 2.08304E+00
 -1       684 3.02304E+00
 -1       685 2.37352E+00
 -1       686 1.91263E+00
 -1       687 1.52496E+00
 -1       688 1.33102E+00
 -1       689 1.13758E+00
 -1       690 9.43629E-01
 -1       691 7.64698E-01
 -1       692 6.07508E-01
 -1       693 4.73976E-01
 -1       694 3.63430E-01
 -1       695 2.73858E-01
 -1       696 2.02646E-01
 -1       697 1.47024E-01
 -1       698 1.04322E-01
 -1       699 7.21112E-02
 -1       700 4.82691E-02
 -1       701 3.09924E-02
 -1       702 1.87856E-02
 -1       703 1.24998E-02
 -1       704 1.09150E-02
 -1       705 8.92707E-03
 -1       706 6.79420E-03
 -1       707 4.73744E-03
 -1       708 3.74301E-03
 -1       709 6.90737E+00
 -1       710 1.20511E-03
 -1       711 2.77031E-03
 -1       712 1.61684E-03
 -1       713 1.15555E-03
 -1       714 1.30628E-03
 -1       715 1.22591E-03
 -1       716 1.51381E-03
 -1       717 1.88131E-03
 -1       718 4.05850E-01
 -1       719 5.99679E+00
 -1       720 6.98452E+00
 -1       721 6.93714E+00
 -1       722 1.18953E+01
 -1       723 9.86513E+00
 -1       724 1.17247E+01
 -1       725 3.77313E-01
 -1       726 9.10170E-01
 -1       727 3.47866E-01
 -1       728 3.45512E-01
 -1       729 4.73788E+00
 -1       730 3.75187E-01
 -1       731 3.90067E-01
 -1       732 1.55392E+01
 -1       733 1.59226E+01
 -1       734 1.46352E+01
 -1       735 4.61442E+00
 -1       736 4.25461E+00
 -1       737 9.67071E+00
 -1       738 6.95131E+00
 -1       739 2.74347E+00
 -1       740 9.59326E+00
 -1       741 5.37265E+00
 -1       742 3.29756E+00
 -1       743 4.55416E-01
 -1       744 2.80809E-01
 -1       745 7.56722E+00
 -1       746 2.13128E-03
 -1       747 2.94860E+00
 -1       748 2.59884E-03
 -1       749 5.63070E+00
 -1       750 1.12045E+01
 -1       751 1.18953E+01
 -1       752 2.88756E+00
 -1       753 3.40758E-01
 -1       754 1.11906E+01
 -1       755 9.59385E+00
 -1       756 2.47830E-03
 -1       757 2.05666E+00
 -1       758 4.26516E-01
 -1       759 9.32345E+00
 -1       760 3.93983E-01
 -1       761 4.97202E-01
 -1       762 6.40549E-01
 -1       763 8.11976E-01
 -1       764 1.00352E+00
 -1       765 1.32642E+00
 -1       766 1.69913E+00
 -1       767 2.02267E+00
 -1       768 2.34774E+00
 -1       769 3.16188E+00
 -1       770 2.43301E+00
 -1       771 2.40909E+00
 -1       772 2.10072E+00
 -1       773 1.75983E+00
 -1       774 1.55879E+00
 -1       775 1.30527E+00
 -1       776 1.06775E+00
 -1       777 8.66496E-01
 -1       778 6.88280E-01
 -1       779 5.57958E-01
 -1       780 4.45522E-01
 -1       781 3.49119E-01
 -1       782 2.68583E-01
 -1       783 2.02778E-01
 -1       784 1.50087E-01
 -1       785 1.08704E-01
 -1       786 7.68256E-02
 -1       787 5.27605E-02
 -1       788 3.49914E-02
 -1       789 2.22015E-02
 -1       790 1.32759E-02
 -1       791 7.29150E-03
 -1       792 4.80721E-03
 -1       793 3.48732E-03
 -1       794 3.27988E-03
 -1       795 1.90716E+00
 -1       796 1.44459E+00
 -1       797 3.03360E+00
 -1       798 3.96633E+00
 -1       799 4.35329E+00
 -1       800 2.18098E+00
 -1       801 1.70751E+00
 -1       802 1.31581E+00
 -1       803 1.02928E+00
 -1       804 8.01466E-01
 -1       805 6.32894E-01
 -1       806 4.92733E-01
 -1       807 3.74938E-01
 -1       808 2.79272E-01
 -1       809 2.06315E-01
 -1       810 1.53167E-01
 -1       811 1.11863E-01
 -1       812 8.01535E-02
 -1       813 5.61581E-02
 -1       814 3.83022E-02
 -1       815 2.52734E-02
 -1       816 1.59888E-02
 -1       817 9.56760E-03
 -1       818 5.97841E-03
 -1       819 5.26643E-03
 -1       820 4.33236E-03
 -1       821 2.96961E-03
 -1       822 1.69746E-03
 -1       823 1.99378E-03
 -1       824 1.71615E-03
 -1       825 5.04129E-01
 -1       826 3.79928E+00
 -1       827 1.31775E-03
 -1       828 5.54045E+00
 -1       829 2.83313E+00
 -1       830 4.80429E+00
 -1       831 5.38854E+00
 -1       832 6.25350E+00
 -1       833 3.45512E-01
 -1       834 2.40653E+00
 -1       835 8.01126E+00
 -1       836 6.23189E-01
 -1       837 4.60890E+00
 -1       838 7.63828E+00
 -1       839 3.62395E-01
 -1       840 4.02730E-01
 -1       841 4.68064E+00
 -1       842 9.63062E+00
 -1       843 7.41326E+00
 -1       844 5.72408E+00
 -1       845 1.93350E-01
 -1       846 1.11906E+01
 -1       847 1.46684E-01
 -1       848 3.95818E-01
 -1       849 4.58332E+00
 -1       850 7.75091E+00
 -1       851 8.32524E+00
 -1       852 2.38191E-03
 -1       853 4.55416E-01
 -1       854 3.13002E+00
 -1       855 7.92446E-01
 -1       856 6.89977E+00
 -1       857 1.07563E+00
 -1       858 1.52823E-03
 -1       859 1.71615E-03
 -1       860 4.26516E-01
 -1       861 7.08762E+00
 -1       862 5.64941E+00
 -1       863 5.63070E+00
 -1       864 3.07766E-01
 -1       865 7.98722E+00
 -1       866 5.00470E-01
 -1       867 4.55416E-01
 -1       868 6.31752E-01
 -1       869 8.29385E-01
 -1       870 1.14580E+00
 -1       871 1.54176E+00
 -1       872 1.91754E+00
 -1       873 2.40941E+00
 -1       874 3.08996E+00
 -1       875 6.30148E+00
 -1       876 3.19169E+00
 -1       877 2.50210E+00
 -1       878 1.99010E+00
 -1       879 1.51514E+00
 -1       880 1.11210E+00
 -1       881 8.41568E-01
 -1       882 6.64520E-01
 -1       883 5.43578E-01
 -1       884 4.40589E-01
 -1       885 3.49914E-01
 -1       886 2.72703E-01
 -1       887 2.08596E-01
 -1       888 1.56496E-01
 -1       889 1.14978E-01
 -1       890 8.25194E-02
 -1       891 5.76320E-02
 -1       892 3.97029E-02
 -1       893 2.66579E-02
 -1       894 1.71383E-02
 -1       895 1.03815E-02
 -1       896 5.75065E-03
 -1       897 3.15732E-03
 -1       898 1.93864E+00
 -1       899 4.57527E+00
 -1       900 6.78061E+00
 -1       901 2.28636E+00
 -1       902 1.00729E+00
 -1       903 7.92134E-01
 -1       904 6.15289E-01
 -1       905 4.72254E-01
 -1       906 3.57909E-01
 -1       907 2.67505E-01
 -1       908 1.96824E-01
 -1       909 1.42226E-01
 -1       910 1.00611E-01
 -1       911 7.01472E-02
 -1       912 4.81661E-02
 -1       913 3.19922E-02
 -1       914 2.03655E-02
 -1       915 1.22898E-02
 -1       916 7.23263E-03
 -1       917 4.36590E-03
 -1       918 3.14476E-03
 -1       919 3.19129E-03
 -1       920 2.38191E-03
 -1       921 4.17024E-01
 -1       922 3.78485E+00
 -1       923 5.16921E+00
 -1       924 8.17989E+00
 -1       925 6.13008E-01
 -1       926 2.42842E-01
 -1       927 6.16927E+00
 -1       928 5.16028E+00
 -1       929 1.26170E+00
 -1       930 4.87698E+00
 -1       931 1.64623E+00
 -1       932 5.06316E-01
 -1       933 4.26516E-01
 -1       934 5.62175E-01
 -1       935 2.82233E-01
 -1       936 5.62209E+00
 -1       937 2.43301E+00
 -1       938 2.71682E+00
 -1       939 3.60768E+00
 -1       940 5.65488E+00
 -1       941 1.38246E+00
 -1       942 5.31403E+00
 -1       943 4.62457E-01
 -1       944 4.96533E-03
 -1       945 3.19129E-03
 -1       946 5.96589E+00
 -1       947 3.15732E-03
 -1       948 3.43909E-01
 -1       949 7.94561E-01
 -1       950 5.62175E-01
 -1       951 6.22041E+00
 -1       952 5.06291E+00
 -1       953 6.02983E-03
 -1       954 5.56422E+00
 -1       955 5.96589E+00
 -1       956 1.12359E+00
 -1       957 1.55972E+00
 -1       958 2.23498E+00
 -1       959 3.52937E+00
 -1       960 7.03276E-01
 -1       961 4.08783E-01
 -1       962 3.28779E+00
 -1       963 1.79165E+00
 -1       964 1.44330E+00
 -1       965 1.05332E+00
 -1       966 8.41568E-01
 -1       967 6.64520E-01
 -1       968 5.20842E-01
 -1       969 4.05311E-01
 -1       970 3.12681E-01
 -1       971 2.38695E-01
 -1       972 1.79932E-01
 -1       973 1.33632E-01
 -1       974 9.75289E-02
 -1       975 6.97285E-02
 -1       976 4.86321E-02
 -1       977 3.30179E-02
 -1       978 2.22773E-02
 -1       979 1.44125E-02
 -1       980 8.86876E-03
 -1       981 5.12869E-03
 -1       982 1.04595E+00
 -1       983 5.62221E-01
 -1       984 9.24898E-01
 -1       985 4.08054E-01
 -1       986 3.08560E-01
 -1       987 2.31089E-01
 -1       988 1.70882E-01
 -1       989 1.24388E-01
 -1       990 8.88319E-02
 -1       991 6.19803E-02
 -1       992 4.25149E-02
 -1       993 2.87275E-02
 -1       994 1.86727E-02
 -1       995 1.15529E-02
 -1       996 8.29533E-03
 -1       997 2.78982E-01
 -1       998 1.64623E+00
 -1       999 3.66252E+00
 -1      1000 1.22622E+00
 -1      1001 3.14934E+00
 -1      1002 3.91610E+00
 -1      1003 6.02983E-03
 -1      1004 4.07950E+00
 -1      1005 8.21649E-01
 -1      1006 2.22553E+00
 -1      1007 6.31752E-01
 -1      1008 5.36317E-01
 -1      1009 3.80710E+00
 -1      1010 5.16683E-01
 -1      1011 3.32090E+00
 -1      1012 3.86055E+00
 -1      1013 2.21850E+00
 -1      1014 4.55215E+00
 -1      1015 5.28049E+00
 -1      1016 6.53559E-03
 -1      1017 8.29533E-03
 -1      1018 5.19709E-01
 -1      1019 4.36065E-01
 -1      1020 3.78912E-03
 -1      1021 5.11925E-01
 -1      1022 9.86845E-01
 -1      1023 5.10368E+00
 -1      1024 4.45647E+00
 -1      1025 1.82517E+00
 -1      1026 2.19149E+00
 -1      1027 1.61923E+00
 -1      1028 1.44330E+00
 -1      1029 1.05061E+00
 -1      1030 7.76577E-01
 -1      1031 5.80453E-01
 -1      1032 4.37088E-01
 -1      1033 3.29986E-01
 -1      1034 2.48751E-01
 -1      1035 1.86489E-01
 -1      1036 1.38556E-01
 -1      1037 1.01685E-01
 -1      1038 7.34646E-02
 -1      1039 5.23368E-02
 -1      1040 3.71923E-02
 -1      1041 2.56240E-02
 -1      1042 1.76728E-02
 -1      1043 1.17577E-02
 -1      1044 1.80079E-01
 -1      1045 3.86055E+00
 -1      1046 7.21967E-01
 -1      1047 2.39460E-01
 -1      1048 3.15600E-01
 -1      1049 1.33744E-01
 -1      1050 9.77819E-02
 -1      1051 7.01337E-02
 -1      1052 4.91438E-02
 -1      1053 3.34543E-02
 -1      1054 2.27272E-02
 -1      1055 1.55653E-02
 -1      1056 9.60481E-03
 -1      1057 9.56580E-01
 -1      1058 5.19709E-01
 -1      1059 2.37075E+00
 -1      1060 9.77273E-01
 -1      1061 1.69051E+00
 -1      1062 1.36687E+00
 -1      1063 6.53559E-03
 -1      1064 4.58524E-03
 -1      1065 2.75175E+00
 -1      1066 1.79465E+00
 -1      1067 6.61694E-01
 -1      1068 1.39945E+00
 -1      1069 1.98272E+00
 -1      1070 3.27419E+00
 -1      1071 3.65431E+00
 -1      1072 3.34334E+00
 -1      1073 2.97120E+00
 -1      1074 5.10368E+00
 -1      1075 4.14135E-01
 -1      1076 6.64311E-03
 -1      1077 3.55473E+00
 -1      1078 3.63882E-01
 -1      1079 6.61694E-01
 -1      1080 1.01282E-02
 -1      1081 8.39981E-01
 -1      1082 5.44663E-01
 -1      1083 1.82517E+00
 -1      1084 9.56580E-01
 -1      1085 2.89759E+00
 -1      1086 1.88301E-01
 -1      1087 1.60897E+00
 -1      1088 1.21162E+00
 -1      1089 8.28129E-01
 -1      1090 5.97831E-01
 -1      1091 4.48304E-01
 -1      1092 3.51175E-01
 -1      1093 2.74586E-01
 -1      1094 2.13277E-01
 -1      1095 1.64007E-01
 -1      1096 1.24526E-01
 -1      1097 9.31184E-02
 -1      1098 6.83909E-02
 -1      1099 4.91623E-02
 -1      1100 3.44188E-02
 -1      1101 2.35387E-02
 -1      1102 1.57735E-02
 -1      1103 1.06989E-01
 -1      1104 1.55653E-02
 -1      1105 1.42812E-01
 -1      1106 2.46029E-01
 -1      1107 7.89327E-02
 -1      1108 5.71514E-02
 -1      1109 4.04328E-02
 -1      1110 2.77683E-02
 -1      1111 1.87879E-02
 -1      1112 1.39945E+00
 -1      1113 2.29721E+00
 -1      1114 6.63474E-01
 -1      1115 3.42935E+00
 -1      1116 2.00565E+00
 -1      1117 2.94706E+00
 -1      1118 2.36779E+00
 -1      1119 6.69445E-01
 -1      1120 1.34289E+00
 -1      1121 8.86993E-01
 -1      1122 2.00067E+00
 -1      1123 5.47790E-01
 -1      1124 3.27523E+00
 -1      1125 3.20757E-01
 -1      1126 2.94706E+00
 -1      1127 1.51545E-02
 -1      1128 2.00067E+00
 -1      1129 2.15242E+00
 -1      1130 9.95513E-01
 -1      1131 4.18181E-01
 -1      1132 1.28616E+01
 -1      1133 8.20093E+00
 -1      1134 2.68081E+00
 -1      1135 1.57250E+00
 -1      1136 1.19062E+00
 -1      1137 9.68402E-01
 -1      1138 8.12713E-01
 -1      1139 6.97998E-01
 -1      1140 6.47505E-01
 -1      1141 6.93353E-01
 -1      1142 8.05206E-01
 -1      1143 9.64625E-01
 -1      1144 1.19873E+00
 -1      1145 1.58243E+00
 -1      1146 2.60197E+00
 -1      1147 5.85493E+00
 -1      1148 1.10425E+01
 -1      1149 1.28616E+01
 -1      1150 8.54801E+00
 -1      1151 3.69059E+00
 -1      1152 2.51932E+00
 -1      1153 1.63551E+00
 -1      1154 1.19805E+00
 -1      1155 8.71028E-01
 -1      1156 7.05610E-01
 -1      1157 7.19024E-01
 -1      1158 8.42963E-01
 -1      1159 9.64998E-01
 -1      1160 9.96036E-01
 -1      1161 9.90175E-01
 -1      1162 1.07988E+00
 -1      1163 1.33886E+00
 -1      1164 2.05142E+00
 -1      1165 2.93869E+00
 -1      1166 3.27681E+00
 -1      1167 3.27249E+00
 -1      1168 3.26816E+00
 -1      1169 2.90275E+00
 -1      1170 2.01947E+00
 -1      1171 1.34910E+00
 -1      1172 1.12770E+00
 -1      1173 1.04992E+00
 -1      1174 1.03164E+00
 -1      1175 1.00378E+00
 -1      1176 9.20217E-01
 -1      1177 7.72406E-01
 -1      1178 6.20500E-01
 -1      1179 4.93311E-01
 -1      1180 4.05773E-01
 -1      1181 3.43976E-01
 -1      1182 2.80511E-01
 -1      1183 2.21315E-01
 -1      1184 1.69439E-01
 -1      1185 1.25988E-01
 -1      1186 9.75713E-02
 -1      1187 8.09067E-02
 -1      1188 6.58628E-02
 -1      1189 5.22458E-02
 -1      1190 4.03373E-02
 -1      1191 3.01648E-02
 -1      1192 2.28359E-02
 -1      1193 1.80106E-02
 -1      1194 1.36947E-02
 -1      1195 9.39911E-03
 -1      1196 6.41323E-03
 -1      1197 4.66572E-03
 -1      1198 2.27141E-03
 -1      1199 1.37514E+01
 -1      1200 8.56858E+00
 -1      1201 2.86716E+00
 -1      1202 1.96968E+00
 -1      1203 1.47984E+00
 -1      1204 1.27790E+00
 -1      1205 1.10865E+00
 -1      1206 9.93521E-01
 -1      1207 9.58978E-01
 -1      1208 9.61303E-01
 -1      1209 1.09137E+00
 -1      1210 1.32714E+00
 -1      1211 1.52513E+00
 -1      1212 1.74188E+00
 -1      1213 1.94678E+00
 -1      1214 2.26189E+00
 -1      1215 3.20393E+00
 -1      1216 4.13798E+00
 -1      1217 4.59920E+00
 -1      1218 4.83376E+00
 -1      1219 4.19992E+00
 -1      1220 2.77451E+00
 -1      1221 1.71027E+00
 -1      1222 1.54002E+00
 -1      1223 1.66995E+00
 -1      1224 1.69745E+00
 -1      1225 1.61786E+00
 -1      1226 1.41713E+00
 -1      1227 1.18776E+00
 -1      1228 9.69192E-01
 -1      1229 7.58366E-01
 -1      1230 5.72495E-01
 -1      1231 4.25315E-01
 -1      1232 3.21627E-01
 -1      1233 2.45007E-01
 -1      1234 1.82354E-01
 -1      1235 1.32540E-01
 -1      1236 9.38461E-02
 -1      1237 6.50130E-02
 -1      1238 4.85223E-02
 -1      1239 3.99039E-02
 -1      1240 3.20013E-02
 -1      1241 2.49629E-02
 -1      1242 2.01666E-02
 -1      1243 1.72227E-02
 -1      1244 1.41144E-02
 -1      1245 1.05998E-02
 -1      1246 7.15654E-03
 -1      1247 4.61386E-03
 -1      1248 2.20654E-03
 -1      1249 1.23189E-03
 -1      1250 1.47653E-03
 -1      1251 8.44773E-04
 -1      1252 5.04988E-04
 -1      1253 6.17813E-04
 -1      1254 6.86906E-04
 -1      1255 6.95483E-04
 -1      1256 6.84345E-04
 -1      1257 6.68315E-04
 -1      1258 6.67380E-04
 -1      1259 6.71338E-04
 -1      1260 6.62338E-04
 -1      1261 5.94081E-04
 -1      1262 5.31787E-04
 -1      1263 1.06995E-03
 -1      1264 2.07196E-03
 -1      1265 1.65433E-03
 -1      1266 2.53597E+01
 -1      1267 3.66824E+01
 -1      1268 4.74657E+01
 -1      1269 3.40668E+01
 -1      1270 1.62680E+01
 -1      1271 1.19698E+01
 -1      1272 1.20715E+01
 -1      1273 1.25001E+01
 -1      1274 1.29286E+01
 -1      1275 1.29326E+01
 -1      1276 2.20017E+01
 -1      1277 3.15997E+01
 -1      1278 2.98670E+01
 -1      1279 2.63084E+01
 -1      1280 2.57792E+01
 -1      1281 2.65430E+01
 -1      1282 3.34955E+01
 -1      1283 4.04480E+01
 -1      1284 2.77417E+01
 -1      1285 1.41380E+01
 -1      1286 1.32408E+01
 -1      1287 1.26865E+01
 -1      1288 1.21322E+01
 -1      1289 1.20222E+01
 -1      1290 1.17264E+01
 -1      1291 1.84759E+01
 -1      1292 2.79782E+01
 -1      1293 3.05452E+01
 -1      1294 2.78124E+01
 -1      1295 2.49500E+01
 -1      1296 1.28616E+01
 -1      1297 4.70086E+00
 -1      1298 9.36156E+00
 -1      1299 2.06387E+00
 -1      1300 2.92328E+00
 -1      1301 4.08391E+00
 -1      1302 1.43952E+00
 -1      1303 1.68842E+00
 -1      1304 1.93089E+00
 -1      1305 1.12432E+00
 -1      1306 1.25729E+00
 -1      1307 1.37322E+00
 -1      1308 9.23665E-01
 -1      1309 1.01291E+00
 -1      1310 1.07958E+00
 -1      1311 7.81305E-01
 -1      1312 8.47745E-01
 -1      1313 8.92256E-01
 -1      1314 6.76529E-01
 -1      1315 7.24804E-01
 -1      1316 7.59836E-01
 -1      1317 6.34900E-01
 -1      1318 6.37119E-01
 -1      1319 6.63924E-01
 -1      1320 7.20134E-01
 -1      1321 6.72067E-01
 -1      1322 6.61681E-01
 -1      1323 8.39103E-01
 -1      1324 7.75317E-01
 -1      1325 7.54031E-01
 -1      1326 1.01530E+00
 -1      1327 9.19662E-01
 -1      1328 8.89773E-01
 -1      1329 1.26912E+00
 -1      1330 1.13065E+00
 -1      1331 1.08569E+00
 -1      1332 1.70136E+00
 -1      1333 1.45613E+00
 -1      1334 1.38805E+00
 -1      1335 2.83383E+00
 -1      1336 2.05952E+00
 -1      1337 1.93321E+00
 -1      1338 6.06774E+00
 -1      1339 3.58908E+00
 -1      1340 3.04663E+00
 -1      1341 1.37514E+01
 -1      1342 1.10425E+01
 -1      1343 8.77666E+00
 -1      1344 1.37514E+01
 -1      1345 8.54801E+00
 -1      1346 4.23439E+00
 -1      1347 3.69059E+00
 -1      1348 3.14679E+00
 -1      1349 3.69059E+00
 -1      1350 2.51932E+00
 -1      1351 1.89185E+00
 -1      1352 2.51932E+00
 -1      1353 1.63551E+00
 -1      1354 1.37917E+00
 -1      1355 1.63551E+00
 -1      1356 1.19805E+00
 -1      1357 1.01692E+00
 -1      1358 1.19805E+00
 -1      1359 8.71028E-01
 -1      1360 7.25137E-01
 -1      1361 8.71028E-01
 -1      1362 7.05610E-01
 -1      1363 6.86083E-01
 -1      1364 7.05610E-01
 -1      1365 6.78931E-01
 -1      1366 7.11873E-01
 -1      1367 6.78931E-01
 -1      1368 7.51966E-01
 -1      1369 8.42963E-01
 -1      1370 7.11873E-01
 -1      1371 9.33961E-01
 -1      1372 9.64998E-01
 -1      1373 8.42963E-01
 -1      1374 9.96036E-01
 -1      1375 9.96036E-01
 -1      1376 9.64998E-01
 -1      1377 9.75860E-01
 -1      1378 9.69999E-01
 -1      1379 9.75860E-01
 -1      1380 9.84313E-01
 -1      1381 1.07988E+00
 -1      1382 9.69999E-01
 -1      1383 1.17545E+00
 -1      1384 1.33886E+00
 -1      1385 1.07988E+00
 -1      1386 1.59608E+00
 -1      1387 2.14523E+00
 -1      1388 1.43268E+00
 -1      1389 2.60057E+00
 -1      1390 2.93869E+00
 -1      1391 2.14523E+00
 -1      1392 3.27681E+00
 -1      1393 3.27681E+00
 -1      1394 2.93869E+00
 -1      1395 3.24645E+00
 -1      1396 3.24213E+00
 -1      1397 3.24645E+00
 -1      1398 3.26816E+00
 -1      1399 3.26816E+00
 -1      1400 3.24213E+00
 -1      1401 2.90275E+00
 -1      1402 2.53733E+00
 -1      1403 2.90275E+00
 -1      1404 2.08522E+00
 -1      1405 1.56736E+00
 -1      1406 2.08522E+00
 -1      1407 1.34910E+00
 -1      1408 1.19660E+00
 -1      1409 1.41485E+00
 -1      1410 1.12770E+00
 -1      1411 1.05881E+00
 -1      1412 1.12770E+00
 -1      1413 1.04992E+00
 -1      1414 1.04102E+00
 -1      1415 1.04992E+00
 -1      1416 1.03164E+00
 -1      1417 1.02226E+00
 -1      1418 1.03164E+00
 -1      1419 1.00378E+00
 -1      1420 9.85297E-01
 -1      1421 1.00378E+00
 -1      1422 9.20217E-01
 -1      1423 8.55137E-01
 -1      1424 9.20217E-01
 -1      1425 7.80664E-01
 -1      1426 6.97933E-01
 -1      1427 7.80664E-01
 -1      1428 6.44767E-01
 -1      1429 5.75591E-01
 -1      1430 6.53024E-01
 -1      1431 5.30423E-01
 -1      1432 4.72411E-01
 -1      1433 5.54690E-01
 -1      1434 4.23425E-01
 -1      1435 3.93898E-01
 -1      1436 4.60537E-01
 -1      1437 3.47229E-01
 -1      1438 3.14959E-01
 -1      1439 3.64881E-01
 -1      1440 2.80511E-01
 -1      1441 2.49316E-01
 -1      1442 2.83764E-01
 -1      1443 2.21948E-01
 -1      1444 1.93947E-01
 -1      1445 2.21948E-01
 -1      1446 1.72627E-01
 -1      1447 1.48752E-01
 -1      1448 1.73260E-01
 -1      1449 1.30536E-01
 -1      1450 1.10960E-01
 -1      1451 1.33724E-01
 -1      1452 9.75713E-02
 -1      1453 8.87307E-02
 -1      1454 1.02119E-01
 -1      1455 8.09067E-02
 -1      1456 7.30828E-02
 -1      1457 8.09067E-02
 -1      1458 6.58628E-02
 -1      1459 5.86428E-02
 -1      1460 6.58628E-02
 -1      1461 5.22458E-02
 -1      1462 4.58488E-02
 -1      1463 5.22458E-02
 -1      1464 4.03373E-02
 -1      1465 3.48258E-02
 -1      1466 4.03373E-02
 -1      1467 3.03462E-02
 -1      1468 2.56852E-02
 -1      1469 3.03462E-02
 -1      1470 2.28359E-02
 -1      1471 2.01679E-02
 -1      1472 2.30172E-02
 -1      1473 1.80106E-02
 -1      1474 1.58532E-02
 -1      1475 1.80106E-02
 -1      1476 1.36947E-02
 -1      1477 1.15362E-02
 -1      1478 1.36947E-02
 -1      1479 9.64492E-03
 -1      1480 7.50777E-03
 -1      1481 9.64492E-03
 -1      1482 6.41323E-03
 -1      1483 5.56450E-03
 -1      1484 6.65904E-03
 -1      1485 4.66572E-03
 -1      1486 3.76694E-03
 -1      1487 4.66572E-03
 -1      1488 3.14986E-03
 -1      1489 3.14986E-03
 -1      1490 3.38573E+00
 -1      1491 8.56858E+00
 -1      1492 8.56858E+00
 -1      1493 2.34858E+00
 -1      1494 2.86716E+00
 -1      1495 2.86716E+00
 -1      1496 1.59079E+00
 -1      1497 1.96968E+00
 -1      1498 1.96968E+00
 -1      1499 1.36889E+00
 -1      1500 1.47984E+00
 -1      1501 1.47984E+00
 -1      1502 1.18691E+00
 -1      1503 1.27790E+00
 -1      1504 1.27790E+00
 -1      1505 1.03039E+00
 -1      1506 1.10865E+00
 -1      1507 1.10865E+00
 -1      1508 9.25597E-01
 -1      1509 9.62466E-01
 -1      1510 9.62466E-01
 -1      1511 9.58978E-01
 -1      1512 9.56652E-01
 -1      1513 9.25597E-01
 -1      1514 9.61303E-01
 -1      1515 9.61303E-01
 -1      1516 9.58978E-01
 -1      1517 1.10234E+00
 -1      1518 9.72274E-01
 -1      1519 9.72274E-01
 -1      1520 1.32714E+00
 -1      1521 1.22144E+00
 -1      1522 1.10234E+00
 -1      1523 1.52513E+00
 -1      1524 1.43284E+00
 -1      1525 1.32714E+00
 -1      1526 1.74188E+00
 -1      1527 1.61743E+00
 -1      1528 1.52513E+00
 -1      1529 1.94678E+00
 -1      1530 1.86633E+00
 -1      1531 1.74188E+00
 -1      1532 2.26189E+00
 -1      1533 2.02723E+00
 -1      1534 1.94678E+00
 -1      1535 3.27566E+00
 -1      1536 2.56827E+00
 -1      1537 2.33362E+00
 -1      1538 4.13798E+00
 -1      1539 3.91131E+00
 -1      1540 3.27566E+00
 -1      1541 4.59920E+00
 -1      1542 4.36464E+00
 -1      1543 4.13798E+00
 -1      1544 4.83376E+00
 -1      1545 4.83376E+00
 -1      1546 4.59920E+00
 -1      1547 3.56608E+00
 -1      1548 4.19992E+00
 -1      1549 4.19992E+00
 -1      1550 1.98295E+00
 -1      1551 2.77451E+00
 -1      1552 2.77451E+00
 -1      1553 1.32935E+00
 -1      1554 1.60203E+00
 -1      1555 1.60203E+00
 -1      1556 1.54002E+00
 -1      1557 1.43760E+00
 -1      1558 1.32935E+00
 -1      1559 1.66995E+00
 -1      1560 1.64245E+00
 -1      1561 1.54002E+00
 -1      1562 1.69745E+00
 -1      1563 1.69745E+00
 -1      1564 1.66995E+00
 -1      1565 1.53827E+00
 -1      1566 1.61786E+00
 -1      1567 1.61786E+00
 -1      1568 1.29599E+00
 -1      1569 1.41713E+00
 -1      1570 1.41713E+00
 -1      1571 1.07953E+00
 -1      1572 1.18776E+00
 -1      1573 1.18776E+00
 -1      1574 8.71414E-01
 -1      1575 9.81747E-01
 -1      1576 9.81747E-01
 -1      1577 6.76967E-01
 -1      1578 7.77460E-01
 -1      1579 7.90015E-01
 -1      1580 5.08436E-01
 -1      1581 5.93814E-01
 -1      1582 6.12908E-01
 -1      1583 3.77159E-01
 -1      1584 4.38960E-01
 -1      1585 4.60279E-01
 -1      1586 2.81353E-01
 -1      1587 3.23240E-01
 -1      1588 3.36885E-01
 -1      1589 2.10275E-01
 -1      1590 2.45007E-01
 -1      1591 2.46621E-01
 -1      1592 1.54433E-01
 -1      1593 1.82354E-01
 -1      1594 1.82354E-01
 -1      1595 1.11708E-01
 -1      1596 1.33601E-01
 -1      1597 1.33601E-01
 -1      1598 7.89030E-02
 -1      1599 9.57043E-02
 -1      1600 9.67647E-02
 -1      1601 5.46049E-02
 -1      1602 6.66367E-02
 -1      1603 6.84949E-02
 -1      1604 4.40633E-02
 -1      1605 4.85223E-02
 -1      1606 5.01459E-02
 -1      1607 3.57446E-02
 -1      1608 3.99039E-02
 -1      1609 3.99039E-02
 -1      1610 2.82579E-02
 -1      1611 3.20013E-02
 -1      1612 3.20013E-02
 -1      1613 2.16679E-02
 -1      1614 2.49629E-02
 -1      1615 2.49629E-02
 -1      1616 1.86654E-02
 -1      1617 2.01666E-02
 -1      1618 2.01666E-02
 -1      1619 1.57800E-02
 -1      1620 1.72227E-02
 -1      1621 1.72227E-02
 -1      1622 1.24488E-02
 -1      1623 1.41144E-02
 -1      1624 1.41144E-02
 -1      1625 8.75085E-03
 -1      1626 1.05998E-02
 -1      1627 1.05998E-02
 -1      1628 5.56224E-03
 -1      1629 7.15654E-03
 -1      1630 7.15654E-03
 -1      1631 3.66549E-03
 -1      1632 4.61386E-03
 -1      1633 4.61386E-03
 -1      1634 2.69084E-03
 -1      1635 1.24418E-03
 -1      1636 1.48384E-03
 -1      1637 7.07511E-04
 -1      1638 1.09960E-03
 -1      1639 1.10692E-03
 -1      1640 7.48757E-04
 -1      1641 6.96448E-04
 -1      1642 9.51280E-04
 -1      1643 9.14595E-04
 -1      1644 8.54079E-04
 -1      1645 1.04554E-03
 -1      1646 9.44190E-04
 -1      1647 9.35613E-04
 -1      1648 1.17188E-03
 -1      1649 9.44190E-04
 -1      1650 9.44190E-04
 -1      1651 1.19290E-03
 -1      1652 9.24852E-04
 -1      1653 9.35990E-04
 -1      1654 1.18470E-03
 -1      1655 8.99195E-04
 -1      1656 9.04087E-04
 -1      1657 1.15573E-03
 -1      1658 9.07088E-04
 -1      1659 9.03130E-04
 -1      1660 1.13890E-03
 -1      1661 9.12245E-04
 -1      1662 9.12245E-04
 -1      1663 1.14799E-03
 -1      1664 9.03245E-04
 -1      1665 9.12245E-04
 -1      1666 1.15315E-03
 -1      1667 8.24287E-04
 -1      1668 8.83545E-04
 -1      1669 1.13345E-03
 -1      1670 7.03309E-04
 -1      1671 7.06344E-04
 -1      1672 9.95809E-04
 -1      1673 1.21937E-03
 -1      1674 6.78170E-04
 -1      1675 8.52727E-04
 -1      1676 2.43202E-03
 -1      1677 1.97121E-03
 -1      1678 1.57943E-03
 -1      1679 3.04910E-03
 -1      1680 2.77036E+01
 -1      1681 2.71643E+01
 -1      1682 3.71722E+01
 -1      1683 2.63889E+01
 -1      1684 4.74657E+01
 -1      1685 4.74657E+01
 -1      1686 2.13357E+01
 -1      1687 3.47346E+01
 -1      1688 1.14593E+01
 -1      1689 1.58592E+01
 -1      1690 1.19698E+01
 -1      1691 1.18681E+01
 -1      1692 1.20715E+01
 -1      1693 1.20715E+01
 -1      1694 1.24834E+01
 -1      1695 1.20548E+01
 -1      1696 1.29286E+01
 -1      1697 1.29286E+01
 -1      1698 1.24347E+01
 -1      1699 1.24307E+01
 -1      1700 2.20017E+01
 -1      1701 1.29366E+01
 -1      1702 3.21327E+01
 -1      1703 3.15997E+01
 -1      1704 2.98670E+01
 -1      1705 3.21327E+01
 -1      1706 2.57463E+01
 -1      1707 2.70392E+01
 -1      1708 2.84237E+01
 -1      1709 2.76599E+01
 -1      1710 2.84237E+01
 -1      1711 2.84237E+01
 -1      1712 3.85574E+01
 -1      1713 3.16049E+01
 -1      1714 4.04480E+01
 -1      1715 4.04480E+01
 -1      1716 1.50353E+01
 -1      1717 2.77417E+01
 -1      1718 1.25637E+01
 -1      1719 1.34610E+01
 -1      1720 1.32408E+01
 -1      1721 1.32408E+01
 -1      1722 1.19850E+01
 -1      1723 1.25392E+01
 -1      1724 1.21322E+01
 -1      1725 1.21322E+01
 -1      1726 1.19121E+01
 -1      1727 1.20222E+01
 -1      1728 1.12693E+01
 -1      1729 1.14551E+01
 -1      1730 1.84759E+01
 -1      1731 1.15407E+01
 -1      1732 2.89093E+01
 -1      1733 2.63423E+01
 -1      1734 3.06268E+01
 -1      1735 3.06268E+01
 -1      1736 2.78940E+01
 -1      1737 3.06268E+01
 -1      1738 2.71643E+01
 -1      1739 2.72940E+01
 -1      1740 1.65270E+01
 -1      1741 3.47346E+01
 -1      1742 2.69084E-03
 -1      1743 2.45849E-03
 -1      1744 2.81935E+01
 -1      1745 3.71722E+01
 -1      1746 2.95082E+01
 -1      1747 1.14593E+01
 -1      1748 1.19698E+01
 -1      1749 1.20548E+01
 -1      1750 1.24834E+01
 -1      1751 1.24307E+01
 -1      1752 1.24347E+01
 -1      1753 2.25347E+01
 -1      1754 3.21327E+01
 -1      1755 2.93049E+01
 -1      1756 2.83908E+01
 -1      1757 3.03044E+01
 -1      1758 3.34856E+01
 -1      1759 3.85574E+01
 -1      1760 2.77417E+01
 -1      1761 1.34610E+01
 -1      1762 1.25637E+01
 -1      1763 1.25392E+01
 -1      1764 1.19850E+01
 -1      1765 1.20222E+01
 -1      1766 1.14551E+01
 -1      1767 1.12693E+01
 -1      1768 1.94070E+01
 -1      1769 2.89909E+01
 -1      1770 3.07084E+01
 -1      1771 3.01083E+01
 -1      1772 9.36156E+00
 -1      1773 1.33321E+00
 -1      1774 1.70866E+00
 -1      1775 2.34744E+00
 -1      1776 4.12501E+00
 -1      1777 1.74975E+00
 -1      1778 8.93939E-01
 -1      1779 1.00535E+00
 -1      1780 7.56016E-01
 -1      1781 8.31935E-01
 -1      1782 7.57699E-01
 -1      1783 6.50577E-01
 -1      1784 7.07079E-01
 -1      1785 6.46758E-01
 -1      1786 5.71228E-01
 -1      1787 6.10639E-01
 -1      1788 5.57882E-01
 -1      1789 6.06690E-01
 -1      1790 5.69523E-01
 -1      1791 5.16237E-01
 -1      1792 7.00571E-01
 -1      1793 6.45389E-01
 -1      1794 5.53230E-01
 -1      1795 8.33241E-01
 -1      1796 7.52682E-01
 -1      1797 6.44040E-01
 -1      1798 1.01221E+00
 -1      1799 8.96853E-01
 -1      1800 7.59763E-01
 -1      1801 1.27811E+00
 -1      1802 1.09110E+00
 -1      1803 9.02271E-01
 -1      1804 1.74578E+00
 -1      1805 1.38762E+00
 -1      1806 1.09068E+00
 -1      1807 2.56477E+00
 -1      1808 1.80951E+00
 -1      1809 1.26392E+00
 -1      1810 7.88547E+00
 -1      1811 2.91070E+00
 -1      1812 1.67358E+00
 -1      1813 2.70262E+00
 -1      1814 5.04794E+00
 -1      1815 2.01141E+00
 -1      1816 2.52998E+00
 -1      1817 1.84688E+00
 -1      1818 3.31146E+00
 -1      1819 2.33219E+00
 -1      1820 1.70472E+00
 -1      1821 1.44056E+00
 -1      1822 1.18422E+00
 -1      1823 1.25343E+00
 -1      1824 1.04136E+00
 -1      1825 8.60237E-01
 -1      1826 8.46414E-01
 -1      1827 7.77789E-01
 -1      1828 6.31897E-01
 -1      1829 6.21106E-01
 -1      1830 5.96143E-01
 -1      1831 5.76616E-01
 -1      1832 5.02904E-01
 -1      1833 5.89195E-01
 -1      1834 5.82044E-01
 -1      1835 4.79729E-01
 -1      1836 5.83544E-01
 -1      1837 6.23637E-01
 -1      1838 4.93809E-01
 -1      1839 6.89273E-01
 -1      1840 7.80271E-01
 -1      1841 5.60945E-01
 -1      1842 7.98249E-01
 -1      1843 8.29287E-01
 -1      1844 6.44560E-01
 -1      1845 7.76852E-01
 -1      1846 7.56676E-01
 -1      1847 6.10103E-01
 -1      1848 7.61166E-01
 -1      1849 7.75481E-01
 -1      1850 5.62158E-01
 -1      1851 8.72723E-01
 -1      1852 9.68294E-01
 -1      1853 6.63890E-01
 -1      1854 1.19530E+00
 -1      1855 1.45252E+00
 -1      1856 9.88134E-01
 -1      1857 1.63599E+00
 -1      1858 2.09132E+00
 -1      1859 1.39861E+00
 -1      1860 2.31029E+00
 -1      1861 2.64841E+00
 -1      1862 1.80104E+00
 -1      1863 2.67216E+00
 -1      1864 2.64180E+00
 -1      1865 2.04376E+00
 -1      1866 2.65590E+00
 -1      1867 2.68194E+00
 -1      1868 2.08161E+00
 -1      1869 2.63949E+00
 -1      1870 2.27408E+00
 -1      1871 2.05327E+00
 -1      1872 2.04058E+00
 -1      1873 1.58847E+00
 -1      1874 1.77732E+00
 -1      1875 1.39870E+00
 -1      1876 1.18045E+00
 -1      1877 1.35406E+00
 -1      1878 9.31230E-01
 -1      1879 8.62339E-01
 -1      1880 9.15082E-01
 -1      1881 8.04527E-01
 -1      1882 7.95632E-01
 -1      1883 6.08053E-01
 -1      1884 8.34850E-01
 -1      1885 8.25470E-01
 -1      1886 5.89459E-01
 -1      1887 8.88910E-01
 -1      1888 8.70427E-01
 -1      1889 6.92118E-01
 -1      1890 8.72462E-01
 -1      1891 8.07382E-01
 -1      1892 7.57593E-01
 -1      1893 7.72706E-01
 -1      1894 6.98233E-01
 -1      1895 7.24952E-01
 -1      1896 6.60635E-01
 -1      1897 6.07468E-01
 -1      1898 6.52677E-01
 -1      1899 5.73093E-01
 -1      1900 5.27926E-01
 -1      1901 5.80703E-01
 -1      1902 4.87525E-01
 -1      1903 4.38538E-01
 -1      1904 5.05927E-01
 -1      1905 3.95611E-01
 -1      1906 3.48942E-01
 -1      1907 4.22599E-01
 -1      1908 3.08213E-01
 -1      1909 2.73765E-01
 -1      1910 3.38943E-01
 -1      1911 2.37800E-01
 -1      1912 2.10432E-01
 -1      1913 2.62249E-01
 -1      1914 1.80278E-01
 -1      1915 1.58958E-01
 -1      1916 1.96131E-01
 -1      1917 1.34688E-01
 -1      1918 1.16472E-01
 -1      1919 1.41706E-01
 -1      1920 1.00496E-01
 -1      1921 8.71073E-02
 -1      1922 1.01460E-01
 -1      1923 7.50967E-02
 -1      1924 6.72728E-02
 -1      1925 7.34733E-02
 -1      1926 5.89231E-02
 -1      1927 5.17031E-02
 -1      1928 5.31131E-02
 -1      1929 4.74431E-02
 -1      1930 4.10461E-02
 -1      1931 4.05034E-02
 -1      1932 3.76351E-02
 -1      1933 3.21236E-02
 -1      1934 3.28324E-02
 -1      1935 2.89514E-02
 -1      1936 2.44718E-02
 -1      1937 2.62492E-02
 -1      1938 2.16116E-02
 -1      1939 1.87623E-02
 -1      1940 2.02168E-02
 -1      1941 1.63367E-02
 -1      1942 1.41794E-02
 -1      1943 1.49311E-02
 -1      1944 1.29305E-02
 -1      1945 1.07720E-02
 -1      1946 1.12567E-02
 -1      1947 9.39839E-03
 -1      1948 7.50706E-03
 -1      1949 8.63418E-03
 -1      1950 6.32842E-03
 -1      1951 5.23388E-03
 -1      1952 6.08190E-03
 -1      1953 4.32629E-03
 -1      1954 3.42751E-03
 -1      1955 2.70968E-03
 -1      1956 3.99567E-03
 -1      1957 1.30551E+00
 -1      1958 1.68441E+00
 -1      1959 1.34724E+00
 -1      1960 1.04970E+00
 -1      1961 1.16065E+00
 -1      1962 8.75372E-01
 -1      1963 9.48488E-01
 -1      1964 1.03948E+00
 -1      1965 7.20288E-01
 -1      1966 8.44762E-01
 -1      1967 9.23022E-01
 -1      1968 6.84601E-01
 -1      1969 7.97391E-01
 -1      1970 8.65314E-01
 -1      1971 6.79687E-01
 -1      1972 9.15893E-01
 -1      1973 8.84838E-01
 -1      1974 7.87686E-01
 -1      1975 1.00221E+00
 -1      1976 9.99889E-01
 -1      1977 9.59130E-01
 -1      1978 1.06807E+00
 -1      1979 1.05710E+00
 -1      1980 1.09801E+00
 -1      1981 1.18717E+00
 -1      1982 1.06807E+00
 -1      1983 1.15289E+00
 -1      1984 1.26248E+00
 -1      1985 1.15678E+00
 -1      1986 1.12251E+00
 -1      1987 1.27961E+00
 -1      1988 1.18731E+00
 -1      1989 1.01695E+00
 -1      1990 1.46286E+00
 -1      1991 1.33841E+00
 -1      1992 1.00059E+00
 -1      1993 1.91781E+00
 -1      1994 1.83736E+00
 -1      1995 1.43389E+00
 -1      1996 2.48247E+00
 -1      1997 2.17609E+00
 -1      1998 2.06667E+00
 -1      1999 3.25463E+00
 -1      2000 2.61898E+00
 -1      2001 2.46145E+00
 -1      2002 3.58824E+00
 -1      2003 3.36157E+00
 -1      2004 2.70489E+00
 -1      2005 3.78166E+00
 -1      2006 3.54710E+00
 -1      2007 2.77070E+00
 -1      2008 2.95934E+00
 -1      2009 3.59318E+00
 -1      2010 2.54108E+00
 -1      2011 1.68782E+00
 -1      2012 2.47938E+00
 -1      2013 1.87264E+00
 -1      2014 1.06845E+00
 -1      2015 1.44937E+00
 -1      2016 1.15424E+00
 -1      2017 1.25444E+00
 -1      2018 1.14620E+00
 -1      2019 9.93542E-01
 -1      2020 1.44297E+00
 -1      2021 1.34054E+00
 -1      2022 1.15739E+00
 -1      2023 1.47909E+00
 -1      2024 1.45159E+00
 -1      2025 1.25211E+00
 -1      2026 1.38285E+00
 -1      2027 1.46244E+00
 -1      2028 1.24408E+00
 -1      2029 1.19869E+00
 -1      2030 1.31983E+00
 -1      2031 1.16441E+00
 -1      2032 1.02833E+00
 -1      2033 1.13657E+00
 -1      2034 1.03927E+00
 -1      2035 8.51929E-01
 -1      2036 9.49708E-01
 -1      2037 8.98517E-01
 -1      2038 6.77686E-01
 -1      2039 7.71640E-01
 -1      2040 7.39601E-01
 -1      2041 5.20967E-01
 -1      2042 6.04120E-01
 -1      2043 5.85745E-01
 -1      2044 3.88452E-01
 -1      2045 4.57928E-01
 -1      2046 4.49140E-01
 -1      2047 2.82966E-01
 -1      2048 3.36885E-01
 -1      2049 3.34534E-01
 -1      2050 2.07635E-01
 -1      2051 2.43980E-01
 -1      2052 2.43980E-01
 -1      2053 1.54078E-01
 -1      2054 1.81999E-01
 -1      2055 1.79358E-01
 -1      2056 1.12768E-01
 -1      2057 1.33601E-01
 -1      2058 1.33245E-01
 -1      2059 8.07612E-02
 -1      2060 9.67647E-02
 -1      2061 9.67647E-02
 -1      2062 5.62286E-02
 -1      2063 6.84949E-02
 -1      2064 6.84949E-02
 -1      2065 4.09155E-02
 -1      2066 4.69981E-02
 -1      2067 4.69981E-02
 -1      2068 3.14732E-02
 -1      2069 3.56326E-02
 -1      2070 3.24848E-02
 -1      2071 2.54866E-02
 -1      2072 2.92299E-02
 -1      2073 2.49586E-02
 -1      2074 1.99535E-02
 -1      2075 2.32486E-02
 -1      2076 2.04772E-02
 -1      2077 1.63298E-02
 -1      2078 1.78310E-02
 -1      2079 1.61167E-02
 -1      2080 1.29433E-02
 -1      2081 1.43860E-02
 -1      2082 1.20504E-02
 -1      2083 1.03696E-02
 -1      2084 1.20352E-02
 -1      2085 9.19850E-03
 -1      2086 7.52143E-03
 -1      2087 9.37042E-03
 -1      2088 7.29117E-03
 -1      2089 5.10809E-03
 -1      2090 6.70240E-03
 -1      2091 5.47298E-03
 -1      2092 3.38889E-03
 -1      2093 4.33726E-03
 -1      2094 3.88312E-03
 -1      2095 2.18189E-03
 -1      2096 1.35977E-03
 -1      2097 1.25445E-03
 -1      2098 1.47109E-03
 -1      2099 1.48216E-03
 -1      2100 1.78532E-03
 -1      2101 1.71419E-03
 -1      2102 1.85877E-03
 -1      2103 2.78916E-03
 -1      2104 2.23400E-03
 -1      2105 1.38079E-03
 -1      2106 1.35977E-03
 -1      2107 1.56868E-03
 -1      2108 1.35871E-03
 -1      2109 1.35871E-03
 -1      2110 1.54660E-03
 -1      2111 1.28198E-03
 -1      2112 1.29018E-03
 -1      2113 1.45599E-03
 -1      2114 1.22634E-03
 -1      2115 1.24710E-03
 -1      2116 1.35258E-03
 -1      2117 1.20871E-03
 -1      2118 1.20477E-03
 -1      2119 1.29614E-03
 -1      2120 1.24674E-03
 -1      2121 1.24158E-03
 -1      2122 1.30745E-03
 -1      2123 1.30928E-03
 -1      2124 1.30928E-03
 -1      2125 1.40287E-03
 -1      2126 1.32272E-03
 -1      2127 1.34242E-03
 -1      2128 1.49855E-03
 -1      2129 1.20477E-03
 -1      2130 1.32272E-03
 -1      2131 1.53168E-03
 -1      2132 1.72971E-03
 -1      2133 1.75485E-03
 -1      2134 2.08176E-03
 -1      2135 3.71722E+01
 -1      2136 2.68787E+01
 -1      2137 3.26562E+01
 -1      2138 3.26562E+01
 -1      2139 3.13415E+01
 -1      2140 3.26562E+01
 -1      2141 1.92647E+01
 -1      2142 3.19958E+01
 -1      2143 1.03124E+01
 -1      2144 1.57888E+01
 -1      2145 1.07709E+00
 -1      2146 1.25931E+00
 -1      2147 1.03708E+00
 -1      2148 8.91442E-01
 -1      2149 1.10747E+01
 -1      2150 1.09730E+01
 -1      2151 1.12096E+01
 -1      2152 1.12263E+01
 -1      2153 1.21268E+01
 -1      2154 1.16816E+01
 -1      2155 1.05349E+01
 -1      2156 1.10329E+01
 -1      2157 1.00211E+01
 -1      2158 9.51916E+00
 -1      2159 2.19469E+01
 -1      2160 1.23489E+01
 -1      2161 2.64742E+01
 -1      2162 2.64742E+01
 -1      2163 2.58928E+01
 -1      2164 2.87206E+01
 -1      2165 3.35551E+01
 -1      2166 3.16414E+01
 -1      2167 3.35551E+01
 -1      2168 3.35551E+01
 -1      2169 3.68057E+01
 -1      2170 2.84206E+01
 -1      2171 2.52394E+01
 -1      2172 3.20860E+01
 -1      2173 3.01954E+01
 -1      2174 2.19492E+01
 -1      2175 1.41688E+01
 -1      2176 2.68752E+01
 -1      2177 9.54668E+00
 -1      2178 1.11210E+01
 -1      2179 1.03140E+01
 -1      2180 9.63699E+00
 -1      2181 1.09374E+01
 -1      2182 1.16389E+01
 -1      2183 1.12498E+01
 -1      2184 1.11025E+01
 -1      2185 1.02022E+01
 -1      2186 1.09832E+01
 -1      2187 1.10932E+01
 -1      2188 9.71211E+00
 -1      2189 1.01692E+01
 -1      2190 9.11787E+00
 -1      2191 8.84654E+00
 -1      2192 1.91230E+01
 -1      2193 1.12566E+01
 -1      2194 2.48129E+01
 -1      2195 2.30954E+01
 -1      2196 3.07084E+01
 -1      2197 3.07084E+01
 -1      2198 2.48129E+01
 -1      2199 3.17508E+01
 -1      2200 3.23509E+01
 -1      2201 3.48988E+01
 -1      2202 9.61173E+00
 -1      2203 9.20300E+00
 -1      2204 1.30500E+01
 -1      2205 2.76766E+00
 -1      2206 8.46479E+00
 -1      2207 8.71667E+00
 -1      2208 1.95306E+00
 -1      2209 2.48048E+01
 -1      2210 2.92675E+01
 -1      2211 2.48048E+01
 -1      2212 3.58042E+01
 -1      2213 2.48155E-03
 -1      2214 2.17023E+01
 -1      2215 2.83595E+01
 -1      2216 2.83595E+01
 -1      2217 3.00021E+01
 -1      2218 1.49450E+01
 -1      2219 8.83384E+00
 -1      2220 7.56066E+00
 -1      2221 1.02108E+01
 -1      2222 1.05366E+01
 -1      2223 7.60987E+00
 -1      2224 8.93476E+00
 -1      2225 7.29697E+00
 -1      2226 1.85132E+01
 -1      2227 2.65665E+01
 -1      2228 2.98172E+01
 -1      2229 2.15015E+01
 -1      2230 3.10571E+01
 -1      2231 2.30621E+01
 -1      2232 1.62884E+01
 -1      2233 9.43334E+00
 -1      2234 8.12132E+00
 -1      2235 1.02310E+01
 -1      2236 1.02295E+01
 -1      2237 1.08530E+01
 -1      2238 1.02545E+01
 -1      2239 9.24022E+00
 -1      2240 9.10210E-01
 -1      2241 1.23721E+00
 -1      2242 5.44129E-01
 -1      2243 5.93067E-01
 -1      2244 6.22809E-01
 -1      2245 6.84813E-01
 -1      2246 5.20180E-01
 -1      2247 4.34234E-01
 -1      2248 4.35940E-01
 -1      2249 4.99957E-01
 -1      2250 4.61259E-01
 -1      2251 3.80962E-01
 -1      2252 5.87665E-01
 -1      2253 5.35554E-01
 -1      2254 4.43583E-01
 -1      2255 6.83209E-01
 -1      2256 6.19597E-01
 -1      2257 5.11112E-01
 -1      2258 7.77734E-01
 -1      2259 6.98837E-01
 -1      2260 5.58672E-01
 -1      2261 9.97290E-01
 -1      2262 8.87777E-01
 -1      2263 6.84343E-01
 -1      2264 6.43508E-01
 -1      2265 7.88370E-01
 -1      2266 6.78346E-01
 -1      2267 1.06923E+00
 -1      2268 8.05069E-01
 -1      2269 6.25218E+00
 -1      2270 7.36157E+00
 -1      2271 6.84477E-01
 -1      2272 5.41616E-01
 -1      2273 5.00271E-01
 -1      2274 4.81513E-01
 -1      2275 3.99065E-01
 -1      2276 3.19576E-01
 -1      2277 4.06417E-01
 -1      2278 3.70663E-01
 -1      2279 2.66825E-01
 -1      2280 4.19186E-01
 -1      2281 4.31766E-01
 -1      2282 3.22700E-01
 -1      2283 4.78226E-01
 -1      2284 4.79726E-01
 -1      2285 4.17683E-01
 -1      2286 5.33231E-01
 -1      2287 5.98867E-01
 -1      2288 5.17648E-01
 -1      2289 6.42501E-01
 -1      2290 6.60479E-01
 -1      2291 6.14786E-01
 -1      2292 6.80080E-01
 -1      2293 6.27645E-01
 -1      2294 6.78021E-01
 -1      2295 7.11632E-01
 -1      2296 7.16122E-01
 -1      2297 7.81609E-01
 -1      2298 7.94730E-01
 -1      2299 8.91972E-01
 -1      2300 9.44204E-01
 -1      2301 9.85684E-01
 -1      2302 1.21269E+00
 -1      2303 1.11652E+00
 -1      2304 1.28712E+00
 -1      2305 1.47059E+00
 -1      2306 1.28467E+00
 -1      2307 1.61794E+00
 -1      2308 1.83691E+00
 -1      2309 1.50646E+00
 -1      2310 2.02900E+00
 -1      2311 2.05275E+00
 -1      2312 1.84590E+00
 -1      2313 2.09451E+00
 -1      2314 2.10862E+00
 -1      2315 2.07976E+00
 -1      2316 2.12373E+00
 -1      2317 2.08128E+00
 -1      2318 2.13663E+00
 -1      2319 1.80509E+00
 -1      2320 1.57159E+00
 -1      2321 1.87555E+00
 -1      2322 1.48887E+00
 -1      2323 1.29911E+00
 -1      2324 1.51663E+00
 -1      2325 1.15665E+00
 -1      2326 9.07437E-01
 -1      2327 1.29146E+00
 -1      2328 8.59427E-01
 -1      2329 8.01615E-01
 -1      2330 1.10100E+00
 -1      2331 7.01270E-01
 -1      2332 7.40488E-01
 -1      2333 9.52644E-01
 -1      2334 7.18145E-01
 -1      2335 7.81585E-01
 -1      2336 8.29956E-01
 -1      2337 7.68045E-01
 -1      2338 7.70080E-01
 -1      2339 7.94073E-01
 -1      2340 7.34458E-01
 -1      2341 6.99782E-01
 -1      2342 7.44910E-01
 -1      2343 6.67407E-01
 -1      2344 6.29808E-01
 -1      2345 6.76913E-01
 -1      2346 5.98702E-01
 -1      2347 5.64327E-01
 -1      2348 6.13432E-01
 -1      2349 5.25854E-01
 -1      2350 4.85454E-01
 -1      2351 5.43853E-01
 -1      2352 4.43494E-01
 -1      2353 4.00567E-01
 -1      2354 4.63422E-01
 -1      2355 3.59785E-01
 -1      2356 3.19056E-01
 -1      2357 3.80680E-01
 -1      2358 2.82159E-01
 -1      2359 2.46195E-01
 -1      2360 3.03002E-01
 -1      2361 2.14458E-01
 -1      2362 1.84304E-01
 -1      2363 2.34368E-01
 -1      2364 1.58047E-01
 -1      2365 1.33777E-01
 -1      2366 1.76374E-01
 -1      2367 1.12742E-01
 -1      2368 9.67664E-02
 -1      2369 1.29083E-01
 -1      2370 8.03910E-02
 -1      2371 6.83804E-02
 -1      2372 9.16734E-02
 -1      2373 5.59736E-02
 -1      2374 4.76239E-02
 -1      2375 6.28912E-02
 -1      2376 3.84814E-02
 -1      2377 3.42213E-02
 -1      2378 4.13419E-02
 -1      2379 2.91154E-02
 -1      2380 2.57044E-02
 -1      2381 2.70934E-02
 -1      2382 2.32158E-02
 -1      2383 2.00436E-02
 -1      2384 1.94988E-02
 -1      2385 1.86445E-02
 -1      2386 1.57843E-02
 -1      2387 1.56111E-02
 -1      2388 1.43051E-02
 -1      2389 1.18795E-02
 -1      2390 1.27327E-02
 -1      2391 1.04293E-02
 -1      2392 9.18041E-03
 -1      2393 9.80325E-03
 -1      2394 7.91724E-03
 -1      2395 6.54360E-03
 -1      2396 7.08982E-03
 -1      2397 5.77641E-03
 -1      2398 4.59777E-03
 -1      2399 5.05948E-03
 -1      2400 5.33401E-01
 -1      2401 5.58867E-01
 -1      2402 6.42357E-01
 -1      2403 6.21806E-01
 -1      2404 4.96072E-01
 -1      2405 8.29214E-01
 -1      2406 7.41767E-01
 -1      2407 6.83886E-01
 -1      2408 9.99472E-01
 -1      2409 9.15476E-01
 -1      2410 8.69557E-01
 -1      2411 1.11665E+00
 -1      2412 1.06177E+00
 -1      2413 1.01812E+00
 -1      2414 1.21227E+00
 -1      2415 1.21227E+00
 -1      2416 1.17604E+00
 -1      2417 1.26029E+00
 -1      2418 1.29067E+00
 -1      2419 1.35005E+00
 -1      2420 1.20729E+00
 -1      2421 1.28246E+00
 -1      2422 1.45063E+00
 -1      2423 1.46903E+00
 -1      2424 1.41023E+00
 -1      2425 1.67573E+00
 -1      2426 1.83997E+00
 -1      2427 1.46547E+00
 -1      2428 1.87510E+00
 -1      2429 2.56592E+00
 -1      2430 2.30765E+00
 -1      2431 2.33923E+00
 -1      2432 3.42628E+00
 -1      2433 3.28978E+00
 -1      2434 3.53076E+00
 -1      2435 4.33870E+00
 -1      2436 4.23176E+00
 -1      2437 5.06009E+00
 -1      2438 4.49153E+00
 -1      2439 4.53267E+00
 -1      2440 6.05954E+00
 -1      2441 2.64434E+00
 -1      2442 2.83282E+00
 -1      2443 4.59479E+00
 -1      2444 1.73786E+00
 -1      2445 2.21782E+00
 -1      2446 2.50956E+00
 -1      2447 1.39119E+00
 -1      2448 1.62963E+00
 -1      2449 1.97481E+00
 -1      2450 1.30474E+00
 -1      2451 1.22700E+00
 -1      2452 1.70239E+00
 -1      2453 1.39890E+00
 -1      2454 1.31280E+00
 -1      2455 1.54626E+00
 -1      2456 1.35158E+00
 -1      2457 1.34295E+00
 -1      2458 1.49837E+00
 -1      2459 1.24889E+00
 -1      2460 1.26554E+00
 -1      2461 1.35638E+00
 -1      2462 1.12732E+00
 -1      2463 1.19034E+00
 -1      2464 1.21180E+00
 -1      2465 1.00433E+00
 -1      2466 1.06645E+00
 -1      2467 1.09238E+00
 -1      2468 8.48303E-01
 -1      2469 9.26930E-01
 -1      2470 9.54116E-01
 -1      2471 6.87921E-01
 -1      2472 7.68210E-01
 -1      2473 7.96623E-01
 -1      2474 5.39811E-01
 -1      2475 6.13378E-01
 -1      2476 6.41986E-01
 -1      2477 4.11798E-01
 -1      2478 4.74836E-01
 -1      2479 5.02469E-01
 -1      2480 3.06090E-01
 -1      2481 3.57657E-01
 -1      2482 3.83354E-01
 -1      2483 2.23481E-01
 -1      2484 2.62467E-01
 -1      2485 2.85590E-01
 -1      2486 1.63631E-01
 -1      2487 1.89267E-01
 -1      2488 2.07753E-01
 -1      2489 1.16940E-01
 -1      2490 1.37417E-01
 -1      2491 1.47325E-01
 -1      2492 8.12871E-02
 -1      2493 9.72906E-02
 -1      2494 1.01462E-01
 -1      2495 5.46356E-02
 -1      2496 6.69019E-02
 -1      2497 6.74278E-02
 -1      2498 3.73672E-02
 -1      2499 4.65977E-02
 -1      2500 4.50047E-02
 -1      2501 2.72019E-02
 -1      2502 3.24848E-02
 -1      2503 3.20843E-02
 -1      2504 2.27153E-02
 -1      2505 2.49586E-02
 -1      2506 2.49586E-02
 -1      2507 1.82392E-02
 -1      2508 2.04772E-02
 -1      2509 2.04772E-02
 -1      2510 1.39942E-02
 -1      2511 1.61167E-02
 -1      2512 1.61167E-02
 -1      2513 1.01067E-02
 -1      2514 1.20504E-02
 -1      2515 1.20504E-02
 -1      2516 7.97805E-03
 -1      2517 8.88623E-03
 -1      2518 8.88623E-03
 -1      2519 5.93808E-03
 -1      2520 6.93723E-03
 -1      2521 6.62496E-03
 -1      2522 4.21721E-03
 -1      2523 5.03625E-03
 -1      2524 4.68231E-03
 -1      2525 3.55999E-03
 -1      2526 1.69295E-03
 -1      2527 1.71503E-03
 -1      2528 1.43975E-03
 -1      2529 1.50828E-03
 -1      2530 1.67671E-03
 -1      2531 2.39010E-03
 -1      2532 2.60675E-03
 -1      2533 1.86790E-03
 -1      2534 1.86790E-03
 -1      2535 2.68932E-03
 -1      2536 2.01425E-03
 -1      2537 1.31771E-03
 -1      2538 1.35258E-03
 -1      2539 1.40487E-03
 -1      2540 1.25913E-03
 -1      2541 1.28069E-03
 -1      2542 1.28069E-03
 -1      2543 1.30745E-03
 -1      2544 1.27458E-03
 -1      2545 1.25913E-03
 -1      2546 1.45102E-03
 -1      2547 1.38847E-03
 -1      2548 1.35560E-03
 -1      2549 1.63861E-03
 -1      2550 1.60548E-03
 -1      2551 1.59108E-03
 -1      2552 1.69608E-03
 -1      2553 1.69608E-03
 -1      2554 1.80301E-03
 -1      2555 2.35655E-03
 -1      2556 1.80647E-03
 -1      2557 1.97087E-03
 -1      2558 3.58042E+01
 -1      2559 3.58042E+01
 -1      2560 1.42391E+01
 -1      2561 1.94156E+01
 -1      2562 5.65776E-01
 -1      2563 5.75997E-01
 -1      2564 4.14576E-01
 -1      2565 7.40701E+00
 -1      2566 6.04574E+00
 -1      2567 4.94251E+00
 -1      2568 2.85996E-03
 -1      2569 1.41778E+01
 -1      2570 1.02054E+01
 -1      2571 3.10571E+01
 -1      2572 2.53084E+01
 -1      2573 4.69710E-01
 -1      2574 5.09649E-01
 -1      2575 4.55958E-01
 -1      2576 3.87707E-01
 -1      2577 1.00991E+01
 -1      2578 9.62708E+00
 -1      2579 7.61136E+00
 -1      2580 1.06592E+01
 -1      2581 9.19925E+00
 -1      2582 9.04769E+00
 -1      2583 8.44527E+00
 -1      2584 7.84396E+00
 -1      2585 8.93795E+00
 -1      2586 5.58591E+00
 -1      2587 6.60165E+00
 -1      2588 9.58802E+00
 -1      2589 7.26026E+00
 -1      2590 1.63810E+01
 -1      2591 1.18537E+01
 -1      2592 2.03230E+01
 -1      2593 1.80767E+01
 -1      2594 2.03230E+01
 -1      2595 3.68057E+01
 -1      2596 3.68057E+01
 -1      2597 2.14131E+01
 -1      2598 1.96383E+01
 -1      2599 7.09965E+00
 -1      2600 7.91364E+00
 -1      2601 1.23094E+01
 -1      2602 1.75202E+01
 -1      2603 5.78946E+00
 -1      2604 5.69915E+00
 -1      2605 9.04286E+00
 -1      2606 8.87772E+00
 -1      2607 9.05354E+00
 -1      2608 9.21010E+00
 -1      2609 5.32392E+00
 -1      2610 6.18949E+00
 -1      2611 8.49979E+00
 -1      2612 6.36103E+00
 -1      2613 2.31534E+01
 -1      2614 1.72580E+01
 -1      2615 3.48988E+01
 -1      2616 3.39934E+01
 -1      2617 3.48988E+01
 -1      2618 1.61959E+00
 -1      2619 1.18411E+00
 -1      2620 7.35751E-01
 -1      2621 9.80807E-01
 -1      2622 1.41298E+00
 -1      2623 1.58561E+00
 -1      2624 1.23968E+00
 -1      2625 9.75950E-01
 -1      2626 8.86433E+00
 -1      2627 1.23402E+01
 -1      2628 7.71198E+00
 -1      2629 5.49922E-01
 -1      2630 6.84813E-01
 -1      2631 7.56551E-01
 -1      2632 4.88996E-01
 -1      2633 1.17595E+00
 -1      2634 6.65171E+00
 -1      2635 2.08046E+01
 -1      2636 7.73263E+00
 -1      2637 4.98986E+00
 -1      2638 6.91296E+00
 -1      2639 1.98816E+01
 -1      2640 1.78077E+01
 -1      2641 1.24184E+01
 -1      2642 7.88561E+00
 -1      2643 3.12326E-03
 -1      2644 1.00534E+01
 -1      2645 2.89122E-03
 -1      2646 6.12322E+00
 -1      2647 4.52540E+00
 -1      2648 6.34580E+00
 -1      2649 2.58299E+01
 -1      2650 2.58299E+01
 -1      2651 1.92933E+01
 -1      2652 9.66624E+00
 -1      2653 3.00021E+01
 -1      2654 9.73050E-01
 -1      2655 6.37676E+00
 -1      2656 3.10571E+01
 -1      2657 1.25184E+01
 -1      2658 4.86291E+00
 -1      2659 1.52093E+01
 -1      2660 1.36420E+01
 -1      2661 8.17645E+00
 -1      2662 7.07415E+00
 -1      2663 7.01710E+00
 -1      2664 9.68062E+00
 -1      2665 5.74059E+00
 -1      2666 2.09654E+01
 -1      2667 2.93686E-03
 -1      2668 2.70874E-03
 -1      2669 2.43345E-03
 -1      2670 3.84445E-03
 -1      2671 6.10385E+00
 -1      2672 7.60459E-01
 -1      2673 8.34357E-01
 -1      2674 7.04188E-01
 -1      2675 5.53830E-01
 -1      2676 5.30855E+00
 -1      2677 2.79677E+01
 -1      2678 2.79677E+01
 -1      2679 2.09791E+01
 -1      2680 3.49600E-03
 -1      2681 3.53896E-03
 -1      2682 4.00229E-01
 -1      2683 3.64633E-01
 -1      2684 3.34446E-01
 -1      2685 3.07421E-01
 -1      2686 2.91093E-01
 -1      2687 5.10348E-01
 -1      2688 4.94720E-01
 -1      2689 6.45137E-01
 -1      2690 5.35094E-01
 -1      2691 4.71142E-01
 -1      2692 5.08544E-01
 -1      2693 6.30384E-01
 -1      2694 6.55873E+00
 -1      2695 4.91805E+00
 -1      2696 7.97286E-01
 -1      2697 1.92594E+01
 -1      2698 1.40533E+01
 -1      2699 4.55560E+00
 -1      2700 3.51849E+00
 -1      2701 3.51379E-01
 -1      2702 2.91276E-01
 -1      2703 2.85938E-01
 -1      2704 2.93290E-01
 -1      2705 3.17742E-01
 -1      2706 3.32326E-01
 -1      2707 3.80849E-01
 -1      2708 3.51440E-01
 -1      2709 4.30229E-01
 -1      2710 4.76689E-01
 -1      2711 4.39855E-01
 -1      2712 5.28459E-01
 -1      2713 5.81964E-01
 -1      2714 5.41005E-01
 -1      2715 6.61387E-01
 -1      2716 7.05021E-01
 -1      2717 6.72198E-01
 -1      2718 7.88605E-01
 -1      2719 8.08206E-01
 -1      2720 8.35205E-01
 -1      2721 8.80471E-01
 -1      2722 9.64458E-01
 -1      2723 9.91055E-01
 -1      2724 1.09203E+00
 -1      2725 1.17064E+00
 -1      2726 1.19089E+00
 -1      2727 1.33436E+00
 -1      2728 1.42807E+00
 -1      2729 1.48219E+00
 -1      2730 1.46845E+00
 -1      2731 1.54288E+00
 -1      2732 1.68628E+00
 -1      2733 2.26049E+00
 -1      2734 2.40784E+00
 -1      2735 2.44427E+00
 -1      2736 2.45325E+00
 -1      2737 2.64534E+00
 -1      2738 3.20729E+00
 -1      2739 3.83435E+00
 -1      2740 3.87611E+00
 -1      2741 4.44170E+00
 -1      2742 3.74709E+00
 -1      2743 3.76220E+00
 -1      2744 5.50167E+00
 -1      2745 2.64088E+00
 -1      2746 2.36469E+00
 -1      2747 4.25134E+00
 -1      2748 1.80879E+00
 -1      2749 1.72607E+00
 -1      2750 2.57413E+00
 -1      2751 1.70494E+00
 -1      2752 1.56249E+00
 -1      2753 1.99710E+00
 -1      2754 1.45983E+00
 -1      2755 1.41182E+00
 -1      2756 1.87331E+00
 -1      2757 1.40641E+00
 -1      2758 1.30606E+00
 -1      2759 1.76524E+00
 -1      2760 1.20555E+00
 -1      2761 1.18320E+00
 -1      2762 1.65931E+00
 -1      2763 1.05644E+00
 -1      2764 1.04290E+00
 -1      2765 1.43203E+00
 -1      2766 9.25002E-01
 -1      2767 8.89380E-01
 -1      2768 1.18737E+00
 -1      2769 8.32799E-01
 -1      2770 8.00424E-01
 -1      2771 1.01289E+00
 -1      2772 7.32844E-01
 -1      2773 7.01738E-01
 -1      2774 8.88730E-01
 -1      2775 6.33561E-01
 -1      2776 5.95088E-01
 -1      2777 7.52973E-01
 -1      2778 5.31669E-01
 -1      2779 4.89710E-01
 -1      2780 6.21377E-01
 -1      2781 4.33492E-01
 -1      2782 3.92710E-01
 -1      2783 5.01740E-01
 -1      2784 3.44509E-01
 -1      2785 3.07612E-01
 -1      2786 3.97320E-01
 -1      2787 2.67344E-01
 -1      2788 2.35607E-01
 -1      2789 3.08851E-01
 -1      2790 2.02705E-01
 -1      2791 1.76448E-01
 -1      2792 2.35681E-01
 -1      2793 1.50102E-01
 -1      2794 1.29068E-01
 -1      2795 1.76433E-01
 -1      2796 1.08376E-01
 -1      2797 9.20010E-02
 -1      2798 1.29396E-01
 -1      2799 7.60618E-02
 -1      2800 6.36551E-02
 -1      2801 9.27649E-02
 -1      2802 5.16225E-02
 -1      2803 4.24799E-02
 -1      2804 6.47931E-02
 -1      2805 3.35954E-02
 -1      2806 2.84894E-02
 -1      2807 4.38760E-02
 -1      2808 2.20944E-02
 -1      2809 1.96059E-02
 -1      2810 2.85964E-02
 -1      2811 1.51431E-02
 -1      2812 1.37439E-02
 -1      2813 1.77387E-02
 -1      2814 1.10531E-02
 -1      2815 9.57391E-03
 -1      2816 1.05851E-02
 -1      2817 9.04063E-03
 -1      2818 7.59037E-03
 -1      2819 7.36103E-03
 -1      2820 6.88848E-03
 -1      2821 5.62532E-03
 -1      2822 6.12587E-03
 -1      2823 4.87531E-03
 -1      2824 4.10812E-03
 -1      2825 4.67397E-03
 -1      2826 7.42211E-01
 -1      2827 6.42802E-01
 -1      2828 4.47989E+00
 -1      2829 6.39210E+00
 -1      2830 5.51117E-01
 -1      2831 4.62713E-01
 -1      2832 6.09442E-01
 -1      2833 1.10386E+00
 -1      2834 1.04156E+00
 -1      2835 1.29807E+00
 -1      2836 1.20245E+00
 -1      2837 1.22589E+00
 -1      2838 1.54624E+00
 -1      2839 1.46784E+00
 -1      2840 1.49426E+00
 -1      2841 1.77934E+00
 -1      2842 1.75716E+00
 -1      2843 1.87495E+00
 -1      2844 2.15964E+00
 -1      2845 1.95671E+00
 -1      2846 2.26325E+00
 -1      2847 2.32284E+00
 -1      2848 2.32640E+00
 -1      2849 2.60738E+00
 -1      2850 2.81957E+00
 -1      2851 2.35189E+00
 -1      2852 2.80318E+00
 -1      2853 5.86557E+00
 -1      2854 5.06009E+00
 -1      2855 7.56330E+00
 -1      2856 7.36933E+00
 -1      2857 4.01806E+00
 -1      2858 5.67676E+00
 -1      2859 1.97481E+00
 -1      2860 2.08304E+00
 -1      2861 2.28062E+00
 -1      2862 2.44481E+00
 -1      2863 2.55304E+00
 -1      2864 1.96392E+00
 -1      2865 1.95586E+00
 -1      2866 2.69828E+00
 -1      2867 1.67753E+00
 -1      2868 1.73348E+00
 -1      2869 2.14308E+00
 -1      2870 1.39765E+00
 -1      2871 1.48369E+00
 -1      2872 1.71880E+00
 -1      2873 1.24213E+00
 -1      2874 1.30068E+00
 -1      2875 1.42799E+00
 -1      2876 1.08455E+00
 -1      2877 1.14541E+00
 -1      2878 1.23430E+00
 -1      2879 9.10173E-01
 -1      2880 9.87572E-01
 -1      2881 1.04061E+00
 -1      2882 7.40614E-01
 -1      2883 8.20707E-01
 -1      2884 8.54164E-01
 -1      2885 5.87476E-01
 -1      2886 6.62018E-01
 -1      2887 6.86103E-01
 -1      2888 4.55735E-01
 -1      2889 5.20710E-01
 -1      2890 5.40742E-01
 -1      2891 3.46322E-01
 -1      2892 4.00462E-01
 -1      2893 4.18703E-01
 -1      2894 2.57912E-01
 -1      2895 3.01536E-01
 -1      2896 3.18644E-01
 -1      2897 1.88093E-01
 -1      2898 2.22307E-01
 -1      2899 2.38252E-01
 -1      2900 1.34068E-01
 -1      2901 1.60282E-01
 -1      2902 1.74835E-01
 -1      2903 9.30673E-02
 -1      2904 1.12717E-01
 -1      2905 1.25673E-01
 -1      2906 6.25769E-02
 -1      2907 7.69621E-02
 -1      2908 8.82164E-02
 -1      2909 4.26179E-02
 -1      2910 5.06558E-02
 -1      2911 6.01901E-02
 -1      2912 2.90971E-02
 -1      2913 3.39796E-02
 -1      2914 3.96307E-02
 -1      2915 2.07504E-02
 -1      2916 2.29937E-02
 -1      2917 2.48890E-02
 -1      2918 1.53695E-02
 -1      2919 1.76075E-02
 -1      2920 1.56427E-02
 -1      2921 1.24546E-02
 -1      2922 1.45771E-02
 -1      2923 1.17074E-02
 -1      2924 9.51688E-03
 -1      2925 1.14606E-02
 -1      2926 9.92105E-03
 -1      2927 7.22999E-03
 -1      2928 8.45044E-03
 -1      2929 7.86064E-03
 -1      2930 5.16079E-03
 -1      2931 6.20161E-03
 -1      2932 5.76582E-03
 -1      2933 3.76175E-03
 -1      2934 4.66358E-03
 -1      2935 4.24023E-03
 -1      2936 3.47727E-03
 -1      2937 7.53092E+00
 -1      2938 9.42988E+00
 -1      2939 1.22440E-03
 -1      2940 1.26141E-03
 -1      2941 3.53130E-03
 -1      2942 2.77797E-03
 -1      2943 3.34713E-03
 -1      2944 1.55444E-03
 -1      2945 1.73911E-03
 -1      2946 1.21507E-03
 -1      2947 1.19962E-03
 -1      2948 1.18033E-03
 -1      2949 1.31199E-03
 -1      2950 1.39916E-03
 -1      2951 1.46156E-03
 -1      2952 1.25570E-03
 -1      2953 1.33126E-03
 -1      2954 1.25024E-03
 -1      2955 1.19073E-03
 -1      2956 1.62968E-03
 -1      2957 1.47521E-03
 -1      2958 1.36986E-03
 -1      2959 1.87089E-03
 -1      2960 1.81343E-03
 -1      2961 1.69756E-03
 -1      2962 6.28244E-01
 -1      2963 5.13357E-01
 -1      2964 4.81794E-01
 -1      2965 7.02482E+00
 -1      2966 6.85758E+00
 -1      2967 8.21140E+00
 -1      2968 6.50574E+00
 -1      2969 5.03438E+00
 -1      2970 7.47660E+00
 -1      2971 9.12677E+00
 -1      2972 2.38497E+01
 -1      2973 2.29443E+01
 -1      2974 1.27318E+01
 -1      2975 9.65171E+00
 -1      2976 1.85166E+01
 -1      2977 1.35312E+01
 -1      2978 3.92490E-01
 -1      2979 3.99399E-01
 -1      2980 4.47535E-01
 -1      2981 9.32994E-01
 -1      2982 8.46733E-01
 -1      2983 8.05648E-01
 -1      2984 1.01874E+00
 -1      2985 4.84365E-01
 -1      2986 3.63772E-01
 -1      2987 3.35473E-01
 -1      2988 3.76858E-01
 -1      2989 3.83499E-01
 -1      2990 4.51009E-01
 -1      2991 4.03047E-01
 -1      2992 3.61413E-01
 -1      2993 4.94342E+00
 -1      2994 6.44617E+00
 -1      2995 4.59116E-01
 -1      2996 4.27183E-01
 -1      2997 3.48233E-01
 -1      2998 4.10792E-01
 -1      2999 4.40253E-01
 -1      3000 4.69995E-01
 -1      3001 2.47663E+01
 -1      3002 2.07749E+01
 -1      3003 1.40237E+01
 -1      3004 2.63642E+01
 -1      3005 2.06155E+01
 -1      3006 1.38237E+01
 -1      3007 1.68687E+01
 -1      3008 1.87319E+01
 -1      3009 6.01468E+00
 -1      3010 4.34033E+00
 -1      3011 2.42578E-03
 -1      3012 4.16042E+00
 -1      3013 5.40274E+00
 -1      3014 1.25042E+01
 -1      3015 1.08085E+01
 -1      3016 1.06977E+01
 -1      3017 9.44880E+00
 -1      3018 7.18312E+00
 -1      3019 3.73977E+00
 -1      3020 3.94621E+00
 -1      3021 1.04548E+01
 -1      3022 1.43477E+01
 -1      3023 5.57286E+00
 -1      3024 6.71275E+00
 -1      3025 3.62515E+00
 -1      3026 4.53531E+00
 -1      3027 4.33510E+00
 -1      3028 5.02669E-01
 -1      3029 5.02669E-01
 -1      3030 4.22742E-01
 -1      3031 2.70857E-01
 -1      3032 3.17373E-01
 -1      3033 3.51143E-01
 -1      3034 3.74067E+00
 -1      3035 3.92175E+00
 -1      3036 6.27484E-01
 -1      3037 3.19089E+00
 -1      3038 9.75980E+00
 -1      3039 1.02258E+01
 -1      3040 7.23729E+00
 -1      3041 1.87406E-03
 -1      3042 1.99633E-03
 -1      3043 2.14920E-03
 -1      3044 5.85264E+00
 -1      3045 8.26520E+00
 -1      3046 3.53076E+00
 -1      3047 3.54342E+00
 -1      3048 4.25461E+00
 -1      3049 7.36933E+00
 -1      3050 2.51582E+00
 -1      3051 2.94234E+00
 -1      3052 5.82262E+00
 -1      3053 4.78234E-01
 -1      3054 5.06009E+00
 -1      3055 6.20822E+00
 -1      3056 2.38298E-03
 -1      3057 2.90518E-03
 -1      3058 3.17093E-03
 -1      3059 2.36506E-03
 -1      3060 8.42483E+00
 -1      3061 6.73158E+00
 -1      3062 5.24493E+00
 -1      3063 5.97327E+00
 -1      3064 1.69677E+01
 -1      3065 1.35301E+01
 -1      3066 1.20445E+01
 -1      3067 2.31539E-03
 -1      3068 5.68472E+00
 -1      3069 1.68824E+01
 -1      3070 1.11867E+01
 -1      3071 2.38497E+01
 -1      3072 1.18953E+01
 -1      3073 1.38754E+01
 -1      3074 1.37172E+01
 -1      3075 5.78286E+00
 -1      3076 6.15631E+00
 -1      3077 3.53960E+00
 -1      3078 3.82785E+00
 -1      3079 3.87336E+00
 -1      3080 3.81118E-01
 -1      3081 4.15598E-01
 -1      3082 3.65413E-01
 -1      3083 3.10783E-01
 -1      3084 2.39982E+01
 -1      3085 1.35566E+01
 -1      3086 1.51601E+01
 -1      3087 1.43480E+01
 -1      3088 1.21145E+01
 -1      3089 9.59355E+00
 -1      3090 4.43452E+00
 -1      3091 2.62430E-03
 -1      3092 2.16939E-03
 -1      3093 2.17980E-03
 -1      3094 3.20113E-03
 -1      3095 8.31101E+00
 -1      3096 2.51582E+00
 -1      3097 2.57045E+00
 -1      3098 2.67711E+00
 -1      3099 4.61202E-01
 -1      3100 4.36456E-01
 -1      3101 1.26230E+01
 -1      3102 1.05241E+01
 -1      3103 3.53193E-01
 -1      3104 3.92229E-01
 -1      3105 4.43838E-01
 -1      3106 4.93219E-01
 -1      3107 4.45592E-01
 -1      3108 5.64892E-01
 -1      3109 6.16662E-01
 -1      3110 5.68875E-01
 -1      3111 7.02376E-01
 -1      3112 7.81799E-01
 -1      3113 7.26262E-01
 -1      3114 8.77571E-01
 -1      3115 9.61155E-01
 -1      3116 9.07748E-01
 -1      3117 1.12260E+00
 -1      3118 1.19487E+00
 -1      3119 1.16497E+00
 -1      3120 1.38123E+00
 -1      3121 1.50880E+00
 -1      3122 1.51277E+00
 -1      3123 1.67057E+00
 -1      3124 1.83429E+00
 -1      3125 1.86090E+00
 -1      3126 1.99682E+00
 -1      3127 2.03720E+00
 -1      3128 2.18521E+00
 -1      3129 2.44427E+00
 -1      3130 3.16188E+00
 -1      3131 2.75481E+00
 -1      3132 4.39629E+00
 -1      3133 4.44170E+00
 -1      3134 5.63070E+00
 -1      3135 5.81374E+00
 -1      3136 5.68472E+00
 -1      3137 5.37265E+00
 -1      3138 4.25134E+00
 -1      3139 2.59334E+00
 -1      3140 2.03745E+00
 -1      3141 2.22562E+00
 -1      3142 2.20449E+00
 -1      3143 2.24483E+00
 -1      3144 2.19252E+00
 -1      3145 2.08987E+00
 -1      3146 2.42105E+00
 -1      3147 1.93568E+00
 -1      3148 1.93027E+00
 -1      3149 2.25490E+00
 -1      3150 1.75983E+00
 -1      3151 1.65931E+00
 -1      3152 1.93027E+00
 -1      3153 1.55879E+00
 -1      3154 1.43203E+00
 -1      3155 1.65931E+00
 -1      3156 1.30527E+00
 -1      3157 1.18737E+00
 -1      3158 1.43203E+00
 -1      3159 1.06861E+00
 -1      3160 1.01203E+00
 -1      3161 1.18651E+00
 -1      3162 9.11403E-01
 -1      3163 8.43823E-01
 -1      3164 9.67122E-01
 -1      3165 7.54715E-01
 -1      3166 6.86538E-01
 -1      3167 7.77388E-01
 -1      3168 6.21377E-01
 -1      3169 5.57958E-01
 -1      3170 6.23119E-01
 -1      3171 5.01740E-01
 -1      3172 4.45522E-01
 -1      3173 5.01740E-01
 -1      3174 3.97320E-01
 -1      3175 3.49119E-01
 -1      3176 3.97320E-01
 -1      3177 3.08851E-01
 -1      3178 2.68583E-01
 -1      3179 3.08851E-01
 -1      3180 2.35681E-01
 -1      3181 2.02778E-01
 -1      3182 2.35681E-01
 -1      3183 1.76433E-01
 -1      3184 1.50087E-01
 -1      3185 1.76433E-01
 -1      3186 1.29396E-01
 -1      3187 1.08704E-01
 -1      3188 1.29396E-01
 -1      3189 9.27649E-02
 -1      3190 7.68256E-02
 -1      3191 9.27649E-02
 -1      3192 6.47931E-02
 -1      3193 5.27605E-02
 -1      3194 6.47931E-02
 -1      3195 4.38760E-02
 -1      3196 3.49914E-02
 -1      3197 4.38760E-02
 -1      3198 2.85964E-02
 -1      3199 2.22015E-02
 -1      3200 2.85964E-02
 -1      3201 1.77387E-02
 -1      3202 1.32759E-02
 -1      3203 1.77387E-02
 -1      3204 1.02837E-02
 -1      3205 7.59291E-03
 -1      3206 1.02837E-02
 -1      3207 6.35076E-03
 -1      3208 5.81748E-03
 -1      3209 6.04936E-03
 -1      3210 5.15754E-03
 -1      3211 4.45565E-03
 -1      3212 4.14726E-03
 -1      3213 4.35193E-03
 -1      3214 3.60192E-03
 -1      3215 2.87909E-03
 -1      3216 3.38360E-03
 -1      3217 1.78559E+00
 -1      3218 1.61582E+00
 -1      3219 1.38454E+00
 -1      3220 1.28595E+00
 -1      3221 1.67587E+00
 -1      3222 2.73711E+00
 -1      3223 2.55974E+00
 -1      3224 3.37023E+00
 -1      3225 3.20348E+00
 -1      3226 3.49997E+00
 -1      3227 4.02431E+00
 -1      3228 4.54558E+00
 -1      3229 5.63033E+00
 -1      3230 3.68817E+00
 -1      3231 3.21816E+00
 -1      3232 1.85297E+00
 -1      3233 2.04681E+00
 -1      3234 1.51926E+00
 -1      3235 1.61624E+00
 -1      3236 1.94424E+00
 -1      3237 1.22669E+00
 -1      3238 1.32341E+00
 -1      3239 1.51166E+00
 -1      3240 9.86453E-01
 -1      3241 1.08343E+00
 -1      3242 1.17254E+00
 -1      3243 7.83082E-01
 -1      3244 8.72548E-01
 -1      3245 9.15372E-01
 -1      3246 6.20201E-01
 -1      3247 6.98796E-01
 -1      3248 7.17180E-01
 -1      3249 4.83354E-01
 -1      3250 5.50120E-01
 -1      3251 5.62813E-01
 -1      3252 3.69184E-01
 -1      3253 4.24457E-01
 -1      3254 4.33835E-01
 -1      3255 2.76565E-01
 -1      3256 3.21351E-01
 -1      3257 3.27105E-01
 -1      3258 2.04481E-01
 -1      3259 2.40087E-01
 -1      3260 2.42794E-01
 -1      3261 1.50096E-01
 -1      3262 1.77907E-01
 -1      3263 1.79741E-01
 -1      3264 1.08093E-01
 -1      3265 1.29444E-01
 -1      3266 1.32515E-01
 -1      3267 7.61323E-02
 -1      3268 9.22376E-02
 -1      3269 9.60084E-02
 -1      3270 5.22136E-02
 -1      3271 6.41346E-02
 -1      3272 6.81558E-02
 -1      3273 3.46473E-02
 -1      3274 4.32856E-02
 -1      3275 4.72301E-02
 -1      3276 2.20295E-02
 -1      3277 2.81329E-02
 -1      3278 3.17878E-02
 -1      3279 1.42443E-02
 -1      3280 1.73872E-02
 -1      3281 2.06311E-02
 -1      3282 1.02413E-02
 -1      3283 1.10337E-02
 -1      3284 1.27782E-02
 -1      3285 7.45274E-03
 -1      3286 8.44672E-03
 -1      3287 7.77300E-03
 -1      3288 6.03032E-03
 -1      3289 7.09675E-03
 -1      3290 5.62242E-03
 -1      3291 4.53490E-03
 -1      3292 5.56328E-03
 -1      3293 4.79939E-03
 -1      3294 3.35631E-03
 -1      3295 3.85353E-03
 -1      3296 3.65098E-03
 -1      3297 2.78423E-03
 -1      3298 3.65094E+00
 -1      3299 1.46168E-03
 -1      3300 1.42651E-03
 -1      3301 1.93754E-03
 -1      3302 1.75380E-03
 -1      3303 1.43585E-03
 -1      3304 1.46063E-03
 -1      3305 1.70681E-03
 -1      3306 5.10943E-01
 -1      3307 4.40721E-01
 -1      3308 5.39190E+00
 -1      3309 3.44176E+00
 -1      3310 1.41578E-03
 -1      3311 1.27183E-03
 -1      3312 1.50760E-03
 -1      3313 1.65576E-03
 -1      3314 7.60558E+00
 -1      3315 6.24588E+00
 -1      3316 2.37288E+00
 -1      3317 2.60333E+00
 -1      3318 2.50705E+00
 -1      3319 3.58891E+00
 -1      3320 3.91367E+00
 -1      3321 3.81871E+00
 -1      3322 6.16284E+00
 -1      3323 7.49090E+00
 -1      3324 6.25350E+00
 -1      3325 7.56330E+00
 -1      3326 4.03047E-01
 -1      3327 4.20700E-01
 -1      3328 3.86014E-01
 -1      3329 3.45512E-01
 -1      3330 2.24620E+00
 -1      3331 2.03527E+00
 -1      3332 2.15684E+00
 -1      3333 2.72006E+00
 -1      3334 9.95326E+00
 -1      3335 1.17752E+01
 -1      3336 6.62158E-01
 -1      3337 5.70473E-01
 -1      3338 5.63659E-01
 -1      3339 7.13547E+00
 -1      3340 4.68852E+00
 -1      3341 5.77302E+00
 -1      3342 9.68151E+00
 -1      3343 8.65449E+00
 -1      3344 6.58936E+00
 -1      3345 3.42737E-01
 -1      3346 3.37400E-01
 -1      3347 3.78189E-01
 -1      3348 4.76326E-01
 -1      3349 4.80234E-01
 -1      3350 4.04290E-01
 -1      3351 4.29073E-01
 -1      3352 3.72333E+00
 -1      3353 5.81597E+00
 -1      3354 4.64753E+00
 -1      3355 1.25849E+01
 -1      3356 1.10694E+01
 -1      3357 9.96073E+00
 -1      3358 8.63920E+00
 -1      3359 8.52194E+00
 -1      3360 7.79461E+00
 -1      3361 6.35430E+00
 -1      3362 6.56867E+00
 -1      3363 2.84603E+00
 -1      3364 2.57314E-01
 -1      3365 2.27128E-01
 -1      3366 1.29129E+01
 -1      3367 1.51601E+01
 -1      3368 3.75644E+00
 -1      3369 2.03795E-01
 -1      3370 2.13747E-01
 -1      3371 1.70017E-01
 -1      3372 4.11167E-01
 -1      3373 4.21107E-01
 -1      3374 3.85503E-01
 -1      3375 8.48086E+00
 -1      3376 5.74535E+00
 -1      3377 6.07527E+00
 -1      3378 4.46831E+00
 -1      3379 4.76168E+00
 -1      3380 7.65906E+00
 -1      3381 1.03177E+01
 -1      3382 9.47771E+00
 -1      3383 9.75790E+00
 -1      3384 1.21239E+01
 -1      3385 8.82434E+00
 -1      3386 1.99937E-03
 -1      3387 2.25659E-03
 -1      3388 4.01641E-01
 -1      3389 3.89247E-01
 -1      3390 4.08905E-01
 -1      3391 4.39629E+00
 -1      3392 4.25134E+00
 -1      3393 3.13002E+00
 -1      3394 8.82094E+00
 -1      3395 3.75298E-01
 -1      3396 8.51308E-01
 -1      3397 7.46787E-01
 -1      3398 7.07818E-01
 -1      3399 9.39752E+00
 -1      3400 7.45552E+00
 -1      3401 9.39752E+00
 -1      3402 1.26011E+00
 -1      3403 1.10147E+00
 -1      3404 9.92902E-01
 -1      3405 3.72739E+00
 -1      3406 2.92797E+00
 -1      3407 1.41725E-03
 -1      3408 1.57253E-03
 -1      3409 1.95507E-03
 -1      3410 5.11055E+00
 -1      3411 1.46063E-03
 -1      3412 1.51122E-03
 -1      3413 1.62219E-03
 -1      3414 1.71615E-03
 -1      3415 4.01915E-01
 -1      3416 3.86014E-01
 -1      3417 3.86014E-01
 -1      3418 4.65323E-01
 -1      3419 1.14716E+01
 -1      3420 9.49144E+00
 -1      3421 9.14606E+00
 -1      3422 5.51898E+00
 -1      3423 7.62134E+00
 -1      3424 7.62163E+00
 -1      3425 4.99872E+00
 -1      3426 1.11906E+01
 -1      3427 3.96501E+00
 -1      3428 3.88539E+00
 -1      3429 3.84324E+00
 -1      3430 4.32349E+00
 -1      3431 5.81374E+00
 -1      3432 5.97327E+00
 -1      3433 3.41477E-01
 -1      3434 3.14523E-01
 -1      3435 2.50558E-01
 -1      3436 3.51792E-01
 -1      3437 8.79053E+00
 -1      3438 1.13112E+01
 -1      3439 9.58889E+00
 -1      3440 4.20614E-01
 -1      3441 4.45269E-01
 -1      3442 3.21379E+00
 -1      3443 4.22742E-01
 -1      3444 4.55416E-01
 -1      3445 4.77943E-01
 -1      3446 2.58059E-03
 -1      3447 2.63683E-03
 -1      3448 4.75339E+00
 -1      3449 5.64477E-01
 -1      3450 6.36150E-01
 -1      3451 7.34967E-01
 -1      3452 8.20680E-01
 -1      3453 7.30569E-01
 -1      3454 9.78886E-01
 -1      3455 1.07466E+00
 -1      3456 9.87590E-01
 -1      3457 1.27264E+00
 -1      3458 1.43409E+00
 -1      3459 1.34378E+00
 -1      3460 1.62198E+00
 -1      3461 1.80834E+00
 -1      3462 1.72965E+00
 -1      3463 2.05427E+00
 -1      3464 2.21604E+00
 -1      3465 2.16348E+00
 -1      3466 2.55632E+00
 -1      3467 2.71885E+00
 -1      3468 2.74969E+00
 -1      3469 3.47832E+00
 -1      3470 7.15637E+00
 -1      3471 7.96605E+00
 -1      3472 2.80039E+00
 -1      3473 2.64620E+00
 -1      3474 2.30141E+00
 -1      3475 2.13097E+00
 -1      3476 2.84690E+00
 -1      3477 1.87496E+00
 -1      3478 1.77445E+00
 -1      3479 2.24610E+00
 -1      3480 1.53697E+00
 -1      3481 1.41020E+00
 -1      3482 1.75262E+00
 -1      3483 1.20869E+00
 -1      3484 1.08993E+00
 -1      3485 1.31362E+00
 -1      3486 9.54658E-01
 -1      3487 8.54032E-01
 -1      3488 9.76836E-01
 -1      3489 7.65508E-01
 -1      3490 6.76400E-01
 -1      3491 7.53044E-01
 -1      3492 6.15929E-01
 -1      3493 5.50768E-01
 -1      3494 6.04049E-01
 -1      3495 4.99273E-01
 -1      3496 4.43055E-01
 -1      3497 4.92083E-01
 -1      3498 3.97718E-01
 -1      3499 3.49516E-01
 -1      3500 3.95252E-01
 -1      3501 3.10911E-01
 -1      3502 2.70643E-01
 -1      3503 3.11308E-01
 -1      3504 2.38589E-01
 -1      3505 2.05687E-01
 -1      3506 2.40649E-01
 -1      3507 1.79637E-01
 -1      3508 1.53292E-01
 -1      3509 1.82546E-01
 -1      3510 1.32533E-01
 -1      3511 1.11841E-01
 -1      3512 1.35737E-01
 -1      3513 9.56117E-02
 -1      3514 7.96725E-02
 -1      3515 9.87487E-02
 -1      3516 6.72288E-02
 -1      3517 5.51963E-02
 -1      3518 7.00757E-02
 -1      3519 4.62317E-02
 -1      3520 3.73472E-02
 -1      3521 4.86675E-02
 -1      3522 3.08246E-02
 -1      3523 2.44297E-02
 -1      3524 3.31804E-02
 -1      3525 1.96699E-02
 -1      3526 1.52071E-02
 -1      3527 2.18981E-02
 -1      3528 1.18287E-02
 -1      3529 8.83649E-03
 -1      3530 1.37599E-02
 -1      3531 6.52108E-03
 -1      3532 5.27893E-03
 -1      3533 8.06606E-03
 -1      3534 3.98226E-03
 -1      3535 3.32232E-03
 -1      3536 4.45398E-03
 -1      3537 2.74055E-03
 -1      3538 1.92290E+00
 -1      3539 1.69162E+00
 -1      3540 4.27080E+00
 -1      3541 3.80444E+00
 -1      3542 5.05786E+00
 -1      3543 4.90183E+00
 -1      3544 5.56695E+00
 -1      3545 1.99693E+00
 -1      3546 2.23367E+00
 -1      3547 9.04379E-01
 -1      3548 1.01828E+00
 -1      3549 7.12514E-01
 -1      3550 7.96800E-01
 -1      3551 8.99713E-01
 -1      3552 5.54011E-01
 -1      3553 6.24091E-01
 -1      3554 7.03711E-01
 -1      3555 4.23596E-01
 -1      3556 4.82493E-01
 -1      3557 5.43771E-01
 -1      3558 3.18591E-01
 -1      3559 3.66423E-01
 -1      3560 4.15082E-01
 -1      3561 2.36910E-01
 -1      3562 2.73389E-01
 -1      3563 3.12707E-01
 -1      3564 1.74996E-01
 -1      3565 2.01570E-01
 -1      3566 2.32165E-01
 -1      3567 1.27045E-01
 -1      3568 1.47697E-01
 -1      3569 1.69525E-01
 -1      3570 9.03821E-02
 -1      3571 1.06237E-01
 -1      3572 1.21419E-01
 -1      3573 6.31526E-02
 -1      3574 7.51503E-02
 -1      3575 8.53789E-02
 -1      3576 4.32342E-02
 -1      3577 5.21621E-02
 -1      3578 5.91566E-02
 -1      3579 2.86328E-02
 -1      3580 3.51472E-02
 -1      3581 4.00792E-02
 -1      3582 1.81771E-02
 -1      3583 2.28194E-02
 -1      3584 2.61788E-02
 -1      3585 1.09287E-02
 -1      3586 1.41393E-02
 -1      3587 1.63276E-02
 -1      3588 6.60552E-03
 -1      3589 8.40012E-03
 -1      3590 9.76122E-03
 -1      3591 4.81616E-03
 -1      3592 5.17215E-03
 -1      3593 5.79926E-03
 -1      3594 3.73856E-03
 -1      3595 4.20560E-03
 -1      3596 3.75533E-03
 -1      3597 2.44438E-03
 -1      3598 2.45372E-03
 -1      3599 2.25659E-03
 -1      3600 2.49038E-03
 -1      3601 2.67576E-03
 -1      3602 2.38191E-03
 -1      3603 3.89709E-01
 -1      3604 4.05503E-01
 -1      3605 5.67676E+00
 -1      3606 5.63070E+00
 -1      3607 4.29073E-01
 -1      3608 2.98291E+00
 -1      3609 3.30899E+00
 -1      3610 3.03560E+00
 -1      3611 4.00117E+00
 -1      3612 4.98675E+00
 -1      3613 4.47703E+00
 -1      3614 9.68523E+00
 -1      3615 9.68523E+00
 -1      3616 4.25913E+00
 -1      3617 6.18098E-01
 -1      3618 5.58569E-01
 -1      3619 2.61826E-01
 -1      3620 2.91800E-01
 -1      3621 3.71656E-01
 -1      3622 6.10677E+00
 -1      3623 7.74636E+00
 -1      3624 6.90377E+00
 -1      3625 5.37227E+00
 -1      3626 7.39545E+00
 -1      3627 6.28677E+00
 -1      3628 3.84943E+00
 -1      3629 4.23925E+00
 -1      3630 1.14549E+00
 -1      3631 1.28875E+00
 -1      3632 1.13450E+00
 -1      3633 6.14512E+00
 -1      3634 5.30053E+00
 -1      3635 1.48102E+00
 -1      3636 1.67687E+00
 -1      3637 1.45397E+00
 -1      3638 3.11614E+00
 -1      3639 4.50149E-01
 -1      3640 5.01759E-01
 -1      3641 5.69034E-01
 -1      3642 2.57555E-03
 -1      3643 4.26516E-01
 -1      3644 4.11167E-01
 -1      3645 8.25257E+00
 -1      3646 5.08795E-01
 -1      3647 4.62285E-01
 -1      3648 4.89599E-01
 -1      3649 2.37791E-01
 -1      3650 2.14458E-01
 -1      3651 6.81668E+00
 -1      3652 5.96179E+00
 -1      3653 6.26093E+00
 -1      3654 5.63070E+00
 -1      3655 2.43301E+00
 -1      3656 2.42105E+00
 -1      3657 2.31199E+00
 -1      3658 2.32773E+00
 -1      3659 2.56167E+00
 -1      3660 4.09148E+00
 -1      3661 3.32064E+00
 -1      3662 3.00710E+00
 -1      3663 4.88848E+00
 -1      3664 9.34041E-01
 -1      3665 8.77507E+00
 -1      3666 6.27733E+00
 -1      3667 6.37125E+00
 -1      3668 1.41352E+00
 -1      3669 1.22905E+00
 -1      3670 1.66055E+00
 -1      3671 6.65062E+00
 -1      3672 8.25229E+00
 -1      3673 6.74696E+00
 -1      3674 5.79245E+00
 -1      3675 6.46006E+00
 -1      3676 6.27760E+00
 -1      3677 4.61670E-01
 -1      3678 4.83293E-01
 -1      3679 4.44486E-01
 -1      3680 5.37732E-01
 -1      3681 2.59334E+00
 -1      3682 4.07831E-03
 -1      3683 3.34074E-03
 -1      3684 3.34074E-03
 -1      3685 2.44438E-03
 -1      3686 3.19129E-03
 -1      3687 2.25452E-03
 -1      3688 3.35713E-03
 -1      3689 1.94763E-01
 -1      3690 7.14556E+00
 -1      3691 7.64467E+00
 -1      3692 6.06758E+00
 -1      3693 2.57555E-03
 -1      3694 2.23754E-03
 -1      3695 3.17431E-03
 -1      3696 3.15732E-03
 -1      3697 2.76333E-03
 -1      3698 2.68629E-01
 -1      3699 3.13071E-01
 -1      3700 3.25837E-01
 -1      3701 7.08875E-01
 -1      3702 7.03784E-01
 -1      3703 7.93504E-01
 -1      3704 4.07854E+00
 -1      3705 3.11614E+00
 -1      3706 4.02509E-01
 -1      3707 5.31322E-01
 -1      3708 3.02472E+00
 -1      3709 1.96630E+00
 -1      3710 8.71246E+00
 -1      3711 6.65401E+00
 -1      3712 6.98566E+00
 -1      3713 2.81235E+00
 -1      3714 4.55416E-01
 -1      3715 5.73088E+00
 -1      3716 4.07644E+00
 -1      3717 5.22572E+00
 -1      3718 5.35616E+00
 -1      3719 3.73616E+00
 -1      3720 5.01863E+00
 -1      3721 3.77903E-03
 -1      3722 4.20587E-03
 -1      3723 5.60682E+00
 -1      3724 7.57903E+00
 -1      3725 6.77572E+00
 -1      3726 2.76333E-03
 -1      3727 5.62175E-01
 -1      3728 5.31322E-01
 -1      3729 4.58729E-03
 -1      3730 7.07289E+00
 -1      3731 7.14556E+00
 -1      3732 7.17392E+00
 -1      3733 7.26576E+00
 -1      3734 4.55416E-01
 -1      3735 9.76486E-01
 -1      3736 1.13469E+00
 -1      3737 1.35276E+00
 -1      3738 1.55074E+00
 -1      3739 1.34166E+00
 -1      3740 1.88837E+00
 -1      3741 2.07626E+00
 -1      3742 1.89735E+00
 -1      3743 2.72346E+00
 -1      3744 2.96939E+00
 -1      3745 4.29614E+00
 -1      3746 2.88218E+00
 -1      3747 4.26516E-01
 -1      3748 4.26516E-01
 -1      3749 6.59282E-01
 -1      3750 7.47705E-01
 -1      3751 4.17650E-01
 -1      3752 4.02300E-01
 -1      3753 3.58274E-01
 -1      3754 2.89495E+00
 -1      3755 2.63895E+00
 -1      3756 1.89088E+00
 -1      3757 1.65340E+00
 -1      3758 2.53972E+00
 -1      3759 1.47922E+00
 -1      3760 1.27770E+00
 -1      3761 1.61748E+00
 -1      3762 1.08271E+00
 -1      3763 9.47442E-01
 -1      3764 1.24831E+00
 -1      3765 8.41568E-01
 -1      3766 7.53044E-01
 -1      3767 9.47442E-01
 -1      3768 6.64520E-01
 -1      3769 6.04049E-01
 -1      3770 7.53044E-01
 -1      3771 5.32210E-01
 -1      3772 4.80716E-01
 -1      3773 5.92681E-01
 -1      3774 4.22950E-01
 -1      3775 3.77612E-01
 -1      3776 4.63077E-01
 -1      3777 3.31298E-01
 -1      3778 2.92692E-01
 -1      3779 3.58996E-01
 -1      3780 2.55699E-01
 -1      3781 2.23646E-01
 -1      3782 2.75688E-01
 -1      3783 1.94264E-01
 -1      3784 1.68214E-01
 -1      3785 2.09314E-01
 -1      3786 1.45064E-01
 -1      3787 1.24305E-01
 -1      3788 1.56782E-01
 -1      3789 1.06253E-01
 -1      3790 9.00241E-02
 -1      3791 1.15580E-01
 -1      3792 7.61239E-02
 -1      3793 6.36802E-02
 -1      3794 8.36287E-02
 -1      3795 5.31321E-02
 -1      3796 4.41675E-02
 -1      3797 5.91803E-02
 -1      3798 3.63604E-02
 -1      3799 2.98379E-02
 -1      3800 4.08250E-02
 -1      3801 2.44676E-02
 -1      3802 1.97078E-02
 -1      3803 2.76476E-02
 -1      3804 1.57754E-02
 -1      3805 1.23970E-02
 -1      3806 1.83449E-02
 -1      3807 9.62512E-03
 -1      3808 7.30970E-03
 -1      3809 1.16406E-02
 -1      3810 5.43967E-03
 -1      3811 4.14301E-03
 -1      3812 4.14301E-03
 -1      3813 6.99872E-03
 -1      3814 1.06079E+00
 -1      3815 9.19196E-01
 -1      3816 1.21420E+00
 -1      3817 5.69481E+00
 -1      3818 4.89622E-01
 -1      3819 5.34268E-01
 -1      3820 4.03433E+00
 -1      3821 4.45789E+00
 -1      3822 8.58516E-01
 -1      3823 9.66095E-01
 -1      3824 8.14087E-01
 -1      3825 3.82981E-01
 -1      3826 4.40154E-01
 -1      3827 2.88033E-01
 -1      3828 3.33235E-01
 -1      3829 3.58307E-01
 -1      3830 2.13957E-01
 -1      3831 2.49297E-01
 -1      3832 2.69824E-01
 -1      3833 1.56554E-01
 -1      3834 1.83853E-01
 -1      3835 2.00985E-01
 -1      3836 1.12499E-01
 -1      3837 1.33307E-01
 -1      3838 1.47635E-01
 -1      3839 7.94895E-02
 -1      3840 9.47213E-02
 -1      3841 1.06610E-01
 -1      3842 5.50732E-02
 -1      3843 6.60637E-02
 -1      3844 7.54061E-02
 -1      3845 3.72535E-02
 -1      3846 4.53405E-02
 -1      3847 5.22476E-02
 -1      3848 2.45465E-02
 -1      3849 3.03598E-02
 -1      3850 3.56212E-02
 -1      3851 1.54812E-02
 -1      3852 1.95191E-02
 -1      3853 2.37001E-02
 -1      3854 9.39276E-03
 -1      3855 1.19213E-02
 -1      3856 1.51128E-02
 -1      3857 6.33061E-03
 -1      3858 7.76398E-03
 -1      3859 9.92411E-03
 -1      3860 5.19786E-03
 -1      3861 2.60912E-01
 -1      3862 4.20578E-01
 -1      3863 2.12833E-01
 -1      3864 2.80607E-01
 -1      3865 1.45397E+00
 -1      3866 1.64623E+00
 -1      3867 4.26975E+00
 -1      3868 3.42711E+00
 -1      3869 3.08231E+00
 -1      3870 4.41140E+00
 -1      3871 1.11675E+00
 -1      3872 1.24396E+00
 -1      3873 1.07556E+00
 -1      3874 7.16258E-03
 -1      3875 2.71785E+00
 -1      3876 3.46710E+00
 -1      3877 3.85048E+00
 -1      3878 4.54266E+00
 -1      3879 5.06826E+00
 -1      3880 3.53272E+00
 -1      3881 5.08795E-01
 -1      3882 3.87299E-03
 -1      3883 3.77903E-03
 -1      3884 6.02983E-03
 -1      3885 5.49758E-03
 -1      3886 5.19049E+00
 -1      3887 4.61989E+00
 -1      3888 7.26701E-01
 -1      3889 8.25517E-01
 -1      3890 9.72618E-01
 -1      3891 4.44486E-01
 -1      3892 1.93588E+00
 -1      3893 2.25594E+00
 -1      3894 1.93588E+00
 -1      3895 5.69034E-01
 -1      3896 6.31752E-01
 -1      3897 7.26701E-01
 -1      3898 5.04285E-01
 -1      3899 5.75803E-01
 -1      3900 6.19797E-01
 -1      3901 4.72185E-01
 -1      3902 9.20254E-01
 -1      3903 4.71460E+00
 -1      3904 5.05429E+00
 -1      3905 3.94330E+00
 -1      3906 4.89570E-01
 -1      3907 4.71600E-01
 -1      3908 4.62733E-01
 -1      3909 3.16225E+00
 -1      3910 1.43623E+00
 -1      3911 3.76346E-01
 -1      3912 3.01886E+00
 -1      3913 2.62977E+00
 -1      3914 3.47516E+00
 -1      3915 5.01491E+00
 -1      3916 3.73411E+00
 -1      3917 3.28868E+00
 -1      3918 2.07857E+00
 -1      3919 1.80048E+00
 -1      3920 2.76970E+00
 -1      3921 6.26969E+00
 -1      3922 4.93309E+00
 -1      3923 5.05818E+00
 -1      3924 5.64845E-01
 -1      3925 5.29726E+00
 -1      3926 6.73019E+00
 -1      3927 5.62319E+00
 -1      3928 4.86344E-03
 -1      3929 5.75046E-03
 -1      3930 7.16258E-03
 -1      3931 8.29533E-03
 -1      3932 7.16258E-03
 -1      3933 3.87101E+00
 -1      3934 4.31809E-01
 -1      3935 4.00971E-01
 -1      3936 5.68197E+00
 -1      3937 3.59149E-01
 -1      3938 3.57523E-01
 -1      3939 4.77887E-01
 -1      3940 3.49021E-03
 -1      3941 3.49021E-03
 -1      3942 5.16236E-03
 -1      3943 5.96589E+00
 -1      3944 3.95453E-01
 -1      3945 5.37050E-01
 -1      3946 4.73995E-01
 -1      3947 5.96987E-01
 -1      3948 8.90703E-01
 -1      3949 7.99927E-01
 -1      3950 2.68743E+00
 -1      3951 6.00172E+00
 -1      3952 5.36288E+00
 -1      3953 5.37928E+00
 -1      3954 5.33844E+00
 -1      3955 5.77204E+00
 -1      3956 5.05568E+00
 -1      3957 4.18629E+00
 -1      3958 7.51764E-01
 -1      3959 5.31356E+00
 -1      3960 5.37073E-01
 -1      3961 5.62198E-01
 -1      3962 4.91322E+00
 -1      3963 5.62198E-01
 -1      3964 1.43556E+00
 -1      3965 1.30987E+00
 -1      3966 1.40601E+00
 -1      3967 1.87561E+00
 -1      3968 2.21324E+00
 -1      3969 3.59072E+00
 -1      3970 3.68365E+00
 -1      3971 1.70544E+00
 -1      3972 1.53127E+00
 -1      3973 1.44330E+00
 -1      3974 1.24831E+00
 -1      3975 1.53127E+00
 -1      3976 1.05196E+00
 -1      3977 9.46089E-01
 -1      3978 1.24696E+00
 -1      3979 8.09073E-01
 -1      3980 7.20549E-01
 -1      3981 9.13593E-01
 -1      3982 6.22487E-01
 -1      3983 5.50648E-01
 -1      3984 6.78515E-01
 -1      3985 4.78965E-01
 -1      3986 4.21199E-01
 -1      3987 5.08771E-01
 -1      3988 3.67649E-01
 -1      3989 3.21334E-01
 -1      3990 3.83537E-01
 -1      3991 2.80716E-01
 -1      3992 2.43723E-01
 -1      3993 2.89369E-01
 -1      3994 2.12592E-01
 -1      3995 1.83210E-01
 -1      3996 2.17620E-01
 -1      3997 1.59244E-01
 -1      3998 1.36094E-01
 -1      3999 1.62523E-01
 -1      4000 1.17658E-01
 -1      4001 9.96069E-02
 -1      4002 1.20121E-01
 -1      4003 8.54967E-02
 -1      4004 7.15965E-02
 -1      4005 8.75748E-02
 -1      4006 6.10326E-02
 -1      4007 5.04845E-02
 -1      4008 6.29007E-02
 -1      4009 4.29122E-02
 -1      4010 3.51051E-02
 -1      4011 4.47646E-02
 -1      4012 2.93209E-02
 -1      4013 2.39507E-02
 -1      4014 3.14082E-02
 -1      4015 1.99751E-02
 -1      4016 1.60426E-02
 -1      4017 2.16484E-02
 -1      4018 1.30851E-02
 -1      4019 1.03133E-02
 -1      4020 1.47153E-02
 -1      4021 1.75480E-01
 -1      4022 2.05584E-01
 -1      4023 4.91322E+00
 -1      4024 4.91322E+00
 -1      4025 3.86055E+00
 -1      4026 7.12621E-01
 -1      4027 8.23433E-01
 -1      4028 2.35274E-01
 -1      4029 2.74010E-01
 -1      4030 2.09769E-01
 -1      4031 3.12080E-01
 -1      4032 3.61827E-01
 -1      4033 2.77530E-01
 -1      4034 1.29066E-01
 -1      4035 1.52313E-01
 -1      4036 1.56911E-01
 -1      4037 9.33069E-02
 -1      4038 1.11085E-01
 -1      4039 1.15763E-01
 -1      4040 6.60570E-02
 -1      4041 7.94828E-02
 -1      4042 8.39578E-02
 -1      4043 4.58293E-02
 -1      4044 5.55620E-02
 -1      4045 5.96387E-02
 -1      4046 3.10909E-02
 -1      4047 3.79846E-02
 -1      4048 4.12990E-02
 -1      4049 2.06999E-02
 -1      4050 2.57273E-02
 -1      4051 2.80907E-02
 -1      4052 1.35591E-02
 -1      4053 1.71190E-02
 -1      4054 1.91463E-02
 -1      4055 8.95007E-03
 -1      4056 1.05788E-02
 -1      4057 1.25851E-02
 -1      4058 8.95007E-03
 -1      4059 7.94166E-01
 -1      4060 8.89114E-01
 -1      4061 4.64246E-01
 -1      4062 4.31809E-01
 -1      4063 5.19709E-01
 -1      4064 5.18196E-01
 -1      4065 3.22513E+00
 -1      4066 2.82927E+00
 -1      4067 2.08120E+00
 -1      4068 3.08893E+00
 -1      4069 9.51085E-01
 -1      4070 1.10174E+00
 -1      4071 8.49620E-01
 -1      4072 1.53648E+00
 -1      4073 1.36823E+00
 -1      4074 1.75784E+00
 -1      4075 1.95450E+00
 -1      4076 1.29654E+00
 -1      4077 1.50655E+00
 -1      4078 1.17207E+00
 -1      4079 7.53277E-01
 -1      4080 3.59072E+00
 -1      4081 5.75046E-03
 -1      4082 6.28271E-03
 -1      4083 7.41546E-03
 -1      4084 6.53559E-03
 -1      4085 3.87128E-03
 -1      4086 3.88827E-03
 -1      4087 4.18718E-03
 -1      4088 4.85697E-03
 -1      4089 2.48864E+00
 -1      4090 2.95055E+00
 -1      4091 1.45912E+00
 -1      4092 1.67719E+00
 -1      4093 1.99307E+00
 -1      4094 6.11957E-01
 -1      4095 6.46723E-01
 -1      4096 8.09137E-01
 -1      4097 5.86809E-01
 -1      4098 1.11055E+00
 -1      4099 1.26152E+00
 -1      4100 1.17802E+00
 -1      4101 1.81448E+00
 -1      4102 2.10412E+00
 -1      4103 1.67479E+00
 -1      4104 4.54679E+00
 -1      4105 3.56737E+00
 -1      4106 3.29754E+00
 -1      4107 4.63820E+00
 -1      4108 3.73071E+00
 -1      4109 4.37899E+00
 -1      4110 4.31192E+00
 -1      4111 4.65461E+00
 -1      4112 3.60194E+00
 -1      4113 2.74634E+00
 -1      4114 2.60309E+00
 -1      4115 3.25028E+00
 -1      4116 2.58135E+00
 -1      4117 1.99499E+00
 -1      4118 3.92771E+00
 -1      4119 4.12651E+00
 -1      4120 4.50989E+00
 -1      4121 3.64868E-01
 -1      4122 4.11094E-01
 -1      4123 4.75226E-01
 -1      4124 7.75593E-03
 -1      4125 5.88590E-03
 -1      4126 5.61418E-03
 -1      4127 9.20043E-03
 -1      4128 4.26771E+00
 -1      4129 3.76167E+00
 -1      4130 4.43438E+00
 -1      4131 4.41761E+00
 -1      4132 4.05344E+00
 -1      4133 2.36723E+00
 -1      4134 4.41795E-01
 -1      4135 3.99974E-01
 -1      4136 5.48879E-01
 -1      4137 5.86809E-01
 -1      4138 6.61694E-01
 -1      4139 5.12788E-01
 -1      4140 8.33188E-03
 -1      4141 8.33188E-03
 -1      4142 9.13413E-01
 -1      4143 6.79845E-01
 -1      4144 1.59705E+00
 -1      4145 5.40490E-01
 -1      4146 6.23970E-01
 -1      4147 6.33315E-01
 -1      4148 4.79399E-01
 -1      4149 5.37928E+00
 -1      4150 5.10368E+00
 -1      4151 6.58935E-03
 -1      4152 8.38564E-03
 -1      4153 1.82517E+00
 -1      4154 1.40601E+00
 -1      4155 1.33258E+00
 -1      4156 6.79845E-01
 -1      4157 6.01932E-01
 -1      4158 8.09137E-01
 -1      4159 9.56580E-01
 -1      4160 8.09137E-01
 -1      4161 2.54454E+00
 -1      4162 2.93439E+00
 -1      4163 1.84190E-01
 -1      4164 2.13880E-01
 -1      4165 1.61410E+00
 -1      4166 1.52614E+00
 -1      4167 1.32746E+00
 -1      4168 1.13111E+00
 -1      4169 1.41029E+00
 -1      4170 9.39369E-01
 -1      4171 8.02353E-01
 -1      4172 1.01987E+00
 -1      4173 6.87204E-01
 -1      4174 5.89142E-01
 -1      4175 7.12980E-01
 -1      4176 5.14378E-01
 -1      4177 4.42696E-01
 -1      4178 5.23067E-01
 -1      4179 3.94132E-01
 -1      4180 3.40581E-01
 -1      4181 3.99739E-01
 -1      4182 3.02286E-01
 -1      4183 2.61669E-01
 -1      4184 3.12881E-01
 -1      4185 2.31014E-01
 -1      4186 1.99883E-01
 -1      4187 2.43932E-01
 -1      4188 1.75248E-01
 -1      4189 1.51282E-01
 -1      4190 1.88642E-01
 -1      4191 1.31541E-01
 -1      4192 1.13105E-01
 -1      4193 1.44267E-01
 -1      4194 9.74017E-02
 -1      4195 8.32915E-02
 -1      4196 1.08822E-01
 -1      4197 7.09277E-02
 -1      4198 6.03638E-02
 -1      4199 8.07546E-02
 -1      4200 5.07496E-02
 -1      4201 4.31773E-02
 -1      4202 5.87766E-02
 -1      4203 3.58055E-02
 -1      4204 3.00214E-02
 -1      4205 4.17906E-02
 -1      4206 2.45813E-02
 -1      4207 2.06057E-02
 -1      4208 2.89787E-02
 -1      4209 1.67232E-02
 -1      4210 1.37656E-02
 -1      4211 1.96561E-02
 -1      4212 1.02386E-01
 -1      4213 1.20367E-01
 -1      4214 1.10505E-02
 -1      4215 1.19303E-02
 -1      4216 1.25851E-02
 -1      4217 1.28467E-02
 -1      4218 4.78007E+00
 -1      4219 1.38278E-01
 -1      4220 1.61445E-01
 -1      4221 1.24900E-01
 -1      4222 2.42744E-01
 -1      4223 2.80815E-01
 -1      4224 2.17165E-01
 -1      4225 7.45332E-02
 -1      4226 8.83573E-02
 -1      4227 9.29609E-02
 -1      4228 5.31476E-02
 -1      4229 6.36425E-02
 -1      4230 6.80421E-02
 -1      4231 3.69436E-02
 -1      4232 4.47883E-02
 -1      4233 4.87921E-02
 -1      4234 2.52477E-02
 -1      4235 3.06113E-02
 -1      4236 3.41006E-02
 -1      4237 1.71766E-02
 -1      4238 2.07575E-02
 -1      4239 2.32781E-02
 -1      4240 1.17802E+00
 -1      4241 1.39945E+00
 -1      4242 1.17802E+00
 -1      4243 3.05216E+00
 -1      4244 2.33398E+00
 -1      4245 1.95822E+00
 -1      4246 7.51727E-01
 -1      4247 5.13678E-01
 -1      4248 6.62584E-01
 -1      4249 1.24432E+00
 -1      4250 4.26651E+00
 -1      4251 4.26651E+00
 -1      4252 3.54183E+00
 -1      4253 3.09055E+00
 -1      4254 1.99419E+00
 -1      4255 2.37870E+00
 -1      4256 2.71750E+00
 -1      4257 2.17326E+00
 -1      4258 2.37086E+00
 -1      4259 2.17326E+00
 -1      4260 2.08122E+00
 -1      4261 2.27964E+00
 -1      4262 2.63269E+00
 -1      4263 2.65742E+00
 -1      4264 6.95706E-01
 -1      4265 8.23359E-01
 -1      4266 1.35488E+00
 -1      4267 1.66281E+00
 -1      4268 1.67427E+00
 -1      4269 3.30876E+00
 -1      4270 9.32133E-01
 -1      4271 1.12693E+00
 -1      4272 1.11494E+00
 -1      4273 7.78219E-01
 -1      4274 2.63743E+00
 -1      4275 2.10958E+00
 -1      4276 6.34879E-01
 -1      4277 6.08618E-01
 -1      4278 5.46227E-01
 -1      4279 4.27786E+00
 -1      4280 3.30929E+00
 -1      4281 3.41498E+00
 -1      4282 2.83393E-01
 -1      4283 3.18179E-01
 -1      4284 3.67446E-01
 -1      4285 3.14520E+00
 -1      4286 3.11063E+00
 -1      4287 3.11115E+00
 -1      4288 2.47387E+00
 -1      4289 1.09430E-02
 -1      4290 1.26414E-02
 -1      4291 1.53599E-02
 -1      4292 1.91292E+00
 -1      4293 1.91292E+00
 -1      4294 2.97576E+00
 -1      4295 1.95309E+00
 -1      4296 1.29508E-02
 -1      4297 1.54640E-02
 -1      4298 5.21611E-03
 -1      4299 1.65556E-01
 -1      4300 3.72487E+00
 -1      4301 8.60255E-02
 -1      4302 1.00054E-01
 -1      4303 1.53410E-01
 -1      4304 1.76154E-01
 -1      4305 1.04931E+00
 -1      4306 8.57561E-01
 -1      4307 7.48787E-01
 -1      4308 6.33638E-01
 -1      4309 5.72811E-01
 -1      4310 4.98047E-01
 -1      4311 3.35966E-01
 -1      4312 2.97671E-01
 -1      4313 2.60308E-01
 -1      4314 2.29653E-01
 -1      4315 2.00789E-01
 -1      4316 1.33669E-01
 -1      4317 1.15757E-01
 -1      4318 7.36618E-02
 -1      4319 6.27712E-02
 -1      4320 5.31569E-02
 -1      4321 4.47976E-02
 -1      4322 3.74258E-02
 -1      4323 3.10935E-02
 -1      4324 2.56535E-02
 -1      4325 2.11633E-02
 -1      4326 1.72807E-02
 -1      4327 2.00067E+00
 -1      4328 1.91292E+00
 -1      4329 1.47593E+00
 -1      4330 1.27726E+00
 -1      4331 2.90337E+00
 -1      4332 2.22482E+00
 -1      4333 1.88069E+00
 -1      4334 1.84559E+00
 -1      4335 1.55653E-02
 -1      4336 1.71766E-02
 -1      4337 9.76047E-01
 -1      4338 1.19748E+00
 -1      4339 8.10027E-01
 -1      4340 1.70006E+00
 -1      4341 2.47387E+00
 -1      4342 3.22616E+00
 -1      4343 4.16158E-01
 -1      4344 4.81422E-01
 -1      4345 3.69469E-01
 -1      4346 2.79089E+00
 -1      4347 2.47387E+00
 -1      4348 3.08641E+00
 -1      4349 2.07904E+00
 -1      4350 4.82986E-01
 -1      4351 4.33242E-01
 -1      4352 3.84678E-01
 -1      4353 8.29494E-01
 -1      4354 1.80731E+00
 -1      4355 2.82151E+00
 -1      4356 1.41034E+00
 -1      4357 2.94706E+00
 -1      4358 3.11115E+00
 -1      4359 1.69712E-02
 -1      4360 1.49809E+00
 -3
 9999
