    1C
    1UUSER                                                              
    1UDATE              27.october.2022                                 
    1UTIME              00:52:21                                        
    1UHOST                                                              
    1UPGM               CalculiX                                        
    1UVERSION           Version 2.17                             
    1UCOMPILETIME       Thu Jul 23 21:43:50 CEST 2020                    
    1UDIR                                                               
    1UDBN                                                               
    1UMAT    1SOLIDMATERIAL                                             
    2C                          4336                                     1
 -1         1 4.07943E+01 3.14578E+01 0.00000E+00
 -1         2 5.06542E+01 2.50686E+01 0.00000E+00
 -1         3 1.50000E+02 0.00000E+00 0.00000E+00
 -1         4 1.50000E+02 5.00000E+01 0.00000E+00
 -1         5 0.00000E+00 0.00000E+00 0.00000E+00
 -1         6 0.00000E+00 5.00000E+01 0.00000E+00
 -1         7 0.00000E+00 4.70500E+01 0.00000E+00
 -1         8 0.00000E+00 4.41000E+01 0.00000E+00
 -1         9 0.00000E+00 4.11500E+01 0.00000E+00
 -1        10 0.00000E+00 3.82000E+01 0.00000E+00
 -1        11 0.00000E+00 3.52500E+01 0.00000E+00
 -1        12 0.00000E+00 3.23500E+01 0.00000E+00
 -1        13 0.00000E+00 2.94000E+01 0.00000E+00
 -1        14 0.00000E+00 2.64500E+01 0.00000E+00
 -1        15 0.00000E+00 2.35000E+01 0.00000E+00
 -1        16 0.00000E+00 2.05500E+01 0.00000E+00
 -1        17 0.00000E+00 1.76000E+01 0.00000E+00
 -1        18 0.00000E+00 1.47000E+01 0.00000E+00
 -1        19 0.00000E+00 1.17500E+01 0.00000E+00
 -1        20 0.00000E+00 8.80000E+00 0.00000E+00
 -1        21 0.00000E+00 5.85000E+00 0.00000E+00
 -1        22 0.00000E+00 2.90000E+00 0.00000E+00
 -1        23 3.15000E+00 5.00000E+01 0.00000E+00
 -1        24 6.15000E+00 5.00000E+01 0.00000E+00
 -1        25 9.15000E+00 5.00000E+01 0.00000E+00
 -1        26 1.21500E+01 5.00000E+01 0.00000E+00
 -1        27 1.51500E+01 5.00000E+01 0.00000E+00
 -1        28 1.81500E+01 5.00000E+01 0.00000E+00
 -1        29 2.11500E+01 5.00000E+01 0.00000E+00
 -1        30 2.41500E+01 5.00000E+01 0.00000E+00
 -1        31 2.71500E+01 5.00000E+01 0.00000E+00
 -1        32 3.01500E+01 5.00000E+01 0.00000E+00
 -1        33 3.31500E+01 5.00000E+01 0.00000E+00
 -1        34 3.61500E+01 5.00000E+01 0.00000E+00
 -1        35 3.91500E+01 5.00000E+01 0.00000E+00
 -1        36 4.21500E+01 5.00000E+01 0.00000E+00
 -1        37 4.51500E+01 5.00000E+01 0.00000E+00
 -1        38 4.81500E+01 5.00000E+01 0.00000E+00
 -1        39 5.11500E+01 5.00000E+01 0.00000E+00
 -1        40 5.41500E+01 5.00000E+01 0.00000E+00
 -1        41 5.71500E+01 5.00000E+01 0.00000E+00
 -1        42 6.01500E+01 5.00000E+01 0.00000E+00
 -1        43 6.31500E+01 5.00000E+01 0.00000E+00
 -1        44 6.61500E+01 5.00000E+01 0.00000E+00
 -1        45 6.91500E+01 5.00000E+01 0.00000E+00
 -1        46 7.21500E+01 5.00000E+01 0.00000E+00
 -1        47 7.51500E+01 5.00000E+01 0.00000E+00
 -1        48 7.81500E+01 5.00000E+01 0.00000E+00
 -1        49 8.11500E+01 5.00000E+01 0.00000E+00
 -1        50 8.41500E+01 5.00000E+01 0.00000E+00
 -1        51 8.71500E+01 5.00000E+01 0.00000E+00
 -1        52 9.01500E+01 5.00000E+01 0.00000E+00
 -1        53 9.31500E+01 5.00000E+01 0.00000E+00
 -1        54 9.61500E+01 5.00000E+01 0.00000E+00
 -1        55 9.91500E+01 5.00000E+01 0.00000E+00
 -1        56 1.02150E+02 5.00000E+01 0.00000E+00
 -1        57 1.05150E+02 5.00000E+01 0.00000E+00
 -1        58 1.08150E+02 5.00000E+01 0.00000E+00
 -1        59 1.11150E+02 5.00000E+01 0.00000E+00
 -1        60 1.14150E+02 5.00000E+01 0.00000E+00
 -1        61 1.17150E+02 5.00000E+01 0.00000E+00
 -1        62 1.20150E+02 5.00000E+01 0.00000E+00
 -1        63 1.23150E+02 5.00000E+01 0.00000E+00
 -1        64 1.26150E+02 5.00000E+01 0.00000E+00
 -1        65 1.29150E+02 5.00000E+01 0.00000E+00
 -1        66 1.32150E+02 5.00000E+01 0.00000E+00
 -1        67 1.35150E+02 5.00000E+01 0.00000E+00
 -1        68 1.38150E+02 5.00000E+01 0.00000E+00
 -1        69 1.41150E+02 5.00000E+01 0.00000E+00
 -1        70 1.44150E+02 5.00000E+01 0.00000E+00
 -1        71 1.47150E+02 5.00000E+01 0.00000E+00
 -1        72 3.15000E+00 0.00000E+00 0.00000E+00
 -1        73 6.15000E+00 0.00000E+00 0.00000E+00
 -1        74 9.15000E+00 0.00000E+00 0.00000E+00
 -1        75 1.21500E+01 0.00000E+00 0.00000E+00
 -1        76 1.51500E+01 0.00000E+00 0.00000E+00
 -1        77 1.81500E+01 0.00000E+00 0.00000E+00
 -1        78 2.11500E+01 0.00000E+00 0.00000E+00
 -1        79 2.41500E+01 0.00000E+00 0.00000E+00
 -1        80 2.71500E+01 0.00000E+00 0.00000E+00
 -1        81 3.01500E+01 0.00000E+00 0.00000E+00
 -1        82 3.31500E+01 0.00000E+00 0.00000E+00
 -1        83 3.61500E+01 0.00000E+00 0.00000E+00
 -1        84 3.91500E+01 0.00000E+00 0.00000E+00
 -1        85 4.21500E+01 0.00000E+00 0.00000E+00
 -1        86 4.51500E+01 0.00000E+00 0.00000E+00
 -1        87 4.81500E+01 0.00000E+00 0.00000E+00
 -1        88 5.11500E+01 0.00000E+00 0.00000E+00
 -1        89 5.41500E+01 0.00000E+00 0.00000E+00
 -1        90 5.71500E+01 0.00000E+00 0.00000E+00
 -1        91 6.01500E+01 0.00000E+00 0.00000E+00
 -1        92 6.31500E+01 0.00000E+00 0.00000E+00
 -1        93 6.61500E+01 0.00000E+00 0.00000E+00
 -1        94 6.91500E+01 0.00000E+00 0.00000E+00
 -1        95 7.21500E+01 0.00000E+00 0.00000E+00
 -1        96 7.51500E+01 0.00000E+00 0.00000E+00
 -1        97 7.81500E+01 0.00000E+00 0.00000E+00
 -1        98 8.11500E+01 0.00000E+00 0.00000E+00
 -1        99 8.41500E+01 0.00000E+00 0.00000E+00
 -1       100 8.71500E+01 0.00000E+00 0.00000E+00
 -1       101 9.01500E+01 0.00000E+00 0.00000E+00
 -1       102 9.31500E+01 0.00000E+00 0.00000E+00
 -1       103 9.61500E+01 0.00000E+00 0.00000E+00
 -1       104 9.91500E+01 0.00000E+00 0.00000E+00
 -1       105 1.02150E+02 0.00000E+00 0.00000E+00
 -1       106 1.05150E+02 0.00000E+00 0.00000E+00
 -1       107 1.08150E+02 0.00000E+00 0.00000E+00
 -1       108 1.11150E+02 0.00000E+00 0.00000E+00
 -1       109 1.14150E+02 0.00000E+00 0.00000E+00
 -1       110 1.17150E+02 0.00000E+00 0.00000E+00
 -1       111 1.20150E+02 0.00000E+00 0.00000E+00
 -1       112 1.23150E+02 0.00000E+00 0.00000E+00
 -1       113 1.26150E+02 0.00000E+00 0.00000E+00
 -1       114 1.29150E+02 0.00000E+00 0.00000E+00
 -1       115 1.32150E+02 0.00000E+00 0.00000E+00
 -1       116 1.35150E+02 0.00000E+00 0.00000E+00
 -1       117 1.38150E+02 0.00000E+00 0.00000E+00
 -1       118 1.41150E+02 0.00000E+00 0.00000E+00
 -1       119 1.44150E+02 0.00000E+00 0.00000E+00
 -1       120 1.47150E+02 0.00000E+00 0.00000E+00
 -1       121 1.50000E+02 2.95000E+00 0.00000E+00
 -1       122 1.50000E+02 5.90000E+00 0.00000E+00
 -1       123 1.50000E+02 8.85000E+00 0.00000E+00
 -1       124 1.50000E+02 1.18000E+01 0.00000E+00
 -1       125 1.50000E+02 1.47500E+01 0.00000E+00
 -1       126 1.50000E+02 1.76500E+01 0.00000E+00
 -1       127 1.50000E+02 2.06000E+01 0.00000E+00
 -1       128 1.50000E+02 2.35500E+01 0.00000E+00
 -1       129 1.50000E+02 2.65000E+01 0.00000E+00
 -1       130 1.50000E+02 2.94500E+01 0.00000E+00
 -1       131 1.50000E+02 3.24000E+01 0.00000E+00
 -1       132 1.50000E+02 3.53000E+01 0.00000E+00
 -1       133 1.50000E+02 3.82500E+01 0.00000E+00
 -1       134 1.50000E+02 4.12000E+01 0.00000E+00
 -1       135 1.50000E+02 4.41500E+01 0.00000E+00
 -1       136 1.50000E+02 4.71000E+01 0.00000E+00
 -1       137 5.04992E+01 2.36036E+01 0.00000E+00
 -1       138 5.00045E+01 2.21234E+01 0.00000E+00
 -1       139 4.92190E+01 2.08220E+01 0.00000E+00
 -1       140 4.82115E+01 1.97553E+01 0.00000E+00
 -1       141 4.69933E+01 1.89163E+01 0.00000E+00
 -1       142 4.56566E+01 1.83611E+01 0.00000E+00
 -1       143 4.41950E+01 1.80896E+01 0.00000E+00
 -1       144 4.27221E+01 1.81310E+01 0.00000E+00
 -1       145 4.11941E+01 1.85152E+01 0.00000E+00
 -1       146 3.98966E+01 1.91627E+01 0.00000E+00
 -1       147 3.87854E+01 2.00393E+01 0.00000E+00
 -1       148 3.78268E+01 2.11903E+01 0.00000E+00
 -1       149 3.70964E+01 2.26203E+01 0.00000E+00
 -1       150 3.67227E+01 2.40920E+01 0.00000E+00
 -1       151 3.66755E+01 2.56135E+01 0.00000E+00
 -1       152 3.70196E+01 2.73007E+01 0.00000E+00
 -1       153 3.75956E+01 2.85747E+01 0.00000E+00
 -1       154 3.84414E+01 2.97405E+01 0.00000E+00
 -1       155 3.95366E+01 3.07294E+01 0.00000E+00
 -1       156 4.20940E+01 3.18925E+01 0.00000E+00
 -1       157 4.34917E+01 3.20667E+01 0.00000E+00
 -1       158 4.48387E+01 3.19677E+01 0.00000E+00
 -1       159 4.61917E+01 3.15925E+01 0.00000E+00
 -1       160 4.75104E+01 3.09107E+01 0.00000E+00
 -1       161 4.85466E+01 3.00751E+01 0.00000E+00
 -1       162 4.94616E+01 2.89769E+01 0.00000E+00
 -1       163 5.01104E+01 2.77739E+01 0.00000E+00
 -1       164 5.05263E+01 2.64007E+01 0.00000E+00
 -1       165 2.59800E+00 4.55750E+01 0.00000E+00
 -1       166 2.59800E+00 4.26250E+01 0.00000E+00
 -1       167 2.59800E+00 3.96750E+01 0.00000E+00
 -1       168 2.59800E+00 3.67250E+01 0.00000E+00
 -1       169 2.59800E+00 3.38250E+01 0.00000E+00
 -1       170 2.59800E+00 3.08750E+01 0.00000E+00
 -1       171 2.59800E+00 2.79250E+01 0.00000E+00
 -1       172 2.59800E+00 2.49750E+01 0.00000E+00
 -1       173 2.59800E+00 2.20250E+01 0.00000E+00
 -1       174 2.59800E+00 1.90750E+01 0.00000E+00
 -1       175 2.59800E+00 1.61750E+01 0.00000E+00
 -1       176 2.59800E+00 1.32250E+01 0.00000E+00
 -1       177 2.59800E+00 1.02750E+01 0.00000E+00
 -1       178 2.59800E+00 7.32500E+00 0.00000E+00
 -1       179 2.59800E+00 4.37500E+00 0.00000E+00
 -1       180 2.87400E+00 2.18750E+00 0.00000E+00
 -1       181 4.65000E+00 4.74020E+01 0.00000E+00
 -1       182 7.65000E+00 4.74020E+01 0.00000E+00
 -1       183 1.06500E+01 4.74020E+01 0.00000E+00
 -1       184 1.36500E+01 4.74020E+01 0.00000E+00
 -1       185 1.66500E+01 4.74020E+01 0.00000E+00
 -1       186 1.96500E+01 4.74020E+01 0.00000E+00
 -1       187 2.26500E+01 4.74020E+01 0.00000E+00
 -1       188 2.56500E+01 4.74020E+01 0.00000E+00
 -1       189 2.86500E+01 4.74020E+01 0.00000E+00
 -1       190 3.16500E+01 4.74020E+01 0.00000E+00
 -1       191 3.46500E+01 4.74020E+01 0.00000E+00
 -1       192 3.76500E+01 4.74020E+01 0.00000E+00
 -1       193 4.06500E+01 4.74020E+01 0.00000E+00
 -1       194 4.36500E+01 4.74020E+01 0.00000E+00
 -1       195 4.66500E+01 4.74020E+01 0.00000E+00
 -1       196 4.96500E+01 4.74020E+01 0.00000E+00
 -1       197 5.26500E+01 4.74020E+01 0.00000E+00
 -1       198 5.56500E+01 4.74020E+01 0.00000E+00
 -1       199 5.86500E+01 4.74020E+01 0.00000E+00
 -1       200 6.16500E+01 4.74020E+01 0.00000E+00
 -1       201 6.46500E+01 4.74020E+01 0.00000E+00
 -1       202 6.76500E+01 4.74020E+01 0.00000E+00
 -1       203 7.06500E+01 4.74020E+01 0.00000E+00
 -1       204 7.36500E+01 4.74020E+01 0.00000E+00
 -1       205 7.66500E+01 4.74020E+01 0.00000E+00
 -1       206 7.96500E+01 4.74020E+01 0.00000E+00
 -1       207 8.26500E+01 4.74020E+01 0.00000E+00
 -1       208 8.56500E+01 4.74020E+01 0.00000E+00
 -1       209 8.86500E+01 4.74020E+01 0.00000E+00
 -1       210 9.16500E+01 4.74020E+01 0.00000E+00
 -1       211 9.46500E+01 4.74020E+01 0.00000E+00
 -1       212 9.76500E+01 4.74020E+01 0.00000E+00
 -1       213 1.00650E+02 4.74020E+01 0.00000E+00
 -1       214 1.03650E+02 4.74020E+01 0.00000E+00
 -1       215 1.06650E+02 4.74020E+01 0.00000E+00
 -1       216 1.09650E+02 4.74020E+01 0.00000E+00
 -1       217 1.12650E+02 4.74020E+01 0.00000E+00
 -1       218 1.15650E+02 4.74020E+01 0.00000E+00
 -1       219 1.18650E+02 4.74020E+01 0.00000E+00
 -1       220 1.21650E+02 4.74020E+01 0.00000E+00
 -1       221 1.24650E+02 4.74020E+01 0.00000E+00
 -1       222 1.27650E+02 4.74020E+01 0.00000E+00
 -1       223 1.30650E+02 4.74020E+01 0.00000E+00
 -1       224 1.33650E+02 4.74020E+01 0.00000E+00
 -1       225 1.36650E+02 4.74020E+01 0.00000E+00
 -1       226 1.39650E+02 4.74020E+01 0.00000E+00
 -1       227 1.42650E+02 4.74020E+01 0.00000E+00
 -1       228 1.45650E+02 4.74020E+01 0.00000E+00
 -1       229 5.87400E+00 2.18750E+00 0.00000E+00
 -1       230 8.87400E+00 2.18750E+00 0.00000E+00
 -1       231 1.18740E+01 2.18750E+00 0.00000E+00
 -1       232 1.48740E+01 2.18750E+00 0.00000E+00
 -1       233 1.78740E+01 2.18750E+00 0.00000E+00
 -1       234 2.08740E+01 2.18750E+00 0.00000E+00
 -1       235 2.38740E+01 2.18750E+00 0.00000E+00
 -1       236 2.68740E+01 2.18750E+00 0.00000E+00
 -1       237 2.98740E+01 2.18750E+00 0.00000E+00
 -1       238 3.28740E+01 2.18750E+00 0.00000E+00
 -1       239 3.58740E+01 2.18750E+00 0.00000E+00
 -1       240 3.88740E+01 2.18750E+00 0.00000E+00
 -1       241 4.18740E+01 2.18750E+00 0.00000E+00
 -1       242 4.48740E+01 2.18750E+00 0.00000E+00
 -1       243 4.78740E+01 2.18750E+00 0.00000E+00
 -1       244 5.08740E+01 2.18750E+00 0.00000E+00
 -1       245 5.38740E+01 2.18750E+00 0.00000E+00
 -1       246 5.68740E+01 2.18750E+00 0.00000E+00
 -1       247 5.98740E+01 2.18750E+00 0.00000E+00
 -1       248 6.28740E+01 2.18750E+00 0.00000E+00
 -1       249 6.58740E+01 2.18750E+00 0.00000E+00
 -1       250 6.88740E+01 2.18750E+00 0.00000E+00
 -1       251 7.18740E+01 2.18750E+00 0.00000E+00
 -1       252 7.48740E+01 2.18750E+00 0.00000E+00
 -1       253 7.78740E+01 2.18750E+00 0.00000E+00
 -1       254 8.08740E+01 2.18750E+00 0.00000E+00
 -1       255 8.38740E+01 2.18750E+00 0.00000E+00
 -1       256 8.68740E+01 2.18750E+00 0.00000E+00
 -1       257 8.98740E+01 2.18750E+00 0.00000E+00
 -1       258 9.28740E+01 2.18750E+00 0.00000E+00
 -1       259 9.58740E+01 2.18750E+00 0.00000E+00
 -1       260 9.88740E+01 2.18750E+00 0.00000E+00
 -1       261 1.01874E+02 2.18750E+00 0.00000E+00
 -1       262 1.04874E+02 2.18750E+00 0.00000E+00
 -1       263 1.07874E+02 2.18750E+00 0.00000E+00
 -1       264 1.10874E+02 2.18750E+00 0.00000E+00
 -1       265 1.13874E+02 2.18750E+00 0.00000E+00
 -1       266 1.16874E+02 2.18750E+00 0.00000E+00
 -1       267 1.19874E+02 2.18750E+00 0.00000E+00
 -1       268 1.22874E+02 2.18750E+00 0.00000E+00
 -1       269 1.25874E+02 2.18750E+00 0.00000E+00
 -1       270 1.28874E+02 2.18750E+00 0.00000E+00
 -1       271 1.31874E+02 2.18750E+00 0.00000E+00
 -1       272 1.34874E+02 2.18750E+00 0.00000E+00
 -1       273 1.37874E+02 2.18750E+00 0.00000E+00
 -1       274 1.40874E+02 2.18750E+00 0.00000E+00
 -1       275 1.43874E+02 2.18750E+00 0.00000E+00
 -1       276 1.46874E+02 2.18750E+00 0.00000E+00
 -1       277 1.47402E+02 4.42500E+00 0.00000E+00
 -1       278 1.47402E+02 7.37500E+00 0.00000E+00
 -1       279 1.47402E+02 1.03250E+01 0.00000E+00
 -1       280 1.47402E+02 1.32750E+01 0.00000E+00
 -1       281 1.47402E+02 1.61750E+01 0.00000E+00
 -1       282 1.47402E+02 1.91250E+01 0.00000E+00
 -1       283 1.47402E+02 2.20750E+01 0.00000E+00
 -1       284 1.47402E+02 2.50250E+01 0.00000E+00
 -1       285 1.47402E+02 2.79750E+01 0.00000E+00
 -1       286 1.47402E+02 3.09250E+01 0.00000E+00
 -1       287 1.47402E+02 3.38250E+01 0.00000E+00
 -1       288 1.47402E+02 3.67750E+01 0.00000E+00
 -1       289 1.47402E+02 3.97250E+01 0.00000E+00
 -1       290 1.47402E+02 4.26750E+01 0.00000E+00
 -1       291 1.46526E+02 4.50385E+01 0.00000E+00
 -1       292 5.18657E+01 2.41997E+01 0.00000E+00
 -1       293 5.15607E+01 2.24260E+01 0.00000E+00
 -1       294 5.07214E+01 2.08029E+01 0.00000E+00
 -1       295 4.95966E+01 1.94562E+01 0.00000E+00
 -1       296 4.83376E+01 1.82683E+01 0.00000E+00
 -1       297 4.68222E+01 1.74417E+01 0.00000E+00
 -1       298 4.51626E+01 1.69510E+01 0.00000E+00
 -1       299 4.34221E+01 1.68146E+01 0.00000E+00
 -1       300 4.16216E+01 1.69848E+01 0.00000E+00
 -1       301 4.00040E+01 1.77541E+01 0.00000E+00
 -1       302 3.85901E+01 1.86491E+01 0.00000E+00
 -1       303 3.73745E+01 1.98389E+01 0.00000E+00
 -1       304 3.62327E+01 2.12775E+01 0.00000E+00
 -1       305 3.57344E+01 2.30578E+01 0.00000E+00
 -1       306 3.54035E+01 2.48125E+01 0.00000E+00
 -1       307 3.52491E+01 2.67831E+01 0.00000E+00
 -1       308 3.62029E+01 2.84371E+01 0.00000E+00
 -1       309 3.70372E+01 2.98696E+01 0.00000E+00
 -1       310 3.81764E+01 3.11348E+01 0.00000E+00
 -1       311 3.95159E+01 3.22153E+01 0.00000E+00
 -1       312 4.10595E+01 3.28249E+01 0.00000E+00
 -1       313 4.26429E+01 3.31827E+01 0.00000E+00
 -1       314 4.42541E+01 3.32263E+01 0.00000E+00
 -1       315 4.58392E+01 3.29484E+01 0.00000E+00
 -1       316 4.74849E+01 3.24774E+01 0.00000E+00
 -1       317 4.87896E+01 3.14367E+01 0.00000E+00
 -1       318 4.99999E+01 3.03557E+01 0.00000E+00
 -1       319 5.08531E+01 2.89509E+01 0.00000E+00
 -1       320 5.15589E+01 2.74631E+01 0.00000E+00
 -1       321 5.17971E+01 2.58506E+01 0.00000E+00
 -1       322 5.19600E+00 4.11500E+01 0.00000E+00
 -1       323 5.19600E+00 4.41000E+01 0.00000E+00
 -1       324 5.19600E+00 3.52750E+01 0.00000E+00
 -1       325 5.19600E+00 3.23250E+01 0.00000E+00
 -1       326 5.19600E+00 2.93750E+01 0.00000E+00
 -1       327 5.19600E+00 2.64250E+01 0.00000E+00
 -1       328 5.19600E+00 2.34750E+01 0.00000E+00
 -1       329 5.19600E+00 2.05250E+01 0.00000E+00
 -1       330 5.19600E+00 1.76250E+01 0.00000E+00
 -1       331 5.19600E+00 1.46750E+01 0.00000E+00
 -1       332 5.19600E+00 1.17250E+01 0.00000E+00
 -1       333 5.19600E+00 8.77500E+00 0.00000E+00
 -1       334 5.19600E+00 5.82500E+00 0.00000E+00
 -1       335 5.53500E+00 4.00625E+00 0.00000E+00
 -1       336 8.53500E+00 4.00625E+00 0.00000E+00
 -1       337 9.15000E+00 4.48040E+01 0.00000E+00
 -1       338 1.21500E+01 4.48040E+01 0.00000E+00
 -1       339 1.51500E+01 4.48040E+01 0.00000E+00
 -1       340 1.81500E+01 4.48040E+01 0.00000E+00
 -1       341 2.11500E+01 4.48040E+01 0.00000E+00
 -1       342 2.41500E+01 4.48040E+01 0.00000E+00
 -1       343 2.71500E+01 4.48040E+01 0.00000E+00
 -1       344 3.01500E+01 4.48040E+01 0.00000E+00
 -1       345 3.31500E+01 4.48040E+01 0.00000E+00
 -1       346 3.61500E+01 4.48040E+01 0.00000E+00
 -1       347 3.91500E+01 4.48040E+01 0.00000E+00
 -1       348 4.21500E+01 4.48040E+01 0.00000E+00
 -1       349 4.51500E+01 4.48040E+01 0.00000E+00
 -1       350 4.81500E+01 4.48040E+01 0.00000E+00
 -1       351 5.11500E+01 4.48040E+01 0.00000E+00
 -1       352 5.41500E+01 4.48040E+01 0.00000E+00
 -1       353 5.71500E+01 4.48040E+01 0.00000E+00
 -1       354 6.01500E+01 4.48040E+01 0.00000E+00
 -1       355 6.31500E+01 4.48040E+01 0.00000E+00
 -1       356 6.61500E+01 4.48040E+01 0.00000E+00
 -1       357 6.91500E+01 4.48040E+01 0.00000E+00
 -1       358 7.21500E+01 4.48040E+01 0.00000E+00
 -1       359 7.51500E+01 4.48040E+01 0.00000E+00
 -1       360 7.81500E+01 4.48040E+01 0.00000E+00
 -1       361 8.11500E+01 4.48040E+01 0.00000E+00
 -1       362 8.41500E+01 4.48040E+01 0.00000E+00
 -1       363 8.71500E+01 4.48040E+01 0.00000E+00
 -1       364 9.01500E+01 4.48040E+01 0.00000E+00
 -1       365 9.31500E+01 4.48040E+01 0.00000E+00
 -1       366 9.61500E+01 4.48040E+01 0.00000E+00
 -1       367 9.91500E+01 4.48040E+01 0.00000E+00
 -1       368 1.02150E+02 4.48040E+01 0.00000E+00
 -1       369 1.05150E+02 4.48040E+01 0.00000E+00
 -1       370 1.08150E+02 4.48040E+01 0.00000E+00
 -1       371 1.11150E+02 4.48040E+01 0.00000E+00
 -1       372 1.14150E+02 4.48040E+01 0.00000E+00
 -1       373 1.17150E+02 4.48040E+01 0.00000E+00
 -1       374 1.20150E+02 4.48040E+01 0.00000E+00
 -1       375 1.23150E+02 4.48040E+01 0.00000E+00
 -1       376 1.26150E+02 4.48040E+01 0.00000E+00
 -1       377 1.29150E+02 4.48040E+01 0.00000E+00
 -1       378 1.32150E+02 4.48040E+01 0.00000E+00
 -1       379 1.35150E+02 4.48040E+01 0.00000E+00
 -1       380 1.38150E+02 4.48040E+01 0.00000E+00
 -1       381 1.41150E+02 4.48040E+01 0.00000E+00
 -1       382 1.43838E+02 4.49212E+01 0.00000E+00
 -1       383 1.15350E+01 4.00625E+00 0.00000E+00
 -1       384 1.45350E+01 4.00625E+00 0.00000E+00
 -1       385 1.75350E+01 4.00625E+00 0.00000E+00
 -1       386 2.05350E+01 4.00625E+00 0.00000E+00
 -1       387 2.35350E+01 4.00625E+00 0.00000E+00
 -1       388 2.65350E+01 4.00625E+00 0.00000E+00
 -1       389 2.95350E+01 4.00625E+00 0.00000E+00
 -1       390 3.25350E+01 4.00625E+00 0.00000E+00
 -1       391 3.55350E+01 4.00625E+00 0.00000E+00
 -1       392 3.85350E+01 4.00625E+00 0.00000E+00
 -1       393 4.15350E+01 4.00625E+00 0.00000E+00
 -1       394 4.45350E+01 4.00625E+00 0.00000E+00
 -1       395 4.75350E+01 4.00625E+00 0.00000E+00
 -1       396 5.05350E+01 4.00625E+00 0.00000E+00
 -1       397 5.35350E+01 4.00625E+00 0.00000E+00
 -1       398 5.65350E+01 4.00625E+00 0.00000E+00
 -1       399 5.95350E+01 4.00625E+00 0.00000E+00
 -1       400 6.25350E+01 4.00625E+00 0.00000E+00
 -1       401 6.55350E+01 4.00625E+00 0.00000E+00
 -1       402 6.85350E+01 4.00625E+00 0.00000E+00
 -1       403 7.15350E+01 4.00625E+00 0.00000E+00
 -1       404 7.45350E+01 4.00625E+00 0.00000E+00
 -1       405 7.75350E+01 4.00625E+00 0.00000E+00
 -1       406 8.05350E+01 4.00625E+00 0.00000E+00
 -1       407 8.35350E+01 4.00625E+00 0.00000E+00
 -1       408 8.65350E+01 4.00625E+00 0.00000E+00
 -1       409 8.95350E+01 4.00625E+00 0.00000E+00
 -1       410 9.25350E+01 4.00625E+00 0.00000E+00
 -1       411 9.55350E+01 4.00625E+00 0.00000E+00
 -1       412 9.85350E+01 4.00625E+00 0.00000E+00
 -1       413 1.01535E+02 4.00625E+00 0.00000E+00
 -1       414 1.04535E+02 4.00625E+00 0.00000E+00
 -1       415 1.07535E+02 4.00625E+00 0.00000E+00
 -1       416 1.10535E+02 4.00625E+00 0.00000E+00
 -1       417 1.13535E+02 4.00625E+00 0.00000E+00
 -1       418 1.16535E+02 4.00625E+00 0.00000E+00
 -1       419 1.19535E+02 4.00625E+00 0.00000E+00
 -1       420 1.22535E+02 4.00625E+00 0.00000E+00
 -1       421 1.25535E+02 4.00625E+00 0.00000E+00
 -1       422 1.28535E+02 4.00625E+00 0.00000E+00
 -1       423 1.31535E+02 4.00625E+00 0.00000E+00
 -1       424 1.34535E+02 4.00625E+00 0.00000E+00
 -1       425 1.37535E+02 4.00625E+00 0.00000E+00
 -1       426 1.40535E+02 4.00625E+00 0.00000E+00
 -1       427 1.43535E+02 4.00625E+00 0.00000E+00
 -1       428 1.45469E+02 4.21562E+00 0.00000E+00
 -1       429 1.44804E+02 1.18000E+01 0.00000E+00
 -1       430 1.44804E+02 8.85000E+00 0.00000E+00
 -1       431 1.45136E+02 6.53281E+00 0.00000E+00
 -1       432 1.44804E+02 1.47000E+01 0.00000E+00
 -1       433 1.44804E+02 1.76500E+01 0.00000E+00
 -1       434 1.44804E+02 2.06000E+01 0.00000E+00
 -1       435 1.44804E+02 2.35500E+01 0.00000E+00
 -1       436 1.44804E+02 2.65000E+01 0.00000E+00
 -1       437 1.44804E+02 2.94500E+01 0.00000E+00
 -1       438 1.44804E+02 3.23500E+01 0.00000E+00
 -1       439 1.44804E+02 3.53000E+01 0.00000E+00
 -1       440 1.44804E+02 3.82500E+01 0.00000E+00
 -1       441 1.44804E+02 4.12000E+01 0.00000E+00
 -1       442 5.23669E+01 2.09807E+01 0.00000E+00
 -1       443 5.32102E+01 2.50824E+01 0.00000E+00
 -1       444 5.31558E+01 2.30648E+01 0.00000E+00
 -1       445 5.12825E+01 1.91912E+01 0.00000E+00
 -1       446 4.98566E+01 1.79194E+01 0.00000E+00
 -1       447 5.19600E+00 3.82125E+01 0.00000E+00
 -1       448 4.64075E+01 1.57927E+01 0.00000E+00
 -1       449 4.43936E+01 1.55906E+01 0.00000E+00
 -1       450 4.23605E+01 1.51922E+01 0.00000E+00
 -1       451 4.00761E+01 1.58206E+01 0.00000E+00
 -1       452 3.86623E+01 1.67156E+01 0.00000E+00
 -1       453 3.70170E+01 1.82578E+01 0.00000E+00
 -1       454 3.57227E+01 1.97003E+01 0.00000E+00
 -1       455 3.43319E+01 2.17054E+01 0.00000E+00
 -1       456 3.42952E+01 2.36950E+01 0.00000E+00
 -1       457 3.38670E+01 2.56835E+01 0.00000E+00
 -1       458 3.45305E+01 2.82995E+01 0.00000E+00
 -1       459 3.53648E+01 2.97319E+01 0.00000E+00
 -1       460 3.63322E+01 3.16499E+01 0.00000E+00
 -1       461 3.79272E+01 3.28143E+01 0.00000E+00
 -1       462 3.97193E+01 3.39595E+01 0.00000E+00
 -1       463 4.15470E+01 3.43498E+01 0.00000E+00
 -1       464 4.34134E+01 3.45002E+01 0.00000E+00
 -1       465 4.53284E+01 3.46942E+01 0.00000E+00
 -1       466 4.69741E+01 3.42232E+01 0.00000E+00
 -1       467 4.91022E+01 3.31668E+01 0.00000E+00
 -1       468 5.02023E+01 3.18005E+01 0.00000E+00
 -1       469 5.16060E+01 3.03696E+01 0.00000E+00
 -1       470 5.23771E+01 2.87625E+01 0.00000E+00
 -1       471 5.29719E+01 2.66949E+01 0.00000E+00
 -1       472 4.84012E+01 1.63493E+01 0.00000E+00
 -1       473 3.31484E+01 2.71998E+01 0.00000E+00
 -1       474 1.00350E+01 6.60425E+00 0.00000E+00
 -1       475 7.79400E+00 3.08500E+01 0.00000E+00
 -1       476 7.79400E+00 3.38000E+01 0.00000E+00
 -1       477 7.79400E+00 2.49500E+01 0.00000E+00
 -1       478 7.79400E+00 2.20000E+01 0.00000E+00
 -1       479 7.79400E+00 1.91000E+01 0.00000E+00
 -1       480 7.79400E+00 1.61500E+01 0.00000E+00
 -1       481 7.79400E+00 1.32000E+01 0.00000E+00
 -1       482 7.79400E+00 1.02500E+01 0.00000E+00
 -1       483 1.30350E+01 6.60425E+00 0.00000E+00
 -1       484 1.06500E+01 4.22060E+01 0.00000E+00
 -1       485 5.03867E+01 1.59684E+01 0.00000E+00
 -1       486 1.36500E+01 4.22060E+01 0.00000E+00
 -1       487 1.66500E+01 4.22060E+01 0.00000E+00
 -1       488 1.96500E+01 4.22060E+01 0.00000E+00
 -1       489 2.26500E+01 4.22060E+01 0.00000E+00
 -1       490 2.56500E+01 4.22060E+01 0.00000E+00
 -1       491 2.86500E+01 4.22060E+01 0.00000E+00
 -1       492 3.16500E+01 4.22060E+01 0.00000E+00
 -1       493 3.46500E+01 4.22060E+01 0.00000E+00
 -1       494 3.76500E+01 4.22060E+01 0.00000E+00
 -1       495 4.06500E+01 4.22060E+01 0.00000E+00
 -1       496 4.36500E+01 4.22060E+01 0.00000E+00
 -1       497 4.66500E+01 4.22060E+01 0.00000E+00
 -1       498 4.96500E+01 4.22060E+01 0.00000E+00
 -1       499 5.26500E+01 4.22060E+01 0.00000E+00
 -1       500 5.56500E+01 4.22060E+01 0.00000E+00
 -1       501 5.86500E+01 4.22060E+01 0.00000E+00
 -1       502 6.16500E+01 4.22060E+01 0.00000E+00
 -1       503 6.46500E+01 4.22060E+01 0.00000E+00
 -1       504 6.76500E+01 4.22060E+01 0.00000E+00
 -1       505 7.06500E+01 4.22060E+01 0.00000E+00
 -1       506 7.36500E+01 4.22060E+01 0.00000E+00
 -1       507 7.66500E+01 4.22060E+01 0.00000E+00
 -1       508 7.96500E+01 4.22060E+01 0.00000E+00
 -1       509 8.26500E+01 4.22060E+01 0.00000E+00
 -1       510 8.56500E+01 4.22060E+01 0.00000E+00
 -1       511 8.86500E+01 4.22060E+01 0.00000E+00
 -1       512 9.16500E+01 4.22060E+01 0.00000E+00
 -1       513 9.46500E+01 4.22060E+01 0.00000E+00
 -1       514 9.76500E+01 4.22060E+01 0.00000E+00
 -1       515 1.00650E+02 4.22060E+01 0.00000E+00
 -1       516 1.03650E+02 4.22060E+01 0.00000E+00
 -1       517 1.06650E+02 4.22060E+01 0.00000E+00
 -1       518 1.09650E+02 4.22060E+01 0.00000E+00
 -1       519 1.12650E+02 4.22060E+01 0.00000E+00
 -1       520 1.15650E+02 4.22060E+01 0.00000E+00
 -1       521 1.18650E+02 4.22060E+01 0.00000E+00
 -1       522 1.21650E+02 4.22060E+01 0.00000E+00
 -1       523 1.24650E+02 4.22060E+01 0.00000E+00
 -1       524 1.27650E+02 4.22060E+01 0.00000E+00
 -1       525 1.30650E+02 4.22060E+01 0.00000E+00
 -1       526 1.33650E+02 4.22060E+01 0.00000E+00
 -1       527 1.36650E+02 4.22060E+01 0.00000E+00
 -1       528 1.39650E+02 4.22060E+01 0.00000E+00
 -1       529 1.90350E+01 6.60425E+00 0.00000E+00
 -1       530 2.20350E+01 6.60425E+00 0.00000E+00
 -1       531 2.50350E+01 6.60425E+00 0.00000E+00
 -1       532 2.80350E+01 6.60425E+00 0.00000E+00
 -1       533 3.10350E+01 6.60425E+00 0.00000E+00
 -1       534 3.40350E+01 6.60425E+00 0.00000E+00
 -1       535 3.70350E+01 6.60425E+00 0.00000E+00
 -1       536 4.00350E+01 6.60425E+00 0.00000E+00
 -1       537 4.30350E+01 6.60425E+00 0.00000E+00
 -1       538 4.60350E+01 6.60425E+00 0.00000E+00
 -1       539 4.90350E+01 6.60425E+00 0.00000E+00
 -1       540 5.20350E+01 6.60425E+00 0.00000E+00
 -1       541 5.50350E+01 6.60425E+00 0.00000E+00
 -1       542 5.80350E+01 6.60425E+00 0.00000E+00
 -1       543 6.10350E+01 6.60425E+00 0.00000E+00
 -1       544 6.40350E+01 6.60425E+00 0.00000E+00
 -1       545 6.70350E+01 6.60425E+00 0.00000E+00
 -1       546 7.00350E+01 6.60425E+00 0.00000E+00
 -1       547 7.30350E+01 6.60425E+00 0.00000E+00
 -1       548 7.60350E+01 6.60425E+00 0.00000E+00
 -1       549 7.90350E+01 6.60425E+00 0.00000E+00
 -1       550 8.20350E+01 6.60425E+00 0.00000E+00
 -1       551 8.50350E+01 6.60425E+00 0.00000E+00
 -1       552 8.80350E+01 6.60425E+00 0.00000E+00
 -1       553 9.10350E+01 6.60425E+00 0.00000E+00
 -1       554 9.40350E+01 6.60425E+00 0.00000E+00
 -1       555 9.70350E+01 6.60425E+00 0.00000E+00
 -1       556 1.00035E+02 6.60425E+00 0.00000E+00
 -1       557 1.03035E+02 6.60425E+00 0.00000E+00
 -1       558 1.06035E+02 6.60425E+00 0.00000E+00
 -1       559 1.09035E+02 6.60425E+00 0.00000E+00
 -1       560 1.12035E+02 6.60425E+00 0.00000E+00
 -1       561 1.15035E+02 6.60425E+00 0.00000E+00
 -1       562 1.18035E+02 6.60425E+00 0.00000E+00
 -1       563 1.21035E+02 6.60425E+00 0.00000E+00
 -1       564 1.24035E+02 6.60425E+00 0.00000E+00
 -1       565 1.27035E+02 6.60425E+00 0.00000E+00
 -1       566 1.30035E+02 6.60425E+00 0.00000E+00
 -1       567 1.33035E+02 6.60425E+00 0.00000E+00
 -1       568 1.36035E+02 6.60425E+00 0.00000E+00
 -1       569 1.39035E+02 6.60425E+00 0.00000E+00
 -1       570 1.42035E+02 6.60425E+00 0.00000E+00
 -1       571 1.42206E+02 1.61750E+01 0.00000E+00
 -1       572 1.42206E+02 1.91250E+01 0.00000E+00
 -1       573 1.42206E+02 1.03250E+01 0.00000E+00
 -1       574 1.42206E+02 1.32500E+01 0.00000E+00
 -1       575 1.42206E+02 2.20750E+01 0.00000E+00
 -1       576 1.42206E+02 2.50250E+01 0.00000E+00
 -1       577 1.42206E+02 2.79750E+01 0.00000E+00
 -1       578 1.42206E+02 3.08750E+01 0.00000E+00
 -1       579 1.42206E+02 3.38250E+01 0.00000E+00
 -1       580 1.42206E+02 3.67750E+01 0.00000E+00
 -1       581 1.42206E+02 3.97250E+01 0.00000E+00
 -1       582 5.47300E+01 2.40318E+01 0.00000E+00
 -1       583 5.32198E+01 1.92405E+01 0.00000E+00
 -1       584 1.60350E+01 6.60425E+00 0.00000E+00
 -1       585 4.78430E+01 1.44998E+01 0.00000E+00
 -1       586 5.41617E+01 2.81566E+01 0.00000E+00
 -1       587 5.42086E+01 2.14749E+01 0.00000E+00
 -1       588 5.44562E+01 2.60904E+01 0.00000E+00
 -1       589 4.42319E+01 3.59702E+01 0.00000E+00
 -1       590 4.07856E+01 1.39335E+01 0.00000E+00
 -1       591 7.79400E+00 2.79000E+01 0.00000E+00
 -1       592 4.36746E+01 1.38727E+01 0.00000E+00
 -1       593 3.52180E+01 1.79456E+01 0.00000E+00
 -1       594 4.56885E+01 1.40748E+01 0.00000E+00
 -1       595 3.82726E+01 1.45357E+01 0.00000E+00
 -1       596 3.60195E+01 3.37526E+01 0.00000E+00
 -1       597 3.66274E+01 1.60780E+01 0.00000E+00
 -1       598 3.38246E+01 1.98686E+01 0.00000E+00
 -1       599 3.28501E+01 2.26732E+01 0.00000E+00
 -1       600 3.24219E+01 2.46618E+01 0.00000E+00
 -1       601 3.31760E+01 3.00476E+01 0.00000E+00
 -1       602 5.09882E+01 3.35592E+01 0.00000E+00
 -1       603 3.41434E+01 3.19655E+01 0.00000E+00
 -1       604 3.78117E+01 3.48978E+01 0.00000E+00
 -1       605 4.02399E+01 3.59958E+01 0.00000E+00
 -1       606 4.23627E+01 3.58841E+01 0.00000E+00
 -1       607 4.65770E+01 3.59465E+01 0.00000E+00
 -1       608 4.88007E+01 3.52313E+01 0.00000E+00
 -1       609 5.23919E+01 3.21284E+01 0.00000E+00
 -1       610 5.35379E+01 3.03080E+01 0.00000E+00
 -1       611 7.92300E+00 4.16780E+01 0.00000E+00
 -1       612 7.61550E+00 6.21462E+00 0.00000E+00
 -1       613 5.18126E+01 1.72402E+01 0.00000E+00
 -1       614 7.79400E+00 3.67375E+01 0.00000E+00
 -1       615 1.41678E+02 4.22645E+01 0.00000E+00
 -1       616 3.17033E+01 2.61781E+01 0.00000E+00
 -1       617 3.17939E+01 2.89479E+01 0.00000E+00
 -1       618 4.20998E+01 1.26140E+01 0.00000E+00
 -1       619 4.98286E+01 1.41188E+01 0.00000E+00
 -1       620 3.23427E+01 2.08364E+01 0.00000E+00
 -1       621 1.03920E+01 2.05500E+01 0.00000E+00
 -1       622 1.03920E+01 2.35000E+01 0.00000E+00
 -1       623 1.03920E+01 1.46750E+01 0.00000E+00
 -1       624 1.03920E+01 1.17250E+01 0.00000E+00
 -1       625 1.15350E+01 9.20225E+00 0.00000E+00
 -1       626 4.70976E+01 1.26046E+01 0.00000E+00
 -1       627 5.21855E+01 1.53869E+01 0.00000E+00
 -1       628 3.90122E+01 1.20779E+01 0.00000E+00
 -1       629 1.51500E+01 3.96080E+01 0.00000E+00
 -1       630 1.81500E+01 3.96080E+01 0.00000E+00
 -1       631 2.11500E+01 3.96080E+01 0.00000E+00
 -1       632 2.41500E+01 3.96080E+01 0.00000E+00
 -1       633 2.71500E+01 3.96080E+01 0.00000E+00
 -1       634 3.01500E+01 3.96080E+01 0.00000E+00
 -1       635 3.31500E+01 3.96080E+01 0.00000E+00
 -1       636 3.61500E+01 3.96080E+01 0.00000E+00
 -1       637 3.91500E+01 3.96080E+01 0.00000E+00
 -1       638 4.21500E+01 3.96080E+01 0.00000E+00
 -1       639 4.51500E+01 3.96080E+01 0.00000E+00
 -1       640 4.81500E+01 3.96080E+01 0.00000E+00
 -1       641 5.11500E+01 3.96080E+01 0.00000E+00
 -1       642 5.41500E+01 3.96080E+01 0.00000E+00
 -1       643 5.71500E+01 3.96080E+01 0.00000E+00
 -1       644 6.01500E+01 3.96080E+01 0.00000E+00
 -1       645 6.31500E+01 3.96080E+01 0.00000E+00
 -1       646 6.61500E+01 3.96080E+01 0.00000E+00
 -1       647 6.91500E+01 3.96080E+01 0.00000E+00
 -1       648 7.21500E+01 3.96080E+01 0.00000E+00
 -1       649 7.51500E+01 3.96080E+01 0.00000E+00
 -1       650 7.81500E+01 3.96080E+01 0.00000E+00
 -1       651 8.11500E+01 3.96080E+01 0.00000E+00
 -1       652 8.41500E+01 3.96080E+01 0.00000E+00
 -1       653 8.71500E+01 3.96080E+01 0.00000E+00
 -1       654 9.01500E+01 3.96080E+01 0.00000E+00
 -1       655 9.31500E+01 3.96080E+01 0.00000E+00
 -1       656 9.61500E+01 3.96080E+01 0.00000E+00
 -1       657 9.91500E+01 3.96080E+01 0.00000E+00
 -1       658 1.02150E+02 3.96080E+01 0.00000E+00
 -1       659 1.05150E+02 3.96080E+01 0.00000E+00
 -1       660 1.08150E+02 3.96080E+01 0.00000E+00
 -1       661 1.11150E+02 3.96080E+01 0.00000E+00
 -1       662 1.14150E+02 3.96080E+01 0.00000E+00
 -1       663 1.17150E+02 3.96080E+01 0.00000E+00
 -1       664 1.20150E+02 3.96080E+01 0.00000E+00
 -1       665 1.23150E+02 3.96080E+01 0.00000E+00
 -1       666 1.26150E+02 3.96080E+01 0.00000E+00
 -1       667 1.29150E+02 3.96080E+01 0.00000E+00
 -1       668 1.32150E+02 3.96080E+01 0.00000E+00
 -1       669 1.35150E+02 3.96080E+01 0.00000E+00
 -1       670 1.38150E+02 3.96080E+01 0.00000E+00
 -1       671 2.35350E+01 9.20225E+00 0.00000E+00
 -1       672 5.59240E+01 2.73537E+01 0.00000E+00
 -1       673 2.05350E+01 9.20225E+00 0.00000E+00
 -1       674 2.95350E+01 9.20225E+00 0.00000E+00
 -1       675 3.25350E+01 9.20225E+00 0.00000E+00
 -1       676 3.55350E+01 9.20225E+00 0.00000E+00
 -1       677 3.85350E+01 9.20225E+00 0.00000E+00
 -1       678 4.15350E+01 9.20225E+00 0.00000E+00
 -1       679 4.45350E+01 9.20225E+00 0.00000E+00
 -1       680 4.75350E+01 9.20225E+00 0.00000E+00
 -1       681 5.05350E+01 9.20225E+00 0.00000E+00
 -1       682 5.35350E+01 9.20225E+00 0.00000E+00
 -1       683 5.65350E+01 9.20225E+00 0.00000E+00
 -1       684 5.95350E+01 9.20225E+00 0.00000E+00
 -1       685 6.25350E+01 9.20225E+00 0.00000E+00
 -1       686 6.55350E+01 9.20225E+00 0.00000E+00
 -1       687 6.85350E+01 9.20225E+00 0.00000E+00
 -1       688 7.15350E+01 9.20225E+00 0.00000E+00
 -1       689 7.45350E+01 9.20225E+00 0.00000E+00
 -1       690 7.75350E+01 9.20225E+00 0.00000E+00
 -1       691 8.05350E+01 9.20225E+00 0.00000E+00
 -1       692 8.35350E+01 9.20225E+00 0.00000E+00
 -1       693 8.65350E+01 9.20225E+00 0.00000E+00
 -1       694 8.95350E+01 9.20225E+00 0.00000E+00
 -1       695 9.25350E+01 9.20225E+00 0.00000E+00
 -1       696 9.55350E+01 9.20225E+00 0.00000E+00
 -1       697 9.85350E+01 9.20225E+00 0.00000E+00
 -1       698 1.01535E+02 9.20225E+00 0.00000E+00
 -1       699 1.04535E+02 9.20225E+00 0.00000E+00
 -1       700 1.07535E+02 9.20225E+00 0.00000E+00
 -1       701 1.10535E+02 9.20225E+00 0.00000E+00
 -1       702 1.13535E+02 9.20225E+00 0.00000E+00
 -1       703 1.16535E+02 9.20225E+00 0.00000E+00
 -1       704 1.19535E+02 9.20225E+00 0.00000E+00
 -1       705 1.22535E+02 9.20225E+00 0.00000E+00
 -1       706 1.25535E+02 9.20225E+00 0.00000E+00
 -1       707 1.28535E+02 9.20225E+00 0.00000E+00
 -1       708 1.31535E+02 9.20225E+00 0.00000E+00
 -1       709 1.34535E+02 9.20225E+00 0.00000E+00
 -1       710 1.37535E+02 9.20225E+00 0.00000E+00
 -1       711 1.39870E+02 9.76363E+00 0.00000E+00
 -1       712 5.39190E+01 1.72535E+01 0.00000E+00
 -1       713 1.39608E+02 2.35500E+01 0.00000E+00
 -1       714 1.40178E+02 3.96665E+01 0.00000E+00
 -1       715 1.39608E+02 1.76500E+01 0.00000E+00
 -1       716 1.39608E+02 2.65000E+01 0.00000E+00
 -1       717 1.39608E+02 2.06000E+01 0.00000E+00
 -1       718 1.39608E+02 2.94000E+01 0.00000E+00
 -1       719 1.39608E+02 3.23500E+01 0.00000E+00
 -1       720 1.39608E+02 3.53000E+01 0.00000E+00
 -1       721 5.12413E+01 3.61573E+01 0.00000E+00
 -1       722 5.51294E+01 1.97314E+01 0.00000E+00
 -1       723 5.61977E+01 2.52951E+01 0.00000E+00
 -1       724 4.48695E+01 1.21005E+01 0.00000E+00
 -1       725 3.44199E+01 1.58777E+01 0.00000E+00
 -1       726 5.64782E+01 2.23438E+01 0.00000E+00
 -1       727 3.36674E+01 3.43436E+01 0.00000E+00
 -1       728 1.75350E+01 9.20225E+00 0.00000E+00
 -1       729 2.65350E+01 9.20225E+00 0.00000E+00
 -1       730 1.21500E+01 3.96080E+01 0.00000E+00
 -1       731 1.45350E+01 9.20225E+00 0.00000E+00
 -1       732 5.44164E+01 3.21319E+01 0.00000E+00
 -1       733 1.03920E+01 1.76125E+01 0.00000E+00
 -1       734 3.82501E+01 3.71622E+01 0.00000E+00
 -1       735 1.03920E+01 3.23250E+01 0.00000E+00
 -1       736 3.61624E+01 1.39333E+01 0.00000E+00
 -1       737 4.14090E+01 3.79874E+01 0.00000E+00
 -1       738 3.11231E+01 2.33417E+01 0.00000E+00
 -1       739 3.58116E+01 3.60528E+01 0.00000E+00
 -1       740 5.58190E+01 2.98032E+01 0.00000E+00
 -1       741 4.54218E+01 3.76734E+01 0.00000E+00
 -1       742 3.19788E+01 3.18544E+01 0.00000E+00
 -1       743 3.30264E+01 1.78007E+01 0.00000E+00
 -1       744 4.34154E+01 3.78304E+01 0.00000E+00
 -1       745 5.30340E+01 3.41622E+01 0.00000E+00
 -1       746 4.83167E+01 3.75407E+01 0.00000E+00
 -1       747 1.03920E+01 3.52625E+01 0.00000E+00
 -1       748 1.03920E+01 2.64500E+01 0.00000E+00
 -1       749 4.90832E+01 1.22237E+01 0.00000E+00
 -1       750 3.15446E+01 1.87686E+01 0.00000E+00
 -1       751 1.39608E+02 1.47250E+01 0.00000E+00
 -1       752 1.39739E+02 1.22443E+01 0.00000E+00
 -1       753 3.04045E+01 2.48580E+01 0.00000E+00
 -1       754 3.05967E+01 3.07548E+01 0.00000E+00
 -1       755 1.05210E+01 3.87342E+01 0.00000E+00
 -1       756 1.03920E+01 2.93875E+01 0.00000E+00
 -1       757 3.06157E+01 2.15049E+01 0.00000E+00
 -1       758 1.38879E+02 3.74540E+01 0.00000E+00
 -1       759 3.64687E+01 1.12874E+01 0.00000E+00
 -1       760 1.29900E+01 1.32000E+01 0.00000E+00
 -1       761 1.36500E+01 3.70100E+01 0.00000E+00
 -1       762 1.96500E+01 3.70100E+01 0.00000E+00
 -1       763 2.26500E+01 3.70100E+01 0.00000E+00
 -1       764 2.56500E+01 3.70100E+01 0.00000E+00
 -1       765 2.86500E+01 3.70100E+01 0.00000E+00
 -1       766 3.16500E+01 3.70100E+01 0.00000E+00
 -1       767 5.26500E+01 3.70100E+01 0.00000E+00
 -1       768 5.56500E+01 3.70100E+01 0.00000E+00
 -1       769 5.86500E+01 3.70100E+01 0.00000E+00
 -1       770 6.16500E+01 3.70100E+01 0.00000E+00
 -1       771 6.46500E+01 3.70100E+01 0.00000E+00
 -1       772 6.76500E+01 3.70100E+01 0.00000E+00
 -1       773 7.06500E+01 3.70100E+01 0.00000E+00
 -1       774 7.36500E+01 3.70100E+01 0.00000E+00
 -1       775 7.66500E+01 3.70100E+01 0.00000E+00
 -1       776 7.96500E+01 3.70100E+01 0.00000E+00
 -1       777 8.26500E+01 3.70100E+01 0.00000E+00
 -1       778 8.56500E+01 3.70100E+01 0.00000E+00
 -1       779 8.86500E+01 3.70100E+01 0.00000E+00
 -1       780 9.16500E+01 3.70100E+01 0.00000E+00
 -1       781 9.46500E+01 3.70100E+01 0.00000E+00
 -1       782 9.76500E+01 3.70100E+01 0.00000E+00
 -1       783 1.00650E+02 3.70100E+01 0.00000E+00
 -1       784 1.03650E+02 3.70100E+01 0.00000E+00
 -1       785 1.06650E+02 3.70100E+01 0.00000E+00
 -1       786 1.09650E+02 3.70100E+01 0.00000E+00
 -1       787 1.12650E+02 3.70100E+01 0.00000E+00
 -1       788 1.15650E+02 3.70100E+01 0.00000E+00
 -1       789 1.18650E+02 3.70100E+01 0.00000E+00
 -1       790 1.21650E+02 3.70100E+01 0.00000E+00
 -1       791 1.24650E+02 3.70100E+01 0.00000E+00
 -1       792 1.27650E+02 3.70100E+01 0.00000E+00
 -1       793 1.30650E+02 3.70100E+01 0.00000E+00
 -1       794 1.33650E+02 3.70100E+01 0.00000E+00
 -1       795 1.36264E+02 3.72320E+01 0.00000E+00
 -1       796 3.10350E+01 1.18003E+01 0.00000E+00
 -1       797 5.50350E+01 1.17552E+01 0.00000E+00
 -1       798 5.80350E+01 1.17552E+01 0.00000E+00
 -1       799 6.10350E+01 1.17552E+01 0.00000E+00
 -1       800 6.40350E+01 1.17552E+01 0.00000E+00
 -1       801 6.70350E+01 1.17552E+01 0.00000E+00
 -1       802 7.00350E+01 1.17552E+01 0.00000E+00
 -1       803 7.30350E+01 1.17552E+01 0.00000E+00
 -1       804 7.60350E+01 1.17552E+01 0.00000E+00
 -1       805 7.90350E+01 1.17552E+01 0.00000E+00
 -1       806 8.20350E+01 1.17552E+01 0.00000E+00
 -1       807 8.50350E+01 1.17552E+01 0.00000E+00
 -1       808 8.80350E+01 1.17552E+01 0.00000E+00
 -1       809 9.10350E+01 1.17552E+01 0.00000E+00
 -1       810 9.40350E+01 1.17552E+01 0.00000E+00
 -1       811 9.70350E+01 1.17552E+01 0.00000E+00
 -1       812 1.00035E+02 1.17552E+01 0.00000E+00
 -1       813 1.03035E+02 1.17552E+01 0.00000E+00
 -1       814 1.06035E+02 1.17552E+01 0.00000E+00
 -1       815 1.09035E+02 1.17552E+01 0.00000E+00
 -1       816 1.12035E+02 1.17552E+01 0.00000E+00
 -1       817 1.15035E+02 1.17552E+01 0.00000E+00
 -1       818 1.18035E+02 1.17552E+01 0.00000E+00
 -1       819 1.21035E+02 1.17552E+01 0.00000E+00
 -1       820 1.24035E+02 1.17552E+01 0.00000E+00
 -1       821 1.27035E+02 1.17552E+01 0.00000E+00
 -1       822 1.30035E+02 1.17552E+01 0.00000E+00
 -1       823 1.33035E+02 1.17552E+01 0.00000E+00
 -1       824 1.36035E+02 1.17552E+01 0.00000E+00
 -1       825 1.37887E+02 1.19998E+01 0.00000E+00
 -1       826 1.37010E+02 2.79500E+01 0.00000E+00
 -1       827 5.67304E+01 3.19389E+01 0.00000E+00
 -1       828 1.37010E+02 3.38250E+01 0.00000E+00
 -1       829 1.37010E+02 2.50000E+01 0.00000E+00
 -1       830 1.90350E+01 1.18003E+01 0.00000E+00
 -1       831 2.20350E+01 1.18003E+01 0.00000E+00
 -1       832 1.37010E+02 3.08875E+01 0.00000E+00
 -1       833 5.85458E+01 2.40293E+01 0.00000E+00
 -1       834 5.82721E+01 2.60878E+01 0.00000E+00
 -1       835 1.66500E+01 3.70100E+01 0.00000E+00
 -1       836 5.62158E+01 1.76661E+01 0.00000E+00
 -1       837 5.81671E+01 2.85374E+01 0.00000E+00
 -1       838 5.18196E+01 1.32425E+01 0.00000E+00
 -1       839 5.44318E+01 1.50391E+01 0.00000E+00
 -1       840 5.54199E+01 3.43009E+01 0.00000E+00
 -1       841 5.75646E+01 2.02785E+01 0.00000E+00
 -1       842 3.35147E+01 1.33135E+01 0.00000E+00
 -1       843 2.96994E+01 2.76301E+01 0.00000E+00
 -1       844 1.20210E+01 3.61362E+01 0.00000E+00
 -1       845 3.21213E+01 1.52366E+01 0.00000E+00
 -1       846 3.33571E+01 3.69325E+01 0.00000E+00
 -1       847 3.09877E+01 3.43441E+01 0.00000E+00
 -1       848 1.29900E+01 2.20250E+01 0.00000E+00
 -1       849 1.37625E+01 1.12011E+01 0.00000E+00
 -1       850 1.29900E+01 2.49750E+01 0.00000E+00
 -1       851 1.29900E+01 1.61375E+01 0.00000E+00
 -1       852 1.20210E+01 3.31987E+01 0.00000E+00
 -1       853 1.37010E+02 1.61875E+01 0.00000E+00
 -1       854 2.80350E+01 1.18003E+01 0.00000E+00
 -1       855 1.36637E+02 3.55285E+01 0.00000E+00
 -1       856 2.50350E+01 1.18003E+01 0.00000E+00
 -1       857 3.40350E+01 1.18003E+01 0.00000E+00
 -1       858 5.20350E+01 1.15876E+01 0.00000E+00
 -1       859 1.37010E+02 1.91375E+01 0.00000E+00
 -1       860 5.90785E+01 3.06731E+01 0.00000E+00
 -1       861 1.37010E+02 2.20688E+01 0.00000E+00
 -1       862 3.06394E+01 1.62044E+01 0.00000E+00
 -1       863 1.29900E+01 1.90875E+01 0.00000E+00
 -1       864 2.96056E+01 3.32444E+01 0.00000E+00
 -1       865 5.96323E+01 2.19640E+01 0.00000E+00
 -1       866 2.92139E+01 2.33654E+01 0.00000E+00
 -1       867 1.20210E+01 3.02612E+01 0.00000E+00
 -1       868 1.63988E+01 1.15007E+01 0.00000E+00
 -1       869 1.51500E+01 3.44120E+01 0.00000E+00
 -1       870 2.91387E+01 1.94777E+01 0.00000E+00
 -1       871 2.79026E+01 2.56974E+01 0.00000E+00
 -1       872 2.41500E+01 3.44120E+01 0.00000E+00
 -1       873 2.71500E+01 3.44120E+01 0.00000E+00
 -1       874 2.77369E+01 2.13382E+01 0.00000E+00
 -1       875 6.01500E+01 3.44120E+01 0.00000E+00
 -1       876 6.31500E+01 3.44120E+01 0.00000E+00
 -1       877 6.61500E+01 3.44120E+01 0.00000E+00
 -1       878 6.91500E+01 3.44120E+01 0.00000E+00
 -1       879 7.21500E+01 3.44120E+01 0.00000E+00
 -1       880 7.51500E+01 3.44120E+01 0.00000E+00
 -1       881 7.81500E+01 3.44120E+01 0.00000E+00
 -1       882 8.11500E+01 3.44120E+01 0.00000E+00
 -1       883 8.41500E+01 3.44120E+01 0.00000E+00
 -1       884 8.71500E+01 3.44120E+01 0.00000E+00
 -1       885 9.01500E+01 3.44120E+01 0.00000E+00
 -1       886 9.31500E+01 3.44120E+01 0.00000E+00
 -1       887 9.61500E+01 3.44120E+01 0.00000E+00
 -1       888 9.91500E+01 3.44120E+01 0.00000E+00
 -1       889 1.02150E+02 3.44120E+01 0.00000E+00
 -1       890 1.05150E+02 3.44120E+01 0.00000E+00
 -1       891 1.08150E+02 3.44120E+01 0.00000E+00
 -1       892 1.11150E+02 3.44120E+01 0.00000E+00
 -1       893 1.14150E+02 3.44120E+01 0.00000E+00
 -1       894 1.17150E+02 3.44120E+01 0.00000E+00
 -1       895 1.20150E+02 3.44120E+01 0.00000E+00
 -1       896 1.23150E+02 3.44120E+01 0.00000E+00
 -1       897 1.26150E+02 3.44120E+01 0.00000E+00
 -1       898 1.29150E+02 3.44120E+01 0.00000E+00
 -1       899 1.32150E+02 3.44120E+01 0.00000E+00
 -1       900 1.35855E+01 3.38054E+01 0.00000E+00
 -1       901 2.35350E+01 1.43982E+01 0.00000E+00
 -1       902 5.65350E+01 1.43532E+01 0.00000E+00
 -1       903 6.55350E+01 1.43532E+01 0.00000E+00
 -1       904 6.85350E+01 1.43532E+01 0.00000E+00
 -1       905 7.15350E+01 1.43532E+01 0.00000E+00
 -1       906 7.45350E+01 1.43532E+01 0.00000E+00
 -1       907 7.75350E+01 1.43532E+01 0.00000E+00
 -1       908 8.05350E+01 1.43532E+01 0.00000E+00
 -1       909 8.35350E+01 1.43532E+01 0.00000E+00
 -1       910 8.65350E+01 1.43532E+01 0.00000E+00
 -1       911 8.95350E+01 1.43532E+01 0.00000E+00
 -1       912 9.25350E+01 1.43532E+01 0.00000E+00
 -1       913 9.55350E+01 1.43532E+01 0.00000E+00
 -1       914 9.85350E+01 1.43532E+01 0.00000E+00
 -1       915 1.01535E+02 1.43532E+01 0.00000E+00
 -1       916 1.04535E+02 1.43532E+01 0.00000E+00
 -1       917 1.07535E+02 1.43532E+01 0.00000E+00
 -1       918 1.10535E+02 1.43532E+01 0.00000E+00
 -1       919 1.13535E+02 1.43532E+01 0.00000E+00
 -1       920 1.16535E+02 1.43532E+01 0.00000E+00
 -1       921 1.19535E+02 1.43532E+01 0.00000E+00
 -1       922 1.22535E+02 1.43532E+01 0.00000E+00
 -1       923 1.25535E+02 1.43532E+01 0.00000E+00
 -1       924 1.28535E+02 1.43532E+01 0.00000E+00
 -1       925 1.31535E+02 1.43532E+01 0.00000E+00
 -1       926 1.34535E+02 1.43532E+01 0.00000E+00
 -1       927 1.34412E+02 2.64750E+01 0.00000E+00
 -1       928 1.37449E+02 1.40936E+01 0.00000E+00
 -1       929 1.81500E+01 3.44120E+01 0.00000E+00
 -1       930 2.05350E+01 1.43982E+01 0.00000E+00
 -1       931 6.06074E+01 2.53509E+01 0.00000E+00
 -1       932 6.25350E+01 1.43532E+01 0.00000E+00
 -1       933 5.95350E+01 1.43532E+01 0.00000E+00
 -1       934 6.05024E+01 2.78005E+01 0.00000E+00
 -1       935 5.85631E+01 1.81086E+01 0.00000E+00
 -1       936 5.76902E+01 3.44745E+01 0.00000E+00
 -1       937 2.11500E+01 3.44120E+01 0.00000E+00
 -1       938 2.83385E+01 2.97120E+01 0.00000E+00
 -1       939 1.25055E+01 2.76181E+01 0.00000E+00
 -1       940 1.55880E+01 1.46687E+01 0.00000E+00
 -1       941 1.35855E+01 3.08679E+01 0.00000E+00
 -1       942 2.64255E+01 2.36702E+01 0.00000E+00
 -1       943 2.95350E+01 1.43982E+01 0.00000E+00
 -1       944 1.34412E+02 1.76625E+01 0.00000E+00
 -1       945 1.34394E+02 3.49702E+01 0.00000E+00
 -1       946 1.34412E+02 2.35438E+01 0.00000E+00
 -1       947 1.34412E+02 2.94125E+01 0.00000E+00
 -1       948 6.16939E+01 2.32856E+01 0.00000E+00
 -1       949 6.06307E+01 1.97941E+01 0.00000E+00
 -1       950 1.55880E+01 2.35000E+01 0.00000E+00
 -1       951 2.65416E+01 2.77793E+01 0.00000E+00
 -1       952 1.55880E+01 2.05625E+01 0.00000E+00
 -1       953 1.34580E+02 3.26497E+01 0.00000E+00
 -1       954 1.75351E+01 1.43983E+01 0.00000E+00
 -1       955 2.65350E+01 1.43982E+01 0.00000E+00
 -1       956 2.62442E+01 3.20620E+01 0.00000E+00
 -1       957 6.18262E+01 3.11062E+01 0.00000E+00
 -1       958 2.65327E+01 1.89725E+01 0.00000E+00
 -1       959 1.34412E+02 2.05938E+01 0.00000E+00
 -1       960 1.96500E+01 3.18140E+01 0.00000E+00
 -1       961 6.48262E+01 3.11062E+01 0.00000E+00
 -1       962 6.78262E+01 3.11062E+01 0.00000E+00
 -1       963 7.08262E+01 3.11062E+01 0.00000E+00
 -1       964 7.38262E+01 3.11062E+01 0.00000E+00
 -1       965 7.68262E+01 3.11062E+01 0.00000E+00
 -1       966 7.98262E+01 3.11062E+01 0.00000E+00
 -1       967 8.28262E+01 3.11062E+01 0.00000E+00
 -1       968 8.58262E+01 3.11062E+01 0.00000E+00
 -1       969 8.88262E+01 3.11062E+01 0.00000E+00
 -1       970 9.18262E+01 3.11062E+01 0.00000E+00
 -1       971 9.48262E+01 3.11062E+01 0.00000E+00
 -1       972 9.78262E+01 3.11062E+01 0.00000E+00
 -1       973 1.00826E+02 3.11062E+01 0.00000E+00
 -1       974 1.03826E+02 3.11062E+01 0.00000E+00
 -1       975 1.06826E+02 3.11062E+01 0.00000E+00
 -1       976 1.09826E+02 3.11062E+01 0.00000E+00
 -1       977 1.12826E+02 3.11062E+01 0.00000E+00
 -1       978 1.15826E+02 3.11062E+01 0.00000E+00
 -1       979 1.18826E+02 3.11062E+01 0.00000E+00
 -1       980 1.21826E+02 3.11062E+01 0.00000E+00
 -1       981 1.24826E+02 3.11062E+01 0.00000E+00
 -1       982 1.27826E+02 3.11062E+01 0.00000E+00
 -1       983 1.30826E+02 3.11062E+01 0.00000E+00
 -1       984 7.00350E+01 1.69512E+01 0.00000E+00
 -1       985 6.70350E+01 1.69512E+01 0.00000E+00
 -1       986 7.60350E+01 1.69512E+01 0.00000E+00
 -1       987 7.90350E+01 1.69512E+01 0.00000E+00
 -1       988 8.20350E+01 1.69512E+01 0.00000E+00
 -1       989 8.50350E+01 1.69512E+01 0.00000E+00
 -1       990 8.80350E+01 1.69512E+01 0.00000E+00
 -1       991 9.10350E+01 1.69512E+01 0.00000E+00
 -1       992 9.40350E+01 1.69512E+01 0.00000E+00
 -1       993 9.70350E+01 1.69512E+01 0.00000E+00
 -1       994 1.00035E+02 1.69512E+01 0.00000E+00
 -1       995 1.03035E+02 1.69512E+01 0.00000E+00
 -1       996 1.06035E+02 1.69512E+01 0.00000E+00
 -1       997 1.09035E+02 1.69512E+01 0.00000E+00
 -1       998 1.12035E+02 1.69512E+01 0.00000E+00
 -1       999 1.15035E+02 1.69512E+01 0.00000E+00
 -1      1000 1.18035E+02 1.69512E+01 0.00000E+00
 -1      1001 1.21035E+02 1.69512E+01 0.00000E+00
 -1      1002 1.24035E+02 1.69512E+01 0.00000E+00
 -1      1003 1.27035E+02 1.69512E+01 0.00000E+00
 -1      1004 1.30035E+02 1.69512E+01 0.00000E+00
 -1      1005 1.55880E+01 1.76156E+01 0.00000E+00
 -1      1006 2.76394E+01 1.62044E+01 0.00000E+00
 -1      1007 1.66500E+01 3.18140E+01 0.00000E+00
 -1      1008 6.40350E+01 1.69512E+01 0.00000E+00
 -1      1009 2.20350E+01 1.69963E+01 0.00000E+00
 -1      1010 1.75351E+01 1.73452E+01 0.00000E+00
 -1      1011 1.55717E+01 2.64968E+01 0.00000E+00
 -1      1012 6.27707E+01 2.66707E+01 0.00000E+00
 -1      1013 7.30350E+01 1.69512E+01 0.00000E+00
 -1      1014 6.15829E+01 1.70736E+01 0.00000E+00
 -1      1015 2.26500E+01 3.18140E+01 0.00000E+00
 -1      1016 1.97850E+01 1.71707E+01 0.00000E+00
 -1      1017 2.50646E+01 2.57521E+01 0.00000E+00
 -1      1018 1.30035E+02 1.98825E+01 0.00000E+00
 -1      1019 2.52213E+01 2.13045E+01 0.00000E+00
 -1      1020 1.31814E+02 2.50094E+01 0.00000E+00
 -1      1021 6.38571E+01 2.46054E+01 0.00000E+00
 -1      1022 1.31814E+02 2.79469E+01 0.00000E+00
 -1      1023 6.26923E+01 2.11157E+01 0.00000E+00
 -1      1024 1.51178E+01 3.13409E+01 0.00000E+00
 -1      1025 1.81778E+01 2.50125E+01 0.00000E+00
 -1      1026 1.81778E+01 2.20750E+01 0.00000E+00
 -1      1027 1.45786E+01 2.86823E+01 0.00000E+00
 -1      1028 1.81605E+01 2.80122E+01 0.00000E+00
 -1      1029 8.35350E+01 1.95492E+01 0.00000E+00
 -1      1030 6.93262E+01 2.85082E+01 0.00000E+00
 -1      1031 7.23262E+01 2.85082E+01 0.00000E+00
 -1      1032 7.53262E+01 2.85082E+01 0.00000E+00
 -1      1033 7.83262E+01 2.85082E+01 0.00000E+00
 -1      1034 8.13262E+01 2.85082E+01 0.00000E+00
 -1      1035 8.43262E+01 2.85082E+01 0.00000E+00
 -1      1036 8.73262E+01 2.85082E+01 0.00000E+00
 -1      1037 9.03262E+01 2.85082E+01 0.00000E+00
 -1      1038 9.33262E+01 2.85082E+01 0.00000E+00
 -1      1039 9.63262E+01 2.85082E+01 0.00000E+00
 -1      1040 9.93262E+01 2.85082E+01 0.00000E+00
 -1      1041 1.02326E+02 2.85082E+01 0.00000E+00
 -1      1042 1.05326E+02 2.85082E+01 0.00000E+00
 -1      1043 1.08326E+02 2.85082E+01 0.00000E+00
 -1      1044 1.11326E+02 2.85082E+01 0.00000E+00
 -1      1045 1.14326E+02 2.85082E+01 0.00000E+00
 -1      1046 1.17326E+02 2.85082E+01 0.00000E+00
 -1      1047 1.20326E+02 2.85082E+01 0.00000E+00
 -1      1048 1.23326E+02 2.85082E+01 0.00000E+00
 -1      1049 1.26326E+02 2.85082E+01 0.00000E+00
 -1      1050 6.85350E+01 1.95492E+01 0.00000E+00
 -1      1051 8.05350E+01 1.95492E+01 0.00000E+00
 -1      1052 7.75350E+01 1.95492E+01 0.00000E+00
 -1      1053 8.65350E+01 1.95492E+01 0.00000E+00
 -1      1054 8.95350E+01 1.95492E+01 0.00000E+00
 -1      1055 9.25350E+01 1.95492E+01 0.00000E+00
 -1      1056 9.55350E+01 1.95492E+01 0.00000E+00
 -1      1057 9.85350E+01 1.95492E+01 0.00000E+00
 -1      1058 1.01535E+02 1.95492E+01 0.00000E+00
 -1      1059 1.04535E+02 1.95492E+01 0.00000E+00
 -1      1060 1.07535E+02 1.95492E+01 0.00000E+00
 -1      1061 1.10535E+02 1.95492E+01 0.00000E+00
 -1      1062 1.13535E+02 1.95492E+01 0.00000E+00
 -1      1063 1.16535E+02 1.95492E+01 0.00000E+00
 -1      1064 1.19535E+02 1.95492E+01 0.00000E+00
 -1      1065 1.22535E+02 1.95492E+01 0.00000E+00
 -1      1066 1.25535E+02 1.95492E+01 0.00000E+00
 -1      1067 1.27785E+02 1.97158E+01 0.00000E+00
 -1      1068 7.15350E+01 1.95492E+01 0.00000E+00
 -1      1069 6.55350E+01 1.95492E+01 0.00000E+00
 -1      1070 1.76865E+01 1.88666E+01 0.00000E+00
 -1      1071 6.33636E+01 1.90335E+01 0.00000E+00
 -1      1072 2.38573E+01 2.87831E+01 0.00000E+00
 -1      1073 1.30924E+02 2.24459E+01 0.00000E+00
 -1      1074 2.11605E+01 2.80122E+01 0.00000E+00
 -1      1075 7.45350E+01 1.95492E+01 0.00000E+00
 -1      1076 6.61556E+01 2.77961E+01 0.00000E+00
 -1      1077 2.38604E+01 2.33864E+01 0.00000E+00
 -1      1078 1.29326E+02 2.85082E+01 0.00000E+00
 -1      1079 6.48556E+01 2.24355E+01 0.00000E+00
 -1      1080 2.32388E+01 2.03629E+01 0.00000E+00
 -1      1081 1.28915E+02 2.45793E+01 0.00000E+00
 -1      1082 2.07758E+01 2.35438E+01 0.00000E+00
 -1      1083 2.04626E+01 1.96147E+01 0.00000E+00
 -1      1084 6.83103E+01 2.56173E+01 0.00000E+00
 -1      1085 7.38262E+01 2.59102E+01 0.00000E+00
 -1      1086 7.68262E+01 2.59102E+01 0.00000E+00
 -1      1087 7.98262E+01 2.59102E+01 0.00000E+00
 -1      1088 8.28262E+01 2.59102E+01 0.00000E+00
 -1      1089 8.58262E+01 2.59102E+01 0.00000E+00
 -1      1090 8.88262E+01 2.59102E+01 0.00000E+00
 -1      1091 9.18262E+01 2.59102E+01 0.00000E+00
 -1      1092 9.48262E+01 2.59102E+01 0.00000E+00
 -1      1093 9.78262E+01 2.59102E+01 0.00000E+00
 -1      1094 1.00826E+02 2.59102E+01 0.00000E+00
 -1      1095 1.03826E+02 2.59102E+01 0.00000E+00
 -1      1096 1.06826E+02 2.59102E+01 0.00000E+00
 -1      1097 1.09826E+02 2.59102E+01 0.00000E+00
 -1      1098 1.12826E+02 2.59102E+01 0.00000E+00
 -1      1099 1.15826E+02 2.59102E+01 0.00000E+00
 -1      1100 1.18826E+02 2.59102E+01 0.00000E+00
 -1      1101 1.21826E+02 2.59102E+01 0.00000E+00
 -1      1102 1.24826E+02 2.59102E+01 0.00000E+00
 -1      1103 8.50350E+01 2.21472E+01 0.00000E+00
 -1      1104 7.90350E+01 2.21472E+01 0.00000E+00
 -1      1105 9.10350E+01 2.21472E+01 0.00000E+00
 -1      1106 9.40350E+01 2.21472E+01 0.00000E+00
 -1      1107 9.70350E+01 2.21472E+01 0.00000E+00
 -1      1108 1.00035E+02 2.21472E+01 0.00000E+00
 -1      1109 1.03035E+02 2.21472E+01 0.00000E+00
 -1      1110 1.06035E+02 2.21472E+01 0.00000E+00
 -1      1111 1.09035E+02 2.21472E+01 0.00000E+00
 -1      1112 1.12035E+02 2.21472E+01 0.00000E+00
 -1      1113 1.15035E+02 2.21472E+01 0.00000E+00
 -1      1114 1.18035E+02 2.21472E+01 0.00000E+00
 -1      1115 1.21035E+02 2.21472E+01 0.00000E+00
 -1      1116 1.24035E+02 2.21472E+01 0.00000E+00
 -1      1117 6.70350E+01 2.21472E+01 0.00000E+00
 -1      1118 8.20350E+01 2.21472E+01 0.00000E+00
 -1      1119 1.28350E+02 2.21476E+01 0.00000E+00
 -1      1120 7.10682E+01 2.57638E+01 0.00000E+00
 -1      1121 7.00350E+01 2.21472E+01 0.00000E+00
 -1      1122 8.80350E+01 2.21472E+01 0.00000E+00
 -1      1123 1.26192E+02 2.21474E+01 0.00000E+00
 -1      1124 7.30350E+01 2.21472E+01 0.00000E+00
 -1      1125 7.60350E+01 2.21472E+01 0.00000E+00
 -1      1126 0.00000E+00 4.85250E+01 0.00000E+00
 -1      1127 0.00000E+00 4.55750E+01 0.00000E+00
 -1      1128 0.00000E+00 4.26250E+01 0.00000E+00
 -1      1129 0.00000E+00 3.96750E+01 0.00000E+00
 -1      1130 0.00000E+00 3.67250E+01 0.00000E+00
 -1      1131 0.00000E+00 3.38000E+01 0.00000E+00
 -1      1132 0.00000E+00 3.08750E+01 0.00000E+00
 -1      1133 0.00000E+00 2.79250E+01 0.00000E+00
 -1      1134 0.00000E+00 2.49750E+01 0.00000E+00
 -1      1135 0.00000E+00 2.20250E+01 0.00000E+00
 -1      1136 0.00000E+00 1.90750E+01 0.00000E+00
 -1      1137 0.00000E+00 1.61500E+01 0.00000E+00
 -1      1138 0.00000E+00 1.32250E+01 0.00000E+00
 -1      1139 0.00000E+00 1.02750E+01 0.00000E+00
 -1      1140 0.00000E+00 7.32500E+00 0.00000E+00
 -1      1141 0.00000E+00 4.37500E+00 0.00000E+00
 -1      1142 0.00000E+00 1.45000E+00 0.00000E+00
 -1      1143 1.57500E+00 5.00000E+01 0.00000E+00
 -1      1144 4.65000E+00 5.00000E+01 0.00000E+00
 -1      1145 7.65000E+00 5.00000E+01 0.00000E+00
 -1      1146 1.06500E+01 5.00000E+01 0.00000E+00
 -1      1147 1.36500E+01 5.00000E+01 0.00000E+00
 -1      1148 1.66500E+01 5.00000E+01 0.00000E+00
 -1      1149 1.96500E+01 5.00000E+01 0.00000E+00
 -1      1150 2.26500E+01 5.00000E+01 0.00000E+00
 -1      1151 2.56500E+01 5.00000E+01 0.00000E+00
 -1      1152 2.86500E+01 5.00000E+01 0.00000E+00
 -1      1153 3.16500E+01 5.00000E+01 0.00000E+00
 -1      1154 3.46500E+01 5.00000E+01 0.00000E+00
 -1      1155 3.76500E+01 5.00000E+01 0.00000E+00
 -1      1156 4.06500E+01 5.00000E+01 0.00000E+00
 -1      1157 4.36500E+01 5.00000E+01 0.00000E+00
 -1      1158 4.66500E+01 5.00000E+01 0.00000E+00
 -1      1159 4.96500E+01 5.00000E+01 0.00000E+00
 -1      1160 5.26500E+01 5.00000E+01 0.00000E+00
 -1      1161 5.56500E+01 5.00000E+01 0.00000E+00
 -1      1162 5.86500E+01 5.00000E+01 0.00000E+00
 -1      1163 6.16500E+01 5.00000E+01 0.00000E+00
 -1      1164 6.46500E+01 5.00000E+01 0.00000E+00
 -1      1165 6.76500E+01 5.00000E+01 0.00000E+00
 -1      1166 7.06500E+01 5.00000E+01 0.00000E+00
 -1      1167 7.36500E+01 5.00000E+01 0.00000E+00
 -1      1168 7.66500E+01 5.00000E+01 0.00000E+00
 -1      1169 7.96500E+01 5.00000E+01 0.00000E+00
 -1      1170 8.26500E+01 5.00000E+01 0.00000E+00
 -1      1171 8.56500E+01 5.00000E+01 0.00000E+00
 -1      1172 8.86500E+01 5.00000E+01 0.00000E+00
 -1      1173 9.16500E+01 5.00000E+01 0.00000E+00
 -1      1174 9.46500E+01 5.00000E+01 0.00000E+00
 -1      1175 9.76500E+01 5.00000E+01 0.00000E+00
 -1      1176 1.00650E+02 5.00000E+01 0.00000E+00
 -1      1177 1.03650E+02 5.00000E+01 0.00000E+00
 -1      1178 1.06650E+02 5.00000E+01 0.00000E+00
 -1      1179 1.09650E+02 5.00000E+01 0.00000E+00
 -1      1180 1.12650E+02 5.00000E+01 0.00000E+00
 -1      1181 1.15650E+02 5.00000E+01 0.00000E+00
 -1      1182 1.18650E+02 5.00000E+01 0.00000E+00
 -1      1183 1.21650E+02 5.00000E+01 0.00000E+00
 -1      1184 1.24650E+02 5.00000E+01 0.00000E+00
 -1      1185 1.27650E+02 5.00000E+01 0.00000E+00
 -1      1186 1.30650E+02 5.00000E+01 0.00000E+00
 -1      1187 1.33650E+02 5.00000E+01 0.00000E+00
 -1      1188 1.36650E+02 5.00000E+01 0.00000E+00
 -1      1189 1.39650E+02 5.00000E+01 0.00000E+00
 -1      1190 1.42650E+02 5.00000E+01 0.00000E+00
 -1      1191 1.45650E+02 5.00000E+01 0.00000E+00
 -1      1192 1.48575E+02 5.00000E+01 0.00000E+00
 -1      1193 1.57500E+00 0.00000E+00 0.00000E+00
 -1      1194 4.65000E+00 0.00000E+00 0.00000E+00
 -1      1195 7.65000E+00 0.00000E+00 0.00000E+00
 -1      1196 1.06500E+01 0.00000E+00 0.00000E+00
 -1      1197 1.36500E+01 0.00000E+00 0.00000E+00
 -1      1198 1.66500E+01 0.00000E+00 0.00000E+00
 -1      1199 1.96500E+01 0.00000E+00 0.00000E+00
 -1      1200 2.26500E+01 0.00000E+00 0.00000E+00
 -1      1201 2.56500E+01 0.00000E+00 0.00000E+00
 -1      1202 2.86500E+01 0.00000E+00 0.00000E+00
 -1      1203 3.16500E+01 0.00000E+00 0.00000E+00
 -1      1204 3.46500E+01 0.00000E+00 0.00000E+00
 -1      1205 3.76500E+01 0.00000E+00 0.00000E+00
 -1      1206 4.06500E+01 0.00000E+00 0.00000E+00
 -1      1207 4.36500E+01 0.00000E+00 0.00000E+00
 -1      1208 4.66500E+01 0.00000E+00 0.00000E+00
 -1      1209 4.96500E+01 0.00000E+00 0.00000E+00
 -1      1210 5.26500E+01 0.00000E+00 0.00000E+00
 -1      1211 5.56500E+01 0.00000E+00 0.00000E+00
 -1      1212 5.86500E+01 0.00000E+00 0.00000E+00
 -1      1213 6.16500E+01 0.00000E+00 0.00000E+00
 -1      1214 6.46500E+01 0.00000E+00 0.00000E+00
 -1      1215 6.76500E+01 0.00000E+00 0.00000E+00
 -1      1216 7.06500E+01 0.00000E+00 0.00000E+00
 -1      1217 7.36500E+01 0.00000E+00 0.00000E+00
 -1      1218 7.66500E+01 0.00000E+00 0.00000E+00
 -1      1219 7.96500E+01 0.00000E+00 0.00000E+00
 -1      1220 8.26500E+01 0.00000E+00 0.00000E+00
 -1      1221 8.56500E+01 0.00000E+00 0.00000E+00
 -1      1222 8.86500E+01 0.00000E+00 0.00000E+00
 -1      1223 9.16500E+01 0.00000E+00 0.00000E+00
 -1      1224 9.46500E+01 0.00000E+00 0.00000E+00
 -1      1225 9.76500E+01 0.00000E+00 0.00000E+00
 -1      1226 1.00650E+02 0.00000E+00 0.00000E+00
 -1      1227 1.03650E+02 0.00000E+00 0.00000E+00
 -1      1228 1.06650E+02 0.00000E+00 0.00000E+00
 -1      1229 1.09650E+02 0.00000E+00 0.00000E+00
 -1      1230 1.12650E+02 0.00000E+00 0.00000E+00
 -1      1231 1.15650E+02 0.00000E+00 0.00000E+00
 -1      1232 1.18650E+02 0.00000E+00 0.00000E+00
 -1      1233 1.21650E+02 0.00000E+00 0.00000E+00
 -1      1234 1.24650E+02 0.00000E+00 0.00000E+00
 -1      1235 1.27650E+02 0.00000E+00 0.00000E+00
 -1      1236 1.30650E+02 0.00000E+00 0.00000E+00
 -1      1237 1.33650E+02 0.00000E+00 0.00000E+00
 -1      1238 1.36650E+02 0.00000E+00 0.00000E+00
 -1      1239 1.39650E+02 0.00000E+00 0.00000E+00
 -1      1240 1.42650E+02 0.00000E+00 0.00000E+00
 -1      1241 1.45650E+02 0.00000E+00 0.00000E+00
 -1      1242 1.48575E+02 0.00000E+00 0.00000E+00
 -1      1243 1.50000E+02 1.47500E+00 0.00000E+00
 -1      1244 1.50000E+02 4.42500E+00 0.00000E+00
 -1      1245 1.50000E+02 7.37500E+00 0.00000E+00
 -1      1246 1.50000E+02 1.03250E+01 0.00000E+00
 -1      1247 1.50000E+02 1.32750E+01 0.00000E+00
 -1      1248 1.50000E+02 1.62000E+01 0.00000E+00
 -1      1249 1.50000E+02 1.91250E+01 0.00000E+00
 -1      1250 1.50000E+02 2.20750E+01 0.00000E+00
 -1      1251 1.50000E+02 2.50250E+01 0.00000E+00
 -1      1252 1.50000E+02 2.79750E+01 0.00000E+00
 -1      1253 1.50000E+02 3.09250E+01 0.00000E+00
 -1      1254 1.50000E+02 3.38500E+01 0.00000E+00
 -1      1255 1.50000E+02 3.67750E+01 0.00000E+00
 -1      1256 1.50000E+02 3.97250E+01 0.00000E+00
 -1      1257 1.50000E+02 4.26750E+01 0.00000E+00
 -1      1258 1.50000E+02 4.56250E+01 0.00000E+00
 -1      1259 1.50000E+02 4.85500E+01 0.00000E+00
 -1      1260 5.06154E+01 2.43320E+01 0.00000E+00
 -1      1261 5.02932E+01 2.28497E+01 0.00000E+00
 -1      1262 4.96472E+01 2.14513E+01 0.00000E+00
 -1      1263 4.87432E+01 2.02622E+01 0.00000E+00
 -1      1264 4.76246E+01 1.93035E+01 0.00000E+00
 -1      1265 4.63393E+01 1.86041E+01 0.00000E+00
 -1      1266 4.49331E+01 1.81864E+01 0.00000E+00
 -1      1267 4.34575E+01 1.80714E+01 0.00000E+00
 -1      1268 4.19473E+01 1.82799E+01 0.00000E+00
 -1      1269 4.05285E+01 1.88052E+01 0.00000E+00
 -1      1270 3.93188E+01 1.95728E+01 0.00000E+00
 -1      1271 3.82752E+01 2.05891E+01 0.00000E+00
 -1      1272 3.74205E+01 2.18843E+01 0.00000E+00
 -1      1273 3.68695E+01 2.33460E+01 0.00000E+00
 -1      1274 3.66576E+01 2.48515E+01 0.00000E+00
 -1      1275 3.67955E+01 2.64677E+01 0.00000E+00
 -1      1276 3.72757E+01 2.79521E+01 0.00000E+00
 -1      1277 3.79884E+01 2.91794E+01 0.00000E+00
 -1      1278 3.89628E+01 3.02639E+01 0.00000E+00
 -1      1279 4.01465E+01 3.11263E+01 0.00000E+00
 -1      1280 4.14335E+01 3.17070E+01 0.00000E+00
 -1      1281 4.27884E+01 3.20149E+01 0.00000E+00
 -1      1282 4.41676E+01 3.20498E+01 0.00000E+00
 -1      1283 4.55247E+01 3.18141E+01 0.00000E+00
 -1      1284 4.68692E+01 3.12867E+01 0.00000E+00
 -1      1285 4.80484E+01 3.05176E+01 0.00000E+00
 -1      1286 4.90322E+01 2.95494E+01 0.00000E+00
 -1      1287 4.98154E+01 2.83913E+01 0.00000E+00
 -1      1288 5.03536E+01 2.70980E+01 0.00000E+00
 -1      1289 5.06222E+01 2.57377E+01 0.00000E+00
 -1      1290 1.57500E+00 4.85250E+01 0.00000E+00
 -1      1291 1.29900E+00 4.48375E+01 0.00000E+00
 -1      1292 1.29900E+00 4.63125E+01 0.00000E+00
 -1      1293 1.29900E+00 4.18875E+01 0.00000E+00
 -1      1294 1.29900E+00 4.33625E+01 0.00000E+00
 -1      1295 2.59800E+00 4.41000E+01 0.00000E+00
 -1      1296 1.29900E+00 3.89375E+01 0.00000E+00
 -1      1297 1.29900E+00 4.04125E+01 0.00000E+00
 -1      1298 2.59800E+00 4.11500E+01 0.00000E+00
 -1      1299 1.29900E+00 3.59875E+01 0.00000E+00
 -1      1300 1.29900E+00 3.74625E+01 0.00000E+00
 -1      1301 2.59800E+00 3.82000E+01 0.00000E+00
 -1      1302 1.29900E+00 3.30875E+01 0.00000E+00
 -1      1303 1.29900E+00 3.45375E+01 0.00000E+00
 -1      1304 2.59800E+00 3.52750E+01 0.00000E+00
 -1      1305 1.29900E+00 3.01375E+01 0.00000E+00
 -1      1306 1.29900E+00 3.16125E+01 0.00000E+00
 -1      1307 2.59800E+00 3.23500E+01 0.00000E+00
 -1      1308 1.29900E+00 2.71875E+01 0.00000E+00
 -1      1309 1.29900E+00 2.86625E+01 0.00000E+00
 -1      1310 2.59800E+00 2.94000E+01 0.00000E+00
 -1      1311 1.29900E+00 2.42375E+01 0.00000E+00
 -1      1312 1.29900E+00 2.57125E+01 0.00000E+00
 -1      1313 2.59800E+00 2.64500E+01 0.00000E+00
 -1      1314 1.29900E+00 2.12875E+01 0.00000E+00
 -1      1315 1.29900E+00 2.27625E+01 0.00000E+00
 -1      1316 2.59800E+00 2.35000E+01 0.00000E+00
 -1      1317 1.29900E+00 1.83375E+01 0.00000E+00
 -1      1318 1.29900E+00 1.98125E+01 0.00000E+00
 -1      1319 2.59800E+00 2.05500E+01 0.00000E+00
 -1      1320 1.29900E+00 1.54375E+01 0.00000E+00
 -1      1321 1.29900E+00 1.68875E+01 0.00000E+00
 -1      1322 2.59800E+00 1.76250E+01 0.00000E+00
 -1      1323 1.29900E+00 1.24875E+01 0.00000E+00
 -1      1324 1.29900E+00 1.39625E+01 0.00000E+00
 -1      1325 2.59800E+00 1.47000E+01 0.00000E+00
 -1      1326 1.29900E+00 9.53750E+00 0.00000E+00
 -1      1327 1.29900E+00 1.10125E+01 0.00000E+00
 -1      1328 2.59800E+00 1.17500E+01 0.00000E+00
 -1      1329 1.29900E+00 6.58750E+00 0.00000E+00
 -1      1330 1.29900E+00 8.06250E+00 0.00000E+00
 -1      1331 2.59800E+00 8.80000E+00 0.00000E+00
 -1      1332 1.29900E+00 3.63750E+00 0.00000E+00
 -1      1333 1.29900E+00 5.11250E+00 0.00000E+00
 -1      1334 2.59800E+00 5.85000E+00 0.00000E+00
 -1      1335 1.43700E+00 1.09375E+00 0.00000E+00
 -1      1336 1.43700E+00 2.54375E+00 0.00000E+00
 -1      1337 2.73600E+00 3.28125E+00 0.00000E+00
 -1      1338 3.01200E+00 1.09375E+00 0.00000E+00
 -1      1339 3.90000E+00 4.87010E+01 0.00000E+00
 -1      1340 5.40000E+00 4.87010E+01 0.00000E+00
 -1      1341 6.90000E+00 4.87010E+01 0.00000E+00
 -1      1342 8.40000E+00 4.87010E+01 0.00000E+00
 -1      1343 6.15000E+00 4.74020E+01 0.00000E+00
 -1      1344 9.90000E+00 4.87010E+01 0.00000E+00
 -1      1345 1.14000E+01 4.87010E+01 0.00000E+00
 -1      1346 9.15000E+00 4.74020E+01 0.00000E+00
 -1      1347 1.29000E+01 4.87010E+01 0.00000E+00
 -1      1348 1.44000E+01 4.87010E+01 0.00000E+00
 -1      1349 1.21500E+01 4.74020E+01 0.00000E+00
 -1      1350 1.59000E+01 4.87010E+01 0.00000E+00
 -1      1351 1.74000E+01 4.87010E+01 0.00000E+00
 -1      1352 1.51500E+01 4.74020E+01 0.00000E+00
 -1      1353 1.89000E+01 4.87010E+01 0.00000E+00
 -1      1354 2.04000E+01 4.87010E+01 0.00000E+00
 -1      1355 1.81500E+01 4.74020E+01 0.00000E+00
 -1      1356 2.19000E+01 4.87010E+01 0.00000E+00
 -1      1357 2.34000E+01 4.87010E+01 0.00000E+00
 -1      1358 2.11500E+01 4.74020E+01 0.00000E+00
 -1      1359 2.49000E+01 4.87010E+01 0.00000E+00
 -1      1360 2.64000E+01 4.87010E+01 0.00000E+00
 -1      1361 2.41500E+01 4.74020E+01 0.00000E+00
 -1      1362 2.79000E+01 4.87010E+01 0.00000E+00
 -1      1363 2.94000E+01 4.87010E+01 0.00000E+00
 -1      1364 2.71500E+01 4.74020E+01 0.00000E+00
 -1      1365 3.09000E+01 4.87010E+01 0.00000E+00
 -1      1366 3.24000E+01 4.87010E+01 0.00000E+00
 -1      1367 3.01500E+01 4.74020E+01 0.00000E+00
 -1      1368 3.39000E+01 4.87010E+01 0.00000E+00
 -1      1369 3.54000E+01 4.87010E+01 0.00000E+00
 -1      1370 3.31500E+01 4.74020E+01 0.00000E+00
 -1      1371 3.69000E+01 4.87010E+01 0.00000E+00
 -1      1372 3.84000E+01 4.87010E+01 0.00000E+00
 -1      1373 3.61500E+01 4.74020E+01 0.00000E+00
 -1      1374 3.99000E+01 4.87010E+01 0.00000E+00
 -1      1375 4.14000E+01 4.87010E+01 0.00000E+00
 -1      1376 3.91500E+01 4.74020E+01 0.00000E+00
 -1      1377 4.29000E+01 4.87010E+01 0.00000E+00
 -1      1378 4.44000E+01 4.87010E+01 0.00000E+00
 -1      1379 4.21500E+01 4.74020E+01 0.00000E+00
 -1      1380 4.59000E+01 4.87010E+01 0.00000E+00
 -1      1381 4.74000E+01 4.87010E+01 0.00000E+00
 -1      1382 4.51500E+01 4.74020E+01 0.00000E+00
 -1      1383 4.89000E+01 4.87010E+01 0.00000E+00
 -1      1384 5.04000E+01 4.87010E+01 0.00000E+00
 -1      1385 4.81500E+01 4.74020E+01 0.00000E+00
 -1      1386 5.19000E+01 4.87010E+01 0.00000E+00
 -1      1387 5.34000E+01 4.87010E+01 0.00000E+00
 -1      1388 5.11500E+01 4.74020E+01 0.00000E+00
 -1      1389 5.49000E+01 4.87010E+01 0.00000E+00
 -1      1390 5.64000E+01 4.87010E+01 0.00000E+00
 -1      1391 5.41500E+01 4.74020E+01 0.00000E+00
 -1      1392 5.79000E+01 4.87010E+01 0.00000E+00
 -1      1393 5.94000E+01 4.87010E+01 0.00000E+00
 -1      1394 5.71500E+01 4.74020E+01 0.00000E+00
 -1      1395 6.09000E+01 4.87010E+01 0.00000E+00
 -1      1396 6.24000E+01 4.87010E+01 0.00000E+00
 -1      1397 6.01500E+01 4.74020E+01 0.00000E+00
 -1      1398 6.39000E+01 4.87010E+01 0.00000E+00
 -1      1399 6.54000E+01 4.87010E+01 0.00000E+00
 -1      1400 6.31500E+01 4.74020E+01 0.00000E+00
 -1      1401 6.69000E+01 4.87010E+01 0.00000E+00
 -1      1402 6.84000E+01 4.87010E+01 0.00000E+00
 -1      1403 6.61500E+01 4.74020E+01 0.00000E+00
 -1      1404 6.99000E+01 4.87010E+01 0.00000E+00
 -1      1405 7.14000E+01 4.87010E+01 0.00000E+00
 -1      1406 6.91500E+01 4.74020E+01 0.00000E+00
 -1      1407 7.29000E+01 4.87010E+01 0.00000E+00
 -1      1408 7.44000E+01 4.87010E+01 0.00000E+00
 -1      1409 7.21500E+01 4.74020E+01 0.00000E+00
 -1      1410 7.59000E+01 4.87010E+01 0.00000E+00
 -1      1411 7.74000E+01 4.87010E+01 0.00000E+00
 -1      1412 7.51500E+01 4.74020E+01 0.00000E+00
 -1      1413 7.89000E+01 4.87010E+01 0.00000E+00
 -1      1414 8.04000E+01 4.87010E+01 0.00000E+00
 -1      1415 7.81500E+01 4.74020E+01 0.00000E+00
 -1      1416 8.19000E+01 4.87010E+01 0.00000E+00
 -1      1417 8.34000E+01 4.87010E+01 0.00000E+00
 -1      1418 8.11500E+01 4.74020E+01 0.00000E+00
 -1      1419 8.49000E+01 4.87010E+01 0.00000E+00
 -1      1420 8.64000E+01 4.87010E+01 0.00000E+00
 -1      1421 8.41500E+01 4.74020E+01 0.00000E+00
 -1      1422 8.79000E+01 4.87010E+01 0.00000E+00
 -1      1423 8.94000E+01 4.87010E+01 0.00000E+00
 -1      1424 8.71500E+01 4.74020E+01 0.00000E+00
 -1      1425 9.09000E+01 4.87010E+01 0.00000E+00
 -1      1426 9.24000E+01 4.87010E+01 0.00000E+00
 -1      1427 9.01500E+01 4.74020E+01 0.00000E+00
 -1      1428 9.39000E+01 4.87010E+01 0.00000E+00
 -1      1429 9.54000E+01 4.87010E+01 0.00000E+00
 -1      1430 9.31500E+01 4.74020E+01 0.00000E+00
 -1      1431 9.69000E+01 4.87010E+01 0.00000E+00
 -1      1432 9.84000E+01 4.87010E+01 0.00000E+00
 -1      1433 9.61500E+01 4.74020E+01 0.00000E+00
 -1      1434 9.99000E+01 4.87010E+01 0.00000E+00
 -1      1435 1.01400E+02 4.87010E+01 0.00000E+00
 -1      1436 9.91500E+01 4.74020E+01 0.00000E+00
 -1      1437 1.02900E+02 4.87010E+01 0.00000E+00
 -1      1438 1.04400E+02 4.87010E+01 0.00000E+00
 -1      1439 1.02150E+02 4.74020E+01 0.00000E+00
 -1      1440 1.05900E+02 4.87010E+01 0.00000E+00
 -1      1441 1.07400E+02 4.87010E+01 0.00000E+00
 -1      1442 1.05150E+02 4.74020E+01 0.00000E+00
 -1      1443 1.08900E+02 4.87010E+01 0.00000E+00
 -1      1444 1.10400E+02 4.87010E+01 0.00000E+00
 -1      1445 1.08150E+02 4.74020E+01 0.00000E+00
 -1      1446 1.11900E+02 4.87010E+01 0.00000E+00
 -1      1447 1.13400E+02 4.87010E+01 0.00000E+00
 -1      1448 1.11150E+02 4.74020E+01 0.00000E+00
 -1      1449 1.14900E+02 4.87010E+01 0.00000E+00
 -1      1450 1.16400E+02 4.87010E+01 0.00000E+00
 -1      1451 1.14150E+02 4.74020E+01 0.00000E+00
 -1      1452 1.17900E+02 4.87010E+01 0.00000E+00
 -1      1453 1.19400E+02 4.87010E+01 0.00000E+00
 -1      1454 1.17150E+02 4.74020E+01 0.00000E+00
 -1      1455 1.20900E+02 4.87010E+01 0.00000E+00
 -1      1456 1.22400E+02 4.87010E+01 0.00000E+00
 -1      1457 1.20150E+02 4.74020E+01 0.00000E+00
 -1      1458 1.23900E+02 4.87010E+01 0.00000E+00
 -1      1459 1.25400E+02 4.87010E+01 0.00000E+00
 -1      1460 1.23150E+02 4.74020E+01 0.00000E+00
 -1      1461 1.26900E+02 4.87010E+01 0.00000E+00
 -1      1462 1.28400E+02 4.87010E+01 0.00000E+00
 -1      1463 1.26150E+02 4.74020E+01 0.00000E+00
 -1      1464 1.29900E+02 4.87010E+01 0.00000E+00
 -1      1465 1.31400E+02 4.87010E+01 0.00000E+00
 -1      1466 1.29150E+02 4.74020E+01 0.00000E+00
 -1      1467 1.32900E+02 4.87010E+01 0.00000E+00
 -1      1468 1.34400E+02 4.87010E+01 0.00000E+00
 -1      1469 1.32150E+02 4.74020E+01 0.00000E+00
 -1      1470 1.35900E+02 4.87010E+01 0.00000E+00
 -1      1471 1.37400E+02 4.87010E+01 0.00000E+00
 -1      1472 1.35150E+02 4.74020E+01 0.00000E+00
 -1      1473 1.38900E+02 4.87010E+01 0.00000E+00
 -1      1474 1.40400E+02 4.87010E+01 0.00000E+00
 -1      1475 1.38150E+02 4.74020E+01 0.00000E+00
 -1      1476 1.41900E+02 4.87010E+01 0.00000E+00
 -1      1477 1.43400E+02 4.87010E+01 0.00000E+00
 -1      1478 1.41150E+02 4.74020E+01 0.00000E+00
 -1      1479 1.44900E+02 4.87010E+01 0.00000E+00
 -1      1480 1.46400E+02 4.87010E+01 0.00000E+00
 -1      1481 1.44150E+02 4.74020E+01 0.00000E+00
 -1      1482 1.48575E+02 4.85500E+01 0.00000E+00
 -1      1483 1.47825E+02 4.72510E+01 0.00000E+00
 -1      1484 6.01200E+00 1.09375E+00 0.00000E+00
 -1      1485 4.51200E+00 1.09375E+00 0.00000E+00
 -1      1486 4.37400E+00 2.18750E+00 0.00000E+00
 -1      1487 9.01200E+00 1.09375E+00 0.00000E+00
 -1      1488 7.51200E+00 1.09375E+00 0.00000E+00
 -1      1489 7.37400E+00 2.18750E+00 0.00000E+00
 -1      1490 1.20120E+01 1.09375E+00 0.00000E+00
 -1      1491 1.05120E+01 1.09375E+00 0.00000E+00
 -1      1492 1.03740E+01 2.18750E+00 0.00000E+00
 -1      1493 1.50120E+01 1.09375E+00 0.00000E+00
 -1      1494 1.35120E+01 1.09375E+00 0.00000E+00
 -1      1495 1.33740E+01 2.18750E+00 0.00000E+00
 -1      1496 1.80120E+01 1.09375E+00 0.00000E+00
 -1      1497 1.65120E+01 1.09375E+00 0.00000E+00
 -1      1498 1.63740E+01 2.18750E+00 0.00000E+00
 -1      1499 2.10120E+01 1.09375E+00 0.00000E+00
 -1      1500 1.95120E+01 1.09375E+00 0.00000E+00
 -1      1501 1.93740E+01 2.18750E+00 0.00000E+00
 -1      1502 2.40120E+01 1.09375E+00 0.00000E+00
 -1      1503 2.25120E+01 1.09375E+00 0.00000E+00
 -1      1504 2.23740E+01 2.18750E+00 0.00000E+00
 -1      1505 2.70120E+01 1.09375E+00 0.00000E+00
 -1      1506 2.55120E+01 1.09375E+00 0.00000E+00
 -1      1507 2.53740E+01 2.18750E+00 0.00000E+00
 -1      1508 3.00120E+01 1.09375E+00 0.00000E+00
 -1      1509 2.85120E+01 1.09375E+00 0.00000E+00
 -1      1510 2.83740E+01 2.18750E+00 0.00000E+00
 -1      1511 3.30120E+01 1.09375E+00 0.00000E+00
 -1      1512 3.15120E+01 1.09375E+00 0.00000E+00
 -1      1513 3.13740E+01 2.18750E+00 0.00000E+00
 -1      1514 3.60120E+01 1.09375E+00 0.00000E+00
 -1      1515 3.45120E+01 1.09375E+00 0.00000E+00
 -1      1516 3.43740E+01 2.18750E+00 0.00000E+00
 -1      1517 3.90120E+01 1.09375E+00 0.00000E+00
 -1      1518 3.75120E+01 1.09375E+00 0.00000E+00
 -1      1519 3.73740E+01 2.18750E+00 0.00000E+00
 -1      1520 4.20120E+01 1.09375E+00 0.00000E+00
 -1      1521 4.05120E+01 1.09375E+00 0.00000E+00
 -1      1522 4.03740E+01 2.18750E+00 0.00000E+00
 -1      1523 4.50120E+01 1.09375E+00 0.00000E+00
 -1      1524 4.35120E+01 1.09375E+00 0.00000E+00
 -1      1525 4.33740E+01 2.18750E+00 0.00000E+00
 -1      1526 4.80120E+01 1.09375E+00 0.00000E+00
 -1      1527 4.65120E+01 1.09375E+00 0.00000E+00
 -1      1528 4.63740E+01 2.18750E+00 0.00000E+00
 -1      1529 5.10120E+01 1.09375E+00 0.00000E+00
 -1      1530 4.95120E+01 1.09375E+00 0.00000E+00
 -1      1531 4.93740E+01 2.18750E+00 0.00000E+00
 -1      1532 5.40120E+01 1.09375E+00 0.00000E+00
 -1      1533 5.25120E+01 1.09375E+00 0.00000E+00
 -1      1534 5.23740E+01 2.18750E+00 0.00000E+00
 -1      1535 5.70120E+01 1.09375E+00 0.00000E+00
 -1      1536 5.55120E+01 1.09375E+00 0.00000E+00
 -1      1537 5.53740E+01 2.18750E+00 0.00000E+00
 -1      1538 6.00120E+01 1.09375E+00 0.00000E+00
 -1      1539 5.85120E+01 1.09375E+00 0.00000E+00
 -1      1540 5.83740E+01 2.18750E+00 0.00000E+00
 -1      1541 6.30120E+01 1.09375E+00 0.00000E+00
 -1      1542 6.15120E+01 1.09375E+00 0.00000E+00
 -1      1543 6.13740E+01 2.18750E+00 0.00000E+00
 -1      1544 6.60120E+01 1.09375E+00 0.00000E+00
 -1      1545 6.45120E+01 1.09375E+00 0.00000E+00
 -1      1546 6.43740E+01 2.18750E+00 0.00000E+00
 -1      1547 6.90120E+01 1.09375E+00 0.00000E+00
 -1      1548 6.75120E+01 1.09375E+00 0.00000E+00
 -1      1549 6.73740E+01 2.18750E+00 0.00000E+00
 -1      1550 7.20120E+01 1.09375E+00 0.00000E+00
 -1      1551 7.05120E+01 1.09375E+00 0.00000E+00
 -1      1552 7.03740E+01 2.18750E+00 0.00000E+00
 -1      1553 7.50120E+01 1.09375E+00 0.00000E+00
 -1      1554 7.35120E+01 1.09375E+00 0.00000E+00
 -1      1555 7.33740E+01 2.18750E+00 0.00000E+00
 -1      1556 7.80120E+01 1.09375E+00 0.00000E+00
 -1      1557 7.65120E+01 1.09375E+00 0.00000E+00
 -1      1558 7.63740E+01 2.18750E+00 0.00000E+00
 -1      1559 8.10120E+01 1.09375E+00 0.00000E+00
 -1      1560 7.95120E+01 1.09375E+00 0.00000E+00
 -1      1561 7.93740E+01 2.18750E+00 0.00000E+00
 -1      1562 8.40120E+01 1.09375E+00 0.00000E+00
 -1      1563 8.25120E+01 1.09375E+00 0.00000E+00
 -1      1564 8.23740E+01 2.18750E+00 0.00000E+00
 -1      1565 8.70120E+01 1.09375E+00 0.00000E+00
 -1      1566 8.55120E+01 1.09375E+00 0.00000E+00
 -1      1567 8.53740E+01 2.18750E+00 0.00000E+00
 -1      1568 9.00120E+01 1.09375E+00 0.00000E+00
 -1      1569 8.85120E+01 1.09375E+00 0.00000E+00
 -1      1570 8.83740E+01 2.18750E+00 0.00000E+00
 -1      1571 9.30120E+01 1.09375E+00 0.00000E+00
 -1      1572 9.15120E+01 1.09375E+00 0.00000E+00
 -1      1573 9.13740E+01 2.18750E+00 0.00000E+00
 -1      1574 9.60120E+01 1.09375E+00 0.00000E+00
 -1      1575 9.45120E+01 1.09375E+00 0.00000E+00
 -1      1576 9.43740E+01 2.18750E+00 0.00000E+00
 -1      1577 9.90120E+01 1.09375E+00 0.00000E+00
 -1      1578 9.75120E+01 1.09375E+00 0.00000E+00
 -1      1579 9.73740E+01 2.18750E+00 0.00000E+00
 -1      1580 1.02012E+02 1.09375E+00 0.00000E+00
 -1      1581 1.00512E+02 1.09375E+00 0.00000E+00
 -1      1582 1.00374E+02 2.18750E+00 0.00000E+00
 -1      1583 1.05012E+02 1.09375E+00 0.00000E+00
 -1      1584 1.03512E+02 1.09375E+00 0.00000E+00
 -1      1585 1.03374E+02 2.18750E+00 0.00000E+00
 -1      1586 1.08012E+02 1.09375E+00 0.00000E+00
 -1      1587 1.06512E+02 1.09375E+00 0.00000E+00
 -1      1588 1.06374E+02 2.18750E+00 0.00000E+00
 -1      1589 1.11012E+02 1.09375E+00 0.00000E+00
 -1      1590 1.09512E+02 1.09375E+00 0.00000E+00
 -1      1591 1.09374E+02 2.18750E+00 0.00000E+00
 -1      1592 1.14012E+02 1.09375E+00 0.00000E+00
 -1      1593 1.12512E+02 1.09375E+00 0.00000E+00
 -1      1594 1.12374E+02 2.18750E+00 0.00000E+00
 -1      1595 1.17012E+02 1.09375E+00 0.00000E+00
 -1      1596 1.15512E+02 1.09375E+00 0.00000E+00
 -1      1597 1.15374E+02 2.18750E+00 0.00000E+00
 -1      1598 1.20012E+02 1.09375E+00 0.00000E+00
 -1      1599 1.18512E+02 1.09375E+00 0.00000E+00
 -1      1600 1.18374E+02 2.18750E+00 0.00000E+00
 -1      1601 1.23012E+02 1.09375E+00 0.00000E+00
 -1      1602 1.21512E+02 1.09375E+00 0.00000E+00
 -1      1603 1.21374E+02 2.18750E+00 0.00000E+00
 -1      1604 1.26012E+02 1.09375E+00 0.00000E+00
 -1      1605 1.24512E+02 1.09375E+00 0.00000E+00
 -1      1606 1.24374E+02 2.18750E+00 0.00000E+00
 -1      1607 1.29012E+02 1.09375E+00 0.00000E+00
 -1      1608 1.27512E+02 1.09375E+00 0.00000E+00
 -1      1609 1.27374E+02 2.18750E+00 0.00000E+00
 -1      1610 1.32012E+02 1.09375E+00 0.00000E+00
 -1      1611 1.30512E+02 1.09375E+00 0.00000E+00
 -1      1612 1.30374E+02 2.18750E+00 0.00000E+00
 -1      1613 1.35012E+02 1.09375E+00 0.00000E+00
 -1      1614 1.33512E+02 1.09375E+00 0.00000E+00
 -1      1615 1.33374E+02 2.18750E+00 0.00000E+00
 -1      1616 1.38012E+02 1.09375E+00 0.00000E+00
 -1      1617 1.36512E+02 1.09375E+00 0.00000E+00
 -1      1618 1.36374E+02 2.18750E+00 0.00000E+00
 -1      1619 1.41012E+02 1.09375E+00 0.00000E+00
 -1      1620 1.39512E+02 1.09375E+00 0.00000E+00
 -1      1621 1.39374E+02 2.18750E+00 0.00000E+00
 -1      1622 1.44012E+02 1.09375E+00 0.00000E+00
 -1      1623 1.42512E+02 1.09375E+00 0.00000E+00
 -1      1624 1.42374E+02 2.18750E+00 0.00000E+00
 -1      1625 1.47012E+02 1.09375E+00 0.00000E+00
 -1      1626 1.45512E+02 1.09375E+00 0.00000E+00
 -1      1627 1.45374E+02 2.18750E+00 0.00000E+00
 -1      1628 1.48575E+02 1.47500E+00 0.00000E+00
 -1      1629 1.48701E+02 5.16250E+00 0.00000E+00
 -1      1630 1.48701E+02 3.68750E+00 0.00000E+00
 -1      1631 1.48701E+02 8.11250E+00 0.00000E+00
 -1      1632 1.48701E+02 6.63750E+00 0.00000E+00
 -1      1633 1.47402E+02 5.90000E+00 0.00000E+00
 -1      1634 1.48701E+02 1.10625E+01 0.00000E+00
 -1      1635 1.48701E+02 9.58750E+00 0.00000E+00
 -1      1636 1.47402E+02 8.85000E+00 0.00000E+00
 -1      1637 1.48701E+02 1.40125E+01 0.00000E+00
 -1      1638 1.48701E+02 1.25375E+01 0.00000E+00
 -1      1639 1.47402E+02 1.18000E+01 0.00000E+00
 -1      1640 1.48701E+02 1.69125E+01 0.00000E+00
 -1      1641 1.48701E+02 1.54625E+01 0.00000E+00
 -1      1642 1.47402E+02 1.47250E+01 0.00000E+00
 -1      1643 1.48701E+02 1.98625E+01 0.00000E+00
 -1      1644 1.48701E+02 1.83875E+01 0.00000E+00
 -1      1645 1.47402E+02 1.76500E+01 0.00000E+00
 -1      1646 1.48701E+02 2.28125E+01 0.00000E+00
 -1      1647 1.48701E+02 2.13375E+01 0.00000E+00
 -1      1648 1.47402E+02 2.06000E+01 0.00000E+00
 -1      1649 1.48701E+02 2.57625E+01 0.00000E+00
 -1      1650 1.48701E+02 2.42875E+01 0.00000E+00
 -1      1651 1.47402E+02 2.35500E+01 0.00000E+00
 -1      1652 1.48701E+02 2.87125E+01 0.00000E+00
 -1      1653 1.48701E+02 2.72375E+01 0.00000E+00
 -1      1654 1.47402E+02 2.65000E+01 0.00000E+00
 -1      1655 1.48701E+02 3.16625E+01 0.00000E+00
 -1      1656 1.48701E+02 3.01875E+01 0.00000E+00
 -1      1657 1.47402E+02 2.94500E+01 0.00000E+00
 -1      1658 1.48701E+02 3.45625E+01 0.00000E+00
 -1      1659 1.48701E+02 3.31125E+01 0.00000E+00
 -1      1660 1.47402E+02 3.23750E+01 0.00000E+00
 -1      1661 1.48701E+02 3.75125E+01 0.00000E+00
 -1      1662 1.48701E+02 3.60375E+01 0.00000E+00
 -1      1663 1.47402E+02 3.53000E+01 0.00000E+00
 -1      1664 1.48701E+02 4.04625E+01 0.00000E+00
 -1      1665 1.48701E+02 3.89875E+01 0.00000E+00
 -1      1666 1.47402E+02 3.82500E+01 0.00000E+00
 -1      1667 1.48701E+02 4.34125E+01 0.00000E+00
 -1      1668 1.48701E+02 4.19375E+01 0.00000E+00
 -1      1669 1.47402E+02 4.12000E+01 0.00000E+00
 -1      1670 1.48263E+02 4.60692E+01 0.00000E+00
 -1      1671 1.48263E+02 4.45942E+01 0.00000E+00
 -1      1672 1.46964E+02 4.38568E+01 0.00000E+00
 -1      1673 1.46088E+02 4.62202E+01 0.00000E+00
 -1      1674 5.11825E+01 2.39016E+01 0.00000E+00
 -1      1675 5.12600E+01 2.46342E+01 0.00000E+00
 -1      1676 5.07826E+01 2.22747E+01 0.00000E+00
 -1      1677 5.10299E+01 2.30148E+01 0.00000E+00
 -1      1678 4.99702E+01 2.08124E+01 0.00000E+00
 -1      1679 5.03630E+01 2.14632E+01 0.00000E+00
 -1      1680 4.89041E+01 1.96057E+01 0.00000E+00
 -1      1681 4.94078E+01 2.01391E+01 0.00000E+00
 -1      1682 4.76654E+01 1.85923E+01 0.00000E+00
 -1      1683 4.82745E+01 1.90118E+01 0.00000E+00
 -1      1684 4.62394E+01 1.79014E+01 0.00000E+00
 -1      1685 4.69077E+01 1.81790E+01 0.00000E+00
 -1      1686 4.46788E+01 1.75203E+01 0.00000E+00
 -1      1687 4.54096E+01 1.76561E+01 0.00000E+00
 -1      1688 4.30721E+01 1.74728E+01 0.00000E+00
 -1      1689 4.38086E+01 1.74521E+01 0.00000E+00
 -1      1690 4.14078E+01 1.77500E+01 0.00000E+00
 -1      1691 4.21718E+01 1.75579E+01 0.00000E+00
 -1      1692 3.99503E+01 1.84584E+01 0.00000E+00
 -1      1693 4.05990E+01 1.81346E+01 0.00000E+00
 -1      1694 3.86878E+01 1.93442E+01 0.00000E+00
 -1      1695 3.92433E+01 1.89059E+01 0.00000E+00
 -1      1696 3.76007E+01 2.05146E+01 0.00000E+00
 -1      1697 3.80799E+01 1.99391E+01 0.00000E+00
 -1      1698 3.66645E+01 2.19489E+01 0.00000E+00
 -1      1699 3.70298E+01 2.12339E+01 0.00000E+00
 -1      1700 3.62286E+01 2.35749E+01 0.00000E+00
 -1      1701 3.64154E+01 2.28390E+01 0.00000E+00
 -1      1702 3.60395E+01 2.52130E+01 0.00000E+00
 -1      1703 3.60631E+01 2.44523E+01 0.00000E+00
 -1      1704 3.61344E+01 2.70419E+01 0.00000E+00
 -1      1705 3.59623E+01 2.61983E+01 0.00000E+00
 -1      1706 3.68992E+01 2.85059E+01 0.00000E+00
 -1      1707 3.66113E+01 2.78689E+01 0.00000E+00
 -1      1708 3.77393E+01 2.98050E+01 0.00000E+00
 -1      1709 3.73164E+01 2.92222E+01 0.00000E+00
 -1      1710 3.88565E+01 3.09321E+01 0.00000E+00
 -1      1711 3.83089E+01 3.04376E+01 0.00000E+00
 -1      1712 4.01551E+01 3.18365E+01 0.00000E+00
 -1      1713 3.95262E+01 3.14724E+01 0.00000E+00
 -1      1714 4.15767E+01 3.23587E+01 0.00000E+00
 -1      1715 4.09269E+01 3.21413E+01 0.00000E+00
 -1      1716 4.30673E+01 3.26247E+01 0.00000E+00
 -1      1717 4.23684E+01 3.25376E+01 0.00000E+00
 -1      1718 4.45464E+01 3.25970E+01 0.00000E+00
 -1      1719 4.38729E+01 3.26465E+01 0.00000E+00
 -1      1720 4.60155E+01 3.22705E+01 0.00000E+00
 -1      1721 4.53390E+01 3.24580E+01 0.00000E+00
 -1      1722 4.74976E+01 3.16941E+01 0.00000E+00
 -1      1723 4.68383E+01 3.20350E+01 0.00000E+00
 -1      1724 4.86681E+01 3.07559E+01 0.00000E+00
 -1      1725 4.81500E+01 3.11737E+01 0.00000E+00
 -1      1726 4.97308E+01 2.96663E+01 0.00000E+00
 -1      1727 4.92733E+01 3.02154E+01 0.00000E+00
 -1      1728 5.04817E+01 2.83624E+01 0.00000E+00
 -1      1729 5.01573E+01 2.89639E+01 0.00000E+00
 -1      1730 5.10426E+01 2.69319E+01 0.00000E+00
 -1      1731 5.08346E+01 2.76185E+01 0.00000E+00
 -1      1732 5.12257E+01 2.54596E+01 0.00000E+00
 -1      1733 5.11617E+01 2.61256E+01 0.00000E+00
 -1      1734 4.89671E+01 1.88622E+01 0.00000E+00
 -1      1735 5.01590E+01 2.01295E+01 0.00000E+00
 -1      1736 1.48437E+02 2.56875E+00 0.00000E+00
 -1      1737 1.47138E+02 3.30625E+00 0.00000E+00
 -1      1738 5.17132E+01 2.33129E+01 0.00000E+00
 -1      1739 5.11410E+01 2.16145E+01 0.00000E+00
 -1      1740 5.18314E+01 2.50251E+01 0.00000E+00
 -1      1741 4.75799E+01 1.78550E+01 0.00000E+00
 -1      1742 4.59924E+01 1.71963E+01 0.00000E+00
 -1      1743 4.42924E+01 1.68828E+01 0.00000E+00
 -1      1744 4.25219E+01 1.68997E+01 0.00000E+00
 -1      1745 4.08128E+01 1.73694E+01 0.00000E+00
 -1      1746 3.92970E+01 1.82016E+01 0.00000E+00
 -1      1747 3.79823E+01 1.92440E+01 0.00000E+00
 -1      1748 3.68036E+01 2.05582E+01 0.00000E+00
 -1      1749 3.59836E+01 2.21677E+01 0.00000E+00
 -1      1750 3.55690E+01 2.39352E+01 0.00000E+00
 -1      1751 3.53263E+01 2.57978E+01 0.00000E+00
 -1      1752 3.57260E+01 2.76101E+01 0.00000E+00
 -1      1753 3.66200E+01 2.91534E+01 0.00000E+00
 -1      1754 3.76068E+01 3.05022E+01 0.00000E+00
 -1      1755 3.88462E+01 3.16750E+01 0.00000E+00
 -1      1756 4.02877E+01 3.25201E+01 0.00000E+00
 -1      1757 4.18512E+01 3.30038E+01 0.00000E+00
 -1      1758 4.34485E+01 3.32045E+01 0.00000E+00
 -1      1759 4.50467E+01 3.30874E+01 0.00000E+00
 -1      1760 4.66620E+01 3.27129E+01 0.00000E+00
 -1      1761 4.81372E+01 3.19571E+01 0.00000E+00
 -1      1762 4.93947E+01 3.08962E+01 0.00000E+00
 -1      1763 5.04265E+01 2.96533E+01 0.00000E+00
 -1      1764 5.12060E+01 2.82070E+01 0.00000E+00
 -1      1765 5.16780E+01 2.66568E+01 0.00000E+00
 -1      1766 2.87400E+00 4.77875E+01 0.00000E+00
 -1      1767 3.89700E+00 4.04125E+01 0.00000E+00
 -1      1768 3.89700E+00 4.18875E+01 0.00000E+00
 -1      1769 3.89700E+00 4.33625E+01 0.00000E+00
 -1      1770 3.89700E+00 4.48375E+01 0.00000E+00
 -1      1771 5.19600E+00 4.26250E+01 0.00000E+00
 -1      1772 3.89700E+00 3.45500E+01 0.00000E+00
 -1      1773 3.89700E+00 3.60000E+01 0.00000E+00
 -1      1774 3.89700E+00 3.16000E+01 0.00000E+00
 -1      1775 3.89700E+00 3.30750E+01 0.00000E+00
 -1      1776 5.19600E+00 3.38000E+01 0.00000E+00
 -1      1777 3.89700E+00 2.86500E+01 0.00000E+00
 -1      1778 3.89700E+00 3.01250E+01 0.00000E+00
 -1      1779 5.19600E+00 3.08500E+01 0.00000E+00
 -1      1780 3.89700E+00 2.57000E+01 0.00000E+00
 -1      1781 3.89700E+00 2.71750E+01 0.00000E+00
 -1      1782 5.19600E+00 2.79000E+01 0.00000E+00
 -1      1783 3.89700E+00 2.27500E+01 0.00000E+00
 -1      1784 3.89700E+00 2.42250E+01 0.00000E+00
 -1      1785 5.19600E+00 2.49500E+01 0.00000E+00
 -1      1786 3.89700E+00 1.98000E+01 0.00000E+00
 -1      1787 3.89700E+00 2.12750E+01 0.00000E+00
 -1      1788 5.19600E+00 2.20000E+01 0.00000E+00
 -1      1789 3.89700E+00 1.69000E+01 0.00000E+00
 -1      1790 3.89700E+00 1.83500E+01 0.00000E+00
 -1      1791 5.19600E+00 1.90750E+01 0.00000E+00
 -1      1792 3.89700E+00 1.39500E+01 0.00000E+00
 -1      1793 3.89700E+00 1.54250E+01 0.00000E+00
 -1      1794 5.19600E+00 1.61500E+01 0.00000E+00
 -1      1795 3.89700E+00 1.10000E+01 0.00000E+00
 -1      1796 3.89700E+00 1.24750E+01 0.00000E+00
 -1      1797 5.19600E+00 1.32000E+01 0.00000E+00
 -1      1798 3.89700E+00 8.05000E+00 0.00000E+00
 -1      1799 3.89700E+00 9.52500E+00 0.00000E+00
 -1      1800 5.19600E+00 1.02500E+01 0.00000E+00
 -1      1801 3.89700E+00 5.10000E+00 0.00000E+00
 -1      1802 3.89700E+00 6.57500E+00 0.00000E+00
 -1      1803 5.19600E+00 7.30000E+00 0.00000E+00
 -1      1804 4.20450E+00 3.09687E+00 0.00000E+00
 -1      1805 4.06650E+00 4.19063E+00 0.00000E+00
 -1      1806 5.36550E+00 4.91563E+00 0.00000E+00
 -1      1807 5.70450E+00 3.09687E+00 0.00000E+00
 -1      1808 3.62400E+00 4.64885E+01 0.00000E+00
 -1      1809 8.70450E+00 3.09687E+00 0.00000E+00
 -1      1810 7.20450E+00 3.09687E+00 0.00000E+00
 -1      1811 7.03500E+00 4.00625E+00 0.00000E+00
 -1      1812 4.92300E+00 4.57510E+01 0.00000E+00
 -1      1813 8.40000E+00 4.61030E+01 0.00000E+00
 -1      1814 9.90000E+00 4.61030E+01 0.00000E+00
 -1      1815 1.14000E+01 4.61030E+01 0.00000E+00
 -1      1816 1.29000E+01 4.61030E+01 0.00000E+00
 -1      1817 1.06500E+01 4.48040E+01 0.00000E+00
 -1      1818 1.44000E+01 4.61030E+01 0.00000E+00
 -1      1819 1.59000E+01 4.61030E+01 0.00000E+00
 -1      1820 1.36500E+01 4.48040E+01 0.00000E+00
 -1      1821 1.74000E+01 4.61030E+01 0.00000E+00
 -1      1822 1.89000E+01 4.61030E+01 0.00000E+00
 -1      1823 1.66500E+01 4.48040E+01 0.00000E+00
 -1      1824 2.04000E+01 4.61030E+01 0.00000E+00
 -1      1825 2.19000E+01 4.61030E+01 0.00000E+00
 -1      1826 1.96500E+01 4.48040E+01 0.00000E+00
 -1      1827 2.34000E+01 4.61030E+01 0.00000E+00
 -1      1828 2.49000E+01 4.61030E+01 0.00000E+00
 -1      1829 2.26500E+01 4.48040E+01 0.00000E+00
 -1      1830 2.64000E+01 4.61030E+01 0.00000E+00
 -1      1831 2.79000E+01 4.61030E+01 0.00000E+00
 -1      1832 2.56500E+01 4.48040E+01 0.00000E+00
 -1      1833 2.94000E+01 4.61030E+01 0.00000E+00
 -1      1834 3.09000E+01 4.61030E+01 0.00000E+00
 -1      1835 2.86500E+01 4.48040E+01 0.00000E+00
 -1      1836 3.24000E+01 4.61030E+01 0.00000E+00
 -1      1837 3.39000E+01 4.61030E+01 0.00000E+00
 -1      1838 3.16500E+01 4.48040E+01 0.00000E+00
 -1      1839 3.54000E+01 4.61030E+01 0.00000E+00
 -1      1840 3.69000E+01 4.61030E+01 0.00000E+00
 -1      1841 3.46500E+01 4.48040E+01 0.00000E+00
 -1      1842 3.84000E+01 4.61030E+01 0.00000E+00
 -1      1843 3.99000E+01 4.61030E+01 0.00000E+00
 -1      1844 3.76500E+01 4.48040E+01 0.00000E+00
 -1      1845 4.14000E+01 4.61030E+01 0.00000E+00
 -1      1846 4.29000E+01 4.61030E+01 0.00000E+00
 -1      1847 4.06500E+01 4.48040E+01 0.00000E+00
 -1      1848 4.44000E+01 4.61030E+01 0.00000E+00
 -1      1849 4.59000E+01 4.61030E+01 0.00000E+00
 -1      1850 4.36500E+01 4.48040E+01 0.00000E+00
 -1      1851 4.74000E+01 4.61030E+01 0.00000E+00
 -1      1852 4.89000E+01 4.61030E+01 0.00000E+00
 -1      1853 4.66500E+01 4.48040E+01 0.00000E+00
 -1      1854 5.04000E+01 4.61030E+01 0.00000E+00
 -1      1855 5.19000E+01 4.61030E+01 0.00000E+00
 -1      1856 4.96500E+01 4.48040E+01 0.00000E+00
 -1      1857 5.34000E+01 4.61030E+01 0.00000E+00
 -1      1858 5.49000E+01 4.61030E+01 0.00000E+00
 -1      1859 5.26500E+01 4.48040E+01 0.00000E+00
 -1      1860 5.64000E+01 4.61030E+01 0.00000E+00
 -1      1861 5.79000E+01 4.61030E+01 0.00000E+00
 -1      1862 5.56500E+01 4.48040E+01 0.00000E+00
 -1      1863 5.94000E+01 4.61030E+01 0.00000E+00
 -1      1864 6.09000E+01 4.61030E+01 0.00000E+00
 -1      1865 5.86500E+01 4.48040E+01 0.00000E+00
 -1      1866 6.24000E+01 4.61030E+01 0.00000E+00
 -1      1867 6.39000E+01 4.61030E+01 0.00000E+00
 -1      1868 6.16500E+01 4.48040E+01 0.00000E+00
 -1      1869 6.54000E+01 4.61030E+01 0.00000E+00
 -1      1870 6.69000E+01 4.61030E+01 0.00000E+00
 -1      1871 6.46500E+01 4.48040E+01 0.00000E+00
 -1      1872 6.84000E+01 4.61030E+01 0.00000E+00
 -1      1873 6.99000E+01 4.61030E+01 0.00000E+00
 -1      1874 6.76500E+01 4.48040E+01 0.00000E+00
 -1      1875 7.14000E+01 4.61030E+01 0.00000E+00
 -1      1876 7.29000E+01 4.61030E+01 0.00000E+00
 -1      1877 7.06500E+01 4.48040E+01 0.00000E+00
 -1      1878 7.44000E+01 4.61030E+01 0.00000E+00
 -1      1879 7.59000E+01 4.61030E+01 0.00000E+00
 -1      1880 7.36500E+01 4.48040E+01 0.00000E+00
 -1      1881 7.74000E+01 4.61030E+01 0.00000E+00
 -1      1882 7.89000E+01 4.61030E+01 0.00000E+00
 -1      1883 7.66500E+01 4.48040E+01 0.00000E+00
 -1      1884 8.04000E+01 4.61030E+01 0.00000E+00
 -1      1885 8.19000E+01 4.61030E+01 0.00000E+00
 -1      1886 7.96500E+01 4.48040E+01 0.00000E+00
 -1      1887 8.34000E+01 4.61030E+01 0.00000E+00
 -1      1888 8.49000E+01 4.61030E+01 0.00000E+00
 -1      1889 8.26500E+01 4.48040E+01 0.00000E+00
 -1      1890 8.64000E+01 4.61030E+01 0.00000E+00
 -1      1891 8.79000E+01 4.61030E+01 0.00000E+00
 -1      1892 8.56500E+01 4.48040E+01 0.00000E+00
 -1      1893 8.94000E+01 4.61030E+01 0.00000E+00
 -1      1894 9.09000E+01 4.61030E+01 0.00000E+00
 -1      1895 8.86500E+01 4.48040E+01 0.00000E+00
 -1      1896 9.24000E+01 4.61030E+01 0.00000E+00
 -1      1897 9.39000E+01 4.61030E+01 0.00000E+00
 -1      1898 9.16500E+01 4.48040E+01 0.00000E+00
 -1      1899 9.54000E+01 4.61030E+01 0.00000E+00
 -1      1900 9.69000E+01 4.61030E+01 0.00000E+00
 -1      1901 9.46500E+01 4.48040E+01 0.00000E+00
 -1      1902 9.84000E+01 4.61030E+01 0.00000E+00
 -1      1903 9.99000E+01 4.61030E+01 0.00000E+00
 -1      1904 9.76500E+01 4.48040E+01 0.00000E+00
 -1      1905 1.01400E+02 4.61030E+01 0.00000E+00
 -1      1906 1.02900E+02 4.61030E+01 0.00000E+00
 -1      1907 1.00650E+02 4.48040E+01 0.00000E+00
 -1      1908 1.04400E+02 4.61030E+01 0.00000E+00
 -1      1909 1.05900E+02 4.61030E+01 0.00000E+00
 -1      1910 1.03650E+02 4.48040E+01 0.00000E+00
 -1      1911 1.07400E+02 4.61030E+01 0.00000E+00
 -1      1912 1.08900E+02 4.61030E+01 0.00000E+00
 -1      1913 1.06650E+02 4.48040E+01 0.00000E+00
 -1      1914 1.10400E+02 4.61030E+01 0.00000E+00
 -1      1915 1.11900E+02 4.61030E+01 0.00000E+00
 -1      1916 1.09650E+02 4.48040E+01 0.00000E+00
 -1      1917 1.13400E+02 4.61030E+01 0.00000E+00
 -1      1918 1.14900E+02 4.61030E+01 0.00000E+00
 -1      1919 1.12650E+02 4.48040E+01 0.00000E+00
 -1      1920 1.16400E+02 4.61030E+01 0.00000E+00
 -1      1921 1.17900E+02 4.61030E+01 0.00000E+00
 -1      1922 1.15650E+02 4.48040E+01 0.00000E+00
 -1      1923 1.19400E+02 4.61030E+01 0.00000E+00
 -1      1924 1.20900E+02 4.61030E+01 0.00000E+00
 -1      1925 1.18650E+02 4.48040E+01 0.00000E+00
 -1      1926 1.22400E+02 4.61030E+01 0.00000E+00
 -1      1927 1.23900E+02 4.61030E+01 0.00000E+00
 -1      1928 1.21650E+02 4.48040E+01 0.00000E+00
 -1      1929 1.25400E+02 4.61030E+01 0.00000E+00
 -1      1930 1.26900E+02 4.61030E+01 0.00000E+00
 -1      1931 1.24650E+02 4.48040E+01 0.00000E+00
 -1      1932 1.28400E+02 4.61030E+01 0.00000E+00
 -1      1933 1.29900E+02 4.61030E+01 0.00000E+00
 -1      1934 1.27650E+02 4.48040E+01 0.00000E+00
 -1      1935 1.31400E+02 4.61030E+01 0.00000E+00
 -1      1936 1.32900E+02 4.61030E+01 0.00000E+00
 -1      1937 1.30650E+02 4.48040E+01 0.00000E+00
 -1      1938 1.34400E+02 4.61030E+01 0.00000E+00
 -1      1939 1.35900E+02 4.61030E+01 0.00000E+00
 -1      1940 1.33650E+02 4.48040E+01 0.00000E+00
 -1      1941 1.37400E+02 4.61030E+01 0.00000E+00
 -1      1942 1.38900E+02 4.61030E+01 0.00000E+00
 -1      1943 1.36650E+02 4.48040E+01 0.00000E+00
 -1      1944 1.40400E+02 4.61030E+01 0.00000E+00
 -1      1945 1.41900E+02 4.61030E+01 0.00000E+00
 -1      1946 1.39650E+02 4.48040E+01 0.00000E+00
 -1      1947 1.43244E+02 4.61616E+01 0.00000E+00
 -1      1948 1.44744E+02 4.61616E+01 0.00000E+00
 -1      1949 1.45182E+02 4.49799E+01 0.00000E+00
 -1      1950 1.42494E+02 4.48626E+01 0.00000E+00
 -1      1951 1.17045E+01 3.09687E+00 0.00000E+00
 -1      1952 1.02045E+01 3.09687E+00 0.00000E+00
 -1      1953 1.00350E+01 4.00625E+00 0.00000E+00
 -1      1954 1.47045E+01 3.09687E+00 0.00000E+00
 -1      1955 1.32045E+01 3.09687E+00 0.00000E+00
 -1      1956 1.30350E+01 4.00625E+00 0.00000E+00
 -1      1957 1.77045E+01 3.09687E+00 0.00000E+00
 -1      1958 1.62045E+01 3.09687E+00 0.00000E+00
 -1      1959 1.60350E+01 4.00625E+00 0.00000E+00
 -1      1960 2.07045E+01 3.09687E+00 0.00000E+00
 -1      1961 1.92045E+01 3.09687E+00 0.00000E+00
 -1      1962 1.90350E+01 4.00625E+00 0.00000E+00
 -1      1963 2.37045E+01 3.09687E+00 0.00000E+00
 -1      1964 2.22045E+01 3.09687E+00 0.00000E+00
 -1      1965 2.20350E+01 4.00625E+00 0.00000E+00
 -1      1966 2.67045E+01 3.09687E+00 0.00000E+00
 -1      1967 2.52045E+01 3.09687E+00 0.00000E+00
 -1      1968 2.50350E+01 4.00625E+00 0.00000E+00
 -1      1969 2.97045E+01 3.09687E+00 0.00000E+00
 -1      1970 2.82045E+01 3.09687E+00 0.00000E+00
 -1      1971 2.80350E+01 4.00625E+00 0.00000E+00
 -1      1972 3.27045E+01 3.09687E+00 0.00000E+00
 -1      1973 3.12045E+01 3.09687E+00 0.00000E+00
 -1      1974 3.10350E+01 4.00625E+00 0.00000E+00
 -1      1975 3.57045E+01 3.09687E+00 0.00000E+00
 -1      1976 3.42045E+01 3.09687E+00 0.00000E+00
 -1      1977 3.40350E+01 4.00625E+00 0.00000E+00
 -1      1978 3.87045E+01 3.09687E+00 0.00000E+00
 -1      1979 3.72045E+01 3.09687E+00 0.00000E+00
 -1      1980 3.70350E+01 4.00625E+00 0.00000E+00
 -1      1981 4.17045E+01 3.09687E+00 0.00000E+00
 -1      1982 4.02045E+01 3.09687E+00 0.00000E+00
 -1      1983 4.00350E+01 4.00625E+00 0.00000E+00
 -1      1984 4.47045E+01 3.09687E+00 0.00000E+00
 -1      1985 4.32045E+01 3.09687E+00 0.00000E+00
 -1      1986 4.30350E+01 4.00625E+00 0.00000E+00
 -1      1987 4.77045E+01 3.09687E+00 0.00000E+00
 -1      1988 4.62045E+01 3.09687E+00 0.00000E+00
 -1      1989 4.60350E+01 4.00625E+00 0.00000E+00
 -1      1990 5.07045E+01 3.09687E+00 0.00000E+00
 -1      1991 4.92045E+01 3.09687E+00 0.00000E+00
 -1      1992 4.90350E+01 4.00625E+00 0.00000E+00
 -1      1993 5.37045E+01 3.09687E+00 0.00000E+00
 -1      1994 5.22045E+01 3.09687E+00 0.00000E+00
 -1      1995 5.20350E+01 4.00625E+00 0.00000E+00
 -1      1996 5.67045E+01 3.09687E+00 0.00000E+00
 -1      1997 5.52045E+01 3.09687E+00 0.00000E+00
 -1      1998 5.50350E+01 4.00625E+00 0.00000E+00
 -1      1999 5.97045E+01 3.09687E+00 0.00000E+00
 -1      2000 5.82045E+01 3.09687E+00 0.00000E+00
 -1      2001 5.80350E+01 4.00625E+00 0.00000E+00
 -1      2002 6.27045E+01 3.09687E+00 0.00000E+00
 -1      2003 6.12045E+01 3.09687E+00 0.00000E+00
 -1      2004 6.10350E+01 4.00625E+00 0.00000E+00
 -1      2005 6.57045E+01 3.09687E+00 0.00000E+00
 -1      2006 6.42045E+01 3.09687E+00 0.00000E+00
 -1      2007 6.40350E+01 4.00625E+00 0.00000E+00
 -1      2008 6.87045E+01 3.09687E+00 0.00000E+00
 -1      2009 6.72045E+01 3.09687E+00 0.00000E+00
 -1      2010 6.70350E+01 4.00625E+00 0.00000E+00
 -1      2011 7.17045E+01 3.09687E+00 0.00000E+00
 -1      2012 7.02045E+01 3.09687E+00 0.00000E+00
 -1      2013 7.00350E+01 4.00625E+00 0.00000E+00
 -1      2014 7.47045E+01 3.09687E+00 0.00000E+00
 -1      2015 7.32045E+01 3.09687E+00 0.00000E+00
 -1      2016 7.30350E+01 4.00625E+00 0.00000E+00
 -1      2017 7.77045E+01 3.09687E+00 0.00000E+00
 -1      2018 7.62045E+01 3.09687E+00 0.00000E+00
 -1      2019 7.60350E+01 4.00625E+00 0.00000E+00
 -1      2020 8.07045E+01 3.09687E+00 0.00000E+00
 -1      2021 7.92045E+01 3.09687E+00 0.00000E+00
 -1      2022 7.90350E+01 4.00625E+00 0.00000E+00
 -1      2023 8.37045E+01 3.09687E+00 0.00000E+00
 -1      2024 8.22045E+01 3.09687E+00 0.00000E+00
 -1      2025 8.20350E+01 4.00625E+00 0.00000E+00
 -1      2026 8.67045E+01 3.09687E+00 0.00000E+00
 -1      2027 8.52045E+01 3.09687E+00 0.00000E+00
 -1      2028 8.50350E+01 4.00625E+00 0.00000E+00
 -1      2029 8.97045E+01 3.09687E+00 0.00000E+00
 -1      2030 8.82045E+01 3.09687E+00 0.00000E+00
 -1      2031 8.80350E+01 4.00625E+00 0.00000E+00
 -1      2032 9.27045E+01 3.09687E+00 0.00000E+00
 -1      2033 9.12045E+01 3.09687E+00 0.00000E+00
 -1      2034 9.10350E+01 4.00625E+00 0.00000E+00
 -1      2035 9.57045E+01 3.09687E+00 0.00000E+00
 -1      2036 9.42045E+01 3.09687E+00 0.00000E+00
 -1      2037 9.40350E+01 4.00625E+00 0.00000E+00
 -1      2038 9.87045E+01 3.09687E+00 0.00000E+00
 -1      2039 9.72045E+01 3.09687E+00 0.00000E+00
 -1      2040 9.70350E+01 4.00625E+00 0.00000E+00
 -1      2041 1.01704E+02 3.09687E+00 0.00000E+00
 -1      2042 1.00204E+02 3.09687E+00 0.00000E+00
 -1      2043 1.00035E+02 4.00625E+00 0.00000E+00
 -1      2044 1.04704E+02 3.09687E+00 0.00000E+00
 -1      2045 1.03204E+02 3.09687E+00 0.00000E+00
 -1      2046 1.03035E+02 4.00625E+00 0.00000E+00
 -1      2047 1.07704E+02 3.09687E+00 0.00000E+00
 -1      2048 1.06204E+02 3.09687E+00 0.00000E+00
 -1      2049 1.06035E+02 4.00625E+00 0.00000E+00
 -1      2050 1.10704E+02 3.09687E+00 0.00000E+00
 -1      2051 1.09204E+02 3.09687E+00 0.00000E+00
 -1      2052 1.09035E+02 4.00625E+00 0.00000E+00
 -1      2053 1.13704E+02 3.09687E+00 0.00000E+00
 -1      2054 1.12204E+02 3.09687E+00 0.00000E+00
 -1      2055 1.12035E+02 4.00625E+00 0.00000E+00
 -1      2056 1.16704E+02 3.09687E+00 0.00000E+00
 -1      2057 1.15204E+02 3.09687E+00 0.00000E+00
 -1      2058 1.15035E+02 4.00625E+00 0.00000E+00
 -1      2059 1.19704E+02 3.09687E+00 0.00000E+00
 -1      2060 1.18204E+02 3.09687E+00 0.00000E+00
 -1      2061 1.18035E+02 4.00625E+00 0.00000E+00
 -1      2062 1.22704E+02 3.09687E+00 0.00000E+00
 -1      2063 1.21204E+02 3.09687E+00 0.00000E+00
 -1      2064 1.21035E+02 4.00625E+00 0.00000E+00
 -1      2065 1.25704E+02 3.09687E+00 0.00000E+00
 -1      2066 1.24204E+02 3.09687E+00 0.00000E+00
 -1      2067 1.24035E+02 4.00625E+00 0.00000E+00
 -1      2068 1.28704E+02 3.09687E+00 0.00000E+00
 -1      2069 1.27204E+02 3.09687E+00 0.00000E+00
 -1      2070 1.27035E+02 4.00625E+00 0.00000E+00
 -1      2071 1.31704E+02 3.09687E+00 0.00000E+00
 -1      2072 1.30204E+02 3.09687E+00 0.00000E+00
 -1      2073 1.30035E+02 4.00625E+00 0.00000E+00
 -1      2074 1.34704E+02 3.09687E+00 0.00000E+00
 -1      2075 1.33204E+02 3.09687E+00 0.00000E+00
 -1      2076 1.33035E+02 4.00625E+00 0.00000E+00
 -1      2077 1.37704E+02 3.09687E+00 0.00000E+00
 -1      2078 1.36204E+02 3.09687E+00 0.00000E+00
 -1      2079 1.36035E+02 4.00625E+00 0.00000E+00
 -1      2080 1.40704E+02 3.09687E+00 0.00000E+00
 -1      2081 1.39204E+02 3.09687E+00 0.00000E+00
 -1      2082 1.39035E+02 4.00625E+00 0.00000E+00
 -1      2083 1.43704E+02 3.09687E+00 0.00000E+00
 -1      2084 1.42204E+02 3.09687E+00 0.00000E+00
 -1      2085 1.42035E+02 4.00625E+00 0.00000E+00
 -1      2086 1.46171E+02 3.20156E+00 0.00000E+00
 -1      2087 1.44671E+02 3.20156E+00 0.00000E+00
 -1      2088 1.44502E+02 4.11094E+00 0.00000E+00
 -1      2089 1.46435E+02 4.32031E+00 0.00000E+00
 -1      2090 1.46103E+02 1.25375E+01 0.00000E+00
 -1      2091 1.46103E+02 1.10625E+01 0.00000E+00
 -1      2092 1.46103E+02 9.58750E+00 0.00000E+00
 -1      2093 1.46103E+02 8.11250E+00 0.00000E+00
 -1      2094 1.44804E+02 1.03250E+01 0.00000E+00
 -1      2095 1.46269E+02 6.95391E+00 0.00000E+00
 -1      2096 1.46269E+02 5.47891E+00 0.00000E+00
 -1      2097 1.45302E+02 5.37422E+00 0.00000E+00
 -1      2098 1.44970E+02 7.69141E+00 0.00000E+00
 -1      2099 1.46103E+02 1.54375E+01 0.00000E+00
 -1      2100 1.46103E+02 1.39875E+01 0.00000E+00
 -1      2101 1.44804E+02 1.32500E+01 0.00000E+00
 -1      2102 1.46103E+02 1.83875E+01 0.00000E+00
 -1      2103 1.46103E+02 1.69125E+01 0.00000E+00
 -1      2104 1.44804E+02 1.61750E+01 0.00000E+00
 -1      2105 1.46103E+02 2.13375E+01 0.00000E+00
 -1      2106 1.46103E+02 1.98625E+01 0.00000E+00
 -1      2107 1.44804E+02 1.91250E+01 0.00000E+00
 -1      2108 1.46103E+02 2.42875E+01 0.00000E+00
 -1      2109 1.46103E+02 2.28125E+01 0.00000E+00
 -1      2110 1.44804E+02 2.20750E+01 0.00000E+00
 -1      2111 1.46103E+02 2.72375E+01 0.00000E+00
 -1      2112 1.46103E+02 2.57625E+01 0.00000E+00
 -1      2113 1.44804E+02 2.50250E+01 0.00000E+00
 -1      2114 1.46103E+02 3.01875E+01 0.00000E+00
 -1      2115 1.46103E+02 2.87125E+01 0.00000E+00
 -1      2116 1.44804E+02 2.79750E+01 0.00000E+00
 -1      2117 1.46103E+02 3.30875E+01 0.00000E+00
 -1      2118 1.46103E+02 3.16375E+01 0.00000E+00
 -1      2119 1.44804E+02 3.09000E+01 0.00000E+00
 -1      2120 1.46103E+02 3.60375E+01 0.00000E+00
 -1      2121 1.46103E+02 3.45625E+01 0.00000E+00
 -1      2122 1.44804E+02 3.38250E+01 0.00000E+00
 -1      2123 1.46103E+02 3.89875E+01 0.00000E+00
 -1      2124 1.46103E+02 3.75125E+01 0.00000E+00
 -1      2125 1.44804E+02 3.67750E+01 0.00000E+00
 -1      2126 1.46103E+02 4.19375E+01 0.00000E+00
 -1      2127 1.46103E+02 4.04625E+01 0.00000E+00
 -1      2128 1.44804E+02 3.97250E+01 0.00000E+00
 -1      2129 5.15442E+01 2.08918E+01 0.00000E+00
 -1      2130 5.19638E+01 2.17034E+01 0.00000E+00
 -1      2131 5.25380E+01 2.46410E+01 0.00000E+00
 -1      2132 5.25037E+01 2.54665E+01 0.00000E+00
 -1      2133 5.23582E+01 2.27454E+01 0.00000E+00
 -1      2134 5.25107E+01 2.36322E+01 0.00000E+00
 -1      2135 5.04396E+01 1.93237E+01 0.00000E+00
 -1      2136 5.10020E+01 1.99971E+01 0.00000E+00
 -1      2137 4.90971E+01 1.80939E+01 0.00000E+00
 -1      2138 4.97266E+01 1.86878E+01 0.00000E+00
 -1      2139 3.89700E+00 3.74688E+01 0.00000E+00
 -1      2140 3.89700E+00 3.89437E+01 0.00000E+00
 -1      2141 5.19600E+00 3.96813E+01 0.00000E+00
 -1      2142 5.19600E+00 3.67438E+01 0.00000E+00
 -1      2143 4.57850E+01 1.63718E+01 0.00000E+00
 -1      2144 4.66148E+01 1.66172E+01 0.00000E+00
 -1      2145 4.39079E+01 1.62026E+01 0.00000E+00
 -1      2146 4.47781E+01 1.62708E+01 0.00000E+00
 -1      2147 4.19910E+01 1.60885E+01 0.00000E+00
 -1      2148 4.28913E+01 1.60034E+01 0.00000E+00
 -1      2149 4.00401E+01 1.67874E+01 0.00000E+00
 -1      2150 4.08489E+01 1.64027E+01 0.00000E+00
 -1      2151 3.86262E+01 1.76823E+01 0.00000E+00
 -1      2152 3.93331E+01 1.72348E+01 0.00000E+00
 -1      2153 3.93692E+01 1.62681E+01 0.00000E+00
 -1      2154 3.71958E+01 1.90484E+01 0.00000E+00
 -1      2155 3.78036E+01 1.84535E+01 0.00000E+00
 -1      2156 3.59777E+01 2.04889E+01 0.00000E+00
 -1      2157 3.65486E+01 1.97696E+01 0.00000E+00
 -1      2158 3.50332E+01 2.23816E+01 0.00000E+00
 -1      2159 3.52823E+01 2.14915E+01 0.00000E+00
 -1      2160 3.48494E+01 2.42538E+01 0.00000E+00
 -1      2161 3.50148E+01 2.33764E+01 0.00000E+00
 -1      2162 3.45581E+01 2.62333E+01 0.00000E+00
 -1      2163 3.46353E+01 2.52480E+01 0.00000E+00
 -1      2164 3.53667E+01 2.83683E+01 0.00000E+00
 -1      2165 3.48898E+01 2.75413E+01 0.00000E+00
 -1      2166 3.62010E+01 2.98007E+01 0.00000E+00
 -1      2167 3.57838E+01 2.90845E+01 0.00000E+00
 -1      2168 3.49477E+01 2.90157E+01 0.00000E+00
 -1      2169 3.72543E+01 3.13923E+01 0.00000E+00
 -1      2170 3.66847E+01 3.07597E+01 0.00000E+00
 -1      2171 3.87215E+01 3.25148E+01 0.00000E+00
 -1      2172 3.80518E+01 3.19745E+01 0.00000E+00
 -1      2173 4.03894E+01 3.33922E+01 0.00000E+00
 -1      2174 3.96176E+01 3.30874E+01 0.00000E+00
 -1      2175 4.20950E+01 3.37663E+01 0.00000E+00
 -1      2176 4.13033E+01 3.35874E+01 0.00000E+00
 -1      2177 4.38338E+01 3.38633E+01 0.00000E+00
 -1      2178 4.30282E+01 3.38415E+01 0.00000E+00
 -1      2179 4.55838E+01 3.38213E+01 0.00000E+00
 -1      2180 4.47913E+01 3.39603E+01 0.00000E+00
 -1      2181 4.72295E+01 3.33503E+01 0.00000E+00
 -1      2182 4.64066E+01 3.35858E+01 0.00000E+00
 -1      2183 4.61512E+01 3.44587E+01 0.00000E+00
 -1      2184 4.89459E+01 3.23018E+01 0.00000E+00
 -1      2185 4.82935E+01 3.28221E+01 0.00000E+00
 -1      2186 5.01011E+01 3.10781E+01 0.00000E+00
 -1      2187 4.94959E+01 3.16186E+01 0.00000E+00
 -1      2188 5.12296E+01 2.96602E+01 0.00000E+00
 -1      2189 5.08030E+01 3.03627E+01 0.00000E+00
 -1      2190 5.19680E+01 2.81128E+01 0.00000E+00
 -1      2191 5.16151E+01 2.88567E+01 0.00000E+00
 -1      2192 5.23845E+01 2.62727E+01 0.00000E+00
 -1      2193 5.22654E+01 2.70790E+01 0.00000E+00
 -1      2194 5.30911E+01 2.58887E+01 0.00000E+00
 -1      2195 4.76117E+01 1.68955E+01 0.00000E+00
 -1      2196 4.83694E+01 1.73088E+01 0.00000E+00
 -1      2197 5.05695E+01 1.85553E+01 0.00000E+00
 -1      2198 6.42300E+00 4.57510E+01 0.00000E+00
 -1      2199 4.91289E+01 1.71344E+01 0.00000E+00
 -1      2200 4.74043E+01 1.60710E+01 0.00000E+00
 -1      2201 7.17300E+00 4.44520E+01 0.00000E+00
 -1      2202 5.27613E+01 2.20227E+01 0.00000E+00
 -1      2203 5.31830E+01 2.40736E+01 0.00000E+00
 -1      2204 1.45665E+02 4.31193E+01 0.00000E+00
 -1      2205 5.18247E+01 2.00860E+01 0.00000E+00
 -1      2206 5.26745E+01 2.77287E+01 0.00000E+00
 -1      2207 5.19915E+01 2.95660E+01 0.00000E+00
 -1      2208 5.09042E+01 3.10850E+01 0.00000E+00
 -1      2209 4.80382E+01 3.36950E+01 0.00000E+00
 -1      2210 4.43709E+01 3.45972E+01 0.00000E+00
 -1      2211 4.24802E+01 3.44250E+01 0.00000E+00
 -1      2212 4.06331E+01 3.41546E+01 0.00000E+00
 -1      2213 3.88232E+01 3.33869E+01 0.00000E+00
 -1      2214 3.58485E+01 3.06909E+01 0.00000E+00
 -1      2215 3.41988E+01 2.69915E+01 0.00000E+00
 -1      2216 3.35077E+01 2.64417E+01 0.00000E+00
 -1      2217 3.38395E+01 2.77497E+01 0.00000E+00
 -1      2218 3.40811E+01 2.46893E+01 0.00000E+00
 -1      2219 3.43136E+01 2.27002E+01 0.00000E+00
 -1      2220 3.50273E+01 2.07029E+01 0.00000E+00
 -1      2221 3.78396E+01 1.74867E+01 0.00000E+00
 -1      2222 4.12183E+01 1.55064E+01 0.00000E+00
 -1      2223 4.54006E+01 1.56916E+01 0.00000E+00
 -1      2224 4.33771E+01 1.53914E+01 0.00000E+00
 -1      2225 3.63699E+01 1.89791E+01 0.00000E+00
 -1      2226 3.71297E+01 3.22321E+01 0.00000E+00
 -1      2227 4.96523E+01 3.24837E+01 0.00000E+00
 -1      2228 1.07850E+01 5.30525E+00 0.00000E+00
 -1      2229 9.28500E+00 5.30525E+00 0.00000E+00
 -1      2230 6.49500E+00 3.01125E+01 0.00000E+00
 -1      2231 6.49500E+00 3.15875E+01 0.00000E+00
 -1      2232 6.49500E+00 3.30625E+01 0.00000E+00
 -1      2233 6.49500E+00 3.45375E+01 0.00000E+00
 -1      2234 7.79400E+00 3.23250E+01 0.00000E+00
 -1      2235 6.49500E+00 2.42125E+01 0.00000E+00
 -1      2236 6.49500E+00 2.56875E+01 0.00000E+00
 -1      2237 6.49500E+00 2.12625E+01 0.00000E+00
 -1      2238 6.49500E+00 2.27375E+01 0.00000E+00
 -1      2239 7.79400E+00 2.34750E+01 0.00000E+00
 -1      2240 6.49500E+00 1.83625E+01 0.00000E+00
 -1      2241 6.49500E+00 1.98125E+01 0.00000E+00
 -1      2242 7.79400E+00 2.05500E+01 0.00000E+00
 -1      2243 6.49500E+00 1.54125E+01 0.00000E+00
 -1      2244 6.49500E+00 1.68875E+01 0.00000E+00
 -1      2245 7.79400E+00 1.76250E+01 0.00000E+00
 -1      2246 6.49500E+00 1.24625E+01 0.00000E+00
 -1      2247 6.49500E+00 1.39375E+01 0.00000E+00
 -1      2248 7.79400E+00 1.46750E+01 0.00000E+00
 -1      2249 6.49500E+00 9.51250E+00 0.00000E+00
 -1      2250 6.49500E+00 1.09875E+01 0.00000E+00
 -1      2251 7.79400E+00 1.17250E+01 0.00000E+00
 -1      2252 1.37850E+01 5.30525E+00 0.00000E+00
 -1      2253 1.22850E+01 5.30525E+00 0.00000E+00
 -1      2254 1.15350E+01 6.60425E+00 0.00000E+00
 -1      2255 9.90000E+00 4.35050E+01 0.00000E+00
 -1      2256 1.14000E+01 4.35050E+01 0.00000E+00
 -1      2257 4.93939E+01 1.61589E+01 0.00000E+00
 -1      2258 5.01217E+01 1.69439E+01 0.00000E+00
 -1      2259 1.29000E+01 4.35050E+01 0.00000E+00
 -1      2260 1.44000E+01 4.35050E+01 0.00000E+00
 -1      2261 1.21500E+01 4.22060E+01 0.00000E+00
 -1      2262 1.59000E+01 4.35050E+01 0.00000E+00
 -1      2263 1.74000E+01 4.35050E+01 0.00000E+00
 -1      2264 1.51500E+01 4.22060E+01 0.00000E+00
 -1      2265 1.89000E+01 4.35050E+01 0.00000E+00
 -1      2266 2.04000E+01 4.35050E+01 0.00000E+00
 -1      2267 1.81500E+01 4.22060E+01 0.00000E+00
 -1      2268 2.19000E+01 4.35050E+01 0.00000E+00
 -1      2269 2.34000E+01 4.35050E+01 0.00000E+00
 -1      2270 2.11500E+01 4.22060E+01 0.00000E+00
 -1      2271 2.49000E+01 4.35050E+01 0.00000E+00
 -1      2272 2.64000E+01 4.35050E+01 0.00000E+00
 -1      2273 2.41500E+01 4.22060E+01 0.00000E+00
 -1      2274 2.79000E+01 4.35050E+01 0.00000E+00
 -1      2275 2.94000E+01 4.35050E+01 0.00000E+00
 -1      2276 2.71500E+01 4.22060E+01 0.00000E+00
 -1      2277 3.09000E+01 4.35050E+01 0.00000E+00
 -1      2278 3.24000E+01 4.35050E+01 0.00000E+00
 -1      2279 3.01500E+01 4.22060E+01 0.00000E+00
 -1      2280 3.39000E+01 4.35050E+01 0.00000E+00
 -1      2281 3.54000E+01 4.35050E+01 0.00000E+00
 -1      2282 3.31500E+01 4.22060E+01 0.00000E+00
 -1      2283 3.69000E+01 4.35050E+01 0.00000E+00
 -1      2284 3.84000E+01 4.35050E+01 0.00000E+00
 -1      2285 3.61500E+01 4.22060E+01 0.00000E+00
 -1      2286 3.99000E+01 4.35050E+01 0.00000E+00
 -1      2287 4.14000E+01 4.35050E+01 0.00000E+00
 -1      2288 3.91500E+01 4.22060E+01 0.00000E+00
 -1      2289 4.29000E+01 4.35050E+01 0.00000E+00
 -1      2290 4.44000E+01 4.35050E+01 0.00000E+00
 -1      2291 4.21500E+01 4.22060E+01 0.00000E+00
 -1      2292 4.59000E+01 4.35050E+01 0.00000E+00
 -1      2293 4.74000E+01 4.35050E+01 0.00000E+00
 -1      2294 4.51500E+01 4.22060E+01 0.00000E+00
 -1      2295 4.89000E+01 4.35050E+01 0.00000E+00
 -1      2296 5.04000E+01 4.35050E+01 0.00000E+00
 -1      2297 4.81500E+01 4.22060E+01 0.00000E+00
 -1      2298 5.19000E+01 4.35050E+01 0.00000E+00
 -1      2299 5.34000E+01 4.35050E+01 0.00000E+00
 -1      2300 5.11500E+01 4.22060E+01 0.00000E+00
 -1      2301 5.49000E+01 4.35050E+01 0.00000E+00
 -1      2302 5.64000E+01 4.35050E+01 0.00000E+00
 -1      2303 5.41500E+01 4.22060E+01 0.00000E+00
 -1      2304 5.79000E+01 4.35050E+01 0.00000E+00
 -1      2305 5.94000E+01 4.35050E+01 0.00000E+00
 -1      2306 5.71500E+01 4.22060E+01 0.00000E+00
 -1      2307 6.09000E+01 4.35050E+01 0.00000E+00
 -1      2308 6.24000E+01 4.35050E+01 0.00000E+00
 -1      2309 6.01500E+01 4.22060E+01 0.00000E+00
 -1      2310 6.39000E+01 4.35050E+01 0.00000E+00
 -1      2311 6.54000E+01 4.35050E+01 0.00000E+00
 -1      2312 6.31500E+01 4.22060E+01 0.00000E+00
 -1      2313 6.69000E+01 4.35050E+01 0.00000E+00
 -1      2314 6.84000E+01 4.35050E+01 0.00000E+00
 -1      2315 6.61500E+01 4.22060E+01 0.00000E+00
 -1      2316 6.99000E+01 4.35050E+01 0.00000E+00
 -1      2317 7.14000E+01 4.35050E+01 0.00000E+00
 -1      2318 6.91500E+01 4.22060E+01 0.00000E+00
 -1      2319 7.29000E+01 4.35050E+01 0.00000E+00
 -1      2320 7.44000E+01 4.35050E+01 0.00000E+00
 -1      2321 7.21500E+01 4.22060E+01 0.00000E+00
 -1      2322 7.59000E+01 4.35050E+01 0.00000E+00
 -1      2323 7.74000E+01 4.35050E+01 0.00000E+00
 -1      2324 7.51500E+01 4.22060E+01 0.00000E+00
 -1      2325 7.89000E+01 4.35050E+01 0.00000E+00
 -1      2326 8.04000E+01 4.35050E+01 0.00000E+00
 -1      2327 7.81500E+01 4.22060E+01 0.00000E+00
 -1      2328 8.19000E+01 4.35050E+01 0.00000E+00
 -1      2329 8.34000E+01 4.35050E+01 0.00000E+00
 -1      2330 8.11500E+01 4.22060E+01 0.00000E+00
 -1      2331 8.49000E+01 4.35050E+01 0.00000E+00
 -1      2332 8.64000E+01 4.35050E+01 0.00000E+00
 -1      2333 8.41500E+01 4.22060E+01 0.00000E+00
 -1      2334 8.79000E+01 4.35050E+01 0.00000E+00
 -1      2335 8.94000E+01 4.35050E+01 0.00000E+00
 -1      2336 8.71500E+01 4.22060E+01 0.00000E+00
 -1      2337 9.09000E+01 4.35050E+01 0.00000E+00
 -1      2338 9.24000E+01 4.35050E+01 0.00000E+00
 -1      2339 9.01500E+01 4.22060E+01 0.00000E+00
 -1      2340 9.39000E+01 4.35050E+01 0.00000E+00
 -1      2341 9.54000E+01 4.35050E+01 0.00000E+00
 -1      2342 9.31500E+01 4.22060E+01 0.00000E+00
 -1      2343 9.69000E+01 4.35050E+01 0.00000E+00
 -1      2344 9.84000E+01 4.35050E+01 0.00000E+00
 -1      2345 9.61500E+01 4.22060E+01 0.00000E+00
 -1      2346 9.99000E+01 4.35050E+01 0.00000E+00
 -1      2347 1.01400E+02 4.35050E+01 0.00000E+00
 -1      2348 9.91500E+01 4.22060E+01 0.00000E+00
 -1      2349 1.02900E+02 4.35050E+01 0.00000E+00
 -1      2350 1.04400E+02 4.35050E+01 0.00000E+00
 -1      2351 1.02150E+02 4.22060E+01 0.00000E+00
 -1      2352 1.05900E+02 4.35050E+01 0.00000E+00
 -1      2353 1.07400E+02 4.35050E+01 0.00000E+00
 -1      2354 1.05150E+02 4.22060E+01 0.00000E+00
 -1      2355 1.08900E+02 4.35050E+01 0.00000E+00
 -1      2356 1.10400E+02 4.35050E+01 0.00000E+00
 -1      2357 1.08150E+02 4.22060E+01 0.00000E+00
 -1      2358 1.11900E+02 4.35050E+01 0.00000E+00
 -1      2359 1.13400E+02 4.35050E+01 0.00000E+00
 -1      2360 1.11150E+02 4.22060E+01 0.00000E+00
 -1      2361 1.14900E+02 4.35050E+01 0.00000E+00
 -1      2362 1.16400E+02 4.35050E+01 0.00000E+00
 -1      2363 1.14150E+02 4.22060E+01 0.00000E+00
 -1      2364 1.17900E+02 4.35050E+01 0.00000E+00
 -1      2365 1.19400E+02 4.35050E+01 0.00000E+00
 -1      2366 1.17150E+02 4.22060E+01 0.00000E+00
 -1      2367 1.20900E+02 4.35050E+01 0.00000E+00
 -1      2368 1.22400E+02 4.35050E+01 0.00000E+00
 -1      2369 1.20150E+02 4.22060E+01 0.00000E+00
 -1      2370 1.23900E+02 4.35050E+01 0.00000E+00
 -1      2371 1.25400E+02 4.35050E+01 0.00000E+00
 -1      2372 1.23150E+02 4.22060E+01 0.00000E+00
 -1      2373 1.26900E+02 4.35050E+01 0.00000E+00
 -1      2374 1.28400E+02 4.35050E+01 0.00000E+00
 -1      2375 1.26150E+02 4.22060E+01 0.00000E+00
 -1      2376 1.29900E+02 4.35050E+01 0.00000E+00
 -1      2377 1.31400E+02 4.35050E+01 0.00000E+00
 -1      2378 1.29150E+02 4.22060E+01 0.00000E+00
 -1      2379 1.32900E+02 4.35050E+01 0.00000E+00
 -1      2380 1.34400E+02 4.35050E+01 0.00000E+00
 -1      2381 1.32150E+02 4.22060E+01 0.00000E+00
 -1      2382 1.35900E+02 4.35050E+01 0.00000E+00
 -1      2383 1.37400E+02 4.35050E+01 0.00000E+00
 -1      2384 1.35150E+02 4.22060E+01 0.00000E+00
 -1      2385 1.38900E+02 4.35050E+01 0.00000E+00
 -1      2386 1.40400E+02 4.35050E+01 0.00000E+00
 -1      2387 1.38150E+02 4.22060E+01 0.00000E+00
 -1      2388 1.97850E+01 5.30525E+00 0.00000E+00
 -1      2389 1.82850E+01 5.30525E+00 0.00000E+00
 -1      2390 2.27850E+01 5.30525E+00 0.00000E+00
 -1      2391 2.12850E+01 5.30525E+00 0.00000E+00
 -1      2392 2.05350E+01 6.60425E+00 0.00000E+00
 -1      2393 2.57850E+01 5.30525E+00 0.00000E+00
 -1      2394 2.42850E+01 5.30525E+00 0.00000E+00
 -1      2395 2.35350E+01 6.60425E+00 0.00000E+00
 -1      2396 2.87850E+01 5.30525E+00 0.00000E+00
 -1      2397 2.72850E+01 5.30525E+00 0.00000E+00
 -1      2398 2.65350E+01 6.60425E+00 0.00000E+00
 -1      2399 3.17850E+01 5.30525E+00 0.00000E+00
 -1      2400 3.02850E+01 5.30525E+00 0.00000E+00
 -1      2401 2.95350E+01 6.60425E+00 0.00000E+00
 -1      2402 3.47850E+01 5.30525E+00 0.00000E+00
 -1      2403 3.32850E+01 5.30525E+00 0.00000E+00
 -1      2404 3.25350E+01 6.60425E+00 0.00000E+00
 -1      2405 3.77850E+01 5.30525E+00 0.00000E+00
 -1      2406 3.62850E+01 5.30525E+00 0.00000E+00
 -1      2407 3.55350E+01 6.60425E+00 0.00000E+00
 -1      2408 4.07850E+01 5.30525E+00 0.00000E+00
 -1      2409 3.92850E+01 5.30525E+00 0.00000E+00
 -1      2410 3.85350E+01 6.60425E+00 0.00000E+00
 -1      2411 4.37850E+01 5.30525E+00 0.00000E+00
 -1      2412 4.22850E+01 5.30525E+00 0.00000E+00
 -1      2413 4.15350E+01 6.60425E+00 0.00000E+00
 -1      2414 4.67850E+01 5.30525E+00 0.00000E+00
 -1      2415 4.52850E+01 5.30525E+00 0.00000E+00
 -1      2416 4.45350E+01 6.60425E+00 0.00000E+00
 -1      2417 4.97850E+01 5.30525E+00 0.00000E+00
 -1      2418 4.82850E+01 5.30525E+00 0.00000E+00
 -1      2419 4.75350E+01 6.60425E+00 0.00000E+00
 -1      2420 5.27850E+01 5.30525E+00 0.00000E+00
 -1      2421 5.12850E+01 5.30525E+00 0.00000E+00
 -1      2422 5.05350E+01 6.60425E+00 0.00000E+00
 -1      2423 5.57850E+01 5.30525E+00 0.00000E+00
 -1      2424 5.42850E+01 5.30525E+00 0.00000E+00
 -1      2425 5.35350E+01 6.60425E+00 0.00000E+00
 -1      2426 5.87850E+01 5.30525E+00 0.00000E+00
 -1      2427 5.72850E+01 5.30525E+00 0.00000E+00
 -1      2428 5.65350E+01 6.60425E+00 0.00000E+00
 -1      2429 6.17850E+01 5.30525E+00 0.00000E+00
 -1      2430 6.02850E+01 5.30525E+00 0.00000E+00
 -1      2431 5.95350E+01 6.60425E+00 0.00000E+00
 -1      2432 6.47850E+01 5.30525E+00 0.00000E+00
 -1      2433 6.32850E+01 5.30525E+00 0.00000E+00
 -1      2434 6.25350E+01 6.60425E+00 0.00000E+00
 -1      2435 6.77850E+01 5.30525E+00 0.00000E+00
 -1      2436 6.62850E+01 5.30525E+00 0.00000E+00
 -1      2437 6.55350E+01 6.60425E+00 0.00000E+00
 -1      2438 7.07850E+01 5.30525E+00 0.00000E+00
 -1      2439 6.92850E+01 5.30525E+00 0.00000E+00
 -1      2440 6.85350E+01 6.60425E+00 0.00000E+00
 -1      2441 7.37850E+01 5.30525E+00 0.00000E+00
 -1      2442 7.22850E+01 5.30525E+00 0.00000E+00
 -1      2443 7.15350E+01 6.60425E+00 0.00000E+00
 -1      2444 7.67850E+01 5.30525E+00 0.00000E+00
 -1      2445 7.52850E+01 5.30525E+00 0.00000E+00
 -1      2446 7.45350E+01 6.60425E+00 0.00000E+00
 -1      2447 7.97850E+01 5.30525E+00 0.00000E+00
 -1      2448 7.82850E+01 5.30525E+00 0.00000E+00
 -1      2449 7.75350E+01 6.60425E+00 0.00000E+00
 -1      2450 8.27850E+01 5.30525E+00 0.00000E+00
 -1      2451 8.12850E+01 5.30525E+00 0.00000E+00
 -1      2452 8.05350E+01 6.60425E+00 0.00000E+00
 -1      2453 8.57850E+01 5.30525E+00 0.00000E+00
 -1      2454 8.42850E+01 5.30525E+00 0.00000E+00
 -1      2455 8.35350E+01 6.60425E+00 0.00000E+00
 -1      2456 8.87850E+01 5.30525E+00 0.00000E+00
 -1      2457 8.72850E+01 5.30525E+00 0.00000E+00
 -1      2458 8.65350E+01 6.60425E+00 0.00000E+00
 -1      2459 9.17850E+01 5.30525E+00 0.00000E+00
 -1      2460 9.02850E+01 5.30525E+00 0.00000E+00
 -1      2461 8.95350E+01 6.60425E+00 0.00000E+00
 -1      2462 9.47850E+01 5.30525E+00 0.00000E+00
 -1      2463 9.32850E+01 5.30525E+00 0.00000E+00
 -1      2464 9.25350E+01 6.60425E+00 0.00000E+00
 -1      2465 9.77850E+01 5.30525E+00 0.00000E+00
 -1      2466 9.62850E+01 5.30525E+00 0.00000E+00
 -1      2467 9.55350E+01 6.60425E+00 0.00000E+00
 -1      2468 1.00785E+02 5.30525E+00 0.00000E+00
 -1      2469 9.92850E+01 5.30525E+00 0.00000E+00
 -1      2470 9.85350E+01 6.60425E+00 0.00000E+00
 -1      2471 1.03785E+02 5.30525E+00 0.00000E+00
 -1      2472 1.02285E+02 5.30525E+00 0.00000E+00
 -1      2473 1.01535E+02 6.60425E+00 0.00000E+00
 -1      2474 1.06785E+02 5.30525E+00 0.00000E+00
 -1      2475 1.05285E+02 5.30525E+00 0.00000E+00
 -1      2476 1.04535E+02 6.60425E+00 0.00000E+00
 -1      2477 1.09785E+02 5.30525E+00 0.00000E+00
 -1      2478 1.08285E+02 5.30525E+00 0.00000E+00
 -1      2479 1.07535E+02 6.60425E+00 0.00000E+00
 -1      2480 1.12785E+02 5.30525E+00 0.00000E+00
 -1      2481 1.11285E+02 5.30525E+00 0.00000E+00
 -1      2482 1.10535E+02 6.60425E+00 0.00000E+00
 -1      2483 1.15785E+02 5.30525E+00 0.00000E+00
 -1      2484 1.14285E+02 5.30525E+00 0.00000E+00
 -1      2485 1.13535E+02 6.60425E+00 0.00000E+00
 -1      2486 1.18785E+02 5.30525E+00 0.00000E+00
 -1      2487 1.17285E+02 5.30525E+00 0.00000E+00
 -1      2488 1.16535E+02 6.60425E+00 0.00000E+00
 -1      2489 1.21785E+02 5.30525E+00 0.00000E+00
 -1      2490 1.20285E+02 5.30525E+00 0.00000E+00
 -1      2491 1.19535E+02 6.60425E+00 0.00000E+00
 -1      2492 1.24785E+02 5.30525E+00 0.00000E+00
 -1      2493 1.23285E+02 5.30525E+00 0.00000E+00
 -1      2494 1.22535E+02 6.60425E+00 0.00000E+00
 -1      2495 1.27785E+02 5.30525E+00 0.00000E+00
 -1      2496 1.26285E+02 5.30525E+00 0.00000E+00
 -1      2497 1.25535E+02 6.60425E+00 0.00000E+00
 -1      2498 1.30785E+02 5.30525E+00 0.00000E+00
 -1      2499 1.29285E+02 5.30525E+00 0.00000E+00
 -1      2500 1.28535E+02 6.60425E+00 0.00000E+00
 -1      2501 1.33785E+02 5.30525E+00 0.00000E+00
 -1      2502 1.32285E+02 5.30525E+00 0.00000E+00
 -1      2503 1.31535E+02 6.60425E+00 0.00000E+00
 -1      2504 1.36785E+02 5.30525E+00 0.00000E+00
 -1      2505 1.35285E+02 5.30525E+00 0.00000E+00
 -1      2506 1.34535E+02 6.60425E+00 0.00000E+00
 -1      2507 1.39785E+02 5.30525E+00 0.00000E+00
 -1      2508 1.38285E+02 5.30525E+00 0.00000E+00
 -1      2509 1.37535E+02 6.60425E+00 0.00000E+00
 -1      2510 1.42785E+02 5.30525E+00 0.00000E+00
 -1      2511 1.41285E+02 5.30525E+00 0.00000E+00
 -1      2512 1.40535E+02 6.60425E+00 0.00000E+00
 -1      2513 1.44336E+02 5.26953E+00 0.00000E+00
 -1      2514 1.43505E+02 1.69125E+01 0.00000E+00
 -1      2515 1.43505E+02 1.54375E+01 0.00000E+00
 -1      2516 1.43505E+02 1.98625E+01 0.00000E+00
 -1      2517 1.43505E+02 1.83875E+01 0.00000E+00
 -1      2518 1.42206E+02 1.76500E+01 0.00000E+00
 -1      2519 1.43505E+02 1.10625E+01 0.00000E+00
 -1      2520 1.43505E+02 9.58750E+00 0.00000E+00
 -1      2521 1.43505E+02 1.39750E+01 0.00000E+00
 -1      2522 1.43505E+02 1.25250E+01 0.00000E+00
 -1      2523 1.42206E+02 1.17875E+01 0.00000E+00
 -1      2524 1.42206E+02 1.47125E+01 0.00000E+00
 -1      2525 1.43505E+02 2.28125E+01 0.00000E+00
 -1      2526 1.43505E+02 2.13375E+01 0.00000E+00
 -1      2527 1.42206E+02 2.06000E+01 0.00000E+00
 -1      2528 1.43505E+02 2.57625E+01 0.00000E+00
 -1      2529 1.43505E+02 2.42875E+01 0.00000E+00
 -1      2530 1.42206E+02 2.35500E+01 0.00000E+00
 -1      2531 1.43505E+02 2.87125E+01 0.00000E+00
 -1      2532 1.43505E+02 2.72375E+01 0.00000E+00
 -1      2533 1.42206E+02 2.65000E+01 0.00000E+00
 -1      2534 1.43505E+02 3.16125E+01 0.00000E+00
 -1      2535 1.43505E+02 3.01625E+01 0.00000E+00
 -1      2536 1.42206E+02 2.94250E+01 0.00000E+00
 -1      2537 1.43505E+02 3.45625E+01 0.00000E+00
 -1      2538 1.43505E+02 3.30875E+01 0.00000E+00
 -1      2539 1.42206E+02 3.23500E+01 0.00000E+00
 -1      2540 1.43505E+02 3.75125E+01 0.00000E+00
 -1      2541 1.43505E+02 3.60375E+01 0.00000E+00
 -1      2542 1.42206E+02 3.53000E+01 0.00000E+00
 -1      2543 1.43505E+02 4.04625E+01 0.00000E+00
 -1      2544 1.43505E+02 3.89875E+01 0.00000E+00
 -1      2545 1.42206E+02 3.82500E+01 0.00000E+00
 -1      2546 5.39429E+01 2.35483E+01 0.00000E+00
 -1      2547 5.39701E+01 2.45571E+01 0.00000E+00
 -1      2548 5.22512E+01 1.92159E+01 0.00000E+00
 -1      2549 5.27934E+01 2.01106E+01 0.00000E+00
 -1      2550 1.67850E+01 5.30525E+00 0.00000E+00
 -1      2551 1.52850E+01 5.30525E+00 0.00000E+00
 -1      2552 1.75350E+01 6.60425E+00 0.00000E+00
 -1      2553 4.71252E+01 1.51462E+01 0.00000E+00
 -1      2554 4.81221E+01 1.54245E+01 0.00000E+00
 -1      2555 1.44321E+02 4.30606E+01 0.00000E+00
 -1      2556 5.35668E+01 2.74257E+01 0.00000E+00
 -1      2557 5.32694E+01 2.84595E+01 0.00000E+00
 -1      2558 5.32878E+01 2.12278E+01 0.00000E+00
 -1      2559 5.36822E+01 2.22698E+01 0.00000E+00
 -1      2560 5.38332E+01 2.55864E+01 0.00000E+00
 -1      2561 5.37141E+01 2.63926E+01 0.00000E+00
 -1      2562 4.47801E+01 3.53322E+01 0.00000E+00
 -1      2563 4.38226E+01 3.52352E+01 0.00000E+00
 -1      2564 4.04309E+01 1.48770E+01 0.00000E+00
 -1      2565 4.15730E+01 1.45628E+01 0.00000E+00
 -1      2566 6.49500E+00 2.71625E+01 0.00000E+00
 -1      2567 6.49500E+00 2.86375E+01 0.00000E+00
 -1      2568 7.79400E+00 2.93750E+01 0.00000E+00
 -1      2569 7.79400E+00 2.64250E+01 0.00000E+00
 -1      2570 4.30176E+01 1.45324E+01 0.00000E+00
 -1      2571 4.40341E+01 1.47316E+01 0.00000E+00
 -1      2572 3.54704E+01 1.88230E+01 0.00000E+00
 -1      2573 3.61175E+01 1.81017E+01 0.00000E+00
 -1      2574 4.50410E+01 1.48327E+01 0.00000E+00
 -1      2575 4.60480E+01 1.49337E+01 0.00000E+00
 -1      2576 4.46815E+01 1.39738E+01 0.00000E+00
 -1      2577 3.84674E+01 1.56257E+01 0.00000E+00
 -1      2578 3.91744E+01 1.51782E+01 0.00000E+00
 -1      2579 3.69733E+01 3.32835E+01 0.00000E+00
 -1      2580 3.61759E+01 3.27012E+01 0.00000E+00
 -1      2581 3.68222E+01 1.71679E+01 0.00000E+00
 -1      2582 3.76448E+01 1.63968E+01 0.00000E+00
 -1      2583 3.74500E+01 1.53069E+01 0.00000E+00
 -1      2584 3.40782E+01 2.07870E+01 0.00000E+00
 -1      2585 3.47736E+01 1.97845E+01 0.00000E+00
 -1      2586 3.35726E+01 2.31841E+01 0.00000E+00
 -1      2587 3.35910E+01 2.21893E+01 0.00000E+00
 -1      2588 3.31445E+01 2.51726E+01 0.00000E+00
 -1      2589 3.33586E+01 2.41784E+01 0.00000E+00
 -1      2590 3.26360E+01 2.36675E+01 0.00000E+00
 -1      2591 3.42704E+01 2.98897E+01 0.00000E+00
 -1      2592 3.38533E+01 2.91735E+01 0.00000E+00
 -1      2593 5.05953E+01 3.26799E+01 0.00000E+00
 -1      2594 5.00452E+01 3.33630E+01 0.00000E+00
 -1      2595 3.52378E+01 3.18077E+01 0.00000E+00
 -1      2596 3.47541E+01 3.08487E+01 0.00000E+00
 -1      2597 3.36597E+01 3.10065E+01 0.00000E+00
 -1      2598 3.87655E+01 3.44286E+01 0.00000E+00
 -1      2599 3.78694E+01 3.38560E+01 0.00000E+00
 -1      2600 3.69156E+01 3.43252E+01 0.00000E+00
 -1      2601 4.08935E+01 3.51728E+01 0.00000E+00
 -1      2602 3.99796E+01 3.49776E+01 0.00000E+00
 -1      2603 4.28880E+01 3.51922E+01 0.00000E+00
 -1      2604 4.19548E+01 3.51170E+01 0.00000E+00
 -1      2605 4.67756E+01 3.50849E+01 0.00000E+00
 -1      2606 4.59527E+01 3.53204E+01 0.00000E+00
 -1      2607 4.89515E+01 3.41991E+01 0.00000E+00
 -1      2608 4.78874E+01 3.47273E+01 0.00000E+00
 -1      2609 5.19990E+01 3.12490E+01 0.00000E+00
 -1      2610 5.12971E+01 3.19644E+01 0.00000E+00
 -1      2611 5.16901E+01 3.28438E+01 0.00000E+00
 -1      2612 5.29575E+01 2.95352E+01 0.00000E+00
 -1      2613 5.25720E+01 3.03388E+01 0.00000E+00
 -1      2614 6.55950E+00 4.28890E+01 0.00000E+00
 -1      2615 8.53650E+00 4.32410E+01 0.00000E+00
 -1      2616 9.28650E+00 4.19420E+01 0.00000E+00
 -1      2617 6.55950E+00 4.14140E+01 0.00000E+00
 -1      2618 8.07525E+00 5.11044E+00 0.00000E+00
 -1      2619 6.57525E+00 5.11044E+00 0.00000E+00
 -1      2620 6.40575E+00 6.01981E+00 0.00000E+00
 -1      2621 8.82525E+00 6.40944E+00 0.00000E+00
 -1      2622 5.08346E+01 1.75798E+01 0.00000E+00
 -1      2623 5.15475E+01 1.82157E+01 0.00000E+00
 -1      2624 5.10996E+01 1.66043E+01 0.00000E+00
 -1      2625 3.95291E+01 1.42346E+01 0.00000E+00
 -1      2626 7.79400E+00 3.52687E+01 0.00000E+00
 -1      2627 6.49500E+00 3.60062E+01 0.00000E+00
 -1      2628 6.49500E+00 3.74750E+01 0.00000E+00
 -1      2629 1.45350E+01 6.60425E+00 0.00000E+00
 -1      2630 6.40575E+00 7.49481E+00 0.00000E+00
 -1      2631 6.55950E+00 3.99453E+01 0.00000E+00
 -1      2632 5.29649E+01 3.12182E+01 0.00000E+00
 -1      2633 4.98945E+01 3.43953E+01 0.00000E+00
 -1      2634 5.38498E+01 2.92323E+01 0.00000E+00
 -1      2635 4.76889E+01 3.55889E+01 0.00000E+00
 -1      2636 1.43586E+02 6.56853E+00 0.00000E+00
 -1      2637 5.25162E+01 1.82404E+01 0.00000E+00
 -1      2638 1.43419E+02 7.72713E+00 0.00000E+00
 -1      2639 4.32973E+01 3.59271E+01 0.00000E+00
 -1      2640 5.45931E+01 2.50611E+01 0.00000E+00
 -1      2641 5.44693E+01 2.27533E+01 0.00000E+00
 -1      2642 5.37142E+01 2.03577E+01 0.00000E+00
 -1      2643 3.50815E+01 3.28591E+01 0.00000E+00
 -1      2644 7.70475E+00 8.23231E+00 0.00000E+00
 -1      2645 4.67657E+01 1.42873E+01 0.00000E+00
 -1      2646 1.42758E+02 4.35929E+01 0.00000E+00
 -1      2647 1.43241E+02 4.17323E+01 0.00000E+00
 -1      2648 1.41942E+02 4.09948E+01 0.00000E+00
 -1      2649 1.41414E+02 4.35342E+01 0.00000E+00
 -1      2650 5.43090E+01 2.71235E+01 0.00000E+00
 -1      2651 3.27852E+01 2.59308E+01 0.00000E+00
 -1      2652 3.20626E+01 2.54199E+01 0.00000E+00
 -1      2653 3.24258E+01 2.66890E+01 0.00000E+00
 -1      2654 3.24850E+01 2.94977E+01 0.00000E+00
 -1      2655 3.31622E+01 2.86237E+01 0.00000E+00
 -1      2656 3.24712E+01 2.80739E+01 0.00000E+00
 -1      2657 3.59227E+01 1.70118E+01 0.00000E+00
 -1      2658 3.90258E+01 3.54468E+01 0.00000E+00
 -1      2659 4.14427E+01 1.32738E+01 0.00000E+00
 -1      2660 4.22301E+01 1.39031E+01 0.00000E+00
 -1      2661 4.28872E+01 1.32434E+01 0.00000E+00
 -1      2662 4.54045E+01 3.59583E+01 0.00000E+00
 -1      2663 3.45213E+01 1.89071E+01 0.00000E+00
 -1      2664 4.91149E+01 1.52341E+01 0.00000E+00
 -1      2665 5.01076E+01 1.50436E+01 0.00000E+00
 -1      2666 4.88358E+01 1.43093E+01 0.00000E+00
 -1      2667 3.33373E+01 2.12709E+01 0.00000E+00
 -1      2668 3.30836E+01 2.03525E+01 0.00000E+00
 -1      2669 3.25964E+01 2.17548E+01 0.00000E+00
 -1      2670 4.13013E+01 3.59399E+01 0.00000E+00
 -1      2671 1.42120E+02 8.46463E+00 0.00000E+00
 -1      2672 1.40664E+02 4.22352E+01 0.00000E+00
 -1      2673 9.09300E+00 1.98250E+01 0.00000E+00
 -1      2674 9.09300E+00 2.12750E+01 0.00000E+00
 -1      2675 9.09300E+00 2.27500E+01 0.00000E+00
 -1      2676 9.09300E+00 2.42250E+01 0.00000E+00
 -1      2677 1.03920E+01 2.20250E+01 0.00000E+00
 -1      2678 9.09300E+00 1.39375E+01 0.00000E+00
 -1      2679 9.09300E+00 1.54125E+01 0.00000E+00
 -1      2680 9.09300E+00 1.09875E+01 0.00000E+00
 -1      2681 9.09300E+00 1.24625E+01 0.00000E+00
 -1      2682 1.03920E+01 1.32000E+01 0.00000E+00
 -1      2683 1.22850E+01 7.90325E+00 0.00000E+00
 -1      2684 1.07850E+01 7.90325E+00 0.00000E+00
 -1      2685 4.63930E+01 1.33397E+01 0.00000E+00
 -1      2686 4.74703E+01 1.35522E+01 0.00000E+00
 -1      2687 5.12861E+01 1.56776E+01 0.00000E+00
 -1      2688 5.19991E+01 1.63135E+01 0.00000E+00
 -1      2689 8.91450E+00 8.42712E+00 0.00000E+00
 -1      2690 3.86424E+01 1.33068E+01 0.00000E+00
 -1      2691 3.98989E+01 1.30057E+01 0.00000E+00
 -1      2692 1.44000E+01 4.09070E+01 0.00000E+00
 -1      2693 1.59000E+01 4.09070E+01 0.00000E+00
 -1      2694 1.74000E+01 4.09070E+01 0.00000E+00
 -1      2695 1.89000E+01 4.09070E+01 0.00000E+00
 -1      2696 1.66500E+01 3.96080E+01 0.00000E+00
 -1      2697 2.04000E+01 4.09070E+01 0.00000E+00
 -1      2698 2.19000E+01 4.09070E+01 0.00000E+00
 -1      2699 1.96500E+01 3.96080E+01 0.00000E+00
 -1      2700 2.34000E+01 4.09070E+01 0.00000E+00
 -1      2701 2.49000E+01 4.09070E+01 0.00000E+00
 -1      2702 2.26500E+01 3.96080E+01 0.00000E+00
 -1      2703 2.64000E+01 4.09070E+01 0.00000E+00
 -1      2704 2.79000E+01 4.09070E+01 0.00000E+00
 -1      2705 2.56500E+01 3.96080E+01 0.00000E+00
 -1      2706 2.94000E+01 4.09070E+01 0.00000E+00
 -1      2707 3.09000E+01 4.09070E+01 0.00000E+00
 -1      2708 2.86500E+01 3.96080E+01 0.00000E+00
 -1      2709 3.24000E+01 4.09070E+01 0.00000E+00
 -1      2710 3.39000E+01 4.09070E+01 0.00000E+00
 -1      2711 3.16500E+01 3.96080E+01 0.00000E+00
 -1      2712 3.54000E+01 4.09070E+01 0.00000E+00
 -1      2713 3.69000E+01 4.09070E+01 0.00000E+00
 -1      2714 3.46500E+01 3.96080E+01 0.00000E+00
 -1      2715 3.84000E+01 4.09070E+01 0.00000E+00
 -1      2716 3.99000E+01 4.09070E+01 0.00000E+00
 -1      2717 3.76500E+01 3.96080E+01 0.00000E+00
 -1      2718 4.14000E+01 4.09070E+01 0.00000E+00
 -1      2719 4.29000E+01 4.09070E+01 0.00000E+00
 -1      2720 4.06500E+01 3.96080E+01 0.00000E+00
 -1      2721 4.44000E+01 4.09070E+01 0.00000E+00
 -1      2722 4.59000E+01 4.09070E+01 0.00000E+00
 -1      2723 4.36500E+01 3.96080E+01 0.00000E+00
 -1      2724 4.74000E+01 4.09070E+01 0.00000E+00
 -1      2725 4.89000E+01 4.09070E+01 0.00000E+00
 -1      2726 4.66500E+01 3.96080E+01 0.00000E+00
 -1      2727 5.04000E+01 4.09070E+01 0.00000E+00
 -1      2728 5.19000E+01 4.09070E+01 0.00000E+00
 -1      2729 4.96500E+01 3.96080E+01 0.00000E+00
 -1      2730 5.34000E+01 4.09070E+01 0.00000E+00
 -1      2731 5.49000E+01 4.09070E+01 0.00000E+00
 -1      2732 5.26500E+01 3.96080E+01 0.00000E+00
 -1      2733 5.64000E+01 4.09070E+01 0.00000E+00
 -1      2734 5.79000E+01 4.09070E+01 0.00000E+00
 -1      2735 5.56500E+01 3.96080E+01 0.00000E+00
 -1      2736 5.94000E+01 4.09070E+01 0.00000E+00
 -1      2737 6.09000E+01 4.09070E+01 0.00000E+00
 -1      2738 5.86500E+01 3.96080E+01 0.00000E+00
 -1      2739 6.24000E+01 4.09070E+01 0.00000E+00
 -1      2740 6.39000E+01 4.09070E+01 0.00000E+00
 -1      2741 6.16500E+01 3.96080E+01 0.00000E+00
 -1      2742 6.54000E+01 4.09070E+01 0.00000E+00
 -1      2743 6.69000E+01 4.09070E+01 0.00000E+00
 -1      2744 6.46500E+01 3.96080E+01 0.00000E+00
 -1      2745 6.84000E+01 4.09070E+01 0.00000E+00
 -1      2746 6.99000E+01 4.09070E+01 0.00000E+00
 -1      2747 6.76500E+01 3.96080E+01 0.00000E+00
 -1      2748 7.14000E+01 4.09070E+01 0.00000E+00
 -1      2749 7.29000E+01 4.09070E+01 0.00000E+00
 -1      2750 7.06500E+01 3.96080E+01 0.00000E+00
 -1      2751 7.44000E+01 4.09070E+01 0.00000E+00
 -1      2752 7.59000E+01 4.09070E+01 0.00000E+00
 -1      2753 7.36500E+01 3.96080E+01 0.00000E+00
 -1      2754 7.74000E+01 4.09070E+01 0.00000E+00
 -1      2755 7.89000E+01 4.09070E+01 0.00000E+00
 -1      2756 7.66500E+01 3.96080E+01 0.00000E+00
 -1      2757 8.04000E+01 4.09070E+01 0.00000E+00
 -1      2758 8.19000E+01 4.09070E+01 0.00000E+00
 -1      2759 7.96500E+01 3.96080E+01 0.00000E+00
 -1      2760 8.34000E+01 4.09070E+01 0.00000E+00
 -1      2761 8.49000E+01 4.09070E+01 0.00000E+00
 -1      2762 8.26500E+01 3.96080E+01 0.00000E+00
 -1      2763 8.64000E+01 4.09070E+01 0.00000E+00
 -1      2764 8.79000E+01 4.09070E+01 0.00000E+00
 -1      2765 8.56500E+01 3.96080E+01 0.00000E+00
 -1      2766 8.94000E+01 4.09070E+01 0.00000E+00
 -1      2767 9.09000E+01 4.09070E+01 0.00000E+00
 -1      2768 8.86500E+01 3.96080E+01 0.00000E+00
 -1      2769 9.24000E+01 4.09070E+01 0.00000E+00
 -1      2770 9.39000E+01 4.09070E+01 0.00000E+00
 -1      2771 9.16500E+01 3.96080E+01 0.00000E+00
 -1      2772 9.54000E+01 4.09070E+01 0.00000E+00
 -1      2773 9.69000E+01 4.09070E+01 0.00000E+00
 -1      2774 9.46500E+01 3.96080E+01 0.00000E+00
 -1      2775 9.84000E+01 4.09070E+01 0.00000E+00
 -1      2776 9.99000E+01 4.09070E+01 0.00000E+00
 -1      2777 9.76500E+01 3.96080E+01 0.00000E+00
 -1      2778 1.01400E+02 4.09070E+01 0.00000E+00
 -1      2779 1.02900E+02 4.09070E+01 0.00000E+00
 -1      2780 1.00650E+02 3.96080E+01 0.00000E+00
 -1      2781 1.04400E+02 4.09070E+01 0.00000E+00
 -1      2782 1.05900E+02 4.09070E+01 0.00000E+00
 -1      2783 1.03650E+02 3.96080E+01 0.00000E+00
 -1      2784 1.07400E+02 4.09070E+01 0.00000E+00
 -1      2785 1.08900E+02 4.09070E+01 0.00000E+00
 -1      2786 1.06650E+02 3.96080E+01 0.00000E+00
 -1      2787 1.10400E+02 4.09070E+01 0.00000E+00
 -1      2788 1.11900E+02 4.09070E+01 0.00000E+00
 -1      2789 1.09650E+02 3.96080E+01 0.00000E+00
 -1      2790 1.13400E+02 4.09070E+01 0.00000E+00
 -1      2791 1.14900E+02 4.09070E+01 0.00000E+00
 -1      2792 1.12650E+02 3.96080E+01 0.00000E+00
 -1      2793 1.16400E+02 4.09070E+01 0.00000E+00
 -1      2794 1.17900E+02 4.09070E+01 0.00000E+00
 -1      2795 1.15650E+02 3.96080E+01 0.00000E+00
 -1      2796 1.19400E+02 4.09070E+01 0.00000E+00
 -1      2797 1.20900E+02 4.09070E+01 0.00000E+00
 -1      2798 1.18650E+02 3.96080E+01 0.00000E+00
 -1      2799 1.22400E+02 4.09070E+01 0.00000E+00
 -1      2800 1.23900E+02 4.09070E+01 0.00000E+00
 -1      2801 1.21650E+02 3.96080E+01 0.00000E+00
 -1      2802 1.25400E+02 4.09070E+01 0.00000E+00
 -1      2803 1.26900E+02 4.09070E+01 0.00000E+00
 -1      2804 1.24650E+02 3.96080E+01 0.00000E+00
 -1      2805 1.28400E+02 4.09070E+01 0.00000E+00
 -1      2806 1.29900E+02 4.09070E+01 0.00000E+00
 -1      2807 1.27650E+02 3.96080E+01 0.00000E+00
 -1      2808 1.31400E+02 4.09070E+01 0.00000E+00
 -1      2809 1.32900E+02 4.09070E+01 0.00000E+00
 -1      2810 1.30650E+02 3.96080E+01 0.00000E+00
 -1      2811 1.34400E+02 4.09070E+01 0.00000E+00
 -1      2812 1.35900E+02 4.09070E+01 0.00000E+00
 -1      2813 1.33650E+02 3.96080E+01 0.00000E+00
 -1      2814 1.37400E+02 4.09070E+01 0.00000E+00
 -1      2815 1.38900E+02 4.09070E+01 0.00000E+00
 -1      2816 1.36650E+02 3.96080E+01 0.00000E+00
 -1      2817 2.42850E+01 7.90325E+00 0.00000E+00
 -1      2818 2.27850E+01 7.90325E+00 0.00000E+00
 -1      2819 5.51901E+01 2.67220E+01 0.00000E+00
 -1      2820 5.50428E+01 2.77551E+01 0.00000E+00
 -1      2821 2.12850E+01 7.90325E+00 0.00000E+00
 -1      2822 1.97850E+01 7.90325E+00 0.00000E+00
 -1      2823 2.20350E+01 9.20225E+00 0.00000E+00
 -1      2824 3.02850E+01 7.90325E+00 0.00000E+00
 -1      2825 2.87850E+01 7.90325E+00 0.00000E+00
 -1      2826 3.32850E+01 7.90325E+00 0.00000E+00
 -1      2827 3.17850E+01 7.90325E+00 0.00000E+00
 -1      2828 3.10350E+01 9.20225E+00 0.00000E+00
 -1      2829 3.62850E+01 7.90325E+00 0.00000E+00
 -1      2830 3.47850E+01 7.90325E+00 0.00000E+00
 -1      2831 3.40350E+01 9.20225E+00 0.00000E+00
 -1      2832 3.92850E+01 7.90325E+00 0.00000E+00
 -1      2833 3.77850E+01 7.90325E+00 0.00000E+00
 -1      2834 3.70350E+01 9.20225E+00 0.00000E+00
 -1      2835 4.22850E+01 7.90325E+00 0.00000E+00
 -1      2836 4.07850E+01 7.90325E+00 0.00000E+00
 -1      2837 4.00350E+01 9.20225E+00 0.00000E+00
 -1      2838 4.52850E+01 7.90325E+00 0.00000E+00
 -1      2839 4.37850E+01 7.90325E+00 0.00000E+00
 -1      2840 4.30350E+01 9.20225E+00 0.00000E+00
 -1      2841 4.82850E+01 7.90325E+00 0.00000E+00
 -1      2842 4.67850E+01 7.90325E+00 0.00000E+00
 -1      2843 4.60350E+01 9.20225E+00 0.00000E+00
 -1      2844 5.12850E+01 7.90325E+00 0.00000E+00
 -1      2845 4.97850E+01 7.90325E+00 0.00000E+00
 -1      2846 4.90350E+01 9.20225E+00 0.00000E+00
 -1      2847 5.42850E+01 7.90325E+00 0.00000E+00
 -1      2848 5.27850E+01 7.90325E+00 0.00000E+00
 -1      2849 5.20350E+01 9.20225E+00 0.00000E+00
 -1      2850 5.72850E+01 7.90325E+00 0.00000E+00
 -1      2851 5.57850E+01 7.90325E+00 0.00000E+00
 -1      2852 5.50350E+01 9.20225E+00 0.00000E+00
 -1      2853 6.02850E+01 7.90325E+00 0.00000E+00
 -1      2854 5.87850E+01 7.90325E+00 0.00000E+00
 -1      2855 5.80350E+01 9.20225E+00 0.00000E+00
 -1      2856 6.32850E+01 7.90325E+00 0.00000E+00
 -1      2857 6.17850E+01 7.90325E+00 0.00000E+00
 -1      2858 6.10350E+01 9.20225E+00 0.00000E+00
 -1      2859 6.62850E+01 7.90325E+00 0.00000E+00
 -1      2860 6.47850E+01 7.90325E+00 0.00000E+00
 -1      2861 6.40350E+01 9.20225E+00 0.00000E+00
 -1      2862 6.92850E+01 7.90325E+00 0.00000E+00
 -1      2863 6.77850E+01 7.90325E+00 0.00000E+00
 -1      2864 6.70350E+01 9.20225E+00 0.00000E+00
 -1      2865 7.22850E+01 7.90325E+00 0.00000E+00
 -1      2866 7.07850E+01 7.90325E+00 0.00000E+00
 -1      2867 7.00350E+01 9.20225E+00 0.00000E+00
 -1      2868 7.52850E+01 7.90325E+00 0.00000E+00
 -1      2869 7.37850E+01 7.90325E+00 0.00000E+00
 -1      2870 7.30350E+01 9.20225E+00 0.00000E+00
 -1      2871 7.82850E+01 7.90325E+00 0.00000E+00
 -1      2872 7.67850E+01 7.90325E+00 0.00000E+00
 -1      2873 7.60350E+01 9.20225E+00 0.00000E+00
 -1      2874 8.12850E+01 7.90325E+00 0.00000E+00
 -1      2875 7.97850E+01 7.90325E+00 0.00000E+00
 -1      2876 7.90350E+01 9.20225E+00 0.00000E+00
 -1      2877 8.42850E+01 7.90325E+00 0.00000E+00
 -1      2878 8.27850E+01 7.90325E+00 0.00000E+00
 -1      2879 8.20350E+01 9.20225E+00 0.00000E+00
 -1      2880 8.72850E+01 7.90325E+00 0.00000E+00
 -1      2881 8.57850E+01 7.90325E+00 0.00000E+00
 -1      2882 8.50350E+01 9.20225E+00 0.00000E+00
 -1      2883 9.02850E+01 7.90325E+00 0.00000E+00
 -1      2884 8.87850E+01 7.90325E+00 0.00000E+00
 -1      2885 8.80350E+01 9.20225E+00 0.00000E+00
 -1      2886 9.32850E+01 7.90325E+00 0.00000E+00
 -1      2887 9.17850E+01 7.90325E+00 0.00000E+00
 -1      2888 9.10350E+01 9.20225E+00 0.00000E+00
 -1      2889 9.62850E+01 7.90325E+00 0.00000E+00
 -1      2890 9.47850E+01 7.90325E+00 0.00000E+00
 -1      2891 9.40350E+01 9.20225E+00 0.00000E+00
 -1      2892 9.92850E+01 7.90325E+00 0.00000E+00
 -1      2893 9.77850E+01 7.90325E+00 0.00000E+00
 -1      2894 9.70350E+01 9.20225E+00 0.00000E+00
 -1      2895 1.02285E+02 7.90325E+00 0.00000E+00
 -1      2896 1.00785E+02 7.90325E+00 0.00000E+00
 -1      2897 1.00035E+02 9.20225E+00 0.00000E+00
 -1      2898 1.05285E+02 7.90325E+00 0.00000E+00
 -1      2899 1.03785E+02 7.90325E+00 0.00000E+00
 -1      2900 1.03035E+02 9.20225E+00 0.00000E+00
 -1      2901 1.08285E+02 7.90325E+00 0.00000E+00
 -1      2902 1.06785E+02 7.90325E+00 0.00000E+00
 -1      2903 1.06035E+02 9.20225E+00 0.00000E+00
 -1      2904 1.11285E+02 7.90325E+00 0.00000E+00
 -1      2905 1.09785E+02 7.90325E+00 0.00000E+00
 -1      2906 1.09035E+02 9.20225E+00 0.00000E+00
 -1      2907 1.14285E+02 7.90325E+00 0.00000E+00
 -1      2908 1.12785E+02 7.90325E+00 0.00000E+00
 -1      2909 1.12035E+02 9.20225E+00 0.00000E+00
 -1      2910 1.17285E+02 7.90325E+00 0.00000E+00
 -1      2911 1.15785E+02 7.90325E+00 0.00000E+00
 -1      2912 1.15035E+02 9.20225E+00 0.00000E+00
 -1      2913 1.20285E+02 7.90325E+00 0.00000E+00
 -1      2914 1.18785E+02 7.90325E+00 0.00000E+00
 -1      2915 1.18035E+02 9.20225E+00 0.00000E+00
 -1      2916 1.23285E+02 7.90325E+00 0.00000E+00
 -1      2917 1.21785E+02 7.90325E+00 0.00000E+00
 -1      2918 1.21035E+02 9.20225E+00 0.00000E+00
 -1      2919 1.26285E+02 7.90325E+00 0.00000E+00
 -1      2920 1.24785E+02 7.90325E+00 0.00000E+00
 -1      2921 1.24035E+02 9.20225E+00 0.00000E+00
 -1      2922 1.29285E+02 7.90325E+00 0.00000E+00
 -1      2923 1.27785E+02 7.90325E+00 0.00000E+00
 -1      2924 1.27035E+02 9.20225E+00 0.00000E+00
 -1      2925 1.32285E+02 7.90325E+00 0.00000E+00
 -1      2926 1.30785E+02 7.90325E+00 0.00000E+00
 -1      2927 1.30035E+02 9.20225E+00 0.00000E+00
 -1      2928 1.35285E+02 7.90325E+00 0.00000E+00
 -1      2929 1.33785E+02 7.90325E+00 0.00000E+00
 -1      2930 1.33035E+02 9.20225E+00 0.00000E+00
 -1      2931 1.38285E+02 7.90325E+00 0.00000E+00
 -1      2932 1.36785E+02 7.90325E+00 0.00000E+00
 -1      2933 1.36035E+02 9.20225E+00 0.00000E+00
 -1      2934 1.40953E+02 8.18394E+00 0.00000E+00
 -1      2935 1.39453E+02 8.18394E+00 0.00000E+00
 -1      2936 1.38703E+02 9.48294E+00 0.00000E+00
 -1      2937 1.41038E+02 1.00443E+01 0.00000E+00
 -1      2938 5.28658E+01 1.72468E+01 0.00000E+00
 -1      2939 5.35694E+01 1.82470E+01 0.00000E+00
 -1      2940 1.40907E+02 2.42875E+01 0.00000E+00
 -1      2941 1.40907E+02 2.28125E+01 0.00000E+00
 -1      2942 1.39914E+02 4.09362E+01 0.00000E+00
 -1      2943 1.40928E+02 4.09655E+01 0.00000E+00
 -1      2944 1.39164E+02 3.96372E+01 0.00000E+00
 -1      2945 1.40907E+02 1.83875E+01 0.00000E+00
 -1      2946 1.40907E+02 1.69125E+01 0.00000E+00
 -1      2947 1.40907E+02 2.72375E+01 0.00000E+00
 -1      2948 1.40907E+02 2.57625E+01 0.00000E+00
 -1      2949 1.39608E+02 2.50250E+01 0.00000E+00
 -1      2950 1.40907E+02 2.13375E+01 0.00000E+00
 -1      2951 1.40907E+02 1.98625E+01 0.00000E+00
 -1      2952 1.39608E+02 1.91250E+01 0.00000E+00
 -1      2953 1.39608E+02 2.20750E+01 0.00000E+00
 -1      2954 1.40907E+02 3.01375E+01 0.00000E+00
 -1      2955 1.40907E+02 2.86875E+01 0.00000E+00
 -1      2956 1.39608E+02 2.79500E+01 0.00000E+00
 -1      2957 1.40907E+02 3.30875E+01 0.00000E+00
 -1      2958 1.40907E+02 3.16125E+01 0.00000E+00
 -1      2959 1.39608E+02 3.08750E+01 0.00000E+00
 -1      2960 1.40907E+02 3.60375E+01 0.00000E+00
 -1      2961 1.40907E+02 3.45625E+01 0.00000E+00
 -1      2962 1.39608E+02 3.38250E+01 0.00000E+00
 -1      2963 5.11148E+01 3.48583E+01 0.00000E+00
 -1      2964 5.00210E+01 3.56943E+01 0.00000E+00
 -1      2965 5.41746E+01 1.94860E+01 0.00000E+00
 -1      2966 5.46690E+01 2.06031E+01 0.00000E+00
 -1      2967 5.54638E+01 2.46635E+01 0.00000E+00
 -1      2968 5.53270E+01 2.56928E+01 0.00000E+00
 -1      2969 5.60608E+01 2.63244E+01 0.00000E+00
 -1      2970 4.42721E+01 1.29866E+01 0.00000E+00
 -1      2971 4.52790E+01 1.30876E+01 0.00000E+00
 -1      2972 3.48190E+01 1.69116E+01 0.00000E+00
 -1      2973 3.55236E+01 1.59778E+01 0.00000E+00
 -1      2974 5.53434E+01 2.19093E+01 0.00000E+00
 -1      2975 5.56041E+01 2.31878E+01 0.00000E+00
 -1      2976 3.48435E+01 3.40481E+01 0.00000E+00
 -1      2977 3.39054E+01 3.31545E+01 0.00000E+00
 -1      2978 1.82850E+01 7.90325E+00 0.00000E+00
 -1      2979 1.67850E+01 7.90325E+00 0.00000E+00
 -1      2980 1.90350E+01 9.20225E+00 0.00000E+00
 -1      2981 2.72850E+01 7.90325E+00 0.00000E+00
 -1      2982 2.57850E+01 7.90325E+00 0.00000E+00
 -1      2983 2.50350E+01 9.20225E+00 0.00000E+00
 -1      2984 2.80350E+01 9.20225E+00 0.00000E+00
 -1      2985 1.14000E+01 4.09070E+01 0.00000E+00
 -1      2986 1.29000E+01 4.09070E+01 0.00000E+00
 -1      2987 1.36500E+01 3.96080E+01 0.00000E+00
 -1      2988 1.52850E+01 7.90325E+00 0.00000E+00
 -1      2989 1.37850E+01 7.90325E+00 0.00000E+00
 -1      2990 1.30350E+01 9.20225E+00 0.00000E+00
 -1      2991 1.60350E+01 9.20225E+00 0.00000E+00
 -1      2992 7.85850E+00 3.92077E+01 0.00000E+00
 -1      2993 5.39771E+01 3.12199E+01 0.00000E+00
 -1      2994 5.34041E+01 3.21301E+01 0.00000E+00
 -1      2995 9.09300E+00 1.68813E+01 0.00000E+00
 -1      2996 9.09300E+00 1.83563E+01 0.00000E+00
 -1      2997 1.03920E+01 1.90812E+01 0.00000E+00
 -1      2998 1.03920E+01 1.61437E+01 0.00000E+00
 -1      2999 3.92450E+01 3.65790E+01 0.00000E+00
 -1      3000 3.80309E+01 3.60300E+01 0.00000E+00
 -1      3001 1.41192E+02 3.96958E+01 0.00000E+00
 -1      3002 9.09300E+00 3.15875E+01 0.00000E+00
 -1      3003 9.09300E+00 3.30625E+01 0.00000E+00
 -1      3004 3.63949E+01 1.50056E+01 0.00000E+00
 -1      3005 3.72175E+01 1.42345E+01 0.00000E+00
 -1      3006 4.18858E+01 3.69357E+01 0.00000E+00
 -1      3007 4.08245E+01 3.69916E+01 0.00000E+00
 -1      3008 3.17725E+01 2.40017E+01 0.00000E+00
 -1      3009 3.19866E+01 2.30075E+01 0.00000E+00
 -1      3010 3.68117E+01 3.54753E+01 0.00000E+00
 -1      3011 3.59156E+01 3.49027E+01 0.00000E+00
 -1      3012 5.49903E+01 2.89799E+01 0.00000E+00
 -1      3013 5.46784E+01 3.00556E+01 0.00000E+00
 -1      3014 4.59994E+01 3.68099E+01 0.00000E+00
 -1      3015 4.48268E+01 3.68218E+01 0.00000E+00
 -1      3016 3.30611E+01 3.19100E+01 0.00000E+00
 -1      3017 3.25774E+01 3.09510E+01 0.00000E+00
 -1      3018 3.34255E+01 1.88347E+01 0.00000E+00
 -1      3019 3.41222E+01 1.78732E+01 0.00000E+00
 -1      3020 3.37232E+01 1.68392E+01 0.00000E+00
 -1      3021 4.38236E+01 3.69003E+01 0.00000E+00
 -1      3022 4.28890E+01 3.68572E+01 0.00000E+00
 -1      3023 4.24122E+01 3.79089E+01 0.00000E+00
 -1      3024 4.44186E+01 3.77519E+01 0.00000E+00
 -1      3025 5.27130E+01 3.31453E+01 0.00000E+00
 -1      3026 5.20111E+01 3.38607E+01 0.00000E+00
 -1      3027 4.85587E+01 3.63860E+01 0.00000E+00
 -1      3028 4.74468E+01 3.67436E+01 0.00000E+00
 -1      3029 9.09300E+00 3.45313E+01 0.00000E+00
 -1      3030 9.09300E+00 3.60000E+01 0.00000E+00
 -1      3031 1.03920E+01 3.37938E+01 0.00000E+00
 -1      3032 1.03920E+01 2.49750E+01 0.00000E+00
 -1      3033 9.09300E+00 2.57000E+01 0.00000E+00
 -1      3034 9.09300E+00 2.71750E+01 0.00000E+00
 -1      3035 4.80904E+01 1.24141E+01 0.00000E+00
 -1      3036 4.84631E+01 1.33617E+01 0.00000E+00
 -1      3037 4.94559E+01 1.31713E+01 0.00000E+00
 -1      3038 5.30522E+01 1.63202E+01 0.00000E+00
 -1      3039 9.66450E+00 9.72612E+00 0.00000E+00
 -1      3040 3.75873E+01 1.30056E+01 0.00000E+00
 -1      3041 3.70309E+01 3.66075E+01 0.00000E+00
 -1      3042 3.26846E+01 1.93186E+01 0.00000E+00
 -1      3043 3.22855E+01 1.82847E+01 0.00000E+00
 -1      3044 3.19436E+01 1.98025E+01 0.00000E+00
 -1      3045 3.28231E+01 3.30990E+01 0.00000E+00
 -1      3046 1.39608E+02 1.61875E+01 0.00000E+00
 -1      3047 1.40907E+02 1.54500E+01 0.00000E+00
 -1      3048 1.40907E+02 1.39875E+01 0.00000E+00
 -1      3049 5.58715E+01 2.85785E+01 0.00000E+00
 -1      3050 4.68692E+01 3.76070E+01 0.00000E+00
 -1      3051 1.09635E+01 1.04636E+01 0.00000E+00
 -1      3052 1.40973E+02 1.27472E+01 0.00000E+00
 -1      3053 1.40973E+02 1.12847E+01 0.00000E+00
 -1      3054 1.39805E+02 1.10040E+01 0.00000E+00
 -1      3055 1.39674E+02 1.34847E+01 0.00000E+00
 -1      3056 5.45242E+01 1.84925E+01 0.00000E+00
 -1      3057 3.47395E+01 3.51982E+01 0.00000E+00
 -1      3058 4.97790E+01 3.68490E+01 0.00000E+00
 -1      3059 5.21377E+01 3.51598E+01 0.00000E+00
 -1      3060 1.41192E+02 3.82207E+01 0.00000E+00
 -1      3061 5.58038E+01 2.10376E+01 0.00000E+00
 -1      3062 5.63380E+01 2.38194E+01 0.00000E+00
 -1      3063 3.98295E+01 3.75748E+01 0.00000E+00
 -1      3064 3.17486E+01 2.75630E+01 0.00000E+00
 -1      3065 3.10539E+01 2.55181E+01 0.00000E+00
 -1      3066 3.14132E+01 2.47599E+01 0.00000E+00
 -1      3067 3.07638E+01 2.40999E+01 0.00000E+00
 -1      3068 4.34847E+01 1.23573E+01 0.00000E+00
 -1      3069 3.18864E+01 3.04012E+01 0.00000E+00
 -1      3070 3.11953E+01 2.98514E+01 0.00000E+00
 -1      3071 3.12877E+01 3.13046E+01 0.00000E+00
 -1      3072 4.59836E+01 1.23525E+01 0.00000E+00
 -1      3073 4.05560E+01 1.23459E+01 0.00000E+00
 -1      3074 3.52912E+01 1.49055E+01 0.00000E+00
 -1      3075 5.37252E+01 3.31471E+01 0.00000E+00
 -1      3076 5.10070E+01 1.47529E+01 0.00000E+00
 -1      3077 9.15750E+00 3.77359E+01 0.00000E+00
 -1      3078 9.22200E+00 4.02061E+01 0.00000E+00
 -1      3079 1.05855E+01 4.04701E+01 0.00000E+00
 -1      3080 1.04565E+01 3.69984E+01 0.00000E+00
 -1      3081 9.09300E+00 2.86437E+01 0.00000E+00
 -1      3082 9.09300E+00 3.01187E+01 0.00000E+00
 -1      3083 1.03920E+01 3.08563E+01 0.00000E+00
 -1      3084 1.03920E+01 2.79188E+01 0.00000E+00
 -1      3085 5.51177E+01 3.09676E+01 0.00000E+00
 -1      3086 3.17329E+01 2.20891E+01 0.00000E+00
 -1      3087 3.14792E+01 2.11707E+01 0.00000E+00
 -1      3088 3.08694E+01 2.24233E+01 0.00000E+00
 -1      3089 1.13355E+01 3.91711E+01 0.00000E+00
 -1      3090 1.39529E+02 3.85602E+01 0.00000E+00
 -1      3091 1.40542E+02 3.71145E+01 0.00000E+00
 -1      3092 1.39243E+02 3.63770E+01 0.00000E+00
 -1      3093 1.38514E+02 3.85310E+01 0.00000E+00
 -1      3094 3.63155E+01 1.26104E+01 0.00000E+00
 -1      3095 3.77405E+01 1.16826E+01 0.00000E+00
 -1      3096 1.16910E+01 1.24625E+01 0.00000E+00
 -1      3097 1.16910E+01 1.39375E+01 0.00000E+00
 -1      3098 1.29000E+01 3.83090E+01 0.00000E+00
 -1      3099 1.44000E+01 3.83090E+01 0.00000E+00
 -1      3100 1.89000E+01 3.83090E+01 0.00000E+00
 -1      3101 2.04000E+01 3.83090E+01 0.00000E+00
 -1      3102 2.19000E+01 3.83090E+01 0.00000E+00
 -1      3103 2.34000E+01 3.83090E+01 0.00000E+00
 -1      3104 2.11500E+01 3.70100E+01 0.00000E+00
 -1      3105 2.49000E+01 3.83090E+01 0.00000E+00
 -1      3106 2.64000E+01 3.83090E+01 0.00000E+00
 -1      3107 2.41500E+01 3.70100E+01 0.00000E+00
 -1      3108 2.79000E+01 3.83090E+01 0.00000E+00
 -1      3109 2.94000E+01 3.83090E+01 0.00000E+00
 -1      3110 2.71500E+01 3.70100E+01 0.00000E+00
 -1      3111 3.09000E+01 3.83090E+01 0.00000E+00
 -1      3112 3.24000E+01 3.83090E+01 0.00000E+00
 -1      3113 3.01500E+01 3.70100E+01 0.00000E+00
 -1      3114 4.02795E+01 3.87977E+01 0.00000E+00
 -1      3115 4.17795E+01 3.87977E+01 0.00000E+00
 -1      3116 4.52859E+01 3.86407E+01 0.00000E+00
 -1      3117 4.67859E+01 3.86407E+01 0.00000E+00
 -1      3118 4.82333E+01 3.85743E+01 0.00000E+00
 -1      3119 4.97333E+01 3.85743E+01 0.00000E+00
 -1      3120 5.19000E+01 3.83090E+01 0.00000E+00
 -1      3121 5.34000E+01 3.83090E+01 0.00000E+00
 -1      3122 5.49000E+01 3.83090E+01 0.00000E+00
 -1      3123 5.64000E+01 3.83090E+01 0.00000E+00
 -1      3124 5.41500E+01 3.70100E+01 0.00000E+00
 -1      3125 5.79000E+01 3.83090E+01 0.00000E+00
 -1      3126 5.94000E+01 3.83090E+01 0.00000E+00
 -1      3127 5.71500E+01 3.70100E+01 0.00000E+00
 -1      3128 6.09000E+01 3.83090E+01 0.00000E+00
 -1      3129 6.24000E+01 3.83090E+01 0.00000E+00
 -1      3130 6.01500E+01 3.70100E+01 0.00000E+00
 -1      3131 6.39000E+01 3.83090E+01 0.00000E+00
 -1      3132 6.54000E+01 3.83090E+01 0.00000E+00
 -1      3133 6.31500E+01 3.70100E+01 0.00000E+00
 -1      3134 6.69000E+01 3.83090E+01 0.00000E+00
 -1      3135 6.84000E+01 3.83090E+01 0.00000E+00
 -1      3136 6.61500E+01 3.70100E+01 0.00000E+00
 -1      3137 6.99000E+01 3.83090E+01 0.00000E+00
 -1      3138 7.14000E+01 3.83090E+01 0.00000E+00
 -1      3139 6.91500E+01 3.70100E+01 0.00000E+00
 -1      3140 7.29000E+01 3.83090E+01 0.00000E+00
 -1      3141 7.44000E+01 3.83090E+01 0.00000E+00
 -1      3142 7.21500E+01 3.70100E+01 0.00000E+00
 -1      3143 7.59000E+01 3.83090E+01 0.00000E+00
 -1      3144 7.74000E+01 3.83090E+01 0.00000E+00
 -1      3145 7.51500E+01 3.70100E+01 0.00000E+00
 -1      3146 7.89000E+01 3.83090E+01 0.00000E+00
 -1      3147 8.04000E+01 3.83090E+01 0.00000E+00
 -1      3148 7.81500E+01 3.70100E+01 0.00000E+00
 -1      3149 8.19000E+01 3.83090E+01 0.00000E+00
 -1      3150 8.34000E+01 3.83090E+01 0.00000E+00
 -1      3151 8.11500E+01 3.70100E+01 0.00000E+00
 -1      3152 8.49000E+01 3.83090E+01 0.00000E+00
 -1      3153 8.64000E+01 3.83090E+01 0.00000E+00
 -1      3154 8.41500E+01 3.70100E+01 0.00000E+00
 -1      3155 8.79000E+01 3.83090E+01 0.00000E+00
 -1      3156 8.94000E+01 3.83090E+01 0.00000E+00
 -1      3157 8.71500E+01 3.70100E+01 0.00000E+00
 -1      3158 9.09000E+01 3.83090E+01 0.00000E+00
 -1      3159 9.24000E+01 3.83090E+01 0.00000E+00
 -1      3160 9.01500E+01 3.70100E+01 0.00000E+00
 -1      3161 9.39000E+01 3.83090E+01 0.00000E+00
 -1      3162 9.54000E+01 3.83090E+01 0.00000E+00
 -1      3163 9.31500E+01 3.70100E+01 0.00000E+00
 -1      3164 9.69000E+01 3.83090E+01 0.00000E+00
 -1      3165 9.84000E+01 3.83090E+01 0.00000E+00
 -1      3166 9.61500E+01 3.70100E+01 0.00000E+00
 -1      3167 9.99000E+01 3.83090E+01 0.00000E+00
 -1      3168 1.01400E+02 3.83090E+01 0.00000E+00
 -1      3169 9.91500E+01 3.70100E+01 0.00000E+00
 -1      3170 1.02900E+02 3.83090E+01 0.00000E+00
 -1      3171 1.04400E+02 3.83090E+01 0.00000E+00
 -1      3172 1.02150E+02 3.70100E+01 0.00000E+00
 -1      3173 1.05900E+02 3.83090E+01 0.00000E+00
 -1      3174 1.07400E+02 3.83090E+01 0.00000E+00
 -1      3175 1.05150E+02 3.70100E+01 0.00000E+00
 -1      3176 1.08900E+02 3.83090E+01 0.00000E+00
 -1      3177 1.10400E+02 3.83090E+01 0.00000E+00
 -1      3178 1.08150E+02 3.70100E+01 0.00000E+00
 -1      3179 1.11900E+02 3.83090E+01 0.00000E+00
 -1      3180 1.13400E+02 3.83090E+01 0.00000E+00
 -1      3181 1.11150E+02 3.70100E+01 0.00000E+00
 -1      3182 1.14900E+02 3.83090E+01 0.00000E+00
 -1      3183 1.16400E+02 3.83090E+01 0.00000E+00
 -1      3184 1.14150E+02 3.70100E+01 0.00000E+00
 -1      3185 1.17900E+02 3.83090E+01 0.00000E+00
 -1      3186 1.19400E+02 3.83090E+01 0.00000E+00
 -1      3187 1.17150E+02 3.70100E+01 0.00000E+00
 -1      3188 1.20900E+02 3.83090E+01 0.00000E+00
 -1      3189 1.22400E+02 3.83090E+01 0.00000E+00
 -1      3190 1.20150E+02 3.70100E+01 0.00000E+00
 -1      3191 1.23900E+02 3.83090E+01 0.00000E+00
 -1      3192 1.25400E+02 3.83090E+01 0.00000E+00
 -1      3193 1.23150E+02 3.70100E+01 0.00000E+00
 -1      3194 1.26900E+02 3.83090E+01 0.00000E+00
 -1      3195 1.28400E+02 3.83090E+01 0.00000E+00
 -1      3196 1.26150E+02 3.70100E+01 0.00000E+00
 -1      3197 1.29900E+02 3.83090E+01 0.00000E+00
 -1      3198 1.31400E+02 3.83090E+01 0.00000E+00
 -1      3199 1.29150E+02 3.70100E+01 0.00000E+00
 -1      3200 1.32900E+02 3.83090E+01 0.00000E+00
 -1      3201 1.34400E+02 3.83090E+01 0.00000E+00
 -1      3202 1.32150E+02 3.70100E+01 0.00000E+00
 -1      3203 1.35707E+02 3.84200E+01 0.00000E+00
 -1      3204 1.37207E+02 3.84200E+01 0.00000E+00
 -1      3205 1.37572E+02 3.73430E+01 0.00000E+00
 -1      3206 1.34957E+02 3.71210E+01 0.00000E+00
 -1      3207 3.17850E+01 1.05013E+01 0.00000E+00
 -1      3208 3.02850E+01 1.05013E+01 0.00000E+00
 -1      3209 4.33174E+01 1.09081E+01 0.00000E+00
 -1      3210 4.18174E+01 1.09081E+01 0.00000E+00
 -1      3211 4.62023E+01 1.06514E+01 0.00000E+00
 -1      3212 4.47023E+01 1.06514E+01 0.00000E+00
 -1      3213 4.98091E+01 1.07130E+01 0.00000E+00
 -1      3214 4.83091E+01 1.07130E+01 0.00000E+00
 -1      3215 5.57850E+01 1.04787E+01 0.00000E+00
 -1      3216 5.42850E+01 1.04787E+01 0.00000E+00
 -1      3217 5.87850E+01 1.04787E+01 0.00000E+00
 -1      3218 5.72850E+01 1.04787E+01 0.00000E+00
 -1      3219 5.65350E+01 1.17552E+01 0.00000E+00
 -1      3220 6.17850E+01 1.04787E+01 0.00000E+00
 -1      3221 6.02850E+01 1.04787E+01 0.00000E+00
 -1      3222 5.95350E+01 1.17552E+01 0.00000E+00
 -1      3223 6.47850E+01 1.04787E+01 0.00000E+00
 -1      3224 6.32850E+01 1.04787E+01 0.00000E+00
 -1      3225 6.25350E+01 1.17552E+01 0.00000E+00
 -1      3226 6.77850E+01 1.04787E+01 0.00000E+00
 -1      3227 6.62850E+01 1.04787E+01 0.00000E+00
 -1      3228 6.55350E+01 1.17552E+01 0.00000E+00
 -1      3229 7.07850E+01 1.04787E+01 0.00000E+00
 -1      3230 6.92850E+01 1.04787E+01 0.00000E+00
 -1      3231 6.85350E+01 1.17552E+01 0.00000E+00
 -1      3232 7.37850E+01 1.04787E+01 0.00000E+00
 -1      3233 7.22850E+01 1.04787E+01 0.00000E+00
 -1      3234 7.15350E+01 1.17552E+01 0.00000E+00
 -1      3235 7.67850E+01 1.04787E+01 0.00000E+00
 -1      3236 7.52850E+01 1.04787E+01 0.00000E+00
 -1      3237 7.45350E+01 1.17552E+01 0.00000E+00
 -1      3238 7.97850E+01 1.04787E+01 0.00000E+00
 -1      3239 7.82850E+01 1.04787E+01 0.00000E+00
 -1      3240 7.75350E+01 1.17552E+01 0.00000E+00
 -1      3241 8.27850E+01 1.04787E+01 0.00000E+00
 -1      3242 8.12850E+01 1.04787E+01 0.00000E+00
 -1      3243 8.05350E+01 1.17552E+01 0.00000E+00
 -1      3244 8.57850E+01 1.04787E+01 0.00000E+00
 -1      3245 8.42850E+01 1.04787E+01 0.00000E+00
 -1      3246 8.35350E+01 1.17552E+01 0.00000E+00
 -1      3247 8.87850E+01 1.04787E+01 0.00000E+00
 -1      3248 8.72850E+01 1.04787E+01 0.00000E+00
 -1      3249 8.65350E+01 1.17552E+01 0.00000E+00
 -1      3250 9.17850E+01 1.04787E+01 0.00000E+00
 -1      3251 9.02850E+01 1.04787E+01 0.00000E+00
 -1      3252 8.95350E+01 1.17552E+01 0.00000E+00
 -1      3253 9.47850E+01 1.04787E+01 0.00000E+00
 -1      3254 9.32850E+01 1.04787E+01 0.00000E+00
 -1      3255 9.25350E+01 1.17552E+01 0.00000E+00
 -1      3256 9.77850E+01 1.04787E+01 0.00000E+00
 -1      3257 9.62850E+01 1.04787E+01 0.00000E+00
 -1      3258 9.55350E+01 1.17552E+01 0.00000E+00
 -1      3259 1.00785E+02 1.04787E+01 0.00000E+00
 -1      3260 9.92850E+01 1.04787E+01 0.00000E+00
 -1      3261 9.85350E+01 1.17552E+01 0.00000E+00
 -1      3262 1.03785E+02 1.04787E+01 0.00000E+00
 -1      3263 1.02285E+02 1.04787E+01 0.00000E+00
 -1      3264 1.01535E+02 1.17552E+01 0.00000E+00
 -1      3265 1.06785E+02 1.04787E+01 0.00000E+00
 -1      3266 1.05285E+02 1.04787E+01 0.00000E+00
 -1      3267 1.04535E+02 1.17552E+01 0.00000E+00
 -1      3268 1.09785E+02 1.04787E+01 0.00000E+00
 -1      3269 1.08285E+02 1.04787E+01 0.00000E+00
 -1      3270 1.07535E+02 1.17552E+01 0.00000E+00
 -1      3271 1.12785E+02 1.04787E+01 0.00000E+00
 -1      3272 1.11285E+02 1.04787E+01 0.00000E+00
 -1      3273 1.10535E+02 1.17552E+01 0.00000E+00
 -1      3274 1.15785E+02 1.04787E+01 0.00000E+00
 -1      3275 1.14285E+02 1.04787E+01 0.00000E+00
 -1      3276 1.13535E+02 1.17552E+01 0.00000E+00
 -1      3277 1.18785E+02 1.04787E+01 0.00000E+00
 -1      3278 1.17285E+02 1.04787E+01 0.00000E+00
 -1      3279 1.16535E+02 1.17552E+01 0.00000E+00
 -1      3280 1.21785E+02 1.04787E+01 0.00000E+00
 -1      3281 1.20285E+02 1.04787E+01 0.00000E+00
 -1      3282 1.19535E+02 1.17552E+01 0.00000E+00
 -1      3283 1.24785E+02 1.04787E+01 0.00000E+00
 -1      3284 1.23285E+02 1.04787E+01 0.00000E+00
 -1      3285 1.22535E+02 1.17552E+01 0.00000E+00
 -1      3286 1.27785E+02 1.04787E+01 0.00000E+00
 -1      3287 1.26285E+02 1.04787E+01 0.00000E+00
 -1      3288 1.25535E+02 1.17552E+01 0.00000E+00
 -1      3289 1.30785E+02 1.04787E+01 0.00000E+00
 -1      3290 1.29285E+02 1.04787E+01 0.00000E+00
 -1      3291 1.28535E+02 1.17552E+01 0.00000E+00
 -1      3292 1.33785E+02 1.04787E+01 0.00000E+00
 -1      3293 1.32285E+02 1.04787E+01 0.00000E+00
 -1      3294 1.31535E+02 1.17552E+01 0.00000E+00
 -1      3295 1.36785E+02 1.04787E+01 0.00000E+00
 -1      3296 1.35285E+02 1.04787E+01 0.00000E+00
 -1      3297 1.34535E+02 1.17552E+01 0.00000E+00
 -1      3298 1.38879E+02 1.08817E+01 0.00000E+00
 -1      3299 1.37711E+02 1.06010E+01 0.00000E+00
 -1      3300 1.36961E+02 1.18775E+01 0.00000E+00
 -1      3301 1.38813E+02 1.21220E+01 0.00000E+00
 -1      3302 1.38309E+02 2.86750E+01 0.00000E+00
 -1      3303 1.38309E+02 2.72250E+01 0.00000E+00
 -1      3304 5.62747E+01 3.08711E+01 0.00000E+00
 -1      3305 5.55734E+01 3.20354E+01 0.00000E+00
 -1      3306 1.38309E+02 3.45625E+01 0.00000E+00
 -1      3307 1.38309E+02 3.30875E+01 0.00000E+00
 -1      3308 1.38309E+02 2.57500E+01 0.00000E+00
 -1      3309 1.38309E+02 2.42750E+01 0.00000E+00
 -1      3310 1.37010E+02 2.64750E+01 0.00000E+00
 -1      3311 1.97850E+01 1.05013E+01 0.00000E+00
 -1      3312 1.82850E+01 1.05013E+01 0.00000E+00
 -1      3313 2.27850E+01 1.05013E+01 0.00000E+00
 -1      3314 2.12850E+01 1.05013E+01 0.00000E+00
 -1      3315 2.05350E+01 1.18003E+01 0.00000E+00
 -1      3316 1.38309E+02 3.16187E+01 0.00000E+00
 -1      3317 1.38309E+02 3.01437E+01 0.00000E+00
 -1      3318 1.37010E+02 2.94188E+01 0.00000E+00
 -1      3319 1.37010E+02 3.23563E+01 0.00000E+00
 -1      3320 5.75120E+01 2.31865E+01 0.00000E+00
 -1      3321 5.73718E+01 2.46622E+01 0.00000E+00
 -1      3322 3.75018E+01 1.02448E+01 0.00000E+00
 -1      3323 3.60018E+01 1.02448E+01 0.00000E+00
 -1      3324 5.72349E+01 2.56915E+01 0.00000E+00
 -1      3325 5.70980E+01 2.67207E+01 0.00000E+00
 -1      3326 5.84090E+01 2.50586E+01 0.00000E+00
 -1      3327 1.59000E+01 3.83090E+01 0.00000E+00
 -1      3328 1.74000E+01 3.83090E+01 0.00000E+00
 -1      3329 1.81500E+01 3.70100E+01 0.00000E+00
 -1      3330 3.87000E+01 3.83851E+01 0.00000E+00
 -1      3331 5.50674E+01 1.74598E+01 0.00000E+00
 -1      3332 5.56726E+01 1.86988E+01 0.00000E+00
 -1      3333 4.42827E+01 3.87192E+01 0.00000E+00
 -1      3334 5.70455E+01 2.79455E+01 0.00000E+00
 -1      3335 5.69930E+01 2.91703E+01 0.00000E+00
 -1      3336 5.82196E+01 2.73126E+01 0.00000E+00
 -1      3337 5.08241E+01 1.36806E+01 0.00000E+00
 -1      3338 5.20026E+01 1.43147E+01 0.00000E+00
 -1      3339 5.33087E+01 1.52130E+01 0.00000E+00
 -1      3340 5.41754E+01 1.61463E+01 0.00000E+00
 -1      3341 5.49182E+01 3.32164E+01 0.00000E+00
 -1      3342 5.42270E+01 3.42316E+01 0.00000E+00
 -1      3343 5.63470E+01 2.00049E+01 0.00000E+00
 -1      3344 5.70214E+01 2.13111E+01 0.00000E+00
 -1      3345 5.68902E+01 1.89723E+01 0.00000E+00
 -1      3346 3.72000E+01 3.83851E+01 0.00000E+00
 -1      3347 3.39673E+01 1.45956E+01 0.00000E+00
 -1      3348 3.48386E+01 1.36234E+01 0.00000E+00
 -1      3349 3.59808E+01 3.78304E+01 0.00000E+00
 -1      3350 3.07467E+01 2.82890E+01 0.00000E+00
 -1      3351 3.07013E+01 2.69041E+01 0.00000E+00
 -1      3352 4.02736E+01 1.06401E+01 0.00000E+00
 -1      3353 1.12710E+01 3.74352E+01 0.00000E+00
 -1      3354 1.20855E+01 3.78721E+01 0.00000E+00
 -1      3355 1.12065E+01 3.56994E+01 0.00000E+00
 -1      3356 3.25739E+01 1.65187E+01 0.00000E+00
 -1      3357 3.32706E+01 1.55571E+01 0.00000E+00
 -1      3358 3.28180E+01 1.42750E+01 0.00000E+00
 -1      3359 3.45844E+01 3.64927E+01 0.00000E+00
 -1      3360 3.35122E+01 3.56380E+01 0.00000E+00
 -1      3361 5.28420E+01 3.55861E+01 0.00000E+00
 -1      3362 5.19457E+01 3.65837E+01 0.00000E+00
 -1      3363 3.23275E+01 3.43438E+01 0.00000E+00
 -1      3364 3.14833E+01 3.30992E+01 0.00000E+00
 -1      3365 1.16910E+01 2.12875E+01 0.00000E+00
 -1      3366 1.16910E+01 2.27625E+01 0.00000E+00
 -1      3367 1.26488E+01 1.02017E+01 0.00000E+00
 -1      3368 1.20772E+01 1.14631E+01 0.00000E+00
 -1      3369 1.33763E+01 1.22006E+01 0.00000E+00
 -1      3370 1.41488E+01 1.02017E+01 0.00000E+00
 -1      3371 4.27827E+01 3.87192E+01 0.00000E+00
 -1      3372 3.47535E+01 3.82702E+01 0.00000E+00
 -1      3373 3.87736E+01 1.06401E+01 0.00000E+00
 -1      3374 1.16910E+01 2.42375E+01 0.00000E+00
 -1      3375 1.16910E+01 2.57125E+01 0.00000E+00
 -1      3376 1.29900E+01 2.35000E+01 0.00000E+00
 -1      3377 1.29900E+01 1.46687E+01 0.00000E+00
 -1      3378 1.16910E+01 1.54063E+01 0.00000E+00
 -1      3379 1.16910E+01 1.68750E+01 0.00000E+00
 -1      3380 1.51500E+01 3.70100E+01 0.00000E+00
 -1      3381 3.25035E+01 3.69712E+01 0.00000E+00
 -1      3382 3.32535E+01 3.82702E+01 0.00000E+00
 -1      3383 3.10802E+01 2.01367E+01 0.00000E+00
 -1      3384 1.12065E+01 3.27619E+01 0.00000E+00
 -1      3385 1.12065E+01 3.42306E+01 0.00000E+00
 -1      3386 1.20210E+01 3.46675E+01 0.00000E+00
 -1      3387 1.38309E+02 1.69188E+01 0.00000E+00
 -1      3388 1.38309E+02 1.54563E+01 0.00000E+00
 -1      3389 3.00520E+01 2.62441E+01 0.00000E+00
 -1      3390 3.49917E+01 1.23005E+01 0.00000E+00
 -1      3391 5.11957E+01 3.78827E+01 0.00000E+00
 -1      3392 2.95350E+01 1.18003E+01 0.00000E+00
 -1      3393 2.87850E+01 1.05013E+01 0.00000E+00
 -1      3394 2.72850E+01 1.05013E+01 0.00000E+00
 -1      3395 5.04514E+01 1.27331E+01 0.00000E+00
 -1      3396 1.37758E+02 3.64912E+01 0.00000E+00
 -1      3397 1.38123E+02 3.54142E+01 0.00000E+00
 -1      3398 1.36824E+02 3.46768E+01 0.00000E+00
 -1      3399 1.36451E+02 3.63802E+01 0.00000E+00
 -1      3400 2.57850E+01 1.05013E+01 0.00000E+00
 -1      3401 2.42850E+01 1.05013E+01 0.00000E+00
 -1      3402 2.65350E+01 1.18003E+01 0.00000E+00
 -1      3403 3.47850E+01 1.05013E+01 0.00000E+00
 -1      3404 3.32850E+01 1.05013E+01 0.00000E+00
 -1      3405 1.28355E+01 3.65731E+01 0.00000E+00
 -1      3406 5.31257E+01 1.41408E+01 0.00000E+00
 -1      3407 5.27850E+01 1.03949E+01 0.00000E+00
 -1      3408 5.12850E+01 1.03949E+01 0.00000E+00
 -1      3409 2.35350E+01 1.18003E+01 0.00000E+00
 -1      3410 1.38309E+02 1.98687E+01 0.00000E+00
 -1      3411 1.38309E+02 1.83937E+01 0.00000E+00
 -1      3412 1.37010E+02 1.76625E+01 0.00000E+00
 -1      3413 5.74487E+01 3.02382E+01 0.00000E+00
 -1      3414 5.79044E+01 3.13060E+01 0.00000E+00
 -1      3415 5.86228E+01 2.96053E+01 0.00000E+00
 -1      3416 5.60752E+01 3.31199E+01 0.00000E+00
 -1      3417 1.38309E+02 2.28094E+01 0.00000E+00
 -1      3418 1.38309E+02 2.13344E+01 0.00000E+00
 -1      3419 1.37010E+02 2.06031E+01 0.00000E+00
 -1      3420 1.37010E+02 2.35344E+01 0.00000E+00
 -1      3421 3.10920E+01 1.74865E+01 0.00000E+00
 -1      3422 3.18329E+01 1.70026E+01 0.00000E+00
 -1      3423 3.13804E+01 1.57205E+01 0.00000E+00
 -1      3424 1.16910E+01 1.98188E+01 0.00000E+00
 -1      3425 1.29900E+01 2.05562E+01 0.00000E+00
 -1      3426 1.16910E+01 1.83500E+01 0.00000E+00
 -1      3427 3.07922E+01 3.25494E+01 0.00000E+00
 -1      3428 3.01012E+01 3.19996E+01 0.00000E+00
 -1      3429 3.02967E+01 3.37942E+01 0.00000E+00
 -1      3430 4.73163E+01 1.09034E+01 0.00000E+00
 -1      3431 3.21724E+01 3.56383E+01 0.00000E+00
 -1      3432 5.80552E+01 2.21539E+01 0.00000E+00
 -1      3433 5.90890E+01 2.29966E+01 0.00000E+00
 -1      3434 5.85984E+01 2.11212E+01 0.00000E+00
 -1      3435 5.53238E+01 1.63526E+01 0.00000E+00
 -1      3436 2.98092E+01 2.41117E+01 0.00000E+00
 -1      3437 3.01685E+01 2.33535E+01 0.00000E+00
 -1      3438 1.12065E+01 3.12931E+01 0.00000E+00
 -1      3439 1.20210E+01 3.17300E+01 0.00000E+00
 -1      3440 1.12065E+01 2.98244E+01 0.00000E+00
 -1      3441 5.35350E+01 1.16714E+01 0.00000E+00
 -1      3442 1.69669E+01 1.03515E+01 0.00000E+00
 -1      3443 1.54669E+01 1.03515E+01 0.00000E+00
 -1      3444 1.50806E+01 1.13509E+01 0.00000E+00
 -1      3445 1.77169E+01 1.16505E+01 0.00000E+00
 -1      3446 2.99148E+01 2.24351E+01 0.00000E+00
 -1      3447 5.40350E+01 3.56554E+01 0.00000E+00
 -1      3448 3.25350E+01 1.18003E+01 0.00000E+00
 -1      3449 3.01481E+01 2.91924E+01 0.00000E+00
 -1      3450 1.44000E+01 3.57110E+01 0.00000E+00
 -1      3451 1.59000E+01 3.57110E+01 0.00000E+00
 -1      3452 2.98772E+01 2.04913E+01 0.00000E+00
 -1      3453 3.03417E+01 1.91231E+01 0.00000E+00
 -1      3454 2.88010E+01 2.66637E+01 0.00000E+00
 -1      3455 2.91535E+01 2.52777E+01 0.00000E+00
 -1      3456 2.34000E+01 3.57110E+01 0.00000E+00
 -1      3457 2.49000E+01 3.57110E+01 0.00000E+00
 -1      3458 2.64000E+01 3.57110E+01 0.00000E+00
 -1      3459 2.79000E+01 3.57110E+01 0.00000E+00
 -1      3460 2.56500E+01 3.44120E+01 0.00000E+00
 -1      3461 2.84754E+01 2.23518E+01 0.00000E+00
 -1      3462 2.91763E+01 2.14215E+01 0.00000E+00
 -1      3463 2.84378E+01 2.04079E+01 0.00000E+00
 -1      3464 5.94000E+01 3.57110E+01 0.00000E+00
 -1      3465 6.09000E+01 3.57110E+01 0.00000E+00
 -1      3466 6.24000E+01 3.57110E+01 0.00000E+00
 -1      3467 6.39000E+01 3.57110E+01 0.00000E+00
 -1      3468 6.16500E+01 3.44120E+01 0.00000E+00
 -1      3469 6.54000E+01 3.57110E+01 0.00000E+00
 -1      3470 6.69000E+01 3.57110E+01 0.00000E+00
 -1      3471 6.46500E+01 3.44120E+01 0.00000E+00
 -1      3472 6.84000E+01 3.57110E+01 0.00000E+00
 -1      3473 6.99000E+01 3.57110E+01 0.00000E+00
 -1      3474 6.76500E+01 3.44120E+01 0.00000E+00
 -1      3475 7.14000E+01 3.57110E+01 0.00000E+00
 -1      3476 7.29000E+01 3.57110E+01 0.00000E+00
 -1      3477 7.06500E+01 3.44120E+01 0.00000E+00
 -1      3478 7.44000E+01 3.57110E+01 0.00000E+00
 -1      3479 7.59000E+01 3.57110E+01 0.00000E+00
 -1      3480 7.36500E+01 3.44120E+01 0.00000E+00
 -1      3481 7.74000E+01 3.57110E+01 0.00000E+00
 -1      3482 7.89000E+01 3.57110E+01 0.00000E+00
 -1      3483 7.66500E+01 3.44120E+01 0.00000E+00
 -1      3484 8.04000E+01 3.57110E+01 0.00000E+00
 -1      3485 8.19000E+01 3.57110E+01 0.00000E+00
 -1      3486 7.96500E+01 3.44120E+01 0.00000E+00
 -1      3487 8.34000E+01 3.57110E+01 0.00000E+00
 -1      3488 8.49000E+01 3.57110E+01 0.00000E+00
 -1      3489 8.26500E+01 3.44120E+01 0.00000E+00
 -1      3490 8.64000E+01 3.57110E+01 0.00000E+00
 -1      3491 8.79000E+01 3.57110E+01 0.00000E+00
 -1      3492 8.56500E+01 3.44120E+01 0.00000E+00
 -1      3493 8.94000E+01 3.57110E+01 0.00000E+00
 -1      3494 9.09000E+01 3.57110E+01 0.00000E+00
 -1      3495 8.86500E+01 3.44120E+01 0.00000E+00
 -1      3496 9.24000E+01 3.57110E+01 0.00000E+00
 -1      3497 9.39000E+01 3.57110E+01 0.00000E+00
 -1      3498 9.16500E+01 3.44120E+01 0.00000E+00
 -1      3499 9.54000E+01 3.57110E+01 0.00000E+00
 -1      3500 9.69000E+01 3.57110E+01 0.00000E+00
 -1      3501 9.46500E+01 3.44120E+01 0.00000E+00
 -1      3502 9.84000E+01 3.57110E+01 0.00000E+00
 -1      3503 9.99000E+01 3.57110E+01 0.00000E+00
 -1      3504 9.76500E+01 3.44120E+01 0.00000E+00
 -1      3505 1.01400E+02 3.57110E+01 0.00000E+00
 -1      3506 1.02900E+02 3.57110E+01 0.00000E+00
 -1      3507 1.00650E+02 3.44120E+01 0.00000E+00
 -1      3508 1.04400E+02 3.57110E+01 0.00000E+00
 -1      3509 1.05900E+02 3.57110E+01 0.00000E+00
 -1      3510 1.03650E+02 3.44120E+01 0.00000E+00
 -1      3511 1.07400E+02 3.57110E+01 0.00000E+00
 -1      3512 1.08900E+02 3.57110E+01 0.00000E+00
 -1      3513 1.06650E+02 3.44120E+01 0.00000E+00
 -1      3514 1.10400E+02 3.57110E+01 0.00000E+00
 -1      3515 1.11900E+02 3.57110E+01 0.00000E+00
 -1      3516 1.09650E+02 3.44120E+01 0.00000E+00
 -1      3517 1.13400E+02 3.57110E+01 0.00000E+00
 -1      3518 1.14900E+02 3.57110E+01 0.00000E+00
 -1      3519 1.12650E+02 3.44120E+01 0.00000E+00
 -1      3520 1.16400E+02 3.57110E+01 0.00000E+00
 -1      3521 1.17900E+02 3.57110E+01 0.00000E+00
 -1      3522 1.15650E+02 3.44120E+01 0.00000E+00
 -1      3523 1.19400E+02 3.57110E+01 0.00000E+00
 -1      3524 1.20900E+02 3.57110E+01 0.00000E+00
 -1      3525 1.18650E+02 3.44120E+01 0.00000E+00
 -1      3526 1.22400E+02 3.57110E+01 0.00000E+00
 -1      3527 1.23900E+02 3.57110E+01 0.00000E+00
 -1      3528 1.21650E+02 3.44120E+01 0.00000E+00
 -1      3529 1.25400E+02 3.57110E+01 0.00000E+00
 -1      3530 1.26900E+02 3.57110E+01 0.00000E+00
 -1      3531 1.24650E+02 3.44120E+01 0.00000E+00
 -1      3532 1.28400E+02 3.57110E+01 0.00000E+00
 -1      3533 1.29900E+02 3.57110E+01 0.00000E+00
 -1      3534 1.27650E+02 3.44120E+01 0.00000E+00
 -1      3535 1.31400E+02 3.57110E+01 0.00000E+00
 -1      3536 1.32900E+02 3.57110E+01 0.00000E+00
 -1      3537 1.30650E+02 3.44120E+01 0.00000E+00
 -1      3538 3.52518E+01 1.15438E+01 0.00000E+00
 -1      3539 1.28033E+01 3.49708E+01 0.00000E+00
 -1      3540 1.36178E+01 3.54077E+01 0.00000E+00
 -1      3541 1.43678E+01 3.41087E+01 0.00000E+00
 -1      3542 1.28033E+01 3.35021E+01 0.00000E+00
 -1      3543 2.42850E+01 1.30992E+01 0.00000E+00
 -1      3544 2.27850E+01 1.30992E+01 0.00000E+00
 -1      3545 5.72850E+01 1.30542E+01 0.00000E+00
 -1      3546 5.57850E+01 1.30542E+01 0.00000E+00
 -1      3547 6.62850E+01 1.30542E+01 0.00000E+00
 -1      3548 6.47850E+01 1.30542E+01 0.00000E+00
 -1      3549 6.92850E+01 1.30542E+01 0.00000E+00
 -1      3550 6.77850E+01 1.30542E+01 0.00000E+00
 -1      3551 6.70350E+01 1.43532E+01 0.00000E+00
 -1      3552 7.22850E+01 1.30542E+01 0.00000E+00
 -1      3553 7.07850E+01 1.30542E+01 0.00000E+00
 -1      3554 7.00350E+01 1.43532E+01 0.00000E+00
 -1      3555 7.52850E+01 1.30542E+01 0.00000E+00
 -1      3556 7.37850E+01 1.30542E+01 0.00000E+00
 -1      3557 7.30350E+01 1.43532E+01 0.00000E+00
 -1      3558 7.82850E+01 1.30542E+01 0.00000E+00
 -1      3559 7.67850E+01 1.30542E+01 0.00000E+00
 -1      3560 7.60350E+01 1.43532E+01 0.00000E+00
 -1      3561 8.12850E+01 1.30542E+01 0.00000E+00
 -1      3562 7.97850E+01 1.30542E+01 0.00000E+00
 -1      3563 7.90350E+01 1.43532E+01 0.00000E+00
 -1      3564 8.42850E+01 1.30542E+01 0.00000E+00
 -1      3565 8.27850E+01 1.30542E+01 0.00000E+00
 -1      3566 8.20350E+01 1.43532E+01 0.00000E+00
 -1      3567 8.72850E+01 1.30542E+01 0.00000E+00
 -1      3568 8.57850E+01 1.30542E+01 0.00000E+00
 -1      3569 8.50350E+01 1.43532E+01 0.00000E+00
 -1      3570 9.02850E+01 1.30542E+01 0.00000E+00
 -1      3571 8.87850E+01 1.30542E+01 0.00000E+00
 -1      3572 8.80350E+01 1.43532E+01 0.00000E+00
 -1      3573 9.32850E+01 1.30542E+01 0.00000E+00
 -1      3574 9.17850E+01 1.30542E+01 0.00000E+00
 -1      3575 9.10350E+01 1.43532E+01 0.00000E+00
 -1      3576 9.62850E+01 1.30542E+01 0.00000E+00
 -1      3577 9.47850E+01 1.30542E+01 0.00000E+00
 -1      3578 9.40350E+01 1.43532E+01 0.00000E+00
 -1      3579 9.92850E+01 1.30542E+01 0.00000E+00
 -1      3580 9.77850E+01 1.30542E+01 0.00000E+00
 -1      3581 9.70350E+01 1.43532E+01 0.00000E+00
 -1      3582 1.02285E+02 1.30542E+01 0.00000E+00
 -1      3583 1.00785E+02 1.30542E+01 0.00000E+00
 -1      3584 1.00035E+02 1.43532E+01 0.00000E+00
 -1      3585 1.05285E+02 1.30542E+01 0.00000E+00
 -1      3586 1.03785E+02 1.30542E+01 0.00000E+00
 -1      3587 1.03035E+02 1.43532E+01 0.00000E+00
 -1      3588 1.08285E+02 1.30542E+01 0.00000E+00
 -1      3589 1.06785E+02 1.30542E+01 0.00000E+00
 -1      3590 1.06035E+02 1.43532E+01 0.00000E+00
 -1      3591 1.11285E+02 1.30542E+01 0.00000E+00
 -1      3592 1.09785E+02 1.30542E+01 0.00000E+00
 -1      3593 1.09035E+02 1.43532E+01 0.00000E+00
 -1      3594 1.14285E+02 1.30542E+01 0.00000E+00
 -1      3595 1.12785E+02 1.30542E+01 0.00000E+00
 -1      3596 1.12035E+02 1.43532E+01 0.00000E+00
 -1      3597 1.17285E+02 1.30542E+01 0.00000E+00
 -1      3598 1.15785E+02 1.30542E+01 0.00000E+00
 -1      3599 1.15035E+02 1.43532E+01 0.00000E+00
 -1      3600 1.20285E+02 1.30542E+01 0.00000E+00
 -1      3601 1.18785E+02 1.30542E+01 0.00000E+00
 -1      3602 1.18035E+02 1.43532E+01 0.00000E+00
 -1      3603 1.23285E+02 1.30542E+01 0.00000E+00
 -1      3604 1.21785E+02 1.30542E+01 0.00000E+00
 -1      3605 1.21035E+02 1.43532E+01 0.00000E+00
 -1      3606 1.26285E+02 1.30542E+01 0.00000E+00
 -1      3607 1.24785E+02 1.30542E+01 0.00000E+00
 -1      3608 1.24035E+02 1.43532E+01 0.00000E+00
 -1      3609 1.29285E+02 1.30542E+01 0.00000E+00
 -1      3610 1.27785E+02 1.30542E+01 0.00000E+00
 -1      3611 1.27035E+02 1.43532E+01 0.00000E+00
 -1      3612 1.32285E+02 1.30542E+01 0.00000E+00
 -1      3613 1.30785E+02 1.30542E+01 0.00000E+00
 -1      3614 1.30035E+02 1.43532E+01 0.00000E+00
 -1      3615 1.35285E+02 1.30542E+01 0.00000E+00
 -1      3616 1.33785E+02 1.30542E+01 0.00000E+00
 -1      3617 1.33035E+02 1.43532E+01 0.00000E+00
 -1      3618 1.35711E+02 2.72125E+01 0.00000E+00
 -1      3619 1.35711E+02 2.57375E+01 0.00000E+00
 -1      3620 1.38528E+02 1.44093E+01 0.00000E+00
 -1      3621 1.38594E+02 1.31690E+01 0.00000E+00
 -1      3622 1.37668E+02 1.30467E+01 0.00000E+00
 -1      3623 1.37229E+02 1.51406E+01 0.00000E+00
 -1      3624 1.74000E+01 3.57110E+01 0.00000E+00
 -1      3625 1.89000E+01 3.57110E+01 0.00000E+00
 -1      3626 1.66500E+01 3.44120E+01 0.00000E+00
 -1      3627 2.12850E+01 1.30992E+01 0.00000E+00
 -1      3628 1.97850E+01 1.30992E+01 0.00000E+00
 -1      3629 2.20350E+01 1.43982E+01 0.00000E+00
 -1      3630 5.95766E+01 2.46901E+01 0.00000E+00
 -1      3631 5.94398E+01 2.57194E+01 0.00000E+00
 -1      3632 6.32850E+01 1.30542E+01 0.00000E+00
 -1      3633 6.17850E+01 1.30542E+01 0.00000E+00
 -1      3634 6.40350E+01 1.43532E+01 0.00000E+00
 -1      3635 6.02850E+01 1.30542E+01 0.00000E+00
 -1      3636 5.87850E+01 1.30542E+01 0.00000E+00
 -1      3637 6.10350E+01 1.43532E+01 0.00000E+00
 -1      3638 5.05591E+01 1.19057E+01 0.00000E+00
 -1      3639 5.55350E+01 3.56554E+01 0.00000E+00
 -1      3640 2.85582E+01 2.45314E+01 0.00000E+00
 -1      3641 5.93872E+01 2.69442E+01 0.00000E+00
 -1      3642 5.93347E+01 2.81689E+01 0.00000E+00
 -1      3643 6.05549E+01 2.65757E+01 0.00000E+00
 -1      3644 5.19273E+01 1.24150E+01 0.00000E+00
 -1      3645 5.73895E+01 1.78873E+01 0.00000E+00
 -1      3646 5.80639E+01 1.91935E+01 0.00000E+00
 -1      3647 5.65551E+01 3.43877E+01 0.00000E+00
 -1      3648 5.66701E+01 3.57422E+01 0.00000E+00
 -1      3649 5.81701E+01 3.57422E+01 0.00000E+00
 -1      3650 5.72103E+01 3.32067E+01 0.00000E+00
 -1      3651 2.04000E+01 3.57110E+01 0.00000E+00
 -1      3652 2.19000E+01 3.57110E+01 0.00000E+00
 -1      3653 2.26500E+01 3.44120E+01 0.00000E+00
 -1      3654 5.54834E+01 1.46961E+01 0.00000E+00
 -1      3655 5.63754E+01 1.60097E+01 0.00000E+00
 -1      3656 2.94676E+01 3.02334E+01 0.00000E+00
 -1      3657 2.90190E+01 2.86711E+01 0.00000E+00
 -1      3658 1.14487E+01 2.70341E+01 0.00000E+00
 -1      3659 1.14487E+01 2.85028E+01 0.00000E+00
 -1      3660 1.22633E+01 2.89397E+01 0.00000E+00
 -1      3661 1.27478E+01 2.62966E+01 0.00000E+00
 -1      3662 1.42890E+01 1.39344E+01 0.00000E+00
 -1      3663 1.42890E+01 1.54031E+01 0.00000E+00
 -1      3664 1.28033E+01 3.05646E+01 0.00000E+00
 -1      3665 1.28033E+01 3.20333E+01 0.00000E+00
 -1      3666 1.35855E+01 3.23366E+01 0.00000E+00
 -1      3667 3.13189E+01 3.56770E+01 0.00000E+00
 -1      3668 2.98891E+01 1.78411E+01 0.00000E+00
 -1      3669 5.97905E+01 2.92368E+01 0.00000E+00
 -1      3670 5.96143E+01 3.25426E+01 0.00000E+00
 -1      3671 5.84402E+01 3.31755E+01 0.00000E+00
 -1      3672 2.83778E+01 3.38282E+01 0.00000E+00
 -1      3673 2.91278E+01 3.51272E+01 0.00000E+00
 -1      3674 2.78197E+01 2.35178E+01 0.00000E+00
 -1      3675 2.70812E+01 2.25042E+01 0.00000E+00
 -1      3676 2.71641E+01 2.46838E+01 0.00000E+00
 -1      3677 2.98189E+01 3.56770E+01 0.00000E+00
 -1      3678 3.02850E+01 1.30992E+01 0.00000E+00
 -1      3679 2.87850E+01 1.30992E+01 0.00000E+00
 -1      3680 1.35711E+02 1.84000E+01 0.00000E+00
 -1      3681 1.35711E+02 1.69250E+01 0.00000E+00
 -1      3682 1.96500E+01 3.44120E+01 0.00000E+00
 -1      3683 1.34022E+02 3.59901E+01 0.00000E+00
 -1      3684 1.35329E+02 3.61011E+01 0.00000E+00
 -1      3685 1.35515E+02 3.52494E+01 0.00000E+00
 -1      3686 1.33272E+02 3.46911E+01 0.00000E+00
 -1      3687 5.80350E+01 1.43532E+01 0.00000E+00
 -1      3688 1.35773E+02 1.52704E+01 0.00000E+00
 -1      3689 1.35992E+02 1.42234E+01 0.00000E+00
 -1      3690 5.47334E+01 1.33971E+01 0.00000E+00
 -1      3691 1.34412E+02 2.50094E+01 0.00000E+00
 -1      3692 1.35711E+02 2.42719E+01 0.00000E+00
 -1      3693 1.35711E+02 2.28062E+01 0.00000E+00
 -1      3694 1.35711E+02 2.86812E+01 0.00000E+00
 -1      3695 1.34412E+02 2.79438E+01 0.00000E+00
 -1      3696 1.35711E+02 3.01500E+01 0.00000E+00
 -1      3697 1.36742E+02 1.29244E+01 0.00000E+00
 -1      3698 3.00872E+01 1.53013E+01 0.00000E+00
 -1      3699 3.08281E+01 1.48174E+01 0.00000E+00
 -1      3700 1.29900E+01 1.76125E+01 0.00000E+00
 -1      3701 6.01198E+01 2.36574E+01 0.00000E+00
 -1      3702 6.11506E+01 2.43183E+01 0.00000E+00
 -1      3703 6.06631E+01 2.26248E+01 0.00000E+00
 -1      3704 5.95969E+01 1.89513E+01 0.00000E+00
 -1      3705 5.90977E+01 2.00363E+01 0.00000E+00
 -1      3706 6.01315E+01 2.08790E+01 0.00000E+00
 -1      3707 1.42890E+01 2.27625E+01 0.00000E+00
 -1      3708 1.42890E+01 2.42375E+01 0.00000E+00
 -1      3709 1.35702E+02 3.43976E+01 0.00000E+00
 -1      3710 3.15249E+01 1.38559E+01 0.00000E+00
 -1      3711 5.75490E+01 1.62309E+01 0.00000E+00
 -1      3712 2.89721E+01 3.14782E+01 0.00000E+00
 -1      3713 2.81205E+01 2.77047E+01 0.00000E+00
 -1      3714 2.72221E+01 2.67384E+01 0.00000E+00
 -1      3715 2.74401E+01 2.87457E+01 0.00000E+00
 -1      3716 1.34473E+02 1.60079E+01 0.00000E+00
 -1      3717 5.34273E+01 1.24988E+01 0.00000E+00
 -1      3718 1.42890E+01 2.12938E+01 0.00000E+00
 -1      3719 1.55880E+01 2.20313E+01 0.00000E+00
 -1      3720 1.42890E+01 1.98250E+01 0.00000E+00
 -1      3721 1.34487E+02 3.38100E+01 0.00000E+00
 -1      3722 1.35795E+02 3.32374E+01 0.00000E+00
 -1      3723 1.35795E+02 3.17686E+01 0.00000E+00
 -1      3724 1.33365E+02 3.35309E+01 0.00000E+00
 -1      3725 1.90350E+01 1.43983E+01 0.00000E+00
 -1      3726 1.82850E+01 1.30993E+01 0.00000E+00
 -1      3727 2.72850E+01 1.30992E+01 0.00000E+00
 -1      3728 2.57850E+01 1.30992E+01 0.00000E+00
 -1      3729 2.50350E+01 1.43982E+01 0.00000E+00
 -1      3730 2.80350E+01 1.43982E+01 0.00000E+00
 -1      3731 1.69669E+01 1.29495E+01 0.00000E+00
 -1      3732 2.66971E+01 3.32370E+01 0.00000E+00
 -1      3733 2.79249E+01 3.26532E+01 0.00000E+00
 -1      3734 2.72914E+01 3.08870E+01 0.00000E+00
 -1      3735 2.51971E+01 3.32370E+01 0.00000E+00
 -1      3736 6.04524E+01 3.08897E+01 0.00000E+00
 -1      3737 6.09881E+01 3.27591E+01 0.00000E+00
 -1      3738 6.24881E+01 3.27591E+01 0.00000E+00
 -1      3739 6.11643E+01 2.94534E+01 0.00000E+00
 -1      3740 2.71348E+01 2.01553E+01 0.00000E+00
 -1      3741 2.78357E+01 1.92251E+01 0.00000E+00
 -1      3742 1.35711E+02 1.98656E+01 0.00000E+00
 -1      3743 1.34412E+02 1.91281E+01 0.00000E+00
 -1      3744 1.35711E+02 2.13312E+01 0.00000E+00
 -1      3745 3.22749E+01 1.25569E+01 0.00000E+00
 -1      3746 5.89201E+01 3.44432E+01 0.00000E+00
 -1      3747 1.89000E+01 3.31130E+01 0.00000E+00
 -1      3748 2.04000E+01 3.31130E+01 0.00000E+00
 -1      3749 6.39881E+01 3.27591E+01 0.00000E+00
 -1      3750 6.54881E+01 3.27591E+01 0.00000E+00
 -1      3751 6.33262E+01 3.11062E+01 0.00000E+00
 -1      3752 6.69881E+01 3.27591E+01 0.00000E+00
 -1      3753 6.84881E+01 3.27591E+01 0.00000E+00
 -1      3754 6.63262E+01 3.11062E+01 0.00000E+00
 -1      3755 6.99881E+01 3.27591E+01 0.00000E+00
 -1      3756 7.14881E+01 3.27591E+01 0.00000E+00
 -1      3757 6.93262E+01 3.11062E+01 0.00000E+00
 -1      3758 7.29881E+01 3.27591E+01 0.00000E+00
 -1      3759 7.44881E+01 3.27591E+01 0.00000E+00
 -1      3760 7.23262E+01 3.11062E+01 0.00000E+00
 -1      3761 7.59881E+01 3.27591E+01 0.00000E+00
 -1      3762 7.74881E+01 3.27591E+01 0.00000E+00
 -1      3763 7.53262E+01 3.11062E+01 0.00000E+00
 -1      3764 7.89881E+01 3.27591E+01 0.00000E+00
 -1      3765 8.04881E+01 3.27591E+01 0.00000E+00
 -1      3766 7.83262E+01 3.11062E+01 0.00000E+00
 -1      3767 8.19881E+01 3.27591E+01 0.00000E+00
 -1      3768 8.34881E+01 3.27591E+01 0.00000E+00
 -1      3769 8.13262E+01 3.11062E+01 0.00000E+00
 -1      3770 8.49881E+01 3.27591E+01 0.00000E+00
 -1      3771 8.64881E+01 3.27591E+01 0.00000E+00
 -1      3772 8.43262E+01 3.11062E+01 0.00000E+00
 -1      3773 8.79881E+01 3.27591E+01 0.00000E+00
 -1      3774 8.94881E+01 3.27591E+01 0.00000E+00
 -1      3775 8.73262E+01 3.11062E+01 0.00000E+00
 -1      3776 9.09881E+01 3.27591E+01 0.00000E+00
 -1      3777 9.24881E+01 3.27591E+01 0.00000E+00
 -1      3778 9.03262E+01 3.11062E+01 0.00000E+00
 -1      3779 9.39881E+01 3.27591E+01 0.00000E+00
 -1      3780 9.54881E+01 3.27591E+01 0.00000E+00
 -1      3781 9.33262E+01 3.11062E+01 0.00000E+00
 -1      3782 9.69881E+01 3.27591E+01 0.00000E+00
 -1      3783 9.84881E+01 3.27591E+01 0.00000E+00
 -1      3784 9.63262E+01 3.11062E+01 0.00000E+00
 -1      3785 9.99881E+01 3.27591E+01 0.00000E+00
 -1      3786 1.01488E+02 3.27591E+01 0.00000E+00
 -1      3787 9.93262E+01 3.11062E+01 0.00000E+00
 -1      3788 1.02988E+02 3.27591E+01 0.00000E+00
 -1      3789 1.04488E+02 3.27591E+01 0.00000E+00
 -1      3790 1.02326E+02 3.11062E+01 0.00000E+00
 -1      3791 1.05988E+02 3.27591E+01 0.00000E+00
 -1      3792 1.07488E+02 3.27591E+01 0.00000E+00
 -1      3793 1.05326E+02 3.11062E+01 0.00000E+00
 -1      3794 1.08988E+02 3.27591E+01 0.00000E+00
 -1      3795 1.10488E+02 3.27591E+01 0.00000E+00
 -1      3796 1.08326E+02 3.11062E+01 0.00000E+00
 -1      3797 1.11988E+02 3.27591E+01 0.00000E+00
 -1      3798 1.13488E+02 3.27591E+01 0.00000E+00
 -1      3799 1.11326E+02 3.11062E+01 0.00000E+00
 -1      3800 1.14988E+02 3.27591E+01 0.00000E+00
 -1      3801 1.16488E+02 3.27591E+01 0.00000E+00
 -1      3802 1.14326E+02 3.11062E+01 0.00000E+00
 -1      3803 1.17988E+02 3.27591E+01 0.00000E+00
 -1      3804 1.19488E+02 3.27591E+01 0.00000E+00
 -1      3805 1.17326E+02 3.11062E+01 0.00000E+00
 -1      3806 1.20988E+02 3.27591E+01 0.00000E+00
 -1      3807 1.22488E+02 3.27591E+01 0.00000E+00
 -1      3808 1.20326E+02 3.11062E+01 0.00000E+00
 -1      3809 1.23988E+02 3.27591E+01 0.00000E+00
 -1      3810 1.25488E+02 3.27591E+01 0.00000E+00
 -1      3811 1.23326E+02 3.11062E+01 0.00000E+00
 -1      3812 1.26988E+02 3.27591E+01 0.00000E+00
 -1      3813 1.28488E+02 3.27591E+01 0.00000E+00
 -1      3814 1.26326E+02 3.11062E+01 0.00000E+00
 -1      3815 1.29988E+02 3.27591E+01 0.00000E+00
 -1      3816 1.31488E+02 3.27591E+01 0.00000E+00
 -1      3817 1.29326E+02 3.11062E+01 0.00000E+00
 -1      3818 7.07850E+01 1.56522E+01 0.00000E+00
 -1      3819 6.92850E+01 1.56522E+01 0.00000E+00
 -1      3820 1.65615E+01 1.45335E+01 0.00000E+00
 -1      3821 1.59934E+01 1.30847E+01 0.00000E+00
 -1      3822 1.46944E+01 1.23503E+01 0.00000E+00
 -1      3823 6.77850E+01 1.56522E+01 0.00000E+00
 -1      3824 6.62850E+01 1.56522E+01 0.00000E+00
 -1      3825 6.85350E+01 1.69512E+01 0.00000E+00
 -1      3826 7.67850E+01 1.56522E+01 0.00000E+00
 -1      3827 7.52850E+01 1.56522E+01 0.00000E+00
 -1      3828 7.97850E+01 1.56522E+01 0.00000E+00
 -1      3829 7.82850E+01 1.56522E+01 0.00000E+00
 -1      3830 7.75350E+01 1.69512E+01 0.00000E+00
 -1      3831 8.27850E+01 1.56522E+01 0.00000E+00
 -1      3832 8.12850E+01 1.56522E+01 0.00000E+00
 -1      3833 8.05350E+01 1.69512E+01 0.00000E+00
 -1      3834 8.57850E+01 1.56522E+01 0.00000E+00
 -1      3835 8.42850E+01 1.56522E+01 0.00000E+00
 -1      3836 8.35350E+01 1.69512E+01 0.00000E+00
 -1      3837 8.87850E+01 1.56522E+01 0.00000E+00
 -1      3838 8.72850E+01 1.56522E+01 0.00000E+00
 -1      3839 8.65350E+01 1.69512E+01 0.00000E+00
 -1      3840 9.17850E+01 1.56522E+01 0.00000E+00
 -1      3841 9.02850E+01 1.56522E+01 0.00000E+00
 -1      3842 8.95350E+01 1.69512E+01 0.00000E+00
 -1      3843 9.47850E+01 1.56522E+01 0.00000E+00
 -1      3844 9.32850E+01 1.56522E+01 0.00000E+00
 -1      3845 9.25350E+01 1.69512E+01 0.00000E+00
 -1      3846 9.77850E+01 1.56522E+01 0.00000E+00
 -1      3847 9.62850E+01 1.56522E+01 0.00000E+00
 -1      3848 9.55350E+01 1.69512E+01 0.00000E+00
 -1      3849 1.00785E+02 1.56522E+01 0.00000E+00
 -1      3850 9.92850E+01 1.56522E+01 0.00000E+00
 -1      3851 9.85350E+01 1.69512E+01 0.00000E+00
 -1      3852 1.03785E+02 1.56522E+01 0.00000E+00
 -1      3853 1.02285E+02 1.56522E+01 0.00000E+00
 -1      3854 1.01535E+02 1.69512E+01 0.00000E+00
 -1      3855 1.06785E+02 1.56522E+01 0.00000E+00
 -1      3856 1.05285E+02 1.56522E+01 0.00000E+00
 -1      3857 1.04535E+02 1.69512E+01 0.00000E+00
 -1      3858 1.09785E+02 1.56522E+01 0.00000E+00
 -1      3859 1.08285E+02 1.56522E+01 0.00000E+00
 -1      3860 1.07535E+02 1.69512E+01 0.00000E+00
 -1      3861 1.12785E+02 1.56522E+01 0.00000E+00
 -1      3862 1.11285E+02 1.56522E+01 0.00000E+00
 -1      3863 1.10535E+02 1.69512E+01 0.00000E+00
 -1      3864 1.15785E+02 1.56522E+01 0.00000E+00
 -1      3865 1.14285E+02 1.56522E+01 0.00000E+00
 -1      3866 1.13535E+02 1.69512E+01 0.00000E+00
 -1      3867 1.18785E+02 1.56522E+01 0.00000E+00
 -1      3868 1.17285E+02 1.56522E+01 0.00000E+00
 -1      3869 1.16535E+02 1.69512E+01 0.00000E+00
 -1      3870 1.21785E+02 1.56522E+01 0.00000E+00
 -1      3871 1.20285E+02 1.56522E+01 0.00000E+00
 -1      3872 1.19535E+02 1.69512E+01 0.00000E+00
 -1      3873 1.24785E+02 1.56522E+01 0.00000E+00
 -1      3874 1.23285E+02 1.56522E+01 0.00000E+00
 -1      3875 1.22535E+02 1.69512E+01 0.00000E+00
 -1      3876 1.27785E+02 1.56522E+01 0.00000E+00
 -1      3877 1.26285E+02 1.56522E+01 0.00000E+00
 -1      3878 1.25535E+02 1.69512E+01 0.00000E+00
 -1      3879 1.30785E+02 1.56522E+01 0.00000E+00
 -1      3880 1.29285E+02 1.56522E+01 0.00000E+00
 -1      3881 1.28535E+02 1.69512E+01 0.00000E+00
 -1      3882 1.32973E+02 1.60079E+01 0.00000E+00
 -1      3883 1.42890E+01 1.68766E+01 0.00000E+00
 -1      3884 1.42890E+01 1.83516E+01 0.00000E+00
 -1      3885 1.55880E+01 1.90891E+01 0.00000E+00
 -1      3886 1.55880E+01 1.61422E+01 0.00000E+00
 -1      3887 2.91394E+01 1.62044E+01 0.00000E+00
 -1      3888 2.85872E+01 1.53013E+01 0.00000E+00
 -1      3889 2.70872E+01 1.53013E+01 0.00000E+00
 -1      3890 5.90490E+01 1.62309E+01 0.00000E+00
 -1      3891 1.59000E+01 3.31130E+01 0.00000E+00
 -1      3892 1.74000E+01 3.31130E+01 0.00000E+00
 -1      3893 1.81500E+01 3.18140E+01 0.00000E+00
 -1      3894 6.47850E+01 1.56522E+01 0.00000E+00
 -1      3895 6.32850E+01 1.56522E+01 0.00000E+00
 -1      3896 6.55350E+01 1.69512E+01 0.00000E+00
 -1      3897 2.27850E+01 1.56973E+01 0.00000E+00
 -1      3898 2.12850E+01 1.56973E+01 0.00000E+00
 -1      3899 1.75351E+01 1.58717E+01 0.00000E+00
 -1      3900 1.65615E+01 1.60070E+01 0.00000E+00
 -1      3901 1.65615E+01 1.74804E+01 0.00000E+00
 -1      3902 1.32223E+02 1.73069E+01 0.00000E+00
 -1      3903 3.37749E+01 1.25569E+01 0.00000E+00
 -1      3904 1.55798E+01 2.49984E+01 0.00000E+00
 -1      3905 1.42808E+01 2.57359E+01 0.00000E+00
 -1      3906 6.16891E+01 2.60108E+01 0.00000E+00
 -1      3907 6.16365E+01 2.72356E+01 0.00000E+00
 -1      3908 7.37850E+01 1.56522E+01 0.00000E+00
 -1      3909 7.22850E+01 1.56522E+01 0.00000E+00
 -1      3910 7.45350E+01 1.69512E+01 0.00000E+00
 -1      3911 6.05589E+01 1.57134E+01 0.00000E+00
 -1      3912 6.00730E+01 1.75911E+01 0.00000E+00
 -1      3913 6.11068E+01 1.84339E+01 0.00000E+00
 -1      3914 6.20589E+01 1.57134E+01 0.00000E+00
 -1      3915 2.83891E+01 1.78411E+01 0.00000E+00
 -1      3916 2.19000E+01 3.31130E+01 0.00000E+00
 -1      3917 2.34000E+01 3.31130E+01 0.00000E+00
 -1      3918 2.11500E+01 3.18140E+01 0.00000E+00
 -1      3919 2.01600E+01 1.57845E+01 0.00000E+00
 -1      3920 1.86601E+01 1.57845E+01 0.00000E+00
 -1      3921 1.86601E+01 1.72579E+01 0.00000E+00
 -1      3922 2.09100E+01 1.70835E+01 0.00000E+00
 -1      3923 2.64836E+01 2.57248E+01 0.00000E+00
 -1      3924 2.57451E+01 2.47111E+01 0.00000E+00
 -1      3925 2.58031E+01 2.67657E+01 0.00000E+00
 -1      3926 1.34412E+02 2.20688E+01 0.00000E+00
 -1      3927 1.32223E+02 2.02381E+01 0.00000E+00
 -1      3928 1.32223E+02 1.87725E+01 0.00000E+00
 -1      3929 1.30035E+02 1.84168E+01 0.00000E+00
 -1      3930 2.58234E+01 2.24873E+01 0.00000E+00
 -1      3931 2.64791E+01 2.13213E+01 0.00000E+00
 -1      3932 2.58770E+01 2.01385E+01 0.00000E+00
 -1      3933 6.28089E+01 1.70124E+01 0.00000E+00
 -1      3934 1.32703E+02 3.18780E+01 0.00000E+00
 -1      3935 7.15350E+01 1.69512E+01 0.00000E+00
 -1      3936 2.63929E+01 2.99207E+01 0.00000E+00
 -1      3937 2.44471E+01 3.19380E+01 0.00000E+00
 -1      3938 1.33113E+02 2.57422E+01 0.00000E+00
 -1      3939 1.33113E+02 2.42766E+01 0.00000E+00
 -1      3940 6.22323E+01 2.49781E+01 0.00000E+00
 -1      3941 6.33139E+01 2.56380E+01 0.00000E+00
 -1      3942 6.27755E+01 2.39455E+01 0.00000E+00
 -1      3943 1.34496E+02 3.10311E+01 0.00000E+00
 -1      3944 2.70861E+01 1.75884E+01 0.00000E+00
 -1      3945 1.33113E+02 2.86797E+01 0.00000E+00
 -1      3946 1.33113E+02 2.72109E+01 0.00000E+00
 -1      3947 1.31814E+02 2.64781E+01 0.00000E+00
 -1      3948 6.11623E+01 2.15398E+01 0.00000E+00
 -1      3949 6.21931E+01 2.22007E+01 0.00000E+00
 -1      3950 6.16615E+01 2.04549E+01 0.00000E+00
 -1      3951 1.43516E+01 3.25732E+01 0.00000E+00
 -1      3952 1.51339E+01 3.28765E+01 0.00000E+00
 -1      3953 1.58839E+01 3.15775E+01 0.00000E+00
 -1      3954 1.43516E+01 3.11044E+01 0.00000E+00
 -1      3955 1.68829E+01 2.42563E+01 0.00000E+00
 -1      3956 1.68747E+01 2.57547E+01 0.00000E+00
 -1      3957 6.22984E+01 2.88885E+01 0.00000E+00
 -1      3958 1.40386E+01 2.70574E+01 0.00000E+00
 -1      3959 1.68829E+01 2.13188E+01 0.00000E+00
 -1      3960 1.68829E+01 2.27875E+01 0.00000E+00
 -1      3961 1.81778E+01 2.35438E+01 0.00000E+00
 -1      3962 2.50338E+01 1.66854E+01 0.00000E+00
 -1      3963 2.42838E+01 1.79844E+01 0.00000E+00
 -1      3964 1.35420E+01 2.81502E+01 0.00000E+00
 -1      3965 1.32998E+01 2.94718E+01 0.00000E+00
 -1      3966 1.40820E+01 2.97751E+01 0.00000E+00
 -1      3967 1.50751E+01 2.75895E+01 0.00000E+00
 -1      3968 1.81691E+01 2.65124E+01 0.00000E+00
 -1      3969 1.68661E+01 2.72545E+01 0.00000E+00
 -1      3970 8.42850E+01 1.82502E+01 0.00000E+00
 -1      3971 8.27850E+01 1.82502E+01 0.00000E+00
 -1      3972 6.37984E+01 2.88885E+01 0.00000E+00
 -1      3973 6.85762E+01 2.98072E+01 0.00000E+00
 -1      3974 7.00762E+01 2.98072E+01 0.00000E+00
 -1      3975 7.15762E+01 2.98072E+01 0.00000E+00
 -1      3976 7.30762E+01 2.98072E+01 0.00000E+00
 -1      3977 7.08262E+01 2.85082E+01 0.00000E+00
 -1      3978 7.45762E+01 2.98072E+01 0.00000E+00
 -1      3979 7.60762E+01 2.98072E+01 0.00000E+00
 -1      3980 7.38262E+01 2.85082E+01 0.00000E+00
 -1      3981 7.75762E+01 2.98072E+01 0.00000E+00
 -1      3982 7.90762E+01 2.98072E+01 0.00000E+00
 -1      3983 7.68262E+01 2.85082E+01 0.00000E+00
 -1      3984 8.05762E+01 2.98072E+01 0.00000E+00
 -1      3985 8.20762E+01 2.98072E+01 0.00000E+00
 -1      3986 7.98262E+01 2.85082E+01 0.00000E+00
 -1      3987 8.35762E+01 2.98072E+01 0.00000E+00
 -1      3988 8.50762E+01 2.98072E+01 0.00000E+00
 -1      3989 8.28262E+01 2.85082E+01 0.00000E+00
 -1      3990 8.65762E+01 2.98072E+01 0.00000E+00
 -1      3991 8.80762E+01 2.98072E+01 0.00000E+00
 -1      3992 8.58262E+01 2.85082E+01 0.00000E+00
 -1      3993 8.95762E+01 2.98072E+01 0.00000E+00
 -1      3994 9.10762E+01 2.98072E+01 0.00000E+00
 -1      3995 8.88262E+01 2.85082E+01 0.00000E+00
 -1      3996 9.25762E+01 2.98072E+01 0.00000E+00
 -1      3997 9.40762E+01 2.98072E+01 0.00000E+00
 -1      3998 9.18262E+01 2.85082E+01 0.00000E+00
 -1      3999 9.55762E+01 2.98072E+01 0.00000E+00
 -1      4000 9.70762E+01 2.98072E+01 0.00000E+00
 -1      4001 9.48262E+01 2.85082E+01 0.00000E+00
 -1      4002 9.85762E+01 2.98072E+01 0.00000E+00
 -1      4003 1.00076E+02 2.98072E+01 0.00000E+00
 -1      4004 9.78262E+01 2.85082E+01 0.00000E+00
 -1      4005 1.01576E+02 2.98072E+01 0.00000E+00
 -1      4006 1.03076E+02 2.98072E+01 0.00000E+00
 -1      4007 1.00826E+02 2.85082E+01 0.00000E+00
 -1      4008 1.04576E+02 2.98072E+01 0.00000E+00
 -1      4009 1.06076E+02 2.98072E+01 0.00000E+00
 -1      4010 1.03826E+02 2.85082E+01 0.00000E+00
 -1      4011 1.07576E+02 2.98072E+01 0.00000E+00
 -1      4012 1.09076E+02 2.98072E+01 0.00000E+00
 -1      4013 1.06826E+02 2.85082E+01 0.00000E+00
 -1      4014 1.10576E+02 2.98072E+01 0.00000E+00
 -1      4015 1.12076E+02 2.98072E+01 0.00000E+00
 -1      4016 1.09826E+02 2.85082E+01 0.00000E+00
 -1      4017 1.13576E+02 2.98072E+01 0.00000E+00
 -1      4018 1.15076E+02 2.98072E+01 0.00000E+00
 -1      4019 1.12826E+02 2.85082E+01 0.00000E+00
 -1      4020 1.16576E+02 2.98072E+01 0.00000E+00
 -1      4021 1.18076E+02 2.98072E+01 0.00000E+00
 -1      4022 1.15826E+02 2.85082E+01 0.00000E+00
 -1      4023 1.19576E+02 2.98072E+01 0.00000E+00
 -1      4024 1.21076E+02 2.98072E+01 0.00000E+00
 -1      4025 1.18826E+02 2.85082E+01 0.00000E+00
 -1      4026 1.22576E+02 2.98072E+01 0.00000E+00
 -1      4027 1.24076E+02 2.98072E+01 0.00000E+00
 -1      4028 1.21826E+02 2.85082E+01 0.00000E+00
 -1      4029 1.25576E+02 2.98072E+01 0.00000E+00
 -1      4030 1.27076E+02 2.98072E+01 0.00000E+00
 -1      4031 1.24826E+02 2.85082E+01 0.00000E+00
 -1      4032 6.92850E+01 1.82502E+01 0.00000E+00
 -1      4033 6.77850E+01 1.82502E+01 0.00000E+00
 -1      4034 8.12850E+01 1.82502E+01 0.00000E+00
 -1      4035 7.97850E+01 1.82502E+01 0.00000E+00
 -1      4036 8.20350E+01 1.95492E+01 0.00000E+00
 -1      4037 7.82850E+01 1.82502E+01 0.00000E+00
 -1      4038 7.67850E+01 1.82502E+01 0.00000E+00
 -1      4039 7.90350E+01 1.95492E+01 0.00000E+00
 -1      4040 8.72850E+01 1.82502E+01 0.00000E+00
 -1      4041 8.57850E+01 1.82502E+01 0.00000E+00
 -1      4042 8.50350E+01 1.95492E+01 0.00000E+00
 -1      4043 9.02850E+01 1.82502E+01 0.00000E+00
 -1      4044 8.87850E+01 1.82502E+01 0.00000E+00
 -1      4045 8.80350E+01 1.95492E+01 0.00000E+00
 -1      4046 9.32850E+01 1.82502E+01 0.00000E+00
 -1      4047 9.17850E+01 1.82502E+01 0.00000E+00
 -1      4048 9.10350E+01 1.95492E+01 0.00000E+00
 -1      4049 9.62850E+01 1.82502E+01 0.00000E+00
 -1      4050 9.47850E+01 1.82502E+01 0.00000E+00
 -1      4051 9.40350E+01 1.95492E+01 0.00000E+00
 -1      4052 9.92850E+01 1.82502E+01 0.00000E+00
 -1      4053 9.77850E+01 1.82502E+01 0.00000E+00
 -1      4054 9.70350E+01 1.95492E+01 0.00000E+00
 -1      4055 1.02285E+02 1.82502E+01 0.00000E+00
 -1      4056 1.00785E+02 1.82502E+01 0.00000E+00
 -1      4057 1.00035E+02 1.95492E+01 0.00000E+00
 -1      4058 1.05285E+02 1.82502E+01 0.00000E+00
 -1      4059 1.03785E+02 1.82502E+01 0.00000E+00
 -1      4060 1.03035E+02 1.95492E+01 0.00000E+00
 -1      4061 1.08285E+02 1.82502E+01 0.00000E+00
 -1      4062 1.06785E+02 1.82502E+01 0.00000E+00
 -1      4063 1.06035E+02 1.95492E+01 0.00000E+00
 -1      4064 1.11285E+02 1.82502E+01 0.00000E+00
 -1      4065 1.09785E+02 1.82502E+01 0.00000E+00
 -1      4066 1.09035E+02 1.95492E+01 0.00000E+00
 -1      4067 1.14285E+02 1.82502E+01 0.00000E+00
 -1      4068 1.12785E+02 1.82502E+01 0.00000E+00
 -1      4069 1.12035E+02 1.95492E+01 0.00000E+00
 -1      4070 1.17285E+02 1.82502E+01 0.00000E+00
 -1      4071 1.15785E+02 1.82502E+01 0.00000E+00
 -1      4072 1.15035E+02 1.95492E+01 0.00000E+00
 -1      4073 1.20285E+02 1.82502E+01 0.00000E+00
 -1      4074 1.18785E+02 1.82502E+01 0.00000E+00
 -1      4075 1.18035E+02 1.95492E+01 0.00000E+00
 -1      4076 1.23285E+02 1.82502E+01 0.00000E+00
 -1      4077 1.21785E+02 1.82502E+01 0.00000E+00
 -1      4078 1.21035E+02 1.95492E+01 0.00000E+00
 -1      4079 1.26285E+02 1.82502E+01 0.00000E+00
 -1      4080 1.24785E+02 1.82502E+01 0.00000E+00
 -1      4081 1.24035E+02 1.95492E+01 0.00000E+00
 -1      4082 1.28910E+02 1.83335E+01 0.00000E+00
 -1      4083 1.27410E+02 1.83335E+01 0.00000E+00
 -1      4084 1.26660E+02 1.96325E+01 0.00000E+00
 -1      4085 1.28910E+02 1.97992E+01 0.00000E+00
 -1      4086 7.22850E+01 1.82502E+01 0.00000E+00
 -1      4087 7.07850E+01 1.82502E+01 0.00000E+00
 -1      4088 7.00350E+01 1.95492E+01 0.00000E+00
 -1      4089 6.62850E+01 1.82502E+01 0.00000E+00
 -1      4090 6.47850E+01 1.82502E+01 0.00000E+00
 -1      4091 6.70350E+01 1.95492E+01 0.00000E+00
 -1      4092 1.76108E+01 1.81059E+01 0.00000E+00
 -1      4093 1.66373E+01 1.82411E+01 0.00000E+00
 -1      4094 1.66373E+01 1.97146E+01 0.00000E+00
 -1      4095 1.87358E+01 1.80187E+01 0.00000E+00
 -1      4096 6.24732E+01 1.80536E+01 0.00000E+00
 -1      4097 6.19972E+01 1.94138E+01 0.00000E+00
 -1      4098 6.30280E+01 2.00746E+01 0.00000E+00
 -1      4099 6.36993E+01 1.79923E+01 0.00000E+00
 -1      4100 2.50508E+01 3.04225E+01 0.00000E+00
 -1      4101 2.51995E+01 2.82812E+01 0.00000E+00
 -1      4102 2.44610E+01 2.72676E+01 0.00000E+00
 -1      4103 2.32537E+01 3.02985E+01 0.00000E+00
 -1      4104 1.32619E+02 3.02594E+01 0.00000E+00
 -1      4105 1.31320E+02 2.95266E+01 0.00000E+00
 -1      4106 1.32668E+02 2.29948E+01 0.00000E+00
 -1      4107 1.32668E+02 2.15198E+01 0.00000E+00
 -1      4108 1.30480E+02 2.11642E+01 0.00000E+00
 -1      4109 1.31369E+02 2.37276E+01 0.00000E+00
 -1      4110 1.74052E+01 2.99131E+01 0.00000E+00
 -1      4111 1.89052E+01 2.99131E+01 0.00000E+00
 -1      4112 2.04052E+01 2.99131E+01 0.00000E+00
 -1      4113 2.19052E+01 2.99131E+01 0.00000E+00
 -1      4114 1.96605E+01 2.80122E+01 0.00000E+00
 -1      4115 7.52850E+01 1.82502E+01 0.00000E+00
 -1      4116 7.37850E+01 1.82502E+01 0.00000E+00
 -1      4117 7.30350E+01 1.95492E+01 0.00000E+00
 -1      4118 7.60350E+01 1.95492E+01 0.00000E+00
 -1      4119 6.44632E+01 2.72334E+01 0.00000E+00
 -1      4120 6.54909E+01 2.94512E+01 0.00000E+00
 -1      4121 6.69909E+01 2.94512E+01 0.00000E+00
 -1      4122 6.77409E+01 2.81522E+01 0.00000E+00
 -1      4123 2.51430E+01 2.35283E+01 0.00000E+00
 -1      4124 2.45409E+01 2.23454E+01 0.00000E+00
 -1      4125 2.44625E+01 2.45693E+01 0.00000E+00
 -1      4126 6.44493E+01 1.92913E+01 0.00000E+00
 -1      4127 1.28576E+02 2.98072E+01 0.00000E+00
 -1      4128 1.30076E+02 2.98072E+01 0.00000E+00
 -1      4129 6.32747E+01 2.28605E+01 0.00000E+00
 -1      4130 6.43563E+01 2.35204E+01 0.00000E+00
 -1      4131 6.37739E+01 2.17756E+01 0.00000E+00
 -1      4132 6.50064E+01 2.62007E+01 0.00000E+00
 -1      4133 2.48857E+01 1.96677E+01 0.00000E+00
 -1      4134 2.26369E+01 1.86796E+01 0.00000E+00
 -1      4135 2.25089E+01 2.83976E+01 0.00000E+00
 -1      4136 1.48482E+01 3.00116E+01 0.00000E+00
 -1      4137 1.79322E+01 2.04708E+01 0.00000E+00
 -1      4138 1.63695E+01 2.83473E+01 0.00000E+00
 -1      4139 2.42301E+01 2.08337E+01 0.00000E+00
 -1      4140 1.30364E+02 2.47943E+01 0.00000E+00
 -1      4141 1.29920E+02 2.35126E+01 0.00000E+00
 -1      4142 2.65338E+01 1.66854E+01 0.00000E+00
 -1      4143 1.30570E+02 2.82276E+01 0.00000E+00
 -1      4144 1.94768E+01 2.28094E+01 0.00000E+00
 -1      4145 1.94768E+01 2.42782E+01 0.00000E+00
 -1      4146 2.12488E+01 1.83055E+01 0.00000E+00
 -1      4147 2.01238E+01 1.83927E+01 0.00000E+00
 -1      4148 1.90746E+01 1.92407E+01 0.00000E+00
 -1      4149 2.18507E+01 1.99888E+01 0.00000E+00
 -1      4150 1.96691E+01 2.65124E+01 0.00000E+00
 -1      4151 1.27826E+02 2.85082E+01 0.00000E+00
 -1      4152 2.09681E+01 2.57780E+01 0.00000E+00
 -1      4153 1.30364E+02 2.62631E+01 0.00000E+00
 -1      4154 6.72330E+01 2.67067E+01 0.00000E+00
 -1      4155 6.88182E+01 2.70628E+01 0.00000E+00
 -1      4156 7.30762E+01 2.72092E+01 0.00000E+00
 -1      4157 7.45762E+01 2.72092E+01 0.00000E+00
 -1      4158 7.60762E+01 2.72092E+01 0.00000E+00
 -1      4159 7.75762E+01 2.72092E+01 0.00000E+00
 -1      4160 7.53262E+01 2.59102E+01 0.00000E+00
 -1      4161 7.90762E+01 2.72092E+01 0.00000E+00
 -1      4162 8.05762E+01 2.72092E+01 0.00000E+00
 -1      4163 7.83262E+01 2.59102E+01 0.00000E+00
 -1      4164 8.20762E+01 2.72092E+01 0.00000E+00
 -1      4165 8.35762E+01 2.72092E+01 0.00000E+00
 -1      4166 8.13262E+01 2.59102E+01 0.00000E+00
 -1      4167 8.50762E+01 2.72092E+01 0.00000E+00
 -1      4168 8.65762E+01 2.72092E+01 0.00000E+00
 -1      4169 8.43262E+01 2.59102E+01 0.00000E+00
 -1      4170 8.80762E+01 2.72092E+01 0.00000E+00
 -1      4171 8.95762E+01 2.72092E+01 0.00000E+00
 -1      4172 8.73262E+01 2.59102E+01 0.00000E+00
 -1      4173 9.10762E+01 2.72092E+01 0.00000E+00
 -1      4174 9.25762E+01 2.72092E+01 0.00000E+00
 -1      4175 9.03262E+01 2.59102E+01 0.00000E+00
 -1      4176 9.40762E+01 2.72092E+01 0.00000E+00
 -1      4177 9.55762E+01 2.72092E+01 0.00000E+00
 -1      4178 9.33262E+01 2.59102E+01 0.00000E+00
 -1      4179 9.70762E+01 2.72092E+01 0.00000E+00
 -1      4180 9.85762E+01 2.72092E+01 0.00000E+00
 -1      4181 9.63262E+01 2.59102E+01 0.00000E+00
 -1      4182 1.00076E+02 2.72092E+01 0.00000E+00
 -1      4183 1.01576E+02 2.72092E+01 0.00000E+00
 -1      4184 9.93262E+01 2.59102E+01 0.00000E+00
 -1      4185 1.03076E+02 2.72092E+01 0.00000E+00
 -1      4186 1.04576E+02 2.72092E+01 0.00000E+00
 -1      4187 1.02326E+02 2.59102E+01 0.00000E+00
 -1      4188 1.06076E+02 2.72092E+01 0.00000E+00
 -1      4189 1.07576E+02 2.72092E+01 0.00000E+00
 -1      4190 1.05326E+02 2.59102E+01 0.00000E+00
 -1      4191 1.09076E+02 2.72092E+01 0.00000E+00
 -1      4192 1.10576E+02 2.72092E+01 0.00000E+00
 -1      4193 1.08326E+02 2.59102E+01 0.00000E+00
 -1      4194 1.12076E+02 2.72092E+01 0.00000E+00
 -1      4195 1.13576E+02 2.72092E+01 0.00000E+00
 -1      4196 1.11326E+02 2.59102E+01 0.00000E+00
 -1      4197 1.15076E+02 2.72092E+01 0.00000E+00
 -1      4198 1.16576E+02 2.72092E+01 0.00000E+00
 -1      4199 1.14326E+02 2.59102E+01 0.00000E+00
 -1      4200 1.18076E+02 2.72092E+01 0.00000E+00
 -1      4201 1.19576E+02 2.72092E+01 0.00000E+00
 -1      4202 1.17326E+02 2.59102E+01 0.00000E+00
 -1      4203 1.21076E+02 2.72092E+01 0.00000E+00
 -1      4204 1.22576E+02 2.72092E+01 0.00000E+00
 -1      4205 1.20326E+02 2.59102E+01 0.00000E+00
 -1      4206 1.24076E+02 2.72092E+01 0.00000E+00
 -1      4207 1.25576E+02 2.72092E+01 0.00000E+00
 -1      4208 1.23326E+02 2.59102E+01 0.00000E+00
 -1      4209 8.57850E+01 2.08482E+01 0.00000E+00
 -1      4210 8.42850E+01 2.08482E+01 0.00000E+00
 -1      4211 6.60837E+01 2.51114E+01 0.00000E+00
 -1      4212 7.97850E+01 2.08482E+01 0.00000E+00
 -1      4213 7.82850E+01 2.08482E+01 0.00000E+00
 -1      4214 9.17850E+01 2.08482E+01 0.00000E+00
 -1      4215 9.02850E+01 2.08482E+01 0.00000E+00
 -1      4216 9.47850E+01 2.08482E+01 0.00000E+00
 -1      4217 9.32850E+01 2.08482E+01 0.00000E+00
 -1      4218 9.25350E+01 2.21472E+01 0.00000E+00
 -1      4219 9.77850E+01 2.08482E+01 0.00000E+00
 -1      4220 9.62850E+01 2.08482E+01 0.00000E+00
 -1      4221 9.55350E+01 2.21472E+01 0.00000E+00
 -1      4222 1.00785E+02 2.08482E+01 0.00000E+00
 -1      4223 9.92850E+01 2.08482E+01 0.00000E+00
 -1      4224 9.85350E+01 2.21472E+01 0.00000E+00
 -1      4225 1.03785E+02 2.08482E+01 0.00000E+00
 -1      4226 1.02285E+02 2.08482E+01 0.00000E+00
 -1      4227 1.01535E+02 2.21472E+01 0.00000E+00
 -1      4228 1.06785E+02 2.08482E+01 0.00000E+00
 -1      4229 1.05285E+02 2.08482E+01 0.00000E+00
 -1      4230 1.04535E+02 2.21472E+01 0.00000E+00
 -1      4231 1.09785E+02 2.08482E+01 0.00000E+00
 -1      4232 1.08285E+02 2.08482E+01 0.00000E+00
 -1      4233 1.07535E+02 2.21472E+01 0.00000E+00
 -1      4234 1.12785E+02 2.08482E+01 0.00000E+00
 -1      4235 1.11285E+02 2.08482E+01 0.00000E+00
 -1      4236 1.10535E+02 2.21472E+01 0.00000E+00
 -1      4237 1.15785E+02 2.08482E+01 0.00000E+00
 -1      4238 1.14285E+02 2.08482E+01 0.00000E+00
 -1      4239 1.13535E+02 2.21472E+01 0.00000E+00
 -1      4240 1.18785E+02 2.08482E+01 0.00000E+00
 -1      4241 1.17285E+02 2.08482E+01 0.00000E+00
 -1      4242 1.16535E+02 2.21472E+01 0.00000E+00
 -1      4243 1.21785E+02 2.08482E+01 0.00000E+00
 -1      4244 1.20285E+02 2.08482E+01 0.00000E+00
 -1      4245 1.19535E+02 2.21472E+01 0.00000E+00
 -1      4246 1.24785E+02 2.08482E+01 0.00000E+00
 -1      4247 1.23285E+02 2.08482E+01 0.00000E+00
 -1      4248 1.22535E+02 2.21472E+01 0.00000E+00
 -1      4249 6.77850E+01 2.08482E+01 0.00000E+00
 -1      4250 6.62850E+01 2.08482E+01 0.00000E+00
 -1      4251 8.27850E+01 2.08482E+01 0.00000E+00
 -1      4252 8.12850E+01 2.08482E+01 0.00000E+00
 -1      4253 8.05350E+01 2.21472E+01 0.00000E+00
 -1      4254 8.35350E+01 2.21472E+01 0.00000E+00
 -1      4255 2.31125E+01 2.68822E+01 0.00000E+00
 -1      4256 1.29637E+02 2.22967E+01 0.00000E+00
 -1      4257 1.29192E+02 2.10150E+01 0.00000E+00
 -1      4258 1.28067E+02 2.09317E+01 0.00000E+00
 -1      4259 1.28632E+02 2.33634E+01 0.00000E+00
 -1      4260 7.01972E+01 2.71360E+01 0.00000E+00
 -1      4261 7.16972E+01 2.71360E+01 0.00000E+00
 -1      4262 7.24472E+01 2.58370E+01 0.00000E+00
 -1      4263 6.96893E+01 2.56906E+01 0.00000E+00
 -1      4264 6.51953E+01 2.09923E+01 0.00000E+00
 -1      4265 6.41096E+01 2.07345E+01 0.00000E+00
 -1      4266 7.07850E+01 2.08482E+01 0.00000E+00
 -1      4267 6.92850E+01 2.08482E+01 0.00000E+00
 -1      4268 6.85350E+01 2.21472E+01 0.00000E+00
 -1      4269 2.35496E+01 2.18747E+01 0.00000E+00
 -1      4270 1.93202E+01 2.08449E+01 0.00000E+00
 -1      4271 2.06192E+01 2.15793E+01 0.00000E+00
 -1      4272 8.87850E+01 2.08482E+01 0.00000E+00
 -1      4273 8.72850E+01 2.08482E+01 0.00000E+00
 -1      4274 8.65350E+01 2.21472E+01 0.00000E+00
 -1      4275 1.29121E+02 2.65438E+01 0.00000E+00
 -1      4276 1.27621E+02 2.65438E+01 0.00000E+00
 -1      4277 1.26871E+02 2.52448E+01 0.00000E+00
 -1      4278 1.56143E+01 3.02482E+01 0.00000E+00
 -1      4279 2.20073E+01 2.19533E+01 0.00000E+00
 -1      4280 2.29202E+01 2.46480E+01 0.00000E+00
 -1      4281 8.95350E+01 2.21472E+01 0.00000E+00
 -1      4282 6.59453E+01 2.22913E+01 0.00000E+00
 -1      4283 1.26989E+02 2.09316E+01 0.00000E+00
 -1      4284 1.25864E+02 2.08483E+01 0.00000E+00
 -1      4285 1.25114E+02 2.21473E+01 0.00000E+00
 -1      4286 1.27271E+02 2.21475E+01 0.00000E+00
 -1      4287 7.22850E+01 2.08482E+01 0.00000E+00
 -1      4288 7.15350E+01 2.21472E+01 0.00000E+00
 -1      4289 7.37850E+01 2.08482E+01 0.00000E+00
 -1      4290 7.75350E+01 2.21472E+01 0.00000E+00
 -1      4291 7.67850E+01 2.08482E+01 0.00000E+00
 -1      4292 7.52850E+01 2.08482E+01 0.00000E+00
 -1      4293 8.99306E+01 2.40287E+01 0.00000E+00
 -1      4294 8.84306E+01 2.40287E+01 0.00000E+00
 -1      4295 7.79306E+01 2.40287E+01 0.00000E+00
 -1      4296 7.94306E+01 2.40287E+01 0.00000E+00
 -1      4297 8.09306E+01 2.40287E+01 0.00000E+00
 -1      4298 8.24306E+01 2.40287E+01 0.00000E+00
 -1      4299 8.39306E+01 2.40287E+01 0.00000E+00
 -1      4300 8.54306E+01 2.40287E+01 0.00000E+00
 -1      4301 8.69306E+01 2.40287E+01 0.00000E+00
 -1      4302 9.14306E+01 2.40287E+01 0.00000E+00
 -1      4303 9.29306E+01 2.40287E+01 0.00000E+00
 -1      4304 9.44306E+01 2.40287E+01 0.00000E+00
 -1      4305 9.59306E+01 2.40287E+01 0.00000E+00
 -1      4306 9.74306E+01 2.40287E+01 0.00000E+00
 -1      4307 9.89306E+01 2.40287E+01 0.00000E+00
 -1      4308 1.00431E+02 2.40287E+01 0.00000E+00
 -1      4309 1.01931E+02 2.40287E+01 0.00000E+00
 -1      4310 1.03431E+02 2.40287E+01 0.00000E+00
 -1      4311 1.04931E+02 2.40287E+01 0.00000E+00
 -1      4312 1.06431E+02 2.40287E+01 0.00000E+00
 -1      4313 1.07931E+02 2.40287E+01 0.00000E+00
 -1      4314 1.09431E+02 2.40287E+01 0.00000E+00
 -1      4315 1.10931E+02 2.40287E+01 0.00000E+00
 -1      4316 1.12431E+02 2.40287E+01 0.00000E+00
 -1      4317 1.13931E+02 2.40287E+01 0.00000E+00
 -1      4318 1.15431E+02 2.40287E+01 0.00000E+00
 -1      4319 1.16931E+02 2.40287E+01 0.00000E+00
 -1      4320 1.18431E+02 2.40287E+01 0.00000E+00
 -1      4321 1.19931E+02 2.40287E+01 0.00000E+00
 -1      4322 1.21431E+02 2.40287E+01 0.00000E+00
 -1      4323 1.22931E+02 2.40287E+01 0.00000E+00
 -1      4324 1.24431E+02 2.40287E+01 0.00000E+00
 -1      4325 7.49306E+01 2.40287E+01 0.00000E+00
 -1      4326 7.64306E+01 2.40287E+01 0.00000E+00
 -1      4327 6.65829E+01 2.40264E+01 0.00000E+00
 -1      4328 1.27554E+02 2.33634E+01 0.00000E+00
 -1      4329 2.23181E+01 2.34651E+01 0.00000E+00
 -1      4330 1.25509E+02 2.40288E+01 0.00000E+00
 -1      4331 6.76726E+01 2.38823E+01 0.00000E+00
 -1      4332 7.20516E+01 2.39555E+01 0.00000E+00
 -1      4333 7.34306E+01 2.40287E+01 0.00000E+00
 -1      4334 6.91726E+01 2.38823E+01 0.00000E+00
 -1      4335 7.05516E+01 2.39555E+01 0.00000E+00
 -1      4336 7.45350E+01 2.21472E+01 0.00000E+00
 -3
    3C                          2086                                     1
 -1       165    8    0    1
 -2         6         7        23      1126      1290      1143
 -1       166    8    0    1
 -2         7         8       165      1127      1291      1292
 -1       167    8    0    1
 -2         8         9       166      1128      1293      1294
 -1       168    8    0    1
 -2         8       166       165      1294      1295      1291
 -1       169    8    0    1
 -2         9        10       167      1129      1296      1297
 -1       170    8    0    1
 -2         9       167       166      1297      1298      1293
 -1       171    8    0    1
 -2        10        11       168      1130      1299      1300
 -1       172    8    0    1
 -2        10       168       167      1300      1301      1296
 -1       173    8    0    1
 -2        11        12       169      1131      1302      1303
 -1       174    8    0    1
 -2        11       169       168      1303      1304      1299
 -1       175    8    0    1
 -2        12        13       170      1132      1305      1306
 -1       176    8    0    1
 -2        12       170       169      1306      1307      1302
 -1       177    8    0    1
 -2        13        14       171      1133      1308      1309
 -1       178    8    0    1
 -2        13       171       170      1309      1310      1305
 -1       179    8    0    1
 -2        14        15       172      1134      1311      1312
 -1       180    8    0    1
 -2        14       172       171      1312      1313      1308
 -1       181    8    0    1
 -2        15        16       173      1135      1314      1315
 -1       182    8    0    1
 -2        15       173       172      1315      1316      1311
 -1       183    8    0    1
 -2        16        17       174      1136      1317      1318
 -1       184    8    0    1
 -2        16       174       173      1318      1319      1314
 -1       185    8    0    1
 -2        17        18       175      1137      1320      1321
 -1       186    8    0    1
 -2        17       175       174      1321      1322      1317
 -1       187    8    0    1
 -2        18        19       176      1138      1323      1324
 -1       188    8    0    1
 -2        18       176       175      1324      1325      1320
 -1       189    8    0    1
 -2        19        20       177      1139      1326      1327
 -1       190    8    0    1
 -2        19       177       176      1327      1328      1323
 -1       191    8    0    1
 -2        20        21       178      1140      1329      1330
 -1       192    8    0    1
 -2        20       178       177      1330      1331      1326
 -1       193    8    0    1
 -2        21        22       179      1141      1332      1333
 -1       194    8    0    1
 -2        21       179       178      1333      1334      1329
 -1       195    8    0    1
 -2        22         5       180      1142      1335      1336
 -1       196    8    0    1
 -2       179        22       180      1332      1336      1337
 -1       197    8    0    1
 -2         5        72       180      1193      1338      1335
 -1       198    8    0    1
 -2        24        23       181      1144      1339      1340
 -1       199    8    0    1
 -2        25        24       182      1145      1341      1342
 -1       200    8    0    1
 -2        24       181       182      1340      1343      1341
 -1       201    8    0    1
 -2        26        25       183      1146      1344      1345
 -1       202    8    0    1
 -2        25       182       183      1342      1346      1344
 -1       203    8    0    1
 -2        27        26       184      1147      1347      1348
 -1       204    8    0    1
 -2        26       183       184      1345      1349      1347
 -1       205    8    0    1
 -2        28        27       185      1148      1350      1351
 -1       206    8    0    1
 -2        27       184       185      1348      1352      1350
 -1       207    8    0    1
 -2        29        28       186      1149      1353      1354
 -1       208    8    0    1
 -2        28       185       186      1351      1355      1353
 -1       209    8    0    1
 -2        30        29       187      1150      1356      1357
 -1       210    8    0    1
 -2        29       186       187      1354      1358      1356
 -1       211    8    0    1
 -2        31        30       188      1151      1359      1360
 -1       212    8    0    1
 -2        30       187       188      1357      1361      1359
 -1       213    8    0    1
 -2        32        31       189      1152      1362      1363
 -1       214    8    0    1
 -2        31       188       189      1360      1364      1362
 -1       215    8    0    1
 -2        33        32       190      1153      1365      1366
 -1       216    8    0    1
 -2        32       189       190      1363      1367      1365
 -1       217    8    0    1
 -2        34        33       191      1154      1368      1369
 -1       218    8    0    1
 -2        33       190       191      1366      1370      1368
 -1       219    8    0    1
 -2        35        34       192      1155      1371      1372
 -1       220    8    0    1
 -2        34       191       192      1369      1373      1371
 -1       221    8    0    1
 -2        36        35       193      1156      1374      1375
 -1       222    8    0    1
 -2        35       192       193      1372      1376      1374
 -1       223    8    0    1
 -2        37        36       194      1157      1377      1378
 -1       224    8    0    1
 -2        36       193       194      1375      1379      1377
 -1       225    8    0    1
 -2        38        37       195      1158      1380      1381
 -1       226    8    0    1
 -2        37       194       195      1378      1382      1380
 -1       227    8    0    1
 -2        39        38       196      1159      1383      1384
 -1       228    8    0    1
 -2        38       195       196      1381      1385      1383
 -1       229    8    0    1
 -2        40        39       197      1160      1386      1387
 -1       230    8    0    1
 -2        39       196       197      1384      1388      1386
 -1       231    8    0    1
 -2        41        40       198      1161      1389      1390
 -1       232    8    0    1
 -2        40       197       198      1387      1391      1389
 -1       233    8    0    1
 -2        42        41       199      1162      1392      1393
 -1       234    8    0    1
 -2        41       198       199      1390      1394      1392
 -1       235    8    0    1
 -2        43        42       200      1163      1395      1396
 -1       236    8    0    1
 -2        42       199       200      1393      1397      1395
 -1       237    8    0    1
 -2        44        43       201      1164      1398      1399
 -1       238    8    0    1
 -2        43       200       201      1396      1400      1398
 -1       239    8    0    1
 -2        45        44       202      1165      1401      1402
 -1       240    8    0    1
 -2        44       201       202      1399      1403      1401
 -1       241    8    0    1
 -2        46        45       203      1166      1404      1405
 -1       242    8    0    1
 -2        45       202       203      1402      1406      1404
 -1       243    8    0    1
 -2        47        46       204      1167      1407      1408
 -1       244    8    0    1
 -2        46       203       204      1405      1409      1407
 -1       245    8    0    1
 -2        48        47       205      1168      1410      1411
 -1       246    8    0    1
 -2        47       204       205      1408      1412      1410
 -1       247    8    0    1
 -2        49        48       206      1169      1413      1414
 -1       248    8    0    1
 -2        48       205       206      1411      1415      1413
 -1       249    8    0    1
 -2        50        49       207      1170      1416      1417
 -1       250    8    0    1
 -2        49       206       207      1414      1418      1416
 -1       251    8    0    1
 -2        51        50       208      1171      1419      1420
 -1       252    8    0    1
 -2        50       207       208      1417      1421      1419
 -1       253    8    0    1
 -2        52        51       209      1172      1422      1423
 -1       254    8    0    1
 -2        51       208       209      1420      1424      1422
 -1       255    8    0    1
 -2        53        52       210      1173      1425      1426
 -1       256    8    0    1
 -2        52       209       210      1423      1427      1425
 -1       257    8    0    1
 -2        54        53       211      1174      1428      1429
 -1       258    8    0    1
 -2        53       210       211      1426      1430      1428
 -1       259    8    0    1
 -2        55        54       212      1175      1431      1432
 -1       260    8    0    1
 -2        54       211       212      1429      1433      1431
 -1       261    8    0    1
 -2        56        55       213      1176      1434      1435
 -1       262    8    0    1
 -2        55       212       213      1432      1436      1434
 -1       263    8    0    1
 -2        57        56       214      1177      1437      1438
 -1       264    8    0    1
 -2        56       213       214      1435      1439      1437
 -1       265    8    0    1
 -2        58        57       215      1178      1440      1441
 -1       266    8    0    1
 -2        57       214       215      1438      1442      1440
 -1       267    8    0    1
 -2        59        58       216      1179      1443      1444
 -1       268    8    0    1
 -2        58       215       216      1441      1445      1443
 -1       269    8    0    1
 -2        60        59       217      1180      1446      1447
 -1       270    8    0    1
 -2        59       216       217      1444      1448      1446
 -1       271    8    0    1
 -2        61        60       218      1181      1449      1450
 -1       272    8    0    1
 -2        60       217       218      1447      1451      1449
 -1       273    8    0    1
 -2        62        61       219      1182      1452      1453
 -1       274    8    0    1
 -2        61       218       219      1450      1454      1452
 -1       275    8    0    1
 -2        63        62       220      1183      1455      1456
 -1       276    8    0    1
 -2        62       219       220      1453      1457      1455
 -1       277    8    0    1
 -2        64        63       221      1184      1458      1459
 -1       278    8    0    1
 -2        63       220       221      1456      1460      1458
 -1       279    8    0    1
 -2        65        64       222      1185      1461      1462
 -1       280    8    0    1
 -2        64       221       222      1459      1463      1461
 -1       281    8    0    1
 -2        66        65       223      1186      1464      1465
 -1       282    8    0    1
 -2        65       222       223      1462      1466      1464
 -1       283    8    0    1
 -2        67        66       224      1187      1467      1468
 -1       284    8    0    1
 -2        66       223       224      1465      1469      1467
 -1       285    8    0    1
 -2        68        67       225      1188      1470      1471
 -1       286    8    0    1
 -2        67       224       225      1468      1472      1470
 -1       287    8    0    1
 -2        69        68       226      1189      1473      1474
 -1       288    8    0    1
 -2        68       225       226      1471      1475      1473
 -1       289    8    0    1
 -2        70        69       227      1190      1476      1477
 -1       290    8    0    1
 -2        69       226       227      1474      1478      1476
 -1       291    8    0    1
 -2        71        70       228      1191      1479      1480
 -1       292    8    0    1
 -2        70       227       228      1477      1481      1479
 -1       293    8    0    1
 -2         4        71       136      1192      1482      1259
 -1       294    8    0    1
 -2       136        71       228      1482      1480      1483
 -1       295    8    0    1
 -2        72        73       229      1194      1484      1485
 -1       296    8    0    1
 -2        72       229       180      1485      1486      1338
 -1       297    8    0    1
 -2        73        74       230      1195      1487      1488
 -1       298    8    0    1
 -2        73       230       229      1488      1489      1484
 -1       299    8    0    1
 -2        74        75       231      1196      1490      1491
 -1       300    8    0    1
 -2        74       231       230      1491      1492      1487
 -1       301    8    0    1
 -2        75        76       232      1197      1493      1494
 -1       302    8    0    1
 -2        75       232       231      1494      1495      1490
 -1       303    8    0    1
 -2        76        77       233      1198      1496      1497
 -1       304    8    0    1
 -2        76       233       232      1497      1498      1493
 -1       305    8    0    1
 -2        77        78       234      1199      1499      1500
 -1       306    8    0    1
 -2        77       234       233      1500      1501      1496
 -1       307    8    0    1
 -2        78        79       235      1200      1502      1503
 -1       308    8    0    1
 -2        78       235       234      1503      1504      1499
 -1       309    8    0    1
 -2        79        80       236      1201      1505      1506
 -1       310    8    0    1
 -2        79       236       235      1506      1507      1502
 -1       311    8    0    1
 -2        80        81       237      1202      1508      1509
 -1       312    8    0    1
 -2        80       237       236      1509      1510      1505
 -1       313    8    0    1
 -2        81        82       238      1203      1511      1512
 -1       314    8    0    1
 -2        81       238       237      1512      1513      1508
 -1       315    8    0    1
 -2        82        83       239      1204      1514      1515
 -1       316    8    0    1
 -2        82       239       238      1515      1516      1511
 -1       317    8    0    1
 -2        83        84       240      1205      1517      1518
 -1       318    8    0    1
 -2        83       240       239      1518      1519      1514
 -1       319    8    0    1
 -2        84        85       241      1206      1520      1521
 -1       320    8    0    1
 -2        84       241       240      1521      1522      1517
 -1       321    8    0    1
 -2        85        86       242      1207      1523      1524
 -1       322    8    0    1
 -2        85       242       241      1524      1525      1520
 -1       323    8    0    1
 -2        86        87       243      1208      1526      1527
 -1       324    8    0    1
 -2        86       243       242      1527      1528      1523
 -1       325    8    0    1
 -2        87        88       244      1209      1529      1530
 -1       326    8    0    1
 -2        87       244       243      1530      1531      1526
 -1       327    8    0    1
 -2        88        89       245      1210      1532      1533
 -1       328    8    0    1
 -2        88       245       244      1533      1534      1529
 -1       329    8    0    1
 -2        89        90       246      1211      1535      1536
 -1       330    8    0    1
 -2        89       246       245      1536      1537      1532
 -1       331    8    0    1
 -2        90        91       247      1212      1538      1539
 -1       332    8    0    1
 -2        90       247       246      1539      1540      1535
 -1       333    8    0    1
 -2        91        92       248      1213      1541      1542
 -1       334    8    0    1
 -2        91       248       247      1542      1543      1538
 -1       335    8    0    1
 -2        92        93       249      1214      1544      1545
 -1       336    8    0    1
 -2        92       249       248      1545      1546      1541
 -1       337    8    0    1
 -2        93        94       250      1215      1547      1548
 -1       338    8    0    1
 -2        93       250       249      1548      1549      1544
 -1       339    8    0    1
 -2        94        95       251      1216      1550      1551
 -1       340    8    0    1
 -2        94       251       250      1551      1552      1547
 -1       341    8    0    1
 -2        95        96       252      1217      1553      1554
 -1       342    8    0    1
 -2        95       252       251      1554      1555      1550
 -1       343    8    0    1
 -2        96        97       253      1218      1556      1557
 -1       344    8    0    1
 -2        96       253       252      1557      1558      1553
 -1       345    8    0    1
 -2        97        98       254      1219      1559      1560
 -1       346    8    0    1
 -2        97       254       253      1560      1561      1556
 -1       347    8    0    1
 -2        98        99       255      1220      1562      1563
 -1       348    8    0    1
 -2        98       255       254      1563      1564      1559
 -1       349    8    0    1
 -2        99       100       256      1221      1565      1566
 -1       350    8    0    1
 -2        99       256       255      1566      1567      1562
 -1       351    8    0    1
 -2       100       101       257      1222      1568      1569
 -1       352    8    0    1
 -2       100       257       256      1569      1570      1565
 -1       353    8    0    1
 -2       101       102       258      1223      1571      1572
 -1       354    8    0    1
 -2       101       258       257      1572      1573      1568
 -1       355    8    0    1
 -2       102       103       259      1224      1574      1575
 -1       356    8    0    1
 -2       102       259       258      1575      1576      1571
 -1       357    8    0    1
 -2       103       104       260      1225      1577      1578
 -1       358    8    0    1
 -2       103       260       259      1578      1579      1574
 -1       359    8    0    1
 -2       104       105       261      1226      1580      1581
 -1       360    8    0    1
 -2       104       261       260      1581      1582      1577
 -1       361    8    0    1
 -2       105       106       262      1227      1583      1584
 -1       362    8    0    1
 -2       105       262       261      1584      1585      1580
 -1       363    8    0    1
 -2       106       107       263      1228      1586      1587
 -1       364    8    0    1
 -2       106       263       262      1587      1588      1583
 -1       365    8    0    1
 -2       107       108       264      1229      1589      1590
 -1       366    8    0    1
 -2       107       264       263      1590      1591      1586
 -1       367    8    0    1
 -2       108       109       265      1230      1592      1593
 -1       368    8    0    1
 -2       108       265       264      1593      1594      1589
 -1       369    8    0    1
 -2       109       110       266      1231      1595      1596
 -1       370    8    0    1
 -2       109       266       265      1596      1597      1592
 -1       371    8    0    1
 -2       110       111       267      1232      1598      1599
 -1       372    8    0    1
 -2       110       267       266      1599      1600      1595
 -1       373    8    0    1
 -2       111       112       268      1233      1601      1602
 -1       374    8    0    1
 -2       111       268       267      1602      1603      1598
 -1       375    8    0    1
 -2       112       113       269      1234      1604      1605
 -1       376    8    0    1
 -2       112       269       268      1605      1606      1601
 -1       377    8    0    1
 -2       113       114       270      1235      1607      1608
 -1       378    8    0    1
 -2       113       270       269      1608      1609      1604
 -1       379    8    0    1
 -2       114       115       271      1236      1610      1611
 -1       380    8    0    1
 -2       114       271       270      1611      1612      1607
 -1       381    8    0    1
 -2       115       116       272      1237      1613      1614
 -1       382    8    0    1
 -2       115       272       271      1614      1615      1610
 -1       383    8    0    1
 -2       116       117       273      1238      1616      1617
 -1       384    8    0    1
 -2       116       273       272      1617      1618      1613
 -1       385    8    0    1
 -2       117       118       274      1239      1619      1620
 -1       386    8    0    1
 -2       117       274       273      1620      1621      1616
 -1       387    8    0    1
 -2       118       119       275      1240      1622      1623
 -1       388    8    0    1
 -2       118       275       274      1623      1624      1619
 -1       389    8    0    1
 -2       119       120       276      1241      1625      1626
 -1       390    8    0    1
 -2       119       276       275      1626      1627      1622
 -1       391    8    0    1
 -2       120         3       121      1242      1243      1628
 -1       392    8    0    1
 -2       121       122       277      1244      1629      1630
 -1       393    8    0    1
 -2       122       123       278      1245      1631      1632
 -1       394    8    0    1
 -2       122       278       277      1632      1633      1629
 -1       395    8    0    1
 -2       123       124       279      1246      1634      1635
 -1       396    8    0    1
 -2       123       279       278      1635      1636      1631
 -1       397    8    0    1
 -2       124       125       280      1247      1637      1638
 -1       398    8    0    1
 -2       124       280       279      1638      1639      1634
 -1       399    8    0    1
 -2       125       126       281      1248      1640      1641
 -1       400    8    0    1
 -2       125       281       280      1641      1642      1637
 -1       401    8    0    1
 -2       126       127       282      1249      1643      1644
 -1       402    8    0    1
 -2       126       282       281      1644      1645      1640
 -1       403    8    0    1
 -2       127       128       283      1250      1646      1647
 -1       404    8    0    1
 -2       127       283       282      1647      1648      1643
 -1       405    8    0    1
 -2       128       129       284      1251      1649      1650
 -1       406    8    0    1
 -2       128       284       283      1650      1651      1646
 -1       407    8    0    1
 -2       129       130       285      1252      1652      1653
 -1       408    8    0    1
 -2       129       285       284      1653      1654      1649
 -1       409    8    0    1
 -2       130       131       286      1253      1655      1656
 -1       410    8    0    1
 -2       130       286       285      1656      1657      1652
 -1       411    8    0    1
 -2       131       132       287      1254      1658      1659
 -1       412    8    0    1
 -2       131       287       286      1659      1660      1655
 -1       413    8    0    1
 -2       132       133       288      1255      1661      1662
 -1       414    8    0    1
 -2       132       288       287      1662      1663      1658
 -1       415    8    0    1
 -2       133       134       289      1256      1664      1665
 -1       416    8    0    1
 -2       133       289       288      1665      1666      1661
 -1       417    8    0    1
 -2       134       135       290      1257      1667      1668
 -1       418    8    0    1
 -2       134       290       289      1668      1669      1664
 -1       419    8    0    1
 -2       135       136       291      1258      1670      1671
 -1       420    8    0    1
 -2       290       135       291      1667      1671      1672
 -1       421    8    0    1
 -2       136       228       291      1483      1673      1670
 -1       422    8    0    1
 -2         2       137       292      1260      1674      1675
 -1       423    8    0    1
 -2       137       138       293      1261      1676      1677
 -1       424    8    0    1
 -2       138       139       294      1262      1678      1679
 -1       425    8    0    1
 -2       139       140       295      1263      1680      1681
 -1       426    8    0    1
 -2       140       141       296      1264      1682      1683
 -1       427    8    0    1
 -2       141       142       297      1265      1684      1685
 -1       428    8    0    1
 -2       142       143       298      1266      1686      1687
 -1       429    8    0    1
 -2       143       144       299      1267      1688      1689
 -1       430    8    0    1
 -2       144       145       300      1268      1690      1691
 -1       431    8    0    1
 -2       145       146       301      1269      1692      1693
 -1       432    8    0    1
 -2       146       147       302      1270      1694      1695
 -1       433    8    0    1
 -2       147       148       303      1271      1696      1697
 -1       434    8    0    1
 -2       148       149       304      1272      1698      1699
 -1       435    8    0    1
 -2       149       150       305      1273      1700      1701
 -1       436    8    0    1
 -2       150       151       306      1274      1702      1703
 -1       437    8    0    1
 -2       151       152       307      1275      1704      1705
 -1       438    8    0    1
 -2       152       153       308      1276      1706      1707
 -1       439    8    0    1
 -2       153       154       309      1277      1708      1709
 -1       440    8    0    1
 -2       154       155       310      1278      1710      1711
 -1       441    8    0    1
 -2       155         1       311      1279      1712      1713
 -1       442    8    0    1
 -2         1       156       312      1280      1714      1715
 -1       443    8    0    1
 -2       156       157       313      1281      1716      1717
 -1       444    8    0    1
 -2       157       158       314      1282      1718      1719
 -1       445    8    0    1
 -2       158       159       315      1283      1720      1721
 -1       446    8    0    1
 -2       159       160       316      1284      1722      1723
 -1       447    8    0    1
 -2       160       161       317      1285      1724      1725
 -1       448    8    0    1
 -2       161       162       318      1286      1726      1727
 -1       449    8    0    1
 -2       162       163       319      1287      1728      1729
 -1       450    8    0    1
 -2       163       164       320      1288      1730      1731
 -1       451    8    0    1
 -2       164         2       321      1289      1732      1733
 -1       452    8    0    1
 -2       295       140       296      1680      1683      1734
 -1       453    8    0    1
 -2       294       139       295      1678      1681      1735
 -1       454    8    0    1
 -2       120       121       276      1628      1736      1625
 -1       455    8    0    1
 -2       121       277       276      1630      1737      1736
 -1       456    8    0    1
 -2       292       137       293      1674      1677      1738
 -1       457    8    0    1
 -2       293       138       294      1676      1679      1739
 -1       458    8    0    1
 -2         2       292       321      1675      1740      1732
 -1       459    8    0    1
 -2       141       297       296      1685      1741      1682
 -1       460    8    0    1
 -2       142       298       297      1687      1742      1684
 -1       461    8    0    1
 -2       143       299       298      1689      1743      1686
 -1       462    8    0    1
 -2       144       300       299      1691      1744      1688
 -1       463    8    0    1
 -2       145       301       300      1693      1745      1690
 -1       464    8    0    1
 -2       146       302       301      1695      1746      1692
 -1       465    8    0    1
 -2       147       303       302      1697      1747      1694
 -1       466    8    0    1
 -2       148       304       303      1699      1748      1696
 -1       467    8    0    1
 -2       149       305       304      1701      1749      1698
 -1       468    8    0    1
 -2       150       306       305      1703      1750      1700
 -1       469    8    0    1
 -2       151       307       306      1705      1751      1702
 -1       470    8    0    1
 -2       152       308       307      1707      1752      1704
 -1       471    8    0    1
 -2       153       309       308      1709      1753      1706
 -1       472    8    0    1
 -2       154       310       309      1711      1754      1708
 -1       473    8    0    1
 -2       155       311       310      1713      1755      1710
 -1       474    8    0    1
 -2         1       312       311      1715      1756      1712
 -1       475    8    0    1
 -2       156       313       312      1717      1757      1714
 -1       476    8    0    1
 -2       157       314       313      1719      1758      1716
 -1       477    8    0    1
 -2       158       315       314      1721      1759      1718
 -1       478    8    0    1
 -2       159       316       315      1723      1760      1720
 -1       479    8    0    1
 -2       160       317       316      1725      1761      1722
 -1       480    8    0    1
 -2       161       318       317      1727      1762      1724
 -1       481    8    0    1
 -2       162       319       318      1729      1763      1726
 -1       482    8    0    1
 -2       163       320       319      1731      1764      1728
 -1       483    8    0    1
 -2       164       321       320      1733      1765      1730
 -1       484    8    0    1
 -2        23         7       165      1290      1292      1766
 -1       485    8    0    1
 -2       166       167       322      1298      1767      1768
 -1       486    8    0    1
 -2       165       166       323      1295      1769      1770
 -1       487    8    0    1
 -2       166       322       323      1768      1771      1769
 -1       488    8    0    1
 -2       168       169       324      1304      1772      1773
 -1       489    8    0    1
 -2       169       170       325      1307      1774      1775
 -1       490    8    0    1
 -2       169       325       324      1775      1776      1772
 -1       491    8    0    1
 -2       170       171       326      1310      1777      1778
 -1       492    8    0    1
 -2       170       326       325      1778      1779      1774
 -1       493    8    0    1
 -2       171       172       327      1313      1780      1781
 -1       494    8    0    1
 -2       171       327       326      1781      1782      1777
 -1       495    8    0    1
 -2       172       173       328      1316      1783      1784
 -1       496    8    0    1
 -2       172       328       327      1784      1785      1780
 -1       497    8    0    1
 -2       173       174       329      1319      1786      1787
 -1       498    8    0    1
 -2       173       329       328      1787      1788      1783
 -1       499    8    0    1
 -2       174       175       330      1322      1789      1790
 -1       500    8    0    1
 -2       174       330       329      1790      1791      1786
 -1       501    8    0    1
 -2       175       176       331      1325      1792      1793
 -1       502    8    0    1
 -2       175       331       330      1793      1794      1789
 -1       503    8    0    1
 -2       176       177       332      1328      1795      1796
 -1       504    8    0    1
 -2       176       332       331      1796      1797      1792
 -1       505    8    0    1
 -2       177       178       333      1331      1798      1799
 -1       506    8    0    1
 -2       177       333       332      1799      1800      1795
 -1       507    8    0    1
 -2       178       179       334      1334      1801      1802
 -1       508    8    0    1
 -2       178       334       333      1802      1803      1798
 -1       509    8    0    1
 -2       179       180       335      1337      1804      1805
 -1       510    8    0    1
 -2       334       179       335      1801      1805      1806
 -1       511    8    0    1
 -2       180       229       335      1486      1807      1804
 -1       512    8    0    1
 -2       181        23       165      1339      1766      1808
 -1       513    8    0    1
 -2       229       230       336      1489      1809      1810
 -1       514    8    0    1
 -2       229       336       335      1810      1811      1807
 -1       515    8    0    1
 -2       181       165       323      1808      1770      1812
 -1       516    8    0    1
 -2       183       182       337      1346      1813      1814
 -1       517    8    0    1
 -2       184       183       338      1349      1815      1816
 -1       518    8    0    1
 -2       183       337       338      1814      1817      1815
 -1       519    8    0    1
 -2       185       184       339      1352      1818      1819
 -1       520    8    0    1
 -2       184       338       339      1816      1820      1818
 -1       521    8    0    1
 -2       186       185       340      1355      1821      1822
 -1       522    8    0    1
 -2       185       339       340      1819      1823      1821
 -1       523    8    0    1
 -2       187       186       341      1358      1824      1825
 -1       524    8    0    1
 -2       186       340       341      1822      1826      1824
 -1       525    8    0    1
 -2       188       187       342      1361      1827      1828
 -1       526    8    0    1
 -2       187       341       342      1825      1829      1827
 -1       527    8    0    1
 -2       189       188       343      1364      1830      1831
 -1       528    8    0    1
 -2       188       342       343      1828      1832      1830
 -1       529    8    0    1
 -2       190       189       344      1367      1833      1834
 -1       530    8    0    1
 -2       189       343       344      1831      1835      1833
 -1       531    8    0    1
 -2       191       190       345      1370      1836      1837
 -1       532    8    0    1
 -2       190       344       345      1834      1838      1836
 -1       533    8    0    1
 -2       192       191       346      1373      1839      1840
 -1       534    8    0    1
 -2       191       345       346      1837      1841      1839
 -1       535    8    0    1
 -2       193       192       347      1376      1842      1843
 -1       536    8    0    1
 -2       192       346       347      1840      1844      1842
 -1       537    8    0    1
 -2       194       193       348      1379      1845      1846
 -1       538    8    0    1
 -2       193       347       348      1843      1847      1845
 -1       539    8    0    1
 -2       195       194       349      1382      1848      1849
 -1       540    8    0    1
 -2       194       348       349      1846      1850      1848
 -1       541    8    0    1
 -2       196       195       350      1385      1851      1852
 -1       542    8    0    1
 -2       195       349       350      1849      1853      1851
 -1       543    8    0    1
 -2       197       196       351      1388      1854      1855
 -1       544    8    0    1
 -2       196       350       351      1852      1856      1854
 -1       545    8    0    1
 -2       198       197       352      1391      1857      1858
 -1       546    8    0    1
 -2       197       351       352      1855      1859      1857
 -1       547    8    0    1
 -2       199       198       353      1394      1860      1861
 -1       548    8    0    1
 -2       198       352       353      1858      1862      1860
 -1       549    8    0    1
 -2       200       199       354      1397      1863      1864
 -1       550    8    0    1
 -2       199       353       354      1861      1865      1863
 -1       551    8    0    1
 -2       201       200       355      1400      1866      1867
 -1       552    8    0    1
 -2       200       354       355      1864      1868      1866
 -1       553    8    0    1
 -2       202       201       356      1403      1869      1870
 -1       554    8    0    1
 -2       201       355       356      1867      1871      1869
 -1       555    8    0    1
 -2       203       202       357      1406      1872      1873
 -1       556    8    0    1
 -2       202       356       357      1870      1874      1872
 -1       557    8    0    1
 -2       204       203       358      1409      1875      1876
 -1       558    8    0    1
 -2       203       357       358      1873      1877      1875
 -1       559    8    0    1
 -2       205       204       359      1412      1878      1879
 -1       560    8    0    1
 -2       204       358       359      1876      1880      1878
 -1       561    8    0    1
 -2       206       205       360      1415      1881      1882
 -1       562    8    0    1
 -2       205       359       360      1879      1883      1881
 -1       563    8    0    1
 -2       207       206       361      1418      1884      1885
 -1       564    8    0    1
 -2       206       360       361      1882      1886      1884
 -1       565    8    0    1
 -2       208       207       362      1421      1887      1888
 -1       566    8    0    1
 -2       207       361       362      1885      1889      1887
 -1       567    8    0    1
 -2       209       208       363      1424      1890      1891
 -1       568    8    0    1
 -2       208       362       363      1888      1892      1890
 -1       569    8    0    1
 -2       210       209       364      1427      1893      1894
 -1       570    8    0    1
 -2       209       363       364      1891      1895      1893
 -1       571    8    0    1
 -2       211       210       365      1430      1896      1897
 -1       572    8    0    1
 -2       210       364       365      1894      1898      1896
 -1       573    8    0    1
 -2       212       211       366      1433      1899      1900
 -1       574    8    0    1
 -2       211       365       366      1897      1901      1899
 -1       575    8    0    1
 -2       213       212       367      1436      1902      1903
 -1       576    8    0    1
 -2       212       366       367      1900      1904      1902
 -1       577    8    0    1
 -2       214       213       368      1439      1905      1906
 -1       578    8    0    1
 -2       213       367       368      1903      1907      1905
 -1       579    8    0    1
 -2       215       214       369      1442      1908      1909
 -1       580    8    0    1
 -2       214       368       369      1906      1910      1908
 -1       581    8    0    1
 -2       216       215       370      1445      1911      1912
 -1       582    8    0    1
 -2       215       369       370      1909      1913      1911
 -1       583    8    0    1
 -2       217       216       371      1448      1914      1915
 -1       584    8    0    1
 -2       216       370       371      1912      1916      1914
 -1       585    8    0    1
 -2       218       217       372      1451      1917      1918
 -1       586    8    0    1
 -2       217       371       372      1915      1919      1917
 -1       587    8    0    1
 -2       219       218       373      1454      1920      1921
 -1       588    8    0    1
 -2       218       372       373      1918      1922      1920
 -1       589    8    0    1
 -2       220       219       374      1457      1923      1924
 -1       590    8    0    1
 -2       219       373       374      1921      1925      1923
 -1       591    8    0    1
 -2       221       220       375      1460      1926      1927
 -1       592    8    0    1
 -2       220       374       375      1924      1928      1926
 -1       593    8    0    1
 -2       222       221       376      1463      1929      1930
 -1       594    8    0    1
 -2       221       375       376      1927      1931      1929
 -1       595    8    0    1
 -2       223       222       377      1466      1932      1933
 -1       596    8    0    1
 -2       222       376       377      1930      1934      1932
 -1       597    8    0    1
 -2       224       223       378      1469      1935      1936
 -1       598    8    0    1
 -2       223       377       378      1933      1937      1935
 -1       599    8    0    1
 -2       225       224       379      1472      1938      1939
 -1       600    8    0    1
 -2       224       378       379      1936      1940      1938
 -1       601    8    0    1
 -2       226       225       380      1475      1941      1942
 -1       602    8    0    1
 -2       225       379       380      1939      1943      1941
 -1       603    8    0    1
 -2       227       226       381      1478      1944      1945
 -1       604    8    0    1
 -2       226       380       381      1942      1946      1944
 -1       605    8    0    1
 -2       228       227       382      1481      1947      1948
 -1       606    8    0    1
 -2       291       228       382      1673      1948      1949
 -1       607    8    0    1
 -2       227       381       382      1945      1950      1947
 -1       608    8    0    1
 -2       230       231       383      1492      1951      1952
 -1       609    8    0    1
 -2       230       383       336      1952      1953      1809
 -1       610    8    0    1
 -2       231       232       384      1495      1954      1955
 -1       611    8    0    1
 -2       231       384       383      1955      1956      1951
 -1       612    8    0    1
 -2       232       233       385      1498      1957      1958
 -1       613    8    0    1
 -2       232       385       384      1958      1959      1954
 -1       614    8    0    1
 -2       233       234       386      1501      1960      1961
 -1       615    8    0    1
 -2       233       386       385      1961      1962      1957
 -1       616    8    0    1
 -2       234       235       387      1504      1963      1964
 -1       617    8    0    1
 -2       234       387       386      1964      1965      1960
 -1       618    8    0    1
 -2       235       236       388      1507      1966      1967
 -1       619    8    0    1
 -2       235       388       387      1967      1968      1963
 -1       620    8    0    1
 -2       236       237       389      1510      1969      1970
 -1       621    8    0    1
 -2       236       389       388      1970      1971      1966
 -1       622    8    0    1
 -2       237       238       390      1513      1972      1973
 -1       623    8    0    1
 -2       237       390       389      1973      1974      1969
 -1       624    8    0    1
 -2       238       239       391      1516      1975      1976
 -1       625    8    0    1
 -2       238       391       390      1976      1977      1972
 -1       626    8    0    1
 -2       239       240       392      1519      1978      1979
 -1       627    8    0    1
 -2       239       392       391      1979      1980      1975
 -1       628    8    0    1
 -2       240       241       393      1522      1981      1982
 -1       629    8    0    1
 -2       240       393       392      1982      1983      1978
 -1       630    8    0    1
 -2       241       242       394      1525      1984      1985
 -1       631    8    0    1
 -2       241       394       393      1985      1986      1981
 -1       632    8    0    1
 -2       242       243       395      1528      1987      1988
 -1       633    8    0    1
 -2       242       395       394      1988      1989      1984
 -1       634    8    0    1
 -2       243       244       396      1531      1990      1991
 -1       635    8    0    1
 -2       243       396       395      1991      1992      1987
 -1       636    8    0    1
 -2       244       245       397      1534      1993      1994
 -1       637    8    0    1
 -2       244       397       396      1994      1995      1990
 -1       638    8    0    1
 -2       245       246       398      1537      1996      1997
 -1       639    8    0    1
 -2       245       398       397      1997      1998      1993
 -1       640    8    0    1
 -2       246       247       399      1540      1999      2000
 -1       641    8    0    1
 -2       246       399       398      2000      2001      1996
 -1       642    8    0    1
 -2       247       248       400      1543      2002      2003
 -1       643    8    0    1
 -2       247       400       399      2003      2004      1999
 -1       644    8    0    1
 -2       248       249       401      1546      2005      2006
 -1       645    8    0    1
 -2       248       401       400      2006      2007      2002
 -1       646    8    0    1
 -2       249       250       402      1549      2008      2009
 -1       647    8    0    1
 -2       249       402       401      2009      2010      2005
 -1       648    8    0    1
 -2       250       251       403      1552      2011      2012
 -1       649    8    0    1
 -2       250       403       402      2012      2013      2008
 -1       650    8    0    1
 -2       251       252       404      1555      2014      2015
 -1       651    8    0    1
 -2       251       404       403      2015      2016      2011
 -1       652    8    0    1
 -2       252       253       405      1558      2017      2018
 -1       653    8    0    1
 -2       252       405       404      2018      2019      2014
 -1       654    8    0    1
 -2       253       254       406      1561      2020      2021
 -1       655    8    0    1
 -2       253       406       405      2021      2022      2017
 -1       656    8    0    1
 -2       254       255       407      1564      2023      2024
 -1       657    8    0    1
 -2       254       407       406      2024      2025      2020
 -1       658    8    0    1
 -2       255       256       408      1567      2026      2027
 -1       659    8    0    1
 -2       255       408       407      2027      2028      2023
 -1       660    8    0    1
 -2       256       257       409      1570      2029      2030
 -1       661    8    0    1
 -2       256       409       408      2030      2031      2026
 -1       662    8    0    1
 -2       257       258       410      1573      2032      2033
 -1       663    8    0    1
 -2       257       410       409      2033      2034      2029
 -1       664    8    0    1
 -2       258       259       411      1576      2035      2036
 -1       665    8    0    1
 -2       258       411       410      2036      2037      2032
 -1       666    8    0    1
 -2       259       260       412      1579      2038      2039
 -1       667    8    0    1
 -2       259       412       411      2039      2040      2035
 -1       668    8    0    1
 -2       260       261       413      1582      2041      2042
 -1       669    8    0    1
 -2       260       413       412      2042      2043      2038
 -1       670    8    0    1
 -2       261       262       414      1585      2044      2045
 -1       671    8    0    1
 -2       261       414       413      2045      2046      2041
 -1       672    8    0    1
 -2       262       263       415      1588      2047      2048
 -1       673    8    0    1
 -2       262       415       414      2048      2049      2044
 -1       674    8    0    1
 -2       263       264       416      1591      2050      2051
 -1       675    8    0    1
 -2       263       416       415      2051      2052      2047
 -1       676    8    0    1
 -2       264       265       417      1594      2053      2054
 -1       677    8    0    1
 -2       264       417       416      2054      2055      2050
 -1       678    8    0    1
 -2       265       266       418      1597      2056      2057
 -1       679    8    0    1
 -2       265       418       417      2057      2058      2053
 -1       680    8    0    1
 -2       266       267       419      1600      2059      2060
 -1       681    8    0    1
 -2       266       419       418      2060      2061      2056
 -1       682    8    0    1
 -2       267       268       420      1603      2062      2063
 -1       683    8    0    1
 -2       267       420       419      2063      2064      2059
 -1       684    8    0    1
 -2       268       269       421      1606      2065      2066
 -1       685    8    0    1
 -2       268       421       420      2066      2067      2062
 -1       686    8    0    1
 -2       269       270       422      1609      2068      2069
 -1       687    8    0    1
 -2       269       422       421      2069      2070      2065
 -1       688    8    0    1
 -2       270       271       423      1612      2071      2072
 -1       689    8    0    1
 -2       270       423       422      2072      2073      2068
 -1       690    8    0    1
 -2       271       272       424      1615      2074      2075
 -1       691    8    0    1
 -2       271       424       423      2075      2076      2071
 -1       692    8    0    1
 -2       272       273       425      1618      2077      2078
 -1       693    8    0    1
 -2       272       425       424      2078      2079      2074
 -1       694    8    0    1
 -2       273       274       426      1621      2080      2081
 -1       695    8    0    1
 -2       273       426       425      2081      2082      2077
 -1       696    8    0    1
 -2       274       275       427      1624      2083      2084
 -1       697    8    0    1
 -2       274       427       426      2084      2085      2080
 -1       698    8    0    1
 -2       275       276       428      1627      2086      2087
 -1       699    8    0    1
 -2       427       275       428      2083      2087      2088
 -1       700    8    0    1
 -2       276       277       428      1737      2089      2086
 -1       701    8    0    1
 -2       279       280       429      1639      2090      2091
 -1       702    8    0    1
 -2       278       279       430      1636      2092      2093
 -1       703    8    0    1
 -2       279       429       430      2091      2094      2092
 -1       704    8    0    1
 -2       277       278       431      1633      2095      2096
 -1       705    8    0    1
 -2       428       277       431      2089      2096      2097
 -1       706    8    0    1
 -2       278       430       431      2093      2098      2095
 -1       707    8    0    1
 -2       280       281       432      1642      2099      2100
 -1       708    8    0    1
 -2       280       432       429      2100      2101      2090
 -1       709    8    0    1
 -2       281       282       433      1645      2102      2103
 -1       710    8    0    1
 -2       281       433       432      2103      2104      2099
 -1       711    8    0    1
 -2       282       283       434      1648      2105      2106
 -1       712    8    0    1
 -2       282       434       433      2106      2107      2102
 -1       713    8    0    1
 -2       283       284       435      1651      2108      2109
 -1       714    8    0    1
 -2       283       435       434      2109      2110      2105
 -1       715    8    0    1
 -2       284       285       436      1654      2111      2112
 -1       716    8    0    1
 -2       284       436       435      2112      2113      2108
 -1       717    8    0    1
 -2       285       286       437      1657      2114      2115
 -1       718    8    0    1
 -2       285       437       436      2115      2116      2111
 -1       719    8    0    1
 -2       286       287       438      1660      2117      2118
 -1       720    8    0    1
 -2       286       438       437      2118      2119      2114
 -1       721    8    0    1
 -2       287       288       439      1663      2120      2121
 -1       722    8    0    1
 -2       287       439       438      2121      2122      2117
 -1       723    8    0    1
 -2       288       289       440      1666      2123      2124
 -1       724    8    0    1
 -2       288       440       439      2124      2125      2120
 -1       725    8    0    1
 -2       289       290       441      1669      2126      2127
 -1       726    8    0    1
 -2       289       441       440      2127      2128      2123
 -1       727    8    0    1
 -2       293       294       442      1739      2129      2130
 -1       728    8    0    1
 -2       321       292       443      1740      2131      2132
 -1       729    8    0    1
 -2       292       293       444      1738      2133      2134
 -1       730    8    0    1
 -2       294       295       445      1735      2135      2136
 -1       731    8    0    1
 -2       295       296       446      1734      2137      2138
 -1       732    8    0    1
 -2       167       168       447      1301      2139      2140
 -1       733    8    0    1
 -2       322       167       447      1767      2140      2141
 -1       734    8    0    1
 -2       168       324       447      1773      2142      2139
 -1       735    8    0    1
 -2       297       298       448      1742      2143      2144
 -1       736    8    0    1
 -2       298       299       449      1743      2145      2146
 -1       737    8    0    1
 -2       299       300       450      1744      2147      2148
 -1       738    8    0    1
 -2       300       301       451      1745      2149      2150
 -1       739    8    0    1
 -2       301       302       452      1746      2151      2152
 -1       740    8    0    1
 -2       301       452       451      2152      2153      2149
 -1       741    8    0    1
 -2       302       303       453      1747      2154      2155
 -1       742    8    0    1
 -2       303       304       454      1748      2156      2157
 -1       743    8    0    1
 -2       304       305       455      1749      2158      2159
 -1       744    8    0    1
 -2       305       306       456      1750      2160      2161
 -1       745    8    0    1
 -2       306       307       457      1751      2162      2163
 -1       746    8    0    1
 -2       307       308       458      1752      2164      2165
 -1       747    8    0    1
 -2       308       309       459      1753      2166      2167
 -1       748    8    0    1
 -2       308       459       458      2167      2168      2164
 -1       749    8    0    1
 -2       309       310       460      1754      2169      2170
 -1       750    8    0    1
 -2       310       311       461      1755      2171      2172
 -1       751    8    0    1
 -2       311       312       462      1756      2173      2174
 -1       752    8    0    1
 -2       312       313       463      1757      2175      2176
 -1       753    8    0    1
 -2       313       314       464      1758      2177      2178
 -1       754    8    0    1
 -2       314       315       465      1759      2179      2180
 -1       755    8    0    1
 -2       315       316       466      1760      2181      2182
 -1       756    8    0    1
 -2       315       466       465      2182      2183      2179
 -1       757    8    0    1
 -2       316       317       467      1761      2184      2185
 -1       758    8    0    1
 -2       317       318       468      1762      2186      2187
 -1       759    8    0    1
 -2       318       319       469      1763      2188      2189
 -1       760    8    0    1
 -2       319       320       470      1764      2190      2191
 -1       761    8    0    1
 -2       320       321       471      1765      2192      2193
 -1       762    8    0    1
 -2       321       443       471      2132      2194      2192
 -1       763    8    0    1
 -2       296       297       472      1741      2195      2196
 -1       764    8    0    1
 -2       445       295       446      2135      2138      2197
 -1       765    8    0    1
 -2       181       323       182      1812      2198      1343
 -1       766    8    0    1
 -2       446       296       472      2137      2196      2199
 -1       767    8    0    1
 -2       297       448       472      2144      2200      2195
 -1       768    8    0    1
 -2       337       182       323      1813      2198      2201
 -1       769    8    0    1
 -2       444       293       442      2133      2130      2202
 -1       770    8    0    1
 -2       443       292       444      2131      2134      2203
 -1       771    8    0    1
 -2       441       290       291      2126      1672      2204
 -1       772    8    0    1
 -2       442       294       445      2129      2136      2205
 -1       773    8    0    1
 -2       470       320       471      2190      2193      2206
 -1       774    8    0    1
 -2       469       319       470      2188      2191      2207
 -1       775    8    0    1
 -2       468       318       469      2186      2189      2208
 -1       776    8    0    1
 -2       466       316       467      2181      2185      2209
 -1       777    8    0    1
 -2       464       314       465      2177      2180      2210
 -1       778    8    0    1
 -2       463       313       464      2175      2178      2211
 -1       779    8    0    1
 -2       462       312       463      2173      2176      2212
 -1       780    8    0    1
 -2       461       311       462      2171      2174      2213
 -1       781    8    0    1
 -2       459       309       460      2166      2170      2214
 -1       782    8    0    1
 -2       457       307       473      2162      2215      2216
 -1       783    8    0    1
 -2       307       458       473      2165      2217      2215
 -1       784    8    0    1
 -2       456       306       457      2160      2163      2218
 -1       785    8    0    1
 -2       455       305       456      2158      2161      2219
 -1       786    8    0    1
 -2       454       304       455      2156      2159      2220
 -1       787    8    0    1
 -2       452       302       453      2151      2155      2221
 -1       788    8    0    1
 -2       450       300       451      2147      2150      2222
 -1       789    8    0    1
 -2       448       298       449      2143      2146      2223
 -1       790    8    0    1
 -2       449       299       450      2145      2148      2224
 -1       791    8    0    1
 -2       453       303       454      2154      2157      2225
 -1       792    8    0    1
 -2       460       310       461      2169      2172      2226
 -1       793    8    0    1
 -2       467       317       468      2184      2187      2227
 -1       794    8    0    1
 -2       336       383       474      1953      2228      2229
 -1       795    8    0    1
 -2       325       326       475      1779      2230      2231
 -1       796    8    0    1
 -2       324       325       476      1776      2232      2233
 -1       797    8    0    1
 -2       325       475       476      2231      2234      2232
 -1       798    8    0    1
 -2       327       328       477      1785      2235      2236
 -1       799    8    0    1
 -2       328       329       478      1788      2237      2238
 -1       800    8    0    1
 -2       328       478       477      2238      2239      2235
 -1       801    8    0    1
 -2       329       330       479      1791      2240      2241
 -1       802    8    0    1
 -2       329       479       478      2241      2242      2237
 -1       803    8    0    1
 -2       330       331       480      1794      2243      2244
 -1       804    8    0    1
 -2       330       480       479      2244      2245      2240
 -1       805    8    0    1
 -2       331       332       481      1797      2246      2247
 -1       806    8    0    1
 -2       331       481       480      2247      2248      2243
 -1       807    8    0    1
 -2       332       333       482      1800      2249      2250
 -1       808    8    0    1
 -2       332       482       481      2250      2251      2246
 -1       809    8    0    1
 -2       383       384       483      1956      2252      2253
 -1       810    8    0    1
 -2       383       483       474      2253      2254      2228
 -1       811    8    0    1
 -2       338       337       484      1817      2255      2256
 -1       812    8    0    1
 -2       446       472       485      2199      2257      2258
 -1       813    8    0    1
 -2       339       338       486      1820      2259      2260
 -1       814    8    0    1
 -2       338       484       486      2256      2261      2259
 -1       815    8    0    1
 -2       340       339       487      1823      2262      2263
 -1       816    8    0    1
 -2       339       486       487      2260      2264      2262
 -1       817    8    0    1
 -2       341       340       488      1826      2265      2266
 -1       818    8    0    1
 -2       340       487       488      2263      2267      2265
 -1       819    8    0    1
 -2       342       341       489      1829      2268      2269
 -1       820    8    0    1
 -2       341       488       489      2266      2270      2268
 -1       821    8    0    1
 -2       343       342       490      1832      2271      2272
 -1       822    8    0    1
 -2       342       489       490      2269      2273      2271
 -1       823    8    0    1
 -2       344       343       491      1835      2274      2275
 -1       824    8    0    1
 -2       343       490       491      2272      2276      2274
 -1       825    8    0    1
 -2       345       344       492      1838      2277      2278
 -1       826    8    0    1
 -2       344       491       492      2275      2279      2277
 -1       827    8    0    1
 -2       346       345       493      1841      2280      2281
 -1       828    8    0    1
 -2       345       492       493      2278      2282      2280
 -1       829    8    0    1
 -2       347       346       494      1844      2283      2284
 -1       830    8    0    1
 -2       346       493       494      2281      2285      2283
 -1       831    8    0    1
 -2       348       347       495      1847      2286      2287
 -1       832    8    0    1
 -2       347       494       495      2284      2288      2286
 -1       833    8    0    1
 -2       349       348       496      1850      2289      2290
 -1       834    8    0    1
 -2       348       495       496      2287      2291      2289
 -1       835    8    0    1
 -2       350       349       497      1853      2292      2293
 -1       836    8    0    1
 -2       349       496       497      2290      2294      2292
 -1       837    8    0    1
 -2       351       350       498      1856      2295      2296
 -1       838    8    0    1
 -2       350       497       498      2293      2297      2295
 -1       839    8    0    1
 -2       352       351       499      1859      2298      2299
 -1       840    8    0    1
 -2       351       498       499      2296      2300      2298
 -1       841    8    0    1
 -2       353       352       500      1862      2301      2302
 -1       842    8    0    1
 -2       352       499       500      2299      2303      2301
 -1       843    8    0    1
 -2       354       353       501      1865      2304      2305
 -1       844    8    0    1
 -2       353       500       501      2302      2306      2304
 -1       845    8    0    1
 -2       355       354       502      1868      2307      2308
 -1       846    8    0    1
 -2       354       501       502      2305      2309      2307
 -1       847    8    0    1
 -2       356       355       503      1871      2310      2311
 -1       848    8    0    1
 -2       355       502       503      2308      2312      2310
 -1       849    8    0    1
 -2       357       356       504      1874      2313      2314
 -1       850    8    0    1
 -2       356       503       504      2311      2315      2313
 -1       851    8    0    1
 -2       358       357       505      1877      2316      2317
 -1       852    8    0    1
 -2       357       504       505      2314      2318      2316
 -1       853    8    0    1
 -2       359       358       506      1880      2319      2320
 -1       854    8    0    1
 -2       358       505       506      2317      2321      2319
 -1       855    8    0    1
 -2       360       359       507      1883      2322      2323
 -1       856    8    0    1
 -2       359       506       507      2320      2324      2322
 -1       857    8    0    1
 -2       361       360       508      1886      2325      2326
 -1       858    8    0    1
 -2       360       507       508      2323      2327      2325
 -1       859    8    0    1
 -2       362       361       509      1889      2328      2329
 -1       860    8    0    1
 -2       361       508       509      2326      2330      2328
 -1       861    8    0    1
 -2       363       362       510      1892      2331      2332
 -1       862    8    0    1
 -2       362       509       510      2329      2333      2331
 -1       863    8    0    1
 -2       364       363       511      1895      2334      2335
 -1       864    8    0    1
 -2       363       510       511      2332      2336      2334
 -1       865    8    0    1
 -2       365       364       512      1898      2337      2338
 -1       866    8    0    1
 -2       364       511       512      2335      2339      2337
 -1       867    8    0    1
 -2       366       365       513      1901      2340      2341
 -1       868    8    0    1
 -2       365       512       513      2338      2342      2340
 -1       869    8    0    1
 -2       367       366       514      1904      2343      2344
 -1       870    8    0    1
 -2       366       513       514      2341      2345      2343
 -1       871    8    0    1
 -2       368       367       515      1907      2346      2347
 -1       872    8    0    1
 -2       367       514       515      2344      2348      2346
 -1       873    8    0    1
 -2       369       368       516      1910      2349      2350
 -1       874    8    0    1
 -2       368       515       516      2347      2351      2349
 -1       875    8    0    1
 -2       370       369       517      1913      2352      2353
 -1       876    8    0    1
 -2       369       516       517      2350      2354      2352
 -1       877    8    0    1
 -2       371       370       518      1916      2355      2356
 -1       878    8    0    1
 -2       370       517       518      2353      2357      2355
 -1       879    8    0    1
 -2       372       371       519      1919      2358      2359
 -1       880    8    0    1
 -2       371       518       519      2356      2360      2358
 -1       881    8    0    1
 -2       373       372       520      1922      2361      2362
 -1       882    8    0    1
 -2       372       519       520      2359      2363      2361
 -1       883    8    0    1
 -2       374       373       521      1925      2364      2365
 -1       884    8    0    1
 -2       373       520       521      2362      2366      2364
 -1       885    8    0    1
 -2       375       374       522      1928      2367      2368
 -1       886    8    0    1
 -2       374       521       522      2365      2369      2367
 -1       887    8    0    1
 -2       376       375       523      1931      2370      2371
 -1       888    8    0    1
 -2       375       522       523      2368      2372      2370
 -1       889    8    0    1
 -2       377       376       524      1934      2373      2374
 -1       890    8    0    1
 -2       376       523       524      2371      2375      2373
 -1       891    8    0    1
 -2       378       377       525      1937      2376      2377
 -1       892    8    0    1
 -2       377       524       525      2374      2378      2376
 -1       893    8    0    1
 -2       379       378       526      1940      2379      2380
 -1       894    8    0    1
 -2       378       525       526      2377      2381      2379
 -1       895    8    0    1
 -2       380       379       527      1943      2382      2383
 -1       896    8    0    1
 -2       379       526       527      2380      2384      2382
 -1       897    8    0    1
 -2       381       380       528      1946      2385      2386
 -1       898    8    0    1
 -2       380       527       528      2383      2387      2385
 -1       899    8    0    1
 -2       385       386       529      1962      2388      2389
 -1       900    8    0    1
 -2       386       387       530      1965      2390      2391
 -1       901    8    0    1
 -2       386       530       529      2391      2392      2388
 -1       902    8    0    1
 -2       387       388       531      1968      2393      2394
 -1       903    8    0    1
 -2       387       531       530      2394      2395      2390
 -1       904    8    0    1
 -2       388       389       532      1971      2396      2397
 -1       905    8    0    1
 -2       388       532       531      2397      2398      2393
 -1       906    8    0    1
 -2       389       390       533      1974      2399      2400
 -1       907    8    0    1
 -2       389       533       532      2400      2401      2396
 -1       908    8    0    1
 -2       390       391       534      1977      2402      2403
 -1       909    8    0    1
 -2       390       534       533      2403      2404      2399
 -1       910    8    0    1
 -2       391       392       535      1980      2405      2406
 -1       911    8    0    1
 -2       391       535       534      2406      2407      2402
 -1       912    8    0    1
 -2       392       393       536      1983      2408      2409
 -1       913    8    0    1
 -2       392       536       535      2409      2410      2405
 -1       914    8    0    1
 -2       393       394       537      1986      2411      2412
 -1       915    8    0    1
 -2       393       537       536      2412      2413      2408
 -1       916    8    0    1
 -2       394       395       538      1989      2414      2415
 -1       917    8    0    1
 -2       394       538       537      2415      2416      2411
 -1       918    8    0    1
 -2       395       396       539      1992      2417      2418
 -1       919    8    0    1
 -2       395       539       538      2418      2419      2414
 -1       920    8    0    1
 -2       396       397       540      1995      2420      2421
 -1       921    8    0    1
 -2       396       540       539      2421      2422      2417
 -1       922    8    0    1
 -2       397       398       541      1998      2423      2424
 -1       923    8    0    1
 -2       397       541       540      2424      2425      2420
 -1       924    8    0    1
 -2       398       399       542      2001      2426      2427
 -1       925    8    0    1
 -2       398       542       541      2427      2428      2423
 -1       926    8    0    1
 -2       399       400       543      2004      2429      2430
 -1       927    8    0    1
 -2       399       543       542      2430      2431      2426
 -1       928    8    0    1
 -2       400       401       544      2007      2432      2433
 -1       929    8    0    1
 -2       400       544       543      2433      2434      2429
 -1       930    8    0    1
 -2       401       402       545      2010      2435      2436
 -1       931    8    0    1
 -2       401       545       544      2436      2437      2432
 -1       932    8    0    1
 -2       402       403       546      2013      2438      2439
 -1       933    8    0    1
 -2       402       546       545      2439      2440      2435
 -1       934    8    0    1
 -2       403       404       547      2016      2441      2442
 -1       935    8    0    1
 -2       403       547       546      2442      2443      2438
 -1       936    8    0    1
 -2       404       405       548      2019      2444      2445
 -1       937    8    0    1
 -2       404       548       547      2445      2446      2441
 -1       938    8    0    1
 -2       405       406       549      2022      2447      2448
 -1       939    8    0    1
 -2       405       549       548      2448      2449      2444
 -1       940    8    0    1
 -2       406       407       550      2025      2450      2451
 -1       941    8    0    1
 -2       406       550       549      2451      2452      2447
 -1       942    8    0    1
 -2       407       408       551      2028      2453      2454
 -1       943    8    0    1
 -2       407       551       550      2454      2455      2450
 -1       944    8    0    1
 -2       408       409       552      2031      2456      2457
 -1       945    8    0    1
 -2       408       552       551      2457      2458      2453
 -1       946    8    0    1
 -2       409       410       553      2034      2459      2460
 -1       947    8    0    1
 -2       409       553       552      2460      2461      2456
 -1       948    8    0    1
 -2       410       411       554      2037      2462      2463
 -1       949    8    0    1
 -2       410       554       553      2463      2464      2459
 -1       950    8    0    1
 -2       411       412       555      2040      2465      2466
 -1       951    8    0    1
 -2       411       555       554      2466      2467      2462
 -1       952    8    0    1
 -2       412       413       556      2043      2468      2469
 -1       953    8    0    1
 -2       412       556       555      2469      2470      2465
 -1       954    8    0    1
 -2       413       414       557      2046      2471      2472
 -1       955    8    0    1
 -2       413       557       556      2472      2473      2468
 -1       956    8    0    1
 -2       414       415       558      2049      2474      2475
 -1       957    8    0    1
 -2       414       558       557      2475      2476      2471
 -1       958    8    0    1
 -2       415       416       559      2052      2477      2478
 -1       959    8    0    1
 -2       415       559       558      2478      2479      2474
 -1       960    8    0    1
 -2       416       417       560      2055      2480      2481
 -1       961    8    0    1
 -2       416       560       559      2481      2482      2477
 -1       962    8    0    1
 -2       417       418       561      2058      2483      2484
 -1       963    8    0    1
 -2       417       561       560      2484      2485      2480
 -1       964    8    0    1
 -2       418       419       562      2061      2486      2487
 -1       965    8    0    1
 -2       418       562       561      2487      2488      2483
 -1       966    8    0    1
 -2       419       420       563      2064      2489      2490
 -1       967    8    0    1
 -2       419       563       562      2490      2491      2486
 -1       968    8    0    1
 -2       420       421       564      2067      2492      2493
 -1       969    8    0    1
 -2       420       564       563      2493      2494      2489
 -1       970    8    0    1
 -2       421       422       565      2070      2495      2496
 -1       971    8    0    1
 -2       421       565       564      2496      2497      2492
 -1       972    8    0    1
 -2       422       423       566      2073      2498      2499
 -1       973    8    0    1
 -2       422       566       565      2499      2500      2495
 -1       974    8    0    1
 -2       423       424       567      2076      2501      2502
 -1       975    8    0    1
 -2       423       567       566      2502      2503      2498
 -1       976    8    0    1
 -2       424       425       568      2079      2504      2505
 -1       977    8    0    1
 -2       424       568       567      2505      2506      2501
 -1       978    8    0    1
 -2       425       426       569      2082      2507      2508
 -1       979    8    0    1
 -2       425       569       568      2508      2509      2504
 -1       980    8    0    1
 -2       426       427       570      2085      2510      2511
 -1       981    8    0    1
 -2       426       570       569      2511      2512      2507
 -1       982    8    0    1
 -2       427       428       431      2088      2097      2513
 -1       983    8    0    1
 -2       432       433       571      2104      2514      2515
 -1       984    8    0    1
 -2       433       434       572      2107      2516      2517
 -1       985    8    0    1
 -2       433       572       571      2517      2518      2514
 -1       986    8    0    1
 -2       430       429       573      2094      2519      2520
 -1       987    8    0    1
 -2       429       432       574      2101      2521      2522
 -1       988    8    0    1
 -2       573       429       574      2519      2522      2523
 -1       989    8    0    1
 -2       432       571       574      2515      2524      2521
 -1       990    8    0    1
 -2       434       435       575      2110      2525      2526
 -1       991    8    0    1
 -2       434       575       572      2526      2527      2516
 -1       992    8    0    1
 -2       435       436       576      2113      2528      2529
 -1       993    8    0    1
 -2       435       576       575      2529      2530      2525
 -1       994    8    0    1
 -2       436       437       577      2116      2531      2532
 -1       995    8    0    1
 -2       436       577       576      2532      2533      2528
 -1       996    8    0    1
 -2       437       438       578      2119      2534      2535
 -1       997    8    0    1
 -2       437       578       577      2535      2536      2531
 -1       998    8    0    1
 -2       438       439       579      2122      2537      2538
 -1       999    8    0    1
 -2       438       579       578      2538      2539      2534
 -1      1000    8    0    1
 -2       439       440       580      2125      2540      2541
 -1      1001    8    0    1
 -2       439       580       579      2541      2542      2537
 -1      1002    8    0    1
 -2       440       441       581      2128      2543      2544
 -1      1003    8    0    1
 -2       440       581       580      2544      2545      2540
 -1      1004    8    0    1
 -2       443       444       582      2203      2546      2547
 -1      1005    8    0    1
 -2       442       445       583      2205      2548      2549
 -1      1006    8    0    1
 -2       384       385       584      1959      2550      2551
 -1      1007    8    0    1
 -2       385       529       584      2389      2552      2550
 -1      1008    8    0    1
 -2       472       448       585      2200      2553      2554
 -1      1009    8    0    1
 -2       441       291       382      2204      1949      2555
 -1      1010    8    0    1
 -2       470       471       586      2206      2556      2557
 -1      1011    8    0    1
 -2       444       442       587      2202      2558      2559
 -1      1012    8    0    1
 -2       471       443       588      2194      2560      2561
 -1      1013    8    0    1
 -2       464       465       589      2210      2562      2563
 -1      1014    8    0    1
 -2       450       451       590      2222      2564      2565
 -1      1015    8    0    1
 -2       326       327       591      1782      2566      2567
 -1      1016    8    0    1
 -2       475       326       591      2230      2567      2568
 -1      1017    8    0    1
 -2       327       477       591      2236      2569      2566
 -1      1018    8    0    1
 -2       449       450       592      2224      2570      2571
 -1      1019    8    0    1
 -2       453       454       593      2225      2572      2573
 -1      1020    8    0    1
 -2       448       449       594      2223      2574      2575
 -1      1021    8    0    1
 -2       449       592       594      2571      2576      2574
 -1      1022    8    0    1
 -2       451       452       595      2153      2577      2578
 -1      1023    8    0    1
 -2       460       461       596      2226      2579      2580
 -1      1024    8    0    1
 -2       452       453       597      2221      2581      2582
 -1      1025    8    0    1
 -2       452       597       595      2582      2583      2577
 -1      1026    8    0    1
 -2       454       455       598      2220      2584      2585
 -1      1027    8    0    1
 -2       455       456       599      2219      2586      2587
 -1      1028    8    0    1
 -2       456       457       600      2218      2588      2589
 -1      1029    8    0    1
 -2       456       600       599      2589      2590      2586
 -1      1030    8    0    1
 -2       458       459       601      2168      2591      2592
 -1      1031    8    0    1
 -2       467       468       602      2227      2593      2594
 -1      1032    8    0    1
 -2       459       460       603      2214      2595      2596
 -1      1033    8    0    1
 -2       459       603       601      2596      2597      2591
 -1      1034    8    0    1
 -2       461       462       604      2213      2598      2599
 -1      1035    8    0    1
 -2       461       604       596      2599      2600      2579
 -1      1036    8    0    1
 -2       462       463       605      2212      2601      2602
 -1      1037    8    0    1
 -2       463       464       606      2211      2603      2604
 -1      1038    8    0    1
 -2       465       466       607      2183      2605      2606
 -1      1039    8    0    1
 -2       466       467       608      2209      2607      2608
 -1      1040    8    0    1
 -2       468       469       609      2208      2609      2610
 -1      1041    8    0    1
 -2       468       609       602      2610      2611      2593
 -1      1042    8    0    1
 -2       469       470       610      2207      2612      2613
 -1      1043    8    0    1
 -2       337       323       611      2201      2614      2615
 -1      1044    8    0    1
 -2       484       337       611      2255      2615      2616
 -1      1045    8    0    1
 -2       323       322       611      1771      2617      2614
 -1      1046    8    0    1
 -2       335       336       612      1811      2618      2619
 -1      1047    8    0    1
 -2       334       335       612      1806      2619      2620
 -1      1048    8    0    1
 -2       336       474       612      2229      2621      2618
 -1      1049    8    0    1
 -2       445       446       613      2197      2622      2623
 -1      1050    8    0    1
 -2       446       485       613      2258      2624      2622
 -1      1051    8    0    1
 -2       451       595       590      2578      2625      2564
 -1      1052    8    0    1
 -2       324       476       614      2233      2626      2627
 -1      1053    8    0    1
 -2       324       614       447      2627      2628      2142
 -1      1054    8    0    1
 -2       483       384       584      2252      2551      2629
 -1      1055    8    0    1
 -2       333       334       612      1803      2620      2630
 -1      1056    8    0    1
 -2       611       322       447      2617      2141      2631
 -1      1057    8    0    1
 -2       609       469       610      2609      2613      2632
 -1      1058    8    0    1
 -2       608       467       602      2607      2594      2633
 -1      1059    8    0    1
 -2       470       586       610      2557      2634      2612
 -1      1060    8    0    1
 -2       607       466       608      2605      2608      2635
 -1      1061    8    0    1
 -2       427       431       570      2513      2636      2510
 -1      1062    8    0    1
 -2       583       445       613      2548      2623      2637
 -1      1063    8    0    1
 -2       431       430       570      2098      2638      2636
 -1      1064    8    0    1
 -2       606       464       589      2603      2563      2639
 -1      1065    8    0    1
 -2       443       582       588      2547      2640      2560
 -1      1066    8    0    1
 -2       582       444       587      2546      2559      2641
 -1      1067    8    0    1
 -2       442       583       587      2549      2642      2558
 -1      1068    8    0    1
 -2       603       460       596      2595      2580      2643
 -1      1069    8    0    1
 -2       333       612       482      2630      2644      2249
 -1      1070    8    0    1
 -2       585       448       594      2553      2575      2645
 -1      1071    8    0    1
 -2       441       382       615      2555      2646      2647
 -1      1072    8    0    1
 -2       581       441       615      2543      2647      2648
 -1      1073    8    0    1
 -2       382       381       615      1950      2649      2646
 -1      1074    8    0    1
 -2       586       471       588      2556      2561      2650
 -1      1075    8    0    1
 -2       600       457       616      2588      2651      2652
 -1      1076    8    0    1
 -2       457       473       616      2216      2653      2651
 -1      1077    8    0    1
 -2       458       601       617      2592      2654      2655
 -1      1078    8    0    1
 -2       458       617       473      2655      2656      2217
 -1      1079    8    0    1
 -2       597       453       593      2581      2573      2657
 -1      1080    8    0    1
 -2       462       605       604      2602      2658      2598
 -1      1081    8    0    1
 -2       450       590       618      2565      2659      2660
 -1      1082    8    0    1
 -2       450       618       592      2660      2661      2570
 -1      1083    8    0    1
 -2       589       465       607      2562      2606      2662
 -1      1084    8    0    1
 -2       593       454       598      2572      2585      2663
 -1      1085    8    0    1
 -2       485       472       619      2257      2664      2665
 -1      1086    8    0    1
 -2       472       585       619      2554      2666      2664
 -1      1087    8    0    1
 -2       598       455       620      2584      2667      2668
 -1      1088    8    0    1
 -2       455       599       620      2587      2669      2667
 -1      1089    8    0    1
 -2       605       463       606      2601      2604      2670
 -1      1090    8    0    1
 -2       570       430       573      2638      2520      2671
 -1      1091    8    0    1
 -2       615       381       528      2649      2386      2672
 -1      1092    8    0    1
 -2       478       479       621      2242      2673      2674
 -1      1093    8    0    1
 -2       477       478       622      2239      2675      2676
 -1      1094    8    0    1
 -2       478       621       622      2674      2677      2675
 -1      1095    8    0    1
 -2       480       481       623      2248      2678      2679
 -1      1096    8    0    1
 -2       481       482       624      2251      2680      2681
 -1      1097    8    0    1
 -2       481       624       623      2681      2682      2678
 -1      1098    8    0    1
 -2       474       483       625      2254      2683      2684
 -1      1099    8    0    1
 -2       585       594       626      2645      2685      2686
 -1      1100    8    0    1
 -2       613       485       627      2624      2687      2688
 -1      1101    8    0    1
 -2       612       474       482      2621      2689      2644
 -1      1102    8    0    1
 -2       590       595       628      2625      2690      2691
 -1      1103    8    0    1
 -2       487       486       629      2264      2692      2693
 -1      1104    8    0    1
 -2       488       487       630      2267      2694      2695
 -1      1105    8    0    1
 -2       487       629       630      2693      2696      2694
 -1      1106    8    0    1
 -2       489       488       631      2270      2697      2698
 -1      1107    8    0    1
 -2       488       630       631      2695      2699      2697
 -1      1108    8    0    1
 -2       490       489       632      2273      2700      2701
 -1      1109    8    0    1
 -2       489       631       632      2698      2702      2700
 -1      1110    8    0    1
 -2       491       490       633      2276      2703      2704
 -1      1111    8    0    1
 -2       490       632       633      2701      2705      2703
 -1      1112    8    0    1
 -2       492       491       634      2279      2706      2707
 -1      1113    8    0    1
 -2       491       633       634      2704      2708      2706
 -1      1114    8    0    1
 -2       493       492       635      2282      2709      2710
 -1      1115    8    0    1
 -2       492       634       635      2707      2711      2709
 -1      1116    8    0    1
 -2       494       493       636      2285      2712      2713
 -1      1117    8    0    1
 -2       493       635       636      2710      2714      2712
 -1      1118    8    0    1
 -2       495       494       637      2288      2715      2716
 -1      1119    8    0    1
 -2       494       636       637      2713      2717      2715
 -1      1120    8    0    1
 -2       496       495       638      2291      2718      2719
 -1      1121    8    0    1
 -2       495       637       638      2716      2720      2718
 -1      1122    8    0    1
 -2       497       496       639      2294      2721      2722
 -1      1123    8    0    1
 -2       496       638       639      2719      2723      2721
 -1      1124    8    0    1
 -2       498       497       640      2297      2724      2725
 -1      1125    8    0    1
 -2       497       639       640      2722      2726      2724
 -1      1126    8    0    1
 -2       499       498       641      2300      2727      2728
 -1      1127    8    0    1
 -2       498       640       641      2725      2729      2727
 -1      1128    8    0    1
 -2       500       499       642      2303      2730      2731
 -1      1129    8    0    1
 -2       499       641       642      2728      2732      2730
 -1      1130    8    0    1
 -2       501       500       643      2306      2733      2734
 -1      1131    8    0    1
 -2       500       642       643      2731      2735      2733
 -1      1132    8    0    1
 -2       502       501       644      2309      2736      2737
 -1      1133    8    0    1
 -2       501       643       644      2734      2738      2736
 -1      1134    8    0    1
 -2       503       502       645      2312      2739      2740
 -1      1135    8    0    1
 -2       502       644       645      2737      2741      2739
 -1      1136    8    0    1
 -2       504       503       646      2315      2742      2743
 -1      1137    8    0    1
 -2       503       645       646      2740      2744      2742
 -1      1138    8    0    1
 -2       505       504       647      2318      2745      2746
 -1      1139    8    0    1
 -2       504       646       647      2743      2747      2745
 -1      1140    8    0    1
 -2       506       505       648      2321      2748      2749
 -1      1141    8    0    1
 -2       505       647       648      2746      2750      2748
 -1      1142    8    0    1
 -2       507       506       649      2324      2751      2752
 -1      1143    8    0    1
 -2       506       648       649      2749      2753      2751
 -1      1144    8    0    1
 -2       508       507       650      2327      2754      2755
 -1      1145    8    0    1
 -2       507       649       650      2752      2756      2754
 -1      1146    8    0    1
 -2       509       508       651      2330      2757      2758
 -1      1147    8    0    1
 -2       508       650       651      2755      2759      2757
 -1      1148    8    0    1
 -2       510       509       652      2333      2760      2761
 -1      1149    8    0    1
 -2       509       651       652      2758      2762      2760
 -1      1150    8    0    1
 -2       511       510       653      2336      2763      2764
 -1      1151    8    0    1
 -2       510       652       653      2761      2765      2763
 -1      1152    8    0    1
 -2       512       511       654      2339      2766      2767
 -1      1153    8    0    1
 -2       511       653       654      2764      2768      2766
 -1      1154    8    0    1
 -2       513       512       655      2342      2769      2770
 -1      1155    8    0    1
 -2       512       654       655      2767      2771      2769
 -1      1156    8    0    1
 -2       514       513       656      2345      2772      2773
 -1      1157    8    0    1
 -2       513       655       656      2770      2774      2772
 -1      1158    8    0    1
 -2       515       514       657      2348      2775      2776
 -1      1159    8    0    1
 -2       514       656       657      2773      2777      2775
 -1      1160    8    0    1
 -2       516       515       658      2351      2778      2779
 -1      1161    8    0    1
 -2       515       657       658      2776      2780      2778
 -1      1162    8    0    1
 -2       517       516       659      2354      2781      2782
 -1      1163    8    0    1
 -2       516       658       659      2779      2783      2781
 -1      1164    8    0    1
 -2       518       517       660      2357      2784      2785
 -1      1165    8    0    1
 -2       517       659       660      2782      2786      2784
 -1      1166    8    0    1
 -2       519       518       661      2360      2787      2788
 -1      1167    8    0    1
 -2       518       660       661      2785      2789      2787
 -1      1168    8    0    1
 -2       520       519       662      2363      2790      2791
 -1      1169    8    0    1
 -2       519       661       662      2788      2792      2790
 -1      1170    8    0    1
 -2       521       520       663      2366      2793      2794
 -1      1171    8    0    1
 -2       520       662       663      2791      2795      2793
 -1      1172    8    0    1
 -2       522       521       664      2369      2796      2797
 -1      1173    8    0    1
 -2       521       663       664      2794      2798      2796
 -1      1174    8    0    1
 -2       523       522       665      2372      2799      2800
 -1      1175    8    0    1
 -2       522       664       665      2797      2801      2799
 -1      1176    8    0    1
 -2       524       523       666      2375      2802      2803
 -1      1177    8    0    1
 -2       523       665       666      2800      2804      2802
 -1      1178    8    0    1
 -2       525       524       667      2378      2805      2806
 -1      1179    8    0    1
 -2       524       666       667      2803      2807      2805
 -1      1180    8    0    1
 -2       526       525       668      2381      2808      2809
 -1      1181    8    0    1
 -2       525       667       668      2806      2810      2808
 -1      1182    8    0    1
 -2       527       526       669      2384      2811      2812
 -1      1183    8    0    1
 -2       526       668       669      2809      2813      2811
 -1      1184    8    0    1
 -2       528       527       670      2387      2814      2815
 -1      1185    8    0    1
 -2       527       669       670      2812      2816      2814
 -1      1186    8    0    1
 -2       530       531       671      2395      2817      2818
 -1      1187    8    0    1
 -2       586       588       672      2650      2819      2820
 -1      1188    8    0    1
 -2       529       530       673      2392      2821      2822
 -1      1189    8    0    1
 -2       530       671       673      2818      2823      2821
 -1      1190    8    0    1
 -2       532       533       674      2401      2824      2825
 -1      1191    8    0    1
 -2       533       534       675      2404      2826      2827
 -1      1192    8    0    1
 -2       533       675       674      2827      2828      2824
 -1      1193    8    0    1
 -2       534       535       676      2407      2829      2830
 -1      1194    8    0    1
 -2       534       676       675      2830      2831      2826
 -1      1195    8    0    1
 -2       535       536       677      2410      2832      2833
 -1      1196    8    0    1
 -2       535       677       676      2833      2834      2829
 -1      1197    8    0    1
 -2       536       537       678      2413      2835      2836
 -1      1198    8    0    1
 -2       536       678       677      2836      2837      2832
 -1      1199    8    0    1
 -2       537       538       679      2416      2838      2839
 -1      1200    8    0    1
 -2       537       679       678      2839      2840      2835
 -1      1201    8    0    1
 -2       538       539       680      2419      2841      2842
 -1      1202    8    0    1
 -2       538       680       679      2842      2843      2838
 -1      1203    8    0    1
 -2       539       540       681      2422      2844      2845
 -1      1204    8    0    1
 -2       539       681       680      2845      2846      2841
 -1      1205    8    0    1
 -2       540       541       682      2425      2847      2848
 -1      1206    8    0    1
 -2       540       682       681      2848      2849      2844
 -1      1207    8    0    1
 -2       541       542       683      2428      2850      2851
 -1      1208    8    0    1
 -2       541       683       682      2851      2852      2847
 -1      1209    8    0    1
 -2       542       543       684      2431      2853      2854
 -1      1210    8    0    1
 -2       542       684       683      2854      2855      2850
 -1      1211    8    0    1
 -2       543       544       685      2434      2856      2857
 -1      1212    8    0    1
 -2       543       685       684      2857      2858      2853
 -1      1213    8    0    1
 -2       544       545       686      2437      2859      2860
 -1      1214    8    0    1
 -2       544       686       685      2860      2861      2856
 -1      1215    8    0    1
 -2       545       546       687      2440      2862      2863
 -1      1216    8    0    1
 -2       545       687       686      2863      2864      2859
 -1      1217    8    0    1
 -2       546       547       688      2443      2865      2866
 -1      1218    8    0    1
 -2       546       688       687      2866      2867      2862
 -1      1219    8    0    1
 -2       547       548       689      2446      2868      2869
 -1      1220    8    0    1
 -2       547       689       688      2869      2870      2865
 -1      1221    8    0    1
 -2       548       549       690      2449      2871      2872
 -1      1222    8    0    1
 -2       548       690       689      2872      2873      2868
 -1      1223    8    0    1
 -2       549       550       691      2452      2874      2875
 -1      1224    8    0    1
 -2       549       691       690      2875      2876      2871
 -1      1225    8    0    1
 -2       550       551       692      2455      2877      2878
 -1      1226    8    0    1
 -2       550       692       691      2878      2879      2874
 -1      1227    8    0    1
 -2       551       552       693      2458      2880      2881
 -1      1228    8    0    1
 -2       551       693       692      2881      2882      2877
 -1      1229    8    0    1
 -2       552       553       694      2461      2883      2884
 -1      1230    8    0    1
 -2       552       694       693      2884      2885      2880
 -1      1231    8    0    1
 -2       553       554       695      2464      2886      2887
 -1      1232    8    0    1
 -2       553       695       694      2887      2888      2883
 -1      1233    8    0    1
 -2       554       555       696      2467      2889      2890
 -1      1234    8    0    1
 -2       554       696       695      2890      2891      2886
 -1      1235    8    0    1
 -2       555       556       697      2470      2892      2893
 -1      1236    8    0    1
 -2       555       697       696      2893      2894      2889
 -1      1237    8    0    1
 -2       556       557       698      2473      2895      2896
 -1      1238    8    0    1
 -2       556       698       697      2896      2897      2892
 -1      1239    8    0    1
 -2       557       558       699      2476      2898      2899
 -1      1240    8    0    1
 -2       557       699       698      2899      2900      2895
 -1      1241    8    0    1
 -2       558       559       700      2479      2901      2902
 -1      1242    8    0    1
 -2       558       700       699      2902      2903      2898
 -1      1243    8    0    1
 -2       559       560       701      2482      2904      2905
 -1      1244    8    0    1
 -2       559       701       700      2905      2906      2901
 -1      1245    8    0    1
 -2       560       561       702      2485      2907      2908
 -1      1246    8    0    1
 -2       560       702       701      2908      2909      2904
 -1      1247    8    0    1
 -2       561       562       703      2488      2910      2911
 -1      1248    8    0    1
 -2       561       703       702      2911      2912      2907
 -1      1249    8    0    1
 -2       562       563       704      2491      2913      2914
 -1      1250    8    0    1
 -2       562       704       703      2914      2915      2910
 -1      1251    8    0    1
 -2       563       564       705      2494      2916      2917
 -1      1252    8    0    1
 -2       563       705       704      2917      2918      2913
 -1      1253    8    0    1
 -2       564       565       706      2497      2919      2920
 -1      1254    8    0    1
 -2       564       706       705      2920      2921      2916
 -1      1255    8    0    1
 -2       565       566       707      2500      2922      2923
 -1      1256    8    0    1
 -2       565       707       706      2923      2924      2919
 -1      1257    8    0    1
 -2       566       567       708      2503      2925      2926
 -1      1258    8    0    1
 -2       566       708       707      2926      2927      2922
 -1      1259    8    0    1
 -2       567       568       709      2506      2928      2929
 -1      1260    8    0    1
 -2       567       709       708      2929      2930      2925
 -1      1261    8    0    1
 -2       568       569       710      2509      2931      2932
 -1      1262    8    0    1
 -2       568       710       709      2932      2933      2928
 -1      1263    8    0    1
 -2       569       570       711      2512      2934      2935
 -1      1264    8    0    1
 -2       710       569       711      2931      2935      2936
 -1      1265    8    0    1
 -2       570       573       711      2671      2937      2934
 -1      1266    8    0    1
 -2       583       613       712      2637      2938      2939
 -1      1267    8    0    1
 -2       575       576       713      2530      2940      2941
 -1      1268    8    0    1
 -2       615       528       714      2672      2942      2943
 -1      1269    8    0    1
 -2       528       670       714      2815      2944      2942
 -1      1270    8    0    1
 -2       571       572       715      2518      2945      2946
 -1      1271    8    0    1
 -2       576       577       716      2533      2947      2948
 -1      1272    8    0    1
 -2       576       716       713      2948      2949      2940
 -1      1273    8    0    1
 -2       572       575       717      2527      2950      2951
 -1      1274    8    0    1
 -2       715       572       717      2945      2951      2952
 -1      1275    8    0    1
 -2       575       713       717      2941      2953      2950
 -1      1276    8    0    1
 -2       577       578       718      2536      2954      2955
 -1      1277    8    0    1
 -2       577       718       716      2955      2956      2947
 -1      1278    8    0    1
 -2       578       579       719      2539      2957      2958
 -1      1279    8    0    1
 -2       578       719       718      2958      2959      2954
 -1      1280    8    0    1
 -2       579       580       720      2542      2960      2961
 -1      1281    8    0    1
 -2       579       720       719      2961      2962      2957
 -1      1282    8    0    1
 -2       608       602       721      2633      2963      2964
 -1      1283    8    0    1
 -2       587       583       722      2642      2965      2966
 -1      1284    8    0    1
 -2       588       582       723      2640      2967      2968
 -1      1285    8    0    1
 -2       588       723       672      2968      2969      2819
 -1      1286    8    0    1
 -2       594       592       724      2576      2970      2971
 -1      1287    8    0    1
 -2       597       593       725      2657      2972      2973
 -1      1288    8    0    1
 -2       582       587       726      2641      2974      2975
 -1      1289    8    0    1
 -2       603       596       727      2643      2976      2977
 -1      1290    8    0    1
 -2       584       529       728      2552      2978      2979
 -1      1291    8    0    1
 -2       529       673       728      2822      2980      2978
 -1      1292    8    0    1
 -2       531       532       729      2398      2981      2982
 -1      1293    8    0    1
 -2       671       531       729      2817      2982      2983
 -1      1294    8    0    1
 -2       532       674       729      2825      2984      2981
 -1      1295    8    0    1
 -2       486       484       730      2261      2985      2986
 -1      1296    8    0    1
 -2       486       730       629      2986      2987      2692
 -1      1297    8    0    1
 -2       483       584       731      2629      2988      2989
 -1      1298    8    0    1
 -2       625       483       731      2683      2989      2990
 -1      1299    8    0    1
 -2       584       728       731      2979      2991      2988
 -1      1300    8    0    1
 -2       611       447       614      2631      2628      2992
 -1      1301    8    0    1
 -2       609       610       732      2632      2993      2994
 -1      1302    8    0    1
 -2       479       480       733      2245      2995      2996
 -1      1303    8    0    1
 -2       621       479       733      2673      2996      2997
 -1      1304    8    0    1
 -2       480       623       733      2679      2998      2995
 -1      1305    8    0    1
 -2       604       605       734      2658      2999      3000
 -1      1306    8    0    1
 -2       581       615       714      2648      2943      3001
 -1      1307    8    0    1
 -2       476       475       735      2234      3002      3003
 -1      1308    8    0    1
 -2       595       597       736      2583      3004      3005
 -1      1309    8    0    1
 -2       605       606       737      2670      3006      3007
 -1      1310    8    0    1
 -2       599       600       738      2590      3008      3009
 -1      1311    8    0    1
 -2       596       604       739      2600      3010      3011
 -1      1312    8    0    1
 -2       610       586       740      2634      3012      3013
 -1      1313    8    0    1
 -2       589       607       741      2662      3014      3015
 -1      1314    8    0    1
 -2       601       603       742      2597      3016      3017
 -1      1315    8    0    1
 -2       593       598       743      2663      3018      3019
 -1      1316    8    0    1
 -2       593       743       725      3019      3020      2972
 -1      1317    8    0    1
 -2       606       589       744      2639      3021      3022
 -1      1318    8    0    1
 -2       737       606       744      3006      3022      3023
 -1      1319    8    0    1
 -2       589       741       744      3015      3024      3021
 -1      1320    8    0    1
 -2       602       609       745      2611      3025      3026
 -1      1321    8    0    1
 -2       607       608       746      2635      3027      3028
 -1      1322    8    0    1
 -2       614       476       747      2626      3029      3030
 -1      1323    8    0    1
 -2       476       735       747      3003      3031      3029
 -1      1324    8    0    1
 -2       477       622       748      2676      3032      3033
 -1      1325    8    0    1
 -2       477       748       591      3033      3034      2569
 -1      1326    8    0    1
 -2       585       626       749      2686      3035      3036
 -1      1327    8    0    1
 -2       585       749       619      3036      3037      2666
 -1      1328    8    0    1
 -2       613       627       712      2688      3038      2938
 -1      1329    8    0    1
 -2       482       474       625      2689      2684      3039
 -1      1330    8    0    1
 -2       628       595       736      2690      3005      3040
 -1      1331    8    0    1
 -2       604       734       739      3000      3041      3010
 -1      1332    8    0    1
 -2       743       598       750      3018      3042      3043
 -1      1333    8    0    1
 -2       598       620       750      2668      3044      3042
 -1      1334    8    0    1
 -2       742       603       727      3016      2977      3045
 -1      1335    8    0    1
 -2       571       715       751      2946      3046      3047
 -1      1336    8    0    1
 -2       571       751       574      3047      3048      2524
 -1      1337    8    0    1
 -2       586       672       740      2820      3049      3012
 -1      1338    8    0    1
 -2       741       607       746      3014      3028      3050
 -1      1339    8    0    1
 -2       482       625       624      3039      3051      2680
 -1      1340    8    0    1
 -2       573       574       752      2523      3052      3053
 -1      1341    8    0    1
 -2       711       573       752      2937      3053      3054
 -1      1342    8    0    1
 -2       574       751       752      3048      3055      3052
 -1      1343    8    0    1
 -2       722       583       712      2965      2939      3056
 -1      1344    8    0    1
 -2       727       596       739      2976      3011      3057
 -1      1345    8    0    1
 -2       608       721       746      2964      3058      3027
 -1      1346    8    0    1
 -2       721       602       745      2963      3026      3059
 -1      1347    8    0    1
 -2       580       581       714      2545      3001      3060
 -1      1348    8    0    1
 -2       726       587       722      2974      2966      3061
 -1      1349    8    0    1
 -2       723       582       726      2967      2975      3062
 -1      1350    8    0    1
 -2       734       605       737      2999      3007      3063
 -1      1351    8    0    1
 -2       616       473       617      2653      2656      3064
 -1      1352    8    0    1
 -2       600       616       753      2652      3065      3066
 -1      1353    8    0    1
 -2       600       753       738      3066      3067      3008
 -1      1354    8    0    1
 -2       724       592       618      2970      2661      3068
 -1      1355    8    0    1
 -2       617       601       754      2654      3069      3070
 -1      1356    8    0    1
 -2       601       742       754      3017      3071      3069
 -1      1357    8    0    1
 -2       594       724       626      2971      3072      2685
 -1      1358    8    0    1
 -2       618       590       628      2659      2691      3073
 -1      1359    8    0    1
 -2       597       725       736      2973      3074      3004
 -1      1360    8    0    1
 -2       609       732       745      2994      3075      3025
 -1      1361    8    0    1
 -2       627       485       619      2687      2665      3076
 -1      1362    8    0    1
 -2       611       614       755      2992      3077      3078
 -1      1363    8    0    1
 -2       484       611       755      2616      3078      3079
 -1      1364    8    0    1
 -2       614       747       755      3030      3080      3077
 -1      1365    8    0    1
 -2       475       591       756      2568      3081      3082
 -1      1366    8    0    1
 -2       735       475       756      3002      3082      3083
 -1      1367    8    0    1
 -2       591       748       756      3034      3084      3081
 -1      1368    8    0    1
 -2       732       610       740      2993      3013      3085
 -1      1369    8    0    1
 -2       620       599       757      2669      3086      3087
 -1      1370    8    0    1
 -2       599       738       757      3009      3088      3086
 -1      1371    8    0    1
 -2       484       755       730      3079      3089      2985
 -1      1372    8    0    1
 -2       580       714       758      3060      3090      3091
 -1      1373    8    0    1
 -2       720       580       758      2960      3091      3092
 -1      1374    8    0    1
 -2       714       670       758      2944      3093      3090
 -1      1375    8    0    1
 -2       628       736       759      3040      3094      3095
 -1      1376    8    0    1
 -2       623       624       760      2682      3096      3097
 -1      1377    8    0    1
 -2       629       730       761      2987      3098      3099
 -1      1378    8    0    1
 -2       631       630       762      2699      3100      3101
 -1      1379    8    0    1
 -2       632       631       763      2702      3102      3103
 -1      1380    8    0    1
 -2       631       762       763      3101      3104      3102
 -1      1381    8    0    1
 -2       633       632       764      2705      3105      3106
 -1      1382    8    0    1
 -2       632       763       764      3103      3107      3105
 -1      1383    8    0    1
 -2       634       633       765      2708      3108      3109
 -1      1384    8    0    1
 -2       633       764       765      3106      3110      3108
 -1      1385    8    0    1
 -2       635       634       766      2711      3111      3112
 -1      1386    8    0    1
 -2       634       765       766      3109      3113      3111
 -1      1387    8    0    1
 -2       638       637       737      2720      3114      3115
 -1      1388    8    0    1
 -2       640       639       741      2726      3116      3117
 -1      1389    8    0    1
 -2       641       640       746      2729      3118      3119
 -1      1390    8    0    1
 -2       642       641       767      2732      3120      3121
 -1      1391    8    0    1
 -2       643       642       768      2735      3122      3123
 -1      1392    8    0    1
 -2       642       767       768      3121      3124      3122
 -1      1393    8    0    1
 -2       644       643       769      2738      3125      3126
 -1      1394    8    0    1
 -2       643       768       769      3123      3127      3125
 -1      1395    8    0    1
 -2       645       644       770      2741      3128      3129
 -1      1396    8    0    1
 -2       644       769       770      3126      3130      3128
 -1      1397    8    0    1
 -2       646       645       771      2744      3131      3132
 -1      1398    8    0    1
 -2       645       770       771      3129      3133      3131
 -1      1399    8    0    1
 -2       647       646       772      2747      3134      3135
 -1      1400    8    0    1
 -2       646       771       772      3132      3136      3134
 -1      1401    8    0    1
 -2       648       647       773      2750      3137      3138
 -1      1402    8    0    1
 -2       647       772       773      3135      3139      3137
 -1      1403    8    0    1
 -2       649       648       774      2753      3140      3141
 -1      1404    8    0    1
 -2       648       773       774      3138      3142      3140
 -1      1405    8    0    1
 -2       650       649       775      2756      3143      3144
 -1      1406    8    0    1
 -2       649       774       775      3141      3145      3143
 -1      1407    8    0    1
 -2       651       650       776      2759      3146      3147
 -1      1408    8    0    1
 -2       650       775       776      3144      3148      3146
 -1      1409    8    0    1
 -2       652       651       777      2762      3149      3150
 -1      1410    8    0    1
 -2       651       776       777      3147      3151      3149
 -1      1411    8    0    1
 -2       653       652       778      2765      3152      3153
 -1      1412    8    0    1
 -2       652       777       778      3150      3154      3152
 -1      1413    8    0    1
 -2       654       653       779      2768      3155      3156
 -1      1414    8    0    1
 -2       653       778       779      3153      3157      3155
 -1      1415    8    0    1
 -2       655       654       780      2771      3158      3159
 -1      1416    8    0    1
 -2       654       779       780      3156      3160      3158
 -1      1417    8    0    1
 -2       656       655       781      2774      3161      3162
 -1      1418    8    0    1
 -2       655       780       781      3159      3163      3161
 -1      1419    8    0    1
 -2       657       656       782      2777      3164      3165
 -1      1420    8    0    1
 -2       656       781       782      3162      3166      3164
 -1      1421    8    0    1
 -2       658       657       783      2780      3167      3168
 -1      1422    8    0    1
 -2       657       782       783      3165      3169      3167
 -1      1423    8    0    1
 -2       659       658       784      2783      3170      3171
 -1      1424    8    0    1
 -2       658       783       784      3168      3172      3170
 -1      1425    8    0    1
 -2       660       659       785      2786      3173      3174
 -1      1426    8    0    1
 -2       659       784       785      3171      3175      3173
 -1      1427    8    0    1
 -2       661       660       786      2789      3176      3177
 -1      1428    8    0    1
 -2       660       785       786      3174      3178      3176
 -1      1429    8    0    1
 -2       662       661       787      2792      3179      3180
 -1      1430    8    0    1
 -2       661       786       787      3177      3181      3179
 -1      1431    8    0    1
 -2       663       662       788      2795      3182      3183
 -1      1432    8    0    1
 -2       662       787       788      3180      3184      3182
 -1      1433    8    0    1
 -2       664       663       789      2798      3185      3186
 -1      1434    8    0    1
 -2       663       788       789      3183      3187      3185
 -1      1435    8    0    1
 -2       665       664       790      2801      3188      3189
 -1      1436    8    0    1
 -2       664       789       790      3186      3190      3188
 -1      1437    8    0    1
 -2       666       665       791      2804      3191      3192
 -1      1438    8    0    1
 -2       665       790       791      3189      3193      3191
 -1      1439    8    0    1
 -2       667       666       792      2807      3194      3195
 -1      1440    8    0    1
 -2       666       791       792      3192      3196      3194
 -1      1441    8    0    1
 -2       668       667       793      2810      3197      3198
 -1      1442    8    0    1
 -2       667       792       793      3195      3199      3197
 -1      1443    8    0    1
 -2       669       668       794      2813      3200      3201
 -1      1444    8    0    1
 -2       668       793       794      3198      3202      3200
 -1      1445    8    0    1
 -2       670       669       795      2816      3203      3204
 -1      1446    8    0    1
 -2       758       670       795      3093      3204      3205
 -1      1447    8    0    1
 -2       669       794       795      3201      3206      3203
 -1      1448    8    0    1
 -2       674       675       796      2828      3207      3208
 -1      1449    8    0    1
 -2       678       679       618      2840      3209      3210
 -1      1450    8    0    1
 -2       679       680       724      2843      3211      3212
 -1      1451    8    0    1
 -2       680       681       749      2846      3213      3214
 -1      1452    8    0    1
 -2       682       683       797      2852      3215      3216
 -1      1453    8    0    1
 -2       683       684       798      2855      3217      3218
 -1      1454    8    0    1
 -2       683       798       797      3218      3219      3215
 -1      1455    8    0    1
 -2       684       685       799      2858      3220      3221
 -1      1456    8    0    1
 -2       684       799       798      3221      3222      3217
 -1      1457    8    0    1
 -2       685       686       800      2861      3223      3224
 -1      1458    8    0    1
 -2       685       800       799      3224      3225      3220
 -1      1459    8    0    1
 -2       686       687       801      2864      3226      3227
 -1      1460    8    0    1
 -2       686       801       800      3227      3228      3223
 -1      1461    8    0    1
 -2       687       688       802      2867      3229      3230
 -1      1462    8    0    1
 -2       687       802       801      3230      3231      3226
 -1      1463    8    0    1
 -2       688       689       803      2870      3232      3233
 -1      1464    8    0    1
 -2       688       803       802      3233      3234      3229
 -1      1465    8    0    1
 -2       689       690       804      2873      3235      3236
 -1      1466    8    0    1
 -2       689       804       803      3236      3237      3232
 -1      1467    8    0    1
 -2       690       691       805      2876      3238      3239
 -1      1468    8    0    1
 -2       690       805       804      3239      3240      3235
 -1      1469    8    0    1
 -2       691       692       806      2879      3241      3242
 -1      1470    8    0    1
 -2       691       806       805      3242      3243      3238
 -1      1471    8    0    1
 -2       692       693       807      2882      3244      3245
 -1      1472    8    0    1
 -2       692       807       806      3245      3246      3241
 -1      1473    8    0    1
 -2       693       694       808      2885      3247      3248
 -1      1474    8    0    1
 -2       693       808       807      3248      3249      3244
 -1      1475    8    0    1
 -2       694       695       809      2888      3250      3251
 -1      1476    8    0    1
 -2       694       809       808      3251      3252      3247
 -1      1477    8    0    1
 -2       695       696       810      2891      3253      3254
 -1      1478    8    0    1
 -2       695       810       809      3254      3255      3250
 -1      1479    8    0    1
 -2       696       697       811      2894      3256      3257
 -1      1480    8    0    1
 -2       696       811       810      3257      3258      3253
 -1      1481    8    0    1
 -2       697       698       812      2897      3259      3260
 -1      1482    8    0    1
 -2       697       812       811      3260      3261      3256
 -1      1483    8    0    1
 -2       698       699       813      2900      3262      3263
 -1      1484    8    0    1
 -2       698       813       812      3263      3264      3259
 -1      1485    8    0    1
 -2       699       700       814      2903      3265      3266
 -1      1486    8    0    1
 -2       699       814       813      3266      3267      3262
 -1      1487    8    0    1
 -2       700       701       815      2906      3268      3269
 -1      1488    8    0    1
 -2       700       815       814      3269      3270      3265
 -1      1489    8    0    1
 -2       701       702       816      2909      3271      3272
 -1      1490    8    0    1
 -2       701       816       815      3272      3273      3268
 -1      1491    8    0    1
 -2       702       703       817      2912      3274      3275
 -1      1492    8    0    1
 -2       702       817       816      3275      3276      3271
 -1      1493    8    0    1
 -2       703       704       818      2915      3277      3278
 -1      1494    8    0    1
 -2       703       818       817      3278      3279      3274
 -1      1495    8    0    1
 -2       704       705       819      2918      3280      3281
 -1      1496    8    0    1
 -2       704       819       818      3281      3282      3277
 -1      1497    8    0    1
 -2       705       706       820      2921      3283      3284
 -1      1498    8    0    1
 -2       705       820       819      3284      3285      3280
 -1      1499    8    0    1
 -2       706       707       821      2924      3286      3287
 -1      1500    8    0    1
 -2       706       821       820      3287      3288      3283
 -1      1501    8    0    1
 -2       707       708       822      2927      3289      3290
 -1      1502    8    0    1
 -2       707       822       821      3290      3291      3286
 -1      1503    8    0    1
 -2       708       709       823      2930      3292      3293
 -1      1504    8    0    1
 -2       708       823       822      3293      3294      3289
 -1      1505    8    0    1
 -2       709       710       824      2933      3295      3296
 -1      1506    8    0    1
 -2       709       824       823      3296      3297      3292
 -1      1507    8    0    1
 -2       710       711       825      2936      3298      3299
 -1      1508    8    0    1
 -2       824       710       825      3295      3299      3300
 -1      1509    8    0    1
 -2       711       752       825      3054      3301      3298
 -1      1510    8    0    1
 -2       741       746       640      3050      3118      3117
 -1      1511    8    0    1
 -2       716       718       826      2956      3302      3303
 -1      1512    8    0    1
 -2       732       740       827      3085      3304      3305
 -1      1513    8    0    1
 -2       719       720       828      2962      3306      3307
 -1      1514    8    0    1
 -2       713       716       829      2949      3308      3309
 -1      1515    8    0    1
 -2       716       826       829      3303      3310      3308
 -1      1516    8    0    1
 -2       728       673       830      2980      3311      3312
 -1      1517    8    0    1
 -2       673       671       831      2823      3313      3314
 -1      1518    8    0    1
 -2       673       831       830      3314      3315      3311
 -1      1519    8    0    1
 -2       718       719       832      2959      3316      3317
 -1      1520    8    0    1
 -2       826       718       832      3302      3317      3318
 -1      1521    8    0    1
 -2       719       828       832      3307      3319      3316
 -1      1522    8    0    1
 -2       723       726       833      3062      3320      3321
 -1      1523    8    0    1
 -2       676       677       759      2834      3322      3323
 -1      1524    8    0    1
 -2       672       723       834      2969      3324      3325
 -1      1525    8    0    1
 -2       723       833       834      3321      3326      3324
 -1      1526    8    0    1
 -2       630       629       835      2696      3327      3328
 -1      1527    8    0    1
 -2       630       835       762      3328      3329      3100
 -1      1528    8    0    1
 -2       734       737       637      3063      3114      3330
 -1      1529    8    0    1
 -2       722       712       836      3056      3331      3332
 -1      1530    8    0    1
 -2       741       639       744      3116      3333      3024
 -1      1531    8    0    1
 -2       740       672       837      3049      3334      3335
 -1      1532    8    0    1
 -2       672       834       837      3325      3336      3334
 -1      1533    8    0    1
 -2       724       618       679      3068      3209      3212
 -1      1534    8    0    1
 -2       627       619       838      3076      3337      3338
 -1      1535    8    0    1
 -2       712       627       839      3038      3339      3340
 -1      1536    8    0    1
 -2       745       732       840      3075      3341      3342
 -1      1537    8    0    1
 -2       726       722       841      3061      3343      3344
 -1      1538    8    0    1
 -2       722       836       841      3332      3345      3343
 -1      1539    8    0    1
 -2       734       637       636      3330      2717      3346
 -1      1540    8    0    1
 -2       736       725       842      3074      3347      3348
 -1      1541    8    0    1
 -2       739       734       636      3041      3346      3349
 -1      1542    8    0    1
 -2       616       617       843      3064      3350      3351
 -1      1543    8    0    1
 -2       618       628       678      3073      3352      3210
 -1      1544    8    0    1
 -2       730       755       844      3089      3353      3354
 -1      1545    8    0    1
 -2       755       747       844      3080      3355      3353
 -1      1546    8    0    1
 -2       725       743       845      3020      3356      3357
 -1      1547    8    0    1
 -2       725       845       842      3357      3358      3347
 -1      1548    8    0    1
 -2       727       739       846      3057      3359      3360
 -1      1549    8    0    1
 -2       721       745       767      3059      3361      3362
 -1      1550    8    0    1
 -2       742       727       847      3045      3363      3364
 -1      1551    8    0    1
 -2       622       621       848      2677      3365      3366
 -1      1552    8    0    1
 -2       624       625       849      3051      3367      3368
 -1      1553    8    0    1
 -2       760       624       849      3096      3368      3369
 -1      1554    8    0    1
 -2       625       731       849      2990      3370      3367
 -1      1555    8    0    1
 -2       638       737       744      3115      3023      3371
 -1      1556    8    0    1
 -2       739       636       846      3349      3372      3359
 -1      1557    8    0    1
 -2       678       628       677      3352      3373      2837
 -1      1558    8    0    1
 -2       677       628       759      3373      3095      3322
 -1      1559    8    0    1
 -2       748       622       850      3032      3374      3375
 -1      1560    8    0    1
 -2       622       848       850      3366      3376      3374
 -1      1561    8    0    1
 -2       623       760       851      3097      3377      3378
 -1      1562    8    0    1
 -2       623       851       733      3378      3379      2998
 -1      1563    8    0    1
 -2       629       761       835      3099      3380      3327
 -1      1564    8    0    1
 -2       635       766       846      3112      3381      3382
 -1      1565    8    0    1
 -2       750       620       757      3044      3087      3383
 -1      1566    8    0    1
 -2       747       735       852      3031      3384      3385
 -1      1567    8    0    1
 -2       747       852       844      3385      3386      3355
 -1      1568    8    0    1
 -2       751       715       853      3046      3387      3388
 -1      1569    8    0    1
 -2       616       843       753      3351      3389      3065
 -1      1570    8    0    1
 -2       636       635       846      2714      3382      3372
 -1      1571    8    0    1
 -2       736       842       759      3348      3390      3094
 -1      1572    8    0    1
 -2       639       638       744      2723      3371      3333
 -1      1573    8    0    1
 -2       641       746       721      3119      3058      3391
 -1      1574    8    0    1
 -2       674       796       854      3208      3392      3393
 -1      1575    8    0    1
 -2       674       854       729      3393      3394      2984
 -1      1576    8    0    1
 -2       838       619       749      3337      3037      3395
 -1      1577    8    0    1
 -2       720       758       855      3092      3396      3397
 -1      1578    8    0    1
 -2       828       720       855      3306      3397      3398
 -1      1579    8    0    1
 -2       758       795       855      3205      3399      3396
 -1      1580    8    0    1
 -2       671       729       856      2983      3400      3401
 -1      1581    8    0    1
 -2       729       854       856      3394      3402      3400
 -1      1582    8    0    1
 -2       675       676       857      2831      3403      3404
 -1      1583    8    0    1
 -2       730       844       761      3354      3405      3098
 -1      1584    8    0    1
 -2       627       838       839      3338      3406      3339
 -1      1585    8    0    1
 -2       681       682       858      2849      3407      3408
 -1      1586    8    0    1
 -2       831       671       856      3313      3401      3409
 -1      1587    8    0    1
 -2       715       717       859      2952      3410      3411
 -1      1588    8    0    1
 -2       715       859       853      3411      3412      3387
 -1      1589    8    0    1
 -2       827       740       860      3304      3413      3414
 -1      1590    8    0    1
 -2       740       837       860      3335      3415      3413
 -1      1591    8    0    1
 -2       732       827       840      3305      3416      3341
 -1      1592    8    0    1
 -2       717       713       861      2953      3417      3418
 -1      1593    8    0    1
 -2       859       717       861      3410      3418      3419
 -1      1594    8    0    1
 -2       713       829       861      3309      3420      3417
 -1      1595    8    0    1
 -2       743       750       862      3043      3421      3422
 -1      1596    8    0    1
 -2       743       862       845      3422      3423      3356
 -1      1597    8    0    1
 -2       848       621       863      3365      3424      3425
 -1      1598    8    0    1
 -2       621       733       863      2997      3426      3424
 -1      1599    8    0    1
 -2       754       742       864      3071      3427      3428
 -1      1600    8    0    1
 -2       742       847       864      3364      3429      3427
 -1      1601    8    0    1
 -2       724       680       626      3211      3430      3072
 -1      1602    8    0    1
 -2       847       727       846      3363      3360      3431
 -1      1603    8    0    1
 -2       833       726       865      3320      3432      3433
 -1      1604    8    0    1
 -2       726       841       865      3344      3434      3432
 -1      1605    8    0    1
 -2       836       712       839      3331      3340      3435
 -1      1606    8    0    1
 -2       738       753       866      3067      3436      3437
 -1      1607    8    0    1
 -2       626       680       749      3430      3214      3035
 -1      1608    8    0    1
 -2       852       735       867      3384      3438      3439
 -1      1609    8    0    1
 -2       735       756       867      3083      3440      3438
 -1      1610    8    0    1
 -2       858       682       797      3407      3216      3441
 -1      1611    8    0    1
 -2       641       721       767      3391      3362      3120
 -1      1612    8    0    1
 -2       731       728       868      2991      3442      3443
 -1      1613    8    0    1
 -2       849       731       868      3370      3443      3444
 -1      1614    8    0    1
 -2       728       830       868      3312      3445      3442
 -1      1615    8    0    1
 -2       738       866       757      3437      3446      3088
 -1      1616    8    0    1
 -2       745       840       767      3342      3447      3361
 -1      1617    8    0    1
 -2       796       675       857      3207      3404      3448
 -1      1618    8    0    1
 -2       843       617       754      3350      3070      3449
 -1      1619    8    0    1
 -2       835       761       869      3380      3450      3451
 -1      1620    8    0    1
 -2       750       757       870      3383      3452      3453
 -1      1621    8    0    1
 -2       753       843       871      3389      3454      3455
 -1      1622    8    0    1
 -2       764       763       872      3107      3456      3457
 -1      1623    8    0    1
 -2       765       764       873      3110      3458      3459
 -1      1624    8    0    1
 -2       764       872       873      3457      3460      3458
 -1      1625    8    0    1
 -2       757       866       874      3446      3461      3462
 -1      1626    8    0    1
 -2       757       874       870      3462      3463      3452
 -1      1627    8    0    1
 -2       770       769       875      3130      3464      3465
 -1      1628    8    0    1
 -2       771       770       876      3133      3466      3467
 -1      1629    8    0    1
 -2       770       875       876      3465      3468      3466
 -1      1630    8    0    1
 -2       772       771       877      3136      3469      3470
 -1      1631    8    0    1
 -2       771       876       877      3467      3471      3469
 -1      1632    8    0    1
 -2       773       772       878      3139      3472      3473
 -1      1633    8    0    1
 -2       772       877       878      3470      3474      3472
 -1      1634    8    0    1
 -2       774       773       879      3142      3475      3476
 -1      1635    8    0    1
 -2       773       878       879      3473      3477      3475
 -1      1636    8    0    1
 -2       775       774       880      3145      3478      3479
 -1      1637    8    0    1
 -2       774       879       880      3476      3480      3478
 -1      1638    8    0    1
 -2       776       775       881      3148      3481      3482
 -1      1639    8    0    1
 -2       775       880       881      3479      3483      3481
 -1      1640    8    0    1
 -2       777       776       882      3151      3484      3485
 -1      1641    8    0    1
 -2       776       881       882      3482      3486      3484
 -1      1642    8    0    1
 -2       778       777       883      3154      3487      3488
 -1      1643    8    0    1
 -2       777       882       883      3485      3489      3487
 -1      1644    8    0    1
 -2       779       778       884      3157      3490      3491
 -1      1645    8    0    1
 -2       778       883       884      3488      3492      3490
 -1      1646    8    0    1
 -2       780       779       885      3160      3493      3494
 -1      1647    8    0    1
 -2       779       884       885      3491      3495      3493
 -1      1648    8    0    1
 -2       781       780       886      3163      3496      3497
 -1      1649    8    0    1
 -2       780       885       886      3494      3498      3496
 -1      1650    8    0    1
 -2       782       781       887      3166      3499      3500
 -1      1651    8    0    1
 -2       781       886       887      3497      3501      3499
 -1      1652    8    0    1
 -2       783       782       888      3169      3502      3503
 -1      1653    8    0    1
 -2       782       887       888      3500      3504      3502
 -1      1654    8    0    1
 -2       784       783       889      3172      3505      3506
 -1      1655    8    0    1
 -2       783       888       889      3503      3507      3505
 -1      1656    8    0    1
 -2       785       784       890      3175      3508      3509
 -1      1657    8    0    1
 -2       784       889       890      3506      3510      3508
 -1      1658    8    0    1
 -2       786       785       891      3178      3511      3512
 -1      1659    8    0    1
 -2       785       890       891      3509      3513      3511
 -1      1660    8    0    1
 -2       787       786       892      3181      3514      3515
 -1      1661    8    0    1
 -2       786       891       892      3512      3516      3514
 -1      1662    8    0    1
 -2       788       787       893      3184      3517      3518
 -1      1663    8    0    1
 -2       787       892       893      3515      3519      3517
 -1      1664    8    0    1
 -2       789       788       894      3187      3520      3521
 -1      1665    8    0    1
 -2       788       893       894      3518      3522      3520
 -1      1666    8    0    1
 -2       790       789       895      3190      3523      3524
 -1      1667    8    0    1
 -2       789       894       895      3521      3525      3523
 -1      1668    8    0    1
 -2       791       790       896      3193      3526      3527
 -1      1669    8    0    1
 -2       790       895       896      3524      3528      3526
 -1      1670    8    0    1
 -2       792       791       897      3196      3529      3530
 -1      1671    8    0    1
 -2       791       896       897      3527      3531      3529
 -1      1672    8    0    1
 -2       793       792       898      3199      3532      3533
 -1      1673    8    0    1
 -2       792       897       898      3530      3534      3532
 -1      1674    8    0    1
 -2       794       793       899      3202      3535      3536
 -1      1675    8    0    1
 -2       793       898       899      3533      3537      3535
 -1      1676    8    0    1
 -2       857       676       759      3403      3323      3538
 -1      1677    8    0    1
 -2       761       844       900      3405      3539      3540
 -1      1678    8    0    1
 -2       869       761       900      3450      3540      3541
 -1      1679    8    0    1
 -2       844       852       900      3386      3542      3539
 -1      1680    8    0    1
 -2       831       856       901      3409      3543      3544
 -1      1681    8    0    1
 -2       797       798       902      3219      3545      3546
 -1      1682    8    0    1
 -2       800       801       903      3228      3547      3548
 -1      1683    8    0    1
 -2       801       802       904      3231      3549      3550
 -1      1684    8    0    1
 -2       801       904       903      3550      3551      3547
 -1      1685    8    0    1
 -2       802       803       905      3234      3552      3553
 -1      1686    8    0    1
 -2       802       905       904      3553      3554      3549
 -1      1687    8    0    1
 -2       803       804       906      3237      3555      3556
 -1      1688    8    0    1
 -2       803       906       905      3556      3557      3552
 -1      1689    8    0    1
 -2       804       805       907      3240      3558      3559
 -1      1690    8    0    1
 -2       804       907       906      3559      3560      3555
 -1      1691    8    0    1
 -2       805       806       908      3243      3561      3562
 -1      1692    8    0    1
 -2       805       908       907      3562      3563      3558
 -1      1693    8    0    1
 -2       806       807       909      3246      3564      3565
 -1      1694    8    0    1
 -2       806       909       908      3565      3566      3561
 -1      1695    8    0    1
 -2       807       808       910      3249      3567      3568
 -1      1696    8    0    1
 -2       807       910       909      3568      3569      3564
 -1      1697    8    0    1
 -2       808       809       911      3252      3570      3571
 -1      1698    8    0    1
 -2       808       911       910      3571      3572      3567
 -1      1699    8    0    1
 -2       809       810       912      3255      3573      3574
 -1      1700    8    0    1
 -2       809       912       911      3574      3575      3570
 -1      1701    8    0    1
 -2       810       811       913      3258      3576      3577
 -1      1702    8    0    1
 -2       810       913       912      3577      3578      3573
 -1      1703    8    0    1
 -2       811       812       914      3261      3579      3580
 -1      1704    8    0    1
 -2       811       914       913      3580      3581      3576
 -1      1705    8    0    1
 -2       812       813       915      3264      3582      3583
 -1      1706    8    0    1
 -2       812       915       914      3583      3584      3579
 -1      1707    8    0    1
 -2       813       814       916      3267      3585      3586
 -1      1708    8    0    1
 -2       813       916       915      3586      3587      3582
 -1      1709    8    0    1
 -2       814       815       917      3270      3588      3589
 -1      1710    8    0    1
 -2       814       917       916      3589      3590      3585
 -1      1711    8    0    1
 -2       815       816       918      3273      3591      3592
 -1      1712    8    0    1
 -2       815       918       917      3592      3593      3588
 -1      1713    8    0    1
 -2       816       817       919      3276      3594      3595
 -1      1714    8    0    1
 -2       816       919       918      3595      3596      3591
 -1      1715    8    0    1
 -2       817       818       920      3279      3597      3598
 -1      1716    8    0    1
 -2       817       920       919      3598      3599      3594
 -1      1717    8    0    1
 -2       818       819       921      3282      3600      3601
 -1      1718    8    0    1
 -2       818       921       920      3601      3602      3597
 -1      1719    8    0    1
 -2       819       820       922      3285      3603      3604
 -1      1720    8    0    1
 -2       819       922       921      3604      3605      3600
 -1      1721    8    0    1
 -2       820       821       923      3288      3606      3607
 -1      1722    8    0    1
 -2       820       923       922      3607      3608      3603
 -1      1723    8    0    1
 -2       821       822       924      3291      3609      3610
 -1      1724    8    0    1
 -2       821       924       923      3610      3611      3606
 -1      1725    8    0    1
 -2       822       823       925      3294      3612      3613
 -1      1726    8    0    1
 -2       822       925       924      3613      3614      3609
 -1      1727    8    0    1
 -2       823       824       926      3297      3615      3616
 -1      1728    8    0    1
 -2       823       926       925      3616      3617      3612
 -1      1729    8    0    1
 -2       829       826       927      3310      3618      3619
 -1      1730    8    0    1
 -2       752       751       928      3055      3620      3621
 -1      1731    8    0    1
 -2       825       752       928      3301      3621      3622
 -1      1732    8    0    1
 -2       751       853       928      3388      3623      3620
 -1      1733    8    0    1
 -2       762       835       929      3329      3624      3625
 -1      1734    8    0    1
 -2       835       869       929      3451      3626      3624
 -1      1735    8    0    1
 -2       830       831       930      3315      3627      3628
 -1      1736    8    0    1
 -2       831       901       930      3544      3629      3627
 -1      1737    8    0    1
 -2       834       833       931      3326      3630      3631
 -1      1738    8    0    1
 -2       799       800       932      3225      3632      3633
 -1      1739    8    0    1
 -2       800       903       932      3548      3634      3632
 -1      1740    8    0    1
 -2       798       799       933      3222      3635      3636
 -1      1741    8    0    1
 -2       799       932       933      3633      3637      3635
 -1      1742    8    0    1
 -2       749       681       858      3213      3408      3638
 -1      1743    8    0    1
 -2       768       767       840      3124      3447      3639
 -1      1744    8    0    1
 -2       866       753       871      3436      3455      3640
 -1      1745    8    0    1
 -2       837       834       934      3336      3641      3642
 -1      1746    8    0    1
 -2       834       931       934      3631      3643      3641
 -1      1747    8    0    1
 -2       838       749       858      3395      3638      3644
 -1      1748    8    0    1
 -2       841       836       935      3345      3645      3646
 -1      1749    8    0    1
 -2       768       840       936      3639      3647      3648
 -1      1750    8    0    1
 -2       769       768       936      3127      3648      3649
 -1      1751    8    0    1
 -2       840       827       936      3416      3650      3647
 -1      1752    8    0    1
 -2       763       762       937      3104      3651      3652
 -1      1753    8    0    1
 -2       763       937       872      3652      3653      3456
 -1      1754    8    0    1
 -2       836       839       902      3435      3654      3655
 -1      1755    8    0    1
 -2       843       754       938      3449      3656      3657
 -1      1756    8    0    1
 -2       756       748       939      3084      3658      3659
 -1      1757    8    0    1
 -2       867       756       939      3440      3659      3660
 -1      1758    8    0    1
 -2       748       850       939      3375      3661      3658
 -1      1759    8    0    1
 -2       851       760       940      3377      3662      3663
 -1      1760    8    0    1
 -2       852       867       941      3439      3664      3665
 -1      1761    8    0    1
 -2       852       941       900      3665      3666      3542
 -1      1762    8    0    1
 -2       846       766       847      3381      3667      3431
 -1      1763    8    0    1
 -2       750       870       862      3453      3668      3421
 -1      1764    8    0    1
 -2       837       934       860      3642      3669      3415
 -1      1765    8    0    1
 -2       827       860       875      3414      3670      3671
 -1      1766    8    0    1
 -2       765       873       864      3459      3672      3673
 -1      1767    8    0    1
 -2       874       866       942      3461      3674      3675
 -1      1768    8    0    1
 -2       866       871       942      3640      3676      3674
 -1      1769    8    0    1
 -2       766       765       847      3113      3677      3667
 -1      1770    8    0    1
 -2       854       796       943      3392      3678      3679
 -1      1771    8    0    1
 -2       853       859       944      3412      3680      3681
 -1      1772    8    0    1
 -2       937       762       929      3651      3625      3682
 -1      1773    8    0    1
 -2       795       794       945      3206      3683      3684
 -1      1774    8    0    1
 -2       855       795       945      3399      3684      3685
 -1      1775    8    0    1
 -2       794       899       945      3536      3686      3683
 -1      1776    8    0    1
 -2       902       798       933      3545      3636      3687
 -1      1777    8    0    1
 -2       928       853       926      3623      3688      3689
 -1      1778    8    0    1
 -2       797       902       839      3546      3654      3690
 -1      1779    8    0    1
 -2       829       927       946      3619      3691      3692
 -1      1780    8    0    1
 -2       829       946       861      3692      3693      3420
 -1      1781    8    0    1
 -2       927       826       947      3618      3694      3695
 -1      1782    8    0    1
 -2       826       832       947      3318      3696      3694
 -1      1783    8    0    1
 -2       824       825       928      3300      3622      3697
 -1      1784    8    0    1
 -2       845       862       943      3423      3698      3699
 -1      1785    8    0    1
 -2       824       928       926      3697      3689      3615
 -1      1786    8    0    1
 -2       863       733       851      3426      3379      3700
 -1      1787    8    0    1
 -2       931       833       948      3630      3701      3702
 -1      1788    8    0    1
 -2       833       865       948      3433      3703      3701
 -1      1789    8    0    1
 -2       841       935       949      3646      3704      3705
 -1      1790    8    0    1
 -2       841       949       865      3705      3706      3434
 -1      1791    8    0    1
 -2       850       848       950      3376      3707      3708
 -1      1792    8    0    1
 -2       828       855       945      3398      3685      3709
 -1      1793    8    0    1
 -2       842       845       943      3358      3699      3710
 -1      1794    8    0    1
 -2       935       836       902      3645      3655      3711
 -1      1795    8    0    1
 -2       938       754       864      3656      3428      3712
 -1      1796    8    0    1
 -2       871       843       951      3454      3713      3714
 -1      1797    8    0    1
 -2       843       938       951      3657      3715      3713
 -1      1798    8    0    1
 -2       853       944       926      3681      3716      3688
 -1      1799    8    0    1
 -2       797       839       838      3690      3406      3717
 -1      1800    8    0    1
 -2       950       848       952      3707      3718      3719
 -1      1801    8    0    1
 -2       848       863       952      3425      3720      3718
 -1      1802    8    0    1
 -2       828       945       953      3709      3721      3722
 -1      1803    8    0    1
 -2       832       828       953      3319      3722      3723
 -1      1804    8    0    1
 -2       945       899       953      3686      3724      3721
 -1      1805    8    0    1
 -2       847       765       864      3677      3673      3429
 -1      1806    8    0    1
 -2       838       858       797      3644      3441      3717
 -1      1807    8    0    1
 -2       830       930       954      3628      3725      3726
 -1      1808    8    0    1
 -2       856       854       955      3402      3727      3728
 -1      1809    8    0    1
 -2       901       856       955      3543      3728      3729
 -1      1810    8    0    1
 -2       854       943       955      3679      3730      3727
 -1      1811    8    0    1
 -2       868       830       954      3445      3726      3731
 -1      1812    8    0    1
 -2       864       873       956      3672      3732      3733
 -1      1813    8    0    1
 -2       938       864       956      3712      3733      3734
 -1      1814    8    0    1
 -2       873       872       956      3460      3735      3732
 -1      1815    8    0    1
 -2       875       860       957      3670      3736      3737
 -1      1816    8    0    1
 -2       876       875       957      3468      3737      3738
 -1      1817    8    0    1
 -2       860       934       957      3669      3739      3736
 -1      1818    8    0    1
 -2       870       874       958      3463      3740      3741
 -1      1819    8    0    1
 -2       944       859       959      3680      3742      3743
 -1      1820    8    0    1
 -2       859       861       959      3419      3744      3742
 -1      1821    8    0    1
 -2       943       796       842      3678      3745      3710
 -1      1822    8    0    1
 -2       875       769       936      3464      3649      3746
 -1      1823    8    0    1
 -2       937       929       960      3682      3747      3748
 -1      1824    8    0    1
 -2       877       876       961      3471      3749      3750
 -1      1825    8    0    1
 -2       876       957       961      3738      3751      3749
 -1      1826    8    0    1
 -2       878       877       962      3474      3752      3753
 -1      1827    8    0    1
 -2       877       961       962      3750      3754      3752
 -1      1828    8    0    1
 -2       879       878       963      3477      3755      3756
 -1      1829    8    0    1
 -2       878       962       963      3753      3757      3755
 -1      1830    8    0    1
 -2       880       879       964      3480      3758      3759
 -1      1831    8    0    1
 -2       879       963       964      3756      3760      3758
 -1      1832    8    0    1
 -2       881       880       965      3483      3761      3762
 -1      1833    8    0    1
 -2       880       964       965      3759      3763      3761
 -1      1834    8    0    1
 -2       882       881       966      3486      3764      3765
 -1      1835    8    0    1
 -2       881       965       966      3762      3766      3764
 -1      1836    8    0    1
 -2       883       882       967      3489      3767      3768
 -1      1837    8    0    1
 -2       882       966       967      3765      3769      3767
 -1      1838    8    0    1
 -2       884       883       968      3492      3770      3771
 -1      1839    8    0    1
 -2       883       967       968      3768      3772      3770
 -1      1840    8    0    1
 -2       885       884       969      3495      3773      3774
 -1      1841    8    0    1
 -2       884       968       969      3771      3775      3773
 -1      1842    8    0    1
 -2       886       885       970      3498      3776      3777
 -1      1843    8    0    1
 -2       885       969       970      3774      3778      3776
 -1      1844    8    0    1
 -2       887       886       971      3501      3779      3780
 -1      1845    8    0    1
 -2       886       970       971      3777      3781      3779
 -1      1846    8    0    1
 -2       888       887       972      3504      3782      3783
 -1      1847    8    0    1
 -2       887       971       972      3780      3784      3782
 -1      1848    8    0    1
 -2       889       888       973      3507      3785      3786
 -1      1849    8    0    1
 -2       888       972       973      3783      3787      3785
 -1      1850    8    0    1
 -2       890       889       974      3510      3788      3789
 -1      1851    8    0    1
 -2       889       973       974      3786      3790      3788
 -1      1852    8    0    1
 -2       891       890       975      3513      3791      3792
 -1      1853    8    0    1
 -2       890       974       975      3789      3793      3791
 -1      1854    8    0    1
 -2       892       891       976      3516      3794      3795
 -1      1855    8    0    1
 -2       891       975       976      3792      3796      3794
 -1      1856    8    0    1
 -2       893       892       977      3519      3797      3798
 -1      1857    8    0    1
 -2       892       976       977      3795      3799      3797
 -1      1858    8    0    1
 -2       894       893       978      3522      3800      3801
 -1      1859    8    0    1
 -2       893       977       978      3798      3802      3800
 -1      1860    8    0    1
 -2       895       894       979      3525      3803      3804
 -1      1861    8    0    1
 -2       894       978       979      3801      3805      3803
 -1      1862    8    0    1
 -2       896       895       980      3528      3806      3807
 -1      1863    8    0    1
 -2       895       979       980      3804      3808      3806
 -1      1864    8    0    1
 -2       897       896       981      3531      3809      3810
 -1      1865    8    0    1
 -2       896       980       981      3807      3811      3809
 -1      1866    8    0    1
 -2       898       897       982      3534      3812      3813
 -1      1867    8    0    1
 -2       897       981       982      3810      3814      3812
 -1      1868    8    0    1
 -2       899       898       983      3537      3815      3816
 -1      1869    8    0    1
 -2       898       982       983      3813      3817      3815
 -1      1870    8    0    1
 -2       904       905       984      3554      3818      3819
 -1      1871    8    0    1
 -2       868       954       940      3731      3820      3821
 -1      1872    8    0    1
 -2       940       760       868      3662      3822      3821
 -1      1873    8    0    1
 -2       903       904       985      3551      3823      3824
 -1      1874    8    0    1
 -2       904       984       985      3819      3825      3823
 -1      1875    8    0    1
 -2       906       907       986      3560      3826      3827
 -1      1876    8    0    1
 -2       907       908       987      3563      3828      3829
 -1      1877    8    0    1
 -2       907       987       986      3829      3830      3826
 -1      1878    8    0    1
 -2       908       909       988      3566      3831      3832
 -1      1879    8    0    1
 -2       908       988       987      3832      3833      3828
 -1      1880    8    0    1
 -2       909       910       989      3569      3834      3835
 -1      1881    8    0    1
 -2       909       989       988      3835      3836      3831
 -1      1882    8    0    1
 -2       910       911       990      3572      3837      3838
 -1      1883    8    0    1
 -2       910       990       989      3838      3839      3834
 -1      1884    8    0    1
 -2       911       912       991      3575      3840      3841
 -1      1885    8    0    1
 -2       911       991       990      3841      3842      3837
 -1      1886    8    0    1
 -2       912       913       992      3578      3843      3844
 -1      1887    8    0    1
 -2       912       992       991      3844      3845      3840
 -1      1888    8    0    1
 -2       913       914       993      3581      3846      3847
 -1      1889    8    0    1
 -2       913       993       992      3847      3848      3843
 -1      1890    8    0    1
 -2       914       915       994      3584      3849      3850
 -1      1891    8    0    1
 -2       914       994       993      3850      3851      3846
 -1      1892    8    0    1
 -2       915       916       995      3587      3852      3853
 -1      1893    8    0    1
 -2       915       995       994      3853      3854      3849
 -1      1894    8    0    1
 -2       916       917       996      3590      3855      3856
 -1      1895    8    0    1
 -2       916       996       995      3856      3857      3852
 -1      1896    8    0    1
 -2       917       918       997      3593      3858      3859
 -1      1897    8    0    1
 -2       917       997       996      3859      3860      3855
 -1      1898    8    0    1
 -2       918       919       998      3596      3861      3862
 -1      1899    8    0    1
 -2       918       998       997      3862      3863      3858
 -1      1900    8    0    1
 -2       919       920       999      3599      3864      3865
 -1      1901    8    0    1
 -2       919       999       998      3865      3866      3861
 -1      1902    8    0    1
 -2       920       921      1000      3602      3867      3868
 -1      1903    8    0    1
 -2       920      1000       999      3868      3869      3864
 -1      1904    8    0    1
 -2       921       922      1001      3605      3870      3871
 -1      1905    8    0    1
 -2       921      1001      1000      3871      3872      3867
 -1      1906    8    0    1
 -2       922       923      1002      3608      3873      3874
 -1      1907    8    0    1
 -2       922      1002      1001      3874      3875      3870
 -1      1908    8    0    1
 -2       923       924      1003      3611      3876      3877
 -1      1909    8    0    1
 -2       923      1003      1002      3877      3878      3873
 -1      1910    8    0    1
 -2       924       925      1004      3614      3879      3880
 -1      1911    8    0    1
 -2       924      1004      1003      3880      3881      3876
 -1      1912    8    0    1
 -2       925       926       944      3617      3716      3882
 -1      1913    8    0    1
 -2       863       851      1005      3700      3883      3884
 -1      1914    8    0    1
 -2       952       863      1005      3720      3884      3885
 -1      1915    8    0    1
 -2       851       940      1005      3663      3886      3883
 -1      1916    8    0    1
 -2       943       862      1006      3698      3887      3888
 -1      1917    8    0    1
 -2       943      1006       955      3888      3889      3730
 -1      1918    8    0    1
 -2       935       902       933      3711      3687      3890
 -1      1919    8    0    1
 -2       929       869      1007      3626      3891      3892
 -1      1920    8    0    1
 -2       929      1007       960      3892      3893      3747
 -1      1921    8    0    1
 -2       932       903      1008      3634      3894      3895
 -1      1922    8    0    1
 -2       903       985      1008      3824      3896      3894
 -1      1923    8    0    1
 -2       827       875       936      3671      3746      3650
 -1      1924    8    0    1
 -2       930       901      1009      3629      3897      3898
 -1      1925    8    0    1
 -2       940       954      1010      3820      3899      3900
 -1      1926    8    0    1
 -2       940      1010      1005      3900      3901      3886
 -1      1927    8    0    1
 -2       868       760       849      3822      3369      3444
 -1      1928    8    0    1
 -2       925       944      1004      3882      3902      3879
 -1      1929    8    0    1
 -2       842       796       857      3745      3448      3903
 -1      1930    8    0    1
 -2       850       950      1011      3708      3904      3905
 -1      1931    8    0    1
 -2       934       931      1012      3643      3906      3907
 -1      1932    8    0    1
 -2       905       906      1013      3557      3908      3909
 -1      1933    8    0    1
 -2       906       986      1013      3827      3910      3908
 -1      1934    8    0    1
 -2       935       933      1014      3890      3911      3912
 -1      1935    8    0    1
 -2       949       935      1014      3704      3912      3913
 -1      1936    8    0    1
 -2       933       932      1014      3637      3914      3911
 -1      1937    8    0    1
 -2       862       870      1006      3668      3915      3887
 -1      1938    8    0    1
 -2       872       937      1015      3653      3916      3917
 -1      1939    8    0    1
 -2       937       960      1015      3748      3918      3916
 -1      1940    8    0    1
 -2       954       930      1016      3725      3919      3920
 -1      1941    8    0    1
 -2      1010       954      1016      3899      3920      3921
 -1      1942    8    0    1
 -2       930      1009      1016      3898      3922      3919
 -1      1943    8    0    1
 -2       942       871      1017      3676      3923      3924
 -1      1944    8    0    1
 -2       871       951      1017      3714      3925      3923
 -1      1945    8    0    1
 -2       959       861       946      3744      3693      3926
 -1      1946    8    0    1
 -2       944       959      1018      3743      3927      3928
 -1      1947    8    0    1
 -2       944      1018      1004      3928      3929      3902
 -1      1948    8    0    1
 -2       874       942      1019      3675      3930      3931
 -1      1949    8    0    1
 -2       874      1019       958      3931      3932      3740
 -1      1950    8    0    1
 -2       932      1008      1014      3895      3933      3914
 -1      1951    8    0    1
 -2       899       983       953      3816      3934      3724
 -1      1952    8    0    1
 -2       857       759       842      3538      3390      3903
 -1      1953    8    0    1
 -2       984       905      1013      3818      3909      3935
 -1      1954    8    0    1
 -2       938       956       951      3734      3936      3715
 -1      1955    8    0    1
 -2       872      1015       956      3917      3937      3735
 -1      1956    8    0    1
 -2       946       927      1020      3691      3938      3939
 -1      1957    8    0    1
 -2      1012       931      1021      3906      3940      3941
 -1      1958    8    0    1
 -2       931       948      1021      3702      3942      3940
 -1      1959    8    0    1
 -2       947       832       953      3696      3723      3943
 -1      1960    8    0    1
 -2       870       958      1006      3741      3944      3915
 -1      1961    8    0    1
 -2       927       947      1022      3695      3945      3946
 -1      1962    8    0    1
 -2       927      1022      1020      3946      3947      3938
 -1      1963    8    0    1
 -2       948       865      1023      3703      3948      3949
 -1      1964    8    0    1
 -2       865       949      1023      3706      3950      3948
 -1      1965    8    0    1
 -2       869       900      1024      3541      3951      3952
 -1      1966    8    0    1
 -2      1007       869      1024      3891      3952      3953
 -1      1967    8    0    1
 -2       900       941      1024      3666      3954      3951
 -1      1968    8    0    1
 -2      1011       950      1025      3904      3955      3956
 -1      1969    8    0    1
 -2       934      1012       957      3907      3957      3739
 -1      1970    8    0    1
 -2       939       850      1011      3661      3905      3958
 -1      1971    8    0    1
 -2       950       952      1026      3719      3959      3960
 -1      1972    8    0    1
 -2       950      1026      1025      3960      3961      3955
 -1      1973    8    0    1
 -2      1009       901       958      3897      3962      3963
 -1      1974    8    0    1
 -2       867       939      1027      3660      3964      3965
 -1      1975    8    0    1
 -2       941       867      1027      3664      3965      3966
 -1      1976    8    0    1
 -2       939      1011      1027      3958      3967      3964
 -1      1977    8    0    1
 -2      1011      1025      1028      3956      3968      3969
 -1      1978    8    0    1
 -2       988       989      1029      3836      3970      3971
 -1      1979    8    0    1
 -2       961       957      1012      3751      3957      3972
 -1      1980    8    0    1
 -2       963       962      1030      3757      3973      3974
 -1      1981    8    0    1
 -2       964       963      1031      3760      3975      3976
 -1      1982    8    0    1
 -2       963      1030      1031      3974      3977      3975
 -1      1983    8    0    1
 -2       965       964      1032      3763      3978      3979
 -1      1984    8    0    1
 -2       964      1031      1032      3976      3980      3978
 -1      1985    8    0    1
 -2       966       965      1033      3766      3981      3982
 -1      1986    8    0    1
 -2       965      1032      1033      3979      3983      3981
 -1      1987    8    0    1
 -2       967       966      1034      3769      3984      3985
 -1      1988    8    0    1
 -2       966      1033      1034      3982      3986      3984
 -1      1989    8    0    1
 -2       968       967      1035      3772      3987      3988
 -1      1990    8    0    1
 -2       967      1034      1035      3985      3989      3987
 -1      1991    8    0    1
 -2       969       968      1036      3775      3990      3991
 -1      1992    8    0    1
 -2       968      1035      1036      3988      3992      3990
 -1      1993    8    0    1
 -2       970       969      1037      3778      3993      3994
 -1      1994    8    0    1
 -2       969      1036      1037      3991      3995      3993
 -1      1995    8    0    1
 -2       971       970      1038      3781      3996      3997
 -1      1996    8    0    1
 -2       970      1037      1038      3994      3998      3996
 -1      1997    8    0    1
 -2       972       971      1039      3784      3999      4000
 -1      1998    8    0    1
 -2       971      1038      1039      3997      4001      3999
 -1      1999    8    0    1
 -2       973       972      1040      3787      4002      4003
 -1      2000    8    0    1
 -2       972      1039      1040      4000      4004      4002
 -1      2001    8    0    1
 -2       974       973      1041      3790      4005      4006
 -1      2002    8    0    1
 -2       973      1040      1041      4003      4007      4005
 -1      2003    8    0    1
 -2       975       974      1042      3793      4008      4009
 -1      2004    8    0    1
 -2       974      1041      1042      4006      4010      4008
 -1      2005    8    0    1
 -2       976       975      1043      3796      4011      4012
 -1      2006    8    0    1
 -2       975      1042      1043      4009      4013      4011
 -1      2007    8    0    1
 -2       977       976      1044      3799      4014      4015
 -1      2008    8    0    1
 -2       976      1043      1044      4012      4016      4014
 -1      2009    8    0    1
 -2       978       977      1045      3802      4017      4018
 -1      2010    8    0    1
 -2       977      1044      1045      4015      4019      4017
 -1      2011    8    0    1
 -2       979       978      1046      3805      4020      4021
 -1      2012    8    0    1
 -2       978      1045      1046      4018      4022      4020
 -1      2013    8    0    1
 -2       980       979      1047      3808      4023      4024
 -1      2014    8    0    1
 -2       979      1046      1047      4021      4025      4023
 -1      2015    8    0    1
 -2       981       980      1048      3811      4026      4027
 -1      2016    8    0    1
 -2       980      1047      1048      4024      4028      4026
 -1      2017    8    0    1
 -2       982       981      1049      3814      4029      4030
 -1      2018    8    0    1
 -2       981      1048      1049      4027      4031      4029
 -1      2019    8    0    1
 -2       985       984      1050      3825      4032      4033
 -1      2020    8    0    1
 -2       987       988      1051      3833      4034      4035
 -1      2021    8    0    1
 -2       988      1029      1051      3971      4036      4034
 -1      2022    8    0    1
 -2       986       987      1052      3830      4037      4038
 -1      2023    8    0    1
 -2       987      1051      1052      4035      4039      4037
 -1      2024    8    0    1
 -2       989       990      1053      3839      4040      4041
 -1      2025    8    0    1
 -2       989      1053      1029      4041      4042      3970
 -1      2026    8    0    1
 -2       990       991      1054      3842      4043      4044
 -1      2027    8    0    1
 -2       990      1054      1053      4044      4045      4040
 -1      2028    8    0    1
 -2       991       992      1055      3845      4046      4047
 -1      2029    8    0    1
 -2       991      1055      1054      4047      4048      4043
 -1      2030    8    0    1
 -2       992       993      1056      3848      4049      4050
 -1      2031    8    0    1
 -2       992      1056      1055      4050      4051      4046
 -1      2032    8    0    1
 -2       993       994      1057      3851      4052      4053
 -1      2033    8    0    1
 -2       993      1057      1056      4053      4054      4049
 -1      2034    8    0    1
 -2       994       995      1058      3854      4055      4056
 -1      2035    8    0    1
 -2       994      1058      1057      4056      4057      4052
 -1      2036    8    0    1
 -2       995       996      1059      3857      4058      4059
 -1      2037    8    0    1
 -2       995      1059      1058      4059      4060      4055
 -1      2038    8    0    1
 -2       996       997      1060      3860      4061      4062
 -1      2039    8    0    1
 -2       996      1060      1059      4062      4063      4058
 -1      2040    8    0    1
 -2       997       998      1061      3863      4064      4065
 -1      2041    8    0    1
 -2       997      1061      1060      4065      4066      4061
 -1      2042    8    0    1
 -2       998       999      1062      3866      4067      4068
 -1      2043    8    0    1
 -2       998      1062      1061      4068      4069      4064
 -1      2044    8    0    1
 -2       999      1000      1063      3869      4070      4071
 -1      2045    8    0    1
 -2       999      1063      1062      4071      4072      4067
 -1      2046    8    0    1
 -2      1000      1001      1064      3872      4073      4074
 -1      2047    8    0    1
 -2      1000      1064      1063      4074      4075      4070
 -1      2048    8    0    1
 -2      1001      1002      1065      3875      4076      4077
 -1      2049    8    0    1
 -2      1001      1065      1064      4077      4078      4073
 -1      2050    8    0    1
 -2      1002      1003      1066      3878      4079      4080
 -1      2051    8    0    1
 -2      1002      1066      1065      4080      4081      4076
 -1      2052    8    0    1
 -2      1003      1004      1067      3881      4082      4083
 -1      2053    8    0    1
 -2      1066      1003      1067      4079      4083      4084
 -1      2054    8    0    1
 -2      1004      1018      1067      3929      4085      4082
 -1      2055    8    0    1
 -2       984      1013      1068      3935      4086      4087
 -1      2056    8    0    1
 -2       984      1068      1050      4087      4088      4032
 -1      2057    8    0    1
 -2      1008       985      1069      3896      4089      4090
 -1      2058    8    0    1
 -2       985      1050      1069      4033      4091      4089
 -1      2059    8    0    1
 -2      1005      1010      1070      3901      4092      4093
 -1      2060    8    0    1
 -2       952      1005      1070      3885      4093      4094
 -1      2061    8    0    1
 -2      1010      1016      1070      3921      4095      4092
 -1      2062    8    0    1
 -2       949      1014      1071      3913      4096      4097
 -1      2063    8    0    1
 -2      1023       949      1071      3950      4097      4098
 -1      2064    8    0    1
 -2      1014      1008      1071      3933      4099      4096
 -1      2065    8    0    1
 -2       951       956      1072      3936      4100      4101
 -1      2066    8    0    1
 -2      1017       951      1072      3925      4101      4102
 -1      2067    8    0    1
 -2       956      1015      1072      3937      4103      4100
 -1      2068    8    0    1
 -2       953       983       947      3934      4104      3943
 -1      2069    8    0    1
 -2       947       983      1022      4104      4105      3945
 -1      2070    8    0    1
 -2       959       946      1073      3926      4106      4107
 -1      2071    8    0    1
 -2      1018       959      1073      3927      4107      4108
 -1      2072    8    0    1
 -2       946      1020      1073      3939      4109      4106
 -1      2073    8    0    1
 -2       960      1007      1028      3893      4110      4111
 -1      2074    8    0    1
 -2      1015       960      1074      3918      4112      4113
 -1      2075    8    0    1
 -2       960      1028      1074      4111      4114      4112
 -1      2076    8    0    1
 -2      1013       986      1075      3910      4115      4116
 -1      2077    8    0    1
 -2      1068      1013      1075      4086      4116      4117
 -1      2078    8    0    1
 -2       986      1052      1075      4038      4118      4115
 -1      2079    8    0    1
 -2       961      1012      1076      3972      4119      4120
 -1      2080    8    0    1
 -2       961      1076       962      4120      4121      3754
 -1      2081    8    0    1
 -2       962      1076      1030      4121      4122      3973
 -1      2082    8    0    1
 -2      1019       942      1077      3930      4123      4124
 -1      2083    8    0    1
 -2       942      1017      1077      3924      4125      4123
 -1      2084    8    0    1
 -2      1008      1069      1071      4090      4126      4099
 -1      2085    8    0    1
 -2       983       982      1078      3817      4127      4128
 -1      2086    8    0    1
 -2      1021       948      1079      3942      4129      4130
 -1      2087    8    0    1
 -2       948      1023      1079      3949      4131      4129
 -1      2088    8    0    1
 -2      1012      1021      1076      3941      4132      4119
 -1      2089    8    0    1
 -2      1009       958      1080      3963      4133      4134
 -1      2090    8    0    1
 -2      1072      1015      1074      4103      4113      4135
 -1      2091    8    0    1
 -2      1024       941      1027      3954      3966      4136
 -1      2092    8    0    1
 -2       952      1070      1026      4094      4137      3959
 -1      2093    8    0    1
 -2      1027      1011      1028      3967      3969      4138
 -1      2094    8    0    1
 -2       958      1019      1080      3932      4139      4133
 -1      2095    8    0    1
 -2      1073      1020      1081      4109      4140      4141
 -1      2096    8    0    1
 -2       958       901       955      3962      3729      4142
 -1      2097    8    0    1
 -2       983      1078      1022      4128      4143      4105
 -1      2098    8    0    1
 -2      1025      1026      1082      3961      4144      4145
 -1      2099    8    0    1
 -2      1016      1009      1083      3922      4146      4147
 -1      2100    8    0    1
 -2      1070      1016      1083      4095      4147      4148
 -1      2101    8    0    1
 -2      1009      1080      1083      4134      4149      4146
 -1      2102    8    0    1
 -2      1028      1025      1074      3968      4150      4114
 -1      2103    8    0    1
 -2      1078       982      1049      4127      4030      4151
 -1      2104    8    0    1
 -2      1074      1025      1082      4150      4145      4152
 -1      2105    8    0    1
 -2      1081      1020      1022      4140      3947      4153
 -1      2106    8    0    1
 -2      1030      1076      1084      4122      4154      4155
 -1      2107    8    0    1
 -2      1032      1031      1085      3980      4156      4157
 -1      2108    8    0    1
 -2      1033      1032      1086      3983      4158      4159
 -1      2109    8    0    1
 -2      1032      1085      1086      4157      4160      4158
 -1      2110    8    0    1
 -2      1034      1033      1087      3986      4161      4162
 -1      2111    8    0    1
 -2      1033      1086      1087      4159      4163      4161
 -1      2112    8    0    1
 -2      1035      1034      1088      3989      4164      4165
 -1      2113    8    0    1
 -2      1034      1087      1088      4162      4166      4164
 -1      2114    8    0    1
 -2      1036      1035      1089      3992      4167      4168
 -1      2115    8    0    1
 -2      1035      1088      1089      4165      4169      4167
 -1      2116    8    0    1
 -2      1037      1036      1090      3995      4170      4171
 -1      2117    8    0    1
 -2      1036      1089      1090      4168      4172      4170
 -1      2118    8    0    1
 -2      1038      1037      1091      3998      4173      4174
 -1      2119    8    0    1
 -2      1037      1090      1091      4171      4175      4173
 -1      2120    8    0    1
 -2      1039      1038      1092      4001      4176      4177
 -1      2121    8    0    1
 -2      1038      1091      1092      4174      4178      4176
 -1      2122    8    0    1
 -2      1040      1039      1093      4004      4179      4180
 -1      2123    8    0    1
 -2      1039      1092      1093      4177      4181      4179
 -1      2124    8    0    1
 -2      1041      1040      1094      4007      4182      4183
 -1      2125    8    0    1
 -2      1040      1093      1094      4180      4184      4182
 -1      2126    8    0    1
 -2      1042      1041      1095      4010      4185      4186
 -1      2127    8    0    1
 -2      1041      1094      1095      4183      4187      4185
 -1      2128    8    0    1
 -2      1043      1042      1096      4013      4188      4189
 -1      2129    8    0    1
 -2      1042      1095      1096      4186      4190      4188
 -1      2130    8    0    1
 -2      1044      1043      1097      4016      4191      4192
 -1      2131    8    0    1
 -2      1043      1096      1097      4189      4193      4191
 -1      2132    8    0    1
 -2      1045      1044      1098      4019      4194      4195
 -1      2133    8    0    1
 -2      1044      1097      1098      4192      4196      4194
 -1      2134    8    0    1
 -2      1046      1045      1099      4022      4197      4198
 -1      2135    8    0    1
 -2      1045      1098      1099      4195      4199      4197
 -1      2136    8    0    1
 -2      1047      1046      1100      4025      4200      4201
 -1      2137    8    0    1
 -2      1046      1099      1100      4198      4202      4200
 -1      2138    8    0    1
 -2      1048      1047      1101      4028      4203      4204
 -1      2139    8    0    1
 -2      1047      1100      1101      4201      4205      4203
 -1      2140    8    0    1
 -2      1049      1048      1102      4031      4206      4207
 -1      2141    8    0    1
 -2      1048      1101      1102      4204      4208      4206
 -1      2142    8    0    1
 -2      1029      1053      1103      4042      4209      4210
 -1      2143    8    0    1
 -2      1076      1021      1084      4132      4211      4154
 -1      2144    8    0    1
 -2      1052      1051      1104      4039      4212      4213
 -1      2145    8    0    1
 -2      1054      1055      1105      4048      4214      4215
 -1      2146    8    0    1
 -2      1055      1056      1106      4051      4216      4217
 -1      2147    8    0    1
 -2      1055      1106      1105      4217      4218      4214
 -1      2148    8    0    1
 -2      1056      1057      1107      4054      4219      4220
 -1      2149    8    0    1
 -2      1056      1107      1106      4220      4221      4216
 -1      2150    8    0    1
 -2      1057      1058      1108      4057      4222      4223
 -1      2151    8    0    1
 -2      1057      1108      1107      4223      4224      4219
 -1      2152    8    0    1
 -2      1058      1059      1109      4060      4225      4226
 -1      2153    8    0    1
 -2      1058      1109      1108      4226      4227      4222
 -1      2154    8    0    1
 -2      1059      1060      1110      4063      4228      4229
 -1      2155    8    0    1
 -2      1059      1110      1109      4229      4230      4225
 -1      2156    8    0    1
 -2      1060      1061      1111      4066      4231      4232
 -1      2157    8    0    1
 -2      1060      1111      1110      4232      4233      4228
 -1      2158    8    0    1
 -2      1061      1062      1112      4069      4234      4235
 -1      2159    8    0    1
 -2      1061      1112      1111      4235      4236      4231
 -1      2160    8    0    1
 -2      1062      1063      1113      4072      4237      4238
 -1      2161    8    0    1
 -2      1062      1113      1112      4238      4239      4234
 -1      2162    8    0    1
 -2      1063      1064      1114      4075      4240      4241
 -1      2163    8    0    1
 -2      1063      1114      1113      4241      4242      4237
 -1      2164    8    0    1
 -2      1064      1065      1115      4078      4243      4244
 -1      2165    8    0    1
 -2      1064      1115      1114      4244      4245      4240
 -1      2166    8    0    1
 -2      1065      1066      1116      4081      4246      4247
 -1      2167    8    0    1
 -2      1065      1116      1115      4247      4248      4243
 -1      2168    8    0    1
 -2      1069      1050      1117      4091      4249      4250
 -1      2169    8    0    1
 -2      1051      1029      1118      4036      4251      4252
 -1      2170    8    0    1
 -2      1104      1051      1118      4212      4252      4253
 -1      2171    8    0    1
 -2      1029      1103      1118      4210      4254      4251
 -1      2172    8    0    1
 -2      1072      1074      1017      4135      4255      4102
 -1      2173    8    0    1
 -2      1018      1073      1119      4108      4256      4257
 -1      2174    8    0    1
 -2      1067      1018      1119      4085      4257      4258
 -1      2175    8    0    1
 -2      1073      1081      1119      4141      4259      4256
 -1      2176    8    0    1
 -2      1031      1030      1120      3977      4260      4261
 -1      2177    8    0    1
 -2      1085      1031      1120      4156      4261      4262
 -1      2178    8    0    1
 -2      1030      1084      1120      4155      4263      4260
 -1      2179    8    0    1
 -2      1071      1069      1079      4126      4264      4265
 -1      2180    8    0    1
 -2      1050      1068      1121      4088      4266      4267
 -1      2181    8    0    1
 -2      1050      1121      1117      4267      4268      4249
 -1      2182    8    0    1
 -2      1080      1019      1077      4139      4124      4269
 -1      2183    8    0    1
 -2      1082      1026      1083      4144      4270      4271
 -1      2184    8    0    1
 -2      1026      1070      1083      4137      4148      4270
 -1      2185    8    0    1
 -2      1053      1054      1122      4045      4272      4273
 -1      2186    8    0    1
 -2      1053      1122      1103      4273      4274      4209
 -1      2187    8    0    1
 -2      1022      1078      1081      4143      4275      4153
 -1      2188    8    0    1
 -2      1081      1078      1049      4275      4151      4276
 -1      2189    8    0    1
 -2      1081      1049      1102      4276      4207      4277
 -1      2190    8    0    1
 -2      1028      1007      1027      4110      4278      4138
 -1      2191    8    0    1
 -2      1082      1083      1080      4271      4149      4279
 -1      2192    8    0    1
 -2      1017      1074      1082      4255      4152      4280
 -1      2193    8    0    1
 -2      1054      1105      1122      4215      4281      4272
 -1      2194    8    0    1
 -2      1069      1117      1079      4250      4282      4264
 -1      2195    8    0    1
 -2      1066      1067      1123      4084      4283      4284
 -1      2196    8    0    1
 -2      1116      1066      1123      4246      4284      4285
 -1      2197    8    0    1
 -2      1067      1119      1123      4258      4286      4283
 -1      2198    8    0    1
 -2       955      1006       958      3889      3944      4142
 -1      2199    8    0    1
 -2      1121      1068      1124      4266      4287      4288
 -1      2200    8    0    1
 -2      1068      1075      1124      4117      4289      4287
 -1      2201    8    0    1
 -2      1052      1104      1125      4213      4290      4291
 -1      2202    8    0    1
 -2      1052      1125      1075      4291      4292      4118
 -1      2203    8    0    1
 -2      1023      1071      1079      4098      4265      4131
 -1      2204    8    0    1
 -2      1122      1105      1090      4281      4293      4294
 -1      2205    8    0    1
 -2      1027      1007      1024      4278      3953      4136
 -1      2206    8    0    1
 -2      1087      1086      1104      4163      4295      4296
 -1      2207    8    0    1
 -2      1088      1087      1118      4166      4297      4298
 -1      2208    8    0    1
 -2      1089      1088      1103      4169      4299      4300
 -1      2209    8    0    1
 -2      1090      1089      1122      4172      4301      4294
 -1      2210    8    0    1
 -2      1091      1090      1105      4175      4293      4302
 -1      2211    8    0    1
 -2      1092      1091      1106      4178      4303      4304
 -1      2212    8    0    1
 -2      1093      1092      1107      4181      4305      4306
 -1      2213    8    0    1
 -2      1094      1093      1108      4184      4307      4308
 -1      2214    8    0    1
 -2      1095      1094      1109      4187      4309      4310
 -1      2215    8    0    1
 -2      1096      1095      1110      4190      4311      4312
 -1      2216    8    0    1
 -2      1097      1096      1111      4193      4313      4314
 -1      2217    8    0    1
 -2      1098      1097      1112      4196      4315      4316
 -1      2218    8    0    1
 -2      1099      1098      1113      4199      4317      4318
 -1      2219    8    0    1
 -2      1100      1099      1114      4202      4319      4320
 -1      2220    8    0    1
 -2      1101      1100      1115      4205      4321      4322
 -1      2221    8    0    1
 -2      1102      1101      1116      4208      4323      4324
 -1      2222    8    0    1
 -2      1086      1085      1125      4160      4325      4326
 -1      2223    8    0    1
 -2      1021      1079      1084      4130      4327      4211
 -1      2224    8    0    1
 -2      1115      1100      1114      4321      4320      4245
 -1      2225    8    0    1
 -2      1105      1106      1091      4218      4303      4302
 -1      2226    8    0    1
 -2      1108      1109      1094      4227      4309      4308
 -1      2227    8    0    1
 -2      1109      1110      1095      4230      4311      4310
 -1      2228    8    0    1
 -2      1110      1111      1096      4233      4313      4312
 -1      2229    8    0    1
 -2      1111      1112      1097      4236      4315      4314
 -1      2230    8    0    1
 -2      1112      1113      1098      4239      4317      4316
 -1      2231    8    0    1
 -2      1113      1114      1099      4242      4319      4318
 -1      2232    8    0    1
 -2      1115      1116      1101      4248      4323      4322
 -1      2233    8    0    1
 -2      1119      1081      1123      4259      4328      4286
 -1      2234    8    0    1
 -2      1107      1108      1093      4224      4307      4306
 -1      2235    8    0    1
 -2      1092      1106      1107      4304      4221      4305
 -1      2236    8    0    1
 -2      1082      1080      1077      4279      4269      4329
 -1      2237    8    0    1
 -2      1103      1122      1089      4274      4301      4300
 -1      2238    8    0    1
 -2      1081      1102      1123      4277      4330      4328
 -1      2239    8    0    1
 -2      1017      1082      1077      4280      4329      4125
 -1      2240    8    0    1
 -2      1104      1086      1125      4295      4326      4290
 -1      2241    8    0    1
 -2      1087      1104      1118      4296      4253      4297
 -1      2242    8    0    1
 -2      1103      1088      1118      4299      4298      4254
 -1      2243    8    0    1
 -2      1123      1102      1116      4330      4324      4285
 -1      2244    8    0    1
 -2      1084      1079      1117      4327      4282      4331
 -1      2245    8    0    1
 -2      1085      1120      1124      4262      4332      4333
 -1      2246    8    0    1
 -2      1084      1117      1121      4331      4268      4334
 -1      2247    8    0    1
 -2      1084      1121      1120      4334      4335      4263
 -1      2248    8    0    1
 -2      1120      1121      1124      4335      4288      4332
 -1      2249    8    0    1
 -2      1085      1124      1125      4333      4336      4325
 -1      2250    8    0    1
 -2      1124      1075      1125      4289      4292      4336
 -3
    1PSTEP                         1           1           1          
  100CL  101 1.000000000        4336                     0    1           1
 -4  DISP        4    1
 -5  D1          1    2    1    0
 -5  D2          1    2    2    0
 -5  D3          1    2    3    0
 -5  ALL         1    2    0    0    1ALL
 -1         1 3.68300E-03-7.81012E-04-1.68908E-14
 -1         2 6.78192E-03-4.44090E-06-2.62439E-14
 -1         3 1.51992E-02 6.84639E-04-1.92424E-13
 -1         4 1.52142E-02-7.45512E-04-1.92344E-13
 -1         5 0.00000E+00 0.00000E+00 0.00000E+00
 -1         6 0.00000E+00 0.00000E+00 0.00000E+00
 -1         7 0.00000E+00 0.00000E+00 0.00000E+00
 -1         8 0.00000E+00 0.00000E+00 0.00000E+00
 -1         9 0.00000E+00 0.00000E+00 0.00000E+00
 -1        10 0.00000E+00 0.00000E+00 0.00000E+00
 -1        11 0.00000E+00 0.00000E+00 0.00000E+00
 -1        12 0.00000E+00 0.00000E+00 0.00000E+00
 -1        13 0.00000E+00 0.00000E+00 0.00000E+00
 -1        14 0.00000E+00 0.00000E+00 0.00000E+00
 -1        15 0.00000E+00 0.00000E+00 0.00000E+00
 -1        16 0.00000E+00 0.00000E+00 0.00000E+00
 -1        17 0.00000E+00 0.00000E+00 0.00000E+00
 -1        18 0.00000E+00 0.00000E+00 0.00000E+00
 -1        19 0.00000E+00 0.00000E+00 0.00000E+00
 -1        20 0.00000E+00 0.00000E+00 0.00000E+00
 -1        21 0.00000E+00 0.00000E+00 0.00000E+00
 -1        22 0.00000E+00 0.00000E+00 0.00000E+00
 -1        23 4.17976E-04-2.47054E-04 6.93788E-17
 -1        24 7.27500E-04-3.70461E-04-6.96329E-17
 -1        25 1.02449E-03-4.54378E-04-4.13460E-16
 -1        26 1.32418E-03-5.15789E-04-9.60007E-16
 -1        27 1.63147E-03-5.66112E-04-1.70663E-15
 -1        28 1.94888E-03-6.13613E-04-2.65217E-15
 -1        29 2.27707E-03-6.65562E-04-3.79557E-15
 -1        30 2.61462E-03-7.28472E-04-5.13336E-15
 -1        31 2.95735E-03-8.07316E-04-6.66907E-15
 -1        32 3.29803E-03-9.03718E-04-8.40256E-15
 -1        33 3.62702E-03-1.01343E-03-1.03311E-14
 -1        34 3.93492E-03-1.12432E-03-1.24537E-14
 -1        35 4.21709E-03-1.21705E-03-1.47782E-14
 -1        36 4.47779E-03-1.27049E-03-1.73039E-14
 -1        37 4.73059E-03-1.27067E-03-2.00366E-14
 -1        38 4.99308E-03-1.21785E-03-2.29657E-14
 -1        39 5.27882E-03-1.12660E-03-2.60792E-14
 -1        40 5.59208E-03-1.01859E-03-2.93731E-14
 -1        41 5.92826E-03-9.13772E-04-3.28383E-14
 -1        42 6.27806E-03-8.25037E-04-3.64619E-14
 -1        43 6.63195E-03-7.57629E-04-4.02354E-14
 -1        44 6.98270E-03-7.11236E-04-4.41519E-14
 -1        45 7.32601E-03-6.82628E-04-4.82096E-14
 -1        46 7.66009E-03-6.67642E-04-5.24201E-14
 -1        47 7.98479E-03-6.62310E-04-5.67676E-14
 -1        48 8.30091E-03-6.63343E-04-6.12361E-14
 -1        49 8.60966E-03-6.68234E-04-6.58197E-14
 -1        50 8.91237E-03-6.75182E-04-7.05156E-14
 -1        51 9.21029E-03-6.82964E-04-7.53094E-14
 -1        52 9.50450E-03-6.90790E-04-8.01978E-14
 -1        53 9.79591E-03-6.98186E-04-8.51745E-14
 -1        54 1.00853E-02-7.04899E-04-9.02442E-14
 -1        55 1.03732E-02-7.10822E-04-9.54134E-14
 -1        56 1.06600E-02-7.15944E-04-1.00680E-13
 -1        57 1.09462E-02-7.20311E-04-1.06037E-13
 -1        58 1.12319E-02-7.23999E-04-1.11466E-13
 -1        59 1.15174E-02-7.27099E-04-1.16969E-13
 -1        60 1.18027E-02-7.29703E-04-1.22530E-13
 -1        61 1.20879E-02-7.31898E-04-1.28152E-13
 -1        62 1.23732E-02-7.33766E-04-1.33822E-13
 -1        63 1.26585E-02-7.35375E-04-1.39554E-13
 -1        64 1.29438E-02-7.36785E-04-1.45329E-13
 -1        65 1.32292E-02-7.38049E-04-1.51149E-13
 -1        66 1.35147E-02-7.39207E-04-1.57003E-13
 -1        67 1.38002E-02-7.40295E-04-1.62897E-13
 -1        68 1.40858E-02-7.41344E-04-1.68810E-13
 -1        69 1.43714E-02-7.42379E-04-1.74731E-13
 -1        70 1.46571E-02-7.43420E-04-1.80673E-13
 -1        71 1.49428E-02-7.44483E-04-1.86642E-13
 -1        72 4.19913E-04 2.47810E-04 7.71003E-17
 -1        73 7.27282E-04 3.73206E-04-5.17774E-17
 -1        74 1.02488E-03 4.56329E-04-3.79461E-16
 -1        75 1.32467E-03 5.17762E-04-9.07267E-16
 -1        76 1.63182E-03 5.68200E-04-1.63453E-15
 -1        77 1.94888E-03 6.15813E-04-2.55831E-15
 -1        78 2.27650E-03 6.67785E-04-3.67498E-15
 -1        79 2.61322E-03 7.30520E-04-4.98105E-15
 -1        80 2.95488E-03 8.08851E-04-6.47388E-15
 -1        81 3.29432E-03 9.04261E-04-8.15411E-15
 -1        82 3.62208E-03 1.01244E-03-1.00260E-14
 -1        83 3.92901E-03 1.12135E-03-1.20888E-14
 -1        84 4.21058E-03 1.21204E-03-1.43522E-14
 -1        85 4.47104E-03 1.26389E-03-1.68202E-14
 -1        86 4.72370E-03 1.26331E-03-1.94931E-14
 -1        87 4.98585E-03 1.21058E-03-2.23690E-14
 -1        88 5.27086E-03 1.11983E-03-2.54450E-14
 -1        89 5.58303E-03 1.01217E-03-2.87098E-14
 -1        90 5.91794E-03 9.07190E-04-3.21525E-14
 -1        91 6.26650E-03 8.17705E-04-3.57600E-14
 -1        92 6.61932E-03 7.49059E-04-3.95180E-14
 -1        93 6.96924E-03 7.01104E-04-4.34122E-14
 -1        94 7.31197E-03 6.70748E-04-4.74604E-14
 -1        95 7.64565E-03 6.53924E-04-5.16570E-14
 -1        96 7.97009E-03 6.46722E-04-5.59878E-14
 -1        97 8.28605E-03 6.45882E-04-6.04406E-14
 -1        98 8.59471E-03 6.48908E-04-6.50145E-14
 -1        99 8.89738E-03 6.54006E-04-6.96920E-14
 -1       100 9.19526E-03 6.59950E-04-7.44737E-14
 -1       101 9.48946E-03 6.65949E-04-7.93701E-14
 -1       102 9.78087E-03 6.71526E-04-8.43678E-14
 -1       103 1.00702E-02 6.76425E-04-8.94649E-14
 -1       104 1.03581E-02 6.80538E-04-9.46498E-14
 -1       105 1.06450E-02 6.83853E-04-9.99214E-14
 -1       106 1.09312E-02 6.86414E-04-1.05282E-13
 -1       107 1.12169E-02 6.88298E-04-1.10736E-13
 -1       108 1.15023E-02 6.89593E-04-1.16286E-13
 -1       109 1.17876E-02 6.90392E-04-1.21923E-13
 -1       110 1.20729E-02 6.90784E-04-1.27630E-13
 -1       111 1.23581E-02 6.90847E-04-1.33396E-13
 -1       112 1.26434E-02 6.90652E-04-1.39193E-13
 -1       113 1.29288E-02 6.90258E-04-1.45024E-13
 -1       114 1.32142E-02 6.89717E-04-1.50898E-13
 -1       115 1.34996E-02 6.89071E-04-1.56789E-13
 -1       116 1.37852E-02 6.88355E-04-1.62716E-13
 -1       117 1.40707E-02 6.87599E-04-1.68675E-13
 -1       118 1.43564E-02 6.86830E-04-1.74664E-13
 -1       119 1.46421E-02 6.86067E-04-1.80678E-13
 -1       120 1.49278E-02 6.85325E-04-1.86706E-13
 -1       121 1.51999E-02 6.00356E-04-1.92483E-13
 -1       122 1.52006E-02 5.16064E-04-1.92532E-13
 -1       123 1.52013E-02 4.31748E-04-1.92552E-13
 -1       124 1.52019E-02 3.47396E-04-1.92568E-13
 -1       125 1.52026E-02 2.63006E-04-1.92587E-13
 -1       126 1.52033E-02 1.80011E-04-1.92630E-13
 -1       127 1.52041E-02 9.55577E-05-1.92662E-13
 -1       128 1.52049E-02 1.10866E-05-1.92663E-13
 -1       129 1.52058E-02-7.33905E-05-1.92656E-13
 -1       130 1.52067E-02-1.57861E-04-1.92610E-13
 -1       131 1.52077E-02-2.42314E-04-1.92564E-13
 -1       132 1.52088E-02-3.25308E-04-1.92541E-13
 -1       133 1.52099E-02-4.09698E-04-1.92510E-13
 -1       134 1.52110E-02-4.94050E-04-1.92470E-13
 -1       135 1.52121E-02-5.78365E-04-1.92443E-13
 -1       136 1.52132E-02-6.62657E-04-1.92399E-13
 -1       137 6.73383E-03 1.66809E-04-2.60678E-14
 -1       138 6.58074E-03 3.41166E-04-2.55408E-14
 -1       139 6.33715E-03 4.98410E-04-2.47202E-14
 -1       140 6.02300E-03 6.30812E-04-2.36947E-14
 -1       141 5.64152E-03 7.38133E-04-2.24875E-14
 -1       142 5.22082E-03 8.11421E-04-2.12010E-14
 -1       143 4.75885E-03 8.48532E-04-1.98394E-14
 -1       144 4.29200E-03 8.44126E-04-1.85104E-14
 -1       145 3.80907E-03 7.94163E-04-1.71810E-14
 -1       146 3.39799E-03 7.11079E-04-1.60908E-14
 -1       147 3.04709E-03 6.00592E-04-1.51860E-14
 -1       148 2.74528E-03 4.58546E-04-1.44276E-14
 -1       149 2.51580E-03 2.87038E-04-1.38635E-14
 -1       150 2.39863E-03 1.11805E-04-1.35829E-14
 -1       151 2.38386E-03-6.85097E-05-1.35524E-14
 -1       152 2.49219E-03-2.65558E-04-1.38212E-14
 -1       153 2.67304E-03-4.20087E-04-1.42714E-14
 -1       154 2.93956E-03-5.63136E-04-1.49423E-14
 -1       155 3.28547E-03-6.87277E-04-1.58337E-14
 -1       156 4.09514E-03-8.37755E-04-1.80176E-14
 -1       157 4.53849E-03-8.60321E-04-1.92679E-14
 -1       158 4.96503E-03-8.46393E-04-2.05099E-14
 -1       159 5.39251E-03-7.96363E-04-2.17916E-14
 -1       160 5.80569E-03-7.07416E-04-2.30758E-14
 -1       161 6.12988E-03-6.01910E-04-2.41087E-14
 -1       162 6.41421E-03-4.66922E-04-2.50397E-14
 -1       163 6.61475E-03-3.22219E-04-2.57015E-14
 -1       164 6.74285E-03-1.60659E-04-2.61240E-14
 -1       165 2.51342E-04-1.08492E-04-3.15571E-17
 -1       166 2.33621E-04-7.41364E-05-6.32327E-17
 -1       167 2.23541E-04-5.09378E-05-8.12237E-17
 -1       168 2.15879E-04-3.41500E-05-9.16083E-17
 -1       169 2.09839E-04-2.19750E-05-9.74935E-17
 -1       170 2.05212E-04-1.27921E-05-1.00895E-16
 -1       171 2.02320E-04-5.77779E-06-1.02278E-16
 -1       172 2.01357E-04 1.48483E-07-1.02698E-16
 -1       173 2.02394E-04 6.10564E-06-1.02034E-16
 -1       174 2.05350E-04 1.32104E-05-1.00129E-16
 -1       175 2.09933E-04 2.23596E-05-9.64567E-17
 -1       176 2.16100E-04 3.49222E-05-8.98397E-17
 -1       177 2.23790E-04 5.20096E-05-7.87402E-17
 -1       178 2.33845E-04 7.56193E-05-5.99936E-17
 -1       179 2.50358E-04 1.10638E-04-2.72677E-17
 -1       180 3.09486E-04 1.70183E-04 7.28787E-18
 -1       181 4.90411E-04-2.36320E-04-8.83625E-17
 -1       182 8.08615E-04-3.37766E-04-3.74270E-16
 -1       183 1.11810E-03-4.08211E-04-8.52074E-16
 -1       184 1.42730E-03-4.61601E-04-1.52390E-15
 -1       185 1.74029E-03-5.07521E-04-2.39005E-15
 -1       186 2.05925E-03-5.54039E-04-3.44939E-15
 -1       187 2.38478E-03-6.08546E-04-4.70002E-15
 -1       188 2.71578E-03-6.77538E-04-6.14285E-15
 -1       189 3.04933E-03-7.65301E-04-7.77842E-15
 -1       190 3.38074E-03-8.71475E-04-9.60764E-15
 -1       191 3.70439E-03-9.88151E-04-1.16296E-14
 -1       192 4.01565E-03-1.09835E-03-1.38486E-14
 -1       193 4.31368E-03-1.17880E-03-1.62706E-14
 -1       194 4.60324E-03-1.20844E-03-1.88974E-14
 -1       195 4.89345E-03-1.17881E-03-2.17258E-14
 -1       196 5.19344E-03-1.09894E-03-2.47476E-14
 -1       197 5.50793E-03-9.90466E-04-2.79523E-14
 -1       198 5.83607E-03-8.77197E-04-3.13300E-14
 -1       199 6.17321E-03-7.76785E-04-3.48719E-14
 -1       200 6.51366E-03-6.98023E-04-3.85654E-14
 -1       201 6.85258E-03-6.42432E-04-4.24075E-14
 -1       202 7.18673E-03-6.07289E-04-4.63907E-14
 -1       203 7.51442E-03-5.88193E-04-5.05188E-14
 -1       204 7.83515E-03-5.80655E-04-5.47867E-14
 -1       205 8.14916E-03-5.80832E-04-5.91829E-14
 -1       206 8.45714E-03-5.85746E-04-6.37008E-14
 -1       207 8.75995E-03-5.93242E-04-6.83301E-14
 -1       208 9.05851E-03-6.01841E-04-7.30663E-14
 -1       209 9.35363E-03-6.10587E-04-7.79020E-14
 -1       210 9.64607E-03-6.18901E-04-8.28322E-14
 -1       211 9.93645E-03-6.26467E-04-8.78504E-14
 -1       212 1.02253E-02-6.33147E-04-9.29634E-14
 -1       213 1.05130E-02-6.38920E-04-9.81723E-14
 -1       214 1.07999E-02-6.43830E-04-1.03474E-13
 -1       215 1.10862E-02-6.47961E-04-1.08857E-13
 -1       216 1.13722E-02-6.51415E-04-1.14319E-13
 -1       217 1.16579E-02-6.54297E-04-1.19846E-13
 -1       218 1.19434E-02-6.56706E-04-1.25433E-13
 -1       219 1.22289E-02-6.58733E-04-1.31074E-13
 -1       220 1.25144E-02-6.60460E-04-1.36774E-13
 -1       221 1.27999E-02-6.61953E-04-1.42524E-13
 -1       222 1.30854E-02-6.63272E-04-1.48315E-13
 -1       223 1.33709E-02-6.64465E-04-1.54145E-13
 -1       224 1.36564E-02-6.65570E-04-1.60013E-13
 -1       225 1.39420E-02-6.66623E-04-1.65908E-13
 -1       226 1.42277E-02-6.67650E-04-1.71819E-13
 -1       227 1.45133E-02-6.68677E-04-1.77750E-13
 -1       228 1.47990E-02-6.69721E-04-1.83707E-13
 -1       229 6.33443E-04 2.97325E-04-1.49589E-16
 -1       230 9.45325E-04 3.83692E-04-4.93085E-16
 -1       231 1.25321E-03 4.45961E-04-1.02884E-15
 -1       232 1.56317E-03 4.95599E-04-1.75818E-15
 -1       233 1.87847E-03 5.41278E-04-2.68019E-15
 -1       234 2.20052E-03 5.90611E-04-3.79204E-15
 -1       235 2.52899E-03 6.50542E-04-5.09218E-15
 -1       236 2.86173E-03 7.26669E-04-6.57720E-15
 -1       237 3.19462E-03 8.21468E-04-8.24683E-15
 -1       238 3.52204E-03 9.31628E-04-1.01041E-14
 -1       239 3.83829E-03 1.04559E-03-1.21548E-14
 -1       240 4.14008E-03 1.14363E-03-1.44034E-14
 -1       241 4.42914E-03 1.20300E-03-1.68546E-14
 -1       242 4.71289E-03 1.20749E-03-1.95110E-14
 -1       243 5.00155E-03 1.15589E-03-2.23700E-14
 -1       244 5.30331E-03 1.06274E-03-2.54263E-14
 -1       245 5.62099E-03 9.50866E-04-2.86722E-14
 -1       246 5.95206E-03 8.41633E-04-3.20959E-14
 -1       247 6.29102E-03 7.48941E-04-3.56831E-14
 -1       248 6.63203E-03 6.78456E-04-3.94265E-14
 -1       249 6.97046E-03 6.29874E-04-4.33104E-14
 -1       250 7.30340E-03 5.99767E-04-4.73426E-14
 -1       251 7.62948E-03 5.83721E-04-5.15176E-14
 -1       252 7.94844E-03 5.77553E-04-5.58262E-14
 -1       253 8.26070E-03 5.77817E-04-6.02622E-14
 -1       254 8.56707E-03 5.81901E-04-6.48190E-14
 -1       255 8.86846E-03 5.87949E-04-6.94831E-14
 -1       256 9.16579E-03 5.94709E-04-7.42508E-14
 -1       257 9.45990E-03 6.01387E-04-7.91285E-14
 -1       258 9.75152E-03 6.07514E-04-8.41091E-14
 -1       259 1.00412E-02 6.12848E-04-8.91876E-14
 -1       260 1.03296E-02 6.17299E-04-9.43588E-14
 -1       261 1.06169E-02 6.20871E-04-9.96210E-14
 -1       262 1.09035E-02 6.23623E-04-1.04969E-13
 -1       263 1.11896E-02 6.25645E-04-1.10407E-13
 -1       264 1.14754E-02 6.27039E-04-1.15933E-13
 -1       265 1.17610E-02 6.27906E-04-1.21547E-13
 -1       266 1.20465E-02 6.28342E-04-1.27233E-13
 -1       267 1.23319E-02 6.28433E-04-1.32977E-13
 -1       268 1.26174E-02 6.28253E-04-1.38764E-13
 -1       269 1.29028E-02 6.27866E-04-1.44588E-13
 -1       270 1.31883E-02 6.27326E-04-1.50452E-13
 -1       271 1.34738E-02 6.26676E-04-1.56339E-13
 -1       272 1.37594E-02 6.25953E-04-1.62254E-13
 -1       273 1.40450E-02 6.25190E-04-1.68199E-13
 -1       274 1.43306E-02 6.24411E-04-1.74177E-13
 -1       275 1.46163E-02 6.23640E-04-1.80180E-13
 -1       276 1.49020E-02 6.22892E-04-1.86198E-13
 -1       277 1.49528E-02 5.58829E-04-1.87302E-13
 -1       278 1.49535E-02 4.74521E-04-1.87348E-13
 -1       279 1.49542E-02 3.90190E-04-1.87384E-13
 -1       280 1.49548E-02 3.05833E-04-1.87417E-13
 -1       281 1.49555E-02 2.22881E-04-1.87451E-13
 -1       282 1.49562E-02 1.38477E-04-1.87476E-13
 -1       283 1.49570E-02 5.40574E-05-1.87490E-13
 -1       284 1.49579E-02-3.03703E-05-1.87488E-13
 -1       285 1.49588E-02-1.14798E-04-1.87465E-13
 -1       286 1.49598E-02-1.99217E-04-1.87433E-13
 -1       287 1.49608E-02-2.82190E-04-1.87397E-13
 -1       288 1.49619E-02-3.66572E-04-1.87358E-13
 -1       289 1.49630E-02-4.50929E-04-1.87318E-13
 -1       290 1.49641E-02-5.35260E-04-1.87275E-13
 -1       291 1.48816E-02-6.02496E-04-1.85494E-13
 -1       292 6.79238E-03 3.99332E-05-2.76413E-14
 -1       293 6.65102E-03 1.39865E-04-2.72885E-14
 -1       294 6.38603E-03 2.81076E-04-2.63553E-14
 -1       295 6.05221E-03 4.50861E-04-2.51427E-14
 -1       296 5.67014E-03 6.23284E-04-2.38301E-14
 -1       297 5.28818E-03 7.84452E-04-2.23074E-14
 -1       298 4.91131E-03 8.95670E-04-2.07101E-14
 -1       299 4.53750E-03 9.29375E-04-1.91131E-14
 -1       300 4.15572E-03 8.74436E-04-1.75410E-14
 -1       301 3.75189E-03 7.40168E-04-1.62004E-14
 -1       302 3.37560E-03 5.77392E-04-1.50818E-14
 -1       303 3.01007E-03 4.05146E-04-1.41598E-14
 -1       304 2.68266E-03 2.31347E-04-1.33356E-14
 -1       305 2.44523E-03 1.12908E-04-1.29760E-14
 -1       306 2.35090E-03 1.03227E-05-1.27541E-14
 -1       307 2.41170E-03-8.02677E-05-1.26721E-14
 -1       308 2.61874E-03-2.17804E-04-1.33269E-14
 -1       309 2.90330E-03-3.59466E-04-1.39409E-14
 -1       310 3.25637E-03-5.28610E-04-1.48061E-14
 -1       311 3.64647E-03-6.99521E-04-1.58669E-14
 -1       312 4.01074E-03-8.40012E-04-1.71409E-14
 -1       313 4.36912E-03-9.21671E-04-1.85129E-14
 -1       314 4.72068E-03-9.30767E-04-1.99721E-14
 -1       315 5.07299E-03-8.65461E-04-2.14682E-14
 -1       316 5.43661E-03-7.33031E-04-2.30884E-14
 -1       317 5.81604E-03-5.72729E-04-2.44125E-14
 -1       318 6.15304E-03-4.04829E-04-2.56808E-14
 -1       319 6.45779E-03-2.63246E-04-2.65829E-14
 -1       320 6.67894E-03-1.39014E-04-2.73412E-14
 -1       321 6.79503E-03-4.71458E-05-2.75807E-14
 -1       322 4.68653E-04-1.25439E-04-2.76810E-16
 -1       323 4.96067E-04-1.76620E-04-2.23898E-16
 -1       324 4.32317E-04-5.87661E-05-3.30882E-16
 -1       325 4.19726E-04-3.69050E-05-3.43458E-16
 -1       326 4.10947E-04-1.99851E-05-3.50509E-16
 -1       327 4.06465E-04-6.05879E-06-3.53304E-16
 -1       328 4.06596E-04 6.90451E-06-3.52928E-16
 -1       329 4.11328E-04 2.09767E-05-3.48967E-16
 -1       330 4.20130E-04 3.78529E-05-3.40572E-16
 -1       331 4.32835E-04 6.00263E-05-3.26142E-16
 -1       332 4.49060E-04 8.92513E-05-3.03404E-16
 -1       333 4.69472E-04 1.28080E-04-2.68001E-16
 -1       334 4.97820E-04 1.80816E-04-2.12748E-16
 -1       335 5.58767E-04 2.34699E-04-1.91714E-16
 -1       336 8.70663E-04 3.21782E-04-5.42274E-16
 -1       337 9.09611E-04-3.00327E-04-7.18829E-16
 -1       338 1.21747E-03-3.58712E-04-1.32233E-15
 -1       339 1.52625E-03-4.05260E-04-2.11440E-15
 -1       340 1.83821E-03-4.48068E-04-3.09509E-15
 -1       341 2.15515E-03-4.94771E-04-4.26289E-15
 -1       342 2.47820E-03-5.52665E-04-5.61824E-15
 -1       343 2.80753E-03-6.28053E-04-7.16048E-15
 -1       344 3.14183E-03-7.24464E-04-8.89153E-15
 -1       345 3.47771E-03-8.39604E-04-1.08130E-14
 -1       346 3.80983E-03-9.61781E-04-1.29283E-14
 -1       347 4.13308E-03-1.06846E-03-1.52423E-14
 -1       348 4.44659E-03-1.13176E-03-1.77628E-14
 -1       349 4.75604E-03-1.13158E-03-2.04898E-14
 -1       350 5.07041E-03-1.06822E-03-2.34175E-14
 -1       351 5.39533E-03-9.62375E-04-2.65346E-14
 -1       352 5.72986E-03-8.42458E-04-2.98269E-14
 -1       353 6.06883E-03-7.31552E-04-3.32870E-14
 -1       354 6.40682E-03-6.42137E-04-3.69032E-14
 -1       355 6.74026E-03-5.77523E-04-4.06688E-14
 -1       356 7.06754E-03-5.35551E-04-4.45777E-14
 -1       357 7.38833E-03-5.11756E-04-4.86291E-14
 -1       358 7.70298E-03-5.01307E-04-5.28227E-14
 -1       359 8.01212E-03-4.99947E-04-5.71473E-14
 -1       360 8.31647E-03-5.04304E-04-6.15941E-14
 -1       361 8.61677E-03-5.11891E-04-6.61586E-14
 -1       362 8.91371E-03-5.20976E-04-7.08332E-14
 -1       363 9.20790E-03-5.30416E-04-7.56134E-14
 -1       364 9.49990E-03-5.39503E-04-8.04915E-14
 -1       365 9.79017E-03-5.47841E-04-8.54598E-14
 -1       366 1.00791E-02-5.55242E-04-9.05198E-14
 -1       367 1.03670E-02-5.61657E-04-9.56772E-14
 -1       368 1.06542E-02-5.67121E-04-1.00925E-13
 -1       369 1.09408E-02-5.71717E-04-1.06261E-13
 -1       370 1.12271E-02-5.75551E-04-1.11674E-13
 -1       371 1.15131E-02-5.78738E-04-1.17162E-13
 -1       372 1.17989E-02-5.81387E-04-1.22721E-13
 -1       373 1.20846E-02-5.83600E-04-1.28334E-13
 -1       374 1.23702E-02-5.85466E-04-1.34003E-13
 -1       375 1.26558E-02-5.87062E-04-1.39726E-13
 -1       376 1.29414E-02-5.88454E-04-1.45495E-13
 -1       377 1.32270E-02-5.89695E-04-1.51302E-13
 -1       378 1.35126E-02-5.90829E-04-1.57142E-13
 -1       379 1.37982E-02-5.91895E-04-1.63017E-13
 -1       380 1.40838E-02-5.92922E-04-1.68911E-13
 -1       381 1.43695E-02-5.93938E-04-1.74824E-13
 -1       382 1.46255E-02-5.98206E-04-1.80148E-13
 -1       383 1.17995E-03 3.84958E-04-1.07929E-15
 -1       384 1.48962E-03 4.34385E-04-1.80491E-15
 -1       385 1.80252E-03 4.78651E-04-2.71993E-15
 -1       386 2.12048E-03 5.25495E-04-3.82208E-15
 -1       387 2.44421E-03 5.82153E-04-5.11053E-15
 -1       388 2.77316E-03 6.54830E-04-6.58227E-15
 -1       389 3.10527E-03 7.47089E-04-8.23659E-15
 -1       390 3.43675E-03 8.57145E-04-1.00767E-14
 -1       391 3.76267E-03 9.74834E-04-1.21085E-14
 -1       392 4.07878E-03 1.08051E-03-1.43362E-14
 -1       393 4.38455E-03 1.14919E-03-1.67648E-14
 -1       394 4.68498E-03 1.16104E-03-1.93997E-14
 -1       395 4.98853E-03 1.11234E-03-2.22370E-14
 -1       396 5.30205E-03 1.01790E-03-2.52727E-14
 -1       397 5.62719E-03 9.02620E-04-2.84984E-14
 -1       398 5.96080E-03 7.89845E-04-3.19027E-14
 -1       399 6.29787E-03 6.94457E-04-3.54704E-14
 -1       400 6.63389E-03 6.22308E-04-3.91959E-14
 -1       401 6.96583E-03 5.72921E-04-4.30639E-14
 -1       402 7.29210E-03 5.42622E-04-4.70768E-14
 -1       403 7.61216E-03 5.26785E-04-5.12331E-14
 -1       404 7.92616E-03 5.21063E-04-5.55230E-14
 -1       405 8.23459E-03 5.21891E-04-5.99400E-14
 -1       406 8.53817E-03 5.26578E-04-6.44774E-14
 -1       407 8.83763E-03 5.33213E-04-6.91262E-14
 -1       408 9.13371E-03 5.40514E-04-7.38787E-14
 -1       409 9.42708E-03 5.47668E-04-7.87377E-14
 -1       410 9.71831E-03 5.54202E-04-8.37003E-14
 -1       411 1.00079E-02 5.59876E-04-8.87605E-14
 -1       412 1.02962E-02 5.64603E-04-9.39157E-14
 -1       413 1.05837E-02 5.68394E-04-9.91629E-14
 -1       414 1.08704E-02 5.71319E-04-1.04498E-13
 -1       415 1.11567E-02 5.73473E-04-1.09920E-13
 -1       416 1.14427E-02 5.74966E-04-1.15429E-13
 -1       417 1.17285E-02 5.75907E-04-1.21024E-13
 -1       418 1.20141E-02 5.76396E-04-1.26690E-13
 -1       419 1.22997E-02 5.76523E-04-1.32416E-13
 -1       420 1.25852E-02 5.76367E-04-1.38194E-13
 -1       421 1.28708E-02 5.75996E-04-1.44011E-13
 -1       422 1.31563E-02 5.75463E-04-1.49864E-13
 -1       423 1.34419E-02 5.74816E-04-1.55742E-13
 -1       424 1.37275E-02 5.74093E-04-1.61649E-13
 -1       425 1.40131E-02 5.73326E-04-1.67585E-13
 -1       426 1.42988E-02 5.72541E-04-1.73553E-13
 -1       427 1.45845E-02 5.71763E-04-1.79545E-13
 -1       428 1.47686E-02 5.65290E-04-1.83424E-13
 -1       429 1.47070E-02 3.48678E-04-1.82234E-13
 -1       430 1.47064E-02 4.33012E-04-1.82186E-13
 -1       431 1.47375E-02 4.99156E-04-1.82806E-13
 -1       432 1.47077E-02 2.65755E-04-1.82271E-13
 -1       433 1.47084E-02 1.81384E-04-1.82294E-13
 -1       434 1.47091E-02 9.70008E-05-1.82312E-13
 -1       435 1.47100E-02 1.26087E-05-1.82319E-13
 -1       436 1.47108E-02-7.17861E-05-1.82315E-13
 -1       437 1.47118E-02-1.56178E-04-1.82293E-13
 -1       438 1.47128E-02-2.39131E-04-1.82263E-13
 -1       439 1.47139E-02-3.23502E-04-1.82220E-13
 -1       440 1.47150E-02-4.07855E-04-1.82173E-13
 -1       441 1.47161E-02-4.92188E-04-1.82125E-13
 -1       442 6.50728E-03 1.51400E-04-2.81918E-14
 -1       443 6.82659E-03-5.67796E-06-2.92019E-14
 -1       444 6.75241E-03 4.95356E-05-2.91150E-14
 -1       445 6.16612E-03 3.02938E-04-2.69638E-14
 -1       446 5.81070E-03 4.87224E-04-2.54079E-14
 -1       447 4.48338E-04-8.74285E-05-3.10183E-16
 -1       448 5.04842E-03 8.63697E-04-2.18721E-14
 -1       449 4.71077E-03 9.53356E-04-1.99700E-14
 -1       450 4.38572E-03 9.47636E-04-1.81479E-14
 -1       451 3.99456E-03 8.09863E-04-1.62479E-14
 -1       452 3.69222E-03 6.59627E-04-1.51441E-14
 -1       453 3.25432E-03 4.35842E-04-1.39233E-14
 -1       454 2.89511E-03 2.59488E-04-1.30110E-14
 -1       455 2.53640E-03 1.00822E-04-1.20840E-14
 -1       456 2.37113E-03 3.63143E-05-1.20561E-14
 -1       457 2.33558E-03-1.70987E-05-1.17893E-14
 -1       458 2.53174E-03-1.08661E-04-1.22286E-14
 -1       459 2.76283E-03-2.08298E-04-1.27936E-14
 -1       460 3.14043E-03-3.73579E-04-1.34809E-14
 -1       461 3.51088E-03-5.71770E-04-1.46520E-14
 -1       462 3.91172E-03-7.78472E-04-1.60526E-14
 -1       463 4.23388E-03-9.12016E-04-1.75676E-14
 -1       464 4.55007E-03-9.68587E-04-1.92087E-14
 -1       465 4.86137E-03-9.37416E-04-2.09870E-14
 -1       466 5.14971E-03-8.31750E-04-2.25900E-14
 -1       467 5.58112E-03-6.12257E-04-2.47654E-14
 -1       468 5.91935E-03-4.45245E-04-2.59280E-14
 -1       469 6.28496E-03-2.61394E-04-2.74543E-14
 -1       470 6.55922E-03-1.45099E-04-2.82994E-14
 -1       471 6.77385E-03-5.27197E-05-2.89485E-14
 -1       472 5.40537E-03 6.91907E-04-2.38657E-14
 -1       473 2.38571E-03-4.51638E-05-1.13441E-14
 -1       474 9.75098E-04 2.83164E-04-9.10632E-16
 -1       475 6.28490E-04-4.35007E-05-7.36942E-16
 -1       476 6.46639E-04-7.23316E-05-7.18829E-16
 -1       477 6.13432E-04 6.11943E-07-7.48330E-16
 -1       478 6.17612E-04 2.14007E-05-7.44146E-16
 -1       479 6.29091E-04 4.46840E-05-7.32440E-16
 -1       480 6.47457E-04 7.38619E-05-7.11487E-16
 -1       481 6.71709E-04 1.10968E-04-6.78724E-16
 -1       482 7.01628E-04 1.58321E-04-6.29827E-16
 -1       483 1.27924E-03 3.34850E-04-1.57041E-15
 -1       484 1.01472E-03-2.61848E-04-1.10632E-15
 -1       485 5.65535E-03 5.48802E-04-2.59227E-14
 -1       486 1.31547E-03-3.08795E-04-1.82846E-15
 -1       487 1.61887E-03-3.48723E-04-2.73427E-15
 -1       488 1.92633E-03-3.88226E-04-3.82424E-15
 -1       489 2.24000E-03-4.34351E-04-5.09552E-15
 -1       490 2.56223E-03-4.94310E-04-6.54960E-15
 -1       491 2.89489E-03-5.74705E-04-8.18572E-15
 -1       492 3.23786E-03-6.79418E-04-1.00076E-14
 -1       493 3.58714E-03-8.05303E-04-1.20182E-14
 -1       494 3.93436E-03-9.36231E-04-1.42236E-14
 -1       495 4.27145E-03-1.03995E-03-1.66334E-14
 -1       496 4.59856E-03-1.07998E-03-1.92543E-14
 -1       497 4.92588E-03-1.03948E-03-2.20838E-14
 -1       498 5.26364E-03-9.35863E-04-2.51139E-14
 -1       499 5.61183E-03-8.06415E-04-2.83262E-14
 -1       500 5.96228E-03-6.83514E-04-3.17072E-14
 -1       501 6.30664E-03-5.84127E-04-3.52473E-14
 -1       502 6.64076E-03-5.12218E-04-3.89387E-14
 -1       503 6.96436E-03-4.65055E-04-4.27738E-14
 -1       504 7.27903E-03-4.37594E-04-4.67498E-14
 -1       505 7.58675E-03-4.24631E-04-5.08680E-14
 -1       506 7.88924E-03-4.21668E-04-5.51226E-14
 -1       507 8.18781E-03-4.25143E-04-5.95007E-14
 -1       508 8.48340E-03-4.32395E-04-6.39985E-14
 -1       509 8.77669E-03-4.41536E-04-6.86106E-14
 -1       510 9.06818E-03-4.51287E-04-7.33305E-14
 -1       511 9.35826E-03-4.60834E-04-7.81549E-14
 -1       512 9.64722E-03-4.69698E-04-8.30755E-14
 -1       513 9.93532E-03-4.77636E-04-8.80852E-14
 -1       514 1.02227E-02-4.84561E-04-9.31899E-14
 -1       515 1.05097E-02-4.90487E-04-9.83857E-14
 -1       516 1.07962E-02-4.95487E-04-1.03670E-13
 -1       517 1.10824E-02-4.99665E-04-1.09039E-13
 -1       518 1.13685E-02-5.03137E-04-1.14485E-13
 -1       519 1.16544E-02-5.06017E-04-1.20005E-13
 -1       520 1.19402E-02-5.08413E-04-1.25593E-13
 -1       521 1.22259E-02-5.10421E-04-1.31235E-13
 -1       522 1.25116E-02-5.12126E-04-1.36931E-13
 -1       523 1.27973E-02-5.13598E-04-1.42678E-13
 -1       524 1.30830E-02-5.14895E-04-1.48464E-13
 -1       525 1.33686E-02-5.16067E-04-1.54284E-13
 -1       526 1.36543E-02-5.17153E-04-1.60137E-13
 -1       527 1.39400E-02-5.18187E-04-1.66014E-13
 -1       528 1.42257E-02-5.19197E-04-1.71908E-13
 -1       529 1.89533E-03 4.19099E-04-3.44179E-15
 -1       530 2.21061E-03 4.65998E-04-4.65209E-15
 -1       531 2.53297E-03 5.25583E-04-6.04337E-15
 -1       532 2.86337E-03 6.04009E-04-7.61481E-15
 -1       533 3.20103E-03 7.04491E-04-9.36845E-15
 -1       534 3.54234E-03 8.23721E-04-1.13069E-14
 -1       535 3.88079E-03 9.47529E-04-1.34367E-14
 -1       536 4.21003E-03 1.04931E-03-1.57637E-14
 -1       537 4.52975E-03 1.09794E-03-1.82965E-14
 -1       538 4.84768E-03 1.07555E-03-2.10366E-14
 -1       539 5.17339E-03 9.90564E-04-2.39787E-14
 -1       540 5.50993E-03 8.71536E-04-2.71153E-14
 -1       541 5.85275E-03 7.49030E-04-3.04346E-14
 -1       542 6.19473E-03 6.43144E-04-3.39242E-14
 -1       543 6.53082E-03 5.61977E-04-3.75729E-14
 -1       544 6.85901E-03 5.05591E-04-4.13686E-14
 -1       545 7.17938E-03 4.70201E-04-4.53068E-14
 -1       546 7.49290E-03 4.50900E-04-4.93886E-14
 -1       547 7.80072E-03 4.43029E-04-5.36098E-14
 -1       548 8.10389E-03 4.42718E-04-5.79616E-14
 -1       549 8.40328E-03 4.47000E-04-6.24334E-14
 -1       550 8.69961E-03 4.53732E-04-6.70220E-14
 -1       551 8.99346E-03 4.61442E-04-7.17165E-14
 -1       552 9.28532E-03 4.69177E-04-7.65166E-14
 -1       553 9.57560E-03 4.76361E-04-8.14183E-14
 -1       554 9.86465E-03 4.82687E-04-8.64212E-14
 -1       555 1.01527E-02 4.88026E-04-9.15195E-14
 -1       556 1.04401E-02 4.92366E-04-9.67128E-14
 -1       557 1.07269E-02 4.95767E-04-1.01998E-13
 -1       558 1.10133E-02 4.98322E-04-1.07370E-13
 -1       559 1.12995E-02 5.00146E-04-1.12831E-13
 -1       560 1.15854E-02 5.01352E-04-1.18375E-13
 -1       561 1.18712E-02 5.02051E-04-1.23993E-13
 -1       562 1.21569E-02 5.02341E-04-1.29678E-13
 -1       563 1.24426E-02 5.02308E-04-1.35419E-13
 -1       564 1.27283E-02 5.02027E-04-1.41212E-13
 -1       565 1.30139E-02 5.01558E-04-1.47038E-13
 -1       566 1.32995E-02 5.00953E-04-1.52894E-13
 -1       567 1.35852E-02 5.00255E-04-1.58779E-13
 -1       568 1.38708E-02 4.99497E-04-1.64694E-13
 -1       569 1.41565E-02 4.98709E-04-1.70639E-13
 -1       570 1.44422E-02 4.97917E-04-1.76614E-13
 -1       571 1.44606E-02 2.24285E-04-1.77120E-13
 -1       572 1.44613E-02 1.39927E-04-1.77143E-13
 -1       573 1.44593E-02 3.91533E-04-1.77039E-13
 -1       574 1.44599E-02 3.07916E-04-1.77088E-13
 -1       575 1.44621E-02 5.55621E-05-1.77155E-13
 -1       576 1.44629E-02-2.88072E-05-1.77161E-13
 -1       577 1.44638E-02-1.13176E-04-1.77153E-13
 -1       578 1.44648E-02-1.96112E-04-1.77128E-13
 -1       579 1.44659E-02-2.80469E-04-1.77090E-13
 -1       580 1.44670E-02-3.64815E-04-1.77045E-13
 -1       581 1.44681E-02-4.49146E-04-1.76996E-13
 -1       582 6.84006E-03 1.12073E-05-3.09530E-14
 -1       583 6.35656E-03 1.95129E-04-2.91224E-14
 -1       584 1.58548E-03 3.77793E-04-2.41444E-15
 -1       585 5.18901E-03 8.05197E-04-2.32501E-14
 -1       586 6.70612E-03-7.27546E-05-3.03412E-14
 -1       587 6.66366E-03 7.65897E-05-3.03026E-14
 -1       588 6.83405E-03-2.30745E-05-3.06616E-14
 -1       589 4.67261E-03-9.84843E-04-1.99540E-14
 -1       590 4.19546E-03 9.03798E-04-1.67853E-14
 -1       591 6.17156E-04-2.00740E-05-7.46338E-16
 -1       592 4.59187E-03 9.82084E-04-1.92734E-14
 -1       593 3.08213E-03 3.23198E-04-1.26600E-14
 -1       594 4.87057E-03 9.36828E-04-2.11368E-14
 -1       595 3.81688E-03 7.23742E-04-1.48071E-14
 -1       596 3.35743E-03-4.71842E-04-1.32623E-14
 -1       597 3.46712E-03 5.25596E-04-1.36218E-14
 -1       598 2.71222E-03 1.58809E-04-1.17503E-14
 -1       599 2.39132E-03 4.29797E-05-1.11471E-14
 -1       600 2.30112E-03 3.80036E-06-1.08886E-14
 -1       601 2.63871E-03-1.36381E-04-1.13635E-14
 -1       602 5.79900E-03-4.80592E-04-2.67862E-14
 -1       603 2.93757E-03-2.62454E-04-1.19853E-14
 -1       604 3.70685E-03-6.65001E-04-1.45675E-14
 -1       605 4.11573E-03-8.77130E-04-1.64720E-14
 -1       606 4.40980E-03-9.70075E-04-1.82721E-14
 -1       607 5.00126E-03-9.02164E-04-2.21920E-14
 -1       608 5.35187E-03-7.31038E-04-2.44461E-14
 -1       609 6.13073E-03-3.09676E-04-2.83421E-14
 -1       610 6.45326E-03-1.66730E-04-2.96371E-14
 -1       611 7.36713E-04-1.96952E-04-6.22139E-16
 -1       612 7.36714E-04 2.39902E-04-4.99167E-16
 -1       613 5.97222E-03 3.77166E-04-2.75016E-14
 -1       614 6.70613E-04-1.08805E-04-6.90105E-16
 -1       615 1.44188E-02-5.21550E-04-1.75909E-13
 -1       616 2.29320E-03-1.76023E-05-1.04519E-14
 -1       617 2.44696E-03-7.66741E-05-1.05022E-14
 -1       618 4.39521E-03 9.76769E-04-1.78479E-14
 -1       619 5.44652E-03 6.82650E-04-2.52668E-14
 -1       620 2.50877E-03 8.88131E-05-1.08179E-14
 -1       621 8.36290E-04 4.32865E-05-1.26715E-15
 -1       622 8.24435E-04 1.41727E-05-1.27978E-15
 -1       623 8.89594E-04 1.19469E-04-1.20248E-15
 -1       624 9.28108E-04 1.71734E-04-1.14390E-15
 -1       625 1.07830E-03 2.43485E-04-1.32288E-15
 -1       626 5.02467E-03 9.02487E-04-2.24394E-14
 -1       627 5.84929E-03 4.63800E-04-2.78448E-14
 -1       628 4.01503E-03 8.59375E-04-1.52925E-14
 -1       629 1.40799E-03-2.58945E-04-2.37061E-15
 -1       630 1.70342E-03-2.91957E-04-3.38443E-15
 -1       631 2.00421E-03-3.26830E-04-4.57688E-15
 -1       632 2.31353E-03-3.70120E-04-5.94682E-15
 -1       633 2.63562E-03-4.29453E-04-7.49356E-15
 -1       634 2.97461E-03-5.13206E-04-9.21900E-15
 -1       635 3.33174E-03-6.28399E-04-1.11259E-14
 -1       636 3.70080E-03-7.72237E-04-1.32203E-14
 -1       637 4.06838E-03-9.20046E-04-1.55147E-14
 -1       638 4.42259E-03-1.01892E-03-1.80219E-14
 -1       639 4.76836E-03-1.01837E-03-2.07471E-14
 -1       640 5.12260E-03-9.19232E-04-2.36860E-14
 -1       641 5.49058E-03-7.72142E-04-2.68219E-14
 -1       642 5.85941E-03-6.30289E-04-3.01308E-14
 -1       643 6.21632E-03-5.19314E-04-3.35985E-14
 -1       644 6.55497E-03-4.42053E-04-3.72163E-14
 -1       645 6.87658E-03-3.92656E-04-4.09774E-14
 -1       646 7.18524E-03-3.64033E-04-4.48789E-14
 -1       647 7.48513E-03-3.50147E-04-4.89203E-14
 -1       648 7.77948E-03-3.46326E-04-5.31028E-14
 -1       649 8.07050E-03-3.49059E-04-5.74154E-14
 -1       650 8.35956E-03-3.55761E-04-6.18491E-14
 -1       651 8.64747E-03-3.64568E-04-6.63967E-14
 -1       652 8.93470E-03-3.74189E-04-7.10563E-14
 -1       653 9.22151E-03-3.83770E-04-7.58240E-14
 -1       654 9.50803E-03-3.92784E-04-8.06934E-14
 -1       655 9.79435E-03-4.00943E-04-8.56570E-14
 -1       656 1.00805E-02-4.08125E-04-9.07127E-14
 -1       657 1.03666E-02-4.14316E-04-9.58546E-14
 -1       658 1.06526E-02-4.19570E-04-1.01084E-13
 -1       659 1.09385E-02-4.23981E-04-1.06405E-13
 -1       660 1.12243E-02-4.27657E-04-1.11812E-13
 -1       661 1.15102E-02-4.30713E-04-1.17292E-13
 -1       662 1.17959E-02-4.33255E-04-1.22846E-13
 -1       663 1.20817E-02-4.35382E-04-1.28466E-13
 -1       664 1.23675E-02-4.37181E-04-1.34136E-13
 -1       665 1.26532E-02-4.38726E-04-1.39859E-13
 -1       666 1.29389E-02-4.40077E-04-1.45625E-13
 -1       667 1.32246E-02-4.41288E-04-1.51427E-13
 -1       668 1.35104E-02-4.42398E-04-1.57262E-13
 -1       669 1.37961E-02-4.43443E-04-1.63125E-13
 -1       670 1.40818E-02-4.44452E-04-1.69004E-13
 -1       671 2.29041E-03 4.03816E-04-5.50369E-15
 -1       672 6.83441E-03-4.03688E-05-3.23946E-14
 -1       673 1.97854E-03 3.58505E-04-4.18992E-15
 -1       674 2.94905E-03 5.46813E-04-8.66147E-15
 -1       675 3.29876E-03 6.56339E-04-1.05095E-14
 -1       676 3.65703E-03 7.89166E-04-1.25409E-14
 -1       677 4.01299E-03 9.24901E-04-1.47657E-14
 -1       678 4.35650E-03 1.02250E-03-1.71945E-14
 -1       679 4.69060E-03 1.04039E-03-1.98325E-14
 -1       680 5.02984E-03 9.69614E-04-2.26809E-14
 -1       681 5.38166E-03 8.42572E-04-2.57305E-14
 -1       682 5.74087E-03 7.04935E-04-2.89699E-14
 -1       683 6.09556E-03 5.86653E-04-3.23829E-14
 -1       684 6.43789E-03 4.97645E-04-3.59561E-14
 -1       685 6.76609E-03 4.36649E-04-3.96799E-14
 -1       686 7.08210E-03 3.98363E-04-4.35449E-14
 -1       687 7.38896E-03 3.77035E-04-4.75520E-14
 -1       688 7.68945E-03 3.67684E-04-5.17015E-14
 -1       689 7.98564E-03 3.66343E-04-5.59873E-14
 -1       690 8.27892E-03 3.69997E-04-6.03968E-14
 -1       691 8.57020E-03 3.76444E-04-6.49225E-14
 -1       692 8.86008E-03 3.84139E-04-6.95611E-14
 -1       693 9.14891E-03 3.92053E-04-7.43036E-14
 -1       694 9.43698E-03 3.99540E-04-7.91463E-14
 -1       695 9.72444E-03 4.06232E-04-8.40914E-14
 -1       696 1.00114E-02 4.11960E-04-8.91339E-14
 -1       697 1.02981E-02 4.16679E-04-9.42711E-14
 -1       698 1.05845E-02 4.20429E-04-9.95020E-14
 -1       699 1.08707E-02 4.23295E-04-1.04826E-13
 -1       700 1.11567E-02 4.25387E-04-1.10240E-13
 -1       701 1.14426E-02 4.26818E-04-1.15734E-13
 -1       702 1.17284E-02 4.27701E-04-1.21307E-13
 -1       703 1.20142E-02 4.28139E-04-1.26952E-13
 -1       704 1.23000E-02 4.28222E-04-1.32657E-13
 -1       705 1.25857E-02 4.28029E-04-1.38413E-13
 -1       706 1.28714E-02 4.27626E-04-1.44214E-13
 -1       707 1.31571E-02 4.27068E-04-1.50048E-13
 -1       708 1.34428E-02 4.26399E-04-1.55915E-13
 -1       709 1.37285E-02 4.25657E-04-1.61809E-13
 -1       710 1.40142E-02 4.24872E-04-1.67738E-13
 -1       711 1.42367E-02 4.08204E-04-1.72383E-13
 -1       712 6.22146E-03 2.74485E-04-2.98513E-14
 -1       713 1.42150E-02 1.41486E-05-1.72019E-13
 -1       714 1.42750E-02-4.46798E-04-1.72991E-13
 -1       715 1.42135E-02 1.82839E-04-1.71983E-13
 -1       716 1.42159E-02-7.02000E-05-1.72018E-13
 -1       717 1.42142E-02 9.84959E-05-1.72008E-13
 -1       718 1.42168E-02-1.53118E-04-1.72004E-13
 -1       719 1.42179E-02-2.37461E-04-1.71976E-13
 -1       720 1.42190E-02-3.21797E-04-1.71937E-13
 -1       721 5.63449E-03-6.07852E-04-2.70256E-14
 -1       722 6.56770E-03 1.23818E-04-3.13238E-14
 -1       723 6.89897E-03-8.58788E-06-3.26967E-14
 -1       724 4.73879E-03 9.89874E-04-2.02965E-14
 -1       725 3.19306E-03 4.01917E-04-1.20767E-14
 -1       726 6.83776E-03 3.61976E-05-3.29749E-14
 -1       727 3.10830E-03-3.76728E-04-1.16400E-14
 -1       728 1.67412E-03 3.21034E-04-3.05474E-15
 -1       729 2.61298E-03 4.64194E-04-6.99347E-15
 -1       730 1.11622E-03-2.22253E-04-1.53662E-15
 -1       731 1.37458E-03 2.84702E-04-2.09863E-15
 -1       732 6.34707E-03-2.29346E-04-3.06374E-14
 -1       733 8.58552E-04 7.74366E-05-1.24228E-15
 -1       734 3.89023E-03-7.91975E-04-1.48731E-14
 -1       735 8.57340E-04-7.56180E-05-1.25248E-15
 -1       736 3.56140E-03 6.09955E-04-1.32283E-14
 -1       737 4.31835E-03-9.72424E-04-1.74235E-14
 -1       738 2.29019E-03 2.16532E-05-1.00931E-14
 -1       739 3.50842E-03-5.87306E-04-1.30832E-14
 -1       740 6.67081E-03-1.04254E-04-3.22784E-14
 -1       741 4.81388E-03-9.80964E-04-2.10515E-14
 -1       742 2.70711E-03-1.89636E-04-1.05912E-14
 -1       743 2.85511E-03 2.35936E-04-1.12038E-14
 -1       744 4.56452E-03-1.00787E-03-1.91871E-14
 -1       745 6.00785E-03-3.95752E-04-2.90427E-14
 -1       746 5.18616E-03-8.48060E-04-2.39131E-14
 -1       747 8.88099E-04-1.17160E-04-1.21800E-15
 -1       748 8.24183E-04-1.30753E-05-1.28135E-15
 -1       749 5.27062E-03 8.07009E-04-2.44096E-14
 -1       750 2.62524E-03 1.55634E-04-1.02908E-14
 -1       751 1.42128E-02 2.66461E-04-1.71952E-13
 -1       752 1.42247E-02 3.37337E-04-1.72175E-13
 -1       753 2.23175E-03 4.70242E-07-9.67199E-15
 -1       754 2.49800E-03-1.24175E-04-9.75825E-15
 -1       755 9.46105E-04-1.80988E-04-1.18117E-15
 -1       756 8.35491E-04-4.18548E-05-1.27261E-15
 -1       757 2.35431E-03 5.65620E-05-9.77265E-15
 -1       758 1.41504E-02-3.83131E-04-1.70471E-13
 -1       759 3.71439E-03 7.51029E-04-1.33342E-14
 -1       760 1.14776E-03 1.72545E-04-1.80601E-15
 -1       761 1.21179E-03-1.81824E-04-2.00841E-15
 -1       762 1.77832E-03-2.34373E-04-4.06347E-15
 -1       763 2.06952E-03-2.62573E-04-5.35314E-15
 -1       764 2.37130E-03-2.99831E-04-6.81556E-15
 -1       765 2.69042E-03-3.55150E-04-8.45015E-15
 -1       766 3.03434E-03-4.40762E-04-1.02578E-14
 -1       767 5.77536E-03-5.73226E-04-2.85501E-14
 -1       768 6.14776E-03-4.45181E-04-3.19513E-14
 -1       769 6.49038E-03-3.63774E-04-3.55000E-14
 -1       770 6.80787E-03-3.15893E-04-3.91899E-14
 -1       771 7.10798E-03-2.89608E-04-4.30174E-14
 -1       772 7.39767E-03-2.77262E-04-4.69845E-14
 -1       773 7.68181E-03-2.73978E-04-5.10922E-14
 -1       774 7.96345E-03-2.76545E-04-5.53369E-14
 -1       775 8.24435E-03-2.82728E-04-5.97074E-14
 -1       776 8.52541E-03-2.90922E-04-6.41948E-14
 -1       777 8.80707E-03-2.99982E-04-6.87935E-14
 -1       778 9.08946E-03-3.09119E-04-7.35028E-14
 -1       779 9.37255E-03-3.17821E-04-7.83173E-14
 -1       780 9.65627E-03-3.25788E-04-8.32317E-14
 -1       781 9.94052E-03-3.32871E-04-8.82371E-14
 -1       782 1.02252E-02-3.39034E-04-9.33307E-14
 -1       783 1.05102E-02-3.44308E-04-9.85094E-14
 -1       784 1.07954E-02-3.48767E-04-1.03778E-13
 -1       785 1.10808E-02-3.52506E-04-1.09139E-13
 -1       786 1.13664E-02-3.55630E-04-1.14585E-13
 -1       787 1.16520E-02-3.58240E-04-1.20103E-13
 -1       788 1.19377E-02-3.60431E-04-1.25691E-13
 -1       789 1.22234E-02-3.62285E-04-1.31341E-13
 -1       790 1.25091E-02-3.63877E-04-1.37039E-13
 -1       791 1.27949E-02-3.65267E-04-1.42785E-13
 -1       792 1.30806E-02-3.66506E-04-1.48571E-13
 -1       793 1.33664E-02-3.67637E-04-1.54388E-13
 -1       794 1.36521E-02-3.68694E-04-1.60235E-13
 -1       795 1.39013E-02-3.75921E-04-1.65348E-13
 -1       796 3.02246E-03 4.79859E-04-9.71973E-15
 -1       797 6.00735E-03 5.24702E-04-3.08396E-14
 -1       798 6.35892E-03 4.27446E-04-3.43426E-14
 -1       799 6.68817E-03 3.64465E-04-3.79943E-14
 -1       800 6.99944E-03 3.26398E-04-4.17891E-14
 -1       801 7.29861E-03 3.05457E-04-4.57229E-14
 -1       802 7.59041E-03 2.96084E-04-4.97988E-14
 -1       803 7.87812E-03 2.94365E-04-5.40152E-14
 -1       804 8.16376E-03 2.97489E-04-5.83619E-14
 -1       805 8.44853E-03 3.03422E-04-6.28277E-14
 -1       806 8.73305E-03 3.10715E-04-6.74060E-14
 -1       807 9.01762E-03 3.18369E-04-7.20949E-14
 -1       808 9.30239E-03 3.25731E-04-7.68810E-14
 -1       809 9.58737E-03 3.32410E-04-8.17646E-14
 -1       810 9.87254E-03 3.38201E-04-8.67522E-14
 -1       811 1.01579E-02 3.43033E-04-9.18382E-14
 -1       812 1.04433E-02 3.46923E-04-9.70136E-14
 -1       813 1.07289E-02 3.49938E-04-1.02285E-13
 -1       814 1.10145E-02 3.52174E-04-1.07651E-13
 -1       815 1.13002E-02 3.53739E-04-1.13101E-13
 -1       816 1.15859E-02 3.54741E-04-1.18628E-13
 -1       817 1.18717E-02 3.55281E-04-1.24231E-13
 -1       818 1.21574E-02 3.55449E-04-1.29897E-13
 -1       819 1.24431E-02 3.55326E-04-1.35619E-13
 -1       820 1.27289E-02 3.54977E-04-1.41393E-13
 -1       821 1.30146E-02 3.54460E-04-1.47204E-13
 -1       822 1.33004E-02 3.53819E-04-1.53050E-13
 -1       823 1.35861E-02 3.53094E-04-1.58926E-13
 -1       824 1.38718E-02 3.52315E-04-1.64835E-13
 -1       825 1.40483E-02 3.44829E-04-1.68501E-13
 -1       826 1.39689E-02-1.10856E-04-1.66893E-13
 -1       827 6.58482E-03-1.74037E-04-3.33355E-14
 -1       828 1.39709E-02-2.78790E-04-1.66850E-13
 -1       829 1.39679E-02-2.65296E-05-1.66900E-13
 -1       830 1.75396E-03 2.63580E-04-3.72673E-15
 -1       831 2.05068E-03 2.95386E-04-4.96434E-15
 -1       832 1.39699E-02-1.94825E-04-1.66875E-13
 -1       833 6.99123E-03 8.05274E-06-3.54863E-14
 -1       834 6.97819E-03-1.96392E-05-3.51841E-14
 -1       835 1.49318E-03-2.08998E-04-2.94777E-15
 -1       836 6.49397E-03 1.93877E-04-3.25163E-14
 -1       837 6.89818E-03-6.15064E-05-3.50718E-14
 -1       838 5.66879E-03 6.01268E-04-2.73463E-14
 -1       839 6.10660E-03 3.77632E-04-3.03395E-14
 -1       840 6.28072E-03-3.12571E-04-3.17613E-14
 -1       841 6.78831E-03 8.33224E-05-3.42093E-14
 -1       842 3.25067E-03 5.01318E-04-1.13787E-14
 -1       843 2.25431E-03-3.84753E-05-9.25640E-15
 -1       844 1.04690E-03-1.48361E-04-1.59080E-15
 -1       845 2.96184E-03 3.43495E-04-1.05517E-14
 -1       846 3.23950E-03-5.05436E-04-1.13671E-14
 -1       847 2.79683E-03-2.86586E-04-9.92723E-15
 -1       848 1.04114E-03 3.42305E-05-1.93955E-15
 -1       849 1.25753E-03 2.25055E-04-1.95723E-15
 -1       850 1.03260E-03 5.75372E-07-1.94977E-15
 -1       851 1.10154E-03 1.17489E-04-1.87022E-15
 -1       852 1.00696E-03-9.88440E-05-1.63829E-15
 -1       853 1.39656E-02 2.25374E-04-1.66839E-13
 -1       854 2.67947E-03 3.94436E-04-7.96134E-15
 -1       855 1.39361E-02-3.27358E-04-1.66100E-13
 -1       856 2.35736E-03 3.36275E-04-6.37701E-15
 -1       857 3.38866E-03 6.02994E-04-1.16546E-14
 -1       858 5.62820E-03 6.70093E-04-2.74879E-14
 -1       859 1.39663E-02 1.41051E-04-1.66871E-13
 -1       860 6.85862E-03-1.14176E-04-3.61638E-14
 -1       861 1.39671E-02 5.72613E-05-1.66894E-13
 -1       862 2.73027E-03 2.54505E-04-9.66840E-15
 -1       863 1.06488E-03 7.19723E-05-1.91375E-15
 -1       864 2.58066E-03-2.09481E-04-9.12358E-15
 -1       865 7.00168E-03 4.19261E-05-3.67628E-14
 -1       866 2.20071E-03 2.04323E-05-8.97110E-15
 -1       867 9.76789E-04-5.83519E-05-1.66783E-15
 -1       868 1.50536E-03 2.45689E-04-2.77213E-15
 -1       869 1.30130E-03-1.40895E-04-2.51868E-15
 -1       870 2.37368E-03 1.06210E-04-8.87265E-15
 -1       871 2.11468E-03-1.00252E-05-8.24129E-15
 -1       872 2.11837E-03-1.95562E-04-6.15217E-15
 -1       873 2.40500E-03-2.23114E-04-7.70146E-15
 -1       874 2.18055E-03 5.60672E-05-8.11686E-15
 -1       875 6.76618E-03-2.34387E-04-3.74081E-14
 -1       876 7.05040E-03-2.14260E-04-4.11671E-14
 -1       877 7.32469E-03-2.06142E-04-4.50611E-14
 -1       878 7.59519E-03-2.04949E-04-4.90941E-14
 -1       879 7.86515E-03-2.08065E-04-5.32672E-14
 -1       880 8.13624E-03-2.13876E-04-5.75729E-14
 -1       881 8.40921E-03-2.21250E-04-6.20000E-14
 -1       882 8.68427E-03-2.29347E-04-6.65408E-14
 -1       883 8.96137E-03-2.37553E-04-7.11900E-14
 -1       884 9.24029E-03-2.45439E-04-7.59485E-14
 -1       885 9.52077E-03-2.52736E-04-8.08106E-14
 -1       886 9.80255E-03-2.59295E-04-8.57681E-14
 -1       887 1.00854E-02-2.65062E-04-9.08139E-14
 -1       888 1.03690E-02-2.70048E-04-9.59458E-14
 -1       889 1.06532E-02-2.74304E-04-1.01161E-13
 -1       890 1.09380E-02-2.77908E-04-1.06477E-13
 -1       891 1.12230E-02-2.80945E-04-1.11876E-13
 -1       892 1.15084E-02-2.83503E-04-1.17363E-13
 -1       893 1.17939E-02-2.85667E-04-1.22919E-13
 -1       894 1.20795E-02-2.87512E-04-1.28540E-13
 -1       895 1.23652E-02-2.89104E-04-1.34221E-13
 -1       896 1.26509E-02-2.90500E-04-1.39948E-13
 -1       897 1.29367E-02-2.91748E-04-1.45715E-13
 -1       898 1.32225E-02-2.92886E-04-1.51513E-13
 -1       899 1.35082E-02-2.93947E-04-1.57343E-13
 -1       900 1.15221E-03-1.19335E-04-2.05601E-15
 -1       901 2.10812E-03 2.28976E-04-5.76572E-15
 -1       902 6.31082E-03 3.45177E-04-3.27313E-14
 -1       903 7.22483E-03 2.32813E-04-4.39089E-14
 -1       904 7.50473E-03 2.25541E-04-4.79120E-14
 -1       905 7.78152E-03 2.24561E-04-5.20546E-14
 -1       906 8.05761E-03 2.27549E-04-5.63352E-14
 -1       907 8.33429E-03 2.32903E-04-6.07386E-14
 -1       908 8.61213E-03 2.39465E-04-6.52580E-14
 -1       909 8.89131E-03 2.46408E-04-6.98888E-14
 -1       910 9.17180E-03 2.53159E-04-7.46240E-14
 -1       911 9.45345E-03 2.59353E-04-7.94522E-14
 -1       912 9.73610E-03 2.64786E-04-8.43819E-14
 -1       913 1.00195E-02 2.69368E-04-8.94116E-14
 -1       914 1.03036E-02 2.73094E-04-9.45375E-14
 -1       915 1.05882E-02 2.76011E-04-9.97588E-14
 -1       916 1.08732E-02 2.78197E-04-1.05070E-13
 -1       917 1.11584E-02 2.79745E-04-1.10474E-13
 -1       918 1.14438E-02 2.80750E-04-1.15958E-13
 -1       919 1.17293E-02 2.81307E-04-1.21516E-13
 -1       920 1.20150E-02 2.81499E-04-1.27146E-13
 -1       921 1.23007E-02 2.81401E-04-1.32833E-13
 -1       922 1.25864E-02 2.81077E-04-1.38577E-13
 -1       923 1.28722E-02 2.80581E-04-1.44366E-13
 -1       924 1.31580E-02 2.79958E-04-1.50190E-13
 -1       925 1.34437E-02 2.79244E-04-1.56048E-13
 -1       926 1.37295E-02 2.78470E-04-1.61935E-13
 -1       927 1.37209E-02-6.78987E-05-1.61803E-13
 -1       928 1.40070E-02 2.85102E-04-1.67673E-13
 -1       929 1.57053E-03-1.59081E-04-3.55878E-15
 -1       930 1.82331E-03 2.04975E-04-4.43000E-15
 -1       931 7.11002E-03-1.02675E-05-3.80309E-14
 -1       932 6.93762E-03 2.50015E-04-4.00432E-14
 -1       933 6.63648E-03 2.83629E-04-3.63171E-14
 -1       934 7.06852E-03-4.86031E-05-3.79191E-14
 -1       935 6.73976E-03 1.47884E-04-3.53274E-14
 -1       936 6.51560E-03-2.69157E-04-3.44272E-14
 -1       937 1.84207E-03-1.76066E-04-4.77081E-15
 -1       938 2.26305E-03-8.06513E-05-8.45900E-15
 -1       939 9.99470E-04-2.84697E-05-1.81158E-15
 -1       940 1.35974E-03 1.64117E-04-2.61182E-15
 -1       941 1.11373E-03-7.28938E-05-2.09519E-15
 -1       942 2.03674E-03 1.73438E-05-7.43430E-15
 -1       943 2.72037E-03 3.14373E-04-8.94272E-15
 -1       944 1.37185E-02 1.83934E-04-1.61748E-13
 -1       945 1.37222E-02-3.10660E-04-1.61716E-13
 -1       946 1.37200E-02 1.58662E-05-1.61800E-13
 -1       947 1.37219E-02-1.51843E-04-1.61791E-13
 -1       948 7.16263E-03 2.07575E-05-3.93503E-14
 -1       949 6.99019E-03 9.00422E-05-3.79239E-14
 -1       950 1.24384E-03 1.93312E-05-2.74472E-15
 -1       951 2.06936E-03-4.07505E-05-7.49595E-15
 -1       952 1.26569E-03 5.94550E-05-2.72160E-15
 -1       953 1.37390E-02-2.44408E-04-1.62102E-13
 -1       954 1.54439E-03 1.84013E-04-3.26683E-15
 -1       955 2.40505E-03 2.61823E-04-7.27009E-15
 -1       956 2.20848E-03-1.38059E-04-7.27638E-15
 -1       957 7.05680E-03-1.21641E-04-3.95524E-14
 -1       958 2.19117E-03 1.10417E-04-7.41920E-15
 -1       959 1.37192E-02 1.00167E-04-1.61783E-13
 -1       960 1.64114E-03-1.10178E-04-4.20052E-15
 -1       961 7.29918E-03-1.21662E-04-4.33839E-14
 -1       962 7.54616E-03-1.24588E-04-4.73543E-14
 -1       963 7.79835E-03-1.29019E-04-5.14637E-14
 -1       964 8.05573E-03-1.34399E-04-5.57067E-14
 -1       965 8.31798E-03-1.40393E-04-6.00787E-14
 -1       966 8.58459E-03-1.46673E-04-6.45690E-14
 -1       967 8.85499E-03-1.52946E-04-6.91696E-14
 -1       968 9.12864E-03-1.58976E-04-7.38786E-14
 -1       969 9.40500E-03-1.64596E-04-7.86904E-14
 -1       970 9.68359E-03-1.69702E-04-8.36002E-14
 -1       971 9.96397E-03-1.74250E-04-8.86014E-14
 -1       972 1.02458E-02-1.78239E-04-9.36879E-14
 -1       973 1.05287E-02-1.81698E-04-9.88644E-14
 -1       974 1.08124E-02-1.84678E-04-1.04134E-13
 -1       975 1.10968E-02-1.87235E-04-1.09496E-13
 -1       976 1.13817E-02-1.89433E-04-1.14946E-13
 -1       977 1.16669E-02-1.91331E-04-1.20476E-13
 -1       978 1.19523E-02-1.92983E-04-1.26071E-13
 -1       979 1.22379E-02-1.94440E-04-1.31734E-13
 -1       980 1.25236E-02-1.95744E-04-1.37446E-13
 -1       981 1.28093E-02-1.96930E-04-1.43198E-13
 -1       982 1.30951E-02-1.98028E-04-1.48979E-13
 -1       983 1.33809E-02-1.99063E-04-1.54792E-13
 -1       984 7.69363E-03 1.58837E-04-5.01069E-14
 -1       985 7.43098E-03 1.58156E-04-4.60359E-14
 -1       986 8.22543E-03 1.66712E-04-5.86535E-14
 -1       987 8.49563E-03 1.72228E-04-6.31127E-14
 -1       988 8.76865E-03 1.78011E-04-6.76873E-14
 -1       989 9.04423E-03 1.83650E-04-7.23677E-14
 -1       990 9.32202E-03 1.88860E-04-7.71482E-14
 -1       991 9.60166E-03 1.93465E-04-8.20251E-14
 -1       992 9.88282E-03 1.97378E-04-8.69989E-14
 -1       993 1.01652E-02 2.00580E-04-9.20711E-14
 -1       994 1.04485E-02 2.03096E-04-9.72394E-14
 -1       995 1.07325E-02 2.04984E-04-1.02500E-13
 -1       996 1.10171E-02 2.06316E-04-1.07853E-13
 -1       997 1.13021E-02 2.07169E-04-1.13293E-13
 -1       998 1.15873E-02 2.07622E-04-1.18809E-13
 -1       999 1.18728E-02 2.07746E-04-1.24399E-13
 -1      1000 1.21584E-02 2.07607E-04-1.30053E-13
 -1      1001 1.24441E-02 2.07259E-04-1.35768E-13
 -1      1002 1.27298E-02 2.06752E-04-1.41534E-13
 -1      1003 1.30156E-02 2.06124E-04-1.47336E-13
 -1      1004 1.33014E-02 2.05408E-04-1.53172E-13
 -1      1005 1.30600E-03 1.06818E-04-2.67823E-15
 -1      1006 2.42568E-03 2.07539E-04-7.93616E-15
 -1      1007 1.38637E-03-1.00043E-04-3.06603E-15
 -1      1008 7.16825E-03 1.61472E-04-4.21016E-14
 -1      1009 1.88123E-03 1.46073E-04-5.16291E-15
 -1      1010 1.47946E-03 1.20391E-04-3.34495E-15
 -1      1011 1.24216E-03-1.87872E-05-2.74288E-15
 -1      1012 7.23661E-03-3.19692E-05-4.07551E-14
 -1      1013 7.95816E-03 1.62012E-04-5.43141E-14
 -1      1014 6.95557E-03 1.65429E-04-3.89925E-14
 -1      1015 1.89417E-03-1.18707E-04-5.50370E-15
 -1      1016 1.67911E-03 1.33020E-04-4.20648E-15
 -1      1017 1.94422E-03-1.09536E-05-6.73701E-15
 -1      1018 1.33021E-02 1.21697E-04-1.53219E-13
 -1      1019 2.00674E-03 5.64273E-05-6.78322E-15
 -1      1020 1.34729E-02-2.52346E-05-1.56726E-13
 -1      1021 7.31723E-03 5.40436E-07-4.21213E-14
 -1      1022 1.34739E-02-1.09144E-04-1.56727E-13
 -1      1023 7.18602E-03 6.08659E-05-4.05536E-14
 -1      1024 1.24895E-03-8.62645E-05-2.55886E-15
 -1      1025 1.44436E-03-1.50460E-07-3.67357E-15
 -1      1026 1.45921E-03 4.13401E-05-3.65770E-15
 -1      1027 1.17517E-03-4.58544E-05-2.41297E-15
 -1      1028 1.45790E-03-4.21131E-05-3.65968E-15
 -1      1029 8.91834E-03 1.17589E-04-7.01151E-14
 -1      1030 7.70547E-03-7.28400E-05-4.94072E-14
 -1      1031 7.95115E-03-7.68461E-05-5.35804E-14
 -1      1032 8.20454E-03-8.10111E-05-5.78884E-14
 -1      1033 8.46427E-03-8.52532E-05-6.23197E-14
 -1      1034 8.72926E-03-8.94712E-05-6.68635E-14
 -1      1035 8.99862E-03-9.35565E-05-7.15199E-14
 -1      1036 9.27158E-03-9.74153E-05-7.62796E-14
 -1      1037 9.54750E-03-1.00982E-04-8.11370E-14
 -1      1038 9.82580E-03-1.04221E-04-8.60852E-14
 -1      1039 1.01060E-02-1.07124E-04-9.11282E-14
 -1      1040 1.03877E-02-1.09701E-04-9.62565E-14
 -1      1041 1.06706E-02-1.11977E-04-1.01481E-13
 -1      1042 1.09543E-02-1.13984E-04-1.06799E-13
 -1      1043 1.12387E-02-1.15760E-04-1.12206E-13
 -1      1044 1.15236E-02-1.17339E-04-1.17698E-13
 -1      1045 1.18088E-02-1.18758E-04-1.23263E-13
 -1      1046 1.20942E-02-1.20045E-04-1.28894E-13
 -1      1047 1.23798E-02-1.21229E-04-1.34586E-13
 -1      1048 1.26655E-02-1.22333E-04-1.40323E-13
 -1      1049 1.29513E-02-1.23377E-04-1.46089E-13
 -1      1050 7.61147E-03 9.83977E-05-4.81662E-14
 -1      1051 8.64790E-03 1.13565E-04-6.54881E-14
 -1      1052 8.38136E-03 1.09410E-04-6.09731E-14
 -1      1053 9.19205E-03 1.21308E-04-7.48452E-14
 -1      1054 9.46850E-03 1.24600E-04-7.96750E-14
 -1      1055 9.74717E-03 1.27399E-04-8.45967E-14
 -1      1056 1.00276E-02 1.29680E-04-8.96157E-14
 -1      1057 1.03095E-02 1.31455E-04-9.47312E-14
 -1      1058 1.05925E-02 1.32758E-04-9.99418E-14
 -1      1059 1.08763E-02 1.33638E-04-1.05244E-13
 -1      1060 1.11607E-02 1.34149E-04-1.10634E-13
 -1      1061 1.14456E-02 1.34347E-04-1.16109E-13
 -1      1062 1.17308E-02 1.34287E-04-1.21661E-13
 -1      1063 1.20163E-02 1.34017E-04-1.27279E-13
 -1      1064 1.23019E-02 1.33579E-04-1.32960E-13
 -1      1065 1.25876E-02 1.33012E-04-1.38702E-13
 -1      1066 1.28733E-02 1.32345E-04-1.44482E-13
 -1      1067 1.30877E-02 1.27039E-04-1.48843E-13
 -1      1068 7.86249E-03 1.01589E-04-5.23021E-14
 -1      1069 7.36680E-03 9.60236E-05-4.41650E-14
 -1      1070 1.46389E-03 9.23931E-05-3.43039E-15
 -1      1071 7.17808E-03 1.07541E-04-4.13333E-14
 -1      1072 1.90726E-03-5.85782E-05-6.12214E-15
 -1      1073 1.33875E-02 4.82436E-05-1.54980E-13
 -1      1074 1.69088E-03-4.45750E-05-4.88599E-15
 -1      1075 8.11933E-03 1.05339E-04-5.65756E-14
 -1      1076 7.46531E-03-5.52285E-05-4.51428E-14
 -1      1077 1.87123E-03 2.28263E-05-6.13150E-15
 -1      1078 1.32371E-02-1.24376E-04-1.51890E-13
 -1      1079 7.36905E-03 3.75481E-05-4.33685E-14
 -1      1080 1.88316E-03 7.40887E-05-5.79548E-15
 -1      1081 1.31966E-02-1.20865E-05-1.51085E-13
 -1      1082 1.64708E-03 2.09219E-05-4.72180E-15
 -1      1083 1.67976E-03 8.49918E-05-4.54073E-15
 -1      1084 7.64324E-03-1.77715E-05-4.80101E-14
 -1      1085 8.08680E-03-2.61451E-05-5.57027E-14
 -1      1086 8.34081E-03-2.78563E-05-6.00733E-14
 -1      1087 8.60131E-03-2.95923E-05-6.45599E-14
 -1      1088 8.86709E-03-3.13201E-05-6.91610E-14
 -1      1089 9.13719E-03-3.30097E-05-7.38685E-14
 -1      1090 9.41083E-03-3.46377E-05-7.86761E-14
 -1      1091 9.68733E-03-3.61887E-05-8.35771E-14
 -1      1092 9.96613E-03-3.76554E-05-8.85694E-14
 -1      1093 1.02467E-02-3.90370E-05-9.36553E-14
 -1      1094 1.05288E-02-4.03374E-05-9.88352E-14
 -1      1095 1.08119E-02-4.15638E-05-1.04107E-13
 -1      1096 1.10958E-02-4.27248E-05-1.09472E-13
 -1      1097 1.13804E-02-4.38298E-05-1.14922E-13
 -1      1098 1.16654E-02-4.48880E-05-1.20450E-13
 -1      1099 1.19507E-02-4.59079E-05-1.26052E-13
 -1      1100 1.22362E-02-4.68973E-05-1.31717E-13
 -1      1101 1.25218E-02-4.78625E-05-1.37437E-13
 -1      1102 1.28075E-02-4.88096E-05-1.43195E-13
 -1      1103 9.06213E-03 5.68499E-05-7.25440E-14
 -1      1104 8.52669E-03 5.31669E-05-6.32950E-14
 -1      1105 9.61181E-03 5.96232E-05-8.22018E-14
 -1      1106 9.89041E-03 6.05898E-05-8.71709E-14
 -1      1107 1.01709E-02 6.12729E-05-9.22348E-14
 -1      1108 1.04528E-02 6.16880E-05-9.73919E-14
 -1      1109 1.07358E-02 6.18594E-05-1.02645E-13
 -1      1110 1.10196E-02 6.18163E-05-1.07990E-13
 -1      1111 1.13041E-02 6.15891E-05-1.13421E-13
 -1      1112 1.15890E-02 6.12079E-05-1.18930E-13
 -1      1113 1.18743E-02 6.07005E-05-1.24513E-13
 -1      1114 1.21597E-02 6.00917E-05-1.30164E-13
 -1      1115 1.24454E-02 5.94031E-05-1.35872E-13
 -1      1116 1.27311E-02 5.86529E-05-1.41633E-13
 -1      1117 7.52902E-03 4.48948E-05-4.62313E-14
 -1      1118 8.79226E-03 5.50963E-05-6.78651E-14
 -1      1119 1.31421E-02 5.74854E-05-1.49969E-13
 -1      1120 7.86062E-03-2.18018E-05-5.17980E-14
 -1      1121 7.76584E-03 4.69150E-05-5.02982E-14
 -1      1122 9.33553E-03 5.83712E-05-7.73253E-14
 -1      1123 1.29366E-02 5.80784E-05-1.45795E-13
 -1      1124 8.01222E-03 4.90470E-05-5.45030E-14
 -1      1125 8.26630E-03 5.11290E-05-5.88395E-14
 -1      1126 0.00000E+00 0.00000E+00 0.00000E+00
 -1      1127 0.00000E+00 0.00000E+00 0.00000E+00
 -1      1128 0.00000E+00 0.00000E+00 0.00000E+00
 -1      1129 0.00000E+00 0.00000E+00 0.00000E+00
 -1      1130 0.00000E+00 0.00000E+00 0.00000E+00
 -1      1131 0.00000E+00 0.00000E+00 0.00000E+00
 -1      1132 0.00000E+00 0.00000E+00 0.00000E+00
 -1      1133 0.00000E+00 0.00000E+00 0.00000E+00
 -1      1134 0.00000E+00 0.00000E+00 0.00000E+00
 -1      1135 0.00000E+00 0.00000E+00 0.00000E+00
 -1      1136 0.00000E+00 0.00000E+00 0.00000E+00
 -1      1137 0.00000E+00 0.00000E+00 0.00000E+00
 -1      1138 0.00000E+00 0.00000E+00 0.00000E+00
 -1      1139 0.00000E+00 0.00000E+00 0.00000E+00
 -1      1140 0.00000E+00 0.00000E+00 0.00000E+00
 -1      1141 0.00000E+00 0.00000E+00 0.00000E+00
 -1      1142 0.00000E+00 0.00000E+00 0.00000E+00
 -1      1143 2.13919E-04-1.43051E-04 3.10217E-17
 -1      1144 5.67158E-04-3.14930E-04-2.76878E-17
 -1      1145 8.71754E-04-4.19855E-04-2.65426E-16
 -1      1146 1.17249E-03-4.90062E-04-7.12429E-16
 -1      1147 1.47733E-03-5.43115E-04-1.36042E-15
 -1      1148 1.79026E-03-5.89374E-04-2.20715E-15
 -1      1149 2.11320E-03-6.36788E-04-3.25247E-15
 -1      1150 2.44596E-03-6.92462E-04-4.49289E-15
 -1      1151 2.78591E-03-7.62602E-04-5.92916E-15
 -1      1152 3.12749E-03-8.51161E-04-7.56354E-15
 -1      1153 3.46242E-03-9.57398E-04-9.39514E-15
 -1      1154 3.78115E-03-1.07310E-03-1.14221E-14
 -1      1155 4.07645E-03-1.18140E-03-1.36458E-14
 -1      1156 4.34786E-03-1.25990E-03-1.60703E-14
 -1      1157 4.60427E-03-1.28877E-03-1.86991E-14
 -1      1158 4.86158E-03-1.26016E-03-2.15292E-14
 -1      1159 5.13567E-03-1.18248E-03-2.45494E-14
 -1      1160 5.43542E-03-1.07612E-03-2.77519E-14
 -1      1161 5.76042E-03-9.64028E-04-3.11292E-14
 -1      1162 6.10347E-03-8.63724E-04-3.46729E-14
 -1      1163 6.45514E-03-7.84272E-04-3.83724E-14
 -1      1164 6.80717E-03-7.27530E-04-4.22164E-14
 -1      1165 7.15392E-03-6.91025E-04-4.62008E-14
 -1      1166 7.49242E-03-6.70514E-04-5.03343E-14
 -1      1167 7.82172E-03-6.61609E-04-5.46149E-14
 -1      1168 8.14212E-03-6.60527E-04-5.90219E-14
 -1      1169 8.45461E-03-6.64325E-04-6.35451E-14
 -1      1170 8.76042E-03-6.70863E-04-6.81818E-14
 -1      1171 9.06083E-03-6.78662E-04-7.29289E-14
 -1      1172 9.35698E-03-6.86757E-04-7.77693E-14
 -1      1173 9.64988E-03-6.94550E-04-8.26975E-14
 -1      1174 9.94034E-03-7.01711E-04-8.77226E-14
 -1      1175 1.02290E-02-7.08081E-04-9.28420E-14
 -1      1176 1.05165E-02-7.13621E-04-9.80572E-14
 -1      1177 1.08030E-02-7.18360E-04-1.03370E-13
 -1      1178 1.10890E-02-7.22370E-04-1.08764E-13
 -1      1179 1.13746E-02-7.25739E-04-1.14229E-13
 -1      1180 1.16600E-02-7.28563E-04-1.19759E-13
 -1      1181 1.19453E-02-7.30936E-04-1.25349E-13
 -1      1182 1.22305E-02-7.32942E-04-1.30996E-13
 -1      1183 1.25158E-02-7.34657E-04-1.36693E-13
 -1      1184 1.28011E-02-7.36147E-04-1.42449E-13
 -1      1185 1.30865E-02-7.37467E-04-1.48250E-13
 -1      1186 1.33719E-02-7.38663E-04-1.54085E-13
 -1      1187 1.36574E-02-7.39774E-04-1.59957E-13
 -1      1188 1.39430E-02-7.40832E-04-1.65857E-13
 -1      1189 1.42286E-02-7.41865E-04-1.71773E-13
 -1      1190 1.45143E-02-7.42897E-04-1.77708E-13
 -1      1191 1.48000E-02-7.43946E-04-1.83663E-13
 -1      1192 1.50785E-02-7.44992E-04-1.89498E-13
 -1      1193 2.30435E-04 1.55217E-04 3.99529E-17
 -1      1194 5.69123E-04 3.19393E-04-1.06116E-17
 -1      1195 8.72532E-04 4.22085E-04-2.39311E-16
 -1      1196 1.17310E-03 4.91949E-04-6.68980E-16
 -1      1197 1.47773E-03 5.45082E-04-1.29794E-15
 -1      1198 1.79039E-03 5.91484E-04-2.12395E-15
 -1      1199 2.11288E-03 6.38984E-04-3.14438E-15
 -1      1200 2.44496E-03 6.94607E-04-4.35504E-15
 -1      1201 2.78399E-03 7.64434E-04-5.75446E-15
 -1      1202 3.12444E-03 8.52267E-04-7.34182E-15
 -1      1203 3.45813E-03 9.57254E-04-9.11987E-15
 -1      1204 3.77575E-03 1.07121E-03-1.10876E-14
 -1      1205 4.07024E-03 1.17753E-03-1.32502E-14
 -1      1206 4.34122E-03 1.25425E-03-1.56168E-14
 -1      1207 4.59747E-03 1.28194E-03-1.81865E-14
 -1      1208 4.85456E-03 1.25291E-03-2.09600E-14
 -1      1209 5.12810E-03 1.17537E-03-2.39339E-14
 -1      1210 5.42690E-03 1.06932E-03-2.71021E-14
 -1      1211 5.75067E-03 9.57313E-04-3.04564E-14
 -1      1212 6.09245E-03 8.56620E-04-3.39816E-14
 -1      1213 6.44299E-03 7.76262E-04-3.76637E-14
 -1      1214 6.79411E-03 7.18191E-04-4.14860E-14
 -1      1215 7.14018E-03 6.80072E-04-4.54543E-14
 -1      1216 7.47820E-03 6.57787E-04-4.95770E-14
 -1      1217 7.80718E-03 6.47029E-04-5.38447E-14
 -1      1218 8.12737E-03 6.44069E-04-5.82371E-14
 -1      1219 8.43973E-03 6.45989E-04-6.27446E-14
 -1      1220 8.74547E-03 6.50659E-04-6.73686E-14
 -1      1221 9.04583E-03 6.56604E-04-7.20987E-14
 -1      1222 9.34196E-03 6.62857E-04-7.69386E-14
 -1      1223 9.63484E-03 6.68821E-04-8.18844E-14
 -1      1224 9.92530E-03 6.74159E-04-8.69317E-14
 -1      1225 1.02140E-02 6.78714E-04-9.20690E-14
 -1      1226 1.05014E-02 6.82441E-04-9.72948E-14
 -1      1227 1.07880E-02 6.85372E-04-1.02613E-13
 -1      1228 1.10739E-02 6.87574E-04-1.08021E-13
 -1      1229 1.13596E-02 6.89137E-04-1.13520E-13
 -1      1230 1.16449E-02 6.90156E-04-1.19116E-13
 -1      1231 1.19302E-02 6.90723E-04-1.24786E-13
 -1      1232 1.22155E-02 6.90925E-04-1.30520E-13
 -1      1233 1.25008E-02 6.90836E-04-1.36305E-13
 -1      1234 1.27861E-02 6.90521E-04-1.42116E-13
 -1      1235 1.30715E-02 6.90037E-04-1.47969E-13
 -1      1236 1.33569E-02 6.89429E-04-1.53847E-13
 -1      1237 1.36424E-02 6.88735E-04-1.59753E-13
 -1      1238 1.39280E-02 6.87989E-04-1.65698E-13
 -1      1239 1.42136E-02 6.87218E-04-1.71678E-13
 -1      1240 1.44992E-02 6.86445E-04-1.77680E-13
 -1      1241 1.47849E-02 6.85690E-04-1.83695E-13
 -1      1242 1.50635E-02 6.84977E-04-1.89566E-13
 -1      1243 1.51996E-02 6.42493E-04-1.92455E-13
 -1      1244 1.52003E-02 5.58208E-04-1.92511E-13
 -1      1245 1.52009E-02 4.73904E-04-1.92542E-13
 -1      1246 1.52016E-02 3.89570E-04-1.92557E-13
 -1      1247 1.52023E-02 3.05199E-04-1.92571E-13
 -1      1248 1.52029E-02 2.21506E-04-1.92602E-13
 -1      1249 1.52037E-02 1.37783E-04-1.92649E-13
 -1      1250 1.52045E-02 5.33213E-05-1.92665E-13
 -1      1251 1.52053E-02-3.11520E-05-1.92662E-13
 -1      1252 1.52062E-02-1.15625E-04-1.92636E-13
 -1      1253 1.52072E-02-2.00086E-04-1.92579E-13
 -1      1254 1.52083E-02-2.83809E-04-1.92548E-13
 -1      1255 1.52093E-02-3.67501E-04-1.92527E-13
 -1      1256 1.52104E-02-4.51872E-04-1.92489E-13
 -1      1257 1.52116E-02-5.36205E-04-1.92454E-13
 -1      1258 1.52127E-02-6.20508E-04-1.92427E-13
 -1      1259 1.52137E-02-7.04080E-04-1.92383E-13
 -1      1260 6.80878E-03 6.82937E-05-2.62055E-14
 -1      1261 6.69256E-03 2.20538E-04-2.58644E-14
 -1      1262 6.46724E-03 3.79499E-04-2.51950E-14
 -1      1263 6.16199E-03 5.34383E-04-2.42780E-14
 -1      1264 5.79841E-03 6.76916E-04-2.31719E-14
 -1      1265 5.39646E-03 7.93904E-04-2.19315E-14
 -1      1266 4.96984E-03 8.70232E-04-2.06085E-14
 -1      1267 4.52867E-03 8.92843E-04-1.92567E-14
 -1      1268 4.07536E-03 8.54510E-04-1.79120E-14
 -1      1269 3.63949E-03 7.63764E-04-1.66872E-14
 -1      1270 3.25358E-03 6.40558E-04-1.56706E-14
 -1      1271 2.90677E-03 4.94825E-04-1.48175E-14
 -1      1272 2.61167E-03 3.32897E-04-1.41360E-14
 -1      1273 2.41375E-03 1.71763E-04-1.37060E-14
 -1      1274 2.33663E-03 1.84500E-05-1.35469E-14
 -1      1275 2.38848E-03-1.43963E-04-1.36619E-14
 -1      1276 2.55947E-03-3.03919E-04-1.40463E-14
 -1      1277 2.80947E-03-4.53165E-04-1.46204E-14
 -1      1278 3.13823E-03-6.02609E-04-1.54191E-14
 -1      1279 3.52059E-03-7.36751E-04-1.64153E-14
 -1      1280 3.92080E-03-8.37071E-04-1.75270E-14
 -1      1281 4.33079E-03-8.93262E-04-1.87262E-14
 -1      1282 4.74295E-03-8.99185E-04-1.99769E-14
 -1      1283 5.15063E-03-8.54167E-04-2.12390E-14
 -1      1284 5.56288E-03-7.60243E-04-2.25186E-14
 -1      1285 5.93645E-03-6.37279E-04-2.36620E-14
 -1      1286 6.26026E-03-4.99196E-04-2.46359E-14
 -1      1287 6.52742E-03-3.53727E-04-2.54204E-14
 -1      1288 6.71614E-03-2.09944E-04-2.59604E-14
 -1      1289 6.81258E-03-7.10543E-05-2.62251E-14
 -1      1290 1.72182E-04-1.03746E-04 7.86047E-19
 -1      1291 1.17686E-04-4.76086E-05-3.69848E-17
 -1      1292 1.22993E-04-5.95924E-05-2.66172E-17
 -1      1293 1.12031E-04-3.19730E-05-5.43050E-17
 -1      1294 1.14722E-04-3.88645E-05-4.89653E-17
 -1      1295 2.36611E-04-8.78835E-05-1.14614E-16
 -1      1296 1.08335E-04-2.13632E-05-6.42661E-17
 -1      1297 1.10266E-04-2.62053E-05-6.13929E-17
 -1      1298 2.25565E-04-5.98209E-05-1.46164E-16
 -1      1299 1.05318E-04-1.37742E-05-7.03783E-17
 -1      1300 1.06869E-04-1.73004E-05-6.87520E-17
 -1      1301 2.17612E-04-4.01976E-05-1.65368E-16
 -1      1302 1.02901E-04-8.40702E-06-7.40239E-17
 -1      1303 1.04109E-04-1.09337E-05-7.31294E-17
 -1      1304 2.11215E-04-2.61024E-05-1.77199E-16
 -1      1305 1.01077E-04-4.52432E-06-7.62872E-17
 -1      1306 1.01941E-04-6.40052E-06-7.58806E-17
 -1      1307 2.06112E-04-1.58597E-05-1.84558E-16
 -1      1308 1.00025E-04-1.67650E-06-7.71952E-17
 -1      1309 1.00470E-04-3.12724E-06-7.70732E-17
 -1      1310 2.02475E-04-8.32264E-06-1.88638E-16
 -1      1311 9.98293E-05 7.23845E-07-7.73985E-17
 -1      1312 9.98210E-05-5.88167E-07-7.74391E-17
 -1      1313 2.00602E-04-2.49207E-06-1.90264E-16
 -1      1314 1.00507E-04 3.28813E-06-7.67615E-17
 -1      1315 1.00047E-04 1.82104E-06-7.69377E-17
 -1      1316 2.00637E-04 2.78243E-06-1.89925E-16
 -1      1317 1.02003E-04 6.61955E-06-7.53114E-17
 -1      1318 1.01127E-04 4.71115E-06-7.58264E-17
 -1      1319 2.02576E-04 8.67756E-06-1.87703E-16
 -1      1320 1.04165E-04 1.11960E-05-7.22756E-17
 -1      1321 1.02951E-04 8.63043E-06-7.32243E-17
 -1      1322 2.06225E-04 1.62650E-05-1.83000E-16
 -1      1323 1.06961E-04 1.77288E-05-6.73290E-17
 -1      1324 1.05404E-04 1.41377E-05-6.90501E-17
 -1      1325 2.11357E-04 2.66638E-05-1.74638E-16
 -1      1326 1.10345E-04 2.68220E-05-5.94278E-17
 -1      1327 1.08416E-04 2.18921E-05-6.24500E-17
 -1      1328 2.17833E-04 4.11351E-05-1.61627E-16
 -1      1329 1.14723E-04 3.96626E-05-4.66478E-17
 -1      1330 1.12064E-04 3.26911E-05-5.22179E-17
 -1      1331 2.25742E-04 6.11427E-05-1.41502E-16
 -1      1332 1.22276E-04 5.97599E-05-2.50586E-17
 -1      1333 1.17343E-04 4.84748E-05-3.55483E-17
 -1      1334 2.36611E-04 8.97968E-05-1.10114E-16
 -1      1335 1.62050E-04 1.04294E-04 9.26993E-18
 -1      1336 1.41560E-04 7.88685E-05-1.24954E-17
 -1      1337 2.68469E-04 1.35610E-04-7.19368E-17
 -1      1338 3.46243E-04 2.06420E-04-1.57209E-17
 -1      1339 4.37807E-04-2.41455E-04-5.72188E-17
 -1      1340 6.00151E-04-3.06956E-04-1.35376E-16
 -1      1341 7.58195E-04-3.58798E-04-2.67527E-16
 -1      1342 9.13861E-04-4.00432E-04-4.50012E-16
 -1      1343 6.44661E-04-2.93704E-04-2.59870E-16
 -1      1344 1.06813E-03-4.35274E-04-6.80920E-16
 -1      1345 1.22198E-03-4.64705E-04-9.61538E-16
 -1      1346 9.60887E-04-3.78500E-04-6.41699E-16
 -1      1347 1.37632E-03-4.90834E-04-1.29150E-15
 -1      1348 1.53167E-03-5.14458E-04-1.67092E-15
 -1      1349 1.27204E-03-4.38029E-04-1.21710E-15
 -1      1350 1.68852E-03-5.37010E-04-2.09908E-15
 -1      1351 1.84711E-03-5.59221E-04-2.57628E-15
 -1      1352 1.58399E-03-4.85147E-04-1.98656E-15
 -1      1353 2.00764E-03-5.82254E-04-3.10202E-15
 -1      1354 2.17008E-03-6.06844E-04-3.67648E-15
 -1      1355 1.90023E-03-5.29000E-04-2.94927E-15
 -1      1356 2.33440E-03-6.34064E-04-4.29930E-15
 -1      1357 2.50030E-03-6.64557E-04-4.97085E-15
 -1      1358 2.22239E-03-5.77478E-04-4.10426E-15
 -1      1359 2.66747E-03-6.99253E-04-5.69060E-15
 -1      1360 2.83534E-03-7.38525E-04-6.45905E-15
 -1      1361 2.55035E-03-6.37872E-04-5.45098E-15
 -1      1362 3.00331E-03-7.82897E-04-7.27662E-15
 -1      1363 3.17056E-03-8.32188E-04-8.14283E-15
 -1      1364 2.88225E-03-7.16159E-04-6.99022E-15
 -1      1365 3.33627E-03-8.86077E-04-9.05756E-15
 -1      1366 3.49952E-03-9.43488E-04-1.00215E-14
 -1      1367 3.21447E-03-8.15018E-04-8.72212E-15
 -1      1368 3.65952E-03-1.00283E-03-1.10333E-14
 -1      1369 3.81555E-03-1.06198E-03-1.20949E-14
 -1      1370 3.54201E-03-9.30779E-04-1.06470E-14
 -1      1371 3.96722E-03-1.11807E-03-1.32067E-14
 -1      1372 4.11446E-03-1.16824E-03-1.43680E-14
 -1      1373 3.85974E-03-1.05058E-03-1.27684E-14
 -1      1374 4.25761E-03-1.20918E-03-1.55801E-14
 -1      1375 4.39755E-03-1.23831E-03-1.68423E-14
 -1      1376 4.16468E-03-1.15257E-03-1.50900E-14
 -1      1377 4.53538E-03-1.25338E-03-1.81560E-14
 -1      1378 4.67269E-03-1.25337E-03-1.95206E-14
 -1      1379 4.45857E-03-1.21192E-03-1.76139E-14
 -1      1380 4.81090E-03-1.23831E-03-2.09344E-14
 -1      1381 4.95162E-03-1.20930E-03-2.23966E-14
 -1      1382 4.74842E-03-1.21181E-03-2.03401E-14
 -1      1383 5.09593E-03-1.16866E-03-2.39059E-14
 -1      1384 5.24471E-03-1.11903E-03-2.54625E-14
 -1      1385 5.04362E-03-1.15253E-03-2.32639E-14
 -1      1386 5.39830E-03-1.06380E-03-2.70634E-14
 -1      1387 5.55664E-03-1.00589E-03-2.87084E-14
 -1      1388 5.35116E-03-1.05147E-03-2.63758E-14
 -1      1389 5.71931E-03-9.48226E-04-3.03974E-14
 -1      1390 5.88564E-03-8.93035E-04-3.21272E-14
 -1      1391 5.67274E-03-9.33979E-04-2.96657E-14
 -1      1392 6.05480E-03-8.41989E-04-3.38978E-14
 -1      1393 6.22590E-03-7.96272E-04-3.57074E-14
 -1      1394 6.00538E-03-8.22501E-04-3.31246E-14
 -1      1395 6.39809E-03-7.56324E-04-3.75551E-14
 -1      1396 6.57056E-03-7.22467E-04-3.94416E-14
 -1      1397 6.34387E-03-7.30642E-04-3.67413E-14
 -1      1398 6.74268E-03-6.94345E-04-4.13623E-14
 -1      1399 6.91387E-03-6.71759E-04-4.33176E-14
 -1      1400 6.68312E-03-6.63066E-04-4.05085E-14
 -1      1401 7.08374E-03-6.54017E-04-4.53113E-14
 -1      1402 7.25197E-03-6.40687E-04-4.73394E-14
 -1      1403 7.01925E-03-6.18423E-04-4.44218E-14
 -1      1404 7.41838E-03-6.31047E-04-4.94047E-14
 -1      1405 7.58286E-03-6.24612E-04-5.15069E-14
 -1      1406 7.34989E-03-5.92516E-04-4.84773E-14
 -1      1407 7.74538E-03-6.20775E-04-5.36421E-14
 -1      1408 7.90596E-03-6.19093E-04-5.58119E-14
 -1      1409 7.67396E-03-5.80489E-04-5.26751E-14
 -1      1410 8.06467E-03-6.19114E-04-5.80120E-14
 -1      1411 8.22159E-03-6.20470E-04-6.02412E-14
 -1      1412 7.99130E-03-5.77961E-04-5.70053E-14
 -1      1413 8.37686E-03-6.22852E-04-6.25010E-14
 -1      1414 8.53057E-03-6.25974E-04-6.47890E-14
 -1      1415 8.30235E-03-5.81443E-04-6.14600E-14
 -1      1416 8.68289E-03-6.29640E-04-6.71050E-14
 -1      1417 8.83392E-03-6.33639E-04-6.94497E-14
 -1      1418 8.60784E-03-5.88359E-04-6.60321E-14
 -1      1419 8.98381E-03-6.37855E-04-7.18199E-14
 -1      1420 9.13266E-03-6.42139E-04-7.42154E-14
 -1      1421 8.90863E-03-5.96920E-04-7.07145E-14
 -1      1422 9.28062E-03-6.46432E-04-7.66343E-14
 -1      1423 9.42776E-03-6.50630E-04-7.90744E-14
 -1      1424 9.20558E-03-6.05947E-04-7.54992E-14
 -1      1425 9.57421E-03-6.54713E-04-8.15386E-14
 -1      1426 9.72004E-03-6.58613E-04-8.40257E-14
 -1      1427 9.49946E-03-6.14708E-04-8.03804E-14
 -1      1428 9.86534E-03-6.62331E-04-8.65374E-14
 -1      1429 1.00102E-02-6.65825E-04-8.90735E-14
 -1      1430 9.79096E-03-6.22790E-04-8.53545E-14
 -1      1431 1.01546E-02-6.69110E-04-9.16318E-14
 -1      1432 1.02988E-02-6.72162E-04-9.42118E-14
 -1      1433 1.00806E-02-6.29991E-04-9.04201E-14
 -1      1434 1.04426E-02-6.75001E-04-9.68196E-14
 -1      1435 1.05862E-02-6.77618E-04-9.94496E-14
 -1      1436 1.03690E-02-6.36253E-04-9.55828E-14
 -1      1437 1.07296E-02-6.80035E-04-1.02101E-13
 -1      1438 1.08728E-02-6.82250E-04-1.04775E-13
 -1      1439 1.06563E-02-6.41601E-04-1.00837E-13
 -1      1440 1.10159E-02-6.84285E-04-1.07469E-13
 -1      1441 1.11589E-02-6.86144E-04-1.10183E-13
 -1      1442 1.09430E-02-6.46111E-04-1.06179E-13
 -1      1443 1.13019E-02-6.87847E-04-1.12913E-13
 -1      1444 1.14447E-02-6.89401E-04-1.15659E-13
 -1      1445 1.12291E-02-6.49883E-04-1.11598E-13
 -1      1446 1.15875E-02-6.90823E-04-1.18423E-13
 -1      1447 1.17303E-02-6.92122E-04-1.21205E-13
 -1      1448 1.15150E-02-6.53026E-04-1.17092E-13
 -1      1449 1.18730E-02-6.93313E-04-1.24000E-13
 -1      1450 1.20157E-02-6.94403E-04-1.26806E-13
 -1      1451 1.18006E-02-6.55645E-04-1.22649E-13
 -1      1452 1.21584E-02-6.95407E-04-1.29629E-13
 -1      1453 1.23011E-02-6.96331E-04-1.32465E-13
 -1      1454 1.20862E-02-6.57838E-04-1.28263E-13
 -1      1455 1.24438E-02-6.97187E-04-1.35314E-13
 -1      1456 1.25865E-02-6.97981E-04-1.38175E-13
 -1      1457 1.23717E-02-6.59692E-04-1.33933E-13
 -1      1458 1.27292E-02-6.98723E-04-1.41051E-13
 -1      1459 1.28719E-02-6.99418E-04-1.43940E-13
 -1      1460 1.26571E-02-6.61281E-04-1.39658E-13
 -1      1461 1.30146E-02-7.00074E-04-1.46839E-13
 -1      1462 1.31573E-02-7.00696E-04-1.49746E-13
 -1      1463 1.29426E-02-6.62670E-04-1.45430E-13
 -1      1464 1.33000E-02-7.01290E-04-1.52662E-13
 -1      1465 1.34428E-02-7.01861E-04-1.55585E-13
 -1      1466 1.32281E-02-6.63910E-04-1.51241E-13
 -1      1467 1.35856E-02-7.02412E-04-1.58518E-13
 -1      1468 1.37283E-02-7.02948E-04-1.61461E-13
 -1      1469 1.35137E-02-6.65046E-04-1.57085E-13
 -1      1470 1.38711E-02-7.03473E-04-1.64410E-13
 -1      1471 1.40139E-02-7.03991E-04-1.67360E-13
 -1      1472 1.37992E-02-6.66114E-04-1.62964E-13
 -1      1473 1.41567E-02-7.04504E-04-1.70318E-13
 -1      1474 1.42996E-02-7.05016E-04-1.73281E-13
 -1      1475 1.40849E-02-6.67144E-04-1.68867E-13
 -1      1476 1.44424E-02-7.05529E-04-1.76248E-13
 -1      1477 1.45852E-02-7.06045E-04-1.79220E-13
 -1      1478 1.43705E-02-6.68163E-04-1.74788E-13
 -1      1479 1.47281E-02-7.06568E-04-1.82199E-13
 -1      1480 1.48709E-02-7.07098E-04-1.85184E-13
 -1      1481 1.46562E-02-6.69194E-04-1.80733E-13
 -1      1482 1.50780E-02-7.03563E-04-1.89528E-13
 -1      1483 1.50061E-02-6.66178E-04-1.88054E-13
 -1      1484 6.72169E-04 3.38967E-04-1.54472E-16
 -1      1485 5.12218E-04 2.79789E-04-5.98480E-17
 -1      1486 4.65728E-04 2.40765E-04-1.01454E-16
 -1      1487 9.82667E-04 4.23748E-04-4.91957E-16
 -1      1488 8.28460E-04 3.85223E-04-2.98725E-16
 -1      1489 7.85855E-04 3.47512E-04-3.48070E-16
 -1      1490 1.28962E-03 4.84029E-04-1.02471E-15
 -1      1491 1.13601E-03 4.56029E-04-7.33544E-16
 -1      1492 1.09788E-03 4.19585E-04-7.88622E-16
 -1      1493 1.59968E-03 5.32294E-04-1.75309E-15
 -1      1494 1.44392E-03 5.09107E-04-1.36448E-15
 -1      1495 1.40807E-03 4.72944E-04-1.42200E-15
 -1      1496 1.91634E-03 5.77313E-04-2.67562E-15
 -1      1497 1.75701E-03 5.54763E-04-2.19003E-15
 -1      1498 1.72123E-03 5.18121E-04-2.24778E-15
 -1      1499 2.24081E-03 6.26651E-04-3.78922E-15
 -1      1500 2.07756E-03 6.01054E-04-3.20876E-15
 -1      1501 2.04000E-03 5.63393E-04-3.26478E-15
 -1      1502 2.57227E-03 6.87233E-04-5.09076E-15
 -1      1503 2.40577E-03 6.55247E-04-4.41670E-15
 -1      1504 2.36506E-03 6.16254E-04-4.47031E-15
 -1      1505 2.90764E-03 7.64646E-04-6.58006E-15
 -1      1506 2.73973E-03 7.23745E-04-5.81191E-15
 -1      1507 2.69531E-03 6.83404E-04-5.86228E-15
 -1      1508 3.24164E-03 8.61252E-04-8.25636E-15
 -1      1509 3.07523E-03 8.10803E-04-7.39479E-15
 -1      1510 3.02775E-03 7.69511E-04-7.43981E-15
 -1      1511 3.56743E-03 9.73387E-04-1.01234E-14
 -1      1512 3.40606E-03 9.16106E-04-9.16612E-15
 -1      1513 3.35768E-03 8.74787E-04-9.20481E-15
 -1      1514 3.87843E-03 1.08886E-03-1.21804E-14
 -1      1515 3.72516E-03 1.03191E-03-1.11272E-14
 -1      1516 3.67956E-03 9.91971E-04-1.11595E-14
 -1      1517 4.17139E-03 1.18723E-03-1.44381E-14
 -1      1518 4.02720E-03 1.14158E-03-1.32839E-14
 -1      1519 3.98883E-03 1.10455E-03-1.33092E-14
 -1      1520 4.44915E-03 1.24540E-03-1.68976E-14
 -1      1521 4.31171E-03 1.22239E-03-1.56423E-14
 -1      1522 4.28451E-03 1.18916E-03-1.56593E-14
 -1      1523 4.72100E-03 1.24739E-03-1.95605E-14
 -1      1524 4.58500E-03 1.25358E-03-1.82034E-14
 -1      1525 4.57109E-03 1.22379E-03-1.82118E-14
 -1      1526 4.99920E-03 1.19267E-03-2.24263E-14
 -1      1527 4.85851E-03 1.22626E-03-2.09687E-14
 -1      1528 4.85746E-03 1.19835E-03-2.09686E-14
 -1      1529 5.29352E-03 1.09656E-03-2.54898E-14
 -1      1530 5.14390E-03 1.14831E-03-2.39341E-14
 -1      1531 5.15293E-03 1.12035E-03-2.39254E-14
 -1      1532 5.60748E-03 9.82497E-04-2.87426E-14
 -1      1533 5.44806E-03 1.04032E-03-2.70931E-14
 -1      1534 5.46293E-03 1.01089E-03-2.70761E-14
 -1      1535 5.93833E-03 8.72086E-04-3.21731E-14
 -1      1536 5.77114E-03 9.25852E-04-3.04363E-14
 -1      1537 5.78738E-03 8.94421E-04-3.04105E-14
 -1      1538 6.27969E-03 7.79130E-04-3.57698E-14
 -1      1539 6.10817E-03 8.23008E-04-3.39506E-14
 -1      1540 6.12218E-03 7.89767E-04-3.39152E-14
 -1      1541 6.62462E-03 7.08977E-04-3.95123E-14
 -1      1542 6.45214E-03 7.41204E-04-3.76233E-14
 -1      1543 6.46176E-03 7.06701E-04-3.75782E-14
 -1      1544 6.96748E-03 6.60984E-04-4.34045E-14
 -1      1545 6.79661E-03 6.82433E-04-4.14407E-14
 -1      1546 6.80103E-03 6.47268E-04-4.13894E-14
 -1      1547 7.30466E-03 6.31468E-04-4.74407E-14
 -1      1548 7.13695E-03 6.44209E-04-4.54042E-14
 -1      1549 7.13636E-03 6.08880E-04-4.53467E-14
 -1      1550 7.63439E-03 6.15881E-04-5.16265E-14
 -1      1551 7.47052E-03 6.22212E-04-4.95156E-14
 -1      1552 7.46566E-03 5.87068E-04-4.94498E-14
 -1      1553 7.95627E-03 6.09999E-04-5.59475E-14
 -1      1554 7.79631E-03 6.11957E-04-5.37705E-14
 -1      1555 7.78810E-03 5.77205E-04-5.36928E-14
 -1      1556 8.27073E-03 6.10387E-04-6.03895E-14
 -1      1557 8.11438E-03 6.09584E-04-5.81531E-14
 -1      1558 8.10373E-03 5.75319E-04-5.80660E-14
 -1      1559 8.57866E-03 6.14471E-04-6.49472E-14
 -1      1560 8.42545E-03 6.12092E-04-6.26547E-14
 -1      1561 8.41312E-03 5.78335E-04-6.25590E-14
 -1      1562 8.88110E-03 6.20435E-04-6.96183E-14
 -1      1563 8.73050E-03 6.17303E-04-6.72697E-14
 -1      1564 8.71711E-03 5.84028E-04-6.71679E-14
 -1      1565 9.17909E-03 6.27063E-04-7.43955E-14
 -1      1566 9.03059E-03 6.23721E-04-7.19932E-14
 -1      1567 9.01658E-03 5.90876E-04-7.18838E-14
 -1      1568 9.47357E-03 6.33586E-04-7.92790E-14
 -1      1569 9.32671E-03 6.30371E-04-7.68237E-14
 -1      1570 9.31241E-03 5.97895E-04-7.67061E-14
 -1      1571 9.76536E-03 6.39555E-04-8.42673E-14
 -1      1572 9.61975E-03 6.36659E-04-8.17609E-14
 -1      1573 9.60536E-03 6.04488E-04-8.16338E-14
 -1      1574 1.00551E-02 6.44740E-04-8.93526E-14
 -1      1575 9.91045E-03 6.42254E-04-8.67976E-14
 -1      1576 9.89611E-03 6.10331E-04-8.66616E-14
 -1      1577 1.03434E-02 6.49057E-04-9.45279E-14
 -1      1578 1.01994E-02 6.47009E-04-9.19292E-14
 -1      1579 1.01852E-02 6.15282E-04-9.17847E-14
 -1      1580 1.06306E-02 6.52512E-04-9.97929E-14
 -1      1581 1.04871E-02 6.50890E-04-9.71495E-14
 -1      1582 1.04731E-02 6.19314E-04-9.69997E-14
 -1      1583 1.09171E-02 6.55166E-04-1.05152E-13
 -1      1584 1.07739E-02 6.53934E-04-1.02461E-13
 -1      1585 1.07601E-02 6.22474E-04-1.02306E-13
 -1      1586 1.12031E-02 6.57107E-04-1.10595E-13
 -1      1587 1.10602E-02 6.56220E-04-1.07862E-13
 -1      1588 1.10465E-02 6.24845E-04-1.07699E-13
 -1      1589 1.14888E-02 6.58436E-04-1.16134E-13
 -1      1590 1.13460E-02 6.57843E-04-1.13353E-13
 -1      1591 1.13324E-02 6.26530E-04-1.13181E-13
 -1      1592 1.17743E-02 6.59253E-04-1.21755E-13
 -1      1593 1.16315E-02 6.58903E-04-1.18935E-13
 -1      1594 1.16182E-02 6.27634E-04-1.18753E-13
 -1      1595 1.20597E-02 6.59649E-04-1.27448E-13
 -1      1596 1.19170E-02 6.59498E-04-1.24594E-13
 -1      1597 1.19037E-02 6.28259E-04-1.24400E-13
 -1      1598 1.23450E-02 6.59710E-04-1.33198E-13
 -1      1599 1.22024E-02 6.59717E-04-1.30318E-13
 -1      1600 1.21892E-02 6.28498E-04-1.30113E-13
 -1      1601 1.26304E-02 6.59508E-04-1.38992E-13
 -1      1602 1.24877E-02 6.59638E-04-1.36090E-13
 -1      1603 1.24746E-02 6.28431E-04-1.35878E-13
 -1      1604 1.29158E-02 6.59104E-04-1.44819E-13
 -1      1605 1.27731E-02 6.59328E-04-1.41902E-13
 -1      1606 1.27601E-02 6.28128E-04-1.41683E-13
 -1      1607 1.32013E-02 6.58552E-04-1.50682E-13
 -1      1608 1.30585E-02 6.58844E-04-1.47745E-13
 -1      1609 1.30456E-02 6.27647E-04-1.47525E-13
 -1      1610 1.34867E-02 6.57895E-04-1.56571E-13
 -1      1611 1.33440E-02 6.58234E-04-1.53624E-13
 -1      1612 1.33311E-02 6.27037E-04-1.53397E-13
 -1      1613 1.37723E-02 6.57167E-04-1.62490E-13
 -1      1614 1.36295E-02 6.57538E-04-1.59528E-13
 -1      1615 1.36166E-02 6.26338E-04-1.59299E-13
 -1      1616 1.40579E-02 6.56401E-04-1.68447E-13
 -1      1617 1.39151E-02 6.56787E-04-1.65464E-13
 -1      1618 1.39022E-02 6.25585E-04-1.65229E-13
 -1      1619 1.43435E-02 6.55622E-04-1.74433E-13
 -1      1620 1.42007E-02 6.56012E-04-1.71435E-13
 -1      1621 1.41878E-02 6.24805E-04-1.71194E-13
 -1      1622 1.46292E-02 6.54851E-04-1.80435E-13
 -1      1623 1.44864E-02 6.55234E-04-1.77431E-13
 -1      1624 1.44735E-02 6.24023E-04-1.77182E-13
 -1      1625 1.49149E-02 6.54105E-04-1.86449E-13
 -1      1626 1.47721E-02 6.54474E-04-1.83442E-13
 -1      1627 1.47592E-02 6.23260E-04-1.83189E-13
 -1      1628 1.50639E-02 6.42834E-04-1.89595E-13
 -1      1629 1.50767E-02 5.37438E-04-1.89913E-13
 -1      1630 1.50764E-02 5.79587E-04-1.89890E-13
 -1      1631 1.50774E-02 4.53123E-04-1.89949E-13
 -1      1632 1.50771E-02 4.95284E-04-1.89935E-13
 -1      1633 1.49532E-02 5.16673E-04-1.87322E-13
 -1      1634 1.50780E-02 3.68782E-04-1.89976E-13
 -1      1635 1.50777E-02 4.10956E-04-1.89962E-13
 -1      1636 1.49538E-02 4.32353E-04-1.87364E-13
 -1      1637 1.50787E-02 2.84410E-04-1.89999E-13
 -1      1638 1.50784E-02 3.26600E-04-1.89989E-13
 -1      1639 1.49545E-02 3.48008E-04-1.87396E-13
 -1      1640 1.50794E-02 2.01440E-04-1.90033E-13
 -1      1641 1.50790E-02 2.42928E-04-1.90014E-13
 -1      1642 1.49551E-02 2.64354E-04-1.87428E-13
 -1      1643 1.50801E-02 1.17016E-04-1.90067E-13
 -1      1644 1.50797E-02 1.59230E-04-1.90052E-13
 -1      1645 1.49558E-02 1.80676E-04-1.87458E-13
 -1      1646 1.50809E-02 3.25748E-05-1.90072E-13
 -1      1647 1.50805E-02 7.47968E-05-1.90072E-13
 -1      1648 1.49566E-02 9.62656E-05-1.87479E-13
 -1      1649 1.50818E-02-5.18733E-05-1.90071E-13
 -1      1650 1.50814E-02-9.64891E-06-1.90074E-13
 -1      1651 1.49574E-02 1.18430E-05-1.87486E-13
 -1      1652 1.50827E-02-1.36319E-04-1.90037E-13
 -1      1653 1.50823E-02-9.40970E-05-1.90060E-13
 -1      1654 1.49583E-02-7.25835E-05-1.87478E-13
 -1      1655 1.50837E-02-2.20752E-04-1.89997E-13
 -1      1656 1.50832E-02-1.78538E-04-1.90016E-13
 -1      1657 1.49593E-02-1.57006E-04-1.87448E-13
 -1      1658 1.50848E-02-3.03734E-04-1.89964E-13
 -1      1659 1.50843E-02-2.62246E-04-1.89980E-13
 -1      1660 1.49603E-02-2.40701E-04-1.87413E-13
 -1      1661 1.50859E-02-3.88121E-04-1.89934E-13
 -1      1662 1.50853E-02-3.45931E-04-1.89950E-13
 -1      1663 1.49613E-02-3.24378E-04-1.87377E-13
 -1      1664 1.50870E-02-4.72477E-04-1.89893E-13
 -1      1665 1.50864E-02-4.30303E-04-1.89916E-13
 -1      1666 1.49624E-02-4.08748E-04-1.87340E-13
 -1      1667 1.50881E-02-5.56804E-04-1.89858E-13
 -1      1668 1.50876E-02-5.14644E-04-1.89874E-13
 -1      1669 1.49636E-02-4.93092E-04-1.87298E-13
 -1      1670 1.50474E-02-6.32568E-04-1.88947E-13
 -1      1671 1.50468E-02-5.90418E-04-1.88969E-13
 -1      1672 1.49229E-02-5.68874E-04-1.86387E-13
 -1      1673 1.48403E-02-6.36106E-04-1.84607E-13
 -1      1674 6.80303E-03 6.55137E-05-2.68658E-14
 -1      1675 6.83541E-03 2.09014E-05-2.69549E-14
 -1      1676 6.62887E-03 1.78996E-04-2.64322E-14
 -1      1677 6.72680E-03 1.22305E-04-2.66992E-14
 -1      1678 6.34222E-03 3.30405E-04-2.55654E-14
 -1      1679 6.48615E-03 2.58827E-04-2.59792E-14
 -1      1680 5.99470E-03 5.04552E-04-2.44619E-14
 -1      1681 6.16200E-03 4.24323E-04-2.49775E-14
 -1      1682 5.60483E-03 6.77506E-04-2.32187E-14
 -1      1683 5.78481E-03 5.96435E-04-2.38250E-14
 -1      1684 5.21760E-03 8.28124E-04-2.18293E-14
 -1      1685 5.39399E-03 7.63861E-04-2.24737E-14
 -1      1686 4.83128E-03 9.23030E-04-2.03575E-14
 -1      1687 5.00890E-03 8.87701E-04-2.10394E-14
 -1      1688 4.44922E-03 9.36215E-04-1.88963E-14
 -1      1689 4.62397E-03 9.41260E-04-1.95594E-14
 -1      1690 4.04801E-03 8.59508E-04-1.74408E-14
 -1      1691 4.23621E-03 9.07129E-04-1.81014E-14
 -1      1692 3.64282E-03 7.18112E-04-1.62153E-14
 -1      1693 3.82231E-03 7.87931E-04-1.67570E-14
 -1      1694 3.26486E-03 5.51286E-04-1.51882E-14
 -1      1695 3.43719E-03 6.30139E-04-1.56373E-14
 -1      1696 2.89979E-03 3.78757E-04-1.43335E-14
 -1      1697 3.06562E-03 4.58527E-04-1.47076E-14
 -1      1698 2.58453E-03 2.10739E-04-1.36281E-14
 -1      1699 2.72415E-03 2.81023E-04-1.39047E-14
 -1      1700 2.37892E-03 9.25949E-05-1.32969E-14
 -1      1701 2.45505E-03 1.46039E-04-1.34349E-14
 -1      1702 2.31840E-03-1.11383E-05-1.31671E-14
 -1      1703 2.32803E-03 3.38439E-05-1.31823E-14
 -1      1704 2.42169E-03-1.15566E-04-1.32642E-14
 -1      1705 2.35025E-03-6.38970E-05-1.31327E-14
 -1      1706 2.64547E-03-2.57715E-04-1.38251E-14
 -1      1707 2.53342E-03-1.98681E-04-1.36022E-14
 -1      1708 2.95128E-03-4.09269E-04-1.44796E-14
 -1      1709 2.79968E-03-3.35463E-04-1.41473E-14
 -1      1710 3.31907E-03-5.83613E-04-1.53731E-14
 -1      1711 3.14300E-03-5.01229E-04-1.49302E-14
 -1      1712 3.71313E-03-7.50211E-04-1.64478E-14
 -1      1713 3.53403E-03-6.74342E-04-1.59221E-14
 -1      1714 4.08081E-03-8.77486E-04-1.76610E-14
 -1      1715 3.91253E-03-8.25750E-04-1.71001E-14
 -1      1716 4.44826E-03-9.43306E-04-1.89774E-14
 -1      1717 4.27825E-03-9.21291E-04-1.83545E-14
 -1      1718 4.80430E-03-9.34645E-04-2.03264E-14
 -1      1719 4.64204E-03-9.47935E-04-1.97070E-14
 -1      1720 5.17010E-03-8.53577E-04-2.17109E-14
 -1      1721 4.99910E-03-8.99892E-04-2.10684E-14
 -1      1722 5.54882E-03-7.07456E-04-2.31519E-14
 -1      1723 5.36839E-03-7.82080E-04-2.25074E-14
 -1      1724 5.92038E-03-5.48943E-04-2.43126E-14
 -1      1725 5.76032E-03-6.23020E-04-2.37962E-14
 -1      1726 6.25903E-03-3.81175E-04-2.53958E-14
 -1      1727 6.10246E-03-4.57084E-04-2.49285E-14
 -1      1728 6.54617E-03-2.43263E-04-2.61636E-14
 -1      1729 6.42533E-03-3.04983E-04-2.58318E-14
 -1      1730 6.74778E-03-1.21961E-04-2.67468E-14
 -1      1731 6.66508E-03-1.73125E-04-2.65328E-14
 -1      1732 6.83660E-03-2.90253E-05-2.69230E-14
 -1      1733 6.81066E-03-7.04498E-05-2.68621E-14
 -1      1734 5.82817E-03 5.12347E-04-2.45349E-14
 -1      1735 6.21000E-03 3.23204E-04-2.57814E-14
 -1      1736 1.50510E-02 6.11616E-04-1.89340E-13
 -1      1737 1.49274E-02 5.90858E-04-1.86746E-13
 -1      1738 6.76595E-03 6.37232E-05-2.74803E-14
 -1      1739 6.53911E-03 1.66030E-04-2.68435E-14
 -1      1740 6.84550E-03-3.40615E-06-2.76218E-14
 -1      1741 5.43764E-03 7.06345E-04-2.31306E-14
 -1      1742 5.06681E-03 8.69470E-04-2.15796E-14
 -1      1743 4.71454E-03 9.57866E-04-1.99856E-14
 -1      1744 4.36222E-03 9.44790E-04-1.83965E-14
 -1      1745 3.99362E-03 8.29129E-04-1.69354E-14
 -1      1746 3.60432E-03 6.52713E-04-1.56947E-14
 -1      1747 3.21972E-03 4.59801E-04-1.46603E-14
 -1      1748 2.84567E-03 2.72604E-04-1.37735E-14
 -1      1749 2.53280E-03 1.33203E-04-1.31757E-14
 -1      1750 2.34679E-03 4.16165E-05-1.28787E-14
 -1      1751 2.32551E-03-2.79401E-05-1.27294E-14
 -1      1752 2.47864E-03-1.07136E-04-1.30189E-14
 -1      1753 2.75403E-03-2.42620E-04-1.36643E-14
 -1      1754 3.10004E-03-4.06409E-04-1.44154E-14
 -1      1755 3.49044E-03-5.98759E-04-1.53919E-14
 -1      1756 3.86793E-03-7.82758E-04-1.65712E-14
 -1      1757 4.21674E-03-9.16578E-04-1.79031E-14
 -1      1758 4.54787E-03-9.71822E-04-1.93202E-14
 -1      1759 4.87496E-03-9.37542E-04-2.07949E-14
 -1      1760 5.21920E-03-8.18901E-04-2.23428E-14
 -1      1761 5.58382E-03-6.43199E-04-2.38052E-14
 -1      1762 5.95759E-03-4.56567E-04-2.50851E-14
 -1      1763 6.30202E-03-2.89403E-04-2.61577E-14
 -1      1764 6.59176E-03-1.58437E-04-2.69772E-14
 -1      1765 6.78103E-03-6.93078E-05-2.74722E-14
 -1      1766 2.97835E-04-1.60807E-04-5.73001E-17
 -1      1767 3.40364E-04-8.43235E-05-2.34472E-16
 -1      1768 3.48042E-04-1.01480E-04-2.16664E-16
 -1      1769 3.57118E-04-1.22068E-04-1.95455E-16
 -1      1770 3.69054E-04-1.46383E-04-1.66466E-16
 -1      1771 4.76848E-04-1.48546E-04-3.13660E-16
 -1      1772 3.17509E-04-3.72321E-05-2.74222E-16
 -1      1773 3.22272E-04-4.63130E-05-2.67405E-16
 -1      1774 3.09562E-04-2.23657E-05-2.83898E-16
 -1      1775 3.13227E-04-2.92206E-05-2.79575E-16
 -1      1776 4.23465E-04-4.58828E-05-4.08744E-16
 -1      1777 3.04266E-04-1.11303E-05-2.88709E-16
 -1      1778 3.06558E-04-1.63759E-05-2.86717E-16
 -1      1779 4.12924E-04-2.70341E-05-4.20237E-16
 -1      1780 3.01965E-04-1.92596E-06-2.90322E-16
 -1      1781 3.02724E-04-6.36401E-06-2.89848E-16
 -1      1782 4.06349E-04-1.22884E-05-4.25902E-16
 -1      1783 3.02835E-04 6.90933E-06-2.89157E-16
 -1      1784 3.02002E-04 2.44483E-06-2.90187E-16
 -1      1785 4.04187E-04 4.04029E-07-4.27298E-16
 -1      1786 3.06804E-04 1.70527E-05-2.85050E-16
 -1      1787 3.04448E-04 1.17290E-05-2.87558E-16
 -1      1788 4.06605E-04 1.31732E-05-4.24696E-16
 -1      1789 3.13444E-04 2.98733E-05-2.76743E-16
 -1      1790 3.09809E-04 2.30359E-05-2.81540E-16
 -1      1791 4.13333E-04 2.80012E-05-4.17282E-16
 -1      1792 3.22620E-04 4.73764E-05-2.63149E-16
 -1      1793 3.17745E-04 3.79997E-05-2.70888E-16
 -1      1794 4.23915E-04 4.69865E-05-4.04136E-16
 -1      1795 3.34070E-04 7.11299E-05-2.41845E-16
 -1      1796 3.28052E-04 5.84107E-05-2.53961E-16
 -1      1797 4.38012E-04 7.23368E-05-3.83103E-16
 -1      1798 3.48441E-04 1.03685E-04-2.09061E-16
 -1      1799 3.40768E-04 8.62179E-05-2.27574E-16
 -1      1800 4.55490E-04 1.06213E-04-3.50726E-16
 -1      1801 3.69601E-04 1.50111E-04-1.58009E-16
 -1      1802 3.57798E-04 1.24942E-04-1.86808E-16
 -1      1803 4.77990E-04 1.52070E-04-3.01828E-16
 -1      1804 4.28089E-04 2.07903E-04-1.23667E-16
 -1      1805 3.97284E-04 1.75633E-04-1.46896E-16
 -1      1806 5.21314E-04 2.07075E-04-2.58582E-16
 -1      1807 5.88092E-04 2.67018E-04-2.24647E-16
 -1      1808 3.57409E-04-1.68154E-04-1.13489E-16
 -1      1809 9.04468E-04 3.54980E-04-5.73123E-16
 -1      1810 7.46781E-04 3.15038E-04-3.75432E-16
 -1      1811 7.10576E-04 2.83475E-04-3.97021E-16
 -1      1812 4.83103E-04-2.03953E-04-2.14198E-16
 -1      1813 8.54232E-04-3.21500E-04-5.95308E-16
 -1      1814 1.01093E-03-3.55784E-04-8.42737E-16
 -1      1815 1.16638E-03-3.85199E-04-1.13730E-15
 -1      1816 1.32195E-03-4.10625E-04-1.47992E-15
 -1      1817 1.06167E-03-3.32683E-04-1.05290E-15
 -1      1818 1.47761E-03-4.33831E-04-1.86995E-15
 -1      1819 1.63398E-03-4.55420E-04-2.30829E-15
 -1      1820 1.37102E-03-3.83184E-04-1.75017E-15
 -1      1821 1.79131E-03-4.76820E-04-2.79358E-15
 -1      1822 1.94976E-03-4.98684E-04-3.32670E-15
 -1      1823 1.68187E-03-4.25772E-04-2.63571E-15
 -1      1824 2.10965E-03-5.22260E-04-3.90746E-15
 -1      1825 2.27078E-03-5.48251E-04-4.53556E-15
 -1      1826 1.99644E-03-4.68524E-04-3.70950E-15
 -1      1827 2.43356E-03-5.77744E-04-5.21129E-15
 -1      1828 2.59733E-03-6.11402E-04-5.93407E-15
 -1      1829 2.31638E-03-5.19170E-04-4.97096E-15
 -1      1830 2.76262E-03-6.49988E-04-6.70415E-15
 -1      1831 2.92829E-03-6.93894E-04-7.52221E-15
 -1      1832 2.64254E-03-5.84951E-04-6.41976E-15
 -1      1833 3.09494E-03-7.43213E-04-8.38857E-15
 -1      1834 3.26097E-03-7.97682E-04-9.30195E-15
 -1      1835 2.97460E-03-6.71446E-04-8.05603E-15
 -1      1836 3.42692E-03-8.56301E-04-1.02638E-14
 -1      1837 3.59108E-03-9.17610E-04-1.12734E-14
 -1      1838 3.31043E-03-7.80047E-04-9.88252E-15
 -1      1839 3.75364E-03-9.79253E-04-1.23326E-14
 -1      1840 3.91358E-03-1.03841E-03-1.34426E-14
 -1      1841 3.64553E-03-9.04148E-04-1.19003E-14
 -1      1842 4.07059E-03-1.09171E-03-1.46021E-14
 -1      1843 4.22526E-03-1.13560E-03-1.58120E-14
 -1      1844 3.97394E-03-1.02584E-03-1.41156E-14
 -1      1845 4.37684E-03-1.16695E-03-1.70729E-14
 -1      1846 4.52782E-03-1.18321E-03-1.83850E-14
 -1      1847 4.29177E-03-1.11738E-03-1.65330E-14
 -1      1848 4.67723E-03-1.18312E-03-1.97478E-14
 -1      1849 4.82849E-03-1.16669E-03-2.11607E-14
 -1      1850 4.60138E-03-1.15156E-03-1.91557E-14
 -1      1851 4.98060E-03-1.13528E-03-2.26228E-14
 -1      1852 5.13608E-03-1.09152E-03-2.41325E-14
 -1      1853 4.91141E-03-1.11694E-03-2.19817E-14
 -1      1854 5.29416E-03-1.03862E-03-2.56894E-14
 -1      1855 5.45542E-03-9.80166E-04-2.72908E-14
 -1      1856 5.23051E-03-1.02556E-03-2.50026E-14
 -1      1857 5.61952E-03-9.19601E-04-2.89356E-14
 -1      1858 5.78548E-03-8.59820E-04-3.06234E-14
 -1      1859 5.56096E-03-9.05203E-04-2.82064E-14
 -1      1860 5.95343E-03-8.03277E-04-3.23528E-14
 -1      1861 6.12172E-03-7.51490E-04-3.41215E-14
 -1      1862 5.89876E-03-7.84090E-04-3.15814E-14
 -1      1863 6.29081E-03-7.05593E-04-3.59293E-14
 -1      1864 6.45914E-03-6.65954E-04-3.77754E-14
 -1      1865 6.23793E-03-6.80785E-04-3.51191E-14
 -1      1866 6.62722E-03-6.32660E-04-3.96577E-14
 -1      1867 6.79393E-03-6.05434E-04-4.15764E-14
 -1      1868 6.57382E-03-6.02772E-04-3.88090E-14
 -1      1869 6.95968E-03-5.83768E-04-4.35333E-14
 -1      1870 7.12382E-03-5.67147E-04-4.55248E-14
 -1      1871 6.90402E-03-5.49838E-04-4.26462E-14
 -1      1872 7.28661E-03-5.54848E-04-4.75511E-14
 -1      1873 7.44777E-03-5.46337E-04-4.96132E-14
 -1      1874 7.22780E-03-5.17975E-04-4.66265E-14
 -1      1875 7.60742E-03-5.40908E-04-5.17093E-14
 -1      1876 7.76555E-03-5.38101E-04-5.38398E-14
 -1      1877 7.54530E-03-5.02075E-04-5.07473E-14
 -1      1878 7.92218E-03-5.37333E-04-5.60030E-14
 -1      1879 8.07745E-03-5.38240E-04-5.81969E-14
 -1      1880 7.85705E-03-4.97337E-04-5.50037E-14
 -1      1881 8.23134E-03-5.40389E-04-6.04226E-14
 -1      1882 8.38406E-03-5.43506E-04-6.26764E-14
 -1      1883 8.16374E-03-4.99826E-04-5.93884E-14
 -1      1884 8.53557E-03-5.47294E-04-6.49618E-14
 -1      1885 8.68608E-03-5.51553E-04-6.72737E-14
 -1      1886 8.46607E-03-5.06583E-04-6.38938E-14
 -1      1887 8.83559E-03-5.56095E-04-6.96108E-14
 -1      1888 8.98427E-03-5.60779E-04-7.19762E-14
 -1      1889 8.76473E-03-5.15508E-04-6.85118E-14
 -1      1890 9.13213E-03-5.65496E-04-7.43680E-14
 -1      1891 9.27933E-03-5.70151E-04-7.67837E-14
 -1      1892 9.06036E-03-5.25193E-04-7.32375E-14
 -1      1893 9.42587E-03-5.74688E-04-7.92221E-14
 -1      1894 9.57188E-03-5.79045E-04-8.16839E-14
 -1      1895 9.35352E-03-5.34747E-04-7.80659E-14
 -1      1896 9.71739E-03-5.83203E-04-8.41712E-14
 -1      1897 9.86249E-03-5.87125E-04-8.66797E-14
 -1      1898 9.64472E-03-5.43650E-04-8.29886E-14
 -1      1899 1.00072E-02-5.90813E-04-8.92135E-14
 -1      1900 1.01516E-02-5.94246E-04-9.17689E-14
 -1      1901 9.93439E-03-5.51635E-04-8.80058E-14
 -1      1902 1.02957E-02-5.97439E-04-9.43460E-14
 -1      1903 1.04396E-02-6.00384E-04-9.69503E-14
 -1      1904 1.02229E-02-5.58607E-04-9.31148E-14
 -1      1905 1.05833E-02-6.03102E-04-9.95746E-14
 -1      1906 1.07268E-02-6.05592E-04-1.02221E-13
 -1      1907 1.05105E-02-5.64575E-04-9.83141E-14
 -1      1908 1.08701E-02-6.07877E-04-1.04891E-13
 -1      1909 1.10133E-02-6.09961E-04-1.07580E-13
 -1      1910 1.07974E-02-5.69610E-04-1.03605E-13
 -1      1911 1.11565E-02-6.11866E-04-1.10287E-13
 -1      1912 1.12995E-02-6.13600E-04-1.13014E-13
 -1      1913 1.10839E-02-5.73816E-04-1.08978E-13
 -1      1914 1.14425E-02-6.15183E-04-1.15760E-13
 -1      1915 1.15854E-02-6.16623E-04-1.18521E-13
 -1      1916 1.13700E-02-5.77309E-04-1.14429E-13
 -1      1917 1.17283E-02-6.17940E-04-1.21298E-13
 -1      1918 1.18711E-02-6.19139E-04-1.24092E-13
 -1      1919 1.16559E-02-5.80206E-04-1.19950E-13
 -1      1920 1.20139E-02-6.20239E-04-1.26900E-13
 -1      1921 1.21567E-02-6.21245E-04-1.29721E-13
 -1      1922 1.19417E-02-5.82614E-04-1.25537E-13
 -1      1923 1.22995E-02-6.22172E-04-1.32555E-13
 -1      1924 1.24423E-02-6.23027E-04-1.35404E-13
 -1      1925 1.22274E-02-5.84632E-04-1.31178E-13
 -1      1926 1.25851E-02-6.23821E-04-1.38265E-13
 -1      1927 1.27278E-02-6.24559E-04-1.41138E-13
 -1      1928 1.25130E-02-5.86344E-04-1.36873E-13
 -1      1929 1.28706E-02-6.25251E-04-1.44021E-13
 -1      1930 1.30134E-02-6.25903E-04-1.46918E-13
 -1      1931 1.27986E-02-5.87820E-04-1.42617E-13
 -1      1932 1.31562E-02-6.26520E-04-1.49822E-13
 -1      1933 1.32989E-02-6.27109E-04-1.52734E-13
 -1      1934 1.30842E-02-5.89121E-04-1.48404E-13
 -1      1935 1.34417E-02-6.27674E-04-1.55657E-13
 -1      1936 1.35845E-02-6.28220E-04-1.58586E-13
 -1      1937 1.33698E-02-5.90295E-04-1.54228E-13
 -1      1938 1.37273E-02-6.28751E-04-1.61521E-13
 -1      1939 1.38701E-02-6.29271E-04-1.64465E-13
 -1      1940 1.36554E-02-5.91384E-04-1.60085E-13
 -1      1941 1.40129E-02-6.29783E-04-1.67417E-13
 -1      1942 1.41558E-02-6.30292E-04-1.70370E-13
 -1      1943 1.39410E-02-5.92421E-04-1.65967E-13
 -1      1944 1.42986E-02-6.30799E-04-1.73330E-13
 -1      1945 1.44414E-02-6.31307E-04-1.76296E-13
 -1      1946 1.42267E-02-5.93434E-04-1.71875E-13
 -1      1947 1.45694E-02-6.33442E-04-1.78957E-13
 -1      1948 1.47123E-02-6.33960E-04-1.81936E-13
 -1      1949 1.47536E-02-6.00345E-04-1.82824E-13
 -1      1950 1.44975E-02-5.96070E-04-1.77493E-13
 -1      1951 1.21599E-03 4.16899E-04-1.10995E-15
 -1      1952 1.06029E-03 3.88362E-04-8.17421E-16
 -1      1953 1.02333E-03 3.57313E-04-8.40704E-16
 -1      1954 1.52732E-03 4.65121E-04-1.83740E-15
 -1      1955 1.37129E-03 4.42188E-04-1.44969E-15
 -1      1956 1.33410E-03 4.11558E-04-1.47199E-15
 -1      1957 1.84203E-03 5.08761E-04-2.75519E-15
 -1      1958 1.68405E-03 4.87080E-04-2.27250E-15
 -1      1959 1.64598E-03 4.56206E-04-2.29195E-15
 -1      1960 2.16200E-03 5.55744E-04-3.86213E-15
 -1      1961 2.00130E-03 5.31442E-04-3.28531E-15
 -1      1962 1.96157E-03 4.99658E-04-3.30045E-15
 -1      1963 2.48754E-03 6.13420E-04-5.15495E-15
 -1      1964 2.32415E-03 5.82910E-04-4.48540E-15
 -1      1965 2.28232E-03 5.49651E-04-4.49529E-15
 -1      1966 2.81746E-03 6.88029E-04-6.63308E-15
 -1      1967 2.65219E-03 6.48414E-04-5.87114E-15
 -1      1968 2.60847E-03 6.13322E-04-5.87493E-15
 -1      1969 3.14889E-03 7.82925E-04-8.29576E-15
 -1      1970 2.98338E-03 7.33033E-04-7.44080E-15
 -1      1971 2.93893E-03 6.96182E-04-7.43752E-15
 -1      1972 3.47751E-03 8.95705E-04-1.01464E-14
 -1      1973 3.31406E-03 8.37639E-04-9.19702E-15
 -1      1974 3.27097E-03 7.99820E-04-9.18489E-15
 -1      1975 3.79838E-03 1.01517E-03-1.21878E-14
 -1      1976 3.63936E-03 9.55713E-04-1.11431E-14
 -1      1977 3.60027E-03 9.18605E-04-1.11211E-14
 -1      1978 4.10791E-03 1.12068E-03-1.44280E-14
 -1      1979 3.95468E-03 1.07113E-03-1.32829E-14
 -1      1980 3.92190E-03 1.03695E-03-1.32516E-14
 -1      1981 4.40656E-03 1.18708E-03-1.68680E-14
 -1      1982 4.25816E-03 1.15999E-03-1.56225E-14
 -1      1983 4.23282E-03 1.13042E-03-1.55800E-14
 -1      1984 4.70018E-03 1.19542E-03-1.95121E-14
 -1      1985 4.55314E-03 1.19883E-03-1.81644E-14
 -1      1986 4.53508E-03 1.17383E-03-1.81112E-14
 -1      1987 4.99758E-03 1.14318E-03-2.23592E-14
 -1      1988 4.84756E-03 1.17607E-03-2.09109E-14
 -1      1989 4.83605E-03 1.15381E-03-2.08472E-14
 -1      1990 5.30583E-03 1.04578E-03-2.54037E-14
 -1      1991 5.14991E-03 1.09863E-03-2.38568E-14
 -1      1992 5.14420E-03 1.07671E-03-2.37830E-14
 -1      1993 5.62695E-03 9.28350E-04-2.86366E-14
 -1      1994 5.46484E-03 9.88108E-04-2.69968E-14
 -1      1995 5.46392E-03 9.64872E-04-2.69134E-14
 -1      1996 5.95826E-03 8.14223E-04-3.20470E-14
 -1      1997 5.79171E-03 8.69919E-04-3.03203E-14
 -1      1998 5.79393E-03 8.44888E-04-3.02264E-14
 -1      1999 6.29492E-03 7.18264E-04-3.56242E-14
 -1      2000 6.12638E-03 7.63602E-04-3.38158E-14
 -1      2001 6.12965E-03 7.37050E-04-3.37119E-14
 -1      2002 6.63218E-03 6.46168E-04-3.93512E-14
 -1      2003 6.46387E-03 6.79272E-04-3.74698E-14
 -1      2004 6.46618E-03 6.51698E-04-3.73571E-14
 -1      2005 6.96644E-03 5.97231E-04-4.32293E-14
 -1      2006 6.79996E-03 6.19046E-04-4.12721E-14
 -1      2007 6.79991E-03 5.90897E-04-4.11519E-14
 -1      2008 7.29553E-03 5.67544E-04-4.72495E-14
 -1      2009 7.13179E-03 5.80275E-04-4.52213E-14
 -1      2010 7.12870E-03 5.51883E-04-4.50915E-14
 -1      2011 7.61843E-03 5.52308E-04-5.14136E-14
 -1      2012 7.45782E-03 5.58389E-04-4.93143E-14
 -1      2013 7.45163E-03 5.29980E-04-4.91755E-14
 -1      2014 7.93499E-03 5.47080E-04-5.57136E-14
 -1      2015 7.77750E-03 5.48658E-04-5.35463E-14
 -1      2016 7.76852E-03 5.20382E-04-5.33983E-14
 -1      2017 8.24556E-03 5.48258E-04-6.01368E-14
 -1      2018 8.09098E-03 5.47027E-04-5.79095E-14
 -1      2019 8.07970E-03 5.18973E-04-5.77517E-14
 -1      2020 8.55082E-03 5.53159E-04-6.46807E-14
 -1      2021 8.39880E-03 5.50354E-04-6.23957E-14
 -1      2022 8.38573E-03 5.22567E-04-6.22276E-14
 -1      2023 8.85156E-03 5.59897E-04-6.93345E-14
 -1      2024 8.70169E-03 5.56371E-04-6.69940E-14
 -1      2025 8.68731E-03 5.28865E-04-6.68195E-14
 -1      2026 9.14855E-03 5.67218E-04-7.40973E-14
 -1      2027 9.00046E-03 5.63529E-04-7.17023E-14
 -1      2028 8.98517E-03 5.36293E-04-7.15184E-14
 -1      2029 9.44255E-03 5.74337E-04-7.89629E-14
 -1      2030 9.29587E-03 5.70828E-04-7.65173E-14
 -1      2031 9.27998E-03 5.43840E-04-7.63249E-14
 -1      2032 9.73419E-03 5.80804E-04-8.39329E-14
 -1      2033 9.58862E-03 5.77664E-04-8.14350E-14
 -1      2034 9.57236E-03 5.50894E-04-8.12348E-14
 -1      2035 1.00240E-02 5.86394E-04-8.89996E-14
 -1      2036 9.87930E-03 5.83712E-04-8.64545E-14
 -1      2037 9.86284E-03 5.57127E-04-8.62446E-14
 -1      2038 1.03125E-02 5.91033E-04-9.41621E-14
 -1      2039 1.01684E-02 5.88831E-04-9.15696E-14
 -1      2040 1.01519E-02 5.62400E-04-9.13516E-14
 -1      2041 1.06000E-02 5.94739E-04-9.94139E-14
 -1      2042 1.04563E-02 5.92998E-04-9.67767E-14
 -1      2043 1.04398E-02 5.66692E-04-9.65512E-14
 -1      2044 1.08868E-02 5.97585E-04-1.04758E-13
 -1      2045 1.07434E-02 5.96264E-04-1.02076E-13
 -1      2046 1.07269E-02 5.70058E-04-1.01843E-13
 -1      2047 1.11730E-02 5.99671E-04-1.10188E-13
 -1      2048 1.10299E-02 5.98717E-04-1.07462E-13
 -1      2049 1.10135E-02 5.72588E-04-1.07221E-13
 -1      2050 1.14590E-02 6.01106E-04-1.15707E-13
 -1      2051 1.13160E-02 6.00463E-04-1.12936E-13
 -1      2052 1.12997E-02 5.74395E-04-1.12688E-13
 -1      2053 1.17447E-02 6.01998E-04-1.21306E-13
 -1      2054 1.16018E-02 6.01614E-04-1.18497E-13
 -1      2055 1.15856E-02 5.75590E-04-1.18240E-13
 -1      2056 1.20303E-02 6.02447E-04-1.26978E-13
 -1      2057 1.18875E-02 6.02272E-04-1.24134E-13
 -1      2058 1.18713E-02 5.76281E-04-1.23867E-13
 -1      2059 1.23158E-02 6.02542E-04-1.32710E-13
 -1      2060 1.21730E-02 6.02534E-04-1.29838E-13
 -1      2061 1.21569E-02 5.76566E-04-1.29563E-13
 -1      2062 1.26013E-02 6.02362E-04-1.38490E-13
 -1      2063 1.24586E-02 6.02483E-04-1.35595E-13
 -1      2064 1.24425E-02 5.76531E-04-1.35313E-13
 -1      2065 1.28868E-02 6.01971E-04-1.44310E-13
 -1      2066 1.27441E-02 6.02190E-04-1.41394E-13
 -1      2067 1.27280E-02 5.76249E-04-1.41107E-13
 -1      2068 1.31723E-02 6.01425E-04-1.50163E-13
 -1      2069 1.30296E-02 6.01715E-04-1.47234E-13
 -1      2070 1.30135E-02 5.75780E-04-1.46939E-13
 -1      2071 1.34579E-02 6.00768E-04-1.56047E-13
 -1      2072 1.33151E-02 6.01108E-04-1.53102E-13
 -1      2073 1.32991E-02 5.75177E-04-1.52806E-13
 -1      2074 1.37435E-02 6.00037E-04-1.61957E-13
 -1      2075 1.36007E-02 6.00410E-04-1.58999E-13
 -1      2076 1.35847E-02 5.74480E-04-1.58698E-13
 -1      2077 1.40291E-02 5.99265E-04-1.67901E-13
 -1      2078 1.38863E-02 5.99655E-04-1.64925E-13
 -1      2079 1.38703E-02 5.73724E-04-1.64620E-13
 -1      2080 1.43147E-02 5.98479E-04-1.73874E-13
 -1      2081 1.41719E-02 5.98873E-04-1.70884E-13
 -1      2082 1.41560E-02 5.72939E-04-1.70574E-13
 -1      2083 1.46004E-02 5.97700E-04-1.79868E-13
 -1      2084 1.44576E-02 5.98087E-04-1.76869E-13
 -1      2085 1.44416E-02 5.72151E-04-1.76554E-13
 -1      2086 1.48353E-02 5.94087E-04-1.84809E-13
 -1      2087 1.46925E-02 5.94463E-04-1.81804E-13
 -1      2088 1.46766E-02 5.68523E-04-1.81487E-13
 -1      2089 1.48607E-02 5.62054E-04-1.85360E-13
 -1      2090 1.48309E-02 3.27249E-04-1.84823E-13
 -1      2091 1.48306E-02 3.69424E-04-1.84805E-13
 -1      2092 1.48303E-02 4.11594E-04-1.84785E-13
 -1      2093 1.48299E-02 4.53758E-04-1.84763E-13
 -1      2094 1.47067E-02 3.90845E-04-1.82208E-13
 -1      2095 1.48455E-02 4.86832E-04-1.85077E-13
 -1      2096 1.48452E-02 5.28987E-04-1.85049E-13
 -1      2097 1.47531E-02 5.32221E-04-1.83114E-13
 -1      2098 1.47220E-02 4.66082E-04-1.82494E-13
 -1      2099 1.48316E-02 2.44313E-04-1.84856E-13
 -1      2100 1.48312E-02 2.85783E-04-1.84840E-13
 -1      2101 1.47073E-02 3.07216E-04-1.82250E-13
 -1      2102 1.48323E-02 1.59928E-04-1.84883E-13
 -1      2103 1.48319E-02 2.02123E-04-1.84870E-13
 -1      2104 1.47080E-02 2.23569E-04-1.82282E-13
 -1      2105 1.48331E-02 7.55297E-05-1.84898E-13
 -1      2106 1.48327E-02 1.17730E-04-1.84894E-13
 -1      2107 1.47087E-02 1.39192E-04-1.82306E-13
 -1      2108 1.48339E-02-8.87711E-06-1.84905E-13
 -1      2109 1.48335E-02 3.33267E-05-1.84901E-13
 -1      2110 1.47095E-02 5.48043E-05-1.82319E-13
 -1      2111 1.48348E-02-9.32856E-05-1.84891E-13
 -1      2112 1.48343E-02-5.10818E-05-1.84899E-13
 -1      2113 1.47104E-02-2.95887E-05-1.82319E-13
 -1      2114 1.48358E-02-1.77689E-04-1.84861E-13
 -1      2115 1.48353E-02-1.35489E-04-1.84877E-13
 -1      2116 1.47113E-02-1.13982E-04-1.82305E-13
 -1      2117 1.48368E-02-2.60651E-04-1.84829E-13
 -1      2118 1.48363E-02-2.19172E-04-1.84845E-13
 -1      2119 1.47123E-02-1.97654E-04-1.82278E-13
 -1      2120 1.48379E-02-3.45027E-04-1.84790E-13
 -1      2121 1.48373E-02-3.02841E-04-1.84810E-13
 -1      2122 1.47133E-02-2.81316E-04-1.82244E-13
 -1      2123 1.48390E-02-4.29382E-04-1.84748E-13
 -1      2124 1.48384E-02-3.87207E-04-1.84769E-13
 -1      2125 1.47144E-02-3.65678E-04-1.82201E-13
 -1      2126 1.48401E-02-5.13716E-04-1.84704E-13
 -1      2127 1.48396E-02-4.71552E-04-1.84727E-13
 -1      2128 1.47156E-02-4.50021E-04-1.82157E-13
 -1      2129 6.44529E-03 1.62104E-04-2.72995E-14
 -1      2130 6.59095E-03 1.05486E-04-2.77704E-14
 -1      2131 6.84771E-03 2.98013E-06-2.84376E-14
 -1      2132 6.84900E-03-1.32423E-05-2.84071E-14
 -1      2133 6.72679E-03 5.36455E-05-2.82200E-14
 -1      2134 6.80499E-03 2.82143E-05-2.83976E-14
 -1      2135 6.08004E-03 3.29118E-04-2.60892E-14
 -1      2136 6.25625E-03 2.43890E-04-2.66986E-14
 -1      2137 5.69885E-03 5.32189E-04-2.46692E-14
 -1      2138 5.88559E-03 4.32668E-04-2.53272E-14
 -1      2139 3.27596E-04-5.71155E-05-2.59016E-16
 -1      2140 3.33585E-04-6.95893E-05-2.47808E-16
 -1      2141 4.54703E-04-1.03943E-04-3.60091E-16
 -1      2142 4.37397E-04-7.07861E-05-3.89757E-16
 -1      2143 4.95703E-03 9.10766E-04-2.13644E-14
 -1      2144 5.11285E-03 8.41469E-04-2.21650E-14
 -1      2145 4.63205E-03 9.83258E-04-1.96190E-14
 -1      2146 4.77983E-03 9.61703E-04-2.04180E-14
 -1      2147 4.31260E-03 9.44815E-04-1.79195E-14
 -1      2148 4.46123E-03 9.80545E-04-1.87041E-14
 -1      2149 3.93725E-03 7.82885E-04-1.62959E-14
 -1      2150 4.10394E-03 8.66103E-04-1.69579E-14
 -1      2151 3.59657E-03 5.99662E-04-1.51749E-14
 -1      2152 3.76982E-03 6.97605E-04-1.57311E-14
 -1      2153 3.88342E-03 7.41524E-04-1.57523E-14
 -1      2154 3.17173E-03 3.78603E-04-1.40884E-14
 -1      2155 3.35514E-03 4.74697E-04-1.45452E-14
 -1      2156 2.79748E-03 1.98540E-04-1.32103E-14
 -1      2157 2.97424E-03 2.80589E-04-1.36171E-14
 -1      2158 2.47121E-03 7.09532E-05-1.25574E-14
 -1      2159 2.59955E-03 1.12053E-04-1.27320E-14
 -1      2160 2.32186E-03 1.70990E-05-1.24261E-14
 -1      2161 2.37593E-03 4.05342E-05-1.25357E-14
 -1      2162 2.33576E-03-2.41483E-05-1.22531E-14
 -1      2163 2.30542E-03-7.54212E-06-1.22937E-14
 -1      2164 2.56445E-03-1.11631E-04-1.28055E-14
 -1      2165 2.44499E-03-6.56624E-05-1.24804E-14
 -1      2166 2.84400E-03-2.29537E-04-1.34004E-14
 -1      2167 2.69170E-03-1.65783E-04-1.30973E-14
 -1      2168 2.63262E-03-1.17312E-04-1.25449E-14
 -1      2169 3.23661E-03-4.08993E-04-1.41881E-14
 -1      2170 3.05722E-03-3.18497E-04-1.37620E-14
 -1      2171 3.62290E-03-6.22637E-04-1.53165E-14
 -1      2172 3.43907E-03-5.21563E-04-1.47911E-14
 -1      2173 3.99981E-03-8.25408E-04-1.66674E-14
 -1      2174 3.84063E-03-7.38597E-04-1.60331E-14
 -1      2175 4.31629E-03-9.53588E-04-1.81186E-14
 -1      2176 4.17106E-03-9.01698E-04-1.74351E-14
 -1      2177 4.61997E-03-9.91649E-04-1.96694E-14
 -1      2178 4.48195E-03-9.85733E-04-1.89416E-14
 -1      2179 4.92113E-03-9.32487E-04-2.13054E-14
 -1      2180 4.78324E-03-9.73820E-04-2.05564E-14
 -1      2181 5.23330E-03-7.90020E-04-2.29094E-14
 -1      2182 5.07670E-03-8.71715E-04-2.21001E-14
 -1      2183 4.97677E-03-9.12104E-04-2.18510E-14
 -1      2184 5.63908E-03-5.69125E-04-2.46470E-14
 -1      2185 5.46521E-03-6.65176E-04-2.39814E-14
 -1      2186 5.99928E-03-3.84653E-04-2.58458E-14
 -1      2187 5.82784E-03-4.77200E-04-2.52121E-14
 -1      2188 6.35944E-03-2.13331E-04-2.70473E-14
 -1      2189 6.19887E-03-2.82653E-04-2.65945E-14
 -1      2190 6.63525E-03-1.04149E-04-2.78413E-14
 -1      2191 6.51245E-03-1.51402E-04-2.74604E-14
 -1      2192 6.81870E-03-3.52420E-05-2.82827E-14
 -1      2193 6.75592E-03-5.82716E-05-2.81608E-14
 -1      2194 6.84238E-03-1.77218E-05-2.90969E-14
 -1      2195 5.30346E-03 7.43711E-04-2.31487E-14
 -1      2196 5.47385E-03 6.46027E-04-2.39141E-14
 -1      2197 5.96654E-03 3.60699E-04-2.62248E-14
 -1      2198 6.40901E-04-2.55739E-04-3.55510E-16
 -1      2199 5.56565E-03 5.79014E-04-2.46878E-14
 -1      2200 5.19294E-03 7.93752E-04-2.29233E-14
 -1      2201 6.97571E-04-2.43256E-04-4.91672E-16
 -1      2202 6.66305E-03 6.39813E-05-2.86794E-14
 -1      2203 6.83562E-03 9.79484E-06-2.91803E-14
 -1      2204 1.47989E-02-5.47340E-04-1.83814E-13
 -1      2205 6.34055E-03 1.83579E-04-2.76104E-14
 -1      2206 6.70336E-03-6.55593E-05-2.86459E-14
 -1      2207 6.42947E-03-1.60786E-04-2.79019E-14
 -1      2208 6.08764E-03-3.13998E-04-2.67208E-14
 -1      2209 5.32679E-03-7.29357E-04-2.37255E-14
 -1      2210 4.70083E-03-9.94673E-04-2.01616E-14
 -1      2211 4.40607E-03-9.80475E-04-1.84533E-14
 -1      2212 4.10371E-03-8.68529E-04-1.68722E-14
 -1      2213 3.75138E-03-6.74691E-04-1.54066E-14
 -1      2214 2.95983E-03-2.50122E-04-1.31786E-14
 -1      2215 2.37733E-03-3.41237E-05-1.20343E-14
 -1      2216 2.32847E-03-1.84988E-05-1.15989E-14
 -1      2217 2.43264E-03-4.49088E-05-1.18169E-14
 -1      2218 2.30459E-03 2.33606E-06-1.19484E-14
 -1      2219 2.41780E-03 4.22980E-05-1.20982E-14
 -1      2220 2.69650E-03 1.34068E-04-1.25746E-14
 -1      2221 3.50992E-03 5.30936E-04-1.45784E-14
 -1      2222 4.21812E-03 9.13126E-04-1.72498E-14
 -1      2223 4.86003E-03 9.45581E-04-2.09822E-14
 -1      2224 4.54527E-03 9.94160E-04-1.91193E-14
 -1      2225 3.09024E-03 3.09166E-04-1.35035E-14
 -1      2226 3.35358E-03-4.46084E-04-1.41126E-14
 -1      2227 5.71250E-03-5.08030E-04-2.53921E-14
 -1      2228 1.07446E-03 3.34126E-04-1.05229E-15
 -1      2229 9.19797E-04 3.03908E-04-7.75801E-16
 -1      2230 5.16363E-04-2.98227E-05-5.98534E-16
 -1      2231 5.22143E-04-4.03100E-05-5.92855E-16
 -1      2232 5.29263E-04-5.22086E-05-5.85103E-16
 -1      2233 5.37511E-04-6.57110E-05-5.75183E-16
 -1      2234 6.34387E-04-5.61302E-05-7.97810E-16
 -1      2235 5.07586E-04 4.53436E-06-6.05175E-16
 -1      2236 5.07498E-04-3.51411E-06-6.05595E-16
 -1      2237 5.12350E-04 2.15318E-05-5.99943E-16
 -1      2238 5.09225E-04 1.27971E-05-6.03264E-16
 -1      2239 6.12251E-04 1.05739E-05-8.17312E-16
 -1      2240 5.22650E-04 4.13927E-05-5.88234E-16
 -1      2241 5.16863E-04 3.09438E-05-5.95064E-16
 -1      2242 6.20163E-04 3.18689E-05-8.08584E-16
 -1      2243 5.38167E-04 6.71444E-05-5.68420E-16
 -1      2244 5.29852E-04 5.34531E-05-5.79628E-16
 -1      2245 6.35103E-04 5.74784E-05-7.91224E-16
 -1      2246 5.58191E-04 1.00790E-04-5.37317E-16
 -1      2247 5.47687E-04 8.28672E-05-5.54569E-16
 -1      2248 6.56354E-04 9.02431E-05-7.62777E-16
 -1      2249 5.82900E-04 1.44925E-04-4.90981E-16
 -1      2250 5.69991E-04 1.21400E-04-5.16663E-16
 -1      2251 6.83131E-04 1.32385E-04-7.19707E-16
 -1      2252 1.38333E-03 3.84026E-04-1.74384E-15
 -1      2253 1.22876E-03 3.60654E-04-1.37443E-15
 -1      2254 1.12521E-03 3.10873E-04-1.27308E-15
 -1      2255 9.59972E-04-2.81993E-04-9.63896E-16
 -1      2256 1.11291E-03-3.09574E-04-1.27254E-15
 -1      2257 5.49943E-03 6.09935E-04-2.49417E-14
 -1      2258 5.68610E-03 4.97355E-04-2.57216E-14
 -1      2259 1.26581E-03-3.33925E-04-1.62716E-15
 -1      2260 1.41924E-03-3.55713E-04-2.02856E-15
 -1      2261 1.16312E-03-2.86451E-04-1.50167E-15
 -1      2262 1.57311E-03-3.76204E-04-2.47616E-15
 -1      2263 1.72780E-03-3.96049E-04-2.97020E-15
 -1      2264 1.46584E-03-3.28398E-04-2.31481E-15
 -1      2265 1.88355E-03-4.16430E-04-3.51059E-15
 -1      2266 2.04053E-03-4.38116E-04-4.09778E-15
 -1      2267 1.77152E-03-3.66360E-04-3.31147E-15
 -1      2268 2.19917E-03-4.62164E-04-4.73097E-15
 -1      2269 2.35938E-03-4.89471E-04-5.41066E-15
 -1      2270 2.08213E-03-4.07412E-04-4.49131E-15
 -1      2271 2.52180E-03-5.20892E-04-6.13610E-15
 -1      2272 2.68594E-03-5.57352E-04-6.90770E-15
 -1      2273 2.40017E-03-4.58971E-04-5.85374E-15
 -1      2274 2.85262E-03-5.99318E-04-7.72628E-15
 -1      2275 3.02074E-03-6.47395E-04-8.59162E-15
 -1      2276 2.72810E-03-5.28439E-04-7.39916E-15
 -1      2277 3.19110E-03-7.01333E-04-9.50378E-15
 -1      2278 3.36196E-03-7.60800E-04-1.04634E-14
 -1      2279 3.06722E-03-6.21886E-04-9.12835E-15
 -1      2280 3.53379E-03-8.24457E-04-1.14704E-14
 -1      2281 3.70438E-03-8.89926E-04-1.25263E-14
 -1      2282 3.41564E-03-7.40882E-04-1.10444E-14
 -1      2283 3.87347E-03-9.54578E-04-1.36323E-14
 -1      2284 4.03996E-03-1.01373E-03-1.47885E-14
 -1      2285 3.76638E-03-8.76626E-04-1.31523E-14
 -1      2286 4.20293E-03-1.06395E-03-1.59956E-14
 -1      2287 4.36369E-03-1.09989E-03-1.72544E-14
 -1      2288 4.10894E-03-1.00343E-03-1.54600E-14
 -1      2289 4.52104E-03-1.11906E-03-1.85647E-14
 -1      2290 4.67910E-03-1.11890E-03-1.99268E-14
 -1      2291 4.43774E-03-1.08252E-03-1.79745E-14
 -1      2292 4.83662E-03-1.09945E-03-2.13406E-14
 -1      2293 4.99769E-03-1.06334E-03-2.28040E-14
 -1      2294 4.75955E-03-1.08215E-03-2.06982E-14
 -1      2295 5.16111E-03-1.01310E-03-2.43151E-14
 -1      2296 5.32823E-03-9.54264E-04-2.58738E-14
 -1      2297 5.08875E-03-1.00264E-03-2.36273E-14
 -1      2298 5.49812E-03-8.90285E-04-2.74774E-14
 -1      2299 5.66954E-03-8.25819E-04-2.91232E-14
 -1      2300 5.43218E-03-8.76404E-04-2.67469E-14
 -1      2301 5.84226E-03-7.63640E-04-3.08116E-14
 -1      2302 6.01417E-03-7.06142E-04-3.25414E-14
 -1      2303 5.78392E-03-7.42756E-04-3.00428E-14
 -1      2304 6.18569E-03-6.54777E-04-3.43105E-14
 -1      2305 6.35503E-03-6.10008E-04-3.61177E-14
 -1      2306 6.13356E-03-6.27646E-04-3.35029E-14
 -1      2307 6.52295E-03-5.72243E-04-3.79621E-14
 -1      2308 6.68837E-03-5.40944E-04-3.98433E-14
 -1      2309 6.47401E-03-5.40773E-04-3.71170E-14
 -1      2310 6.85203E-03-5.15883E-04-4.17610E-14
 -1      2311 7.01343E-03-4.96255E-04-4.37151E-14
 -1      2312 6.80322E-03-4.81563E-04-4.08788E-14
 -1      2313 7.17313E-03-4.81526E-04-4.57048E-14
 -1      2314 7.33096E-03-4.70945E-04-4.77287E-14
 -1      2315 7.12223E-03-4.45261E-04-4.47837E-14
 -1      2316 7.48728E-03-4.63899E-04-4.97884E-14
 -1      2317 7.64213E-03-4.59788E-04-5.18816E-14
 -1      2318 7.43315E-03-4.26261E-04-4.88304E-14
 -1      2319 7.79569E-03-4.58054E-04-5.40077E-14
 -1      2320 7.94810E-03-4.58250E-04-5.61666E-14
 -1      2321 7.73799E-03-4.19466E-04-5.30141E-14
 -1      2322 8.09941E-03-4.59926E-04-5.83583E-14
 -1      2323 8.24981E-03-4.62765E-04-6.05792E-14
 -1      2324 8.03833E-03-4.20735E-04-5.73294E-14
 -1      2325 8.39931E-03-4.66432E-04-6.28295E-14
 -1      2326 8.54807E-03-4.70708E-04-6.51098E-14
 -1      2327 8.33529E-03-4.26922E-04-6.17682E-14
 -1      2328 8.69608E-03-4.75363E-04-6.74158E-14
 -1      2329 8.84350E-03-4.80250E-04-6.97485E-14
 -1      2330 8.62969E-03-4.35756E-04-6.63212E-14
 -1      2331 8.99031E-03-4.85221E-04-7.21107E-14
 -1      2332 9.13665E-03-4.90180E-04-7.44989E-14
 -1      2333 8.92207E-03-4.45675E-04-7.09862E-14
 -1      2334 9.28250E-03-4.95043E-04-7.69114E-14
 -1      2335 9.42797E-03-4.99748E-04-7.93477E-14
 -1      2336 9.21288E-03-4.55662E-04-7.57578E-14
 -1      2337 9.57305E-03-5.04256E-04-8.18076E-14
 -1      2338 9.71783E-03-5.08531E-04-8.42920E-14
 -1      2339 9.50244E-03-4.65100E-04-8.06295E-14
 -1      2340 9.86231E-03-5.12561E-04-8.67981E-14
 -1      2341 1.00066E-02-5.16327E-04-8.93305E-14
 -1      2342 9.79102E-03-4.73653E-04-8.55940E-14
 -1      2343 1.01506E-02-5.19836E-04-9.18839E-14
 -1      2344 1.02944E-02-5.23080E-04-9.44586E-14
 -1      2345 1.00788E-02-4.81177E-04-9.06528E-14
 -1      2346 1.04381E-02-5.26078E-04-9.70571E-14
 -1      2347 1.05816E-02-5.28828E-04-9.96776E-14
 -1      2348 1.03660E-02-4.87654E-04-9.58014E-14
 -1      2349 1.07250E-02-5.31353E-04-1.02322E-13
 -1      2350 1.08683E-02-5.33656E-04-1.04986E-13
 -1      2351 1.06528E-02-4.93139E-04-1.01040E-13
 -1      2352 1.10115E-02-5.35762E-04-1.07671E-13
 -1      2353 1.11546E-02-5.37677E-04-1.10375E-13
 -1      2354 1.09392E-02-4.97732E-04-1.06365E-13
 -1      2355 1.12976E-02-5.39424E-04-1.13101E-13
 -1      2356 1.14407E-02-5.41011E-04-1.15843E-13
 -1      2357 1.12254E-02-5.01549E-04-1.11773E-13
 -1      2358 1.15836E-02-5.42458E-04-1.18602E-13
 -1      2359 1.17265E-02-5.43773E-04-1.21379E-13
 -1      2360 1.15114E-02-5.04710E-04-1.17256E-13
 -1      2361 1.18694E-02-5.44975E-04-1.24170E-13
 -1      2362 1.20123E-02-5.46072E-04-1.26979E-13
 -1      2363 1.17972E-02-5.07331E-04-1.22807E-13
 -1      2364 1.21552E-02-5.47078E-04-1.29801E-13
 -1      2365 1.22980E-02-5.48001E-04-1.32636E-13
 -1      2366 1.20830E-02-5.09515E-04-1.28422E-13
 -1      2367 1.24409E-02-5.48853E-04-1.35482E-13
 -1      2368 1.25837E-02-5.49642E-04-1.38341E-13
 -1      2369 1.23687E-02-5.11354E-04-1.34091E-13
 -1      2370 1.27265E-02-5.50377E-04-1.41214E-13
 -1      2371 1.28693E-02-5.51065E-04-1.44097E-13
 -1      2372 1.26544E-02-5.12926E-04-1.39811E-13
 -1      2373 1.30121E-02-5.51712E-04-1.46989E-13
 -1      2374 1.31550E-02-5.52325E-04-1.49892E-13
 -1      2375 1.29401E-02-5.14296E-04-1.45576E-13
 -1      2376 1.32978E-02-5.52910E-04-1.52802E-13
 -1      2377 1.34406E-02-5.53470E-04-1.55722E-13
 -1      2378 1.32258E-02-5.15518E-04-1.51378E-13
 -1      2379 1.35834E-02-5.54012E-04-1.58649E-13
 -1      2380 1.37263E-02-5.54539E-04-1.61581E-13
 -1      2381 1.35115E-02-5.16636E-04-1.57213E-13
 -1      2382 1.38691E-02-5.55055E-04-1.64521E-13
 -1      2383 1.40119E-02-5.55564E-04-1.67466E-13
 -1      2384 1.37971E-02-5.17686E-04-1.63078E-13
 -1      2385 1.41548E-02-5.56068E-04-1.70419E-13
 -1      2386 1.42976E-02-5.56571E-04-1.73377E-13
 -1      2387 1.40828E-02-5.18700E-04-1.68966E-13
 -1      2388 2.00818E-03 4.69424E-04-3.68606E-15
 -1      2389 1.85048E-03 4.47473E-04-3.13074E-15
 -1      2390 2.32784E-03 5.20453E-04-4.93399E-15
 -1      2391 2.16737E-03 4.93502E-04-4.28706E-15
 -1      2392 2.05230E-03 4.39136E-04-4.07721E-15
 -1      2393 2.65369E-03 5.86647E-04-6.36470E-15
 -1      2394 2.49014E-03 5.51263E-04-5.62649E-15
 -1      2395 2.37114E-03 4.90908E-04-5.37762E-15
 -1      2396 2.98542E-03 6.73367E-04-7.97744E-15
 -1      2397 2.81914E-03 6.27223E-04-7.14823E-15
 -1      2398 2.69776E-03 5.59267E-04-6.85849E-15
 -1      2399 3.32086E-03 7.81648E-04-9.77481E-15
 -1      2400 3.15317E-03 7.24981E-04-8.85233E-15
 -1      2401 3.03257E-03 6.49625E-04-8.52046E-15
 -1      2402 3.65554E-03 9.04549E-04-1.17602E-14
 -1      2403 3.48889E-03 8.42136E-04-1.07436E-14
 -1      2404 3.37353E-03 7.62814E-04-1.03663E-14
 -1      2405 3.98353E-03 1.02392E-03-1.39401E-14
 -1      2406 3.82076E-03 9.66325E-04-1.28252E-14
 -1      2407 3.71517E-03 8.90570E-04-1.24002E-14
 -1      2408 4.30079E-03 1.11214E-03-1.63196E-14
 -1      2409 4.14323E-03 1.07396E-03-1.51048E-14
 -1      2410 4.04969E-03 1.01152E-03-1.46292E-14
 -1      2411 4.60991E-03 1.14227E-03-1.89030E-14
 -1      2412 4.45533E-03 1.13565E-03-1.75857E-14
 -1      2413 4.37238E-03 1.09327E-03-1.70598E-14
 -1      2414 4.91979E-03 1.10409E-03-2.16911E-14
 -1      2415 4.76356E-03 1.13134E-03-2.02718E-14
 -1      2416 4.68765E-03 1.10752E-03-1.96961E-14
 -1      2417 5.23903E-03 1.01054E-03-2.46781E-14
 -1      2418 5.07769E-03 1.06257E-03-2.31599E-14
 -1      2419 5.00677E-03 1.04888E-03-2.25363E-14
 -1      2420 5.56954E-03 8.89526E-04-2.78564E-14
 -1      2421 5.40308E-03 9.51513E-04-2.62443E-14
 -1      2422 5.33765E-03 9.38748E-04-2.55747E-14
 -1      2423 5.90711E-03 7.68754E-04-3.12152E-14
 -1      2424 5.73805E-03 8.27733E-04-2.95143E-14
 -1      2425 5.67879E-03 8.10491E-04-2.88025E-14
 -1      2426 6.24564E-03 6.66032E-04-3.47415E-14
 -1      2427 6.07683E-03 7.14526E-04-3.29568E-14
 -1      2428 6.02285E-03 6.91502E-04-3.22057E-14
 -1      2429 6.58068E-03 5.88291E-04-3.84248E-14
 -1      2430 6.41399E-03 6.23965E-04-3.65656E-14
 -1      2431 6.36289E-03 5.95859E-04-3.57730E-14
 -1      2432 6.90994E-03 5.35131E-04-4.22557E-14
 -1      2433 6.74623E-03 5.58843E-04-4.03209E-14
 -1      2434 6.69534E-03 5.26800E-04-3.94945E-14
 -1      2435 7.23280E-03 5.02551E-04-4.62305E-14
 -1      2436 7.07225E-03 5.16564E-04-4.42255E-14
 -1      2437 7.01952E-03 4.81626E-04-4.33599E-14
 -1      2438 7.54946E-03 4.85535E-04-5.03486E-14
 -1      2439 7.39190E-03 4.92386E-04-4.82716E-14
 -1      2440 7.33622E-03 4.55398E-04-4.73700E-14
 -1      2441 7.86049E-03 4.79392E-04-5.46022E-14
 -1      2442 7.70564E-03 4.81348E-04-5.24573E-14
 -1      2443 7.64666E-03 4.42991E-04-5.15196E-14
 -1      2444 8.16657E-03 4.80287E-04-5.89830E-14
 -1      2445 8.01409E-03 4.79149E-04-5.67775E-14
 -1      2446 7.95199E-03 4.39966E-04-5.58041E-14
 -1      2447 8.46841E-03 4.85329E-04-6.34870E-14
 -1      2448 8.31796E-03 4.82429E-04-6.12202E-14
 -1      2449 8.25319E-03 4.42838E-04-6.02151E-14
 -1      2450 8.76669E-03 4.92467E-04-6.81008E-14
 -1      2451 8.61794E-03 4.88734E-04-6.57805E-14
 -1      2452 8.55102E-03 4.49039E-04-6.47436E-14
 -1      2453 9.06202E-03 5.00325E-04-7.28269E-14
 -1      2454 8.91467E-03 4.96372E-04-7.04510E-14
 -1      2455 8.84612E-03 4.56778E-04-6.93855E-14
 -1      2456 9.35496E-03 5.08030E-04-7.76549E-14
 -1      2457 9.20874E-03 5.04239E-04-7.52274E-14
 -1      2458 9.13901E-03 4.64872E-04-7.41324E-14
 -1      2459 9.64600E-03 5.15076E-04-8.25848E-14
 -1      2460 9.50068E-03 5.11661E-04-8.01071E-14
 -1      2461 9.43014E-03 4.72586E-04-7.89823E-14
 -1      2462 9.93555E-03 5.21202E-04-8.76153E-14
 -1      2463 9.79093E-03 5.18267E-04-8.50877E-14
 -1      2464 9.71985E-03 4.79508E-04-8.39338E-14
 -1      2465 1.02240E-02 5.26318E-04-9.27406E-14
 -1      2466 1.00799E-02 5.23892E-04-9.01658E-14
 -1      2467 1.00085E-02 4.85443E-04-8.89839E-14
 -1      2468 1.05115E-02 5.30434E-04-9.79607E-14
 -1      2469 1.03678E-02 5.28501E-04-9.53394E-14
 -1      2470 1.02962E-02 4.90339E-04-9.41285E-14
 -1      2471 1.07984E-02 5.33622E-04-1.03271E-13
 -1      2472 1.06550E-02 5.32141E-04-1.00604E-13
 -1      2473 1.05834E-02 4.94234E-04-9.93682E-14
 -1      2474 1.10848E-02 5.35988E-04-1.08669E-13
 -1      2475 1.09417E-02 5.34904E-04-1.05959E-13
 -1      2476 1.08700E-02 4.97215E-04-1.04697E-13
 -1      2477 1.13710E-02 5.37647E-04-1.14151E-13
 -1      2478 1.12279E-02 5.36901E-04-1.11398E-13
 -1      2479 1.11563E-02 4.99396E-04-1.10114E-13
 -1      2480 1.16569E-02 5.38715E-04-1.19719E-13
 -1      2481 1.15139E-02 5.38250E-04-1.16926E-13
 -1      2482 1.14424E-02 5.00896E-04-1.15614E-13
 -1      2483 1.19426E-02 5.39300E-04-1.25356E-13
 -1      2484 1.17998E-02 5.39063E-04-1.22528E-13
 -1      2485 1.17283E-02 5.01829E-04-1.21193E-13
 -1      2486 1.22283E-02 5.39498E-04-1.31061E-13
 -1      2487 1.20855E-02 5.39443E-04-1.28202E-13
 -1      2488 1.20140E-02 5.02304E-04-1.26844E-13
 -1      2489 1.25139E-02 5.39393E-04-1.36817E-13
 -1      2490 1.23711E-02 5.39479E-04-1.33932E-13
 -1      2491 1.22998E-02 5.02413E-04-1.32557E-13
 -1      2492 1.27995E-02 5.39055E-04-1.42619E-13
 -1      2493 1.26567E-02 5.39250E-04-1.39714E-13
 -1      2494 1.25854E-02 5.02238E-04-1.38321E-13
 -1      2495 1.30851E-02 5.38545E-04-1.48454E-13
 -1      2496 1.29423E-02 5.38819E-04-1.45531E-13
 -1      2497 1.28711E-02 5.01847E-04-1.44127E-13
 -1      2498 1.33707E-02 5.37910E-04-1.54323E-13
 -1      2499 1.32279E-02 5.38240E-04-1.51386E-13
 -1      2500 1.31567E-02 5.01297E-04-1.49966E-13
 -1      2501 1.36563E-02 5.37191E-04-1.60220E-13
 -1      2502 1.35135E-02 5.37559E-04-1.57269E-13
 -1      2503 1.34423E-02 5.00633E-04-1.55840E-13
 -1      2504 1.39420E-02 5.36422E-04-1.66148E-13
 -1      2505 1.37992E-02 5.36811E-04-1.63180E-13
 -1      2506 1.37280E-02 4.99894E-04-1.61741E-13
 -1      2507 1.42277E-02 5.35630E-04-1.72102E-13
 -1      2508 1.40848E-02 5.36027E-04-1.69120E-13
 -1      2509 1.40137E-02 4.99113E-04-1.67671E-13
 -1      2510 1.45133E-02 5.34839E-04-1.78082E-13
 -1      2511 1.43705E-02 5.35233E-04-1.75090E-13
 -1      2512 1.42993E-02 4.98315E-04-1.73628E-13
 -1      2513 1.46610E-02 5.35459E-04-1.81180E-13
 -1      2514 1.45845E-02 2.02834E-04-1.79708E-13
 -1      2515 1.45841E-02 2.45014E-04-1.79694E-13
 -1      2516 1.45852E-02 1.18465E-04-1.79729E-13
 -1      2517 1.45848E-02 1.60651E-04-1.79718E-13
 -1      2518 1.44609E-02 1.82107E-04-1.77136E-13
 -1      2519 1.45831E-02 3.70104E-04-1.79634E-13
 -1      2520 1.45828E-02 4.12268E-04-1.79607E-13
 -1      2521 1.45838E-02 2.86834E-04-1.79677E-13
 -1      2522 1.45835E-02 3.28292E-04-1.79658E-13
 -1      2523 1.44596E-02 3.49726E-04-1.77063E-13
 -1      2524 1.44602E-02 2.66102E-04-1.77107E-13
 -1      2525 1.45860E-02 3.40877E-05-1.79740E-13
 -1      2526 1.45856E-02 7.62768E-05-1.79737E-13
 -1      2527 1.44617E-02 9.77453E-05-1.77155E-13
 -1      2528 1.45869E-02-5.02931E-05-1.79739E-13
 -1      2529 1.45864E-02-8.10281E-06-1.79741E-13
 -1      2530 1.44625E-02 1.33776E-05-1.77165E-13
 -1      2531 1.45878E-02-1.34673E-04-1.79722E-13
 -1      2532 1.45873E-02-9.24835E-05-1.79731E-13
 -1      2533 1.44634E-02-7.09920E-05-1.77161E-13
 -1      2534 1.45888E-02-2.17616E-04-1.79694E-13
 -1      2535 1.45883E-02-1.76146E-04-1.79709E-13
 -1      2536 1.44643E-02-1.54645E-04-1.77142E-13
 -1      2537 1.45899E-02-3.01980E-04-1.79659E-13
 -1      2538 1.45893E-02-2.59800E-04-1.79679E-13
 -1      2539 1.44653E-02-2.38292E-04-1.77115E-13
 -1      2540 1.45910E-02-3.86330E-04-1.79615E-13
 -1      2541 1.45904E-02-3.44157E-04-1.79639E-13
 -1      2542 1.44664E-02-3.22644E-04-1.77077E-13
 -1      2543 1.45921E-02-4.70663E-04-1.79568E-13
 -1      2544 1.45915E-02-4.28499E-04-1.79591E-13
 -1      2545 1.44675E-02-4.06983E-04-1.77032E-13
 -1      2546 6.82551E-03 9.97343E-06-3.00554E-14
 -1      2547 6.86305E-03 2.00003E-07-3.00997E-14
 -1      2548 6.25215E-03 2.06247E-04-2.80748E-14
 -1      2549 6.42624E-03 1.35821E-04-2.86962E-14
 -1      2550 1.69387E-03 4.26481E-04-2.62206E-15
 -1      2551 1.53825E-03 4.05767E-04-2.15968E-15
 -1      2552 1.73966E-03 3.96844E-04-2.95903E-15
 -1      2553 5.09137E-03 8.48907E-04-2.26235E-14
 -1      2554 5.25300E-03 7.56321E-04-2.36204E-14
 -1      2555 1.46708E-02-5.45199E-04-1.81144E-13
 -1      2556 6.76215E-03-4.02930E-05-2.96704E-14
 -1      2557 6.64961E-03-7.04676E-05-2.93404E-14
 -1      2558 6.59832E-03 7.45552E-05-2.92726E-14
 -1      2559 6.72708E-03 3.82014E-05-2.97375E-14
 -1      2560 6.86133E-03-1.16428E-05-2.99542E-14
 -1      2561 6.83238E-03-1.98402E-05-2.98273E-14
 -1      2562 4.74710E-03-9.93323E-04-2.05399E-14
 -1      2563 4.61567E-03-1.01032E-03-1.96544E-14
 -1      2564 4.13417E-03 8.75951E-04-1.65835E-14
 -1      2565 4.30331E-03 9.52546E-04-1.75276E-14
 -1      2566 5.08958E-04-1.17302E-05-6.04700E-16
 -1      2567 5.11918E-04-2.03743E-05-6.02437E-16
 -1      2568 6.19595E-04-3.06244E-05-8.12528E-16
 -1      2569 6.12019E-04-9.34037E-06-8.18586E-16
 -1      2570 4.50283E-03 9.98640E-04-1.87759E-14
 -1      2571 4.63921E-03 9.99842E-04-1.96929E-14
 -1      2572 3.01138E-03 2.54837E-04-1.28807E-14
 -1      2573 3.19228E-03 3.43929E-04-1.33296E-14
 -1      2574 4.78296E-03 9.75773E-04-2.06211E-14
 -1      2575 4.92614E-03 9.25186E-04-2.15740E-14
 -1      2576 4.72194E-03 9.93872E-04-2.02587E-14
 -1      2577 3.80180E-03 6.89595E-04-1.50392E-14
 -1      2578 3.93596E-03 7.71737E-04-1.55814E-14
 -1      2579 3.46769E-03-4.98284E-04-1.40073E-14
 -1      2580 3.28633E-03-3.96072E-04-1.34288E-14
 -1      2581 3.40668E-03 4.57148E-04-1.38280E-14
 -1      2582 3.61184E-03 5.77610E-04-1.44280E-14
 -1      2583 3.67474E-03 6.22248E-04-1.42628E-14
 -1      2584 2.61792E-03 9.61886E-05-1.19543E-14
 -1      2585 2.80700E-03 1.65387E-04-1.24112E-14
 -1      2586 2.35792E-03 2.12403E-05-1.16303E-14
 -1      2587 2.43974E-03 4.01997E-05-1.16431E-14
 -1      2588 2.28789E-03-2.27335E-06-1.13678E-14
 -1      2589 2.30537E-03 5.10244E-06-1.14975E-14
 -1      2590 2.30896E-03 9.66685E-06-1.10512E-14
 -1      2591 2.70225E-03-1.29184E-04-1.21114E-14
 -1      2592 2.58220E-03-8.94291E-05-1.18358E-14
 -1      2593 5.81724E-03-4.35795E-04-2.64031E-14
 -1      2594 5.65882E-03-5.26888E-04-2.58175E-14
 -1      2595 3.05577E-03-2.78649E-04-1.27716E-14
 -1      2596 2.87150E-03-1.96600E-04-1.24371E-14
 -1      2597 2.78494E-03-1.66999E-04-1.17171E-14
 -1      2598 3.84143E-03-7.21280E-04-1.53665E-14
 -1      2599 3.65800E-03-6.08965E-04-1.46751E-14
 -1      2600 3.55973E-03-5.58060E-04-1.39632E-14
 -1      2601 4.19804E-03-9.15293E-04-1.70901E-14
 -1      2602 4.05760E-03-8.42184E-04-1.63346E-14
 -1      2603 4.48162E-03-1.00272E-03-1.88119E-14
 -1      2604 4.34915E-03-9.70850E-04-1.79935E-14
 -1      2605 5.03795E-03-8.85126E-04-2.24598E-14
 -1      2606 4.91318E-03-9.43912E-04-2.16558E-14
 -1      2607 5.41785E-03-6.68351E-04-2.46657E-14
 -1      2608 5.22086E-03-7.88093E-04-2.35733E-14
 -1      2609 6.18485E-03-2.48286E-04-2.79329E-14
 -1      2610 6.00214E-03-3.38094E-04-2.71633E-14
 -1      2611 5.94568E-03-3.69326E-04-2.75984E-14
 -1      2612 6.50486E-03-1.18690E-04-2.89960E-14
 -1      2613 6.36531E-03-1.70293E-04-2.85684E-14
 -1      2614 6.13573E-04-1.90239E-04-4.59417E-16
 -1      2615 8.17311E-04-2.46469E-04-7.33327E-16
 -1      2616 8.72101E-04-2.30268E-04-9.05783E-16
 -1      2617 5.97737E-04-1.61078E-04-4.93515E-16
 -1      2618 7.98689E-04 2.80992E-04-5.78964E-16
 -1      2619 6.43283E-04 2.40133E-04-3.86383E-16
 -1      2620 6.12926E-04 2.12840E-04-3.96601E-16
 -1      2621 8.52977E-04 2.63756E-04-7.45525E-16
 -1      2622 5.86137E-03 3.99997E-04-2.64963E-14
 -1      2623 6.03831E-03 3.06411E-04-2.72800E-14
 -1      2624 5.78887E-03 4.43342E-04-2.67570E-14
 -1      2625 4.03192E-03 8.32191E-04-1.58380E-14
 -1      2626 6.55421E-04-8.83897E-05-7.72697E-16
 -1      2627 5.46938E-04-8.11448E-05-5.62891E-16
 -1      2628 5.57301E-04-9.87433E-05-5.47224E-16
 -1      2629 1.43126E-03 3.56584E-04-2.02398E-15
 -1      2630 5.95124E-04 1.80686E-04-4.36757E-16
 -1      2631 5.83668E-04-1.35710E-04-5.21149E-16
 -1      2632 6.29081E-03-2.03497E-04-2.90188E-14
 -1      2633 5.54255E-03-6.00537E-04-2.56541E-14
 -1      2634 6.59919E-03-8.71729E-05-3.00173E-14
 -1      2635 5.14833E-03-8.34018E-04-2.33658E-14
 -1      2636 1.45899E-02 4.98532E-04-1.79708E-13
 -1      2637 6.15654E-03 2.52543E-04-2.83508E-14
 -1      2638 1.45743E-02 4.65464E-04-1.79401E-13
 -1      2639 4.54439E-03-1.01348E-03-1.91727E-14
 -1      2640 6.87759E-03-5.40063E-06-3.08347E-14
 -1      2641 6.79217E-03 2.15699E-05-3.06572E-14
 -1      2642 6.52704E-03 1.00495E-04-2.97462E-14
 -1      2643 3.16044E-03-3.38477E-04-1.26648E-14
 -1      2644 7.13924E-04 1.96030E-04-6.29583E-16
 -1      2645 5.00662E-03 8.95618E-04-2.22425E-14
 -1      2646 1.45222E-02-5.59877E-04-1.78033E-13
 -1      2647 1.45675E-02-5.06866E-04-1.79022E-13
 -1      2648 1.44435E-02-4.85351E-04-1.76462E-13
 -1      2649 1.43942E-02-5.57747E-04-1.75377E-13
 -1      2650 6.80555E-03-2.87452E-05-3.05290E-14
 -1      2651 2.29237E-03-9.49216E-06-1.11483E-14
 -1      2652 2.26665E-03-4.96359E-06-1.07052E-14
 -1      2653 2.31286E-03-1.55041E-05-1.09307E-14
 -1      2654 2.52727E-03-7.89164E-05-1.09702E-14
 -1      2655 2.48391E-03-5.81081E-05-1.13937E-14
 -1      2656 2.40047E-03-3.99086E-05-1.09613E-14
 -1      2657 3.29925E-03 4.01700E-04-1.31851E-14
 -1      2658 3.94263E-03-7.85571E-04-1.55658E-14
 -1      2659 4.31413E-03 9.64977E-04-1.73756E-14
 -1      2660 4.40522E-03 9.87461E-04-1.80693E-14
 -1      2661 4.49341E-03 1.00727E-03-1.86181E-14
 -1      2662 4.82357E-03-9.78372E-04-2.11237E-14
 -1      2663 2.89790E-03 2.04575E-04-1.22415E-14
 -1      2664 5.38512E-03 6.81973E-04-2.46263E-14
 -1      2665 5.51688E-03 6.11284E-04-2.56507E-14
 -1      2666 5.29448E-03 7.47626E-04-2.43066E-14
 -1      2667 2.51704E-03 6.26154E-05-1.14816E-14
 -1      2668 2.59868E-03 9.23106E-05-1.13174E-14
 -1      2669 2.43145E-03 4.28518E-05-1.10199E-14
 -1      2670 4.27859E-03-9.52444E-04-1.74276E-14
 -1      2671 1.44507E-02 4.44729E-04-1.76828E-13
 -1      2672 1.43222E-02-5.20376E-04-1.73917E-13
 -1      2673 7.30445E-04 4.42201E-05-1.04930E-15
 -1      2674 7.23377E-04 3.08756E-05-1.05734E-15
 -1      2675 7.18401E-04 1.83257E-05-1.06291E-15
 -1      2676 7.15837E-04 6.42522E-06-1.06604E-15
 -1      2677 8.26263E-04 2.78077E-05-1.34081E-15
 -1      2678 7.78764E-04 1.15685E-04-9.85892E-16
 -1      2679 7.64090E-04 9.45568E-05-1.00758E-15
 -1      2680 8.12932E-04 1.66114E-04-9.29202E-16
 -1      2681 7.95154E-04 1.39455E-04-9.60319E-16
 -1      2682 9.05486E-04 1.43306E-04-1.23754E-15
 -1      2683 1.17554E-03 2.87693E-04-1.50417E-15
 -1      2684 1.02497E-03 2.63555E-04-1.16819E-15
 -1      2685 4.93390E-03 9.38129E-04-2.18480E-14
 -1      2686 5.07860E-03 8.70143E-04-2.29053E-14
 -1      2687 5.73011E-03 4.89524E-04-2.69289E-14
 -1      2688 5.88397E-03 4.02138E-04-2.77247E-14
 -1      2689 8.30603E-04 2.16607E-04-8.29713E-16
 -1      2690 3.94747E-03 8.02931E-04-1.51113E-14
 -1      2691 4.12172E-03 8.93988E-04-1.60948E-14
 -1      2692 1.36119E-03-2.83028E-04-2.15234E-15
 -1      2693 1.51086E-03-3.01169E-04-2.60942E-15
 -1      2694 1.66135E-03-3.18748E-04-3.11154E-15
 -1      2695 1.81300E-03-3.36479E-04-3.65911E-15
 -1      2696 1.55382E-03-2.73942E-04-2.91176E-15
 -1      2697 1.96612E-03-3.55238E-04-4.25188E-15
 -1      2698 2.12101E-03-3.75975E-04-4.88997E-15
 -1      2699 1.85198E-03-3.06271E-04-4.01361E-15
 -1      2700 2.27827E-03-3.99466E-04-5.57314E-15
 -1      2701 2.43807E-03-4.26951E-04-6.30098E-15
 -1      2702 2.15704E-03-3.43560E-04-5.29393E-15
 -1      2703 2.60131E-03-4.59023E-04-7.07404E-15
 -1      2704 2.76772E-03-4.97168E-04-7.89249E-15
 -1      2705 2.47306E-03-3.93103E-04-6.75223E-15
 -1      2706 2.93845E-03-5.41653E-04-8.75631E-15
 -1      2707 3.11226E-03-5.93680E-04-9.66612E-15
 -1      2708 2.80485E-03-4.63448E-04-8.38854E-15
 -1      2709 3.29027E-03-6.52828E-04-1.06219E-14
 -1      2710 3.46971E-03-7.18929E-04-1.16244E-14
 -1      2711 3.15587E-03-5.63283E-04-1.02044E-14
 -1      2712 3.65130E-03-7.90879E-04-1.26760E-14
 -1      2713 3.83102E-03-8.63956E-04-1.37769E-14
 -1      2714 3.52347E-03-6.97473E-04-1.22050E-14
 -1      2715 4.00836E-03-9.34979E-04-1.49282E-14
 -1      2716 4.18180E-03-9.95837E-04-1.61310E-14
 -1      2717 3.89583E-03-8.54945E-04-1.44003E-14
 -1      2718 4.34974E-03-1.04286E-03-1.73873E-14
 -1      2719 4.51576E-03-1.06710E-03-1.86957E-14
 -1      2720 4.25437E-03-9.92843E-04-1.68011E-14
 -1      2721 4.67843E-03-1.06680E-03-2.00580E-14
 -1      2722 4.84458E-03-1.04228E-03-2.14731E-14
 -1      2723 4.59557E-03-1.04969E-03-1.94178E-14
 -1      2724 5.01250E-03-9.95084E-04-2.29385E-14
 -1      2725 5.18611E-03-9.34147E-04-2.44540E-14
 -1      2726 4.93677E-03-9.92243E-04-2.22485E-14
 -1      2727 5.36375E-03-8.63106E-04-2.60150E-14
 -1      2728 5.54375E-03-7.90759E-04-2.76227E-14
 -1      2729 5.29537E-03-8.53780E-04-2.52831E-14
 -1      2730 5.72545E-03-7.20227E-04-2.92727E-14
 -1      2731 5.90516E-03-6.55435E-04-3.09644E-14
 -1      2732 5.66748E-03-6.98214E-04-2.85022E-14
 -1      2733 6.08340E-03-5.98079E-04-3.26959E-14
 -1      2734 6.25743E-03-5.48546E-04-3.44657E-14
 -1      2735 6.03513E-03-5.66714E-04-3.18893E-14
 -1      2736 6.42831E-03-5.07337E-04-3.62731E-14
 -1      2737 6.59487E-03-4.73235E-04-3.81171E-14
 -1      2738 6.38573E-03-4.71728E-04-3.54308E-14
 -1      2739 6.75821E-03-4.46188E-04-3.99980E-14
 -1      2740 6.91806E-03-4.24814E-04-4.19138E-14
 -1      2741 6.71693E-03-4.09347E-04-3.91192E-14
 -1      2742 7.07527E-03-4.08786E-04-4.38663E-14
 -1      2743 7.22999E-03-3.96995E-04-4.58536E-14
 -1      2744 7.03217E-03-3.71758E-04-4.29510E-14
 -1      2745 7.38280E-03-3.89003E-04-4.78751E-14
 -1      2746 7.53394E-03-3.84014E-04-4.99315E-14
 -1      2747 7.33614E-03-3.51907E-04-4.69217E-14
 -1      2748 7.68374E-03-3.81579E-04-5.20231E-14
 -1      2749 7.83247E-03-3.81161E-04-5.41464E-14
 -1      2750 7.63287E-03-3.44290E-04-5.10325E-14
 -1      2751 7.98029E-03-3.82360E-04-5.63025E-14
 -1      2752 8.12741E-03-3.84818E-04-5.84907E-14
 -1      2753 7.92523E-03-3.44779E-04-5.52790E-14
 -1      2754 8.27388E-03-3.88212E-04-6.07084E-14
 -1      2755 8.41990E-03-3.92307E-04-6.29549E-14
 -1      2756 8.21503E-03-3.50332E-04-5.96505E-14
 -1      2757 8.56545E-03-3.96861E-04-6.52313E-14
 -1      2758 8.71069E-03-4.01725E-04-6.75339E-14
 -1      2759 8.50337E-03-3.58741E-04-6.41416E-14
 -1      2760 8.85559E-03-4.06728E-04-6.98638E-14
 -1      2761 9.00025E-03-4.11776E-04-7.22219E-14
 -1      2762 8.79086E-03-3.68452E-04-6.87452E-14
 -1      2763 9.14466E-03-4.16763E-04-7.46068E-14
 -1      2764 9.28889E-03-4.21630E-04-7.70170E-14
 -1      2765 9.07784E-03-3.78419E-04-7.34575E-14
 -1      2766 9.43292E-03-4.26317E-04-7.94519E-14
 -1      2767 9.57682E-03-4.30792E-04-8.19101E-14
 -1      2768 9.36450E-03-3.87977E-04-7.82759E-14
 -1      2769 9.72055E-03-4.35026E-04-8.43917E-14
 -1      2770 9.86419E-03-4.39005E-04-8.68975E-14
 -1      2771 9.65094E-03-3.96742E-04-8.31909E-14
 -1      2772 1.00077E-02-4.42724E-04-8.94241E-14
 -1      2773 1.01511E-02-4.46178E-04-9.19745E-14
 -1      2774 9.93722E-03-4.04529E-04-8.81979E-14
 -1      2775 1.02945E-02-4.49375E-04-9.45485E-14
 -1      2776 1.04377E-02-4.52319E-04-9.71417E-14
 -1      2777 1.02234E-02-4.11287E-04-9.32958E-14
 -1      2778 1.05809E-02-4.55026E-04-9.97621E-14
 -1      2779 1.07241E-02-4.57502E-04-1.02402E-13
 -1      2780 1.05094E-02-4.17049E-04-9.84841E-14
 -1      2781 1.08672E-02-4.59768E-04-1.05061E-13
 -1      2782 1.10102E-02-4.61832E-04-1.07744E-13
 -1      2783 1.07954E-02-4.21898E-04-1.03760E-13
 -1      2784 1.11533E-02-4.63715E-04-1.10446E-13
 -1      2785 1.12963E-02-4.65426E-04-1.13169E-13
 -1      2786 1.10813E-02-4.25944E-04-1.09121E-13
 -1      2787 1.14392E-02-4.66986E-04-1.15910E-13
 -1      2788 1.15822E-02-4.68404E-04-1.18668E-13
 -1      2789 1.13672E-02-4.29303E-04-1.14563E-13
 -1      2790 1.17251E-02-4.69698E-04-1.21444E-13
 -1      2791 1.18680E-02-4.70877E-04-1.24234E-13
 -1      2792 1.16530E-02-4.32090E-04-1.20079E-13
 -1      2793 1.20109E-02-4.71956E-04-1.27042E-13
 -1      2794 1.21538E-02-4.72944E-04-1.29867E-13
 -1      2795 1.19388E-02-4.34411E-04-1.25664E-13
 -1      2796 1.22966E-02-4.73854E-04-1.32701E-13
 -1      2797 1.24395E-02-4.74693E-04-1.35546E-13
 -1      2798 1.22245E-02-4.36359E-04-1.31309E-13
 -1      2799 1.25824E-02-4.75471E-04-1.38408E-13
 -1      2800 1.27252E-02-4.76195E-04-1.41280E-13
 -1      2801 1.25103E-02-4.38017E-04-1.37003E-13
 -1      2802 1.28681E-02-4.76875E-04-1.44162E-13
 -1      2803 1.30109E-02-4.77514E-04-1.47053E-13
 -1      2804 1.27960E-02-4.39452E-04-1.42748E-13
 -1      2805 1.31538E-02-4.78121E-04-1.49952E-13
 -1      2806 1.32966E-02-4.78699E-04-1.52862E-13
 -1      2807 1.30818E-02-4.40721E-04-1.48530E-13
 -1      2808 1.34395E-02-4.79255E-04-1.55781E-13
 -1      2809 1.35823E-02-4.79792E-04-1.58706E-13
 -1      2810 1.33675E-02-4.41871E-04-1.54348E-13
 -1      2811 1.37252E-02-4.80314E-04-1.61636E-13
 -1      2812 1.38680E-02-4.80826E-04-1.64572E-13
 -1      2813 1.36532E-02-4.42940E-04-1.60196E-13
 -1      2814 1.40109E-02-4.81330E-04-1.67515E-13
 -1      2815 1.41537E-02-4.81830E-04-1.70465E-13
 -1      2816 1.39389E-02-4.43959E-04-1.66068E-13
 -1      2817 2.41196E-03 4.60210E-04-5.82569E-15
 -1      2818 2.25193E-03 4.32426E-04-5.12775E-15
 -1      2819 6.85550E-03-2.09374E-05-3.15537E-14
 -1      2820 6.79113E-03-3.52713E-05-3.13912E-14
 -1      2821 2.09392E-03 4.08310E-04-4.47476E-15
 -1      2822 1.93792E-03 3.86820E-04-3.86643E-15
 -1      2823 2.13303E-03 3.76783E-04-4.87802E-15
 -1      2824 3.07929E-03 6.23650E-04-9.06632E-15
 -1      2825 2.90857E-03 5.73532E-04-8.18856E-15
 -1      2826 3.42769E-03 7.42187E-04-1.09595E-14
 -1      2827 3.25300E-03 6.79996E-04-9.98969E-15
 -1      2828 3.12570E-03 5.95864E-04-9.61495E-15
 -1      2829 3.77833E-03 8.76367E-04-1.30412E-14
 -1      2830 3.60373E-03 8.08670E-04-1.19767E-14
 -1      2831 3.48302E-03 7.21277E-04-1.15544E-14
 -1      2832 4.12031E-03 1.00085E-03-1.53194E-14
 -1      2833 3.95089E-03 9.42677E-04-1.41552E-14
 -1      2834 3.84303E-03 8.64709E-04-1.36831E-14
 -1      2835 4.44830E-03 1.07607E-03-1.78013E-14
 -1      2836 4.28534E-03 1.04751E-03-1.65347E-14
 -1      2837 4.19230E-03 9.93564E-04-1.60094E-14
 -1      2838 4.76905E-03 1.07109E-03-2.04905E-14
 -1      2839 4.60745E-03 1.08421E-03-1.91201E-14
 -1      2840 4.52542E-03 1.05859E-03-1.85437E-14
 -1      2841 5.09797E-03 9.88039E-04-2.33845E-14
 -1      2842 4.93112E-03 1.03719E-03-2.19124E-14
 -1      2843 4.85456E-03 1.02815E-03-2.12866E-14
 -1      2844 5.44155E-03 8.60450E-04-2.64750E-14
 -1      2845 5.26818E-03 9.26860E-04-2.49058E-14
 -1      2846 5.19704E-03 9.18082E-04-2.42354E-14
 -1      2847 5.79319E-03 7.26893E-04-2.97517E-14
 -1      2848 5.61737E-03 7.92219E-04-2.80905E-14
 -1      2849 5.55463E-03 7.75009E-04-2.73785E-14
 -1      2850 6.14224E-03 6.12670E-04-3.31983E-14
 -1      2851 5.96896E-03 6.66598E-04-3.14547E-14
 -1      2852 5.91509E-03 6.40581E-04-3.07034E-14
 -1      2853 6.48187E-03 5.26386E-04-3.68070E-14
 -1      2854 6.31373E-03 5.66054E-04-3.49825E-14
 -1      2855 6.26622E-03 5.34538E-04-3.41947E-14
 -1      2856 6.81021E-03 4.67247E-04-4.05627E-14
 -1      2857 6.64759E-03 4.93784E-04-3.86675E-14
 -1      2858 6.60269E-03 4.59458E-04-3.78413E-14
 -1      2859 7.12841E-03 4.30463E-04-4.44653E-14
 -1      2860 6.97054E-03 4.46469E-04-4.24962E-14
 -1      2861 6.92505E-03 4.10754E-04-4.16352E-14
 -1      2862 7.43862E-03 4.10513E-04-4.85098E-14
 -1      2863 7.28441E-03 4.18738E-04-4.64700E-14
 -1      2864 7.23629E-03 3.82179E-04-4.55715E-14
 -1      2865 7.74285E-03 4.02425E-04-5.26921E-14
 -1      2866 7.59137E-03 4.05266E-04-5.05850E-14
 -1      2867 7.53964E-03 3.68059E-04-4.96502E-14
 -1      2868 8.04267E-03 4.02165E-04-5.70071E-14
 -1      2869 7.89322E-03 4.01524E-04-5.48328E-14
 -1      2870 7.83769E-03 3.63797E-04-5.38646E-14
 -1      2871 8.33921E-03 4.06670E-04-6.14452E-14
 -1      2872 8.19128E-03 4.03971E-04-5.92104E-14
 -1      2873 8.13220E-03 3.65858E-04-5.82090E-14
 -1      2874 8.63326E-03 4.13729E-04-6.60011E-14
 -1      2875 8.48649E-03 4.09983E-04-6.37094E-14
 -1      2876 8.42435E-03 3.71629E-04-6.26753E-14
 -1      2877 8.92537E-03 4.21818E-04-7.06668E-14
 -1      2878 8.77951E-03 4.17713E-04-6.83191E-14
 -1      2879 8.71486E-03 3.79253E-04-6.72571E-14
 -1      2880 9.21596E-03 4.29948E-04-7.54368E-14
 -1      2881 9.07082E-03 4.25921E-04-7.30391E-14
 -1      2882 9.00420E-03 3.87466E-04-7.19464E-14
 -1      2883 9.50536E-03 4.37516E-04-8.03072E-14
 -1      2884 9.36078E-03 4.33827E-04-7.78596E-14
 -1      2885 9.29266E-03 3.95458E-04-7.67391E-14
 -1      2886 9.79381E-03 4.44196E-04-8.52823E-14
 -1      2887 9.64968E-03 4.40980E-04-8.27836E-14
 -1      2888 9.58044E-03 4.02748E-04-8.16328E-14
 -1      2889 1.00815E-02 4.49850E-04-9.03502E-14
 -1      2890 9.93774E-03 4.47156E-04-8.78041E-14
 -1      2891 9.86771E-03 4.09089E-04-8.66278E-14
 -1      2892 1.03687E-02 4.54463E-04-9.55161E-14
 -1      2893 1.02251E-02 4.52287E-04-9.29216E-14
 -1      2894 1.01546E-02 4.14392E-04-9.17168E-14
 -1      2895 1.06554E-02 4.58093E-04-1.00773E-13
 -1      2896 1.05121E-02 4.56397E-04-9.81336E-14
 -1      2897 1.04411E-02 4.18670E-04-9.69003E-14
 -1      2898 1.09418E-02 4.60837E-04-1.06123E-13
 -1      2899 1.07986E-02 4.59570E-04-1.03436E-13
 -1      2900 1.07274E-02 4.21998E-04-1.02177E-13
 -1      2901 1.12279E-02 4.62812E-04-1.11556E-13
 -1      2902 1.10849E-02 4.61915E-04-1.08829E-13
 -1      2903 1.10136E-02 4.24479E-04-1.07545E-13
 -1      2904 1.15139E-02 4.64139E-04-1.17074E-13
 -1      2905 1.13709E-02 4.63551E-04-1.14305E-13
 -1      2906 1.12996E-02 4.26233E-04-1.12998E-13
 -1      2907 1.17998E-02 4.64931E-04-1.22666E-13
 -1      2908 1.16568E-02 4.64596E-04-1.19861E-13
 -1      2909 1.15855E-02 4.27378E-04-1.18531E-13
 -1      2910 1.20855E-02 4.65292E-04-1.28329E-13
 -1      2911 1.19427E-02 4.65160E-04-1.25489E-13
 -1      2912 1.18713E-02 4.28022E-04-1.24138E-13
 -1      2913 1.23713E-02 4.65311E-04-1.34049E-13
 -1      2914 1.22284E-02 4.65340E-04-1.31183E-13
 -1      2915 1.21571E-02 4.28267E-04-1.29810E-13
 -1      2916 1.26570E-02 4.65068E-04-1.39821E-13
 -1      2917 1.25141E-02 4.65219E-04-1.36929E-13
 -1      2918 1.24428E-02 4.28196E-04-1.35539E-13
 -1      2919 1.29426E-02 4.64625E-04-1.45630E-13
 -1      2920 1.27998E-02 4.64868E-04-1.42722E-13
 -1      2921 1.27285E-02 4.27884E-04-1.41317E-13
 -1      2922 1.32283E-02 4.64036E-04-1.51478E-13
 -1      2923 1.30855E-02 4.64346E-04-1.48551E-13
 -1      2924 1.30142E-02 4.27390E-04-1.47134E-13
 -1      2925 1.35140E-02 4.63346E-04-1.57353E-13
 -1      2926 1.33711E-02 4.63701E-04-1.54411E-13
 -1      2927 1.32999E-02 4.26765E-04-1.52985E-13
 -1      2928 1.37997E-02 4.62589E-04-1.63261E-13
 -1      2929 1.36568E-02 4.62974E-04-1.60303E-13
 -1      2930 1.35856E-02 4.26050E-04-1.58865E-13
 -1      2931 1.40853E-02 4.61797E-04-1.69193E-13
 -1      2932 1.39425E-02 4.62196E-04-1.66224E-13
 -1      2933 1.38713E-02 4.25277E-04-1.64777E-13
 -1      2934 1.43395E-02 4.53062E-04-1.74499E-13
 -1      2935 1.41966E-02 4.53464E-04-1.71518E-13
 -1      2936 1.41255E-02 4.16544E-04-1.70063E-13
 -1      2937 1.43480E-02 3.99870E-04-1.74710E-13
 -1      2938 6.08574E-03 2.96951E-04-2.87126E-14
 -1      2939 6.27510E-03 2.07674E-04-2.95319E-14
 -1      2940 1.43389E-02-7.32652E-06-1.74592E-13
 -1      2941 1.43385E-02 3.48527E-05-1.74591E-13
 -1      2942 1.42503E-02-4.83003E-04-1.72463E-13
 -1      2943 1.43469E-02-4.84176E-04-1.74460E-13
 -1      2944 1.41784E-02-4.45630E-04-1.71008E-13
 -1      2945 1.43374E-02 1.61386E-04-1.74567E-13
 -1      2946 1.43370E-02 2.03561E-04-1.74554E-13
 -1      2947 1.43399E-02-9.16856E-05-1.74586E-13
 -1      2948 1.43394E-02-4.95064E-05-1.74593E-13
 -1      2949 1.42154E-02-2.80257E-05-1.72025E-13
 -1      2950 1.43381E-02 7.70318E-05-1.74586E-13
 -1      2951 1.43377E-02 1.19209E-04-1.74577E-13
 -1      2952 1.42138E-02 1.40670E-04-1.72003E-13
 -1      2953 1.42146E-02 5.63233E-05-1.72020E-13
 -1      2954 1.43408E-02-1.74613E-04-1.74567E-13
 -1      2955 1.43403E-02-1.33150E-04-1.74578E-13
 -1      2956 1.42163E-02-1.11660E-04-1.72017E-13
 -1      2957 1.43419E-02-2.58964E-04-1.74540E-13
 -1      2958 1.43413E-02-2.16789E-04-1.74555E-13
 -1      2959 1.42173E-02-1.95292E-04-1.71998E-13
 -1      2960 1.43430E-02-3.43306E-04-1.74500E-13
 -1      2961 1.43424E-02-3.01136E-04-1.74521E-13
 -1      2962 1.42184E-02-2.79633E-04-1.71969E-13
 -1      2963 5.67998E-03-5.34789E-04-2.69571E-14
 -1      2964 5.47135E-03-6.62917E-04-2.57760E-14
 -1      2965 6.46709E-03 1.27315E-04-3.02535E-14
 -1      2966 6.62172E-03 7.47239E-05-3.08477E-14
 -1      2967 6.89646E-03-3.66338E-06-3.18498E-14
 -1      2968 6.89052E-03-9.75156E-06-3.17031E-14
 -1      2969 6.89741E-03-1.64567E-05-3.25757E-14
 -1      2970 4.66537E-03 1.01091E-03-1.98470E-14
 -1      2971 4.78822E-03 9.87464E-04-2.07805E-14
 -1      2972 3.16408E-03 3.40125E-04-1.24188E-14
 -1      2973 3.34808E-03 4.42982E-04-1.28881E-14
 -1      2974 6.77066E-03 3.25785E-05-3.16613E-14
 -1      2975 6.85885E-03 1.22279E-05-3.19906E-14
 -1      2976 3.24855E-03-4.01319E-04-1.24927E-14
 -1      2977 3.04331E-03-2.98160E-04-1.18666E-14
 -1      2978 1.78340E-03 3.67064E-04-3.30327E-15
 -1      2979 1.63016E-03 3.48186E-04-2.78542E-15
 -1      2980 1.82486E-03 3.37098E-04-3.65485E-15
 -1      2981 2.74000E-03 5.30010E-04-7.35626E-15
 -1      2982 2.57478E-03 4.92345E-04-6.56872E-15
 -1      2983 2.45047E-03 4.28099E-04-6.27936E-15
 -1      2984 2.78070E-03 4.98821E-04-7.85754E-15
 -1      2985 1.06406E-03-2.41837E-04-1.37452E-15
 -1      2986 1.21237E-03-2.63429E-04-1.74085E-15
 -1      2987 1.25992E-03-2.40368E-04-1.98951E-15
 -1      2988 1.47794E-03 3.29188E-04-2.31290E-15
 -1      2989 1.32638E-03 3.09368E-04-1.88560E-15
 -1      2990 1.22442E-03 2.64449E-04-1.74536E-15
 -1      2991 1.52275E-03 3.01854E-04-2.61007E-15
 -1      2992 6.98194E-04-1.47679E-04-7.26741E-16
 -1      2993 6.39216E-03-1.70326E-04-3.01704E-14
 -1      2994 6.23233E-03-2.38677E-04-2.95159E-14
 -1      2995 7.51006E-04 7.58466E-05-1.02481E-15
 -1      2996 7.39764E-04 5.91344E-05-1.03858E-15
 -1      2997 8.43578E-04 5.86979E-05-1.32118E-15
 -1      2998 8.70517E-04 9.63115E-05-1.28784E-15
 -1      2999 4.02226E-03-8.44381E-04-1.57278E-14
 -1      3000 3.83342E-03-7.33904E-04-1.47846E-14
 -1      3001 1.43715E-02-4.47973E-04-1.75004E-13
 -1      3002 7.38893E-04-5.76514E-05-1.04640E-15
 -1      3003 7.49990E-04-7.41553E-05-1.03430E-15
 -1      3004 3.54652E-03 5.59705E-04-1.34826E-14
 -1      3005 3.71028E-03 6.63251E-04-1.40624E-14
 -1      3006 4.37365E-03-9.93045E-04-1.79171E-14
 -1      3007 4.24158E-03-9.47335E-04-1.70129E-14
 -1      3008 2.27190E-03 6.82893E-06-1.05249E-14
 -1      3009 2.31923E-03 1.59957E-05-1.06507E-14
 -1      3010 3.63097E-03-6.17335E-04-1.38764E-14
 -1      3011 3.46432E-03-5.19439E-04-1.32331E-14
 -1      3012 6.69493E-03-6.51701E-05-3.13377E-14
 -1      3013 6.57192E-03-1.04158E-04-3.09777E-14
 -1      3014 4.88512E-03-9.65831E-04-2.16846E-14
 -1      3015 4.73863E-03-1.00786E-03-2.05685E-14
 -1      3016 2.82379E-03-1.97166E-04-1.13249E-14
 -1      3017 2.67741E-03-1.38298E-04-1.10221E-14
 -1      3018 2.79399E-03 1.69990E-04-1.15217E-14
 -1      3019 2.97729E-03 2.48054E-04-1.19660E-14
 -1      3020 3.03333E-03 2.95716E-04-1.16832E-14
 -1      3021 4.61270E-03-1.02242E-03-1.96387E-14
 -1      3022 4.49900E-03-1.01628E-03-1.87974E-14
 -1      3023 4.44703E-03-1.01777E-03-1.83575E-14
 -1      3024 4.68401E-03-1.02341E-03-2.01713E-14
 -1      3025 6.04554E-03-3.30257E-04-2.87319E-14
 -1      3026 5.88430E-03-4.15724E-04-2.79485E-14
 -1      3027 5.23553E-03-7.99120E-04-2.42403E-14
 -1      3028 5.07527E-03-8.87720E-04-2.31086E-14
 -1      3029 7.62965E-04-9.26361E-05-1.01912E-15
 -1      3030 7.77492E-04-1.13404E-04-1.00011E-15
 -1      3031 8.69156E-04-9.42634E-05-1.30129E-15
 -1      3032 8.20104E-04 5.31742E-07-1.34867E-15
 -1      3033 7.15710E-04-5.24184E-06-1.06698E-15
 -1      3034 7.18027E-04-1.70903E-05-1.06550E-15
 -1      3035 5.13264E-03 8.66931E-04-2.34723E-14
 -1      3036 5.20513E-03 8.11704E-04-2.38900E-14
 -1      3037 5.33274E-03 7.51164E-04-2.48953E-14
 -1      3038 6.02319E-03 3.47076E-04-2.88887E-14
 -1      3039 8.85048E-04 2.01160E-04-1.00477E-15
 -1      3040 3.81509E-03 7.45643E-04-1.42949E-14
 -1      3041 3.72105E-03-6.91607E-04-1.40195E-14
 -1      3042 2.67372E-03 1.28751E-04-1.10544E-14
 -1      3043 2.73711E-03 1.71522E-04-1.07867E-14
 -1      3044 2.56346E-03 9.91249E-05-1.05976E-14
 -1      3045 2.91023E-03-2.57704E-04-1.11585E-14
 -1      3046 1.42131E-02 2.24653E-04-1.71975E-13
 -1      3047 1.43367E-02 2.45376E-04-1.74540E-13
 -1      3048 1.43363E-02 2.87188E-04-1.74520E-13
 -1      3049 6.77529E-03-5.23981E-05-3.23685E-14
 -1      3050 4.98423E-03-9.40008E-04-2.25185E-14
 -1      3051 9.99222E-04 2.05330E-04-1.29405E-15
 -1      3052 1.43423E-02 3.22628E-04-1.74631E-13
 -1      3053 1.43420E-02 3.64435E-04-1.74605E-13
 -1      3054 1.42307E-02 3.72775E-04-1.72283E-13
 -1      3055 1.42187E-02 3.01903E-04-1.72069E-13
 -1      3056 6.39869E-03 1.69641E-04-3.06258E-14
 -1      3057 3.32406E-03-4.67826E-04-1.24031E-14
 -1      3058 5.38624E-03-7.35274E-04-2.54988E-14
 -1      3059 5.80066E-03-4.89520E-04-2.80706E-14
 -1      3060 1.43710E-02-4.05812E-04-1.75030E-13
 -1      3061 6.73089E-03 5.38879E-05-3.21811E-14
 -1      3062 6.90655E-03 5.64081E-06-3.28694E-14
 -1      3063 4.12493E-03-9.08382E-04-1.61795E-14
 -1      3064 2.33480E-03-2.90714E-05-1.05180E-14
 -1      3065 2.23739E-03-4.66680E-06-1.00978E-14
 -1      3066 2.24720E-03-1.04173E-07-1.03105E-14
 -1      3067 2.23546E-03 5.41052E-06-9.92080E-15
 -1      3068 4.56970E-03 1.01872E-03-1.91099E-14
 -1      3069 2.56682E-03-1.04798E-04-1.05939E-14
 -1      3070 2.46614E-03-8.13627E-05-1.01737E-14
 -1      3071 2.59493E-03-1.35334E-04-1.02167E-14
 -1      3072 4.86880E-03 9.72383E-04-2.14131E-14
 -1      3073 4.21615E-03 9.43009E-04-1.66016E-14
 -1      3074 3.39878E-03 4.95406E-04-1.26973E-14
 -1      3075 6.16965E-03-2.88306E-04-2.98731E-14
 -1      3076 5.62617E-03 5.64793E-04-2.65940E-14
 -1      3077 8.02758E-04-1.42225E-04-9.84537E-16
 -1      3078 8.40251E-04-1.90387E-04-9.42754E-16
 -1      3079 9.76781E-04-2.18863E-04-1.20842E-15
 -1      3080 9.13240E-04-1.46095E-04-1.26553E-15
 -1      3081 7.22744E-04-2.94805E-05-1.06156E-15
 -1      3082 7.29725E-04-4.29086E-05-1.05531E-15
 -1      3083 8.42554E-04-5.71104E-05-1.32979E-15
 -1      3084 8.25729E-04-2.65856E-05-1.34493E-15
 -1      3085 6.52153E-03-1.37541E-04-3.14872E-14
 -1      3086 2.36267E-03 3.12729E-05-1.04908E-14
 -1      3087 2.41622E-03 5.15016E-05-1.03291E-14
 -1      3088 2.30195E-03 2.58973E-05-9.97341E-15
 -1      3089 1.02818E-03-2.00648E-04-1.41333E-15
 -1      3090 1.42127E-02-4.14968E-04-1.71744E-13
 -1      3091 1.43087E-02-3.73975E-04-1.73763E-13
 -1      3092 1.41847E-02-3.52469E-04-1.71216E-13
 -1      3093 1.41161E-02-4.13798E-04-1.69748E-13
 -1      3094 3.66225E-03 6.83145E-04-1.33407E-14
 -1      3095 3.87723E-03 8.09913E-04-1.43526E-14
 -1      3096 1.03645E-03 1.72462E-04-1.51703E-15
 -1      3097 1.01423E-03 1.44064E-04-1.55179E-15
 -1      3098 1.16268E-03-2.01114E-04-1.82692E-15
 -1      3099 1.30590E-03-2.17394E-04-2.24759E-15
 -1      3100 1.74069E-03-2.60891E-04-3.77592E-15
 -1      3101 1.88818E-03-2.75675E-04-4.37438E-15
 -1      3102 2.03753E-03-2.91652E-04-5.01683E-15
 -1      3103 2.18939E-03-3.10008E-04-5.70326E-15
 -1      3104 1.92130E-03-2.44444E-04-4.74191E-15
 -1      3105 2.34448E-03-3.31214E-04-6.43306E-15
 -1      3106 2.50343E-03-3.57089E-04-7.20699E-15
 -1      3107 2.21773E-03-2.74953E-04-6.11724E-15
 -1      3108 2.66746E-03-3.87985E-04-8.02448E-15
 -1      3109 2.83667E-03-4.26545E-04-8.88672E-15
 -1      3110 2.52882E-03-3.18464E-04-7.66524E-15
 -1      3111 3.01292E-03-4.72665E-04-9.79232E-15
 -1      3112 3.19466E-03-5.29599E-04-1.07428E-14
 -1      3113 2.86298E-03-3.86315E-04-9.38628E-15
 -1      3114 4.20185E-03-9.61380E-04-1.65194E-14
 -1      3115 4.37993E-03-1.01504E-03-1.77858E-14
 -1      3116 4.78249E-03-1.01816E-03-2.09644E-14
 -1      3117 4.96110E-03-9.67179E-04-2.24121E-14
 -1      3118 5.13722E-03-8.94716E-04-2.38593E-14
 -1      3119 5.32610E-03-8.11220E-04-2.54063E-14
 -1      3120 5.61232E-03-6.74844E-04-2.77293E-14
 -1      3121 5.80370E-03-5.98010E-04-2.93858E-14
 -1      3122 5.99238E-03-5.32055E-04-3.10819E-14
 -1      3123 6.17341E-03-4.77019E-04-3.28168E-14
 -1      3124 5.95562E-03-4.95499E-04-3.02746E-14
 -1      3125 6.34905E-03-4.33255E-04-3.45896E-14
 -1      3126 6.51767E-03-3.97789E-04-3.63978E-14
 -1      3127 6.31851E-03-3.91615E-04-3.37479E-14
 -1      3128 6.68103E-03-3.70740E-04-3.82421E-14
 -1      3129 6.83930E-03-3.49537E-04-4.01214E-14
 -1      3130 6.65082E-03-3.29822E-04-3.73664E-14
 -1      3131 6.99368E-03-3.34056E-04-4.20371E-14
 -1      3132 7.14478E-03-3.22605E-04-4.39874E-14
 -1      3133 6.95998E-03-2.95261E-04-4.11253E-14
 -1      3134 7.29337E-03-3.14959E-04-4.59725E-14
 -1      3135 7.44006E-03-3.10067E-04-4.79911E-14
 -1      3136 7.25455E-03-2.77894E-04-4.50244E-14
 -1      3137 7.58529E-03-3.07649E-04-5.00460E-14
 -1      3138 7.72951E-03-3.07089E-04-5.21348E-14
 -1      3139 7.54095E-03-2.71525E-04-4.90617E-14
 -1      3140 7.87295E-03-3.08092E-04-5.42562E-14
 -1      3141 8.01593E-03-3.10290E-04-5.64099E-14
 -1      3142 7.82336E-03-2.72251E-04-5.32361E-14
 -1      3143 8.15852E-03-3.13414E-04-5.85947E-14
 -1      3144 8.30096E-03-3.17237E-04-6.08101E-14
 -1      3145 8.10426E-03-2.77459E-04-5.75416E-14
 -1      3146 8.44324E-03-3.21539E-04-6.30536E-14
 -1      3147 8.58551E-03-3.26182E-04-6.53269E-14
 -1      3148 8.38498E-03-2.85292E-04-6.19688E-14
 -1      3149 8.72774E-03-3.30996E-04-6.76293E-14
 -1      3150 8.87003E-03-3.35899E-04-6.99564E-14
 -1      3151 8.66618E-03-2.94411E-04-6.65126E-14
 -1      3152 9.01233E-03-3.40771E-04-7.23098E-14
 -1      3153 9.15472E-03-3.45567E-04-7.46924E-14
 -1      3154 8.94810E-03-3.03879E-04-7.11658E-14
 -1      3155 9.29713E-03-3.50208E-04-7.71010E-14
 -1      3156 9.43963E-03-3.54671E-04-7.95332E-14
 -1      3157 9.23079E-03-3.13069E-04-7.59268E-14
 -1      3158 9.58216E-03-3.58913E-04-8.19900E-14
 -1      3159 9.72475E-03-3.62926E-04-8.44709E-14
 -1      3160 9.51418E-03-3.21595E-04-8.07901E-14
 -1      3161 9.86738E-03-3.66688E-04-8.69736E-14
 -1      3162 1.00101E-02-3.70203E-04-8.94975E-14
 -1      3163 9.79818E-03-3.29251E-04-8.57497E-14
 -1      3164 1.01528E-02-3.73467E-04-9.20449E-14
 -1      3165 1.02955E-02-3.76487E-04-9.46155E-14
 -1      3166 1.00827E-02-3.35959E-04-9.07972E-14
 -1      3167 1.04383E-02-3.79271E-04-9.72067E-14
 -1      3168 1.05811E-02-3.81828E-04-9.98211E-14
 -1      3169 1.03675E-02-3.41729E-04-9.59334E-14
 -1      3170 1.07239E-02-3.84173E-04-1.02459E-13
 -1      3171 1.08667E-02-3.86317E-04-1.05117E-13
 -1      3172 1.06526E-02-3.46623E-04-1.01157E-13
 -1      3173 1.10096E-02-3.88275E-04-1.07797E-13
 -1      3174 1.11524E-02-3.90061E-04-1.10498E-13
 -1      3175 1.09380E-02-3.50733E-04-1.06475E-13
 -1      3176 1.12953E-02-3.91689E-04-1.13219E-13
 -1      3177 1.14381E-02-3.93173E-04-1.15960E-13
 -1      3178 1.12235E-02-3.54166E-04-1.11874E-13
 -1      3179 1.15810E-02-3.94528E-04-1.18717E-13
 -1      3180 1.17239E-02-3.95763E-04-1.21492E-13
 -1      3181 1.15091E-02-3.57027E-04-1.17355E-13
 -1      3182 1.18667E-02-3.96894E-04-1.24286E-13
 -1      3183 1.20096E-02-3.97929E-04-1.27095E-13
 -1      3184 1.17948E-02-3.59417E-04-1.22907E-13
 -1      3185 1.21525E-02-3.98881E-04-1.29918E-13
 -1      3186 1.22954E-02-3.99758E-04-1.32753E-13
 -1      3187 1.20805E-02-3.61429E-04-1.28527E-13
 -1      3188 1.24382E-02-4.00571E-04-1.35600E-13
 -1      3189 1.25811E-02-4.01326E-04-1.38461E-13
 -1      3190 1.23662E-02-3.63140E-04-1.34198E-13
 -1      3191 1.27240E-02-4.02032E-04-1.41333E-13
 -1      3192 1.28669E-02-4.02695E-04-1.44215E-13
 -1      3193 1.26520E-02-3.64620E-04-1.39918E-13
 -1      3194 1.30097E-02-4.03321E-04-1.47105E-13
 -1      3195 1.31526E-02-4.03916E-04-1.50005E-13
 -1      3196 1.29377E-02-3.65924E-04-1.45681E-13
 -1      3197 1.32955E-02-4.04485E-04-1.52913E-13
 -1      3198 1.34384E-02-4.05033E-04-1.55831E-13
 -1      3199 1.32235E-02-3.67100E-04-1.51480E-13
 -1      3200 1.35812E-02-4.05563E-04-1.58756E-13
 -1      3201 1.37241E-02-4.06079E-04-1.61684E-13
 -1      3202 1.35093E-02-3.68186E-04-1.57311E-13
 -1      3203 1.38486E-02-4.09693E-04-1.64238E-13
 -1      3204 1.39915E-02-4.10193E-04-1.67180E-13
 -1      3205 1.40258E-02-3.79533E-04-1.67914E-13
 -1      3206 1.37767E-02-3.72319E-04-1.62791E-13
 -1      3207 3.16943E-03 5.65175E-04-1.01651E-14
 -1      3208 2.99159E-03 5.10557E-04-9.24143E-15
 -1      3209 4.55508E-03 1.03503E-03-1.88928E-14
 -1      3210 4.38285E-03 1.01425E-03-1.75895E-14
 -1      3211 4.88151E-03 9.96002E-04-2.15348E-14
 -1      3212 4.70922E-03 1.03164E-03-2.01296E-14
 -1      3213 5.31270E-03 8.28506E-04-2.51285E-14
 -1      3214 5.12911E-03 9.04900E-04-2.36000E-14
 -1      3215 6.04417E-03 5.52389E-04-3.16568E-14
 -1      3216 5.86301E-03 6.13171E-04-2.99497E-14
 -1      3217 6.39381E-03 4.58388E-04-3.51926E-14
 -1      3218 6.22188E-03 5.01237E-04-3.34064E-14
 -1      3219 6.18131E-03 4.65514E-04-3.26162E-14
 -1      3220 6.72413E-03 3.96290E-04-3.88772E-14
 -1      3221 6.56142E-03 4.24071E-04-3.70164E-14
 -1      3222 6.52443E-03 3.86355E-04-3.61935E-14
 -1      3223 7.03864E-03 3.58334E-04-4.27058E-14
 -1      3224 6.88313E-03 3.74908E-04-4.07734E-14
 -1      3225 6.84542E-03 3.37724E-04-3.99149E-14
 -1      3226 7.34208E-03 3.37599E-04-4.66773E-14
 -1      3227 7.19149E-03 3.46257E-04-4.46740E-14
 -1      3228 7.15052E-03 3.09956E-04-4.37789E-14
 -1      3229 7.63843E-03 3.28744E-04-5.07901E-14
 -1      3230 7.49093E-03 3.31998E-04-4.87168E-14
 -1      3231 7.44560E-03 2.96223E-04-4.77849E-14
 -1      3232 7.93048E-03 3.27749E-04-5.50361E-14
 -1      3233 7.78484E-03 3.27478E-04-5.28963E-14
 -1      3234 7.73493E-03 2.91829E-04-5.19298E-14
 -1      3235 8.22004E-03 3.31654E-04-5.94095E-14
 -1      3236 8.07547E-03 3.29237E-04-5.72070E-14
 -1      3237 8.02125E-03 2.93450E-04-5.62078E-14
 -1      3238 8.50817E-03 3.38309E-04-6.39044E-14
 -1      3239 8.36422E-03 3.34739E-04-6.16425E-14
 -1      3240 8.30621E-03 2.98701E-04-6.06113E-14
 -1      3241 8.79550E-03 3.46202E-04-6.85107E-14
 -1      3242 8.65189E-03 3.42168E-04-6.61946E-14
 -1      3243 8.59069E-03 3.05873E-04-6.51324E-14
 -1      3244 9.08234E-03 3.54314E-04-7.32246E-14
 -1      3245 8.93895E-03 3.50274E-04-7.08538E-14
 -1      3246 8.87515E-03 3.13768E-04-6.97645E-14
 -1      3247 9.36889E-03 3.62000E-04-7.80379E-14
 -1      3248 9.22563E-03 3.58235E-04-7.56203E-14
 -1      3249 9.15978E-03 3.21586E-04-7.45016E-14
 -1      3250 9.65525E-03 3.68887E-04-8.29557E-14
 -1      3251 9.51208E-03 3.65556E-04-8.04839E-14
 -1      3252 9.44464E-03 3.28826E-04-7.93373E-14
 -1      3253 9.94146E-03 3.74797E-04-8.79687E-14
 -1      3254 9.79836E-03 3.71968E-04-8.54507E-14
 -1      3255 9.72972E-03 3.35211E-04-8.42747E-14
 -1      3256 1.02276E-02 3.79683E-04-9.30789E-14
 -1      3257 1.00845E-02 3.77367E-04-9.05109E-14
 -1      3258 1.00150E-02 3.40621E-04-8.93092E-14
 -1      3259 1.05136E-02 3.83581E-04-9.82833E-14
 -1      3260 1.03706E-02 3.81752E-04-9.56712E-14
 -1      3261 1.03004E-02 3.45041E-04-9.44413E-14
 -1      3262 1.07995E-02 3.86575E-04-1.03580E-13
 -1      3263 1.06566E-02 3.85186E-04-1.00920E-13
 -1      3264 1.05860E-02 3.48526E-04-9.96656E-14
 -1      3265 1.10854E-02 3.88774E-04-1.08968E-13
 -1      3266 1.09425E-02 3.87768E-04-1.06263E-13
 -1      3267 1.08716E-02 3.51165E-04-1.04982E-13
 -1      3268 1.13713E-02 3.90293E-04-1.14437E-13
 -1      3269 1.12284E-02 3.89612E-04-1.11692E-13
 -1      3270 1.11573E-02 3.53066E-04-1.10388E-13
 -1      3271 1.16571E-02 3.91248E-04-1.19985E-13
 -1      3272 1.15142E-02 3.90835E-04-1.17202E-13
 -1      3273 1.14430E-02 3.54343E-04-1.15875E-13
 -1      3274 1.19429E-02 3.91742E-04-1.25604E-13
 -1      3275 1.18000E-02 3.91547E-04-1.22786E-13
 -1      3276 1.17287E-02 3.55103E-04-1.21437E-13
 -1      3277 1.22286E-02 3.91868E-04-1.31288E-13
 -1      3278 1.20858E-02 3.91846E-04-1.28439E-13
 -1      3279 1.20145E-02 3.55445E-04-1.27069E-13
 -1      3280 1.25144E-02 3.91708E-04-1.37027E-13
 -1      3281 1.23715E-02 3.91820E-04-1.34151E-13
 -1      3282 1.23002E-02 3.55455E-04-1.32764E-13
 -1      3283 1.28001E-02 3.91329E-04-1.42809E-13
 -1      3284 1.26573E-02 3.91543E-04-1.39912E-13
 -1      3285 1.25860E-02 3.55206E-04-1.38510E-13
 -1      3286 1.30858E-02 3.90787E-04-1.48636E-13
 -1      3287 1.29430E-02 3.91076E-04-1.45718E-13
 -1      3288 1.28717E-02 3.54762E-04-1.44303E-13
 -1      3289 1.33716E-02 3.90127E-04-1.54488E-13
 -1      3290 1.32287E-02 3.90469E-04-1.51558E-13
 -1      3291 1.31575E-02 3.54172E-04-1.50133E-13
 -1      3292 1.36573E-02 3.89388E-04-1.60376E-13
 -1      3293 1.35144E-02 3.89766E-04-1.57427E-13
 -1      3294 1.34432E-02 3.53480E-04-1.55992E-13
 -1      3295 1.39430E-02 3.88601E-04-1.66291E-13
 -1      3296 1.38001E-02 3.88999E-04-1.63330E-13
 -1      3297 1.37290E-02 3.52720E-04-1.61883E-13
 -1      3298 1.41425E-02 3.76521E-04-1.70444E-13
 -1      3299 1.40312E-02 3.84858E-04-1.68125E-13
 -1      3300 1.39601E-02 3.48580E-04-1.66671E-13
 -1      3301 1.41365E-02 3.41088E-04-1.70340E-13
 -1      3302 1.40928E-02-1.31986E-04-1.69454E-13
 -1      3303 1.40924E-02-9.05321E-05-1.69461E-13
 -1      3304 6.62909E-03-1.20393E-04-3.28412E-14
 -1      3305 6.46866E-03-1.78055E-04-3.20110E-14
 -1      3306 1.40949E-02-3.00297E-04-1.69401E-13
 -1      3307 1.40944E-02-2.58132E-04-1.69416E-13
 -1      3308 1.40919E-02-4.83624E-05-1.69463E-13
 -1      3309 1.40915E-02-6.19293E-06-1.69463E-13
 -1      3310 1.39684E-02-6.86939E-05-1.66907E-13
 -1      3311 1.86385E-03 3.06768E-04-4.01296E-15
 -1      3312 1.71409E-03 2.90389E-04-3.44230E-15
 -1      3313 2.16907E-03 3.44222E-04-5.28722E-15
 -1      3314 2.01536E-03 3.24358E-04-4.62813E-15
 -1      3315 1.90009E-03 2.75864E-04-4.37862E-15
 -1      3316 1.40939E-02-2.16144E-04-1.69432E-13
 -1      3317 1.40933E-02-1.73976E-04-1.69441E-13
 -1      3318 1.39693E-02-1.52843E-04-1.66894E-13
 -1      3319 1.39704E-02-2.36812E-04-1.66870E-13
 -1      3320 6.93700E-03 1.21116E-05-3.42568E-14
 -1      3321 6.96106E-03-1.94321E-06-3.41149E-14
 -1      3322 3.87978E-03 8.49377E-04-1.40954E-14
 -1      3323 3.69623E-03 7.72427E-04-1.29931E-14
 -1      3324 6.95432E-03-1.15810E-05-3.39647E-14
 -1      3325 6.92637E-03-2.05500E-05-3.38117E-14
 -1      3326 7.00694E-03-5.82680E-06-3.53687E-14
 -1      3327 1.44980E-03-2.32429E-04-2.71269E-15
 -1      3328 1.59473E-03-2.46729E-04-3.22226E-15
 -1      3329 1.63328E-03-2.19359E-04-3.54023E-15
 -1      3330 4.00146E-03-8.69027E-04-1.52557E-14
 -1      3331 6.35835E-03 2.09394E-04-3.12149E-14
 -1      3332 6.52700E-03 1.38144E-04-3.19590E-14
 -1      3333 4.66773E-03-1.03620E-03-2.00233E-14
 -1      3334 6.87551E-03-3.86341E-05-3.37572E-14
 -1      3335 6.80247E-03-6.36777E-05-3.36970E-14
 -1      3336 6.96106E-03-3.12287E-05-3.51621E-14
 -1      3337 5.53963E-03 6.36278E-04-2.63536E-14
 -1      3338 5.73533E-03 5.25658E-04-2.76505E-14
 -1      3339 5.96714E-03 4.02966E-04-2.91294E-14
 -1      3340 6.14842E-03 3.09360E-04-3.01437E-14
 -1      3341 6.30142E-03-2.52618E-04-3.12372E-14
 -1      3342 6.13749E-03-3.33775E-04-3.04293E-14
 -1      3343 6.68877E-03 8.15373E-05-3.27916E-14
 -1      3344 6.82471E-03 4.51241E-05-3.36267E-14
 -1      3345 6.65461E-03 1.15947E-04-3.33999E-14
 -1      3346 3.81067E-03-7.83029E-04-1.41014E-14
 -1      3347 3.24382E-03 4.41371E-04-1.17819E-14
 -1      3348 3.41813E-03 5.44714E-04-1.23395E-14
 -1      3349 3.63266E-03-6.83928E-04-1.32168E-14
 -1      3350 2.32901E-03-3.97137E-05-9.91265E-15
 -1      3351 2.25736E-03-1.90475E-05-9.88858E-15
 -1      3352 4.20697E-03 9.67277E-04-1.62886E-14
 -1      3353 9.94791E-04-1.63924E-04-1.44153E-15
 -1      3354 1.07802E-03-1.82333E-04-1.62882E-15
 -1      3355 9.64266E-04-1.31355E-04-1.46103E-15
 -1      3356 2.92467E-03 2.73324E-04-1.09284E-14
 -1      3357 3.08675E-03 3.54326E-04-1.13522E-14
 -1      3358 3.11696E-03 4.10622E-04-1.10127E-14
 -1      3359 3.38606E-03-5.35471E-04-1.22675E-14
 -1      3360 3.19304E-03-4.31456E-04-1.15616E-14
 -1      3361 5.86661E-03-4.75292E-04-2.88421E-14
 -1      3362 5.68932E-03-5.83693E-04-2.78305E-14
 -1      3363 2.95545E-03-3.11659E-04-1.08186E-14
 -1      3364 2.76196E-03-2.21853E-04-1.03103E-14
 -1      3365 9.36100E-04 3.89618E-05-1.65041E-15
 -1      3366 9.29028E-04 2.30660E-05-1.65861E-15
 -1      3367 1.16705E-03 2.34472E-04-1.68442E-15
 -1      3368 1.08936E-03 1.98095E-04-1.58333E-15
 -1      3369 1.19957E-03 1.96743E-04-1.94185E-15
 -1      3370 1.31364E-03 2.53081E-04-2.08674E-15
 -1      3371 4.49420E-03-1.03410E-03-1.86652E-14
 -1      3372 3.48965E-03-6.38647E-04-1.23300E-14
 -1      3373 4.02782E-03 9.01051E-04-1.50927E-14
 -1      3374 9.25339E-04 7.98341E-06-1.66340E-15
 -1      3375 9.25175E-04-6.84247E-06-1.66468E-15
 -1      3376 1.03170E-03 1.68254E-05-2.00973E-15
 -1      3377 1.12114E-03 1.42513E-04-1.90153E-15
 -1      3378 9.93814E-04 1.18522E-04-1.58052E-15
 -1      3379 9.75609E-04 9.54950E-05-1.60462E-15
 -1      3380 1.34999E-03-1.94322E-04-2.51463E-15
 -1      3381 3.14383E-03-4.63955E-04-1.08596E-14
 -1      3382 3.29976E-03-5.64450E-04-1.13060E-14
 -1      3383 2.46975E-03 8.18926E-05-1.00750E-14
 -1      3384 9.28872E-04-8.58694E-05-1.50334E-15
 -1      3385 9.45489E-04-1.07410E-04-1.48422E-15
 -1      3386 1.02333E-03-1.21225E-04-1.67883E-15
 -1      3387 1.40895E-02 2.04113E-04-1.69415E-13
 -1      3388 1.40892E-02 2.45920E-04-1.69397E-13
 -1      3389 2.21176E-03-1.31083E-05-9.50704E-15
 -1      3390 3.49985E-03 6.23467E-04-1.23877E-14
 -1      3391 5.53516E-03-6.93584E-04-2.69800E-14
 -1      3392 2.85116E-03 4.27822E-04-8.87064E-15
 -1      3393 2.81777E-03 4.64707E-04-8.36249E-15
 -1      3394 2.64953E-03 4.25913E-04-7.52787E-15
 -1      3395 5.45093E-03 7.07005E-04-2.59132E-14
 -1      3396 1.40432E-02-3.55249E-04-1.68293E-13
 -1      3397 1.40775E-02-3.24584E-04-1.69023E-13
 -1      3398 1.39535E-02-3.03080E-04-1.66480E-13
 -1      3399 1.39187E-02-3.51647E-04-1.65727E-13
 -1      3400 2.48545E-03 3.94013E-04-6.73730E-15
 -1      3401 2.32565E-03 3.66931E-04-5.99022E-15
 -1      3402 2.51666E-03 3.57545E-04-7.19978E-15
 -1      3403 3.53739E-03 6.98588E-04-1.21494E-14
 -1      3404 3.35245E-03 6.27794E-04-1.11338E-14
 -1      3405 1.12628E-03-1.63619E-04-1.85460E-15
 -1      3406 5.87505E-03 4.76083E-04-2.88768E-14
 -1      3407 5.67489E-03 6.86275E-04-2.82805E-14
 -1      3408 5.48936E-03 7.61943E-04-2.66591E-14
 -1      3409 2.20179E-03 3.10290E-04-5.70265E-15
 -1      3410 1.40902E-02 1.19779E-04-1.69445E-13
 -1      3411 1.40899E-02 1.61946E-04-1.69431E-13
 -1      3412 1.39660E-02 1.83217E-04-1.66863E-13
 -1      3413 6.76632E-03-9.22276E-05-3.42377E-14
 -1      3414 6.73288E-03-1.26316E-04-3.47753E-14
 -1      3415 6.88711E-03-7.55516E-05-3.56527E-14
 -1      3416 6.43400E-03-2.22613E-04-3.25839E-14
 -1      3417 1.40910E-02 3.57088E-05-1.69459E-13
 -1      3418 1.40906E-02 7.78778E-05-1.69453E-13
 -1      3419 1.39667E-02 9.91587E-05-1.66890E-13
 -1      3420 1.39675E-02 1.53666E-05-1.66904E-13
 -1      3421 2.68336E-03 1.88053E-04-1.00286E-14
 -1      3422 2.80148E-03 2.26418E-04-1.04732E-14
 -1      3423 2.84789E-03 2.83733E-04-1.01540E-14
 -1      3424 9.46402E-04 5.59978E-05-1.63918E-15
 -1      3425 1.04821E-03 5.15452E-05-1.99107E-15
 -1      3426 9.59590E-04 7.47068E-05-1.62390E-15
 -1      3427 2.64797E-03-1.82587E-04-9.89619E-15
 -1      3428 2.53975E-03-1.51245E-04-9.49100E-15
 -1      3429 2.68739E-03-2.33113E-04-9.57184E-15
 -1      3430 5.01235E-03 9.47503E-04-2.26272E-14
 -1      3431 3.02495E-03-3.79142E-04-1.06871E-14
 -1      3432 6.92724E-03 2.85622E-05-3.48852E-14
 -1      3433 7.01202E-03 1.86158E-05-3.61578E-14
 -1      3434 6.91219E-03 4.95830E-05-3.55142E-14
 -1      3435 6.29898E-03 2.62848E-04-3.14657E-14
 -1      3436 2.19636E-03 6.61010E-06-9.36097E-15
 -1      3437 2.23051E-03 1.31866E-05-9.56583E-15
 -1      3438 9.14536E-04-6.65398E-05-1.51810E-15
 -1      3439 9.87726E-04-7.66061E-05-1.71834E-15
 -1      3440 9.02875E-04-4.90309E-05-1.52920E-15
 -1      3441 5.81047E-03 5.89229E-04-2.91917E-14
 -1      3442 1.58739E-03 2.80549E-04-2.97052E-15
 -1      3443 1.43957E-03 2.64283E-04-2.48334E-15
 -1      3444 1.37965E-03 2.34566E-04-2.40456E-15
 -1      3445 1.62796E-03 2.52761E-04-3.28817E-15
 -1      3446 2.25380E-03 2.57702E-05-9.41090E-15
 -1      3447 6.01688E-03-4.25287E-04-3.01818E-14
 -1      3448 3.21011E-03 5.32312E-04-1.07169E-14
 -1      3449 2.34900E-03-6.06934E-05-9.55270E-15
 -1      3450 1.25482E-03-1.59972E-04-2.31831E-15
 -1      3451 1.39239E-03-1.71368E-04-2.79064E-15
 -1      3452 2.35772E-03 6.67253E-05-9.36435E-15
 -1      3453 2.48964E-03 1.10996E-04-9.61423E-15
 -1      3454 2.16229E-03-1.75402E-05-8.78743E-15
 -1      3455 2.15975E-03-4.11961E-06-8.98724E-15
 -1      3456 2.09422E-03-2.24727E-04-5.80411E-15
 -1      3457 2.24061E-03-2.38884E-04-6.53575E-15
 -1      3458 2.39059E-03-2.55714E-04-7.31008E-15
 -1      3459 2.54595E-03-2.77854E-04-8.12707E-15
 -1      3460 2.25752E-03-2.01355E-04-6.95940E-15
 -1      3461 2.17728E-03 3.02067E-05-8.58635E-15
 -1      3462 2.25876E-03 4.45082E-05-8.97254E-15
 -1      3463 2.26182E-03 6.79793E-05-8.53811E-15
 -1      3464 6.62934E-03-2.87264E-04-3.64935E-14
 -1      3465 6.78354E-03-2.68600E-04-3.83374E-14
 -1      3466 6.93243E-03-2.55895E-04-4.02154E-14
 -1      3467 7.07776E-03-2.46726E-04-4.21297E-14
 -1      3468 6.91147E-03-2.15539E-04-3.93090E-14
 -1      3469 7.22008E-03-2.41099E-04-4.40798E-14
 -1      3470 7.36066E-03-2.37585E-04-4.60631E-14
 -1      3471 7.19011E-03-2.04303E-04-4.31361E-14
 -1      3472 7.49979E-03-2.36167E-04-4.80805E-14
 -1      3473 7.63828E-03-2.36154E-04-5.01327E-14
 -1      3474 7.46180E-03-2.01466E-04-4.71022E-14
 -1      3475 7.77622E-03-2.37428E-04-5.22189E-14
 -1      3476 7.91411E-03-2.39633E-04-5.43388E-14
 -1      3477 7.73140E-03-2.03595E-04-5.12041E-14
 -1      3478 8.05195E-03-2.42611E-04-5.64898E-14
 -1      3479 8.19003E-03-2.46162E-04-5.86721E-14
 -1      3480 8.00143E-03-2.08874E-04-5.54419E-14
 -1      3481 8.32832E-03-2.50126E-04-6.08856E-14
 -1      3482 8.46697E-03-2.54392E-04-6.31282E-14
 -1      3483 8.27309E-03-2.16068E-04-5.98040E-14
 -1      3484 8.60593E-03-2.58819E-04-6.53995E-14
 -1      3485 8.74528E-03-2.63344E-04-6.76992E-14
 -1      3486 8.54686E-03-2.24258E-04-6.42889E-14
 -1      3487 8.88495E-03-2.67857E-04-7.00241E-14
 -1      3488 9.02499E-03-2.72325E-04-7.23756E-14
 -1      3489 8.82277E-03-2.32751E-04-6.88832E-14
 -1      3490 9.16533E-03-2.76668E-04-7.47555E-14
 -1      3491 9.30601E-03-2.80871E-04-7.71622E-14
 -1      3492 9.10069E-03-2.41052E-04-7.35872E-14
 -1      3493 9.44693E-03-2.84884E-04-7.95922E-14
 -1      3494 9.58813E-03-2.88704E-04-8.20476E-14
 -1      3495 9.38034E-03-2.48829E-04-7.83970E-14
 -1      3496 9.72954E-03-2.92302E-04-8.45252E-14
 -1      3497 9.87118E-03-2.95684E-04-8.70262E-14
 -1      3498 9.66145E-03-2.55887E-04-8.33033E-14
 -1      3499 1.00130E-02-2.98836E-04-8.95496E-14
 -1      3500 1.01550E-02-3.01770E-04-9.20943E-14
 -1      3501 9.94374E-03-2.62139E-04-8.83037E-14
 -1      3502 1.02971E-02-3.04484E-04-9.46613E-14
 -1      3503 1.04393E-02-3.06991E-04-9.72497E-14
 -1      3504 1.02270E-02-2.67572E-04-9.33912E-14
 -1      3505 1.05817E-02-3.09297E-04-9.98624E-14
 -1      3506 1.07241E-02-3.11416E-04-1.02498E-13
 -1      3507 1.05109E-02-2.72227E-04-9.85683E-14
 -1      3508 1.08666E-02-3.13358E-04-1.05154E-13
 -1      3509 1.10092E-02-3.15135E-04-1.07831E-13
 -1      3510 1.07955E-02-2.76174E-04-1.03835E-13
 -1      3511 1.11519E-02-3.16762E-04-1.10533E-13
 -1      3512 1.12946E-02-3.18250E-04-1.13254E-13
 -1      3513 1.10804E-02-2.79500E-04-1.09191E-13
 -1      3514 1.14373E-02-3.19611E-04-1.15994E-13
 -1      3515 1.15801E-02-3.20857E-04-1.18752E-13
 -1      3516 1.13656E-02-2.82297E-04-1.14634E-13
 -1      3517 1.17229E-02-3.21999E-04-1.21529E-13
 -1      3518 1.18657E-02-3.23048E-04-1.24324E-13
 -1      3519 1.16510E-02-2.84653E-04-1.20151E-13
 -1      3520 1.20085E-02-3.24015E-04-1.27132E-13
 -1      3521 1.21514E-02-3.24906E-04-1.29956E-13
 -1      3522 1.19366E-02-2.86650E-04-1.25739E-13
 -1      3523 1.22942E-02-3.25734E-04-1.32793E-13
 -1      3524 1.24371E-02-3.26503E-04-1.35643E-13
 -1      3525 1.22223E-02-2.88360E-04-1.31388E-13
 -1      3526 1.25800E-02-3.27222E-04-1.38502E-13
 -1      3527 1.27229E-02-3.27897E-04-1.41376E-13
 -1      3528 1.25080E-02-2.89845E-04-1.37088E-13
 -1      3529 1.28657E-02-3.28535E-04-1.44259E-13
 -1      3530 1.30086E-02-3.29141E-04-1.47147E-13
 -1      3531 1.27938E-02-2.91158E-04-1.42834E-13
 -1      3532 1.31515E-02-3.29719E-04-1.50046E-13
 -1      3533 1.32944E-02-3.30273E-04-1.52954E-13
 -1      3534 1.30795E-02-2.92344E-04-1.48613E-13
 -1      3535 1.34373E-02-3.30810E-04-1.55871E-13
 -1      3536 1.35802E-02-3.31330E-04-1.58795E-13
 -1      3537 1.33653E-02-2.93436E-04-1.54428E-13
 -1      3538 3.56238E-03 6.74506E-04-1.25320E-14
 -1      3539 1.09765E-03-1.32896E-04-1.87880E-15
 -1      3540 1.17823E-03-1.47687E-04-2.09622E-15
 -1      3541 1.22363E-03-1.28537E-04-2.34200E-15
 -1      3542 1.07647E-03-1.07736E-04-1.90340E-15
 -1      3543 2.23008E-03 2.75119E-04-6.12326E-15
 -1      3544 2.08019E-03 2.58541E-04-5.41563E-15
 -1      3545 6.32640E-03 3.79537E-04-3.35811E-14
 -1      3546 6.14989E-03 4.25365E-04-3.18273E-14
 -1      3547 7.26050E-03 2.65019E-04-4.48555E-14
 -1      3548 7.11467E-03 2.72676E-04-4.28876E-14
 -1      3549 7.54679E-03 2.57390E-04-4.88956E-14
 -1      3550 7.40430E-03 2.60206E-04-4.68576E-14
 -1      3551 7.36660E-03 2.24437E-04-4.59341E-14
 -1      3552 7.82917E-03 2.56644E-04-5.30729E-14
 -1      3553 7.68825E-03 2.56355E-04-5.09675E-14
 -1      3554 7.64436E-03 2.21618E-04-5.00070E-14
 -1      3555 8.11006E-03 2.60234E-04-5.73810E-14
 -1      3556 7.96967E-03 2.58024E-04-5.52115E-14
 -1      3557 7.92031E-03 2.23563E-04-5.42162E-14
 -1      3558 8.39077E-03 2.66344E-04-6.18136E-14
 -1      3559 8.25036E-03 2.63058E-04-5.95819E-14
 -1      3560 8.19633E-03 2.28440E-04-5.85552E-14
 -1      3561 8.67195E-03 2.73673E-04-6.63607E-14
 -1      3562 8.53126E-03 2.69912E-04-6.40729E-14
 -1      3563 8.47333E-03 2.34934E-04-6.30145E-14
 -1      3564 8.95386E-03 2.81307E-04-7.10174E-14
 -1      3565 8.81279E-03 2.77488E-04-6.86763E-14
 -1      3566 8.75168E-03 2.42094E-04-6.75879E-14
 -1      3567 9.23653E-03 2.88639E-04-7.57760E-14
 -1      3568 9.09509E-03 2.85032E-04-7.33841E-14
 -1      3569 9.03141E-03 2.49244E-04-7.22692E-14
 -1      3570 9.51990E-03 2.95295E-04-8.06366E-14
 -1      3571 9.37812E-03 2.92062E-04-7.81939E-14
 -1      3572 9.31243E-03 2.55938E-04-7.70512E-14
 -1      3573 9.80388E-03 3.01078E-04-8.55944E-14
 -1      3574 9.66181E-03 2.98299E-04-8.31032E-14
 -1      3575 9.59456E-03 2.61909E-04-8.19332E-14
 -1      3576 1.00883E-02 3.05917E-04-9.06488E-14
 -1      3577 9.94605E-03 3.03614E-04-8.81102E-14
 -1      3578 9.87761E-03 2.67022E-04-8.69136E-14
 -1      3579 1.03732E-02 3.09822E-04-9.58033E-14
 -1      3580 1.02307E-02 3.07982E-04-9.32132E-14
 -1      3581 1.01614E-02 2.71245E-04-9.19904E-14
 -1      3582 1.06583E-02 3.12859E-04-1.01048E-13
 -1      3583 1.05157E-02 3.11443E-04-9.84143E-14
 -1      3584 1.04457E-02 2.74608E-04-9.71631E-14
 -1      3585 1.09436E-02 3.15121E-04-1.06386E-13
 -1      3586 1.08010E-02 3.14080E-04-1.03707E-13
 -1      3587 1.07305E-02 2.77181E-04-1.02431E-13
 -1      3588 1.12291E-02 3.16712E-04-1.11808E-13
 -1      3589 1.10864E-02 3.15993E-04-1.09085E-13
 -1      3590 1.10156E-02 2.79056E-04-1.07787E-13
 -1      3591 1.15147E-02 3.17738E-04-1.17312E-13
 -1      3592 1.13719E-02 3.17289E-04-1.14550E-13
 -1      3593 1.13010E-02 2.80332E-04-1.13227E-13
 -1      3594 1.18004E-02 3.18300E-04-1.22890E-13
 -1      3595 1.16576E-02 3.18072E-04-1.20093E-13
 -1      3596 1.15865E-02 2.81107E-04-1.18748E-13
 -1      3597 1.20861E-02 3.18488E-04-1.28533E-13
 -1      3598 1.19433E-02 3.18436E-04-1.25702E-13
 -1      3599 1.18721E-02 2.81473E-04-1.24338E-13
 -1      3600 1.23719E-02 3.18381E-04-1.34240E-13
 -1      3601 1.22290E-02 3.18468E-04-1.31380E-13
 -1      3602 1.21578E-02 2.81510E-04-1.29998E-13
 -1      3603 1.26576E-02 3.18046E-04-1.39993E-13
 -1      3604 1.25147E-02 3.18239E-04-1.37112E-13
 -1      3605 1.24435E-02 2.81289E-04-1.35714E-13
 -1      3606 1.29434E-02 3.17538E-04-1.45795E-13
 -1      3607 1.28005E-02 3.17810E-04-1.42888E-13
 -1      3608 1.27293E-02 2.80869E-04-1.41478E-13
 -1      3609 1.32291E-02 3.16903E-04-1.51628E-13
 -1      3610 1.30863E-02 3.17234E-04-1.48707E-13
 -1      3611 1.30151E-02 2.80301E-04-1.47282E-13
 -1      3612 1.35149E-02 3.16181E-04-1.57493E-13
 -1      3613 1.33720E-02 3.16551E-04-1.54557E-13
 -1      3614 1.33008E-02 2.79624E-04-1.53122E-13
 -1      3615 1.38007E-02 3.15400E-04-1.63387E-13
 -1      3616 1.36578E-02 3.15796E-04-1.60436E-13
 -1      3617 1.35866E-02 2.78873E-04-1.58991E-13
 -1      3618 1.38449E-02-8.93764E-05-1.64355E-13
 -1      3619 1.38444E-02-4.72183E-05-1.64356E-13
 -1      3620 1.41099E-02 2.75787E-04-1.69813E-13
 -1      3621 1.41158E-02 3.11223E-04-1.69923E-13
 -1      3622 1.40276E-02 3.14971E-04-1.68089E-13
 -1      3623 1.39863E-02 2.55243E-04-1.67259E-13
 -1      3624 1.53047E-03-1.81919E-04-3.30646E-15
 -1      3625 1.66949E-03-1.92061E-04-3.86594E-15
 -1      3626 1.43304E-03-1.48393E-04-3.07516E-15
 -1      3627 1.93318E-03 2.44515E-04-4.75138E-15
 -1      3628 1.78825E-03 2.31653E-04-4.13005E-15
 -1      3629 1.96278E-03 2.12419E-04-5.13086E-15
 -1      3630 7.06413E-03-2.44357E-06-3.67854E-14
 -1      3631 7.05572E-03-1.31362E-05-3.66307E-14
 -1      3632 6.96623E-03 2.83341E-04-4.09558E-14
 -1      3633 6.81425E-03 2.98512E-04-3.90590E-14
 -1      3634 7.08355E-03 2.34840E-04-4.19993E-14
 -1      3635 6.65771E-03 3.18183E-04-3.71963E-14
 -1      3636 6.49561E-03 3.45249E-04-3.53706E-14
 -1      3637 6.78936E-03 2.57476E-04-3.82032E-14
 -1      3638 5.43743E-03 7.38113E-04-2.59822E-14
 -1      3639 6.20080E-03-3.68645E-04-3.19003E-14
 -1      3640 2.13414E-03 2.78716E-06-8.64866E-15
 -1      3641 7.03404E-03-2.86703E-05-3.65784E-14
 -1      3642 6.99502E-03-4.63062E-05-3.65192E-14
 -1      3643 7.10679E-03-2.54992E-05-3.80125E-14
 -1      3644 5.63249E-03 6.33885E-04-2.74731E-14
 -1      3645 6.62211E-03 1.53433E-04-3.39498E-14
 -1      3646 6.76689E-03 1.01824E-04-3.48058E-14
 -1      3647 6.39680E-03-2.75378E-04-3.31221E-14
 -1      3648 6.32864E-03-3.41604E-04-3.32223E-14
 -1      3649 6.49632E-03-3.07903E-04-3.50037E-14
 -1      3650 6.54460E-03-2.08034E-04-3.39195E-14
 -1      3651 1.80938E-03-2.02163E-04-4.46901E-15
 -1      3652 1.95090E-03-2.12947E-04-5.11556E-15
 -1      3653 1.97661E-03-1.80885E-04-5.49476E-15
 -1      3654 6.20310E-03 3.47714E-04-3.15721E-14
 -1      3655 6.39210E-03 2.54721E-04-3.26724E-14
 -1      3656 2.36747E-03-8.60683E-05-9.14458E-15
 -1      3657 2.24765E-03-4.86400E-05-8.90139E-15
 -1      3658 9.08408E-04-1.99124E-05-1.60148E-15
 -1      3659 9.14626E-04-3.52582E-05-1.59628E-15
 -1      3660 9.84011E-04-4.24704E-05-1.80436E-15
 -1      3661 1.01139E-03-1.37377E-05-1.94540E-15
 -1      3662 1.25243E-03 1.67905E-04-2.25030E-15
 -1      3663 1.22610E-03 1.38503E-04-2.28677E-15
 -1      3664 1.04198E-03-6.45150E-05-1.93908E-15
 -1      3665 1.05776E-03-8.50668E-05-1.92351E-15
 -1      3666 1.12866E-03-9.38109E-05-2.13977E-15
 -1      3667 2.92505E-03-3.53025E-04-1.01468E-14
 -1      3668 2.54069E-03 1.57853E-04-9.31694E-15
 -1      3669 6.98323E-03-6.85884E-05-3.70772E-14
 -1      3670 6.81138E-03-1.61700E-04-3.68296E-14
 -1      3671 6.66700E-03-1.92349E-04-3.53923E-14
 -1      3672 2.49298E-03-2.06500E-04-8.45197E-15
 -1      3673 2.64484E-03-2.72899E-04-8.84479E-15
 -1      3674 2.10869E-03 1.48479E-05-8.23214E-15
 -1      3675 2.08972E-03 2.99243E-05-7.82131E-15
 -1      3676 2.05924E-03 2.91189E-06-7.88124E-15
 -1      3677 2.75278E-03-3.12357E-04-9.23370E-15
 -1      3678 2.87662E-03 3.87373E-04-9.38060E-15
 -1      3679 2.70583E-03 3.48427E-04-8.50207E-15
 -1      3680 1.38424E-02 1.62501E-04-1.64314E-13
 -1      3681 1.38421E-02 2.04659E-04-1.64294E-13
 -1      3682 1.70318E-03-1.64697E-04-4.19949E-15
 -1      3683 1.36871E-02-3.39687E-04-1.60979E-13
 -1      3684 1.38117E-02-3.43298E-04-1.63533E-13
 -1      3685 1.38291E-02-3.19017E-04-1.63910E-13
 -1      3686 1.36152E-02-3.02315E-04-1.59532E-13
 -1      3687 6.47479E-03 3.00921E-04-3.45488E-14
 -1      3688 1.38475E-02 2.51933E-04-1.64390E-13
 -1      3689 1.38682E-02 2.81795E-04-1.64801E-13
 -1      3690 6.03839E-03 4.44792E-04-3.06414E-14
 -1      3691 1.37204E-02-2.60162E-05-1.61808E-13
 -1      3692 1.38440E-02-5.32769E-06-1.64353E-13
 -1      3693 1.38435E-02 3.65624E-05-1.64348E-13
 -1      3694 1.38454E-02-1.31356E-04-1.64350E-13
 -1      3695 1.37214E-02-1.09873E-04-1.61808E-13
 -1      3696 1.38459E-02-1.73336E-04-1.64340E-13
 -1      3697 1.39394E-02 3.18718E-04-1.66258E-13
 -1      3698 2.73013E-03 2.73970E-04-9.35439E-15
 -1      3699 2.84438E-03 3.15504E-04-9.78259E-15
 -1      3700 1.07901E-03 9.24862E-05-1.95605E-15
 -1      3701 7.08329E-03 1.08996E-05-3.74345E-14
 -1      3702 7.15000E-03 3.51360E-06-3.87243E-14
 -1      3703 7.09456E-03 2.62181E-05-3.80836E-14
 -1      3704 6.87621E-03 1.05722E-04-3.66545E-14
 -1      3705 6.89352E-03 7.54305E-05-3.60856E-14
 -1      3706 7.00493E-03 5.74660E-05-3.73782E-14
 -1      3707 1.13931E-03 2.69058E-05-2.38721E-15
 -1      3708 1.13429E-03 9.20267E-06-2.39362E-15
 -1      3709 1.38465E-02-2.94736E-04-1.64284E-13
 -1      3710 2.98366E-03 3.87177E-04-1.01738E-14
 -1      3711 6.53039E-03 2.24300E-04-3.40672E-14
 -1      3712 2.40560E-03-1.24718E-04-8.84088E-15
 -1      3713 2.15392E-03-3.25457E-05-8.40168E-15
 -1      3714 2.07741E-03-2.12408E-05-7.91331E-15
 -1      3715 2.15014E-03-5.13738E-05-8.01963E-15
 -1      3716 1.37240E-02 2.31209E-04-1.61846E-13
 -1      3717 5.82944E-03 5.51768E-04-2.91225E-14
 -1      3718 1.14895E-03 4.53883E-05-2.37706E-15
 -1      3719 1.24864E-03 3.79926E-05-2.79562E-15
 -1      3720 1.16282E-03 6.54071E-05-2.36204E-15
 -1      3721 1.37306E-02-2.77542E-04-1.61914E-13
 -1      3722 1.38550E-02-2.61605E-04-1.64480E-13
 -1      3723 1.38544E-02-2.19626E-04-1.64492E-13
 -1      3724 1.36236E-02-2.69193E-04-1.59727E-13
 -1      3725 1.68107E-03 1.91841E-04-3.88288E-15
 -1      3726 1.64500E-03 2.19520E-04-3.55210E-15
 -1      3727 2.54184E-03 3.18776E-04-7.66657E-15
 -1      3728 2.38365E-03 2.94441E-04-6.87331E-15
 -1      3729 2.25355E-03 2.38121E-04-6.54942E-15
 -1      3730 2.56007E-03 2.77192E-04-8.13687E-15
 -1      3731 1.52359E-03 2.12593E-04-3.07516E-15
 -1      3732 2.30031E-03-1.69830E-04-7.54179E-15
 -1      3733 2.38315E-03-1.57833E-04-8.22571E-15
 -1      3734 2.23357E-03-1.00348E-04-7.91060E-15
 -1      3735 2.16340E-03-1.60835E-04-6.75900E-15
 -1      3736 6.96198E-03-1.08905E-04-3.78812E-14
 -1      3737 6.92254E-03-1.64173E-04-3.85197E-14
 -1      3738 7.05450E-03-1.60259E-04-4.03990E-14
 -1      3739 7.07217E-03-7.60141E-05-3.87742E-14
 -1      3740 2.17836E-03 7.44440E-05-7.81582E-15
 -1      3741 2.27789E-03 9.82362E-05-8.17940E-15
 -1      3742 1.38428E-02 1.20611E-04-1.64330E-13
 -1      3743 1.37188E-02 1.42055E-04-1.61771E-13
 -1      3744 1.38431E-02 7.87210E-05-1.64341E-13
 -1      3745 3.14376E-03 4.82284E-04-1.05882E-14
 -1      3746 6.64295E-03-2.39779E-04-3.59443E-14
 -1      3747 1.60330E-03-1.31993E-04-3.93259E-15
 -1      3748 1.73463E-03-1.37830E-04-4.53960E-15
 -1      3749 7.18403E-03-1.58800E-04-4.23153E-14
 -1      3750 7.31373E-03-1.58477E-04-4.42660E-14
 -1      3751 7.18207E-03-1.16053E-04-4.14906E-14
 -1      3752 7.44282E-03-1.59269E-04-4.62492E-14
 -1      3753 7.57253E-03-1.60762E-04-4.82674E-14
 -1      3754 7.42546E-03-1.19592E-04-4.53930E-14
 -1      3755 7.70250E-03-1.62844E-04-5.03208E-14
 -1      3756 7.83333E-03-1.65449E-04-5.24070E-14
 -1      3757 7.67413E-03-1.24411E-04-4.94329E-14
 -1      3758 7.96478E-03-1.68397E-04-5.45264E-14
 -1      3759 8.09718E-03-1.71707E-04-5.66772E-14
 -1      3760 7.92823E-03-1.30018E-04-5.36078E-14
 -1      3761 8.23033E-03-1.75189E-04-5.88596E-14
 -1      3762 8.36441E-03-1.78889E-04-6.10737E-14
 -1      3763 8.18755E-03-1.36189E-04-5.79134E-14
 -1      3764 8.49925E-03-1.82634E-04-6.33159E-14
 -1      3765 8.63493E-03-1.86472E-04-6.55878E-14
 -1      3766 8.45163E-03-1.42679E-04-6.23416E-14
 -1      3767 8.77132E-03-1.90256E-04-6.78872E-14
 -1      3768 8.90844E-03-1.94031E-04-7.02131E-14
 -1      3769 8.71991E-03-1.49220E-04-6.68863E-14
 -1      3770 9.04619E-03-1.97683E-04-7.25662E-14
 -1      3771 9.18456E-03-2.01252E-04-7.49458E-14
 -1      3772 8.99178E-03-1.55569E-04-7.15423E-14
 -1      3773 9.32345E-03-2.04654E-04-7.73489E-14
 -1      3774 9.46286E-03-2.07925E-04-7.97790E-14
 -1      3775 9.26670E-03-1.61541E-04-7.63009E-14
 -1      3776 9.60270E-03-2.11007E-04-8.22337E-14
 -1      3777 9.74297E-03-2.13933E-04-8.47096E-14
 -1      3778 9.54412E-03-1.67010E-04-8.11598E-14
 -1      3779 9.88358E-03-2.16665E-04-8.72086E-14
 -1      3780 1.00245E-02-2.19232E-04-8.97308E-14
 -1      3781 9.82359E-03-1.71911E-04-8.61132E-14
 -1      3782 1.01657E-02-2.21612E-04-9.22772E-14
 -1      3783 1.03072E-02-2.23831E-04-9.48426E-14
 -1      3784 1.01047E-02-1.76229E-04-9.11577E-14
 -1      3785 1.04489E-02-2.25879E-04-9.74306E-14
 -1      3786 1.05908E-02-2.27777E-04-1.00044E-13
 -1      3787 1.03870E-02-1.79985E-04-9.62920E-14
 -1      3788 1.07329E-02-2.29522E-04-1.02679E-13
 -1      3789 1.08751E-02-2.31135E-04-1.05334E-13
 -1      3790 1.06704E-02-1.83223E-04-1.01517E-13
 -1      3791 1.10174E-02-2.32617E-04-1.08011E-13
 -1      3792 1.11598E-02-2.33983E-04-1.10714E-13
 -1      3793 1.09545E-02-1.86000E-04-1.06832E-13
 -1      3794 1.13023E-02-2.35239E-04-1.13437E-13
 -1      3795 1.14449E-02-2.36398E-04-1.16177E-13
 -1      3796 1.12391E-02-1.88381E-04-1.12236E-13
 -1      3797 1.15876E-02-2.37467E-04-1.18938E-13
 -1      3798 1.17303E-02-2.38456E-04-1.21718E-13
 -1      3799 1.15242E-02-1.90427E-04-1.17725E-13
 -1      3800 1.18730E-02-2.39372E-04-1.24514E-13
 -1      3801 1.20158E-02-2.40223E-04-1.27325E-13
 -1      3802 1.18095E-02-1.92198E-04-1.23284E-13
 -1      3803 1.21586E-02-2.41017E-04-1.30150E-13
 -1      3804 1.23015E-02-2.41760E-04-1.32990E-13
 -1      3805 1.20950E-02-1.93748E-04-1.28910E-13
 -1      3806 1.24443E-02-2.42459E-04-1.35844E-13
 -1      3807 1.25872E-02-2.43118E-04-1.38707E-13
 -1      3808 1.23807E-02-1.95123E-04-1.34594E-13
 -1      3809 1.27301E-02-2.43744E-04-1.41580E-13
 -1      3810 1.28729E-02-2.44340E-04-1.44463E-13
 -1      3811 1.26664E-02-1.96362E-04-1.40323E-13
 -1      3812 1.30158E-02-2.44911E-04-1.47355E-13
 -1      3813 1.31587E-02-2.45461E-04-1.50251E-13
 -1      3814 1.29522E-02-1.97499E-04-1.46089E-13
 -1      3815 1.33016E-02-2.45993E-04-1.53159E-13
 -1      3816 1.34445E-02-2.46510E-04-1.56077E-13
 -1      3817 1.32380E-02-1.98561E-04-1.51888E-13
 -1      3818 7.73795E-03 1.88699E-04-5.11193E-14
 -1      3819 7.60304E-03 1.87909E-04-4.90492E-14
 -1      3820 1.44932E-03 1.72163E-04-2.98806E-15
 -1      3821 1.42859E-03 2.01190E-04-2.75341E-15
 -1      3822 1.32153E-03 2.06593E-04-2.32328E-15
 -1      3823 7.46817E-03 1.88031E-04-4.70132E-14
 -1      3824 7.33260E-03 1.89419E-04-4.50107E-14
 -1      3825 7.56419E-03 1.55195E-04-4.80935E-14
 -1      3826 8.27995E-03 1.97914E-04-5.97272E-14
 -1      3827 8.14377E-03 1.94978E-04-5.75281E-14
 -1      3828 8.55383E-03 2.04352E-04-6.42152E-14
 -1      3829 8.41660E-03 2.01050E-04-6.19577E-14
 -1      3830 8.36088E-03 1.68286E-04-6.09009E-14
 -1      3831 8.82982E-03 2.11043E-04-6.88157E-14
 -1      3832 8.69155E-03 2.07686E-04-6.65015E-14
 -1      3833 8.63225E-03 1.74300E-04-6.54160E-14
 -1      3834 9.10779E-03 2.17507E-04-7.35196E-14
 -1      3835 8.96856E-03 2.14316E-04-7.11546E-14
 -1      3836 8.90640E-03 1.80285E-04-7.00414E-14
 -1      3837 9.38747E-03 2.23429E-04-7.83282E-14
 -1      3838 9.24742E-03 2.20542E-04-7.59109E-14
 -1      3839 9.18300E-03 1.85912E-04-7.47725E-14
 -1      3840 9.66861E-03 2.28623E-04-8.32313E-14
 -1      3841 9.52787E-03 2.26117E-04-8.07672E-14
 -1      3842 9.46166E-03 1.90967E-04-7.96028E-14
 -1      3843 9.95092E-03 2.33009E-04-8.82316E-14
 -1      3844 9.80962E-03 2.30914E-04-8.57193E-14
 -1      3845 9.74204E-03 1.95329E-04-8.45278E-14
 -1      3846 1.02342E-02 2.36579E-04-9.33306E-14
 -1      3847 1.00924E-02 2.34891E-04-9.07693E-14
 -1      3848 1.00238E-02 1.98955E-04-8.95504E-14
 -1      3849 1.05181E-02 2.39377E-04-9.85252E-14
 -1      3850 1.03761E-02 2.38069E-04-9.59156E-14
 -1      3851 1.03066E-02 2.01858E-04-9.46715E-14
 -1      3852 1.08027E-02 2.41474E-04-1.03813E-13
 -1      3853 1.06603E-02 2.40507E-04-1.01157E-13
 -1      3854 1.05903E-02 2.04086E-04-9.98867E-14
 -1      3855 1.10876E-02 2.42958E-04-1.09184E-13
 -1      3856 1.09451E-02 2.42286E-04-1.06488E-13
 -1      3857 1.08747E-02 2.05708E-04-1.05191E-13
 -1      3858 1.13728E-02 2.43919E-04-1.14647E-13
 -1      3859 1.12302E-02 2.43498E-04-1.11907E-13
 -1      3860 1.11595E-02 2.06805E-04-1.10585E-13
 -1      3861 1.16582E-02 2.44444E-04-1.20181E-13
 -1      3862 1.15155E-02 2.44231E-04-1.17404E-13
 -1      3863 1.14446E-02 2.07457E-04-1.16064E-13
 -1      3864 1.19438E-02 2.44616E-04-1.25787E-13
 -1      3865 1.18010E-02 2.44570E-04-1.22977E-13
 -1      3866 1.17300E-02 2.07740E-04-1.21615E-13
 -1      3867 1.22295E-02 2.44506E-04-1.31460E-13
 -1      3868 1.20866E-02 2.44593E-04-1.28616E-13
 -1      3869 1.20155E-02 2.07726E-04-1.27237E-13
 -1      3870 1.25152E-02 2.44175E-04-1.37187E-13
 -1      3871 1.23723E-02 2.44365E-04-1.34317E-13
 -1      3872 1.23012E-02 2.07475E-04-1.32921E-13
 -1      3873 1.28010E-02 2.43676E-04-1.42958E-13
 -1      3874 1.26581E-02 2.43944E-04-1.40066E-13
 -1      3875 1.25869E-02 2.07040E-04-1.38658E-13
 -1      3876 1.30868E-02 2.43050E-04-1.48772E-13
 -1      3877 1.29439E-02 2.43377E-04-1.45861E-13
 -1      3878 1.28727E-02 2.06465E-04-1.44438E-13
 -1      3879 1.33725E-02 2.42334E-04-1.54614E-13
 -1      3880 1.32296E-02 2.42702E-04-1.51688E-13
 -1      3881 1.31585E-02 2.05787E-04-1.50257E-13
 -1      3882 1.35811E-02 2.31610E-04-1.58905E-13
 -1      3883 1.20192E-03 1.11702E-04-2.31731E-15
 -1      3884 1.18071E-03 8.73699E-05-2.34223E-15
 -1      3885 1.28054E-03 8.07140E-05-2.76222E-15
 -1      3886 1.32879E-03 1.32569E-04-2.70691E-15
 -1      3887 2.57438E-03 2.16517E-04-8.83110E-15
 -1      3888 2.56953E-03 2.47701E-04-8.48304E-15
 -1      3889 2.41581E-03 2.27577E-04-7.65250E-15
 -1      3890 6.68133E-03 2.04624E-04-3.58675E-14
 -1      3891 1.34124E-03-1.18799E-04-2.84695E-15
 -1      3892 1.47237E-03-1.25725E-04-3.36845E-15
 -1      3893 1.51051E-03-1.03394E-04-3.66964E-15
 -1      3894 7.19636E-03 1.92175E-04-4.30445E-14
 -1      3895 7.05806E-03 1.97234E-04-4.11116E-14
 -1      3896 7.30239E-03 1.55022E-04-4.40908E-14
 -1      3897 1.98840E-03 1.80333E-04-5.51650E-15
 -1      3898 1.85075E-03 1.72127E-04-4.84762E-15
 -1      3899 1.50786E-03 1.48749E-04-3.36658E-15
 -1      3900 1.41794E-03 1.40662E-04-3.02801E-15
 -1      3901 1.38939E-03 1.11912E-04-3.06127E-15
 -1      3902 1.35099E-02 1.94693E-04-1.57458E-13
 -1      3903 3.33223E-03 5.47667E-04-1.15696E-14
 -1      3904 1.23642E-03 2.35260E-07-2.80648E-15
 -1      3905 1.13345E-03-8.34425E-06-2.39290E-15
 -1      3906 7.18177E-03-1.92444E-05-3.94215E-14
 -1      3907 7.16258E-03-3.63140E-05-3.93650E-14
 -1      3908 8.00815E-03 1.92400E-04-5.53595E-14
 -1      3909 7.87285E-03 1.90251E-04-5.32231E-14
 -1      3910 8.09250E-03 1.62692E-04-5.65029E-14
 -1      3911 6.80249E-03 2.11275E-04-3.76899E-14
 -1      3912 6.84842E-03 1.46950E-04-3.71827E-14
 -1      3913 6.97655E-03 1.18923E-04-3.84981E-14
 -1      3914 6.94603E-03 2.00911E-04-3.95603E-14
 -1      3915 2.40261E-03 1.44837E-04-8.45296E-15
 -1      3916 1.86594E-03-1.43422E-04-5.18846E-15
 -1      3917 1.99833E-03-1.49363E-04-5.87966E-15
 -1      3918 1.76388E-03-1.11432E-04-4.88604E-15
 -1      3919 1.74621E-03 1.64149E-04-4.37672E-15
 -1      3920 1.61080E-03 1.56500E-04-3.78172E-15
 -1      3921 1.57581E-03 1.24455E-04-3.82073E-15
 -1      3922 1.77633E-03 1.36296E-04-4.72779E-15
 -1      3923 2.02154E-03-9.20904E-06-7.51954E-15
 -1      3924 1.97591E-03 2.52244E-06-7.13217E-15
 -1      3925 1.99215E-03-2.25939E-05-7.16219E-15
 -1      3926 1.37196E-02 5.80189E-05-1.61797E-13
 -1      3927 1.35106E-02 1.10948E-04-1.57498E-13
 -1      3928 1.35103E-02 1.52820E-04-1.57480E-13
 -1      3929 1.33017E-02 1.63560E-04-1.53203E-13
 -1      3930 2.00955E-03 3.23925E-05-7.15676E-15
 -1      3931 2.08611E-03 5.04011E-05-7.48470E-15
 -1      3932 2.08562E-03 7.49756E-05-7.14998E-15
 -1      3933 7.06520E-03 1.56981E-04-4.05755E-14
 -1      3934 1.35599E-02-2.21744E-04-1.58448E-13
 -1      3935 7.82710E-03 1.58088E-04-5.22313E-14
 -1      3936 2.12208E-03-7.69758E-05-7.44360E-15
 -1      3937 2.04569E-03-1.21917E-04-6.41331E-15
 -1      3938 1.35969E-02-4.65632E-05-1.59271E-13
 -1      3939 1.35965E-02-4.68753E-06-1.59265E-13
 -1      3940 7.21899E-03-5.23726E-06-4.00926E-14
 -1      3941 7.28741E-03-1.49405E-05-4.14763E-14
 -1      3942 7.24860E-03 9.28975E-06-4.07642E-14
 -1      3943 1.37304E-02-1.98130E-04-1.61956E-13
 -1      3944 2.30028E-03 1.46465E-04-7.72858E-15
 -1      3945 1.35979E-02-1.30494E-04-1.59265E-13
 -1      3946 1.35974E-02-8.85287E-05-1.59268E-13
 -1      3947 1.34734E-02-6.71904E-05-1.56735E-13
 -1      3948 7.09794E-03 4.57532E-05-3.86757E-14
 -1      3949 7.18398E-03 3.62484E-05-3.99873E-14
 -1      3950 7.09790E-03 6.83139E-05-3.92665E-14
 -1      3951 1.19798E-03-1.01586E-04-2.36309E-15
 -1      3952 1.27050E-03-1.10762E-04-2.60158E-15
 -1      3953 1.31421E-03-9.16308E-05-2.86673E-15
 -1      3954 1.17801E-03-7.83203E-05-2.38312E-15
 -1      3955 1.34004E-03 9.78407E-06-3.25255E-15
 -1      3956 1.33920E-03-9.62005E-06-3.25200E-15
 -1      3957 7.16914E-03-6.66704E-05-4.01999E-14
 -1      3958 1.11787E-03-2.37966E-05-2.31689E-15
 -1      3959 1.35934E-03 4.97224E-05-3.23272E-15
 -1      3960 1.34665E-03 2.91235E-05-3.24532E-15
 -1      3961 1.44386E-03 1.95803E-05-3.72625E-15
 -1      3962 2.15614E-03 1.63734E-04-6.63129E-15
 -1      3963 2.03813E-03 1.24231E-04-6.29739E-15
 -1      3964 1.08349E-03-3.61358E-05-2.16510E-15
 -1      3965 1.07327E-03-5.20340E-05-2.08697E-15
 -1      3966 1.14066E-03-5.84269E-05-2.31435E-15
 -1      3967 1.20411E-03-3.17488E-05-2.63755E-15
 -1      3968 1.44274E-03-2.00744E-05-3.72727E-15
 -1      3969 1.34495E-03-2.91948E-05-3.24537E-15
 -1      3970 8.98147E-03 1.49721E-04-7.12684E-14
 -1      3971 8.84467E-03 1.47207E-04-6.89309E-14
 -1      3972 7.27798E-03-6.99654E-05-4.21115E-14
 -1      3973 7.63229E-03-9.58500E-05-4.84201E-14
 -1      3974 7.75493E-03-9.85213E-05-5.04735E-14
 -1      3975 7.87932E-03-1.01081E-04-5.25621E-14
 -1      3976 8.00560E-03-1.03816E-04-5.46809E-14
 -1      3977 7.82991E-03-7.36597E-05-5.15159E-14
 -1      3978 8.13342E-03-1.06487E-04-5.68330E-14
 -1      3979 8.26278E-03-1.09288E-04-5.90174E-14
 -1      3980 8.07882E-03-7.81048E-05-5.57556E-14
 -1      3981 8.39347E-03-1.12030E-04-6.12315E-14
 -1      3982 8.52546E-03-1.14839E-04-6.34742E-14
 -1      3983 8.33495E-03-8.25466E-05-6.01228E-14
 -1      3984 8.65858E-03-1.17569E-04-6.57466E-14
 -1      3985 8.79279E-03-1.20310E-04-6.80482E-14
 -1      3986 8.59702E-03-8.69504E-05-6.46091E-14
 -1      3987 8.92795E-03-1.22948E-04-7.03746E-14
 -1      3988 9.06403E-03-1.25550E-04-7.27288E-14
 -1      3989 8.86399E-03-9.12329E-05-6.92085E-14
 -1      3990 9.20089E-03-1.28030E-04-7.51082E-14
 -1      3991 9.33850E-03-1.30440E-04-7.75108E-14
 -1      3992 9.13503E-03-9.53030E-05-7.39141E-14
 -1      3993 9.47676E-03-1.32716E-04-7.99392E-14
 -1      3994 9.61562E-03-1.34900E-04-8.23921E-14
 -1      3995 9.40939E-03-9.90881E-05-7.87211E-14
 -1      3996 9.75501E-03-1.36948E-04-8.48701E-14
 -1      3997 9.89488E-03-1.38895E-04-8.73672E-14
 -1      3998 9.68647E-03-1.02543E-04-8.36249E-14
 -1      3999 1.00352E-02-1.40711E-04-8.98887E-14
 -1      4000 1.01758E-02-1.42424E-04-9.24341E-14
 -1      4001 9.96571E-03-1.05649E-04-8.86227E-14
 -1      4002 1.03168E-02-1.44015E-04-9.49989E-14
 -1      4003 1.04581E-02-1.45508E-04-9.75880E-14
 -1      4004 1.02467E-02-1.08413E-04-9.37089E-14
 -1      4005 1.05996E-02-1.46892E-04-1.00201E-13
 -1      4006 1.07414E-02-1.48187E-04-1.02837E-13
 -1      4007 1.05290E-02-1.10853E-04-9.88868E-14
 -1      4008 1.08834E-02-1.49388E-04-1.05496E-13
 -1      4009 1.10255E-02-1.50510E-04-1.08175E-13
 -1      4010 1.08123E-02-1.13003E-04-1.04159E-13
 -1      4011 1.11677E-02-1.51552E-04-1.10875E-13
 -1      4012 1.13101E-02-1.52527E-04-1.13601E-13
 -1      4013 1.10964E-02-1.14898E-04-1.09520E-13
 -1      4014 1.14526E-02-1.53436E-04-1.16342E-13
 -1      4015 1.15951E-02-1.54289E-04-1.19106E-13
 -1      4016 1.13810E-02-1.16576E-04-1.14963E-13
 -1      4017 1.17378E-02-1.55088E-04-1.21888E-13
 -1      4018 1.18805E-02-1.55841E-04-1.24686E-13
 -1      4019 1.16661E-02-1.18073E-04-1.20490E-13
 -1      4020 1.20232E-02-1.56551E-04-1.27500E-13
 -1      4021 1.21660E-02-1.57225E-04-1.30328E-13
 -1      4022 1.19514E-02-1.19424E-04-1.26087E-13
 -1      4023 1.23088E-02-1.57865E-04-1.33170E-13
 -1      4024 1.24516E-02-1.58477E-04-1.36025E-13
 -1      4025 1.22370E-02-1.20657E-04-1.31746E-13
 -1      4026 1.25945E-02-1.59063E-04-1.38890E-13
 -1      4027 1.27374E-02-1.59627E-04-1.41765E-13
 -1      4028 1.25226E-02-1.21797E-04-1.37456E-13
 -1      4029 1.28802E-02-1.60173E-04-1.44649E-13
 -1      4030 1.30231E-02-1.60701E-04-1.47541E-13
 -1      4031 1.28084E-02-1.22868E-04-1.43207E-13
 -1      4032 7.65443E-03 1.25520E-04-4.91737E-14
 -1      4033 7.52718E-03 1.23976E-04-4.71389E-14
 -1      4034 8.70867E-03 1.44645E-04-6.66181E-14
 -1      4035 8.57345E-03 1.41997E-04-6.43328E-14
 -1      4036 8.78320E-03 1.15105E-04-6.78195E-14
 -1      4037 8.43916E-03 1.39373E-04-6.20746E-14
 -1      4038 8.30575E-03 1.36727E-04-5.98460E-14
 -1      4039 8.51492E-03 1.10797E-04-6.32491E-14
 -1      4040 9.25708E-03 1.54385E-04-7.60237E-14
 -1      4041 9.11895E-03 1.52103E-04-7.36321E-14
 -1      4042 9.05513E-03 1.19139E-04-7.24957E-14
 -1      4043 9.53503E-03 1.58496E-04-8.08766E-14
 -1      4044 9.39578E-03 1.56506E-04-7.84382E-14
 -1      4045 9.33013E-03 1.22764E-04-7.72741E-14
 -1      4046 9.81489E-03 1.61984E-04-8.58240E-14
 -1      4047 9.67474E-03 1.60313E-04-8.33383E-14
 -1      4048 9.60765E-03 1.25896E-04-8.21497E-14
 -1      4049 1.00963E-02 1.64829E-04-9.08697E-14
 -1      4050 9.95541E-03 1.63481E-04-8.83352E-14
 -1      4051 9.88720E-03 1.28495E-04-8.71220E-14
 -1      4052 1.03789E-02 1.67057E-04-9.60131E-14
 -1      4053 1.02374E-02 1.66014E-04-9.34308E-14
 -1      4054 1.01684E-02 1.30563E-04-9.21914E-14
 -1      4055 1.06624E-02 1.68716E-04-1.01248E-13
 -1      4056 1.05205E-02 1.67952E-04-9.86187E-14
 -1      4057 1.04508E-02 1.32127E-04-9.73540E-14
 -1      4058 1.09466E-02 1.69870E-04-1.06571E-13
 -1      4059 1.08044E-02 1.69350E-04-1.03898E-13
 -1      4060 1.07342E-02 1.33232E-04-1.02608E-13
 -1      4061 1.12313E-02 1.70588E-04-1.11986E-13
 -1      4062 1.10889E-02 1.70278E-04-1.09268E-13
 -1      4063 1.10184E-02 1.33933E-04-1.07954E-13
 -1      4064 1.15164E-02 1.70940E-04-1.17481E-13
 -1      4065 1.13738E-02 1.70805E-04-1.14724E-13
 -1      4066 1.13030E-02 1.34290E-04-1.13385E-13
 -1      4067 1.18017E-02 1.70990E-04-1.23048E-13
 -1      4068 1.16590E-02 1.70999E-04-1.20254E-13
 -1      4069 1.15881E-02 1.34357E-04-1.18897E-13
 -1      4070 1.20873E-02 1.70798E-04-1.28684E-13
 -1      4071 1.19445E-02 1.70921E-04-1.25858E-13
 -1      4072 1.18735E-02 1.34188E-04-1.24482E-13
 -1      4073 1.23729E-02 1.70414E-04-1.34381E-13
 -1      4074 1.22301E-02 1.70627E-04-1.31526E-13
 -1      4075 1.21590E-02 1.33829E-04-1.30132E-13
 -1      4076 1.26586E-02 1.69882E-04-1.40125E-13
 -1      4077 1.25158E-02 1.70164E-04-1.37248E-13
 -1      4078 1.24447E-02 1.33322E-04-1.35839E-13
 -1      4079 1.29444E-02 1.69237E-04-1.45915E-13
 -1      4080 1.28015E-02 1.69572E-04-1.43014E-13
 -1      4081 1.27304E-02 1.32700E-04-1.41594E-13
 -1      4082 1.31945E-02 1.66226E-04-1.51012E-13
 -1      4083 1.30516E-02 1.66595E-04-1.48099E-13
 -1      4084 1.29805E-02 1.29707E-04-1.46665E-13
 -1      4085 1.31948E-02 1.24380E-04-1.51036E-13
 -1      4086 7.91176E-03 1.29454E-04-5.33450E-14
 -1      4087 7.78249E-03 1.27336E-04-5.12431E-14
 -1      4088 7.73868E-03 9.80202E-05-5.02550E-14
 -1      4089 7.40109E-03 1.22871E-04-4.51378E-14
 -1      4090 7.27539E-03 1.22228E-04-4.31713E-14
 -1      4091 7.49173E-03 9.43124E-05-4.61859E-14
 -1      4092 1.46782E-03 1.04192E-04-3.44611E-15
 -1      4093 1.38236E-03 9.84383E-05-3.10202E-15
 -1      4094 1.35931E-03 7.36306E-05-3.12626E-15
 -1      4095 1.56557E-03 1.09352E-04-3.86727E-15
 -1      4096 7.07534E-03 1.27951E-04-4.01978E-14
 -1      4097 7.08720E-03 9.24908E-05-3.96517E-14
 -1      4098 7.18841E-03 7.85432E-05-4.09811E-14
 -1      4099 7.17673E-03 1.28760E-04-4.17575E-14
 -1      4100 2.03861E-03-8.69962E-05-6.74278E-15
 -1      4101 1.98294E-03-4.56716E-05-6.84373E-15
 -1      4102 1.91184E-03-3.11157E-05-6.48066E-15
 -1      4103 1.89364E-03-8.34284E-05-5.86564E-15
 -1      4104 1.35513E-02-1.75470E-04-1.58296E-13
 -1      4105 1.34273E-02-1.54112E-04-1.55767E-13
 -1      4106 1.35537E-02 3.20639E-05-1.58389E-13
 -1      4107 1.35533E-02 7.42048E-05-1.58381E-13
 -1      4108 1.33447E-02 8.49781E-05-1.54107E-13
 -1      4109 1.34302E-02 1.15092E-05-1.55861E-13
 -1      4110 1.41592E-03-6.88773E-05-3.41936E-15
 -1      4111 1.53820E-03-7.14758E-05-3.98772E-15
 -1      4112 1.65877E-03-7.35852E-05-4.59820E-15
 -1      4113 1.77807E-03-7.48359E-05-5.25032E-15
 -1      4114 1.57039E-03-4.20255E-05-4.30802E-15
 -1      4115 8.17340E-03 1.34193E-04-5.76470E-14
 -1      4116 8.04201E-03 1.31718E-04-5.54805E-14
 -1      4117 7.99197E-03 1.02083E-04-5.44586E-14
 -1      4118 8.25095E-03 1.06392E-04-5.87931E-14
 -1      4119 7.35375E-03-4.12631E-05-4.29680E-14
 -1      4120 7.39391E-03-8.34437E-05-4.43069E-14
 -1      4121 7.51108E-03-8.61995E-05-4.62897E-14
 -1      4122 7.58733E-03-6.23203E-05-4.72962E-14
 -1      4123 1.94695E-03 1.82804E-05-6.81765E-15
 -1      4124 1.92641E-03 3.57921E-05-6.50573E-15
 -1      4125 1.89467E-03 5.26867E-06-6.48330E-15
 -1      4126 7.27725E-03 9.72890E-05-4.27778E-14
 -1      4127 1.31660E-02-1.61216E-04-1.50442E-13
 -1      4128 1.33089E-02-1.61720E-04-1.53350E-13
 -1      4129 7.26954E-03 2.65782E-05-4.13760E-14
 -1      4130 7.35152E-03 1.71884E-05-4.27821E-14
 -1      4131 7.28552E-03 4.56857E-05-4.19880E-14
 -1      4132 7.40098E-03-2.54086E-05-4.36673E-14
 -1      4133 2.02666E-03 8.46982E-05-6.63510E-15
 -1      4134 1.87682E-03 1.04625E-04-5.53278E-15
 -1      4135 1.79232E-03-4.85082E-05-5.54133E-15
 -1      4136 1.20654E-03-6.39452E-05-2.54838E-15
 -1      4137 1.45466E-03 6.42419E-05-3.60457E-15
 -1      4138 1.31383E-03-4.36228E-05-3.06520E-15
 -1      4139 1.93966E-03 6.13887E-05-6.33167E-15
 -1      4140 1.33348E-02-1.86583E-05-1.53909E-13
 -1      4141 1.32920E-02 1.80734E-05-1.53036E-13
 -1      4142 2.29392E-03 1.73484E-04-7.40570E-15
 -1      4143 1.33554E-02-1.16768E-04-1.54312E-13
 -1      4144 1.54899E-03 3.01480E-05-4.23050E-15
 -1      4145 1.54030E-03 9.63705E-06-4.23904E-15
 -1      4146 1.77164E-03 1.10010E-04-4.90417E-15
 -1      4147 1.67468E-03 1.05671E-04-4.42993E-15
 -1      4148 1.56890E-03 8.71063E-05-4.02353E-15
 -1      4149 1.77804E-03 7.69058E-05-5.20366E-15
 -1      4150 1.55791E-03-2.03143E-05-4.31884E-15
 -1      4151 1.30941E-02-1.23886E-04-1.48992E-13
 -1      4152 1.65150E-03-1.07004E-05-4.86582E-15
 -1      4153 1.33352E-02-6.06011E-05-1.53912E-13
 -1      4154 7.56089E-03-3.55693E-05-4.66101E-14
 -1      4155 7.68034E-03-4.37146E-05-4.87491E-14
 -1      4156 8.02292E-03-5.09719E-05-5.46799E-14
 -1      4157 8.14827E-03-5.26257E-05-5.68311E-14
 -1      4158 8.27546E-03-5.41594E-05-5.90149E-14
 -1      4159 8.40436E-03-5.57751E-05-6.12285E-14
 -1      4160 8.21458E-03-2.68366E-05-5.79087E-14
 -1      4161 8.53475E-03-5.73058E-05-6.34716E-14
 -1      4162 8.66653E-03-5.88823E-05-6.57432E-14
 -1      4163 8.47147E-03-2.86086E-05-6.23348E-14
 -1      4164 8.79954E-03-6.03814E-05-6.80427E-14
 -1      4165 8.93368E-03-6.18959E-05-7.03688E-14
 -1      4166 8.73436E-03-3.03756E-05-6.68766E-14
 -1      4167 9.06884E-03-6.33331E-05-7.27204E-14
 -1      4168 9.20492E-03-6.47622E-05-7.50991E-14
 -1      4169 9.00214E-03-3.21107E-05-7.15278E-14
 -1      4170 9.34182E-03-6.61134E-05-7.75034E-14
 -1      4171 9.47948E-03-6.74400E-05-7.99301E-14
 -1      4172 9.27390E-03-3.37891E-05-7.62845E-14
 -1      4173 9.61780E-03-6.86900E-05-8.23812E-14
 -1      4174 9.75673E-03-6.99052E-05-8.48564E-14
 -1      4175 9.54892E-03-3.53929E-05-8.11393E-14
 -1      4176 9.89619E-03-7.10476E-05-8.73538E-14
 -1      4177 1.00361E-02-7.21502E-05-8.98741E-14
 -1      4178 9.82654E-03-3.69119E-05-8.60860E-14
 -1      4179 1.01765E-02-7.31859E-05-9.24161E-14
 -1      4180 1.03172E-02-7.41806E-05-9.49825E-14
 -1      4181 1.01062E-02-3.83430E-05-9.11259E-14
 -1      4182 1.04583E-02-7.51157E-05-9.75727E-14
 -1      4183 1.05996E-02-7.60115E-05-1.00186E-13
 -1      4184 1.03876E-02-3.96884E-05-9.62598E-14
 -1      4185 1.07412E-02-7.68554E-05-1.02823E-13
 -1      4186 1.08830E-02-7.76634E-05-1.05483E-13
 -1      4187 1.06702E-02-4.09545E-05-1.01487E-13
 -1      4188 1.10250E-02-7.84275E-05-1.08162E-13
 -1      4189 1.11672E-02-7.91597E-05-1.10863E-13
 -1      4190 1.09537E-02-4.21495E-05-1.06805E-13
 -1      4191 1.13095E-02-7.98556E-05-1.13587E-13
 -1      4192 1.14519E-02-8.05242E-05-1.16330E-13
 -1      4193 1.12380E-02-4.32830E-05-1.12210E-13
 -1      4194 1.15944E-02-8.11633E-05-1.19094E-13
 -1      4195 1.17370E-02-8.17796E-05-1.21876E-13
 -1      4196 1.15228E-02-4.43645E-05-1.17699E-13
 -1      4197 1.18797E-02-8.23724E-05-1.24674E-13
 -1      4198 1.20224E-02-8.29465E-05-1.27489E-13
 -1      4199 1.18079E-02-4.54032E-05-1.23261E-13
 -1      4200 1.21651E-02-8.35022E-05-1.30321E-13
 -1      4201 1.23079E-02-8.40430E-05-1.33164E-13
 -1      4202 1.20934E-02-4.64072E-05-1.28892E-13
 -1      4203 1.24508E-02-8.45698E-05-1.36020E-13
 -1      4204 1.25936E-02-8.50848E-05-1.38888E-13
 -1      4205 1.23789E-02-4.73839E-05-1.34582E-13
 -1      4206 1.27365E-02-8.55894E-05-1.41763E-13
 -1      4207 1.28794E-02-8.60850E-05-1.44648E-13
 -1      4208 1.26646E-02-4.83392E-05-1.40318E-13
 -1      4209 9.12750E-03 8.84474E-05-7.37223E-14
 -1      4210 8.99129E-03 8.70274E-05-7.13585E-14
 -1      4211 7.48146E-03-8.16557E-06-4.50667E-14
 -1      4212 8.58833E-03 8.23868E-05-6.44240E-14
 -1      4213 8.45619E-03 8.07058E-05-6.21665E-14
 -1      4214 9.67958E-03 9.31165E-05-8.34248E-14
 -1      4215 9.54061E-03 9.20946E-05-8.09634E-14
 -1      4216 9.95903E-03 9.48293E-05-8.84202E-14
 -1      4217 9.81907E-03 9.40199E-05-8.59102E-14
 -1      4218 9.75092E-03 6.00677E-05-8.47003E-14
 -1      4219 1.02401E-02 9.61308E-05-9.35099E-14
 -1      4220 1.00994E-02 9.55262E-05-9.09527E-14
 -1      4221 1.00304E-02 6.09179E-05-8.97175E-14
 -1      4222 1.05225E-02 9.70482E-05-9.86937E-14
 -1      4223 1.03812E-02 9.66327E-05-9.60903E-14
 -1      4224 1.03116E-02 6.14835E-05-9.48290E-14
 -1      4225 1.08059E-02 9.76199E-05-1.03969E-13
 -1      4226 1.06641E-02 9.73729E-05-1.01321E-13
 -1      4227 1.05941E-02 6.17867E-05-1.00034E-13
 -1      4228 1.10901E-02 9.78899E-05-1.09336E-13
 -1      4229 1.09479E-02 9.77888E-05-1.06642E-13
 -1      4230 1.08775E-02 6.18561E-05-1.05333E-13
 -1      4231 1.13748E-02 9.79033E-05-1.14787E-13
 -1      4232 1.12324E-02 9.79254E-05-1.12051E-13
 -1      4233 1.11617E-02 6.17230E-05-1.10721E-13
 -1      4234 1.16598E-02 9.77034E-05-1.20315E-13
 -1      4235 1.15173E-02 9.78272E-05-1.17542E-13
 -1      4236 1.14464E-02 6.14188E-05-1.16188E-13
 -1      4237 1.19452E-02 9.73298E-05-1.25916E-13
 -1      4238 1.18025E-02 9.75360E-05-1.23106E-13
 -1      4239 1.17316E-02 6.09732E-05-1.21734E-13
 -1      4240 1.22307E-02 9.68177E-05-1.31580E-13
 -1      4241 1.20880E-02 9.70892E-05-1.28740E-13
 -1      4242 1.20169E-02 6.04130E-05-1.27350E-13
 -1      4243 1.25164E-02 9.61972E-05-1.37300E-13
 -1      4244 1.23736E-02 9.65195E-05-1.34435E-13
 -1      4245 1.23025E-02 5.97619E-05-1.33028E-13
 -1      4246 1.28022E-02 9.54937E-05-1.43061E-13
 -1      4247 1.26593E-02 9.58547E-05-1.40175E-13
 -1      4248 1.25882E-02 5.90401E-05-1.38760E-13
 -1      4249 7.57444E-03 6.87360E-05-4.72351E-14
 -1      4250 7.45648E-03 6.67321E-05-4.52358E-14
 -1      4251 8.85597E-03 8.55552E-05-6.90198E-14
 -1      4252 8.72161E-03 8.39807E-05-6.67080E-14
 -1      4253 8.65967E-03 5.38354E-05-6.55982E-14
 -1      4254 8.92721E-03 5.57734E-05-7.02211E-14
 -1      4255 1.81286E-03-2.58763E-05-5.83171E-15
 -1      4256 1.32648E-02 5.28717E-05-1.52478E-13
 -1      4257 1.32221E-02 8.95904E-05-1.51600E-13
 -1      4258 1.31149E-02 9.22706E-05-1.49416E-13
 -1      4259 1.31693E-02 2.27044E-05-1.50536E-13
 -1      4260 7.78884E-03-4.64632E-05-5.06405E-14
 -1      4261 7.90989E-03-4.81587E-05-5.27298E-14
 -1      4262 7.97512E-03-2.37281E-05-5.37754E-14
 -1      4263 7.75399E-03-1.94859E-05-4.99288E-14
 -1      4264 7.37537E-03 6.26222E-05-4.38070E-14
 -1      4265 7.28748E-03 6.61263E-05-4.23896E-14
 -1      4266 7.81719E-03 7.22144E-05-5.13392E-14
 -1      4267 7.69462E-03 7.04106E-05-4.92704E-14
 -1      4268 7.64971E-03 4.44987E-05-4.82866E-14
 -1      4269 1.86571E-03 4.42685E-05-6.01744E-15
 -1      4270 1.56070E-03 5.98298E-05-4.14663E-15
 -1      4271 1.65126E-03 4.90388E-05-4.69156E-15
 -1      4272 9.40223E-03 9.09837E-05-7.85250E-14
 -1      4273 9.26450E-03 8.97533E-05-7.61106E-14
 -1      4274 9.19873E-03 5.74825E-05-7.49496E-14
 -1      4275 1.32168E-02-6.82293E-05-1.51498E-13
 -1      4276 1.30739E-02-6.77589E-05-1.48592E-13
 -1      4277 1.30020E-02-3.04633E-05-1.47136E-13
 -1      4278 1.27288E-03-6.96446E-05-2.79330E-15
 -1      4279 1.75105E-03 4.29688E-05-5.30312E-15
 -1      4280 1.78958E-03 4.50438E-06-5.74211E-15
 -1      4281 9.47351E-03 5.89213E-05-7.97775E-14
 -1      4282 7.45288E-03 3.93474E-05-4.48273E-14
 -1      4283 1.30121E-02 9.25566E-05-1.47323E-13
 -1      4284 1.29049E-02 9.52221E-05-1.45143E-13
 -1      4285 1.28338E-02 5.83736E-05-1.43716E-13
 -1      4286 1.30393E-02 5.77884E-05-1.47885E-13
 -1      4287 7.94161E-03 7.38787E-05-5.34402E-14
 -1      4288 7.89044E-03 4.71199E-05-5.24231E-14
 -1      4289 8.06795E-03 7.56363E-05-5.55746E-14
 -1      4290 8.39696E-03 5.17220E-05-6.10859E-14
 -1      4291 8.32536E-03 7.90453E-05-5.99390E-14
 -1      4292 8.19586E-03 7.73083E-05-5.77415E-14
 -1      4293 9.51189E-03 1.19101E-05-8.04635E-14
 -1      4294 9.37419E-03 1.19547E-05-7.80309E-14
 -1      4295 8.43651E-03 1.17095E-05-6.17158E-14
 -1      4296 8.56691E-03 1.17717E-05-6.39651E-14
 -1      4297 8.69872E-03 1.18964E-05-6.62425E-14
 -1      4298 8.83176E-03 1.19287E-05-6.85482E-14
 -1      4299 8.96594E-03 1.19990E-05-7.08805E-14
 -1      4300 9.10113E-03 1.19927E-05-7.32378E-14
 -1      4301 9.23725E-03 1.20064E-05-7.56208E-14
 -1      4302 9.65025E-03 1.18093E-05-8.29191E-14
 -1      4303 9.78922E-03 1.17068E-05-8.53984E-14
 -1      4304 9.92871E-03 1.15562E-05-8.79006E-14
 -1      4305 1.00687E-02 1.13982E-05-9.04263E-14
 -1      4306 1.02091E-02 1.11996E-05-9.29752E-14
 -1      4307 1.03498E-02 1.09904E-05-9.55488E-14
 -1      4308 1.04909E-02 1.07473E-05-9.81459E-14
 -1      4309 1.06323E-02 1.04923E-05-1.00763E-13
 -1      4310 1.07739E-02 1.02095E-05-1.03408E-13
 -1      4311 1.09157E-02 9.91457E-06-1.06074E-13
 -1      4312 1.10577E-02 9.59726E-06-1.08761E-13
 -1      4313 1.11999E-02 9.26834E-06-1.11469E-13
 -1      4314 1.13422E-02 8.92172E-06-1.14198E-13
 -1      4315 1.14846E-02 8.56455E-06-1.16946E-13
 -1      4316 1.16272E-02 8.19361E-06-1.19714E-13
 -1      4317 1.17698E-02 7.81341E-06-1.22501E-13
 -1      4318 1.19124E-02 7.42268E-06-1.25304E-13
 -1      4319 1.20551E-02 7.02406E-06-1.28125E-13
 -1      4320 1.21979E-02 6.61754E-06-1.30960E-13
 -1      4321 1.23407E-02 6.20447E-06-1.33809E-13
 -1      4322 1.24835E-02 5.78562E-06-1.36671E-13
 -1      4323 1.26264E-02 5.36144E-06-1.39541E-13
 -1      4324 1.27693E-02 4.93336E-06-1.42421E-13
 -1      4325 8.18042E-03 1.14447E-05-5.73062E-14
 -1      4326 8.30760E-03 1.15294E-05-5.94955E-14
 -1      4327 7.51504E-03 9.78931E-06-4.57084E-14
 -1      4328 1.30666E-02 2.30157E-05-1.48444E-13
 -1      4329 1.75415E-03 2.04888E-05-5.45802E-15
 -1      4330 1.28720E-02 4.62021E-06-1.44499E-13
 -1      4331 7.59591E-03 1.25253E-05-4.71620E-14
 -1      4332 7.94160E-03 1.24969E-05-5.31893E-14
 -1      4333 8.05509E-03 1.11926E-05-5.51471E-14
 -1      4334 7.71144E-03 1.32681E-05-4.91944E-14
 -1      4335 7.82056E-03 1.21077E-05-5.10938E-14
 -1      4336 8.14011E-03 4.94831E-05-5.66918E-14
 -3
    1PSTEP                         2           1           1          
  100CL  101 1.000000000        4336                     0    1           1
 -4  STRESS      6    1
 -5  SXX         1    4    1    1
 -5  SYY         1    4    2    2
 -5  SZZ         1    4    3    3
 -5  SXY         1    4    1    2
 -5  SYZ         1    4    2    3
 -5  SZX         1    4    3    1
 -1         1 4.28824E+01 8.49991E+00 2.33484E+00 1.83506E+01-1.99002E-12-4.29973E-12
 -1         2-6.71876E-01-2.45470E+01-3.34378E+00-9.46255E-02 2.76720E-13 7.81736E-14
 -1         3 1.99999E+01 1.09862E-04-1.58127E-04 1.07898E-04-2.74607E-13-4.81746E-13
 -1         4 1.99999E+01 9.61493E-05-1.69224E-04-9.63593E-05 2.49828E-13 2.25106E-14
 -1         5 3.28952E+01 6.18979E+00 2.59977E+00 6.10467E+00-5.65936E-14 4.16471E-12
 -1         6 3.56720E+01 1.21685E+01 4.88952E+00-8.44321E+00-2.35867E-13 4.26316E-12
 -1         7 2.17449E+01 6.34627E+00-4.39590E-02-4.32562E+00-3.32095E-14 9.52353E-13
 -1         8 2.04713E+01 6.16349E+00 9.02329E-02-2.65444E+00-5.17711E-14-1.24034E-13
 -1         9 1.96636E+01 5.92430E+00 6.59067E-02-1.78812E+00-4.40967E-14-7.27767E-13
 -1        10 1.90611E+01 5.73932E+00 4.98382E-02-1.18971E+00-3.39138E-14-1.03402E-12
 -1        11 1.85664E+01 5.58829E+00 3.45359E-02-7.58428E-01-2.43312E-14-1.19410E-12
 -1        12 1.81768E+01 5.46958E+00 2.12527E-02-4.54363E-01-1.65926E-14-1.27720E-12
 -1        13 1.78961E+01 5.38451E+00 1.11981E-02-2.34274E-01-9.57914E-15-1.31012E-12
 -1        14 1.77513E+01 5.34069E+00 5.92014E-03-6.92287E-02-9.45424E-17-1.31967E-12
 -1        15 1.77538E+01 5.34145E+00 6.07680E-03 7.78268E-02 5.30955E-15-1.31788E-12
 -1        16 1.79032E+01 5.38668E+00 1.16563E-02 2.44986E-01 1.10034E-14-1.30946E-12
 -1        17 1.81876E+01 5.47261E+00 2.19629E-02 4.69439E-01 1.62682E-14-1.26243E-12
 -1        18 1.85790E+01 5.59183E+00 3.54859E-02 7.78979E-01 2.47337E-14-1.16873E-12
 -1        19 1.90747E+01 5.74335E+00 5.08900E-02 1.21900E+00 3.73486E-14-9.95033E-13
 -1        20 1.96744E+01 5.92853E+00 6.60353E-02 1.82798E+00 4.97311E-14-6.76340E-13
 -1        21 2.04700E+01 6.17745E+00 8.55812E-02 2.69354E+00 5.58442E-14-5.64965E-14
 -1        22 2.20363E+01 6.59786E+00 1.88188E-01 4.13101E+00 8.13238E-15 1.23124E-12
 -1        23 2.39173E+01-1.43811E+00-9.71564E-01-5.91944E-01-1.66981E-13 3.41720E-12
 -1        24 2.09565E+01-9.99360E-02-3.00221E-01 8.35613E-02-4.09464E-14 2.66158E-12
 -1        25 2.08534E+01-5.70657E-02-6.58412E-02 7.21687E-02-1.05029E-14 1.91849E-12
 -1        26 2.12330E+01-2.34955E-02-9.26444E-03 4.63703E-02-1.44535E-15 1.41276E-12
 -1        27 2.18597E+01-1.14475E-02-7.99700E-04 3.95812E-02-3.03376E-14 1.03600E-12
 -1        28 2.26012E+01-1.39490E-03 5.74661E-03 3.60764E-02-3.83323E-15 7.49300E-13
 -1        29 2.33241E+01 9.05980E-03 1.85032E-02 3.09125E-02-3.16750E-16 6.02801E-13
 -1        30 2.38597E+01 2.01337E-02 3.74756E-02 1.89309E-02-2.50021E-14 4.30504E-13
 -1        31 2.39991E+01 2.95446E-02 5.79814E-02-4.79744E-03 2.87862E-14 2.02881E-13
 -1        32 2.35360E+01 3.24835E-02 6.91145E-02-4.18789E-02-4.21297E-14 2.11064E-14
 -1        33 2.23721E+01 2.33024E-02 5.50611E-02-8.47314E-02 1.31154E-14-1.40960E-13
 -1        34 2.06652E+01 2.59751E-04 6.56764E-03-1.12690E-01-1.14646E-15-2.06724E-13
 -1        35 1.89110E+01-2.94850E-02-6.31249E-02-1.00264E-01 1.18764E-14-2.28647E-13
 -1        36 1.78045E+01-5.08538E-02-1.15980E-01-3.97593E-02-2.58751E-14-3.95486E-13
 -1        37 1.78673E+01-5.08267E-02-1.15992E-01 4.27850E-02-4.57655E-14-5.75455E-13
 -1        38 1.90988E+01-2.94171E-02-6.31257E-02 1.03215E-01-2.61284E-14-6.97397E-13
 -1        39 2.09772E+01 3.00414E-04 6.21040E-03 1.15677E-01-1.58869E-14-7.68469E-13
 -1        40 2.28101E+01 2.33313E-02 5.42052E-02 8.82814E-02-1.19392E-14-8.50549E-13
 -1        41 2.41057E+01 3.26781E-02 6.79204E-02 4.64582E-02-3.22173E-14-9.92593E-13
 -1        42 2.47073E+01 3.02122E-02 5.67160E-02 1.08008E-02-3.23502E-14-1.06942E-12
 -1        43 2.47104E+01 2.17011E-02 3.61969E-02-1.10116E-02-3.19781E-14-8.79439E-13
 -1        44 2.43141E+01 1.22117E-02 1.72006E-02-2.03747E-02 5.12293E-14-6.92261E-13
 -1        45 2.37129E+01 4.46367E-03 3.87811E-03-2.17401E-02-3.90360E-14-7.88753E-13
 -1        46 2.30512E+01-7.70563E-04-3.76222E-03-1.91374E-02-5.24877E-15-1.11501E-12
 -1        47 2.24181E+01-3.75624E-03-7.24614E-03-1.51804E-02 1.83807E-14-7.99084E-13
 -1        48 2.18589E+01-5.09981E-03-8.18807E-03-1.12378E-02 3.78726E-14-5.35549E-13
 -1        49 2.13904E+01-5.39256E-03-7.78601E-03-7.87858E-03 1.71249E-14-5.80693E-13
 -1        50 2.10124E+01-5.08793E-03-6.79043E-03-5.24572E-03-3.97726E-14-6.16690E-13
 -1        51 2.07164E+01-4.49210E-03-5.62102E-03-3.29047E-03-2.42395E-14-5.55440E-13
 -1        52 2.04906E+01-3.79421E-03-4.48952E-03-1.89676E-03-3.17563E-14-3.99713E-13
 -1        53 2.03223E+01-3.10201E-03-3.48885E-03-9.39581E-04-6.44119E-14-6.08446E-13
 -1        54 2.02000E+01-2.47091E-03-2.64869E-03-3.08097E-04 4.17851E-14-8.35442E-13
 -1        55 2.01133E+01-1.92454E-03-1.96735E-03 8.77433E-05-5.53055E-14-8.39614E-13
 -1        56 2.00537E+01-1.46829E-03-1.42904E-03 3.17717E-04 7.39603E-15-1.22167E-12
 -1        57 2.00145E+01-1.09770E-03-1.01297E-03 4.34282E-04 2.05770E-14-1.13483E-12
 -1        58 1.99899E+01-8.03562E-04-6.97847E-04 4.75996E-04 8.13363E-14-8.48189E-13
 -1        59 1.99759E+01-5.74885E-04-4.64010E-04 4.70649E-04-4.63047E-14-6.85374E-13
 -1        60 1.99691E+01-4.00574E-04-2.94264E-04 4.37867E-04-1.63385E-14-8.03110E-13
 -1        61 1.99672E+01-2.70293E-04-1.74090E-04 3.91191E-04 6.27717E-14-7.95340E-13
 -1        62 1.99684E+01-1.74865E-04-9.15166E-05 3.39701E-04-2.22270E-14-5.91298E-13
 -1        63 1.99715E+01-1.06383E-04-3.68253E-05 2.89245E-04-9.47098E-14-8.77814E-13
 -1        64 1.99756E+01-5.81566E-05-2.17540E-06 2.43359E-04 7.70542E-14-8.87052E-13
 -1        65 1.99801E+01-2.45652E-05 1.88483E-05 2.03905E-04 6.64272E-14-3.44572E-13
 -1        66 1.99846E+01-8.59543E-07 3.18273E-05 1.71442E-04-5.11233E-14-1.33798E-13
 -1        67 1.99890E+01 1.70243E-05 4.23211E-05 1.45239E-04-6.26929E-16-1.93553E-13
 -1        68 1.99929E+01 3.25345E-05 5.67810E-05 1.22682E-04 3.53278E-14 3.05779E-13
 -1        69 1.99962E+01 4.75083E-05 8.13819E-05 9.69401E-05-7.38745E-14-5.51311E-14
 -1        70 1.99987E+01 5.21700E-05 1.04870E-04 4.55184E-05 1.05693E-13 1.55563E-13
 -1        71 1.99999E+01-1.02016E-05 4.43601E-05-3.45625E-05-9.55466E-14 4.56312E-13
 -1        72 2.19599E+01-4.10885E-01-1.00067E+00-3.57880E-01 6.79214E-14 3.73628E-12
 -1        73 2.09310E+01-6.57666E-02-2.81685E-01-6.63348E-02 3.35378E-14 2.76304E-12
 -1        74 2.08608E+01-2.13424E-02-6.16679E-02-2.82466E-02 1.97232E-14 2.03196E-12
 -1        75 2.12352E+01-1.01842E-02-1.17425E-02-2.47500E-02 6.71024E-15 1.51878E-12
 -1        76 2.18556E+01-3.11685E-03-1.05430E-03-2.61651E-02 2.64419E-14 1.18864E-12
 -1        77 2.25874E+01 3.75908E-03 6.73734E-03-2.98591E-02 8.32795E-15 9.23518E-13
 -1        78 2.32964E+01 1.12607E-02 2.01072E-02-3.32233E-02 1.77175E-15 8.63946E-13
 -1        79 2.38129E+01 1.84557E-02 3.93063E-02-3.19313E-02 1.01551E-14 6.86977E-13
 -1        80 2.39288E+01 2.24926E-02 5.93573E-02-1.98717E-02-8.35855E-15 4.69007E-13
 -1        81 2.34413E+01 1.92131E-02 6.88099E-02 8.43834E-03 3.61642E-14 4.47998E-13
 -1        82 2.22598E+01 5.92402E-03 5.23874E-02 5.15808E-02-1.55594E-14 4.13964E-13
 -1        83 2.05507E+01-1.42990E-02 2.09727E-03 9.39261E-02 2.17566E-14 4.68344E-13
 -1        84 1.88148E+01-3.16014E-02-6.70762E-02 1.07760E-01 4.46167E-14 2.90632E-13
 -1        85 1.77431E+01-3.57974E-02-1.16782E-01 7.36408E-02 6.34518E-15 1.73301E-13
 -1        86 1.78417E+01-2.49000E-02-1.13642E-01 3.30030E-03-4.43569E-15 2.70738E-14
 -1        87 1.90935E+01-6.18940E-03-5.98894E-02-6.48740E-02 1.84976E-15-1.66318E-13
 -1        88 2.09712E+01 1.05332E-02 8.35725E-03-9.75441E-02-1.49446E-14-4.43680E-13
 -1        89 2.27894E+01 1.95556E-02 5.50215E-02-9.01969E-02 2.62615E-14-9.07448E-13
 -1        90 2.40677E+01 2.05398E-02 6.80443E-02-6.05054E-02-1.15481E-14-9.45286E-13
 -1        91 2.46581E+01 1.63734E-02 5.68108E-02-2.82800E-02-8.17815E-14-6.75596E-13
 -1        92 2.46582E+01 1.04059E-02 3.63598E-02-4.24292E-03 5.25719E-15-3.08707E-13
 -1        93 2.42654E+01 4.91973E-03 1.73173E-02 9.56594E-03-3.93993E-14-4.14096E-13
 -1        94 2.36712E+01 8.77965E-04 3.88585E-03 1.53801E-02 6.45228E-14-9.64822E-13
 -1        95 2.30178E+01-1.63488E-03-3.85360E-03 1.62803E-02 1.16716E-14-1.35717E-12
 -1        96 2.23924E+01-2.92673E-03-7.39638E-03 1.47057E-02-2.27845E-15-9.49412E-13
 -1        97 2.18398E+01-3.38616E-03-8.35894E-03 1.21919E-02-5.52639E-14-5.39486E-13
 -1        98 2.13764E+01-3.34285E-03-7.95124E-03 9.56612E-03 6.40204E-14-2.76093E-13
 -1        99 2.10024E+01-3.03308E-03-6.93565E-03 7.20839E-03-2.81170E-14-5.49811E-13
 -1       100 2.07094E+01-2.60929E-03-5.74052E-03 5.25097E-03 8.53026E-15-3.61490E-13
 -1       101 2.04857E+01-2.16199E-03-4.58295E-03 3.70319E-03-4.13840E-14-3.21459E-13
 -1       102 2.03190E+01-1.74027E-03-3.55874E-03 2.52113E-03 5.24952E-14-2.79947E-13
 -1       103 2.01977E+01-1.36744E-03-2.69879E-03 1.64359E-03-6.23301E-14-1.98291E-14
 -1       104 2.01118E+01-1.05154E-03-2.00162E-03 1.00896E-03 9.54380E-14-2.17419E-14
 -1       105 2.00528E+01-7.92115E-04-1.45118E-03 5.62361E-04 2.14238E-14-4.14976E-13
 -1       106 2.00139E+01-5.84358E-04-1.02615E-03 2.57798E-04-1.32285E-13-4.59160E-13
 -1       107 1.99896E+01-4.21576E-04-7.04667E-04 5.81654E-05-7.66217E-15-5.75892E-13
 -1       108 1.99758E+01-2.96598E-04-4.66498E-04-6.57133E-05 7.79980E-14-1.10629E-12
 -1       109 1.99691E+01-2.02535E-04-2.93958E-04-1.36315E-04-2.91844E-14-9.27358E-13
 -1       110 1.99673E+01-1.33162E-04-1.72117E-04-1.70655E-04 1.26324E-14-1.10930E-12
 -1       111 1.99685E+01-8.30513E-05-8.86669E-05-1.81412E-04 2.85475E-14-1.14392E-12
 -1       112 1.99716E+01-4.75780E-05-3.36244E-05-1.77893E-04-1.52284E-13-8.26028E-13
 -1       113 1.99757E+01-2.28473E-05 1.05955E-06-1.66830E-04 1.74221E-13-6.18387E-13
 -1       114 1.99802E+01-5.57310E-06 2.19560E-05-1.53009E-04-1.42043E-13-6.06936E-13
 -1       115 1.99848E+01 7.06365E-06 3.47731E-05-1.39748E-04 1.08887E-13-5.46144E-13
 -1       116 1.99891E+01 1.74595E-05 4.52799E-05-1.29032E-04 1.50637E-13-1.10580E-12
 -1       117 1.99930E+01 2.76349E-05 6.03435E-05-1.21166E-04 1.99454E-14-1.58771E-12
 -1       118 1.99963E+01 3.81159E-05 8.62150E-05-1.13117E-04 7.40544E-14-1.14170E-12
 -1       119 1.99987E+01 4.30594E-05 1.11951E-04-8.72230E-05-7.38595E-14-7.72680E-13
 -1       120 1.99999E+01-3.70363E-05 2.95010E-05 4.88785E-06 6.20014E-14-3.83532E-13
 -1       121 1.99998E+01-1.79682E-05 3.01077E-05 3.17041E-05-1.62372E-13-4.10770E-14
 -1       122 1.99998E+01-1.13677E-03 9.47470E-05-6.05534E-05 7.30576E-13 3.54310E-14
 -1       123 1.99998E+01-3.38656E-03 4.71543E-05-1.01135E-04 1.18689E-12 8.57283E-14
 -1       124 1.99998E+01-6.09587E-03-1.93624E-06-1.05964E-04 1.09857E-12 3.47999E-14
 -1       125 1.99998E+01-8.76671E-03-3.63452E-05-9.20389E-05 2.36138E-13-4.03239E-13
 -1       126 1.99998E+01-1.10108E-02-5.83119E-05-7.05859E-05-8.57626E-13-3.17689E-14
 -1       127 1.99998E+01-1.26560E-02-7.06734E-05-4.36129E-05-1.64894E-14 1.02327E-13
 -1       128 1.99997E+01-1.35107E-02-7.64048E-05-1.45584E-05 2.41209E-13-1.51117E-13
 -1       129 1.99997E+01-1.35034E-02-7.63561E-05 1.50572E-05 7.85433E-13 1.24758E-13
 -1       130 1.99998E+01-1.26347E-02-7.05505E-05 4.40013E-05 1.30912E-12-8.98777E-14
 -1       131 1.99998E+01-1.09779E-02-5.76081E-05 7.17098E-05-6.16889E-14-4.90015E-13
 -1       132 1.99998E+01-8.72627E-03-3.62228E-05 9.24982E-05-7.62105E-13 4.32148E-13
 -1       133 1.99998E+01-6.05070E-03-1.64382E-06 1.05851E-04-4.48253E-13-1.29137E-13
 -1       134 1.99998E+01-3.33724E-03 5.17951E-05 1.08143E-04-6.49882E-13 1.03466E-14
 -1       135 1.99998E+01-1.14506E-03 8.20486E-05 8.42867E-05-1.08966E-12-1.34809E-13
 -1       136 1.99998E+01-5.33214E-05 2.53300E-05-7.84206E-05-5.80947E-13 1.89004E-13
 -1       137-1.46157E+00-1.99040E+01-3.08488E+00-3.81633E+00 2.50991E-12 5.77514E-13
 -1       138-1.48585E+00-8.14867E+00-2.25792E+00-2.81969E+00 3.66140E-12 1.70011E-12
 -1       139 3.48591E+00 4.04189E+00-1.01706E+00 4.02516E+00 3.94917E-12 3.11368E-12
 -1       140 1.62477E+01 1.05037E+01 4.21239E-01 1.29358E+01 3.34455E-12 3.85325E-12
 -1       141 3.52983E+01 9.87536E+00 1.82992E+00 1.81132E+01 1.84738E-12 3.30752E-12
 -1       142 5.41058E+01 5.15185E+00 2.94045E+00 1.53807E+01 5.51587E-13 1.70564E-12
 -1       143 6.55390E+01 1.24260E+00 3.54936E+00 4.85368E+00 1.01603E-13-6.67286E-13
 -1       144 6.37490E+01 2.00450E+00 3.47924E+00-8.30945E+00 4.66837E-13-3.21695E-12
 -1       145 4.88275E+01 6.85296E+00 2.68227E+00-1.72685E+01 1.88338E-12-4.93161E-12
 -1       146 2.89505E+01 1.09529E+01 1.43937E+00-1.74796E+01 3.56026E-12-5.48012E-12
 -1       147 1.19029E+01 9.64024E+00 4.67722E-02-1.06770E+01 4.62935E-12-4.85195E-12
 -1       148 1.30274E+00 8.33387E-01-1.41450E+00-1.58462E+00 4.79222E-12-3.12222E-12
 -1       149-1.89096E+00-1.25782E+01-2.61106E+00 4.04530E+00 3.64647E-12-1.46358E-12
 -1       150-1.02937E+00-2.27725E+01-3.27819E+00 2.84287E+00 1.46971E-12-2.59863E-13
 -1       151-1.03551E+00-2.39052E+01-3.34622E+00-1.90575E+00-9.66144E-13-1.86698E-13
 -1       152-1.66368E+00-1.48859E+01-2.75476E+00-3.84053E+00-3.26200E-12-1.16029E-12
 -1       153-2.82067E-01-2.56803E+00-1.76064E+00-6.13124E-01-4.21546E-12-2.46836E-12
 -1       154 7.42367E+00 7.54864E+00-4.57919E-01 7.59655E+00-4.25887E-12-3.87024E-12
 -1       155 2.32535E+01 1.12017E+01 1.02407E+00 1.58474E+01-3.42154E-12-4.69808E-12
 -1       156 5.91305E+01 3.57471E+00 3.22976E+00 1.29646E+01-6.94486E-13-2.89452E-12
 -1       157 6.65517E+01 8.31772E-01 3.59914E+00 1.51807E+00-7.10369E-14-5.89005E-13
 -1       158 6.20403E+01 2.43498E+00 3.36130E+00-1.02422E+01-3.25906E-13 1.44321E-12
 -1       159 4.71012E+01 7.26050E+00 2.55499E+00-1.75561E+01-1.38076E-12 3.17268E-12
 -1       160 2.73026E+01 1.07744E+01 1.29811E+00-1.68005E+01-2.64655E-12 4.08040E-12
 -1       161 1.14288E+01 9.20772E+00-4.06143E-02-1.02380E+01-3.36181E-12 3.52168E-12
 -1       162 1.39620E+00 1.10980E+00-1.37282E+00-1.68263E+00-3.52290E-12 2.37921E-12
 -1       163-1.68798E+00-1.04105E+01-2.42445E+00 3.52519E+00-3.04068E-12 1.37929E-12
 -1       164-1.29019E+00-2.07260E+01-3.11432E+00 3.66196E+00-1.63616E-12 2.61378E-13
 -1       165 2.20452E+01 3.65993E+00-5.04399E-02-3.01398E+00-5.96006E-13 3.60538E-13
 -1       166 2.07557E+01 4.24808E+00-4.17754E-02-2.11521E+00-5.68248E-13-3.09676E-13
 -1       167 1.98722E+01 4.56429E+00-2.98582E-02-1.45876E+00-4.79462E-13-6.98658E-13
 -1       168 1.91873E+01 4.73482E+00-2.18398E-02-9.69600E-01-3.69150E-13-9.21783E-13
 -1       169 1.86424E+01 4.84145E+00-1.67093E-02-6.12942E-01-2.60401E-13-1.03006E-12
 -1       170 1.82232E+01 4.91177E+00-1.38443E-02-3.49441E-01-1.71144E-13-1.08994E-12
 -1       171 1.79608E+01 4.95230E+00-1.22786E-02-1.55120E-01-7.05140E-14-1.10481E-12
 -1       172 1.78733E+01 4.96493E+00-1.17927E-02 3.98038E-03 2.14345E-14-1.12078E-12
 -1       173 1.79675E+01 4.94988E+00-1.23310E-02 1.64095E-01 1.07760E-13-1.11206E-12
 -1       174 1.82359E+01 4.90681E+00-1.39626E-02 3.61391E-01 1.94599E-13-1.08015E-12
 -1       175 1.86510E+01 4.83494E+00-1.69689E-02 6.24174E-01 2.86915E-13-1.01745E-12
 -1       176 1.92074E+01 4.72301E+00-2.20587E-02 9.91734E-01 4.02559E-13-8.94187E-13
 -1       177 1.98965E+01 4.54477E+00-3.09207E-02 1.49177E+00 5.14040E-13-6.74200E-13
 -1       178 2.07824E+01 4.22280E+00-4.33092E-02 2.15663E+00 5.96719E-13-2.57797E-13
 -1       179 2.21544E+01 3.43851E+00-5.32052E-02 2.96086E+00 5.83656E-13 4.99663E-13
 -1       180 2.34827E+01 1.07854E+00-3.29931E-01 2.59302E+00 4.48801E-13 1.54339E-12
 -1       181 2.31934E+01 8.18810E-01 1.81941E-03-1.50786E+00-5.08815E-13 1.12073E-12
 -1       182 2.20376E+01 1.83142E-01-8.07950E-03-3.19065E-01-4.39166E-13 8.65636E-13
 -1       183 2.16807E+01 1.10599E-01 1.40984E-02 1.68603E-01-3.07335E-13 6.36946E-13
 -1       184 2.17867E+01 5.69204E-02 9.38985E-03 4.10828E-01-2.52931E-13 4.51712E-13
 -1       185 2.21187E+01 1.84134E-02 3.51533E-03 5.24525E-01-1.80139E-13 3.66120E-13
 -1       186 2.25488E+01-2.56283E-02-3.71813E-04 5.27498E-01-1.16442E-13 2.92539E-13
 -1       187 2.29609E+01-8.21875E-02-2.72645E-03 4.01995E-01-1.05543E-13 2.11794E-13
 -1       188 2.32343E+01-1.47295E-01-3.71319E-03 1.25325E-01-1.22072E-13 2.19074E-13
 -1       189 2.32474E+01-2.00446E-01-3.16911E-03-2.96785E-01-9.95215E-14 1.88791E-13
 -1       190 2.29097E+01-2.01798E-01-1.13337E-03-7.87370E-01-9.90011E-14 1.64956E-13
 -1       191 2.22221E+01-1.07989E-01 1.04942E-03-1.16937E+00-9.33561E-14-1.21231E-14
 -1       192 2.13438E+01 8.25244E-02 1.92783E-03-1.20809E+00-8.38108E-14-1.09922E-13
 -1       193 2.05954E+01 2.88121E-01 1.19991E-03-7.62538E-01-1.43039E-13-2.58404E-13
 -1       194 2.03249E+01 3.78725E-01 4.35325E-04 4.86254E-02-1.91386E-13-3.36738E-13
 -1       195 2.06870E+01 2.87734E-01 1.09414E-03 8.59275E-01-1.20619E-13-3.98313E-13
 -1       196 2.15260E+01 8.22935E-02 1.85333E-03 1.30377E+00-5.63180E-14-5.70235E-13
 -1       197 2.24926E+01-1.06893E-01 9.68102E-04 1.26547E+00-4.95272E-14-6.13472E-13
 -1       198 2.32673E+01-2.00022E-01-1.30524E-03 8.85947E-01-7.68899E-14-6.08433E-13
 -1       199 2.36894E+01-1.99096E-01-3.43908E-03 3.97279E-01-9.82725E-14-6.17682E-13
 -1       200 2.37531E+01-1.47570E-01-4.31295E-03-2.66016E-02 1.03378E-13-6.52942E-13
 -1       201 2.35399E+01-8.58499E-02-3.85041E-03-3.13010E-01 5.54368E-14-5.70865E-13
 -1       202 2.31548E+01-3.52911E-02-2.65253E-03-4.62781E-01-8.59441E-14-6.82025E-13
 -1       203 2.26911E+01-1.61103E-03-1.32365E-03-5.09135E-01-2.38430E-14-5.20488E-13
 -1       204 2.22163E+01 1.72629E-02-2.25821E-04-4.90096E-01 1.59539E-13-2.29773E-13
 -1       205 2.17724E+01 2.56686E-02 5.16313E-04-4.36425E-01 6.43708E-14-2.30443E-13
 -1       206 2.13815E+01 2.76236E-02 9.26880E-04-3.69058E-01-6.63293E-14-3.24552E-13
 -1       207 2.10515E+01 2.60604E-02 1.08854E-03-3.00578E-01-9.71228E-15-3.90036E-13
 -1       208 2.07819E+01 2.28651E-02 1.08898E-03-2.37659E-01 2.77109E-14-3.39874E-13
 -1       209 2.05675E+01 1.91467E-02 9.98677E-04-1.83226E-01-8.10278E-15-2.80157E-13
 -1       210 2.04009E+01 1.55045E-02 8.66514E-04-1.38015E-01-1.16729E-13-2.97583E-13
 -1       211 2.02744E+01 1.22275E-02 7.23020E-04-1.01590E-01-1.41004E-13-3.12260E-13
 -1       212 2.01803E+01 9.42647E-03 5.85495E-04-7.29625E-02-1.51467E-13-3.61884E-13
 -1       213 2.01119E+01 7.11524E-03 4.62568E-04-5.09500E-02-1.15609E-13-4.14832E-13
 -1       214 2.00635E+01 5.25890E-03 3.57570E-04-3.43710E-02 1.16702E-13-3.92780E-13
 -1       215 2.00303E+01 3.80126E-03 2.70789E-04-2.21426E-02 1.11136E-13-5.09710E-13
 -1       216 2.00084E+01 2.67998E-03 2.00907E-04-1.33223E-02 2.43742E-14-5.05368E-13
 -1       217 1.99947E+01 1.83455E-03 1.45867E-04-7.11830E-03-1.78661E-13-6.75283E-13
 -1       218 1.99870E+01 1.21016E-03 1.03375E-04-2.88306E-03 3.92903E-14-5.47862E-13
 -1       219 1.99833E+01 7.59172E-04 7.11784E-05-9.91564E-05 9.57861E-14-5.29432E-13
 -1       220 1.99824E+01 4.41336E-04 4.72060E-05 1.63808E-03-1.09901E-13-5.56816E-13
 -1       221 1.99832E+01 2.23210E-04 2.96209E-05 2.63795E-03 4.68322E-14-3.97803E-13
 -1       222 1.99851E+01 7.71829E-05 1.68342E-05 3.13022E-03 3.45546E-13-2.94108E-13
 -1       223 1.99876E+01-1.97805E-05 7.50647E-06 3.27841E-03 1.61767E-13-3.62207E-14
 -1       224 1.99903E+01-8.75839E-05 6.21594E-07 3.19009E-03 2.41088E-13 2.05502E-13
 -1       225 1.99929E+01-1.44589E-04-4.34130E-06 2.92385E-03 1.69884E-13 2.99574E-13
 -1       226 1.99953E+01-2.09638E-04-7.00086E-06 2.49343E-03-1.17373E-13-8.63345E-15
 -1       227 1.99973E+01-3.02628E-04-7.81372E-06 1.87368E-03 7.32750E-14 2.49338E-13
 -1       228 1.99988E+01-4.23124E-04-4.77199E-06 1.04073E-03 8.09253E-14 1.86652E-13
 -1       229 2.23599E+01 2.62365E-01-4.65588E-02 7.77727E-01 4.68653E-13 1.31743E-12
 -1       230 2.16846E+01 1.28097E-01 9.73518E-03 6.72078E-02 3.59636E-13 9.77714E-13
 -1       231 2.16274E+01 6.58928E-02 1.23014E-02-2.41679E-01 2.41500E-13 6.94485E-13
 -1       232 2.18907E+01 3.27327E-02 6.42557E-03-3.99123E-01 1.84072E-13 5.32234E-13
 -1       233 2.23156E+01 4.19869E-03 2.33132E-03-4.59582E-01 1.20124E-13 4.42021E-13
 -1       234 2.27773E+01-3.05505E-02 6.27593E-04-4.22069E-01 4.53754E-14 3.56483E-13
 -1       235 2.31504E+01-7.44008E-02 8.04318E-04-2.66593E-01 9.53617E-14 2.82615E-13
 -1       236 2.33014E+01-1.21018E-01 2.39284E-03 2.16309E-02 8.51294E-14 2.58658E-13
 -1       237 2.31087E+01-1.50506E-01 4.33461E-03 4.19465E-01 2.86910E-14 1.36957E-13
 -1       238 2.25152E+01-1.31009E-01 4.62166E-03 8.29554E-01 9.31330E-15 2.53714E-13
 -1       239 2.16021E+01-3.73266E-02 1.25339E-03 1.07198E+00 4.26887E-14 1.92890E-13
 -1       240 2.06346E+01 1.12622E-01-5.39158E-03 9.54603E-01 9.73965E-14 2.08194E-13
 -1       241 2.00011E+01 2.41121E-01-1.08295E-02 4.26483E-01 1.13685E-13 1.24469E-13
 -1       242 2.00095E+01 2.62012E-01-9.97207E-03-3.16701E-01 1.19679E-13-1.13992E-13
 -1       243 2.06799E+01 1.61103E-01-3.01063E-03-9.30025E-01 9.79642E-14-1.73959E-13
 -1       244 2.17291E+01 1.00637E-02 4.01097E-03-1.16210E+00 1.91695E-13-3.54902E-13
 -1       245 2.27643E+01-1.04451E-01 6.45118E-03-1.00339E+00 1.92494E-13-3.98969E-13
 -1       246 2.34978E+01-1.46530E-01 4.52984E-03-6.22402E-01-2.16398E-14-4.75594E-13
 -1       247 2.38265E+01-1.31316E-01 1.21736E-03-2.10315E-01-1.75193E-13-4.39351E-13
 -1       248 2.37908E+01-9.07181E-02-1.25401E-03 1.15027E-01-1.02077E-13-4.47135E-13
 -1       249 2.34970E+01-4.89169E-02-2.21652E-03 3.17731E-01 6.06071E-14-5.06420E-13
 -1       250 2.30585E+01-1.69241E-02-2.05739E-03 4.11851E-01 3.53717E-13-6.71907E-13
 -1       251 2.25665E+01 3.40188E-03-1.39398E-03 4.29199E-01 6.50104E-14-8.16990E-13
 -1       252 2.20828E+01 1.42446E-02-6.69814E-04 4.00757E-01-2.81085E-13-6.77433E-13
 -1       253 2.16429E+01 1.86517E-02-9.70973E-05 3.49851E-01-2.25423E-13-3.44497E-13
 -1       254 2.12636E+01 1.92080E-02 2.74660E-04 2.91633E-01-3.88407E-14-1.23532E-13
 -1       255 2.09488E+01 1.77284E-02 4.73066E-04 2.34847E-01 4.38653E-14-4.39202E-14
 -1       256 2.06953E+01 1.53544E-02 5.47808E-04 1.83894E-01-1.75909E-13 4.28683E-15
 -1       257 2.04964E+01 1.27465E-02 5.45047E-04 1.40503E-01-5.56275E-14 1.07760E-13
 -1       258 2.03439E+01 1.02552E-02 4.99480E-04 1.04881E-01-3.45019E-14 1.39815E-13
 -1       259 2.02296E+01 8.04424E-03 4.34332E-04 7.64558E-02-1.33691E-13 1.35683E-13
 -1       260 2.01457E+01 6.17088E-03 3.63892E-04 5.43047E-02 1.29281E-13 8.56160E-14
 -1       261 2.00858E+01 4.63491E-03 2.96255E-04 3.74108E-02 2.16706E-13-4.87316E-14
 -1       262 2.00441E+01 3.40767E-03 2.35515E-04 2.47928E-02 5.75253E-14-1.48327E-13
 -1       263 2.00162E+01 2.44859E-03 1.83315E-04 1.55693E-02 1.51748E-13-5.47415E-13
 -1       264 1.99985E+01 1.71430E-03 1.39866E-04 8.98388E-03 1.94644E-13-5.05516E-13
 -1       265 1.99880E+01 1.16341E-03 1.04603E-04 4.40744E-03-1.25417E-13-5.49854E-13
 -1       266 1.99826E+01 7.58784E-04 7.65790E-05 1.33017E-03 1.01255E-13-5.10436E-13
 -1       267 1.99806E+01 4.68358E-04 5.47050E-05-6.52023E-04-8.89069E-14-3.44517E-13
 -1       268 1.99810E+01 2.65115E-04 3.78848E-05-1.85245E-03-1.33088E-13-4.39405E-13
 -1       269 1.99827E+01 1.26626E-04 2.50882E-05-2.50816E-03-1.59000E-13-4.30045E-13
 -1       270 1.99852E+01 3.43128E-05 1.53981E-05-2.79274E-03-3.89897E-14-1.53142E-14
 -1       271 1.99881E+01-2.74821E-05 8.08247E-06-2.82680E-03 3.29282E-13-1.99569E-13
 -1       272 1.99910E+01-7.27377E-05 2.80064E-06-2.68553E-03 2.74619E-13-5.43338E-13
 -1       273 1.99937E+01-1.14810E-04 1.52063E-07-2.40301E-03 1.01421E-13-3.96332E-13
 -1       274 1.99961E+01-1.67105E-04 1.71639E-06-1.97557E-03-1.98775E-13-3.14762E-13
 -1       275 1.99980E+01-2.50371E-04 2.41937E-06-1.36535E-03-1.06151E-13 4.64732E-14
 -1       276 1.99992E+01-3.10540E-04-3.72309E-06-5.72125E-04-9.35298E-14-4.21598E-14
 -1       277 1.99994E+01-1.07513E-03-5.67377E-06-1.05488E-03 1.79360E-13 6.25831E-13
 -1       278 1.99996E+01-2.46567E-03-2.59732E-06-1.74049E-03 2.40115E-13 2.94364E-14
 -1       279 1.99997E+01-4.18118E-03-1.24196E-06-2.06107E-03 1.47746E-13 6.99663E-14
 -1       280 1.99999E+01-5.98256E-03 1.39260E-06-2.03184E-03 1.04797E-13-3.98765E-13
 -1       281 2.00000E+01-7.60900E-03 4.98028E-06-1.74038E-03 1.72769E-14-5.74654E-13
 -1       282 2.00000E+01-8.92800E-03 7.93924E-06-1.25654E-03-2.89130E-14 8.09825E-14
 -1       283 2.00001E+01-9.77006E-03 9.87814E-06-6.53711E-04-1.03909E-13 2.42289E-13
 -1       284 2.00001E+01-1.00562E-02 1.05254E-05 5.58753E-06 4.46914E-13 2.73818E-13
 -1       285 2.00001E+01-9.76036E-03 9.87390E-06 6.64338E-04 4.52988E-13-7.73044E-14
 -1       286 2.00000E+01-8.90940E-03 7.92278E-06 1.26584E-03 2.24988E-13-7.82317E-13
 -1       287 2.00000E+01-7.61050E-03 4.79489E-06 1.74101E-03 2.78274E-13-4.75813E-13
 -1       288 1.99999E+01-5.95304E-03 1.35852E-06 2.03476E-03-4.25592E-14 1.18312E-13
 -1       289 1.99997E+01-4.15202E-03-1.79214E-06 2.05911E-03-2.33886E-13-1.14370E-13
 -1       290 1.99996E+01-2.44430E-03-6.38839E-06 1.71346E-03-3.28560E-13-1.56053E-13
 -1       291 1.99992E+01-1.34021E-03-8.75951E-06 1.58330E-03-1.07510E-13 2.65254E-13
 -1       292-8.09693E-01-1.03378E+01-8.95250E-01 1.18271E+00 3.50525E-13 1.18086E-12
 -1       293 3.05149E+00-8.13211E+00-6.83129E-01 3.78770E+00 9.21457E-13 1.04650E-12
 -1       294 9.89961E+00-4.94666E+00-4.66978E-01 5.66937E+00 1.32763E-12 1.28214E-12
 -1       295 1.88459E+01-7.90128E-01-1.04621E-01 7.15671E+00 1.42764E-12 1.34256E-12
 -1       296 2.95012E+01 2.18259E+00 3.11460E-01 7.15687E+00 1.35544E-12 7.39880E-13
 -1       297 3.84070E+01 4.75347E+00 6.49322E-01 5.64545E+00 1.23431E-12 3.17801E-13
 -1       298 4.45084E+01 6.38157E+00 8.99788E-01 2.96017E+00 1.12479E-12-4.18499E-13
 -1       299 4.62591E+01 6.86135E+00 9.62532E-01-5.69199E-01 1.29993E-12-1.13463E-12
 -1       300 4.25919E+01 6.18800E+00 7.83371E-01-3.61400E+00 1.47779E-12-1.71924E-12
 -1       301 3.61329E+01 4.28933E+00 6.16515E-01-6.91779E+00 1.84186E-12-2.40868E-12
 -1       302 2.63798E+01 1.70755E+00 2.31490E-01-7.71990E+00 2.02546E-12-2.47469E-12
 -1       303 1.60796E+01-1.89186E+00-2.20452E-01-6.85972E+00 1.99077E-12-2.29455E-12
 -1       304 7.76866E+00-6.18879E+00-5.28516E-01-5.38877E+00 1.40010E-12-1.68943E-12
 -1       305 1.01380E+00-9.67770E+00-9.07954E-01-2.55163E+00 9.72722E-13-1.42367E-12
 -1       306-1.22191E+00-1.06357E+01-9.18233E-01-3.26822E-01 1.41546E-13-1.21780E-12
 -1       307 1.05088E+00-8.08604E+00-5.43480E-01 3.08852E+00-4.00166E-13-1.31119E-12
 -1       308 5.49578E+00-7.04224E+00-6.87871E-01 4.37945E+00-1.32991E-12-1.37533E-12
 -1       309 1.31594E+01-3.20734E+00-3.52731E-01 6.38811E+00-1.71763E-12-1.77713E-12
 -1       310 2.30241E+01 6.03372E-01 7.87295E-02 7.59786E+00-1.72784E-12-1.90303E-12
 -1       311 3.32602E+01 3.35033E+00 4.69706E-01 6.88814E+00-1.53925E-12-1.65457E-12
 -1       312 4.14836E+01 5.57147E+00 8.41835E-01 5.45163E+00-1.38134E-12-1.34659E-12
 -1       313 4.64044E+01 6.51468E+00 1.04827E+00 2.37981E+00-1.22238E-12-6.52117E-13
 -1       314 4.68385E+01 6.61232E+00 1.05673E+00-1.32021E+00-1.05993E-12 8.57647E-15
 -1       315 4.29811E+01 5.81262E+00 8.85911E-01-4.54097E+00-1.28640E-12 7.27751E-13
 -1       316 3.49773E+01 3.62313E+00 4.84203E-01-5.92841E+00-1.30035E-12 1.03023E-12
 -1       317 2.56181E+01 1.37768E+00 1.79634E-01-7.55948E+00-1.21811E-12 1.61982E-12
 -1       318 1.63823E+01-2.28046E+00-2.11453E-01-6.74821E+00-1.15757E-12 1.37623E-12
 -1       319 7.72830E+00-5.72251E+00-5.80046E-01-5.02048E+00-1.15491E-12 1.14564E-12
 -1       320 2.11197E+00-8.74647E+00-7.85073E-01-3.20535E+00-7.00578E-13 1.02797E-12
 -1       321-9.01216E-01-1.09178E+01-9.68121E-01-9.53349E-01-2.77986E-13 1.04031E-12
 -1       322 2.07520E+01 3.08921E+00-1.86629E-02-1.31803E+00-5.90758E-13-3.27066E-13
 -1       323 2.17825E+01 2.19474E+00-1.64946E-02-1.65340E+00-6.28023E-13 7.14064E-14
 -1       324 1.91965E+01 3.97982E+00-1.28121E-02-5.95447E-01-3.87742E-13-7.35564E-13
 -1       325 1.86256E+01 4.23564E+00-9.93267E-03-3.45974E-01-2.59076E-13-8.22686E-13
 -1       326 1.82235E+01 4.40252E+00-8.02776E-03-1.72213E-01-1.45401E-13-8.49974E-13
 -1       327 1.80171E+01 4.48464E+00-7.09368E-03-4.94988E-02-2.66270E-14-8.69707E-13
 -1       328 1.80233E+01 4.48116E+00-7.12389E-03 5.60573E-02 8.51616E-14-8.83179E-13
 -1       329 1.82414E+01 4.39214E+00-8.12557E-03 1.81390E-01 1.92703E-13-8.68604E-13
 -1       330 1.86445E+01 4.22214E+00-1.01613E-02 3.56317E-01 2.99083E-13-8.10941E-13
 -1       331 1.92194E+01 3.96057E+00-1.33704E-02 6.09793E-01 4.14517E-13-7.26022E-13
 -1       332 1.99377E+01 3.58418E+00-1.78751E-02 9.46616E-01 5.27831E-13-5.66903E-13
 -1       333 2.08040E+01 3.02449E+00-2.19711E-02 1.34109E+00 6.44087E-13-3.12057E-13
 -1       334 2.17796E+01 2.11804E+00-2.90475E-02 1.62623E+00 6.70552E-13 1.55429E-13
 -1       335 2.23288E+01 1.15808E+00-2.18522E-02 1.34100E+00 6.05672E-13 6.12501E-13
 -1       336 2.19034E+01 4.97174E-01 9.20079E-03 3.24741E-01 4.91945E-13 4.58483E-13
 -1       337 2.18376E+01 7.07096E-01 1.28870E-02-2.88143E-01-4.87463E-13 1.41424E-13
 -1       338 2.17038E+01 3.82521E-01 7.26275E-03 3.35266E-01-3.58621E-13 1.11371E-13
 -1       339 2.17794E+01 1.93262E-01 3.49825E-03 6.87593E-01-2.53457E-13 9.60104E-14
 -1       340 2.20087E+01 2.42508E-02 1.96150E-04 8.45886E-01-2.03323E-13 7.30735E-14
 -1       341 2.23385E+01-1.70940E-01-2.42489E-03 8.12085E-01-1.42307E-13 5.62742E-14
 -1       342 2.27121E+01-4.02240E-01-4.56694E-03 5.58112E-01-8.09559E-14 7.63472E-14
 -1       343 2.30592E+01-6.32057E-01-5.82765E-03 6.20774E-02-7.53555E-14 1.41397E-13
 -1       344 2.32841E+01-7.56645E-01-5.73882E-03-6.37139E-01-1.20918E-13 1.16799E-13
 -1       345 2.32750E+01-6.17578E-01-3.49535E-03-1.37186E+00-1.53741E-13 1.27410E-13
 -1       346 2.29628E+01-1.00868E-01-1.32230E-03-1.81117E+00-1.40798E-13 4.67252E-14
 -1       347 2.24528E+01 6.66996E-01-3.44406E-04-1.58124E+00-2.42416E-13-4.38362E-14
 -1       348 2.20556E+01 1.26603E+00-7.71834E-04-5.88730E-01-2.79160E-13-1.61732E-13
 -1       349 2.20855E+01 1.26490E+00-8.74525E-04 7.51263E-01-2.55783E-13-3.17995E-13
 -1       350 2.25412E+01 6.64476E-01-7.33848E-04 1.74172E+00-1.98425E-13-5.47060E-13
 -1       351 2.31060E+01-1.01603E-01-1.40351E-03 1.96698E+00-1.05178E-13-5.78477E-13
 -1       352 2.34672E+01-6.14713E-01-3.55662E-03 1.52759E+00-2.49325E-14-6.15879E-13
 -1       353 2.35214E+01-7.55887E-01-5.59789E-03 7.90654E-01-3.07417E-14-5.26145E-13
 -1       354 2.33300E+01-6.37945E-01-6.08571E-03 8.20705E-02-1.59746E-14-4.32409E-13
 -1       355 2.29981E+01-4.21944E-01-4.95815E-03-4.37116E-01 5.18333E-14-4.16564E-13
 -1       356 2.26083E+01-2.15316E-01-3.19887E-03-7.39596E-01-5.92421E-14-5.16251E-13
 -1       357 2.22107E+01-6.17231E-02-1.53600E-03-8.64000E-01 3.22475E-14-3.21610E-13
 -1       358 2.18332E+01 3.44814E-02-2.86058E-04-8.66515E-01 1.22978E-13-3.18979E-13
 -1       359 2.14903E+01 8.51145E-02 4.99003E-04-7.97447E-01 1.58167E-13-3.95441E-13
 -1       360 2.11889E+01 1.04918E-01 9.04840E-04-6.93868E-01 1.64361E-13-2.93529E-13
 -1       361 2.09311E+01 1.06175E-01 1.04890E-03-5.79954E-01-7.05715E-14-1.45638E-13
 -1       362 2.07158E+01 9.75413E-02 1.03377E-03-4.69898E-01-4.92069E-14-1.54801E-13
 -1       363 2.05398E+01 8.45326E-02 9.34532E-04-3.71028E-01-2.52574E-14-3.44944E-13
 -1       364 2.03989E+01 7.03964E-02 8.00009E-04-2.86328E-01-5.94393E-14-4.28499E-13
 -1       365 2.02882E+01 5.68924E-02 6.59099E-04-2.16218E-01-1.17589E-13-2.98437E-13
 -1       366 2.02029E+01 4.48649E-02 5.27261E-04-1.59733E-01-3.67231E-14 2.50464E-14
 -1       367 2.01384E+01 3.46225E-02 4.11593E-04-1.15254E-01-7.33425E-14 3.30964E-13
 -1       368 2.00906E+01 2.61775E-02 3.14323E-04-8.09491E-02-6.58105E-14 2.95621E-13
 -1       369 2.00560E+01 1.93899E-02 2.35032E-04-5.50124E-02 1.25814E-14 1.93607E-13
 -1       370 2.00316E+01 1.40526E-02 1.71994E-04-3.57948E-02 5.24003E-14 6.46144E-14
 -1       371 2.00149E+01 9.93955E-03 1.22958E-04-2.18594E-02-1.83108E-13-1.68502E-14
 -1       372 2.00039E+01 6.83193E-03 8.55812E-05-1.19948E-02-2.46651E-14 6.11200E-14
 -1       373 1.99972E+01 4.53096E-03 5.76558E-05-5.20727E-03 1.94076E-13-2.40105E-14
 -1       374 1.99934E+01 2.86324E-03 3.72085E-05-7.00248E-04-5.53402E-14 7.35629E-14
 -1       375 1.99917E+01 1.68143E-03 2.25328E-05 2.15073E-03 1.46924E-14 2.06801E-13
 -1       376 1.99915E+01 8.62186E-04 1.21750E-05 3.82324E-03 1.11243E-13 5.82812E-14
 -1       377 1.99920E+01 3.02739E-04 4.91625E-06 4.67140E-03 3.63484E-13 1.04082E-13
 -1       378 1.99931E+01-8.34783E-05-2.66740E-07 4.94597E-03 3.51718E-13 2.60098E-13
 -1       379 1.99945E+01-3.71230E-04-4.15423E-06 4.81085E-03 3.04807E-13 1.76651E-13
 -1       380 1.99959E+01-6.26233E-04-7.07309E-06 4.35725E-03-2.36942E-13 2.28614E-13
 -1       381 1.99972E+01-9.08429E-04-1.13279E-05 3.62346E-03 1.76081E-13 4.39850E-13
 -1       382 1.99982E+01-1.13495E-03-1.23431E-05 2.69362E-03-4.50958E-14 4.56864E-13
 -1       383 2.17371E+01 2.53202E-01 1.06257E-02-2.41209E-01 3.63144E-13 3.44893E-13
 -1       384 2.18230E+01 1.29678E-01 5.45950E-03-5.52765E-01 2.50439E-13 2.16283E-13
 -1       385 2.20838E+01 2.74581E-02 1.16515E-03-6.93982E-01 1.69513E-13 1.22097E-13
 -1       386 2.24326E+01-8.84921E-02-1.76897E-03-6.74958E-01 9.94274E-14 5.62027E-14
 -1       387 2.27856E+01-2.28843E-01-3.85579E-03-4.74284E-01 1.17004E-13 5.51788E-14
 -1       388 2.30517E+01-3.75790E-01-4.89521E-03-7.20133E-02 1.24158E-13 8.48078E-14
 -1       389 2.31324E+01-4.71256E-01-4.71510E-03 5.04496E-01 8.83681E-14 1.29521E-13
 -1       390 2.29429E+01-4.20436E-01-3.13566E-03 1.12656E+00-6.07648E-14 1.30626E-13
 -1       391 2.24653E+01-1.42508E-01-8.67655E-04 1.53948E+00 5.60640E-14 1.10294E-13
 -1       392 2.18277E+01 3.22045E-01 1.22483E-03 1.44273E+00 1.20126E-13 9.84256E-14
 -1       393 2.13254E+01 7.41078E-01 1.88947E-03 7.14261E-01 2.75763E-13 4.17799E-14
 -1       394 2.12613E+01 8.34477E-01 2.22342E-03-3.87120E-01 2.52649E-13-1.07763E-13
 -1       395 2.16994E+01 5.34081E-01 3.60434E-03-1.33217E+00 1.71778E-13-2.97548E-13
 -1       396 2.24025E+01 5.44834E-02 2.80375E-03-1.70901E+00 2.43395E-13-3.29331E-13
 -1       397 2.30409E+01-3.22633E-01-6.64989E-04-1.48535E+00 2.15438E-13-3.32788E-13
 -1       398 2.34110E+01-4.70677E-01-4.36454E-03-9.15354E-01 9.82838E-14-3.32926E-13
 -1       399 2.34799E+01-4.30852E-01-6.09210E-03-2.91169E-01-1.28859E-13-3.36601E-13
 -1       400 2.33110E+01-3.03501E-01-5.76788E-03 2.07150E-01-2.52892E-14-4.60916E-13
 -1       401 2.29917E+01-1.67691E-01-4.20461E-03 5.22730E-01 3.59413E-14-5.23623E-13
 -1       402 2.25978E+01-6.11958E-02-2.37734E-03 6.73660E-01 3.90332E-13-5.17649E-13
 -1       403 2.21847E+01 8.09858E-03-8.46759E-04 7.05617E-01 1.03632E-13-4.08540E-13
 -1       404 2.17881E+01 4.61795E-02 2.07156E-04 6.64469E-01-3.34962E-13-3.82829E-13
 -1       405 2.14289E+01 6.25209E-02 8.10898E-04 5.85760E-01-3.68067E-13-4.06941E-13
 -1       406 2.11170E+01 6.55096E-02 1.07781E-03 4.93325E-01-1.47357E-13-3.04595E-13
 -1       407 2.08549E+01 6.12109E-02 1.12732E-03 4.01459E-01 3.94617E-14 6.26162E-14
 -1       408 2.06406E+01 5.35413E-02 1.05400E-03 3.17746E-01-1.01830E-13 2.12367E-13
 -1       409 2.04694E+01 4.48277E-02 9.22375E-04 2.45482E-01-4.05568E-14 3.27685E-13
 -1       410 2.03356E+01 3.63446E-02 7.72133E-04 1.85421E-01 5.98511E-14 1.48639E-13
 -1       411 2.02332E+01 2.87161E-02 6.25510E-04 1.36931E-01-7.20850E-14 1.58335E-14
 -1       412 2.01563E+01 2.21854E-02 4.93555E-04 9.87160E-02 1.65708E-13-2.84036E-13
 -1       413 2.00999E+01 1.67843E-02 3.80632E-04 6.92399E-02 1.69736E-13-2.87032E-13
 -1       414 2.00595E+01 1.24354E-02 2.87348E-04 4.69647E-02 1.71360E-13-1.39519E-13
 -1       415 2.00313E+01 9.01216E-03 2.12365E-04 3.04751E-02 3.56249E-13-9.45637E-14
 -1       416 2.00124E+01 6.37260E-03 1.53463E-04 1.85335E-02 1.62357E-13 7.57640E-14
 -1       417 2.00003E+01 4.37776E-03 1.08148E-04 1.00950E-02-7.39751E-14 6.70054E-14
 -1       418 1.99931E+01 2.90085E-03 7.39737E-05 4.30213E-03 6.84670E-14-4.23885E-14
 -1       419 1.99893E+01 1.83103E-03 4.87050E-05 4.67138E-04-1.66758E-13 9.59479E-15
 -1       420 1.99879E+01 1.07404E-03 3.03783E-05-1.94919E-03-4.50517E-14-8.64992E-14
 -1       421 1.99881E+01 5.51076E-04 1.73101E-05-3.35953E-03-3.10647E-13-7.14945E-16
 -1       422 1.99892E+01 1.96626E-04 8.07217E-06-4.07026E-03-5.56756E-14 7.37411E-14
 -1       423 1.99909E+01-4.42557E-05 1.47898E-06-4.29886E-03 2.95975E-13 8.28833E-14
 -1       424 1.99928E+01-2.19250E-04-3.40655E-06-4.18794E-03 4.70667E-13 3.46703E-15
 -1       425 1.99947E+01-3.72184E-04-6.88514E-06-3.81538E-03 4.62373E-15 2.51869E-14
 -1       426 1.99965E+01-5.38822E-04-8.52352E-06-3.20461E-03-3.71477E-13 2.69470E-13
 -1       427 1.99980E+01-7.46062E-04-8.36054E-06-2.34798E-03-2.33981E-13 5.90896E-13
 -1       428 1.99988E+01-9.41569E-04-7.79774E-06-1.74460E-03 8.77799E-15 7.16923E-13
 -1       429 1.99999E+01-4.11567E-03-6.03405E-07-3.42742E-03-8.75084E-14 4.34331E-14
 -1       430 1.99993E+01-2.82382E-03-7.35143E-06-3.26441E-03-1.93164E-13 7.24267E-14
 -1       431 1.99990E+01-1.86366E-03-1.10376E-05-2.64253E-03-1.64784E-13 2.24949E-13
 -1       432 2.00003E+01-5.29580E-03 3.91304E-06-3.13112E-03 1.11111E-14-9.54816E-13
 -1       433 2.00006E+01-6.30018E-03 7.11330E-06-2.47672E-03 1.37570E-13-9.50149E-14
 -1       434 2.00007E+01-7.01780E-03 9.34999E-06-1.57649E-03 1.20982E-13-5.68355E-14
 -1       435 2.00008E+01-7.38978E-03 1.04724E-05-5.34648E-04-1.48812E-13 3.50237E-13
 -1       436 2.00008E+01-7.38654E-03 1.04741E-05 5.52660E-04-1.04138E-13 1.79958E-13
 -1       437 2.00007E+01-7.00834E-03 9.34881E-06 1.59290E-03-1.10459E-13-2.96867E-13
 -1       438 2.00006E+01-6.30041E-03 7.07338E-06 2.47677E-03 2.52355E-13-6.74845E-13
 -1       439 2.00003E+01-5.29683E-03 3.83475E-06 3.13194E-03 4.38088E-13 5.11480E-14
 -1       440 1.99999E+01-4.09352E-03-5.44428E-07 3.43045E-03 3.02699E-13-2.89907E-13
 -1       441 1.99993E+01-2.80804E-03-7.68556E-06 3.28402E-03 5.72975E-14-4.24299E-13
 -1       442 1.07679E+01-5.60087E+00-3.67683E-02 6.87293E+00 4.97657E-14 7.26738E-13
 -1       443 1.08211E+00-4.54624E+00-7.41756E-02-5.65542E-03-6.30887E-14 1.32813E-12
 -1       444 3.72273E+00-4.59367E+00-3.57436E-02 4.28507E+00-1.06373E-13 1.06300E-12
 -1       445 1.95303E+01-5.36317E+00-1.61129E-02 6.48492E+00 7.23727E-14 2.13267E-13
 -1       446 2.66426E+01-3.06257E+00-6.51672E-03 4.52388E+00 4.76924E-13-2.61402E-13
 -1       447 1.99043E+01 3.61958E+00-1.87607E-02-9.32183E-01-5.02718E-13-6.05925E-13
 -1       448 3.47810E+01 5.08895E+00 2.58716E-02-2.39970E-01 1.15205E-12-6.88699E-13
 -1       449 3.65365E+01 7.82047E+00 1.01629E-01-1.63781E-01 1.32674E-12-6.88213E-13
 -1       450 3.42613E+01 7.36509E+00-5.18586E-02 5.00719E-01 1.39917E-12-4.32654E-13
 -1       451 3.34167E+01 3.43054E+00-3.59775E-02 1.85258E-01 1.12831E-12-4.13128E-13
 -1       452 3.16293E+01-2.00500E-01 2.70559E-02-1.83102E+00 8.68712E-13-6.46053E-13
 -1       453 2.49436E+01-3.91648E+00-1.59917E-02-5.27176E+00 6.09304E-13-1.05348E-12
 -1       454 1.70693E+01-5.60354E+00-3.33667E-02-6.97446E+00 3.81528E-13-1.22663E-12
 -1       455 8.34382E+00-4.93491E+00 2.22044E-02-6.49562E+00 4.91274E-15-1.42393E-12
 -1       456 2.10126E+00-4.94965E+00-1.04686E-01-3.07025E+00 1.57964E-13-1.46211E-12
 -1       457 1.93844E+00-3.77087E+00 1.85814E-02 1.38030E+00 1.21653E-13-1.48051E-12
 -1       458 7.70439E+00-5.12774E+00-1.15301E-02 6.30593E+00 9.45077E-15-1.10617E-12
 -1       459 1.37217E+01-5.76748E+00-6.00174E-02 7.15163E+00-1.57180E-13-1.01931E-12
 -1       460 2.31330E+01-5.06755E+00 9.25423E-03 5.72258E+00-2.23183E-13-5.60808E-13
 -1       461 2.92659E+01-2.01669E+00-7.06229E-03 3.25001E+00-6.76070E-13-3.71272E-13
 -1       462 3.34847E+01 2.52865E+00 2.24929E-02 5.64751E-01-1.06681E-12-7.39547E-14
 -1       463 3.59369E+01 6.33261E+00 8.73984E-02 4.15894E-02-1.32881E-12-1.45522E-13
 -1       464 3.70625E+01 7.97860E+00 1.22362E-01 9.78362E-02-1.31331E-12-2.40389E-13
 -1       465 3.49816E+01 6.92064E+00 5.75863E-04 5.39161E-01-1.24929E-12-2.28172E-13
 -1       466 3.41941E+01 3.85359E+00 3.04967E-02 8.00756E-02-1.12724E-12-2.53561E-13
 -1       467 3.01932E+01-1.32260E+00-1.14567E-02-2.33211E+00-4.31082E-13 9.75747E-14
 -1       468 2.45130E+01-3.73573E+00-6.46231E-03-5.30033E+00-3.31943E-13 6.21211E-13
 -1       469 1.65916E+01-5.63646E+00-4.62755E-02-6.86202E+00-1.48187E-13 6.52735E-13
 -1       470 8.97276E+00-5.64571E+00-7.50144E-02-6.51640E+00-1.45897E-13 9.46646E-13
 -1       471 2.51708E+00-5.14709E+00-1.18515E-01-3.49380E+00-2.51882E-14 9.74887E-13
 -1       472 3.18772E+01 3.52110E-01-2.47532E-02 7.71269E-01 7.45598E-13-7.58310E-13
 -1       473 5.95475E+00-2.70991E+00 1.18413E-01 4.35987E+00 3.00433E-13-1.22892E-12
 -1       474 2.15619E+01 9.00006E-01 4.05152E-03 1.13218E-01 4.79820E-13-1.93323E-14
 -1       475 1.85177E+01 3.73279E+00-3.47200E-03-6.48552E-02-1.99988E-13-7.45386E-13
 -1       476 1.90722E+01 3.42008E+00-4.37700E-03-1.80186E-01-3.09796E-13-6.91135E-13
 -1       477 1.80466E+01 3.98438E+00-2.70525E-03-8.59075E-04 2.78727E-14-7.95782E-13
 -1       478 1.81787E+01 3.91293E+00-2.90644E-03 1.39428E-02 1.38550E-13-7.95347E-13
 -1       479 1.85369E+01 3.71755E+00-3.57248E-03 6.78313E-02 2.27627E-13-7.76785E-13
 -1       480 1.90967E+01 3.39842E+00-4.65882E-03 1.87312E-01 3.41132E-13-6.82448E-13
 -1       481 1.98060E+01 2.95665E+00-5.86937E-03 3.72236E-01 4.32377E-13-5.76805E-13
 -1       482 2.06256E+01 2.36371E+00-5.57696E-03 5.90942E-01 5.28001E-13-3.88096E-13
 -1       483 2.15314E+01 5.19326E-01 4.94831E-03-4.70813E-01 3.65007E-13-5.82640E-14
 -1       484 2.13256E+01 1.09090E+00 3.47934E-03 1.49506E-02-4.27855E-13-1.54055E-13
 -1       485 2.83820E+01-3.25238E+00-6.91631E-02 1.08242E+00-7.97604E-15-9.92650E-13
 -1       486 2.13463E+01 6.39078E-01 1.94992E-03 5.90828E-01-3.12066E-13-1.45587E-13
 -1       487 2.14592E+01 2.95787E-01 5.93405E-04 9.61261E-01-2.21775E-13-1.24147E-13
 -1       488 2.17024E+01-5.84165E-02-6.64370E-04 1.13208E+00-1.49736E-13-9.15089E-14
 -1       489 2.20937E+01-4.78034E-01-1.78600E-03 1.07900E+00-8.80396E-14-6.02220E-14
 -1       490 2.26348E+01-9.54572E-01-2.63346E-03 7.53543E-01-8.41187E-14-3.55456E-14
 -1       491 2.32827E+01-1.37546E+00-2.99820E-03 1.13735E-01-3.86957E-14-3.33165E-14
 -1       492 2.38988E+01-1.48616E+00-5.22116E-03-8.00526E-01-1.06026E-13 1.24199E-13
 -1       493 2.42576E+01-9.51449E-01-8.02013E-03-1.74277E+00-1.51808E-13 1.94065E-13
 -1       494 2.41316E+01 3.97243E-01-1.59980E-02-2.16805E+00-2.43723E-13 1.77405E-13
 -1       495 2.36894E+01 1.98802E+00-2.56240E-02-1.52496E+00-3.97658E-13 6.35037E-14
 -1       496 2.34428E+01 2.73412E+00-2.79957E-02 1.02137E-01-4.78590E-13-2.11759E-13
 -1       497 2.37171E+01 1.98809E+00-2.52274E-02 1.72360E+00-4.71530E-13-4.76597E-13
 -1       498 2.41884E+01 3.86120E-01-1.66593E-02 2.35988E+00-2.16780E-13-6.57550E-13
 -1       499 2.43268E+01-9.42542E-01-7.22142E-03 1.92606E+00-8.80011E-14-5.77232E-13
 -1       500 2.39893E+01-1.48925E+00-3.89220E-03 9.78235E-01 5.07801E-14-5.06977E-13
 -1       501 2.33758E+01-1.39048E+00-3.60324E-03 4.92872E-02 1.02640E-13-2.94433E-13
 -1       502 2.27197E+01-9.94704E-01-2.95972E-03-6.20966E-01 1.05189E-13-1.40131E-13
 -1       503 2.21482E+01-5.64332E-01-1.99462E-03-1.00678E+00-6.64104E-14-2.11608E-13
 -1       504 2.16927E+01-2.20221E-01-1.06536E-03-1.16706E+00 1.64523E-14-1.66218E-13
 -1       505 2.13400E+01 1.02596E-02-3.39279E-04-1.17494E+00 3.23661E-14-2.34785E-13
 -1       506 2.10653E+01 1.42648E-01 1.18043E-04-1.09202E+00-9.30594E-15-2.50481E-13
 -1       507 2.08473E+01 2.04423E-01 3.61114E-04-9.62954E-01 1.89899E-13-3.76871E-13
 -1       508 2.06711E+01 2.20992E-01 4.60386E-04-8.17338E-01 1.00541E-13-4.75321E-13
 -1       509 2.05272E+01 2.11492E-01 4.71625E-04-6.73323E-01 4.22432E-15-2.74626E-13
 -1       510 2.04095E+01 1.88832E-01 4.35201E-04-5.41032E-01-1.10673E-13-4.17955E-13
 -1       511 2.03137E+01 1.61071E-01 3.77304E-04-4.25262E-01-7.39061E-14-2.51043E-13
 -1       512 2.02365E+01 1.32891E-01 3.13562E-04-3.27457E-01-6.10174E-14-2.18099E-13
 -1       513 2.01750E+01 1.06785E-01 2.52490E-04-2.47089E-01 2.06909E-13-1.42755E-13
 -1       514 2.01269E+01 8.38979E-02 1.98164E-04-1.82569E-01 1.44397E-13-3.89048E-15
 -1       515 2.00898E+01 6.45774E-02 1.52060E-04-1.31836E-01-2.18403E-13 1.29830E-13
 -1       516 2.00617E+01 4.87292E-02 1.14225E-04-9.27108E-02-1.63548E-13 6.51350E-14
 -1       517 2.00408E+01 3.60332E-02 8.39813E-05-6.31099E-02 5.61366E-14-1.15985E-13
 -1       518 2.00256E+01 2.60728E-02 6.03443E-05-4.11504E-02 3.41388E-14 3.71141E-14
 -1       519 2.00149E+01 1.84109E-02 4.22487E-05-2.51997E-02-1.01383E-13 1.65257E-13
 -1       520 2.00075E+01 1.26303E-02 2.86726E-05-1.38845E-02-1.54320E-13-2.85876E-14
 -1       521 2.00026E+01 8.35501E-03 1.86952E-05-6.07856E-03 1.65387E-13 5.86342E-14
 -1       522 1.99995E+01 5.25760E-03 1.15165E-05-8.79285E-04 6.57804E-15 1.60705E-13
 -1       523 1.99978E+01 3.05973E-03 6.45740E-06 2.42012E-03 7.86383E-14 3.73352E-13
 -1       524 1.99970E+01 1.52784E-03 2.92873E-06 4.35926E-03 1.00073E-13 1.93642E-13
 -1       525 1.99969E+01 4.66632E-04 4.71987E-07 5.33702E-03 3.80979E-13-2.94914E-14
 -1       526 1.99971E+01-2.88436E-04-1.34944E-06 5.63526E-03 3.26706E-13 1.24181E-13
 -1       527 1.99975E+01-8.76875E-04-2.54266E-06 5.43821E-03 2.09159E-13 7.40992E-15
 -1       528 1.99981E+01-1.41659E-03-3.94095E-06 4.85352E-03 1.90738E-14 2.28746E-13
 -1       529 2.18591E+01-2.00901E-02-3.97212E-04-9.79651E-01 1.71135E-13-1.17633E-13
 -1       530 2.22050E+01-3.29126E-01-2.18340E-03-9.18806E-01 1.06270E-13-1.41886E-13
 -1       531 2.26427E+01-6.81950E-01-3.62977E-03-6.07314E-01 9.24409E-14-7.63910E-14
 -1       532 2.31169E+01-1.00221E+00-3.98008E-03-2.01169E-02 2.69441E-14-9.06518E-15
 -1       533 2.35146E+01-1.11321E+00-4.29656E-03 7.89509E-01-1.18410E-14 1.04402E-13
 -1       534 2.36730E+01-7.76633E-01-4.77951E-03 1.60514E+00 3.30878E-14 8.88671E-14
 -1       535 2.34675E+01 1.28569E-01-6.10573E-03 2.00646E+00 1.80669E-13 3.69405E-14
 -1       536 2.30161E+01 1.30010E+00-6.02034E-03 1.54497E+00 2.54295E-13-7.78928E-14
 -1       537 2.27117E+01 2.00063E+00-1.12365E-02 2.29104E-01 3.25139E-13-1.29637E-13
 -1       538 2.28775E+01 1.68538E+00-1.17326E-02-1.26933E+00 3.57937E-13-2.65867E-13
 -1       539 2.33679E+01 6.08296E-01-6.61648E-03-2.11575E+00 2.54756E-13-3.41460E-13
 -1       540 2.37425E+01-4.67350E-01-4.01072E-03-2.02526E+00 1.79927E-13-4.79838E-13
 -1       541 2.37587E+01-1.04213E+00-4.20979E-03-1.31552E+00 8.79806E-14-2.44406E-13
 -1       542 2.34598E+01-1.09331E+00-4.67410E-03-4.56626E-01-3.45299E-14-2.02245E-13
 -1       543 2.30081E+01-8.47104E-01-4.44544E-03 2.55655E-01-6.85294E-14-2.14117E-13
 -1       544 2.25329E+01-5.21426E-01-3.28215E-03 7.22581E-01 7.40225E-14-1.31094E-13
 -1       545 2.20971E+01-2.38777E-01-1.93071E-03 9.61429E-01 2.24753E-13-2.49565E-13
 -1       546 2.17187E+01-3.93680E-02-7.99969E-04 1.03092E+00 1.92068E-13-2.75804E-14
 -1       547 2.13961E+01 8.07894E-02 2.88388E-06 9.91810E-01 1.11390E-14-1.44109E-13
 -1       548 2.11228E+01 1.41076E-01 4.76193E-04 8.92555E-01-2.18133E-13-3.64046E-13
 -1       549 2.08924E+01 1.61839E-01 6.98630E-04 7.67014E-01-2.35514E-13-5.05814E-13
 -1       550 2.06997E+01 1.59187E-01 7.56459E-04 6.36695E-01-1.84279E-13-5.21178E-13
 -1       551 2.05404E+01 1.44271E-01 7.19541E-04 5.13993E-01-2.30402E-13-4.63864E-13
 -1       552 2.04105E+01 1.24157E-01 6.35960E-04 4.05140E-01-2.02441E-13-3.59634E-13
 -1       553 2.03062E+01 1.03006E-01 5.35673E-04 3.12458E-01 5.77359E-14-2.30448E-13
 -1       554 2.02238E+01 8.30725E-02 4.35718E-04 2.35957E-01 1.43411E-13-1.76435E-13
 -1       555 2.01598E+01 6.54285E-02 3.44760E-04 1.74386E-01 1.14945E-13-2.40504E-13
 -1       556 2.01110E+01 5.04488E-02 2.66413E-04 1.25906E-01 1.46899E-13-1.11186E-13
 -1       557 2.00744E+01 3.81167E-02 2.01425E-04 8.84968E-02 1.99100E-13-1.78828E-13
 -1       558 2.00476E+01 2.82136E-02 1.49041E-04 6.01921E-02 1.53364E-13-5.13015E-14
 -1       559 2.00285E+01 2.04313E-02 1.07810E-04 3.92007E-02 8.13591E-14 2.03456E-13
 -1       560 2.00151E+01 1.44373E-02 7.60416E-05 2.39627E-02 6.10702E-14 2.83110E-13
 -1       561 2.00062E+01 9.91110E-03 5.20580E-05 1.31629E-02 1.39350E-14 3.01486E-13
 -1       562 2.00004E+01 6.56153E-03 3.43172E-05 5.72167E-03 8.39725E-15 3.06058E-13
 -1       563 1.99971E+01 4.13448E-03 2.14646E-05 7.72888E-04-2.35591E-13 2.27026E-13
 -1       564 1.99954E+01 2.41358E-03 1.23392E-05-2.36219E-03-1.71884E-13 2.91009E-13
 -1       565 1.99948E+01 1.21715E-03 5.97054E-06-4.20211E-03-6.52108E-14-1.53488E-13
 -1       566 1.99949E+01 3.93415E-04 1.53897E-06-5.13032E-03 1.23649E-13-2.75513E-13
 -1       567 1.99955E+01-1.85162E-04-1.63124E-06-5.41763E-03 3.13630E-13-8.75622E-14
 -1       568 1.99963E+01-6.27867E-04-4.22292E-06-5.24242E-03 4.23361E-14 4.95462E-13
 -1       569 1.99972E+01-1.03337E-03-8.16956E-06-4.71512E-03-2.08211E-13 4.04207E-13
 -1       570 1.99981E+01-1.45793E-03-9.28985E-06-3.87345E-03-4.53214E-13 1.77301E-13
 -1       571 2.00011E+01-4.34984E-03 2.58597E-06-3.56532E-03 3.39071E-13-3.26649E-13
 -1       572 2.00016E+01-4.90053E-03 3.60569E-06-2.55991E-03 1.80268E-13 1.05729E-14
 -1       573 1.99995E+01-2.73249E-03-1.60864E-06-4.40925E-03-3.82312E-13 2.97762E-13
 -1       574 2.00004E+01-3.61574E-03 1.44362E-06-4.21773E-03-1.89533E-13-2.11159E-13
 -1       575 2.00018E+01-5.23759E-03 4.44818E-06-1.32860E-03-6.39552E-14-1.81209E-13
 -1       576 2.00019E+01-5.34971E-03 4.74435E-06 1.13604E-05-3.21505E-13 3.40137E-13
 -1       577 2.00018E+01-5.23359E-03 4.45358E-06 1.35024E-03-9.91129E-14 2.92045E-14
 -1       578 2.00016E+01-4.90089E-03 3.64121E-06 2.55961E-03 1.77981E-13-1.19256E-13
 -1       579 2.00011E+01-4.35091E-03 2.53195E-06 3.56645E-03 4.94991E-13-4.56182E-13
 -1       580 2.00004E+01-3.60223E-03 1.24042E-06 4.22703E-03 1.94790E-13-2.41491E-13
 -1       581 1.99995E+01-2.70434E-03-2.58600E-06 4.39037E-03-8.58497E-14-6.23038E-13
 -1       582 4.80737E+00-1.67181E+00 1.58368E-01 2.17321E+00-2.83079E-13 1.12205E-12
 -1       583 1.77433E+01-5.35664E+00 8.08486E-02 6.60374E+00-5.01446E-13-1.28451E-13
 -1       584 2.16303E+01 2.45750E-01 1.88543E-03-8.25985E-01 2.64774E-13-1.03684E-13
 -1       585 3.02376E+01 2.09017E+00-1.48773E-01-1.83088E+00 6.53651E-13-9.66283E-13
 -1       586 8.41538E+00-3.24367E+00 1.33470E-01-5.67965E+00 1.61475E-13 9.74457E-13
 -1       587 9.98092E+00-3.47169E+00 1.42024E-01 6.19669E+00-4.90628E-13 6.85348E-13
 -1       588 4.38401E+00-2.04420E+00 1.50689E-01-2.16184E+00-5.62883E-14 1.02478E-12
 -1       589 3.11217E+01 7.29043E+00-1.52821E-01 5.70664E-01-1.20604E-12-1.39251E-13
 -1       590 2.99806E+01 4.59329E+00-1.68871E-01 1.81508E+00 9.89084E-13 1.59234E-13
 -1       591 1.81640E+01 3.92310E+00-2.91487E-03-1.40523E-02-8.37070E-14-7.73117E-13
 -1       592 3.02439E+01 7.28485E+00-1.64705E-01-1.63300E-01 1.19657E-12-3.77056E-13
 -1       593 2.31468E+01-5.61679E+00 2.70915E-02-5.21500E+00-1.23145E-13-5.52319E-13
 -1       594 3.05323E+01 5.90243E+00-1.55336E-01-1.58562E+00 1.07851E-12-6.47975E-13
 -1       595 2.95554E+01-1.90112E-01-1.28496E-01 1.37299E+00 4.44270E-13 3.22360E-13
 -1       596 2.71271E+01-4.57781E+00-1.71592E-02 2.41774E+00 8.42729E-15 1.39194E-13
 -1       597 2.82339E+01-3.72236E+00-4.44238E-02-1.54283E+00 3.79974E-14-8.38357E-14
 -1       598 1.56971E+01-4.98017E+00 8.79884E-02-6.93579E+00-3.05755E-13-9.76393E-13
 -1       599 7.11727E+00-2.46123E+00 1.54378E-01-4.65789E+00-1.23915E-13-1.31439E-12
 -1       600 4.89642E+00-1.27220E+00 1.89815E-01-8.78159E-01 8.12180E-14-1.36945E-12
 -1       601 1.48867E+01-4.26222E+00 1.32245E-01 6.71021E+00 4.90989E-13-6.65294E-13
 -1       602 2.72013E+01-4.45592E+00-4.68856E-02-2.31733E+00 1.67109E-13-1.40978E-13
 -1       603 2.12470E+01-5.54906E+00 4.62699E-02 5.68684E+00 4.36838E-13-3.09587E-13
 -1       604 2.97070E+01-1.40115E+00-1.02553E-01-4.21094E-01-4.44048E-13 3.84567E-13
 -1       605 3.02285E+01 3.67264E+00-1.52875E-01-1.92287E+00-9.28355E-13 4.02282E-13
 -1       606 3.11784E+01 6.86520E+00-1.56634E-01-8.72814E-01-1.21235E-12 1.36471E-13
 -1       607 3.05128E+01 4.49465E+00-1.57185E-01 1.93170E+00-9.97313E-13-4.12143E-13
 -1       608 3.01624E+01 2.79723E-02-9.54578E-02 1.24541E+00-4.94521E-13-5.83304E-13
 -1       609 2.23578E+01-5.66905E+00 4.47307E-02-5.23565E+00 4.18020E-13 1.93536E-13
 -1       610 1.55837E+01-4.93338E+00 1.07019E-01-6.81651E+00 2.59411E-13 2.25063E-13
 -1       611 2.11540E+01 1.87102E+00-5.84338E-03-6.62627E-01-5.40414E-13-2.38724E-13
 -1       612 2.16917E+01 1.33251E+00-1.18420E-03 7.75865E-01 5.96943E-13 4.44673E-14
 -1       613 2.49382E+01-5.30448E+00 2.69281E-02 3.95128E+00-2.76355E-13-7.35127E-13
 -1       614 1.97738E+01 2.99405E+00-6.10907E-03-3.64973E-01-4.13668E-13-6.15142E-13
 -1       615 1.99985E+01-1.77985E-03-5.82743E-06 4.25607E-03-1.40592E-14 7.48452E-14
 -1       616 6.74917E+00-7.44988E-01 1.71663E-01 2.10703E+00 2.39003E-13-1.26613E-12
 -1       617 1.19055E+01-2.24166E+00 1.65704E-01 5.70289E+00 4.87926E-13-8.12891E-13
 -1       618 2.76919E+01 5.61324E+00-1.46088E-01 1.24316E+00 8.82169E-13 2.95909E-14
 -1       619 2.86365E+01-1.36600E+00-7.31342E-02-1.37620E+00 1.93220E-13-1.18144E-12
 -1       620 1.26000E+01-3.05886E+00 1.20485E-01-6.13618E+00-3.81674E-13-1.02317E-12
 -1       621 1.83269E+01 3.28720E+00-9.66661E-04-1.65073E-01 1.60802E-13-7.17454E-13
 -1       622 1.80364E+01 3.45992E+00-7.27844E-04-6.73715E-02 8.02454E-14-7.17370E-13
 -1       623 1.95539E+01 2.52367E+00-1.26181E-03-1.46108E-01 3.28169E-13-5.59443E-13
 -1       624 2.03369E+01 1.96949E+00-1.74813E-03-5.23538E-02 4.10946E-13-4.16471E-13
 -1       625 2.10228E+01 1.20418E+00 2.55731E-03-2.18264E-01 4.31098E-13-2.45711E-13
 -1       626 2.77686E+01 3.27484E+00-1.41514E-01-2.39996E+00 6.48454E-13-8.99447E-13
 -1       627 2.64364E+01-4.45877E+00-2.11672E-02 1.55128E+00-2.21026E-13-1.02017E-12
 -1       628 2.71968E+01 1.65687E+00-1.08024E-01 2.48580E+00 4.53325E-13 3.93810E-13
 -1       629 2.07987E+01 8.22197E-01 3.38792E-04 8.91516E-01-2.60104E-13-2.72246E-13
 -1       630 2.09460E+01 3.29328E-01-7.14149E-05 1.27167E+00-1.67363E-13-2.59635E-13
 -1       631 2.12504E+01-2.33183E-01-5.13167E-04 1.48749E+00-7.25409E-14-2.31657E-13
 -1       632 2.17916E+01-9.18070E-01-5.59506E-04 1.49111E+00-3.66446E-14-2.02821E-13
 -1       633 2.26332E+01-1.68677E+00 4.63484E-06 1.19216E+00 2.22315E-15-6.30754E-14
 -1       634 2.37645E+01-2.31941E+00 4.60613E-04 4.77527E-01 1.14053E-13 1.17352E-13
 -1       635 2.49741E+01-2.25847E+00 1.81324E-03-7.16445E-01-1.39602E-14 3.40311E-13
 -1       636 2.57929E+01-1.01664E+00-3.16734E-02-2.00536E+00-1.39000E-13 5.15981E-13
 -1       637 2.57212E+01 1.69769E+00-7.23209E-02-2.36031E+00-5.38278E-13 3.99379E-13
 -1       638 2.53731E+01 4.11644E+00-8.72767E-02-1.03202E+00-7.80400E-13 7.56166E-15
 -1       639 2.53645E+01 4.09635E+00-9.25396E-02 1.25133E+00-7.35342E-13-3.88752E-13
 -1       640 2.57265E+01 1.67652E+00-5.77192E-02 2.56603E+00-5.02671E-13-5.37582E-13
 -1       641 2.57496E+01-9.88330E-01-2.38082E-02 2.18024E+00-5.98766E-14-5.52410E-13
 -1       642 2.49492E+01-2.32588E+00-6.81589E-03 8.83200E-01 1.13751E-13-3.99865E-13
 -1       643 2.37289E+01-2.34151E+00-2.16859E-03-3.07441E-01 2.64977E-13-2.49560E-13
 -1       644 2.25833E+01-1.74387E+00-8.99493E-04-1.05662E+00 1.58537E-13-1.78226E-13
 -1       645 2.17105E+01-1.03950E+00-7.17008E-04-1.41544E+00-3.14805E-14-1.36455E-13
 -1       646 2.11205E+01-4.57051E-01-4.83286E-04-1.51641E+00-7.19054E-14-8.93699E-14
 -1       647 2.07483E+01-5.40235E-02-1.54725E-04-1.46710E+00-7.98034E-15-2.60094E-13
 -1       648 2.05208E+01 1.88496E-01 3.86417E-05-1.33840E+00-2.95600E-14-2.72236E-13
 -1       649 2.03811E+01 3.11946E-01 1.24770E-04-1.17358E+00-9.63211E-14-3.28920E-13
 -1       650 2.02918E+01 3.56295E-01 1.57219E-04-9.98598E-01 3.36434E-14-4.42204E-13
 -1       651 2.02307E+01 3.52685E-01 1.59206E-04-8.28932E-01 1.03125E-13-3.56283E-13
 -1       652 2.01855E+01 3.22925E-01 1.45892E-04-6.73366E-01-4.88591E-14-3.24761E-13
 -1       653 2.01497E+01 2.81226E-01 1.26040E-04-5.36272E-01 4.00046E-14-1.68807E-13
 -1       654 2.01204E+01 2.36282E-01 1.04636E-04-4.19117E-01-4.04561E-14-2.33401E-13
 -1       655 2.00958E+01 1.93055E-01 8.43120E-05-3.21514E-01 2.06350E-13 6.88716E-14
 -1       656 2.00753E+01 1.54099E-01 6.62974E-05-2.41976E-01 1.05648E-13-5.23598E-14
 -1       657 2.00583E+01 1.20475E-01 5.10174E-05-1.78444E-01 7.80744E-14 2.57963E-15
 -1       658 2.00444E+01 9.23629E-02 3.84613E-05-1.28640E-01-4.04352E-13-6.01826E-14
 -1       659 2.00332E+01 6.94513E-02 2.83996E-05-9.03061E-02-1.38565E-13-1.96753E-15
 -1       660 2.00243E+01 5.11827E-02 2.05099E-05-6.13406E-02-4.00295E-14-1.18708E-13
 -1       661 2.00174E+01 3.69044E-02 1.44466E-05-3.98719E-02 4.96627E-15-4.15512E-13
 -1       662 2.00121E+01 2.59566E-02 9.87826E-06-2.42887E-02-1.28176E-13-4.89568E-13
 -1       663 2.00081E+01 1.77216E-02 6.50572E-06-1.32417E-02 1.83503E-14-1.92620E-13
 -1       664 2.00052E+01 1.16469E-02 4.06973E-06-5.62758E-03 3.01678E-14-3.30237E-13
 -1       665 2.00032E+01 7.25392E-03 2.34845E-06-5.64171E-04 6.92014E-14-2.83186E-13
 -1       666 2.00017E+01 4.13650E-03 1.15418E-06 2.63738E-03 9.95346E-14-8.22250E-14
 -1       667 2.00007E+01 1.95387E-03 2.56647E-07 4.50150E-03 1.68031E-13 2.46091E-13
 -1       668 2.00001E+01 4.20854E-04-3.20939E-07 5.41428E-03 2.77537E-13-1.53842E-13
 -1       669 1.99997E+01-7.00812E-04 5.73117E-08 5.64962E-03 1.72820E-13-4.92407E-13
 -1       670 1.99995E+01-1.61264E-03-1.75815E-06 5.37727E-03 1.37446E-13-5.18705E-13
 -1       671 2.19638E+01-7.23115E-01-1.18734E-03-1.23981E+00 6.16317E-14-1.91085E-13
 -1       672 8.65033E+00-1.09345E+00 1.46275E-01-3.70511E+00 1.34722E-13 7.89896E-13
 -1       673 2.14940E+01-1.67295E-01-4.66311E-04-1.28854E+00 1.31463E-13-2.17949E-13
 -1       674 2.35248E+01-1.84666E+00-7.23112E-04-1.98693E-01-6.52228E-14 2.37367E-14
 -1       675 2.43798E+01-1.85816E+00-6.94521E-03 8.35406E-01-2.95369E-14 8.09405E-14
 -1       676 2.49131E+01-9.31749E-01-2.12627E-02 1.89785E+00 7.54067E-14 1.89723E-13
 -1       677 2.48577E+01 1.02641E+00-3.08499E-02 2.27712E+00 2.99150E-13 1.77933E-13
 -1       678 2.43727E+01 3.04972E+00-5.43109E-02 1.27598E+00 4.06671E-13-4.22782E-14
 -1       679 2.41886E+01 3.47765E+00-6.84072E-02-7.17720E-01 5.38394E-13-3.25204E-13
 -1       680 2.45838E+01 1.94199E+00-5.10892E-02-2.25765E+00 4.49987E-13-5.33550E-13
 -1       681 2.49833E+01-2.37196E-01-1.72919E-02-2.37538E+00 2.58943E-13-6.07702E-13
 -1       682 2.46934E+01-1.62861E+00-9.86026E-03-1.48403E+00-2.94434E-14-5.69274E-13
 -1       683 2.39214E+01-1.95302E+00-2.83855E-03-3.68566E-01-1.04280E-13-3.59699E-13
 -1       684 2.30081E+01-1.61334E+00-2.08369E-03 5.06180E-01-9.06484E-14-2.41747E-13
 -1       685 2.22103E+01-1.05509E+00-1.29326E-03 1.03520E+00-5.43705E-14-2.53735E-13
 -1       686 2.16063E+01-5.36863E-01-7.63579E-04 1.27957E+00 6.98248E-14-1.68254E-13
 -1       687 2.11810E+01-1.53781E-01-4.09729E-04 1.33148E+00 1.26966E-13-4.08930E-14
 -1       688 2.08878E+01 8.97425E-02-8.73007E-05 1.26732E+00 1.72462E-13-6.07577E-14
 -1       689 2.06827E+01 2.22544E-01 1.15551E-04 1.14062E+00-2.52175E-14 3.47915E-14
 -1       690 2.05338E+01 2.78804E-01 2.18576E-04 9.86671E-01-8.58695E-14-1.89479E-13
 -1       691 2.04210E+01 2.87229E-01 2.53700E-04 8.27735E-01-1.71685E-13-3.40698E-13
 -1       692 2.03323E+01 2.68661E-01 2.49770E-04 6.77018E-01-2.03008E-13-4.60414E-13
 -1       693 2.02609E+01 2.36947E-01 2.25727E-04 5.41603E-01-2.47445E-13-3.69446E-13
 -1       694 2.02029E+01 2.00685E-01 1.93334E-04 4.24539E-01-5.97807E-14-3.95405E-13
 -1       695 2.01558E+01 1.64855E-01 1.59447E-04 3.26323E-01 1.23643E-13-4.32082E-13
 -1       696 2.01178E+01 1.32088E-01 1.27724E-04 2.45933E-01 1.10445E-13-4.39897E-13
 -1       697 2.00876E+01 1.03558E-01 9.98535E-05 1.81541E-01 5.14372E-14-4.71394E-13
 -1       698 2.00638E+01 7.95699E-02 7.63744E-05 1.30974E-01 1.00378E-13-4.94678E-13
 -1       699 2.00454E+01 5.99437E-02 5.71987E-05 9.20087E-02 8.48446E-14-1.73057E-13
 -1       700 2.00314E+01 4.42505E-02 4.19246E-05 6.25439E-02 2.43000E-15-5.38501E-14
 -1       701 2.00210E+01 3.19583E-02 3.00218E-05 4.06944E-02 3.59757E-14 6.39570E-14
 -1       702 2.00133E+01 2.25165E-02 2.09343E-05 2.48298E-02 1.18246E-14 1.39692E-13
 -1       703 2.00079E+01 1.54036E-02 1.41350E-05 1.35809E-02 1.26024E-13 1.33112E-13
 -1       704 2.00042E+01 1.01503E-02 9.14917E-06 5.82575E-03 1.07522E-14 5.63231E-15
 -1       705 2.00017E+01 6.34846E-03 5.56646E-06 6.66378E-04-2.20058E-14-4.66671E-13
 -1       706 2.00001E+01 3.65096E-03 3.03314E-06-2.59976E-03 2.48971E-13-7.20469E-13
 -1       707 1.99992E+01 1.76581E-03 1.28943E-06-4.50766E-03 1.46492E-13-7.22546E-13
 -1       708 1.99988E+01 4.49062E-04 3.01426E-08-5.45121E-03 7.76954E-14-6.46225E-13
 -1       709 1.99986E+01-5.02282E-04-7.41943E-07-5.70869E-03-2.68246E-13-1.83266E-13
 -1       710 1.99987E+01-1.26672E-03-5.63241E-07-5.46541E-03-1.50422E-13 1.82845E-13
 -1       711 1.99992E+01-1.95769E-03-1.87508E-06-5.04265E-03-1.85461E-13 2.74237E-13
 -1       712 2.21235E+01-5.13893E+00 4.84025E-02 4.58185E+00-4.94549E-13-5.52377E-13
 -1       713 2.00032E+01-3.47198E-03 1.52166E-06-7.35815E-04 8.17381E-14 8.34478E-14
 -1       714 1.99995E+01-2.16457E-03-3.57029E-06 4.96385E-03-3.06166E-14-7.10988E-13
 -1       715 2.00023E+01-3.15355E-03 4.09507E-07-3.46284E-03 5.09151E-14-3.81344E-13
 -1       716 2.00032E+01-3.47094E-03 1.61683E-06 7.60853E-04 5.29903E-14 3.95160E-13
 -1       717 2.00029E+01-3.37111E-03 9.86146E-07-2.18154E-03 1.93530E-14-2.90221E-13
 -1       718 2.00029E+01-3.37094E-03 1.00373E-06 2.18048E-03 2.08704E-13 5.87177E-14
 -1       719 2.00023E+01-3.15492E-03 6.00325E-07 3.46312E-03 3.11359E-13-2.06143E-13
 -1       720 2.00014E+01-2.80250E-03 6.43257E-07 4.45308E-03 2.09604E-13-4.16091E-13
 -1       721 2.75706E+01-2.90132E+00-6.01383E-02 6.70301E-01 8.57821E-14-5.04256E-13
 -1       722 1.53984E+01-3.69807E+00 9.94353E-02 6.11907E+00-6.22145E-13 6.95971E-14
 -1       723 7.05909E+00-2.77626E-01 1.60215E-01-3.38376E-01-1.52375E-13 1.00225E-12
 -1       724 2.69930E+01 5.34233E+00-1.65404E-01-1.19216E+00 8.12718E-13-5.05889E-13
 -1       725 2.54253E+01-4.89943E+00-4.39878E-03-2.65595E+00-3.56087E-13 6.74166E-14
 -1       726 9.99494E+00-9.46486E-01 1.49606E-01 4.00188E+00-5.77791E-13 6.92987E-13
 -1       727 2.46464E+01-4.85973E+00 1.55322E-02 2.96066E+00 4.07322E-13 1.15974E-13
 -1       728 2.12123E+01 3.01543E-01 3.41257E-04-1.11251E+00 2.27187E-13-2.09899E-13
 -1       729 2.26534E+01-1.34320E+00-2.20713E-03-8.99539E-01-1.88335E-14-1.11563E-13
 -1       730 2.07278E+01 1.34963E+00 7.52791E-04 3.68529E-01-3.30383E-13-3.43878E-13
 -1       731 2.10722E+01 7.28316E-01 1.29787E-03-7.51682E-01 3.36210E-13-2.29655E-13
 -1       732 2.01107E+01-4.86070E+00 6.46905E-02-5.33658E+00 4.99930E-13 6.52429E-14
 -1       733 1.88560E+01 2.96692E+00-1.20542E-03-1.94522E-01 2.51439E-13-6.25213E-13
 -1       734 2.80638E+01 3.93275E-01-9.98247E-02-2.19614E+00-5.22297E-13 4.59011E-13
 -1       735 1.88244E+01 2.99167E+00-1.33516E-03 1.96204E-01-2.14420E-13-6.38225E-13
 -1       736 2.76757E+01-2.70775E+00-5.57649E-02 5.61422E-01-6.13997E-14 4.19248E-13
 -1       737 2.72197E+01 4.61033E+00-1.35597E-01-1.72011E+00-9.19785E-13 2.05813E-13
 -1       738 8.39824E+00-5.56352E-01 1.63512E-01-2.85554E+00-9.88931E-14-1.16151E-12
 -1       739 2.74211E+01-3.13855E+00-4.86407E-02-1.92196E-01-4.29622E-14 5.11195E-13
 -1       740 1.39351E+01-2.73365E+00 1.16555E-01-5.68177E+00 5.08163E-13 2.40908E-13
 -1       741 2.75944E+01 5.20737E+00-1.50894E-01 1.61670E+00-9.29277E-13-2.37437E-13
 -1       742 1.91097E+01-4.15168E+00 6.20970E-02 5.43938E+00 5.61572E-13-3.23226E-13
 -1       743 2.09296E+01-4.91352E+00 5.84247E-02-5.22986E+00-4.84526E-13-3.97181E-13
 -1       744 2.72650E+01 5.91295E+00-1.65853E-01-9.69570E-02-9.56492E-13-9.69754E-15
 -1       745 2.50049E+01-4.92789E+00 8.66022E-03-2.75602E+00 4.37475E-13-1.82467E-13
 -1       746 2.77701E+01 1.42766E+00-1.12019E-01 2.59473E+00-5.73985E-13-4.89608E-13
 -1       747 1.95181E+01 2.55656E+00-1.84636E-03 1.51246E-01-3.05998E-13-5.71940E-13
 -1       748 1.80292E+01 3.46460E+00-1.00967E-03 5.95686E-02-1.47625E-14-6.83315E-13
 -1       749 2.72433E+01 4.87536E-01-7.24914E-02-2.48623E+00 3.12483E-13-9.16045E-13
 -1       750 1.77710E+01-3.56590E+00 8.37489E-02-5.62865E+00-4.93730E-13-6.33304E-13
 -1       751 2.00014E+01-2.80655E-03 1.04594E-06-4.44661E-03 8.76664E-14-1.28271E-14
 -1       752 2.00004E+01-2.44989E-03-1.06564E-07-4.93667E-03 3.24534E-14 4.80116E-14
 -1       753 8.40496E+00 1.95025E-01 1.37398E-01-3.00817E-01 9.11115E-14-1.15758E-12
 -1       754 1.62018E+01-2.53973E+00 7.62597E-02 5.32089E+00 5.22244E-13-4.74551E-13
 -1       755 2.04546E+01 1.87597E+00-9.67702E-04 6.34195E-02-3.75029E-13-4.44757E-13
 -1       756 1.83047E+01 3.30246E+00-1.39681E-03 1.61253E-01-1.33463E-13-6.52199E-13
 -1       757 1.20250E+01-1.28616E+00 1.11887E-01-4.64661E+00-2.97706E-13-9.44394E-13
 -1       758 2.00007E+01-2.18417E-03-3.37464E-07 5.04153E-03-1.03413E-13-8.19892E-13
 -1       759 2.62995E+01-1.01888E+00-4.43268E-02 1.95086E+00 1.30980E-13 3.26473E-13
 -1       760 2.00005E+01 1.68289E+00 7.64931E-04-5.78613E-01 3.02831E-13-4.22850E-13
 -1       761 2.00532E+01 1.53416E+00 2.11137E-04 6.98646E-01-2.52587E-13-4.77970E-13
 -1       762 2.02368E+01 3.25689E-01-9.92398E-05 1.63273E+00-8.62908E-14-3.36942E-13
 -1       763 2.05701E+01-4.37989E-01-2.71461E-04 1.97494E+00-4.63019E-15-2.55902E-13
 -1       764 2.12541E+01-1.40724E+00 1.44584E-03 2.16809E+00 7.75782E-14-1.55503E-13
 -1       765 2.25050E+01-2.53651E+00 5.13311E-03 2.04001E+00 2.39261E-13 5.34121E-14
 -1       766 2.41469E+01-3.43014E+00-2.55763E-02 1.37301E+00 2.93407E-13 2.64034E-13
 -1       767 2.63226E+01-3.28451E+00-3.30021E-02 2.73566E-01 1.78956E-13-4.25862E-13
 -1       768 2.41346E+01-3.44608E+00 9.35076E-03-1.19598E+00 3.31181E-13-2.24359E-13
 -1       769 2.23256E+01-2.59160E+00 7.33039E-03-1.91835E+00 2.65558E-13-1.77277E-13
 -1       770 2.10899E+01-1.54701E+00 2.14827E-03-2.08287E+00 1.83493E-13-8.55848E-14
 -1       771 2.03719E+01-6.99620E-01 3.98554E-04-1.98349E+00-2.86332E-14-5.15532E-14
 -1       772 2.00017E+01-1.14808E-01 2.24802E-04-1.78034E+00-1.18814E-13 4.86480E-14
 -1       773 1.98420E+01 2.41540E-01 2.11313E-04-1.55072E+00-5.77479E-14-6.43930E-14
 -1       774 1.97970E+01 4.30282E-01 1.47957E-04-1.32483E+00-9.90353E-14-1.35430E-13
 -1       775 1.98082E+01 5.06398E-01 1.04956E-04-1.11378E+00-9.82652E-14-3.72361E-14
 -1       776 1.98423E+01 5.12143E-01 7.43340E-05-9.22081E-01 4.81414E-14-1.11547E-13
 -1       777 1.98815E+01 4.77554E-01 5.31161E-05-7.51691E-01-7.99380E-15-1.52626E-13
 -1       778 1.99175E+01 4.22787E-01 3.82507E-05-6.03246E-01 3.31532E-14-1.51459E-13
 -1       779 1.99471E+01 3.60688E-01 2.77020E-05-4.76415E-01 1.02108E-13 1.16691E-14
 -1       780 1.99696E+01 2.98998E-01 2.00984E-05-3.70093E-01 8.30019E-14 1.66656E-13
 -1       781 1.99858E+01 2.42021E-01 1.45404E-05-2.82593E-01 6.51784E-14 9.02912E-14
 -1       782 1.99967E+01 1.91838E-01 1.04377E-05-2.11861E-01 1.05935E-14 6.13533E-14
 -1       783 2.00037E+01 1.49135E-01 7.39497E-06-1.55674E-01-2.78862E-13-2.72458E-13
 -1       784 2.00077E+01 1.13771E-01 5.14026E-06-1.11808E-01-1.51338E-13-1.43516E-13
 -1       785 2.00096E+01 8.51493E-02 3.47974E-06-7.81525E-02-1.43263E-13-8.93310E-14
 -1       786 2.00102E+01 6.24537E-02 2.27059E-06-5.27925E-02-2.29974E-13 3.33345E-15
 -1       787 2.00098E+01 4.47998E-02 1.40444E-06-3.40452E-02-8.47322E-14-3.12024E-13
 -1       788 2.00089E+01 3.13228E-02 7.97102E-07-2.04743E-02 3.23831E-14-3.83098E-13
 -1       789 2.00078E+01 2.12269E-02 3.82247E-07-1.08834E-02 4.93600E-14-1.92328E-13
 -1       790 2.00065E+01 1.38074E-02 1.13262E-07-4.29872E-03 2.30138E-13-1.09559E-13
 -1       791 2.00053E+01 8.45717E-03-5.42848E-08 5.51984E-05 3.91904E-13 1.38853E-13
 -1       792 2.00041E+01 4.66282E-03-1.86561E-07 2.78135E-03 1.81340E-13 2.46733E-13
 -1       793 2.00031E+01 1.99390E-03-3.24466E-07 4.33802E-03 5.35848E-15-1.19829E-13
 -1       794 2.00021E+01 9.24056E-05 9.69910E-07 5.05434E-03-9.87113E-15-1.61471E-13
 -1       795 2.00013E+01-1.17706E-03-1.38353E-06 5.23381E-03-7.23185E-14-3.92195E-13
 -1       796 2.40685E+01-2.89953E+00 5.58226E-04-7.97925E-01-1.46347E-13 5.13732E-14
 -1       797 2.46849E+01-2.98417E+00-2.07133E-03 9.63834E-02-1.51919E-13-5.74545E-13
 -1       798 2.31178E+01-2.53438E+00 1.05109E-03 1.11352E+00-1.77382E-13-4.13260E-13
 -1       799 2.18759E+01-1.69320E+00 1.29840E-03 1.60255E+00-1.13778E-13-2.65343E-13
 -1       800 2.10445E+01-8.96198E-01 6.64037E-04 1.72947E+00 5.22636E-15-2.63605E-13
 -1       801 2.05474E+01-3.02010E-01 5.75500E-05 1.66858E+00 2.24579E-14-2.54177E-13
 -1       802 2.02739E+01 8.37493E-02 3.51171E-05 1.52091E+00 9.44148E-14-6.77518E-14
 -1       803 2.01354E+01 3.03221E-01 7.29831E-05 1.33779E+00-4.52286E-14 1.21866E-13
 -1       804 2.00719E+01 4.05550E-01 9.64197E-05 1.14623E+00 8.09650E-14 1.75276E-14
 -1       805 2.00466E+01 4.32335E-01 9.63801E-05 9.60883E-01-8.26997E-14 3.99158E-14
 -1       806 2.00386E+01 4.14404E-01 8.73954E-05 7.89856E-01-6.38312E-14-9.44319E-14
 -1       807 2.00371E+01 3.72875E-01 7.54339E-05 6.37429E-01-2.26448E-13-1.95026E-13
 -1       808 2.00369E+01 3.21388E-01 6.29853E-05 5.05352E-01-8.95346E-14-4.85872E-13
 -1       809 2.00361E+01 2.68258E-01 5.12425E-05 3.93647E-01 6.32166E-14-3.57801E-13
 -1       810 2.00341E+01 2.18196E-01 4.07737E-05 3.01192E-01 2.35431E-13-1.52248E-13
 -1       811 2.00311E+01 1.73581E-01 3.17969E-05 2.26174E-01 1.87442E-13-2.45125E-13
 -1       812 2.00275E+01 1.35329E-01 2.43239E-05 1.66429E-01-2.76333E-14-1.49990E-13
 -1       813 2.00237E+01 1.03489E-01 1.82513E-05 1.19700E-01-6.75565E-14-6.22722E-14
 -1       814 2.00198E+01 7.76235E-02 1.34199E-05 8.37984E-02 3.92446E-14-1.31337E-14
 -1       815 2.00163E+01 5.70538E-02 9.65059E-06 5.67153E-02-1.35598E-13 4.14862E-14
 -1       816 2.00131E+01 4.10154E-02 6.76580E-06 3.66745E-02-1.19508E-14 2.55184E-13
 -1       817 2.00103E+01 2.87465E-02 4.60080E-06 2.21533E-02 1.01936E-13 6.92506E-14
 -1       818 2.00079E+01 1.95387E-02 3.00718E-06 1.18802E-02 2.46819E-13-5.24306E-14
 -1       819 2.00060E+01 1.27614E-02 1.84561E-06 4.81812E-03 1.85155E-13-1.92244E-13
 -1       820 2.00044E+01 7.86952E-03 1.00506E-06 1.39614E-04 1.96883E-13-2.23197E-13
 -1       821 2.00031E+01 4.40011E-03 4.08954E-07-2.80067E-03 1.63537E-13-1.29264E-13
 -1       822 2.00021E+01 1.96352E-03 2.79550E-07-4.49136E-03-1.12535E-13 1.50504E-13
 -1       823 2.00013E+01 2.38358E-04-3.46241E-07-5.28575E-03-2.64786E-13 3.85012E-13
 -1       824 2.00007E+01-1.04085E-03 2.38303E-07-5.43914E-03-5.35773E-13 3.00605E-13
 -1       825 2.00005E+01-1.74348E-03-2.06501E-06-5.26030E-03-1.42028E-13 2.54216E-13
 -1       826 2.00044E+01-1.57777E-03 5.11632E-07 1.51732E-03 2.05564E-13 2.15363E-13
 -1       827 1.82863E+01-3.19496E+00 5.44363E-02-4.81851E+00 4.61225E-13 5.38770E-14
 -1       828 2.00028E+01-1.59891E-03 1.05028E-06 4.17205E-03-2.01356E-13-6.92933E-13
 -1       829 2.00045E+01-1.56182E-03 1.00468E-06-1.46409E-07 3.90034E-13 1.11025E-13
 -1       830 2.06194E+01 2.94231E-01 3.39573E-04-1.45330E+00 1.74829E-13-1.91571E-13
 -1       831 2.09645E+01-3.84065E-01 5.54027E-04-1.71068E+00 8.82569E-14-1.71373E-13
 -1       832 2.00038E+01-1.60479E-03-4.27763E-08 2.93957E-03 4.63226E-14 1.71834E-13
 -1       833 1.06602E+01 4.74416E-01 8.56389E-02 1.20511E+00-3.28537E-13 6.34257E-13
 -1       834 1.03275E+01 4.26373E-01 9.62723E-02-1.23659E+00-7.45232E-15 6.07122E-13
 -1       835 2.01030E+01 9.49381E-01 3.19641E-05 1.20040E+00-1.72881E-13-3.85505E-13
 -1       836 1.93930E+01-3.75740E+00 3.20150E-02 4.78761E+00-4.85539E-13-3.28435E-13
 -1       837 1.25847E+01-5.54302E-01 7.29358E-02-3.63933E+00 2.88387E-13 2.83499E-13
 -1       838 2.68499E+01-2.89520E+00-3.60519E-02-6.92987E-01-3.84159E-14-8.73203E-13
 -1       839 2.42934E+01-4.47962E+00 4.20219E-03 2.33282E+00-2.55769E-13-8.11984E-13
 -1       840 2.26662E+01-4.35729E+00 1.48251E-02-3.34922E+00 5.19014E-13-6.24110E-14
 -1       841 1.43876E+01-1.61381E+00 6.98112E-02 4.63769E+00-5.31719E-13 3.21937E-13
 -1       842 2.55661E+01-3.67930E+00-6.24912E-03-6.78204E-01-2.71146E-13 2.22653E-13
 -1       843 1.11123E+01-1.63819E-01 1.09661E-01 3.29666E+00 3.57662E-13-8.90781E-13
 -1       844 1.97881E+01 2.03311E+00-1.43096E-04 4.18388E-01-2.98485E-13-5.07462E-13
 -1       845 2.34563E+01-4.23652E+00-1.21220E-02-2.90009E+00-3.69267E-13 6.15254E-14
 -1       846 2.55164E+01-3.61775E+00-9.01073E-03 6.31209E-01 1.99757E-13 3.63709E-13
 -1       847 2.21633E+01-3.82772E+00 2.55903E-02 3.48135E+00 4.77546E-13-4.46913E-14
 -1       848 1.79946E+01 2.91144E+00-1.51087E-04-2.90442E-01 8.36113E-14-6.79646E-13
 -1       849 2.05592E+01 1.17308E+00-6.73558E-04-6.78115E-01 3.22359E-13-2.85430E-13
 -1       850 1.78135E+01 3.02058E+00 1.06642E-04-9.26634E-03 2.55202E-14-6.01561E-13
 -1       851 1.91956E+01 2.18984E+00-1.26436E-04-5.87273E-01 2.28323E-13-5.37438E-13
 -1       852 1.90155E+01 2.51771E+00-4.87932E-04 4.31626E-01-2.01810E-13-5.73828E-13
 -1       853 2.00029E+01-1.60573E-03-1.47810E-06-4.16543E-03-1.87400E-13-3.58507E-13
 -1       854 2.26418E+01-2.15189E+00 2.39895E-05-1.52280E+00-1.77498E-13-2.17231E-14
 -1       855 2.00022E+01-1.35749E-03 3.56575E-06 4.75503E-03-4.01414E-13-8.95244E-13
 -1       856 2.15987E+01-1.21361E+00-2.63072E-04-1.78087E+00-2.69240E-14-1.08746E-13
 -1       857 2.56038E+01-2.59738E+00-8.79302E-03 5.62913E-01-1.37397E-13 2.64656E-13
 -1       858 2.60021E+01-1.97713E+00-1.30462E-02-1.46366E+00 8.41454E-14-6.38066E-13
 -1       859 2.00038E+01-1.60904E-03-6.04437E-07-2.93380E-03-7.12590E-14-5.74771E-14
 -1       860 1.59665E+01-1.28571E+00 3.64389E-02-4.00725E+00 2.98114E-13 1.02888E-13
 -1       861 2.00044E+01-1.57791E-03 5.86983E-07-1.50760E-03 2.67814E-13 2.07402E-14
 -1       862 2.14174E+01-3.56889E+00 4.59590E-02-3.84991E+00-4.02491E-13-1.48557E-13
 -1       863 1.84843E+01 2.61904E+00-5.12168E-04-4.95696E-01 1.68425E-13-6.21936E-13
 -1       864 1.99676E+01-2.86646E+00 3.49634E-02 4.13537E+00 4.31594E-13-2.48323E-13
 -1       865 1.32126E+01 7.85539E-02 4.74605E-02 2.73253E+00-4.23823E-13 5.02014E-13
 -1       866 1.07772E+01 3.56299E-01 9.84165E-02-2.09417E+00-8.00970E-14-9.54167E-13
 -1       867 1.83851E+01 2.89714E+00-1.39489E-03 3.50583E-01-1.26461E-13-6.03886E-13
 -1       868 2.05570E+01 7.55443E-01 4.86763E-04-1.10363E+00 2.30867E-13-2.46989E-13
 -1       869 1.92897E+01 1.68220E+00 1.69482E-04 9.57864E-01-1.64308E-13-4.73205E-13
 -1       870 1.60845E+01-1.63338E+00 3.87808E-02-4.55717E+00-3.28621E-13-6.90845E-13
 -1       871 1.16439E+01 9.49054E-01 7.02902E-02 6.55203E-01 1.14250E-13-8.48762E-13
 -1       872 1.94496E+01-5.49537E-01-1.61202E-05 2.57579E+00 1.29860E-13-3.30743E-13
 -1       873 2.01370E+01-1.80798E+00 9.17340E-03 3.13199E+00 3.03254E-13-2.02849E-13
 -1       874 1.40279E+01 5.26326E-03 4.28608E-02-3.19935E+00-1.70083E-13-7.66252E-13
 -1       875 1.99595E+01-1.95787E+00 9.20762E-03-3.07139E+00 2.73434E-13 3.09460E-14
 -1       876 1.92089E+01-8.34167E-01 2.38949E-04-2.58366E+00 6.89236E-14-1.00161E-14
 -1       877 1.89782E+01-9.87227E-02 3.72071E-04-2.10753E+00-3.89458E-14-7.65310E-14
 -1       878 1.89776E+01 3.40312E-01 4.92494E-04-1.71759E+00-6.87781E-14 7.36180E-14
 -1       879 1.90825E+01 5.74416E-01 2.52196E-04-1.40460E+00-1.04824E-13 7.44772E-14
 -1       880 1.92270E+01 6.72439E-01 1.33147E-04-1.15030E+00-1.34683E-13-8.67477E-14
 -1       881 1.93763E+01 6.83911E-01 8.13741E-05-9.39781E-01 8.27475E-15-1.77961E-13
 -1       882 1.95134E+01 6.43998E-01 5.40093E-05-7.62938E-01 4.21358E-14-1.78526E-13
 -1       883 1.96311E+01 5.76741E-01 3.90941E-05-6.13499E-01 7.90710E-14-5.61771E-14
 -1       884 1.97279E+01 4.98040E-01 3.03130E-05-4.87502E-01 1.76944E-13 3.19288E-14
 -1       885 1.98048E+01 4.17966E-01 2.45446E-05-3.82140E-01 2.47033E-13 1.54411E-13
 -1       886 1.98643E+01 3.42499E-01 2.02724E-05-2.95081E-01 7.16292E-14 2.59824E-13
 -1       887 1.99091E+01 2.74836E-01 1.67995E-05-2.24148E-01-5.89309E-14 6.60199E-14
 -1       888 1.99421E+01 2.16326E-01 1.38310E-05-1.67226E-01-3.39398E-13-2.41029E-13
 -1       889 1.99658E+01 1.67150E-01 1.12537E-05-1.22264E-01-1.34281E-13-1.14292E-13
 -1       890 1.99822E+01 1.26792E-01 9.02604E-06-8.73248E-02-1.16844E-13-3.42559E-13
 -1       891 1.99932E+01 9.43606E-02 7.12750E-06-6.06306E-02-7.04001E-15-2.39197E-13
 -1       892 2.00003E+01 6.87996E-02 5.53805E-06-4.05963E-02-2.44453E-13-1.10216E-13
 -1       893 2.00044E+01 4.90260E-02 4.23156E-06-2.58466E-02 1.51164E-14-2.87979E-14
 -1       894 2.00066E+01 3.40095E-02 3.17471E-06-1.52172E-02 5.78893E-14-5.94248E-15
 -1       895 2.00073E+01 2.28165E-02 2.32713E-06-7.74476E-03 2.55906E-13 1.25046E-13
 -1       896 2.00072E+01 1.46287E-02 1.68212E-06-2.64875E-03 3.98957E-13 2.42095E-14
 -1       897 2.00065E+01 8.74380E-03 1.19564E-06 6.88143E-04 4.54517E-13-1.90141E-13
 -1       898 2.00056E+01 4.57492E-03 1.29727E-06 2.74145E-03-2.47729E-13-3.16569E-13
 -1       899 2.00044E+01 1.59620E-03-4.84027E-06 3.88104E-03-1.75409E-13-6.54587E-13
 -1       900 1.91489E+01 2.09793E+00 2.79756E-05 6.85189E-01-1.98887E-13-4.91620E-13
 -1       901 2.01304E+01-5.82287E-01-3.49227E-03-2.28592E+00-2.79202E-14-2.28451E-13
 -1       902 2.29875E+01-3.62202E+00 9.08189E-03 2.38819E+00-4.08979E-13-6.31648E-13
 -1       903 1.96669E+01-4.06933E-01 9.33770E-04 2.07793E+00-5.36704E-14 4.05158E-14
 -1       904 1.94736E+01 1.09511E-01 1.13782E-04 1.76709E+00-9.89690E-14 1.21561E-13
 -1       905 1.94444E+01 4.06225E-01 3.70884E-05 1.48572E+00-1.27375E-13 2.96412E-13
 -1       906 1.94947E+01 5.50056E-01 4.77956E-05 1.23956E+00 3.57827E-14 2.89313E-13
 -1       907 1.95765E+01 5.94182E-01 3.67145E-05 1.02545E+00-1.44021E-14 4.29613E-13
 -1       908 1.96640E+01 5.77468E-01 2.47211E-05 8.39563E-01 3.36778E-14 3.14402E-13
 -1       909 1.97445E+01 5.26887E-01 1.64613E-05 6.79054E-01-7.18768E-14 1.91837E-13
 -1       910 1.98130E+01 4.60411E-01 1.12168E-05 5.41819E-01 6.72325E-14-5.50512E-14
 -1       911 1.98681E+01 3.89486E-01 7.85264E-06 4.26011E-01-1.77539E-14-1.06208E-13
 -1       912 1.99108E+01 3.20982E-01 5.60305E-06 3.29742E-01-6.10915E-14-9.50851E-14
 -1       913 1.99428E+01 2.58674E-01 4.03903E-06 2.50982E-01 1.40977E-13 1.20708E-13
 -1       914 1.99660E+01 2.04300E-01 2.92056E-06 1.87592E-01 5.44147E-14 3.78853E-13
 -1       915 1.99823E+01 1.58315E-01 2.10558E-06 1.37410E-01-9.28568E-14 3.75732E-13
 -1       916 1.99932E+01 1.20404E-01 1.50516E-06 9.83450E-02-8.44963E-14 5.07224E-13
 -1       917 2.00003E+01 8.98302E-02 1.06110E-06 6.84514E-02-7.36664E-14 5.95279E-13
 -1       918 2.00045E+01 6.56633E-02 7.33749E-07 4.59827E-02-1.16788E-13 3.85250E-13
 -1       919 2.00067E+01 4.69203E-02 4.95185E-07 2.94162E-02 2.49274E-13 1.98881E-13
 -1       920 2.00075E+01 3.26534E-02 3.24197E-07 1.74581E-02 2.80624E-13 1.45184E-14
 -1       921 2.00075E+01 2.19963E-02 1.95812E-07 9.03563E-03 2.38715E-13-1.59002E-14
 -1       922 2.00069E+01 1.41858E-02 5.01822E-08 3.27842E-03-4.99482E-14 1.92811E-13
 -1       923 2.00060E+01 8.56733E-03-1.99079E-07-5.04340E-04-5.67158E-15 3.35909E-13
 -1       924 2.00049E+01 4.58159E-03-7.35058E-07-2.85061E-03-5.29074E-14 4.71702E-13
 -1       925 2.00039E+01 1.74949E-03-5.19986E-06-4.16698E-03-2.72614E-13 3.96823E-13
 -1       926 2.00028E+01-2.25767E-04 2.56012E-06-4.74353E-03-2.93335E-13 2.89051E-13
 -1       927 2.00058E+01 6.56103E-04 1.80552E-07 7.16284E-04 4.16521E-13 6.86165E-14
 -1       928 2.00018E+01-1.74417E-03 4.96398E-07-4.84014E-03-1.12893E-13-2.20282E-13
 -1       929 1.92305E+01 1.06848E+00-2.51115E-04 1.46999E+00-7.06971E-14-4.46734E-13
 -1       930 1.97833E+01 2.94905E-01 1.62548E-03-1.84254E+00 7.92736E-14-3.38803E-13
 -1       931 1.24966E+01 8.78693E-01 4.15099E-02-2.34067E-01-3.75992E-14 2.03212E-13
 -1       932 2.01556E+01-1.20808E+00 4.16810E-03 2.38765E+00-1.68504E-13-1.14362E-13
 -1       933 2.11582E+01-2.33909E+00 3.39883E-04 2.58533E+00-2.86151E-13-3.92759E-13
 -1       934 1.33508E+01 4.17242E-01 2.72296E-02-2.23482E+00 1.62074E-13 3.19493E-13
 -1       935 1.78437E+01-2.17863E+00 2.20671E-02 4.18012E+00-4.58375E-13-2.13362E-13
 -1       936 2.10359E+01-3.14661E+00-9.17180E-03-3.28364E+00 4.11133E-13-2.61206E-14
 -1       937 1.92382E+01 3.60203E-01 6.62698E-06 2.01037E+00 1.93778E-14-3.80421E-13
 -1       938 1.47921E+01-7.09862E-01 2.83275E-02 3.91208E+00 4.15896E-13-5.46306E-13
 -1       939 1.79909E+01 3.02557E+00-3.24610E-04 2.21358E-01-3.34734E-14-6.02801E-13
 -1       940 1.95930E+01 1.41340E+00-2.22276E-04-1.03854E+00 1.91039E-13-4.37543E-13
 -1       941 1.84181E+01 2.52420E+00-1.37522E-03 5.69022E-01-1.00799E-13-5.59888E-13
 -1       942 1.32056E+01 1.07538E+00 3.18897E-02-1.15128E+00-3.54196E-14-7.54902E-13
 -1       943 2.22174E+01-3.02912E+00 1.69516E-02-2.69372E+00-2.61641E-13-5.06067E-14
 -1       944 2.00045E+01 1.32704E-04-8.63167E-07-3.47645E-03 1.09509E-13-1.99864E-13
 -1       945 2.00032E+01-8.62154E-05 1.69724E-08 4.47209E-03-7.76614E-14-7.84589E-13
 -1       946 2.00058E+01 6.50884E-04 1.61256E-07-7.25618E-04 4.54782E-13 2.70578E-13
 -1       947 2.00054E+01 4.66953E-04-1.17876E-06 2.13620E-03 4.83992E-14 4.44492E-15
 -1       948 1.37237E+01 8.02351E-01 2.06955E-02 1.26181E+00-9.64623E-14 2.46204E-13
 -1       949 1.58273E+01-5.23152E-01 2.44441E-02 3.26134E+00-5.03491E-13 1.80530E-13
 -1       950 1.75276E+01 2.57086E+00 4.98821E-04-2.63616E-01 1.69287E-14-6.21001E-13
 -1       951 1.38298E+01 7.17693E-01 2.01216E-02 2.17176E+00 2.35735E-13-6.56825E-13
 -1       952 1.79536E+01 2.32392E+00-1.33339E-03-6.87235E-01 6.68582E-14-5.89624E-13
 -1       953 2.00043E+01 2.49437E-05 3.83025E-06 3.59561E-03-2.34946E-13-5.06803E-13
 -1       954 1.96922E+01 9.73649E-01 6.98250E-04-1.36199E+00 1.50792E-13-4.01310E-13
 -1       955 2.08510E+01-1.70381E+00 4.19446E-03-2.65215E+00-1.77527E-13-1.52475E-13
 -1       956 1.77565E+01-7.17812E-01 1.83377E-02 3.38398E+00 3.12855E-13-4.18139E-13
 -1       957 1.67213E+01-4.13993E-01 1.36774E-02-3.05441E+00 1.39944E-13 5.40326E-14
 -1       958 1.69954E+01-5.95588E-01 6.39965E-03-3.44011E+00-2.22175E-13-5.05991E-13
 -1       959 2.00054E+01 4.44099E-04 4.55097E-07-2.13786E-03 2.34061E-13 1.79628E-13
 -1       960 1.81212E+01 1.23568E+00 3.40389E-04 1.61684E+00-2.86368E-15-4.39664E-13
 -1       961 1.71457E+01 2.72420E-01 3.83271E-04-2.21838E+00 3.32331E-14 7.89457E-14
 -1       962 1.76284E+01 6.54607E-01 7.00987E-04-1.64225E+00 2.17637E-14 1.38718E-13
 -1       963 1.80653E+01 8.45061E-01-3.89892E-04-1.25178E+00-5.45882E-14 9.35800E-14
 -1       964 1.84476E+01 9.13096E-01-2.12866E-04-9.81046E-01-1.95985E-13 2.81165E-13
 -1       965 1.87724E+01 9.01689E-01-1.34830E-04-7.80642E-01-4.81642E-14 1.99136E-13
 -1       966 1.90435E+01 8.41419E-01-8.22108E-05-6.24956E-01-6.41219E-14-2.40806E-14
 -1       967 1.92664E+01 7.53936E-01-5.12001E-05-4.99948E-01 2.13204E-13-1.05201E-13
 -1       968 1.94467E+01 6.54533E-01-3.42913E-05-3.97592E-01 3.26929E-13 2.51766E-14
 -1       969 1.95903E+01 5.53592E-01-2.47016E-05-3.13180E-01 3.06424E-13 7.05654E-14
 -1       970 1.97028E+01 4.57769E-01-1.87628E-05-2.43696E-01 1.91904E-13 3.29481E-15
 -1       971 1.97896E+01 3.70938E-01-1.46744E-05-1.86945E-01-8.75446E-14-2.24971E-13
 -1       972 1.98553E+01 2.94970E-01-1.15960E-05-1.41118E-01-2.85642E-13-1.47469E-13
 -1       973 1.99041E+01 2.30360E-01-9.14534E-06-1.04608E-01-1.77941E-13-5.91029E-14
 -1       974 1.99397E+01 1.76712E-01-7.14643E-06-7.59487E-02-2.11377E-13 7.54128E-14
 -1       975 1.99649E+01 1.33102E-01-5.51083E-06-5.38048E-02 3.84567E-14 1.46889E-13
 -1       976 1.99823E+01 9.83372E-02-4.18422E-06-3.69793E-02 1.46122E-14-8.39027E-14
 -1       977 1.99938E+01 7.11346E-02-3.12451E-06-2.44222E-02 9.55800E-14 1.91664E-13
 -1       978 2.00011E+01 5.02336E-02-2.29456E-06-1.52328E-02 1.55529E-13 1.66825E-13
 -1       979 2.00052E+01 3.44652E-02-1.66046E-06-8.65544E-03 2.33360E-13 1.04704E-13
 -1       980 2.00072E+01 2.27868E-02-1.18575E-06-4.06983E-03 1.74116E-13 1.56988E-13
 -1       981 2.00078E+01 1.42952E-02-5.24735E-07-9.73277E-04-3.83203E-14-4.48965E-14
 -1       982 2.00074E+01 8.20668E-03-1.42336E-06 1.01697E-03-1.41309E-13-5.81924E-13
 -1       983 2.00065E+01 3.87843E-03-1.47052E-07 2.22872E-03-1.07539E-13-5.17956E-13
 -1       984 1.85900E+01 5.58762E-01-3.18999E-04 1.54638E+00-1.97978E-13 2.45513E-13
 -1       985 1.84097E+01 2.27024E-01-1.82131E-04 1.95154E+00-1.23216E-13 1.71423E-13
 -1       986 1.90319E+01 7.68611E-01-4.13430E-05 1.00100E+00-1.24224E-14 2.13514E-13
 -1       987 1.92326E+01 7.48361E-01-2.80969E-05 8.09372E-01 8.33479E-14 1.92463E-13
 -1       988 1.94059E+01 6.87736E-01-2.28371E-05 6.51897E-01 4.66333E-14 2.07781E-13
 -1       989 1.95503E+01 6.06767E-01-1.90392E-05 5.20950E-01 1.55817E-13 4.88428E-14
 -1       990 1.96671E+01 5.18806E-01-1.55861E-05 4.11845E-01-3.49191E-14 1.93874E-13
 -1       991 1.97595E+01 4.32340E-01-1.24793E-05 3.21413E-01-7.61266E-14 3.80559E-13
 -1       992 1.98309E+01 3.52379E-01-9.78156E-06 2.47196E-01-1.85324E-14 3.67124E-13
 -1       993 1.98849E+01 2.81517E-01-7.50403E-06 1.87053E-01-3.96305E-14 5.56826E-13
 -1       994 1.99249E+01 2.20721E-01-5.62786E-06 1.39006E-01-6.11540E-15 4.70884E-13
 -1       995 1.99539E+01 1.69918E-01-4.11840E-06 1.01203E-01-7.57055E-14 4.50831E-13
 -1       996 1.99743E+01 1.28418E-01-2.93189E-06 7.19327E-02-1.87969E-13 2.69486E-13
 -1       997 1.99882E+01 9.52004E-02-2.02048E-06 4.96461E-02 1.27332E-13 3.61723E-13
 -1       998 1.99973E+01 6.91163E-02-1.33600E-06 3.29777E-02 1.13130E-13 3.01064E-13
 -1       999 2.00029E+01 4.90096E-02-8.32560E-07 2.07511E-02 2.69875E-13 5.38926E-13
 -1      1000 2.00059E+01 3.37939E-02-4.71458E-07 1.19761E-02 3.52450E-13 6.03146E-13
 -1      1001 2.00073E+01 2.24917E-02-2.56656E-07 5.83706E-03 1.44392E-13 5.59720E-13
 -1      1002 2.00075E+01 1.42498E-02-3.21790E-07 1.67809E-03-1.98454E-14 2.56237E-13
 -1      1003 2.00069E+01 8.35268E-03 2.05071E-06-1.01186E-03 5.71346E-14 2.34188E-13
 -1      1004 2.00060E+01 4.14875E-03 6.03005E-06-2.66983E-03-2.23493E-13 2.91134E-13
 -1      1005 1.87030E+01 1.90542E+00-7.89690E-04-9.53294E-01 1.70535E-13-5.31725E-13
 -1      1006 1.99154E+01-1.95017E+00 3.06606E-02-3.39026E+00-3.06458E-13-2.19215E-13
 -1      1007 1.84182E+01 1.82446E+00 9.63014E-04 1.08312E+00-6.17394E-14-4.76970E-13
 -1      1008 1.83499E+01-3.67728E-01-1.37422E-04 2.49463E+00-2.20863E-13 5.21889E-14
 -1      1009 1.86380E+01 3.72205E-01 4.42870E-03-2.20364E+00-6.23015E-14-3.73296E-13
 -1      1010 1.86732E+01 1.47448E+00-9.36149E-04-1.29558E+00 1.17423E-13-4.77421E-13
 -1      1011 1.75229E+01 2.57923E+00 1.25537E-04 2.38505E-01-5.19184E-15-5.29693E-13
 -1      1012 1.42264E+01 9.54018E-01 1.05056E-02-1.03676E+00 9.90091E-14 1.46713E-13
 -1      1013 1.88114E+01 7.19417E-01-9.41925E-05 1.23965E+00-1.15894E-13 1.81971E-13
 -1      1014 1.84445E+01-1.09122E+00 9.84662E-03 3.08312E+00-4.71566E-13-1.92288E-13
 -1      1015 1.77888E+01 5.23020E-01-2.40138E-04 2.28675E+00 8.66334E-14-4.35020E-13
 -1      1016 1.86002E+01 9.66101E-01-8.36780E-04-1.71916E+00 1.49420E-14-4.44905E-13
 -1      1017 1.40212E+01 1.36561E+00 1.17821E-02 4.65710E-01 8.08330E-14-6.73058E-13
 -1      1018 2.00070E+01 5.14205E-03-4.88565E-06-1.64153E-03 9.92553E-14 3.40298E-13
 -1      1019 1.52572E+01 7.23796E-01 2.24168E-02-2.25534E+00-1.04156E-13-6.94500E-13
 -1      1020 2.00070E+01 3.57790E-03 4.09329E-06-3.83985E-07 1.20034E-15 8.09206E-14
 -1      1021 1.46967E+01 1.08875E+00 1.73881E-03 2.32921E-01 1.02767E-14 9.20702E-14
 -1      1022 2.00068E+01 3.33852E-03-4.20995E-06 1.15924E-03 4.74554E-14-2.14341E-13
 -1      1023 1.53557E+01 4.14227E-01 6.74141E-04 2.15865E+00-3.54841E-13 1.15648E-13
 -1      1024 1.84327E+01 2.17725E+00 3.94434E-03 8.06000E-01-6.12474E-14-5.04457E-13
 -1      1025 1.68953E+01 2.24929E+00-8.78657E-04-2.83158E-02 1.48959E-15-5.46944E-13
 -1      1026 1.72093E+01 2.08251E+00-8.74605E-04-7.21065E-01 3.57929E-14-5.96846E-13
 -1      1027 1.79172E+01 2.58506E+00-2.21061E-03 4.71457E-01-4.16161E-14-5.57679E-13
 -1      1028 1.72220E+01 2.08433E+00 1.02665E-03 7.20951E-01 3.57581E-15-5.37107E-13
 -1      1029 1.92710E+01 7.49435E-01-6.12622E-05 4.32758E-01 1.92449E-14-8.29026E-14
 -1      1030 1.71719E+01 1.05367E+00-1.14624E-03-9.13604E-01-1.08730E-14 1.60068E-13
 -1      1031 1.77887E+01 1.08947E+00-5.44012E-04-6.95759E-01-1.05630E-13 1.08840E-13
 -1      1032 1.82747E+01 1.06014E+00-2.02271E-04-5.41180E-01-1.27625E-13 1.01559E-13
 -1      1033 1.86609E+01 9.86937E-01-9.80831E-05-4.27775E-01-9.56375E-14 2.10469E-13
 -1      1034 1.89696E+01 8.87929E-01-6.36368E-05-3.40555E-01 4.78448E-14 2.47466E-13
 -1      1035 1.92163E+01 7.76432E-01-4.63365E-05-2.70946E-01 2.18295E-13 1.43464E-13
 -1      1036 1.94123E+01 6.62408E-01-3.70602E-05-2.14286E-01 2.80735E-13-6.24134E-14
 -1      1037 1.95666E+01 5.52877E-01-3.11530E-05-1.67839E-01 1.69379E-13-1.10094E-13
 -1      1038 1.96867E+01 4.52323E-01-2.65829E-05-1.29838E-01-2.04189E-13-3.09356E-13
 -1      1039 1.97787E+01 3.63208E-01-2.25957E-05-9.89869E-02-2.79785E-13-3.17576E-13
 -1      1040 1.98482E+01 2.86475E-01-1.89676E-05-7.42214E-02-9.09562E-14-2.61160E-13
 -1      1041 1.98997E+01 2.22011E-01-1.56692E-05-5.46077E-02-5.60640E-14-8.47558E-14
 -1      1042 1.99371E+01 1.69020E-01-1.27240E-05-3.93034E-02 8.95018E-14 1.50585E-13
 -1      1043 1.99636E+01 1.26319E-01-1.01543E-05-2.75509E-02 2.19992E-15 3.41918E-13
 -1      1044 1.99818E+01 9.25496E-02-7.96399E-06-1.86785E-02 8.10358E-15 1.23407E-13
 -1      1045 1.99938E+01 6.63252E-02-6.13653E-06-1.21028E-02 2.55928E-14-2.61825E-13
 -1      1046 2.00013E+01 4.63252E-02-4.64366E-06-7.32791E-03 7.37038E-14-1.85060E-13
 -1      1047 2.00056E+01 3.13473E-02-3.41619E-06-3.94102E-03 1.74983E-13-3.64058E-13
 -1      1048 2.00076E+01 2.03350E-02-2.10379E-06-1.60957E-03 1.85077E-13-3.68968E-13
 -1      1049 2.00081E+01 1.23681E-02-3.19012E-06-3.40358E-05-2.15615E-13-2.43384E-13
 -1      1050 1.75602E+01 7.79029E-01-1.14942E-03 1.43295E+00-5.45895E-14 3.18540E-14
 -1      1051 1.90467E+01 8.44207E-01-8.07467E-05 5.43021E-01-3.75572E-15-2.95321E-13
 -1      1052 1.87716E+01 9.17125E-01-1.22175E-04 6.80662E-01 2.94220E-14-4.70988E-13
 -1      1053 1.94514E+01 6.46189E-01-4.92914E-05 3.42806E-01 4.28835E-14 2.44630E-14
 -1      1054 1.95946E+01 5.43597E-01-4.05049E-05 2.68952E-01-1.53747E-13 1.16045E-13
 -1      1055 1.97066E+01 4.47481E-01-3.33717E-05 2.08446E-01-5.67103E-14 2.47068E-13
 -1      1056 1.97928E+01 3.61157E-01-2.73001E-05 1.59258E-01-1.15971E-13 4.58846E-14
 -1      1057 1.98579E+01 2.86129E-01-2.20636E-05 1.19714E-01-4.24867E-14 1.23711E-13
 -1      1058 1.99062E+01 2.22652E-01-1.75709E-05 8.83449E-02 1.08622E-14 3.96625E-13
 -1      1059 1.99413E+01 1.70179E-01-1.37691E-05 6.38215E-02 3.60390E-14 2.50541E-13
 -1      1060 1.99662E+01 1.27694E-01-1.06071E-05 4.49489E-02-1.13686E-13-2.60565E-14
 -1      1061 1.99832E+01 9.39536E-02-8.02420E-06 3.06665E-02 3.23572E-14 9.51605E-14
 -1      1062 1.99945E+01 6.76483E-02-5.94979E-06 2.00516E-02-6.73832E-15 1.77180E-13
 -1      1063 2.00015E+01 4.75104E-02-4.30288E-06 1.23182E-02 2.57545E-13 1.83724E-13
 -1      1064 2.00055E+01 3.23741E-02-3.00558E-06 6.81081E-03 3.09417E-13 4.04591E-13
 -1      1065 2.00074E+01 2.12048E-02-2.05173E-06 2.99243E-03 1.86001E-13 4.63078E-13
 -1      1066 2.00079E+01 1.31318E-02 9.51679E-07 4.56594E-04-5.07449E-15 2.64406E-13
 -1      1067 2.00076E+01 8.68529E-03-2.46855E-06-7.85799E-04-9.42427E-14 4.44366E-13
 -1      1068 1.80377E+01 9.15116E-01-3.77734E-04 1.09641E+00-1.12171E-13-1.75083E-13
 -1      1069 1.70035E+01 4.77145E-01 1.15597E-03 1.93576E+00-3.19540E-13-3.86484E-14
 -1      1070 1.81532E+01 1.70474E+00-8.08625E-04-1.18321E+00 7.82710E-14-4.61443E-13
 -1      1071 1.69104E+01-1.32691E-02 5.03171E-03 2.52447E+00-3.93222E-13-9.62714E-14
 -1      1072 1.57791E+01 1.04449E+00 1.74142E-02 1.91258E+00 1.57116E-13-4.70663E-13
 -1      1073 2.00072E+01 4.51219E-03-5.07467E-07-9.02836E-04 2.41643E-13 1.33003E-13
 -1      1074 1.63772E+01 1.66416E+00-2.54361E-03 1.09565E+00 7.12911E-14-5.09381E-13
 -1      1075 1.84380E+01 9.49331E-01-2.05067E-04 8.57893E-01 1.07778E-14-2.44214E-13
 -1      1076 1.61268E+01 1.02129E+00 7.08389E-03-1.06850E+00 1.28279E-14 1.59829E-13
 -1      1077 1.49599E+01 1.41399E+00 1.53044E-02-9.76030E-01 5.00901E-16-6.38055E-13
 -1      1078 2.00076E+01 6.76925E-03 5.83815E-06 9.46042E-04-2.41443E-13-2.30473E-13
 -1      1079 1.55672E+01 9.58033E-01 2.09338E-03 1.17645E+00-1.88835E-13-1.75090E-13
 -1      1080 1.64897E+01 9.18768E-01 6.91035E-03-2.03652E+00-6.76819E-14-5.97647E-13
 -1      1081 2.00080E+01 7.81861E-03-8.19861E-08-9.40945E-05 1.83417E-14-2.04585E-14
 -1      1082 1.61918E+01 1.88542E+00-1.08570E-04-5.76312E-01 1.40864E-14-5.91327E-13
 -1      1083 1.74806E+01 1.31669E+00 1.04250E-03-1.58945E+00-1.39189E-14-4.88877E-13
 -1      1084 1.64854E+01 1.23029E+00-1.86786E-03-1.87561E-01-1.28703E-13-1.35467E-13
 -1      1085 1.78401E+01 1.17092E+00 1.79704E-04-1.53725E-01 4.86858E-14-6.71745E-16
 -1      1086 1.83295E+01 1.09196E+00-1.79773E-04-1.21660E-01-5.99997E-14 2.08251E-13
 -1      1087 1.87126E+01 9.89241E-01-1.34357E-04-9.71455E-02-5.09304E-14 2.06344E-13
 -1      1088 1.90159E+01 8.72586E-01-9.12761E-05-7.76928E-02-2.37191E-15 1.58564E-13
 -1      1089 1.92562E+01 7.51460E-01-6.17632E-05-6.18904E-02 1.20130E-14 5.78083E-14
 -1      1090 1.94458E+01 6.33214E-01-4.11587E-05-4.88922E-02-6.49018E-15-3.68987E-13
 -1      1091 1.95941E+01 5.22982E-01-2.63710E-05-3.81802E-02-1.10837E-13-5.02512E-13
 -1      1092 1.97087E+01 4.23902E-01-1.57181E-05-2.94021E-02-1.24370E-13-3.63124E-13
 -1      1093 1.97960E+01 3.37483E-01-8.16745E-06-2.22831E-02-2.17196E-14-4.01064E-14
 -1      1094 1.98616E+01 2.64018E-01-2.98013E-06-1.65854E-02-9.40720E-15-1.21228E-13
 -1      1095 1.99098E+01 2.02960E-01 4.22011E-07-1.20926E-02 9.54551E-14 4.56582E-14
 -1      1096 1.99446E+01 1.53246E-01 2.50393E-06-8.60595E-03 8.15590E-14 1.65867E-14
 -1      1097 1.99690E+01 1.13533E-01 3.63755E-06-5.94562E-03-1.08784E-13-3.60006E-14
 -1      1098 1.99856E+01 8.23869E-02 4.11534E-06-3.95214E-03-1.93668E-13-1.66903E-13
 -1      1099 1.99964E+01 5.83965E-02 4.16580E-06-2.48745E-03 1.21669E-13-1.90803E-13
 -1      1100 2.00030E+01 4.02487E-02 3.96303E-06-1.43494E-03-9.92415E-14-4.21815E-13
 -1      1101 2.00065E+01 2.67655E-02 2.32307E-06-6.95817E-04 9.70269E-14-4.44804E-13
 -1      1102 2.00080E+01 1.69189E-02-7.65718E-07-1.83802E-04 1.50452E-13-4.29571E-13
 -1      1103 1.92415E+01 7.61321E-01 1.11305E-04 2.15644E-01 2.11655E-14-2.03945E-13
 -1      1104 1.86974E+01 9.82530E-01 1.80921E-04 3.44176E-01-4.19771E-14-1.45553E-13
 -1      1105 1.95829E+01 5.36628E-01 6.52827E-05 1.32207E-01-1.24234E-13-1.74770E-13
 -1      1106 1.96995E+01 4.37184E-01 4.98646E-05 1.01785E-01 4.14691E-14-1.22444E-13
 -1      1107 1.97887E+01 3.49679E-01 3.78122E-05 7.72422E-02-3.40715E-14-2.58574E-13
 -1      1108 1.98558E+01 2.74765E-01 2.83447E-05 5.76523E-02-1.51104E-13-3.04834E-13
 -1      1109 1.99053E+01 2.12138E-01 2.09253E-05 4.22169E-02 1.91403E-13-3.00470E-13
 -1      1110 1.99412E+01 1.60881E-01 1.51558E-05 3.02291E-02-2.44092E-14-2.76845E-13
 -1      1111 1.99665E+01 1.19744E-01 1.07208E-05 2.10637E-02-1.51722E-13-3.49696E-13
 -1      1112 1.99838E+01 8.73372E-02 7.36051E-06 1.41736E-02 6.31999E-16-3.83611E-13
 -1      1113 1.99952E+01 6.22673E-02 4.86342E-06 9.08877E-03 3.94597E-14-3.02125E-13
 -1      1114 2.00022E+01 4.32212E-02 3.07752E-06 5.41312E-03 8.85032E-15-1.15435E-13
 -1      1115 2.00061E+01 2.90142E-02 2.20137E-06 2.82026E-03 7.66911E-14 2.78133E-13
 -1      1116 2.00078E+01 1.86372E-02 4.45585E-06 1.05911E-03 1.93915E-13 4.97653E-13
 -1      1117 1.64582E+01 1.03660E+00 9.02343E-03 9.90422E-01-2.43063E-13-3.07408E-13
 -1      1118 1.90001E+01 8.76468E-01 1.44598E-04 2.72540E-01-7.03289E-14-1.80684E-13
 -1      1119 2.00079E+01 8.59959E-03 1.16267E-05-5.05821E-04 7.80948E-14 1.25586E-13
 -1      1120 1.72551E+01 1.21574E+00 1.06512E-03-1.62199E-01-7.68876E-14-2.01366E-13
 -1      1121 1.72263E+01 1.10916E+00-1.19158E-03 7.42841E-01-1.13550E-13-1.87288E-13
 -1      1122 1.94327E+01 6.45972E-01 8.52367E-05 1.69645E-01-1.85928E-13-1.08478E-13
 -1      1123 2.00081E+01 1.29572E-02-3.11397E-06 1.00437E-04-3.20317E-14 3.62825E-13
 -1      1124 1.78388E+01 1.11615E+00-1.81019E-04 5.62659E-01 3.10867E-14-2.63083E-13
 -1      1125 1.83177E+01 1.06777E+00 1.65751E-04 4.37171E-01 8.55036E-14-2.24006E-13
 -1      1126 2.84410E+01 9.21840E+00 2.28677E+00-6.42755E+00-6.24500E-14 2.56362E-12
 -1      1127 2.13903E+01 6.49716E+00 2.66859E-01-3.38205E+00-3.86635E-14 5.20993E-13
 -1      1128 2.01043E+01 6.06420E+00 1.09647E-01-2.20189E+00-2.87687E-14-3.99715E-13
 -1      1129 1.93751E+01 5.83374E+00 7.06359E-02-1.47944E+00-1.99285E-14-8.59767E-13
 -1      1130 1.88189E+01 5.66020E+00 4.84032E-02-9.67031E-01-1.30798E-14-1.09079E-12
 -1      1131 1.83735E+01 5.52127E+00 3.07181E-02-6.00980E-01-8.20871E-15-1.21313E-12
 -1      1132 1.80368E+01 5.41619E+00 1.71613E-02-3.40532E-01-6.39072E-15-1.27192E-12
 -1      1133 1.78231E+01 5.34942E+00 8.26911E-03-1.49815E-01-2.59168E-15-1.29222E-12
 -1      1134 1.77517E+01 5.32710E+00 5.31527E-03 4.23823E-03 3.50848E-16-1.29705E-12
 -1      1135 1.78279E+01 5.35097E+00 8.61160E-03 1.59351E-01 3.89966E-15-1.29180E-12
 -1      1136 1.80456E+01 5.41902E+00 1.77934E-02 3.53222E-01 6.04378E-15-1.26550E-12
 -1      1137 1.83861E+01 5.52546E+00 3.20997E-02 6.18864E-01 1.06720E-14-1.19308E-12
 -1      1138 1.88326E+01 5.66473E+00 4.98393E-02 9.91869E-01 1.53350E-14-1.05802E-12
 -1      1139 1.93873E+01 5.83759E+00 7.12655E-02 1.51425E+00 2.25098E-14-8.08560E-13
 -1      1140 2.01056E+01 6.06301E+00 1.04407E-01 2.24586E+00 2.98095E-14-3.43052E-13
 -1      1141 2.12936E+01 6.45176E+00 2.12173E-01 3.36692E+00 3.46390E-14 5.94708E-13
 -1      1142 2.58034E+01 8.16914E+00 1.42698E+00 5.56312E+00 7.89924E-14 2.57516E-12
 -1      1143 2.91768E+01 3.49340E+00 1.12100E+00-4.04357E+00-2.78833E-13 3.86574E-12
 -1      1144 2.14508E+01-1.88443E-01-6.29328E-01-5.41785E-02-8.73329E-14 3.21859E-12
 -1      1145 2.07195E+01-9.87835E-02-2.30368E-01 7.82125E-02-3.54907E-14 2.28850E-12
 -1      1146 2.09606E+01-5.17232E-02-6.16538E-02 5.33981E-02-2.14212E-14 1.67039E-12
 -1      1147 2.15046E+01-2.74356E-02-1.94641E-02 4.22031E-02-1.42928E-14 1.23734E-12
 -1      1148 2.22170E+01-1.07451E-02-2.98308E-03 3.73824E-02-1.65472E-14 9.14553E-13
 -1      1149 2.29789E+01 6.06861E-03 1.60305E-02 3.29956E-02-1.29840E-14 6.62172E-13
 -1      1150 2.36439E+01 2.54930E-02 4.29463E-02 2.42022E-02-1.52131E-14 5.55729E-13
 -1      1151 2.40202E+01 4.62986E-02 7.47353E-02 6.16163E-03 6.35776E-16 3.10511E-13
 -1      1152 2.38873E+01 6.21857E-02 9.99332E-02-2.42412E-02-1.00319E-14 1.48249E-13
 -1      1153 2.30699E+01 6.16657E-02 9.82851E-02-6.40193E-02-1.33045E-14-8.14834E-14
 -1      1154 2.15758E+01 3.24932E-02 4.98754E-02-9.92512E-02 2.82760E-16-1.56208E-13
 -1      1155 1.97353E+01-2.49504E-02-4.31456E-02-1.06944E-01 7.05317E-15-2.49509E-13
 -1      1156 1.81910E+01-8.63426E-02-1.40707E-01-7.03421E-02-8.61811E-15-2.92315E-13
 -1      1157 1.76200E+01-1.13370E-01-1.83095E-01 1.56260E-03-9.74047E-15-5.24822E-13
 -1      1158 1.83165E+01-8.62163E-02-1.40644E-01 7.34308E-02-2.65317E-14-6.26256E-13
 -1      1159 1.99853E+01-2.47687E-02-4.32463E-02 1.10014E-01-5.15170E-15-7.33677E-13
 -1      1160 2.19502E+01 3.24230E-02 4.91774E-02 1.02615E-01-2.23194E-14-8.02122E-13
 -1      1161 2.35730E+01 6.15809E-02 9.71146E-02 6.81866E-02-2.92171E-14-9.84955E-13
 -1      1162 2.45259E+01 6.25964E-02 9.87807E-02 2.96208E-02-1.59881E-14-1.00289E-12
 -1      1163 2.48007E+01 4.76952E-02 7.40278E-02 8.65629E-04-2.66185E-14-1.03477E-12
 -1      1164 2.45678E+01 2.87905E-02 4.31811E-02-1.49572E-02-1.26440E-14-7.66595E-13
 -1      1165 2.40379E+01 1.25923E-02 1.76490E-02-2.06498E-02 2.11844E-14-6.39874E-13
 -1      1166 2.33849E+01 1.28708E-03 7.12420E-04-2.03309E-02-2.65980E-14-1.00467E-12
 -1      1167 2.27249E+01-5.41144E-03-8.61811E-03-1.72621E-02 1.77372E-14-1.05600E-12
 -1      1168 2.21229E+01-8.66322E-03-1.26220E-02-1.34297E-02 5.01075E-15-6.39933E-13
 -1      1169 2.16073E+01-9.66779E-03-1.34134E-02-9.82348E-03 2.59748E-14-5.37733E-13
 -1      1170 2.11847E+01-9.36518E-03-1.25098E-02-6.82556E-03-9.47799E-15-6.74351E-13
 -1      1171 2.08496E+01-8.39793E-03-1.08613E-02-4.50461E-03-2.17943E-14-5.83265E-13
 -1      1172 2.05910E+01-7.16722E-03-9.00837E-03-2.79291E-03 3.05022E-14-4.61615E-13
 -1      1173 2.03963E+01-5.90476E-03-7.23064E-03-1.57873E-03-6.57937E-14-4.38747E-13
 -1      1174 2.02530E+01-4.73267E-03-5.65519E-03-7.48746E-04-3.10360E-14-7.66713E-13
 -1      1175 2.01503E+01-3.70626E-03-4.32465E-03-2.04491E-04 2.53898E-15-8.41044E-13
 -1      1176 2.00787E+01-2.84211E-03-3.23781E-03 1.33478E-04 7.82428E-15-9.87705E-13
 -1      1177 2.00306E+01-2.13566E-03-2.37260E-03 3.26592E-04-9.94097E-15-1.25347E-12
 -1      1178 1.99996E+01-1.57184E-03-1.69875E-03 4.21016E-04 3.70125E-14-9.66796E-13
 -1      1179 1.99811E+01-1.13127E-03-1.18447E-03 4.50688E-04 1.39119E-14-7.59791E-13
 -1      1180 1.99712E+01-7.93783E-04-7.99803E-04 4.40058E-04-2.69938E-14-7.59804E-13
 -1      1181 1.99673E+01-5.40311E-04-5.18142E-04 4.06370E-04 4.49750E-15-8.49802E-13
 -1      1182 1.99673E+01-3.53770E-04-3.16687E-04 3.61495E-04 6.25543E-14-5.98667E-13
 -1      1183 1.99696E+01-2.19377E-04-1.76383E-04 3.13349E-04-5.58426E-14-7.25376E-13
 -1      1184 1.99734E+01-1.24616E-04-8.15421E-05 2.66982E-04-1.55025E-14-9.33706E-13
 -1      1185 1.99778E+01-5.90083E-05-1.92726E-05 2.25361E-04 7.09470E-14-6.35393E-13
 -1      1186 1.99824E+01-1.37772E-05 2.12406E-05 1.89889E-04-1.12188E-14-1.38585E-13
 -1      1187 1.99869E+01 1.85381E-05 4.96688E-05 1.60604E-04-2.12330E-14-2.20799E-13
 -1      1188 1.99910E+01 4.43873E-05 7.56054E-05 1.35917E-04 3.23898E-14 2.22342E-14
 -1      1189 1.99947E+01 6.91555E-05 1.08595E-04 1.11384E-04-2.39487E-14 2.14107E-13
 -1      1190 1.99977E+01 9.45856E-05 1.49868E-04 7.51473E-05 2.09997E-15 3.22076E-14
 -1      1191 1.99995E+01 1.25479E-04 1.57556E-04 2.95075E-06-9.20349E-15 3.41449E-13
 -1      1192 1.99999E+01-3.94743E-05-7.06432E-05-4.53097E-05 9.10076E-14 2.67475E-13
 -1      1193 2.81635E+01 5.16811E-01 2.48863E-01 1.91920E+00-4.51653E-14 4.21635E-12
 -1      1194 2.13441E+01-7.27360E-02-5.79370E-01 1.08177E-01 3.32477E-14 3.29256E-12
 -1      1195 2.07841E+01-4.63597E-02-1.91334E-01 1.05284E-02 2.17083E-14 2.41969E-12
 -1      1196 2.09757E+01-2.68855E-02-5.51117E-02-4.87193E-03 2.09576E-14 1.79309E-12
 -1      1197 2.14978E+01-1.50018E-02-1.92900E-02-1.26234E-02 1.69790E-14 1.37672E-12
 -1      1198 2.21944E+01-3.14093E-03-3.82853E-03-1.95178E-02 2.22334E-14 1.06543E-12
 -1      1199 2.29400E+01 1.15664E-02 1.48831E-02-2.69857E-02 2.31450E-15 8.92585E-13
 -1      1200 2.35869E+01 2.92605E-02 4.18955E-02-3.32457E-02 1.72258E-15 8.10581E-13
 -1      1201 2.39449E+01 4.63785E-02 7.38612E-02-3.37895E-02 9.41001E-15 5.78171E-13
 -1      1202 2.37982E+01 5.47228E-02 9.87827E-02-2.21534E-02 5.43576E-15 4.91447E-13
 -1      1203 2.29786E+01 4.37235E-02 9.67617E-02 6.53026E-03 1.69595E-14 3.69905E-13
 -1      1204 2.15005E+01 8.57330E-03 5.00433E-02 4.85108E-02-9.58738E-15 4.76730E-13
 -1      1205 1.96922E+01-3.93052E-02-3.70139E-02 8.61031E-02 3.28975E-14 3.80182E-13
 -1      1206 1.81826E+01-7.35408E-02-1.25654E-01 9.44388E-02 8.51923E-15 2.12594E-13
 -1      1207 1.76276E+01-7.32919E-02-1.63504E-01 6.12362E-02-4.41747E-15 1.27861E-13
 -1      1208 1.83086E+01-4.22805E-02-1.27864E-01 1.25753E-03 8.07340E-15-4.24244E-14
 -1      1209 1.99391E+01-3.38152E-03-4.58116E-02-5.37100E-02-2.16710E-15-3.27932E-13
 -1      1210 2.18661E+01 2.34856E-02 3.26275E-02-7.97625E-02 2.00877E-14-6.50757E-13
 -1      1211 2.34688E+01 3.29339E-02 7.48638E-02-7.50239E-02 8.71612E-15-9.66324E-13
 -1      1212 2.44235E+01 2.99600E-02 7.91116E-02-5.27010E-02-1.05515E-15-8.49570E-13
 -1      1213 2.47148E+01 2.15781E-02 6.10804E-02-2.73438E-02-2.08093E-14-4.69553E-13
 -1      1214 2.45038E+01 1.26987E-02 3.71124E-02-7.30235E-03-1.03678E-14-2.71217E-13
 -1      1215 2.39943E+01 5.56859E-03 1.67269E-02 5.22035E-03-1.70274E-15-6.65867E-13
 -1      1216 2.33575E+01 6.96992E-04 2.90295E-03 1.13777E-02 5.56926E-14-1.24131E-12
 -1      1217 2.27091E+01-2.21067E-03-4.94295E-03 1.32715E-02-4.98153E-15-1.22559E-12
 -1      1218 2.21146E+01-3.67900E-03-8.53620E-03 1.27592E-02-6.22787E-15-7.79439E-13
 -1      1219 2.16037E+01-4.20049E-03-9.52642E-03 1.11253E-02-2.83942E-15-3.81800E-13
 -1      1220 2.11837E+01-4.15356E-03-9.11048E-03 9.13593E-03 2.06723E-14-3.98201E-13
 -1      1221 2.08500E+01-3.79972E-03-8.04376E-03 7.19502E-03-3.68937E-14-4.27185E-13
 -1      1222 2.05919E+01-3.30727E-03-6.76038E-03 5.48477E-03-1.46391E-14-3.58305E-13
 -1      1223 2.03973E+01-2.77820E-03-5.48996E-03 4.06432E-03 3.40528E-14-3.83737E-13
 -1      1224 2.02541E+01-2.27024E-03-4.34159E-03 2.93040E-03-2.70693E-15-2.25573E-13
 -1      1225 2.01512E+01-1.81291E-03-3.35715E-03 2.05188E-03 4.60953E-14 7.03918E-14
 -1      1226 2.00794E+01-1.41839E-03-2.54283E-03 1.38817E-03-1.92279E-14-2.39411E-13
 -1      1227 2.00311E+01-1.08868E-03-1.88715E-03 8.98406E-04-5.48430E-14-4.02044E-13
 -1      1228 2.00000E+01-8.20071E-04-1.37094E-03 5.45614E-04-3.07221E-14-5.45617E-13
 -1      1229 1.99813E+01-6.06032E-04-9.72766E-04 2.98191E-04 5.89548E-14-9.18042E-13
 -1      1230 1.99714E+01-4.38918E-04-6.71727E-04 1.30091E-04 2.01662E-14-9.90003E-13
 -1      1231 1.99674E+01-3.10980E-04-4.48811E-04 2.03983E-05-1.07867E-14-1.02652E-12
 -1      1232 1.99673E+01-2.14915E-04-2.87434E-04-4.73611E-05 6.03178E-14-1.20257E-12
 -1      1233 1.99697E+01-1.44115E-04-1.73503E-04-8.59566E-05-9.93995E-14-9.88527E-13
 -1      1234 1.99734E+01-9.27187E-05-9.52027E-05-1.05168E-04 7.23916E-15-5.74606E-13
 -1      1235 1.99778E+01-5.55287E-05-4.26056E-05-1.12425E-04 8.40810E-14-7.57224E-13
 -1      1236 1.99824E+01-2.78168E-05-7.07829E-06-1.13349E-04-4.42490E-14-4.90493E-13
 -1      1237 1.99869E+01-5.04634E-06 1.96292E-05-1.12136E-04 6.43702E-14-7.59637E-13
 -1      1238 1.99910E+01 1.72529E-05 4.64824E-05-1.11584E-04 1.29118E-13-1.44147E-12
 -1      1239 1.99947E+01 4.36471E-05 8.32263E-05-1.12404E-04 1.31780E-14-1.31926E-12
 -1      1240 1.99976E+01 7.43637E-05 1.31201E-04-1.08205E-04 1.38313E-14-9.97719E-13
 -1      1241 1.99995E+01 8.26642E-05 1.40219E-04-7.06052E-05 6.07119E-14-6.48566E-13
 -1      1242 1.99999E+01-3.68270E-05-7.37450E-05 3.89620E-05-8.37784E-14-4.04445E-13
 -1      1243 1.99998E+01 1.08118E-04-7.03284E-05 3.34321E-05-2.72461E-13-1.40050E-13
 -1      1244 1.99999E+01-3.37226E-04 1.37222E-04-2.99995E-06 1.83192E-13-3.44999E-14
 -1      1245 1.99999E+01-2.12890E-03 1.09806E-04-8.16074E-05 1.14104E-12 1.68698E-14
 -1      1246 1.99998E+01-4.70445E-03 3.27507E-05-1.03716E-04 1.15043E-12 8.43120E-14
 -1      1247 1.99998E+01-7.47546E-03-3.34674E-05-9.92054E-05 8.46715E-13-8.22022E-14
 -1      1248 1.99997E+01-9.99029E-03-7.98547E-05-8.07540E-05-5.66340E-13-2.63364E-13
 -1      1249 1.99997E+01-1.19735E-02-1.08488E-04-5.73976E-05-5.33544E-13 2.11500E-15
 -1      1250 1.99997E+01-1.32459E-02-1.24684E-04-2.92378E-05 3.26625E-13-7.08886E-14
 -1      1251 1.99997E+01-1.36766E-02-1.29749E-04 2.49565E-07 2.51465E-13-7.29467E-14
 -1      1252 1.99997E+01-1.32313E-02-1.24485E-04 2.97373E-05 1.30589E-12 3.11910E-14
 -1      1253 1.99997E+01-1.19459E-02-1.07938E-04 5.78191E-05 7.61742E-13-2.50275E-13
 -1      1254 1.99997E+01-9.95119E-03-7.87734E-05 8.24355E-05-5.20841E-13-5.17319E-14
 -1      1255 1.99998E+01-7.43124E-03-3.28686E-05 9.94770E-05-5.40464E-13 4.64960E-14
 -1      1256 1.99998E+01-4.65666E-03 3.47773E-05 1.05177E-04-4.58636E-13-2.05079E-14
 -1      1257 1.99999E+01-2.05120E-03 1.23853E-04 9.71096E-05-1.07658E-12-2.51017E-14
 -1      1258 1.99999E+01-3.65038E-04 1.32933E-04-1.78865E-05-6.89398E-13-2.80315E-14
 -1      1259 1.99998E+01 1.17111E-04-7.54366E-05-3.47237E-05-2.30183E-13 1.04060E-13
 -1      1260-1.11698E+00-2.40059E+01-3.70656E+00-2.22602E+00 1.44662E-12 3.57627E-13
 -1      1261-1.81631E+00-1.52025E+01-3.07345E+00-4.01376E+00 3.26095E-12 1.20209E-12
 -1      1262 3.88476E-01-2.27044E+00-1.86173E+00 1.19035E-02 3.90221E-12 2.53464E-12
 -1      1263 9.41881E+00 7.82811E+00-2.62028E-01 8.48561E+00 3.79563E-12 3.65041E-12
 -1      1264 2.60572E+01 1.10191E+01 1.44134E+00 1.61070E+01 2.68818E-12 3.76676E-12
 -1      1265 4.59847E+01 8.15909E+00 2.92628E+00 1.76002E+01 1.22297E-12 2.67764E-12
 -1      1266 6.20722E+01 3.45018E+00 3.93772E+00 1.07214E+01 2.76890E-13 5.97078E-13
 -1      1267 6.73025E+01 1.74265E+00 4.28838E+00-1.82454E+00 2.24508E-13-2.03301E-12
 -1      1268 5.83189E+01 4.83607E+00 3.74873E+00-1.35179E+01 1.15910E-12-4.21929E-12
 -1      1269 3.98301E+01 9.60908E+00 2.52954E+00-1.82452E+01 2.79121E-12-5.39946E-12
 -1      1270 2.04455E+01 1.10491E+01 9.62573E-01-1.44774E+01 4.23017E-12-5.35638E-12
 -1      1271 6.03532E+00 5.62075E+00-7.36316E-01-5.94282E+00 4.81060E-12-4.12337E-12
 -1      1272-8.52220E-01-6.31759E+00-2.27211E+00 1.88098E+00 4.38849E-12-2.40552E-12
 -1      1273-1.57264E+00-1.91519E+01-3.36712E+00 4.09483E+00 2.61513E-12-8.55843E-13
 -1      1274-9.75139E-01-2.54636E+01-3.87495E+00 5.57841E-01 2.82552E-13-2.06023E-13
 -1      1275-1.60720E+00-2.09746E+01-3.51933E+00-3.40676E+00-2.21112E-12-7.09419E-13
 -1      1276-1.49975E+00-9.60637E+00-2.66324E+00-2.99678E+00-3.91975E-12-1.89770E-12
 -1      1277 3.02852E+00 2.64008E+00-1.20782E+00 3.11943E+00-4.32765E-12-3.24474E-12
 -1      1278 1.51069E+01 1.00945E+01 4.26405E-01 1.19901E+01-3.95772E-12-4.44889E-12
 -1      1279 3.36964E+01 1.06144E+01 2.06690E+00 1.78028E+01-2.80409E-12-4.69158E-12
 -1      1280 5.25605E+01 6.50802E+00 3.35048E+00 1.64286E+01-1.31783E-12-3.73812E-12
 -1      1281 6.50501E+01 2.36492E+00 4.07108E+00 7.61794E+00-3.67616E-13-1.73633E-12
 -1      1282 6.65197E+01 1.84837E+00 4.16598E+00-4.59395E+00-1.44999E-13 4.46532E-13
 -1      1283 5.64172E+01 5.18186E+00 3.56344E+00-1.46453E+01-7.99444E-13 2.36378E-12
 -1      1284 3.79629E+01 9.78867E+00 2.35348E+00-1.79045E+01-2.05924E-12 3.85847E-12
 -1      1285 1.93810E+01 1.07651E+01 8.62040E-01-1.39030E+01-3.16702E-12 3.93152E-12
 -1      1286 5.90678E+00 5.51310E+00-7.41655E-01-5.79264E+00-3.47433E-12 3.00604E-12
 -1      1287-6.59744E-01-5.06054E+00-2.15074E+00 1.52427E+00-3.54494E-12 2.02227E-12
 -1      1288-1.78999E+00-1.67163E+01-3.15780E+00 4.16592E+00-2.33202E-12 8.24285E-13
 -1      1289-1.06050E+00-2.43599E+01-3.73036E+00 2.03151E+00-7.65943E-13 1.63414E-13
 -1      1290 2.31403E+01 1.89165E+00-7.11616E-01-2.53083E+00-1.03945E-13 2.14351E-12
 -1      1291 2.12530E+01 4.76737E+00-3.71877E-02-2.72012E+00-3.07698E-13 9.40012E-14
 -1      1292 2.18366E+01 4.88333E+00-8.26861E-02-3.64510E+00-3.87829E-13 5.77982E-13
 -1      1293 2.01641E+01 5.07643E+00-1.68426E-02-1.94429E+00-3.16469E-13-5.96561E-13
 -1      1294 2.06190E+01 5.21465E+00 2.10628E-02-2.38428E+00-3.57159E-13-2.94431E-13
 -1      1295 2.14276E+01 3.97615E+00-1.64092E-02-2.43803E+00-5.41008E-13 8.23508E-14
 -1      1296 1.94381E+01 5.14494E+00-8.26172E-03-1.32416E+00-2.66058E-13-9.52554E-13
 -1      1297 1.97869E+01 5.25753E+00 2.23716E-02-1.62499E+00-2.99399E-13-7.89563E-13
 -1      1298 2.03212E+01 4.43883E+00-1.91481E-02-1.77206E+00-5.00835E-13-4.90136E-13
 -1      1299 1.88569E+01 5.15750E+00-6.26211E-03-8.63429E-01-2.01603E-13-1.14442E-12
 -1      1300 1.91397E+01 5.24759E+00 1.76932E-02-1.08179E+00-2.28949E-13-1.05762E-12
 -1      1301 1.95340E+01 4.66094E+00-1.76017E-02-1.20758E+00-4.03465E-13-8.02910E-13
 -1      1302 1.83959E+01 5.15504E+00-6.19103E-03-5.32503E-01-1.40266E-13-1.24288E-12
 -1      1303 1.86175E+01 5.22478E+00 1.23947E-02-6.88638E-01-1.63550E-13-1.19440E-12
 -1      1304 1.89168E+01 4.79078E+00-1.48504E-02-7.86112E-01-2.99958E-13-9.62577E-13
 -1      1305 1.80515E+01 5.15080E+00-6.35055E-03-2.89768E-01-9.08787E-14-1.29176E-12
 -1      1306 1.82101E+01 5.20016E+00 6.72798E-03-4.05135E-01-1.06009E-13-1.27382E-12
 -1      1307 1.84327E+01 4.87499E+00-1.28554E-02-4.77444E-01-2.01633E-13-1.05678E-12
 -1      1308 1.78533E+01 5.15211E+00-5.18202E-03-1.09353E-01-3.19267E-14-1.30352E-12
 -1      1309 1.79349E+01 5.17737E+00 1.47088E-03-1.98122E-01-5.17867E-14-1.29536E-12
 -1      1310 1.80909E+01 4.92781E+00-1.17612E-02-2.50013E-01-1.19407E-13-1.08524E-12
 -1      1311 1.78159E+01 5.16099E+00-2.43765E-03 4.42003E-02 1.92945E-14-1.31001E-12
 -1      1312 1.78144E+01 5.16042E+00-2.66904E-03-3.59019E-02 3.35279E-15-1.31045E-12
 -1      1313 1.79154E+01 4.95313E+00-1.12561E-02-7.48632E-02-2.32876E-14-1.10701E-12
 -1      1314 1.79421E+01 5.17732E+00 1.78003E-03 2.07993E-01 7.16701E-14-1.29685E-12
 -1      1315 1.78577E+01 5.15101E+00-5.30956E-03 1.18147E-01 5.31996E-14-1.30374E-12
 -1      1316 1.79187E+01 4.95190E+00-1.13013E-02 8.31241E-02 5.94884E-14-1.10865E-12
 -1      1317 1.82218E+01 5.19898E+00 6.93731E-03 4.18567E-01 1.21750E-13-1.25952E-12
 -1      1318 1.80611E+01 5.14912E+00-6.35693E-03 3.01055E-01 1.03436E-13-1.28513E-12
 -1      1319 1.81003E+01 4.92412E+00-1.19072E-02 2.60261E-01 1.45654E-13-1.08975E-12
 -1      1320 1.86281E+01 5.22275E+00 1.26204E-02 7.04294E-01 1.78212E-13-1.17903E-12
 -1      1321 1.84056E+01 5.15249E+00-6.26279E-03 5.45701E-01 1.56729E-13-1.23097E-12
 -1      1322 1.84438E+01 4.86941E+00-1.29443E-02 4.89119E-01 2.31179E-13-1.04128E-12
 -1      1323 1.91571E+01 5.24363E+00 1.81509E-02 1.10748E+00 2.49120E-13-1.02596E-12
 -1      1324 1.88727E+01 5.15296E+00-6.27450E-03 8.84960E-01 2.20525E-13-1.11791E-12
 -1      1325 1.89308E+01 4.78229E+00-1.49258E-02 8.02697E-01 3.27668E-13-9.45077E-13
 -1      1326 1.98045E+01 5.25110E+00 2.21739E-02 1.66124E+00 3.23831E-13-7.51111E-13
 -1      1327 1.94558E+01 5.13718E+00-8.69675E-03 1.35500E+00 2.84724E-13-9.17152E-13
 -1      1328 1.95568E+01 4.64609E+00-1.77252E-02 1.23459E+00 4.33450E-13-7.73739E-13
 -1      1329 2.06467E+01 5.22176E+00 2.63816E-02 2.42668E+00 3.77240E-13-2.32883E-13
 -1      1330 2.01808E+01 5.06772E+00-1.74465E-02 1.98917E+00 3.33497E-13-5.44339E-13
 -1      1331 2.03477E+01 4.41723E+00-1.96387E-02 1.81291E+00 5.30371E-13-4.51479E-13
 -1      1332 2.20389E+01 4.97425E+00 2.93137E-02 3.56269E+00 3.31041E-13 7.70495E-13
 -1      1333 2.12337E+01 4.80847E+00-3.54648E-02 2.83060E+00 3.19827E-13 1.53100E-13
 -1      1334 2.14672E+01 3.94109E+00-1.22650E-02 2.54314E+00 5.68941E-13 1.36835E-13
 -1      1335 2.78388E+01 3.18534E+00 8.72466E-01 4.31268E+00 1.70544E-13 2.72504E-12
 -1      1336 2.29402E+01 3.55690E+00-1.70241E-01 3.49373E+00 1.66991E-13 1.36574E-12
 -1      1337 2.31576E+01 2.54382E+00-1.84885E-02 2.94485E+00 5.42016E-13 1.05702E-12
 -1      1338 2.24390E+01 3.33543E-01-7.59096E-01 9.32616E-01 3.05422E-13 2.59753E-12
 -1      1339 2.31169E+01 1.11464E-01-3.97360E-01-1.01248E+00-3.14151E-13 2.23621E-12
 -1      1340 2.20938E+01 2.88283E-01-1.53488E-01-5.70677E-01-2.86327E-13 1.87339E-12
 -1      1341 2.16743E+01 1.51309E-01-6.93314E-02-1.70829E-01-2.31423E-13 1.71827E-12
 -1      1342 2.14912E+01 9.04706E-02-1.07292E-02-1.02992E-01-2.16983E-13 1.38481E-12
 -1      1343 2.23718E+01 3.47329E-01-1.02992E-01-8.24122E-01-5.06761E-13 1.01538E-12
 -1      1344 2.13482E+01 6.88434E-02 3.85805E-03 9.60049E-02-1.65006E-13 1.25450E-12
 -1      1345 2.14808E+01 4.52798E-02 1.38322E-02 1.16724E-01-1.55894E-13 1.02054E-12
 -1      1346 2.17146E+01 1.32178E-01-3.68158E-02-5.59044E-02-3.81258E-13 7.70529E-13
 -1      1347 2.15493E+01 3.74068E-02 1.17504E-02 2.16149E-01-1.21270E-13 9.08926E-13
 -1      1348 2.18290E+01 2.16899E-02 9.96857E-03 2.28843E-01-1.39810E-13 7.29052E-13
 -1      1349 2.16711E+01 6.19949E-02-1.06119E-02 2.96663E-01-2.79578E-13 5.58798E-13
 -1      1350 2.20102E+01 1.70657E-02 6.60278E-03 2.74811E-01-1.04952E-13 6.72105E-13
 -1      1351 2.23523E+01 2.81900E-03 4.83633E-03 2.79418E-01-8.30679E-14 5.45633E-13
 -1      1352 2.19204E+01 2.58241E-02-5.10394E-03 4.72671E-01-2.25749E-13 4.14143E-13
 -1      1353 2.25807E+01-3.69679E-03 3.21302E-03 2.79278E-01-6.36453E-14 4.95777E-13
 -1      1354 2.29140E+01-1.91762E-02 2.65990E-03 2.73371E-01-5.47895E-14 4.29681E-13
 -1      1355 2.23259E+01-7.06344E-03-1.31437E-03 5.31631E-01-1.58310E-13 3.37631E-13
 -1      1356 2.31305E+01-2.97150E-02 3.44511E-03 2.19440E-01-4.16425E-14 4.03816E-13
 -1      1357 2.33718E+01-4.61834E-02 3.34167E-03 1.99110E-01-6.75159E-14 3.06925E-13
 -1      1358 2.27711E+01-4.80070E-02 4.42352E-03 4.71681E-01-1.02520E-13 2.65193E-13
 -1      1359 2.35136E+01-6.07698E-02 6.84251E-03 8.18280E-02-8.33543E-14 3.08118E-13
 -1      1360 2.35655E+01-7.44695E-02 6.25590E-03 4.39747E-02-4.69277E-14 1.92248E-13
 -1      1361 2.31388E+01-9.79196E-02 1.23674E-02 2.71392E-01-1.32392E-13 2.13897E-13
 -1      1362 2.35680E+01-8.95089E-02 1.19725E-02-1.33932E-01-4.35849E-14 1.98015E-13
 -1      1363 2.33402E+01-9.24230E-02 9.84001E-03-1.87247E-01-9.49787E-14 1.00253E-13
 -1      1364 2.33039E+01-1.45883E-01 2.11359E-02-7.96602E-02-9.42874E-14 2.09877E-13
 -1      1365 2.31547E+01-9.92719E-02 1.56224E-02-3.92789E-01-7.79299E-14 7.57276E-14
 -1      1366 2.26117E+01-8.11616E-02 1.06881E-02-4.48501E-01-4.87162E-14-7.28584E-15
 -1      1367 2.31507E+01-1.66144E-01 2.69477E-02-5.42477E-01-1.13718E-13 1.76118E-13
 -1      1368 2.22378E+01-6.87942E-02 1.27721E-02-6.06884E-01-4.20384E-14-7.39270E-14
 -1      1369 2.14612E+01-2.51129E-02 4.75576E-03-6.38806E-01-5.53507E-14-1.14395E-13
 -1      1370 2.26216E+01-1.24063E-01 2.36518E-02-9.90718E-01-9.12439E-14 7.93653E-14
 -1      1371 2.09839E+01 9.60045E-03 8.24181E-04-6.52519E-01-3.44052E-14-1.53787E-13
 -1      1372 2.01996E+01 6.67791E-02-8.44020E-03-6.32317E-01-6.18017E-14-1.86511E-13
 -1      1373 2.17895E+01-4.52756E-03 5.64638E-03-1.21347E+00-7.02064E-14-6.43478E-14
 -1      1374 1.97923E+01 1.07869E-01-1.57112E-02-4.44347E-01-4.77604E-14-2.45394E-13
 -1      1375 1.93040E+01 1.49584E-01-2.21154E-02-3.66130E-01-8.34957E-14-3.22818E-13
 -1      1376 2.09076E+01 1.56883E-01-2.30927E-02-1.01212E+00-1.16154E-13-1.97755E-13
 -1      1377 1.91559E+01 1.68428E-01-2.59692E-02-2.70793E-02-9.89035E-14-3.50510E-13
 -1      1378 1.91866E+01 1.68173E-01-2.58390E-02 7.70436E-02-9.80171E-14-4.60984E-13
 -1      1379 2.03465E+01 2.74680E-01-4.64310E-02-3.68823E-01-1.75764E-13-3.03862E-13
 -1      1380 1.93819E+01 1.49626E-01-2.23420E-02 4.15884E-01-1.07594E-13-4.77202E-13
 -1      1381 1.99314E+01 1.07464E-01-1.56200E-02 4.93975E-01-8.73190E-14-5.59136E-13
 -1      1382 2.03925E+01 2.74575E-01-4.64197E-02 4.65943E-01-1.44738E-13-3.85675E-13
 -1      1383 2.03852E+01 6.68154E-02-8.69688E-03 6.81564E-01-5.42118E-14-6.37865E-13
 -1      1384 2.12304E+01 9.36257E-03 8.34407E-04 7.01678E-01-2.47441E-14-6.90850E-13
 -1      1385 2.10448E+01 1.56702E-01-2.30814E-02 1.10842E+00-1.02758E-13-4.69970E-13
 -1      1386 2.17532E+01-2.45926E-02 4.31526E-03 6.88212E-01-4.45499E-14-6.96637E-13
 -1      1387 2.25916E+01-6.85269E-02 1.25895E-02 6.56598E-01-3.66395E-14-7.15338E-13
 -1      1388 2.20161E+01-3.89764E-03 5.71354E-03 1.30927E+00-3.57820E-14-6.30645E-13
 -1      1389 2.30107E+01-8.02476E-02 1.00131E-02 4.99327E-01-5.47817E-14-7.48998E-13
 -1      1390 2.36177E+01-9.89361E-02 1.51777E-02 4.44127E-01-4.09351E-14-8.00242E-13
 -1      1391 2.29361E+01-1.22654E-01 2.35872E-02 1.08808E+00-8.94337E-14-6.26008E-13
 -1      1392 2.38474E+01-9.15883E-02 8.88603E-03 2.39558E-01-2.90748E-14-7.73201E-13
 -1      1393 2.41418E+01-8.96799E-02 1.12405E-02 1.86679E-01-5.56126E-14-8.25361E-13
 -1      1394 2.35516E+01-1.64231E-01 2.70683E-02 6.42191E-01-4.60916E-14-6.15150E-13
 -1      1395 2.41802E+01-7.42793E-02 4.88629E-03 8.28306E-03 2.19503E-14-8.64259E-13
 -1      1396 2.41956E+01-6.21621E-02 5.53891E-03-2.94983E-02 3.96731E-14-7.81796E-13
 -1      1397 2.37868E+01-1.44621E-01 2.14707E-02 1.79597E-01-4.76841E-14-6.36304E-13
 -1      1398 2.40872E+01-4.74209E-02 1.27221E-03-1.50475E-01 3.35864E-14-6.96504E-13
 -1      1399 2.39100E+01-3.33688E-02 1.12736E-03-1.71496E-01 6.14573E-14-6.26246E-13
 -1      1400 2.36926E+01-9.82120E-02 1.31780E-02-1.76967E-01 8.57057E-14-6.23670E-13
 -1      1401 2.37114E+01-2.30122E-02-7.39342E-04-2.35004E-01 1.21487E-14-6.94306E-13
 -1      1402 2.34308E+01-1.12083E-02-1.23493E-03-2.42915E-01-4.66912E-14-7.38238E-13
 -1      1403 2.33729E+01-5.14732E-02 5.90776E-03-3.93920E-01-2.17942E-14-5.97326E-13
 -1      1404 2.31915E+01-5.49821E-03-1.32661E-03-2.62818E-01-4.41338E-14-7.14696E-13
 -1      1405 2.28765E+01 2.88422E-03-1.99511E-03-2.62331E-01-2.89181E-14-7.82596E-13
 -1      1406 2.29319E+01-1.62680E-02 8.68147E-04-4.90126E-01-5.95348E-14-6.20307E-13
 -1      1407 2.26320E+01 5.09735E-03-1.10245E-03-2.54645E-01 6.30362E-14-6.24636E-13
 -1      1408 2.23266E+01 1.03692E-02-1.86398E-03-2.49648E-01 1.10900E-13-5.16013E-13
 -1      1409 2.24513E+01 5.67017E-03-2.06817E-03-5.02108E-01 4.76713E-14-3.68603E-13
 -1      1410 2.20987E+01 1.04194E-02-5.94375E-04-2.27355E-01 7.39708E-15-4.90683E-13
 -1      1411 2.18263E+01 1.33604E-02-1.38909E-03-2.20483E-01 3.02822E-14-3.80702E-13
 -1      1412 2.19854E+01 1.70060E-02-3.47204E-03-4.64534E-01 1.25796E-13-2.91630E-13
 -1      1413 2.16262E+01 1.22903E-02-1.04144E-04-1.92415E-01 1.97544E-14-4.41495E-13
 -1      1414 2.13961E+01 1.36676E-02-8.76342E-04-1.85236E-01-6.62946E-15-4.66299E-13
 -1      1415 2.15650E+01 2.12752E-02-3.90976E-03-4.03234E-01 6.95971E-15-2.54059E-13
 -1      1416 2.12277E+01 1.21544E-02 2.51535E-04-1.56694E-01 7.95067E-15-4.96434E-13
 -1      1417 2.10410E+01 1.25642E-02-4.53931E-04-1.50030E-01-2.42933E-14-5.15878E-13
 -1      1418 2.12038E+01 2.14159E-02-3.80231E-03-3.34855E-01-5.06210E-14-3.66341E-13
 -1      1419 2.09038E+01 1.09938E-02 4.59764E-04-1.23818E-01-1.08834E-14-4.34502E-13
 -1      1420 2.07567E+01 1.08501E-02-1.51946E-04-1.18032E-01-1.57090E-14-4.52433E-13
 -1      1421 2.09047E+01 1.94519E-02-3.42346E-03-2.68917E-01 3.08857E-14-3.67802E-13
 -1      1422 2.06480E+01 9.41515E-03 5.49896E-04-9.53742E-02-2.63858E-14-3.99120E-13
 -1      1423 2.05352E+01 8.98626E-03 4.22216E-05-9.05645E-02-1.53952E-14-4.18629E-13
 -1      1424 2.06640E+01 1.66286E-02-2.93726E-03-2.10136E-01-5.31519E-15-2.74846E-13
 -1      1425 2.04509E+01 7.76428E-03 5.59884E-04-7.17632E-02-7.14424E-14-3.73415E-13
 -1      1426 2.03664E+01 7.21568E-03 1.53913E-04-6.78896E-02-8.21272E-14-4.39263E-13
 -1      1427 2.04751E+01 1.36467E-02-2.43592E-03-1.60286E-01-5.48845E-14-3.33129E-13
 -1      1428 2.03026E+01 6.22145E-03 5.22296E-04-5.27576E-02-7.63947E-14-3.96901E-13
 -1      1429 2.02408E+01 5.65026E-03 2.08031E-04-4.97161E-02-4.32540E-14-5.14136E-13
 -1      1430 2.03302E+01 1.08637E-02-1.96756E-03-1.19482E-01-1.33418E-13-2.82002E-13
 -1      1431 2.01936E+01 4.86782E-03 4.60761E-04-3.78363E-02-3.27297E-14-5.59539E-13
 -1      1432 2.01495E+01 4.32761E-03 2.24649E-04-3.55002E-02-9.03116E-14-6.28493E-13
 -1      1433 2.02213E+01 8.43541E-03-1.55432E-03-8.69894E-02-1.40721E-13-3.07264E-13
 -1      1434 2.01153E+01 3.72828E-03 3.90725E-04-2.63759E-02-8.42626E-14-6.08041E-13
 -1      1435 2.00849E+01 3.24560E-03 2.18469E-04-2.46186E-02-3.38501E-14-8.12870E-13
 -1      1436 2.01414E+01 6.40588E-03-1.20343E-03-6.17104E-02-1.51901E-13-4.32162E-13
 -1      1437 2.00607E+01 2.79757E-03 3.21449E-04-1.77549E-02 1.88599E-14-7.84774E-13
 -1      1438 2.00404E+01 2.38267E-03 1.99643E-04-1.64605E-02 6.76471E-14-7.89816E-13
 -1      1439 2.00841E+01 4.76144E-03-9.13925E-04-4.24563E-02-2.67761E-14-3.77268E-13
 -1      1440 2.00240E+01 2.05573E-03 2.57941E-04-1.14046E-02 7.06770E-14-7.85146E-13
 -1      1441 2.00111E+01 1.70933E-03 1.74878E-04-1.04723E-02 1.16681E-13-6.36495E-13
 -1      1442 2.00442E+01 3.46158E-03-6.80617E-04-2.80914E-02 1.16962E-13-5.26960E-13
 -1      1443 2.00003E+01 1.47690E-03 2.02483E-04-6.83102E-03 9.86001E-14-6.73438E-13
 -1      1444 1.99928E+01 1.19448E-03 1.48407E-04-6.17641E-03 2.36956E-14-5.32081E-13
 -1      1445 2.00173E+01 2.45605E-03-4.96447E-04-1.76014E-02 9.44483E-14-5.39066E-13
 -1      1446 1.99862E+01 1.03424E-03 1.55691E-04-3.61972E-03-7.18975E-14-7.03647E-13
 -1      1447 1.99824E+01 8.08631E-04 1.22758E-04-3.17383E-03-8.04866E-14-7.20807E-13
 -1      1448 2.00001E+01 1.69392E-03-3.53857E-04-1.01184E-02-9.34279E-14-5.57186E-13
 -1      1449 1.99787E+01 7.02407E-04 1.17230E-04-1.43229E-03 5.50852E-15-6.53152E-13
 -1      1450 1.99774E+01 5.25466E-04 9.93074E-05-1.14006E-03 3.38860E-14-6.41702E-13
 -1      1451 1.99898E+01 1.12808E-03-2.45543E-04-4.92294E-03-6.81137E-14-6.32196E-13
 -1      1452 1.99757E+01 4.58806E-04 8.62684E-05 1.40298E-06 5.86770E-14-6.77948E-13
 -1      1453 1.99760E+01 3.22326E-04 7.86758E-05 1.83057E-04-9.43086E-16-6.36507E-13
 -1      1454 1.99844E+01 7.17124E-04-1.64862E-04-1.43289E-03 7.09422E-14-4.78301E-13
 -1      1455 1.99757E+01 2.83949E-04 6.17562E-05 8.92437E-04-6.67305E-14-5.82827E-13
 -1      1456 1.99770E+01 1.80188E-04 6.09969E-05 9.96512E-04-1.10747E-13-7.50525E-13
 -1      1457 1.99824E+01 4.25841E-04-1.05987E-04 8.12254E-04-2.77505E-15-5.23486E-13
 -1      1458 1.99775E+01 1.61400E-04 4.25980E-05 1.40207E-03-7.20939E-14-6.66390E-13
 -1      1459 1.99794E+01 8.33170E-05 4.61109E-05 1.45322E-03 6.97953E-14-7.01611E-13
 -1      1460 1.99825E+01 2.24921E-04-6.39476E-05 2.16893E-03-7.15248E-14-5.22430E-13
 -1      1461 1.99805E+01 7.74456E-05 2.77641E-05 1.65009E-03 2.00315E-13-5.53080E-13
 -1      1462 1.99826E+01 1.87519E-05 3.37163E-05 1.66611E-03 1.81297E-13-3.78721E-13
 -1      1463 1.99840E+01 9.02193E-05-3.45727E-05 2.90614E-03 2.18449E-13-3.62401E-13
 -1      1464 1.99839E+01 2.05926E-05 1.63920E-05 1.72190E-03 1.04419E-13-1.72400E-13
 -1      1465 1.99861E+01-2.43129E-05 2.35495E-05 1.71489E-03 3.11190E-14-7.23374E-14
 -1      1466 1.99863E+01 1.76840E-06-1.43731E-05 3.22011E-03 2.74359E-13-1.79609E-13
 -1      1467 1.99875E+01-1.90446E-05 7.97516E-06 1.67387E-03 6.39008E-14 1.54271E-14
 -1      1468 1.99896E+01-5.51923E-05 1.56870E-05 1.65098E-03 9.16838E-14 1.09806E-14
 -1      1469 1.99889E+01-5.74102E-05-3.70784E-07 3.24607E-03 1.78222E-13 5.79844E-14
 -1      1470 1.99909E+01-5.04358E-05 2.72176E-06 1.53699E-03 1.33916E-13 8.43140E-14
 -1      1471 1.99928E+01-8.24099E-05 1.09581E-05 1.50076E-03 1.26072E-13 2.53083E-13
 -1      1472 1.99916E+01-1.02612E-04 1.01484E-05 3.06690E-03 2.24717E-13 2.75394E-13
 -1      1473 1.99941E+01-8.23295E-05 2.08649E-06 1.31870E-03-8.56979E-14 1.51887E-13
 -1      1474 1.99957E+01-1.13901E-04 1.10605E-05 1.26662E-03-1.69787E-13-4.23091E-14
 -1      1475 1.99942E+01-1.49128E-04 1.97656E-05 2.71885E-03 2.14175E-14 1.42859E-13
 -1      1476 1.99967E+01-1.22957E-04 8.09634E-06 1.00556E-03 2.33255E-14 7.49774E-14
 -1      1477 1.99979E+01-1.54904E-04 1.37432E-05 9.28953E-04 1.39720E-13 1.92807E-13
 -1      1478 1.99964E+01-2.13001E-04 2.96141E-05 2.19484E-03-8.86696E-14 7.92930E-14
 -1      1479 1.99986E+01-1.85993E-04 1.39638E-05 5.69170E-04 1.17296E-13 2.08711E-13
 -1      1480 1.99992E+01-1.84457E-04 4.43751E-06 4.67682E-04-3.47479E-14 3.69770E-13
 -1      1481 1.99981E+01-3.09559E-04 3.69443E-05 1.46944E-03 1.74166E-13 2.20906E-13
 -1      1482 1.99998E+01-7.92002E-05 1.07442E-06 2.24896E-06-3.41910E-13 3.43774E-13
 -1      1483 1.99994E+01-3.33694E-04 2.02104E-05 4.61245E-04-2.76633E-13 2.24409E-13
 -1      1484 2.17625E+01 7.08791E-02-1.41872E-01 2.80446E-01 2.66349E-13 2.01456E-12
 -1      1485 2.27202E+01 2.18480E-01-2.26820E-01 5.05228E-01 2.34868E-13 2.43516E-12
 -1      1486 2.29115E+01 8.34552E-01-9.52621E-02 1.66491E+00 4.63012E-13 1.55038E-12
 -1      1487 2.13286E+01 3.35101E-02-1.71769E-02-9.49434E-03 1.95712E-13 1.48596E-12
 -1      1488 2.14690E+01 1.16706E-01-5.64792E-02 4.36215E-02 1.91205E-13 1.81062E-12
 -1      1489 2.18938E+01 1.74462E-01-5.78185E-02 4.08801E-01 4.09422E-13 1.17876E-12
 -1      1490 2.14600E+01 1.78183E-02 6.02710E-03-1.50410E-01 1.28399E-13 1.08887E-12
 -1      1491 2.13162E+01 5.81754E-02 3.78497E-03-1.18540E-01 1.35954E-13 1.32670E-12
 -1      1492 2.15861E+01 7.22933E-02-1.54080E-02-8.23134E-02 3.04583E-13 8.60322E-13
 -1      1493 2.18885E+01 7.88429E-03 6.55825E-03-2.22648E-01 1.11642E-13 8.49855E-13
 -1      1494 2.16078E+01 3.18325E-02 1.15877E-02-2.02384E-01 8.91713E-14 1.00475E-12
 -1      1495 2.17138E+01 3.45849E-02-6.10062E-03-3.15977E-01 1.99727E-13 6.27338E-13
 -1      1496 2.24558E+01-2.05599E-03 6.05914E-03-2.47785E-01 6.94746E-14 6.72830E-13
 -1      1497 2.21159E+01 1.32534E-02 8.30308E-03-2.37889E-01 7.51465E-14 7.84896E-13
 -1      1498 2.20761E+01 1.08253E-02-3.85858E-03-4.27391E-01 1.62115E-13 4.86855E-13
 -1      1499 2.30287E+01-1.47888E-02 8.74209E-03-2.22342E-01 3.04748E-14 6.00835E-13
 -1      1500 2.26991E+01-7.33656E-03 5.65127E-03-2.25804E-01 2.35361E-14 6.32397E-13
 -1      1501 2.25379E+01-1.38851E-02-1.37117E-04-4.42152E-01 7.28608E-14 4.21123E-13
 -1      1502 2.34590E+01-3.04928E-02 1.45618E-02-1.33962E-01 5.77429E-14 4.82833E-13
 -1      1503 2.32224E+01-3.32614E-02 5.47624E-03-1.55878E-01 4.19690E-14 5.59804E-13
 -1      1504 2.29775E+01-4.50487E-02 6.66823E-03-3.49705E-01 6.91730E-14 3.26161E-13
 -1      1505 2.35785E+01-4.58142E-02 2.16540E-02 2.58865E-02 4.65409E-14 3.51137E-13
 -1      1506 2.35322E+01-6.26409E-02 7.35759E-03-1.85972E-02 5.20998E-14 4.44790E-13
 -1      1507 2.32651E+01-8.15289E-02 1.59875E-02-1.31850E-01 1.05409E-13 2.90073E-13
 -1      1508 2.32312E+01-5.26385E-02 2.55120E-02 2.43969E-01 2.20726E-14 3.13718E-13
 -1      1509 2.34659E+01-8.62366E-02 9.80314E-03 1.79184E-01-2.59254E-15 3.00364E-13
 -1      1510 2.32681E+01-1.13083E-01 2.49992E-02 2.09144E-01 4.88446E-14 1.98959E-13
 -1      1511 2.23514E+01-3.97474E-02 1.94151E-02 4.65394E-01 1.18846E-14 3.36675E-13
 -1      1512 2.29025E+01-8.73312E-02 9.83568E-03 3.95500E-01 3.75628E-14 3.26315E-13
 -1      1513 2.28863E+01-1.18242E-01 2.84370E-02 6.15674E-01 2.55004E-14 1.79504E-13
 -1      1514 2.10665E+01-1.04395E-03-1.38158E-03 5.90271E-01 5.31998E-14 3.09169E-13
 -1      1515 2.18517E+01-4.95192E-02 3.79060E-03 5.44903E-01 1.58727E-16 3.14616E-13
 -1      1516 2.21197E+01-7.16983E-02 2.05292E-02 9.50236E-01 2.93862E-15 2.54206E-13
 -1      1517 1.97521E+01 5.19646E-02-3.18864E-02 5.14830E-01 7.92639E-14 2.33383E-13
 -1      1518 2.05412E+01 2.56103E-02-9.32866E-03 5.25491E-01 4.57395E-14 2.86160E-13
 -1      1519 2.11383E+01 3.35830E-02 7.04404E-04 1.02338E+00 7.39990E-14 1.81879E-13
 -1      1520 1.89292E+01 8.93951E-02-5.45945E-02 2.16243E-01 4.80865E-14 1.33046E-13
 -1      1521 1.94114E+01 1.05454E-01-2.37753E-02 2.90918E-01 7.49401E-14 2.10047E-13
 -1      1522 2.02841E+01 1.59442E-01-2.22394E-02 7.05752E-01 1.20079E-13 1.98359E-13
 -1      1523 1.89878E+01 8.54233E-02-5.20462E-02-1.92807E-01 4.50924E-14-3.50310E-14
 -1      1524 1.89380E+01 1.42732E-01-2.90009E-02-8.44073E-02 6.37494E-14 2.86412E-14
 -1      1525 1.99322E+01 2.31213E-01-3.47586E-02 6.55809E-02 1.18083E-13-2.71506E-14
 -1      1526 1.99282E+01 4.32802E-02-2.40963E-02-5.22040E-01 2.89777E-14-1.65715E-13
 -1      1527 1.93547E+01 1.14978E-01-1.94451E-02-4.30690E-01 4.51167E-14-9.68739E-14
 -1      1528 2.02647E+01 1.96324E-01-3.05527E-02-6.22148E-01 1.02670E-13-1.32450E-13
 -1      1529 2.13598E+01-8.33005E-03 1.04309E-02-6.37803E-01 6.78134E-14-4.24008E-13
 -1      1530 2.04985E+01 4.46191E-02-9.66897E-04-5.98558E-01 1.04403E-13-2.75439E-13
 -1      1531 2.11459E+01 7.63069E-02-1.59778E-02-1.05109E+00 1.67356E-13-2.64126E-13
 -1      1532 2.27604E+01-4.21966E-02 3.23610E-02-5.41278E-01 1.02573E-13-6.48676E-13
 -1      1533 2.19206E+01-2.43215E-02 1.46594E-02-5.54510E-01 9.73926E-14-4.29851E-13
 -1      1534 2.22205E+01-5.20301E-02-1.57943E-03-1.08790E+00 1.70190E-13-4.01151E-13
 -1      1535 2.37539E+01-5.08474E-02 3.60163E-02-3.28988E-01-5.64592E-14-7.28653E-13
 -1      1536 2.31568E+01-6.28101E-02 2.04307E-02-3.71885E-01-3.32460E-15-7.05686E-13
 -1      1537 2.31329E+01-1.26429E-01 6.79980E-03-8.15284E-01 1.07471E-13-4.37058E-13
 -1      1538 2.42133E+01-4.21739E-02 2.75781E-02-1.05744E-01-1.31460E-13-5.73635E-13
 -1      1539 2.39322E+01-6.87201E-02 1.73147E-02-1.53723E-01-7.26788E-14-6.56766E-13
 -1      1540 2.36809E+01-1.36329E-01 9.19408E-03-4.16506E-01-9.32709E-14-4.73157E-13
 -1      1541 2.42021E+01-2.72616E-02 1.56269E-02 6.65708E-02-4.82878E-14-3.77373E-13
 -1      1542 2.41971E+01-5.49530E-02 1.03189E-02 2.80721E-02-9.79876E-14-5.00766E-13
 -1      1543 2.38332E+01-1.06240E-01 8.05464E-03-4.70236E-02-1.44993E-13-4.36544E-13
 -1      1544 2.38671E+01-1.34031E-02 5.64821E-03 1.71252E-01 3.27524E-14-4.59277E-13
 -1      1545 2.40498E+01-3.51126E-02 3.70493E-03 1.46561E-01 2.19564E-14-4.25337E-13
 -1      1546 2.36667E+01-6.45646E-02 5.69731E-03 2.16865E-01-4.28182E-14-4.87856E-13
 -1      1547 2.33581E+01-3.42267E-03-6.64222E-04 2.17840E-01 2.06168E-13-7.85538E-13
 -1      1548 2.36396E+01-1.73491E-02-6.26797E-04 2.05376E-01 1.39353E-13-5.75633E-13
 -1      1549 2.32951E+01-2.84616E-02 3.44710E-03 3.64924E-01 2.04055E-13-5.62413E-13
 -1      1550 2.27906E+01 2.58890E-03-3.76943E-03 2.24365E-01 3.20575E-14-1.05980E-12
 -1      1551 2.31036E+01-4.58898E-03-2.65382E-03 2.20575E-01 9.92645E-14-9.08527E-13
 -1      1552 2.28237E+01-3.65400E-03 1.76262E-03 4.20429E-01 2.63076E-13-7.52156E-13
 -1      1553 2.22393E+01 5.58267E-03-4.76187E-03 2.07620E-01-1.47253E-13-7.94850E-13
 -1      1554 2.25413E+01 3.22533E-03-3.11030E-03 2.09096E-01-1.52961E-13-9.93396E-13
 -1      1555 2.23304E+01 1.05659E-02 6.56442E-04 4.14826E-01-1.52901E-13-7.87254E-13
 -1      1556 2.17448E+01 6.62015E-03-4.61547E-03 1.79893E-01-1.28859E-13-4.83606E-13
 -1      1557 2.20134E+01 7.26014E-03-2.75781E-03 1.84090E-01-9.55696E-14-6.45688E-13
 -1      1558 2.18647E+01 1.70868E-02-9.50588E-06 3.75208E-01-2.27186E-13-4.98110E-13
 -1      1559 2.13241E+01 6.53570E-03-3.97532E-03 1.48975E-01 7.34005E-17-2.00253E-13
 -1      1560 2.15506E+01 8.79154E-03-2.12005E-03 1.54236E-01-8.34751E-14-3.07682E-13
 -1      1561 2.14525E+01 1.87966E-02-3.80443E-04 3.20743E-01-1.51374E-13-2.51226E-13
 -1      1562 2.09797E+01 5.88901E-03-3.20095E-03 1.19247E-01 2.20061E-14-3.04090E-13
 -1      1563 2.11634E+01 8.83665E-03-1.47574E-03 1.24601E-01 7.94833E-14-1.92452E-13
 -1      1564 2.11038E+01 1.78618E-02-5.64271E-04 2.63333E-01 5.48342E-14-1.06201E-13
 -1      1565 2.07061E+01 5.02021E-03-2.46497E-03 9.28404E-02-8.76714E-14-1.73056E-13
 -1      1566 2.08507E+01 8.09662E-03-9.39129E-04 9.77762E-02-1.13155E-13-2.68984E-13
 -1      1567 2.08190E+01 1.56909E-02-6.32462E-04 2.09531E-01-1.06035E-13 1.15503E-14
 -1      1568 2.04944E+01 4.11963E-03-1.83512E-03 7.05294E-02-4.61515E-14-6.98747E-14
 -1      1569 2.06052E+01 7.01288E-03-5.36185E-04 7.48214E-02-1.89612E-14-1.01686E-13
 -1      1570 2.05926E+01 1.31145E-02-6.30838E-04 1.62398E-01-1.23645E-13 2.70259E-14
 -1      1571 2.03342E+01 3.28420E-03-1.32661E-03 5.23354E-02-1.05962E-14-7.39771E-14
 -1      1572 2.04172E+01 5.84380E-03-2.54314E-04 5.59231E-02-4.62325E-15-9.72371E-14
 -1      1573 2.04170E+01 1.05802E-02-5.88933E-04 1.22906E-01-4.59051E-15 1.20913E-13
 -1      1574 2.02159E+01 2.55605E-03-9.31284E-04 3.79027E-02-9.88169E-14-3.49818E-15
 -1      1575 2.02765E+01 4.72919E-03-6.87419E-05 4.08145E-02-3.88310E-14-3.46282E-14
 -1      1576 2.02839E+01 8.30227E-03-5.25995E-04 9.08794E-02-9.25825E-14 1.36408E-13
 -1      1577 2.01306E+01 1.94674E-03-6.32506E-04 2.67187E-02 1.37910E-13 5.14740E-14
 -1      1578 2.01737E+01 3.73624E-03 4.56054E-05 2.90257E-02 2.45487E-14 9.01929E-14
 -1      1579 2.01851E+01 6.36175E-03-4.54555E-04 6.55758E-02-3.49179E-14 8.11178E-14
 -1      1580 2.00707E+01 1.45192E-03-4.12098E-04 1.82361E-02 1.10715E-13-2.56908E-13
 -1      1581 2.01005E+01 2.88964E-03 1.09828E-04 2.00258E-02 1.49760E-13-7.33872E-14
 -1      1582 2.01136E+01 4.76801E-03-3.82597E-04 4.60318E-02 2.01117E-13 1.06258E-14
 -1      1583 2.00301E+01 1.05967E-03-2.53307E-04 1.19366E-02-4.45052E-14-2.61710E-13
 -1      1584 2.00499E+01 2.19043E-03 1.40210E-04 1.32978E-02 3.46062E-14-2.71359E-13
 -1      1585 2.00632E+01 3.49492E-03-3.14954E-04 3.12517E-02 9.64473E-14-5.40620E-14
 -1      1586 2.00037E+01 7.55290E-04-1.41818E-04 7.36048E-03 4.68990E-14-5.02770E-13
 -1      1587 2.00163E+01 1.62742E-03 1.48712E-04 8.37561E-03 1.65823E-15-4.69454E-13
 -1      1588 2.00288E+01 2.50126E-03-2.54280E-04 2.03068E-02 1.30493E-13-3.45259E-13
 -1      1589 1.99877E+01 5.23828E-04-6.59152E-05 4.11626E-03 1.37107E-13-7.83654E-13
 -1      1590 1.99950E+01 1.18392E-03 1.43820E-04 4.85805E-03 1.29999E-13-5.31002E-13
 -1      1591 2.00062E+01 1.74189E-03-2.01748E-04 1.23799E-02 2.05599E-13-5.27392E-13
 -1      1592 1.99790E+01 3.51373E-04-1.62647E-05 1.88086E-03-5.77247E-14-6.94997E-13
 -1      1593 1.99826E+01 8.41591E-04 1.31388E-04 2.41108E-03-3.32376E-14-7.47309E-13
 -1      1594 1.99924E+01 1.17343E-03-1.57560E-04 6.77891E-03-7.51910E-15-5.29157E-13
 -1      1595 1.99752E+01 2.25632E-04 1.44172E-05 3.93936E-04 3.93713E-14-7.59244E-13
 -1      1596 1.99764E+01 5.82592E-04 1.15333E-04 7.63668E-04 2.76131E-14-7.06647E-13
 -1      1597 1.99846E+01 7.56953E-04-1.21314E-04 2.93484E-03 2.21533E-14-5.94782E-13
 -1      1598 1.99748E+01 1.36099E-04 3.17193E-05-5.49716E-04-1.89096E-14-7.16304E-13
 -1      1599 1.99744E+01 3.90614E-04 9.81795E-05-2.99227E-04-1.77140E-14-7.57883E-13
 -1      1600 1.99811E+01 4.58935E-04-9.22566E-05 3.90736E-04 1.25896E-14-4.85226E-13
 -1      1601 1.99764E+01 7.39803E-05 3.98678E-05-1.10838E-03-1.32488E-13-7.00587E-13
 -1      1602 1.99751E+01 2.51327E-04 8.14690E-05-9.44572E-04-1.80941E-14-7.63736E-13
 -1      1603 1.99804E+01 2.51314E-04-6.94557E-05-1.21232E-03-8.34195E-14-2.94555E-13
 -1      1604 1.99793E+01 3.19924E-05 4.20280E-05-1.40114E-03 1.37293E-14-4.73659E-13
 -1      1605 1.99774E+01 1.52414E-04 6.60590E-05-1.29895E-03-1.62636E-13-6.55187E-13
 -1      1606 1.99816E+01 1.11023E-04-5.18999E-05-2.14985E-03-1.88384E-13-5.75680E-13
 -1      1607 1.99827E+01 4.09511E-06 4.05884E-05-1.51460E-03-8.60634E-14-3.33486E-13
 -1      1608 1.99806E+01 8.33659E-05 5.23538E-05-1.45542E-03 8.73251E-14-3.59626E-13
 -1      1609 1.99837E+01 1.92648E-05-3.85403E-05-2.62762E-03-4.93983E-14-1.43214E-13
 -1      1610 1.99864E+01-1.48453E-05 3.74947E-05-1.50829E-03 2.13917E-13-3.58494E-13
 -1      1611 1.99843E+01 3.50997E-05 4.05071E-05-1.47914E-03 5.94938E-14-3.09949E-13
 -1      1612 1.99865E+01-3.93470E-05-2.82549E-05-2.79326E-03 1.35241E-13-9.79942E-14
 -1      1613 1.99900E+01-2.94896E-05 3.47757E-05-1.41836E-03 1.88879E-13-8.15217E-13
 -1      1614 1.99880E+01-6.38445E-07 3.07025E-05-1.41153E-03 1.64522E-13-5.75620E-13
 -1      1615 1.99894E+01-7.78281E-05-1.96805E-05-2.74533E-03 2.98118E-13-3.85941E-13
 -1      1616 1.99934E+01-4.42353E-05 3.52131E-05-1.25954E-03 7.11425E-14-9.83467E-13
 -1      1617 1.99915E+01-3.18896E-05 2.36621E-05-1.27271E-03 2.04352E-13-7.65939E-13
 -1      1618 1.99923E+01-1.07974E-04-1.08359E-05-2.53929E-03 2.52741E-13-4.75938E-13
 -1      1619 1.99962E+01-6.35931E-05 4.13168E-05-1.02620E-03-6.32635E-14-6.76915E-13
 -1      1620 1.99946E+01-6.69218E-05 2.09156E-05-1.06303E-03-1.21757E-13-9.57906E-13
 -1      1621 1.99949E+01-1.41561E-04 9.15069E-07-2.19121E-03-1.12117E-13-4.49394E-13
 -1      1622 1.99983E+01-9.18493E-05 4.68495E-05-6.91803E-04-1.38737E-13-3.86931E-13
 -1      1623 1.99972E+01-1.14365E-04 2.22419E-05-7.65778E-04-2.52518E-14-5.98119E-13
 -1      1624 1.99971E+01-1.92625E-04 1.59327E-05-1.68230E-03-1.64342E-13-5.62391E-14
 -1      1625 1.99995E+01-1.25007E-04 7.24517E-06-2.63049E-04-7.27597E-14-1.90115E-13
 -1      1626 1.99989E+01-1.61167E-04 1.82919E-05-3.67616E-04-4.41158E-14-3.98284E-13
 -1      1627 1.99987E+01-2.61194E-04 2.68243E-05-9.80199E-04-4.04047E-14-5.85957E-14
 -1      1628 1.99998E+01-9.04997E-05-5.10820E-06-2.24964E-05-8.51420E-14-1.36191E-13
 -1      1629 1.99996E+01-1.17611E-03 2.27251E-05-5.81741E-04 4.01914E-13 2.85796E-13
 -1      1630 1.99996E+01-5.92843E-04-1.79202E-06-4.68252E-04 3.50647E-14 1.93559E-13
 -1      1631 1.99997E+01-2.95387E-03 9.42659E-06-9.30003E-04 6.77489E-13-7.30738E-14
 -1      1632 1.99997E+01-1.89513E-03 1.44838E-05-8.75703E-04 5.56839E-13 6.57712E-14
 -1      1633 1.99995E+01-1.68708E-03 2.60720E-05-1.41070E-03 2.57092E-13 4.22568E-13
 -1      1634 1.99998E+01-5.11834E-03-8.70322E-07-1.07696E-03 5.14749E-13-7.01850E-14
 -1      1635 1.99998E+01-3.84348E-03 6.98231E-06-1.06484E-03 6.50621E-13 9.21518E-14
 -1      1636 1.99997E+01-3.27933E-03 1.54356E-05-1.92050E-03 2.51535E-13 5.59192E-15
 -1      1637 1.99999E+01-7.32144E-03-5.32352E-06-1.04569E-03 1.89015E-13-4.55415E-13
 -1      1638 1.99998E+01-6.05655E-03 8.23578E-07-1.06611E-03 6.21265E-13-1.47101E-13
 -1      1639 1.99998E+01-5.08741E-03-2.70612E-06-2.06296E-03 1.57843E-13-1.24062E-13
 -1      1640 1.99999E+01-9.23513E-03-5.83592E-06-8.82524E-04-3.52775E-13-2.32526E-13
 -1      1641 1.99999E+01-8.16687E-03-1.19908E-06-9.24045E-04 1.13471E-13-5.54101E-13
 -1      1642 1.99999E+01-6.84809E-03-1.74964E-05-1.89739E-03-6.91160E-14-7.07890E-13
 -1      1643 1.99999E+01-1.07075E-02-4.86162E-06-6.23385E-04-8.61140E-14 1.22902E-13
 -1      1644 1.99999E+01-9.92176E-03-1.97974E-06-6.80311E-04-3.82883E-13 7.46613E-14
 -1      1645 2.00000E+01-8.35611E-03-2.71247E-05-1.50679E-03-2.45272E-14-1.24378E-13
 -1      1646 1.99999E+01-1.15540E-02-3.50957E-06-3.06449E-04 1.06819E-13 5.42752E-15
 -1      1647 1.99999E+01-1.11450E-02-2.04539E-06-3.71384E-04-4.33351E-14 1.97530E-13
 -1      1648 2.00000E+01-9.45946E-03-3.33042E-05-9.59800E-04-9.55242E-14 2.12690E-13
 -1      1649 1.99999E+01-1.16991E-02-2.50708E-06 3.66328E-05 5.67289E-13 1.50366E-13
 -1      1650 1.99999E+01-1.17026E-02-2.51880E-06-3.08422E-05 3.18092E-13 3.90666E-14
 -1      1651 2.00000E+01-1.00349E-02-3.61793E-05-3.25557E-04 1.37554E-13 1.46713E-13
 -1      1652 1.99999E+01-1.11298E-02-1.97600E-06 3.76825E-04 7.96145E-13-1.78924E-13
 -1      1653 1.99999E+01-1.15455E-02-3.53385E-06 3.12025E-04 7.45234E-13 1.19728E-13
 -1      1654 2.00000E+01-1.00299E-02-3.61455E-05 3.36543E-04 5.45754E-13 2.16841E-13
 -1      1655 1.99999E+01-9.89636E-03-1.75048E-06 6.84825E-04 7.95692E-14-6.24836E-13
 -1      1656 1.99999E+01-1.06878E-02-5.05612E-06 6.28276E-04 7.09754E-13-2.37141E-13
 -1      1657 2.00000E+01-9.44520E-03-3.31390E-05 9.69850E-04 3.21939E-13-4.62019E-13
 -1      1658 1.99999E+01-8.14969E-03-1.46043E-06 9.24822E-04-1.95885E-13 1.75973E-15
 -1      1659 1.99999E+01-9.22088E-03-6.03743E-06 8.83835E-04 1.35300E-13-5.30232E-13
 -1      1660 2.00000E+01-8.34564E-03-2.71548E-05 1.51139E-03 2.57299E-13-8.11701E-13
 -1      1661 1.99998E+01-6.01946E-03 7.88324E-07 1.06723E-03-2.84369E-13-1.13123E-13
 -1      1662 1.99999E+01-7.28685E-03-5.47388E-06 1.04731E-03-3.86387E-13 3.29460E-13
 -1      1663 1.99999E+01-6.83354E-03-1.71135E-05 1.89998E-03 1.02579E-13 2.58597E-14
 -1      1664 1.99998E+01-3.80928E-03 6.63249E-06 1.06640E-03-4.37910E-13 5.80560E-14
 -1      1665 1.99998E+01-5.08202E-03-1.06324E-06 1.07635E-03-4.26290E-13-2.62773E-14
 -1      1666 1.99998E+01-5.05711E-03-2.51952E-06 2.06318E-03-1.84813E-13-1.48115E-13
 -1      1667 1.99997E+01-1.89873E-03 3.05163E-06 8.71183E-04-7.28798E-13-9.05572E-14
 -1      1668 1.99997E+01-2.92857E-03 8.51374E-06 9.25973E-04-5.21200E-13-1.29934E-13
 -1      1669 1.99997E+01-3.24998E-03 1.46048E-05 1.91510E-03-2.98003E-13-2.04295E-13
 -1      1670 1.99995E+01-7.65397E-04-1.58526E-05 6.78807E-04-3.01370E-13 1.98505E-13
 -1      1671 1.99996E+01-1.35055E-03 7.03298E-06 8.44571E-04-4.88690E-13 7.34321E-14
 -1      1672 1.99994E+01-1.81636E-03 3.04715E-05 1.64908E-03-2.05757E-13 2.18670E-13
 -1      1673 1.99990E+01-8.46073E-04 2.52946E-06 1.31658E-03-4.40306E-14 1.38349E-13
 -1      1674-6.28220E-01-1.45591E+01-1.64906E+00-9.67961E-01 1.35614E-12 7.61752E-13
 -1      1675-5.91596E-01-1.66245E+01-1.83071E+00 3.00392E-01 3.73063E-13 6.20309E-13
 -1      1676 1.49848E+00-7.95741E+00-1.15794E+00 6.47407E-01 2.22633E-12 1.24656E-12
 -1      1677 7.09263E-01-1.30787E+01-1.65566E+00 2.67684E-02 1.70142E-12 8.32709E-13
 -1      1678 7.20304E+00-4.07968E-01-5.25220E-01 4.64483E+00 2.60236E-12 2.11209E-12
 -1      1679 4.04276E+00-5.93936E+00-1.27383E+00 1.74356E+00 2.43305E-12 1.55570E-12
 -1      1680 1.74501E+01 4.96050E+00 2.08029E-01 9.63853E+00 2.41340E-12 2.51510E-12
 -1      1681 1.09772E+01 1.64840E+00-6.59709E-01 5.97098E+00 2.59970E-12 2.24110E-12
 -1      1682 3.16703E+01 6.15706E+00 9.42367E-01 1.22725E+01 1.65501E-12 1.95666E-12
 -1      1683 2.28153E+01 5.75239E+00 1.20339E-01 1.03040E+01 2.23466E-12 2.20579E-12
 -1      1684 4.51412E+01 5.05298E+00 1.52246E+00 1.04343E+01 9.76330E-13 1.02107E-12
 -1      1685 3.65977E+01 6.43370E+00 8.52704E-01 1.17280E+01 1.47443E-12 1.75793E-12
 -1      1686 5.37959E+01 3.67204E+00 1.82582E+00 4.18380E+00 6.31911E-13-4.81559E-13
 -1      1687 4.86899E+01 4.99121E+00 1.47317E+00 8.71881E+00 7.76226E-13 5.35683E-13
 -1      1688 5.39890E+01 3.86263E+00 1.73379E+00-3.87711E+00 8.35165E-13-2.08505E-12
 -1      1689 5.48778E+01 3.62460E+00 1.81536E+00 1.71337E+00 7.04270E-13-9.67143E-13
 -1      1690 4.52989E+01 5.59413E+00 1.29005E+00-1.00377E+01 1.59178E-12-3.22320E-12
 -1      1691 5.18802E+01 4.01671E+00 1.73859E+00-6.20443E+00 1.03018E-12-2.46902E-12
 -1      1692 3.22742E+01 6.91587E+00 6.95375E-01-1.22392E+01 2.58771E-12-3.91043E-12
 -1      1693 4.13870E+01 5.76628E+00 1.41876E+00-1.19990E+01 1.91558E-12-3.63642E-12
 -1      1694 1.90238E+01 5.25331E+00-6.74300E-02-9.51459E+00 3.23541E-12-3.61888E-12
 -1      1695 2.71822E+01 6.47233E+00 7.86234E-01-1.22169E+01 2.83040E-12-3.87668E-12
 -1      1696 8.49000E+00-2.83550E-01-8.54209E-01-4.61499E+00 3.30647E-12-2.71627E-12
 -1      1697 1.40965E+01 3.99464E+00 2.72682E-02-8.40636E+00 3.31446E-12-3.45235E-12
 -1      1698 2.77017E+00-8.67490E+00-1.45580E+00-9.44717E-01 2.46758E-12-1.64196E-12
 -1      1699 5.20636E+00-2.71438E+00-7.27026E-01-3.37124E+00 3.05578E-12-2.27351E-12
 -1      1700-7.37287E-02-1.54044E+01-1.87987E+00 3.00336E-01 1.22924E-12-8.36470E-13
 -1      1701 1.74907E-01-1.08163E+01-1.44897E+00 5.56599E-01 2.26952E-12-1.34773E-12
 -1      1702-7.91396E-01-1.64224E+01-1.77479E+00-7.65356E-01-3.57783E-13-6.59306E-13
 -1      1703-7.70122E-01-1.60343E+01-1.77959E+00 8.98606E-01 7.77156E-13-7.08211E-13
 -1      1704 3.53726E-01-1.10999E+01-1.27745E+00-8.66439E-03-1.71008E-12-1.16709E-12
 -1      1705 1.73018E-02-1.48340E+01-1.59705E+00 4.51218E-01-7.09821E-13-7.94614E-13
 -1      1706 3.17173E+00-4.56657E+00-9.49681E-01 1.86806E+00-2.77822E-12-1.83631E-12
 -1      1707 1.76312E+00-1.00289E+01-1.52433E+00 3.96574E-01-2.27685E-12-1.27695E-12
 -1      1708 1.05595E+01 2.25974E+00-2.46995E-01 6.68601E+00-2.99938E-12-2.71150E-12
 -1      1709 6.23930E+00-2.57464E+00-1.06536E+00 3.25222E+00-2.89990E-12-2.13385E-12
 -1      1710 2.27937E+01 6.05206E+00 5.39726E-01 1.13228E+01-2.60214E-12-3.22786E-12
 -1      1711 1.50248E+01 3.83852E+00-3.71385E-01 7.93664E+00-2.89946E-12-2.92288E-12
 -1      1712 3.72376E+01 6.04313E+00 1.23100E+00 1.23212E+01-1.82993E-12-2.95897E-12
 -1      1713 2.82073E+01 6.49871E+00 4.45968E-01 1.14641E+01-2.35123E-12-3.14149E-12
 -1      1714 4.92318E+01 4.63510E+00 1.75440E+00 9.25915E+00-1.06818E-12-2.15816E-12
 -1      1715 4.18090E+01 6.20266E+00 1.19031E+00 1.16608E+01-1.55956E-12-2.74647E-12
 -1      1716 5.54221E+01 3.44496E+00 1.94200E+00 2.28672E+00-6.81649E-13-6.50147E-13
 -1      1717 5.20879E+01 4.40554E+00 1.72304E+00 7.22328E+00-9.35196E-13-1.65934E-12
 -1      1718 5.36320E+01 3.93494E+00 1.77616E+00-5.29478E+00-6.67078E-13 6.81566E-13
 -1      1719 5.57042E+01 3.40166E+00 1.93532E+00-2.62851E-01-5.47562E-13-2.31884E-13
 -1      1720 4.45918E+01 5.73942E+00 1.31211E+00-1.08048E+01-1.24889E-12 1.86284E-12
 -1      1721 5.14297E+01 4.17193E+00 1.82943E+00-7.57396E+00-8.15112E-13 1.10534E-12
 -1      1722 3.11161E+01 6.33711E+00 5.72753E-01-1.13445E+01-1.85191E-12 2.49223E-12
 -1      1723 4.00772E+01 5.52553E+00 1.30236E+00-1.14475E+01-1.42086E-12 2.03282E-12
 -1      1724 1.83625E+01 4.96477E+00-1.19406E-01-9.19481E+00-2.19536E-12 2.54818E-12
 -1      1725 2.59264E+01 6.19768E+00 6.62151E-01-1.17930E+01-1.97531E-12 2.75202E-12
 -1      1726 8.85144E+00-4.91036E-01-8.26267E-01-4.64703E+00-2.21734E-12 1.87217E-12
 -1      1727 1.40924E+01 3.39734E+00-3.81775E-02-8.11711E+00-2.25497E-12 2.36811E-12
 -1      1728 2.83859E+00-7.45558E+00-1.40715E+00-9.76378E-01-2.07812E-12 1.27820E-12
 -1      1729 5.05002E+00-2.21118E+00-7.59865E-01-3.23246E+00-2.35278E-12 1.69098E-12
 -1      1730 3.70172E-01-1.38554E+01-1.72164E+00 1.97308E-01-1.16984E-12 6.71144E-13
 -1      1731 8.57120E-01-9.34321E+00-1.30728E+00-3.75084E-02-1.75793E-12 1.17367E-12
 -1      1732-6.28784E-01-1.69143E+01-1.86711E+00-2.61204E-01-2.82829E-14 5.56777E-13
 -1      1733-6.72431E-01-1.52480E+01-1.72903E+00 1.06243E+00-9.14657E-13 6.08985E-13
 -1      1734 2.45357E+01 9.77749E-01 2.79858E-01 7.36548E+00 1.47127E-12 1.10589E-12
 -1      1735 1.42254E+01-3.05909E+00-3.65822E-01 6.33723E+00 1.39355E-12 1.41304E-12
 -1      1736 1.99996E+01-2.32101E-04 2.15018E-05-2.59401E-04-1.69538E-13-8.00231E-14
 -1      1737 1.99993E+01-6.64603E-04 1.24130E-05-8.04180E-04-8.12839E-15 2.92199E-13
 -1      1738 6.30260E-01-9.99303E+00-1.12397E+00 2.42931E+00 6.96776E-13 1.17462E-12
 -1      1739 6.12405E+00-7.14028E+00-8.20409E-01 4.61694E+00 1.19482E-12 1.23260E-12
 -1      1740-1.36135E+00-1.15429E+01-1.31671E+00 9.93314E-02 6.76958E-14 1.16362E-12
 -1      1741 3.47081E+01 3.98350E+00 8.39870E-01 6.51538E+00 1.32186E-12 6.76681E-13
 -1      1742 4.26238E+01 6.21614E+00 1.27712E+00 4.47714E+00 1.18722E-12-3.01981E-14
 -1      1743 4.68552E+01 7.28124E+00 1.51957E+00 1.24530E+00 1.21808E-12-7.55368E-13
 -1      1744 4.57499E+01 7.32074E+00 1.46156E+00-2.19514E+00 1.40077E-12-1.49492E-12
 -1      1745 4.06628E+01 5.86219E+00 1.22654E+00-5.47852E+00 1.67820E-12-2.13318E-12
 -1      1746 3.18820E+01 3.44244E+00 7.28634E-01-7.46098E+00 1.98680E-12-2.56828E-12
 -1      1747 2.13904E+01 6.83606E-02 1.01308E-01-7.38058E+00 2.07545E-12-2.47213E-12
 -1      1748 1.16922E+01-4.43676E+00-5.24608E-01-5.96614E+00 1.75859E-12-2.01028E-12
 -1      1749 3.99061E+00-8.39143E+00-9.52754E-01-3.97246E+00 1.24512E-12-1.67870E-12
 -1      1750-5.99968E-01-1.11446E+01-1.30141E+00-1.36572E+00 5.76816E-13-1.32749E-12
 -1      1751-6.98136E-01-1.01307E+01-1.08770E+00 1.32595E+00-2.24154E-13-1.34703E-12
 -1      1752 2.78235E+00-8.60780E+00-9.93572E-01 3.57466E+00-8.44325E-13-1.36105E-12
 -1      1753 9.02448E+00-5.46762E+00-6.94394E-01 5.31515E+00-1.60805E-12-1.63000E-12
 -1      1754 1.81339E+01-1.25589E+00-1.04257E-01 7.00329E+00-1.77625E-12-1.94478E-12
 -1      1755 2.87099E+01 2.36105E+00 5.32612E-01 7.47486E+00-1.66805E-12-1.85696E-12
 -1      1756 3.81577E+01 5.04041E+00 1.04438E+00 6.30087E+00-1.48900E-12-1.57208E-12
 -1      1757 4.51648E+01 6.66513E+00 1.45608E+00 4.06728E+00-1.34615E-12-1.05455E-12
 -1      1758 4.80320E+01 7.18218E+00 1.61638E+00 5.45940E-01-1.11883E-12-3.25011E-13
 -1      1759 4.61858E+01 6.91419E+00 1.52353E+00-3.05088E+00-1.15935E-12 3.83082E-13
 -1      1760 3.98211E+01 5.31054E+00 1.09445E+00-5.35410E+00-1.36551E-12 9.31588E-13
 -1      1761 3.10341E+01 2.90340E+00 6.43237E-01-6.97234E+00-1.29635E-12 1.43829E-12
 -1      1762 2.10783E+01-3.30083E-01 5.75210E-02-7.16475E+00-1.22968E-12 1.55564E-12
 -1      1763 1.19066E+01-4.14289E+00-4.78663E-01-5.91030E+00-1.23090E-12 1.33304E-12
 -1      1764 4.57494E+00-7.84734E+00-9.33714E-01-3.97502E+00-9.14380E-13 1.19226E-12
 -1      1765 1.45466E-01-1.05860E+01-1.20911E+00-2.03286E+00-5.63105E-13 9.96092E-13
 -1      1766 2.38453E+01 1.95395E+00-2.73121E-02-2.34390E+00-3.87784E-13 1.75776E-12
 -1      1767 2.03000E+01 3.78854E+00-3.91515E-02-1.39364E+00-5.22932E-13-4.42528E-13
 -1      1768 2.07538E+01 3.62198E+00-3.44477E-02-1.70182E+00-5.92184E-13-2.61027E-13
 -1      1769 2.12475E+01 3.18630E+00-4.78799E-02-1.89273E+00-5.81576E-13-2.94764E-14
 -1      1770 2.16361E+01 2.79265E+00-1.30554E-01-2.20604E+00-6.09627E-13 2.83891E-13
 -1      1771 2.12520E+01 2.72651E+00-1.76132E-03-1.47448E+00-6.15316E-13-1.20567E-13
 -1      1772 1.89055E+01 4.40222E+00-2.18248E-02-6.08074E-01-3.21920E-13-7.98361E-13
 -1      1773 1.92042E+01 4.35806E+00-1.07676E-02-7.84216E-01-3.84383E-13-7.46363E-13
 -1      1774 1.84145E+01 4.56890E+00-1.67349E-02-3.49939E-01-2.14604E-13-8.68177E-13
 -1      1775 1.86447E+01 4.54173E+00-7.59762E-03-4.81850E-01-2.62779E-13-8.42840E-13
 -1      1776 1.89145E+01 4.11784E+00-6.40902E-03-4.66970E-01-3.17181E-13-7.80914E-13
 -1      1777 1.80868E+01 4.67558E+00-1.27656E-02-1.64419E-01-1.07478E-13-8.87872E-13
 -1      1778 1.82309E+01 4.66075E+00-6.87141E-03-2.63122E-01-1.62930E-13-8.78035E-13
 -1      1779 1.84268E+01 4.32473E+00-5.27507E-03-2.56223E-01-1.97158E-13-8.39051E-13
 -1      1780 1.79447E+01 4.72552E+00-9.67127E-03-2.21747E-02-8.50923E-16-9.03584E-13
 -1      1781 1.79924E+01 4.72099E+00-7.80160E-03-1.03810E-01-5.17932E-14-8.97169E-13
 -1      1782 1.81221E+01 4.44739E+00-4.28936E-03-1.09333E-01-8.86657E-14-8.66260E-13
 -1      1783 1.79996E+01 4.71833E+00-7.54268E-03 1.11804E-01 9.90831E-14-9.08384E-13
 -1      1784 1.79470E+01 4.72366E+00-9.95249E-03 2.96637E-02 5.38751E-14-9.10098E-13
 -1      1785 1.80218E+01 4.48620E+00-3.94040E-03 3.16689E-03 2.98489E-14-8.80006E-13
 -1      1786 1.82467E+01 4.65331E+00-6.77600E-03 2.73871E-01 1.94028E-13-8.85359E-13
 -1      1787 1.80983E+01 4.66933E+00-1.30039E-02 1.73712E-01 1.50903E-13-9.05187E-13
 -1      1788 1.81338E+01 4.44045E+00-4.42952E-03 1.16996E-01 1.38278E-13-8.79061E-13
 -1      1789 1.86586E+01 4.53214E+00-7.69780E-03 4.92772E-01 2.97708E-13-8.24521E-13
 -1      1790 1.84301E+01 4.55978E+00-1.69517E-02 3.61338E-01 2.46716E-13-8.57236E-13
 -1      1791 1.84456E+01 4.31265E+00-5.43157E-03 2.65983E-01 2.40635E-13-8.45667E-13
 -1      1792 1.92256E+01 4.34217E+00-1.11864E-02 8.02511E-01 4.16564E-13-7.24889E-13
 -1      1793 1.89208E+01 4.38962E+00-2.22644E-02 6.21073E-01 3.48134E-13-7.86027E-13
 -1      1794 1.89351E+01 4.10152E+00-6.87721E-03 4.79183E-01 3.46483E-13-7.71928E-13
 -1      1795 1.99270E+01 4.05402E+00-1.97403E-02 1.21798E+00 5.25779E-13-5.45661E-13
 -1      1796 1.95547E+01 4.13898E+00-3.00099E-02 9.75642E-01 4.60379E-13-6.51295E-13
 -1      1797 1.95847E+01 3.79249E+00-7.56886E-03 7.74236E-01 4.63318E-13-6.45924E-13
 -1      1798 2.07807E+01 3.57789E+00-3.95339E-02 1.73511E+00 6.27082E-13-2.22152E-13
 -1      1799 2.03250E+01 3.75403E+00-4.26274E-02 1.42634E+00 5.70530E-13-4.14828E-13
 -1      1800 2.03803E+01 3.34569E+00-4.88098E-03 1.14191E+00 5.76763E-13-4.31870E-13
 -1      1801 2.19508E+01 2.66631E+00-5.18994E-02 2.22369E+00 6.25664E-13 3.75922E-13
 -1      1802 2.13037E+01 3.10337E+00-5.12064E-02 1.92622E+00 6.17416E-13 1.60080E-14
 -1      1803 2.13416E+01 2.64184E+00 3.44963E-03 1.50115E+00 6.48529E-13-7.63035E-14
 -1      1804 2.28778E+01 1.17875E+00-1.18165E-01 1.83658E+00 5.33920E-13 1.14246E-12
 -1      1805 2.23769E+01 2.22909E+00-1.17137E-03 2.16742E+00 5.82116E-13 6.39572E-13
 -1      1806 2.20780E+01 1.67016E+00-1.67205E-02 1.49771E+00 6.43657E-13 3.82364E-13
 -1      1807 2.22785E+01 7.59141E-01-5.40322E-02 1.03094E+00 5.48950E-13 9.75008E-13
 -1      1808 2.28940E+01 2.40890E+00 8.42761E-02-2.51518E+00-5.27359E-13 8.14640E-13
 -1      1809 2.17753E+01 3.04610E-01-3.69707E-03 1.63076E-01 4.28702E-13 7.29181E-13
 -1      1810 2.21154E+01 4.37760E-01-9.57833E-03 5.45923E-01 4.64920E-13 8.87035E-13
 -1      1811 2.21003E+01 8.30126E-01-1.48174E-03 8.26276E-01 5.47701E-13 5.47307E-13
 -1      1812 2.26271E+01 1.71655E+00 7.70016E-02-1.74586E+00-5.57533E-13 5.89764E-13
 -1      1813 2.20123E+01 5.11871E-01 3.32277E-02-3.34169E-01-4.48225E-13 4.95864E-13
 -1      1814 2.17917E+01 3.75634E-01 1.24122E-02-3.38991E-02-3.85355E-13 3.72673E-13
 -1      1815 2.17368E+01 2.85518E-01 2.71081E-02 2.30889E-01-3.31297E-13 3.67017E-13
 -1      1816 2.17673E+01 2.05199E-01 1.23318E-02 3.83670E-01-3.04587E-13 2.78810E-13
 -1      1817 2.17143E+01 5.18516E-01-9.45548E-03 4.12889E-02-4.28751E-13 1.34639E-13
 -1      1818 2.18102E+01 1.50685E-01 1.61481E-02 5.36409E-01-2.53524E-13 2.84198E-13
 -1      1819 2.19588E+01 9.28071E-02 5.45637E-03 6.11114E-01-2.07901E-13 2.34428E-13
 -1      1820 2.17004E+01 2.72588E-01-8.43139E-03 5.20450E-01-3.12881E-13 1.06383E-13
 -1      1821 2.20790E+01 4.27004E-02 8.28959E-03 6.78054E-01-1.99271E-13 2.35695E-13
 -1      1822 2.22774E+01-1.83451E-02-2.23376E-03 6.86480E-01-1.54814E-13 1.85147E-13
 -1      1823 2.18683E+01 9.90854E-02-7.13430E-03 7.74804E-01-2.39981E-13 8.61923E-14
 -1      1824 2.24498E+01-7.70370E-02 3.85172E-03 6.67007E-01-1.35584E-13 1.90870E-13
 -1      1825 2.26375E+01-1.51244E-01-1.01398E-02 6.01279E-01-1.31795E-13 1.46780E-13
 -1      1826 2.21613E+01-7.79656E-02-5.55131E-03 8.38161E-01-1.70786E-13 6.09261E-14
 -1      1827 2.28345E+01-2.21067E-01 1.25838E-03 4.81607E-01-9.30766E-14 1.53604E-13
 -1      1828 2.29509E+01-3.04461E-01-1.73572E-02 3.30361E-01-8.17081E-14 1.64818E-13
 -1      1829 2.25256E+01-2.86245E-01-3.26470E-03 6.96115E-01-1.23568E-13 7.04623E-14
 -1      1830 2.31363E+01-3.73704E-01-8.76847E-04 1.00284E-01-9.81463E-14 1.99533E-13
 -1      1831 2.31250E+01-4.41992E-01-2.11508E-02-1.33033E-01-6.99545E-14 1.74517E-13
 -1      1832 2.28989E+01-5.11360E-01 3.95926E-04 3.21737E-01-8.89098E-14 1.18307E-13
 -1      1833 2.32466E+01-4.78711E-01-4.02959E-03-4.54548E-01-9.63188E-14 1.66468E-13
 -1      1834 2.30719E+01-4.84190E-01-1.74514E-02-7.28387E-01-1.06294E-13 1.67594E-13
 -1      1835 2.31984E+01-6.82139E-01 5.97325E-03-2.79694E-01-9.38347E-14 1.24334E-13
 -1      1836 2.30667E+01-4.39244E-01-8.63110E-03-1.06212E+00-1.23771E-13 1.53855E-13
 -1      1837 2.27407E+01-3.28762E-01-3.85976E-03-1.27991E+00-1.29053E-13 9.04311E-14
 -1      1838 2.33165E+01-6.69386E-01 1.21358E-02-1.00855E+00-1.47021E-13 1.13728E-13
 -1      1839 2.25683E+01-1.66817E-01-1.33425E-02-1.47311E+00-9.48718E-14 2.36373E-14
 -1      1840 2.21734E+01 6.32661E-02 1.41329E-02-1.50247E+00-1.03689E-13-3.02241E-14
 -1      1841 2.31534E+01-3.39171E-01 1.41439E-02-1.61636E+00-1.43767E-13 1.06849E-13
 -1      1842 2.18899E+01 3.03385E-01-1.18397E-02-1.38989E+00-1.62282E-13-8.82211E-14
 -1      1843 2.15667E+01 5.54324E-01 2.40903E-02-1.14642E+00-2.09223E-13-1.39987E-13
 -1      1844 2.27152E+01 2.89237E-01 2.60943E-03-1.73793E+00-1.93697E-13-4.49250E-15
 -1      1845 2.13450E+01 7.41337E-01 7.56610E-05-6.92240E-01-2.16925E-13-2.25418E-13
 -1      1846 2.12328E+01 8.52561E-01 1.71149E-02-2.38833E-01-2.35454E-13-2.43976E-13
 -1      1847 2.22205E+01 9.47703E-01-1.78474E-02-1.12008E+00-2.62150E-13-1.06498E-13
 -1      1848 2.12476E+01 8.52125E-01 1.66483E-02 3.68821E-01-2.32182E-13-3.17777E-13
 -1      1849 2.14057E+01 7.40561E-01 3.50020E-04 8.21901E-01-1.46124E-13-3.27909E-13
 -1      1850 2.20156E+01 1.23270E+00-2.89842E-02 8.13442E-02-2.68037E-13-2.46246E-13
 -1      1851 2.16565E+01 5.52790E-01 2.33515E-02 1.27508E+00-1.60542E-13-4.67193E-13
 -1      1852 2.20252E+01 3.02051E-01-1.16141E-02 1.51771E+00-1.14866E-13-5.14082E-13
 -1      1853 2.22799E+01 9.45780E-01-1.80509E-02 1.28167E+00-2.39562E-13-4.61542E-13
 -1      1854 2.23356E+01 6.24050E-02 1.33911E-02 1.62867E+00-7.65275E-14-5.58893E-13
 -1      1855 2.27749E+01-1.66130E-01-1.29241E-02 1.59916E+00-4.39935E-14-5.78735E-13
 -1      1856 2.28320E+01 2.88153E-01 2.77414E-03 1.89608E+00-1.50596E-13-5.67183E-13
 -1      1857 2.29715E+01-3.27210E-01-4.64267E-03 1.40591E+00-5.59882E-14-6.00032E-13
 -1      1858 2.33410E+01-4.37197E-01-8.46387E-03 1.18898E+00-6.83707E-14-5.91934E-13
 -1      1859 2.33217E+01-3.38529E-01 1.40561E-02 1.77193E+00-5.60003E-14-5.98487E-13
 -1      1860 2.33685E+01-4.82894E-01-1.82298E-02 8.54828E-01-4.81282E-14-5.28340E-13
 -1      1861 2.35849E+01-4.78549E-01-4.08853E-03 5.81010E-01-5.61981E-14-5.72616E-13
 -1      1862 2.35332E+01-6.66380E-01 1.29663E-02 1.16346E+00-3.70849E-14-5.51205E-13
 -1      1863 2.34800E+01-4.43994E-01-2.23046E-02 2.55987E-01-1.11867E-13-5.15814E-13
 -1      1864 2.35284E+01-3.78729E-01-1.74102E-03 2.00564E-02 4.02187E-14-4.93891E-13
 -1      1865 2.34557E+01-6.83833E-01 6.87370E-03 4.28893E-01-4.50369E-14-5.23249E-13
 -1      1866 2.33510E+01-3.13717E-01-1.89992E-02-2.19393E-01 9.33273E-14-5.41742E-13
 -1      1867 2.32621E+01-2.36355E-01-7.35119E-04-3.78675E-01 3.92672E-14-5.76684E-13
 -1      1868 2.31829E+01-5.22242E-01 1.85842E-03-1.88365E-01 1.86370E-14-3.66314E-13
 -1      1869 2.30577E+01-1.73876E-01-1.26062E-02-5.18587E-01-3.16496E-14-5.67866E-13
 -1      1870 2.28794E+01-1.10227E-01-2.31169E-04-6.02001E-01-9.46222E-14-5.55524E-13
 -1      1871 2.28126E+01-3.15082E-01-8.49092E-04-5.98007E-01 6.14699E-15-5.28005E-13
 -1      1872 2.26745E+01-6.36079E-02-6.25878E-03-6.59882E-01-5.67456E-14-4.67021E-13
 -1      1873 2.24520E+01-2.08163E-02 1.94173E-04-6.85577E-01 3.30908E-14-3.93998E-13
 -1      1874 2.24119E+01-1.38012E-01-2.00634E-03-8.08758E-01-3.29522E-14-3.90290E-13
 -1      1875 2.22601E+01 8.60510E-03-1.36840E-03-6.87427E-01 7.03319E-14-4.05459E-13
 -1      1876 2.20279E+01 3.28318E-02 6.11270E-04-6.76259E-01 1.43408E-13-2.86702E-13
 -1      1877 2.20193E+01-1.52035E-02-2.40431E-03-8.69580E-01 9.63073E-14-2.69084E-13
 -1      1878 2.18555E+01 4.85958E-02 1.79358E-03-6.45354E-01 1.42317E-13-2.93808E-13
 -1      1879 2.16357E+01 5.94556E-02 9.58868E-04-6.14376E-01 1.55089E-13-2.63654E-13
 -1      1880 2.16558E+01 5.69129E-02-2.49090E-03-8.34275E-01 1.20980E-13-3.87615E-13
 -1      1881 2.14852E+01 6.59663E-02 3.49590E-03-5.67792E-01 1.27296E-13-2.75010E-13
 -1      1882 2.12899E+01 6.84180E-02 1.18772E-03-5.28765E-01 1.34654E-14-2.74291E-13
 -1      1883 2.13318E+01 9.14616E-02-2.44709E-03-7.46586E-01 1.93277E-13-3.44262E-13
 -1      1884 2.11619E+01 6.93324E-02 4.16018E-03-4.77562E-01-8.05970E-14-2.54272E-13
 -1      1885 2.09959E+01 6.70929E-02 1.28914E-03-4.37672E-01-3.53990E-14-2.21860E-13
 -1      1886 2.10515E+01 1.01793E-01-2.32833E-03-6.37009E-01 4.33136E-14-2.37354E-13
 -1      1887 2.08894E+01 6.49841E-02 4.17309E-03-3.88289E-01-5.45696E-14-2.88435E-13
 -1      1888 2.07531E+01 6.05084E-02 1.28346E-03-3.51427E-01-1.10571E-14-2.90666E-13
 -1      1889 2.08150E+01 9.82242E-02-2.15405E-03-5.24571E-01-8.10011E-14-9.36325E-14
 -1      1890 2.06663E+01 5.70169E-02 3.82636E-03-3.07155E-01 2.12593E-14-3.97478E-13
 -1      1891 2.05574E+01 5.17885E-02 1.20234E-03-2.75084E-01 1.74130E-14-3.40041E-13
 -1      1892 2.06199E+01 8.77153E-02-1.93942E-03-4.19897E-01-1.56725E-14-2.90215E-13
 -1      1893 2.04880E+01 4.78848E-02 3.31592E-03-2.37236E-01-4.07946E-14-3.32521E-13
 -1      1894 2.04031E+01 4.27291E-02 1.07653E-03-2.10452E-01-9.90431E-14-3.42876E-13
 -1      1895 2.04623E+01 7.45519E-02-1.70128E-03-3.28048E-01-5.75283E-14-3.95955E-13
 -1      1896 2.03487E+01 3.89447E-02 2.76202E-03-1.79189E-01-1.52198E-13-2.93878E-13
 -1      1897 2.02839E+01 3.42740E-02 9.30613E-04-1.57495E-01-1.66812E-13-3.26936E-13
 -1      1898 2.03375E+01 6.11715E-02-1.45641E-03-2.50661E-01-6.27831E-14-4.28203E-13
 -1      1899 2.02420E+01 3.08702E-02 2.23201E-03-1.32358E-01-1.30762E-13-2.81748E-13
 -1      1900 2.01937E+01 2.68521E-02 7.81905E-04-1.15218E-01-1.07299E-13-1.82763E-13
 -1      1901 2.02405E+01 4.88337E-02-1.21894E-03-1.87422E-01-1.00908E-13-1.39957E-13
 -1      1902 2.01621E+01 2.39314E-02 1.75914E-03-9.54646E-02-1.33073E-13-9.46874E-14
 -1      1903 2.01268E+01 2.05965E-02 6.41396E-04-8.22153E-02-7.78277E-14-6.40902E-14
 -1      1904 2.01665E+01 3.80906E-02-9.99084E-04-1.37017E-01-4.68052E-14 1.68419E-13
 -1      1905 2.01034E+01 1.81726E-02 1.35601E-03-6.70108E-02-9.73633E-14-4.58071E-14
 -1      1906 2.00783E+01 1.54796E-02 5.15207E-04-5.69771E-02 4.51545E-14-3.25688E-14
 -1      1907 2.01112E+01 2.90906E-02-8.03023E-04-9.77041E-02-6.66690E-14 3.37897E-13
 -1      1908 2.00614E+01 1.35197E-02 1.02347E-03-4.55058E-02 8.43270E-14-1.32376E-13
 -1      1909 2.00441E+01 1.13945E-02 4.06040E-04-3.80614E-02 6.66703E-14-1.78536E-13
 -1      1910 2.00707E+01 2.17661E-02-6.33522E-04-6.76577E-02-4.38473E-14 2.11641E-13
 -1      1911 2.00322E+01 9.84447E-03 7.56191E-04-2.95811E-02 7.03187E-14-2.27429E-13
 -1      1912 2.00207E+01 8.20174E-03 3.14345E-04-2.41763E-02 3.63724E-14-2.77807E-13
 -1      1913 2.00418E+01 1.59452E-02-4.90795E-04-4.51469E-02 4.74098E-14 1.64069E-13
 -1      1914 2.00126E+01 7.00029E-03 5.46092E-04-1.80422E-02-1.46166E-13-3.50877E-13
 -1      1915 2.00053E+01 5.75569E-03 2.39201E-04-1.42115E-02-2.41938E-13-3.63050E-13
 -1      1916 2.00217E+01 1.14153E-02-3.73349E-04-2.86272E-02-4.11134E-14-7.58858E-14
 -1      1917 2.00000E+01 4.84235E-03 3.84248E-04-9.88197E-03-9.02670E-14-3.69353E-13
 -1      1918 1.99958E+01 3.91845E-03 1.78927E-04-7.24240E-03 4.84150E-14-2.89199E-13
 -1      1919 2.00083E+01 7.95988E-03-2.78683E-04-1.67744E-02-1.24627E-13 5.49867E-14
 -1      1920 1.99926E+01 3.23764E-03 2.61989E-04-4.27397E-03 1.29443E-13-2.89084E-13
 -1      1921 1.99905E+01 2.56655E-03 1.31484E-04-2.51784E-03 2.05955E-13-1.61597E-13
 -1      1922 1.99998E+01 5.37605E-03-2.03818E-04-8.48666E-03 7.53411E-14 1.65226E-14
 -1      1923 1.99887E+01 2.06931E-03 1.71436E-04-5.55739E-04 7.92586E-14-1.91570E-13
 -1      1924 1.99881E+01 1.59321E-03 9.47290E-05 5.58878E-04-5.34511E-14-1.84378E-13
 -1      1925 1.99947E+01 3.48373E-03-1.45663E-04-2.86978E-03 1.02241E-13-6.95996E-15
 -1      1926 1.99873E+01 1.23759E-03 1.05731E-04 1.79214E-03-7.50150E-14-1.46944E-13
 -1      1927 1.99876E+01 9.08241E-04 6.65564E-05 2.45110E-03 7.28649E-14 8.30622E-15
 -1      1928 1.99922E+01 2.12807E-03-1.01244E-04 7.85678E-04-8.42367E-14 1.47783E-13
 -1      1929 1.99875E+01 6.58872E-04 5.90828E-05 3.16734E-03 7.31040E-14-5.93404E-14
 -1      1930 1.99884E+01 4.36320E-04 4.49590E-05 3.50948E-03 2.23757E-13-5.09386E-14
 -1      1931 1.99913E+01 1.17859E-03-6.78521E-05 3.02966E-03 1.11696E-13 6.89843E-14
 -1      1932 1.99887E+01 2.63524E-04 2.67293E-05 3.86537E-03 3.67269E-13-1.14481E-13
 -1      1933 1.99899E+01 1.14581E-04 2.80577E-05 3.99025E-03 3.28607E-13-6.02936E-14
 -1      1934 1.99916E+01 5.26462E-04-4.31098E-05 4.27710E-03 2.08341E-13 1.16853E-13
 -1      1935 1.99904E+01-6.83745E-06 4.87148E-06 4.09634E-03 2.22423E-13 1.51756E-13
 -1      1936 1.99917E+01-1.10335E-04 1.41602E-05 4.07041E-03 3.08139E-13 2.50978E-13
 -1      1937 1.99925E+01 8.06069E-05-2.50036E-05 4.82964E-03 3.98449E-13 1.91930E-13
 -1      1938 1.99924E+01-2.02375E-04-9.30889E-06 3.99839E-03 3.11134E-13 2.51207E-13
 -1      1939 1.99937E+01-2.85143E-04 1.94807E-06 3.85946E-03 1.96194E-13 2.63149E-13
 -1      1940 1.99938E+01-2.36740E-04-1.19038E-05 4.89404E-03 3.42479E-13 1.67205E-13
 -1      1941 1.99944E+01-3.67494E-04-1.75774E-05 3.64835E-03-8.11750E-14 2.09249E-13
 -1      1942 1.99956E+01-4.50882E-04-8.46827E-06 3.40890E-03-8.68860E-14 1.33309E-13
 -1      1943 1.99952E+01-4.93471E-04-2.48903E-06 4.59750E-03 1.59947E-14 1.25776E-13
 -1      1944 1.99962E+01-5.43725E-04-2.11556E-05 3.07483E-03 4.64332E-15 1.40829E-13
 -1      1945 1.99972E+01-6.41542E-04-1.66404E-05 2.72521E-03 2.40413E-14 3.21600E-13
 -1      1946 1.99966E+01-7.46213E-04 3.44746E-06 4.00297E-03-6.25366E-14 3.38598E-13
 -1      1947 1.99977E+01-7.17986E-04-1.93071E-05 2.29303E-03 2.86106E-14 4.16605E-13
 -1      1948 1.99985E+01-8.23865E-04-2.45951E-05 1.84050E-03 7.65656E-14 2.58103E-13
 -1      1949 1.99987E+01-1.18984E-03 7.50164E-06 2.14725E-03-1.01105E-13 2.95847E-13
 -1      1950 1.99978E+01-1.00512E-03 1.09203E-05 3.16158E-03 1.11801E-13 4.54529E-13
 -1      1951 2.16820E+01 1.58981E-01 1.01613E-02-2.59756E-01 3.05610E-13 5.23574E-13
 -1      1952 2.17289E+01 2.19304E-01 1.76495E-02-7.02364E-02 3.52825E-13 6.57160E-13
 -1      1953 2.17720E+01 3.62501E-01-4.93154E-03 3.51611E-02 4.29054E-13 4.10467E-13
 -1      1954 2.18597E+01 7.98645E-02 6.88424E-03-4.87324E-01 2.25422E-13 3.67277E-13
 -1      1955 2.17406E+01 1.16590E-01 1.42213E-02-3.83174E-01 2.33319E-13 4.64347E-13
 -1      1956 2.17378E+01 1.81060E-01-5.20353E-03-4.00068E-01 3.02060E-13 3.05955E-13
 -1      1957 2.21990E+01 1.18827E-02 1.62876E-03-5.82520E-01 1.44054E-13 2.82436E-13
 -1      1958 2.19980E+01 4.46026E-02 7.16918E-03-5.36907E-01 1.72664E-13 3.33278E-13
 -1      1959 2.19265E+01 7.03556E-02-5.61071E-03-6.26854E-01 2.22153E-13 1.65755E-13
 -1      1960 2.25972E+01-6.67756E-02-3.24144E-03-5.48184E-01 6.80406E-14 1.96506E-13
 -1      1961 2.23791E+01-3.04426E-02 1.55131E-03-5.62830E-01 1.02278E-13 2.69508E-13
 -1      1962 2.22456E+01-3.47928E-02-4.77511E-03-6.89944E-01 1.31932E-13 9.55347E-14
 -1      1963 2.29513E+01-1.61301E-01-7.21397E-03-3.62833E-01 9.62360E-14 1.70661E-13
 -1      1964 2.27784E+01-1.21261E-01-2.66315E-03-4.50509E-01 7.71640E-14 2.14246E-13
 -1      1965 2.26110E+01-1.57763E-01-2.47619E-03-5.83131E-01 1.09259E-13 5.53442E-14
 -1      1966 2.31526E+01-2.57060E-01-8.93216E-03-9.64518E-03 1.00161E-13 1.81247E-13
 -1      1967 2.30878E+01-2.22861E-01-5.75131E-03-1.80232E-01 1.05542E-13 1.85166E-13
 -1      1968 2.29357E+01-2.94891E-01 1.43093E-03-2.84257E-01 1.25484E-13 5.30270E-14
 -1      1969 2.30965E+01-3.12437E-01-6.83858E-03 4.83696E-01 6.27311E-14 1.13602E-13
 -1      1970 2.31930E+01-3.05304E-01-7.64529E-03 2.43005E-01 6.99441E-14 1.90183E-13
 -1      1971 2.31234E+01-4.08585E-01 6.78201E-03 2.05741E-01 1.07189E-13 1.25111E-13
 -1      1972 2.27160E+01-2.64075E-01-8.20072E-04 9.99907E-01-3.33908E-14 1.68062E-13
 -1      1973 2.29949E+01-3.10871E-01-7.87175E-03 7.47067E-01-3.98813E-15 1.19434E-13
 -1      1974 2.30778E+01-4.25108E-01 1.17570E-02 8.12188E-01 1.74635E-14 1.44019E-13
 -1      1975 2.20396E+01-6.57259E-02 5.33103E-03 1.31773E+00 4.08154E-14 1.83204E-13
 -1      1976 2.24614E+01-1.76700E-01-5.86301E-03 1.16171E+00 1.07223E-14 1.94438E-13
 -1      1977 2.27400E+01-2.61116E-01 1.28295E-02 1.34442E+00-4.91924E-15 1.26022E-13
 -1      1978 2.12505E+01 2.41315E-01 5.09402E-03 1.19273E+00 9.79650E-14 2.14563E-13
 -1      1979 2.17006E+01 1.02997E-01-9.15631E-04 1.25018E+00 6.40135E-14 1.57204E-13
 -1      1980 2.21605E+01 9.73088E-02 5.75563E-03 1.51779E+00 7.85240E-14 8.79748E-14
 -1      1981 2.06793E+01 4.97482E-01-3.39922E-03 5.48767E-01 2.00008E-13 1.17344E-13
 -1      1982 2.09886E+01 4.13006E-01 5.98992E-03 8.48464E-01 1.98556E-13 1.71974E-13
 -1      1983 2.15578E+01 5.17044E-01-7.57746E-03 1.10573E+00 2.10200E-13 8.57673E-14
 -1      1984 2.06359E+01 5.31289E-01-1.18964E-02-3.77150E-01 1.79686E-13-1.31941E-13
 -1      1985 2.06602E+01 5.63148E-01 1.18764E-02 4.57912E-02 1.71599E-13-2.67627E-14
 -1      1986 2.12529E+01 7.57533E-01-1.72130E-02 1.71022E-01 2.48667E-13-3.90998E-14
 -1      1987 2.11801E+01 3.19706E-01-1.05062E-02-1.14898E+00 1.25740E-13-2.28203E-13
 -1      1988 2.08904E+01 4.48643E-01 1.29495E-02-8.02611E-01 1.45176E-13-2.04496E-13
 -1      1989 2.14443E+01 6.61666E-01-1.25683E-02-8.77140E-01 2.20751E-13-1.84837E-13
 -1      1990 2.20611E+01 1.10064E-02-1.00780E-03-1.44286E+00 2.20862E-13-3.23758E-13
 -1      1991 2.15695E+01 1.53559E-01 7.27769E-03-1.30981E+00 1.84224E-13-2.68917E-13
 -1      1992 2.20363E+01 2.92896E-01-1.10842E-04-1.54714E+00 2.02864E-13-3.67999E-13
 -1      1993 2.29103E+01-2.20242E-01 8.01816E-03-1.24324E+00 1.77894E-13-3.87870E-13
 -1      1994 2.23989E+01-1.35305E-01-1.93464E-03-1.32247E+00 1.71661E-13-3.29814E-13
 -1      1995 2.27256E+01-1.22006E-01 6.42745E-03-1.61461E+00 2.20670E-13-2.80916E-13
 -1      1996 2.34708E+01-3.04009E-01 1.10414E-02-7.62814E-01 2.59454E-14-3.91374E-13
 -1      1997 2.30890E+01-2.91018E-01-9.34965E-03-9.60930E-01 1.35111E-13-3.86272E-13
 -1      1998 2.32381E+01-3.83524E-01 4.78105E-03-1.20368E+00 1.78306E-13-3.96998E-13
 -1      1999 2.36704E+01-2.72041E-01 8.86581E-03-2.42848E-01-1.84466E-13-4.13503E-13
 -1      2000 2.34829E+01-3.05207E-01-1.22897E-02-4.58820E-01-7.06744E-14-3.85901E-13
 -1      2001 2.34588E+01-4.42241E-01 5.21414E-04-5.97678E-01-7.65880E-15-3.04556E-13
 -1      2002 2.35634E+01-1.88592E-01 4.72369E-03 1.68543E-01-8.10376E-14-4.86335E-13
 -1      2003 2.35603E+01-2.36246E-01-1.13283E-02-3.89853E-03-1.39902E-13-4.39466E-13
 -1      2004 2.34074E+01-3.63216E-01-2.17799E-03-3.39064E-02-8.28461E-14-4.11667E-13
 -1      2005 2.32507E+01-1.02263E-01 1.15755E-03 4.25981E-01 4.45889E-14-5.49840E-13
 -1      2006 2.33831E+01-1.44525E-01-8.30578E-03 3.16309E-01-2.81424E-14-5.46282E-13
 -1      2007 2.31609E+01-2.34402E-01-2.70455E-03 3.71864E-01 1.68936E-14-5.04778E-13
 -1      2008 2.28295E+01-3.55222E-02-9.78063E-04 5.46429E-01 3.63720E-13-6.13920E-13
 -1      2009 2.30409E+01-6.51619E-02-4.82065E-03 4.93180E-01 2.19049E-13-5.10194E-13
 -1      2010 2.28013E+01-1.14656E-01-2.08155E-03 6.02809E-01 1.94411E-13-5.08317E-13
 -1      2011 2.23737E+01 7.47089E-03-1.84432E-03 5.69202E-01 5.95571E-14-6.04879E-13
 -1      2012 2.26169E+01-9.80564E-03-1.82072E-03 5.56644E-01 2.59976E-13-5.78595E-13
 -1      2013 2.23947E+01-2.74607E-02-1.27285E-03 6.92153E-01 2.88460E-13-5.10699E-13
 -1      2014 2.19321E+01 3.08402E-02-1.91528E-03 5.32980E-01-3.39055E-13-5.48368E-13
 -1      2015 2.21744E+01 2.28691E-02 3.41031E-04 5.45391E-01-1.85136E-13-6.01279E-13
 -1      2016 2.19869E+01 2.58402E-02-6.99482E-04 6.86076E-01-1.35785E-13-3.79953E-13
 -1      2017 2.15322E+01 4.06531E-02-1.61368E-03 4.67228E-01-3.14059E-13-3.50545E-13
 -1      2018 2.17543E+01 3.86930E-02 1.66873E-03 4.92488E-01-3.27499E-13-5.08390E-13
 -1      2019 2.16067E+01 5.28235E-02-4.16438E-04 6.25253E-01-3.58794E-13-3.62477E-13
 -1      2020 2.11868E+01 4.21898E-02-1.20330E-03 3.91365E-01-1.10971E-13-2.00772E-13
 -1      2021 2.13794E+01 4.36472E-02 2.32733E-03 4.21390E-01-1.92189E-13-2.85292E-13
 -1      2022 2.12697E+01 6.23770E-02-3.35899E-04 5.39214E-01-2.30180E-13-4.03385E-13
 -1      2023 2.08989E+01 3.92387E-02-8.15659E-04 3.16799E-01 3.57566E-14 7.87446E-14
 -1      2024 2.10593E+01 4.23553E-02 2.52036E-03 3.46769E-01 5.99208E-14 1.74421E-15
 -1      2025 2.09818E+01 6.17091E-02-3.54383E-04 4.46868E-01-3.10431E-14-1.35178E-13
 -1      2026 2.06656E+01 3.42352E-02-5.00660E-04 2.49424E-01-1.48905E-13 1.13437E-13
 -1      2027 2.07952E+01 3.79311E-02 2.42641E-03 2.76789E-01-9.28810E-14 1.02478E-13
 -1      2028 2.07434E+01 5.57927E-02-3.99640E-04 3.59037E-01-8.89486E-14 1.12248E-13
 -1      2029 2.04811E+01 2.86215E-02-2.66541E-04 1.91673E-01-6.62471E-14 1.22612E-13
 -1      2030 2.05831E+01 3.22891E-02 2.17873E-03 2.15324E-01-1.16956E-13 1.48262E-13
 -1      2031 2.05507E+01 4.77270E-02-4.34086E-04 2.81086E-01-7.70386E-14 2.94418E-13
 -1      2032 2.03385E+01 2.31850E-02-1.03863E-04 1.43971E-01 7.97734E-15 1.48785E-13
 -1      2033 2.04168E+01 2.65173E-02 1.86663E-03 1.63647E-01-5.00858E-15 1.16017E-13
 -1      2034 2.03986E+01 3.92900E-02-4.44485E-04 2.14994E-01 1.26910E-14 2.08111E-13
 -1      2035 2.02305E+01 1.83089E-02 2.15085E-06 1.05679E-01-9.12126E-14 7.14919E-14
 -1      2036 2.02893E+01 2.11792E-02 1.54485E-03 1.21579E-01-7.88243E-14 1.09574E-13
 -1      2037 2.02809E+01 3.14109E-02-4.30947E-04 1.60799E-01-1.54148E-14 8.41108E-14
 -1      2038 2.01504E+01 1.41406E-02 6.60754E-05 7.56641E-02 1.23455E-13-1.23540E-13
 -1      2039 2.01936E+01 1.65235E-02 1.24385E-03 8.82075E-02-1.09829E-14-5.01984E-14
 -1      2040 2.01918E+01 2.45081E-02-3.99206E-04 1.17524E-01 6.64555E-14-1.49771E-13
 -1      2041 2.00924E+01 1.06961E-02 1.00240E-04 5.26363E-02 2.21891E-13-1.50866E-13
 -1      2042 2.01234E+01 1.26195E-02 9.78322E-04 6.23228E-02 1.88399E-13-8.03906E-14
 -1      2043 2.01257E+01 1.87086E-02-3.56246E-04 8.37462E-02 1.65080E-13-2.96711E-13
 -1      2044 2.00516E+01 7.92393E-03 1.14296E-04 3.53295E-02 1.00936E-13-1.13802E-13
 -1      2045 2.00731E+01 9.44070E-03 7.53310E-04 4.26597E-02 1.47838E-13 7.31404E-15
 -1      2046 2.00777E+01 1.39835E-02-3.08234E-04 5.79273E-02 1.59473E-13-1.81297E-13
 -1      2047 2.00236E+01 5.74254E-03 1.15441E-04 2.25927E-02 2.58737E-13-3.62083E-13
 -1      2048 2.00382E+01 6.91377E-03 5.68313E-04 2.80282E-02 1.93923E-13-1.78578E-13
 -1      2049 2.00438E+01 1.02278E-02-2.59829E-04 3.85909E-02 2.61702E-13-1.32160E-13
 -1      2050 2.00054E+01 4.06092E-03 1.08844E-04 1.34288E-02 1.48134E-13-2.43660E-13
 -1      2051 2.00147E+01 4.94728E-03 4.19921E-04 1.73736E-02 1.53486E-13-2.91095E-13
 -1      2052 2.00206E+01 7.30654E-03-2.14143E-04 2.44117E-02 2.69857E-13 1.38158E-14
 -1      2053 1.99941E+01 2.79029E-03 9.80963E-05 7.00236E-03-1.49289E-13-2.92875E-13
 -1      2054 1.99996E+01 3.44745E-03 3.03431E-04 9.79787E-03 2.33486E-14-2.75982E-13
 -1      2055 2.00054E+01 5.08026E-03-1.72997E-04 1.42496E-02 5.52788E-14 1.01497E-13
 -1      2056 1.99878E+01 1.84972E-03 8.55909E-05 2.63170E-03 6.81026E-14-2.87418E-13
 -1      2057 1.99907E+01 2.32640E-03 2.13787E-04 4.55856E-03-3.81898E-14-3.24656E-13
 -1      2058 1.99959E+01 3.41781E-03-1.37239E-04 7.15521E-03 1.50203E-16-3.47987E-14
 -1      2059 1.99850E+01 1.16847E-03 7.28340E-05-2.26663E-04-1.33615E-13-1.76041E-13
 -1      2060 1.99861E+01 1.50598E-03 1.46114E-04 1.05689E-03 5.59831E-15-2.11347E-13
 -1      2061 1.99907E+01 2.20259E-03-1.07040E-04 2.35698E-03-5.97249E-14 9.64349E-15
 -1      2062 1.99845E+01 6.86372E-04 6.06772E-05-1.99656E-03-1.15651E-13-2.00282E-13
 -1      2063 1.99844E+01 9.18950E-04 9.59792E-05-1.17944E-03-7.16691E-14-2.03148E-13
 -1      2064 1.99882E+01 1.33440E-03-8.21338E-05-7.57360E-04-1.10905E-13-9.49362E-14
 -1      2065 1.99855E+01 3.53035E-04 4.94874E-05-3.00054E-03-2.46231E-13-2.70827E-13
 -1      2066 1.99846E+01 5.08657E-04 5.95011E-05-2.51443E-03-2.59845E-13-2.60290E-13
 -1      2067 1.99878E+01 7.29046E-04-6.20024E-05-2.66284E-03-1.92474E-13-5.02592E-14
 -1      2068 1.99873E+01 1.26451E-04 3.92697E-05-3.47645E-03-6.26384E-14 4.01138E-14
 -1      2069 1.99860E+01 2.27839E-04 3.33587E-05-3.22102E-03-1.20755E-13-1.02880E-13
 -1      2070 1.99885E+01 3.16547E-04-4.59944E-05-3.71831E-03-1.86306E-13 8.48029E-15
 -1      2071 1.99895E+01-2.88271E-05 2.97728E-05-3.59135E-03 3.14833E-13-7.71296E-14
 -1      2072 1.99881E+01 3.69434E-05 1.47749E-05-3.49602E-03 1.33272E-13-2.16011E-14
 -1      2073 1.99900E+01 3.86933E-05-3.34109E-05-4.18521E-03 1.61440E-13 5.24043E-14
 -1      2074 1.99919E+01-1.43940E-04 2.06477E-05-3.45227E-03 3.53860E-13-2.91744E-13
 -1      2075 1.99905E+01-9.79711E-05 1.52272E-06-3.47236E-03 4.28601E-13-1.17992E-13
 -1      2076 1.99918E+01-1.53962E-04-2.35383E-05-4.24333E-03 3.80119E-13 1.17700E-13
 -1      2077 1.99943E+01-2.47466E-04 1.21884E-05-3.11326E-03 1.82701E-14-2.12693E-13
 -1      2078 1.99929E+01-2.07643E-04-7.88533E-06-3.22799E-03 1.36482E-13-2.92794E-13
 -1      2079 1.99937E+01-3.05399E-04-1.55286E-05-4.00300E-03 2.09695E-13-4.40954E-14
 -1      2080 1.99963E+01-3.64489E-04 5.35516E-06-2.58345E-03-2.85247E-13-1.61118E-14
 -1      2081 1.99951E+01-3.19029E-04-1.35964E-05-2.79315E-03-1.91212E-13-9.21751E-14
 -1      2082 1.99956E+01-4.53489E-04-7.71047E-06-3.51388E-03-1.68446E-13 1.15361E-13
 -1      2083 1.99980E+01-5.15849E-04-4.18595E-06-1.83918E-03-1.39622E-13 3.85193E-13
 -1      2084 1.99970E+01-4.51666E-04-1.38008E-05-2.16444E-03-2.36018E-13 1.90190E-13
 -1      2085 1.99972E+01-6.32734E-04-1.01834E-06-2.78748E-03-3.59384E-13 4.04647E-13
 -1      2086 1.99990E+01-6.53101E-04-1.48816E-05-1.13170E-03-6.24619E-14 3.51096E-13
 -1      2087 1.99984E+01-5.97535E-04-1.17266E-05-1.55642E-03-6.49815E-14 4.13077E-13
 -1      2088 1.99984E+01-8.20061E-04 5.84815E-06-2.04633E-03-4.09878E-14 6.42271E-13
 -1      2089 1.99991E+01-9.96125E-04 3.57389E-06-1.39601E-03 7.25710E-14 6.97033E-13
 -1      2090 1.99999E+01-5.02901E-03 7.94773E-06-2.71943E-03 7.41497E-14-1.24297E-13
 -1      2091 1.99998E+01-4.16157E-03-6.93144E-06-2.73844E-03 4.69069E-14 1.58704E-13
 -1      2092 1.99996E+01-3.49248E-03 2.52369E-06-2.66621E-03 1.16747E-14 2.48193E-14
 -1      2093 1.99994E+01-2.66846E-03-1.45442E-05-2.48298E-03 1.88435E-14 7.94062E-14
 -1      2094 1.99996E+01-3.46725E-03-3.18731E-06-3.37712E-03-1.17698E-13 3.80688E-14
 -1      2095 1.99993E+01-2.17585E-03-1.80613E-06-2.18982E-03 6.21298E-15 1.40689E-13
 -1      2096 1.99991E+01-1.48206E-03-1.59718E-05-1.81708E-03 3.59119E-14 5.21693E-13
 -1      2097 1.99989E+01-1.40499E-03-1.24150E-05-2.18549E-03 1.40249E-14 4.69881E-13
 -1      2098 1.99992E+01-2.34387E-03 3.03456E-07-2.96026E-03-2.15649E-13 1.39438E-13
 -1      2099 2.00002E+01-6.41963E-03 1.42181E-05-2.41808E-03-4.42613E-14-8.01810E-13
 -1      2100 2.00000E+01-5.63066E-03 5.94010E-06-2.58617E-03 7.76730E-15-5.83542E-13
 -1      2101 2.00001E+01-4.72953E-03-8.01802E-06-3.29767E-03-6.86890E-14-5.09417E-13
 -1      2102 2.00003E+01-7.57116E-03 2.00749E-05-1.84347E-03 1.66553E-14-1.03322E-13
 -1      2103 2.00003E+01-6.93018E-03 1.58059E-05-2.12335E-03 1.08802E-13-2.27551E-13
 -1      2104 2.00004E+01-5.84500E-03-1.30009E-05-2.81811E-03 1.64548E-13-5.22261E-13
 -1      2105 2.00004E+01-8.34514E-03 2.43529E-05-1.08883E-03 7.32308E-16 9.24035E-14
 -1      2106 2.00004E+01-7.93439E-03 2.27344E-05-1.43794E-03 9.84936E-14-1.75797E-14
 -1      2107 2.00006E+01-6.72344E-03-1.68287E-05-2.03552E-03 5.27281E-14-7.94140E-14
 -1      2108 2.00005E+01-8.67286E-03 2.65479E-05-2.37474E-04 8.18746E-14 2.56455E-13
 -1      2109 2.00005E+01-8.53307E-03 2.61909E-05-6.19700E-04-1.06604E-13 3.11555E-13
 -1      2110 2.00008E+01-7.27899E-03-1.90140E-05-1.05983E-03-5.80233E-15 1.62117E-13
 -1      2111 2.00005E+01-8.52668E-03 2.62022E-05 6.33984E-04 1.92417E-13 8.05059E-14
 -1      2112 2.00005E+01-8.67125E-03 2.65309E-05 2.52074E-04 1.66551E-13 3.34029E-13
 -1      2113 2.00008E+01-7.46689E-03-1.97047E-05 9.07040E-06-1.52762E-13 2.65231E-13
 -1      2114 2.00004E+01-7.92057E-03 2.28863E-05 1.45053E-03 5.18239E-14-5.76470E-13
 -1      2115 2.00004E+01-8.33583E-03 2.41453E-05 1.10245E-03 1.20744E-13-1.58348E-13
 -1      2116 2.00008E+01-7.27268E-03-1.89098E-05 1.07719E-03-5.54815E-14-1.39270E-13
 -1      2117 2.00003E+01-6.93030E-03 1.58672E-05 2.12301E-03 2.30727E-13-5.82451E-13
 -1      2118 2.00003E+01-7.56260E-03 1.98802E-05 1.84874E-03 2.26440E-13-7.05946E-13
 -1      2119 2.00006E+01-6.71780E-03-1.68431E-05 2.04351E-03 3.77701E-14-5.10275E-13
 -1      2120 2.00000E+01-5.61781E-03 5.47359E-06 2.58830E-03 2.52363E-13 1.11939E-13
 -1      2121 2.00002E+01-6.42057E-03 1.41746E-05 2.41848E-03 3.24538E-13-1.27591E-13
 -1      2122 2.00004E+01-5.84526E-03-1.29471E-05 2.81814E-03 3.71636E-13-3.31610E-13
 -1      2123 1.99998E+01-4.13464E-03-7.22857E-06 2.73763E-03 9.07838E-14-2.89870E-13
 -1      2124 1.99999E+01-5.00325E-03 7.99484E-06 2.72177E-03 1.85190E-13-5.81441E-14
 -1      2125 2.00001E+01-4.71844E-03-7.76492E-06 3.30048E-03 3.89868E-13-6.45643E-14
 -1      2126 1.99994E+01-2.62499E-03-1.09624E-05 2.49598E-03-1.73815E-13-2.85995E-13
 -1      2127 1.99996E+01-3.46832E-03 5.16200E-06 2.66252E-03-4.53422E-14-3.08349E-13
 -1      2128 1.99996E+01-3.44646E-03-1.40506E-06 3.37084E-03 2.01043E-13-4.18861E-13
 -1      2129 1.05374E+01-5.22766E+00-1.52556E-01 6.40222E+00 7.37410E-13 8.79324E-13
 -1      2130 6.87415E+00-6.63820E+00-3.53957E-01 5.25783E+00 4.65405E-13 8.96588E-13
 -1      2131 2.42505E-01-7.14721E+00-3.78828E-01 7.73364E-01 1.17253E-13 1.23024E-12
 -1      2132 2.10307E-01-7.47466E+00-4.28621E-01-6.89069E-01-1.90722E-13 1.16734E-12
 -1      2133 3.55546E+00-6.19186E+00-2.51652E-01 4.22932E+00 4.04232E-13 1.00597E-12
 -1      2134 1.49796E+00-7.17193E+00-4.11306E-01 2.58796E+00 7.93532E-14 1.18183E-12
 -1      2135 1.93375E+01-3.13061E+00 2.13083E-02 6.82783E+00 7.52065E-13 7.04159E-13
 -1      2136 1.47230E+01-5.10552E+00-2.91614E-01 6.11971E+00 6.71907E-13 7.16260E-13
 -1      2137 2.77672E+01-4.10736E-01 1.17012E-01 5.80106E+00 9.50851E-13 2.05835E-13
 -1      2138 2.26713E+01-2.11586E+00-1.79719E-01 5.78032E+00 9.38916E-13 4.92772E-13
 -1      2139 1.95290E+01 4.16019E+00-2.96550E-02-9.55535E-01-4.33866E-13-6.84267E-13
 -1      2140 1.98965E+01 4.08170E+00-1.90442E-02-1.19337E+00-5.02541E-13-5.71505E-13
 -1      2141 2.03290E+01 3.37448E+00-1.40028E-02-1.12529E+00-5.27148E-13-4.68278E-13
 -1      2142 1.95609E+01 3.81737E+00-5.95755E-03-7.59090E-01-4.34494E-13-6.72070E-13
 -1      2143 3.91505E+01 5.73672E+00 3.63003E-01 1.55341E+00 1.14531E-12-5.70932E-13
 -1      2144 3.62979E+01 4.58834E+00 1.32172E-01 2.40749E+00 1.12532E-12-2.78222E-13
 -1      2145 4.08713E+01 7.17060E+00 3.46339E-01-1.36496E-01 1.32389E-12-8.92071E-13
 -1      2146 4.01480E+01 6.88439E+00 3.27101E-01 1.08003E+00 1.23440E-12-5.63022E-13
 -1      2147 3.79569E+01 6.52713E+00 1.39836E-01-1.13010E+00 1.39400E-12-1.03001E-12
 -1      2148 3.96862E+01 7.07268E+00 3.07245E-01-3.44467E-01 1.37662E-12-8.07007E-13
 -1      2149 3.46062E+01 3.39418E+00 8.07782E-02-2.95114E+00 1.42251E-12-1.34026E-12
 -1      2150 3.72529E+01 4.72480E+00 1.83141E-01-1.76922E+00 1.31484E-12-1.05521E-12
 -1      2151 2.90901E+01 3.89467E-01-3.37299E-02-4.62183E+00 1.36652E-12-1.57829E-12
 -1      2152 3.34642E+01 1.94123E+00 2.25557E-01-4.27379E+00 1.38911E-12-1.47593E-12
 -1      2153 3.30412E+01 1.92758E+00 2.39200E-01-8.34775E-01 1.03957E-12-5.75706E-13
 -1      2154 2.04731E+01-3.05476E+00-2.26348E-01-6.06637E+00 1.25194E-12-1.66361E-12
 -1      2155 2.54994E+01-1.09770E+00 1.15921E-01-6.45367E+00 1.34809E-12-1.71047E-12
 -1      2156 1.23412E+01-5.71286E+00-3.04195E-01-6.16728E+00 8.66418E-13-1.42913E-12
 -1      2157 1.67786E+01-3.77302E+00-3.77381E-02-6.97172E+00 1.19615E-12-1.70031E-12
 -1      2158 4.73910E+00-6.95415E+00-3.87658E-01-4.53085E+00 4.37761E-13-1.44615E-12
 -1      2159 8.20538E+00-5.48437E+00-1.37062E-01-6.14279E+00 6.83509E-13-1.50058E-12
 -1      2160 4.67957E-01-7.50760E+00-4.41633E-01-1.50608E+00 1.63286E-13-1.28264E-12
 -1      2161 1.71865E+00-7.15064E+00-4.10660E-01-3.02287E+00 5.53668E-13-1.38634E-12
 -1      2162 1.48195E+00-5.80613E+00-2.21872E-01 2.31416E+00-1.02168E-13-1.34687E-12
 -1      2163 3.94506E-01-7.13445E+00-4.33565E-01 2.87989E-01 1.37057E-13-1.37856E-12
 -1      2164 6.81816E+00-6.16503E+00-2.73318E-01 5.52904E+00-6.46150E-13-1.22775E-12
 -1      2165 4.34113E+00-6.26064E+00-2.15299E-01 4.64511E+00-2.54741E-13-1.14708E-12
 -1      2166 1.34917E+01-4.47787E+00-1.30289E-01 6.78973E+00-9.44134E-13-1.32863E-12
 -1      2167 9.50641E+00-6.26277E+00-4.07265E-01 5.70806E+00-7.16760E-13-1.17064E-12
 -1      2168 1.04742E+01-5.80346E+00-1.68205E-01 6.68112E+00-9.00946E-14-1.12153E-12
 -1      2169 2.31222E+01-2.40065E+00 8.05267E-02 6.57877E+00-9.80382E-13-1.15141E-12
 -1      2170 1.82899E+01-4.32106E+00-2.56476E-01 6.09827E+00-8.79519E-13-1.15669E-12
 -1      2171 3.09211E+01 7.07007E-01 1.97027E-01 5.06030E+00-1.13515E-12-9.86544E-13
 -1      2172 2.61116E+01-1.02401E+00-1.14151E-01 5.32106E+00-1.14891E-12-1.08469E-12
 -1      2173 3.70311E+01 4.05778E+00 3.60665E-01 3.04072E+00-1.26178E-12-6.59028E-13
 -1      2174 3.32356E+01 2.54790E+00 5.02774E-02 3.46492E+00-1.26520E-12-8.03912E-13
 -1      2175 4.06605E+01 6.39283E+00 4.40638E-01 1.41140E+00-1.28131E-12-3.85469E-13
 -1      2176 3.83591E+01 5.60394E+00 2.44749E-01 2.42394E+00-1.34132E-12-6.61582E-13
 -1      2177 4.14033E+01 7.12568E+00 3.92198E-01-3.59013E-01-1.20065E-12-1.36335E-13
 -1      2178 4.12718E+01 7.05192E+00 4.01287E-01 9.23776E-01-1.22186E-12-4.21135E-13
 -1      2179 3.85494E+01 6.00503E+00 2.06416E-01-1.58141E+00-1.23640E-12 1.89793E-13
 -1      2180 4.02568E+01 6.74050E+00 3.68340E-01-5.89050E-01-1.17062E-12-1.09801E-13
 -1      2181 3.43880E+01 3.46932E+00 7.13062E-02-2.66916E+00-1.17886E-12 3.42171E-13
 -1      2182 3.80964E+01 4.80240E+00 3.57843E-01-2.25959E+00-1.26132E-12 2.47746E-13
 -1      2183 3.51183E+01 5.71631E+00 2.57373E-01 3.07807E-01-1.20826E-12-2.01561E-13
 -1      2184 2.80144E+01-3.71789E-01-4.13377E-02-4.78554E+00-7.68635E-13 8.60978E-13
 -1      2185 3.21419E+01 1.09222E+00 1.53473E-01-4.14392E+00-8.58508E-13 5.68046E-13
 -1      2186 2.02629E+01-3.05051E+00-2.24280E-01-5.97111E+00-7.17870E-13 9.98146E-13
 -1      2187 2.49467E+01-1.17090E+00 9.05154E-02-6.38154E+00-7.98472E-13 1.10068E-12
 -1      2188 1.21702E+01-5.64733E+00-3.60235E-01-5.96546E+00-6.53366E-13 8.91162E-13
 -1      2189 1.65718E+01-3.90549E+00-4.27283E-02-6.84318E+00-6.84564E-13 1.00325E-12
 -1      2190 5.50128E+00-6.99247E+00-4.21629E-01-4.77152E+00-3.81140E-13 9.81382E-13
 -1      2191 8.58782E+00-5.63484E+00-2.24566E-01-5.88833E+00-6.14508E-13 9.83449E-13
 -1      2192 8.89475E-01-7.77643E+00-4.82877E-01-2.06944E+00-1.41609E-13 9.62230E-13
 -1      2193 2.42690E+00-6.79359E+00-3.53881E-01-3.51205E+00-3.77309E-13 8.76688E-13
 -1      2194 1.63100E+00-5.16081E+00-2.26424E-01-1.74208E+00-5.14311E-14 1.18228E-12
 -1      2195 3.46583E+01 2.51401E+00 2.26769E-01 3.18917E+00 9.85987E-13-2.85216E-13
 -1      2196 3.07417E+01 8.81357E-01-1.48880E-02 3.70844E+00 9.71570E-13-2.15383E-14
 -1      2197 2.32115E+01-4.25327E+00 3.58138E-02 5.46561E+00 2.72893E-13 5.88418E-14
 -1      2198 2.20370E+01 1.09586E+00-1.74406E-02-1.02261E+00-5.30121E-13 4.56156E-13
 -1      2199 2.98802E+01-1.12411E+00 1.67456E-01 2.82523E+00 6.15813E-13-4.39260E-13
 -1      2200 3.37158E+01 2.94354E+00 1.63448E-01 2.45475E-01 9.91207E-13-6.87450E-13
 -1      2201 2.18033E+01 1.33681E+00-2.25249E-02-9.51555E-01-5.65915E-13 1.32453E-13
 -1      2202 7.08065E+00-5.37984E+00-1.14841E-01 5.62608E+00-3.26406E-14 9.57873E-13
 -1      2203 2.17675E+00-4.85312E+00-1.66691E-01 2.16596E+00-4.90441E-14 1.24228E-12
 -1      2204 1.99992E+01-2.08705E-03-1.24932E-05 2.44362E-03-7.72109E-14-5.63686E-14
 -1      2205 1.51625E+01-5.66532E+00-6.07259E-02 6.74971E+00 1.33782E-13 4.78978E-13
 -1      2206 5.49442E+00-5.67805E+00-1.90010E-01-5.06719E+00-9.29257E-14 1.02779E-12
 -1      2207 1.27845E+01-5.78192E+00-9.94175E-02-6.73067E+00-1.81133E-13 7.92422E-13
 -1      2208 2.06131E+01-4.80332E+00-1.39994E-02-6.10243E+00-2.53242E-13 7.02133E-13
 -1      2209 3.27552E+01 1.41697E+00 1.75553E-01-1.12883E+00-7.92311E-13-8.60423E-14
 -1      2210 3.66443E+01 7.83824E+00 3.24642E-01 3.07089E-01-1.29163E-12-2.03657E-13
 -1      2211 3.71884E+01 7.53759E+00 3.77337E-01 9.50836E-02-1.30729E-12-2.42639E-13
 -1      2212 3.51793E+01 4.76665E+00 2.78400E-01 2.78327E-01-1.22119E-12-1.29452E-13
 -1      2213 3.19309E+01 4.15863E-01 1.80116E-01 1.99754E+00-8.87946E-13-2.72671E-13
 -1      2214 1.86114E+01-5.45193E+00 1.18567E-02 6.61752E+00-2.30038E-13-8.59826E-13
 -1      2215 3.81888E+00-5.18951E+00-1.39744E-01 3.81954E+00-2.02893E-14-1.27465E-12
 -1      2216 4.00856E+00-3.20807E+00 8.79713E-02 3.04258E+00 1.77081E-13-1.36469E-12
 -1      2217 6.63975E+00-4.09487E+00-3.11554E-02 5.20621E+00 2.01422E-13-1.14031E-12
 -1      2218 1.68998E+00-4.72880E+00-1.85465E-01-8.17442E-01 9.61176E-14-1.50580E-12
 -1      2219 5.01799E+00-5.08256E+00-1.31418E-01-4.86553E+00 1.32117E-13-1.49902E-12
 -1      2220 1.24909E+01-5.67220E+00-1.02330E-01-6.79395E+00 1.92513E-13-1.34862E-12
 -1      2221 2.87987E+01-1.94783E+00 1.46183E-01-3.66790E+00 7.45182E-13-9.36473E-13
 -1      2222 3.46258E+01 5.74499E+00 2.12761E-01 3.29844E-01 1.27709E-12-4.60548E-13
 -1      2223 3.62855E+01 6.83759E+00 3.19429E-01-1.82351E-01 1.23890E-12-6.62026E-13
 -1      2224 3.59704E+01 8.01171E+00 2.68622E-01 1.34296E-01 1.37146E-12-6.41216E-13
 -1      2225 2.11107E+01-4.82441E+00-1.93800E-03-6.14980E+00 5.29687E-13-1.19538E-12
 -1      2226 2.63964E+01-3.51967E+00 8.82239E-02 4.44113E+00-4.75786E-13-5.11036E-13
 -1      2227 2.77882E+01-2.35396E+00 1.40906E-01-3.95604E+00-3.95517E-13 4.34319E-13
 -1      2228 2.16674E+01 5.54507E-01 6.50892E-03-7.53266E-02 4.15019E-13 1.58013E-13
 -1      2229 2.17685E+01 7.39394E-01 2.06491E-02 2.40298E-01 4.76051E-13 2.14158E-13
 -1      2230 1.83617E+01 4.06000E+00-1.12984E-02-1.21777E-01-1.68208E-13-8.00656E-13
 -1      2231 1.85789E+01 3.98276E+00-4.70027E-03-2.04887E-01-2.33279E-13-7.92611E-13
 -1      2232 1.88374E+01 3.81732E+00-1.42402E-02-2.67365E-01-2.76381E-13-7.58978E-13
 -1      2233 1.91415E+01 3.69535E+00-6.73183E-03-3.86319E-01-3.61663E-13-7.13435E-13
 -1      2234 1.88000E+01 3.58994E+00 2.18312E-03-1.19383E-01-2.44206E-13-7.24043E-13
 -1      2235 1.80353E+01 4.22958E+00-6.24436E-03 2.61442E-02 6.09572E-14-8.46295E-13
 -1      2236 1.80318E+01 4.23122E+00-6.39884E-03-2.36517E-02-3.59001E-15-8.35303E-13
 -1      2237 1.82147E+01 4.15090E+00-4.80941E-03 9.69695E-02 1.73099E-13-8.36011E-13
 -1      2238 1.80960E+01 4.19155E+00-8.73919E-03 3.74351E-02 1.08873E-13-8.45462E-13
 -1      2239 1.81175E+01 3.95963E+00 3.22234E-03 5.51528E-03 8.73531E-14-7.98133E-13
 -1      2240 1.85980E+01 3.96837E+00-4.80596E-03 2.11479E-01 2.68886E-13-7.98756E-13
 -1      2241 1.83805E+01 4.04669E+00-1.14564E-02 1.27755E-01 2.06697E-13-8.31092E-13
 -1      2242 1.83631E+01 3.82640E+00 2.66925E-03 3.83882E-02 1.79251E-13-7.89318E-13
 -1      2243 1.91652E+01 3.67518E+00-7.06446E-03 3.96939E-01 3.82500E-13-7.14262E-13
 -1      2244 1.88592E+01 3.79958E+00-1.44828E-02 2.76007E-01 3.13872E-13-7.54130E-13
 -1      2245 1.88214E+01 3.57148E+00 1.85472E-03 1.24196E-01 2.82220E-13-7.28549E-13
 -1      2246 1.98733E+01 3.25757E+00-1.28570E-02 6.54443E-01 4.90004E-13-5.80519E-13
 -1      2247 1.95017E+01 3.44353E+00-1.77158E-02 4.96864E-01 4.19246E-13-6.58976E-13
 -1      2248 1.94579E+01 3.19633E+00 2.02746E-03 2.77072E-01 3.83018E-13-6.32353E-13
 -1      2249 2.06899E+01 2.67093E+00-2.38116E-02 9.49064E-01 5.95648E-13-3.57570E-13
 -1      2250 2.02689E+01 2.95476E+00-2.03382E-02 7.73585E-01 5.19953E-13-4.77630E-13
 -1      2251 2.02193E+01 2.69366E+00 4.64256E-03 4.78032E-01 4.77934E-13-4.78682E-13
 -1      2252 2.16915E+01 3.05247E-01 5.71438E-03-5.20834E-01 3.03620E-13 7.69961E-14
 -1      2253 2.16674E+01 4.16343E-01 2.04215E-02-3.44072E-01 3.63269E-13 1.45653E-13
 -1      2254 2.15063E+01 6.97891E-01-5.94346E-03-1.92647E-01 4.31010E-13-2.57385E-14
 -1      2255 2.15905E+01 9.31063E-01 1.49248E-02-1.56611E-01-4.46789E-13-5.50905E-15
 -1      2256 2.15189E+01 7.08641E-01-9.11108E-04 1.84590E-01-3.86640E-13-2.07525E-14
 -1      2257 2.98194E+01-1.53551E+00-1.09643E-01 9.21755E-01 3.46737E-13-8.46184E-13
 -1      2258 2.77398E+01-3.21979E+00-3.05137E-02 2.65189E+00 1.86545E-13-6.82676E-13
 -1      2259 2.15499E+01 5.44058E-01 1.71833E-02 4.48305E-01-3.26211E-13-3.28058E-15
 -1      2260 2.15714E+01 3.96846E-01 1.09682E-03 6.44572E-01-2.75477E-13-2.61955E-14
 -1      2261 2.13122E+01 8.47975E-01-5.47715E-03 3.14730E-01-3.79330E-13-1.48454E-13
 -1      2262 2.16414E+01 2.73362E-01 1.31113E-02 8.13095E-01-2.43666E-13-1.78026E-15
 -1      2263 2.17393E+01 1.40391E-01-1.54560E-03 9.06477E-01-2.11661E-13-2.29708E-14
 -1      2264 2.13761E+01 4.56730E-01-7.82540E-03 7.84894E-01-2.69373E-13-1.33914E-13
 -1      2265 2.18752E+01 1.21672E-02 1.08947E-02 9.79356E-01-1.62762E-13-2.44596E-16
 -1      2266 2.20212E+01-1.39172E-01-6.24900E-03 9.72923E-01-1.23578E-13-2.99196E-14
 -1      2267 2.15548E+01 1.08827E-01-9.36610E-03 1.05565E+00-1.89832E-13-1.05239E-13
 -1      2268 2.22346E+01-2.91637E-01 1.07325E-02 9.36490E-01-1.06223E-13-6.56029E-15
 -1      2269 2.23983E+01-4.71212E-01-1.22758E-02 8.17585E-01-8.59412E-14 5.54678E-16
 -1      2270 2.18717E+01-2.78350E-01-1.08999E-02 1.11640E+00-1.27998E-13-7.88311E-14
 -1      2271 2.26903E+01-6.42948E-01 1.10207E-02 6.47401E-01-8.14670E-14 2.49301E-14
 -1      2272 2.28365E+01-8.27327E-01-1.80667E-02 4.04983E-01-7.08010E-14 4.46185E-14
 -1      2273 2.23374E+01-7.27427E-01-1.17900E-02 9.29963E-01-8.27574E-14-3.44568E-14
 -1      2274 2.31813E+01-9.74576E-01 8.80876E-03 8.26840E-02-4.76156E-14 4.53086E-14
 -1      2275 2.32682E+01-1.08944E+00-2.01598E-02-2.66689E-01-7.80626E-14 2.58300E-14
 -1      2276 2.29364E+01-1.17607E+00-9.82847E-03 4.49131E-01-7.11159E-14-3.77267E-14
 -1      2277 2.35868E+01-1.11800E+00-6.72895E-04-7.14244E-01-1.13717E-13 1.01436E-13
 -1      2278 2.35739E+01-1.03975E+00-1.37682E-02-1.09199E+00-1.36120E-13 1.13504E-13
 -1      2279 2.35854E+01-1.43558E+00-2.88580E-03-3.32167E-01-6.12673E-14 3.01124E-14
 -1      2280 2.37376E+01-8.29231E-01-1.78802E-02-1.53695E+00-1.26901E-13 1.35486E-13
 -1      2281 2.36112E+01-4.49424E-01 4.54874E-03-1.78157E+00-1.48366E-13 1.14745E-13
 -1      2282 2.40981E+01-1.21544E+00 4.30675E-03-1.27505E+00-1.40801E-13 1.71188E-13
 -1      2283 2.35025E+01 4.56195E-02-3.80921E-02-1.95960E+00-1.88829E-13 9.93710E-14
 -1      2284 2.33183E+01 6.47583E-01 2.04066E-02-1.86521E+00-2.38334E-13 6.75313E-14
 -1      2285 2.42384E+01-2.48470E-01 1.00998E-02-1.99976E+00-1.95649E-13 1.88799E-13
 -1      2286 2.30390E+01 1.22137E+00-4.01995E-02-1.53524E+00-3.11591E-13 1.51198E-14
 -1      2287 2.29023E+01 1.70775E+00 1.37767E-02-1.03613E+00-3.47576E-13-2.33993E-14
 -1      2288 2.39455E+01 1.20625E+00-1.18572E-02-1.91071E+00-3.18010E-13 1.40779E-13
 -1      2289 2.27513E+01 1.97375E+00-1.57482E-02-2.54053E-01-3.84900E-13-1.54393E-13
 -1      2290 2.27672E+01 1.97300E+00-1.51310E-02 4.36331E-01-3.67116E-13-2.28681E-13
 -1      2291 2.35686E+01 2.36175E+00-3.57290E-02-7.45900E-01-4.44287E-13-6.14001E-14
 -1      2292 2.29308E+01 1.70556E+00 1.30555E-02 1.21663E+00-3.86566E-13-3.90332E-13
 -1      2293 2.30974E+01 1.21836E+00-4.00738E-02 1.71560E+00-3.15940E-13-4.74815E-13
 -1      2294 2.35853E+01 2.36345E+00-3.42471E-02 9.45520E-01-4.77566E-13-3.50573E-13
 -1      2295 2.33905E+01 6.40584E-01 1.92193E-02 2.04182E+00-2.11463E-13-5.85991E-13
 -1      2296 2.36036E+01 3.98486E-02-3.78470E-02 2.13255E+00-1.38937E-13-6.24617E-13
 -1      2297 2.39901E+01 1.20132E+00-1.08817E-02 2.10696E+00-3.52284E-13-5.87438E-13
 -1      2298 2.37180E+01-4.48872E-01 3.87395E-03 1.94972E+00-1.28073E-13-5.83929E-13
 -1      2299 2.38670E+01-8.26334E-01-1.80613E-02 1.70650E+00-2.80878E-14-6.13478E-13
 -1      2300 2.43051E+01-2.54936E-01 9.55457E-03 2.18501E+00-1.65134E-13-6.24134E-13
 -1      2301 2.37147E+01-1.03937E+00-1.36195E-02 1.26018E+00 1.69855E-14-5.81884E-13
 -1      2302 2.37488E+01-1.12073E+00-4.70822E-04 8.79723E-01 1.52387E-14-5.41359E-13
 -1      2303 2.41832E+01-1.20463E+00 9.20474E-03 1.45899E+00-1.19627E-14-5.61587E-13
 -1      2304 2.34322E+01-1.09609E+00-2.09398E-02 4.25549E-01-8.44030E-15-4.61633E-13
 -1      2305 2.33605E+01-9.87512E-01 7.61871E-03 6.95675E-02 3.73967E-14-4.03508E-13
 -1      2306 2.36800E+01-1.44468E+00-2.00552E-03 5.02806E-01 6.56059E-14-4.25147E-13
 -1      2307 2.30124E+01-8.48831E-01-1.89253E-02-2.65771E-01 7.81519E-14-2.90778E-13
 -1      2308 2.28711E+01-6.77377E-01 8.94138E-03-5.22891E-01 6.47828E-14-2.53865E-13
 -1      2309 2.30302E+01-1.20177E+00-8.76844E-03-3.00397E-01 1.27375E-13-1.99149E-13
 -1      2310 2.25656E+01-5.21473E-01-1.30762E-02-7.19555E-01-5.96224E-15-2.93889E-13
 -1      2311 2.23893E+01-3.64214E-01 7.18041E-03-8.67709E-01-3.67282E-14-3.83125E-13
 -1      2312 2.24145E+01-7.87921E-01-9.70681E-03-8.25951E-01-2.93392E-14-1.78509E-13
 -1      2313 2.21469E+01-2.37677E-01-7.12592E-03-9.51995E-01-6.84934E-15-3.25449E-13
 -1      2314 2.19601E+01-1.23089E-01 4.80210E-03-1.01136E+00 5.32103E-14-2.82424E-13
 -1      2315 2.19047E+01-3.98474E-01-7.85459E-03-1.09536E+00-1.61670E-14-2.02849E-13
 -1      2316 2.17747E+01-3.75138E-02-2.47845E-03-1.01912E+00 6.60802E-14-3.03876E-13
 -1      2317 2.15925E+01 3.34090E-02 2.86374E-03-1.01763E+00 9.19217E-14-2.65243E-13
 -1      2318 2.15050E+01-1.09293E-01-5.51031E-03-1.17625E+00 3.89351E-14-1.74621E-13
 -1      2319 2.14507E+01 8.30492E-02 6.35735E-04-9.79778E-01 6.57862E-14-3.30398E-13
 -1      2320 2.12820E+01 1.19889E-01 1.56638E-03-9.42347E-01 1.04375E-13-3.90190E-13
 -1      2321 2.11944E+01 7.32966E-02-3.67628E-03-1.13636E+00-1.43996E-14-2.40876E-13
 -1      2322 2.11717E+01 1.43504E-01 2.45302E-03-8.81376E-01 1.69030E-13-4.33736E-13
 -1      2323 2.10212E+01 1.57364E-01 8.03073E-04-8.26468E-01 1.91795E-13-3.43191E-13
 -1      2324 2.09499E+01 1.70976E-01-2.51455E-03-1.02876E+00 9.85212E-14-2.96253E-13
 -1      2325 2.09337E+01 1.64280E-01 3.32528E-03-7.57204E-01 1.49131E-13-3.44684E-13
 -1      2326 2.08036E+01 1.64272E-01 3.98425E-04-6.96997E-01 2.86498E-14-3.01163E-13
 -1      2327 2.07537E+01 2.10447E-01-1.85501E-03-8.90414E-01 1.42942E-13-4.22077E-13
 -1      2328 2.07332E+01 1.61542E-01 3.57050E-03-6.28442E-01-5.38509E-14-1.89758E-13
 -1      2329 2.06236E+01 1.54097E-01 2.04344E-04-5.70186E-01-1.07312E-14-1.12453E-13
 -1      2330 2.05942E+01 2.14161E-01-1.49377E-03-7.45009E-01 6.79415E-14-4.32943E-13
 -1      2331 2.05667E+01 1.46473E-01 3.43567E-03-5.07294E-01-5.45855E-14-2.43684E-13
 -1      2332 2.04765E+01 1.35724E-01 1.21715E-04-4.54801E-01-6.55730E-14-2.72964E-13
 -1      2333 2.04638E+01 1.98239E-01-1.28228E-03-6.06551E-01-9.59870E-14-3.27423E-13
 -1      2334 2.04305E+01 1.26162E-01 3.09643E-03-3.99878E-01-7.83718E-14-2.53234E-13
 -1      2335 2.03579E+01 1.14578E-01 9.19160E-05-3.54746E-01-7.31321E-14-3.01409E-13
 -1      2336 2.03574E+01 1.73202E-01-1.13349E-03-4.82398E-01-5.42040E-14-3.77951E-13
 -1      2337 2.03211E+01 1.04793E-01 2.66909E-03-3.08457E-01-4.88051E-14-3.38675E-13
 -1      2338 2.02637E+01 9.37316E-02 8.35480E-05-2.70957E-01-4.20120E-14-2.62515E-13
 -1      2339 2.02713E+01 1.45424E-01-1.00505E-03-3.75598E-01-8.92460E-14-2.03605E-13
 -1      2340 2.02345E+01 8.46330E-02 2.22559E-03-2.33014E-01 3.81591E-14-2.71686E-13
 -1      2341 2.01901E+01 7.47595E-02 8.14445E-05-2.02684E-01 9.90831E-14-2.21297E-14
 -1      2342 2.02024E+01 1.18487E-01-8.81046E-04-2.86562E-01 7.54879E-14-2.14689E-13
 -1      2343 2.01673E+01 6.67675E-02 1.80701E-03-1.72299E-01 7.31156E-14 8.25893E-14
 -1      2344 2.01336E+01 5.83326E-02 7.92808E-05-1.48324E-01 2.21629E-14 2.34545E-13
 -1      2345 2.01481E+01 9.41954E-02-7.58760E-04-2.14199E-01 1.71489E-13-4.87349E-14
 -1      2346 2.01161E+01 5.15785E-02 1.43407E-03-1.24491E-01-1.31360E-13 2.95912E-13
 -1      2347 2.00910E+01 4.45992E-02 7.51303E-05-1.05925E-01-1.16209E-13 2.14431E-13
 -1      2348 2.01060E+01 7.32865E-02-6.40671E-04-1.56664E-01-4.24703E-14 9.00258E-14
 -1      2349 2.00778E+01 3.90548E-02 1.11477E-03-8.75920E-02-1.00746E-13 1.73962E-13
 -1      2350 2.00595E+01 3.34247E-02 6.90026E-05-7.34963E-02-7.20806E-14 1.70111E-13
 -1      2351 2.00738E+01 5.58797E-02-5.30351E-04-1.11826E-01-1.77248E-13 1.87098E-14
 -1      2352 2.00497E+01 2.89804E-02 8.49497E-04-5.96630E-02 1.80373E-14 9.21003E-14
 -1      2353 2.00367E+01 2.45371E-02 6.15810E-05-4.91721E-02 6.22975E-14 4.44368E-14
 -1      2354 2.00497E+01 4.17639E-02-4.30679E-04-7.75482E-02-9.06428E-14 9.19014E-15
 -1      2355 2.00296E+01 2.10485E-02 6.34446E-04-3.89391E-02-1.08900E-14 7.00195E-14
 -1      2356 2.00206E+01 1.76117E-02 5.36336E-05-3.12938E-02-7.22681E-14 1.24511E-13
 -1      2357 2.00320E+01 3.05694E-02-3.43316E-04-5.18427E-02 5.75121E-14-1.28023E-13
 -1      2358 2.00156E+01 1.49266E-02 4.63789E-04-2.38844E-02-1.25775E-13 1.95667E-13
 -1      2359 2.00097E+01 1.23198E-02 4.57762E-05-1.84414E-02-1.18678E-13 2.13481E-13
 -1      2360 2.00193E+01 2.18698E-02-2.68755E-04-3.29513E-02-1.25288E-14 1.16489E-13
 -1      2361 2.00062E+01 1.02927E-02 3.30993E-04-1.32045E-02-9.69676E-14 5.46288E-14
 -1      2362 2.00025E+01 8.35447E-03 3.84052E-05-9.43325E-03 2.41851E-14-5.09229E-14
 -1      2363 2.00104E+01 1.52396E-02-2.06590E-04-1.93712E-02-1.63254E-13 9.42480E-14
 -1      2364 2.00003E+01 6.85421E-03 2.29607E-04-5.83650E-03 1.91966E-13-4.43448E-14
 -1      2365 1.99982E+01 5.44282E-03 3.17020E-05-3.31010E-03 8.28535E-14 9.97885E-14
 -1      2366 2.00045E+01 1.02846E-02-1.55822E-04-9.85340E-03 1.97987E-14-1.09631E-13
 -1      2367 1.99968E+01 4.35493E-03 1.53687E-04-9.27993E-04-6.39322E-14 8.13526E-14
 -1      2368 1.99958E+01 3.34939E-03 2.56631E-05 6.89631E-04 1.79050E-14 1.44117E-13
 -1      2369 2.00007E+01 6.65564E-03-1.15119E-04-3.38467E-03 4.89132E-14 1.70373E-13
 -1      2370 1.99950E+01 2.57649E-03 9.80081E-05 2.18945E-03 7.15243E-14 1.74667E-13
 -1      2371 1.99947E+01 1.87521E-03 2.01285E-05 3.15642E-03 1.74493E-13 1.62289E-13
 -1      2372 1.99984E+01 4.05247E-03-8.30239E-05 8.38455E-04 4.35165E-14 2.50866E-13
 -1      2373 1.99944E+01 1.33546E-03 5.81302E-05 4.02698E-03 1.74310E-13 1.49835E-13
 -1      2374 1.99946E+01 8.53768E-04 1.48164E-05 4.53562E-03 2.48279E-13 2.46829E-13
 -1      2375 1.99972E+01 2.22159E-03-5.81172E-05 3.43803E-03 1.19712E-13 3.62673E-13
 -1      2376 1.99945E+01 4.78507E-04 3.04287E-05 4.96330E-03 3.71311E-13 7.03065E-14
 -1      2377 1.99950E+01 1.45534E-04 9.38881E-06 5.15080E-03 4.29470E-13 1.45414E-13
 -1      2378 1.99968E+01 9.50696E-04-3.91199E-05 4.88224E-03 1.78578E-13 7.67173E-14
 -1      2379 1.99951E+01-1.23508E-04 1.20068E-05 5.26648E-03 3.30804E-13 1.08693E-13
 -1      2380 1.99958E+01-3.67986E-04 3.48640E-06 5.22395E-03 3.16968E-13 1.33224E-13
 -1      2381 1.99969E+01 6.18294E-05-2.49377E-05 5.51050E-03 3.60527E-13 3.93423E-14
 -1      2382 1.99960E+01-5.80912E-04 6.97417E-07 5.11221E-03 2.73064E-13 1.20537E-13
 -1      2383 1.99967E+01-7.86778E-04-2.26836E-06 4.89236E-03 1.64256E-14 1.65861E-13
 -1      2384 1.99972E+01-5.96173E-04-1.48205E-05 5.55549E-03 2.68099E-13 7.63937E-14
 -1      2385 1.99970E+01-9.91009E-04-6.70255E-06 4.60314E-03-1.37642E-13 3.15923E-13
 -1      2386 1.99976E+01-1.18942E-03-8.33780E-06 4.22675E-03 9.65564E-14 4.56897E-13
 -1      2387 1.99978E+01-1.14496E-03-7.65691E-06 5.16324E-03 1.20596E-13 5.25314E-14
 -1      2388 2.21430E+01-7.64024E-02-4.94236E-03-8.27465E-01 1.29726E-13-3.79961E-14
 -1      2389 2.19854E+01 2.78055E-02 8.77864E-03-8.30605E-01 1.75394E-13 1.18005E-15
 -1      2390 2.24846E+01-3.06297E-01-1.15048E-02-6.91126E-01 1.02799E-13-6.07535E-14
 -1      2391 2.23261E+01-1.82485E-01 6.38726E-03-7.91160E-01 1.04506E-13-4.98206E-14
 -1      2392 2.20138E+01-1.81704E-01-7.99912E-03-9.59414E-01 1.40535E-13-1.30974E-13
 -1      2393 2.28301E+01-5.57384E-01-1.72790E-02-3.28236E-01 1.14245E-13-9.72096E-16
 -1      2394 2.27151E+01-4.27722E-01 4.81315E-03-5.35092E-01 1.14573E-13-1.77445E-14
 -1      2395 2.24111E+01-5.10849E-01-7.44030E-03-7.75311E-01 1.01839E-13-1.21137E-13
 -1      2396 2.31049E+01-7.54235E-01-1.91006E-02 2.58439E-01 6.64668E-14 6.63071E-14
 -1      2397 2.30779E+01-6.66828E-01 2.43338E-03-4.15970E-02 7.14082E-14 5.80315E-14
 -1      2398 2.28754E+01-8.44713E-01-4.55734E-03-3.26609E-01 5.91333E-14-3.46401E-14
 -1      2399 2.32149E+01-7.53706E-01-1.32643E-02 9.74841E-01-3.09718E-14 1.31661E-13
 -1      2400 2.33079E+01-7.89711E-01-3.49192E-03 6.46800E-01 3.97052E-14 1.18099E-13
 -1      2401 2.33254E+01-1.05371E+00 2.04696E-03 3.76670E-01 1.87081E-14 4.57399E-14
 -1      2402 2.30735E+01-3.99557E-01 1.74276E-03 1.58123E+00 5.96691E-14 9.33802E-14
 -1      2403 2.32841E+01-6.32347E-01-1.32552E-02 1.35683E+00-3.05480E-14 1.31632E-13
 -1      2404 2.36212E+01-9.32781E-01 9.50895E-03 1.20422E+00-3.42781E-15 1.37395E-13
 -1      2405 2.26782E+01 3.17886E-01 1.84973E-02 1.71554E+00 1.56443E-13 4.60370E-14
 -1      2406 2.29445E+01-8.16846E-02-2.23872E-02 1.75607E+00 1.16227E-13 5.16098E-14
 -1      2407 2.36077E+01-3.05483E-01 1.17764E-02 1.83813E+00 1.25414E-13 5.19771E-14
 -1      2408 2.22155E+01 1.08796E+00 2.11182E-02 1.10296E+00 2.73512E-13-7.62732E-14
 -1      2409 2.24176E+01 7.26839E-01-2.02599E-02 1.48202E+00 2.22006E-13-4.47160E-14
 -1      2410 2.32623E+01 7.28987E-01 1.73934E-03 1.82705E+00 2.26401E-13-6.32621E-15
 -1      2411 2.20180E+01 1.40359E+00 2.02902E-03-1.03553E-01 3.08198E-13-1.16922E-13
 -1      2412 2.20448E+01 1.33148E+00-5.38269E-03 4.75338E-01 3.00277E-13-6.89206E-14
 -1      2413 2.28540E+01 1.64577E+00-1.81387E-02 9.22700E-01 2.74681E-13-9.02863E-14
 -1      2414 2.22861E+01 1.02450E+00-1.84939E-02-1.30164E+00 2.66176E-13-2.60739E-13
 -1      2415 2.21141E+01 1.29575E+00 1.41977E-02-8.14904E-01 3.26850E-13-1.52460E-13
 -1      2416 2.27791E+01 1.82726E+00-2.66528E-02-5.34351E-01 3.47873E-13-1.93494E-13
 -1      2417 2.28531E+01 2.39062E-01-2.32379E-02-1.89361E+00 2.13234E-13-3.29936E-13
 -1      2418 2.25643E+01 6.51901E-01 2.08712E-02-1.71500E+00 2.18527E-13-3.04357E-13
 -1      2419 2.31323E+01 1.14642E+00-1.03780E-02-1.74367E+00 3.17033E-13-3.38440E-13
 -1      2420 2.33539E+01-4.48165E-01-1.51071E-02-1.73679E+00 1.87511E-13-3.40834E-13
 -1      2421 2.30721E+01-1.40280E-01 8.33315E-03-1.86739E+00 2.19049E-13-3.43615E-13
 -1      2422 2.35895E+01 9.02715E-02 1.02306E-02-2.11280E+00 2.12449E-13-4.32030E-13
 -1      2423 2.35557E+01-7.63309E-01-4.83465E-03-1.10737E+00 1.18611E-13-2.72557E-13
 -1      2424 2.33748E+01-6.55848E-01-8.95798E-03-1.40589E+00 1.84121E-13-2.48861E-13
 -1      2425 2.37856E+01-7.37545E-01 1.30484E-02-1.68690E+00 1.17509E-13-3.60374E-13
 -1      2426 2.34533E+01-7.41583E-01 1.52606E-03-3.74038E-01-6.67114E-14-2.67407E-13
 -1      2427 2.34026E+01-7.87199E-01-1.85727E-02-6.92086E-01 5.89867E-14-1.93616E-13
 -1      2428 2.36272E+01-1.06005E+00 5.26240E-03-8.82780E-01 4.31001E-14-2.21680E-13
 -1      2429 2.31529E+01-5.47008E-01 3.47768E-03 2.27997E-01-4.26178E-14-2.99354E-13
 -1      2430 2.32160E+01-6.58600E-01-1.91284E-02-2.29257E-02-8.09058E-14-2.42462E-13
 -1      2431 2.32371E+01-9.69804E-01-2.19097E-03-8.93860E-02-6.44831E-14-2.55235E-13
 -1      2432 2.27619E+01-3.19674E-01 3.23341E-03 6.19131E-01 6.70926E-14-3.19076E-13
 -1      2433 2.29031E+01-4.33821E-01-1.46197E-02 4.61111E-01 5.25769E-14-2.72558E-13
 -1      2434 2.27663E+01-6.86540E-01-5.34636E-03 5.00544E-01 7.40467E-15-1.34959E-13
 -1      2435 2.23507E+01-1.32238E-01 2.35656E-03 8.14899E-01 2.83454E-13-3.83573E-13
 -1      2436 2.25345E+01-2.20426E-01-8.84388E-03 7.39826E-01 1.33537E-13-3.46318E-13
 -1      2437 2.23087E+01-3.82942E-01-5.40762E-03 8.50911E-01 1.64523E-13-1.87166E-13
 -1      2438 2.19568E+01-4.72265E-03 1.59767E-03 8.66416E-01 1.56506E-13-2.12156E-13
 -1      2439 2.21554E+01-6.18516E-02-3.84687E-03 8.51416E-01 3.13223E-13-2.65823E-13
 -1      2440 2.19015E+01-1.41868E-01-4.34135E-03 1.00214E+00 2.10555E-13-2.07911E-13
 -1      2441 2.15980E+01 6.92420E-02 1.13708E-03 8.26744E-01-1.51664E-13-3.24663E-13
 -1      2442 2.17923E+01 3.78715E-02-2.62211E-04 8.48960E-01 4.47465E-14-2.74787E-13
 -1      2443 2.15512E+01 1.79725E-02-3.23645E-03 1.01489E+00 9.80699E-14-6.49948E-14
 -1      2444 2.12819E+01 1.04158E-01 8.99015E-04 7.37954E-01-3.03102E-13-3.95090E-13
 -1      2445 2.14601E+01 9.07859E-02 1.95779E-03 7.79535E-01-2.69641E-13-3.66291E-13
 -1      2446 2.12533E+01 1.08187E-01-2.44428E-03 9.43953E-01-1.15106E-13-2.66267E-13
 -1      2447 2.10105E+01 1.14016E-01 7.82533E-04 6.29033E-01-2.14510E-13-4.13304E-13
 -1      2448 2.11667E+01 1.11815E-01 3.10613E-03 6.77861E-01-2.79535E-13-4.75949E-13
 -1      2449 2.10014E+01 1.48717E-01-1.95950E-03 8.30404E-01-2.09697E-13-4.44578E-13
 -1      2450 2.07826E+01 1.09468E-01 7.15519E-04 5.17973E-01-9.08702E-14-2.71217E-13
 -1      2451 2.09148E+01 1.13457E-01 3.51493E-03 5.66672E-01-1.56431E-13-3.85580E-13
 -1      2452 2.07899E+01 1.57845E-01-1.67143E-03 7.01780E-01-2.14366E-13-4.92429E-13
 -1      2453 2.05951E+01 9.76964E-02 6.59902E-04 4.14812E-01-1.61299E-13-1.78267E-13
 -1      2454 2.07039E+01 1.04607E-01 3.46431E-03 4.59391E-01-1.30050E-13-2.36843E-13
 -1      2455 2.06141E+01 1.49216E-01-1.48013E-03 5.74893E-01-1.94160E-13-5.04746E-13
 -1      2456 2.04439E+01 8.31491E-02 6.00552E-04 3.24326E-01-1.39995E-13 1.31571E-15
 -1      2457 2.05312E+01 9.10006E-02 3.16022E-03 3.62994E-01-1.33141E-13-4.57214E-14
 -1      2458 2.04700E+01 1.31925E-01-1.32439E-03 4.58946E-01-2.16059E-13-4.61858E-13
 -1      2459 2.03242E+01 6.83844E-02 5.34728E-04 2.48051E-01 6.85576E-14-2.07431E-15
 -1      2460 2.03928E+01 7.60655E-02 2.74075E-03 2.80346E-01 3.23050E-14 1.48376E-13
 -1      2461 2.03535E+01 1.11559E-01-1.17612E-03 3.58134E-01-8.29574E-14-2.30178E-13
 -1      2462 2.02311E+01 5.47442E-02 4.64950E-04 1.85666E-01 1.83982E-14-9.46112E-14
 -1      2463 2.02839E+01 6.16936E-02 2.29172E-03 2.11865E-01 1.07312E-13 4.13162E-14
 -1      2464 2.02607E+01 9.13006E-02-1.02735E-03 2.73570E-01 1.14955E-13-1.71984E-13
 -1      2465 2.01601E+01 4.28303E-02 3.95112E-04 1.35887E-01 1.82470E-13-2.89629E-13
 -1      2466 2.01999E+01 4.88169E-02 1.86225E-03 1.56636E-01 5.56918E-14-1.18413E-13
 -1      2467 2.01882E+01 7.27920E-02-8.79732E-04 2.04598E-01 1.00942E-13-2.50580E-13
 -1      2468 2.01071E+01 3.28148E-02 3.28696E-04 9.70196E-02 1.44522E-13-2.40557E-13
 -1      2469 2.01364E+01 3.77964E-02 1.47737E-03 1.13103E-01 1.85819E-13-2.31342E-13
 -1      2470 2.01324E+01 5.67418E-02-7.38049E-04 1.49651E-01 1.26777E-13-2.23308E-13
 -1      2471 2.00682E+01 2.46353E-02 2.68153E-04 6.72793E-02 1.83976E-13-2.72273E-13
 -1      2472 2.00893E+01 2.86702E-02 1.14711E-03 7.94966E-02 1.43588E-13-2.58162E-13
 -1      2473 2.00903E+01 4.33202E-02-6.06958E-04 1.06788E-01 1.70622E-13-1.07579E-13
 -1      2474 2.00404E+01 1.81123E-02 2.14864E-04 4.49723E-02 2.64139E-13-1.01240E-13
 -1      2475 2.00552E+01 2.13068E-02 8.72653E-04 5.40670E-02 1.88200E-13-2.12325E-13
 -1      2476 2.00591E+01 3.24056E-02-4.89701E-04 7.40081E-02 1.53513E-13-1.61800E-13
 -1      2477 2.00211E+01 1.30191E-02 1.69317E-04 2.85831E-02 8.43957E-14 1.14347E-13
 -1      2478 2.00311E+01 1.54965E-02 6.50361E-04 3.52105E-02 2.11681E-13 9.52562E-14
 -1      2479 2.00365E+01 2.37339E-02-3.87890E-04 4.94284E-02 1.49199E-13 8.06654E-14
 -1      2480 2.00082E+01 9.12083E-03 1.31352E-04 1.68094E-02 7.14966E-15 2.89799E-13
 -1      2481 2.00147E+01 1.10043E-02 4.74241E-04 2.15267E-02 9.07137E-14 1.98391E-13
 -1      2482 2.00206E+01 1.69866E-02-3.01755E-04 3.13725E-02 1.16348E-14 1.65234E-13
 -1      2483 1.99999E+01 6.19586E-03 1.00379E-04 8.56581E-03 2.78934E-14 1.47747E-13
 -1      2484 2.00039E+01 7.59926E-03 3.37479E-04 1.18330E-02-3.86158E-15 2.57148E-13
 -1      2485 2.00098E+01 1.18400E-02-2.30527E-04 1.84026E-02 1.04748E-13 2.97858E-13
 -1      2486 1.99951E+01 4.04579E-03 7.55521E-05 2.96992E-03-1.25581E-13 1.64120E-13
 -1      2487 1.99972E+01 5.06967E-03 2.33312E-04 5.15781E-03 6.92439E-14 1.58736E-13
 -1      2488 2.00027E+01 7.99192E-03-1.72812E-04 9.32191E-03-6.47035E-15 3.19902E-13
 -1      2489 1.99926E+01 2.49900E-03 5.58861E-05-6.79357E-04-1.01011E-13 1.01582E-13
 -1      2490 1.99935E+01 3.22958E-03 1.55496E-04 7.21459E-04-2.17527E-13 1.56992E-13
 -1      2491 1.99983E+01 5.17341E-03-1.26898E-04 3.15854E-03-1.51966E-13 2.38660E-13
 -1      2492 1.99918E+01 1.41019E-03 4.03308E-05-2.92611E-03-2.74548E-13 1.92510E-13
 -1      2493 1.99919E+01 1.92005E-03 9.85327E-05-2.08766E-03-1.37715E-13 1.06360E-13
 -1      2494 1.99959E+01 3.15281E-03-9.09817E-05-8.58827E-04-1.87470E-13 2.17894E-13
 -1      2495 1.99920E+01 6.57715E-04 2.78190E-05-4.18123E-03-8.34405E-14-4.29639E-14
 -1      2496 1.99916E+01 1.00741E-03 5.77419E-05-3.73744E-03-2.09620E-13-1.34184E-14
 -1      2497 1.99948E+01 1.73435E-03-6.33175E-05-3.32781E-03-1.12247E-13 1.76602E-13
 -1      2498 1.99929E+01 1.39781E-04 1.73206E-05-4.74368E-03 2.32643E-13-1.00720E-13
 -1      2499 1.99921E+01 3.79999E-04 2.92417E-05-4.57475E-03 1.16090E-13-7.55411E-14
 -1      2500 1.99947E+01 7.54258E-04-4.23037E-05-4.69846E-03 4.95831E-14-2.57330E-13
 -1      2501 1.99941E+01-2.29967E-04 7.90373E-06-4.81883E-03 4.17308E-13-2.98560E-14
 -1      2502 1.99932E+01-5.60403E-05 9.92734E-06-4.84532E-03 2.88748E-13 8.82672E-14
 -1      2503 1.99951E+01 7.53280E-05-2.65929E-05-5.29705E-03 1.90086E-13-1.41098E-13
 -1      2504 1.99955E+01-5.26583E-04-6.98269E-07-4.53342E-03 5.35616E-14 2.32153E-13
 -1      2505 1.99945E+01-3.81709E-04-2.68219E-06-4.71063E-03 2.91606E-13 2.40321E-13
 -1      2506 1.99958E+01-4.18786E-04-1.51348E-05-5.34746E-03 1.96506E-13 1.29778E-13
 -1      2507 1.99968E+01-8.16264E-04-7.97528E-06-3.94895E-03-2.43019E-13 3.01824E-13
 -1      2508 1.99959E+01-6.71630E-04-1.11626E-05-4.26246E-03-4.74369E-14 3.22111E-13
 -1      2509 1.99967E+01-8.23761E-04-5.64233E-06-4.99150E-03-6.63950E-14 5.56651E-13
 -1      2510 1.99980E+01-1.13353E-03-1.55288E-05-3.09136E-03-4.20644E-13 3.41149E-13
 -1      2511 1.99973E+01-9.66494E-04-1.29452E-05-3.53049E-03-4.21329E-13 2.74296E-13
 -1      2512 1.99977E+01-1.23530E-03 3.36168E-06-4.30359E-03-3.52619E-13 2.43635E-13
 -1      2513 1.99985E+01-1.27904E-03-1.15389E-05-2.50116E-03-1.41869E-13 4.19960E-13
 -1      2514 2.00009E+01-5.29605E-03 1.75698E-05-3.00514E-03 2.51992E-13-2.45434E-13
 -1      2515 2.00007E+01-4.82002E-03 2.31233E-06-3.34946E-03 1.88441E-13-6.54632E-13
 -1      2516 2.00012E+01-5.92916E-03 1.83173E-05-2.05180E-03 1.47056E-13-1.63868E-14
 -1      2517 2.00010E+01-5.58712E-03 9.34351E-06-2.52508E-03 9.97333E-14-1.86967E-14
 -1      2518 2.00013E+01-4.65521E-03-9.79393E-06-3.07584E-03 2.19327E-13-1.46958E-13
 -1      2519 1.99998E+01-3.40213E-03 1.44709E-05-3.90045E-03-2.22608E-13 1.39952E-13
 -1      2520 1.99994E+01-2.78986E-03-1.89072E-05-3.83608E-03-2.94550E-13 2.01036E-13
 -1      2521 2.00004E+01-4.43024E-03 1.58700E-05-3.65983E-03-7.70150E-14-6.03683E-13
 -1      2522 2.00001E+01-3.87102E-03-6.43994E-06-3.81760E-03-1.86059E-13-9.19544E-14
 -1      2523 1.99999E+01-3.19020E-03-7.67661E-06-4.32779E-03-2.78317E-13 7.59350E-15
 -1      2524 2.00007E+01-4.00599E-03-7.93493E-06-3.90907E-03 1.28551E-13-3.33701E-13
 -1      2525 2.00014E+01-6.28453E-03 1.83668E-05-9.15869E-04-6.43068E-14 1.69299E-13
 -1      2526 2.00013E+01-6.10653E-03 1.44547E-05-1.46365E-03 4.75300E-14-6.62860E-14
 -1      2527 2.00017E+01-5.10435E-03-1.07267E-05-1.95170E-03 8.47104E-14-9.24393E-14
 -1      2528 2.00014E+01-6.34178E-03 1.72929E-05 2.96034E-04-1.90836E-13 2.83532E-13
 -1      2529 2.00014E+01-6.34336E-03 1.73017E-05-2.75682E-04-2.18521E-13 3.19916E-13
 -1      2530 2.00019E+01-5.33162E-03-1.10066E-05-6.60968E-04-2.12800E-13 9.11730E-14
 -1      2531 2.00013E+01-6.09983E-03 1.46507E-05 1.48253E-03-7.08568E-14-1.80371E-13
 -1      2532 2.00014E+01-6.28102E-03 1.82597E-05 9.35757E-04-1.23402E-13 1.11715E-14
 -1      2533 2.00019E+01-5.32970E-03-1.09573E-05 6.83365E-04-2.06452E-13 2.10329E-13
 -1      2534 2.00011E+01-5.58719E-03 9.50234E-06 2.52471E-03 1.81346E-13-4.42146E-13
 -1      2535 2.00012E+01-5.92500E-03 1.81580E-05 2.06023E-03 2.70271E-14-2.39096E-13
 -1      2536 2.00017E+01-5.10182E-03-1.06965E-05 1.96206E-03 9.42440E-14-1.16519E-13
 -1      2537 2.00007E+01-4.82064E-03 2.03263E-06 3.34959E-03 4.44418E-13-1.71843E-13
 -1      2538 2.00009E+01-5.29636E-03 1.74444E-05 3.00531E-03 4.05019E-13-5.60374E-13
 -1      2539 2.00013E+01-4.65555E-03-9.57148E-06 3.07593E-03 3.20589E-13-3.11083E-13
 -1      2540 2.00001E+01-3.86006E-03-7.72590E-06 3.81841E-03 2.74609E-13-2.27717E-13
 -1      2541 2.00004E+01-4.42640E-03 1.59372E-05 3.66180E-03 3.20367E-13-2.40810E-14
 -1      2542 2.00007E+01-3.99784E-03-5.04054E-06 3.91531E-03 3.23033E-13-2.66637E-13
 -1      2543 1.99993E+01-2.76953E-03-1.52836E-05 3.81263E-03 6.04921E-14-5.59289E-13
 -1      2544 1.99997E+01-3.38465E-03 1.08745E-05 3.90297E-03 1.13091E-13-4.76586E-13
 -1      2545 2.00000E+01-3.16982E-03-1.96237E-06 4.32502E-03 6.83104E-14-4.09698E-13
 -1      2546 4.17371E+00-3.10159E+00 3.86806E-02 3.27446E+00-1.64369E-13 1.03062E-12
 -1      2547 3.05742E+00-3.01850E+00 7.37368E-02 1.00957E+00-1.62290E-13 1.23079E-12
 -1      2548 1.84214E+01-5.46634E+00-3.00936E-02 6.61316E+00-1.78413E-13-2.19269E-14
 -1      2549 1.44397E+01-5.34245E+00 6.09378E-02 6.66628E+00-2.53575E-13 2.50897E-13
 -1      2550 2.18624E+01 1.18344E-01 9.59303E-04-7.64979E-01 2.10729E-13 8.28244E-15
 -1      2551 2.17489E+01 2.12423E-01 1.33857E-02-6.81381E-01 2.46204E-13 5.09722E-14
 -1      2552 2.17208E+01 1.03511E-01-7.79334E-03-9.11553E-01 2.30576E-13-1.01517E-13
 -1      2553 3.23827E+01 3.49622E+00-8.56467E-02-9.02747E-01 9.40248E-13-7.75269E-13
 -1      2554 3.10472E+01 1.32767E+00-9.21601E-02-5.75886E-01 7.29805E-13-8.82877E-13
 -1      2555 1.99988E+01-1.93884E-03-8.12937E-06 3.01939E-03-5.90354E-14 5.04190E-14
 -1      2556 5.52782E+00-4.03768E+00 4.27561E-02-4.54827E+00 6.53366E-14 9.92428E-13
 -1      2557 8.56477E+00-4.47873E+00 5.50768E-03-6.16894E+00-9.27036E-15 9.48824E-13
 -1      2558 1.02430E+01-4.60615E+00 5.83919E-03 6.61030E+00-2.47580E-13 6.96054E-13
 -1      2559 6.96552E+00-3.92017E+00 8.29209E-02 5.18310E+00-3.01176E-13 8.65030E-13
 -1      2560 2.75776E+00-3.20965E+00 4.84139E-02-1.02129E+00-6.93751E-14 1.18588E-12
 -1      2561 3.48761E+00-3.52358E+00 2.76760E-02-2.90583E+00-5.83977E-14 9.67393E-13
 -1      2562 3.29635E+01 7.08623E+00-1.21185E-01 6.05231E-01-1.20620E-12-2.18076E-13
 -1      2563 3.39791E+01 7.53007E+00-5.38408E-02 1.75074E-01-1.23451E-12-1.79385E-13
 -1      2564 3.17392E+01 4.09935E+00-9.37931E-02 1.12939E+00 1.03878E-12-1.12188E-13
 -1      2565 3.19009E+01 5.90165E+00-1.64416E-01 1.07201E+00 1.19532E-12-1.30923E-13
 -1      2566 1.80859E+01 4.19854E+00-8.59259E-03-3.40938E-02-5.45469E-14-8.34316E-13
 -1      2567 1.81981E+01 4.16122E+00-4.84855E-03-9.23658E-02-1.19060E-13-8.20692E-13
 -1      2568 1.83453E+01 3.83950E+00 2.66481E-03-3.69890E-02-1.36721E-13-7.55871E-13
 -1      2569 1.81099E+01 3.96469E+00 3.16358E-03-6.47843E-03-3.64533E-14-7.88069E-13
 -1      2570 3.21319E+01 7.31363E+00-1.44039E-01 1.69907E-01 1.31195E-12-4.18714E-13
 -1      2571 3.33419E+01 7.48725E+00-4.11585E-02-3.24225E-01 1.27059E-12-5.25746E-13
 -1      2572 2.02212E+01-5.48895E+00 1.12303E-02-5.98466E+00 1.08996E-13-8.74870E-13
 -1      2573 2.38052E+01-4.91325E+00-6.56007E-02-5.29938E+00 2.60125E-13-7.76740E-13
 -1      2574 3.32801E+01 6.76406E+00-9.31469E-02-7.34854E-01 1.18294E-12-6.22183E-13
 -1      2575 3.25281E+01 5.47901E+00-1.16554E-01-1.03197E+00 1.10090E-12-6.61027E-13
 -1      2576 3.06787E+01 6.74801E+00-5.72263E-02-8.50690E-01 1.14592E-12-5.08545E-13
 -1      2577 3.05410E+01-2.05270E-01-6.01779E-02-3.02949E-02 6.22037E-13-1.25733E-13
 -1      2578 3.11133E+01 1.37489E+00-1.91692E-01 6.75210E-01 7.88938E-13-4.11338E-14
 -1      2579 2.79834E+01-3.45375E+00-6.85212E-02 2.90372E+00-3.59712E-13-1.08247E-13
 -1      2580 2.51713E+01-4.70447E+00-8.71926E-03 3.94552E+00-9.54792E-14-2.10859E-13
 -1      2581 2.68223E+01-3.80301E+00-1.71562E-02-3.24842E+00 2.71783E-13-5.51226E-13
 -1      2582 2.95155E+01-2.14187E+00-1.18870E-01-1.71869E+00 4.49453E-13-3.29570E-13
 -1      2583 2.91754E+01-1.92223E+00-1.46773E-02-1.45583E-01 2.50652E-13 7.66054E-14
 -1      2584 1.20664E+01-4.82947E+00 7.59899E-02-6.69985E+00-1.30285E-13-1.18908E-12
 -1      2585 1.62353E+01-5.38481E+00 5.90368E-03-7.05660E+00 5.05151E-14-1.09720E-12
 -1      2586 4.73543E+00-3.63804E+00 5.14379E-02-3.80468E+00 9.88098E-15-1.40477E-12
 -1      2587 7.49781E+00-3.67676E+00 4.48043E-02-5.51951E+00-6.78346E-14-1.35328E-12
 -1      2588 3.40634E+00-2.43835E+00 1.14913E-01 2.91629E-01 1.02208E-13-1.40010E-12
 -1      2589 3.47209E+00-3.04376E+00 5.21626E-02-2.03204E+00 1.13354E-13-1.41559E-12
 -1      2590 5.85678E+00-1.96776E+00 1.50461E-01-2.80550E+00-1.05055E-14-1.36649E-12
 -1      2591 1.43156E+01-4.99896E+00 5.73383E-02 7.05087E+00 1.70308E-13-8.36803E-13
 -1      2592 1.13982E+01-4.47112E+00 1.03438E-01 6.52865E+00 2.49467E-13-8.88123E-13
 -1      2593 2.60100E+01-4.12231E+00-1.16128E-02-3.68632E+00-5.16254E-14 2.08528E-13
 -1      2594 2.82960E+01-3.09405E+00-1.55392E-01-2.41353E+00-1.32921E-13-2.14551E-14
 -1      2595 2.19256E+01-5.39389E+00-3.39112E-02 5.78266E+00 8.51819E-14-4.18908E-13
 -1      2596 1.77800E+01-5.54508E+00 2.73938E-02 6.44538E+00 1.88793E-13-6.36649E-13
 -1      2597 1.81054E+01-4.99521E+00 8.77369E-02 6.28955E+00 4.58189E-13-5.16989E-13
 -1      2598 3.12703E+01 3.86466E-01-1.35320E-01 1.47731E-01-7.36536E-13 1.29702E-13
 -1      2599 2.95563E+01-1.68544E+00-6.36442E-02 1.27848E+00-5.16590E-13 3.33067E-14
 -1      2600 2.86375E+01-2.96375E+00 1.30358E-02 9.81274E-01-2.29448E-13 2.40058E-13
 -1      2601 3.27981E+01 4.85098E+00-9.95387E-02-8.46073E-01-1.14503E-12 9.33698E-14
 -1      2602 3.17885E+01 3.13946E+00-9.22499E-02-8.57496E-01-9.65228E-13 1.71363E-13
 -1      2603 3.39322E+01 7.33897E+00-7.80959E-02-2.39555E-01-1.25588E-12-1.26378E-13
 -1      2604 3.33979E+01 6.55185E+00-1.02805E-01-5.20105E-01-1.24345E-12-3.50553E-14
 -1      2605 3.22474E+01 4.18904E+00-8.14922E-02 1.15703E+00-1.05732E-12-3.72258E-13
 -1      2606 3.25699E+01 5.54648E+00-1.43003E-01 1.09315E+00-1.15014E-12-2.99816E-13
 -1      2607 3.03304E+01-5.37957E-01-2.10262E-02-3.75728E-01-4.44221E-13-2.89491E-13
 -1      2608 3.18289E+01 1.74637E+00-1.38401E-01 5.46679E-01-7.82679E-13-4.16611E-13
 -1      2609 1.95975E+01-5.57417E+00 1.26063E-02-5.97969E+00 1.66811E-13 4.08354E-13
 -1      2610 2.32229E+01-4.91211E+00-3.54188E-02-5.29086E+00 3.00593E-14 3.40561E-13
 -1      2611 2.49619E+01-5.03121E+00 7.65469E-02-3.83315E+00 2.75974E-13 5.91194E-14
 -1      2612 1.24681E+01-5.17503E+00 4.77198E-02-6.60890E+00 2.48135E-14 5.44884E-13
 -1      2613 1.59424E+01-5.32780E+00-1.62832E-03-6.89733E+00 7.23310E-14 4.12351E-13
 -1      2614 2.14556E+01 2.00533E+00-9.47201E-03-1.11335E+00-5.79307E-13-9.72104E-14
 -1      2615 2.14869E+01 1.27902E+00-4.64455E-03-4.71506E-01-5.21700E-13-5.73540E-14
 -1      2616 2.12350E+01 1.47920E+00-1.62837E-04-3.17592E-01-4.77656E-13-1.82113E-13
 -1      2617 2.09665E+01 2.47324E+00-6.43776E-03-1.00709E+00-5.70588E-13-2.67524E-13
 -1      2618 2.18080E+01 8.96150E-01-2.68190E-03 5.38175E-01 5.51026E-13 2.42163E-13
 -1      2619 2.20166E+01 1.25918E+00-4.49389E-03 1.05662E+00 5.89490E-13 3.12680E-13
 -1      2620 2.17105E+01 1.72558E+00-1.61076E-02 1.18974E+00 6.32199E-13 1.01670E-13
 -1      2621 2.15941E+01 1.10467E+00-1.06044E-02 4.27748E-01 5.51581E-13 1.91113E-14
 -1      2622 2.55788E+01-4.36816E+00-4.90151E-02 4.26919E+00 7.84650E-14-5.54695E-13
 -1      2623 2.23917E+01-5.25348E+00 1.90219E-02 5.11278E+00-1.43802E-13-2.80553E-13
 -1      2624 2.68953E+01-4.28571E+00 4.05638E-02 2.48077E+00-1.35725E-13-8.79644E-13
 -1      2625 3.00593E+01 2.28413E+00-6.51951E-02 1.71124E+00 7.39991E-13 2.17992E-13
 -1      2626 1.94316E+01 3.22291E+00 2.93745E-03-2.68062E-01-3.66040E-13-6.53016E-13
 -1      2627 1.94735E+01 3.46693E+00-1.80665E-02-4.83123E-01-3.92371E-13-6.80367E-13
 -1      2628 1.98437E+01 3.30024E+00-1.13856E-02-6.41732E-01-4.64394E-13-6.18887E-13
 -1      2629 2.15508E+01 3.70126E-01-6.93136E-03-6.57392E-01 3.19826E-13-8.10046E-14
 -1      2630 2.12791E+01 2.16315E+00-1.32725E-02 1.09126E+00 6.09617E-13-1.38311E-13
 -1      2631 2.05367E+01 2.75891E+00-1.38779E-02-8.32477E-01-5.14331E-13-4.17598E-13
 -1      2632 1.90976E+01-5.37633E+00 9.83333E-02-6.08327E+00 3.59573E-13 2.84056E-13
 -1      2633 2.90943E+01-2.24137E+00 4.60827E-03-5.41001E-01-1.49573E-13-3.44724E-13
 -1      2634 1.20392E+01-4.17353E+00 1.25053E-01-6.36657E+00 1.99729E-13 5.87946E-13
 -1      2635 3.05577E+01 2.33551E+00-5.54258E-02 1.64418E+00-7.44432E-13-5.24636E-13
 -1      2636 1.99985E+01-1.64781E-03-8.93457E-06-3.25974E-03-3.49180E-13 1.37556E-13
 -1      2637 2.15224E+01-5.43424E+00 7.82505E-02 5.35307E+00-3.64625E-13-3.60455E-13
 -1      2638 1.99988E+01-2.10493E-03 4.30180E-06-3.56476E-03-3.00359E-13 1.27637E-13
 -1      2639 3.14582E+01 7.26095E+00-3.61425E-02-1.62764E-01-1.21220E-12 2.86923E-15
 -1      2640 4.52591E+00-1.91616E+00 1.46125E-01 3.35824E-02-1.70881E-13 1.21408E-12
 -1      2641 7.31486E+00-2.61468E+00 1.64058E-01 4.26124E+00-3.44363E-13 9.21929E-13
 -1      2642 1.39121E+01-4.48165E+00 1.29876E-01 6.49525E+00-5.13534E-13 2.82704E-13
 -1      2643 2.43927E+01-5.17793E+00 6.27332E-02 4.10050E+00 2.25236E-13-1.37515E-13
 -1      2644 2.11888E+01 1.90509E+00 1.14221E-02 7.12043E-01 5.55784E-13-1.71461E-13
 -1      2645 3.06822E+01 4.09170E+00-7.28301E-02-1.75499E+00 8.65363E-13-7.55868E-13
 -1      2646 1.99983E+01-1.48604E-03-1.86339E-05 3.46501E-03-2.98264E-14 2.63361E-13
 -1      2647 1.99990E+01-2.27212E-03 5.35559E-06 3.78072E-03 3.84393E-14-2.87864E-13
 -1      2648 1.99990E+01-2.22771E-03-1.96650E-06 4.33400E-03-9.66086E-14-3.69343E-13
 -1      2649 1.99978E+01-1.33358E-03-1.59992E-05 3.93390E-03 1.37816E-13 4.03998E-13
 -1      2650 6.30738E+00-2.71203E+00 1.27641E-01-3.96537E+00 4.05648E-14 9.76580E-13
 -1      2651 4.64348E+00-2.14055E+00 1.50289E-01 1.72919E+00 1.97092E-13-1.37046E-12
 -1      2652 5.83335E+00-1.03801E+00 1.70498E-01 6.87561E-01 1.39225E-13-1.30917E-12
 -1      2653 6.17071E+00-1.77004E+00 8.88748E-02 3.20409E+00 2.58044E-13-1.25649E-12
 -1      2654 1.32930E+01-3.39147E+00 8.72846E-02 6.06220E+00 5.09467E-13-7.40033E-13
 -1      2655 1.00791E+01-3.66000E+00 1.03048E-01 6.03377E+00 2.66981E-13-9.74193E-13
 -1      2656 9.11884E+00-2.29106E+00 2.27571E-01 5.12295E+00 3.79100E-13-1.01463E-12
 -1      2657 2.59857E+01-4.68299E+00 4.67182E-02-3.43277E+00-7.64666E-15-3.48527E-13
 -1      2658 3.03241E+01 1.16531E+00-5.83147E-02-1.21934E+00-6.85549E-13 3.82500E-13
 -1      2659 2.89170E+01 5.23570E+00-9.60285E-02 1.52064E+00 9.60787E-13 1.08746E-13
 -1      2660 3.07363E+01 6.26388E+00-1.47505E-01 8.99739E-01 1.13515E-12-1.57666E-13
 -1      2661 2.88686E+01 6.44429E+00-1.83465E-01 5.41383E-01 1.01019E-12-1.73458E-13
 -1      2662 3.10479E+01 6.08326E+00-7.69286E-02 1.30969E+00-1.12843E-12-2.59973E-13
 -1      2663 1.94505E+01-5.44229E+00 6.05870E-02-6.19186E+00-2.15800E-13-8.06204E-13
 -1      2664 3.00908E+01-6.68959E-01-8.53907E-02-4.12816E-01 4.30864E-13-1.01569E-12
 -1      2665 2.87047E+01-2.12660E+00 1.81999E-02-1.59967E-01 1.03202E-13-1.09804E-12
 -1      2666 2.93127E+01 3.16494E-01-1.31000E-01-1.66974E+00 4.02109E-13-1.08694E-12
 -1      2667 1.07699E+01-3.93019E+00 1.17644E-01-6.30168E+00-1.94400E-13-1.23859E-12
 -1      2668 1.39836E+01-4.03256E+00 6.77133E-02-6.42329E+00-3.80029E-13-9.92539E-13
 -1      2669 9.95499E+00-2.74408E+00 1.59707E-01-5.54695E+00-2.28179E-13-1.18894E-12
 -1      2670 3.08884E+01 5.43459E+00-6.12803E-02-1.46246E+00-1.08258E-12 2.83912E-13
 -1      2671 1.99988E+01-2.09737E-03-9.71337E-06-4.18345E-03-3.86167E-13 2.59164E-13
 -1      2672 1.99983E+01-1.59444E-03-6.42816E-07 4.55059E-03 5.12890E-15 2.56485E-13
 -1      2673 1.84378E+01 3.49873E+00-2.05898E-03-5.02254E-02 1.95036E-13-7.48351E-13
 -1      2674 1.82438E+01 3.59004E+00-8.08272E-03-7.10650E-02 1.46008E-13-7.52137E-13
 -1      2675 1.81091E+01 3.68112E+00-3.56036E-03-2.95522E-02 1.12061E-13-7.60620E-13
 -1      2676 1.80376E+01 3.71422E+00-5.86666E-03-3.05529E-02 5.61056E-14-7.50952E-13
 -1      2677 1.81884E+01 3.38926E+00 7.05560E-03-1.18639E-01 1.19231E-13-7.21128E-13
 -1      2678 1.96814E+01 2.73202E+00-4.87154E-03 1.09391E-01 3.81620E-13-5.70795E-13
 -1      2679 1.93150E+01 2.94829E+00-9.82084E-03 2.60767E-02 3.29554E-13-6.14717E-13
 -1      2680 2.04741E+01 2.15316E+00-6.06337E-03 2.57674E-01 4.70287E-13-4.12678E-13
 -1      2681 2.00691E+01 2.45168E+00-7.95125E-03 1.69201E-01 4.16416E-13-4.96464E-13
 -1      2682 1.99519E+01 2.26472E+00 4.38174E-03-9.91330E-02 3.72019E-13-4.88329E-13
 -1      2683 2.12805E+01 8.42144E-01-8.84470E-04-3.50004E-01 3.96944E-13-1.51501E-13
 -1      2684 2.13073E+01 1.07175E+00 1.06910E-02-4.51202E-02 4.49862E-13-1.30683E-13
 -1      2685 2.90699E+01 4.50581E+00-1.73659E-01-1.91612E+00 8.81156E-13-7.80598E-13
 -1      2686 2.90060E+01 2.76961E+00-1.43289E-01-2.15163E+00 6.47260E-13-9.58761E-13
 -1      2687 2.71995E+01-4.01329E+00-1.31228E-01 1.42849E+00-8.94146E-14-9.80979E-13
 -1      2688 2.58267E+01-4.68999E+00 7.55919E-02 2.62654E+00-2.23585E-13-8.96450E-13
 -1      2689 2.11231E+01 1.61985E+00-1.31475E-03 3.72016E-01 5.05203E-13-2.06622E-13
 -1      2690 2.85211E+01 9.79948E-01-3.26322E-02 2.01882E+00 4.54886E-13 3.88897E-13
 -1      2691 2.84463E+01 2.82128E+00-2.21730E-01 2.03238E+00 7.11639E-13 2.57655E-13
 -1      2692 2.10894E+01 7.55220E-01 1.04032E-02 7.31886E-01-2.79547E-13-2.04043E-13
 -1      2693 2.11340E+01 5.42101E-01-1.50365E-03 9.29525E-01-2.31098E-13-2.11622E-13
 -1      2694 2.12236E+01 3.39487E-01 1.13148E-02 1.10601E+00-1.87149E-13-1.95070E-13
 -1      2695 2.13317E+01 1.16701E-01-1.80556E-03 1.20577E+00-1.58400E-13-1.90717E-13
 -1      2696 2.08496E+01 5.67195E-01-7.91278E-03 1.08823E+00-2.20543E-13-2.62884E-13
 -1      2697 2.15027E+01-1.13234E-01 1.36878E-02 1.29698E+00-1.16811E-13-1.56896E-13
 -1      2698 2.16809E+01-3.79770E-01-4.09555E-03 1.28849E+00-7.75296E-14-1.50325E-13
 -1      2699 2.10647E+01 3.58917E-02-1.25295E-02 1.38735E+00-1.22025E-13-2.39978E-13
 -1      2700 2.19756E+01-6.55924E-01 1.80666E-02 1.26822E+00-5.17670E-14-1.19740E-13
 -1      2701 2.22215E+01-9.69035E-01-8.58841E-03 1.12923E+00-5.74230E-14-1.17559E-13
 -1      2702 2.14729E+01-5.93940E-01-1.80899E-02 1.50005E+00-5.48801E-14-2.29588E-13
 -1      2703 2.26714E+01-1.26856E+00 2.27095E-02 9.52138E-01-5.63833E-14-4.33427E-14
 -1      2704 2.29615E+01-1.57057E+00-1.47606E-02 6.60192E-01-1.80628E-14-2.99312E-14
 -1      2705 2.21488E+01-1.32834E+00-2.26910E-02 1.35797E+00-3.03350E-14-1.26908E-13
 -1      2706 2.35523E+01-1.79532E+00 2.18719E-02 2.74926E-01 4.56318E-14 4.23619E-14
 -1      2707 2.38245E+01-1.93321E+00-2.11758E-02-1.58351E-01 8.47152E-15 1.11289E-13
 -1      2708 2.31279E+01-2.03377E+00-2.24857E-02 8.56950E-01 6.24058E-14 1.51550E-14
 -1      2709 2.44267E+01-1.86527E+00 5.85187E-03-7.54368E-01-4.57707E-14 2.31751E-13
 -1      2710 2.45744E+01-1.60353E+00-2.42165E-02-1.20779E+00-9.84568E-14 2.71557E-13
 -1      2711 2.43143E+01-2.34312E+00-1.69788E-02-1.01233E-01 4.78714E-14 2.29395E-13
 -1      2712 2.49756E+01-1.03421E+00-2.98504E-02-1.83204E+00-1.72167E-13 3.40408E-13
 -1      2713 2.49509E+01-1.60270E-01 2.12233E-03-2.06373E+00-2.29901E-13 3.30072E-13
 -1      2714 2.53221E+01-1.73767E+00-4.89018E-02-1.33085E+00-8.28539E-14 4.37249E-13
 -1      2715 2.48608E+01 8.85067E-01-8.58966E-02-2.22158E+00-3.69399E-13 2.96240E-13
 -1      2716 2.47192E+01 2.00168E+00-1.12526E-02-1.92286E+00-4.66537E-13 1.89853E-13
 -1      2717 2.58240E+01 3.30842E-01-1.93984E-02-2.23791E+00-3.28997E-13 5.17943E-13
 -1      2718 2.44669E+01 2.93944E+00-8.21756E-02-1.26997E+00-5.78787E-13-3.99420E-15
 -1      2719 2.43773E+01 3.48942E+00-4.08515E-02-4.56614E-01-6.24958E-13-1.52766E-13
 -1      2720 2.56037E+01 2.90677E+00-7.84799E-02-1.75629E+00-6.54574E-13 1.80647E-13
 -1      2721 2.43706E+01 3.47002E+00-4.79851E-02 6.68693E-01-6.00499E-13-3.49661E-13
 -1      2722 2.44949E+01 2.93493E+00-7.84315E-02 1.46734E+00-5.80008E-13-4.49900E-13
 -1      2723 2.53857E+01 4.23068E+00-8.77211E-02 1.09988E-01-7.63736E-13-1.74793E-13
 -1      2724 2.47197E+01 1.99304E+00-1.54474E-02 2.13515E+00-5.23553E-13-5.68191E-13
 -1      2725 2.49004E+01 8.68427E-01-8.15238E-02 2.42784E+00-3.47809E-13-6.03387E-13
 -1      2726 2.56112E+01 2.91535E+00-6.56011E-02 1.95691E+00-6.18262E-13-4.73104E-13
 -1      2727 2.49719E+01-1.83787E-01-3.42102E-03 2.24515E+00-1.59629E-13-6.15061E-13
 -1      2728 2.49809E+01-1.03784E+00-3.95692E-02 2.00174E+00-4.87110E-14-5.43500E-13
 -1      2729 2.58219E+01 2.40449E-01-2.81847E-02 2.39736E+00-2.65940E-13-5.37022E-13
 -1      2730 2.46232E+01-1.60140E+00-1.63529E-02 1.40853E+00 1.00035E-14-4.67646E-13
 -1      2731 2.44663E+01-1.88934E+00 3.79382E-03 9.30394E-01 8.53513E-14-4.27759E-13
 -1      2732 2.53338E+01-1.67622E+00-1.75032E-02 1.54593E+00 1.68650E-14-4.86612E-13
 -1      2733 2.38506E+01-1.94358E+00-2.15862E-02 3.31486E-01 1.47146E-13-3.39014E-13
 -1      2734 2.35801E+01-1.81682E+00 1.98763E-02-1.11521E-01 2.10966E-13-2.37117E-13
 -1      2735 2.42918E+01-2.36708E+00-1.79770E-02 2.62473E-01 1.87264E-13-3.19460E-13
 -1      2736 2.29815E+01-1.60478E+00-1.56744E-02-5.10369E-01 1.68075E-13-1.49508E-13
 -1      2737 2.26849E+01-1.32167E+00 2.04317E-02-8.20002E-01 1.45332E-13-1.34600E-13
 -1      2738 2.30903E+01-2.07291E+00-2.30250E-02-7.04278E-01 2.21756E-13-2.23402E-13
 -1      2739 2.22216E+01-1.04640E+00-8.58229E-03-1.02420E+00 3.59795E-14-1.40747E-13
 -1      2740 2.19564E+01-7.66623E-01 1.50742E-02-1.19727E+00-5.96976E-14-1.72496E-13
 -1      2741 2.20886E+01-1.41583E+00-2.16843E-02-1.25065E+00 6.47561E-14-1.98184E-13
 -1      2742 2.16412E+01-5.29649E-01-3.40670E-03-1.26557E+00-5.09128E-14-1.58879E-13
 -1      2743 2.14247E+01-3.15995E-01 9.29793E-03-1.33300E+00-3.31450E-14-1.78429E-13
 -1      2744 2.13744E+01-7.63852E-01-1.60765E-02-1.47446E+00-5.95047E-14-7.57309E-14
 -1      2745 2.12259E+01-1.47940E-01-2.63114E-04-1.31937E+00-2.48938E-15-1.65101E-13
 -1      2746 2.10549E+01-8.86015E-03 4.94582E-03-1.31600E+00-5.38225E-16-2.27795E-13
 -1      2747 2.09092E+01-2.64446E-01-1.02396E-02-1.49637E+00-4.09989E-14-1.86719E-13
 -1      2748 2.09344E+01 9.41890E-02 1.47301E-03-1.25799E+00-1.98136E-14-2.61134E-13
 -1      2749 2.07988E+01 1.72128E-01 2.08983E-03-1.21248E+00-3.04760E-14-2.05259E-13
 -1      2750 2.06206E+01 6.25188E-02-5.86612E-03-1.40503E+00-1.66464E-14-3.01593E-13
 -1      2751 2.07264E+01 2.25794E-01 2.35400E-03-1.13372E+00-7.68399E-14-2.74499E-13
 -1      2752 2.06170E+01 2.60681E-01 4.06964E-04-1.06681E+00 4.90268E-14-3.40738E-13
 -1      2753 2.04438E+01 2.47826E-01-3.13736E-03-1.25690E+00-8.60886E-14-2.54899E-13
 -1      2754 2.05724E+01 2.81178E-01 2.74332E-03-9.81630E-01 1.24752E-13-4.28484E-13
 -1      2755 2.04827E+01 2.88740E-01-4.75866E-04-9.07158E-01 6.51633E-14-4.90319E-13
 -1      2756 2.03328E+01 3.32885E-01-1.61446E-03-1.08616E+00-1.52578E-14-4.24252E-13
 -1      2757 2.04536E+01 2.89022E-01 2.83025E-03-8.24045E-01 8.59148E-14-4.60595E-13
 -1      2758 2.03794E+01 2.80874E-01-8.64068E-04-7.50629E-01 8.19288E-14-4.08195E-13
 -1      2759 2.02592E+01 3.53760E-01-8.44632E-04-9.13336E-01 5.58565E-14-3.61697E-13
 -1      2760 2.03590E+01 2.70087E-01 2.72387E-03-6.74321E-01-5.25395E-14-3.45558E-13
 -1      2761 2.02977E+01 2.54048E-01-9.68410E-04-6.06844E-01-1.27116E-13-4.16235E-13
 -1      2762 2.02067E+01 3.37256E-01-4.97493E-04-7.50449E-01 5.15785E-14-3.61642E-13
 -1      2763 2.02821E+01 2.38146E-01 2.49896E-03-5.39658E-01-3.26078E-14-3.30406E-13
 -1      2764 2.02318E+01 2.19122E-01-9.23642E-04-4.80478E-01 1.80265E-15-2.82451E-13
 -1      2765 2.01664E+01 3.01571E-01-3.62887E-04-6.04000E-01-1.95075E-14-2.10946E-13
 -1      2766 2.02194E+01 2.01736E-01 2.21025E-03-4.23174E-01-4.12275E-14-2.03344E-13
 -1      2767 2.01785E+01 1.82608E-01-8.10742E-04-3.73034E-01-6.15919E-14-1.96952E-13
 -1      2768 2.01339E+01 2.58252E-01-3.20895E-04-4.76855E-01 1.45304E-14-2.01541E-13
 -1      2769 2.01683E+01 1.65799E-01 1.89756E-03-3.25407E-01 5.51694E-14-1.01351E-13
 -1      2770 2.01355E+01 1.48119E-01-6.75649E-04-2.84075E-01 2.06559E-13 1.56413E-14
 -1      2771 2.01069E+01 2.14171E-01-3.09835E-04-3.69518E-01 7.35525E-14-1.37532E-13
 -1      2772 2.01271E+01 1.32943E-01 1.58842E-03-2.45364E-01 1.81108E-13-4.62591E-14
 -1      2773 2.01012E+01 1.17432E-01-5.42665E-04-2.12071E-01 1.52789E-13-4.35536E-14
 -1      2774 2.00844E+01 1.73098E-01-3.01938E-04-2.81025E-01 1.48866E-13 2.22680E-14
 -1      2775 2.00942E+01 1.04329E-01 1.30033E-03-1.81232E-01 1.27450E-13-2.75492E-14
 -1      2776 2.00742E+01 9.12082E-02-4.23319E-04-1.54964E-01-8.14439E-14 2.02527E-14
 -1      2777 2.00657E+01 1.36842E-01-2.87411E-04-2.09583E-01 1.05241E-13-2.42025E-15
 -1      2778 2.00685E+01 8.02573E-02 1.04308E-03-1.30854E-01-2.87116E-13 8.52030E-14
 -1      2779 2.00532E+01 6.94661E-02-3.21923E-04-1.10525E-01-2.43754E-13 1.29739E-14
 -1      2780 2.00503E+01 1.06020E-01-2.64969E-04-1.53011E-01-1.61473E-13-4.57779E-14
 -1      2781 2.00485E+01 6.05473E-02 8.20837E-04-9.20200E-02-1.92726E-13 3.93355E-14
 -1      2782 2.00371E+01 5.18770E-02-2.38933E-04-7.65818E-02-5.11280E-14-2.00312E-14
 -1      2783 2.00379E+01 8.05595E-02-2.36691E-04-1.09035E-01-2.79169E-13-1.14797E-13
 -1      2784 2.00334E+01 4.47717E-02 6.33964E-04-6.26407E-02 5.48265E-14-1.08061E-13
 -1      2785 2.00251E+01 3.79485E-02-1.72906E-04-5.11420E-02 4.77614E-14-2.69872E-14
 -1      2786 2.00280E+01 6.00220E-02-2.05459E-04-7.54699E-02-7.31184E-14-1.40267E-14
 -1      2787 2.00222E+01 3.24004E-02 4.80425E-04-4.08419E-02 1.58271E-14-2.02076E-13
 -1      2788 2.00162E+01 2.71346E-02-1.21613E-04-3.24526E-02-4.32665E-14-1.56909E-13
 -1      2789 2.00202E+01 4.37989E-02-1.73843E-04-5.03263E-02-4.30244E-14-2.90435E-13
 -1      2790 2.00140E+01 2.28850E-02 3.56861E-04-2.50028E-02-1.46170E-13-1.70796E-13
 -1      2791 2.00099E+01 1.88983E-02-8.26452E-05-1.90210E-02-2.09127E-13-2.16828E-13
 -1      2792 2.00142E+01 3.12320E-02-1.43730E-04-3.18626E-02-5.16245E-14-3.80150E-13
 -1      2793 2.00082E+01 1.57051E-02 2.59323E-04-1.37615E-02-6.07076E-14-1.60732E-13
 -1      2794 2.00054E+01 1.27454E-02-5.37216E-05-9.60946E-03 1.43854E-13-1.01173E-13
 -1      2795 2.00097E+01 2.16812E-02-1.16309E-04-1.85991E-02-9.00990E-14-3.95522E-13
 -1      2796 2.00042E+01 1.03927E-02 1.83775E-04-6.00229E-03 7.90688E-14-3.83017E-14
 -1      2797 2.00025E+01 8.23935E-03-3.28418E-05-3.21524E-03 3.30308E-15-5.82153E-14
 -1      2798 2.00064E+01 1.45611E-02-9.21859E-05-9.31018E-03 8.82241E-14-2.29825E-13
 -1      2799 2.00016E+01 6.54001E-03 1.26398E-04-8.31709E-04 3.94176E-14-9.12416E-15
 -1      2800 2.00005E+01 5.00481E-03-1.83290E-05 9.55790E-04 1.12662E-13 3.02875E-14
 -1      2801 2.00040E+01 9.35637E-03-7.15464E-05-3.00427E-03-2.09884E-14-3.02963E-13
 -1      2802 1.99999E+01 3.80028E-03 8.37702E-05 2.44954E-03 7.22756E-14 1.66072E-13
 -1      2803 1.99994E+01 2.72502E-03-8.84511E-06 3.51757E-03 7.46527E-14 6.61264E-14
 -1      2804 2.00022E+01 5.62513E-03-5.42963E-05 1.10287E-03 1.65265E-13-2.76865E-13
 -1      2805 1.99990E+01 1.88211E-03 5.29119E-05 4.37480E-03 2.74762E-14 9.49406E-14
 -1      2806 1.99988E+01 1.13462E-03-3.34551E-06 4.93141E-03 2.18468E-13 3.59743E-14
 -1      2807 2.00011E+01 2.99445E-03-4.02446E-05 3.61670E-03 7.84250E-14 1.25716E-13
 -1      2808 1.99986E+01 5.41640E-04 3.14304E-05 5.33782E-03 3.84848E-13-9.24861E-14
 -1      2809 1.99986E+01 1.15184E-05-8.43975E-07 5.53102E-03 3.41852E-13-1.04933E-15
 -1      2810 2.00003E+01 1.15202E-03-2.91207E-05 4.99156E-03 2.62937E-13 7.55335E-14
 -1      2811 1.99984E+01-4.25685E-04 1.71250E-05 5.61709E-03 2.77135E-13-1.15411E-13
 -1      2812 1.99986E+01-8.31033E-04-7.23019E-07 5.54561E-03 1.87928E-13-2.16433E-13
 -1      2813 1.99998E+01-1.62447E-04-2.05945E-05 5.55548E-03 2.10391E-13-3.56084E-13
 -1      2814 1.99986E+01-1.19598E-03 7.76114E-06 5.39520E-03 1.62714E-13-2.31403E-13
 -1      2815 1.99988E+01-1.53984E-03-8.13352E-07 5.11526E-03 9.03782E-14-2.05755E-13
 -1      2816 1.99996E+01-1.17387E-03-1.52251E-05 5.53498E-03 1.64906E-13-5.10971E-13
 -1      2817 2.23044E+01-7.34782E-01-1.10545E-02-9.26409E-01 6.75380E-14-1.42879E-13
 -1      2818 2.21100E+01-4.88337E-01 1.46552E-02-1.06635E+00 8.64273E-14-1.54940E-13
 -1      2819 6.57793E+00-1.52057E+00 1.60006E-01-2.91022E+00 5.21042E-14 8.56260E-13
 -1      2820 8.37809E+00-2.22062E+00 8.28156E-02-4.71041E+00 1.15699E-13 9.25066E-13
 -1      2821 2.18537E+01-2.73289E-01-5.78099E-03-1.10637E+00 1.15507E-13-1.70748E-13
 -1      2822 2.16993E+01-6.20858E-02 1.26135E-02-1.12299E+00 1.43732E-13-1.59994E-13
 -1      2823 2.16921E+01-4.59179E-01-1.41889E-02-1.27500E+00 1.06572E-13-2.09940E-13
 -1      2824 2.35094E+01-1.50162E+00-1.83000E-02 2.97213E-01-2.81077E-14 3.95021E-14
 -1      2825 2.33390E+01-1.38711E+00 1.46710E-02-9.75836E-02-1.50270E-14 6.32870E-15
 -1      2826 2.40168E+01-1.29835E+00-1.44892E-02 1.22320E+00 8.37546E-16 7.83477E-14
 -1      2827 2.39452E+01-1.48286E+00-3.97639E-04 8.10350E-01-4.15694E-14 8.17701E-14
 -1      2828 2.39356E+01-1.86076E+00-4.15723E-03 3.07343E-01-5.02971E-14 5.70375E-14
 -1      2829 2.41807E+01-3.10507E-01-3.15155E-03 1.95345E+00 1.43781E-13 1.07235E-13
 -1      2830 2.42607E+01-9.15581E-01-2.71511E-02 1.72546E+00 6.02838E-14 1.02490E-13
 -1      2831 2.46723E+01-1.41053E+00-2.12833E-03 1.37023E+00 3.19354E-14 1.38513E-13
 -1      2832 2.39355E+01 1.30600E+00 1.28014E-02 1.90705E+00 2.85601E-13 7.76480E-14
 -1      2833 2.41021E+01 4.50464E-01-5.29135E-02 2.10010E+00 2.39709E-13 9.31477E-14
 -1      2834 2.49317E+01 5.02724E-02-8.78837E-03 2.12627E+00 1.92027E-13 1.86793E-13
 -1      2835 2.35673E+01 2.58043E+00-7.41056E-03 7.49528E-01 3.38916E-13-6.68779E-14
 -1      2836 2.36492E+01 2.03566E+00-6.40257E-02 1.37469E+00 3.02498E-13-2.69940E-14
 -1      2837 2.46687E+01 2.15769E+00-1.19451E-02 1.85109E+00 3.62078E-13 8.31436E-14
 -1      2838 2.35608E+01 2.49197E+00-4.78438E-02-9.82264E-01 4.49103E-13-2.66408E-13
 -1      2839 2.34504E+01 2.72180E+00-4.43372E-02-2.55178E-01 4.28033E-13-1.90340E-13
 -1      2840 2.43477E+01 3.37695E+00-2.47049E-02 3.38083E-01 4.59025E-13-1.74212E-13
 -1      2841 2.39586E+01 1.12751E+00-6.52853E-02-2.13833E+00 3.48990E-13-4.47453E-13
 -1      2842 2.37730E+01 1.92464E+00-3.43479E-03-1.74241E+00 4.07063E-13-4.06975E-13
 -1      2843 2.45295E+01 2.74241E+00-2.06007E-02-1.49404E+00 5.07764E-13-4.26173E-13
 -1      2844 2.43103E+01-4.41621E-01-4.00843E-02-2.16612E+00 2.01637E-13-5.76750E-13
 -1      2845 2.41826E+01 3.13125E-01 1.00582E-02-2.24551E+00 2.70090E-13-4.91731E-13
 -1      2846 2.48868E+01 8.86433E-01-6.37875E-03-2.38593E+00 3.70086E-13-5.97848E-13
 -1      2847 2.42079E+01-1.35418E+00-1.05527E-02-1.38763E+00-7.88475E-15-4.33791E-13
 -1      2848 2.42129E+01-9.95274E-01-7.12381E-03-1.76243E+00 9.84581E-14-5.63988E-13
 -1      2849 2.48808E+01-9.27143E-01 3.78894E-03-1.95653E+00 1.19332E-13-5.92938E-13
 -1      2850 2.36991E+01-1.49566E+00 9.45673E-03-4.18768E-01-5.90943E-14-2.28151E-13
 -1      2851 2.38272E+01-1.50342E+00-1.78944E-02-8.46053E-01 1.27626E-14-2.99561E-13
 -1      2852 2.43067E+01-1.79201E+00-4.76448E-05-9.19992E-01-7.53555E-14-4.79562E-13
 -1      2853 2.30293E+01-1.19064E+00 1.47959E-02 3.68792E-01-7.55414E-14-2.56949E-13
 -1      2854 2.32261E+01-1.38408E+00-1.87281E-02 2.46580E-02-5.69193E-14-2.12698E-13
 -1      2855 2.34316E+01-1.80015E+00-1.17966E-02 8.70101E-02-9.99269E-14-2.57959E-13
 -1      2856 2.23924E+01-7.53318E-01 1.30660E-02 8.67900E-01 1.49490E-15-1.91917E-13
 -1      2857 2.26066E+01-9.82319E-01-1.35589E-02 6.46714E-01-2.94313E-14-2.70744E-13
 -1      2858 2.25701E+01-1.35181E+00-1.53276E-02 7.86050E-01-5.77279E-14-2.63696E-13
 -1      2859 2.18675E+01-3.62793E-01 9.09292E-03 1.11264E+00 1.66609E-13-1.55533E-13
 -1      2860 2.20701E+01-5.52741E-01-7.73922E-03 1.00224E+00 7.01032E-14-1.28769E-13
 -1      2861 2.18760E+01-8.08811E-01-1.30905E-02 1.16800E+00-3.00129E-15-1.79134E-13
 -1      2862 2.14603E+01-8.07885E-02 5.38995E-03 1.17615E+00 1.56354E-13-7.75270E-15
 -1      2863 2.16408E+01-2.11444E-01-3.27605E-03 1.14726E+00 1.93338E-13-8.79088E-14
 -1      2864 2.13716E+01-3.53495E-01-9.29587E-03 1.31203E+00 1.10788E-13-7.59201E-14
 -1      2865 2.11484E+01 9.41085E-02 2.76783E-03 1.12643E+00 9.26536E-14-2.04406E-14
 -1      2866 2.13055E+01 1.67718E-02-2.90305E-04 1.14986E+00 1.77224E-13 2.22126E-14
 -1      2867 2.10207E+01-3.69120E-02-5.93581E-03 1.30310E+00 1.52099E-13-1.16650E-13
 -1      2868 2.09066E+01 1.85971E-01 1.12926E-03 1.01460E+00-1.11787E-13-1.74650E-13
 -1      2869 2.10421E+01 1.48073E-01 1.54544E-03 1.06710E+00 8.98915E-15-5.87638E-15
 -1      2870 2.07769E+01 1.53171E-01-3.58686E-03 1.20581E+00 6.43843E-14 3.61254E-14
 -1      2871 2.07155E+01 2.21568E-01 2.10412E-04 8.75490E-01-1.52149E-13-3.75804E-13
 -1      2872 2.08313E+01 2.09531E-01 2.54310E-03 9.40729E-01-1.03297E-13-2.30256E-13
 -1      2873 2.06030E+01 2.48711E-01-2.17226E-03 1.06429E+00-4.52206E-14-6.49525E-14
 -1      2874 2.05620E+01 2.22782E-01-2.44513E-04 7.31213E-01-1.65119E-13-4.25147E-13
 -1      2875 2.06599E+01 2.26059E-01 2.96707E-03 7.98685E-01-1.72893E-13-4.10537E-13
 -1      2876 2.04737E+01 2.81536E-01-1.40315E-03 9.07113E-01-1.52401E-13-2.48797E-13
 -1      2877 2.04375E+01 2.05181E-01-4.25491E-04 5.94705E-01-1.94931E-13-4.14160E-13
 -1      2878 2.05193E+01 2.16488E-01 3.01755E-03 6.58273E-01-1.49540E-13-4.62236E-13
 -1      2879 2.03736E+01 2.76688E-01-1.01266E-03 7.51869E-01-1.71969E-13-3.90229E-13
 -1      2880 2.03367E+01 1.78914E-01-4.58387E-04 4.72703E-01-2.09196E-13-3.76182E-13
 -1      2881 2.04038E+01 1.93606E-01 2.84123E-03 5.29226E-01-2.23912E-13-3.68934E-13
 -1      2882 2.02939E+01 2.51667E-01-8.17190E-04 6.08596E-01-2.18018E-13-4.13179E-13
 -1      2883 2.02554E+01 1.50151E-01-4.19750E-04 3.67931E-01-1.86571E-14-3.87070E-13
 -1      2884 2.03097E+01 1.65461E-01 2.54205E-03 4.16201E-01-1.26263E-13-3.46803E-13
 -1      2885 2.02295E+01 2.17770E-01-7.09424E-04 4.82288E-01-1.67189E-13-3.64049E-13
 -1      2886 2.01905E+01 1.22375E-01-3.53001E-04 2.80658E-01 1.12298E-13-2.52835E-13
 -1      2887 2.02337E+01 1.36783E-01 2.19084E-03 3.20632E-01 5.70295E-14-4.10222E-13
 -1      2888 2.01771E+01 1.81818E-01-6.34136E-04 3.74662E-01 3.35428E-14-4.50320E-13
 -1      2889 2.01394E+01 9.73531E-02-2.81029E-04 2.09755E-01 7.18821E-14-2.72850E-13
 -1      2890 2.01732E+01 1.10125E-01 1.83328E-03 2.42038E-01 1.34686E-13-3.08803E-13
 -1      2891 2.01348E+01 1.47622E-01-5.66980E-04 2.85421E-01 1.66255E-13-3.78181E-13
 -1      2892 2.00998E+01 7.58090E-02-2.14737E-04 1.53389E-01 9.16168E-14-3.01909E-13
 -1      2893 2.01257E+01 8.66811E-02 1.49672E-03 1.78897E-01 7.15506E-14-2.76461E-13
 -1      2894 2.01009E+01 1.17083E-01-4.99875E-04 2.13115E-01 6.06981E-14-4.47324E-13
 -1      2895 2.00695E+01 5.78582E-02-1.58409E-04 1.09463E-01 1.89653E-13-2.96097E-13
 -1      2896 2.00890E+01 6.68371E-02 1.19572E-03 1.29218E-01 1.47305E-13-2.52043E-13
 -1      2897 2.00741E+01 9.09341E-02-4.32187E-04 1.55729E-01 7.84210E-14-4.97939E-13
 -1      2898 2.00469E+01 4.32857E-02-1.12896E-04 7.58830E-02 1.01155E-13-4.77268E-14
 -1      2899 2.00612E+01 5.05208E-02 9.36298E-04 9.08865E-02 1.63177E-13-1.67531E-13
 -1      2900 2.00533E+01 6.92321E-02-3.65955E-04 1.11053E-01 8.63681E-14-3.76051E-13
 -1      2901 2.00302E+01 3.17163E-02-7.74238E-05 5.07015E-02 8.29847E-14 1.04822E-13
 -1      2902 2.00406E+01 3.74221E-02 7.19097E-04 6.18740E-02 9.11872E-14 3.45769E-15
 -1      2903 2.00373E+01 5.16689E-02-3.03592E-04 7.69216E-02 3.77043E-14-1.28986E-13
 -1      2904 2.00183E+01 2.27157E-02-5.05797E-05 3.21967E-02 2.55671E-14 1.15662E-13
 -1      2905 2.00255E+01 2.71264E-02 5.41578E-04 4.03440E-02 6.92378E-14 1.63422E-13
 -1      2906 2.00253E+01 3.77615E-02-2.46957E-04 5.13377E-02 2.58443E-14 5.11860E-14
 -1      2907 2.00099E+01 1.58489E-02-3.08186E-05 1.88965E-02 5.09315E-14 2.08757E-13
 -1      2908 2.00149E+01 1.91925E-02 3.99535E-04 2.47011E-02 1.18212E-13 2.06474E-13
 -1      2909 2.00165E+01 2.69679E-02-1.97119E-04 3.25431E-02 1.88059E-14 4.05790E-14
 -1      2910 2.00043E+01 1.07117E-02-1.67109E-05 9.57709E-03 4.43058E-14 2.20648E-13
 -1      2911 2.00075E+01 1.31966E-02 2.88082E-04 1.36019E-02 4.97965E-14 2.32760E-13
 -1      2912 2.00101E+01 1.87521E-02-1.54432E-04 1.90380E-02 7.34163E-14 1.83090E-13
 -1      2913 2.00007E+01 6.94529E-03-7.04594E-06 3.24556E-03-1.73966E-13 9.62591E-14
 -1      2914 2.00027E+01 8.75435E-03 2.02277E-04 5.94378E-03-1.77781E-15 1.41493E-13
 -1      2915 2.00056E+01 1.26195E-02-1.18709E-04 9.57786E-03 6.06569E-14 5.79514E-14
 -1      2916 1.99986E+01 4.24027E-03-8.69678E-07-8.85599E-04-9.31116E-14-1.52425E-13
 -1      2917 1.99996E+01 5.52989E-03 1.37494E-04 8.42617E-04-1.42517E-13-1.18387E-13
 -1      2918 2.00026E+01 8.13274E-03-8.94121E-05 3.15374E-03-1.11643E-14-1.45277E-13
 -1      2919 1.99975E+01 2.33482E-03 2.51486E-06-3.42604E-03 1.35219E-13-4.01769E-13
 -1      2920 1.99979E+01 3.23671E-03 8.96222E-05-2.39431E-03 4.89842E-14-1.86984E-13
 -1      2921 2.00007E+01 4.91543E-03-6.58354E-05-1.03343E-03 5.68062E-14-6.11644E-13
 -1      2922 1.99971E+01 1.00948E-03 3.62075E-06-4.83416E-03 1.29387E-13-5.31565E-13
 -1      2923 1.99971E+01 1.63364E-03 5.51656E-05-4.29572E-03 1.06780E-13-5.47127E-13
 -1      2924 1.99995E+01 2.64934E-03-4.72038E-05-3.60130E-03 2.59317E-13-7.02489E-13
 -1      2925 1.99971E+01 8.07971E-05 2.85122E-06-5.44172E-03 1.43083E-13-4.02419E-13
 -1      2926 1.99969E+01 5.18946E-04 3.11578E-05-5.25203E-03 2.71493E-14-4.66116E-13
 -1      2927 1.99989E+01 1.06808E-03-3.26851E-05-5.01328E-03 1.31921E-13-6.71595E-13
 -1      2928 1.99975E+01-6.05171E-04 3.80656E-07-5.47646E-03-1.56669E-13 2.00798E-13
 -1      2929 1.99971E+01-2.76392E-04 1.51627E-05-5.53898E-03 4.83907E-14-1.26366E-13
 -1      2930 1.99986E+01-5.10199E-05-2.17034E-05-5.60441E-03-7.70982E-14-3.84015E-13
 -1      2931 1.99979E+01-1.17342E-03-3.45905E-06-5.07539E-03-1.80300E-13 3.45138E-13
 -1      2932 1.99975E+01-9.02759E-04 2.24997E-06-5.33738E-03-7.78872E-14 3.38466E-13
 -1      2933 1.99986E+01-8.89591E-04-1.09328E-05-5.60743E-03-2.34199E-13-4.45484E-14
 -1      2934 1.99986E+01-1.74767E-03-1.11540E-05-4.46553E-03-2.76264E-13 1.50287E-13
 -1      2935 1.99982E+01-1.47567E-03-1.05235E-05-4.89021E-03-2.31983E-13 2.26484E-13
 -1      2936 1.99990E+01-1.60259E-03 5.33305E-06-5.25487E-03-1.64150E-13 3.24323E-13
 -1      2937 1.99994E+01-2.32650E-03 1.49303E-05-4.72527E-03-3.27643E-13 2.70415E-13
 -1      2938 2.31927E+01-5.39221E+00-7.97030E-02 4.34961E+00-3.73729E-13-6.11620E-13
 -1      2939 2.02008E+01-5.09077E+00 1.47608E-01 5.48398E+00-5.07983E-13-2.97658E-13
 -1      2940 2.00026E+01-4.40015E-03 8.12137E-06-3.56952E-04-1.54847E-13 1.69675E-13
 -1      2941 2.00025E+01-4.34809E-03 5.89199E-06-1.03527E-03-4.86631E-14-1.38638E-13
 -1      2942 1.99988E+01-1.77801E-03-1.54584E-06 4.90332E-03 4.84740E-14-2.75489E-13
 -1      2943 1.99989E+01-1.99403E-03-2.63410E-06 4.61050E-03 1.15730E-17-3.55203E-13
 -1      2944 1.99995E+01-1.90562E-03-1.06318E-05 5.17679E-03 2.63902E-14-6.14722E-13
 -1      2945 2.00020E+01-4.00862E-03 1.20684E-05-3.00196E-03 1.06519E-13-2.90604E-13
 -1      2946 2.00017E+01-3.75524E-03-1.44768E-06-3.51169E-03 2.70651E-13-3.57975E-13
 -1      2947 2.00025E+01-4.34567E-03 6.02860E-06 1.05865E-03-6.39891E-14 2.35949E-13
 -1      2948 2.00026E+01-4.39972E-03 8.07684E-06 3.80828E-04-1.40450E-13 2.81561E-13
 -1      2949 2.00032E+01-3.47435E-03-1.91939E-06 1.25594E-05 1.05780E-13 1.94217E-13
 -1      2950 2.00024E+01-4.28981E-03 9.95897E-06-1.74758E-03-4.81193E-14-3.07922E-13
 -1      2951 2.00022E+01-4.13388E-03 2.49481E-06-2.37140E-03 1.28806E-13-4.86064E-14
 -1      2952 2.00026E+01-3.26791E-03-4.23988E-06-2.83267E-03-4.53945E-14-1.73287E-13
 -1      2953 2.00030E+01-3.42517E-03-2.54166E-06-1.46327E-03 4.56670E-14-2.24614E-13
 -1      2954 2.00022E+01-4.13390E-03 2.66201E-06 2.37051E-03 2.11533E-13-7.10386E-14
 -1      2955 2.00024E+01-4.28806E-03 9.80639E-06 1.75812E-03 9.25521E-14 8.41370E-14
 -1      2956 2.00030E+01-3.42408E-03-2.46566E-06 1.47516E-03 9.76816E-14 3.30766E-13
 -1      2957 2.00017E+01-3.75779E-03-2.03262E-06 3.51201E-03 3.94681E-13-3.86597E-13
 -1      2958 2.00020E+01-4.00960E-03 1.19921E-05 3.00151E-03 2.76963E-13-2.05587E-14
 -1      2959 2.00026E+01-3.26822E-03-3.86140E-06 2.83190E-03 2.44851E-13-4.13949E-14
 -1      2960 2.00009E+01-3.22192E-03-5.17612E-06 4.32768E-03 2.14436E-13-3.17683E-13
 -1      2961 2.00013E+01-3.55873E-03 1.18467E-05 3.99841E-03 3.91620E-13-4.26178E-13
 -1      2962 2.00019E+01-2.98190E-03-1.86831E-06 3.97874E-03 2.49182E-13-4.01347E-13
 -1      2963 2.76066E+01-3.48200E+00 3.06816E-02-6.99468E-01 1.43566E-13-3.77837E-13
 -1      2964 2.85225E+01-1.72637E+00-2.02752E-01 8.30825E-01-2.11116E-13-4.90316E-13
 -1      2965 1.62592E+01-4.66413E+00-2.48369E-02 6.42148E+00-5.47506E-13-1.07692E-14
 -1      2966 1.28463E+01-3.50061E+00 1.57700E-01 6.07122E+00-5.69822E-13 3.13596E-13
 -1      2967 5.79128E+00-1.00469E+00 1.03280E-01 9.21049E-01-2.36117E-13 1.09387E-12
 -1      2968 5.78700E+00-1.16262E+00 1.57501E-01-1.30171E+00-9.88029E-14 1.04081E-12
 -1      2969 7.84730E+00-6.98692E-01 1.69573E-01-2.06434E+00 1.30243E-14 8.44602E-13
 -1      2970 2.86095E+01 6.26677E+00-1.79375E-01-5.26936E-01 9.96286E-13-3.97024E-13
 -1      2971 2.87093E+01 5.61855E+00-1.74389E-01-1.45590E+00 9.77884E-13-5.77094E-13
 -1      2972 2.44929E+01-5.13206E+00 7.31189E-02-3.81629E+00-2.45803E-13-2.17909E-13
 -1      2973 2.64940E+01-4.47747E+00-1.28361E-01-2.19577E+00-1.49443E-13 1.31700E-14
 -1      2974 9.75930E+00-2.22933E+00 8.17095E-02 5.12905E+00-4.96908E-13 7.07823E-13
 -1      2975 7.52988E+00-1.21134E+00 1.91676E-01 3.09991E+00-4.38781E-13 8.83627E-13
 -1      2976 2.55905E+01-4.89958E+00-1.02644E-01 2.78328E+00 2.10137E-13 1.48687E-13
 -1      2977 2.31322E+01-5.03355E+00 1.00469E-01 4.22155E+00 4.09957E-13-8.33049E-14
 -1      2978 2.15419E+01 1.19070E-01-2.44965E-03-1.04977E+00 1.87304E-13-1.60515E-13
 -1      2979 2.14419E+01 3.00221E-01 1.18528E-02-9.59863E-01 2.50766E-13-1.54417E-13
 -1      2980 2.13252E+01 5.55297E-02-1.03396E-02-1.20914E+00 1.80913E-13-2.11131E-13
 -1      2981 2.28812E+01-1.20787E+00-1.65952E-02-4.61595E-01 1.41519E-14-7.44201E-14
 -1      2982 2.26746E+01-9.69239E-01 1.64205E-02-7.39241E-01 3.57146E-14-9.44433E-14
 -1      2983 2.22645E+01-1.05166E+00-1.73168E-02-1.08503E+00 1.98567E-14-1.57561E-13
 -1      2984 2.30458E+01-1.61605E+00-1.55868E-02-5.67708E-01-3.81700E-14-2.08579E-14
 -1      2985 2.10343E+01 1.23402E+00 6.57478E-03 1.85919E-01-3.79217E-13-2.47319E-13
 -1      2986 2.10376E+01 9.76375E-01-2.52066E-03 4.81915E-01-3.26961E-13-2.48094E-13
 -1      2987 2.07490E+01 1.07691E+00-4.11270E-03 6.37234E-01-3.01441E-13-2.96250E-13
 -1      2988 2.13584E+01 4.66547E-01-6.67095E-04-7.92563E-01 3.04188E-13-1.70119E-13
 -1      2989 2.13205E+01 6.48653E-01 1.26048E-02-6.01405E-01 3.42209E-13-1.42518E-13
 -1      2990 2.10315E+01 9.60470E-01-2.57922E-03-4.93184E-01 3.93224E-13-2.34566E-13
 -1      2991 2.11211E+01 5.07116E-01-6.12269E-03-9.38950E-01 2.85625E-13-2.23196E-13
 -1      2992 2.04607E+01 2.48351E+00-1.90884E-04-5.24588E-01-4.68640E-13-4.31800E-13
 -1      2993 1.80029E+01-4.78965E+00 1.32055E-01-5.97829E+00 3.92630E-13 1.53377E-13
 -1      2994 2.09656E+01-5.38064E+00-4.13540E-02-5.34277E+00 4.72650E-13 1.73805E-13
 -1      2995 1.89827E+01 3.17846E+00-2.34331E-03-5.44111E-03 3.00773E-13-6.49923E-13
 -1      2996 1.86845E+01 3.33086E+00-9.54241E-03-5.83149E-02 2.41236E-13-7.00856E-13
 -1      2997 1.85973E+01 3.14168E+00 5.78036E-03-1.83612E-01 2.04422E-13-6.83188E-13
 -1      2998 1.92104E+01 2.76024E+00 4.88249E-03-1.73727E-01 2.85022E-13-5.88019E-13
 -1      2999 2.89670E+01 1.81600E+00-2.16616E-01-1.97431E+00-7.26613E-13 4.32404E-13
 -1      3000 2.89844E+01-2.82872E-01-3.36376E-02-1.40838E+00-5.01349E-13 4.54747E-13
 -1      3001 1.99995E+01-2.43094E-03-6.63526E-06 4.68256E-03-6.28323E-14-6.80766E-13
 -1      3002 1.86610E+01 3.35209E+00-8.76787E-03 5.95413E-02-2.06338E-13-6.96123E-13
 -1      3003 1.89549E+01 3.19919E+00-3.04108E-03 9.26089E-03-2.59641E-13-6.69419E-13
 -1      3004 2.80927E+01-3.04458E+00 3.42844E-02-3.87300E-01-2.89725E-14 1.67560E-13
 -1      3005 2.83809E+01-1.62726E+00-1.89023E-01 8.68616E-01 2.00666E-13 3.79322E-13
 -1      3006 2.90479E+01 5.55896E+00-1.94217E-01-1.21887E+00-1.07003E-12 2.09374E-13
 -1      3007 2.86906E+01 4.35792E+00-1.04651E-01-1.86734E+00-9.50851E-13 3.29167E-13
 -1      3008 6.62079E+00-9.25789E-01 1.59740E-01-1.87910E+00-5.72459E-15-1.27459E-12
 -1      3009 7.69579E+00-1.52115E+00 1.37445E-01-3.76879E+00-1.05610E-13-1.22966E-12
 -1      3010 2.82821E+01-2.47704E+00-1.72993E-01-1.58222E-01-2.76605E-13 4.41841E-13
 -1      3011 2.73566E+01-3.66780E+00 1.95717E-02 1.01471E+00-5.16514E-15 3.44877E-13
 -1      3012 1.14198E+01-2.87658E+00 1.82180E-01-5.63110E+00 3.80265E-13 5.84255E-13
 -1      3013 1.44692E+01-3.90794E+00 3.20188E-02-6.29763E+00 3.77504E-13 2.12191E-13
 -1      3014 2.89924E+01 5.02642E+00-1.38834E-01 1.81061E+00-9.69558E-13-3.11084E-13
 -1      3015 2.92264E+01 6.14931E+00-1.94884E-01 1.02948E+00-1.10478E-12-1.70548E-13
 -1      3016 1.98789E+01-4.93393E+00-2.58060E-02 5.64440E+00 4.92120E-13-3.21222E-13
 -1      3017 1.70675E+01-4.12158E+00 1.20062E-01 5.99079E+00 5.26912E-13-4.85570E-13
 -1      3018 1.84384E+01-4.85950E+00 9.81768E-02-6.06340E+00-3.98293E-13-6.73434E-13
 -1      3019 2.17663E+01-5.35640E+00-1.81420E-02-5.31319E+00-3.07004E-13-4.59374E-13
 -1      3020 2.33373E+01-4.96491E+00 6.62086E-02-4.02724E+00-3.97862E-13-1.86989E-13
 -1      3021 2.90165E+01 6.54922E+00-1.97647E-01 2.95089E-01-1.08935E-12-4.75470E-14
 -1      3022 2.90905E+01 6.37692E+00-1.88492E-01-5.22096E-01-1.08161E-12 7.96793E-14
 -1      3023 2.73379E+01 5.27347E+00-1.26364E-01-9.07323E-01-9.22262E-13 9.99929E-14
 -1      3024 2.75770E+01 5.60923E+00-1.18917E-01 7.11671E-01-9.56790E-13-1.01880E-13
 -1      3025 2.38025E+01-5.17688E+00 6.65569E-02-3.89693E+00 4.29087E-13-2.91434E-16
 -1      3026 2.57472E+01-4.81785E+00-1.23298E-01-2.64145E+00 2.82788E-13-1.68046E-13
 -1      3027 2.90101E+01 9.72589E-01-3.89022E-02 2.05370E+00-5.74291E-13-6.07042E-13
 -1      3028 2.89616E+01 2.77321E+00-2.07324E-01 2.16817E+00-7.54577E-13-4.38663E-13
 -1      3029 1.92861E+01 2.97464E+00-9.60021E-03-2.03605E-02-3.08364E-13-6.36856E-13
 -1      3030 1.96472E+01 2.76161E+00-6.05392E-03-1.03019E-01-3.68505E-13-6.04832E-13
 -1      3031 1.91788E+01 2.78573E+00 4.32930E-03 1.76466E-01-2.55358E-13-5.99960E-13
 -1      3032 1.80397E+01 3.47789E+00 7.17543E-03-4.07094E-03 3.57554E-14-6.88885E-13
 -1      3033 1.80341E+01 3.71681E+00-5.91273E-03 2.47208E-02 6.92414E-15-7.42532E-13
 -1      3034 1.80986E+01 3.68810E+00-3.75254E-03 2.43392E-02-5.55795E-14-7.28636E-13
 -1      3035 2.74947E+01 1.94625E+00-8.85874E-02-2.50086E+00 4.70596E-13-9.03402E-13
 -1      3036 2.86709E+01 1.11116E+00-1.39034E-01-2.14426E+00 4.32349E-13-9.83685E-13
 -1      3037 2.79722E+01-2.11395E-01-1.96772E-02-1.92292E+00 2.70943E-13-1.08702E-12
 -1      3038 2.44333E+01-4.87575E+00 4.04866E-02 3.10150E+00-3.51906E-13-7.98431E-13
 -1      3039 2.08218E+01 1.75884E+00-4.74028E-03 1.83890E-01 4.81871E-13-3.04391E-13
 -1      3040 2.76760E+01-4.94469E-01-5.28112E-02 1.62673E+00 2.03136E-13 4.30642E-13
 -1      3041 2.79334E+01-1.35200E+00-1.54981E-02-1.27542E+00-2.83825E-13 4.84265E-13
 -1      3042 1.68878E+01-4.27672E+00 9.25462E-02-6.25035E+00-4.15307E-13-7.94489E-13
 -1      3043 1.92940E+01-4.22074E+00 6.62260E-02-5.30948E+00-5.22249E-13-5.28182E-13
 -1      3044 1.52966E+01-3.26512E+00 1.35415E-01-5.92228E+00-4.36179E-13-8.13460E-13
 -1      3045 2.19926E+01-4.60450E+00 5.66215E-02 4.35033E+00 4.89345E-13-1.35840E-13
 -1      3046 2.00019E+01-2.98952E-03-5.40549E-06-3.97269E-03 1.49582E-13-2.60144E-13
 -1      3047 2.00013E+01-3.55636E-03 1.36319E-05-3.99766E-03 2.67741E-13-1.93148E-13
 -1      3048 2.00009E+01-3.21633E-03-2.76660E-06-4.32569E-03-4.87707E-14-6.49493E-14
 -1      3049 1.13086E+01-1.93681E+00 1.43571E-01-4.81804E+00 3.27835E-13 5.68795E-13
 -1      3050 2.77521E+01 3.38848E+00-1.19554E-01 2.16843E+00-7.40977E-13-3.41116E-13
 -1      3051 2.06793E+01 1.59103E+00 1.24218E-03-1.32267E-01 4.21280E-13-3.33780E-13
 -1      3052 2.00004E+01-3.01306E-03 1.38190E-05-4.56920E-03-1.40574E-13-2.87367E-14
 -1      3053 1.99999E+01-2.60384E-03-5.58014E-06-4.65876E-03-2.51397E-13 2.13791E-13
 -1      3054 1.99997E+01-2.21168E-03-1.35083E-05-4.99484E-03-1.41145E-13 2.43152E-13
 -1      3055 2.00009E+01-2.63932E-03-8.24130E-06-4.70519E-03 6.75596E-14 4.24294E-14
 -1      3056 1.89070E+01-4.45518E+00 1.09074E-01 5.46915E+00-5.69350E-13-1.82375E-13
 -1      3057 2.62199E+01-4.07994E+00 1.75654E-02 1.39617E+00 2.16018E-13 3.09974E-13
 -1      3058 2.78598E+01-7.60420E-01-5.35543E-02 1.70099E+00-2.68868E-13-4.94105E-13
 -1      3059 2.66173E+01-3.83615E+00 7.47490E-02-1.00487E+00 2.93439E-13-3.89841E-13
 -1      3060 2.00000E+01-2.83413E-03 7.86101E-06 4.59099E-03 5.58575E-14-4.90295E-13
 -1      3061 1.26062E+01-2.32525E+00 1.52122E-01 5.14831E+00-5.90777E-13 3.90077E-13
 -1      3062 8.35409E+00-5.54417E-01 1.67383E-01 1.91922E+00-3.82111E-13 8.86013E-13
 -1      3063 2.77758E+01 2.58106E+00-1.06693E-01-2.05453E+00-7.59184E-13 3.31957E-13
 -1      3064 9.19013E+00-1.55811E+00 1.64291E-01 4.06034E+00 3.52010E-13-1.07730E-12
 -1      3065 7.36085E+00-3.45650E-01 7.19548E-02 8.61604E-01 1.65945E-13-1.19671E-12
 -1      3066 6.90770E+00-5.24117E-01 2.06984E-01-6.05659E-01 9.34461E-14-1.27076E-12
 -1      3067 8.40223E+00-1.91379E-01 1.57266E-01-1.53253E+00-1.61815E-14-1.15938E-12
 -1      3068 2.75437E+01 5.68624E+00-1.00475E-01 2.79199E-02 8.42160E-13-2.38884E-13
 -1      3069 1.55879E+01-3.44737E+00 8.32217E-02 5.98924E+00 5.04194E-13-5.67144E-13
 -1      3070 1.41691E+01-2.33245E+00 1.56505E-01 5.46371E+00 5.02917E-13-6.22211E-13
 -1      3071 1.76117E+01-3.31030E+00 6.88991E-02 5.25355E+00 5.51018E-13-4.01894E-13
 -1      3072 2.75219E+01 4.37006E+00-1.12074E-01-1.80861E+00 7.40061E-13-7.03937E-13
 -1      3073 2.75170E+01 3.69865E+00-9.60052E-02 2.00670E+00 6.96151E-13 2.17201E-13
 -1      3074 2.66973E+01-3.86259E+00-9.97091E-03-1.11284E+00-2.21056E-13 2.08687E-13
 -1      3075 2.26949E+01-4.97882E+00 5.59188E-02-4.11677E+00 4.99517E-13 1.72744E-14
 -1      3076 2.76801E+01-2.98427E+00-3.95385E-02 3.96872E-02-3.74492E-14-1.04403E-12
 -1      3077 2.01170E+01 2.42675E+00-5.02032E-03-1.63997E-01-3.87468E-13-5.21566E-13
 -1      3078 2.07947E+01 1.87527E+00-4.60428E-03-2.82163E-01-4.56385E-13-3.51608E-13
 -1      3079 2.08898E+01 1.49312E+00 1.20649E-03 3.67951E-02-4.09642E-13-2.96328E-13
 -1      3080 1.99960E+01 2.23131E+00 4.81220E-03 1.06436E-01-3.39726E-13-5.14782E-13
 -1      3081 1.82261E+01 3.60397E+00-7.80373E-03 6.78476E-02-1.01844E-13-7.07024E-13
 -1      3082 1.84171E+01 3.51240E+00-2.80846E-03 4.89789E-02-1.69021E-13-6.94624E-13
 -1      3083 1.85686E+01 3.16044E+00 4.62404E-03 1.81669E-01-1.76254E-13-6.45109E-13
 -1      3084 1.81703E+01 3.39851E+00 5.55989E-03 1.12243E-01-7.51973E-14-6.74416E-13
 -1      3085 1.70185E+01-3.86026E+00 1.11406E-01-5.63130E+00 4.61964E-13 1.00697E-13
 -1      3086 9.83681E+00-1.78540E+00 1.77902E-01-4.62585E+00-2.23127E-13-1.12116E-12
 -1      3087 1.21454E+01-2.24915E+00 5.60903E-02-5.39498E+00-3.39645E-13-9.74373E-13
 -1      3088 1.01807E+01-9.41988E-01 1.22394E-01-3.80880E+00-1.83763E-13-1.03889E-12
 -1      3089 2.05826E+01 1.61543E+00-1.76448E-03 2.11286E-01-3.51147E-13-3.76543E-13
 -1      3090 2.00001E+01-2.19089E-03-8.21465E-07 4.99525E-03-9.83990E-14-7.19643E-13
 -1      3091 2.00005E+01-2.88365E-03-1.32429E-06 4.64756E-03 5.50386E-14-5.96886E-13
 -1      3092 2.00010E+01-2.45692E-03 7.33321E-06 4.74849E-03 5.53614E-14-5.45709E-13
 -1      3093 2.00001E+01-1.85598E-03 1.10523E-05 5.18659E-03 1.46715E-14-7.00402E-13
 -1      3094 2.71087E+01-1.67091E+00 2.11479E-02 1.36509E+00 4.05370E-14 3.82368E-13
 -1      3095 2.66802E+01 2.25288E-01-9.49640E-02 2.17016E+00 2.84932E-13 3.60753E-13
 -1      3096 2.01697E+01 1.82620E+00-7.62972E-04-3.17620E-01 3.55365E-13-4.19200E-13
 -1      3097 1.97704E+01 2.09569E+00-4.27868E-03-3.57243E-01 3.10442E-13-4.91990E-13
 -1      3098 2.03980E+01 1.45084E+00 4.06509E-03 5.31077E-01-2.82871E-13-4.23688E-13
 -1      3099 2.04277E+01 1.16822E+00-7.49726E-04 7.94556E-01-2.55684E-13-3.91160E-13
 -1      3100 2.06126E+01 3.48414E-01 9.34874E-03 1.44216E+00-1.32496E-13-2.86840E-13
 -1      3101 2.07587E+01 3.49994E-02 2.87976E-03 1.56690E+00-7.81891E-14-2.96214E-13
 -1      3102 2.09441E+01-3.04841E-01 1.49268E-02 1.71517E+00-4.36452E-14-2.52203E-13
 -1      3103 2.12044E+01-6.95833E-01 3.06622E-03 1.74508E+00-2.30663E-14-2.44917E-13
 -1      3104 2.03607E+01-7.04871E-02-1.57894E-02 1.80807E+00-4.64937E-14-3.05078E-13
 -1      3105 2.15743E+01-1.11387E+00 2.50159E-02 1.80244E+00 1.72984E-14-1.62191E-13
 -1      3106 2.19747E+01-1.58005E+00 4.33689E-04 1.69635E+00 4.71173E-14-1.23075E-13
 -1      3107 2.08379E+01-9.50487E-01-2.65384E-02 2.08015E+00 3.20969E-14-2.01187E-13
 -1      3108 2.26082E+01-2.03271E+00 3.72285E-02 1.58094E+00 1.19303E-13-1.45402E-14
 -1      3109 2.31486E+01-2.46536E+00-1.97319E-03 1.27813E+00 1.77446E-13 7.36306E-14
 -1      3110 2.17450E+01-1.99772E+00-3.08856E-02 2.13028E+00 1.44099E-13-7.17143E-14
 -1      3111 2.40609E+01-2.81248E+00 3.39632E-02 8.90605E-01 2.07123E-13 2.12150E-13
 -1      3112 2.46750E+01-2.91473E+00-1.57958E-02 3.11367E-01 1.31005E-13 2.93114E-13
 -1      3113 2.32058E+01-2.97816E+00-2.49946E-02 1.70743E+00 2.80729E-13 1.56535E-13
 -1      3114 2.63761E+01 3.01080E+00-1.55573E-01-2.02014E+00-7.27252E-13 2.58259E-13
 -1      3115 2.63125E+01 4.43866E+00-7.42747E-02-1.39625E+00-8.37996E-13 1.32335E-13
 -1      3116 2.64663E+01 4.60494E+00-1.19998E-01 1.47667E+00-8.34666E-13-3.24289E-13
 -1      3117 2.65629E+01 3.34432E+00-1.28779E-01 2.10950E+00-6.89698E-13-3.91714E-13
 -1      3118 2.67280E+01 1.65790E+00-4.85358E-02 2.59403E+00-5.49318E-13-4.68285E-13
 -1      3119 2.65720E+01 1.13633E-03-1.24730E-01 2.30728E+00-2.99150E-13-5.12979E-13
 -1      3120 2.61347E+01-2.01104E+00-4.89520E-03 1.28492E+00 3.99264E-14-4.71560E-13
 -1      3121 2.56737E+01-2.72737E+00 2.49051E-02 6.16471E-01 1.81164E-13-4.50400E-13
 -1      3122 2.45533E+01-2.94816E+00-2.43265E-02-1.84253E-01 2.15003E-13-2.83400E-13
 -1      3123 2.39881E+01-2.80718E+00 4.05446E-02-7.07458E-01 2.86982E-13-2.81436E-13
 -1      3124 2.50403E+01-3.51206E+00-7.26628E-02-5.32541E-01 2.68519E-13-2.75658E-13
 -1      3125 2.30546E+01-2.51966E+00-8.95125E-03-1.13159E+00 2.65877E-13-2.58631E-13
 -1      3126 2.25137E+01-2.09884E+00 3.50894E-02-1.44902E+00 1.96648E-13-2.42459E-13
 -1      3127 2.30722E+01-3.09435E+00-4.48092E-02-1.59332E+00 3.00507E-13-2.44780E-13
 -1      3128 2.18660E+01-1.67495E+00 7.75098E-04-1.58727E+00 1.72841E-13-1.48100E-13
 -1      3129 2.14463E+01-1.25053E+00 2.27017E-02-1.72528E+00 9.36486E-14-1.19634E-13
 -1      3130 2.15942E+01-2.10954E+00-3.41903E-02-2.01753E+00 2.22075E-13-1.32930E-13
 -1      3131 2.10646E+01-8.82529E-01 4.61245E-03-1.71077E+00-6.59913E-14-7.07568E-14
 -1      3132 2.07740E+01-5.55608E-01 1.18892E-02-1.73644E+00-7.78619E-14-5.48160E-14
 -1      3133 2.06614E+01-1.14808E+00-2.41441E-02-2.03924E+00 7.48121E-14-6.70674E-14
 -1      3134 2.05766E+01-2.90427E-01 5.28979E-03-1.65467E+00-1.02290E-13 4.99627E-16
 -1      3135 2.03898E+01-7.39611E-02 5.32860E-03-1.61697E+00-5.76942E-14-1.36357E-13
 -1      3136 2.01483E+01-4.19314E-01-1.42362E-02-1.88347E+00-8.67704E-14-2.65582E-14
 -1      3137 2.03043E+01 9.30762E-02 4.69853E-03-1.51195E+00-3.55149E-14-1.46182E-13
 -1      3138 2.01881E+01 2.18832E-01 1.57011E-03-1.44166E+00-2.33924E-14-1.82587E-13
 -1      3139 1.99036E+01 5.80513E-02-7.21176E-03-1.66537E+00-8.73317E-14 5.12849E-15
 -1      3140 2.01640E+01 3.10368E-01 3.81641E-03-1.33290E+00-9.91985E-14-2.29226E-13
 -1      3141 2.00912E+01 3.71399E-01-4.59838E-04-1.24830E+00-1.22061E-13-2.16754E-13
 -1      3142 1.98125E+01 3.34197E-01-3.08929E-03-1.43712E+00-5.81498E-14-1.31270E-13
 -1      3143 2.00975E+01 4.11006E-01 3.10526E-03-1.14415E+00-7.84988E-14-1.75754E-13
 -1      3144 2.00498E+01 4.29774E-01-1.44281E-03-1.05624E+00-3.23021E-14-2.27804E-13
 -1      3145 1.98013E+01 4.68413E-01-8.79812E-04-1.21847E+00-1.08949E-13-7.20752E-14
 -1      3146 2.00688E+01 4.36567E-01 2.60923E-03-9.60525E-01 1.83738E-14-2.42458E-13
 -1      3147 2.00353E+01 4.29928E-01-1.82499E-03-8.75942E-01 6.67757E-14-2.16415E-13
 -1      3148 1.98265E+01 5.10067E-01 1.85890E-04-1.01701E+00-8.49182E-15-7.43732E-14
 -1      3149 2.00575E+01 4.17765E-01 2.25670E-03-7.90469E-01 4.62755E-14-2.65838E-13
 -1      3150 2.00320E+01 3.97396E-01-1.87188E-03-7.13064E-01-3.59444E-15-2.07459E-13
 -1      3151 1.98640E+01 4.95816E-01 6.05794E-04-8.35933E-01 1.90060E-14-1.75479E-13
 -1      3152 2.00527E+01 3.75620E-01 1.98016E-03-6.38531E-01 1.90668E-14-2.31207E-13
 -1      3153 2.00321E+01 3.49138E-01-1.74275E-03-5.70261E-01 4.23846E-14-1.21931E-13
 -1      3154 1.99016E+01 4.51051E-01 6.90052E-04-6.76518E-01 1.14827E-14-1.86415E-13
 -1      3155 2.00496E+01 3.23686E-01 1.73743E-03-5.06649E-01 6.46578E-14-1.04563E-13
 -1      3156 2.00324E+01 2.95786E-01-1.53209E-03-4.48184E-01 1.14959E-14-1.08606E-13
 -1      3157 1.99340E+01 3.92436E-01 6.19492E-04-5.38915E-01 7.19806E-14-9.17725E-14
 -1      3158 2.00461E+01 2.70215E-01 1.50956E-03-3.94969E-01 2.25098E-14-7.26759E-14
 -1      3159 2.00317E+01 2.43603E-01-1.29506E-03-3.46128E-01 2.20197E-13 8.65457E-14
 -1      3160 1.99596E+01 3.30346E-01 4.93106E-04-4.22402E-01 3.57237E-14 1.50205E-13
 -1      3161 2.00419E+01 2.19879E-01 1.29192E-03-3.02446E-01 1.01434E-13 9.93300E-14
 -1      3162 2.00297E+01 1.95957E-01-1.06256E-03-2.62524E-01 2.14935E-14-5.10659E-17
 -1      3163 1.99785E+01 2.70841E-01 3.60852E-04-3.25574E-01 1.18378E-13 1.26209E-13
 -1      3164 2.00371E+01 1.75030E-01 1.08659E-03-2.27311E-01 3.93493E-14 2.47229E-14
 -1      3165 2.00269E+01 1.54382E-01-8.50668E-04-1.95320E-01 2.58921E-14 4.35041E-14
 -1      3166 1.99917E+01 2.17125E-01 2.44875E-04-2.46553E-01 3.93872E-14 9.86738E-14
 -1      3167 2.00319E+01 1.36573E-01 8.97488E-04-1.67430E-01-9.49425E-14-7.95922E-14
 -1      3168 2.00236E+01 1.19287E-01-6.66431E-04-1.42270E-01-3.66706E-13-1.19281E-13
 -1      3169 2.00005E+01 1.70581E-01 1.52463E-04-1.83191E-01-1.42534E-13-1.40020E-13
 -1      3170 2.00268E+01 1.04547E-01 7.27980E-04-1.20560E-01-3.73950E-13-2.07450E-13
 -1      3171 2.00201E+01 9.04311E-02-5.11572E-04-1.01128E-01-1.40362E-13-8.22932E-14
 -1      3172 2.00058E+01 1.31478E-01 8.35977E-05-1.33259E-01-2.49690E-13-2.57933E-13
 -1      3173 2.00221E+01 7.85131E-02 5.79968E-04-8.45234E-02-1.26987E-13-6.05724E-14
 -1      3174 2.00167E+01 6.72319E-02-3.84828E-04-6.97880E-02-1.49265E-13-5.10200E-14
 -1      3175 2.00086E+01 9.94408E-02 3.51357E-05-9.45860E-02-9.61059E-14-8.90221E-14
 -1      3176 2.00178E+01 5.77924E-02 4.53822E-04-5.73168E-02-1.81631E-13-1.30526E-13
 -1      3177 2.00136E+01 4.89533E-02-2.83416E-04-4.63528E-02-5.38682E-14-2.62298E-13
 -1      3178 2.00098E+01 7.37560E-02 3.00059E-06-6.51561E-02-2.35759E-13-1.39113E-14
 -1      3179 2.00141E+01 4.16201E-02 3.48672E-04-3.71664E-02-2.11478E-14-3.47709E-13
 -1      3180 2.00109E+01 3.48246E-02-2.03924E-04-2.91739E-02-7.16452E-14-4.92124E-13
 -1      3181 2.00098E+01 5.35683E-02-1.67674E-05-4.31695E-02-1.19866E-13-9.20155E-14
 -1      3182 2.00109E+01 2.92342E-02 2.62809E-04-2.25503E-02-3.20172E-14-5.07053E-13
 -1      3183 2.00085E+01 2.41077E-02-1.42847E-04-1.68564E-02-2.43904E-14-3.43315E-13
 -1      3184 2.00092E+01 3.79990E-02-2.75768E-05-2.70668E-02-2.53676E-14-3.87531E-13
 -1      3185 2.00082E+01 1.99261E-02 1.94058E-04-1.21970E-02 2.35186E-15-2.20702E-13
 -1      3186 2.00065E+01 1.61325E-02-9.68883E-05-8.24905E-03 6.03404E-14-3.53001E-13
 -1      3187 2.00082E+01 2.62144E-02-3.21700E-05-1.55322E-02 5.50224E-14-3.00870E-13
 -1      3188 2.00061E+01 1.30643E-02 1.40079E-04-5.06800E-03 9.62809E-14-2.86581E-13
 -1      3189 2.00048E+01 1.03113E-02-6.31176E-05-2.42285E-03 1.10168E-13-2.03704E-13
 -1      3190 2.00070E+01 1.74620E-02-3.26609E-05-7.48159E-03 1.33559E-13-1.30821E-13
 -1      3191 2.00044E+01 8.10258E-03 9.85702E-05-3.34703E-04 1.50513E-13-1.02893E-13
 -1      3192 2.00035E+01 6.14168E-03-3.89947E-05 1.35513E-03 2.37754E-13-4.78918E-14
 -1      3193 2.00058E+01 1.10843E-02-3.06399E-05-2.04144E-03 2.69416E-13 4.65528E-16
 -1      3194 2.00030E+01 4.57758E-03 6.73876E-05 2.64923E-03 9.10803E-14 3.39569E-14
 -1      3195 2.00024E+01 3.20011E-03-2.24763E-05 3.64931E-03 1.82847E-13 1.90685E-13
 -1      3196 2.00046E+01 6.51978E-03-2.72074E-05 1.47621E-03 3.17092E-13 2.25615E-13
 -1      3197 2.00020E+01 2.10042E-03 4.45041E-05 4.37521E-03 9.60916E-14 1.58890E-13
 -1      3198 2.00016E+01 1.13222E-03-1.15239E-05 4.88199E-03 6.34662E-14-1.17604E-13
 -1      3199 2.00035E+01 3.29615E-03-2.33066E-05 3.60096E-03 8.71236E-14 2.86511E-14
 -1      3200 2.00012E+01 3.45462E-04 2.81147E-05 5.20409E-03 4.87597E-14-1.95632E-13
 -1      3201 2.00009E+01-3.53511E-04-4.25543E-06 5.35562E-03 4.84377E-14-3.19362E-13
 -1      3202 2.00025E+01 1.02121E-03-1.86410E-05 4.72601E-03-2.68284E-14-1.88718E-13
 -1      3203 2.00005E+01-8.75743E-04 1.81049E-05 5.41781E-03 7.54790E-14-4.24798E-13
 -1      3204 2.00004E+01-1.42827E-03-2.35530E-06 5.30801E-03 9.54470E-14-4.68957E-13
 -1      3205 2.00009E+01-1.71099E-03-1.57998E-05 5.14805E-03-1.06137E-13-6.29583E-13
 -1      3206 2.00017E+01-5.72291E-04-2.16555E-05 5.16222E-03-7.12125E-15-2.20509E-13
 -1      3207 2.42536E+01-2.40689E+00-1.82785E-02 3.46301E-02-6.99718E-14 7.85483E-14
 -1      3208 2.38460E+01-2.31061E+00 2.55396E-02-4.62519E-01-1.09589E-13 4.39324E-14
 -1      3209 2.57704E+01 4.64951E+00-1.17329E-01 1.79922E-01 6.93029E-13-1.96989E-13
 -1      3210 2.58608E+01 4.13806E+00-1.54348E-01 1.21388E+00 6.23945E-13-3.66686E-14
 -1      3211 2.56120E+01 3.56461E+00-1.19682E-01-1.76425E+00 5.95121E-13-5.33653E-13
 -1      3212 2.54519E+01 4.34833E+00-1.43358E-01-1.00339E+00 6.47676E-13-4.51084E-13
 -1      3213 2.60223E+01 4.53453E-02-6.64926E-02-2.40968E+00 3.18884E-13-7.04131E-13
 -1      3214 2.59068E+01 1.43046E+00-4.05746E-02-2.36340E+00 4.21350E-13-6.77989E-13
 -1      3215 2.43206E+01-2.40844E+00 1.76669E-02-1.53744E-01-1.79007E-13-5.33387E-13
 -1      3216 2.47076E+01-2.30111E+00-1.46287E-02-6.88510E-01-9.38148E-14-5.56723E-13
 -1      3217 2.31074E+01-2.01053E+00 2.89091E-02 7.82895E-01-1.83270E-13-3.69921E-13
 -1      3218 2.35254E+01-2.28488E+00-1.65082E-02 3.85603E-01-1.77391E-13-4.47702E-13
 -1      3219 2.37909E+01-2.78832E+00-3.33023E-02 6.27701E-01-1.82628E-13-5.46121E-13
 -1      3220 2.20829E+01-1.32549E+00 2.31332E-02 1.29652E+00-1.01891E-13-2.75406E-13
 -1      3221 2.24546E+01-1.68963E+00-8.71360E-03 1.06777E+00-1.17982E-13-3.07558E-13
 -1      3222 2.24063E+01-2.15460E+00-3.04583E-02 1.37965E+00-1.29271E-13-3.21139E-13
 -1      3223 2.13536E+01-6.86283E-01 1.46413E-02 1.49016E+00 1.80652E-14-2.72104E-13
 -1      3224 2.16419E+01-9.97687E-01-1.69004E-03 1.39174E+00-3.88340E-14-2.61357E-13
 -1      3225 2.13926E+01-1.31906E+00-2.30160E-02 1.67687E+00-6.29643E-14-2.24362E-13
 -1      3226 2.08811E+01-2.10855E-01 7.78049E-03 1.49192E+00 7.15594E-14-2.22104E-13
 -1      3227 2.10882E+01-4.30846E-01 1.36426E-03 1.47960E+00 4.39943E-14-2.80083E-13
 -1      3228 2.07544E+01-6.13691E-01-1.53970E-02 1.70398E+00 2.16055E-14-2.48985E-13
 -1      3229 2.05898E+01 9.53789E-02 3.44539E-03 1.38988E+00 1.21380E-13-1.76166E-13
 -1      3230 2.07350E+01-4.03330E-02 2.42794E-03 1.42907E+00 1.24135E-13-1.99881E-13
 -1      3231 2.03878E+01-1.16829E-01-9.10408E-03 1.59695E+00 7.16091E-14-2.23049E-13
 -1      3232 2.04131E+01 2.66396E-01 8.92887E-04 1.23718E+00-5.46027E-14 6.12492E-14
 -1      3233 2.05164E+01 1.94714E-01 2.74412E-03 1.30390E+00 4.46253E-14-1.59091E-14
 -1      3234 2.01935E+01 1.89927E-01-4.76880E-03 1.43013E+00-1.56827E-14 7.11659E-14
 -1      3235 2.03042E+01 3.42695E-01-4.90693E-04 1.06560E+00-1.47658E-14-1.41252E-13
 -1      3236 2.03805E+01 3.14418E-01 2.75047E-03 1.14407E+00 3.87633E-14-7.61792E-15
 -1      3237 2.00990E+01 3.53034E-01-2.18760E-03 1.24202E+00 3.28619E-14 6.22941E-14
 -1      3238 2.02337E+01 3.58631E-01-1.15445E-03 8.94016E-01-1.58781E-13-2.10286E-13
 -1      3239 2.02926E+01 3.57248E-01 2.64209E-03 9.74187E-01-7.81480E-14-1.17410E-13
 -1      3240 2.00578E+01 4.18627E-01-8.14371E-04 1.05314E+00 7.38582E-15 3.18573E-14
 -1      3241 2.01848E+01 3.39538E-01-1.39120E-03 7.33382E-01-1.43784E-13-3.45759E-13
 -1      3242 2.02318E+01 3.53254E-01 2.47866E-03 8.09196E-01-9.66646E-14-2.46510E-13
 -1      3243 2.00426E+01 4.23454E-01-1.68387E-04 8.74697E-01-6.96352E-14 1.51008E-15
 -1      3244 2.01482E+01 3.02587E-01-1.38969E-03 5.89539E-01-2.73035E-13-3.59976E-13
 -1      3245 2.01866E+01 3.23572E-01 2.27616E-03 6.57689E-01-2.67443E-13-3.59074E-13
 -1      3246 2.00382E+01 3.93810E-01 8.11686E-05 7.12842E-01-1.64956E-13-1.44552E-13
 -1      3247 2.01192E+01 2.58691E-01-1.26685E-03 4.64977E-01-9.07168E-14-4.41585E-13
 -1      3248 2.01507E+01 2.82056E-01 2.04351E-03 5.24007E-01-1.79626E-13-4.49088E-13
 -1      3249 2.00373E+01 3.47255E-01 1.34602E-04 5.70550E-01-1.28990E-13-3.49902E-13
 -1      3250 2.00954E+01 2.14364E-01-1.09250E-03 3.59999E-01 1.10629E-13-4.08268E-13
 -1      3251 2.01212E+01 2.37250E-01 1.79281E-03 4.09658E-01 3.26697E-14-3.46735E-13
 -1      3252 2.00366E+01 2.94861E-01 1.04640E-04 4.48679E-01-3.04011E-14-4.42857E-13
 -1      3253 2.00755E+01 1.73193E-01-9.06533E-04 2.73555E-01 1.87724E-13-3.43449E-13
 -1      3254 2.00965E+01 1.94072E-01 1.53784E-03 3.14322E-01 2.13099E-13-3.75771E-13
 -1      3255 2.00350E+01 2.43184E-01 4.98082E-05 3.46660E-01 1.41454E-13-2.57402E-13
 -1      3256 2.00590E+01 1.36898E-01-7.30296E-04 2.03833E-01 5.24261E-14-4.21113E-13
 -1      3257 2.00759E+01 1.55085E-01 1.29115E-03 2.36590E-01 9.82669E-14-4.19443E-13
 -1      3258 2.00324E+01 1.95785E-01-2.74214E-06 2.63005E-01 2.55080E-13-1.79300E-13
 -1      3259 2.00454E+01 1.06056E-01-5.73940E-04 1.48666E-01 2.24593E-14-2.84720E-13
 -1      3260 2.00588E+01 1.21373E-01 1.06229E-03 1.74475E-01 2.93700E-14-2.63521E-13
 -1      3261 2.00290E+01 1.54315E-01-4.27939E-05 1.95716E-01 5.49596E-14-1.94453E-13
 -1      3262 2.00344E+01 8.05817E-02-4.41088E-04 1.05813E-01 1.53960E-14-1.34447E-13
 -1      3263 2.00448E+01 9.31433E-02 8.57330E-04 1.25768E-01 9.59359E-15-2.56916E-13
 -1      3264 2.00252E+01 1.19252E-01-6.85201E-05 1.42571E-01-6.23763E-14-7.89440E-14
 -1      3265 2.00255E+01 6.00321E-02-3.31727E-04 7.31282E-02-6.93239E-16-1.02677E-13
 -1      3266 2.00335E+01 7.01033E-02 6.79170E-04 8.82722E-02 5.03109E-14-1.18915E-13
 -1      3267 2.00213E+01 9.03979E-02-8.17301E-05 1.01343E-01-1.86080E-14-7.16400E-14
 -1      3268 2.00186E+01 4.37985E-02-2.43965E-04 4.86638E-02-2.23286E-14 4.94429E-14
 -1      3269 2.00245E+01 5.17099E-02 5.28249E-04 5.99374E-02-5.81699E-14-5.80994E-15
 -1      3270 2.00177E+01 6.71885E-02-8.54002E-05 6.99294E-02-4.34561E-14-2.57424E-14
 -1      3271 2.00132E+01 3.12231E-02-1.75085E-04 3.07149E-02-6.08294E-14 1.48399E-13
 -1      3272 2.00176E+01 3.73186E-02 4.03279E-04 3.89358E-02 3.41435E-14 1.45435E-13
 -1      3273 2.00143E+01 4.88990E-02-8.25035E-05 4.64358E-02-5.00544E-14 1.77634E-13
 -1      3274 2.00091E+01 2.16663E-02-1.22153E-04 1.78346E-02 1.27518E-13 8.75103E-14
 -1      3275 2.00123E+01 2.62735E-02 3.01920E-04 2.36927E-02 2.34601E-14 1.28204E-13
 -1      3276 2.00114E+01 3.47628E-02-7.55400E-05 2.92126E-02 2.31077E-14 1.69112E-13
 -1      3277 2.00061E+01 1.45426E-02-8.23565E-05 8.82566E-03 1.40489E-13-3.09228E-14
 -1      3278 2.00083E+01 1.79576E-02 2.21299E-04 1.28885E-02 2.03150E-13 6.00355E-14
 -1      3279 2.00088E+01 2.40427E-02-6.64187E-05 1.68632E-02 1.73248E-13 9.20130E-15
 -1      3280 2.00038E+01 9.33615E-03-5.31613E-05 2.72014E-03 1.05252E-13-3.91270E-13
 -1      3281 2.00053E+01 1.18176E-02 1.58387E-04 5.44357E-03 1.70806E-13-1.64616E-13
 -1      3282 2.00067E+01 1.60678E-02-5.65008E-05 8.23417E-03 2.23066E-13-8.31188E-14
 -1      3283 2.00023E+01 5.60450E-03-3.24053E-05-1.24720E-03 1.80730E-13-5.84896E-13
 -1      3284 2.00032E+01 7.37292E-03 1.10276E-04 4.94849E-04 1.33107E-13-4.50338E-13
 -1      3285 2.00050E+01 1.02495E-02-4.66997E-05 2.39427E-03 1.89059E-13-1.93286E-13
 -1      3286 2.00012E+01 2.97329E-03-1.83400E-05-3.66663E-03 1.14612E-13-3.55602E-13
 -1      3287 2.00017E+01 4.21466E-03 7.43615E-05-2.63217E-03 2.18306E-13-5.34554E-13
 -1      3288 2.00036E+01 6.08314E-03-3.76672E-05-1.39169E-03 1.17779E-13-2.35396E-13
 -1      3289 2.00004E+01 1.12895E-03-9.30101E-06-4.97915E-03 3.08060E-14-2.29098E-13
 -1      3290 2.00007E+01 1.99834E-03 4.84085E-05-4.44987E-03-2.03407E-14-2.88483E-13
 -1      3291 2.00025E+01 3.14252E-03-2.95328E-05-3.68983E-03 7.28545E-14 9.52623E-15
 -1      3292 2.00000E+01-1.86875E-04-4.14524E-06-5.50256E-03-2.92004E-13-1.68090E-14
 -1      3293 2.00001E+01 4.37356E-04 2.99619E-05-5.33415E-03-8.21351E-14-1.19617E-13
 -1      3294 2.00016E+01 1.07422E-03-2.17681E-05-4.91979E-03-1.87636E-13 3.77412E-13
 -1      3295 1.99997E+01-1.18507E-03-4.57947E-07-5.45576E-03-3.52158E-13 1.77881E-13
 -1      3296 1.99997E+01-7.10767E-04 1.59983E-05-5.55243E-03-3.98264E-13-3.20974E-14
 -1      3297 2.00009E+01-4.23127E-04-1.73348E-05-5.39065E-03-3.75220E-13 2.64868E-13
 -1      3298 1.99998E+01-1.86152E-03-6.63616E-07-5.14196E-03-1.33154E-13 3.60546E-13
 -1      3299 1.99996E+01-1.49199E-03-3.09059E-06-5.36769E-03-1.95794E-13 3.21034E-13
 -1      3300 2.00006E+01-1.39056E-03-6.65001E-06-5.34928E-03-4.21776E-13 3.68399E-13
 -1      3301 2.00005E+01-2.09063E-03 8.07718E-06-5.09103E-03 4.69029E-14 5.15155E-14
 -1      3302 2.00036E+01-2.48435E-03-2.20678E-06 1.84248E-03 1.65754E-13 2.00797E-13
 -1      3303 2.00038E+01-2.52818E-03 1.32846E-06 1.14155E-03 1.34184E-13 4.15797E-13
 -1      3304 1.61312E+01-2.93753E+00 8.26487E-02-5.24660E+00 4.72178E-13 1.26614E-13
 -1      3305 1.89426E+01-4.09379E+00-8.36700E-03-5.13572E+00 4.52152E-13 3.27516E-14
 -1      3306 2.00021E+01-2.23016E-03-6.58780E-06 4.31112E-03-1.00859E-14-6.18598E-13
 -1      3307 2.00026E+01-2.37075E-03 5.88175E-06 3.81537E-03 5.77765E-14-5.09536E-13
 -1      3308 2.00038E+01-2.52405E-03-5.38860E-08 3.75806E-04 2.52588E-13 2.64955E-13
 -1      3309 2.00038E+01-2.52467E-03-3.13279E-07-3.62861E-04 2.45103E-13 1.21714E-13
 -1      3310 2.00045E+01-1.53795E-03 8.95135E-06 7.60133E-04 3.28753E-13 1.72836E-13
 -1      3311 2.10660E+01 4.77020E-02 2.61456E-05-1.37748E+00 1.46501E-13-2.02018E-13
 -1      3312 2.09350E+01 3.21620E-01 9.91307E-03-1.27234E+00 2.03026E-13-1.92469E-13
 -1      3313 2.14790E+01-5.73953E-01-6.43256E-04-1.48387E+00 7.90336E-14-1.84791E-13
 -1      3314 2.12586E+01-2.42233E-01 1.52641E-02-1.48516E+00 1.16562E-13-1.89517E-13
 -1      3315 2.07508E+01-5.87075E-02-1.41120E-02-1.59007E+00 1.35282E-13-1.83477E-13
 -1      3316 2.00030E+01-2.39570E-03-5.26282E-06 3.19562E-03 1.90501E-13-1.47244E-13
 -1      3317 2.00034E+01-2.48692E-03 3.73643E-06 2.55983E-03 1.76091E-13 1.16562E-13
 -1      3318 2.00041E+01-1.56494E-03 6.49053E-06 2.23474E-03 1.44238E-13 3.32284E-13
 -1      3319 2.00033E+01-1.58381E-03 3.32347E-06 3.57405E-03-1.00879E-13-3.30764E-13
 -1      3320 1.01408E+01-2.34706E-01 7.31746E-02 2.50831E+00-4.77790E-13 6.52492E-13
 -1      3321 8.92421E+00 1.78584E-01 1.47158E-01 4.86514E-01-2.52274E-13 8.30058E-13
 -1      3322 2.55371E+01 5.91321E-02-4.65101E-02 2.05961E+00 2.34434E-13 2.48414E-13
 -1      3323 2.55741E+01-9.81039E-01-3.47878E-02 1.90918E+00 1.03719E-13 2.68027E-13
 -1      3324 8.73246E+00 6.99914E-02 1.09494E-01-7.68606E-01-6.76924E-14 7.71216E-13
 -1      3325 9.34188E+00-3.16469E-01 8.06037E-02-2.41099E+00 4.95541E-14 6.65523E-13
 -1      3326 1.05505E+01 4.41553E-01 1.19573E-01 1.20385E-02-1.43936E-13 6.61235E-13
 -1      3327 2.04639E+01 9.01761E-01 6.31485E-03 1.03955E+00-2.22473E-13-3.33357E-13
 -1      3328 2.05320E+01 6.29578E-01 1.07855E-03 1.23926E+00-1.74542E-13-3.24008E-13
 -1      3329 2.01477E+01 6.30203E-01-8.13809E-03 1.41973E+00-1.35519E-13-3.43435E-13
 -1      3330 2.68959E+01 1.23455E+00-4.46105E-02-2.30112E+00-5.62508E-13 4.51889E-13
 -1      3331 2.04001E+01-4.58056E+00-8.22433E-02 4.75122E+00-4.72761E-13-4.47392E-13
 -1      3332 1.75927E+01-3.62662E+00 1.18424E-01 5.39160E+00-5.87717E-13-1.32082E-13
 -1      3333 2.62927E+01 5.03878E+00-1.25054E-01 5.63765E-01-8.74245E-13-1.97176E-13
 -1      3334 1.08174E+01-7.68174E-01 1.51784E-01-3.65780E+00 2.26746E-13 5.28050E-13
 -1      3335 1.30550E+01-1.61162E+00 5.85308E-02-4.58757E+00 4.22582E-13 2.70992E-13
 -1      3336 1.14804E+01-5.97260E-02 1.11560E-01-2.50903E+00 1.11907E-13 4.70700E-13
 -1      3337 2.75535E+01-2.28798E+00-1.46472E-01-9.35570E-01 8.78689E-14-9.97771E-13
 -1      3338 2.67996E+01-3.42697E+00 6.10748E-02 3.06396E-01-1.40813E-13-9.74248E-13
 -1      3339 2.50640E+01-4.67821E+00-1.32410E-01 2.06110E+00-2.36464E-13-9.32202E-13
 -1      3340 2.34256E+01-4.63547E+00 1.18830E-01 3.34511E+00-3.64375E-13-7.10879E-13
 -1      3341 2.15601E+01-4.43076E+00 1.14775E-01-4.21829E+00 5.30194E-13 1.22437E-14
 -1      3342 2.35426E+01-4.85819E+00-1.11640E-01-3.14068E+00 4.87776E-13-1.15472E-13
 -1      3343 1.46965E+01-2.68019E+00 3.58009E-02 5.40411E+00-5.70578E-13 1.94150E-13
 -1      3344 1.22315E+01-1.31545E+00 9.24707E-02 4.34463E+00-5.78503E-13 4.53110E-13
 -1      3345 1.69455E+01-2.68606E+00 9.45502E-02 4.81626E+00-5.03958E-13 1.88044E-15
 -1      3346 2.67101E+01-5.41285E-01-1.43703E-01-1.98083E+00-2.95531E-13 4.61083E-13
 -1      3347 2.55917E+01-4.10735E+00 4.70746E-02-1.52928E+00-3.21686E-13 1.56097E-13
 -1      3348 2.64016E+01-3.36277E+00-1.15461E-01-1.50346E-01-1.60009E-13 3.18058E-13
 -1      3349 2.67037E+01-1.82061E+00 2.26550E-02-1.24146E+00-9.56041E-14 5.21465E-13
 -1      3350 1.11544E+01-1.30450E+00 3.44622E-02 4.46552E+00 4.27221E-13-8.27519E-13
 -1      3351 9.14849E+00-3.51247E-01 2.14870E-01 2.71005E+00 3.14897E-13-1.06637E-12
 -1      3352 2.57097E+01 2.60124E+00-6.99193E-02 1.86220E+00 4.76827E-13 1.55562E-13
 -1      3353 2.01211E+01 1.95464E+00-1.30127E-03 2.44408E-01-3.33335E-13-4.93379E-13
 -1      3354 2.02612E+01 1.69747E+00 1.52430E-03 3.93516E-01-3.12262E-13-4.44526E-13
 -1      3355 1.96469E+01 2.29139E+00-3.59975E-03 2.80297E-01-2.93465E-13-5.23646E-13
 -1      3356 2.23541E+01-4.53027E+00 4.27940E-02-4.01080E+00-4.07771E-13-1.48437E-13
 -1      3357 2.42512E+01-4.60387E+00-5.70698E-02-2.82940E+00-3.45834E-13 5.21319E-14
 -1      3358 2.45683E+01-3.96469E+00 4.45231E-03-1.80933E+00-3.06775E-13 1.18320E-13
 -1      3359 2.62390E+01-3.55644E+00-1.22275E-01 3.10383E-01 8.02483E-14 4.28470E-13
 -1      3360 2.52252E+01-4.04679E+00 8.53657E-02 1.67352E+00 3.09998E-13 2.53384E-13
 -1      3361 2.59175E+01-3.93472E+00 6.90938E-02-1.09077E+00 2.89373E-13-3.46070E-13
 -1      3362 2.66747E+01-3.19057E+00-1.53527E-01 3.91252E-01 1.20490E-13-4.64111E-13
 -1      3363 2.31172E+01-4.46968E+00-6.96096E-02 3.32856E+00 4.33126E-13 7.07073E-15
 -1      3364 2.07448E+01-3.90605E+00 7.33658E-02 4.42548E+00 5.04981E-13-1.69521E-13
 -1      3365 1.81666E+01 3.09467E+00-1.19719E-03-2.30297E-01 1.28680E-13-6.92581E-13
 -1      3366 1.80061E+01 3.17454E+00-7.02674E-03-1.73179E-01 7.46196E-14-6.97940E-13
 -1      3367 2.07920E+01 1.19798E+00 2.29744E-03-4.45742E-01 3.75869E-13-2.75918E-13
 -1      3368 2.04456E+01 1.57239E+00 1.74230E-04-3.66514E-01 3.63549E-13-3.42307E-13
 -1      3369 2.02789E+01 1.42878E+00 9.49414E-04-6.27907E-01 3.13365E-13-3.49289E-13
 -1      3370 2.08144E+01 9.44618E-01-2.37642E-03-7.15505E-01 3.32841E-13-2.60516E-13
 -1      3371 2.63024E+01 4.95215E+00-1.42821E-01-5.14201E-01-8.75688E-13-2.27249E-15
 -1      3372 2.58395E+01-2.31802E+00-6.25010E-03-7.63358E-01 4.34752E-14 4.48901E-13
 -1      3373 2.59317E+01 1.29188E+00-8.69978E-02 2.35494E+00 3.53120E-13 2.71970E-13
 -1      3374 1.79235E+01 3.23290E+00-3.69268E-03-4.37324E-02 5.63511E-14-6.59155E-13
 -1      3375 1.79215E+01 3.23713E+00-2.95498E-03 3.01257E-02 4.49957E-15-6.38143E-13
 -1      3376 1.79126E+01 2.98494E+00 9.82613E-03-1.52588E-01 5.05847E-14-6.44430E-13
 -1      3377 1.96016E+01 1.94515E+00 3.14334E-03-5.86833E-01 2.71864E-13-4.75035E-13
 -1      3378 1.93812E+01 2.35411E+00-4.84123E-05-3.68066E-01 2.79036E-13-5.52557E-13
 -1      3379 1.90121E+01 2.56662E+00-7.83659E-03-3.85866E-01 2.29301E-13-5.78751E-13
 -1      3380 2.00682E+01 1.23740E+00-3.23459E-03 9.52661E-01-2.11941E-13-4.39313E-13
 -1      3381 2.46851E+01-3.61336E+00-7.60376E-02 1.06399E+00 2.34434E-13 3.12505E-13
 -1      3382 2.53785E+01-2.79445E+00 5.91410E-02-1.20044E-01 7.59401E-14 3.67706E-13
 -1      3383 1.48152E+01-2.48089E+00 1.01378E-01-5.31085E+00-3.91132E-13-8.26471E-13
 -1      3384 1.89140E+01 2.74768E+00-4.71870E-03 3.10560E-01-2.06432E-13-6.02709E-13
 -1      3385 1.92681E+01 2.53536E+00-1.64486E-03 2.94914E-01-2.53206E-13-5.75646E-13
 -1      3386 1.94074E+01 2.28359E+00 4.02365E-03 4.26103E-01-2.49749E-13-5.42391E-13
 -1      3387 2.00026E+01-2.36644E-03 6.91553E-06-3.81434E-03-8.74472E-14-3.48399E-13
 -1      3388 2.00021E+01-2.22059E-03-3.83169E-06-4.30388E-03-1.06734E-13-1.57452E-13
 -1      3389 9.68892E+00 5.36869E-02 1.39457E-01 1.58502E+00 2.10686E-13-1.04934E-12
 -1      3390 2.60912E+01-2.39458E+00-1.41678E-02 7.01913E-01-8.84987E-14 2.75266E-13
 -1      3391 2.66826E+01-1.71941E+00 1.52621E-03 1.53388E+00-2.38143E-14-5.11265E-13
 -1      3392 2.32620E+01-2.54386E+00-2.69032E-02-1.18554E+00-1.56755E-13 2.52472E-14
 -1      3393 2.30962E+01-2.04012E+00-1.17873E-02-8.73438E-01-1.32675E-13-7.98493E-15
 -1      3394 2.26968E+01-1.68460E+00 2.83287E-02-1.18300E+00-1.09962E-13-6.35607E-14
 -1      3395 2.71372E+01-1.27765E+00-7.07056E-02-1.64113E+00 1.35957E-13-9.33129E-13
 -1      3396 2.00014E+01-1.81383E-03-1.09454E-06 4.89991E-03-2.90677E-13-8.19898E-13
 -1      3397 2.00018E+01-2.10220E-03-1.97452E-06 4.62043E-03-1.24903E-13-6.41706E-13
 -1      3398 2.00025E+01-1.44800E-03 7.87215E-06 4.46611E-03-2.72608E-13-7.69944E-13
 -1      3399 2.00018E+01-1.22788E-03 1.69109E-05 4.97688E-03-3.10485E-13-6.45848E-13
 -1      3400 2.21445E+01-1.31431E+00-6.31459E-03-1.35228E+00-3.98414E-14-1.09151E-13
 -1      3401 2.18242E+01-9.22613E-01 2.18618E-02-1.48835E+00 1.09704E-14-1.48408E-13
 -1      3402 2.20341E+01-1.72004E+00-3.04774E-02-1.67354E+00-1.03591E-13-6.84322E-14
 -1      3403 2.52679E+01-1.78563E+00-4.01367E-02 1.22290E+00-2.69194E-14 2.24223E-13
 -1      3404 2.50015E+01-2.23083E+00-1.49438E-03 7.07938E-01-7.59514E-14 1.65971E-13
 -1      3405 1.99120E+01 1.78076E+00-3.02435E-03 5.55370E-01-2.77809E-13-4.69418E-13
 -1      3406 2.56937E+01-3.73331E+00 8.48729E-03 8.03762E-01-1.70561E-13-8.22904E-13
 -1      3407 2.53407E+01-1.85591E+00-2.53464E-02-1.46920E+00 6.69083E-15-5.65653E-13
 -1      3408 2.54901E+01-1.07200E+00-2.61195E-02-1.90187E+00 1.72454E-13-5.76732E-13
 -1      3409 2.12199E+01-8.21667E-01-2.22534E-02-1.75363E+00 3.85750E-14-1.63598E-13
 -1      3410 2.00034E+01-2.48824E-03 3.40166E-06-2.55674E-03-6.35818E-14-1.60578E-13
 -1      3411 2.00030E+01-2.39337E-03-4.87385E-06-3.19235E-03-3.98421E-14-1.31895E-13
 -1      3412 2.00033E+01-1.58699E-03 1.28797E-06-3.56610E-03-7.05162E-14-1.75648E-13
 -1      3413 1.51023E+01-1.97651E+00 9.22666E-02-4.75868E+00 4.15709E-13 1.74173E-13
 -1      3414 1.70244E+01-2.17650E+00 4.28181E-02-4.36630E+00 4.18344E-13 2.62984E-14
 -1      3415 1.42109E+01-9.58154E-01 2.23023E-02-3.84567E+00 3.02749E-13 2.02394E-13
 -1      3416 2.05425E+01-3.78230E+00 6.79897E-02-4.16541E+00 4.92037E-13-1.19696E-16
 -1      3417 2.00038E+01-2.52847E-03 1.32230E-06-1.12424E-03 2.13809E-13 9.08316E-14
 -1      3418 2.00036E+01-2.48418E-03-1.97724E-06-1.83806E-03 1.34875E-13-2.00242E-13
 -1      3419 2.00041E+01-1.56501E-03 7.50901E-06-2.22578E-03 2.00409E-14-1.43847E-14
 -1      3420 2.00045E+01-1.53682E-03 9.76020E-06-7.55521E-04 3.51250E-13 1.86894E-14
 -1      3421 1.97321E+01-3.53833E+00 8.85098E-02-4.68361E+00-4.51469E-13-3.93657E-13
 -1      3422 2.12024E+01-4.26963E+00 3.30023E-02-4.50903E+00-4.41286E-13-2.81525E-13
 -1      3423 2.24462E+01-3.86900E+00 3.06920E-02-3.28593E+00-3.91392E-13-1.43678E-14
 -1      3424 1.83915E+01 2.94062E+00-8.65122E-03-3.24520E-01 1.59314E-13-6.69753E-13
 -1      3425 1.82467E+01 2.78140E+00 7.85393E-03-3.97884E-01 1.25390E-13-6.54175E-13
 -1      3426 1.86792E+01 2.79065E+00 2.99149E-04-3.46309E-01 2.17634E-13-6.22396E-13
 -1      3427 1.95788E+01-3.51756E+00 3.59728E-02 4.77267E+00 4.77611E-13-2.95947E-13
 -1      3428 1.82610E+01-2.66424E+00 9.81239E-02 4.70140E+00 4.69194E-13-3.78277E-13
 -1      3429 2.09942E+01-3.29215E+00 1.84047E-02 3.71655E+00 4.60387E-13-1.24261E-13
 -1      3430 2.60688E+01 2.50155E+00-1.25285E-01-2.36414E+00 5.22839E-13-6.95513E-13
 -1      3431 2.39288E+01-3.83506E+00 1.59283E-02 2.15742E+00 3.55244E-13 1.32082E-13
 -1      3432 1.18336E+01-3.99524E-01 1.24086E-01 3.29871E+00-5.39371E-13 5.72341E-13
 -1      3433 1.18862E+01 2.65428E-01 5.05579E-02 2.06248E+00-3.73855E-13 5.43204E-13
 -1      3434 1.37177E+01-7.17354E-01 5.88611E-02 3.59906E+00-5.22240E-13 4.46206E-13
 -1      3435 2.20536E+01-4.10609E+00 8.93969E-02 3.61201E+00-3.52669E-13-5.50861E-13
 -1      3436 9.44091E+00 1.99959E-01 4.90933E-02-1.26188E+00 7.39166E-15-1.03918E-12
 -1      3437 9.76490E+00-4.56555E-02 1.90368E-01-2.47382E+00-9.33004E-14-1.05853E-12
 -1      3438 1.86040E+01 2.94349E+00-1.78715E-03 2.76796E-01-1.74905E-13-6.20825E-13
 -1      3439 1.87025E+01 2.71914E+00 4.25992E-03 3.93138E-01-1.68058E-13-5.82996E-13
 -1      3440 1.83386E+01 3.08961E+00-6.28033E-03 2.53215E-01-1.28540E-13-6.27525E-13
 -1      3441 2.53560E+01-2.57777E+00-5.80808E-03-6.66977E-01-4.29743E-14-6.04277E-13
 -1      3442 2.08906E+01 5.17519E-01-6.66635E-04-1.10781E+00 2.39522E-13-2.34450E-13
 -1      3443 2.08253E+01 7.60868E-01 6.59737E-03-9.18749E-01 2.86472E-13-2.43288E-13
 -1      3444 2.05504E+01 9.66357E-01-1.43887E-03-8.91729E-01 2.79576E-13-2.69414E-13
 -1      3445 2.05697E+01 5.17524E-01-7.55953E-03-1.28062E+00 2.07739E-13-2.09547E-13
 -1      3446 1.12822E+01-4.50616E-01 1.02186E-01-3.31548E+00-1.87850E-13-9.45091E-13
 -1      3447 2.47135E+01-3.92850E+00 2.39359E-02-1.55335E+00 3.40693E-13-2.48128E-13
 -1      3448 2.48412E+01-2.76164E+00 1.43402E-02-1.05413E-01-1.41116E-13 1.63479E-13
 -1      3449 1.35053E+01-1.39640E+00 8.51752E-02 4.46871E+00 4.49814E-13-6.86909E-13
 -1      3450 1.96768E+01 1.61104E+00 1.36047E-03 8.26994E-01-2.11571E-13-4.85491E-13
 -1      3451 1.96999E+01 1.31405E+00 2.35908E-03 1.07683E+00-1.58151E-13-4.48902E-13
 -1      3452 1.41189E+01-1.42809E+00 8.74688E-02-4.58867E+00-3.21763E-13-8.19150E-13
 -1      3453 1.66782E+01-2.67039E+00-5.79352E-03-5.12344E+00-3.88578E-13-6.62317E-13
 -1      3454 1.11972E+01 3.54356E-01 3.30906E-02 1.86768E+00 2.35695E-13-8.87540E-13
 -1      3455 1.02010E+01 6.82723E-01 1.71045E-01 2.12763E-01 1.16713E-13-1.00084E-12
 -1      3456 2.00508E+01-4.72269E-01 1.36903E-02 2.25950E+00 6.40343E-14-2.77371E-13
 -1      3457 2.03872E+01-9.84824E-01 1.31508E-02 2.39747E+00 1.09364E-13-2.47186E-13
 -1      3458 2.07588E+01-1.56871E+00 2.71344E-02 2.61322E+00 1.93049E-13-1.71717E-13
 -1      3459 2.13697E+01-2.18635E+00 1.67231E-02 2.61068E+00 2.80687E-13-7.41057E-14
 -1      3460 1.96940E+01-1.22022E+00-3.39224E-02 2.87154E+00 2.12139E-13-2.63024E-13
 -1      3461 1.23096E+01 1.25890E-01 1.79788E-02-2.70821E+00-1.19005E-13-8.41591E-13
 -1      3462 1.30966E+01-6.03218E-01 8.71400E-02-3.89976E+00-2.18409E-13-8.40619E-13
 -1      3463 1.50702E+01-7.60544E-01 7.11450E-02-3.81751E+00-2.55317E-13-7.43770E-13
 -1      3464 2.11884E+01-2.27738E+00 2.83502E-02-2.51532E+00 2.53953E-13-3.47391E-14
 -1      3465 2.05579E+01-1.70177E+00 2.84822E-02-2.53632E+00 1.98167E-13-1.94118E-14
 -1      3466 2.02030E+01-1.18805E+00 2.04707E-02-2.34338E+00 1.25376E-13-3.96456E-14
 -1      3467 1.98218E+01-7.54843E-01 7.78104E-03-2.26197E+00 6.12379E-14-2.58272E-14
 -1      3468 1.94687E+01-1.41359E+00-2.40814E-02-2.83298E+00 1.65087E-13 2.61943E-16
 -1      3469 1.97083E+01-3.89076E-01 1.57052E-02-2.04927E+00 5.89427E-15-5.43076E-14
 -1      3470 1.95031E+01-1.07834E-01 4.16329E-04-1.93465E+00-6.62696E-14 1.86024E-14
 -1      3471 1.90551E+01-4.69613E-01-1.22439E-02-2.33755E+00 1.93218E-14-3.44403E-14
 -1      3472 1.95084E+01 1.21735E-01 1.06774E-02-1.74907E+00-1.15834E-13 6.96142E-14
 -1      3473 1.94136E+01 2.85709E-01-2.45906E-03-1.63068E+00-8.45351E-14-2.55118E-15
 -1      3474 1.89682E+01 1.22655E-01-3.19761E-03-1.90638E+00-7.26987E-14-8.48844E-15
 -1      3475 1.94725E+01 4.14463E-01 6.93308E-03-1.47615E+00-8.05320E-14 2.74883E-14
 -1      3476 1.94391E+01 4.96245E-01-3.52307E-03-1.36405E+00-5.46543E-14-4.94907E-14
 -1      3477 1.90331E+01 4.61487E-01 9.62616E-04-1.55669E+00-7.10670E-14 1.83425E-13
 -1      3478 1.95174E+01 5.55820E-01 4.49119E-03-1.23548E+00-1.13749E-13-8.73801E-14
 -1      3479 1.95151E+01 5.83441E-01-3.69028E-03-1.13262E+00-1.25906E-13-7.45464E-14
 -1      3480 1.91631E+01 6.28601E-01 2.80932E-03-1.27437E+00-1.33728E-13-4.61143E-14
 -1      3481 1.95951E+01 5.98384E-01 3.02401E-03-1.02468E+00-6.74548E-14-1.13531E-13
 -1      3482 1.96061E+01 5.92512E-01-3.48775E-03-9.31971E-01 2.79129E-14-1.59848E-13
 -1      3483 1.93116E+01 6.83221E-01 3.41023E-03-1.04280E+00-6.18598E-14-1.45959E-13
 -1      3484 1.96794E+01 5.80651E-01 2.17309E-03-8.40676E-01 4.26090E-14-1.44449E-13
 -1      3485 1.96943E+01 5.55794E-01-3.13782E-03-7.58430E-01 1.21304E-14-1.44482E-13
 -1      3486 1.94544E+01 6.68447E-01 3.36927E-03-8.49638E-01 4.80188E-14-2.02332E-13
 -1      3487 1.97573E+01 5.29410E-01 1.68005E-03-6.81126E-01-1.53942E-14-8.88537E-14
 -1      3488 1.97714E+01 4.95320E-01-2.73738E-03-6.09389E-01 1.66229E-14-1.40321E-13
 -1      3489 1.95806E+01 6.14159E-01 3.02861E-03-6.86816E-01 4.02329E-14-8.90988E-14
 -1      3490 1.98235E+01 4.62503E-01 1.37690E-03-5.44270E-01 5.65595E-14-1.12394E-14
 -1      3491 1.98350E+01 4.25457E-01-2.33231E-03-4.82812E-01 1.39415E-13-8.21350E-15
 -1      3492 1.96864E+01 5.40470E-01 2.57395E-03-5.49310E-01 1.33618E-13-4.73589E-14
 -1      3493 1.98767E+01 3.91281E-01 1.16733E-03-4.28495E-01 1.79858E-13 1.11057E-13
 -1      3494 1.98851E+01 3.55100E-01-1.94690E-03-3.76798E-01 1.12138E-13 1.77355E-13
 -1      3495 1.97719E+01 4.60435E-01 2.10406E-03-4.33789E-01 2.33546E-13 4.76726E-14
 -1      3496 1.99176E+01 3.22557E-01 1.00158E-03-3.32065E-01 7.50186E-15 2.20785E-13
 -1      3497 1.99233E+01 2.89385E-01-1.59474E-03-2.89360E-01 1.18225E-13 1.35707E-13
 -1      3498 1.98388E+01 3.82106E-01 1.66862E-03-3.37715E-01 1.14157E-13 2.66425E-13
 -1      3499 1.99481E+01 2.60067E-01 8.57050E-04-2.53048E-01 2.83239E-14 1.03639E-13
 -1      3500 1.99516E+01 2.30935E-01-1.28294E-03-2.18394E-01-3.92690E-14 8.88033E-14
 -1      3501 1.98899E+01 3.10078E-01 1.28955E-03-2.58843E-01 5.51693E-14 1.47558E-13
 -1      3502 1.99701E+01 2.05531E-01 7.25413E-04-1.89367E-01-1.46246E-13-1.07222E-13
 -1      3503 1.99719E+01 1.80759E-01-1.01411E-03-1.61732E-01-3.21515E-13-2.76521E-13
 -1      3504 1.99279E+01 2.46618E-01 9.73148E-04-1.95032E-01-1.94328E-13-1.52292E-13
 -1      3505 1.99853E+01 1.59394E-01 6.04868E-04-1.38895E-01-2.41992E-13-2.79127E-13
 -1      3506 1.99860E+01 1.38871E-01-7.87678E-04-1.17233E-01-1.34028E-13-2.00599E-13
 -1      3507 1.99556E+01 1.92482E-01 7.17305E-04-1.44198E-01-2.47473E-13-1.03813E-13
 -1      3508 1.99955E+01 1.21339E-01 4.95973E-04-9.95594E-02-1.31988E-13-2.01066E-13
 -1      3509 1.99954E+01 1.04712E-01-6.00935E-04-8.28726E-02-1.11033E-13-2.45045E-13
 -1      3510 1.99751E+01 1.47490E-01 5.15766E-04-1.04345E-01-1.35354E-13-2.22622E-13
 -1      3511 2.00019E+01 9.06296E-02 3.99637E-04-6.94263E-02-8.88654E-14-1.64184E-13
 -1      3512 2.00013E+01 7.74270E-02-4.49914E-04-5.67984E-02-1.50780E-13-5.61961E-14
 -1      3513 1.99885E+01 1.10926E-01 3.60659E-04-7.36155E-02-1.10917E-14-3.23491E-13
 -1      3514 2.00056E+01 6.63358E-02 3.16320E-04-4.67521E-02-2.52221E-13 2.89299E-15
 -1      3515 2.00047E+01 5.60500E-02-3.30044E-04-3.73738E-02-1.78862E-13-1.22321E-13
 -1      3516 1.99972E+01 8.18056E-02 2.43916E-04-5.03264E-02-1.40053E-13-1.44047E-13
 -1      3517 2.00074E+01 4.74770E-02 2.45842E-04-3.00138E-02-3.26733E-14-1.61488E-13
 -1      3518 2.00065E+01 3.96113E-02-2.36640E-04-2.31900E-02 3.78863E-14-1.45629E-13
 -1      3519 2.00026E+01 5.90491E-02 1.58030E-04-3.29978E-02-1.19142E-13-2.78995E-14
 -1      3520 2.00080E+01 3.31068E-02 1.87476E-04-1.79153E-02 7.45589E-15-1.23057E-13
 -1      3521 2.00070E+01 2.72032E-02-1.65218E-04-1.30642E-02 2.36027E-14-1.15389E-13
 -1      3522 2.00056E+01 4.15920E-02 9.63974E-05-2.03607E-02 5.57048E-14 6.28927E-14
 -1      3523 2.00077E+01 2.23597E-02 1.40118E-04-9.38009E-03 1.32072E-13-1.17830E-14
 -1      3524 2.00068E+01 1.80124E-02-1.11680E-04-6.02573E-03 2.45112E-13 5.12349E-14
 -1      3525 2.00070E+01 2.84456E-02 5.34276E-05-1.13523E-02 1.39131E-13 2.96099E-14
 -1      3526 2.00070E+01 1.44728E-02 1.02506E-04-3.53319E-03 2.90233E-13-1.21088E-14
 -1      3527 2.00062E+01 1.13310E-02-7.25077E-05-1.29505E-03 4.33511E-13 1.20430E-13
 -1      3528 2.00073E+01 1.87286E-02 2.45076E-05-5.10174E-03 3.14761E-13 5.80084E-14
 -1      3529 2.00060E+01 8.78946E-03 7.33007E-05 3.20075E-04 4.76751E-13 7.91734E-14
 -1      3530 2.00053E+01 6.55670E-03-4.45893E-05 1.73899E-03 3.10276E-13 1.73122E-13
 -1      3531 2.00068E+01 1.16762E-02 5.81260E-06-9.11123E-04 4.66120E-13-7.34674E-14
 -1      3532 2.00049E+01 4.75677E-03 5.11242E-05 2.71860E-03-4.96540E-14 9.61389E-14
 -1      3533 2.00043E+01 3.18727E-03-2.44135E-05 3.54471E-03-1.08921E-13-1.73462E-13
 -1      3534 2.00060E+01 6.64098E-03-5.20220E-06 1.76484E-03 9.69511E-14-2.25748E-13
 -1      3535 2.00038E+01 1.89917E-03 3.12882E-05 4.07643E-03-4.24116E-14-4.54765E-13
 -1      3536 2.00033E+01 7.99320E-04-7.24549E-06 4.46322E-03-4.29047E-14-4.49112E-13
 -1      3537 2.00049E+01 3.08447E-03-1.01719E-05 3.34969E-03-2.53816E-13-4.75888E-13
 -1      3538 2.59480E+01-1.92248E+00-5.54380E-02 1.24886E+00-1.43670E-14 3.00125E-13
 -1      3539 1.94719E+01 2.06410E+00 4.88261E-05 5.53134E-01-2.61804E-13-5.03729E-13
 -1      3540 1.96049E+01 1.82168E+00 2.63952E-03 6.94010E-01-2.45658E-13-4.80577E-13
 -1      3541 1.92130E+01 1.88609E+00-2.83220E-03 8.18742E-01-1.84397E-13-4.68342E-13
 -1      3542 1.90763E+01 2.30305E+00-3.27311E-03 5.54151E-01-1.92624E-13-5.22906E-13
 -1      3543 2.09005E+01-9.02112E-01 1.43450E-02-2.05514E+00-1.58187E-14-1.71141E-13
 -1      3544 2.05745E+01-4.48482E-01 1.71997E-02-1.98235E+00 2.27851E-14-2.05475E-13
 -1      3545 2.31301E+01-2.97337E+00 5.13125E-02 1.66844E+00-3.05989E-13-4.98766E-13
 -1      3546 2.39401E+01-3.28847E+00 1.64283E-02 1.19395E+00-2.71696E-13-5.86132E-13
 -1      3547 2.01293E+01-3.42563E-01 7.60059E-03 1.86325E+00-4.88255E-14-3.69458E-14
 -1      3548 2.03821E+01-6.52496E-01 1.08187E-02 1.91409E+00-2.99340E-14-9.33444E-14
 -1      3549 1.98840E+01 1.00096E-01 2.14307E-03 1.63981E+00-2.14322E-14 5.75582E-14
 -1      3550 2.00258E+01-9.37885E-02 7.78227E-03 1.72348E+00-5.61404E-14-2.68938E-14
 -1      3551 1.95420E+01-1.57173E-01-1.06574E-02 1.92153E+00-7.16427E-14 8.18022E-14
 -1      3552 1.97933E+01 3.54213E-01-5.18335E-04 1.41064E+00-8.39323E-14 2.02103E-13
 -1      3553 1.98674E+01 2.48280E-01 5.62858E-03 1.50581E+00-4.20976E-14 2.13899E-13
 -1      3554 1.94480E+01 2.54997E-01-4.85737E-03 1.62476E+00-1.36591E-13 2.25516E-13
 -1      3555 1.97832E+01 4.75513E-01-1.72140E-03 1.19323E+00 2.71544E-14 1.76374E-13
 -1      3556 1.98190E+01 4.29737E-01 4.00127E-03 1.28951E+00 2.82657E-14 2.15140E-13
 -1      3557 1.94675E+01 4.78091E-01-1.48265E-03 1.36120E+00-1.81273E-14 2.43719E-13
 -1      3558 1.98098E+01 5.10213E-01-2.19030E-03 9.94088E-01-4.81128E-14 2.53521E-13
 -1      3559 1.98259E+01 5.02701E-01 2.92650E-03 1.08592E+00 3.94676E-14 2.91044E-13
 -1      3560 1.95376E+01 5.73306E-01 2.25147E-04 1.13129E+00-1.92008E-15 3.67541E-13
 -1      3561 1.98490E+01 4.92640E-01-2.26705E-03 8.15788E-01-3.73895E-14 1.17191E-13
 -1      3562 1.98560E+01 5.07591E-01 2.25740E-03 9.00057E-01-1.20799E-14 1.86449E-13
 -1      3563 1.96238E+01 5.87415E-01 9.60750E-04 9.31434E-01 2.36391E-14 3.31292E-13
 -1      3564 1.98885E+01 4.46614E-01-2.13822E-03 6.59268E-01-1.22485E-13-3.94805E-16
 -1      3565 1.98920E+01 4.73261E-01 1.84158E-03 7.34286E-01-7.79199E-14 4.31713E-14
 -1      3566 1.97080E+01 5.53750E-01 1.17778E-03 7.58326E-01-3.20583E-14 2.64078E-13
 -1      3567 1.99229E+01 3.87828E-01-1.90940E-03 5.24474E-01-1.20389E-15-2.23862E-13
 -1      3568 1.99254E+01 4.19182E-01 1.56207E-03 5.89547E-01-5.16429E-14-9.04011E-14
 -1      3569 1.97821E+01 4.95015E-01 1.13587E-03 6.09523E-01 2.87561E-15 2.02614E-14
 -1      3570 1.99504E+01 3.26092E-01-1.64201E-03 4.10555E-01 9.50179E-15-2.80260E-13
 -1      3571 1.99530E+01 3.57855E-01 1.34883E-03 4.65713E-01-2.73077E-14-2.87845E-13
 -1      3572 1.98433E+01 4.26048E-01 9.81212E-04 4.83070E-01 4.05269E-14-9.70985E-14
 -1      3573 1.99711E+01 2.67149E-01-1.37178E-03 3.16038E-01 8.89637E-14-9.72590E-14
 -1      3574 1.99740E+01 2.96863E-01 1.16622E-03 3.61816E-01 9.48201E-15-2.51288E-13
 -1      3575 1.98916E+01 3.56072E-01 7.92768E-04 3.77108E-01-4.49371E-14-1.11663E-13
 -1      3576 1.99859E+01 2.14040E-01-1.11879E-03 2.39012E-01 2.37513E-13 3.32315E-15
 -1      3577 1.99890E+01 2.40459E-01 9.99441E-04 2.76270E-01 2.09270E-13 3.12860E-14
 -1      3578 1.99284E+01 2.90438E-01 6.10294E-04 2.89677E-01 3.92749E-14-5.42725E-15
 -1      3579 1.99959E+01 1.68070E-01-8.93279E-04 1.77332E-01 3.33127E-14 4.52544E-14
 -1      3580 1.99992E+01 1.90718E-01 8.44470E-04 2.07098E-01 1.79337E-13 1.22180E-13
 -1      3581 1.99555E+01 2.31912E-01 4.51341E-04 2.18691E-01 1.01876E-13 2.61247E-13
 -1      3582 2.00023E+01 1.29474E-01-6.99282E-04 1.28787E-01-1.23473E-13 1.46486E-13
 -1      3583 2.00055E+01 1.48345E-01 7.01831E-04 1.52145E-01-1.08887E-13 1.01484E-13
 -1      3584 1.99748E+01 1.81589E-01 3.21393E-04 1.61994E-01-3.21938E-14 3.91261E-13
 -1      3585 2.00061E+01 9.78665E-02-5.37011E-04 9.12334E-02-5.17103E-14 2.58663E-13
 -1      3586 2.00090E+01 1.13223E-01 5.73216E-04 1.09241E-01-6.06154E-14 1.58085E-13
 -1      3587 1.99882E+01 1.39534E-01 2.19814E-04 1.17455E-01-4.97580E-14 3.59351E-13
 -1      3588 2.00080E+01 7.25379E-02-4.04447E-04 6.26924E-02-1.11526E-13 3.04866E-13
 -1      3589 2.00105E+01 8.47741E-02 4.59966E-04 7.63261E-02-5.32854E-15 3.11838E-13
 -1      3590 1.99970E+01 1.05215E-01 1.43227E-04 8.30527E-02-9.47907E-14 6.09039E-13
 -1      3591 2.00086E+01 5.26395E-02-2.98408E-04 4.13989E-02-6.25368E-14 3.23550E-13
 -1      3592 2.00108E+01 6.22013E-02 3.62568E-04 5.15272E-02-1.07924E-13 2.75914E-13
 -1      3593 2.00025E+01 7.77918E-02 8.73476E-05 5.69400E-02-8.83863E-14 4.94516E-13
 -1      3594 2.00083E+01 3.73014E-02-2.15246E-04 2.58273E-02 1.97448E-13 1.50280E-13
 -1      3595 2.00102E+01 4.46336E-02 2.80650E-04 3.31981E-02 1.34879E-13 2.75324E-13
 -1      3596 2.00056E+01 5.63021E-02 4.79225E-05 3.74812E-02 5.71374E-14 2.59473E-13
 -1      3597 2.00076E+01 2.56991E-02-1.51296E-04 1.46925E-02 2.10767E-13-2.97849E-14
 -1      3598 2.00092E+01 3.12163E-02 2.13184E-04 1.99334E-02 2.00214E-13 9.54048E-14
 -1      3599 2.00071E+01 3.97757E-02 2.11505E-05 2.32683E-02 2.79937E-13 1.06932E-13
 -1      3600 2.00067E+01 1.70882E-02-1.03146E-04 6.93736E-03 1.91473E-13-5.45238E-14
 -1      3601 2.00079E+01 2.11609E-02 1.58727E-04 1.05621E-02 2.81877E-13-5.14468E-14
 -1      3602 2.00074E+01 2.73017E-02 3.82581E-06 1.31186E-02 2.63848E-13-3.49982E-14
 -1      3603 2.00056E+01 1.08190E-02-6.76976E-05 1.71153E-03 9.92069E-14 6.81484E-15
 -1      3604 2.00066E+01 1.37680E-02 1.15612E-04 4.13140E-03 9.80524E-14 8.65296E-15
 -1      3605 2.00071E+01 1.80625E-02-6.67339E-06 6.06116E-03 9.02569E-14 1.11960E-13
 -1      3606 2.00045E+01 6.33689E-03-4.24049E-05-1.65492E-03 7.80006E-14 1.13818E-13
 -1      3607 2.00053E+01 8.43495E-03 8.22367E-05-1.17718E-04 1.07885E-13 1.08810E-13
 -1      3608 2.00063E+01 1.13469E-02-1.24510E-05 1.31662E-03-2.75198E-14 1.88651E-13
 -1      3609 2.00035E+01 3.17274E-03-2.44642E-05-3.67547E-03-7.07437E-14 2.71405E-13
 -1      3610 2.00041E+01 4.64914E-03 5.71753E-05-2.77704E-03 1.04026E-13 2.16248E-13
 -1      3611 2.00054E+01 6.54523E-03-1.61817E-05-1.72991E-03-2.65997E-14 4.49018E-13
 -1      3612 2.00026E+01 9.28236E-04-1.10662E-05-4.72748E-03-2.43746E-13 3.81815E-13
 -1      3613 2.00030E+01 1.97211E-03 3.72790E-05-4.29407E-03-2.08628E-13 2.99145E-13
 -1      3614 2.00043E+01 3.14657E-03-1.77269E-05-3.55000E-03-1.46247E-13 4.59469E-13
 -1      3615 2.00017E+01-6.85667E-04-2.98373E-06-5.09959E-03-4.27555E-13 3.39926E-13
 -1      3616 2.00021E+01 7.73540E-05 2.29074E-05-4.97950E-03-2.74261E-13 4.04870E-13
 -1      3617 2.00033E+01 7.63286E-04-1.17238E-05-4.46125E-03-2.74789E-13 3.45557E-13
 -1      3618 2.00051E+01-4.84145E-04-6.18929E-06 1.10171E-03 3.43717E-13 8.66941E-14
 -1      3619 2.00052E+01-4.76378E-04-6.70116E-06 3.71361E-04 4.15628E-13 2.05727E-13
 -1      3620 2.00016E+01-2.27054E-03 9.05936E-06-4.63383E-03-2.34716E-14-8.30346E-14
 -1      3621 2.00010E+01-2.11486E-03 8.20150E-07-4.88354E-03 5.15519E-14-8.22715E-14
 -1      3622 2.00011E+01-1.75728E-03-4.57942E-06-5.04451E-03-1.21516E-13-2.97056E-14
 -1      3623 2.00023E+01-1.68454E-03-5.98899E-06-4.52006E-03-1.71000E-13-2.84516E-13
 -1      3624 1.96748E+01 1.01354E+00 1.35558E-03 1.33197E+00-1.14618E-13-4.13820E-13
 -1      3625 1.97452E+01 6.98096E-01 5.96790E-03 1.55521E+00-7.24830E-14-3.89094E-13
 -1      3626 1.92585E+01 1.37664E+00-4.31033E-04 1.21291E+00-1.15065E-13-4.64784E-13
 -1      3627 2.03957E+01-5.20671E-02 8.11858E-03-1.78578E+00 7.07290E-14-2.60389E-13
 -1      3628 2.02228E+01 3.07924E-01 8.41540E-03-1.63743E+00 1.32378E-13-2.79404E-13
 -1      3629 1.98889E+01-1.53289E-01-1.68993E-02-2.06690E+00 2.03710E-14-3.01175E-13
 -1      3630 1.15163E+01 6.27323E-01 2.80228E-02 4.44391E-01-1.75309E-13 4.23751E-13
 -1      3631 1.14448E+01 6.29467E-01 6.30933E-02-7.33521E-01-2.61345E-14 3.99403E-13
 -1      3632 2.06430E+01-1.02680E+00 1.74379E-02 2.03734E+00-6.82780E-14-1.44938E-13
 -1      3633 2.10618E+01-1.46553E+00 1.32362E-02 2.01035E+00-1.35973E-13-1.51401E-13
 -1      3634 1.98547E+01-8.23349E-01-1.82067E-02 2.23255E+00-9.68905E-14-7.26467E-14
 -1      3635 2.15829E+01-1.95464E+00 3.20949E-02 2.05725E+00-1.82189E-13-2.90585E-13
 -1      3636 2.22023E+01-2.47934E+00 7.38454E-03 1.87722E+00-1.90738E-13-3.22834E-13
 -1      3637 2.05456E+01-1.78889E+00-2.76316E-02 2.49546E+00-2.28030E-13-2.18667E-13
 -1      3638 2.66134E+01-8.52649E-01-5.23118E-02-1.97436E+00 2.05211E-13-7.80674E-13
 -1      3639 2.36022E+01-3.79073E+00 8.16304E-02-2.19797E+00 4.07466E-13-1.28895E-13
 -1      3640 1.11596E+01 6.60438E-01 8.61104E-02-6.33841E-01 1.37199E-14-9.08752E-13
 -1      3641 1.18826E+01 4.17987E-01 5.46175E-02-1.75666E+00 1.06270E-13 4.16195E-13
 -1      3642 1.29364E+01-7.65324E-02 3.66444E-02-2.92037E+00 1.99228E-13 2.97838E-13
 -1      3643 1.29844E+01 6.61521E-01 6.72708E-02-1.23171E+00 5.81351E-14 2.39531E-13
 -1      3644 2.64142E+01-2.34183E+00 1.17177E-03-1.10314E+00 5.93726E-14-7.88668E-13
 -1      3645 1.84085E+01-3.06712E+00-4.86837E-02 4.52505E+00-4.63588E-13-2.24376E-13
 -1      3646 1.61664E+01-1.86962E+00 5.85235E-02 4.38747E+00-4.76209E-13 8.82280E-14
 -1      3647 2.16265E+01-3.84217E+00-7.83111E-02-3.38239E+00 4.46553E-13-1.37945E-14
 -1      3648 2.27428E+01-3.34378E+00 3.46277E-02-2.27078E+00 4.07101E-13-1.04629E-13
 -1      3649 2.18290E+01-2.81449E+00 5.02625E-02-2.57013E+00 3.52680E-13-1.02419E-13
 -1      3650 1.98193E+01-3.13003E+00 5.93218E-02-4.03896E+00 4.01701E-13 2.58613E-14
 -1      3651 1.97561E+01 3.51699E-01 4.58843E-03 1.81307E+00-2.94892E-14-3.64921E-13
 -1      3652 1.99290E+01-3.71598E-02 1.06469E-02 2.00247E+00 1.72783E-14-3.17752E-13
 -1      3653 1.93031E+01-1.11431E-01-1.55389E-02 2.29034E+00 6.41904E-14-3.48269E-13
 -1      3654 2.34216E+01-4.16148E+00-8.78976E-02 2.38894E+00-3.10890E-13-7.21663E-13
 -1      3655 2.14292E+01-3.62443E+00 7.79927E-02 3.53476E+00-4.09148E-13-5.14637E-13
 -1      3656 1.52927E+01-1.71553E+00-1.23375E-02 4.63450E+00 4.55802E-13-5.09211E-13
 -1      3657 1.30289E+01-4.01498E-01 8.48698E-02 3.60955E+00 3.85064E-13-6.98080E-13
 -1      3658 1.80011E+01 3.23284E+00-6.95984E-03 1.37271E-01-1.80060E-14-6.40666E-13
 -1      3659 1.81476E+01 3.16242E+00-1.47822E-03 1.94251E-01-8.67555E-14-6.29782E-13
 -1      3660 1.81907E+01 2.97400E+00 4.79779E-03 2.88716E-01-8.53673E-14-6.05927E-13
 -1      3661 1.79131E+01 3.03701E+00 8.30011E-03 1.11661E-01-9.82016E-16-6.01048E-13
 -1      3662 1.98045E+01 1.55168E+00 2.88478E-03-8.08938E-01 2.47342E-13-4.33610E-13
 -1      3663 1.93770E+01 1.79655E+00-5.33428E-03-8.07486E-01 2.14587E-13-4.79093E-13
 -1      3664 1.83955E+01 2.70384E+00-5.72557E-03 4.57344E-01-1.11000E-13-5.83587E-13
 -1      3665 1.87183E+01 2.51735E+00-1.97354E-03 5.03247E-01-1.49835E-13-5.70350E-13
 -1      3666 1.87875E+01 2.31919E+00 3.80155E-03 6.28472E-01-1.36510E-13-5.27245E-13
 -1      3667 2.33091E+01-3.59783E+00 4.28388E-02 2.42808E+00 3.83396E-13 1.09134E-13
 -1      3668 1.87761E+01-2.67236E+00 5.28302E-02-4.37055E+00-3.73330E-13-4.61374E-13
 -1      3669 1.45759E+01-3.89884E-01 5.14437E-02-3.12933E+00 1.87870E-13 2.63643E-13
 -1      3670 1.80248E+01-1.68847E+00 2.28203E-03-3.60604E+00 2.86545E-13 6.39913E-14
 -1      3671 1.92803E+01-2.55098E+00 4.82263E-02-3.85452E+00 3.81924E-13 7.03370E-14
 -1      3672 2.00546E+01-2.30190E+00 3.02447E-02 3.55682E+00 3.73462E-13-2.15002E-13
 -1      3673 2.13668E+01-2.72723E+00 1.48736E-02 3.02705E+00 3.36458E-13-6.27116E-14
 -1      3674 1.21419E+01 7.86226E-01 1.10206E-01-1.59878E+00-4.83858E-14-8.52693E-13
 -1      3675 1.35515E+01 5.64667E-01 4.15960E-02-2.14161E+00-1.14244E-13-7.69242E-13
 -1      3676 1.23183E+01 9.50857E-01 5.40848E-03-3.02715E-01 4.22882E-14-8.00783E-13
 -1      3677 2.24004E+01-3.15123E+00 2.54145E-02 2.69948E+00 3.59503E-13 2.04259E-14
 -1      3678 2.31905E+01-3.02259E+00 3.88887E-05-1.76558E+00-1.89777E-13-2.04502E-14
 -1      3679 2.25268E+01-2.50508E+00 4.30862E-02-2.04445E+00-2.04069E-13-1.69990E-14
 -1      3680 2.00042E+01-7.37758E-04-8.52073E-06-3.20748E-03 3.13202E-14-1.40464E-13
 -1      3681 2.00036E+01-7.34900E-04-1.21322E-05-3.80002E-03 2.89785E-14-3.13308E-13
 -1      3682 1.92182E+01 7.11504E-01-5.89288E-03 1.73782E+00-3.15203E-14-4.11879E-13
 -1      3683 2.00027E+01 6.04712E-05 2.28776E-05 4.73208E-03-5.97220E-15-4.64277E-13
 -1      3684 2.00023E+01-6.68250E-04 1.64438E-06 4.85565E-03-1.11389E-13-6.10733E-13
 -1      3685 2.00027E+01-7.61820E-04-1.41894E-05 4.61525E-03-2.33758E-13-8.48180E-13
 -1      3686 2.00038E+01 7.42131E-04-1.50778E-05 4.16885E-03-9.46931E-14-6.74503E-13
 -1      3687 2.18886E+01-3.05410E+00-5.30623E-02 2.52486E+00-3.61724E-13-5.39478E-13
 -1      3688 2.00029E+01-9.06136E-04 7.65590E-06-4.44327E-03-1.90805E-13-1.49794E-13
 -1      3689 2.00022E+01-1.00806E-03-9.15237E-06-4.80180E-03-2.25255E-13-5.64100E-14
 -1      3690 2.45824E+01-3.57081E+00 4.43616E-02 1.09419E+00-1.81291E-13-6.74339E-13
 -1      3691 2.00058E+01 7.39826E-04 2.67530E-05-5.60237E-06 4.42737E-13 1.96117E-13
 -1      3692 2.00052E+01-4.68035E-04-4.89290E-06-3.68480E-04 4.44777E-13 1.45445E-13
 -1      3693 2.00051E+01-4.83871E-04-7.33929E-06-1.08992E-03 3.90052E-13 8.19272E-14
 -1      3694 2.00049E+01-5.63762E-04-4.75005E-06 1.83000E-03 1.72754E-13 6.76024E-14
 -1      3695 2.00056E+01 6.45432E-04 2.47768E-05 1.42683E-03 3.19374E-13-2.94728E-14
 -1      3696 2.00046E+01-5.84916E-04-8.13833E-06 2.51365E-03-1.38373E-14 1.50858E-13
 -1      3697 2.00013E+01-1.34912E-03 1.09373E-05-5.12005E-03-3.43447E-13 8.30368E-14
 -1      3698 2.17767E+01-3.19042E+00 4.33296E-02-3.18442E+00-3.24875E-13-5.68859E-14
 -1      3699 2.28087E+01-3.62827E+00 1.29396E-02-2.83204E+00-3.27117E-13 8.12024E-15
 -1      3700 1.88441E+01 2.41620E+00 4.99515E-03-5.47065E-01 2.01691E-13-5.81753E-13
 -1      3701 1.23445E+01 6.65271E-01 7.92628E-02 1.22830E+00-2.34429E-13 4.58779E-13
 -1      3702 1.31129E+01 8.54183E-01 4.09418E-02 5.72258E-01-6.11022E-14 2.71354E-13
 -1      3703 1.33694E+01 4.09926E-01 1.58295E-03 1.95369E+00-2.49422E-13 3.45543E-13
 -1      3704 1.67758E+01-1.26080E+00 4.63269E-02 3.66147E+00-5.00170E-13-7.84789E-15
 -1      3705 1.51983E+01-1.01244E+00 6.95841E-02 3.91523E+00-5.09105E-13 2.87968E-13
 -1      3706 1.44702E+01-2.70794E-01 1.00451E-02 3.04561E+00-4.23933E-13 3.59986E-13
 -1      3707 1.77671E+01 2.73469E+00-1.39446E-03-2.80591E-01 5.26253E-14-6.52224E-13
 -1      3708 1.76632E+01 2.78420E+00-5.88576E-03-1.29847E-01 1.54262E-14-6.07949E-13
 -1      3709 2.00031E+01-8.46099E-04 1.58493E-06 4.32605E-03-1.62375E-13-7.59827E-13
 -1      3710 2.38173E+01-3.48017E+00-5.96860E-03-1.77917E+00-2.66652E-13 4.97120E-14
 -1      3711 2.05498E+01-2.95873E+00 5.18583E-02 3.43748E+00-4.24064E-13-4.09277E-13
 -1      3712 1.73946E+01-1.84752E+00 4.79737E-02 4.19823E+00 4.18832E-13-4.33271E-13
 -1      3713 1.27113E+01 2.95825E-01 1.00213E-01 2.66824E+00 2.93069E-13-7.85670E-13
 -1      3714 1.26818E+01 8.12249E-01 1.97495E-02 1.42308E+00 1.64936E-13-7.58761E-13
 -1      3715 1.41630E+01-1.08752E-02-2.14556E-02 3.02237E+00 3.37841E-13-5.93296E-13
 -1      3716 2.00037E+01 2.36896E-06 3.08072E-06-4.12581E-03-6.24610E-14 2.96848E-14
 -1      3717 2.55873E+01-3.06714E+00-6.45336E-02-2.08561E-01-9.35762E-14-6.51256E-13
 -1      3718 1.79580E+01 2.60352E+00-9.90589E-03-4.80507E-01 7.49068E-14-6.38688E-13
 -1      3719 1.77531E+01 2.46556E+00 1.03208E-02-4.81452E-01 4.25702E-14-6.13709E-13
 -1      3720 1.82333E+01 2.47146E+00 1.63792E-03-5.91080E-01 1.20638E-13-6.07425E-13
 -1      3721 2.00038E+01 2.01770E-05 8.36552E-06 4.04534E-03-1.43335E-13-6.93599E-13
 -1      3722 2.00035E+01-8.09118E-04-8.65059E-06 3.87607E-03-2.29268E-13-6.42862E-13
 -1      3723 2.00041E+01-7.98857E-04-2.11067E-06 3.27119E-03-1.26329E-13-1.97812E-13
 -1      3724 2.00044E+01 8.06924E-04 1.93464E-06 3.72639E-03-2.06670E-13-5.63023E-13
 -1      3725 1.97113E+01 6.27734E-01-8.46939E-03-1.60124E+00 1.21830E-13-3.72238E-13
 -1      3726 2.01636E+01 6.32121E-01 5.08986E-03-1.40993E+00 1.60256E-13-2.96955E-13
 -1      3727 2.17654E+01-1.96538E+00-2.42248E-03-2.08621E+00-1.79727E-13-1.02168E-13
 -1      3728 2.12901E+01-1.40887E+00 2.94017E-02-2.15886E+00-9.36230E-14-1.08696E-13
 -1      3729 2.04232E+01-1.19246E+00-3.54772E-02-2.48021E+00-9.71458E-14-1.65496E-13
 -1      3730 2.13664E+01-2.37681E+00-3.76866E-02-2.68486E+00-2.22941E-13-1.22380E-13
 -1      3731 2.01358E+01 8.71551E-01 4.05749E-03-1.22786E+00 1.76810E-13-3.11925E-13
 -1      3732 1.89087E+01-1.30268E+00-2.52301E-03 3.28074E+00 2.84880E-13-3.20978E-13
 -1      3733 1.86220E+01-1.83291E+00-2.57869E-02 3.77512E+00 3.70095E-13-3.45685E-13
 -1      3734 1.65255E+01-6.28169E-01 1.02988E-01 3.65741E+00 3.80628E-13-4.89898E-13
 -1      3735 1.86649E+01-6.11526E-01 1.63900E-02 2.91145E+00 2.18829E-13-3.65646E-13
 -1      3736 1.63803E+01-8.41304E-01 3.10596E-02-3.50779E+00 1.71637E-13 8.04764E-14
 -1      3737 1.83558E+01-1.17472E+00 3.29080E-02-3.11427E+00 2.13819E-13 4.46019E-14
 -1      3738 1.79738E+01-6.63584E-01-1.28266E-02-2.80714E+00 9.60723E-14-4.39861E-16
 -1      3739 1.49630E+01-5.30800E-02-1.52988E-02-2.69490E+00 1.41385E-13 2.18599E-13
 -1      3740 1.54320E+01-3.09166E-01 7.87051E-04-3.33206E+00-1.73975E-13-6.51944E-13
 -1      3741 1.65254E+01-1.10972E+00 1.37446E-02-3.97110E+00-2.59782E-13-5.83308E-13
 -1      3742 2.00046E+01-5.84068E-04-6.33183E-06-2.49991E-03 6.23878E-14 5.19524E-14
 -1      3743 2.00050E+01 3.88251E-04 4.11932E-05-2.79835E-03 1.12147E-13-2.41147E-14
 -1      3744 2.00049E+01-5.62672E-04-6.21761E-06-1.82326E-03 2.37268E-13 1.17878E-13
 -1      3745 2.47625E+01-3.31156E+00-4.33963E-03-8.12375E-01-2.19295E-13 1.10774E-13
 -1      3746 2.03621E+01-2.54956E+00-3.87489E-02-3.13834E+00 3.43237E-13-4.10384E-14
 -1      3747 1.86738E+01 1.13658E+00-8.54861E-03 1.54119E+00-3.97845E-14-4.31079E-13
 -1      3748 1.87024E+01 8.12501E-01 1.35637E-02 1.80748E+00 7.84518E-15-4.09450E-13
 -1      3749 1.82102E+01-2.48416E-01 2.59607E-02-2.40291E+00 1.22310E-14 1.76901E-14
 -1      3750 1.80712E+01 4.90241E-02-1.19872E-02-2.16152E+00-3.15291E-14-2.74130E-14
 -1      3751 1.69430E+01-5.36368E-02 1.03162E-02-2.61404E+00 8.31652E-14 7.62511E-14
 -1      3752 1.83056E+01 2.99203E-01 1.33234E-02-1.88049E+00-4.10550E-14-2.52814E-15
 -1      3753 1.82960E+01 4.71688E-01-9.96682E-03-1.68786E+00-1.96028E-14 7.59937E-14
 -1      3754 1.74330E+01 4.86510E-01 1.73326E-02-1.91704E+00 3.14015E-14 8.82700E-14
 -1      3755 1.85125E+01 6.06799E-01 6.41929E-03-1.49104E+00-1.05763E-14 5.29364E-14
 -1      3756 1.85605E+01 6.93016E-01-8.81460E-03-1.33863E+00-6.51267E-14 8.79920E-14
 -1      3757 1.78789E+01 7.61234E-01 9.79709E-03-1.43789E+00-1.57753E-14 1.11260E-13
 -1      3758 1.87534E+01 7.52335E-01 2.81362E-03-1.19598E+00-2.20194E-13 9.85978E-14
 -1      3759 1.88234E+01 7.80975E-01-7.28065E-03-1.07402E+00-1.80182E-13 9.04078E-14
 -1      3760 1.82806E+01 8.88512E-01 7.27703E-03-1.11114E+00-1.32912E-13 2.37924E-13
 -1      3761 1.89882E+01 7.92159E-01 9.34862E-04-9.66754E-01-8.94498E-14 7.51060E-14
 -1      3762 1.90618E+01 7.84197E-01-5.94016E-03-8.66782E-01-2.66182E-14 4.73808E-14
 -1      3763 1.86306E+01 9.15243E-01 6.45144E-03-8.77529E-01-1.06022E-13 2.78512E-13
 -1      3764 1.91997E+01 7.65894E-01 9.29682E-05-7.82745E-01-8.57539E-15-2.85497E-14
 -1      3765 1.92678E+01 7.36201E-01-4.84366E-03-6.99168E-01-1.44202E-15-1.13752E-13
 -1      3766 1.89251E+01 8.78221E-01 5.59360E-03-7.00543E-01-5.85287E-14 8.83160E-14
 -1      3767 1.93813E+01 7.01232E-01-2.38055E-04-6.31446E-01 1.19997E-13-1.52784E-13
 -1      3768 1.94400E+01 6.60248E-01-3.95783E-03-5.60886E-01 1.80920E-13-3.77915E-14
 -1      3769 1.91690E+01 8.03187E-01 4.72703E-03-5.60829E-01 8.17783E-14-9.45332E-14
 -1      3770 1.95320E+01 6.17418E-01-3.14235E-04-5.05440E-01 2.19524E-13-5.17636E-15
 -1      3771 1.95802E+01 5.72202E-01-3.23083E-03-4.45862E-01 2.70677E-13 6.39334E-14
 -1      3772 1.93678E+01 7.08713E-01 3.91685E-03-4.47530E-01 2.38253E-13-9.06707E-14
 -1      3773 1.96537E+01 5.27344E-01-2.76528E-04-4.00248E-01 2.52154E-13 6.58490E-14
 -1      3774 1.96919E+01 4.82453E-01-2.62368E-03-3.50287E-01 2.86764E-13 9.16243E-14
 -1      3775 1.95274E+01 6.07645E-01 3.18982E-03-3.54391E-01 3.12291E-13 9.37049E-14
 -1      3776 1.97497E+01 4.39236E-01-1.99448E-04-3.12879E-01 2.22889E-13 9.91933E-14
 -1      3777 1.97792E+01 3.97415E-01-2.11192E-03-2.71451E-01 1.36050E-13 1.81188E-13
 -1      3778 1.96535E+01 5.08500E-01 2.55510E-03-2.77617E-01 2.75541E-13-1.81517E-15
 -1      3779 1.98239E+01 3.57957E-01-1.19488E-04-2.41032E-01 7.41818E-16 6.42816E-14
 -1      3780 1.98460E+01 3.20671E-01-1.68055E-03-2.07148E-01-6.45280E-14-5.03691E-14
 -1      3781 1.97516E+01 4.16537E-01 2.01333E-03-2.14636E-01 1.67243E-14-8.01614E-14
 -1      3782 1.98800E+01 2.86012E-01-5.22329E-05-1.82698E-01-2.01664E-13-5.72980E-14
 -1      3783 1.98962E+01 2.53857E-01-1.31948E-03-1.55397E-01-3.41690E-13-1.92141E-13
 -1      3784 1.98265E+01 3.34615E-01 1.56019E-03-1.63461E-01-1.62420E-13-2.69797E-13
 -1      3785 1.99216E+01 2.24319E-01-2.29360E-06-1.36012E-01-2.35781E-13-1.38930E-13
 -1      3786 1.99331E+01 1.97325E-01-1.02070E-03-1.14359E-01-1.28482E-13-4.80420E-14
 -1      3787 1.98827E+01 2.63906E-01 1.18834E-03-1.22391E-01-2.38673E-13-6.80123E-14
 -1      3788 1.99517E+01 1.72772E-01 3.10129E-05-9.92167E-02-1.60464E-13-7.54397E-14
 -1      3789 1.99596E+01 1.50626E-01-7.76886E-04-8.23202E-02-1.78802E-13-1.15961E-13
 -1      3790 1.99241E+01 2.04444E-01 8.88744E-04-8.98921E-02-1.94069E-13-5.79930E-14
 -1      3791 1.99729E+01 1.30657E-01 5.05223E-05-7.06787E-02-4.56313E-14-1.31730E-13
 -1      3792 1.99781E+01 1.12858E-01-5.80955E-04-5.77133E-02 4.74800E-14-1.45829E-13
 -1      3793 1.99539E+01 1.55557E-01 6.51625E-04-6.45656E-02-1.14565E-13 2.03920E-13
 -1      3794 1.99874E+01 9.69362E-02 5.95924E-05-4.89142E-02 1.40673E-15-1.94811E-13
 -1      3795 1.99906E+01 8.29018E-02-4.26030E-04-3.91388E-02-1.03613E-13-1.83383E-13
 -1      3796 1.99747E+01 1.16172E-01 4.67270E-04-4.51453E-02 4.66439E-14-4.43177E-14
 -1      3797 1.99968E+01 7.04434E-02 6.13362E-05-3.26087E-02-6.25239E-14-8.22779E-14
 -1      3798 1.99987E+01 5.95805E-02-3.05582E-04-2.53759E-02 4.98678E-14-1.20714E-14
 -1      3799 1.99888E+01 8.50411E-02 3.26524E-04-3.05082E-02 2.96741E-14 7.38597E-14
 -1      3800 2.00026E+01 5.00090E-02 5.83280E-05-2.06267E-02 6.71232E-14 1.04470E-15
 -1      3801 2.00036E+01 4.17538E-02-2.13600E-04-1.53853E-02 1.11132E-13 4.08600E-14
 -1      3802 1.99979E+01 6.08813E-02 2.21111E-04-1.96798E-02 1.33799E-13 2.18088E-13
 -1      3803 2.00059E+01 3.45337E-02 5.25462E-05-1.20099E-02 1.72266E-13 2.56466E-14
 -1      3804 2.00061E+01 2.83758E-02-1.44704E-04-8.30137E-03 2.75496E-13 1.39720E-13
 -1      3805 2.00034E+01 4.24693E-02 1.43784E-04-1.18329E-02 1.75326E-13 8.47699E-14
 -1      3806 2.00073E+01 2.30292E-02 4.54371E-05-5.96760E-03 2.68140E-13 1.66724E-13
 -1      3807 2.00072E+01 1.85212E-02-9.40140E-05-3.41889E-03 3.07722E-13 1.39752E-13
 -1      3808 2.00064E+01 2.86922E-02 8.84070E-05-6.28025E-03 2.06398E-13 1.13681E-13
 -1      3809 2.00076E+01 1.46331E-02 3.81112E-05-1.85973E-03 2.37119E-13-3.45411E-14
 -1      3810 2.00071E+01 1.13895E-02-5.79808E-05-1.73372E-04 2.40412E-13-2.14893E-13
 -1      3811 2.00076E+01 1.85718E-02 5.01340E-05-2.46269E-03 8.49156E-14 6.76006E-14
 -1      3812 2.00070E+01 8.60460E-03 3.09417E-05 8.16327E-04 1.58453E-13-4.74956E-13
 -1      3813 2.00065E+01 6.30507E-03-3.27807E-05 1.86931E-03-1.43522E-13-5.48264E-13
 -1      3814 2.00076E+01 1.12604E-02 2.39189E-05 6.59759E-05-1.13313E-13-3.06285E-13
 -1      3815 2.00061E+01 4.33214E-03 2.44962E-05 2.44773E-03-2.34364E-13-5.40513E-13
 -1      3816 2.00055E+01 2.70864E-03-7.80888E-06 3.06319E-03-2.18452E-13-5.78788E-13
 -1      3817 2.00069E+01 6.03954E-03 1.19668E-06 1.64134E-03-1.36723E-13-6.12396E-13
 -1      3818 1.90160E+01 4.74233E-01-4.30342E-03 1.51725E+00-1.88081E-13 2.78646E-13
 -1      3819 1.90412E+01 3.45313E-01 8.76052E-03 1.65898E+00-1.69589E-13 1.79315E-13
 -1      3820 1.96288E+01 1.18333E+00-6.53050E-03-1.20051E+00 1.66224E-13-4.07231E-13
 -1      3821 2.00816E+01 1.07996E+00 1.89342E-03-1.07551E+00 1.99092E-13-3.37955E-13
 -1      3822 2.02656E+01 1.21181E+00-1.17594E-03-8.46165E-01 2.63140E-13-3.31811E-13
 -1      3823 1.89472E+01 1.60356E-01-2.96478E-03 1.85805E+00-1.15438E-13 1.06620E-13
 -1      3824 1.90584E+01-7.41754E-02 1.44639E-02 2.02181E+00-8.47698E-14 6.76221E-14
 -1      3825 1.84990E+01 3.94074E-01-1.74496E-03 1.74403E+00-1.68788E-13 1.74612E-13
 -1      3826 1.92994E+01 6.75360E-01-3.85188E-03 1.01559E+00-1.19890E-14 3.49445E-13
 -1      3827 1.92637E+01 6.64177E-01 3.26810E-03 1.11941E+00 4.59909E-14 2.86523E-13
 -1      3828 1.94436E+01 6.57819E-01-3.39502E-03 8.26696E-01 5.32759E-14 2.86329E-13
 -1      3829 1.94037E+01 6.74606E-01 2.05793E-03 9.16250E-01 4.80168E-14 2.85101E-13
 -1      3830 1.91411E+01 7.62115E-01 2.69164E-03 9.03588E-01 5.76625E-14 1.84446E-13
 -1      3831 1.95710E+01 6.02948E-01-2.94124E-03 6.67432E-01-5.16900E-14 2.41176E-13
 -1      3832 1.95337E+01 6.35142E-01 1.39355E-03 7.44608E-01 8.12908E-15 2.76375E-13
 -1      3833 1.93273E+01 7.21284E-01 2.59241E-03 7.29434E-01 2.05945E-14 1.91994E-13
 -1      3834 1.96780E+01 5.29822E-01-2.51260E-03 5.33031E-01 1.40786E-13 3.69188E-14
 -1      3835 1.96462E+01 5.68958E-01 1.03494E-03 5.99062E-01 7.53687E-14 1.26819E-13
 -1      3836 1.94850E+01 6.49993E-01 2.30935E-03 5.85455E-01 1.14668E-13 1.24019E-13
 -1      3837 1.97646E+01 4.50894E-01-2.11638E-03 4.20272E-01-4.12839E-14 1.74930E-14
 -1      3838 1.97391E+01 4.91512E-01 8.35240E-04 4.76113E-01 3.02818E-14 1.49906E-14
 -1      3839 1.96144E+01 5.65027E-01 1.96133E-03 4.65575E-01 6.94400E-14 4.85355E-14
 -1      3840 1.98327E+01 3.73876E-01-1.75631E-03 3.26649E-01-1.26736E-13 1.47617E-13
 -1      3841 1.98132E+01 4.12652E-01 7.10976E-04 3.73204E-01-9.19945E-14 1.79854E-13
 -1      3842 1.97178E+01 4.77352E-01 1.60975E-03 3.65912E-01-5.02647E-14 3.12454E-13
 -1      3843 1.98849E+01 3.03171E-01-1.43495E-03 2.49925E-01 5.83273E-14 2.30622E-13
 -1      3844 1.98705E+01 3.38267E-01 6.19102E-04 2.88137E-01-2.52515E-14 1.80589E-13
 -1      3845 1.97987E+01 3.93738E-01 1.28552E-03 2.83677E-01-5.59600E-14 3.58499E-13
 -1      3846 1.99239E+01 2.40946E-01-1.15372E-03 1.87963E-01-5.99228E-15 4.56807E-13
 -1      3847 1.99137E+01 2.71520E-01 5.39954E-04 2.18824E-01 6.61996E-14 3.65262E-13
 -1      3848 1.98605E+01 3.17992E-01 1.00248E-03 2.16580E-01-1.12484E-14 4.39869E-13
 -1      3849 1.99524E+01 1.87909E-01-9.12508E-04 1.38689E-01-4.17408E-14 3.81712E-13
 -1      3850 1.99454E+01 2.13763E-01 4.66185E-04 1.63206E-01-3.71864E-14 4.33775E-13
 -1      3851 1.99069E+01 2.51892E-01 7.64697E-04 1.62564E-01-5.44826E-14 5.26919E-13
 -1      3852 1.99727E+01 1.43864E-01-7.09705E-04 1.00128E-01-1.22717E-13 4.28730E-13
 -1      3853 1.99681E+01 1.65194E-01 3.96244E-04 1.19283E-01-4.24458E-14 3.95146E-13
 -1      3854 1.99408E+01 1.95877E-01 5.70785E-04 1.19713E-01 5.30819E-16 4.05159E-13
 -1      3855 1.99867E+01 1.08095E-01-5.42447E-04 7.04462E-02-8.67947E-14 4.55995E-13
 -1      3856 1.99839E+01 1.25318E-01 3.30832E-04 8.51591E-02-1.08309E-13 4.91078E-13
 -1      3857 1.99651E+01 1.49560E-01 4.16529E-04 8.62445E-02-1.72534E-13 3.50547E-13
 -1      3858 1.99959E+01 7.96302E-02-4.07055E-04 4.79924E-02 1.60797E-15 4.30134E-13
 -1      3859 1.99944E+01 9.32643E-02 2.71143E-04 5.90951E-02 4.69566E-14 4.46491E-13
 -1      3860 1.99819E+01 1.12076E-01 2.96521E-04 6.05268E-02-3.95438E-14 2.41697E-13
 -1      3861 2.00017E+01 5.74042E-02-2.99435E-04 3.13178E-02 1.81724E-13 2.42253E-13
 -1      3862 2.00010E+01 6.79961E-02 2.18116E-04 3.95395E-02 3.72476E-14 3.53985E-13
 -1      3863 1.99932E+01 8.23324E-02 2.05122E-04 4.11026E-02 1.25095E-13 4.38695E-13
 -1      3864 2.00050E+01 4.03694E-02-2.15432E-04 1.91835E-02 2.67350E-13 2.89638E-13
 -1      3865 2.00049E+01 4.84467E-02 1.72208E-04 2.51468E-02 2.43940E-13 3.37850E-13
 -1      3866 2.00003E+01 5.91702E-02 1.36991E-04 2.67004E-02 2.08339E-13 3.05433E-13
 -1      3867 2.00066E+01 2.75538E-02-1.51082E-04 1.05547E-02 2.88615E-13 2.79353E-13
 -1      3868 2.00069E+01 3.35996E-02 1.33417E-04 1.47784E-02 3.85211E-13 2.52507E-13
 -1      3869 2.00045E+01 4.14621E-02 8.73492E-05 1.62373E-02 3.19413E-13 6.19229E-13
 -1      3870 2.00070E+01 1.80914E-02-1.02898E-04 4.58563E-03-2.39125E-14 4.15298E-13
 -1      3871 2.00075E+01 2.25323E-02 1.01391E-04 7.49248E-03 1.61694E-13 2.81244E-13
 -1      3872 2.00067E+01 2.81715E-02 5.20504E-05 8.81106E-03 2.44174E-13 5.95073E-13
 -1      3873 2.00067E+01 1.12322E-02-6.79987E-05 6.00200E-04-5.12209E-14 2.59285E-13
 -1      3874 2.00073E+01 1.44359E-02 7.55954E-05 2.52738E-03-5.40891E-14 2.39122E-13
 -1      3875 2.00074E+01 1.83785E-02 2.73287E-05 3.68649E-03 6.24379E-14 3.96302E-13
 -1      3876 2.00059E+01 6.34196E-03-4.34076E-05-1.93910E-03-4.32184E-14 3.71872E-13
 -1      3877 2.00065E+01 8.62667E-03 5.78560E-05-7.19231E-04-8.92120E-15 2.84048E-13
 -1      3878 2.00072E+01 1.12855E-02 7.56531E-06 2.82395E-04 2.14220E-15 1.99138E-13
 -1      3879 2.00049E+01 2.86891E-03-2.64013E-05-3.44816E-03-2.55113E-13 3.63521E-13
 -1      3880 2.00055E+01 4.50909E-03 4.63047E-05-2.71345E-03-1.55564E-13 3.54421E-13
 -1      3881 2.00064E+01 6.19641E-03-1.81995E-05-1.87392E-03-7.34752E-14 3.14906E-13
 -1      3882 2.00043E+01 1.05954E-03 2.65464E-05-3.80579E-03-1.05525E-13 1.42100E-13
 -1      3883 1.89642E+01 2.04896E+00 3.05294E-03-7.69822E-01 2.01096E-13-5.47264E-13
 -1      3884 1.85727E+01 2.25125E+00-9.21762E-03-7.19815E-01 1.64086E-13-5.76308E-13
 -1      3885 1.83219E+01 2.12517E+00 2.18689E-03-8.28535E-01 1.22305E-13-5.42648E-13
 -1      3886 1.91555E+01 1.66561E+00 3.71396E-03-1.00023E+00 1.88433E-13-4.91730E-13
 -1      3887 2.04906E+01-2.83028E+00-1.56604E-02-3.64975E+00-3.43134E-13-1.76147E-13
 -1      3888 2.10629E+01-2.51157E+00 2.50550E-02-3.08067E+00-2.97832E-13-1.42096E-13
 -1      3889 2.04650E+01-1.75430E+00 6.35982E-02-3.02400E+00-2.41767E-13-1.97395E-13
 -1      3890 1.96857E+01-2.27610E+00 3.39941E-02 3.39504E+00-3.96712E-13-3.83675E-13
 -1      3891 1.88565E+01 1.74313E+00-3.67325E-03 1.02227E+00-1.08078E-13-4.66538E-13
 -1      3892 1.88320E+01 1.44784E+00 4.34736E-03 1.26587E+00-6.73104E-14-4.65672E-13
 -1      3893 1.82977E+01 1.54840E+00 1.20674E-02 1.34296E+00-4.10104E-14-4.48195E-13
 -1      3894 1.90319E+01-3.93275E-01 5.48348E-04 2.27793E+00-1.41398E-13 4.39706E-14
 -1      3895 1.92911E+01-7.70058E-01 2.18669E-02 2.45142E+00-2.19363E-13-6.22855E-14
 -1      3896 1.83640E+01-6.95632E-02-6.80801E-03 2.21655E+00-1.56067E-13 1.40887E-13
 -1      3897 1.94101E+01-9.17218E-02 1.14682E-02-2.22710E+00-4.75618E-14-3.13903E-13
 -1      3898 1.92117E+01 3.34321E-01 4.08886E-03-2.00454E+00 5.87033E-15-3.49597E-13
 -1      3899 1.91975E+01 1.22809E+00 5.41540E-03-1.33253E+00 1.38313E-13-4.48355E-13
 -1      3900 1.91478E+01 1.44982E+00 2.77585E-03-1.16917E+00 1.58483E-13-4.61278E-13
 -1      3901 1.86776E+01 1.68265E+00-6.67900E-03-1.12262E+00 1.45502E-13-5.02926E-13
 -1      3902 2.00052E+01 2.01379E-03-3.30555E-05-3.15111E-03-6.32065E-14 1.24879E-13
 -1      3903 2.56341E+01-3.07829E+00 1.17542E-02-5.66003E-02-1.99332E-13 2.58757E-13
 -1      3904 1.75325E+01 2.59762E+00 1.21147E-02-1.25378E-02 4.82625E-15-5.68955E-13
 -1      3905 1.76597E+01 2.78793E+00-6.47094E-03 1.05036E-01 1.61362E-14-5.63515E-13
 -1      3906 1.33706E+01 8.86913E-01 1.23786E-02-6.01692E-01 1.85360E-14 1.37446E-13
 -1      3907 1.37925E+01 6.85087E-01 2.08661E-02-1.59886E+00 1.28602E-13 2.45817E-13
 -1      3908 1.91491E+01 6.27527E-01-4.23555E-03 1.24178E+00-3.58616E-14 2.63061E-13
 -1      3909 1.91313E+01 5.70236E-01 5.35230E-03 1.36276E+00-8.47890E-14 2.30437E-13
 -1      3910 1.89304E+01 7.47763E-01 2.37962E-03 1.11802E+00-6.47054E-14 1.94426E-13
 -1      3911 1.98640E+01-1.68859E+00 3.68747E-02 2.84496E+00-3.64727E-13-2.63124E-13
 -1      3912 1.81306E+01-1.62471E+00 2.05345E-03 3.60534E+00-4.67444E-13-2.62643E-13
 -1      3913 1.70948E+01-8.59279E-01-1.27897E-02 3.19787E+00-5.22269E-13-4.06706E-14
 -1      3914 1.93373E+01-1.16063E+00 1.11632E-02 2.72015E+00-3.03985E-13-1.49254E-13
 -1      3915 1.80982E+01-1.79120E+00 3.44061E-02-3.98349E+00-3.15700E-13-4.26138E-13
 -1      3916 1.85247E+01 4.24187E-01-8.14187E-03 2.14424E+00 5.46709E-14-3.96961E-13
 -1      3917 1.86673E+01-1.62625E-04 2.11027E-02 2.43469E+00 1.10465E-13-3.86565E-13
 -1      3918 1.79778E+01 8.92876E-01 7.50507E-03 1.93891E+00 4.22655E-14-4.35665E-13
 -1      3919 1.92106E+01 6.29388E-01 6.57665E-03-1.78199E+00 5.96407E-14-3.97136E-13
 -1      3920 1.91697E+01 9.72888E-01 2.81032E-03-1.53811E+00 8.81828E-14-4.32275E-13
 -1      3921 1.86320E+01 1.22314E+00-1.57417E-03-1.50004E+00 5.82811E-14-4.54532E-13
 -1      3922 1.86056E+01 6.70550E-01 3.12421E-03-1.95729E+00-1.59196E-14-4.18354E-13
 -1      3923 1.29867E+01 1.18274E+00 7.90226E-02 5.53340E-01 9.16667E-14-7.48034E-13
 -1      3924 1.35298E+01 1.20042E+00-8.21533E-04-2.93478E-01 1.35343E-14-7.19397E-13
 -1      3925 1.37836E+01 1.01405E+00-2.40954E-02 1.23743E+00 1.55304E-13-6.74207E-13
 -1      3926 2.00056E+01 6.57801E-04 3.59942E-05-1.43084E-03 3.86908E-13 2.08552E-13
 -1      3927 2.00062E+01 2.64819E-03-2.78694E-05-1.94364E-03 1.54185E-13 2.46233E-13
 -1      3928 2.00058E+01 2.45386E-03-1.89270E-05-2.55261E-03 1.25440E-13 2.13917E-14
 -1      3929 2.00066E+01 4.79185E-03 5.46679E-05-2.12584E-03-4.78681E-14 2.91333E-13
 -1      3930 1.41458E+01 8.50358E-01-1.03477E-02-1.75202E+00-6.92944E-14-7.06234E-13
 -1      3931 1.47167E+01 3.83442E-01 5.46415E-02-2.70925E+00-1.40648E-13-7.35861E-13
 -1      3932 1.60388E+01 1.09129E-01 2.13716E-02-2.84825E+00-1.46513E-13-6.50844E-13
 -1      3933 1.83822E+01-7.37607E-01-1.73171E-03 2.77613E+00-3.54867E-13-9.04610E-14
 -1      3934 2.00054E+01 1.84426E-03-9.10495E-06 2.92176E-03-1.97255E-13-4.24912E-13
 -1      3935 1.87071E+01 6.42434E-01 1.17845E-03 1.38954E+00-1.39367E-13 2.33227E-13
 -1      3936 1.57912E+01-3.95273E-02 2.00440E-02 2.91784E+00 2.88897E-13-5.23099E-13
 -1      3937 1.77928E+01-7.28509E-02 1.81998E-02 2.79681E+00 1.91199E-13-4.15145E-13
 -1      3938 2.00064E+01 2.04713E-03-1.22317E-05 3.33734E-04 2.25217E-13 5.34615E-14
 -1      3939 2.00064E+01 2.01596E-03-2.38379E-05-3.52600E-04 1.99588E-13 2.65883E-13
 -1      3940 1.36857E+01 1.00162E+00 3.89310E-02 9.52978E-03 2.31538E-14 1.38245E-13
 -1      3941 1.44377E+01 9.90738E-01-1.03848E-02-3.29839E-01 7.83375E-14 9.97726E-14
 -1      3942 1.41451E+01 9.09447E-01-1.51118E-02 7.34543E-01-3.80094E-14 1.39130E-13
 -1      3943 2.00049E+01 2.89922E-04 1.70252E-05 2.87951E-03-1.74746E-13-2.16104E-13
 -1      3944 1.84317E+01-1.30981E+00 7.26696E-03-3.46203E+00-2.80784E-13-3.53632E-13
 -1      3945 2.00061E+01 1.84159E-03-2.07808E-05 1.64147E-03 1.04577E-13-1.40679E-13
 -1      3946 2.00063E+01 1.93567E-03-2.37119E-05 9.75773E-04 2.47870E-13-1.23314E-13
 -1      3947 2.00070E+01 3.53652E-03 2.48541E-05 5.59101E-04 2.94847E-14-8.33643E-14
 -1      3948 1.44121E+01 2.74653E-01 5.45085E-02 2.41927E+00-3.59670E-13 3.25798E-13
 -1      3949 1.45435E+01 5.91031E-01 1.05610E-02 1.75644E+00-2.12738E-13 1.39091E-13
 -1      3950 1.55360E+01-3.77101E-02 5.29997E-03 2.66986E+00-4.03030E-13 1.72076E-13
 -1      3951 1.87913E+01 2.13514E+00 3.55657E-04 7.48081E-01-1.17039E-13-4.97871E-13
 -1      3952 1.88618E+01 1.93761E+00 4.91926E-03 8.84317E-01-1.09809E-13-4.83005E-13
 -1      3953 1.84362E+01 2.00876E+00 8.09360E-03 9.41305E-01-6.33197E-14-4.76180E-13
 -1      3954 1.84224E+01 2.34848E+00-2.60370E-04 6.86221E-01-8.29032E-14-5.23663E-13
 -1      3955 1.72244E+01 2.39502E+00-3.74700E-03-1.51399E-01 1.30373E-14-5.85567E-13
 -1      3956 1.72166E+01 2.41323E+00-2.59235E-04 1.12795E-01-9.03482E-15-5.32945E-13
 -1      3957 1.53416E+01 3.34795E-01 2.44251E-02-2.12112E+00 1.31297E-13 1.58396E-13
 -1      3958 1.77739E+01 2.79926E+00 1.39712E-03 2.31756E-01-2.23946E-14-5.76557E-13
 -1      3959 1.76112E+01 2.20938E+00 6.43819E-03-7.05264E-01 5.07493E-14-5.95623E-13
 -1      3960 1.73574E+01 2.30740E+00-1.04845E-02-4.80778E-01 2.08336E-14-6.08062E-13
 -1      3961 1.70974E+01 2.17557E+00 1.58494E-02-3.77896E-01 1.80114E-14-5.71008E-13
 -1      3962 1.87647E+01-6.21776E-01 1.30339E-02-2.84713E+00-1.40213E-13-3.27033E-13
 -1      3963 1.78967E+01-9.84746E-02 6.43157E-03-2.75430E+00-1.39847E-13-4.19003E-13
 -1      3964 1.79499E+01 2.78832E+00-8.50598E-03 3.44679E-01-2.98635E-14-5.72979E-13
 -1      3965 1.81680E+01 2.73658E+00 3.40705E-05 4.12143E-01-8.72107E-14-5.72227E-13
 -1      3966 1.81676E+01 2.56167E+00 8.30801E-04 5.23572E-01-8.41606E-14-5.51347E-13
 -1      3967 1.77381E+01 2.58813E+00 4.99814E-03 3.72779E-01-1.72517E-14-5.47126E-13
 -1      3968 1.70299E+01 2.17803E+00-1.61443E-03 3.57575E-01 4.34396E-15-5.28200E-13
 -1      3969 1.73568E+01 2.31070E+00-1.13839E-02 4.69615E-01 5.12828E-15-5.26655E-13
 -1      3970 1.94053E+01 6.73680E-01-3.06915E-03 4.79321E-01 3.72645E-14 6.13658E-14
 -1      3971 1.93354E+01 7.20012E-01 2.85618E-04 5.40443E-01 7.37692E-14 3.13765E-14
 -1      3972 1.56393E+01 5.86769E-01-1.39360E-02-1.73823E+00 8.41419E-14 1.71679E-13
 -1      3973 1.73726E+01 8.64533E-01-2.32637E-03-1.26896E+00 1.96299E-14 1.40812E-13
 -1      3974 1.75903E+01 9.28241E-01-1.58229E-02-1.08969E+00-2.67199E-14 1.22629E-13
 -1      3975 1.79199E+01 9.74024E-01 1.17053E-03-9.64462E-01-8.39510E-14 1.31245E-13
 -1      3976 1.81024E+01 9.86241E-01-1.00265E-02-8.44194E-01-9.60063E-14 2.21061E-13
 -1      3977 1.75214E+01 1.08792E+00 1.32751E-02-7.99888E-01-2.22639E-14 1.50293E-13
 -1      3978 1.83559E+01 9.89404E-01 3.41721E-04-7.54367E-01-1.47995E-13 1.91425E-13
 -1      3979 1.85116E+01 9.70221E-01-7.13209E-03-6.65818E-01-9.35791E-14 1.56042E-13
 -1      3980 1.80607E+01 1.08502E+00 9.01589E-03-6.16292E-01-1.16364E-13 9.06297E-14
 -1      3981 1.87122E+01 9.45375E-01-1.89982E-04-5.98963E-01-6.63647E-14 1.65663E-13
 -1      3982 1.88432E+01 9.06437E-01-5.26452E-03-5.30247E-01-8.13679E-14 1.03067E-13
 -1      3983 1.84888E+01 1.03137E+00 6.87645E-03-4.83073E-01-1.28254E-13 1.42091E-13
 -1      3984 1.90029E+01 8.64881E-01-4.30886E-04-4.78673E-01-1.87538E-14 8.48218E-14
 -1      3985 1.91110E+01 8.15089E-01-4.02317E-03-4.23324E-01 1.29032E-13 7.72029E-14
 -1      3986 1.88313E+01 9.43509E-01 5.38142E-03-3.83286E-01-1.50388E-14 2.52333E-13
 -1      3987 1.92384E+01 7.65102E-01-4.66856E-04-3.82270E-01 2.11945E-13 2.19192E-14
 -1      3988 1.93260E+01 7.10910E-01-3.15615E-03-3.36707E-01 3.09462E-13 9.44685E-14
 -1      3989 1.91054E+01 8.36972E-01 4.26872E-03-3.05126E-01 8.58954E-14 1.72511E-13
 -1      3990 1.94271E+01 6.58362E-01-4.13502E-04-3.03480E-01 3.36236E-13 9.35889E-15
 -1      3991 1.94970E+01 6.04339E-01-2.51411E-03-2.65661E-01 2.94476E-13 8.15936E-14
 -1      3992 1.93241E+01 7.23203E-01 3.40479E-03-2.42138E-01 2.75393E-13 7.14939E-15
 -1      3993 1.95766E+01 5.53200E-01-3.28046E-04-2.38625E-01 2.53304E-13 5.28347E-15
 -1      3994 1.96313E+01 5.02358E-01-2.01361E-03-2.07282E-01 2.04304E-13-1.91765E-14
 -1      3995 1.94971E+01 6.10617E-01 2.71155E-03-1.90675E-01 2.10166E-13-5.60409E-14
 -1      3996 1.96934E+01 4.55108E-01-2.39664E-04-1.85344E-01-3.75881E-14-1.58242E-13
 -1      3997 1.97354E+01 4.09225E-01-1.60949E-03-1.59568E-01-1.85645E-13-2.34603E-13
 -1      3998 1.96326E+01 5.04919E-01 2.14536E-03-1.48515E-01-1.08762E-15-2.17774E-13
 -1      3999 1.97831E+01 3.67217E-01-1.61922E-04-1.41908E-01-1.26833E-13-3.55901E-13
 -1      4000 1.98149E+01 3.27147E-01-1.27722E-03-1.20955E-01-1.60288E-13-2.59274E-13
 -1      4001 1.97372E+01 4.09553E-01 1.68042E-03-1.14138E-01-2.80935E-13-2.88492E-13
 -1      4002 1.98510E+01 2.90922E-01-9.96400E-05-1.06899E-01-1.88734E-13-2.54792E-13
 -1      4003 1.98745E+01 2.56865E-01-1.00272E-03-9.00968E-02-1.62755E-13-1.82938E-13
 -1      4004 1.98169E+01 3.26200E-01 1.29979E-03-8.63718E-02-1.80908E-13-3.33130E-13
 -1      4005 1.99014E+01 2.26414E-01-5.30514E-05-7.90588E-02-1.02320E-13-1.36330E-13
 -1      4006 1.99184E+01 1.98135E-01-7.76910E-04-6.57852E-02-1.03254E-13-2.52447E-14
 -1      4007 1.98765E+01 2.55259E-01 9.90857E-04-6.42199E-02-5.60122E-14-1.52014E-13
 -1      4008 1.99380E+01 1.73102E-01-2.02641E-05-5.72457E-02-8.95887E-15 1.04299E-13
 -1      4009 1.99500E+01 1.50105E-01-5.92959E-04-4.69238E-02 1.04438E-13 2.11463E-13
 -1      4010 1.99203E+01 1.96261E-01 7.43111E-04-4.67948E-02 2.88158E-14-3.33194E-14
 -1      4011 1.99640E+01 1.29937E-01 1.35180E-06-4.04234E-02 1.27538E-14 2.38996E-13
 -1      4012 1.99722E+01 1.11595E-01-4.45035E-04-3.25288E-02 1.90201E-14 1.76377E-13
 -1      4013 1.99517E+01 1.48205E-01 5.47213E-04-3.32964E-02 1.57261E-14 2.54505E-13
 -1      4014 1.99819E+01 9.56512E-02 1.44450E-05-2.76665E-02 2.75505E-14 1.00440E-13
 -1      4015 1.99873E+01 8.12894E-02-3.27830E-04-2.17338E-02 6.93700E-14 1.79363E-13
 -1      4016 1.99736E+01 1.09810E-01 3.94698E-04-2.30101E-02 2.83835E-14 3.10188E-13
 -1      4017 1.99937E+01 6.89132E-02 2.13553E-05-1.81659E-02 7.55898E-14 5.23564E-14
 -1      4018 1.99971E+01 5.78702E-02-2.36446E-04-1.37915E-02 1.18416E-13 6.82268E-14
 -1      4019 1.99884E+01 7.96927E-02 2.77930E-04-1.53084E-02 2.04140E-14-1.15208E-13
 -1      4020 2.00011E+01 4.84361E-02 2.40066E-05-1.12293E-02 9.90507E-14 4.88999E-15
 -1      4021 2.00030E+01 4.00981E-02-1.66427E-04-8.07185E-03 1.17863E-13-1.99456E-14
 -1      4022 1.99980E+01 5.64922E-02 1.90133E-04-9.65186E-03 3.60672E-14-2.65248E-13
 -1      4023 2.00054E+01 3.30369E-02 2.39115E-05-6.27779E-03 2.04817E-13-1.44351E-13
 -1      4024 2.00062E+01 2.68559E-02-1.13838E-04-4.05467E-03 1.86001E-13-1.55305E-13
 -1      4025 2.00037E+01 3.89398E-02 1.25394E-04-5.58619E-03 9.20189E-14-2.45832E-13
 -1      4026 2.00074E+01 2.16667E-02 2.20978E-05-2.83788E-03 1.79764E-13-1.81771E-13
 -1      4027 2.00076E+01 1.71721E-02-7.37024E-05-1.32122E-03 8.17420E-14-1.51609E-13
 -1      4028 2.00067E+01 2.58997E-02 7.88941E-05-2.73812E-03 1.97142E-13-4.10618E-13
 -1      4029 2.00079E+01 1.34164E-02 1.87706E-05-5.20200E-04-2.03555E-13-8.21253E-14
 -1      4030 2.00077E+01 1.01860E-02-4.58881E-05 4.67013E-04-2.33153E-13-2.84118E-13
 -1      4031 2.00079E+01 1.63994E-02 5.34136E-05-7.95861E-04-2.31433E-14-2.64256E-13
 -1      4032 1.80638E+01 6.49154E-01-1.09263E-02 1.49627E+00-1.36867E-13 1.01928E-13
 -1      4033 1.79888E+01 5.21497E-01 9.79528E-03 1.69187E+00-9.58242E-14 1.24799E-13
 -1      4034 1.92198E+01 7.60411E-01-3.79809E-03 6.00502E-01 2.37301E-14-4.31493E-14
 -1      4035 1.91361E+01 7.98379E-01 6.11622E-04 6.73934E-01 2.04301E-14-2.11669E-14
 -1      4036 1.91699E+01 8.01156E-01 3.71527E-03 4.86900E-01 3.50135E-15-2.44071E-13
 -1      4037 1.89942E+01 8.25491E-01-4.78447E-03 7.48742E-01 6.25028E-14-9.91651E-14
 -1      4038 1.88980E+01 8.46337E-01 1.30707E-03 8.38264E-01 4.55145E-15-1.40463E-13
 -1      4039 1.89229E+01 8.86030E-01 4.49414E-03 6.10466E-01 1.58155E-14-3.88540E-13
 -1      4040 1.95550E+01 5.78892E-01-2.50203E-03 3.79308E-01 1.14362E-14 1.53378E-13
 -1      4041 1.94983E+01 6.27607E-01 1.56041E-04 4.30370E-01 1.04652E-13 7.60016E-14
 -1      4042 1.93700E+01 7.01291E-01 3.04161E-03 3.87013E-01 3.56470E-14 2.01833E-14
 -1      4043 1.96736E+01 4.84991E-01-2.04121E-03 2.96760E-01-1.01070E-13 2.87757E-13
 -1      4044 1.96289E+01 5.32201E-01 1.19412E-04 3.39232E-01-1.26507E-13 2.16074E-13
 -1      4045 1.95300E+01 5.97658E-01 2.46275E-03 3.05247E-01-6.72390E-14-2.40698E-14
 -1      4046 1.97660E+01 3.97467E-01-1.65640E-03 2.29060E-01-6.15122E-14 3.16736E-13
 -1      4047 1.97316E+01 4.40841E-01 1.19969E-04 2.64055E-01-1.96551E-14 3.29454E-13
 -1      4048 1.96561E+01 4.97708E-01 1.96864E-03 2.38164E-01-1.03419E-13 2.39631E-13
 -1      4049 1.98367E+01 3.19311E-01-1.33146E-03 1.74116E-01-1.09984E-13 3.22260E-13
 -1      4050 1.98107E+01 3.57640E-01 1.29992E-04 2.02592E-01-6.52165E-14 2.45595E-13
 -1      4051 1.97539E+01 4.05996E-01 1.55141E-03 1.83394E-01-4.44614E-14 1.35692E-13
 -1      4052 1.98897E+01 2.51775E-01-1.05731E-03 1.30093E-01-1.66200E-15 3.80861E-13
 -1      4053 1.98707E+01 2.84627E-01 1.37386E-04 1.52938E-01-8.20879E-14 3.84429E-13
 -1      4054 1.98285E+01 3.24919E-01 1.20396E-03 1.39096E-01-1.36940E-13 3.61398E-14
 -1      4055 1.99288E+01 1.94958E-01-8.27921E-04 9.53240E-02-2.55348E-14 4.64618E-13
 -1      4056 1.99151E+01 2.22411E-01 1.38253E-04 1.13374E-01 3.41121E-14 4.17818E-13
 -1      4057 1.98844E+01 2.55345E-01 9.19080E-04 1.03701E-01 3.27567E-14 2.25001E-13
 -1      4058 1.99569E+01 1.48247E-01-6.38404E-04 6.82820E-02-1.13274E-13 2.79016E-13
 -1      4059 1.99473E+01 1.70686E-01 1.32602E-04 8.23185E-02-1.08775E-14 4.35120E-13
 -1      4060 1.99255E+01 1.97116E-01 6.89316E-04 7.58103E-02-2.81258E-14 3.96694E-13
 -1      4061 1.99765E+01 1.10627E-01-4.84133E-04 4.75895E-02 2.71224E-14 3.53814E-14
 -1      4062 1.99700E+01 1.28603E-01 1.21988E-04 5.83248E-02-1.11403E-13 1.32892E-13
 -1      4063 1.99550E+01 1.49440E-01 5.07108E-04 5.41621E-02 7.14865E-16 1.42610E-13
 -1      4064 1.99898E+01 8.09050E-02-3.60544E-04 3.20276E-02 1.01601E-13 2.17689E-13
 -1      4065 1.99856E+01 9.50363E-02 1.08312E-04 4.00949E-02 1.07504E-13 2.03633E-13
 -1      4066 1.99756E+01 1.11176E-01 3.65094E-04 3.76284E-02-1.04615E-13-4.03934E-14
 -1      4067 1.99983E+01 5.78535E-02-2.63171E-04 2.05418E-02 9.51975E-14 3.49909E-13
 -1      4068 1.99959E+01 6.87598E-02 9.32779E-05 2.64900E-02 3.11180E-14 2.44044E-13
 -1      4069 1.99895E+01 8.10392E-02 2.56378E-04 2.52174E-02 7.29746E-14 1.64223E-13
 -1      4070 2.00035E+01 4.02999E-02-1.87762E-04 1.22397E-02 2.79198E-13 4.65889E-13
 -1      4071 2.00022E+01 4.85642E-02 7.82024E-05 1.65337E-02 2.53120E-13 4.70558E-13
 -1      4072 1.99984E+01 5.77345E-02 1.74721E-04 1.60748E-02 8.35272E-14 1.61585E-13
 -1      4073 2.00062E+01 2.71771E-02-1.30379E-04 6.38211E-03 2.58525E-13 4.98237E-13
 -1      4074 2.00058E+01 3.33246E-02 6.40050E-05 9.40649E-03 3.43661E-13 5.19143E-13
 -1      4075 2.00038E+01 4.00377E-02 1.14646E-04 9.48045E-03 3.29585E-13 2.50094E-13
 -1      4076 2.00073E+01 1.75441E-02-8.77538E-05 2.36902E-03 1.07414E-13 3.19838E-13
 -1      4077 2.00074E+01 2.20356E-02 5.14210E-05 4.43535E-03 1.97606E-13 4.81566E-13
 -1      4078 2.00066E+01 2.68431E-02 7.12758E-05 4.83903E-03 2.08369E-13 4.59660E-13
 -1      4079 2.00074E+01 1.06241E-02-4.80524E-05-2.57998E-04 6.05292E-14 1.30265E-13
 -1      4080 2.00077E+01 1.38301E-02 4.40825E-05 1.07889E-03 2.23385E-14 2.41072E-13
 -1      4081 2.00077E+01 1.71740E-02 3.64411E-05 1.67218E-03 1.01298E-13 3.59344E-13
 -1      4082 2.00068E+01 6.31754E-03-1.75619E-05-1.67707E-03-1.29204E-13 3.25634E-13
 -1      4083 2.00073E+01 8.65331E-03 4.75004E-05-8.62886E-04-2.17284E-14 3.18000E-13
 -1      4084 2.00077E+01 1.09047E-02-5.86479E-06-2.12832E-04-9.13799E-14 3.12832E-13
 -1      4085 2.00073E+01 6.86464E-03-3.42906E-05-1.24434E-03 4.84072E-14 4.30335E-13
 -1      4086 1.84132E+01 8.03515E-01-8.17057E-03 1.17347E+00-1.05428E-13-1.44292E-14
 -1      4087 1.83124E+01 7.47948E-01 5.17326E-03 1.31898E+00-1.07945E-13 5.35651E-14
 -1      4088 1.78245E+01 8.56546E-01 7.06060E-03 1.25911E+00-1.00031E-13-1.04324E-13
 -1      4089 1.77023E+01 3.28001E-01-1.22451E-02 1.94835E+00-1.82330E-13 1.00823E-13
 -1      4090 1.76825E+01 8.52152E-02 1.66715E-02 2.22103E+00-2.28590E-13 7.20604E-15
 -1      4091 1.73126E+01 6.37665E-01 6.67557E-03 1.67595E+00-1.72842E-13 3.01560E-14
 -1      4092 1.84098E+01 1.58715E+00-1.68052E-03-1.23364E+00 1.00778E-13-4.79185E-13
 -1      4093 1.84495E+01 1.81077E+00 5.62404E-03-1.06357E+00 1.32582E-13-4.90743E-13
 -1      4094 1.80209E+01 1.99766E+00-1.39964E-02-9.38681E-01 6.58969E-14-5.18231E-13
 -1      4095 1.83537E+01 1.34078E+00-3.80856E-03-1.44159E+00 4.01333E-14-4.57963E-13
 -1      4096 1.76597E+01-5.22689E-01 1.63578E-02 2.80099E+00-4.68659E-13-1.02258E-13
 -1      4097 1.64491E+01-2.56383E-01 3.10666E-02 2.86022E+00-4.68577E-13 2.00248E-14
 -1      4098 1.60950E+01 1.68831E-01-1.31561E-02 2.35820E+00-3.83780E-13-7.44977E-15
 -1      4099 1.75871E+01-2.26710E-01-2.21402E-02 2.50941E+00-2.84528E-13-4.72392E-14
 -1      4100 1.65948E+01 1.58238E-01-1.08645E-02 2.66056E+00 2.47482E-13-4.41692E-13
 -1      4101 1.49361E+01 9.74177E-01 7.73637E-02 2.05252E+00 1.84117E-13-5.48724E-13
 -1      4102 1.49377E+01 1.20516E+00 2.85672E-02 1.25107E+00 1.15527E-13-5.84151E-13
 -1      4103 1.66973E+01 7.42044E-01-2.57249E-02 2.08947E+00 1.28322E-13-4.58229E-13
 -1      4104 2.00059E+01 2.12091E-03-7.81733E-06 2.22709E-03-4.31893E-14-2.69604E-13
 -1      4105 2.00067E+01 3.74584E-03 3.30414E-05 1.68579E-03 1.28485E-14-3.70024E-13
 -1      4106 2.00065E+01 2.48146E-03-2.04485E-05-8.41870E-04 3.20292E-13 2.62996E-13
 -1      4107 2.00063E+01 2.32803E-03-3.26170E-05-1.51457E-03 2.73048E-13 1.88868E-13
 -1      4108 2.00072E+01 4.99270E-03 5.03299E-05-1.26273E-03 1.32086E-13 3.05375E-13
 -1      4109 2.00071E+01 4.13246E-03 2.84090E-05-4.31651E-04 1.37514E-13 8.49870E-14
 -1      4110 1.77858E+01 1.94465E+00-1.07883E-02 9.27080E-01-2.65864E-14-5.30372E-13
 -1      4111 1.76162E+01 1.67546E+00-3.35438E-03 1.17470E+00-4.07660E-15-5.09485E-13
 -1      4112 1.72142E+01 1.41664E+00-1.94155E-02 1.39621E+00 3.53271E-14-4.88816E-13
 -1      4113 1.70313E+01 1.11678E+00 3.51446E-03 1.71765E+00 7.96625E-14-4.86648E-13
 -1      4114 1.68708E+01 1.88563E+00 1.92447E-02 8.83280E-01 2.62021E-14-5.14650E-13
 -1      4115 1.87254E+01 8.49156E-01-6.17571E-03 9.33995E-01-4.56788E-14-3.69857E-14
 -1      4116 1.86214E+01 8.40555E-01 2.67436E-03 1.04609E+00-6.09228E-14-1.82296E-14
 -1      4117 1.82585E+01 9.40263E-01 6.30301E-03 9.73904E-01-5.79619E-14-2.09001E-13
 -1      4118 1.86217E+01 9.39821E-01 5.36802E-03 7.67262E-01 2.52611E-14-4.08953E-13
 -1      4119 1.53275E+01 1.02176E+00 4.67520E-02-1.06610E+00 5.38237E-14 1.46484E-13
 -1      4120 1.65442E+01 6.52050E-01-1.12715E-02-1.63343E+00 6.28987E-14 1.42806E-13
 -1      4121 1.68190E+01 7.95978E-01-2.30498E-02-1.36711E+00 2.40800E-14 1.78789E-13
 -1      4122 1.67260E+01 1.05215E+00 2.43187E-02-9.75268E-01-2.32890E-14 1.29781E-13
 -1      4123 1.42205E+01 1.28393E+00 6.63220E-02-1.05422E+00-1.38396E-14-6.86806E-13
 -1      4124 1.49920E+01 1.06613E+00-9.73618E-03-1.60894E+00-4.90376E-14-6.55125E-13
 -1      4125 1.44934E+01 1.38587E+00 1.76165E-02-2.75528E-01 3.50631E-14-6.60914E-13
 -1      4126 1.69678E+01 2.55204E-01 1.45626E-02 2.21908E+00-3.32641E-13-1.06805E-13
 -1      4127 2.00075E+01 7.53501E-03 1.48891E-05 9.51444E-04-2.16563E-13-3.84351E-13
 -1      4128 2.00070E+01 5.24548E-03-2.85362E-05 1.57411E-03-9.91100E-14-3.52039E-13
 -1      4129 1.47581E+01 8.98009E-01 3.68527E-02 1.19378E+00-1.42174E-13 3.07263E-14
 -1      4130 1.51021E+01 1.01326E+00-1.05109E-02 7.37787E-01-1.23014E-13-4.92865E-14
 -1      4131 1.54449E+01 6.82652E-01-3.38721E-04 1.65304E+00-2.81328E-13-1.35586E-14
 -1      4132 1.53991E+01 1.06193E+00 5.26223E-03-4.86475E-01-1.50314E-14 1.09037E-13
 -1      4133 1.66438E+01 2.26589E-01 7.78322E-03-2.68402E+00-1.43429E-13-5.83056E-13
 -1      4134 1.75616E+01 6.08818E-01-1.28038E-02-2.17091E+00-6.75180E-14-4.70212E-13
 -1      4135 1.60886E+01 1.31116E+00-1.01355E-02 1.50596E+00 1.22853E-13-4.87569E-13
 -1      4136 1.81386E+01 2.38163E+00-6.12396E-03 6.37100E-01-6.34189E-14-5.48531E-13
 -1      4137 1.76542E+01 1.89873E+00-4.53021E-03-9.77339E-01 5.63735E-14-5.22255E-13
 -1      4138 1.76238E+01 2.33813E+00 1.05346E-02 5.91659E-01-1.88982E-14-5.46172E-13
 -1      4139 1.59688E+01 8.62336E-01 5.31738E-02-2.12980E+00-8.63654E-14-6.59400E-13
 -1      4140 2.00075E+01 5.64072E-03-1.67283E-05-6.24152E-05-5.24619E-14 3.57613E-14
 -1      4141 2.00076E+01 6.13784E-03-2.07045E-05-4.80762E-04 1.17470E-13-4.97810E-14
 -1      4142 1.90890E+01-1.21933E+00 2.69366E-02-3.13709E+00-2.23254E-13-3.01374E-13
 -1      4143 2.00072E+01 4.99835E-03-1.35860E-05 1.08692E-03-8.86051E-14-2.16275E-13
 -1      4144 1.67531E+01 1.98882E+00 1.32856E-02-6.38616E-01 2.40758E-14-5.98065E-13
 -1      4145 1.65510E+01 2.05572E+00-1.60478E-03-2.80556E-01 3.43042E-15-5.67919E-13
 -1      4146 1.80093E+01 8.42060E-01-4.92377E-03-1.90501E+00-5.09506E-14-4.36377E-13
 -1      4147 1.80264E+01 1.12691E+00-8.85316E-03-1.65593E+00-1.02388E-14-4.55266E-13
 -1      4148 1.78760E+01 1.52705E+00 1.77993E-02-1.37523E+00 3.84136E-14-4.66466E-13
 -1      4149 1.70621E+01 1.15593E+00 3.11270E-02-1.80636E+00-4.01289E-14-5.37484E-13
 -1      4150 1.65907E+01 1.95832E+00-9.02550E-03 4.82152E-01 3.27893E-14-5.32818E-13
 -1      4151 2.00079E+01 9.58426E-03 2.16585E-05 4.43524E-04-2.47697E-13-2.38477E-13
 -1      4152 1.62524E+01 1.81937E+00 1.21271E-02 2.52272E-01 4.11050E-14-5.46552E-13
 -1      4153 2.00074E+01 5.55312E-03-1.10928E-05 4.41591E-04-1.67774E-14-2.18497E-14
 -1      4154 1.62614E+01 1.09439E+00-2.10483E-02-6.00313E-01-2.71120E-14-4.35920E-15
 -1      4155 1.68079E+01 1.11562E+00-1.25079E-02-5.66141E-01-6.20970E-14 6.05826E-14
 -1      4156 1.77990E+01 1.12491E+00-5.32337E-03-4.19117E-01-6.87833E-14 3.59387E-14
 -1      4157 1.80451E+01 1.10392E+00-7.45245E-03-3.57438E-01-3.62758E-15 7.68912E-14
 -1      4158 1.82933E+01 1.07257E+00-3.27624E-03-3.26301E-01-7.01034E-14 1.48030E-13
 -1      4159 1.84866E+01 1.03116E+00-5.34723E-03-2.81979E-01-6.29619E-14 2.34617E-13
 -1      4160 1.81238E+01 1.14516E+00 1.29226E-02-1.36099E-01 1.50169E-14 7.07873E-14
 -1      4161 1.86803E+01 9.85072E-01-2.55164E-03-2.58625E-01-7.82303E-14 2.12036E-13
 -1      4162 1.88348E+01 9.32483E-01-3.94034E-03-2.24343E-01 1.90203E-14 2.24101E-13
 -1      4163 1.85497E+01 1.05139E+00 9.68033E-03-1.08412E-01-7.52636E-14 2.52587E-13
 -1      4164 1.89877E+01 8.77753E-01-2.03043E-03-2.06203E-01 3.32130E-14 2.23981E-13
 -1      4165 1.91113E+01 8.19877E-01-2.99341E-03-1.78550E-01 9.61288E-14 2.08005E-13
 -1      4166 1.88860E+01 9.39201E-01 7.43278E-03-8.67455E-02-2.24349E-14 1.43242E-13
 -1      4167 1.92323E+01 7.61921E-01-1.62490E-03-1.64194E-01 1.23025E-13 1.03436E-13
 -1      4168 1.93305E+01 7.03337E-01-2.32009E-03-1.41373E-01 1.59608E-13-5.58153E-14
 -1      4169 1.91527E+01 8.18421E-01 5.79288E-03-6.93447E-02 5.77273E-15 1.63334E-13
 -1      4170 1.94259E+01 6.46215E-01-1.29629E-03-1.29907E-01 1.42887E-13-2.29348E-13
 -1      4171 1.95033E+01 5.90214E-01-1.81606E-03-1.10918E-01 8.21866E-14-2.75779E-13
 -1      4172 1.93639E+01 6.97271E-01 4.54224E-03-5.51045E-02 1.78502E-14-1.57638E-13
 -1      4173 1.95779E+01 5.36700E-01-1.02536E-03-1.01752E-01 2.66380E-14-3.80315E-13
 -1      4174 1.96381E+01 4.85415E-01-1.42386E-03-8.59811E-02-1.12971E-13-4.12209E-13
 -1      4175 1.95299E+01 5.81880E-01 3.55847E-03-4.33611E-02-5.76968E-14-4.59746E-13
 -1      4176 1.96957E+01 4.37188E-01-8.01537E-04-7.86947E-02-1.56834E-13-3.83266E-13
 -1      4177 1.97419E+01 3.91790E-01-1.11137E-03-6.57033E-02-2.64231E-13-3.00609E-13
 -1      4178 1.96590E+01 4.76310E-01 2.77091E-03-3.36929E-02-1.42874E-13-4.22954E-13
 -1      4179 1.97859E+01 3.49667E-01-6.17864E-04-5.99670E-02-2.32991E-13-1.78024E-13
 -1      4180 1.98208E+01 3.10597E-01-8.59800E-04-4.93921E-02-5.89808E-14-7.76046E-14
 -1      4181 1.97581E+01 3.82837E-01 2.13648E-03-2.57962E-02-7.24344E-14-1.81890E-13
 -1      4182 1.98537E+01 2.74762E-01-4.68874E-04-4.49327E-02 1.02402E-14-5.94026E-14
 -1      4183 1.98796E+01 2.41944E-01-6.57185E-04-3.64443E-02-3.79609E-14 5.54553E-14
 -1      4184 1.98331E+01 3.02327E-01 1.62648E-03-1.94217E-02 2.25483E-14-6.85631E-14
 -1      4185 1.99039E+01 2.12150E-01-3.49714E-04-3.30282E-02 7.88535E-15 5.87842E-14
 -1      4186 1.99227E+01 1.85172E-01-4.95019E-04-2.63171E-02 7.54105E-14 2.02737E-13
 -1      4187 1.98889E+01 2.34625E-01 1.21963E-03-1.43474E-02-5.11669E-15-6.72699E-14
 -1      4188 1.99402E+01 1.60908E-01-2.55884E-04-2.37428E-02 3.74097E-14 1.88024E-13
 -1      4189 1.99535E+01 1.39166E-01-3.66590E-04-1.85208E-02 7.34695E-14 2.44570E-13
 -1      4190 1.99295E+01 1.78902E-01 8.98734E-04-1.03697E-02 8.56617E-14 3.95467E-14
 -1      4191 1.99658E+01 1.19783E-01-1.83212E-04-1.66162E-02-2.38844E-14 2.11888E-13
 -1      4192 1.99750E+01 1.02586E-01-2.66233E-04-1.26202E-02-6.30581E-14 1.03734E-13
 -1      4193 1.99584E+01 1.33934E-01 6.49106E-04-7.30207E-03 2.42009E-14 5.97461E-14
 -1      4194 1.99833E+01 8.73836E-02-1.27906E-04-1.12396E-02-1.64716E-13-2.39686E-14
 -1      4195 1.99894E+01 7.40256E-02-1.89014E-04-8.23544E-03-1.06180E-13-2.29979E-13
 -1      4196 1.99784E+01 9.83178E-02 4.57948E-04-4.97693E-03-1.74431E-13-1.05113E-13
 -1      4197 1.99949E+01 6.23164E-02-8.65956E-05-7.25797E-03 7.23030E-14-2.30463E-13
 -1      4198 1.99987E+01 5.21265E-02-1.30610E-04-5.04235E-03 1.61051E-13-1.34504E-13
 -1      4199 1.99917E+01 7.06145E-02 3.14103E-04-3.24699E-03-9.49189E-15-1.65304E-13
 -1      4200 2.00020E+01 4.32694E-02-5.63376E-05-4.36933E-03 3.89726E-14-2.62674E-13
 -1      4201 2.00041E+01 3.56363E-02-8.71471E-05-2.77009E-03 3.36695E-14-2.80704E-13
 -1      4202 2.00002E+01 4.94503E-02 2.07926E-04-1.98592E-03 8.75304E-15-3.42244E-13
 -1      4203 2.00060E+01 2.90570E-02-3.47191E-05-2.32177E-03 1.48931E-13-4.45524E-13
 -1      4204 2.00070E+01 2.34387E-02-5.78786E-05-1.19519E-03 1.79939E-13-4.17411E-13
 -1      4205 2.00050E+01 3.35711E-02 1.30657E-04-1.08790E-03 1.37796E-15-3.43408E-13
 -1      4206 2.00077E+01 1.86464E-02-1.91725E-05-9.25916E-04 1.05630E-13-4.13380E-13
 -1      4207 2.00080E+01 1.45509E-02-4.72558E-05-1.08461E-04 2.04631E-14-3.31173E-13
 -1      4208 2.00074E+01 2.18473E-02 6.92471E-05-4.73532E-04 1.02437E-13-4.55076E-13
 -1      4209 1.93421E+01 6.98782E-01-2.99504E-03 2.81014E-01 3.49368E-14-1.33238E-13
 -1      4210 1.92539E+01 7.54522E-01-6.33701E-04 3.20602E-01 6.15719E-14-1.07407E-13
 -1      4211 1.57197E+01 1.19772E+00 3.38952E-02-7.32182E-03-9.62394E-14-3.38228E-15
 -1      4212 1.88652E+01 9.04968E-01-4.93633E-03 4.46551E-01-3.66736E-14-2.27229E-13
 -1      4213 1.87311E+01 9.49102E-01-6.86375E-04 5.06488E-01-1.18037E-14-2.99596E-13
 -1      4214 1.96420E+01 4.88872E-01-1.92046E-03 1.71359E-01-1.20175E-13 8.89896E-15
 -1      4215 1.95874E+01 5.39669E-01-3.86771E-04 1.98420E-01-1.28704E-13-8.82788E-16
 -1      4216 1.97439E+01 3.96613E-01-1.53553E-03 1.31285E-01-2.30527E-14-7.09887E-14
 -1      4217 1.97020E+01 4.42081E-01-2.72800E-04 1.53469E-01-1.31428E-14-2.34715E-14
 -1      4218 1.96494E+01 4.90122E-01 3.12247E-03 1.16824E-01-6.71862E-14-2.00775E-13
 -1      4219 1.98215E+01 3.15861E-01-1.21785E-03 9.90303E-02-8.13164E-14-7.59101E-14
 -1      4220 1.97899E+01 3.55319E-01-1.79009E-04 1.17012E-01-9.22297E-14-6.87998E-14
 -1      4221 1.97503E+01 3.95870E-01 2.41190E-03 8.93107E-02 3.75663E-14-1.35414E-13
 -1      4222 1.98796E+01 2.47092E-01-9.55051E-04 7.33879E-02-3.52478E-14 5.14988E-14
 -1      4223 1.98563E+01 2.80458E-01-1.06683E-04 8.77692E-02-8.16007E-14-3.32146E-14
 -1      4224 1.98269E+01 3.14046E-01 1.84008E-03 6.72322E-02-1.20899E-13-3.16373E-13
 -1      4225 1.99222E+01 1.89895E-01-7.38900E-04 5.32854E-02 9.75240E-14 4.94292E-15
 -1      4226 1.99054E+01 2.17478E-01-5.39036E-05 6.46189E-02 1.04037E-13 1.25330E-13
 -1      4227 1.98840E+01 2.44793E-01 1.38310E-03 4.97227E-02 2.03818E-14-2.49208E-13
 -1      4228 1.99529E+01 1.43315E-01-5.63004E-04 3.77640E-02-1.16359E-13-5.55784E-14
 -1      4229 1.99410E+01 1.65654E-01-1.74427E-05 4.65573E-02 4.33508E-14-8.07137E-14
 -1      4230 1.99258E+01 1.87476E-01 1.02184E-03 3.60247E-02 1.02889E-13-3.14427E-13
 -1      4231 1.99743E+01 1.06111E-01-4.21776E-04 2.59740E-02-1.65214E-13-7.78601E-14
 -1      4232 1.99662E+01 1.23861E-01 6.18412E-06 3.26849E-02-2.40417E-13-9.98150E-14
 -1      4233 1.99557E+01 1.40993E-01 7.40094E-04 2.54681E-02-1.01968E-13-2.28158E-13
 -1      4234 1.99887E+01 7.69433E-02-3.10079E-04 1.71749E-02 2.30879E-14-3.67023E-14
 -1      4235 1.99835E+01 9.07903E-02 2.01884E-05 2.22073E-02-2.64612E-15-8.94997E-14
 -1      4236 1.99764E+01 1.04006E-01 5.23734E-04 1.74633E-02-7.65849E-14-4.12255E-13
 -1      4237 1.99980E+01 5.44873E-02-2.23152E-04 1.07340E-02 1.84353E-13-5.61520E-14
 -1      4238 1.99948E+01 6.50952E-02 2.72930E-05 1.44362E-02 7.12307E-14-3.28384E-14
 -1      4239 1.99903E+01 7.51090E-02 3.60430E-04 1.14995E-02 2.06952E-14-3.23585E-13
 -1      4240 2.00036E+01 3.75105E-02-1.56654E-04 6.12174E-03 1.41870E-13 1.93593E-13
 -1      4241 2.00019E+01 4.54898E-02 2.96897E-05 8.78744E-03 1.72277E-13 4.80820E-14
 -1      4242 1.99992E+01 5.29364E-02 2.39529E-04 7.14196E-03 3.01843E-14-2.45139E-13
 -1      4243 2.00066E+01 2.49101E-02-1.06064E-04 2.90412E-03 1.09790E-13 4.71787E-13
 -1      4244 2.00058E+01 3.08020E-02 2.91605E-05 4.77519E-03 1.88150E-13 4.05639E-13
 -1      4245 2.00044E+01 3.62289E-02 1.51967E-04 4.02815E-03 4.93171E-14 1.56672E-13
 -1      4246 2.00078E+01 1.57659E-02-5.54101E-05 7.60771E-04 6.32700E-14 4.14994E-13
 -1      4247 2.00076E+01 1.99995E-02 2.83729E-05 1.99833E-03 1.71597E-13 5.01149E-13
 -1      4248 2.00071E+01 2.38675E-02 8.94625E-05 1.86013E-03 1.36432E-13 4.12182E-13
 -1      4249 1.69684E+01 8.84355E-01-1.61656E-02 1.23059E+00-1.13349E-13-1.10922E-13
 -1      4250 1.66885E+01 7.72702E-01 2.01326E-03 1.46683E+00-2.92159E-13-1.15077E-13
 -1      4251 1.91302E+01 8.06585E-01-3.79720E-03 3.54955E-01-3.11557E-14-1.72121E-13
 -1      4252 1.90206E+01 8.59399E-01-7.12159E-04 4.03165E-01-3.29561E-14-2.19738E-13
 -1      4253 1.88719E+01 9.38604E-01 8.36738E-03 3.08419E-01-5.93464E-14-1.10576E-13
 -1      4254 1.91386E+01 8.25917E-01 6.51774E-03 2.44113E-01-4.40946E-14-2.02852E-13
 -1      4255 1.52670E+01 1.52680E+00 8.38071E-03 8.09721E-01 9.05901E-14-5.79521E-13
 -1      4256 2.00075E+01 6.53623E-03-3.01083E-07-7.53974E-04 1.02964E-13 5.07541E-14
 -1      4257 2.00074E+01 6.81164E-03-2.88892E-05-1.05453E-03 1.17369E-13 3.09316E-13
 -1      4258 2.00078E+01 8.72888E-03 2.62373E-05-6.00941E-04 6.90953E-14 3.72634E-13
 -1      4259 2.00079E+01 8.35094E-03 4.07204E-05-3.30385E-04 4.14741E-14-5.17036E-14
 -1      4260 1.71878E+01 1.12666E+00-7.94216E-03-5.29899E-01-6.86942E-14 1.03606E-14
 -1      4261 1.75014E+01 1.13598E+00-1.04191E-02-4.42829E-01-1.04110E-13-2.68294E-14
 -1      4262 1.76011E+01 1.21222E+00 1.88785E-02-1.56350E-01-1.95715E-14-1.51600E-13
 -1      4263 1.69430E+01 1.24772E+00 2.66289E-02-1.64275E-01-1.06543E-13-1.83799E-13
 -1      4264 1.62321E+01 6.71995E-01-2.06666E-02 1.60711E+00-2.51020E-13-1.16485E-13
 -1      4265 1.61681E+01 4.84976E-01 5.16143E-03 1.89047E+00-2.69720E-13-6.69497E-14
 -1      4266 1.76147E+01 9.90438E-01-1.35584E-02 9.27931E-01-1.04398E-13-1.13484E-13
 -1      4267 1.73860E+01 9.49653E-01 1.46904E-04 1.07800E+00-2.36517E-14-3.40648E-14
 -1      4268 1.68982E+01 1.08419E+00 1.91179E-02 8.64690E-01-1.70131E-13-3.02759E-13
 -1      4269 1.56274E+01 1.13353E+00-1.93128E-02-1.52695E+00-3.48393E-14-6.22081E-13
 -1      4270 1.72736E+01 1.68124E+00-2.13954E-02-1.15695E+00 2.24931E-14-5.50218E-13
 -1      4271 1.67715E+01 1.59964E+00-8.44054E-03-1.11255E+00 6.34692E-15-5.53055E-13
 -1      4272 1.95102E+01 5.90823E-01-2.39392E-03 2.20669E-01-1.40530E-13-3.17560E-14
 -1      4273 1.94402E+01 6.45420E-01-5.13296E-04 2.53427E-01-5.84790E-14-3.79428E-14
 -1      4274 1.93509E+01 7.09081E-01 5.10903E-03 1.92594E-01-5.82866E-14-1.31677E-13
 -1      4275 2.00078E+01 7.41357E-03 1.48708E-05 4.20157E-04-1.21848E-13-5.01541E-14
 -1      4276 2.00081E+01 1.01294E-02 2.99345E-06 2.97999E-05-5.56252E-14-1.08008E-13
 -1      4277 2.00081E+01 1.22403E-02 2.45727E-05-4.72861E-05 1.34863E-13-1.89021E-13
 -1      4278 1.81272E+01 2.21166E+00-6.64410E-03 7.69819E-01-5.22566E-14-5.31418E-13
 -1      4279 1.62430E+01 1.38585E+00-1.79825E-02-1.27373E+00-1.80780E-14-5.98122E-13
 -1      4280 1.51463E+01 1.62571E+00-1.80791E-03-1.13973E-01 4.26125E-14-6.16562E-13
 -1      4281 1.95185E+01 5.95495E-01 4.00476E-03 1.50806E-01-1.76853E-13-1.29205E-13
 -1      4282 1.60504E+01 1.01137E+00 1.83201E-02 1.06963E+00-2.09506E-13-2.64259E-13
 -1      4283 2.00079E+01 1.07655E-02-2.17206E-05-3.14224E-04-1.22064E-13 3.94836E-13
 -1      4284 2.00080E+01 1.31628E-02 2.44367E-05 3.22747E-04-7.57141E-14 3.40507E-13
 -1      4285 2.00080E+01 1.59319E-02 4.49373E-05 5.42873E-04 9.25189E-14 4.45672E-13
 -1      4286 2.00080E+01 1.06866E-02-8.00258E-06-2.03815E-04 5.77204E-15 2.04545E-13
 -1      4287 1.79339E+01 1.01890E+00 5.14766E-04 8.20857E-01-7.60322E-14-1.67426E-13
 -1      4288 1.75854E+01 1.13321E+00 1.74902E-02 6.50119E-01-7.40750E-14-1.89595E-13
 -1      4289 1.81260E+01 1.01748E+00-9.27027E-03 7.16017E-01 1.09954E-14-2.55841E-13
 -1      4290 1.85379E+01 1.03704E+00 1.08428E-02 3.90668E-01 2.06806E-14-1.79712E-13
 -1      4291 1.85357E+01 9.80979E-01-6.65247E-03 5.62775E-01 3.10845E-14-3.29687E-13
 -1      4292 1.83738E+01 1.00864E+00-4.52004E-04 6.40023E-01 7.58311E-14-2.64175E-13
 -1      4293 1.95054E+01 5.82470E-01-2.88068E-03 4.49328E-02-5.90787E-14-2.59532E-13
 -1      4294 1.94291E+01 6.39462E-01-2.11659E-03 5.89824E-02-1.21623E-13-2.63008E-13
 -1      4295 1.84866E+01 1.03097E+00-7.90470E-03 1.19457E-01-5.99048E-14 2.27113E-14
 -1      4296 1.86819E+01 9.84425E-01-4.76790E-03 1.20210E-01-2.95900E-14 3.65043E-14
 -1      4297 1.88362E+01 9.28089E-01-6.00749E-03 9.40062E-02-3.22939E-14 1.69283E-14
 -1      4298 1.89905E+01 8.73591E-01-3.62510E-03 9.49216E-02-3.46469E-14-6.38708E-14
 -1      4299 1.91133E+01 8.13207E-01-4.65315E-03 7.39810E-02-2.44255E-14-7.67683E-14
 -1      4300 1.92355E+01 7.55906E-01-2.77027E-03 7.49958E-02-2.78572E-15-9.59043E-14
 -1      4301 1.93327E+01 6.95702E-01-3.65222E-03 5.79153E-02-1.01786E-13-7.24415E-14
 -1      4302 1.95807E+01 5.29927E-01-1.60808E-03 4.60000E-02-1.03104E-13-3.47415E-13
 -1      4303 1.96399E+01 4.78087E-01-2.26769E-03 3.44527E-02-4.68733E-14-2.74191E-13
 -1      4304 1.96982E+01 4.30828E-01-1.20955E-03 3.54726E-02-3.22764E-15-1.87665E-13
 -1      4305 1.97435E+01 3.85173E-01-1.77278E-03 2.60474E-02-2.21038E-14-2.84119E-13
 -1      4306 1.97879E+01 3.43956E-01-8.97395E-04 2.69845E-02 9.07800E-15-1.99873E-13
 -1      4307 1.98220E+01 3.04826E-01-1.37140E-03 1.93733E-02-6.34121E-14-2.58285E-13
 -1      4308 1.98554E+01 2.69804E-01-6.54504E-04 2.02056E-02-9.69813E-14-3.35086E-13
 -1      4309 1.98806E+01 2.37048E-01-1.04707E-03 1.41383E-02 4.05767E-14-3.40070E-13
 -1      4310 1.99052E+01 2.07961E-01-4.67528E-04 1.48564E-02 1.32524E-13-2.90211E-13
 -1      4311 1.99235E+01 1.81115E-01-7.87302E-04 1.00888E-02 5.23357E-14-2.05858E-13
 -1      4312 1.99413E+01 1.57450E-01-3.25586E-04 1.06928E-02 1.02435E-14-2.62321E-13
 -1      4313 1.99541E+01 1.35874E-01-5.81764E-04 7.00369E-03 1.43153E-15-2.76776E-13
 -1      4314 1.99666E+01 1.16985E-01-2.19615E-04 7.50031E-03-8.21976E-14-2.74283E-13
 -1      4315 1.99755E+01 9.99647E-02-4.21443E-04 4.69195E-03-8.65378E-14-3.08971E-13
 -1      4316 1.99840E+01 8.51635E-02-1.42034E-04 5.09178E-03-6.08039E-14-3.19366E-13
 -1      4317 1.99898E+01 7.19769E-02-2.98358E-04 2.99112E-03-6.72747E-14-2.79948E-13
 -1      4318 1.99953E+01 6.05863E-02-8.65276E-05 3.30660E-03 4.74431E-14-3.14655E-13
 -1      4319 1.99989E+01 5.05531E-02-2.05442E-04 1.76536E-03 2.75752E-14-3.09401E-13
 -1      4320 2.00023E+01 4.19443E-02-4.78228E-05 2.00913E-03-6.94475E-14-3.91108E-13
 -1      4321 2.00043E+01 3.44487E-02-1.36268E-04 9.03272E-04-5.64083E-14-2.19818E-13
 -1      4322 2.00062E+01 2.80589E-02-2.13635E-05 1.08775E-03 4.66091E-14-1.72575E-13
 -1      4323 2.00071E+01 2.25792E-02-7.93505E-05 3.21911E-04 9.00090E-14-2.79924E-15
 -1      4324 2.00079E+01 1.78809E-02-2.02140E-05 4.54229E-04 1.88445E-13-4.33081E-15
 -1      4325 1.80438E+01 1.11069E+00-1.03014E-02 1.53269E-01 7.12836E-14-7.44389E-14
 -1      4326 1.82928E+01 1.07792E+00-6.27061E-03 1.53311E-01 1.99202E-14-1.16489E-14
 -1      4327 1.60053E+01 1.11919E+00-7.57256E-04 4.28306E-01-1.97855E-13-1.83475E-13
 -1      4328 2.00080E+01 1.02906E-02-3.35476E-05-5.26724E-05 1.08517E-13 5.25288E-14
 -1      4329 1.56414E+01 1.64736E+00 1.60698E-02-7.80835E-01 4.83012E-15-6.17239E-13
 -1      4330 2.00081E+01 1.50110E-02-7.76569E-06 7.93497E-06 1.21870E-13 2.49884E-14
 -1      4331 1.63972E+01 1.12563E+00-1.13793E-02 3.97354E-01-2.23898E-13-2.35060E-13
 -1      4332 1.75002E+01 1.15163E+00-1.44461E-02 2.14811E-01-3.98835E-15-2.01892E-13
 -1      4333 1.77989E+01 1.14120E+00-7.90738E-03 1.98509E-01 6.69579E-14-1.68853E-13
 -1      4334 1.67971E+01 1.15359E+00-1.68512E-02 3.14229E-01-1.68757E-13-2.36560E-13
 -1      4335 1.71901E+01 1.16061E+00-9.74486E-03 2.80163E-01-1.22048E-13-2.38365E-13
 -1      4336 1.81175E+01 1.10750E+00 1.36853E-02 4.99521E-01 9.05948E-14-3.31243E-13
 -3
    1PSTEP                         3           1           1          
  100CL  101 1.000000000        4336                     0    1           1
 -4  TOSTRAIN    6    1
 -5  EXX         1    4    1    1
 -5  EYY         1    4    2    2
 -5  EZZ         1    4    3    3
 -5  EXY         1    4    1    2
 -5  EYZ         1    4    2    3
 -5  EZX         1    4    3    1
 -1         1 1.88723E-04-2.41203E-05-6.22850E-05 1.13599E-04-1.23190E-17-2.66184E-17
 -1         2 3.66445E-05-1.11154E-04 2.01042E-05-5.85777E-07 1.71292E-18 4.83841E-19
 -1         3 9.52377E-05-2.85705E-05-2.85722E-05 6.67939E-10-1.69995E-18-2.98223E-18
 -1         4 9.52377E-05-2.85706E-05-2.85722E-05-5.96510E-10 1.54656E-18 1.39352E-19
 -1         5 1.44087E-04-2.12319E-05-4.34559E-05 3.77908E-05-3.50195E-19 2.57807E-17
 -1         6 1.45498E-04 2.66475E-10-4.50601E-05-5.22675E-05-1.46007E-18 2.63906E-17
 -1         7 9.45437E-05-7.80975E-07-4.03395E-05-2.67777E-05-2.06041E-19 5.89538E-18
 -1         8 8.85484E-05-2.36647E-08-3.76200E-05-1.64322E-05-3.20443E-19-7.67822E-19
 -1         9 8.50789E-05 2.59005E-08-3.62404E-05-1.10693E-05-2.72930E-19-4.50524E-18
 -1        10 8.24968E-05 2.87770E-08-3.51918E-05-7.36490E-06-2.09958E-19-6.40107E-18
 -1        11 8.03789E-05 3.81227E-08-3.43423E-05-4.69503E-06-1.50587E-19-7.39205E-18
 -1        12 7.87121E-05 4.84041E-08-3.36793E-05-2.81272E-06-1.02769E-19-7.90646E-18
 -1        13 7.75114E-05 5.86889E-08-3.32047E-05-1.45027E-06-5.92725E-20-8.11030E-18
 -1        14 7.68918E-05 6.44463E-08-3.29603E-05-4.28559E-07-5.75718E-22-8.16935E-18
 -1        15 7.69024E-05 6.42914E-08-3.29642E-05 4.81785E-07 3.28589E-20-8.15832E-18
 -1        16 7.75414E-05 5.81985E-08-3.32157E-05 1.51658E-06 6.80803E-20-8.10617E-18
 -1        17 7.87583E-05 4.63733E-08-3.36957E-05 2.90605E-06 1.00744E-19-7.81502E-18
 -1        18 8.04324E-05 3.56423E-08-3.43608E-05 4.82225E-06 1.53128E-19-7.23499E-18
 -1        19 8.25543E-05 2.70576E-08-3.52120E-05 7.54620E-06 2.31240E-19-6.15973E-18
 -1        20 8.51238E-05 3.05248E-08-3.62611E-05 1.13161E-05 3.07844E-19-4.18688E-18
 -1        21 8.85290E-05 5.12847E-08-3.76603E-05 1.66743E-05 3.45722E-19-3.49752E-19
 -1        22 9.52406E-05-3.30940E-07-4.00099E-05 2.55729E-05 5.02926E-20 7.62211E-18
 -1        23 1.17334E-04-3.96277E-05-3.67396E-05-3.66441E-06-1.03380E-18 2.11535E-17
 -1        24 1.00365E-04-2.99849E-05-3.12248E-05 5.17284E-07-2.53491E-19 1.64764E-17
 -1        25 9.94775E-05-2.99683E-05-3.00226E-05 4.46759E-07-6.50164E-20 1.18763E-17
 -1        26 1.01156E-04-3.04315E-05-3.03434E-05 2.87054E-07-8.95175E-21 8.74564E-18
 -1        27 1.04112E-04-3.12816E-05-3.12157E-05 2.45026E-07-1.87798E-19 6.41336E-18
 -1        28 1.07618E-04-3.23022E-05-3.22580E-05 2.23330E-07-2.37297E-20 4.63848E-18
 -1        29 1.11028E-04-3.33035E-05-3.32450E-05 1.91363E-07-1.96042E-21 3.73163E-18
 -1        30 1.13535E-04-3.40430E-05-3.39356E-05 1.17191E-07-1.54778E-19 2.66501E-18
 -1        31 1.14156E-04-3.42266E-05-3.40505E-05-2.96984E-08 1.78201E-19 1.25593E-18
 -1        32 1.11931E-04-3.35669E-05-3.33401E-05-2.59251E-07-2.60808E-19 1.30602E-19
 -1        33 1.06422E-04-3.19279E-05-3.17313E-05-5.24528E-07 8.11894E-20-8.72709E-19
 -1        34 9.83961E-05-2.95299E-05-2.94908E-05-6.97606E-07-7.09990E-21-1.27968E-18
 -1        35 9.01845E-05-2.70659E-05-2.72741E-05-6.20680E-07 7.35248E-20-1.41560E-18
 -1        36 8.50216E-05-2.55114E-05-2.59146E-05-2.46129E-07-1.60172E-19-2.44826E-18
 -1        37 8.53206E-05-2.56010E-05-2.60044E-05 2.64860E-07-2.83303E-19-3.56233E-18
 -1        38 9.10789E-05-2.73339E-05-2.75426E-05 6.38948E-07-1.61745E-19-4.31738E-18
 -1        39 9.98821E-05-2.99749E-05-2.99383E-05 7.16098E-07-9.83468E-20-4.75736E-18
 -1        40 1.08509E-04-3.25522E-05-3.23611E-05 5.46504E-07-7.39036E-20-5.26529E-18
 -1        41 1.14645E-04-3.43781E-05-3.41600E-05 2.87599E-07-1.99443E-19-6.14456E-18
 -1        42 1.17530E-04-3.52333E-05-3.50692E-05 6.68620E-08-2.00257E-19-6.62020E-18
 -1        43 1.17586E-04-3.52490E-05-3.51592E-05-6.81670E-08-1.97964E-19-5.44415E-18
 -1        44 1.15739E-04-3.47008E-05-3.46699E-05-1.26129E-07 3.17138E-19-4.28543E-18
 -1        45 1.12906E-04-3.38598E-05-3.38634E-05-1.34582E-07-2.41650E-19-4.88278E-18
 -1        46 1.09774E-04-3.29286E-05-3.29471E-05-1.18469E-07-3.24921E-20-6.90243E-18
 -1        47 1.06769E-04-3.20334E-05-3.20550E-05-9.39739E-08 1.13785E-19-4.94672E-18
 -1        48 1.04109E-04-3.12396E-05-3.12587E-05-6.95675E-08 2.34448E-19-3.31531E-18
 -1        49 1.01878E-04-3.05722E-05-3.05870E-05-4.87722E-08 1.06011E-19-3.59477E-18
 -1        50 1.00076E-04-3.00322E-05-3.00427E-05-3.24735E-08-2.46210E-19-3.81761E-18
 -1        51 9.86641E-05-2.96082E-05-2.96152E-05-2.03696E-08-1.50054E-19-3.43843E-18
 -1        52 9.75860E-05-2.92839E-05-2.92882E-05-1.17419E-08-1.96586E-19-2.47441E-18
 -1        53 9.67824E-05-2.90417E-05-2.90441E-05-5.81645E-09-3.98741E-19-3.76657E-18
 -1        54 9.61976E-05-2.88651E-05-2.88662E-05-1.90727E-09 2.58670E-19-5.17178E-18
 -1        55 9.57830E-05-2.87396E-05-2.87399E-05 5.43173E-10-3.42367E-19-5.19761E-18
 -1        56 9.54982E-05-2.86532E-05-2.86529E-05 1.96682E-09 4.57851E-20-7.56273E-18
 -1        57 9.53100E-05-2.85959E-05-2.85953E-05 2.68841E-09 1.27381E-19-7.02517E-18
 -1        58 9.51923E-05-2.85599E-05-2.85592E-05 2.94664E-09 5.03511E-19-5.25069E-18
 -1        59 9.51247E-05-2.85391E-05-2.85384E-05 2.91354E-09-2.86648E-19-4.24279E-18
 -1        60 9.50920E-05-2.85288E-05-2.85281E-05 2.71060E-09-1.01143E-19-4.97163E-18
 -1        61 9.50826E-05-2.85256E-05-2.85250E-05 2.42166E-09 3.88587E-19-4.92353E-18
 -1        62 9.50881E-05-2.85270E-05-2.85265E-05 2.10291E-09-1.37596E-19-3.66042E-18
 -1        63 9.51026E-05-2.85312E-05-2.85307E-05 1.79056E-09-5.86299E-19-5.43409E-18
 -1        64 9.51219E-05-2.85368E-05-2.85365E-05 1.50651E-09 4.77002E-19-5.49127E-18
 -1        65 9.51433E-05-2.85431E-05-2.85429E-05 1.26227E-09 4.11216E-19-2.13307E-18
 -1        66 9.51650E-05-2.85495E-05-2.85493E-05 1.06131E-09-3.16478E-19-8.28275E-19
 -1        67 9.51856E-05-2.85557E-05-2.85555E-05 8.99098E-10-3.88099E-21-1.19819E-18
 -1        68 9.52042E-05-2.85612E-05-2.85611E-05 7.59463E-10 2.18696E-19 1.89292E-18
 -1        69 9.52200E-05-2.85659E-05-2.85657E-05 6.00105E-10-4.57318E-19-3.41288E-19
 -1        70 9.52316E-05-2.85694E-05-2.85691E-05 2.81780E-10 6.54288E-19 9.63012E-19
 -1        71 9.52374E-05-2.85714E-05-2.85710E-05-2.13958E-10-5.91479E-19 2.82479E-18
 -1        72 1.06587E-04-3.18983E-05-3.55494E-05-2.21545E-06 4.20472E-19 2.31294E-17
 -1        73 1.00168E-04-2.98122E-05-3.11488E-05-4.10644E-07 2.07629E-19 1.71045E-17
 -1        74 9.94558E-05-2.98147E-05-3.00643E-05-1.74860E-07 1.22085E-19 1.25788E-17
 -1        75 1.01151E-04-3.03677E-05-3.03773E-05-1.53214E-07 4.15410E-20 9.40193E-18
 -1        76 1.04080E-04-3.12356E-05-3.12228E-05-1.61974E-07 1.63690E-19 7.35831E-18
 -1        77 1.07544E-04-3.22594E-05-3.22410E-05-1.84842E-07 5.15538E-20 5.71702E-18
 -1        78 1.10891E-04-3.32557E-05-3.32009E-05-2.05668E-07 1.09697E-20 5.34824E-18
 -1        79 1.13312E-04-3.39867E-05-3.38577E-05-1.97670E-07 6.28624E-20 4.25273E-18
 -1        80 1.13830E-04-3.41616E-05-3.39334E-05-1.23015E-07-5.17352E-20 2.90338E-18
 -1        81 1.11499E-04-3.34943E-05-3.31873E-05 5.22373E-08 2.23868E-19 2.77329E-18
 -1        82 1.05916E-04-3.18463E-05-3.15587E-05 3.19310E-07-9.63227E-20 2.56262E-18
 -1        83 9.78781E-05-2.94293E-05-2.93278E-05 5.81447E-07 1.34684E-19 2.89937E-18
 -1        84 8.97350E-05-2.69329E-05-2.71525E-05 6.67083E-07 2.76196E-19 1.79920E-18
 -1        85 8.47087E-05-2.53508E-05-2.58522E-05 4.55871E-07 3.92762E-20 1.07285E-18
 -1        86 8.51583E-05-2.54443E-05-2.59937E-05 2.04304E-08-2.74591E-20 1.67580E-19
 -1        87 9.10156E-05-2.72203E-05-2.75527E-05-4.01601E-07 1.14523E-20-1.02975E-18
 -1        88 9.98360E-05-2.99207E-05-2.99341E-05-6.03844E-07-9.25160E-20-2.74656E-18
 -1        89 1.08414E-04-3.25417E-05-3.23222E-05-5.58362E-07 1.62572E-19-5.61758E-18
 -1        90 1.14481E-04-3.43818E-05-3.40877E-05-3.74557E-07-7.14924E-20-5.85185E-18
 -1        91 1.17315E-04-3.52290E-05-3.49787E-05-1.75067E-07-5.06273E-19-4.18229E-18
 -1        92 1.17353E-04-3.52284E-05-3.50678E-05-2.62657E-08 3.25450E-20-1.91104E-18
 -1        93 1.15518E-04-3.46661E-05-3.45894E-05 5.92178E-08-2.43900E-19-2.56346E-18
 -1        94 1.12713E-04-3.38174E-05-3.37988E-05 9.52104E-08 3.99428E-19-5.97270E-18
 -1        95 1.09616E-04-3.28848E-05-3.28985E-05 1.00783E-07 7.22524E-20-8.40152E-18
 -1        96 1.06645E-04-3.19925E-05-3.20201E-05 9.10351E-08-1.41043E-20-5.87728E-18
 -1        97 1.04016E-04-3.12038E-05-3.12346E-05 7.54736E-08-3.42109E-19-3.33967E-18
 -1        98 1.01809E-04-3.05423E-05-3.05708E-05 5.92188E-08 3.96317E-19-1.70913E-18
 -1        99 1.00026E-04-3.00079E-05-3.00321E-05 4.46233E-08-1.74057E-19-3.40360E-18
 -1       100 9.86280E-05-2.95890E-05-2.96084E-05 3.25060E-08 5.28065E-20-2.23780E-18
 -1       101 9.75605E-05-2.92690E-05-2.92840E-05 2.29245E-08-2.56187E-19-1.98998E-18
 -1       102 9.67645E-05-2.90303E-05-2.90415E-05 1.56070E-08 3.24970E-19-1.73301E-18
 -1       103 9.61853E-05-2.88565E-05-2.88647E-05 1.01746E-08-3.85853E-19-1.22752E-19
 -1       104 9.57747E-05-2.87333E-05-2.87391E-05 6.24595E-09 5.90807E-19-1.34593E-19
 -1       105 9.54928E-05-2.86486E-05-2.86526E-05 3.48128E-09 1.32624E-19-2.56890E-18
 -1       106 9.53066E-05-2.85926E-05-2.85953E-05 1.59589E-09-8.18909E-19-2.84242E-18
 -1       107 9.51903E-05-2.85576E-05-2.85594E-05 3.60072E-10-4.74324E-20-3.56505E-18
 -1       108 9.51237E-05-2.85375E-05-2.85386E-05-4.06797E-10 4.82845E-19-6.84845E-18
 -1       109 9.50916E-05-2.85278E-05-2.85284E-05-8.43852E-10-1.80666E-19-5.74079E-18
 -1       110 9.50826E-05-2.85250E-05-2.85253E-05-1.05643E-09 7.82007E-20-6.86710E-18
 -1       111 9.50884E-05-2.85267E-05-2.85267E-05-1.12303E-09 1.76722E-19-7.08143E-18
 -1       112 9.51030E-05-2.85310E-05-2.85310E-05-1.10125E-09-9.42713E-19-5.11351E-18
 -1       113 9.51224E-05-2.85368E-05-2.85367E-05-1.03275E-09 1.07851E-18-3.82811E-18
 -1       114 9.51438E-05-2.85432E-05-2.85430E-05-9.47202E-10-8.79314E-19-3.75722E-18
 -1       115 9.51655E-05-2.85497E-05-2.85495E-05-8.65104E-10 6.74063E-19-3.38089E-18
 -1       116 9.51861E-05-2.85558E-05-2.85557E-05-7.98771E-10 9.32517E-19-6.84542E-18
 -1       117 9.52047E-05-2.85614E-05-2.85612E-05-7.50076E-10 1.23472E-19-9.82871E-18
 -1       118 9.52204E-05-2.85661E-05-2.85658E-05-7.00249E-10 4.58432E-19-7.06767E-18
 -1       119 9.52319E-05-2.85696E-05-2.85692E-05-5.39952E-10-4.57225E-19-4.78326E-18
 -1       120 9.52374E-05-2.85714E-05-2.85710E-05 3.02581E-11 3.83818E-19-2.37425E-18
 -1       121 9.52372E-05-2.85713E-05-2.85710E-05 1.96263E-10-1.00516E-18-2.54286E-19
 -1       122 9.52389E-05-2.85768E-05-2.85691E-05-3.74855E-10 4.52261E-18 2.19335E-19
 -1       123 9.52420E-05-2.85874E-05-2.85661E-05-6.26072E-10 7.34739E-18 5.30699E-19
 -1       124 9.52459E-05-2.86002E-05-2.85624E-05-6.55969E-10 6.80069E-18 2.15428E-19
 -1       125 9.52496E-05-2.86128E-05-2.85588E-05-5.69765E-10 1.46181E-18-2.49624E-18
 -1       126 9.52528E-05-2.86234E-05-2.85556E-05-4.36961E-10-5.30911E-18-1.96664E-19
 -1       127 9.52551E-05-2.86312E-05-2.85533E-05-2.69984E-10-1.02077E-19 6.33452E-19
 -1       128 9.52563E-05-2.86353E-05-2.85521E-05-9.01234E-11 1.49320E-18-9.35487E-19
 -1       129 9.52563E-05-2.86353E-05-2.85521E-05 9.32114E-11 4.86220E-18 7.72309E-19
 -1       130 9.52551E-05-2.86311E-05-2.85534E-05 2.72389E-10 8.10410E-18-5.56386E-19
 -1       131 9.52527E-05-2.86233E-05-2.85557E-05 4.43918E-10-3.81884E-19-3.03343E-18
 -1       132 9.52496E-05-2.86126E-05-2.85588E-05 5.72608E-10-4.71779E-18 2.67520E-18
 -1       133 9.52458E-05-2.86000E-05-2.85625E-05 6.55270E-10-2.77490E-18-7.99417E-19
 -1       134 9.52420E-05-2.85872E-05-2.85662E-05 6.69457E-10-4.02308E-18 6.40507E-20
 -1       135 9.52389E-05-2.85768E-05-2.85692E-05 5.21775E-10-6.74549E-18-8.34533E-19
 -1       136 9.52374E-05-2.85715E-05-2.85710E-05-4.85461E-10-3.59634E-18 1.17002E-18
 -1       137 2.58814E-05-8.82861E-05 1.58323E-05-2.36249E-05 1.55378E-17 3.57501E-18
 -1       138 7.79108E-06-3.34549E-05 3.01158E-06-1.74552E-05 2.26670E-17 1.05252E-17
 -1       139 1.22784E-05 1.57201E-05-1.55971E-05 2.49177E-05 2.44471E-17 1.92730E-17
 -1       140 6.17632E-05 2.62049E-05-3.62105E-05 8.00788E-05 2.07044E-17 2.38516E-17
 -1       141 1.51366E-04-6.01487E-06-5.58200E-05 1.12129E-04 1.14364E-17 2.04766E-17
 -1       142 2.46086E-04-5.69620E-05-7.06516E-05 9.52137E-05 3.41465E-18 1.05591E-17
 -1       143 3.05245E-04-9.27805E-05-7.85006E-05 3.00466E-05 6.29028E-19-4.13066E-18
 -1       144 2.95733E-04-8.64951E-05-7.73658E-05-5.14394E-05 2.88999E-18-1.99150E-17
 -1       145 2.18890E-04-4.09523E-05-6.67709E-05-1.06901E-04 1.16588E-17-3.05313E-17
 -1       146 1.20156E-04 8.74262E-06-5.01507E-05-1.08207E-04 2.20400E-17-3.39262E-17
 -1       147 4.28418E-05 2.88350E-05-3.05532E-05-6.60956E-05 2.86568E-17-3.00349E-17
 -1       148 7.03371E-06 4.12817E-06-9.78735E-06-9.80954E-06 2.96665E-17-1.93265E-17
 -1       149 1.26943E-05-5.34645E-05 8.23654E-06 2.50423E-05 2.25730E-17-9.06050E-18
 -1       150 3.23135E-05-1.02287E-04 1.83923E-05 1.75987E-05 9.09819E-18-1.60878E-18
 -1       151 3.39996E-05-1.07575E-04 1.96952E-05-1.17975E-05-5.98122E-18-1.15588E-18
 -1       152 1.72786E-05-6.45730E-05 1.05243E-05-2.37747E-05-2.01937E-17-7.18295E-18
 -1       153 4.84063E-06-9.31053E-06-4.31245E-06-3.79553E-06-2.60954E-17-1.52813E-17
 -1       154 2.52212E-05 2.59948E-05-2.35696E-05 4.70262E-05-2.63647E-17-2.39575E-17
 -1       155 9.32655E-05 1.86593E-05-4.43452E-05 9.81028E-05-2.11809E-17-2.90841E-17
 -1       156 2.71853E-04-7.20636E-05-7.41990E-05 8.02569E-05-4.29951E-18-1.79192E-17
 -1       157 3.10583E-04-9.62547E-05-7.91233E-05 9.39756E-06-4.39928E-19-3.64645E-18
 -1       158 2.87150E-04-8.18357E-05-7.61013E-05-6.34040E-05-2.01747E-18 8.93429E-18
 -1       159 2.10270E-04-3.63637E-05-6.54930E-05-1.08681E-04-8.54762E-18 1.96406E-17
 -1       160 1.12766E-04 1.04484E-05-4.82142E-05-1.04003E-04-1.63835E-17 2.52606E-17
 -1       161 4.13271E-05 2.75774E-05-2.96742E-05-6.33783E-05-2.08116E-17 2.18014E-17
 -1       162 7.02431E-06 5.25138E-06-1.01173E-05-1.04163E-05-2.18077E-17 1.47286E-17
 -1       163 1.02976E-05-4.36987E-05 5.73850E-06 2.18226E-05-1.88257E-17 8.53830E-18
 -1       164 2.79139E-05-9.24033E-05 1.66217E-05 2.26693E-05-1.01284E-17 1.61804E-18
 -1       165 9.98206E-05-1.39928E-05-3.69618E-05-1.86580E-05-3.68961E-18 2.23188E-18
 -1       166 9.28279E-05-9.36245E-06-3.59187E-05-1.30942E-05-3.51775E-18-1.91705E-18
 -1       167 8.81519E-05-6.61155E-06-3.50515E-05-9.03041E-06-2.96810E-18-4.32504E-18
 -1       168 8.46350E-05-4.83241E-06-3.42784E-05-6.00229E-06-2.28522E-18-5.70630E-18
 -1       169 8.18808E-05-3.55361E-06-3.36279E-05-3.79440E-06-1.61200E-18-6.37655E-18
 -1       170 7.97800E-05-2.62393E-06-3.31158E-05-2.16320E-06-1.05946E-18-6.74724E-18
 -1       171 7.84705E-05-2.05837E-06-3.27915E-05-9.60264E-07-4.36516E-19-6.83930E-18
 -1       172 7.80352E-05-1.87397E-06-3.26823E-05 2.46404E-08 1.32690E-19-6.93816E-18
 -1       173 7.85059E-05-2.07939E-06-3.27978E-05 1.01583E-06 6.67083E-19-6.88419E-18
 -1       174 7.98476E-05-2.66554E-06-3.31274E-05 2.23718E-06 1.20467E-18-6.68664E-18
 -1       175 8.19315E-05-3.59653E-06-3.36321E-05 3.86394E-06 1.77614E-18-6.29850E-18
 -1       176 8.47480E-05-4.91706E-06-3.42913E-05 6.13931E-06 2.49203E-18-5.53544E-18
 -1       177 8.82969E-05-6.73766E-06-3.50633E-05 9.23474E-06 3.18218E-18-4.17365E-18
 -1       178 9.29931E-05-9.51867E-06-3.59279E-05 1.33506E-05 3.69399E-18-1.59588E-18
 -1       179 1.00661E-04-1.51993E-05-3.68147E-05 1.83291E-05 3.61310E-18 3.09321E-18
 -1       180 1.10753E-04-2.79395E-05-3.66586E-05 1.60520E-05 2.77824E-18 9.55421E-18
 -1       181 1.09273E-04-2.92370E-05-3.42945E-05-9.33434E-06-3.14982E-18 6.93789E-18
 -1       182 1.04691E-04-3.05986E-05-3.17824E-05-1.97516E-06-2.71870E-18 5.35870E-18
 -1       183 1.03063E-04-3.04660E-05-3.10634E-05 1.04373E-06-1.90256E-18 3.94302E-18
 -1       184 1.03651E-04-3.08662E-05-3.11604E-05 2.54322E-06-1.56576E-18 2.79629E-18
 -1       185 1.05296E-04-3.15155E-05-3.16077E-05 3.24706E-06-1.11514E-18 2.26645E-18
 -1       186 1.07412E-04-3.23340E-05-3.21777E-05 3.26546E-06-7.20832E-19 1.81095E-18
 -1       187 1.09459E-04-3.31888E-05-3.26969E-05 2.48854E-06-6.53362E-19 1.31110E-18
 -1       188 1.10855E-04-3.38880E-05-3.29991E-05 7.75819E-07-7.55686E-19 1.35617E-18
 -1       189 1.10993E-04-3.41605E-05-3.29393E-05-1.83724E-06-6.16078E-19 1.16871E-18
 -1       190 1.09384E-04-3.36874E-05-3.24452E-05-4.87419E-06-6.12855E-19 1.02116E-18
 -1       191 1.05972E-04-3.22616E-05-3.15866E-05-7.23898E-06-5.77921E-19-7.50418E-20
 -1       192 1.01517E-04-3.01010E-05-3.05999E-05-7.47865E-06-5.18829E-19-6.80452E-19
 -1       193 9.76600E-05-2.80517E-05-2.98279E-05-4.72047E-06-8.85477E-19-1.59964E-18
 -1       194 9.62434E-05-2.72327E-05-2.95745E-05 3.01014E-07-1.18477E-18-2.08457E-18
 -1       195 9.80971E-05-2.81843E-05-2.99587E-05 5.31932E-06-7.46676E-19-2.46574E-18
 -1       196 1.02384E-04-3.03622E-05-3.08601E-05 8.07098E-06-3.48633E-19-3.53004E-18
 -1       197 1.07259E-04-3.26427E-05-3.19750E-05 7.83385E-06-3.06601E-19-3.79767E-18
 -1       198 1.11084E-04-3.41897E-05-3.29595E-05 5.48443E-06-4.75996E-19-3.76648E-18
 -1       199 1.13096E-04-3.47852E-05-3.35740E-05 2.45935E-06-6.08355E-19-3.82375E-18
 -1       200 1.13327E-04-3.46296E-05-3.37428E-05-1.64677E-07 6.39963E-19-4.04202E-18
 -1       201 1.12223E-04-3.40317E-05-3.35241E-05-1.93768E-06 3.43184E-19-3.53392E-18
 -1       202 1.10315E-04-3.32426E-05-3.30406E-05-2.86484E-06-5.32039E-19-4.22205E-18
 -1       203 1.08057E-04-3.24217E-05-3.24199E-05-3.15179E-06-1.47599E-19-3.22207E-18
 -1       204 1.05768E-04-3.16550E-05-3.17633E-05-3.03393E-06 9.87625E-19-1.42240E-18
 -1       205 1.03641E-04-3.09820E-05-3.11377E-05-2.70168E-06 3.98485E-19-1.42655E-18
 -1       206 1.01776E-04-3.04148E-05-3.05800E-05-2.28465E-06-4.10609E-19-2.00913E-18
 -1       207 1.00206E-04-2.99510E-05-3.01056E-05-1.86072E-06-6.01236E-20-2.41451E-18
 -1       208 9.89271E-05-2.95811E-05-2.97159E-05-1.47122E-06 1.71544E-19-2.10398E-18
 -1       209 9.79115E-05-2.92923E-05-2.94047E-05-1.13425E-06-5.01602E-20-1.73431E-18
 -1       210 9.71239E-05-2.90716E-05-2.91622E-05-8.54379E-07-7.22606E-19-1.84218E-18
 -1       211 9.65261E-05-2.89062E-05-2.89774E-05-6.28891E-07-8.72880E-19-1.93304E-18
 -1       212 9.60822E-05-2.87849E-05-2.88396E-05-4.51673E-07-9.37650E-19-2.24023E-18
 -1       213 9.57601E-05-2.86981E-05-2.87392E-05-3.15405E-07-7.15675E-19-2.56801E-18
 -1       214 9.55324E-05-2.86376E-05-2.86679E-05-2.12773E-07 7.22443E-19-2.43150E-18
 -1       215 9.53764E-05-2.85970E-05-2.86188E-05-1.37073E-07 6.87987E-19-3.15535E-18
 -1       216 9.52738E-05-2.85709E-05-2.85863E-05-8.24715E-08 1.50888E-19-3.12847E-18
 -1       217 9.52102E-05-2.85554E-05-2.85658E-05-4.40657E-08-1.10600E-18-4.18032E-18
 -1       218 9.51742E-05-2.85472E-05-2.85541E-05-1.78475E-08 2.43226E-19-3.39153E-18
 -1       219 9.51575E-05-2.85441E-05-2.85483E-05-6.13825E-10 5.92962E-19-3.27744E-18
 -1       220 9.51536E-05-2.85442E-05-2.85467E-05 1.01405E-08-6.80337E-19-3.44696E-18
 -1       221 9.51579E-05-2.85465E-05-2.85477E-05 1.63302E-08 2.89914E-19-2.46259E-18
 -1       222 9.51672E-05-2.85499E-05-2.85502E-05 1.93775E-08 2.13909E-18-1.82067E-18
 -1       223 9.51791E-05-2.85538E-05-2.85537E-05 2.02949E-08 1.00142E-18-2.24223E-19
 -1       224 9.51919E-05-2.85580E-05-2.85574E-05 1.97482E-08 1.49245E-18 1.27216E-18
 -1       225 9.52045E-05-2.85620E-05-2.85611E-05 1.81001E-08 1.05166E-18 1.85451E-18
 -1       226 9.52160E-05-2.85657E-05-2.85644E-05 1.54355E-08-7.26596E-19-5.34452E-20
 -1       227 9.52256E-05-2.85690E-05-2.85671E-05 1.15989E-08 4.53607E-19 1.54352E-18
 -1       228 9.52329E-05-2.85717E-05-2.85691E-05 6.44262E-09 5.00966E-19 1.15547E-18
 -1       229 1.06167E-04-3.06269E-05-3.25393E-05 4.81450E-06 2.90122E-18 8.15551E-18
 -1       230 1.03063E-04-3.03819E-05-3.11146E-05 4.16048E-07 2.22633E-18 6.05251E-18
 -1       231 1.02876E-04-3.06000E-05-3.09318E-05-1.49611E-06 1.49499E-18 4.29916E-18
 -1       232 1.04185E-04-3.11257E-05-3.12886E-05-2.47076E-06 1.13949E-18 3.29478E-18
 -1       233 1.06256E-04-3.18628E-05-3.18744E-05-2.84503E-06 7.43628E-19 2.73632E-18
 -1       234 1.08506E-04-3.26854E-05-3.24924E-05-2.61281E-06 2.80896E-19 2.20680E-18
 -1       235 1.10345E-04-3.34274E-05-3.29619E-05-1.65033E-06 5.90339E-19 1.74952E-18
 -1       236 1.11128E-04-3.38674E-05-3.31034E-05 1.33906E-07 5.26984E-19 1.60122E-18
 -1       237 1.10250E-04-3.37353E-05-3.27767E-05 2.59669E-06 1.77609E-19 8.47830E-19
 -1       238 1.07396E-04-3.27950E-05-3.19554E-05 5.13533E-06 5.76628E-20 1.57061E-18
 -1       239 1.02918E-04-3.10396E-05-3.08008E-05 6.63607E-06 2.64263E-19 1.19412E-18
 -1       240 9.81070E-05-2.89340E-05-2.96646E-05 5.90945E-06 6.02932E-19 1.28881E-18
 -1       241 9.49145E-05-2.74094E-05-2.89691E-05 2.64013E-06 7.03745E-19 7.70530E-19
 -1       242 9.49231E-05-2.73230E-05-2.90067E-05-1.96053E-06 7.40849E-19-7.05658E-19
 -1       243 9.82498E-05-2.87712E-05-2.97872E-05-5.75730E-06 6.06449E-19-1.07690E-18
 -1       244 1.03452E-04-3.09993E-05-3.10368E-05-7.19395E-06 1.18668E-18-2.19697E-18
 -1       245 1.08541E-04-3.30270E-05-3.23405E-05-6.21146E-06 1.19163E-18-2.46980E-18
 -1       246 1.12097E-04-3.42725E-05-3.33374E-05-3.85297E-06-1.33957E-19-2.94415E-18
 -1       247 1.13645E-04-3.46649E-05-3.38445E-05-1.30195E-06-1.08452E-18-2.71979E-18
 -1       248 1.13421E-04-3.44170E-05-3.38632E-05 7.12075E-07-6.31903E-19-2.76798E-18
 -1       249 1.11963E-04-3.37969E-05-3.35078E-05 1.96690E-06 3.75186E-19-3.13497E-18
 -1       250 1.09829E-04-3.30183E-05-3.29263E-05 2.54955E-06 2.18968E-18-4.15942E-18
 -1       251 1.07457E-04-3.22196E-05-3.22493E-05 2.65695E-06 4.02445E-19-5.05755E-18
 -1       252 1.05137E-04-3.14780E-05-3.15703E-05 2.48088E-06-1.74005E-18-4.19363E-18
 -1       253 1.03035E-04-3.08295E-05-3.09456E-05 2.16574E-06-1.39548E-18-2.13260E-18
 -1       254 1.01227E-04-3.02855E-05-3.04027E-05 1.80535E-06-2.40444E-19-7.64721E-19
 -1       255 9.97300E-05-2.98431E-05-2.99499E-05 1.45382E-06 2.71549E-19-2.71888E-19
 -1       256 9.85264E-05-2.94924E-05-2.95841E-05 1.13839E-06-1.08896E-18 2.65370E-20
 -1       257 9.75831E-05-2.92207E-05-2.92963E-05 8.69778E-07-3.44361E-19 6.67084E-19
 -1       258 9.68606E-05-2.90147E-05-2.90751E-05 6.49266E-07-2.13583E-19 8.65520E-19
 -1       259 9.63192E-05-2.88617E-05-2.89088E-05 4.73298E-07-8.27613E-19 8.39941E-19
 -1       260 9.59227E-05-2.87507E-05-2.87867E-05 3.36172E-07 8.00312E-19 5.30004E-19
 -1       261 9.56395E-05-2.86723E-05-2.86992E-05 2.31591E-07 1.34151E-18-3.01672E-19
 -1       262 9.54430E-05-2.86186E-05-2.86382E-05 1.53479E-07 3.56109E-19-9.18218E-19
 -1       263 9.53117E-05-2.85832E-05-2.85973E-05 9.63814E-08 9.39394E-19-3.38876E-18
 -1       264 9.52281E-05-2.85613E-05-2.85710E-05 5.56145E-08 1.20494E-18-3.12938E-18
 -1       265 9.51790E-05-2.85488E-05-2.85554E-05 2.72842E-08-7.76390E-19-3.40386E-18
 -1       266 9.51539E-05-2.85430E-05-2.85472E-05 8.23438E-09 6.26819E-19-3.15984E-18
 -1       267 9.51451E-05-2.85416E-05-2.85442E-05-4.03634E-09-5.50376E-19-2.13272E-18
 -1       268 9.51470E-05-2.85430E-05-2.85444E-05-1.14676E-08-8.23879E-19-2.72013E-18
 -1       269 9.51554E-05-2.85461E-05-2.85467E-05-1.55267E-08-9.84284E-19-2.66218E-18
 -1       270 9.51675E-05-2.85501E-05-2.85503E-05-1.72884E-08-2.41365E-19-9.48022E-20
 -1       271 9.51813E-05-2.85545E-05-2.85543E-05-1.74992E-08 2.03841E-18-1.23542E-18
 -1       272 9.51953E-05-2.85589E-05-2.85584E-05-1.66247E-08 1.70002E-18-3.36352E-18
 -1       273 9.52084E-05-2.85630E-05-2.85623E-05-1.48757E-08 6.27847E-19-2.45348E-18
 -1       274 9.52199E-05-2.85667E-05-2.85657E-05-1.22297E-08-1.23051E-18-1.94853E-18
 -1       275 9.52289E-05-2.85698E-05-2.85682E-05-8.45216E-09-6.57125E-19 2.87691E-19
 -1       276 9.52349E-05-2.85718E-05-2.85699E-05-3.54173E-09-5.78994E-19-2.60989E-19
 -1       277 9.52368E-05-2.85757E-05-2.85691E-05-6.53019E-09 1.11032E-18 3.87419E-18
 -1       278 9.52396E-05-2.85826E-05-2.85673E-05-1.07744E-08 1.48643E-18 1.82225E-19
 -1       279 9.52429E-05-2.85910E-05-2.85651E-05-1.27590E-08 9.14615E-19 4.33125E-19
 -1       280 9.52460E-05-2.85997E-05-2.85627E-05-1.25781E-08 6.48743E-19-2.46854E-18
 -1       281 9.52488E-05-2.86076E-05-2.85605E-05-1.07738E-08 1.06953E-19-3.55738E-18
 -1       282 9.52510E-05-2.86140E-05-2.85587E-05-7.77856E-09-1.78986E-19 5.01320E-19
 -1       283 9.52523E-05-2.86180E-05-2.85575E-05-4.04678E-09-6.43244E-19 1.49989E-18
 -1       284 9.52528E-05-2.86194E-05-2.85571E-05 3.45895E-11 2.76661E-18 1.69506E-18
 -1       285 9.52523E-05-2.86180E-05-2.85575E-05 4.11257E-09 2.80421E-18-4.78551E-19
 -1       286 9.52509E-05-2.86139E-05-2.85587E-05 7.83617E-09 1.39279E-18-4.84292E-18
 -1       287 9.52488E-05-2.86076E-05-2.85605E-05 1.07777E-08 1.72265E-18-2.94551E-18
 -1       288 9.52460E-05-2.85996E-05-2.85627E-05 1.25961E-08-2.63462E-19 7.32409E-19
 -1       289 9.52428E-05-2.85908E-05-2.85651E-05 1.27468E-08-1.44787E-18-7.08008E-19
 -1       290 9.52395E-05-2.85824E-05-2.85673E-05 1.06071E-08-2.03394E-18-9.66043E-19
 -1       291 9.52363E-05-2.85767E-05-2.85684E-05 9.80138E-09-6.65540E-19 1.64205E-18
 -1       292 1.21915E-05-4.67920E-05 1.16619E-05 7.32156E-06 2.17005E-18 7.30979E-18
 -1       293 2.71241E-05-4.21077E-05 4.00503E-06 2.34477E-05 5.70413E-18 6.47832E-18
 -1       294 5.48748E-05-3.70307E-05-9.29935E-06 3.50961E-05 8.21876E-18 7.93702E-18
 -1       295 9.10207E-05-3.05358E-05-2.62922E-05 4.43035E-05 8.83858E-18 8.31130E-18
 -1       296 1.36919E-04-3.21962E-05-4.37794E-05 4.43044E-05 8.39081E-18 4.58012E-18
 -1       297 1.75172E-04-3.31592E-05-5.85658E-05 3.49480E-05 7.64092E-18 1.96766E-18
 -1       298 2.01543E-04-3.44804E-05-6.84153E-05 1.83249E-05 6.96282E-18-2.59097E-18
 -1       299 2.09105E-04-3.47864E-05-7.13029E-05-3.52362E-06 8.04745E-18-7.02378E-18
 -1       300 1.92859E-04-3.24980E-05-6.59552E-05-2.23724E-05 9.14796E-18-1.06425E-17
 -1       301 1.65053E-04-3.20739E-05-5.48103E-05-4.28244E-05 1.14019E-17-1.49110E-17
 -1       302 1.22848E-04-2.98850E-05-3.90225E-05-4.77898E-05 1.25387E-17-1.53188E-17
 -1       303 7.95869E-05-3.16647E-05-2.13179E-05-4.24650E-05 1.23233E-17-1.42043E-17
 -1       304 4.65898E-05-3.98135E-05-4.77371E-06-3.33590E-05 8.66621E-18-1.04583E-17
 -1       305 1.99500E-05-4.62355E-05 8.05342E-06-1.57958E-05 6.02135E-18-8.81317E-18
 -1       306 1.06870E-05-4.75890E-05 1.25669E-05-2.02318E-06 8.76242E-19-7.53912E-18
 -1       307 1.73321E-05-3.92298E-05 7.46224E-06 1.91194E-05-2.47662E-18-8.11648E-18
 -1       308 3.72134E-05-4.04029E-05-1.06636E-06 2.71109E-05-8.23401E-18-8.51391E-18
 -1       309 6.77497E-05-3.35683E-05-1.58969E-05 3.95454E-05-1.06322E-17-1.10009E-17
 -1       310 1.08664E-04-3.01308E-05-3.33786E-05 4.70343E-05-1.06961E-17-1.17801E-17
 -1       311 1.52925E-04-3.22316E-05-5.00640E-05 4.26408E-05-9.52901E-18-1.02425E-17
 -1       312 1.88379E-04-3.39341E-05-6.32128E-05 3.37482E-05-8.55122E-18-8.33629E-18
 -1       313 2.10169E-04-3.67673E-05-7.06070E-05 1.47321E-05-7.56665E-18-4.03685E-18
 -1       314 2.12085E-04-3.69345E-05-7.13262E-05-8.17271E-06-6.56112E-18 5.28337E-20
 -1       315 1.95102E-04-3.49879E-05-6.54866E-05-2.81108E-05-7.96354E-18 4.50494E-18
 -1       316 1.60691E-04-3.34063E-05-5.28378E-05-3.66997E-05-8.04965E-18 6.37689E-18
 -1       317 1.19766E-04-3.02935E-05-3.77100E-05-4.67968E-05-7.54050E-18 1.00263E-17
 -1       318 8.15710E-05-3.39606E-05-2.11525E-05-4.17746E-05-7.16590E-18 8.51988E-18
 -1       319 4.58051E-05-3.74618E-05-5.62754E-06-3.10791E-05-7.15002E-18 7.09200E-18
 -1       320 2.36735E-05-4.35454E-05 5.73940E-06-1.98426E-05-4.33702E-18 6.36334E-18
 -1       321 1.26884E-05-4.93190E-05 1.22742E-05-5.90169E-06-1.72075E-18 6.43989E-18
 -1       322 9.44323E-05-1.49085E-05-3.41477E-05-8.15925E-06-3.65707E-18-2.02471E-18
 -1       323 1.00614E-04-2.06432E-05-3.43317E-05-1.02353E-05-3.88776E-18 4.42025E-19
 -1       324 8.57446E-05-8.45367E-06-3.31700E-05-3.68610E-06-2.40031E-18-4.55350E-18
 -1       325 8.26567E-05-6.42416E-06-3.27062E-05-2.14175E-06-1.60380E-18-5.09282E-18
 -1       326 8.05007E-05-5.05773E-06-3.23611E-05-1.06608E-06-9.00099E-19-5.26174E-18
 -1       327 7.93993E-05-4.37315E-06-3.21791E-05-3.06421E-07-1.64834E-19-5.38391E-18
 -1       328 7.94336E-05-4.39847E-06-3.21831E-05 3.47022E-07 5.27191E-19-5.46729E-18
 -1       329 8.06008E-05-5.13256E-06-3.23723E-05 1.12289E-06 1.19293E-18-5.37707E-18
 -1       330 8.27664E-05-6.51509E-06-3.27151E-05 2.20577E-06 1.85147E-18-5.02012E-18
 -1       331 8.58820E-05-8.57727E-06-3.31779E-05 3.77491E-06 2.56606E-18-4.49443E-18
 -1       332 8.98468E-05-1.13894E-05-3.36878E-05 5.86000E-06 3.26753E-18-3.50939E-18
 -1       333 9.47772E-05-1.52862E-05-3.41453E-05 8.30196E-06 3.98721E-18-1.93178E-18
 -1       334 1.00728E-04-2.09864E-05-3.42778E-05 1.00672E-05 4.15104E-18 9.62190E-19
 -1       335 1.04704E-04-2.63524E-05-3.36567E-05 8.30144E-06 3.74938E-18 3.79168E-18
 -1       336 1.03579E-04-2.89363E-05-3.19570E-05 2.01030E-06 3.04536E-18 2.83823E-18
 -1       337 1.02960E-04-2.78479E-05-3.21454E-05-1.78374E-06-3.01763E-18 8.75484E-19
 -1       338 1.02794E-04-2.91942E-05-3.15173E-05 2.07545E-06-2.22004E-18 6.89441E-19
 -1       339 1.03430E-04-3.01981E-05-3.13729E-05 4.25653E-06-1.56902E-18 5.94349E-19
 -1       340 1.04769E-04-3.13259E-05-3.14748E-05 5.23644E-06-1.25866E-18 4.52361E-19
 -1       341 1.06622E-04-3.27227E-05-3.16796E-05 5.02719E-06-8.80944E-19 3.48365E-19
 -1       342 1.08734E-04-3.43548E-05-3.18930E-05 3.45498E-06-5.01154E-19 4.72626E-19
 -1       343 1.10717E-04-3.59432E-05-3.20666E-05 3.84289E-07-4.66489E-19 8.75313E-19
 -1       344 1.11966E-04-3.68579E-05-3.22094E-05-3.94419E-06-7.48539E-19 7.23038E-19
 -1       345 1.11721E-04-3.61858E-05-3.23844E-05-8.49247E-06-9.51736E-19 7.88733E-19
 -1       346 1.09493E-04-3.32824E-05-3.26662E-05-1.12120E-05-8.71612E-19 2.89245E-19
 -1       347 1.05966E-04-2.88987E-05-3.30299E-05-9.78866E-06-1.50067E-18-2.71367E-19
 -1       348 1.03219E-04-2.54782E-05-3.33203E-05-3.64452E-06-1.72812E-18-1.00120E-18
 -1       349 1.03363E-04-2.55261E-05-3.33618E-05 4.65067E-06-1.58340E-18-1.96854E-18
 -1       350 1.06391E-04-2.90365E-05-3.31545E-05 1.07821E-05-1.22835E-18-3.38657E-18
 -1       351 1.10176E-04-3.34904E-05-3.28702E-05 1.21765E-05-6.51101E-19-3.58105E-18
 -1       352 1.12632E-04-3.64466E-05-3.26633E-05 9.45651E-06-1.54345E-19-3.81258E-18
 -1       353 1.13095E-04-3.71935E-05-3.25489E-05 4.89452E-06-1.90309E-19-3.25709E-18
 -1       354 1.12015E-04-3.63578E-05-3.24463E-05 5.08055E-07-9.88894E-20-2.67682E-18
 -1       355 1.10125E-04-3.48567E-05-3.22753E-05-2.70596E-06 3.20873E-19-2.57873E-18
 -1       356 1.07971E-04-3.33183E-05-3.20052E-05-4.57845E-06-3.66738E-19-3.19584E-18
 -1       357 1.05856E-04-3.20213E-05-3.16487E-05-5.34857E-06 1.99627E-19-1.99092E-18
 -1       358 1.03919E-04-3.10256E-05-3.12409E-05-5.36414E-06 7.61291E-19-1.97463E-18
 -1       359 1.02212E-04-3.02958E-05-3.08196E-05-4.93658E-06 9.79129E-19-2.44797E-18
 -1       360 1.00748E-04-2.97715E-05-3.04154E-05-4.29537E-06 1.01747E-18-1.81708E-18
 -1       361 9.95187E-05-2.93975E-05-3.00482E-05-3.59019E-06-4.36871E-19-9.01571E-19
 -1       362 9.85058E-05-2.91310E-05-2.97284E-05-2.90889E-06-3.04614E-19-9.58290E-19
 -1       363 9.76866E-05-2.89414E-05-2.94589E-05-2.29684E-06-1.56355E-19-2.13537E-18
 -1       364 9.70359E-05-2.88072E-05-2.92380E-05-1.77251E-06-3.67958E-19-2.65261E-18
 -1       365 9.65283E-05-2.87132E-05-2.90613E-05-1.33849E-06-7.27931E-19-1.84747E-18
 -1       366 9.61393E-05-2.86484E-05-2.89228E-05-9.88821E-07-2.27333E-19 1.55049E-19
 -1       367 9.58470E-05-2.86048E-05-2.88166E-05-7.13479E-07-4.54025E-19 2.04883E-18
 -1       368 9.56316E-05-2.85766E-05-2.87367E-05-5.01114E-07-4.07398E-19 1.83004E-18
 -1       369 9.54766E-05-2.85594E-05-2.86780E-05-3.40553E-07 7.78849E-20 1.19852E-18
 -1       370 9.53680E-05-2.85498E-05-2.86358E-05-2.21587E-07 3.24383E-19 3.99994E-19
 -1       371 9.52945E-05-2.85455E-05-2.86063E-05-1.35320E-07-1.13353E-18-1.04311E-19
 -1       372 9.52469E-05-2.85446E-05-2.85864E-05-7.42533E-08-1.52689E-19 3.78362E-19
 -1       373 9.52181E-05-2.85459E-05-2.85736E-05-3.22355E-08 1.20142E-18-1.48636E-19
 -1       374 9.52027E-05-2.85485E-05-2.85660E-05-4.33487E-09-3.42582E-19 4.55389E-19
 -1       375 9.51964E-05-2.85517E-05-2.85619E-05 1.33140E-08 9.09532E-20 1.28020E-18
 -1       376 9.51962E-05-2.85551E-05-2.85604E-05 2.36677E-08 6.88647E-19 3.60788E-19
 -1       377 9.51997E-05-2.85586E-05-2.85605E-05 2.89182E-08 2.25014E-18 6.44318E-19
 -1       378 9.52055E-05-2.85620E-05-2.85615E-05 3.06179E-08 2.17730E-18 1.61013E-18
 -1       379 9.52123E-05-2.85653E-05-2.85630E-05 2.97815E-08 1.88690E-18 1.09355E-18
 -1       380 9.52194E-05-2.85685E-05-2.85647E-05 2.69735E-08-1.46678E-18 1.41523E-18
 -1       381 9.52261E-05-2.85717E-05-2.85662E-05 2.24309E-08 1.09002E-18 2.72288E-18
 -1       382 9.52314E-05-2.85743E-05-2.85674E-05 1.66748E-08-2.79165E-19 2.82821E-18
 -1       383 1.03133E-04-2.98624E-05-3.13641E-05-1.49320E-06 2.24804E-18 2.13505E-18
 -1       384 1.03726E-04-3.05660E-05-3.13350E-05-3.42188E-06 1.55033E-18 1.33889E-18
 -1       385 1.05120E-04-3.14191E-05-3.15819E-05-4.29608E-06 1.04936E-18 7.55841E-19
 -1       386 1.06951E-04-3.24655E-05-3.19286E-05-4.17831E-06 6.15503E-19 3.47920E-19
 -1       387 1.08835E-04-3.36350E-05-3.22423E-05-2.93604E-06 7.24306E-19 3.41583E-19
 -1       388 1.10314E-04-3.47135E-05-3.24174E-05-4.45797E-07 7.68590E-19 5.24999E-19
 -1       389 1.10834E-04-3.52837E-05-3.23956E-05 3.12307E-06 5.47036E-19 8.01795E-19
 -1       390 1.09857E-04-3.47732E-05-3.21899E-05 6.97395E-06-3.76169E-19 8.08647E-19
 -1       391 1.07182E-04-3.27707E-05-3.18938E-05 9.53011E-06 3.47065E-19 6.82768E-19
 -1       392 1.03480E-04-2.96506E-05-3.16367E-05 8.93118E-06 7.43635E-19 6.09305E-19
 -1       393 1.00488E-04-2.69386E-05-3.15145E-05 4.42162E-06 1.70710E-18 2.58637E-19
 -1       394 1.00049E-04-2.64028E-05-3.15548E-05-2.39646E-06 1.56401E-18-6.67098E-19
 -1       395 1.02562E-04-2.84611E-05-3.17450E-05-8.24677E-06 1.06339E-18-1.84196E-18
 -1       396 1.06597E-04-3.17482E-05-3.20681E-05-1.05796E-05 1.50673E-18-2.03871E-18
 -1       397 1.10180E-04-3.44510E-05-3.24578E-05-9.19503E-06 1.33366E-18-2.06013E-18
 -1       398 1.12160E-04-3.56794E-05-3.27927E-05-5.66648E-06 6.08415E-19-2.06097E-18
 -1       399 1.12433E-04-3.55857E-05-3.29563E-05-1.80248E-06-7.97697E-19-2.08372E-18
 -1       400 1.11447E-04-3.47384E-05-3.28953E-05 1.28235E-06-1.56547E-19-2.85329E-18
 -1       401 1.09730E-04-3.36377E-05-3.26257E-05 3.23595E-06 2.22495E-19-3.24148E-18
 -1       402 1.07699E-04-3.25706E-05-3.22065E-05 4.17028E-06 2.41634E-18-3.20449E-18
 -1       403 1.05631E-04-3.16526E-05-3.17080E-05 4.36810E-06 6.41531E-19-2.52905E-18
 -1       404 1.03686E-04-3.09062E-05-3.11908E-05 4.11338E-06-2.07358E-18-2.36989E-18
 -1       405 1.01952E-04-3.03161E-05-3.06981E-05 3.62613E-06-2.27851E-18-2.51916E-18
 -1       406 1.00462E-04-2.98567E-05-3.02555E-05 3.05392E-06-9.12211E-19-1.88559E-18
 -1       407 9.92199E-05-2.95028E-05-2.98748E-05 2.48522E-06 2.44287E-19 3.87624E-19
 -1       408 9.82104E-05-2.92331E-05-2.95580E-05 1.96700E-06-6.30376E-19 1.31465E-18
 -1       409 9.74080E-05-2.90299E-05-2.93017E-05 1.51965E-06-2.51064E-19 2.02853E-18
 -1       410 9.67833E-05-2.88789E-05-2.90991E-05 1.14784E-06 3.70507E-19 9.20147E-19
 -1       411 9.63065E-05-2.87687E-05-2.89426E-05 8.47666E-07-4.46241E-19 9.80170E-20
 -1       412 9.59500E-05-2.86898E-05-2.88241E-05 6.11099E-07 1.02581E-18-1.75832E-18
 -1       413 9.56892E-05-2.86347E-05-2.87363E-05 4.28628E-07 1.05074E-18-1.77687E-18
 -1       414 9.55030E-05-2.85976E-05-2.86728E-05 2.90734E-07 1.06080E-18-8.63691E-19
 -1       415 9.53739E-05-2.85735E-05-2.86280E-05 1.88656E-07 2.20535E-18-5.85394E-19
 -1       416 9.52877E-05-2.85590E-05-2.85975E-05 1.14731E-07 1.00507E-18 4.69015E-19
 -1       417 9.52329E-05-2.85511E-05-2.85775E-05 6.24929E-08-4.57941E-19 4.14796E-19
 -1       418 9.52008E-05-2.85478E-05-2.85653E-05 2.66323E-08 4.23844E-19-2.62405E-19
 -1       419 9.51845E-05-2.85475E-05-2.85585E-05 2.89181E-09-1.03231E-18 5.93964E-20
 -1       420 9.51791E-05-2.85491E-05-2.85556E-05-1.20664E-08-2.78891E-19-5.35471E-19
 -1       421 9.51807E-05-2.85518E-05-2.85551E-05-2.07971E-08-1.92305E-18-4.42586E-21
 -1       422 9.51866E-05-2.85551E-05-2.85563E-05-2.51968E-08-3.44659E-19 4.56492E-19
 -1       423 9.51948E-05-2.85586E-05-2.85584E-05-2.66120E-08 1.83222E-18 5.13087E-19
 -1       424 9.52041E-05-2.85622E-05-2.85608E-05-2.59253E-08 2.91365E-18 2.14626E-20
 -1       425 9.52134E-05-2.85656E-05-2.85634E-05-2.36190E-08 2.86231E-20 1.55919E-19
 -1       426 9.52220E-05-2.85689E-05-2.85656E-05-1.98381E-08-2.29962E-18 1.66815E-18
 -1       427 9.52295E-05-2.85721E-05-2.85675E-05-1.45351E-08-1.44846E-18 3.65793E-18
 -1       428 9.52336E-05-2.85741E-05-2.85684E-05-1.07999E-08 5.43400E-20 4.43809E-18
 -1       429 9.52433E-05-2.85908E-05-2.85654E-05-2.12174E-08-5.41719E-19 2.68872E-19
 -1       430 9.52390E-05-2.85839E-05-2.85665E-05-2.02082E-08-1.19578E-18 4.48356E-19
 -1       431 9.52359E-05-2.85788E-05-2.85674E-05-1.63585E-08-1.02009E-18 1.39254E-18
 -1       432 9.52469E-05-2.85970E-05-2.85642E-05-1.93831E-08 6.87827E-20-5.91077E-18
 -1       433 9.52498E-05-2.86022E-05-2.85632E-05-1.53321E-08 8.51623E-19-5.88188E-19
 -1       434 9.52517E-05-2.86059E-05-2.85624E-05-9.75924E-09 7.48935E-19-3.51839E-19
 -1       435 9.52526E-05-2.86078E-05-2.85620E-05-3.30973E-09-9.21219E-19 2.16813E-18
 -1       436 9.52526E-05-2.86078E-05-2.85620E-05 3.42123E-09-6.44661E-19 1.11403E-18
 -1       437 9.52516E-05-2.86059E-05-2.85624E-05 9.86084E-09-6.83792E-19-1.83775E-18
 -1       438 9.52498E-05-2.86022E-05-2.85632E-05 1.53324E-08 1.56220E-18-4.17761E-18
 -1       439 9.52469E-05-2.85970E-05-2.85642E-05 1.93882E-08 2.71198E-18 3.16630E-19
 -1       440 9.52433E-05-2.85907E-05-2.85654E-05 2.12361E-08 1.87385E-18-1.79466E-18
 -1       441 9.52389E-05-2.85838E-05-2.85665E-05 2.03296E-08 3.54699E-19-2.62661E-18
 -1       442 5.93296E-05-4.20010E-05-7.55660E-06 4.25467E-05 3.08214E-19 4.49875E-18
 -1       443 1.17535E-05-2.30887E-05 4.59553E-06-3.50097E-08-3.90559E-19 8.22141E-18
 -1       444 2.43408E-05-2.71417E-05 1.07398E-06 2.65266E-05-6.58198E-19 6.58039E-18
 -1       445 1.00686E-04-5.34163E-05-2.03155E-05 4.01447E-05 4.47975E-19 1.32026E-18
 -1       446 1.31254E-04-5.26352E-05-3.37168E-05 2.80050E-05 2.95212E-18-1.61730E-18
 -1       447 8.96386E-05-1.11719E-05-3.36949E-05-5.77066E-06-3.11206E-18-3.75097E-18
 -1       448 1.58317E-04-2.54911E-05-5.68339E-05-1.48553E-06 7.13181E-18-4.26354E-18
 -1       449 1.62666E-04-1.50998E-05-6.28831E-05-1.01388E-06 8.21347E-18-4.26044E-18
 -1       450 1.52701E-04-1.37987E-05-5.97132E-05 3.09969E-06 8.66144E-18-2.67832E-18
 -1       451 1.54278E-04-3.13509E-05-5.28103E-05 1.14684E-06 6.98458E-18-2.55698E-18
 -1       452 1.50863E-04-4.61781E-05-4.47694E-05-1.13349E-05 5.37767E-18-3.99948E-18
 -1       453 1.24397E-04-5.42608E-05-3.01149E-05-3.26347E-05 3.77194E-18-6.52120E-18
 -1       454 8.93352E-05-5.10206E-05-1.65386E-05-4.31753E-05 2.36174E-18-7.59344E-18
 -1       455 4.67506E-05-3.54510E-05-4.76413E-06-4.02110E-05 3.05991E-20-8.81470E-18
 -1       456 1.72265E-05-2.64220E-05 3.57063E-06-1.90063E-05 9.77952E-19-9.05108E-18
 -1       457 1.45911E-05-2.07523E-05 2.70624E-06 8.54475E-06 7.53118E-19-9.16468E-18
 -1       458 4.40294E-05-3.54076E-05-3.73584E-06 3.90367E-05 5.86570E-20-6.84784E-18
 -1       459 7.36664E-05-4.69808E-05-1.16490E-05 4.42720E-05-9.73347E-19-6.31002E-18
 -1       460 1.17383E-04-5.71916E-05-2.57637E-05 3.54255E-05-1.38215E-18-3.47167E-18
 -1       461 1.42253E-04-5.14017E-05-3.89611E-05 2.01191E-05-4.18503E-18-2.29811E-18
 -1       462 1.55807E-04-3.58263E-05-5.13405E-05 3.49608E-06-6.60379E-18-4.58139E-19
 -1       463 1.61957E-04-2.13080E-05-5.99688E-05 2.57458E-07-8.22585E-18-9.01031E-19
 -1       464 1.64915E-04-1.51278E-05-6.37617E-05 6.05652E-07-8.13035E-18-1.48816E-18
 -1       465 1.56692E-04-1.70191E-05-5.98576E-05 3.33766E-06-7.73383E-18-1.41211E-18
 -1       466 1.57280E-04-3.05419E-05-5.42086E-05 4.95706E-07-6.97818E-18-1.56955E-18
 -1       467 1.45683E-04-4.94148E-05-4.12982E-05-1.44369E-05-2.66859E-18 6.04040E-19
 -1       468 1.22074E-04-5.27985E-05-2.97126E-05-3.28115E-05-2.05480E-18 3.84542E-18
 -1       469 8.71258E-05-5.04765E-05-1.58706E-05-4.24792E-05-9.17548E-19 4.04072E-18
 -1       470 5.08999E-05-3.95954E-05-5.11014E-06-4.03396E-05-9.03361E-19 5.86014E-18
 -1       471 1.95084E-05-2.79365E-05 3.19280E-06-2.16283E-05-1.55854E-19 6.03532E-18
 -1       472 1.51329E-04-4.38268E-05-4.61598E-05 4.77452E-06 4.61560E-18-4.69447E-18
 -1       473 3.20581E-05-2.15803E-05-4.07163E-06 2.69897E-05 1.85974E-18-7.60773E-18
 -1       474 1.01384E-04-2.65227E-05-3.20691E-05 7.00873E-07 2.97031E-18-1.19676E-19
 -1       475 8.28520E-05-8.67371E-06-3.18030E-05-4.01485E-07-1.23802E-18-4.61429E-18
 -1       476 8.59402E-05-1.09536E-05-3.21526E-05-1.11543E-06-1.91778E-18-4.27845E-18
 -1       477 8.02480E-05-6.80376E-06-3.14857E-05-5.31808E-09 1.72545E-19-4.92627E-18
 -1       478 8.09795E-05-7.33245E-06-3.15733E-05 8.63123E-08 8.57694E-19-4.92358E-18
 -1       479 8.29652E-05-8.77356E-06-3.18091E-05 4.19908E-07 1.40912E-18-4.80867E-18
 -1       480 8.60886E-05-1.10915E-05-3.21581E-05 1.15955E-06 2.11177E-18-4.22468E-18
 -1       481 9.00990E-05-1.42066E-05-3.25460E-05 2.30432E-06 2.67662E-18-3.57070E-18
 -1       482 9.48482E-05-1.82014E-05-3.28684E-05 3.65821E-06 3.26858E-18-2.40249E-18
 -1       483 1.01781E-04-2.82932E-05-3.14775E-05-2.91456E-06 2.25957E-18-3.60683E-19
 -1       484 9.99869E-05-2.52753E-05-3.20070E-05 9.25513E-08-2.64862E-18-9.53673E-19
 -1       485 1.39898E-04-5.59345E-05-3.62288E-05 6.70072E-06-4.93566E-20-6.14501E-18
 -1       486 1.00733E-04-2.74543E-05-3.13984E-05 3.65751E-06-1.93184E-18-9.01256E-19
 -1       487 1.01763E-04-2.92483E-05-3.10757E-05 5.95066E-06-1.37289E-18-7.68533E-19
 -1       488 1.03429E-04-3.12807E-05-3.09232E-05 7.00810E-06-9.26940E-19-5.66484E-19
 -1       489 1.05894E-04-3.38362E-05-3.08880E-05 6.67952E-06-5.45007E-19-3.72802E-19
 -1       490 1.09152E-04-3.68773E-05-3.09843E-05 4.66479E-06-5.20735E-19-2.20046E-19
 -1       491 1.12839E-04-3.98065E-05-3.13103E-05 7.04073E-07-2.39544E-19-2.06244E-19
 -1       492 1.15935E-04-4.12107E-05-3.20430E-05-4.95564E-06-6.56354E-19 7.68854E-19
 -1       493 1.16883E-04-3.91730E-05-3.33328E-05-1.07886E-05-9.39764E-19 1.20135E-18
 -1       494 1.14368E-04-3.25592E-05-3.51174E-05-1.34213E-05-1.50876E-18 1.09822E-18
 -1       495 1.10003E-04-2.43387E-05-3.68041E-05-9.44026E-06-2.46167E-18 3.93117E-19
 -1       496 1.07766E-04-2.04301E-05-3.75289E-05 6.32277E-07-2.96274E-18-1.31089E-18
 -1       497 1.10135E-04-2.43785E-05-3.68418E-05 1.06699E-05-2.91899E-18-2.95037E-18
 -1       498 1.14655E-04-3.26924E-05-3.51857E-05 1.46088E-05-1.34196E-18-4.07054E-18
 -1       499 1.17199E-04-3.92305E-05-3.34404E-05 1.19232E-05-5.44767E-19-3.57334E-18
 -1       500 1.16368E-04-4.13565E-05-3.21614E-05 6.05574E-06 3.14351E-19-3.13843E-18
 -1       501 1.13305E-04-4.00102E-05-3.14247E-05 3.05111E-07 6.35391E-19-1.82268E-18
 -1       502 1.09614E-04-3.71892E-05-3.10498E-05-3.84408E-06 6.51167E-19-8.67478E-19
 -1       503 1.06277E-04-3.43247E-05-3.08436E-05-6.23242E-06-4.11111E-19-1.30995E-18
 -1       504 1.03615E-04-3.20368E-05-3.06801E-05-7.22469E-06 1.01847E-19-1.02897E-18
 -1       505 1.01605E-04-3.04363E-05-3.05019E-05-7.27342E-06 2.00362E-19-1.45343E-18
 -1       506 1.00107E-04-2.94141E-05-3.02964E-05-6.76010E-06-5.76082E-20-1.55060E-18
 -1       507 9.89801E-05-2.88089E-05-3.00721E-05-5.96115E-06 1.17557E-18-2.33301E-18
 -1       508 9.81174E-05-2.84784E-05-2.98436E-05-5.05971E-06 6.22396E-19-2.94246E-18
 -1       509 9.74458E-05-2.83182E-05-2.96245E-05-4.16819E-06 2.61508E-20-1.70007E-18
 -1       510 9.69177E-05-2.82578E-05-2.94241E-05-3.34925E-06-6.85116E-19-2.58734E-18
 -1       511 9.65011E-05-2.82531E-05-2.92478E-05-2.63257E-06-4.57514E-19-1.55407E-18
 -1       512 9.61738E-05-2.82769E-05-2.90976E-05-2.02711E-06-3.77727E-19-1.35014E-18
 -1       513 9.59187E-05-2.83133E-05-2.89728E-05-1.52960E-06 1.28086E-18-8.83722E-19
 -1       514 9.57223E-05-2.83535E-05-2.88716E-05-1.13019E-06 8.93888E-19-2.40839E-20
 -1       515 9.55733E-05-2.83924E-05-2.87912E-05-8.16126E-07-1.35202E-18 8.03707E-19
 -1       516 9.54621E-05-2.84277E-05-2.87286E-05-5.73924E-07-1.01244E-18 4.03217E-19
 -1       517 9.53808E-05-2.84583E-05-2.86808E-05-3.90680E-07 3.47512E-19-7.18004E-19
 -1       518 9.53228E-05-2.84840E-05-2.86450E-05-2.54740E-07 2.11336E-19 2.29754E-19
 -1       519 9.52825E-05-2.85050E-05-2.86188E-05-1.55998E-07-6.27611E-19 1.02302E-18
 -1       520 9.52555E-05-2.85220E-05-2.86000E-05-8.59518E-08-9.55315E-19-1.76971E-19
 -1       521 9.52384E-05-2.85354E-05-2.85870E-05-3.76292E-08 1.02382E-18 3.62974E-19
 -1       522 9.52284E-05-2.85458E-05-2.85782E-05-5.44319E-09 4.07212E-20 9.94838E-19
 -1       523 9.52234E-05-2.85538E-05-2.85727E-05 1.49817E-08 4.86808E-19 2.31123E-18
 -1       524 9.52218E-05-2.85599E-05-2.85694E-05 2.69859E-08 6.19501E-19 1.19874E-18
 -1       525 9.52225E-05-2.85647E-05-2.85676E-05 3.30387E-08 2.35844E-18-1.82566E-19
 -1       526 9.52245E-05-2.85686E-05-2.85668E-05 3.48849E-08 2.02246E-18 7.68739E-19
 -1       527 9.52274E-05-2.85720E-05-2.85666E-05 3.36651E-08 1.29480E-18 4.58710E-20
 -1       528 9.52309E-05-2.85754E-05-2.85666E-05 3.00456E-08 1.18076E-19 1.41605E-18
 -1       529 1.04120E-04-3.13224E-05-3.12005E-05-6.06450E-06 1.05941E-18-7.28201E-19
 -1       530 1.06211E-04-3.32856E-05-3.12617E-05-5.68785E-06 6.57861E-19-8.78342E-19
 -1       531 1.08802E-04-3.55889E-05-3.13898E-05-3.75956E-06 5.72254E-19-4.72896E-19
 -1       532 1.11518E-04-3.77909E-05-3.16114E-05-1.24533E-07 1.66797E-19-5.61180E-20
 -1       533 1.13571E-04-3.88872E-05-3.20225E-05 4.88744E-06-7.33006E-20 6.46296E-19
 -1       534 1.13845E-04-3.75099E-05-3.27318E-05 9.93661E-06 2.04831E-19 5.50133E-19
 -1       535 1.11575E-04-3.29040E-05-3.37377E-05 1.24209E-05 1.11842E-18 2.28683E-19
 -1       536 1.07752E-04-2.66806E-05-3.47662E-05 9.56413E-06 1.57421E-18-4.82192E-19
 -1       537 1.05309E-04-2.29024E-05-3.53568E-05 1.41826E-06 2.01278E-18-8.02514E-19
 -1       538 1.06550E-04-2.46398E-05-3.51457E-05-7.85777E-06 2.21581E-18-1.64585E-18
 -1       539 1.10416E-04-3.04766E-05-3.42832E-05-1.30975E-05 1.57707E-18-2.11381E-18
 -1       540 1.13733E-04-3.61376E-05-3.32693E-05-1.25373E-05 1.11383E-18-2.97043E-18
 -1       541 1.14632E-04-3.88975E-05-3.24723E-05-8.14370E-06 5.44642E-19-1.51299E-18
 -1       542 1.13282E-04-3.87135E-05-3.19744E-05-2.82673E-06-2.13754E-19-1.25199E-18
 -1       543 1.10779E-04-3.68962E-05-3.16797E-05 1.58263E-06-4.24231E-19-1.32548E-18
 -1       544 1.08049E-04-3.46681E-05-3.14605E-05 4.47312E-06 4.58233E-19-8.11534E-19
 -1       545 1.05568E-04-3.27015E-05-3.12353E-05 5.95170E-06 1.39133E-18-1.54493E-18
 -1       546 1.03480E-04-3.12130E-05-3.09743E-05 6.38186E-06 1.18899E-18-1.70736E-19
 -1       547 1.01771E-04-3.01812E-05-3.06813E-05 6.13978E-06 6.89556E-20-8.92102E-19
 -1       548 1.00383E-04-2.95043E-05-3.03747E-05 5.52534E-06-1.35035E-18-2.25362E-18
 -1       549 9.92554E-05-2.90766E-05-3.00742E-05 4.74818E-06-1.45794E-18-3.13123E-18
 -1       550 9.83416E-05-2.88141E-05-2.97948E-05 3.94144E-06-1.14078E-18-3.22634E-18
 -1       551 9.76044E-05-2.86575E-05-2.95461E-05 3.18186E-06-1.42630E-18-2.87154E-18
 -1       552 9.70147E-05-2.85676E-05-2.93322E-05 2.50801E-06-1.25321E-18-2.22631E-18
 -1       553 9.65484E-05-2.85191E-05-2.91535E-05 1.93427E-06 3.57413E-19-1.42658E-18
 -1       554 9.61846E-05-2.84962E-05-2.90078E-05 1.46069E-06 8.87781E-19-1.09222E-18
 -1       555 9.59052E-05-2.84887E-05-2.88916E-05 1.07953E-06 7.11564E-19-1.48883E-18
 -1       556 9.56942E-05-2.84901E-05-2.88008E-05 7.79417E-07 9.09377E-19-6.88292E-19
 -1       557 9.55378E-05-2.84966E-05-2.87313E-05 5.47837E-07 1.23252E-18-1.10703E-18
 -1       558 9.54245E-05-2.85054E-05-2.86791E-05 3.72618E-07 9.49399E-19-3.17581E-19
 -1       559 9.53443E-05-2.85149E-05-2.86408E-05 2.42671E-07 5.03652E-19 1.25949E-18
 -1       560 9.52893E-05-2.85244E-05-2.86133E-05 1.48340E-07 3.78054E-19 1.75259E-18
 -1       561 9.52532E-05-2.85331E-05-2.85941E-05 8.14847E-08 8.62643E-20 1.86634E-18
 -1       562 9.52308E-05-2.85409E-05-2.85813E-05 3.54199E-08 5.19830E-20 1.89464E-18
 -1       563 9.52182E-05-2.85476E-05-2.85731E-05 4.78455E-09-1.45842E-18 1.40540E-18
 -1       564 9.52125E-05-2.85533E-05-2.85682E-05-1.46231E-08-1.06404E-18 1.80148E-18
 -1       565 9.52114E-05-2.85581E-05-2.85656E-05-2.60131E-08-4.03686E-19-9.50166E-19
 -1       566 9.52132E-05-2.85622E-05-2.85647E-05-3.17591E-08 7.65447E-19-1.70556E-18
 -1       567 9.52167E-05-2.85658E-05-2.85647E-05-3.35377E-08 1.94152E-18-5.42052E-19
 -1       568 9.52212E-05-2.85691E-05-2.85652E-05-3.24531E-08 2.62081E-19 3.06715E-18
 -1       569 9.52261E-05-2.85723E-05-2.85660E-05-2.91889E-08-1.28893E-18 2.50223E-18
 -1       570 9.52311E-05-2.85756E-05-2.85667E-05-2.39785E-08-2.80561E-18 1.09757E-18
 -1       571 9.52495E-05-2.85937E-05-2.85668E-05-2.20710E-08 2.09901E-18-2.02211E-18
 -1       572 9.52526E-05-2.85970E-05-2.85667E-05-1.58470E-08 1.11594E-18 6.54511E-20
 -1       573 9.52396E-05-2.85837E-05-2.85668E-05-2.72954E-08-2.36670E-18 1.84329E-18
 -1       574 9.52452E-05-2.85892E-05-2.85668E-05-2.61098E-08-1.17330E-18-1.30718E-18
 -1       575 9.52544E-05-2.85990E-05-2.85666E-05-8.22464E-09-3.95913E-19-1.12177E-18
 -1       576 9.52549E-05-2.85997E-05-2.85665E-05 7.03263E-11-1.99027E-18 2.10561E-18
 -1       577 9.52543E-05-2.85990E-05-2.85666E-05 8.35863E-09-6.13556E-19 1.80789E-19
 -1       578 9.52526E-05-2.85970E-05-2.85667E-05 1.58452E-08 1.10179E-18-7.38254E-19
 -1       579 9.52495E-05-2.85937E-05-2.85668E-05 2.20780E-08 3.06423E-18-2.82398E-18
 -1       580 9.52452E-05-2.85892E-05-2.85669E-05 2.61673E-08 1.20584E-18-1.49494E-18
 -1       581 9.52395E-05-2.85836E-05-2.85668E-05 2.71785E-08-5.31451E-19-3.85690E-18
 -1       582 2.50543E-05-1.50549E-05-3.72525E-06 1.34532E-05-1.75235E-18 6.94631E-18
 -1       583 9.20288E-05-5.09709E-05-1.73102E-05 4.08803E-05-3.10416E-18-7.95218E-19
 -1       584 1.02648E-04-2.97328E-05-3.12425E-05-5.11324E-06 1.63907E-18-6.41854E-19
 -1       585 1.41215E-04-3.30308E-05-4.68909E-05-1.13340E-05 4.04644E-18-5.98185E-18
 -1       586 4.45164E-05-2.76587E-05-6.75259E-06-3.51597E-05 9.99340E-19 6.03225E-18
 -1       587 5.22848E-05-3.09932E-05-8.62260E-06 3.83605E-05-3.03741E-18 4.24258E-18
 -1       588 2.35813E-05-1.62124E-05-2.62502E-06-1.33828E-05-3.48528E-19 6.34385E-18
 -1       589 1.38002E-04-9.52489E-06-5.56022E-05 3.53268E-06-7.46638E-18-8.62028E-19
 -1       590 1.36444E-04-2.07153E-05-5.01953E-05 1.12362E-05 6.12304E-18 9.85708E-19
 -1       591 8.08948E-05-7.26293E-06-3.15668E-05-8.69902E-08-5.18186E-19-4.78596E-18
 -1       592 1.33847E-04-8.28047E-06-5.43968E-05-1.01090E-06 7.40783E-18-2.33416E-18
 -1       593 1.18208E-04-5.98522E-05-2.49139E-05-3.22833E-05-7.62330E-19-3.41905E-18
 -1       594 1.37182E-04-1.52888E-05-5.27893E-05-9.81577E-06 6.67642E-18-4.01128E-18
 -1       595 1.41195E-04-4.29437E-05-4.25623E-05 8.49949E-06 2.75026E-18 1.99534E-18
 -1       596 1.35741E-04-6.05276E-05-3.22950E-05 1.49670E-05 5.21984E-20 8.61724E-19
 -1       597 1.39828E-04-5.79962E-05-3.52281E-05-9.55087E-06 2.35217E-19-5.19019E-19
 -1       598 8.17370E-05-4.62652E-05-1.48909E-05-4.29358E-05-1.89285E-18-6.04443E-18
 -1       599 3.71873E-05-2.21082E-05-5.91636E-06-2.88346E-05-7.67015E-19-8.13676E-18
 -1       600 2.48626E-05-1.33242E-05-4.27357E-06-5.43622E-06 5.02793E-19-8.47753E-18
 -1       601 7.67890E-05-4.17519E-05-1.45481E-05 4.15394E-05 3.03926E-18-4.11841E-18
 -1       602 1.35963E-04-6.00107E-05-3.27167E-05-1.43454E-05 1.03441E-18-8.72867E-19
 -1       603 1.09037E-04-5.68430E-05-2.22052E-05 3.52042E-05 2.70421E-18-1.91643E-18
 -1       604 1.43610E-04-4.89642E-05-4.09253E-05-2.60677E-06-2.74894E-18 2.38059E-18
 -1       605 1.38917E-04-2.54764E-05-4.91582E-05-1.19035E-05-5.74670E-18 2.49017E-18
 -1       606 1.38885E-04-1.16254E-05-5.50939E-05-5.40313E-06-7.50492E-18 8.44757E-19
 -1       607 1.39103E-04-2.19621E-05-5.07592E-05 1.19581E-05-6.17386E-18-2.55163E-18
 -1       608 1.43727E-04-4.28196E-05-4.35836E-05 7.70965E-06-3.06131E-18-3.61095E-18
 -1       609 1.14501E-04-5.89992E-05-2.36281E-05-3.24112E-05 2.58779E-18 1.19808E-18
 -1       610 8.11031E-05-4.59077E-05-1.47052E-05-4.21975E-05 1.60587E-18 1.39329E-18
 -1       611 9.80689E-05-2.13021E-05-3.29207E-05-4.10197E-06-3.34542E-18-1.47782E-18
 -1       612 1.01392E-04-2.46412E-05-3.28974E-05 4.80298E-06 3.69537E-18 2.75279E-19
 -1       613 1.26293E-04-6.09239E-05-2.79199E-05 2.44603E-05-1.71085E-18-4.55079E-18
 -1       614 8.98924E-05-1.39822E-05-3.25546E-05-2.25936E-06-2.56080E-18-3.80803E-18
 -1       615 9.52333E-05-2.85777E-05-2.85667E-05 2.63471E-08-8.70330E-20 4.63328E-19
 -1       616 3.29579E-05-1.34345E-05-7.75996E-06 1.30435E-05 1.47958E-18-7.83781E-18
 -1       617 5.96587E-05-2.79192E-05-1.30165E-05 3.53036E-05 3.02052E-18-5.03212E-18
 -1       618 1.24056E-04-1.26215E-05-4.82744E-05 7.69576E-06 5.46098E-18 1.83211E-19
 -1       619 1.38420E-04-4.73096E-05-3.93062E-05-8.51936E-06 1.19616E-18-7.31363E-18
 -1       620 6.41978E-05-3.27382E-05-1.30565E-05-3.79859E-05-2.36280E-18-6.33395E-18
 -1       621 8.25764E-05-1.05266E-05-3.08819E-05-1.02188E-06 9.95440E-19-4.44138E-18
 -1       622 8.09460E-05-9.28946E-06-3.07125E-05-4.17062E-07 4.96757E-19-4.44086E-18
 -1       623 8.95102E-05-1.59148E-05-3.15454E-05-9.04477E-07 2.03152E-18-3.46322E-18
 -1       624 9.40315E-05-1.96718E-05-3.18746E-05-3.24095E-07 2.54395E-18-2.57815E-18
 -1       625 9.83848E-05-2.43021E-05-3.17407E-05-1.35116E-06 2.66871E-18-1.52107E-18
 -1       626 1.27755E-04-2.38728E-05-4.50216E-05-1.48569E-05 4.01425E-18-5.56797E-18
 -1       627 1.32287E-04-5.89682E-05-3.14974E-05 9.60314E-06-1.36822E-18-6.31532E-18
 -1       628 1.27296E-04-3.08084E-05-4.17339E-05 1.53883E-05 2.80627E-18 2.43789E-18
 -1       629 9.78663E-05-2.57977E-05-3.08854E-05 5.51891E-06-1.61017E-18-1.68533E-18
 -1       630 9.92723E-05-2.83545E-05-3.03936E-05 7.87226E-06-1.03606E-18-1.60726E-18
 -1       631 1.01526E-04-3.14674E-05-3.00271E-05 9.20826E-06-4.49063E-19-1.43407E-18
 -1       632 1.05082E-04-3.55018E-05-2.98219E-05 9.23065E-06-2.26845E-19-1.25556E-18
 -1       633 1.10187E-04-4.03654E-05-2.99235E-05 7.38003E-06 1.37597E-20-3.90465E-19
 -1       634 1.16477E-04-4.49947E-05-3.06336E-05 2.95612E-06 7.06039E-19 7.26461E-19
 -1       635 1.22148E-04-4.64345E-05-3.24423E-05-4.43514E-06-8.64304E-20 2.10669E-18
 -1       636 1.24321E-04-4.16430E-05-3.55455E-05-1.24141E-05-8.60460E-19 3.19418E-18
 -1       637 1.20160E-04-2.85571E-05-3.95143E-05-1.46115E-05-3.33224E-18 2.47236E-18
 -1       638 1.15068E-04-1.65205E-05-4.25435E-05-6.38868E-06-4.83105E-18 4.68052E-20
 -1       639 1.15064E-04-1.65964E-05-4.25276E-05 7.74632E-06-4.55206E-18-2.40658E-18
 -1       640 1.20195E-04-2.86863E-05-3.94220E-05 1.58849E-05-3.11181E-18-3.32791E-18
 -1       641 1.24063E-04-4.14575E-05-3.54866E-05 1.34967E-05-3.70676E-19-3.41967E-18
 -1       642 1.22138E-04-4.67076E-05-3.23515E-05 5.46743E-06 7.04178E-19-2.47536E-18
 -1       643 1.16343E-04-4.50453E-05-3.05637E-05-1.90321E-06 1.64034E-18-1.54490E-18
 -1       644 1.10032E-04-4.05647E-05-2.97749E-05-6.54101E-06 9.81422E-19-1.10330E-18
 -1       645 1.04869E-04-3.59640E-05-2.95334E-05-8.76226E-06-1.94879E-19-8.44719E-19
 -1       646 1.01227E-04-3.23478E-05-2.95215E-05-9.38732E-06-4.45129E-19-5.53244E-19
 -1       647 9.88788E-05-2.98975E-05-2.95640E-05-9.08202E-06-4.94019E-20-1.61011E-18
 -1       648 9.74488E-05-2.84179E-05-2.95845E-05-8.28536E-06-1.82990E-19-1.68527E-18
 -1       649 9.66071E-05-2.76306E-05-2.95609E-05-7.26503E-06-5.96273E-19-2.03617E-18
 -1       650 9.61185E-05-2.72919E-05-2.94966E-05-6.18180E-06 2.08269E-19-2.73745E-18
 -1       651 9.58326E-05-2.72218E-05-2.94041E-05-5.13148E-06 6.38393E-19-2.20556E-18
 -1       652 9.56597E-05-2.72988E-05-2.92970E-05-4.16846E-06-3.02461E-19-2.01042E-18
 -1       653 9.55492E-05-2.74464E-05-2.91865E-05-3.31978E-06 2.47647E-19-1.04500E-18
 -1       654 9.54736E-05-2.76184E-05-2.90804E-05-2.59453E-06-2.50443E-19-1.44486E-18
 -1       655 9.54186E-05-2.77892E-05-2.89837E-05-1.99032E-06 1.27740E-18 4.26348E-19
 -1       656 9.53765E-05-2.79453E-05-2.88988E-05-1.49795E-06 6.54012E-19-3.24132E-19
 -1       657 9.53435E-05-2.80811E-05-2.88266E-05-1.10465E-06 4.83317E-19 1.59691E-20
 -1       658 9.53174E-05-2.81950E-05-2.87666E-05-7.96341E-07-2.50313E-18-3.72559E-19
 -1       659 9.52967E-05-2.82881E-05-2.87179E-05-5.59038E-07-8.57781E-19-1.21800E-20
 -1       660 9.52806E-05-2.83624E-05-2.86791E-05-3.79728E-07-2.47801E-19-7.34862E-19
 -1       661 9.52681E-05-2.84205E-05-2.86489E-05-2.46826E-07 3.07436E-20-2.57222E-18
 -1       662 9.52586E-05-2.84651E-05-2.86257E-05-1.50359E-07-7.93468E-19-3.03066E-18
 -1       663 9.52515E-05-2.84987E-05-2.86083E-05-8.19727E-08 1.13597E-19-1.19241E-18
 -1       664 9.52464E-05-2.85235E-05-2.85955E-05-3.48374E-08 1.86753E-19-2.04432E-18
 -1       665 9.52428E-05-2.85414E-05-2.85863E-05-3.49249E-09 4.28390E-19-1.75306E-18
 -1       666 9.52403E-05-2.85542E-05-2.85798E-05 1.63267E-08 6.16166E-19-5.09012E-19
 -1       667 9.52388E-05-2.85632E-05-2.85753E-05 2.78664E-08 1.04019E-18 1.52342E-18
 -1       668 9.52379E-05-2.85696E-05-2.85722E-05 3.35170E-08 1.71809E-18-9.52355E-19
 -1       669 9.52377E-05-2.85744E-05-2.85700E-05 3.49738E-08 1.06984E-18-3.04823E-18
 -1       670 9.52381E-05-2.85784E-05-2.85685E-05 3.32879E-08 8.50855E-19-3.21103E-18
 -1       671 1.05624E-04-3.48185E-05-3.03494E-05-7.67504E-06 3.81530E-19-1.18291E-18
 -1       672 4.25451E-05-1.77735E-05-1.00990E-05-2.29364E-05 8.33930E-19 4.88992E-18
 -1       673 1.02592E-04-3.15017E-05-3.04690E-05-7.97665E-06 8.13817E-19-1.34921E-18
 -1       674 1.14662E-04-4.23994E-05-3.09722E-05-1.23000E-06-4.03764E-19 1.46941E-19
 -1       675 1.18759E-04-4.36667E-05-3.22068E-05 5.17156E-06-1.82848E-19 5.01058E-19
 -1       676 1.19995E-04-3.99967E-05-3.43604E-05 1.17486E-05 4.66821E-19 1.17447E-18
 -1       677 1.16948E-04-3.05793E-05-3.71242E-05 1.40964E-05 1.85189E-18 1.10151E-18
 -1       678 1.11781E-04-2.02181E-05-3.94335E-05 7.89893E-06 2.51744E-18-2.61710E-19
 -1       679 1.10313E-04-1.78971E-05-3.98489E-05-4.44303E-06 3.33292E-18-2.01317E-18
 -1       680 1.14365E-04-2.57992E-05-3.81373E-05-1.39759E-05 2.78563E-18-3.30292E-18
 -1       681 1.19332E-04-3.67952E-05-3.54339E-05-1.47047E-05 1.60298E-18-3.76196E-18
 -1       682 1.19928E-04-4.30175E-05-3.29967E-05-9.18683E-06-1.82269E-19-3.52408E-18
 -1       683 1.16706E-04-4.34695E-05-3.13970E-05-2.28160E-06-6.45542E-19-2.22671E-18
 -1       684 1.11870E-04-4.05483E-05-3.05738E-05 3.13350E-06-5.61153E-19-1.49653E-18
 -1       685 1.07272E-04-3.67513E-05-3.02279E-05 6.40838E-06-3.36581E-19-1.57074E-18
 -1       686 1.03655E-04-3.34215E-05-3.01028E-05 7.92116E-06 4.32248E-19-1.04157E-18
 -1       687 1.01082E-04-3.09903E-05-3.00408E-05 8.24248E-06 7.85979E-19-2.53147E-19
 -1       688 9.93376E-05-2.94122E-05-2.99683E-05 7.84533E-06 1.06762E-18-3.76119E-19
 -1       689 9.81709E-05-2.84871E-05-2.98641E-05 7.06096E-06-1.56108E-19 2.15376E-19
 -1       690 9.73815E-05-2.80067E-05-2.97313E-05 6.10796E-06-5.31573E-19-1.17297E-18
 -1       691 9.68322E-05-2.78055E-05-2.95820E-05 5.12407E-06-1.06281E-18-2.10908E-18
 -1       692 9.64364E-05-2.77672E-05-2.94288E-05 4.19106E-06-1.25672E-18-2.85018E-18
 -1       693 9.61419E-05-2.78162E-05-2.92816E-05 3.35278E-06-1.53180E-18-2.28704E-18
 -1       694 9.59175E-05-2.79060E-05-2.91471E-05 2.62810E-06-3.70071E-19-2.44775E-18
 -1       695 9.57444E-05-2.80093E-05-2.90288E-05 2.02009E-06 7.65409E-19-2.67479E-18
 -1       696 9.56104E-05-2.81110E-05-2.89279E-05 1.52244E-06 6.83706E-19-2.72317E-18
 -1       697 9.55070E-05-2.82035E-05-2.88440E-05 1.12383E-06 3.18421E-19-2.91815E-18
 -1       698 9.54280E-05-2.82837E-05-2.87759E-05 8.10792E-07 6.21385E-19-3.06229E-18
 -1       699 9.53685E-05-2.83509E-05-2.87216E-05 5.69578E-07 5.25228E-19-1.07130E-18
 -1       700 9.53243E-05-2.84056E-05-2.86793E-05 3.87177E-07 1.50429E-20-3.33358E-19
 -1       701 9.52922E-05-2.84492E-05-2.86469E-05 2.51918E-07 2.22707E-19 3.95924E-19
 -1       702 9.52695E-05-2.84833E-05-2.86226E-05 1.53709E-07 7.31996E-20 8.64760E-19
 -1       703 9.52538E-05-2.85094E-05-2.86047E-05 8.40721E-08 7.80146E-19 8.24028E-19
 -1       704 9.52435E-05-2.85291E-05-2.85919E-05 3.60642E-08 6.65612E-20 3.48667E-20
 -1       705 9.52371E-05-2.85436E-05-2.85829E-05 4.12520E-09-1.36226E-19-2.88891E-18
 -1       706 9.52335E-05-2.85542E-05-2.85768E-05-1.60937E-08 1.54125E-18-4.46005E-18
 -1       707 9.52318E-05-2.85619E-05-2.85728E-05-2.79046E-08 9.06856E-19-4.47290E-18
 -1       708 9.52316E-05-2.85675E-05-2.85703E-05-3.37456E-08 4.80972E-19-4.00044E-18
 -1       709 9.52323E-05-2.85719E-05-2.85688E-05-3.53395E-08-1.66057E-18-1.13451E-18
 -1       710 9.52338E-05-2.85756E-05-2.85678E-05-3.38335E-08-9.31185E-19 1.13190E-18
 -1       711 9.52369E-05-2.85796E-05-2.85675E-05-3.12164E-08-1.14809E-18 1.69766E-18
 -1       712 1.12622E-04-5.61453E-05-2.40332E-05 2.83638E-05-3.06139E-18-3.41947E-18
 -1       713 9.52581E-05-2.85925E-05-2.85710E-05-4.55505E-09 5.05998E-19 5.16582E-19
 -1       714 9.52387E-05-2.85810E-05-2.85676E-05 3.07286E-08-1.89531E-19-4.40135E-18
 -1       715 9.52537E-05-2.85898E-05-2.85702E-05-2.14366E-08 3.15189E-19-2.36070E-18
 -1       716 9.52581E-05-2.85925E-05-2.85710E-05 4.71004E-09 3.28035E-19 2.44623E-18
 -1       717 9.52567E-05-2.85916E-05-2.85707E-05-1.35048E-08 1.19804E-19-1.79660E-18
 -1       718 9.52567E-05-2.85916E-05-2.85707E-05 1.34982E-08 1.29198E-18 3.63490E-19
 -1       719 9.52537E-05-2.85898E-05-2.85702E-05 2.14384E-08 1.92746E-18-1.27613E-18
 -1       720 9.52488E-05-2.85868E-05-2.85694E-05 2.75667E-08 1.29755E-18-2.57580E-18
 -1       721 1.35519E-04-5.31166E-05-3.55283E-05 4.14948E-06 5.31004E-19-3.12153E-18
 -1       722 7.84665E-05-3.97496E-05-1.62412E-05 3.78800E-05-3.85138E-18 4.31034E-19
 -1       723 3.37825E-05-1.16353E-05-8.92488E-06-2.09471E-06-9.43272E-19 6.20446E-18
 -1       724 1.21143E-04-1.28855E-05-4.69810E-05-7.38004E-06 5.03106E-18-3.13165E-18
 -1       725 1.28078E-04-5.96462E-05-2.93436E-05-1.64416E-05-2.20434E-18 4.17323E-19
 -1       726 4.87334E-05-1.89993E-05-1.22140E-05 2.47735E-05-3.57678E-18 4.28993E-18
 -1       727 1.24284E-04-5.83729E-05-2.81927E-05 1.83279E-05 2.52150E-18 7.17900E-19
 -1       728 1.00580E-04-2.88679E-05-3.07325E-05-6.88695E-06 1.40639E-18-1.29937E-18
 -1       729 1.09796E-04-3.87551E-05-3.04537E-05-5.56857E-06-1.16589E-19-6.90628E-19
 -1       730 9.67746E-05-2.31854E-05-3.15356E-05 2.28137E-06-2.04523E-18-2.12877E-18
 -1       731 9.93013E-05-2.66368E-05-3.11374E-05-4.65327E-06 2.08130E-18-1.42167E-18
 -1       732 1.02617E-04-5.19682E-05-2.14776E-05-3.30360E-05 3.09485E-18 4.03856E-19
 -1       733 8.55537E-05-1.28072E-05-3.11813E-05-1.20419E-06 1.55653E-18-3.87037E-18
 -1       734 1.33218E-04-3.80758E-05-4.11283E-05-1.35952E-05-3.23323E-18 2.84150E-18
 -1       735 8.53682E-05-1.26441E-05-3.11722E-05 1.21459E-06-1.32736E-18-3.95092E-18
 -1       736 1.35737E-04-5.23511E-05-3.59341E-05 3.47547E-06-3.80103E-19 2.59534E-18
 -1       737 1.23225E-04-1.67376E-05-4.61171E-05-1.06483E-05-5.69402E-18 1.27408E-18
 -1       738 4.05528E-05-1.48804E-05-1.04241E-05-1.76772E-05-6.12206E-19-7.19041E-18
 -1       739 1.35130E-04-5.40490E-05-3.49210E-05-1.18978E-06-2.65955E-19 3.16455E-18
 -1       740 7.00964E-05-3.30912E-05-1.54471E-05-3.51729E-05 3.14577E-18 1.49131E-18
 -1       741 1.24178E-04-1.44079E-05-4.75782E-05 1.00081E-05-5.75262E-18-1.46981E-18
 -1       742 9.68407E-05-4.71582E-05-2.10729E-05 3.36723E-05 3.47641E-18-2.00096E-18
 -1       743 1.06601E-04-5.33806E-05-2.26019E-05-3.23753E-05-2.99945E-18-2.45873E-18
 -1       744 1.21623E-04-1.05562E-05-4.81869E-05-6.00210E-07-5.92108E-18-6.00335E-20
 -1       745 1.26099E-04-5.91998E-05-2.86402E-05-1.70611E-05 2.70820E-18-1.12955E-18
 -1       746 1.30359E-04-3.27132E-05-4.22445E-05 1.60626E-05-3.55325E-18-3.03090E-18
 -1       747 8.92936E-05-1.57062E-05-3.15440E-05 9.36285E-07-1.89427E-18-3.54058E-18
 -1       748 8.09053E-05-9.25644E-06-3.07102E-05 3.68758E-07-9.13867E-20-4.23005E-18
 -1       749 1.29137E-04-3.64938E-05-3.99606E-05-1.53909E-05 1.93444E-18-5.67070E-18
 -1       750 8.95981E-05-4.24872E-05-1.98941E-05-3.48441E-05-3.05645E-18-3.92047E-18
 -1       751 9.52489E-05-2.85868E-05-2.85695E-05-2.75266E-08 5.42697E-19-7.94057E-20
 -1       752 9.52434E-05-2.85836E-05-2.85685E-05-3.05603E-08 2.00902E-19 2.97215E-19
 -1       753 3.95487E-05-1.12747E-05-1.16314E-05-1.86220E-06 5.64019E-19-7.16579E-18
 -1       754 8.06708E-05-3.53484E-05-1.91541E-05 3.29388E-05 3.23290E-18-2.93770E-18
 -1       755 9.47243E-05-2.02863E-05-3.19054E-05 3.92597E-07-2.32161E-18-2.75325E-18
 -1       756 8.24493E-05-1.04215E-05-3.08740E-05 9.98233E-07-8.26202E-19-4.03742E-18
 -1       757 5.89392E-05-2.34629E-05-1.48083E-05-2.87647E-05-1.84297E-18-5.84630E-18
 -1       758 9.52444E-05-2.85828E-05-2.85693E-05 3.12095E-08-6.40176E-19-5.07552E-18
 -1       759 1.26755E-04-4.23592E-05-3.63262E-05 1.20768E-05 8.10802E-19 2.02102E-18
 -1       760 9.28351E-05-2.05594E-05-3.09726E-05-3.58189E-06 1.87467E-18-2.61764E-18
 -1       761 9.32994E-05-2.13422E-05-3.08381E-05 4.32495E-06-1.56364E-18-2.95886E-18
 -1       762 9.59004E-05-2.73586E-05-2.93754E-05 1.01074E-05-5.34181E-19-2.08583E-18
 -1       763 9.85788E-05-3.14711E-05-2.87614E-05 1.22258E-05-2.86635E-20-1.58415E-18
 -1       764 1.03218E-04-3.70662E-05-2.83458E-05 1.34215E-05 4.80249E-19-9.62634E-19
 -1       765 1.10783E-04-4.42360E-05-2.85020E-05 1.26286E-05 1.48114E-18 3.30648E-19
 -1       766 1.19922E-04-5.07930E-05-2.97172E-05 8.49956E-06 1.81632E-18 1.63450E-18
 -1       767 1.30085E-04-5.31971E-05-3.30687E-05 1.69350E-06 1.10783E-18-2.63629E-18
 -1       768 1.19836E-04-5.09013E-05-2.95105E-05-7.40372E-06 2.05018E-18-1.38890E-18
 -1       769 1.10004E-04-4.42451E-05-2.81565E-05-1.18755E-05 1.64393E-18-1.09743E-18
 -1       770 1.02635E-04-3.74981E-05-2.79081E-05-1.28940E-05 1.13591E-18-5.29812E-19
 -1       771 9.80078E-05-3.24348E-05-2.81013E-05-1.22787E-05-1.77254E-19-3.19136E-19
 -1       772 9.54097E-05-2.91208E-05-2.84087E-05-1.10211E-05-7.35515E-19 3.01154E-19
 -1       773 9.41404E-05-2.71958E-05-2.86898E-05-9.59968E-06-3.57487E-19-3.98624E-19
 -1       774 9.36565E-05-2.62327E-05-2.88954E-05-8.20133E-06-6.13076E-19-8.38376E-19
 -1       775 9.36013E-05-2.58862E-05-2.90204E-05-6.89484E-06-6.08308E-19-2.30510E-19
 -1       776 9.37553E-05-2.59075E-05-2.90774E-05-5.70812E-06 2.98018E-19-6.90531E-19
 -1       777 9.39916E-05-2.61282E-05-2.90841E-05-4.65333E-06-4.94853E-20-9.44831E-19
 -1       778 9.42413E-05-2.64404E-05-2.90574E-05-3.73438E-06 2.05234E-19-9.37601E-19
 -1       779 9.44707E-05-2.67783E-05-2.90109E-05-2.94924E-06 6.32097E-19 7.22373E-20
 -1       780 9.46661E-05-2.71042E-05-2.89550E-05-2.29105E-06 5.13821E-19 1.03168E-18
 -1       781 9.48246E-05-2.73986E-05-2.88968E-05-1.74938E-06 4.03485E-19 5.58945E-19
 -1       782 9.49485E-05-2.76533E-05-2.88408E-05-1.31152E-06 6.55787E-20 3.79806E-19
 -1       783 9.50427E-05-2.78666E-05-2.87897E-05-9.63697E-07-1.72629E-18-1.68664E-18
 -1       784 9.51123E-05-2.80407E-05-2.87450E-05-6.92143E-07-9.36855E-19-8.88434E-19
 -1       785 9.51624E-05-2.81797E-05-2.87068E-05-4.83801E-07-8.86865E-19-5.53002E-19
 -1       786 9.51973E-05-2.82886E-05-2.86752E-05-3.26811E-07-1.42365E-18 2.06357E-20
 -1       787 9.52208E-05-2.83721E-05-2.86494E-05-2.10756E-07-5.24533E-19-1.93158E-18
 -1       788 9.52358E-05-2.84350E-05-2.86289E-05-1.26746E-07 2.00467E-19-2.37156E-18
 -1       789 9.52448E-05-2.84814E-05-2.86128E-05-6.73737E-08 3.05562E-19-1.19060E-18
 -1       790 9.52494E-05-2.85150E-05-2.86005E-05-2.66111E-08 1.42466E-18-6.78225E-19
 -1       791 9.52512E-05-2.85387E-05-2.85911E-05 3.41704E-10 2.42607E-18 8.59567E-19
 -1       792 9.52510E-05-2.85551E-05-2.85840E-05 1.72179E-08 1.12258E-18 1.52739E-18
 -1       793 9.52498E-05-2.85663E-05-2.85787E-05 2.68544E-08 3.31715E-20-7.41798E-19
 -1       794 9.52481E-05-2.85740E-05-2.85746E-05 3.12888E-08-6.11070E-20-9.99582E-19
 -1       795 9.52459E-05-2.85789E-05-2.85716E-05 3.23997E-08-4.47686E-19-2.42787E-18
 -1       796 1.18753E-04-4.81917E-05-3.02387E-05-4.93954E-06-9.05958E-19 3.18023E-19
 -1       797 1.21813E-04-4.94716E-05-3.10110E-05 5.96659E-07-9.40451E-19-3.55671E-18
 -1       798 1.13704E-04-4.50954E-05-2.93999E-05 6.89321E-06-1.09808E-18-2.55828E-18
 -1       799 1.06588E-04-3.93159E-05-2.88262E-05 9.92053E-06-7.04342E-19-1.64260E-18
 -1       800 1.01491E-04-3.43321E-05-2.87801E-05 1.07062E-05 3.23518E-20-1.63184E-18
 -1       801 9.82763E-05-3.07917E-05-2.89217E-05 1.03293E-05 1.39025E-19-1.57348E-18
 -1       802 9.64228E-05-2.85640E-05-2.90822E-05 9.41517E-06 5.84472E-19-4.19416E-19
 -1       803 9.54496E-05-2.73211E-05-2.91977E-05 8.28155E-06-2.79987E-19 7.54408E-19
 -1       804 9.50010E-05-2.67431E-05-2.92531E-05 7.09573E-06 5.01212E-19 1.08504E-19
 -1       805 9.48422E-05-2.65794E-05-2.92552E-05 5.94832E-06-5.11950E-19 2.47098E-19
 -1       806 9.48298E-05-2.66534E-05-2.92182E-05 4.88958E-06-3.95146E-19-5.84578E-19
 -1       807 9.48819E-05-2.68489E-05-2.91567E-05 3.94599E-06-1.40182E-18-1.20731E-18
 -1       808 9.49547E-05-2.70938E-05-2.90830E-05 3.12837E-06-5.54262E-19-3.00778E-18
 -1       809 9.50267E-05-2.73457E-05-2.90060E-05 2.43686E-06 3.91341E-19-2.21496E-18
 -1       810 9.50888E-05-2.75812E-05-2.89317E-05 1.86452E-06 1.45743E-18-9.42486E-19
 -1       811 9.51383E-05-2.77894E-05-2.88637E-05 1.40012E-06 1.16036E-18-1.51744E-18
 -1       812 9.51758E-05-2.79664E-05-2.88040E-05 1.03028E-06-1.71063E-19-9.28511E-19
 -1       813 9.52029E-05-2.81125E-05-2.87530E-05 7.41000E-07-4.18207E-19-3.85495E-19
 -1       814 9.52217E-05-2.82302E-05-2.87106E-05 5.18752E-07 2.42943E-19-8.13039E-20
 -1       815 9.52341E-05-2.83230E-05-2.86761E-05 3.51095E-07-8.39418E-19 2.56820E-19
 -1       816 9.52417E-05-2.83948E-05-2.86487E-05 2.27033E-07-7.39814E-20 1.57971E-18
 -1       817 9.52459E-05-2.84492E-05-2.86271E-05 1.37139E-07 6.31031E-19 4.28694E-19
 -1       818 9.52479E-05-2.84897E-05-2.86106E-05 7.35441E-08 1.52793E-18-3.24571E-19
 -1       819 9.52482E-05-2.85192E-05-2.85982E-05 2.98264E-08 1.14620E-18-1.19008E-18
 -1       820 9.52476E-05-2.85402E-05-2.85889E-05 8.64274E-10 1.21880E-18-1.38169E-18
 -1       821 9.52464E-05-2.85549E-05-2.85821E-05-1.73375E-08 1.01237E-18-8.00204E-19
 -1       822 9.52451E-05-2.85650E-05-2.85772E-05-2.78036E-08-6.96647E-19 9.31692E-19
 -1       823 9.52438E-05-2.85721E-05-2.85736E-05-3.27213E-08-1.63915E-18 2.38341E-18
 -1       824 9.52428E-05-2.85774E-05-2.85709E-05-3.36709E-08-3.31669E-18 1.86089E-18
 -1       825 9.52431E-05-2.85805E-05-2.85697E-05-3.25638E-08-8.79219E-19 1.57372E-18
 -1       826 9.52611E-05-2.85852E-05-2.85754E-05 9.39290E-09 1.27254E-18 1.33320E-18
 -1       827 9.15639E-05-4.14151E-05-2.12998E-05-2.98289E-05 2.85519E-18 3.33532E-19
 -1       828 9.52539E-05-2.85831E-05-2.85732E-05 2.58270E-08-1.24649E-18-4.28958E-18
 -1       829 9.52620E-05-2.85854E-05-2.85757E-05-9.06339E-13 2.41450E-18 6.87298E-19
 -1       830 9.77669E-05-2.80557E-05-2.98750E-05-8.99660E-06 1.08227E-18-1.18591E-18
 -1       831 1.00379E-04-3.17790E-05-2.93980E-05-1.05899E-05 5.46351E-19-1.06088E-18
 -1       832 9.52586E-05-2.85845E-05-2.85746E-05 1.81974E-08 2.86759E-19 1.06373E-18
 -1       833 4.99626E-05-1.30920E-05-1.54987E-05 7.46022E-06-2.03380E-18 3.92634E-18
 -1       834 4.84322E-05-1.28608E-05-1.49043E-05-7.65511E-06-4.61468E-20 3.75839E-18
 -1       835 9.43724E-05-2.41978E-05-3.00747E-05 7.43106E-06-1.07022E-18-2.38646E-18
 -1       836 9.76698E-05-4.56424E-05-2.21842E-05 2.96376E-05-3.00574E-18-2.03319E-18
 -1       837 6.06150E-05-2.07219E-05-1.68390E-05-2.25292E-05 1.78524E-18 1.75497E-18
 -1       838 1.32044E-04-5.20921E-05-3.43926E-05-4.28992E-06-2.37823E-19-5.40558E-18
 -1       839 1.22076E-04-5.60424E-05-2.82854E-05 1.44412E-05-1.58334E-18-5.02658E-18
 -1       840 1.14138E-04-5.31504E-05-2.60850E-05-2.07333E-05 3.21297E-18-3.86354E-19
 -1       841 7.07182E-05-2.83383E-05-1.79159E-05 2.87095E-05-3.29160E-18 1.99303E-18
 -1       842 1.27009E-04-5.40346E-05-3.12967E-05-4.19841E-06-1.67853E-18 1.37832E-18
 -1       843 5.29930E-05-1.68114E-05-1.51185E-05 2.04079E-05 2.21409E-18-5.51442E-18
 -1       844 9.13248E-05-1.85870E-05-3.11739E-05 2.59002E-06-1.84776E-18-3.14143E-18
 -1       845 1.17766E-04-5.36655E-05-2.75145E-05-1.79529E-05-2.28594E-18 3.80877E-19
 -1       846 1.26688E-04-5.36665E-05-3.13267E-05 3.90748E-06 1.23659E-18 2.25154E-18
 -1       847 1.10971E-04-4.99257E-05-2.60719E-05 2.15512E-05 2.95623E-18-2.76662E-19
 -1       848 8.15298E-05-1.18424E-05-2.98666E-05-1.79797E-06 5.17594E-19-4.20733E-18
 -1       849 9.62263E-05-2.37833E-05-3.10494E-05-4.19785E-06 1.99555E-18-1.76695E-18
 -1       850 8.05109E-05-1.10643E-05-2.97625E-05-5.73631E-08 1.57983E-19-3.72395E-18
 -1       851 8.82793E-05-1.69942E-05-3.05512E-05-3.63550E-06 1.41343E-18-3.32700E-18
 -1       852 8.69540E-05-1.51752E-05-3.07641E-05 2.67197E-06-1.24930E-18-3.55227E-18
 -1       853 9.52540E-05-2.85831E-05-2.85732E-05-2.57860E-08-1.16010E-18-2.21933E-18
 -1       854 1.10892E-04-4.25926E-05-2.92712E-05-9.42684E-06-1.09879E-18-1.34472E-19
 -1       855 9.52503E-05-2.85810E-05-2.85726E-05 2.94359E-08-2.48494E-18-5.54199E-18
 -1       856 1.04585E-04-3.66339E-05-2.91228E-05-1.10244E-05-1.66674E-19-6.73187E-19
 -1       857 1.25646E-04-4.89328E-05-3.29082E-05 3.48470E-06-8.50560E-19 1.63835E-18
 -1       858 1.26663E-04-4.65421E-05-3.43835E-05-9.06074E-06 5.20892E-19-3.94994E-18
 -1       859 9.52586E-05-2.85846E-05-2.85746E-05-1.81616E-08-4.41127E-19-3.55811E-19
 -1       860 7.78156E-05-2.89837E-05-2.07990E-05-2.48068E-05 1.84547E-18 6.36942E-19
 -1       861 9.52611E-05-2.85852E-05-2.85754E-05-9.33279E-09 1.65789E-18 1.28392E-19
 -1       862 1.07020E-04-4.76567E-05-2.52790E-05-2.38328E-05-2.49159E-18-9.19628E-19
 -1       863 8.42795E-05-1.39337E-05-3.01500E-05-3.06859E-06 1.04263E-18-3.85008E-18
 -1       864 9.91287E-05-4.22249E-05-2.42637E-05 2.55999E-05 2.67176E-18-1.53726E-18
 -1       865 6.27372E-05-1.85689E-05-1.87614E-05 1.69156E-05-2.62367E-18 3.10770E-18
 -1       866 5.06705E-05-1.38400E-05-1.54364E-05-1.29639E-05-4.95842E-19-5.90665E-18
 -1       867 8.34111E-05-1.24665E-05-3.04098E-05 2.17028E-06-7.82852E-19-3.73834E-18
 -1       868 9.68105E-05-2.57705E-05-3.04440E-05-6.83198E-06 1.42918E-18-1.52898E-18
 -1       869 8.94523E-05-1.95465E-05-2.99591E-05 5.92964E-06-1.01715E-18-2.92936E-18
 -1       870 7.88710E-05-3.08113E-05-2.04598E-05-2.82110E-05-2.03432E-18-4.27664E-18
 -1       871 5.39908E-05-1.22152E-05-1.76552E-05 4.05602E-06 7.07247E-19-5.25424E-18
 -1       872 9.34020E-05-3.04019E-05-2.70001E-05 1.59454E-05 8.03900E-19-2.04745E-18
 -1       873 9.84604E-05-3.73897E-05-2.61407E-05 1.93885E-05 1.87728E-18-1.25573E-18
 -1       874 6.67310E-05-2.00761E-05-1.98433E-05-1.98055E-05-1.05289E-18-4.74348E-18
 -1       875 9.78291E-05-3.78499E-05-2.56728E-05-1.90134E-05 1.69269E-18 1.91575E-19
 -1       876 9.26623E-05-3.14139E-05-2.62485E-05-1.59941E-05 4.26671E-19-6.20079E-20
 -1       877 9.05128E-05-2.75823E-05-2.69689E-05-1.30466E-05-2.41093E-19-4.73762E-19
 -1       878 8.98827E-05-2.54910E-05-2.75947E-05-1.06327E-05-4.25769E-19 4.55730E-19
 -1       879 9.00483E-05-2.45258E-05-2.80802E-05-8.69513E-06-6.48912E-19 4.61049E-19
 -1       880 9.05963E-05-2.42652E-05-2.84271E-05-7.12091E-06-8.33750E-19-5.37010E-19
 -1       881 9.12910E-05-2.44238E-05-2.86571E-05-5.81769E-06 5.12245E-20-1.10166E-18
 -1       882 9.20008E-05-2.48097E-05-2.87960E-05-4.72295E-06 2.60841E-19-1.10516E-18
 -1       883 9.26575E-05-2.52981E-05-2.88682E-05-3.79785E-06 4.89487E-19-3.47763E-19
 -1       884 9.32307E-05-2.58111E-05-2.88940E-05-3.01787E-06 1.09537E-18 1.97654E-19
 -1       885 9.37114E-05-2.63023E-05-2.88895E-05-2.36563E-06 1.52925E-18 9.55877E-19
 -1       886 9.41025E-05-2.67466E-05-2.88667E-05-1.82669E-06 4.43419E-19 1.60844E-18
 -1       887 9.44127E-05-2.71329E-05-2.88341E-05-1.38758E-06-3.64810E-19 4.08695E-19
 -1       888 9.46534E-05-2.74586E-05-2.87977E-05-1.03521E-06-2.10104E-18-1.49208E-18
 -1       889 9.48363E-05-2.77266E-05-2.87613E-05-7.56871E-07-8.31264E-19-7.07522E-19
 -1       890 9.49723E-05-2.79423E-05-2.87271E-05-5.40582E-07-7.23319E-19-2.12060E-18
 -1       891 9.50711E-05-2.81124E-05-2.86965E-05-3.75332E-07-4.35810E-20-1.48074E-18
 -1       892 9.51411E-05-2.82442E-05-2.86701E-05-2.51310E-07-1.51328E-18-6.82289E-19
 -1       893 9.51892E-05-2.83443E-05-2.86478E-05-1.60003E-07 9.35776E-20-1.78272E-19
 -1       894 9.52208E-05-2.84189E-05-2.86294E-05-9.42018E-08 3.58363E-19-3.67868E-20
 -1       895 9.52405E-05-2.84733E-05-2.86145E-05-4.79438E-08 1.58418E-18 7.74097E-19
 -1       896 9.52516E-05-2.85121E-05-2.86026E-05-1.63970E-08 2.46974E-18 1.49869E-19
 -1       897 9.52567E-05-2.85391E-05-2.85933E-05 4.25993E-09 2.81368E-18-1.17707E-18
 -1       898 9.52580E-05-2.85576E-05-2.85859E-05 1.69709E-08-1.53356E-18-1.95971E-18
 -1       899 9.52569E-05-2.85701E-05-2.85800E-05 2.40255E-08-1.08586E-18-4.05220E-18
 -1       900 8.81881E-05-1.73654E-05-3.03525E-05 4.24165E-06-1.23120E-18-3.04336E-18
 -1       901 9.66957E-05-3.15255E-05-2.79425E-05-1.41509E-05-1.72836E-19-1.41421E-18
 -1       902 1.14626E-04-5.01000E-05-2.76217E-05 1.47840E-05-2.53177E-18-3.91020E-18
 -1       903 9.42319E-05-3.00347E-05-2.75098E-05 1.28634E-05-3.32246E-19 2.50814E-19
 -1       904 9.25747E-05-2.72981E-05-2.79753E-05 1.09391E-05-6.12665E-19 7.52521E-19
 -1       905 9.20121E-05-2.58434E-05-2.83579E-05 9.19733E-06-7.88514E-19 1.83493E-18
 -1       906 9.20462E-05-2.52304E-05-2.86352E-05 7.67348E-06 2.21512E-19 1.79098E-18
 -1       907 9.23725E-05-2.51370E-05-2.88151E-05 6.34803E-06-8.91558E-20 2.65951E-18
 -1       908 9.28129E-05-2.53416E-05-2.89162E-05 5.19730E-06 2.08482E-19 1.94630E-18
 -1       909 9.32688E-05-2.56975E-05-2.89591E-05 4.20367E-06-4.44952E-19 1.18756E-18
 -1       910 9.36897E-05-2.61118E-05-2.89619E-05 3.35412E-06 4.16201E-19-3.40794E-19
 -1       911 9.40536E-05-2.65283E-05-2.89394E-05 2.63721E-06-1.09905E-19-6.57479E-19
 -1       912 9.43549E-05-2.69155E-05-2.89025E-05 2.04126E-06-3.78185E-19-5.88622E-19
 -1       913 9.45961E-05-2.72579E-05-2.88592E-05 1.55370E-06 8.72713E-19 7.47241E-19
 -1       914 9.47843E-05-2.75500E-05-2.88147E-05 1.16128E-06 3.36853E-19 2.34528E-18
 -1       915 9.49275E-05-2.77922E-05-2.87722E-05 8.50636E-07-5.74828E-19 2.32596E-18
 -1       916 9.50339E-05-2.79884E-05-2.87338E-05 6.08803E-07-5.23072E-19 3.13996E-18
 -1       917 9.51112E-05-2.81441E-05-2.87002E-05 4.23747E-07-4.56030E-19 3.68506E-18
 -1       918 9.51657E-05-2.82652E-05-2.86717E-05 2.84655E-07-7.22976E-19 2.38488E-18
 -1       919 9.52030E-05-2.83576E-05-2.86480E-05 1.82100E-07 1.54312E-18 1.23117E-18
 -1       920 9.52273E-05-2.84267E-05-2.86288E-05 1.08074E-07 1.73720E-18 8.98755E-20
 -1       921 9.52423E-05-2.84774E-05-2.86135E-05 5.59349E-08 1.47776E-18-9.84295E-20
 -1       922 9.52506E-05-2.85137E-05-2.86015E-05 2.02950E-08-3.09203E-19 1.19359E-18
 -1       923 9.52543E-05-2.85392E-05-2.85922E-05-3.12211E-09-3.51098E-20 2.07944E-18
 -1       924 9.52550E-05-2.85566E-05-2.85850E-05-1.76466E-08-3.27522E-19 2.92006E-18
 -1       925 9.52540E-05-2.85686E-05-2.85795E-05-2.57956E-08-1.68761E-18 2.45653E-18
 -1       926 9.52518E-05-2.85765E-05-2.85751E-05-2.93647E-08-1.81588E-18 1.78936E-18
 -1       927 9.52648E-05-2.85766E-05-2.85807E-05 4.43414E-09 2.57847E-18 4.24769E-19
 -1       928 9.52489E-05-2.85822E-05-2.85714E-05-2.99628E-08-6.98864E-19-1.36365E-18
 -1       929 9.00476E-05-2.23837E-05-2.89997E-05 9.09991E-06-4.37649E-19-2.76550E-18
 -1       930 9.37825E-05-2.68599E-05-2.86754E-05-1.14062E-05 4.90739E-19-2.09735E-18
 -1       931 5.81933E-05-1.37274E-05-1.89100E-05-1.44899E-06-2.32759E-19 1.25796E-18
 -1       932 9.76989E-05-3.45524E-05-2.70480E-05 1.47807E-05-1.04312E-18-7.07947E-19
 -1       933 1.04094E-04-4.13650E-05-2.68828E-05 1.60044E-05-1.77141E-18-2.43137E-18
 -1       934 6.29401E-05-1.71245E-05-1.95389E-05-1.38346E-05 1.00331E-18 1.97782E-18
 -1       935 8.80510E-05-3.58970E-05-2.22737E-05 2.58770E-05-2.83756E-18-1.32081E-18
 -1       936 1.04679E-04-4.50221E-05-2.55999E-05-2.03273E-05 2.54511E-18-1.61704E-19
 -1       937 9.10961E-05-2.57680E-05-2.79978E-05 1.24451E-05 1.19957E-19-2.35499E-18
 -1       938 7.14120E-05-2.45523E-05-1.99825E-05 2.42176E-05 2.57459E-18-3.38186E-18
 -1       939 8.13492E-05-1.12933E-05-3.00251E-05 1.37031E-06-2.07216E-19-3.73162E-18
 -1       940 9.12811E-05-2.12592E-05-3.00102E-05-6.42903E-06 1.18262E-18-2.70860E-18
 -1       941 8.41011E-05-1.42896E-05-2.99241E-05 3.52252E-06-6.23991E-19-3.46598E-18
 -1       942 6.13019E-05-1.37898E-05-2.02495E-05-7.12694E-06-2.19271E-19-4.67322E-18
 -1       943 1.10100E-04-4.61877E-05-2.73311E-05-1.66754E-05-1.61969E-18-3.13291E-19
 -1       944 9.52595E-05-2.85773E-05-2.85781E-05-2.15209E-08 6.77914E-19-1.23725E-18
 -1       945 9.52536E-05-2.85765E-05-2.85759E-05 2.76844E-08-4.80761E-19-4.85698E-18
 -1       946 9.52648E-05-2.85766E-05-2.85806E-05-4.49192E-09 2.81532E-18 1.67501E-18
 -1       947 9.52631E-05-2.85769E-05-2.85798E-05 1.32241E-08 2.99614E-19 2.75162E-20
 -1       948 6.41750E-05-1.58141E-05-2.06529E-05 7.81123E-06-5.97138E-19 1.52413E-18
 -1       949 7.60803E-05-2.51365E-05-2.17466E-05 2.01892E-05-3.11686E-18 1.11754E-18
 -1       950 7.97912E-05-1.27979E-05-2.87097E-05-1.63191E-06 1.04796E-19-3.84429E-18
 -1       951 6.48023E-05-1.63681E-05-2.06864E-05 1.34442E-05 1.45932E-18-4.06606E-18
 -1       952 8.21755E-05-1.45799E-05-2.89743E-05-4.25431E-06 4.13885E-19-3.65006E-18
 -1       953 9.52586E-05-2.85775E-05-2.85776E-05 2.22586E-08-1.45443E-18-3.13735E-18
 -1       954 9.23804E-05-2.34963E-05-2.95193E-05-8.43137E-06 9.33475E-19-2.48430E-18
 -1       955 1.01718E-04-3.79065E-05-2.73331E-05-1.64181E-05-1.09897E-18-9.43899E-19
 -1       956 8.55540E-05-2.88108E-05-2.42537E-05 2.09484E-05 1.93673E-18-2.58847E-18
 -1       957 8.01973E-05-2.58786E-05-2.32311E-05-1.89083E-05 8.66319E-19 3.34490E-19
 -1       958 8.17724E-05-2.71245E-05-2.33979E-05-2.12959E-05-1.37537E-18-3.13233E-18
 -1       959 9.52631E-05-2.85770E-05-2.85798E-05-1.32344E-08 1.44895E-18 1.11198E-18
 -1       960 8.45256E-05-2.00037E-05-2.76511E-05 1.00090E-05-1.77285E-20-2.72173E-18
 -1       961 8.12565E-05-2.31972E-05-2.48812E-05-1.37329E-05 2.05727E-19 4.88710E-19
 -1       962 8.30088E-05-2.20673E-05-2.61153E-05-1.01663E-05 1.34728E-19 8.58729E-19
 -1       963 8.48186E-05-2.17829E-05-2.70167E-05-7.74914E-06-3.37926E-19 5.79305E-19
 -1       964 8.65416E-05-2.20053E-05-2.76592E-05-6.07314E-06-1.21324E-18 1.74054E-18
 -1       965 8.81043E-05-2.25237E-05-2.81064E-05-4.83254E-06-2.98160E-19 1.23275E-18
 -1       966 8.94816E-05-2.31982E-05-2.84075E-05-3.86877E-06-3.96945E-19-1.49070E-19
 -1       967 9.06677E-05-2.39332E-05-2.86007E-05-3.09492E-06 1.31983E-18-6.51244E-19
 -1       968 9.16682E-05-2.46641E-05-2.87162E-05-2.46129E-06 2.02385E-18 1.55855E-19
 -1       969 9.24962E-05-2.53499E-05-2.87771E-05-1.93873E-06 1.89691E-18 4.36833E-19
 -1       970 9.31690E-05-2.59670E-05-2.88009E-05-1.50860E-06 1.18797E-18 2.03963E-20
 -1       971 9.37062E-05-2.65044E-05-2.88008E-05-1.15728E-06-5.41942E-19-1.39268E-18
 -1       972 9.41276E-05-2.69601E-05-2.87861E-05-8.73588E-07-1.76826E-18-9.12905E-19
 -1       973 9.44525E-05-2.73375E-05-2.87636E-05-6.47573E-07-1.10154E-18-3.65875E-19
 -1       974 9.46983E-05-2.76437E-05-2.87377E-05-4.70158E-07-1.30852E-18 4.66841E-19
 -1       975 9.48808E-05-2.78875E-05-2.87115E-05-3.33077E-07 2.38065E-19 9.09313E-19
 -1       976 9.50133E-05-2.80779E-05-2.86866E-05-2.28919E-07 9.04565E-20-5.19398E-19
 -1       977 9.51071E-05-2.82239E-05-2.86642E-05-1.51185E-07 5.91686E-19 1.18649E-18
 -1       978 9.51714E-05-2.83337E-05-2.86447E-05-9.42981E-08 9.62800E-19 1.03273E-18
 -1       979 9.52137E-05-2.84148E-05-2.86281E-05-5.35813E-08 1.44461E-18 6.48168E-19
 -1       980 9.52400E-05-2.84733E-05-2.86143E-05-2.51942E-08 1.07786E-18 9.71831E-19
 -1       981 9.52548E-05-2.85145E-05-2.86030E-05-6.02505E-09-2.37221E-19-2.77931E-19
 -1       982 9.52617E-05-2.85429E-05-2.85938E-05 6.29553E-09-8.74772E-19-3.60239E-18
 -1       983 9.52634E-05-2.85622E-05-2.85862E-05 1.37968E-08-6.65716E-19-3.20639E-18
 -1       984 8.77262E-05-2.38960E-05-2.73569E-05 9.57283E-06-1.22558E-18 1.51985E-18
 -1       985 8.73412E-05-2.52183E-05-2.66248E-05 1.20810E-05-7.62765E-19 1.06119E-18
 -1       986 8.95301E-05-2.35283E-05-2.82866E-05 6.19666E-06-7.69006E-20 1.32175E-18
 -1       987 9.05147E-05-2.39115E-05-2.85443E-05 5.01040E-06 5.15963E-19 1.19143E-18
 -1       988 9.14267E-05-2.44478E-05-2.87053E-05 4.03555E-06 2.88682E-19 1.28626E-18
 -1       989 9.22298E-05-2.50396E-05-2.87959E-05 3.22493E-06 9.64580E-19 3.02360E-19
 -1       990 9.29119E-05-2.56254E-05-2.88371E-05 2.54951E-06-2.16166E-19 1.20017E-18
 -1       991 9.34751E-05-2.61690E-05-2.88455E-05 1.98970E-06-4.71260E-19 2.35584E-18
 -1       992 9.39293E-05-2.66518E-05-2.88333E-05 1.53026E-06-1.14724E-19 2.27267E-18
 -1       993 9.42879E-05-2.70665E-05-2.88092E-05 1.15795E-06-2.45332E-19 3.44702E-18
 -1       994 9.45654E-05-2.74132E-05-2.87796E-05 8.60515E-07-3.78572E-20 2.91499E-18
 -1       995 9.47759E-05-2.76964E-05-2.87483E-05 6.26497E-07-4.68653E-19 2.79086E-18
 -1       996 9.49323E-05-2.79232E-05-2.87182E-05 4.45297E-07-1.16362E-18 1.66824E-18
 -1       997 9.50460E-05-2.81013E-05-2.86906E-05 3.07333E-07 7.88249E-19 2.23924E-18
 -1       998 9.51265E-05-2.82384E-05-2.86663E-05 2.04148E-07 7.00331E-19 1.86373E-18
 -1       999 9.51817E-05-2.83421E-05-2.86455E-05 1.28459E-07 1.67066E-18 3.33621E-18
 -1      1000 9.52180E-05-2.84190E-05-2.86282E-05 7.41377E-08 2.18184E-18 3.73376E-18
 -1      1001 9.52405E-05-2.84747E-05-2.86139E-05 3.61342E-08 8.93856E-19 3.46493E-18
 -1      1002 9.52533E-05-2.85142E-05-2.86024E-05 1.03882E-08-1.22852E-19 1.58623E-18
 -1      1003 9.52591E-05-2.85415E-05-2.85932E-05-6.26392E-09 3.53691E-19 1.44974E-18
 -1      1004 9.52606E-05-2.85602E-05-2.85859E-05-1.65275E-08-1.38353E-18 1.80226E-18
 -1      1005 8.63411E-05-1.76440E-05-2.94444E-05-5.90135E-06 1.05569E-18-3.29163E-18
 -1      1006 9.75776E-05-3.77810E-05-2.55187E-05-2.09874E-05-1.89712E-18-1.35704E-18
 -1      1007 8.50982E-05-1.76253E-05-2.89136E-05 6.70503E-06-3.82195E-19-2.95267E-18
 -1      1008 8.79060E-05-2.79650E-05-2.56895E-05 1.54429E-05-1.36725E-18 3.23075E-19
 -1      1009 8.82143E-05-2.48596E-05-2.71363E-05-1.36416E-05-3.85677E-19-2.31088E-18
 -1      1010 8.68150E-05-1.96534E-05-2.87869E-05-8.02023E-06 7.26903E-19-2.95546E-18
 -1      1011 7.97573E-05-1.27508E-05-2.87167E-05 1.47646E-06-3.21397E-20-3.27905E-18
 -1      1012 6.63668E-05-1.57955E-05-2.16363E-05-6.41807E-06 6.12916E-19 9.08224E-19
 -1      1013 8.85503E-05-2.34474E-05-2.79016E-05 7.67404E-06-7.17438E-19 1.12649E-18
 -1      1014 8.93759E-05-3.15597E-05-2.47436E-05 1.90860E-05-2.91923E-18-1.19035E-18
 -1      1015 8.39616E-05-2.29216E-05-2.61608E-05 1.41560E-05 5.36299E-19-2.69298E-18
 -1      1016 8.71932E-05-2.19700E-05-2.79558E-05-1.06424E-05 9.24991E-20-2.75417E-18
 -1      1017 6.48000E-05-1.35442E-05-2.19251E-05 2.88296E-06 5.00394E-19-4.16656E-18
 -1      1018 9.52642E-05-2.85570E-05-2.85888E-05-1.01619E-08 6.14438E-19 2.10661E-18
 -1      1019 7.15872E-05-1.83813E-05-2.27232E-05-1.39616E-05-6.44777E-19-4.29929E-18
 -1      1020 9.52663E-05-2.85644E-05-2.85865E-05-2.37705E-12 7.43068E-21 5.00937E-19
 -1      1021 6.84263E-05-1.58132E-05-2.25423E-05 1.44189E-06 6.36172E-20 5.69954E-19
 -1      1022 9.52659E-05-2.85653E-05-2.85860E-05 7.17623E-09 2.93771E-19-1.32687E-18
 -1      1023 7.25294E-05-1.99651E-05-2.25252E-05 1.33631E-05-2.19664E-18 7.15918E-19
 -1      1024 8.46589E-05-1.59702E-05-2.94240E-05 4.98952E-06-3.79150E-19-3.12283E-18
 -1      1025 7.72420E-05-1.34241E-05-2.73537E-05-1.75288E-07 9.21934E-21-3.38585E-18
 -1      1026 7.89752E-05-1.46667E-05-2.75639E-05-4.46373E-06 2.21575E-19-3.69476E-18
 -1      1027 8.16300E-05-1.32830E-05-2.92994E-05 2.91854E-06-2.57623E-19-3.45230E-18
 -1      1028 7.90307E-05-1.46790E-05-2.75756E-05 4.46303E-06 2.21351E-20-3.32495E-18
 -1      1029 9.06959E-05-2.39611E-05-2.86008E-05 2.67898E-06 1.19135E-19-5.13206E-19
 -1      1030 8.02675E-05-1.95122E-05-2.60420E-05-5.65565E-06-6.73093E-20 9.90897E-19
 -1      1031 8.31526E-05-2.02237E-05-2.69714E-05-4.30708E-06-6.53901E-19 6.73772E-19
 -1      1032 8.55082E-05-2.10582E-05-2.76222E-05-3.35016E-06-7.90061E-19 6.28700E-19
 -1      1033 8.74515E-05-2.19585E-05-2.80688E-05-2.64813E-06-5.92041E-19 1.30290E-18
 -1      1034 8.90628E-05-2.28710E-05-2.83681E-05-2.10820E-06 2.96182E-19 1.53193E-18
 -1      1035 9.03969E-05-2.37544E-05-2.85612E-05-1.67728E-06 1.35135E-18 8.88113E-19
 -1      1036 9.14933E-05-2.45775E-05-2.86784E-05-1.32653E-06 1.73788E-18-3.86369E-19
 -1      1037 9.23847E-05-2.53196E-05-2.87423E-05-1.03901E-06 1.04854E-18-6.81536E-19
 -1      1038 9.31000E-05-2.59699E-05-2.87701E-05-8.03762E-07-1.26402E-18-1.91506E-18
 -1      1039 9.36656E-05-2.65257E-05-2.87743E-05-6.12776E-07-1.73201E-18-1.96595E-18
 -1      1040 9.41060E-05-2.69904E-05-2.87639E-05-4.59466E-07-5.63062E-19-1.61670E-18
 -1      1041 9.44433E-05-2.73709E-05-2.87454E-05-3.38048E-07-3.47063E-19-5.24679E-19
 -1      1042 9.46970E-05-2.76767E-05-2.87231E-05-2.43307E-07 5.54058E-19 9.32191E-19
 -1      1043 9.48841E-05-2.79178E-05-2.86999E-05-1.70553E-07 1.36185E-20 2.11664E-18
 -1      1044 9.50191E-05-2.81047E-05-2.86776E-05-1.15629E-07 5.01650E-20 7.63948E-19
 -1      1045 9.51138E-05-2.82467E-05-2.86573E-05-7.49222E-08 1.58431E-19-1.62082E-18
 -1      1046 9.51781E-05-2.83527E-05-2.86395E-05-4.53632E-08 4.56262E-19-1.14561E-18
 -1      1047 9.52199E-05-2.84301E-05-2.86242E-05-2.43968E-08 1.08323E-18-2.25370E-18
 -1      1048 9.52452E-05-2.84854E-05-2.86113E-05-9.96398E-09 1.14571E-18-2.28409E-18
 -1      1049 9.52590E-05-2.85241E-05-2.86007E-05-2.10698E-10-1.33476E-18-1.50667E-18
 -1      1050 8.25089E-05-2.13747E-05-2.62044E-05 8.87064E-06-3.37935E-19 1.97191E-19
 -1      1051 8.94927E-05-2.31894E-05-2.84160E-05 3.36156E-06-2.32495E-20-1.82818E-18
 -1      1052 8.80785E-05-2.24491E-05-2.81273E-05 4.21362E-06 1.82137E-19-2.91564E-18
 -1      1053 9.17028E-05-2.47106E-05-2.87111E-05 2.12213E-06 2.65469E-19 1.51437E-19
 -1      1054 9.25313E-05-2.54037E-05-2.87691E-05 1.66494E-06-9.51768E-19 7.18373E-19
 -1      1055 9.32018E-05-2.60214E-05-2.87917E-05 1.29038E-06-3.51064E-19 1.52947E-18
 -1      1056 9.37353E-05-2.65555E-05-2.87914E-05 9.85881E-07-7.17915E-19 2.84048E-19
 -1      1057 9.41526E-05-2.70059E-05-2.87773E-05 7.41089E-07-2.63013E-19 7.65832E-19
 -1      1058 9.44734E-05-2.73772E-05-2.87556E-05 5.46897E-07 6.72420E-20 2.45530E-18
 -1      1059 9.47155E-05-2.76772E-05-2.87307E-05 3.95085E-07 2.23099E-19 1.55097E-18
 -1      1060 9.48945E-05-2.79150E-05-2.87056E-05 2.78255E-07-7.03771E-19-1.61302E-19
 -1      1061 9.50241E-05-2.81001E-05-2.86817E-05 1.89840E-07 2.00306E-19 5.89089E-19
 -1      1062 9.51154E-05-2.82415E-05-2.86603E-05 1.24129E-07-4.17134E-20 1.09683E-18
 -1      1063 9.51776E-05-2.83474E-05-2.86415E-05 7.62555E-08 1.59433E-18 1.13734E-18
 -1      1064 9.52182E-05-2.84252E-05-2.86256E-05 4.21621E-08 1.91544E-18 2.50461E-18
 -1      1065 9.52431E-05-2.84810E-05-2.86123E-05 1.85246E-08 1.15143E-18 2.86667E-18
 -1      1066 9.52568E-05-2.85201E-05-2.86014E-05 2.82654E-09-3.14135E-20 1.63680E-18
 -1      1067 9.52619E-05-2.85409E-05-2.85947E-05-4.86447E-09-5.83407E-19 2.75084E-18
 -1      1068 8.45868E-05-2.14098E-05-2.70772E-05 6.78728E-06-6.94389E-19-1.08385E-18
 -1      1069 8.02856E-05-2.20202E-05-2.49668E-05 1.19833E-05-1.97810E-18-2.39251E-19
 -1      1070 8.40095E-05-1.78141E-05-2.83723E-05-7.32466E-06 4.84535E-19-2.85655E-18
 -1      1071 8.05377E-05-2.42281E-05-2.41149E-05 1.56277E-05-2.43423E-18-5.95963E-19
 -1      1072 7.36218E-05-1.75928E-05-2.39508E-05 1.18398E-05 9.72627E-19-2.91362E-18
 -1      1073 9.52660E-05-2.85602E-05-2.85882E-05-5.58899E-09 1.49589E-18 8.23355E-19
 -1      1074 7.56127E-05-1.54677E-05-2.57854E-05 6.78260E-06 4.41324E-19-3.15331E-18
 -1      1075 8.64440E-05-2.18191E-05-2.76971E-05 5.31077E-06 6.67196E-20-1.51180E-18
 -1      1076 7.53250E-05-1.81851E-05-2.44635E-05-6.61450E-06 7.94075E-20 9.89417E-19
 -1      1077 6.91956E-05-1.46598E-05-2.33183E-05-6.04209E-06 3.10027E-21-3.94986E-18
 -1      1078 9.52645E-05-2.85500E-05-2.85919E-05 5.85645E-09-1.49465E-18-1.42674E-18
 -1      1079 7.27580E-05-1.76798E-05-2.35975E-05 7.28280E-06-1.16898E-18-1.08389E-18
 -1      1080 7.71998E-05-1.91914E-05-2.48363E-05-1.26070E-05-4.18985E-19-3.69972E-18
 -1      1081 9.52650E-05-2.85456E-05-2.85940E-05-5.82490E-10 1.13544E-19-1.26648E-19
 -1      1082 7.44104E-05-1.41528E-05-2.58251E-05-3.56764E-06 8.72030E-20-3.66060E-18
 -1      1083 8.13585E-05-1.87038E-05-2.68483E-05-9.83944E-06-8.61686E-20-3.02638E-18
 -1      1084 7.67470E-05-1.76894E-05-2.53170E-05-1.16109E-06-7.96729E-19-8.38609E-19
 -1      1085 8.32798E-05-1.99103E-05-2.71577E-05-9.51630E-07 3.01389E-19-4.15782E-21
 -1      1086 8.57236E-05-2.09849E-05-2.77458E-05-7.53134E-07-3.71426E-19 1.28917E-18
 -1      1087 8.76948E-05-2.20215E-05-2.81462E-05-6.01377E-07-3.15283E-19 1.27737E-18
 -1      1088 8.93056E-05-2.30103E-05-2.84126E-05-4.80955E-07-1.46833E-20 9.81584E-19
 -1      1089 9.06229E-05-2.39304E-05-2.85827E-05-3.83131E-07 7.43657E-20 3.57861E-19
 -1      1090 9.16945E-05-2.47644E-05-2.86845E-05-3.02666E-07-4.01775E-20-2.28421E-18
 -1      1091 9.25579E-05-2.55011E-05-2.87387E-05-2.36354E-07-6.86136E-19-3.11079E-18
 -1      1092 9.32452E-05-2.61366E-05-2.87609E-05-1.82013E-07-7.69910E-19-2.24791E-18
 -1      1093 9.37847E-05-2.66730E-05-2.87622E-05-1.37943E-07-1.34455E-19-2.48278E-19
 -1      1094 9.42017E-05-2.71164E-05-2.87508E-05-1.02672E-07-5.82349E-20-7.50457E-19
 -1      1095 9.45187E-05-2.74761E-05-2.87325E-05-7.48589E-08 5.90913E-19 2.82646E-19
 -1      1096 9.47553E-05-2.77625E-05-2.87112E-05-5.32749E-08 5.04889E-19 1.02680E-19
 -1      1097 9.49283E-05-2.79865E-05-2.86893E-05-3.68062E-08-6.73422E-19-2.22861E-19
 -1      1098 9.50518E-05-2.81585E-05-2.86685E-05-2.44656E-08-1.19890E-18-1.03321E-18
 -1      1099 9.51374E-05-2.82882E-05-2.86497E-05-1.53985E-08 7.53189E-19-1.18116E-18
 -1      1100 9.51947E-05-2.83840E-05-2.86331E-05-8.88296E-09-6.14352E-19-2.61124E-18
 -1      1101 9.52309E-05-2.84533E-05-2.86190E-05-4.30744E-09 6.00642E-19-2.75355E-18
 -1      1102 9.52522E-05-2.85023E-05-2.86071E-05-1.13782E-09 9.31370E-19-2.65925E-18
 -1      1103 9.05382E-05-2.38626E-05-2.85749E-05 1.33494E-06 1.31024E-19-1.26252E-18
 -1      1104 8.76315E-05-2.20322E-05-2.81134E-05 2.13061E-06-2.59857E-19-9.01039E-19
 -1      1105 9.24854E-05-2.54204E-05-2.87419E-05 8.18422E-07-7.69068E-19-1.08191E-18
 -1      1106 9.31825E-05-2.60604E-05-2.87665E-05 6.30099E-07 2.56714E-19-7.57985E-19
 -1      1107 9.37321E-05-2.66044E-05-2.87689E-05 4.78166E-07-2.10919E-19-1.60070E-18
 -1      1108 9.41587E-05-2.70570E-05-2.87578E-05 3.56895E-07-9.35404E-19-1.88707E-18
 -1      1109 9.44843E-05-2.74261E-05-2.87392E-05 2.61343E-07 1.18488E-18-1.86005E-18
 -1      1110 9.47284E-05-2.77214E-05-2.87172E-05 1.87133E-07-1.51104E-19-1.71380E-18
 -1      1111 9.49076E-05-2.79534E-05-2.86946E-05 1.30394E-07-9.39229E-19-2.16479E-18
 -1      1112 9.50363E-05-2.81325E-05-2.86731E-05 8.77413E-08 3.91237E-21-2.37473E-18
 -1      1113 9.51262E-05-2.82680E-05-2.86535E-05 5.62638E-08 2.44275E-19-1.87029E-18
 -1      1114 9.51867E-05-2.83687E-05-2.86363E-05 3.35098E-08 5.47876E-20-7.14600E-19
 -1      1115 9.52256E-05-2.84419E-05-2.86215E-05 1.74587E-08 4.74754E-19 1.72178E-18
 -1      1116 9.52486E-05-2.84938E-05-2.86092E-05 6.55638E-09 1.20042E-18 3.08071E-18
 -1      1117 7.68786E-05-1.85884E-05-2.49496E-05 6.13119E-06-1.50468E-18-1.90300E-18
 -1      1118 8.92246E-05-2.29696E-05-2.83945E-05 1.68715E-06-4.35369E-19-1.11852E-18
 -1      1119 9.52633E-05-2.85418E-05-2.85949E-05-3.13127E-09 4.83444E-19 7.77435E-19
 -1      1120 8.04288E-05-1.88624E-05-2.63818E-05-1.00409E-06-4.75970E-19-1.24655E-18
 -1      1121 8.04473E-05-1.93256E-05-2.61992E-05 4.59854E-06-7.02932E-19-1.15940E-18
 -1      1122 9.16139E-05-2.46851E-05-2.86835E-05 1.05018E-06-1.15098E-18-6.71528E-19
 -1      1123 9.52583E-05-2.85213E-05-2.86016E-05 6.21750E-10-1.98292E-19 2.24606E-18
 -1      1124 8.33523E-05-2.01687E-05-2.70793E-05 3.48313E-06 1.92442E-19-1.62861E-18
 -1      1125 8.57014E-05-2.10837E-05-2.76927E-05 2.70630E-06 5.29308E-19-1.38670E-18
 -1      1126 1.18998E-04 2.66475E-10-4.29098E-05-3.97896E-05-3.86671E-19 1.58696E-17
 -1      1127 9.21956E-05 8.12460E-11-3.85684E-05-2.09365E-05-2.39499E-19 3.22518E-18
 -1      1128 8.69151E-05 4.67222E-11-3.68615E-05-1.36308E-05-1.78089E-19-2.47443E-18
 -1      1129 8.38277E-05 3.28276E-11-3.56763E-05-9.15845E-06-1.23402E-19-5.32238E-18
 -1      1130 8.14588E-05 2.39065E-11-3.47397E-05-5.98638E-06-8.09446E-20-6.75249E-18
 -1      1131 7.95615E-05 1.74255E-11-3.39891E-05-3.72036E-06-5.09808E-20-7.50989E-18
 -1      1132 7.81276E-05 1.27200E-11-3.34225E-05-2.10805E-06-3.94929E-20-7.87381E-18
 -1      1133 7.72182E-05 9.83554E-12-3.30643E-05-9.27424E-07-1.60672E-20-7.99946E-18
 -1      1134 7.69141E-05 8.89500E-12-3.29444E-05 2.62367E-08 2.17052E-21-8.02937E-18
 -1      1135 7.72384E-05 9.94640E-12-3.30717E-05 9.86456E-07 2.41272E-20-7.99683E-18
 -1      1136 7.81646E-05 1.29383E-11-3.34362E-05 2.18661E-06 3.74018E-20-7.83403E-18
 -1      1137 7.96135E-05 1.76936E-11-3.40065E-05 3.83106E-06 6.60686E-20-7.38573E-18
 -1      1138 8.15152E-05 2.43462E-11-3.47588E-05 6.14014E-06 9.50794E-20-6.54968E-18
 -1      1139 8.38795E-05 3.34231E-11-3.56963E-05 9.37391E-06 1.39284E-19-5.00538E-18
 -1      1140 8.69304E-05 4.72642E-11-3.68866E-05 1.39029E-05 1.84653E-19-2.12368E-18
 -1      1141 9.18783E-05 7.65095E-11-3.86259E-05 2.08429E-05 2.14193E-19 3.68152E-18
 -1      1142 1.09164E-04 1.75348E-10-4.17370E-05 3.44384E-05 4.89373E-19 1.59416E-17
 -1      1143 1.32345E-04-2.66474E-05-4.13336E-05-2.50316E-05-1.72594E-18 2.39300E-17
 -1      1144 1.03315E-04-3.06423E-05-3.33716E-05-3.35391E-07-5.40672E-19 1.99245E-17
 -1      1145 9.91346E-05-2.97406E-05-3.05552E-05 4.84173E-07-2.19699E-19 1.41669E-17
 -1      1146 9.99744E-05-3.01019E-05-3.01634E-05 3.30560E-07-1.32614E-19 1.03405E-17
 -1      1147 1.02470E-04-3.08236E-05-3.07743E-05 2.61257E-07-8.84703E-20 7.65982E-18
 -1      1148 1.05815E-04-3.17854E-05-3.17374E-05 2.31415E-07-1.02435E-19 5.66154E-18
 -1      1149 1.09392E-04-3.28210E-05-3.27593E-05 2.04259E-07-8.03763E-20 4.09916E-18
 -1      1150 1.12492E-04-3.37170E-05-3.36089E-05 1.49823E-07-9.41762E-20 3.44020E-18
 -1      1151 1.14209E-04-3.42009E-05-3.40249E-05 3.81434E-08 3.93738E-21 1.92220E-18
 -1      1152 1.13517E-04-3.39713E-05-3.37377E-05-1.50064E-07-6.20981E-20 9.17734E-19
 -1      1153 1.09628E-04-3.28037E-05-3.25770E-05-3.96310E-07-8.23640E-20-5.04461E-19
 -1      1154 1.02624E-04-3.07390E-05-3.06314E-05-6.14412E-07 1.74701E-21-9.66994E-19
 -1      1155 9.40749E-05-2.82505E-05-2.83631E-05-6.62036E-07 4.36636E-20-1.54478E-18
 -1      1156 8.69482E-05-2.61973E-05-2.65338E-05-4.35451E-07-5.33565E-20-1.80953E-18
 -1      1157 8.43283E-05-2.54497E-05-2.58813E-05 9.67323E-09-6.02783E-20-3.24890E-18
 -1      1158 8.75456E-05-2.63761E-05-2.67130E-05 4.54571E-07-1.64252E-19-3.87687E-18
 -1      1159 9.52651E-05-2.86066E-05-2.87209E-05 6.81038E-07-3.18878E-20-4.54200E-18
 -1      1160 1.04408E-04-3.12734E-05-3.11696E-05 6.35236E-07-1.38164E-19-4.96552E-18
 -1      1161 1.12025E-04-3.35211E-05-3.33012E-05 4.22107E-07-1.80871E-19-6.09715E-18
 -1      1162 1.16559E-04-3.48800E-05-3.46561E-05 1.83367E-07-9.89771E-20-6.20838E-18
 -1      1163 1.17925E-04-3.53082E-05-3.51451E-05 5.35866E-09-1.64788E-19-6.40572E-18
 -1      1164 1.16887E-04-3.50215E-05-3.49324E-05-9.25919E-08-7.82695E-20-4.74558E-18
 -1      1165 1.14423E-04-3.43051E-05-3.42738E-05-1.27832E-07 1.31144E-19-3.96112E-18
 -1      1166 1.11354E-04-3.34019E-05-3.34054E-05-1.25858E-07-1.64655E-19-6.21938E-18
 -1      1167 1.08234E-04-3.24777E-05-3.24975E-05-1.06860E-07 1.09803E-19-6.53714E-18
 -1      1168 1.05377E-04-3.16273E-05-3.16518E-05-8.31361E-08 3.10184E-20-3.96149E-18
 -1      1169 1.02925E-04-3.08944E-05-3.09176E-05-6.08120E-08 1.60797E-19-3.32883E-18
 -1      1170 1.00911E-04-3.02906E-05-3.03101E-05-4.22535E-08-5.86719E-20-4.17457E-18
 -1      1171 9.93113E-05-2.98096E-05-2.98249E-05-2.78857E-08-1.34917E-19-3.61068E-18
 -1      1172 9.80755E-05-2.94370E-05-2.94484E-05-1.72895E-08 1.88823E-19-2.85762E-18
 -1      1173 9.71438E-05-2.91553E-05-2.91635E-05-9.77311E-09-4.07295E-19-2.71605E-18
 -1      1174 9.64579E-05-2.89474E-05-2.89531E-05-4.63510E-09-1.92127E-19-4.74632E-18
 -1      1175 9.59654E-05-2.87977E-05-2.88015E-05-1.26590E-09 1.57179E-20-5.20646E-18
 -1      1176 9.56217E-05-2.86928E-05-2.86953E-05 8.26294E-10 4.84362E-20-6.11437E-18
 -1      1177 9.53900E-05-2.86219E-05-2.86233E-05 2.02176E-09-6.15395E-20-7.75959E-18
 -1      1178 9.52409E-05-2.85759E-05-2.85767E-05 2.60629E-09 2.29125E-19-5.98493E-18
 -1      1179 9.51512E-05-2.85481E-05-2.85484E-05 2.78998E-09 8.61211E-20-4.70347E-18
 -1      1180 9.51034E-05-2.85330E-05-2.85330E-05 2.72417E-09-1.67104E-19-4.70355E-18
 -1      1181 9.50840E-05-2.85266E-05-2.85264E-05 2.51563E-09 2.78417E-20-5.26068E-18
 -1      1182 9.50832E-05-2.85259E-05-2.85257E-05 2.23782E-09 3.87241E-19-3.70603E-18
 -1      1183 9.50941E-05-2.85288E-05-2.85286E-05 1.93978E-09-3.45692E-19-4.49042E-18
 -1      1184 9.51116E-05-2.85339E-05-2.85336E-05 1.65274E-09-9.59680E-20-5.78008E-18
 -1      1185 9.51324E-05-2.85399E-05-2.85397E-05 1.39509E-09 4.39196E-19-3.93339E-18
 -1      1186 9.51541E-05-2.85463E-05-2.85461E-05 1.17550E-09-6.94497E-20-8.57909E-19
 -1      1187 9.51755E-05-2.85527E-05-2.85525E-05 9.94216E-10-1.31443E-19-1.36685E-18
 -1      1188 9.51953E-05-2.85585E-05-2.85583E-05 8.41392E-10 2.00508E-19 1.37640E-19
 -1      1189 9.52127E-05-2.85637E-05-2.85635E-05 6.89522E-10-1.48254E-19 1.32542E-18
 -1      1190 9.52266E-05-2.85678E-05-2.85675E-05 4.65197E-10 1.29998E-20 1.99381E-19
 -1      1191 9.52353E-05-2.85703E-05-2.85701E-05 1.82665E-11-5.69739E-20 2.11373E-18
 -1      1192 9.52379E-05-2.85714E-05-2.85716E-05-2.80489E-10 5.63380E-19 1.65580E-18
 -1      1193 1.33018E-04-3.81281E-05-3.97868E-05 1.18808E-05-2.79627E-19 2.61009E-17
 -1      1194 1.02570E-04-3.00102E-05-3.31465E-05 6.69665E-07 2.05882E-19 2.03825E-17
 -1      1195 9.93116E-05-2.96390E-05-3.05365E-05 6.51755E-08 1.34374E-19 1.49791E-17
 -1      1196 1.00001E-04-3.00145E-05-3.01893E-05-3.01596E-08 1.29728E-19 1.11002E-17
 -1      1197 1.02420E-04-3.07551E-05-3.07816E-05-7.81447E-08 1.05108E-19 8.52247E-18
 -1      1198 1.05698E-04-3.17158E-05-3.17201E-05-1.20825E-07 1.37635E-19 6.59558E-18
 -1      1199 1.09200E-04-3.27376E-05-3.27170E-05-1.67055E-07 1.43268E-20 5.52559E-18
 -1      1200 1.12217E-04-3.36160E-05-3.35378E-05-2.05807E-07 1.06640E-20 5.01788E-18
 -1      1201 1.13852E-04-3.40917E-05-3.39216E-05-2.09173E-07 5.82567E-20 3.57917E-18
 -1      1202 1.13105E-04-3.38779E-05-3.36052E-05-1.37140E-07 3.36497E-20 3.04228E-18
 -1      1203 1.09221E-04-3.27567E-05-3.24283E-05 4.04254E-08 1.04979E-19 2.28995E-18
 -1      1204 1.02299E-04-3.07456E-05-3.04889E-05 3.00305E-07-5.93502E-20 2.95106E-18
 -1      1205 9.38814E-05-2.82660E-05-2.82518E-05 5.33019E-07 2.03650E-19 2.35380E-18
 -1      1206 8.68683E-05-2.61458E-05-2.64684E-05 5.84621E-07 5.27278E-20 1.31613E-18
 -1      1207 8.42793E-05-2.52977E-05-2.58562E-05 3.79081E-07-2.73433E-20 7.91499E-19
 -1      1208 8.74267E-05-2.61738E-05-2.67036E-05 7.78474E-09 4.99816E-20-2.62580E-19
 -1      1209 9.50184E-05-2.84351E-05-2.86978E-05-3.32490E-07-1.34152E-20-2.03023E-18
 -1      1210 1.04044E-04-3.11721E-05-3.11155E-05-4.93768E-07 1.24353E-19-4.02870E-18
 -1      1211 1.11602E-04-3.34770E-05-3.32174E-05-4.64433E-07 5.39553E-20-5.98196E-18
 -1      1212 1.16147E-04-3.48611E-05-3.45568E-05-3.26244E-07-6.53142E-21-5.25936E-18
 -1      1213 1.17571E-04-3.52914E-05-3.50468E-05-1.69271E-07-1.28825E-19-2.90676E-18
 -1      1214 1.16613E-04-3.49979E-05-3.48468E-05-4.52050E-08-6.41809E-20-1.67898E-18
 -1      1215 1.14227E-04-3.42749E-05-3.42058E-05 3.23165E-08-1.05399E-20-4.12206E-18
 -1      1216 1.11221E-04-3.33687E-05-3.33550E-05 7.04335E-08 3.44764E-19-7.68424E-18
 -1      1217 1.08149E-04-3.24450E-05-3.24619E-05 8.21571E-08-3.08383E-20-7.58695E-18
 -1      1218 1.05325E-04-3.15976E-05-3.16277E-05 7.89855E-08-3.85520E-20-4.82507E-18
 -1      1219 1.02894E-04-3.08688E-05-3.09017E-05 6.88706E-08-1.75772E-20-2.36351E-18
 -1      1220 1.00894E-04-3.02692E-05-3.02999E-05 5.65558E-08 1.27971E-19-2.46505E-18
 -1      1221 9.93024E-05-2.97923E-05-2.98185E-05 4.45406E-08-2.28390E-19-2.64449E-18
 -1      1222 9.80712E-05-2.94231E-05-2.94445E-05 3.39534E-08-9.06230E-20-2.21807E-18
 -1      1223 9.71420E-05-2.91445E-05-2.91612E-05 2.51601E-08 2.10804E-19-2.37552E-18
 -1      1224 9.64574E-05-2.89390E-05-2.89518E-05 1.81406E-08-1.67572E-20-1.39640E-18
 -1      1225 9.59655E-05-2.87913E-05-2.88008E-05 1.27021E-08 2.85352E-19 4.35759E-19
 -1      1226 9.56221E-05-2.86880E-05-2.86950E-05 8.59343E-09-1.19030E-19-1.48207E-18
 -1      1227 9.53904E-05-2.86183E-05-2.86233E-05 5.56156E-09-3.39504E-19-2.48884E-18
 -1      1228 9.52412E-05-2.85734E-05-2.85768E-05 3.37761E-09-1.90184E-19-3.37763E-18
 -1      1229 9.51515E-05-2.85463E-05-2.85485E-05 1.84594E-09 3.64958E-19-5.68312E-18
 -1      1230 9.51036E-05-2.85317E-05-2.85332E-05 8.05328E-10 1.24839E-19-6.12859E-18
 -1      1231 9.50841E-05-2.85257E-05-2.85266E-05 1.26275E-10-6.67750E-20-6.35466E-18
 -1      1232 9.50833E-05-2.85254E-05-2.85258E-05-2.93188E-10 3.73396E-19-7.44446E-18
 -1      1233 9.50941E-05-2.85285E-05-2.85287E-05-5.32113E-10-6.15330E-19-6.11945E-18
 -1      1234 9.51116E-05-2.85337E-05-2.85337E-05-6.51042E-10 4.48139E-20-3.55709E-18
 -1      1235 9.51324E-05-2.85399E-05-2.85398E-05-6.95965E-10 5.20501E-19-4.68758E-18
 -1      1236 9.51542E-05-2.85464E-05-2.85462E-05-7.01683E-10-2.73922E-19-3.03638E-18
 -1      1237 9.51755E-05-2.85527E-05-2.85525E-05-6.94174E-10 3.98482E-19-4.70251E-18
 -1      1238 9.51953E-05-2.85586E-05-2.85584E-05-6.90756E-10 7.99301E-19-8.92336E-18
 -1      1239 9.52127E-05-2.85638E-05-2.85635E-05-6.95836E-10 8.15781E-20-8.16686E-18
 -1      1240 9.52266E-05-2.85679E-05-2.85675E-05-6.69842E-10 8.56226E-20-6.17635E-18
 -1      1241 9.52354E-05-2.85705E-05-2.85702E-05-4.37080E-10 3.75836E-19-4.01493E-18
 -1      1242 9.52378E-05-2.85714E-05-2.85716E-05 2.41193E-10-5.18628E-19-2.50371E-18
 -1      1243 9.52369E-05-2.85705E-05-2.85716E-05 2.06961E-10-1.68666E-18-8.66979E-19
 -1      1244 9.52379E-05-2.85731E-05-2.85701E-05-1.85711E-11 1.13404E-18-2.13571E-19
 -1      1245 9.52403E-05-2.85815E-05-2.85677E-05-5.05189E-10 7.06358E-18 1.04432E-19
 -1      1246 9.52439E-05-2.85936E-05-2.85643E-05-6.42050E-10 7.12168E-18 5.21931E-19
 -1      1247 9.52477E-05-2.86067E-05-2.85606E-05-6.14129E-10 5.24157E-18-5.08871E-19
 -1      1248 9.52513E-05-2.86185E-05-2.85572E-05-4.99906E-10-3.50591E-18-1.63035E-18
 -1      1249 9.52540E-05-2.86279E-05-2.85544E-05-3.55318E-10-3.30289E-18 1.30928E-20
 -1      1250 9.52558E-05-2.86339E-05-2.85527E-05-1.80996E-10 2.02196E-18-4.38834E-19
 -1      1251 9.52564E-05-2.86359E-05-2.85521E-05 1.54493E-12 1.55669E-18-4.51575E-19
 -1      1252 9.52558E-05-2.86338E-05-2.85527E-05 1.84088E-10 8.08410E-18 1.93087E-19
 -1      1253 9.52540E-05-2.86278E-05-2.85545E-05 3.57928E-10 4.71554E-18-1.54932E-18
 -1      1254 9.52512E-05-2.86183E-05-2.85572E-05 5.10315E-10-3.22426E-18-3.20245E-19
 -1      1255 9.52477E-05-2.86064E-05-2.85606E-05 6.15810E-10-3.34573E-18 2.87832E-19
 -1      1256 9.52438E-05-2.85934E-05-2.85644E-05 6.51096E-10-2.83918E-18-1.26953E-19
 -1      1257 9.52402E-05-2.85812E-05-2.85677E-05 6.01155E-10-6.66452E-18-1.55392E-19
 -1      1258 9.52380E-05-2.85732E-05-2.85702E-05-1.10726E-10-4.26770E-18-1.73529E-19
 -1      1259 9.52369E-05-2.85704E-05-2.85716E-05-2.14956E-10-1.42494E-18 6.44183E-19
 -1      1260 3.42703E-05-1.07423E-04 1.82395E-05-1.37801E-05 8.95483E-18 2.21391E-18
 -1      1261 1.74594E-05-6.54075E-05 9.67709E-06-2.48471E-05 2.01856E-17 7.44140E-18
 -1      1262 7.75298E-06-8.70697E-06-6.17685E-06 7.36885E-08 2.41540E-17 1.56904E-17
 -1      1263 3.40428E-05 2.41956E-05-2.58862E-05 5.25300E-05 2.34967E-17 2.25955E-17
 -1      1264 1.06281E-04 1.31882E-05-4.61025E-05 9.97101E-05 1.66425E-17 2.33171E-17
 -1      1265 2.03138E-04-3.10200E-05-6.34136E-05 1.08954E-04 7.57036E-18 1.65764E-17
 -1      1266 2.85028E-04-7.78705E-05-7.48524E-05 6.63704E-05 1.71408E-18 3.69476E-18
 -1      1267 3.11872E-04-9.39743E-05-7.82151E-05-1.12948E-05 1.38988E-18-1.25857E-17
 -1      1268 2.65445E-04-6.56392E-05-7.23703E-05-8.36821E-05 7.17543E-18-2.61183E-17
 -1      1269 1.72326E-04-1.47563E-05-5.85820E-05-1.12947E-04 1.72786E-17-3.34290E-17
 -1      1270 8.02000E-05 2.20319E-05-4.04087E-05-8.96222E-05 2.61877E-17-3.31580E-17
 -1      1271 2.17618E-05 1.91955E-05-2.01578E-05-3.67889E-05 2.97783E-17-2.55262E-17
 -1      1272 8.21281E-06-2.56205E-05-5.76968E-07 1.16441E-05 2.71694E-17-1.48908E-17
 -1      1273 2.46813E-05-8.41429E-05 1.35726E-05 2.53490E-05 1.61885E-17-5.29819E-18
 -1      1274 3.72688E-05-1.14327E-04 1.93175E-05 3.45330E-06 1.74912E-18-1.27547E-18
 -1      1275 2.73379E-05-9.25552E-05 1.55010E-05-2.10895E-05-1.36889E-17-4.39165E-18
 -1      1276 1.03864E-05-3.97975E-05 3.18377E-06-1.85515E-05-2.42641E-17-1.17483E-17
 -1      1277 1.23754E-05 9.97083E-06-1.38495E-05 1.93108E-05-2.67900E-17-2.00882E-17
 -1      1278 5.69077E-05 2.58785E-05-3.39715E-05 7.42244E-05-2.44987E-17-2.75404E-17
 -1      1279 1.42343E-04-5.45788E-07-5.34588E-05 1.10208E-04-1.73582E-17-2.90465E-17
 -1      1280 2.36205E-04-4.88823E-05-6.84290E-05 1.01701E-04-8.15862E-18-2.31409E-17
 -1      1281 3.00568E-04-8.74831E-05-7.69211E-05 4.71586E-05-2.27571E-18-1.07484E-17
 -1      1282 3.08169E-04-9.21778E-05-7.78307E-05-2.84387E-05-8.97590E-19 2.76387E-18
 -1      1283 2.56160E-04-6.10111E-05-7.10298E-05-9.06614E-05-4.94900E-18 1.46333E-17
 -1      1284 1.63430E-04-1.09821E-05-5.70095E-05-1.10838E-04-1.27470E-17 2.38846E-17
 -1      1285 7.56802E-05 2.23439E-05-3.89609E-05-8.60659E-05-1.96088E-17 2.43386E-17
 -1      1286 2.13112E-05 1.88741E-05-1.98458E-05-3.58592E-05-2.15062E-17 1.86093E-17
 -1      1287 7.16019E-06-2.00828E-05-2.06980E-06 9.43596E-06-2.19466E-17 1.25200E-17
 -1      1288 1.98678E-05-7.25330E-05 1.14004E-05 2.57890E-05-1.44360E-17 5.10253E-18
 -1      1289 3.50789E-05-1.09155E-04 1.85513E-05 1.25760E-05-4.74127E-18 1.01154E-18
 -1      1290 1.08506E-04-2.30331E-05-3.91486E-05-1.56671E-05-6.43639E-19 1.32688E-17
 -1      1291 9.44472E-05-7.60647E-06-3.73490E-05-1.68389E-05-1.90477E-18 5.81912E-19
 -1      1292 9.71258E-05-7.82309E-06-3.85651E-05-2.25649E-05-2.40091E-18 3.57776E-18
 -1      1293 8.87916E-05-4.60833E-06-3.61381E-05-1.20361E-05-1.95908E-18-3.69301E-18
 -1      1294 9.07061E-05-4.65414E-06-3.68049E-05-1.47599E-05-2.21107E-18-1.82266E-18
 -1      1295 9.63792E-05-1.16533E-05-3.63691E-05-1.50926E-05-3.34909E-18 5.09808E-19
 -1      1296 8.52243E-05-3.25722E-06-3.51580E-05-8.19719E-06-1.64700E-18-5.89675E-18
 -1      1297 8.66808E-05-3.26318E-06-3.56713E-05-1.00595E-05-1.85341E-18-4.88780E-18
 -1      1298 9.04538E-05-7.86565E-06-3.54626E-05-1.09699E-05-3.10043E-18-3.03415E-18
 -1      1299 8.24359E-05-2.36995E-06-3.43361E-05-5.34503E-06-1.24802E-18-7.08450E-18
 -1      1300 8.36196E-05-2.37919E-06-3.47547E-05-6.69678E-06-1.41732E-18-6.54719E-18
 -1      1301 8.63859E-05-5.68568E-06-3.46481E-05-7.47549E-06-2.49765E-18-4.97044E-18
 -1      1302 8.02441E-05-1.72322E-06-3.36737E-05-3.29645E-06-8.68341E-19-7.69404E-18
 -1      1303 8.11731E-05-1.73424E-06-3.40014E-05-4.26300E-06-1.01244E-18-7.39392E-18
 -1      1304 8.32571E-05-4.18950E-06-3.39387E-05-4.86641E-06-1.85691E-18-5.95880E-18
 -1      1305 7.86104E-05-1.25119E-06-3.31764E-05-1.79380E-06-5.62575E-19-7.99659E-18
 -1      1306 7.92764E-05-1.26138E-06-3.34112E-05-2.50798E-06-6.56265E-19-7.88559E-18
 -1      1307 8.08289E-05-3.09983E-06-3.33579E-05-2.95561E-06-1.24820E-18-6.54198E-18
 -1      1308 7.76631E-05-9.63503E-07-3.28896E-05-6.76945E-07-1.97637E-19-8.06939E-18
 -1      1309 7.80062E-05-9.69321E-07-3.30106E-05-1.22647E-06-3.20589E-19-8.01893E-18
 -1      1310 7.91240E-05-2.36152E-06-3.29398E-05-1.54770E-06-7.39182E-19-6.71812E-18
 -1      1311 7.74683E-05-8.71657E-07-3.28358E-05 2.73621E-07 1.19438E-19-8.10961E-18
 -1      1312 7.74621E-05-8.71865E-07-3.28338E-05-2.22250E-07 2.07589E-20-8.11233E-18
 -1      1313 7.82516E-05-1.99100E-06-3.27229E-05-4.63439E-07-1.44161E-19-6.85287E-18
 -1      1314 7.80399E-05-9.80217E-07-3.30193E-05 1.28758E-06 4.43660E-19-8.02815E-18
 -1      1315 7.76855E-05-9.74749E-07-3.28948E-05 7.31385E-07 3.29324E-19-8.07075E-18
 -1      1316 7.82691E-05-2.00153E-06-3.27261E-05 5.14578E-07 3.68264E-19-6.86307E-18
 -1      1317 7.93336E-05-1.28405E-06-3.34253E-05 2.59113E-06 7.53701E-19-7.79706E-18
 -1      1318 7.86586E-05-1.27291E-06-3.31878E-05 1.86367E-06 6.40304E-19-7.95555E-18
 -1      1319 7.91744E-05-2.39236E-06-3.29487E-05 1.61114E-06 9.01667E-19-6.74606E-18
 -1      1320 8.12260E-05-1.75934E-06-3.40125E-05 4.35991E-06 1.10323E-18-7.29878E-18
 -1      1321 8.02939E-05-1.74906E-06-3.36842E-05 3.37815E-06 9.70223E-19-7.62027E-18
 -1      1322 8.08897E-05-3.14211E-06-3.33662E-05 3.02788E-06 1.43113E-18-6.44601E-18
 -1      1323 8.37072E-05-2.42348E-06-3.47717E-05 6.85584E-06 1.54221E-18-6.35115E-18
 -1      1324 8.25177E-05-2.41415E-06-3.43523E-05 5.47832E-06 1.36518E-18-6.92038E-18
 -1      1325 8.33362E-05-4.24989E-06-3.39469E-05 4.96908E-06 2.02843E-18-5.85048E-18
 -1      1326 8.67740E-05-3.31859E-06-3.56882E-05 1.02839E-05 2.00461E-18-4.64973E-18
 -1      1327 8.53203E-05-3.31882E-06-3.51743E-05 8.38813E-06 1.76262E-18-5.67761E-18
 -1      1328 8.65159E-05-5.78880E-06-3.46600E-05 7.64269E-06 2.68327E-18-4.78981E-18
 -1      1329 9.08205E-05-4.66750E-06-3.68294E-05 1.50223E-05 2.33527E-18-1.44162E-18
 -1      1330 8.88846E-05-4.67285E-06-3.61525E-05 1.23139E-05 2.06448E-18-3.36974E-18
 -1      1331 9.06114E-05-8.00564E-06-3.54720E-05 1.12228E-05 3.28328E-18-2.79492E-18
 -1      1332 9.77990E-05-7.83905E-06-3.84506E-05 2.20548E-05 2.04929E-18 4.76975E-18
 -1      1333 9.42943E-05-7.38571E-06-3.73720E-05 1.75228E-05 1.97994E-18 9.47830E-19
 -1      1334 9.66122E-05-1.18828E-05-3.63560E-05 1.57432E-05 3.52196E-18 8.47086E-19
 -1      1335 1.26769E-04-2.58479E-05-4.01657E-05 2.66975E-05 1.05572E-18 1.68693E-17
 -1      1336 1.04401E-04-1.55909E-05-3.86636E-05 2.16278E-05 1.03380E-18 8.45424E-18
 -1      1337 1.06667E-04-2.09424E-05-3.68043E-05 1.82300E-05 3.35528E-18 6.54333E-18
 -1      1338 1.07460E-04-2.93830E-05-3.61470E-05 5.77334E-06 1.89063E-18 1.60801E-17
 -1      1339 1.10489E-04-3.19257E-05-3.50756E-05-6.26774E-06-1.94479E-18 1.38432E-17
 -1      1340 1.05016E-04-2.99705E-05-3.27053E-05-3.53276E-06-1.77252E-18 1.15972E-17
 -1      1341 1.03094E-04-3.01437E-05-3.15096E-05-1.05751E-06-1.43265E-18 1.06369E-17
 -1      1342 1.02225E-04-3.02555E-05-3.08820E-05-6.37569E-07-1.34321E-18 8.57264E-18
 -1      1343 1.06183E-04-3.01586E-05-3.29463E-05-5.10171E-06-3.13709E-18 6.28575E-18
 -1      1344 1.01554E-04-3.01750E-05-3.05773E-05 5.94316E-07-1.02146E-18 7.76605E-18
 -1      1345 1.02205E-04-3.04910E-05-3.06857E-05 7.22579E-07-9.65068E-19 6.31767E-18
 -1      1346 1.03267E-04-3.03389E-05-3.13850E-05-3.46075E-07-2.36018E-18 4.76995E-18
 -1      1347 1.02546E-04-3.06234E-05-3.07822E-05 1.33807E-06-7.50716E-19 5.62665E-18
 -1      1348 1.03902E-04-3.10952E-05-3.11678E-05 1.41665E-06-8.65489E-19 4.51320E-18
 -1      1349 1.03122E-04-3.06483E-05-3.10978E-05 1.83648E-06-1.73074E-18 3.45922E-18
 -1      1350 1.04777E-04-3.13714E-05-3.14361E-05 1.70121E-06-6.49700E-19 4.16063E-18
 -1      1351 1.06429E-04-3.19253E-05-3.19128E-05 1.72973E-06-5.14232E-19 3.37770E-18
 -1      1352 1.04353E-04-3.11846E-05-3.13761E-05 2.92606E-06-1.39749E-18 2.56372E-18
 -1      1353 1.07528E-04-3.22804E-05-3.22376E-05 1.72886E-06-3.93994E-19 3.06908E-18
 -1      1354 1.09138E-04-3.28293E-05-3.26942E-05 1.69230E-06-3.39174E-19 2.65991E-18
 -1      1355 1.06326E-04-3.19259E-05-3.18903E-05 3.29105E-06-9.80015E-19 2.09010E-18
 -1      1356 1.10183E-04-3.31901E-05-3.29848E-05 1.35844E-06-2.57783E-19 2.49982E-18
 -1      1357 1.11355E-04-3.36129E-05-3.33063E-05 1.23258E-06-4.17958E-19 1.89999E-18
 -1      1358 1.08496E-04-3.27650E-05-3.24404E-05 2.91993E-06-6.34643E-19 1.64167E-18
 -1      1359 1.12046E-04-3.38900E-05-3.34714E-05 5.06554E-07-5.16009E-19 1.90740E-18
 -1      1360 1.12314E-04-3.40285E-05-3.35288E-05 2.72224E-07-2.90506E-19 1.19010E-18
 -1      1361 1.10307E-04-3.35394E-05-3.28566E-05 1.68005E-06-8.19564E-19 1.32412E-18
 -1      1362 1.12340E-04-3.41120E-05-3.34837E-05-8.29106E-07-2.69820E-19 1.22581E-18
 -1      1363 1.11262E-04-3.37973E-05-3.31643E-05-1.15915E-06-5.87973E-19 6.20558E-19
 -1      1364 1.11149E-04-3.40161E-05-3.29822E-05-4.93135E-07-5.83678E-19 1.29924E-18
 -1      1365 1.10380E-04-3.35732E-05-3.28619E-05-2.43155E-06-4.82425E-19 4.68806E-19
 -1      1366 1.07776E-04-3.27042E-05-3.21356E-05-2.77644E-06-3.01577E-19-4.51045E-20
 -1      1367 1.10440E-04-3.39021E-05-3.27068E-05-3.35819E-06-7.03964E-19 1.09026E-18
 -1      1368 1.05974E-04-3.21141E-05-3.16091E-05-3.75690E-06-2.60238E-19-4.57768E-19
 -1      1369 1.02225E-04-3.07852E-05-3.06003E-05-3.95451E-06-3.42648E-19-7.08172E-19
 -1      1370 1.07865E-04-3.29411E-05-3.20267E-05-6.13302E-06-5.64839E-19 4.91306E-19
 -1      1371 9.99085E-05-2.99325E-05-2.99868E-05-4.03940E-06-2.12982E-19-9.52065E-19
 -1      1372 9.61052E-05-2.85265E-05-2.89922E-05-3.91434E-06-3.82581E-19-1.15472E-18
 -1      1373 1.03758E-04-3.11574E-05-3.10944E-05-7.51197E-06-4.34613E-19-3.98317E-19
 -1      1374 9.41175E-05-2.77386E-05-2.85037E-05-2.75072E-06-2.95641E-19-1.51915E-18
 -1      1375 9.17419E-05-2.68333E-05-2.78962E-05-2.26652E-06-5.16862E-19-1.99836E-18
 -1      1376 9.93689E-05-2.90880E-05-3.02021E-05-6.26552E-06-7.19045E-19-1.22419E-18
 -1      1377 9.10152E-05-2.65265E-05-2.77299E-05-1.67634E-07-6.12233E-19-2.16982E-18
 -1      1378 9.11616E-05-2.65717E-05-2.77728E-05 4.76937E-07-6.06754E-19-2.85371E-18
 -1      1379 9.65621E-05-2.76921E-05-2.96799E-05-2.28319E-06-1.08804E-18-1.88104E-18
 -1      1380 9.21127E-05-2.69439E-05-2.80085E-05 2.57452E-06-6.66059E-19-2.95413E-18
 -1      1381 9.47801E-05-2.79393E-05-2.87013E-05 3.05794E-06-5.40526E-19-3.46140E-18
 -1      1382 9.67810E-05-2.77583E-05-2.97454E-05 2.88441E-06-8.96002E-19-2.38750E-18
 -1      1383 9.69892E-05-2.87911E-05-2.92585E-05 4.21921E-06-3.35597E-19-3.94876E-18
 -1      1384 1.01083E-04-3.02857E-05-3.03385E-05 4.34372E-06-1.53174E-19-4.27678E-18
 -1      1385 1.00023E-04-2.92849E-05-3.03978E-05 6.86164E-06-6.36109E-19-2.90933E-18
 -1      1386 1.03616E-04-3.11993E-05-3.10203E-05 4.26036E-06-2.75789E-19-4.31262E-18
 -1      1387 1.07659E-04-3.26180E-05-3.21158E-05 4.06466E-06-2.26813E-19-4.42829E-18
 -1      1388 1.04836E-04-3.14783E-05-3.14188E-05 8.10503E-06-2.21507E-19-3.90400E-18
 -1      1389 1.09675E-04-3.32689E-05-3.27101E-05 3.09107E-06-3.39118E-19-4.63666E-18
 -1      1390 1.12585E-04-3.42324E-05-3.35260E-05 2.74936E-06-2.53408E-19-4.95382E-18
 -1      1391 1.09361E-04-3.33836E-05-3.24783E-05 6.73574E-06-5.53642E-19-3.87528E-18
 -1      1392 1.13677E-04-3.45166E-05-3.38946E-05 1.48298E-06-1.79981E-19-4.78648E-18
 -1      1393 1.15073E-04-3.49314E-05-3.43066E-05 1.15563E-06-3.44266E-19-5.10938E-18
 -1      1394 1.12347E-04-3.44659E-05-3.32817E-05 3.97547E-06-2.85338E-19-3.80807E-18
 -1      1395 1.15243E-04-3.49038E-05-3.44138E-05 5.12761E-08 1.35883E-19-5.35018E-18
 -1      1396 1.15298E-04-3.48691E-05-3.44500E-05-1.82609E-07 2.45587E-19-4.83969E-18
 -1      1397 1.13446E-04-3.47004E-05-3.36722E-05 1.11179E-06-2.95184E-19-3.93902E-18
 -1      1398 1.14767E-04-3.46380E-05-3.43365E-05-9.31513E-07 2.07914E-19-4.31169E-18
 -1      1399 1.13903E-04-3.43176E-05-3.41041E-05-1.06164E-06 3.80457E-19-3.87676E-18
 -1      1400 1.12944E-04-3.43331E-05-3.36436E-05-1.09551E-06 5.30554E-19-3.86081E-18
 -1      1401 1.12945E-04-3.39820E-05-3.38441E-05-1.45479E-06 7.52056E-20-4.29808E-18
 -1      1402 1.11593E-04-3.35242E-05-3.34625E-05-1.50376E-06-2.89042E-19-4.57003E-18
 -1      1403 1.11365E-04-3.36434E-05-3.32882E-05-2.43855E-06-1.34920E-19-3.69773E-18
 -1      1404 1.10446E-04-3.31551E-05-3.31292E-05-1.62697E-06-2.73209E-19-4.42432E-18
 -1      1405 1.08935E-04-3.26642E-05-3.26944E-05-1.62396E-06-1.79017E-19-4.84463E-18
 -1      1406 1.09222E-04-3.28386E-05-3.27325E-05-3.03411E-06-3.68552E-19-3.84000E-18
 -1      1407 1.07766E-04-3.23056E-05-3.23440E-05-1.57637E-06 3.90226E-19-3.86678E-18
 -1      1408 1.06305E-04-3.18431E-05-3.19188E-05-1.54544E-06 6.86527E-19-3.19436E-18
 -1      1409 1.06906E-04-3.20434E-05-3.20913E-05-3.10829E-06 2.95109E-19-2.28183E-18
 -1      1410 1.05218E-04-3.15191E-05-3.15873E-05-1.40743E-06 4.57911E-20-3.03757E-18
 -1      1411 1.03918E-04-3.11148E-05-3.12061E-05-1.36490E-06 1.87461E-19-2.35673E-18
 -1      1412 1.04673E-04-3.13218E-05-3.14486E-05-2.87569E-06 7.78739E-19-1.80533E-18
 -1      1413 1.02964E-04-3.08359E-05-3.09126E-05-1.19114E-06 1.22288E-19-2.73307E-18
 -1      1414 1.01868E-04-3.04996E-05-3.05896E-05-1.14670E-06-4.10397E-20-2.88662E-18
 -1      1415 1.02666E-04-3.07003E-05-3.08562E-05-2.49621E-06 4.30845E-20-1.57275E-18
 -1      1416 1.01067E-04-3.02678E-05-3.03415E-05-9.70008E-07 4.92181E-20-3.07317E-18
 -1      1417 1.00178E-04-2.99980E-05-3.00786E-05-9.28756E-07-1.50385E-19-3.19354E-18
 -1      1418 1.00945E-04-3.01838E-05-3.03399E-05-2.07291E-06-3.13369E-19-2.26782E-18
 -1      1419 9.95256E-05-2.98109E-05-2.98761E-05-7.66493E-07-6.73730E-20-2.68977E-18
 -1      1420 9.88263E-05-2.96006E-05-2.96687E-05-7.30675E-07-9.72458E-20-2.80077E-18
 -1      1421 9.95232E-05-2.97663E-05-2.99079E-05-1.66472E-06 1.91195E-19-2.27687E-18
 -1      1422 9.83095E-05-2.94531E-05-2.95080E-05-5.90412E-07-1.63342E-19-2.47074E-18
 -1      1423 9.77736E-05-2.92932E-05-2.93486E-05-5.60637E-07-9.53036E-20-2.59152E-18
 -1      1424 9.83804E-05-2.94366E-05-2.95577E-05-1.30084E-06-3.29052E-20-1.70143E-18
 -1      1425 9.73735E-05-2.91795E-05-2.92241E-05-4.44248E-07-4.42264E-19-2.31162E-18
 -1      1426 9.69725E-05-2.90608E-05-2.91045E-05-4.20269E-07-5.08408E-19-2.71924E-18
 -1      1427 9.74845E-05-2.91817E-05-2.92813E-05-9.92250E-07-3.39759E-19-2.06223E-18
 -1      1428 9.66696E-05-2.89749E-05-2.90102E-05-3.26595E-07-4.72920E-19-2.45701E-18
 -1      1429 9.63766E-05-2.88889E-05-2.89226E-05-3.07766E-07-2.67763E-19-3.18275E-18
 -1      1430 9.67976E-05-2.89885E-05-2.90680E-05-7.39651E-07-8.25923E-19-1.74573E-18
 -1      1431 9.61522E-05-2.88254E-05-2.88527E-05-2.34225E-07-2.02612E-19-3.46381E-18
 -1      1432 9.59437E-05-2.87648E-05-2.87902E-05-2.19763E-07-5.59072E-19-3.89067E-18
 -1      1433 9.62821E-05-2.88452E-05-2.89070E-05-5.38506E-07-8.71126E-19-1.90211E-18
 -1      1434 9.57813E-05-2.87190E-05-2.87396E-05-1.63279E-07-5.21625E-19-3.76406E-18
 -1      1435 9.56372E-05-2.86775E-05-2.86962E-05-1.52401E-07-2.09548E-19-5.03206E-18
 -1      1436 9.59039E-05-2.87412E-05-2.87883E-05-3.82017E-07-9.40339E-19-2.67529E-18
 -1      1437 9.55228E-05-2.86453E-05-2.86606E-05-1.09911E-07 1.16752E-19-4.85812E-18
 -1      1438 9.54269E-05-2.86181E-05-2.86316E-05-1.01898E-07 4.18767E-19-4.88934E-18
 -1      1439 9.56330E-05-2.86676E-05-2.87027E-05-2.62825E-07-1.65757E-19-2.33547E-18
 -1      1440 9.53489E-05-2.85962E-05-2.86074E-05-7.05999E-08 4.37524E-19-4.86043E-18
 -1      1441 9.52883E-05-2.85794E-05-2.85889E-05-6.48286E-08 7.22311E-19-3.94020E-18
 -1      1442 9.54444E-05-2.86171E-05-2.86427E-05-1.73899E-07 7.24049E-19-3.26213E-18
 -1      1443 9.52373E-05-2.85652E-05-2.85730E-05-4.22872E-08 6.10382E-19-4.16890E-18
 -1      1444 9.52019E-05-2.85557E-05-2.85622E-05-3.82349E-08 1.46687E-19-3.29384E-18
 -1      1445 9.53177E-05-2.85837E-05-2.86020E-05-1.08961E-07 5.84680E-19-3.33708E-18
 -1      1446 9.51705E-05-2.85470E-05-2.85524E-05-2.24078E-08-4.45080E-19-4.35591E-18
 -1      1447 9.51528E-05-2.85426E-05-2.85468E-05-1.96475E-08-4.98250E-19-4.46214E-18
 -1      1448 9.52366E-05-2.85630E-05-2.85757E-05-6.26378E-08-5.78363E-19-3.44925E-18
 -1      1449 9.51353E-05-2.85378E-05-2.85414E-05-8.86654E-09 3.41003E-20-4.04333E-18
 -1      1450 9.51294E-05-2.85367E-05-2.85394E-05-7.05751E-09 2.09771E-19-3.97244E-18
 -1      1451 9.51884E-05-2.85512E-05-2.85597E-05-3.04753E-08-4.21656E-19-3.91359E-18
 -1      1452 9.51215E-05-2.85346E-05-2.85369E-05 8.68513E-12 3.63239E-19-4.19682E-18
 -1      1453 9.51233E-05-2.85357E-05-2.85372E-05 1.13321E-09-5.83819E-21-3.94028E-18
 -1      1454 9.51632E-05-2.85456E-05-2.85510E-05-8.87028E-09 4.39166E-19-2.96091E-18
 -1      1455 9.51218E-05-2.85354E-05-2.85368E-05 5.52461E-09-4.13094E-19-3.60798E-18
 -1      1456 9.51283E-05-2.85378E-05-2.85386E-05 6.16889E-09-6.85575E-19-4.64611E-18
 -1      1457 9.51538E-05-2.85441E-05-2.85474E-05 5.02824E-09-1.71788E-20-3.24063E-18
 -1      1458 9.51309E-05-2.85386E-05-2.85394E-05 8.67945E-09-4.46295E-19-4.12527E-18
 -1      1459 9.51399E-05-2.85417E-05-2.85419E-05 8.99611E-09 4.32066E-19-4.34331E-18
 -1      1460 9.51547E-05-2.85453E-05-2.85471E-05 1.34267E-08-4.42773E-19-3.23409E-18
 -1      1461 9.51450E-05-2.85432E-05-2.85435E-05 1.02148E-08 1.24005E-18-3.42383E-18
 -1      1462 9.51551E-05-2.85465E-05-2.85464E-05 1.03140E-08 1.12231E-18-2.34447E-18
 -1      1463 9.51620E-05-2.85481E-05-2.85489E-05 1.79904E-08 1.35230E-18-2.24343E-18
 -1      1464 9.51614E-05-2.85484E-05-2.85484E-05 1.06594E-08 6.46403E-19-1.06724E-18
 -1      1465 9.51718E-05-2.85517E-05-2.85514E-05 1.06160E-08 1.92641E-19-4.47803E-19
 -1      1466 9.51729E-05-2.85518E-05-2.85519E-05 1.99340E-08 1.69841E-18-1.11186E-18
 -1      1467 9.51785E-05-2.85537E-05-2.85535E-05 1.03621E-08 3.95577E-19 9.55012E-20
 -1      1468 9.51885E-05-2.85568E-05-2.85564E-05 1.02204E-08 5.67566E-19 6.79750E-20
 -1      1469 9.51854E-05-2.85559E-05-2.85555E-05 2.00947E-08 1.10328E-18 3.58951E-19
 -1      1470 9.51950E-05-2.85587E-05-2.85584E-05 9.51471E-09 8.29004E-19 5.21944E-19
 -1      1471 9.52041E-05-2.85616E-05-2.85610E-05 9.29041E-09 7.80444E-19 1.56670E-18
 -1      1472 9.51983E-05-2.85600E-05-2.85593E-05 1.89856E-08 1.39110E-18 1.70482E-18
 -1      1473 9.52100E-05-2.85634E-05-2.85628E-05 8.16337E-09-5.30511E-19 9.40255E-19
 -1      1474 9.52176E-05-2.85658E-05-2.85650E-05 7.84097E-09-1.05106E-18-2.61914E-19
 -1      1475 9.52105E-05-2.85638E-05-2.85628E-05 1.68310E-08 1.32584E-19 8.84368E-19
 -1      1476 9.52225E-05-2.85673E-05-2.85665E-05 6.22489E-09 1.44396E-19 4.64146E-19
 -1      1477 9.52281E-05-2.85691E-05-2.85681E-05 5.75066E-09 8.64933E-19 1.19356E-18
 -1      1478 9.52211E-05-2.85673E-05-2.85658E-05 1.35871E-08-5.48907E-19 4.90861E-19
 -1      1479 9.52318E-05-2.85704E-05-2.85691E-05 3.52344E-09 7.26121E-19 1.29202E-18
 -1      1480 9.52348E-05-2.85712E-05-2.85701E-05 2.89517E-09-2.15106E-19 2.28905E-18
 -1      1481 9.52296E-05-2.85703E-05-2.85681E-05 9.09654E-09 1.07817E-18 1.36751E-18
 -1      1482 9.52371E-05-2.85715E-05-2.85710E-05 1.39221E-11-2.11659E-18 2.12812E-18
 -1      1483 9.52359E-05-2.85722E-05-2.85700E-05 2.85533E-09-1.71249E-18 1.38920E-18
 -1      1484 1.03732E-04-3.05490E-05-3.18661E-05 1.73609E-06 1.64886E-18 1.24711E-17
 -1      1485 1.08203E-04-3.10930E-05-3.38496E-05 3.12760E-06 1.45398E-18 1.50748E-17
 -1      1486 1.08046E-04-2.86206E-05-3.43766E-05 1.03066E-05 2.86615E-18 9.59768E-18
 -1      1487 1.01541E-04-3.02853E-05-3.05991E-05-5.87745E-08 1.21157E-18 9.19883E-18
 -1      1488 1.02147E-04-3.00336E-05-3.11057E-05 2.70038E-07 1.18366E-18 1.12086E-17
 -1      1489 1.04089E-04-3.03635E-05-3.18014E-05 2.53067E-06 2.53451E-18 7.29711E-18
 -1      1490 1.02156E-04-3.05809E-05-3.06538E-05-9.31112E-07 7.94861E-19 6.74058E-18
 -1      1491 1.01417E-04-3.01801E-05-3.05168E-05-7.33818E-07 8.41613E-19 8.21288E-18
 -1      1492 1.02710E-04-3.04711E-05-3.10140E-05-5.09559E-07 1.88552E-18 5.32577E-18
 -1      1493 1.04210E-04-3.12411E-05-3.12493E-05-1.37830E-06 6.91109E-19 5.26103E-18
 -1      1494 1.02832E-04-3.07333E-05-3.08586E-05-1.25285E-06 5.52012E-19 6.21990E-18
 -1      1495 1.03359E-04-3.08464E-05-3.10982E-05-1.95605E-06 1.23640E-18 3.88351E-18
 -1      1496 1.06927E-04-3.20981E-05-3.20479E-05-1.53391E-06 4.30081E-19 4.16513E-18
 -1      1497 1.05283E-04-3.15429E-05-3.15735E-05-1.47264E-06 4.65194E-19 4.85890E-18
 -1      1498 1.05114E-04-3.14803E-05-3.15712E-05-2.64575E-06 1.00357E-18 3.01386E-18
 -1      1499 1.09669E-04-3.29810E-05-3.28354E-05-1.37640E-06 1.88653E-19 3.71944E-18
 -1      1500 1.08093E-04-3.24703E-05-3.23899E-05-1.39784E-06 1.45698E-19 3.91488E-18
 -1      1501 1.07344E-04-3.22630E-05-3.21779E-05-2.73713E-06 4.51042E-19 2.60695E-18
 -1      1502 1.11732E-04-3.36789E-05-3.34000E-05-8.29290E-07 3.57451E-19 2.98896E-18
 -1      1503 1.10623E-04-3.33411E-05-3.31013E-05-9.64960E-07 2.59808E-19 3.46544E-18
 -1      1504 1.09471E-04-3.30490E-05-3.27288E-05-2.16484E-06 4.28215E-19 2.01910E-18
 -1      1505 1.12313E-04-3.39327E-05-3.35150E-05 1.60250E-07 2.88110E-19 2.17370E-18
 -1      1506 1.12137E-04-3.39263E-05-3.34929E-05-1.15126E-07 3.22514E-19 2.75347E-18
 -1      1507 1.10880E-04-3.36470E-05-3.30433E-05-8.16213E-07 6.52540E-19 1.79569E-18
 -1      1508 1.10664E-04-3.34746E-05-3.29908E-05 1.51028E-06 1.36644E-19 1.94206E-18
 -1      1509 1.11852E-04-3.39474E-05-3.33529E-05 1.10923E-06-1.60407E-20 1.85941E-18
 -1      1510 1.10926E-04-3.38143E-05-3.29595E-05 1.29470E-06 3.02391E-19 1.23165E-18
 -1      1511 1.06464E-04-3.21476E-05-3.17813E-05 2.88101E-06 7.35728E-20 2.08423E-18
 -1      1512 1.09170E-04-3.31478E-05-3.25463E-05 2.44833E-06 2.32524E-19 2.02004E-18
 -1      1513 1.09111E-04-3.32984E-05-3.23904E-05 3.81131E-06 1.57859E-19 1.11120E-18
 -1      1514 1.00320E-04-3.00980E-05-3.01000E-05 3.65406E-06 3.29334E-19 1.91398E-18
 -1      1515 1.04121E-04-3.14580E-05-3.11280E-05 3.37321E-06 9.85999E-22 1.94759E-18
 -1      1516 1.05405E-04-3.19703E-05-3.13993E-05 5.88241E-06 1.82046E-20 1.57365E-18
 -1      1517 9.40289E-05-2.79243E-05-2.84434E-05 3.18704E-06 4.90687E-19 1.44483E-18
 -1      1518 9.77921E-05-2.92093E-05-2.94256E-05 3.25304E-06 2.83144E-19 1.77157E-18
 -1      1519 1.00609E-04-3.00386E-05-3.02421E-05 6.33519E-06 4.58086E-19 1.12592E-18
 -1      1520 9.00894E-05-2.65380E-05-2.74294E-05 1.33865E-06 2.97666E-19 8.23634E-19
 -1      1521 9.23187E-05-2.71945E-05-2.79945E-05 1.80092E-06 4.63923E-19 1.30025E-18
 -1      1522 9.63948E-05-2.81862E-05-2.93109E-05 4.36894E-06 7.43324E-19 1.22793E-18
 -1      1523 9.03702E-05-2.66442E-05-2.74953E-05-1.19357E-06 2.79137E-19-2.16867E-19
 -1      1524 9.00187E-05-2.63332E-05-2.73964E-05-5.22521E-07 3.94638E-19 1.77308E-19
 -1      1525 9.46348E-05-2.73240E-05-2.89705E-05 4.05977E-07 7.30976E-19-1.68063E-19
 -1      1526 9.48686E-05-2.82283E-05-2.86454E-05-3.23168E-06 1.79386E-19-1.02586E-18
 -1      1527 9.20289E-05-2.70743E-05-2.79065E-05-2.66617E-06 2.79289E-19-5.99726E-19
 -1      1528 9.62619E-05-2.79711E-05-2.93756E-05-3.85139E-06 6.35579E-19-8.19915E-19
 -1      1529 1.01710E-04-3.05686E-05-3.04524E-05-3.94831E-06 4.19795E-19-2.62474E-18
 -1      1530 9.75493E-05-2.90697E-05-2.93519E-05-3.70536E-06 6.46306E-19-1.70518E-18
 -1      1531 1.00609E-04-2.98223E-05-3.03936E-05-6.50677E-06 1.03602E-18-1.63501E-18
 -1      1532 1.08397E-04-3.27621E-05-3.23005E-05-3.35077E-06 6.34980E-19-4.01568E-18
 -1      1533 1.04397E-04-3.14518E-05-3.12105E-05-3.43268E-06 6.02915E-19-2.66095E-18
 -1      1534 1.05889E-04-3.19891E-05-3.16768E-05-6.73463E-06 1.05357E-18-2.48329E-18
 -1      1535 1.13135E-04-3.42278E-05-3.36901E-05-2.03659E-06-3.49507E-19-4.51077E-18
 -1      1536 1.10331E-04-3.34094E-05-3.28941E-05-2.30214E-06-2.05869E-20-4.36857E-18
 -1      1537 1.10328E-04-3.36588E-05-3.28341E-05-5.04700E-06 6.65305E-19-2.70558E-18
 -1      1538 1.15322E-04-3.48307E-05-3.43989E-05-6.54606E-07-8.13807E-19-3.55109E-18
 -1      1539 1.14036E-04-3.45408E-05-3.40082E-05-9.51618E-07-4.49913E-19-4.06576E-18
 -1      1540 1.12948E-04-3.44922E-05-3.35914E-05-2.57837E-06-5.77385E-19-2.92908E-18
 -1      1541 1.15265E-04-3.47266E-05-3.44611E-05 4.12105E-07-2.98920E-19-2.33612E-18
 -1      1542 1.15288E-04-3.48438E-05-3.44397E-05 1.73779E-07-6.06601E-19-3.09999E-18
 -1      1543 1.13632E-04-3.45649E-05-3.38574E-05-2.91098E-07-8.97584E-19-2.70242E-18
 -1      1544 1.13664E-04-3.41678E-05-3.40498E-05 1.06013E-06 2.02752E-19-2.84316E-18
 -1      1545 1.14568E-04-3.45294E-05-3.42891E-05 9.07280E-07 1.35919E-19-2.63303E-18
 -1      1546 1.12783E-04-3.41252E-05-3.36902E-05 1.34249E-06-2.65062E-19-3.02005E-18
 -1      1547 1.11235E-04-3.33840E-05-3.33669E-05 1.34853E-06 1.27628E-18-4.86287E-18
 -1      1548 1.12595E-04-3.38526E-05-3.37491E-05 1.27137E-06 8.62662E-19-3.56345E-18
 -1      1549 1.10965E-04-3.34192E-05-3.32217E-05 2.25905E-06 1.26320E-18-3.48161E-18
 -1      1550 1.08528E-04-3.25403E-05-3.25796E-05 1.38893E-06 1.98451E-19-6.56065E-18
 -1      1551 1.10027E-04-3.30232E-05-3.30112E-05 1.36547E-06 6.14495E-19-5.62422E-18
 -1      1552 1.08687E-04-3.26252E-05-3.25916E-05 2.60266E-06 1.62857E-18-4.65620E-18
 -1      1553 1.05900E-04-3.17370E-05-3.18011E-05 1.28527E-06-9.11568E-19-4.92048E-18
 -1      1554 1.07339E-04-3.21820E-05-3.22212E-05 1.29441E-06-9.46902E-19-6.14959E-18
 -1      1555 1.06319E-04-3.18513E-05-3.19126E-05 2.56797E-06-9.46530E-19-4.87348E-18
 -1      1556 1.03544E-04-3.10259E-05-3.10954E-05 1.11362E-06-7.97695E-19-2.99375E-18
 -1      1557 1.04819E-04-3.14092E-05-3.14712E-05 1.13960E-06-5.91619E-19-3.99711E-18
 -1      1558 1.04093E-04-3.11539E-05-3.12597E-05 2.32271E-06-1.40639E-18-3.08354E-18
 -1      1559 1.01540E-04-3.04262E-05-3.04913E-05 9.22224E-07 4.54949E-22-1.23967E-18
 -1      1560 1.02612E-04-3.07416E-05-3.08092E-05 9.54793E-07-5.16749E-19-1.90470E-18
 -1      1561 1.02128E-04-3.05563E-05-3.06750E-05 1.98555E-06-9.37080E-19-1.55521E-18
 -1      1562 9.98995E-05-2.99384E-05-2.99946E-05 7.38195E-07 1.36228E-19-1.88247E-18
 -1      1563 1.00768E-04-3.01893E-05-3.02531E-05 7.71338E-07 4.92039E-19-1.19137E-18
 -1      1564 1.00470E-04-3.00625E-05-3.01765E-05 1.63016E-06 3.39452E-19-6.57435E-19
 -1      1565 9.85970E-05-2.95528E-05-2.95991E-05 5.74726E-07-5.42728E-19-1.07130E-18
 -1      1566 9.92789E-05-2.97468E-05-2.98028E-05 6.05281E-07-7.00485E-19-1.66514E-18
 -1      1567 9.91164E-05-2.96658E-05-2.97668E-05 1.29710E-06-6.56406E-19 7.15015E-20
 -1      1568 9.75890E-05-2.92554E-05-2.92923E-05 4.36611E-07-2.85700E-19-4.32555E-19
 -1      1569 9.81109E-05-2.94019E-05-2.94486E-05 4.63180E-07-1.17378E-19-6.29484E-19
 -1      1570 9.80421E-05-2.93546E-05-2.94397E-05 1.00532E-06-7.65422E-19 1.67303E-19
 -1      1571 9.68268E-05-2.90314E-05-2.90599E-05 3.23981E-07-6.55958E-20-4.57955E-19
 -1      1572 9.72169E-05-2.91393E-05-2.91770E-05 3.46191E-07-2.86204E-20-6.01944E-19
 -1      1573 9.72096E-05-2.91159E-05-2.91851E-05 7.60848E-07-2.84178E-20 7.48508E-19
 -1      1574 9.62638E-05-2.88663E-05-2.88879E-05 2.34636E-07-6.11724E-19-2.16552E-20
 -1      1575 9.65483E-05-2.89439E-05-2.89736E-05 2.52661E-07-2.40383E-19-2.14364E-19
 -1      1576 9.65788E-05-2.89367E-05-2.89913E-05 5.62586E-07-5.73130E-19 8.44432E-19
 -1      1577 9.58579E-05-2.87478E-05-2.87637E-05 1.65402E-07 8.53726E-19 3.18649E-19
 -1      1578 9.60601E-05-2.88019E-05-2.88248E-05 1.79683E-07 1.51968E-19 5.58337E-19
 -1      1579 9.61113E-05-2.88050E-05-2.88472E-05 4.05946E-07-2.16160E-19 5.02158E-19
 -1      1580 9.55732E-05-2.86649E-05-2.86764E-05 1.12890E-07 6.85376E-19-1.59039E-18
 -1      1581 9.57126E-05-2.87015E-05-2.87187E-05 1.23969E-07 9.27084E-19-4.54302E-19
 -1      1582 9.57729E-05-2.87105E-05-2.87424E-05 2.84959E-07 1.24501E-18 6.57788E-20
 -1      1583 9.53802E-05-2.86090E-05-2.86171E-05 7.38934E-08-2.75508E-19-1.62011E-18
 -1      1584 9.54726E-05-2.86325E-05-2.86452E-05 8.23197E-08 2.14229E-19-1.67984E-18
 -1      1585 9.55346E-05-2.86446E-05-2.86682E-05 1.93463E-07 5.97055E-19-3.34670E-19
 -1      1586 9.52550E-05-2.85730E-05-2.85785E-05 4.55649E-08 2.90327E-19-3.11239E-18
 -1      1587 9.53131E-05-2.85871E-05-2.85963E-05 5.18490E-08 1.02653E-20-2.90614E-18
 -1      1588 9.53720E-05-2.86003E-05-2.86173E-05 1.25709E-07 8.07811E-19-2.13732E-18
 -1      1589 9.51788E-05-2.85513E-05-2.85549E-05 2.54816E-08 8.48755E-19-4.85119E-18
 -1      1590 9.52124E-05-2.85589E-05-2.85653E-05 3.00736E-08 8.04754E-19-3.28716E-18
 -1      1591 9.52656E-05-2.85718E-05-2.85838E-05 7.66373E-08 1.27276E-18-3.26481E-18
 -1      1592 9.51374E-05-2.85397E-05-2.85419E-05 1.16434E-08-3.57343E-19-4.30236E-18
 -1      1593 9.51539E-05-2.85428E-05-2.85472E-05 1.49257E-08-2.05757E-19-4.62620E-18
 -1      1594 9.52002E-05-2.85547E-05-2.85629E-05 4.19647E-08-4.65468E-20-3.27574E-18
 -1      1595 9.51197E-05-2.85350E-05-2.85363E-05 2.43865E-09 2.43727E-19-4.70008E-18
 -1      1596 9.51248E-05-2.85351E-05-2.85380E-05 4.72747E-09 1.70938E-19-4.37448E-18
 -1      1597 9.51639E-05-2.85457E-05-2.85511E-05 1.81681E-08 1.37140E-19-3.68198E-18
 -1      1598 9.51177E-05-2.85348E-05-2.85354E-05-3.40300E-09-1.17059E-19-4.43426E-18
 -1      1599 9.51154E-05-2.85331E-05-2.85349E-05-1.85236E-09-1.09658E-19-4.69166E-18
 -1      1600 9.51476E-05-2.85421E-05-2.85455E-05 2.41884E-09 7.79355E-20-3.00378E-18
 -1      1601 9.51256E-05-2.85374E-05-2.85376E-05-6.86139E-09-8.20163E-19-4.33697E-18
 -1      1602 9.51189E-05-2.85347E-05-2.85358E-05-5.84735E-09-1.12011E-19-4.72789E-18
 -1      1603 9.51446E-05-2.85422E-05-2.85442E-05-7.50484E-09-5.16407E-19-1.82344E-18
 -1      1604 9.51393E-05-2.85417E-05-2.85417E-05-8.67372E-09 8.49909E-20-2.93218E-18
 -1      1605 9.51301E-05-2.85385E-05-2.85390E-05-8.04113E-09-1.00680E-18-4.05592E-18
 -1      1606 9.51502E-05-2.85445E-05-2.85455E-05-1.33086E-08-1.16619E-18-3.56374E-18
 -1      1607 9.51559E-05-2.85468E-05-2.85466E-05-9.37612E-09-5.32774E-19-2.06444E-18
 -1      1608 9.51457E-05-2.85434E-05-2.85436E-05-9.00974E-09 5.40584E-19-2.22625E-18
 -1      1609 9.51607E-05-2.85481E-05-2.85484E-05-1.62662E-08-3.05799E-19-8.86564E-19
 -1      1610 9.51735E-05-2.85522E-05-2.85518E-05-9.33706E-09 1.32425E-18-2.21925E-18
 -1      1611 9.51631E-05-2.85488E-05-2.85488E-05-9.15656E-09 3.68295E-19-1.91873E-18
 -1      1612 9.51739E-05-2.85523E-05-2.85522E-05-1.72916E-08 8.37204E-19-6.06631E-19
 -1      1613 9.51907E-05-2.85574E-05-2.85570E-05-8.78034E-09 1.16925E-18-5.04658E-18
 -1      1614 9.51808E-05-2.85543E-05-2.85541E-05-8.73803E-09 1.01847E-18-3.56336E-18
 -1      1615 9.51879E-05-2.85567E-05-2.85563E-05-1.69949E-08 1.84549E-18-2.38916E-18
 -1      1616 9.52065E-05-2.85622E-05-2.85617E-05-7.79717E-09 4.40406E-19-6.08813E-18
 -1      1617 9.51975E-05-2.85594E-05-2.85591E-05-7.87866E-09 1.26504E-18-4.74153E-18
 -1      1618 9.52017E-05-2.85609E-05-2.85603E-05-1.57194E-08 1.56459E-18-2.94628E-18
 -1      1619 9.52200E-05-2.85664E-05-2.85657E-05-6.35264E-09-3.91631E-19-4.19043E-18
 -1      1620 9.52125E-05-2.85641E-05-2.85635E-05-6.58069E-09-7.53732E-19-5.92989E-18
 -1      1621 9.52141E-05-2.85649E-05-2.85640E-05-1.35646E-08-6.94055E-19-2.78196E-18
 -1      1622 9.52301E-05-2.85695E-05-2.85687E-05-4.28259E-09-8.58848E-19-2.39528E-18
 -1      1623 9.52247E-05-2.85679E-05-2.85671E-05-4.74053E-09-1.56321E-19-3.70264E-18
 -1      1624 9.52246E-05-2.85682E-05-2.85669E-05-1.04142E-08-1.01736E-18-3.48147E-19
 -1      1625 9.52358E-05-2.85713E-05-2.85705E-05-1.62840E-09-4.50417E-19-1.17690E-18
 -1      1626 9.52332E-05-2.85707E-05-2.85696E-05-2.27572E-09-2.73098E-19-2.46557E-18
 -1      1627 9.52322E-05-2.85709E-05-2.85691E-05-6.06790E-09-2.50124E-19-3.62736E-19
 -1      1628 9.52371E-05-2.85715E-05-2.85710E-05-1.39264E-10-5.27070E-19-8.43086E-19
 -1      1629 9.52381E-05-2.85766E-05-2.85691E-05-3.60125E-09 2.48804E-18 1.76921E-18
 -1      1630 9.52371E-05-2.85737E-05-2.85700E-05-2.89871E-09 2.17067E-19 1.19822E-18
 -1      1631 9.52410E-05-2.85851E-05-2.85668E-05-5.75716E-09 4.19398E-18-4.52362E-19
 -1      1632 9.52392E-05-2.85800E-05-2.85682E-05-5.42102E-09 3.44710E-18 4.07155E-19
 -1      1633 9.52382E-05-2.85788E-05-2.85682E-05-8.73290E-09 1.59152E-18 2.61590E-18
 -1      1634 9.52444E-05-2.85955E-05-2.85638E-05-6.66692E-09 3.18654E-18-4.34479E-19
 -1      1635 9.52424E-05-2.85894E-05-2.85656E-05-6.59186E-09 4.02766E-18 5.70463E-19
 -1      1636 9.52413E-05-2.85866E-05-2.85662E-05-1.18888E-08 1.55712E-18 3.46166E-20
 -1      1637 9.52479E-05-2.86061E-05-2.85608E-05-6.47331E-09 1.17009E-18-2.81923E-18
 -1      1638 9.52459E-05-2.86000E-05-2.85625E-05-6.59970E-09 3.84593E-18-9.10627E-19
 -1      1639 9.52444E-05-2.85954E-05-2.85639E-05-1.27707E-08 9.77122E-19-7.68002E-19
 -1      1640 9.52508E-05-2.86152E-05-2.85581E-05-5.46324E-09-2.18384E-18-1.43945E-18
 -1      1641 9.52491E-05-2.86101E-05-2.85596E-05-5.72028E-09 7.02438E-19-3.43015E-18
 -1      1642 9.52474E-05-2.86039E-05-2.85616E-05-1.17457E-08-4.27861E-19-4.38218E-18
 -1      1643 9.52530E-05-2.86223E-05-2.85560E-05-3.85905E-09-5.33087E-19 7.60824E-19
 -1      1644 9.52518E-05-2.86185E-05-2.85571E-05-4.21145E-09-2.37023E-18 4.62189E-19
 -1      1645 9.52499E-05-2.86111E-05-2.85596E-05-9.32774E-09-1.51835E-19-7.69961E-19
 -1      1646 9.52543E-05-2.86263E-05-2.85548E-05-1.89706E-09 6.61260E-19 3.35990E-20
 -1      1647 9.52536E-05-2.86244E-05-2.85554E-05-2.29905E-09-2.68265E-19 1.22280E-18
 -1      1648 9.52516E-05-2.86164E-05-2.85581E-05-5.94162E-09-5.91341E-19 1.31665E-18
 -1      1649 9.52545E-05-2.86270E-05-2.85546E-05 2.26774E-10 3.51179E-18 9.30838E-19
 -1      1650 9.52545E-05-2.86270E-05-2.85546E-05-1.90928E-10 1.96914E-18 2.41841E-19
 -1      1651 9.52525E-05-2.86192E-05-2.85573E-05-2.01535E-09 8.51527E-19 9.08225E-19
 -1      1652 9.52536E-05-2.86243E-05-2.85554E-05 2.33273E-09 4.92852E-18-1.10763E-18
 -1      1653 9.52542E-05-2.86263E-05-2.85548E-05 1.93159E-09 4.61335E-18 7.41176E-19
 -1      1654 9.52525E-05-2.86192E-05-2.85573E-05 2.08336E-09 3.37848E-18 1.34235E-18
 -1      1655 9.52517E-05-2.86184E-05-2.85572E-05 4.23940E-09 4.92571E-19-3.86804E-18
 -1      1656 9.52530E-05-2.86222E-05-2.85561E-05 3.88933E-09 4.39371E-18-1.46802E-18
 -1      1657 9.52516E-05-2.86164E-05-2.85581E-05 6.00383E-09 1.99295E-18-2.86012E-18
 -1      1658 9.52491E-05-2.86100E-05-2.85596E-05 5.72509E-09-1.21262E-18 1.08936E-20
 -1      1659 9.52507E-05-2.86152E-05-2.85581E-05 5.47136E-09 8.37572E-19-3.28239E-18
 -1      1660 9.52498E-05-2.86111E-05-2.85596E-05 9.35624E-09 1.59281E-18-5.02482E-18
 -1      1661 9.52458E-05-2.85998E-05-2.85626E-05 6.60665E-09-1.76038E-18-7.00286E-19
 -1      1662 9.52478E-05-2.86059E-05-2.85608E-05 6.48336E-09-2.39192E-18 2.03951E-18
 -1      1663 9.52474E-05-2.86038E-05-2.85616E-05 1.17617E-08 6.35010E-19 1.60084E-19
 -1      1664 9.52423E-05-2.85892E-05-2.85656E-05 6.60151E-09-2.71087E-18 3.59394E-19
 -1      1665 9.52444E-05-2.85953E-05-2.85639E-05 6.66310E-09-2.63894E-18-1.62669E-19
 -1      1666 9.52444E-05-2.85952E-05-2.85639E-05 1.27720E-08-1.14408E-18-9.16904E-19
 -1      1667 9.52392E-05-2.85800E-05-2.85682E-05 5.39303E-09-4.51160E-18-5.60592E-19
 -1      1668 9.52410E-05-2.85850E-05-2.85668E-05 5.73221E-09-3.22648E-18-8.04352E-19
 -1      1669 9.52412E-05-2.85865E-05-2.85663E-05 1.18554E-08-1.84478E-18-1.26469E-18
 -1      1670 9.52369E-05-2.85744E-05-2.85697E-05 4.20214E-09-1.86562E-18 1.22884E-18
 -1      1671 9.52379E-05-2.85772E-05-2.85688E-05 5.22830E-09-3.02522E-18 4.54579E-19
 -1      1672 9.52380E-05-2.85793E-05-2.85679E-05 1.02086E-08-1.27373E-18 1.35367E-18
 -1      1673 9.52345E-05-2.85740E-05-2.85688E-05 8.15024E-09-2.72570E-19 8.56445E-19
 -1      1674 2.01630E-05-6.60758E-05 1.38435E-05-5.99214E-06 8.39537E-18 4.71564E-18
 -1      1675 2.35474E-05-7.57037E-05 1.58767E-05 1.85957E-06 2.30922E-18 3.84002E-18
 -1      1676 2.01576E-05-3.83789E-05 3.71303E-06 4.00776E-06 1.37829E-17 7.71689E-18
 -1      1677 2.44265E-05-6.09273E-05 9.78644E-06 1.65709E-07 1.05320E-17 5.15483E-18
 -1      1678 3.56333E-05-1.14824E-05-1.22083E-05 2.87537E-05 1.61072E-17 1.30748E-17
 -1      1679 2.95558E-05-3.22383E-05-3.35643E-06 1.07935E-05 1.50628E-17 9.63076E-18
 -1      1680 7.57122E-05-1.60447E-06-3.10246E-05 5.96671E-05 1.49383E-17 1.55676E-17
 -1      1681 5.08601E-05-6.88980E-06-2.11781E-05 3.69632E-05 1.60928E-17 1.38719E-17
 -1      1682 1.40669E-04-1.72701E-05-4.95516E-05 7.59726E-05 1.02461E-17 1.21109E-17
 -1      1683 1.00255E-04-5.37293E-06-4.02380E-05 6.37868E-05 1.38346E-17 1.36559E-17
 -1      1684 2.05565E-04-4.26006E-05-6.44561E-05 6.45932E-05 6.04390E-18 6.32141E-18
 -1      1685 1.63866E-04-2.28639E-05-5.74129E-05 7.26018E-05 9.12720E-18 1.08818E-17
 -1      1686 2.48317E-04-6.19737E-05-7.34027E-05 2.58997E-05 3.91202E-18-2.98029E-18
 -1      1687 2.22622E-04-4.78939E-05-6.96722E-05 5.39736E-05 4.80522E-18 3.31529E-18
 -1      1688 2.49095E-04-6.12104E-05-7.43890E-05-2.40012E-05 5.17029E-18-1.29077E-17
 -1      1689 2.53551E-04-6.37302E-05-7.49302E-05 1.06066E-05 4.35968E-18-5.98704E-18
 -1      1690 2.05875E-04-3.99169E-05-6.65613E-05-6.21382E-05 9.85396E-18-1.99536E-17
 -1      1691 2.38827E-04-5.74711E-05-7.15737E-05-3.84084E-05 6.37710E-18-1.52847E-17
 -1      1692 1.42813E-04-1.41666E-05-5.26745E-05-7.57666E-05 1.60187E-17-2.42099E-17
 -1      1693 1.86817E-04-3.36926E-05-6.06059E-05-7.42798E-05 1.18580E-17-2.25133E-17
 -1      1694 8.31813E-05-2.06482E-06-3.50027E-05-5.88998E-05 2.00306E-17-2.24006E-17
 -1      1695 1.19070E-04-9.13432E-06-4.43340E-05-7.56286E-05 1.75209E-17-2.39973E-17
 -1      1696 4.20540E-05-1.22585E-05-1.57912E-05-2.85690E-05 2.04669E-17-1.68145E-17
 -1      1697 6.13804E-05-1.15465E-06-2.57146E-05-5.20394E-05 2.05194E-17-2.13723E-17
 -1      1698 2.76637E-05-4.31867E-05 1.50297E-06-5.84825E-06 1.52754E-17-1.01646E-17
 -1      1699 2.97085E-05-1.93247E-05-7.02199E-06-2.08696E-05 1.89168E-17-1.40739E-17
 -1      1700 2.43407E-05-7.05632E-05 1.31598E-05 1.85922E-06 7.60974E-18-5.17834E-18
 -1      1701 1.83547E-05-4.96861E-05 8.30212E-06 3.44561E-06 1.40472E-17-8.34296E-18
 -1      1702 2.22274E-05-7.45360E-05 1.61398E-05-4.73792E-06-2.21489E-18-4.08164E-18
 -1      1703 2.17812E-05-7.27114E-05 1.55321E-05 5.56280E-06 4.81072E-18-4.38361E-18
 -1      1704 1.93664E-05-5.15371E-05 9.26863E-06-5.36367E-08-1.05862E-17-7.22477E-18
 -1      1705 2.35553E-05-6.83811E-05 1.35617E-05 2.79325E-06-4.39398E-18-4.91872E-18
 -1      1706 2.29839E-05-2.49199E-05-2.52966E-06 1.15642E-05-1.71982E-17-1.13680E-17
 -1      1707 2.49004E-05-4.80976E-05 4.54948E-06 2.45498E-06-1.40955E-17-7.90493E-18
 -1      1708 4.74082E-05-3.97151E-06-1.94894E-05 4.13896E-05-1.85670E-17-1.67857E-17
 -1      1709 3.49110E-05-1.96515E-05-1.03084E-05 2.01328E-05-1.79495E-17-1.32103E-17
 -1      1710 9.91245E-05-4.51412E-06-3.86381E-05 7.00935E-05-1.61080E-17-1.99824E-17
 -1      1711 6.65934E-05-2.65471E-06-2.87160E-05 4.91316E-05-1.79486E-17-1.80926E-17
 -1      1712 1.66930E-04-2.61784E-05-5.59678E-05 7.62739E-05-1.13278E-17-1.83162E-17
 -1      1713 1.24400E-04-9.98702E-06-4.74564E-05 7.09680E-05-1.45558E-17-1.94470E-17
 -1      1714 2.25309E-04-5.07655E-05-6.85984E-05 5.73185E-05-6.61287E-18-1.33611E-17
 -1      1715 1.88529E-04-3.18912E-05-6.29200E-05 7.21859E-05-9.65469E-18-1.70025E-17
 -1      1716 2.56219E-04-6.55441E-05-7.48481E-05 1.41559E-05-4.21992E-18-4.02489E-18
 -1      1717 2.39282E-04-5.58940E-05-7.24999E-05 4.47156E-05-5.78947E-18-1.02724E-17
 -1      1718 2.47232E-04-6.04167E-05-7.37806E-05-3.27772E-05-4.12971E-18 4.21822E-18
 -1      1719 2.57634E-04-6.61438E-05-7.52211E-05-1.62717E-06-3.39004E-18-1.43556E-18
 -1      1720 2.02268E-04-3.82465E-05-6.56537E-05-6.68868E-05-7.73161E-18 1.15324E-17
 -1      1721 2.36330E-04-5.62182E-05-7.07194E-05-4.68864E-05-5.04593E-18 6.84276E-18
 -1      1722 1.38301E-04-1.50931E-05-5.07772E-05-7.02278E-05-1.14633E-17 1.54287E-17
 -1      1723 1.81090E-04-3.28016E-05-5.89450E-05-7.08653E-05-8.79580E-18 1.25844E-17
 -1      1724 8.05185E-05-2.41980E-06-3.38933E-05-5.69203E-05-1.35898E-17 1.57734E-17
 -1      1725 1.13659E-04-8.47089E-06-4.27385E-05-7.30046E-05-1.22278E-17 1.70372E-17
 -1      1726 4.40316E-05-1.38028E-05-1.58780E-05-2.87674E-05-1.37270E-17 1.15908E-17
 -1      1727 6.23080E-05-3.89969E-06-2.51672E-05-5.02488E-05-1.39583E-17 1.46604E-17
 -1      1728 2.61781E-05-3.75477E-05-1.05004E-07-6.04424E-06-1.28656E-17 7.91256E-18
 -1      1729 2.82921E-05-1.66582E-05-7.67389E-06-2.00105E-05-1.45656E-17 1.04685E-17
 -1      1730 2.40156E-05-6.40474E-05 1.10663E-05 1.22143E-06-7.24256E-18 4.15464E-18
 -1      1731 1.92965E-05-4.38484E-05 5.89785E-06-2.32195E-07-1.08827E-17 7.26521E-18
 -1      1732 2.38363E-05-7.69785E-05 1.61705E-05-1.61698E-06-1.74806E-19 3.44658E-18
 -1      1733 2.10509E-05-6.91790E-05 1.45101E-05 6.57692E-06-5.66199E-18 3.76972E-18
 -1      1734 1.15040E-04-3.07948E-05-3.51151E-05 4.55958E-05 9.10772E-18 6.84657E-18
 -1      1735 7.26325E-05-3.43664E-05-1.76938E-05 3.92305E-05 8.62788E-18 8.74646E-18
 -1      1736 9.52365E-05-2.85720E-05-2.85704E-05-1.60581E-09-1.04952E-18-4.95381E-19
 -1      1737 9.52359E-05-2.85737E-05-2.85695E-05-4.97826E-09-5.03186E-20 1.80885E-18
 -1      1738 1.88827E-05-4.68805E-05 8.02315E-06 1.50386E-05 4.31267E-18 7.27135E-18
 -1      1739 4.05346E-05-4.15780E-05-2.45497E-06 2.85811E-05 7.39629E-18 7.63044E-18
 -1      1740 1.18883E-05-5.11404E-05 1.21646E-05 6.14909E-07 4.19175E-19 7.20317E-18
 -1      1741 1.58386E-04-3.18137E-05-5.12743E-05 4.03333E-05 8.18276E-18 4.18942E-18
 -1      1742 1.92266E-04-3.31149E-05-6.36898E-05 2.77156E-05 7.34949E-18-1.87194E-19
 -1      1743 2.10548E-04-3.44343E-05-7.01018E-05 7.70901E-06 7.54029E-18-4.67626E-18
 -1      1744 2.05310E-04-3.25842E-05-6.88553E-05-1.35890E-05 8.67108E-18-9.25405E-18
 -1      1745 1.83506E-04-3.19267E-05-6.06236E-05-3.39147E-05 1.03889E-17-1.32052E-17
 -1      1746 1.45860E-04-3.01940E-05-4.69938E-05-4.61870E-05 1.22996E-17-1.58988E-17
 -1      1747 1.01617E-04-3.03769E-05-3.01730E-05-4.56893E-05 1.28486E-17-1.53017E-17
 -1      1748 6.27650E-05-3.70812E-05-1.28631E-05-3.69333E-05 1.08835E-17-1.24440E-17
 -1      1749 3.23517E-05-4.42990E-05 1.74997E-06-2.45914E-05 7.70631E-18-1.03917E-17
 -1      1750 1.49230E-05-5.03531E-05 1.05807E-05-8.45447E-06 3.57088E-18-8.21707E-18
 -1      1751 1.27019E-05-4.56904E-05 1.02903E-05 8.20825E-06-1.38723E-18-8.33904E-18
 -1      1752 2.69656E-05-4.35449E-05 3.59077E-06 2.21289E-05-5.22704E-18-8.42544E-18
 -1      1753 5.17766E-05-3.79364E-05-8.38786E-06 3.29033E-05-9.95433E-18-1.00903E-17
 -1      1754 8.82947E-05-3.17370E-05-2.46078E-05 4.33537E-05-1.09962E-17-1.20389E-17
 -1      1755 1.32580E-04-3.05320E-05-4.18509E-05 4.62729E-05-1.03262E-17-1.14942E-17
 -1      1756 1.73011E-04-3.20011E-05-5.67384E-05 3.90054E-05-9.21749E-18-9.73326E-18
 -1      1757 2.03469E-04-3.48625E-05-6.71090E-05 2.51784E-05-8.33269E-18-6.52808E-18
 -1      1758 2.16154E-04-3.67254E-05-7.11803E-05 3.37963E-06-6.92619E-18-2.01207E-18
 -1      1759 2.07879E-04-3.52315E-05-6.86023E-05-1.88864E-05-7.17649E-18 2.37127E-18
 -1      1760 1.80474E-04-3.31624E-05-5.92620E-05-3.31444E-05-8.45318E-18 5.76829E-18
 -1      1761 1.42715E-04-3.14276E-05-4.54191E-05-4.31621E-05-8.02437E-18 8.90486E-18
 -1      1762 1.00762E-04-3.17658E-05-2.93663E-05-4.43532E-05-7.61144E-18 9.62949E-18
 -1      1763 6.33001E-05-3.60536E-05-1.33703E-05-3.65875E-05-7.61991E-18 8.25264E-18
 -1      1764 3.43298E-05-4.25701E-05 2.28599E-07-2.46073E-05-5.65987E-18 7.38060E-18
 -1      1765 1.75429E-05-4.88901E-05 9.15740E-06-1.25844E-05-3.48554E-18 6.16619E-18
 -1      1766 1.10797E-04-2.47211E-05-3.69861E-05-1.45099E-05-2.40065E-18 1.08814E-17
 -1      1767 9.13105E-05-1.09034E-05-3.45987E-05-8.62727E-06-3.23721E-18-2.73952E-18
 -1      1768 9.37027E-05-1.23516E-05-3.49866E-05-1.05350E-05-3.66591E-18-1.61587E-18
 -1      1769 9.66952E-05-1.51123E-05-3.51335E-05-1.17169E-05-3.60023E-18-1.82509E-19
 -1      1770 9.92263E-05-1.74239E-05-3.55200E-05-1.36565E-05-3.77388E-18 1.75738E-18
 -1      1771 9.73076E-05-1.73741E-05-3.42634E-05-9.12776E-06-3.80909E-18-7.46395E-19
 -1      1772 8.37686E-05-6.01378E-06-3.34007E-05-3.76427E-06-1.99284E-18-4.94223E-18
 -1      1773 8.52383E-05-6.66658E-06-3.37117E-05-4.85467E-06-2.37951E-18-4.62034E-18
 -1      1774 8.11852E-05-4.52590E-06-3.29132E-05-2.16629E-06-1.32849E-18-5.37442E-18
 -1      1775 8.23068E-05-4.99708E-06-3.31596E-05-2.98288E-06-1.62672E-18-5.21758E-18
 -1      1776 8.41955E-05-7.40280E-06-3.29338E-05-2.89077E-06-1.96350E-18-4.83422E-18
 -1      1777 7.94664E-05-3.55538E-06-3.25784E-05-1.01783E-06-6.65338E-19-5.49634E-18
 -1      1778 8.01656E-05-3.84033E-06-3.27351E-05-1.62885E-06-1.00861E-18-5.43546E-18
 -1      1779 8.15761E-05-5.72253E-06-3.25273E-05-1.58615E-06-1.22050E-18-5.19413E-18
 -1      1780 7.87140E-05-3.11899E-06-3.24321E-05-1.37272E-07-5.26756E-21-5.59362E-18
 -1      1781 7.89449E-05-3.21135E-06-3.24848E-05-6.42633E-07-3.20627E-19-5.55390E-18
 -1      1782 7.99483E-05-4.70451E-06-3.22625E-05-6.76826E-07-5.48882E-19-5.36256E-18
 -1      1783 7.89826E-05-3.23466E-06-3.24901E-05 6.92117E-07 6.13371E-19-5.62333E-18
 -1      1784 7.87278E-05-3.13066E-06-3.24340E-05 1.83633E-07 3.33512E-19-5.63395E-18
 -1      1785 7.94151E-05-4.37702E-06-3.21731E-05 1.96046E-08 1.84779E-19-5.44766E-18
 -1      1786 8.02510E-05-3.89838E-06-3.27465E-05 1.69539E-06 1.20113E-18-5.48081E-18
 -1      1787 7.95305E-05-3.60125E-06-3.25871E-05 1.07536E-06 9.34160E-19-5.60355E-18
 -1      1788 8.00144E-05-4.75415E-06-3.22701E-05 7.24261E-07 8.56010E-19-5.44179E-18
 -1      1789 8.23870E-05-5.06255E-06-3.31663E-05 3.05049E-06 1.84295E-18-5.10417E-18
 -1      1790 8.12727E-05-4.59128E-06-3.29234E-05 2.23685E-06 1.52730E-18-5.30671E-18
 -1      1791 8.16831E-05-5.80669E-06-3.25377E-05 1.64656E-06 1.48964E-18-5.23509E-18
 -1      1792 8.53632E-05-6.77211E-06-3.37215E-05 4.96792E-06 2.57873E-18-4.48741E-18
 -1      1793 8.38600E-05-6.09496E-06-3.34066E-05 3.84474E-06 2.15512E-18-4.86586E-18
 -1      1794 8.43177E-05-7.50930E-06-3.29422E-05 2.96637E-06 2.14489E-18-4.77861E-18
 -1      1795 8.91273E-05-9.13411E-06-3.43526E-05 7.53989E-06 3.25484E-18-3.37793E-18
 -1      1796 8.72476E-05-8.18296E-06-3.39910E-05 6.03969E-06 2.84997E-18-4.03182E-18
 -1      1797 8.78533E-05-9.90781E-06-3.34320E-05 4.79289E-06 2.86816E-18-3.99858E-18
 -1      1798 9.39009E-05-1.25927E-05-3.49862E-05 1.07411E-05 3.88194E-18-1.37526E-18
 -1      1799 9.14837E-05-1.10985E-05-3.46016E-05 8.82973E-06 3.53186E-18-2.56805E-18
 -1      1800 9.22763E-05-1.31758E-05-3.39175E-05 7.06897E-06 3.57044E-18-2.67347E-18
 -1      1801 1.00793E-04-1.85875E-05-3.54145E-05 1.37657E-05 3.87315E-18 2.32706E-18
 -1      1802 9.70859E-05-1.55828E-05-3.51111E-05 1.19242E-05 3.82212E-18 9.91029E-20
 -1      1803 9.78479E-05-1.79128E-05-3.42457E-05 9.29285E-06 4.01470E-18-4.72353E-19
 -1      1804 1.07427E-04-2.69006E-05-3.49292E-05 1.13693E-05 3.30512E-18 7.07241E-18
 -1      1805 1.03374E-04-2.13506E-05-3.51570E-05 1.34173E-05 3.60356E-18 3.95930E-18
 -1      1806 1.02771E-04-2.35630E-05-3.40056E-05 9.27155E-06 3.98452E-18 2.36703E-18
 -1      1807 1.05081E-04-2.81343E-05-3.31682E-05 6.38198E-06 3.39819E-18 6.03577E-18
 -1      1808 1.05457E-04-2.13551E-05-3.57457E-05-1.55702E-05-3.26465E-18 5.04313E-18
 -1      1809 1.03262E-04-2.96518E-05-3.15604E-05 1.00952E-06 2.65389E-18 4.51394E-18
 -1      1810 1.04700E-04-2.94951E-05-3.22643E-05 3.37952E-06 2.87809E-18 5.49117E-18
 -1      1811 1.04056E-04-2.76167E-05-3.27648E-05 5.11504E-06 3.39057E-18 3.38809E-18
 -1      1812 1.05186E-04-2.42605E-05-3.44100E-05-1.08077E-05-3.45137E-18 3.65092E-18
 -1      1813 1.04042E-04-2.90561E-05-3.20191E-05-2.06866E-06-2.77472E-18 3.06964E-18
 -1      1814 1.03216E-04-2.93601E-05-3.16086E-05-2.09852E-07-2.38554E-18 2.30703E-18
 -1      1815 1.03062E-04-2.97317E-05-3.13313E-05 1.42931E-06-2.05089E-18 2.27203E-18
 -1      1816 1.03343E-04-3.01366E-05-3.13305E-05 2.37510E-06-1.88555E-18 1.72596E-18
 -1      1817 1.02674E-04-2.85379E-05-3.18063E-05 2.55598E-07-2.65418E-18 8.33484E-19
 -1      1818 1.03620E-04-3.04630E-05-3.12959E-05 3.32063E-06-1.56944E-18 1.75931E-18
 -1      1819 1.04425E-04-3.09356E-05-3.14763E-05 3.78309E-06-1.28701E-18 1.45122E-18
 -1      1820 1.02958E-04-2.96905E-05-3.14302E-05 3.22183E-06-1.93688E-18 6.58558E-19
 -1      1821 1.05065E-04-3.13499E-05-3.15629E-05 4.19748E-06-1.23358E-18 1.45906E-18
 -1      1822 1.06112E-04-3.19091E-05-3.18093E-05 4.24964E-06-9.58369E-19 1.14614E-18
 -1      1823 1.04003E-04-3.07584E-05-3.14159E-05 4.79640E-06-1.48559E-18 5.33568E-19
 -1      1824 1.07009E-04-3.24435E-05-3.19428E-05 4.12909E-06-8.39325E-19 1.18157E-18
 -1      1825 1.08028E-04-3.30450E-05-3.21715E-05 3.72220E-06-8.15871E-19 9.08635E-19
 -1      1826 1.05649E-04-3.20223E-05-3.15740E-05 5.18861E-06-1.05725E-18 3.77168E-19
 -1      1827 1.09050E-04-3.36752E-05-3.22989E-05 2.98138E-06-5.76194E-19 9.50881E-19
 -1      1828 1.09750E-04-3.42121E-05-3.24348E-05 2.04509E-06-5.05811E-19 1.02031E-18
 -1      1829 1.07678E-04-3.35378E-05-3.17860E-05 4.30928E-06-7.64945E-19 4.36192E-19
 -1      1830 1.10708E-04-3.48301E-05-3.25221E-05 6.20804E-07-6.07581E-19 1.23520E-18
 -1      1831 1.10781E-04-3.51102E-05-3.25050E-05-8.23538E-07-4.33046E-19 1.08034E-18
 -1      1832 1.09773E-04-3.51484E-05-3.19804E-05 1.99170E-06-5.50399E-19 7.32375E-19
 -1      1833 1.11388E-04-3.54833E-05-3.25448E-05-2.81387E-06-5.96258E-19 1.03051E-18
 -1      1834 1.10583E-04-3.52406E-05-3.23513E-05-4.50906E-06-6.58006E-19 1.03749E-18
 -1      1835 1.11434E-04-3.63973E-05-3.21376E-05-1.73144E-06-5.80879E-19 7.69690E-19
 -1      1836 1.10481E-04-3.50318E-05-3.23661E-05-6.57506E-06-7.66201E-19 9.52436E-19
 -1      1837 1.08764E-04-3.40467E-05-3.20354E-05-7.92323E-06-7.98898E-19 5.59803E-19
 -1      1838 1.11970E-04-3.65141E-05-3.22952E-05-6.24342E-06-9.10134E-19 7.04033E-19
 -1      1839 1.07725E-04-3.30157E-05-3.20656E-05-9.11923E-06-5.87303E-19 1.46318E-19
 -1      1840 1.05477E-04-3.13952E-05-3.16993E-05-9.30099E-06-6.41891E-19-1.87075E-19
 -1      1841 1.10719E-04-3.47116E-05-3.25244E-05-1.00060E-05-8.89985E-19 6.61443E-19
 -1      1842 1.03821E-04-2.98097E-05-3.17611E-05-8.60409E-06-1.00460E-18-5.46124E-19
 -1      1843 1.01872E-04-2.82044E-05-3.14868E-05-7.09687E-06-1.29519E-18-8.66587E-19
 -1      1844 1.07750E-04-3.10766E-05-3.28510E-05-1.07586E-05-1.19908E-18-2.78148E-20
 -1      1845 1.00584E-04-2.69628E-05-3.15516E-05-4.28529E-06-1.34288E-18-1.39543E-18
 -1      1846 9.98661E-05-2.62972E-05-3.14690E-05-1.47849E-06-1.45758E-18-1.51033E-18
 -1      1847 1.04484E-04-2.72052E-05-3.31824E-05-6.93381E-06-1.62282E-18-6.59271E-19
 -1      1848 9.99379E-05-2.63197E-05-3.14917E-05 2.28318E-06-1.43731E-18-1.96719E-18
 -1      1849 1.00874E-04-2.70536E-05-3.16359E-05 5.08796E-06-9.04552E-19-2.02990E-18
 -1      1850 1.03116E-04-2.55394E-05-3.33498E-05 5.03559E-07-1.65927E-18-1.52438E-18
 -1      1851 1.02303E-04-2.83389E-05-3.16164E-05 7.89337E-06-9.93834E-19-2.89215E-18
 -1      1852 1.04467E-04-3.00096E-05-3.19514E-05 9.39538E-06-7.11071E-19-3.18242E-18
 -1      1853 1.04769E-04-2.72989E-05-3.32655E-05 7.93412E-06-1.48301E-18-2.85716E-18
 -1      1854 1.06251E-04-3.16299E-05-3.19333E-05 1.00822E-05-4.73743E-19-3.45983E-18
 -1      1855 1.08707E-04-3.33081E-05-3.23597E-05 9.89954E-06-2.72344E-19-3.58264E-18
 -1      1856 1.08308E-04-3.12490E-05-3.30156E-05 1.17376E-05-9.32256E-19-3.51113E-18
 -1      1857 1.09862E-04-3.43679E-05-3.23711E-05 8.70323E-06-3.46592E-19-3.71448E-18
 -1      1858 1.11784E-04-3.54141E-05-3.27600E-05 7.36034E-06-4.23258E-19-3.66436E-18
 -1      1859 1.11519E-04-3.49488E-05-3.27661E-05 1.09691E-05-3.46670E-19-3.70492E-18
 -1      1860 1.11995E-04-3.56571E-05-3.27806E-05 5.29179E-06-2.97944E-19-3.27068E-18
 -1      1861 1.12999E-04-3.59657E-05-3.30286E-05 3.59673E-06-3.47886E-19-3.54477E-18
 -1      1862 1.12996E-04-3.68106E-05-3.26052E-05 7.20236E-06-2.29569E-19-3.41222E-18
 -1      1863 1.12476E-04-3.56253E-05-3.30148E-05 1.58468E-06-6.92516E-19-3.19314E-18
 -1      1864 1.12584E-04-3.54130E-05-3.30793E-05 1.24159E-07 2.48981E-19-3.05742E-18
 -1      1865 1.12661E-04-3.67744E-05-3.24986E-05 2.65505E-06-2.78796E-19-3.23916E-18
 -1      1866 1.11670E-04-3.48253E-05-3.30008E-05-1.35815E-06 5.77749E-19-3.35364E-18
 -1      1867 1.11111E-04-3.43561E-05-3.28975E-05-2.34418E-06 2.43079E-19-3.56995E-18
 -1      1868 1.11138E-04-3.56080E-05-3.23635E-05-1.16607E-06 1.15372E-19-2.26766E-18
 -1      1869 1.10065E-04-3.37495E-05-3.27512E-05-3.21030E-06-1.95923E-19-3.51536E-18
 -1      1870 1.09107E-04-3.32094E-05-3.25285E-05-3.72667E-06-5.85760E-19-3.43895E-18
 -1      1871 1.09083E-04-3.40887E-05-3.21434E-05-3.70195E-06 3.80536E-20-3.26860E-18
 -1      1872 1.08073E-04-3.26860E-05-3.23310E-05-4.08499E-06-3.51284E-19-2.89108E-18
 -1      1873 1.06944E-04-3.21738E-05-3.20437E-05-4.24405E-06 2.04850E-19-2.43903E-18
 -1      1874 1.06923E-04-3.26713E-05-3.18293E-05-5.00660E-06-2.03991E-19-2.41608E-18
 -1      1875 1.05990E-04-3.17572E-05-3.18190E-05-4.25550E-06 4.35388E-19-2.50999E-18
 -1      1876 1.04847E-04-3.13130E-05-3.15125E-05-4.18636E-06 8.87763E-19-1.77482E-18
 -1      1877 1.04879E-04-3.15251E-05-3.14459E-05-5.38312E-06 5.96188E-19-1.66576E-18
 -1      1878 1.04002E-04-3.09932E-05-3.12830E-05-3.99505E-06 8.81013E-19-1.81881E-18
 -1      1879 1.02941E-04-3.06264E-05-3.09885E-05-3.80328E-06 9.60079E-19-1.63214E-18
 -1      1880 1.03045E-04-3.06623E-05-3.10300E-05-5.16456E-06 7.48926E-19-2.39952E-18
 -1      1881 1.02211E-04-3.03840E-05-3.07708E-05-3.51490E-06 7.88025E-19-1.70244E-18
 -1      1882 1.01281E-04-3.00900E-05-3.05062E-05-3.27331E-06 8.33566E-20-1.69800E-18
 -1      1883 1.01453E-04-3.00350E-05-3.06163E-05-4.62172E-06 1.19648E-18-2.13114E-18
 -1      1884 1.00666E-04-2.99071E-05-3.03105E-05-2.95634E-06-4.98934E-19-1.57407E-18
 -1      1885 9.98829E-05-2.96765E-05-3.00839E-05-2.70940E-06-2.19137E-19-1.37342E-18
 -1      1886 1.00103E-04-2.95855E-05-3.02300E-05-3.94339E-06 2.68131E-19-1.46933E-18
 -1      1887 9.93747E-05-2.95385E-05-2.99150E-05-2.40370E-06-3.37811E-19-1.78555E-18
 -1      1888 9.87360E-05-2.93610E-05-2.97276E-05-2.17550E-06-6.84475E-20-1.79936E-18
 -1      1889 9.89816E-05-2.92649E-05-2.98862E-05-3.24734E-06-5.01434E-19-5.79630E-19
 -1      1890 9.83240E-05-2.92572E-05-2.95865E-05-1.90144E-06 1.31606E-19-2.46058E-18
 -1      1891 9.78167E-05-2.91228E-05-2.94360E-05-1.70290E-06 1.07795E-19-2.10502E-18
 -1      1892 9.80675E-05-2.90365E-05-2.95915E-05-2.59936E-06-9.70192E-20-1.79657E-18
 -1      1893 9.74889E-05-2.90453E-05-2.93212E-05-1.46861E-06-2.52539E-19-2.05846E-18
 -1      1894 9.70951E-05-2.89454E-05-2.92032E-05-1.30280E-06-6.13123E-19-2.12257E-18
 -1      1895 9.73356E-05-2.88745E-05-2.93465E-05-2.03078E-06-3.56128E-19-2.45115E-18
 -1      1896 9.68389E-05-2.88880E-05-2.91120E-05-1.10927E-06-9.42180E-19-1.81924E-18
 -1      1897 9.65398E-05-2.88151E-05-2.90216E-05-9.74966E-07-1.03264E-18-2.02389E-18
 -1      1898 9.67599E-05-2.87602E-05-2.91479E-05-1.55171E-06-3.88659E-19-2.65078E-18
 -1      1899 9.63433E-05-2.87734E-05-2.89507E-05-8.19360E-07-8.09477E-19-1.74415E-18
 -1      1900 9.61210E-05-2.87214E-05-2.88828E-05-7.13254E-07-6.64230E-19-1.13139E-18
 -1      1901 9.63152E-05-2.86807E-05-2.89905E-05-1.16023E-06-6.24667E-19-8.66400E-19
 -1      1902 9.59731E-05-2.86915E-05-2.88288E-05-5.90971E-07-8.23784E-19-5.86160E-19
 -1      1903 9.58116E-05-2.86554E-05-2.87790E-05-5.08952E-07-4.81791E-19-3.96749E-19
 -1      1904 9.59780E-05-2.86265E-05-2.88685E-05-8.48198E-07-2.89746E-19 1.04259E-18
 -1      1905 9.57026E-05-2.86346E-05-2.87387E-05-4.14829E-07-6.02725E-19-2.83568E-19
 -1      1906 9.55883E-05-2.86104E-05-2.87030E-05-3.52715E-07 2.79528E-19-2.01617E-19
 -1      1907 9.57271E-05-2.85906E-05-2.87756E-05-6.04835E-07-4.12713E-19 2.09175E-18
 -1      1908 9.55097E-05-2.85962E-05-2.86736E-05-2.81702E-07 5.22024E-19-8.19473E-19
 -1      1909 9.54313E-05-2.85808E-05-2.86488E-05-2.35618E-07 4.12721E-19-1.10522E-18
 -1      1910 9.55446E-05-2.85679E-05-2.87065E-05-4.18834E-07-2.71435E-19 1.31016E-18
 -1      1911 9.53762E-05-2.85716E-05-2.86279E-05-1.83121E-07 4.35306E-19-1.40790E-18
 -1      1912 9.53245E-05-2.85624E-05-2.86112E-05-1.49663E-07 2.25163E-19-1.71976E-18
 -1      1913 9.54150E-05-2.85545E-05-2.86562E-05-2.79481E-07 2.93489E-19 1.01567E-18
 -1      1914 9.52871E-05-2.85568E-05-2.85968E-05-1.11690E-07-9.04834E-19-2.17209E-18
 -1      1915 9.52549E-05-2.85520E-05-2.85861E-05-8.79758E-08-1.49771E-18-2.24745E-18
 -1      1916 9.53257E-05-2.85476E-05-2.86205E-05-1.77216E-07-2.54511E-19-4.69769E-19
 -1      1917 9.52307E-05-2.85489E-05-2.85765E-05-6.11741E-08-5.58796E-19-2.28647E-18
 -1      1918 9.52124E-05-2.85471E-05-2.85702E-05-4.48339E-08 2.99712E-19-1.79028E-18
 -1      1919 9.52666E-05-2.85450E-05-2.85960E-05-1.03842E-07-7.71500E-19 3.40394E-19
 -1      1920 9.51977E-05-2.85458E-05-2.85642E-05-2.64579E-08 8.01313E-19-1.78957E-18
 -1      1921 9.51891E-05-2.85458E-05-2.85609E-05-1.55866E-08 1.27496E-18-1.00036E-18
 -1      1922 9.52295E-05-2.85452E-05-2.85797E-05-5.25365E-08 4.66397E-19 1.02283E-19
 -1      1923 9.51811E-05-2.85457E-05-2.85574E-05-3.44029E-09 4.90649E-19-1.18591E-18
 -1      1924 9.51790E-05-2.85470E-05-2.85562E-05 3.45972E-09-3.30888E-19-1.14139E-18
 -1      1925 9.52083E-05-2.85471E-05-2.85696E-05-1.77653E-08 6.32923E-19-4.30855E-20
 -1      1926 9.51757E-05-2.85475E-05-2.85545E-05 1.10942E-08-4.64379E-19-9.09653E-19
 -1      1927 9.51777E-05-2.85495E-05-2.85547E-05 1.51735E-08 4.51069E-19 5.14195E-20
 -1      1928 9.51981E-05-2.85500E-05-2.85638E-05 4.86372E-09-5.21465E-19 9.14847E-19
 -1      1929 9.51775E-05-2.85505E-05-2.85542E-05 1.96074E-08 4.52548E-19-3.67345E-19
 -1      1930 9.51820E-05-2.85528E-05-2.85552E-05 2.17253E-08 1.38516E-18-3.15334E-19
 -1      1931 9.51953E-05-2.85534E-05-2.85611E-05 1.87551E-08 6.91450E-19 4.27045E-19
 -1      1932 9.51837E-05-2.85540E-05-2.85555E-05 2.39285E-08 2.27357E-18-7.08689E-19
 -1      1933 9.51896E-05-2.85564E-05-2.85570E-05 2.47016E-08 2.03423E-18-3.73246E-19
 -1      1934 9.51974E-05-2.85568E-05-2.85604E-05 2.64773E-08 1.28973E-18 7.23374E-19
 -1      1935 9.51924E-05-2.85578E-05-2.85577E-05 2.53583E-08 1.37690E-18 9.39439E-19
 -1      1936 9.51988E-05-2.85601E-05-2.85594E-05 2.51978E-08 1.90752E-18 1.55367E-18
 -1      1937 9.52023E-05-2.85603E-05-2.85610E-05 2.98978E-08 2.46659E-18 1.18814E-18
 -1      1938 9.52021E-05-2.85615E-05-2.85603E-05 2.47519E-08 1.92607E-18 1.55509E-18
 -1      1939 9.52084E-05-2.85638E-05-2.85620E-05 2.38919E-08 1.21453E-18 1.62902E-18
 -1      1940 9.52088E-05-2.85636E-05-2.85623E-05 3.02964E-08 2.12011E-18 1.03508E-18
 -1      1941 9.52119E-05-2.85651E-05-2.85630E-05 2.25850E-08-5.02512E-19 1.29535E-18
 -1      1942 9.52176E-05-2.85672E-05-2.85645E-05 2.11027E-08-5.37866E-19 8.25246E-19
 -1      1943 9.52159E-05-2.85669E-05-2.85639E-05 2.84607E-08 9.90150E-20 7.78615E-19
 -1      1944 9.52209E-05-2.85686E-05-2.85654E-05 1.90347E-08 2.87443E-20 8.71801E-19
 -1      1945 9.52257E-05-2.85705E-05-2.85666E-05 1.68703E-08 1.48827E-19 1.99086E-18
 -1      1946 9.52229E-05-2.85701E-05-2.85655E-05 2.47803E-08-3.87131E-19 2.09608E-18
 -1      1947 9.52284E-05-2.85716E-05-2.85673E-05 1.41949E-08 1.77113E-19 2.57899E-18
 -1      1948 9.52320E-05-2.85731E-05-2.85682E-05 1.13935E-08 4.73978E-19 1.59778E-18
 -1      1949 9.52338E-05-2.85753E-05-2.85679E-05 1.32925E-08-6.25891E-19 1.83143E-18
 -1      1950 9.52289E-05-2.85731E-05-2.85668E-05 1.95717E-08 6.92103E-19 2.81375E-18
 -1      1951 1.03006E-04-3.02317E-05-3.11530E-05-1.60801E-06 1.89186E-18 3.24116E-18
 -1      1952 1.03133E-04-3.00222E-05-3.12706E-05-4.34797E-07 2.18415E-18 4.06814E-18
 -1      1953 1.03165E-04-2.93696E-05-3.16442E-05 2.17664E-07 2.65606E-18 2.54099E-18
 -1      1954 1.03970E-04-3.08577E-05-3.13094E-05-3.01677E-06 1.39548E-18 2.27362E-18
 -1      1955 1.03340E-04-3.05232E-05-3.11569E-05-2.37203E-06 1.44436E-18 2.87451E-18
 -1      1956 1.03262E-04-3.01844E-05-3.13375E-05-2.47661E-06 1.86989E-18 1.89400E-18
 -1      1957 1.05690E-04-3.16586E-05-3.17221E-05-3.60608E-06 8.91762E-19 1.74842E-18
 -1      1958 1.04678E-04-3.12235E-05-3.14553E-05-3.32371E-06 1.06887E-18 2.06314E-18
 -1      1959 1.04320E-04-3.09806E-05-3.14508E-05-3.88053E-06 1.37523E-18 1.02611E-18
 -1      1960 1.07706E-04-3.25950E-05-3.22017E-05-3.39352E-06 4.21205E-19 1.21647E-18
 -1      1961 1.06608E-04-3.21173E-05-3.19192E-05-3.48419E-06 6.33151E-19 1.66838E-18
 -1      1962 1.05988E-04-3.19382E-05-3.17524E-05-4.27108E-06 8.16718E-19 5.91408E-19
 -1      1963 1.09533E-04-3.35454E-05-3.25915E-05-2.24611E-06 5.95742E-19 1.05647E-18
 -1      1964 1.08646E-04-3.31142E-05-3.23800E-05-2.78887E-06 4.77680E-19 1.32628E-18
 -1      1965 1.07900E-04-3.30491E-05-3.20878E-05-3.60986E-06 6.76362E-19 3.42605E-19
 -1      1966 1.10631E-04-3.42865E-05-3.27505E-05-5.97083E-08 6.20041E-19 1.12200E-18
 -1      1967 1.10269E-04-3.40356E-05-3.26916E-05-1.11572E-06 6.53354E-19 1.14627E-18
 -1      1968 1.09637E-04-3.41716E-05-3.23372E-05-1.75968E-06 7.76789E-19 3.28260E-19
 -1      1969 1.10439E-04-3.44730E-05-3.25812E-05 2.99431E-06 3.88338E-19 7.03249E-19
 -1      1970 1.10890E-04-3.45758E-05-3.27331E-05 1.50431E-06 4.32979E-19 1.17732E-18
 -1      1971 1.10686E-04-3.49888E-05-3.24175E-05 1.27363E-06 6.63544E-19 7.74495E-19
 -1      1972 1.08550E-04-3.37078E-05-3.20781E-05 6.18990E-06-2.06696E-19 1.04039E-18
 -1      1973 1.09955E-04-3.43189E-05-3.24432E-05 4.62470E-06-2.46831E-20 7.39361E-19
 -1      1974 1.10485E-04-3.50094E-05-3.23050E-05 5.02783E-06 1.08109E-19 8.91545E-19
 -1      1975 1.05037E-04-3.18057E-05-3.13658E-05 8.15740E-06 2.52666E-19 1.13412E-18
 -1      1976 1.07220E-04-3.29208E-05-3.18632E-05 7.19155E-06 6.63928E-20 1.20366E-18
 -1      1977 1.08641E-04-3.37475E-05-3.20516E-05 8.32260E-06-3.04535E-20 7.80137E-19
 -1      1978 1.00841E-04-2.92161E-05-3.06784E-05 7.38354E-06 6.06449E-19 1.32823E-18
 -1      1979 1.03190E-04-3.05091E-05-3.11524E-05 7.73921E-06 3.96276E-19 9.73161E-19
 -1      1980 1.05379E-04-3.12027E-05-3.17695E-05 9.39581E-06 4.86099E-19 5.44622E-19
 -1      1981 9.77668E-05-2.71680E-05-3.02687E-05 3.39713E-06 1.23815E-18 7.26417E-19
 -1      1982 9.93472E-05-2.80256E-05-3.05452E-05 5.25240E-06 1.22915E-18 1.06459E-18
 -1      1983 1.01929E-04-2.83240E-05-3.15716E-05 6.84502E-06 1.30121E-18 5.30957E-19
 -1      1984 9.75243E-05-2.69329E-05-3.02955E-05-2.33474E-06 1.11235E-18-8.16778E-19
 -1      1985 9.75606E-05-2.68499E-05-3.02626E-05 2.83469E-07 1.06227E-18-1.65669E-19
 -1      1986 1.00147E-04-2.67294E-05-3.15255E-05 1.05871E-06 1.53936E-18-2.42046E-19
 -1      1987 1.00416E-04-2.87199E-05-3.07641E-05-7.11275E-06 7.78397E-19-1.41271E-18
 -1      1988 9.88185E-05-2.77255E-05-3.04226E-05-4.96854E-06 8.98702E-19-1.26593E-18
 -1      1989 1.01189E-04-2.74660E-05-3.16399E-05-5.42992E-06 1.36654E-18-1.14422E-18
 -1      1990 1.05039E-04-3.14620E-05-3.15364E-05-8.93201E-06 1.36724E-18-2.00424E-18
 -1      1991 1.02482E-04-3.00927E-05-3.09983E-05-8.10838E-06 1.14044E-18-1.66474E-18
 -1      1992 1.04516E-04-3.00855E-05-3.18993E-05-9.57750E-06 1.25582E-18-2.27807E-18
 -1      1993 1.09400E-04-3.37893E-05-3.23763E-05-7.69623E-06 1.10126E-18-2.40110E-18
 -1      1994 1.06858E-04-3.26400E-05-3.18144E-05-8.18673E-06 1.06266E-18-2.04169E-18
 -1      1995 1.08382E-04-3.30553E-05-3.22603E-05-9.99519E-06 1.36605E-18-1.73900E-18
 -1      1996 1.12184E-04-3.49932E-05-3.30429E-05-4.72218E-06 1.60619E-19-2.42279E-18
 -1      1997 1.10377E-04-3.43568E-05-3.26131E-05-5.94861E-06 8.36379E-19-2.39119E-18
 -1      1998 1.11198E-04-3.50303E-05-3.26266E-05-7.45136E-06 1.10380E-18-2.45761E-18
 -1      1999 1.13092E-04-3.51230E-05-3.33840E-05-1.50335E-06-1.14194E-18-2.55978E-18
 -1      2000 1.12277E-04-3.49828E-05-3.31695E-05-2.84031E-06-4.37493E-19-2.38891E-18
 -1      2001 1.12340E-04-3.56192E-05-3.28783E-05-3.69991E-06-4.74140E-20-1.88535E-18
 -1      2002 1.12469E-04-3.45668E-05-3.33701E-05 1.04336E-06-5.01655E-19-3.01065E-18
 -1      2003 1.12545E-04-3.47663E-05-3.33740E-05-2.41338E-08-8.66051E-19-2.72050E-18
 -1      2004 1.11986E-04-3.51656E-05-3.29306E-05-2.09897E-07-5.12865E-19-2.54841E-18
 -1      2005 1.10862E-04-3.37039E-05-3.30637E-05 2.63703E-06 2.76027E-19-3.40376E-18
 -1      2006 1.11566E-04-3.40808E-05-3.32375E-05 1.95810E-06-1.74211E-19-3.38174E-18
 -1      2007 1.10629E-04-3.41993E-05-3.27650E-05 2.30201E-06 1.04585E-19-3.12482E-18
 -1      2008 1.08764E-04-3.27813E-05-3.25674E-05 3.38265E-06 2.25160E-18-3.80046E-18
 -1      2009 1.09818E-04-3.32189E-05-3.28454E-05 3.05302E-06 1.35601E-18-3.15834E-18
 -1      2010 1.08745E-04-3.31163E-05-3.24194E-05 3.73168E-06 1.20349E-18-3.14672E-18
 -1      2011 1.06534E-04-3.19243E-05-3.19819E-05 3.52363E-06 3.68686E-19-3.74448E-18
 -1      2012 1.07716E-04-3.23540E-05-3.23046E-05 3.44589E-06 1.60937E-18-3.58178E-18
 -1      2013 1.06682E-04-3.21213E-05-3.19592E-05 4.28476E-06 1.78571E-18-3.16147E-18
 -1      2014 1.04397E-04-3.11819E-05-3.13847E-05 3.29940E-06-2.09891E-18-3.39466E-18
 -1      2015 1.05559E-04-3.15693E-05-3.17087E-05 3.37623E-06-1.14608E-18-3.72220E-18
 -1      2016 1.04664E-04-3.12858E-05-3.14501E-05 4.24714E-06-8.40574E-19-2.35209E-18
 -1      2017 1.02478E-04-3.05644E-05-3.08260E-05 2.89236E-06-1.94417E-18-2.17004E-18
 -1      2018 1.03534E-04-3.08957E-05-3.11249E-05 3.04874E-06-2.02738E-18-3.14718E-18
 -1      2019 1.02814E-04-3.06146E-05-3.09442E-05 3.87061E-06-2.22110E-18-2.24390E-18
 -1      2020 1.00831E-04-3.00642E-05-3.03329E-05 2.42273E-06-6.86964E-19-1.24288E-18
 -1      2021 1.01741E-04-3.03375E-05-3.05933E-05 2.60861E-06-1.18974E-18-1.76609E-18
 -1      2022 1.01195E-04-3.00877E-05-3.04759E-05 3.33799E-06-1.42492E-18-2.49715E-18
 -1      2023 9.94636E-05-2.96675E-05-2.99155E-05 1.96114E-06 2.21350E-19 4.87467E-19
 -1      2024 1.00218E-04-2.98867E-05-3.01333E-05 2.14667E-06 3.70936E-19 1.07972E-20
 -1      2025 9.98258E-05-2.96797E-05-3.00639E-05 2.76632E-06-1.92171E-19-8.36817E-19
 -1      2026 9.83594E-05-2.93585E-05-2.95736E-05 1.54405E-06-9.21795E-19 7.02229E-19
 -1      2027 9.89669E-05-2.95302E-05-2.97500E-05 1.71346E-06-5.74977E-19 6.34390E-19
 -1      2028 9.86988E-05-2.93671E-05-2.97150E-05 2.22261E-06-5.50633E-19 6.94872E-19
 -1      2029 9.74888E-05-2.91221E-05-2.93009E-05 1.18655E-06-4.10101E-19 7.59025E-19
 -1      2030 9.79653E-05-2.92537E-05-2.94401E-05 1.33296E-06-7.24015E-19 9.17814E-19
 -1      2031 9.77931E-05-2.91303E-05-2.94284E-05 1.74006E-06-4.76905E-19 1.82259E-18
 -1      2032 9.68169E-05-2.89444E-05-2.90886E-05 8.91252E-07 4.93835E-20 9.21052E-19
 -1      2033 9.71823E-05-2.90432E-05-2.91958E-05 1.01305E-06-3.10044E-20 7.18203E-19
 -1      2034 9.70807E-05-2.89531E-05-2.91991E-05 1.33092E-06 7.85640E-20 1.28831E-18
 -1      2035 9.63093E-05-2.88135E-05-2.89268E-05 6.54204E-07-5.64649E-19 4.42569E-19
 -1      2036 9.65833E-05-2.88861E-05-2.90076E-05 7.52631E-07-4.87960E-19 6.78316E-19
 -1      2037 9.65317E-05-2.88226E-05-2.90197E-05 9.95424E-07-9.54244E-20 5.20686E-19
 -1      2038 9.59340E-05-2.87190E-05-2.88062E-05 4.68397E-07 7.64246E-19-7.64769E-19
 -1      2039 9.61348E-05-2.87711E-05-2.88657E-05 5.46046E-07-6.79897E-20-3.10752E-19
 -1      2040 9.61170E-05-2.87282E-05-2.88823E-05 7.27528E-07 4.11391E-19-9.27152E-19
 -1      2041 9.56628E-05-2.86527E-05-2.87183E-05 3.25844E-07 1.37361E-18-9.33935E-19
 -1      2042 9.58064E-05-2.86891E-05-2.87611E-05 3.85808E-07 1.16628E-18-4.97656E-19
 -1      2043 9.58102E-05-2.86613E-05-2.87794E-05 5.18429E-07 1.02192E-18-1.83678E-18
 -1      2044 9.54721E-05-2.86075E-05-2.86559E-05 2.18706E-07 6.24840E-19-7.04491E-19
 -1      2045 9.55718E-05-2.86320E-05-2.86858E-05 2.64084E-07 9.15187E-19 4.52772E-20
 -1      2046 9.55885E-05-2.86154E-05-2.87039E-05 3.58598E-07 9.87215E-19-1.12231E-18
 -1      2047 9.53423E-05-2.85780E-05-2.86129E-05 1.39860E-07 1.60171E-18-2.24146E-18
 -1      2048 9.54091E-05-2.85938E-05-2.86331E-05 1.73508E-07 1.20048E-18-1.10548E-18
 -1      2049 9.54324E-05-2.85849E-05-2.86499E-05 2.38896E-07 1.62006E-18-8.18130E-19
 -1      2050 9.52577E-05-2.85599E-05-2.85844E-05 8.31308E-08 9.17021E-19-1.50837E-18
 -1      2051 9.53003E-05-2.85694E-05-2.85974E-05 1.07551E-07 9.50149E-19-1.80202E-18
 -1      2052 9.53261E-05-2.85658E-05-2.86123E-05 1.51120E-07 1.67054E-18 8.55267E-20
 -1      2053 9.52059E-05-2.85499E-05-2.85665E-05 4.33480E-08-9.24167E-19-1.81304E-18
 -1      2054 9.52311E-05-2.85549E-05-2.85744E-05 6.06534E-08 1.44539E-19-1.70846E-18
 -1      2055 9.52567E-05-2.85547E-05-2.85872E-05 8.82121E-08 3.42202E-19 6.28313E-19
 -1      2056 9.51774E-05-2.85454E-05-2.85563E-05 1.62915E-08 4.21588E-19-1.77926E-18
 -1      2057 9.51904E-05-2.85474E-05-2.85605E-05 2.82196E-08-2.36413E-19-2.00977E-18
 -1      2058 9.52141E-05-2.85492E-05-2.85712E-05 4.42941E-08 9.29803E-22-2.15420E-19
 -1      2059 9.51650E-05-2.85446E-05-2.85514E-05-1.40315E-09-8.27141E-19-1.08978E-18
 -1      2060 9.51696E-05-2.85446E-05-2.85530E-05 6.54266E-09 3.46563E-20-1.30834E-18
 -1      2061 9.51906E-05-2.85474E-05-2.85617E-05 1.45908E-08-3.69726E-19 5.96978E-20
 -1      2062 9.51632E-05-2.85461E-05-2.85500E-05-1.23597E-08-7.15934E-19-1.23984E-18
 -1      2063 9.51624E-05-2.85449E-05-2.85500E-05-7.30128E-09-4.43666E-19-1.25758E-18
 -1      2064 9.51803E-05-2.85482E-05-2.85569E-05-4.68842E-09-6.86554E-19-5.87700E-19
 -1      2065 9.51683E-05-2.85490E-05-2.85509E-05-1.85748E-08-1.52429E-18-1.67655E-18
 -1      2066 9.51641E-05-2.85471E-05-2.85499E-05-1.55655E-08-1.60856E-18-1.61132E-18
 -1      2067 9.51788E-05-2.85504E-05-2.85553E-05-1.64843E-08-1.19151E-18-3.11128E-19
 -1      2068 9.51773E-05-2.85527E-05-2.85532E-05-2.15209E-08-3.87761E-19 2.48324E-19
 -1      2069 9.51712E-05-2.85504E-05-2.85516E-05-1.99396E-08-7.47531E-19-6.36874E-19
 -1      2070 9.51829E-05-2.85534E-05-2.85557E-05-2.30181E-08-1.15332E-18 5.24970E-20
 -1      2071 9.51883E-05-2.85567E-05-2.85563E-05-2.22321E-08 1.94897E-18-4.77469E-19
 -1      2072 9.51814E-05-2.85543E-05-2.85544E-05-2.16420E-08 8.25019E-19-1.33721E-19
 -1      2073 9.51902E-05-2.85568E-05-2.85573E-05-2.59084E-08 9.99389E-19 3.24408E-19
 -1      2074 9.51999E-05-2.85606E-05-2.85596E-05-2.13712E-08 2.19056E-18-1.80603E-18
 -1      2075 9.51929E-05-2.85583E-05-2.85577E-05-2.14955E-08 2.65325E-18-7.30428E-19
 -1      2076 9.51992E-05-2.85604E-05-2.85596E-05-2.62682E-08 2.35312E-18 7.28617E-19
 -1      2077 9.52111E-05-2.85644E-05-2.85628E-05-1.92726E-08 1.13101E-19-1.31667E-18
 -1      2078 9.52045E-05-2.85622E-05-2.85610E-05-1.99828E-08 8.44889E-19-1.81253E-18
 -1      2079 9.52087E-05-2.85639E-05-2.85621E-05-2.47805E-08 1.29811E-18-2.72972E-19
 -1      2080 9.52211E-05-2.85679E-05-2.85656E-05-1.59928E-08-1.76581E-18-9.97395E-20
 -1      2081 9.52153E-05-2.85659E-05-2.85641E-05-1.72910E-08-1.18369E-18-5.70608E-19
 -1      2082 9.52177E-05-2.85673E-05-2.85645E-05-2.17526E-08-1.04276E-18 7.14142E-19
 -1      2083 9.52292E-05-2.85710E-05-2.85678E-05-1.13854E-08-8.64329E-19 2.38453E-18
 -1      2084 9.52247E-05-2.85693E-05-2.85666E-05-1.33989E-08-1.46106E-18 1.17736E-18
 -1      2085 9.52258E-05-2.85705E-05-2.85666E-05-1.72558E-08-2.22476E-18 2.50496E-18
 -1      2086 9.52342E-05-2.85731E-05-2.85691E-05-7.00574E-09-3.86669E-19 2.17345E-18
 -1      2087 9.52311E-05-2.85719E-05-2.85683E-05-9.63501E-09-4.02267E-19 2.55714E-18
 -1      2088 9.52316E-05-2.85730E-05-2.85679E-05-1.26678E-08-2.53734E-19 3.97596E-18
 -1      2089 9.52352E-05-2.85749E-05-2.85687E-05-8.64195E-09 4.49249E-19 4.31497E-18
 -1      2090 9.52449E-05-2.85953E-05-2.85641E-05-1.68346E-08 4.59022E-19-7.69455E-19
 -1      2091 9.52429E-05-2.85909E-05-2.85652E-05-1.69523E-08 2.90376E-19 9.82450E-19
 -1      2092 9.52411E-05-2.85875E-05-2.85658E-05-1.65051E-08 7.22721E-20 1.53644E-19
 -1      2093 9.52391E-05-2.85833E-05-2.85668E-05-1.53708E-08 1.16650E-19 4.91562E-19
 -1      2094 9.52412E-05-2.85874E-05-2.85659E-05-2.09060E-08-7.28606E-19 2.35664E-19
 -1      2095 9.52379E-05-2.85808E-05-2.85673E-05-1.35560E-08 3.84613E-20 8.70934E-19
 -1      2096 9.52362E-05-2.85772E-05-2.85682E-05-1.12486E-08 2.22312E-19 3.22953E-18
 -1      2097 9.52347E-05-2.85765E-05-2.85678E-05-1.35292E-08 8.68209E-20 2.90879E-18
 -1      2098 9.52376E-05-2.85814E-05-2.85669E-05-1.83254E-08-1.33497E-18 8.63189E-19
 -1      2099 9.52480E-05-2.86022E-05-2.85624E-05-1.49691E-08-2.73998E-19-4.96358E-18
 -1      2100 9.52463E-05-2.85983E-05-2.85634E-05-1.60096E-08 4.80833E-20-3.61240E-18
 -1      2101 9.52451E-05-2.85940E-05-2.85648E-05-2.04142E-08-4.25218E-19-3.15354E-18
 -1      2102 9.52504E-05-2.86080E-05-2.85610E-05-1.14119E-08 1.03104E-19-6.39610E-19
 -1      2103 9.52492E-05-2.86048E-05-2.85618E-05-1.31446E-08 6.73539E-19-1.40865E-18
 -1      2104 9.52484E-05-2.85998E-05-2.85637E-05-1.74455E-08 1.01863E-18-3.23305E-18
 -1      2105 9.52520E-05-2.86118E-05-2.85600E-05-6.74038E-09 4.53333E-21 5.72021E-19
 -1      2106 9.52512E-05-2.86098E-05-2.85605E-05-8.90152E-09 6.09722E-19-1.08827E-19
 -1      2107 9.52507E-05-2.86043E-05-2.85628E-05-1.26008E-08 3.26412E-19-4.91611E-19
 -1      2108 9.52527E-05-2.86134E-05-2.85596E-05-1.47008E-09 5.06843E-19 1.58758E-18
 -1      2109 9.52524E-05-2.86128E-05-2.85598E-05-3.83624E-09-6.59930E-19 1.92867E-18
 -1      2110 9.52521E-05-2.86071E-05-2.85622E-05-6.56088E-09-3.59192E-20 1.00358E-18
 -1      2111 9.52524E-05-2.86127E-05-2.85598E-05 3.92466E-09 1.19115E-18 4.98370E-19
 -1      2112 9.52527E-05-2.86134E-05-2.85596E-05 1.56046E-09 1.03103E-18 2.06780E-18
 -1      2113 9.52526E-05-2.86081E-05-2.85620E-05 5.61501E-11-9.45670E-19 1.64190E-18
 -1      2114 9.52512E-05-2.86097E-05-2.85606E-05 8.97946E-09 3.20815E-19-3.56862E-18
 -1      2115 9.52520E-05-2.86118E-05-2.85600E-05 6.82468E-09 7.47464E-19-9.80250E-19
 -1      2116 9.52521E-05-2.86071E-05-2.85622E-05 6.66833E-09-3.43457E-19-8.62148E-19
 -1      2117 9.52492E-05-2.86048E-05-2.85618E-05 1.31424E-08 1.42831E-18-3.60565E-18
 -1      2118 9.52504E-05-2.86079E-05-2.85610E-05 1.14446E-08 1.40177E-18-4.37014E-18
 -1      2119 9.52507E-05-2.86043E-05-2.85628E-05 1.26503E-08 2.33815E-19-3.15884E-18
 -1      2120 9.52463E-05-2.85982E-05-2.85634E-05 1.60228E-08 1.56224E-18 6.92953E-19
 -1      2121 9.52480E-05-2.86022E-05-2.85624E-05 1.49716E-08 2.00905E-18-7.89848E-19
 -1      2122 9.52484E-05-2.85998E-05-2.85637E-05 1.74457E-08 2.30060E-18-2.05282E-18
 -1      2123 9.52428E-05-2.85908E-05-2.85652E-05 1.69472E-08 5.61995E-19-1.79443E-18
 -1      2124 9.52448E-05-2.85951E-05-2.85641E-05 1.68491E-08 1.14642E-18-3.59940E-19
 -1      2125 9.52451E-05-2.85940E-05-2.85648E-05 2.04316E-08 2.41347E-18-3.99684E-19
 -1      2126 9.52389E-05-2.85830E-05-2.85669E-05 1.54513E-08-1.07600E-18-1.77045E-18
 -1      2127 9.52411E-05-2.85874E-05-2.85659E-05 1.64823E-08-2.80690E-19-1.90883E-18
 -1      2128 9.52411E-05-2.85873E-05-2.85659E-05 2.08671E-08 1.24455E-18-2.59295E-18
 -1      2129 5.78641E-05-3.97291E-05-8.31179E-06 3.96328E-05 4.56508E-18 5.44351E-18
 -1      2130 4.27228E-05-4.09250E-05-2.02257E-06 3.25485E-05 2.88076E-18 5.55040E-18
 -1      2131 1.19063E-05-3.38396E-05 8.05992E-06 4.78749E-06 7.25907E-19 7.61567E-18
 -1      2132 1.22919E-05-3.52817E-05 8.33660E-06-4.26567E-06-1.18066E-18 7.22646E-18
 -1      2133 2.61358E-05-3.42048E-05 2.56795E-06 2.61815E-05 2.50256E-18 6.22717E-18
 -1      2134 1.79663E-05-3.57044E-05 6.14708E-06 1.60207E-05 4.91279E-19 7.31498E-18
 -1      2135 9.65253E-05-4.25632E-05-2.30512E-05 4.22675E-05 4.65529E-18 4.35883E-18
 -1      2136 7.78195E-05-4.49282E-05-1.51278E-05 3.78839E-05 4.15978E-18 4.43358E-18
 -1      2137 1.32644E-04-4.17905E-05-3.85235E-05 3.59113E-05 5.88603E-18 1.27436E-18
 -1      2138 1.11238E-04-4.22064E-05-3.02207E-05 3.57830E-05 5.81192E-18 3.05101E-18
 -1      2139 8.70947E-05-8.04582E-06-3.39830E-05-5.91521E-06-2.68584E-18-4.23596E-18
 -1      2140 8.89415E-05-8.95974E-06-3.43453E-05-7.38753E-06-3.11097E-18-3.53790E-18
 -1      2141 9.20043E-05-1.29525E-05-3.39289E-05-6.96606E-06-3.26329E-18-2.89886E-18
 -1      2142 8.77025E-05-9.75774E-06-3.34260E-05-4.69913E-06-2.68973E-18-4.16045E-18
 -1      2143 1.77717E-04-2.91302E-05-6.23961E-05 9.61632E-06 7.09009E-18-3.53382E-18
 -1      2144 1.66104E-04-3.01937E-05-5.77795E-05 1.49035E-05 6.96642E-18-1.72244E-18
 -1      2145 1.83887E-04-2.47367E-05-6.69821E-05-8.44976E-07 8.19547E-18-5.52239E-18
 -1      2146 1.80879E-04-2.50387E-05-6.56315E-05 6.68591E-06 7.64151E-18-3.48533E-18
 -1      2147 1.71223E-04-2.33423E-05-6.28827E-05-6.99584E-06 8.62915E-18-6.37646E-18
 -1      2148 1.78439E-04-2.34541E-05-6.53354E-05-2.13242E-06 8.52157E-18-4.99569E-18
 -1      2149 1.59827E-04-3.33900E-05-5.39015E-05-1.82689E-05 8.80586E-18-8.29711E-18
 -1      2150 1.70384E-04-3.09810E-05-5.90961E-05-1.09523E-05 8.13935E-18-6.53232E-18
 -1      2151 1.38016E-04-3.96546E-05-4.22743E-05-2.86113E-05 8.45911E-18-9.76968E-18
 -1      2152 1.56258E-04-3.88842E-05-4.95051E-05-2.64568E-05 8.59918E-18-9.13737E-18
 -1      2153 1.54244E-04-3.83645E-05-4.88164E-05-5.16766E-06 6.43554E-18-3.56389E-18
 -1      2154 1.02178E-04-4.34704E-05-2.59612E-05-3.75537E-05 7.74993E-18-1.02978E-17
 -1      2155 1.22828E-04-4.18204E-05-3.43075E-05-3.99513E-05 8.34497E-18-1.05879E-17
 -1      2156 6.73634E-05-4.43998E-05-1.09176E-05-3.81784E-05 5.36299E-18-8.84715E-18
 -1      2157 8.53422E-05-4.18823E-05-1.87591E-05-4.31583E-05 7.40476E-18-1.05250E-17
 -1      2158 3.30555E-05-3.93314E-05 1.31836E-06-2.80481E-05 2.71051E-18-8.95208E-18
 -1      2159 4.71039E-05-3.76422E-05-4.53984E-06-3.80268E-05 4.23135E-18-9.28920E-18
 -1      2160 1.35844E-05-3.57881E-05 7.95362E-06-9.32338E-06 1.01072E-18-7.94009E-18
 -1      2161 1.89859E-05-3.59192E-05 5.80447E-06-1.87130E-05 3.42752E-18-8.58214E-18
 -1      2162 1.56683E-05-2.94483E-05 5.12087E-06 1.43257E-05-6.32310E-19-8.33735E-18
 -1      2163 1.26901E-05-3.39178E-05 7.56390E-06 1.78279E-06 8.48469E-19-8.53386E-18
 -1      2164 4.16651E-05-3.87071E-05-2.23456E-06 3.42274E-05-4.00054E-18-7.60043E-18
 -1      2165 2.99234E-05-3.57066E-05 1.71692E-06 2.87554E-05-1.57633E-18-7.10110E-18
 -1      2166 7.08291E-05-4.04109E-05-1.34973E-05 4.20317E-05-5.84453E-18-8.22458E-18
 -1      2167 5.47973E-05-4.28215E-05-6.57313E-06 3.53356E-05-4.43676E-18-7.24675E-18
 -1      2168 5.84081E-05-4.23584E-05-7.47348E-06 4.13593E-05-5.58195E-19-6.94302E-18
 -1      2169 1.13420E-04-4.45784E-05-2.92187E-05 4.07257E-05-6.06857E-18-7.12778E-18
 -1      2170 9.36339E-05-4.63385E-05-2.11768E-05 3.77512E-05-5.44473E-18-7.16018E-18
 -1      2171 1.45952E-04-4.10878E-05-4.42448E-05 3.13256E-05-7.02720E-18-6.10668E-18
 -1      2172 1.25967E-04-4.20154E-05-3.63830E-05 3.29399E-05-7.11232E-18-6.71443E-18
 -1      2173 1.70026E-04-3.40941E-05-5.69809E-05 1.88235E-05-7.81091E-18-4.07973E-18
 -1      2174 1.54553E-04-3.54184E-05-5.08799E-05 2.14495E-05-7.83201E-18-4.97717E-18
 -1      2175 1.83859E-04-2.82739E-05-6.51208E-05 8.73723E-06-7.93162E-18-2.38630E-18
 -1      2176 1.74307E-04-2.84629E-05-6.16389E-05 1.50054E-05-8.30368E-18-4.09540E-18
 -1      2177 1.86419E-04-2.57761E-05-6.74596E-05-2.22246E-06-7.43144E-18-8.44015E-19
 -1      2178 1.85885E-04-2.59524E-05-6.71230E-05 5.71861E-06-7.56316E-18-2.60685E-18
 -1      2179 1.74695E-04-2.67701E-05-6.26663E-05-9.78970E-06-7.65442E-18 1.17526E-18
 -1      2180 1.81544E-04-2.59383E-05-6.53850E-05-3.64650E-06-7.24637E-18-6.79744E-19
 -1      2181 1.58694E-04-3.27070E-05-5.37424E-05-1.65234E-05-7.29761E-18 2.11716E-18
 -1      2182 1.74039E-04-3.20660E-05-5.95799E-05-1.39880E-05-7.80837E-18 1.53398E-18
 -1      2183 1.58696E-04-2.33162E-05-5.71096E-05 1.90547E-06-7.47951E-18-1.24747E-18
 -1      2184 1.33992E-04-4.17319E-05-3.96862E-05-2.96248E-05-4.75821E-18 5.32911E-18
 -1      2185 1.51277E-04-4.09353E-05-4.67465E-05-2.56529E-05-5.31471E-18 3.51603E-18
 -1      2186 1.01168E-04-4.31529E-05-2.56572E-05-3.69640E-05-4.44269E-18 6.17826E-18
 -1      2187 1.20337E-04-4.13431E-05-3.35344E-05-3.95048E-05-4.94328E-18 6.81311E-18
 -1      2188 6.65355E-05-4.37634E-05-1.10338E-05-3.69290E-05-4.04543E-18 5.51641E-18
 -1      2189 8.45538E-05-4.22106E-05-1.82983E-05-4.23625E-05-4.23855E-18 6.21108E-18
 -1      2190 3.67882E-05-4.05541E-05 1.22514E-07-2.95380E-05-2.35983E-18 6.07513E-18
 -1      2191 4.92650E-05-3.87801E-05-5.28790E-06-3.64516E-05-3.80487E-18 6.08794E-18
 -1      2192 1.60346E-05-3.76115E-05 7.53910E-06-1.28108E-05-8.76467E-19 5.95676E-18
 -1      2193 2.17674E-05-3.53119E-05 4.55298E-06-2.17413E-05-2.33612E-18 5.42736E-18
 -1      2194 1.54627E-05-2.65818E-05 3.96437E-06-1.07843E-05-3.18590E-19 7.31879E-18
 -1      2195 1.61124E-04-3.78643E-05-5.20234E-05 1.97425E-05 6.10373E-18-1.76564E-18
 -1      2196 1.45151E-04-3.96985E-05-4.52467E-05 2.29570E-05 6.01446E-18-1.32984E-19
 -1      2197 1.16556E-04-5.34642E-05-2.69127E-05 3.38347E-05 1.68898E-18 3.64648E-19
 -1      2198 1.03398E-04-2.62382E-05-3.31301E-05-6.33043E-06-3.28172E-18 2.82384E-18
 -1      2199 1.43653E-04-4.82782E-05-4.02828E-05 1.74895E-05 3.81218E-18-2.71855E-18
 -1      2200 1.56113E-04-3.43821E-05-5.15922E-05 1.51961E-06 6.13601E-18-4.25549E-18
 -1      2201 1.01948E-04-2.47496E-05-3.31646E-05-5.89058E-06-3.50329E-18 8.19954E-19
 -1      2202 4.15669E-05-3.55694E-05-2.97659E-06 3.48281E-05-2.01594E-19 5.92987E-18
 -1      2203 1.75366E-05-2.59816E-05 3.02961E-06 1.34083E-05-3.03344E-19 7.69064E-18
 -1      2204 9.52374E-05-2.85802E-05-2.85674E-05 1.51271E-08-4.77972E-19-3.48948E-19
 -1      2205 8.03826E-05-4.85517E-05-1.38566E-05 4.17839E-05 8.28398E-19 2.96525E-18
 -1      2206 3.45469E-05-3.46161E-05-6.42484E-07-3.13683E-05-5.75771E-19 6.36228E-18
 -1      2207 6.92807E-05-4.56546E-05-1.04772E-05-4.16660E-05-1.12062E-18 4.90546E-18
 -1      2208 1.05040E-04-5.23003E-05-2.26521E-05-3.77769E-05-1.56701E-18 4.34655E-18
 -1      2209 1.53702E-04-4.02964E-05-4.79814E-05-6.98799E-06-4.90490E-18-5.31937E-19
 -1      2210 1.62835E-04-1.54878E-05-6.20005E-05 1.90103E-06-7.99599E-18-1.26060E-18
 -1      2211 1.65780E-04-1.77720E-05-6.20974E-05 5.88613E-07-8.09255E-18-1.50221E-18
 -1      2212 1.60313E-04-2.79556E-05-5.57400E-05 1.72298E-06-7.55977E-18-8.01717E-19
 -1      2213 1.51201E-04-4.38926E-05-4.53520E-05 1.23657E-05-5.49674E-18-1.68856E-18
 -1      2214 9.63971E-05-5.25662E-05-1.87427E-05 4.09656E-05-1.42429E-18-5.32265E-18
 -1      2215 2.57983E-05-2.99679E-05 1.29260E-06 2.36448E-05-1.25573E-19-7.89054E-18
 -1      2216 2.35457E-05-2.11287E-05-7.24653E-07 1.88350E-05 1.09627E-18-8.44788E-18
 -1      2217 3.75122E-05-2.89402E-05-3.78391E-06 3.22289E-05 1.24704E-18-7.05960E-18
 -1      2218 1.50679E-05-2.46674E-05 3.45801E-06-5.06035E-06 5.95094E-19-9.32244E-18
 -1      2219 3.13437E-05-3.11835E-05-5.33553E-07-3.01199E-05 8.18022E-19-9.27967E-18
 -1      2220 6.77296E-05-4.47084E-05-1.02282E-05-4.20578E-05 1.19220E-18-8.34857E-18
 -1      2221 1.39710E-04-5.06252E-05-3.76622E-05-2.27061E-05 4.61273E-18-5.79709E-18
 -1      2222 1.56374E-04-2.24123E-05-5.66594E-05 2.04189E-06 7.90578E-18-2.85111E-18
 -1      2223 1.62564E-04-1.97329E-05-6.00834E-05-1.12884E-06 7.66988E-18-4.09816E-18
 -1      2224 1.59459E-04-1.36190E-05-6.15525E-05 8.31354E-07 8.49066E-18-3.96941E-18
 -1      2225 1.07422E-04-5.31288E-05-2.32754E-05-3.80702E-05 3.27929E-18-7.39989E-18
 -1      2226 1.30599E-04-5.45956E-05-3.22610E-05 2.74927E-05-2.94513E-18-3.16303E-18
 -1      2227 1.35486E-04-5.11081E-05-3.56636E-05-2.44898E-05-2.44877E-18 2.68764E-18
 -1      2228 1.02377E-04-2.83222E-05-3.17146E-05-4.66307E-07 2.56918E-18 9.78177E-19
 -1      2229 1.02574E-04-2.76064E-05-3.20558E-05 1.48756E-06 2.94699E-18 1.32574E-18
 -1      2230 8.16526E-05-6.88148E-06-3.20848E-05-7.53857E-07-1.04128E-18-4.95644E-18
 -1      2231 8.27881E-05-7.56908E-06-3.22534E-05-1.26835E-06-1.44411E-18-4.90664E-18
 -1      2232 8.42689E-05-8.71249E-06-3.24317E-05-1.65512E-06-1.71093E-18-4.69843E-18
 -1      2233 8.58805E-05-9.73849E-06-3.26561E-05-2.39150E-06-2.23887E-18-4.41651E-18
 -1      2234 8.43920E-05-9.76527E-06-3.19752E-05-7.39038E-07-1.51175E-18-4.48217E-18
 -1      2235 7.98490E-05-5.61491E-06-3.18367E-05 1.61845E-07 3.77354E-19-5.23897E-18
 -1      2236 7.98303E-05-5.60192E-06-3.18348E-05-1.46416E-07-2.22240E-20-5.17093E-18
 -1      2237 8.08135E-05-6.24789E-06-3.19737E-05 6.00287E-07 1.07157E-18-5.17529E-18
 -1      2238 8.01960E-05-5.87920E-06-3.18810E-05 2.31741E-07 6.73978E-19-5.23381E-18
 -1      2239 8.06125E-05-7.03135E-06-3.15234E-05 3.41422E-08 5.40757E-19-4.94083E-18
 -1      2240 8.28998E-05-7.66477E-06-3.22606E-05 1.30916E-06 1.66453E-18-4.94468E-18
 -1      2241 8.17617E-05-6.97159E-06-3.20934E-05 7.90865E-07 1.27955E-18-5.14486E-18
 -1      2242 8.19732E-05-8.01585E-06-3.16866E-05 2.37641E-07 1.10965E-18-4.88626E-18
 -1      2243 8.60227E-05-9.86789E-06-3.26627E-05 2.45724E-06 2.36786E-18-4.42162E-18
 -1      2244 8.43985E-05-8.82782E-06-3.24387E-05 1.70861E-06 1.94302E-18-4.66843E-18
 -1      2245 8.45210E-05-9.88336E-06-3.19810E-05 7.68833E-07 1.74707E-18-4.51006E-18
 -1      2246 8.99993E-05-1.28598E-05-3.31053E-05 4.05132E-06 3.03336E-18-3.59368E-18
 -1      2247 8.79714E-05-1.14366E-05-3.28633E-05 3.07583E-06 2.59534E-18-4.07938E-18
 -1      2248 8.80875E-05-1.25793E-05-3.23535E-05 1.71521E-06 2.37106E-18-3.91457E-18
 -1      2249 9.47419E-05-1.68043E-05-3.34861E-05 5.87516E-06 3.68734E-18-2.21352E-18
 -1      2250 9.23263E-05-1.48562E-05-3.32734E-05 4.78886E-06 3.21875E-18-2.95675E-18
 -1      2251 9.24275E-05-1.60644E-05-3.27106E-05 2.95925E-06 2.95864E-18-2.96326E-18
 -1      2252 1.02849E-04-2.95424E-05-3.13967E-05-3.22421E-06 1.87956E-18 4.76645E-19
 -1      2253 1.02554E-04-2.90000E-05-3.14509E-05-2.12997E-06 2.24882E-18 9.01667E-19
 -1      2254 1.01422E-04-2.73915E-05-3.17486E-05-1.19258E-06 2.66817E-18-1.59335E-19
 -1      2255 1.01460E-04-2.64313E-05-3.21026E-05-9.69494E-07-2.76583E-18-3.41013E-20
 -1      2256 1.01460E-04-2.73655E-05-3.17580E-05 1.14270E-06-2.39348E-18-1.28465E-19
 -1      2257 1.44347E-04-4.97544E-05-4.09277E-05 5.70610E-06 2.14646E-18-5.23869E-18
 -1      2258 1.36738E-04-5.49171E-05-3.51739E-05 1.64165E-05 1.15440E-18-4.22564E-18
 -1      2259 1.01817E-04-2.82194E-05-3.14810E-05 2.77522E-06-2.01941E-18-2.03073E-20
 -1      2260 1.02152E-04-2.89281E-05-3.13780E-05 3.99021E-06-1.70533E-18-1.62165E-19
 -1      2261 1.00283E-04-2.64002E-05-3.16835E-05 1.94833E-06-2.34824E-18-9.19001E-19
 -1      2262 1.02645E-04-2.96333E-05-3.12444E-05 5.03345E-06-1.50841E-18-1.10205E-20
 -1      2263 1.03322E-04-3.03854E-05-3.12641E-05 5.61152E-06-1.31028E-18-1.42199E-19
 -1      2264 1.01150E-04-2.83512E-05-3.12270E-05 4.85887E-06-1.66755E-18-8.28990E-19
 -1      2265 1.04134E-04-3.12079E-05-3.12157E-05 6.06268E-06-1.00757E-18-1.51291E-21
 -1      2266 1.05071E-04-3.21127E-05-3.12899E-05 6.02286E-06-7.65006E-19-1.85219E-19
 -1      2267 1.02500E-04-3.02610E-05-3.09927E-05 6.53497E-06-1.17515E-18-6.51478E-19
 -1      2268 1.06280E-04-3.31678E-05-3.12960E-05 5.79732E-06-6.57572E-19-4.06113E-20
 -1      2269 1.07349E-04-3.42239E-05-3.13829E-05 5.06124E-06-5.32016E-19 3.43528E-21
 -1      2270 1.04564E-04-3.25551E-05-3.08995E-05 6.91102E-06-7.92368E-19-4.88003E-19
 -1      2271 1.08952E-04-3.54921E-05-3.14437E-05 4.00772E-06-5.04320E-19 1.54329E-19
 -1      2272 1.09953E-04-3.65374E-05-3.15277E-05 2.50704E-06-4.38297E-19 2.76208E-19
 -1      2273 1.07424E-04-3.53576E-05-3.09275E-05 5.75692E-06-5.12307E-19-2.13304E-19
 -1      2274 1.11767E-04-3.77695E-05-3.16819E-05 5.11853E-07-2.94761E-19 2.80482E-19
 -1      2275 1.12386E-04-3.83993E-05-3.17799E-05-1.65093E-06-4.83239E-19 1.59899E-19
 -1      2276 1.10915E-04-3.83526E-05-3.11330E-05 2.78033E-06-4.40240E-19-2.33547E-19
 -1      2277 1.13916E-04-3.90183E-05-3.21015E-05-4.42151E-06-7.03960E-19 6.27938E-19
 -1      2278 1.13762E-04-3.86085E-05-3.22572E-05-6.75995E-06-8.42652E-19 7.02647E-19
 -1      2279 1.14366E-04-4.05254E-05-3.16563E-05-2.05627E-06-3.79275E-19 1.86411E-19
 -1      2280 1.14246E-04-3.78340E-05-3.28114E-05-9.51445E-06-7.85578E-19 8.38721E-19
 -1      2281 1.13070E-04-3.58769E-05-3.30666E-05-1.10287E-05-9.18458E-19 7.10325E-19
 -1      2282 1.16483E-04-4.02199E-05-3.26691E-05-7.89316E-06-8.71632E-19 1.05974E-18
 -1      2283 1.11906E-04-3.33033E-05-3.38216E-05-1.21308E-05-1.16895E-18 6.15149E-19
 -1      2284 1.10085E-04-3.02573E-05-3.41398E-05-1.15465E-05-1.47541E-18 4.18049E-19
 -1      2285 1.15761E-04-3.58238E-05-3.42232E-05-1.23794E-05-1.21116E-18 1.16876E-18
 -1      2286 1.08022E-04-2.70394E-05-3.48491E-05-9.50387E-06-1.92891E-18 9.36071E-20
 -1      2287 1.06599E-04-2.46051E-05-3.50916E-05-6.41415E-06-2.15162E-18-1.44853E-19
 -1      2288 1.12320E-04-2.84468E-05-3.59875E-05-1.18282E-05-1.96864E-18 8.71491E-19
 -1      2289 1.05542E-04-2.30805E-05-3.53964E-05-1.57271E-06-2.38274E-18-9.55767E-19
 -1      2290 1.05619E-04-2.31078E-05-3.54153E-05 2.70110E-06-2.27264E-18-1.41565E-18
 -1      2291 1.08909E-04-2.23720E-05-3.72136E-05-4.61748E-06-2.75037E-18-3.80093E-19
 -1      2292 1.06739E-04-2.46552E-05-3.51326E-05 7.53153E-06-2.39303E-18-2.41635E-18
 -1      2293 1.08304E-04-2.71373E-05-3.49276E-05 1.06204E-05-1.95580E-18-2.93933E-18
 -1      2294 1.08984E-04-2.23899E-05-3.72328E-05 5.85322E-06-2.95636E-18-2.17022E-18
 -1      2295 1.10441E-04-3.03920E-05-3.42386E-05 1.26398E-05-1.30904E-18-3.62757E-18
 -1      2296 1.12395E-04-3.34756E-05-3.39566E-05 1.32015E-05-8.60092E-19-3.86669E-18
 -1      2297 1.12538E-04-2.85355E-05-3.60396E-05 1.30431E-05-2.18079E-18-3.63652E-18
 -1      2298 1.13578E-04-3.60259E-05-3.32231E-05 1.20697E-05-7.92833E-19-3.61481E-18
 -1      2299 1.14859E-04-3.80048E-05-3.30012E-05 1.05641E-05-1.73877E-19-3.79772E-18
 -1      2300 1.16089E-04-3.59491E-05-3.43118E-05 1.35263E-05-1.02225E-18-3.86367E-18
 -1      2301 1.14431E-04-3.88080E-05-3.24581E-05 7.80114E-06 1.05151E-19-3.60214E-18
 -1      2302 1.14691E-04-3.92629E-05-3.23280E-05 5.44590E-06 9.43317E-20-3.35127E-18
 -1      2303 1.16866E-04-4.02969E-05-3.27827E-05 9.03186E-06-7.40544E-20-3.47649E-18
 -1      2304 1.13178E-04-3.86641E-05-3.20084E-05 2.63435E-06-5.22513E-20-2.85773E-18
 -1      2305 1.12640E-04-3.80854E-05-3.19251E-05 4.30656E-07 2.31501E-19-2.49791E-18
 -1      2306 1.14829E-04-4.07052E-05-3.17743E-05 3.11261E-06 4.06129E-19-2.63186E-18
 -1      2307 1.10822E-04-3.68899E-05-3.17523E-05-1.64525E-06 4.83791E-19-1.80006E-18
 -1      2308 1.09865E-04-3.59113E-05-3.16627E-05-3.23695E-06 4.01037E-19-1.57155E-18
 -1      2309 1.11397E-04-3.86104E-05-3.12252E-05-1.85960E-06 7.88511E-19-1.23283E-18
 -1      2310 1.08219E-04-3.47011E-05-3.15538E-05-4.45439E-06-3.69071E-20-1.81931E-18
 -1      2311 1.07126E-04-3.37293E-05-3.14302E-05-5.37153E-06-2.27362E-19-2.37172E-18
 -1      2312 1.07875E-04-3.57589E-05-3.09413E-05-5.11303E-06-1.81621E-19-1.10505E-18
 -1      2313 1.05811E-04-3.27601E-05-3.13328E-05-5.89330E-06-4.24013E-20-2.01468E-18
 -1      2314 1.04741E-04-3.19645E-05-3.11728E-05-6.26080E-06 3.29397E-19-1.74834E-18
 -1      2315 1.04889E-04-3.31788E-05-3.07606E-05-6.78082E-06-1.00080E-19-1.25573E-18
 -1      2316 1.03746E-04-3.12818E-05-3.10649E-05-6.30882E-06 4.09068E-19-1.88114E-18
 -1      2317 1.02769E-04-3.06914E-05-3.08805E-05-6.29962E-06 5.69039E-19-1.64198E-18
 -1      2318 1.02569E-04-3.12340E-05-3.05915E-05-7.28154E-06 2.41027E-19-1.08099E-18
 -1      2319 1.02027E-04-3.02493E-05-3.07595E-05-6.06529E-06 4.07248E-19-2.04532E-18
 -1      2320 1.01169E-04-2.98342E-05-3.05666E-05-5.83357E-06 6.46129E-19-2.41546E-18
 -1      2321 1.00826E-04-2.99234E-05-3.03999E-05-7.03459E-06-8.91407E-20-1.49113E-18
 -1      2322 1.00609E-04-2.95654E-05-3.04386E-05-5.45614E-06 1.04638E-18-2.68503E-18
 -1      2323 9.98752E-05-2.92821E-05-3.02513E-05-5.11623E-06 1.18731E-18-2.12452E-18
 -1      2324 9.95206E-05-2.91106E-05-3.01846E-05-6.36854E-06 6.09894E-19-1.83395E-18
 -1      2325 9.94448E-05-2.91277E-05-3.01241E-05-4.68745E-06 9.23189E-19-2.13376E-18
 -1      2326 9.88297E-05-2.89378E-05-2.99523E-05-4.31474E-06 1.77356E-19-1.86434E-18
 -1      2327 9.85292E-05-2.86434E-05-2.99576E-05-5.51209E-06 8.84878E-19-2.61285E-18
 -1      2328 9.84936E-05-2.88547E-05-2.98326E-05-3.89035E-06-3.33364E-19-1.17469E-18
 -1      2329 9.79874E-05-2.87288E-05-2.96815E-05-3.52972E-06-6.64313E-20-6.96138E-19
 -1      2330 9.77638E-05-2.83983E-05-2.97333E-05-4.61196E-06 4.20591E-19-2.68012E-18
 -1      2331 9.77223E-05-2.86884E-05-2.95738E-05-3.14039E-06-3.37909E-19-1.50852E-18
 -1      2332 9.73131E-05-2.86060E-05-2.94455E-05-2.81543E-06-4.05928E-19-1.68978E-18
 -1      2333 9.71652E-05-2.82881E-05-2.95233E-05-3.75484E-06-5.94205E-19-2.02690E-18
 -1      2334 9.71035E-05-2.85901E-05-2.93519E-05-2.47544E-06-4.85158E-19-1.56764E-18
 -1      2335 9.67785E-05-2.85372E-05-2.92459E-05-2.19605E-06-4.52723E-19-1.86586E-18
 -1      2336 9.66942E-05-2.82556E-05-2.93348E-05-2.98627E-06-3.35549E-19-2.33970E-18
 -1      2337 9.66134E-05-2.85349E-05-2.91671E-05-1.90949E-06-3.02127E-19-2.09656E-18
 -1      2338 9.63598E-05-2.85019E-05-2.90816E-05-1.67735E-06-2.60075E-19-1.62509E-18
 -1      2339 9.63237E-05-2.82651E-05-2.91715E-05-2.32513E-06-5.52475E-19-1.26041E-18
 -1      2340 9.62309E-05-2.85066E-05-2.90168E-05-1.44247E-06 2.36223E-19-1.68186E-18
 -1      2341 9.60365E-05-2.84871E-05-2.89494E-05-1.25471E-06 6.13372E-19-1.36993E-19
 -1      2342 9.60341E-05-2.82952E-05-2.90341E-05-1.77395E-06 4.67306E-19-1.32903E-18
 -1      2343 9.59370E-05-2.84951E-05-2.88973E-05-1.06661E-06 4.52620E-19 5.11267E-19
 -1      2344 9.57908E-05-2.84846E-05-2.88452E-05-9.18193E-07 1.37199E-19 1.45195E-18
 -1      2345 9.58100E-05-2.83334E-05-2.89212E-05-1.32599E-06 1.06160E-18-3.01692E-19
 -1      2346 9.57152E-05-2.84937E-05-2.88041E-05-7.70657E-07-8.13182E-19 1.83184E-18
 -1      2347 9.56075E-05-2.84891E-05-2.87647E-05-6.55725E-07-7.19390E-19 1.32743E-18
 -1      2348 9.56390E-05-2.83729E-05-2.88306E-05-9.69826E-07-2.62911E-19 5.57303E-19
 -1      2349 9.55510E-05-2.84981E-05-2.87330E-05-5.42236E-07-6.23666E-19 1.07691E-18
 -1      2350 9.54733E-05-2.84973E-05-2.87038E-05-4.54977E-07-4.46213E-19 1.05307E-18
 -1      2351 9.55104E-05-2.84100E-05-2.87592E-05-6.92259E-07-1.09725E-18 1.15823E-19
 -1      2352 9.54320E-05-2.85056E-05-2.86797E-05-3.69342E-07 1.11659E-19 5.70145E-19
 -1      2353 9.53775E-05-2.85070E-05-2.86586E-05-3.04399E-07 3.85651E-19 2.75085E-19
 -1      2354 9.54156E-05-2.84429E-05-2.87041E-05-4.80060E-07-5.61122E-19 5.68914E-20
 -1      2355 9.53479E-05-2.85143E-05-2.86407E-05-2.41052E-07-6.74140E-20 4.33454E-19
 -1      2356 9.53110E-05-2.85171E-05-2.86258E-05-1.93724E-07-4.47374E-19 7.70782E-19
 -1      2357 9.53472E-05-2.84710E-05-2.86624E-05-3.20931E-07 3.56028E-19-7.92525E-19
 -1      2358 9.52904E-05-2.85233E-05-2.86128E-05-1.47856E-07-7.78610E-19 1.21127E-18
 -1      2359 9.52665E-05-2.85266E-05-2.86026E-05-1.14161E-07-7.34671E-19 1.32155E-18
 -1      2360 9.52990E-05-2.84944E-05-2.86315E-05-2.03984E-07-7.75590E-20 7.21121E-19
 -1      2361 9.52527E-05-2.85318E-05-2.85935E-05-8.17420E-08-6.00276E-19 3.38178E-19
 -1      2362 9.52382E-05-2.85353E-05-2.85868E-05-5.83963E-08 1.49717E-19-3.15237E-19
 -1      2363 9.52663E-05-2.85135E-05-2.86091E-05-1.19917E-07-1.01062E-18 5.83440E-19
 -1      2364 9.52293E-05-2.85395E-05-2.85805E-05-3.61307E-08 1.18836E-18-2.74515E-19
 -1      2365 9.52215E-05-2.85429E-05-2.85764E-05-2.04911E-08 5.12903E-19 6.17738E-19
 -1      2366 9.52449E-05-2.85286E-05-2.85933E-05-6.09973E-08 1.22563E-19-6.78671E-19
 -1      2367 9.52163E-05-2.85463E-05-2.85723E-05-5.74472E-09-3.95771E-19 5.03611E-19
 -1      2368 9.52131E-05-2.85495E-05-2.85700E-05 4.26915E-09 1.10841E-19 8.92154E-19
 -1      2369 9.52319E-05-2.85405E-05-2.85824E-05-2.09527E-08 3.02796E-19 1.05469E-18
 -1      2370 9.52104E-05-2.85521E-05-2.85675E-05 1.35537E-08 4.42769E-19 1.08127E-18
 -1      2371 9.52102E-05-2.85550E-05-2.85665E-05 1.95398E-08 1.08020E-18 1.00465E-18
 -1      2372 9.52248E-05-2.85497E-05-2.85753E-05 5.19044E-09 2.69388E-19 1.55298E-18
 -1      2373 9.52093E-05-2.85571E-05-2.85650E-05 2.49289E-08 1.07906E-18 9.27548E-19
 -1      2374 9.52111E-05-2.85596E-05-2.85648E-05 2.80777E-08 1.53697E-18 1.52799E-18
 -1      2375 9.52219E-05-2.85568E-05-2.85709E-05 2.12830E-08 7.41077E-19 2.24512E-18
 -1      2376 9.52113E-05-2.85614E-05-2.85642E-05 3.07252E-08 2.29859E-18 4.35231E-19
 -1      2377 9.52142E-05-2.85636E-05-2.85645E-05 3.18859E-08 2.65863E-18 9.00181E-19
 -1      2378 9.52216E-05-2.85623E-05-2.85684E-05 3.02234E-08 1.10549E-18 4.74916E-19
 -1      2379 9.52151E-05-2.85651E-05-2.85643E-05 3.26020E-08 2.04784E-18 6.72861E-19
 -1      2380 9.52185E-05-2.85672E-05-2.85649E-05 3.23387E-08 1.96219E-18 8.24718E-19
 -1      2381 9.52232E-05-2.85666E-05-2.85672E-05 3.41126E-08 2.23184E-18 2.43548E-19
 -1      2382 9.52199E-05-2.85685E-05-2.85649E-05 3.16470E-08 1.69039E-18 7.46182E-19
 -1      2383 9.52234E-05-2.85704E-05-2.85656E-05 3.02860E-08 1.01682E-19 1.02676E-18
 -1      2384 9.52258E-05-2.85703E-05-2.85667E-05 3.43911E-08 1.65966E-18 4.72913E-19
 -1      2385 9.52252E-05-2.85718E-05-2.85657E-05 2.84956E-08-8.52068E-19 1.95571E-18
 -1      2386 9.52285E-05-2.85737E-05-2.85664E-05 2.61656E-08 5.97730E-19 2.82841E-18
 -1      2387 9.52291E-05-2.85737E-05-2.85666E-05 3.19629E-08 7.46549E-19 3.25195E-19
 -1      2388 1.05559E-04-3.19897E-05-3.15473E-05-5.12241E-06 8.03064E-19-2.35214E-19
 -1      2389 1.04640E-04-3.12878E-05-3.14056E-05-5.14184E-06 1.08577E-18 7.30400E-21
 -1      2390 1.07524E-04-3.35630E-05-3.17381E-05-4.27840E-06 6.36377E-19-3.76093E-19
 -1      2391 1.06566E-04-3.27725E-05-3.16033E-05-4.89766E-06 6.46941E-19-3.08414E-19
 -1      2392 1.05099E-04-3.23021E-05-3.12268E-05-5.93923E-06 8.69976E-19-8.10793E-19
 -1      2393 1.09536E-04-3.52440E-05-3.19005E-05-2.03194E-06 7.07233E-19-6.01939E-21
 -1      2394 1.08771E-04-3.44938E-05-3.18162E-05-3.31247E-06 7.09264E-19-1.09850E-19
 -1      2395 1.07460E-04-3.44378E-05-3.13215E-05-4.79954E-06 6.30431E-19-7.49895E-19
 -1      2396 1.11128E-04-3.65713E-05-3.20204E-05 1.59986E-06 4.11453E-19 4.10473E-19
 -1      2397 1.10844E-04-3.61473E-05-3.20042E-05-2.57505E-07 4.42039E-19 3.59240E-19
 -1      2398 1.10144E-04-3.66951E-05-3.14941E-05-2.02187E-06 3.66064E-19-2.14439E-19
 -1      2399 1.11643E-04-3.67343E-05-3.21506E-05 6.03473E-06-1.91727E-19 8.15044E-19
 -1      2400 1.12123E-04-3.70525E-05-3.21854E-05 4.00400E-06 2.45795E-19 7.31092E-19
 -1      2401 1.12576E-04-3.83425E-05-3.18069E-05 2.33177E-06 1.15819E-19 2.83152E-19
 -1      2402 1.10442E-04-3.48672E-05-3.23830E-05 9.78857E-06 3.69381E-19 5.78064E-19
 -1      2403 1.11799E-04-3.62553E-05-3.24228E-05 8.39945E-06-1.89103E-19 8.14866E-19
 -1      2404 1.13801E-04-3.81999E-05-3.23667E-05 7.45472E-06-2.12205E-20 8.50539E-19
 -1      2405 1.07511E-04-3.09101E-05-3.27635E-05 1.06200E-05 9.68443E-19 2.84987E-19
 -1      2406 1.09408E-04-3.31348E-05-3.27678E-05 1.08709E-05 7.19496E-19 3.19497E-19
 -1      2407 1.12837E-04-3.51969E-05-3.32329E-05 1.13789E-05 7.76375E-19 3.21767E-19
 -1      2408 1.04204E-04-2.65858E-05-3.31901E-05 6.82785E-06 1.69317E-18-4.72165E-19
 -1      2409 1.05741E-04-2.85351E-05-3.31600E-05 9.17443E-06 1.37432E-18-2.76814E-19
 -1      2410 1.09729E-04-2.97630E-05-3.42650E-05 1.13103E-05 1.40153E-18-3.91620E-20
 -1      2411 1.02840E-04-2.47734E-05-3.34497E-05-6.41042E-07 1.90786E-18-7.23798E-19
 -1      2412 1.03081E-04-2.51445E-05-3.34203E-05 2.94257E-06 1.85885E-18-4.26650E-19
 -1      2413 1.06503E-04-2.47856E-05-3.50860E-05 5.71196E-06 1.70042E-18-5.58911E-19
 -1      2414 1.04687E-04-2.69324E-05-3.33890E-05-8.05776E-06 1.64777E-18-1.61409E-18
 -1      2415 1.03434E-04-2.54416E-05-3.33750E-05-5.04464E-06 2.02335E-18-9.43797E-19
 -1      2416 1.05900E-04-2.38022E-05-3.52788E-05-3.30789E-06 2.15350E-18-1.19782E-18
 -1      2417 1.08516E-04-3.14758E-05-3.30995E-05-1.17224E-05 1.32002E-18-2.04246E-18
 -1      2418 1.06488E-04-2.91602E-05-3.30666E-05-1.06167E-05 1.35278E-18-1.88411E-18
 -1      2419 1.08531E-04-2.75722E-05-3.47334E-05-1.07941E-05 1.96260E-18-2.09511E-18
 -1      2420 1.11871E-04-3.54752E-05-3.27944E-05-1.07515E-05 1.16078E-18-2.10993E-18
 -1      2421 1.10055E-04-3.36400E-05-3.27200E-05-1.15600E-05 1.35602E-18-2.12713E-18
 -1      2422 1.12187E-04-3.32841E-05-3.37795E-05-1.30792E-05 1.31518E-18-2.67447E-18
 -1      2423 1.13267E-04-3.72788E-05-3.25835E-05-6.85512E-06 7.34255E-19-1.68725E-18
 -1      2424 1.12258E-04-3.65028E-05-3.24983E-05-8.70312E-06 1.13979E-18-1.54057E-18
 -1      2425 1.14300E-04-3.75102E-05-3.28637E-05-1.04427E-05 7.27440E-19-2.23089E-18
 -1      2426 1.12739E-04-3.70382E-05-3.24380E-05-2.31547E-06-4.12972E-19-1.65538E-18
 -1      2427 1.12592E-04-3.71543E-05-3.23962E-05-4.28434E-06 3.65164E-19-1.19858E-18
 -1      2428 1.14017E-04-3.88086E-05-3.22138E-05-5.46483E-06 2.66810E-19-1.37230E-18
 -1      2429 1.11028E-04-3.56853E-05-3.22775E-05 1.41141E-06-2.63828E-19-1.85314E-18
 -1      2430 1.11520E-04-3.62745E-05-3.23159E-05-1.41921E-07-5.00848E-19-1.50095E-18
 -1      2431 1.12042E-04-3.78109E-05-3.18209E-05-5.53342E-07-3.99182E-19-1.58003E-18
 -1      2432 1.08842E-04-3.40439E-05-3.20449E-05 3.83272E-06 4.15337E-19-1.97523E-18
 -1      2433 1.09703E-04-3.47637E-05-3.21686E-05 2.85449E-06 3.25482E-19-1.68726E-18
 -1      2434 1.09399E-04-3.57849E-05-3.15680E-05 3.09860E-06 4.58374E-20-8.35462E-19
 -1      2435 1.06617E-04-3.25626E-05-3.17294E-05 5.04462E-06 1.75472E-18-2.37450E-18
 -1      2436 1.07635E-04-3.32292E-05-3.19194E-05 4.57988E-06 8.26659E-19-2.14387E-18
 -1      2437 1.06787E-04-3.36854E-05-3.13483E-05 5.26754E-06 1.01847E-18-1.15865E-18
 -1      2438 1.04561E-04-3.13916E-05-3.13525E-05 5.36353E-06 9.68845E-19-1.31334E-18
 -1      2439 1.05596E-04-3.19396E-05-3.15805E-05 5.27067E-06 1.93900E-18-1.64557E-18
 -1      2440 1.04502E-04-3.19572E-05-3.11059E-05 6.20371E-06 1.30343E-18-1.28707E-18
 -1      2441 1.02747E-04-3.05262E-05-3.09478E-05 5.11794E-06-9.38872E-19-2.00982E-18
 -1      2442 1.03719E-04-3.09511E-05-3.11872E-05 5.25547E-06 2.77002E-19-1.70106E-18
 -1      2443 1.02604E-04-3.06972E-05-3.08285E-05 6.28265E-06 6.07100E-19-4.02349E-19
 -1      2444 1.01192E-04-2.99080E-05-3.05473E-05 4.56829E-06-1.87634E-18-2.44580E-18
 -1      2445 1.02059E-04-3.02278E-05-3.07777E-05 4.82570E-06-1.66921E-18-2.26751E-18
 -1      2446 1.01055E-04-2.98431E-05-3.05280E-05 5.84352E-06-7.12562E-19-1.64832E-18
 -1      2447 9.98860E-05-2.94732E-05-3.01741E-05 3.89401E-06-1.32792E-18-2.55855E-18
 -1      2448 1.00630E-04-2.97102E-05-3.03831E-05 4.19628E-06-1.73046E-18-2.94635E-18
 -1      2449 9.97969E-05-2.92910E-05-3.02237E-05 5.14059E-06-1.29812E-18-2.75215E-18
 -1      2450 9.88073E-05-2.91692E-05-2.98424E-05 3.20650E-06-5.62531E-19-1.67896E-18
 -1      2451 9.94273E-05-2.93431E-05-3.00237E-05 3.50797E-06-9.68382E-19-2.38693E-18
 -1      2452 9.87764E-05-2.89458E-05-2.99333E-05 4.34435E-06-1.32703E-18-3.04837E-18
 -1      2453 9.79315E-05-2.89573E-05-2.95580E-05 2.56789E-06-9.98518E-19-1.10356E-18
 -1      2454 9.84357E-05-2.90838E-05-2.97100E-05 2.84385E-06-8.05076E-19-1.46617E-18
 -1      2455 9.79516E-05-2.87361E-05-2.96690E-05 3.55886E-06-1.20194E-18-3.12462E-18
 -1      2456 9.72323E-05-2.88105E-05-2.93215E-05 2.00774E-06-8.66635E-19 8.14486E-21
 -1      2457 9.76333E-05-2.89015E-05-2.94453E-05 2.24711E-06-8.24204E-19-2.83037E-19
 -1      2458 9.72896E-05-2.86127E-05-2.94376E-05 2.84109E-06-1.33751E-18-2.85912E-18
 -1      2459 9.66833E-05-2.87097E-05-2.91297E-05 1.53556E-06 4.24405E-19-1.28410E-20
 -1      2460 9.69958E-05-2.87742E-05-2.92281E-05 1.73548E-06 1.99985E-19 9.18520E-19
 -1      2461 9.67635E-05-2.85434E-05-2.92413E-05 2.21702E-06-5.13546E-19-1.42491E-18
 -1      2462 9.62598E-05-2.86416E-05-2.89776E-05 1.14936E-06 1.13893E-19-5.85689E-19
 -1      2463 9.64985E-05-2.86865E-05-2.90542E-05 1.31155E-06 6.64315E-19 2.55767E-19
 -1      2464 9.63507E-05-2.85077E-05-2.90792E-05 1.69353E-06 7.11626E-19-1.06467E-18
 -1      2465 9.59389E-05-2.85968E-05-2.88595E-05 8.41206E-07 1.12958E-18-1.79294E-18
 -1      2466 9.61176E-05-2.86272E-05-2.89179E-05 9.69649E-07 3.44759E-19-7.33031E-19
 -1      2467 9.60315E-05-2.84924E-05-2.89485E-05 1.26656E-06 6.24879E-19-1.55121E-18
 -1      2468 9.57005E-05-2.85686E-05-2.87697E-05 6.00597E-07 8.94658E-19-1.48916E-18
 -1      2469 9.58314E-05-2.85884E-05-2.88132E-05 7.00161E-07 1.15031E-18-1.43212E-18
 -1      2470 9.57886E-05-2.84893E-05-2.88451E-05 9.26413E-07 7.84808E-19-1.38238E-18
 -1      2471 9.55272E-05-2.85519E-05-2.87027E-05 4.16491E-07 1.13890E-18-1.68550E-18
 -1      2472 9.56207E-05-2.85641E-05-2.87345E-05 4.92122E-07 8.88881E-19-1.59814E-18
 -1      2473 9.56070E-05-2.84932E-05-2.87652E-05 6.61070E-07 1.05623E-18-6.65963E-19
 -1      2474 9.54042E-05-2.85432E-05-2.86540E-05 2.78400E-07 1.63515E-18-6.26723E-19
 -1      2475 9.54692E-05-2.85501E-05-2.86766E-05 3.34700E-07 1.16505E-18-1.31439E-18
 -1      2476 9.54739E-05-2.85008E-05-2.87045E-05 4.58145E-07 9.50318E-19-1.00162E-18
 -1      2477 9.53197E-05-2.85398E-05-2.86193E-05 1.76943E-07 5.22450E-19 7.07861E-19
 -1      2478 9.53632E-05-2.85430E-05-2.86349E-05 2.17970E-07 1.31041E-18 5.89681E-19
 -1      2479 9.53787E-05-2.85100E-05-2.86594E-05 3.05986E-07 9.23612E-19 4.99357E-19
 -1      2480 9.52638E-05-2.85398E-05-2.85955E-05 1.04058E-07 4.42597E-20 1.79399E-18
 -1      2481 9.52915E-05-2.85406E-05-2.86058E-05 1.33261E-07 5.61561E-19 1.22814E-18
 -1      2482 9.53125E-05-2.85196E-05-2.86266E-05 1.94211E-07 7.20248E-20 1.02288E-18
 -1      2483 9.52288E-05-2.85420E-05-2.85797E-05 5.30265E-08 1.72674E-19 9.14622E-19
 -1      2484 9.52452E-05-2.85412E-05-2.85862E-05 7.32519E-08-2.39051E-20 1.59187E-18
 -1      2485 9.52680E-05-2.85287E-05-2.86034E-05 1.13921E-07 6.48438E-19 1.84388E-18
 -1      2486 9.52089E-05-2.85453E-05-2.85699E-05 1.83852E-08-7.77404E-19 1.01598E-18
 -1      2487 9.52173E-05-2.85436E-05-2.85736E-05 3.19293E-08 4.28653E-19 9.82653E-19
 -1      2488 9.52396E-05-2.85369E-05-2.85875E-05 5.77071E-08-4.00545E-20 1.98035E-18
 -1      2489 9.51994E-05-2.85491E-05-2.85642E-05-4.20555E-09-6.25309E-19 6.28843E-19
 -1      2490 9.52024E-05-2.85470E-05-2.85660E-05 4.46617E-09-1.34660E-18 9.71853E-19
 -1      2491 9.52228E-05-2.85442E-05-2.85770E-05 1.95529E-08-9.40740E-19 1.47742E-18
 -1      2492 9.51971E-05-2.85531E-05-2.85616E-05-1.81140E-08-1.69959E-18 1.19173E-18
 -1      2493 9.51964E-05-2.85508E-05-2.85621E-05-1.29236E-08-8.52520E-19 6.58419E-19
 -1      2494 9.52141E-05-2.85504E-05-2.85705E-05-5.31655E-09-1.16053E-18 1.34887E-18
 -1      2495 9.51992E-05-2.85570E-05-2.85609E-05-2.58838E-08-5.16536E-19-2.65967E-19
 -1      2496 9.51964E-05-2.85547E-05-2.85605E-05-2.31365E-08-1.29765E-18-8.30661E-20
 -1      2497 9.52111E-05-2.85557E-05-2.85668E-05-2.06007E-08-6.94862E-19 1.09325E-18
 -1      2498 9.52041E-05-2.85607E-05-2.85614E-05-2.93656E-08 1.44017E-18-6.23502E-19
 -1      2499 9.52000E-05-2.85584E-05-2.85606E-05-2.83199E-08 7.18653E-19-4.67635E-19
 -1      2500 9.52117E-05-2.85602E-05-2.85651E-05-2.90857E-08 3.06943E-19-1.59299E-18
 -1      2501 9.52104E-05-2.85641E-05-2.85627E-05-2.98308E-08 2.58334E-18-1.84823E-19
 -1      2502 9.52058E-05-2.85620E-05-2.85616E-05-2.99949E-08 1.78749E-18 5.46416E-19
 -1      2503 9.52146E-05-2.85640E-05-2.85646E-05-3.27913E-08 1.17673E-18-8.73463E-19
 -1      2504 9.52172E-05-2.85675E-05-2.85642E-05-2.80640E-08 3.31572E-19 1.43713E-18
 -1      2505 9.52126E-05-2.85654E-05-2.85631E-05-2.91610E-08 1.80518E-18 1.48770E-18
 -1      2506 9.52188E-05-2.85674E-05-2.85649E-05-3.31033E-08 1.21646E-18 8.03390E-19
 -1      2507 9.52240E-05-2.85707E-05-2.85657E-05-2.44459E-08-1.50440E-18 1.86844E-18
 -1      2508 9.52197E-05-2.85688E-05-2.85647E-05-2.63867E-08-2.93657E-19 1.99402E-18
 -1      2509 9.52236E-05-2.85707E-05-2.85656E-05-3.08998E-08-4.11017E-19 3.44594E-18
 -1      2510 9.52302E-05-2.85739E-05-2.85670E-05-1.91370E-08-2.60399E-18 2.11187E-18
 -1      2511 9.52264E-05-2.85721E-05-2.85662E-05-2.18554E-08-2.60823E-18 1.69803E-18
 -1      2512 9.52287E-05-2.85740E-05-2.85663E-05-2.66413E-08-2.18288E-18 1.50822E-18
 -1      2513 9.52326E-05-2.85753E-05-2.85674E-05-1.54834E-08-8.78236E-19 2.59975E-18
 -1      2514 9.52498E-05-2.85979E-05-2.85650E-05-1.86033E-08 1.55995E-18-1.51935E-18
 -1      2515 9.52481E-05-2.85953E-05-2.85655E-05-2.07347E-08 1.16654E-18-4.05248E-18
 -1      2516 9.52522E-05-2.86014E-05-2.85646E-05-1.27016E-08 9.10345E-19-1.01442E-19
 -1      2517 9.52511E-05-2.85995E-05-2.85649E-05-1.56315E-08 6.17397E-19-1.15742E-19
 -1      2518 9.52511E-05-2.85955E-05-2.85667E-05-1.90409E-08 1.35774E-18-9.09739E-19
 -1      2519 9.52418E-05-2.85873E-05-2.85661E-05-2.41456E-08-1.37805E-18 8.66367E-19
 -1      2520 9.52390E-05-2.85838E-05-2.85666E-05-2.37472E-08-1.82340E-18 1.24451E-18
 -1      2521 9.52463E-05-2.85931E-05-2.85656E-05-2.26561E-08-4.76760E-19-3.73708E-18
 -1      2522 9.52441E-05-2.85900E-05-2.85661E-05-2.36328E-08-1.15179E-18-5.69241E-19
 -1      2523 9.52424E-05-2.85865E-05-2.85668E-05-2.67911E-08-1.72291E-18 4.70074E-20
 -1      2524 9.52474E-05-2.85916E-05-2.85668E-05-2.41990E-08 7.95793E-19-2.06577E-18
 -1      2525 9.52535E-05-2.86033E-05-2.85643E-05-5.66966E-09-3.98090E-19 1.04804E-18
 -1      2526 9.52530E-05-2.86024E-05-2.85645E-05-9.06071E-09 2.94233E-19-4.10342E-19
 -1      2527 9.52535E-05-2.85981E-05-2.85666E-05-1.20820E-08 5.24398E-19-5.72243E-19
 -1      2528 9.52538E-05-2.86036E-05-2.85643E-05 1.83259E-09-1.18137E-18 1.75520E-18
 -1      2529 9.52538E-05-2.86036E-05-2.85643E-05-1.70661E-09-1.35275E-18 1.98043E-18
 -1      2530 9.52546E-05-2.85995E-05-2.85665E-05-4.09171E-09-1.31734E-18 5.64404E-19
 -1      2531 9.52529E-05-2.86023E-05-2.85645E-05 9.17759E-09-4.38637E-19-1.11658E-18
 -1      2532 9.52535E-05-2.86033E-05-2.85643E-05 5.79278E-09-7.63916E-19 6.91569E-20
 -1      2533 9.52546E-05-2.85995E-05-2.85665E-05 4.23035E-09-1.27803E-18 1.30204E-18
 -1      2534 9.52511E-05-2.85995E-05-2.85649E-05 1.56292E-08 1.12262E-18-2.73709E-18
 -1      2535 9.52522E-05-2.86014E-05-2.85646E-05 1.27538E-08 1.67310E-19-1.48012E-18
 -1      2536 9.52534E-05-2.85981E-05-2.85666E-05 1.21461E-08 5.83415E-19-7.21310E-19
 -1      2537 9.52481E-05-2.85953E-05-2.85655E-05 2.07355E-08 2.75116E-18-1.06379E-18
 -1      2538 9.52498E-05-2.85979E-05-2.85650E-05 1.86043E-08 2.50726E-18-3.46898E-18
 -1      2539 9.52511E-05-2.85955E-05-2.85667E-05 1.90415E-08 1.98460E-18-1.92575E-18
 -1      2540 9.52440E-05-2.85899E-05-2.85661E-05 2.36378E-08 1.69996E-18-1.40968E-18
 -1      2541 9.52463E-05-2.85931E-05-2.85656E-05 2.26683E-08 1.98322E-18-1.49073E-19
 -1      2542 9.52474E-05-2.85915E-05-2.85668E-05 2.42377E-08 1.99973E-18-1.65061E-18
 -1      2543 9.52390E-05-2.85837E-05-2.85666E-05 2.36020E-08 3.74475E-19-3.46227E-18
 -1      2544 9.52416E-05-2.85872E-05-2.85662E-05 2.41612E-08 7.00087E-19-2.95029E-18
 -1      2545 9.52425E-05-2.85865E-05-2.85669E-05 2.67740E-08 4.22874E-19-2.53623E-18
 -1      2546 2.42504E-05-2.07872E-05-1.34740E-06 2.02705E-05-1.01707E-18 6.38070E-18
 -1      2547 1.87660E-05-1.88469E-05 2.95518E-07 6.24973E-06-1.00463E-18 7.61906E-18
 -1      2548 9.55728E-05-5.23034E-05-1.86505E-05 4.09386E-05-1.10432E-18-1.35750E-19
 -1      2549 7.63056E-05-4.61555E-05-1.27059E-05 4.12675E-05-1.56955E-18 1.55314E-18
 -1      2550 1.03936E-04-3.06699E-05-3.13965E-05-4.73559E-06 1.30451E-18 5.12720E-20
 -1      2551 1.03244E-04-3.00774E-05-3.13095E-05-4.21807E-06 1.52412E-18 3.15540E-19
 -1      2552 1.03295E-04-3.05256E-05-3.12146E-05-5.64295E-06 1.42737E-18-6.28436E-19
 -1      2553 1.49331E-04-2.94900E-05-5.16634E-05-5.58843E-06 5.82060E-18-4.79971E-18
 -1      2554 1.46079E-04-3.78993E-05-4.66887E-05-3.56501E-06 4.51797E-18-5.46548E-18
 -1      2555 9.52351E-05-2.85789E-05-2.85670E-05 1.86915E-08-3.65457E-19 3.12118E-19
 -1      2556 3.20300E-05-2.71850E-05-1.92518E-06-2.81559E-05 4.04246E-19 6.14353E-18
 -1      2557 4.71749E-05-3.35705E-05-5.81098E-06-3.81887E-05-5.80218E-20 5.87375E-18
 -1      2558 5.53480E-05-3.65752E-05-8.02481E-06 4.09209E-05-1.53292E-18 4.30843E-18
 -1      2559 3.86509E-05-2.87367E-05-3.95564E-06 3.20859E-05-1.86411E-18 5.35515E-18
 -1      2560 1.76483E-05-1.92929E-05 8.76100E-07-6.32225E-06-4.29446E-19 7.34123E-18
 -1      2561 2.16018E-05-2.18008E-05 1.83171E-07-1.79885E-05-3.61260E-19 5.98852E-18
 -1      2562 1.47019E-04-1.31736E-05-5.77910E-05 3.74667E-06-7.46744E-18-1.34975E-18
 -1      2563 1.51125E-04-1.26072E-05-5.95552E-05 1.08379E-06-7.64278E-18-1.11047E-18
 -1      2564 1.45417E-04-2.56871E-05-5.16446E-05 6.99146E-06 6.43067E-18-6.94567E-19
 -1      2565 1.43713E-04-1.72347E-05-5.47866E-05 6.63623E-06 7.39968E-18-8.10505E-19
 -1      2566 8.01375E-05-5.83164E-06-3.18758E-05-2.11057E-07-3.37672E-19-5.16482E-18
 -1      2567 8.07202E-05-6.17511E-06-3.19650E-05-5.71788E-07-7.37040E-19-5.08048E-18
 -1      2568 8.18698E-05-7.92806E-06-3.16799E-05-2.28980E-07-8.46369E-19-4.67920E-18
 -1      2569 8.05694E-05-6.99637E-06-3.15201E-05-4.01045E-08-2.25663E-19-4.87852E-18
 -1      2570 1.42767E-04-1.08701E-05-5.70366E-05 1.05181E-06 8.12262E-18-2.59197E-18
 -1      2571 1.48134E-04-1.19189E-05-5.85233E-05-2.00710E-06 7.86555E-18-3.25462E-18
 -1      2572 1.04117E-04-5.50413E-05-2.09926E-05-3.70479E-05 6.74662E-19-5.41572E-18
 -1      2573 1.20471E-04-5.73101E-05-2.73009E-05-3.28057E-05 1.61021E-18-4.80818E-18
 -1      2574 1.48947E-04-1.52002E-05-5.76496E-05-4.54910E-06 7.32260E-18-3.85156E-18
 -1      2575 1.47235E-04-2.02116E-05-5.48509E-05-6.38838E-06 6.81480E-18-4.09202E-18
 -1      2576 1.36531E-04-1.16116E-05-5.37393E-05-5.26617E-06 7.09432E-18-3.14816E-18
 -1      2577 1.45813E-04-4.45215E-05-4.36233E-05-1.87540E-07 3.85061E-18-7.78635E-19
 -1      2578 1.46468E-04-3.76267E-05-4.73246E-05 4.17987E-06 4.88378E-18-2.54533E-19
 -1      2579 1.38286E-04-5.63248E-05-3.53686E-05 1.79754E-05-2.22674E-18-6.69791E-19
 -1      2580 1.26596E-04-5.83487E-05-2.92798E-05 2.44246E-05-5.91335E-19-1.30538E-18
 -1      2581 1.33183E-04-5.64026E-05-3.29664E-05-2.01092E-05 1.68263E-18-3.41185E-18
 -1      2582 1.43780E-04-5.21946E-05-3.96713E-05-1.06395E-05 2.78227E-18-2.04008E-18
 -1      2583 1.41697E-04-5.08116E-05-3.90030E-05-9.01225E-07 1.55159E-18 4.74127E-19
 -1      2584 6.42496E-05-4.03437E-05-9.97659E-06-4.14753E-05-8.06799E-19-7.36114E-18
 -1      2585 8.49952E-05-4.88437E-05-1.54726E-05-4.36837E-05 3.13190E-19-6.79225E-18
 -1      2586 2.76734E-05-2.41624E-05-1.32276E-06-2.35528E-05 6.11981E-20-8.69606E-18
 -1      2587 4.08924E-05-2.82835E-05-5.24529E-06-3.41684E-05-4.19917E-19-8.37758E-18
 -1      2588 1.95398E-05-1.66415E-05-8.35636E-07 1.80532E-06 6.32707E-19-8.66726E-18
 -1      2589 2.08075E-05-1.95287E-05-3.63501E-07-1.25793E-05 7.01873E-19-8.76340E-18
 -1      2590 3.04855E-05-1.79520E-05-4.83926E-06-1.73674E-05-6.51157E-20-8.45953E-18
 -1      2591 7.52290E-05-4.43373E-05-1.30365E-05 4.36482E-05 1.05413E-18-5.18014E-18
 -1      2592 6.05168E-05-3.77220E-05-9.40330E-06 4.04155E-05 1.54414E-18-5.49788E-18
 -1      2593 1.29763E-04-5.67707E-05-3.13235E-05-2.28201E-05-3.19755E-19 1.29045E-18
 -1      2594 1.39385E-04-5.49345E-05-3.67428E-05-1.49409E-05-8.22945E-19-1.32984E-19
 -1      2595 1.12161E-04-5.69590E-05-2.37781E-05 3.57974E-05 5.27278E-19-2.59319E-18
 -1      2596 9.25489E-05-5.18443E-05-1.73480E-05 3.99000E-05 1.16891E-18-3.94115E-18
 -1      2597 9.32270E-05-4.97770E-05-1.83111E-05 3.89353E-05 2.83618E-18-3.20033E-18
 -1      2598 1.48548E-04-4.26383E-05-4.58684E-05 9.14524E-07-4.55947E-18 8.02987E-19
 -1      2599 1.43243E-04-5.01582E-05-4.01185E-05 7.91443E-06-3.19799E-18 2.05829E-19
 -1      2600 1.40584E-04-5.50424E-05-3.66147E-05 6.07455E-06-1.42039E-18 1.48633E-18
 -1      2601 1.49393E-04-2.36122E-05-5.42583E-05-5.23759E-06-7.08818E-18 5.77676E-19
 -1      2602 1.47021E-04-3.03305E-05-5.03363E-05-5.30831E-06-5.97476E-18 1.06049E-18
 -1      2603 1.51209E-04-1.34155E-05-5.93307E-05-1.48296E-06-7.77534E-18-7.82341E-19
 -1      2604 1.49825E-04-1.63651E-05-5.75606E-05-3.21970E-06-7.69699E-18-2.17052E-19
 -1      2605 1.47691E-04-2.60035E-05-5.24402E-05 7.16257E-06-6.54545E-18-2.30435E-18
 -1      2606 1.47376E-04-1.99123E-05-5.51330E-05 6.76713E-06-7.11974E-18-1.85596E-18
 -1      2607 1.45229E-04-4.58608E-05-4.26607E-05-2.32594E-06-2.74989E-18-1.79169E-18
 -1      2608 1.49269E-04-3.69561E-05-4.86237E-05 3.38420E-06-4.84513E-18-2.57900E-18
 -1      2609 1.01267E-04-5.45581E-05-1.99733E-05-3.70172E-05 1.03296E-18 2.52792E-18
 -1      2610 1.17653E-04-5.65160E-05-2.63269E-05-3.27530E-05 1.86135E-19 2.10816E-18
 -1      2611 1.25944E-04-5.97273E-05-2.81079E-05-2.37290E-05 1.70847E-18 3.65918E-19
 -1      2612 6.66964E-05-4.25227E-05-1.01914E-05-4.09123E-05 1.53525E-19 3.37310E-18
 -1      2613 8.35299E-05-4.81431E-05-1.51715E-05-4.26977E-05 4.48504E-19 2.55275E-18
 -1      2614 9.93185E-05-2.10882E-05-3.35608E-05-6.89218E-06-3.58621E-18-6.01790E-19
 -1      2615 1.00498E-04-2.45984E-05-3.25449E-05-2.91885E-06-3.22956E-18-3.55047E-19
 -1      2616 9.90063E-05-2.32917E-05-3.24497E-05-1.96604E-06-2.95691E-18-1.12737E-18
 -1      2617 9.63163E-05-1.81656E-05-3.35160E-05-6.23435E-06-3.53222E-18-1.65608E-18
 -1      2618 1.02571E-04-2.68830E-05-3.24472E-05 3.33156E-06 3.41111E-18 1.49910E-18
 -1      2619 1.03048E-04-2.54498E-05-3.32725E-05 6.54101E-06 3.64923E-18 1.93563E-18
 -1      2620 1.00941E-04-2.27749E-05-3.35568E-05 7.36506E-06 3.91361E-18 6.29425E-19
 -1      2621 1.01266E-04-2.55733E-05-3.24773E-05 2.64796E-06 3.41455E-18 1.18308E-19
 -1      2622 1.28114E-04-5.72719E-05-3.05343E-05 2.64283E-05 4.85562E-19-3.43366E-18
 -1      2623 1.14105E-04-5.70319E-05-2.43926E-05 3.16505E-05-8.90443E-19-1.73684E-18
 -1      2624 1.34137E-04-5.88880E-05-3.21063E-05 1.53572E-05-8.40204E-19-5.44557E-18
 -1      2625 1.39970E-04-3.19720E-05-4.65154E-05 1.05934E-05 4.58086E-18 1.34932E-18
 -1      2626 8.79230E-05-1.24164E-05-3.23496E-05-1.65943E-06-2.26596E-18-4.04248E-18
 -1      2627 8.78039E-05-1.12843E-05-3.28580E-05-2.99076E-06-2.42897E-18-4.21181E-18
 -1      2628 8.97954E-05-1.26164E-05-3.31170E-05-3.97263E-06-2.87482E-18-3.83121E-18
 -1      2629 1.02104E-04-2.90144E-05-3.13486E-05-4.06957E-06 1.97987E-18-5.01457E-19
 -1      2630 9.82577E-05-2.00790E-05-3.35521E-05 6.75539E-06 3.77382E-18-8.56178E-19
 -1      2631 9.38725E-05-1.61807E-05-3.33456E-05-5.15343E-06-3.18395E-18-2.58514E-18
 -1      2632 9.84812E-05-5.30244E-05-1.91336E-05-3.76583E-05 2.22600E-18 1.75845E-18
 -1      2633 1.41740E-04-5.22431E-05-3.83394E-05-3.34905E-06-9.26045E-19-2.13368E-18
 -1      2634 6.31131E-05-3.72515E-05-1.06412E-05-3.94121E-05 1.23624E-18 3.63949E-18
 -1      2635 1.42255E-04-3.24532E-05-4.72542E-05 1.01782E-05-4.60818E-18-3.24795E-18
 -1      2636 9.52335E-05-2.85772E-05-2.85670E-05-2.01794E-08-2.16159E-18 8.51537E-19
 -1      2637 1.10139E-04-5.67355E-05-2.26105E-05 3.31380E-05-2.25692E-18-2.23140E-18
 -1      2638 9.52354E-05-2.85797E-05-2.85667E-05-2.20676E-08-1.85937E-18 7.90134E-19
 -1      2639 1.39480E-04-1.03127E-05-5.54852E-05-1.00759E-06-7.50429E-18 1.77348E-20
 -1      2640 2.40806E-05-1.57989E-05-3.03239E-06 2.07891E-07-1.05781E-18 7.51594E-18
 -1      2641 3.83336E-05-2.31350E-05-5.93331E-06 2.63791E-05-2.13188E-18 5.70710E-18
 -1      2642 7.24647E-05-4.14011E-05-1.28535E-05 4.02087E-05-3.17913E-18 1.74986E-18
 -1      2643 1.23463E-04-5.95932E-05-2.71510E-05 2.53840E-05 1.39422E-18-8.51321E-19
 -1      2644 9.81610E-05-2.12141E-05-3.29368E-05 4.40788E-06 3.44057E-18-1.06142E-18
 -1      2645 1.40365E-04-2.42434E-05-5.00239E-05-1.08642E-05 5.35706E-18-4.67933E-18
 -1      2646 9.52321E-05-2.85761E-05-2.85670E-05 2.14501E-08-1.84640E-19 1.63033E-18
 -1      2647 9.52363E-05-2.85808E-05-2.85667E-05 2.34045E-08 2.37957E-19-1.78202E-18
 -1      2648 9.52364E-05-2.85806E-05-2.85668E-05 2.68296E-08-5.98053E-19-2.28641E-18
 -1      2649 9.52295E-05-2.85746E-05-2.85664E-05 2.43527E-08 8.53146E-19 2.50094E-18
 -1      2650 3.37271E-05-2.21073E-05-4.52839E-06-2.45475E-05 2.50934E-19 6.04506E-18
 -1      2651 2.49550E-05-1.70413E-05-2.85995E-06 1.07045E-05 1.22020E-18-8.48325E-18
 -1      2652 2.90172E-05-1.35198E-05-6.03859E-06 4.25633E-06 8.61882E-19-8.10462E-18
 -1      2653 3.17860E-05-1.73710E-05-5.86346E-06 1.98348E-05 1.59740E-18-7.77830E-18
 -1      2654 6.80204E-05-3.52646E-05-1.37294E-05 3.75279E-05 3.15372E-18-4.58107E-18
 -1      2655 5.30769E-05-3.19744E-05-8.67940E-06 3.73519E-05 1.65256E-18-6.03087E-18
 -1      2656 4.63709E-05-2.42618E-05-8.67029E-06 3.17135E-05 2.34670E-18-6.28138E-18
 -1      2657 1.30365E-04-5.94891E-05-3.02100E-05-2.12505E-05-4.73280E-20-2.15760E-18
 -1      2658 1.42819E-04-3.76878E-05-4.52626E-05-7.54830E-06-4.24385E-18 2.36767E-18
 -1      2659 1.30358E-04-1.62410E-05-4.92469E-05 9.41349E-06 5.94787E-18 6.73179E-19
 -1      2660 1.37626E-04-1.38703E-05-5.35598E-05 5.56981E-06 7.02720E-18-9.75994E-19
 -1      2661 1.28526E-04-1.02917E-05-5.13207E-05 3.35142E-06 6.25364E-18-1.07377E-18
 -1      2662 1.39267E-04-1.52763E-05-5.34108E-05 8.10760E-06-6.98506E-18-1.60957E-18
 -1      2663 1.00310E-04-5.37887E-05-1.97233E-05-3.83306E-05-1.33598E-18-4.99076E-18
 -1      2664 1.44367E-04-4.60503E-05-4.24378E-05-2.55553E-06 2.66720E-18-6.28795E-18
 -1      2665 1.39701E-04-5.11594E-05-3.78821E-05-9.90272E-07 6.38928E-19-6.79744E-18
 -1      2666 1.39319E-04-4.01811E-05-4.29513E-05-1.03365E-05 2.48932E-18-6.72851E-18
 -1      2667 5.67320E-05-3.42689E-05-9.21088E-06-3.90104E-05-1.20342E-18-7.66745E-18
 -1      2668 7.22525E-05-3.92759E-05-1.38933E-05-3.97632E-05-2.35274E-18-6.14438E-18
 -1      2669 5.10967E-05-2.75166E-05-9.54079E-06-3.43383E-05-1.41243E-18-7.36029E-18
 -1      2670 1.39411E-04-1.81597E-05-5.21818E-05-9.05332E-06-6.70151E-18 1.75759E-18
 -1      2671 9.52354E-05-2.85797E-05-2.85668E-05-2.58976E-08-2.39055E-18 1.60435E-18
 -1      2672 9.52321E-05-2.85765E-05-2.85667E-05 2.81703E-08 3.17503E-20 1.58777E-18
 -1      2673 8.28040E-05-9.67621E-06-3.13478E-05-3.10919E-07 1.20736E-18-4.63265E-18
 -1      2674 8.17581E-05-8.95557E-06-3.12297E-05-4.39926E-07 9.03856E-19-4.65609E-18
 -1      2675 8.09801E-05-8.33588E-06-3.11458E-05-1.82942E-07 6.93713E-19-4.70860E-18
 -1      2676 8.05956E-05-8.07283E-06-3.11020E-05-1.89137E-07 3.47321E-19-4.64875E-18
 -1      2677 8.17596E-05-9.85421E-06-3.07917E-05-7.34432E-07 7.38098E-19-4.46412E-18
 -1      2678 8.98251E-05-1.50997E-05-3.20424E-05 6.77184E-07 2.36241E-18-3.53349E-18
 -1      2679 8.77782E-05-1.35393E-05-3.18514E-05 1.61427E-07 2.04009E-18-3.80539E-18
 -1      2680 9.44285E-05-1.89869E-05-3.23535E-05 1.59512E-06 2.91130E-18-2.55467E-18
 -1      2681 9.20763E-05-1.69842E-05-3.22105E-05 1.04744E-06 2.57782E-18-3.07335E-18
 -1      2682 9.17676E-05-1.77246E-05-3.17172E-05-6.13680E-07 2.30298E-18-3.02299E-18
 -1      2683 1.00134E-04-2.63892E-05-3.16080E-05-2.16669E-06 2.45728E-18-9.37867E-19
 -1      2684 9.99168E-05-2.53507E-05-3.19191E-05-2.79315E-07 2.78487E-18-8.08990E-19
 -1      2685 1.32239E-04-1.98242E-05-4.87923E-05-1.18617E-05 5.45489E-18-4.83222E-18
 -1      2686 1.34372E-04-2.80438E-05-4.60760E-05-1.33196E-05 4.00678E-18-5.93505E-18
 -1      2687 1.35442E-04-5.77798E-05-3.37480E-05 8.84306E-06-5.53457E-19-6.07280E-18
 -1      2688 1.29577E-04-5.93366E-05-2.98354E-05 1.62595E-05-1.38416E-18-5.54944E-18
 -1      2689 9.82742E-05-2.24605E-05-3.24962E-05 2.30296E-06 3.12744E-18-1.27909E-18
 -1      2690 1.34462E-04-3.60314E-05-4.22998E-05 1.24975E-05 2.81596E-18 2.40737E-18
 -1      2691 1.31745E-04-2.68862E-05-4.57238E-05 1.25814E-05 4.40552E-18 1.59486E-18
 -1      2692 9.93318E-05-2.65462E-05-3.11570E-05 4.53073E-06-1.73053E-18-1.26312E-18
 -1      2693 9.98658E-05-2.76078E-05-3.09730E-05 5.75420E-06-1.43061E-18-1.31004E-18
 -1      2694 1.00564E-04-2.87190E-05-3.07506E-05 6.84671E-06-1.15854E-18-1.20757E-18
 -1      2695 1.01415E-04-2.99155E-05-3.06491E-05 7.46427E-06-9.80572E-19-1.18063E-18
 -1      2696 9.84846E-05-2.70729E-05-3.06330E-05 6.73669E-06-1.36526E-18-1.62737E-18
 -1      2697 1.02536E-04-3.12769E-05-3.04912E-05 8.02889E-06-7.23116E-19-9.71258E-19
 -1      2698 1.03791E-04-3.27754E-05-3.04497E-05 7.97634E-06-4.79946E-19-9.30584E-19
 -1      2699 1.00275E-04-2.99036E-05-3.02034E-05 8.58833E-06-7.55391E-19-1.48558E-18
 -1      2700 1.05557E-04-3.45429E-05-3.03706E-05 7.85092E-06-3.20462E-19-7.41245E-19
 -1      2701 1.07213E-04-3.63471E-05-3.04015E-05 6.99045E-06-3.55473E-19-7.27745E-19
 -1      2702 1.03126E-04-3.34780E-05-2.99132E-05 9.28602E-06-3.39736E-19-1.42126E-18
 -1      2703 1.09739E-04-3.84610E-05-3.04674E-05 5.89419E-06-3.49040E-19-2.68313E-19
 -1      2704 1.11605E-04-4.02599E-05-3.06287E-05 4.08690E-06-1.11818E-19-1.85286E-19
 -1      2705 1.07401E-04-3.79342E-05-2.98516E-05 8.40646E-06-1.87786E-19-7.85621E-19
 -1      2706 1.14687E-04-4.22265E-05-3.09772E-05 1.70192E-06 2.82481E-19 2.62243E-19
 -1      2707 1.16242E-04-4.32105E-05-3.13742E-05-9.80266E-07 5.24433E-20 6.88941E-19
 -1      2708 1.13070E-04-4.26924E-05-3.02416E-05 5.30493E-06 3.86315E-19 9.38155E-20
 -1      2709 1.18974E-04-4.37859E-05-3.22027E-05-4.66990E-06-2.83352E-19 1.43465E-18
 -1      2710 1.19346E-04-4.27076E-05-3.29309E-05-7.47680E-06-6.09500E-19 1.68106E-18
 -1      2711 1.19154E-04-4.58682E-05-3.14683E-05-6.26678E-07 2.96346E-19 1.42007E-18
 -1      2712 1.20452E-04-4.05616E-05-3.43441E-05-1.13412E-05-1.06579E-18 2.10727E-18
 -1      2713 1.19040E-04-3.64103E-05-3.54050E-05-1.27755E-05-1.42320E-18 2.04330E-18
 -1      2714 1.23134E-04-4.43792E-05-3.39250E-05-8.23861E-06-5.12905E-19 2.70677E-18
 -1      2715 1.17243E-04-3.11782E-05-3.71889E-05-1.37526E-05-2.28672E-18 1.83387E-18
 -1      2716 1.14867E-04-2.57652E-05-3.82262E-05-1.19034E-05-2.88806E-18 1.17529E-18
 -1      2717 1.22527E-04-3.52883E-05-3.74565E-05-1.38537E-05-2.03664E-18 3.20631E-18
 -1      2718 1.12427E-04-2.08380E-05-3.95432E-05-7.86174E-06-3.58295E-18-2.47277E-20
 -1      2719 1.11156E-04-1.81500E-05-4.00041E-05-2.82665E-06-3.86872E-18-9.45686E-19
 -1      2720 1.17882E-04-2.26228E-05-4.11029E-05-1.08723E-05-4.05210E-18 1.11830E-18
 -1      2721 1.11162E-04-1.82227E-05-4.00008E-05 4.13953E-06-3.71742E-18-2.16458E-18
 -1      2722 1.12562E-04-2.09048E-05-3.95589E-05 9.08354E-06-3.59052E-18-2.78511E-18
 -1      2723 1.14966E-04-1.59939E-05-4.27268E-05 6.80876E-07-4.72793E-18-1.08207E-18
 -1      2724 1.14888E-04-2.58011E-05-3.82346E-05 1.32176E-05-3.24112E-18-3.51738E-18
 -1      2725 1.17449E-04-3.13202E-05-3.72008E-05 1.50295E-05-2.15309E-18-3.73524E-18
 -1      2726 1.17887E-04-2.26112E-05-4.10646E-05 1.21142E-05-3.82742E-18-2.92878E-18
 -1      2727 1.19181E-04-3.65445E-05-3.54279E-05 1.38986E-05-9.88183E-19-3.80752E-18
 -1      2728 1.20496E-04-4.05726E-05-3.43929E-05 1.23917E-05-3.01550E-19-3.36452E-18
 -1      2729 1.22658E-04-3.57032E-05-3.73662E-05 1.48408E-05-1.64629E-18-3.32439E-18
 -1      2730 1.19564E-04-4.27783E-05-3.29661E-05 8.71947E-06 6.19327E-20-2.89496E-18
 -1      2731 1.19200E-04-4.39541E-05-3.22347E-05 5.75958E-06 5.28366E-19-2.64803E-18
 -1      2732 1.23057E-04-4.41481E-05-3.38798E-05 9.57006E-06 1.04410E-19-3.01237E-18
 -1      2733 1.16382E-04-4.32967E-05-3.13986E-05 2.05205E-06 9.10900E-19-2.09866E-18
 -1      2734 1.14853E-04-4.23658E-05-3.09958E-05-6.90370E-07 1.30598E-18-1.46787E-18
 -1      2735 1.19082E-04-4.59487E-05-3.14066E-05 1.62483E-06 1.15925E-18-1.97761E-18
 -1      2736 1.11751E-04-4.04502E-05-3.06129E-05-3.15942E-06 1.04046E-18-9.25527E-19
 -1      2737 1.09882E-04-3.87299E-05-3.04217E-05-5.07620E-06 8.99675E-19-8.33241E-19
 -1      2738 1.12948E-04-4.28242E-05-3.01345E-05-4.35981E-06 1.37278E-18-1.38296E-18
 -1      2739 1.07324E-04-3.67158E-05-3.02912E-05-6.34026E-06 2.22728E-19-8.71291E-19
 -1      2740 1.05628E-04-3.50384E-05-3.01993E-05-7.41169E-06-3.69555E-19-1.06783E-18
 -1      2741 1.07237E-04-3.82662E-05-2.96358E-05-7.74215E-06 4.00875E-19-1.22686E-18
 -1      2742 1.03815E-04-3.34332E-05-3.01755E-05-7.83445E-06-3.15174E-19-9.83536E-19
 -1      2743 1.02461E-04-3.21248E-05-3.01110E-05-8.25190E-06-2.05183E-19-1.10456E-18
 -1      2744 1.02897E-04-3.41492E-05-2.95201E-05-9.12760E-06-3.68364E-19-4.68812E-19
 -1      2745 1.01288E-04-3.10269E-05-3.01127E-05-8.16754E-06-1.54108E-20-1.02206E-18
 -1      2746 1.00267E-04-3.01276E-05-3.00422E-05-8.14664E-06-3.33168E-21-1.41016E-18
 -1      2747 9.99602E-05-3.11150E-05-2.95413E-05-9.26323E-06-2.53803E-19-1.15588E-18
 -1      2748 9.95512E-05-2.94599E-05-3.00339E-05-7.78753E-06-1.22656E-19-1.61654E-18
 -1      2749 9.87930E-05-2.88959E-05-2.99485E-05-7.50584E-06-1.88661E-19-1.27065E-18
 -1      2750 9.81125E-05-2.91520E-05-2.95753E-05-8.69781E-06-1.03049E-19-1.86700E-18
 -1      2751 9.83712E-05-2.85373E-05-2.99205E-05-7.01827E-06-4.75675E-19-1.69928E-18
 -1      2752 9.78032E-05-2.82121E-05-2.98233E-05-6.60404E-06 3.03499E-19-2.10933E-18
 -1      2753 9.70016E-05-2.80208E-05-2.95743E-05-7.78078E-06-5.32929E-19-1.57795E-18
 -1      2754 9.75581E-05-2.80541E-05-2.97777E-05-6.07676E-06 7.72274E-19-2.65252E-18
 -1      2755 9.71249E-05-2.78854E-05-2.96757E-05-5.61574E-06 4.03392E-19-3.03531E-18
 -1      2756 9.63496E-05-2.74594E-05-2.95301E-05-6.72383E-06-9.44531E-20-2.62632E-18
 -1      2757 9.69811E-05-2.78472E-05-2.96188E-05-5.10123E-06 5.31854E-19-2.85130E-18
 -1      2758 9.66450E-05-2.77748E-05-2.95189E-05-4.64675E-06 5.07179E-19-2.52692E-18
 -1      2759 9.59684E-05-2.72560E-05-2.94512E-05-5.65398E-06 3.45779E-19-2.23908E-18
 -1      2760 9.65577E-05-2.78020E-05-2.94571E-05-4.17437E-06-3.25244E-19-2.13917E-18
 -1      2761 9.62939E-05-2.77855E-05-2.93642E-05-3.75666E-06-7.86908E-19-2.57669E-18
 -1      2762 9.57413E-05-2.72600E-05-2.93509E-05-4.64563E-06 3.19296E-19-2.23873E-18
 -1      2763 9.62379E-05-2.78440E-05-2.93028E-05-3.34074E-06-2.01858E-19-2.04537E-18
 -1      2764 9.60301E-05-2.78578E-05-2.92200E-05-2.97439E-06 1.11594E-20-1.74851E-18
 -1      2765 9.56002E-05-2.73726E-05-2.92417E-05-3.73905E-06-1.20760E-19-1.30586E-18
 -1      2766 9.59915E-05-2.79274E-05-2.91625E-05-2.61965E-06-2.55218E-19-1.25879E-18
 -1      2767 9.58283E-05-2.79557E-05-2.90911E-05-2.30926E-06-3.81283E-19-1.21923E-18
 -1      2768 9.55071E-05-2.75325E-05-2.91331E-05-2.95196E-06 8.99502E-20-1.24763E-18
 -1      2769 9.58000E-05-2.80250E-05-2.90397E-05-2.01443E-06 3.41525E-19-6.27410E-19
 -1      2770 9.56729E-05-2.80588E-05-2.89799E-05-1.75856E-06 1.27870E-18 9.68272E-20
 -1      2771 9.54417E-05-2.77039E-05-2.90316E-05-2.28749E-06 4.55325E-19-8.51389E-19
 -1      2772 9.56510E-05-2.81222E-05-2.89353E-05-1.51892E-06 1.12115E-18-2.86366E-19
 -1      2773 9.55531E-05-2.81561E-05-2.88864E-05-1.31282E-06 9.45839E-19-2.69618E-19
 -1      2774 9.53932E-05-2.78673E-05-2.89407E-05-1.73968E-06 9.21551E-19 1.37850E-19
 -1      2775 9.55359E-05-2.82111E-05-2.88489E-05-1.12191E-06 7.88976E-19-1.70543E-19
 -1      2776 9.54616E-05-2.82425E-05-2.88097E-05-9.59299E-07-5.04177E-19 1.25374E-19
 -1      2777 9.53559E-05-2.80133E-05-2.88622E-05-1.29742E-06 6.51495E-19-1.49825E-20
 -1      2778 9.54479E-05-2.82885E-05-2.87789E-05-8.10050E-07-1.77739E-18 5.27447E-19
 -1      2779 9.53925E-05-2.83161E-05-2.87481E-05-6.84200E-07-1.50895E-18 8.03147E-20
 -1      2780 9.53267E-05-2.81381E-05-2.87961E-05-9.47214E-07-9.99597E-19-2.83387E-19
 -1      2781 9.53816E-05-2.83536E-05-2.87234E-05-5.69647E-07-1.19307E-18 2.43505E-19
 -1      2782 9.53410E-05-2.83771E-05-2.86997E-05-4.74078E-07-3.16507E-19-1.24002E-19
 -1      2783 9.53037E-05-2.82416E-05-2.87418E-05-6.74981E-07-1.72819E-18-7.10650E-19
 -1      2784 9.53325E-05-2.84069E-05-2.86802E-05-3.87776E-07 3.39402E-19-6.68946E-19
 -1      2785 9.53035E-05-2.84263E-05-2.86623E-05-3.16593E-07 2.95666E-19-1.67064E-19
 -1      2786 9.52858E-05-2.83253E-05-2.86981E-05-4.67195E-07-4.52638E-19-8.68320E-20
 -1      2787 9.52969E-05-2.84496E-05-2.86472E-05-2.52831E-07 9.79776E-20-1.25095E-18
 -1      2788 9.52767E-05-2.84652E-05-2.86339E-05-2.00897E-07-2.67840E-19-9.71341E-19
 -1      2789 9.52719E-05-2.83915E-05-2.86637E-05-3.11544E-07-2.66342E-19-1.79793E-18
 -1      2790 9.52717E-05-2.84830E-05-2.86225E-05-1.54779E-07-9.04860E-19-1.05731E-18
 -1      2791 9.52582E-05-2.84954E-05-2.86129E-05-1.17749E-07-1.29460E-18-1.34227E-18
 -1      2792 9.52614E-05-2.84428E-05-2.86370E-05-1.97245E-07-3.19580E-19-2.35331E-18
 -1      2793 9.52545E-05-2.85088E-05-2.86044E-05-8.51900E-08-3.75809E-19-9.95010E-19
 -1      2794 9.52459E-05-2.85184E-05-2.85977E-05-5.94871E-08 8.90524E-19-6.26308E-19
 -1      2795 9.52535E-05-2.84819E-05-2.86168E-05-1.15137E-07-5.57756E-19-2.44847E-18
 -1      2796 9.52431E-05-2.85282E-05-2.85914E-05-3.71570E-08 4.89473E-19-2.37106E-19
 -1      2797 9.52381E-05-2.85357E-05-2.85869E-05-1.99039E-08 2.04476E-20-3.60381E-19
 -1      2798 9.52477E-05-2.85111E-05-2.86018E-05-5.76344E-08 5.46149E-19-1.42273E-18
 -1      2799 9.52361E-05-2.85427E-05-2.85824E-05-5.14867E-09 2.44013E-19-5.64829E-20
 -1      2800 9.52336E-05-2.85483E-05-2.85794E-05 5.91679E-09 6.97431E-19 1.87494E-19
 -1      2801 9.52436E-05-2.85324E-05-2.85908E-05-1.85978E-08-1.29928E-19-1.87548E-18
 -1      2802 9.52322E-05-2.85534E-05-2.85764E-05 1.51638E-08 4.47420E-19 1.02806E-18
 -1      2803 9.52314E-05-2.85576E-05-2.85745E-05 2.17754E-08 4.62136E-19 4.09354E-19
 -1      2804 9.52408E-05-2.85478E-05-2.85829E-05 6.82728E-09 1.02307E-18-1.71393E-18
 -1      2805 9.52305E-05-2.85611E-05-2.85724E-05 2.70821E-08 1.70091E-19 5.87727E-19
 -1      2806 9.52308E-05-2.85643E-05-2.85714E-05 3.05278E-08 1.35242E-18 2.22698E-19
 -1      2807 9.52390E-05-2.85587E-05-2.85774E-05 2.23891E-08 4.85488E-19 7.78244E-19
 -1      2808 9.52304E-05-2.85668E-05-2.85700E-05 3.30437E-08 2.38239E-18-5.72533E-19
 -1      2809 9.52314E-05-2.85694E-05-2.85694E-05 3.42397E-08 2.11623E-18-6.49587E-21
 -1      2810 9.52380E-05-2.85663E-05-2.85737E-05 3.09001E-08 1.62771E-18 4.67588E-19
 -1      2811 9.52312E-05-2.85712E-05-2.85685E-05 3.47725E-08 1.71560E-18-7.14449E-19
 -1      2812 9.52327E-05-2.85734E-05-2.85683E-05 3.43299E-08 1.16336E-18-1.33982E-18
 -1      2813 9.52376E-05-2.85719E-05-2.85711E-05 3.43910E-08 1.30242E-18-2.20433E-18
 -1      2814 9.52329E-05-2.85751E-05-2.85676E-05 3.33989E-08 1.00728E-18-1.43249E-18
 -1      2815 9.52345E-05-2.85770E-05-2.85675E-05 3.16659E-08 5.59484E-19-1.27372E-18
 -1      2816 9.52378E-05-2.85764E-05-2.85692E-05 3.42641E-08 1.02085E-18-3.16316E-18
 -1      2817 1.07277E-04-3.53466E-05-3.08664E-05-5.73491E-06 4.18092E-19-8.84493E-19
 -1      2818 1.05962E-04-3.39320E-05-3.08182E-05-6.60123E-06 5.35026E-19-9.59155E-19
 -1      2819 3.32671E-05-1.68664E-05-6.46287E-06-1.80156E-05 3.22455E-19 5.30094E-18
 -1      2820 4.29497E-05-2.26614E-05-8.40203E-06-2.91597E-05 7.16166E-19 5.72679E-18
 -1      2821 1.04464E-04-3.25127E-05-3.08566E-05-6.84897E-06 7.15045E-19-1.05701E-18
 -1      2822 1.03401E-04-3.13127E-05-3.08503E-05-6.95184E-06 8.89771E-19-9.90440E-19
 -1      2823 1.03972E-04-3.31550E-05-3.04003E-05-7.89287E-06 6.59733E-19-1.29963E-18
 -1      2824 1.14121E-04-4.07092E-05-3.15268E-05 1.83989E-06-1.73999E-19 2.44538E-19
 -1      2825 1.13099E-04-3.99676E-05-3.12900E-05-6.04089E-07-9.30231E-20 3.91753E-20
 -1      2826 1.16241E-04-4.04717E-05-3.25240E-05 7.57220E-06 5.18808E-21 4.85011E-19
 -1      2827 1.16144E-04-4.12680E-05-3.20909E-05 5.01645E-06-2.57335E-19 5.06195E-19
 -1      2828 1.16643E-04-4.30486E-05-3.15553E-05 1.90260E-06-3.11365E-19 3.53087E-19
 -1      2829 1.15594E-04-3.60179E-05-3.41152E-05 1.20928E-05 8.90073E-19 6.63842E-19
 -1      2830 1.16874E-04-3.89792E-05-3.34794E-05 1.06814E-05 3.73187E-19 6.34470E-19
 -1      2831 1.19505E-04-4.19600E-05-3.32413E-05 8.48240E-06 1.97696E-19 8.57462E-19
 -1      2832 1.12094E-04-2.79928E-05-3.59983E-05 1.18055E-05 1.76800E-18 4.80691E-19
 -1      2833 1.14204E-04-3.22109E-05-3.53271E-05 1.30006E-05 1.48390E-18 5.76633E-19
 -1      2834 1.18663E-04-3.53648E-05-3.57304E-05 1.31626E-05 1.18876E-18 1.15632E-18
 -1      2835 1.08549E-04-2.13692E-05-3.73892E-05 4.63994E-06 2.09805E-18-4.14001E-19
 -1      2836 1.09799E-04-2.39995E-05-3.69976E-05 8.50997E-06 1.87262E-18-1.67104E-19
 -1      2837 1.14404E-04-2.49491E-05-3.83802E-05 1.14591E-05 2.24146E-18 5.14731E-19
 -1      2838 1.08703E-04-2.17234E-05-3.74461E-05-6.08068E-06 2.78012E-18-1.64919E-18
 -1      2839 1.07844E-04-2.04764E-05-3.76000E-05-1.57967E-06 2.64968E-18-1.17830E-18
 -1      2840 1.11153E-04-1.86665E-05-3.97244E-05 2.09289E-06 2.84158E-18-1.07844E-18
 -1      2841 1.12571E-04-2.87642E-05-3.61482E-05-1.32373E-05 2.16040E-18-2.76995E-18
 -1      2842 1.10460E-04-2.47916E-05-3.67273E-05-1.07864E-05 2.51992E-18-2.51938E-18
 -1      2843 1.12919E-04-2.19536E-05-3.90580E-05-9.24882E-06 3.14331E-18-2.63821E-18
 -1      2844 1.16452E-04-3.67748E-05-3.42891E-05-1.34093E-05 1.24823E-18-3.57036E-18
 -1      2845 1.14694E-04-3.30699E-05-3.49461E-05-1.39008E-05 1.67199E-18-3.04405E-18
 -1      2846 1.17252E-04-3.13224E-05-3.68493E-05-1.47700E-05 2.29099E-18-3.70095E-18
 -1      2847 1.17225E-04-4.10161E-05-3.26984E-05-8.59011E-06-4.88094E-20-2.68538E-18
 -1      2848 1.16731E-04-3.93191E-05-3.32019E-05-1.09103E-05 6.09506E-19-3.49136E-18
 -1      2849 1.19799E-04-3.99644E-05-3.42015E-05-1.21118E-05 7.38725E-19-3.67058E-18
 -1      2850 1.14976E-04-4.09915E-05-3.16741E-05-2.59237E-06-3.65824E-19-1.41236E-18
 -1      2851 1.15636E-04-4.11725E-05-3.19764E-05-5.23747E-06 7.90040E-20-1.85442E-18
 -1      2852 1.18306E-04-4.32572E-05-3.21641E-05-5.69519E-06-4.66487E-19-2.96872E-18
 -1      2853 1.11343E-04-3.85898E-05-3.11276E-05 2.28300E-06-4.67637E-19-1.59064E-18
 -1      2854 1.12604E-04-3.97442E-05-3.12920E-05 1.52645E-07-3.52356E-19-1.31670E-18
 -1      2855 1.14168E-04-4.20290E-05-3.09583E-05 5.38634E-07-6.18590E-19-1.59689E-18
 -1      2856 1.07688E-04-3.55950E-05-3.08507E-05 5.37272E-06 9.25367E-21-1.18806E-18
 -1      2857 1.09073E-04-3.69535E-05-3.09564E-05 4.00347E-06-1.82195E-19-1.67603E-18
 -1      2858 1.09430E-04-3.86582E-05-3.03848E-05 4.86602E-06-3.57363E-19-1.63240E-18
 -1      2859 1.04636E-04-3.29798E-05-3.06776E-05 6.88774E-06 1.03139E-18-9.62826E-19
 -1      2860 1.05897E-04-3.41498E-05-3.07760E-05 6.20437E-06 4.33970E-19-7.97145E-19
 -1      2861 1.05345E-04-3.50842E-05-3.01583E-05 7.23046E-06-1.85822E-20-1.10892E-18
 -1      2862 1.02299E-04-3.10499E-05-3.05165E-05 7.28094E-06 9.67907E-19-4.79930E-20
 -1      2863 1.03358E-04-3.19177E-05-3.06290E-05 7.10211E-06 1.19686E-18-5.44198E-19
 -1      2864 1.02288E-04-3.22009E-05-3.00701E-05 8.12209E-06 6.85832E-19-4.69981E-19
 -1      2865 1.00568E-04-2.97678E-05-3.03332E-05 6.97316E-06 5.73570E-19-1.26537E-19
 -1      2866 1.01431E-04-3.03562E-05-3.04618E-05 7.11815E-06 1.09710E-18 1.37506E-19
 -1      2867 1.00160E-04-3.01969E-05-3.00051E-05 8.06679E-06 9.41564E-19-7.22122E-19
 -1      2868 9.92880E-05-2.89826E-05-3.01269E-05 6.28083E-06-6.92015E-19-1.08117E-18
 -1      2869 9.99865E-05-2.93572E-05-3.02643E-05 6.60585E-06 5.56468E-20-3.63772E-20
 -1      2870 9.87242E-05-2.89468E-05-2.99173E-05 7.46451E-06 3.98570E-19 2.23634E-19
 -1      2871 9.83284E-05-2.85388E-05-2.99091E-05 5.41970E-06-9.41877E-19-2.32641E-18
 -1      2872 9.88936E-05-2.87648E-05-3.00462E-05 5.82356E-06-6.39457E-19-1.42540E-18
 -1      2873 9.77573E-05-2.82454E-05-2.97985E-05 6.58844E-06-2.79937E-19-4.02087E-19
 -1      2874 9.75962E-05-2.83130E-05-2.96937E-05 4.52655E-06-1.02216E-18-2.63186E-18
 -1      2875 9.80532E-05-2.84419E-05-2.98229E-05 4.94424E-06-1.07029E-18-2.54142E-18
 -1      2876 9.70935E-05-2.79054E-05-2.96570E-05 5.61546E-06-9.43433E-19-1.54017E-18
 -1      2877 9.70292E-05-2.82188E-05-2.94916E-05 3.68151E-06-1.20672E-18-2.56385E-18
 -1      2878 9.73972E-05-2.82866E-05-2.96081E-05 4.07503E-06-9.25723E-19-2.86146E-18
 -1      2879 9.66234E-05-2.77862E-05-2.95053E-05 4.65442E-06-1.06457E-18-2.41570E-18
 -1      2880 9.65864E-05-2.81998E-05-2.93102E-05 2.92626E-06-1.29502E-18-2.32874E-18
 -1      2881 9.68805E-05-2.82305E-05-2.94114E-05 3.27616E-06-1.38612E-18-2.28388E-18
 -1      2882 9.62794E-05-2.77917E-05-2.93547E-05 3.76750E-06-1.34963E-18-2.55777E-18
 -1      2883 9.62404E-05-2.82207E-05-2.91528E-05 2.27767E-06-1.15496E-19-2.39615E-18
 -1      2884 9.64728E-05-2.82296E-05-2.92381E-05 2.57648E-06-7.81631E-19-2.14688E-18
 -1      2885 9.60207E-05-2.78612E-05-2.92137E-05 2.98559E-06-1.03498E-18-2.25364E-18
 -1      2886 9.59711E-05-2.82604E-05-2.90201E-05 1.73741E-06 6.95178E-19-1.56517E-18
 -1      2887 9.61524E-05-2.82571E-05-2.90902E-05 1.98487E-06 3.53040E-19-2.53947E-18
 -1      2888 9.58226E-05-2.79577E-05-2.90872E-05 2.31934E-06 2.07646E-19-2.78769E-18
 -1      2889 9.57634E-05-2.83066E-05-2.89110E-05 1.29848E-06 4.44984E-19-1.68907E-18
 -1      2890 9.59027E-05-2.82970E-05-2.89674E-05 1.49833E-06 8.33772E-19-1.91164E-18
 -1      2891 9.56698E-05-2.80602E-05-2.89776E-05 1.76689E-06 1.02920E-18-2.34112E-18
 -1      2892 9.56053E-05-2.83527E-05-2.88233E-05 9.49550E-07 5.67151E-19-1.86896E-18
 -1      2893 9.57106E-05-2.83403E-05-2.88677E-05 1.10746E-06 4.42932E-19-1.71142E-18
 -1      2894 9.55520E-05-2.81573E-05-2.88852E-05 1.31929E-06 3.75750E-19-2.76915E-18
 -1      2895 9.54868E-05-2.83950E-05-2.87542E-05 6.77631E-07 1.17404E-18-1.83298E-18
 -1      2896 9.55649E-05-2.83821E-05-2.87884E-05 7.99920E-07 9.11888E-19-1.56027E-18
 -1      2897 9.54617E-05-2.82437E-05-2.88093E-05 9.64036E-07 4.85464E-19-3.08248E-18
 -1      2898 9.53996E-05-2.84321E-05-2.87008E-05 4.69752E-07 6.26197E-19-2.95452E-19
 -1      2899 9.54562E-05-2.84197E-05-2.87266E-05 5.62631E-07 1.01014E-18-1.03709E-18
 -1      2900 9.53934E-05-2.83173E-05-2.87482E-05 6.87474E-07 5.34660E-19-2.32794E-18
 -1      2901 9.53368E-05-2.84635E-05-2.86603E-05 3.13866E-07 5.13715E-19 6.48899E-19
 -1      2902 9.53769E-05-2.84522E-05-2.86794E-05 3.83030E-07 5.64492E-19 2.14047E-20
 -1      2903 9.53424E-05-2.83782E-05-2.87000E-05 4.76182E-07 2.33408E-19-7.98483E-19
 -1      2904 9.52927E-05-2.84893E-05-2.86302E-05 1.99313E-07 1.58272E-19 7.16002E-19
 -1      2905 9.53202E-05-2.84795E-05-2.86441E-05 2.49748E-07 4.28615E-19 1.01166E-18
 -1      2906 9.53050E-05-2.84274E-05-2.86627E-05 3.17805E-07 1.59988E-19 3.16866E-19
 -1      2907 9.52628E-05-2.85101E-05-2.86084E-05 1.16978E-07 3.15290E-19 1.29230E-18
 -1      2908 9.52809E-05-2.85018E-05-2.86182E-05 1.52911E-07 7.31786E-19 1.27817E-18
 -1      2909 9.52782E-05-2.84662E-05-2.86344E-05 2.01457E-07 1.16417E-19 2.51203E-19
 -1      2910 9.52434E-05-2.85266E-05-2.85930E-05 5.92868E-08 2.74274E-19 1.36592E-18
 -1      2911 9.52547E-05-2.85197E-05-2.85997E-05 8.42021E-08 3.08264E-19 1.44089E-18
 -1      2912 9.52596E-05-2.84963E-05-2.86134E-05 1.17855E-07 4.54482E-19 1.13342E-18
 -1      2913 9.52317E-05-2.85394E-05-2.85824E-05 2.00916E-08-1.07693E-18 5.95889E-19
 -1      2914 9.52380E-05-2.85338E-05-2.85868E-05 3.67948E-08-1.10055E-20 8.75911E-19
 -1      2915 9.52471E-05-2.85192E-05-2.85981E-05 5.92915E-08 3.75495E-19 3.58747E-19
 -1      2916 9.52253E-05-2.85492E-05-2.85755E-05-5.48228E-09-5.76405E-19-9.43584E-19
 -1      2917 9.52283E-05-2.85448E-05-2.85782E-05 5.21620E-09-8.82251E-19-7.32874E-19
 -1      2918 9.52391E-05-2.85363E-05-2.85872E-05 1.95231E-08-6.91125E-20-8.99332E-19
 -1      2919 9.52228E-05-2.85567E-05-2.85712E-05-2.12088E-08 8.37068E-19-2.48714E-18
 -1      2920 9.52234E-05-2.85532E-05-2.85726E-05-1.48219E-08 3.03235E-19-1.15752E-18
 -1      2921 9.52344E-05-2.85489E-05-2.85797E-05-6.39744E-09 3.51657E-19-3.78637E-18
 -1      2922 9.52228E-05-2.85625E-05-2.85687E-05-2.99258E-08 8.00965E-19-3.29064E-18
 -1      2923 9.52219E-05-2.85596E-05-2.85694E-05-2.65926E-08 6.61021E-19-3.38698E-18
 -1      2924 9.52320E-05-2.85580E-05-2.85747E-05-2.22938E-08 1.60530E-18-4.34874E-18
 -1      2925 9.52243E-05-2.85670E-05-2.85674E-05-3.36868E-08 8.85750E-19-2.49116E-18
 -1      2926 9.52226E-05-2.85646E-05-2.85676E-05-3.25126E-08 1.68067E-19-2.88548E-18
 -1      2927 9.52313E-05-2.85647E-05-2.85715E-05-3.10346E-08 8.16655E-19-4.15749E-18
 -1      2928 9.52269E-05-2.85707E-05-2.85669E-05-3.39019E-08-9.69853E-19 1.24303E-18
 -1      2929 9.52246E-05-2.85686E-05-2.85668E-05-3.42889E-08 2.99562E-19-7.82264E-19
 -1      2930 9.52317E-05-2.85697E-05-2.85695E-05-3.46940E-08-4.77274E-19-2.37724E-18
 -1      2931 9.52300E-05-2.85741E-05-2.85668E-05-3.14191E-08-1.11614E-18 2.13657E-18
 -1      2932 9.52276E-05-2.85722E-05-2.85666E-05-3.30409E-08-4.82159E-19 2.09527E-18
 -1      2933 9.52329E-05-2.85737E-05-2.85683E-05-3.47126E-08-1.44980E-18-2.75776E-19
 -1      2934 9.52338E-05-2.85777E-05-2.85670E-05-2.76438E-08-1.71021E-18 9.30348E-19
 -1      2935 9.52315E-05-2.85758E-05-2.85668E-05-3.02728E-08-1.43608E-18 1.40204E-18
 -1      2936 9.52355E-05-2.85776E-05-2.85677E-05-3.25301E-08-1.01617E-18 2.00772E-18
 -1      2937 9.52384E-05-2.85816E-05-2.85671E-05-2.92517E-08-2.02827E-18 1.67400E-18
 -1      2938 1.18258E-04-5.86958E-05-2.58088E-05 2.69262E-05-2.31356E-18-3.78620E-18
 -1      2939 1.03256E-04-5.33110E-05-2.08829E-05 3.39484E-05-3.14450E-18-1.84266E-18
 -1      2940 9.52565E-05-2.85960E-05-2.85688E-05-2.20970E-09-9.58578E-19 1.05037E-18
 -1      2941 9.52562E-05-2.85957E-05-2.85688E-05-6.40884E-09-3.01248E-19-8.58233E-19
 -1      2942 9.52347E-05-2.85781E-05-2.85671E-05 3.03539E-08 3.00077E-19-1.70541E-18
 -1      2943 9.52359E-05-2.85794E-05-2.85671E-05 2.85412E-08 7.16416E-23-2.19888E-18
 -1      2944 9.52383E-05-2.85797E-05-2.85680E-05 3.20468E-08 1.63368E-19-3.80542E-18
 -1      2945 9.52532E-05-2.85934E-05-2.85685E-05-1.85836E-08 6.59402E-19-1.79898E-18
 -1      2946 9.52515E-05-2.85917E-05-2.85685E-05-2.17390E-08 1.67546E-18-2.21604E-18
 -1      2947 9.52562E-05-2.85957E-05-2.85688E-05 6.55355E-09-3.96123E-19 1.46064E-18
 -1      2948 9.52565E-05-2.85960E-05-2.85688E-05 2.35751E-09-8.69452E-19 1.74299E-18
 -1      2949 9.52581E-05-2.85925E-05-2.85710E-05 7.77488E-11 6.54827E-19 1.20230E-18
 -1      2950 9.52556E-05-2.85953E-05-2.85687E-05-1.08184E-08-2.97881E-19-1.90618E-18
 -1      2951 9.52545E-05-2.85943E-05-2.85687E-05-1.46801E-08 7.97370E-19-3.00896E-19
 -1      2952 9.52552E-05-2.85907E-05-2.85705E-05-1.75355E-08-2.81014E-19-1.07273E-18
 -1      2953 9.52574E-05-2.85921E-05-2.85709E-05-9.05836E-09 2.82700E-19-1.39047E-18
 -1      2954 9.52545E-05-2.85943E-05-2.85687E-05 1.46746E-08 1.30949E-18-4.39763E-19
 -1      2955 9.52556E-05-2.85953E-05-2.85687E-05 1.08836E-08 5.72942E-19 5.20848E-19
 -1      2956 9.52574E-05-2.85921E-05-2.85709E-05 9.13192E-09 6.04695E-19 2.04760E-18
 -1      2957 9.52515E-05-2.85917E-05-2.85685E-05 2.17410E-08 2.44327E-18-2.39322E-18
 -1      2958 9.52532E-05-2.85934E-05-2.85685E-05 1.85808E-08 1.71453E-18-1.27268E-19
 -1      2959 9.52552E-05-2.85907E-05-2.85705E-05 1.75308E-08 1.51575E-18-2.56254E-19
 -1      2960 9.52469E-05-2.85880E-05-2.85681E-05 2.67904E-08 1.32746E-18-1.96661E-18
 -1      2961 9.52494E-05-2.85903E-05-2.85682E-05 2.47520E-08 2.42432E-18-2.63825E-18
 -1      2962 9.52513E-05-2.85883E-05-2.85699E-05 2.46303E-08 1.54256E-18-2.48453E-18
 -1      2963 1.36390E-04-5.60628E-05-3.43176E-05-4.33004E-06 8.88710E-19-2.33887E-18
 -1      2964 1.38577E-04-4.86776E-05-3.92457E-05 5.14320E-06-1.30687E-18-3.03534E-18
 -1      2965 8.41233E-05-4.54021E-05-1.66827E-05 3.97520E-05-3.38961E-18-6.68097E-20
 -1      2966 6.59483E-05-3.52467E-05-1.26000E-05 3.75837E-05-3.52757E-18 1.94140E-18
 -1      2967 2.88652E-05-1.32050E-05-6.34617E-06 5.70173E-06-1.46167E-18 6.77160E-18
 -1      2968 2.89930E-05-1.40284E-05-5.85626E-06-8.05823E-06-6.11664E-19 6.44317E-18
 -1      2969 3.81240E-05-1.47798E-05-9.40481E-06-1.27793E-05 8.06005E-20 5.22863E-18
 -1      2970 1.27539E-04-1.07727E-05-5.06774E-05-3.26198E-06 6.16767E-18-2.45776E-18
 -1      2971 1.28933E-04-1.40091E-05-4.98701E-05-9.01274E-06 6.05332E-18-3.57252E-18
 -1      2972 1.23860E-04-5.95326E-05-2.73101E-05-2.36246E-05-1.52154E-18-1.34895E-18
 -1      2973 1.32742E-04-5.89865E-05-3.20635E-05-1.35928E-05-9.25066E-19 8.14740E-20
 -1      2974 4.95409E-05-2.46744E-05-1.03680E-05 3.17512E-05-3.07621E-18 4.38170E-18
 -1      2975 3.73132E-05-1.67991E-05-8.11374E-06 1.91899E-05-2.71633E-18 5.46993E-18
 -1      2976 1.29006E-04-5.97425E-05-3.00472E-05 1.72298E-05 1.30099E-18 9.20513E-19
 -1      2977 1.17201E-04-5.71588E-05-2.53768E-05 2.61334E-05 2.53771E-18-5.15697E-19
 -1      2978 1.02414E-04-3.02037E-05-3.09559E-05-6.49858E-06 1.15950E-18-9.93661E-19
 -1      2979 1.01659E-04-2.92187E-05-3.10038E-05-5.94201E-06 1.55236E-18-9.55917E-19
 -1      2980 1.01484E-04-3.01853E-05-3.05931E-05-7.48512E-06 1.11994E-18-1.30700E-18
 -1      2981 1.10707E-04-3.84155E-05-3.10410E-05-2.85750E-06 8.76100E-20-4.60697E-19
 -1      2982 1.09335E-04-3.70311E-05-3.09294E-05-4.57625E-06 2.21092E-19-5.84648E-19
 -1      2983 1.07549E-04-3.67896E-05-3.03865E-05-6.71688E-06 1.22923E-19-9.75377E-19
 -1      2984 1.12073E-04-4.05958E-05-3.06882E-05-3.51438E-06-2.36295E-19-1.29120E-19
 -1      2985 9.83912E-05-2.41822E-05-3.17806E-05 1.15093E-06-2.34753E-18-1.53102E-18
 -1      2986 9.87880E-05-2.54008E-05-3.14606E-05 2.98328E-06-2.02405E-18-1.53582E-18
 -1      2987 9.72722E-05-2.45074E-05-3.11995E-05 3.94478E-06-1.86606E-18-1.83393E-18
 -1      2988 1.01041E-04-2.82894E-05-3.11816E-05-4.90634E-06 1.88307E-18-1.05312E-18
 -1      2989 1.00581E-04-2.73870E-05-3.13244E-05-3.72298E-06 2.11844E-18-8.82253E-19
 -1      2990 9.87816E-05-2.54676E-05-3.14294E-05-3.05305E-06 2.43424E-18-1.45208E-18
 -1      2991 9.98612E-05-2.77495E-05-3.09267E-05-5.81255E-06 1.76815E-18-1.38169E-18
 -1      2992 9.38845E-05-1.74031E-05-3.27784E-05-3.24745E-06-2.90110E-18-2.67306E-18
 -1      2993 9.23816E-05-4.87149E-05-1.82472E-05-3.70085E-05 2.43056E-18 9.49445E-19
 -1      2994 1.07582E-04-5.55139E-05-2.24611E-05-3.30743E-05 2.92586E-18 1.07592E-18
 -1      2995 8.58563E-05-1.19792E-05-3.16699E-05-3.36830E-08 1.86193E-18-4.02333E-18
 -1      2996 8.42292E-05-1.08173E-05-3.14960E-05-3.60997E-07 1.49337E-18-4.33864E-18
 -1      2997 8.40624E-05-1.16155E-05-3.10282E-05-1.13665E-06 1.26547E-18-4.22926E-18
 -1      2998 8.75277E-05-1.43064E-05-3.13633E-05-1.07545E-06 1.76442E-18-3.64012E-18
 -1      2999 1.35653E-04-3.24243E-05-4.50072E-05-1.22219E-05-4.49796E-18 2.67673E-18
 -1      3000 1.38473E-04-4.27052E-05-4.11623E-05-8.71852E-06-3.10379E-18 2.81490E-18
 -1      3001 9.52390E-05-2.85822E-05-2.85672E-05 2.89873E-08-3.88962E-19-4.21426E-18
 -1      3002 8.40857E-05-1.06837E-05-3.14890E-05 3.68589E-07-1.27733E-18-4.30933E-18
 -1      3003 8.56953E-05-1.18398E-05-3.16631E-05 5.73293E-08-1.60730E-18-4.14402E-18
 -1      3004 1.38075E-04-5.46793E-05-3.56197E-05-2.39757E-06-1.79359E-19 1.03740E-18
 -1      3005 1.37742E-04-4.80230E-05-3.91196E-05 5.37715E-06 1.24223E-18 2.34808E-18
 -1      3006 1.30659E-04-1.47483E-05-5.03632E-05-7.54541E-06-6.62380E-18 1.29607E-18
 -1      3007 1.30546E-04-2.00851E-05-4.77106E-05-1.15597E-05-5.88603E-18 2.03754E-18
 -1      3008 3.26219E-05-1.40950E-05-7.37505E-06-1.16325E-05-3.54960E-20-7.89075E-18
 -1      3009 3.86233E-05-1.84339E-05-8.16640E-06-2.33306E-05-6.53645E-19-7.61186E-18
 -1      3010 1.38462E-04-5.19513E-05-3.76882E-05-9.79472E-07-1.71232E-18 2.73496E-18
 -1      3011 1.35482E-04-5.65746E-05-3.37480E-05 6.28156E-06-3.19490E-20 2.13495E-18
 -1      3012 5.82291E-05-3.02723E-05-1.13371E-05-3.48592E-05 2.35401E-18 3.61662E-18
 -1      3013 7.44381E-05-3.93253E-05-1.49351E-05-3.89853E-05 2.33696E-18 1.31375E-18
 -1      3014 1.31077E-04-1.72841E-05-4.92595E-05 1.12085E-05-6.00208E-18-1.92584E-18
 -1      3015 1.30667E-04-1.21911E-05-5.14647E-05 6.37299E-06-6.83937E-18-1.05575E-18
 -1      3016 1.01747E-04-5.18565E-05-2.14729E-05 3.49415E-05 3.04657E-18-1.98857E-18
 -1      3017 8.69901E-05-4.41802E-05-1.79224E-05 3.70858E-05 3.26171E-18-3.00596E-18
 -1      3018 9.46038E-05-4.96213E-05-1.89309E-05-3.75353E-05-2.46561E-18-4.16888E-18
 -1      3019 1.11327E-04-5.65755E-05-2.35291E-05-3.28911E-05-1.90053E-18-2.84375E-18
 -1      3020 1.18128E-04-5.70760E-05-2.59310E-05-2.49305E-05-2.46307E-18-1.15755E-18
 -1      3021 1.29100E-04-9.98302E-06-5.17494E-05 1.82674E-06-6.74365E-18-2.94317E-19
 -1      3022 1.29685E-04-1.09222E-05-5.15653E-05-3.23203E-06-6.69558E-18 4.93264E-19
 -1      3023 1.22828E-04-1.37619E-05-4.71894E-05-5.61676E-06-5.70943E-18 6.18996E-19
 -1      3024 1.23476E-04-1.25153E-05-4.79752E-05 4.40558E-06-5.92298E-18-6.30689E-19
 -1      3025 1.20646E-04-5.87505E-05-2.62911E-05-2.41238E-05 2.65624E-18-1.85288E-21
 -1      3026 1.29664E-04-5.95477E-05-3.04862E-05-1.63518E-05 1.75055E-18-1.04037E-18
 -1      3027 1.36809E-04-3.67560E-05-4.30176E-05 1.27134E-05-3.55500E-18-3.75786E-18
 -1      3028 1.34247E-04-2.78718E-05-4.63227E-05 1.34220E-05-4.67107E-18-2.71569E-18
 -1      3029 8.76026E-05-1.33728E-05-3.18467E-05-1.26041E-07-1.90892E-18-3.94245E-18
 -1      3030 8.96218E-05-1.49083E-05-3.20415E-05-6.37735E-07-2.28122E-18-3.74420E-18
 -1      3031 8.73419E-05-1.41391E-05-3.13573E-05 1.09241E-06-1.58078E-18-3.71404E-18
 -1      3032 8.09249E-05-9.21995E-06-3.07053E-05-2.52010E-08 2.21343E-19-4.26453E-18
 -1      3033 8.05753E-05-8.05541E-06-3.11009E-05 1.53034E-07 4.28636E-20-4.59663E-18
 -1      3034 8.09205E-05-8.28740E-06-3.11417E-05 1.50671E-07-3.44064E-19-4.51061E-18
 -1      3035 1.28273E-04-2.98837E-05-4.24804E-05-1.54815E-05 2.91316E-18-5.59243E-18
 -1      3036 1.35139E-04-3.54686E-05-4.32078E-05-1.32740E-05 2.67652E-18-6.08932E-18
 -1      3037 1.33531E-04-4.09388E-05-3.97520E-05-1.19038E-05 1.67728E-18-6.72920E-18
 -1      3038 1.23256E-04-5.81803E-05-2.77465E-05 1.91998E-05-2.17836E-18-4.94265E-18
 -1      3039 9.66455E-05-2.13632E-05-3.22806E-05 1.13837E-06 2.98301E-18-1.88432E-18
 -1      3040 1.32572E-04-4.18163E-05-3.90822E-05 1.00702E-05 1.25747E-18 2.66593E-18
 -1      3041 1.34970E-04-4.63208E-05-3.80473E-05-7.89546E-06-1.75701E-18 2.99776E-18
 -1      3042 8.63956E-05-4.46230E-05-1.75752E-05-3.86927E-05-2.57074E-18-4.91824E-18
 -1      3043 9.78111E-05-4.77562E-05-2.12178E-05-3.28682E-05-3.23291E-18-3.26965E-18
 -1      3044 7.73119E-05-3.75939E-05-1.65430E-05-3.66618E-05-2.70024E-18-5.03550E-18
 -1      3045 1.11224E-04-5.34251E-05-2.45706E-05 2.69306E-05 3.02920E-18-8.40932E-19
 -1      3046 9.52513E-05-2.85883E-05-2.85699E-05-2.45928E-08 9.25982E-19-1.61042E-18
 -1      3047 9.52494E-05-2.85903E-05-2.85682E-05-2.47474E-08 1.65744E-18-1.19568E-18
 -1      3048 9.52469E-05-2.85880E-05-2.85681E-05-2.67781E-08-3.01914E-19-4.02067E-19
 -1      3049 5.64124E-05-2.55832E-05-1.27046E-05-2.98260E-05 2.02949E-18 3.52133E-18
 -1      3050 1.27483E-04-2.33394E-05-4.50558E-05 1.34236E-05-4.58690E-18-2.11165E-18
 -1      3051 9.61980E-05-2.19672E-05-3.18088E-05-8.18797E-07 2.60793E-18-2.06625E-18
 -1      3052 9.52445E-05-2.85864E-05-2.85677E-05-2.82855E-08-8.70221E-19-1.77894E-19
 -1      3053 9.52413E-05-2.85837E-05-2.85676E-05-2.88399E-08-1.55627E-18 1.32347E-18
 -1      3054 9.52401E-05-2.85816E-05-2.85680E-05-3.09204E-08-8.73752E-19 1.50523E-18
 -1      3055 9.52461E-05-2.85853E-05-2.85690E-05-2.91273E-08 4.18226E-19 2.62658E-19
 -1      3056 9.62420E-05-4.83809E-05-2.01260E-05 3.38566E-05-3.52450E-18-1.12888E-18
 -1      3057 1.30660E-04-5.69103E-05-3.15448E-05 8.64295E-06 1.33728E-18 1.91890E-18
 -1      3058 1.33828E-04-4.33442E-05-3.89684E-05 1.05300E-05-1.66439E-18-3.05874E-18
 -1      3059 1.32122E-04-5.63989E-05-3.21886E-05-6.22065E-06 1.81650E-18-2.41309E-18
 -1      3060 9.52421E-05-2.85849E-05-2.85673E-05 2.84204E-08 3.45784E-19-3.03516E-18
 -1      3061 6.31342E-05-2.92989E-05-1.39627E-05 3.18705E-05-3.65722E-18 2.41479E-18
 -1      3062 4.03343E-05-1.48136E-05-1.03453E-05 1.18809E-05-2.36545E-18 5.48475E-18
 -1      3063 1.28731E-04-2.72365E-05-4.38750E-05-1.27185E-05-4.69955E-18 2.05495E-18
 -1      3064 4.57537E-05-2.07830E-05-1.01206E-05 2.51355E-05 2.17920E-18-6.66890E-18
 -1      3065 3.54427E-05-1.22642E-05-9.67907E-06 5.33374E-06 1.02728E-18-7.40773E-18
 -1      3066 3.33469E-05-1.26596E-05-8.13377E-06-3.74932E-06 5.78497E-19-7.86618E-18
 -1      3067 4.00594E-05-1.31392E-05-1.09809E-05-9.48710E-06-1.00148E-19-7.17712E-18
 -1      3068 1.23181E-04-1.21273E-05-4.79498E-05 1.72838E-07 5.21338E-18-1.47877E-18
 -1      3069 7.90342E-05-3.88034E-05-1.69474E-05 3.70762E-05 3.12121E-18-3.51085E-18
 -1      3070 7.05803E-05-3.15720E-05-1.61642E-05 3.38230E-05 3.11316E-18-3.85167E-18
 -1      3071 8.84958E-05-4.10214E-05-2.01025E-05 3.25220E-05 3.41105E-18-2.48792E-18
 -1      3072 1.24974E-04-1.83470E-05-4.60936E-05-1.11962E-05 4.58139E-18-4.35761E-18
 -1      3073 1.25886E-04-2.15602E-05-4.50509E-05 1.24224E-05 4.30949E-18 1.34466E-18
 -1      3074 1.32662E-04-5.65181E-05-3.26686E-05-6.88899E-06-1.36841E-18 1.29183E-18
 -1      3075 1.15104E-04-5.62098E-05-2.50424E-05-2.54847E-05 3.09225E-18 1.06925E-19
 -1      3076 1.36130E-04-5.36974E-05-3.54681E-05 2.45683E-07-2.31779E-19-6.46307E-18
 -1      3077 9.23356E-05-1.71755E-05-3.22293E-05-1.01522E-06-2.39861E-18-3.22874E-18
 -1      3078 9.63501E-05-2.07703E-05-3.24076E-05-1.74673E-06-2.82524E-18-2.17662E-18
 -1      3079 9.73404E-05-2.27342E-05-3.19698E-05 2.27779E-07-2.53588E-18-1.83441E-18
 -1      3080 9.20245E-05-1.79473E-05-3.17304E-05 6.58888E-07-2.10307E-18-3.18674E-18
 -1      3081 8.16537E-05-8.86440E-06-3.12230E-05 4.20009E-07-6.30465E-19-4.37682E-18
 -1      3082 8.26869E-05-9.58043E-06-3.13413E-05 3.03203E-07-1.04632E-18-4.30006E-18
 -1      3083 8.39003E-05-1.14834E-05-3.10195E-05 1.12462E-06-1.09109E-18-3.99353E-18
 -1      3084 8.16624E-05-9.78215E-06-3.07862E-05 6.94840E-07-4.65507E-19-4.17496E-18
 -1      3085 8.63958E-05-4.28534E-05-1.82669E-05-3.48604E-05 2.85958E-18 6.23257E-19
 -1      3086 4.91384E-05-2.28087E-05-1.06549E-05-2.86362E-05-1.38109E-18-6.94038E-18
 -1      3087 6.09681E-05-2.81409E-05-1.38704E-05-3.33975E-05-2.10271E-18-6.03183E-18
 -1      3088 4.96505E-05-1.92044E-05-1.26154E-05-2.35783E-05-1.13751E-18-6.43120E-18
 -1      3089 9.57071E-05-2.17087E-05-3.17199E-05 1.30796E-06-2.17376E-18-2.33098E-18
 -1      3090 9.52416E-05-2.85820E-05-2.85684E-05 3.09230E-08-6.09137E-19-4.45494E-18
 -1      3091 9.52448E-05-2.85859E-05-2.85681E-05 2.87706E-08 3.40715E-19-3.69501E-18
 -1      3092 9.52466E-05-2.85846E-05-2.85694E-05 2.93954E-08 3.42713E-19-3.37820E-18
 -1      3093 9.52413E-05-2.85804E-05-2.85689E-05 3.21075E-08 9.08236E-20-4.33582E-18
 -1      3094 1.31446E-04-4.67137E-05-3.62391E-05 8.45056E-06 2.50881E-19 2.36709E-18
 -1      3095 1.26862E-04-3.69061E-05-3.88886E-05 1.34343E-05 1.76384E-18 2.23326E-18
 -1      3096 9.34385E-05-2.01166E-05-3.14264E-05-1.96622E-06 2.19988E-18-2.59505E-18
 -1      3097 9.11570E-05-1.82578E-05-3.12576E-05-2.21150E-06 1.92179E-18-3.04566E-18
 -1      3098 9.50547E-05-2.22370E-05-3.11932E-05 3.28762E-06-1.75111E-18-2.62283E-18
 -1      3099 9.56072E-05-2.36185E-05-3.08550E-05 4.91868E-06-1.58281E-18-2.42146E-18
 -1      3100 9.76444E-05-2.78009E-05-2.98999E-05 8.92768E-06-8.20212E-19-1.77567E-18
 -1      3101 9.87969E-05-2.94928E-05-2.96916E-05 9.69984E-06-4.84027E-19-1.83371E-18
 -1      3102 1.00148E-04-3.13931E-05-2.94136E-05 1.06177E-05-2.70185E-19-1.56126E-18
 -1      3103 1.01963E-04-3.36099E-05-2.92834E-05 1.08029E-05-1.42790E-19-1.51615E-18
 -1      3104 9.70788E-05-2.93998E-05-2.90612E-05 1.11928E-05-2.87820E-19-1.88858E-18
 -1      3105 1.04290E-04-3.61603E-05-2.91100E-05 1.11580E-05 1.07087E-19-1.00404E-18
 -1      3106 1.06898E-04-3.89171E-05-2.91331E-05 1.05012E-05 2.91684E-19-7.61893E-19
 -1      3107 1.00624E-04-3.42566E-05-2.85369E-05 1.28771E-05 1.98695E-19-1.24544E-18
 -1      3108 1.10509E-04-4.20302E-05-2.92163E-05 9.78680E-06 7.38542E-19-9.00121E-20
 -1      3109 1.13756E-04-4.48063E-05-2.95568E-05 7.91226E-06 1.09848E-18 4.55803E-19
 -1      3110 1.06445E-04-4.05331E-05-2.83574E-05 1.31874E-05 8.92051E-19-4.43945E-19
 -1      3111 1.18545E-04-4.78139E-05-3.01931E-05 5.51327E-06 1.28218E-18 1.31331E-18
 -1      3112 1.21687E-04-4.91072E-05-3.11614E-05 1.92751E-06 8.10983E-19 1.81452E-18
 -1      3113 1.14794E-04-4.72972E-05-2.90157E-05 1.05698E-05 1.73785E-18 9.69032E-19
 -1      3114 1.21522E-04-2.31208E-05-4.27222E-05-1.25056E-05-4.50219E-18 1.59880E-18
 -1      3115 1.19063E-04-1.63467E-05-4.42839E-05-8.64345E-06-5.18776E-18 8.19213E-19
 -1      3116 1.19623E-04-1.57093E-05-4.49589E-05 9.14132E-06-5.16690E-18-2.00752E-18
 -1      3117 1.21896E-04-2.18377E-05-4.33379E-05 1.30588E-05-4.26958E-18-2.42492E-18
 -1      3118 1.24977E-04-3.02187E-05-4.07824E-05 1.60583E-05-3.40057E-18-2.89892E-18
 -1      3119 1.26710E-04-3.77764E-05-3.85556E-05 1.42832E-05-1.85191E-18-3.17558E-18
 -1      3120 1.27331E-04-4.69047E-05-3.44857E-05 7.95428E-06 2.47148E-19-2.91914E-18
 -1      3121 1.26116E-04-4.96997E-05-3.26618E-05 3.81625E-06 1.12149E-18-2.78819E-18
 -1      3122 1.21167E-04-4.90802E-05-3.09803E-05-1.14062E-06 1.33097E-18-1.75438E-18
 -1      3123 1.18181E-04-4.76941E-05-3.00654E-05-4.37950E-06 1.77656E-18-1.74222E-18
 -1      3124 1.24361E-04-5.23922E-05-3.11007E-05-3.29668E-06 1.66228E-18-1.70646E-18
 -1      3125 1.13396E-04-4.49208E-05-2.93783E-05-7.00508E-06 1.64590E-18-1.60105E-18
 -1      3126 1.10157E-04-4.22071E-05-2.89971E-05-8.97010E-06 1.21734E-18-1.50094E-18
 -1      3127 1.14352E-04-4.76313E-05-2.87532E-05-9.86341E-06 1.86027E-18-1.51530E-18
 -1      3128 1.06516E-04-3.92142E-05-2.88407E-05-9.82595E-06 1.06996E-18-9.16809E-19
 -1      3129 1.03879E-04-3.66250E-05-2.87430E-05-1.06803E-05 5.79730E-19-7.40593E-19
 -1      3130 1.05892E-04-4.08455E-05-2.79981E-05-1.24895E-05 1.37475E-18-8.22893E-19
 -1      3131 1.01562E-04-3.43014E-05-2.88096E-05-1.05905E-05-4.08520E-19-4.38019E-19
 -1      3132 9.97006E-05-3.23399E-05-2.88268E-05-1.07494E-05-4.82003E-19-3.39338E-19
 -1      3133 1.00062E-04-3.49488E-05-2.79911E-05-1.26238E-05 4.63123E-19-4.15178E-19
 -1      3134 9.83911E-05-3.07857E-05-2.89550E-05-1.02432E-05-6.33222E-19 3.09241E-21
 -1      3135 9.71926E-05-2.94882E-05-2.89973E-05-1.00098E-05-3.57154E-19-8.44117E-19
 -1      3136 9.65637E-05-3.07597E-05-2.82521E-05-1.16596E-05-5.37151E-19-1.64409E-19
 -1      3137 9.65476E-05-2.85697E-05-2.91168E-05-9.35967E-06-2.19854E-19-9.04938E-19
 -1      3138 9.58189E-05-2.78003E-05-2.91453E-05-8.92456E-06-1.44810E-19-1.13030E-18
 -1      3139 9.47062E-05-2.81469E-05-2.85509E-05-1.03094E-05-5.40624E-19 3.17464E-20
 -1      3140 9.55702E-05-2.73332E-05-2.92309E-05-8.25128E-06-6.14086E-19-1.41902E-18
 -1      3141 9.51423E-05-2.69324E-05-2.92344E-05-7.72759E-06-7.55617E-19-1.34181E-18
 -1      3142 9.38722E-05-2.67077E-05-2.87957E-05-8.89643E-06-3.59975E-19-8.12622E-19
 -1      3143 9.51109E-05-2.67580E-05-2.92831E-05-7.08284E-06-4.85945E-19-1.08800E-18
 -1      3144 9.48634E-05-2.65940E-05-2.92634E-05-6.53862E-06-1.99965E-19-1.41022E-18
 -1      3145 9.36241E-05-2.60558E-05-2.89610E-05-7.54291E-06-6.74444E-19-4.46180E-19
 -1      3146 9.49385E-05-2.65946E-05-2.92810E-05-5.94611E-06 1.13742E-19-1.50093E-18
 -1      3147 9.47945E-05-2.65719E-05-2.92447E-05-5.42250E-06 4.13374E-19-1.33971E-18
 -1      3148 9.36831E-05-2.58950E-05-2.90514E-05-6.29580E-06-5.25683E-20-4.60406E-19
 -1      3149 9.49116E-05-2.66674E-05-2.92396E-05-4.89338E-06 2.86467E-19-1.64566E-18
 -1      3150 9.48253E-05-2.67221E-05-2.91937E-05-4.41420E-06-2.22514E-20-1.28427E-18
 -1      3151 9.38813E-05-2.60170E-05-2.90826E-05-5.17483E-06 1.17656E-19-1.08630E-18
 -1      3152 9.49496E-05-2.68609E-05-2.91739E-05-3.95281E-06 1.18032E-19-1.43128E-18
 -1      3153 9.48949E-05-2.69523E-05-2.91244E-05-3.53019E-06 2.62381E-19-7.54809E-19
 -1      3154 9.41242E-05-2.62840E-05-2.90719E-05-4.18797E-06 7.10836E-20-1.15400E-18
 -1      3155 9.50093E-05-2.71034E-05-2.90964E-05-3.13640E-06 4.00262E-19-6.47298E-19
 -1      3156 9.49722E-05-2.72071E-05-2.90476E-05-2.77447E-06 7.11653E-20-6.72321E-19
 -1      3157 9.43623E-05-2.66093E-05-2.90348E-05-3.33614E-06 4.45594E-19-5.68116E-19
 -1      3158 9.50696E-05-2.73527E-05-2.90162E-05-2.44505E-06 1.39347E-19-4.49899E-19
 -1      3159 9.50427E-05-2.74548E-05-2.89708E-05-2.14270E-06 1.36312E-18 5.35759E-19
 -1      3160 9.45730E-05-2.69413E-05-2.89833E-05-2.61487E-06 2.21147E-19 9.29841E-19
 -1      3161 9.51217E-05-2.75861E-05-2.89393E-05-1.87228E-06 6.27926E-19 6.14900E-19
 -1      3162 9.51012E-05-2.76792E-05-2.88989E-05-1.62515E-06 1.33055E-19-3.16112E-22
 -1      3163 9.47483E-05-2.72515E-05-2.89259E-05-2.01546E-06 7.32816E-19 7.81296E-19
 -1      3164 9.51629E-05-2.77924E-05-2.88692E-05-1.40716E-06 2.43591E-19 1.53046E-19
 -1      3165 9.51469E-05-2.78735E-05-2.88345E-05-1.20913E-06 1.60285E-19 2.69311E-19
 -1      3166 9.48882E-05-2.75260E-05-2.88686E-05-1.52628E-06 2.43825E-19 6.10838E-19
 -1      3167 9.51937E-05-2.79680E-05-2.88079E-05-1.03647E-06-5.87739E-19-4.92713E-19
 -1      3168 9.51810E-05-2.80362E-05-2.87787E-05-8.80718E-07-2.27009E-18-7.38406E-19
 -1      3169 9.49963E-05-2.77600E-05-2.88150E-05-1.13404E-06-8.82352E-19-8.66790E-19
 -1      3170 9.52155E-05-2.81130E-05-2.87557E-05-7.46322E-07-2.31493E-18-1.28422E-18
 -1      3171 9.52055E-05-2.81688E-05-2.87318E-05-6.26032E-07-8.68906E-19-5.09434E-19
 -1      3172 9.50776E-05-2.79537E-05-2.87671E-05-8.24940E-07-1.54570E-18-1.59673E-18
 -1      3173 9.52303E-05-2.82299E-05-2.87124E-05-5.23240E-07-7.86111E-19-3.74972E-19
 -1      3174 9.52224E-05-2.82747E-05-2.86932E-05-4.32021E-07-9.24020E-19-3.15838E-19
 -1      3175 9.51370E-05-2.81102E-05-2.87256E-05-5.85532E-07-5.94941E-19-5.51089E-19
 -1      3176 9.52396E-05-2.83223E-05-2.86772E-05-3.54819E-07-1.12438E-18-8.08020E-19
 -1      3177 9.52335E-05-2.83574E-05-2.86622E-05-2.86946E-07-3.33470E-19-1.62375E-18
 -1      3178 9.51792E-05-2.82342E-05-2.86907E-05-4.03347E-07-1.45946E-18-8.61178E-20
 -1      3179 9.52451E-05-2.83938E-05-2.86493E-05-2.30078E-07-1.30915E-19-2.15249E-18
 -1      3180 9.52404E-05-2.84208E-05-2.86377E-05-1.80600E-07-4.43518E-19-3.04648E-18
 -1      3181 9.52084E-05-2.83303E-05-2.86621E-05-2.67240E-07-7.42028E-19-5.69620E-19
 -1      3182 9.52478E-05-2.84481E-05-2.86275E-05-1.39597E-07-1.98202E-19-3.13890E-18
 -1      3183 9.52443E-05-2.84686E-05-2.86187E-05-1.04349E-07-1.50988E-19-2.12528E-18
 -1      3184 9.52276E-05-2.84036E-05-2.86390E-05-1.67556E-07-1.57038E-19-2.39900E-18
 -1      3185 9.52486E-05-2.84886E-05-2.86108E-05-7.55050E-08 1.45591E-20-1.36625E-18
 -1      3186 9.52461E-05-2.85037E-05-2.86042E-05-5.10655E-08 3.73536E-19-2.18524E-18
 -1      3187 9.52396E-05-2.84582E-05-2.86207E-05-9.61517E-08 3.40615E-19-1.86253E-18
 -1      3188 9.52483E-05-2.85181E-05-2.85981E-05-3.13733E-08 5.96024E-19-1.77407E-18
 -1      3189 9.52465E-05-2.85291E-05-2.85934E-05-1.49986E-08 6.81992E-19-1.26103E-18
 -1      3190 9.52465E-05-2.84982E-05-2.86065E-05-4.63146E-08 8.26795E-19-8.09845E-19
 -1      3191 9.52473E-05-2.85393E-05-2.85888E-05-2.07197E-09 9.31747E-19-6.36956E-19
 -1      3192 9.52460E-05-2.85471E-05-2.85854E-05 8.38889E-09 1.47181E-18-2.96473E-19
 -1      3193 9.52498E-05-2.85268E-05-2.85956E-05-1.26375E-08 1.66781E-18 2.88184E-21
 -1      3194 9.52459E-05-2.85541E-05-2.85820E-05 1.64000E-08 5.63831E-19 2.10210E-19
 -1      3195 9.52451E-05-2.85596E-05-2.85796E-05 2.25910E-08 1.13191E-18 1.18043E-18
 -1      3196 9.52507E-05-2.85469E-05-2.85874E-05 9.13846E-09 1.96295E-18 1.39666E-18
 -1      3197 9.52445E-05-2.85643E-05-2.85771E-05 2.70846E-08 5.94853E-19 9.83606E-19
 -1      3198 9.52441E-05-2.85683E-05-2.85754E-05 3.02218E-08 3.92886E-19-7.28024E-19
 -1      3199 9.52501E-05-2.85607E-05-2.85812E-05 2.22917E-08 5.39337E-19 1.77364E-19
 -1      3200 9.52432E-05-2.85715E-05-2.85735E-05 3.22158E-08 3.01846E-19-1.21105E-18
 -1      3201 9.52430E-05-2.85744E-05-2.85723E-05 3.31538E-08 2.99853E-19-1.97700E-18
 -1      3202 9.52487E-05-2.85702E-05-2.85766E-05 2.92562E-08-1.66081E-19-1.16825E-18
 -1      3203 9.52419E-05-2.85764E-05-2.85709E-05 3.35388E-08 4.67251E-19-2.62970E-18
 -1      3204 9.52421E-05-2.85788E-05-2.85700E-05 3.28591E-08 5.90863E-19-2.90307E-18
 -1      3205 9.52450E-05-2.85809E-05-2.85704E-05 3.18689E-08-6.57038E-19-3.89742E-18
 -1      3206 9.52468E-05-2.85765E-05-2.85731E-05 3.19566E-08-4.40839E-20-1.36506E-18
 -1      3207 1.18958E-04-4.60832E-05-3.12966E-05 2.14377E-07-4.33165E-19 4.86250E-19
 -1      3208 1.16817E-04-4.51051E-05-3.06432E-05-2.86321E-06-6.78401E-19 2.71961E-19
 -1      3209 1.16242E-04-1.45067E-05-4.40157E-05 1.11380E-06 4.29022E-18-1.21944E-18
 -1      3210 1.17456E-04-1.70185E-05-4.35906E-05 7.51447E-06 3.86247E-18-2.27005E-19
 -1      3211 1.17040E-04-1.94432E-05-4.22508E-05-1.09215E-05 3.68406E-18-3.30353E-18
 -1      3212 1.15193E-04-1.54487E-05-4.32544E-05-6.21143E-06 4.00943E-18-2.79246E-18
 -1      3213 1.23946E-04-3.68639E-05-3.75562E-05-1.49171E-05 1.97402E-18-4.35891E-18
 -1      3214 1.21380E-04-3.01401E-05-3.92465E-05-1.46306E-05 2.60839E-18-4.19705E-18
 -1      3215 1.19228E-04-4.62377E-05-3.12189E-05-9.51747E-07-1.10813E-18-3.30192E-18
 -1      3216 1.20963E-04-4.62333E-05-3.20789E-05-4.26220E-06-5.80759E-19-3.44638E-18
 -1      3217 1.12866E-04-4.26259E-05-3.00008E-05 4.84649E-06-1.13453E-18-2.28999E-18
 -1      3218 1.15313E-04-4.44644E-05-3.04222E-05 2.38706E-06-1.09813E-18-2.77149E-18
 -1      3219 1.17321E-04-4.72171E-05-3.01622E-05 3.88577E-06-1.13055E-18-3.38075E-18
 -1      3220 1.07017E-04-3.78918E-05-2.95432E-05 8.02609E-06-6.30757E-19-1.70490E-18
 -1      3221 1.09353E-04-4.01114E-05-2.97057E-05 6.61003E-06-7.30367E-19-1.90393E-18
 -1      3222 1.09818E-04-4.22254E-05-2.90760E-05 8.54066E-06-8.00251E-19-1.98800E-18
 -1      3223 1.02643E-04-3.37941E-05-2.94550E-05 9.22477E-06 1.11831E-19-1.68445E-18
 -1      3224 1.04485E-04-3.56655E-05-2.94998E-05 8.61553E-06-2.40400E-19-1.61792E-18
 -1      3225 1.03787E-04-3.68092E-05-2.87860E-05 1.03807E-05-3.89783E-19-1.38891E-18
 -1      3226 9.97240E-05-3.08453E-05-2.94919E-05 9.23571E-06 4.42986E-19-1.37493E-18
 -1      3227 1.01033E-04-3.21795E-05-2.95039E-05 9.15943E-06 2.72346E-19-1.73385E-18
 -1      3228 9.97291E-05-3.25495E-05-2.88457E-05 1.05484E-05 1.33748E-19-1.54133E-18
 -1      3229 9.79053E-05-2.89647E-05-2.95338E-05 8.60402E-06 7.51399E-19-1.09055E-18
 -1      3230 9.87921E-05-2.98169E-05-2.95522E-05 8.84660E-06 7.68456E-19-1.23736E-18
 -1      3231 9.72648E-05-2.96688E-05-2.90019E-05 9.88588E-06 4.43294E-19-1.38078E-18
 -1      3232 9.68232E-05-2.78942E-05-2.95378E-05 7.65876E-06-3.38017E-19 3.79162E-19
 -1      3233 9.74150E-05-2.83858E-05-2.95742E-05 8.07178E-06 2.76252E-19-9.84850E-20
 -1      3234 9.58949E-05-2.79366E-05-2.91419E-05 8.85316E-06-9.70835E-20 4.40551E-19
 -1      3235 9.61976E-05-2.73734E-05-2.94979E-05 6.59657E-06-9.14073E-20-8.74417E-19
 -1      3236 9.65968E-05-2.76217E-05-2.95510E-05 7.08233E-06 2.39963E-19-4.71585E-20
 -1      3237 9.52083E-05-2.70286E-05-2.92276E-05 7.68872E-06 2.03431E-19 3.85630E-19
 -1      3238 9.58405E-05-2.71959E-05-2.94232E-05 5.53439E-06-9.82930E-19-1.30177E-18
 -1      3239 9.61173E-05-2.72920E-05-2.94872E-05 6.03068E-06-4.83773E-19-7.26827E-19
 -1      3240 9.49167E-05-2.66594E-05-2.92560E-05 6.51941E-06 4.57218E-20 1.97212E-19
 -1      3241 9.56352E-05-2.72166E-05-2.93272E-05 4.53998E-06-8.90090E-19-2.14041E-18
 -1      3242 9.58339E-05-2.72240E-05-2.93955E-05 5.00931E-06-5.98400E-19-1.52602E-18
 -1      3243 9.48361E-05-2.66155E-05-2.92380E-05 5.41479E-06-4.31075E-19 9.34812E-21
 -1      3244 9.55137E-05-2.73403E-05-2.92221E-05 3.64953E-06-1.69022E-18-2.22842E-18
 -1      3245 9.56611E-05-2.73004E-05-2.92894E-05 4.07141E-06-1.65560E-18-2.22284E-18
 -1      3246 9.48573E-05-2.67508E-05-2.91882E-05 4.41283E-06-1.02116E-18-8.94847E-19
 -1      3247 9.54380E-05-2.75080E-05-2.91173E-05 2.87843E-06-5.61580E-19-2.73362E-18
 -1      3248 9.55500E-05-2.74465E-05-2.91800E-05 3.24385E-06-1.11197E-18-2.78007E-18
 -1      3249 9.49196E-05-2.69713E-05-2.91202E-05 3.53198E-06-7.98508E-19-2.16606E-18
 -1      3250 9.53875E-05-2.76853E-05-2.90191E-05 2.22856E-06 6.84849E-19-2.52737E-18
 -1      3251 9.54738E-05-2.76174E-05-2.90750E-05 2.53597E-06 2.02241E-19-2.14645E-18
 -1      3252 9.49912E-05-2.72198E-05-2.90445E-05 2.77754E-06-1.88197E-19-2.74149E-18
 -1      3253 9.53515E-05-2.78533E-05-2.89310E-05 1.69344E-06 1.16210E-18-2.12611E-18
 -1      3254 9.54183E-05-2.77874E-05-2.89792E-05 1.94581E-06 1.31918E-18-2.32620E-18
 -1      3255 9.50574E-05-2.74635E-05-2.89686E-05 2.14599E-06 8.75667E-19-1.59344E-18
 -1      3256 9.53245E-05-2.80028E-05-2.88548E-05 1.26182E-06 3.24542E-19-2.60689E-18
 -1      3257 9.53761E-05-2.79432E-05-2.88952E-05 1.46461E-06 6.08319E-19-2.59655E-18
 -1      3258 9.51126E-05-2.76854E-05-2.88974E-05 1.62813E-06 1.57906E-18-1.10995E-18
 -1      3259 9.53037E-05-2.81305E-05-2.87905E-05 9.20311E-07 1.39033E-19-1.76255E-18
 -1      3260 9.53430E-05-2.80789E-05-2.88237E-05 1.08008E-06 1.81814E-19-1.63132E-18
 -1      3261 9.51557E-05-2.78779E-05-2.88335E-05 1.21157E-06 3.40226E-19-1.20376E-18
 -1      3262 9.52872E-05-2.82362E-05-2.87377E-05 6.55030E-07 9.53085E-20-8.32289E-19
 -1      3263 9.53170E-05-2.81931E-05-2.87643E-05 7.78563E-07 5.93890E-20-1.59043E-18
 -1      3264 9.51878E-05-2.80395E-05-2.87781E-05 8.82585E-07-3.86139E-19-4.88701E-19
 -1      3265 9.52743E-05-2.83215E-05-2.86952E-05 4.52698E-07-4.29149E-21-6.35622E-19
 -1      3266 9.52964E-05-2.82864E-05-2.87162E-05 5.46447E-07 3.11449E-19-7.36139E-19
 -1      3267 9.52107E-05-2.81713E-05-2.87314E-05 6.27362E-07-1.15192E-19-4.43486E-19
 -1      3268 9.52643E-05-2.83890E-05-2.86617E-05 3.01252E-07-1.38225E-19 3.06075E-19
 -1      3269 9.52803E-05-2.83610E-05-2.86778E-05 3.71041E-07-3.60099E-19-3.59664E-20
 -1      3270 9.52263E-05-2.82766E-05-2.86931E-05 4.32896E-07-2.69014E-19-1.59358E-19
 -1      3271 9.52565E-05-2.84413E-05-2.86357E-05 1.90140E-07-3.76563E-19 9.18661E-19
 -1      3272 9.52679E-05-2.84194E-05-2.86479E-05 2.41031E-07 2.11365E-19 9.00313E-19
 -1      3273 9.52365E-05-2.83589E-05-2.86621E-05 2.87460E-07-3.09861E-19 1.09964E-18
 -1      3274 9.52506E-05-2.84811E-05-2.86160E-05 1.10404E-07 7.89397E-19 5.41731E-19
 -1      3275 9.52585E-05-2.84643E-05-2.86250E-05 1.46669E-07 1.45229E-19 7.93647E-19
 -1      3276 9.52426E-05-2.84220E-05-2.86377E-05 1.80840E-07 1.43048E-19 1.04688E-18
 -1      3277 9.52463E-05-2.85107E-05-2.86012E-05 5.46350E-08 8.69697E-19-1.91427E-19
 -1      3278 9.52515E-05-2.84980E-05-2.86078E-05 7.97858E-08 1.25759E-18 3.71648E-19
 -1      3279 9.52459E-05-2.84694E-05-2.86187E-05 1.04391E-07 1.07249E-18 5.69604E-20
 -1      3280 9.52431E-05-2.85324E-05-2.85905E-05 1.68390E-08 6.51562E-19-2.42215E-18
 -1      3281 9.52463E-05-2.85230E-05-2.85952E-05 3.36983E-08 1.05737E-18-1.01905E-18
 -1      3282 9.52472E-05-2.85044E-05-2.86042E-05 5.09735E-08 1.38089E-18-5.14545E-19
 -1      3283 9.52409E-05-2.85479E-05-2.85828E-05-7.72074E-09 1.11881E-18-3.62079E-18
 -1      3284 9.52427E-05-2.85411E-05-2.85860E-05 3.06335E-09 8.23997E-19-2.78781E-18
 -1      3285 9.52472E-05-2.85297E-05-2.85934E-05 1.48217E-08 1.17036E-18-1.19653E-18
 -1      3286 9.52394E-05-2.85589E-05-2.85774E-05-2.26982E-08 7.09501E-19-2.20135E-18
 -1      3287 9.52402E-05-2.85539E-05-2.85796E-05-1.62944E-08 1.35142E-18-3.30914E-18
 -1      3288 9.52465E-05-2.85475E-05-2.85854E-05-8.61525E-09 7.29109E-19-1.45722E-18
 -1      3289 9.52385E-05-2.85667E-05-2.85737E-05-3.08233E-08 1.90704E-19-1.41823E-18
 -1      3290 9.52387E-05-2.85630E-05-2.85751E-05-2.75468E-08-1.25919E-19-1.78585E-18
 -1      3291 9.52454E-05-2.85599E-05-2.85796E-05-2.28418E-08 4.51004E-19 5.89719E-20
 -1      3292 9.52382E-05-2.85723E-05-2.85711E-05-3.40635E-08-1.80764E-18-1.04056E-19
 -1      3293 9.52378E-05-2.85695E-05-2.85720E-05-3.30209E-08-5.08455E-19-7.40484E-19
 -1      3294 9.52442E-05-2.85686E-05-2.85753E-05-3.04558E-08-1.16156E-18 2.33636E-18
 -1      3295 9.52383E-05-2.85766E-05-2.85693E-05-3.37738E-08-2.18002E-18 1.10117E-18
 -1      3296 9.52377E-05-2.85744E-05-2.85699E-05-3.43722E-08-2.46544E-18-1.98698E-19
 -1      3297 9.52431E-05-2.85747E-05-2.85722E-05-3.33707E-08-2.32279E-18 1.63966E-18
 -1      3298 9.52399E-05-2.85800E-05-2.85685E-05-3.18312E-08-8.24284E-19 2.23195E-18
 -1      3299 9.52384E-05-2.85780E-05-2.85688E-05-3.32285E-08-1.21206E-18 1.98735E-18
 -1      3300 9.52429E-05-2.85789E-05-2.85703E-05-3.31146E-08-2.61099E-18 2.28056E-18
 -1      3301 9.52433E-05-2.85821E-05-2.85691E-05-3.15159E-08 2.90351E-19 3.18905E-19
 -1      3302 9.52588E-05-2.85884E-05-2.85730E-05 1.14059E-08 1.02609E-18 1.24303E-18
 -1      3303 9.52596E-05-2.85889E-05-2.85732E-05 7.06673E-09 8.30665E-19 2.57398E-18
 -1      3304 8.08938E-05-3.71509E-05-1.84546E-05-3.24789E-05 2.92300E-18 7.83770E-19
 -1      3305 9.60630E-05-4.65431E-05-2.12524E-05-3.17926E-05 2.79897E-18 2.02653E-19
 -1      3306 9.52513E-05-2.85850E-05-2.85713E-05 2.66879E-08-6.24364E-20-3.82941E-18
 -1      3307 9.52539E-05-2.85865E-05-2.85718E-05 2.36189E-08 3.57664E-19-3.15427E-18
 -1      3308 9.52600E-05-2.85889E-05-2.85733E-05 2.32642E-09 1.56364E-18 1.64020E-18
 -1      3309 9.52600E-05-2.85889E-05-2.85733E-05-2.24628E-09 1.51730E-18 7.53467E-19
 -1      3310 9.52615E-05-2.85851E-05-2.85756E-05 4.70558E-09 2.03514E-18 1.06994E-18
 -1      3311 1.00246E-04-2.98672E-05-3.01623E-05-8.52728E-06 9.06909E-19-1.25059E-18
 -1      3312 9.92171E-05-2.83898E-05-3.03195E-05-7.87639E-06 1.25683E-18-1.19147E-18
 -1      3313 1.03102E-04-3.34165E-05-2.98674E-05-9.18586E-06 4.89254E-19-1.14394E-18
 -1      3314 1.01556E-04-3.15447E-05-2.99507E-05-9.19385E-06 7.21569E-19-1.17320E-18
 -1      3315 9.89172E-05-2.99033E-05-2.96273E-05-9.84328E-06 8.37457E-19-1.13581E-18
 -1      3316 9.52560E-05-2.85872E-05-2.85724E-05 1.97824E-08 1.17929E-18-9.11513E-19
 -1      3317 9.52577E-05-2.85881E-05-2.85727E-05 1.58466E-08 1.09008E-18 7.21573E-19
 -1      3318 9.52598E-05-2.85847E-05-2.85750E-05 1.38341E-08 8.92904E-19 2.05700E-18
 -1      3319 9.52563E-05-2.85838E-05-2.85739E-05 2.21251E-08-6.24488E-19-2.04759E-18
 -1      3320 4.85203E-05-1.57090E-05-1.38031E-05 1.55276E-05-2.95773E-18 4.03918E-18
 -1      3321 4.20309E-05-1.21087E-05-1.23032E-05 3.01176E-06-1.56169E-18 5.13842E-18
 -1      3322 1.21587E-04-3.61335E-05-3.67875E-05 1.27500E-05 1.45126E-18 1.53778E-18
 -1      3323 1.23233E-04-4.11563E-05-3.52986E-05 1.18187E-05 6.42077E-19 1.65921E-18
 -1      3324 4.13267E-05-1.22981E-05-1.20535E-05-4.75804E-06-4.19043E-19 4.77409E-18
 -1      3325 4.48221E-05-1.49677E-05-1.25096E-05-1.49252E-05 3.06705E-19 4.11976E-18
 -1      3326 4.94390E-05-1.31404E-05-1.51336E-05 7.45243E-08-8.91032E-19 4.09345E-18
 -1      3327 9.61497E-05-2.49490E-05-3.04922E-05 6.43532E-06-1.37722E-18-2.06364E-18
 -1      3328 9.68705E-05-2.63350E-05-3.02257E-05 7.67158E-06-1.08050E-18-2.00576E-18
 -1      3329 9.50527E-05-2.57698E-05-2.97215E-05 8.78878E-06-8.38928E-19-2.12603E-18
 -1      3330 1.26376E-04-3.24802E-05-4.03988E-05-1.42450E-05-3.48210E-18 2.79738E-18
 -1      3331 1.03805E-04-5.08377E-05-2.29910E-05 2.94123E-05-2.92671E-18-2.76964E-18
 -1      3332 8.87865E-05-4.25712E-05-1.93876E-05 3.33766E-05-3.63822E-18-8.17599E-19
 -1      3333 1.18184E-04-1.33881E-05-4.53547E-05 3.48998E-06-5.41180E-18-1.22061E-18
 -1      3334 5.23919E-05-1.93282E-05-1.36332E-05-2.26435E-05 1.40364E-18 3.26902E-18
 -1      3335 6.43852E-05-2.64079E-05-1.60689E-05-2.83992E-05 2.61598E-18 1.67755E-18
 -1      3336 5.45947E-05-1.68444E-05-1.57841E-05-1.55321E-05 6.92754E-19 2.91379E-18
 -1      3337 1.34685E-04-5.00481E-05-3.67911E-05-5.79162E-06 5.43941E-19-6.17667E-18
 -1      3338 1.32426E-04-5.46913E-05-3.30987E-05 1.89674E-06-8.71703E-19-6.03103E-18
 -1      3339 1.26225E-04-5.78938E-05-2.97531E-05 1.27592E-05-1.46383E-18-5.77078E-18
 -1      3340 1.18003E-04-5.57086E-05-2.62772E-05 2.07078E-05-2.25560E-18-4.40068E-18
 -1      3341 1.08833E-04-5.20630E-05-2.39239E-05-2.61132E-05 3.28223E-18 7.57896E-20
 -1      3342 1.19207E-04-5.66070E-05-2.72236E-05-1.94423E-05 3.01967E-18-7.14816E-19
 -1      3343 7.37608E-05-3.38089E-05-1.69956E-05 3.34540E-05-3.53218E-18 1.20194E-18
 -1      3344 5.99925E-05-2.38698E-05-1.51541E-05 2.68953E-05-3.58120E-18 2.80506E-18
 -1      3345 8.43950E-05-3.71337E-05-1.99204E-05 2.98150E-05-3.11973E-18 1.15408E-20
 -1      3346 1.28170E-04-4.05296E-05-3.80684E-05-1.22623E-05-1.82943E-18 2.85434E-18
 -1      3347 1.27666E-04-5.61857E-05-3.04678E-05-9.46696E-06-1.99140E-18 9.66332E-19
 -1      3348 1.30691E-04-5.35648E-05-3.34624E-05-9.30713E-07-9.90536E-19 1.96893E-18
 -1      3349 1.29729E-04-4.68500E-05-3.54394E-05-7.68523E-06-5.91811E-19 3.22817E-18
 -1      3350 5.49307E-05-2.21960E-05-1.39072E-05 2.76437E-05 2.64475E-18-5.12264E-18
 -1      3351 4.37590E-05-1.50488E-05-1.15443E-05 1.67765E-05 1.94929E-18-6.60114E-18
 -1      3352 1.18811E-04-2.42413E-05-4.07771E-05 1.15279E-05 2.95170E-18 9.62977E-19
 -1      3353 9.30241E-05-1.94347E-05-3.15429E-05 1.51300E-06-2.06350E-18-3.05425E-18
 -1      3354 9.40548E-05-2.08636E-05-3.13623E-05 2.43605E-06-1.93305E-18-2.75183E-18
 -1      3355 9.02886E-05-1.71505E-05-3.13576E-05 1.73517E-06-1.81669E-18-3.24162E-18
 -1      3356 1.12859E-04-5.35683E-05-2.52588E-05-2.48287E-05-2.52437E-18-9.18892E-19
 -1      3357 1.22140E-04-5.64862E-05-2.83394E-05-1.75154E-05-2.14088E-18 3.22729E-19
 -1      3358 1.22649E-04-5.39834E-05-2.94126E-05-1.12006E-05-1.89905E-18 7.32472E-19
 -1      3359 1.30203E-04-5.42450E-05-3.29859E-05 1.92142E-06 4.96778E-19 2.65248E-18
 -1      3360 1.25779E-04-5.54284E-05-2.98484E-05 1.03599E-05 1.91904E-18 1.56859E-18
 -1      3361 1.28939E-04-5.58605E-05-3.10750E-05-6.75240E-06 1.79140E-18-2.14233E-18
 -1      3362 1.31800E-04-5.30806E-05-3.42799E-05 2.42203E-06 7.45839E-19-2.87303E-18
 -1      3363 1.16566E-04-5.42093E-05-2.69707E-05 2.06054E-05 2.68126E-18 4.37612E-20
 -1      3364 1.04260E-04-4.83405E-05-2.37060E-05 2.73958E-05 3.12603E-18-1.04943E-18
 -1      3365 8.20883E-05-1.12140E-05-3.03789E-05-1.42565E-06 7.96589E-19-4.28740E-18
 -1      3366 8.12183E-05-1.05961E-05-3.02915E-05-1.07206E-06 4.61932E-19-4.32058E-18
 -1      3367 9.72949E-05-2.40015E-05-3.14033E-05-2.75935E-06 2.32681E-18-1.70806E-18
 -1      3368 9.51136E-05-2.17207E-05-3.14535E-05-2.26889E-06 2.25054E-18-2.11904E-18
 -1      3369 9.45236E-05-2.21675E-05-3.10064E-05-3.88704E-06 1.93988E-18-2.16227E-18
 -1      3370 9.77700E-05-2.52332E-05-3.10956E-05-4.42932E-06 2.06044E-18-1.61272E-18
 -1      3371 1.18379E-04-1.37892E-05-4.53295E-05-3.18315E-06-5.42101E-18-1.40555E-20
 -1      3372 1.26366E-04-4.79428E-05-3.36319E-05-4.72555E-06 2.69146E-19 2.77890E-18
 -1      3373 1.21763E-04-3.07692E-05-3.93051E-05 1.45782E-05 2.18603E-18 1.68366E-18
 -1      3374 8.07370E-05-1.02050E-05-3.02411E-05-2.70725E-07 3.48840E-19-4.08048E-18
 -1      3375 8.07201E-05-1.01830E-05-3.02406E-05 1.86492E-07 2.78544E-20-3.95041E-18
 -1      3376 8.10199E-05-1.13895E-05-2.98068E-05-9.44590E-07 3.13145E-19-3.98933E-18
 -1      3377 9.05579E-05-1.87442E-05-3.07662E-05-3.63277E-06 1.68297E-18-2.94069E-18
 -1      3378 8.89283E-05-1.64773E-05-3.10506E-05-2.27851E-06 1.72737E-18-3.42059E-18
 -1      3379 8.68782E-05-1.49269E-05-3.08640E-05-2.38870E-06 1.41948E-18-3.58274E-18
 -1      3380 9.37996E-05-2.27718E-05-3.04519E-05 5.89742E-06-1.31201E-18-2.71955E-18
 -1      3381 1.22819E-04-5.23623E-05-3.04646E-05 6.58660E-06 1.45123E-18 1.93456E-18
 -1      3382 1.24758E-04-4.96464E-05-3.19813E-05-7.43127E-07 4.70110E-19 2.27630E-18
 -1      3383 7.39477E-05-3.31231E-05-1.71376E-05-3.28767E-05-2.42135E-18-5.11629E-18
 -1      3384 8.61483E-05-1.39291E-05-3.09678E-05 1.92251E-06-1.27791E-18-3.73106E-18
 -1      3385 8.81330E-05-1.54503E-05-3.11556E-05 1.82566E-06-1.56747E-18-3.56352E-18
 -1      3386 8.91480E-05-1.68563E-05-3.09679E-05 2.63778E-06-1.54606E-18-3.35766E-18
 -1      3387 9.52539E-05-2.85864E-05-2.85718E-05-2.36126E-08-5.41340E-19-2.15675E-18
 -1      3388 9.52513E-05-2.85850E-05-2.85713E-05-2.66431E-08-6.60733E-19-9.74701E-19
 -1      3389 4.58618E-05-1.37849E-05-1.32539E-05 9.81201E-06 1.30427E-18-6.49590E-18
 -1      3390 1.27685E-04-4.86556E-05-3.39197E-05 4.34517E-06-5.47871E-19 1.70405E-18
 -1      3391 1.29514E-04-4.63079E-05-3.56545E-05 9.49544E-06-1.47463E-19-3.16494E-18
 -1      3392 1.14444E-04-4.53065E-05-2.97254E-05-7.33907E-06-9.70374E-19 1.56284E-19
 -1      3393 1.12913E-04-4.26926E-05-3.01363E-05-5.40700E-06-8.21323E-19-4.94319E-20
 -1      3394 1.10446E-04-4.04864E-05-2.98826E-05-7.32333E-06-6.80717E-19-3.93477E-19
 -1      3395 1.31151E-04-4.47506E-05-3.72790E-05-1.01594E-05 8.41633E-19-5.77645E-18
 -1      3396 9.52474E-05-2.85821E-05-2.85709E-05 3.03328E-08-1.79943E-18-5.07556E-18
 -1      3397 9.52496E-05-2.85840E-05-2.85710E-05 2.86026E-08-7.73206E-19-3.97247E-18
 -1      3398 9.52521E-05-2.85819E-05-2.85729E-05 2.76474E-08-1.68757E-18-4.76632E-18
 -1      3399 9.52482E-05-2.85798E-05-2.85721E-05 3.08093E-08-1.92205E-18-3.99811E-18
 -1      3400 1.07337E-04-3.78846E-05-2.97875E-05-8.37128E-06-2.46639E-19-6.75699E-19
 -1      3401 1.05211E-04-3.56020E-05-2.97553E-05-9.21359E-06 6.79115E-20-9.18717E-19
 -1      3402 1.07425E-04-3.96243E-05-2.91652E-05-1.03600E-05-6.41280E-19-4.23629E-19
 -1      3403 1.22932E-04-4.45427E-05-3.37373E-05 7.57034E-06-1.66640E-19 1.38805E-18
 -1      3404 1.22244E-04-4.63373E-05-3.25367E-05 4.38247E-06-4.70169E-19 1.02744E-18
 -1      3405 9.22794E-05-1.99616E-05-3.10040E-05 3.43801E-06-1.71977E-18-2.90592E-18
 -1      3406 1.27672E-04-5.44951E-05-3.13316E-05 4.97567E-06-1.05588E-18-5.09421E-18
 -1      3407 1.23357E-04-4.50024E-05-3.36703E-05-9.09507E-06 4.14120E-20-3.50167E-18
 -1      3408 1.22950E-04-4.14819E-05-3.50074E-05-1.17735E-05 1.06757E-18-3.57025E-18
 -1      3409 1.02253E-04-3.41951E-05-2.92463E-05-1.08558E-05 2.38797E-19-1.01275E-18
 -1      3410 9.52577E-05-2.85881E-05-2.85727E-05-1.58274E-08-3.93602E-19-9.94053E-19
 -1      3411 9.52560E-05-2.85872E-05-2.85724E-05-1.97622E-08-2.46641E-19-8.16495E-19
 -1      3412 9.52563E-05-2.85838E-05-2.85739E-05-2.20758E-08-4.36529E-19-1.08734E-18
 -1      3413 7.46074E-05-3.11185E-05-1.83117E-05-2.94585E-05 2.57339E-18 1.07827E-18
 -1      3414 8.41169E-05-3.47461E-05-2.10075E-05-2.70295E-05 2.58975E-18 1.62816E-19
 -1      3415 6.90079E-05-2.48958E-05-1.88263E-05-2.38065E-05 1.87415E-18 1.25287E-18
 -1      3416 1.03128E-04-4.74545E-05-2.36194E-05-2.57859E-05 3.04588E-18-7.41154E-22
 -1      3417 9.52597E-05-2.85889E-05-2.85732E-05-6.95958E-09 1.32358E-18 5.62291E-19
 -1      3418 9.52589E-05-2.85884E-05-2.85731E-05-1.13785E-08 8.34941E-19-1.23959E-18
 -1      3419 9.52599E-05-2.85848E-05-2.85750E-05-1.37786E-08 1.24063E-19-8.90483E-20
 -1      3420 9.52616E-05-2.85851E-05-2.85756E-05-4.67704E-09 2.17441E-18 1.15696E-19
 -1      3421 9.88907E-05-4.51644E-05-2.27125E-05-2.89938E-05-2.79479E-18-2.43691E-18
 -1      3422 1.07016E-04-5.06678E-05-2.40325E-05-2.79131E-05-2.73168E-18-1.74274E-18
 -1      3423 1.12370E-04-5.05336E-05-2.63927E-05-2.03415E-05-2.42288E-18-8.89467E-20
 -1      3424 8.33903E-05-1.22583E-05-3.05157E-05-2.00894E-06 9.86230E-19-4.14609E-18
 -1      3425 8.29045E-05-1.28332E-05-3.00028E-05-2.46309E-06 7.76221E-19-4.04965E-18
 -1      3426 8.49617E-05-1.33962E-05-3.06699E-05-2.14382E-06 1.34726E-18-3.85293E-18
 -1      3427 9.82059E-05-4.47713E-05-2.27733E-05 2.95451E-05 2.95667E-18-1.83205E-18
 -1      3428 9.06229E-05-3.89141E-05-2.18138E-05 2.91039E-05 2.90450E-18-2.34173E-18
 -1      3429 1.04649E-04-4.56949E-05-2.52010E-05 2.30072E-05 2.85001E-18-7.69233E-19
 -1      3430 1.20743E-04-2.51500E-05-4.14114E-05-1.46351E-05 3.23657E-18-4.30547E-18
 -1      3431 1.19403E-04-5.24690E-05-2.86295E-05 1.33555E-05 2.19914E-18 8.17638E-19
 -1      3432 5.67441E-05-1.89849E-05-1.57435E-05 2.04206E-05-3.33898E-18 3.54303E-18
 -1      3433 5.61494E-05-1.57885E-05-1.71187E-05 1.27678E-05-2.31436E-18 3.36277E-18
 -1      3434 6.62629E-05-2.30967E-05-1.82916E-05 2.22799E-05-3.23292E-18 2.76233E-18
 -1      3435 1.10755E-04-5.11857E-05-2.52137E-05 2.23601E-05-2.18323E-18-3.41011E-18
 -1      3436 4.46009E-05-1.26050E-05-1.35389E-05-7.81162E-06 4.57530E-20-6.43300E-18
 -1      3437 4.62928E-05-1.44392E-05-1.29781E-05-1.53141E-05-5.77571E-19-6.55286E-18
 -1      3438 8.43879E-05-1.25579E-05-3.07906E-05 1.71350E-06-1.08275E-18-3.84320E-18
 -1      3439 8.51688E-05-1.37756E-05-3.05820E-05 2.43371E-06-1.04036E-18-3.60902E-18
 -1      3440 8.29220E-05-1.14766E-05-3.06417E-05 1.56752E-06-7.95724E-19-3.88468E-18
 -1      3441 1.24434E-04-4.84897E-05-3.25680E-05-4.12890E-06-2.66008E-19-3.74077E-18
 -1      3442 9.87408E-05-2.73784E-05-3.05862E-05-6.85787E-06 1.48276E-18-1.45136E-18
 -1      3443 9.80716E-05-2.61366E-05-3.08059E-05-5.68749E-06 1.77340E-18-1.50607E-18
 -1      3444 9.64808E-05-2.47540E-05-3.07451E-05-5.52023E-06 1.73071E-18-1.66780E-18
 -1      3445 9.72226E-05-2.69101E-05-3.01607E-05-7.92763E-06 1.28600E-18-1.29719E-18
 -1      3446 5.42227E-05-1.84092E-05-1.49871E-05-2.05244E-05-1.16288E-18-5.85046E-18
 -1      3447 1.23261E-04-5.40463E-05-2.95789E-05-9.61595E-06 2.10914E-18-1.53601E-18
 -1      3448 1.22216E-04-4.86586E-05-3.14739E-05-6.52554E-07-8.73582E-19 1.01202E-18
 -1      3449 6.61840E-05-2.60644E-05-1.68928E-05 2.76634E-05 2.78457E-18-4.25232E-18
 -1      3450 9.13956E-05-2.04400E-05-3.04047E-05 5.11949E-06-1.30973E-18-3.00542E-18
 -1      3451 9.19286E-05-2.18887E-05-3.00088E-05 6.66611E-06-9.79030E-19-2.77892E-18
 -1      3452 6.91479E-05-2.70952E-05-1.77132E-05-2.84060E-05-1.99190E-18-5.07092E-18
 -1      3453 8.32431E-05-3.65338E-05-2.00387E-05-3.17165E-05-2.40544E-18-4.10006E-18
 -1      3454 5.27665E-05-1.43559E-05-1.63447E-05 1.15619E-05 1.45907E-18-5.49423E-18
 -1      3455 4.73565E-05-1.15661E-05-1.47337E-05 1.31710E-06 7.22493E-19-6.19562E-18
 -1      3456 9.61350E-05-3.09124E-05-2.79041E-05 1.39874E-05 3.96401E-19-1.71706E-18
 -1      3457 9.84698E-05-3.38329E-05-2.76550E-05 1.48415E-05 6.77015E-19-1.53020E-18
 -1      3458 1.01054E-04-3.71642E-05-2.72852E-05 1.61771E-05 1.19507E-18-1.06301E-18
 -1      3459 1.04860E-04-4.09632E-05-2.73251E-05 1.61613E-05 1.73759E-18-4.58761E-19
 -1      3460 9.55728E-05-3.38965E-05-2.65527E-05 1.77762E-05 1.31325E-18-1.62825E-18
 -1      3461 5.84114E-05-1.70113E-05-1.76793E-05-1.67651E-05-7.36733E-19-5.20983E-18
 -1      3462 6.31022E-05-2.17064E-05-1.74328E-05-2.41414E-05-1.35210E-18-5.20385E-18
 -1      3463 7.27476E-05-2.52521E-05-2.01035E-05-2.36322E-05-1.58052E-18-4.60431E-18
 -1      3464 1.04110E-04-4.11544E-05-2.68808E-05-1.55711E-05 1.57209E-18-2.15054E-19
 -1      3465 1.00285E-04-3.75127E-05-2.68016E-05-1.57010E-05 1.22674E-18-1.20168E-19
 -1      3466 9.78726E-05-3.45480E-05-2.70667E-05-1.45067E-05 7.76135E-19-2.45426E-19
 -1      3467 9.54568E-05-3.19225E-05-2.72015E-05-1.40026E-05 3.79092E-19-1.59882E-19
 -1      3468 9.47619E-05-3.45094E-05-2.59077E-05-1.75375E-05 1.02197E-18 1.62127E-21
 -1      3469 9.43823E-05-3.00299E-05-2.75241E-05-1.26859E-05 3.64878E-20-3.36190E-19
 -1      3470 9.30252E-05-2.83756E-05-2.77055E-05-1.19764E-05-4.10241E-19 1.15158E-19
 -1      3471 9.14270E-05-2.94404E-05-2.66090E-05-1.44705E-05 1.19610E-19-2.13198E-19
 -1      3472 9.27079E-05-2.73047E-05-2.79922E-05-1.08276E-05-7.17066E-19 4.30944E-19
 -1      3473 9.20411E-05-2.63697E-05-2.81536E-05-1.00947E-05-5.23313E-19-1.57929E-20
 -1      3474 9.01539E-05-2.65087E-05-2.72878E-05-1.18014E-05-4.50039E-19-5.25458E-20
 -1      3475 9.21242E-05-2.58541E-05-2.83769E-05-9.13808E-06-4.98531E-19 1.70166E-19
 -1      3476 9.18633E-05-2.54021E-05-2.84959E-05-8.44412E-06-3.38336E-19-3.06371E-19
 -1      3477 8.99732E-05-2.49940E-05-2.78448E-05-9.63663E-06-4.39937E-19 1.13549E-18
 -1      3478 9.21397E-05-2.52417E-05-2.86547E-05-7.64818E-06-7.04161E-19-5.40925E-19
 -1      3479 9.21008E-05-2.50951E-05-2.87298E-05-7.01148E-06-7.79417E-19-4.61478E-19
 -1      3480 9.03510E-05-2.43866E-05-2.82605E-05-7.88894E-06-8.27840E-19-2.85469E-19
 -1      3481 9.24510E-05-2.51479E-05-2.88335E-05-6.34326E-06-4.17577E-19-7.02813E-19
 -1      3482 9.25211E-05-2.51823E-05-2.88718E-05-5.76935E-06 1.72794E-19-9.89536E-19
 -1      3483 9.09790E-05-2.43394E-05-2.85478E-05-6.45541E-06-3.82943E-19-9.03553E-19
 -1      3484 9.28789E-05-2.53516E-05-2.89326E-05-5.20419E-06 2.63770E-19-8.94207E-19
 -1      3485 9.29928E-05-2.54836E-05-2.89436E-05-4.69504E-06 7.50932E-20-8.94409E-19
 -1      3486 9.16803E-05-2.46138E-05-2.87309E-05-5.25966E-06 2.97260E-19-1.25253E-18
 -1      3487 9.33239E-05-2.57062E-05-2.89731E-05-4.21649E-06-9.52974E-20-5.50047E-19
 -1      3488 9.34460E-05-2.58823E-05-2.89655E-05-3.77241E-06 1.02904E-19-8.68654E-19
 -1      3489 9.23594E-05-2.50521E-05-2.88353E-05-4.25172E-06 2.49061E-19-5.51564E-19
 -1      3490 9.37350E-05-2.61189E-05-2.89735E-05-3.36929E-06 3.50130E-19-6.95772E-20
 -1      3491 9.38478E-05-2.63064E-05-2.89546E-05-2.98884E-06 8.63043E-19-5.08457E-20
 -1      3492 9.29692E-05-2.55535E-05-2.88833E-05-3.40049E-06 8.27159E-19-2.93174E-19
 -1      3493 9.40901E-05-2.65337E-05-2.89486E-05-2.65259E-06 1.11340E-18 6.87497E-19
 -1      3494 9.41866E-05-2.67136E-05-2.89239E-05-2.33256E-06 6.94190E-19 1.09791E-18
 -1      3495 9.34909E-05-2.60560E-05-2.88933E-05-2.68536E-06 1.44576E-18 2.95116E-19
 -1      3496 9.43836E-05-2.69192E-05-2.89098E-05-2.05564E-06 4.64400E-20 1.36676E-18
 -1      3497 9.44620E-05-2.70816E-05-2.88829E-05-1.79128E-06 7.31869E-19 8.40091E-19
 -1      3498 9.39222E-05-2.65240E-05-2.88790E-05-2.09061E-06 7.06686E-19 1.64930E-18
 -1      3499 9.46183E-05-2.72601E-05-2.88647E-05-1.56649E-06 1.75339E-19 6.41572E-19
 -1      3500 9.46796E-05-2.74008E-05-2.88383E-05-1.35196E-06-2.43094E-19 5.49735E-19
 -1      3501 9.42689E-05-2.69394E-05-2.88509E-05-1.60236E-06 3.41524E-19 9.13453E-19
 -1      3502 9.48009E-05-2.75510E-05-2.88188E-05-1.17227E-06-9.05334E-19-6.63757E-19
 -1      3503 9.48475E-05-2.76691E-05-2.87943E-05-1.00120E-06-1.99033E-18-1.71179E-18
 -1      3504 9.45412E-05-2.72955E-05-2.88162E-05-1.20734E-06-1.20298E-18-9.42763E-19
 -1      3505 9.49395E-05-2.77923E-05-2.87753E-05-8.59825E-07-1.49805E-18-1.72793E-18
 -1      3506 9.49740E-05-2.78890E-05-2.87535E-05-7.25731E-07-8.29700E-19-1.24180E-18
 -1      3507 9.47505E-05-2.75924E-05-2.87795E-05-8.92652E-07-1.53198E-18-6.42653E-19
 -1      3508 9.50425E-05-2.79879E-05-2.87359E-05-6.16320E-07-8.17067E-19-1.24469E-18
 -1      3509 9.50672E-05-2.80653E-05-2.87172E-05-5.13021E-07-6.87350E-19-1.51694E-18
 -1      3510 9.49081E-05-2.78343E-05-2.87441E-05-6.45947E-07-8.37904E-19-1.37813E-18
 -1      3511 9.51170E-05-2.81431E-05-2.87017E-05-4.29782E-07-5.50119E-19-1.01638E-18
 -1      3512 9.51343E-05-2.82039E-05-2.86860E-05-3.51609E-07-9.33403E-19-3.47880E-19
 -1      3513 9.50241E-05-2.80272E-05-2.87117E-05-4.55715E-07-6.86630E-20-2.00256E-18
 -1      3514 9.51695E-05-2.82640E-05-2.86727E-05-2.89418E-07-1.56137E-18 1.79089E-20
 -1      3515 9.51811E-05-2.83108E-05-2.86598E-05-2.31362E-07-1.10724E-18-7.57225E-19
 -1      3516 9.51076E-05-2.81782E-05-2.86831E-05-3.11544E-07-8.66994E-19-8.91722E-19
 -1      3517 9.52052E-05-2.83563E-05-2.86487E-05-1.85800E-07-2.02263E-19-9.99690E-19
 -1      3518 9.52127E-05-2.83917E-05-2.86384E-05-1.43557E-07 2.34534E-19-9.01513E-19
 -1      3519 9.51659E-05-2.82942E-05-2.86588E-05-2.04272E-07-7.37546E-19-1.72711E-19
 -1      3520 9.52286E-05-2.84255E-05-2.86292E-05-1.10904E-07 4.61555E-20-7.61781E-19
 -1      3521 9.52330E-05-2.84517E-05-2.86211E-05-8.08736E-08 1.46112E-19-7.14315E-19
 -1      3522 9.52053E-05-2.83815E-05-2.86384E-05-1.26043E-07 3.44839E-19 3.89336E-19
 -1      3523 9.52428E-05-2.84762E-05-2.86138E-05-5.80672E-08 8.17587E-19-7.29422E-20
 -1      3524 9.52451E-05-2.84953E-05-2.86075E-05-3.73022E-08 1.51736E-18 3.17168E-19
 -1      3525 9.52307E-05-2.84460E-05-2.86218E-05-7.02760E-08 8.61288E-19 1.83299E-19
 -1      3526 9.52507E-05-2.85127E-05-2.86016E-05-2.18721E-08 1.79668E-18-7.49591E-20
 -1      3527 9.52515E-05-2.85262E-05-2.85968E-05-8.01696E-09 2.68364E-18 7.45519E-19
 -1      3528 9.52459E-05-2.84926E-05-2.86084E-05-3.15822E-08 1.94852E-18 3.59100E-19
 -1      3529 9.52541E-05-2.85383E-05-2.85922E-05 1.98141E-09 2.95131E-18 4.90121E-19
 -1      3530 9.52540E-05-2.85477E-05-2.85886E-05 1.07652E-08 1.92076E-18 1.07171E-18
 -1      3531 9.52539E-05-2.85256E-05-2.85978E-05-5.64029E-09 2.88550E-18-4.54798E-19
 -1      3532 9.52546E-05-2.85559E-05-2.85850E-05 1.68294E-08-3.07382E-19 5.95146E-19
 -1      3533 9.52540E-05-2.85624E-05-2.85822E-05 2.19434E-08-6.74273E-19-1.07381E-18
 -1      3534 9.52571E-05-2.85483E-05-2.85895E-05 1.09252E-08 6.00174E-19-1.39749E-18
 -1      3535 9.52535E-05-2.85679E-05-2.85794E-05 2.52350E-08-2.62548E-19-2.81521E-18
 -1      3536 9.52526E-05-2.85723E-05-2.85773E-05 2.76295E-08-2.65600E-19-2.78022E-18
 -1      3537 9.52572E-05-2.85638E-05-2.85829E-05 2.07362E-08-1.57124E-18-2.94597E-18
 -1      3538 1.26388E-04-4.61441E-05-3.45862E-05 7.73103E-06-8.89385E-20 1.85786E-18
 -1      3539 8.97743E-05-1.79880E-05-3.07654E-05 3.42416E-06-1.62069E-18-3.11833E-18
 -1      3540 9.07505E-05-1.93361E-05-3.05968E-05 4.29625E-06-1.52074E-18-2.97500E-18
 -1      3541 8.88000E-05-1.84617E-05-3.01550E-05 5.06840E-06-1.14150E-18-2.89926E-18
 -1      3542 8.75540E-05-1.62802E-05-3.05575E-05 3.43046E-06-1.19243E-18-3.23704E-18
 -1      3543 1.00794E-04-3.41741E-05-2.85008E-05-1.27223E-05-9.79216E-20-1.05944E-18
 -1      3544 9.85900E-05-3.15524E-05-2.86696E-05-1.22717E-05 1.41050E-19-1.27199E-18
 -1      3545 1.14318E-04-4.72752E-05-2.85510E-05 1.03285E-05-1.89423E-18-3.08761E-18
 -1      3546 1.18675E-04-4.98830E-05-2.94242E-05 7.39110E-06-1.68194E-18-3.62845E-18
 -1      3547 9.63324E-05-3.03983E-05-2.82306E-05 1.15344E-05-3.02253E-19-2.28712E-19
 -1      3548 9.79744E-05-3.22399E-05-2.81336E-05 1.18491E-05-1.85307E-19-5.77848E-19
 -1      3549 9.45396E-05-2.79321E-05-2.85385E-05 1.01512E-05-1.32675E-19 3.56313E-19
 -1      3550 9.54839E-05-2.90660E-05-2.84373E-05 1.06692E-05-3.47535E-19-1.66485E-19
 -1      3551 9.32969E-05-2.86503E-05-2.77433E-05 1.18952E-05-4.43501E-19 5.06392E-19
 -1      3552 9.37485E-05-2.65887E-05-2.87846E-05 8.73251E-06-5.19581E-19 1.25111E-18
 -1      3553 9.42438E-05-2.72077E-05-2.87098E-05 9.32169E-06-2.60604E-19 1.32414E-18
 -1      3554 9.22522E-05-2.65616E-05-2.81703E-05 1.00580E-05-8.45562E-19 1.39605E-18
 -1      3555 9.35288E-05-2.59949E-05-2.89492E-05 7.38664E-06 1.68099E-19 1.09184E-18
 -1      3556 9.37566E-05-2.62722E-05-2.89077E-05 7.98267E-06 1.74978E-19 1.33182E-18
 -1      3557 9.20214E-05-2.55319E-05-2.85007E-05 8.42651E-06-1.12217E-19 1.50874E-18
 -1      3558 9.36067E-05-2.58670E-05-2.90390E-05 6.15388E-06-2.97841E-19 1.56942E-18
 -1      3559 9.36869E-05-2.59331E-05-2.90270E-05 6.72238E-06 2.44324E-19 1.80170E-18
 -1      3560 9.22171E-05-2.51812E-05-2.87289E-05 7.00320E-06-1.18866E-20 2.27526E-18
 -1      3561 9.38185E-05-2.60066E-05-2.90703E-05 5.05011E-06-2.31459E-19 7.25465E-19
 -1      3562 9.38242E-05-2.59519E-05-2.90802E-05 5.57178E-06-7.47801E-20 1.15421E-18
 -1      3563 9.26061E-05-2.52382E-05-2.88686E-05 5.76602E-06 1.46337E-19 2.05086E-18
 -1      3564 9.40722E-05-2.62824E-05-2.90604E-05 4.08118E-06-7.58240E-19-2.44411E-21
 -1      3565 9.40450E-05-2.61661E-05-2.90844E-05 4.54558E-06-4.82362E-19 2.67251E-19
 -1      3566 9.30550E-05-2.55191E-05-2.89398E-05 4.69440E-06-1.98456E-19 1.63477E-18
 -1      3567 9.43195E-05-2.66117E-05-2.90244E-05 3.24674E-06-7.45261E-21-1.38581E-18
 -1      3568 9.42818E-05-2.64710E-05-2.90563E-05 3.64958E-06-3.19694E-19-5.59626E-19
 -1      3569 9.34918E-05-2.59046E-05-2.89619E-05 3.77324E-06 1.78015E-20 1.25428E-19
 -1      3570 9.45382E-05-2.69454E-05-2.89742E-05 2.54153E-06 5.88205E-20-1.73494E-18
 -1      3571 9.45010E-05-2.68021E-05-2.90090E-05 2.88298E-06-1.69048E-19-1.78190E-18
 -1      3572 9.38819E-05-2.63202E-05-2.89515E-05 2.99043E-06 2.50881E-19-6.01086E-19
 -1      3573 9.47206E-05-2.72560E-05-2.89183E-05 1.95642E-06 5.50728E-19-6.02080E-19
 -1      3574 9.46885E-05-2.71223E-05-2.89528E-05 2.23981E-06 5.86981E-20-1.55559E-18
 -1      3575 9.42120E-05-2.67221E-05-2.89215E-05 2.33448E-06-2.78182E-19-6.91245E-19
 -1      3576 9.48666E-05-2.75304E-05-2.88623E-05 1.47960E-06 1.47032E-18 2.05719E-20
 -1      3577 9.48409E-05-2.74122E-05-2.88945E-05 1.71024E-06 1.29548E-18 1.93676E-19
 -1      3578 9.44811E-05-2.70869E-05-2.88811E-05 1.79324E-06 2.43130E-19-3.35972E-20
 -1      3579 9.49799E-05-2.77640E-05-2.88100E-05 1.09777E-06 2.06221E-19 2.80146E-19
 -1      3580 9.49604E-05-2.76632E-05-2.88387E-05 1.28204E-06 1.11018E-18 7.56354E-19
 -1      3581 9.46941E-05-2.74041E-05-2.88370E-05 1.35380E-06 6.30664E-19 1.61724E-18
 -1      3582 9.50653E-05-2.79572E-05-2.87631E-05 7.97250E-07-7.64360E-19 9.06818E-19
 -1      3583 9.50512E-05-2.78738E-05-2.87878E-05 9.41851E-07-6.74065E-19 6.28237E-19
 -1      3584 9.48584E-05-2.76712E-05-2.87934E-05 1.00282E-06-1.99295E-19 2.42209E-18
 -1      3585 9.51281E-05-2.81133E-05-2.87225E-05 5.64778E-07-3.20112E-19 1.60125E-18
 -1      3586 9.51183E-05-2.80459E-05-2.87433E-05 6.76254E-07-3.75238E-19 9.78624E-19
 -1      3587 9.49822E-05-2.78904E-05-2.87528E-05 7.27102E-07-3.08026E-19 2.22456E-18
 -1      3588 9.51730E-05-2.82368E-05-2.86884E-05 3.88096E-07-6.90400E-19 1.88727E-18
 -1      3589 9.51665E-05-2.81835E-05-2.87054E-05 4.72495E-07-3.29862E-20 1.93043E-18
 -1      3590 9.50733E-05-2.80663E-05-2.87168E-05 5.14136E-07-5.86799E-19 3.77024E-18
 -1      3591 9.52041E-05-2.83326E-05-2.86603E-05 2.56279E-07-3.87133E-19 2.00293E-18
 -1      3592 9.52001E-05-2.82912E-05-2.86740E-05 3.18978E-07-6.68104E-19 1.70804E-18
 -1      3593 9.51387E-05-2.82047E-05-2.86857E-05 3.52486E-07-5.47153E-19 3.06129E-18
 -1      3594 9.52249E-05-2.84054E-05-2.86377E-05 1.59883E-07 1.22230E-18 9.30306E-19
 -1      3595 9.52226E-05-2.83739E-05-2.86485E-05 2.05512E-07 8.34968E-19 1.70438E-18
 -1      3596 9.51843E-05-2.83114E-05-2.86596E-05 2.32027E-07 3.53708E-19 1.60626E-18
 -1      3597 9.52380E-05-2.84597E-05-2.86198E-05 9.09533E-08 1.30475E-18-1.84383E-19
 -1      3598 9.52369E-05-2.84362E-05-2.86281E-05 1.23397E-07 1.23942E-18 5.90601E-19
 -1      3599 9.52149E-05-2.83922E-05-2.86383E-05 1.44042E-07 1.73295E-18 6.61960E-19
 -1      3600 9.52456E-05-2.84994E-05-2.86059E-05 4.29456E-08 1.18531E-18-3.37529E-19
 -1      3601 9.52454E-05-2.84822E-05-2.86122E-05 6.53844E-08 1.74495E-18-3.18480E-19
 -1      3602 9.52345E-05-2.84521E-05-2.86210E-05 8.12102E-08 1.63334E-18-2.16655E-19
 -1      3603 9.52494E-05-2.85278E-05-2.85952E-05 1.05952E-08 6.14138E-19 4.21871E-20
 -1      3604 9.52497E-05-2.85155E-05-2.86000E-05 2.55753E-08 6.06991E-19 5.35660E-20
 -1      3605 9.52461E-05-2.84956E-05-2.86074E-05 3.75214E-08 5.58733E-19 6.93084E-19
 -1      3606 9.52506E-05-2.85476E-05-2.85871E-05-1.02448E-08 4.82861E-19 7.04590E-19
 -1      3607 9.52512E-05-2.85390E-05-2.85907E-05-7.28729E-10 6.67861E-19 6.73585E-19
 -1      3608 9.52521E-05-2.85264E-05-2.85968E-05 8.15052E-09-1.70361E-19 1.16784E-18
 -1      3609 9.52502E-05-2.85613E-05-2.85811E-05-2.27529E-08-4.37937E-19 1.68013E-18
 -1      3610 9.52509E-05-2.85552E-05-2.85837E-05-1.71912E-08 6.43971E-19 1.33868E-18
 -1      3611 9.52543E-05-2.85479E-05-2.85885E-05-1.07090E-08-1.64665E-19 2.77963E-18
 -1      3612 9.52490E-05-2.85707E-05-2.85765E-05-2.92653E-08-1.50890E-18 2.36362E-18
 -1      3613 9.52496E-05-2.85664E-05-2.85784E-05-2.65823E-08-1.29151E-18 1.85185E-18
 -1      3614 9.52542E-05-2.85626E-05-2.85822E-05-2.19762E-08-9.05341E-19 2.84433E-18
 -1      3615 9.52474E-05-2.85772E-05-2.85729E-05-3.15689E-08-2.64677E-18 2.10430E-18
 -1      3616 9.52479E-05-2.85741E-05-2.85744E-05-3.08255E-08-1.69781E-18 2.50634E-18
 -1      3617 9.52526E-05-2.85725E-05-2.85773E-05-2.76172E-08-1.70108E-18 2.13916E-18
 -1      3618 9.52629E-05-2.85810E-05-2.85780E-05 6.82012E-09 2.12777E-18 5.36678E-19
 -1      3619 9.52634E-05-2.85811E-05-2.85782E-05 2.29890E-09 2.57294E-18 1.27355E-18
 -1      3620 9.52490E-05-2.85846E-05-2.85704E-05-2.86856E-08-1.45300E-19-5.14023E-19
 -1      3621 9.52461E-05-2.85830E-05-2.85699E-05-3.02314E-08 3.19131E-19-5.09300E-19
 -1      3622 9.52461E-05-2.85814E-05-2.85706E-05-3.12279E-08-7.52242E-19-1.83892E-19
 -1      3623 9.52514E-05-2.85827E-05-2.85723E-05-2.79813E-08-1.05857E-18-1.76129E-18
 -1      3624 9.22395E-05-2.32824E-05-2.95483E-05 8.24550E-06-7.09539E-19-2.56174E-18
 -1      3625 9.30188E-05-2.48916E-05-2.91762E-05 9.62748E-06-4.48704E-19-2.40868E-18
 -1      3626 8.97410E-05-2.09560E-05-2.94808E-05 7.50847E-06-7.12306E-19-2.87724E-18
 -1      3627 9.71850E-05-2.93962E-05-2.90236E-05-1.10548E-05 4.37843E-19-1.61193E-18
 -1      3628 9.58471E-05-2.74354E-05-2.92895E-05-1.01365E-05 8.19483E-19-1.72965E-18
 -1      3629 9.49522E-05-2.91185E-05-2.82742E-05-1.27951E-05 1.26107E-19-1.86442E-18
 -1      3630 5.39035E-05-1.35047E-05-1.72147E-05 2.75099E-06-1.08524E-18 2.62321E-18
 -1      3631 5.35099E-05-1.34425E-05-1.69486E-05-4.54084E-06-1.61790E-19 2.47249E-18
 -1      3632 9.97418E-05-3.44044E-05-2.79401E-05 1.26121E-05-4.22674E-19-8.97238E-19
 -1      3633 1.02369E-04-3.70858E-05-2.79316E-05 1.24451E-05-8.41742E-19-9.37241E-19
 -1      3634 9.57483E-05-3.22585E-05-2.72743E-05 1.38205E-05-5.99798E-19-4.49722E-19
 -1      3635 1.05522E-04-4.01864E-05-2.78876E-05 1.27354E-05-1.12784E-18-1.79886E-18
 -1      3636 1.09257E-04-4.35346E-05-2.81405E-05 1.16209E-05-1.18076E-18-1.99850E-18
 -1      3637 1.00431E-04-3.78300E-05-2.69269E-05 1.54481E-05-1.41162E-18-1.35364E-18
 -1      3638 1.28023E-04-4.20046E-05-3.70502E-05-1.22222E-05 1.27034E-18-4.83272E-18
 -1      3639 1.17690E-04-5.18851E-05-2.79133E-05-1.36065E-05 2.52242E-18-7.97945E-19
 -1      3640 5.20745E-05-1.29204E-05-1.64757E-05-3.92378E-06 8.49151E-20-5.62562E-18
 -1      3641 5.59086E-05-1.50627E-05-1.73122E-05-1.08746E-05 6.57852E-19 2.57641E-18
 -1      3642 6.16590E-05-1.88974E-05-1.81968E-05-1.80785E-05 1.23333E-18 1.84378E-18
 -1      3643 6.07892E-05-1.54951E-05-1.91738E-05-7.62486E-06 3.59885E-19 1.48281E-18
 -1      3644 1.29125E-04-4.88877E-05-3.43835E-05-6.82897E-06 3.67573E-19-4.88224E-18
 -1      3645 9.21107E-05-4.08337E-05-2.21481E-05 2.80122E-05-2.86983E-18-1.38905E-18
 -1      3646 7.95700E-05-3.20814E-05-2.01452E-05 2.71605E-05-2.94797E-18 5.46204E-19
 -1      3647 1.08584E-04-4.90792E-05-2.57791E-05-2.09386E-05 2.76436E-18-8.53915E-20
 -1      3648 1.13026E-04-4.84619E-05-2.75480E-05-1.40572E-05 2.52014E-18-6.47714E-19
 -1      3649 1.07897E-04-4.46585E-05-2.69243E-05-1.59104E-05 2.18325E-18-6.34014E-19
 -1      3650 9.87643E-05-4.33029E-05-2.35593E-05-2.50031E-05 2.48672E-18 1.60089E-19
 -1      3651 9.35677E-05-2.65548E-05-2.87036E-05 1.12238E-05-1.82552E-19-2.25903E-18
 -1      3652 9.49378E-05-2.86621E-05-2.83662E-05 1.23962E-05 1.06959E-19-1.96704E-18
 -1      3653 9.21008E-05-2.80842E-05-2.74906E-05 1.41783E-05 3.97368E-19-2.15595E-18
 -1      3654 1.17602E-04-5.31504E-05-2.79330E-05 1.47887E-05-1.92456E-18-4.46745E-18
 -1      3655 1.07110E-04-4.79837E-05-2.50640E-05 2.18818E-05-2.53283E-18-3.18584E-18
 -1      3656 7.52910E-05-2.99983E-05-1.94548E-05 2.86898E-05 2.82165E-18-3.15229E-18
 -1      3657 6.24949E-05-2.06459E-05-1.76350E-05 2.23448E-05 2.38376E-18-4.32146E-18
 -1      3658 8.11112E-05-1.03115E-05-3.03674E-05 8.49770E-07-1.11465E-19-3.96603E-18
 -1      3659 8.19013E-05-1.08638E-05-3.04499E-05 1.20250E-06-5.37059E-19-3.89865E-18
 -1      3660 8.23671E-05-1.18317E-05-3.02125E-05 1.78729E-06-5.28465E-19-3.75098E-18
 -1      3661 8.09500E-05-1.11400E-05-2.98892E-05 6.91238E-07-6.07936E-21-3.72077E-18
 -1      3662 9.20864E-05-2.09073E-05-3.04951E-05-5.00771E-06 1.53116E-18-2.68425E-18
 -1      3663 8.97127E-05-1.91189E-05-3.02734E-05-4.99872E-06 1.32839E-18-2.96581E-18
 -1      3664 8.37431E-05-1.33956E-05-3.01692E-05 2.83118E-06-6.87146E-19-3.61268E-18
 -1      3665 8.55412E-05-1.47502E-05-3.03460E-05 3.11534E-06-9.27548E-19-3.53074E-18
 -1      3666 8.61460E-05-1.58010E-05-3.01344E-05 3.89054E-06-8.45060E-19-3.26390E-18
 -1      3667 1.16074E-04-5.04924E-05-2.79550E-05 1.50310E-05 2.37340E-18 6.75598E-19
 -1      3668 9.31520E-05-3.96240E-05-2.27537E-05-2.70558E-05-2.31113E-18-2.85614E-18
 -1      3669 6.98925E-05-2.27528E-05-2.00208E-05-1.93720E-05 1.16300E-18 1.63213E-18
 -1      3670 8.82414E-05-3.37934E-05-2.33268E-05-2.23231E-05 1.77386E-18 3.96153E-19
 -1      3671 9.53861E-05-3.97596E-05-2.36693E-05-2.38613E-05 2.36429E-18 4.35454E-19
 -1      3672 9.87432E-05-3.96540E-05-2.52169E-05 2.20184E-05 2.31190E-18-1.33097E-18
 -1      3673 1.05622E-04-4.35321E-05-2.65572E-05 1.87389E-05 2.08284E-18-3.88216E-19
 -1      3674 5.65379E-05-1.37591E-05-1.79440E-05-9.89722E-06-2.99545E-19-5.27858E-18
 -1      3675 6.36647E-05-1.67298E-05-1.99678E-05-1.32576E-05-7.07228E-19-4.76202E-18
 -1      3676 5.72925E-05-1.30774E-05-1.89302E-05-1.87395E-06 2.61773E-19-4.95721E-18
 -1      3677 1.11134E-04-4.70427E-05-2.73777E-05 1.67111E-05 2.22549E-18 1.26456E-19
 -1      3678 1.14749E-04-4.75226E-05-2.88111E-05-1.09298E-05-1.17481E-18-1.26608E-19
 -1      3679 1.10788E-04-4.41717E-05-2.83973E-05-1.26561E-05-1.26327E-18-1.05227E-19
 -1      3680 9.52590E-05-2.85809E-05-2.85764E-05-1.98558E-08 1.93887E-19-8.69538E-19
 -1      3681 9.52565E-05-2.85801E-05-2.85756E-05-2.35240E-08 1.79390E-19-1.93952E-18
 -1      3682 9.05073E-05-2.40581E-05-2.84991E-05 1.07579E-05-1.95125E-19-2.54972E-18
 -1      3683 9.52509E-05-2.85751E-05-2.85753E-05 2.92939E-08-3.69708E-20-2.87410E-18
 -1      3684 9.52499E-05-2.85779E-05-2.85737E-05 3.00588E-08-6.89552E-19-3.78073E-18
 -1      3685 9.52519E-05-2.85788E-05-2.85742E-05 2.85706E-08-1.44707E-18-5.25064E-18
 -1      3686 9.52550E-05-2.85733E-05-2.85780E-05 2.58072E-08-5.86195E-19-4.17550E-18
 -1      3687 1.08670E-04-4.57370E-05-2.71591E-05 1.56301E-05-2.23923E-18-3.33964E-18
 -1      3688 9.52531E-05-2.85799E-05-2.85742E-05-2.75059E-08-1.18118E-18-9.27295E-19
 -1      3689 9.52502E-05-2.85794E-05-2.85732E-05-2.97254E-08-1.39444E-18-3.49205E-19
 -1      3690 1.22097E-04-5.21850E-05-2.98053E-05 6.77353E-06-1.12227E-18-4.17450E-18
 -1      3691 9.52648E-05-2.85763E-05-2.85807E-05-3.46813E-11 2.74076E-18 1.21406E-18
 -1      3692 9.52634E-05-2.85810E-05-2.85782E-05-2.28107E-09 2.75338E-18 9.00375E-19
 -1      3693 9.52629E-05-2.85810E-05-2.85780E-05-6.74715E-09 2.41461E-18 5.07168E-19
 -1      3694 9.52621E-05-2.85811E-05-2.85776E-05 1.13286E-08 1.06943E-18 4.18491E-19
 -1      3695 9.52639E-05-2.85764E-05-2.85803E-05 8.83276E-09 1.97708E-18-1.82450E-19
 -1      3696 9.52607E-05-2.85807E-05-2.85772E-05 1.55607E-08-8.56594E-20 9.33884E-19
 -1      3697 9.52460E-05-2.85797E-05-2.85712E-05-3.16956E-08-2.12610E-18 5.14037E-19
 -1      3698 1.08195E-04-4.63640E-05-2.63455E-05-1.97131E-05-2.01113E-18-3.52156E-19
 -1      3699 1.13777E-04-4.98797E-05-2.73389E-05-1.75317E-05-2.02504E-18 5.02661E-20
 -1      3700 8.62749E-05-1.54215E-05-3.03481E-05-3.38659E-06 1.24856E-18-3.60133E-18
 -1      3701 5.77199E-05-1.45803E-05-1.82080E-05 7.60378E-06-1.45121E-18 2.84005E-18
 -1      3702 6.11637E-05-1.47237E-05-1.97580E-05 3.54255E-06-3.78247E-19 1.67983E-18
 -1      3703 6.30761E-05-1.71494E-05-1.96773E-05 1.20943E-05-1.54404E-18 2.13905E-18
 -1      3704 8.16198E-05-3.00354E-05-2.19437E-05 2.26662E-05-3.09629E-18-4.85720E-20
 -1      3705 7.37197E-05-2.66324E-05-1.99341E-05 2.42371E-05-3.15161E-18 1.78266E-18
 -1      3706 6.92784E-05-2.19756E-05-2.02371E-05 1.88538E-05-2.62435E-18 2.22849E-18
 -1      3707 8.07006E-05-1.23573E-05-2.92949E-05-1.73699E-06 3.25776E-19-4.03758E-18
 -1      3708 8.01415E-05-1.19667E-05-2.92386E-05-8.03813E-07 9.54966E-20-3.76349E-18
 -1      3709 9.52539E-05-2.85798E-05-2.85746E-05 2.67803E-08-1.00518E-18-4.70369E-18
 -1      3710 1.18396E-04-5.05885E-05-2.90815E-05-1.10139E-05-1.65071E-18 3.07729E-19
 -1      3711 1.02009E-04-4.35202E-05-2.48832E-05 2.12797E-05-2.62514E-18-2.53361E-18
 -1      3712 8.54020E-05-3.37156E-05-2.19816E-05 2.59890E-05 2.59271E-18-2.68216E-18
 -1      3713 5.99643E-05-1.68935E-05-1.81044E-05 1.65177E-05 1.81425E-18-4.86372E-18
 -1      3714 5.92009E-05-1.42772E-05-1.91831E-05 8.80956E-06 1.02103E-18-4.69706E-18
 -1      3715 6.74891E-05-2.02540E-05-2.03195E-05 1.87099E-05 2.09141E-18-3.67279E-18
 -1      3716 9.52557E-05-2.85767E-05-2.85767E-05-2.55407E-08-3.86664E-19 1.83763E-19
 -1      3717 1.26318E-04-5.10665E-05-3.24790E-05-1.29109E-06-5.79281E-19-4.03156E-18
 -1      3718 8.18092E-05-1.32424E-05-2.94208E-05-2.97457E-06 4.63710E-19-3.95378E-18
 -1      3719 8.10014E-05-1.36355E-05-2.88346E-05-2.98042E-06 2.63529E-19-3.79915E-18
 -1      3720 8.32922E-05-1.42811E-05-2.95704E-05-3.65907E-06 7.46806E-19-3.76025E-18
 -1      3721 9.52560E-05-2.85767E-05-2.85768E-05 2.50426E-08-8.87311E-19-4.29371E-18
 -1      3722 9.52562E-05-2.85803E-05-2.85754E-05 2.39947E-08-1.41928E-18-3.97962E-18
 -1      3723 9.52587E-05-2.85811E-05-2.85761E-05 2.02502E-08-7.82035E-19-1.22455E-18
 -1      3724 9.52579E-05-2.85739E-05-2.85789E-05 2.30681E-08-1.27938E-18-3.48538E-18
 -1      3725 9.29785E-05-2.51576E-05-2.90960E-05-9.91242E-06 7.54184E-19-2.30433E-18
 -1      3726 9.51069E-05-2.58023E-05-2.96840E-05-8.72813E-06 9.92064E-19-1.83829E-18
 -1      3727 1.06456E-04-4.04489E-05-2.82973E-05-1.29146E-05-1.11259E-18-6.32462E-19
 -1      3728 1.03352E-04-3.71654E-05-2.82618E-05-1.33644E-05-5.79570E-19-6.72882E-19
 -1      3729 9.90076E-05-3.48037E-05-2.76414E-05-1.53537E-05-6.01375E-19-1.02451E-18
 -1      3730 1.05194E-04-4.17877E-05-2.73074E-05-1.66206E-05-1.38012E-18-7.57585E-19
 -1      3731 9.46339E-05-2.46210E-05-2.99912E-05-7.60101E-06 1.09454E-18-1.93096E-18
 -1      3732 9.19059E-05-3.32120E-05-2.51634E-05 2.03093E-05 1.76355E-18-1.98700E-18
 -1      3733 9.13314E-05-3.52941E-05-2.41072E-05 2.33698E-05 2.29105E-18-2.13998E-18
 -1      3734 7.94429E-05-2.67462E-05-2.22200E-05 2.26411E-05 2.35629E-18-3.03271E-18
 -1      3735 8.97306E-05-2.95996E-05-2.57125E-05 1.80232E-05 1.35466E-18-2.26352E-18
 -1      3736 7.91590E-05-2.74510E-05-2.20507E-05-2.17149E-05 1.06252E-18 4.98208E-19
 -1      3737 8.90396E-05-3.18635E-05-2.43877E-05-1.92788E-05 1.32365E-18 2.76110E-19
 -1      3738 8.65560E-05-2.88185E-05-2.47900E-05-1.73775E-05 5.94736E-19-2.72556E-21
 -1      3739 7.13499E-05-2.16066E-05-2.13727E-05-1.66827E-05 8.75236E-19 1.35323E-18
 -1      3740 7.39261E-05-2.35190E-05-2.16003E-05-2.06271E-05-1.07696E-18-4.03582E-18
 -1      3741 8.02581E-05-2.89117E-05-2.19569E-05-2.45830E-05-1.60817E-18-3.61095E-18
 -1      3742 9.52608E-05-2.85808E-05-2.85772E-05-1.54756E-08 3.86210E-19 3.21610E-19
 -1      3743 9.52614E-05-2.85768E-05-2.85790E-05-1.73231E-08 6.94244E-19-1.49281E-19
 -1      3744 9.52621E-05-2.85811E-05-2.85776E-05-1.12868E-08 1.46880E-18 7.29724E-19
 -1      3745 1.22653E-04-5.11381E-05-3.06648E-05-5.02899E-06-1.35756E-18 6.85739E-19
 -1      3746 1.00660E-04-4.11741E-05-2.56310E-05-1.94278E-05 2.12481E-18-2.54057E-19
 -1      3747 8.73116E-05-2.12524E-05-2.83413E-05 9.54072E-06-2.46285E-19-2.66859E-18
 -1      3748 8.78791E-05-2.28681E-05-2.78139E-05 1.11891E-05 4.85654E-20-2.53469E-18
 -1      3749 8.70332E-05-2.72346E-05-2.55361E-05-1.48752E-05 7.57152E-20 1.09507E-19
 -1      3750 8.60003E-05-2.55654E-05-2.59431E-05-1.33808E-05-1.95180E-19-1.69697E-19
 -1      3751 8.07428E-05-2.44744E-05-2.40785E-05-1.61821E-05 5.14821E-19 4.72032E-19
 -1      3752 8.67230E-05-2.47451E-05-2.65148E-05-1.16412E-05-2.54150E-19-1.56503E-20
 -1      3753 8.64644E-05-2.38768E-05-2.68585E-05-1.04486E-05-1.21350E-19 4.70438E-19
 -1      3754 8.22946E-05-2.26124E-05-2.55168E-05-1.18674E-05 1.94392E-19 5.46433E-19
 -1      3755 8.72788E-05-2.35661E-05-2.72827E-05-9.23027E-06-6.54726E-20 3.27702E-19
 -1      3756 8.74059E-05-2.32023E-05-2.75470E-05-8.28676E-06-4.03165E-19 5.44712E-19
 -1      3757 8.40362E-05-2.19304E-05-2.65821E-05-8.90120E-06-9.76540E-20 6.88751E-19
 -1      3758 8.82232E-05-2.32121E-05-2.78520E-05-7.40370E-06-1.36311E-18 6.10367E-19
 -1      3759 8.85300E-05-2.31613E-05-2.80409E-05-6.64871E-06-1.11541E-18 5.59667E-19
 -1      3760 8.57709E-05-2.18946E-05-2.73498E-05-6.87849E-06-8.22791E-19 1.47286E-18
 -1      3761 8.92868E-05-2.33551E-05-2.82532E-05-5.98467E-06-5.53737E-19 4.64942E-19
 -1      3762 8.96589E-05-2.34884E-05-2.83798E-05-5.36580E-06-1.64780E-19 2.93310E-19
 -1      3763 8.74002E-05-2.22660E-05-2.78918E-05-5.43232E-06-6.56329E-19 1.72412E-18
 -1      3764 9.03331E-05-2.37812E-05-2.85219E-05-4.84557E-06-5.30853E-20-1.76736E-19
 -1      3765 9.07067E-05-2.40128E-05-2.86002E-05-4.32818E-06-8.92631E-21-7.04180E-19
 -1      3766 8.88568E-05-2.28618E-05-2.82638E-05-4.33669E-06-3.62321E-19 5.46718E-19
 -1      3767 9.12907E-05-2.43481E-05-2.86905E-05-3.90895E-06 7.42840E-19-9.45808E-19
 -1      3768 9.16337E-05-2.46217E-05-2.87334E-05-3.47215E-06 1.11998E-18-2.33947E-19
 -1      3769 9.01267E-05-2.35663E-05-2.85091E-05-3.47180E-06 5.06246E-19-5.85206E-19
 -1      3770 9.21280E-05-2.49623E-05-2.87864E-05-3.12892E-06 1.35896E-18-3.20440E-20
 -1      3771 9.24261E-05-2.52423E-05-2.88045E-05-2.76010E-06 1.67562E-18 3.95778E-19
 -1      3772 9.12096E-05-2.42991E-05-2.86621E-05-2.77042E-06 1.47490E-18-5.61295E-19
 -1      3773 9.28360E-05-2.55651E-05-2.88314E-05-2.47772E-06 1.56095E-18 4.07637E-19
 -1      3774 9.30855E-05-2.58302E-05-2.88330E-05-2.16844E-06 1.77521E-18 5.67198E-19
 -1      3775 9.21151E-05-2.50073E-05-2.87492E-05-2.19385E-06 1.93323E-18 5.80078E-19
 -1      3776 9.34190E-05-2.61220E-05-2.88423E-05-1.93687E-06 1.37979E-18 6.14054E-19
 -1      3777 9.36218E-05-2.63605E-05-2.88337E-05-1.68041E-06 8.42211E-19 1.12164E-18
 -1      3778 9.28583E-05-2.56587E-05-2.87908E-05-1.71858E-06 1.70573E-18-1.12370E-20
 -1      3779 9.38882E-05-2.66151E-05-2.88318E-05-1.49210E-06 4.59220E-21 3.97934E-19
 -1      3780 9.40491E-05-2.68220E-05-2.88175E-05-1.28234E-06-3.99459E-19-3.11808E-19
 -1      3781 9.34573E-05-2.62359E-05-2.88020E-05-1.32870E-06 1.03532E-19-4.96237E-19
 -1      3782 9.42581E-05-2.70380E-05-2.88088E-05-1.13099E-06-1.24840E-18-3.54702E-19
 -1      3783 9.43830E-05-2.72124E-05-2.87921E-05-9.61984E-07-2.11523E-18-1.18944E-18
 -1      3784 9.39317E-05-2.67324E-05-2.87942E-05-1.01190E-06-1.00546E-18-1.67017E-18
 -1      3785 9.45442E-05-2.73912E-05-2.87799E-05-8.41979E-07-1.45960E-18-8.60044E-19
 -1      3786 9.46391E-05-2.75347E-05-2.87626E-05-7.07938E-07-7.95362E-19-2.97403E-19
 -1      3787 9.43010E-05-2.71489E-05-2.87753E-05-7.57656E-07-1.47750E-18-4.21029E-19
 -1      3788 9.47610E-05-2.76797E-05-2.87490E-05-6.14198E-07-9.93351E-19-4.67008E-19
 -1      3789 9.48317E-05-2.77953E-05-2.87326E-05-5.09601E-07-1.10687E-18-7.17853E-19
 -1      3790 9.45834E-05-2.74907E-05-2.87508E-05-5.56475E-07-1.20138E-18-3.59004E-19
 -1      3791 9.49222E-05-2.79106E-05-2.87191E-05-4.37535E-07-2.82480E-19-8.15473E-19
 -1      3792 9.49736E-05-2.80019E-05-2.87042E-05-3.57273E-07 2.93924E-19-9.02750E-19
 -1      3793 9.47952E-05-2.77657E-05-2.87246E-05-3.99692E-07-7.09211E-19 1.26236E-18
 -1      3794 9.50393E-05-2.80918E-05-2.86916E-05-3.02802E-07 8.70833E-21-1.20597E-18
 -1      3795 9.50757E-05-2.81627E-05-2.86785E-05-2.42288E-07-6.41411E-19-1.13523E-18
 -1      3796 9.49509E-05-2.79827E-05-2.86990E-05-2.79471E-07 2.88748E-19-2.74348E-19
 -1      3797 9.51222E-05-2.82315E-05-2.86672E-05-2.01864E-07-3.87053E-19-5.09340E-19
 -1      3798 9.51473E-05-2.82854E-05-2.86562E-05-1.57089E-07 3.08705E-19-7.47278E-20
 -1      3799 9.50627E-05-2.81509E-05-2.86753E-05-1.88860E-07 1.83697E-19 4.57227E-19
 -1      3800 9.51792E-05-2.83372E-05-2.86464E-05-1.27689E-07 4.15525E-19 6.46719E-21
 -1      3801 9.51957E-05-2.83774E-05-2.86372E-05-9.52422E-08 6.87959E-19 2.52943E-19
 -1      3802 9.51409E-05-2.82788E-05-2.86544E-05-1.21828E-07 8.28282E-19 1.35007E-18
 -1      3803 9.52167E-05-2.84155E-05-2.86289E-05-7.43470E-08 1.06641E-18 1.58765E-19
 -1      3804 9.52270E-05-2.84449E-05-2.86214E-05-5.13894E-08 1.70545E-18 8.64936E-19
 -1      3805 9.51935E-05-2.83743E-05-2.86363E-05-7.32510E-08 1.08535E-18 5.24766E-19
 -1      3806 9.52400E-05-2.84723E-05-2.86146E-05-3.69423E-08 1.65991E-18 1.03210E-18
 -1      3807 9.52458E-05-2.84933E-05-2.86086E-05-2.11646E-08 1.90495E-18 8.65131E-19
 -1      3808 9.52274E-05-2.84440E-05-2.86211E-05-3.88778E-08 1.27770E-18 7.03741E-19
 -1      3809 9.52531E-05-2.85126E-05-2.86030E-05-1.15126E-08 1.46788E-18-2.13826E-19
 -1      3810 9.52559E-05-2.85273E-05-2.85982E-05-1.07326E-09 1.48826E-18-1.33029E-18
 -1      3811 9.52476E-05-2.84939E-05-2.86086E-05-1.52452E-08 5.25668E-19 4.18480E-19
 -1      3812 9.52593E-05-2.85406E-05-2.85936E-05 5.05345E-09 9.80900E-19-2.94021E-18
 -1      3813 9.52600E-05-2.85506E-05-2.85899E-05 1.15719E-08-8.88472E-19-3.39401E-18
 -1      3814 9.52582E-05-2.85287E-05-2.85983E-05 4.08422E-10-7.01463E-19-1.89605E-18
 -1      3815 9.52608E-05-2.85595E-05-2.85862E-05 1.51526E-08-1.45083E-18-3.34603E-18
 -1      3816 9.52603E-05-2.85663E-05-2.85831E-05 1.89626E-08-1.35232E-18-3.58297E-18
 -1      3817 9.52624E-05-2.85525E-05-2.85899E-05 1.01607E-08-8.46379E-19-3.79102E-18
 -1      3818 8.98811E-05-2.49013E-05-2.78637E-05 9.39253E-06-1.16431E-18 1.72495E-18
 -1      3819 9.01664E-05-2.55698E-05-2.76533E-05 1.02699E-05-1.04983E-18 1.11004E-18
 -1      3820 9.17893E-05-2.23969E-05-2.97627E-05-7.43174E-06 1.02900E-18-2.52095E-18
 -1      3821 9.40810E-05-2.35480E-05-3.02217E-05-6.65793E-06 1.23247E-18-2.09210E-18
 -1      3822 9.47734E-05-2.31787E-05-3.06876E-05-5.23816E-06 1.62896E-18-2.05407E-18
 -1      3823 9.00000E-05-2.62996E-05-2.73106E-05 1.15022E-05-7.14617E-19 6.60027E-19
 -1      3824 9.08397E-05-2.76002E-05-2.70515E-05 1.25159E-05-5.24765E-19 4.18612E-19
 -1      3825 8.75300E-05-2.45481E-05-2.69984E-05 1.07964E-05-1.04488E-18 1.08093E-18
 -1      3826 9.09426E-05-2.43491E-05-2.85537E-05 6.28700E-06-7.42176E-20 2.16323E-18
 -1      3827 9.07784E-05-2.43615E-05-2.84528E-05 6.92965E-06 2.84705E-19 1.77371E-18
 -1      3828 9.16535E-05-2.46392E-05-2.87324E-05 5.11764E-06 3.29803E-19 1.77251E-18
 -1      3829 9.14317E-05-2.45100E-05-2.86734E-05 5.67202E-06 2.97247E-19 1.76491E-18
 -1      3830 9.00556E-05-2.37192E-05-2.84204E-05 5.59364E-06 3.56959E-19 1.14181E-18
 -1      3831 9.23380E-05-2.50832E-05-2.88339E-05 4.13172E-06-3.19986E-19 1.49300E-18
 -1      3832 9.21083E-05-2.48828E-05-2.88060E-05 4.60948E-06 5.03227E-20 1.71089E-18
 -1      3833 9.10008E-05-2.41795E-05-2.86285E-05 4.51554E-06 1.27490E-19 1.18853E-18
 -1      3834 9.29513E-05-2.55848E-05-2.88802E-05 3.29971E-06 8.71534E-19 2.28545E-19
 -1      3835 9.27392E-05-2.53582E-05-2.88739E-05 3.70848E-06 4.66568E-19 7.85067E-19
 -1      3836 9.18539E-05-2.47438E-05-2.87533E-05 3.62425E-06 7.09847E-19 7.67735E-19
 -1      3837 9.34760E-05-2.60850E-05-2.88893E-05 2.60168E-06-2.55567E-19 1.08290E-19
 -1      3838 9.32925E-05-2.58594E-05-2.88969E-05 2.94737E-06 1.87459E-19 9.27989E-20
 -1      3839 9.25917E-05-2.53327E-05-2.88184E-05 2.88213E-06 4.29867E-19 3.00458E-19
 -1      3840 9.39097E-05-2.65495E-05-2.88749E-05 2.02211E-06-7.84554E-19 9.13817E-19
 -1      3841 9.37578E-05-2.63405E-05-2.88906E-05 2.31031E-06-5.69490E-19 1.11338E-18
 -1      3842 9.32101E-05-2.58975E-05-2.88426E-05 2.26517E-06-3.11163E-19 1.93424E-18
 -1      3843 9.42588E-05-2.69612E-05-2.88469E-05 1.54716E-06 3.61074E-19 1.42766E-18
 -1      3844 9.41371E-05-2.67765E-05-2.88667E-05 1.78371E-06-1.56319E-19 1.11793E-18
 -1      3845 9.37150E-05-2.64107E-05-2.88402E-05 1.75610E-06-3.46419E-19 2.21928E-18
 -1      3846 9.45333E-05-2.73137E-05-2.88125E-05 1.16358E-06-3.70949E-20 2.82786E-18
 -1      3847 9.44383E-05-2.71559E-05-2.88334E-05 1.35462E-06 4.09807E-19 2.26115E-18
 -1      3848 9.41182E-05-2.68594E-05-2.88217E-05 1.34073E-06-6.96328E-20 2.72300E-18
 -1      3849 9.47445E-05-2.76074E-05-2.87763E-05 8.58552E-07-2.58395E-19 2.36298E-18
 -1      3850 9.46722E-05-2.74762E-05-2.87966E-05 1.01032E-06-2.30202E-19 2.68527E-18
 -1      3851 9.44337E-05-2.72400E-05-2.87946E-05 1.00635E-06-3.37273E-19 3.26188E-18
 -1      3852 9.49036E-05-2.78464E-05-2.87413E-05 6.19838E-07-7.59676E-19 2.65404E-18
 -1      3853 9.48498E-05-2.77398E-05-2.87600E-05 7.38416E-07-2.62760E-19 2.44614E-18
 -1      3854 9.46757E-05-2.75550E-05-2.87640E-05 7.41082E-07 3.28596E-21 2.50813E-18
 -1      3855 9.50209E-05-2.80369E-05-2.87094E-05 4.36095E-07-5.37301E-19 2.82283E-18
 -1      3856 9.49819E-05-2.79521E-05-2.87259E-05 5.27175E-07-6.70487E-19 3.04000E-18
 -1      3857 9.48576E-05-2.78100E-05-2.87332E-05 5.33894E-07-1.06806E-18 2.17005E-18
 -1      3858 9.51054E-05-2.81858E-05-2.86813E-05 2.97096E-07 9.95411E-21 2.66274E-18
 -1      3859 9.50778E-05-2.81197E-05-2.86954E-05 3.65827E-07 2.90684E-19 2.76399E-18
 -1      3860 9.49915E-05-2.80123E-05-2.87043E-05 3.74690E-07-2.44795E-19 1.49622E-18
 -1      3861 9.51645E-05-2.83000E-05-2.86573E-05 1.93872E-07 1.12495E-18 1.49966E-18
 -1      3862 9.51456E-05-2.82494E-05-2.86690E-05 2.44768E-07 2.30580E-19 2.19134E-18
 -1      3863 9.50877E-05-2.81699E-05-2.86783E-05 2.54444E-07 7.74395E-19 2.71573E-18
 -1      3864 9.52044E-05-2.83860E-05-2.86372E-05 1.18755E-07 1.65503E-18 1.79300E-18
 -1      3865 9.51921E-05-2.83480E-05-2.86469E-05 1.55671E-07 1.51010E-18 2.09145E-18
 -1      3866 9.51549E-05-2.82903E-05-2.86558E-05 1.65288E-07 1.28971E-18 1.89078E-18
 -1      3867 9.52302E-05-2.84494E-05-2.86209E-05 6.53388E-08 1.78666E-18 1.72933E-18
 -1      3868 9.52226E-05-2.84214E-05-2.86286E-05 9.14856E-08 2.38464E-18 1.56314E-18
 -1      3869 9.52003E-05-2.83806E-05-2.86367E-05 1.00517E-07 1.97732E-18 3.83332E-18
 -1      3870 9.52457E-05-2.84951E-05-2.86077E-05 2.83872E-08-1.48030E-19 2.57089E-18
 -1      3871 9.52414E-05-2.84750E-05-2.86138E-05 4.63820E-08 1.00096E-18 1.74103E-18
 -1      3872 9.52295E-05-2.84469E-05-2.86209E-05 5.45446E-08 1.51155E-18 3.68378E-18
 -1      3873 9.52539E-05-2.85274E-05-2.85973E-05 3.71552E-09-3.17082E-19 1.60510E-18
 -1      3874 9.52520E-05-2.85132E-05-2.86021E-05 1.56457E-08-3.34837E-19 1.48028E-18
 -1      3875 9.52469E-05-2.84945E-05-2.86081E-05 2.28211E-08 3.86520E-19 2.45330E-18
 -1      3876 9.52572E-05-2.85496E-05-2.85891E-05-1.20039E-08-2.67542E-19 2.30207E-18
 -1      3877 9.52568E-05-2.85398E-05-2.85928E-05-4.45238E-09-5.52265E-20 1.75839E-18
 -1      3878 9.52561E-05-2.85279E-05-2.85978E-05 1.74816E-09 1.32613E-20 1.23276E-18
 -1      3879 9.52574E-05-2.85647E-05-2.85827E-05-2.13457E-08-1.57927E-18 2.25037E-18
 -1      3880 9.52578E-05-2.85579E-05-2.85855E-05-1.67975E-08-9.63018E-19 2.19403E-18
 -1      3881 9.52597E-05-2.85510E-05-2.85895E-05-1.16004E-08-4.54847E-19 1.94942E-18
 -1      3882 9.52570E-05-2.85725E-05-2.85789E-05-2.35597E-08-6.53252E-19 8.79668E-19
 -1      3883 8.73742E-05-1.73391E-05-3.00042E-05-4.76556E-06 1.24488E-18-3.38782E-18
 -1      3884 8.52384E-05-1.57990E-05-2.97924E-05-4.45600E-06 1.01577E-18-3.56762E-18
 -1      3885 8.42082E-05-1.60575E-05-2.91997E-05-5.12903E-06 7.57128E-19-3.35925E-18
 -1      3886 8.88319E-05-1.94388E-05-2.97268E-05-6.19190E-06 1.16649E-18-3.04404E-18
 -1      3887 1.01640E-04-4.27274E-05-2.53035E-05-2.25937E-05-2.12415E-18-1.09043E-18
 -1      3888 1.03852E-04-4.20855E-05-2.63826E-05-1.90708E-05-1.84371E-18-8.79640E-19
 -1      3889 9.98675E-05-3.76803E-05-2.64267E-05-1.87200E-05-1.49665E-18-1.22198E-18
 -1      3890 9.69446E-05-3.90096E-05-2.47090E-05 2.10169E-05-2.45584E-18-2.37512E-18
 -1      3891 8.73078E-05-1.86319E-05-2.94455E-05 6.32835E-06-6.69051E-19-2.88809E-18
 -1      3892 8.76015E-05-2.00145E-05-2.89505E-05 7.83631E-06-4.16683E-19-2.88273E-18
 -1      3893 8.49028E-05-1.87835E-05-2.82941E-05 8.31359E-06-2.53872E-19-2.77454E-18
 -1      3894 9.11890E-05-2.90619E-05-2.66240E-05 1.41015E-05-8.75322E-19 2.72202E-19
 -1      3895 9.29311E-05-3.12568E-05-2.63545E-05 1.51755E-05-1.35796E-18-3.85577E-19
 -1      3896 8.75566E-05-2.65558E-05-2.61673E-05 1.37215E-05-9.66127E-19 8.72155E-19
 -1      3897 9.25438E-05-2.81819E-05-2.75431E-05-1.37868E-05-2.94427E-19-1.94321E-18
 -1      3898 9.10010E-05-2.58592E-05-2.79035E-05-1.24091E-05 3.63401E-20-2.16417E-18
 -1      3899 8.96545E-05-2.15847E-05-2.91536E-05-8.24897E-06 8.56224E-19-2.77553E-18
 -1      3900 8.91050E-05-2.04541E-05-2.94120E-05-7.23771E-06 9.81088E-19-2.85553E-18
 -1      3901 8.65469E-05-1.86602E-05-2.91179E-05-6.94955E-06 9.00728E-19-3.11335E-18
 -1      3902 9.52600E-05-2.85692E-05-2.85819E-05-1.95068E-08-3.91278E-19 7.73061E-19
 -1      3903 1.26448E-04-5.12955E-05-3.21666E-05-3.50383E-07-1.23397E-18 1.60181E-18
 -1      3904 7.97601E-05-1.26942E-05-2.86997E-05-7.76147E-08 2.98767E-20-3.52210E-18
 -1      3905 8.01202E-05-1.19430E-05-2.92417E-05 6.50224E-07 9.98907E-20-3.48843E-18
 -1      3906 6.23849E-05-1.48952E-05-2.03089E-05-3.72476E-06 1.14749E-19 8.50858E-19
 -1      3907 6.46699E-05-1.64710E-05-2.05829E-05-9.89769E-06 7.96110E-19 1.52180E-18
 -1      3908 9.02956E-05-2.43615E-05-2.82724E-05 7.68718E-06-2.22000E-19 1.62847E-18
 -1      3909 9.02790E-05-2.46226E-05-2.81195E-05 8.43614E-06-5.24884E-19 1.42651E-18
 -1      3910 8.90730E-05-2.34860E-05-2.81003E-05 6.92106E-06-4.00557E-19 1.20359E-18
 -1      3911 9.69500E-05-3.64707E-05-2.57892E-05 1.76116E-05-2.25784E-18-1.62886E-18
 -1      3912 8.86542E-05-3.36405E-05-2.35700E-05 2.23187E-05-2.89371E-18-1.62588E-18
 -1      3913 8.26496E-05-2.84947E-05-2.32545E-05 1.97964E-05-3.23310E-18-2.51767E-19
 -1      3914 9.37247E-05-3.31675E-05-2.59136E-05 1.68390E-05-1.88181E-18-9.23949E-19
 -1      3915 8.86916E-05-3.44332E-05-2.31319E-05-2.46597E-05-1.95434E-18-2.63800E-18
 -1      3916 8.76184E-05-2.44323E-05-2.71086E-05 1.32739E-05 3.38439E-19-2.45738E-18
 -1      3917 8.88620E-05-2.66985E-05-2.65669E-05 1.50719E-05 6.83830E-19-2.39302E-18
 -1      3918 8.43221E-05-2.14414E-05-2.69223E-05 1.20028E-05 2.61639E-19-2.69697E-18
 -1      3919 9.05705E-05-2.44560E-05-2.83115E-05-1.10314E-05 3.69204E-19-2.45846E-18
 -1      3920 8.98903E-05-2.27565E-05-2.87617E-05-9.52163E-06 5.45892E-19-2.67599E-18
 -1      3921 8.69789E-05-2.07905E-05-2.83720E-05-9.28598E-06 3.60788E-19-2.81377E-18
 -1      3922 8.76359E-05-2.33909E-05-2.75225E-05-1.21165E-05-9.85486E-20-2.58981E-18
 -1      3923 6.00390E-05-1.30332E-05-1.98658E-05 3.42544E-06 5.67444E-19-4.63068E-18
 -1      3924 6.27141E-05-1.36109E-05-2.10471E-05-1.81677E-06 8.37835E-20-4.45337E-18
 -1      3925 6.42220E-05-1.48276E-05-2.12542E-05 7.66025E-06 9.61406E-19-4.17368E-18
 -1      3926 9.52640E-05-2.85764E-05-2.85803E-05-8.85755E-09 2.39514E-18 1.29103E-18
 -1      3927 9.52638E-05-2.85676E-05-2.85842E-05-1.20321E-08 9.54478E-19 1.52430E-18
 -1      3928 9.52621E-05-2.85680E-05-2.85833E-05-1.58019E-08 7.76530E-19 1.32425E-19
 -1      3929 9.52625E-05-2.85581E-05-2.85874E-05-1.31600E-08-2.96326E-19 1.80349E-18
 -1      3930 6.61608E-05-1.61441E-05-2.14723E-05-1.08458E-05-4.28963E-19-4.37193E-18
 -1      3931 6.94537E-05-1.92760E-05-2.13114E-05-1.67716E-05-8.70670E-19-4.55530E-18
 -1      3932 7.61887E-05-2.24234E-05-2.29667E-05-1.76320E-05-9.06987E-19-4.02904E-18
 -1      3933 8.85904E-05-2.97702E-05-2.52148E-05 1.71855E-05-2.19679E-18-5.59996E-19
 -1      3934 9.52610E-05-2.85703E-05-2.85818E-05 1.80871E-08-1.22110E-18-2.63041E-18
 -1      3935 8.81620E-05-2.36669E-05-2.76366E-05 8.60190E-06-8.62746E-19 1.44379E-18
 -1      3936 7.52239E-05-2.27757E-05-2.24069E-05 1.80628E-05 1.78844E-18-3.23823E-18
 -1      3937 8.48055E-05-2.57911E-05-2.52275E-05 1.73136E-05 1.18362E-18-2.56994E-18
 -1      3938 9.52657E-05-2.85708E-05-2.85836E-05 2.06598E-09 1.39420E-18 3.30952E-19
 -1      3939 9.52657E-05-2.85709E-05-2.85835E-05-2.18276E-09 1.23554E-18 1.64594E-18
 -1      3940 6.36834E-05-1.48370E-05-2.07965E-05 5.89939E-08 1.43329E-19 8.55794E-19
 -1      3941 6.73506E-05-1.58927E-05-2.20901E-05-2.04186E-06 4.84953E-19 6.17633E-19
 -1      3942 6.60801E-05-1.58550E-05-2.15785E-05 4.54717E-06-2.35298E-19 8.61294E-19
 -1      3943 9.52609E-05-2.85771E-05-2.85787E-05 1.78255E-08-1.08176E-18-1.33779E-18
 -1      3944 8.96309E-05-3.25786E-05-2.44253E-05-2.14316E-05-1.73818E-18-2.18915E-18
 -1      3945 9.52644E-05-2.85713E-05-2.85828E-05 1.01615E-08 6.47381E-19-8.70868E-19
 -1      3946 9.52653E-05-2.85712E-05-2.85833E-05 6.04050E-09 1.53443E-18-7.63371E-19
 -1      3947 9.52661E-05-2.85646E-05-2.85863E-05 3.46110E-09 1.82524E-19-5.16065E-19
 -1      3948 6.81587E-05-1.93587E-05-2.07215E-05 1.49764E-05-2.22653E-18 2.01684E-18
 -1      3949 6.83955E-05-1.79771E-05-2.15705E-05 1.08732E-05-1.31695E-18 8.61029E-19
 -1      3950 7.40273E-05-2.23814E-05-2.21152E-05 1.65277E-05-2.49495E-18 1.06521E-18
 -1      3951 8.64319E-05-1.66780E-05-2.98933E-05 4.63098E-06-7.24528E-19-3.08206E-18
 -1      3952 8.70430E-05-1.77257E-05-2.96900E-05 5.47434E-06-6.79768E-19-2.99003E-18
 -1      3953 8.49102E-05-1.67835E-05-2.91685E-05 5.82713E-06-3.91979E-19-2.94778E-18
 -1      3954 8.43710E-05-1.51341E-05-2.96739E-05 4.24804E-06-5.13209E-19-3.24172E-18
 -1      3955 7.86047E-05-1.31960E-05-2.80456E-05-9.37234E-07 8.07068E-20-3.62494E-18
 -1      3956 7.85367E-05-1.31032E-05-2.80439E-05 6.98253E-07-5.59294E-20-3.29918E-18
 -1      3957 7.25422E-05-2.03572E-05-2.22786E-05-1.31308E-05 8.12784E-19 9.80533E-19
 -1      3958 8.06366E-05-1.20634E-05-2.93836E-05 1.43468E-06-1.38634E-19-3.56916E-18
 -1      3959 8.06974E-05-1.46472E-05-2.82845E-05-4.36592E-06 3.14164E-19-3.68719E-18
 -1      3960 7.93728E-05-1.37936E-05-2.81424E-05-2.97624E-06 1.28969E-19-3.76419E-18
 -1      3961 7.82855E-05-1.40876E-05-2.74573E-05-2.33936E-06 1.11498E-19-3.53482E-18
 -1      3962 9.02254E-05-2.97862E-05-2.58564E-05-1.76251E-05-8.68000E-19-2.02449E-18
 -1      3963 8.53540E-05-2.60449E-05-2.53954E-05-1.70505E-05-8.65717E-19-2.59383E-18
 -1      3964 8.15045E-05-1.23528E-05-2.96665E-05 2.13372E-06-1.84869E-19-3.54701E-18
 -1      3965 8.26048E-05-1.29230E-05-2.98635E-05 2.55136E-06-5.39876E-19-3.54235E-18
 -1      3966 8.28516E-05-1.37564E-05-2.96093E-05 3.24116E-06-5.20994E-19-3.41310E-18
 -1      3967 8.07625E-05-1.30228E-05-2.90136E-05 2.30768E-06-1.06796E-19-3.38697E-18
 -1      3968 7.79854E-05-1.39545E-05-2.74475E-05 2.21356E-06 2.68900E-20-3.26981E-18
 -1      3969 7.93665E-05-1.37758E-05-2.81506E-05 2.90714E-06 3.17488E-20-3.26024E-18
 -1      3970 9.14481E-05-2.45095E-05-2.86989E-05 2.96722E-06 2.30685E-19 3.79883E-19
 -1      3971 9.10442E-05-2.41937E-05-2.86492E-05 3.34560E-06 4.56667E-19 1.94236E-19
 -1      3972 7.36544E-05-1.95278E-05-2.32464E-05-1.07605E-05 5.20872E-19 1.06276E-18
 -1      3973 8.14951E-05-2.06979E-05-2.60642E-05-7.85549E-06 1.21519E-19 8.71695E-19
 -1      3974 8.24599E-05-2.06862E-05-2.65304E-05-6.74569E-06-1.65408E-19 7.59133E-19
 -1      3975 8.39396E-05-2.09633E-05-2.69857E-05-5.97048E-06-5.19696E-19 8.12470E-19
 -1      3976 8.48072E-05-2.11498E-05-2.73172E-05-5.22597E-06-5.94325E-19 1.36847E-18
 -1      3977 8.18619E-05-1.98689E-05-2.65215E-05-4.95169E-06-1.37824E-19 9.30390E-19
 -1      3978 8.59949E-05-2.15117E-05-2.76345E-05-4.66989E-06-9.16159E-19 1.18501E-18
 -1      3979 8.67749E-05-2.18149E-05-2.78652E-05-4.12173E-06-5.79299E-19 9.65974E-19
 -1      3980 8.44403E-05-2.06470E-05-2.73081E-05-3.81514E-06-7.20348E-19 5.61041E-19
 -1      3981 8.77556E-05-2.22297E-05-2.80832E-05-3.70787E-06-4.10829E-19 1.02553E-18
 -1      3982 8.84421E-05-2.25950E-05-2.82388E-05-3.28248E-06-5.03706E-19 6.38033E-19
 -1      3983 8.65588E-05-2.15111E-05-2.78532E-05-2.99045E-06-7.93955E-19 8.79613E-19
 -1      3984 8.92551E-05-2.30279E-05-2.83846E-05-2.96322E-06-1.16095E-19 5.25087E-19
 -1      3985 8.98461E-05-2.34143E-05-2.84850E-05-2.62058E-06 7.98773E-19 4.77922E-19
 -1      3986 8.83173E-05-2.24167E-05-2.82241E-05-2.37273E-06-9.30965E-20 1.56206E-18
 -1      3987 9.05190E-05-2.38394E-05-2.85786E-05-2.36643E-06 1.31204E-18 1.35690E-19
 -1      3988 9.10175E-05-2.42188E-05-2.86392E-05-2.08438E-06 1.91572E-18 5.84805E-19
 -1      3989 8.97763E-05-2.33140E-05-2.84688E-05-1.88888E-06 5.31734E-19 1.06792E-18
 -1      3990 9.15703E-05-2.46174E-05-2.86955E-05-1.87868E-06 2.08146E-18 5.79360E-20
 -1      3991 9.19829E-05-2.49714E-05-2.87281E-05-1.64457E-06 1.82295E-18 5.05103E-19
 -1      3992 9.09813E-05-2.41668E-05-2.86227E-05-1.49895E-06 1.70482E-18 4.42583E-20
 -1      3993 9.24322E-05-2.53319E-05-2.87585E-05-1.47721E-06 1.56807E-18 3.27070E-20
 -1      3994 9.27676E-05-2.56496E-05-2.87719E-05-1.28317E-06 1.26474E-18-1.18712E-19
 -1      3995 9.19671E-05-2.49492E-05-2.87124E-05-1.18037E-06 1.30103E-18-3.46920E-19
 -1      3996 9.31281E-05-2.59658E-05-2.87847E-05-1.14737E-06-2.32688E-19-9.79594E-19
 -1      3997 9.33959E-05-2.62425E-05-2.87857E-05-9.87805E-07-1.14923E-18-1.45230E-18
 -1      3998 9.27641E-05-2.56452E-05-2.87576E-05-9.19376E-07-6.73294E-21-1.34812E-18
 -1      3999 9.36809E-05-2.65127E-05-2.87870E-05-8.78480E-07-7.85154E-19-2.20320E-18
 -1      4000 9.38911E-05-2.67473E-05-2.87804E-05-7.48769E-07-9.92262E-19-1.60503E-18
 -1      4001 9.33994E-05-2.62482E-05-2.87731E-05-7.06568E-07-1.73912E-18-1.78590E-18
 -1      4002 9.41130E-05-2.69731E-05-2.87746E-05-6.61755E-07-1.16835E-18-1.57729E-18
 -1      4003 9.42751E-05-2.71676E-05-2.87639E-05-5.57742E-07-1.00753E-18-1.13247E-18
 -1      4004 9.38984E-05-2.67584E-05-2.87697E-05-5.34682E-07-1.11990E-18-2.06223E-18
 -1      4005 9.44450E-05-2.73523E-05-2.87542E-05-4.89411E-07-6.33408E-19-8.43945E-19
 -1      4006 9.45677E-05-2.75103E-05-2.87416E-05-4.07242E-07-6.39189E-19-1.56276E-19
 -1      4007 9.42840E-05-2.71809E-05-2.87550E-05-3.97552E-07-3.46742E-19-9.41037E-19
 -1      4008 9.46956E-05-2.76585E-05-2.87302E-05-3.54378E-07-5.54597E-20 6.45662E-19
 -1      4009 9.47866E-05-2.77844E-05-2.87173E-05-2.90481E-07 6.46522E-19 1.30905E-18
 -1      4010 9.45770E-05-2.75240E-05-2.87344E-05-2.89682E-07 1.78384E-19-2.06263E-19
 -1      4011 9.48810E-05-2.79012E-05-2.87056E-05-2.50240E-07 7.89521E-20 1.47950E-18
 -1      4012 9.49471E-05-2.79997E-05-2.86933E-05-2.01369E-07 1.17743E-19 1.09185E-18
 -1      4013 9.47954E-05-2.77974E-05-2.87115E-05-2.06121E-07 9.73520E-20 1.57551E-18
 -1      4014 9.50151E-05-2.80901E-05-2.86821E-05-1.71269E-07 1.70551E-19 6.21771E-19
 -1      4015 9.50620E-05-2.81657E-05-2.86710E-05-1.34542E-07 4.29433E-19 1.11034E-18
 -1      4016 9.49550E-05-2.80114E-05-2.86887E-05-1.42444E-07 1.75707E-19 1.92021E-18
 -1      4017 9.51097E-05-2.82343E-05-2.86608E-05-1.12455E-07 4.67937E-19 3.24111E-19
 -1      4018 9.51419E-05-2.82913E-05-2.86511E-05-8.53759E-08 7.33054E-19 4.22356E-19
 -1      4019 9.50687E-05-2.81758E-05-2.86674E-05-9.47666E-08 1.26373E-19-7.13192E-19
 -1      4020 9.51743E-05-2.83424E-05-2.86421E-05-6.95149E-08 6.13171E-19 3.02714E-20
 -1      4021 9.51955E-05-2.83846E-05-2.86338E-05-4.99686E-08 7.29629E-19-1.23473E-19
 -1      4022 9.51475E-05-2.82998E-05-2.86483E-05-5.97496E-08 2.23273E-19-1.64201E-18
 -1      4023 9.52165E-05-2.84218E-05-2.86262E-05-3.88625E-08 1.26791E-18-8.93601E-19
 -1      4024 9.52296E-05-2.84523E-05-2.86193E-05-2.51004E-08 1.15143E-18-9.61411E-19
 -1      4025 9.51999E-05-2.83915E-05-2.86317E-05-3.45812E-08 5.69641E-19-1.52182E-18
 -1      4026 9.52424E-05-2.84789E-05-2.86129E-05-1.75678E-08 1.11283E-18-1.12525E-18
 -1      4027 9.52498E-05-2.85004E-05-2.86072E-05-8.17899E-09 5.06022E-19-9.38532E-19
 -1      4028 9.52331E-05-2.84578E-05-2.86177E-05-1.69502E-08 1.22040E-18-2.54192E-18
 -1      4029 9.52568E-05-2.85189E-05-2.86019E-05-3.22028E-09-1.26010E-18-5.08394E-19
 -1      4030 9.52603E-05-2.85339E-05-2.85972E-05 2.89103E-09-1.44333E-18-1.75883E-18
 -1      4031 9.52523E-05-2.85047E-05-2.86059E-05-4.92676E-09-1.43268E-19-1.63587E-18
 -1      4032 8.51063E-05-2.26986E-05-2.67848E-05 9.26261E-06-8.47271E-19 6.30984E-19
 -1      4033 8.49019E-05-2.32290E-05-2.63966E-05 1.04735E-05-5.93198E-19 7.72564E-19
 -1      4034 9.04420E-05-2.38304E-05-2.85613E-05 3.71739E-06 1.46901E-19-2.67114E-19
 -1      4035 8.99829E-05-2.35364E-05-2.84749E-05 4.17197E-06 1.26472E-19-1.31033E-19
 -1      4036 9.01355E-05-2.35759E-05-2.85124E-05 3.01414E-06 2.16750E-20-1.51091E-18
 -1      4037 8.92760E-05-2.31968E-05-2.83366E-05 4.63507E-06 3.86923E-19-6.13879E-19
 -1      4038 8.87795E-05-2.29688E-05-2.82000E-05 5.18925E-06 2.81756E-20-8.69533E-19
 -1      4039 8.88369E-05-2.28200E-05-2.82771E-05 3.77908E-06 9.79058E-20-2.40525E-18
 -1      4040 9.22954E-05-2.51755E-05-2.87746E-05 2.34810E-06 7.07952E-20 9.49485E-19
 -1      4041 9.19524E-05-2.48664E-05-2.87506E-05 2.66419E-06 6.47844E-19 4.70486E-19
 -1      4042 9.12321E-05-2.43363E-05-2.86588E-05 2.39579E-06 2.20672E-19 1.24944E-19
 -1      4043 9.29938E-05-2.57927E-05-2.88077E-05 1.83708E-06-6.25671E-19 1.78136E-18
 -1      4044 9.27106E-05-2.55072E-05-2.88010E-05 2.10001E-06-7.83139E-19 1.33760E-18
 -1      4045 9.21428E-05-2.50576E-05-2.87421E-05 1.88962E-06-4.16242E-19-1.49003E-19
 -1      4046 9.35583E-05-2.63421E-05-2.88128E-05 1.41799E-06-3.80790E-19 1.96075E-18
 -1      4047 9.33299E-05-2.60889E-05-2.88172E-05 1.63463E-06-1.21675E-19 2.03947E-18
 -1      4048 9.28866E-05-2.57129E-05-2.87818E-05 1.47435E-06-6.40212E-19 1.48343E-18
 -1      4049 9.40061E-05-2.68157E-05-2.88006E-05 1.07786E-06-6.80855E-19 1.99495E-18
 -1      4050 9.38258E-05-2.65982E-05-2.88114E-05 1.25414E-06-4.03721E-19 1.52035E-18
 -1      4051 9.34840E-05-2.62888E-05-2.87925E-05 1.13530E-06-2.75238E-19 8.40001E-19
 -1      4052 9.43549E-05-2.72135E-05-2.87786E-05 8.05339E-07-1.02886E-20 2.35771E-18
 -1      4053 9.42153E-05-2.70315E-05-2.87926E-05 9.46756E-07-5.08163E-19 2.37980E-18
 -1      4054 9.39556E-05-2.67809E-05-2.87849E-05 8.61072E-07-8.47724E-19 2.23722E-19
 -1      4055 9.46217E-05-2.75401E-05-2.87521E-05 5.90101E-07-1.58073E-19 2.87621E-18
 -1      4056 9.45158E-05-2.73912E-05-2.87672E-05 7.01839E-07 2.11170E-19 2.58649E-18
 -1      4057 9.43216E-05-2.71917E-05-2.87667E-05 6.41959E-07 2.02779E-19 1.39287E-18
 -1      4058 9.48218E-05-2.78029E-05-2.87246E-05 4.22698E-07-7.01218E-19 1.72724E-18
 -1      4059 9.47431E-05-2.76835E-05-2.87393E-05 5.09591E-07-6.73371E-20 2.69360E-18
 -1      4060 9.46007E-05-2.75273E-05-2.87433E-05 4.69302E-07-1.74112E-19 2.45572E-18
 -1      4061 9.49688E-05-2.80104E-05-2.86982E-05 2.94601E-07 1.67901E-19 2.19028E-19
 -1      4062 9.49116E-05-2.79164E-05-2.87118E-05 3.61058E-07-6.89640E-19 8.22667E-19
 -1      4063 9.48094E-05-2.77962E-05-2.87182E-05 3.35289E-07 4.42542E-21 8.82822E-19
 -1      4064 9.50743E-05-2.81710E-05-2.86741E-05 1.98266E-07 6.28956E-19 1.34760E-18
 -1      4065 9.50338E-05-2.80985E-05-2.86862E-05 2.48206E-07 6.65500E-19 1.26059E-18
 -1      4066 9.49624E-05-2.80076E-05-2.86936E-05 2.32938E-07-6.47616E-19-2.50054E-19
 -1      4067 9.51479E-05-2.82932E-05-2.86530E-05 1.27163E-07 5.89318E-19 2.16610E-18
 -1      4068 9.51201E-05-2.82382E-05-2.86633E-05 1.63986E-07 1.92636E-19 1.51075E-18
 -1      4069 9.50718E-05-2.81708E-05-2.86709E-05 1.56107E-07 4.51748E-19 1.01662E-18
 -1      4070 9.51974E-05-2.83843E-05-2.86349E-05 7.57696E-08 1.72837E-18 2.88407E-18
 -1      4071 9.51791E-05-2.83434E-05-2.86436E-05 1.02351E-07 1.56693E-18 2.91298E-18
 -1      4072 9.51478E-05-2.82945E-05-2.86508E-05 9.95107E-08 5.17073E-19 1.00029E-18
 -1      4073 9.52292E-05-2.84508E-05-2.86198E-05 3.95083E-08 1.60039E-18 3.08432E-18
 -1      4074 9.52178E-05-2.84211E-05-2.86270E-05 5.82307E-08 2.12742E-18 3.21374E-18
 -1      4075 9.51987E-05-2.83863E-05-2.86335E-05 5.86885E-08 2.04029E-18 1.54820E-18
 -1      4076 9.52481E-05-2.84983E-05-2.86074E-05 1.46654E-08 6.64943E-19 1.97995E-18
 -1      4077 9.52417E-05-2.84771E-05-2.86132E-05 2.74569E-08 1.22328E-18 2.98112E-18
 -1      4078 9.52311E-05-2.84531E-05-2.86189E-05 2.99559E-08 1.28990E-18 2.84551E-18
 -1      4079 9.52580E-05-2.85313E-05-2.85973E-05-1.59713E-09 3.74705E-19 8.06405E-19
 -1      4080 9.52550E-05-2.85167E-05-2.86020E-05 6.67886E-09 1.38286E-19 1.49235E-18
 -1      4081 9.52501E-05-2.85007E-05-2.86068E-05 1.03516E-08 6.27085E-19 2.22451E-18
 -1      4082 9.52615E-05-2.85510E-05-2.85903E-05-1.03818E-08-7.99836E-19 2.01583E-18
 -1      4083 9.52606E-05-2.85408E-05-2.85941E-05-5.34167E-09-1.34509E-19 1.96857E-18
 -1      4084 9.52592E-05-2.85305E-05-2.85980E-05-1.31753E-09-5.65685E-19 1.93658E-18
 -1      4085 9.52629E-05-2.85491E-05-2.85918E-05-7.70303E-09 2.99663E-19 2.66398E-18
 -1      4086 8.65459E-05-2.24667E-05-2.74914E-05 7.26433E-06-6.52650E-19-8.93231E-20
 -1      4087 8.61261E-05-2.26063E-05-2.72045E-05 8.16514E-06-6.68230E-19 3.31594E-19
 -1      4088 8.36449E-05-2.13949E-05-2.66536E-05 7.79452E-06-6.19240E-19-6.45816E-19
 -1      4089 8.38457E-05-2.37096E-05-2.58159E-05 1.20612E-05-1.12871E-18 6.24140E-19
 -1      4090 8.40566E-05-2.48787E-05-2.53030E-05 1.37493E-05-1.41508E-18 4.46082E-20
 -1      4091 8.15205E-05-2.17053E-05-2.56115E-05 1.03750E-05-1.06997E-18 1.86679E-19
 -1      4092 8.54008E-05-1.87395E-05-2.85751E-05-7.63682E-06 6.23863E-19-2.96638E-18
 -1      4093 8.52600E-05-1.77418E-05-2.89165E-05-6.58401E-06 8.20749E-19-3.03793E-18
 -1      4094 8.29801E-05-1.62115E-05-2.86646E-05-5.81088E-06 4.07935E-19-3.20809E-18
 -1      4095 8.54888E-05-1.98295E-05-2.81532E-05-8.92413E-06 2.48444E-19-2.83501E-18
 -1      4096 8.48170E-05-2.77405E-05-2.44035E-05 1.73395E-05-2.90123E-18-6.33024E-19
 -1      4097 7.86510E-05-2.47640E-05-2.29845E-05 1.77061E-05-2.90072E-18 1.23958E-19
 -1      4098 7.64204E-05-2.21701E-05-2.32967E-05 1.45984E-05-2.37577E-18-4.61104E-20
 -1      4099 8.41037E-05-2.61724E-05-2.49060E-05 1.55344E-05-1.76137E-18-2.92433E-19
 -1      4100 7.88123E-05-2.29378E-05-2.39847E-05 1.64701E-05 1.53203E-18-2.73428E-18
 -1      4101 6.96221E-05-1.68089E-05-2.23606E-05 1.27061E-05 1.13979E-18-3.39685E-18
 -1      4102 6.93694E-05-1.56415E-05-2.29252E-05 7.74473E-06 7.15174E-19-3.61618E-18
 -1      4103 7.84877E-05-2.02830E-05-2.50359E-05 1.29348E-05 7.94375E-19-2.83665E-18
 -1      4104 9.52633E-05-2.85698E-05-2.85830E-05 1.37867E-08-2.67363E-19-1.66898E-18
 -1      4105 9.52645E-05-2.85632E-05-2.85862E-05 1.04358E-08 7.95382E-20-2.29062E-18
 -1      4106 9.52655E-05-2.85689E-05-2.85843E-05-5.21158E-09 1.98276E-18 1.62807E-18
 -1      4107 9.52647E-05-2.85693E-05-2.85839E-05-9.37590E-09 1.69030E-18 1.16919E-18
 -1      4108 9.52651E-05-2.85580E-05-2.85886E-05-7.81688E-09 8.17675E-19 1.89042E-18
 -1      4109 9.52662E-05-2.85620E-05-2.85874E-05-2.67212E-09 8.51280E-19 5.26110E-19
 -1      4110 8.19317E-05-1.61327E-05-2.82378E-05 5.73906E-06-1.64582E-19-3.28325E-18
 -1      4111 8.14980E-05-1.71828E-05-2.75755E-05 7.27195E-06-2.52373E-20-3.15395E-18
 -1      4112 7.99761E-05-1.78180E-05-2.67079E-05 8.64318E-06 2.18688E-19-3.02601E-18
 -1      4113 7.95012E-05-1.90175E-05-2.59091E-05 1.06331E-05 4.93149E-19-3.01259E-18
 -1      4114 7.76160E-05-1.51495E-05-2.67033E-05 5.46793E-06 1.62202E-19-3.18594E-18
 -1      4115 8.79642E-05-2.26981E-05-2.79930E-05 5.78187E-06-2.82773E-19-2.28959E-19
 -1      4116 8.74685E-05-2.26031E-05-2.77900E-05 6.47579E-06-3.77141E-19-1.12850E-19
 -1      4117 8.55931E-05-2.16151E-05-2.73968E-05 6.02893E-06-3.58812E-19-1.29381E-18
 -1      4118 8.73246E-05-2.21348E-05-2.79195E-05 4.74972E-06 1.56378E-19-2.53162E-18
 -1      4119 7.14615E-05-1.70976E-05-2.31334E-05-6.59966E-06 3.33189E-19 9.06815E-19
 -1      4120 7.78665E-05-2.05135E-05-2.46197E-05-1.01117E-05 3.89372E-19 8.84040E-19
 -1      4121 7.89861E-05-2.02038E-05-2.52739E-05-8.46308E-06 1.49067E-19 1.10679E-18
 -1      4122 7.81100E-05-1.89188E-05-2.52816E-05-6.03737E-06-1.44171E-19 8.03407E-19
 -1      4123 6.57876E-05-1.42958E-05-2.18333E-05-6.52615E-06-8.56794E-20-4.25166E-18
 -1      4124 6.98812E-05-1.63264E-05-2.29865E-05-9.96011E-06-3.03559E-19-4.05554E-18
 -1      4125 6.70111E-05-1.41306E-05-2.26008E-05-1.70565E-06 2.17065E-19-4.09136E-18
 -1      4126 8.04139E-05-2.30453E-05-2.45350E-05 1.37372E-05-2.05921E-18-6.61175E-19
 -1      4127 9.52631E-05-2.85463E-05-2.85928E-05 5.88989E-09-1.34063E-18-2.37932E-18
 -1      4128 9.52640E-05-2.85564E-05-2.85891E-05 9.74449E-09-6.13538E-19-2.17929E-18
 -1      4129 6.89410E-05-1.68594E-05-2.21903E-05 7.39004E-06-8.80127E-19 1.90210E-19
 -1      4130 7.04824E-05-1.67344E-05-2.30720E-05 4.56726E-06-7.61516E-19-3.05111E-19
 -1      4131 7.25723E-05-1.88129E-05-2.30409E-05 1.02331E-05-1.74155E-18-8.39390E-20
 -1      4132 7.18046E-05-1.69495E-05-2.34907E-05-3.01151E-06-9.30545E-20 6.74990E-19
 -1      4133 7.89211E-05-2.27089E-05-2.40634E-05-1.66154E-05-8.87894E-19-3.60939E-18
 -1      4134 8.27753E-05-2.21706E-05-2.60187E-05-1.34390E-05-4.17964E-19-2.91083E-18
 -1      4135 7.47539E-05-1.67257E-05-2.49051E-05 9.32259E-06 7.60523E-19-3.01828E-18
 -1      4136 8.29809E-05-1.45625E-05-2.93438E-05 3.94395E-06-3.92592E-19-3.39567E-18
 -1      4137 8.13615E-05-1.61722E-05-2.79543E-05-6.05019E-06 3.48980E-19-3.23300E-18
 -1      4138 8.05677E-05-1.40580E-05-2.84669E-05 3.66265E-06-1.16989E-19-3.38106E-18
 -1      4139 7.47340E-05-1.87822E-05-2.37913E-05-1.31845E-05-5.34647E-19-4.08201E-18
 -1      4140 9.52655E-05-2.85552E-05-2.85902E-05-3.86380E-10-3.24764E-19 2.21379E-19
 -1      4141 9.52654E-05-2.85530E-05-2.85911E-05-2.97614E-09 7.27197E-19-3.08168E-19
 -1      4142 9.26036E-05-3.31149E-05-2.53999E-05-1.94201E-05-1.38207E-18-1.86565E-18
 -1      4143 9.52653E-05-2.85579E-05-2.85889E-05 6.72853E-09-5.48508E-19-1.33885E-18
 -1      4144 7.69164E-05-1.44814E-05-2.67109E-05-3.95334E-06 1.49048E-19-3.70231E-18
 -1      4145 7.58797E-05-1.38528E-05-2.65886E-05-1.73677E-06 2.12341E-20-3.51569E-18
 -1      4146 8.45626E-05-2.17107E-05-2.69539E-05-1.17929E-05-3.15412E-19-2.70138E-18
 -1      4147 8.42430E-05-2.03732E-05-2.74041E-05-1.02510E-05-6.33827E-20-2.81832E-18
 -1      4148 8.29168E-05-1.82909E-05-2.76339E-05-8.51336E-06 2.37799E-19-2.88765E-18
 -1      4149 7.95522E-05-1.89144E-05-2.58775E-05-1.11822E-05-2.48422E-19-3.32728E-18
 -1      4150 7.62188E-05-1.43628E-05-2.65416E-05 2.98475E-06 2.02980E-19-3.29840E-18
 -1      4151 9.52618E-05-2.85370E-05-2.85962E-05 2.74563E-09-1.53336E-18-1.47628E-18
 -1      4152 7.47760E-05-1.45714E-05-2.57591E-05 1.56168E-06 2.54458E-19-3.38342E-18
 -1      4153 9.52655E-05-2.85556E-05-2.85900E-05 2.73366E-09-1.03860E-19-1.35260E-19
 -1      4154 7.59018E-05-1.79891E-05-2.48942E-05-3.71622E-06-1.67837E-19-2.69872E-20
 -1      4155 7.84617E-05-1.86810E-05-2.56646E-05-3.50468E-06-3.84410E-19 3.75035E-19
 -1      4156 8.31579E-05-2.00629E-05-2.70596E-05-2.59454E-06-4.25801E-19 2.22477E-19
 -1      4157 8.43626E-05-2.05113E-05-2.73912E-05-2.21271E-06-2.24577E-20 4.75994E-19
 -1      4158 8.55836E-05-2.10212E-05-2.76812E-05-2.01996E-06-4.33973E-19 9.16375E-19
 -1      4159 8.65659E-05-2.14915E-05-2.79079E-05-1.74559E-06-3.89764E-19 1.45239E-18
 -1      4160 8.46495E-05-2.04565E-05-2.74656E-05-8.42515E-07 9.29619E-20 4.38206E-19
 -1      4161 8.75501E-05-2.19917E-05-2.81055E-05-1.60101E-06-4.84284E-19 1.31261E-18
 -1      4162 8.83630E-05-2.24608E-05-2.82577E-05-1.38879E-06 1.17745E-19 1.38729E-18
 -1      4163 8.68162E-05-2.15068E-05-2.79555E-05-6.71124E-07-4.65918E-19 1.56363E-18
 -1      4164 8.91668E-05-2.29427E-05-2.83889E-05-1.27649E-06 2.05605E-19 1.38655E-18
 -1      4165 8.98391E-05-2.33934E-05-2.84873E-05-1.10531E-06 5.95083E-19 1.28765E-18
 -1      4166 8.85809E-05-2.25182E-05-2.82863E-05-5.36996E-07-1.38882E-19 8.86734E-19
 -1      4167 9.04963E-05-2.38442E-05-2.85709E-05-1.01644E-06 7.61586E-19 6.40321E-19
 -1      4168 9.10488E-05-2.42625E-05-2.86309E-05-8.75169E-07 9.88052E-19-3.45523E-19
 -1      4169 9.00261E-05-2.34721E-05-2.85026E-05-4.29277E-07 3.57357E-20 1.01111E-18
 -1      4170 9.15831E-05-2.46723E-05-2.86807E-05-8.04185E-07 8.84536E-19-1.41978E-18
 -1      4171 9.20324E-05-2.50487E-05-2.87137E-05-6.86635E-07 5.08774E-19-1.70720E-18
 -1      4172 9.12064E-05-2.43489E-05-2.86372E-05-3.41123E-07 1.10501E-19-9.75857E-19
 -1      4173 9.24627E-05-2.54112E-05-2.87400E-05-6.29895E-07 1.64902E-19-2.35433E-18
 -1      4174 9.28234E-05-2.57409E-05-2.87547E-05-5.32264E-07-6.99344E-19-2.55177E-18
 -1      4175 9.21630E-05-2.51340E-05-2.87141E-05-2.68426E-07-3.57170E-19-2.84605E-18
 -1      4176 9.31658E-05-2.60538E-05-2.87651E-05-4.87158E-07-9.70879E-19-2.37260E-18
 -1      4177 9.34511E-05-2.63355E-05-2.87678E-05-4.06735E-07-1.63572E-18-1.86092E-18
 -1      4178 9.29298E-05-2.58201E-05-2.87515E-05-2.08575E-07-8.84457E-19-2.61829E-18
 -1      4179 9.37198E-05-2.65996E-05-2.87680E-05-3.71224E-07-1.44233E-18-1.10205E-18
 -1      4180 9.39421E-05-2.68351E-05-2.87632E-05-3.05761E-07-3.65119E-19-4.80409E-19
 -1      4181 9.35364E-05-2.64059E-05-2.87627E-05-1.59691E-07-4.48404E-19-1.12599E-18
 -1      4182 9.41497E-05-2.70534E-05-2.87572E-05-2.78155E-07 6.33915E-20-3.67730E-19
 -1      4183 9.43201E-05-2.72464E-05-2.87482E-05-2.25608E-07-2.34996E-19 3.43295E-19
 -1      4184 9.40093E-05-2.68957E-05-2.87572E-05-1.20229E-07 1.39585E-19-4.24438E-19
 -1      4185 9.44778E-05-2.74234E-05-2.87388E-05-2.04460E-07 4.88141E-20 3.63902E-19
 -1      4186 9.46061E-05-2.75785E-05-2.87279E-05-1.62915E-07 4.66827E-19 1.25504E-18
 -1      4187 9.43721E-05-2.72972E-05-2.87421E-05-8.88173E-08-3.16747E-20-4.16433E-19
 -1      4188 9.47237E-05-2.77194E-05-2.87171E-05-1.46979E-07 2.31584E-19 1.16396E-18
 -1      4189 9.48185E-05-2.78418E-05-2.87056E-05-1.14653E-07 4.54811E-19 1.51401E-18
 -1      4190 9.46456E-05-2.76201E-05-2.87220E-05-6.41933E-08 5.30286E-19 2.44813E-19
 -1      4191 9.49044E-05-2.79519E-05-2.86946E-05-1.02862E-07-1.47856E-19 1.31169E-18
 -1      4192 9.49728E-05-2.80468E-05-2.86835E-05-7.81252E-08-3.90360E-19 6.42164E-19
 -1      4193 9.48479E-05-2.78752E-05-2.87003E-05-4.52033E-08 1.49815E-19 3.69857E-19
 -1      4194 9.50341E-05-2.81313E-05-2.86731E-05-6.95785E-08-1.01967E-18-1.48377E-19
 -1      4195 9.50822E-05-2.82035E-05-2.86630E-05-5.09813E-08-6.57302E-19-1.42368E-18
 -1      4196 9.49943E-05-2.80731E-05-2.86789E-05-3.08096E-08-1.07981E-18-6.50698E-19
 -1      4197 9.51247E-05-2.82672E-05-2.86535E-05-4.49303E-08 4.47590E-19-1.42668E-18
 -1      4198 9.51574E-05-2.83211E-05-2.86446E-05-3.12145E-08 9.96983E-19-8.32642E-19
 -1      4199 9.50975E-05-2.82238E-05-2.86590E-05-2.01004E-08-5.87593E-20-1.02331E-18
 -1      4200 9.51858E-05-2.83681E-05-2.86363E-05-2.70483E-08 2.41259E-19-1.62608E-18
 -1      4201 9.52070E-05-2.84075E-05-2.86287E-05-1.71482E-08 2.08430E-19-1.73769E-18
 -1      4202 9.51679E-05-2.83365E-05-2.86413E-05-1.22938E-08 5.41855E-20-2.11865E-18
 -1      4203 9.52250E-05-2.84415E-05-2.86216E-05-1.43728E-08 9.21955E-19-2.75801E-18
 -1      4204 9.52379E-05-2.84697E-05-2.86152E-05-7.39879E-09 1.11391E-18-2.58397E-18
 -1      4205 9.52139E-05-2.84189E-05-2.86259E-05-6.73463E-09 8.53026E-21-2.12586E-18
 -1      4206 9.52484E-05-2.84937E-05-2.86092E-05-5.73186E-09 6.53901E-19-2.55902E-18
 -1      4207 9.52554E-05-2.85135E-05-2.86039E-05-6.71422E-10 1.26676E-19-2.05012E-18
 -1      4208 9.52422E-05-2.84781E-05-2.86129E-05-2.93139E-09 6.34132E-19-2.81714E-18
 -1      4209 9.11113E-05-2.42998E-05-2.86441E-05 1.73961E-06 2.16276E-19-8.24809E-19
 -1      4210 9.06081E-05-2.39117E-05-2.85864E-05 1.98468E-06 3.81160E-19-6.64900E-19
 -1      4211 7.30963E-05-1.68017E-05-2.40063E-05-4.53256E-08-5.95765E-19-2.09409E-20
 -1      4212 8.85487E-05-2.26339E-05-2.82666E-05 2.76436E-06-2.27027E-19-1.40666E-18
 -1      4213 8.78406E-05-2.22381E-05-2.81178E-05 3.13540E-06-7.30698E-20-1.85464E-18
 -1      4214 9.28375E-05-2.57292E-05-2.87675E-05 1.06079E-06-7.43941E-19 5.50889E-20
 -1      4215 9.25029E-05-2.54116E-05-2.87548E-05 1.22832E-06-7.96737E-19-5.46482E-21
 -1      4216 9.34540E-05-2.63147E-05-2.87794E-05 8.12714E-07-1.42707E-19-4.39454E-19
 -1      4217 9.31880E-05-2.60402E-05-2.87786E-05 9.50048E-07-8.13598E-20-1.45300E-19
 -1      4218 9.28641E-05-2.57412E-05-2.87559E-05 7.23197E-07-4.15914E-19-1.24289E-18
 -1      4219 9.39385E-05-2.68106E-05-2.87734E-05 6.13045E-07-5.03387E-19-4.69920E-19
 -1      4220 9.37305E-05-2.65791E-05-2.87798E-05 7.24363E-07-5.70946E-19-4.25904E-19
 -1      4221 9.34802E-05-2.63331E-05-2.87688E-05 5.52876E-07 2.32553E-19-8.38276E-19
 -1      4222 9.43130E-05-2.72214E-05-2.87569E-05 4.54306E-07-2.18201E-19 3.18802E-19
 -1      4223 9.41533E-05-2.70305E-05-2.87673E-05 5.43333E-07-5.05147E-19-2.05614E-19
 -1      4224 9.39626E-05-2.68313E-05-2.87640E-05 4.16199E-07-7.48425E-19-1.95850E-18
 -1      4225 9.45976E-05-2.75550E-05-2.87351E-05 3.29862E-07 6.03720E-19 3.05990E-20
 -1      4226 9.44771E-05-2.74006E-05-2.87473E-05 4.00022E-07 6.44040E-19 7.75853E-19
 -1      4227 9.43342E-05-2.72420E-05-2.87489E-05 3.07807E-07 1.26173E-19-1.54271E-18
 -1      4228 9.48097E-05-2.78208E-05-2.87115E-05 2.33777E-07-7.20316E-19-3.44057E-19
 -1      4229 9.47207E-05-2.76983E-05-2.87239E-05 2.88212E-07 2.68362E-19-4.99656E-19
 -1      4230 9.46155E-05-2.75742E-05-2.87284E-05 2.23010E-07 6.36935E-19-1.94645E-18
 -1      4231 9.49646E-05-2.80288E-05-2.86883E-05 1.60791E-07-1.02275E-18-4.81991E-19
 -1      4232 9.49002E-05-2.79333E-05-2.87001E-05 2.02335E-07-1.48830E-18-6.17902E-19
 -1      4233 9.48245E-05-2.78378E-05-2.87060E-05 1.57660E-07-6.31228E-19-1.41240E-18
 -1      4234 9.50749E-05-2.81885E-05-2.86667E-05 1.06321E-07 1.42925E-19-2.27205E-19
 -1      4235 9.50296E-05-2.81155E-05-2.86774E-05 1.37474E-07-1.63808E-20-5.54046E-19
 -1      4236 9.49765E-05-2.80432E-05-2.86838E-05 1.08106E-07-4.74097E-19-2.55205E-18
 -1      4237 9.51512E-05-2.83088E-05-2.86475E-05 6.64483E-08 1.14123E-18-3.47607E-19
 -1      4238 9.51204E-05-2.82541E-05-2.86569E-05 8.93670E-08 4.40952E-19-2.03285E-19
 -1      4239 9.50842E-05-2.82005E-05-2.86632E-05 7.11875E-08 1.28113E-19-2.00314E-18
 -1      4240 9.52020E-05-2.83978E-05-2.86309E-05 3.78965E-08 8.78241E-19 1.19843E-18
 -1      4241 9.51819E-05-2.83575E-05-2.86389E-05 5.43984E-08 1.06648E-18 2.97651E-19
 -1      4242 9.51583E-05-2.83185E-05-2.86448E-05 4.42121E-08 1.86855E-19-1.51753E-18
 -1      4243 9.52340E-05-2.84621E-05-2.86169E-05 1.79779E-08 6.79654E-19 2.92058E-18
 -1      4244 9.52218E-05-2.84331E-05-2.86236E-05 2.95607E-08 1.16474E-18 2.51110E-18
 -1      4245 9.52072E-05-2.84055E-05-2.86288E-05 2.49362E-08 3.05296E-19 9.69875E-19
 -1      4246 9.52526E-05-2.85074E-05-2.86053E-05 4.70953E-09 3.91672E-19 2.56901E-18
 -1      4247 9.52459E-05-2.84871E-05-2.86108E-05 1.23706E-08 1.06227E-18 3.10235E-18
 -1      4248 9.52377E-05-2.84681E-05-2.86152E-05 1.15151E-08 8.44579E-19 2.55161E-18
 -1      4249 7.95618E-05-2.00063E-05-2.55810E-05 7.61796E-06-7.01684E-19-6.86658E-19
 -1      4250 7.83624E-05-2.01641E-05-2.49350E-05 9.08038E-06-1.80861E-18-7.12384E-19
 -1      4251 8.99491E-05-2.34825E-05-2.84991E-05 2.19734E-06-1.92869E-19-1.06551E-18
 -1      4252 8.93474E-05-2.30788E-05-2.84033E-05 2.49578E-06-2.04014E-19-1.36028E-18
 -1      4253 8.85134E-05-2.25023E-05-2.82609E-05 1.90926E-06-3.67382E-19-6.84521E-19
 -1      4254 8.99471E-05-2.34172E-05-2.84897E-05 1.51118E-06-2.72968E-19-1.25575E-18
 -1      4255 7.05068E-05-1.45515E-05-2.39512E-05 5.01256E-06 5.60796E-19-3.58752E-18
 -1      4256 9.52646E-05-2.85511E-05-2.85915E-05-4.66746E-09 6.37394E-19 3.14192E-19
 -1      4257 9.52638E-05-2.85496E-05-2.85919E-05-6.52805E-09 7.26569E-19 1.91482E-18
 -1      4258 9.52626E-05-2.85410E-05-2.85949E-05-3.72011E-09 4.27733E-19 2.30678E-18
 -1      4259 9.52639E-05-2.85431E-05-2.85945E-05-2.04524E-09 2.56745E-19-3.20070E-19
 -1      4260 8.02484E-05-1.91776E-05-2.62013E-05-3.28033E-06-4.25249E-19 6.41379E-20
 -1      4261 8.17322E-05-1.95777E-05-2.66745E-05-2.74132E-06-6.44491E-19-1.66086E-19
 -1      4262 8.20560E-05-1.93989E-05-2.67862E-05-9.67881E-07-1.21153E-19-9.38478E-19
 -1      4263 7.88605E-05-1.83008E-05-2.58599E-05-1.01694E-06-6.59551E-19-1.13781E-18
 -1      4264 7.63654E-05-1.99592E-05-2.42472E-05 9.94877E-06-1.55393E-18-7.21096E-19
 -1      4265 7.62908E-05-2.07953E-05-2.37655E-05 1.17029E-05-1.66970E-18-4.14449E-19
 -1      4266 8.24840E-05-2.04281E-05-2.66433E-05 5.74434E-06-6.46276E-19-7.02522E-19
 -1      4267 8.14338E-05-2.03152E-05-2.61931E-05 6.67332E-06-1.46414E-19-2.10876E-19
 -1      4268 7.88917E-05-1.90048E-05-2.55982E-05 5.35284E-06-1.05319E-18-1.87422E-18
 -1      4269 7.28246E-05-1.68996E-05-2.40362E-05-9.45255E-06-2.15676E-19-3.85098E-18
 -1      4270 7.98838E-05-1.66400E-05-2.71801E-05-7.16208E-06 1.39240E-19-3.40611E-18
 -1      4271 7.75910E-05-1.63298E-05-2.62846E-05-6.88719E-06 3.92936E-20-3.42368E-18
 -1      4272 9.20650E-05-2.50548E-05-2.87271E-05 1.36604E-06-8.69946E-19-1.96585E-19
 -1      4273 9.16513E-05-2.46976E-05-2.86963E-05 1.56883E-06-3.62013E-19-2.34884E-19
 -1      4274 9.11268E-05-2.42749E-05-2.86328E-05 1.19225E-06-3.60822E-19-8.15146E-19
 -1      4275 9.52647E-05-2.85473E-05-2.85931E-05 2.60097E-09-7.54298E-19-3.10478E-19
 -1      4276 9.52622E-05-2.85348E-05-2.85975E-05 1.84475E-10-3.44347E-19-6.68623E-19
 -1      4277 9.52592E-05-2.85248E-05-2.86004E-05-2.92723E-10 8.34866E-19-1.17013E-18
 -1      4278 8.31700E-05-1.53548E-05-2.90871E-05 4.76555E-06-3.23494E-19-3.28973E-18
 -1      4279 7.53935E-05-1.65793E-05-2.52697E-05-7.88498E-06-1.11911E-19-3.70267E-18
 -1      4280 6.98056E-05-1.38936E-05-2.39687E-05-7.05545E-07 2.63794E-19-3.81681E-18
 -1      4281 9.20889E-05-2.50536E-05-2.87152E-05 9.33562E-07-1.09480E-18-7.99840E-19
 -1      4282 7.49594E-05-1.81392E-05-2.42867E-05 6.62151E-06-1.29694E-18-1.63589E-18
 -1      4283 9.52602E-05-2.85314E-05-2.85981E-05-1.94520E-09-7.55637E-19 2.44422E-18
 -1      4284 9.52574E-05-2.85202E-05-2.86016E-05 1.99796E-09-4.68706E-19 2.10790E-18
 -1      4285 9.52532E-05-2.85070E-05-2.86054E-05 3.36064E-09 5.72736E-19 2.75892E-18
 -1      4286 9.52610E-05-2.85320E-05-2.85982E-05-1.26171E-09 3.57317E-20 1.26623E-18
 -1      4287 8.39434E-05-2.07687E-05-2.70730E-05 5.08150E-06-4.70675E-19-1.03645E-18
 -1      4288 8.20963E-05-1.97508E-05-2.66576E-05 4.02455E-06-4.58558E-19-1.17368E-18
 -1      4289 8.48741E-05-2.10360E-05-2.73920E-05 4.43249E-06 6.80670E-20-1.58378E-18
 -1      4290 8.67789E-05-2.15600E-05-2.79126E-05 2.41842E-06 1.28024E-19-1.11250E-18
 -1      4291 8.68734E-05-2.17988E-05-2.79127E-05 3.48385E-06 1.92428E-19-2.04092E-18
 -1      4292 8.60540E-05-2.14446E-05-2.76913E-05 3.96205E-06 4.69430E-19-1.63537E-18
 -1      4293 9.20547E-05-2.50870E-05-2.87106E-05 2.78155E-07-3.65725E-19-1.60662E-18
 -1      4294 9.16088E-05-2.47077E-05-2.86794E-05 3.65129E-07-7.52905E-19-1.62814E-18
 -1      4295 8.65698E-05-2.14887E-05-2.79198E-05 7.39494E-07-3.70837E-19 1.40595E-19
 -1      4296 8.75619E-05-2.19939E-05-2.81175E-05 7.44159E-07-1.83176E-19 2.25981E-19
 -1      4297 8.83787E-05-2.24807E-05-2.82632E-05 5.81943E-07-1.99915E-19 1.04795E-19
 -1      4298 8.91883E-05-2.29642E-05-2.83946E-05 5.87610E-07-2.14482E-19-3.95390E-19
 -1      4299 8.98606E-05-2.34256E-05-2.84886E-05 4.57978E-07-1.51206E-19-4.75233E-19
 -1      4300 9.05217E-05-2.38758E-05-2.85723E-05 4.64260E-07-1.72457E-20-5.93693E-19
 -1      4301 9.10718E-05-2.43001E-05-2.86294E-05 3.58523E-07-6.30106E-19-4.48447E-19
 -1      4302 9.24868E-05-2.54467E-05-2.87372E-05 2.84762E-07-6.38260E-19-2.15067E-18
 -1      4303 9.28437E-05-2.57772E-05-2.87508E-05 2.13279E-07-2.90168E-19-1.69738E-18
 -1      4304 9.31872E-05-2.60870E-05-2.87615E-05 2.19593E-07-1.99807E-20-1.16174E-18
 -1      4305 9.34689E-05-2.63683E-05-2.87637E-05 1.61246E-07-1.36833E-19-1.75883E-18
 -1      4306 9.37382E-05-2.66293E-05-2.87641E-05 1.67047E-07 5.61970E-20-1.23731E-18
 -1      4307 9.39572E-05-2.68637E-05-2.87592E-05 1.19930E-07-3.92551E-19-1.59891E-18
 -1      4308 9.41651E-05-2.70792E-05-2.87534E-05 1.25082E-07-6.00360E-19-2.07434E-18
 -1      4309 9.43326E-05-2.72706E-05-2.87445E-05 8.75228E-08 2.51189E-19-2.10520E-18
 -1      4310 9.44904E-05-2.74451E-05-2.87354E-05 9.19682E-08 8.20389E-19-1.79655E-18
 -1      4311 9.46162E-05-2.75986E-05-2.87246E-05 6.24546E-08 3.23983E-19-1.27436E-18
 -1      4312 9.47339E-05-2.77373E-05-2.87140E-05 6.61938E-08 6.34121E-20-1.62389E-18
 -1      4313 9.48265E-05-2.78581E-05-2.87028E-05 4.33562E-08 8.86184E-21-1.71337E-18
 -1      4314 9.49124E-05-2.79664E-05-2.86919E-05 4.64305E-08-5.08843E-19-1.69794E-18
 -1      4315 9.49790E-05-2.80597E-05-2.86812E-05 2.90454E-08-5.35710E-19-1.91268E-18
 -1      4316 9.50403E-05-2.81428E-05-2.86709E-05 3.15205E-08-3.76405E-19-1.97703E-18
 -1      4317 9.50869E-05-2.82136E-05-2.86610E-05 1.85165E-08-4.16463E-19-1.73301E-18
 -1      4318 9.51293E-05-2.82761E-05-2.86517E-05 2.04694E-08 2.93696E-19-1.94786E-18
 -1      4319 9.51609E-05-2.83288E-05-2.86430E-05 1.09284E-08 1.70704E-19-1.91534E-18
 -1      4320 9.51891E-05-2.83749E-05-2.86348E-05 1.24375E-08-4.29913E-19-2.42115E-18
 -1      4321 9.52095E-05-2.84133E-05-2.86274E-05 5.59169E-09-3.49194E-19-1.36078E-18
 -1      4322 9.52274E-05-2.84466E-05-2.86204E-05 6.73371E-09 2.88532E-19-1.06832E-18
 -1      4323 9.52396E-05-2.84739E-05-2.86142E-05 1.99278E-09 5.57199E-19-1.73286E-20
 -1      4324 9.52500E-05-2.84975E-05-2.86083E-05 2.81189E-09 1.16656E-18-2.68098E-20
 -1      4325 8.43507E-05-2.04731E-05-2.74126E-05 9.48809E-07 4.41279E-19-4.60811E-19
 -1      4326 8.55776E-05-2.09906E-05-2.77023E-05 9.49066E-07 1.23316E-19-7.21120E-20
 -1      4327 7.46181E-05-1.75342E-05-2.44672E-05 2.65142E-06-1.22482E-18-1.13580E-18
 -1      4328 9.52616E-05-2.85338E-05-2.85978E-05-3.26067E-10 6.71770E-19 3.25178E-19
 -1      4329 7.21066E-05-1.45233E-05-2.46217E-05-4.83374E-06 2.99042E-20-3.82101E-18
 -1      4330 9.52551E-05-2.85115E-05-2.86044E-05 4.91212E-11 7.54434E-19 1.54690E-19
 -1      4331 7.64901E-05-1.80482E-05-2.50868E-05 2.45981E-06-1.38603E-18-1.45513E-18
 -1      4332 8.17098E-05-1.94957E-05-2.67143E-05 1.32978E-06-2.46864E-20-1.24981E-18
 -1      4333 8.31379E-05-1.99815E-05-2.70950E-05 1.22886E-06 4.14502E-19-1.04528E-18
 -1      4334 7.83622E-05-1.84785E-05-2.57241E-05 1.94523E-06-1.04469E-18-1.46442E-18
 -1      4335 8.02134E-05-1.90166E-05-2.62617E-05 1.73434E-06-7.55532E-19-1.47559E-18
 -1      4336 8.46722E-05-2.06279E-05-2.73991E-05 3.09227E-06 5.60824E-19-2.05055E-18
 -3
    1PSTEP                         4           1           1          
  100CL  101 1.000000000        4336                     0    1           1
 -4  ERROR       1    1
 -5  STR(%)      1    1    0    0
 -1         1 1.19184E+01
 -1         2 2.45926E+01
 -1         3 3.81553E-04
 -1         4 4.59816E-04
 -1         5 1.31617E+01
 -1         6 1.22545E+01
 -1         7 1.22545E+01
 -1         8 3.58075E+00
 -1         9 2.06285E+00
 -1        10 1.51691E+00
 -1        11 1.20422E+00
 -1        12 9.49130E-01
 -1        13 7.28154E-01
 -1        14 5.44064E-01
 -1        15 5.51326E-01
 -1        16 7.37684E-01
 -1        17 9.46386E-01
 -1        18 1.21415E+00
 -1        19 1.53473E+00
 -1        20 2.07222E+00
 -1        21 3.43191E+00
 -1        22 8.04721E+00
 -1        23 1.22545E+01
 -1        24 3.78922E+00
 -1        25 2.48183E+00
 -1        26 1.49968E+00
 -1        27 8.72405E-01
 -1        28 8.22775E-01
 -1        29 1.10435E+00
 -1        30 1.14403E+00
 -1        31 1.19686E+00
 -1        32 1.21382E+00
 -1        33 1.72055E+00
 -1        34 2.97640E+00
 -1        35 4.02037E+00
 -1        36 4.02037E+00
 -1        37 4.03631E+00
 -1        38 4.03631E+00
 -1        39 2.94763E+00
 -1        40 1.81322E+00
 -1        41 1.41183E+00
 -1        42 1.41183E+00
 -1        43 1.35771E+00
 -1        44 1.35771E+00
 -1        45 1.22540E+00
 -1        46 1.01374E+00
 -1        47 8.09312E-01
 -1        48 6.35822E-01
 -1        49 5.16183E-01
 -1        50 4.33263E-01
 -1        51 3.50846E-01
 -1        52 2.75662E-01
 -1        53 2.10816E-01
 -1        54 1.57116E-01
 -1        55 1.14045E-01
 -1        56 9.53498E-02
 -1        57 7.81241E-02
 -1        58 6.26416E-02
 -1        59 4.92243E-02
 -1        60 3.79176E-02
 -1        61 2.86013E-02
 -1        62 2.19877E-02
 -1        63 1.81600E-02
 -1        64 1.46232E-02
 -1        65 1.14469E-02
 -1        66 8.63294E-03
 -1        67 6.27522E-03
 -1        68 4.49847E-03
 -1        69 3.95883E-03
 -1        70 3.07853E-03
 -1        71 2.25550E-03
 -1        72 1.31617E+01
 -1        73 3.07376E+00
 -1        74 1.89555E+00
 -1        75 1.37285E+00
 -1        76 9.99822E-01
 -1        77 7.63784E-01
 -1        78 8.06748E-01
 -1        79 9.54389E-01
 -1        80 1.22977E+00
 -1        81 1.33216E+00
 -1        82 1.69147E+00
 -1        83 2.11418E+00
 -1        84 3.19412E+00
 -1        85 3.51674E+00
 -1        86 3.97121E+00
 -1        87 3.97121E+00
 -1        88 3.21597E+00
 -1        89 1.89617E+00
 -1        90 1.27260E+00
 -1        91 1.10611E+00
 -1        92 1.29987E+00
 -1        93 1.29987E+00
 -1        94 1.27350E+00
 -1        95 1.12876E+00
 -1        96 9.51604E-01
 -1        97 7.86767E-01
 -1        98 6.22499E-01
 -1        99 4.73948E-01
 -1       100 3.47937E-01
 -1       101 2.73746E-01
 -1       102 2.09785E-01
 -1       103 1.56652E-01
 -1       104 1.13927E-01
 -1       105 8.04991E-02
 -1       106 5.49795E-02
 -1       107 4.47240E-02
 -1       108 3.68465E-02
 -1       109 2.96993E-02
 -1       110 2.34465E-02
 -1       111 1.89949E-02
 -1       112 1.67381E-02
 -1       113 1.42879E-02
 -1       114 1.18424E-02
 -1       115 9.50014E-03
 -1       116 7.34916E-03
 -1       117 5.52761E-03
 -1       118 3.91902E-03
 -1       119 3.04226E-03
 -1       120 1.60891E-03
 -1       121 7.65784E-04
 -1       122 7.65784E-04
 -1       123 4.84923E-04
 -1       124 1.81377E-04
 -1       125 3.72062E-04
 -1       126 4.96443E-04
 -1       127 5.62693E-04
 -1       128 5.79538E-04
 -1       129 5.79538E-04
 -1       130 5.61825E-04
 -1       131 4.90711E-04
 -1       132 3.70650E-04
 -1       133 1.78105E-04
 -1       134 4.93510E-04
 -1       135 1.01465E-03
 -1       136 1.26796E-03
 -1       137 2.51546E+01
 -1       138 4.73581E+01
 -1       139 4.73581E+01
 -1       140 1.99543E+01
 -1       141 1.21525E+01
 -1       142 1.24435E+01
 -1       143 1.24435E+01
 -1       144 1.28125E+01
 -1       145 1.28125E+01
 -1       146 1.20034E+01
 -1       147 2.66752E+01
 -1       148 2.94826E+01
 -1       149 2.94826E+01
 -1       150 2.47044E+01
 -1       151 2.72753E+01
 -1       152 2.72753E+01
 -1       153 3.73008E+01
 -1       154 3.73008E+01
 -1       155 1.44019E+01
 -1       156 1.19184E+01
 -1       157 1.18032E+01
 -1       158 1.19909E+01
 -1       159 1.19909E+01
 -1       160 1.17908E+01
 -1       161 2.58931E+01
 -1       162 2.96007E+01
 -1       163 2.96007E+01
 -1       164 2.48159E+01
 -1       165 5.78992E+00
 -1       166 2.50843E+00
 -1       167 1.77167E+00
 -1       168 1.35791E+00
 -1       169 1.05874E+00
 -1       170 8.14038E-01
 -1       171 6.05938E-01
 -1       172 4.48971E-01
 -1       173 6.14048E-01
 -1       174 8.16038E-01
 -1       175 1.07098E+00
 -1       176 1.37506E+00
 -1       177 1.79181E+00
 -1       178 2.49698E+00
 -1       179 3.78629E+00
 -1       180 1.31617E+01
 -1       181 3.78922E+00
 -1       182 2.48183E+00
 -1       183 1.49968E+00
 -1       184 8.72405E-01
 -1       185 7.74477E-01
 -1       186 8.22775E-01
 -1       187 1.10435E+00
 -1       188 1.14403E+00
 -1       189 1.19686E+00
 -1       190 1.21382E+00
 -1       191 1.84571E+00
 -1       192 2.97640E+00
 -1       193 4.02037E+00
 -1       194 3.99040E+00
 -1       195 4.03631E+00
 -1       196 2.94763E+00
 -1       197 1.81322E+00
 -1       198 1.30849E+00
 -1       199 1.41183E+00
 -1       200 1.30479E+00
 -1       201 1.35771E+00
 -1       202 1.22540E+00
 -1       203 1.01374E+00
 -1       204 8.52497E-01
 -1       205 7.39550E-01
 -1       206 6.07736E-01
 -1       207 4.77857E-01
 -1       208 3.61424E-01
 -1       209 2.75662E-01
 -1       210 2.15084E-01
 -1       211 1.65872E-01
 -1       212 1.24943E-01
 -1       213 9.53498E-02
 -1       214 7.81241E-02
 -1       215 6.26416E-02
 -1       216 4.92243E-02
 -1       217 3.79176E-02
 -1       218 2.87692E-02
 -1       219 2.23520E-02
 -1       220 1.81600E-02
 -1       221 1.46232E-02
 -1       222 1.14469E-02
 -1       223 8.83052E-03
 -1       224 6.64178E-03
 -1       225 4.94543E-03
 -1       226 3.95883E-03
 -1       227 3.07853E-03
 -1       228 2.25550E-03
 -1       229 3.07376E+00
 -1       230 1.89555E+00
 -1       231 1.37285E+00
 -1       232 9.99822E-01
 -1       233 7.63784E-01
 -1       234 6.90822E-01
 -1       235 8.06748E-01
 -1       236 9.54389E-01
 -1       237 1.22977E+00
 -1       238 1.33216E+00
 -1       239 1.69147E+00
 -1       240 2.25914E+00
 -1       241 3.19412E+00
 -1       242 3.51674E+00
 -1       243 3.97121E+00
 -1       244 3.21597E+00
 -1       245 1.89617E+00
 -1       246 1.27260E+00
 -1       247 1.06679E+00
 -1       248 1.10611E+00
 -1       249 1.29987E+00
 -1       250 1.27350E+00
 -1       251 1.12876E+00
 -1       252 9.51604E-01
 -1       253 7.91623E-01
 -1       254 6.45021E-01
 -1       255 5.05384E-01
 -1       256 3.82284E-01
 -1       257 2.79490E-01
 -1       258 2.09785E-01
 -1       259 1.56652E-01
 -1       260 1.14850E-01
 -1       261 8.33893E-02
 -1       262 5.88852E-02
 -1       263 4.47240E-02
 -1       264 3.68465E-02
 -1       265 2.96993E-02
 -1       266 2.34465E-02
 -1       267 1.89949E-02
 -1       268 1.67381E-02
 -1       269 1.42879E-02
 -1       270 1.18424E-02
 -1       271 9.50014E-03
 -1       272 7.34916E-03
 -1       273 5.52761E-03
 -1       274 3.91902E-03
 -1       275 3.04226E-03
 -1       276 1.75778E-03
 -1       277 8.36153E-04
 -1       278 8.36153E-04
 -1       279 6.44533E-04
 -1       280 6.10548E-04
 -1       281 8.60724E-04
 -1       282 1.00317E-03
 -1       283 1.05634E-03
 -1       284 1.05634E-03
 -1       285 1.05597E-03
 -1       286 9.97943E-04
 -1       287 8.59830E-04
 -1       288 6.16398E-04
 -1       289 6.30660E-04
 -1       290 6.30660E-04
 -1       291 1.26467E-03
 -1       292 2.95462E+01
 -1       293 2.84531E+01
 -1       294 4.73581E+01
 -1       295 2.10588E+01
 -1       296 1.11040E+01
 -1       297 1.21525E+01
 -1       298 1.24435E+01
 -1       299 1.20396E+01
 -1       300 1.28125E+01
 -1       301 1.16666E+01
 -1       302 1.20034E+01
 -1       303 2.78138E+01
 -1       304 2.94826E+01
 -1       305 2.47044E+01
 -1       306 2.93672E+01
 -1       307 2.93672E+01
 -1       308 3.47781E+01
 -1       309 3.73008E+01
 -1       310 1.44019E+01
 -1       311 1.12176E+01
 -1       312 1.19184E+01
 -1       313 1.18032E+01
 -1       314 1.17124E+01
 -1       315 1.19909E+01
 -1       316 1.17908E+01
 -1       317 1.17595E+01
 -1       318 2.79123E+01
 -1       319 3.15401E+01
 -1       320 3.15401E+01
 -1       321 2.95462E+01
 -1       322 1.43010E+00
 -1       323 2.49342E+00
 -1       324 1.00171E+00
 -1       325 8.21597E-01
 -1       326 6.25428E-01
 -1       327 4.61138E-01
 -1       328 4.72602E-01
 -1       329 6.32641E-01
 -1       330 8.27209E-01
 -1       331 1.00810E+00
 -1       332 1.20670E+00
 -1       333 1.48416E+00
 -1       334 1.56754E+00
 -1       335 1.72075E+00
 -1       336 1.32954E+00
 -1       337 1.02056E+00
 -1       338 6.64504E-01
 -1       339 6.44915E-01
 -1       340 7.09812E-01
 -1       341 7.58493E-01
 -1       342 7.34118E-01
 -1       343 8.03278E-01
 -1       344 8.58365E-01
 -1       345 1.30189E+00
 -1       346 1.83520E+00
 -1       347 2.37136E+00
 -1       348 2.47316E+00
 -1       349 2.51259E+00
 -1       350 2.37332E+00
 -1       351 1.80548E+00
 -1       352 1.22691E+00
 -1       353 8.59419E-01
 -1       354 7.92538E-01
 -1       355 9.65912E-01
 -1       356 1.03910E+00
 -1       357 9.78399E-01
 -1       358 8.72907E-01
 -1       359 7.80647E-01
 -1       360 6.74170E-01
 -1       361 5.56116E-01
 -1       362 4.41839E-01
 -1       363 3.39756E-01
 -1       364 2.53418E-01
 -1       365 1.83323E-01
 -1       366 1.28275E-01
 -1       367 9.19008E-02
 -1       368 6.58856E-02
 -1       369 4.80788E-02
 -1       370 3.91840E-02
 -1       371 3.22001E-02
 -1       372 2.58677E-02
 -1       373 2.03161E-02
 -1       374 1.55692E-02
 -1       375 1.26212E-02
 -1       376 1.05371E-02
 -1       377 8.47094E-03
 -1       378 6.51883E-03
 -1       379 4.95541E-03
 -1       380 3.57042E-03
 -1       381 2.60338E-03
 -1       382 1.98685E-03
 -1       383 6.27172E-01
 -1       384 5.31834E-01
 -1       385 6.06972E-01
 -1       386 6.58865E-01
 -1       387 6.27043E-01
 -1       388 5.83220E-01
 -1       389 5.76367E-01
 -1       390 1.03914E+00
 -1       391 1.70570E+00
 -1       392 2.01796E+00
 -1       393 2.03160E+00
 -1       394 1.99905E+00
 -1       395 2.30895E+00
 -1       396 2.13239E+00
 -1       397 1.43777E+00
 -1       398 8.64446E-01
 -1       399 6.19140E-01
 -1       400 8.63768E-01
 -1       401 9.34723E-01
 -1       402 9.64735E-01
 -1       403 9.13782E-01
 -1       404 8.19377E-01
 -1       405 7.19213E-01
 -1       406 6.00170E-01
 -1       407 4.80920E-01
 -1       408 3.72194E-01
 -1       409 2.78998E-01
 -1       410 2.03068E-01
 -1       411 1.54268E-01
 -1       412 1.14850E-01
 -1       413 8.33893E-02
 -1       414 5.88852E-02
 -1       415 4.02240E-02
 -1       416 2.82983E-02
 -1       417 2.42972E-02
 -1       418 2.02693E-02
 -1       419 1.64630E-02
 -1       420 1.30120E-02
 -1       421 1.01712E-02
 -1       422 8.66097E-03
 -1       423 7.17950E-03
 -1       424 5.84008E-03
 -1       425 4.67994E-03
 -1       426 3.51726E-03
 -1       427 2.56330E-03
 -1       428 1.75778E-03
 -1       429 8.99562E-04
 -1       430 1.63960E-03
 -1       431 1.63960E-03
 -1       432 1.13740E-03
 -1       433 1.32400E-03
 -1       434 1.39800E-03
 -1       435 1.39800E-03
 -1       436 1.39427E-03
 -1       437 1.39427E-03
 -1       438 1.32336E-03
 -1       439 1.13724E-03
 -1       440 8.94524E-04
 -1       441 1.56325E-03
 -1       442 2.84531E+01
 -1       443 3.05870E+01
 -1       444 3.05870E+01
 -1       445 1.64601E+01
 -1       446 9.38438E+00
 -1       447 1.58532E+00
 -1       448 9.65898E+00
 -1       449 1.01694E+01
 -1       450 1.13207E+01
 -1       451 9.53217E+00
 -1       452 7.00975E+00
 -1       453 1.13285E+01
 -1       454 1.95592E+01
 -1       455 2.36491E+01
 -1       456 3.72666E+01
 -1       457 3.72666E+01
 -1       458 2.44249E+01
 -1       459 2.26300E+01
 -1       460 1.33902E+01
 -1       461 7.04460E+00
 -1       462 8.41277E+00
 -1       463 1.00926E+01
 -1       464 1.01736E+01
 -1       465 1.09807E+01
 -1       466 8.93934E+00
 -1       467 6.15748E+00
 -1       468 1.10795E+01
 -1       469 1.88090E+01
 -1       470 3.15401E+01
 -1       471 2.98509E+01
 -1       472 7.27112E+00
 -1       473 2.44249E+01
 -1       474 1.20824E+00
 -1       475 7.43912E-01
 -1       476 8.62958E-01
 -1       477 2.82218E-01
 -1       478 5.32728E-01
 -1       479 7.52928E-01
 -1       480 8.65375E-01
 -1       481 9.60615E-01
 -1       482 1.30430E+00
 -1       483 6.96588E-01
 -1       484 1.07746E+00
 -1       485 4.77734E+00
 -1       486 7.92885E-01
 -1       487 8.46074E-01
 -1       488 9.43109E-01
 -1       489 1.04688E+00
 -1       490 1.10413E+00
 -1       491 1.39460E+00
 -1       492 1.60814E+00
 -1       493 1.89083E+00
 -1       494 1.97768E+00
 -1       495 2.81055E+00
 -1       496 2.99382E+00
 -1       497 2.78222E+00
 -1       498 1.95823E+00
 -1       499 1.76274E+00
 -1       500 1.65264E+00
 -1       501 1.39454E+00
 -1       502 1.22928E+00
 -1       503 1.17099E+00
 -1       504 1.04745E+00
 -1       505 9.10732E-01
 -1       506 8.32386E-01
 -1       507 7.25384E-01
 -1       508 6.07603E-01
 -1       509 4.92751E-01
 -1       510 3.88657E-01
 -1       511 2.98921E-01
 -1       512 2.24406E-01
 -1       513 1.64360E-01
 -1       514 1.17203E-01
 -1       515 8.10288E-02
 -1       516 5.39062E-02
 -1       517 3.43462E-02
 -1       518 2.38336E-02
 -1       519 1.92554E-02
 -1       520 1.66536E-02
 -1       521 1.39383E-02
 -1       522 1.13072E-02
 -1       523 8.87351E-03
 -1       524 7.34787E-03
 -1       525 6.05379E-03
 -1       526 4.72452E-03
 -1       527 3.57101E-03
 -1       528 2.59293E-03
 -1       529 8.13607E-01
 -1       530 8.73304E-01
 -1       531 8.69243E-01
 -1       532 1.09294E+00
 -1       533 1.17368E+00
 -1       534 1.59567E+00
 -1       535 1.81332E+00
 -1       536 2.28352E+00
 -1       537 2.63884E+00
 -1       538 2.54151E+00
 -1       539 1.94672E+00
 -1       540 1.58746E+00
 -1       541 1.23456E+00
 -1       542 1.16522E+00
 -1       543 9.77407E-01
 -1       544 1.03694E+00
 -1       545 9.94421E-01
 -1       546 8.98275E-01
 -1       547 8.26855E-01
 -1       548 7.39784E-01
 -1       549 6.30441E-01
 -1       550 5.16668E-01
 -1       551 4.09811E-01
 -1       552 3.15784E-01
 -1       553 2.36787E-01
 -1       554 1.72747E-01
 -1       555 1.22347E-01
 -1       556 8.37150E-02
 -1       557 5.50206E-02
 -1       558 3.88185E-02
 -1       559 2.82983E-02
 -1       560 2.42972E-02
 -1       561 2.02693E-02
 -1       562 1.64630E-02
 -1       563 1.30120E-02
 -1       564 1.01712E-02
 -1       565 8.66097E-03
 -1       566 7.05441E-03
 -1       567 5.46225E-03
 -1       568 4.15117E-03
 -1       569 2.98548E-03
 -1       570 2.22214E-03
 -1       571 1.61496E-03
 -1       572 1.69332E-03
 -1       573 1.94174E-03
 -1       574 1.39840E-03
 -1       575 1.69332E-03
 -1       576 1.66036E-03
 -1       577 1.69002E-03
 -1       578 1.69002E-03
 -1       579 1.61554E-03
 -1       580 1.36413E-03
 -1       581 1.28581E-03
 -1       582 3.05870E+01
 -1       583 1.30876E+01
 -1       584 7.42770E-01
 -1       585 4.85341E+00
 -1       586 2.41919E+01
 -1       587 2.10939E+01
 -1       588 2.98509E+01
 -1       589 7.90427E+00
 -1       590 6.09424E+00
 -1       591 5.27946E-01
 -1       592 8.04653E+00
 -1       593 9.47795E+00
 -1       594 7.54945E+00
 -1       595 4.19839E+00
 -1       596 6.74492E+00
 -1       597 6.36265E+00
 -1       598 1.56365E+01
 -1       599 2.36491E+01
 -1       600 3.72666E+01
 -1       601 1.59792E+01
 -1       602 6.16583E+00
 -1       603 1.09007E+01
 -1       604 3.72986E+00
 -1       605 6.45052E+00
 -1       606 7.79088E+00
 -1       607 6.07900E+00
 -1       608 4.25990E+00
 -1       609 9.37351E+00
 -1       610 1.42782E+01
 -1       611 1.58532E+00
 -1       612 1.30430E+00
 -1       613 8.95241E+00
 -1       614 1.58532E+00
 -1       615 1.63666E-03
 -1       616 2.02722E+01
 -1       617 1.72189E+01
 -1       618 6.96629E+00
 -1       619 3.23705E+00
 -1       620 1.51139E+01
 -1       621 7.43942E-01
 -1       622 5.29126E-01
 -1       623 9.26845E-01
 -1       624 9.41357E-01
 -1       625 1.08588E+00
 -1       626 4.32477E+00
 -1       627 5.60188E+00
 -1       628 4.07491E+00
 -1       629 9.10591E-01
 -1       630 1.03968E+00
 -1       631 1.25121E+00
 -1       632 1.53063E+00
 -1       633 1.81077E+00
 -1       634 2.11281E+00
 -1       635 1.89083E+00
 -1       636 2.50166E+00
 -1       637 3.02223E+00
 -1       638 3.49974E+00
 -1       639 3.95699E+00
 -1       640 2.83099E+00
 -1       641 2.13523E+00
 -1       642 2.78665E+00
 -1       643 2.18236E+00
 -1       644 1.89168E+00
 -1       645 1.60686E+00
 -1       646 1.30254E+00
 -1       647 1.08714E+00
 -1       648 9.40393E-01
 -1       649 7.88981E-01
 -1       650 6.46928E-01
 -1       651 5.20273E-01
 -1       652 4.11052E-01
 -1       653 3.19212E-01
 -1       654 2.43605E-01
 -1       655 1.82542E-01
 -1       656 1.34106E-01
 -1       657 9.63583E-02
 -1       658 6.74586E-02
 -1       659 4.57402E-02
 -1       660 2.97432E-02
 -1       661 1.82250E-02
 -1       662 1.14627E-02
 -1       663 9.96585E-03
 -1       664 9.15886E-03
 -1       665 7.98846E-03
 -1       666 6.65699E-03
 -1       667 5.29925E-03
 -1       668 4.38588E-03
 -1       669 3.44545E-03
 -1       670 2.51291E-03
 -1       671 1.25538E+00
 -1       672 1.65993E+01
 -1       673 1.08724E+00
 -1       674 1.78819E+00
 -1       675 1.91134E+00
 -1       676 1.79996E+00
 -1       677 2.41568E+00
 -1       678 4.07491E+00
 -1       679 5.37525E+00
 -1       680 4.32477E+00
 -1       681 2.42713E+00
 -1       682 1.79175E+00
 -1       683 1.94271E+00
 -1       684 1.51195E+00
 -1       685 1.40696E+00
 -1       686 1.22507E+00
 -1       687 1.02647E+00
 -1       688 9.03669E-01
 -1       689 7.90778E-01
 -1       690 6.67983E-01
 -1       691 5.48310E-01
 -1       692 4.39145E-01
 -1       693 3.43981E-01
 -1       694 2.63809E-01
 -1       695 1.98108E-01
 -1       696 1.45529E-01
 -1       697 1.04348E-01
 -1       698 7.27496E-02
 -1       699 4.89977E-02
 -1       700 3.15275E-02
 -1       701 1.95609E-02
 -1       702 1.38311E-02
 -1       703 1.26917E-02
 -1       704 1.11115E-02
 -1       705 9.34679E-03
 -1       706 7.56469E-03
 -1       707 6.01081E-03
 -1       708 4.95631E-03
 -1       709 3.88377E-03
 -1       710 2.91188E-03
 -1       711 2.54761E-03
 -1       712 8.90280E+00
 -1       713 1.88908E-03
 -1       714 1.72399E-03
 -1       715 1.96049E-03
 -1       716 1.88806E-03
 -1       717 1.96049E-03
 -1       718 1.94602E-03
 -1       719 1.94602E-03
 -1       720 1.85572E-03
 -1       721 4.12249E+00
 -1       722 1.12027E+01
 -1       723 1.52139E+01
 -1       724 5.64037E+00
 -1       725 5.72302E+00
 -1       726 1.67192E+01
 -1       727 6.69049E+00
 -1       728 8.52297E-01
 -1       729 1.38928E+00
 -1       730 1.09485E+00
 -1       731 7.42770E-01
 -1       732 8.86132E+00
 -1       733 8.77588E-01
 -1       734 3.02223E+00
 -1       735 8.58572E-01
 -1       736 3.78031E+00
 -1       737 5.25854E+00
 -1       738 1.51794E+01
 -1       739 3.94191E+00
 -1       740 1.21553E+01
 -1       741 5.23179E+00
 -1       742 7.67147E+00
 -1       743 8.30524E+00
 -1       744 6.31476E+00
 -1       745 6.22275E+00
 -1       746 3.32405E+00
 -1       747 1.07618E+00
 -1       748 4.85115E-01
 -1       749 2.99390E+00
 -1       750 9.31672E+00
 -1       751 1.86740E-03
 -1       752 1.80335E-03
 -1       753 1.23003E+01
 -1       754 9.77444E+00
 -1       755 1.51623E+00
 -1       756 7.00057E-01
 -1       757 1.08118E+01
 -1       758 2.05473E-03
 -1       759 2.41972E+00
 -1       760 1.07658E+00
 -1       761 1.09485E+00
 -1       762 1.39846E+00
 -1       763 1.71696E+00
 -1       764 2.21536E+00
 -1       765 3.16154E+00
 -1       766 2.64892E+00
 -1       767 4.75110E+00
 -1       768 3.76665E+00
 -1       769 3.06752E+00
 -1       770 2.24198E+00
 -1       771 1.78512E+00
 -1       772 1.44373E+00
 -1       773 1.13083E+00
 -1       774 8.86891E-01
 -1       775 6.99063E-01
 -1       776 5.59760E-01
 -1       777 4.48978E-01
 -1       778 3.51157E-01
 -1       779 2.68415E-01
 -1       780 2.00599E-01
 -1       781 1.46423E-01
 -1       782 1.04286E-01
 -1       783 7.35973E-02
 -1       784 5.04892E-02
 -1       785 3.39502E-02
 -1       786 2.23884E-02
 -1       787 1.40394E-02
 -1       788 8.15944E-03
 -1       789 5.42674E-03
 -1       790 5.78376E-03
 -1       791 5.53951E-03
 -1       792 4.93477E-03
 -1       793 4.13885E-03
 -1       794 3.41262E-03
 -1       795 2.75397E-03
 -1       796 3.47352E+00
 -1       797 2.59838E+00
 -1       798 2.48435E+00
 -1       799 2.12898E+00
 -1       800 1.65956E+00
 -1       801 1.32412E+00
 -1       802 1.10946E+00
 -1       803 9.06484E-01
 -1       804 7.36880E-01
 -1       805 5.87744E-01
 -1       806 4.60750E-01
 -1       807 3.56064E-01
 -1       808 2.74005E-01
 -1       809 2.07962E-01
 -1       810 1.55393E-01
 -1       811 1.14071E-01
 -1       812 8.20379E-02
 -1       813 5.75808E-02
 -1       814 3.92175E-02
 -1       815 2.56860E-02
 -1       816 1.59281E-02
 -1       817 9.07189E-03
 -1       818 7.21740E-03
 -1       819 7.08638E-03
 -1       820 6.46136E-03
 -1       821 5.56378E-03
 -1       822 4.54812E-03
 -1       823 3.76364E-03
 -1       824 3.00940E-03
 -1       825 2.36821E-03
 -1       826 2.05538E-03
 -1       827 7.49491E+00
 -1       828 1.95751E-03
 -1       829 1.87341E-03
 -1       830 1.18660E+00
 -1       831 1.49855E+00
 -1       832 2.05538E-03
 -1       833 1.04614E+01
 -1       834 1.04614E+01
 -1       835 1.14346E+00
 -1       836 7.06147E+00
 -1       837 8.77472E+00
 -1       838 3.70044E+00
 -1       839 6.09534E+00
 -1       840 5.56313E+00
 -1       841 9.91893E+00
 -1       842 3.47352E+00
 -1       843 1.23003E+01
 -1       844 1.09485E+00
 -1       845 4.08281E+00
 -1       846 4.26664E+00
 -1       847 4.81987E+00
 -1       848 7.84692E-01
 -1       849 7.86270E-01
 -1       850 7.52123E-01
 -1       851 9.84345E-01
 -1       852 9.38777E-01
 -1       853 2.16770E-03
 -1       854 2.38635E+00
 -1       855 2.27657E-03
 -1       856 1.75525E+00
 -1       857 1.91134E+00
 -1       858 2.42713E+00
 -1       859 2.16770E-03
 -1       860 6.27671E+00
 -1       861 2.00969E-03
 -1       862 6.70612E+00
 -1       863 9.74423E-01
 -1       864 7.06506E+00
 -1       865 6.48715E+00
 -1       866 8.72970E+00
 -1       867 8.29348E-01
 -1       868 1.15635E+00
 -1       869 1.09543E+00
 -1       870 7.76798E+00
 -1       871 8.72970E+00
 -1       872 2.41193E+00
 -1       873 3.37161E+00
 -1       874 6.94975E+00
 -1       875 5.50181E+00
 -1       876 3.61631E+00
 -1       877 2.51615E+00
 -1       878 1.74734E+00
 -1       879 1.31618E+00
 -1       880 1.04191E+00
 -1       881 8.17650E-01
 -1       882 6.37123E-01
 -1       883 4.92368E-01
 -1       884 3.76659E-01
 -1       885 2.84635E-01
 -1       886 2.12005E-01
 -1       887 1.55252E-01
 -1       888 1.12418E-01
 -1       889 8.03866E-02
 -1       890 5.60527E-02
 -1       891 3.78660E-02
 -1       892 2.45258E-02
 -1       893 1.49530E-02
 -1       894 8.26377E-03
 -1       895 3.74532E-03
 -1       896 3.58151E-03
 -1       897 3.84376E-03
 -1       898 3.66169E-03
 -1       899 3.21589E-03
 -1       900 1.08819E+00
 -1       901 3.53686E+00
 -1       902 6.06618E+00
 -1       903 1.92407E+00
 -1       904 1.43265E+00
 -1       905 1.06726E+00
 -1       906 8.43928E-01
 -1       907 6.82882E-01
 -1       908 5.52860E-01
 -1       909 4.38011E-01
 -1       910 3.40338E-01
 -1       911 2.59503E-01
 -1       912 1.94063E-01
 -1       913 1.42114E-01
 -1       914 1.01635E-01
 -1       915 7.11417E-02
 -1       916 4.91173E-02
 -1       917 3.26958E-02
 -1       918 2.07088E-02
 -1       919 1.23295E-02
 -1       920 6.57472E-03
 -1       921 4.00493E-03
 -1       922 4.50109E-03
 -1       923 4.55283E-03
 -1       924 4.19309E-03
 -1       925 3.60429E-03
 -1       926 3.00285E-03
 -1       927 1.87341E-03
 -1       928 2.44583E-03
 -1       929 1.41014E+00
 -1       930 1.71573E+00
 -1       931 6.85003E+00
 -1       932 2.77491E+00
 -1       933 4.35802E+00
 -1       934 6.85003E+00
 -1       935 6.07126E+00
 -1       936 4.11428E+00
 -1       937 1.95010E+00
 -1       938 7.95917E+00
 -1       939 7.46377E-01
 -1       940 1.16253E+00
 -1       941 9.52771E-01
 -1       942 5.87969E+00
 -1       943 3.47352E+00
 -1       944 3.53304E-03
 -1       945 2.66915E-03
 -1       946 2.29114E-03
 -1       947 2.81477E-03
 -1       948 6.31947E+00
 -1       949 4.93086E+00
 -1       950 1.17053E+00
 -1       951 7.02616E+00
 -1       952 1.17053E+00
 -1       953 2.81477E-03
 -1       954 1.33351E+00
 -1       955 4.78493E+00
 -1       956 7.02616E+00
 -1       957 5.44753E+00
 -1       958 4.78493E+00
 -1       959 2.97491E-03
 -1       960 2.54496E+00
 -1       961 4.67899E+00
 -1       962 2.45522E+00
 -1       963 1.68586E+00
 -1       964 1.26144E+00
 -1       965 9.45045E-01
 -1       966 7.15869E-01
 -1       967 5.44965E-01
 -1       968 4.14849E-01
 -1       969 3.14332E-01
 -1       970 2.36130E-01
 -1       971 1.75262E-01
 -1       972 1.28106E-01
 -1       973 9.18844E-02
 -1       974 6.43827E-02
 -1       975 4.37982E-02
 -1       976 2.93845E-02
 -1       977 1.90396E-02
 -1       978 1.16153E-02
 -1       979 6.42390E-03
 -1       980 3.30745E-03
 -1       981 2.36427E-03
 -1       982 2.96943E-03
 -1       983 3.04183E-03
 -1       984 1.35590E+00
 -1       985 1.85414E+00
 -1       986 8.43928E-01
 -1       987 6.63158E-01
 -1       988 5.17627E-01
 -1       989 4.00706E-01
 -1       990 3.07040E-01
 -1       991 2.32370E-01
 -1       992 1.73298E-01
 -1       993 1.27036E-01
 -1       994 9.12461E-02
 -1       995 6.39473E-02
 -1       996 4.38126E-02
 -1       997 2.96153E-02
 -1       998 1.91871E-02
 -1       999 1.16938E-02
 -1      1000 6.48795E-03
 -1      1001 3.23376E-03
 -1      1002 2.82046E-03
 -1      1003 3.20489E-03
 -1      1004 3.53304E-03
 -1      1005 1.15755E+00
 -1      1006 5.32036E+00
 -1      1007 1.82563E+00
 -1      1008 2.26418E+00
 -1      1009 3.24363E+00
 -1      1010 1.32274E+00
 -1      1011 1.02703E+00
 -1      1012 5.29143E+00
 -1      1013 1.06726E+00
 -1      1014 3.68651E+00
 -1      1015 3.54510E+00
 -1      1016 1.65706E+00
 -1      1017 4.59451E+00
 -1      1018 3.53304E-03
 -1      1019 4.12803E+00
 -1      1020 2.09717E-03
 -1      1021 4.31445E+00
 -1      1022 1.99061E-03
 -1      1023 3.74829E+00
 -1      1024 1.09543E+00
 -1      1025 1.75595E+00
 -1      1026 1.75595E+00
 -1      1027 1.38909E+00
 -1      1028 2.19362E+00
 -1      1029 4.32488E-01
 -1      1030 1.93801E+00
 -1      1031 1.19197E+00
 -1      1032 8.54796E-01
 -1      1033 6.28417E-01
 -1      1034 4.69847E-01
 -1      1035 3.55325E-01
 -1      1036 2.69520E-01
 -1      1037 2.03804E-01
 -1      1038 1.52925E-01
 -1      1039 1.13817E-01
 -1      1040 8.48532E-02
 -1      1041 6.21242E-02
 -1      1042 4.45181E-02
 -1      1043 3.10784E-02
 -1      1044 2.16739E-02
 -1      1045 1.47590E-02
 -1      1046 9.61380E-03
 -1      1047 5.85817E-03
 -1      1048 3.17609E-03
 -1      1049 1.40374E-03
 -1      1050 1.85414E+00
 -1      1051 5.67257E-01
 -1      1052 7.47965E-01
 -1      1053 3.29698E-01
 -1      1054 2.50107E-01
 -1      1055 1.88060E-01
 -1      1056 1.39689E-01
 -1      1057 1.02167E-01
 -1      1058 7.33173E-02
 -1      1059 5.13951E-02
 -1      1060 3.49748E-02
 -1      1061 2.36890E-02
 -1      1062 1.54935E-02
 -1      1063 9.57727E-03
 -1      1064 5.81640E-03
 -1      1065 3.23376E-03
 -1      1066 1.89468E-03
 -1      1067 2.76387E-03
 -1      1068 1.35590E+00
 -1      1069 2.48136E+00
 -1      1070 1.65340E+00
 -1      1071 2.94037E+00
 -1      1072 4.74514E+00
 -1      1073 2.63311E-03
 -1      1074 3.93297E+00
 -1      1075 9.97356E-01
 -1      1076 3.75531E+00
 -1      1077 3.41174E+00
 -1      1078 1.90095E-03
 -1      1079 3.47526E+00
 -1      1080 3.41174E+00
 -1      1081 1.89586E-03
 -1      1082 3.93297E+00
 -1      1083 2.55335E+00
 -1      1084 3.09638E+00
 -1      1085 8.96171E-01
 -1      1086 6.79208E-01
 -1      1087 5.17935E-01
 -1      1088 4.00203E-01
 -1      1089 3.10469E-01
 -1      1090 2.40286E-01
 -1      1091 1.84675E-01
 -1      1092 1.40457E-01
 -1      1093 1.05412E-01
 -1      1094 7.78518E-02
 -1      1095 5.64083E-02
 -1      1096 3.99387E-02
 -1      1097 2.75603E-02
 -1      1098 1.90912E-02
 -1      1099 1.27387E-02
 -1      1100 8.05792E-03
 -1      1101 4.67460E-03
 -1      1102 2.27848E-03
 -1      1103 3.84329E-01
 -1      1104 6.67076E-01
 -1      1105 2.23913E-01
 -1      1106 1.69302E-01
 -1      1107 1.26561E-01
 -1      1108 9.32386E-02
 -1      1109 6.74678E-02
 -1      1110 4.77588E-02
 -1      1111 3.35293E-02
 -1      1112 2.31248E-02
 -1      1113 1.53779E-02
 -1      1114 9.71744E-03
 -1      1115 5.74181E-03
 -1      1116 3.08096E-03
 -1      1117 2.03312E+00
 -1      1118 5.03927E-01
 -1      1119 1.64886E-03
 -1      1120 1.17570E+00
 -1      1121 1.58014E+00
 -1      1122 2.93841E-01
 -1      1123 1.31232E-03
 -1      1124 1.16991E+00
 -1      1125 8.96171E-01
 -1      1126 1.22545E+01
 -1      1127 7.91761E+00
 -1      1128 2.82180E+00
 -1      1129 1.78988E+00
 -1      1130 1.36057E+00
 -1      1131 1.07668E+00
 -1      1132 8.38642E-01
 -1      1133 6.36109E-01
 -1      1134 5.47695E-01
 -1      1135 6.44505E-01
 -1      1136 8.42035E-01
 -1      1137 1.08027E+00
 -1      1138 1.37444E+00
 -1      1139 1.80348E+00
 -1      1140 2.75206E+00
 -1      1141 5.73956E+00
 -1      1142 1.06045E+01
 -1      1143 1.22545E+01
 -1      1144 8.02184E+00
 -1      1145 3.13552E+00
 -1      1146 1.99075E+00
 -1      1147 1.18604E+00
 -1      1148 8.47590E-01
 -1      1149 9.63564E-01
 -1      1150 1.12419E+00
 -1      1151 1.17044E+00
 -1      1152 1.20534E+00
 -1      1153 1.46718E+00
 -1      1154 2.34847E+00
 -1      1155 3.49838E+00
 -1      1156 4.02037E+00
 -1      1157 4.02834E+00
 -1      1158 4.03631E+00
 -1      1159 3.49197E+00
 -1      1160 2.38043E+00
 -1      1161 1.61253E+00
 -1      1162 1.41183E+00
 -1      1163 1.38477E+00
 -1      1164 1.35771E+00
 -1      1165 1.29156E+00
 -1      1166 1.11957E+00
 -1      1167 9.11526E-01
 -1      1168 7.22567E-01
 -1      1169 5.76003E-01
 -1      1170 4.74723E-01
 -1      1171 3.92055E-01
 -1      1172 3.13254E-01
 -1      1173 2.43239E-01
 -1      1174 1.83966E-01
 -1      1175 1.35580E-01
 -1      1176 1.04697E-01
 -1      1177 8.67369E-02
 -1      1178 7.03829E-02
 -1      1179 5.59329E-02
 -1      1180 4.35709E-02
 -1      1181 3.32595E-02
 -1      1182 2.52945E-02
 -1      1183 2.00738E-02
 -1      1184 1.63916E-02
 -1      1185 1.30350E-02
 -1      1186 1.00399E-02
 -1      1187 7.45408E-03
 -1      1188 5.38684E-03
 -1      1189 4.22865E-03
 -1      1190 3.51868E-03
 -1      1191 2.66701E-03
 -1      1192 1.35766E-03
 -1      1193 1.31617E+01
 -1      1194 8.11773E+00
 -1      1195 2.48465E+00
 -1      1196 1.63420E+00
 -1      1197 1.18634E+00
 -1      1198 8.81803E-01
 -1      1199 7.85266E-01
 -1      1200 8.80569E-01
 -1      1201 1.09208E+00
 -1      1202 1.28097E+00
 -1      1203 1.51182E+00
 -1      1204 1.90282E+00
 -1      1205 2.65415E+00
 -1      1206 3.35543E+00
 -1      1207 3.74397E+00
 -1      1208 3.97121E+00
 -1      1209 3.59359E+00
 -1      1210 2.55607E+00
 -1      1211 1.58439E+00
 -1      1212 1.18935E+00
 -1      1213 1.20299E+00
 -1      1214 1.29987E+00
 -1      1215 1.28669E+00
 -1      1216 1.20113E+00
 -1      1217 1.04018E+00
 -1      1218 8.69185E-01
 -1      1219 7.04633E-01
 -1      1220 5.48223E-01
 -1      1221 4.10943E-01
 -1      1222 3.10842E-01
 -1      1223 2.41765E-01
 -1      1224 1.83218E-01
 -1      1225 1.35290E-01
 -1      1226 9.72131E-02
 -1      1227 6.77393E-02
 -1      1228 4.98517E-02
 -1      1229 4.07852E-02
 -1      1230 3.32729E-02
 -1      1231 2.65729E-02
 -1      1232 2.12207E-02
 -1      1233 1.78665E-02
 -1      1234 1.55130E-02
 -1      1235 1.30651E-02
 -1      1236 1.06712E-02
 -1      1237 8.42465E-03
 -1      1238 6.43839E-03
 -1      1239 4.72331E-03
 -1      1240 3.48064E-03
 -1      1241 2.32558E-03
 -1      1242 9.95231E-04
 -1      1243 5.73669E-04
 -1      1244 7.65784E-04
 -1      1245 6.25353E-04
 -1      1246 3.33150E-04
 -1      1247 2.76719E-04
 -1      1248 4.34252E-04
 -1      1249 5.29568E-04
 -1      1250 5.71115E-04
 -1      1251 5.79538E-04
 -1      1252 5.70681E-04
 -1      1253 5.26268E-04
 -1      1254 4.30680E-04
 -1      1255 2.74377E-04
 -1      1256 3.35807E-04
 -1      1257 7.54078E-04
 -1      1258 1.14130E-03
 -1      1259 8.63887E-04
 -1      1260 2.48736E+01
 -1      1261 3.62564E+01
 -1      1262 4.73581E+01
 -1      1263 3.36562E+01
 -1      1264 1.60534E+01
 -1      1265 1.22980E+01
 -1      1266 1.24435E+01
 -1      1267 1.26280E+01
 -1      1268 1.28125E+01
 -1      1269 1.24080E+01
 -1      1270 1.93393E+01
 -1      1271 2.80789E+01
 -1      1272 2.94826E+01
 -1      1273 2.70935E+01
 -1      1274 2.59899E+01
 -1      1275 2.72753E+01
 -1      1276 3.22880E+01
 -1      1277 3.73008E+01
 -1      1278 2.58513E+01
 -1      1279 1.31602E+01
 -1      1280 1.19184E+01
 -1      1281 1.18608E+01
 -1      1282 1.18970E+01
 -1      1283 1.19909E+01
 -1      1284 1.18909E+01
 -1      1285 1.88419E+01
 -1      1286 2.77469E+01
 -1      1287 2.96007E+01
 -1      1288 2.72083E+01
 -1      1289 2.47042E+01
 -1      1290 1.22545E+01
 -1      1291 4.68534E+00
 -1      1292 9.02219E+00
 -1      1293 2.28564E+00
 -1      1294 3.04459E+00
 -1      1295 4.14918E+00
 -1      1296 1.64429E+00
 -1      1297 1.91726E+00
 -1      1298 2.14005E+00
 -1      1299 1.28107E+00
 -1      1300 1.43741E+00
 -1      1301 1.56479E+00
 -1      1302 1.00394E+00
 -1      1303 1.13148E+00
 -1      1304 1.20833E+00
 -1      1305 7.71096E-01
 -1      1306 8.81584E-01
 -1      1307 9.36390E-01
 -1      1308 5.75001E-01
 -1      1309 6.67046E-01
 -1      1310 7.09988E-01
 -1      1311 5.00148E-01
 -1      1312 4.96517E-01
 -1      1313 5.27454E-01
 -1      1314 6.75866E-01
 -1      1315 5.82687E-01
 -1      1316 5.31509E-01
 -1      1317 8.81212E-01
 -1      1318 7.76861E-01
 -1      1319 7.15043E-01
 -1      1320 1.14257E+00
 -1      1321 1.00868E+00
 -1      1322 9.43509E-01
 -1      1323 1.45490E+00
 -1      1324 1.29461E+00
 -1      1325 1.22302E+00
 -1      1326 1.93201E+00
 -1      1327 1.66327E+00
 -1      1328 1.58343E+00
 -1      1329 2.96444E+00
 -1      1330 2.28460E+00
 -1      1331 2.14439E+00
 -1      1332 5.91675E+00
 -1      1333 3.60910E+00
 -1      1334 3.14164E+00
 -1      1335 1.31617E+01
 -1      1336 1.06045E+01
 -1      1337 8.47400E+00
 -1      1338 1.31617E+01
 -1      1339 8.02184E+00
 -1      1340 3.78922E+00
 -1      1341 3.13552E+00
 -1      1342 2.48183E+00
 -1      1343 3.13552E+00
 -1      1344 1.99075E+00
 -1      1345 1.49968E+00
 -1      1346 1.99075E+00
 -1      1347 1.18604E+00
 -1      1348 8.72405E-01
 -1      1349 1.18604E+00
 -1      1350 8.23441E-01
 -1      1351 7.98626E-01
 -1      1352 8.23441E-01
 -1      1353 8.22775E-01
 -1      1354 9.63564E-01
 -1      1355 7.98626E-01
 -1      1356 1.10435E+00
 -1      1357 1.12419E+00
 -1      1358 9.63564E-01
 -1      1359 1.14403E+00
 -1      1360 1.17044E+00
 -1      1361 1.12419E+00
 -1      1362 1.19686E+00
 -1      1363 1.20534E+00
 -1      1364 1.17044E+00
 -1      1365 1.21382E+00
 -1      1366 1.46718E+00
 -1      1367 1.20534E+00
 -1      1368 1.78313E+00
 -1      1369 2.41106E+00
 -1      1370 1.52977E+00
 -1      1371 2.97640E+00
 -1      1372 3.49838E+00
 -1      1373 2.41106E+00
 -1      1374 4.02037E+00
 -1      1375 4.02037E+00
 -1      1376 3.49838E+00
 -1      1377 4.00538E+00
 -1      1378 4.01335E+00
 -1      1379 4.00538E+00
 -1      1380 4.03631E+00
 -1      1381 4.03631E+00
 -1      1382 4.01335E+00
 -1      1383 3.49197E+00
 -1      1384 2.94763E+00
 -1      1385 3.49197E+00
 -1      1386 2.38043E+00
 -1      1387 1.81322E+00
 -1      1388 2.38043E+00
 -1      1389 1.56085E+00
 -1      1390 1.36016E+00
 -1      1391 1.56085E+00
 -1      1392 1.41183E+00
 -1      1393 1.41183E+00
 -1      1394 1.36016E+00
 -1      1395 1.35831E+00
 -1      1396 1.33125E+00
 -1      1397 1.35831E+00
 -1      1398 1.35771E+00
 -1      1399 1.35771E+00
 -1      1400 1.33125E+00
 -1      1401 1.29156E+00
 -1      1402 1.22540E+00
 -1      1403 1.29156E+00
 -1      1404 1.11957E+00
 -1      1405 1.01374E+00
 -1      1406 1.11957E+00
 -1      1407 9.33119E-01
 -1      1408 8.30904E-01
 -1      1409 9.33119E-01
 -1      1410 7.74431E-01
 -1      1411 6.87686E-01
 -1      1412 7.96023E-01
 -1      1413 6.21779E-01
 -1      1414 5.61960E-01
 -1      1415 6.73643E-01
 -1      1416 4.97020E-01
 -1      1417 4.55560E-01
 -1      1418 5.42796E-01
 -1      1419 3.97344E-01
 -1      1420 3.56135E-01
 -1      1421 4.19640E-01
 -1      1422 3.13254E-01
 -1      1423 2.75662E-01
 -1      1424 3.18543E-01
 -1      1425 2.45373E-01
 -1      1426 2.12950E-01
 -1      1427 2.45373E-01
 -1      1428 1.88344E-01
 -1      1429 1.61494E-01
 -1      1430 1.90478E-01
 -1      1431 1.41030E-01
 -1      1432 1.19494E-01
 -1      1433 1.45408E-01
 -1      1434 1.04697E-01
 -1      1435 9.53498E-02
 -1      1436 1.10147E-01
 -1      1437 8.67369E-02
 -1      1438 7.81241E-02
 -1      1439 8.67369E-02
 -1      1440 7.03829E-02
 -1      1441 6.26416E-02
 -1      1442 7.03829E-02
 -1      1443 5.59329E-02
 -1      1444 4.92243E-02
 -1      1445 5.59329E-02
 -1      1446 4.35709E-02
 -1      1447 3.79176E-02
 -1      1448 4.35709E-02
 -1      1449 3.33434E-02
 -1      1450 2.86853E-02
 -1      1451 3.33434E-02
 -1      1452 2.54766E-02
 -1      1453 2.21698E-02
 -1      1454 2.55606E-02
 -1      1455 2.00738E-02
 -1      1456 1.81600E-02
 -1      1457 2.02560E-02
 -1      1458 1.63916E-02
 -1      1459 1.46232E-02
 -1      1460 1.63916E-02
 -1      1461 1.30350E-02
 -1      1462 1.14469E-02
 -1      1463 1.30350E-02
 -1      1464 1.01387E-02
 -1      1465 8.73173E-03
 -1      1466 1.01387E-02
 -1      1467 7.63736E-03
 -1      1468 6.45850E-03
 -1      1469 7.73615E-03
 -1      1470 5.61032E-03
 -1      1471 4.72195E-03
 -1      1472 5.79361E-03
 -1      1473 4.22865E-03
 -1      1474 3.95883E-03
 -1      1475 4.45213E-03
 -1      1476 3.51868E-03
 -1      1477 3.07853E-03
 -1      1478 3.51868E-03
 -1      1479 2.66701E-03
 -1      1480 2.25550E-03
 -1      1481 2.66701E-03
 -1      1482 1.76173E-03
 -1      1483 1.76173E-03
 -1      1484 3.07376E+00
 -1      1485 8.11773E+00
 -1      1486 8.11773E+00
 -1      1487 1.89555E+00
 -1      1488 2.48465E+00
 -1      1489 2.48465E+00
 -1      1490 1.37285E+00
 -1      1491 1.63420E+00
 -1      1492 1.63420E+00
 -1      1493 9.99822E-01
 -1      1494 1.18634E+00
 -1      1495 1.18634E+00
 -1      1496 7.63784E-01
 -1      1497 8.81803E-01
 -1      1498 8.81803E-01
 -1      1499 7.48785E-01
 -1      1500 7.27303E-01
 -1      1501 7.27303E-01
 -1      1502 8.80569E-01
 -1      1503 8.06748E-01
 -1      1504 7.48785E-01
 -1      1505 1.09208E+00
 -1      1506 9.54389E-01
 -1      1507 8.80569E-01
 -1      1508 1.28097E+00
 -1      1509 1.22977E+00
 -1      1510 1.09208E+00
 -1      1511 1.51182E+00
 -1      1512 1.33216E+00
 -1      1513 1.28097E+00
 -1      1514 1.90282E+00
 -1      1515 1.69147E+00
 -1      1516 1.51182E+00
 -1      1517 2.72663E+00
 -1      1518 2.18666E+00
 -1      1519 1.97531E+00
 -1      1520 3.35543E+00
 -1      1521 3.19412E+00
 -1      1522 2.72663E+00
 -1      1523 3.74397E+00
 -1      1524 3.51674E+00
 -1      1525 3.35543E+00
 -1      1526 3.97121E+00
 -1      1527 3.97121E+00
 -1      1528 3.74397E+00
 -1      1529 3.21597E+00
 -1      1530 3.59359E+00
 -1      1531 3.59359E+00
 -1      1532 1.89617E+00
 -1      1533 2.55607E+00
 -1      1534 2.55607E+00
 -1      1535 1.27260E+00
 -1      1536 1.58439E+00
 -1      1537 1.58439E+00
 -1      1538 1.08645E+00
 -1      1539 1.16970E+00
 -1      1540 1.16970E+00
 -1      1541 1.20299E+00
 -1      1542 1.10611E+00
 -1      1543 1.08645E+00
 -1      1544 1.29987E+00
 -1      1545 1.29987E+00
 -1      1546 1.20299E+00
 -1      1547 1.27350E+00
 -1      1548 1.28669E+00
 -1      1549 1.28669E+00
 -1      1550 1.12876E+00
 -1      1551 1.20113E+00
 -1      1552 1.20113E+00
 -1      1553 9.51604E-01
 -1      1554 1.04018E+00
 -1      1555 1.04018E+00
 -1      1556 7.89195E-01
 -1      1557 8.71614E-01
 -1      1558 8.71614E-01
 -1      1559 6.33760E-01
 -1      1560 7.15894E-01
 -1      1561 7.18322E-01
 -1      1562 4.89666E-01
 -1      1563 5.63941E-01
 -1      1564 5.75202E-01
 -1      1565 3.65111E-01
 -1      1566 4.28116E-01
 -1      1567 4.43834E-01
 -1      1568 2.76618E-01
 -1      1569 3.13714E-01
 -1      1570 3.30887E-01
 -1      1571 2.09785E-01
 -1      1572 2.41765E-01
 -1      1573 2.44638E-01
 -1      1574 1.56652E-01
 -1      1575 1.83218E-01
 -1      1576 1.83218E-01
 -1      1577 1.14389E-01
 -1      1578 1.35751E-01
 -1      1579 1.35751E-01
 -1      1580 8.19442E-02
 -1      1581 9.86582E-02
 -1      1582 9.91196E-02
 -1      1583 5.69323E-02
 -1      1584 6.96922E-02
 -1      1585 7.11373E-02
 -1      1586 4.47240E-02
 -1      1587 4.98517E-02
 -1      1588 5.18046E-02
 -1      1589 3.68465E-02
 -1      1590 4.07852E-02
 -1      1591 4.07852E-02
 -1      1592 2.96993E-02
 -1      1593 3.32729E-02
 -1      1594 3.32729E-02
 -1      1595 2.34465E-02
 -1      1596 2.65729E-02
 -1      1597 2.65729E-02
 -1      1598 1.89949E-02
 -1      1599 2.12207E-02
 -1      1600 2.12207E-02
 -1      1601 1.67381E-02
 -1      1602 1.78665E-02
 -1      1603 1.78665E-02
 -1      1604 1.42879E-02
 -1      1605 1.55130E-02
 -1      1606 1.55130E-02
 -1      1607 1.18424E-02
 -1      1608 1.30651E-02
 -1      1609 1.30651E-02
 -1      1610 9.50014E-03
 -1      1611 1.06712E-02
 -1      1612 1.06712E-02
 -1      1613 7.34916E-03
 -1      1614 8.42465E-03
 -1      1615 8.42465E-03
 -1      1616 5.52761E-03
 -1      1617 6.43839E-03
 -1      1618 6.43839E-03
 -1      1619 3.91902E-03
 -1      1620 4.72331E-03
 -1      1621 4.72331E-03
 -1      1622 3.04226E-03
 -1      1623 3.48064E-03
 -1      1624 3.48064E-03
 -1      1625 1.68335E-03
 -1      1626 2.40002E-03
 -1      1627 2.40002E-03
 -1      1628 1.18735E-03
 -1      1629 8.00969E-04
 -1      1630 8.00969E-04
 -1      1631 6.60538E-04
 -1      1632 8.00969E-04
 -1      1633 8.36153E-04
 -1      1634 4.12955E-04
 -1      1635 5.64728E-04
 -1      1636 7.40343E-04
 -1      1637 4.91305E-04
 -1      1638 3.95962E-04
 -1      1639 6.27540E-04
 -1      1640 6.78583E-04
 -1      1641 6.16393E-04
 -1      1642 7.35636E-04
 -1      1643 7.82931E-04
 -1      1644 7.49806E-04
 -1      1645 9.31947E-04
 -1      1646 8.17937E-04
 -1      1647 8.09515E-04
 -1      1648 1.02975E-03
 -1      1649 8.17937E-04
 -1      1650 8.17937E-04
 -1      1651 1.05634E-03
 -1      1652 8.08899E-04
 -1      1653 8.17755E-04
 -1      1654 1.05615E-03
 -1      1655 7.44327E-04
 -1      1656 7.79884E-04
 -1      1657 1.02696E-03
 -1      1658 6.15240E-04
 -1      1659 6.75271E-04
 -1      1660 9.28887E-04
 -1      1661 3.97251E-04
 -1      1662 4.93524E-04
 -1      1663 7.38114E-04
 -1      1664 5.62085E-04
 -1      1665 4.04382E-04
 -1      1666 6.23529E-04
 -1      1667 8.22653E-04
 -1      1668 5.62085E-04
 -1      1669 6.30660E-04
 -1      1670 1.26631E-03
 -1      1671 1.13966E-03
 -1      1672 9.47664E-04
 -1      1673 1.76008E-03
 -1      1674 2.73504E+01
 -1      1675 2.70694E+01
 -1      1676 3.79056E+01
 -1      1677 2.68039E+01
 -1      1678 4.73581E+01
 -1      1679 4.73581E+01
 -1      1680 2.05066E+01
 -1      1681 3.42085E+01
 -1      1682 1.16283E+01
 -1      1683 1.55291E+01
 -1      1684 1.22980E+01
 -1      1685 1.21525E+01
 -1      1686 1.24435E+01
 -1      1687 1.24435E+01
 -1      1688 1.24261E+01
 -1      1689 1.22415E+01
 -1      1690 1.28125E+01
 -1      1691 1.28125E+01
 -1      1692 1.18350E+01
 -1      1693 1.22395E+01
 -1      1694 1.93393E+01
 -1      1695 1.20034E+01
 -1      1696 2.86482E+01
 -1      1697 2.72445E+01
 -1      1698 2.94826E+01
 -1      1699 2.94826E+01
 -1      1700 2.47044E+01
 -1      1701 2.70935E+01
 -1      1702 2.83212E+01
 -1      1703 2.70358E+01
 -1      1704 2.83212E+01
 -1      1705 2.83212E+01
 -1      1706 3.60395E+01
 -1      1707 3.10267E+01
 -1      1708 3.73008E+01
 -1      1709 3.73008E+01
 -1      1710 1.44019E+01
 -1      1711 2.58513E+01
 -1      1712 1.15680E+01
 -1      1713 1.28098E+01
 -1      1714 1.19184E+01
 -1      1715 1.19184E+01
 -1      1716 1.18032E+01
 -1      1717 1.18608E+01
 -1      1718 1.18517E+01
 -1      1719 1.17578E+01
 -1      1720 1.19909E+01
 -1      1721 1.19909E+01
 -1      1722 1.17908E+01
 -1      1723 1.18909E+01
 -1      1724 1.88263E+01
 -1      1725 1.17752E+01
 -1      1726 2.87565E+01
 -1      1727 2.69027E+01
 -1      1728 3.05704E+01
 -1      1729 3.05704E+01
 -1      1730 2.81780E+01
 -1      1731 3.05704E+01
 -1      1732 2.70694E+01
 -1      1733 2.71810E+01
 -1      1734 1.60814E+01
 -1      1735 3.42085E+01
 -1      1736 1.26178E-03
 -1      1737 1.29697E-03
 -1      1738 2.89996E+01
 -1      1739 3.79056E+01
 -1      1740 2.95462E+01
 -1      1741 1.16283E+01
 -1      1742 1.22980E+01
 -1      1743 1.22415E+01
 -1      1744 1.24261E+01
 -1      1745 1.22395E+01
 -1      1746 1.18350E+01
 -1      1747 1.99086E+01
 -1      1748 2.86482E+01
 -1      1749 2.70935E+01
 -1      1750 2.70358E+01
 -1      1751 2.93672E+01
 -1      1752 3.20727E+01
 -1      1753 3.60395E+01
 -1      1754 2.58513E+01
 -1      1755 1.28098E+01
 -1      1756 1.15680E+01
 -1      1757 1.18608E+01
 -1      1758 1.17578E+01
 -1      1759 1.18517E+01
 -1      1760 1.18909E+01
 -1      1761 1.17752E+01
 -1      1762 1.98359E+01
 -1      1763 2.97262E+01
 -1      1764 3.15401E+01
 -1      1765 3.05431E+01
 -1      1766 9.02219E+00
 -1      1767 1.60088E+00
 -1      1768 1.96927E+00
 -1      1769 2.50093E+00
 -1      1770 4.14167E+00
 -1      1771 1.96176E+00
 -1      1772 1.03022E+00
 -1      1773 1.17981E+00
 -1      1774 8.17818E-01
 -1      1775 9.40169E-01
 -1      1776 9.11653E-01
 -1      1777 6.15683E-01
 -1      1778 7.19733E-01
 -1      1779 7.23512E-01
 -1      1780 4.55054E-01
 -1      1781 5.33538E-01
 -1      1782 5.43283E-01
 -1      1783 5.43325E-01
 -1      1784 4.60786E-01
 -1      1785 4.66870E-01
 -1      1786 7.24339E-01
 -1      1787 6.23344E-01
 -1      1788 5.52622E-01
 -1      1789 9.49094E-01
 -1      1790 8.21623E-01
 -1      1791 7.29925E-01
 -1      1792 1.19158E+00
 -1      1793 1.03954E+00
 -1      1794 9.17653E-01
 -1      1795 1.49925E+00
 -1      1796 1.29088E+00
 -1      1797 1.10740E+00
 -1      1798 1.99057E+00
 -1      1799 1.63798E+00
 -1      1800 1.34543E+00
 -1      1801 2.67692E+00
 -1      1802 2.03226E+00
 -1      1803 1.52585E+00
 -1      1804 7.44122E+00
 -1      1805 2.75352E+00
 -1      1806 1.64415E+00
 -1      1807 2.39725E+00
 -1      1808 4.78957E+00
 -1      1809 1.61254E+00
 -1      1810 2.20165E+00
 -1      1811 1.52514E+00
 -1      1812 3.14132E+00
 -1      1813 1.75119E+00
 -1      1814 1.26012E+00
 -1      1815 1.08209E+00
 -1      1816 7.68455E-01
 -1      1817 8.42530E-01
 -1      1818 7.58660E-01
 -1      1819 7.09696E-01
 -1      1820 6.54710E-01
 -1      1821 7.42145E-01
 -1      1822 7.66294E-01
 -1      1823 6.77364E-01
 -1      1824 7.90634E-01
 -1      1825 9.31423E-01
 -1      1826 7.34153E-01
 -1      1827 9.19235E-01
 -1      1828 9.39074E-01
 -1      1829 7.46306E-01
 -1      1830 9.73654E-01
 -1      1831 1.00007E+00
 -1      1832 7.68698E-01
 -1      1833 1.02761E+00
 -1      1834 1.03609E+00
 -1      1835 8.30822E-01
 -1      1836 1.25786E+00
 -1      1837 1.57380E+00
 -1      1838 1.08013E+00
 -1      1839 1.84045E+00
 -1      1840 2.40580E+00
 -1      1841 1.56854E+00
 -1      1842 2.67388E+00
 -1      1843 3.19586E+00
 -1      1844 2.10328E+00
 -1      1845 3.24676E+00
 -1      1846 3.23178E+00
 -1      1847 2.42226E+00
 -1      1848 3.25149E+00
 -1      1849 3.27445E+00
 -1      1850 2.49287E+00
 -1      1851 3.20482E+00
 -1      1852 2.66048E+00
 -1      1853 2.44295E+00
 -1      1854 2.37656E+00
 -1      1855 1.80935E+00
 -1      1856 2.08940E+00
 -1      1857 1.52007E+00
 -1      1858 1.26770E+00
 -1      1859 1.51620E+00
 -1      1860 1.08395E+00
 -1      1861 1.13562E+00
 -1      1862 1.04317E+00
 -1      1863 1.10218E+00
 -1      1864 1.04866E+00
 -1      1865 8.25978E-01
 -1      1866 1.13535E+00
 -1      1867 1.16181E+00
 -1      1868 8.79225E-01
 -1      1869 1.19840E+00
 -1      1870 1.13225E+00
 -1      1871 1.00250E+00
 -1      1872 1.10190E+00
 -1      1873 9.96070E-01
 -1      1874 1.00875E+00
 -1      1875 9.43324E-01
 -1      1876 8.62702E-01
 -1      1877 9.25653E-01
 -1      1878 8.16572E-01
 -1      1879 7.60099E-01
 -1      1880 8.26777E-01
 -1      1881 7.06860E-01
 -1      1882 6.40953E-01
 -1      1883 7.27409E-01
 -1      1884 5.81926E-01
 -1      1885 5.16986E-01
 -1      1886 6.15143E-01
 -1      1887 4.59848E-01
 -1      1888 4.01631E-01
 -1      1889 4.98977E-01
 -1      1890 3.50590E-01
 -1      1891 3.07709E-01
 -1      1892 3.90797E-01
 -1      1893 2.64540E-01
 -1      1894 2.34251E-01
 -1      1895 2.96587E-01
 -1      1896 1.99204E-01
 -1      1897 1.74598E-01
 -1      1898 2.18371E-01
 -1      1899 1.47074E-01
 -1      1900 1.26609E-01
 -1      1901 1.55799E-01
 -1      1902 1.08422E-01
 -1      1903 9.36253E-02
 -1      1904 1.10088E-01
 -1      1905 8.06177E-02
 -1      1906 7.20049E-02
 -1      1907 7.88932E-02
 -1      1908 6.31015E-02
 -1      1909 5.53602E-02
 -1      1910 5.69822E-02
 -1      1911 5.09128E-02
 -1      1912 4.42041E-02
 -1      1913 4.36314E-02
 -1      1914 4.07122E-02
 -1      1915 3.50588E-02
 -1      1916 3.56920E-02
 -1      1917 3.18926E-02
 -1      1918 2.73184E-02
 -1      1919 2.90339E-02
 -1      1920 2.45427E-02
 -1      1921 2.13341E-02
 -1      1922 2.30919E-02
 -1      1923 1.89606E-02
 -1      1924 1.68646E-02
 -1      1925 1.79427E-02
 -1      1926 1.53906E-02
 -1      1927 1.36222E-02
 -1      1928 1.40952E-02
 -1      1929 1.25802E-02
 -1      1930 1.09920E-02
 -1      1931 1.15792E-02
 -1      1932 9.95890E-03
 -1      1933 8.65073E-03
 -1      1934 9.50404E-03
 -1      1935 7.67467E-03
 -1      1936 6.58031E-03
 -1      1937 7.49488E-03
 -1      1938 5.79859E-03
 -1      1939 4.95042E-03
 -1      1940 5.73712E-03
 -1      1941 4.25793E-03
 -1      1942 3.76462E-03
 -1      1943 4.26291E-03
 -1      1944 3.28110E-03
 -1      1945 2.84096E-03
 -1      1946 3.08690E-03
 -1      1947 2.53269E-03
 -1      1948 2.12118E-03
 -1      1949 1.62576E-03
 -1      1950 2.29512E-03
 -1      1951 1.00001E+00
 -1      1952 1.26136E+00
 -1      1953 9.78355E-01
 -1      1954 7.65828E-01
 -1      1955 9.52344E-01
 -1      1956 5.79503E-01
 -1      1957 6.85378E-01
 -1      1958 8.03397E-01
 -1      1959 5.69403E-01
 -1      1960 6.74844E-01
 -1      1961 7.11324E-01
 -1      1962 6.32919E-01
 -1      1963 7.16896E-01
 -1      1964 6.58933E-01
 -1      1965 6.42954E-01
 -1      1966 7.68805E-01
 -1      1967 6.94984E-01
 -1      1968 6.05132E-01
 -1      1969 9.03070E-01
 -1      1970 7.65378E-01
 -1      1971 5.79794E-01
 -1      1972 1.18565E+00
 -1      1973 1.13446E+00
 -1      1974 8.07755E-01
 -1      1975 1.69859E+00
 -1      1976 1.51893E+00
 -1      1977 1.37242E+00
 -1      1978 2.13855E+00
 -1      1979 1.85472E+00
 -1      1980 1.86183E+00
 -1      1981 2.61286E+00
 -1      1982 2.14537E+00
 -1      1983 2.02478E+00
 -1      1984 2.75789E+00
 -1      1985 2.59659E+00
 -1      1986 2.01532E+00
 -1      1987 3.14008E+00
 -1      1988 2.91284E+00
 -1      1989 2.15400E+00
 -1      1990 2.67418E+00
 -1      1991 3.05180E+00
 -1      1992 2.22067E+00
 -1      1993 1.66697E+00
 -1      1994 2.32687E+00
 -1      1995 1.78508E+00
 -1      1996 1.06852E+00
 -1      1997 1.38031E+00
 -1      1998 1.15111E+00
 -1      1999 8.42965E-01
 -1      2000 9.45870E-01
 -1      2001 7.41793E-01
 -1      2002 9.84938E-01
 -1      2003 9.65279E-01
 -1      2004 7.41454E-01
 -1      2005 1.11730E+00
 -1      2006 1.02042E+00
 -1      2007 8.99245E-01
 -1      2008 1.11912E+00
 -1      2009 1.13230E+00
 -1      2010 9.49729E-01
 -1      2011 1.02127E+00
 -1      2012 1.09364E+00
 -1      2013 9.39258E-01
 -1      2014 8.85491E-01
 -1      2015 9.74068E-01
 -1      2016 8.66580E-01
 -1      2017 7.55418E-01
 -1      2018 8.35408E-01
 -1      2019 7.69295E-01
 -1      2020 6.22595E-01
 -1      2021 6.95896E-01
 -1      2022 6.59691E-01
 -1      2023 4.93152E-01
 -1      2024 5.62971E-01
 -1      2025 5.40545E-01
 -1      2026 3.77239E-01
 -1      2027 4.38789E-01
 -1      2028 4.26557E-01
 -1      2029 2.79244E-01
 -1      2030 3.30641E-01
 -1      2031 3.25596E-01
 -1      2032 2.06426E-01
 -1      2033 2.41279E-01
 -1      2034 2.41033E-01
 -1      2035 1.55460E-01
 -1      2036 1.82026E-01
 -1      2037 1.78668E-01
 -1      2038 1.14850E-01
 -1      2039 1.35751E-01
 -1      2040 1.34559E-01
 -1      2041 8.33893E-02
 -1      2042 9.91196E-02
 -1      2043 9.91196E-02
 -1      2044 5.88852E-02
 -1      2045 7.11373E-02
 -1      2046 7.11373E-02
 -1      2047 4.24740E-02
 -1      2048 4.95546E-02
 -1      2049 4.95546E-02
 -1      2050 3.25724E-02
 -1      2051 3.65112E-02
 -1      2052 3.42612E-02
 -1      2053 2.69982E-02
 -1      2054 3.05719E-02
 -1      2055 2.62978E-02
 -1      2056 2.18579E-02
 -1      2057 2.49843E-02
 -1      2058 2.22833E-02
 -1      2059 1.77289E-02
 -1      2060 1.99547E-02
 -1      2061 1.83662E-02
 -1      2062 1.48750E-02
 -1      2063 1.60034E-02
 -1      2064 1.47375E-02
 -1      2065 1.22296E-02
 -1      2066 1.34547E-02
 -1      2067 1.15916E-02
 -1      2068 1.02517E-02
 -1      2069 1.14744E-02
 -1      2070 9.41609E-03
 -1      2071 8.33982E-03
 -1      2072 9.51093E-03
 -1      2073 7.92024E-03
 -1      2074 6.59462E-03
 -1      2075 7.67011E-03
 -1      2076 6.50979E-03
 -1      2077 5.10378E-03
 -1      2078 6.01455E-03
 -1      2079 5.26001E-03
 -1      2080 3.71814E-03
 -1      2081 4.52244E-03
 -1      2082 4.09860E-03
 -1      2083 2.80278E-03
 -1      2084 3.24116E-03
 -1      2085 3.04028E-03
 -1      2086 1.75778E-03
 -1      2087 2.40002E-03
 -1      2088 2.16054E-03
 -1      2089 1.29697E-03
 -1      2090 7.55055E-04
 -1      2091 7.72047E-04
 -1      2092 1.14206E-03
 -1      2093 1.23787E-03
 -1      2094 1.26958E-03
 -1      2095 1.23787E-03
 -1      2096 1.23787E-03
 -1      2097 1.69869E-03
 -1      2098 1.63960E-03
 -1      2099 9.99060E-04
 -1      2100 8.73971E-04
 -1      2101 1.01848E-03
 -1      2102 1.16359E-03
 -1      2103 1.09236E-03
 -1      2104 1.23070E-03
 -1      2105 1.22717E-03
 -1      2106 1.20058E-03
 -1      2107 1.36100E-03
 -1      2108 1.22717E-03
 -1      2109 1.22717E-03
 -1      2110 1.39800E-03
 -1      2111 1.22512E-03
 -1      2112 1.22530E-03
 -1      2113 1.39613E-03
 -1      2114 1.19611E-03
 -1      2115 1.22512E-03
 -1      2116 1.39427E-03
 -1      2117 1.09159E-03
 -1      2118 1.16065E-03
 -1      2119 1.35882E-03
 -1      2120 8.76820E-04
 -1      2121 9.98536E-04
 -1      2122 1.23030E-03
 -1      2123 7.62592E-04
 -1      2124 7.55461E-04
 -1      2125 1.01588E-03
 -1      2126 1.09695E-03
 -1      2127 1.09695E-03
 -1      2128 1.22889E-03
 -1      2129 3.79056E+01
 -1      2130 2.84531E+01
 -1      2131 3.00666E+01
 -1      2132 3.00666E+01
 -1      2133 2.95201E+01
 -1      2134 3.00666E+01
 -1      2135 1.87594E+01
 -1      2136 3.19091E+01
 -1      2137 1.02442E+01
 -1      2138 1.52216E+01
 -1      2139 1.47162E+00
 -1      2140 1.67850E+00
 -1      2141 1.50771E+00
 -1      2142 1.29352E+00
 -1      2143 1.10512E+01
 -1      2144 1.09057E+01
 -1      2145 1.11045E+01
 -1      2146 1.13064E+01
 -1      2147 1.20666E+01
 -1      2148 1.16802E+01
 -1      2149 1.05994E+01
 -1      2150 1.11724E+01
 -1      2151 9.50659E+00
 -1      2152 9.33816E+00
 -1      2153 8.27096E+00
 -1      2154 1.95711E+01
 -1      2155 1.16660E+01
 -1      2156 2.45209E+01
 -1      2157 2.36865E+01
 -1      2158 2.41767E+01
 -1      2159 2.65659E+01
 -1      2160 3.33169E+01
 -1      2161 3.09855E+01
 -1      2162 3.33169E+01
 -1      2163 3.33169E+01
 -1      2164 2.96015E+01
 -1      2165 2.68961E+01
 -1      2166 2.99654E+01
 -1      2167 2.87041E+01
 -1      2168 2.35275E+01
 -1      2169 1.38961E+01
 -1      2170 2.53455E+01
 -1      2171 9.13108E+00
 -1      2172 1.07233E+01
 -1      2173 1.01656E+01
 -1      2174 9.81517E+00
 -1      2175 1.09479E+01
 -1      2176 1.10055E+01
 -1      2177 1.09430E+01
 -1      2178 1.09884E+01
 -1      2179 1.14858E+01
 -1      2180 1.13466E+01
 -1      2181 1.03651E+01
 -1      2182 1.04651E+01
 -1      2183 9.96003E+00
 -1      2184 8.95851E+00
 -1      2185 8.97413E+00
 -1      2186 1.94959E+01
 -1      2187 1.14195E+01
 -1      2188 2.51745E+01
 -1      2189 2.33606E+01
 -1      2190 3.15401E+01
 -1      2191 3.15401E+01
 -1      2192 2.96985E+01
 -1      2193 3.06955E+01
 -1      2194 3.02190E+01
 -1      2195 9.71181E+00
 -1      2196 9.18757E+00
 -1      2197 1.29222E+01
 -1      2198 2.48763E+00
 -1      2199 8.32775E+00
 -1      2200 8.46505E+00
 -1      2201 1.75699E+00
 -1      2202 2.95201E+01
 -1      2203 3.05870E+01
 -1      2204 1.41396E-03
 -1      2205 2.24566E+01
 -1      2206 3.06955E+01
 -1      2207 2.51745E+01
 -1      2208 1.49442E+01
 -1      2209 7.54841E+00
 -1      2210 1.05771E+01
 -1      2211 1.01331E+01
 -1      2212 9.25269E+00
 -1      2213 7.72869E+00
 -1      2214 1.80101E+01
 -1      2215 2.68961E+01
 -1      2216 3.08458E+01
 -1      2217 2.44249E+01
 -1      2218 3.72666E+01
 -1      2219 3.04579E+01
 -1      2220 2.16041E+01
 -1      2221 9.16912E+00
 -1      2222 1.04264E+01
 -1      2223 9.91419E+00
 -1      2224 1.07451E+01
 -1      2225 1.54438E+01
 -1      2226 1.02174E+01
 -1      2227 8.61847E+00
 -1      2228 9.17704E-01
 -1      2229 1.26889E+00
 -1      2230 6.84670E-01
 -1      2231 7.82755E-01
 -1      2232 8.42277E-01
 -1      2233 9.32334E-01
 -1      2234 8.03435E-01
 -1      2235 3.77410E-01
 -1      2236 3.71678E-01
 -1      2237 5.82685E-01
 -1      2238 5.02665E-01
 -1      2239 4.07473E-01
 -1      2240 7.90068E-01
 -1      2241 6.92785E-01
 -1      2242 6.42828E-01
 -1      2243 9.36737E-01
 -1      2244 8.46292E-01
 -1      2245 8.09152E-01
 -1      2246 1.08366E+00
 -1      2247 9.84356E-01
 -1      2248 9.12995E-01
 -1      2249 1.39423E+00
 -1      2250 1.25550E+00
 -1      2251 1.13246E+00
 -1      2252 6.14211E-01
 -1      2253 6.61880E-01
 -1      2254 9.52412E-01
 -1      2255 1.04901E+00
 -1      2256 8.70983E-01
 -1      2257 6.02423E+00
 -1      2258 7.08086E+00
 -1      2259 7.28695E-01
 -1      2260 7.18900E-01
 -1      2261 9.35173E-01
 -1      2262 7.45494E-01
 -1      2263 7.77943E-01
 -1      2264 8.19479E-01
 -1      2265 8.26461E-01
 -1      2266 8.50801E-01
 -1      2267 8.94591E-01
 -1      2268 9.02685E-01
 -1      2269 8.90498E-01
 -1      2270 9.94993E-01
 -1      2271 9.19123E-01
 -1      2272 9.53703E-01
 -1      2273 1.07550E+00
 -1      2274 1.09894E+00
 -1      2275 1.12648E+00
 -1      2276 1.24937E+00
 -1      2277 1.23325E+00
 -1      2278 1.45502E+00
 -1      2279 1.50137E+00
 -1      2280 1.59636E+00
 -1      2281 1.86301E+00
 -1      2282 1.74949E+00
 -1      2283 1.90644E+00
 -1      2284 2.17452E+00
 -1      2285 1.93425E+00
 -1      2286 2.59095E+00
 -1      2287 2.64185E+00
 -1      2288 2.39411E+00
 -1      2289 2.73349E+00
 -1      2290 2.75320E+00
 -1      2291 2.90218E+00
 -1      2292 2.64740E+00
 -1      2293 2.57777E+00
 -1      2294 2.88802E+00
 -1      2295 2.16577E+00
 -1      2296 1.88185E+00
 -1      2297 2.37022E+00
 -1      2298 1.78411E+00
 -1      2299 1.49483E+00
 -1      2300 1.86048E+00
 -1      2301 1.43978E+00
 -1      2302 1.25603E+00
 -1      2303 1.70769E+00
 -1      2304 1.12698E+00
 -1      2305 1.09354E+00
 -1      2306 1.52359E+00
 -1      2307 1.01091E+00
 -1      2308 1.09760E+00
 -1      2309 1.31191E+00
 -1      2310 1.06845E+00
 -1      2311 1.10504E+00
 -1      2312 1.20013E+00
 -1      2313 1.04327E+00
 -1      2314 1.01293E+00
 -1      2315 1.10922E+00
 -1      2316 9.44566E-01
 -1      2317 8.91820E-01
 -1      2318 9.79092E-01
 -1      2319 8.52646E-01
 -1      2320 8.06516E-01
 -1      2321 8.71559E-01
 -1      2322 7.53016E-01
 -1      2323 6.99777E-01
 -1      2324 7.78885E-01
 -1      2325 6.40887E-01
 -1      2326 5.81859E-01
 -1      2327 6.66493E-01
 -1      2328 5.24434E-01
 -1      2329 4.67295E-01
 -1      2330 5.50177E-01
 -1      2331 4.15248E-01
 -1      2332 3.64206E-01
 -1      2333 4.40704E-01
 -1      2334 3.19339E-01
 -1      2335 2.76170E-01
 -1      2336 3.43789E-01
 -1      2337 2.38912E-01
 -1      2338 2.03864E-01
 -1      2339 2.61663E-01
 -1      2340 1.73841E-01
 -1      2341 1.46318E-01
 -1      2342 1.94383E-01
 -1      2343 1.22739E-01
 -1      2344 1.04552E-01
 -1      2345 1.40781E-01
 -1      2346 8.64648E-02
 -1      2347 7.34572E-02
 -1      2348 9.91159E-02
 -1      2349 5.98959E-02
 -1      2350 5.09925E-02
 -1      2351 6.74675E-02
 -1      2352 4.12125E-02
 -1      2353 3.67651E-02
 -1      2354 4.41262E-02
 -1      2355 3.15088E-02
 -1      2356 2.80168E-02
 -1      2357 2.90899E-02
 -1      2358 2.57277E-02
 -1      2359 2.25615E-02
 -1      2360 2.15445E-02
 -1      2361 2.12606E-02
 -1      2362 1.84849E-02
 -1      2363 1.79545E-02
 -1      2364 1.71272E-02
 -1      2365 1.47537E-02
 -1      2366 1.52959E-02
 -1      2367 1.34382E-02
 -1      2368 1.19642E-02
 -1      2369 1.26227E-02
 -1      2370 1.07473E-02
 -1      2371 9.70532E-03
 -1      2372 1.00903E-02
 -1      2373 8.94250E-03
 -1      2374 7.90941E-03
 -1      2375 8.11069E-03
 -1      2376 7.26236E-03
 -1      2377 6.28631E-03
 -1      2378 6.70083E-03
 -1      2379 5.62168E-03
 -1      2380 4.83996E-03
 -1      2381 5.38916E-03
 -1      2382 4.26321E-03
 -1      2383 3.57072E-03
 -1      2384 4.14777E-03
 -1      2385 3.08168E-03
 -1      2386 2.59816E-03
 -1      2387 3.08197E-03
 -1      2388 7.36236E-01
 -1      2389 7.10290E-01
 -1      2390 7.50174E-01
 -1      2391 7.66084E-01
 -1      2392 8.43456E-01
 -1      2393 7.26232E-01
 -1      2394 7.48143E-01
 -1      2395 8.71274E-01
 -1      2396 8.34652E-01
 -1      2397 8.38078E-01
 -1      2398 9.81090E-01
 -1      2399 1.10641E+00
 -1      2400 8.75022E-01
 -1      2401 1.13331E+00
 -1      2402 1.65068E+00
 -1      2403 1.31740E+00
 -1      2404 1.38467E+00
 -1      2405 1.91564E+00
 -1      2406 1.75951E+00
 -1      2407 1.70449E+00
 -1      2408 2.15756E+00
 -1      2409 2.15074E+00
 -1      2410 2.04842E+00
 -1      2411 2.31895E+00
 -1      2412 2.33522E+00
 -1      2413 2.46118E+00
 -1      2414 2.42523E+00
 -1      2415 2.27028E+00
 -1      2416 2.59018E+00
 -1      2417 2.03956E+00
 -1      2418 2.12783E+00
 -1      2419 2.24411E+00
 -1      2420 1.51262E+00
 -1      2421 1.85993E+00
 -1      2422 1.76709E+00
 -1      2423 1.04950E+00
 -1      2424 1.33616E+00
 -1      2425 1.41101E+00
 -1      2426 8.92180E-01
 -1      2427 1.01483E+00
 -1      2428 1.19989E+00
 -1      2429 9.20588E-01
 -1      2430 7.98273E-01
 -1      2431 1.07131E+00
 -1      2432 9.85833E-01
 -1      2433 9.50356E-01
 -1      2434 1.00718E+00
 -1      2435 9.79578E-01
 -1      2436 9.64572E-01
 -1      2437 1.01568E+00
 -1      2438 9.06028E-01
 -1      2439 9.31505E-01
 -1      2440 9.46348E-01
 -1      2441 8.23116E-01
 -1      2442 8.70318E-01
 -1      2443 8.62565E-01
 -1      2444 7.29498E-01
 -1      2445 7.79581E-01
 -1      2446 7.83319E-01
 -1      2447 6.15306E-01
 -1      2448 6.74827E-01
 -1      2449 6.85113E-01
 -1      2450 4.98794E-01
 -1      2451 5.58419E-01
 -1      2452 5.73555E-01
 -1      2453 3.91003E-01
 -1      2454 4.45366E-01
 -1      2455 4.63240E-01
 -1      2456 2.97391E-01
 -1      2457 3.43989E-01
 -1      2458 3.62798E-01
 -1      2459 2.19927E-01
 -1      2460 2.57893E-01
 -1      2461 2.76285E-01
 -1      2462 1.63507E-01
 -1      2463 1.87907E-01
 -1      2464 2.04767E-01
 -1      2465 1.18598E-01
 -1      2466 1.38307E-01
 -1      2467 1.47547E-01
 -1      2468 8.35521E-02
 -1      2469 9.92824E-02
 -1      2470 1.03031E-01
 -1      2471 5.69529E-02
 -1      2472 6.92050E-02
 -1      2473 6.93678E-02
 -1      2474 3.95213E-02
 -1      2475 4.88519E-02
 -1      2476 4.69195E-02
 -1      2477 2.82983E-02
 -1      2478 3.42612E-02
 -1      2479 3.35584E-02
 -1      2480 2.42972E-02
 -1      2481 2.62978E-02
 -1      2482 2.62978E-02
 -1      2483 2.02693E-02
 -1      2484 2.22833E-02
 -1      2485 2.22833E-02
 -1      2486 1.64630E-02
 -1      2487 1.83662E-02
 -1      2488 1.83662E-02
 -1      2489 1.30120E-02
 -1      2490 1.47375E-02
 -1      2491 1.47375E-02
 -1      2492 1.01712E-02
 -1      2493 1.15916E-02
 -1      2494 1.15916E-02
 -1      2495 8.66097E-03
 -1      2496 9.41609E-03
 -1      2497 9.41609E-03
 -1      2498 7.11696E-03
 -1      2499 7.85769E-03
 -1      2500 7.85769E-03
 -1      2501 5.65116E-03
 -1      2502 6.32088E-03
 -1      2503 6.25833E-03
 -1      2504 4.41556E-03
 -1      2505 4.99562E-03
 -1      2506 4.80671E-03
 -1      2507 3.25137E-03
 -1      2508 3.83271E-03
 -1      2509 3.56832E-03
 -1      2510 2.39272E-03
 -1      2511 2.86970E-03
 -1      2512 2.60381E-03
 -1      2513 2.10145E-03
 -1      2514 1.46948E-03
 -1      2515 1.37618E-03
 -1      2516 1.54566E-03
 -1      2517 1.50866E-03
 -1      2518 1.65414E-03
 -1      2519 1.42065E-03
 -1      2520 1.79067E-03
 -1      2521 1.26790E-03
 -1      2522 1.14898E-03
 -1      2523 1.67007E-03
 -1      2524 1.50668E-03
 -1      2525 1.54566E-03
 -1      2526 1.54566E-03
 -1      2527 1.69332E-03
 -1      2528 1.52731E-03
 -1      2529 1.52918E-03
 -1      2530 1.67684E-03
 -1      2531 1.54215E-03
 -1      2532 1.54215E-03
 -1      2533 1.67519E-03
 -1      2534 1.50669E-03
 -1      2535 1.54215E-03
 -1      2536 1.69002E-03
 -1      2537 1.37639E-03
 -1      2538 1.46945E-03
 -1      2539 1.65278E-03
 -1      2540 1.12932E-03
 -1      2541 1.25068E-03
 -1      2542 1.48983E-03
 -1      2543 1.42453E-03
 -1      2544 1.09017E-03
 -1      2545 1.32497E-03
 -1      2546 3.05870E+01
 -1      2547 3.05870E+01
 -1      2548 1.47738E+01
 -1      2549 2.07704E+01
 -1      2550 6.74871E-01
 -1      2551 6.37302E-01
 -1      2552 7.78189E-01
 -1      2553 7.25619E+00
 -1      2554 6.06227E+00
 -1      2555 1.77505E-03
 -1      2556 2.70214E+01
 -1      2557 2.78660E+01
 -1      2558 2.47735E+01
 -1      2559 2.58405E+01
 -1      2560 3.02190E+01
 -1      2561 2.98509E+01
 -1      2562 9.44249E+00
 -1      2563 9.03893E+00
 -1      2564 7.81321E+00
 -1      2565 8.70749E+00
 -1      2566 4.94542E-01
 -1      2567 5.76687E-01
 -1      2568 6.35929E-01
 -1      2569 4.05082E-01
 -1      2570 9.68363E+00
 -1      2571 9.10797E+00
 -1      2572 1.45186E+01
 -1      2573 1.04032E+01
 -1      2574 8.85943E+00
 -1      2575 8.60422E+00
 -1      2576 7.79799E+00
 -1      2577 5.60407E+00
 -1      2578 6.86528E+00
 -1      2579 6.89476E+00
 -1      2580 1.00676E+01
 -1      2581 8.84557E+00
 -1      2582 6.68620E+00
 -1      2583 5.28052E+00
 -1      2584 1.96428E+01
 -1      2585 1.75979E+01
 -1      2586 3.04579E+01
 -1      2587 2.36491E+01
 -1      2588 3.72666E+01
 -1      2589 3.72666E+01
 -1      2590 3.04579E+01
 -1      2591 1.93046E+01
 -1      2592 2.02021E+01
 -1      2593 8.62265E+00
 -1      2594 6.16165E+00
 -1      2595 1.21454E+01
 -1      2596 1.67653E+01
 -1      2597 1.34400E+01
 -1      2598 6.07131E+00
 -1      2599 5.38723E+00
 -1      2600 5.23739E+00
 -1      2601 8.27157E+00
 -1      2602 7.43165E+00
 -1      2603 8.98223E+00
 -1      2604 8.94175E+00
 -1      2605 7.50917E+00
 -1      2606 8.52985E+00
 -1      2607 5.20869E+00
 -1      2608 6.59962E+00
 -1      2609 1.40913E+01
 -1      2610 1.02265E+01
 -1      2611 7.76967E+00
 -1      2612 2.29091E+01
 -1      2613 1.65436E+01
 -1      2614 2.03937E+00
 -1      2615 1.30294E+00
 -1      2616 1.33139E+00
 -1      2617 1.50771E+00
 -1      2618 1.31692E+00
 -1      2619 1.51253E+00
 -1      2620 1.43592E+00
 -1      2621 1.25627E+00
 -1      2622 9.16840E+00
 -1      2623 1.27062E+01
 -1      2624 6.86487E+00
 -1      2625 5.14632E+00
 -1      2626 1.22414E+00
 -1      2627 1.29352E+00
 -1      2628 1.58532E+00
 -1      2629 7.19679E-01
 -1      2630 1.39423E+00
 -1      2631 1.58532E+00
 -1      2632 1.18258E+01
 -1      2633 5.21286E+00
 -1      2634 1.92350E+01
 -1      2635 5.16945E+00
 -1      2636 1.93087E-03
 -1      2637 1.10200E+01
 -1      2638 1.93087E-03
 -1      2639 7.84758E+00
 -1      2640 3.02190E+01
 -1      2641 2.58405E+01
 -1      2642 1.70908E+01
 -1      2643 8.82280E+00
 -1      2644 1.30430E+00
 -1      2645 6.20143E+00
 -1      2646 1.81176E-03
 -1      2647 1.59995E-03
 -1      2648 1.46124E-03
 -1      2649 2.12002E-03
 -1      2650 2.70214E+01
 -1      2651 2.87694E+01
 -1      2652 2.87694E+01
 -1      2653 2.23486E+01
 -1      2654 1.65991E+01
 -1      2655 2.08219E+01
 -1      2656 2.08219E+01
 -1      2657 7.92030E+00
 -1      2658 5.09019E+00
 -1      2659 6.53027E+00
 -1      2660 9.14351E+00
 -1      2661 7.50641E+00
 -1      2662 6.99163E+00
 -1      2663 1.25572E+01
 -1      2664 5.25408E+00
 -1      2665 4.00719E+00
 -1      2666 4.04523E+00
 -1      2667 1.93815E+01
 -1      2668 1.53752E+01
 -1      2669 1.93815E+01
 -1      2670 7.12070E+00
 -1      2671 2.08194E-03
 -1      2672 2.11479E-03
 -1      2673 7.48435E-01
 -1      2674 6.38335E-01
 -1      2675 5.30927E-01
 -1      2676 4.05672E-01
 -1      2677 6.36534E-01
 -1      2678 9.43730E-01
 -1      2679 8.96110E-01
 -1      2680 1.12283E+00
 -1      2681 9.50986E-01
 -1      2682 9.34101E-01
 -1      2683 8.91234E-01
 -1      2684 1.14706E+00
 -1      2685 5.93711E+00
 -1      2686 4.58909E+00
 -1      2687 5.18961E+00
 -1      2688 7.27715E+00
 -1      2689 1.25627E+00
 -1      2690 4.13665E+00
 -1      2691 5.08458E+00
 -1      2692 8.51738E-01
 -1      2693 8.78332E-01
 -1      2694 9.42875E-01
 -1      2695 9.91392E-01
 -1      2696 9.75133E-01
 -1      2697 1.09716E+00
 -1      2698 1.14904E+00
 -1      2699 1.14544E+00
 -1      2700 1.28876E+00
 -1      2701 1.31738E+00
 -1      2702 1.39092E+00
 -1      2703 1.45745E+00
 -1      2704 1.60268E+00
 -1      2705 1.67070E+00
 -1      2706 1.75371E+00
 -1      2707 1.86048E+00
 -1      2708 1.96179E+00
 -1      2709 1.74949E+00
 -1      2710 1.89083E+00
 -1      2711 2.00182E+00
 -1      2712 2.19624E+00
 -1      2713 2.23967E+00
 -1      2714 2.19624E+00
 -1      2715 2.49996E+00
 -1      2716 2.91639E+00
 -1      2717 2.76194E+00
 -1      2718 3.15515E+00
 -1      2719 3.24678E+00
 -1      2720 3.26099E+00
 -1      2721 3.47541E+00
 -1      2722 3.36961E+00
 -1      2723 3.72837E+00
 -1      2724 2.80661E+00
 -1      2725 2.39461E+00
 -1      2726 3.39399E+00
 -1      2727 2.04673E+00
 -1      2728 1.94898E+00
 -1      2729 2.48311E+00
 -1      2730 2.27469E+00
 -1      2731 2.21965E+00
 -1      2732 2.46094E+00
 -1      2733 1.91750E+00
 -1      2734 1.78845E+00
 -1      2735 2.48450E+00
 -1      2736 1.64311E+00
 -1      2737 1.56048E+00
 -1      2738 2.03702E+00
 -1      2739 1.41807E+00
 -1      2740 1.38892E+00
 -1      2741 1.74927E+00
 -1      2742 1.23676E+00
 -1      2743 1.17499E+00
 -1      2744 1.45470E+00
 -1      2745 1.06729E+00
 -1      2746 9.98935E-01
 -1      2747 1.19484E+00
 -1      2748 9.25562E-01
 -1      2749 8.86389E-01
 -1      2750 1.01376E+00
 -1      2751 8.10683E-01
 -1      2752 7.57182E-01
 -1      2753 8.64687E-01
 -1      2754 6.86156E-01
 -1      2755 6.27266E-01
 -1      2756 7.17955E-01
 -1      2757 5.63938E-01
 -1      2758 5.06512E-01
 -1      2759 5.83601E-01
 -1      2760 4.51902E-01
 -1      2761 3.99854E-01
 -1      2762 4.65663E-01
 -1      2763 3.53934E-01
 -1      2764 3.09066E-01
 -1      2765 3.65132E-01
 -1      2766 2.71263E-01
 -1      2767 2.34005E-01
 -1      2768 2.81408E-01
 -1      2769 2.03474E-01
 -1      2770 1.73451E-01
 -1      2771 2.13074E-01
 -1      2772 1.49233E-01
 -1      2773 1.25655E-01
 -1      2774 1.58324E-01
 -1      2775 1.06781E-01
 -1      2776 8.86936E-02
 -1      2777 1.15232E-01
 -1      2778 7.42437E-02
 -1      2779 6.06824E-02
 -1      2780 8.19085E-02
 -1      2781 4.98232E-02
 -1      2782 4.00432E-02
 -1      2783 5.65994E-02
 -1      2784 3.20447E-02
 -1      2785 2.67884E-02
 -1      2786 3.77417E-02
 -1      2787 2.10293E-02
 -1      2788 1.87402E-02
 -1      2789 2.39841E-02
 -1      2790 1.53591E-02
 -1      2791 1.40582E-02
 -1      2792 1.48439E-02
 -1      2793 1.33097E-02
 -1      2794 1.19521E-02
 -1      2795 1.07143E-02
 -1      2796 1.15486E-02
 -1      2797 1.02330E-02
 -1      2798 9.56235E-03
 -1      2799 9.64781E-03
 -1      2800 8.43098E-03
 -1      2801 8.57366E-03
 -1      2802 7.76525E-03
 -1      2803 7.00243E-03
 -1      2804 7.32273E-03
 -1      2805 6.32356E-03
 -1      2806 5.67652E-03
 -1      2807 5.97812E-03
 -1      2808 5.21984E-03
 -1      2809 4.55520E-03
 -1      2810 4.84257E-03
 -1      2811 4.08499E-03
 -1      2812 3.50823E-03
 -1      2813 3.91567E-03
 -1      2814 3.04196E-03
 -1      2815 2.55292E-03
 -1      2816 2.97918E-03
 -1      2817 1.06231E+00
 -1      2818 1.06434E+00
 -1      2819 2.32251E+01
 -1      2820 2.03956E+01
 -1      2821 9.80271E-01
 -1      2822 9.50423E-01
 -1      2823 1.17131E+00
 -1      2824 1.48093E+00
 -1      2825 1.44056E+00
 -1      2826 1.75350E+00
 -1      2827 1.54251E+00
 -1      2828 1.84976E+00
 -1      2829 1.80664E+00
 -1      2830 1.69781E+00
 -1      2831 1.85565E+00
 -1      2832 2.34960E+00
 -1      2833 2.11450E+00
 -1      2834 2.10782E+00
 -1      2835 3.35687E+00
 -1      2836 3.17921E+00
 -1      2837 3.24529E+00
 -1      2838 3.95838E+00
 -1      2839 4.00704E+00
 -1      2840 4.72508E+00
 -1      2841 3.13574E+00
 -1      2842 3.43314E+00
 -1      2843 4.85001E+00
 -1      2844 2.00730E+00
 -1      2845 2.18692E+00
 -1      2846 3.37595E+00
 -1      2847 1.51315E+00
 -1      2848 1.68961E+00
 -1      2849 2.10944E+00
 -1      2850 1.55397E+00
 -1      2851 1.58864E+00
 -1      2852 1.86723E+00
 -1      2853 1.24468E+00
 -1      2854 1.33859E+00
 -1      2855 1.72733E+00
 -1      2856 1.22195E+00
 -1      2857 1.19218E+00
 -1      2858 1.45946E+00
 -1      2859 1.10975E+00
 -1      2860 1.13101E+00
 -1      2861 1.31602E+00
 -1      2862 9.62374E-01
 -1      2863 1.01045E+00
 -1      2864 1.12577E+00
 -1      2865 8.65262E-01
 -1      2866 9.00972E-01
 -1      2867 9.65071E-01
 -1      2868 7.65281E-01
 -1      2869 8.08816E-01
 -1      2870 8.47224E-01
 -1      2871 6.49212E-01
 -1      2872 7.03883E-01
 -1      2873 7.29381E-01
 -1      2874 5.32489E-01
 -1      2875 5.89376E-01
 -1      2876 6.08146E-01
 -1      2877 4.24478E-01
 -1      2878 4.77906E-01
 -1      2879 4.93727E-01
 -1      2880 3.29882E-01
 -1      2881 3.76896E-01
 -1      2882 3.91563E-01
 -1      2883 2.50298E-01
 -1      2884 2.89796E-01
 -1      2885 3.03895E-01
 -1      2886 1.85427E-01
 -1      2887 2.17447E-01
 -1      2888 2.30958E-01
 -1      2889 1.33938E-01
 -1      2890 1.59138E-01
 -1      2891 1.71819E-01
 -1      2892 9.40316E-02
 -1      2893 1.13348E-01
 -1      2894 1.24939E-01
 -1      2895 6.38851E-02
 -1      2896 7.82323E-02
 -1      2897 8.85489E-02
 -1      2898 4.39081E-02
 -1      2899 5.20092E-02
 -1      2900 6.08737E-02
 -1      2901 2.99129E-02
 -1      2902 3.51730E-02
 -1      2903 4.02626E-02
 -1      2904 2.19290E-02
 -1      2905 2.39296E-02
 -1      2906 2.55442E-02
 -1      2907 1.70502E-02
 -1      2908 1.90642E-02
 -1      2909 1.66960E-02
 -1      2910 1.45774E-02
 -1      2911 1.64805E-02
 -1      2912 1.32614E-02
 -1      2913 1.20617E-02
 -1      2914 1.37873E-02
 -1      2915 1.19016E-02
 -1      2916 9.75900E-03
 -1      2917 1.11794E-02
 -1      2918 1.02292E-02
 -1      2919 8.11283E-03
 -1      2920 8.86795E-03
 -1      2921 8.45574E-03
 -1      2922 6.53261E-03
 -1      2923 7.33589E-03
 -1      2924 6.78775E-03
 -1      2925 5.20928E-03
 -1      2926 6.00536E-03
 -1      2927 5.48356E-03
 -1      2928 4.01747E-03
 -1      2929 4.67301E-03
 -1      2930 4.42004E-03
 -1      2931 2.94868E-03
 -1      2932 3.53153E-03
 -1      2933 3.39783E-03
 -1      2934 2.38488E-03
 -1      2935 2.76655E-03
 -1      2936 2.72975E-03
 -1      2937 2.24468E-03
 -1      2938 8.92761E+00
 -1      2939 1.09952E+01
 -1      2940 1.77472E-03
 -1      2941 1.79120E-03
 -1      2942 2.15846E-03
 -1      2943 1.68033E-03
 -1      2944 2.11845E-03
 -1      2945 1.82690E-03
 -1      2946 1.78772E-03
 -1      2947 1.78904E-03
 -1      2948 1.77421E-03
 -1      2949 1.88857E-03
 -1      2950 1.82690E-03
 -1      2951 1.82690E-03
 -1      2952 1.96049E-03
 -1      2953 1.92478E-03
 -1      2954 1.81802E-03
 -1      2955 1.81802E-03
 -1      2956 1.91704E-03
 -1      2957 1.78078E-03
 -1      2958 1.81802E-03
 -1      2959 1.94602E-03
 -1      2960 1.60992E-03
 -1      2961 1.73563E-03
 -1      2962 1.90087E-03
 -1      2963 5.14416E+00
 -1      2964 4.19119E+00
 -1      2965 1.21452E+01
 -1      2966 1.61483E+01
 -1      2967 2.29005E+01
 -1      2968 2.25324E+01
 -1      2969 1.59066E+01
 -1      2970 6.84345E+00
 -1      2971 6.59491E+00
 -1      2972 7.60049E+00
 -1      2973 6.04284E+00
 -1      2974 1.89065E+01
 -1      2975 2.36531E+01
 -1      2976 6.71771E+00
 -1      2977 8.79558E+00
 -1      2978 8.32952E-01
 -1      2979 7.97533E-01
 -1      2980 9.69768E-01
 -1      2981 1.24111E+00
 -1      2982 1.12926E+00
 -1      2983 1.32233E+00
 -1      2984 1.58873E+00
 -1      2985 1.08616E+00
 -1      2986 9.43869E-01
 -1      2987 1.00272E+00
 -1      2988 7.42770E-01
 -1      2989 7.19679E-01
 -1      2990 9.14325E-01
 -1      2991 7.97533E-01
 -1      2992 1.58532E+00
 -1      2993 1.15697E+01
 -1      2994 9.11742E+00
 -1      2995 8.71482E-01
 -1      2996 8.15258E-01
 -1      2997 8.10765E-01
 -1      2998 9.02217E-01
 -1      2999 4.73638E+00
 -1      3000 3.37605E+00
 -1      3001 1.50490E-03
 -1      3002 8.01242E-01
 -1      3003 8.60765E-01
 -1      3004 5.07148E+00
 -1      3005 3.98935E+00
 -1      3006 6.52471E+00
 -1      3007 5.85453E+00
 -1      3008 2.62230E+01
 -1      3009 1.94143E+01
 -1      3010 3.83588E+00
 -1      3011 5.34341E+00
 -1      3012 1.81736E+01
 -1      3013 1.32167E+01
 -1      3014 5.65539E+00
 -1      3015 6.56803E+00
 -1      3016 9.28607E+00
 -1      3017 1.18254E+01
 -1      3018 1.19709E+01
 -1      3019 8.89159E+00
 -1      3020 7.01413E+00
 -1      3021 7.10952E+00
 -1      3022 7.05282E+00
 -1      3023 5.78665E+00
 -1      3024 5.77328E+00
 -1      3025 7.79813E+00
 -1      3026 6.19429E+00
 -1      3027 3.79197E+00
 -1      3028 4.70153E+00
 -1      3029 9.69568E-01
 -1      3030 1.33075E+00
 -1      3031 9.67375E-01
 -1      3032 5.07121E-01
 -1      3033 3.83667E-01
 -1      3034 5.06531E-01
 -1      3035 3.65934E+00
 -1      3036 3.92366E+00
 -1      3037 3.11547E+00
 -1      3038 7.25234E+00
 -1      3039 1.19509E+00
 -1      3040 3.92761E+00
 -1      3041 3.48207E+00
 -1      3042 1.24766E+01
 -1      3043 8.81098E+00
 -1      3044 1.22153E+01
 -1      3045 7.18098E+00
 -1      3046 1.91394E-03
 -1      3047 1.74118E-03
 -1      3048 1.63290E-03
 -1      3049 1.43773E+01
 -1      3050 4.27792E+00
 -1      3051 1.01362E+00
 -1      3052 1.60087E-03
 -1      3053 1.87255E-03
 -1      3054 2.17548E-03
 -1      3055 1.83537E-03
 -1      3056 1.00528E+01
 -1      3057 5.31620E+00
 -1      3058 3.72327E+00
 -1      3059 5.17262E+00
 -1      3060 1.54406E-03
 -1      3061 1.39610E+01
 -1      3062 1.59665E+01
 -1      3063 4.14038E+00
 -1      3064 1.87455E+01
 -1      3065 1.62863E+01
 -1      3066 2.47835E+01
 -1      3067 1.37399E+01
 -1      3068 6.30333E+00
 -1      3069 1.28768E+01
 -1      3070 1.34967E+01
 -1      3071 8.72296E+00
 -1      3072 4.98257E+00
 -1      3073 5.52060E+00
 -1      3074 4.75167E+00
 -1      3075 7.54203E+00
 -1      3076 4.41947E+00
 -1      3077 1.55078E+00
 -1      3078 1.55078E+00
 -1      3079 1.29685E+00
 -1      3080 1.29621E+00
 -1      3081 6.14001E-01
 -1      3082 7.21985E-01
 -1      3083 7.79314E-01
 -1      3084 5.92586E-01
 -1      3085 1.05083E+01
 -1      3086 1.72304E+01
 -1      3087 1.29628E+01
 -1      3088 1.29956E+01
 -1      3089 1.30554E+00
 -1      3090 1.88936E-03
 -1      3091 1.70943E-03
 -1      3092 1.95522E-03
 -1      3093 2.28382E-03
 -1      3094 3.10002E+00
 -1      3095 3.24732E+00
 -1      3096 1.00897E+00
 -1      3097 1.00171E+00
 -1      3098 1.09485E+00
 -1      3099 1.00272E+00
 -1      3100 1.21907E+00
 -1      3101 1.32484E+00
 -1      3102 1.48409E+00
 -1      3103 1.62380E+00
 -1      3104 1.55771E+00
 -1      3105 1.87300E+00
 -1      3106 2.01306E+00
 -1      3107 1.96616E+00
 -1      3108 2.48616E+00
 -1      3109 2.63718E+00
 -1      3110 2.68845E+00
 -1      3111 2.38087E+00
 -1      3112 2.26987E+00
 -1      3113 2.90523E+00
 -1      3114 4.14038E+00
 -1      3115 4.37914E+00
 -1      3116 4.59439E+00
 -1      3117 4.03139E+00
 -1      3118 3.07752E+00
 -1      3119 2.72964E+00
 -1      3120 3.44316E+00
 -1      3121 3.76887E+00
 -1      3122 3.27665E+00
 -1      3123 2.97451E+00
 -1      3124 4.25887E+00
 -1      3125 2.62494E+00
 -1      3126 2.47960E+00
 -1      3127 3.41709E+00
 -1      3128 2.06683E+00
 -1      3129 1.92442E+00
 -1      3130 2.65475E+00
 -1      3131 1.69599E+00
 -1      3132 1.54383E+00
 -1      3133 2.01355E+00
 -1      3134 1.37313E+00
 -1      3135 1.26543E+00
 -1      3136 1.61443E+00
 -1      3137 1.10898E+00
 -1      3138 1.03561E+00
 -1      3139 1.28728E+00
 -1      3140 9.13642E-01
 -1      3141 8.37936E-01
 -1      3142 1.00886E+00
 -1      3143 7.44022E-01
 -1      3144 6.72996E-01
 -1      3145 7.92977E-01
 -1      3146 6.03344E-01
 -1      3147 5.40016E-01
 -1      3148 6.29412E-01
 -1      3149 4.84626E-01
 -1      3150 4.30015E-01
 -1      3151 5.04369E-01
 -1      3152 3.81105E-01
 -1      3153 3.35184E-01
 -1      3154 4.00068E-01
 -1      3155 2.93813E-01
 -1      3156 2.56010E-01
 -1      3157 3.09786E-01
 -1      3158 2.22102E-01
 -1      3159 1.91570E-01
 -1      3160 2.34507E-01
 -1      3161 1.64482E-01
 -1      3162 1.40265E-01
 -1      3163 1.73511E-01
 -1      3164 1.19196E-01
 -1      3165 1.00322E-01
 -1      3166 1.25354E-01
 -1      3167 8.49778E-02
 -1      3168 7.05280E-02
 -1      3169 8.89416E-02
 -1      3170 5.89739E-02
 -1      3171 4.81147E-02
 -1      3172 6.20433E-02
 -1      3173 3.98452E-02
 -1      3174 3.18467E-02
 -1      3175 4.22197E-02
 -1      3176 2.60658E-02
 -1      3177 2.03067E-02
 -1      3178 2.81693E-02
 -1      3179 1.61322E-02
 -1      3180 1.27511E-02
 -1      3181 1.82139E-02
 -1      3182 9.81108E-03
 -1      3183 9.06264E-03
 -1      3184 1.10994E-02
 -1      3185 7.69629E-03
 -1      3186 7.29280E-03
 -1      3187 6.79309E-03
 -1      3188 7.47131E-03
 -1      3189 6.88611E-03
 -1      3190 5.60525E-03
 -1      3191 6.76398E-03
 -1      3192 6.09825E-03
 -1      3193 5.66163E-03
 -1      3194 5.79588E-03
 -1      3195 5.11701E-03
 -1      3196 5.23714E-03
 -1      3197 4.71905E-03
 -1      3198 4.26236E-03
 -1      3199 4.53681E-03
 -1      3200 3.89925E-03
 -1      3201 3.42904E-03
 -1      3202 3.77573E-03
 -1      3203 3.09971E-03
 -1      3204 2.63344E-03
 -1      3205 2.40435E-03
 -1      3206 3.08329E-03
 -1      3207 2.69243E+00
 -1      3208 2.63085E+00
 -1      3209 6.17077E+00
 -1      3210 5.52060E+00
 -1      3211 4.98257E+00
 -1      3212 5.50781E+00
 -1      3213 2.71052E+00
 -1      3214 3.65934E+00
 -1      3215 2.27055E+00
 -1      3216 2.19506E+00
 -1      3217 1.99815E+00
 -1      3218 2.21353E+00
 -1      3219 2.54136E+00
 -1      3220 1.76797E+00
 -1      3221 1.82047E+00
 -1      3222 2.30666E+00
 -1      3223 1.44231E+00
 -1      3224 1.53326E+00
 -1      3225 1.89427E+00
 -1      3226 1.17530E+00
 -1      3227 1.27460E+00
 -1      3228 1.49184E+00
 -1      3229 1.00657E+00
 -1      3230 1.06797E+00
 -1      3231 1.21679E+00
 -1      3232 8.48631E-01
 -1      3233 9.05076E-01
 -1      3234 1.00797E+00
 -1      3235 7.02431E-01
 -1      3236 7.63829E-01
 -1      3237 8.21682E-01
 -1      3238 5.68027E-01
 -1      3239 6.27864E-01
 -1      3240 6.62312E-01
 -1      3241 4.49947E-01
 -1      3242 5.04530E-01
 -1      3243 5.24247E-01
 -1      3244 3.50022E-01
 -1      3245 3.97604E-01
 -1      3246 4.08407E-01
 -1      3247 2.68907E-01
 -1      3248 3.08993E-01
 -1      3249 3.15035E-01
 -1      3250 2.03035E-01
 -1      3251 2.35885E-01
 -1      3252 2.40983E-01
 -1      3253 1.50461E-01
 -1      3254 1.76750E-01
 -1      3255 1.81677E-01
 -1      3256 1.09209E-01
 -1      3257 1.29800E-01
 -1      3258 1.34732E-01
 -1      3259 7.73938E-02
 -1      3260 9.31931E-02
 -1      3261 9.80543E-02
 -1      3262 5.32893E-02
 -1      3263 6.51652E-02
 -1      3264 6.98094E-02
 -1      3265 3.53725E-02
 -1      3266 4.41076E-02
 -1      3267 4.83992E-02
 -1      3268 2.26234E-02
 -1      3269 2.86068E-02
 -1      3270 3.24518E-02
 -1      3271 1.48796E-02
 -1      3272 1.77445E-02
 -1      3273 2.08070E-02
 -1      3274 1.08818E-02
 -1      3275 1.14515E-02
 -1      3276 1.25000E-02
 -1      3277 9.16446E-03
 -1      3278 9.95458E-03
 -1      3279 8.14465E-03
 -1      3280 8.21658E-03
 -1      3281 9.09895E-03
 -1      3282 7.15189E-03
 -1      3283 7.01303E-03
 -1      3284 7.90407E-03
 -1      3285 6.77387E-03
 -1      3286 5.78729E-03
 -1      3287 6.56424E-03
 -1      3288 6.01257E-03
 -1      3289 4.75222E-03
 -1      3290 5.27947E-03
 -1      3291 5.05595E-03
 -1      3292 3.82370E-03
 -1      3293 4.35997E-03
 -1      3294 4.15588E-03
 -1      3295 2.96064E-03
 -1      3296 3.44658E-03
 -1      3297 3.38652E-03
 -1      3298 2.45791E-03
 -1      3299 2.64005E-03
 -1      3300 2.68880E-03
 -1      3301 2.08578E-03
 -1      3302 2.00070E-03
 -1      3303 1.97172E-03
 -1      3304 9.82511E+00
 -1      3305 8.17812E+00
 -1      3306 1.90661E-03
 -1      3307 1.95177E-03
 -1      3308 1.88073E-03
 -1      3309 1.88124E-03
 -1      3310 1.96439E-03
 -1      3311 1.13692E+00
 -1      3312 1.01945E+00
 -1      3313 1.37696E+00
 -1      3314 1.29289E+00
 -1      3315 1.34257E+00
 -1      3316 2.00070E-03
 -1      3317 2.00070E-03
 -1      3318 2.05538E-03
 -1      3319 2.00645E-03
 -1      3320 1.35903E+01
 -1      3321 1.28377E+01
 -1      3322 2.41770E+00
 -1      3323 2.10984E+00
 -1      3324 1.28377E+01
 -1      3325 1.35303E+01
 -1      3326 1.04614E+01
 -1      3327 1.02703E+00
 -1      3328 1.09157E+00
 -1      3329 1.27096E+00
 -1      3330 3.02223E+00
 -1      3331 7.98214E+00
 -1      3332 9.13210E+00
 -1      3333 5.13588E+00
 -1      3334 1.26870E+01
 -1      3335 1.04650E+01
 -1      3336 9.61805E+00
 -1      3337 3.46874E+00
 -1      3338 4.65116E+00
 -1      3339 5.84861E+00
 -1      3340 7.49907E+00
 -1      3341 7.21222E+00
 -1      3342 5.89294E+00
 -1      3343 1.05608E+01
 -1      3344 1.33191E+01
 -1      3345 8.49020E+00
 -1      3346 2.76194E+00
 -1      3347 4.59827E+00
 -1      3348 3.62692E+00
 -1      3349 3.22178E+00
 -1      3350 1.47596E+01
 -1      3351 1.62863E+01
 -1      3352 4.07491E+00
 -1      3353 1.30554E+00
 -1      3354 1.09485E+00
 -1      3355 1.08552E+00
 -1      3356 6.19403E+00
 -1      3357 4.90292E+00
 -1      3358 3.77817E+00
 -1      3359 4.10427E+00
 -1      3360 5.47857E+00
 -1      3361 5.48692E+00
 -1      3362 4.43679E+00
 -1      3363 5.75518E+00
 -1      3364 6.24567E+00
 -1      3365 7.64317E-01
 -1      3366 6.56909E-01
 -1      3367 9.36075E-01
 -1      3368 8.63813E-01
 -1      3369 9.31427E-01
 -1      3370 7.64520E-01
 -1      3371 4.90725E+00
 -1      3372 3.38415E+00
 -1      3373 3.24529E+00
 -1      3374 6.40625E-01
 -1      3375 6.18619E-01
 -1      3376 7.68407E-01
 -1      3377 1.03046E+00
 -1      3378 9.55595E-01
 -1      3379 9.30967E-01
 -1      3380 1.11916E+00
 -1      3381 3.45778E+00
 -1      3382 3.07873E+00
 -1      3383 1.00643E+01
 -1      3384 8.98674E-01
 -1      3385 1.00748E+00
 -1      3386 1.01681E+00
 -1      3387 2.06409E-03
 -1      3388 2.01755E-03
 -1      3389 1.23003E+01
 -1      3390 2.94662E+00
 -1      3391 3.12886E+00
 -1      3392 2.92994E+00
 -1      3393 2.08727E+00
 -1      3394 1.88781E+00
 -1      3395 3.34717E+00
 -1      3396 2.16565E-03
 -1      3397 2.06614E-03
 -1      3398 2.11704E-03
 -1      3399 2.51527E-03
 -1      3400 1.57226E+00
 -1      3401 1.50531E+00
 -1      3402 2.07080E+00
 -1      3403 1.85565E+00
 -1      3404 1.91134E+00
 -1      3405 1.09485E+00
 -1      3406 4.89789E+00
 -1      3407 2.10944E+00
 -1      3408 2.42713E+00
 -1      3409 1.62690E+00
 -1      3410 2.06409E-03
 -1      3411 2.06409E-03
 -1      3412 2.16770E-03
 -1      3413 9.21600E+00
 -1      3414 6.88581E+00
 -1      3415 7.52571E+00
 -1      3416 6.52902E+00
 -1      3417 1.94939E-03
 -1      3418 1.98509E-03
 -1      3419 2.08870E-03
 -1      3420 1.94155E-03
 -1      3421 8.01142E+00
 -1      3422 7.50568E+00
 -1      3423 5.39447E+00
 -1      3424 8.59183E-01
 -1      3425 8.79557E-01
 -1      3426 9.26006E-01
 -1      3427 7.36827E+00
 -1      3428 8.41975E+00
 -1      3429 5.94247E+00
 -1      3430 4.32477E+00
 -1      3431 4.54326E+00
 -1      3432 1.16032E+01
 -1      3433 8.47427E+00
 -1      3434 8.20304E+00
 -1      3435 6.57841E+00
 -1      3436 1.05150E+01
 -1      3437 1.19546E+01
 -1      3438 8.43960E-01
 -1      3439 8.84062E-01
 -1      3440 7.64702E-01
 -1      3441 2.51275E+00
 -1      3442 1.00432E+00
 -1      3443 9.49561E-01
 -1      3444 9.71311E-01
 -1      3445 1.17147E+00
 -1      3446 9.77074E+00
 -1      3447 5.15711E+00
 -1      3448 2.69243E+00
 -1      3449 1.10374E+01
 -1      3450 1.09514E+00
 -1      3451 1.11945E+00
 -1      3452 9.28988E+00
 -1      3453 8.54235E+00
 -1      3454 1.05150E+01
 -1      3455 1.05150E+01
 -1      3456 2.06445E+00
 -1      3457 2.31364E+00
 -1      3458 2.79348E+00
 -1      3459 3.26658E+00
 -1      3460 2.89177E+00
 -1      3461 7.83972E+00
 -1      3462 8.88077E+00
 -1      3463 7.35887E+00
 -1      3464 4.28467E+00
 -1      3465 3.87190E+00
 -1      3466 2.92914E+00
 -1      3467 2.70071E+00
 -1      3468 4.55906E+00
 -1      3469 2.15063E+00
 -1      3470 1.97994E+00
 -1      3471 3.06623E+00
 -1      3472 1.59554E+00
 -1      3473 1.43909E+00
 -1      3474 2.13174E+00
 -1      3475 1.22350E+00
 -1      3476 1.10153E+00
 -1      3477 1.53176E+00
 -1      3478 9.64401E-01
 -1      3479 8.70487E-01
 -1      3480 1.17904E+00
 -1      3481 7.58357E-01
 -1      3482 6.88705E-01
 -1      3483 9.29781E-01
 -1      3484 5.98442E-01
 -1      3485 5.43051E-01
 -1      3486 7.27387E-01
 -1      3487 4.70673E-01
 -1      3488 4.21763E-01
 -1      3489 5.64746E-01
 -1      3490 3.63908E-01
 -1      3491 3.22537E-01
 -1      3492 4.34514E-01
 -1      3493 2.76525E-01
 -1      3494 2.42617E-01
 -1      3495 3.30647E-01
 -1      3496 2.06302E-01
 -1      3497 1.79214E-01
 -1      3498 2.48320E-01
 -1      3499 1.50838E-01
 -1      3500 1.29769E-01
 -1      3501 1.83629E-01
 -1      3502 1.08352E-01
 -1      3503 9.30074E-02
 -1      3504 1.33835E-01
 -1      3505 7.69920E-02
 -1      3506 6.54379E-02
 -1      3507 9.64020E-02
 -1      3508 5.32710E-02
 -1      3509 4.50014E-02
 -1      3510 6.82196E-02
 -1      3511 3.59081E-02
 -1      3512 3.01272E-02
 -1      3513 4.69593E-02
 -1      3514 2.34571E-02
 -1      3515 1.92826E-02
 -1      3516 3.11959E-02
 -1      3517 1.44962E-02
 -1      3518 1.15562E-02
 -1      3519 1.97394E-02
 -1      3520 8.21161E-03
 -1      3521 6.84526E-03
 -1      3522 1.16084E-02
 -1      3523 4.58603E-03
 -1      3524 4.76454E-03
 -1      3525 6.00455E-03
 -1      3526 4.68263E-03
 -1      3527 4.56051E-03
 -1      3528 3.66342E-03
 -1      3529 4.69163E-03
 -1      3530 4.38926E-03
 -1      3531 3.71263E-03
 -1      3532 4.29823E-03
 -1      3533 3.90027E-03
 -1      3534 3.75272E-03
 -1      3535 3.67737E-03
 -1      3536 3.31425E-03
 -1      3537 3.43879E-03
 -1      3538 2.16553E+00
 -1      3539 1.09152E+00
 -1      3540 1.09152E+00
 -1      3541 1.09181E+00
 -1      3542 1.01348E+00
 -1      3543 2.64605E+00
 -1      3544 2.51770E+00
 -1      3545 4.27527E+00
 -1      3546 4.33228E+00
 -1      3547 1.62410E+00
 -1      3548 1.79182E+00
 -1      3549 1.27106E+00
 -1      3550 1.37839E+00
 -1      3551 1.67836E+00
 -1      3552 9.86870E-01
 -1      3553 1.08836E+00
 -1      3554 1.24995E+00
 -1      3555 7.90404E-01
 -1      3556 8.75206E-01
 -1      3557 9.55592E-01
 -1      3558 6.35313E-01
 -1      3559 7.09881E-01
 -1      3560 7.63405E-01
 -1      3561 5.06805E-01
 -1      3562 5.70302E-01
 -1      3563 6.17871E-01
 -1      3564 3.97038E-01
 -1      3565 4.49381E-01
 -1      3566 4.95436E-01
 -1      3567 3.07171E-01
 -1      3568 3.48201E-01
 -1      3569 3.89174E-01
 -1      3570 2.33732E-01
 -1      3571 2.66754E-01
 -1      3572 2.99920E-01
 -1      3573 1.74728E-01
 -1      3574 2.01012E-01
 -1      3575 2.26783E-01
 -1      3576 1.28092E-01
 -1      3577 1.48753E-01
 -1      3578 1.68088E-01
 -1      3579 9.18363E-02
 -1      3580 1.07853E-01
 -1      3581 1.21874E-01
 -1      3582 6.43612E-02
 -1      3583 7.65898E-02
 -1      3584 8.63882E-02
 -1      3585 4.41674E-02
 -1      3586 5.33490E-02
 -1      3587 6.01295E-02
 -1      3588 2.91909E-02
 -1      3589 3.59567E-02
 -1      3590 4.09066E-02
 -1      3591 1.83184E-02
 -1      3592 2.31974E-02
 -1      3593 2.67023E-02
 -1      3594 1.07007E-02
 -1      3595 1.41288E-02
 -1      3596 1.65191E-02
 -1      3597 6.89606E-03
 -1      3598 7.82331E-03
 -1      3599 9.45212E-03
 -1      3600 5.54565E-03
 -1      3601 5.61116E-03
 -1      3602 5.28983E-03
 -1      3603 5.48122E-03
 -1      3604 5.79373E-03
 -1      3605 4.25301E-03
 -1      3606 5.05831E-03
 -1      3607 5.50710E-03
 -1      3608 4.52696E-03
 -1      3609 4.37061E-03
 -1      3610 4.87844E-03
 -1      3611 4.37296E-03
 -1      3612 3.68397E-03
 -1      3613 4.07621E-03
 -1      3614 3.89869E-03
 -1      3615 3.00612E-03
 -1      3616 3.38324E-03
 -1      3617 3.30357E-03
 -1      3618 1.96439E-03
 -1      3619 1.87341E-03
 -1      3620 2.15662E-03
 -1      3621 2.12459E-03
 -1      3622 2.40702E-03
 -1      3623 2.30677E-03
 -1      3624 1.27680E+00
 -1      3625 1.40430E+00
 -1      3626 1.25278E+00
 -1      3627 1.60714E+00
 -1      3628 1.45117E+00
 -1      3629 2.62630E+00
 -1      3630 8.65571E+00
 -1      3631 8.65571E+00
 -1      3632 2.21723E+00
 -1      3633 2.45195E+00
 -1      3634 2.34949E+00
 -1      3635 3.24350E+00
 -1      3636 3.42119E+00
 -1      3637 3.56647E+00
 -1      3638 2.71052E+00
 -1      3639 4.66489E+00
 -1      3640 8.72970E+00
 -1      3641 8.65571E+00
 -1      3642 7.81237E+00
 -1      3643 6.85003E+00
 -1      3644 3.06378E+00
 -1      3645 6.56636E+00
 -1      3646 7.99510E+00
 -1      3647 4.83871E+00
 -1      3648 3.94047E+00
 -1      3649 3.59090E+00
 -1      3650 5.80460E+00
 -1      3651 1.67428E+00
 -1      3652 1.83353E+00
 -1      3653 2.18102E+00
 -1      3654 6.08076E+00
 -1      3655 6.56383E+00
 -1      3656 8.86681E+00
 -1      3657 1.01297E+01
 -1      3658 6.15746E-01
 -1      3659 7.23217E-01
 -1      3660 7.87862E-01
 -1      3661 7.49250E-01
 -1      3662 1.11956E+00
 -1      3663 1.07344E+00
 -1      3664 8.91060E-01
 -1      3665 9.45774E-01
 -1      3666 1.02048E+00
 -1      3667 3.73440E+00
 -1      3668 7.23705E+00
 -1      3669 6.56337E+00
 -1      3670 5.88926E+00
 -1      3671 6.49836E+00
 -1      3672 5.21833E+00
 -1      3673 5.11330E+00
 -1      3674 7.30469E+00
 -1      3675 6.41472E+00
 -1      3676 7.30469E+00
 -1      3677 3.99071E+00
 -1      3678 3.47352E+00
 -1      3679 2.92994E+00
 -1      3680 2.85037E-03
 -1      3681 2.85037E-03
 -1      3682 1.68012E+00
 -1      3683 3.04089E-03
 -1      3684 2.71156E-03
 -1      3685 2.47286E-03
 -1      3686 2.94252E-03
 -1      3687 5.21210E+00
 -1      3688 2.58527E-03
 -1      3689 2.72434E-03
 -1      3690 4.34686E+00
 -1      3691 2.08227E-03
 -1      3692 2.08227E-03
 -1      3693 2.15042E-03
 -1      3694 2.43507E-03
 -1      3695 2.34409E-03
 -1      3696 2.43507E-03
 -1      3697 2.72762E-03
 -1      3698 5.08982E+00
 -1      3699 3.77817E+00
 -1      3700 9.79384E-01
 -1      3701 8.39043E+00
 -1      3702 6.58475E+00
 -1      3703 6.40331E+00
 -1      3704 5.50106E+00
 -1      3705 7.42489E+00
 -1      3706 5.70900E+00
 -1      3707 9.77610E-01
 -1      3708 9.61326E-01
 -1      3709 2.31333E-03
 -1      3710 3.47352E+00
 -1      3711 6.06872E+00
 -1      3712 7.51212E+00
 -1      3713 9.66324E+00
 -1      3714 7.87793E+00
 -1      3715 7.49267E+00
 -1      3716 3.26795E-03
 -1      3717 3.14941E+00
 -1      3718 9.77610E-01
 -1      3719 1.17053E+00
 -1      3720 1.07248E+00
 -1      3721 2.74196E-03
 -1      3722 2.38614E-03
 -1      3723 2.43507E-03
 -1      3724 3.01533E-03
 -1      3725 1.52462E+00
 -1      3726 1.26005E+00
 -1      3727 3.58564E+00
 -1      3728 3.27009E+00
 -1      3729 4.16089E+00
 -1      3730 4.12923E+00
 -1      3731 1.24493E+00
 -1      3732 5.19889E+00
 -1      3733 7.04561E+00
 -1      3734 7.49267E+00
 -1      3735 4.71905E+00
 -1      3736 5.86212E+00
 -1      3737 5.47467E+00
 -1      3738 4.53192E+00
 -1      3739 6.14878E+00
 -1      3740 5.86734E+00
 -1      3741 6.27646E+00
 -1      3742 2.57131E-03
 -1      3743 3.25398E-03
 -1      3744 2.49230E-03
 -1      3745 3.47352E+00
 -1      3746 4.80805E+00
 -1      3747 1.97755E+00
 -1      3748 2.24753E+00
 -1      3749 4.14765E+00
 -1      3750 3.59757E+00
 -1      3751 5.06326E+00
 -1      3752 2.48568E+00
 -1      3753 2.10128E+00
 -1      3754 3.56711E+00
 -1      3755 1.71660E+00
 -1      3756 1.50102E+00
 -1      3757 2.07054E+00
 -1      3758 1.28881E+00
 -1      3759 1.15168E+00
 -1      3760 1.47365E+00
 -1      3761 9.93478E-01
 -1      3762 8.81348E-01
 -1      3763 1.10324E+00
 -1      3764 7.66759E-01
 -1      3765 6.76496E-01
 -1      3766 8.30457E-01
 -1      3767 5.91044E-01
 -1      3768 5.18666E-01
 -1      3769 6.30417E-01
 -1      3770 4.53608E-01
 -1      3771 3.95754E-01
 -1      3772 4.79907E-01
 -1      3773 3.45495E-01
 -1      3774 2.99484E-01
 -1      3775 3.64590E-01
 -1      3776 2.60383E-01
 -1      3777 2.24068E-01
 -1      3778 2.75231E-01
 -1      3779 1.93634E-01
 -1      3780 1.65257E-01
 -1      3781 2.05696E-01
 -1      3782 1.41679E-01
 -1      3783 1.20262E-01
 -1      3784 1.51684E-01
 -1      3785 1.02151E-01
 -1      3786 8.61355E-02
 -1      3787 1.09995E-01
 -1      3788 7.23846E-02
 -1      3789 6.02177E-02
 -1      3790 7.81335E-02
 -1      3791 4.99254E-02
 -1      3792 4.08321E-02
 -1      3793 5.40904E-02
 -1      3794 3.36252E-02
 -1      3795 2.69551E-02
 -1      3796 3.65913E-02
 -1      3797 2.17827E-02
 -1      3798 1.69963E-02
 -1      3799 2.42120E-02
 -1      3800 1.32841E-02
 -1      3801 9.93953E-03
 -1      3802 1.53275E-02
 -1      3803 7.34384E-03
 -1      3804 5.08461E-03
 -1      3805 9.01959E-03
 -1      3806 3.52639E-03
 -1      3807 3.44448E-03
 -1      3808 4.86568E-03
 -1      3809 2.97289E-03
 -1      3810 3.10401E-03
 -1      3811 2.83586E-03
 -1      3812 3.40659E-03
 -1      3813 3.31556E-03
 -1      3814 2.66685E-03
 -1      3815 3.35176E-03
 -1      3816 3.12886E-03
 -1      3817 3.00563E-03
 -1      3818 1.21158E+00
 -1      3819 1.39428E+00
 -1      3820 1.24802E+00
 -1      3821 1.15944E+00
 -1      3822 1.11647E+00
 -1      3823 1.64340E+00
 -1      3824 1.88911E+00
 -1      3825 1.60502E+00
 -1      3826 7.63405E-01
 -1      3827 8.43928E-01
 -1      3828 6.08009E-01
 -1      3829 6.73020E-01
 -1      3830 7.53543E-01
 -1      3831 4.77819E-01
 -1      3832 5.35243E-01
 -1      3833 5.90392E-01
 -1      3834 3.70522E-01
 -1      3835 4.19359E-01
 -1      3836 4.59166E-01
 -1      3837 2.83271E-01
 -1      3838 3.23689E-01
 -1      3839 3.53873E-01
 -1      3840 2.13217E-01
 -1      3841 2.45937E-01
 -1      3842 2.69705E-01
 -1      3843 1.57706E-01
 -1      3844 1.83681E-01
 -1      3845 2.02834E-01
 -1      3846 1.14335E-01
 -1      3847 1.34575E-01
 -1      3848 1.50167E-01
 -1      3849 8.11939E-02
 -1      3850 9.64404E-02
 -1      3851 1.09141E-01
 -1      3852 5.65323E-02
 -1      3853 6.75445E-02
 -1      3854 7.75967E-02
 -1      3855 3.82542E-02
 -1      3856 4.64650E-02
 -1      3857 5.38799E-02
 -1      3858 2.51620E-02
 -1      3859 3.11555E-02
 -1      3860 3.67139E-02
 -1      3861 1.57583E-02
 -1      3862 1.99480E-02
 -1      3863 2.44012E-02
 -1      3864 9.13425E-03
 -1      3865 1.20116E-02
 -1      3866 1.54405E-02
 -1      3867 5.24644E-03
 -1      3868 6.53133E-03
 -1      3869 9.09086E-03
 -1      3870 3.86742E-03
 -1      3871 3.61934E-03
 -1      3872 4.86085E-03
 -1      3873 3.68665E-03
 -1      3874 3.66078E-03
 -1      3875 3.02711E-03
 -1      3876 3.69899E-03
 -1      3877 3.87886E-03
 -1      3878 3.01268E-03
 -1      3879 3.56867E-03
 -1      3880 3.86307E-03
 -1      3881 3.36897E-03
 -1      3882 3.56867E-03
 -1      3883 1.07095E+00
 -1      3884 1.06599E+00
 -1      3885 1.16404E+00
 -1      3886 1.16004E+00
 -1      3887 6.01324E+00
 -1      3888 4.39694E+00
 -1      3889 5.05264E+00
 -1      3890 5.21464E+00
 -1      3891 1.46053E+00
 -1      3892 1.61788E+00
 -1      3893 2.18529E+00
 -1      3894 2.09413E+00
 -1      3895 2.51955E+00
 -1      3896 2.05916E+00
 -1      3897 3.39025E+00
 -1      3898 2.47968E+00
 -1      3899 1.32812E+00
 -1      3900 1.24263E+00
 -1      3901 1.24014E+00
 -1      3902 3.53304E-03
 -1      3903 2.69243E+00
 -1      3904 1.09878E+00
 -1      3905 8.89575E-01
 -1      3906 6.07073E+00
 -1      3907 6.07073E+00
 -1      3908 9.55592E-01
 -1      3909 1.06726E+00
 -1      3910 9.55592E-01
 -1      3911 4.02227E+00
 -1      3912 4.87888E+00
 -1      3913 4.30868E+00
 -1      3914 3.23071E+00
 -1      3915 6.54417E+00
 -1      3916 2.74760E+00
 -1      3917 2.97851E+00
 -1      3918 3.04503E+00
 -1      3919 1.68640E+00
 -1      3920 1.49529E+00
 -1      3921 1.48990E+00
 -1      3922 2.45035E+00
 -1      3923 6.66211E+00
 -1      3924 5.23710E+00
 -1      3925 5.81034E+00
 -1      3926 2.63303E-03
 -1      3927 3.25398E-03
 -1      3928 3.53304E-03
 -1      3929 3.53304E-03
 -1      3930 5.00386E+00
 -1      3931 5.53889E+00
 -1      3932 4.45648E+00
 -1      3933 2.97534E+00
 -1      3934 2.92830E-03
 -1      3935 1.21158E+00
 -1      3936 7.02616E+00
 -1      3937 5.28563E+00
 -1      3938 1.98529E-03
 -1      3939 2.19416E-03
 -1      3940 5.58224E+00
 -1      3941 4.80294E+00
 -1      3942 5.31696E+00
 -1      3943 2.81477E-03
 -1      3944 5.05264E+00
 -1      3945 2.40269E-03
 -1      3946 1.93201E-03
 -1      3947 2.04389E-03
 -1      3948 5.11772E+00
 -1      3949 5.03388E+00
 -1      3950 4.33957E+00
 -1      3951 1.09181E+00
 -1      3952 1.09543E+00
 -1      3953 1.46053E+00
 -1      3954 1.02410E+00
 -1      3955 1.46324E+00
 -1      3956 1.39149E+00
 -1      3957 5.36948E+00
 -1      3958 8.86701E-01
 -1      3959 1.46324E+00
 -1      3960 1.46324E+00
 -1      3961 1.75595E+00
 -1      3962 4.16089E+00
 -1      3963 4.01428E+00
 -1      3964 1.06773E+00
 -1      3965 1.10922E+00
 -1      3966 1.17093E+00
 -1      3967 1.20806E+00
 -1      3968 1.97478E+00
 -1      3969 1.61032E+00
 -1      3970 4.16597E-01
 -1      3971 4.75057E-01
 -1      3972 4.98521E+00
 -1      3973 2.19661E+00
 -1      3974 1.81194E+00
 -1      3975 1.43892E+00
 -1      3976 1.22671E+00
 -1      3977 1.56499E+00
 -1      3978 1.05812E+00
 -1      3979 8.99920E-01
 -1      3980 1.02338E+00
 -1      3981 7.86731E-01
 -1      3982 6.72143E-01
 -1      3983 7.41606E-01
 -1      3984 5.92858E-01
 -1      3985 5.07406E-01
 -1      3986 5.49132E-01
 -1      3987 4.50145E-01
 -1      3988 3.85087E-01
 -1      3989 4.12586E-01
 -1      3990 3.42184E-01
 -1      3991 2.91926E-01
 -1      3992 3.12423E-01
 -1      3993 2.59068E-01
 -1      3994 2.19967E-01
 -1      3995 2.36662E-01
 -1      3996 1.94528E-01
 -1      3997 1.64093E-01
 -1      3998 1.78364E-01
 -1      3999 1.44540E-01
 -1      4000 1.20962E-01
 -1      4001 1.33371E-01
 -1      4002 1.06480E-01
 -1      4003 8.83688E-02
 -1      4004 9.93353E-02
 -1      4005 7.70043E-02
 -1      4006 6.32535E-02
 -1      4007 7.34887E-02
 -1      4008 5.44504E-02
 -1      4009 4.41581E-02
 -1      4010 5.33211E-02
 -1      4011 3.74383E-02
 -1      4012 3.02314E-02
 -1      4013 3.77982E-02
 -1      4014 2.55292E-02
 -1      4015 2.03568E-02
 -1      4016 2.63761E-02
 -1      4017 1.68993E-02
 -1      4018 1.31871E-02
 -1      4019 1.82164E-02
 -1      4020 1.06145E-02
 -1      4021 8.01885E-03
 -1      4022 1.21864E-02
 -1      4023 6.14104E-03
 -1      4024 4.58281E-03
 -1      4025 7.73598E-03
 -1      4026 3.24177E-03
 -1      4027 2.77018E-03
 -1      4028 4.51713E-03
 -1      4029 1.88400E-03
 -1      4030 2.18658E-03
 -1      4031 2.28991E-03
 -1      4032 1.60502E+00
 -1      4033 1.85414E+00
 -1      4034 5.42442E-01
 -1      4035 6.15207E-01
 -1      4036 4.99873E-01
 -1      4037 7.05561E-01
 -1      4038 7.95946E-01
 -1      4039 6.57611E-01
 -1      4040 3.18369E-01
 -1      4041 3.65202E-01
 -1      4042 3.81093E-01
 -1      4043 2.41238E-01
 -1      4044 2.78573E-01
 -1      4045 2.89902E-01
 -1      4046 1.80679E-01
 -1      4047 2.10215E-01
 -1      4048 2.19083E-01
 -1      4049 1.33362E-01
 -1      4050 1.56493E-01
 -1      4051 1.63874E-01
 -1      4052 9.67066E-02
 -1      4053 1.14601E-01
 -1      4054 1.20928E-01
 -1      4055 6.86323E-02
 -1      4056 8.22817E-02
 -1      4057 8.77422E-02
 -1      4058 4.76038E-02
 -1      4059 5.76712E-02
 -1      4060 6.23562E-02
 -1      4061 3.22950E-02
 -1      4062 3.93937E-02
 -1      4063 4.31849E-02
 -1      4064 2.14381E-02
 -1      4065 2.66521E-02
 -1      4066 2.93319E-02
 -1      4067 1.35936E-02
 -1      4068 1.73403E-02
 -1      4069 1.95912E-02
 -1      4070 8.03261E-03
 -1      4071 1.06355E-02
 -1      4072 1.25354E-02
 -1      4073 4.52508E-03
 -1      4074 6.15217E-03
 -1      4075 7.69683E-03
 -1      4076 3.02711E-03
 -1      4077 3.23376E-03
 -1      4078 4.52508E-03
 -1      4079 2.54979E-03
 -1      4080 2.35757E-03
 -1      4081 2.56422E-03
 -1      4082 3.14846E-03
 -1      4083 2.98438E-03
 -1      4084 2.32928E-03
 -1      4085 3.14846E-03
 -1      4086 1.21158E+00
 -1      4087 1.35590E+00
 -1      4088 1.60502E+00
 -1      4089 2.16775E+00
 -1      4090 2.37277E+00
 -1      4091 2.16775E+00
 -1      4092 1.48807E+00
 -1      4093 1.40547E+00
 -1      4094 1.41196E+00
 -1      4095 1.65523E+00
 -1      4096 3.31344E+00
 -1      4097 3.93561E+00
 -1      4098 3.34433E+00
 -1      4099 2.60228E+00
 -1      4100 5.88565E+00
 -1      4101 5.88565E+00
 -1      4102 4.66983E+00
 -1      4103 4.14512E+00
 -1      4104 2.92830E-03
 -1      4105 2.51622E-03
 -1      4106 2.46213E-03
 -1      4107 2.80401E-03
 -1      4108 3.08308E-03
 -1      4109 2.36514E-03
 -1      4110 2.00962E+00
 -1      4111 2.36929E+00
 -1      4112 3.23896E+00
 -1      4113 3.73903E+00
 -1      4114 3.06329E+00
 -1      4115 9.20642E-01
 -1      4116 1.03231E+00
 -1      4117 1.17663E+00
 -1      4118 8.72660E-01
 -1      4119 4.52337E+00
 -1      4120 4.21715E+00
 -1      4121 3.10527E+00
 -1      4122 2.84666E+00
 -1      4123 4.64571E+00
 -1      4124 3.76988E+00
 -1      4125 4.00313E+00
 -1      4126 2.71086E+00
 -1      4127 2.43519E-03
 -1      4128 2.47139E-03
 -1      4129 4.89736E+00
 -1      4130 3.89485E+00
 -1      4131 3.61177E+00
 -1      4132 4.03488E+00
 -1      4133 4.09834E+00
 -1      4134 3.32769E+00
 -1      4135 4.33905E+00
 -1      4136 1.24226E+00
 -1      4137 1.70467E+00
 -1      4138 1.79135E+00
 -1      4139 3.76988E+00
 -1      4140 1.99652E-03
 -1      4141 2.26449E-03
 -1      4142 4.78493E+00
 -1      4143 1.94578E-03
 -1      4144 2.84446E+00
 -1      4145 2.84446E+00
 -1      4146 2.89849E+00
 -1      4147 2.10520E+00
 -1      4148 2.10337E+00
 -1      4149 2.98254E+00
 -1      4150 2.84446E+00
 -1      4151 1.65234E-03
 -1      4152 3.93297E+00
 -1      4153 1.94324E-03
 -1      4154 3.42585E+00
 -1      4155 2.51719E+00
 -1      4156 1.04407E+00
 -1      4157 8.75483E-01
 -1      4158 7.67002E-01
 -1      4159 6.53813E-01
 -1      4160 7.87690E-01
 -1      4161 5.73176E-01
 -1      4162 4.93891E-01
 -1      4163 5.98572E-01
 -1      4164 4.35025E-01
 -1      4165 3.77764E-01
 -1      4166 4.59069E-01
 -1      4167 3.32897E-01
 -1      4168 2.89995E-01
 -1      4169 3.55336E-01
 -1      4170 2.54903E-01
 -1      4171 2.22045E-01
 -1      4172 2.75378E-01
 -1      4173 1.94239E-01
 -1      4174 1.68800E-01
 -1      4175 2.12481E-01
 -1      4176 1.46691E-01
 -1      4177 1.27137E-01
 -1      4178 1.62566E-01
 -1      4179 1.09615E-01
 -1      4180 9.51328E-02
 -1      4181 1.22935E-01
 -1      4182 8.13525E-02
 -1      4183 6.99880E-02
 -1      4184 9.16322E-02
 -1      4185 5.92663E-02
 -1      4186 5.04632E-02
 -1      4187 6.71301E-02
 -1      4188 4.22284E-02
 -1      4189 3.55085E-02
 -1      4190 4.81735E-02
 -1      4191 2.93194E-02
 -1      4192 2.46171E-02
 -1      4193 3.37495E-02
 -1      4194 2.03825E-02
 -1      4195 1.69251E-02
 -1      4196 2.33258E-02
 -1      4197 1.37488E-02
 -1      4198 1.11762E-02
 -1      4199 1.59150E-02
 -1      4200 8.83586E-03
 -1      4201 6.95805E-03
 -1      4202 1.03983E-02
 -1      4203 5.26639E-03
 -1      4204 3.92534E-03
 -1      4205 6.36626E-03
 -1      4206 2.72728E-03
 -1      4207 1.84111E-03
 -1      4208 3.47654E-03
 -1      4209 3.57013E-01
 -1      4210 4.08408E-01
 -1      4211 3.70542E+00
 -1      4212 6.17167E-01
 -1      4213 7.07520E-01
 -1      4214 2.05986E-01
 -1      4215 2.37010E-01
 -1      4216 1.54495E-01
 -1      4217 1.78681E-01
 -1      4218 1.96607E-01
 -1      4219 1.14364E-01
 -1      4220 1.33125E-01
 -1      4221 1.47931E-01
 -1      4222 8.32780E-02
 -1      4223 9.77028E-02
 -1      4224 1.09900E-01
 -1      4225 5.94314E-02
 -1      4226 7.03926E-02
 -1      4227 8.03532E-02
 -1      4228 4.13668E-02
 -1      4229 4.95769E-02
 -1      4230 5.76133E-02
 -1      4231 2.86091E-02
 -1      4232 3.42520E-02
 -1      4233 4.06440E-02
 -1      4234 1.93091E-02
 -1      4235 2.34069E-02
 -1      4236 2.83270E-02
 -1      4237 1.24776E-02
 -1      4238 1.54357E-02
 -1      4239 1.92514E-02
 -1      4240 7.76692E-03
 -1      4241 9.64736E-03
 -1      4242 1.25477E-02
 -1      4243 4.48779E-03
 -1      4244 5.77911E-03
 -1      4245 7.72963E-03
 -1      4246 2.48782E-03
 -1      4247 3.15736E-03
 -1      4248 4.41139E-03
 -1      4249 1.94363E+00
 -1      4250 2.25724E+00
 -1      4251 4.68208E-01
 -1      4252 5.35592E-01
 -1      4253 5.85502E-01
 -1      4254 4.44128E-01
 -1      4255 4.26374E+00
 -1      4256 2.14099E-03
 -1      4257 2.59095E-03
 -1      4258 2.20637E-03
 -1      4259 1.77236E-03
 -1      4260 1.55685E+00
 -1      4261 1.18383E+00
 -1      4262 1.03593E+00
 -1      4263 2.13604E+00
 -1      4264 2.97831E+00
 -1      4265 3.20781E+00
 -1      4266 1.46802E+00
 -1      4267 1.71714E+00
 -1      4268 1.80663E+00
 -1      4269 3.41174E+00
 -1      4270 2.15465E+00
 -1      4271 3.24316E+00
 -1      4272 2.71974E-01
 -1      4273 3.11770E-01
 -1      4274 3.39085E-01
 -1      4275 1.89840E-03
 -1      4276 1.64980E-03
 -1      4277 2.08717E-03
 -1      4278 1.60736E+00
 -1      4279 3.67235E+00
 -1      4280 4.26374E+00
 -1      4281 2.58877E-01
 -1      4282 2.75419E+00
 -1      4283 2.03809E-03
 -1      4284 1.60350E-03
 -1      4285 2.19664E-03
 -1      4286 1.48059E-03
 -1      4287 1.26291E+00
 -1      4288 1.37503E+00
 -1      4289 1.08363E+00
 -1      4290 7.81624E-01
 -1      4291 8.22068E-01
 -1      4292 9.46764E-01
 -1      4293 2.32100E-01
 -1      4294 2.67064E-01
 -1      4295 6.73142E-01
 -1      4296 5.92506E-01
 -1      4297 5.10931E-01
 -1      4298 4.52065E-01
 -1      4299 3.92266E-01
 -1      4300 3.47399E-01
 -1      4301 3.02155E-01
 -1      4302 2.04294E-01
 -1      4303 1.76988E-01
 -1      4304 1.54879E-01
 -1      4305 1.33509E-01
 -1      4306 1.15987E-01
 -1      4307 9.93255E-02
 -1      4308 8.55452E-02
 -1      4309 7.26598E-02
 -1      4310 6.19380E-02
 -1      4311 5.20835E-02
 -1      4312 4.38488E-02
 -1      4313 3.67340E-02
 -1      4314 3.05448E-02
 -1      4315 2.53426E-02
 -1      4316 2.11080E-02
 -1      4317 1.72346E-02
 -1      4318 1.40583E-02
 -1      4319 1.12281E-02
 -1      4320 8.88768E-03
 -1      4321 6.89987E-03
 -1      4322 5.20821E-03
 -1      4323 3.87778E-03
 -1      4324 2.67972E-03
 -1      4325 8.96171E-01
 -1      4326 7.87690E-01
 -1      4327 3.28582E+00
 -1      4328 1.60409E-03
 -1      4329 3.67235E+00
 -1      4330 1.79540E-03
 -1      4331 2.56475E+00
 -1      4332 1.17280E+00
 -1      4333 1.03304E+00
 -1      4334 2.33826E+00
 -1      4335 1.37792E+00
 -1      4336 1.03304E+00
 -3
 9999
